x	y	stress_yy
 1.000000000000000e+000	 0.000000000000000e+000	 3.101505024000354e+001
 9.999553790721549e-001	 9.446392261750538e-003	 3.099985826361721e+001
 9.998208276644109e-001	 1.892867080636967e-002	 3.097234644622585e+001
 9.995953221430520e-001	 2.844573836262591e-002	 3.093253428643449e+001
 9.992778519071311e-001	 3.799646941872217e-002	 3.088043854375574e+001
 9.988674201817244e-001	 4.757971027342478e-002	 3.081607308088915e+001
 9.983630448185402e-001	 5.719427911104237e-002	 3.073944870354451e+001
 9.977637591031844e-001	 6.683896610081598e-002	 3.065057299779951e+001
 9.970686125683426e-001	 7.651253352126188e-002	 3.054945016501827e+001
 9.962766718121099e-001	 8.621371590998765e-002	 3.043608085439649e+001
 9.953870213206724e-001	 9.594122023947824e-002	 3.031046199324387e+001
 1.026666858896872e+000	 0.000000000000000e+000	 2.908586285976337e+001
 1.026621048068823e+000	 9.698297869740000e-003	 2.907952444973871e+001
 1.026482908597069e+000	 1.943343899728709e-002	 2.906188099852987e+001
 1.026251389550869e+000	 2.920429685057105e-002	 2.903288261532606e+001
 1.025925453379797e+000	 3.900971590386780e-002	 2.899247926444916e+001
 1.025504076728145e+000	 4.884851169029192e-002	 2.894061919986022e+001
 1.024986251256887e+000	 5.871947087877485e-002	 2.887724894195846e+001
 1.024370984472468e+000	 6.862135137610564e-002	 2.880231325227175e+001
 1.023657300561674e+000	 7.855288245458952e-002	 2.871575510575909e+001
 1.022844241231782e+000	 8.851276490585899e-002	 2.861751566048125e+001
 1.021930866555178e+000	 9.849967122134781e-002	 2.850753422443686e+001
 1.053334071134978e+000	 0.000000000000000e+000	 2.740853402718361e+001
 1.053287070390996e+000	 9.950206815530271e-003	 2.740743003208235e+001
 1.053145342807795e+000	 1.993821387648614e-002	 2.739623134873814e+001
 1.052907810157237e+000	 2.996286538957084e-002	 2.737482662232576e+001
 1.052573407939045e+000	 4.002297581473555e-002	 2.734310464480465e+001
 1.052141086216367e+000	 5.011732991903531e-002	 2.730095294433378e+001
 1.051609810459080e+000	 6.024468285560675e-002	 2.724825787440493e+001
 1.050978562394118e+000	 7.040376026835926e-002	 2.718490470139283e+001
 1.050246340862016e+000	 8.059325842294961e-002	 2.711077768997754e+001
 1.049412162678889e+000	 9.081184436458799e-002	 2.702576018592822e+001
 1.048475063502991e+000	 1.010581561031999e-001	 2.692973469577869e+001
 1.080001590045551e+000	 0.000000000000000e+000	 2.594894589021414e+001
 1.079953399371986e+000	 1.020211865827080e-002	 2.595013052619761e+001
 1.079808083636172e+000	 2.044299456059085e-002	 2.594256448496592e+001
 1.079564537312246e+000	 3.072144265210019e-002	 2.592608050682438e+001
 1.079221668949764e+000	 4.103624737807987e-002	 2.590051101935718e+001
 1.078778402030408e+000	 5.138616273917134e-002	 2.586568693997097e+001
 1.078233675832652e+000	 6.176991237235382e-002	 2.582143785452545e+001
 1.077586446303606e+000	 7.218618965828590e-002	 2.576759219502923e+001
 1.076835686937253e+000	 8.263365785559591e-002	 2.570397741562691e+001
 1.075980389658249e+000	 9.311095026268368e-002	 2.563042016613840e+001
 1.075019565710423e+000	 1.036166704075697e-001	 2.554674646245191e+001
 1.106669368959824e+000	 0.000000000000000e+000	 2.467587239725636e+001
 1.106619988345106e+000	 1.045403295711104e-002	 2.467703659604680e+001
 1.106471084421780e+000	 2.094778016622530e-002	 2.467086988646631e+001
 1.106221524365987e+000	 3.148002731063399e-002	 2.465715383994522e+001
 1.105870189776840e+000	 4.204952882065515e-002	 2.463566856918664e+001
 1.105415977554288e+000	 5.265500793021637e-002	 2.460619178180838e+001
 1.104857800785134e+000	 6.329515675983194e-002	 2.456849902733517e+001
 1.104194589636403e+000	 7.396863642659465e-002	 2.452236394398020e+001
 1.103425292255272e+000	 8.467407718178245e-002	 2.446755850424366e+001
 1.102548875674684e+000	 9.541007857665526e-002	 2.440385325839248e+001
 1.101564326723789e+000	 1.061752096569921e-001	 2.433101757493077e+001
 1.133337361209029e+000	 0.000000000000000e+000	 2.356064058156434e+001
 1.133286790643667e+000	 1.070594927120045e-002	 2.356007953754320e+001
 1.133134298504202e+000	 2.145256981001351e-002	 2.355362998153623e+001
 1.132878724668551e+000	 3.223861803764715e-002	 2.354102627832045e+001
 1.132518923785160e+000	 4.306281836921582e-002	 2.352199956571166e+001
 1.132053766172025e+000	 5.392386327168684e-002	 2.349627707532777e+001
 1.131482138724057e+000	 6.482041334885690e-002	 2.346358242842104e+001
 1.130802945827984e+000	 7.575109745399461e-002	 2.342363593224959e+001
 1.130015110283960e+000	 8.671451283076302e-002	 2.337615487584273e+001
 1.129117574233009e+000	 9.770922528301185e-002	 2.332085382405527e+001
 1.128109300089399e+000	 1.087337693740023e-001	 2.325744490885915e+001
 1.160005520124402e+000	 0.000000000000000e+000	 2.257683726453605e+001
 1.159953759600982e+000	 1.095786715968847e-002	 2.257342288287143e+001
 1.159797679223019e+000	 2.195736260857955e-002	 2.256553603586012e+001
 1.159536091570028e+000	 3.299721350561456e-002	 2.255286711436363e+001
 1.159167824339611e+000	 4.407611425051634e-002	 2.253510095446541e+001
 1.158691721267636e+000	 5.519272654309910e-002	 2.251191641938672e+001
 1.158106643056953e+000	 6.634567947024450e-002	 2.248298672617829e+001
 1.157411468313821e+000	 7.753356962119486e-002	 2.244797977367391e+001
 1.156605094491205e+000	 8.875496123179154e-002	 2.240655847040824e+001
 1.155686438838045e+000	 1.000083863582625e-001	 2.235838106124759e+001
 1.154654439353568e+000	 1.112923450811353e-001	 2.230310145154542e+001
 1.186673799037174e+000	 0.000000000000000e+000	 2.170005529121342e+001
 1.186620848550362e+000	 1.120978618172457e-002	 2.169321287480778e+001
 1.186461179917815e+000	 2.246215767854746e-002	 2.168324232898445e+001
 1.186193578420509e+000	 3.375581238701112e-002	 2.166979261405503e+001
 1.185816844805080e+000	 4.508941469131111e-002	 2.165250430787997e+001
 1.185329796225141e+000	 5.646159552396951e-002	 2.163100942258132e+001
 1.184731267191354e+000	 6.787095245481059e-002	 2.160493174559288e+001
 1.184020110529385e+000	 7.931604980890453e-002	 2.157388718261239e+001
 1.183195198344893e+000	 9.079541881412187e-002	 2.153748410102026e+001
 1.182255422994611e+000	 1.023075577789164e-001	 2.149532367238621e+001
 1.181199698062608e+000	 1.138509323009261e-001	 2.144700021275812e+001
 1.213342151278578e+000	 0.000000000000000e+000	 2.090767321957973e+001
 1.213288010825121e+000	 1.146170589645821e-002	 2.089736183439229e+001
 1.213124753928168e+000	 2.296695413654130e-002	 2.088515273169036e+001
 1.212851138570086e+000	 3.451441335431171e-002	 2.087065533193217e+001
 1.212465938546455e+000	 4.610271791835456e-002	 2.085346740107397e+001
 1.211967944428558e+000	 5.773046799381450e-002	 2.083317505859032e+001
 1.211355964534790e+000	 6.939622963337104e-002	 2.080935311781030e+001
 1.210628825910150e+000	 8.109853489783273e-002	 2.078156542865533e+001
 1.209785375312910e+000	 9.283588200700786e-002	 2.074936522121437e+001
 1.208824480207525e+000	 1.046067355214826e-001	 2.071229544866274e+001
 1.207745029762830e+000	 1.164095265559097e-001	 2.066988912811699e+001
 1.240010530179849e+000	 0.000000000000000e+000	 2.017866343040652e+001
 1.239955199758569e+000	 1.171362586303883e-002	 2.016535947297219e+001
 1.239788354593661e+000	 2.347175109918510e-002	 2.015123480932312e+001
 1.239508725368846e+000	 3.527301507999124e-002	 2.013586059204233e+001
 1.239115058928623e+000	 4.711602215840111e-002	 2.011879265264782e+001
 1.238606119261905e+000	 5.899934173215044e-002	 2.009957164519687e+001
 1.237980688494794e+000	 7.092150833674159e-002	 2.007772337222468e+001
 1.237237567891588e+000	 8.288102176868853e-002	 2.005275911338050e+001
 1.236375578863144e+000	 9.487634723970344e-002	 2.002417595507364e+001
 1.235393563981607e+000	 1.069059155624702e-001	 1.999145711952687e+001
 1.234290388000549e+000	 1.189681233686213e-001	 1.995407229173872e+001
 1.266678889072220e+000	 0.000000000000000e+000	 1.949342447164486e+001
 1.266622368684020e+000	 1.196554564061589e-002	 1.947810803269193e+001
 1.266451935253877e+000	 2.397654768310291e-002	 1.946285739673236e+001
 1.266166292166884e+000	 3.603161623652462e-002	 1.944720613348795e+001
 1.265764159316469e+000	 4.812932563820523e-002	 1.943066847340033e+001
 1.265244274109201e+000	 6.026821451849370e-002	 1.941273952540730e+001
 1.264605392478897e+000	 7.244678589573808e-002	 1.939289557615546e+001
 1.263846289909172e+000	 8.466350730218104e-002	 1.937059439193724e+001
 1.262965762463481e+000	 9.691681094146247e-002	 1.934527552154081e+001
 1.261962627821675e+000	 1.092050938783884e-001	 1.931636059830330e+001
 1.260835726322077e+000	 1.215267182615958e-001	 1.928325363978263e+001
 9.953870213206724e-001	 9.594122023947824e-002	 3.031046199324386e+001
 9.943989199946590e-001	 1.056922649420928e-001	 3.017230512597745e+001
 9.933113650226918e-001	 1.154669775827054e-001	 3.002120313161402e+001
 9.921235000424146e-001	 1.252640057452699e-001	 2.985704317180302e+001
 9.908344898374509e-001	 1.350819710464206e-001	 2.967972861080930e+001
 9.894435211587170e-001	 1.449194694473044e-001	 2.948917951562991e+001
 9.879498035443917e-001	 1.547750715930050e-001	 2.928533313960161e+001
 9.863525701375676e-001	 1.646473231798204e-001	 2.906814438826210e+001
 9.846510785005697e-001	 1.745347453506194e-001	 2.883758626628494e+001
 9.828446114249161e-001	 1.844358351184653e-001	 2.859365030436777e+001
 9.809324777358749e-001	 1.943490658186562e-001	 2.833634696502286e+001
 1.021930866555178e+000	 9.849967122134781e-002	 2.850753422443685e+001
 1.020916415669762e+000	 1.085107456576842e-001	 2.838608999751013e+001
 1.019799859022319e+000	 1.185461191814805e-001	 2.825337230411640e+001
 1.018580317413973e+000	 1.286044033119972e-001	 2.810924599790745e+001
 1.017256933355725e+000	 1.386841829087085e-001	 2.795358914656943e+001
 1.015828871911665e+000	 1.487840164914495e-001	 2.778629349206184e+001
 1.014295321540812e+000	 1.589024365888926e-001	 2.760726489607903e+001
 1.012655494936566e+000	 1.690379501156183e-001	 2.741642376963379e+001
 1.010908629862745e+000	 1.791890387780154e-001	 2.721370548573112e+001
 1.009053989985139e+000	 1.893541595092008e-001	 2.699906077417266e+001
 1.007090865697531e+000	 1.995317449331146e-001	 2.677245609761244e+001
 1.048475063502991e+000	 1.010581561031999e-001	 2.692973469577869e+001
 1.047434262709218e+000	 1.113292637187003e-001	 2.682337955841365e+001
 1.046288704002161e+000	 1.216253015794872e-001	 2.670730688714511e+001
 1.045037485346122e+000	 1.319448451396527e-001	 2.658135249183226e+001
 1.043679726979181e+000	 1.422864425010265e-001	 2.644536256411422e+001
 1.042214572278316e+000	 1.526486147416389e-001	 2.629919410870464e+001
 1.040641188623105e+000	 1.630298562732486e-001	 2.614271536136896e+001
 1.038958768256984e+000	 1.734286352282083e-001	 2.597580619259839e+001
 1.037166529144998e+000	 1.838433938759065e-001	 2.579835849607358e+001
 1.035263715826961e+000	 1.942725490689864e-001	 2.561027656109827e+001
 1.033249600264920e+000	 2.047144927194936e-001	 2.541147742827754e+001
 1.075019565710423e+000	 1.036166704075697e-001	 2.554674646245191e+001
 1.073952414705430e+000	 1.141478141926027e-001	 2.545390515781227e+001
 1.072777853605359e+000	 1.247045193880078e-001	 2.535279788364881e+001
 1.071494957537422e+000	 1.352853253822968e-001	 2.524322493007727e+001
 1.070102824466526e+000	 1.458887435192349e-001	 2.512499429638268e+001
 1.068600576082287e+000	 1.565132574346201e-001	 2.499792210387427e+001
 1.066987358684599e+000	 1.671573234228619e-001	 2.486183299656070e+001
 1.065262344066698e+000	 1.778193708336415e-001	 2.471656052874679e+001
 1.063424730394631e+000	 1.884978024988977e-001	 2.456194753874876e+001
 1.061473743082011e+000	 1.991909951903410e-001	 2.439784650802715e+001
 1.059408635658941e+000	 2.098973001076576e-001	 2.422411990514720e+001
 1.101564326723789e+000	 1.061752096569921e-001	 2.433101757493077e+001
 1.100470825250804e+000	 1.169663921468526e-001	 2.425017823383735e+001
 1.099267261475050e+000	 1.277837672183244e-001	 2.416242960556750e+001
 1.097952687686433e+000	 1.386258381939897e-001	 2.406753021691968e+001
 1.096526179576468e+000	 1.494910796591940e-001	 2.396524379622684e+001
 1.094986837147195e+000	 1.603779378071404e-001	 2.385533967788899e+001
 1.093333785618622e+000	 1.712848308145206e-001	 2.373759319547985e+001
 1.091566176333587e+000	 1.822101492479694e-001	 2.361178606259302e+001
 1.089683187658944e+000	 1.931522565015935e-001	 2.347770674070418e+001
 1.087684025881921e+000	 2.041094892657835e-001	 2.333515079344853e+001
 1.085567926100498e+000	 2.150801580274720e-001	 2.318392122683919e+001
 1.128109300089399e+000	 1.087337693740023e-001	 2.325744490885914e+001
 1.126989447937741e+000	 1.197849926489115e-001	 2.318717288535823e+001
 1.125756881254374e+000	 1.308630396817190e-001	 2.311126114037138e+001
 1.124410629491716e+000	 1.419663777287918e-001	 2.302942040281121e+001
 1.122949746067712e+000	 1.530934446167641e-001	 2.294136426776159e+001
 1.121373309296657e+000	 1.642426490959475e-001	 2.284680960244720e+001
 1.119680423318503e+000	 1.754123712250134e-001	 2.274547694108556e+001
 1.117870219025528e+000	 1.866009627872431e-001	 2.263709086782397e+001
 1.115941854985237e+000	 1.978067477385986e-001	 2.252138038709651e+001
 1.113894518358322e+000	 2.090280226878326e-001	 2.239807928087770e+001
 1.111727425810493e+000	 2.202630574088016e-001	 2.226692645245962e+001
 1.154654439353568e+000	 1.112923450811353e-001	 2.230310145154542e+001
 1.153508236358646e+000	 1.226036107662409e-001	 2.224205204625799e+001
 1.152246666586472e+000	 1.339423313894738e-001	 2.217655154266516e+001
 1.150868736651832e+000	 1.453069381407635e-001	 2.210625702646019e+001
 1.149373477698966e+000	 1.566958320878054e-001	 2.203082629563207e+001
 1.147759946354290e+000	 1.681073845377886e-001	 2.194991827730170e+001
 1.146027225677570e+000	 1.795399374311290e-001	 2.186319343323402e+001
 1.144174426110399e+000	 1.909918037675141e-001	 2.177031415324050e+001
 1.142200686420812e+000	 2.024612680645178e-001	 2.167094513584087e+001
 1.140105174642845e+000	 2.139465868490073e-001	 2.156475375571940e+001
 1.137887089009828e+000	 2.254459891815114e-001	 2.145141041768548e+001
 1.181199698062608e+000	 1.138509323009261e-001	 2.144700021275813e+001
 1.180027144105923e+000	 1.254222415663019e-001	 2.139393040697036e+001
 1.178736571114481e+000	 1.370216369528710e-001	 2.133752187629233e+001
 1.177326962865341e+000	 1.486475135839651e-001	 2.127737239050947e+001
 1.175797328228936e+000	 1.602982357681785e-001	 2.121307847042417e+001
 1.174146702143711e+000	 1.719721373694114e-001	 2.114423582467946e+001
 1.172374146589152e+000	 1.836675222096558e-001	 2.107043977446500e+001
 1.170478751556079e+000	 1.953826645048334e-001	 2.099128566530368e+001
 1.168459636012969e+000	 2.071158093339556e-001	 2.090636926529871e+001
 1.166315948867122e+000	 2.188651731418264e-001	 2.081528714941339e+001
 1.164046869919403e+000	 2.306289442754662e-001	 2.071763706956105e+001
 1.207745029762830e+000	 1.164095265559097e-001	 2.066988912811700e+001
 1.206546124771974e+000	 1.282408801165561e-001	 2.062366843264475e+001
 1.205226548481543e+000	 1.401009509831927e-001	 2.057514844041237e+001
 1.203785261830803e+000	 1.519880982124569e-001	 2.052386209149133e+001
 1.202221251416331e+000	 1.639006493537434e-001	 2.046933932126949e+001
 1.200533530488537e+000	 1.758369008275634e-001	 2.041110752609325e+001
 1.198721139946578e+000	 1.877951183373823e-001	 2.034869201533246e+001
 1.196783149330445e+000	 1.997735373152526e-001	 2.028161644902230e+001
 1.194718657809009e+000	 2.117703634015168e-001	 2.020940326044774e+001
 1.192526795162782e+000	 2.237837729588087e-001	 2.013157406326033e+001
 1.190206722760122e+000	 2.358119136205311e-001	 2.004765004295416e+001
 1.234290388000549e+000	 1.189681233686213e-001	 1.995407229173872e+001
 1.233065131949204e+000	 1.310595214844649e-001	 1.991369279892640e+001
 1.231716552330795e+000	 1.431802680917210e-001	 1.987198248738129e+001
 1.230243587246780e+000	 1.553286861802993e-001	 1.982840410129926e+001
 1.228645201019855e+000	 1.675030665403606e-001	 1.978241584491351e+001
 1.226920385212384e+000	 1.797016681489920e-001	 1.973347188551110e+001
 1.225068159643175e+000	 1.919227185910969e-001	 1.968102284066242e+001
 1.223087573401376e+000	 2.041644145148226e-001	 1.962451624874521e+001
 1.220977705856232e+000	 2.164249221218061e-001	 1.956339702208885e+001
 1.218737667661458e+000	 2.287023776924730e-001	 1.949710788232539e+001
 1.216366601752886e+000	 2.409948881465711e-001	 1.942508977780775e+001
 1.260835726322077e+000	 1.215267182615958e-001	 1.928325363978263e+001
 1.259584119230016e+000	 1.338781607374896e-001	 1.924783935396544e+001
 1.258206536305378e+000	 1.462595828897382e-001	 1.921199253010781e+001
 1.256701892811832e+000	 1.586692716415527e-001	 1.917510048904319e+001
 1.255069130798217e+000	 1.711054810238902e-001	 1.913654471348675e+001
 1.253307220138871e+000	 1.835664325704447e-001	 1.909570139671764e+001
 1.251415159572273e+000	 1.960503157475885e-001	 1.905194197242561e+001
 1.249391977736748e+000	 2.085552884195950e-001	 1.900463362470000e+001
 1.247236734201940e+000	 2.210794773494282e-001	 1.895313977742102e+001
 1.244948520494780e+000	 2.336209787353383e-001	 1.889682056261504e+001
 1.242526461118596e+000	 2.461778587834510e-001	 1.883503326765247e+001
 9.809324777358749e-001	 1.943490658186562e-001	 2.833634696502286e+001
 9.789137024229727e-001	 2.042743766435053e-001	 2.806664939270349e+001
 9.767879280981019e-001	 2.142087061355222e-001	 2.778559719625464e+001
 9.745545470450377e-001	 2.241504565049763e-001	 2.749320873190892e+001
 9.722129807570793e-001	 2.340980083161346e-001	 2.718951937323491e+001
 9.697626806991598e-001	 2.440497210832210e-001	 2.687458181949789e+001
 9.672031290579124e-001	 2.540039338948809e-001	 2.654846638382213e+001
 9.645338394785437e-001	 2.639589660669880e-001	 2.621126126078320e+001
 9.617543577873685e-001	 2.739131178235836e-001	 2.586307277313897e+001
 9.588642626988490e-001	 2.838646710056857e-001	 2.550402559749753e+001
 9.558631665059839e-001	 2.938118898076575e-001	 2.513426296879940e+001
 1.007090865697531e+000	 1.995317449331146e-001	 2.677245609761246e+001
 1.005018255988954e+000	 2.097217326205241e-001	 2.653479690308804e+001
 1.002835793940866e+000	 2.199209794745262e-001	 2.628705670435273e+001
 1.000542855631143e+000	 2.301278450974099e-001	 2.602922326751516e+001
 9.981388471261151e-001	 2.403406668682316e-001	 2.576130043678515e+001
 9.956232052629930e-001	 2.505577605546664e-001	 2.548330844108621e+001
 9.929953984199387e-001	 2.607774209541257e-001	 2.519528418041373e+001
 9.902549272725891e-001	 2.709979225639719e-001	 2.489728149170102e+001
 9.874013255358587e-001	 2.812175202806164e-001	 2.458937139405464e+001
 9.844341606898325e-001	 2.914344501272310e-001	 2.427164231332125e+001
 9.813530346885656e-001	 3.016469300097510e-001	 2.394420028604154e+001
 1.033249600264920e+000	 2.047144927194936e-001	 2.541147742827754e+001
 1.031123155447073e+000	 2.151691607766280e-001	 2.520285617228131e+001
 1.028884004924326e+000	 2.256333285029850e-001	 2.498537731862266e+001
 1.026531508568457e+000	 2.361053128922975e-001	 2.475899116422931e+001
 1.024065057018631e+000	 2.465834081378283e-001	 2.452366320606810e+001
 1.021484072484157e+000	 2.570658862601133e-001	 2.427937445265092e+001
 1.018788009534555e+000	 2.675509977647321e-001	 2.402612171506671e+001
 1.015976355875734e+000	 2.780369723299312e-001	 2.376391787744262e+001
 1.013048633111059e+000	 2.885220195238800e-001	 2.349279214685483e+001
 1.010004397486102e+000	 2.990043295512848e-001	 2.321279028282249e+001
 1.006843240615852e+000	 3.094820740290298e-001	 2.292397480663267e+001
 1.059408635658941e+000	 2.098973001076576e-001	 2.422411990514720e+001
 1.057228355112487e+000	 2.206166515784633e-001	 2.404170353809763e+001
 1.054932515462900e+000	 2.313457432239042e-001	 2.385160387112742e+001
 1.052520460375683e+000	 2.420828494286583e-001	 2.365372726627185e+001
 1.049991565062670e+000	 2.528262211996881e-001	 2.344799447774558e+001
 1.047345237105108e+000	 2.635740868098780e-001	 2.323434097410345e+001
 1.044580917263728e+000	 2.743246524724556e-001	 2.301271723948858e+001
 1.041698080274572e+000	 2.850761030460262e-001	 2.278308905401974e+001
 1.038696235629327e+000	 2.958266027699861e-001	 2.254543775350405e+001
 1.035574928338933e+000	 3.065742960300392e-001	 2.229976046879706e+001
 1.032333739679205e+000	 3.173173081534753e-001	 2.204607034526088e+001
 1.085567926100498e+000	 2.150801580274720e-001	 2.318392122683919e+001
 1.083333809300356e+000	 2.260641954926755e-001	 2.302504008528296e+001
 1.080981279971006e+000	 2.370582136402891e-001	 2.285960113012423e+001
 1.078509665571524e+000	 2.480604442455113e-001	 2.268746071590522e+001
 1.075918325886272e+000	 2.590690951285748e-001	 2.250848886170203e+001
 1.073206653868300e+000	 2.700823508142762e-001	 2.232256958880575e+001
 1.070374076469423e+000	 2.810983732230515e-001	 2.212960123677086e+001
 1.067420055455696e+000	 2.921153023934179e-001	 2.192949675804101e+001
 1.064344088207020e+000	 3.031312572355476e-001	 2.172218399152042e+001
 1.061145708499603e+000	 3.141443363156864e-001	 2.150760591561376e+001
 1.057824487269989e+000	 3.251526186710685e-001	 2.128572088140921e+001
 1.111727425810493e+000	 2.202630574088016e-001	 2.226692645245962e+001
 1.109439472325839e+000	 2.315117829859109e-001	 2.212907062965378e+001
 1.107030252863060e+000	 2.427707297551454e-001	 2.198573320242329e+001
 1.104499078674684e+000	 2.540380868818759e-001	 2.183671482301278e+001
 1.101845294117478e+000	 2.653120189992517e-001	 2.168182917178784e+001
 1.099068277516187e+000	 2.765906668836241e-001	 2.152090331437858e+001
 1.096167442013604e+000	 2.878721481622747e-001	 2.135377803612487e+001
 1.093142236405699e+000	 2.991545580532665e-001	 2.118030815420532e+001
 1.089992145960496e+000	 3.104359701371767e-001	 2.100036280801422e+001
 1.086716693219385e+000	 3.217144371604182e-001	 2.081382572853275e+001
 1.083315438779566e+000	 3.329879918697909e-001	 2.062059548761396e+001
 1.137887089009828e+000	 2.254459891815114e-001	 2.145141041768548e+001
 1.135545298504095e+000	 2.369594045248153e-001	 2.133222640980320e+001
 1.133079388553482e+000	 2.484832815714788e-001	 2.120858653734688e+001
 1.130488654203866e+000	 2.600157668767711e-001	 2.108023042230956e+001
 1.127772424384332e+000	 2.715549818864824e-001	 2.094691018166880e+001
 1.124930062791226e+000	 2.830990236282377e-001	 2.080839080698242e+001
 1.121960968758238e+000	 2.946459654358807e-001	 2.066445051980578e+001
 1.118864578111176e+000	 3.061938577067328e-001	 2.051488110349961e+001
 1.115640364006115e+000	 3.177407286914862e-001	 2.035948821221015e+001
 1.112287837749557e+000	 3.292845853164265e-001	 2.019809165801281e+001
 1.108806549599299e+000	 3.408234140376239e-001	 2.003052567741341e+001
 1.164046869919403e+000	 2.306289442754662e-001	 2.071763706956104e+001
 1.161651242150283e+000	 2.424070505760348e-001	 2.061492461449764e+001
 1.159128641456689e+000	 2.541958590922946e-001	 2.050872967707976e+001
 1.156478346677774e+000	 2.659934737692166e-001	 2.039872588089985e+001
 1.153699671314873e+000	 2.777979728650303e-001	 2.028459892776942e+001
 1.150791964435870e+000	 2.896074096584330e-001	 2.016604700176809e+001
 1.147754611565289e+000	 3.014198131896247e-001	 2.004278114714590e+001
 1.144587035558720e+000	 3.132331890349775e-001	 1.991452562085402e+001
 1.141288697460231e+000	 3.250455201150881e-001	 1.978101822072618e+001
 1.137859097341395e+000	 3.368547675359033e-001	 1.964201059057554e+001
 1.134297775120553e+000	 3.486588714625484e-001	 1.949726850370616e+001
 1.190206722760122e+000	 2.358119136205311e-001	 2.004765004295416e+001
 1.187757257579563e+000	 2.478547116062154e-001	 1.995935908148282e+001
 1.185177965987098e+000	 2.599084523205984e-001	 1.986850410286897e+001
 1.182468110615113e+000	 2.719711970982311e-001	 1.977468812042086e+001
 1.179626989537143e+000	 2.840409810096591e-001	 1.967752593944034e+001
 1.176653937192574e+000	 2.961158135845261e-001	 1.957664458669763e+001
 1.173548325296723e+000	 3.081936795692618e-001	 1.947168371122419e+001
 1.170309563734924e+000	 3.202725397191609e-001	 1.936229595742844e+001
 1.166937101439205e+000	 3.323503316245949e-001	 1.924814731182436e+001
 1.163430427246173e+000	 3.444249705710407e-001	 1.912891742494310e+001
 1.159789070734689e+000	 3.564943504325457e-001	 1.900429991026860e+001
 1.216366601752886e+000	 2.409948881465711e-001	 1.942508977780775e+001
 1.213863299107094e+000	 2.533023780820028e-001	 1.934931747741543e+001
 1.211227316559127e+000	 2.656210512593958e-001	 1.927184149817208e+001
 1.208457900534583e+000	 2.779489264028339e-001	 1.919218998711317e+001
 1.205554333679185e+000	 2.902839953951322e-001	 1.910990274285253e+001
 1.202515935803794e+000	 3.026242240168329e-001	 1.902453167037985e+001
 1.199342064814506e+000	 3.149675527205472e-001	 1.893564120399301e+001
 1.196032117626381e+000	 3.273118974404439e-001	 1.884280869962480e+001
 1.192585531059394e+000	 3.396551504366194e-001	 1.874562479815319e+001
 1.189001782715169e+000	 3.519951811740305e-001	 1.864369376160724e+001
 1.185280391833070e+000	 3.643298372355971e-001	 1.853663378449341e+001
 1.242526461118596e+000	 2.461778587834510e-001	 1.883503326765246e+001
 1.239969321048035e+000	 2.587500404700431e-001	 1.877002105818911e+001
 1.237276647587192e+000	 2.713336459116922e-001	 1.870410353749099e+001
 1.234447670954891e+000	 2.839266512220444e-001	 1.863673008874071e+001
 1.231481658369039e+000	 2.965270050962133e-001	 1.856736176849046e+001
 1.228377915011984e+000	 3.091326295656696e-001	 1.849547178555591e+001
 1.225135784980602e+000	 3.217414207892365e-001	 1.842054594412504e+001
 1.221754652219686e+000	 3.343512498799868e-001	 1.834208305262641e+001
 1.218233941437156e+000	 3.469599637677736e-001	 1.825959530028092e+001
 1.214573118999658e+000	 3.595653860970648e-001	 1.817260860363196e+001
 1.210771693807061e+000	 3.721653181596841e-001	 1.808066292571005e+001
 9.558631665059839e-001	 2.938118898076575e-001	 2.513426296879940e+001
 9.527507155138414e-001	 3.037530213952426e-001	 2.475419897165922e+001
 9.495265899749485e-001	 3.136862962449285e-001	 2.436429733063706e+001
 9.461905054388915e-001	 3.236099293720238e-001	 2.396481386622538e+001
 9.427422136050960e-001	 3.335221213151299e-001	 2.355603673690038e+001
 9.391815029145867e-001	 3.434210590039753e-001	 2.313828666952826e+001
 9.355081991183115e-001	 3.533049166519174e-001	 2.271191714856948e+001
 9.317221658209342e-001	 3.631718566724364e-001	 2.227731456377168e+001
 9.278233049990162e-001	 3.730200306188906e-001	 2.183489831612680e+001
 9.238115574925391e-001	 3.828475801467559e-001	 2.138512088194561e+001
 9.196869034687286e-001	 3.926526379975132e-001	 2.092846783497916e+001
 9.813530346885656e-001	 3.016469300097510e-001	 2.394420028604154e+001
 9.781575844051823e-001	 3.118531603513708e-001	 2.360774994672126e+001
 9.748474815655582e-001	 3.220513244408870e-001	 2.326303426711373e+001
 9.714224341338948e-001	 3.322395896935918e-001	 2.291025053919049e+001
 9.678821871882342e-001	 3.424161086620216e-001	 2.254962347468507e+001
 9.642265235280021e-001	 3.525790199269324e-001	 2.218140540297317e+001
 9.604552642574866e-001	 3.627264490136036e-001	 2.180587643563144e+001
 9.565682693441295e-001	 3.728565093327700e-001	 2.142334459779596e+001
 9.525654381505306e-001	 3.829673031454391e-001	 2.103414592651819e+001
 9.484467099390737e-001	 3.930569225507893e-001	 2.063864453638231e+001
 9.442120643481214e-001	 4.031234504962961e-001	 2.023723265270891e+001
 1.006843240615852e+000	 3.094820740290298e-001	 2.292397480663267e+001
 1.003564789941372e+000	 3.199534066371334e-001	 2.262723471297174e+001
 1.000168708661770e+000	 3.304164634760867e-001	 2.232349072124388e+001
 9.966546971557494e-001	 3.408693643605512e-001	 2.201288310390314e+001
 9.930224938798730e-001	 3.513102138563777e-001	 2.169557559223262e+001
 9.892718759918837e-001	 3.617371021947266e-001	 2.137175554867314e+001
 9.854026599493356e-001	 3.721481062121692e-001	 2.104163411232620e+001
 9.814147020823929e-001	 3.825412903160631e-001	 2.070544631817614e+001
 9.773078991396467e-001	 3.929147074744282e-001	 2.036345119064843e+001
 9.730821888058525e-001	 4.032664002295056e-001	 2.001593181218054e+001
 9.687375501904937e-001	 4.135944017341220e-001	 1.966319536752907e+001
 1.032333739679205e+000	 3.173173081534753e-001	 2.204607034526088e+001
 1.028972287659046e+000	 3.280537460765929e-001	 2.178535920348212e+001
 1.025490226950689e+000	 3.387816987110449e-001	 2.151864839315197e+001
 1.021887250347247e+000	 3.494992382703296e-001	 2.124602268877731e+001
 1.018163089683721e+000	 3.602044213330747e-001	 2.096758727183398e+001
 1.014317516476093e+000	 3.708952897803031e-001	 2.068346788303573e+001
 1.010350342535127e+000	 3.815698717593336e-001	 2.039381095292880e+001
 1.006261420553655e+000	 3.922261826735971e-001	 2.009878371178391e+001
 1.002050644666225e+000	 4.028622261975743e-001	 1.979857427982545e+001
 9.977179509799359e-001	 4.134759953160150e-001	 1.949339173889460e+001
 9.932633180753756e-001	 4.240654733865391e-001	 1.918346618668147e+001
 1.057824487269989e+000	 3.251526186710685e-001	 2.128572088140921e+001
 1.054380033094837e+000	 3.361541644938118e-001	 2.105756431128651e+001
 1.050811992119419e+000	 3.471470155062801e-001	 2.082420313194308e+001
 1.047120049551180e+000	 3.581291963203556e-001	 2.058566818539581e+001
 1.043303930603482e+000	 3.690987155269894e-001	 2.034200853474295e+001
 1.039363401150492e+000	 3.800535666566079e-001	 2.009329160035125e+001
 1.035298268356127e+000	 3.909917291668159e-001	 1.983960327821309e+001
 1.031108381275849e+000	 4.019111694566533e-001	 1.958104804187881e+001
 1.026793631430127e+000	 4.128098419065948e-001	 1.931774902944071e+001
 1.022353953348383e+000	 4.236856899434282e-001	 1.904984811709980e+001
 1.017789325082299e+000	 4.345366471290956e-001	 1.877750598088345e+001
 1.083315438779566e+000	 3.329879918697909e-001	 2.062059548761396e+001
 1.079787981785380e+000	 3.442546477128530e-001	 2.042171212944086e+001
 1.076133959855069e+000	 3.555123992223093e-001	 2.021825312648482e+001
 1.072353050610340e+000	 3.667592234080574e-001	 2.001019702871435e+001
 1.068444972642865e+000	 3.779930808729982e-001	 1.979753924870243e+001
 1.064409486184943e+000	 3.892119167965865e-001	 1.958029218415906e+001
 1.060246393753604e+000	 4.004136619463353e-001	 1.935848532519879e+001
 1.055955540766905e+000	 4.115962337165134e-001	 1.913216534819756e+001
 1.051536816131212e+000	 4.227575371932062e-001	 1.890139619817266e+001
 1.046990152798254e+000	 4.338954662448556e-001	 1.866625916167512e+001
 1.042315528290796e+000	 4.450079046373393e-001	 1.842685293222104e+001
 1.108806549599299e+000	 3.408234140376239e-001	 2.003052567741341e+001
 1.105196089267309e+000	 3.523551815577791e-001	 1.985781437533177e+001
 1.101456085844741e+000	 3.638778352196507e-001	 1.968102895695473e+001
 1.097586209367518e+000	 3.753893044308633e-001	 1.950009742668419e+001
 1.093586171805575e+000	 3.868875018059776e-001	 1.931496408594429e+001
 1.089455727749307e+000	 3.983703241731845e-001	 1.912558964288706e+001
 1.085194675068824e+000	 4.098356536096109e-001	 1.893195130814121e+001
 1.080802855544754e+000	 4.212813585044586e-001	 1.873404287893243e+001
 1.076280155469341e+000	 4.327052946491254e-001	 1.853187481399249e+001
 1.071626506216607e+000	 4.441053063534079e-001	 1.832547430173854e+001
 1.066841884780396e+000	 4.554792275868185e-001	 1.811488532424246e+001
 1.134297775120553e+000	 3.486588714625484e-001	 1.949726850370616e+001
 1.130604311077258e+000	 3.604557518526529e-001	 1.934779636699016e+001
 1.126778325775542e+000	 3.722433088588220e-001	 1.919465892578459e+001
 1.122819481665506e+000	 3.840194242862013e-001	 1.903773552261661e+001
 1.118727484095319e+000	 3.957819627608041e-001	 1.887692199344917e+001
 1.114502082013446e+000	 4.075287727593477e-001	 1.871213076373177e+001
 1.110143068643055e+000	 4.192576876683622e-001	 1.854329093056327e+001
 1.105650282127328e+000	 4.309665268717703e-001	 1.837034833380101e+001
 1.101023606144375e+000	 4.426530968660690e-001	 1.819326561905386e+001
 1.096262970490503e+000	 4.543151924021956e-001	 1.801202229557253e+001
 1.091368351630633e+000	 4.659505976530814e-001	 1.782661479209445e+001
 1.159789070734689e+000	 3.564943504325457e-001	 1.900429991026860e+001
 1.156012602751863e+000	 3.685563444215371e-001	 1.887529108469039e+001
 1.152100635334577e+000	 3.806088055003410e-001	 1.874296424322438e+001
 1.148052823347096e+000	 3.926495678714999e-001	 1.860715211883898e+001
 1.143868865515805e+000	 4.046764481723542e-001	 1.846770486869518e+001
 1.139548505147221e+000	 4.166872465280218e-001	 1.832449015399497e+001
 1.135091530817564e+000	 4.286797476343089e-001	 1.817739320478361e+001
 1.130497777032559e+000	 4.406517218697301e-001	 1.802631687308629e+001
 1.125767124856174e+000	 4.526009264357542e-001	 1.787118167788200e+001
 1.120899502507002e+000	 4.645251065243293e-001	 1.771192584550938e+001
 1.115894885921037e+000	 4.764219965116759e-001	 1.754850534915318e+001
 1.185280391833070e+000	 3.643298372355971e-001	 1.853663378449341e+001
 1.181420919827755e+000	 3.766569450884943e-001	 1.842545879118232e+001
 1.177422970208952e+000	 3.889743105047255e-001	 1.831127957560685e+001
 1.173286190255079e+000	 4.012797200841873e-001	 1.819388451388559e+001
 1.169010272070738e+000	 4.135709424755045e-001	 1.807308104670072e+001
 1.164594953320496e+000	 4.258457294521522e-001	 1.794869573860664e+001
 1.160040017933619e+000	 4.381018170191692e-001	 1.782057431991392e+001
 1.155345296778377e+000	 4.503369265496190e-001	 1.768858171512457e+001
 1.150510668304600e+000	 4.625487659498976e-001	 1.755260206204199e+001
 1.145536059153163e+000	 4.747350308529196e-001	 1.741253872578924e+001
 1.140421444731140e+000	 4.868934058381502e-001	 1.726831431203901e+001
 1.210771693807061e+000	 3.721653181596841e-001	 1.808066292571005e+001
 1.206829217841571e+000	 3.847575396775873e-001	 1.798482844595043e+001
 1.202745286085772e+000	 3.973398092324930e-001	 1.788629522059788e+001
 1.198519538232249e+000	 4.099098658216919e-001	 1.778480975424036e+001
 1.194151659763825e+000	 4.224654301051316e-001	 1.768013994392848e+001
 1.189641382703130e+000	 4.350042055046846e-001	 1.757207511173829e+001
 1.184988486332486e+000	 4.475238793346629e-001	 1.746042601631376e+001
 1.180192797882715e+000	 4.600221239627187e-001	 1.734502484801859e+001
 1.175254193189512e+000	 4.724965980002162e-001	 1.722572521250458e+001
 1.170172597316046e+000	 4.849449475210771e-001	 1.710240210763818e+001
 1.164947985140473e+000	 4.973648073080525e-001	 1.697495189881503e+001
 9.196869034687286e-001	 3.926526379975132e-001	 2.092846783497916e+001
 9.154500070382964e-001	 4.024318639757797e-001	 2.046663363434088e+001
 9.111003186645378e-001	 4.121848497096857e-001	 2.000099319336887e+001
 9.066379396471509e-001	 4.219097086716465e-001	 1.953178804118664e+001
 9.020630121438827e-001	 4.316045495771123e-001	 1.905926438530155e+001
 8.973757194803050e-001	 4.412674774614075e-001	 1.858367312685117e+001
 8.925762864264073e-001	 4.508965947721493e-001	 1.810526988652110e+001
 8.876649794392211e-001	 4.604900024760816e-001	 1.762431504172365e+001
 8.826421068707412e-001	 4.700458011791233e-001	 1.714107377551382e+001
 8.775080191404551e-001	 4.795620922583881e-001	 1.665581613760324e+001
 8.722631088718382e-001	 4.890369790048946e-001	 1.616881711769838e+001
 9.442120643481214e-001	 4.031234504962961e-001	 2.023723265270891e+001
 9.398621831981485e-001	 4.131634577139968e-001	 1.983090759301930e+001
 9.353965022980482e-001	 4.231765249420751e-001	 1.942045521346013e+001
 9.308151256488801e-001	 4.331607153452563e-001	 1.900615995271020e+001
 9.261181991993086e-001	 4.431140872044484e-001	 1.858831476324188e+001
 9.213059111636406e-001	 4.530346950222970e-001	 1.816722104994750e+001
 9.163784923057911e-001	 4.629205906447352e-001	 1.774318861397860e+001
 9.113362161883819e-001	 4.727698243973321e-001	 1.731653560263840e+001
 9.061793993862045e-001	 4.825804462352118e-001	 1.688758846606825e+001
 9.009084016633494e-001	 4.923505069052576e-001	 1.645668192134709e+001
 8.955236261133459e-001	 5.020780591192977e-001	 1.602415892449285e+001
 9.687375501904937e-001	 4.135944017341220e-001	 1.966319536752907e+001
 9.642746828240307e-001	 4.238951936465678e-001	 1.930575330542920e+001
 9.596930078607578e-001	 4.341683458149260e-001	 1.894399448142008e+001
 9.549926320031292e-001	 4.444118710955527e-001	 1.857822914615732e+001
 9.501737049907747e-001	 4.546237773341319e-001	 1.820877947569690e+001
 9.452364199267954e-001	 4.648020684999468e-001	 1.783597945209457e+001
 9.401810135691120e-001	 4.749447458365615e-001	 1.746017474508494e+001
 9.350077665860249e-001	 4.850498090276872e-001	 1.708172259594901e+001
 9.297170037752289e-001	 4.951152573769662e-001	 1.670099170457165e+001
 9.243090942455403e-001	 5.051390910003677e-001	 1.631836212057151e+001
 9.187844515606749e-001	 5.151193120298433e-001	 1.593422513924725e+001
 9.932633180753756e-001	 4.240654733865391e-001	 1.918346618668146e+001
 9.886874631931890e-001	 4.346270529926760e-001	 1.886899583890456e+001
 9.839897928328978e-001	 4.451602930922763e-001	 1.855012740191041e+001
 9.791704163983789e-001	 4.556631562327355e-001	 1.822718128066690e+001
 9.742294874202678e-001	 4.661335998239209e-001	 1.790049281406753e+001
 9.691672038905160e-001	 4.765695773011601e-001	 1.757041211424772e+001
 9.639838085611114e-001	 4.869690393050531e-001	 1.723730390417084e+001
 9.586795892061151e-001	 4.973299348768571e-001	 1.690154735487333e+001
 9.532548788462153e-001	 5.076502126681390e-001	 1.656353592364754e+001
 9.477100559350588e-001	 5.179278221633580e-001	 1.622367719430915e+001
 9.420455445066669e-001	 5.281607149139946e-001	 1.588239272055192e+001
 1.017789325082299e+000	 4.345366471290956e-001	 1.877750598088345e+001
 1.013100481582870e+000	 4.453590169715063e-001	 1.850074535688260e+001
 1.008286814694700e+000	 4.561523475381652e-001	 1.821959206517313e+001
 1.003348436523111e+000	 4.669145510670051e-001	 1.793436233772241e+001
 9.982855043897772e-001	 4.776435345315740e-001	 1.764538996331451e+001
 9.930982211755461e-001	 4.883372008327393e-001	 1.735302610049968e+001
 9.877868356265307e-001	 4.989934500076331e-001	 1.705763908732563e+001
 9.823516426226164e-001	 5.096101804545526e-001	 1.675961424954411e+001
 9.767929834075639e-001	 5.201852901724831e-001	 1.645935370886436e+001
 9.711112457799382e-001	 5.307166780138688e-001	 1.615727619268183e+001
 9.653068642441640e-001	 5.412022449492142e-001	 1.585381684654555e+001
 1.042315528290796e+000	 4.450079046373393e-001	 1.842685293222104e+001
 1.037513695270321e+000	 4.560910668022424e-001	 1.818313095372168e+001
 1.032584030926394e+000	 4.671444899166304e-001	 1.793508902883723e+001
 1.027526650065803e+000	 4.781660359085613e-001	 1.768302612598728e+001
 1.022341713801290e+000	 4.891535613148496e-001	 1.742726102211280e+001
 1.017029429902632e+000	 5.001049185014880e-001	 1.716813210235194e+001
 1.011590053110111e+000	 5.110179569017253e-001	 1.690599715633830e+001
 1.006023885409494e+000	 5.218905242704838e-001	 1.664123317315028e+001
 1.000331276267675e+000	 5.327204679537509e-001	 1.637423613680175e+001
 9.945126228282093e-001	 5.435056361715400e-001	 1.610542082400265e+001
 9.885683700660078e-001	 5.542438793129652e-001	 1.583522060573006e+001
 1.066841884780396e+000	 4.554792275868185e-001	 1.811488532424245e+001
 1.061927061532788e+000	 4.668231837040688e-001	 1.790006959351837e+001
 1.056881399008212e+000	 4.781367009917107e-001	 1.768105620011534e+001
 1.051705014714938e+000	 4.894175910676043e-001	 1.745811491544484e+001
 1.046398073556794e+000	 5.006636600315062e-001	 1.723153721163849e+001
 1.040960788192517e+000	 5.118727097142094e-001	 1.700163605921094e+001
 1.035393419356594e+000	 5.230425389447539e-001	 1.676874572252822e+001
 1.029696276140712e+000	 5.341709448343608e-001	 1.653322155548342e+001
 1.023869716234950e+000	 5.452557240756947e-001	 1.629543979962276e+001
 1.017914146127906e+000	 5.562946742560117e-001	 1.605579738677770e+001
 1.011830021265041e+000	 5.672855951827098e-001	 1.581471174804210e+001
 1.091368351630633e+000	 4.659505976530814e-001	 1.782661479209445e+001
 1.086340537647517e+000	 4.775553488961694e-001	 1.763706463400631e+001
 1.081178876420386e+000	 4.891289615274445e-001	 1.744347245727312e+001
 1.075883488158995e+000	 5.006691968543336e-001	 1.724606799241096e+001
 1.070454541558279e+000	 5.121738105393019e-001	 1.704510421245955e+001
 1.064892254165948e+000	 5.236405538777060e-001	 1.684085713803886e+001
 1.059196892710721e+000	 5.350671750941421e-001	 1.663362564275620e+001
 1.053368773390236e+000	 5.464514206558940e-001	 1.642373126178677e+001
 1.047408262117787e+000	 5.577910366020672e-001	 1.621151800626362e+001
 1.041315774727058e+000	 5.690837698869242e-001	 1.599735218589561e+001
 1.035091777134104e+000	 5.803273697359110e-001	 1.578162224198025e+001
 1.115894885921037e+000	 4.764219965116759e-001	 1.754850534915318e+001
 1.110754080891756e+000	 4.882875435977283e-001	 1.738102938654670e+001
 1.105476420643145e+000	 5.001212522878700e-001	 1.720968559145486e+001
 1.100062028086456e+000	 5.119208335789501e-001	 1.703465384236193e+001
 1.094511075707730e+000	 5.236839926959950e-001	 1.685613845839066e+001
 1.088823785943670e+000	 5.354084303987814e-001	 1.667436801927194e+001
 1.083000431517234e+000	 5.470918443073142e-001	 1.648959518960049e+001
 1.077041335732030e+000	 5.587319302447943e-001	 1.630209655067274e+001
 1.070946872724587e+000	 5.703263835966208e-001	 1.611217244298739e+001
 1.064717467673700e+000	 5.818729006839173e-001	 1.592014682223318e+001
 1.058353596966040e+000	 5.933691801500317e-001	 1.572636713129563e+001
 1.140421444731140e+000	 4.868934058381502e-001	 1.726831431203901e+001
 1.135167648542750e+000	 4.990197490279299e-001	 1.712013194552283e+001
 1.129773989156722e+000	 5.111135540370256e-001	 1.696826090988999e+001
 1.124240592185799e+000	 5.231724815516530e-001	 1.681282240582358e+001
 1.118567633907137e+000	 5.351941863593440e-001	 1.665396293351319e+001
 1.112755341646426e+000	 5.471763186842384e-001	 1.649185413313031e+001
 1.106803994120874e+000	 5.591165255416939e-001	 1.632669263494498e+001
 1.100713921740057e+000	 5.710124521107712e-001	 1.615869992291893e+001
 1.094485506863751e+000	 5.828617431231078e-001	 1.598812221535780e+001
 1.088119184015863e+000	 5.946620442666315e-001	 1.581523036590644e+001
 1.081615440053690e+000	 6.064110036025343e-001	 1.564031978782793e+001
 1.164947985140473e+000	 4.973648073080525e-001	 1.697495189881503e+001
 1.159581197877747e+000	 5.097519464059583e-001	 1.684365815461086e+001
 1.154071539441348e+000	 5.221058475389500e-001	 1.670884745753711e+001
 1.148419138145507e+000	 5.344241210826426e-001	 1.657057445105773e+001
 1.142624174058487e+000	 5.467043713871075e-001	 1.642891960006301e+001
 1.136686879394963e+000	 5.589441981408801e-001	 1.628398905546338e+001
 1.130607538866382e+000	 5.711411977547047e-001	 1.613591453523785e+001
 1.124386489988285e+000	 5.832929647635358e-001	 1.598485322638539e+001
 1.118024123343679e+000	 5.953970932452811e-001	 1.583098771193241e+001
 1.111520882801578e+000	 6.074511782547065e-001	 1.567452592680005e+001
 1.104877265689896e+000	 6.194528172708821e-001	 1.551570114593715e+001
 8.722631088718382e-001	 4.890369790048946e-001	 1.616881711769838e+001
 8.669069994773565e-001	 4.984699794031351e-001	 1.567934121995285e+001
 8.614409475685221e-001	 5.078577791162044e-001	 1.518729086378975e+001
 8.558654737743155e-001	 5.171984938406529e-001	 1.469370917809969e+001
 8.501811411206635e-001	 5.264902458615940e-001	 1.419967462451157e+001
 8.443885549780591e-001	 5.357311652289506e-001	 1.370630006450705e+001
 8.384883629704417e-001	 5.449193909360230e-001	 1.321473177378377e+001
 8.324812548450978e-001	 5.540530720989080e-001	 1.272614840462548e+001
 8.263679623034138e-001	 5.631303691352766e-001	 1.224175989704576e+001
 8.201492587923702e-001	 5.721494549410067e-001	 1.176280633946771e+001
 8.138259592567365e-001	 5.811085160631598e-001	 1.129055677970503e+001
 8.955236261133459e-001	 5.020780591192977e-001	 1.602415892449285e+001
 8.900246861062577e-001	 5.117626080080405e-001	 1.558990346751129e+001
 8.844128717634381e-001	 5.214007508515943e-001	 1.515417851390230e+001
 8.786887175973519e-001	 5.309905530979978e-001	 1.471772662422335e+001
 8.728528016480036e-001	 5.405300869595504e-001	 1.428131656403575e+001
 8.669057454291613e-001	 5.500174326204224e-001	 1.384574279042506e+001
 8.608482138348056e-001	 5.594506794466538e-001	 1.341182490890201e+001
 8.546809150055601e-001	 5.688279271970236e-001	 1.298040710077016e+001
 8.484046001549337e-001	 5.781472872332617e-001	 1.255235752096317e+001
 8.420200633552519e-001	 5.874068837280611e-001	 1.212856766626310e+001
 8.355281412832460e-001	 5.966048548693305e-001	 1.170995171372813e+001
 9.187844515606749e-001	 5.151193120298433e-001	 1.593422513924724e+001
 9.131426790481645e-001	 5.250554127421397e-001	 1.554880039648954e+001
 9.073851003396593e-001	 5.349439020332115e-001	 1.516247756432327e+001
 9.015122638313119e-001	 5.447827951019327e-001	 1.477575252500296e+001
 8.955247625774230e-001	 5.545701140871349e-001	 1.438914012862833e+001
 8.894232342352666e-001	 5.643038893065864e-001	 1.400317403443517e+001
 8.832083609691112e-001	 5.739821604984203e-001	 1.361840654243065e+001
 8.768808693131817e-001	 5.836029780634550e-001	 1.323540841489209e+001
 8.704415299933852e-001	 5.931644043068413e-001	 1.285476868707763e+001
 8.638911577076854e-001	 6.026645146774504e-001	 1.247709446632971e+001
 8.572306108650805e-001	 6.121013990034108e-001	 1.210301071857882e+001
 9.420455445066669e-001	 5.281607149139946e-001	 1.588239272055192e+001
 9.362609378459221e-001	 5.383483703426760e-001	 1.554000997420061e+001
 9.303575930951711e-001	 5.484872089601937e-001	 1.519686387638713e+001
 9.243360725344287e-001	 5.585751957156877e-001	 1.485325374090905e+001
 9.181969842324798e-001	 5.686103026739565e-001	 1.450949238395774e+001
 9.119409819903063e-001	 5.785905102858032e-001	 1.416590625844226e+001
 9.055687652426797e-001	 5.885138086608933e-001	 1.382283559570623e+001
 8.990810789176524e-001	 5.983781988415262e-001	 1.348063455369261e+001
 8.924787132537716e-001	 6.081816940757199e-001	 1.313967137036049e+001
 8.857625035748910e-001	 6.179223210879751e-001	 1.280032852091189e+001
 8.789333300225430e-001	 6.275981213460914e-001	 1.246300287713866e+001
 9.653068642441640e-001	 5.412022449492142e-001	 1.585381684654555e+001
 9.593794220423779e-001	 5.516414575468932e-001	 1.554923382105438e+001
 9.533303098279593e-001	 5.620306479316777e-001	 1.524367316751812e+001
 9.471601037649345e-001	 5.723677308024930e-001	 1.493728433580131e+001
 9.408694269367317e-001	 5.826506281496251e-001	 1.463022647455981e+001
 9.344589492882119e-001	 5.928772705564342e-001	 1.432266879942695e+001
 9.279293875248309e-001	 6.030455985036433e-001	 1.401479098296878e+001
 9.212815049686624e-001	 6.131535636745612e-001	 1.370678356510067e+001
 9.145161113710949e-001	 6.231991302596033e-001	 1.339884838233230e+001
 9.076340626820889e-001	 6.331802762584338e-001	 1.309119901388694e+001
 9.006362607759364e-001	 6.430949947780622e-001	 1.278406124241557e+001
 9.885683700660078e-001	 5.542438793129652e-001	 1.583522060573006e+001
 9.824980911803787e-001	 5.649346510920354e-001	 1.556369305497472e+001
 9.763032103360100e-001	 5.755741952468013e-001	 1.529070413316514e+001
 9.699843175810624e-001	 5.861603762255793e-001	 1.501629705774213e+001
 9.635420510137376e-001	 5.966910659437500e-001	 1.474052250106759e+001
 9.569770967229159e-001	 6.071641451168404e-001	 1.446343913556940e+001
 9.502901886848862e-001	 6.175775045962407e-001	 1.418511421259496e+001
 9.434821086159001e-001	 6.279290467058833e-001	 1.390562417340371e+001
 9.365536857803578e-001	 6.382166865781969e-001	 1.362505529033442e+001
 9.295057967545006e-001	 6.484383534876271e-001	 1.334350433578517e+001
 9.223393651455635e-001	 6.585919921800143e-001	 1.306107927624970e+001
 1.011830021265041e+000	 5.672855951827098e-001	 1.581471174804210e+001
 1.005616904802770e+000	 5.782279277153465e-001	 1.557195032091616e+001
 9.992762544173092e-001	 5.891178272047017e-001	 1.532704672636248e+001
 9.928086740410453e-001	 5.999531078481772e-001	 1.507997880358427e+001
 9.862148167870558e-001	 6.107315914859410e-001	 1.483073106708881e+001
 9.794953848883494e-001	 6.214511089653820e-001	 1.457929537388578e+001
 9.726511295921653e-001	 6.321095015082564e-001	 1.432567163412556e+001
 9.656828510090560e-001	 6.427046220788174e-001	 1.406986856344906e+001
 9.585913979165626e-001	 6.532343367512064e-001	 1.381190447485542e+001
 9.513776675173452e-001	 6.636965260743543e-001	 1.355180810742385e+001
 9.440426051517268e-001	 6.740890864326372e-001	 1.329050061311095e+001
 1.035091777134104e+000	 5.803273697359110e-001	 1.578162224198025e+001
 1.028735822452400e+000	 5.915212641540698e-001	 1.556375388887171e+001
 1.022249401869843e+000	 6.026615201045171e-001	 1.534293163984545e+001
 1.015633133203115e+000	 6.137459015335168e-001	 1.511910629680886e+001
 1.008887684580244e+000	 6.247721802058076e-001	 1.489223593180692e+001
 1.002013774378445e+000	 6.357381371004210e-001	 1.466228662312002e+001
 9.950121711159892e-001	 6.466415638092609e-001	 1.442923324255107e+001
 9.878836932978200e-001	 6.574802639366862e-001	 1.419306029211693e+001
 9.806292092147128e-001	 6.682520544983372e-001	 1.395379968481029e+001
 9.732496366958436e-001	 6.789547673174149e-001	 1.371365965015480e+001
 9.657459428147288e-001	 6.895862504166216e-001	 1.347396459592761e+001
 1.058353596966040e+000	 5.933691801500317e-001	 1.572636713129563e+001
 1.051854803672116e+000	 6.048146371454501e-001	 1.552990042729775e+001
 1.045222612491598e+000	 6.162052502453843e-001	 1.532959773079994e+001
 1.038457655125506e+000	 6.275387331448289e-001	 1.512541887081292e+001
 1.031560614716862e+000	 6.388128075329589e-001	 1.491733283079911e+001
 1.024532225787134e+000	 6.500252045203178e-001	 1.470531850204196e+001
 1.017373274125678e+000	 6.611736660688244e-001	 1.448936549419649e+001
 1.010084596631881e+000	 6.722559464228141e-001	 1.426992058846578e+001
 1.002667081109809e+000	 6.832698135392941e-001	 1.404965941759105e+001
 9.951216660152166e-001	 6.942130505156092e-001	 1.382908119175953e+001
 9.874493401548725e-001	 7.050834570126574e-001	 1.360826426048218e+001
 1.081615440053690e+000	 6.064110036025343e-001	 1.564031978782792e+001
 1.074973808004762e+000	 6.181080234267304e-001	 1.546211364245340e+001
 1.068195846080558e+000	 6.297489939264408e-001	 1.527917468900255e+001
 1.061282199866449e+000	 6.413315785453436e-001	 1.509150578436811e+001
 1.054233567520466e+000	 6.528534488970049e-001	 1.489912203280849e+001
 1.047050699708348e+000	 6.643122862234331e-001	 1.470205150628243e+001
 1.039734399490552e+000	 6.757057828565186e-001	 1.450143175100069e+001
 1.032285522160929e+000	 6.870316436805244e-001	 1.429967432983318e+001
 1.024704975036855e+000	 6.982875875937833e-001	 1.409697877013456e+001
 1.016993717200684e+000	 7.094713489677366e-001	 1.389348827131401e+001
 1.009152759192461e+000	 7.205806791014352e-001	 1.368936514080817e+001
 1.104877265689896e+000	 6.194528172708821e-001	 1.551570114593715e+001
 1.098092794993187e+000	 6.314013997351550e-001	 1.535293644721502e+001
 1.091169062434711e+000	 6.432927274468238e-001	 1.518457870361289e+001
 1.084106727484177e+000	 6.551244135982917e-001	 1.501070592927308e+001
 1.076906503314615e+000	 6.668940797275551e-001	 1.483141308977132e+001
 1.069569156736019e+000	 6.785993572081285e-001	 1.464858423257382e+001
 1.062095508079932e+000	 6.902378887419129e-001	 1.446404768957114e+001
 1.054486431034654e+000	 7.018073298531411e-001	 1.427801645781863e+001
 1.046742852430854e+000	 7.133053503815096e-001	 1.409072935890746e+001
 1.038865751977465e+000	 7.247296359725967e-001	 1.390245029220920e+001
 1.030856161947795e+000	 7.360778895636447e-001	 1.371346740961045e+001
 8.138259592567365e-001	 5.811085160631598e-001	 1.129055677970503e+001
 8.073989196223579e-001	 5.900057536711100e-001	 1.082599169711407e+001
 8.008690357874089e-001	 5.988393841156297e-001	 1.036929023274495e+001
 7.942372439580682e-001	 6.076076406512597e-001	 9.920530091573237e+000
 7.875045204774031e-001	 6.163087747742401e-001	 9.479775784574812e+000
 7.806718813845673e-001	 6.249410573556357e-001	 9.047079360450793e+000
 7.737403819358268e-001	 6.335027797617578e-001	 8.622481169632973e+000
 7.667111160878266e-001	 6.419922549603808e-001	 8.206010657104823e+000
 7.595852159436008e-001	 6.504078186112838e-001	 7.797687180382626e+000
 7.523638511618767e-001	 6.587478301396492e-001	 7.397520848832199e+000
 7.450482283302943e-001	 6.670106737908847e-001	 7.005515096838196e+000
 8.355281412832460e-001	 5.966048548693305e-001	 1.170995171372813e+001
 8.289297126895775e-001	 6.057393538572367e-001	 1.129637620481023e+001
 8.222256973632529e-001	 6.148085494782432e-001	 1.088720734818572e+001
 8.154170564761909e-001	 6.238106278733666e-001	 1.048262224647812e+001
 8.085047924075216e-001	 6.327437939117713e-001	 1.008279425038610e+001
 8.014899482910345e-001	 6.416062723541127e-001	 9.687893575307733e+000
 7.943736075234260e-001	 6.503963090028353e-001	 9.298087935858035e+000
 7.871568932337913e-001	 6.591121718378921e-001	 8.913543194752545e+000
 7.798409677148595e-001	 6.677521521363642e-001	 8.534443818502956e+000
 7.724270318165430e-001	 6.763145655744851e-001	 8.162535222982323e+000
 7.649163243024477e-001	 6.847977533105903e-001	 7.798910932009080e+000
 8.572306108650805e-001	 6.121013990034108e-001	 1.210301071857882e+001
 8.504607910413642e-001	 6.214731625150546e-001	 1.173164419683545e+001
 8.435826419166747e-001	 6.307779264339032e-001	 1.136186688624599e+001
 8.365971496289767e-001	 6.400138297868190e-001	 1.099393762643109e+001
 8.295053425937875e-001	 6.491790308152674e-001	 1.062811936494718e+001
 8.223082910398661e-001	 6.582717081688777e-001	 1.026467968962542e+001
 8.150071065046909e-001	 6.672900620856197e-001	 9.903897638615995e+000
 8.076029412901700e-001	 6.762323155570231e-001	 9.547654800742297e+000
 8.000969878791007e-001	 6.850967154768758e-001	 9.197424579609704e+000
 7.924904783129741e-001	 6.938815337718780e-001	 8.853411555922765e+000
 7.847846835317628e-001	 7.025850685127174e-001	 8.515817651612377e+000
 8.789333300225430e-001	 6.275981213460914e-001	 1.246300287713866e+001
 8.719921169979255e-001	 6.372071521100242e-001	 1.212637626237405e+001
 8.649398320725700e-001	 6.467474870358030e-001	 1.178906988346082e+001
 8.577774863507548e-001	 6.562172180355883e-001	 1.145140813977897e+001
 8.505061342846645e-001	 6.656144567226070e-001	 1.111372589065925e+001
 8.431268731983186e-001	 6.749373356349260e-001	 1.077757020231446e+001
 8.356408427702821e-001	 6.841840094455124e-001	 1.044511402558454e+001
 8.280492244755900e-001	 6.933526561569471e-001	 1.011668209559708e+001
 8.203532409874397e-001	 7.024414782792142e-001	 9.792581499019013e+000
 8.125541555392347e-001	 7.114487039889692e-001	 9.473121929223163e+000
 8.046532712476672e-001	 7.203725882687514e-001	 9.158615239806585e+000
 9.006362607759364e-001	 6.430949947780622e-001	 1.278406124241557e+001
 8.935236528794698e-001	 6.529412951076056e-001	 1.247589516208374e+001
 8.862972304558358e-001	 6.627172033371348e-001	 1.216524662476622e+001
 8.789580295758552e-001	 6.724207642636471e-001	 1.185305812008288e+001
 8.715071307286161e-001	 6.820500428716690e-001	 1.154211615122838e+001
 8.639456583336481e-001	 6.916031255872528e-001	 1.123305859978040e+001
 8.562747802108593e-001	 7.010781215179122e-001	 1.092625836041823e+001
 8.484957070086825e-001	 7.104731636768400e-001	 1.062209597343709e+001
 8.406096915909900e-001	 7.197864101897747e-001	 1.032095898899136e+001
 8.326180283833889e-001	 7.290160454828976e-001	 1.002324131780489e+001
 8.245220526795862e-001	 7.381602814501764e-001	 9.729342571331866e+000
 9.223393651455635e-001	 6.585919921800143e-001	 1.306107927624970e+001
 9.150553610062054e-001	 6.686755639732591e-001	 1.277624231110064e+001
 9.076547996913686e-001	 6.786870473910929e-001	 1.248980255884234e+001
 9.001387422386069e-001	 6.886244401149670e-001	 1.220324790938062e+001
 8.925082951741049e-001	 6.984857605003323e-001	 1.191698491517282e+001
 8.847646100131095e-001	 7.082690488608529e-001	 1.163143220814225e+001
 8.769088827170833e-001	 7.179723687382210e-001	 1.134701973425876e+001
 8.689423531080763e-001	 7.275938081558757e-001	 1.106418796190373e+001
 8.608663042408665e-001	 7.371314808549518e-001	 1.078338706734993e+001
 8.526820617335017e-001	 7.465835275108045e-001	 1.050507610082357e+001
 8.443909930569483e-001	 7.559481169284779e-001	 1.022972213673025e+001
 9.440426051517268e-001	 6.740890864326372e-001	 1.329050061311095e+001
 9.365872036983388e-001	 6.844099311724452e-001	 1.302886657589543e+001
 9.290125024040666e-001	 6.946569912508703e-001	 1.276573001781689e+001
 9.213195872733394e-001	 7.048282172335207e-001	 1.250152202697200e+001
 9.135095908695963e-001	 7.149215808464764e-001	 1.223668861956665e+001
 9.055836918039589e-001	 7.249350762907215e-001	 1.197168985754616e+001
 8.975431141796131e-001	 7.348667215418381e-001	 1.170699893133674e+001
 8.893891269924001e-001	 7.447145596332280e-001	 1.144310121138524e+001
 8.811230434881838e-001	 7.544766599211417e-001	 1.118049327236236e+001
 8.727462204776373e-001	 7.641511193298294e-001	 1.091968189406024e+001
 8.642600576091788e-001	 7.737360635751405e-001	 1.066118304315272e+001
 9.657459428147288e-001	 6.895862504166216e-001	 1.347396459592760e+001
 9.581191432760789e-001	 7.001443691706240e-001	 1.323324643150344e+001
 9.503703012188258e-001	 7.106270069696603e-001	 1.299030358270696e+001
 9.425005276143820e-001	 7.210320672632804e-001	 1.274559561410837e+001
 9.345109810635534e-001	 7.313574751479800e-001	 1.249959793266273e+001
 9.264028672734521e-001	 7.416011787118534e-001	 1.225280076917037e+001
 9.181774384891098e-001	 7.517611503641648e-001	 1.200570812125350e+001
 9.098359928802851e-001	 7.618353881480726e-001	 1.175883666203973e+001
 9.013798738840572e-001	 7.718219170347400e-001	 1.151271461895143e+001
 8.928104695038605e-001	 7.817187901971131e-001	 1.126788062718572e+001
 8.841292115657057e-001	 7.915240902616486e-001	 1.102488256263190e+001
 9.874493401548725e-001	 7.050834570126574e-001	 1.360826426048218e+001
 9.796511420596338e-001	 7.158788504332554e-001	 1.338583652347006e+001
 9.717281587605431e-001	 7.265970666006559e-001	 1.316067823708121e+001
 9.636815261960642e-001	 7.372359618482175e-001	 1.293326966557473e+001
 9.555124290044386e-001	 7.477934146427220e-001	 1.270410668836993e+001
 9.472220999888441e-001	 7.582673269592433e-001	 1.247369965432330e+001
 9.388118195362332e-001	 7.686556256406011e-001	 1.224257219570524e+001
 9.302829149903596e-001	 7.789562637395832e-001	 1.201126000657432e+001
 9.216367599796004e-001	 7.891672218421419e-001	 1.178030959047798e+001
 9.128747737002358e-001	 7.992865093697952e-001	 1.155027698261682e+001
 9.039984201559549e-001	 8.093121658594878e-001	 1.132172645179009e+001
 1.009152759192461e+000	 7.205806791014352e-001	 1.368936514080817e+001
 1.001183162369211e+000	 7.316133474258008e-001	 1.348328811952941e+001
 9.930860376541151e-001	 7.425671421970507e-001	 1.327414026954808e+001
 9.848625459527153e-001	 7.534398726323049e-001	 1.306241579379912e+001
 9.765138979407166e-001	 7.642293705685814e-001	 1.284862319468879e+001
 9.680413535173916e-001	 7.749334918678869e-001	 1.263328400905319e+001
 9.594462212116429e-001	 7.855501178065477e-001	 1.241693150266529e+001
 9.507298575412535e-001	 7.960771564469347e-001	 1.220010932949737e+001
 9.418936663259288e-001	 8.065125439897426e-001	 1.198337016120032e+001
 9.329390979548282e-001	 8.168542461050163e-001	 1.176727429248752e+001
 9.238676486093539e-001	 8.271002592401421e-001	 1.155238822830923e+001
 1.030856161947795e+000	 7.360778895636447e-001	 1.371346740961045e+001
 1.022715166525019e+000	 7.473478326137196e-001	 1.352242434864476e+001
 1.014443900524439e+000	 7.585372058120381e-001	 1.332808924770516e+001
 1.006043549818665e+000	 7.696437712595143e-001	 1.313096442963353e+001
 9.975153511208504e-001	 7.806653141634370e-001	 1.293156416232557e+001
 9.888605914263497e-001	 7.915996442727784e-001	 1.273041328117868e+001
 9.800806074060005e-001	 8.024445972974047e-001	 1.252804577248772e+001
 9.711767847515959e-001	 8.131980363093013e-001	 1.232500332351203e+001
 9.621505574741560e-001	 8.238578531239378e-001	 1.212183384520937e+001
 9.530034071557011e-001	 8.344219696599163e-001	 1.191908997387887e+001
 9.437368621553290e-001	 8.448883392750972e-001	 1.171732755816690e+001
 7.450482283302943e-001	 6.670106737908847e-001	 7.005515096838199e+000
 7.376407085647759e-001	 6.751935382033577e-001	 6.621942058776265e+000
 7.301414800067997e-001	 6.832961067697868e-001	 6.246992303234117e+000
 7.225518559652614e-001	 6.913168456532407e-001	 5.880966604880890e+000
 7.148731837902085e-001	 6.992542498395045e-001	 5.524152537648046e+000
 7.071068440770071e-001	 7.071068440770071e-001	 5.176824319179152e+000
 6.992542498395046e-001	 7.148731837902086e-001	 4.839242686918789e+000
 6.913168456532408e-001	 7.225518559652612e-001	 4.511654806951599e+000
 6.832961067697870e-001	 7.301414800067997e-001	 4.194294216578223e+000
 6.751935382033580e-001	 7.376407085647758e-001	 3.887380801500121e+000
 6.670106737908847e-001	 7.450482283302944e-001	 3.591120808349189e+000
 7.649163243024477e-001	 6.847977533105903e-001	 7.798910932009080e+000
 7.573112692520885e-001	 6.931988290128908e-001	 7.442611407665564e+000
 7.496120598240783e-001	 7.015174676312073e-001	 7.092794510000722e+000
 7.418200443491130e-001	 7.097520944260171e-001	 6.749851107095592e+000
 7.339366061068124e-001	 7.179011642491269e-001	 6.414160864499506e+000
 7.259631625086617e-001	 7.259631625086618e-001	 6.086091878860159e+000
 7.179011642491266e-001	 7.339366061068127e-001	 5.766000341590067e+000
 7.097520944260169e-001	 7.418200443491128e-001	 5.454230234299248e+000
 7.015174676312073e-001	 7.496120598240782e-001	 5.151113057616492e+000
 6.931988290128912e-001	 7.573112692520884e-001	 4.856967594889558e+000
 6.847977533105903e-001	 7.649163243024478e-001	 4.572099712125224e+000
 7.847846835317628e-001	 7.025850685127174e-001	 8.515817651612377e+000
 7.769820905793918e-001	 7.112043583964480e-001	 8.183675075355572e+000
 7.690828976316781e-001	 7.197390699298709e-001	 7.856098030060164e+000
 7.610884880415944e-001	 7.281875874703213e-001	 7.533553046826887e+000
 7.530002810188171e-001	 7.365483257350832e-001	 7.216497253916426e+000
 7.448197307914483e-001	 7.448197307914484e-001	 6.905377816980129e+000
 7.365483257350832e-001	 7.530002810188172e-001	 6.600631408024884e+000
 7.281875874703214e-001	 7.610884880415941e-001	 6.302683705457189e+000
 7.197390699298710e-001	 7.690828976316781e-001	 6.011948927436909e+000
 7.112043583964485e-001	 7.769820905793915e-001	 5.728829400644614e+000
 7.025850685127175e-001	 7.847846835317629e-001	 5.453715166423387e+000
 8.046532712476672e-001	 7.203725882687514e-001	 9.158615239806586e+000
 7.966531381217792e-001	 7.292100948435913e-001	 8.847989383510079e+000
 7.885539593546564e-001	 7.379608817771645e-001	 8.540226250084126e+000
 7.803571533219558e-001	 7.466232925231846e-001	 8.235854917446439e+000
 7.720641751638339e-001	 7.551957016639451e-001	 7.935396666687121e+000
 7.636765159254420e-001	 7.636765159254416e-001	 7.639364244525633e+000
 7.551957016639452e-001	 7.720641751638339e-001	 7.348261153491679e+000
 7.466232925231849e-001	 7.803571533219557e-001	 7.062580972774450e+000
 7.379608817771645e-001	 7.885539593546562e-001	 6.782806712574358e+000
 7.292100948435915e-001	 7.966531381217792e-001	 6.509410204658043e+000
 7.203725882687513e-001	 8.046532712476670e-001	 6.242851531671464e+000
 8.245220526795862e-001	 7.381602814501764e-001	 9.729342571331868e+000
 8.163243774543455e-001	 7.472160068438807e-001	 9.438019916096380e+000
 8.080252109180682e-001	 7.561828712844725e-001	 9.148063272782697e+000
 7.996260064694475e-001	 7.650591773216392e-001	 8.860052355572854e+000
 7.911282551794757e-001	 7.738432594022845e-001	 8.574560498582493e+000
 7.825334849107181e-001	 7.825334849107182e-001	 8.292153754466966e+000
 7.738432594022844e-001	 7.911282551794754e-001	 8.013390020010695e+000
 7.650591773216393e-001	 7.996260064694476e-001	 7.738818192241687e+000
 7.561828712844726e-001	 8.080252109180681e-001	 7.468977358500595e+000
 7.472160068438808e-001	 8.163243774543449e-001	 7.204396023759433e+000
 7.381602814501764e-001	 8.245220526795863e-001	 6.945591378332026e+000
 8.443909930569483e-001	 7.559481169284779e-001	 1.022972213673025e+001
 8.359957741521835e-001	 7.652220628868780e-001	 9.955871742170666e+000
 8.274966182469705e-001	 7.744050065631815e-001	 9.682089501325912e+000
 8.188950137633202e-001	 7.834952096027161e-001	 9.408994964967119e+000
 8.101924877033535e-001	 7.924909663166712e-001	 9.137202535456346e+000
 8.013906047473507e-001	 8.013906047473510e-001	 8.867320413791111e+000
 7.924909663166713e-001	 8.101924877033535e-001	 8.599949573143315e+000
 7.834952096027161e-001	 8.188950137633202e-001	 8.335682763030757e+000
 7.744050065631813e-001	 8.274966182469703e-001	 8.075103548146727e+000
 7.652220628868783e-001	 8.359957741521831e-001	 7.818785385737717e+000
 7.559481169284781e-001	 8.443909930569482e-001	 7.567290745257362e+000
 8.642600576091788e-001	 7.737360635751405e-001	 1.066118304315272e+001
 8.556672937903875e-001	 7.832282314621444e-001	 1.040331715350409e+001
 8.469681472664187e-001	 7.926272557246766e-001	 1.014441399468134e+001
 8.381641414828235e-001	 8.019313571034475e-001	 9.885123182362049e+000
 8.292568393730802e-001	 8.111387897736770e-001	 9.626090234344501e+000
 8.202478424354155e-001	 8.202478424354155e-001	 9.367955376747242e+000
 8.111387897736770e-001	 8.292568393730800e-001	 9.111352376443040e+000
 8.019313571034479e-001	 8.381641414828236e-001	 8.856907404467433e+000
 7.926272557246769e-001	 8.469681472664183e-001	 8.605237935029777e+000
 7.832282314621447e-001	 8.556672937903873e-001	 8.356951684615593e+000
 7.737360635751405e-001	 8.642600576091787e-001	 8.112645595501501e+000
 8.841292115657057e-001	 7.915240902616486e-001	 1.102488256263190e+001
 8.753389019440515e-001	 8.012344810592408e-001	 1.078182130854256e+001
 8.664397639014686e-001	 8.108495868803437e-001	 1.053680410233142e+001
 8.574333559072087e-001	 8.203675875608650e-001	 1.029050180830872e+001
 8.483212768262676e-001	 8.297866971398731e-001	 1.004358206621729e+001
 8.391051649749868e-001	 8.391051649749867e-001	 9.796707965776381e+000
 8.297866971398730e-001	 8.483212768262672e-001	 9.550536747407239e+000
 8.203675875608651e-001	 8.574333559072086e-001	 9.305718534491586e+000
 8.108495868803439e-001	 8.664397639014684e-001	 9.062895102404490e+000
 8.012344810592409e-001	 8.753389019440512e-001	 8.822698689418468e+000
 7.915240902616487e-001	 8.841292115657057e-001	 8.585750854405765e+000
 9.039984201559549e-001	 8.093121658594878e-001	 1.132172645179009e+001
 8.950105641882687e-001	 8.192407801677287e-001	 1.109256610526542e+001
 8.859114340771767e-001	 8.290719681415686e-001	 1.086071279735012e+001
 8.767026233157254e-001	 8.388038687119999e-001	 1.062685071650212e+001
 8.673857667005270e-001	 8.484346557818304e-001	 1.039166152663785e+001
 8.579625393661390e-001	 8.579625393661393e-001	 1.015582291772342e+001
 8.484346557818305e-001	 8.673857667005271e-001	 9.920007182675755e+000
 8.388038687120001e-001	 8.767026233157250e-001	 9.684879826550446e+000
 8.290719681415687e-001	 8.859114340771764e-001	 9.451098213886770e+000
 8.192407801677292e-001	 8.950105641882690e-001	 9.219310259933675e+000
 8.093121658594876e-001	 9.039984201559549e-001	 8.990153171302517e+000
 9.238676486093539e-001	 8.271002592401421e-001	 1.155238822830924e+001
 9.146822460981339e-001	 8.372470972771691e-001	 1.133647254991250e+001
 9.053831237185988e-001	 8.472943676197366e-001	 1.111730405464920e+001
 8.959719099876237e-001	 8.572401682938836e-001	 1.089557316662916e+001
 8.864502756334713e-001	 8.670826330661203e-001	 1.067196831620337e+001
 8.768199326089480e-001	 8.768199326089482e-001	 1.044717437284923e+001
 8.670826330661202e-001	 8.864502756334713e-001	 1.022187110464469e+001
 8.572401682938839e-001	 8.959719099876233e-001	 9.996731670956958e+000
 8.472943676197369e-001	 9.053831237185986e-001	 9.772421154865024e+000
 8.372470972771693e-001	 9.146822460981338e-001	 9.549595141688419e+000
 8.271002592401420e-001	 9.238676486093538e-001	 9.328898349810100e+000
 9.437368621553290e-001	 8.448883392750972e-001	 1.171732755816690e+001
 9.343539132487400e-001	 8.552534008771232e-001	 1.151422184348340e+001
 9.248547987507909e-001	 8.655167534262337e-001	 1.130747656269508e+001
 9.152411822021542e-001	 8.756764540435483e-001	 1.109778207410824e+001
 9.055147702627121e-001	 8.857305963593138e-001	 1.088582710804302e+001
 8.956773117034877e-001	 8.956773117034877e-001	 1.067229708682366e+001
 8.857305963593136e-001	 9.055147702627120e-001	 1.045787247175837e+001
 8.756764540435487e-001	 9.152411822021543e-001	 1.024322714440900e+001
 8.655167534262338e-001	 9.248547987507906e-001	 1.002902682934497e+001
 8.552534008771235e-001	 9.343539132487400e-001	 9.815927565431078e+000
 8.448883392750972e-001	 9.437368621553290e-001	 9.604574232505817e+000
 6.670106737908847e-001	 7.450482283302944e-001	 3.591120808349188e+000
 6.587478301396494e-001	 7.523638511618765e-001	 3.306367145797249e+000
 6.504078186112842e-001	 7.595852159436007e-001	 3.033674411569376e+000
 6.419922549603810e-001	 7.667111160878263e-001	 2.772574700530065e+000
 6.335027797617580e-001	 7.737403819358265e-001	 2.522563238657136e+000
 6.249410573556360e-001	 7.806718813845671e-001	 2.283100688898903e+000
 6.163087747742402e-001	 7.875045204774027e-001	 2.053615148695740e+000
 6.076076406512598e-001	 7.942372439580681e-001	 1.833504206413143e+000
 5.988393841156301e-001	 8.008690357874087e-001	 1.622137048029155e+000
 5.900057536711104e-001	 8.073989196223578e-001	 1.418856605335487e+000
 5.811085160631598e-001	 8.138259592567365e-001	 1.222981736874289e+000
 6.847977533105903e-001	 7.649163243024478e-001	 4.572099712125222e+000
 6.763145655744853e-001	 7.724270318165426e-001	 4.296641520914077e+000
 6.677521521363645e-001	 7.798409677148592e-001	 4.030469734059055e+000
 6.591121718378926e-001	 7.871568932337911e-001	 3.773579839219235e+000
 6.503963090028355e-001	 7.943736075234259e-001	 3.526073292509518e+000
 6.416062723541131e-001	 8.014899482910342e-001	 3.287658724379035e+000
 6.327437939117715e-001	 8.085047924075213e-001	 3.058009629262330e+000
 6.238106278733671e-001	 8.154170564761908e-001	 2.836770654198663e+000
 6.148085494782434e-001	 8.222256973632528e-001	 2.623559405718845e+000
 6.057393538572370e-001	 8.289297126895775e-001	 2.417968298620406e+000
 5.966048548693304e-001	 8.355281412832460e-001	 2.219566437772747e+000
 7.025850685127175e-001	 7.847846835317629e-001	 5.453715166423383e+000
 6.938815337718786e-001	 7.924904783129740e-001	 5.186328227545825e+000
 6.850967154768765e-001	 8.000969878791008e-001	 4.926207709867685e+000
 6.762323155570231e-001	 8.076029412901695e-001	 4.673315670869322e+000
 6.672900620856203e-001	 8.150071065046908e-001	 4.427584853661767e+000
 6.582717081688780e-001	 8.223082910398658e-001	 4.189220322612222e+000
 6.491790308152676e-001	 8.295053425937874e-001	 3.958487905697851e+000
 6.400138297868191e-001	 8.365971496289765e-001	 3.735241486265031e+000
 6.307779264339035e-001	 8.435826419166743e-001	 3.519307799997899e+000
 6.214731625150548e-001	 8.504607910413637e-001	 3.310489561104860e+000
 6.121013990034109e-001	 8.572306108650806e-001	 3.108567120748122e+000
 7.203725882687513e-001	 8.046532712476670e-001	 6.242851531671464e+000
 7.114487039889693e-001	 8.125541555392345e-001	 5.982504086898348e+000
 7.024414782792147e-001	 8.203532409874392e-001	 5.727617707172686e+000
 6.933526561569474e-001	 8.280492244755900e-001	 5.478319317470199e+000
 6.841840094455123e-001	 8.356408427702818e-001	 5.234708868865699e+000
 6.749373356349262e-001	 8.431268731983188e-001	 4.996859568323219e+000
 6.656144567226074e-001	 8.505061342846644e-001	 4.764823360763010e+000
 6.562172180355886e-001	 8.577774863507547e-001	 4.539087553213975e+000
 6.467474870358031e-001	 8.649398320725696e-001	 4.319953297348083e+000
 6.372071521100248e-001	 8.719921169979257e-001	 4.107396929545631e+000
 6.275981213460915e-001	 8.789333300225429e-001	 3.901373542489147e+000
 7.381602814501764e-001	 8.245220526795863e-001	 6.945591378332026e+000
 7.290160454828980e-001	 8.326180283833888e-001	 6.691642183244449e+000
 7.197864101897744e-001	 8.406096915909894e-001	 6.441550608698671e+000
 7.104731636768402e-001	 8.484957070086824e-001	 6.195576377594254e+000
 7.010781215179124e-001	 8.562747802108592e-001	 5.953954352892414e+000
 6.916031255872530e-001	 8.639456583336479e-001	 5.716894490040666e+000
 6.820500428716690e-001	 8.715071307286154e-001	 5.484581863511990e+000
 6.724207642636474e-001	 8.789580295758552e-001	 5.257176767959372e+000
 6.627172033371352e-001	 8.862972304558352e-001	 5.034886607856110e+000
 6.529412951076060e-001	 8.935236528794697e-001	 4.818459965998307e+000
 6.430949947780622e-001	 9.006362607759364e-001	 4.608141539407209e+000
 7.559481169284781e-001	 8.443909930569482e-001	 7.567290745257362e+000
 7.465835275108047e-001	 8.526820617335017e-001	 7.319450935397363e+000
 7.371314808549522e-001	 8.608663042408662e-001	 7.074056051487960e+000
 7.275938081558757e-001	 8.689423531080758e-001	 6.831468957310506e+000
 7.179723687382216e-001	 8.769088827170832e-001	 6.592029543567979e+000
 7.082690488608532e-001	 8.847646100131092e-001	 6.356054446925528e+000
 6.984857605003324e-001	 8.925082951741050e-001	 6.123836845175699e+000
 6.886244401149675e-001	 9.001387422386066e-001	 5.895646329720885e+000
 6.786870473910933e-001	 9.076547996913686e-001	 5.671728856214296e+000
 6.686755639732595e-001	 9.150553610062049e-001	 5.452306773849863e+000
 6.585919921800143e-001	 9.223393651455637e-001	 5.237881596392255e+000
 7.737360635751405e-001	 8.642600576091787e-001	 8.112645595501501e+000
 7.641511193298295e-001	 8.727462204776371e-001	 7.870944549601243e+000
 7.544766599211421e-001	 8.811230434881837e-001	 7.630456700880932e+000
 7.447145596332283e-001	 8.893891269924001e-001	 7.391620604534021e+000
 7.348667215418387e-001	 8.975431141796131e-001	 7.154853501092156e+000
 7.249350762907217e-001	 9.055836918039589e-001	 6.920550843244393e+000
 7.149215808464768e-001	 9.135095908695964e-001	 6.689085901178086e+000
 7.048282172335210e-001	 9.213195872733390e-001	 6.460809448260024e+000
 6.946569912508708e-001	 9.290125024040664e-001	 6.236049528504042e+000
 6.844099311724454e-001	 9.365872036983384e-001	 6.015111306885171e+000
 6.740890864326372e-001	 9.440426051517270e-001	 5.798277003166366e+000
 7.915240902616487e-001	 8.841292115657057e-001	 8.585750854405765e+000
 7.817187901971132e-001	 8.928104695038602e-001	 8.350505495864038e+000
 7.718219170347405e-001	 9.013798738840568e-001	 8.115414011331941e+000
 7.618353881480727e-001	 9.098359928802848e-001	 7.880965225142163e+000
 7.517611503641654e-001	 9.181774384891095e-001	 7.647628074958515e+000
 7.416011787118534e-001	 9.264028672734516e-001	 7.415850984865600e+000
 7.313574751479802e-001	 9.345109810635529e-001	 7.186061319783977e+000
 7.210320672632804e-001	 9.425005276143819e-001	 6.958664923607504e+000
 7.106270069696605e-001	 9.503703012188257e-001	 6.734045743055827e+000
 7.001443691706240e-001	 9.581191432760788e-001	 6.512565538821812e+000
 6.895862504166215e-001	 9.657459428147290e-001	 6.294563685163075e+000
 8.093121658594876e-001	 9.039984201559549e-001	 8.990153171302517e+000
 7.992865093697955e-001	 9.128747737002357e-001	 8.761940235022038e+000
 7.891672218421421e-001	 9.216367599796004e-001	 8.532986783876730e+000
 7.789562637395836e-001	 9.302829149903595e-001	 8.303808357288315e+000
 7.686556256406014e-001	 9.388118195362329e-001	 8.074901803055802e+000
 7.582673269592435e-001	 9.472220999888438e-001	 7.846744532655674e+000
 7.477934146427224e-001	 9.555124290044385e-001	 7.619793861104882e+000
 7.372359618482179e-001	 9.636815261960636e-001	 7.394486434313088e+000
 7.265970666006564e-001	 9.717281587605428e-001	 7.171237746421946e+000
 7.158788504332557e-001	 9.796511420596336e-001	 6.950441749180653e+000
 7.050834570126574e-001	 9.874493401548724e-001	 6.732470554943236e+000
 8.271002592401420e-001	 9.238676486093538e-001	 9.328898349810100e+000
 8.168542461050161e-001	 9.329390979548274e-001	 9.108529212676260e+000
 8.065125439897432e-001	 9.418936663259284e-001	 8.886683604729250e+000
 7.960771564469352e-001	 9.507298575412534e-001	 8.663881954378308e+000
 7.855501178065478e-001	 9.594462212116428e-001	 8.440626957528256e+000
 7.749334918678871e-001	 9.680413535173916e-001	 8.217402748582165e+000
 7.642293705685818e-001	 9.765138979407163e-001	 7.994674159697027e+000
 7.534398726323054e-001	 9.848625459527151e-001	 7.772886071714842e+000
 7.425671421970511e-001	 9.930860376541149e-001	 7.552462859730761e+000
 7.316133474258009e-001	 1.001183162369211e+000	 7.333807935778532e+000
 7.205806791014350e-001	 1.009152759192461e+000	 7.117303390612244e+000
 8.448883392750972e-001	 9.437368621553290e-001	 9.604574232505811e+000
 8.344219696599168e-001	 9.530034071557009e-001	 9.393071964976080e+000
 8.238578531239379e-001	 9.621505574741556e-001	 9.179510066819729e+000
 8.131980363093018e-001	 9.711767847515958e-001	 8.964393633401979e+000
 8.024445972974047e-001	 9.800806074060000e-001	 8.748210747415024e+000
 7.915996442727787e-001	 9.888605914263492e-001	 8.531431596708059e+000
 7.806653141634378e-001	 9.975153511208502e-001	 8.314507684536855e+000
 7.696437712595147e-001	 1.006043549818664e+000	 8.097871136121690e+000
 7.585372058120381e-001	 1.014443900524439e+000	 7.881934104909363e+000
 7.473478326137197e-001	 1.022715166525019e+000	 7.667088281416973e+000
 7.360778895636447e-001	 1.030856161947795e+000	 7.453704506994614e+000
 5.811085160631598e-001	 8.138259592567365e-001	 1.222981736874289e+000
 5.721494549410069e-001	 8.201492587923698e-001	 1.034230882681205e+000
 5.631303691352768e-001	 8.263679623034138e-001	 8.531145585886255e-001
 5.540530720989083e-001	 8.324812548450976e-001	 6.801096435825806e-001
 5.449193909360234e-001	 8.384883629704416e-001	 5.156751814337038e-001
 5.357311652289509e-001	 8.443885549780589e-001	 3.602523625734438e-001
 5.264902458615942e-001	 8.501811411206631e-001	 2.142645151608697e-001
 5.171984938406531e-001	 8.558654737743153e-001	 7.811710211572367e-002
 5.078577791162047e-001	 8.614409475685217e-001	-4.780227890641869e-002
 4.984699794031354e-001	 8.669069994773562e-001	-1.631238953865680e-001
 4.890369790048947e-001	 8.722631088718383e-001	-2.674958822025856e-001
 5.966048548693304e-001	 8.355281412832460e-001	 2.219566437772747e+000
 5.874068837280612e-001	 8.420200633552516e-001	 2.028377355861861e+000
 5.781472872332619e-001	 8.484046001549332e-001	 1.844864049816664e+000
 5.688279271970237e-001	 8.546809150055598e-001	 1.669225087321391e+000
 5.594506794466541e-001	 8.608482138348051e-001	 1.501641630511655e+000
 5.500174326204226e-001	 8.669057454291612e-001	 1.342278003495394e+000
 5.405300869595507e-001	 8.728528016480033e-001	 1.191282258998756e+000
 5.309905530979981e-001	 8.786887175973517e-001	 1.048786739244759e+000
 5.214007508515948e-001	 8.844128717634381e-001	 9.149086264552091e-001
 5.117626080080410e-001	 8.900246861062577e-001	 7.897504786831417e-001
 5.020780591192976e-001	 8.955236261133455e-001	 6.734007470267548e-001
 6.121013990034109e-001	 8.572306108650806e-001	 3.108567120748122e+000
 6.026645146774509e-001	 8.638911577076851e-001	 2.913775867063809e+000
 5.931644043068415e-001	 8.704415299933851e-001	 2.726507804272980e+000
 5.836029780634553e-001	 8.768808693131818e-001	 2.546749127485727e+000
 5.739821604984207e-001	 8.832083609691109e-001	 2.374469134354408e+000
 5.643038893065868e-001	 8.894232342352664e-001	 2.209621291432521e+000
 5.545701140871353e-001	 8.955247625774229e-001	 2.052144289809998e+000
 5.447827951019332e-001	 9.015122638313121e-001	 1.901963083560564e+000
 5.349439020332119e-001	 9.073851003396590e-001	 1.758989904906391e+000
 5.250554127421402e-001	 9.131426790481642e-001	 1.623125250407604e+000
 5.151193120298433e-001	 9.187844515606747e-001	 1.494258832920304e+000
 6.275981213460915e-001	 8.789333300225429e-001	 3.901373542489147e+000
 6.179223210879753e-001	 8.857625035748910e-001	 3.702247215478125e+000
 6.081816940757198e-001	 8.924787132537713e-001	 3.510320396792624e+000
 5.983781988415264e-001	 8.990810789176518e-001	 3.325427593428168e+000
 5.885138086608939e-001	 9.055687652426796e-001	 3.147387010591278e+000
 5.785905102858037e-001	 9.119409819903060e-001	 2.976002037259953e+000
 5.686103026739570e-001	 9.181969842324798e-001	 2.811062711249755e+000
 5.585751957156880e-001	 9.243360725344285e-001	 2.652347155832373e+000
 5.484872089601939e-001	 9.303575930951707e-001	 2.499622980404073e+000
 5.383483703426764e-001	 9.362609378459221e-001	 2.352648638198655e+000
 5.281607149139947e-001	 9.420455445066668e-001	 2.211174734571327e+000
 6.430949947780622e-001	 9.006362607759364e-001	 4.608141539407209e+000
 6.331802762584340e-001	 9.076340626820887e-001	 4.404349961329093e+000
 6.231991302596035e-001	 9.145161113710948e-001	 4.207283923756920e+000
 6.131535636745616e-001	 9.212815049686619e-001	 4.016682108602468e+000
 6.030455985036436e-001	 9.279293875248307e-001	 3.832267588738787e+000
 5.928772705564347e-001	 9.344589492882119e-001	 3.653749659992446e+000
 5.826506281496253e-001	 9.408694269367315e-001	 3.480825642813953e+000
 5.723677308024934e-001	 9.471601037649344e-001	 3.313182644242241e+000
 5.620306479316780e-001	 9.533303098279592e-001	 3.150499271318173e+000
 5.516414575468935e-001	 9.593794220423777e-001	 2.992447287695037e+000
 5.412022449492144e-001	 9.653068642441641e-001	 2.838693205827445e+000
 6.585919921800143e-001	 9.223393651455637e-001	 5.237881596392255e+000
 6.484383534876271e-001	 9.295057967545003e-001	 5.029474142364401e+000
 6.382166865781973e-001	 9.365536857803576e-001	 4.827187117103495e+000
 6.279290467058840e-001	 9.434821086159000e-001	 4.630714794659990e+000
 6.175775045962408e-001	 9.502901886848859e-001	 4.439736639791469e+000
 6.071641451168407e-001	 9.569770967229156e-001	 4.253919420244166e+000
 5.966910659437505e-001	 9.635420510137374e-001	 4.072919278690065e+000
 5.861603762255798e-001	 9.699843175810626e-001	 3.896383753541419e+000
 5.755741952468018e-001	 9.763032103360100e-001	 3.723953738502538e+000
 5.649346510920359e-001	 9.824980911803786e-001	 3.555265371408003e+000
 5.542438793129652e-001	 9.885683700660078e-001	 3.389951843643960e+000
 6.740890864326372e-001	 9.440426051517270e-001	 5.798277003166366e+000
 6.636965260743544e-001	 9.513776675173451e-001	 5.585919591456872e+000
 6.532343367512071e-001	 9.585913979165629e-001	 5.378708412486951e+000
 6.427046220788177e-001	 9.656828510090559e-001	 5.176596256361031e+000
 6.321095015082566e-001	 9.726511295921647e-001	 4.979266394556417e+000
 6.214511089653827e-001	 9.794953848883492e-001	 4.786390539250910e+000
 6.107315914859414e-001	 9.862148167870553e-001	 4.597631125487931e+000
 5.999531078481777e-001	 9.928086740410449e-001	 4.412643530483703e+000
 5.891178272047025e-001	 9.992762544173094e-001	 4.231078218663765e+000
 5.782279277153468e-001	 1.005616904802770e+000	 4.052582801818692e+000
 5.672855951827097e-001	 1.011830021265040e+000	 3.876804004626780e+000
 6.895862504166215e-001	 9.657459428147290e-001	 6.294563685163075e+000
 6.789547673174154e-001	 9.732496366958434e-001	 6.080256520318200e+000
 6.682520544983374e-001	 9.806292092147124e-001	 5.869474142844242e+000
 6.574802639366865e-001	 9.878836932978199e-001	 5.662339478027662e+000
 6.466415638092613e-001	 9.950121711159888e-001	 5.459253890179664e+000
 6.357381371004214e-001	 1.002013774378445e+000	 5.259949053371219e+000
 6.247721802058078e-001	 1.008887684580244e+000	 5.064137379785962e+000
 6.137459015335173e-001	 1.015633133203115e+000	 4.871525736846786e+000
 6.026615201045177e-001	 1.022249401869843e+000	 4.681817722890293e+000
 5.915212641540704e-001	 1.028735822452400e+000	 4.494715843330172e+000
 5.803273697359112e-001	 1.035091777134104e+000	 4.309923576533251e+000
 7.050834570126574e-001	 9.874493401548724e-001	 6.732470554943236e+000
 6.942130505156093e-001	 9.951216660152162e-001	 6.517383156796573e+000
 6.832698135392946e-001	 1.002667081109809e+000	 6.304893257926448e+000
 6.722559464228145e-001	 1.010084596631881e+000	 6.094817058678752e+000
 6.611736660688248e-001	 1.017373274125677e+000	 5.887086903097701e+000
 6.500252045203179e-001	 1.024532225787134e+000	 5.682357753349338e+000
 6.388128075329591e-001	 1.031560614716861e+000	 5.480576886276255e+000
 6.275387331448294e-001	 1.038457655125506e+000	 5.281542801800672e+000
 6.162052502453845e-001	 1.045222612491597e+000	 5.085052321567296e+000
 6.048146371454503e-001	 1.051854803672115e+000	 4.890902831288818e+000
 5.933691801500318e-001	 1.058353596966040e+000	 4.698894396488658e+000
 7.205806791014350e-001	 1.009152759192461e+000	 7.117303390612244e+000
 7.094713489677368e-001	 1.016993717200683e+000	 6.902814021421344e+000
 6.982875875937836e-001	 1.024704975036855e+000	 6.689942348076126e+000
 6.870316436805245e-001	 1.032285522160929e+000	 6.478638451694328e+000
 6.757057828565191e-001	 1.039734399490552e+000	 6.268823075390695e+000
 6.643122862234336e-001	 1.047050699708348e+000	 6.060415153827675e+000
 6.528534488970054e-001	 1.054233567520466e+000	 5.854113697759298e+000
 6.413315785453441e-001	 1.061282199866449e+000	 5.650221950197087e+000
 6.297489939264409e-001	 1.068195846080558e+000	 5.448666786328571e+000
 6.181080234267309e-001	 1.074973808004762e+000	 5.249377240751290e+000
 6.064110036025345e-001	 1.081615440053690e+000	 5.052286627766942e+000
 7.360778895636447e-001	 1.030856161947795e+000	 7.453704506994614e+000
 7.247296359725969e-001	 1.038865751977465e+000	 7.241421964695094e+000
 7.133053503815100e-001	 1.046742852430853e+000	 7.029739956331617e+000
 7.018073298531414e-001	 1.054486431034653e+000	 6.818780188248243e+000
 6.902378887419133e-001	 1.062095508079932e+000	 6.608633372713979e+000
 6.785993572081289e-001	 1.069569156736019e+000	 6.399359751033774e+000
 6.668940797275554e-001	 1.076906503314615e+000	 6.190989738124797e+000
 6.551244135982921e-001	 1.084106727484178e+000	 5.984161250582272e+000
 6.432927274468241e-001	 1.091169062434711e+000	 5.779609794447918e+000
 6.314013997351553e-001	 1.098092794993187e+000	 5.577429970292886e+000
 6.194528172708823e-001	 1.104877265689896e+000	 5.377722017954090e+000
 4.890369790048947e-001	 8.722631088718383e-001	-2.674958822025856e-001
 4.795620922583881e-001	 8.775080191404552e-001	-3.614533008228030e-001
 4.700458011791232e-001	 8.826421068707412e-001	-4.460327074729147e-001
 4.604900024760815e-001	 8.876649794392211e-001	-5.216097400629780e-001
 4.508965947721492e-001	 8.925762864264074e-001	-5.885675973560496e-001
 4.412674774614073e-001	 8.973757194803052e-001	-6.472960130871410e-001
 4.316045495771119e-001	 9.020630121438829e-001	-6.981902749865168e-001
 4.219097086716460e-001	 9.066379396471510e-001	-7.416502908515125e-001
 4.121848497096852e-001	 9.111003186645381e-001	-7.780797033929854e-001
 4.024318639757791e-001	 9.154500070382969e-001	-8.078850551722580e-001
 3.926526379975132e-001	 9.196869034687287e-001	-8.314750045396329e-001
 5.020780591192976e-001	 8.955236261133455e-001	 6.734007470267537e-001
 4.923505069052577e-001	 9.009084016633493e-001	 5.652402505112175e-001
 4.825804462352116e-001	 9.061793993862045e-001	 4.644266621478482e-001
 4.727698243973318e-001	 9.113362161883819e-001	 3.707494362424240e-001
 4.629205906447349e-001	 9.163784923057911e-001	 2.839928730822412e-001
 4.530346950222969e-001	 9.213059111636408e-001	 2.039368981320517e-001
 4.431140872044481e-001	 9.261181991993089e-001	 1.303577889833978e-001
 4.331607153452558e-001	 9.308151256488803e-001	 6.302884836534384e-002
 4.231765249420745e-001	 9.353965022980481e-001	 1.721022001149430e-003
 4.131634577139962e-001	 9.398621831981489e-001	-5.379653944373875e-002
 4.031234504962961e-001	 9.442120643481218e-001	-1.037559746216874e-001
 5.151193120298433e-001	 9.187844515606747e-001	 1.494258832920304e+000
 5.051390910003677e-001	 9.243090942455400e-001	 1.371748300312711e+000
 4.951152573769660e-001	 9.297170037752285e-001	 1.254946310923501e+000
 4.850498090276870e-001	 9.350077665860250e-001	 1.143781293485807e+000
 4.749447458365616e-001	 9.401810135691123e-001	 1.038178590759934e+000
 4.648020684999465e-001	 9.452364199267954e-001	 9.380610429408074e-001
 4.546237773341315e-001	 9.501737049907748e-001	 8.433495102279709e-001
 4.444118710955522e-001	 9.549926320031291e-001	 7.539633332222973e-001
 4.341683458149254e-001	 9.596930078607580e-001	 6.698207303497861e-001
 4.238951936465673e-001	 9.642746828240313e-001	 5.908391320376003e-001
 4.135944017341220e-001	 9.687375501904937e-001	 5.169354518828211e-001
 5.281607149139947e-001	 9.420455445066668e-001	 2.211174734571328e+000
 5.179278221633580e-001	 9.477100559350588e-001	 2.074583374759308e+000
 5.076502126681390e-001	 9.532548788462153e-001	 1.942414255900315e+000
 4.973299348768570e-001	 9.586795892061150e-001	 1.814710422312843e+000
 4.869690393050530e-001	 9.639838085611113e-001	 1.691513605969962e+000
 4.765695773011597e-001	 9.691672038905159e-001	 1.572864663845626e+000
 4.661335998239204e-001	 9.742294874202678e-001	 1.458803944433975e+000
 4.556631562327351e-001	 9.791704163983791e-001	 1.349371582355269e+000
 4.451602930922758e-001	 9.839897928328980e-001	 1.244607720577007e+000
 4.346270529926753e-001	 9.886874631931896e-001	 1.144552660377021e+000
 4.240654733865390e-001	 9.932633180753757e-001	 1.049246939762666e+000
 5.412022449492144e-001	 9.653068642441641e-001	 2.838693205827445e+000
 5.307166780138688e-001	 9.711112457799382e-001	 2.688679125183165e+000
 5.201852901724831e-001	 9.767929834075640e-001	 2.542115923274512e+000
 5.096101804545525e-001	 9.823516426226165e-001	 2.399138444488317e+000
 4.989934500076327e-001	 9.877868356265305e-001	 2.259881744432920e+000
 4.883372008327390e-001	 9.930982211755463e-001	 2.124481430078277e+000
 4.776435345315737e-001	 9.982855043897770e-001	 1.993073917505875e+000
 4.669145510670048e-001	 1.003348436523111e+000	 1.865796606333797e+000
 4.561523475381646e-001	 1.008286814694700e+000	 1.742787970584416e+000
 4.453590169715055e-001	 1.013100481582870e+000	 1.624187566450378e+000
 4.345366471290956e-001	 1.017789325082299e+000	 1.510135958082007e+000
 5.542438793129652e-001	 9.885683700660078e-001	 3.389951843643961e+000
 5.435056361715400e-001	 9.945126228282095e-001	 3.227539772697572e+000
 5.327204679537507e-001	 1.000331276267676e+000	 3.067888139515837e+000
 5.218905242704836e-001	 1.006023885409494e+000	 2.911202121770045e+000
 5.110179569017250e-001	 1.011590053110111e+000	 2.757688426520112e+000
 5.001049185014878e-001	 1.017029429902632e+000	 2.607555581393912e+000
 4.891535613148492e-001	 1.022341713801290e+000	 2.461014130059483e+000
 4.781660359085608e-001	 1.027526650065803e+000	 2.318276731107112e+000
 4.671444899166298e-001	 1.032584030926394e+000	 2.179558160263115e+000
 4.560910668022418e-001	 1.037513695270322e+000	 2.045075216647279e+000
 4.450079046373392e-001	 1.042315528290796e+000	 1.915046534551290e+000
 5.672855951827097e-001	 1.011830021265040e+000	 3.876804004626780e+000
 5.562946742560117e-001	 1.017914146127906e+000	 3.703367422754627e+000
 5.452557240756947e-001	 1.023869716234950e+000	 3.532250454414860e+000
 5.341709448343607e-001	 1.029696276140713e+000	 3.363708315887268e+000
 5.230425389447536e-001	 1.035393419356594e+000	 3.197998910844551e+000
 5.118727097142090e-001	 1.040960788192517e+000	 3.035383120457159e+000
 5.006636600315058e-001	 1.046398073556794e+000	 2.876124982524869e+000
 4.894175910676038e-001	 1.051705014714938e+000	 2.720491758706245e+000
 4.781367009917101e-001	 1.056881399008212e+000	 2.568753889839142e+000
 4.668231837040680e-001	 1.061927061532788e+000	 2.421184840250872e+000
 4.554792275868185e-001	 1.066841884780397e+000	 2.278060832836827e+000
 5.803273697359112e-001	 1.035091777134104e+000	 4.309923576533251e+000
 5.690837698869242e-001	 1.041315774727058e+000	 4.127170730375158e+000
 5.577910366020672e-001	 1.047408262117787e+000	 3.946517361300739e+000
 5.464514206558941e-001	 1.053368773390236e+000	 3.768249440382781e+000
 5.350671750941417e-001	 1.059196892710721e+000	 3.592656669994089e+000
 5.236405538777058e-001	 1.064892254165949e+000	 3.420032820594917e+000
 5.121738105393013e-001	 1.070454541558279e+000	 3.250675939128962e+000
 5.006691968543333e-001	 1.075883488158995e+000	 3.084888427951056e+000
 4.891289615274439e-001	 1.081178876420386e+000	 2.922976994270198e+000
 4.775553488961686e-001	 1.086340537647518e+000	 2.765252471128612e+000
 4.659505976530813e-001	 1.091368351630633e+000	 2.612029511944429e+000
 5.933691801500318e-001	 1.058353596966040e+000	 4.698894396488657e+000
 5.818729006839174e-001	 1.064717467673700e+000	 4.508857785264404e+000
 5.703263835966207e-001	 1.070946872724587e+000	 4.320894353289329e+000
 5.587319302447942e-001	 1.077041335732030e+000	 4.135302405419196e+000
 5.470918443073141e-001	 1.083000431517234e+000	 3.952384954736991e+000
 5.354084303987811e-001	 1.088823785943670e+000	 3.772450153875242e+000
 5.236839926959944e-001	 1.094511075707730e+000	 3.595811578154202e+000
 5.119208335789496e-001	 1.100062028086456e+000	 3.422788359213985e+000
 5.001212522878693e-001	 1.105476420643145e+000	 3.253705169033432e+000
 4.882875435977276e-001	 1.110754080891756e+000	 3.088892055413968e+000
 4.764219965116759e-001	 1.115894885921038e+000	 2.928684131160834e+000
 6.064110036025345e-001	 1.081615440053690e+000	 5.052286627766944e+000
 5.946620442666315e-001	 1.088119184015863e+000	 4.857315592790794e+000
 5.828617431231077e-001	 1.094485506863751e+000	 4.664560249205713e+000
 5.710124521107710e-001	 1.100713921740058e+000	 4.474313540721131e+000
 5.591165255416936e-001	 1.106803994120874e+000	 4.286874077600837e+000
 5.471763186842381e-001	 1.112755341646426e+000	 4.102546710675352e+000
 5.351941863593436e-001	 1.118567633907137e+000	 3.921642934769973e+000
 5.231724815516523e-001	 1.124240592185799e+000	 3.744481119885609e+000
 5.111135540370250e-001	 1.129773989156722e+000	 3.571386569852217e+000
 4.990197490279291e-001	 1.135167648542751e+000	 3.402691409530227e+000
 4.868934058381502e-001	 1.140421444731140e+000	 3.238734302954290e+000
 6.194528172708823e-001	 1.104877265689896e+000	 5.377722017954090e+000
 6.074511782547066e-001	 1.111520882801578e+000	 5.180478126974930e+000
 5.953970932452811e-001	 1.118024123343679e+000	 4.985737813278651e+000
 5.832929647635355e-001	 1.124386489988285e+000	 4.793771563602155e+000
 5.711411977547046e-001	 1.130607538866383e+000	 4.604856520797211e+000
 5.589441981408800e-001	 1.136686879394964e+000	 4.419277249189255e+000
 5.467043713871070e-001	 1.142624174058487e+000	 4.237326304101579e+000
 5.344241210826420e-001	 1.148419138145508e+000	 4.059304603438551e+000
 5.221058475389493e-001	 1.154071539441348e+000	 3.885521600797091e+000
 5.097519464059575e-001	 1.159581197877748e+000	 3.716295261119693e+000
 4.973648073080526e-001	 1.164947985140473e+000	 3.551951841404558e+000
 3.926526379975132e-001	 9.196869034687287e-001	-8.314750045396335e-001
 3.828475801467558e-001	 9.238115574925391e-001	-8.488122766620894e-001
 3.730200306188907e-001	 9.278233049990164e-001	-8.598395671952444e-001
 3.631718566724364e-001	 9.317221658209343e-001	-8.649559278383483e-001
 3.533049166519175e-001	 9.355081991183116e-001	-8.645731552172895e-001
 3.434210590039754e-001	 9.391815029145867e-001	-8.591150539389614e-001
 3.335221213151300e-001	 9.427422136050959e-001	-8.490167296353075e-001
 3.236099293720240e-001	 9.461905054388913e-001	-8.347239113064426e-001
 3.136862962449287e-001	 9.495265899749483e-001	-8.166923020308290e-001
 3.037530213952429e-001	 9.527507155138412e-001	-7.953869569045469e-001
 2.938118898076575e-001	 9.558631665059839e-001	-7.712816868810779e-001
 4.031234504962961e-001	 9.442120643481218e-001	-1.037559746216861e-001
 3.930569225507893e-001	 9.484467099390737e-001	-1.482952021456476e-001
 3.829673031454391e-001	 9.525654381505309e-001	-1.875725383218143e-001
 3.728565093327700e-001	 9.565682693441295e-001	-2.218799709199073e-001
 3.627264490136037e-001	 9.604552642574863e-001	-2.515187805045978e-001
 3.525790199269326e-001	 9.642265235280024e-001	-2.767990346651263e-001
 3.424161086620218e-001	 9.678821871882342e-001	-2.980391205077182e-001
 3.322395896935921e-001	 9.714224341338947e-001	-3.155653138479959e-001
 3.220513244408873e-001	 9.748474815655582e-001	-3.297113832851406e-001
 3.118531603513711e-001	 9.781575844051820e-001	-3.408182270902009e-001
 3.016469300097510e-001	 9.813530346885655e-001	-3.492335406448213e-001
 4.135944017341220e-001	 9.687375501904937e-001	 5.169354518828206e-001
 4.032664002295056e-001	 9.730821888058526e-001	 4.478501385398637e-001
 3.929147074744283e-001	 9.773078991396467e-001	 3.832701260617646e-001
 3.825412903160630e-001	 9.814147020823927e-001	 3.229946947799052e-001
 3.721481062121692e-001	 9.854026599493356e-001	 2.668167665536894e-001
 3.617371021947266e-001	 9.892718759918833e-001	 2.145232081369670e-001
 3.513102138563779e-001	 9.930224938798733e-001	 1.658950873283329e-001
 3.408693643605514e-001	 9.966546971557493e-001	 1.207078843203759e-001
 3.304164634760869e-001	 1.000168708661770e+000	 7.873166096020290e-002
 3.199534066371336e-001	 1.003564789941372e+000	 3.973119090326138e-002
 3.094820740290298e-001	 1.006843240615851e+000	 3.466053878262265e-003
 4.240654733865390e-001	 9.932633180753757e-001	 1.049246939762666e+000
 4.134759953160149e-001	 9.977179509799359e-001	 9.583490712242386e-001
 4.028622261975744e-001	 1.002050644666225e+000	 8.714376723108863e-001
 3.922261826735969e-001	 1.006261420553655e+000	 7.883887945094878e-001
 3.815698717593336e-001	 1.010350342535127e+000	 7.090746090985420e-001
 3.708952897803033e-001	 1.014317516476093e+000	 6.333635346354254e-001
 3.602044213330748e-001	 1.018163089683720e+000	 5.611203074378306e-001
 3.494992382703299e-001	 1.021887250347247e+000	 4.922059983243687e-001
 3.387816987110452e-001	 1.025490226950689e+000	 4.264779792227644e-001
 3.280537460765931e-001	 1.028972287659046e+000	 3.637898435603191e-001
 3.173173081534752e-001	 1.032333739679205e+000	 3.039912846181894e-001
 4.345366471290956e-001	 1.017789325082299e+000	 1.510135958082008e+000
 4.236856899434281e-001	 1.022353953348383e+000	 1.400236883018186e+000
 4.128098419065946e-001	 1.026793631430127e+000	 1.293994024202531e+000
 4.019111694566534e-001	 1.031108381275849e+000	 1.191346882338024e+000
 3.909917291668159e-001	 1.035298268356127e+000	 1.092233160751513e+000
 3.800535666566081e-001	 1.039363401150492e+000	 9.965887414122272e-001
 3.690987155269897e-001	 1.043303930603482e+000	 9.043475931544545e-001
 3.581291963203557e-001	 1.047120049551180e+000	 8.154416162280103e-001
 3.471470155062802e-001	 1.050811992119420e+000	 7.298004276977075e-001
 3.361541644938120e-001	 1.054380033094837e+000	 6.473510925613906e-001
 3.251526186710684e-001	 1.057824487269989e+000	 5.680178057585046e-001
 4.450079046373392e-001	 1.042315528290796e+000	 1.915046534551291e+000
 4.338954662448555e-001	 1.046990152798254e+000	 1.789036873503481e+000
 4.227575371932061e-001	 1.051536816131212e+000	 1.666496534590327e+000
 4.115962337165135e-001	 1.055955540766905e+000	 1.547416210597159e+000
 4.004136619463353e-001	 1.060246393753604e+000	 1.431786544328254e+000
 3.892119167965866e-001	 1.064409486184943e+000	 1.319597975562262e+000
 3.779930808729985e-001	 1.068444972642865e+000	 1.210840508251534e+000
 3.667592234080577e-001	 1.072353050610340e+000	 1.105503402966090e+000
 3.555123992223095e-001	 1.076133959855069e+000	 1.003574800042361e+000
 3.442546477128533e-001	 1.079787981785380e+000	 9.050412792949789e-001
 3.329879918697909e-001	 1.083315438779566e+000	 8.098873624953917e-001
 4.554792275868185e-001	 1.066841884780397e+000	 2.278060832836826e+000
 4.441053063534079e-001	 1.071626506216606e+000	 2.138913116839956e+000
 4.327052946491252e-001	 1.076280155469341e+000	 2.003149415237414e+000
 4.212813585044587e-001	 1.080802855544754e+000	 1.870800322110286e+000
 4.098356536096111e-001	 1.085194675068824e+000	 1.741897853305769e+000
 3.983703241731847e-001	 1.089455727749307e+000	 1.616475184826807e+000
 3.868875018059778e-001	 1.093586171805575e+000	 1.494566298153052e+000
 3.753893044308635e-001	 1.097586209367517e+000	 1.376205538403349e+000
 3.638778352196510e-001	 1.101456085844740e+000	 1.261427091774377e+000
 3.523551815577795e-001	 1.105196089267309e+000	 1.150264389147333e+000
 3.408234140376239e-001	 1.108806549599300e+000	 1.042749443152966e+000
 4.659505976530813e-001	 1.091368351630633e+000	 2.612029511944431e+000
 4.543151924021957e-001	 1.096262970490503e+000	 2.462801911475646e+000
 4.426530968660691e-001	 1.101023606144375e+000	 2.316935826605616e+000
 4.309665268717704e-001	 1.105650282127328e+000	 2.174491339920711e+000
 4.192576876683626e-001	 1.110143068643055e+000	 2.035531211844902e+000
 4.075287727593479e-001	 1.114502082013446e+000	 1.900120529129261e+000
 3.957819627608042e-001	 1.118727484095319e+000	 1.768326245421005e+000
 3.840194242862014e-001	 1.122819481665505e+000	 1.640216620770654e+000
 3.722433088588223e-001	 1.126778325775542e+000	 1.515860567533648e+000
 3.604557518526532e-001	 1.130604311077258e+000	 1.395326910653386e+000
 3.486588714625483e-001	 1.134297775120553e+000	 1.278683570761947e+000
 4.764219965116759e-001	 1.115894885921038e+000	 2.928684131160835e+000
 4.645251065243293e-001	 1.120899502507002e+000	 2.772525195408357e+000
 4.526009264357542e-001	 1.125767124856174e+000	 2.619731909738290e+000
 4.406517218697301e-001	 1.130497777032559e+000	 2.470384230827010e+000
 4.286797476343089e-001	 1.135091530817564e+000	 2.324565894082655e+000
 4.166872465280219e-001	 1.139548505147221e+000	 2.182363989137492e+000
 4.046764481723544e-001	 1.143868865515805e+000	 2.043868410827754e+000
 3.926495678715002e-001	 1.148052823347096e+000	 1.909171193518545e+000
 3.806088055003413e-001	 1.152100635334577e+000	 1.778365737314285e+000
 3.685563444215374e-001	 1.156012602751863e+000	 1.651545935302306e+000
 3.564943504325456e-001	 1.159789070734689e+000	 1.528805211495280e+000
 4.868934058381502e-001	 1.140421444731140e+000	 3.238734302954289e+000
 4.747350308529196e-001	 1.145536059153163e+000	 3.078888641369574e+000
 4.625487659498976e-001	 1.150510668304600e+000	 2.922405478075373e+000
 4.503369265496191e-001	 1.155345296778377e+000	 2.769375755730699e+000
 4.381018170191693e-001	 1.160040017933618e+000	 2.619895202784258e+000
 4.258457294521523e-001	 1.164594953320496e+000	 2.474063851161472e+000
 4.135709424755047e-001	 1.169010272070738e+000	 2.331985410899859e+000
 4.012797200841876e-001	 1.173286190255079e+000	 2.193766510646279e+000
 3.889743105047258e-001	 1.177422970208952e+000	 2.059515813715507e+000
 3.766569450884946e-001	 1.181420919827755e+000	 1.929343020101497e+000
 3.643298372355972e-001	 1.185280391833071e+000	 1.803357765424428e+000
 4.973648073080526e-001	 1.164947985140473e+000	 3.551951841404557e+000
 4.849449475210769e-001	 1.170172597316046e+000	 3.391766689452191e+000
 4.724965980002162e-001	 1.175254193189512e+000	 3.234901629596853e+000
 4.600221239627189e-001	 1.180192797882715e+000	 3.081450363171294e+000
 4.475238793346630e-001	 1.184988486332486e+000	 2.931512352983578e+000
 4.350042055046848e-001	 1.189641382703130e+000	 2.785192296728880e+000
 4.224654301051317e-001	 1.194151659763825e+000	 2.642599436636936e+000
 4.099098658216921e-001	 1.198519538232249e+000	 2.503846715402215e+000
 3.973398092324932e-001	 1.202745286085772e+000	 2.369049789337657e+000
 3.847575396775875e-001	 1.206829217841571e+000	 2.238325910482653e+000
 3.721653181596841e-001	 1.210771693807061e+000	 2.111792690072357e+000
 2.938118898076575e-001	 9.558631665059839e-001	-7.712816868810779e-001
 2.838646710056856e-001	 9.588642626988490e-001	-7.447574051431283e-001
 2.739131178235836e-001	 9.617543577873684e-001	-7.161269578342999e-001
 2.639589660669881e-001	 9.645338394785437e-001	-6.857683438330229e-001
 2.540039338948810e-001	 9.672031290579124e-001	-6.540595080740390e-001
 2.440497210832211e-001	 9.697626806991601e-001	-6.213781804056771e-001
 2.340980083161347e-001	 9.722129807570793e-001	-5.881017336000967e-001
 2.241504565049765e-001	 9.745545470450377e-001	-5.546070577912348e-001
 2.142087061355225e-001	 9.767879280981020e-001	-5.212704486298105e-001
 2.042743766435056e-001	 9.789137024229728e-001	-4.884675064735089e-001
 1.943490658186562e-001	 9.809324777358748e-001	-4.565730439891897e-001
 3.016469300097510e-001	 9.813530346885655e-001	-3.492335406448213e-001
 2.914344501272309e-001	 9.844341606898325e-001	-3.550044487284203e-001
 2.812175202806164e-001	 9.874013255358586e-001	-3.581450561082686e-001
 2.709979225639719e-001	 9.902549272725891e-001	-3.589593546433338e-001
 2.607774209541259e-001	 9.929953984199388e-001	-3.577525237517647e-001
 2.505577605546664e-001	 9.956232052629930e-001	-3.548309086720218e-001
 2.403406668682317e-001	 9.981388471261151e-001	-3.505020163391572e-001
 2.301278450974101e-001	 1.000542855631143e+000	-3.450745254934828e-001
 2.199209794745265e-001	 1.002835793940866e+000	-3.388583076756007e-001
 2.097217326205244e-001	 1.005018255988954e+000	-3.321644558052146e-001
 1.995317449331146e-001	 1.007090865697531e+000	-3.253053171321536e-001
 3.094820740290298e-001	 1.006843240615851e+000	 3.466053878262265e-003
 2.990043295512846e-001	 1.010004397486102e+000	-2.987540605238781e-002
 2.885220195238800e-001	 1.013048633111059e+000	-6.010629866074257e-002
 2.780369723299312e-001	 1.015976355875734e+000	-8.747465320554770e-002
 2.675509977647322e-001	 1.018788009534555e+000	-1.122306667142996e-001
 2.570658862601135e-001	 1.021484072484157e+000	-1.346268095995740e-001
 2.465834081378283e-001	 1.024065057018631e+000	-1.549179485571139e-001
 2.361053128922978e-001	 1.026531508568457e+000	-1.733614826482692e-001
 2.256333285029852e-001	 1.028884004924326e+000	-1.902174885144921e-001
 2.151691607766283e-001	 1.031123155447072e+000	-2.057488707427519e-001
 2.047144927194935e-001	 1.033249600264920e+000	-2.202215135025520e-001
 3.173173081534752e-001	 1.032333739679205e+000	 3.039912846181894e-001
 3.065742960300393e-001	 1.035574928338934e+000	 2.474268866972640e-001
 2.958266027699861e-001	 1.038696235629327e+000	 1.944058201071410e-001
 2.850761030460263e-001	 1.041698080274572e+000	 1.447196019505648e-001
 2.743246524724559e-001	 1.044580917263729e+000	 9.815686811220514e-002
 2.635740868098781e-001	 1.047345237105108e+000	 5.450314967246994e-002
 2.528262211996883e-001	 1.049991565062670e+000	 1.354063114951254e-002
 2.420828494286584e-001	 1.052520460375683e+000	-2.495210454554453e-002
 2.313457432239043e-001	 1.054932515462900e+000	-6.120033960766813e-002
 2.206166515784635e-001	 1.057228355112487e+000	-9.543348854991685e-002
 2.098973001076576e-001	 1.059408635658941e+000	-1.278853645096159e-001
 3.251526186710684e-001	 1.057824487269989e+000	 5.680178057585046e-001
 3.141443363156863e-001	 1.061145708499603e+000	 4.922394505353549e-001
 3.031312572355475e-001	 1.064344088207020e+000	 4.203859994641976e-001
 2.921153023934180e-001	 1.067420055455696e+000	 3.522736142531335e-001
 2.810983732230516e-001	 1.070374076469423e+000	 2.877151367376420e-001
 2.700823508142763e-001	 1.073206653868300e+000	 2.265197540464894e-001
 2.590690951285749e-001	 1.075918325886272e+000	 1.684926434548437e-001
 2.480604442455114e-001	 1.078509665571523e+000	 1.134346026865916e-001
 2.370582136402893e-001	 1.080981279971006e+000	 6.114167136280813e-002
 2.260641954926758e-001	 1.083333809300356e+000	 1.140474918735368e-002
 2.150801580274720e-001	 1.085567926100499e+000	-3.599078368697883e-002
 3.329879918697909e-001	 1.083315438779566e+000	 8.098873624953917e-001
 3.217144371604180e-001	 1.086716693219385e+000	 7.185999880794434e-001
 3.104359701371767e-001	 1.089992145960496e+000	 6.315641088445085e-001
 2.991545580532665e-001	 1.093142236405699e+000	 5.486070457899457e-001
 2.878721481622749e-001	 1.096167442013604e+000	 4.695526467374496e-001
 2.765906668836243e-001	 1.099068277516188e+000	 3.942208442870694e-001
 2.653120189992519e-001	 1.101845294117478e+000	 3.224271900410205e-001
 2.540380868818761e-001	 1.104499078674683e+000	 2.539823718295819e-001
 2.427707297551457e-001	 1.107030252863060e+000	 1.886917205989831e-001
 2.315117829859112e-001	 1.109439472325838e+000	 1.263547134993375e-001
 2.202630574088015e-001	 1.111727425810493e+000	 6.676447954338105e-002
 3.408234140376239e-001	 1.108806549599300e+000	 1.042749443152966e+000
 3.292845853164264e-001	 1.112287837749558e+000	 9.393852958572557e-001
 3.177407286914863e-001	 1.115640364006114e+000	 8.405403164561456e-001
 3.061938577067329e-001	 1.118864578111176e+000	 7.460408318915954e-001
 2.946459654358808e-001	 1.121960968758238e+000	 6.557098410092861e-001
 2.830990236282379e-001	 1.124930062791226e+000	 5.693664666327143e-001
 2.715549818864825e-001	 1.127772424384331e+000	 4.868253791665849e-001
 2.600157668767714e-001	 1.130488654203866e+000	 4.078961995454078e-001
 2.484832815714790e-001	 1.133079388553482e+000	 3.323828892609959e-001
 2.369594045248157e-001	 1.135545298504095e+000	 2.600831350661008e-001
 2.254459891815114e-001	 1.137887089009828e+000	 1.907877357610546e-001
 3.486588714625483e-001	 1.134297775120553e+000	 1.278683570761947e+000
 3.368547675359032e-001	 1.137859097341395e+000	 1.166430788470651e+000
 3.250455201150881e-001	 1.141288697460231e+000	 1.058901805225049e+000
 3.132331890349774e-001	 1.144587035558720e+000	 9.559110598422258e-001
 3.014198131896247e-001	 1.147754611565289e+000	 8.572701220153869e-001
 2.896074096584332e-001	 1.150791964435870e+000	 7.627870370773020e-001
 2.777979728650305e-001	 1.153699671314873e+000	 6.722656361918253e-001
 2.659934737692167e-001	 1.156478346677774e+000	 5.855048209908835e-001
 2.541958590922948e-001	 1.159128641456689e+000	 5.022978315892268e-001
 2.424070505760352e-001	 1.161651242150283e+000	 4.224315067543132e-001
 2.306289442754662e-001	 1.164046869919403e+000	 3.456855448004763e-001
 3.564943504325456e-001	 1.159789070734689e+000	 1.528805211495280e+000
 3.444249705710406e-001	 1.163430427246173e+000	 1.410634039342359e+000
 3.323503316245950e-001	 1.166937101439205e+000	 1.297323907657155e+000
 3.202725397191609e-001	 1.170309563734924e+000	 1.188667669964161e+000
 3.081936795692620e-001	 1.173548325296723e+000	 1.084456101486267e+000
 2.961158135845262e-001	 1.176653937192574e+000	 9.844771323616235e-001
 2.840409810096594e-001	 1.179626989537143e+000	 8.885150387684617e-001
 2.719711970982313e-001	 1.182468110615112e+000	 7.963496023158103e-001
 2.599084523205987e-001	 1.185177965987098e+000	 7.077552479639659e-001
 2.478547116062156e-001	 1.187757257579563e+000	 6.225001705734488e-001
 2.358119136205311e-001	 1.190206722760122e+000	 5.403454599469435e-001
 3.643298372355972e-001	 1.185280391833071e+000	 1.803357765424428e+000
 3.519951811740304e-001	 1.189001782715169e+000	 1.682044743331393e+000
 3.396551504366194e-001	 1.192585531059394e+000	 1.565658004341044e+000
 3.273118974404439e-001	 1.196032117626382e+000	 1.453960263063247e+000
 3.149675527205474e-001	 1.199342064814506e+000	 1.346713298897600e+000
 3.026242240168331e-001	 1.202515935803794e+000	 1.243677070592311e+000
 2.902839953951324e-001	 1.205554333679185e+000	 1.144608779714593e+000
 2.779489264028342e-001	 1.208457900534584e+000	 1.049261894879508e+000
 2.656210512593961e-001	 1.211227316559126e+000	 9.573851484854383e-001
 2.533023780820031e-001	 1.213863299107094e+000	 8.687215175253267e-001
 2.409948881465711e-001	 1.216366601752886e+000	 7.830071997841221e-001
 3.721653181596841e-001	 1.210771693807061e+000	 2.111792690072357e+000
 3.595653860970648e-001	 1.214573118999657e+000	 1.989943101643133e+000
 3.469599637677736e-001	 1.218233941437156e+000	 1.873008136139819e+000
 3.343512498799868e-001	 1.221754652219686e+000	 1.760712913774704e+000
 3.217414207892365e-001	 1.225135784980602e+000	 1.652783137796975e+000
 3.091326295656697e-001	 1.228377915011984e+000	 1.548944080333481e+000
 2.965270050962135e-001	 1.231481658369039e+000	 1.448919506601609e+000
 2.839266512220445e-001	 1.234447670954891e+000	 1.352430550994075e+000
 2.713336459116925e-001	 1.237276647587193e+000	 1.259194558433465e+000
 2.587500404700435e-001	 1.239969321048035e+000	 1.168923904202892e+000
 2.461778587834510e-001	 1.242526461118597e+000	 1.081324805173059e+000
 1.943490658186562e-001	 9.809324777358748e-001	-4.565730439891897e-001
 1.844358351184654e-001	 9.828446114249162e-001	-4.253297324996535e-001
 1.745347453506195e-001	 9.846510785005695e-001	-3.944320167741564e-001
 1.646473231798206e-001	 9.863525701375677e-001	-3.641957905119222e-001
 1.547750715930052e-001	 9.879498035443918e-001	-3.349369094607484e-001
 1.449194694473046e-001	 9.894435211587168e-001	-3.069711836092308e-001
 1.350819710464209e-001	 9.908344898374509e-001	-2.806143606355143e-001
 1.252640057452703e-001	 9.921235000424145e-001	-2.561820987951693e-001
 1.154669775827059e-001	 9.933113650226917e-001	-2.339899276092430e-001
 1.056922649420934e-001	 9.943989199946589e-001	-2.143531949002977e-001
 9.594122023947826e-002	 9.953870213206724e-001	-1.975869989117625e-001
 1.995317449331146e-001	 1.007090865697531e+000	-3.253053171321545e-001
 1.893541595092008e-001	 1.009053989985139e+000	-3.179375695717850e-001
 1.791890387780154e-001	 1.010908629862745e+000	-3.096952441053347e-001
 1.690379501156185e-001	 1.012655494936566e+000	-3.008616217202409e-001
 1.589024365888928e-001	 1.014295321540812e+000	-2.917212134499980e-001
 1.487840164914498e-001	 1.015828871911665e+000	-2.825598447991071e-001
 1.386841829087089e-001	 1.017256933355725e+000	-2.736647266056709e-001
 1.286044033119977e-001	 1.018580317413973e+000	-2.653245101158062e-001
 1.185461191814810e-001	 1.019799859022319e+000	-2.578293242684797e-001
 1.085107456576848e-001	 1.020916415669762e+000	-2.514707934082541e-001
 9.849967122134784e-002	 1.021930866555178e+000	-2.465420338739497e-001
 2.047144927194935e-001	 1.033249600264920e+000	-2.202215135025529e-001
 1.942725490689864e-001	 1.035263715826961e+000	-2.331939751184611e-001
 1.838433938759067e-001	 1.037166529144998e+000	-2.442254503584822e-001
 1.734286352282084e-001	 1.038958768256984e+000	-2.535803476856620e-001
 1.630298562732489e-001	 1.040641188623105e+000	-2.615253036823368e-001
 1.526486147416392e-001	 1.042214572278316e+000	-2.683293564757143e-001
 1.422864425010269e-001	 1.043679726979181e+000	-2.742641012547287e-001
 1.319448451396532e-001	 1.045037485346122e+000	-2.796038251977726e-001
 1.216253015794878e-001	 1.046288704002162e+000	-2.846256193813308e-001
 1.113292637187009e-001	 1.047434262709218e+000	-2.896094655101216e-001
 1.010581561032000e-001	 1.048475063502991e+000	-2.948382955798388e-001
 2.098973001076576e-001	 1.059408635658941e+000	-1.278853645096159e-001
 1.991909951903410e-001	 1.061473743082011e+000	-1.580048913554908e-001
 1.884978024988978e-001	 1.063424730394631e+000	-1.852628010483186e-001
 1.778193708336417e-001	 1.065262344066698e+000	-2.099169005633277e-001
 1.671573234228622e-001	 1.066987358684599e+000	-2.322279690590947e-001
 1.565132574346204e-001	 1.068600576082287e+000	-2.524600194497304e-001
 1.458887435192353e-001	 1.070102824466526e+000	-2.708805381374959e-001
 1.352853253822973e-001	 1.071494957537422e+000	-2.877606996889695e-001
 1.247045193880084e-001	 1.072777853605358e+000	-3.033755535461218e-001
 1.141478141926033e-001	 1.073952414705431e+000	-3.180041801719149e-001
 1.036166704075698e-001	 1.075019565710424e+000	-3.319298143498153e-001
 2.150801580274720e-001	 1.085567926100499e+000	-3.599078368697795e-002
 2.041094892657835e-001	 1.087684025881921e+000	-8.037319390150488e-002
 1.931522565015936e-001	 1.089683187658944e+000	-1.211117819340943e-001
 1.822101492479695e-001	 1.091566176333587e+000	-1.584686349864874e-001
 1.712848308145208e-001	 1.093333785618622e+000	-1.927093165828615e-001
 1.603779378071407e-001	 1.094986837147195e+000	-2.241032178786409e-001
 1.494910796591944e-001	 1.096526179576467e+000	-2.529238835294998e-001
 1.386258381939902e-001	 1.097952687686432e+000	-2.794493083054110e-001
 1.277837672183250e-001	 1.099267261475050e+000	-3.039622009851679e-001
 1.169663921468533e-001	 1.100470825250804e+000	-3.267502124278026e-001
 1.061752096569922e-001	 1.101564326723789e+000	-3.481061250890418e-001
 2.202630574088015e-001	 1.111727425810493e+000	 6.676447954338105e-002
 2.090280226878327e-001	 1.113894518358322e+000	 1.072404899298984e-002
 1.978067477385987e-001	 1.115941854985237e+000	-4.102201069910105e-002
 1.866009627872433e-001	 1.117870219025528e+000	-8.874962575489276e-002
 1.754123712250137e-001	 1.119680423318503e+000	-1.327384753367822e-001
 1.642426490959477e-001	 1.121373309296657e+000	-1.732724366805325e-001
 1.530934446167645e-001	 1.122949746067712e+000	-2.106400014567504e-001
 1.419663777287924e-001	 1.124410629491716e+000	-2.451346588649819e-001
 1.308630396817196e-001	 1.125756881254374e+000	-2.770552413642222e-001
 1.197849926489122e-001	 1.126989447937741e+000	-3.067062293613945e-001
 1.087337693740024e-001	 1.128109300089399e+000	-3.343980116038829e-001
 2.254459891815114e-001	 1.137887089009828e+000	 1.907877357610537e-001
 2.139465868490073e-001	 1.140105174642845e+000	 1.254413753885442e-001
 2.024612680645179e-001	 1.142200686420811e+000	 6.491450883750449e-002
 1.909918037675143e-001	 1.144174426110399e+000	 8.909080293817873e-003
 1.795399374311293e-001	 1.146027225677570e+000	-4.287677892834285e-002
 1.681073845377889e-001	 1.147759946354290e+000	-9.074929600700799e-002
 1.566958320878059e-001	 1.149373477698966e+000	-1.350195703302521e-001
 1.453069381407641e-001	 1.150868736651832e+000	-1.760040500443432e-001
 1.339423313894744e-001	 1.152246666586471e+000	-2.140249666206771e-001
 1.226036107662416e-001	 1.153508236358646e+000	-2.494107231067586e-001
 1.112923450811353e-001	 1.154654439353569e+000	-2.824962322130444e-001
 2.306289442754662e-001	 1.164046869919403e+000	 3.456855448004759e-001
 2.188651731418264e-001	 1.166315948867122e+000	 2.731564505236284e-001
 2.071158093339557e-001	 1.168459636012969e+000	 2.058522752201841e-001
 1.953826645048336e-001	 1.170478751556079e+000	 1.434457666916975e-001
 1.836675222096561e-001	 1.172374146589152e+000	 8.560600726011280e-002
 1.719721373694118e-001	 1.174146702143711e+000	 3.199775833525065e-002
 1.602982357681789e-001	 1.175797328228936e+000	-1.771916011750818e-002
 1.486475135839656e-001	 1.177326962865341e+000	-6.389044907142427e-002
 1.370216369528716e-001	 1.178736571114481e+000	-1.068678632753688e-001
 1.254222415663026e-001	 1.180027144105923e+000	-1.470096923538433e-001
 1.138509323009261e-001	 1.181199698062607e+000	-1.846811856451756e-001
 2.358119136205311e-001	 1.190206722760122e+000	 5.403454599469435e-001
 2.237837729588087e-001	 1.192526795162782e+000	 4.625495052753261e-001
 2.117703634015170e-001	 1.194718657809009e+000	 3.902694515246226e-001
 1.997735373152527e-001	 1.196783149330445e+000	 3.231429716881724e-001
 1.877951183373826e-001	 1.198721139946578e+000	 2.608044200221724e-001
 1.758369008275638e-001	 1.200533530488537e+000	 2.028840547210611e-001
 1.639006493537439e-001	 1.202221251416331e+000	 1.490072984234327e-001
 1.519880982124574e-001	 1.203785261830803e+000	 9.879404366584454e-002
 1.401009509831934e-001	 1.205226548481542e+000	 5.185800981526967e-002
 1.282408801165569e-001	 1.206546124771974e+000	 7.806157400288338e-003
 1.164095265559098e-001	 1.207745029762830e+000	-3.376183486864903e-002
 2.409948881465711e-001	 1.216366601752886e+000	 7.830071997841217e-001
 2.287023776924731e-001	 1.218737667661458e+000	 7.016725103459724e-001
 2.164249221218062e-001	 1.220977705856232e+000	 6.260350657400051e-001
 2.041644145148228e-001	 1.223087573401375e+000	 5.556927466729120e-001
 1.919227185910973e-001	 1.225068159643175e+000	 4.902406545586777e-001
 1.797016681489924e-001	 1.226920385212384e+000	 4.292701973617488e-001
 1.675030665403610e-001	 1.228645201019855e+000	 3.723682162001580e-001
 1.553286861802999e-001	 1.230243587246780e+000	 3.191161609260038e-001
 1.431802680917217e-001	 1.231716552330795e+000	 2.690893222366642e-001
 1.310595214844657e-001	 1.233065131949204e+000	 2.218561271822053e-001
 1.189681233686213e-001	 1.234290388000549e+000	 1.769775042239368e-001
 2.461778587834510e-001	 1.242526461118597e+000	 1.081324805173059e+000
 2.336209787353383e-001	 1.244948520494780e+000	 9.980095982647574e-001
 2.210794773494283e-001	 1.247236734201940e+000	 9.204677168877622e-001
 2.085552884195952e-001	 1.249391977736748e+000	 8.482536726071244e-001
 1.960503157475887e-001	 1.251415159572273e+000	 7.809199244626170e-001
 1.835664325704451e-001	 1.253307220138870e+000	 7.180158100670022e-001
 1.711054810238907e-001	 1.255069130798217e+000	 6.590865204617289e-001
 1.586692716415533e-001	 1.256701892811832e+000	 6.036721281745849e-001
 1.462595828897389e-001	 1.258206536305377e+000	 5.513066771788837e-001
 1.338781607374904e-001	 1.259584119230016e+000	 5.015173426805069e-001
 1.215267182615959e-001	 1.260835726322077e+000	 4.538236678576129e-001
 9.594122023947826e-002	 9.953870213206724e-001	-1.975869989117616e-001
 8.621371590998771e-002	 9.962766718121100e-001	-1.840879089930407e-001
 7.651253352126197e-002	 9.970686125683425e-001	-1.738459816402971e-001
 6.683896610081609e-002	 9.977637591031845e-001	-1.665537899471898e-001
 5.719427911104252e-002	 9.983630448185402e-001	-1.618971680367949e-001
 4.757971027342495e-002	 9.988674201817245e-001	-1.595561981262081e-001
 3.799646941872237e-002	 9.992778519071311e-001	-1.592061539736456e-001
 2.844573836262614e-002	 9.995953221430520e-001	-1.605183995119415e-001
 1.892867080636993e-002	 9.998208276644112e-001	-1.631612417419790e-001
 9.446392261750820e-003	 9.999553790721549e-001	-1.668007372270326e-001
 0.000000000000000e+000	 1.000000000000000e+000	-1.711014517830414e-001
 9.849967122134784e-002	 1.021930866555178e+000	-2.465420338739488e-001
 8.851276490585905e-002	 1.022844241231782e+000	-2.429497499363809e-001
 7.855288245458961e-002	 1.023657300561674e+000	-2.403084462417535e-001
 6.862135137610577e-002	 1.024370984472468e+000	-2.384693563739342e-001
 5.871947087877501e-002	 1.024986251256887e+000	-2.372805428219627e-001
 4.884851169029209e-002	 1.025504076728145e+000	-2.365876247939820e-001
 3.900971590386801e-002	 1.025925453379797e+000	-2.362344613958172e-001
 2.920429685057127e-002	 1.026251389550869e+000	-2.360637892844961e-001
 1.943343899728735e-002	 1.026482908597069e+000	-2.359178141901950e-001
 9.698297869740295e-003	 1.026621048068823e+000	-2.356387559796156e-001
 0.000000000000000e+000	 1.026666858896872e+000	-2.350680584790030e-001
 1.010581561032000e-001	 1.048475063502991e+000	-2.948382955798388e-001
 9.081184436458804e-002	 1.049412162678889e+000	-2.998734463461252e-001
 8.059325842294966e-002	 1.050246340862016e+000	-3.040772061889525e-001
 7.040376026835941e-002	 1.050978562394118e+000	-3.074380911751931e-001
 6.024468285560691e-002	 1.051609810459080e+000	-3.099443592584268e-001
 5.011732991903549e-002	 1.052141086216367e+000	-3.115845307326421e-001
 4.002297581473577e-002	 1.052573407939045e+000	-3.123478620730951e-001
 2.996286538957108e-002	 1.052907810157237e+000	-3.122247724957834e-001
 1.993821387648640e-002	 1.053145342807795e+000	-3.112072228688514e-001
 9.950206815530570e-003	 1.053287070390996e+000	-3.092890469113363e-001
 0.000000000000000e+000	 1.053334071134978e+000	-3.064652973831188e-001
 1.036166704075698e-001	 1.075019565710424e+000	-3.319298143498166e-001
 9.311095026268376e-002	 1.075980389658250e+000	-3.444799366105320e-001
 8.263365785559604e-002	 1.076835686937252e+000	-3.548566163606517e-001
 7.218618965828602e-002	 1.077586446303606e+000	-3.631655914619181e-001
 6.176991237235399e-002	 1.078233675832652e+000	-3.695146506521887e-001
 5.138616273917152e-002	 1.078778402030408e+000	-3.740139974168724e-001
 4.103624737808009e-002	 1.079221668949764e+000	-3.767765642397318e-001
 3.072144265210044e-002	 1.079564537312246e+000	-3.779182766983760e-001
 2.044299456059113e-002	 1.079808083636172e+000	-3.775582672045967e-001
 1.020211865827111e-002	 1.079953399371987e+000	-3.758190385149862e-001
 0.000000000000000e+000	 1.080001590045551e+000	-3.728259307567541e-001
 1.061752096569922e-001	 1.101564326723789e+000	-3.481061250890414e-001
 9.541007857665536e-002	 1.102548875674684e+000	-3.672052102252064e-001
 8.467407718178255e-002	 1.103425292255272e+000	-3.831529432725502e-001
 7.396863642659476e-002	 1.104194589636403e+000	-3.961533606061418e-001
 6.329515675983211e-002	 1.104857800785134e+000	-4.064143026474323e-001
 5.265500793021657e-002	 1.105415977554288e+000	-4.141476711122345e-001
 4.204952882065536e-002	 1.105870189776840e+000	-4.195696325223470e-001
 3.148002731063426e-002	 1.106221524365987e+000	-4.229007674958445e-001
 2.094778016622558e-002	 1.106471084421780e+000	-4.243661657056186e-001
 1.045403295711135e-002	 1.106619988345106e+000	-4.241954667552701e-001
 0.000000000000000e+000	 1.106669368959824e+000	-4.226224295930710e-001
 1.087337693740024e-001	 1.128109300089399e+000	-3.343980116038829e-001
 9.770922528301189e-002	 1.129117574233009e+000	-3.592081832526732e-001
 8.671451283076313e-002	 1.130015110283961e+000	-3.801834915849378e-001
 7.575109745399473e-002	 1.130802945827984e+000	-3.976083228428826e-001
 6.482041334885706e-002	 1.131482138724057e+000	-4.117721105195442e-001
 5.392386327168702e-002	 1.132053766172024e+000	-4.229695353981828e-001
 4.306281836921606e-002	 1.132518923785159e+000	-4.315006665465249e-001
 3.223861803764742e-002	 1.132878724668551e+000	-4.376710427482182e-001
 2.145256981001380e-002	 1.133134298504202e+000	-4.417916942730824e-001
 1.070594927120077e-002	 1.133286790643667e+000	-4.441791052914423e-001
 0.000000000000000e+000	 1.133337361209029e+000	-4.451548691998162e-001
 1.112923450811353e-001	 1.154654439353569e+000	-2.824962322130453e-001
 1.000083863582626e-001	 1.155686438838045e+000	-3.122912626584222e-001
 8.875496123179164e-002	 1.156605094491205e+000	-3.377982488788316e-001
 7.753356962119498e-002	 1.157411468313821e+000	-3.593648048301024e-001
 6.634567947024467e-002	 1.158106643056953e+000	-3.773443688510567e-001
 5.519272654309929e-002	 1.158691721267636e+000	-3.920963956188106e-001
 4.407611425051655e-002	 1.159167824339610e+000	-4.039864824696946e-001
 3.299721350561483e-002	 1.159536091570028e+000	-4.133864294475749e-001
 2.195736260857985e-002	 1.159797679223020e+000	-4.206742329175230e-001
 1.095786715968880e-002	 1.159953759600982e+000	-4.262340130414630e-001
 0.000000000000000e+000	 1.160005520124402e+000	-4.304557442867831e-001
 1.138509323009261e-001	 1.181199698062607e+000	-1.846811856451742e-001
 1.023075577789164e-001	 1.182255422994611e+000	-2.188316045010352e-001
 9.079541881412195e-002	 1.183195198344892e+000	-2.484120805108463e-001
 7.931604980890467e-002	 1.184020110529385e+000	-2.738170240587139e-001
 6.787095245481080e-002	 1.184731267191354e+000	-2.954470232126447e-001
 5.646159552396973e-002	 1.185329796225141e+000	-3.137090766741275e-001
 4.508941469131135e-002	 1.185816844805080e+000	-3.290167531246682e-001
 3.375581238701138e-002	 1.186193578420509e+000	-3.417902761239293e-001
 2.246215767854776e-002	 1.186461179917814e+000	-3.524565342579162e-001
 1.120978618172491e-002	 1.186620848550362e+000	-3.614490167587805e-001
 0.000000000000000e+000	 1.186673799037174e+000	-3.692076168930154e-001
 1.164095265559098e-001	 1.207745029762830e+000	-3.376183486864814e-002
 1.046067355214827e-001	 1.208824480207525e+000	-7.172142152345362e-002
 9.283588200700799e-002	 1.209785375312910e+000	-1.049458522158595e-001
 8.109853489783288e-002	 1.210628825910150e+000	-1.338604684423954e-001
 6.939622963337121e-002	 1.211355964534790e+000	-1.588967597152655e-001
 5.773046799381471e-002	 1.211967944428558e+000	-1.804926867660435e-001
 4.610271791835479e-002	 1.212465938546455e+000	-1.990929216939585e-001
 3.451441335431199e-002	 1.212851138570085e+000	-2.151490039192066e-001
 2.296695413654160e-002	 1.213124753928167e+000	-2.291194114226607e-001
 1.146170589645856e-002	 1.213288010825121e+000	-2.414695473533879e-001
 0.000000000000000e+000	 1.213342151278578e+000	-2.526716239917619e-001
 1.189681233686213e-001	 1.234290388000549e+000	 1.769775042239368e-001
 1.069059155624703e-001	 1.235393563981607e+000	 1.356840215437614e-001
 9.487634723970356e-002	 1.236375578863143e+000	 9.922486291722521e-002
 8.288102176868868e-002	 1.237237567891589e+000	 6.715917077166078e-002
 7.092150833674175e-002	 1.237980688494794e+000	 3.904031243616557e-002
 5.899934173215066e-002	 1.238606119261905e+000	 1.441541702447857e-002
 4.711602215840136e-002	 1.239115058928622e+000	-7.174993579889044e-003
 3.527301507999153e-002	 1.239508725368846e+000	-2.619727811369255e-002
 2.347175109918541e-002	 1.239788354593661e+000	-4.312485288620982e-002
 1.171362586303918e-002	 1.239955199758569e+000	-5.843827216638831e-002
 0.000000000000000e+000	 1.240010530179849e+000	-7.262521088973917e-002
 1.215267182615959e-001	 1.260835726322077e+000	 4.538236678576140e-001
 1.092050938783885e-001	 1.261962627821675e+000	 4.096118574471976e-001
 9.691681094146259e-002	 1.262965762463481e+000	 3.703146103429091e-001
 8.466350730218121e-002	 1.263846289909173e+000	 3.354906254300774e-001
 7.244678589573828e-002	 1.264605392478897e+000	 3.046935038755030e-001
 6.026821451849391e-002	 1.265244274109201e+000	 2.774710958299045e-001
 4.812932563820546e-002	 1.265764159316469e+000	 2.533649539895986e-001
 3.603161623652491e-002	 1.266166292166884e+000	 2.319098960160233e-001
 2.397654768310324e-002	 1.266451935253877e+000	 2.126336769995654e-001
 1.196554564061625e-002	 1.266622368684020e+000	 1.950567723704952e-001
 0.000000000000000e+000	 1.266678889072220e+000	 1.786922684320442e-001
 1.266678889072220e+000	 0.000000000000000e+000	 1.949342447164486e+001
 1.266622368684020e+000	 1.196554564061589e-002	 1.947810803269192e+001
 1.266451935253877e+000	 2.397654768310291e-002	 1.946285739673237e+001
 1.266166292166884e+000	 3.603161623652462e-002	 1.944720613348794e+001
 1.265764159316469e+000	 4.812932563820523e-002	 1.943066847340032e+001
 1.265244274109201e+000	 6.026821451849370e-002	 1.941273952540730e+001
 1.264605392478897e+000	 7.244678589573808e-002	 1.939289557615546e+001
 1.263846289909172e+000	 8.466350730218104e-002	 1.937059439193724e+001
 1.262965762463481e+000	 9.691681094146247e-002	 1.934527552154081e+001
 1.261962627821675e+000	 1.092050938783884e-001	 1.931636059830330e+001
 1.260835726322077e+000	 1.215267182615958e-001	 1.928325363978264e+001
 1.293343190136032e+000	 0.000000000000000e+000	 1.885786277287872e+001
 1.293285479961983e+000	 1.221742708636594e-002	 1.884246271348395e+001
 1.293111458812611e+000	 2.448126745774412e-002	 1.882778771346036e+001
 1.292819802778529e+000	 3.679010196516097e-002	 1.881332582408629e+001
 1.292409204806197e+000	 4.914247493488750e-002	 1.879854210340184e+001
 1.291878375723875e+000	 6.153689423456663e-002	 1.878287887861000e+001
 1.291226045277082e+000	 7.397183137018699e-002	 1.876575603669171e+001
 1.290450963172669e+000	 8.644572161462837e-002	 1.874657131713267e+001
 1.289551900130541e+000	 9.895696416848014e-002	 1.872470060475549e+001
 1.288527648942039e+000	 1.115039223538046e-001	 1.869949822077277e+001
 1.287377025533950e+000	 1.240849238414894e-001	 1.867029721032311e+001
 1.320007431208043e+000	 0.000000000000000e+000	 1.828193964294838e+001
 1.319948531250828e+000	 1.246930796544279e-002	 1.826878510724112e+001
 1.319770922390312e+000	 2.498598609687760e-002	 1.825681216341230e+001
 1.319473253422687e+000	 3.754858598735979e-002	 1.824544747052985e+001
 1.319054190347506e+000	 5.015562195217481e-002	 1.823409207491835e+001
 1.318512417414775e+000	 6.280557109632907e-002	 1.822212172802515e+001
 1.317846638181773e+000	 7.549687341352278e-002	 1.820888721568255e+001
 1.317055576578641e+000	 8.822793191734575e-002	 1.819371468786319e+001
 1.316137977981791e+000	 1.009971128054112e-001	 1.817590598659050e+001
 1.315092610294107e+000	 1.138027456571139e-001	 1.815473896980776e+001
 1.313918265030891e+000	 1.266431236656700e-001	 1.812946782917927e+001
 1.346671618954121e+000	 0.000000000000000e+000	 1.775440911091442e+001
 1.346611529216121e+000	 1.272118834083840e-002	 1.774534252973820e+001
 1.346430332651642e+000	 2.549070372671896e-002	 1.773777435011097e+001
 1.346126650762511e+000	 3.830706849278583e-002	 1.773106373460573e+001
 1.345699122601420e+000	 5.116876694340033e-002	 1.772454106414908e+001
 1.345146405840179e+000	 6.407424542099520e-002	 1.771750797593274e+001
 1.344467177847875e+000	 7.702191240704667e-002	 1.770923747295170e+001
 1.343660136777989e+000	 9.001013865592053e-002	 1.769897409662821e+001
 1.342724002663489e+000	 1.030372573623213e-001	 1.768593416206536e+001
 1.341657518518851e+000	 1.161015643630453e-001	 1.766930605503817e+001
 1.340459451447940e+000	 1.292013183737076e-001	 1.764825058938290e+001
 1.373335760040133e+000	 0.000000000000000e+000	 1.727016622895883e+001
 1.373274480523431e+000	 1.297306827554474e-002	 1.726547606177336e+001
 1.373089696261268e+000	 2.599542047348385e-002	 1.726255548228253e+001
 1.372780001461154e+000	 3.906554967110389e-002	 1.726069335529665e+001
 1.372344008228968e+000	 5.218191016189717e-002	 1.725914705508287e+001
 1.371780347658369e+000	 6.534291752577912e-002	 1.725714256440478e+001
 1.371087670930295e+000	 7.854694873205982e-002	 1.725387465671330e+001
 1.370264650421613e+000	 9.179234227594005e-002	 1.724850715219683e+001
 1.369309980821894e+000	 1.050773983492762e-001	 1.724017324711428e+001
 1.368222380257244e+000	 1.184003790463279e-001	 1.722797591532726e+001
 1.367000591420135e+000	 1.317595086051721e-001	 1.721098838042468e+001
 1.399999861131944e+000	 0.000000000000000e+000	 1.682680475893947e+001
 1.399937391838324e+000	 1.322494783255377e-002	 1.682607723401828e+001
 1.399749019883856e+000	 2.650013646338787e-002	 1.682740232886555e+001
 1.399433312181770e+000	 3.982402971197879e-002	 1.682998717824132e+001
 1.398988853891177e+000	 5.319505186099846e-002	 1.683300527639388e+001
 1.398414249527623e+000	 6.661158772789502e-002	 1.683559667700424e+001
 1.397708124083939e+000	 8.007198276986338e-002	 1.683686828868154e+001
 1.396869124160417e+000	 9.357454322299173e-002	 1.683589425594190e+001
 1.395895919103263e+000	 1.071175362763417e-001	 1.683171642488702e+001
 1.394787202150259e+000	 1.206991902816907e-001	 1.682334489221051e+001
 1.393541691582514e+000	 1.343176949996336e-001	 1.680975863555561e+001
 1.426663928895423e+000	 0.000000000000000e+000	 1.642223769539810e+001
 1.426600269826366e+000	 1.347682707485748e-002	 1.642456904839372e+001
 1.426408310184067e+000	 2.700485182264664e-002	 1.642929939084227e+001
 1.426086589587512e+000	 4.058250880507529e-002	 1.643554312003677e+001
 1.425633666249075e+000	 5.420819229403738e-002	 1.644237935486749e+001
 1.425048118106222e+000	 6.788025634455708e-002	 1.644885227603405e+001
 1.424328543963713e+000	 8.159701490175865e-002	 1.645397157519840e+001
 1.423473564645299e+000	 9.535674194266298e-002	 1.645671300220938e+001
 1.422481824153855e+000	 1.091576716535834e-001	 1.645601900932312e+001
 1.421351990838867e+000	 1.229979986438629e-001	 1.645079949066311e+001
 1.420082758570117e+000	 1.368758781966621e-001	 1.643993261446853e+001
 1.453327969996434e+000	 0.000000000000000e+000	 1.605482142666882e+001
 1.453263121153126e+000	 1.372870606544782e-002	 1.605884252205048e+001
 1.453067573826569e+000	 2.750956667747578e-002	 1.606572079700221e+001
 1.452739840341533e+000	 4.134098714005817e-002	 1.607446727713580e+001
 1.452278451963687e+000	 5.522133171434703e-002	 1.608405653768432e+001
 1.451681960052446e+000	 6.914892369297943e-002	 1.609342722305527e+001
 1.450948937224526e+000	 8.312204550904671e-002	 1.610148268982373e+001
 1.450077978527162e+000	 9.713893888054118e-002	 1.610709176146955e+001
 1.449067702619928e+000	 1.111978049910672e-001	 1.610908959340619e+001
 1.447916752964040e+000	 1.252968047075733e-001	 1.610627864606644e+001
 1.446623799017982e+000	 1.394340588358277e-001	 1.609742976301099e+001
 1.479991991100845e+000	 0.000000000000000e+000	 1.572331578903956e+001
 1.479925952484172e+000	 1.398058486731675e-002	 1.572721383429786e+001
 1.479726817476025e+000	 2.801428115409090e-002	 1.573458486276728e+001
 1.479393071106986e+000	 4.209946490659224e-002	 1.574432621841967e+001
 1.478923217696040e+000	 5.623447037526055e-002	 1.575529804309533e+001
 1.478315782024575e+000	 7.041759009037626e-002	 1.576632401429937e+001
 1.477569310521282e+000	 8.464707497302881e-002	 1.577619222217024e+001
 1.476682372456905e+000	 9.892113448221360e-002	 1.578365617307705e+001
 1.475653561147740e+000	 1.132379367988586e-001	 1.578743591793052e+001
 1.474481495166753e+000	 1.275956090475512e-001	 1.578621930240005e+001
 1.473164819561149e+000	 1.419922375567004e-001	 1.577866333531130e+001
 1.506655998874523e+000	 0.000000000000000e+000	 1.542684836420003e+001
 1.506588770485068e+000	 1.423246354345626e-002	 1.542838602611415e+001
 1.506386047797100e+000	 2.851899537870764e-002	 1.543421347814051e+001
 1.506046288547026e+000	 4.285794229434227e-002	 1.544310435031736e+001
 1.505567970107163e+000	 5.724760853011109e-002	 1.545379469360118e+001
 1.504949590680887e+000	 7.168625585396171e-002	 1.546498397474895e+001
 1.504189670508888e+000	 8.617210367500612e-002	 1.547533622747167e+001
 1.503286753085432e+000	 1.007033291932677e-001	 1.548348134644460e+001
 1.502239406383549e+000	 1.152780675870235e-001	 1.548801652171455e+001
 1.501046224087976e+000	 1.298944122385254e-001	 1.548750781002465e+001
 1.499705826834654e+000	 1.445504149988501e-001	 1.548049183853459e+001
 1.533319999983334e+000	 0.000000000000000e+000	 1.516488250337890e+001
 1.533251581821384e+000	 1.448434215685830e-002	 1.516141469798034e+001
 1.533045271454459e+000	 2.902370947754161e-002	 1.516329573684853e+001
 1.532699499324805e+000	 4.361641949297307e-002	 1.516916573690298e+001
 1.532212715858080e+000	 5.826074643223177e-002	 1.517762718850158e+001
 1.531583392679665e+000	 7.295492130094992e-002	 1.518724624630250e+001
 1.530810023842251e+000	 8.769713199627982e-002	 1.519655419500090e+001
 1.529891127063640e+000	 1.024855234592909e-001	 1.520404907563478e+001
 1.528825244973612e+000	 1.173181978656276e-001	 1.520819746937011e+001
 1.527610946368683e+000	 1.321932148552252e-001	 1.520743643451877e+001
 1.526246827473539e+000	 1.471085918018469e-001	 1.520017559135894e+001
 1.260835726322077e+000	 1.215267182615958e-001	 1.928325363978263e+001
 1.259584119230016e+000	 1.338781607374896e-001	 1.924783935396544e+001
 1.258206536305378e+000	 1.462595828897382e-001	 1.921199253010781e+001
 1.256701892811832e+000	 1.586692716415527e-001	 1.917510048904319e+001
 1.255069130798217e+000	 1.711054810238902e-001	 1.913654471348675e+001
 1.253307220138871e+000	 1.835664325704447e-001	 1.909570139671764e+001
 1.251415159572273e+000	 1.960503157475885e-001	 1.905194197242561e+001
 1.249391977736748e+000	 2.085552884195950e-001	 1.900463362470000e+001
 1.247236734201940e+000	 2.210794773494282e-001	 1.895313977742102e+001
 1.244948520494780e+000	 2.336209787353383e-001	 1.889682056261505e+001
 1.242526461118596e+000	 2.461778587834510e-001	 1.883503326765247e+001
 1.287377025533950e+000	 1.240849238414894e-001	 1.867029721032310e+001
 1.286099071410704e+000	 1.366963711093230e-001	 1.863927123132174e+001
 1.284692489592918e+000	 1.493384291424061e-001	 1.860858274377569e+001
 1.283156172509960e+000	 1.620093488027418e-001	 1.857754102775530e+001
 1.281489039940200e+000	 1.747073473676788e-001	 1.854544876463035e+001
 1.279690040073258e+000	 1.874306089332176e-001	 1.851160264219632e+001
 1.277758150570499e+000	 2.001772848530020e-001	 1.847529393660154e+001
 1.275692379622538e+000	 2.129454942133352e-001	 1.843580906990015e+001
 1.273491767002438e+000	 2.257333243445114e-001	 1.839243014238397e+001
 1.271155385113263e+000	 2.385388313687072e-001	 1.834443543919362e+001
 1.268682340028648e+000	 2.513600407846233e-001	 1.829109991107373e+001
 1.313918265030891e+000	 1.266431236656700e-001	 1.812946782917927e+001
 1.312613963935719e+000	 1.395145751404187e-001	 1.810261720689026e+001
 1.311178383290003e+000	 1.524172684678870e-001	 1.807670330929092e+001
 1.309610392688861e+000	 1.653494184489529e-001	 1.805095720164482e+001
 1.307908889640256e+000	 1.783092056074409e-001	 1.802460341542614e+001
 1.306072800649137e+000	 1.912947766017441e-001	 1.799686062303528e+001
 1.304101082299809e+000	 2.043042446728651e-001	 1.796694228316569e+001
 1.301992722335231e+000	 2.173356901292265e-001	 1.793405725543054e+001
 1.299746740731929e+000	 2.303871608685431e-001	 1.789741038323761e+001
 1.297362190769154e+000	 2.434566729370095e-001	 1.785620304429813e+001
 1.294838160090887e+000	 2.565422111259950e-001	 1.780963366857964e+001
 1.340459451447940e+000	 1.292013183737076e-001	 1.764825058938290e+001
 1.339128803433513e+000	 1.423327735353478e-001	 1.762567863503961e+001
 1.337664224017838e+000	 1.554961016359137e-001	 1.760449665529548e+001
 1.336064559961831e+000	 1.686894814152311e-001	 1.758384251597273e+001
 1.334328686503093e+000	 1.819110566436752e-001	 1.756284624834543e+001
 1.332455508461953e+000	 1.951589365421073e-001	 1.754063699518322e+001
 1.330443961345699e+000	 2.084311962389668e-001	 1.751638459391430e+001
 1.328293012449679e+000	 2.217258772648735e-001	 1.748923180225587e+001
 1.326001661953930e+000	 2.350409880850432e-001	 1.745831020889380e+001
 1.323568944013922e+000	 2.483745046697697e-001	 1.742274915841432e+001
 1.320993927844035e+000	 2.617243711031739e-001	 1.738167630920969e+001
 1.367000591420135e+000	 1.317595086051721e-001	 1.721098838042467e+001
 1.365643596532541e+000	 1.451509669986814e-001	 1.719255049850781e+001
 1.364150018397633e+000	 1.585749294162189e-001	 1.717600569179747e+001
 1.362518680942165e+000	 1.720295385366216e-001	 1.716041250812242e+001
 1.360748437133422e+000	 1.855129013768805e-001	 1.714482127564720e+001
 1.358838170107152e+000	 1.990230897203908e-001	 1.712827534735039e+001
 1.356786794293665e+000	 2.125581405830955e-001	 1.710981237493078e+001
 1.354593256540739e+000	 2.261160567178805e-001	 1.708846560530902e+001
 1.352256537231954e+000	 2.396948071575316e-001	 1.706326519242235e+001
 1.349775651399042e+000	 2.532923277965125e-001	 1.703323951656948e+001
 1.347149649826810e+000	 2.669065220117670e-001	 1.699741650316458e+001
 1.393541691582514e+000	 1.343176949996336e-001	 1.680975863555561e+001
 1.392158349861254e+000	 1.479691562349905e-001	 1.679474122726534e+001
 1.390635773050591e+000	 1.616537525785351e-001	 1.678209056090126e+001
 1.388972762243157e+000	 1.753695906481698e-001	 1.677078465847096e+001
 1.387168148135953e+000	 1.891147407075555e-001	 1.675979339288439e+001
 1.385220792180180e+000	 2.028872371026779e-001	 1.674807993461951e+001
 1.383129587729205e+000	 2.166850787370402e-001	 1.673460223306927e+001
 1.380893461183264e+000	 2.305062295858521e-001	 1.671831452473217e+001
 1.378511373129517e+000	 2.443486192495283e-001	 1.669816885985989e+001
 1.375982319475984e+000	 2.582101435467624e-001	 1.667311663866549e+001
 1.373305332577932e+000	 2.720886651473819e-001	 1.664211014772783e+001
 1.420082758570117e+000	 1.368758781966621e-001	 1.643993261446853e+001
 1.418673070048106e+000	 1.507873419488461e-001	 1.642764676024734e+001
 1.417121494597921e+000	 1.647325718925951e-001	 1.641819794228548e+001
 1.415426810478103e+000	 1.787096385849205e-001	 1.641048214351517e+001
 1.413587826115395e+000	 1.927165755361990e-001	 1.640338769684146e+001
 1.411603381276482e+000	 2.067513796550518e-001	 1.639579696150403e+001
 1.409472348237812e+000	 2.208120117325894e-001	 1.638658803954966e+001
 1.407193632952109e+000	 2.348963969663925e-001	 1.637463652343850e+001
 1.404766176210132e+000	 2.490024255245532e-001	 1.635881726517542e+001
 1.402188954796221e+000	 2.631279531500440e-001	 1.633800615676685e+001
 1.399460982636122e+000	 2.772708018056259e-001	 1.631108191126325e+001
 1.446623799017982e+000	 1.394340588358277e-001	 1.609742976301099e+001
 1.445187763721549e+000	 1.536055248448193e-001	 1.608720454521791e+001
 1.443607189660832e+000	 1.678113881281315e-001	 1.608030788988423e+001
 1.441880832260298e+000	 1.820496831819194e-001	 1.607555190249394e+001
 1.440007477676461e+000	 1.963184067633098e-001	 1.607174193969715e+001
 1.437985943991504e+000	 2.106155183435961e-001	 1.606767854429785e+001
 1.435815082404984e+000	 2.249389406015318e-001	 1.606215942604844e+001
 1.433493778422127e+000	 2.392865599571063e-001	 1.605398147799787e+001
 1.431020953037317e+000	 2.536562271461265e-001	 1.604194281741391e+001
 1.428395563911225e+000	 2.680457578358820e-001	 1.602484483962286e+001
 1.425616606540098e+000	 2.824529332821062e-001	 1.600149427248548e+001
 1.473164819561149e+000	 1.419922375567004e-001	 1.577866333531130e+001
 1.471702437510035e+000	 1.564237056274812e-001	 1.576983944969640e+001
 1.470092864860527e+000	 1.708902020548769e-001	 1.576488018545411e+001
 1.468334834203037e+000	 1.853897252742113e-001	 1.576251158606643e+001
 1.466427109423857e+000	 1.999202352893868e-001	 1.576145422377972e+001
 1.464368486920693e+000	 2.144796541343938e-001	 1.576042542369668e+001
 1.462157796816215e+000	 2.290658663756561e-001	 1.575814153973601e+001
 1.459793904168173e+000	 2.436767196555978e-001	 1.575332027078261e+001
 1.457275710174584e+000	 2.583100252777680e-001	 1.574468300452507e+001
 1.454602153372468e+000	 2.729635588338008e-001	 1.573095717570046e+001
 1.451772210828581e+000	 2.876350608724305e-001	 1.571087862475145e+001
 1.499705826834654e+000	 1.445504149988501e-001	 1.548049183853459e+001
 1.498217098042018e+000	 1.592418850014028e-001	 1.547241547186204e+001
 1.496578526818216e+000	 1.739690144425642e-001	 1.546880645333893e+001
 1.494788822919614e+000	 1.887297656968416e-001	 1.546830221131777e+001
 1.492846727962296e+000	 2.035220620149285e-001	 1.546953633173831e+001
 1.490751016659494e+000	 2.183437879935286e-001	 1.547114110348350e+001
 1.488500498057003e+000	 2.331927900867511e-001	 1.547175012212635e+001
 1.486094016765102e+000	 2.480668771594715e-001	 1.547000093881668e+001
 1.483530454185451e+000	 2.629638210829977e-001	 1.546453774011450e+001
 1.480808729731421e+000	 2.778813573733252e-001	 1.545401404369417e+001
 1.477927802040291e+000	 2.928171858722059e-001	 1.543709539402864e+001
 1.526246827473539e+000	 1.471085918018469e-001	 1.520017559135894e+001
 1.524731751945950e+000	 1.620600636711551e-001	 1.519219254528267e+001
 1.523064182155104e+000	 1.770478260609258e-001	 1.518936733499857e+001
 1.521242805023325e+000	 1.920698052848554e-001	 1.519024582833596e+001
 1.519266339896488e+000	 2.071238878404338e-001	 1.519337200600621e+001
 1.517133539803352e+000	 2.222079208870836e-001	 1.519729086219433e+001
 1.514843192712843e+000	 2.373197127666055e-001	 1.520055137063272e+001
 1.512394122787768e+000	 2.524570335663319e-001	 1.520170950117167e+001
 1.509785191633430e+000	 2.676176157253355e-001	 1.519933127078994e+001
 1.507015299539558e+000	 2.827991546839796e-001	 1.519199581199140e+001
 1.504083386713946e+000	 2.979993095770398e-001	 1.517829844060648e+001
 1.242526461118596e+000	 2.461778587834510e-001	 1.883503326765247e+001
 1.239969321048035e+000	 2.587500404700431e-001	 1.877002105818911e+001
 1.237276647587192e+000	 2.713336459116922e-001	 1.870410353749099e+001
 1.234447670954891e+000	 2.839266512220444e-001	 1.863673008874071e+001
 1.231481658369039e+000	 2.965270050962133e-001	 1.856736176849046e+001
 1.228377915011984e+000	 3.091326295656696e-001	 1.849547178555591e+001
 1.225135784980602e+000	 3.217414207892365e-001	 1.842054594412504e+001
 1.221754652219686e+000	 3.343512498799868e-001	 1.834208305262642e+001
 1.218233941437156e+000	 3.469599637677736e-001	 1.825959530028092e+001
 1.214573118999658e+000	 3.595653860970648e-001	 1.817260860363196e+001
 1.210771693807061e+000	 3.721653181596841e-001	 1.808066292571006e+001
 1.268682340028648e+000	 2.513600407846233e-001	 1.829109991107373e+001
 1.266071370725263e+000	 2.641968739471592e-001	 1.823495772520684e+001
 1.263322014977708e+000	 2.770453713412647e-001	 1.817862081923342e+001
 1.260433486800481e+000	 2.899034664766289e-001	 1.812146198873735e+001
 1.257405037986019e+000	 3.027690648672338e-001	 1.806286609246627e+001
 1.254235959090374e+000	 3.156400448021337e-001	 1.800223054839484e+001
 1.250925580403296e+000	 3.285142581531009e-001	 1.793896578885273e+001
 1.247473272901273e+000	 3.413895312189305e-001	 1.787249567657923e+001
 1.243878449182008e+000	 3.542636656061270e-001	 1.780225788400316e+001
 1.240140564378871e+000	 3.671344391456397e-001	 1.772770423847439e+001
 1.236259117053800e+000	 3.799996068452375e-001	 1.764830103658768e+001
 1.294838160090887e+000	 2.565422111259950e-001	 1.780963366857964e+001
 1.292173361675890e+000	 2.696436951690278e-001	 1.776054789403946e+001
 1.289367323769279e+000	 2.827570839196107e-001	 1.771187165099491e+001
 1.286419244181258e+000	 2.958802682835723e-001	 1.766290904503247e+001
 1.283328359278823e+000	 3.090111105938582e-001	 1.761297720017715e+001
 1.280093944991751e+000	 3.221474453972029e-001	 1.756140675960707e+001
 1.276715317802694e+000	 3.352870802784265e-001	 1.750754233856642e+001
 1.273191835719854e+000	 3.484277967221452e-001	 1.745074293169240e+001
 1.269522899230740e+000	 3.615673510116166e-001	 1.739038227747431e+001
 1.265707952235458e+000	 3.747034751643716e-001	 1.732584918305595e+001
 1.261746482958037e+000	 3.878338779042281e-001	 1.725654781306992e+001
 1.320993927844035e+000	 2.617243711031739e-001	 1.738167630920969e+001
 1.318275300425168e+000	 2.750905054974155e-001	 1.733826189428892e+001
 1.315412580472970e+000	 2.884687850747151e-001	 1.729576000219962e+001
 1.312404949593379e+000	 3.018570581371237e-001	 1.725341385328043e+001
 1.309251628727975e+000	 3.152531438366365e-001	 1.721048121355649e+001
 1.305951879180282e+000	 3.286548329777549e-001	 1.716623488651688e+001
 1.302505003625874e+000	 3.420598888584344e-001	 1.711996314842596e+001
 1.298910347104691e+000	 3.554660481492021e-001	 1.707097012977905e+001
 1.295167297994062e+000	 3.688710218101570e-001	 1.701857614608954e+001
 1.291275288960849e+000	 3.822724960455041e-001	 1.696211798176285e+001
 1.287233797891179e+000	 3.956681332952001e-001	 1.690094913136315e+001
 1.347149649826810e+000	 2.669065220117670e-001	 1.699741650316458e+001
 1.344377193498346e+000	 2.805373062940901e-001	 1.695926261968132e+001
 1.341457791599845e+000	 2.941804762345625e-001	 1.692233311650010e+001
 1.338390609533002e+000	 3.078338375315319e-001	 1.688578536908373e+001
 1.335174852813998e+000	 3.214951661561189e-001	 1.684879570871961e+001
 1.331809768120133e+000	 3.351622091706677e-001	 1.681057997442312e+001
 1.328294644319918e+000	 3.488326855863471e-001	 1.677051362398894e+001
 1.324628813485048e+000	 3.625042872596723e-001	 1.672788654051376e+001
 1.320811651882687e+000	 3.761746798276636e-001	 1.668197611497688e+001
 1.316842580946470e+000	 3.898415036812798e-001	 1.663207809616411e+001
 1.312721068224635e+000	 4.035023749766974e-001	 1.657750676074282e+001
 1.373305332577932e+000	 2.720886651473819e-001	 1.664211014772783e+001
 1.370479047420677e+000	 2.859840989208191e-001	 1.660892937576479e+001
 1.367502963660969e+000	 2.998921588271373e-001	 1.657744680666031e+001
 1.364376230496282e+000	 3.138106079610460e-001	 1.654675426457856e+001
 1.361098038017419e+000	 3.277371791128552e-001	 1.651596436408785e+001
 1.357667618275472e+000	 3.416695756028192e-001	 1.648421199468732e+001
 1.354084246331904e+000	 3.556054721553857e-001	 1.645065571783005e+001
 1.350347241290185e+000	 3.695425158131267e-001	 1.641447906470137e+001
 1.346455967307327e+000	 3.834783268900517e-001	 1.637489172315129e+001
 1.342409834583748e+000	 3.974104999639416e-001	 1.633113060241568e+001
 1.338208300329813e+000	 4.113366049072643e-001	 1.628246076459816e+001
 1.399460982636122e+000	 2.772708018056259e-001	 1.631108191126325e+001
 1.396580868717411e+000	 2.914308847393696e-001	 1.628212851324109e+001
 1.393548103167406e+000	 3.056038342804243e-001	 1.625532674493394e+001
 1.390361818979375e+000	 3.197873709199146e-001	 1.622970627418316e+001
 1.387021190818762e+000	 3.339791842673958e-001	 1.620431982691556e+001
 1.383525436110463e+000	 3.481769339010872e-001	 1.617824487440050e+001
 1.379873816108914e+000	 3.623782502587724e-001	 1.615058522426757e+001
 1.376065636949366e+000	 3.765807355691361e-001	 1.612047250190451e+001
 1.372100250678695e+000	 3.907819648232359e-001	 1.608706750899252e+001
 1.367977056264114e+000	 4.049794867857331e-001	 1.604956144618097e+001
 1.363695500578122e+000	 4.191708250454448e-001	 1.600717698726168e+001
 1.425616606540098e+000	 2.824529332821062e-001	 1.600149427248548e+001
 1.422682663913800e+000	 2.968776651115094e-001	 1.597626375386808e+001
 1.419593216630219e+000	 3.113155040224080e-001	 1.595362751613120e+001
 1.416347381478437e+000	 3.257641279023868e-001	 1.593255593870394e+001
 1.412944317698551e+000	 3.402211831802909e-001	 1.591204515994315e+001
 1.409383228089274e+000	 3.546842856923495e-001	 1.589111898675239e+001
 1.405663360098025e+000	 3.691510215897282e-001	 1.586883069811070e+001
 1.401784006891851e+000	 3.836189482872719e-001	 1.584426472731330e+001
 1.397744508407502e+000	 3.980855954531315e-001	 1.581653820785846e+001
 1.393544252378994e+000	 4.125484660388973e-001	 1.578480236817014e+001
 1.389182675340970e+000	 4.270050373497830e-001	 1.574824376072590e+001
 1.451772210828581e+000	 2.876350608724305e-001	 1.571087862475145e+001
 1.448784439535093e+000	 3.023244413990054e-001	 1.568908785450975e+001
 1.445638310560474e+000	 3.170271694810729e-001	 1.567033216609316e+001
 1.442332924489626e+000	 3.317408804027115e-001	 1.565352498389344e+001
 1.438867425137311e+000	 3.464631774120902e-001	 1.563760862670251e+001
 1.435241000676072e+000	 3.611916326034841e-001	 1.562155646157887e+001
 1.431452884746320e+000	 3.759237878414756e-001	 1.560437494064551e+001
 1.427502357546905e+000	 3.906571557271050e-001	 1.558510550361014e+001
 1.423388746904462e+000	 4.053892206056537e-001	 1.556282632892558e+001
 1.419111429319816e+000	 4.201174396156771e-001	 1.553665391677224e+001
 1.414669830989763e+000	 4.348392437788227e-001	 1.550574448744992e+001
 1.477927802040291e+000	 2.928171858722059e-001	 1.543709539402864e+001
 1.474886202106542e+000	 3.077712149636254e-001	 1.541866426003615e+001
 1.471683391469234e+000	 3.227388320844039e-001	 1.540371544013589e+001
 1.468318454509097e+000	 3.377176299151375e-001	 1.539110719250380e+001
 1.464790519615566e+000	 3.527051685233442e-001	 1.537973024265537e+001
 1.461098760335022e+000	 3.676989762613687e-001	 1.536851020583486e+001
 1.457242396500876e+000	 3.826965507072359e-001	 1.535640988021437e+001
 1.453220695343790e+000	 3.976953596482064e-001	 1.534243139147464e+001
 1.449032972580286e+000	 4.126928421067177e-001	 1.532561816946118e+001
 1.444678593478009e+000	 4.276864094083156e-001	 1.530505673788066e+001
 1.440156973895912e+000	 4.426734462911082e-001	 1.527987829843398e+001
 1.504083386713946e+000	 2.979993095770398e-001	 1.517829844060648e+001
 1.500987958153400e+000	 3.132179871671365e-001	 1.516333288485590e+001
 1.497728465867564e+000	 3.284504932603852e-001	 1.515231098885643e+001
 1.494303978033006e+000	 3.436943779339138e-001	 1.514403707643262e+001
 1.490713607613841e+000	 3.589471580746028e-001	 1.513735195332559e+001
 1.486956513530291e+000	 3.742063182928813e-001	 1.513113562490854e+001
 1.483031901808773e+000	 3.894693118802305e-001	 1.512430987142978e+001
 1.478939026711766e+000	 4.047335618101468e-001	 1.511584065891588e+001
 1.474677191845686e+000	 4.199964617822380e-001	 1.510474036397775e+001
 1.470245751245001e+000	 4.352553773090561e-001	 1.509006979104445e+001
 1.465644110430824e+000	 4.505076468451836e-001	 1.507093996100754e+001
 1.210771693807061e+000	 3.721653181596841e-001	 1.808066292571006e+001
 1.206829217841571e+000	 3.847575396775873e-001	 1.798482844595043e+001
 1.202745286085772e+000	 3.973398092324930e-001	 1.788629522059788e+001
 1.198519538232249e+000	 4.099098658216919e-001	 1.778480975424037e+001
 1.194151659763825e+000	 4.224654301051316e-001	 1.768013994392847e+001
 1.189641382703130e+000	 4.350042055046846e-001	 1.757207511173829e+001
 1.184988486332486e+000	 4.475238793346629e-001	 1.746042601631376e+001
 1.180192797882715e+000	 4.600221239627187e-001	 1.734502484801859e+001
 1.175254193189512e+000	 4.724965980002162e-001	 1.722572521250458e+001
 1.170172597316046e+000	 4.849449475210771e-001	 1.710240210763818e+001
 1.164947985140473e+000	 4.973648073080525e-001	 1.697495189881503e+001
 1.236259117053800e+000	 3.799996068452375e-001	 1.764830103658768e+001
 1.232233649757977e+000	 3.928569016887678e-001	 1.756522677653284e+001
 1.228063748948146e+000	 4.057040350748470e-001	 1.747980168979696e+001
 1.223749046732216e+000	 4.185386984054039e-001	 1.739173360559913e+001
 1.219289221972249e+000	 4.313585643590141e-001	 1.730075423969562e+001
 1.214684001049801e+000	 4.441612880133067e-001	 1.720661918444497e+001
 1.209933158600961e+000	 4.569445079992763e-001	 1.710910787378727e+001
 1.205036518219666e+000	 4.697058476866245e-001	 1.700802352851953e+001
 1.199993953127882e+000	 4.824429163991849e-001	 1.690319308745994e+001
 1.194805386811314e+000	 4.951533106594303e-001	 1.679446713025524e+001
 1.189470793619292e+000	 5.078346154609773e-001	 1.668171979769661e+001
 1.261746482958037e+000	 3.878338779042281e-001	 1.725654781306992e+001
 1.257638024518648e+000	 4.009562454770290e-001	 1.718381183121948e+001
 1.253382154848216e+000	 4.140682420983951e-001	 1.710913336038230e+001
 1.248978498470000e+000	 4.271675115750018e-001	 1.703218549994640e+001
 1.244426727625320e+000	 4.402516786041620e-001	 1.695266740442590e+001
 1.239726563054677e+000	 4.533183499193709e-001	 1.687030420597365e+001
 1.234877774747946e+000	 4.663651154684180e-001	 1.678484690798681e+001
 1.229880182662189e+000	 4.793895496231639e-001	 1.669607225607576e+001
 1.224733657405657e+000	 4.923892124200255e-001	 1.660378259291354e+001
 1.219438120886602e+000	 5.053616508301388e-001	 1.650780570367563e+001
 1.213993546925534e+000	 5.183044000580986e-001	 1.640799465891308e+001
 1.287233797891179e+000	 3.956681332952001e-001	 1.690094913136315e+001
 1.283042348474234e+000	 4.090555730671777e-001	 1.683659043723486e+001
 1.278700510115136e+000	 4.224324323941557e-001	 1.677073307208632e+001
 1.274207899752516e+000	 4.357963074876532e-001	 1.670301970821799e+001
 1.269564183006969e+000	 4.491447750638161e-001	 1.663312093831904e+001
 1.264769074977958e+000	 4.624753935121033e-001	 1.656073510371932e+001
 1.259822341009157e+000	 4.757857040971967e-001	 1.648558809010585e+001
 1.254723797420769e+000	 4.890732321932150e-001	 1.640743309800710e+001
 1.249473312207338e+000	 5.023354885492571e-001	 1.632605039563592e+001
 1.244070805699674e+000	 5.155699705852225e-001	 1.624124706190739e+001
 1.238516251189468e+000	 5.287741637167839e-001	 1.615285672760643e+001
 1.312721068224635e+000	 4.035023749766974e-001	 1.657750676074282e+001
 1.308446627975386e+000	 4.171548864840204e-001	 1.651998851980485e+001
 1.304018821078061e+000	 4.307966080531482e-001	 1.646142738692637e+001
 1.299437256886679e+000	 4.444250883005267e-001	 1.640144030011110e+001
 1.294701594401127e+000	 4.580378559612178e-001	 1.633967370073299e+001
 1.289811543079844e+000	 4.716324210807298e-001	 1.627580323902743e+001
 1.284766863620316e+000	 4.852062762407214e-001	 1.620953344355881e+001
 1.279567368705894e+000	 4.987568978176555e-001	 1.614059736315483e+001
 1.274212923717429e+000	 5.122817472733993e-001	 1.606875619013093e+001
 1.268703447408290e+000	 5.257782724767012e-001	 1.599379887388925e+001
 1.263038912541362e+000	 5.392439090544005e-001	 1.591554173416290e+001
 1.338208300329813e+000	 4.113366049072643e-001	 1.628246076459816e+001
 1.333850869372756e+000	 4.252541877523638e-001	 1.623080666448268e+001
 1.329337094066146e+000	 4.391607711663915e-001	 1.617838677347976e+001
 1.324666576179405e+000	 4.530538561707893e-001	 1.612496369680914e+001
 1.319838968091726e+000	 4.669309235196080e-001	 1.607016668185974e+001
 1.314853973620533e+000	 4.807894349144760e-001	 1.601365324952278e+001
 1.309711348817138e+000	 4.946268342541014e-001	 1.595511080999381e+001
 1.304410902728050e+000	 5.084405489173637e-001	 1.589425614606352e+001
 1.298952498120429e+000	 5.222279910789712e-001	 1.583083487705038e+001
 1.293336052170214e+000	 5.359865590565953e-001	 1.576462091390103e+001
 1.287561537111484e+000	 5.497136386883156e-001	 1.569541591620008e+001
 1.363695500578122e+000	 4.191708250454448e-001	 1.600717698726168e+001
 1.359255079016994e+000	 4.333534788970149e-001	 1.596201890293937e+001
 1.354655335408544e+000	 4.475249238249044e-001	 1.591638109279225e+001
 1.349895863937609e+000	 4.616826132556096e-001	 1.586982645220403e+001
 1.344976310362696e+000	 4.758239799622283e-001	 1.582196102707453e+001
 1.339896372860226e+000	 4.899464373025679e-001	 1.577243383071110e+001
 1.334655802835345e+000	 5.040473804924457e-001	 1.572093642542407e+001
 1.329254405697723e+000	 5.181241879132171e-001	 1.566727304946400e+001
 1.323692041600839e+000	 5.321742224524919e-001	 1.561137069509070e+001
 1.317968626143207e+000	 5.461948328769253e-001	 1.555300047746810e+001
 1.312084131030102e+000	 5.601833552358968e-001	 1.549195259480724e+001
 1.389182675340970e+000	 4.270050373497830e-001	 1.574824376072590e+001
 1.384659263258752e+000	 4.414527619427805e-001	 1.570912578630239e+001
 1.379973551434412e+000	 4.558890681197056e-001	 1.566989702079552e+001
 1.375125126468206e+000	 4.703113617121552e-001	 1.563008320954043e+001
 1.370113627497968e+000	 4.847170275123195e-001	 1.558925585861450e+001
 1.364938747059123e+000	 4.991034305342313e-001	 1.554703207850021e+001
 1.359600231910653e+000	 5.134679173108632e-001	 1.550307416825802e+001
 1.354097883825400e+000	 5.278078172260936e-001	 1.545708893245426e+001
 1.348431560343163e+000	 5.421204438804808e-001	 1.540882672458508e+001
 1.342601175485032e+000	 5.564030964897109e-001	 1.535808021235423e+001
 1.336606700427484e+000	 5.706530613145109e-001	 1.530468286188793e+001
 1.414669830989763e+000	 4.348392437788227e-001	 1.550574448744992e+001
 1.410063428448682e+000	 4.495520389144668e-001	 1.547248792023466e+001
 1.405291748472902e+000	 4.642532061418142e-001	 1.543945172435772e+001
 1.400354370078112e+000	 4.789401036975940e-001	 1.540612533363369e+001
 1.395250925781474e+000	 4.936100683931231e-001	 1.537204658391643e+001
 1.389981102477423e+000	 5.082604168986921e-001	 1.533680158738132e+001
 1.384544642278781e+000	 5.228884470644629e-001	 1.530002432119366e+001
 1.378941343321566e+000	 5.374914392768713e-001	 1.526139592154778e+001
 1.373171060531899e+000	 5.520666578494574e-001	 1.522064367570718e+001
 1.367233706353451e+000	 5.666113524469723e-001	 1.517753970645474e+001
 1.361129251433898e+000	 5.811227595415255e-001	 1.513189934526820e+001
 1.440156973895912e+000	 4.426734462911082e-001	 1.527987829843398e+001
 1.435467580937434e+000	 4.576513118368814e-001	 1.525255730435765e+001
 1.430609932853171e+000	 4.726173399822493e-001	 1.522573489936858e+001
 1.425583601074242e+000	 4.875688413690944e-001	 1.519886490922022e+001
 1.420388211497145e+000	 5.025031048278797e-001	 1.517145227689036e+001
 1.415023445375325e+000	 5.174173986851760e-001	 1.514305297288895e+001
 1.409489040175448e+000	 5.323089721083542e-001	 1.511327359171396e+001
 1.403784790396708e+000	 5.471750564864277e-001	 1.508177062403903e+001
 1.397910548351551e+000	 5.620128668459403e-001	 1.504824939602462e+001
 1.391866224906226e+000	 5.768196033007297e-001	 1.501246266909819e+001
 1.385651790179613e+000	 5.915924525343079e-001	 1.497420889564966e+001
 1.465644110430824e+000	 4.505076468451836e-001	 1.507093996100754e+001
 1.460871727075660e+000	 4.657505827348306e-001	 1.504985889219982e+001
 1.455928110904371e+000	 4.809814717320294e-001	 1.502948714684503e+001
 1.450812825763512e+000	 4.961975768838239e-001	 1.500924349850524e+001
 1.445525490928912e+000	 5.113961390398314e-001	 1.498860067113137e+001
 1.440065782013028e+000	 5.265743781829090e-001	 1.496708529245211e+001
 1.434433431836372e+000	 5.417294947976460e-001	 1.494427750296496e+001
 1.428628231261313e+000	 5.568586712756412e-001	 1.491981020856071e+001
 1.422650029986620e+000	 5.719590733564496e-001	 1.489336796679019e+001
 1.416498737301121e+000	 5.870278516030030e-001	 1.486468549893039e+001
 1.410174322794896e+000	 6.020621429102251e-001	 1.483354582231329e+001
 1.164947985140473e+000	 4.973648073080525e-001	 1.697495189881503e+001
 1.159581197877747e+000	 5.097519464059583e-001	 1.684365815461086e+001
 1.154071539441348e+000	 5.221058475389500e-001	 1.670884745753711e+001
 1.148419138145507e+000	 5.344241210826426e-001	 1.657057445105773e+001
 1.142624174058487e+000	 5.467043713871075e-001	 1.642891960006301e+001
 1.136686879394963e+000	 5.589441981408801e-001	 1.628398905546338e+001
 1.130607538866382e+000	 5.711411977547047e-001	 1.613591453523785e+001
 1.124386489988285e+000	 5.832929647635358e-001	 1.598485322638539e+001
 1.118024123343679e+000	 5.953970932452811e-001	 1.583098771193241e+001
 1.111520882801578e+000	 6.074511782547065e-001	 1.567452592680005e+001
 1.104877265689896e+000	 6.194528172708821e-001	 1.551570114593715e+001
 1.189470793619292e+000	 5.078346154609773e-001	 1.668171979769662e+001
 1.183991032474813e+000	 5.204825107846713e-001	 1.656528549924501e+001
 1.178365392638336e+000	 5.330964684657114e-001	 1.644551659758478e+001
 1.172594005125169e+000	 5.456740485767644e-001	 1.632240302906111e+001
 1.166677053794102e+000	 5.582128050381116e-001	 1.619596073167973e+001
 1.160614775748049e+000	 5.707102870103700e-001	 1.606623151939500e+001
 1.154407461691780e+000	 5.831640403073668e-001	 1.593328298094284e+001
 1.148055456245717e+000	 5.955716088276524e-001	 1.579720840839516e+001
 1.141559158214848e+000	 6.079305360031093e-001	 1.565812676026688e+001
 1.134919020811867e+000	 6.202383662630420e-001	 1.551618266360388e+001
 1.128135551833708e+000	 6.324926465120909e-001	 1.537154645901701e+001
 1.213993546925534e+000	 5.183044000580986e-001	 1.640799465891308e+001
 1.208400812153459e+000	 5.312130510209822e-001	 1.630470417282053e+001
 1.202659191177847e+000	 5.440870646650542e-001	 1.619828817476445e+001
 1.196768817715076e+000	 5.569239507601439e-001	 1.608868270099621e+001
 1.190729879414451e+000	 5.697212127968530e-001	 1.597584961987032e+001
 1.184542618267112e+000	 5.824763494079928e-001	 1.585977648400766e+001
 1.178207330971136e+000	 5.951868558105830e-001	 1.574047641620918e+001
 1.171724369251810e+000	 6.078502252668822e-001	 1.561798803517700e+001
 1.165094140136081e+000	 6.204639505628592e-001	 1.549237542670267e+001
 1.158317106180301e+000	 6.330255255024672e-001	 1.536372816551845e+001
 1.151393785650396e+000	 6.455324464160297e-001	 1.523216139247564e+001
 1.238516251189468e+000	 5.287741637167839e-001	 1.615285672760643e+001
 1.232810543015708e+000	 5.419435697974288e-001	 1.606122795849990e+001
 1.226952941132905e+000	 5.550776388845086e-001	 1.596669576938467e+001
 1.220943581958496e+000	 5.681738304451133e-001	 1.586915294934203e+001
 1.214782656932294e+000	 5.812295975402649e-001	 1.576851759447517e+001
 1.208470412933653e+000	 5.942423882750676e-001	 1.566473290493855e+001
 1.202007152653947e+000	 6.072096472698344e-001	 1.555776702610616e+001
 1.195393234923308e+000	 6.201288171506311e-001	 1.544761294097924e+001
 1.188629074990625e+000	 6.329973400576119e-001	 1.533428842048069e+001
 1.181715144755887e+000	 6.458126591694799e-001	 1.521783603775249e+001
 1.174651972953994e+000	 6.585722202423398e-001	 1.509832325196540e+001
 1.263038912541362e+000	 5.392439090544005e-001	 1.591554173416290e+001
 1.257220231163583e+000	 5.526740697965494e-001	 1.583430455931670e+001
 1.251246648576530e+000	 5.660681938716050e-001	 1.575038646636241e+001
 1.245118303898696e+000	 5.794236904440049e-001	 1.566364756232734e+001
 1.238835392360393e+000	 5.927379621452801e-001	 1.557397237326011e+001
 1.232398165729178e+000	 6.060084065529143e-001	 1.548126955176727e+001
 1.225806932689711e+000	 6.192324176906023e-001	 1.538547164033338e+001
 1.219062059176956e+000	 6.324073875483052e-001	 1.528653489874149e+001
 1.212163968661729e+000	 6.455307076204507e-001	 1.518443920339780e+001
 1.205113142387636e+000	 6.585997704605783e-001	 1.507918802575948e+001
 1.197910119558531e+000	 6.716119712506630e-001	 1.497100815866832e+001
 1.287561537111484e+000	 5.497136386883156e-001	 1.569541591620008e+001
 1.281629882699106e+000	 5.634045537008822e-001	 1.562349185993410e+001
 1.275540319581745e+000	 5.770587323738733e-001	 1.554909827086988e+001
 1.269292989578943e+000	 5.906735335691515e-001	 1.547207311490330e+001
 1.262888091711506e+000	 6.042463094888311e-001	 1.539227751700363e+001
 1.256325882635189e+000	 6.177744071828526e-001	 1.530959534339158e+001
 1.249606677027924e+000	 6.312551700783683e-001	 1.522393285247774e+001
 1.242730847929497e+000	 6.446859395293101e-001	 1.513521842427999e+001
 1.235698827032636e+000	 6.580640563844561e-001	 1.504340237745777e+001
 1.228511104924556e+000	 6.713868625722596e-001	 1.494861692930518e+001
 1.221168231278044e+000	 6.846517027006408e-001	 1.485273757216929e+001
 1.312084131030102e+000	 5.601833552358968e-001	 1.549195259480725e+001
 1.306039503724299e+000	 5.741350241929649e-001	 1.542843556507349e+001
 1.299833960221569e+000	 5.880492571388442e-001	 1.536263873392898e+001
 1.293467645042504e+000	 6.019233626328855e-001	 1.529438850421107e+001
 1.286940760998396e+000	 6.157546424478505e-001	 1.522353279530057e+001
 1.280253569633189e+000	 6.295403931062018e-001	 1.514994046241086e+001
 1.273406391618082e+000	 6.432779074386129e-001	 1.507350079902779e+001
 1.266399607097675e+000	 6.569644761630518e-001	 1.499412313381669e+001
 1.259233655986598e+000	 6.705973894827112e-001	 1.491183303959357e+001
 1.251909038215656e+000	 6.841739387010217e-001	 1.482823183841012e+001
 1.244426313926563e+000	 6.976914178519142e-001	 1.474388918814060e+001
 1.336606700427484e+000	 5.706530613145109e-001	 1.530468286188793e+001
 1.330449100341185e+000	 5.848654839553356e-001	 1.524884803770027e+001
 1.324127576569028e+000	 5.990397709140478e-001	 1.519086463244618e+001
 1.317642276332648e+000	 6.131731804475387e-001	 1.513058540399567e+001
 1.310993406233823e+000	 6.272629638992716e-001	 1.506785534599262e+001
 1.304181232704681e+000	 6.413063672642814e-001	 1.500253814833708e+001
 1.297206082409683e+000	 6.553006327768174e-001	 1.493451551327322e+001
 1.290068342598234e+000	 6.692430005189354e-001	 1.486372215099657e+001
 1.282768461406858e+000	 6.831307100482970e-001	 1.479144271009633e+001
 1.275306948109945e+000	 6.969610020433622e-001	 1.471828741730059e+001
 1.267684373318120e+000	 7.107311199641255e-001	 1.464420503344794e+001
 1.361129251433898e+000	 5.811227595415255e-001	 1.513189934526820e+001
 1.354858678651786e+000	 5.955959356705324e-001	 1.508382211722011e+001
 1.348421174697141e+000	 6.100302764470145e-001	 1.503342432722914e+001
 1.341816889492642e+000	 6.244229898254443e-001	 1.498062222035913e+001
 1.335046033430547e+000	 6.387712767200264e-001	 1.492536071584870e+001
 1.328108877831169e+000	 6.530723325984111e-001	 1.486760708387486e+001
 1.321005755352223e+000	 6.673233490984626e-001	 1.480729163528210e+001
 1.313737060347918e+000	 6.815215156663677e-001	 1.474533114956734e+001
 1.306303249176666e+000	 6.956640212142951e-001	 1.468243666930916e+001
 1.298704840456433e+000	 7.097480557957788e-001	 1.461848375207940e+001
 1.290942415266750e+000	 7.237708122969156e-001	 1.455340690184217e+001
 1.385651790179613e+000	 5.915924525343079e-001	 1.497420889564966e+001
 1.379268244758125e+000	 6.063263820210936e-001	 1.493348108825733e+001
 1.372714760678931e+000	 6.210207764852744e-001	 1.489031026029666e+001
 1.365991490565752e+000	 6.356727935789341e-001	 1.484462714416664e+001
 1.359098648601329e+000	 6.502795837870479e-001	 1.479639235896995e+001
 1.352036510994155e+000	 6.648382920499100e-001	 1.474559277114765e+001
 1.344805416395201e+000	 6.793460594090302e-001	 1.469287211211152e+001
 1.337405766263471e+000	 6.938000246747539e-001	 1.463919224221446e+001
 1.329838025179267e+000	 7.081973261137888e-001	 1.458447464481976e+001
 1.322102721104127e+000	 7.225351031547690e-001	 1.452851169549196e+001
 1.314200445586484e+000	 7.368104981099264e-001	 1.447120442632130e+001
 1.410174322794896e+000	 6.020621429102251e-001	 1.483354582231329e+001
 1.403677804762223e+000	 6.170568256895567e-001	 1.479982806180571e+001
 1.397008340587419e+000	 6.320112737763580e-001	 1.476347526169501e+001
 1.390166085595247e+000	 6.469225945203410e-001	 1.472444152667631e+001
 1.383151257758930e+000	 6.617878879772692e-001	 1.468271226507724e+001
 1.375964138175143e+000	 6.766042485600980e-001	 1.463863399137381e+001
 1.368605071488112e+000	 6.913687667140009e-001	 1.459321844405293e+001
 1.361074466261638e+000	 7.060785306134998e-001	 1.454641849167638e+001
 1.353372795297909e+000	 7.207306278798588e-001	 1.449816593845999e+001
 1.345500595902037e+000	 7.353221473168309e-001	 1.444845751368770e+001
 1.337458470091355e+000	 7.498501806627992e-001	 1.439735468155667e+001
 1.104877265689896e+000	 6.194528172708821e-001	 1.551570114593715e+001
 1.098092794993187e+000	 6.314013997351550e-001	 1.535293644721502e+001
 1.091169062434711e+000	 6.432927274468238e-001	 1.518457870361289e+001
 1.084106727484177e+000	 6.551244135982917e-001	 1.501070592927308e+001
 1.076906503314615e+000	 6.668940797275551e-001	 1.483141308977133e+001
 1.069569156736019e+000	 6.785993572081285e-001	 1.464858423257382e+001
 1.062095508079932e+000	 6.902378887419129e-001	 1.446404768957113e+001
 1.054486431034654e+000	 7.018073298531411e-001	 1.427801645781863e+001
 1.046742852430854e+000	 7.133053503815096e-001	 1.409072935890746e+001
 1.038865751977465e+000	 7.247296359725967e-001	 1.390245029220920e+001
 1.030856161947795e+000	 7.360778895636447e-001	 1.371346740961045e+001
 1.128135551833708e+000	 6.324926465120909e-001	 1.537154645901701e+001
 1.121208264223476e+000	 6.446927533389899e-001	 1.522240903271301e+001
 1.114138783211110e+000	 6.568344001685657e-001	 1.506697491561270e+001
 1.106927782148541e+000	 6.689151499495938e-001	 1.490545973626723e+001
 1.099575989221505e+000	 6.809325741521234e-001	 1.474020623629531e+001
 1.092084187381794e+000	 6.928842542887641e-001	 1.457257413388892e+001
 1.084453214229405e+000	 7.047677834389821e-001	 1.440286217808229e+001
 1.076683961844282e+000	 7.165807677744920e-001	 1.423140170200963e+001
 1.068777376567416e+000	 7.283208280838208e-001	 1.405855572298377e+001
 1.060734458731179e+000	 7.399856012941005e-001	 1.388471794469130e+001
 1.052556262338825e+000	 7.515727419881261e-001	 1.371031166449526e+001
 1.151393785650396e+000	 6.455324464160297e-001	 1.523216139247564e+001
 1.144323681448046e+000	 6.579840770396938e-001	 1.509570046989214e+001
 1.137108452309784e+000	 6.703760424240128e-001	 1.495259863931650e+001
 1.129748785469733e+000	 6.827058552742499e-001	 1.480533844494176e+001
 1.122245424126297e+000	 6.949710369926210e-001	 1.465500994739515e+001
 1.114599167373023e+000	 7.071691192309456e-001	 1.450196678121145e+001
 1.106810870078322e+000	 7.192976454463668e-001	 1.434660158048878e+001
 1.098881442713736e+000	 7.313541724581942e-001	 1.418934498103855e+001
 1.090811851130529e+000	 7.433362720038974e-001	 1.403066450576739e+001
 1.082603116284461e+000	 7.552415322922722e-001	 1.387106333614100e+001
 1.074256313908682e+000	 7.670675595517768e-001	 1.371107897315426e+001
 1.174651972953994e+000	 6.585722202423398e-001	 1.509832325196540e+001
 1.167439052445210e+000	 6.712753741597766e-001	 1.497386134620832e+001
 1.160078075472602e+000	 6.839176575982480e-001	 1.484471528854792e+001
 1.152569743152447e+000	 6.964965330196065e-001	 1.471182706328051e+001
 1.144914813695786e+000	 7.090094717583350e-001	 1.457557699691406e+001
 1.137114102337886e+000	 7.214539556055630e-001	 1.443639042488235e+001
 1.129168481215533e+000	 7.338274783962132e-001	 1.429473664827241e+001
 1.121078879191826e+000	 7.461275475972875e-001	 1.415112775560824e+001
 1.112846281628262e+000	 7.583516858952979e-001	 1.400611731221513e+001
 1.104471730103942e+000	 7.704974327808035e-001	 1.386029892033744e+001
 1.095956322081866e+000	 7.825623461280228e-001	 1.371430465383178e+001
 1.197910119558531e+000	 6.716119712506630e-001	 1.497100815866832e+001
 1.190554382993286e+000	 6.845666480217497e-001	 1.485982003944268e+001
 1.183047658441432e+000	 6.974592490763550e-001	 1.474426130605064e+001
 1.175390660901376e+000	 7.102871866330096e-001	 1.462471336338230e+001
 1.167584163596768e+000	 7.230478819585513e-001	 1.450160817120482e+001
 1.159628997904562e+000	 7.357387669835079e-001	 1.437542720525939e+001
 1.151526053229886e+000	 7.483572859206669e-001	 1.424670026617000e+001
 1.143276276827363e+000	 7.609008968848121e-001	 1.411600413818249e+001
 1.134880673568683e+000	 7.733670735115830e-001	 1.398396110046823e+001
 1.126340305656253e+000	 7.857533065733874e-001	 1.385123729444905e+001
 1.117656292282877e+000	 7.980571055902893e-001	 1.371854095132371e+001
 1.221168231278044e+000	 6.846517027006408e-001	 1.485273757216929e+001
 1.213669678870590e+000	 6.978579019481237e-001	 1.475416872491982e+001
 1.206017206958141e+000	 7.110008202434177e-001	 1.465103047037081e+001
 1.198211544421214e+000	 7.240778195618054e-001	 1.454373775449641e+001
 1.190253479496037e+000	 7.370862711025561e-001	 1.443276012010666e+001
 1.182143859701230e+000	 7.500235569356700e-001	 1.431862055111045e+001
 1.173883591710230e+000	 7.628870716518742e-001	 1.420189414983973e+001
 1.165473641169157e+000	 7.756742240138076e-001	 1.408320664954652e+001
 1.156915032459862e+000	 7.883824386063116e-001	 1.396323276497466e+001
 1.148208848408023e+000	 8.010091574837152e-001	 1.384269438470574e+001
 1.139356229936217e+000	 8.135518418120014e-001	 1.372235860977895e+001
 1.244426313926563e+000	 6.976914178519142e-001	 1.474388918814059e+001
 1.236784945855437e+000	 7.111491392614101e-001	 1.465668428623321e+001
 1.228986726764600e+000	 7.245423744845195e-001	 1.456477648839094e+001
 1.221032399416653e+000	 7.378684352533406e-001	 1.446860160442478e+001
 1.212922767060388e+000	 7.511246426996359e-001	 1.436865352557784e+001
 1.204658693356066e+000	 7.643083290329398e-001	 1.426548296735728e+001
 1.196241102245413e+000	 7.774168392219805e-001	 1.415969603118452e+001
 1.187670977766017e+000	 7.904475326773138e-001	 1.405195258702270e+001
 1.178949363809866e+000	 8.033977849330432e-001	 1.394296448000627e+001
 1.170077363825882e+000	 8.162649893254796e-001	 1.383349356497175e+001
 1.161056140466386e+000	 8.290465586665842e-001	 1.372434957366971e+001
 1.267684373318120e+000	 7.107311199641255e-001	 1.464420503344794e+001
 1.259900189726144e+000	 7.244403632841191e-001	 1.456711277346086e+001
 1.251956223602675e+000	 7.380839151847439e-001	 1.448522145961458e+001
 1.243853231592387e+000	 7.516590371549612e-001	 1.439897579927690e+001
 1.235592031956617e+000	 7.651630002590768e-001	 1.430888154719711e+001
 1.227173504497251e+000	 7.785930868462078e-001	 1.421550416217539e+001
 1.218598590424284e+000	 7.919465922631325e-001	 1.411946726871198e+001
 1.209868292166755e+000	 8.052208265683710e-001	 1.402145092579384e+001
 1.200983673126766e+000	 8.184131162453372e-001	 1.392218970591830e+001
 1.191945857376462e+000	 8.315208059123728e-001	 1.382247058840899e+001
 1.182756029297884e+000	 8.445412600274632e-001	 1.372313067204023e+001
 1.290942415266750e+000	 7.237708122969156e-001	 1.455340690184217e+001
 1.283015416261027e+000	 7.377315773387621e-001	 1.448517776335922e+001
 1.274925703214235e+000	 7.516254457291738e-001	 1.441206453671034e+001
 1.266674046653109e+000	 7.654496287140141e-001	 1.433450951154008e+001
 1.258261279851520e+000	 7.792013472901654e-001	 1.425301850964017e+001
 1.249688298752963e+000	 7.928778339463644e-001	 1.416815947067498e+001
 1.240956061835691e+000	 8.064763344074751e-001	 1.408056082934916e+001
 1.232065589920180e+000	 8.199941093800185e-001	 1.399090968612140e+001
 1.223017965918630e+000	 8.334284362967538e-001	 1.389994977458875e+001
 1.213814334526393e+000	 8.467766110580863e-001	 1.380847922970485e+001
 1.204455901855211e+000	 8.600359497680635e-001	 1.371734816204073e+001
 1.314200445586484e+000	 7.368104981099264e-001	 1.447120442632130e+001
 1.306130631238402e+000	 7.510227847478493e-001	 1.441058890045303e+001
 1.297895171341149e+000	 7.651669695028935e-001	 1.434499075803464e+001
 1.289494850303512e+000	 7.792402133778447e-001	 1.427483915069228e+001
 1.280930516411890e+000	 7.932396873021873e-001	 1.420062880218899e+001
 1.272203081751380e+000	 8.071625739043001e-001	 1.412291853845654e+001
 1.263313522068484e+000	 8.210060692871556e-001	 1.404232959572990e+001
 1.254262876575102e+000	 8.347673848052971e-001	 1.395954370877671e+001
 1.245052247693527e+000	 8.484437488408518e-001	 1.387530098231921e+001
 1.235682800742303e+000	 8.620324085763131e-001	 1.379039754986827e+001
 1.226155763562868e+000	 8.755306317618105e-001	 1.370568302532489e+001
 1.337458470091355e+000	 7.498501806627992e-001	 1.439735468155667e+001
 1.329245840436585e+000	 7.643139888338925e-001	 1.434305059704363e+001
 1.320864633725284e+000	 7.787084898909863e-001	 1.428368003124230e+001
 1.312315648248289e+000	 7.930307945938002e-001	 1.421959747418231e+001
 1.303599747304523e+000	 8.072780238044294e-001	 1.415127596450982e+001
 1.294717859120681e+000	 8.214473102909055e-001	 1.407925423345335e+001
 1.285670976711511e+000	 8.355358005343190e-001	 1.400413495938177e+001
 1.276460157680332e+000	 8.495406565372456e-001	 1.392658278903940e+001
 1.267086523959526e+000	 8.634590576311911e-001	 1.384732212847002e+001
 1.257551261490825e+000	 8.772882022807448e-001	 1.376713470785359e+001
 1.247855619845356e+000	 8.910253098821287e-001	 1.368685692570789e+001
 1.030856161947795e+000	 7.360778895636447e-001	 1.371346740961045e+001
 1.022715166525019e+000	 7.473478326137196e-001	 1.352242434864476e+001
 1.014443900524439e+000	 7.585372058120381e-001	 1.332808924770516e+001
 1.006043549818665e+000	 7.696437712595143e-001	 1.313096442963353e+001
 9.975153511208504e-001	 7.806653141634370e-001	 1.293156416232557e+001
 9.888605914263497e-001	 7.915996442727784e-001	 1.273041328117868e+001
 9.800806074060005e-001	 8.024445972974047e-001	 1.252804577248772e+001
 9.711767847515959e-001	 8.131980363093013e-001	 1.232500332351203e+001
 9.621505574741560e-001	 8.238578531239378e-001	 1.212183384520937e+001
 9.530034071557011e-001	 8.344219696599163e-001	 1.191908997387887e+001
 9.437368621553290e-001	 8.448883392750972e-001	 1.171732755816691e+001
 1.052556262338825e+000	 7.515727419881261e-001	 1.371031166449526e+001
 1.044243894396206e+000	 7.630799236604067e-001	 1.353381000905197e+001
 1.035798513607119e+000	 7.745048394403975e-001	 1.335372600050376e+001
 1.027221330807447e+000	 7.858452043199751e-001	 1.317057247478558e+001
 1.018513608743844e+000	 7.970987568837921e-001	 1.298487203490442e+001
 1.009676661503626e+000	 8.082632607748009e-001	 1.279715555406727e+001
 1.000711853895297e+000	 8.193365061433412e-001	 1.260796064044374e+001
 9.916206007802295e-001	 8.303163110778576e-001	 1.241783006982746e+001
 9.824043663561702e-001	 8.412005230153462e-001	 1.222731019275996e+001
 9.730646633932651e-001	 8.519870201296235e-001	 1.203694932294714e+001
 9.636030524234190e-001	 8.626737126955778e-001	 1.184729611403314e+001
 1.074256313908682e+000	 7.670675595517768e-001	 1.371107897315426e+001
 1.065772573831665e+000	 7.788119793124740e-001	 1.354888358569896e+001
 1.057153078645655e+000	 7.904724371441632e-001	 1.338262471015342e+001
 1.048399064149761e+000	 8.020466009297865e-001	 1.321283542766200e+001
 1.039511819124085e+000	 8.135321626314672e-001	 1.304005773637590e+001
 1.030492684747856e+000	 8.249268397862397e-001	 1.286484091547354e+001
 1.021343053967183e+000	 8.362283769850172e-001	 1.268773984860991e+001
 1.012064370812964e+000	 8.474345473328053e-001	 1.250931331364685e+001
 1.002658129669613e+000	 8.585431538882244e-001	 1.233012224585374e+001
 9.931258744953389e-001	 8.695520310804034e-001	 1.215072798206632e+001
 9.834691979947898e-001	 8.804590461013547e-001	 1.197169049355634e+001
 1.095956322081866e+000	 7.825623461280228e-001	 1.371430465383178e+001
 1.087301210213081e+000	 7.945440035026686e-001	 1.356591616589227e+001
 1.078507600978236e+000	 8.064400029149780e-001	 1.341284489552650e+001
 1.069576755139626e+000	 8.182479651390544e-001	 1.325565351407462e+001
 1.060509987510751e+000	 8.299655355145807e-001	 1.309491404489985e+001
 1.051308666362708e+000	 8.415903854727677e-001	 1.293120606848661e+001
 1.041974212779163e+000	 8.531202140451907e-001	 1.276511488187611e+001
 1.032508099960486e+000	 8.645527493535051e-001	 1.259722961993027e+001
 1.022911852477707e+000	 8.758857500780442e-001	 1.242814134629580e+001
 1.013187045477039e+000	 8.871170069033344e-001	 1.225844112228443e+001
 1.003335303835817e+000	 8.982443439385989e-001	 1.208871806218968e+001
 1.117656292282877e+000	 7.980571055902893e-001	 1.371854095132371e+001
 1.108829808922140e+000	 8.102760001637359e-001	 1.358321137160173e+001
 1.099862085943054e+000	 8.224075407444853e-001	 1.344248996459129e+001
 1.090754409071060e+000	 8.344493009978824e-001	 1.329697799037266e+001
 1.081508119153021e+000	 8.463988796412524e-001	 1.314728774316433e+001
 1.072124611551856e+000	 8.582539020000585e-001	 1.299404057763143e+001
 1.062605335488745e+000	 8.700120215466195e-001	 1.283786488155549e+001
 1.052951793333486e+000	 8.816709214193181e-001	 1.267939400304173e+001
 1.043165539843674e+000	 8.932283159202764e-001	 1.251926414088007e+001
 1.033248181353481e+000	 9.046819519894954e-001	 1.235811220707370e+001
 1.023201374912877e+000	 9.160296106534807e-001	 1.219657367090450e+001
 1.139356229936217e+000	 8.135518418120014e-001	 1.372235860977895e+001
 1.130358375340527e+000	 8.260079732284228e-001	 1.359910540524965e+001
 1.121216538878297e+000	 8.383750546243286e-001	 1.346970611192800e+001
 1.111932031238083e+000	 8.506506125563762e-001	 1.333480926735501e+001
 1.102506219300071e+000	 8.628321991195993e-001	 1.319507733894871e+001
 1.092940525518970e+000	 8.749173935337856e-001	 1.305118455158386e+001
 1.083236427253435e+000	 8.869038037120623e-001	 1.290381465065984e+001
 1.073395456042650e+000	 8.987890678096054e-001	 1.275365860956923e+001
 1.063419196830736e+000	 9.105708557503932e-001	 1.260141229098619e+001
 1.053309287139781e+000	 9.222468707299638e-001	 1.244777407185964e+001
 1.043067416192346e+000	 9.338148506921710e-001	 1.229344244241197e+001
 1.161056140466386e+000	 8.290465586665842e-001	 1.372434957366971e+001
 1.151886914849926e+000	 8.417399266294754e-001	 1.361196840787558e+001
 1.142570965122156e+000	 8.543425485461511e-001	 1.349268266888441e+001
 1.133109626934713e+000	 8.668519038646393e-001	 1.336719658357188e+001
 1.123504293201081e+000	 8.792654980577410e-001	 1.323623238878438e+001
 1.113756413467723e+000	 8.915808642396222e-001	 1.310052794016124e+001
 1.103867493230739e+000	 9.037955647642769e-001	 1.296083424265649e+001
 1.093839093198666e+000	 9.159071928037286e-001	 1.281791291245668e+001
 1.083672828502116e+000	 9.279133739038652e-001	 1.267253358058074e+001
 1.073370367851056e+000	 9.398117675158184e-001	 1.252547124898894e+001
 1.062933432640599e+000	 9.516000685008399e-001	 1.237750361051930e+001
 1.182756029297884e+000	 8.445412600274632e-001	 1.372313067204023e+001
 1.173415432832025e+000	 8.574718642996398e-001	 1.362020696112422e+001
 1.163925370012821e+000	 8.703100265015967e-001	 1.350965371980178e+001
 1.154287201454969e+000	 8.830531789727771e-001	 1.339223902901912e+001
 1.144502346105226e+000	 8.956987805637955e-001	 1.326875421881575e+001
 1.134572280601786e+000	 9.082443182832423e-001	 1.314001123825637e+001
 1.124498538578164e+000	 9.206873089260209e-001	 1.300683993032869e+001
 1.114282709912222e+000	 9.330253006810482e-001	 1.287008522233852e+001
 1.103926439921036e+000	 9.452558747161647e-001	 1.273060424301560e+001
 1.093431428502421e+000	 9.573766467381368e-001	 1.258926337817560e+001
 1.082799429224013e+000	 9.693852685256589e-001	 1.244693527735928e+001
 1.204455901855211e+000	 8.600359497680635e-001	 1.371734816204073e+001
 1.194943934668507e+000	 8.732037901716622e-001	 1.362226758881469e+001
 1.185279758888481e+000	 8.862774924823081e-001	 1.351890082464925e+001
 1.175464760092871e+000	 8.992544419308941e-001	 1.340808774892737e+001
 1.165500383261687e+000	 9.121320507458817e-001	 1.329069786666074e+001
 1.155388132124831e+000	 9.249077598303189e-001	 1.316762741928303e+001
 1.145129568453216e+000	 9.375790404200531e-001	 1.303979638069276e+001
 1.134726311294007e+000	 9.501433957209261e-001	 1.290814534996255e+001
 1.124180036150719e+000	 9.625983625227633e-001	 1.277363235291957e+001
 1.113492474108992e+000	 9.749415127879978e-001	 1.263722956553619e+001
 1.102665410908964e+000	 9.871704552127986e-001	 1.249991997274223e+001
 1.226155763562868e+000	 8.755306317618105e-001	 1.370568302532489e+001
 1.216472425741059e+000	 8.889357081782893e-001	 1.361664113428569e+001
 1.206634137087326e+000	 9.022449504799287e-001	 1.351875671102641e+001
 1.196642308142437e+000	 9.154556967890946e-001	 1.341294918147544e+001
 1.186498409919639e+000	 9.285653127121180e-001	 1.330017509303034e+001
 1.176203973240529e+000	 9.415711930465256e-001	 1.318142494583839e+001
 1.165760588013401e+000	 9.544707634691312e-001	 1.305771988658180e+001
 1.155169902454707e+000	 9.672614822027223e-001	 1.293010827712114e+001
 1.144433622254387e+000	 9.799408416591322e-001	 1.279966215125735e+001
 1.133553509685888e+000	 9.925063700564799e-001	 1.266747357372136e+001
 1.122531382661828e+000	 1.004955633008429e+000	 1.253465091628405e+001
 1.247855619845356e+000	 8.910253098821287e-001	 1.368685692570789e+001
 1.238000911431365e+000	 9.046676222522668e-001	 1.360186790695074e+001
 1.227988509947546e+000	 9.182124044861021e-001	 1.350760981757269e+001
 1.217819850897685e+000	 9.316569475974836e-001	 1.340508920360735e+001
 1.207496431328260e+000	 9.449985705706222e-001	 1.329535833292457e+001
 1.197019809152552e+000	 9.582346220975362e-001	 1.317951172649069e+001
 1.186391602416226e+000	 9.713624822960131e-001	 1.305868252630632e+001
 1.175613488505012e+000	 9.843795644057990e-001	 1.293403871336280e+001
 1.164687203295262e+000	 9.972833164607426e-001	 1.280677918999843e+001
 1.153614540248222e+000	 1.010071222934661e+000	 1.267812974201207e+001
 1.142397349448981e+000	 1.022740806358721e+000	 1.254933367682818e+001
 9.437368621553290e-001	 8.448883392750972e-001	 1.171732755816690e+001
 9.343539132487400e-001	 8.552534008771232e-001	 1.151422184348339e+001
 9.248547987507909e-001	 8.655167534262337e-001	 1.130747656269508e+001
 9.152411822021542e-001	 8.756764540435483e-001	 1.109778207410824e+001
 9.055147702627121e-001	 8.857305963593138e-001	 1.088582710804303e+001
 8.956773117034877e-001	 8.956773117034877e-001	 1.067229708682366e+001
 8.857305963593136e-001	 9.055147702627120e-001	 1.045787247175837e+001
 8.756764540435487e-001	 9.152411822021543e-001	 1.024322714440900e+001
 8.655167534262338e-001	 9.248547987507906e-001	 1.002902682934497e+001
 8.552534008771235e-001	 9.343539132487400e-001	 9.815927565431077e+000
 8.448883392750972e-001	 9.437368621553290e-001	 9.604574232505817e+000
 9.636030524234190e-001	 8.626737126955778e-001	 1.184729611403313e+001
 9.540225871798311e-001	 8.732569646578550e-001	 1.165602398541316e+001
 9.443235109940165e-001	 8.837363665345823e-001	 1.146084146209809e+001
 9.345075224251110e-001	 8.941099345481915e-001	 1.126243416119942e+001
 9.245763640591428e-001	 9.043757221987769e-001	 1.106148615804115e+001
 9.145318214797459e-001	 9.145318214797459e-001	 1.085867819548658e+001
 9.043757221987768e-001	 9.245763640591429e-001	 1.065468592098206e+001
 8.941099345481920e-001	 9.345075224251107e-001	 1.045017815932125e+001
 8.837363665345825e-001	 9.443235109940161e-001	 1.024581522903754e+001
 8.732569646578551e-001	 9.540225871798307e-001	 1.004224731018179e+001
 8.626737126955777e-001	 9.636030524234188e-001	 9.840112871047497e+000
 9.834691979947898e-001	 8.804590461013547e-001	 1.197169049355634e+001
 9.736912168585270e-001	 8.912604879328960e-001	 1.179075355290783e+001
 9.637921794347112e-001	 9.019559386510658e-001	 1.160568739170370e+001
 9.537738193008560e-001	 9.125433735797033e-001	 1.141716975216284e+001
 9.436379149690517e-001	 9.230208060888488e-001	 1.122587653455641e+001
 9.333862888354511e-001	 9.333862888354512e-001	 1.103247989554820e+001
 9.230208060888488e-001	 9.436379149690516e-001	 1.083764637549150e+001
 9.125433735797036e-001	 9.537738193008563e-001	 1.064203506343523e+001
 9.019559386510659e-001	 9.637921794347110e-001	 1.044629580849622e+001
 8.912604879328965e-001	 9.736912168585268e-001	 1.025106748610645e+001
 8.804590461013545e-001	 9.834691979947897e-001	 1.005697632744209e+001
 1.003335303835817e+000	 8.982443439385989e-001	 1.208871806218968e+001
 9.933598072018449e-001	 9.092639752029754e-001	 1.191682738487785e+001
 9.832608089399151e-001	 9.201754743304357e-001	 1.174062779885827e+001
 9.730400776458450e-001	 9.309767757463132e-001	 1.156078664668542e+001
 9.626994277577082e-001	 9.416658526906770e-001	 1.137796875806358e+001
 9.522407184841030e-001	 9.522407184841031e-001	 1.119283443553545e+001
 9.416658526906768e-001	 9.626994277577082e-001	 1.100603747082907e+001
 9.309767757463132e-001	 9.730400776458450e-001	 1.081822320140773e+001
 9.201754743304358e-001	 9.832608089399147e-001	 1.063002661667897e+001
 9.092639752029760e-001	 9.933598072018447e-001	 1.044207052316843e+001
 8.982443439385988e-001	 1.003335303835817e+000	 1.025496377775669e+001
 1.023201374912877e+000	 9.160296106534807e-001	 1.219657367090450e+001
 1.013028363126802e+000	 9.272674309688243e-001	 1.203262764121538e+001
 1.002729404376668e+000	 9.383949781274457e-001	 1.186422029258094e+001
 9.923063022765318e-001	 9.494101456562506e-001	 1.169200662839547e+001
 9.817609071903853e-001	 9.603108666654102e-001	 1.151663811282958e+001
 9.710951151391997e-001	 9.710951151391997e-001	 1.133876054085627e+001
 9.603108666654104e-001	 9.817609071903853e-001	 1.115901194104076e+001
 9.494101456562508e-001	 9.923063022765317e-001	 1.097802052148482e+001
 9.383949781274458e-001	 1.002729404376667e+000	 1.079640266923074e+001
 9.272674309688246e-001	 1.013028363126802e+000	 1.061476101328297e+001
 9.160296106534807e-001	 1.023201374912877e+000	 1.043368256118946e+001
 1.043067416192346e+000	 9.338148506921710e-001	 1.229344244241198e+001
 1.032696889550413e+000	 9.452708597311709e-001	 1.213650640120736e+001
 1.022197970612008e+000	 9.566144545968489e-001	 1.197497293546540e+001
 1.011572498009371e+000	 9.678434879177447e-001	 1.180948333477176e+001
 1.000822358032352e+000	 9.789558526741966e-001	 1.164067398270783e+001
 9.899494835142403e-001	 9.899494835142405e-001	 1.146917410684675e+001
 9.789558526741966e-001	 1.000822358032352e+000	 1.129560356396572e+001
 9.678434879177446e-001	 1.011572498009371e+000	 1.112057067176628e+001
 9.566144545968491e-001	 1.022197970612008e+000	 1.094467009831893e+001
 9.452708597311715e-001	 1.032696889550413e+000	 1.076848082029851e+001
 9.338148506921709e-001	 1.043067416192346e+000	 1.059256416085867e+001
 1.062933432640599e+000	 9.516000685008399e-001	 1.237750361051931e+001
 1.052365391389697e+000	 9.632742659907464e-001	 1.222679110938381e+001
 1.041666512512977e+000	 9.748339082933980e-001	 1.207135118907742e+001
 1.030838669660818e+000	 9.862768071390249e-001	 1.191181059802353e+001
 1.019883785048881e+000	 9.976008153781840e-001	 1.174878948643415e+001
 1.008803828322724e+000	 1.008803828322724e+000	 1.158289903054011e+001
 9.976008153781842e-001	 1.019883785048881e+000	 1.141473909477446e+001
 9.862768071390250e-001	 1.030838669660818e+000	 1.124489594416572e+001
 9.748339082933983e-001	 1.041666512512977e+000	 1.107394001913237e+001
 9.632742659907464e-001	 1.052365391389697e+000	 1.090242378472168e+001
 9.516000685008399e-001	 1.062933432640599e+000	 1.073087966611238e+001
 1.082799429224013e+000	 9.693852685256589e-001	 1.244693527735928e+001
 1.072033873561670e+000	 9.812776542482794e-001	 1.230179075995894e+001
 1.061135034946615e+000	 9.930533437718467e-001	 1.215178542891582e+001
 1.050104822047327e+000	 1.004710107928321e+000	 1.199753119645160e+001
 1.038945193005243e+000	 1.016245759438521e+000	 1.183963137395757e+001
 1.027658154278149e+000	 1.027658154278149e+000	 1.167867816333801e+001
 1.016245759438521e+000	 1.038945193005243e+000	 1.151525018926314e+001
 1.004710107928321e+000	 1.050104822047326e+000	 1.134991008562476e+001
 9.930533437718470e-001	 1.061135034946614e+000	 1.118320214943064e+001
 9.812776542482800e-001	 1.072033873561670e+000	 1.101565007523150e+001
 9.693852685256591e-001	 1.082799429224013e+000	 1.084775478294517e+001
 1.102665410908964e+000	 9.871704552127986e-001	 1.249991997274222e+001
 1.091702340983347e+000	 9.992810290045006e-001	 1.235980272672682e+001
 1.080603542779960e+000	 1.011272765586948e+000	 1.221467895711552e+001
 1.069370959985351e+000	 1.023143394893862e+000	 1.206514596453292e+001
 1.058006586666708e+000	 1.034890689516355e+000	 1.191179015089688e+001
 1.046512466094015e+000	 1.046512466094015e+000	 1.175517937202032e+001
 1.034890689516356e+000	 1.058006586666708e+000	 1.159588531820734e+001
 1.023143394893862e+000	 1.069370959985351e+000	 1.143443099333414e+001
 1.011272765586948e+000	 1.080603542779959e+000	 1.127133821329845e+001
 9.992810290045008e-001	 1.091702340983347e+000	 1.110710023153745e+001
 9.871704552127986e-001	 1.102665410908964e+000	 1.094218444952018e+001
 1.122531382661828e+000	 1.004955633008429e+000	 1.253465091628405e+001
 1.111370798571747e+000	 1.017284394760140e+000	 1.239911462241590e+001
 1.100072040880052e+000	 1.029492178293454e+000	 1.225841131670061e+001
 1.088637088291348e+000	 1.041576672643878e+000	 1.211311843638228e+001
 1.077067970798548e+000	 1.053535610272836e+000	 1.196380592756843e+001
 1.065366768483820e+000	 1.065366768483820e+000	 1.181102745832291e+001
 1.053535610272836e+000	 1.077067970798548e+000	 1.165531766440576e+001
 1.041576672643878e+000	 1.088637088291348e+000	 1.149718945781593e+001
 1.029492178293453e+000	 1.100072040880052e+000	 1.133713141370678e+001
 1.017284394760140e+000	 1.111370798571747e+000	 1.117560525111395e+001
 1.004955633008429e+000	 1.122531382661828e+000	 1.101304710573792e+001
 1.142397349448981e+000	 1.022740806358721e+000	 1.254933367682818e+001
 1.131039251243886e+000	 1.035287756015926e+000	 1.241803509381596e+001
 1.119540534113932e+000	 1.047711586446118e+000	 1.228136841253946e+001
 1.107903211781769e+000	 1.060009945786597e+000	 1.213990441219307e+001
 1.096129350166033e+000	 1.072180526369110e+000	 1.199419755351098e+001
 1.084221066161063e+000	 1.084221066161063e+000	 1.184478301453576e+001
 1.072180526369110e+000	 1.096129350166033e+000	 1.169217377679216e+001
 1.060009945786597e+000	 1.107903211781769e+000	 1.153685777874417e+001
 1.047711586446118e+000	 1.119540534113931e+000	 1.137929515340565e+001
 1.035287756015926e+000	 1.131039251243886e+000	 1.121991556685727e+001
 1.022740806358721e+000	 1.142397349448981e+000	 1.105911567418960e+001
 8.448883392750972e-001	 9.437368621553290e-001	 9.604574232505817e+000
 8.344219696599168e-001	 9.530034071557009e-001	 9.393071964976077e+000
 8.238578531239379e-001	 9.621505574741556e-001	 9.179510066819729e+000
 8.131980363093018e-001	 9.711767847515958e-001	 8.964393633401981e+000
 8.024445972974047e-001	 9.800806074060000e-001	 8.748210747415023e+000
 7.915996442727787e-001	 9.888605914263492e-001	 8.531431596708059e+000
 7.806653141634378e-001	 9.975153511208502e-001	 8.314507684536851e+000
 7.696437712595147e-001	 1.006043549818664e+000	 8.097871136121690e+000
 7.585372058120381e-001	 1.014443900524439e+000	 7.881934104909362e+000
 7.473478326137197e-001	 1.022715166525019e+000	 7.667088281416971e+000
 7.360778895636447e-001	 1.030856161947795e+000	 7.453704506994611e+000
 8.626737126955777e-001	 9.636030524234188e-001	 9.840112871047499e+000
 8.519870201296236e-001	 9.730646633932646e-001	 9.637444187074614e+000
 8.412005230153467e-001	 9.824043663561700e-001	 9.432249375355346e+000
 8.303163110778581e-001	 9.916206007802294e-001	 9.225018441331951e+000
 8.193365061433415e-001	 1.000711853895297e+000	 9.016224605860463e+000
 8.082632607748014e-001	 1.009676661503626e+000	 8.806323364906900e+000
 7.970987568837925e-001	 1.018513608743844e+000	 8.595751646973078e+000
 7.858452043199755e-001	 1.027221330807447e+000	 8.384927072653426e+000
 7.745048394403979e-001	 1.035798513607119e+000	 8.174247320194592e+000
 7.630799236604069e-001	 1.044243894396206e+000	 7.964089600371223e+000
 7.515727419881260e-001	 1.052556262338825e+000	 7.754810243405988e+000
 8.804590461013545e-001	 9.834691979947897e-001	 1.005697632744210e+001
 8.695520310804036e-001	 9.931258744953386e-001	 9.862000199922733e+000
 8.585431538882248e-001	 1.002658129669613e+000	 9.664101970472744e+000
 8.474345473328058e-001	 1.012064370812964e+000	 9.463775625239101e+000
 8.362283769850175e-001	 1.021343053967182e+000	 9.261497863526611e+000
 8.249268397862399e-001	 1.030492684747855e+000	 9.057727059856749e+000
 8.135321626314674e-001	 1.039511819124084e+000	 8.852902330850913e+000
 8.020466009297871e-001	 1.048399064149761e+000	 8.647442711970962e+000
 7.904724371441636e-001	 1.057153078645655e+000	 8.441746448579663e+000
 7.788119793124746e-001	 1.065772573831665e+000	 8.236190405173971e+000
 7.670675595517765e-001	 1.074256313908682e+000	 8.031129596011766e+000
 8.982443439385988e-001	 1.003335303835817e+000	 1.025496377775669e+001
 8.871170069033353e-001	 1.013187045477039e+000	 1.006664342408692e+001
 8.758857500780445e-001	 1.022911852477707e+000	 9.875057078154123e+000
 8.645527493535054e-001	 1.032508099960486e+000	 9.680720926517019e+000
 8.531202140451909e-001	 1.041974212779163e+000	 9.484132651846588e+000
 8.415903854727680e-001	 1.051308666362708e+000	 9.285770257755521e+000
 8.299655355145812e-001	 1.060509987510751e+000	 9.086091007313428e+000
 8.182479651390546e-001	 1.069576755139626e+000	 8.885530481038268e+000
 8.064400029149782e-001	 1.078507600978236e+000	 8.684501759532076e+000
 7.945440035026691e-001	 1.087301210213081e+000	 8.483394735267446e+000
 7.825623461280228e-001	 1.095956322081866e+000	 8.282575557338218e+000
 9.160296106534807e-001	 1.023201374912877e+000	 1.043368256118946e+001
 9.046819519894960e-001	 1.033248181353480e+000	 1.025107265482916e+001
 8.932283159202767e-001	 1.043165539843673e+000	 1.006488820993755e+001
 8.816709214193184e-001	 1.052951793333485e+000	 9.875685075081886e+000
 8.700120215466198e-001	 1.062605335488745e+000	 9.683998677010081e+000
 8.582539020000588e-001	 1.072124611551855e+000	 9.490342668431946e+000
 8.463988796412525e-001	 1.081508119153021e+000	 9.295207700099684e+000
 8.344493009978828e-001	 1.090754409071060e+000	 9.099060323864919e+000
 8.224075407444860e-001	 1.099862085943054e+000	 8.902342032707558e+000
 8.102760001637366e-001	 1.108829808922140e+000	 8.705468443012672e+000
 7.980571055902892e-001	 1.117656292282877e+000	 8.508828623607769e+000
 9.338148506921709e-001	 1.043067416192346e+000	 1.059256416085867e+001
 9.222468707299643e-001	 1.053309287139781e+000	 1.041479878742556e+001
 9.105708557503933e-001	 1.063419196830736e+000	 1.023317046169897e+001
 8.987890678096059e-001	 1.073395456042649e+000	 1.004829148346785e+001
 8.869038037120627e-001	 1.083236427253435e+000	 9.860751124335728e+000
 8.749173935337860e-001	 1.092940525518970e+000	 9.671114058276000e+000
 8.628321991195997e-001	 1.102506219300071e+000	 9.479918928839927e+000
 8.506506125563766e-001	 1.111932031238083e+000	 9.287677060712580e+000
 8.383750546243289e-001	 1.121216538878297e+000	 9.094871322570100e+000
 8.260079732284232e-001	 1.130358375340526e+000	 8.901955147401873e+000
 8.135518418120015e-001	 1.139356229936217e+000	 8.709351715624681e+000
 9.516000685008399e-001	 1.062933432640599e+000	 1.073087966611238e+001
 9.398117675158185e-001	 1.073370367851056e+000	 1.055716092366392e+001
 9.279133739038658e-001	 1.083672828502116e+000	 1.037929711122740e+001
 9.159071928037289e-001	 1.093839093198666e+000	 1.019797317613028e+001
 9.037955647642769e-001	 1.103867493230738e+000	 1.001384775389262e+001
 8.915808642396224e-001	 1.113756413467723e+000	 9.827551340893081e+000
 8.792654980577414e-001	 1.123504293201080e+000	 9.639684617767140e+000
 8.668519038646394e-001	 1.133109626934712e+000	 9.450816932390969e+000
 8.543425485461514e-001	 1.142570965122156e+000	 9.261484950495401e+000
 8.417399266294757e-001	 1.151886914849926e+000	 9.072191481088098e+000
 8.290465586665842e-001	 1.161056140466386e+000	 8.883404482942821e+000
 9.693852685256591e-001	 1.082799429224013e+000	 1.084775478294517e+001
 9.573766467381373e-001	 1.093431428502421e+000	 1.067734193899285e+001
 9.452558747161654e-001	 1.103926439921037e+000	 1.050249560464470e+001
 9.330253006810485e-001	 1.114282709912221e+000	 1.032398905217248e+001
 9.206873089260215e-001	 1.124498538578164e+000	 1.014256529123097e+001
 9.082443182832427e-001	 1.134572280601786e+000	 9.958934942360685e+000
 8.956987805637960e-001	 1.144502346105226e+000	 9.773774277017068e+000
 8.830531789727775e-001	 1.154287201454969e+000	 9.587723434284950e+000
 8.703100265015971e-001	 1.163925370012821e+000	 9.401384823551855e+000
 8.574718642996403e-001	 1.173415432832024e+000	 9.215321721465305e+000
 8.445412600274633e-001	 1.182756029297883e+000	 9.030057070491392e+000
 9.871704552127986e-001	 1.102665410908964e+000	 1.094218444952018e+001
 9.749415127879985e-001	 1.113492474108992e+000	 1.077438357834902e+001
 9.625983625227639e-001	 1.124180036150719e+000	 1.060184300875121e+001
 9.501433957209263e-001	 1.134726311294006e+000	 1.042543956556538e+001
 9.375790404200534e-001	 1.145129568453216e+000	 1.024601520212042e+001
 9.249077598303194e-001	 1.155388132124830e+000	 1.006437453256946e+001
 9.121320507458818e-001	 1.165500383261686e+000	 9.881282548249310e+000
 8.992544419308945e-001	 1.175464760092871e+000	 9.697462529681346e+000
 8.862774924823086e-001	 1.185279758888481e+000	 9.513594164863761e+000
 8.732037901716627e-001	 1.194943934668507e+000	 9.330311883466326e+000
 8.600359497680638e-001	 1.204455901855211e+000	 9.148203415432146e+000
 1.004955633008429e+000	 1.122531382661828e+000	 1.101304710573792e+001
 9.925063700564805e-001	 1.133553509685888e+000	 1.084720113907011e+001
 9.799408416591325e-001	 1.144433622254387e+000	 1.067628099547673e+001
 9.672614822027228e-001	 1.155169902454707e+000	 1.050128189503678e+001
 9.544707634691313e-001	 1.165760588013400e+000	 1.032315892761872e+001
 9.415711930465260e-001	 1.176203973240529e+000	 1.014282420119004e+001
 9.285653127121184e-001	 1.186498409919638e+000	 9.961144193346373e+000
 9.154556967890953e-001	 1.196642308142436e+000	 9.778937319291877e+000
 9.022449504799290e-001	 1.206634137087326e+000	 9.596971728451370e+000
 8.889357081782896e-001	 1.216472425741058e+000	 9.415963340756260e+000
 8.755306317618107e-001	 1.226155763562868e+000	 9.236574132434843e+000
 1.022740806358721e+000	 1.142397349448981e+000	 1.105911567418960e+001
 1.010071222934662e+000	 1.153614540248221e+000	 1.089459779118552e+001
 9.972833164607429e-001	 1.164687203295261e+000	 1.072463041541950e+001
 9.843795644057994e-001	 1.175613488505011e+000	 1.055034466577657e+001
 9.713624822960135e-001	 1.186391602416225e+000	 1.037282264518558e+001
 9.582346220975369e-001	 1.197019809152552e+000	 1.019309714588774e+001
 9.449985705706228e-001	 1.207496431328259e+000	 1.001214859399805e+001
 9.316569475974843e-001	 1.217819850897686e+000	 9.830902233180629e+000
 9.182124044861028e-001	 1.227988509947546e+000	 9.650225561308258e+000
 9.046676222522672e-001	 1.238000911431364e+000	 9.470926032733138e+000
 8.910253098821287e-001	 1.247855619845356e+000	 9.293749037471212e+000
 7.360778895636447e-001	 1.030856161947795e+000	 7.453704506994611e+000
 7.247296359725969e-001	 1.038865751977465e+000	 7.241421964695093e+000
 7.133053503815100e-001	 1.046742852430853e+000	 7.029739956331619e+000
 7.018073298531414e-001	 1.054486431034653e+000	 6.818780188248243e+000
 6.902378887419133e-001	 1.062095508079932e+000	 6.608633372713979e+000
 6.785993572081289e-001	 1.069569156736019e+000	 6.399359751033772e+000
 6.668940797275554e-001	 1.076906503314615e+000	 6.190989738124795e+000
 6.551244135982921e-001	 1.084106727484178e+000	 5.984161250582273e+000
 6.432927274468241e-001	 1.091169062434711e+000	 5.779609794447920e+000
 6.314013997351553e-001	 1.098092794993187e+000	 5.577429970292886e+000
 6.194528172708823e-001	 1.104877265689896e+000	 5.377722017954090e+000
 7.515727419881260e-001	 1.052556262338825e+000	 7.754810243405988e+000
 7.399856012941007e-001	 1.060734458731179e+000	 7.545805387144995e+000
 7.283208280838213e-001	 1.068777376567416e+000	 7.336457672558243e+000
 7.165807677744923e-001	 1.076683961844282e+000	 7.127062594553586e+000
 7.047677834389824e-001	 1.084453214229405e+000	 6.917882742776359e+000
 6.928842542887644e-001	 1.092084187381793e+000	 6.709148016063910e+000
 6.809325741521237e-001	 1.099575989221505e+000	 6.501055973496198e+000
 6.689151499495941e-001	 1.106927782148541e+000	 6.293772319997474e+000
 6.568344001685663e-001	 1.114138783211110e+000	 6.087890342635992e+000
 6.446927533389905e-001	 1.121208264223476e+000	 5.884501442739770e+000
 6.324926465120910e-001	 1.128135551833708e+000	 5.683893645578666e+000
 7.670675595517765e-001	 1.074256313908682e+000	 8.031129596011766e+000
 7.552415322922723e-001	 1.082603116284461e+000	 7.825716361607189e+000
 7.433362720038976e-001	 1.090811851130529e+000	 7.619187405739906e+000
 7.313541724581945e-001	 1.098881442713736e+000	 7.411981428088136e+000
 7.192976454463670e-001	 1.106810870078322e+000	 7.204501981931849e+000
 7.071691192309461e-001	 1.114599167373023e+000	 6.997117422197576e+000
 6.949710369926215e-001	 1.122245424126297e+000	 6.790161006048448e+000
 6.827058552742503e-001	 1.129748785469733e+000	 6.583931144517931e+000
 6.703760424240131e-001	 1.137108452309784e+000	 6.378691802915328e+000
 6.579840770396941e-001	 1.144323681448046e+000	 6.175027500297288e+000
 6.455324464160297e-001	 1.151393785650396e+000	 5.974258114267393e+000
 7.825623461280228e-001	 1.095956322081866e+000	 8.282575557338218e+000
 7.704974327808040e-001	 1.104471730103942e+000	 8.080960727109048e+000
 7.583516858952984e-001	 1.112846281628262e+000	 7.877622089685606e+000
 7.461275475972879e-001	 1.121078879191826e+000	 7.673112689377235e+000
 7.338274783962137e-001	 1.129168481215533e+000	 7.467947837954098e+000
 7.214539556055638e-001	 1.137114102337886e+000	 7.262604836239522e+000
 7.090094717583356e-001	 1.144914813695786e+000	 7.057522865093933e+000
 6.964965330196069e-001	 1.152569743152447e+000	 6.853103044774811e+000
 6.839176575982484e-001	 1.160078075472602e+000	 6.649708660793815e+000
 6.712753741597768e-001	 1.167439052445210e+000	 6.447665553536524e+000
 6.585722202423398e-001	 1.174651972953994e+000	 6.247567408103857e+000
 7.980571055902892e-001	 1.117656292282877e+000	 8.508828623607769e+000
 7.857533065733877e-001	 1.126340305656253e+000	 8.311119247980670e+000
 7.733670735115834e-001	 1.134880673568682e+000	 8.111237949484380e+000
 7.609008968848126e-001	 1.143276276827363e+000	 7.909824862781789e+000
 7.483572859206674e-001	 1.151526053229886e+000	 7.707479443199027e+000
 7.357387669835084e-001	 1.159628997904562e+000	 7.504759999604739e+000
 7.230478819585519e-001	 1.167584163596768e+000	 7.302183414508233e+000
 7.102871866330098e-001	 1.175390660901376e+000	 7.100225050795593e+000
 6.974592490763556e-001	 1.183047658441432e+000	 6.899318843558373e+000
 6.845666480217502e-001	 1.190554382993286e+000	 6.699857574515233e+000
 6.716119712506630e-001	 1.197910119558532e+000	 6.502193325591374e+000
 8.135518418120015e-001	 1.139356229936217e+000	 8.709351715624681e+000
 8.010091574837156e-001	 1.148208848408022e+000	 8.515561344441210e+000
 7.883824386063120e-001	 1.156915032459861e+000	 8.319306961053096e+000
 7.756742240138079e-001	 1.165473641169156e+000	 8.121290037292477e+000
 7.628870716518744e-001	 1.173883591710230e+000	 7.922168041970068e+000
 7.500235569356704e-001	 1.182143859701229e+000	 7.722553820621338e+000
 7.370862711025564e-001	 1.190253479496036e+000	 7.523015181366963e+000
 7.240778195618058e-001	 1.198211544421213e+000	 7.324074686692516e+000
 7.110008202434185e-001	 1.206017206958142e+000	 7.126209649882846e+000
 6.978579019481243e-001	 1.213669678870590e+000	 6.929852333789302e+000
 6.846517027006408e-001	 1.221168231278044e+000	 6.735390348565707e+000
 8.290465586665842e-001	 1.161056140466386e+000	 8.883404482942821e+000
 8.162649893254802e-001	 1.170077363825882e+000	 8.693458313403271e+000
 8.033977849330436e-001	 1.178949363809866e+000	 8.500908916272143e+000
 7.904475326773145e-001	 1.187670977766017e+000	 8.306494755322559e+000
 7.774168392219808e-001	 1.196241102245413e+000	 8.110906573939818e+000
 7.643083290329402e-001	 1.204658693356066e+000	 7.914786655202437e+000
 7.511246426996361e-001	 1.212922767060388e+000	 7.718728308126327e+000
 7.378684352533408e-001	 1.221032399416653e+000	 7.523275580222101e+000
 7.245423744845199e-001	 1.228986726764600e+000	 7.328923195335966e+000
 7.111491392614106e-001	 1.236784945855437e+000	 7.136116714575870e+000
 6.976914178519144e-001	 1.244426313926563e+000	 6.945252916971427e+000
 8.445412600274633e-001	 1.182756029297883e+000	 9.030057070491392e+000
 8.315208059123729e-001	 1.191945857376462e+000	 8.843796104934256e+000
 8.184131162453380e-001	 1.200983673126766e+000	 8.654943144326293e+000
 8.052208265683716e-001	 1.209868292166754e+000	 8.464250624390154e+000
 7.919465922631327e-001	 1.218598590424284e+000	 8.272419132068528e+000
 7.785930868462083e-001	 1.227173504497251e+000	 8.080096577328838e+000
 7.651630002590772e-001	 1.235592031956618e+000	 7.887877612422082e+000
 7.516590371549621e-001	 1.243853231592387e+000	 7.696303299055762e+000
 7.380839151847441e-001	 1.251956223602676e+000	 7.505861022646728e+000
 7.244403632841193e-001	 1.259900189726144e+000	 7.316984651531687e+000
 7.107311199641255e-001	 1.267684373318120e+000	 7.130054937740883e+000
 8.600359497680638e-001	 1.204455901855211e+000	 9.148203415432146e+000
 8.467766110580869e-001	 1.213814334526392e+000	 8.965387710388884e+000
 8.334284362967545e-001	 1.223017965918630e+000	 8.780139932579653e+000
 8.199941093800194e-001	 1.232065589920179e+000	 8.593204721560658e+000
 8.064763344074760e-001	 1.240956061835691e+000	 8.405270310809287e+000
 7.928778339463648e-001	 1.249688298752962e+000	 8.216967640585565e+000
 7.792013472901654e-001	 1.258261279851519e+000	 8.028869740869528e+000
 7.654496287140145e-001	 1.266674046653108e+000	 7.841491385119010e+000
 7.516254457291746e-001	 1.274925703214235e+000	 7.655289014173288e+000
 7.377315773387621e-001	 1.283015416261027e+000	 7.470660928214200e+000
 7.237708122969158e-001	 1.290942415266750e+000	 7.287947743300084e+000
 8.755306317618107e-001	 1.226155763562868e+000	 9.236574132434843e+000
 8.620324085763138e-001	 1.235682800742303e+000	 9.056885210306406e+000
 8.484437488408523e-001	 1.245052247693527e+000	 8.875071684188917e+000
 8.347673848052972e-001	 1.254262876575102e+000	 8.691849816299108e+000
 8.210060692871560e-001	 1.263313522068484e+000	 8.507874458163862e+000
 8.071625739043004e-001	 1.272203081751379e+000	 8.323738131827737e+000
 7.932396873021876e-001	 1.280930516411889e+000	 8.139970405181478e+000
 7.792402133778453e-001	 1.289494850303511e+000	 7.957037562420695e+000
 7.651669695028938e-001	 1.297895171341149e+000	 7.775342569090587e+000
 7.510227847478501e-001	 1.306130631238402e+000	 7.595225329628436e+000
 7.368104981099265e-001	 1.314200445586484e+000	 7.416963233782035e+000
 8.910253098821287e-001	 1.247855619845356e+000	 9.293749037471212e+000
 8.772882022807453e-001	 1.257551261490825e+000	 9.116791523483805e+000
 8.634590576311916e-001	 1.267086523959525e+000	 8.938163844492024e+000
 8.495406565372461e-001	 1.276460157680332e+000	 8.758534433823680e+000
 8.355358005343189e-001	 1.285670976711510e+000	 8.578504843274576e+000
 8.214473102909058e-001	 1.294717859120680e+000	 8.398608817911100e+000
 8.072780238044298e-001	 1.303599747304522e+000	 8.219311690556530e+000
 7.930307945938007e-001	 1.312315648248289e+000	 8.041010097220287e+000
 7.787084898909866e-001	 1.320864633725284e+000	 7.864032013037329e+000
 7.643139888338930e-001	 1.329245840436585e+000	 7.688637106596159e+000
 7.498501806627992e-001	 1.337458470091355e+000	 7.514764935597412e+000
 6.194528172708823e-001	 1.104877265689896e+000	 5.377722017954090e+000
 6.074511782547066e-001	 1.111520882801578e+000	 5.180478126974927e+000
 5.953970932452811e-001	 1.118024123343679e+000	 4.985737813278652e+000
 5.832929647635355e-001	 1.124386489988285e+000	 4.793771563602154e+000
 5.711411977547046e-001	 1.130607538866383e+000	 4.604856520797209e+000
 5.589441981408800e-001	 1.136686879394964e+000	 4.419277249189255e+000
 5.467043713871070e-001	 1.142624174058487e+000	 4.237326304101579e+000
 5.344241210826420e-001	 1.148419138145508e+000	 4.059304603438551e+000
 5.221058475389493e-001	 1.154071539441348e+000	 3.885521600797090e+000
 5.097519464059575e-001	 1.159581197877748e+000	 3.716295261119692e+000
 4.973648073080526e-001	 1.164947985140473e+000	 3.551951841404557e+000
 6.324926465120910e-001	 1.128135551833708e+000	 5.683893645578670e+000
 6.202383662630421e-001	 1.134919020811867e+000	 5.486084089392069e+000
 6.079305360031093e-001	 1.141559158214848e+000	 5.291007695081780e+000
 5.955716088276521e-001	 1.148055456245717e+000	 5.098908608950819e+000
 5.831640403073666e-001	 1.154407461691780e+000	 4.910039191205648e+000
 5.707102870103699e-001	 1.160614775748050e+000	 4.724660992299517e+000
 5.582128050381109e-001	 1.166677053794103e+000	 4.543045504717577e+000
 5.456740485767638e-001	 1.172594005125170e+000	 4.365474687620386e+000
 5.330964684657109e-001	 1.178365392638336e+000	 4.192241263552274e+000
 5.204825107846706e-001	 1.183991032474813e+000	 4.023648788174310e+000
 5.078346154609772e-001	 1.189470793619292e+000	 3.860011495687720e+000
 6.455324464160297e-001	 1.151393785650396e+000	 5.974258114267393e+000
 6.330255255024672e-001	 1.158317106180301e+000	 5.776425684674686e+000
 6.204639505628591e-001	 1.165094140136081e+000	 5.581327398704173e+000
 6.078502252668818e-001	 1.171724369251810e+000	 5.389189158207589e+000
 5.951868558105826e-001	 1.178207330971136e+000	 5.200247722919803e+000
 5.824763494079923e-001	 1.184542618267112e+000	 5.014751889976333e+000
 5.697212127968526e-001	 1.190729879414452e+000	 4.832963416042544e+000
 5.569239507601435e-001	 1.196768817715077e+000	 4.655157679024507e+000
 5.440870646650536e-001	 1.202659191177848e+000	 4.481624078357180e+000
 5.312130510209814e-001	 1.208400812153459e+000	 4.312666174849710e+000
 5.183044000580988e-001	 1.213993546925534e+000	 4.148601573001059e+000
 6.585722202423398e-001	 1.174651972953994e+000	 6.247567408103856e+000
 6.458126591694801e-001	 1.181715144755887e+000	 6.050271289676171e+000
 6.329973400576118e-001	 1.188629074990625e+000	 5.855507137090726e+000
 6.201288171506310e-001	 1.195393234923309e+000	 5.663489398514442e+000
 6.072096472698340e-001	 1.202007152653948e+000	 5.474447135566573e+000
 5.942423882750675e-001	 1.208470412933654e+000	 5.288625401122373e+000
 5.812295975402645e-001	 1.214782656932295e+000	 5.106286322521083e+000
 5.681738304451127e-001	 1.220943581958496e+000	 4.927709886724895e+000
 5.550776388845079e-001	 1.226952941132905e+000	 4.753194426261008e+000
 5.419435697974281e-001	 1.232810543015708e+000	 4.583056807021819e+000
 5.287741637167839e-001	 1.238516251189468e+000	 4.417632321176534e+000
 6.716119712506630e-001	 1.197910119558532e+000	 6.502193325591374e+000
 6.585997704605784e-001	 1.205113142387635e+000	 6.306139436729051e+000
 6.455307076204505e-001	 1.212163968661728e+000	 6.112131921538730e+000
 6.324073875483049e-001	 1.219062059176956e+000	 5.920482374608526e+000
 6.192324176906022e-001	 1.225806932689712e+000	 5.731418808651689e+000
 6.060084065529138e-001	 1.232398165729178e+000	 5.545190320969640e+000
 5.927379621452797e-001	 1.238835392360393e+000	 5.362068331139382e+000
 5.794236904440044e-001	 1.245118303898696e+000	 5.182347478372792e+000
 5.660681938716041e-001	 1.251246648576530e+000	 5.006346177263383e+000
 5.526740697965488e-001	 1.257220231163583e+000	 4.834406833158003e+000
 5.392439090544005e-001	 1.263038912541362e+000	 4.666895720846370e+000
 6.846517027006408e-001	 1.221168231278044e+000	 6.735390348565707e+000
 6.713868625722597e-001	 1.228511104924556e+000	 6.542189160573383e+000
 6.580640563844560e-001	 1.235698827032637e+000	 6.349543309612971e+000
 6.446859395293098e-001	 1.242730847929497e+000	 6.158619746798421e+000
 6.312551700783680e-001	 1.249606677027924e+000	 5.969742443012265e+000
 6.177744071828525e-001	 1.256325882635189e+000	 5.783171132251578e+000
 6.042463094888306e-001	 1.262888091711506e+000	 5.599194291326077e+000
 5.906735335691511e-001	 1.269292989578943e+000	 5.418130140552094e+000
 5.770587323738726e-001	 1.275540319581745e+000	 5.240327255520312e+000
 5.634045537008813e-001	 1.281629882699106e+000	 5.066164791409547e+000
 5.497136386883156e-001	 1.287561537111484e+000	 4.896052324071340e+000
 6.976914178519144e-001	 1.244426313926563e+000	 6.945252916971427e+000
 6.841739387010217e-001	 1.251909038215656e+000	 6.755539556219183e+000
 6.705973894827110e-001	 1.259233655986597e+000	 6.565760040693343e+000
 6.569644761630513e-001	 1.266399607097675e+000	 6.376114495412649e+000
 6.432779074386126e-001	 1.273406391618082e+000	 6.187779015073097e+000
 6.295403931062016e-001	 1.280253569633189e+000	 6.001091372801199e+000
 6.157546424478501e-001	 1.286940760998396e+000	 5.816363732893928e+000
 6.019233626328847e-001	 1.293467645042504e+000	 5.633945737494669e+000
 5.880492571388435e-001	 1.299833960221570e+000	 5.454225162667764e+000
 5.741350241929639e-001	 1.306039503724299e+000	 5.277628134759358e+000
 5.601833552358968e-001	 1.312084131030102e+000	 5.104618911900040e+000
 7.107311199641255e-001	 1.267684373318120e+000	 7.130054937740881e+000
 6.969610020433621e-001	 1.275306948109945e+000	 6.944122892653949e+000
 6.831307100482968e-001	 1.282768461406859e+000	 6.757819004520471e+000
 6.692430005189352e-001	 1.290068342598234e+000	 6.570898458772977e+000
 6.553006327768169e-001	 1.297206082409684e+000	 6.383654596152042e+000
 6.413063672642810e-001	 1.304181232704681e+000	 6.197257888801893e+000
 6.272629638992708e-001	 1.310993406233823e+000	 6.012075691054060e+000
 6.131731804475384e-001	 1.317642276332649e+000	 5.828495839731305e+000
 5.990397709140469e-001	 1.324127576569029e+000	 5.646953336019657e+000
 5.848654839553346e-001	 1.330449100341185e+000	 5.467930538709648e+000
 5.706530613145108e-001	 1.336606700427484e+000	 5.292040239656087e+000
 7.237708122969158e-001	 1.290942415266750e+000	 7.287947743300084e+000
 7.097480557957788e-001	 1.298704840456433e+000	 7.106054196411239e+000
 6.956640212142951e-001	 1.306303249176666e+000	 6.923486895835179e+000
 6.815215156663675e-001	 1.313737060347918e+000	 6.739987156502967e+000
 6.673233490984624e-001	 1.321005755352224e+000	 6.555243366444689e+000
 6.530723325984107e-001	 1.328108877831169e+000	 6.369745861758364e+000
 6.387712767200260e-001	 1.335046033430547e+000	 6.184608571692791e+000
 6.244229898254435e-001	 1.341816889492642e+000	 6.000281385167035e+000
 6.100302764470138e-001	 1.348421174697142e+000	 5.817675113608263e+000
 5.955959356705315e-001	 1.354858678651787e+000	 5.637827715412866e+000
 5.811227595415253e-001	 1.361129251433898e+000	 5.461795495194639e+000
 7.368104981099265e-001	 1.314200445586484e+000	 7.416963233782036e+000
 7.225351031547691e-001	 1.322102721104127e+000	 7.239334043020145e+000
 7.081973261137888e-001	 1.329838025179267e+000	 7.060757305780366e+000
 6.938000246747534e-001	 1.337405766263471e+000	 6.880816484618970e+000
 6.793460594090298e-001	 1.344805416395202e+000	 6.698690593863041e+000
 6.648382920499097e-001	 1.352036510994155e+000	 6.514502033118390e+000
 6.502795837870475e-001	 1.359098648601329e+000	 6.329654740192927e+000
 6.356727935789335e-001	 1.365991490565752e+000	 6.145747812569763e+000
 6.210207764852739e-001	 1.372714760678932e+000	 5.963885233656113e+000
 6.063263820210925e-001	 1.379268244758125e+000	 5.785198682315796e+000
 5.915924525343078e-001	 1.385651790179614e+000	 5.610837486948255e+000
 7.498501806627992e-001	 1.337458470091355e+000	 7.514764935597412e+000
 7.353221473168310e-001	 1.345500595902037e+000	 7.339884763195746e+000
 7.207306278798588e-001	 1.353372795297909e+000	 7.162779405919520e+000
 7.060785306134999e-001	 1.361074466261638e+000	 6.983841956960924e+000
 6.913687667140007e-001	 1.368605071488112e+000	 6.803408297640058e+000
 6.766042485600977e-001	 1.375964138175143e+000	 6.621757090936077e+000
 6.617878879772685e-001	 1.383151257758930e+000	 6.439208218434802e+000
 6.469225945203403e-001	 1.390166085595247e+000	 6.257535417199013e+000
 6.320112737763574e-001	 1.397008340587420e+000	 6.078274216731053e+000
 6.170568256895559e-001	 1.403677804762224e+000	 5.902661596392051e+000
 6.020621429102250e-001	 1.410174322794896e+000	 5.731950820723872e+000
 4.973648073080526e-001	 1.164947985140473e+000	 3.551951841404557e+000
 4.849449475210769e-001	 1.170172597316046e+000	 3.391766689452190e+000
 4.724965980002162e-001	 1.175254193189512e+000	 3.234901629596855e+000
 4.600221239627189e-001	 1.180192797882715e+000	 3.081450363171292e+000
 4.475238793346630e-001	 1.184988486332486e+000	 2.931512352983579e+000
 4.350042055046848e-001	 1.189641382703130e+000	 2.785192296728879e+000
 4.224654301051317e-001	 1.194151659763825e+000	 2.642599436636934e+000
 4.099098658216921e-001	 1.198519538232249e+000	 2.503846715402216e+000
 3.973398092324932e-001	 1.202745286085772e+000	 2.369049789337656e+000
 3.847575396775875e-001	 1.206829217841571e+000	 2.238325910482653e+000
 3.721653181596841e-001	 1.210771693807061e+000	 2.111792690072358e+000
 5.078346154609772e-001	 1.189470793619292e+000	 3.860011495687721e+000
 4.951533106594304e-001	 1.194805386811314e+000	 3.700487353047386e+000
 4.824429163991849e-001	 1.199993953127882e+000	 3.544128383470230e+000
 4.697058476866244e-001	 1.205036518219666e+000	 3.391030867782968e+000
 4.569445079992765e-001	 1.209933158600961e+000	 3.241298271547245e+000
 4.441612880133068e-001	 1.214684001049801e+000	 3.095040667112987e+000
 4.313585643590144e-001	 1.219289221972249e+000	 2.952373968436338e+000
 4.185386984054041e-001	 1.223749046732216e+000	 2.813418989970541e+000
 4.057040350748474e-001	 1.228063748948146e+000	 2.678300341957388e+000
 3.928569016887681e-001	 1.232233649757978e+000	 2.547145175341197e+000
 3.799996068452374e-001	 1.236259117053800e+000	 2.420081790301809e+000
 5.183044000580988e-001	 1.213993546925534e+000	 4.148601573001059e+000
 5.053616508301387e-001	 1.219438120886603e+000	 3.988463170511159e+000
 4.923892124200254e-001	 1.224733657405657e+000	 3.831179490767978e+000
 4.793895496231639e-001	 1.229880182662189e+000	 3.676856644248371e+000
 4.663651154684182e-001	 1.234877774747946e+000	 3.525610256886213e+000
 4.533183499193711e-001	 1.239726563054677e+000	 3.377564813921437e+000
 4.402516786041620e-001	 1.244426727625320e+000	 3.232852789687629e+000
 4.271675115750021e-001	 1.248978498470000e+000	 3.091613576098276e+000
 4.140682420983953e-001	 1.253382154848215e+000	 2.953992223742310e+000
 4.009562454770295e-001	 1.257638024518648e+000	 2.820138010517287e+000
 3.878338779042280e-001	 1.261746482958037e+000	 2.690202853605640e+000
 5.287741637167839e-001	 1.238516251189468e+000	 4.417632321176532e+000
 5.155699705852225e-001	 1.244070805699674e+000	 4.255819493870356e+000
 5.023354885492571e-001	 1.249473312207339e+000	 4.096408451200451e+000
 4.890732321932150e-001	 1.254723797420769e+000	 3.939522084026894e+000
 4.757857040971968e-001	 1.259822341009157e+000	 3.785296074590383e+000
 4.624753935121034e-001	 1.264769074977957e+000	 3.633878134900990e+000
 4.491447750638163e-001	 1.269564183006969e+000	 3.485427000649175e+000
 4.357963074876537e-001	 1.274207899752515e+000	 3.340111195047141e+000
 4.224324323941561e-001	 1.278700510115135e+000	 3.198107578306704e+000
 4.090555730671781e-001	 1.283042348474234e+000	 3.059599699612051e+000
 3.956681332952000e-001	 1.287233797891179e+000	 2.924775969436194e+000
 5.392439090544005e-001	 1.263038912541362e+000	 4.666895720846368e+000
 5.257782724767011e-001	 1.268703447408291e+000	 4.502566180151135e+000
 5.122817472733994e-001	 1.274212923717429e+000	 4.340053918173569e+000
 4.987568978176556e-001	 1.279567368705894e+000	 4.179505272672973e+000
 4.852062762407216e-001	 1.284766863620316e+000	 4.021083636018319e+000
 4.716324210807298e-001	 1.289811543079843e+000	 3.864968560373199e+000
 4.580378559612178e-001	 1.294701594401127e+000	 3.711354584145904e+000
 4.444250883005269e-001	 1.299437256886679e+000	 3.560449795966240e+000
 4.307966080531486e-001	 1.304018821078061e+000	 3.412474153917295e+000
 4.171548864840208e-001	 1.308446627975386e+000	 3.267657579044097e+000
 4.035023749766975e-001	 1.312721068224635e+000	 3.126237843284787e+000
 5.497136386883156e-001	 1.287561537111484e+000	 4.896052324071343e+000
 5.359865590565952e-001	 1.293336052170214e+000	 4.728585779474308e+000
 5.222279910789712e-001	 1.298952498120429e+000	 4.562229365408591e+000
 5.084405489173638e-001	 1.304410902728051e+000	 4.397159261461759e+000
 4.946268342541015e-001	 1.309711348817138e+000	 4.233573998808763e+000
 4.807894349144761e-001	 1.314853973620533e+000	 4.071693403888320e+000
 4.669309235196083e-001	 1.319838968091726e+000	 3.911757224978627e+000
 4.530538561707894e-001	 1.324666576179405e+000	 3.754023460009205e+000
 4.391607711663919e-001	 1.329337094066145e+000	 3.598766405592979e+000
 4.252541877523642e-001	 1.333850869372755e+000	 3.446282916905868e+000
 4.113366049072642e-001	 1.338208300329813e+000	 3.297558452332618e+000
 5.601833552358968e-001	 1.312084131030102e+000	 5.104618911900040e+000
 5.461948328769252e-001	 1.317968626143206e+000	 4.933622445156184e+000
 5.321742224524917e-001	 1.323692041600839e+000	 4.762913361775873e+000
 5.181241879132171e-001	 1.329254405697723e+000	 4.592703816819148e+000
 5.040473804924458e-001	 1.334655802835344e+000	 4.423266472018094e+000
 4.899464373025680e-001	 1.339896372860226e+000	 4.255610012885871e+000
 4.758239799622284e-001	 1.344976310362696e+000	 4.090492256550691e+000
 4.616826132556098e-001	 1.349895863937609e+000	 3.928396119635324e+000
 4.475249238249047e-001	 1.354655335408544e+000	 3.769777682245875e+000
 4.333534788970153e-001	 1.359255079016994e+000	 3.615063644176014e+000
 4.191708250454448e-001	 1.363695500578122e+000	 3.464649209638925e+000
 5.706530613145108e-001	 1.336606700427484e+000	 5.292040239656087e+000
 5.564030964897108e-001	 1.342601175485032e+000	 5.118103579255338e+000
 5.421204438804809e-001	 1.348431560343163e+000	 4.944600128690965e+000
 5.278078172260936e-001	 1.354097883825400e+000	 4.772104737904034e+000
 5.134679173108633e-001	 1.359600231910652e+000	 4.601177590385960e+000
 4.991034305342315e-001	 1.364938747059123e+000	 4.432359587418880e+000
 4.847170275123198e-001	 1.370113627497968e+000	 4.266168269861852e+000
 4.703113617121555e-001	 1.375125126468206e+000	 4.103094272107330e+000
 4.558890681197059e-001	 1.379973551434411e+000	 3.943598298295796e+000
 4.414527619427808e-001	 1.384659263258752e+000	 3.788108606643681e+000
 4.270050373497830e-001	 1.389182675340970e+000	 3.637018983838155e+000
 5.811227595415253e-001	 1.361129251433898e+000	 5.461795495194640e+000
 5.666113524469721e-001	 1.367233706353450e+000	 5.288022206810917e+000
 5.520666578494572e-001	 1.373171060531899e+000	 5.114697689704453e+000
 5.374914392768714e-001	 1.378941343321566e+000	 4.942417641067523e+000
 5.228884470644631e-001	 1.384544642278781e+000	 4.771759994601648e+000
 5.082604168986923e-001	 1.389981102477423e+000	 4.603280043244073e+000
 4.936100683931233e-001	 1.395250925781474e+000	 4.437506180153008e+000
 4.789401036975943e-001	 1.400354370078112e+000	 4.274936250429124e+000
 4.642532061418146e-001	 1.405291748472902e+000	 4.116034500946272e+000
 4.495520389144674e-001	 1.410063428448682e+000	 3.961229110905677e+000
 4.348392437788227e-001	 1.414669830989763e+000	 3.810910281347747e+000
 5.915924525343078e-001	 1.385651790179614e+000	 5.610837486948257e+000
 5.768196033007295e-001	 1.391866224906227e+000	 5.439023971174139e+000
 5.620128668459404e-001	 1.397910548351552e+000	 5.267681420945761e+000
 5.471750564864280e-001	 1.403784790396708e+000	 5.097428101091833e+000
 5.323089721083543e-001	 1.409489040175447e+000	 4.928860715564301e+000
 5.174173986851760e-001	 1.415023445375325e+000	 4.762549254348758e+000
 5.025031048278800e-001	 1.420388211497145e+000	 4.599032548858830e+000
 4.875688413690947e-001	 1.425583601074242e+000	 4.438814525854678e+000
 4.726173399822494e-001	 1.430609932853170e+000	 4.282361144197936e+000
 4.576513118368819e-001	 1.435467580937434e+000	 4.130097993419010e+000
 4.426734462911082e-001	 1.440156973895912e+000	 3.982408528165181e+000
 6.020621429102250e-001	 1.410174322794896e+000	 5.731950820723871e+000
 5.870278516030029e-001	 1.416498737301121e+000	 5.564125646517834e+000
 5.719590733564497e-001	 1.422650029986620e+000	 5.396819689278417e+000
 5.568586712756412e-001	 1.428628231261313e+000	 5.230675465797379e+000
 5.417294947976461e-001	 1.434433431836372e+000	 5.066309290911372e+000
 5.265743781829092e-001	 1.440065782013029e+000	 4.904305834907051e+000
 5.113961390398314e-001	 1.445525490928912e+000	 4.745213489999645e+000
 4.961975768838243e-001	 1.450812825763512e+000	 4.589540533171403e+000
 4.809814717320298e-001	 1.455928110904371e+000	 4.437752066242654e+000
 4.657505827348308e-001	 1.460871727075660e+000	 4.290267708079697e+000
 4.505076468451836e-001	 1.465644110430823e+000	 4.147460008357104e+000
 3.721653181596841e-001	 1.210771693807061e+000	 2.111792690072358e+000
 3.595653860970648e-001	 1.214573118999657e+000	 1.989943101643133e+000
 3.469599637677736e-001	 1.218233941437156e+000	 1.873008136139819e+000
 3.343512498799868e-001	 1.221754652219686e+000	 1.760712913774704e+000
 3.217414207892365e-001	 1.225135784980602e+000	 1.652783137796976e+000
 3.091326295656697e-001	 1.228377915011984e+000	 1.548944080333482e+000
 2.965270050962135e-001	 1.231481658369039e+000	 1.448919506601609e+000
 2.839266512220445e-001	 1.234447670954891e+000	 1.352430550994075e+000
 2.713336459116925e-001	 1.237276647587193e+000	 1.259194558433465e+000
 2.587500404700435e-001	 1.239969321048035e+000	 1.168923904202893e+000
 2.461778587834510e-001	 1.242526461118597e+000	 1.081324805173057e+000
 3.799996068452374e-001	 1.236259117053800e+000	 2.420081790301809e+000
 3.671344391456395e-001	 1.240140564378870e+000	 2.297642194756495e+000
 3.542636656061269e-001	 1.243878449182008e+000	 2.180067477382805e+000
 3.413895312189305e-001	 1.247473272901273e+000	 2.067051896828048e+000
 3.285142581531010e-001	 1.250925580403296e+000	 1.958291994909855e+000
 3.156400448021338e-001	 1.254235959090374e+000	 1.853485425000240e+000
 3.027690648672340e-001	 1.257405037986018e+000	 1.752329707321748e+000
 2.899034664766291e-001	 1.260433486800480e+000	 1.654520926501580e+000
 2.770453713412650e-001	 1.263322014977708e+000	 1.559752386623579e+000
 2.641968739471597e-001	 1.266071370725263e+000	 1.467713238809833e+000
 2.513600407846233e-001	 1.268682340028648e+000	 1.378087096050888e+000
 3.878338779042280e-001	 1.261746482958037e+000	 2.690202853605640e+000
 3.747034751643716e-001	 1.265707952235458e+000	 2.564791162261318e+000
 3.615673510116165e-001	 1.269522899230741e+000	 2.444191849645637e+000
 3.484277967221452e-001	 1.273191835719854e+000	 2.328088309306171e+000
 3.352870802784265e-001	 1.276715317802694e+000	 2.216167920717097e+000
 3.221474453972031e-001	 1.280093944991751e+000	 2.108120673301763e+000
 3.090111105938585e-001	 1.283328359278823e+000	 2.003637705572789e+000
 2.958802682835726e-001	 1.286419244181258e+000	 1.902409776803720e+000
 2.827570839196108e-001	 1.289367323769278e+000	 1.804125688533841e+000
 2.696436951690280e-001	 1.292173361675890e+000	 1.708470672977807e+000
 2.565422111259951e-001	 1.294838160090887e+000	 1.615124765065747e+000
 3.956681332952000e-001	 1.287233797891179e+000	 2.924775969436194e+000
 3.822724960455041e-001	 1.291275288960849e+000	 2.794335628535393e+000
 3.688710218101570e-001	 1.295167297994062e+000	 2.668642039404973e+000
 3.554660481492022e-001	 1.298910347104691e+000	 2.547387486256658e+000
 3.420598888584346e-001	 1.302505003625874e+000	 2.430269990522263e+000
 3.286548329777552e-001	 1.305951879180282e+000	 2.316991681296141e+000
 3.152531438366367e-001	 1.309251628727974e+000	 2.207257068640716e+000
 3.018570581371238e-001	 1.312404949593379e+000	 2.100771239476887e+000
 2.884687850747155e-001	 1.315412580472970e+000	 1.997237995656914e+000
 2.750905054974158e-001	 1.318275300425168e+000	 1.896357953563012e+000
 2.617243711031738e-001	 1.320993927844034e+000	 1.797826624190847e+000
 4.035023749766975e-001	 1.312721068224635e+000	 3.126237843284787e+000
 3.898415036812796e-001	 1.316842580946469e+000	 2.989021407190593e+000
 3.761746798276636e-001	 1.320811651882687e+000	 2.856462518879330e+000
 3.625042872596724e-001	 1.324628813485048e+000	 2.728281943392173e+000
 3.488326855863472e-001	 1.328294644319918e+000	 2.604208030102197e+000
 3.351622091706679e-001	 1.331809768120134e+000	 2.483974777867234e+000
 3.214951661561190e-001	 1.335174852813998e+000	 2.367454037630998e+000
 3.078338375315322e-001	 1.338390609533002e+000	 2.254992920285210e+000
 2.941804762345628e-001	 1.341457791599845e+000	 2.146341076082948e+000
 2.805373062940905e-001	 1.344377193498346e+000	 2.041144479014093e+000
 2.669065220117669e-001	 1.347149649826810e+000	 1.939028918757549e+000
 4.113366049072642e-001	 1.338208300329813e+000	 3.297558452332618e+000
 3.974104999639416e-001	 1.342409834583748e+000	 3.153977493817831e+000
 3.834783268900517e-001	 1.346455967307327e+000	 3.016109501486742e+000
 3.695425158131268e-001	 1.350347241290185e+000	 2.883703905664489e+000
 3.556054721553859e-001	 1.354084246331905e+000	 2.756485429497808e+000
 3.416695756028194e-001	 1.357667618275472e+000	 2.634154459467172e+000
 3.277371791128553e-001	 1.361098038017419e+000	 2.516387629561797e+000
 3.138106079610462e-001	 1.364376230496282e+000	 2.402838592878115e+000
 2.998921588271375e-001	 1.367502963660969e+000	 2.293138953772087e+000
 2.859840989208193e-001	 1.370479047420677e+000	 2.186899333350003e+000
 2.720886651473818e-001	 1.373305332577932e+000	 2.083710541009318e+000
 4.191708250454448e-001	 1.363695500578122e+000	 3.464649209638925e+000
 4.049794867857331e-001	 1.367977056264114e+000	 3.319529762100928e+000
 3.907819648232359e-001	 1.372100250678695e+000	 3.180282970364777e+000
 3.765807355691362e-001	 1.376065636949365e+000	 3.046632081473841e+000
 3.623782502587724e-001	 1.379873816108914e+000	 2.918273150215950e+000
 3.481769339010872e-001	 1.383525436110463e+000	 2.794875775344916e+000
 3.339791842673960e-001	 1.387021190818762e+000	 2.676084079723155e+000
 3.197873709199149e-001	 1.390361818979375e+000	 2.561517903457535e+000
 3.056038342804245e-001	 1.393548103167406e+000	 2.450774178414581e+000
 2.914308847393700e-001	 1.396580868717411e+000	 2.343428452132913e+000
 2.772708018056259e-001	 1.399460982636122e+000	 2.239036529101373e+000
 4.270050373497830e-001	 1.389182675340970e+000	 3.637018983838155e+000
 4.125484660388973e-001	 1.393544252378993e+000	 3.491319057091274e+000
 3.980855954531315e-001	 1.397744508407502e+000	 3.351568614322578e+000
 3.836189482872719e-001	 1.401784006891851e+000	 3.217466534483034e+000
 3.691510215897286e-001	 1.405663360098026e+000	 3.088681325684370e+000
 3.546842856923496e-001	 1.409383228089274e+000	 2.964852278595684e+000
 3.402211831802909e-001	 1.412944317698551e+000	 2.845590898505140e+000
 3.257641279023871e-001	 1.416347381478438e+000	 2.730482579866346e+000
 3.113155040224082e-001	 1.419593216630219e+000	 2.619088486397621e+000
 2.968776651115097e-001	 1.422682663913799e+000	 2.510947599413598e+000
 2.824529332821061e-001	 1.425616606540098e+000	 2.405578897040916e+000
 4.348392437788227e-001	 1.414669830989763e+000	 3.810910281347747e+000
 4.201174396156771e-001	 1.419111429319817e+000	 3.666024737914432e+000
 4.053892206056537e-001	 1.423388746904462e+000	 3.527079570468298e+000
 3.906571557271051e-001	 1.427502357546905e+000	 3.393749626306410e+000
 3.759237878414757e-001	 1.431452884746320e+000	 3.265675435057122e+000
 3.611916326034843e-001	 1.435241000676071e+000	 3.142464837418611e+000
 3.464631774120904e-001	 1.438867425137311e+000	 3.023694932152443e+000
 3.317408804027118e-001	 1.442332924489626e+000	 2.908914299290541e+000
 3.170271694810733e-001	 1.445638310560474e+000	 2.797645456683157e+000
 3.023244413990058e-001	 1.448784439535092e+000	 2.689387506609085e+000
 2.876350608724304e-001	 1.451772210828581e+000	 2.583618929156406e+000
 4.426734462911082e-001	 1.440156973895912e+000	 3.982408528165181e+000
 4.276864094083155e-001	 1.444678593478009e+000	 3.840151444796016e+000
 4.126928421067176e-001	 1.449032972580286e+000	 3.703738104839013e+000
 3.976953596482064e-001	 1.453220695343790e+000	 3.572818169222221e+000
 3.826965507072359e-001	 1.457242396500875e+000	 3.447002183679432e+000
 3.676989762613688e-001	 1.461098760335022e+000	 3.325863748038047e+000
 3.527051685233444e-001	 1.464790519615566e+000	 3.208942048589556e+000
 3.377176299151378e-001	 1.468318454509096e+000	 3.095744704973386e+000
 3.227388320844041e-001	 1.471683391469234e+000	 2.985750882093374e+000
 3.077712149636258e-001	 1.474886202106543e+000	 2.878414617150930e+000
 2.928171858722059e-001	 1.477927802040291e+000	 2.773168311891554e+000
 4.505076468451836e-001	 1.465644110430823e+000	 4.147460008357104e+000
 4.352553773090558e-001	 1.470245751245001e+000	 4.010046989221616e+000
 4.199964617822380e-001	 1.474677191845686e+000	 3.878293506546068e+000
 4.047335618101469e-001	 1.478939026711766e+000	 3.751821373076900e+000
 3.894693118802307e-001	 1.483031901808773e+000	 3.630207547775771e+000
 3.742063182928815e-001	 1.486956513530291e+000	 3.512986918263326e+000
 3.589471580746030e-001	 1.490713607613841e+000	 3.399655496821540e+000
 3.436943779339141e-001	 1.494303978033005e+000	 3.289673974141209e+000
 3.284504932603855e-001	 1.497728465867564e+000	 3.182471574002219e+000
 3.132179871671370e-001	 1.500987958153400e+000	 3.077450151603384e+000
 2.979993095770398e-001	 1.504083386713946e+000	 2.973988478300045e+000
 2.461778587834510e-001	 1.242526461118597e+000	 1.081324805173059e+000
 2.336209787353383e-001	 1.244948520494780e+000	 9.980095982647574e-001
 2.210794773494283e-001	 1.247236734201940e+000	 9.204677168877635e-001
 2.085552884195952e-001	 1.249391977736748e+000	 8.482536726071244e-001
 1.960503157475887e-001	 1.251415159572273e+000	 7.809199244626175e-001
 1.835664325704451e-001	 1.253307220138870e+000	 7.180158100670036e-001
 1.711054810238907e-001	 1.255069130798217e+000	 6.590865204617269e-001
 1.586692716415533e-001	 1.256701892811832e+000	 6.036721281745836e-001
 1.462595828897389e-001	 1.258206536305377e+000	 5.513066771788837e-001
 1.338781607374904e-001	 1.259584119230016e+000	 5.015173426805071e-001
 1.215267182615959e-001	 1.260835726322077e+000	 4.538236678576129e-001
 2.513600407846233e-001	 1.268682340028648e+000	 1.378087096050888e+000
 2.385388313687072e-001	 1.271155385113263e+000	 1.292688829340310e+000
 2.257333243445115e-001	 1.273491767002438e+000	 1.213199959474923e+000
 2.129454942133354e-001	 1.275692379622538e+000	 1.139138528207581e+000
 2.001772848530022e-001	 1.277758150570499e+000	 1.070021024217811e+000
 1.874306089332180e-001	 1.279690040073258e+000	 1.005361133396038e+000
 1.747073473676793e-001	 1.281489039940200e+000	 9.446685367794205e-001
 1.620093488027424e-001	 1.283156172509960e+000	 8.874477669400547e-001
 1.493384291424067e-001	 1.284692489592918e+000	 8.331971327924037e-001
 1.366963711093238e-001	 1.286099071410704e+000	 7.814077219143527e-001
 1.240849238414895e-001	 1.287377025533950e+000	 7.315624885786971e-001
 2.565422111259951e-001	 1.294838160090887e+000	 1.615124765065749e+000
 2.434566729370095e-001	 1.297362190769154e+000	 1.526132847544059e+000
 2.303871608685432e-001	 1.299746740731929e+000	 1.443394428677774e+000
 2.173356901292267e-001	 1.301992722335230e+000	 1.366407782474669e+000
 2.043042446728653e-001	 1.304101082299808e+000	 1.294669508422497e+000
 1.912947766017444e-001	 1.306072800649138e+000	 1.227673066771349e+000
 1.783092056074414e-001	 1.307908889640256e+000	 1.164907367061300e+000
 1.653494184489535e-001	 1.309610392688861e+000	 1.105855422183228e+000
 1.524172684678878e-001	 1.311178383290003e+000	 1.049993079323558e+000
 1.395145751404195e-001	 1.312613963935718e+000	 9.967878381639763e-001
 1.266431236656700e-001	 1.313918265030891e+000	 9.456977656968941e-001
 2.617243711031738e-001	 1.320993927844034e+000	 1.797826624190847e+000
 2.483745046697696e-001	 1.323568944013922e+000	 1.703941597050271e+000
 2.350409880850433e-001	 1.326001661953930e+000	 1.616841635196482e+000
 2.217258772648737e-001	 1.328293012449679e+000	 1.536022142873949e+000
 2.084311962389671e-001	 1.330443961345699e+000	 1.460976133335443e+000
 1.951589365421077e-001	 1.332455508461953e+000	 1.391192511886128e+000
 1.819110566436757e-001	 1.334328686503093e+000	 1.326196874511700e+000
 1.686894814152317e-001	 1.336064559961831e+000	 1.265637817509332e+000
 1.554961016359145e-001	 1.337664224017839e+000	 1.208937427139000e+000
 1.423327735353486e-001	 1.339128803433513e+000	 1.155482764372212e+000
 1.292013183737076e-001	 1.340459451447940e+000	 1.104655231191112e+000
 2.669065220117669e-001	 1.347149649826810e+000	 1.939028918757548e+000
 2.532923277965125e-001	 1.349775651399042e+000	 1.842446327054832e+000
 2.396948071575316e-001	 1.352256537231954e+000	 1.753667322234133e+000
 2.261160567178808e-001	 1.354593256540740e+000	 1.672071147669382e+000
 2.125581405830959e-001	 1.356786794293665e+000	 1.597030854866081e+000
 1.990230897203912e-001	 1.358838170107152e+000	 1.527914281190398e+000
 1.855129013768810e-001	 1.360748437133422e+000	 1.464084975157540e+000
 1.720295385366222e-001	 1.362518680942165e+000	 1.404903051745560e+000
 1.585749294162197e-001	 1.364150018397633e+000	 1.349725961566583e+000
 1.451509669986822e-001	 1.365643596532541e+000	 1.297909159199238e+000
 1.317595086051721e-001	 1.367000591420134e+000	 1.248806657534773e+000
 2.720886651473818e-001	 1.373305332577932e+000	 2.083710541009318e+000
 2.582101435467624e-001	 1.375982319475984e+000	 1.986221707985334e+000
 2.443486192495284e-001	 1.378511373129517e+000	 1.896888965094105e+000
 2.305062295858523e-001	 1.380893461183264e+000	 1.815041352991582e+000
 2.166850787370405e-001	 1.383129587729204e+000	 1.740003787146941e+000
 2.028872371026783e-001	 1.385220792180180e+000	 1.671098466454719e+000
 1.891147407075560e-001	 1.387168148135952e+000	 1.607646214252668e+000
 1.753695906481704e-001	 1.388972762243157e+000	 1.548967730917102e+000
 1.616537525785359e-001	 1.390635773050591e+000	 1.494384738800913e+000
 1.479691562349914e-001	 1.392158349861255e+000	 1.443221001993678e+000
 1.343176949996336e-001	 1.393541691582514e+000	 1.394803205190860e+000
 2.772708018056259e-001	 1.399460982636122e+000	 2.239036529101372e+000
 2.631279531500440e-001	 1.402188954796221e+000	 2.140435944623698e+000
 2.490024255245534e-001	 1.404766176210133e+000	 2.050258808428003e+000
 2.348963969663926e-001	 1.407193632952108e+000	 1.967782523000280e+000
 2.208120117325897e-001	 1.409472348237812e+000	 1.892282239389291e+000
 2.067513796550523e-001	 1.411603381276482e+000	 1.823032765697710e+000
 1.927165755361996e-001	 1.413587826115395e+000	 1.759310391995102e+000
 1.787096385849213e-001	 1.415426810478103e+000	 1.700394607080145e+000
 1.647325718925958e-001	 1.417121494597922e+000	 1.645569684374241e+000
 1.507873419488469e-001	 1.418673070048106e+000	 1.594126116207622e+000
 1.368758781966622e-001	 1.420082758570117e+000	 1.545361877853234e+000
 2.824529332821061e-001	 1.425616606540098e+000	 2.405578897040915e+000
 2.680457578358820e-001	 1.428395563911225e+000	 2.305994148674911e+000
 2.536562271461266e-001	 1.431020953037317e+000	 2.214986672913175e+000
 2.392865599571065e-001	 1.433493778422127e+000	 2.131779042642592e+000
 2.249389406015321e-001	 1.435815082404983e+000	 2.055593271245167e+000
 2.106155183435965e-001	 1.437985943991504e+000	 1.985653297508348e+000
 1.963184067633104e-001	 1.440007477676461e+000	 1.921187370027311e+000
 1.820496831819201e-001	 1.441880832260299e+000	 1.861430302310451e+000
 1.678113881281323e-001	 1.443607189660831e+000	 1.805625571924901e+000
 1.536055248448202e-001	 1.445187763721549e+000	 1.753027239301435e+000
 1.394340588358278e-001	 1.446623799017982e+000	 1.702901664222973e+000
 2.876350608724304e-001	 1.451772210828581e+000	 2.583618929156406e+000
 2.729635588338008e-001	 1.454602153372468e+000	 2.483506378785406e+000
 2.583100252777681e-001	 1.457275710174584e+000	 2.391984563029454e+000
 2.436767196555980e-001	 1.459793904168173e+000	 2.308216206539558e+000
 2.290658663756565e-001	 1.462157796816215e+000	 2.231364991933331e+000
 2.144796541343943e-001	 1.464368486920693e+000	 2.160598705673526e+000
 1.999202352893873e-001	 1.466427109423857e+000	 2.095092265464401e+000
 1.853897252742120e-001	 1.468334834203037e+000	 2.034030595632507e+000
 1.708902020548777e-001	 1.470092864860527e+000	 1.976611319396874e+000
 1.564237056274821e-001	 1.471702437510035e+000	 1.922047239539553e+000
 1.419922375567005e-001	 1.473164819561149e+000	 1.869568581739809e+000
 2.928171858722059e-001	 1.477927802040291e+000	 2.773168311891554e+000
 2.778813573733251e-001	 1.480808729731422e+000	 2.673309145696524e+000
 2.629638210829978e-001	 1.483530454185450e+000	 2.581888504515220e+000
 2.480668771594718e-001	 1.486094016765102e+000	 2.498002342837800e+000
 2.331927900867515e-001	 1.488500498057003e+000	 2.420748919691212e+000
 2.183437879935291e-001	 1.490751016659494e+000	 2.349232698535796e+000
 2.035220620149291e-001	 1.492846727962296e+000	 2.282568109549533e+000
 1.887297656968423e-001	 1.494788822919614e+000	 2.219883135462620e+000
 1.739690144425650e-001	 1.496578526818215e+000	 2.160322684877287e+000
 1.592418850014037e-001	 1.498217098042018e+000	 2.103051719978829e+000
 1.445504149988502e-001	 1.499705826834654e+000	 2.047258108674600e+000
 2.979993095770398e-001	 1.504083386713946e+000	 2.973988478300048e+000
 2.827991546839796e-001	 1.507015299539558e+000	 2.875485030140896e+000
 2.676176157253357e-001	 1.509785191633430e+000	 2.785078404996725e+000
 2.524570335663321e-001	 1.512394122787768e+000	 2.701788881283921e+000
 2.373197127666058e-001	 1.514843192712843e+000	 2.624640217345950e+000
 2.222079208870840e-001	 1.517133539803352e+000	 2.552664407416751e+000
 2.071238878404344e-001	 1.519266339896487e+000	 2.484906279579979e+000
 1.920698052848561e-001	 1.521242805023325e+000	 2.420427890973513e+000
 1.770478260609266e-001	 1.523064182155104e+000	 2.358312678632835e+000
 1.620600636711561e-001	 1.524731751945950e+000	 2.297669327731311e+000
 1.471085918018470e-001	 1.526246827473539e+000	 2.237635322524640e+000
 1.215267182615959e-001	 1.260835726322077e+000	 4.538236678576140e-001
 1.092050938783885e-001	 1.261962627821675e+000	 4.096118574471981e-001
 9.691681094146259e-002	 1.262965762463481e+000	 3.703146103429094e-001
 8.466350730218121e-002	 1.263846289909173e+000	 3.354906254300794e-001
 7.244678589573828e-002	 1.264605392478897e+000	 3.046935038755005e-001
 6.026821451849391e-002	 1.265244274109201e+000	 2.774710958299040e-001
 4.812932563820546e-002	 1.265764159316469e+000	 2.533649539895984e-001
 3.603161623652491e-002	 1.266166292166884e+000	 2.319098960160246e-001
 2.397654768310324e-002	 1.266451935253877e+000	 2.126336769995654e-001
 1.196554564061625e-002	 1.266622368684020e+000	 1.950567723704964e-001
 0.000000000000000e+000	 1.266678889072220e+000	 1.786922684320442e-001
 1.240849238414895e-001	 1.287377025533950e+000	 7.315624885786971e-001
 1.115039223538047e-001	 1.288527648942039e+000	 6.852667332724685e-001
 9.895696416848025e-002	 1.289551900130540e+000	 6.441971065600549e-001
 8.644572161462852e-002	 1.290450963172669e+000	 6.079119053329047e-001
 7.397183137018719e-002	 1.291226045277082e+000	 5.759646529923927e-001
 6.153689423456685e-002	 1.291878375723875e+000	 5.479032440351166e-001
 4.914247493488775e-002	 1.292409204806197e+000	 5.232692098472118e-001
 3.679010196516126e-002	 1.292819802778529e+000	 5.015971082136392e-001
 2.448126745774445e-002	 1.293111458812612e+000	 4.824140381244597e-001
 1.221742708636630e-002	 1.293285479961983e+000	 4.652392805677679e-001
 0.000000000000000e+000	 1.293343190136032e+000	 4.495840634938446e-001
 1.266431236656700e-001	 1.313918265030891e+000	 9.456977656968932e-001
 1.138027456571140e-001	 1.315092610294107e+000	 8.986042430703738e-001
 1.009971128054113e-001	 1.316137977981790e+000	 8.574685670482116e-001
 8.822793191734592e-002	 1.317055576578641e+000	 8.218350169176809e-001
 7.549687341352300e-002	 1.317846638181773e+000	 7.912424388948380e-001
 6.280557109632934e-002	 1.318512417414775e+000	 7.652232130563650e-001
 5.015562195217507e-002	 1.319054190347506e+000	 7.433023573279642e-001
 3.754858598736009e-002	 1.319473253422687e+000	 7.249967715172081e-001
 2.498598609687794e-002	 1.319770922390312e+000	 7.098146233358376e-001
 1.246930796544316e-002	 1.319948531250828e+000	 6.972548773464848e-001
 0.000000000000000e+000	 1.320007431208043e+000	 6.868069659467739e-001
 1.292013183737076e-001	 1.340459451447940e+000	 1.104655231191110e+000
 1.161015643630454e-001	 1.341657518518851e+000	 1.058599475147501e+000
 1.030372573623214e-001	 1.342724002663488e+000	 1.019541426166877e+000
 9.001013865592067e-002	 1.343660136777988e+000	 9.869604156459655e-001
 7.702191240704687e-002	 1.344467177847874e+000	 9.603385162508358e-001
 6.407424542099544e-002	 1.345146405840179e+000	 9.391596941670506e-001
 5.116876694340058e-002	 1.345699122601420e+000	 9.229088417847511e-001
 3.830706849278613e-002	 1.346126650762511e+000	 9.110706909189763e-001
 2.549070372671932e-002	 1.346430332651643e+000	 9.031286079893650e-001
 1.272118834083878e-002	 1.346611529216121e+000	 8.985632738605929e-001
 0.000000000000000e+000	 1.346671618954121e+000	 8.968512510966948e-001
 1.317595086051721e-001	 1.367000591420134e+000	 1.248806657534773e+000
 1.184003790463280e-001	 1.368222380257244e+000	 1.204895016792603e+000
 1.050773983492763e-001	 1.369309980821893e+000	 1.168718561354027e+000
 9.179234227594020e-002	 1.370264650421613e+000	 1.139717479857748e+000
 7.854694873205999e-002	 1.371087670930294e+000	 1.117340713714585e+000
 6.534291752577937e-002	 1.371780347658369e+000	 1.101045229605154e+000
 5.218191016189744e-002	 1.372344008228968e+000	 1.090295137873204e+000
 3.906554967110422e-002	 1.372780001461154e+000	 1.084560656492071e+000
 2.599542047348421e-002	 1.373089696261269e+000	 1.083316921851452e+000
 1.297306827554513e-002	 1.373274480523431e+000	 1.086042649124706e+000
 0.000000000000000e+000	 1.373335760040133e+000	 1.092218644834439e+000
 1.343176949996336e-001	 1.393541691582514e+000	 1.394803205190862e+000
 1.206991902816909e-001	 1.394787202150259e+000	 1.351948017896107e+000
 1.071175362763418e-001	 1.395895919103263e+000	 1.317514420264608e+000
 9.357454322299191e-002	 1.396869124160417e+000	 1.290885404234122e+000
 8.007198276986362e-002	 1.397708124083939e+000	 1.271458958868682e+000
 6.661158772789529e-002	 1.398414249527623e+000	 1.258647536159405e+000
 5.319505186099875e-002	 1.398988853891178e+000	 1.251877323620671e+000
 3.982402971197911e-002	 1.399433312181770e+000	 1.250587322769090e+000
 2.650013646338823e-002	 1.399749019883856e+000	 1.254228234415441e+000
 1.322494783255417e-002	 1.399937391838323e+000	 1.262261153485902e+000
 0.000000000000000e+000	 1.399999861131944e+000	 1.274156075804454e+000
 1.368758781966622e-001	 1.420082758570117e+000	 1.545361877853234e+000
 1.229979986438630e-001	 1.421351990838866e+000	 1.502429817896515e+000
 1.091576716535836e-001	 1.422481824153855e+000	 1.468488522956806e+000
 9.535674194266319e-002	 1.423473564645299e+000	 1.442845612393338e+000
 8.159701490175887e-002	 1.424328543963714e+000	 1.424830258663664e+000
 6.788025634455734e-002	 1.425048118106222e+000	 1.413792923151346e+000
 5.420819229403766e-002	 1.425633666249075e+000	 1.409104854786622e+000
 4.058250880507560e-002	 1.426086589587512e+000	 1.410157349772908e+000
 2.700485182264700e-002	 1.426408310184067e+000	 1.416360772887676e+000
 1.347682707485788e-002	 1.426600269826367e+000	 1.427143342913522e+000
 0.000000000000000e+000	 1.426663928895423e+000	 1.441949684394875e+000
 1.394340588358278e-001	 1.446623799017982e+000	 1.702901664222973e+000
 1.252968047075734e-001	 1.447916752964040e+000	 1.658722523252870e+000
 1.111978049910673e-001	 1.449067702619928e+000	 1.623922298253820e+000
 9.713893888054130e-002	 1.450077978527162e+000	 1.597714772676981e+000
 8.312204550904696e-002	 1.450948937224526e+000	 1.579342229953233e+000
 6.914892369297968e-002	 1.451681960052446e+000	 1.568075540194257e+000
 5.522133171434732e-002	 1.452278451963687e+000	 1.563213960419321e+000
 4.134098714005852e-002	 1.452739840341534e+000	 1.564084645650045e+000
 2.750956667747615e-002	 1.453067573826569e+000	 1.570041870721150e+000
 1.372870606544823e-002	 1.453263121153127e+000	 1.580465965081933e+000
 0.000000000000000e+000	 1.453327969996434e+000	 1.594761962487421e+000
 1.419922375567005e-001	 1.473164819561149e+000	 1.869568581739810e+000
 1.275956090475513e-001	 1.474481495166753e+000	 1.822943708503913e+000
 1.132379367988588e-001	 1.475653561147740e+000	 1.785843201653989e+000
 9.892113448221382e-002	 1.476682372456906e+000	 1.757368095098046e+000
 8.464707497302905e-002	 1.477569310521282e+000	 1.736655340444889e+000
 7.041759009037650e-002	 1.478315782024574e+000	 1.722878330005542e+000
 5.623447037526085e-002	 1.478923217696040e+000	 1.715247078404817e+000
 4.209946490659258e-002	 1.479393071106987e+000	 1.713008058968622e+000
 2.801428115409128e-002	 1.479726817476025e+000	 1.715443693941548e+000
 1.398058486731718e-002	 1.479925952484172e+000	 1.721871500397798e+000
 0.000000000000000e+000	 1.479991991100845e+000	 1.731642893383464e+000
 1.445504149988502e-001	 1.499705826834654e+000	 2.047258108674598e+000
 1.298944122385256e-001	 1.501046224087976e+000	 1.996968528180071e+000
 1.152780675870237e-001	 1.502239406383549e+000	 1.956046295081612e+000
 1.007033291932679e-001	 1.503286753085431e+000	 1.923460168973282e+000
 8.617210367500633e-002	 1.504189670508888e+000	 1.898222796382029e+000
 7.168625585396195e-002	 1.504949590680887e+000	 1.879391760535035e+000
 5.724760853011137e-002	 1.505567970107163e+000	 1.866070228777619e+000
 4.285794229434262e-002	 1.506046288547027e+000	 1.857407192400431e+000
 2.851899537870802e-002	 1.506386047797100e+000	 1.852597296958680e+000
 1.423246354345669e-002	 1.506588770485069e+000	 1.850880264390073e+000
 0.000000000000000e+000	 1.506655998874523e+000	 1.851539908036011e+000
 1.471085918018470e-001	 1.526246827473539e+000	 2.237635322524639e+000
 1.321932148552253e-001	 1.527610946368682e+000	 2.182449554774645e+000
 1.173181978656277e-001	 1.528825244973612e+000	 2.136113597480145e+000
 1.024855234592911e-001	 1.529891127063641e+000	 2.097443640646593e+000
 8.769713199628007e-002	 1.530810023842251e+000	 2.065308363454279e+000
 7.295492130095019e-002	 1.531583392679664e+000	 2.038630606766464e+000
 5.826074643223207e-002	 1.532212715858080e+000	 2.016388575861122e+000
 4.361641949297341e-002	 1.532699499324805e+000	 1.997616566499284e+000
 2.902370947754199e-002	 1.533045271454459e+000	 1.981405211241610e+000
 1.448434215685874e-002	 1.533251581821384e+000	 1.966901246611790e+000
 0.000000000000000e+000	 1.533319999983334e+000	 1.953306801697381e+000
 1.533319999983334e+000	 0.000000000000000e+000	 1.516488250337890e+001
 1.533251581821384e+000	 1.448434215685830e-002	 1.516141469798034e+001
 1.533045271454459e+000	 2.902370947754161e-002	 1.516329573684853e+001
 1.532699499324805e+000	 4.361641949297307e-002	 1.516916573690298e+001
 1.532212715858080e+000	 5.826074643223177e-002	 1.517762718850158e+001
 1.531583392679665e+000	 7.295492130094992e-002	 1.518724624630250e+001
 1.530810023842251e+000	 8.769713199627982e-002	 1.519655419500090e+001
 1.529891127063640e+000	 1.024855234592909e-001	 1.520404907563477e+001
 1.528825244973612e+000	 1.173181978656276e-001	 1.520819746937011e+001
 1.527610946368683e+000	 1.321932148552252e-001	 1.520743643451877e+001
 1.526246827473539e+000	 1.471085918018469e-001	 1.520017559135893e+001
 1.559987999982150e+000	 0.000000000000000e+000	 1.493370813986695e+001
 1.559918391869258e+000	 1.473625854557676e-002	 1.492370131930809e+001
 1.559708493285285e+000	 2.952849927044131e-002	 1.492021560471594e+001
 1.559356707374226e+000	 4.437501044347396e-002	 1.492175663238227e+001
 1.558861457611046e+000	 5.927403627859133e-002	 1.492679224016579e+001
 1.558221189039145e+000	 7.422377701450698e-002	 1.493375406939353e+001
 1.557434369519299e+000	 8.922238903169806e-002	 1.494103936188695e+001
 1.556499490988984e+000	 1.042679850074529e-001	 1.494701293693671e+001
 1.555415070730929e+000	 1.193586341098443e-001	 1.495000934446941e+001
 1.554179652649704e+000	 1.344923622314418e-001	 1.494833518934359e+001
 1.552791808555088e+000	 1.496671522635356e-001	 1.494027162037247e+001
 1.586655999981867e+000	 0.000000000000000e+000	 1.472548252853157e+001
 1.586585201918022e+000	 1.498817493449890e-002	 1.470903163776620e+001
 1.586371715116970e+000	 3.003328906368752e-002	 1.470022137737140e+001
 1.586013915424461e+000	 4.513360139441185e-002	 1.469743016362941e+001
 1.585510199364770e+000	 6.028732612543463e-002	 1.469899788283356e+001
 1.584858985399322e+000	 7.549263272855973e-002	 1.470322779639265e+001
 1.584058715196979e+000	 9.074764606759800e-002	 1.470838866309741e+001
 1.583107854914894e+000	 1.060504465560655e-001	 1.471271706256880e+001
 1.582004896488756e+000	 1.213990703544733e-001	 1.471441991547268e+001
 1.580748358931190e+000	 1.367915096080339e-001	 1.471167719461742e+001
 1.579336789637071e+000	 1.522257127255743e-001	 1.470264481954266e+001
 1.613323999982383e+000	 0.000000000000000e+000	 1.453411825052605e+001
 1.613252011967578e+000	 1.524009132357382e-002	 1.451166507828081e+001
 1.613034936949425e+000	 3.053807885719377e-002	 1.449790576392318e+001
 1.612671123475431e+000	 4.589219234567800e-002	 1.449109801256912e+001
 1.612158941119187e+000	 6.130061597264209e-002	 1.448945968893235e+001
 1.611496781760144e+000	 7.676148844298673e-002	 1.449117101947860e+001
 1.610683060875255e+000	 9.227290310386339e-002	 1.449437703572760e+001
 1.609716218841356e+000	 1.078329081050231e-001	 1.449719024198565e+001
 1.608594722247091e+000	 1.234395065994216e-001	 1.449769350243973e+001
 1.607317065213149e+000	 1.390906569849222e-001	 1.449394314089773e+001
 1.605881770719505e+000	 1.547842731878955e-001	 1.448397224477786e+001
 1.639991999983600e+000	 0.000000000000000e+000	 1.435418125302766e+001
 1.639918822017828e+000	 1.549200771275063e-002	 1.432647747130020e+001
 1.639698158782560e+000	 3.104286865087362e-002	 1.430844280914636e+001
 1.639328331527060e+000	 4.665078329716375e-002	 1.429822003458916e+001
 1.638807682874235e+000	 6.231390582009395e-002	 1.429391016454944e+001
 1.638134578121566e+000	 7.803034415766653e-002	 1.429357495958990e+001
 1.637307406554097e+000	 9.379816014037826e-002	 1.429523968591575e+001
 1.636324582768351e+000	 1.096153696542197e-001	 1.429689612723593e+001
 1.635184548005932e+000	 1.254799428445966e-001	 1.429650584076567e+001
 1.633885771495591e+000	 1.413898043620275e-001	 1.429200364981543e+001
 1.632426751802406e+000	 1.573428336504319e-001	 1.428130136353310e+001
 1.666659999985416e+000	 0.000000000000000e+000	 1.418083857713684e+001
 1.666585632068674e+000	 1.574392410197842e-002	 1.414891112881456e+001
 1.666361380616284e+000	 3.154765844464056e-002	 1.412754021627626e+001
 1.665985539579266e+000	 4.740937424876036e-002	 1.411475872319587e+001
 1.665456424629847e+000	 6.332719566767057e-002	 1.410855524748593e+001
 1.664772374483535e+000	 7.929919987247770e-002	 1.410687688588694e+001
 1.663931752233472e+000	 9.532341717702640e-002	 1.410763231421927e+001
 1.662932946695862e+000	 1.113978312035495e-001	 1.410869514528654e+001
 1.661774373765276e+000	 1.275203790899053e-001	 1.410790755805737e+001
 1.660454477778524e+000	 1.436889517392706e-001	 1.410308418971779e+001
 1.658971732885789e+000	 1.599013941131163e-001	 1.409201628009614e+001
 1.693327999987733e+000	 0.000000000000000e+000	 1.400981102513437e+001
 1.693252442120022e+000	 1.599584049120630e-002	 1.397492963837964e+001
 1.693024602450509e+000	 3.205244823840813e-002	 1.395139617703980e+001
 1.692642747631973e+000	 4.816796520035907e-002	 1.393713798199662e+001
 1.692105166385958e+000	 6.434048551525225e-002	 1.393003492384858e+001
 1.691410170846005e+000	 8.056805558729877e-002	 1.392792247633792e+001
 1.690556097913347e+000	 9.684867421369171e-002	 1.392859511633062e+001
 1.689541310623875e+000	 1.131802927529067e-001	 1.392981003178043e+001
 1.688364199525119e+000	 1.295608153352551e-001	 1.392929113064980e+001
 1.687023184061957e+000	 1.459880991165722e-001	 1.392473334150496e+001
 1.685516713969673e+000	 1.624599545758813e-001	 1.391380719419266e+001
 1.719995999990450e+000	 0.000000000000000e+000	 1.383733023101413e+001
 1.719919252171772e+000	 1.624775688038337e-002	 1.380097686308675e+001
 1.719687824285143e+000	 3.255723803208991e-002	 1.377666021974183e+001
 1.719299955685101e+000	 4.892655615185123e-002	 1.376220573652424e+001
 1.718753908142505e+000	 6.535377536271933e-002	 1.375538751618220e+001
 1.718047967208927e+000	 8.183691130200829e-002	 1.375393169168859e+001
 1.717180443593690e+000	 9.837393125025809e-002	 1.375552014938633e+001
 1.716149674552369e+000	 1.149627543021854e-001	 1.375779459318243e+001
 1.714954025285460e+000	 1.316012515805530e-001	 1.375836094210614e+001
 1.713591890345899e+000	 1.482872464938531e-001	 1.375479405105399e+001
 1.712061695054074e+000	 1.650185150386595e-001	 1.374464274199088e+001
 1.746663999993467e+000	 0.000000000000000e+000	 1.366009966368811e+001
 1.746586062223828e+000	 1.649967326945873e-002	 1.362393969796447e+001
 1.746351046120097e+000	 3.306202782559937e-002	 1.360039764597380e+001
 1.745957163738572e+000	 4.968514710312811e-002	 1.358719997551772e+001
 1.745402649899424e+000	 6.636706520995209e-002	 1.358201725074476e+001
 1.744685763572250e+000	 8.310576701648488e-002	 1.358246778731914e+001
 1.743804789274466e+000	 9.989918828660942e-002	 1.358612170416830e+001
 1.742758038481331e+000	 1.167452158512797e-001	 1.359050535227630e+001
 1.741543851046296e+000	 1.336416878257062e-001	 1.359310611217533e+001
 1.740160596630359e+000	 1.505863938710342e-001	 1.359137754903571e+001
 1.738606676139007e+000	 1.675770755013836e-001	 1.358274491144559e+001
 1.773331999996684e+000	 0.000000000000000e+000	 1.347525914887727e+001
 1.773252872276091e+000	 1.675158965838148e-002	 1.344111418737989e+001
 1.773014267955283e+000	 3.356681761885007e-002	 1.342005717817529e+001
 1.772614371792308e+000	 5.044373805408099e-002	 1.340971786064425e+001
 1.772051391656649e+000	 6.738035505683089e-002	 1.340766475873428e+001
 1.771323559935927e+000	 8.437462273060700e-002	 1.341140913266778e+001
 1.770429134955646e+000	 1.014244453226296e-001	 1.341840936677047e+001
 1.769366402410742e+000	 1.185276774000839e-001	 1.342607577348804e+001
 1.768133676807623e+000	 1.356821240706220e-001	 1.343177580456411e+001
 1.766729302915345e+000	 1.528855412480361e-001	 1.343283965733218e+001
 1.765151657224491e+000	 1.701356359639863e-001	 1.342656626098396e+001
 1.800000000000000e+000	 0.000000000000000e+000	 1.328035254476943e+001
 1.799919682328466e+000	 1.700350604710072e-002	 1.325017465487123e+001
 1.799677489790610e+000	 3.407160741175556e-002	 1.323344148505618e+001
 1.799271579846229e+000	 5.120232900460113e-002	 1.322768758643875e+001
 1.798700133414114e+000	 6.839364490323606e-002	 1.323038020719113e+001
 1.797961356299907e+000	 8.564347844425327e-002	 1.323892354705174e+001
 1.797053480637195e+000	 1.029497023582024e-001	 1.325066349081088e+001
 1.795974766340585e+000	 1.203101389484920e-001	 1.326289280048285e+001
 1.794723502569440e+000	 1.377225603152076e-001	 1.327285675644863e+001
 1.793298009200866e+000	 1.551846886247796e-001	 1.327775923454193e+001
 1.791696638310540e+000	 1.726941964264003e-001	 1.327476920265627e+001
 1.526246827473539e+000	 1.471085918018469e-001	 1.520017559135893e+001
 1.524731751945950e+000	 1.620600636711551e-001	 1.519219254528267e+001
 1.523064182155104e+000	 1.770478260609258e-001	 1.518936733499857e+001
 1.521242805023325e+000	 1.920698052848554e-001	 1.519024582833596e+001
 1.519266339896488e+000	 2.071238878404338e-001	 1.519337200600622e+001
 1.517133539803352e+000	 2.222079208870836e-001	 1.519729086219433e+001
 1.514843192712843e+000	 2.373197127666055e-001	 1.520055137063272e+001
 1.512394122787768e+000	 2.524570335663319e-001	 1.520170950117168e+001
 1.509785191633430e+000	 2.676176157253355e-001	 1.519933127078994e+001
 1.507015299539558e+000	 2.827991546839796e-001	 1.519199581199140e+001
 1.504083386713946e+000	 2.979993095770398e-001	 1.517829844060648e+001
 1.552791808555088e+000	 1.496671522635356e-001	 1.494027162037246e+001
 1.551250382341223e+000	 1.648786649929308e-001	 1.493188117324321e+001
 1.549553809634328e+000	 1.801270994193072e-001	 1.492935279337093e+001
 1.547700754519252e+000	 1.954103457901382e-001	 1.493114330040638e+001
 1.545689914068317e+000	 2.107262538441940e-001	 1.493570974493934e+001
 1.543520019622557e+000	 2.260726332979972e-001	 1.494151268717661e+001
 1.541189838070859e+000	 2.414472543753199e-001	 1.494701954879171e+001
 1.538698173125490e+000	 2.568478483801319e-001	 1.495070802107405e+001
 1.536043866592425e+000	 2.722721083133523e-001	 1.495106951130432e+001
 1.533225799634873e+000	 2.877176895336973e-001	 1.494661260815400e+001
 1.530242894028381e+000	 3.031822104628574e-001	 1.493586654585786e+001
 1.579336789637071e+000	 1.522257127255743e-001	 1.470264481954267e+001
 1.577769012736920e+000	 1.676972663150494e-001	 1.469363680519536e+001
 1.576043437113977e+000	 1.832063727780418e-001	 1.469112066469248e+001
 1.574158704015620e+000	 1.987508862957980e-001	 1.469347172063403e+001
 1.572113488240613e+000	 2.143286198483647e-001	 1.469906764976393e+001
 1.569906499442260e+000	 2.299373457093609e-001	 1.470629215199984e+001
 1.567536483429407e+000	 2.455747959845261e-001	 1.471353870095101e+001
 1.565002223463775e+000	 2.612386631944634e-001	 1.471921435703527e+001
 1.562302541552006e+000	 2.769266009019344e-001	 1.472174362296024e+001
 1.559436299730789e+000	 2.926362243840046e-001	 1.471957232006379e+001
 1.556402401343417e+000	 3.083651113492743e-001	 1.471117146282912e+001
 1.605881770719505e+000	 1.547842731878955e-001	 1.448397224477787e+001
 1.604287643133057e+000	 1.705158676374521e-001	 1.447432286029362e+001
 1.602533064594071e+000	 1.862856461370760e-001	 1.447172064855523e+001
 1.600616653512443e+000	 2.020914268017832e-001	 1.447446591559519e+001
 1.598537062413383e+000	 2.179309858528943e-001	 1.448086343515493e+001
 1.596292979262458e+000	 2.338020581211212e-001	 1.448922652327823e+001
 1.593883128788471e+000	 2.497023375941676e-001	 1.449788120345888e+001
 1.591306273802593e+000	 2.656294780092665e-001	 1.450517044129588e+001
 1.588561216512131e+000	 2.815810934910187e-001	 1.450945842610259e+001
 1.585646799827250e+000	 2.975547592348355e-001	 1.450913487549574e+001
 1.582561908658987e+000	 3.135480122362239e-001	 1.450261933766859e+001
 1.632426751802406e+000	 1.573428336504319e-001	 1.428130136353311e+001
 1.630806273529654e+000	 1.733344689600800e-001	 1.427115490918297e+001
 1.629022692074626e+000	 1.893649194963555e-001	 1.426853689168538e+001
 1.627074603009736e+000	 2.054319673080420e-001	 1.427167802069732e+001
 1.624960636586633e+000	 2.215333518577309e-001	 1.427881556218669e+001
 1.622679459083146e+000	 2.376667705332243e-001	 1.428819783684169e+001
 1.620229774148032e+000	 2.538298792041877e-001	 1.429808881897782e+001
 1.617610324141914e+000	 2.700202928244812e-001	 1.430677281258425e+001
 1.614819891472758e+000	 2.862355860805423e-001	 1.431255917947119e+001
 1.611857299924204e+000	 3.024732940861247e-001	 1.431378709289398e+001
 1.608721415975027e+000	 3.187309131236401e-001	 1.430883028855569e+001
 1.658971732885789e+000	 1.599013941131163e-001	 1.409201628009614e+001
 1.657324903926732e+000	 1.761530702828741e-001	 1.408166813295541e+001
 1.655512319555662e+000	 1.924441928558265e-001	 1.407925665747137e+001
 1.653532552507511e+000	 2.087725078145226e-001	 1.408294733287504e+001
 1.651384210760366e+000	 2.251357178628225e-001	 1.409091424246680e+001
 1.649065938904318e+000	 2.415314829456167e-001	 1.410134501723234e+001
 1.646576419508076e+000	 2.579574208145299e-001	 1.411244589091093e+001
 1.643914374481710e+000	 2.744111076400480e-001	 1.412244684067853e+001
 1.641078566433845e+000	 2.908900786704421e-001	 1.412960678574381e+001
 1.638067800021593e+000	 3.073918289378070e-001	 1.413221881438918e+001
 1.634880923291471e+000	 3.239138140114559e-001	 1.412861540834749e+001
 1.685516713969673e+000	 1.624599545758813e-001	 1.391380719419265e+001
 1.683843534324310e+000	 1.789716716057755e-001	 1.390368790601162e+001
 1.682001947037197e+000	 1.955234662154352e-001	 1.390184201234730e+001
 1.679990502005782e+000	 2.121130483211732e-001	 1.390637307577117e+001
 1.677807784934589e+000	 2.287380838681174e-001	 1.391539525337399e+001
 1.675452418725970e+000	 2.453961953582447e-001	 1.392703871022620e+001
 1.672923064868585e+000	 2.620849624251380e-001	 1.393945515639063e+001
 1.670218424821950e+000	 2.788019224559066e-001	 1.395082347899623e+001
 1.667337241395349e+000	 2.955445712606549e-001	 1.395935543881229e+001
 1.664278300119365e+000	 3.123103637898164e-001	 1.396330139880515e+001
 1.661040430608252e+000	 3.290967148996046e-001	 1.396095605033666e+001
 1.712061695054074e+000	 1.650185150386595e-001	 1.374464274199088e+001
 1.710362164722407e+000	 1.817902729287253e-001	 1.373530316377891e+001
 1.708491574519249e+000	 1.986027395751275e-001	 1.373450420160315e+001
 1.706448451504562e+000	 2.154535888279422e-001	 1.374028976130091e+001
 1.704231359109308e+000	 2.323404498735636e-001	 1.375071625930192e+001
 1.701838898548099e+000	 2.492609077710547e-001	 1.376385853392718e+001
 1.699269710229543e+000	 2.662125040359552e-001	 1.377781589362863e+001
 1.696522475162607e+000	 2.831927372719977e-001	 1.379071827083498e+001
 1.693595916357230e+000	 3.001990638511180e-001	 1.380073244777922e+001
 1.690488800217466e+000	 3.172288986420876e-001	 1.380606831851690e+001
 1.687199937925307e+000	 3.342796157880201e-001	 1.380498514932470e+001
 1.738606676139007e+000	 1.675770755013836e-001	 1.358274491144560e+001
 1.736880795121043e+000	 1.846088742516645e-001	 1.357484225765241e+001
 1.734981202001836e+000	 2.016820129348496e-001	 1.357568042718571e+001
 1.732906401003865e+000	 2.187941293347777e-001	 1.358324487010801e+001
 1.730654933284528e+000	 2.359428158791092e-001	 1.359553537107638e+001
 1.728225378370697e+000	 2.531256201839929e-001	 1.361057248994549e+001
 1.725616355590934e+000	 2.703400456469254e-001	 1.362640415413860e+001
 1.722826525503649e+000	 2.875835520882610e-001	 1.364111236840199e+001
 1.719854591319443e+000	 3.048535564417679e-001	 1.365282000503669e+001
 1.716699300315840e+000	 3.221474334945552e-001	 1.365969763530570e+001
 1.713359445242568e+000	 3.394625166766351e-001	 1.365997036048225e+001
 1.765151657224491e+000	 1.701356359639863e-001	 1.342656626098396e+001
 1.763399425520238e+000	 1.874274755745343e-001	 1.342085103533202e+001
 1.761470829484977e+000	 2.047612862945476e-001	 1.342401277463597e+001
 1.759364350503703e+000	 2.221346698416280e-001	 1.343397860680602e+001
 1.757078507460254e+000	 2.395451818847026e-001	 1.344869170793503e+001
 1.754611858193761e+000	 2.569903325970060e-001	 1.346611830726887e+001
 1.751963000952741e+000	 2.744675872579917e-001	 1.348425486035812e+001
 1.749130575845050e+000	 2.919743669046371e-001	 1.350113535274699e+001
 1.746113266281949e+000	 3.095080490325419e-001	 1.351483869377246e+001
 1.742909800414433e+000	 3.270659683471535e-001	 1.352349615741033e+001
 1.739518952559971e+000	 3.446454175653835e-001	 1.352529882463803e+001
 1.791696638310540e+000	 1.726941964264003e-001	 1.327476920265627e+001
 1.789918055920011e+000	 1.902460768972756e-001	 1.327207291576150e+001
 1.787960456968690e+000	 2.078405596541674e-001	 1.327832906627754e+001
 1.785822300004091e+000	 2.254752103484413e-001	 1.329140551482841e+001
 1.783502081636491e+000	 2.431475478902917e-001	 1.330918775438571e+001
 1.780998338017288e+000	 2.608550450100401e-001	 1.332958651838901e+001
 1.778309646314947e+000	 2.785951288690978e-001	 1.335054557521050e+001
 1.775434626186778e+000	 2.963651817210659e-001	 1.337004966782735e+001
 1.772371941244702e+000	 3.141625416233767e-001	 1.338613255450839e+001
 1.769120300513189e+000	 3.319845031998169e-001	 1.339688510341687e+001
 1.765678459877450e+000	 3.498283184541984e-001	 1.340046339131822e+001
 1.504083386713946e+000	 2.979993095770398e-001	 1.517829844060648e+001
 1.500987958153400e+000	 3.132179871671365e-001	 1.516333288485590e+001
 1.497728465867564e+000	 3.284504932603852e-001	 1.515231098885643e+001
 1.494303978033006e+000	 3.436943779339138e-001	 1.514403707643261e+001
 1.490713607613841e+000	 3.589471580746028e-001	 1.513735195332559e+001
 1.486956513530291e+000	 3.742063182928813e-001	 1.513113562490854e+001
 1.483031901808773e+000	 3.894693118802305e-001	 1.512430987142978e+001
 1.478939026711766e+000	 4.047335618101468e-001	 1.511584065891589e+001
 1.474677191845686e+000	 4.199964617822380e-001	 1.510474036397774e+001
 1.470245751245001e+000	 4.352553773090561e-001	 1.509006979104445e+001
 1.465644110430824e+000	 4.505076468451836e-001	 1.507093996100754e+001
 1.530242894028381e+000	 3.031822104628574e-001	 1.493586654585786e+001
 1.527093628768171e+000	 3.186655762418404e-001	 1.492410709422682e+001
 1.523777446333049e+000	 3.341630110338180e-001	 1.491673319672567e+001
 1.520293398692991e+000	 3.496720223060635e-001	 1.491249874772654e+001
 1.516640583384481e+000	 3.651900837583482e-001	 1.491019858363662e+001
 1.512818144699393e+000	 3.807146362526288e-001	 1.490867152031835e+001
 1.508825274855079e+000	 3.962430887872052e-001	 1.490680323347375e+001
 1.504661215143897e+000	 4.117728195150921e-001	 1.490352895745291e+001
 1.500325257060339e+000	 4.273011768062747e-001	 1.489783597804976e+001
 1.495816743404018e+000	 4.428254803534436e-001	 1.488876589513581e+001
 1.491135069356658e+000	 4.583430223207198e-001	 1.487541663146962e+001
 1.556402401343417e+000	 3.083651113492743e-001	 1.471117146282912e+001
 1.553199299383525e+000	 3.241131653171373e-001	 1.470197837498037e+001
 1.549826426799085e+000	 3.398755288078222e-001	 1.469755700342420e+001
 1.546282819353483e+000	 3.556496666787523e-001	 1.469661638366628e+001
 1.542567559155575e+000	 3.714330094425919e-001	 1.469791140298765e+001
 1.538679775868886e+000	 3.872229542128295e-001	 1.470024617977671e+001
 1.534618647901714e+000	 4.030168656945872e-001	 1.470247726986267e+001
 1.530383403576289e+000	 4.188120772204010e-001	 1.470351667240205e+001
 1.525973322275190e+000	 4.346058918306376e-001	 1.470233460795774e+001
 1.521387735563173e+000	 4.503955833981298e-001	 1.469796204170989e+001
 1.516626028282579e+000	 4.661783977965402e-001	 1.468949292525098e+001
 1.582561908658987e+000	 3.135480122362239e-001	 1.450261933766859e+001
 1.579304969999389e+000	 3.295607543929612e-001	 1.449549619183793e+001
 1.575875407265591e+000	 3.455880465823347e-001	 1.449347837056117e+001
 1.572272240014395e+000	 3.616273110519196e-001	 1.449523471932336e+001
 1.568494534927030e+000	 3.776759351272775e-001	 1.449948530300345e+001
 1.564541407038679e+000	 3.937312721734312e-001	 1.450500515257799e+001
 1.560412020948581e+000	 4.097906426023273e-001	 1.451062782145008e+001
 1.556105592008849e+000	 4.258513349260273e-001	 1.451524872078884e+001
 1.551621387490147e+000	 4.419106068552816e-001	 1.451782820333807e+001
 1.546958727722380e+000	 4.579656864430685e-001	 1.451739436546254e+001
 1.542116987208505e+000	 4.740137732725954e-001	 1.451304553774176e+001
 1.608721415975027e+000	 3.187309131236401e-001	 1.430883028855569e+001
 1.605410640615688e+000	 3.350083434692463e-001	 1.430341123926609e+001
 1.601924387732485e+000	 3.513005643572913e-001	 1.430338146711455e+001
 1.598261660675640e+000	 3.676049554255054e-001	 1.430737339313241e+001
 1.594421510698755e+000	 3.839188608123486e-001	 1.431407649272960e+001
 1.590403038208677e+000	 4.002395901343810e-001	 1.432224143862215e+001
 1.586205393995587e+000	 4.165644195103767e-001	 1.433068403457655e+001
 1.581827780441484e+000	 4.328905926319245e-001	 1.433828890591434e+001
 1.577269452705120e+000	 4.492153218801611e-001	 1.434401291278011e+001
 1.572529719881547e+000	 4.655357894882131e-001	 1.434688825248835e+001
 1.567607946134350e+000	 4.818491487488354e-001	 1.434602521784437e+001
 1.634880923291471e+000	 3.239138140114559e-001	 1.412861540834750e+001
 1.631516311232345e+000	 3.404559325459265e-001	 1.412465328850103e+001
 1.627973368199684e+000	 3.570130821326286e-001	 1.412631736857474e+001
 1.624251081337129e+000	 3.735825997994487e-001	 1.413220650254208e+001
 1.620348486470660e+000	 3.901617864977486e-001	 1.414098291181619e+001
 1.616264669378785e+000	 4.067479080956264e-001	 1.415137675678834e+001
 1.611998767042638e+000	 4.233381964186860e-001	 1.416219047892361e+001
 1.607549968874100e+000	 4.399298503380457e-001	 1.417230287562127e+001
 1.602917517920015e+000	 4.565200369052304e-001	 1.418067287008875e+001
 1.598100712040590e+000	 4.731058925335175e-001	 1.418634293879720e+001
 1.593098905060033e+000	 4.896845242252110e-001	 1.418844215969796e+001
 1.661040430608252e+000	 3.290967148996046e-001	 1.396095605033666e+001
 1.657621981849286e+000	 3.459035216229360e-001	 1.395831124249228e+001
 1.654022348667108e+000	 3.627255999082828e-001	 1.396148488728831e+001
 1.650240501998774e+000	 3.795602441736898e-001	 1.396904421284285e+001
 1.646275462242652e+000	 3.964047121834209e-001	 1.397962661777533e+001
 1.642126300548911e+000	 4.132562260571145e-001	 1.399194470742889e+001
 1.637792140089639e+000	 4.301119733272061e-001	 1.400479107891659e+001
 1.633272157306603e+000	 4.469691080443442e-001	 1.401704281315089e+001
 1.628565583134742e+000	 4.638247519304444e-001	 1.402766563203254e+001
 1.623671704199418e+000	 4.806759955789353e-001	 1.403571767930004e+001
 1.618589863985467e+000	 4.975198997016721e-001	 1.404035288418717e+001
 1.687199937925307e+000	 3.342796157880201e-001	 1.380498514932470e+001
 1.683727652466438e+000	 3.513511107002089e-001	 1.380361515913113e+001
 1.680071329134671e+000	 3.684381176841903e-001	 1.380821330269444e+001
 1.676229922660488e+000	 3.855378885481678e-001	 1.381731619633125e+001
 1.672202438014639e+000	 4.026476378693090e-001	 1.382953793305751e+001
 1.667987931718962e+000	 4.197645440187933e-001	 1.384357562340615e+001
 1.663585513136496e+000	 4.368857502358879e-001	 1.385821466184114e+001
 1.658994345738899e+000	 4.540083657507737e-001	 1.387233367254299e+001
 1.654213648349210e+000	 4.711294669557574e-001	 1.388490908832986e+001
 1.649242696357945e+000	 4.882460986244201e-001	 1.389501931681009e+001
 1.644080822910571e+000	 5.053552751781694e-001	 1.390184844853866e+001
 1.713359445242568e+000	 3.394625166766351e-001	 1.365997036048226e+001
 1.709833323083724e+000	 3.567986997776795e-001	 1.365992003239879e+001
 1.706120309602293e+000	 3.741506354602879e-001	 1.366594678839682e+001
 1.702219343322185e+000	 3.915155329228229e-001	 1.367655670618778e+001
 1.698129413786532e+000	 4.088905635553565e-001	 1.369034116385985e+001
 1.693849562888844e+000	 4.262728619806099e-001	 1.370598292920258e+001
 1.689378886183114e+000	 4.436595271446824e-001	 1.372226194988216e+001
 1.684716534170896e+000	 4.610476234572878e-001	 1.373806079349920e+001
 1.679861713563326e+000	 4.784341819811238e-001	 1.375236968652324e+001
 1.674813688516081e+000	 4.958162016699259e-001	 1.376429110142662e+001
 1.669571781835260e+000	 5.131906506546526e-001	 1.377304384205803e+001
 1.739518952559971e+000	 3.446454175653835e-001	 1.352529882463802e+001
 1.735938993701071e+000	 3.622462888552817e-001	 1.352669114637731e+001
 1.732169290069892e+000	 3.798631532365111e-001	 1.353423035744588e+001
 1.728208763983774e+000	 3.974931772975942e-001	 1.354639111298169e+001
 1.724056389558236e+000	 4.151334892415067e-001	 1.356174172520922e+001
 1.719711194058461e+000	 4.327811799425113e-001	 1.357895084934772e+001
 1.715172259229400e+000	 4.504333040535404e-001	 1.359679384407986e+001
 1.710438722602501e+000	 4.680868811638396e-001	 1.361415875049122e+001
 1.705509778777000e+000	 4.857388970064985e-001	 1.363005183331809e+001
 1.700384680673739e+000	 5.033863047154058e-001	 1.364360262866901e+001
 1.695062740759449e+000	 5.210260261310729e-001	 1.365406844313882e+001
 1.765678459877450e+000	 3.498283184541984e-001	 1.340046339131822e+001
 1.762044664318403e+000	 3.676938779329496e-001	 1.340349083900105e+001
 1.758218270537386e+000	 3.855756710127969e-001	 1.341269716837473e+001
 1.754198184645169e+000	 4.034708216724217e-001	 1.342652375211076e+001
 1.749983365329664e+000	 4.213764149277032e-001	 1.344351452647303e+001
 1.745572825227723e+000	 4.392894979044454e-001	 1.346232332622180e+001
 1.740965632275259e+000	 4.572070809624127e-001	 1.348172086621704e+001
 1.736160911033618e+000	 4.751261388703826e-001	 1.350060130810685e+001
 1.731157843990141e+000	 4.930436120318358e-001	 1.351798835037315e+001
 1.725955672830830e+000	 5.109564077608136e-001	 1.353304078033194e+001
 1.720553699683057e+000	 5.288614016073797e-001	 1.354505742747385e+001
 1.465644110430824e+000	 4.505076468451836e-001	 1.507093996100754e+001
 1.460871727075660e+000	 4.657505827348306e-001	 1.504985889219983e+001
 1.455928110904371e+000	 4.809814717320294e-001	 1.502948714684503e+001
 1.450812825763512e+000	 4.961975768838239e-001	 1.500924349850524e+001
 1.445525490928912e+000	 5.113961390398314e-001	 1.498860067113137e+001
 1.440065782013028e+000	 5.265743781829090e-001	 1.496708529245210e+001
 1.434433431836372e+000	 5.417294947976460e-001	 1.494427750296496e+001
 1.428628231261313e+000	 5.568586712756412e-001	 1.491981020856071e+001
 1.422650029986620e+000	 5.719590733564496e-001	 1.489336796679019e+001
 1.416498737301121e+000	 5.870278516030030e-001	 1.486468549893039e+001
 1.410174322794896e+000	 6.020621429102251e-001	 1.483354582231329e+001
 1.491135069356658e+000	 4.583430223207198e-001	 1.487541663146962e+001
 1.486279683158419e+000	 4.738510683077295e-001	 1.486027616704746e+001
 1.481250086007147e+000	 4.893468578788445e-001	 1.484597126174209e+001
 1.476045834163695e+000	 5.048276064791277e-001	 1.483189411351677e+001
 1.470666540282229e+000	 5.202905069701496e-001	 1.481749422111221e+001
 1.465111874333371e+000	 5.357327309837993e-001	 1.480227838128509e+001
 1.459381564490777e+000	 5.511514303145783e-001	 1.478581030782547e+001
 1.453475397979445e+000	 5.665437383493176e-001	 1.476770985866362e+001
 1.447393221884075e+000	 5.819067715331876e-001	 1.474765185954195e+001
 1.441134943915833e+000	 5.972376308707769e-001	 1.472536451508367e+001
 1.434700533135920e+000	 6.125334034609496e-001	 1.470062740062316e+001
 1.516626028282579e+000	 4.661783977965402e-001	 1.468949292525098e+001
 1.511687639241224e+000	 4.819515538809138e-001	 1.467934861803315e+001
 1.506572061109939e+000	 4.977122440259599e-001	 1.467007927091503e+001
 1.501278842563869e+000	 5.134576360747548e-001	 1.466106639737299e+001
 1.495807589635517e+000	 5.291848749008191e-001	 1.465175306273713e+001
 1.490157966653669e+000	 5.448910837850699e-001	 1.464164392011038e+001
 1.484329697145122e+000	 5.605733658319159e-001	 1.463030483002291e+001
 1.478322564697502e+000	 5.762288054234170e-001	 1.461736204822963e+001
 1.472136413781435e+000	 5.918544697103532e-001	 1.460250096843059e+001
 1.465771150530428e+000	 6.074474101389680e-001	 1.458546440927691e+001
 1.459226743476797e+000	 6.230046640120600e-001	 1.456605043780689e+001
 1.542116987208505e+000	 4.740137732725954e-001	 1.451304553774176e+001
 1.537095595323997e+000	 4.900520394543282e-001	 1.450709533715234e+001
 1.531894036212673e+000	 5.060776301733110e-001	 1.450197984666672e+001
 1.526511850963968e+000	 5.220876656706313e-001	 1.449708488041265e+001
 1.520948638988720e+000	 5.380792428317555e-001	 1.449186298135972e+001
 1.515204058973874e+000	 5.540494365866256e-001	 1.448583349307291e+001
 1.509277829799371e+000	 5.699953013495548e-001	 1.447858217275693e+001
 1.503169731415457e+000	 5.859138724978269e-001	 1.446976032789971e+001
 1.496879605678688e+000	 6.018021678878300e-001	 1.445908346141988e+001
 1.490407357144906e+000	 6.176571894074571e-001	 1.444632941305429e+001
 1.483752953817541e+000	 6.334759245634387e-001	 1.443133598777346e+001
 1.567607946134350e+000	 4.818491487488354e-001	 1.434602521784437e+001
 1.562503551406660e+000	 4.981525250279170e-001	 1.434359362999767e+001
 1.557216011315279e+000	 5.144430163208341e-001	 1.434188301295433e+001
 1.551744859363929e+000	 5.307176952666832e-001	 1.434029759208295e+001
 1.546089688341782e+000	 5.469736107628744e-001	 1.433831445298349e+001
 1.540250151293942e+000	 5.632077893883719e-001	 1.433548364863347e+001
 1.534225962453487e+000	 5.794172368673899e-001	 1.433142780078898e+001
 1.528016898133288e+000	 5.955989395724355e-001	 1.432584117563544e+001
 1.521622797575824e+000	 6.117498660655004e-001	 1.431848821652331e+001
 1.515043563759269e+000	 6.278669686761254e-001	 1.430920151972429e+001
 1.508279164158169e+000	 6.439471851149696e-001	 1.429787924249048e+001
 1.593098905060033e+000	 4.896845242252110e-001	 1.418844215969796e+001
 1.587911507489136e+000	 5.062530106016240e-001	 1.418896521067306e+001
 1.582537986417684e+000	 5.228084024684645e-001	 1.419002718178284e+001
 1.576977867763687e+000	 5.393477248628364e-001	 1.419106397272416e+001
 1.571230737694648e+000	 5.558679786940914e-001	 1.419159146095290e+001
 1.565296243613825e+000	 5.723661421902139e-001	 1.419120564627275e+001
 1.559174095107435e+000	 5.888391723853176e-001	 1.418958223785000e+001
 1.552864064850969e+000	 6.052840066471303e-001	 1.418647566110384e+001
 1.546365989472827e+000	 6.216975642432470e-001	 1.418171746502624e+001
 1.539679770373518e+000	 6.380767479448531e-001	 1.417521411387668e+001
 1.532805374498695e+000	 6.544184456665353e-001	 1.416694415086559e+001
 1.618589863985467e+000	 4.975198997016721e-001	 1.404035288418717e+001
 1.613319463571345e+000	 5.143534961753935e-001	 1.404336380332930e+001
 1.607859961519817e+000	 5.311737886161386e-001	 1.404666750784245e+001
 1.602210876163178e+000	 5.479777544590173e-001	 1.404974401036363e+001
 1.596371787047260e+000	 5.647623466253222e-001	 1.405216143992763e+001
 1.590342335933477e+000	 5.815244949920566e-001	 1.405357622863302e+001
 1.584122227761179e+000	 5.982611079032337e-001	 1.405373268390015e+001
 1.577711231568476e+000	 6.149690737218002e-001	 1.405246192097480e+001
 1.571109181369688e+000	 6.316452624209527e-001	 1.404968013372045e+001
 1.564315976987654e+000	 6.482865272135218e-001	 1.404538618544929e+001
 1.557331584839137e+000	 6.648897062180198e-001	 1.403965850555579e+001
 1.644080822910571e+000	 5.053552751781694e-001	 1.390184844853866e+001
 1.638727419653209e+000	 5.224539817491696e-001	 1.390696399764940e+001
 1.633181936621605e+000	 5.395391747637920e-001	 1.391206541830927e+001
 1.627443884562336e+000	 5.566077840551514e-001	 1.391668846955706e+001
 1.621512836399563e+000	 5.736567145564817e-001	 1.392046622478371e+001
 1.615388428252849e+000	 5.906828477938050e-001	 1.392312930779386e+001
 1.609070360414681e+000	 6.076830434210332e-001	 1.392450545239590e+001
 1.602558398285783e+000	 6.246541407963321e-001	 1.392451835710931e+001
 1.595852373266394e+000	 6.415929605985002e-001	 1.392318581027311e+001
 1.588952183601679e+000	 6.584963064820119e-001	 1.392061706488731e+001
 1.581857795179509e+000	 6.753609667693055e-001	 1.391714403083801e+001
 1.669571781835260e+000	 5.131906506546526e-001	 1.377304384205803e+001
 1.664135375734650e+000	 5.305544673228968e-001	 1.377995122426031e+001
 1.658503911722976e+000	 5.479045609113603e-001	 1.378647919220619e+001
 1.652676892961098e+000	 5.652378136511652e-001	 1.379223009555586e+001
 1.646653885751501e+000	 5.825510824874858e-001	 1.379691389703072e+001
 1.640434520571898e+000	 5.998412005953646e-001	 1.380034846797436e+001
 1.634018493067906e+000	 6.171049789386122e-001	 1.380245913991593e+001
 1.627405565002866e+000	 6.343392078706148e-001	 1.380327748036844e+001
 1.620595565162932e+000	 6.515406587757721e-001	 1.380293926512008e+001
 1.613588390215593e+000	 6.687060857502041e-001	 1.380168965584706e+001
 1.606384005519828e+000	 6.858322273202755e-001	 1.380042984962637e+001
 1.695062740759449e+000	 5.210260261310729e-001	 1.365406844313882e+001
 1.689543331815590e+000	 5.386549528965190e-001	 1.366251273217144e+001
 1.683825886823860e+000	 5.562699470587798e-001	 1.367015547883043e+001
 1.677909901359400e+000	 5.738678432469844e-001	 1.367667569112223e+001
 1.671794935103018e+000	 5.914454504182503e-001	 1.368187143425706e+001
 1.665480612890576e+000	 6.089995533966403e-001	 1.368566019870885e+001
 1.658966625720819e+000	 6.265269144558662e-001	 1.368807845104183e+001
 1.652252731719700e+000	 6.440242749445355e-001	 1.368928033206910e+001
 1.645338757059289e+000	 6.614883569526510e-001	 1.368953547128850e+001
 1.638224596829399e+000	 6.789158650179792e-001	 1.368950518510092e+001
 1.630910215860108e+000	 6.963034878708131e-001	 1.369014256329655e+001
 1.720553699683057e+000	 5.288614016073797e-001	 1.354505742747385e+001
 1.714951287895949e+000	 5.467554384699807e-001	 1.355482946431495e+001
 1.709147861924183e+000	 5.646353332059860e-001	 1.356332165785311e+001
 1.703142909757176e+000	 5.824978728425351e-001	 1.357029897548376e+001
 1.696935984454056e+000	 6.003398183486901e-001	 1.357565807931469e+001
 1.690526705208834e+000	 6.181579061975373e-001	 1.357942778273188e+001
 1.683914758373382e+000	 6.359488499726911e-001	 1.358176861052963e+001
 1.677099898436262e+000	 6.537093420179825e-001	 1.358297142317032e+001
 1.670081948955454e+000	 6.714360551290196e-001	 1.358350424870028e+001
 1.662860803443095e+000	 6.891256442852184e-001	 1.358466920518825e+001
 1.655436426200365e+000	 7.067747484208015e-001	 1.358681953621043e+001
 1.410174322794896e+000	 6.020621429102251e-001	 1.483354582231329e+001
 1.403677804762223e+000	 6.170568256895567e-001	 1.479982806180571e+001
 1.397008340587419e+000	 6.320112737763580e-001	 1.476347526169500e+001
 1.390166085595247e+000	 6.469225945203410e-001	 1.472444152667632e+001
 1.383151257758930e+000	 6.617878879772692e-001	 1.468271226507724e+001
 1.375964138175143e+000	 6.766042485600980e-001	 1.463863399137381e+001
 1.368605071488112e+000	 6.913687667140009e-001	 1.459321844405294e+001
 1.361074466261638e+000	 7.060785306134998e-001	 1.454641849167638e+001
 1.353372795297909e+000	 7.207306278798588e-001	 1.449816593845999e+001
 1.345500595902037e+000	 7.353221473168309e-001	 1.444845751368770e+001
 1.337458470091355e+000	 7.498501806627992e-001	 1.439735468155667e+001
 1.434700533135920e+000	 6.125334034609496e-001	 1.470062740062315e+001
 1.428091025549134e+000	 6.277888786388085e-001	 1.467320861889706e+001
 1.421305563884740e+000	 6.430034193492565e-001	 1.464296306125708e+001
 1.414344306168952e+000	 6.581740826320960e-001	 1.460987653426627e+001
 1.407207474166046e+000	 6.732979181063208e-001	 1.457409682064265e+001
 1.399895353861612e+000	 6.883719696499762e-001	 1.453658185476022e+001
 1.392408295894034e+000	 7.033932771043161e-001	 1.449737040797938e+001
 1.384746715932977e+000	 7.183588780004510e-001	 1.445633724008410e+001
 1.376911095003750e+000	 7.332658093066117e-001	 1.441342351427186e+001
 1.368901979756440e+000	 7.481111091940828e-001	 1.436863666431419e+001
 1.360719982678854e+000	 7.628918188198210e-001	 1.432205011796090e+001
 1.459226743476797e+000	 6.230046640120600e-001	 1.456605043780689e+001
 1.452504246335858e+000	 6.385209315883907e-001	 1.454392574152236e+001
 1.445602787181828e+000	 6.539955649224103e-001	 1.451885639722026e+001
 1.438522526742372e+000	 6.694255707440152e-001	 1.449088744674586e+001
 1.431263690572821e+000	 6.848079482354360e-001	 1.446080666504283e+001
 1.423826569547684e+000	 7.001396907398114e-001	 1.442883272138494e+001
 1.416211520299499e+000	 7.154177874944817e-001	 1.439478639015960e+001
 1.408418965603801e+000	 7.306392253871504e-001	 1.435855637146024e+001
 1.400449394709020e+000	 7.458009907330198e-001	 1.432009921250361e+001
 1.392303363610223e+000	 7.609000710709126e-001	 1.427943908173232e+001
 1.383981495265687e+000	 7.759334569763623e-001	 1.423666739593893e+001
 1.483752953817541e+000	 6.334759245634387e-001	 1.443133598777346e+001
 1.476917467122426e+000	 6.492529845381935e-001	 1.441367517487125e+001
 1.469900010478730e+000	 6.649877104957207e-001	 1.439302129642797e+001
 1.462700747315571e+000	 6.806770588560148e-001	 1.436986726085227e+001
 1.455319906979337e+000	 6.963179783645462e-001	 1.434471638341173e+001
 1.447757785233454e+000	 7.119074118295532e-001	 1.431734545587744e+001
 1.440014744704620e+000	 7.274422978844638e-001	 1.428759369558684e+001
 1.432091215274238e+000	 7.429195727735805e-001	 1.425536980102198e+001
 1.423987694413863e+000	 7.583361721590805e-001	 1.422065177376702e+001
 1.415704747463540e+000	 7.736890329473285e-001	 1.418348658967784e+001
 1.407243007852022e+000	 7.889750951324395e-001	 1.414398971987277e+001
 1.508279164158169e+000	 6.439471851149696e-001	 1.429787924249047e+001
 1.501330687908871e+000	 6.599850374881072e-001	 1.428400270987006e+001
 1.494197233775495e+000	 6.759798560690888e-001	 1.426732248068785e+001
 1.486878967888614e+000	 6.919285469680094e-001	 1.424853672195838e+001
 1.479376123385674e+000	 7.078280084935837e-001	 1.422747113694154e+001
 1.471689000919019e+000	 7.236751329191495e-001	 1.420391828814035e+001
 1.463817969109509e+000	 7.394668082742286e-001	 1.417774192659262e+001
 1.455763464944417e+000	 7.551999201597244e-001	 1.414887685921258e+001
 1.447525994118420e+000	 7.708713535847911e-001	 1.411732866137010e+001
 1.439106131316547e+000	 7.864779948233396e-001	 1.408317323522977e+001
 1.430504520438026e+000	 8.020167332880692e-001	 1.404655621474629e+001
 1.532805374498695e+000	 6.544184456665353e-001	 1.416694415086559e+001
 1.525743908695221e+000	 6.707170904380221e-001	 1.415633160764478e+001
 1.518494457072168e+000	 6.869720016424158e-001	 1.414342982497773e+001
 1.511057188461564e+000	 7.031800350799156e-001	 1.412826156586978e+001
 1.503432339791911e+000	 7.193380386224789e-001	 1.411057538454503e+001
 1.495620216604477e+000	 7.354428540085495e-001	 1.409019281970392e+001
 1.487621193514280e+000	 7.514913186637426e-001	 1.406700830517803e+001
 1.479435714614465e+000	 7.674802675455639e-001	 1.404098892165931e+001
 1.471064293822835e+000	 7.834065350101487e-001	 1.401217398994949e+001
 1.462507515169399e+000	 7.992669566989543e-001	 1.398067450655471e+001
 1.453766033023863e+000	 8.150583714432671e-001	 1.394667242282743e+001
 1.557331584839137e+000	 6.648897062180198e-001	 1.403965850555579e+001
 1.550157129481510e+000	 6.814491433878281e-001	 1.403216359134787e+001
 1.542791680368797e+000	 6.979641472156026e-001	 1.402246768926675e+001
 1.535235409034484e+000	 7.144315231916467e-001	 1.401028439273472e+001
 1.527488556198130e+000	 7.308480687511643e-001	 1.399539556828561e+001
 1.519551432289924e+000	 7.472105750977021e-001	 1.397765791819213e+001
 1.511424417919046e+000	 7.635158290529713e-001	 1.395700276948655e+001
 1.503107964284511e+000	 7.797606149310815e-001	 1.393343570006093e+001
 1.494602593527250e+000	 7.959417164351503e-001	 1.390703600261050e+001
 1.485908899022251e+000	 8.120559185741814e-001	 1.387795598756464e+001
 1.477027545609700e+000	 8.281000095980498e-001	 1.384642012653064e+001
 1.581857795179509e+000	 6.753609667693055e-001	 1.391714403083801e+001
 1.574570350267767e+000	 6.921811963374154e-001	 1.391249981482171e+001
 1.567088903665430e+000	 7.089562927885510e-001	 1.390544571471580e+001
 1.559413629607439e+000	 7.256830113031196e-001	 1.389572624232654e+001
 1.551544772604411e+000	 7.423580988795706e-001	 1.388316280130973e+001
 1.543482647975457e+000	 7.589782961865557e-001	 1.386765351204643e+001
 1.535227642323919e+000	 7.755403394418811e-001	 1.384917286893445e+001
 1.526780213954683e+000	 7.920409623162606e-001	 1.382777123080740e+001
 1.518140893231805e+000	 8.084768978597926e-001	 1.380357414558047e+001
 1.509310282875257e+000	 8.248448804490293e-001	 1.377678151060508e+001
 1.500289058195704e+000	 8.411416477524337e-001	 1.374766657059483e+001
 1.606384005519828e+000	 6.858322273202755e-001	 1.380042984962637e+001
 1.598983571054024e+000	 7.029132492866742e-001	 1.379814317941205e+001
 1.591386126962114e+000	 7.199484383611616e-001	 1.379326655005734e+001
 1.583591850180492e+000	 7.369344994142485e-001	 1.378558826342962e+001
 1.575600989010834e+000	 7.538681290076297e-001	 1.377497555801710e+001
 1.567413863661173e+000	 7.707460172750592e-001	 1.376137429617037e+001
 1.559030866729011e+000	 7.875648498304384e-001	 1.374480847952079e+001
 1.550452463625109e+000	 8.043213097010835e-001	 1.372537959364031e+001
 1.541679192936645e+000	 8.210120792840735e-001	 1.370326578339453e+001
 1.532711666728574e+000	 8.376338423235071e-001	 1.367872086082540e+001
 1.523550570782039e+000	 8.541832859064347e-001	 1.365207314777866e+001
 1.630910215860108e+000	 6.963034878708131e-001	 1.369014256329655e+001
 1.623396791840312e+000	 7.136453022354945e-001	 1.368980250482148e+001
 1.615683350258895e+000	 7.309405839333362e-001	 1.368672666223990e+001
 1.607770070753706e+000	 7.481859875249499e-001	 1.368075346742464e+001
 1.599657205417479e+000	 7.653781591352729e-001	 1.367180236623572e+001
 1.591345079347169e+000	 7.825137383631615e-001	 1.365987335787494e+001
 1.582834091134438e+000	 7.995893602186089e-001	 1.364504635824886e+001
 1.574124713295916e+000	 8.166016570855325e-001	 1.362748038877545e+001
 1.565217492641910e+000	 8.335472607079892e-001	 1.360741259245745e+001
 1.556113050582355e+000	 8.504228041976233e-001	 1.358515707942811e+001
 1.546812083368873e+000	 8.672249240600691e-001	 1.356110360455169e+001
 1.655436426200365e+000	 7.067747484208015e-001	 1.358681953621043e+001
 1.647810012626662e+000	 7.243773551837666e-001	 1.358809261696662e+001
 1.639980573555821e+000	 7.419327295049750e-001	 1.358651729663121e+001
 1.631948291327146e+000	 7.594374756351381e-001	 1.358198855734395e+001
 1.623713421824428e+000	 7.768881892624318e-001	 1.357448450119636e+001
 1.615276295033541e+000	 7.942814594508108e-001	 1.356406573139316e+001
 1.606637315540310e+000	 8.116138706063588e-001	 1.355087455334802e+001
 1.597796962967233e+000	 8.288820044695900e-001	 1.353513399753990e+001
 1.588755792347744e+000	 8.460824421315374e-001	 1.351714666634005e+001
 1.579514434436757e+000	 8.632117660713863e-001	 1.349729340740021e+001
 1.570073595956371e+000	 8.802665622133531e-001	 1.347603181656502e+001
 1.337458470091355e+000	 7.498501806627992e-001	 1.439735468155667e+001
 1.329245840436585e+000	 7.643139888338925e-001	 1.434305059704362e+001
 1.320864633725284e+000	 7.787084898909863e-001	 1.428368003124230e+001
 1.312315648248289e+000	 7.930307945938002e-001	 1.421959747418231e+001
 1.303599747304523e+000	 8.072780238044294e-001	 1.415127596450982e+001
 1.294717859120681e+000	 8.214473102909055e-001	 1.407925423345335e+001
 1.285670976711511e+000	 8.355358005343190e-001	 1.400413495938177e+001
 1.276460157680332e+000	 8.495406565372456e-001	 1.392658278903940e+001
 1.267086523959526e+000	 8.634590576311911e-001	 1.384732212847002e+001
 1.257551261490825e+000	 8.772882022807448e-001	 1.376713470785359e+001
 1.247855619845356e+000	 8.910253098821287e-001	 1.368685692570789e+001
 1.360719982678854e+000	 7.628918188198210e-001	 1.432205011796090e+001
 1.352364516298867e+000	 7.776071862455712e-001	 1.427198908972831e+001
 1.343837540915351e+000	 7.922520411454743e-001	 1.421702941999390e+001
 1.335139868703277e+000	 8.068234440286459e-001	 1.415770141922365e+001
 1.326272377976344e+000	 8.213184656822810e-001	 1.409438015098595e+001
 1.317236013105266e+000	 8.357341890065820e-001	 1.402717081116943e+001
 1.308031784375627e+000	 8.500677108533137e-001	 1.395663476362253e+001
 1.298660767784929e+000	 8.643161438656802e-001	 1.388341121245004e+001
 1.289124104778561e+000	 8.784766183172061e-001	 1.380820035302153e+001
 1.279423001924546e+000	 8.925462839472680e-001	 1.373176085586114e+001
 1.269558730526953e+000	 9.065223117909244e-001	 1.365490711593038e+001
 1.383981495265687e+000	 7.759334569763623e-001	 1.423666739593893e+001
 1.375483192160448e+000	 7.909003836567355e-001	 1.419018582465613e+001
 1.366810448104690e+000	 8.057955923994365e-001	 1.413861593523033e+001
 1.357964089157520e+000	 8.206160934629744e-001	 1.408246270775997e+001
 1.348945008647412e+000	 8.353589075596423e-001	 1.402230118395087e+001
 1.339754167089103e+000	 8.500210677218105e-001	 1.395877511781826e+001
 1.330392592039014e+000	 8.645996211719168e-001	 1.389254938000976e+001
 1.320861377888824e+000	 8.790916311937895e-001	 1.382366188027377e+001
 1.311161685596942e+000	 8.934941790029700e-001	 1.375256557339818e+001
 1.301294742357672e+000	 9.078043656136202e-001	 1.367999102475685e+001
 1.291261841208033e+000	 9.220193136996339e-001	 1.360672562494097e+001
 1.407243007852022e+000	 7.889750951324395e-001	 1.414398971987276e+001
 1.398601868021504e+000	 8.041935810674046e-001	 1.410063488326021e+001
 1.389783355293484e+000	 8.193391436528903e-001	 1.405207900861792e+001
 1.380788309611204e+000	 8.344087428967988e-001	 1.399879847222227e+001
 1.371617639317917e+000	 8.493993494365163e-001	 1.394133978989647e+001
 1.362272321072382e+000	 8.643079464365843e-001	 1.388031823930300e+001
 1.352753399701856e+000	 8.791315314901060e-001	 1.381641633446509e+001
 1.343061987992202e+000	 8.938671185215372e-001	 1.375038215592520e+001
 1.333199266414842e+000	 9.085117396884315e-001	 1.368302747706099e+001
 1.323166482790366e+000	 9.230624472797352e-001	 1.361456669229930e+001
 1.312964951888743e+000	 9.375163156081745e-001	 1.354518005130043e+001
 1.430504520438026e+000	 8.020167332880692e-001	 1.404655621474629e+001
 1.421720543882209e+000	 8.174867784775972e-001	 1.400601672091614e+001
 1.412756262481913e+000	 8.328826949058532e-001	 1.396023468015869e+001
 1.403612530064516e+000	 8.482013923301295e-001	 1.390965506505748e+001
 1.394290269988049e+000	 8.634397913129076e-001	 1.385479285313244e+001
 1.384790475055293e+000	 8.785948251508936e-001	 1.379623162789472e+001
 1.375114207364341e+000	 8.936634418078612e-001	 1.373462203328423e+001
 1.365262598095244e+000	 9.086426058488870e-001	 1.367068008499424e+001
 1.355236847232436e+000	 9.235293003735394e-001	 1.360518534254805e+001
 1.345038223222794e+000	 9.383205289455455e-001	 1.353897894634365e+001
 1.334668062569236e+000	 9.530133175164640e-001	 1.347296152422687e+001
 1.453766033023863e+000	 8.150583714432671e-001	 1.394667242282743e+001
 1.444839219742738e+000	 8.307799758873322e-001	 1.390876352080296e+001
 1.435729169670161e+000	 8.464262461583426e-001	 1.386563649619110e+001
 1.426436750517643e+000	 8.619940417629793e-001	 1.381770256590222e+001
 1.416962900657996e+000	 8.774802331888183e-001	 1.376544260719129e+001
 1.407308629038024e+000	 8.928817038647321e-001	 1.370940574435355e+001
 1.397475015026658e+000	 9.081953521251606e-001	 1.365020779054976e+001
 1.387463208198132e+000	 9.234180931758035e-001	 1.358852954834197e+001
 1.377274428049897e+000	 9.385468610582414e-001	 1.352511497286827e+001
 1.366909963655117e+000	 9.535786106109834e-001	 1.346076920192520e+001
 1.356371173249662e+000	 9.685103194244188e-001	 1.339635645755974e+001
 1.477027545609700e+000	 8.281000095980498e-001	 1.384642012653064e+001
 1.467957895603269e+000	 8.440731732966297e-001	 1.381107016364089e+001
 1.458702076858409e+000	 8.599697974103759e-001	 1.377058759376640e+001
 1.449260970970774e+000	 8.757866911953607e-001	 1.372534794999085e+001
 1.439635531327948e+000	 8.915206750642531e-001	 1.367579587327826e+001
 1.429826783020764e+000	 9.071685825780912e-001	 1.362244369143190e+001
 1.419835822688992e+000	 9.227272624419833e-001	 1.356586985552692e+001
 1.409663818301048e+000	 9.381935805022503e-001	 1.350671723745133e+001
 1.399312008867401e+000	 9.535644217424862e-001	 1.344569129252400e+001
 1.388781704087501e+000	 9.688366922759818e-001	 1.338355809148418e+001
 1.378074283930169e+000	 9.840073213319565e-001	 1.332114222646660e+001
 1.500289058195704e+000	 8.411416477524337e-001	 1.374766657059484e+001
 1.491076571463974e+000	 8.573663707055079e-001	 1.371490449989421e+001
 1.481674984046840e+000	 8.735133486619710e-001	 1.367715199349482e+001
 1.472085191424092e+000	 8.895793406272853e-001	 1.363474737371859e+001
 1.462308161998096e+000	 9.055611169392152e-001	 1.358809731210810e+001
 1.452344937003705e+000	 9.214554612909638e-001	 1.353767540705219e+001
 1.442196630351531e+000	 9.372591727583075e-001	 1.348402062183090e+001
 1.431864428404175e+000	 9.529690678281921e-001	 1.342773558674535e+001
 1.421349589685121e+000	 9.685819824262228e-001	 1.336948476931504e+001
 1.410653444520109e+000	 9.840947739404726e-001	 1.330999251683584e+001
 1.399777394610910e+000	 9.995043232389941e-001	 1.325004097589537e+001
 1.523550570782039e+000	 8.541832859064347e-001	 1.365207314777866e+001
 1.514195247325030e+000	 8.706595681139867e-001	 1.362201699899251e+001
 1.504647891235637e+000	 8.870568999131453e-001	 1.358716518546044e+001
 1.494909411877786e+000	 9.033719900587658e-001	 1.354781767171848e+001
 1.484980792668627e+000	 9.196015588137074e-001	 1.350434180793714e+001
 1.474863090987035e+000	 9.357423400033413e-001	 1.345717091243600e+001
 1.464557438014463e+000	 9.517910830741133e-001	 1.340680271816933e+001
 1.454065038507695e+000	 9.677445551535925e-001	 1.335379768685543e+001
 1.443387170503232e+000	 9.835995431093989e-001	 1.329877719472027e+001
 1.432525184953105e+000	 9.993528556043894e-001	 1.324242159411771e+001
 1.421480505292035e+000	 1.015001325145448e+000	 1.318546190089633e+001
 1.546812083368873e+000	 8.672249240600691e-001	 1.356110360455169e+001
 1.537313923186611e+000	 8.839527655220844e-001	 1.353394984115378e+001
 1.527620798424980e+000	 9.006004511639166e-001	 1.350224408262629e+001
 1.517733632332045e+000	 9.171646394898142e-001	 1.346624714845824e+001
 1.507653423339732e+000	 9.336420006877338e-001	 1.342628607614588e+001
 1.497381244970945e+000	 9.500292187152165e-001	 1.338275271467257e+001
 1.486918245677973e+000	 9.663229933893789e-001	 1.333610218612401e+001
 1.476265648611788e+000	 9.825200424784152e-001	 1.328685121909366e+001
 1.465424751321909e+000	 9.986171037919636e-001	 1.323557635780861e+001
 1.454396925386652e+000	 1.014610937267664e+000	 1.318290559047323e+001
 1.443183615973692e+000	 1.030498327051237e+000	 1.312954310744974e+001
 1.570073595956371e+000	 8.802665622133531e-001	 1.347603181656502e+001
 1.560432599048893e+000	 8.972459629298201e-001	 1.345204550962037e+001
 1.550593705615053e+000	 9.141440024143018e-001	 1.342379640732958e+001
 1.540557852787053e+000	 9.309572889204422e-001	 1.339150573752540e+001
 1.530326054011600e+000	 9.476824425612982e-001	 1.335545957490095e+001
 1.519899398955622e+000	 9.643160974265813e-001	 1.331600745142188e+001
 1.509279053342250e+000	 9.808549037040832e-001	 1.327356083965789e+001
 1.498466258716638e+000	 9.972955298026253e-001	 1.322859151264350e+001
 1.487462332141325e+000	 1.013634664473865e+000	 1.318162306315697e+001
 1.476268665820915e+000	 1.029869018930230e+000	 1.313325692314562e+001
 1.464886726656035e+000	 1.045995328956277e+000	 1.308412689950213e+001
 1.247855619845356e+000	 8.910253098821287e-001	 1.368685692570789e+001
 1.238000911431365e+000	 9.046676222522668e-001	 1.360186790695074e+001
 1.227988509947546e+000	 9.182124044861021e-001	 1.350760981757269e+001
 1.217819850897685e+000	 9.316569475974836e-001	 1.340508920360735e+001
 1.207496431328260e+000	 9.449985705706222e-001	 1.329535833292457e+001
 1.197019809152552e+000	 9.582346220975362e-001	 1.317951172649068e+001
 1.186391602416226e+000	 9.713624822960131e-001	 1.305868252630632e+001
 1.175613488505012e+000	 9.843795644057990e-001	 1.293403871336280e+001
 1.164687203295262e+000	 9.972833164607426e-001	 1.280677918999843e+001
 1.153614540248222e+000	 1.010071222934661e+000	 1.267812974201207e+001
 1.142397349448981e+000	 1.022740806358721e+000	 1.254933367682818e+001
 1.269558730526953e+000	 9.065223117909244e-001	 1.365490711593038e+001
 1.259532625819865e+000	 9.204018956938826e-001	 1.357304952440390e+001
 1.249346085393796e+000	 9.341822531847159e-001	 1.348172275548057e+001
 1.239000569719292e+000	 9.478606281616909e-001	 1.338201029842019e+001
 1.228497601879960e+000	 9.614342929799052e-001	 1.327504962164525e+001
 1.217838766884827e+000	 9.749005502189512e-001	 1.316202841039599e+001
 1.207025710921144e+000	 9.882567344307589e-001	 1.304418061481373e+001
 1.196060140548291e+000	 1.001500213865284e+000	 1.292278232278652e+001
 1.184943821833556e+000	 1.014628392171736e+000	 1.279914197126580e+001
 1.173678579430655e+000	 1.027638710073067e+000	 1.267461845545933e+001
 1.162266295601971e+000	 1.040528647011485e+000	 1.255058191476927e+001
 1.291261841208033e+000	 9.220193136996339e-001	 1.360672562494097e+001
 1.281064340207937e+000	 9.361361691354979e-001	 1.352832258167079e+001
 1.270703660839725e+000	 9.501521018834153e-001	 1.344050697601473e+001
 1.260181288540694e+000	 9.640643087260686e-001	 1.334441248770368e+001
 1.249498772431579e+000	 9.778700153894411e-001	 1.324123330626164e+001
 1.238657724617147e+000	 9.915664783406997e-001	 1.313222010750157e+001
 1.227659819426233e+000	 1.005150986565915e+000	 1.301867581634772e+001
 1.216506792591863e+000	 1.018620863325253e+000	 1.290194582228507e+001
 1.205200440372256e+000	 1.031973467883280e+000	 1.278343532663556e+001
 1.193742618613598e+000	 1.045206197212084e+000	 1.266457070656316e+001
 1.182135241755561e+000	 1.058316487664915e+000	 1.254681780218013e+001
 1.312964951888743e+000	 9.375163156081745e-001	 1.354518005130043e+001
 1.302596054595719e+000	 9.518704425770157e-001	 1.347064328292346e+001
 1.292061236285450e+000	 9.661219505820891e-001	 1.338693858502902e+001
 1.281362007361988e+000	 9.802679892904926e-001	 1.329522464164774e+001
 1.270499942983189e+000	 9.943057377990964e-001	 1.319672553558730e+001
 1.259476682349561e+000	 1.008232406462639e+000	 1.309272649467128e+001
 1.248293927931518e+000	 1.022045238701331e+000	 1.298456415352032e+001
 1.236953444635727e+000	 1.035741512785547e+000	 1.287364344209902e+001
 1.225457058911340e+000	 1.049318543595212e+000	 1.276139931479046e+001
 1.213806657797006e+000	 1.062773684351548e+000	 1.264931457925297e+001
 1.202004187909683e+000	 1.076104328318845e+000	 1.253890872716156e+001
 1.334668062569236e+000	 9.530133175164640e-001	 1.347296152422688e+001
 1.324127768983342e+000	 9.676047160183384e-001	 1.340276873249469e+001
 1.313418811731085e+000	 9.820917992806264e-001	 1.332378891613199e+001
 1.302542726183266e+000	 9.964716698548412e-001	 1.323716913894670e+001
 1.291501113534862e+000	 1.010741460208736e+000	 1.314413220497412e+001
 1.280295640082116e+000	 1.024898334584624e+000	 1.304598358474575e+001
 1.268928036437022e+000	 1.038939490836855e+000	 1.294406915134850e+001
 1.257400096679886e+000	 1.052862162246009e+000	 1.283979605796238e+001
 1.245713677450784e+000	 1.066663619307370e+000	 1.273462089973069e+001
 1.233870696980834e+000	 1.080341171491293e+000	 1.263004434294920e+001
 1.221873134064270e+000	 1.093892168973107e+000	 1.252760557561769e+001
 1.356371173249662e+000	 9.685103194244188e-001	 1.339635645755974e+001
 1.345659483370942e+000	 9.833389894593683e-001	 1.332840202055385e+001
 1.334776387176746e+000	 9.980616479789166e-001	 1.325367111393040e+001
 1.323723445004623e+000	 1.012675350418990e+000	 1.317278644158328e+001
 1.312502284086669e+000	 1.027177182618228e+000	 1.308590355712752e+001
 1.301114597814863e+000	 1.041564262706513e+000	 1.299427495250298e+001
 1.289562144942771e+000	 1.055833742972335e+000	 1.289923713464329e+001
 1.277846748724338e+000	 1.069982811706480e+000	 1.280218249775125e+001
 1.265970295990567e+000	 1.084008695019590e+000	 1.270455392602223e+001
 1.253934736165034e+000	 1.097908658631153e+000	 1.260783918014916e+001
 1.241742080219257e+000	 1.111680009627535e+000	 1.251356509053187e+001
 1.378074283930169e+000	 9.840073213319565e-001	 1.332114222646660e+001
 1.367191197758651e+000	 9.990732629000088e-001	 1.325526015185428e+001
 1.356133962622547e+000	 1.014031496676848e+000	 1.318295953281653e+001
 1.344904163826153e+000	 1.028879030982817e+000	 1.310553267620120e+001
 1.333503454638684e+000	 1.043612905027437e+000	 1.302432552147800e+001
 1.321933555547847e+000	 1.058230190828161e+000	 1.293972657170632e+001
 1.310196253448788e+000	 1.072727995107619e+000	 1.285198769044888e+001
 1.298293400769084e+000	 1.087103461166803e+000	 1.276245970608861e+001
 1.286226914530665e+000	 1.101353770731710e+000	 1.267254402274879e+001
 1.273998775349563e+000	 1.115476145770962e+000	 1.258368646972252e+001
 1.261611026374577e+000	 1.129467850281964e+000	 1.249737127043972e+001
 1.399777394610910e+000	 9.995043232389941e-001	 1.325004097589537e+001
 1.388722912146604e+000	 1.014807536340161e+000	 1.318670281612790e+001
 1.377491538068603e+000	 1.030001345374311e+000	 1.311729322851559e+001
 1.366084882647951e+000	 1.045082711546199e+000	 1.304301890891954e+001
 1.354504625190976e+000	 1.060048627436228e+000	 1.296516397356666e+001
 1.342752513281119e+000	 1.074896118949426e+000	 1.288508012039601e+001
 1.330830361955098e+000	 1.089622247242557e+000	 1.280413359927311e+001
 1.318740052814125e+000	 1.104224110626819e+000	 1.272218768618312e+001
 1.306483533071053e+000	 1.118698846443567e+000	 1.263985232497162e+001
 1.294062814534374e+000	 1.133043632910555e+000	 1.255850403906108e+001
 1.281479972530163e+000	 1.147255690936225e+000	 1.247955591137469e+001
 1.421480505292035e+000	 1.015001325145448e+000	 1.318546190089633e+001
 1.410254626534935e+000	 1.030541809779729e+000	 1.312520073840357e+001
 1.398849113515031e+000	 1.045971194071194e+000	 1.305911910093407e+001
 1.387265601470110e+000	 1.061286392109012e+000	 1.298834520904262e+001
 1.375505795743619e+000	 1.076484349844469e+000	 1.291407325287831e+001
 1.363571471014728e+000	 1.091562047070162e+000	 1.283756066161530e+001
 1.351464470461726e+000	 1.106516499376995e+000	 1.276012525529302e+001
 1.339186704859462e+000	 1.121344760086371e+000	 1.268314228553724e+001
 1.326740151611712e+000	 1.136043922155000e+000	 1.260767813907365e+001
 1.314126853719423e+000	 1.150611120049767e+000	 1.253316149528345e+001
 1.301348918685950e+000	 1.165043531590152e+000	 1.246061838382375e+001
 1.443183615973692e+000	 1.030498327051237e+000	 1.312954310744974e+001
 1.431786340923777e+000	 1.046276083218614e+000	 1.307290764063890e+001
 1.420206688961944e+000	 1.061941042767387e+000	 1.301058986194878e+001
 1.408446320292726e+000	 1.077490072671134e+000	 1.294361387957670e+001
 1.396506966296683e+000	 1.092920072252025e+000	 1.287306379377467e+001
 1.384390428748719e+000	 1.108227975190228e+000	 1.280008108805341e+001
 1.372098578968696e+000	 1.123410751510783e+000	 1.272586191541377e+001
 1.359633356905096e+000	 1.138465409545300e+000	 1.265165428578842e+001
 1.346996770152616e+000	 1.153388997865844e+000	 1.257875516114275e+001
 1.334190892904664e+000	 1.168178607188431e+000	 1.250850746493952e+001
 1.321217864841871e+000	 1.182831372243579e+000	 1.244104472521750e+001
 1.464886726656035e+000	 1.045995328956277e+000	 1.308412689950213e+001
 1.453318055313267e+000	 1.062010356656721e+000	 1.303170247463000e+001
 1.441564264409459e+000	 1.077910891462778e+000	 1.297357321192425e+001
 1.429627039115892e+000	 1.093693753232441e+000	 1.291064147131008e+001
 1.417508136850241e+000	 1.109355794658762e+000	 1.284386212032121e+001
 1.405209386483143e+000	 1.124893903309479e+000	 1.277424008078665e+001
 1.392732687476031e+000	 1.140305003643769e+000	 1.270282778614254e+001
 1.380080008951025e+000	 1.155586059003449e+000	 1.263072255518279e+001
 1.367253388693743e+000	 1.170734073575937e+000	 1.255906388828822e+001
 1.354254932090051e+000	 1.185746094326382e+000	 1.248903069239627e+001
 1.341086810997859e+000	 1.200619212896339e+000	 1.242183844118356e+001
 1.142397349448981e+000	 1.022740806358721e+000	 1.254933367682818e+001
 1.131039251243886e+000	 1.035287756015926e+000	 1.241803509381596e+001
 1.119540534113932e+000	 1.047711586446118e+000	 1.228136841253946e+001
 1.107903211781769e+000	 1.060009945786597e+000	 1.213990441219307e+001
 1.096129350166033e+000	 1.072180526369110e+000	 1.199419755351098e+001
 1.084221066161063e+000	 1.084221066161063e+000	 1.184478301453576e+001
 1.072180526369110e+000	 1.096129350166033e+000	 1.169217377679216e+001
 1.060009945786597e+000	 1.107903211781769e+000	 1.153685777874418e+001
 1.047711586446118e+000	 1.119540534113931e+000	 1.137929515340565e+001
 1.035287756015926e+000	 1.131039251243886e+000	 1.121991556685727e+001
 1.022740806358721e+000	 1.142397349448981e+000	 1.105911567418961e+001
 1.162266295601971e+000	 1.040528647011485e+000	 1.255058191476927e+001
 1.150710653660097e+000	 1.053293817296594e+000	 1.242422777709240e+001
 1.139011947103368e+000	 1.065933727024969e+000	 1.229218176183937e+001
 1.127172224677734e+000	 1.078445983429568e+000	 1.215502778841349e+001
 1.115193588232937e+000	 1.090828238706443e+000	 1.201333106785887e+001
 1.103078191481013e+000	 1.103078191481013e+000	 1.186763491477520e+001
 1.090828238706443e+000	 1.115193588232937e+000	 1.171845761153543e+001
 1.078445983429568e+000	 1.127172224677734e+000	 1.156628934316996e+001
 1.065933727024969e+000	 1.139011947103367e+000	 1.141158922129650e+001
 1.053293817296594e+000	 1.150710653660097e+000	 1.125478241537487e+001
 1.040528647011485e+000	 1.162266295601971e+000	 1.109625740933870e+001
 1.182135241755561e+000	 1.058316487664915e+000	 1.254681780218013e+001
 1.170382056076979e+000	 1.071299878577974e+000	 1.242680910836427e+001
 1.158483360093529e+000	 1.084155867604568e+000	 1.230058910010608e+001
 1.146441237574461e+000	 1.096882021073315e+000	 1.216880335789645e+001
 1.134257826300627e+000	 1.109475951044568e+000	 1.203207750318258e+001
 1.121935316801759e+000	 1.121935316801759e+000	 1.189101367751524e+001
 1.109475951044568e+000	 1.134257826300627e+000	 1.174618707332831e+001
 1.096882021073315e+000	 1.146441237574461e+000	 1.159814253650729e+001
 1.084155867604569e+000	 1.158483360093528e+000	 1.144739126095893e+001
 1.071299878577974e+000	 1.170382056076979e+000	 1.129440759531640e+001
 1.058316487664915e+000	 1.182135241755561e+000	 1.113962598170158e+001
 1.202004187909683e+000	 1.076104328318845e+000	 1.253890872716156e+001
 1.190053458494446e+000	 1.089305939859901e+000	 1.242617437950552e+001
 1.177954773084311e+000	 1.102378008184754e+000	 1.230655315480197e+001
 1.165710250471834e+000	 1.115318058717681e+000	 1.218079871801342e+001
 1.153322064368973e+000	 1.128123663383335e+000	 1.204964463765084e+001
 1.140792442123158e+000	 1.140792442123159e+000	 1.191380042433308e+001
 1.128123663383335e+000	 1.153322064368974e+000	 1.177394761770823e+001
 1.115318058717681e+000	 1.165710250471834e+000	 1.163073594400139e+001
 1.102378008184755e+000	 1.177954773084311e+000	 1.148477956655735e+001
 1.089305939859901e+000	 1.190053458494445e+000	 1.133665345170147e+001
 1.076104328318845e+000	 1.202004187909682e+000	 1.118688987205024e+001
 1.221873134064270e+000	 1.093892168973107e+000	 1.252760557561769e+001
 1.209724860912411e+000	 1.107312001142208e+000	 1.242262549726268e+001
 1.197426186075614e+000	 1.120600148765364e+000	 1.230996356208761e+001
 1.184979263369735e+000	 1.133754096362508e+000	 1.219052601049598e+001
 1.172386302437845e+000	 1.146771375722591e+000	 1.206519993983489e+001
 1.159649567445070e+000	 1.159649567445070e+000	 1.193484879543498e+001
 1.146771375722591e+000	 1.172386302437845e+000	 1.180030790410469e+001
 1.133754096362508e+000	 1.184979263369735e+000	 1.166238007476967e+001
 1.120600148765365e+000	 1.197426186075614e+000	 1.152183129110798e+001
 1.107312001142208e+000	 1.209724860912411e+000	 1.137938652103149e+001
 1.093892168973107e+000	 1.221873134064270e+000	 1.123572566769977e+001
 1.241742080219257e+000	 1.111680009627535e+000	 1.251356509053187e+001
 1.229396263330790e+000	 1.125318062424731e+000	 1.241639122105146e+001
 1.216897599067334e+000	 1.138822289346235e+000	 1.231065517640016e+001
 1.204248276268046e+000	 1.152190134007636e+000	 1.219745848379018e+001
 1.191450540507111e+000	 1.165419088062188e+000	 1.207788555241118e+001
 1.178506692767354e+000	 1.178506692767354e+000	 1.195299851071551e+001
 1.165419088062188e+000	 1.191450540507110e+000	 1.182383207756895e+001
 1.152190134007636e+000	 1.204248276268045e+000	 1.169138849470301e+001
 1.138822289346235e+000	 1.216897599067333e+000	 1.155663254813473e+001
 1.125318062424731e+000	 1.229396263330790e+000	 1.142048670627166e+001
 1.111680009627535e+000	 1.241742080219257e+000	 1.128382640229400e+001
 1.261611026374577e+000	 1.129467850281964e+000	 1.249737127043973e+001
 1.249067665749498e+000	 1.143324123707302e+000	 1.240764663836317e+001
 1.236369012059368e+000	 1.157044429927205e+000	 1.230842579648403e+001
 1.223517289166650e+000	 1.170626171652911e+000	 1.220104663230563e+001
 1.210514778576640e+000	 1.184066800401974e+000	 1.208683299599073e+001
 1.197363818089865e+000	 1.197363818089866e+000	 1.196708877817254e+001
 1.184066800401974e+000	 1.210514778576640e+000	 1.184309201030735e+001
 1.170626171652911e+000	 1.223517289166649e+000	 1.171608901807489e+001
 1.157044429927205e+000	 1.236369012059368e+000	 1.158728865864270e+001
 1.143324123707303e+000	 1.249067665749498e+000	 1.145785667272695e+001
 1.129467850281964e+000	 1.261611026374577e+000	 1.132891018230163e+001
 1.281479972530163e+000	 1.147255690936225e+000	 1.247955591137469e+001
 1.268739068168449e+000	 1.161330184989758e+000	 1.239653196052220e+001
 1.255840425051614e+000	 1.175266570508109e+000	 1.230305337120336e+001
 1.242786302065429e+000	 1.189062209298173e+000	 1.220073395847540e+001
 1.229579016646303e+000	 1.202714512741798e+000	 1.209117762344739e+001
 1.216220943412465e+000	 1.216220943412465e+000	 1.197597156624196e+001
 1.202714512741798e+000	 1.229579016646304e+000	 1.185667950737874e+001
 1.189062209298173e+000	 1.242786302065428e+000	 1.173483495148395e+001
 1.175266570508110e+000	 1.255840425051614e+000	 1.161193452763438e+001
 1.161330184989758e+000	 1.268739068168448e+000	 1.148943144083478e+001
 1.147255690936225e+000	 1.281479972530163e+000	 1.136872906910108e+001
 1.301348918685950e+000	 1.165043531590152e+000	 1.246061838382375e+001
 1.288410470587557e+000	 1.179336246271932e+000	 1.238317071142772e+001
 1.275311838043971e+000	 1.193488711088788e+000	 1.229431274073148e+001
 1.262055314964265e+000	 1.207498246943265e+000	 1.219597239793557e+001
 1.248643254715970e+000	 1.221362225081510e+000	 1.209007285140573e+001
 1.235078068735010e+000	 1.235078068735010e+000	 1.197852475459125e+001
 1.221362225081511e+000	 1.248643254715969e+000	 1.186321848038103e+001
 1.207498246943265e+000	 1.262055314964265e+000	 1.174601638453240e+001
 1.193488711088788e+000	 1.275311838043970e+000	 1.162874513631948e+001
 1.179336246271932e+000	 1.288410470587556e+000	 1.151318815482494e+001
 1.165043531590152e+000	 1.301348918685950e+000	 1.140107818933594e+001
 1.321217864841871e+000	 1.182831372243579e+000	 1.244104472521750e+001
 1.308081873006736e+000	 1.197342307553658e+000	 1.236768737317466e+001
 1.294783251036333e+000	 1.211710851669076e+000	 1.228199196202214e+001
 1.281324327863042e+000	 1.225934284588029e+000	 1.218623744328254e+001
 1.267707492785507e+000	 1.240009937420960e+000	 1.208270419234244e+001
 1.253935194057359e+000	 1.253935194057360e+000	 1.197366517616156e+001
 1.240009937420960e+000	 1.267707492785507e+000	 1.186137709249232e+001
 1.225934284588029e+000	 1.281324327863042e+000	 1.174807152231642e+001
 1.211710851669076e+000	 1.294783251036333e+000	 1.163594613783555e+001
 1.197342307553659e+000	 1.308081873006736e+000	 1.152715600872946e+001
 1.182831372243579e+000	 1.321217864841871e+000	 1.142380504950558e+001
 1.341086810997859e+000	 1.200619212896339e+000	 1.242183844118357e+001
 1.327753275425902e+000	 1.215348368834772e+000	 1.235022454487518e+001
 1.314254664028600e+000	 1.229932992248813e+000	 1.226590826167141e+001
 1.300593340761641e+000	 1.244370322232309e+000	 1.217104299766215e+001
 1.286771730854787e+000	 1.258657649759996e+000	 1.206830310797371e+001
 1.272792319379371e+000	 1.272792319379371e+000	 1.196036156173207e+001
 1.258657649759996e+000	 1.286771730854787e+000	 1.184987987783237e+001
 1.244370322232309e+000	 1.300593340761641e+000	 1.173949805538672e+001
 1.229932992248813e+000	 1.314254664028600e+000	 1.163182454573898e+001
 1.215348368834772e+000	 1.327753275425902e+000	 1.152942631341904e+001
 1.200619212896338e+000	 1.341086810997858e+000	 1.143293406955776e+001
 1.022740806358721e+000	 1.142397349448981e+000	 1.105911567418960e+001
 1.010071222934662e+000	 1.153614540248221e+000	 1.089459779118552e+001
 9.972833164607429e-001	 1.164687203295261e+000	 1.072463041541950e+001
 9.843795644057994e-001	 1.175613488505011e+000	 1.055034466577657e+001
 9.713624822960135e-001	 1.186391602416225e+000	 1.037282264518558e+001
 9.582346220975369e-001	 1.197019809152552e+000	 1.019309714588774e+001
 9.449985705706228e-001	 1.207496431328259e+000	 1.001214859399805e+001
 9.316569475974843e-001	 1.217819850897686e+000	 9.830902233180629e+000
 9.182124044861028e-001	 1.227988509947546e+000	 9.650225561308258e+000
 9.046676222522672e-001	 1.238000911431364e+000	 9.470926032733136e+000
 8.910253098821287e-001	 1.247855619845356e+000	 9.293749037471212e+000
 1.040528647011485e+000	 1.162266295601971e+000	 1.109625740933870e+001
 1.027638710073067e+000	 1.173678579430655e+000	 1.093366604871452e+001
 1.014628392171736e+000	 1.184943821833555e+000	 1.076532484273630e+001
 1.001500213865284e+000	 1.196060140548290e+000	 1.059248432787696e+001
 9.882567344307597e-001	 1.207025710921144e+000	 1.041633494718755e+001
 9.749005502189513e-001	 1.217838766884826e+000	 1.023801885052473e+001
 9.614342929799056e-001	 1.228497601879959e+000	 1.005861623757642e+001
 9.478606281616917e-001	 1.239000569719292e+000	 9.879144684759474e+000
 9.341822531847164e-001	 1.249346085393795e+000	 9.700556227075934e+000
 9.204018956938831e-001	 1.259532625819864e+000	 9.523734732580646e+000
 9.065223117909240e-001	 1.269558730526953e+000	 9.349493582300541e+000
 1.058316487664915e+000	 1.182135241755561e+000	 1.113962598170158e+001
 1.045206197212085e+000	 1.193742618613598e+000	 1.098066679079710e+001
 1.031973467883280e+000	 1.205200440372255e+000	 1.081584173919023e+001
 1.018620863325253e+000	 1.216506792591862e+000	 1.064647927227299e+001
 1.005150986565916e+000	 1.227659819426233e+000	 1.047385165012601e+001
 9.915664783407003e-001	 1.238657724617147e+000	 1.029916175370256e+001
 9.778700153894414e-001	 1.249498772431579e+000	 1.012355260490071e+001
 9.640643087260689e-001	 1.260181288540694e+000	 9.948095130663639e+000
 9.501521018834158e-001	 1.270703660839725e+000	 9.773787075729636e+000
 9.361361691354984e-001	 1.281064340207937e+000	 9.601550096230671e+000
 9.220193136996339e-001	 1.291261841208033e+000	 9.432227187264015e+000
 1.076104328318845e+000	 1.202004187909682e+000	 1.118688987205025e+001
 1.062773684351549e+000	 1.213806657797006e+000	 1.103308483947230e+001
 1.049318543595212e+000	 1.225457058911340e+000	 1.087349273604291e+001
 1.035741512785547e+000	 1.236953444635727e+000	 1.070948581104411e+001
 1.022045238701332e+000	 1.248293927931517e+000	 1.054237147248833e+001
 1.008232406462639e+000	 1.259476682349561e+000	 1.037338997813514e+001
 9.943057377990963e-001	 1.270499942983188e+000	 1.020370216065761e+001
 9.802679892904933e-001	 1.281362007361987e+000	 1.003439744389262e+001
 9.661219505820897e-001	 1.292061236285450e+000	 9.866482682987858e+000
 9.518704425770163e-001	 1.302596054595719e+000	 9.700880890332932e+000
 9.375163156081746e-001	 1.312964951888744e+000	 9.538428454222824e+000
 1.093892168973107e+000	 1.221873134064270e+000	 1.123572566769977e+001
 1.080341171491294e+000	 1.233870696980833e+000	 1.108841927021918e+001
 1.066663619307370e+000	 1.245713677450784e+000	 1.093560654210444e+001
 1.052862162246010e+000	 1.257400096679885e+000	 1.077866898092458e+001
 1.038939490836856e+000	 1.268928036437022e+000	 1.061891686600324e+001
 1.024898334584625e+000	 1.280295640082116e+000	 1.045758454377651e+001
 1.010741460208737e+000	 1.291501113534861e+000	 1.029582602419216e+001
 9.964716698548414e-001	 1.302542726183265e+000	 1.013471318568946e+001
 9.820917992806268e-001	 1.313418811731085e+000	 9.975223333032949e+000
 9.676047160183386e-001	 1.324127768983342e+000	 9.818248450038466e+000
 9.530133175164638e-001	 1.334668062569236e+000	 9.664531829815580e+000
 1.111680009627535e+000	 1.241742080219257e+000	 1.128382640229400e+001
 1.097908658631153e+000	 1.253934736165034e+000	 1.114418792380445e+001
 1.084008695019591e+000	 1.265970295990567e+000	 1.099953256995513e+001
 1.069982811706480e+000	 1.277846748724337e+000	 1.085121866051879e+001
 1.055833742972336e+000	 1.289562144942771e+000	 1.070052684275697e+001
 1.041564262706513e+000	 1.301114597814862e+000	 1.054865511676569e+001
 1.027177182618229e+000	 1.312502284086669e+000	 1.039671419374636e+001
 1.012675350418991e+000	 1.323723445004622e+000	 1.024572321164625e+001
 9.980616479789167e-001	 1.334776387176745e+000	 1.009654381097877e+001
 9.833389894593687e-001	 1.345659483370942e+000	 9.945763646140302e+000
 9.685103194244187e-001	 1.356371173249661e+000	 9.792049514089296e+000
 1.129467850281964e+000	 1.261611026374577e+000	 1.132891018230163e+001
 1.115476145770963e+000	 1.273998775349562e+000	 1.119793530230859e+001
 1.101353770731710e+000	 1.286226914530664e+000	 1.106264811239122e+001
 1.087103461166803e+000	 1.298293400769083e+000	 1.092435336579361e+001
 1.072727995107619e+000	 1.310196253448787e+000	 1.078427159908564e+001
 1.058230190828162e+000	 1.321933555547847e+000	 1.064353392963843e+001
 1.043612905027437e+000	 1.333503454638683e+000	 1.050317594480807e+001
 1.028879030982818e+000	 1.344904163826153e+000	 1.036007785765380e+001
 1.014031496676848e+000	 1.356133962622546e+000	 1.021173369631913e+001
 9.990732629000086e-001	 1.367191197758651e+000	 1.005955874789821e+001
 9.840073213319562e-001	 1.378074283930169e+000	 9.904895244116514e+000
 1.147255690936225e+000	 1.281479972530163e+000	 1.136872906910108e+001
 1.133043632910556e+000	 1.294062814534374e+000	 1.124724077473022e+001
 1.118698846443568e+000	 1.306483533071053e+000	 1.112236588040290e+001
 1.104224110626819e+000	 1.318740052814126e+000	 1.099532713836809e+001
 1.089622247242557e+000	 1.330830361955098e+000	 1.086725643857698e+001
 1.074896118949426e+000	 1.342752513281120e+000	 1.073642520932395e+001
 1.060048627436229e+000	 1.354504625190975e+000	 1.059827188745999e+001
 1.045082711546199e+000	 1.366084882647951e+000	 1.045406562538799e+001
 1.030001345374311e+000	 1.377491538068603e+000	 1.030520150399094e+001
 1.014807536340162e+000	 1.388722912146604e+000	 1.015300761144223e+001
 9.995043232389939e-001	 1.399777394610910e+000	 9.998744347656471e+000
 1.165043531590152e+000	 1.301348918685950e+000	 1.140107818933594e+001
 1.150611120049768e+000	 1.314126853719422e+000	 1.128972705907949e+001
 1.136043922155001e+000	 1.326740151611712e+000	 1.117614186404225e+001
 1.121344760086371e+000	 1.339186704859462e+000	 1.106035136115690e+001
 1.106516499376995e+000	 1.351464470461725e+000	 1.093634708812084e+001
 1.091562047070163e+000	 1.363571471014727e+000	 1.080425212655024e+001
 1.076484349844470e+000	 1.375505795743619e+000	 1.066548251850889e+001
 1.061286392109012e+000	 1.387265601470110e+000	 1.052139066966276e+001
 1.045971194071194e+000	 1.398849113515030e+000	 1.037326255516387e+001
 1.030541809779729e+000	 1.410254626534935e+000	 1.022231508150735e+001
 1.015001325145448e+000	 1.421480505292034e+000	 1.006969360784644e+001
 1.182831372243579e+000	 1.321217864841871e+000	 1.142380504950558e+001
 1.168178607188432e+000	 1.334190892904663e+000	 1.132304406514445e+001
 1.153388997865845e+000	 1.346996770152616e+000	 1.121561363871958e+001
 1.138465409545300e+000	 1.359633356905096e+000	 1.109839594976704e+001
 1.123410751510784e+000	 1.372098578968695e+000	 1.097279983890930e+001
 1.108227975190229e+000	 1.384390428748719e+000	 1.084017409911246e+001
 1.092920072252026e+000	 1.396506966296683e+000	 1.070180457551990e+001
 1.077490072671134e+000	 1.408446320292725e+000	 1.055891141618824e+001
 1.061941042767387e+000	 1.420206688961944e+000	 1.041264647715815e+001
 1.046276083218616e+000	 1.431786340923777e+000	 1.026409088485357e+001
 1.030498327051237e+000	 1.443183615973693e+000	 1.011425275840157e+001
 1.200619212896338e+000	 1.341086810997858e+000	 1.143293406955776e+001
 1.185746094326383e+000	 1.354254932090050e+000	 1.133135353652235e+001
 1.170734073575938e+000	 1.367253388693743e+000	 1.122015486387464e+001
 1.155586059003449e+000	 1.380080008951025e+000	 1.110065620979467e+001
 1.140305003643770e+000	 1.392732687476031e+000	 1.097411622066321e+001
 1.124893903309479e+000	 1.405209386483143e+000	 1.084173122956857e+001
 1.109355794658762e+000	 1.417508136850241e+000	 1.070463260544120e+001
 1.093693753232441e+000	 1.429627039115891e+000	 1.056388425566260e+001
 1.077910891462778e+000	 1.441564264409459e+000	 1.042048028451234e+001
 1.062010356656721e+000	 1.453318055313266e+000	 1.027534280937421e+001
 1.045995328956277e+000	 1.464886726656035e+000	 1.012931993622389e+001
 8.910253098821287e-001	 1.247855619845356e+000	 9.293749037471212e+000
 8.772882022807453e-001	 1.257551261490825e+000	 9.116791523483803e+000
 8.634590576311916e-001	 1.267086523959525e+000	 8.938163844492026e+000
 8.495406565372461e-001	 1.276460157680332e+000	 8.758534433823680e+000
 8.355358005343189e-001	 1.285670976711510e+000	 8.578504843274573e+000
 8.214473102909058e-001	 1.294717859120680e+000	 8.398608817911098e+000
 8.072780238044298e-001	 1.303599747304522e+000	 8.219311690556529e+000
 7.930307945938007e-001	 1.312315648248289e+000	 8.041010097220287e+000
 7.787084898909866e-001	 1.320864633725284e+000	 7.864032013037330e+000
 7.643139888338930e-001	 1.329245840436585e+000	 7.688637106596159e+000
 7.498501806627992e-001	 1.337458470091355e+000	 7.514764935597411e+000
 9.065223117909240e-001	 1.269558730526953e+000	 9.349493582300541e+000
 8.925462839472683e-001	 1.279423001924546e+000	 9.175981802964069e+000
 8.784766183172067e-001	 1.289124104778561e+000	 9.001280438541745e+000
 8.643161438656810e-001	 1.298660767784928e+000	 8.825992970014127e+000
 8.500677108533142e-001	 1.308031784375627e+000	 8.650650151792874e+000
 8.357341890065824e-001	 1.317236013105266e+000	 8.475709100632276e+000
 8.213184656822814e-001	 1.326272377976344e+000	 8.301552731263461e+000
 8.068234440286464e-001	 1.335139868703277e+000	 8.128423408271775e+000
 7.922520411454750e-001	 1.343837540915351e+000	 7.954712085394105e+000
 7.776071862455719e-001	 1.352364516298867e+000	 7.780263477809852e+000
 7.628918188198209e-001	 1.360719982678853e+000	 7.605879771231829e+000
 9.220193136996339e-001	 1.291261841208033e+000	 9.432227187264015e+000
 9.078043656136208e-001	 1.301294742357671e+000	 9.264028848138279e+000
 8.934941790029705e-001	 1.311161685596942e+000	 9.095031874380233e+000
 8.790916311937905e-001	 1.320861377888824e+000	 8.925759911752349e+000
 8.645996211719172e-001	 1.330392592039013e+000	 8.756657750380590e+000
 8.500210677218113e-001	 1.339754167089103e+000	 8.587147581790749e+000
 8.353589075596425e-001	 1.348945008647412e+000	 8.415042851576272e+000
 8.206160934629750e-001	 1.357964089157520e+000	 8.241079914982192e+000
 8.057955923994371e-001	 1.366810448104690e+000	 8.066132635600045e+000
 7.909003836567361e-001	 1.375483192160448e+000	 7.891011905451695e+000
 7.759334569763623e-001	 1.383981495265687e+000	 7.716464470392586e+000
 9.375163156081746e-001	 1.312964951888744e+000	 9.538428454222824e+000
 9.230624472797356e-001	 1.323166482790366e+000	 9.377398130834763e+000
 9.085117396884320e-001	 1.333199266414842e+000	 9.215878120349132e+000
 8.938671185215377e-001	 1.343061987992203e+000	 9.051894045233579e+000
 8.791315314901066e-001	 1.352753399701856e+000	 8.883766006309392e+000
 8.643079464365846e-001	 1.362272321072382e+000	 8.712496710805326e+000
 8.493993494365167e-001	 1.371617639317917e+000	 8.539027784392653e+000
 8.344087428967991e-001	 1.380788309611204e+000	 8.364237865206928e+000
 8.193391436528907e-001	 1.389783355293483e+000	 8.188941120749949e+000
 8.041935810674049e-001	 1.398601868021503e+000	 8.013885926596618e+000
 7.889750951324397e-001	 1.407243007852023e+000	 7.839753709325747e+000
 9.530133175164638e-001	 1.334668062569236e+000	 9.664531829815580e+000
 9.383205289455459e-001	 1.345038223222794e+000	 9.508791860754014e+000
 9.235293003735395e-001	 1.355236847232435e+000	 9.347444122529401e+000
 9.086426058488875e-001	 1.365262598095243e+000	 9.181553265252909e+000
 8.936634418078617e-001	 1.375114207364341e+000	 9.012123565668578e+000
 8.785948251508940e-001	 1.384790475055292e+000	 8.840096998447836e+000
 8.634397913129082e-001	 1.394290269988049e+000	 8.666351462859231e+000
 8.482013923301295e-001	 1.403612530064516e+000	 8.491699167959691e+000
 8.328826949058539e-001	 1.412756262481913e+000	 8.316885179170461e+000
 8.174867784775973e-001	 1.421720543882209e+000	 8.142586128816850e+000
 8.020167332880692e-001	 1.430504520438026e+000	 7.969409092937956e+000
 9.685103194244187e-001	 1.356371173249661e+000	 9.792049514089296e+000
 9.535786106109838e-001	 1.366909963655117e+000	 9.634491143789816e+000
 9.385468610582418e-001	 1.377274428049897e+000	 9.471971207995235e+000
 9.234180931758040e-001	 1.387463208198132e+000	 9.305489671377320e+000
 9.081953521251608e-001	 1.397475015026658e+000	 9.135983434444398e+000
 8.928817038647327e-001	 1.407308629038023e+000	 8.964324446915637e+000
 8.774802331888189e-001	 1.416962900657996e+000	 8.791317978455670e+000
 8.619940417629799e-001	 1.426436750517644e+000	 8.617701049669250e+000
 8.464262461583428e-001	 1.435729169670160e+000	 8.444141025993028e+000
 8.307799758873329e-001	 1.444839219742738e+000	 8.271234376866904e+000
 8.150583714432673e-001	 1.453766033023863e+000	 8.099505602320226e+000
 9.840073213319562e-001	 1.378074283930169e+000	 9.904895244116514e+000
 9.688366922759821e-001	 1.388781704087501e+000	 9.746900990247324e+000
 9.535644217424869e-001	 1.399312008867401e+000	 9.584519265779306e+000
 9.381935805022509e-001	 1.409663818301048e+000	 9.418676891365719e+000
 9.227272624419834e-001	 1.419835822688992e+000	 9.250235020491660e+000
 9.071685825780916e-001	 1.429826783020764e+000	 9.079987314468195e+000
 8.915206750642536e-001	 1.439635531327949e+000	 8.908658276107081e+000
 8.757866911953608e-001	 1.449260970970772e+000	 8.736901744651878e+000
 8.599697974103766e-001	 1.458702076858409e+000	 8.565299554310883e+000
 8.440731732966302e-001	 1.467957895603268e+000	 8.394360358511305e+000
 8.281000095980500e-001	 1.477027545609700e+000	 8.224518621784410e+000
 9.995043232389939e-001	 1.399777394610910e+000	 9.998744347656471e+000
 9.840947739404728e-001	 1.410653444520108e+000	 9.841604298722180e+000
 9.685819824262234e-001	 1.421349589685121e+000	 9.680579331025090e+000
 9.529690678281927e-001	 1.431864428404175e+000	 9.516515383764244e+000
 9.372591727583081e-001	 1.442196630351531e+000	 9.350190215408581e+000
 9.214554612909642e-001	 1.452344937003705e+000	 9.182311659688093e+000
 9.055611169392157e-001	 1.462308161998095e+000	 9.013516040898638e+000
 8.895793406272859e-001	 1.472085191424091e+000	 8.844366750695706e+000
 8.735133486619716e-001	 1.481674984046840e+000	 8.675352988356440e+000
 8.573663707055088e-001	 1.491076571463974e+000	 8.506888666303352e+000
 8.411416477524335e-001	 1.500289058195703e+000	 8.339311482509871e+000
 1.015001325145448e+000	 1.421480505292034e+000	 1.006969360784644e+001
 9.993528556043898e-001	 1.432525184953104e+000	 9.914603573072906e+000
 9.835995431093998e-001	 1.443387170503232e+000	 9.756058505803104e+000
 9.677445551535930e-001	 1.454065038507694e+000	 9.594817897384871e+000
 9.517910830741141e-001	 1.464557438014462e+000	 9.431569146923899e+000
 9.357423400033420e-001	 1.474863090987035e+000	 9.266927406920502e+000
 9.196015588137082e-001	 1.484980792668627e+000	 9.101434098796311e+000
 9.033719900587665e-001	 1.494909411877786e+000	 8.935555589352376e+000
 8.870568999131462e-001	 1.504647891235636e+000	 8.769682029695577e+000
 8.706595681139869e-001	 1.514195247325030e+000	 8.604126358029543e+000
 8.541832859064349e-001	 1.523550570782039e+000	 8.439123467579787e+000
 1.030498327051237e+000	 1.443183615973693e+000	 1.011425275840157e+001
 1.014610937267664e+000	 1.454396925386652e+000	 9.962305006362698e+000
 9.986171037919642e-001	 1.465424751321909e+000	 9.807265620313368e+000
 9.825200424784160e-001	 1.476265648611788e+000	 9.649795405196958e+000
 9.663229933893793e-001	 1.486918245677973e+000	 9.490486402350250e+000
 9.500292187152172e-001	 1.497381244970944e+000	 9.329854878019663e+000
 9.336420006877347e-001	 1.507653423339732e+000	 9.168341277256392e+000
 9.171646394898149e-001	 1.517733632332045e+000	 9.006309017800090e+000
 9.006004511639174e-001	 1.527620798424980e+000	 8.844043444532257e+000
 8.839527655220847e-001	 1.537313923186611e+000	 8.681750945424087e+000
 8.672249240600692e-001	 1.546812083368872e+000	 8.519558229832086e+000
 1.045995328956277e+000	 1.464886726656035e+000	 1.012931993622389e+001
 1.029869018930230e+000	 1.476268665820915e+000	 9.981509966253865e+000
 1.013634664473865e+000	 1.487462332141325e+000	 9.830896198343154e+000
 9.972955298026257e-001	 1.498466258716638e+000	 9.678043463424389e+000
 9.808549037040834e-001	 1.509279053342249e+000	 9.523437674243743e+000
 9.643160974265820e-001	 1.519899398955622e+000	 9.367491742035615e+000
 9.476824425612986e-001	 1.530326054011600e+000	 9.210539678023805e+000
 9.309572889204426e-001	 1.540557852787052e+000	 9.052836645438861e+000
 9.141440024143027e-001	 1.550593705615053e+000	 8.894558046370348e+000
 8.972459629298207e-001	 1.560432599048893e+000	 8.735798766731767e+000
 8.802665622133532e-001	 1.570073595956371e+000	 8.576572579705690e+000
 7.498501806627992e-001	 1.337458470091355e+000	 7.514764935597412e+000
 7.353221473168310e-001	 1.345500595902037e+000	 7.339884763195746e+000
 7.207306278798588e-001	 1.353372795297909e+000	 7.162779405919520e+000
 7.060785306134999e-001	 1.361074466261638e+000	 6.983841956960924e+000
 6.913687667140007e-001	 1.368605071488112e+000	 6.803408297640056e+000
 6.766042485600977e-001	 1.375964138175143e+000	 6.621757090936079e+000
 6.617878879772685e-001	 1.383151257758930e+000	 6.439208218434803e+000
 6.469225945203403e-001	 1.390166085595247e+000	 6.257535417199012e+000
 6.320112737763574e-001	 1.397008340587420e+000	 6.078274216731050e+000
 6.170568256895559e-001	 1.403677804762224e+000	 5.902661596392051e+000
 6.020621429102250e-001	 1.410174322794896e+000	 5.731950820723872e+000
 7.628918188198209e-001	 1.360719982678853e+000	 7.605879771231830e+000
 7.481111091940828e-001	 1.368901979756440e+000	 7.430898737758058e+000
 7.332658093066115e-001	 1.376911095003749e+000	 7.254427589817704e+000
 7.183588780004510e-001	 1.384746715932977e+000	 7.076910666393364e+000
 7.033932771043155e-001	 1.392408295894034e+000	 6.898733556339710e+000
 6.883719696499757e-001	 1.399895353861612e+000	 6.720222895377818e+000
 6.732979181063200e-001	 1.407207474166047e+000	 6.541646318042235e+000
 6.581740826320951e-001	 1.414344306168952e+000	 6.363518558156414e+000
 6.430034193492556e-001	 1.421305563884740e+000	 6.187922781735304e+000
 6.277888786388074e-001	 1.428091025549134e+000	 6.016351822598677e+000
 6.125334034609494e-001	 1.434700533135920e+000	 5.850165580022511e+000
 7.759334569763623e-001	 1.383981495265687e+000	 7.716464470392586e+000
 7.609000710709125e-001	 1.392303363610223e+000	 7.541860976210441e+000
 7.458009907330195e-001	 1.400449394709020e+000	 7.366410940959151e+000
 7.306392253871503e-001	 1.408418965603801e+000	 7.190604017085763e+000
 7.154177874944813e-001	 1.416211520299499e+000	 7.014869465601072e+000
 7.001396907398110e-001	 1.423826569547684e+000	 6.839575762167350e+000
 6.848079482354356e-001	 1.431263690572821e+000	 6.665030362787840e+000
 6.694255707440147e-001	 1.438522526742372e+000	 6.491479629594037e+000
 6.539955649224094e-001	 1.445602787181828e+000	 6.319819227954184e+000
 6.385209315883896e-001	 1.452504246335858e+000	 6.152277501628392e+000
 6.230046640120597e-001	 1.459226743476797e+000	 5.990342173420896e+000
 7.889750951324397e-001	 1.407243007852023e+000	 7.839753709325747e+000
 7.736890329473286e-001	 1.415704747463540e+000	 7.665978844106259e+000
 7.583361721590803e-001	 1.423987694413863e+000	 7.491907188282958e+000
 7.429195727735806e-001	 1.432091215274239e+000	 7.318068455055951e+000
 7.274422978844634e-001	 1.440014744704620e+000	 7.144930229141156e+000
 7.119074118295528e-001	 1.447757785233454e+000	 6.972897386913524e+000
 6.963179783645457e-001	 1.455319906979338e+000	 6.802311680487402e+000
 6.806770588560139e-001	 1.462700747315572e+000	 6.633451486738196e+000
 6.649877104957201e-001	 1.469900010478731e+000	 6.466542469609719e+000
 6.492529845381927e-001	 1.476917467122427e+000	 6.303117702098271e+000
 6.334759245634387e-001	 1.483752953817541e+000	 6.145270219632661e+000
 8.020167332880692e-001	 1.430504520438026e+000	 7.969409092937953e+000
 7.864779948233398e-001	 1.439106131316547e+000	 7.796877959287432e+000
 7.708713535847911e-001	 1.447525994118421e+000	 7.624503740845062e+000
 7.551999201597240e-001	 1.455763464944417e+000	 7.452851609417439e+000
 7.394668082742282e-001	 1.463817969109509e+000	 7.282422783185703e+000
 7.236751329191491e-001	 1.471689000919020e+000	 7.113653765254325e+000
 7.078280084935829e-001	 1.479376123385674e+000	 6.946915750112394e+000
 6.919285469680090e-001	 1.486878967888615e+000	 6.782514199516315e+000
 6.759798560690880e-001	 1.494197233775494e+000	 6.620688589001459e+000
 6.599850374881062e-001	 1.501330687908871e+000	 6.461788984203418e+000
 6.439471851149695e-001	 1.508279164158169e+000	 6.307947048033447e+000
 8.150583714432673e-001	 1.453766033023863e+000	 8.099505602320228e+000
 7.992669566989545e-001	 1.462507515169399e+000	 7.928589152330767e+000
 7.834065350101485e-001	 1.471064293822835e+000	 7.758185140400112e+000
 7.674802675455636e-001	 1.479435714614465e+000	 7.588890218045110e+000
 7.514913186637424e-001	 1.487621193514281e+000	 7.421235177932923e+000
 7.354428540085490e-001	 1.495620216604477e+000	 7.255684014628122e+000
 7.193380386224785e-001	 1.503432339791911e+000	 7.092633156819465e+000
 7.031800350799145e-001	 1.511057188461564e+000	 6.932410873033803e+000
 6.869720016424146e-001	 1.518494457072168e+000	 6.775276852558310e+000
 6.707170904380211e-001	 1.525743908695221e+000	 6.621421963002168e+000
 6.544184456665355e-001	 1.532805374498695e+000	 6.471603653915190e+000
 8.281000095980500e-001	 1.477027545609700e+000	 8.224518621784409e+000
 8.120559185741817e-001	 1.485908899022251e+000	 8.055535983929143e+000
 7.959417164351504e-001	 1.494602593527250e+000	 7.887321050319079e+000
 7.797606149310817e-001	 1.503107964284512e+000	 7.720498570735916e+000
 7.635158290529709e-001	 1.511424417919046e+000	 7.555625459208629e+000
 7.472105750977016e-001	 1.519551432289924e+000	 7.393189680248693e+000
 7.308480687511636e-001	 1.527488556198130e+000	 7.233609309670873e+000
 7.144315231916457e-001	 1.535235409034485e+000	 7.077231772500713e+000
 6.979641472156017e-001	 1.542791680368798e+000	 6.924333260205263e+000
 6.814491433878270e-001	 1.550157129481510e+000	 6.775118329209697e+000
 6.648897062180199e-001	 1.557331584839138e+000	 6.629731070129887e+000
 8.411416477524335e-001	 1.500289058195703e+000	 8.339311482509871e+000
 8.248448804490297e-001	 1.509310282875258e+000	 8.172522758756330e+000
 8.084768978597926e-001	 1.518140893231805e+000	 8.006654722626585e+000
 7.920409623162602e-001	 1.526780213954683e+000	 7.842357413693624e+000
 7.755403394418807e-001	 1.535227642323919e+000	 7.680210996021046e+000
 7.589782961865552e-001	 1.543482647975457e+000	 7.520724472726445e+000
 7.423580988795697e-001	 1.551544772604411e+000	 7.364334577721024e+000
 7.256830113031185e-001	 1.559413629607439e+000	 7.211404847611044e+000
 7.089562927885500e-001	 1.567088903665431e+000	 7.062224876517456e+000
 6.921811963374144e-001	 1.574570350267767e+000	 6.917009756312329e+000
 6.753609667693054e-001	 1.581857795179509e+000	 6.775899704504102e+000
 8.541832859064349e-001	 1.523550570782039e+000	 8.439123467579789e+000
 8.376338423235071e-001	 1.532711666728574e+000	 8.274722982746360e+000
 8.210120792840734e-001	 1.541679192936644e+000	 8.111291892053004e+000
 8.043213097010830e-001	 1.550452463625109e+000	 7.949503266028053e+000
 7.875648498304381e-001	 1.559030866729012e+000	 7.789958206352299e+000
 7.707460172750587e-001	 1.567413863661173e+000	 7.633184391197392e+000
 7.538681290076289e-001	 1.575600989010834e+000	 7.479634799750889e+000
 7.369344994142478e-001	 1.583591850180492e+000	 7.329686619399889e+000
 7.199484383611606e-001	 1.591386126962114e+000	 7.183640338843331e+000
 7.029132492866731e-001	 1.598983571054024e+000	 7.041719030180818e+000
 6.858322273202754e-001	 1.606384005519828e+000	 6.904067822781743e+000
 8.672249240600692e-001	 1.546812083368872e+000	 8.519558229832084e+000
 8.504228041976235e-001	 1.556113050582356e+000	 8.357668217104649e+000
 8.335472607079891e-001	 1.565217492641910e+000	 8.196690052143403e+000
 8.166016570855323e-001	 1.574124713295916e+000	 8.037318104889172e+000
 7.995893602186083e-001	 1.582834091134438e+000	 7.880172639261126e+000
 7.825137383631609e-001	 1.591345079347169e+000	 7.725798191373849e+000
 7.653781591352722e-001	 1.599657205417480e+000	 7.574662128312811e+000
 7.481859875249490e-001	 1.607770070753707e+000	 7.427153391416777e+000
 7.309405839333351e-001	 1.615683350258895e+000	 7.283581427856023e+000
 7.136453022354934e-001	 1.623396791840312e+000	 7.144175314108853e+000
 6.963034878708130e-001	 1.630910215860108e+000	 7.009083074727098e+000
 8.802665622133532e-001	 1.570073595956371e+000	 8.576572579705690e+000
 8.632117660713862e-001	 1.579514434436757e+000	 8.417237287899056e+000
 8.460824421315376e-001	 1.588755792347744e+000	 8.258648073795765e+000
 8.288820044695899e-001	 1.597796962967234e+000	 8.101519381002774e+000
 8.116138706063586e-001	 1.606637315540310e+000	 7.946489376337303e+000
 7.942814594508104e-001	 1.615276295033541e+000	 7.794118162739935e+000
 7.768881892624312e-001	 1.623713421824428e+000	 7.644886173408799e+000
 7.594374756351371e-001	 1.631948291327147e+000	 7.499192751576218e+000
 7.419327295049742e-001	 1.639980573555821e+000	 7.357354920234745e+000
 7.243773551837657e-001	 1.647810012626663e+000	 7.219606345978819e+000
 7.067747484208015e-001	 1.655436426200365e+000	 7.086096500955472e+000
 6.020621429102250e-001	 1.410174322794896e+000	 5.731950820723871e+000
 5.870278516030029e-001	 1.416498737301121e+000	 5.564125646517835e+000
 5.719590733564497e-001	 1.422650029986620e+000	 5.396819689278417e+000
 5.568586712756412e-001	 1.428628231261313e+000	 5.230675465797380e+000
 5.417294947976461e-001	 1.434433431836372e+000	 5.066309290911371e+000
 5.265743781829092e-001	 1.440065782013029e+000	 4.904305834907051e+000
 5.113961390398314e-001	 1.445525490928912e+000	 4.745213489999644e+000
 4.961975768838243e-001	 1.450812825763512e+000	 4.589540533171403e+000
 4.809814717320298e-001	 1.455928110904371e+000	 4.437752066242652e+000
 4.657505827348308e-001	 1.460871727075660e+000	 4.290267708079695e+000
 4.505076468451836e-001	 1.465644110430823e+000	 4.147460008357106e+000
 6.125334034609494e-001	 1.434700533135920e+000	 5.850165580022511e+000
 5.972376308707766e-001	 1.441134943915833e+000	 5.687089646264109e+000
 5.819067715331874e-001	 1.447393221884075e+000	 5.524460932276162e+000
 5.665437383493176e-001	 1.453475397979446e+000	 5.362966679174352e+000
 5.511514303145785e-001	 1.459381564490778e+000	 5.203262264719689e+000
 5.357327309837995e-001	 1.465111874333371e+000	 5.045965426736337e+000
 5.202905069701497e-001	 1.470666540282229e+000	 4.891651408150914e+000
 5.048276064791279e-001	 1.476045834163695e+000	 4.740849007886864e+000
 4.893468578788449e-001	 1.481250086007147e+000	 4.594037514682523e+000
 4.738510683077299e-001	 1.486279683158419e+000	 4.451644494234133e+000
 4.583430223207198e-001	 1.491135069356658e+000	 4.314044393941579e+000
 6.230046640120597e-001	 1.459226743476797e+000	 5.990342173420894e+000
 6.074474101389680e-001	 1.465771150530427e+000	 5.831466975825228e+000
 5.918544697103532e-001	 1.472136413781435e+000	 5.672708295189356e+000
 5.762288054234169e-001	 1.478322564697502e+000	 5.514836184788226e+000
 5.605733658319160e-001	 1.484329697145122e+000	 5.358581973213752e+000
 5.448910837850700e-001	 1.490157966653668e+000	 5.204632079723300e+000
 5.291848749008193e-001	 1.495807589635517e+000	 5.053622877299913e+000
 5.134576360747550e-001	 1.501278842563868e+000	 4.906136584326796e+000
 4.977122440259603e-001	 1.506572061109939e+000	 4.762698157779233e+000
 4.819515538809144e-001	 1.511687639241224e+000	 4.623773153406385e+000
 4.661783977965402e-001	 1.516626028282579e+000	 4.489766511549169e+000
 6.334759245634387e-001	 1.483752953817541e+000	 6.145270219632662e+000
 6.176571894074571e-001	 1.490407357144906e+000	 5.990179741843740e+000
 6.018021678878301e-001	 1.496879605678689e+000	 5.834648095244035e+000
 5.859138724978268e-001	 1.503169731415457e+000	 5.679564625146238e+000
 5.699953013495547e-001	 1.509277829799371e+000	 5.525771726415150e+000
 5.540494365866259e-001	 1.515204058973874e+000	 5.374058178838143e+000
 5.380792428317558e-001	 1.520948638988720e+000	 5.225153670799797e+000
 5.220876656706316e-001	 1.526511850963968e+000	 5.079724488514095e+000
 5.060776301733113e-001	 1.531894036212673e+000	 4.938370339158029e+000
 4.900520394543289e-001	 1.537095595323997e+000	 4.801622267977479e+000
 4.740137732725954e-001	 1.542116987208505e+000	 4.669941621842614e+000
 6.439471851149695e-001	 1.508279164158169e+000	 6.307947048033445e+000
 6.278669686761252e-001	 1.515043563759269e+000	 6.156328797746847e+000
 6.117498660655004e-001	 1.521622797575824e+000	 6.003516705720173e+000
 5.955989395724356e-001	 1.528016898133288e+000	 5.850554453711233e+000
 5.794172368673902e-001	 1.534225962453488e+000	 5.698429007830712e+000
 5.632077893883721e-001	 1.540250151293942e+000	 5.548063404091268e+000
 5.469736107628749e-001	 1.546089688341783e+000	 5.400310878363317e+000
 5.307176952666834e-001	 1.551744859363929e+000	 5.255950313989596e+000
 5.144430163208345e-001	 1.557216011315279e+000	 5.115682970407419e+000
 4.981525250279175e-001	 1.562503551406661e+000	 4.980130446933997e+000
 4.818491487488354e-001	 1.567607946134350e+000	 4.849833827431307e+000
 6.544184456665355e-001	 1.532805374498695e+000	 6.471603653915190e+000
 6.380767479448530e-001	 1.539679770373518e+000	 6.323217893587461e+000
 6.216975642432467e-001	 1.546365989472827e+000	 6.172723069263347e+000
 6.052840066471303e-001	 1.552864064850969e+000	 6.021350972997237e+000
 5.888391723853179e-001	 1.559174095107435e+000	 5.870265190779231e+000
 5.723661421902142e-001	 1.565296243613825e+000	 5.720553270383174e+000
 5.558679786940919e-001	 1.571230737694648e+000	 5.573220406295579e+000
 5.393477248628368e-001	 1.576977867763687e+000	 5.429184610587138e+000
 5.228084024684649e-001	 1.582537986417684e+000	 5.289273327603794e+000
 5.062530106016245e-001	 1.587911507489136e+000	 5.154221440152391e+000
 4.896845242252110e-001	 1.593098905060033e+000	 5.024670605502260e+000
 6.648897062180199e-001	 1.557331584839138e+000	 6.629731070129887e+000
 6.482865272135218e-001	 1.564315976987654e+000	 6.484378224268295e+000
 6.316452624209525e-001	 1.571109181369688e+000	 6.335871581792164e+000
 6.149690737218001e-001	 1.577711231568475e+000	 6.185663706621668e+000
 5.982611079032337e-001	 1.584122227761178e+000	 6.035125544108288e+000
 5.815244949920566e-001	 1.590342335933476e+000	 5.885537905176653e+000
 5.647623466253223e-001	 1.596371787047259e+000	 5.738084657903895e+000
 5.479777544590176e-001	 1.602210876163178e+000	 5.593847590586750e+000
 5.311737886161390e-001	 1.607859961519817e+000	 5.453802898174679e+000
 5.143534961753938e-001	 1.613319463571345e+000	 5.318819232659509e+000
 4.975198997016721e-001	 1.618589863985467e+000	 5.189657247649288e+000
 6.753609667693054e-001	 1.581857795179509e+000	 6.775899704504102e+000
 6.584963064820117e-001	 1.588952183601679e+000	 6.633593332950996e+000
 6.415929605985000e-001	 1.595852373266394e+000	 6.486785306814236e+000
 6.246541407963323e-001	 1.602558398285783e+000	 6.337388069096987e+000
 6.076830434210333e-001	 1.609070360414681e+000	 6.187009495917112e+000
 5.906828477938051e-001	 1.615388428252850e+000	 6.037151038200597e+000
 5.736567145564819e-001	 1.621512836399563e+000	 5.889200374547620e+000
 5.566077840551518e-001	 1.627443884562336e+000	 5.744425939516832e+000
 5.395391747637924e-001	 1.633181936621604e+000	 5.603973272645973e+000
 5.224539817491701e-001	 1.638727419653209e+000	 5.468863121047787e+000
 5.053552751781694e-001	 1.644080822910571e+000	 5.339991216976416e+000
 6.858322273202754e-001	 1.606384005519828e+000	 6.904067822781743e+000
 6.687060857502041e-001	 1.613588390215593e+000	 6.764911649127817e+000
 6.515406587757719e-001	 1.620595565162932e+000	 6.619529484875760e+000
 6.343392078706148e-001	 1.627405565002866e+000	 6.470627301573687e+000
 6.171049789386122e-001	 1.634018493067906e+000	 6.320091127736239e+000
 5.998412005953647e-001	 1.640434520571898e+000	 6.169669180544142e+000
 5.825510824874861e-001	 1.646653885751501e+000	 6.020976620173469e+000
 5.652378136511655e-001	 1.652676892961098e+000	 5.875489720436601e+000
 5.479045609113608e-001	 1.658503911722976e+000	 5.734542076486838e+000
 5.305544673228975e-001	 1.664135375734650e+000	 5.599322773962178e+000
 5.131906506546529e-001	 1.669571781835260e+000	 5.470876431323283e+000
 6.963034878708130e-001	 1.630910215860108e+000	 7.009083074727096e+000
 6.789158650179793e-001	 1.638224596829399e+000	 6.872364859082973e+000
 6.614883569526510e-001	 1.645338757059289e+000	 6.728435307114429e+000
 6.440242749445355e-001	 1.652252731719700e+000	 6.579714645568324e+000
 6.265269144558663e-001	 1.658966625720819e+000	 6.428739874931770e+000
 6.089995533966404e-001	 1.665480612890575e+000	 6.277530973227595e+000
 5.914454504182505e-001	 1.671794935103018e+000	 6.127952894252310e+000
 5.738678432469847e-001	 1.677909901359400e+000	 5.981709361870079e+000
 5.562699470587803e-001	 1.683825886823860e+000	 5.840338937842789e+000
 5.386549528965197e-001	 1.689543331815590e+000	 5.705213278342224e+000
 5.210260261310729e-001	 1.695062740759449e+000	 5.577537480396082e+000
 7.067747484208015e-001	 1.655436426200365e+000	 7.086096500955473e+000
 6.891256442852184e-001	 1.662860803443095e+000	 6.950778863220853e+000
 6.714360551290196e-001	 1.670081948955455e+000	 6.808058296449362e+000
 6.537093420179823e-001	 1.677099898436262e+000	 6.659235730032911e+000
 6.359488499726912e-001	 1.683914758373382e+000	 6.507541411975289e+000
 6.181579061975373e-001	 1.690526705208834e+000	 6.355356687696572e+000
 6.003398183486904e-001	 1.696935984454057e+000	 6.204817359818986e+000
 5.824978728425354e-001	 1.703142909757176e+000	 6.057872720734120e+000
 5.646353332059865e-001	 1.709147861924183e+000	 5.916281487446340e+000
 5.467554384699812e-001	 1.714951287895949e+000	 5.781610172907421e+000
 5.288614016073798e-001	 1.720553699683057e+000	 5.655233783665316e+000
 4.505076468451836e-001	 1.465644110430823e+000	 4.147460008357106e+000
 4.352553773090558e-001	 1.470245751245001e+000	 4.010046989221616e+000
 4.199964617822380e-001	 1.474677191845686e+000	 3.878293506546070e+000
 4.047335618101469e-001	 1.478939026711766e+000	 3.751821373076900e+000
 3.894693118802307e-001	 1.483031901808773e+000	 3.630207547775771e+000
 3.742063182928815e-001	 1.486956513530291e+000	 3.512986918263326e+000
 3.589471580746030e-001	 1.490713607613841e+000	 3.399655496821538e+000
 3.436943779339141e-001	 1.494303978033005e+000	 3.289673974141209e+000
 3.284504932603855e-001	 1.497728465867564e+000	 3.182471574002219e+000
 3.132179871671370e-001	 1.500987958153400e+000	 3.077450151603384e+000
 2.979993095770398e-001	 1.504083386713946e+000	 2.973988478300048e+000
 4.583430223207198e-001	 1.491135069356658e+000	 4.314044393941579e+000
 4.428254803534434e-001	 1.495816743404018e+000	 4.181773965730376e+000
 4.273011768062747e-001	 1.500325257060340e+000	 4.054910605953410e+000
 4.117728195150922e-001	 1.504661215143897e+000	 3.933058918623104e+000
 3.962430887872053e-001	 1.508825274855080e+000	 3.815771885001627e+000
 3.807146362526289e-001	 1.512818144699393e+000	 3.702554314505091e+000
 3.651900837583483e-001	 1.516640583384481e+000	 3.592866766291943e+000
 3.496720223060638e-001	 1.520293398692991e+000	 3.486129877740600e+000
 3.341630110338184e-001	 1.523777446333049e+000	 3.381729034921548e+000
 3.186655762418409e-001	 1.527093628768171e+000	 3.279019319659457e+000
 3.031822104628573e-001	 1.530242894028381e+000	 3.177330667847005e+000
 4.661783977965402e-001	 1.516626028282579e+000	 4.489766511549169e+000
 4.503955833981298e-001	 1.521387735563173e+000	 4.361011815584527e+000
 4.346058918306375e-001	 1.525973322275190e+000	 4.237374628897478e+000
 4.188120772204012e-001	 1.530383403576289e+000	 4.118465279712779e+000
 4.030168656945874e-001	 1.534618647901714e+000	 4.003834579113330e+000
 3.872229542128297e-001	 1.538679775868886e+000	 3.892977979512353e+000
 3.714330094425922e-001	 1.542567559155575e+000	 3.785340268577542e+000
 3.556496666787526e-001	 1.546282819353483e+000	 3.680320726069810e+000
 3.398755288078227e-001	 1.549826426799085e+000	 3.577278669843762e+000
 3.241131653171377e-001	 1.553199299383525e+000	 3.475539316699670e+000
 3.083651113492742e-001	 1.556402401343417e+000	 3.374399883865395e+000
 4.740137732725954e-001	 1.542116987208505e+000	 4.669941621842614e+000
 4.579656864430685e-001	 1.546958727722380e+000	 4.543439415306029e+000
 4.419106068552816e-001	 1.551621387490147e+000	 4.421747424020310e+000
 4.258513349260275e-001	 1.556105592008849e+000	 4.304501642209061e+000
 4.097906426023275e-001	 1.560412020948581e+000	 4.191269412778146e+000
 3.937312721734315e-001	 1.564541407038679e+000	 4.081554342308865e+000
 3.776759351272779e-001	 1.568494534927029e+000	 3.974801824377520e+000
 3.616273110519200e-001	 1.572272240014396e+000	 3.870405089099023e+000
 3.455880465823349e-001	 1.575875407265591e+000	 3.767711695442441e+000
 3.295607543929616e-001	 1.579304969999389e+000	 3.666030382256967e+000
 3.135480122362239e-001	 1.582561908658987e+000	 3.564638194049938e+000
 4.818491487488354e-001	 1.567607946134350e+000	 4.849833827431307e+000
 4.655357894882130e-001	 1.572529719881547e+000	 4.724664398273426e+000
 4.492153218801609e-001	 1.577269452705119e+000	 4.604000341345128e+000
 4.328905926319245e-001	 1.581827780441484e+000	 4.487520332246145e+000
 4.165644195103768e-001	 1.586205393995587e+000	 4.374823898092805e+000
 4.002395901343813e-001	 1.590403038208676e+000	 4.265437148143243e+000
 3.839188608123488e-001	 1.594421510698755e+000	 4.158819194224813e+000
 3.676049554255054e-001	 1.598261660675640e+000	 4.054369168407625e+000
 3.513005643572916e-001	 1.601924387732485e+000	 3.951433743866424e+000
 3.350083434692466e-001	 1.605410640615687e+000	 3.849315064203940e+000
 3.187309131236399e-001	 1.608721415975027e+000	 3.747278986624608e+000
 4.896845242252110e-001	 1.593098905060033e+000	 5.024670605502260e+000
 4.731058925335175e-001	 1.598100712040590e+000	 4.900237224282562e+000
 4.565200369052303e-001	 1.602917517920015e+000	 4.780027975369963e+000
 4.399298503380457e-001	 1.607549968874100e+000	 4.663778359739942e+000
 4.233381964186860e-001	 1.611998767042637e+000	 4.551132737458314e+000
 4.067479080956264e-001	 1.616264669378785e+000	 4.441650943538166e+000
 3.901617864977489e-001	 1.620348486470660e+000	 4.334815684201901e+000
 3.735825997994490e-001	 1.624251081337129e+000	 4.230040609577223e+000
 3.570130821326290e-001	 1.627973368199685e+000	 4.126678957193839e+000
 3.404559325459268e-001	 1.631516311232344e+000	 4.024032659900257e+000
 3.239138140114559e-001	 1.634880923291471e+000	 3.921361811954006e+000
 4.975198997016721e-001	 1.618589863985467e+000	 5.189657247649288e+000
 4.806759955789353e-001	 1.623671704199418e+000	 5.065665079403729e+000
 4.638247519304444e-001	 1.628565583134742e+000	 4.945661655700228e+000
 4.469691080443443e-001	 1.633272157306603e+000	 4.829450621683706e+000
 4.301119733272062e-001	 1.637792140089639e+000	 4.716730852347038e+000
 4.132562260571148e-001	 1.642126300548912e+000	 4.607104034056457e+000
 3.964047121834211e-001	 1.646275462242651e+000	 4.500083126763759e+000
 3.795602441736900e-001	 1.650240501998774e+000	 4.395101590493385e+000
 3.627255999082832e-001	 1.654022348667107e+000	 4.291523257845750e+000
 3.459035216229365e-001	 1.657621981849286e+000	 4.188652733430031e+000
 3.290967148996046e-001	 1.661040430608252e+000	 4.085746201282720e+000
 5.053552751781694e-001	 1.644080822910571e+000	 5.339991216976416e+000
 4.882460986244200e-001	 1.649242696357945e+000	 5.216425624558849e+000
 4.711294669557573e-001	 1.654213648349210e+000	 5.096682712623625e+000
 4.540083657507739e-001	 1.658994345738899e+000	 4.980642802153886e+000
 4.368857502358880e-001	 1.663585513136495e+000	 4.868066026860928e+000
 4.197645440187935e-001	 1.667987931718962e+000	 4.758600972010819e+000
 4.026476378693092e-001	 1.672202438014639e+000	 4.651794304489259e+000
 3.855378885481680e-001	 1.676229922660488e+000	 4.547101264142449e+000
 3.684381176841907e-001	 1.680071329134670e+000	 4.443896884393287e+000
 3.513511107002095e-001	 1.683727652466438e+000	 4.341487809203813e+000
 3.342796157880199e-001	 1.687199937925307e+000	 4.239124573616470e+000
 5.131906506546529e-001	 1.669571781835260e+000	 5.470876431323283e+000
 4.958162016699257e-001	 1.674813688516081e+000	 5.347980608989542e+000
 4.784341819811238e-001	 1.679861713563326e+000	 5.228835541681403e+000
 4.610476234572878e-001	 1.684716534170896e+000	 5.113404001442532e+000
 4.436595271446825e-001	 1.689378886183114e+000	 5.001511207249878e+000
 4.262728619806099e-001	 1.693849562888844e+000	 4.892854624355375e+000
 4.088905635553568e-001	 1.698129413786532e+000	 4.787014876296891e+000
 3.915155329228231e-001	 1.702219343322184e+000	 4.683467624892598e+000
 3.741506354602882e-001	 1.706120309602293e+000	 4.581596271269053e+000
 3.567986997776799e-001	 1.709833323083724e+000	 4.480705329950558e+000
 3.394625166766351e-001	 1.713359445242568e+000	 4.380034328198310e+000
 5.210260261310729e-001	 1.695062740759449e+000	 5.577537480396082e+000
 5.033863047154056e-001	 1.700384680673739e+000	 5.455789362843555e+000
 4.857388970064985e-001	 1.705509778777000e+000	 5.337840488401014e+000
 4.680868811638396e-001	 1.710438722602501e+000	 5.223739122832015e+000
 4.504333040535406e-001	 1.715172259229400e+000	 5.113376493609340e+000
 4.327811799425116e-001	 1.719711194058461e+000	 5.006497864952643e+000
 4.151334892415070e-001	 1.724056389558237e+000	 4.902714858501009e+000
 3.974931772975945e-001	 1.728208763983774e+000	 4.801518858945757e+000
 3.798631532365116e-001	 1.732169290069893e+000	 4.702295341448996e+000
 3.622462888552822e-001	 1.735938993701071e+000	 4.604338956534767e+000
 3.446454175653835e-001	 1.739518952559971e+000	 4.506869208312098e+000
 5.288614016073798e-001	 1.720553699683057e+000	 5.655233783665316e+000
 5.109564077608136e-001	 1.725955672830829e+000	 5.535322181422750e+000
 4.930436120318358e-001	 1.731157843990140e+000	 5.419406571842423e+000
 4.751261388703825e-001	 1.736160911033618e+000	 5.307621042150134e+000
 4.572070809624128e-001	 1.740965632275259e+000	 5.199920855681047e+000
 4.392894979044457e-001	 1.745572825227722e+000	 5.096094930172848e+000
 4.213764149277033e-001	 1.749983365329663e+000	 4.995779706874021e+000
 4.034708216724219e-001	 1.754198184645169e+000	 4.898474232458688e+000
 3.855756710127974e-001	 1.758218270537387e+000	 4.803556272983102e+000
 3.676938779329501e-001	 1.762044664318403e+000	 4.710299277857200e+000
 3.498283184541984e-001	 1.765678459877450e+000	 4.617890011980560e+000
 2.979993095770398e-001	 1.504083386713946e+000	 2.973988478300047e+000
 2.827991546839796e-001	 1.507015299539558e+000	 2.875485030140898e+000
 2.676176157253357e-001	 1.509785191633430e+000	 2.785078404996724e+000
 2.524570335663321e-001	 1.512394122787768e+000	 2.701788881283920e+000
 2.373197127666058e-001	 1.514843192712843e+000	 2.624640217345949e+000
 2.222079208870840e-001	 1.517133539803352e+000	 2.552664407416752e+000
 2.071238878404344e-001	 1.519266339896487e+000	 2.484906279579978e+000
 1.920698052848561e-001	 1.521242805023325e+000	 2.420427890973515e+000
 1.770478260609266e-001	 1.523064182155104e+000	 2.358312678632833e+000
 1.620600636711561e-001	 1.524731751945950e+000	 2.297669327731311e+000
 1.471085918018470e-001	 1.526246827473539e+000	 2.237635322524639e+000
 3.031822104628573e-001	 1.530242894028381e+000	 3.177330667847004e+000
 2.877176895336974e-001	 1.533225799634873e+000	 3.080145852511584e+000
 2.722721083133524e-001	 1.536043866592424e+000	 2.990677225869899e+000
 2.568478483801321e-001	 1.538698173125490e+000	 2.907878830606369e+000
 2.414472543753203e-001	 1.541189838070859e+000	 2.830709076519417e+000
 2.260726332979977e-001	 1.543520019622557e+000	 2.758136432619390e+000
 2.107262538441946e-001	 1.545689914068317e+000	 2.689144940450381e+000
 1.954103457901389e-001	 1.547700754519251e+000	 2.622739497349899e+000
 1.801270994193081e-001	 1.549553809634327e+000	 2.557950861904432e+000
 1.648786649929317e-001	 1.551250382341223e+000	 2.493840337655889e+000
 1.496671522635358e-001	 1.552791808555088e+000	 2.429504095115451e+000
 3.083651113492742e-001	 1.556402401343417e+000	 3.374399883865394e+000
 2.926362243840045e-001	 1.559436299730789e+000	 3.277427291452169e+000
 2.769266009019345e-001	 1.562302541552006e+000	 3.187914531202218e+000
 2.612386631944636e-001	 1.565002223463775e+000	 3.104775713140646e+000
 2.455747959845265e-001	 1.567536483429407e+000	 3.026929797508780e+000
 2.299373457093614e-001	 1.569906499442260e+000	 2.953307282527125e+000
 2.143286198483654e-001	 1.572113488240613e+000	 2.882856693083781e+000
 1.987508862957987e-001	 1.574158704015619e+000	 2.814550811885209e+000
 1.832063727780428e-001	 1.576043437113978e+000	 2.747392598583982e+000
 1.676972663150504e-001	 1.577769012736920e+000	 2.680420746658084e+000
 1.522257127255744e-001	 1.579336789637072e+000	 2.612714832309543e+000
 3.135480122362239e-001	 1.582561908658987e+000	 3.564638194049938e+000
 2.975547592348356e-001	 1.585646799827251e+000	 3.467187963497429e+000
 2.815810934910189e-001	 1.588561216512131e+000	 3.377061805981878e+000
 2.656294780092666e-001	 1.591306273802593e+000	 3.293155927865882e+000
 2.497023375941679e-001	 1.593883128788470e+000	 3.214371460332467e+000
 2.338020581211217e-001	 1.596292979262458e+000	 3.139622214616825e+000
 2.179309858528950e-001	 1.598537062413384e+000	 3.067842218182103e+000
 2.020914268017839e-001	 1.600616653512443e+000	 2.997992965505966e+000
 1.862856461370769e-001	 1.602533064594071e+000	 2.929070321588755e+000
 1.705158676374531e-001	 1.604287643133056e+000	 2.860111021055892e+000
 1.547842731878955e-001	 1.605881770719505e+000	 2.790198710747243e+000
 3.187309131236399e-001	 1.608721415975027e+000	 3.747278986624609e+000
 3.024732940861249e-001	 1.611857299924204e+000	 3.649067579554615e+000
 2.862355860805425e-001	 1.614819891472758e+000	 3.558161825692507e+000
 2.700202928244815e-001	 1.617610324141914e+000	 3.473457816736013e+000
 2.538298792041880e-001	 1.620229774148032e+000	 3.393856226295495e+000
 2.376667705332248e-001	 1.622679459083146e+000	 3.318271217115005e+000
 2.215333518577315e-001	 1.624960636586632e+000	 3.245639109419006e+000
 2.054319673080427e-001	 1.627074603009736e+000	 3.174926735433837e+000
 1.893649194963564e-001	 1.629022692074626e+000	 3.105139410079498e+000
 1.733344689600810e-001	 1.630806273529654e+000	 3.035328453127776e+000
 1.573428336504320e-001	 1.632426751802405e+000	 2.964598203715382e+000
 3.239138140114559e-001	 1.634880923291471e+000	 3.921361811954008e+000
 3.073918289378070e-001	 1.638067800021594e+000	 3.822502258798093e+000
 2.908900786704422e-001	 1.641078566433845e+000	 3.731044530248223e+000
 2.744111076400481e-001	 1.643914374481710e+000	 3.645898172090833e+000
 2.579574208145303e-001	 1.646576419508075e+000	 3.565976537952144e+000
 2.415314829456173e-001	 1.649065938904318e+000	 3.490206946208600e+000
 2.251357178628232e-001	 1.651384210760366e+000	 3.417540578219730e+000
 2.087725078145234e-001	 1.653532552507511e+000	 3.346962033507456e+000
 1.924441928558274e-001	 1.655512319555662e+000	 3.277498462993303e+000
 1.761530702828751e-001	 1.657324903926732e+000	 3.208228207290437e+000
 1.599013941131164e-001	 1.658971732885789e+000	 3.138288873255558e+000
 3.290967148996046e-001	 1.661040430608252e+000	 4.085746201282719e+000
 3.123103637898164e-001	 1.664278300119366e+000	 3.986738719717256e+000
 2.955445712606551e-001	 1.667337241395350e+000	 3.895341672347696e+000
 2.788019224559070e-001	 1.670218424821950e+000	 3.810487414100054e+000
 2.620849624251384e-001	 1.672923064868585e+000	 3.731110884158152e+000
 2.453961953582452e-001	 1.675452418725970e+000	 3.656161123932553e+000
 2.287380838681181e-001	 1.677807784934590e+000	 3.584612516414510e+000
 2.121130483211740e-001	 1.679990502005782e+000	 3.515475652246491e+000
 1.955234662154361e-001	 1.682001947037197e+000	 3.447807733914847e+000
 1.789716716057765e-001	 1.683843534324309e+000	 3.380722435979852e+000
 1.624599545758813e-001	 1.685516713969673e+000	 3.313399146136478e+000
 3.342796157880199e-001	 1.687199937925307e+000	 4.239124573616470e+000
 3.172288986420876e-001	 1.690488800217466e+000	 4.140847470182763e+000
 3.001990638511181e-001	 1.693595916357230e+000	 4.050500373263590e+000
 2.831927372719980e-001	 1.696522475162607e+000	 3.967043582583967e+000
 2.662125040359557e-001	 1.699269710229544e+000	 3.889438285946307e+000
 2.492609077710551e-001	 1.701838898548098e+000	 3.816659563801622e+000
 2.323404498735643e-001	 1.704231359109308e+000	 3.747709094988334e+000
 2.154535888279430e-001	 1.706448451504562e+000	 3.681627457749525e+000
 1.986027395751284e-001	 1.708491574519248e+000	 3.617505926841938e+000
 1.817902729287263e-001	 1.710362164722407e+000	 3.554497674736425e+000
 1.650185150386595e-001	 1.712061695054074e+000	 3.491828292507256e+000
 3.394625166766351e-001	 1.713359445242568e+000	 4.380034328198312e+000
 3.221474334945552e-001	 1.716699300315839e+000	 4.283735103510006e+000
 3.048535564417679e-001	 1.719854591319443e+000	 4.195795702834074e+000
 2.875835520882613e-001	 1.722826525503650e+000	 4.115205269925135e+000
 2.703400456469258e-001	 1.725616355590934e+000	 4.040951639937845e+000
 2.531256201839935e-001	 1.728225378370697e+000	 3.972035970844823e+000
 2.359428158791100e-001	 1.730654933284528e+000	 3.907487055382837e+000
 2.187941293347785e-001	 1.732906401003864e+000	 3.846375195420984e+000
 2.016820129348505e-001	 1.734981202001836e+000	 3.787825528024463e+000
 1.846088742516656e-001	 1.736880795121043e+000	 3.731030700405066e+000
 1.675770755013836e-001	 1.738606676139007e+000	 3.675262799320735e+000
 3.446454175653835e-001	 1.739518952559971e+000	 4.506869208312096e+000
 3.270659683471535e-001	 1.742909800414432e+000	 4.414155794630382e+000
 3.095080490325420e-001	 1.746113266281949e+000	 4.330342386376518e+000
 2.919743669046374e-001	 1.749130575845050e+000	 4.254443606539402e+000
 2.744675872579921e-001	 1.751963000952741e+000	 4.185470039554428e+000
 2.569903325970065e-001	 1.754611858193761e+000	 4.122444645060948e+000
 2.395451818847033e-001	 1.757078507460254e+000	 4.064418830983910e+000
 2.221346698416288e-001	 1.759364350503704e+000	 4.010488054553016e+000
 2.047612862945485e-001	 1.761470829484977e+000	 3.959806827982705e+000
 1.874274755745354e-001	 1.763399425520238e+000	 3.911603014236270e+000
 1.701356359639864e-001	 1.765151657224491e+000	 3.865191307507834e+000
 3.498283184541984e-001	 1.765678459877450e+000	 4.617890011980560e+000
 3.319845031998168e-001	 1.769120300513189e+000	 4.530722079324734e+000
 3.141625416233768e-001	 1.772371941244702e+000	 4.453105729069066e+000
 2.963651817210660e-001	 1.775434626186778e+000	 4.384073397163835e+000
 2.785951288690982e-001	 1.778309646314946e+000	 4.322650180041318e+000
 2.608550450100406e-001	 1.780998338017287e+000	 4.267872202018044e+000
 2.431475478902924e-001	 1.783502081636491e+000	 4.218804620112518e+000
 2.254752103484421e-001	 1.785822300004091e+000	 4.174559120478800e+000
 2.078405596541684e-001	 1.787960456968690e+000	 4.134310769544879e+000
 1.902460768972767e-001	 1.789918055920011e+000	 4.097314092496971e+000
 1.726941964264004e-001	 1.791696638310540e+000	 4.062918261853701e+000
 1.471085918018470e-001	 1.526246827473539e+000	 2.237635322524639e+000
 1.321932148552253e-001	 1.527610946368682e+000	 2.182449554774644e+000
 1.173181978656277e-001	 1.528825244973612e+000	 2.136113597480145e+000
 1.024855234592911e-001	 1.529891127063641e+000	 2.097443640646591e+000
 8.769713199628007e-002	 1.530810023842251e+000	 2.065308363454279e+000
 7.295492130095019e-002	 1.531583392679664e+000	 2.038630606766460e+000
 5.826074643223207e-002	 1.532212715858080e+000	 2.016388575861120e+000
 4.361641949297341e-002	 1.532699499324805e+000	 1.997616566499287e+000
 2.902370947754199e-002	 1.533045271454459e+000	 1.981405211241610e+000
 1.448434215685874e-002	 1.533251581821384e+000	 1.966901246611790e+000
 0.000000000000000e+000	 1.533319999983334e+000	 1.953306801697381e+000
 1.496671522635358e-001	 1.552791808555088e+000	 2.429504095115449e+000
 1.344923622314420e-001	 1.554179652649704e+000	 2.369359197232264e+000
 1.193586341098445e-001	 1.555415070730929e+000	 2.317502460230456e+000
 1.042679850074530e-001	 1.556499490988984e+000	 2.272593734377908e+000
 8.922238903169831e-002	 1.557434369519299e+000	 2.233354638196912e+000
 7.422377701450725e-002	 1.558221189039145e+000	 2.198570926583617e+000
 5.927403627859163e-002	 1.558861457611046e+000	 2.167094315700047e+000
 4.437501044347431e-002	 1.559356707374226e+000	 2.137843755869135e+000
 2.952849927044171e-002	 1.559708493285285e+000	 2.109806148023407e+000
 1.473625854557721e-002	 1.559918391869259e+000	 2.082036503454676e+000
 0.000000000000000e+000	 1.559987999982150e+000	 2.053657546865135e+000
 1.522257127255744e-001	 1.579336789637072e+000	 2.612714832309542e+000
 1.367915096080340e-001	 1.580748358931190e+000	 2.548857093838462e+000
 1.213990703544734e-001	 1.582004896488756e+000	 2.493016989469011e+000
 1.060504465560657e-001	 1.583107854914894e+000	 2.443709337764734e+000
 9.074764606759822e-002	 1.584058715196977e+000	 2.399520724533604e+000
 7.549263272855999e-002	 1.584858985399321e+000	 2.359112617740775e+000
 6.028732612543496e-002	 1.585510199364770e+000	 2.321223860128245e+000
 4.513360139441219e-002	 1.586013915424461e+000	 2.284672528659525e+000
 3.003328906368792e-002	 1.586371715116970e+000	 2.248357154795491e+000
 1.498817493449935e-002	 1.586585201918022e+000	 2.211257304357605e+000
 0.000000000000000e+000	 1.586655999981867e+000	 2.172433516323009e+000
 1.547842731878955e-001	 1.605881770719505e+000	 2.790198710747242e+000
 1.390906569849224e-001	 1.607317065213150e+000	 2.724071602168781e+000
 1.234395065994218e-001	 1.608594722247091e+000	 2.665953449891227e+000
 1.078329081050233e-001	 1.609716218841356e+000	 2.614222196724377e+000
 9.227290310386363e-002	 1.610683060875255e+000	 2.567338357410294e+000
 7.676148844298700e-002	 1.611496781760145e+000	 2.523848940078025e+000
 6.130061597264240e-002	 1.612158941119188e+000	 2.482390660200776e+000
 4.589219234567837e-002	 1.612671123475431e+000	 2.441692433810398e+000
 3.053807885719418e-002	 1.613034936949425e+000	 2.400577142229430e+000
 1.524009132357428e-002	 1.613252011967578e+000	 2.357962665932016e+000
 0.000000000000000e+000	 1.613323999982383e+000	 2.312862186142668e+000
 1.573428336504320e-001	 1.632426751802405e+000	 2.964598203715385e+000
 1.413898043620276e-001	 1.633885771495591e+000	 2.897836943215051e+000
 1.254799428445967e-001	 1.635184548005932e+000	 2.839308109452458e+000
 1.096153696542199e-001	 1.636324582768351e+000	 2.787257739326088e+000
 9.379816014037852e-002	 1.637307406554097e+000	 2.740026138853257e+000
 7.803034415766681e-002	 1.638134578121566e+000	 2.696052679871196e+000
 6.231390582009428e-002	 1.638807682874235e+000	 2.653879797355349e+000
 4.665078329716412e-002	 1.639328331527060e+000	 2.612156171474076e+000
 3.104286865087403e-002	 1.639698158782559e+000	 2.569639084671245e+000
 1.549200771275109e-002	 1.639918822017827e+000	 2.525195950076814e+000
 0.000000000000000e+000	 1.639991999983600e+000	 2.477805009025468e+000
 1.599013941131164e-001	 1.658971732885789e+000	 3.138288873255560e+000
 1.436889517392708e-001	 1.660454477778524e+000	 3.072715739083852e+000
 1.275203790899055e-001	 1.661774373765276e+000	 3.015800550880240e+000
 1.113978312035497e-001	 1.662932946695862e+000	 2.965659178917924e+000
 9.532341717702664e-002	 1.663931752233472e+000	 2.920514440146336e+000
 7.929919987247795e-002	 1.664772374483535e+000	 2.878701848203980e+000
 6.332719566767089e-002	 1.665456424629846e+000	 2.838674464923017e+000
 4.740937424876072e-002	 1.665985539579266e+000	 2.799006834511145e+000
 3.154765844464098e-002	 1.666361380616284e+000	 2.758397988493055e+000
 1.574392410197889e-002	 1.666585632068675e+000	 2.715673516213681e+000
 0.000000000000000e+000	 1.666659999985416e+000	 2.669786697751278e+000
 1.624599545758813e-001	 1.685516713969673e+000	 3.313399146136476e+000
 1.459880991165724e-001	 1.687023184061957e+000	 3.251019451707623e+000
 1.295608153352552e-001	 1.688364199525119e+000	 3.197894801323248e+000
 1.131802927529069e-001	 1.689541310623874e+000	 3.152009353157039e+000
 9.684867421369196e-002	 1.690556097913347e+000	 3.111467958981282e+000
 8.056805558729903e-002	 1.691410170846006e+000	 3.074502955340567e+000
 6.434048551525259e-002	 1.692105166385958e+000	 3.039479949271631e+000
 4.816796520035946e-002	 1.692642747631973e+000	 3.004902576498943e+000
 3.205244823840858e-002	 1.693024602450508e+000	 2.969416217715650e+000
 1.599584049120678e-002	 1.693252442120022e+000	 2.931810666053875e+000
 0.000000000000000e+000	 1.693327999987733e+000	 2.891021741540342e+000
 1.650185150386595e-001	 1.712061695054074e+000	 3.491828292507258e+000
 1.482872464938533e-001	 1.713591890345899e+000	 3.434826950377302e+000
 1.316012515805531e-001	 1.714954025285460e+000	 3.387818516941011e+000
 1.149627543021856e-001	 1.716149674552369e+000	 3.348650544671852e+000
 9.837393125025834e-002	 1.717180443593689e+000	 3.315306186093242e+000
 8.183691130200858e-002	 1.718047967208927e+000	 3.285912124182157e+000
 6.535377536271966e-002	 1.718753908142506e+000	 3.258745381955643e+000
 4.892655615185163e-002	 1.719299955685101e+000	 3.232238985560272e+000
 3.255723803209034e-002	 1.719687824285143e+000	 3.204986463723577e+000
 1.624775688038386e-002	 1.719919252171772e+000	 3.175745174746052e+000
 0.000000000000000e+000	 1.719995999990450e+000	 3.143438455648492e+000
 1.675770755013836e-001	 1.738606676139007e+000	 3.675262799320735e+000
 1.505863938710343e-001	 1.740160596630358e+000	 3.626001408080747e+000
 1.336416878257064e-001	 1.741543851046296e+000	 3.587580430313790e+000
 1.167452158512799e-001	 1.742758038481331e+000	 3.557702499070946e+000
 9.989918828660967e-002	 1.743804789274467e+000	 3.534222004806663e+000
 8.310576701648516e-002	 1.744685763572250e+000	 3.515154273757130e+000
 6.636706520995245e-002	 1.745402649899424e+000	 3.498683501095297e+000
 4.968514710312848e-002	 1.745957163738571e+000	 3.483169409204298e+000
 3.306202782559982e-002	 1.746351046120098e+000	 3.467152610862922e+000
 1.649967326945923e-002	 1.746586062223827e+000	 3.449358666362127e+000
 0.000000000000000e+000	 1.746663999993467e+000	 3.428700827832582e+000
 1.701356359639864e-001	 1.765151657224491e+000	 3.865191307507831e+000
 1.528855412480362e-001	 1.766729302915346e+000	 3.826205702569197e+000
 1.356821240706222e-001	 1.768133676807624e+000	 3.798986243542742e+000
 1.185276774000841e-001	 1.769366402410742e+000	 3.781078830060505e+000
 1.014244453226298e-001	 1.770429134955645e+000	 3.770198620037964e+000
 8.437462273060729e-002	 1.771323559935926e+000	 3.764240575908620e+000
 6.738035505683125e-002	 1.772051391656649e+000	 3.761288631553125e+000
 5.044373805408137e-002	 1.772614371792307e+000	 3.759623445874313e+000
 3.356681761885053e-002	 1.773014267955283e+000	 3.757728719419119e+000
 1.675158965838199e-002	 1.773252872276091e+000	 3.754296060644672e+000
 0.000000000000000e+000	 1.773331999996684e+000	 3.748228393606641e+000
 1.726941964264004e-001	 1.791696638310540e+000	 4.062918261853701e+000
 1.551846886247798e-001	 1.793298009200867e+000	 4.036916477226926e+000
 1.377225603152077e-001	 1.794723502569440e+000	 4.023653128235987e+000
 1.203101389484923e-001	 1.795974766340584e+000	 4.020501978943110e+000
 1.029497023582027e-001	 1.797053480637195e+000	 4.025024990004112e+000
 8.564347844425359e-002	 1.797961356299908e+000	 4.034984364265737e+000
 6.839364490323641e-002	 1.798700133414115e+000	 4.048353068632078e+000
 5.120232900460153e-002	 1.799271579846228e+000	 4.063323793329660e+000
 3.407160741175602e-002	 1.799677489790610e+000	 4.078316321218233e+000
 1.700350604710123e-002	 1.799919682328466e+000	 4.091983291042896e+000
 0.000000000000000e+000	 1.800000000000000e+000	 4.103214344720352e+000
 1.800000000000000e+000	 0.000000000000000e+000	 1.328035254476943e+001
 1.799919682328466e+000	 1.700350604710072e-002	 1.325017465487123e+001
 1.799677489790610e+000	 3.407160741175556e-002	 1.323344148505618e+001
 1.799271579846229e+000	 5.120232900460113e-002	 1.322768758643875e+001
 1.798700133414114e+000	 6.839364490323606e-002	 1.323038020719113e+001
 1.797961356299907e+000	 8.564347844425327e-002	 1.323892354705174e+001
 1.797053480637195e+000	 1.029497023582024e-001	 1.325066349081088e+001
 1.795974766340585e+000	 1.203101389484920e-001	 1.326289280048285e+001
 1.794723502569440e+000	 1.377225603152076e-001	 1.327285675644863e+001
 1.793298009200866e+000	 1.551846886247796e-001	 1.327775923454193e+001
 1.791696638310540e+000	 1.726941964264003e-001	 1.327476920265627e+001
 1.826668000003317e+000	 0.000000000000000e+000	 1.309190113902838e+001
 1.826586492380854e+000	 1.725542243558252e-002	 1.306659303143023e+001
 1.826340711625984e+000	 3.457639720425813e-002	 1.305494461286245e+001
 1.825928787900252e+000	 5.196091995461603e-002	 1.305440151635864e+001
 1.825348875171750e+000	 6.940693474908762e-002	 1.306233602956637e+001
 1.824599152664132e+000	 8.691233415734243e-002	 1.307605167284402e+001
 1.823677826319064e+000	 1.044749593932499e-001	 1.309278830171554e+001
 1.822583130270824e+000	 1.220926004964327e-001	 1.310972771302212e+001
 1.821313328331721e+000	 1.397629965593995e-001	 1.312399974429698e+001
 1.819866715486908e+000	 1.574838360012100e-001	 1.313268885226200e+001
 1.818241619397147e+000	 1.752527568885780e-001	 1.313284115262873e+001
 1.853336000006534e+000	 0.000000000000000e+000	 1.292851113141774e+001
 1.853253302433154e+000	 1.750733882386080e-002	 1.290751634644599e+001
 1.853003933461306e+000	 3.508118699641537e-002	 1.290026849443220e+001
 1.852585995954273e+000	 5.271951090419779e-002	 1.290413498206627e+001
 1.851997616929445e+000	 7.042022459446448e-002	 1.291640465846031e+001
 1.851236949028488e+000	 8.818118986995369e-002	 1.293429275173780e+001
 1.850302172001139e+000	 1.060002164278468e-001	 1.295494637713484e+001
 1.849191494201343e+000	 1.238750620439719e-001	 1.297545059551495e+001
 1.847903154094349e+000	 1.418034328032531e-001	 1.299283501093576e+001
 1.846435421773350e+000	 1.597829833773704e-001	 1.300408089194669e+001
 1.844786600484193e+000	 1.778113173505509e-001	 1.300612879723120e+001
 1.880004000009551e+000	 0.000000000000000e+000	 1.279126653314184e+001
 1.879920112485265e+000	 1.775925521198643e-002	 1.277353411173478e+001
 1.879667155296469e+000	 3.558597678831360e-002	 1.276956927590534e+001
 1.879243204008180e+000	 5.347810185345472e-002	 1.277667074720841e+001
 1.878646358687084e+000	 7.143351443948540e-002	 1.279205421821405e+001
 1.877874745392853e+000	 8.945004558220661e-002	 1.281285768385440e+001
 1.876926517683291e+000	 1.075254734621056e-001	 1.283614739349904e+001
 1.875799858132006e+000	 1.256575235912099e-001	 1.285892440214774e+001
 1.874492979857182e+000	 1.438438690468528e-001	 1.287813170837021e+001
 1.873004128060052e+000	 1.620821307533283e-001	 1.289066196229475e+001
 1.871331581571538e+000	 1.803698778123701e-001	 1.289336572252148e+001
 1.906672000012267e+000	 0.000000000000000e+000	 1.268141211938978e+001
 1.906586922537085e+000	 1.801117160001032e-002	 1.266540658127641e+001
 1.906330377131368e+000	 3.609076658003917e-002	 1.266318174783466e+001
 1.905900412061863e+000	 5.423669280249505e-002	 1.267197606108988e+001
 1.905295100444551e+000	 7.244680428426897e-002	 1.268894111439568e+001
 1.904512541757102e+000	 9.071890129422063e-002	 1.271114741625851e+001
 1.903550863365390e+000	 1.090507304961391e-001	 1.273559082645869e+001
 1.902408222062676e+000	 1.274399851382472e-001	 1.275919964227841e+001
 1.901082805620080e+000	 1.458843052902832e-001	 1.277884232132193e+001
 1.899572834346870e+000	 1.643812781291510e-001	 1.279133582270835e+001
 1.897876562659040e+000	 1.829284382740870e-001	 1.279345454358948e+001
 1.933340000014584e+000	 0.000000000000000e+000	 1.260034234164720e+001
 1.933253732588514e+000	 1.826308798798332e-002	 1.258405245507203e+001
 1.932993598965897e+000	 3.659555637167840e-002	 1.258160603564812e+001
 1.932557620115213e+000	 5.499528375142715e-002	 1.259018852726796e+001
 1.931943842201727e+000	 7.346009412893390e-002	 1.260689526832395e+001
 1.931150338121113e+000	 9.198775700611517e-002	 1.262873772727301e+001
 1.930175209047304e+000	 1.105759875300598e-001	 1.265265046472221e+001
 1.929016585993217e+000	 1.292224466851841e-001	 1.267549879919140e+001
 1.927672631382903e+000	 1.479247415336291e-001	 1.269408716176867e+001
 1.926141540633660e+000	 1.666804255049064e-001	 1.270516811975705e+001
 1.924421543746556e+000	 1.854869987357526e-001	 1.270545204416519e+001
 1.960008000016401e+000	 0.000000000000000e+000	 1.254959114516680e+001
 1.959920542639449e+000	 1.851500437595633e-002	 1.253053758727071e+001
 1.959656820799952e+000	 3.710034616331763e-002	 1.252549537843865e+001
 1.959214828168119e+000	 5.575387470035926e-002	 1.253160312971299e+001
 1.958592583958498e+000	 7.447338397359885e-002	 1.254590656381637e+001
 1.957788134484761e+000	 9.325661271800977e-002	 1.256536526335531e+001
 1.956799554728904e+000	 1.121012445639806e-001	 1.258686020273430e+001
 1.955624949923494e+000	 1.310049082321211e-001	 1.260720204020584e+001
 1.954262457145510e+000	 1.499651777769750e-001	 1.262314015387222e+001
 1.952710246920282e+000	 1.689795728806617e-001	 1.263137239990096e+001
 1.950966524833943e+000	 1.880455591974182e-001	 1.262855556551723e+001
 1.986676000017618e+000	 0.000000000000000e+000	 1.253082260654630e+001
 1.986587352689790e+000	 1.876692076398024e-002	 1.250606460419973e+001
 1.986320042633430e+000	 3.760513595504324e-002	 1.249564489381835e+001
 1.985872036220470e+000	 5.651246564939969e-002	 1.249666030776459e+001
 1.985241325714745e+000	 7.548667381838249e-002	 1.250611239225573e+001
 1.984425930847923e+000	 9.452546843002384e-002	 1.252091471083679e+001
 1.983423900410059e+000	 1.136265015980141e-001	 1.253790099203172e+001
 1.982233313853369e+000	 1.327873697791584e-001	 1.255383409679413e+001
 1.980852282907762e+000	 1.520056140204055e-001	 1.256541578804383e+001
 1.979278953206592e+000	 1.712787202564845e-001	 1.256929727855081e+001
 1.977511505921061e+000	 1.906041196591351e-001	 1.256209052725293e+001
 2.013344000018134e+000	 0.000000000000000e+000	 1.253424656676438e+001
 2.013254162739435e+000	 1.901883715210593e-002	 1.250170378429602e+001
 2.012983264466222e+000	 3.810992574694156e-002	 1.248418852470378e+001
 2.012529244272157e+000	 5.727105659865671e-002	 1.247866913964275e+001
 2.011890067470353e+000	 7.649996366340350e-002	 1.248202353287451e+001
 2.011063727210475e+000	 9.579432414227686e-002	 1.249105097672581e+001
 2.010048246090639e+000	 1.151517586322730e-001	 1.250248400612792e+001
 2.008841677782708e+000	 1.345698313263965e-001	 1.251300037476191e+001
 2.007442108669516e+000	 1.540460502640053e-001	 1.251923507342447e+001
 2.005847659492447e+000	 1.735778676324424e-001	 1.251779241384351e+001
 2.004056487007766e+000	 1.931626801209544e-001	 1.250525818429798e+001
 2.040012000017851e+000	 0.000000000000000e+000	 1.249304686697309e+001
 2.039920972788282e+000	 1.927075354038426e-002	 1.245734928610468e+001
 2.039646486298226e+000	 3.861471553909890e-002	 1.243738430555868e+001
 2.039186452323067e+000	 5.802964754823859e-002	 1.242992998660095e+001
 2.038538809225204e+000	 7.751325350878056e-002	 1.243169185149882e+001
 2.037701523572295e+000	 9.706317985488829e-002	 1.243931509648526e+001
 2.036672591770513e+000	 1.166770156668700e-001	 1.244939681900473e+001
 2.035450041711373e+000	 1.363522928739357e-001	 1.245849824383796e+001
 2.034031934430634e+000	 1.560864865078590e-001	 1.246315694906285e+001
 2.032416365777704e+000	 1.758770150086029e-001	 1.245989909641753e+001
 2.030601468093916e+000	 1.957212405829273e-001	 1.244525167424685e+001
 2.066680000016667e+000	 0.000000000000000e+000	 1.239931016761585e+001
 2.066587782836232e+000	 1.952266992886615e-002	 1.236595075603563e+001
 2.066309708129337e+000	 3.911950533160163e-002	 1.234875998869683e+001
 2.065843660373092e+000	 5.878823849825369e-002	 1.234433189389831e+001
 2.065187550979180e+000	 7.852654335463229e-002	 1.234920823507576e+001
 2.064339319933259e+000	 9.833203556797764e-002	 1.235989109537346e+001
 2.063296937449552e+000	 1.182022727019178e-001	 1.237285540567814e+001
 2.062058405639229e+000	 1.381347544218766e-001	 1.238456140093465e+001
 2.060621760190973e+000	 1.581269227520511e-001	 1.239146700669703e+001
 2.058985072062221e+000	 1.781761623850334e-001	 1.239004016199927e+001
 2.057146449179369e+000	 1.982798010451050e-001	 1.237677108879150e+001
 1.791696638310540e+000	 1.726941964264003e-001	 1.327476920265627e+001
 1.789918055920011e+000	 1.902460768972756e-001	 1.327207291576150e+001
 1.787960456968690e+000	 2.078405596541674e-001	 1.327832906627754e+001
 1.785822300004091e+000	 2.254752103484413e-001	 1.329140551482841e+001
 1.783502081636491e+000	 2.431475478902917e-001	 1.330918775438571e+001
 1.780998338017288e+000	 2.608550450100401e-001	 1.332958651838901e+001
 1.778309646314947e+000	 2.785951288690978e-001	 1.335054557521050e+001
 1.775434626186778e+000	 2.963651817210659e-001	 1.337004966782735e+001
 1.772371941244702e+000	 3.141625416233767e-001	 1.338613255450839e+001
 1.769120300513189e+000	 3.319845031998169e-001	 1.339688510341687e+001
 1.765678459877450e+000	 3.498283184541984e-001	 1.340046339131822e+001
 1.818241619397147e+000	 1.752527568885780e-001	 1.313284115262873e+001
 1.816436686320356e+000	 1.930646782198457e-001	 1.313297593801843e+001
 1.814450084452968e+000	 2.109198330136686e-001	 1.314212780812432e+001
 1.812280249505019e+000	 2.288157508551775e-001	 1.315810346322059e+001
 1.809925655813227e+000	 2.467499138958355e-001	 1.317872889719963e+001
 1.807384817841254e+000	 2.647197574230519e-001	 1.320185765735148e+001
 1.804656291677525e+000	 2.827226704801977e-001	 1.322537931033363e+001
 1.801738676528800e+000	 3.007559965374987e-001	 1.324722806944361e+001
 1.798630616207664e+000	 3.188170342142214e-001	 1.326539153494595e+001
 1.795330800612062e+000	 3.369030380524930e-001	 1.327791949602135e+001
 1.791837967194950e+000	 3.550112193430273e-001	 1.328293273991700e+001
 1.844786600484193e+000	 1.778113173505509e-001	 1.300612879723120e+001
 1.842955316721160e+000	 1.958832795422661e-001	 1.300787198844343e+001
 1.840939711937706e+000	 2.139991063730644e-001	 1.301874746725277e+001
 1.838738199006388e+000	 2.321562913618431e-001	 1.303649797184129e+001
 1.836349229990371e+000	 2.503522799013354e-001	 1.305888746955508e+001
 1.833771297665584e+000	 2.685844698360398e-001	 1.308371012649725e+001
 1.831002937040409e+000	 2.868502120912876e-001	 1.310879950479008e+001
 1.828042726871060e+000	 3.051468113539313e-001	 1.313203793857058e+001
 1.824889291170791e+000	 3.234715268050728e-001	 1.315136603610425e+001
 1.821541300711023e+000	 3.418215729051807e-001	 1.316479225190493e+001
 1.817997474512458e+000	 3.601941202318724e-001	 1.317040246947576e+001
 1.871331581571538e+000	 1.803698778123701e-001	 1.289336572252148e+001
 1.869473947122285e+000	 1.987018808645739e-001	 1.289553644379342e+001
 1.867429339422771e+000	 2.170783797323812e-001	 1.290702584161184e+001
 1.865196148508078e+000	 2.354968318684564e-001	 1.292550884149985e+001
 1.862772804167815e+000	 2.539546459068037e-001	 1.294868377441000e+001
 1.860157777490180e+000	 2.724491822490121e-001	 1.297428211810412e+001
 1.857349582403518e+000	 2.909777537023744e-001	 1.300007848949840e+001
 1.854346777213499e+000	 3.095376261703707e-001	 1.302390083468295e+001
 1.851147966134041e+000	 3.281260193959392e-001	 1.304364075929667e+001
 1.847751800810049e+000	 3.467401077578918e-001	 1.305726393811314e+001
 1.844156981829972e+000	 3.653770211207496e-001	 1.306282053910296e+001
 1.897876562659040e+000	 1.829284382740870e-001	 1.279345454358948e+001
 1.895992577523594e+000	 2.015204821868070e-001	 1.279490439204361e+001
 1.893918966908032e+000	 2.201576530916455e-001	 1.280595063576770e+001
 1.891654098009965e+000	 2.388373723750355e-001	 1.282419546171617e+001
 1.889196378345448e+000	 2.575570119122527e-001	 1.284726684565195e+001
 1.886544257314950e+000	 2.763138946619772e-001	 1.287282913126870e+001
 1.883696227766777e+000	 2.951052953134650e-001	 1.289859388558396e+001
 1.880650827556055e+000	 3.139284409868239e-001	 1.292233097263156e+001
 1.877406641097374e+000	 3.327805119868297e-001	 1.294187978308307e+001
 1.873962300909120e+000	 3.516586426106381e-001	 1.295516055324357e+001
 1.870316489147490e+000	 3.705599220096755e-001	 1.296018570294191e+001
 1.924421543746556e+000	 1.854869987357526e-001	 1.270545204416519e+001
 1.922511207924948e+000	 2.043390835090027e-001	 1.270505628144288e+001
 1.920408594393359e+000	 2.232369264508840e-001	 1.271464567300932e+001
 1.918112047511930e+000	 2.421779128815985e-001	 1.273174363747256e+001
 1.915619952523161e+000	 2.611593779176944e-001	 1.275390193902100e+001
 1.912930737139797e+000	 2.801786070749440e-001	 1.277871217439129e+001
 1.910042873130104e+000	 2.992328369245659e-001	 1.280381756361979e+001
 1.906954877898667e+000	 3.183192558032974e-001	 1.282692498158499e+001
 1.903665316060748e+000	 3.374350045777526e-001	 1.284581716255156e+001
 1.900172801008212e+000	 3.565771774634313e-001	 1.285836500535889e+001
 1.896475996465010e+000	 3.757428228986662e-001	 1.286253990260766e+001
 1.950966524833943e+000	 1.880455591974182e-001	 1.262855556551723e+001
 1.949029838326206e+000	 2.071576848311983e-001	 1.262520478345229e+001
 1.946898221878620e+000	 2.263161998101231e-001	 1.263235828171301e+001
 1.944569997013850e+000	 2.455184533881637e-001	 1.264745354646615e+001
 1.942043526700847e+000	 2.647617439231413e-001	 1.266795910572418e+001
 1.939317216964628e+000	 2.840433194879207e-001	 1.269138699858045e+001
 1.936389518493423e+000	 3.033603785356842e-001	 1.271530557814935e+001
 1.933258928241277e+000	 3.227100706197986e-001	 1.273735257984468e+001
 1.929923991024120e+000	 3.420894971687167e-001	 1.275524838140076e+001
 1.926383301107304e+000	 3.614957123162833e-001	 1.276680937606427e+001
 1.922635503782531e+000	 3.809257237877377e-001	 1.276996137570303e+001
 1.977511505921061e+000	 1.906041196591351e-001	 1.256209052725293e+001
 1.975548468727234e+000	 2.099762861534317e-001	 1.255468275550442e+001
 1.973387849363683e+000	 2.293954731693894e-001	 1.255844774562746e+001
 1.971027946515604e+000	 2.488589938947492e-001	 1.257072872063345e+001
 1.968467100878397e+000	 2.683641099286054e-001	 1.258890274700461e+001
 1.965703696789349e+000	 2.879080319009158e-001	 1.261039426510657e+001
 1.962736163856656e+000	 3.074879201468266e-001	 1.263268898584844e+001
 1.959562978583822e+000	 3.271008854363341e-001	 1.265334807947497e+001
 1.956182665987450e+000	 3.467439897597305e-001	 1.267002257668863e+001
 1.952593801206374e+000	 3.664142471692060e-001	 1.268046789687723e+001
 1.948795011100049e+000	 3.861086246769065e-001	 1.268255841312662e+001
 2.004056487007766e+000	 1.931626801209544e-001	 1.250525818429799e+001
 2.002067099127891e+000	 2.127948874757400e-001	 1.249288364176313e+001
 1.999877476848419e+000	 2.324747465287094e-001	 1.249237471943265e+001
 1.997485896017071e+000	 2.521995344013732e-001	 1.250106595697758e+001
 1.994890675055700e+000	 2.719664759340992e-001	 1.251628205871192e+001
 1.992090176613864e+000	 2.917727443139379e-001	 1.253535056029988e+001
 1.989082809219724e+000	 3.116154617579998e-001	 1.255566546539464e+001
 1.985867028926243e+000	 3.314917002529111e-001	 1.257470264380558e+001
 1.982441340950695e+000	 3.513984823508028e-001	 1.259003546460457e+001
 1.978804301305400e+000	 3.713327820222112e-001	 1.259935057184436e+001
 1.974954518417563e+000	 3.912915255661884e-001	 1.260046370501495e+001
 2.030601468093916e+000	 1.957212405829273e-001	 1.244525167424685e+001
 2.028585729528039e+000	 2.156134887981609e-001	 1.243074105137332e+001
 2.026367104332694e+000	 2.355540198881095e-001	 1.242830408474968e+001
 2.023943845518130e+000	 2.555400749080539e-001	 1.243514159914411e+001
 2.021314249232647e+000	 2.755688419396346e-001	 1.244851773064272e+001
 2.018476656438079e+000	 2.956374567269953e-001	 1.246577168657403e+001
 2.015429454582549e+000	 3.157430033692105e-001	 1.248432958254448e+001
 2.012171079268478e+000	 3.358825150695361e-001	 1.250171638682779e+001
 2.008700015913814e+000	 3.560529749419424e-001	 1.251556800459522e+001
 2.005014801404359e+000	 3.762513168753106e-001	 1.252364353631845e+001
 2.001114025735070e+000	 3.964744264555998e-001	 1.252383774607097e+001
 2.057146449179369e+000	 1.982798010451050e-001	 1.237677108879149e+001
 2.055104359927541e+000	 2.184320901207318e-001	 1.236342178295044e+001
 2.052856731816378e+000	 2.386332932476165e-001	 1.236211232575755e+001
 2.050401795018658e+000	 2.588806154148093e-001	 1.236995562751405e+001
 2.047737823409130e+000	 2.791712079452241e-001	 1.238414362376617e+001
 2.044863136261900e+000	 2.995021691400969e-001	 1.240195882072102e+001
 2.041776099945052e+000	 3.198705449804656e-001	 1.242078588426971e+001
 2.038475129610468e+000	 3.402733298862165e-001	 1.243812330858120e+001
 2.034958690876767e+000	 3.607074675331577e-001	 1.245159520286930e+001
 2.031225301503231e+000	 3.811698517285160e-001	 1.245896323712315e+001
 2.027273533052570e+000	 4.016573273451569e-001	 1.245813878929056e+001
 1.765678459877450e+000	 3.498283184541984e-001	 1.340046339131822e+001
 1.762044664318403e+000	 3.676938779329496e-001	 1.340349083900105e+001
 1.758218270537386e+000	 3.855756710127969e-001	 1.341269716837473e+001
 1.754198184645169e+000	 4.034708216724217e-001	 1.342652375211076e+001
 1.749983365329664e+000	 4.213764149277032e-001	 1.344351452647303e+001
 1.745572825227723e+000	 4.392894979044454e-001	 1.346232332622180e+001
 1.740965632275259e+000	 4.572070809624127e-001	 1.348172086621704e+001
 1.736160911033618e+000	 4.751261388703826e-001	 1.350060130810685e+001
 1.731157843990141e+000	 4.930436120318358e-001	 1.351798835037315e+001
 1.725955672830830e+000	 5.109564077608136e-001	 1.353304078033194e+001
 1.720553699683057e+000	 5.288614016073797e-001	 1.354505742747385e+001
 1.791837967194950e+000	 3.550112193430273e-001	 1.328293273991700e+001
 1.788150334935661e+000	 3.731414670106319e-001	 1.328725280255216e+001
 1.784267251004714e+000	 3.912881887890967e-001	 1.329780148536671e+001
 1.780187605306307e+000	 4.094484660472605e-001	 1.331298769906792e+001
 1.775910341100747e+000	 4.276193406139059e-001	 1.333133222338590e+001
 1.771434456396564e+000	 4.457978158663766e-001	 1.335147573931181e+001
 1.766759005320630e+000	 4.639808578712684e-001	 1.337218647867103e+001
 1.761883099464190e+000	 4.821653965768895e-001	 1.339236742348434e+001
 1.756805909202691e+000	 5.003483270571110e-001	 1.341106298740878e+001
 1.751526664987303e+000	 5.185265108061259e-001	 1.342746511187101e+001
 1.746044658606036e+000	 5.366967770835491e-001	 1.344091871032788e+001
 1.817997474512458e+000	 3.601941202318724e-001	 1.317040246947576e+001
 1.814256005552847e+000	 3.785890560883355e-001	 1.317522774234769e+001
 1.810316231471889e+000	 3.970007065654228e-001	 1.318639508816642e+001
 1.806177025967220e+000	 4.154261104221303e-001	 1.320228425739900e+001
 1.801837316871536e+000	 4.338622663001414e-001	 1.322139642993467e+001
 1.797296087565045e+000	 4.523061338283392e-001	 1.324236298935950e+001
 1.792552378365584e+000	 4.707546347801497e-001	 1.326395388376484e+001
 1.787605287894298e+000	 4.892046542834107e-001	 1.328508549919075e+001
 1.782453974414742e+000	 5.076530420823825e-001	 1.330482797159712e+001
 1.777097657143252e+000	 5.260966138514089e-001	 1.332241186356281e+001
 1.771535617528480e+000	 5.445321525596548e-001	 1.333723413277383e+001
 1.844156981829972e+000	 3.653770211207496e-001	 1.306282053910296e+001
 1.840361676169980e+000	 3.840366451660824e-001	 1.306755042115474e+001
 1.836365211938954e+000	 4.027132243418037e-001	 1.307878670508191e+001
 1.832166446627964e+000	 4.214037547970657e-001	 1.309488198453196e+001
 1.827764292642103e+000	 4.401051919864520e-001	 1.311432012654811e+001
 1.823157718733256e+000	 4.588144517903843e-001	 1.313572583783196e+001
 1.818345751410225e+000	 4.775284116891164e-001	 1.315787378526465e+001
 1.813327476324059e+000	 4.962439119900156e-001	 1.317969718999628e+001
 1.808102039626417e+000	 5.149577571077297e-001	 1.320029581414476e+001
 1.802668649298809e+000	 5.336667168967523e-001	 1.321894325944152e+001
 1.797026576450526e+000	 5.523675280357958e-001	 1.323509349805717e+001
 1.870316489147490e+000	 3.705599220096755e-001	 1.296018570294191e+001
 1.866467346787076e+000	 3.894842342438937e-001	 1.296439165729412e+001
 1.862414192405942e+000	 4.084257421182669e-001	 1.297530687563310e+001
 1.858155867288595e+000	 4.273813991721016e-001	 1.299125748661031e+001
 1.853691268412522e+000	 4.463481176728810e-001	 1.301071104920758e+001
 1.849019349901286e+000	 4.653227697525628e-001	 1.303228696635431e+001
 1.844139124454658e+000	 4.843021885982291e-001	 1.305476641902133e+001
 1.839049664753587e+000	 5.032831696967739e-001	 1.307710173283795e+001
 1.833750104837843e+000	 5.222624721332320e-001	 1.309842508894345e+001
 1.828239641454104e+000	 5.412368199422444e-001	 1.311805649106681e+001
 1.822517535372304e+000	 5.602029035120718e-001	 1.313551090175520e+001
 1.896475996465010e+000	 3.757428228986662e-001	 1.286253990260766e+001
 1.892573017404154e+000	 3.949318233217910e-001	 1.286595162297541e+001
 1.888463172872894e+000	 4.141382598948403e-001	 1.287630210102073e+001
 1.884145287949170e+000	 4.333590435472733e-001	 1.289189036442772e+001
 1.879618244182866e+000	 4.525910433594709e-001	 1.291116737131254e+001
 1.874880981069227e+000	 4.718310877149264e-001	 1.293274733215474e+001
 1.869932497498986e+000	 4.910759655075478e-001	 1.295541851687934e+001
 1.864771853182998e+000	 5.103224274037552e-001	 1.297815345137337e+001
 1.859398170049142e+000	 5.295671871589683e-001	 1.300011840731167e+001
 1.853810633609267e+000	 5.488069229879748e-001	 1.302068208942879e+001
 1.848008494293951e+000	 5.680382789885818e-001	 1.303942342533311e+001
 1.922635503782531e+000	 3.809257237877377e-001	 1.276996137570303e+001
 1.918678688021233e+000	 4.003794123997962e-001	 1.277245378872536e+001
 1.914512153339845e+000	 4.198507776715515e-001	 1.278212957440641e+001
 1.910134708609745e+000	 4.393366879226154e-001	 1.279725867674600e+001
 1.905545219953211e+000	 4.588339690462645e-001	 1.281627384451414e+001
 1.900742612237168e+000	 4.783394056775261e-001	 1.283778292822655e+001
 1.895725870543314e+000	 4.978497424171325e-001	 1.286058062536673e+001
 1.890494041612410e+000	 5.173616851110289e-001	 1.288365956984288e+001
 1.885046235260443e+000	 5.368719021850179e-001	 1.290622066118070e+001
 1.879381625764431e+000	 5.563770260340331e-001	 1.292768252918847e+001
 1.873499453215596e+000	 5.758736544654248e-001	 1.294769003082191e+001
 1.948795011100049e+000	 3.861086246769065e-001	 1.268255841312662e+001
 1.944784358638330e+000	 4.058270014779306e-001	 1.268413945319971e+001
 1.940561133806835e+000	 4.255632954484290e-001	 1.269315243651817e+001
 1.936124129270376e+000	 4.453143322981632e-001	 1.270783487237886e+001
 1.931472195723630e+000	 4.650768947333048e-001	 1.272659835538852e+001
 1.926604243405198e+000	 4.848477236404133e-001	 1.274804191017598e+001
 1.921519243587748e+000	 5.046235193270440e-001	 1.277096474582649e+001
 1.916216230041939e+000	 5.244009428186647e-001	 1.279437830717256e+001
 1.910694300471868e+000	 5.441766172114603e-001	 1.281751750949879e+001
 1.904952617919725e+000	 5.639471290805077e-001	 1.283985104342013e+001
 1.898990412137376e+000	 5.837090299427001e-001	 1.286109063771733e+001
 1.974954518417563e+000	 3.912915255661884e-001	 1.260046370501495e+001
 1.970890029255462e+000	 4.112745905562161e-001	 1.260126280409789e+001
 1.966610114273898e+000	 4.312758132255002e-001	 1.260973550787399e+001
 1.962113549931120e+000	 4.512919766739514e-001	 1.262408214757552e+001
 1.957399171494197e+000	 4.713198204206343e-001	 1.264268885939059e+001
 1.952465874573409e+000	 4.913560416036388e-001	 1.266414205575463e+001
 1.947312616632389e+000	 5.113972962373420e-001	 1.268724226618302e+001
 1.941938418471699e+000	 5.314402005267321e-001	 1.271101722533221e+001
 1.936342365683543e+000	 5.514813322383745e-001	 1.273473408529873e+001
 1.930523610075283e+000	 5.715172321274878e-001	 1.275791062933408e+001
 1.924481371059421e+000	 5.915444054205067e-001	 1.278032536520067e+001
 2.001114025735070e+000	 3.964744264555998e-001	 1.252383774607098e+001
 1.996995699872648e+000	 4.167221796346737e-001	 1.252408646158120e+001
 1.992659094741075e+000	 4.369883310027932e-001	 1.253224145400470e+001
 1.988102970592032e+000	 4.572696210500152e-001	 1.254645118978414e+001
 1.983326147264985e+000	 4.775627461082961e-001	 1.256507065756258e+001
 1.978327505741890e+000	 4.978643595672545e-001	 1.258666852663087e+001
 1.973105989677342e+000	 5.181710731480865e-001	 1.261004215765487e+001
 1.967660606901807e+000	 5.384794582353006e-001	 1.263423180867908e+001
 1.961990430895594e+000	 5.587860472658399e-001	 1.265853390323479e+001
 1.956094602231231e+000	 5.790873351750632e-001	 1.268251322750198e+001
 1.949972329981867e+000	 5.993797808989436e-001	 1.270601392455102e+001
 2.027273533052570e+000	 4.016573273451569e-001	 1.245813878929057e+001
 2.023101370489906e+000	 4.221697687133256e-001	 1.245713087862288e+001
 2.018708075208402e+000	 4.427008487803357e-001	 1.246404526878357e+001
 2.014092391253171e+000	 4.632472654263896e-001	 1.247718859502209e+001
 2.009253123036070e+000	 4.838056717963330e-001	 1.249505548056591e+001
 2.004189136910732e+000	 5.043726775313111e-001	 1.251634228384695e+001
 1.998899362722714e+000	 5.249448500593382e-001	 1.253994941247894e+001
 1.993382795332379e+000	 5.455187159444399e-001	 1.256462425342195e+001
 1.987638496108145e+000	 5.660907622939359e-001	 1.258951794947834e+001
 1.981665594387705e+000	 5.866574382233225e-001	 1.261423905890935e+001
 1.975463288904845e+000	 6.072151563781102e-001	 1.263869514817964e+001
 1.720553699683057e+000	 5.288614016073797e-001	 1.354505742747385e+001
 1.714951287895949e+000	 5.467554384699807e-001	 1.355482946431495e+001
 1.709147861924183e+000	 5.646353332059860e-001	 1.356332165785311e+001
 1.703142909757176e+000	 5.824978728425351e-001	 1.357029897548376e+001
 1.696935984454056e+000	 6.003398183486901e-001	 1.357565807931469e+001
 1.690526705208834e+000	 6.181579061975373e-001	 1.357942778273188e+001
 1.683914758373382e+000	 6.359488499726911e-001	 1.358176861052963e+001
 1.677099898436262e+000	 6.537093420179825e-001	 1.358297142317032e+001
 1.670081948955454e+000	 6.714360551290196e-001	 1.358350424870028e+001
 1.662860803443095e+000	 6.891256442852184e-001	 1.358466920518825e+001
 1.655436426200365e+000	 7.067747484208015e-001	 1.358681953621043e+001
 1.746044658606036e+000	 5.366967770835491e-001	 1.344091871032788e+001
 1.740359243975686e+000	 5.548559240432534e-001	 1.345193309658575e+001
 1.734469837023907e+000	 5.730007193529455e-001	 1.346120382999940e+001
 1.728375918154393e+000	 5.911279024377770e-001	 1.346858089809434e+001
 1.722077033804591e+000	 6.092341862787585e-001	 1.347405945984293e+001
 1.715572797526654e+000	 6.273162589980009e-001	 1.347778041977029e+001
 1.708862891025580e+000	 6.453707854890253e-001	 1.348003002105919e+001
 1.701947065152540e+000	 6.633944090908885e-001	 1.348123841386016e+001
 1.694825140851424e+000	 6.813837533048077e-001	 1.348244620879713e+001
 1.687497010056690e+000	 6.993354235518501e-001	 1.348485542163137e+001
 1.679962636540613e+000	 7.172460089701712e-001	 1.348855413824297e+001
 1.771535617528480e+000	 5.445321525596548e-001	 1.333723413277383e+001
 1.765767200054896e+000	 5.629564096164186e-001	 1.334951357386661e+001
 1.759791812123126e+000	 5.813661054997465e-001	 1.335965630806812e+001
 1.753608926551138e+000	 5.997579320328053e-001	 1.336758668689196e+001
 1.747218083154697e+000	 6.181285542085545e-001	 1.337338821381025e+001
 1.740618889844100e+000	 6.364746117981363e-001	 1.337730427778720e+001
 1.733811023677468e+000	 6.547927210049779e-001	 1.337973781645241e+001
 1.726794231868579e+000	 6.730794761633668e-001	 1.338135536057360e+001
 1.719568332747231e+000	 6.913314514801312e-001	 1.338389756599819e+001
 1.712133216670199e+000	 7.095452028179919e-001	 1.338786478493114e+001
 1.704488846880856e+000	 7.277172695190417e-001	 1.339345061605372e+001
 1.797026576450526e+000	 5.523675280357958e-001	 1.323509349805717e+001
 1.791175156133711e+000	 5.710568951895859e-001	 1.324866626005045e+001
 1.785113787221967e+000	 5.897314916465080e-001	 1.325975869790375e+001
 1.778841934947530e+000	 6.083879616277473e-001	 1.326835886328056e+001
 1.772359132504484e+000	 6.270229221382165e-001	 1.327462852401165e+001
 1.765664982161268e+000	 6.456329645980882e-001	 1.327890410189657e+001
 1.758759156329125e+000	 6.642146565207018e-001	 1.328169644566266e+001
 1.751641398584439e+000	 6.827645432355755e-001	 1.328437885826086e+001
 1.744311524642915e+000	 7.012791496551520e-001	 1.328848138108054e+001
 1.736769423283643e+000	 7.197549820838095e-001	 1.329422561295497e+001
 1.729015057221095e+000	 7.381885300675788e-001	 1.330193171145367e+001
 1.822517535372304e+000	 5.602029035120718e-001	 1.313551090175520e+001
 1.816583112212264e+000	 5.791573807628642e-001	 1.315040049542406e+001
 1.810435762320554e+000	 5.980968777933492e-001	 1.316249453749253e+001
 1.804074943343686e+000	 6.170179912227320e-001	 1.317183406648245e+001
 1.797500181854058e+000	 6.359172900678810e-001	 1.317864906701147e+001
 1.790711074478250e+000	 6.547913173980026e-001	 1.318335965980738e+001
 1.783707288980629e+000	 6.736365920363490e-001	 1.318672786822338e+001
 1.776488565300180e+000	 6.924496103076728e-001	 1.319095428057035e+001
 1.769054716538517e+000	 7.112268478300333e-001	 1.319673042389949e+001
 1.761405629897046e+000	 7.299647613494685e-001	 1.320437527080213e+001
 1.753541267561331e+000	 7.486597906159503e-001	 1.321432924068776e+001
 1.848008494293951e+000	 5.680382789885818e-001	 1.303942342533311e+001
 1.841991068290684e+000	 5.872578663363623e-001	 1.305563853797586e+001
 1.835757737419014e+000	 6.064622639403885e-001	 1.306875041581905e+001
 1.829307951739723e+000	 6.256480208178876e-001	 1.307884228052485e+001
 1.822641231203526e+000	 6.448116579976858e-001	 1.308620227973668e+001
 1.815757166795141e+000	 6.639496701980238e-001	 1.309132498051575e+001
 1.808655421632055e+000	 6.830585275520713e-001	 1.309580016982245e+001
 1.801335732015862e+000	 7.021346773798167e-001	 1.310161088535080e+001
 1.793797908434079e+000	 7.211745460049378e-001	 1.310908795720061e+001
 1.786041836510427e+000	 7.401745406151347e-001	 1.311866100019419e+001
 1.778067477901566e+000	 7.591310511643220e-001	 1.313088492977048e+001
 1.873499453215596e+000	 5.758736544654248e-001	 1.294769003082191e+001
 1.867399024369105e+000	 5.953583519101900e-001	 1.296521467931858e+001
 1.861079712517474e+000	 6.148276500877451e-001	 1.297931524418291e+001
 1.854540960135760e+000	 6.342780504133425e-001	 1.299010619576882e+001
 1.847782280552992e+000	 6.537060259277667e-001	 1.299792374681850e+001
 1.840803259112029e+000	 6.731080229982976e-001	 1.300348537442189e+001
 1.833603554283482e+000	 6.924804630680211e-001	 1.300945119222632e+001
 1.826182898731543e+000	 7.118197444521655e-001	 1.301679051353869e+001
 1.818541100329640e+000	 7.311222441800279e-001	 1.302590862487071e+001
 1.810678043123808e+000	 7.503843198809728e-001	 1.303734085823167e+001
 1.802593688241800e+000	 7.696023117128608e-001	 1.305175136744827e+001
 1.898990412137376e+000	 5.837090299427001e-001	 1.286109063771733e+001
 1.892806980447657e+000	 6.034588374844558e-001	 1.287987451881595e+001
 1.886401687616062e+000	 6.231930362355383e-001	 1.289487966564474e+001
 1.879773968531916e+000	 6.429080800092252e-001	 1.290624069233496e+001
 1.872923329902566e+000	 6.626003938582621e-001	 1.291433169733209e+001
 1.865849351429012e+000	 6.822663757989691e-001	 1.292075675270393e+001
 1.858551686934985e+000	 7.019023985843516e-001	 1.292811529266832e+001
 1.851030065447284e+000	 7.215048115248770e-001	 1.293684848251417e+001
 1.843284292225242e+000	 7.410699423554663e-001	 1.294745943481535e+001
 1.835314249737209e+000	 7.605940991471489e-001	 1.296058475524184e+001
 1.827119898582037e+000	 7.800735722617331e-001	 1.297699306473853e+001
 1.924481371059421e+000	 5.915444054205067e-001	 1.278032536520067e+001
 1.918214936526472e+000	 6.115593230592692e-001	 1.280027438124161e+001
 1.911723662714902e+000	 6.315584223838865e-001	 1.281603558979134e+001
 1.905006976928307e+000	 6.515381096056635e-001	 1.282775243411928e+001
 1.898064379252353e+000	 6.714947617893090e-001	 1.283593227576041e+001
 1.890895443746181e+000	 6.914247286001836e-001	 1.284358853869066e+001
 1.883499819586643e+000	 7.113243341012142e-001	 1.285214289421616e+001
 1.875877232163145e+000	 7.311898785981097e-001	 1.286205456411842e+001
 1.868027484120926e+000	 7.510176405314154e-001	 1.287392082769112e+001
 1.859950456350654e+000	 7.708038784138284e-001	 1.288847558253116e+001
 1.851646108922276e+000	 7.905448328111059e-001	 1.290658761116370e+001
 1.949972329981867e+000	 5.993797808989436e-001	 1.270601392455102e+001
 1.943622892605683e+000	 6.196598086347391e-001	 1.272698086483300e+001
 1.937045637814119e+000	 6.399238085329084e-001	 1.274327584134901e+001
 1.930239985325053e+000	 6.601681392027863e-001	 1.275503956327647e+001
 1.923205428602460e+000	 6.803891297210443e-001	 1.276360787707221e+001
 1.915941536063627e+000	 7.005830814020863e-001	 1.277232173486180e+001
 1.908447952238531e+000	 7.207462696187609e-001	 1.278180141878368e+001
 1.900724398879184e+000	 7.408749456720213e-001	 1.279259403958614e+001
 1.892770676016732e+000	 7.609653387080381e-001	 1.280538782363733e+001
 1.884586662964163e+000	 7.810136576811767e-001	 1.282101042181747e+001
 1.876172319262519e+000	 8.010160933611452e-001	 1.284042691883465e+001
 1.975463288904845e+000	 6.072151563781102e-001	 1.263869514817964e+001
 1.969030848685419e+000	 6.277602942109748e-001	 1.266047050795883e+001
 1.962367612913844e+000	 6.482891946827238e-001	 1.267699391235894e+001
 1.955472993722270e+000	 6.687981688007212e-001	 1.268841516268336e+001
 1.948346477952994e+000	 6.892834976536052e-001	 1.269775922775087e+001
 1.940987628381446e+000	 7.097414342048216e-001	 1.270721726476011e+001
 1.933396084890728e+000	 7.301682051371443e-001	 1.271727629158019e+001
 1.925571565595462e+000	 7.505600127467704e-001	 1.272856882444676e+001
 1.917513867912702e+000	 7.709130368854967e-001	 1.274187123996289e+001
 1.909222869577757e+000	 7.912234369493597e-001	 1.275810182896480e+001
 1.900698529602766e+000	 8.114873539120181e-001	 1.277831854644936e+001
 1.655436426200365e+000	 7.067747484208015e-001	 1.358681953621043e+001
 1.647810012626662e+000	 7.243773551837666e-001	 1.358809261696662e+001
 1.639980573555821e+000	 7.419327295049750e-001	 1.358651729663121e+001
 1.631948291327146e+000	 7.594374756351381e-001	 1.358198855734395e+001
 1.623713421824428e+000	 7.768881892624318e-001	 1.357448450119636e+001
 1.615276295033541e+000	 7.942814594508108e-001	 1.356406573139316e+001
 1.606637315540310e+000	 8.116138706063588e-001	 1.355087455334802e+001
 1.597796962967233e+000	 8.288820044695900e-001	 1.353513399753990e+001
 1.588755792347744e+000	 8.460824421315374e-001	 1.351714666634005e+001
 1.579514434436757e+000	 8.632117660713863e-001	 1.349729340740021e+001
 1.570073595956371e+000	 8.802665622133531e-001	 1.347603181656502e+001
 1.679962636540613e+000	 7.172460089701712e-001	 1.348855413824297e+001
 1.672223233413097e+000	 7.351094081314266e-001	 1.349150160739544e+001
 1.664277796852925e+000	 7.529248750760244e-001	 1.349148994788378e+001
 1.656126511900855e+000	 7.706889637447697e-001	 1.348847181386187e+001
 1.647769638231734e+000	 7.883982193890754e-001	 1.348248517236553e+001
 1.639207510720356e+000	 8.060491805379907e-001	 1.347365252507067e+001
 1.630440539946704e+000	 8.236383809936848e-001	 1.346217994604982e+001
 1.621469212639146e+000	 8.411623518532656e-001	 1.344835593774113e+001
 1.612294092054241e+000	 8.586176235547387e-001	 1.343255010772713e+001
 1.602915818291883e+000	 8.760007279448259e-001	 1.341521166929256e+001
 1.593335108544644e+000	 8.933082003663226e-001	 1.339686776909959e+001
 1.704488846880856e+000	 7.277172695190417e-001	 1.339345061605372e+001
 1.696636454199607e+000	 7.458414610785946e-001	 1.339840977131652e+001
 1.688575020150183e+000	 7.639170206466032e-001	 1.340027378632765e+001
 1.680304732474796e+000	 7.819404518539631e-001	 1.339904906488281e+001
 1.671825854639347e+000	 7.999082495153214e-001	 1.339482965978764e+001
 1.663138726407550e+000	 8.178169016248166e-001	 1.338779634284172e+001
 1.654243764353546e+000	 8.356628913807015e-001	 1.337821548706265e+001
 1.645141462311570e+000	 8.534426992366738e-001	 1.336643776373566e+001
 1.635832391761306e+000	 8.711528049777060e-001	 1.335289665724979e+001
 1.626317202147628e+000	 8.887896898180560e-001	 1.333810680104753e+001
 1.616596621133582e+000	 9.063498385190917e-001	 1.332266213837300e+001
 1.729015057221095e+000	 7.381885300675788e-001	 1.330193171145367e+001
 1.721049674986173e+000	 7.565735140254362e-001	 1.330913148025292e+001
 1.712872243447557e+000	 7.749091662168747e-001	 1.331307993425054e+001
 1.704482953048910e+000	 7.931919399628793e-001	 1.331383375166147e+001
 1.695882071047189e+000	 8.114182796413250e-001	 1.331153973155677e+001
 1.687069942095027e+000	 8.295846227114402e-001	 1.330643371929237e+001
 1.678046988760721e+000	 8.476874017675549e-001	 1.329883934062686e+001
 1.668813711984377e+000	 8.657230466199545e-001	 1.328916654746594e+001
 1.659370691468799e+000	 8.836879864005772e-001	 1.327790997853851e+001
 1.649718586003838e+000	 9.015786516912102e-001	 1.326564713866343e+001
 1.639858133723017e+000	 9.193914766717938e-001	 1.325303640061329e+001
 1.753541267561331e+000	 7.486597906159503e-001	 1.321432924068776e+001
 1.745462895772776e+000	 7.673055669721172e-001	 1.322389045349128e+001
 1.737169466745007e+000	 7.859013117870024e-001	 1.323002894284048e+001
 1.728661173623140e+000	 8.044434280716766e-001	 1.323284861312333e+001
 1.719938287455186e+000	 8.229283097672419e-001	 1.323254608953497e+001
 1.711001157782694e+000	 8.413523437980106e-001	 1.322940950579496e+001
 1.701850213168121e+000	 8.597119121543899e-001	 1.322381709723801e+001
 1.692485961657440e+000	 8.780033940032498e-001	 1.321623560255203e+001
 1.682908991176575e+000	 8.962231678234887e-001	 1.320721847778932e+001
 1.673119969860359e+000	 9.143676135644239e-001	 1.319740392661938e+001
 1.663119646312786e+000	 9.324331148245618e-001	 1.318751275112290e+001
 1.778067477901566e+000	 7.591310511643220e-001	 1.313088492977048e+001
 1.769876116559398e+000	 7.780376199188032e-001	 1.314282058999166e+001
 1.761466690042496e+000	 7.968934573571499e-001	 1.315115164121885e+001
 1.752839394197428e+000	 8.156949161805158e-001	 1.315602657362002e+001
 1.743994503863259e+000	 8.344383398932270e-001	 1.315768931846350e+001
 1.734932373470456e+000	 8.531200648846793e-001	 1.315647790462297e+001
 1.725653437575633e+000	 8.717364225413528e-001	 1.315282291740945e+001
 1.716158211330630e+000	 8.902837413866996e-001	 1.314724576332063e+001
 1.706447290884493e+000	 9.087583492465786e-001	 1.314035674463357e+001
 1.696521353717033e+000	 9.271565754378304e-001	 1.313285294809329e+001
 1.686381158902719e+000	 9.454747529775296e-001	 1.312551595226364e+001
 1.802593688241800e+000	 7.696023117128608e-001	 1.305175136744827e+001
 1.794289337346019e+000	 7.887696728656601e-001	 1.306596692703094e+001
 1.785763913339985e+000	 8.078856029274806e-001	 1.307639011969970e+001
 1.777017614771715e+000	 8.269464042895565e-001	 1.308321177068874e+001
 1.768050720271332e+000	 8.459483700194359e-001	 1.308672097903646e+001
 1.758863589158218e+000	 8.648877859715961e-001	 1.308730364906722e+001
 1.749456661983145e+000	 8.837609329285886e-001	 1.308544082145440e+001
 1.739830461003820e+000	 9.025640887704456e-001	 1.308170680775339e+001
 1.729985590592412e+000	 9.212935306699827e-001	 1.307676713260973e+001
 1.719922737573709e+000	 9.399455373115654e-001	 1.307137628815266e+001
 1.709642671492654e+000	 9.585163911308307e-001	 1.306637530537859e+001
 1.827119898582037e+000	 7.800735722617331e-001	 1.297699306473853e+001
 1.818702558132622e+000	 7.995017258128541e-001	 1.299328671367283e+001
 1.810061136637434e+000	 8.188777484981575e-001	 1.300559883466570e+001
 1.801195835345945e+000	 8.381978923989577e-001	 1.301416070966221e+001
 1.792106936679328e+000	 8.574584001460237e-001	 1.301930483141192e+001
 1.782794804845885e+000	 8.766555070589114e-001	 1.302146331583642e+001
 1.773259886390545e+000	 8.957854433162428e-001	 1.302116611156885e+001
 1.763502710676882e+000	 9.148444361546282e-001	 1.301903901083271e+001
 1.753523890300187e+000	 9.338287120938387e-001	 1.301580146612181e+001
 1.743324121430230e+000	 9.527344991857626e-001	 1.301226421742504e+001
 1.732904184082422e+000	 9.715580292845978e-001	 1.300932673500718e+001
 1.851646108922276e+000	 7.905448328111059e-001	 1.290658761116370e+001
 1.843115778919188e+000	 8.102337787605507e-001	 1.292465058841956e+001
 1.834358359934808e+000	 8.298698940693451e-001	 1.293854582378558e+001
 1.825374055920060e+000	 8.494493805088804e-001	 1.294854353336979e+001
 1.816163153087171e+000	 8.689684302731457e-001	 1.295501817706795e+001
 1.806726020533363e+000	 8.884232281467758e-001	 1.295844675747841e+001
 1.797063110797722e+000	 9.078099537044607e-001	 1.295940691395092e+001
 1.787174960349689e+000	 9.271247835393882e-001	 1.295857481619702e+001
 1.777062190007680e+000	 9.463638935182838e-001	 1.295672286215810e+001
 1.766725505286439e+000	 9.655234610605561e-001	 1.295471718508011e+001
 1.756165696671858e+000	 9.845996674389649e-001	 1.295351497498439e+001
 1.876172319262519e+000	 8.010160933611452e-001	 1.284042691883465e+001
 1.867528999705698e+000	 8.209658317089158e-001	 1.285984385151330e+001
 1.858655583232066e+000	 8.408620396412050e-001	 1.287491402147774e+001
 1.849552276494000e+000	 8.607008686194831e-001	 1.288594539639910e+001
 1.840219369494784e+000	 8.804784604009575e-001	 1.289335330817603e+001
 1.830657236220555e+000	 9.001909492353390e-001	 1.289765864384140e+001
 1.820866335204562e+000	 9.198344640933878e-001	 1.289948582997330e+001
 1.810847210022113e+000	 9.394051309248663e-001	 1.289956061528102e+001
 1.800600489714745e+000	 9.588990749434548e-001	 1.289870765627121e+001
 1.790126889142184e+000	 9.783124229360813e-001	 1.289784791112226e+001
 1.779427209260796e+000	 9.976413055940653e-001	 1.289799584710207e+001
 1.900698529602766e+000	 8.114873539120181e-001	 1.277831854644935e+001
 1.891942220492133e+000	 8.316978846581151e-001	 1.279856782333957e+001
 1.882952806529170e+000	 8.518541852139021e-001	 1.281430266556690e+001
 1.873730497067709e+000	 8.719523567309263e-001	 1.282586793447553e+001
 1.864275585902089e+000	 8.919884905296139e-001	 1.283371905478147e+001
 1.854588451907370e+000	 9.119586703247526e-001	 1.283842010272712e+001
 1.844669559610956e+000	 9.318589744831696e-001	 1.284064168656096e+001
 1.834519459694026e+000	 9.516854783112039e-001	 1.284115862423379e+001
 1.824138789421242e+000	 9.714342563694890e-001	 1.284084742340339e+001
 1.813528272997310e+000	 9.911013848124720e-001	 1.284068356902467e+001
 1.802688721849068e+000	 1.010682943750032e+000	 1.284172905301032e+001
 1.570073595956371e+000	 8.802665622133531e-001	 1.347603181656502e+001
 1.560432599048893e+000	 8.972459629298201e-001	 1.345204550962037e+001
 1.550593705615053e+000	 9.141440024143018e-001	 1.342379640732958e+001
 1.540557852787053e+000	 9.309572889204422e-001	 1.339150573752540e+001
 1.530326054011600e+000	 9.476824425612982e-001	 1.335545957490095e+001
 1.519899398955622e+000	 9.643160974265813e-001	 1.331600745142188e+001
 1.509279053342250e+000	 9.808549037040832e-001	 1.327356083965789e+001
 1.498466258716638e+000	 9.972955298026253e-001	 1.322859151264350e+001
 1.487462332141325e+000	 1.013634664473865e+000	 1.318162306315697e+001
 1.476268665820915e+000	 1.029869018930230e+000	 1.313325692314562e+001
 1.464886726656035e+000	 1.045995328956277e+000	 1.308412689950213e+001
 1.593335108544644e+000	 8.933082003663226e-001	 1.339686776909959e+001
 1.583551274911993e+000	 9.105391603372327e-001	 1.337616626836794e+001
 1.573566612805977e+000	 9.276875536643390e-001	 1.335146496358357e+001
 1.563382073242935e+000	 9.447499383506840e-001	 1.332295319045618e+001
 1.552998684684357e+000	 9.617228844344270e-001	 1.329088368813937e+001
 1.542417552941194e+000	 9.786029761374546e-001	 1.325557121856102e+001
 1.531639861007417e+000	 9.953868140182340e-001	 1.321739106373834e+001
 1.520666868822365e+000	 1.012071017126219e+000	 1.317677036370751e+001
 1.509499912961595e+000	 1.028652225155088e+000	 1.313421563359578e+001
 1.498140406255999e+000	 1.045127100592058e+000	 1.309026527101657e+001
 1.486589837339156e+000	 1.061492330860527e+000	 1.304551931277206e+001
 1.616596621133582e+000	 9.063498385190917e-001	 1.332266213837300e+001
 1.606669950775794e+000	 9.238323577444372e-001	 1.330514792250010e+001
 1.596539519997630e+000	 9.412311049141446e-001	 1.328380291844826e+001
 1.586206293699569e+000	 9.585425877806582e-001	 1.325879991617529e+001
 1.575671315357876e+000	 9.757633263072421e-001	 1.323037371959520e+001
 1.564935706927531e+000	 9.928898548479596e-001	 1.319881975331986e+001
 1.554000668673343e+000	 1.009918724331957e+000	 1.316449255240321e+001
 1.542867478928838e+000	 1.026846504449323e+000	 1.312779788974243e+001
 1.531537493782587e+000	 1.043669785835758e+000	 1.308921706830449e+001
 1.520012146691774e+000	 1.060385182253274e+000	 1.304926436393988e+001
 1.508292948022928e+000	 1.076989332764112e+000	 1.300851345207260e+001
 1.639858133723017e+000	 9.193914766717938e-001	 1.325303640061329e+001
 1.629788626640121e+000	 9.371255551515676e-001	 1.323857097277623e+001
 1.619512427189830e+000	 9.547746561638559e-001	 1.322035259218955e+001
 1.609030514156762e+000	 9.723352372105050e-001	 1.319855244574963e+001
 1.598343946031964e+000	 9.898037681798876e-001	 1.317340239150708e+001
 1.587453860914438e+000	 1.007176733558246e+000	 1.314519353195720e+001
 1.576361476339833e+000	 1.024450634645407e+000	 1.311426806738854e+001
 1.565068089035862e+000	 1.041621991772096e+000	 1.308104519534238e+001
 1.553575074604111e+000	 1.058687346516040e+000	 1.304597621712391e+001
 1.541883887128053e+000	 1.075643263914046e+000	 1.300957277487222e+001
 1.529996058707168e+000	 1.092486334667199e+000	 1.297239701383921e+001
 1.663119646312786e+000	 9.324331148245618e-001	 1.318751275112290e+001
 1.652907302504798e+000	 9.504187525587584e-001	 1.317591423904529e+001
 1.642485334382394e+000	 9.683182074136086e-001	 1.316055218767885e+001
 1.631854734614329e+000	 9.861278866403652e-001	 1.314161074260938e+001
 1.621016576706430e+000	 1.003844210052509e+000	 1.311933341730159e+001
 1.609972014901722e+000	 1.021463612268463e+000	 1.309401457591571e+001
 1.598722284006695e+000	 1.038982544958739e+000	 1.306602720503004e+001
 1.587268699143245e+000	 1.056397479094698e+000	 1.303577520017461e+001
 1.575612655425975e+000	 1.073704907196096e+000	 1.300372370741941e+001
 1.563755627564647e+000	 1.090901345574538e+000	 1.297038880377161e+001
 1.551699169391692e+000	 1.107983336569954e+000	 1.293633551872211e+001
 1.686381158902719e+000	 9.454747529775296e-001	 1.312551595226364e+001
 1.676025978369649e+000	 9.637119499661432e-001	 1.311655694393926e+001
 1.665458241575140e+000	 9.818617586635403e-001	 1.310373811520328e+001
 1.654678955072082e+000	 9.999205360703788e-001	 1.308727077178855e+001
 1.643689207381082e+000	 1.017884651925251e+000	 1.306741677157232e+001
 1.632490168889190e+000	 1.035750490978762e+000	 1.304451847354489e+001
 1.621083091673733e+000	 1.053514455272107e+000	 1.301894765870124e+001
 1.609469309250792e+000	 1.071172966417288e+000	 1.299113831427797e+001
 1.597650236247988e+000	 1.088722467876090e+000	 1.296157571121456e+001
 1.585627368001368e+000	 1.106159427234915e+000	 1.293079446454442e+001
 1.573402280076317e+000	 1.123480338472544e+000	 1.289937650680190e+001
 1.709642671492654e+000	 9.585163911308307e-001	 1.306637530537859e+001
 1.699144654234502e+000	 9.770051473738574e-001	 1.305978090989766e+001
 1.688431148767885e+000	 9.954053099137868e-001	 1.304914741943350e+001
 1.677503175529833e+000	 1.013713185500686e+000	 1.303471901627771e+001
 1.666361838055729e+000	 1.031925093798258e+000	 1.301682261503114e+001
 1.655008322876648e+000	 1.050037369689291e+000	 1.299581279853924e+001
 1.643443899340753e+000	 1.068046365585666e+000	 1.297210743521339e+001
 1.631669919358312e+000	 1.085948453740025e+000	 1.294617601904070e+001
 1.619687817069959e+000	 1.103740028556184e+000	 1.291853774402756e+001
 1.607499108438030e+000	 1.121417508895344e+000	 1.288975949282910e+001
 1.595105390760859e+000	 1.138977340375136e+000	 1.286045374343880e+001
 1.732904184082422e+000	 9.715580292845978e-001	 1.300932673500718e+001
 1.722263330099179e+000	 9.902983447820343e-001	 1.300477285887665e+001
 1.711404055960447e+000	 1.008948861164486e+000	 1.299592029895290e+001
 1.700327395987394e+000	 1.027505834931428e+000	 1.298306868669363e+001
 1.689034468730179e+000	 1.045965535671675e+000	 1.296659639211825e+001
 1.677526476863901e+000	 1.064324248400201e+000	 1.294691096844958e+001
 1.665804707007561e+000	 1.082578275899571e+000	 1.292448083337789e+001
 1.653870529465609e+000	 1.100723941063069e+000	 1.289982448720948e+001
 1.641725397891696e+000	 1.118757589236541e+000	 1.287350849243351e+001
 1.629370848874443e+000	 1.136675590555990e+000	 1.284614537265991e+001
 1.616808501445135e+000	 1.154474342277896e+000	 1.281839143475843e+001
 1.756165696671858e+000	 9.845996674389649e-001	 1.295351497498439e+001
 1.745382005963505e+000	 1.003591542190808e+000	 1.295062680522391e+001
 1.734376963152643e+000	 1.022492412415773e+000	 1.294309480589882e+001
 1.723151616444576e+000	 1.041298484362744e+000	 1.293131095213996e+001
 1.711707099404240e+000	 1.060005977545647e+000	 1.291569467554155e+001
 1.700044630850756e+000	 1.078611127111641e+000	 1.289672759832641e+001
 1.688165514673963e+000	 1.097110186213977e+000	 1.287494189489623e+001
 1.676071139572492e+000	 1.115499428386579e+000	 1.285091823831196e+001
 1.663762978713008e+000	 1.133775149917325e+000	 1.282528366769007e+001
 1.651242589310421e+000	 1.151933672217020e+000	 1.279870938026205e+001
 1.638511612128961e+000	 1.169971344180991e+000	 1.277190845188132e+001
 1.779427209260796e+000	 9.976413055940653e-001	 1.289799584710207e+001
 1.768500681827304e+000	 1.016884739600314e+000	 1.289633786154709e+001
 1.757349870344292e+000	 1.036035963667787e+000	 1.288964204029442e+001
 1.745975836901192e+000	 1.055091133794776e+000	 1.287835316011389e+001
 1.734379730077722e+000	 1.074046419420320e+000	 1.286297982162034e+001
 1.722562784837020e+000	 1.092898005823761e+000	 1.284408179229109e+001
 1.710526322339764e+000	 1.111642096529037e+000	 1.282226789618195e+001
 1.698271749678766e+000	 1.130274915710713e+000	 1.279819382625348e+001
 1.685800559533704e+000	 1.148792710598698e+000	 1.277255988304315e+001
 1.673114329745773e+000	 1.167191753878597e+000	 1.274610864341127e+001
 1.660214722812154e+000	 1.185468346084587e+000	 1.271962256309785e+001
 1.802688721849068e+000	 1.010682943750032e+000	 1.284172905301032e+001
 1.791619357690404e+000	 1.030177937010685e+000	 1.284084043303179e+001
 1.780322777535210e+000	 1.049579514920662e+000	 1.283441873038765e+001
 1.768800057357055e+000	 1.068883783227662e+000	 1.282301270819092e+001
 1.757052360750432e+000	 1.088086861295837e+000	 1.280722311218611e+001
 1.745080938822499e+000	 1.107184884536710e+000	 1.278770048044304e+001
 1.732887130004770e+000	 1.126174006844907e+000	 1.276514287741778e+001
 1.720472359784237e+000	 1.145050403035631e+000	 1.274029355618311e+001
 1.707838140353593e+000	 1.163810271280824e+000	 1.271393855257449e+001
 1.694986070180315e+000	 1.182449835540888e+000	 1.268690421495366e+001
 1.681917833494530e+000	 1.200965347988850e+000	 1.266005467327194e+001
 1.464886726656035e+000	 1.045995328956277e+000	 1.308412689950213e+001
 1.453318055313267e+000	 1.062010356656721e+000	 1.303170247463000e+001
 1.441564264409459e+000	 1.077910891462778e+000	 1.297357321192425e+001
 1.429627039115892e+000	 1.093693753232441e+000	 1.291064147131008e+001
 1.417508136850241e+000	 1.109355794658762e+000	 1.284386212032121e+001
 1.405209386483143e+000	 1.124893903309479e+000	 1.277424008078665e+001
 1.392732687476031e+000	 1.140305003643769e+000	 1.270282778614254e+001
 1.380080008951025e+000	 1.155586059003449e+000	 1.263072255518279e+001
 1.367253388693743e+000	 1.170734073575937e+000	 1.255906388828822e+001
 1.354254932090051e+000	 1.185746094326382e+000	 1.248903069239627e+001
 1.341086810997859e+000	 1.200619212896339e+000	 1.242183844118356e+001
 1.486589837339156e+000	 1.061492330860527e+000	 1.304551931277206e+001
 1.474849769703483e+000	 1.077744630093994e+000	 1.299739636898309e+001
 1.462921839857642e+000	 1.093880740157302e+000	 1.294339701882478e+001
 1.450807757939659e+000	 1.109897433792857e+000	 1.288431802859764e+001
 1.438509307404328e+000	 1.125791517064594e+000	 1.282100099700840e+001
 1.426028344218016e+000	 1.141559831427820e+000	 1.275433003622753e+001
 1.413366795983732e+000	 1.157199255775851e+000	 1.268522937949481e+001
 1.400526660997231e+000	 1.172706708460706e+000	 1.261466092073859e+001
 1.387510007235056e+000	 1.188079149285162e+000	 1.254362169186452e+001
 1.374318971275530e+000	 1.203313581463499e+000	 1.247314128355401e+001
 1.360955757153845e+000	 1.218407053548307e+000	 1.240427921559068e+001
 1.508292948022928e+000	 1.076989332764112e+000	 1.300851345207260e+001
 1.496381484094301e+000	 1.093478903530557e+000	 1.296426352145700e+001
 1.484279415306369e+000	 1.109850588851077e+000	 1.291387896104071e+001
 1.471988476763907e+000	 1.126101114352494e+000	 1.285809900778190e+001
 1.459510477958825e+000	 1.142227239469625e+000	 1.279770112841959e+001
 1.446847301953224e+000	 1.158225759545347e+000	 1.273349876071210e+001
 1.434000904491688e+000	 1.174093507907113e+000	 1.266633899489338e+001
 1.420973313043610e+000	 1.189827357917149e+000	 1.259710020058990e+001
 1.407766625776456e+000	 1.205424224993586e+000	 1.252668960459935e+001
 1.394383010461012e+000	 1.220881068599836e+000	 1.245604082508790e+001
 1.380824703309748e+000	 1.236194894199525e+000	 1.238611136791463e+001
 1.529996058707168e+000	 1.092486334667199e+000	 1.297239701383921e+001
 1.517913198485543e+000	 1.109213176966573e+000	 1.293157872061532e+001
 1.505636990755471e+000	 1.125820437544266e+000	 1.288431656769848e+001
 1.493169195588471e+000	 1.142304794911510e+000	 1.283133852202947e+001
 1.480511648513576e+000	 1.158662961874006e+000	 1.277340521151806e+001
 1.467666259688621e+000	 1.174891687662203e+000	 1.271130765426291e+001
 1.454635012999764e+000	 1.190987760037690e+000	 1.264586493945641e+001
 1.441419965090038e+000	 1.206948007372900e+000	 1.257792186511238e+001
 1.428023244317835e+000	 1.222769300701319e+000	 1.250834653788939e+001
 1.414447049646400e+000	 1.238448555735489e+000	 1.243802794041457e+001
 1.400693649465486e+000	 1.253982734850077e+000	 1.236787347164564e+001
 1.551699169391692e+000	 1.107983336569954e+000	 1.293633551872211e+001
 1.539444912877032e+000	 1.124947450402209e+000	 1.289849178398897e+001
 1.526994566204774e+000	 1.141790286237030e+000	 1.285387771868109e+001
 1.514349914413188e+000	 1.158508475470063e+000	 1.280325457371834e+001
 1.501512819068427e+000	 1.175098684277891e+000	 1.274741168945817e+001
 1.488485217424060e+000	 1.191557615778533e+000	 1.268716414261364e+001
 1.475269121507825e+000	 1.207882012167718e+000	 1.262335035416603e+001
 1.461866617136391e+000	 1.224068656828083e+000	 1.255682966341918e+001
 1.448279862859078e+000	 1.240114376408472e+000	 1.248847987345835e+001
 1.434511088831594e+000	 1.256016042870558e+000	 1.241919477339543e+001
 1.420562595620974e+000	 1.271770575500046e+000	 1.234988164290058e+001
 1.573402280076317e+000	 1.123480338472544e+000	 1.289937650680190e+001
 1.560976627268588e+000	 1.140681723837632e+000	 1.286403202125056e+001
 1.548352141654106e+000	 1.157760134929534e+000	 1.282160550327318e+001
 1.535530633237893e+000	 1.174712156028311e+000	 1.277293442871834e+001
 1.522513989623221e+000	 1.191534406681430e+000	 1.271888075418372e+001
 1.509304175159396e+000	 1.208223543894480e+000	 1.266032841319803e+001
 1.495903230015734e+000	 1.224776264297331e+000	 1.259818078059158e+001
 1.482313269182545e+000	 1.241189306282822e+000	 1.253335811031921e+001
 1.468536481400075e+000	 1.257459452115157e+000	 1.246679495210502e+001
 1.454575128016497e+000	 1.273583530005140e+000	 1.239943755238752e+001
 1.440431541776130e+000	 1.289558416149514e+000	 1.233224124515732e+001
 1.595105390760859e+000	 1.138977340375136e+000	 1.286045374343880e+001
 1.582508341660034e+000	 1.156415997273006e+000	 1.282711269265073e+001
 1.569709717103297e+000	 1.173729983621940e+000	 1.278642304797368e+001
 1.556711352062423e+000	 1.190915836586413e+000	 1.273933992360643e+001
 1.543515160177803e+000	 1.207970129084775e+000	 1.268684023618581e+001
 1.530123132894483e+000	 1.224889472010189e+000	 1.262991998358733e+001
 1.516537338523357e+000	 1.241670516426661e+000	 1.256959149703047e+001
 1.502759921228375e+000	 1.258309955737241e+000	 1.250688067197193e+001
 1.488793099940716e+000	 1.274804527821486e+000	 1.244282418337247e+001
 1.474639167201013e+000	 1.291151017139334e+000	 1.237846669103032e+001
 1.460300487930869e+000	 1.307346256798566e+000	 1.231485804078759e+001
 1.616808501445135e+000	 1.154474342277896e+000	 1.281839143475843e+001
 1.604040056051193e+000	 1.172150270708497e+000	 1.278653546316324e+001
 1.591067292552176e+000	 1.189699832314410e+000	 1.274713831637516e+001
 1.577892070886612e+000	 1.207119517144526e+000	 1.270131271212054e+001
 1.564516330732018e+000	 1.224405851488079e+000	 1.265019139202471e+001
 1.550942090629174e+000	 1.241555400125803e+000	 1.259492411812067e+001
 1.537171447030557e+000	 1.258564768555846e+000	 1.253667464573494e+001
 1.523206573273759e+000	 1.275430605191462e+000	 1.247661767855140e+001
 1.509049718480887e+000	 1.292149603527568e+000	 1.241593581175889e+001
 1.494703206385041e+000	 1.308718504273236e+000	 1.235581646930140e+001
 1.480169434085108e+000	 1.325134097447286e+000	 1.229744884137061e+001
 1.638511612128961e+000	 1.169971344180991e+000	 1.277190845188132e+001
 1.625571770441885e+000	 1.187884544144271e+000	 1.274099485273812e+001
 1.612424868000571e+000	 1.205669681007109e+000	 1.270244888370075e+001
 1.599072789710299e+000	 1.223323197702809e+000	 1.265757945648697e+001
 1.585517501285710e+000	 1.240841573891493e+000	 1.260771459909675e+001
 1.571761048363324e+000	 1.258221328241467e+000	 1.255419810680575e+001
 1.557805555537200e+000	 1.275459020685017e+000	 1.249838617059598e+001
 1.543653225318572e+000	 1.292551254645609e+000	 1.244164398923317e+001
 1.529306337020478e+000	 1.309494679233517e+000	 1.238534237131757e+001
 1.514767245568484e+000	 1.326285991406947e+000	 1.233085433375929e+001
 1.500038380238764e+000	 1.342921938095756e+000	 1.227735708993965e+001
 1.660214722812154e+000	 1.185468346084587e+000	 1.271962256309785e+001
 1.647103484831933e+000	 1.203618817580494e+000	 1.268908268302030e+001
 1.633782443448310e+000	 1.221639529700197e+000	 1.265094668831965e+001
 1.620253508533318e+000	 1.239526878261420e+000	 1.260675696866725e+001
 1.606518671838723e+000	 1.257277296295168e+000	 1.255807496613477e+001
 1.592580006096787e+000	 1.274887256357323e+000	 1.250647741909473e+001
 1.578439664043150e+000	 1.292353272814311e+000	 1.245355258263128e+001
 1.564099877362689e+000	 1.309671904099807e+000	 1.240089643216921e+001
 1.549562955559376e+000	 1.326839754939444e+000	 1.235010885716190e+001
 1.534831284751244e+000	 1.343853478540561e+000	 1.230029980695619e+001
 1.519907326391754e+000	 1.360709778744060e+000	 1.224348389029678e+001
 1.681917833494530e+000	 1.200965347988850e+000	 1.266005467327194e+001
 1.668635199221159e+000	 1.219353091017331e+000	 1.262929252085410e+001
 1.655140018895221e+000	 1.237609378393840e+000	 1.259112276232151e+001
 1.641434227355505e+000	 1.255730558820518e+000	 1.254735730604937e+001
 1.627519842390902e+000	 1.273713018699258e+000	 1.249982786705591e+001
 1.613398963829417e+000	 1.291553184473516e+000	 1.245038174383830e+001
 1.599073772548271e+000	 1.309247524943862e+000	 1.240087756883153e+001
 1.584546529405988e+000	 1.326792553554178e+000	 1.235318103977738e+001
 1.569819574097472e+000	 1.344184830645459e+000	 1.230668128434722e+001
 1.554895323933223e+000	 1.361420965674179e+000	 1.225384775921711e+001
 1.539776272543993e+000	 1.378497619392282e+000	 1.219537656926270e+001
 1.341086810997859e+000	 1.200619212896339e+000	 1.242183844118357e+001
 1.327753275425902e+000	 1.215348368834772e+000	 1.235022454487518e+001
 1.314254664028600e+000	 1.229932992248813e+000	 1.226590826167141e+001
 1.300593340761641e+000	 1.244370322232309e+000	 1.217104299766215e+001
 1.286771730854787e+000	 1.258657649759996e+000	 1.206830310797371e+001
 1.272792319379371e+000	 1.272792319379371e+000	 1.196036156173207e+001
 1.258657649759996e+000	 1.286771730854787e+000	 1.184987987783237e+001
 1.244370322232309e+000	 1.300593340761641e+000	 1.173949805538672e+001
 1.229932992248813e+000	 1.314254664028600e+000	 1.163182454573898e+001
 1.215348368834772e+000	 1.327753275425902e+000	 1.152942631341904e+001
 1.200619212896338e+000	 1.341086810997858e+000	 1.143293406955776e+001
 1.360955757153845e+000	 1.218407053548307e+000	 1.240427921559068e+001
 1.347424677844972e+000	 1.233354430115146e+000	 1.233017201785315e+001
 1.333726077020677e+000	 1.248155132827870e+000	 1.224533792148629e+001
 1.319862353659959e+000	 1.262806359875976e+000	 1.215145892681431e+001
 1.305835968923696e+000	 1.277305362098496e+000	 1.204990927542283e+001
 1.291649444700928e+000	 1.291649444700928e+000	 1.194372531634084e+001
 1.277305362098496e+000	 1.305835968923696e+000	 1.183593771213573e+001
 1.262806359875977e+000	 1.319862353659958e+000	 1.172955864156666e+001
 1.248155132827871e+000	 1.333726077020677e+000	 1.162756500469851e+001
 1.233354430115146e+000	 1.347424677844972e+000	 1.152679746777344e+001
 1.218407053548307e+000	 1.360955757153844e+000	 1.142498914676146e+001
 1.380824703309748e+000	 1.236194894199525e+000	 1.238611136791463e+001
 1.367096080263875e+000	 1.251360491394809e+000	 1.231038178216960e+001
 1.353197490012505e+000	 1.266377273406264e+000	 1.222392869213165e+001
 1.339131366557947e+000	 1.281242397519038e+000	 1.213019112969566e+001
 1.324900206992199e+000	 1.295953074436450e+000	 1.203206817926451e+001
 1.310506570022005e+000	 1.310506570022005e+000	 1.193046896983452e+001
 1.295953074436450e+000	 1.324900206992199e+000	 1.182840766906557e+001
 1.281242397519037e+000	 1.339131366557946e+000	 1.172814187302827e+001
 1.266377273406264e+000	 1.353197490012505e+000	 1.162406212295375e+001
 1.251360491394809e+000	 1.367096080263874e+000	 1.151756922103531e+001
 1.236194894199525e+000	 1.380824703309748e+000	 1.141215991215999e+001
 1.400693649465486e+000	 1.253982734850077e+000	 1.236787347164564e+001
 1.386767482682543e+000	 1.269366552673829e+000	 1.229186752643880e+001
 1.372668903004032e+000	 1.284599413984047e+000	 1.220570527200893e+001
 1.358400379455570e+000	 1.299678435161524e+000	 1.211294534415265e+001
 1.343964445060277e+000	 1.314600786773875e+000	 1.201719581246333e+001
 1.329363695342603e+000	 1.329363695342603e+000	 1.192198191393192e+001
 1.314600786773875e+000	 1.343964445060277e+000	 1.182517877350054e+001
 1.299678435161524e+000	 1.358400379455569e+000	 1.172077351296684e+001
 1.284599413984047e+000	 1.372668903004031e+000	 1.161197019481453e+001
 1.269366552673829e+000	 1.386767482682543e+000	 1.150242042513831e+001
 1.253982734850077e+000	 1.400693649465486e+000	 1.139576534245726e+001
 1.420562595620974e+000	 1.271770575500046e+000	 1.234988164290058e+001
 1.406438885100908e+000	 1.287372613952274e+000	 1.227514348056034e+001
 1.392140315995205e+000	 1.302821554561270e+000	 1.219131330559652e+001
 1.377669392352793e+000	 1.318114472803472e+000	 1.210197412737602e+001
 1.363028683127914e+000	 1.333248499110788e+000	 1.201075782510832e+001
 1.348220820662722e+000	 1.348220820662722e+000	 1.191501669318185e+001
 1.333248499110788e+000	 1.363028683127914e+000	 1.181215808495863e+001
 1.318114472803473e+000	 1.377669392352793e+000	 1.170429081499834e+001
 1.302821554561270e+000	 1.392140315995205e+000	 1.159340743312186e+001
 1.287372613952274e+000	 1.406438885100908e+000	 1.148320028492919e+001
 1.271770575500046e+000	 1.420562595620974e+000	 1.137735001662270e+001
 1.440431541776130e+000	 1.289558416149514e+000	 1.233224124515732e+001
 1.426110287518902e+000	 1.305378675230213e+000	 1.226049980892684e+001
 1.411611728985974e+000	 1.321043695137985e+000	 1.218116483641852e+001
 1.396938405249583e+000	 1.336550510444917e+000	 1.209746505781024e+001
 1.382092921195092e+000	 1.351896211447207e+000	 1.200433513657426e+001
 1.367077945982363e+000	 1.367077945982363e+000	 1.190141711117473e+001
 1.351896211447207e+000	 1.382092921195092e+000	 1.179247022780723e+001
 1.336550510444917e+000	 1.396938405249583e+000	 1.168131259629419e+001
 1.321043695137985e+000	 1.411611728985973e+000	 1.157069281033843e+001
 1.305378675230213e+000	 1.426110287518902e+000	 1.146196738575223e+001
 1.289558416149514e+000	 1.440431541776130e+000	 1.135867836285230e+001
 1.460300487930869e+000	 1.307346256798566e+000	 1.231485804078759e+001
 1.445781689936458e+000	 1.323384736507713e+000	 1.224801470287331e+001
 1.431083141976286e+000	 1.339265835714243e+000	 1.217452086101586e+001
 1.416207418145903e+000	 1.354986548085892e+000	 1.208811565697866e+001
 1.401157159261793e+000	 1.370543923783149e+000	 1.198968597331047e+001
 1.385935071301524e+000	 1.385935071301524e+000	 1.188272975346070e+001
 1.370543923783149e+000	 1.401157159261793e+000	 1.177080735100050e+001
 1.354986548085892e+000	 1.416207418145903e+000	 1.165753647248915e+001
 1.339265835714243e+000	 1.431083141976285e+000	 1.154658696604175e+001
 1.323384736507713e+000	 1.445781689936457e+000	 1.144098411958388e+001
 1.307346256798566e+000	 1.460300487930869e+000	 1.134172840150722e+001
 1.480169434085108e+000	 1.325134097447286e+000	 1.229744884137061e+001
 1.465453092353505e+000	 1.341390797784841e+000	 1.223593163924501e+001
 1.450554554966089e+000	 1.357487976290097e+000	 1.215938027248737e+001
 1.435476431041720e+000	 1.373422585726433e+000	 1.206922893908061e+001
 1.420221397328001e+000	 1.389191636118633e+000	 1.196862465594449e+001
 1.404792196620205e+000	 1.404792196620205e+000	 1.186077761950941e+001
 1.389191636118633e+000	 1.420221397328000e+000	 1.174895686428775e+001
 1.373422585726434e+000	 1.435476431041720e+000	 1.163648576766645e+001
 1.357487976290097e+000	 1.450554554966089e+000	 1.152673740427022e+001
 1.341390797784841e+000	 1.465453092353505e+000	 1.142312975362576e+001
 1.325134097447286e+000	 1.480169434085108e+000	 1.132868503138750e+001
 1.500038380238764e+000	 1.342921938095756e+000	 1.227735708993965e+001
 1.485124494769979e+000	 1.359396859061667e+000	 1.221248383974627e+001
 1.470025967955333e+000	 1.375710116865597e+000	 1.213329810358966e+001
 1.454745443936998e+000	 1.391858623366575e+000	 1.204251710658944e+001
 1.439285635393696e+000	 1.407839348453674e+000	 1.194291877836250e+001
 1.423649321938408e+000	 1.423649321938408e+000	 1.183733828808721e+001
 1.407839348453675e+000	 1.439285635393696e+000	 1.172866443352200e+001
 1.391858623366576e+000	 1.454745443936998e+000	 1.161983588500311e+001
 1.375710116865597e+000	 1.470025967955333e+000	 1.151383728576511e+001
 1.359396859061668e+000	 1.485124494769979e+000	 1.141369521028035e+001
 1.342921938095756e+000	 1.500038380238764e+000	 1.132247398269553e+001
 1.519907326391754e+000	 1.360709778744060e+000	 1.224348389029678e+001
 1.504795897185810e+000	 1.377402920338258e+000	 1.217654602846035e+001
 1.489497380943965e+000	 1.393932257440796e+000	 1.209784311093932e+001
 1.474014456831702e+000	 1.410294661006352e+000	 1.200964963718618e+001
 1.458349873458863e+000	 1.426487060788292e+000	 1.191429221579143e+001
 1.442506447256132e+000	 1.442506447256132e+000	 1.181414698657575e+001
 1.426487060788292e+000	 1.458349873458863e+000	 1.171163691100343e+001
 1.410294661006352e+000	 1.474014456831702e+000	 1.160922892958620e+001
 1.393932257440796e+000	 1.489497380943965e+000	 1.150943098521758e+001
 1.377402920338258e+000	 1.504795897185809e+000	 1.141478891168671e+001
 1.360709778744060e+000	 1.519907326391754e+000	 1.132788318697322e+001
 1.539776272543993e+000	 1.378497619392282e+000	 1.219537656926270e+001
 1.524467299600929e+000	 1.395408981614681e+000	 1.212950546486690e+001
 1.508968793931934e+000	 1.412154398015745e+000	 1.205454701933724e+001
 1.493283469725799e+000	 1.428730698645799e+000	 1.197225572667339e+001
 1.477414111523483e+000	 1.445134773122503e+000	 1.188442770227368e+001
 1.461363572573377e+000	 1.461363572573377e+000	 1.179289915653384e+001
 1.445134773122503e+000	 1.477414111523483e+000	 1.169954475474350e+001
 1.428730698645799e+000	 1.493283469725798e+000	 1.160627585921046e+001
 1.412154398015745e+000	 1.508968793931934e+000	 1.151503864975014e+001
 1.395408981614682e+000	 1.524467299600929e+000	 1.142781211893676e+001
 1.378497619392282e+000	 1.539776272543993e+000	 1.134660593882664e+001
 1.200619212896338e+000	 1.341086810997858e+000	 1.143293406955776e+001
 1.185746094326383e+000	 1.354254932090050e+000	 1.133135353652235e+001
 1.170734073575938e+000	 1.367253388693743e+000	 1.122015486387464e+001
 1.155586059003449e+000	 1.380080008951025e+000	 1.110065620979467e+001
 1.140305003643770e+000	 1.392732687476031e+000	 1.097411622066321e+001
 1.124893903309479e+000	 1.405209386483143e+000	 1.084173122956857e+001
 1.109355794658762e+000	 1.417508136850241e+000	 1.070463260544120e+001
 1.093693753232441e+000	 1.429627039115891e+000	 1.056388425566260e+001
 1.077910891462778e+000	 1.441564264409459e+000	 1.042048028451234e+001
 1.062010356656721e+000	 1.453318055313266e+000	 1.027534280937421e+001
 1.045995328956277e+000	 1.464886726656035e+000	 1.012931993622389e+001
 1.218407053548307e+000	 1.360955757153844e+000	 1.142498914676146e+001
 1.203313581463500e+000	 1.374318971275530e+000	 1.131925850120081e+001
 1.188079149285163e+000	 1.387510007235055e+000	 1.120541826831443e+001
 1.172706708460706e+000	 1.400526660997230e+000	 1.108464997831784e+001
 1.157199255775852e+000	 1.413366795983732e+000	 1.095807370395407e+001
 1.141559831427821e+000	 1.426028344218016e+000	 1.082674549349296e+001
 1.125791517064595e+000	 1.438509307404328e+000	 1.069165495730270e+001
 1.109897433792857e+000	 1.450807757939658e+000	 1.055372300974455e+001
 1.093880740157302e+000	 1.462921839857642e+000	 1.041379976764345e+001
 1.077744630093995e+000	 1.474849769703482e+000	 1.027266260614167e+001
 1.061492330860527e+000	 1.486589837339156e+000	 1.013101437235204e+001
 1.236194894199525e+000	 1.380824703309748e+000	 1.141215991215999e+001
 1.220881068599836e+000	 1.394383010461012e+000	 1.130454443689593e+001
 1.205424224993587e+000	 1.407766625776456e+000	 1.118989768436057e+001
 1.189827357917149e+000	 1.420973313043610e+000	 1.106930938033650e+001
 1.174093507907113e+000	 1.434000904491688e+000	 1.094380683649885e+001
 1.158225759545347e+000	 1.446847301953223e+000	 1.081435254189879e+001
 1.142227239469625e+000	 1.459510477958824e+000	 1.068184190999362e+001
 1.126101114352495e+000	 1.471988476763907e+000	 1.054710118197142e+001
 1.109850588851078e+000	 1.484279415306369e+000	 1.041088548660506e+001
 1.093478903530557e+000	 1.496381484094300e+000	 1.027387705642483e+001
 1.076989332764113e+000	 1.508292948022929e+000	 1.013668359961085e+001
 1.253982734850077e+000	 1.400693649465486e+000	 1.139576534245726e+001
 1.238448555735489e+000	 1.414447049646400e+000	 1.128821245085055e+001
 1.222769300701319e+000	 1.428023244317834e+000	 1.117430546185335e+001
 1.206948007372900e+000	 1.441419965090038e+000	 1.105508538034509e+001
 1.190987760037691e+000	 1.454635012999764e+000	 1.093153080358031e+001
 1.174891687662203e+000	 1.467666259688620e+000	 1.080455559782055e+001
 1.158662961874007e+000	 1.480511648513576e+000	 1.067500673157621e+001
 1.142304794911510e+000	 1.493169195588471e+000	 1.054366226528317e+001
 1.125820437544266e+000	 1.505636990755470e+000	 1.041122949671705e+001
 1.109213176966573e+000	 1.517913198485543e+000	 1.027834326099528e+001
 1.092486334667199e+000	 1.529996058707168e+000	 1.014556438364068e+001
 1.271770575500046e+000	 1.420562595620974e+000	 1.137735001662270e+001
 1.256016042870559e+000	 1.434511088831594e+000	 1.127150045686521e+001
 1.240114376408472e+000	 1.448279862859078e+000	 1.115960020130862e+001
 1.224068656828083e+000	 1.461866617136390e+000	 1.104268297464504e+001
 1.207882012167719e+000	 1.475269121507824e+000	 1.092172103834842e+001
 1.191557615778533e+000	 1.488485217424059e+000	 1.079762288174289e+001
 1.175098684277891e+000	 1.501512819068426e+000	 1.067123106988983e+001
 1.158508475470063e+000	 1.514349914413187e+000	 1.054332024727031e+001
 1.141790286237030e+000	 1.526994566204773e+000	 1.041459529570399e+001
 1.124947450402210e+000	 1.539444912877031e+000	 1.028568964448796e+001
 1.107983336569954e+000	 1.551699169391692e+000	 1.015716373037134e+001
 1.289558416149514e+000	 1.440431541776130e+000	 1.135867836285230e+001
 1.273583530005141e+000	 1.454575128016497e+000	 1.125587668164493e+001
 1.257459452115157e+000	 1.468536481400075e+000	 1.114697965386275e+001
 1.241189306282823e+000	 1.482313269182544e+000	 1.103305361148290e+001
 1.224776264297331e+000	 1.495903230015734e+000	 1.091510528101554e+001
 1.208223543894480e+000	 1.509304175159395e+000	 1.079407942087592e+001
 1.191534406681430e+000	 1.522513989623221e+000	 1.067085661499263e+001
 1.174712156028311e+000	 1.535530633237893e+000	 1.054625122084255e+001
 1.157760134929534e+000	 1.548352141654106e+000	 1.042100946954929e+001
 1.140681723837633e+000	 1.560976627268587e+000	 1.029580771522546e+001
 1.123480338472545e+000	 1.573402280076317e+000	 1.017125083037338e+001
 1.307346256798566e+000	 1.460300487930869e+000	 1.134172840150723e+001
 1.291151017139334e+000	 1.474639167201012e+000	 1.124303273934766e+001
 1.274804527821486e+000	 1.488793099940715e+000	 1.113787325164113e+001
 1.258309955737241e+000	 1.502759921228375e+000	 1.102738729442071e+001
 1.241670516426661e+000	 1.516537338523356e+000	 1.091265536526928e+001
 1.224889472010190e+000	 1.530123132894482e+000	 1.079469862141201e+001
 1.207970129084775e+000	 1.543515160177803e+000	 1.067447655273308e+001
 1.190915836586413e+000	 1.556711352062423e+000	 1.055288480717131e+001
 1.173729983621940e+000	 1.569709717103297e+000	 1.043075316537852e+001
 1.156415997273006e+000	 1.582508341660034e+000	 1.030884366106150e+001
 1.138977340375136e+000	 1.595105390760859e+000	 1.018784884307451e+001
 1.325134097447286e+000	 1.480169434085108e+000	 1.132868503138750e+001
 1.308718504273237e+000	 1.494703206385040e+000	 1.123487631490597e+001
 1.292149603527568e+000	 1.509049718480886e+000	 1.113393430327758e+001
 1.275430605191462e+000	 1.523206573273759e+000	 1.102710439870175e+001
 1.258564768555845e+000	 1.537171447030556e+000	 1.091557875753345e+001
 1.241555400125804e+000	 1.550942090629174e+000	 1.080049362603452e+001
 1.224405851488079e+000	 1.564516330732017e+000	 1.068292682907585e+001
 1.207119517144526e+000	 1.577892070886612e+000	 1.056389540854434e+001
 1.189699832314410e+000	 1.591067292552176e+000	 1.044435340762400e+001
 1.172150270708498e+000	 1.604040056051193e+000	 1.032518979664978e+001
 1.154474342277895e+000	 1.616808501445135e+000	 1.020722653588627e+001
 1.342921938095756e+000	 1.500038380238764e+000	 1.132247398269553e+001
 1.326285991406947e+000	 1.514767245568483e+000	 1.123352349239478e+001
 1.309494679233518e+000	 1.529306337020477e+000	 1.113703188562757e+001
 1.292551254645610e+000	 1.543653225318572e+000	 1.103384722722067e+001
 1.275459020685018e+000	 1.557805555537200e+000	 1.092530987199070e+001
 1.258221328241467e+000	 1.571761048363324e+000	 1.081270847658668e+001
 1.240841573891493e+000	 1.585517501285710e+000	 1.069727724272720e+001
 1.223323197702809e+000	 1.599072789710298e+000	 1.058019330689995e+001
 1.205669681007109e+000	 1.612424868000571e+000	 1.046257427200042e+001
 1.187884544144272e+000	 1.625571770441884e+000	 1.034547587591260e+001
 1.169971344180990e+000	 1.638511612128961e+000	 1.022988979169189e+001
 1.360709778744060e+000	 1.519907326391754e+000	 1.132788318697322e+001
 1.343853478540562e+000	 1.534831284751244e+000	 1.124187395750328e+001
 1.326839754939444e+000	 1.549562955559376e+000	 1.114924245947660e+001
 1.309671904099808e+000	 1.564099877362689e+000	 1.104947132992538e+001
 1.292353272814312e+000	 1.578439664043149e+000	 1.094350118188644e+001
 1.274887256357323e+000	 1.592580006096787e+000	 1.083280909973008e+001
 1.257277296295168e+000	 1.606518671838722e+000	 1.071882238177078e+001
 1.239526878261421e+000	 1.620253508533317e+000	 1.060291562216265e+001
 1.221639529700198e+000	 1.633782443448310e+000	 1.048640793030068e+001
 1.203618817580494e+000	 1.647103484831933e+000	 1.037056028204386e+001
 1.185468346084586e+000	 1.660214722812153e+000	 1.025657299674072e+001
 1.378497619392282e+000	 1.539776272543993e+000	 1.134660593882664e+001
 1.361420965674179e+000	 1.554895323933223e+000	 1.126419621602965e+001
 1.344184830645459e+000	 1.569819574097472e+000	 1.117338419369304e+001
 1.326792553554179e+000	 1.584546529405988e+000	 1.107603660801687e+001
 1.309247524943862e+000	 1.599073772548270e+000	 1.097201414551158e+001
 1.291553184473516e+000	 1.613398963829416e+000	 1.086247413157931e+001
 1.273713018699259e+000	 1.627519842390902e+000	 1.074907241840189e+001
 1.255730558820518e+000	 1.641434227355505e+000	 1.063341714304134e+001
 1.237609378393840e+000	 1.655140018895221e+000	 1.051706557767960e+001
 1.219353091017331e+000	 1.668635199221159e+000	 1.040152110610565e+001
 1.200965347988850e+000	 1.681917833494530e+000	 1.028823031974933e+001
 1.045995328956277e+000	 1.464886726656035e+000	 1.012931993622389e+001
 1.029869018930230e+000	 1.476268665820915e+000	 9.981509966253865e+000
 1.013634664473865e+000	 1.487462332141325e+000	 9.830896198343154e+000
 9.972955298026257e-001	 1.498466258716638e+000	 9.678043463424389e+000
 9.808549037040834e-001	 1.509279053342249e+000	 9.523437674243743e+000
 9.643160974265820e-001	 1.519899398955622e+000	 9.367491742035615e+000
 9.476824425612986e-001	 1.530326054011600e+000	 9.210539678023805e+000
 9.309572889204426e-001	 1.540557852787052e+000	 9.052836645438861e+000
 9.141440024143027e-001	 1.550593705615053e+000	 8.894558046370348e+000
 8.972459629298207e-001	 1.560432599048893e+000	 8.735798766731767e+000
 8.802665622133532e-001	 1.570073595956371e+000	 8.576572579705690e+000
 1.061492330860527e+000	 1.486589837339156e+000	 1.013101437235204e+001
 1.045127100592058e+000	 1.498140406255998e+000	 9.987861822437187e+000
 1.028652225155088e+000	 1.509499912961594e+000	 9.842132227414380e+000
 1.012071017126220e+000	 1.520666868822365e+000	 9.694295135600640e+000
 9.953868140182343e-001	 1.531639861007416e+000	 9.544743818537263e+000
 9.786029761374552e-001	 1.542417552941194e+000	 9.393789963905466e+000
 9.617228844344277e-001	 1.552998684684357e+000	 9.241668406799720e+000
 9.447499383506843e-001	 1.563382073242935e+000	 9.088532467617952e+000
 9.276875536643400e-001	 1.573566612805977e+000	 8.934454064587101e+000
 9.105391603372334e-001	 1.583551274911993e+000	 8.779423084658795e+000
 8.933082003663225e-001	 1.593335108544644e+000	 8.623346908324798e+000
 1.076989332764113e+000	 1.508292948022929e+000	 1.013668359961085e+001
 1.060385182253275e+000	 1.520012146691773e+000	 9.998228652605967e+000
 1.043669785835759e+000	 1.531537493782587e+000	 9.857369808583329e+000
 1.026846504449323e+000	 1.542867478928838e+000	 9.714500190102237e+000
 1.009918724331958e+000	 1.554000668673342e+000	 9.569934043291902e+000
 9.928898548479602e-001	 1.564935706927530e+000	 9.423903197892775e+000
 9.757633263072429e-001	 1.575671315357876e+000	 9.276559556152609e+000
 9.585425877806589e-001	 1.586206293699568e+000	 9.127972046563290e+000
 9.412311049141454e-001	 1.596539519997630e+000	 8.978126485055547e+000
 9.238323577444381e-001	 1.606669950775794e+000	 8.826925050477646e+000
 9.063498385190916e-001	 1.616596621133581e+000	 8.674185909116194e+000
 1.092486334667199e+000	 1.529996058707168e+000	 1.014556438364068e+001
 1.075643263914047e+000	 1.541883887128052e+000	 1.001173411522270e+001
 1.058687346516041e+000	 1.553575074604111e+000	 9.875620282542034e+000
 1.041621991772097e+000	 1.565068089035861e+000	 9.737556667434912e+000
 1.024450634645408e+000	 1.576361476339833e+000	 9.597795395748248e+000
 1.007176733558246e+000	 1.587453860914437e+000	 9.456506235867142e+000
 9.898037681798884e-001	 1.598343946031964e+000	 9.313774466103931e+000
 9.723352372105056e-001	 1.609030514156761e+000	 9.169601953075011e+000
 9.547746561638566e-001	 1.619512427189830e+000	 9.023905398355407e+000
 9.371255551515684e-001	 1.629788626640121e+000	 8.876516181832773e+000
 9.193914766717938e-001	 1.639858133723017e+000	 8.727180065279736e+000
 1.107983336569954e+000	 1.551699169391692e+000	 1.015716373037134e+001
 1.090901345574538e+000	 1.563755627564647e+000	 1.002777047099961e+001
 1.073704907196097e+000	 1.575612655425975e+000	 9.896161757134037e+000
 1.056397479094699e+000	 1.587268699143244e+000	 9.762628700947538e+000
 1.038982544958740e+000	 1.598722284006695e+000	 9.627378637110009e+000
 1.021463612268464e+000	 1.609972014901722e+000	 9.490534174539429e+000
 1.003844210052510e+000	 1.621016576706430e+000	 9.352132368611326e+000
 9.861278866403658e-001	 1.631854734614328e+000	 9.212124158408312e+000
 9.683182074136094e-001	 1.642485334382393e+000	 9.070373739497200e+000
 9.504187525587590e-001	 1.652907302504798e+000	 8.926658242906132e+000
 9.324331148245620e-001	 1.663119646312786e+000	 8.780667489717800e+000
 1.123480338472545e+000	 1.573402280076317e+000	 1.017125083037338e+001
 1.106159427234916e+000	 1.585627368001368e+000	 1.004599075275046e+001
 1.088722467876090e+000	 1.597650236247987e+000	 9.918531517750475e+000
 1.071172966417289e+000	 1.609469309250792e+000	 9.789137844017461e+000
 1.053514455272108e+000	 1.621083091673732e+000	 9.657988582265562e+000
 1.035750490978762e+000	 1.632490168889190e+000	 9.525175832354067e+000
 1.017884651925251e+000	 1.643689207381081e+000	 9.390704203868818e+000
 9.999205360703791e-001	 1.654678955072082e+000	 9.254489775750782e+000
 9.818617586635410e-001	 1.665458241575139e+000	 9.116361301588562e+000
 9.637119499661438e-001	 1.676025978369649e+000	 8.976057525841519e+000
 9.454747529775296e-001	 1.686381158902720e+000	 8.833228467059289e+000
 1.138977340375136e+000	 1.595105390760859e+000	 1.018784884307451e+001
 1.121417508895345e+000	 1.607499108438029e+000	 1.006630077617684e+001
 1.103740028556184e+000	 1.619687817069959e+000	 9.942518279020062e+000
 1.085948453740026e+000	 1.631669919358312e+000	 9.816755574362116e+000
 1.068046365585667e+000	 1.643443899340752e+000	 9.689178963770331e+000
 1.050037369689292e+000	 1.655008322876647e+000	 9.559865995220138e+000
 1.031925093798258e+000	 1.666361838055729e+000	 9.428804770422790e+000
 1.013713185500687e+000	 1.677503175529833e+000	 9.295893387588203e+000
 9.954053099137876e-001	 1.688431148767885e+000	 9.160938587927740e+000
 9.770051473738578e-001	 1.699144654234502e+000	 9.023658970938595e+000
 9.585163911308305e-001	 1.709642671492654e+000	 8.883679835490113e+000
 1.154474342277895e+000	 1.616808501445135e+000	 1.020722653588627e+001
 1.136675590555991e+000	 1.629370848874443e+000	 1.008885100653371e+001
 1.118757589236542e+000	 1.641725397891696e+000	 9.968154292703915e+000
 1.100723941063070e+000	 1.653870529465609e+000	 9.845395654399599e+000
 1.082578275899572e+000	 1.665804707007561e+000	 9.720744420455072e+000
 1.064324248400201e+000	 1.677526476863900e+000	 9.594279193326344e+000
 1.045965535671676e+000	 1.689034468730178e+000	 9.465987189356524e+000
 1.027505834931429e+000	 1.700327395987393e+000	 9.335763709258419e+000
 1.008948861164487e+000	 1.711404055960447e+000	 9.203410517701741e+000
 9.902983447820346e-001	 1.722263330099178e+000	 9.068640140761680e+000
 9.715580292845978e-001	 1.732904184082422e+000	 8.931069223439053e+000
 1.169971344180990e+000	 1.638511612128961e+000	 1.022988979169189e+001
 1.151933672217020e+000	 1.651242589310421e+000	 1.011402829453469e+001
 1.133775149917325e+000	 1.663762978713008e+000	 9.995707325126325e+000
 1.115499428386579e+000	 1.676071139572492e+000	 9.875206361003361e+000
 1.097110186213977e+000	 1.688165514673963e+000	 9.752712987990821e+000
 1.078611127111641e+000	 1.700044630850756e+000	 9.628322130371615e+000
 1.060005977545648e+000	 1.711707099404241e+000	 9.502035411755779e+000
 1.041298484362745e+000	 1.723151616444576e+000	 9.373760640352270e+000
 1.022492412415774e+000	 1.734376963152643e+000	 9.243311412883578e+000
 1.003591542190809e+000	 1.745382005963504e+000	 9.110405061705023e+000
 9.845996674389650e-001	 1.756165696671858e+000	 8.974669154572528e+000
 1.185468346084586e+000	 1.660214722812153e+000	 1.025657299674072e+001
 1.167191753878597e+000	 1.673114329745773e+000	 1.014244749346258e+001
 1.148792710598699e+000	 1.685800559533704e+000	 1.002567251607909e+001
 1.130274915710714e+000	 1.698271749678765e+000	 9.906562596601857e+000
 1.111642096529037e+000	 1.710526322339764e+000	 9.785338470404639e+000
 1.092898005823761e+000	 1.722562784837019e+000	 9.662126321538347e+000
 1.074046419420320e+000	 1.734379730077722e+000	 9.536957153398678e+000
 1.055091133794776e+000	 1.745975836901193e+000	 9.409766277330180e+000
 1.036035963667787e+000	 1.757349870344292e+000	 9.280392912391802e+000
 1.016884739600314e+000	 1.768500681827305e+000	 9.148579890241990e+000
 9.976413055940656e-001	 1.779427209260796e+000	 9.013971033146380e+000
 1.200965347988850e+000	 1.681917833494530e+000	 1.028823031974933e+001
 1.182449835540888e+000	 1.694986070180314e+000	 1.017494296821331e+001
 1.163810271280825e+000	 1.707838140353592e+000	 1.005876412990348e+001
 1.145050403035632e+000	 1.720472359784237e+000	 9.940057892339087e+000
 1.126174006844908e+000	 1.732887130004770e+000	 9.819092703299504e+000
 1.107184884536711e+000	 1.745080938822499e+000	 9.696040622690852e+000
 1.088086861295837e+000	 1.757052360750431e+000	 9.570976693795753e+000
 1.068883783227663e+000	 1.768800057357055e+000	 9.443878425282794e+000
 1.049579514920662e+000	 1.780322777535209e+000	 9.314625376099880e+000
 1.030177937010685e+000	 1.791619357690403e+000	 9.182998836234827e+000
 1.010682943750033e+000	 1.802688721849068e+000	 9.048681597276556e+000
 8.802665622133532e-001	 1.570073595956371e+000	 8.576572579705690e+000
 8.632117660713862e-001	 1.579514434436757e+000	 8.417237287899056e+000
 8.460824421315376e-001	 1.588755792347744e+000	 8.258648073795765e+000
 8.288820044695899e-001	 1.597796962967234e+000	 8.101519381002774e+000
 8.116138706063586e-001	 1.606637315540310e+000	 7.946489376337303e+000
 7.942814594508104e-001	 1.615276295033541e+000	 7.794118162739935e+000
 7.768881892624312e-001	 1.623713421824428e+000	 7.644886173408799e+000
 7.594374756351371e-001	 1.631948291327147e+000	 7.499192751576218e+000
 7.419327295049742e-001	 1.639980573555821e+000	 7.357354920234745e+000
 7.243773551837657e-001	 1.647810012626663e+000	 7.219606345978819e+000
 7.067747484208015e-001	 1.655436426200365e+000	 7.086096500955472e+000
 8.933082003663225e-001	 1.593335108544644e+000	 8.623346908324802e+000
 8.760007279448259e-001	 1.602915818291883e+000	 8.466744223836484e+000
 8.586176235547385e-001	 1.612294092054240e+000	 8.310713179545743e+000
 8.411623518532653e-001	 1.621469212639146e+000	 8.155981079310141e+000
 8.236383809936840e-001	 1.630440539946704e+000	 8.003196667499863e+000
 8.060491805379901e-001	 1.639207510720356e+000	 7.852928190158295e+000
 7.883982193890746e-001	 1.647769638231734e+000	 7.705661637221690e+000
 7.706889637447689e-001	 1.656126511900856e+000	 7.561799170663155e+000
 7.529248750760235e-001	 1.664277796852926e+000	 7.421657743364469e+000
 7.351094081314255e-001	 1.672223233413098e+000	 7.285467913431264e+000
 7.172460089701713e-001	 1.679962636540613e+000	 7.153372858542967e+000
 9.063498385190916e-001	 1.616596621133581e+000	 8.674185909116194e+000
 8.887896898180561e-001	 1.626317202147628e+000	 8.520598469987636e+000
 8.711528049777061e-001	 1.635832391761306e+000	 8.367493886743752e+000
 8.534426992366737e-001	 1.645141462311571e+000	 8.215599448647289e+000
 8.356628913807008e-001	 1.654243764353545e+000	 8.065561414896404e+000
 8.178169016248160e-001	 1.663138726407550e+000	 7.917942949009855e+000
 7.999082495153207e-001	 1.671825854639347e+000	 7.773222233168660e+000
 7.819404518539626e-001	 1.680304732474796e+000	 7.631790767769477e+000
 7.639170206466022e-001	 1.688575020150184e+000	 7.493951861443968e+000
 7.458414610785937e-001	 1.696636454199608e+000	 7.359919316776598e+000
 7.277172695190416e-001	 1.704488846880856e+000	 7.229816316880903e+000
 9.193914766717938e-001	 1.639858133723017e+000	 8.727180065279736e+000
 9.015786516912102e-001	 1.649718586003838e+000	 8.576763074807047e+000
 8.836879864005771e-001	 1.659370691468799e+000	 8.426816293293214e+000
 8.657230466199544e-001	 1.668813711984378e+000	 8.278055063259798e+000
 8.476874017675544e-001	 1.678046988760722e+000	 8.131111053220774e+000
 8.295846227114393e-001	 1.687069942095027e+000	 7.986530089626747e+000
 8.114182796413247e-001	 1.695882071047191e+000	 7.844770166648125e+000
 7.931919399628782e-001	 1.704482953048911e+000	 7.706199639382696e+000
 7.749091662168737e-001	 1.712872243447557e+000	 7.571095606155993e+000
 7.565735140254351e-001	 1.721049674986174e+000	 7.439642485622130e+000
 7.381885300675789e-001	 1.729015057221095e+000	 7.311930794375831e+000
 9.324331148245620e-001	 1.663119646312786e+000	 8.780667489717800e+000
 9.143676135644239e-001	 1.673119969860359e+000	 8.633446305830335e+000
 8.962231678234889e-001	 1.682908991176575e+000	 8.486749689153083e+000
 8.780033940032497e-001	 1.692485961657440e+000	 8.341269998947354e+000
 8.597119121543897e-001	 1.701850213168122e+000	 8.197613118108473e+000
 8.413523437980102e-001	 1.711001157782694e+000	 8.056296206448153e+000
 8.229283097672413e-001	 1.719938287455187e+000	 7.917745628597663e+000
 8.044434280716759e-001	 1.728661173623140e+000	 7.782295062398319e+000
 7.859013117870016e-001	 1.737169466745008e+000	 7.650183793813346e+000
 7.673055669721157e-001	 1.745462895772777e+000	 7.521555204514860e+000
 7.486597906159502e-001	 1.753541267561331e+000	 7.396455458381168e+000
 9.454747529775296e-001	 1.686381158902720e+000	 8.833228467059289e+000
 9.271565754378306e-001	 1.696521353717034e+000	 8.689096428499642e+000
 9.087583492465781e-001	 1.706447290884493e+000	 8.545601534895855e+000
 8.902837413866999e-001	 1.716158211330630e+000	 8.403402976538109e+000
 8.717364225413525e-001	 1.725653437575633e+000	 8.263070521996081e+000
 8.531200648846790e-001	 1.734932373470457e+000	 8.125082216044314e+000
 8.344383398932261e-001	 1.743994503863259e+000	 7.989822247804629e+000
 8.156949161805148e-001	 1.752839394197428e+000	 7.857578995203731e+000
 7.968934573571489e-001	 1.761466690042496e+000	 7.728543252096642e+000
 7.780376199188019e-001	 1.769876116559399e+000	 7.602806644627568e+000
 7.591310511643218e-001	 1.778067477901566e+000	 7.480360243563355e+000
 9.585163911308305e-001	 1.709642671492654e+000	 8.883679835490113e+000
 9.399455373115652e-001	 1.719922737573709e+000	 8.742396327833028e+000
 9.212935306699824e-001	 1.729985590592412e+000	 8.601912289185684e+000
 9.025640887704451e-001	 1.739830461003820e+000	 8.462844363165957e+000
 8.837609329285883e-001	 1.749456661983145e+000	 8.325716699238196e+000
 8.648877859715952e-001	 1.758863589158218e+000	 8.190958618191743e+000
 8.459483700194352e-001	 1.768050720271332e+000	 8.058902442163815e+000
 8.269464042895555e-001	 1.777017614771716e+000	 7.929781495473732e+000
 8.078856029274796e-001	 1.785763913339984e+000	 7.803728282898597e+000
 7.887696728656590e-001	 1.794289337346020e+000	 7.680772852342031e+000
 7.696023117128606e-001	 1.802593688241801e+000	 7.560841349113810e+000
 9.715580292845978e-001	 1.732904184082422e+000	 8.931069223439051e+000
 9.527344991857626e-001	 1.743324121430229e+000	 8.792257987702113e+000
 9.338287120938386e-001	 1.753523890300187e+000	 8.654450099369203e+000
 9.148444361546280e-001	 1.763502710676882e+000	 8.518211044708178e+000
 8.957854433162423e-001	 1.773259886390545e+000	 8.384010632762720e+000
 8.766555070589108e-001	 1.782794804845885e+000	 8.252220650985120e+000
 8.574584001460229e-001	 1.792106936679328e+000	 8.123112678374950e+000
 8.381978923989570e-001	 1.801195835345946e+000	 7.996856062501888e+000
 8.188777484981569e-001	 1.810061136637435e+000	 7.873516067277655e+000
 7.995017258128530e-001	 1.818702558132623e+000	 7.753052198777467e+000
 7.800735722617330e-001	 1.827119898582037e+000	 7.635316716791465e+000
 9.845996674389650e-001	 1.756165696671858e+000	 8.974669154572530e+000
 9.655234610605561e-001	 1.766725505286440e+000	 8.837816840915370e+000
 9.463638935182835e-001	 1.777062190007680e+000	 8.702205367867215e+000
 9.271247835393878e-001	 1.787174960349689e+000	 8.568341181324882e+000
 9.078099537044604e-001	 1.797063110797722e+000	 8.436631773245503e+000
 8.884232281467753e-001	 1.806726020533363e+000	 8.307383349806598e+000
 8.689684302731453e-001	 1.816163153087172e+000	 8.180798648566638e+000
 8.494493805088794e-001	 1.825374055920060e+000	 8.056974911060744e+000
 8.298698940693434e-001	 1.834358359934808e+000	 7.935902017884153e+000
 8.102337787605497e-001	 1.843115778919189e+000	 7.817460793882415e+000
 7.905448328111057e-001	 1.851646108922276e+000	 7.701421491571731e+000
 9.976413055940656e-001	 1.779427209260796e+000	 9.013971033146380e+000
 9.783124229360812e-001	 1.790126889142184e+000	 8.878426001927265e+000
 9.588990749434545e-001	 1.800600489714745e+000	 8.744385205729888e+000
 9.394051309248661e-001	 1.810847210022113e+000	 8.612288856795166e+000
 9.198344640933873e-001	 1.820866335204562e+000	 8.482474860636177e+000
 9.001909492353385e-001	 1.830657236220556e+000	 8.355176518948115e+000
 8.804784604009567e-001	 1.840219369494784e+000	 8.230520371444859e+000
 8.607008686194825e-001	 1.849552276494001e+000	 8.108524183053550e+000
 8.408620396412040e-001	 1.858655583232066e+000	 7.989095083662900e+000
 8.209658317089144e-001	 1.867528999705698e+000	 7.872027868329534e+000
 8.010160933611451e-001	 1.876172319262518e+000	 7.757003466489158e+000
 1.010682943750033e+000	 1.802688721849068e+000	 9.048681597276554e+000
 9.911013848124723e-001	 1.813528272997310e+000	 8.913650392771318e+000
 9.714342563694890e-001	 1.824138789421242e+000	 8.780407783542605e+000
 9.516854783112038e-001	 1.834519459694026e+000	 8.649318631238664e+000
 9.318589744831690e-001	 1.844669559610956e+000	 8.520644656852035e+000
 9.119586703247522e-001	 1.854588451907371e+000	 8.394539623773264e+000
 8.919884905296130e-001	 1.864275585902090e+000	 8.271047224780752e+000
 8.719523567309254e-001	 1.873730497067709e+000	 8.150099102574043e+000
 8.518541852139012e-001	 1.882952806529171e+000	 8.031513011141383e+000
 8.316978846581138e-001	 1.891942220492133e+000	 7.914991126119503e+000
 8.114873539120180e-001	 1.900698529602766e+000	 7.800118513100239e+000
 7.067747484208015e-001	 1.655436426200365e+000	 7.086096500955473e+000
 6.891256442852184e-001	 1.662860803443095e+000	 6.950778863220853e+000
 6.714360551290196e-001	 1.670081948955455e+000	 6.808058296449362e+000
 6.537093420179823e-001	 1.677099898436262e+000	 6.659235730032911e+000
 6.359488499726912e-001	 1.683914758373382e+000	 6.507541411975289e+000
 6.181579061975373e-001	 1.690526705208834e+000	 6.355356687696572e+000
 6.003398183486904e-001	 1.696935984454057e+000	 6.204817359818986e+000
 5.824978728425354e-001	 1.703142909757176e+000	 6.057872720734120e+000
 5.646353332059865e-001	 1.709147861924183e+000	 5.916281487446340e+000
 5.467554384699812e-001	 1.714951287895949e+000	 5.781610172907421e+000
 5.288614016073798e-001	 1.720553699683057e+000	 5.655233783665316e+000
 7.172460089701713e-001	 1.679962636540613e+000	 7.153372858542967e+000
 6.993354235518501e-001	 1.687497010056690e+000	 7.019272581931380e+000
 6.813837533048077e-001	 1.694825140851425e+000	 6.877716099387063e+000
 6.633944090908883e-001	 1.701947065152540e+000	 6.729660166417851e+000
 6.453707854890254e-001	 1.708862891025579e+000	 6.577791593945801e+000
 6.273162589980010e-001	 1.715572797526653e+000	 6.425223362285146e+000
 6.092341862787586e-001	 1.722077033804590e+000	 6.274352352194039e+000
 5.911279024377774e-001	 1.728375918154393e+000	 6.127360700965786e+000
 5.730007193529461e-001	 1.734469837023908e+000	 5.986211663557006e+000
 5.548559240432539e-001	 1.740359243975685e+000	 5.852648178497844e+000
 5.366967770835490e-001	 1.746044658606035e+000	 5.728194015925739e+000
 7.277172695190416e-001	 1.704488846880856e+000	 7.229816316880903e+000
 7.095452028179918e-001	 1.712133216670198e+000	 7.097533327087657e+000
 6.913314514801309e-001	 1.719568332747231e+000	 6.957796263678354e+000
 6.730794761633672e-001	 1.726794231868579e+000	 6.811781030491115e+000
 6.547927210049782e-001	 1.733811023677468e+000	 6.661098373418648e+000
 6.364746117981363e-001	 1.740618889844100e+000	 6.509390581315788e+000
 6.181285542085550e-001	 1.747218083154697e+000	 6.359392403075731e+000
 5.997579320328055e-001	 1.753608926551138e+000	 6.213477009322299e+000
 5.813661054997471e-001	 1.759791812123127e+000	 6.073767499857060e+000
 5.629564096164194e-001	 1.765767200054896e+000	 5.942135794939146e+000
 5.445321525596547e-001	 1.771535617528480e+000	 5.820204383805049e+000
 7.381885300675789e-001	 1.729015057221095e+000	 7.311930794375828e+000
 7.197549820838096e-001	 1.736769423283644e+000	 7.181885810624507e+000
 7.012791496551518e-001	 1.744311524642915e+000	 7.044444038436380e+000
 6.827645432355755e-001	 1.751641398584439e+000	 6.901008808682738e+000
 6.642146565207019e-001	 1.758759156329126e+000	 6.752900020224184e+000
 6.456329645980884e-001	 1.765664982161268e+000	 6.603086542569230e+000
 6.270229221382166e-001	 1.772359132504483e+000	 6.454990686832080e+000
 6.083879616277478e-001	 1.778841934947530e+000	 6.311136000128534e+000
 5.897314916465086e-001	 1.785113787221967e+000	 6.173761604235915e+000
 5.710568951895864e-001	 1.791175156133711e+000	 6.044821548126513e+000
 5.523675280357959e-001	 1.797026576450526e+000	 5.925987313507303e+000
 7.486597906159502e-001	 1.753541267561331e+000	 7.396455458381170e+000
 7.299647613494685e-001	 1.761405629897045e+000	 7.268889402915084e+000
 7.112268478300332e-001	 1.769054716538517e+000	 7.134038723173825e+000
 6.924496103076728e-001	 1.776488565300180e+000	 6.993507438649538e+000
 6.736365920363492e-001	 1.783707288980630e+000	 6.848792794855346e+000
 6.547913173980026e-001	 1.790711074478250e+000	 6.701803402801920e+000
 6.359172900678812e-001	 1.797500181854058e+000	 6.556433593326151e+000
 6.170179912227325e-001	 1.804074943343685e+000	 6.415456712949798e+000
 5.980968777933496e-001	 1.810435762320553e+000	 6.281184880751198e+000
 5.791573807628647e-001	 1.816583112212264e+000	 6.155607928119501e+000
 5.602029035120719e-001	 1.822517535372305e+000	 6.040396824627242e+000
 7.591310511643218e-001	 1.778067477901566e+000	 7.480360243563354e+000
 7.401745406151347e-001	 1.786041836510427e+000	 7.355333619700894e+000
 7.211745460049378e-001	 1.793797908434078e+000	 7.223189107148123e+000
 7.021346773798168e-001	 1.801335732015862e+000	 7.085706267412304e+000
 6.830585275520714e-001	 1.808655421632055e+000	 6.944554986346331e+000
 6.639496701980239e-001	 1.815757166795140e+000	 6.801317124588969e+000
 6.448116579976858e-001	 1.822641231203525e+000	 6.659258641685896e+000
 6.256480208178878e-001	 1.829307951739722e+000	 6.521778943086229e+000
 6.064622639403892e-001	 1.835757737419013e+000	 6.391220852764741e+000
 5.872578663363629e-001	 1.841991068290684e+000	 6.269564066612363e+000
 5.680382789885817e-001	 1.848008494293951e+000	 6.158429669090632e+000
 7.696023117128606e-001	 1.802593688241801e+000	 7.560841349113808e+000
 7.503843198809727e-001	 1.810678043123807e+000	 7.438233610928879e+000
 7.311222441800276e-001	 1.818541100329639e+000	 7.308728934589353e+000
 7.118197444521652e-001	 1.826182898731543e+000	 7.174258800478821e+000
 6.924804630680216e-001	 1.833603554283482e+000	 7.036642294005372e+000
 6.731080229982979e-001	 1.840803259112029e+000	 6.897582264041864e+000
 6.537060259277673e-001	 1.847782280552992e+000	 6.759272516173230e+000
 6.342780504133431e-001	 1.854540960135760e+000	 6.625679455944641e+000
 6.148276500877458e-001	 1.861079712517475e+000	 6.499260149977203e+000
 5.953583519101905e-001	 1.867399024369104e+000	 6.381938596137514e+000
 5.758736544654247e-001	 1.873499453215596e+000	 6.275236667043837e+000
 7.800735722617330e-001	 1.827119898582037e+000	 7.635316716791460e+000
 7.605940991471489e-001	 1.835314249737210e+000	 7.514825651313773e+000
 7.410699423554661e-001	 1.843284292225242e+000	 7.387712393378795e+000
 7.215048115248770e-001	 1.851030065447284e+000	 7.256038178534816e+000
 7.019023985843517e-001	 1.858551686934985e+000	 7.121749315722282e+000
 6.822663757989695e-001	 1.865849351429012e+000	 6.986672828982149e+000
 6.626003938582628e-001	 1.872923329902566e+000	 6.852569212708649e+000
 6.429080800092255e-001	 1.879773968531916e+000	 6.722988331789586e+000
 6.231930362355387e-001	 1.886401687616061e+000	 6.600915143977788e+000
 6.034588374844565e-001	 1.892806980447657e+000	 6.488172673938618e+000
 5.837090299427000e-001	 1.898990412137376e+000	 6.386134221198068e+000
 7.905448328111057e-001	 1.851646108922276e+000	 7.701421491571729e+000
 7.708038784138284e-001	 1.859950456350654e+000	 7.582562632463461e+000
 7.510176405314154e-001	 1.868027484120926e+000	 7.457409624999564e+000
 7.311898785981098e-001	 1.875877232163145e+000	 7.328132695496760e+000
 7.113243341012142e-001	 1.883499819586642e+000	 7.196784806388125e+000
 6.914247286001837e-001	 1.890895443746180e+000	 7.065296800176807e+000
 6.714947617893095e-001	 1.898064379252353e+000	 6.935472864684809e+000
 6.515381096056641e-001	 1.905006976928307e+000	 6.809805428808942e+000
 6.315584223838869e-001	 1.911723662714901e+000	 6.692034718559880e+000
 6.115593230592696e-001	 1.918214936526472e+000	 6.583913155261735e+000
 5.915444054205067e-001	 1.924481371059422e+000	 6.486615993095264e+000
 8.010160933611451e-001	 1.876172319262518e+000	 7.757003466489159e+000
 7.810136576811767e-001	 1.884586662964163e+000	 7.639109556421609e+000
 7.609653387080381e-001	 1.892770676016732e+000	 7.515302253810894e+000
 7.408749456720214e-001	 1.900724398879184e+000	 7.387841354140790e+000
 7.207462696187614e-001	 1.908447952238532e+000	 7.258867254094843e+000
 7.005830814020861e-001	 1.915941536063627e+000	 7.130395615135711e+000
 6.803891297210447e-001	 1.923205428602461e+000	 7.004312350419983e+000
 6.601681392027867e-001	 1.930239985325053e+000	 6.882516953689740e+000
 6.399238085329092e-001	 1.937045637814120e+000	 6.768719162486617e+000
 6.196598086347398e-001	 1.943622892605683e+000	 6.665025902406773e+000
 5.993797808989435e-001	 1.949972329981867e+000	 6.572364726489528e+000
 8.114873539120180e-001	 1.900698529602766e+000	 7.800118513100245e+000
 7.912234369493597e-001	 1.909222869577757e+000	 7.682339030496843e+000
 7.709130368854967e-001	 1.917513867912702e+000	 7.559078933899109e+000
 7.505600127467705e-001	 1.925571565595462e+000	 7.432669455910673e+000
 7.301682051371446e-001	 1.933396084890728e+000	 7.305320507124305e+000
 7.097414342048221e-001	 1.940987628381446e+000	 7.179114875157410e+000
 6.892834976536054e-001	 1.948346477952994e+000	 7.056002746972828e+000
 6.687981688007219e-001	 1.955472993722270e+000	 6.937796574490704e+000
 6.482891946827245e-001	 1.962367612913845e+000	 6.827335173669439e+000
 6.277602942109755e-001	 1.969030848685419e+000	 6.727609217292477e+000
 6.072151563781103e-001	 1.975463288904845e+000	 6.639264204570029e+000
 5.288614016073798e-001	 1.720553699683057e+000	 5.655233783665316e+000
 5.109564077608136e-001	 1.725955672830829e+000	 5.535322181422750e+000
 4.930436120318358e-001	 1.731157843990140e+000	 5.419406571842423e+000
 4.751261388703825e-001	 1.736160911033618e+000	 5.307621042150134e+000
 4.572070809624128e-001	 1.740965632275259e+000	 5.199920855681047e+000
 4.392894979044457e-001	 1.745572825227722e+000	 5.096094930172848e+000
 4.213764149277033e-001	 1.749983365329663e+000	 4.995779706874021e+000
 4.034708216724219e-001	 1.754198184645169e+000	 4.898474232458688e+000
 3.855756710127974e-001	 1.758218270537387e+000	 4.803556272983102e+000
 3.676938779329501e-001	 1.762044664318403e+000	 4.710299277857200e+000
 3.498283184541984e-001	 1.765678459877450e+000	 4.617890011980560e+000
 5.366967770835490e-001	 1.746044658606035e+000	 5.728194015925739e+000
 5.185265108061257e-001	 1.751526664987303e+000	 5.610682645354260e+000
 5.003483270571110e-001	 1.756805909202691e+000	 5.497295537194373e+000
 4.821653965768894e-001	 1.761883099464191e+000	 5.388256375402923e+000
 4.639808578712685e-001	 1.766759005320630e+000	 5.283586062134111e+000
 4.457978158663768e-001	 1.771434456396563e+000	 5.183116723516910e+000
 4.276193406139063e-001	 1.775910341100748e+000	 5.086507264244872e+000
 4.094484660472609e-001	 1.780187605306307e+000	 4.993260274237397e+000
 3.912881887890969e-001	 1.784267251004713e+000	 4.902740087600433e+000
 3.731414670106324e-001	 1.788150334935661e+000	 4.814191792710750e+000
 3.550112193430273e-001	 1.791837967194950e+000	 4.726760992432758e+000
 5.445321525596547e-001	 1.771535617528480e+000	 5.820204383805049e+000
 5.260966138514088e-001	 1.777097657143252e+000	 5.705428256254698e+000
 5.076530420823825e-001	 1.782453974414742e+000	 5.594637313513511e+000
 4.892046542834107e-001	 1.787605287894298e+000	 5.488151707573778e+000
 4.707546347801497e-001	 1.792552378365584e+000	 5.386062787327442e+000
 4.523061338283396e-001	 1.797296087565045e+000	 5.288248753635196e+000
 4.338622663001416e-001	 1.801837316871536e+000	 5.194392034661708e+000
 4.154261104221306e-001	 1.806177025967219e+000	 5.103998164549435e+000
 3.970007065654232e-001	 1.810316231471889e+000	 5.016415945168033e+000
 3.785890560883361e-001	 1.814256005552847e+000	 4.930858669127710e+000
 3.601941202318722e-001	 1.817997474512457e+000	 4.846426182428142e+000
 5.523675280357959e-001	 1.797026576450526e+000	 5.925987313507303e+000
 5.336667168967522e-001	 1.802668649298810e+000	 5.814303538064052e+000
 5.149577571077297e-001	 1.808102039626417e+000	 5.706254835279346e+000
 4.962439119900157e-001	 1.813327476324059e+000	 5.602261487481727e+000
 4.775284116891168e-001	 1.818345751410225e+000	 5.502486664118573e+000
 4.588144517903844e-001	 1.823157718733256e+000	 5.406853862293627e+000
 4.401051919864523e-001	 1.827764292642103e+000	 5.315066253262161e+000
 4.214037547970659e-001	 1.832166446627964e+000	 5.226627696222568e+000
 4.027132243418041e-001	 1.836365211938953e+000	 5.140865177077321e+000
 3.840366451660828e-001	 1.840361676169979e+000	 5.056952428125038e+000
 3.653770211207495e-001	 1.844156981829972e+000	 4.973934484830643e+000
 5.602029035120719e-001	 1.822517535372305e+000	 6.040396824627242e+000
 5.412368199422444e-001	 1.828239641454104e+000	 5.932163522851260e+000
 5.222624721332321e-001	 1.833750104837843e+000	 5.827061161884145e+000
 5.032831696967740e-001	 1.839049664753586e+000	 5.725610633604387e+000
 4.843021885982292e-001	 1.844139124454657e+000	 5.628044883208824e+000
 4.653227697525632e-001	 1.849019349901286e+000	 5.534328286180619e+000
 4.463481176728812e-001	 1.853691268412522e+000	 5.444178131969217e+000
 4.273813991721018e-001	 1.858155867288595e+000	 5.357087952334827e+000
 4.084257421182673e-001	 1.862414192405942e+000	 5.272352428294378e+000
 3.894842342438941e-001	 1.866467346787076e+000	 5.189093607719149e+000
 3.705599220096754e-001	 1.870316489147490e+000	 5.106288165814327e+000
 5.680382789885817e-001	 1.848008494293951e+000	 6.158429669090632e+000
 5.488069229879748e-001	 1.853810633609268e+000	 6.053983502676545e+000
 5.295671871589682e-001	 1.859398170049142e+000	 5.952068030739849e+000
 5.103224274037552e-001	 1.864771853182999e+000	 5.853302070554900e+000
 4.910759655075479e-001	 1.869932497498986e+000	 5.757982888625777e+000
 4.718310877149266e-001	 1.874880981069227e+000	 5.666107680278259e+000
 4.525910433594712e-001	 1.879618244182867e+000	 5.577397372627626e+000
 4.333590435472736e-001	 1.884145287949170e+000	 5.491322463746570e+000
 4.141382598948407e-001	 1.888463172872894e+000	 5.407130606455282e+000
 3.949318233217916e-001	 1.892573017404154e+000	 5.323875643084677e+000
 3.757428228986661e-001	 1.896475996465010e+000	 5.240447797733067e+000
 5.758736544654247e-001	 1.873499453215596e+000	 6.275236667043837e+000
 5.563770260340329e-001	 1.879381625764431e+000	 6.174868987378450e+000
 5.368719021850179e-001	 1.885046235260443e+000	 6.076394616009066e+000
 5.173616851110289e-001	 1.890494041612410e+000	 5.980524462053886e+000
 4.978497424171328e-001	 1.895725870543314e+000	 5.887611252212208e+000
 4.783394056775263e-001	 1.900742612237168e+000	 5.797673294848777e+000
 4.588339690462648e-001	 1.905545219953211e+000	 5.710420800924821e+000
 4.393366879226158e-001	 1.910134708609745e+000	 5.625284447613925e+000
 4.198507776715522e-001	 1.914512153339845e+000	 5.541445865631662e+000
 4.003794123997967e-001	 1.918678688021233e+000	 5.457869729031053e+000
 3.809257237877377e-001	 1.922635503782530e+000	 5.373337126382565e+000
 5.837090299427000e-001	 1.898990412137376e+000	 6.386134221198068e+000
 5.639471290805076e-001	 1.904952617919726e+000	 6.290065848946316e+000
 5.441766172114603e-001	 1.910694300471868e+000	 6.195276473642361e+000
 5.244009428186647e-001	 1.916216230041939e+000	 6.102560121940394e+000
 5.046235193270441e-001	 1.921519243587747e+000	 6.012312710304626e+000
 4.848477236404135e-001	 1.926604243405199e+000	 5.924558291603062e+000
 4.650768947333050e-001	 1.931472195723629e+000	 5.838978109747789e+000
 4.453143322981636e-001	 1.936124129270376e+000	 5.754942119275368e+000
 4.255632954484296e-001	 1.940561133806834e+000	 5.671542621509466e+000
 4.058270014779313e-001	 1.944784358638330e+000	 5.587629666459978e+000
 3.861086246769064e-001	 1.948795011100049e+000	 5.501847869758051e+000
 5.915444054205067e-001	 1.924481371059422e+000	 6.486615993095264e+000
 5.715172321274880e-001	 1.930523610075283e+000	 6.394970635188191e+000
 5.514813322383747e-001	 1.936342365683543e+000	 6.304074655458576e+000
 5.314402005267321e-001	 1.941938418471699e+000	 6.214793086717008e+000
 5.113972962373421e-001	 1.947312616632389e+000	 6.127549347567303e+000
 4.913560416036390e-001	 1.952465874573409e+000	 6.042354186150519e+000
 4.713198204206348e-001	 1.957399171494197e+000	 5.958837701832830e+000
 4.512919766739519e-001	 1.962113549931120e+000	 5.876284070707522e+000
 4.312758132255009e-001	 1.966610114273898e+000	 5.793668595069065e+000
 4.112745905562165e-001	 1.970890029255463e+000	 5.709696694288594e+000
 3.912915255661882e-001	 1.974954518417563e+000	 5.622844454661048e+000
 5.993797808989435e-001	 1.949972329981867e+000	 6.572364726489528e+000
 5.790873351750632e-001	 1.956094602231232e+000	 6.485141037210416e+000
 5.587860472658401e-001	 1.961990430895594e+000	 6.398284976804026e+000
 5.384794582353008e-001	 1.967660606901807e+000	 6.312717334856078e+000
 5.181710731480868e-001	 1.973105989677343e+000	 6.228869914520509e+000
 4.978643595672547e-001	 1.978327505741889e+000	 6.146717405176509e+000
 4.775627461082964e-001	 1.983326147264985e+000	 6.065812622622010e+000
 4.572696210500157e-001	 1.988102970592032e+000	 5.985324709463856e+000
 4.369883310027936e-001	 1.992659094741075e+000	 5.904079882158467e+000
 4.167221796346742e-001	 1.996995699872648e+000	 5.820604308168671e+000
 3.964744264555998e-001	 2.001114025735070e+000	 5.733126138119236e+000
 6.072151563781103e-001	 1.975463288904845e+000	 6.639264204570029e+000
 5.866574382233225e-001	 1.981665594387706e+000	 6.556306496827864e+000
 5.660907622939357e-001	 1.987638496108145e+000	 6.473547423928315e+000
 5.455187159444398e-001	 1.993382795332379e+000	 6.391945139614085e+000
 5.249448500593383e-001	 1.998899362722713e+000	 6.311917266691389e+000
 5.043726775313114e-001	 2.004189136910732e+000	 6.232596531342059e+000
 4.838056717963333e-001	 2.009253123036070e+000	 6.152025845278708e+000
 4.632472654263901e-001	 2.014092391253171e+000	 6.069677770784067e+000
 4.427008487803362e-001	 2.018708075208402e+000	 5.984813395589947e+000
 4.221697687133261e-001	 2.023101370489906e+000	 5.896464930569090e+000
 4.016573273451569e-001	 2.027273533052570e+000	 5.803470156175470e+000
 3.498283184541984e-001	 1.765678459877450e+000	 4.617890011980560e+000
 3.319845031998168e-001	 1.769120300513189e+000	 4.530722079324734e+000
 3.141625416233768e-001	 1.772371941244702e+000	 4.453105729069066e+000
 2.963651817210660e-001	 1.775434626186778e+000	 4.384073397163835e+000
 2.785951288690982e-001	 1.778309646314946e+000	 4.322650180041318e+000
 2.608550450100406e-001	 1.780998338017287e+000	 4.267872202018044e+000
 2.431475478902924e-001	 1.783502081636491e+000	 4.218804620112518e+000
 2.254752103484421e-001	 1.785822300004091e+000	 4.174559120478800e+000
 2.078405596541684e-001	 1.787960456968690e+000	 4.134310769544879e+000
 1.902460768972767e-001	 1.789918055920011e+000	 4.097314092496971e+000
 1.726941964264004e-001	 1.791696638310540e+000	 4.062918261853701e+000
 3.550112193430273e-001	 1.791837967194950e+000	 4.726760992432760e+000
 3.369030380524930e-001	 1.795330800612062e+000	 4.644975657627628e+000
 3.188170342142217e-001	 1.798630616207664e+000	 4.573321162405412e+000
 3.007559965374989e-001	 1.801738676528800e+000	 4.510835063835325e+000
 2.827226704801982e-001	 1.804656291677526e+000	 4.456543609713963e+000
 2.647197574230525e-001	 1.807384817841254e+000	 4.409482252049129e+000
 2.467499138958362e-001	 1.809925655813227e+000	 4.368715775195991e+000
 2.288157508551784e-001	 1.812280249505019e+000	 4.333357877208609e+000
 2.109198330136696e-001	 1.814450084452968e+000	 4.302590052709932e+000
 1.930646782198468e-001	 1.816436686320355e+000	 4.275679636034445e+000
 1.752527568885781e-001	 1.818241619397146e+000	 4.251996874476001e+000
 3.601941202318722e-001	 1.817997474512457e+000	 4.846426182428139e+000
 3.418215729051807e-001	 1.821541300711023e+000	 4.767786628269029e+000
 3.234715268050729e-001	 1.824889291170791e+000	 4.699597974799621e+000
 3.051468113539315e-001	 1.828042726871060e+000	 4.640885284757593e+000
 2.868502120912881e-001	 1.831002937040409e+000	 4.590657573376119e+000
 2.685844698360403e-001	 1.833771297665583e+000	 4.547930681916442e+000
 2.503522799013362e-001	 1.836349229990371e+000	 4.511749742080594e+000
 2.321562913618440e-001	 1.838738199006388e+000	 4.481211052928922e+000
 2.139991063730654e-001	 1.840939711937705e+000	 4.455483202572607e+000
 1.958832795422672e-001	 1.842955316721160e+000	 4.433827278339434e+000
 1.778113173505510e-001	 1.844786600484193e+000	 4.415616021230012e+000
 3.653770211207495e-001	 1.844156981829972e+000	 4.973934484830648e+000
 3.467401077578918e-001	 1.847751800810049e+000	 4.896611769421105e+000
 3.281260193959395e-001	 1.851147966134042e+000	 4.829798970526749e+000
 3.095376261703710e-001	 1.854346777213499e+000	 4.772486800054990e+000
 2.909777537023749e-001	 1.857349582403519e+000	 4.723644367214479e+000
 2.724491822490127e-001	 1.860157777490180e+000	 4.682244643382123e+000
 2.539546459068044e-001	 1.862772804167814e+000	 4.647289492937155e+000
 2.354968318684573e-001	 1.865196148508078e+000	 4.617834073364445e+000
 2.170783797323821e-001	 1.867429339422770e+000	 4.593010419544202e+000
 1.987018808645751e-001	 1.869473947122285e+000	 4.572050039630823e+000
 1.803698778123702e-001	 1.871331581571538e+000	 4.554305363145167e+000
 3.705599220096754e-001	 1.870316489147490e+000	 5.106288165814325e+000
 3.516586426106382e-001	 1.873962300909120e+000	 5.028847676878193e+000
 3.327805119868297e-001	 1.877406641097374e+000	 4.961714770108033e+000
 3.139284409868242e-001	 1.880650827556055e+000	 4.903819625264445e+000
 2.951052953134654e-001	 1.883696227766776e+000	 4.854064393203149e+000
 2.763138946619778e-001	 1.886544257314950e+000	 4.811351501334577e+000
 2.575570119122533e-001	 1.889196378345448e+000	 4.774611498862413e+000
 2.388373723750364e-001	 1.891654098009965e+000	 4.742830225315993e+000
 2.201576530916466e-001	 1.893918966908033e+000	 4.715075098545394e+000
 2.015204821868082e-001	 1.895992577523594e+000	 4.690520331960530e+000
 1.829284382740870e-001	 1.897876562659040e+000	 4.668470905217085e+000
 3.757428228986661e-001	 1.896475996465010e+000	 5.240447797733067e+000
 3.565771774634313e-001	 1.900172801008212e+000	 5.161835858251926e+000
 3.374350045777528e-001	 1.903665316060748e+000	 5.093069102561163e+000
 3.183192558032977e-001	 1.906954877898667e+000	 5.032986581986132e+000
 2.992328369245663e-001	 1.910042873130104e+000	 4.980391962038460e+000
 2.801786070749446e-001	 1.912930737139797e+000	 4.934084936364771e+000
 2.611593779176952e-001	 1.915619952523161e+000	 4.892892152881292e+000
 2.421779128815995e-001	 1.918112047511930e+000	 4.855697414269994e+000
 2.232369264508850e-001	 1.920408594393359e+000	 4.821470928777154e+000
 2.043390835090038e-001	 1.922511207924947e+000	 4.789297402081085e+000
 1.854869987357526e-001	 1.924421543746556e+000	 4.758402776694116e+000
 3.809257237877377e-001	 1.922635503782530e+000	 5.373337126382567e+000
 3.614957123162834e-001	 1.926383301107304e+000	 5.292867691388504e+000
 3.420894971687168e-001	 1.929923991024120e+000	 5.221523902668322e+000
 3.227100706197988e-001	 1.933258928241276e+000	 5.158018575621447e+000
 3.033603785356847e-001	 1.936389518493423e+000	 5.101020786805400e+000
 2.840433194879213e-001	 1.939317216964628e+000	 5.049190683593440e+000
 2.647617439231420e-001	 1.942043526700847e+000	 5.001213776888497e+000
 2.455184533881646e-001	 1.944569997013849e+000	 4.955834456088322e+000
 2.263161998101241e-001	 1.946898221878620e+000	 4.911888480458231e+000
 2.071576848311996e-001	 1.949029838326206e+000	 4.868334217179434e+000
 1.880455591974183e-001	 1.950966524833943e+000	 4.824282413418579e+000
 3.861086246769064e-001	 1.948795011100049e+000	 5.501847869758055e+000
 3.664142471692060e-001	 1.952593801206374e+000	 5.419189259766416e+000
 3.467439897597306e-001	 1.956182665987449e+000	 5.344684231583204e+000
 3.271008854363345e-001	 1.959562978583822e+000	 5.276879643960750e+000
 3.074879201468268e-001	 1.962736163856656e+000	 5.214269196434877e+000
 2.879080319009163e-001	 1.965703696789349e+000	 5.155331941929013e+000
 2.683641099286062e-001	 1.968467100878397e+000	 5.098570251622227e+000
 2.488589938947501e-001	 1.971027946515604e+000	 5.042546946560336e+000
 2.293954731693904e-001	 1.973387849363683e+000	 4.985921326732708e+000
 2.099762861534330e-001	 1.975548468727234e+000	 4.927483845825006e+000
 1.906041196591351e-001	 1.977511505921061e+000	 4.866189198407655e+000
 3.912915255661882e-001	 1.974954518417563e+000	 5.622844454661048e+000
 3.713327820222113e-001	 1.978804301305400e+000	 5.538006076279892e+000
 3.513984823508031e-001	 1.982441340950695e+000	 5.460103037155818e+000
 3.314917002529113e-001	 1.985867028926242e+000	 5.387471797869717e+000
 3.116154617580002e-001	 1.989082809219724e+000	 5.318385094933633e+000
 2.917727443139384e-001	 1.992090176613864e+000	 5.251094484311953e+000
 2.719664759341000e-001	 1.994890675055699e+000	 5.183872304622858e+000
 2.521995344013741e-001	 1.997485896017071e+000	 5.115052747955426e+000
 2.324747465287104e-001	 1.999877476848419e+000	 5.043071743847891e+000
 2.127948874757412e-001	 2.002067099127891e+000	 4.966652167025123e+000
 1.931626801209544e-001	 2.004056487007766e+000	 4.884876722281330e+000
 3.964744264555998e-001	 2.001114025735070e+000	 5.733126138119238e+000
 3.762513168753105e-001	 2.005014801404359e+000	 5.645724408771916e+000
 3.560529749419426e-001	 2.008700015913814e+000	 5.563344289371377e+000
 3.358825150695364e-001	 2.012171079268478e+000	 5.484656268865058e+000
 3.157430033692109e-001	 2.015429454582549e+000	 5.408271733081906e+000
 2.956374567269959e-001	 2.018476656438079e+000	 5.332770914452312e+000
 2.755688419396354e-001	 2.021314249232647e+000	 5.256729836297890e+000
 2.555400749080548e-001	 2.023943845518130e+000	 5.178746428707645e+000
 2.355540198881107e-001	 2.026367104332694e+000	 5.097465984940270e+000
 2.156134887981621e-001	 2.028585729528039e+000	 5.011606117596823e+000
 1.957212405829274e-001	 2.030601468093916e+000	 4.919981362705100e+000
 4.016573273451569e-001	 2.027273533052570e+000	 5.803470156175468e+000
 3.811698517285161e-001	 2.031225301503231e+000	 5.711157466267349e+000
 3.607074675331579e-001	 2.034958690876766e+000	 5.624890121179946e+000
 3.402733298862168e-001	 2.038475129610468e+000	 5.543394624493699e+000
 3.198705449804661e-001	 2.041776099945051e+000	 5.465311923262494e+000
 2.995021691400975e-001	 2.044863136261900e+000	 5.389223593609675e+000
 2.791712079452250e-001	 2.047737823409130e+000	 5.313677053708442e+000
 2.588806154148102e-001	 2.050401795018658e+000	 5.237210007471147e+000
 2.386332932476176e-001	 2.052856731816378e+000	 5.158374312797792e+000
 2.184320901207331e-001	 2.055104359927541e+000	 5.075759456995918e+000
 1.982798010451051e-001	 2.057146449179369e+000	 4.988015809204093e+000
 1.726941964264004e-001	 1.791696638310540e+000	 4.062918261853701e+000
 1.551846886247798e-001	 1.793298009200867e+000	 4.036916477226926e+000
 1.377225603152077e-001	 1.794723502569440e+000	 4.023653128235987e+000
 1.203101389484923e-001	 1.795974766340584e+000	 4.020501978943110e+000
 1.029497023582027e-001	 1.797053480637195e+000	 4.025024990004112e+000
 8.564347844425359e-002	 1.797961356299908e+000	 4.034984364265737e+000
 6.839364490323641e-002	 1.798700133414115e+000	 4.048353068632078e+000
 5.120232900460153e-002	 1.799271579846228e+000	 4.063323793329660e+000
 3.407160741175602e-002	 1.799677489790610e+000	 4.078316321218233e+000
 1.700350604710123e-002	 1.799919682328466e+000	 4.091983291042896e+000
 0.000000000000000e+000	 1.800000000000000e+000	 4.103214344720352e+000
 1.752527568885781e-001	 1.818241619397146e+000	 4.251996874475998e+000
 1.574838360012102e-001	 1.819866715486908e+000	 4.237503368430937e+000
 1.397629965593997e-001	 1.821313328331721e+000	 4.236581174005329e+000
 1.220926004964329e-001	 1.822583130270824e+000	 4.246454847045460e+000
 1.044749593932502e-001	 1.823677826319064e+000	 4.264556611795961e+000
 8.691233415734273e-002	 1.824599152664132e+000	 4.288540011969312e+000
 6.940693474908796e-002	 1.825348875171750e+000	 4.316291885353506e+000
 5.196091995461644e-002	 1.825928787900252e+000	 4.345942617772998e+000
 3.457639720425861e-002	 1.826340711625985e+000	 4.375874644885063e+000
 1.725542243558303e-002	 1.826586492380854e+000	 4.404729182666081e+000
 0.000000000000000e+000	 1.826668000003317e+000	 4.431411174756612e+000
 1.778113173505510e-001	 1.844786600484193e+000	 4.415616021230012e+000
 1.597829833773705e-001	 1.846435421773350e+000	 4.406985662244871e+000
 1.418034328032532e-001	 1.847903154094349e+000	 4.412415318881449e+000
 1.238750620439721e-001	 1.849191494201343e+000	 4.429039225992216e+000
 1.060002164278471e-001	 1.850302172001139e+000	 4.454218433190587e+000
 8.818118986995402e-002	 1.851236949028488e+000	 4.485556143627877e+000
 7.042022459446486e-002	 1.851997616929445e+000	 4.520911217206704e+000
 5.271951090419822e-002	 1.852585995954273e+000	 4.558409788186040e+000
 3.508118699641585e-002	 1.853003933461306e+000	 4.596454961023087e+000
 1.750733882386133e-002	 1.853253302433154e+000	 4.633734561875179e+000
 0.000000000000000e+000	 1.853336000006534e+000	 4.669226931710003e+000
 1.803698778123702e-001	 1.871331581571538e+000	 4.554305363145161e+000
 1.620821307533284e-001	 1.873004128060052e+000	 4.546083148662932e+000
 1.438438690468529e-001	 1.874492979857181e+000	 4.552006514434154e+000
 1.256575235912101e-001	 1.875799858132006e+000	 4.569171110627081e+000
 1.075254734621059e-001	 1.876926517683291e+000	 4.594918383714092e+000
 8.945004558220693e-002	 1.877874745392852e+000	 4.626852699796864e+000
 7.143351443948577e-002	 1.878646358687085e+000	 4.662856466056232e+000
 5.347810185345516e-002	 1.879243204008180e+000	 4.701103193841050e+000
 3.558597678831408e-002	 1.879667155296468e+000	 4.740068462108240e+000
 1.775925521198696e-002	 1.879920112485265e+000	 4.778538754790467e+000
 0.000000000000000e+000	 1.880004000009551e+000	 4.815618155500521e+000
 1.829284382740870e-001	 1.897876562659040e+000	 4.668470905217085e+000
 1.643812781291512e-001	 1.899572834346869e+000	 4.655389905107928e+000
 1.458843052902834e-001	 1.901082805620080e+000	 4.656079290914276e+000
 1.274399851382474e-001	 1.902408222062676e+000	 4.667640780360626e+000
 1.090507304961393e-001	 1.903550863365390e+000	 4.687440862699898e+000
 9.071890129422096e-002	 1.904512541757102e+000	 4.713129818489432e+000
 7.244680428426935e-002	 1.905295100444550e+000	 4.742658563112633e+000
 5.423669280249552e-002	 1.905900412061864e+000	 4.774293250505933e+000
 3.609076658003966e-002	 1.906330377131367e+000	 4.806627590142035e+000
 1.801117160001086e-002	 1.906586922537085e+000	 4.838592846559081e+000
 0.000000000000000e+000	 1.906672000012267e+000	 4.869465501974165e+000
 1.854869987357526e-001	 1.924421543746556e+000	 4.758402776694116e+000
 1.666804255049065e-001	 1.926141540633660e+000	 4.735382377989412e+000
 1.479247415336293e-001	 1.927672631382903e+000	 4.725240065156782e+000
 1.292224466851843e-001	 1.929016585993217e+000	 4.725121239764994e+000
 1.105759875300601e-001	 1.930175209047304e+000	 4.732455200456100e+000
 9.198775700611550e-002	 1.931150338121112e+000	 4.744976186612298e+000
 7.346009412893430e-002	 1.931943842201728e+000	 4.760742062448352e+000
 5.499528375142760e-002	 1.932557620115214e+000	 4.778150570281253e+000
 3.659555637167889e-002	 1.932993598965897e+000	 4.795953099812119e+000
 1.826308798798386e-002	 1.933253732588514e+000	 4.813265937956237e+000
 0.000000000000000e+000	 1.933340000014584e+000	 4.829578976531654e+000
 1.880455591974183e-001	 1.950966524833943e+000	 4.824282413418581e+000
 1.689795728806618e-001	 1.952710246920282e+000	 4.786426831011019e+000
 1.499651777769752e-001	 1.954262457145510e+000	 4.759984788327100e+000
 1.310049082321213e-001	 1.955624949923494e+000	 4.742175981759174e+000
 1.121012445639809e-001	 1.956799554728904e+000	 4.730523435656395e+000
 9.325661271801010e-002	 1.957788134484761e+000	 4.722876713354959e+000
 7.447338397359922e-002	 1.958592583958498e+000	 4.717432575477641e+000
 5.575387470035970e-002	 1.959214828168119e+000	 4.712753005858602e+000
 3.710034616331815e-002	 1.959656820799953e+000	 4.707780545120210e+000
 1.851500437595689e-002	 1.959920542639449e+000	 4.701850891196109e+000
 0.000000000000000e+000	 1.960008000016401e+000	 4.694702740502141e+000
 1.906041196591351e-001	 1.977511505921061e+000	 4.866189198407655e+000
 1.712787202564847e-001	 1.979278953206592e+000	 4.808786219729289e+000
 1.520056140204057e-001	 1.980852282907762e+000	 4.760705995541444e+000
 1.327873697791586e-001	 1.982233313853370e+000	 4.719266137036801e+000
 1.136265015980144e-001	 1.983423900410059e+000	 4.682107473205423e+000
 9.452546843002420e-002	 1.984425930847923e+000	 4.647219589243676e+000
 7.548667381838288e-002	 1.985241325714745e+000	 4.612963608328156e+000
 5.651246564940013e-002	 1.985872036220470e+000	 4.578092127984406e+000
 3.760513595504375e-002	 1.986320042633429e+000	 4.541766243648554e+000
 1.876692076398080e-002	 1.986587352689790e+000	 4.503569612949466e+000
 0.000000000000000e+000	 1.986676000017618e+000	 4.463519530408921e+000
 1.931626801209544e-001	 2.004056487007766e+000	 4.884876722281334e+000
 1.735778676324425e-001	 2.005847659492447e+000	 4.804691317491586e+000
 1.540460502640055e-001	 2.007442108669516e+000	 4.731860438440203e+000
 1.345698313263967e-001	 2.008841677782708e+000	 4.663877446927792e+000
 1.151517586322734e-001	 2.010048246090639e+000	 4.598507354362577e+000
 9.579432414227719e-002	 2.011063727210475e+000	 4.533814663836392e+000
 7.649996366340392e-002	 2.011890067470353e+000	 4.468191081802940e+000
 5.727105659865717e-002	 2.012529244272157e+000	 4.400383139369369e+000
 3.810992574694207e-002	 2.012983264466222e+000	 4.329519750023580e+000
 1.901883715210650e-002	 2.013254162739435e+000	 4.255139717618151e+000
 0.000000000000000e+000	 2.013344000018134e+000	 4.177219190485602e+000
 1.957212405829274e-001	 2.030601468093916e+000	 4.919981362705104e+000
 1.758770150086030e-001	 2.032416365777704e+000	 4.829492672029261e+000
 1.560864865078591e-001	 2.034031934430634e+000	 4.746040687988260e+000
 1.363522928739360e-001	 2.035450041711373e+000	 4.667139994639855e+000
 1.166770156668703e-001	 2.036672591770513e+000	 4.590534862985875e+000
 9.706317985488869e-002	 2.037701523572295e+000	 4.514226601360209e+000
 7.751325350878094e-002	 2.038538809225204e+000	 4.436500990280728e+000
 5.802964754823907e-002	 2.039186452323067e+000	 4.355955848730039e+000
 3.861471553909942e-002	 2.039646486298226e+000	 4.271528763721530e+000
 1.927075354038485e-002	 2.039920972788282e+000	 4.182525000112999e+000
 0.000000000000000e+000	 2.040012000017851e+000	 4.088645585693706e+000
 1.982798010451051e-001	 2.057146449179369e+000	 4.988015809204091e+000
 1.781761623850336e-001	 2.058985072062221e+000	 4.902007425636224e+000
 1.581269227520513e-001	 2.060621760190974e+000	 4.823807501319280e+000
 1.381347544218768e-001	 2.062058405639228e+000	 4.751019926716371e+000
 1.182022727019181e-001	 2.063296937449552e+000	 4.681431130139417e+000
 9.833203556797798e-002	 2.064339319933257e+000	 4.613036669462339e+000
 7.852654335463272e-002	 2.065187550979181e+000	 4.544068147900315e+000
 5.878823849825416e-002	 2.065843660373092e+000	 4.473020508618776e+000
 3.911950533160215e-002	 2.066309708129336e+000	 4.398679745737396e+000
 1.952266992886674e-002	 2.066587782836232e+000	 4.320151052346342e+000
 0.000000000000000e+000	 2.066680000016667e+000	 4.236887400154557e+000
 2.066680000016667e+000	 0.000000000000000e+000	 1.239931016761585e+001
 2.066587782836232e+000	 1.952266992886615e-002	 1.236595075603563e+001
 2.066309708129337e+000	 3.911950533160163e-002	 1.234875998869683e+001
 2.065843660373092e+000	 5.878823849825369e-002	 1.234433189389831e+001
 2.065187550979180e+000	 7.852654335463229e-002	 1.234920823507575e+001
 2.064339319933259e+000	 9.833203556797764e-002	 1.235989109537346e+001
 2.063296937449552e+000	 1.182022727019178e-001	 1.237285540567814e+001
 2.062058405639229e+000	 1.381347544218766e-001	 1.238456140093465e+001
 2.060621760190973e+000	 1.581269227520511e-001	 1.239146700669703e+001
 2.058985072062221e+000	 1.781761623850334e-001	 1.239004016199927e+001
 2.057146449179369e+000	 1.982798010451050e-001	 1.237677108879150e+001
 2.093344000014533e+000	 0.000000000000000e+000	 1.229014298519967e+001
 2.093250593061714e+000	 1.977454853201645e-002	 1.225989819549822e+001
 2.092968930676188e+000	 3.962421940982406e-002	 1.224625331879205e+001
 2.092496870040883e+000	 5.954671566582059e-002	 1.224562494677499e+001
 2.091832295620812e+000	 7.953968121516000e-002	 1.225439894819679e+001
 2.090973120823608e+000	 9.960070096278299e-002	 1.226894337257099e+001
 2.089917289675494e+000	 1.197273009603743e-001	 1.228562121986817e+001
 2.088662778511150e+000	 1.399169486144204e-001	 1.230080306149348e+001
 2.087207597675990e+000	 1.601670529465026e-001	 1.231087951572998e+001
 2.085549793239211e+000	 1.804749649069133e-001	 1.231227358554662e+001
 2.083687448715941e+000	 2.008379777426381e-001	 1.230145287140577e+001
 2.120008000011600e+000	 0.000000000000000e+000	 1.219715988573771e+001
 2.119913403286397e+000	 2.002642713537022e-002	 1.216686493773321e+001
 2.119628153222234e+000	 4.012893348839165e-002	 1.215380677024751e+001
 2.119150079707867e+000	 6.030519283382015e-002	 1.215423173757579e+001
 2.118477040261631e+000	 8.055281907616123e-002	 1.216437723068697e+001
 2.117606921713149e+000	 1.008693663580642e-001	 1.218048482051830e+001
 2.116537641900631e+000	 1.212523292192781e-001	 1.219881318393728e+001
 2.115267151382275e+000	 1.416991428073603e-001	 1.221565079847533e+001
 2.113793435160225e+000	 1.622071831412843e-001	 1.222732841058762e+001
 2.112114514415441e+000	 1.827737674290515e-001	 1.223023128753216e+001
 2.110228448251783e+000	 2.033961544403597e-001	 1.222081126832878e+001
 2.146672000008066e+000	 0.000000000000000e+000	 1.211632492154007e+001
 2.146576213510476e+000	 2.027830573887656e-002	 1.208377144542722e+001
 2.146287375767672e+000	 4.063364756721792e-002	 1.206922231665508e+001
 2.145803289374231e+000	 6.106367000214361e-002	 1.206876183732569e+001
 2.145121784901822e+000	 8.156595693751639e-002	 1.207848742145419e+001
 2.144240722602053e+000	 1.021380317536997e-001	 1.209452289401783e+001
 2.143157994125120e+000	 1.227773574785130e-001	 1.211303148311723e+001
 2.141871524252748e+000	 1.434813370005902e-001	 1.213022849251813e+001
 2.140379272643811e+000	 1.642473133363034e-001	 1.214239366125485e+001
 2.138679235591034e+000	 1.850725699513688e-001	 1.214588322298424e+001
 2.136769447787005e+000	 2.059543311382028e-001	 1.213714168383295e+001
 2.173336000004133e+000	 0.000000000000000e+000	 1.204407737027024e+001
 2.173239023734152e+000	 2.053018434248459e-002	 1.200795554833183e+001
 2.172946598312694e+000	 4.113836164621647e-002	 1.199066333258986e+001
 2.172456499040166e+000	 6.182214717068232e-002	 1.198813222100474e+001
 2.171766529541564e+000	 8.257909479910575e-002	 1.199632931225945e+001
 2.170874523490486e+000	 1.034066971495681e-001	 1.201127067214617e+001
 2.169778346349123e+000	 1.243023857379629e-001	 1.202903429689081e+001
 2.168475897122718e+000	 1.452635311940044e-001	 1.204577266220589e+001
 2.166965110126884e+000	 1.662874435314671e-001	 1.205772486704741e+001
 2.165243956766108e+000	 1.873713724737860e-001	 1.206122838779362e+001
 2.163310447321717e+000	 2.085125078360998e-001	 1.205273046534087e+001
 2.200000000000000e+000	 0.000000000000000e+000	 1.197730293628820e+001
 2.199901833957622e+000	 2.078206294614344e-002	 1.193714643616753e+001
 2.199605820857499e+000	 4.164307572530086e-002	 1.191663124972958e+001
 2.199109708705858e+000	 6.258062433932761e-002	 1.191154645981380e+001
 2.198411274181037e+000	 8.359223266080977e-002	 1.191773975040845e+001
 2.197508324378621e+000	 1.046753625455480e-001	 1.193113074710243e+001
 2.196398698572797e+000	 1.258274139975116e-001	 1.194772385126446e+001
 2.195080269992334e+000	 1.470457253874971e-001	 1.196362055864667e+001
 2.193550947609579e+000	 1.683275737266827e-001	 1.197503127407428e+001
 2.191808677940790e+000	 1.896701749962238e-001	 1.197828664141058e+001
 2.189851446856028e+000	 2.110706845339837e-001	 1.196984841555392e+001
 2.226663999995867e+000	 0.000000000000000e+000	 1.191330702115335e+001
 2.226564644181085e+000	 2.103394154980220e-002	 1.186944052051791e+001
 2.226265043402275e+000	 4.214778980438459e-002	 1.184594389190157e+001
 2.225762918371497e+000	 6.333910150797079e-002	 1.183847541241103e+001
 2.225056018820421e+000	 8.460537052250870e-002	 1.184277557059861e+001
 2.224142125266628e+000	 1.059440279415181e-001	 1.185468028253989e+001
 2.223019050796304e+000	 1.273524422570433e-001	 1.187013349099077e+001
 2.221684642861741e+000	 1.488279195809625e-001	 1.188519914060633e+001
 2.220136785092030e+000	 1.703677039218573e-001	 1.189607254398334e+001
 2.218373399115199e+000	 1.919689775186033e-001	 1.189909116165864e+001
 2.216392446390048e+000	 2.136288612317870e-001	 1.189074482760123e+001
 2.253327999991934e+000	 0.000000000000000e+000	 1.184978989189468e+001
 2.253227454404741e+000	 2.128582015341000e-002	 1.180327901090226e+001
 2.252924265947221e+000	 4.265250388338127e-002	 1.177771534997400e+001
 2.252416128037270e+000	 6.409757867650313e-002	 1.176863929095675e+001
 2.251700763459898e+000	 8.561850838408298e-002	 1.177169774582537e+001
 2.250775926154679e+000	 1.072126933373569e-001	 1.178265714450782e+001
 2.249639403019801e+000	 1.288774705164418e-001	 1.179741568725702e+001
 2.248289015731089e+000	 1.506101137742947e-001	 1.181201485725865e+001
 2.246722622574373e+000	 1.724078341168982e-001	 1.182265021176249e+001
 2.244938120289457e+000	 1.942677800408448e-001	 1.182568147930234e+001
 2.242933445923886e+000	 2.161870379294425e-001	 1.181764199988617e+001
 2.279991999988401e+000	 0.000000000000000e+000	 1.178482359168926e+001
 2.279890264628787e+000	 2.153769875691595e-002	 1.173742706469715e+001
 2.279583488492532e+000	 4.315721796220443e-002	 1.171133727054846e+001
 2.279069337703367e+000	 6.485605584481598e-002	 1.170199098941822e+001
 2.278345508099645e+000	 8.663164624541292e-002	 1.170495665755045e+001
 2.277409727042942e+000	 1.084813587329429e-001	 1.171594701719718e+001
 2.276259755243448e+000	 1.304024987755909e-001	 1.173083090425926e+001
 2.274893388600523e+000	 1.523923079673880e-001	 1.174564417244001e+001
 2.273308460056743e+000	 1.744479643117125e-001	 1.175659977618302e+001
 2.271502841463688e+000	 1.965665825628696e-001	 1.176009704490996e+001
 2.269474445457651e+000	 2.187452146268828e-001	 1.175273019136003e+001
 2.306655999985467e+000	 0.000000000000000e+000	 1.171683045195955e+001
 2.306553074853420e+000	 2.178957736026917e-002	 1.167095438355588e+001
 2.306242711038399e+000	 4.366193204076763e-002	 1.164646144404244e+001
 2.305722547369975e+000	 6.561453301280071e-002	 1.163870057199947e+001
 2.304990252739845e+000	 8.764478410637885e-002	 1.164317839456439e+001
 2.304043527931590e+000	 1.097500241281549e-001	 1.165557142380143e+001
 2.302880107467407e+000	 1.319275270343746e-001	 1.167173725516253e+001
 2.301497761470193e+000	 1.541745021601365e-001	 1.168772477040429e+001
 2.299894297539273e+000	 1.764880945062075e-001	 1.169978337169790e+001
 2.298067562638014e+000	 1.988653850845982e-001	 1.170437128493745e+001
 2.296015444991455e+000	 2.213033913240405e-001	 1.169816298158303e+001
 2.333319999983334e+000	 0.000000000000000e+000	 1.164456307778720e+001
 2.333215885078843e+000	 2.204145596341877e-002	 1.160321714061750e+001
 2.332901933585021e+000	 4.416664611898442e-002	 1.158298358822554e+001
 2.332375757037283e+000	 6.637301018034854e-002	 1.157914082889134e+001
 2.331634997380677e+000	 8.865792196686113e-002	 1.158715199825629e+001
 2.330677328820791e+000	 1.110186895228712e-001	 1.160267658009144e+001
 2.329500459691833e+000	 1.334525552926768e-001	 1.162158088430322e+001
 2.328102134340243e+000	 1.559566963524343e-001	 1.163994738856703e+001
 2.326480135022100e+000	 1.785282247002905e-001	 1.165408297527893e+001
 2.324632283812555e+000	 2.011641876059514e-001	 1.166052610790002e+001
 2.322556444525402e+000	 2.238615680208485e-001	 1.165605300319436e+001
 2.057146449179369e+000	 1.982798010451050e-001	 1.237677108879150e+001
 2.055104359927541e+000	 2.184320901207318e-001	 1.236342178295044e+001
 2.052856731816378e+000	 2.386332932476165e-001	 1.236211232575754e+001
 2.050401795018658e+000	 2.588806154148093e-001	 1.236995562751405e+001
 2.047737823409130e+000	 2.791712079452241e-001	 1.238414362376618e+001
 2.044863136261900e+000	 2.995021691400969e-001	 1.240195882072102e+001
 2.041776099945052e+000	 3.198705449804656e-001	 1.242078588426971e+001
 2.038475129610468e+000	 3.402733298862165e-001	 1.243812330858120e+001
 2.034958690876767e+000	 3.607074675331577e-001	 1.245159520286930e+001
 2.031225301503231e+000	 3.811698517285160e-001	 1.245896323712315e+001
 2.027273533052570e+000	 4.016573273451569e-001	 1.245813878929057e+001
 2.083687448715941e+000	 2.008379777426381e-001	 1.230145287140578e+001
 2.081619012730616e+000	 2.212502686744141e-001	 1.229036196658660e+001
 2.079342386053915e+000	 2.417121047393328e-001	 1.229124764307897e+001
 2.076855776024567e+000	 2.622206548656228e-001	 1.230114409482505e+001
 2.074157434247109e+000	 2.827730336229843e-001	 1.231718047168757e+001
 2.071245658311171e+000	 3.033663018753617e-001	 1.233659211317941e+001
 2.068118793507961e+000	 3.239974674914739e-001	 1.235673179035349e+001
 2.064775234541886e+000	 3.446634861136527e-001	 1.237508099816898e+001
 2.061213427235205e+000	 3.653612619854610e-001	 1.238926134370333e+001
 2.057431870223551e+000	 3.860876488384815e-001	 1.239704607814754e+001
 2.053429116640150e+000	 4.068394508385930e-001	 1.239637182254595e+001
 2.110228448251783e+000	 2.033961544403597e-001	 1.222081126832879e+001
 2.108133665533004e+000	 2.240684472282250e-001	 1.221113804229433e+001
 2.105828040290816e+000	 2.447909162311280e-001	 1.221352871130226e+001
 2.103309757029900e+000	 2.655606943164766e-001	 1.222494706167087e+001
 2.100577045084578e+000	 2.863748593007570e-001	 1.224246720432839e+001
 2.097628180360005e+000	 3.072304346106214e-001	 1.226328438091049e+001
 2.094461487070513e+000	 3.281243900024697e-001	 1.228472574154474e+001
 2.091075339473031e+000	 3.490536423410803e-001	 1.230426114370225e+001
 2.087468163593456e+000	 3.700150564377694e-001	 1.231951402500041e+001
 2.083638438943773e+000	 3.910054459484762e-001	 1.232827240581324e+001
 2.079584700227718e+000	 4.120215743320920e-001	 1.232850007992141e+001
 2.136769447787005e+000	 2.059543311382028e-001	 1.213714168383295e+001
 2.134648318334801e+000	 2.268866257821053e-001	 1.212831193683492e+001
 2.132313694527165e+000	 2.478697277229482e-001	 1.213173073626985e+001
 2.129763738034728e+000	 2.689007337673182e-001	 1.214430139255696e+001
 2.126996655921599e+000	 2.899766849784879e-001	 1.216305238031631e+001
 2.124010702408456e+000	 3.110945673458185e-001	 1.218514759368991e+001
 2.120804180632748e+000	 3.322513125133903e-001	 1.220789653572891e+001
 2.117375444403932e+000	 3.534437985684283e-001	 1.222876449904023e+001
 2.113722899951540e+000	 3.746688508900030e-001	 1.224538279887741e+001
 2.109845007663906e+000	 3.959232430584104e-001	 1.225555912326501e+001
 2.105740283815280e+000	 4.172036978255547e-001	 1.225728806750011e+001
 2.163310447321717e+000	 2.085125078360998e-001	 1.205273046534086e+001
 2.161162971136105e+000	 2.297048043359963e-001	 1.204440078968743e+001
 2.158799348763049e+000	 2.509485392147393e-001	 1.204855063957364e+001
 2.156217719039128e+000	 2.722407732180951e-001	 1.206203447236984e+001
 2.153416266758237e+000	 2.935785106561238e-001	 1.208184625014586e+001
 2.150393224456572e+000	 3.149587000808950e-001	 1.210512901352704e+001
 2.147146874194708e+000	 3.363782350241718e-001	 1.212918435072247e+001
 2.143675549334621e+000	 3.578339547956262e-001	 1.215148182752852e+001
 2.139977636309479e+000	 3.793226453420827e-001	 1.216966844861306e+001
 2.136051576383963e+000	 4.008410401681958e-001	 1.218157822426317e+001
 2.131895867402834e+000	 4.223858213188826e-001	 1.218524191993587e+001
 2.189851446856028e+000	 2.110706845339837e-001	 1.196984841555393e+001
 2.187677623937013e+000	 2.325229828898390e-001	 1.196187205242622e+001
 2.185285002998553e+000	 2.540273507064469e-001	 1.196660365697729e+001
 2.182671700043172e+000	 2.755808126687546e-001	 1.198086221735880e+001
 2.179835877594552e+000	 2.971803363336101e-001	 1.200162009498944e+001
 2.176775746504410e+000	 3.188228328157938e-001	 1.202601177835509e+001
 2.173489567756436e+000	 3.405051575347510e-001	 1.205134249170114e+001
 2.169975654265129e+000	 3.622241110226026e-001	 1.207509673384974e+001
 2.166232372667292e+000	 3.839764397939289e-001	 1.209494682744609e+001
 2.162258145103953e+000	 4.057588372777427e-001	 1.210876156330552e+001
 2.158051450990382e+000	 4.275679448119764e-001	 1.211461502813047e+001
 2.216392446390048e+000	 2.136288612317870e-001	 1.189074482760122e+001
 2.214192276737621e+000	 2.353411614435744e-001	 1.188313901121997e+001
 2.211770657233760e+000	 2.571061621980169e-001	 1.188842026835272e+001
 2.209125681046935e+000	 2.789208521192439e-001	 1.190338733429009e+001
 2.206255488430609e+000	 3.007821620108933e-001	 1.192500573856501e+001
 2.203158268552019e+000	 3.226869655504570e-001	 1.195041559185433e+001
 2.199832261317972e+000	 3.446320800450647e-001	 1.197693918597559e+001
 2.196275759195487e+000	 3.666142672492871e-001	 1.200208849252291e+001
 2.192487109025003e+000	 3.886302342454621e-001	 1.202357265134971e+001
 2.188464713823888e+000	 4.106766343869625e-001	 1.203930554501160e+001
 2.184207034577925e+000	 4.327500683047373e-001	 1.204741355934436e+001
 2.242933445923886e+000	 2.161870379294425e-001	 1.181764199988616e+001
 2.240706929538030e+000	 2.381593399971436e-001	 1.181055669740385e+001
 2.238256311468759e+000	 2.601849736893953e-001	 1.181644343167122e+001
 2.235579662050491e+000	 2.822608915695107e-001	 1.183209780721409e+001
 2.232675099266471e+000	 3.043839876879195e-001	 1.185449521772708e+001
 2.229540790599451e+000	 3.265510982848271e-001	 1.188079751061361e+001
 2.226174954879359e+000	 3.487590025550493e-001	 1.190835942119048e+001
 2.222575864125728e+000	 3.710044234756087e-001	 1.193473487332767e+001
 2.218741845382630e+000	 3.932840286966025e-001	 1.195768324959311e+001
 2.214671282543780e+000	 4.155944314957661e-001	 1.197517573945502e+001
 2.210362618165462e+000	 4.379321917970660e-001	 1.198540187864731e+001
 2.269474445457651e+000	 2.187452146268828e-001	 1.175273019136002e+001
 2.267221582338333e+000	 2.409775185504876e-001	 1.174641815435577e+001
 2.264741965703633e+000	 2.632637851805277e-001	 1.175302609615673e+001
 2.262033643053913e+000	 2.856009310195024e-001	 1.176936559321334e+001
 2.259094710102200e+000	 3.079858133646347e-001	 1.179244059878319e+001
 2.255923312646759e+000	 3.304152310188464e-001	 1.181945282066172e+001
 2.252517648440637e+000	 3.528859250646414e-001	 1.184780682339038e+001
 2.248875969055882e+000	 3.753945797014967e-001	 1.187511496390178e+001
 2.244996581740196e+000	 3.979378231472711e-001	 1.189920227654190e+001
 2.240877851263638e+000	 4.205122286040643e-001	 1.191811142950257e+001
 2.236518201752999e+000	 4.431143152888641e-001	 1.193010787978227e+001
 2.296015444991455e+000	 2.213033913240405e-001	 1.169816298158304e+001
 2.293736235138630e+000	 2.437956971035477e-001	 1.169295103184258e+001
 2.291227619938468e+000	 2.663425966713601e-001	 1.170042897201028e+001
 2.288487624057277e+000	 2.889409704691662e-001	 1.171744551021767e+001
 2.285514320937858e+000	 3.115876390409852e-001	 1.174105392774431e+001
 2.282305834693997e+000	 3.342793637524572e-001	 1.176851599613399e+001
 2.278860342001849e+000	 3.570128475737778e-001	 1.179730557172335e+001
 2.275176073985980e+000	 3.797847359268806e-001	 1.182511198973903e+001
 2.271251318097723e+000	 4.025916175973884e-001	 1.184984338783209e+001
 2.267084419983474e+000	 4.254300257117684e-001	 1.186963009565923e+001
 2.262673785340533e+000	 4.482964387800322e-001	 1.188282823277017e+001
 2.322556444525402e+000	 2.238615680208485e-001	 1.165605300319437e+001
 2.320250887939015e+000	 2.466138756562646e-001	 1.165231448164306e+001
 2.317713274173350e+000	 2.694214081618383e-001	 1.166081853618274e+001
 2.314941605060655e+000	 2.922810099184496e-001	 1.167847430152282e+001
 2.311933931773510e+000	 3.151894647169171e-001	 1.170240730379281e+001
 2.308688356741215e+000	 3.381434964856024e-001	 1.172996173350273e+001
 2.305203035563035e+000	 3.611397700823951e-001	 1.175870234685134e+001
 2.301476178916054e+000	 3.841748921516889e-001	 1.178641613179270e+001
 2.297506054455230e+000	 4.072454120468744e-001	 1.181111388376504e+001
 2.293290988703300e+000	 4.303478228187894e-001	 1.183103184341570e+001
 2.288829368928065e+000	 4.534785622704717e-001	 1.184463355491159e+001
 2.027273533052570e+000	 4.016573273451569e-001	 1.245813878929057e+001
 2.023101370489906e+000	 4.221697687133256e-001	 1.245713087862288e+001
 2.018708075208402e+000	 4.427008487803357e-001	 1.246404526878358e+001
 2.014092391253171e+000	 4.632472654263896e-001	 1.247718859502209e+001
 2.009253123036070e+000	 4.838056717963330e-001	 1.249505548056591e+001
 2.004189136910732e+000	 5.043726775313111e-001	 1.251634228384694e+001
 1.998899362722714e+000	 5.249448500593382e-001	 1.253994941247894e+001
 1.993382795332379e+000	 5.455187159444399e-001	 1.256462425342195e+001
 1.987638496108145e+000	 5.660907622939359e-001	 1.258951794947834e+001
 1.981665594387705e+000	 5.866574382233225e-001	 1.261423905890935e+001
 1.975463288904845e+000	 6.072151563781102e-001	 1.263869514817963e+001
 2.053429116640150e+000	 4.068394508385930e-001	 1.239637182254595e+001
 2.049203125452439e+000	 4.276165406946643e-001	 1.239519174960522e+001
 2.044753148524194e+000	 4.484125097233064e-001	 1.240155649291308e+001
 2.040077913696388e+000	 4.692240132012560e-001	 1.241381497549044e+001
 2.035176209955582e+000	 4.900476610927236e-001	 1.243051171398557e+001
 2.030046889029278e+000	 5.108800192969425e-001	 1.245040016611573e+001
 2.024688866956064e+000	 5.317176109553854e-001	 1.247245659783085e+001
 2.019101125628145e+000	 5.525569178183161e-001	 1.249589451553783e+001
 2.013282714303859e+000	 5.733943816702277e-001	 1.252017970469576e+001
 2.007232751087750e+000	 5.942264058136262e-001	 1.254504591118208e+001
 2.000950424375790e+000	 6.150493566104989e-001	 1.257051119603426e+001
 2.079584700227718e+000	 4.120215743320920e-001	 1.232850007992142e+001
 2.075304880415053e+000	 4.330633126761095e-001	 1.232803272088548e+001
 2.070798221840154e+000	 4.541241706664352e-001	 1.233479591151464e+001
 2.066063436139859e+000	 4.752007609763389e-001	 1.234716885848374e+001
 2.061099296875428e+000	 4.962896503893942e-001	 1.236373270623512e+001
 2.055904641148230e+000	 5.173873610629188e-001	 1.238328341846756e+001
 2.050478371189882e+000	 5.384903718518439e-001	 1.240484523341916e+001
 2.044819455924433e+000	 5.595951196926687e-001	 1.242768474736598e+001
 2.038926932500136e+000	 5.806980010470587e-001	 1.245132567648725e+001
 2.032799907788383e+000	 6.017953734045255e-001	 1.247556434200486e+001
 2.026437559847335e+000	 6.228835568435335e-001	 1.250048591728626e+001
 2.105740283815280e+000	 4.172036978255547e-001	 1.225728806750012e+001
 2.101406635377738e+000	 4.385100846575524e-001	 1.225823604160623e+001
 2.096843295156265e+000	 4.598358316096043e-001	 1.226614384131797e+001
 2.092048958583554e+000	 4.811775087515102e-001	 1.227941097279572e+001
 2.087022383795569e+000	 5.025316396862063e-001	 1.229664391234433e+001
 2.081762393267542e+000	 5.238947028290935e-001	 1.231666844868237e+001
 2.076267875424119e+000	 5.452631327485583e-001	 1.233854266033384e+001
 2.070537786221185e+000	 5.666333215673345e-001	 1.236157059247684e+001
 2.064571150696912e+000	 5.880016204242573e-001	 1.238531669304782e+001
 2.058367064489540e+000	 6.093643409958434e-001	 1.240962106229454e+001
 2.051924695319411e+000	 6.307177570770307e-001	 1.243461556329833e+001
 2.131895867402834e+000	 4.223858213188826e-001	 1.218524191993587e+001
 2.127508390340486e+000	 4.439568566388839e-001	 1.218811443566191e+001
 2.122888368472507e+000	 4.655474925526938e-001	 1.219770184275738e+001
 2.118034481027448e+000	 4.871542565266413e-001	 1.221241598716750e+001
 2.112945470715970e+000	 5.087736289830221e-001	 1.223087934969283e+001
 2.107620145387170e+000	 5.304020445953191e-001	 1.225193676842029e+001
 2.102057379658719e+000	 5.520358936453730e-001	 1.227466786519544e+001
 2.096256116518343e+000	 5.736715234421500e-001	 1.229840025125549e+001
 2.090215368894127e+000	 5.953052398016533e-001	 1.232272358232165e+001
 2.083934221191156e+000	 6.169333085874019e-001	 1.234750452745751e+001
 2.077411830791954e+000	 6.385519573108083e-001	 1.237290270883541e+001
 2.158051450990382e+000	 4.275679448119764e-001	 1.211461502813047e+001
 2.153610145303287e+000	 4.494036286199952e-001	 1.211971753963652e+001
 2.148933441788862e+000	 4.712591534955853e-001	 1.213129994789686e+001
 2.144020003471509e+000	 4.931310043016032e-001	 1.214778051095645e+001
 2.138868557636592e+000	 5.150156182797037e-001	 1.216779035715743e+001
 2.133477897507068e+000	 5.369093863614493e-001	 1.219018449951529e+001
 2.127846883893632e+000	 5.588086545421322e-001	 1.221405363098702e+001
 2.121974446815848e+000	 5.807097253169515e-001	 1.223873678746272e+001
 2.115859587091717e+000	 6.026088591790755e-001	 1.226383496018105e+001
 2.109501377893163e+000	 6.245022761790250e-001	 1.228922573286255e+001
 2.102898966264897e+000	 6.463861575446830e-001	 1.231507901115633e+001
 2.184207034577925e+000	 4.327500683047373e-001	 1.204741355934436e+001
 2.179711900266134e+000	 4.548504006007772e-001	 1.205483821238404e+001
 2.174978515105310e+000	 4.769708144381600e-001	 1.206850374334768e+001
 2.170005525915712e+000	 4.991077520762681e-001	 1.208683093710167e+001
 2.164791644557399e+000	 5.212576075761127e-001	 1.210845418763673e+001
 2.159335649627190e+000	 5.434167281273361e-001	 1.213223170831043e+001
 2.153636388128806e+000	 5.655814154386811e-001	 1.215725660813163e+001
 2.147692777113644e+000	 5.877479271915754e-001	 1.218286893360315e+001
 2.141503805289619e+000	 6.099124785563529e-001	 1.220866877017921e+001
 2.135068534595499e+000	 6.320712437705343e-001	 1.223453049053774e+001
 2.128386101738173e+000	 6.542203577784719e-001	 1.226061822860540e+001
 2.210362618165462e+000	 4.379321917970660e-001	 1.198540187864731e+001
 2.205813655229016e+000	 4.602971725811211e-001	 1.199501872688103e+001
 2.201023588421832e+000	 4.826824753802987e-001	 1.201062132018422e+001
 2.195991048360027e+000	 5.050844998505065e-001	 1.203063114044755e+001
 2.190714731478355e+000	 5.274995968721120e-001	 1.205368244775123e+001
 2.185193401747493e+000	 5.499240698928332e-001	 1.207863158227286e+001
 2.179425892364188e+000	 5.723541763348635e-001	 1.210456722606462e+001
 2.173411107411672e+000	 5.947861290658583e-001	 1.213082173793046e+001
 2.167148023487772e+000	 6.172160979333154e-001	 1.215698366881995e+001
 2.160635691298097e+000	 6.396402113617533e-001	 1.218291155781770e+001
 2.153873237211714e+000	 6.620545580119924e-001	 1.220874909994194e+001
 2.236518201752999e+000	 4.431143152888641e-001	 1.193010787978227e+001
 2.231915410191926e+000	 4.657439445609179e-001	 1.194155685398541e+001
 2.227068661738411e+000	 4.883941363218830e-001	 1.195871010174463e+001
 2.221976570804427e+000	 5.110612476241908e-001	 1.197999004326131e+001
 2.216637818399420e+000	 5.337415861675627e-001	 1.200402939722648e+001
 2.211051153867931e+000	 5.564314116577935e-001	 1.202967946179891e+001
 2.205215396599726e+000	 5.791269372305239e-001	 1.205601945835660e+001
 2.199129437709875e+000	 6.018243309396371e-001	 1.208236706604991e+001
 2.192792241686111e+000	 6.245197173097915e-001	 1.210829026899007e+001
 2.186202848000889e+000	 6.472091789525045e-001	 1.213362063005923e+001
 2.179360372685457e+000	 6.698887582450618e-001	 1.215855110655929e+001
 2.262673785340533e+000	 4.482964387800322e-001	 1.188282823277018e+001
 2.258017165154852e+000	 4.711907165400584e-001	 1.189551184684489e+001
 2.253113735055029e+000	 4.941057972627938e-001	 1.191358355919273e+001
 2.247962093248884e+000	 5.170379953971918e-001	 1.193546905868860e+001
 2.242560905320560e+000	 5.399835754623272e-001	 1.195980011931035e+001
 2.236908905988459e+000	 5.629387534220698e-001	 1.198542173892330e+001
 2.231004900835369e+000	 5.858996981255068e-001	 1.201140045323451e+001
 2.224847768008192e+000	 6.088625328127472e-001	 1.203703396888322e+001
 2.218436459884577e+000	 6.318233366856112e-001	 1.206186225303141e+001
 2.211770004703814e+000	 6.547781465426102e-001	 1.208568020842574e+001
 2.204847508159331e+000	 6.777229584774966e-001	 1.210959703750544e+001
 2.288829368928065e+000	 4.534785622704717e-001	 1.184463355491160e+001
 2.284118920117788e+000	 4.766374885184339e-001	 1.185771033389950e+001
 2.279158808371665e+000	 4.998174582029122e-001	 1.187581782381781e+001
 2.273947615693367e+000	 5.230147431693809e-001	 1.189738942190844e+001
 2.268483992241738e+000	 5.462255647562676e-001	 1.192105857253853e+001
 2.262766658109032e+000	 5.694460951855148e-001	 1.194566463357710e+001
 2.256794405071064e+000	 5.926724590196568e-001	 1.197026004026606e+001
 2.250566098306568e+000	 6.159007346850260e-001	 1.199411892768512e+001
 2.244080678083104e+000	 6.391269560606029e-001	 1.201674736587878e+001
 2.237337161406804e+000	 6.623471141318938e-001	 1.203789535273484e+001
 2.230334643633272e+000	 6.855571587091147e-001	 1.206079267804665e+001
 1.975463288904845e+000	 6.072151563781102e-001	 1.263869514817963e+001
 1.969030848685419e+000	 6.277602942109748e-001	 1.266047050795883e+001
 1.962367612913844e+000	 6.482891946827238e-001	 1.267699391235894e+001
 1.955472993722270e+000	 6.687981688007212e-001	 1.268841516268336e+001
 1.948346477952994e+000	 6.892834976536052e-001	 1.269775922775087e+001
 1.940987628381446e+000	 7.097414342048216e-001	 1.270721726476011e+001
 1.933396084890728e+000	 7.301682051371443e-001	 1.271727629158019e+001
 1.925571565595462e+000	 7.505600127467704e-001	 1.272856882444676e+001
 1.917513867912702e+000	 7.709130368854967e-001	 1.274187123996289e+001
 1.909222869577757e+000	 7.912234369493597e-001	 1.275810182896480e+001
 1.900698529602766e+000	 8.114873539120181e-001	 1.277831854644935e+001
 2.000950424375790e+000	 6.150493566104989e-001	 1.257051119603426e+001
 1.994434993762919e+000	 6.358595647759501e-001	 1.259353508999394e+001
 1.987685789907810e+000	 6.566533260882139e-001	 1.261061983414039e+001
 1.980702217358025e+000	 6.774269039598260e-001	 1.262250738254863e+001
 1.973483756335180e+000	 6.981765314985874e-001	 1.263321268883700e+001
 1.966029963973694e+000	 7.188984133242425e-001	 1.264372887288479e+001
 1.958340475510495e+000	 7.395887274367917e-001	 1.265461783350602e+001
 1.950415005423359e+000	 7.602436271350282e-001	 1.266658984884184e+001
 1.942253348515646e+000	 7.808592429837710e-001	 1.268050169663410e+001
 1.933855380945223e+000	 8.014316848281606e-001	 1.269735446217672e+001
 1.925221061195408e+000	 8.219570438532781e-001	 1.271829103888710e+001
 2.026437559847335e+000	 6.228835568435335e-001	 1.250048591728626e+001
 2.019839138841012e+000	 6.439588353416125e-001	 1.252295459088673e+001
 2.013003966902344e+000	 6.650174574944247e-001	 1.253950407065350e+001
 2.005931440994312e+000	 6.860556391196770e-001	 1.255246769005204e+001
 1.998621034717845e+000	 7.070695653443359e-001	 1.256522735491260e+001
 1.991072299566360e+000	 7.280553924444433e-001	 1.257770733598101e+001
 1.983284866130609e+000	 7.490092497372287e-001	 1.259024738093632e+001
 1.975258445251525e+000	 7.699272415240815e-001	 1.260362301494645e+001
 1.966992829118775e+000	 7.908054490828438e-001	 1.261875899810454e+001
 1.958487892312784e+000	 8.116399327077611e-001	 1.263672690840769e+001
 1.949743592788055e+000	 8.324267337953375e-001	 1.265874241471459e+001
 2.051924695319411e+000	 6.307177570770307e-001	 1.243461556329833e+001
 2.045243283919630e+000	 6.520581059077748e-001	 1.245677944665815e+001
 2.038322143897384e+000	 6.733815889011648e-001	 1.247247464802304e+001
 2.031160664631070e+000	 6.946843742800807e-001	 1.248592294558626e+001
 2.023758313100938e+000	 7.159625991906543e-001	 1.249884289634551e+001
 2.016114635159398e+000	 7.372123715652267e-001	 1.251173491872164e+001
 2.008229256751030e+000	 7.584297720382566e-001	 1.252524908601227e+001
 2.000101885079929e+000	 7.796108559137314e-001	 1.254018364722052e+001
 1.991732309722067e+000	 8.007516551825158e-001	 1.255705782172495e+001
 1.983120403680432e+000	 8.218481805879621e-001	 1.257654200619434e+001
 1.974266124380708e+000	 8.428964237379969e-001	 1.259991316412417e+001
 2.077411830791954e+000	 6.385519573108083e-001	 1.237290270883541e+001
 2.070647428998710e+000	 6.601573764742491e-001	 1.239500899981949e+001
 2.063640320892865e+000	 6.817457203082432e-001	 1.241099321155634e+001
 2.056389888268241e+000	 7.033131094408428e-001	 1.242543478183202e+001
 2.048895591484403e+000	 7.248556330373465e-001	 1.243899693060463e+001
 2.041156970752760e+000	 7.463693506863949e-001	 1.245220699201013e+001
 2.033173647371723e+000	 7.678502943396769e-001	 1.246574372037558e+001
 2.024945324908542e+000	 7.892944703037774e-001	 1.248043580406983e+001
 2.016471790325502e+000	 8.106978612825864e-001	 1.249726005911019e+001
 2.007752915048153e+000	 8.320564284685622e-001	 1.251733928755938e+001
 1.998788655973365e+000	 8.533661136810563e-001	 1.254193220300620e+001
 2.102898966264897e+000	 6.463861575446830e-001	 1.231507901115633e+001
 2.096051574078183e+000	 6.682566470408484e-001	 1.233711881084309e+001
 2.088958497888727e+000	 6.901098517154685e-001	 1.235445925988404e+001
 2.081619111905766e+000	 7.119418446017694e-001	 1.237019705133964e+001
 2.074032869868188e+000	 7.337486668842164e-001	 1.238472033096807e+001
 2.066199306346401e+000	 7.555263298077504e-001	 1.239857139883128e+001
 2.058118037992645e+000	 7.772708166412901e-001	 1.241244555148036e+001
 2.049788764737333e+000	 7.989780846940210e-001	 1.242718963015223e+001
 2.041211270929059e+000	 8.206440673828560e-001	 1.244380025946478e+001
 2.032385426415939e+000	 8.422646763493621e-001	 1.246342176003383e+001
 2.023311187566027e+000	 8.638358036243158e-001	 1.248734371750795e+001
 2.128386101738173e+000	 6.542203577784719e-001	 1.226061822860540e+001
 2.121455719157986e+000	 6.763559176073851e-001	 1.228297011742656e+001
 2.114276674884903e+000	 6.984739831226499e-001	 1.230203566698756e+001
 2.106848335543585e+000	 7.205705797626664e-001	 1.231918815648264e+001
 2.099170148252240e+000	 7.426417007310677e-001	 1.233481783636293e+001
 2.091241641940274e+000	 7.646833089290946e-001	 1.234947041035053e+001
 2.083062428613760e+000	 7.866913389428978e-001	 1.236384593968853e+001
 2.074632204566274e+000	 8.086616990842620e-001	 1.237879746827105e+001
 2.065950751532719e+000	 8.305902734831252e-001	 1.239532935157320e+001
 2.057017937783777e+000	 8.524729242301622e-001	 1.241459527099711e+001
 2.047833719158692e+000	 8.743054935675751e-001	 1.243789591409311e+001
 2.153873237211714e+000	 6.620545580119924e-001	 1.220874909994194e+001
 2.146859864238053e+000	 6.844551881736721e-001	 1.223199472340845e+001
 2.139594851881332e+000	 7.068381145295958e-001	 1.225267495613610e+001
 2.132077559181640e+000	 7.291993149233397e-001	 1.227118044913542e+001
 2.124307426636504e+000	 7.515347345777037e-001	 1.228789261432919e+001
 2.116283977534333e+000	 7.738402880502304e-001	 1.230334933200909e+001
 2.108006819235030e+000	 7.961118612443012e-001	 1.231824395823347e+001
 2.099475644395333e+000	 8.183453134743008e-001	 1.233342407086941e+001
 2.090690232136461e+000	 8.405364795831938e-001	 1.234988993545047e+001
 2.081650449151659e+000	 8.626811721107621e-001	 1.236879267045458e+001
 2.072356250751360e+000	 8.847751835106346e-001	 1.239143209019652e+001
 2.179360372685457e+000	 6.698887582450618e-001	 1.215855110655929e+001
 2.172264009318315e+000	 6.925544587395213e-001	 1.218313017342892e+001
 2.164913028877952e+000	 7.152022459361156e-001	 1.220512826385944e+001
 2.157306782819872e+000	 7.378280500835952e-001	 1.222474952694321e+001
 2.149444705020930e+000	 7.604277684239289e-001	 1.224235590648031e+001
 2.141326313128531e+000	 7.829972671709595e-001	 1.225846651570650e+001
 2.132951209856414e+000	 8.055323835453015e-001	 1.227375679026989e+001
 2.124319084224482e+000	 8.280289278639391e-001	 1.228905740068194e+001
 2.115429712740264e+000	 8.504826856828616e-001	 1.230535290347804e+001
 2.106282960519573e+000	 8.728894199909626e-001	 1.232378010846586e+001
 2.096878782344030e+000	 8.952448734532941e-001	 1.234562613775200e+001
 2.204847508159331e+000	 6.777229584774966e-001	 1.210959703750544e+001
 2.197668154398710e+000	 7.006537293047456e-001	 1.213511677754536e+001
 2.190231205874698e+000	 7.235663773420178e-001	 1.215795420208837e+001
 2.182536006458223e+000	 7.464567852432392e-001	 1.217828343455354e+001
 2.174581983405461e+000	 7.693208022695466e-001	 1.219643658491214e+001
 2.166368648722823e+000	 7.921542462910846e-001	 1.221290328800553e+001
 2.157895600477876e+000	 8.149529058456994e-001	 1.222833004599940e+001
 2.149162524053690e+000	 8.377125422529761e-001	 1.224351935439002e+001
 2.140169193344107e+000	 8.604288917819297e-001	 1.225942858865978e+001
 2.130915471887508e+000	 8.830976678705622e-001	 1.227716862651264e+001
 2.121401313936701e+000	 9.057145633953536e-001	 1.229800217862607e+001
 2.230334643633272e+000	 6.855571587091147e-001	 1.206079267804665e+001
 2.223072299479171e+000	 7.087529998691572e-001	 1.208650604923092e+001
 2.215549382871506e+000	 7.319305087471115e-001	 1.210952762661058e+001
 2.207765230096631e+000	 7.550855204020774e-001	 1.212999177741388e+001
 2.199719261790046e+000	 7.782138361143610e-001	 1.214819062668639e+001
 2.191410984317160e+000	 8.013112254104077e-001	 1.216457380107808e+001
 2.182839991099376e+000	 8.243734281452966e-001	 1.217974800626721e+001
 2.174005963882928e+000	 8.473961566412125e-001	 1.219447641544300e+001
 2.164908673947970e+000	 8.703750978801975e-001	 1.220967784360545e+001
 2.155547983255453e+000	 8.933059157493626e-001	 1.222642567992572e+001
 2.145923845529373e+000	 9.161842533366132e-001	 1.224594654809350e+001
 1.900698529602766e+000	 8.114873539120181e-001	 1.277831854644935e+001
 1.891942220492133e+000	 8.316978846581151e-001	 1.279856782333957e+001
 1.882952806529170e+000	 8.518541852139021e-001	 1.281430266556690e+001
 1.873730497067709e+000	 8.719523567309263e-001	 1.282586793447553e+001
 1.864275585902089e+000	 8.919884905296139e-001	 1.283371905478147e+001
 1.854588451907370e+000	 9.119586703247526e-001	 1.283842010272712e+001
 1.844669559610956e+000	 9.318589744831696e-001	 1.284064168656096e+001
 1.834519459694026e+000	 9.516854783112039e-001	 1.284115862423379e+001
 1.824138789421242e+000	 9.714342563694890e-001	 1.284084742340339e+001
 1.813528272997310e+000	 9.911013848124720e-001	 1.284068356902467e+001
 1.802688721849068e+000	 1.010682943750032e+000	 1.284172905301032e+001
 1.925221061195408e+000	 8.219570438532781e-001	 1.271829103888710e+001
 1.916351779478452e+000	 8.424283278807976e-001	 1.273922614481512e+001
 1.907246385424817e+000	 8.628446820481397e-001	 1.275545226066703e+001
 1.897905091089386e+000	 8.832021572044754e-001	 1.276735961567557e+001
 1.888328194056983e+000	 9.034967942410130e-001	 1.277545231246143e+001
 1.878516078090857e+000	 9.237246263451979e-001	 1.278034630188062e+001
 1.868469213711673e+000	 9.438816812875150e-001	 1.278276714922893e+001
 1.858188158705415e+000	 9.639639837384754e-001	 1.278354759692570e+001
 1.847673558558638e+000	 9.839675576132634e-001	 1.278362492895900e+001
 1.836926146819623e+000	 1.003888428441440e+000	 1.278403814252021e+001
 1.825946745384119e+000	 1.023722625759031e+000	 1.278591637543737e+001
 1.949743592788055e+000	 8.324267337953375e-001	 1.265874241471459e+001
 1.940761338464687e+000	 8.531587711042797e-001	 1.268061268603457e+001
 1.931539964320292e+000	 8.738351788831774e-001	 1.269751344197762e+001
 1.922079685110801e+000	 8.944519576788236e-001	 1.270989762716202e+001
 1.912380802211533e+000	 9.150050979532125e-001	 1.271833551177487e+001
 1.902443704273920e+000	 9.354905823664448e-001	 1.272351252717745e+001
 1.892268867811892e+000	 9.559043880926640e-001	 1.272622689188409e+001
 1.881856857716237e+000	 9.762424891665529e-001	 1.272738703330236e+001
 1.871208327695403e+000	 9.965008588578460e-001	 1.272800881074094e+001
 1.860324020641252e+000	 1.016675472071220e+000	 1.272920300452577e+001
 1.849204768918440e+000	 1.036762307768846e+000	 1.273221227049839e+001
 1.974266124380708e+000	 8.428964237379969e-001	 1.259991316412417e+001
 1.965170897450847e+000	 8.638892143283619e-001	 1.262289215970873e+001
 1.955833543215612e+000	 8.848256757188150e-001	 1.264057803388898e+001
 1.946254279131986e+000	 9.057017581537732e-001	 1.265350341832975e+001
 1.936433410365777e+000	 9.265134016660142e-001	 1.266232185279860e+001
 1.926371330456608e+000	 9.472565383882964e-001	 1.266780545612391e+001
 1.916068521911670e+000	 9.679270948984198e-001	 1.267084238658266e+001
 1.905525556726559e+000	 9.885209945952410e-001	 1.267243409740442e+001
 1.894743096831615e+000	 1.009034160103046e+000	 1.267369239315314e+001
 1.883721894462284e+000	 1.029462515701623e+000	 1.267582778549477e+001
 1.872462792452129e+000	 1.049801989779293e+000	 1.268018202470250e+001
 1.998788655973365e+000	 8.533661136810563e-001	 1.254193220300620e+001
 1.989580456436942e+000	 8.746196575528440e-001	 1.256611684192123e+001
 1.980127122110799e+000	 8.958161725548528e-001	 1.258462457020441e+001
 1.970428873152970e+000	 9.169515586291241e-001	 1.259808432134582e+001
 1.960486018519757e+000	 9.380217053792194e-001	 1.260724963785019e+001
 1.950298956638970e+000	 9.590224944105533e-001	 1.261299615267221e+001
 1.939868176011067e+000	 9.799498017045861e-001	 1.261631885923217e+001
 1.929194255736451e+000	 1.000799500024346e+000	 1.261832917603103e+001
 1.918277865967356e+000	 1.021567461348670e+000	 1.262024222700477e+001
 1.907119768282810e+000	 1.042249559332463e+000	 1.262341390984682e+001
 1.895720815985286e+000	 1.062841671790190e+000	 1.262927334471273e+001
 2.023311187566027e+000	 8.638358036243158e-001	 1.248734371750795e+001
 2.013990015422981e+000	 8.853501007775261e-001	 1.251108297696312e+001
 2.004420701005870e+000	 9.068066693910913e-001	 1.252960194441336e+001
 1.994603467173783e+000	 9.282013591046769e-001	 1.254343764452048e+001
 1.984538626673510e+000	 9.495300090926282e-001	 1.255284652382956e+001
 1.974226582821057e+000	 9.707884504330185e-001	 1.255874448014183e+001
 1.963667830110143e+000	 9.919725085109671e-001	 1.256224986304913e+001
 1.952862954745983e+000	 1.013078005453674e+000	 1.256458975804976e+001
 1.941812635102705e+000	 1.034100762594528e+000	 1.256714237232649e+001
 1.930517642102919e+000	 1.055036602963550e+000	 1.257136100165809e+001
 1.918978839518011e+000	 1.075881353801352e+000	 1.257882153907708e+001
 2.047833719158692e+000	 8.743054935675751e-001	 1.243789591409312e+001
 2.038399574408974e+000	 8.960805440022084e-001	 1.246068883940332e+001
 2.028714279900847e+000	 9.177971662273304e-001	 1.247793796116031e+001
 2.018778061194453e+000	 9.394511595802317e-001	 1.249039825755277e+001
 2.008591234827077e+000	 9.610383128060427e-001	 1.249895326568401e+001
 1.998154209002917e+000	 9.825544064554942e-001	 1.250460339973624e+001
 1.987467484208959e+000	 1.003995215317365e+000	 1.250812173396616e+001
 1.976531653755224e+000	 1.025356510883029e+000	 1.251065959775555e+001
 1.965347404237740e+000	 1.046634063840428e+000	 1.251373842607531e+001
 1.953915515922700e+000	 1.067823646594697e+000	 1.251896117173191e+001
 1.942236863050402e+000	 1.088921035812596e+000	 1.252805456933340e+001
 2.072356250751360e+000	 8.847751835106346e-001	 1.239143209019652e+001
 2.062809133394929e+000	 9.068109872266907e-001	 1.241321404898481e+001
 2.053007858795747e+000	 9.287876630633707e-001	 1.242912762075655e+001
 2.042952655215010e+000	 9.507009600555889e-001	 1.244004696065396e+001
 2.032643842980497e+000	 9.725466165192631e-001	 1.244697883943853e+001
 2.022081835184600e+000	 9.943203624777819e-001	 1.245106024901298e+001
 2.011267138307571e+000	 1.016017922123585e+000	 1.245354446680047e+001
 2.000200352764243e+000	 1.037635016312219e+000	 1.245584467963796e+001
 1.988882173372540e+000	 1.059167365086178e+000	 1.245928379100513e+001
 1.977313389742243e+000	 1.080610690225716e+000	 1.246540381033088e+001
 1.965494886582561e+000	 1.101960717823740e+000	 1.247609798130974e+001
 2.096878782344030e+000	 8.952448734532941e-001	 1.234562613775200e+001
 2.087218692380857e+000	 9.175414304507733e-001	 1.236625000130401e+001
 2.077301437690591e+000	 9.397781598990114e-001	 1.238068624974400e+001
 2.067127249235484e+000	 9.619507605305497e-001	 1.238993967180238e+001
 2.056696451133809e+000	 9.840549202320911e-001	 1.239515180236596e+001
 2.046009461366155e+000	 1.006086318499684e+000	 1.239759857435556e+001
 2.035066792406040e+000	 1.028040628929428e+000	 1.239867760035050e+001
 2.023869051773109e+000	 1.049913521741047e+000	 1.239994692781537e+001
 2.012416942507187e+000	 1.071700666331588e+000	 1.240305432340440e+001
 2.000711263561638e+000	 1.093397733856419e+000	 1.240978055218934e+001
 1.988752910114586e+000	 1.115000399834599e+000	 1.242197972642727e+001
 2.121401313936701e+000	 9.057145633953536e-001	 1.229800217862607e+001
 2.111628251366767e+000	 9.282718736742561e-001	 1.231724362302978e+001
 2.101595016585397e+000	 9.507686567340533e-001	 1.232999007187485e+001
 2.091301843255902e+000	 9.732005610049138e-001	 1.233738763655225e+001
 2.080749059287054e+000	 9.955632239443272e-001	 1.234072336692579e+001
 2.069937087547631e+000	 1.017852274521003e+000	 1.234141152005124e+001
 2.058866446504426e+000	 1.040063335734701e+000	 1.234103926235510e+001
 2.047537750781894e+000	 1.062192027169321e+000	 1.234128632496753e+001
 2.035951711641759e+000	 1.084233967576465e+000	 1.234397603500864e+001
 2.024109137380973e+000	 1.106184777486618e+000	 1.235105634527607e+001
 2.012010933646574e+000	 1.128040081844988e+000	 1.236459493423112e+001
 2.145923845529373e+000	 9.161842533366132e-001	 1.224594654809350e+001
 2.136037810352666e+000	 9.390023168969391e-001	 1.226350982668337e+001
 2.125888595480185e+000	 9.617591535682969e-001	 1.227428913572433e+001
 2.115476437276295e+000	 9.844503614784821e-001	 1.227958181052236e+001
 2.104801667440269e+000	 1.007071527655773e+000	 1.228083036673879e+001
 2.093864713729078e+000	 1.029618230541540e+000	 1.227961009266124e+001
 2.082666100602788e+000	 1.052086042539205e+000	 1.227766971037018e+001
 2.071206449790665e+000	 1.074470532596845e+000	 1.227685905337651e+001
 2.059486480776334e+000	 1.096767268820616e+000	 1.227917464205228e+001
 2.047507011200338e+000	 1.118971821116124e+000	 1.228674215813527e+001
 2.035268957178629e+000	 1.141079763854727e+000	 1.230181153763570e+001
 1.802688721849068e+000	 1.010682943750032e+000	 1.284172905301032e+001
 1.791619357690404e+000	 1.030177937010685e+000	 1.284084043303179e+001
 1.780322777535210e+000	 1.049579514920662e+000	 1.283441873038765e+001
 1.768800057357055e+000	 1.068883783227662e+000	 1.282301270819092e+001
 1.757052360750432e+000	 1.088086861295837e+000	 1.280722311218611e+001
 1.745080938822499e+000	 1.107184884536710e+000	 1.278770048044304e+001
 1.732887130004770e+000	 1.126174006844907e+000	 1.276514287741778e+001
 1.720472359784237e+000	 1.145050403035631e+000	 1.274029355618311e+001
 1.707838140353593e+000	 1.163810271280824e+000	 1.271393855257448e+001
 1.694986070180315e+000	 1.182449835540888e+000	 1.268690421495366e+001
 1.681917833494530e+000	 1.200965347988850e+000	 1.266005467327194e+001
 1.825946745384119e+000	 1.023722625759031e+000	 1.278591637543737e+001
 1.814734565924676e+000	 1.043469140542086e+000	 1.278571647674242e+001
 1.803292238961474e+000	 1.063121034743368e+000	 1.277946784044500e+001
 1.791620854350135e+000	 1.082674363867519e+000	 1.276782403563165e+001
 1.779721590697669e+000	 1.102125197211310e+000	 1.275148928237402e+001
 1.767595715252836e+000	 1.121469620325929e+000	 1.273121608534237e+001
 1.755244583715393e+000	 1.140703737484129e+000	 1.270780279766177e+001
 1.742669639963754e+000	 1.159823674149157e+000	 1.268209111885409e+001
 1.729872415700694e+000	 1.178825579442342e+000	 1.265496353061076e+001
 1.716854530016881e+000	 1.197705628606193e+000	 1.262734067406433e+001
 1.703617688872130e+000	 1.216460025459840e+000	 1.260017867217171e+001
 1.849204768918440e+000	 1.036762307768846e+000	 1.273221227049839e+001
 1.837849774158181e+000	 1.056760344074309e+000	 1.273303334792183e+001
 1.826261700386946e+000	 1.076662554566900e+000	 1.272729667393800e+001
 1.814441651342400e+000	 1.096464944508205e+000	 1.271577094740764e+001
 1.802390820644081e+000	 1.116163533127615e+000	 1.269927395508401e+001
 1.790110491682343e+000	 1.135754356115979e+000	 1.267867001550848e+001
 1.777602037425184e+000	 1.155233468124176e+000	 1.265486735959882e+001
 1.764866920142439e+000	 1.174596945263496e+000	 1.262881545180361e+001
 1.751906691046968e+000	 1.193840887604655e+000	 1.260150225555526e+001
 1.738722989852626e+000	 1.212961421672267e+000	 1.257395144663875e+001
 1.725317544248913e+000	 1.231954702931564e+000	 1.254721957800342e+001
 1.872462792452129e+000	 1.049801989779293e+000	 1.268018202470250e+001
 1.860964982391030e+000	 1.070051547607175e+000	 1.268229059451886e+001
 1.849231161811743e+000	 1.090204074391088e+000	 1.267733660855287e+001
 1.837262448333983e+000	 1.110255525149558e+000	 1.266621401557252e+001
 1.825060050589807e+000	 1.130201869044597e+000	 1.264986405547252e+001
 1.812625268111165e+000	 1.150039091906711e+000	 1.262927250053074e+001
 1.799959491134298e+000	 1.169763198764909e+000	 1.260546684040242e+001
 1.787064200320457e+000	 1.189370216378519e+000	 1.257951341473943e+001
 1.773940966392586e+000	 1.208856195767642e+000	 1.255251449713953e+001
 1.760591449687726e+000	 1.228217214739000e+000	 1.252560533397094e+001
 1.747017399625063e+000	 1.247449380403922e+000	 1.249995114149189e+001
 1.895720815985286e+000	 1.062841671790190e+000	 1.262927334471273e+001
 1.884080190623330e+000	 1.083342751140507e+000	 1.263287027082778e+001
 1.872200623235985e+000	 1.103745594215759e+000	 1.262890185951075e+001
 1.860083245325013e+000	 1.124046105791413e+000	 1.261839723055131e+001
 1.847729280534986e+000	 1.144240204962097e+000	 1.260243076197370e+001
 1.835140044539452e+000	 1.164323827697978e+000	 1.258211911647263e+001
 1.822316944842891e+000	 1.184292929406188e+000	 1.255861821924349e+001
 1.809261480497971e+000	 1.204143487494095e+000	 1.253312019109316e+001
 1.795975241737718e+000	 1.223871503931185e+000	 1.250685024048542e+001
 1.782459909522359e+000	 1.243473007806281e+000	 1.248106351797142e+001
 1.768717255000763e+000	 1.262944057876814e+000	 1.245704193629004e+001
 1.918978839518011e+000	 1.075881353801352e+000	 1.257882153907708e+001
 1.907195398855194e+000	 1.096633954674126e+000	 1.258404225250231e+001
 1.895170084659793e+000	 1.117287114040742e+000	 1.258119491443087e+001
 1.882904042315616e+000	 1.137836686433605e+000	 1.257145354149699e+001
 1.870398510479757e+000	 1.158278540879960e+000	 1.255603513688382e+001
 1.857654820967351e+000	 1.178608563489632e+000	 1.253619649051598e+001
 1.844674398551119e+000	 1.198822660047874e+000	 1.251323093893765e+001
 1.831458760675146e+000	 1.218916758610095e+000	 1.248846508873754e+001
 1.818009517082537e+000	 1.238886812095162e+000	 1.246325550709867e+001
 1.804328369356704e+000	 1.258728800874001e+000	 1.243898538279945e+001
 1.790417110376195e+000	 1.278438735350138e+000	 1.241706116078490e+001
 1.942236863050402e+000	 1.088921035812596e+000	 1.252805456933340e+001
 1.930310607086727e+000	 1.109925158207855e+000	 1.253496941896190e+001
 1.918139546083284e+000	 1.130828633865864e+000	 1.253331183445804e+001
 1.905724839305924e+000	 1.151627267075969e+000	 1.252441026268793e+001
 1.893067740424256e+000	 1.172316876798029e+000	 1.250963362371231e+001
 1.880169597395008e+000	 1.192893299281523e+000	 1.249038787409672e+001
 1.867031852259139e+000	 1.213352390689829e+000	 1.246811253885381e+001
 1.853656040852146e+000	 1.233690029726389e+000	 1.244427721582649e+001
 1.840043792427213e+000	 1.253902120259453e+000	 1.242037805598327e+001
 1.826196829190936e+000	 1.273984593942048e+000	 1.239793422279487e+001
 1.812116965751543e+000	 1.293933412823796e+000	 1.237848433360807e+001
 1.965494886582561e+000	 1.101960717823740e+000	 1.247609798130973e+001
 1.953425815318042e+000	 1.123216361741514e+000	 1.248471271417606e+001
 1.941109007506579e+000	 1.144370153690956e+000	 1.248424743273413e+001
 1.928545636296065e+000	 1.165417847718341e+000	 1.247619435706274e+001
 1.915736970368623e+000	 1.186355212716146e+000	 1.246208342233676e+001
 1.902684373822572e+000	 1.207178035073504e+000	 1.244347859542613e+001
 1.889389305967106e+000	 1.227882121331912e+000	 1.242197416974854e+001
 1.875853321029135e+000	 1.248463300842846e+000	 1.239919104210214e+001
 1.862078067771918e+000	 1.268917428423939e+000	 1.237677297480712e+001
 1.848065289025235e+000	 1.289240387010314e+000	 1.235638284612897e+001
 1.833816821126989e+000	 1.309428090297686e+000	 1.233969889165557e+001
 1.988752910114586e+000	 1.115000399834599e+000	 1.242197972642727e+001
 1.976541023549247e+000	 1.136507565274927e+000	 1.243223609578267e+001
 1.964078468929797e+000	 1.157911673515842e+000	 1.243290034025487e+001
 1.951366433286168e+000	 1.179208428360557e+000	 1.242563760695099e+001
 1.938406200312997e+000	 1.200393548634156e+000	 1.241214775196519e+001
 1.925199150250191e+000	 1.221462770865427e+000	 1.239416140127183e+001
 1.911746759675175e+000	 1.242411851973984e+000	 1.237343600019272e+001
 1.898050601206274e+000	 1.263236571959338e+000	 1.235175185504573e+001
 1.884112343116822e+000	 1.283932736588498e+000	 1.233090817011984e+001
 1.869933748859776e+000	 1.304496180078685e+000	 1.231271908271109e+001
 1.855516676502718e+000	 1.324922767771708e+000	 1.229900969859955e+001
 2.012010933646574e+000	 1.128040081844988e+000	 1.236459493423112e+001
 1.999656231780452e+000	 1.149798768807915e+000	 1.237641138157770e+001
 1.987047930353057e+000	 1.171453193340354e+000	 1.237807796822472e+001
 1.974187230276362e+000	 1.192999009002452e+000	 1.237148168112888e+001
 1.961075430257516e+000	 1.214431884551902e+000	 1.235850101098530e+001
 1.947713926678011e+000	 1.235747506657142e+000	 1.234104169696031e+001
 1.934104213383505e+000	 1.256941582615906e+000	 1.232103252336358e+001
 1.920247881383732e+000	 1.278009843075734e+000	 1.230042111938204e+001
 1.906146618462098e+000	 1.298948044753011e+000	 1.228116976479261e+001
 1.891802208694739e+000	 1.319751973147054e+000	 1.226525120409953e+001
 1.877216531878911e+000	 1.340417445245763e+000	 1.225436938507415e+001
 2.035268957178629e+000	 1.141079763854727e+000	 1.230181153763570e+001
 2.022771440011766e+000	 1.163089972340299e+000	 1.231545529765997e+001
 2.010017391776478e+000	 1.184994713164319e+000	 1.231837112530266e+001
 1.997008027266777e+000	 1.206789589643860e+000	 1.231238310649291e+001
 1.983744660202318e+000	 1.228470220469227e+000	 1.229973384194873e+001
 1.970228703106179e+000	 1.250032242448504e+000	 1.228264269274262e+001
 1.956461667092250e+000	 1.271471313257539e+000	 1.226321777217175e+001
 1.942445161561669e+000	 1.292783114191904e+000	 1.224358174766844e+001
 1.928180893807916e+000	 1.313963352917358e+000	 1.222586741010113e+001
 1.913670668530300e+000	 1.335007766215310e+000	 1.221220339441755e+001
 1.898916387255753e+000	 1.355912122719749e+000	 1.220275990718660e+001
 1.681917833494530e+000	 1.200965347988850e+000	 1.266005467327194e+001
 1.668635199221159e+000	 1.219353091017331e+000	 1.262929252085410e+001
 1.655140018895221e+000	 1.237609378393840e+000	 1.259112276232151e+001
 1.641434227355505e+000	 1.255730558820518e+000	 1.254735730604936e+001
 1.627519842390902e+000	 1.273713018699258e+000	 1.249982786705591e+001
 1.613398963829417e+000	 1.291553184473516e+000	 1.245038174383830e+001
 1.599073772548271e+000	 1.309247524943862e+000	 1.240087756883153e+001
 1.584546529405988e+000	 1.326792553554178e+000	 1.235318103977738e+001
 1.569819574097472e+000	 1.344184830645459e+000	 1.230668128434722e+001
 1.554895323933223e+000	 1.361420965674179e+000	 1.225384775921711e+001
 1.539776272543993e+000	 1.378497619392282e+000	 1.219537656926270e+001
 1.703617688872130e+000	 1.216460025459840e+000	 1.260017867217171e+001
 1.690163684013768e+000	 1.235085004431891e+000	 1.256935565097248e+001
 1.676494390865052e+000	 1.253576831730622e+000	 1.253146320038590e+001
 1.662611769227780e+000	 1.271931808949659e+000	 1.248857076718561e+001
 1.648517862924069e+000	 1.290146275868779e+000	 1.244276828663408e+001
 1.634214798873598e+000	 1.308216612825929e+000	 1.239616151474692e+001
 1.619704786090955e+000	 1.326139243062656e+000	 1.235086733129970e+001
 1.604990114603931e+000	 1.343910635039802e+000	 1.230682302307788e+001
 1.590073154293838e+000	 1.361527304720379e+000	 1.225693391324171e+001
 1.574956353658965e+000	 1.378985817816562e+000	 1.220195937738315e+001
 1.559642238502527e+000	 1.396282791997798e+000	 1.214365633969045e+001
 1.725317544248913e+000	 1.231954702931564e+000	 1.254721957800342e+001
 1.711692168805565e+000	 1.250816917847140e+000	 1.251720034179182e+001
 1.697848762834074e+000	 1.269544285068040e+000	 1.248056859592015e+001
 1.683789311099254e+000	 1.288133059079376e+000	 1.243959374332285e+001
 1.669515883456440e+000	 1.306579533038807e+000	 1.239656542692802e+001
 1.655030633916995e+000	 1.324880041178775e+000	 1.235378851992786e+001
 1.640335799632866e+000	 1.343030961181805e+000	 1.231188970747820e+001
 1.625433699801120e+000	 1.361028716525698e+000	 1.226423272117680e+001
 1.610326734489472e+000	 1.378869778795487e+000	 1.221141958584735e+001
 1.595017383384004e+000	 1.396550669959047e+000	 1.215531002060650e+001
 1.579508204460395e+000	 1.414067964603332e+000	 1.209778499794237e+001
 1.747017399625063e+000	 1.247449380403922e+000	 1.249995114149189e+001
 1.733220653596737e+000	 1.266548831262988e+000	 1.247149346487987e+001
 1.719203134802480e+000	 1.285511738406013e+000	 1.243698096237230e+001
 1.704966852970117e+000	 1.304334309209597e+000	 1.239882762178456e+001
 1.690513903988211e+000	 1.323012790209282e+000	 1.235946651524651e+001
 1.675846468959799e+000	 1.341543469532005e+000	 1.232024557977174e+001
 1.660966813174197e+000	 1.359922679301271e+000	 1.227515360088050e+001
 1.645877284997743e+000	 1.378146798011843e+000	 1.222440035434017e+001
 1.630580314684557e+000	 1.396212252870773e+000	 1.216988492924570e+001
 1.615078413108517e+000	 1.414115522101637e+000	 1.211352799686776e+001
 1.599374170417763e+000	 1.431853137208900e+000	 1.205727088677029e+001
 1.768717255000763e+000	 1.262944057876814e+000	 1.245704193629004e+001
 1.754749138387472e+000	 1.282280744679345e+000	 1.243079980789251e+001
 1.740557506770461e+000	 1.301479191744462e+000	 1.239914426885883e+001
 1.726144394840567e+000	 1.320535559340253e+000	 1.236458061699943e+001
 1.711511924519575e+000	 1.339446047380145e+000	 1.232908553360503e+001
 1.696662304002206e+000	 1.358206897885572e+000	 1.228759403683753e+001
 1.681597826715140e+000	 1.376814397421018e+000	 1.223968000401074e+001
 1.666320870193986e+000	 1.395264879498210e+000	 1.218722169743122e+001
 1.650833894879277e+000	 1.413554726946223e+000	 1.213211878548800e+001
 1.635139442832677e+000	 1.431680374244335e+000	 1.207629156757177e+001
 1.619240136374797e+000	 1.449638309814519e+000	 1.202168017124884e+001
 1.790417110376195e+000	 1.278438735350138e+000	 1.241706116078490e+001
 1.776277623177960e+000	 1.298012658096122e+000	 1.239358781284102e+001
 1.761911878738207e+000	 1.317446645083307e+000	 1.236541005268950e+001
 1.747321936710794e+000	 1.336736809471274e+000	 1.233492373375669e+001
 1.732509945050727e+000	 1.355879304551337e+000	 1.229845132763850e+001
 1.717478139044409e+000	 1.374870326239427e+000	 1.225470640961829e+001
 1.702228840255885e+000	 1.393706115541010e+000	 1.220548994917144e+001
 1.686764455390040e+000	 1.412382960984778e+000	 1.215262334287858e+001
 1.671087475073812e+000	 1.430897201021827e+000	 1.209794787674148e+001
 1.655200472556663e+000	 1.449245226387142e+000	 1.204332417482174e+001
 1.639106102331665e+000	 1.467423482420205e+000	 1.199063162771858e+001
 1.812116965751543e+000	 1.293933412823796e+000	 1.237848433360807e+001
 1.797806107968385e+000	 1.313744571513226e+000	 1.235823521834896e+001
 1.783266250705911e+000	 1.333414098422468e+000	 1.233404280973115e+001
 1.768499478580992e+000	 1.352938059602590e+000	 1.230409490721291e+001
 1.753507965581860e+000	 1.372312561722800e+000	 1.226609198169033e+001
 1.738293974086600e+000	 1.391533754593522e+000	 1.222170544839143e+001
 1.722859853796625e+000	 1.410597833661210e+000	 1.217262508949440e+001
 1.707208040586092e+000	 1.429501042471520e+000	 1.212055883334264e+001
 1.691341055268346e+000	 1.448239675097573e+000	 1.206723253705725e+001
 1.675261502280647e+000	 1.466810078530060e+000	 1.201438976568068e+001
 1.658972068288533e+000	 1.485208655025974e+000	 1.196379156038556e+001
 1.833816821126989e+000	 1.309428090297686e+000	 1.233969889165557e+001
 1.819334592758936e+000	 1.329476484930569e+000	 1.232303461385131e+001
 1.804620622673762e+000	 1.349381551761864e+000	 1.230080025024002e+001
 1.789677020451354e+000	 1.369139309734133e+000	 1.227007029379156e+001
 1.774505986113169e+000	 1.388745818894472e+000	 1.223220897175568e+001
 1.759109809128975e+000	 1.408197182947809e+000	 1.218872549975129e+001
 1.743490867337551e+000	 1.427489551781582e+000	 1.214114422751847e+001
 1.727651625782328e+000	 1.446619123958412e+000	 1.209100482836874e+001
 1.711594635463064e+000	 1.465582149173449e+000	 1.203986250524131e+001
 1.695322532004808e+000	 1.484374930673091e+000	 1.198928820538626e+001
 1.678838034245567e+000	 1.502993827631844e+000	 1.194086883500281e+001
 1.855516676502718e+000	 1.324922767771708e+000	 1.229900969859955e+001
 1.840863077549801e+000	 1.345208398348059e+000	 1.228514519683471e+001
 1.825974994641953e+000	 1.365349005101414e+000	 1.226291522204130e+001
 1.810854562322073e+000	 1.385340559865831e+000	 1.223310781064139e+001
 1.795504006644849e+000	 1.405179076066297e+000	 1.219700748224448e+001
 1.779925644171727e+000	 1.424860611302241e+000	 1.215590936438903e+001
 1.764121880878856e+000	 1.444381269902088e+000	 1.211111985116647e+001
 1.748095210978939e+000	 1.463737205445430e+000	 1.206395730224507e+001
 1.731848215658145e+000	 1.482924623249444e+000	 1.201575277382701e+001
 1.715383561729319e+000	 1.501939782816237e+000	 1.196785077223725e+001
 1.698704000202935e+000	 1.520779000237831e+000	 1.192161002004947e+001
 1.877216531878911e+000	 1.340417445245763e+000	 1.225436938507415e+001
 1.862391562341168e+000	 1.360940311765608e+000	 1.224132330579303e+001
 1.847329366610672e+000	 1.381316458441041e+000	 1.222068063610366e+001
 1.832032104193344e+000	 1.401541809997616e+000	 1.219346229112751e+001
 1.816502027177093e+000	 1.421612333238213e+000	 1.216069353129245e+001
 1.800741479215049e+000	 1.441524039656767e+000	 1.212340514117557e+001
 1.784752894420729e+000	 1.461272988022692e+000	 1.208263467652135e+001
 1.768538796176112e+000	 1.480855286932549e+000	 1.203942777054024e+001
 1.752101795853775e+000	 1.500267097325546e+000	 1.199483948960878e+001
 1.735444591454358e+000	 1.519504634959499e+000	 1.194993572754270e+001
 1.718569966160802e+000	 1.538564172843951e+000	 1.190579462670864e+001
 1.898916387255753e+000	 1.355912122719749e+000	 1.220275990718660e+001
 1.883920047133223e+000	 1.376672225183124e+000	 1.219174631835564e+001
 1.868683738580113e+000	 1.397283911780662e+000	 1.217438057844118e+001
 1.853209646065358e+000	 1.417743060129417e+000	 1.215138282106515e+001
 1.837500047710095e+000	 1.438045590410163e+000	 1.212347106623497e+001
 1.821557314259136e+000	 1.458187468011342e+000	 1.209136305864400e+001
 1.805383907963363e+000	 1.478164706143358e+000	 1.205577819685901e+001
 1.788982381374034e+000	 1.497973368419746e+000	 1.201743954302616e+001
 1.772355376050135e+000	 1.517609571401743e+000	 1.197707590161308e+001
 1.755505621180099e+000	 1.537069487102881e+000	 1.193542395462964e+001
 1.738435932119337e+000	 1.556349345450221e+000	 1.189323043974151e+001
 1.539776272543993e+000	 1.378497619392282e+000	 1.219537656926270e+001
 1.524467299600929e+000	 1.395408981614681e+000	 1.212950546486690e+001
 1.508968793931934e+000	 1.412154398015745e+000	 1.205454701933724e+001
 1.493283469725799e+000	 1.428730698645799e+000	 1.197225572667338e+001
 1.477414111523483e+000	 1.445134773122503e+000	 1.188442770227368e+001
 1.461363572573377e+000	 1.461363572573377e+000	 1.179289915653384e+001
 1.445134773122503e+000	 1.477414111523483e+000	 1.169954475474350e+001
 1.428730698645799e+000	 1.493283469725798e+000	 1.160627585921045e+001
 1.412154398015745e+000	 1.508968793931934e+000	 1.151503864975014e+001
 1.395408981614682e+000	 1.524467299600929e+000	 1.142781211893676e+001
 1.378497619392282e+000	 1.539776272543993e+000	 1.134660593882664e+001
 1.559642238502527e+000	 1.396282791997798e+000	 1.214365633969045e+001
 1.544135751452474e+000	 1.413412342116847e+000	 1.208053511148295e+001
 1.528437286353301e+000	 1.430373805406068e+000	 1.201072278205920e+001
 1.512549592411856e+000	 1.447163971017574e+000	 1.193546762616061e+001
 1.496475490094825e+000	 1.463779688439336e+000	 1.185604930051922e+001
 1.480217869462783e+000	 1.480217869462783e+000	 1.177377836683375e+001
 1.463779688439336e+000	 1.496475490094825e+000	 1.168999571895906e+001
 1.447163971017574e+000	 1.512549592411856e+000	 1.160607190747203e+001
 1.430373805406068e+000	 1.528437286353301e+000	 1.152340635491822e+001
 1.413412342116848e+000	 1.544135751452473e+000	 1.144342645525345e+001
 1.396282791997798e+000	 1.559642238502527e+000	 1.136758655126367e+001
 1.579508204460395e+000	 1.414067964603332e+000	 1.209778499794237e+001
 1.563804203303395e+000	 1.431415702618946e+000	 1.203746200588551e+001
 1.547905778774097e+000	 1.448593212796242e+000	 1.197222690669213e+001
 1.531815715097399e+000	 1.465597243389118e+000	 1.190292182432579e+001
 1.515536868665719e+000	 1.482424603755863e+000	 1.183041234140523e+001
 1.499072166351807e+000	 1.499072166351807e+000	 1.175558790786716e+001
 1.482424603755863e+000	 1.515536868665718e+000	 1.167936216812648e+001
 1.465597243389118e+000	 1.531815715097399e+000	 1.160267319744852e+001
 1.448593212796243e+000	 1.547905778774097e+000	 1.152648363833535e+001
 1.431415702618947e+000	 1.563804203303395e+000	 1.145178072788767e+001
 1.414067964603332e+000	 1.579508204460395e+000	 1.137957620734058e+001
 1.599374170417763e+000	 1.431853137208900e+000	 1.205727088677029e+001
 1.583472655153850e+000	 1.449419063121011e+000	 1.199970690133083e+001
 1.567374271194464e+000	 1.466812620186314e+000	 1.193845486261723e+001
 1.551081837782558e+000	 1.484030515760497e+000	 1.187404692982467e+001
 1.534598247236275e+000	 1.501069519072162e+000	 1.180703305253686e+001
 1.517926463240549e+000	 1.517926463240549e+000	 1.173798210560727e+001
 1.501069519072162e+000	 1.534598247236275e+000	 1.166748295329480e+001
 1.484030515760497e+000	 1.551081837782557e+000	 1.159614543123690e+001
 1.466812620186314e+000	 1.567374271194463e+000	 1.152460123487546e+001
 1.449419063121011e+000	 1.583472655153850e+000	 1.145350470307130e+001
 1.431853137208901e+000	 1.599374170417763e+000	 1.138353348584439e+001
 1.619240136374797e+000	 1.449638309814519e+000	 1.202168017124884e+001
 1.603141107003993e+000	 1.467422423623072e+000	 1.196675469756008e+001
 1.586842763614545e+000	 1.485032027576332e+000	 1.190886957083628e+001
 1.570347960467460e+000	 1.502463788131774e+000	 1.184833947328520e+001
 1.553659625806610e+000	 1.519714434388317e+000	 1.178549340581079e+001
 1.536780760129105e+000	 1.536780760129105e+000	 1.172067639368072e+001
 1.519714434388317e+000	 1.553659625806610e+000	 1.165425112878831e+001
 1.502463788131775e+000	 1.570347960467460e+000	 1.158659953526133e+001
 1.485032027576333e+000	 1.586842763614545e+000	 1.151812424516012e+001
 1.467422423623072e+000	 1.603141107003993e+000	 1.144924997108613e+001
 1.449638309814519e+000	 1.619240136374797e+000	 1.138042476269887e+001
 1.639106102331665e+000	 1.467423482420205e+000	 1.199063162771858e+001
 1.622809558853981e+000	 1.485425784125162e+000	 1.193814889241073e+001
 1.606311256034485e+000	 1.503251434966346e+000	 1.188299570851581e+001
 1.589614083152236e+000	 1.520897060503016e+000	 1.182535824377249e+001
 1.572721004376836e+000	 1.538359349704408e+000	 1.176543565332757e+001
 1.555635057017574e+000	 1.555635057017574e+000	 1.170344220462526e+001
 1.538359349704408e+000	 1.572721004376835e+000	 1.163960934291603e+001
 1.520897060503017e+000	 1.589614083152237e+000	 1.157418768260511e+001
 1.503251434966347e+000	 1.606311256034484e+000	 1.150744890960992e+001
 1.485425784125162e+000	 1.622809558853980e+000	 1.143968757993996e+001
 1.467423482420205e+000	 1.639106102331665e+000	 1.137122279986567e+001
 1.658972068288533e+000	 1.485208655025974e+000	 1.196379156038556e+001
 1.642478010703969e+000	 1.503429144627313e+000	 1.191348618476877e+001
 1.625779748454424e+000	 1.521470842356402e+000	 1.186041417516019e+001
 1.608880205837015e+000	 1.539330332874287e+000	 1.180471878458403e+001
 1.591782382947067e+000	 1.557004265020518e+000	 1.174655700857409e+001
 1.574489353906053e+000	 1.574489353906053e+000	 1.168610198142698e+001
 1.557004265020518e+000	 1.591782382947067e+000	 1.162354531388798e+001
 1.539330332874287e+000	 1.608880205837015e+000	 1.155909935624794e+001
 1.521470842356402e+000	 1.625779748454424e+000	 1.149299937073813e+001
 1.503429144627313e+000	 1.642478010703968e+000	 1.142550559712835e+001
 1.485208655025974e+000	 1.658972068288533e+000	 1.135690519556181e+001
 1.678838034245567e+000	 1.502993827631844e+000	 1.194086883500281e+001
 1.662146462554112e+000	 1.521432505129557e+000	 1.189241121632635e+001
 1.645248240874508e+000	 1.539690249746549e+000	 1.184075670702583e+001
 1.628146328521925e+000	 1.557763605245652e+000	 1.178608803517796e+001
 1.610843761517417e+000	 1.575649180336727e+000	 1.172860446084182e+001
 1.593343650794640e+000	 1.593343650794640e+000	 1.166852429937404e+001
 1.575649180336727e+000	 1.610843761517417e+000	 1.160608738388062e+001
 1.557763605245651e+000	 1.628146328521925e+000	 1.154155744982146e+001
 1.539690249746549e+000	 1.645248240874507e+000	 1.147522442465956e+001
 1.521432505129557e+000	 1.662146462554112e+000	 1.140740660543881e+001
 1.502993827631845e+000	 1.678838034245567e+000	 1.133845270728329e+001
 1.698704000202935e+000	 1.520779000237831e+000	 1.192161002004947e+001
 1.681814914404567e+000	 1.539435865631927e+000	 1.187461144078105e+001
 1.664716733294878e+000	 1.557909657136836e+000	 1.182370062764056e+001
 1.647412451207094e+000	 1.576196877617174e+000	 1.176917910727162e+001
 1.629905140088000e+000	 1.594294095653117e+000	 1.171136971197456e+001
 1.612197947683435e+000	 1.612197947683435e+000	 1.165061908919648e+001
 1.594294095653117e+000	 1.629905140088000e+000	 1.158730014485334e+001
 1.576196877617174e+000	 1.647412451207094e+000	 1.152181440281070e+001
 1.557909657136836e+000	 1.664716733294877e+000	 1.145459426269763e+001
 1.539435865631927e+000	 1.681814914404566e+000	 1.138610513819656e+001
 1.520779000237831e+000	 1.698704000202935e+000	 1.131684745804575e+001
 1.718569966160802e+000	 1.538564172843951e+000	 1.190579462670864e+001
 1.701483366255489e+000	 1.557439226134453e+000	 1.185981211016536e+001
 1.684185225715678e+000	 1.576129064527309e+000	 1.180896372341511e+001
 1.666678573892653e+000	 1.594630149988919e+000	 1.175374618425336e+001
 1.648966518658931e+000	 1.612939010969770e+000	 1.169468422554684e+001
 1.631052244572532e+000	 1.631052244572532e+000	 1.163233295329547e+001
 1.612939010969770e+000	 1.648966518658931e+000	 1.156728013031052e+001
 1.594630149988919e+000	 1.666678573892654e+000	 1.150014836741487e+001
 1.576129064527310e+000	 1.684185225715678e+000	 1.143159720389116e+001
 1.557439226134453e+000	 1.701483366255489e+000	 1.136232505885292e+001
 1.538564172843951e+000	 1.718569966160803e+000	 1.129307103529261e+001
 1.738435932119337e+000	 1.556349345450221e+000	 1.189323043974151e+001
 1.721151818107034e+000	 1.575442586637168e+000	 1.184777136893596e+001
 1.703653718137051e+000	 1.594348471918019e+000	 1.179629923434048e+001
 1.685944696578731e+000	 1.613063422360952e+000	 1.173957953404351e+001
 1.668027897230322e+000	 1.631583926286766e+000	 1.167841437947964e+001
 1.649906541462033e+000	 1.649906541462033e+000	 1.161364456761661e+001
 1.631583926286766e+000	 1.668027897230322e+000	 1.154615156773402e+001
 1.613063422360952e+000	 1.685944696578731e+000	 1.147685940453430e+001
 1.594348471918019e+000	 1.703653718137050e+000	 1.140673641912853e+001
 1.575442586637168e+000	 1.721151818107033e+000	 1.133679688936745e+001
 1.556349345450221e+000	 1.738435932119337e+000	 1.126810249105650e+001
 1.378497619392282e+000	 1.539776272543993e+000	 1.134660593882664e+001
 1.361420965674179e+000	 1.554895323933223e+000	 1.126419621602965e+001
 1.344184830645459e+000	 1.569819574097472e+000	 1.117338419369304e+001
 1.326792553554179e+000	 1.584546529405988e+000	 1.107603660801687e+001
 1.309247524943862e+000	 1.599073772548270e+000	 1.097201414551158e+001
 1.291553184473516e+000	 1.613398963829416e+000	 1.086247413157931e+001
 1.273713018699259e+000	 1.627519842390902e+000	 1.074907241840189e+001
 1.255730558820518e+000	 1.641434227355505e+000	 1.063341714304134e+001
 1.237609378393840e+000	 1.655140018895221e+000	 1.051706557767960e+001
 1.219353091017331e+000	 1.668635199221159e+000	 1.040152110610565e+001
 1.200965347988850e+000	 1.681917833494530e+000	 1.028823031974933e+001
 1.396282791997798e+000	 1.559642238502527e+000	 1.136758655126367e+001
 1.378985817816562e+000	 1.574956353658965e+000	 1.128846734722642e+001
 1.361527304720379e+000	 1.590073154293837e+000	 1.119913434293704e+001
 1.343910635039803e+000	 1.604990114603931e+000	 1.110179678917358e+001
 1.326139243062656e+000	 1.619704786090954e+000	 1.099850834640386e+001
 1.308216612825930e+000	 1.634214798873598e+000	 1.088952387209004e+001
 1.290146275868780e+000	 1.648517862924068e+000	 1.077627931896743e+001
 1.271931808949660e+000	 1.662611769227780e+000	 1.066060497492687e+001
 1.253576831730622e+000	 1.676494390865051e+000	 1.054428431212142e+001
 1.235085004431891e+000	 1.690163684013768e+000	 1.042905062616758e+001
 1.216460025459841e+000	 1.703617688872130e+000	 1.031658378949644e+001
 1.414067964603332e+000	 1.579508204460395e+000	 1.137957620734058e+001
 1.396550669959047e+000	 1.595017383384004e+000	 1.130248442322988e+001
 1.378869778795488e+000	 1.610326734489471e+000	 1.121395394893813e+001
 1.361028716525699e+000	 1.625433699801120e+000	 1.111628150284884e+001
 1.343030961181805e+000	 1.640335799632865e+000	 1.101182461859641e+001
 1.324880041178775e+000	 1.655030633916994e+000	 1.090276161071429e+001
 1.306579533038807e+000	 1.669515883456440e+000	 1.078973295070109e+001
 1.288133059079376e+000	 1.683789311099253e+000	 1.067443605761227e+001
 1.269544285068040e+000	 1.697848762834073e+000	 1.055882254561860e+001
 1.250816917847141e+000	 1.711692168805565e+000	 1.044479601669010e+001
 1.231954702931564e+000	 1.725317544248913e+000	 1.033420860302380e+001
 1.431853137208901e+000	 1.599374170417763e+000	 1.138353348584439e+001
 1.414115522101638e+000	 1.615078413108516e+000	 1.130751754387113e+001
 1.396212252870773e+000	 1.630580314684557e+000	 1.121936429881547e+001
 1.378146798011843e+000	 1.645877284997743e+000	 1.112140592919896e+001
 1.359922679301271e+000	 1.660966813174196e+000	 1.101604144010817e+001
 1.341543469532006e+000	 1.675846468959799e+000	 1.090573392593734e+001
 1.323012790209283e+000	 1.690513903988210e+000	 1.079273306543917e+001
 1.304334309209598e+000	 1.704966852970117e+000	 1.067807553387038e+001
 1.285511738406013e+000	 1.719203134802479e+000	 1.056366325913680e+001
 1.266548831262988e+000	 1.733220653596737e+000	 1.045151290090263e+001
 1.247449380403922e+000	 1.747017399625063e+000	 1.034359022114968e+001
 1.449638309814519e+000	 1.619240136374797e+000	 1.138042476269887e+001
 1.431680374244336e+000	 1.635139442832677e+000	 1.130483139506557e+001
 1.413554726946223e+000	 1.650833894879276e+000	 1.121687097302358e+001
 1.395264879498211e+000	 1.666320870193986e+000	 1.111886101895847e+001
 1.376814397421019e+000	 1.681597826715139e+000	 1.101319002890606e+001
 1.358206897885572e+000	 1.696662304002205e+000	 1.090231485850165e+001
 1.339446047380146e+000	 1.711511924519574e+000	 1.078875786561950e+001
 1.320535559340253e+000	 1.726144394840566e+000	 1.067480877295753e+001
 1.301479191744463e+000	 1.740557506770461e+000	 1.056191361106732e+001
 1.282280744679346e+000	 1.754749138387473e+000	 1.045208719560368e+001
 1.262944057876814e+000	 1.768717255000763e+000	 1.034735254661437e+001
 1.467423482420205e+000	 1.639106102331665e+000	 1.137122279986567e+001
 1.449245226387142e+000	 1.655200472556662e+000	 1.129568474877426e+001
 1.430897201021828e+000	 1.671087475073811e+000	 1.120796408442839e+001
 1.412382960984778e+000	 1.686764455390040e+000	 1.111031534635997e+001
 1.393706115541010e+000	 1.702228840255884e+000	 1.100506637674971e+001
 1.374870326239427e+000	 1.717478139044408e+000	 1.089461594003993e+001
 1.355879304551338e+000	 1.732509945050726e+000	 1.078143108846170e+001
 1.336736809471275e+000	 1.747321936710794e+000	 1.066804427000965e+001
 1.317446645083308e+000	 1.761911878738207e+000	 1.055679890445643e+001
 1.298012658096122e+000	 1.776277623177959e+000	 1.044952896350254e+001
 1.278438735350138e+000	 1.790417110376195e+000	 1.034825154738618e+001
 1.485208655025974e+000	 1.658972068288533e+000	 1.135690519556181e+001
 1.466810078530060e+000	 1.675261502280647e+000	 1.128132976093971e+001
 1.448239675097573e+000	 1.691341055268346e+000	 1.119411826461471e+001
 1.429501042471520e+000	 1.707208040586090e+000	 1.109741563017144e+001
 1.410597833661210e+000	 1.722859853796624e+000	 1.099344063853451e+001
 1.391533754593522e+000	 1.738293974086600e+000	 1.088448389034405e+001
 1.372312561722800e+000	 1.753507965581860e+000	 1.077290550599883e+001
 1.352938059602591e+000	 1.768499478580991e+000	 1.066113255839547e+001
 1.333414098422468e+000	 1.783266250705910e+000	 1.055165623450298e+001
 1.313744571513226e+000	 1.797806107968384e+000	 1.044696597143599e+001
 1.293933412823795e+000	 1.812116965751542e+000	 1.034916861892893e+001
 1.502993827631845e+000	 1.678838034245567e+000	 1.133845270728329e+001
 1.484374930673091e+000	 1.695322532004807e+000	 1.126301108413087e+001
 1.465582149173450e+000	 1.711594635463063e+000	 1.117679241836394e+001
 1.446619123958413e+000	 1.727651625782327e+000	 1.108178698750797e+001
 1.427489551781582e+000	 1.743490867337550e+000	 1.098005774835124e+001
 1.408197182947810e+000	 1.759109809128975e+000	 1.087373874993797e+001
 1.388745818894473e+000	 1.774505986113169e+000	 1.076503327847678e+001
 1.369139309734134e+000	 1.789677020451354e+000	 1.065621172738536e+001
 1.349381551761864e+000	 1.804620622673761e+000	 1.054960918683943e+001
 1.329476484930569e+000	 1.819334592758935e+000	 1.044763697882152e+001
 1.309428090297686e+000	 1.833816821126989e+000	 1.035310370705224e+001
 1.520779000237831e+000	 1.698704000202935e+000	 1.131684745804575e+001
 1.501939782816236e+000	 1.715383561729319e+000	 1.124196481006599e+001
 1.482924623249445e+000	 1.731848215658145e+000	 1.115742926527915e+001
 1.463737205445431e+000	 1.748095210978939e+000	 1.106503294229506e+001
 1.444381269902088e+000	 1.764121880878854e+000	 1.096663776754605e+001
 1.424860611302241e+000	 1.779925644171726e+000	 1.086417444562273e+001
 1.405179076066297e+000	 1.795504006644848e+000	 1.075964115823122e+001
 1.385340559865832e+000	 1.810854562322073e+000	 1.065510198288519e+001
 1.365349005101415e+000	 1.825974994641952e+000	 1.055268502362396e+001
 1.345208398348060e+000	 1.840863077549801e+000	 1.045458024732294e+001
 1.324922767771708e+000	 1.855516676502718e+000	 1.036316821094426e+001
 1.538564172843951e+000	 1.718569966160803e+000	 1.129307103529261e+001
 1.519504634959500e+000	 1.735444591454357e+000	 1.121941725577853e+001
 1.500267097325547e+000	 1.752101795853774e+000	 1.113745468578190e+001
 1.480855286932550e+000	 1.768538796176111e+000	 1.104873520823515e+001
 1.461272988022692e+000	 1.784752894420728e+000	 1.095487598646594e+001
 1.441524039656768e+000	 1.800741479215049e+000	 1.085755909757544e+001
 1.421612333238214e+000	 1.816502027177092e+000	 1.075853089357302e+001
 1.401541809997617e+000	 1.832032104193343e+000	 1.065960107897103e+001
 1.381316458441041e+000	 1.847329366610672e+000	 1.056264149474671e+001
 1.360940311765609e+000	 1.862391562341167e+000	 1.046958459989576e+001
 1.340417445245763e+000	 1.877216531878911e+000	 1.038242164322374e+001
 1.556349345450221e+000	 1.738435932119337e+000	 1.126810249105650e+001
 1.537069487102882e+000	 1.755505621180099e+000	 1.119658360593413e+001
 1.517609571401743e+000	 1.772355376050134e+000	 1.111827688712869e+001
 1.497973368419745e+000	 1.788982381374034e+000	 1.103445326431625e+001
 1.478164706143359e+000	 1.805383907963363e+000	 1.094644279959337e+001
 1.458187468011342e+000	 1.821557314259135e+000	 1.085563508867609e+001
 1.438045590410164e+000	 1.837500047710094e+000	 1.076347939139109e+001
 1.417743060129417e+000	 1.853209646065358e+000	 1.067148447744884e+001
 1.397283911780662e+000	 1.868683738580113e+000	 1.058121817471781e+001
 1.376672225183125e+000	 1.883920047133223e+000	 1.049430660856710e+001
 1.355912122719749e+000	 1.898916387255753e+000	 1.041243312232256e+001
 1.200965347988850e+000	 1.681917833494530e+000	 1.028823031974933e+001
 1.182449835540888e+000	 1.694986070180314e+000	 1.017494296821331e+001
 1.163810271280825e+000	 1.707838140353592e+000	 1.005876412990347e+001
 1.145050403035632e+000	 1.720472359784237e+000	 9.940057892339087e+000
 1.126174006844908e+000	 1.732887130004770e+000	 9.819092703299504e+000
 1.107184884536711e+000	 1.745080938822499e+000	 9.696040622690846e+000
 1.088086861295837e+000	 1.757052360750431e+000	 9.570976693795753e+000
 1.068883783227663e+000	 1.768800057357055e+000	 9.443878425282794e+000
 1.049579514920662e+000	 1.780322777535209e+000	 9.314625376099880e+000
 1.030177937010685e+000	 1.791619357690403e+000	 9.182998836234827e+000
 1.010682943750033e+000	 1.802688721849068e+000	 9.048681597276557e+000
 1.216460025459841e+000	 1.703617688872130e+000	 1.031658378949644e+001
 1.197705628606193e+000	 1.716854530016880e+000	 1.020429853868930e+001
 1.178825579442343e+000	 1.729872415700694e+000	 1.008884564298607e+001
 1.159823674149158e+000	 1.742669639963754e+000	 9.970644747690463e+000
 1.140703737484130e+000	 1.755244583715393e+000	 9.850018407367021e+000
 1.121469620325930e+000	 1.767595715252836e+000	 9.727191347522107e+000
 1.102125197211310e+000	 1.779721590697669e+000	 9.602289838343939e+000
 1.082674363867519e+000	 1.791620854350133e+000	 9.475341170555847e+000
 1.063121034743368e+000	 1.803292238961473e+000	 9.346273224303484e+000
 1.043469140542087e+000	 1.814734565924676e+000	 9.214914122990312e+000
 1.023722625759031e+000	 1.825946745384120e+000	 9.080991965067213e+000
 1.231954702931564e+000	 1.725317544248913e+000	 1.033420860302380e+001
 1.212961421672267e+000	 1.738722989852625e+000	 1.022403737378531e+001
 1.193840887604656e+000	 1.751906691046967e+000	 1.011041569131227e+001
 1.174596945263497e+000	 1.764866920142439e+000	 9.993816613816600e+000
 1.155233468124177e+000	 1.777602037425183e+000	 9.874615368689028e+000
 1.135754356115979e+000	 1.790110491682342e+000	 9.753088638930485e+000
 1.116163533127616e+000	 1.802390820644082e+000	 9.629413952241759e+000
 1.096464944508206e+000	 1.814441651342400e+000	 9.503669161366139e+000
 1.076662554566901e+000	 1.826261700386945e+000	 9.375832005279531e+000
 1.056760344074309e+000	 1.837849774158181e+000	 9.245779741958970e+000
 1.036762307768846e+000	 1.849204768918440e+000	 9.113288844715440e+000
 1.247449380403922e+000	 1.747017399625063e+000	 1.034359022114968e+001
 1.228217214739001e+000	 1.760591449687726e+000	 1.023636091162144e+001
 1.208856195767643e+000	 1.773940966392586e+000	 1.012540527080572e+001
 1.189370216378519e+000	 1.787064200320456e+000	 1.001124777799957e+001
 1.169763198764910e+000	 1.799959491134298e+000	 9.894315042979372e+000
 1.150039091906712e+000	 1.812625268111165e+000	 9.774935133592667e+000
 1.130201869044597e+000	 1.825060050589808e+000	 9.653336994503272e+000
 1.110255525149559e+000	 1.837262448333983e+000	 9.529649944076565e+000
 1.090204074391089e+000	 1.849231161811743e+000	 9.403903237538138e+000
 1.070051547607176e+000	 1.860964982391030e+000	 9.276025685834920e+000
 1.049801989779293e+000	 1.872462792452129e+000	 9.145845321053464e+000
 1.262944057876814e+000	 1.768717255000763e+000	 1.034735254661437e+001
 1.243473007806282e+000	 1.782459909522359e+000	 1.024361777652869e+001
 1.223871503931185e+000	 1.795975241737717e+000	 1.013590054131754e+001
 1.204143487494096e+000	 1.809261480497970e+000	 1.002477487937112e+001
 1.184292929406189e+000	 1.822316944842891e+000	 9.910717613489686e+000
 1.164323827697979e+000	 1.835140044539452e+000	 9.794107737611821e+000
 1.144240204962098e+000	 1.847729280534987e+000	 9.675225881056898e+000
 1.124046105791414e+000	 1.860083245325012e+000	 9.554253835500560e+000
 1.103745594215760e+000	 1.872200623235985e+000	 9.431274131209941e+000
 1.083342751140508e+000	 1.884080190623330e+000	 9.306269650533801e+000
 1.062841671790190e+000	 1.895720815985286e+000	 9.179123268258348e+000
 1.278438735350138e+000	 1.790417110376195e+000	 1.034825154738618e+001
 1.258728800874001e+000	 1.804328369356703e+000	 1.024829714466296e+001
 1.238886812095163e+000	 1.818009517082537e+000	 1.014413598689371e+001
 1.218916758610096e+000	 1.831458760675146e+000	 1.003638991600824e+001
 1.198822660047875e+000	 1.844674398551119e+000	 9.925584896883761e+000
 1.178608563489632e+000	 1.857654820967351e+000	 9.812150482848033e+000
 1.158278540879961e+000	 1.870398510479756e+000	 9.696419342888587e+000
 1.137836686433606e+000	 1.882904042315616e+000	 9.578626833848553e+000
 1.117287114040743e+000	 1.895170084659793e+000	 9.458910602374376e+000
 1.096633954674127e+000	 1.907195398855193e+000	 9.337310203032860e+000
 1.075881353801352e+000	 1.918978839518011e+000	 9.213766720840651e+000
 1.293933412823795e+000	 1.812116965751542e+000	 1.034916861892893e+001
 1.273984593942049e+000	 1.826196829190936e+000	 1.025302188422578e+001
 1.253902120259454e+000	 1.840043792427212e+000	 1.015248738298984e+001
 1.233690029726390e+000	 1.853656040852146e+000	 1.004823308797828e+001
 1.213352390689830e+000	 1.867031852259138e+000	 9.940833110698716e+000
 1.192893299281523e+000	 1.880169597395009e+000	 9.830767267082594e+000
 1.172316876798030e+000	 1.893067740424256e+000	 9.718420686852076e+000
 1.151627267075970e+000	 1.905724839305924e+000	 9.604083447742278e+000
 1.130828633865865e+000	 1.918139546083283e+000	 9.487950217410653e+000
 1.109925158207856e+000	 1.930310607086727e+000	 9.370119887725995e+000
 1.088921035812597e+000	 1.942236863050402e+000	 9.250595188172039e+000
 1.309428090297686e+000	 1.833816821126989e+000	 1.035310370705224e+001
 1.289240387010314e+000	 1.848065289025234e+000	 1.026054148896064e+001
 1.268917428423940e+000	 1.862078067771918e+000	 1.016346458662229e+001
 1.248463300842847e+000	 1.875853321029134e+000	 1.006258548992204e+001
 1.227882121331912e+000	 1.889389305967105e+000	 9.958525513858088e+000
 1.207178035073505e+000	 1.902684373822572e+000	 9.851814487637222e+000
 1.186355212716147e+000	 1.915736970368623e+000	 9.742890467208090e+000
 1.165417847718343e+000	 1.928545636296065e+000	 9.632099450082967e+000
 1.144370153690956e+000	 1.941109007506578e+000	 9.519695073165043e+000
 1.123216361741515e+000	 1.953425815318042e+000	 9.405838276384824e+000
 1.101960717823740e+000	 1.965494886582560e+000	 9.290596917226697e+000
 1.324922767771708e+000	 1.855516676502718e+000	 1.036316821094426e+001
 1.304496180078686e+000	 1.869933748859776e+000	 1.027372482184761e+001
 1.283932736588499e+000	 1.884112343116822e+000	 1.017970416395128e+001
 1.263236571959339e+000	 1.898050601206274e+000	 1.008186166549158e+001
 1.242411851973985e+000	 1.911746759675176e+000	 9.980864930628863e+000
 1.221462770865427e+000	 1.925199150250190e+000	 9.877293577170882e+000
 1.200393548634157e+000	 1.938406200312997e+000	 9.771639075198857e+000
 1.179208428360558e+000	 1.951366433286168e+000	 9.664304562924452e+000
 1.157911673515844e+000	 1.964078468929797e+000	 9.555604618188930e+000
 1.136507565274928e+000	 1.976541023549246e+000	 9.445764966343296e+000
 1.115000399834598e+000	 1.988752910114585e+000	 9.334922107777812e+000
 1.340417445245763e+000	 1.877216531878911e+000	 1.038242164322374e+001
 1.319751973147055e+000	 1.891802208694739e+000	 1.029555268435417e+001
 1.298948044753012e+000	 1.906146618462098e+000	 1.020396186844943e+001
 1.278009843075735e+000	 1.920247881383731e+000	 1.010860203482087e+001
 1.256941582615907e+000	 1.934104213383505e+000	 1.001018616745265e+001
 1.235747506657144e+000	 1.947713926678010e+000	 9.909343449568279e+000
 1.214431884551903e+000	 1.961075430257515e+000	 9.806619253291302e+000
 1.192999009002452e+000	 1.974187230276362e+000	 9.702475078934153e+000
 1.171453193340355e+000	 1.987047930353056e+000	 9.597288419816044e+000
 1.149798768807916e+000	 1.999656231780451e+000	 9.491352531093334e+000
 1.128040081844989e+000	 2.012010933646574e+000	 9.384414487826799e+000
 1.355912122719749e+000	 1.898916387255753e+000	 1.041243312232256e+001
 1.335007766215311e+000	 1.913670668530300e+000	 1.032909847722131e+001
 1.313963352917359e+000	 1.928180893807916e+000	 1.023910498160784e+001
 1.292783114191905e+000	 1.942445161561669e+000	 1.014546520518453e+001
 1.271471313257540e+000	 1.956461667092249e+000	 1.004894833122081e+001
 1.250032242448504e+000	 1.970228703106179e+000	 9.950232863112447e+000
 1.228470220469227e+000	 1.983744660202318e+000	 9.849918540113206e+000
 1.206789589643861e+000	 1.997008027266777e+000	 9.748526424512972e+000
 1.184994713164320e+000	 2.010017391776478e+000	 9.646560692958982e+000
 1.163089972340300e+000	 2.022771440011765e+000	 9.543825734594169e+000
 1.141079763854727e+000	 2.035268957178629e+000	 9.439294317459398e+000
 1.010682943750033e+000	 1.802688721849068e+000	 9.048681597276552e+000
 9.911013848124723e-001	 1.813528272997310e+000	 8.913650392771320e+000
 9.714342563694890e-001	 1.824138789421242e+000	 8.780407783542602e+000
 9.516854783112038e-001	 1.834519459694026e+000	 8.649318631238668e+000
 9.318589744831690e-001	 1.844669559610956e+000	 8.520644656852035e+000
 9.119586703247522e-001	 1.854588451907371e+000	 8.394539623773266e+000
 8.919884905296130e-001	 1.864275585902090e+000	 8.271047224780746e+000
 8.719523567309254e-001	 1.873730497067709e+000	 8.150099102574041e+000
 8.518541852139012e-001	 1.882952806529171e+000	 8.031513011141387e+000
 8.316978846581138e-001	 1.891942220492133e+000	 7.914991126119505e+000
 8.114873539120180e-001	 1.900698529602766e+000	 7.800118513100239e+000
 1.023722625759031e+000	 1.825946745384120e+000	 9.080991965067211e+000
 1.003888428441440e+000	 1.836926146819623e+000	 8.946588165341145e+000
 9.839675576132634e-001	 1.847673558558638e+000	 8.814244304217057e+000
 9.639639837384755e-001	 1.858188158705415e+000	 8.684267686026409e+000
 9.438816812875144e-001	 1.868469213711674e+000	 8.556859269137560e+000
 9.237246263451973e-001	 1.878516078090857e+000	 8.432108823808733e+000
 9.034967942410123e-001	 1.888328194056984e+000	 8.309992844599091e+000
 8.832021572044743e-001	 1.897905091089386e+000	 8.190372583016009e+000
 8.628446820481386e-001	 1.907246385424818e+000	 8.072992207816453e+000
 8.424283278807965e-001	 1.916351779478452e+000	 7.957477101414638e+000
 8.219570438532781e-001	 1.925221061195408e+000	 7.843332301813275e+000
 1.036762307768846e+000	 1.849204768918440e+000	 9.113288844715441e+000
 1.016675472071220e+000	 1.860324020641252e+000	 8.980526276324730e+000
 9.965008588578461e-001	 1.871208327695403e+000	 8.850061462345799e+000
 9.762424891665523e-001	 1.881856857716237e+000	 8.722190268903258e+000
 9.559043880926635e-001	 1.892268867811892e+000	 8.597085821291067e+000
 9.354905823664447e-001	 1.902443704273920e+000	 8.474810467500719e+000
 9.150050979532121e-001	 1.912380802211533e+000	 8.355310294379832e+000
 8.944519576788230e-001	 1.922079685110801e+000	 8.238413112394651e+000
 8.738351788831761e-001	 1.931539964320292e+000	 8.123826553706220e+000
 8.531587711042783e-001	 1.940761338464687e+000	 8.011136292420789e+000
 8.324267337953374e-001	 1.949743592788055e+000	 7.899804397019521e+000
 1.049801989779293e+000	 1.872462792452129e+000	 9.145845321053468e+000
 1.029462515701623e+000	 1.883721894462284e+000	 9.015587285915185e+000
 1.009034160103046e+000	 1.894743096831615e+000	 8.887855750838305e+000
 9.885209945952409e-001	 1.905525556726559e+000	 8.762959921702635e+000
 9.679270948984191e-001	 1.916068521911670e+000	 8.641083782900633e+000
 9.472565383882956e-001	 1.926371330456608e+000	 8.522297839116686e+000
 9.265134016660136e-001	 1.936433410365777e+000	 8.406553584784335e+000
 9.057017581537727e-001	 1.946254279131987e+000	 8.293681382482918e+000
 8.848256757188137e-001	 1.955833543215612e+000	 8.183388439002973e+000
 8.638892143283603e-001	 1.965170897450847e+000	 8.075256888462608e+000
 8.428964237379970e-001	 1.974266124380708e+000	 7.968741993186407e+000
 1.062841671790190e+000	 1.895720815985286e+000	 9.179123268258348e+000
 1.042249559332463e+000	 1.907119768282810e+000	 9.052092880099204e+000
 1.021567461348670e+000	 1.918277865967356e+000	 8.927816288879887e+000
 1.000799500024346e+000	 1.929194255736451e+000	 8.806637413486790e+000
 9.799498017045858e-001	 1.939868176011068e+000	 8.688797929947850e+000
 9.590224944105529e-001	 1.950298956638971e+000	 8.574406984831679e+000
 9.380217053792186e-001	 1.960486018519757e+000	 8.463456367592848e+000
 9.169515586291235e-001	 1.970428873152972e+000	 8.355814077447320e+000
 8.958161725548517e-001	 1.980127122110799e+000	 8.251222119003192e+000
 8.746196575528428e-001	 1.989580456436942e+000	 8.149294388474406e+000
 8.533661136810562e-001	 1.998788655973365e+000	 8.049514662016536e+000
 1.075881353801352e+000	 1.918978839518011e+000	 9.213766720840656e+000
 1.055036602963550e+000	 1.930517642102919e+000	 9.090544047045338e+000
 1.034100762594528e+000	 1.941812635102705e+000	 8.970301983937485e+000
 1.013078005453673e+000	 1.952862954745983e+000	 8.853470107989276e+000
 9.919725085109663e-001	 1.963667830110143e+000	 8.740352910987340e+000
 9.707884504330184e-001	 1.974226582821057e+000	 8.631151649798241e+000
 9.495300090926275e-001	 1.984538626673511e+000	 8.525927264578959e+000
 9.282013591046762e-001	 1.994603467173784e+000	 8.424619611493803e+000
 9.068066693910906e-001	 2.004420701005871e+000	 8.326649642864920e+000
 8.853501007775249e-001	 2.013990015422982e+000	 8.228645049397072e+000
 8.638358036243158e-001	 2.023311187566027e+000	 8.129046865464009e+000
 1.088921035812597e+000	 1.942236863050402e+000	 9.250595188172037e+000
 1.067823646594697e+000	 1.953915515922700e+000	 9.131617970739063e+000
 1.046634063840428e+000	 1.965347404237740e+000	 9.015860658742566e+000
 1.025356510883029e+000	 1.976531653755224e+000	 8.903865343494672e+000
 1.003995215317365e+000	 1.987467484208959e+000	 8.796047749562895e+000
 9.825544064554935e-001	 1.998154209002917e+000	 8.692718144271787e+000
 9.610383128060417e-001	 2.008591234827078e+000	 8.592887893775245e+000
 9.394511595802305e-001	 2.018778061194453e+000	 8.493981294689048e+000
 9.177971662273293e-001	 2.028714279900847e+000	 8.395139834001567e+000
 8.960805440022071e-001	 2.038399574408975e+000	 8.295495576517064e+000
 8.743054935675749e-001	 2.047833719158692e+000	 8.194125285271575e+000
 1.101960717823740e+000	 1.965494886582560e+000	 9.290596917226701e+000
 1.080610690225716e+000	 1.977313389742243e+000	 9.176161544839420e+000
 1.059167365086179e+000	 1.988882173372540e+000	 9.065205932031509e+000
 1.037635016312218e+000	 2.000200352764243e+000	 8.958415548336228e+000
 1.016017922123584e+000	 2.011267138307571e+000	 8.854907631371361e+000
 9.943203624777813e-001	 2.022081835184600e+000	 8.753131052302694e+000
 9.725466165192622e-001	 2.032643842980497e+000	 8.652525868640311e+000
 9.507009600555882e-001	 2.042952655215010e+000	 8.552453301068097e+000
 9.287876630633694e-001	 2.053007858795747e+000	 8.452225357529819e+000
 9.068109872266894e-001	 2.062809133394930e+000	 8.351101719884865e+000
 8.847751835106344e-001	 2.072356250751360e+000	 8.248291923658222e+000
 1.115000399834598e+000	 1.988752910114585e+000	 9.334922107777812e+000
 1.093397733856419e+000	 2.000711263561638e+000	 9.225181930362570e+000
 1.071700666331588e+000	 2.012416942507187e+000	 9.118100296875001e+000
 1.049913521741047e+000	 2.023869051773110e+000	 9.012891197165040e+000
 1.028040628929428e+000	 2.035066792406040e+000	 8.909243563145973e+000
 1.006086318499683e+000	 2.046009461366154e+000	 8.806774891490713e+000
 9.840549202320902e-001	 2.056696451133810e+000	 8.705064753254728e+000
 9.619507605305486e-001	 2.067127249235484e+000	 8.603620552890586e+000
 9.397781598990102e-001	 2.077301437690591e+000	 8.501906040539398e+000
 9.175414304507720e-001	 2.087218692380858e+000	 8.399338634515004e+000
 8.952448734532941e-001	 2.096878782344030e+000	 8.295291609900403e+000
 1.128040081844989e+000	 2.012010933646574e+000	 9.384414487826797e+000
 1.106184777486618e+000	 2.024109137380973e+000	 9.277159827566191e+000
 1.084233967576464e+000	 2.035951711641759e+000	 9.171022819573874e+000
 1.062192027169321e+000	 2.047537750781894e+000	 9.065911616557411e+000
 1.040063335734700e+000	 2.058866446504426e+000	 8.961669315164945e+000
 1.017852274521002e+000	 2.069937087547631e+000	 8.858080914988834e+000
 9.955632239443263e-001	 2.080749059287053e+000	 8.754870394223614e+000
 9.732005610049128e-001	 2.091301843255902e+000	 8.651739619097143e+000
 9.507686567340523e-001	 2.101595016585398e+000	 8.548325082050063e+000
 9.282718736742549e-001	 2.111628251366767e+000	 8.444230913423073e+000
 9.057145633953535e-001	 2.121401313936701e+000	 8.339024025674306e+000
 1.141079763854727e+000	 2.035268957178629e+000	 9.439294317459398e+000
 1.118971821116124e+000	 2.047507011200338e+000	 9.333511486703147e+000
 1.096767268820617e+000	 2.059486480776334e+000	 9.227801547015254e+000
 1.074470532596845e+000	 2.071206449790665e+000	 9.122243349329752e+000
 1.052086042539205e+000	 2.082666100602788e+000	 9.016856995603067e+000
 1.029618230541539e+000	 2.093864713729078e+000	 8.911611340865397e+000
 1.007071527655772e+000	 2.104801667440269e+000	 8.806422025502025e+000
 9.844503614784809e-001	 2.115476437276296e+000	 8.701188670062638e+000
 9.617591535682959e-001	 2.125888595480185e+000	 8.595754846451786e+000
 9.390023168969377e-001	 2.136037810352668e+000	 8.489939224914012e+000
 9.161842533366134e-001	 2.145923845529373e+000	 8.383531182945571e+000
 8.114873539120180e-001	 1.900698529602766e+000	 7.800118513100244e+000
 7.912234369493597e-001	 1.909222869577757e+000	 7.682339030496843e+000
 7.709130368854967e-001	 1.917513867912702e+000	 7.559078933899111e+000
 7.505600127467705e-001	 1.925571565595462e+000	 7.432669455910675e+000
 7.301682051371446e-001	 1.933396084890728e+000	 7.305320507124305e+000
 7.097414342048221e-001	 1.940987628381446e+000	 7.179114875157415e+000
 6.892834976536054e-001	 1.948346477952994e+000	 7.056002746972823e+000
 6.687981688007219e-001	 1.955472993722270e+000	 6.937796574490705e+000
 6.482891946827245e-001	 1.962367612913845e+000	 6.827335173669438e+000
 6.277602942109755e-001	 1.969030848685419e+000	 6.727609217292470e+000
 6.072151563781103e-001	 1.975463288904845e+000	 6.639264204570029e+000
 8.219570438532781e-001	 1.925221061195408e+000	 7.843332301813275e+000
 8.014316848281606e-001	 1.933855380945223e+000	 7.726417612141275e+000
 7.808592429837710e-001	 1.942253348515646e+000	 7.604655298241617e+000
 7.602436271350285e-001	 1.950415005423360e+000	 7.480413181271058e+000
 7.395887274367917e-001	 1.958340475510495e+000	 7.355935716388337e+000
 7.188984133242427e-001	 1.966029963973694e+000	 7.233337778465587e+000
 6.981765314985878e-001	 1.973483756335180e+000	 7.114598768715409e+000
 6.774269039598263e-001	 1.980702217358025e+000	 7.001557064242648e+000
 6.566533260882145e-001	 1.987685789907810e+000	 6.896257996008401e+000
 6.358595647759505e-001	 1.994434993762919e+000	 6.802191644256761e+000
 6.150493566104990e-001	 2.000950424375790e+000	 6.720012918165236e+000
 8.324267337953374e-001	 1.949743592788055e+000	 7.899804397019517e+000
 8.116399327077610e-001	 1.958487892312784e+000	 7.786167309070621e+000
 7.908054490828439e-001	 1.966992829118775e+000	 7.668645138578219e+000
 7.699272415240815e-001	 1.975258445251525e+000	 7.549591623728898e+000
 7.490092497372287e-001	 1.983284866130609e+000	 7.431234648818998e+000
 7.280553924444433e-001	 1.991072299566360e+000	 7.315669702151016e+000
 7.070695653443361e-001	 1.998621034717845e+000	 7.204853649925020e+000
 6.860556391196774e-001	 2.005931440994312e+000	 7.099300457085534e+000
 6.650174574944252e-001	 2.013003966902344e+000	 6.998090172256874e+000
 6.439588353416129e-001	 2.019839138841011e+000	 6.904256214255068e+000
 6.228835568435334e-001	 2.026437559847334e+000	 6.819220673520386e+000
 8.428964237379970e-001	 1.974266124380708e+000	 7.968741993186407e+000
 8.218481805879621e-001	 1.983120403680432e+000	 7.860700650051715e+000
 8.007516551825158e-001	 1.991732309722067e+000	 7.750038017746256e+000
 7.796108559137314e-001	 2.000101885079929e+000	 7.639045247665749e+000
 7.584297720382566e-001	 2.008229256751030e+000	 7.527752017623197e+000
 7.372123715652270e-001	 2.016114635159397e+000	 7.416001376457666e+000
 7.159625991906549e-001	 2.023758313100938e+000	 7.305504432609524e+000
 6.946843742800810e-001	 2.031160664631069e+000	 7.197893236777418e+000
 6.733815889011652e-001	 2.038322143897383e+000	 7.094713763457760e+000
 6.520581059077751e-001	 2.045243283919630e+000	 6.998150289707970e+000
 6.307177570770309e-001	 2.051924695319411e+000	 6.910787281512764e+000
 8.533661136810562e-001	 1.998788655973365e+000	 8.049514662016534e+000
 8.320564284685620e-001	 2.007752915048153e+000	 7.947736067711054e+000
 8.106978612825858e-001	 2.016471790325502e+000	 7.840538826067526e+000
 7.892944703037776e-001	 2.024945324908542e+000	 7.729712997092120e+000
 7.678502943396770e-001	 2.033173647371723e+000	 7.617028251391766e+000
 7.463693506863952e-001	 2.041156970752759e+000	 7.504191964717155e+000
 7.248556330373467e-001	 2.048895591484402e+000	 7.392842468385965e+000
 7.033131094408430e-001	 2.056389888268241e+000	 7.284541955831919e+000
 6.817457203082435e-001	 2.063640320892865e+000	 7.180769093395741e+000
 6.601573764742498e-001	 2.070647428998710e+000	 7.083073072702129e+000
 6.385519573108083e-001	 2.077411830791955e+000	 6.994525645121481e+000
 8.638358036243158e-001	 2.023311187566027e+000	 8.129046865464005e+000
 8.422646763493623e-001	 2.032385426415939e+000	 8.025325067670277e+000
 8.206440673828562e-001	 2.041211270929060e+000	 7.916849033609376e+000
 7.989780846940209e-001	 2.049788764737333e+000	 7.805319350234496e+000
 7.772708166412904e-001	 2.058118037992645e+000	 7.692384608148169e+000
 7.555263298077506e-001	 2.066199306346401e+000	 7.579634959940847e+000
 7.337486668842169e-001	 2.074032869868188e+000	 7.468595211280885e+000
 7.119418446017698e-001	 2.081619111905765e+000	 7.360717490868998e+000
 6.901098517154690e-001	 2.088958497888726e+000	 7.257373551000800e+000
 6.682566470408493e-001	 2.096051574078183e+000	 7.159846755535829e+000
 6.463861575446830e-001	 2.102898966264897e+000	 7.070654801331159e+000
 8.743054935675749e-001	 2.047833719158692e+000	 8.194125285271580e+000
 8.524729242301623e-001	 2.057017937783777e+000	 8.089067362447292e+000
 8.305902734831251e-001	 2.065950751532719e+000	 7.980078702003643e+000
 8.086616990842620e-001	 2.074632204566274e+000	 7.868694914410203e+000
 7.866913389428980e-001	 2.083062428613760e+000	 7.756403938608001e+000
 7.646833089290949e-001	 2.091241641940274e+000	 7.644639603719076e+000
 7.426417007310679e-001	 2.099170148252239e+000	 7.534774634951644e+000
 7.205705797626669e-001	 2.106848335543585e+000	 7.428113152876926e+000
 6.984739831226503e-001	 2.114276674884903e+000	 7.325882721530017e+000
 6.763559176073858e-001	 2.121455719157986e+000	 7.229226006445107e+000
 6.542203577784720e-001	 2.128386101738172e+000	 7.139770971341933e+000
 8.847751835106344e-001	 2.072356250751360e+000	 8.248291923658220e+000
 8.626811721107622e-001	 2.081650449151659e+000	 8.142386447784094e+000
 8.405364795831934e-001	 2.090690232136461e+000	 8.033465885717847e+000
 8.183453134743010e-001	 2.099475644395333e+000	 7.922862765720105e+000
 7.961118612443016e-001	 2.108006819235029e+000	 7.811866737547232e+000
 7.738402880502304e-001	 2.116283977534333e+000	 7.701718218521966e+000
 7.515347345777040e-001	 2.124307426636504e+000	 7.593601386562920e+000
 7.291993149233402e-001	 2.132077559181640e+000	 7.488636572450695e+000
 7.068381145295966e-001	 2.139594851881333e+000	 7.387872110585248e+000
 6.844551881736725e-001	 2.146859864238052e+000	 7.292275713801743e+000
 6.620545580119924e-001	 2.153873237211714e+000	 7.202818606719610e+000
 8.952448734532941e-001	 2.096878782344030e+000	 8.295291609900398e+000
 8.728894199909625e-001	 2.106282960519573e+000	 8.188877643448146e+000
 8.504826856828617e-001	 2.115429712740264e+000	 8.080425519724660e+000
 8.280289278639390e-001	 2.124319084224482e+000	 7.971028322813798e+000
 8.055323835453019e-001	 2.132951209856414e+000	 7.861741601855428e+000
 7.829972671709595e-001	 2.141326313128531e+000	 7.753577181204318e+000
 7.604277684239292e-001	 2.149444705020930e+000	 7.647496211186834e+000
 7.378280500835959e-001	 2.157306782819872e+000	 7.544401514886855e+000
 7.152022459361164e-001	 2.164913028877952e+000	 7.445129294124797e+000
 6.925544587395217e-001	 2.172264009318315e+000	 7.350440264812426e+000
 6.698887582450617e-001	 2.179360372685456e+000	 7.261010298122750e+000
 9.057145633953535e-001	 2.121401313936701e+000	 8.339024025674306e+000
 8.830976678705625e-001	 2.130915471887508e+000	 8.232296469323250e+000
 8.604288917819299e-001	 2.140169193344108e+000	 8.124538527109891e+000
 8.377125422529761e-001	 2.149162524053690e+000	 8.016569113284506e+000
 8.149529058456997e-001	 2.157895600477876e+000	 7.909175586747781e+000
 7.921542462910848e-001	 2.166368648722822e+000	 7.803107803904483e+000
 7.693208022695469e-001	 2.174581983405461e+000	 7.699071296175061e+000
 7.464567852432398e-001	 2.182536006458222e+000	 7.597719630807362e+000
 7.235663773420185e-001	 2.190231205874697e+000	 7.499646022182049e+000
 7.006537293047462e-001	 2.197668154398710e+000	 7.405374268583274e+000
 6.777229584774968e-001	 2.204847508159331e+000	 7.315349096368189e+000
 9.161842533366134e-001	 2.145923845529373e+000	 8.383531182945568e+000
 8.933059157493626e-001	 2.155547983255453e+000	 8.276546924093132e+000
 8.703750978801976e-001	 2.164908673947971e+000	 8.169540826548214e+000
 8.473961566412127e-001	 2.174005963882928e+000	 8.063024441281783e+000
 8.243734281452965e-001	 2.182839991099376e+000	 7.957484468282951e+000
 8.013112254104079e-001	 2.191410984317160e+000	 7.853377129743349e+000
 7.782138361143611e-001	 2.199719261790046e+000	 7.751121541900835e+000
 7.550855204020780e-001	 2.207765230096631e+000	 7.651092147466549e+000
 7.319305087471120e-001	 2.215549382871506e+000	 7.553610279989962e+000
 7.087529998691580e-001	 2.223072299479171e+000	 7.458934940113563e+000
 6.855571587091147e-001	 2.230334643633273e+000	 7.367252871390562e+000
 6.072151563781103e-001	 1.975463288904845e+000	 6.639264204570029e+000
 5.866574382233225e-001	 1.981665594387706e+000	 6.556306496827874e+000
 5.660907622939357e-001	 1.987638496108145e+000	 6.473547423928316e+000
 5.455187159444398e-001	 1.993382795332379e+000	 6.391945139614084e+000
 5.249448500593383e-001	 1.998899362722713e+000	 6.311917266691392e+000
 5.043726775313114e-001	 2.004189136910732e+000	 6.232596531342061e+000
 4.838056717963333e-001	 2.009253123036070e+000	 6.152025845278708e+000
 4.632472654263901e-001	 2.014092391253171e+000	 6.069677770784069e+000
 4.427008487803362e-001	 2.018708075208402e+000	 5.984813395589944e+000
 4.221697687133261e-001	 2.023101370489906e+000	 5.896464930569091e+000
 4.016573273451569e-001	 2.027273533052570e+000	 5.803470156175468e+000
 6.150493566104990e-001	 2.000950424375790e+000	 6.720012918165236e+000
 5.942264058136261e-001	 2.007232751087749e+000	 6.641202054170999e+000
 5.733943816702278e-001	 2.013282714303859e+000	 6.559345988334056e+000
 5.525569178183160e-001	 2.019101125628145e+000	 6.475642329093944e+000
 5.317176109553854e-001	 2.024688866956064e+000	 6.390842654161945e+000
 5.108800192969427e-001	 2.030046889029278e+000	 6.305299581570075e+000
 4.900476610927239e-001	 2.035176209955582e+000	 6.219010530999469e+000
 4.692240132012564e-001	 2.040077913696388e+000	 6.131658366515588e+000
 4.484125097233069e-001	 2.044753148524193e+000	 6.042649130709393e+000
 4.276165406946649e-001	 2.049203125452439e+000	 5.951147095566039e+000
 4.068394508385930e-001	 2.053429116640149e+000	 5.856107367203652e+000
 6.228835568435334e-001	 2.026437559847334e+000	 6.819220673520386e+000
 6.017953734045253e-001	 2.032799907788383e+000	 6.736381081458708e+000
 5.806980010470584e-001	 2.038926932500135e+000	 6.650636231917579e+000
 5.595951196926690e-001	 2.044819455924433e+000	 6.563293292601283e+000
 5.384903718518440e-001	 2.050478371189883e+000	 6.475210148224281e+000
 5.173873610629191e-001	 2.055904641148231e+000	 6.386841681578365e+000
 4.962896503893944e-001	 2.061099296875428e+000	 6.298282420947089e+000
 4.752007609763393e-001	 2.066063436139859e+000	 6.209305778710193e+000
 4.541241706664357e-001	 2.070798221840153e+000	 6.119400126042256e+000
 4.330633126761100e-001	 2.075304880415053e+000	 6.027801964770498e+000
 4.120215743320918e-001	 2.079584700227718e+000	 5.933526469785786e+000
 6.307177570770309e-001	 2.051924695319411e+000	 6.910787281512764e+000
 6.093643409958431e-001	 2.058367064489540e+000	 6.825975226959642e+000
 5.880016204242573e-001	 2.064571150696912e+000	 6.738673167633159e+000
 5.666333215673345e-001	 2.070537786221185e+000	 6.650224658438997e+000
 5.452631327485583e-001	 2.076267875424119e+000	 6.561524588448542e+000
 5.238947028290937e-001	 2.081762393267542e+000	 6.473064555430626e+000
 5.025316396862065e-001	 2.087022383795570e+000	 6.384974250289056e+000
 4.811775087515106e-001	 2.092048958583554e+000	 6.297059112840026e+000
 4.598358316096048e-001	 2.096843295156265e+000	 6.208834541694833e+000
 4.385100846575530e-001	 2.101406635377738e+000	 6.119556958076831e+000
 4.172036978255547e-001	 2.105740283815280e+000	 6.028252036283638e+000
 6.385519573108083e-001	 2.077411830791955e+000	 6.994525645121481e+000
 6.169333085874019e-001	 2.083934221191155e+000	 6.909133615205248e+000
 5.953052398016533e-001	 2.090215368894127e+000	 6.821921609801017e+000
 5.736715234421499e-001	 2.096256116518342e+000	 6.734202255321111e+000
 5.520358936453731e-001	 2.102057379658719e+000	 6.646844343760892e+000
 5.304020445953196e-001	 2.107620145387170e+000	 6.560317160625901e+000
 5.087736289830225e-001	 2.112945470715970e+000	 6.474730432159442e+000
 4.871542565266416e-001	 2.118034481027447e+000	 6.389870192943629e+000
 4.655474925526943e-001	 2.122888368472507e+000	 6.305230897645281e+000
 4.439568566388844e-001	 2.127508390340486e+000	 6.220044118708621e+000
 4.223858213188826e-001	 2.131895867402835e+000	 6.133304185261570e+000
 6.463861575446830e-001	 2.102898966264897e+000	 7.070654801331159e+000
 6.245022761790249e-001	 2.109501377893163e+000	 6.985434492212671e+000
 6.026088591790755e-001	 2.115859587091717e+000	 6.899295174063362e+000
 5.807097253169515e-001	 2.121974446815848e+000	 6.813457004086571e+000
 5.588086545421325e-001	 2.127846883893632e+000	 6.728705716881633e+000
 5.369093863614495e-001	 2.133477897507067e+000	 6.645435741474194e+000
 5.150156182797039e-001	 2.138868557636592e+000	 6.563688511140854e+000
 4.931310043016037e-001	 2.144020003471509e+000	 6.483186309984450e+000
 4.712591534955858e-001	 2.148933441788861e+000	 6.403362024364474e+000
 4.494036286199957e-001	 2.153610145303288e+000	 6.323385186355215e+000
 4.275679448119762e-001	 2.158051450990381e+000	 6.242184710498105e+000
 6.542203577784720e-001	 2.128386101738172e+000	 7.139770971341933e+000
 6.320712437705344e-001	 2.135068534595500e+000	 7.054858411360561e+000
 6.099124785563529e-001	 2.141503805289619e+000	 6.970131437542310e+000
 5.877479271915754e-001	 2.147692777113644e+000	 6.886661900913680e+000
 5.655814154386812e-001	 2.153636388128805e+000	 6.805101609925456e+000
 5.434167281273363e-001	 2.159335649627190e+000	 6.725724047331646e+000
 5.212576075761132e-001	 2.164791644557400e+000	 6.648460815655160e+000
 4.991077520762683e-001	 2.170005525915712e+000	 6.572933201507594e+000
 4.769708144381604e-001	 2.174978515105309e+000	 6.498479274729244e+000
 4.548504006007778e-001	 2.179711900266134e+000	 6.424176958490763e+000
 4.327500683047371e-001	 2.184207034577925e+000	 6.348863521256117e+000
 6.620545580119924e-001	 2.153873237211714e+000	 7.202818606719610e+000
 6.396402113617533e-001	 2.160635691298096e+000	 7.117761443850248e+000
 6.172160979333152e-001	 2.167148023487771e+000	 7.034167154123928e+000
 5.947861290658585e-001	 2.173411107411672e+000	 6.952909087404962e+000
 5.723541763348636e-001	 2.179425892364188e+000	 6.874460309125959e+000
 5.499240698928335e-001	 2.185193401747493e+000	 6.798933702044016e+000
 5.274995968721122e-001	 2.190714731478354e+000	 6.726116292792217e+000
 5.050844998505071e-001	 2.195991048360028e+000	 6.655498243436281e+000
 4.826824753802992e-001	 2.201023588421832e+000	 6.586296975591396e+000
 4.602971725811216e-001	 2.205813655229016e+000	 6.517476916012940e+000
 4.379321917970660e-001	 2.210362618165464e+000	 6.447765368031975e+000
 6.698887582450617e-001	 2.179360372685456e+000	 7.261010298122750e+000
 6.472091789525045e-001	 2.186202848000890e+000	 7.174848411733446e+000
 6.245197173097914e-001	 2.192792241686111e+000	 7.091513520353090e+000
 6.018243309396367e-001	 2.199129437709874e+000	 7.011687000429086e+000
 5.791269372305241e-001	 2.205215396599726e+000	 6.935624378935350e+000
 5.564314116577939e-001	 2.211051153867932e+000	 6.863244712221471e+000
 5.337415861675631e-001	 2.216637818399421e+000	 6.794162510644203e+000
 5.110612476241913e-001	 2.221976570804428e+000	 6.727713836649329e+000
 4.883941363218835e-001	 2.227068661738412e+000	 6.662977099387941e+000
 4.657439445609183e-001	 2.231915410191925e+000	 6.598789091564660e+000
 4.431143152888640e-001	 2.236518201752999e+000	 6.533756830419398e+000
 6.777229584774968e-001	 2.204847508159331e+000	 7.315349096368189e+000
 6.547781465426104e-001	 2.211770004703815e+000	 7.227146141671864e+000
 6.318233366856110e-001	 2.218436459884577e+000	 7.142631487840175e+000
 6.088625328127472e-001	 2.224847768008192e+000	 7.062857595267194e+000
 5.858996981255070e-001	 2.231004900835369e+000	 6.987829656649213e+000
 5.629387534220700e-001	 2.236908905988460e+000	 6.917246103113415e+000
 5.399835754623277e-001	 2.242560905320560e+000	 6.850527814594956e+000
 5.170379953971922e-001	 2.247962093248883e+000	 6.786840972579572e+000
 4.941057972627942e-001	 2.253113735055029e+000	 6.725114137988840e+000
 4.711907165400591e-001	 2.258017165154852e+000	 6.664050160909257e+000
 4.482964387800323e-001	 2.262673785340532e+000	 6.602133545881459e+000
 6.855571587091147e-001	 2.230334643633273e+000	 7.367252871390562e+000
 6.623471141318938e-001	 2.237337161406804e+000	 7.275976737763500e+000
 6.391269560606027e-001	 2.244080678083104e+000	 7.188307118452645e+000
 6.159007346850260e-001	 2.250566098306567e+000	 7.106633636194513e+000
 5.926724590196570e-001	 2.256794405071063e+000	 7.030684339513904e+000
 5.694460951855153e-001	 2.262766658109032e+000	 6.959916671877749e+000
 5.462255647562679e-001	 2.268483992241738e+000	 6.893543625250766e+000
 5.230147431693814e-001	 2.273947615693367e+000	 6.830552963517981e+000
 4.998174582029127e-001	 2.279158808371665e+000	 6.769720162612368e+000
 4.766374885184346e-001	 2.284118920117788e+000	 6.709615739516736e+000
 4.534785622704715e-001	 2.288829368928064e+000	 6.648607660165340e+000
 4.016573273451569e-001	 2.027273533052570e+000	 5.803470156175470e+000
 3.811698517285161e-001	 2.031225301503231e+000	 5.711157466267353e+000
 3.607074675331579e-001	 2.034958690876766e+000	 5.624890121179947e+000
 3.402733298862168e-001	 2.038475129610468e+000	 5.543394624493698e+000
 3.198705449804661e-001	 2.041776099945051e+000	 5.465311923262494e+000
 2.995021691400975e-001	 2.044863136261900e+000	 5.389223593609676e+000
 2.791712079452250e-001	 2.047737823409130e+000	 5.313677053708442e+000
 2.588806154148102e-001	 2.050401795018658e+000	 5.237210007471145e+000
 2.386332932476176e-001	 2.052856731816378e+000	 5.158374312797792e+000
 2.184320901207331e-001	 2.055104359927541e+000	 5.075759456995915e+000
 1.982798010451051e-001	 2.057146449179369e+000	 4.988015809204091e+000
 4.068394508385930e-001	 2.053429116640149e+000	 5.856107367203654e+000
 3.860876488384815e-001	 2.057431870223552e+000	 5.762909586262611e+000
 3.653612619854612e-001	 2.061213427235205e+000	 5.676957429970407e+000
 3.446634861136531e-001	 2.064775234541887e+000	 5.597048526790856e+000
 3.239974674914743e-001	 2.068118793507961e+000	 5.521868744130188e+000
 3.033663018753622e-001	 2.071245658311171e+000	 5.450016270308450e+000
 2.827730336229852e-001	 2.074157434247109e+000	 5.380024758218709e+000
 2.622206548656237e-001	 2.076855776024567e+000	 5.310385762773511e+000
 2.417121047393339e-001	 2.079342386053915e+000	 5.239570693262026e+000
 2.212502686744154e-001	 2.081619012730616e+000	 5.166052488833254e+000
 2.008379777426382e-001	 2.083687448715941e+000	 5.088327210726545e+000
 4.120215743320918e-001	 2.079584700227718e+000	 5.933526469785788e+000
 3.910054459484763e-001	 2.083638438943773e+000	 5.841914146780116e+000
 3.700150564377695e-001	 2.087468163593456e+000	 5.758350750859014e+000
 3.490536423410806e-001	 2.091075339473031e+000	 5.681697801236584e+000
 3.281243900024702e-001	 2.094461487070512e+000	 5.610680400114433e+000
 3.072304346106221e-001	 2.097628180360005e+000	 5.543908862752979e+000
 2.863748593007578e-001	 2.100577045084578e+000	 5.479899442672505e+000
 2.655606943164776e-001	 2.103309757029900e+000	 5.417094415521397e+000
 2.447909162311291e-001	 2.105828040290816e+000	 5.353881772546712e+000
 2.240684472282262e-001	 2.108133665533003e+000	 5.288614759900590e+000
 2.033961544403598e-001	 2.110228448251783e+000	 5.219631483466866e+000
 4.172036978255547e-001	 2.105740283815280e+000	 6.028252036283638e+000
 3.959232430584104e-001	 2.109845007663906e+000	 5.940149293802170e+000
 3.746688508900032e-001	 2.113722899951540e+000	 5.860575560974769e+000
 3.534437985684286e-001	 2.117375444403931e+000	 5.788455335111810e+000
 3.322513125133907e-001	 2.120804180632748e+000	 5.722553636786127e+000
 3.110945673458191e-001	 2.124010702408454e+000	 5.661494810505639e+000
 2.899766849784888e-001	 2.126996655921599e+000	 5.603780453219313e+000
 2.689007337673192e-001	 2.129763738034728e+000	 5.547806768441022e+000
 2.478697277229493e-001	 2.132313694527165e+000	 5.491881629434375e+000
 2.268866257821066e-001	 2.134648318334801e+000	 5.434241618256694e+000
 2.059543311382028e-001	 2.136769447787005e+000	 5.373069288826969e+000
 4.223858213188826e-001	 2.131895867402835e+000	 6.133304185261570e+000
 4.008410401681958e-001	 2.136051576383963e+000	 6.050075834576022e+000
 3.793226453420828e-001	 2.139977636309479e+000	 5.975602904292440e+000
 3.578339547956265e-001	 2.143675549334621e+000	 5.908878439599875e+000
 3.363782350241723e-001	 2.147146874194708e+000	 5.848714604531509e+000
 3.149587000808957e-001	 2.150393224456572e+000	 5.793758245322543e+000
 2.935785106561246e-001	 2.153416266758236e+000	 5.742505613674613e+000
 2.722407732180960e-001	 2.156217719039128e+000	 5.693316584938949e+000
 2.509485392147405e-001	 2.158799348763050e+000	 5.644428690001739e+000
 2.297048043359976e-001	 2.161162971136105e+000	 5.593971260948210e+000
 2.085125078360999e-001	 2.163310447321718e+000	 5.539979969686192e+000
 4.275679448119762e-001	 2.158051450990381e+000	 6.242184710498105e+000
 4.057588372777427e-001	 2.162258145103953e+000	 6.164624400623394e+000
 3.839764397939290e-001	 2.166232372667292e+000	 6.095857608666872e+000
 3.622241110226030e-001	 2.169975654265129e+000	 6.034958149500238e+000
 3.405051575347515e-001	 2.173489567756435e+000	 5.980799278356521e+000
 3.188228328157944e-001	 2.176775746504409e+000	 5.932065577316166e+000
 2.971803363336108e-001	 2.179835877594552e+000	 5.887264033250343e+000
 2.755808126687556e-001	 2.182671700043172e+000	 5.844734682597149e+000
 2.540273507064481e-001	 2.185285002998552e+000	 5.802661180102869e+000
 2.325229828898403e-001	 2.187677623937013e+000	 5.759081627730673e+000
 2.110706845339838e-001	 2.189851446856028e+000	 5.711899976624181e+000
 4.327500683047371e-001	 2.184207034577925e+000	 6.348863521256117e+000
 4.106766343869625e-001	 2.188464713823888e+000	 6.277182938290605e+000
 3.886302342454621e-001	 2.192487109025002e+000	 6.214206837180433e+000
 3.666142672492873e-001	 2.196275759195487e+000	 6.159108854199713e+000
 3.446320800450651e-001	 2.199832261317972e+000	 6.110844195752014e+000
 3.226869655504576e-001	 2.203158268552018e+000	 6.068157375542226e+000
 3.007821620108941e-001	 2.206255488430610e+000	 6.029589174332410e+000
 2.789208521192450e-001	 2.209125681046936e+000	 5.993483241324870e+000
 2.571061621980182e-001	 2.211770657233760e+000	 5.957992735828134e+000
 2.353411614435758e-001	 2.214192276737622e+000	 5.921087384536470e+000
 2.136288612317870e-001	 2.216392446390048e+000	 5.880561303867012e+000
 4.379321917970660e-001	 2.210362618165464e+000	 6.447765368031986e+000
 4.155944314957661e-001	 2.214671282543780e+000	 6.381584499712146e+000
 3.932840286966027e-001	 2.218741845382630e+000	 6.323948946118946e+000
 3.710044234756090e-001	 2.222575864125728e+000	 6.274158232469883e+000
 3.487590025550497e-001	 2.226174954879359e+000	 6.231277486278947e+000
 3.265510982848278e-001	 2.229540790599451e+000	 6.194140518621067e+000
 3.043839876879204e-001	 2.232675099266471e+000	 6.161352158766122e+000
 2.822608915695119e-001	 2.235579662050491e+000	 6.131290308387262e+000
 2.601849736893965e-001	 2.238256311468759e+000	 6.102108158855570e+000
 2.381593399971450e-001	 2.240706929538030e+000	 6.071736989262438e+000
 2.161870379294426e-001	 2.242933445923886e+000	 6.037889934149932e+000
 4.431143152888640e-001	 2.236518201752999e+000	 6.533756830419398e+000
 4.205122286040643e-001	 2.240877851263638e+000	 6.472095309598942e+000
 3.979378231472714e-001	 2.244996581740196e+000	 6.418802624474982e+000
 3.753945797014971e-001	 2.248875969055882e+000	 6.373337466217675e+000
 3.528859250646419e-001	 2.252517648440637e+000	 6.334910168995792e+000
 3.304152310188470e-001	 2.255923312646759e+000	 6.302480593294422e+000
 3.079858133646356e-001	 2.259094710102200e+000	 6.274755293128988e+000
 2.856009310195035e-001	 2.262033643053913e+000	 6.250184484193373e+000
 2.632637851805289e-001	 2.264741965703633e+000	 6.226959304833741e+000
 2.409775185504891e-001	 2.267221582338333e+000	 6.203009833131382e+000
 2.187452146268828e-001	 2.269474445457651e+000	 6.176004291772427e+000
 4.482964387800323e-001	 2.262673785340532e+000	 6.602133545881453e+000
 4.254300257117686e-001	 2.267084419983475e+000	 6.543403085537825e+000
 4.025916175973884e-001	 2.271251318097723e+000	 6.492896292204859e+000
 3.797847359268809e-001	 2.275176073985980e+000	 6.450271710623929e+000
 3.570128475737784e-001	 2.278860342001848e+000	 6.414927696056609e+000
 3.342793637524580e-001	 2.282305834693997e+000	 6.385994520855843e+000
 3.115876390409861e-001	 2.285514320937859e+000	 6.362325795270165e+000
 2.889409704691673e-001	 2.288487624057277e+000	 6.342489774223779e+000
 2.663425966713613e-001	 2.291227619938467e+000	 6.324761094035244e+000
 2.437956971035491e-001	 2.293736235138629e+000	 6.307113451522025e+000
 2.213033913240406e-001	 2.296015444991454e+000	 6.287213703178593e+000
 4.534785622704715e-001	 2.288829368928064e+000	 6.648607660165340e+000
 4.303478228187894e-001	 2.293290988703301e+000	 6.590605591524458e+000
 4.072454120468746e-001	 2.297506054455230e+000	 6.540757736542737e+000
 3.841748921516892e-001	 2.301476178916054e+000	 6.498970800162708e+000
 3.611397700823956e-001	 2.305203035563035e+000	 6.464881722792953e+000
 3.381434964856029e-001	 2.308688356741213e+000	 6.437843393228662e+000
 3.151894647169179e-001	 2.311933931773510e+000	 6.416909706021444e+000
 2.922810099184507e-001	 2.314941605060654e+000	 6.400820593804967e+000
 2.694214081618395e-001	 2.317713274173349e+000	 6.387987634499244e+000
 2.466138756562661e-001	 2.320250887939015e+000	 6.376480798704286e+000
 2.238615680208486e-001	 2.322556444525402e+000	 6.364016864463899e+000
 1.982798010451051e-001	 2.057146449179369e+000	 4.988015809204091e+000
 1.781761623850336e-001	 2.058985072062221e+000	 4.902007425636224e+000
 1.581269227520513e-001	 2.060621760190974e+000	 4.823807501319283e+000
 1.381347544218768e-001	 2.062058405639228e+000	 4.751019926716368e+000
 1.182022727019181e-001	 2.063296937449552e+000	 4.681431130139419e+000
 9.833203556797798e-002	 2.064339319933257e+000	 4.613036669462340e+000
 7.852654335463272e-002	 2.065187550979181e+000	 4.544068147900315e+000
 5.878823849825416e-002	 2.065843660373092e+000	 4.473020508618784e+000
 3.911950533160215e-002	 2.066309708129336e+000	 4.398679745737396e+000
 1.952266992886674e-002	 2.066587782836232e+000	 4.320151052346333e+000
 0.000000000000000e+000	 2.066680000016667e+000	 4.236887400154557e+000
 2.008379777426382e-001	 2.083687448715941e+000	 5.088327210726546e+000
 1.804749649069134e-001	 2.085549793239212e+000	 5.013206676292199e+000
 1.601670529465027e-001	 2.087207597675990e+000	 4.946932362933440e+000
 1.399169486144207e-001	 2.088662778511150e+000	 4.887222977953540e+000
 1.197273009603746e-001	 2.089917289675494e+000	 4.831929304296351e+000
 9.960070096278338e-002	 2.090973120823609e+000	 4.779059773330381e+000
 7.953968121516040e-002	 2.091832295620811e+000	 4.726806623269120e+000
 5.954671566582108e-002	 2.092496870040883e+000	 4.673572706780911e+000
 3.962421940982459e-002	 2.092968930676188e+000	 4.617998991873842e+000
 1.977454853201704e-002	 2.093250593061715e+000	 4.558992780968872e+000
 0.000000000000000e+000	 2.093344000014533e+000	 4.495756642957760e+000
 2.033961544403598e-001	 2.110228448251783e+000	 5.219631483466868e+000
 1.827737674290517e-001	 2.112114514415441e+000	 5.153658655297062e+000
 1.622071831412845e-001	 2.113793435160225e+000	 5.097067653063636e+000
 1.416991428073605e-001	 2.115267151382275e+000	 5.047677858725178e+000
 1.212523292192784e-001	 2.116537641900631e+000	 5.003388742536535e+000
 1.008693663580645e-001	 2.117606921713151e+000	 4.962204161328010e+000
 8.055281907616166e-002	 2.118477040261631e+000	 4.922257523405569e+000
 6.030519283382063e-002	 2.119150079707867e+000	 4.881837893541619e+000
 4.012893348839219e-002	 2.119628153222234e+000	 4.839417089622859e+000
 2.002642713537082e-002	 2.119913403286397e+000	 4.793677800942620e+000
 0.000000000000000e+000	 2.120008000011600e+000	 4.743542723815447e+000
 2.059543311382028e-001	 2.136769447787005e+000	 5.373069288826969e+000
 1.850725699513690e-001	 2.138679235591034e+000	 5.314981386868623e+000
 1.642473133363036e-001	 2.140379272643812e+000	 5.266448693818322e+000
 1.434813370005905e-001	 2.141871524252747e+000	 5.225382913642740e+000
 1.227773574785133e-001	 2.143157994125120e+000	 5.189722097247632e+000
 1.021380317537000e-001	 2.144240722602052e+000	 5.157453388545704e+000
 8.156595693751680e-002	 2.145121784901822e+000	 5.126636938870780e+000
 6.106367000214408e-002	 2.145803289374231e+000	 5.095431074322428e+000
 4.063364756721848e-002	 2.146287375767672e+000	 5.062118776104353e+000
 2.027830573887717e-002	 2.146576213510476e+000	 5.025135509748949e+000
 0.000000000000000e+000	 2.146672000008066e+000	 4.983098400531260e+000
 2.085125078360999e-001	 2.163310447321718e+000	 5.539979969686192e+000
 1.873713724737861e-001	 2.165243956766109e+000	 5.488944852372684e+000
 1.662874435314673e-001	 2.166965110126885e+000	 5.447413602707031e+000
 1.452635311940046e-001	 2.168475897122717e+000	 5.413387892498755e+000
 1.243023857379632e-001	 2.169778346349123e+000	 5.384840016269681e+000
 1.034066971495685e-001	 2.170874523490486e+000	 5.359733784232796e+000
 8.257909479910620e-002	 2.171766529541564e+000	 5.336046907444555e+000
 6.182214717068282e-002	 2.172456499040166e+000	 5.311794972104781e+000
 4.113836164621705e-002	 2.172946598312695e+000	 5.285057072640355e+000
 2.053018434248521e-002	 2.173239023734152e+000	 5.254003146256777e+000
 0.000000000000000e+000	 2.173336000004133e+000	 5.216923008660160e+000
 2.110706845339838e-001	 2.189851446856028e+000	 5.711899976624181e+000
 1.896701749962240e-001	 2.191808677940790e+000	 5.667471055554445e+000
 1.683275737266829e-001	 2.193550947609579e+000	 5.632405118623703e+000
 1.470457253874974e-001	 2.195080269992333e+000	 5.604797668351488e+000
 1.258274139975120e-001	 2.196398698572798e+000	 5.582656893919945e+000
 1.046753625455484e-001	 2.197508324378622e+000	 5.563922385948723e+000
 8.359223266081020e-002	 2.198411274181037e+000	 5.546485690774262e+000
 6.258062433932812e-002	 2.199109708705859e+000	 5.528212814953947e+000
 4.164307572530141e-002	 2.199605820857498e+000	 5.506968760340104e+000
 2.078206294614406e-002	 2.199901833957623e+000	 5.480644140141862e+000
 0.000000000000000e+000	 2.200000000000000e+000	 5.447183878898422e+000
 2.136288612317870e-001	 2.216392446390048e+000	 5.880561303866999e+000
 1.919689775186034e-001	 2.218373399115199e+000	 5.842634004982911e+000
 1.703677039218575e-001	 2.220136785092031e+000	 5.813972239356104e+000
 1.488279195809628e-001	 2.221684642861741e+000	 5.792775648000233e+000
 1.273524422570437e-001	 2.223019050796304e+000	 5.777096181560586e+000
 1.059440279415185e-001	 2.224142125266629e+000	 5.764854286443185e+000
 8.460537052250917e-002	 2.225056018820422e+000	 5.753857302734900e+000
 6.333910150797127e-002	 2.225762918371497e+000	 5.741820199801296e+000
 4.214778980438517e-002	 2.226265043402275e+000	 5.726388741835496e+000
 2.103394154980284e-002	 2.226564644181086e+000	 5.705165142495887e+000
 0.000000000000000e+000	 2.226663999995867e+000	 5.675736215651336e+000
 2.161870379294426e-001	 2.242933445923886e+000	 6.037889934149924e+000
 1.942677800408450e-001	 2.244938120289457e+000	 6.006659620563587e+000
 1.724078341168983e-001	 2.246722622574373e+000	 5.984771686231023e+000
 1.506101137742950e-001	 2.248289015731089e+000	 5.970546900330236e+000
 1.288774705164421e-001	 2.249639403019801e+000	 5.962095294190189e+000
 1.072126933373572e-001	 2.250775926154679e+000	 5.957329441908477e+000
 8.561850838408341e-002	 2.251700763459897e+000	 5.953980351478583e+000
 6.409757867650366e-002	 2.252416128037271e+000	 5.949616108997683e+000
 4.265250388338186e-002	 2.252924265947222e+000	 5.941663381434052e+000
 2.128582015341064e-002	 2.253227454404740e+000	 5.927431846869379e+000
 0.000000000000000e+000	 2.253327999991934e+000	 5.904141564243110e+000
 2.187452146268828e-001	 2.269474445457651e+000	 6.176004291772427e+000
 1.965665825628697e-001	 2.271502841463688e+000	 6.151925570337913e+000
 1.744479643117127e-001	 2.273308460056742e+000	 6.137569210050796e+000
 1.523923079673883e-001	 2.274893388600523e+000	 6.131401025623288e+000
 1.304024987755913e-001	 2.276259755243449e+000	 6.131610146132823e+000
 1.084813587329433e-001	 2.277409727042943e+000	 6.136118985699502e+000
 8.663164624541336e-002	 2.278345508099645e+000	 6.142596251362056e+000
 6.485605584481653e-002	 2.279069337703367e+000	 6.148473148995629e+000
 4.315721796220502e-002	 2.279583488492531e+000	 6.150962907313440e+000
 2.153769875691660e-002	 2.279890264628787e+000	 6.147083699762680e+000
 0.000000000000000e+000	 2.279991999988401e+000	 6.133684982307472e+000
 2.213033913240406e-001	 2.296015444991454e+000	 6.287213703178583e+000
 1.988653850845983e-001	 2.298067562638014e+000	 6.270961043210133e+000
 1.764880945062078e-001	 2.299894297539273e+000	 6.265240751158791e+000
 1.541745021601368e-001	 2.301497761470192e+000	 6.268694786796957e+000
 1.319275270343750e-001	 2.302880107467407e+000	 6.279619345835380e+000
 1.097500241281552e-001	 2.304043527931590e+000	 6.295971087534833e+000
 8.764478410637930e-002	 2.304990252739845e+000	 6.315376855734645e+000
 6.561453301280122e-002	 2.305722547369975e+000	 6.335147074105738e+000
 4.366193204076821e-002	 2.306242711038399e+000	 6.352292951664237e+000
 2.178957736026983e-002	 2.306553074853421e+000	 6.363547590431943e+000
 0.000000000000000e+000	 2.306655999985467e+000	 6.365391020213465e+000
 2.238615680208486e-001	 2.322556444525402e+000	 6.364016864463899e+000
 2.011641876059516e-001	 2.324632283812556e+000	 6.356446462728125e+000
 1.785282247002906e-001	 2.326480135022100e+000	 6.360773465307799e+000
 1.559566963524346e-001	 2.328102134340242e+000	 6.375854521611835e+000
 1.334525552926772e-001	 2.329500459691833e+000	 6.400128077042799e+000
 1.110186895228716e-001	 2.330677328820790e+000	 6.431616394541423e+000
 8.865792196686158e-002	 2.331634997380677e+000	 6.467931556918041e+000
 6.637301018034907e-002	 2.332375757037283e+000	 6.506285652511525e+000
 4.416664611898502e-002	 2.332901933585020e+000	 6.543505297725814e+000
 2.204145596341943e-002	 2.333215885078842e+000	 6.576050601654215e+000
 0.000000000000000e+000	 2.333319999983334e+000	 6.600038605793851e+000
 2.333319999983334e+000	 0.000000000000000e+000	 1.164456307778720e+001
 2.333215885078843e+000	 2.204145596341877e-002	 1.160321714061750e+001
 2.332901933585021e+000	 4.416664611898442e-002	 1.158298358822552e+001
 2.332375757037283e+000	 6.637301018034854e-002	 1.157914082889134e+001
 2.331634997380677e+000	 8.865792196686113e-002	 1.158715199825629e+001
 2.330677328820791e+000	 1.110186895228712e-001	 1.160267658009144e+001
 2.329500459691833e+000	 1.334525552926768e-001	 1.162158088430322e+001
 2.328102134340243e+000	 1.559566963524343e-001	 1.163994738856703e+001
 2.326480135022100e+000	 1.785282247002905e-001	 1.165408297527893e+001
 2.324632283812555e+000	 2.011641876059514e-001	 1.166052610790002e+001
 2.322556444525402e+000	 2.238615680208485e-001	 1.165605300319437e+001
 2.359987999982150e+000	 0.000000000000000e+000	 1.157652208783020e+001
 2.359882695126717e+000	 2.229337235189980e-002	 1.154037942385869e+001
 2.359565155415852e+000	 4.467143591148032e-002	 1.152496656931129e+001
 2.359032965086723e+000	 6.713160113034043e-002	 1.152549798389834e+001
 2.358283739133689e+000	 8.967121181265773e-002	 1.153740124321819e+001
 2.357315125180360e+000	 1.122875452358524e-001	 1.155632798256648e+001
 2.356124805369035e+000	 1.349778123275370e-001	 1.157816354377297e+001
 2.354710498265832e+000	 1.577391579000762e-001	 1.159903533591740e+001
 2.353069960779785e+000	 1.805686609440348e-001	 1.161531994705283e+001
 2.351200990094103e+000	 2.034633349817420e-001	 1.162364905762813e+001
 2.349101425607677e+000	 2.264201284821454e-001	 1.162091421990936e+001
 2.386655999981866e+000	 0.000000000000000e+000	 1.152189974750288e+001
 2.386549505175482e+000	 2.254528874017717e-002	 1.148904530335385e+001
 2.386228377247541e+000	 4.517622570362981e-002	 1.147668153484279e+001
 2.385690173136972e+000	 6.789019207989577e-002	 1.147995555490961e+001
 2.384932480887448e+000	 9.068450165797151e-002	 1.149425765906546e+001
 2.383952921540606e+000	 1.135564009483399e-001	 1.151523151072863e+001
 2.382749151046835e+000	 1.365030693619190e-001	 1.153878286592380e+001
 2.381318862191934e+000	 1.595216194472728e-001	 1.156108685306970e+001
 2.379659786537899e+000	 1.826090971873751e-001	 1.157859385089018e+001
 2.377769696375999e+000	 2.057624823571690e-001	 1.158803402229744e+001
 2.375646406690223e+000	 2.289786889431086e-001	 1.158642057695164e+001
 2.413323999982383e+000	 0.000000000000000e+000	 1.148087642816056e+001
 2.413216315225037e+000	 2.279720512830178e-002	 1.144957386638272e+001
 2.412891599079998e+000	 4.568101549551951e-002	 1.143863273508386e+001
 2.412347381187954e+000	 6.864878302912363e-002	 1.144313214957214e+001
 2.411581222641890e+000	 9.169779150292325e-002	 1.145842624355418e+001
 2.410590717901479e+000	 1.148252566604571e-001	 1.148015350615659e+001
 2.409373496725197e+000	 1.380283263959423e-001	 1.150424448466938e+001
 2.407927226118532e+000	 1.613040809941355e-001	 1.152692787404950e+001
 2.406249612296439e+000	 1.846495334304124e-001	 1.154473504262190e+001
 2.404338402658252e+000	 2.080616297323231e-001	 1.155450305955057e+001
 2.402191387773060e+000	 2.315372494038214e-001	 1.155337630583654e+001
 2.439991999983599e+000	 0.000000000000000e+000	 1.145387163604863e+001
 2.439883125275287e+000	 2.304912151632456e-002	 1.142253935604765e+001
 2.439554820913136e+000	 4.618580528723602e-002	 1.141151538712451e+001
 2.439004589239588e+000	 6.940737397813325e-002	 1.141581299297305e+001
 2.438229964396952e+000	 9.271108134763356e-002	 1.143075415281388e+001
 2.437228514262930e+000	 1.160941123723274e-001	 1.145197795165705e+001
 2.435997842404090e+000	 1.395535834297265e-001	 1.147544715213346e+001
 2.434535590045608e+000	 1.630865425407755e-001	 1.149745297471328e+001
 2.432839438055403e+000	 1.866899696732476e-001	 1.151461814267413e+001
 2.430907108940868e+000	 2.103607771072954e-001	 1.152389826571174e+001
 2.428736368856203e+000	 2.340958098643674e-001	 1.152258165368928e+001
 2.466659999985416e+000	 0.000000000000000e+000	 1.144153108541178e+001
 2.466549935326134e+000	 2.330103790429640e-002	 1.140871890637862e+001
 2.466218042746860e+000	 4.669059507886593e-002	 1.139620407905596e+001
 2.465661797291797e+000	 7.016596492703370e-002	 1.139893901157790e+001
 2.464878706152569e+000	 9.372437119222318e-002	 1.141222047938314e+001
 2.463866310624908e+000	 1.173629680840743e-001	 1.143169696138467e+001
 2.462622188083482e+000	 1.410788404633911e-001	 1.145337396250327e+001
 2.461143953973147e+000	 1.648690040873041e-001	 1.147361735565011e+001
 2.459429263814787e+000	 1.887304059159818e-001	 1.148915480698944e+001
 2.457475815223860e+000	 2.126599244821766e-001	 1.149707536734340e+001
 2.455281349939666e+000	 2.366543703248298e-001	 1.149482733168094e+001
 2.493327999987732e+000	 0.000000000000000e+000	 1.144471460118242e+001
 2.493216745377482e+000	 2.355295429226825e-002	 1.140908106488967e+001
 2.492881264581083e+000	 4.719538487049581e-002	 1.139374191980373e+001
 2.492319005344500e+000	 7.092455587593409e-002	 1.139359662123497e+001
 2.491527447908675e+000	 9.473766103681276e-002	 1.140392669278096e+001
 2.490504106987368e+000	 1.186318237958211e-001	 1.142040189189710e+001
 2.489246533763340e+000	 1.426040974970557e-001	 1.143908415501444e+001
 2.487752317901132e+000	 1.666514656338327e-001	 1.145642936206406e+001
 2.486019089574589e+000	 1.907708421587161e-001	 1.146928699229992e+001
 2.484044521507234e+000	 2.149590718570579e-001	 1.147489776390929e+001
 2.481826331023469e+000	 2.392129307852923e-001	 1.147088937056212e+001
 2.519995999990449e+000	 0.000000000000000e+000	 1.146448478979033e+001
 2.519883555429231e+000	 2.380487068029100e-002	 1.142477504425645e+001
 2.519544486415716e+000	 4.770017466221226e-002	 1.140533037938462e+001
 2.518976213397623e+000	 7.168314682494364e-002	 1.140100816708681e+001
 2.518176189665208e+000	 9.575095088152301e-002	 1.140708769353225e+001
 2.517141903350260e+000	 1.199006795076914e-001	 1.141927502814877e+001
 2.515870879443631e+000	 1.441293545308398e-001	 1.143370545316221e+001
 2.514360681829545e+000	 1.684339271804727e-001	 1.144694350085987e+001
 2.512608915334808e+000	 1.928112784015512e-001	 1.145598067913204e+001
 2.510613227791001e+000	 2.172582192320301e-001	 1.145823098812236e+001
 2.508371312107629e+000	 2.417714912458381e-001	 1.145152435313837e+001
 2.546663999993466e+000	 0.000000000000000e+000	 1.150209642179139e+001
 2.546550365481286e+000	 2.405678706841556e-002	 1.145712064966521e+001
 2.546207708250667e+000	 4.820496445410189e-002	 1.143231976897725e+001
 2.545633421451083e+000	 7.244173777417143e-002	 1.142252296760703e+001
 2.544824931422100e+000	 9.676424072647460e-002	 1.142302343568456e+001
 2.543779699713533e+000	 1.211695352198085e-001	 1.142958180227649e+001
 2.542495225124322e+000	 1.456546115648631e-001	 1.143842690083635e+001
 2.540969045758369e+000	 1.702163887273352e-001	 1.144625391848388e+001
 2.539198741095438e+000	 1.948517146445884e-001	 1.145022001898893e+001
 2.537181934075167e+000	 2.195573666071841e-001	 1.144793755336330e+001
 2.534916293192159e+000	 2.443300517065508e-001	 1.143746499605454e+001
 2.573331999996682e+000	 0.000000000000000e+000	 1.155898647467681e+001
 2.573217175533550e+000	 2.430870345669286e-002	 1.150759883282317e+001
 2.572870930085850e+000	 4.870975424625129e-002	 1.147620031439031e+001
 2.572290629504803e+000	 7.320032872372663e-002	 1.145960891893375e+001
 2.571473673179289e+000	 9.777753057178830e-002	 1.145315107656947e+001
 2.570417496077141e+000	 1.224383909322958e-001	 1.145266350652872e+001
 2.569119570805381e+000	 1.471798685992448e-001	 1.145449215932770e+001
 2.567577409687589e+000	 1.719988502745317e-001	 1.145548830609665e+001
 2.565788566856480e+000	 1.968921508879286e-001	 1.145300187494003e+001
 2.563750640359744e+000	 2.218565139826109e-001	 1.144487216008783e+001
 2.561461274277079e+000	 2.468886121675139e-001	 1.142941605554873e+001
 2.600000000000000e+000	 0.000000000000000e+000	 1.163676478846365e+001
 2.599883985585925e+000	 2.456061984517381e-002	 1.157784282763246e+001
 2.599534151921171e+000	 4.921454403874705e-002	 1.153859378032756e+001
 2.598947837558707e+000	 7.395891967371836e-002	 1.151384461927322e+001
 2.598122414936712e+000	 9.879082041758469e-002	 1.149897761596014e+001
 2.597055292441034e+000	 1.237072466452768e-001	 1.148993046485952e+001
 2.595743916486777e+000	 1.487051256341050e-001	 1.148319323212060e+001
 2.594185773617187e+000	 1.737813118221734e-001	 1.147580220139550e+001
 2.592378392617928e+000	 1.989325871316728e-001	 1.146533072737143e+001
 2.590319346644739e+000	 2.241556613584015e-001	 1.144987723544934e+001
 2.588006255362404e+000	 2.494471726288108e-001	 1.142805053391493e+001
 2.322556444525402e+000	 2.238615680208485e-001	 1.165605300319437e+001
 2.320250887939015e+000	 2.466138756562646e-001	 1.165231448164306e+001
 2.317713274173350e+000	 2.694214081618383e-001	 1.166081853618273e+001
 2.314941605060655e+000	 2.922810099184496e-001	 1.167847430152282e+001
 2.311933931773510e+000	 3.151894647169171e-001	 1.170240730379281e+001
 2.308688356741215e+000	 3.381434964856024e-001	 1.172996173350273e+001
 2.305203035563035e+000	 3.611397700823951e-001	 1.175870234685134e+001
 2.301476178916054e+000	 3.841748921516889e-001	 1.178641613179269e+001
 2.297506054455230e+000	 4.072454120468744e-001	 1.181111388376504e+001
 2.293290988703300e+000	 4.303478228187894e-001	 1.183103184341570e+001
 2.288829368928065e+000	 4.534785622704717e-001	 1.184463355491159e+001
 2.349101425607677e+000	 2.264201284821454e-001	 1.162091421990936e+001
 2.346769518335254e+000	 2.494324769776625e-001	 1.161860197294064e+001
 2.344202901653812e+000	 2.725006815198410e-001	 1.162800909226930e+001
 2.341399554558111e+000	 2.956215504233460e-001	 1.164611433827782e+001
 2.338357505947168e+000	 3.187918307202851e-001	 1.167012448822901e+001
 2.335074836562539e+000	 3.420082088961281e-001	 1.169747480399884e+001
 2.331549680923442e+000	 3.652673116907453e-001	 1.172582907749910e+001
 2.327780229256405e+000	 3.885657069651762e-001	 1.175307940552141e+001
 2.323764729417043e+000	 4.118999046346668e-001	 1.177734585504777e+001
 2.319501488801561e+000	 4.352663576684167e-001	 1.179697618824023e+001
 2.314988876245497e+000	 4.586614631563876e-001	 1.181054582321172e+001
 2.375646406690223e+000	 2.289786889431086e-001	 1.158642057695164e+001
 2.373288148731701e+000	 2.522510782987388e-001	 1.158504171794722e+001
 2.370692529134423e+000	 2.755799548775168e-001	 1.159494138318628e+001
 2.367857504055670e+000	 2.989620909278955e-001	 1.161316395658202e+001
 2.364781080120887e+000	 3.223941967232737e-001	 1.163699344650630e+001
 2.361461316383892e+000	 3.458729213062329e-001	 1.166395200898048e+001
 2.357896326283851e+000	 3.693948532986260e-001	 1.169179799671854e+001
 2.354084279596735e+000	 3.929565217781409e-001	 1.171852370213843e+001
 2.350023404378815e+000	 4.165543972218822e-001	 1.174235297263908e+001
 2.345711988899768e+000	 4.401848925174143e-001	 1.176173888538282e+001
 2.341148383562865e+000	 4.638443640416252e-001	 1.177536167638902e+001
 2.402191387773060e+000	 2.315372494038214e-001	 1.155337630583655e+001
 2.399806779128375e+000	 2.550696796195738e-001	 1.155240913595862e+001
 2.397182156615205e+000	 2.786592282349473e-001	 1.156234981389960e+001
 2.394315453553344e+000	 3.023026314321842e-001	 1.158030793507133e+001
 2.391204654294674e+000	 3.259965627259769e-001	 1.160364430806563e+001
 2.387847796205268e+000	 3.497376337160197e-001	 1.162996738186821e+001
 2.384242971644243e+000	 3.735223949061501e-001	 1.165712914576624e+001
 2.380388329937012e+000	 3.973473365907070e-001	 1.168322068756697e+001
 2.376282079340507e+000	 4.212088898086550e-001	 1.170656760684559e+001
 2.371922488997865e+000	 4.451034273659249e-001	 1.172572548970260e+001
 2.367307890880100e+000	 4.690272649263335e-001	 1.173947565978370e+001
 2.428736368856203e+000	 2.340958098643674e-001	 1.152258165368927e+001
 2.426325409525294e+000	 2.578882809402480e-001	 1.152145210017845e+001
 2.423671784096173e+000	 2.817385015922140e-001	 1.153091838250370e+001
 2.420773403051146e+000	 3.056431719362983e-001	 1.154815851709959e+001
 2.417628228468532e+000	 3.295989287284878e-001	 1.157061329995135e+001
 2.414234276026662e+000	 3.536023461255909e-001	 1.159598047393315e+001
 2.410589617004602e+000	 3.776499365134309e-001	 1.162220831421609e+001
 2.406692380277210e+000	 4.017381514029982e-001	 1.164748883604125e+001
 2.402540754302073e+000	 4.258633823951186e-001	 1.167025084122586e+001
 2.398132989095801e+000	 4.500219622140912e-001	 1.168915303039432e+001
 2.393467398197138e+000	 4.742101658106621e-001	 1.170307741694981e+001
 2.455281349939666e+000	 2.366543703248298e-001	 1.149482733168094e+001
 2.452844039922479e+000	 2.607068822608415e-001	 1.149288627167956e+001
 2.450161411577347e+000	 2.848177749493984e-001	 1.150127692155479e+001
 2.447231352549092e+000	 3.089837124403242e-001	 1.151725258567034e+001
 2.444051802642469e+000	 3.332012947309001e-001	 1.153834088592660e+001
 2.440620755848069e+000	 3.574670585350495e-001	 1.156233549250528e+001
 2.436936262364911e+000	 3.817774781205811e-001	 1.158728721645190e+001
 2.432996430617297e+000	 4.061289662151379e-001	 1.161149468830855e+001
 2.428799429263472e+000	 4.305178749814070e-001	 1.163349486009943e+001
 2.424343489193518e+000	 4.549404970620560e-001	 1.165205357951359e+001
 2.419626905513916e+000	 4.793930666947602e-001	 1.166615649493734e+001
 2.481826331023469e+000	 2.392129307852923e-001	 1.147088937056212e+001
 2.479362670319949e+000	 2.635254835814350e-001	 1.146739079627745e+001
 2.476651039058744e+000	 2.878970483065823e-001	 1.147399765847252e+001
 2.473689302047192e+000	 3.123242529443479e-001	 1.148804911374378e+001
 2.470475376816489e+000	 3.368036607333074e-001	 1.150717013722191e+001
 2.467007235669487e+000	 3.613317709444981e-001	 1.152926062682343e+001
 2.463282907725154e+000	 3.859050197277141e-001	 1.155248381136157e+001
 2.459300480957246e+000	 4.105197810272502e-001	 1.157525420793942e+001
 2.455058104224664e+000	 4.351723675676544e-001	 1.159622538821744e+001
 2.450553989290962e+000	 4.598590319099618e-001	 1.161427782565330e+001
 2.445786412830364e+000	 4.845759675787775e-001	 1.162850710644842e+001
 2.508371312107629e+000	 2.417714912458381e-001	 1.145152435313837e+001
 2.505881300717724e+000	 2.663440849021089e-001	 1.144560433742944e+001
 2.503140666540383e+000	 2.909763216638469e-001	 1.144959207137358e+001
 2.500147251545462e+000	 3.156647934484556e-001	 1.146092686951904e+001
 2.496898950990597e+000	 3.404060267358030e-001	 1.147734531775604e+001
 2.493393715490908e+000	 3.651964833540393e-001	 1.149686754762599e+001
 2.489629553085316e+000	 3.900325613349430e-001	 1.151778275462285e+001
 2.485604531297027e+000	 4.149105958394588e-001	 1.153863422847759e+001
 2.481316779185606e+000	 4.398268601539945e-001	 1.155820417872712e+001
 2.476764489388081e+000	 4.647775667579516e-001	 1.157549865238672e+001
 2.471945920146419e+000	 4.897588684628632e-001	 1.158973285205968e+001
 2.534916293192159e+000	 2.443300517065508e-001	 1.143746499605454e+001
 2.532399931115824e+000	 2.691626862229434e-001	 1.142812142052886e+001
 2.529630294022282e+000	 2.940555950212741e-001	 1.142850801868032e+001
 2.526605201043914e+000	 3.190053339527336e-001	 1.143618235799918e+001
 2.523322525164801e+000	 3.440083927384808e-001	 1.144901066810658e+001
 2.519780195312328e+000	 3.690611957637762e-001	 1.146515106774450e+001
 2.515976198445377e+000	 3.941601029423807e-001	 1.148303597386045e+001
 2.511908581636609e+000	 4.193014106518873e-001	 1.150135398476955e+001
 2.507575454146253e+000	 4.444813527405612e-001	 1.151903154588933e+001
 2.502974989484819e+000	 4.696961016061681e-001	 1.153521472112707e+001
 2.498105427462015e+000	 4.949417693471666e-001	 1.154925140543719e+001
 2.561461274277079e+000	 2.468886121675139e-001	 1.142941605554874e+001
 2.558918561514267e+000	 2.719812875440190e-001	 1.141548906600305e+001
 2.556119921504460e+000	 2.971348683789455e-001	 1.141112712264304e+001
 2.553063150542562e+000	 3.223458744572680e-001	 1.141402798169835e+001
 2.549746099339105e+000	 3.476107587414337e-001	 1.142220937381200e+001
 2.546166675133744e+000	 3.729259081738114e-001	 1.143398895202022e+001
 2.542322843805324e+000	 3.982876445501404e-001	 1.144796335775917e+001
 2.538212631975964e+000	 4.236922254646595e-001	 1.146298672236413e+001
 2.533834129106567e+000	 4.491358453274884e-001	 1.147814893930059e+001
 2.529185489581119e+000	 4.746146364547537e-001	 1.149275405808063e+001
 2.524264934777087e+000	 5.001246702318374e-001	 1.150629916422617e+001
 2.588006255362404e+000	 2.494471726288108e-001	 1.142805053391493e+001
 2.585437191913076e+000	 2.747998888654161e-001	 1.140820369047987e+001
 2.582609548986935e+000	 3.002141417369426e-001	 1.139776238854469e+001
 2.579521100041420e+000	 3.256864149621452e-001	 1.139459040475590e+001
 2.576169673513514e+000	 3.512131247447560e-001	 1.139688270476885e+001
 2.572553154955150e+000	 3.767906205842477e-001	 1.140314186582017e+001
 2.568669489165140e+000	 4.024151861583354e-001	 1.141215355095015e+001
 2.564516682315065e+000	 4.280830402778992e-001	 1.142296137937736e+001
 2.560092804066503e+000	 4.537903379149099e-001	 1.143484155663827e+001
 2.555395989676932e+000	 4.795331713038519e-001	 1.144727764499860e+001
 2.550424442091569e+000	 5.053075711170252e-001	 1.145993586907881e+001
 2.288829368928065e+000	 4.534785622704717e-001	 1.184463355491159e+001
 2.284118920117788e+000	 4.766374885184339e-001	 1.185771033389950e+001
 2.279158808371665e+000	 4.998174582029122e-001	 1.187581782381781e+001
 2.273947615693367e+000	 5.230147431693809e-001	 1.189738942190845e+001
 2.268483992241738e+000	 5.462255647562676e-001	 1.192105857253853e+001
 2.262766658109032e+000	 5.694460951855148e-001	 1.194566463357709e+001
 2.256794405071064e+000	 5.926724590196568e-001	 1.197026004026605e+001
 2.250566098306568e+000	 6.159007346850260e-001	 1.199411892768512e+001
 2.244080678083104e+000	 6.391269560606029e-001	 1.201674736587878e+001
 2.237337161406804e+000	 6.623471141318938e-001	 1.203789535273484e+001
 2.230334643633272e+000	 6.855571587091147e-001	 1.206079267804666e+001
 2.314988876245497e+000	 4.586614631563876e-001	 1.181054582321172e+001
 2.310224590735523e+000	 4.820850775934856e-001	 1.182356291260238e+001
 2.305207788840002e+000	 5.055299759769891e-001	 1.184123509167575e+001
 2.299937036356030e+000	 5.289923875425029e-001	 1.186200428842887e+001
 2.294410968014828e+000	 5.524684904413270e-001	 1.188450423982053e+001
 2.288628289280320e+000	 5.759544131469158e-001	 1.190756495200732e+001
 2.282587778119268e+000	 5.994462359286034e-001	 1.193021859141925e+001
 2.276288286740297e+000	 6.229399923922245e-001	 1.195170698617228e+001
 2.269728743299058e+000	 6.464316710871187e-001	 1.197149090982262e+001
 2.262908153566841e+000	 6.699172171789138e-001	 1.198935616849897e+001
 2.255825602559877e+000	 6.933925341873449e-001	 1.201174606814916e+001
 2.341148383562865e+000	 4.638443640416252e-001	 1.177536167638903e+001
 2.336330261353183e+000	 4.875326666678163e-001	 1.178842239846975e+001
 2.331256769308257e+000	 5.112424937503096e-001	 1.180576147924031e+001
 2.325926457018605e+000	 5.349700319148382e-001	 1.182582691846728e+001
 2.320337943787829e+000	 5.587114161255758e-001	 1.184724771603110e+001
 2.314489920451515e+000	 5.824627311074864e-001	 1.186883678873097e+001
 2.308381151167378e+000	 6.062200128367060e-001	 1.188959546335644e+001
 2.302010475173931e+000	 6.299792500985685e-001	 1.190871974524559e+001
 2.295376808514920e+000	 6.537363861127733e-001	 1.192560855356576e+001
 2.288479145726790e+000	 6.774873202250679e-001	 1.194099377091732e+001
 2.281316561486398e+000	 7.012279096647085e-001	 1.196329739808703e+001
 2.367307890880100e+000	 4.690272649263335e-001	 1.173947565978371e+001
 2.362435931970693e+000	 4.929802557415793e-001	 1.175267427647895e+001
 2.357305749776348e+000	 5.169550115230278e-001	 1.176976113231868e+001
 2.351915877681004e+000	 5.409476762865410e-001	 1.178919047881502e+001
 2.346264919560645e+000	 5.649543418091654e-001	 1.180958409201499e+001
 2.340351551622521e+000	 5.889710490673757e-001	 1.182973249854356e+001
 2.334174524215299e+000	 6.129937897441083e-001	 1.184859793589154e+001
 2.327732663607379e+000	 6.370185078041980e-001	 1.186531926727957e+001
 2.321024873730600e+000	 6.610411011377030e-001	 1.187921906292068e+001
 2.314050137886562e+000	 6.850574232704917e-001	 1.189321577882240e+001
 2.306807520412753e+000	 7.090632851413388e-001	 1.191567619209953e+001
 2.393467398197138e+000	 4.742101658106621e-001	 1.170307741694981e+001
 2.388541602587979e+000	 4.984278448149280e-001	 1.171648436353770e+001
 2.383354730244194e+000	 5.226675292952987e-001	 1.173336613084435e+001
 2.377905298343142e+000	 5.469253206577651e-001	 1.175218604938108e+001
 2.372191895333188e+000	 5.711972674922479e-001	 1.177155872898263e+001
 2.366213182793248e+000	 5.954793670267321e-001	 1.179024943642485e+001
 2.359967897262937e+000	 6.197675666509558e-001	 1.180717537830453e+001
 2.353454852040546e+000	 6.440577655092541e-001	 1.182140913207929e+001
 2.346672938946007e+000	 6.683458161620451e-001	 1.183221206443233e+001
 2.339621130046071e+000	 6.926275263153184e-001	 1.184601660425267e+001
 2.332298479338855e+000	 7.168986606173690e-001	 1.186886145719368e+001
 2.419626905513916e+000	 4.793930666947602e-001	 1.166615649493734e+001
 2.414647273204966e+000	 5.038754338880156e-001	 1.167980487000450e+001
 2.409403710711709e+000	 5.283800470672767e-001	 1.169648378874099e+001
 2.403894719004927e+000	 5.529029650286648e-001	 1.171467114633826e+001
 2.398118871105364e+000	 5.774401931749748e-001	 1.173297699266482e+001
 2.392074813963600e+000	 6.019876849857039e-001	 1.175014089316290e+001
 2.385761270310199e+000	 6.265413435573923e-001	 1.176503137957220e+001
 2.379177040473338e+000	 6.510970232138770e-001	 1.177664775746935e+001
 2.372321004161045e+000	 6.756505311859367e-001	 1.178497764382131e+001
 2.365192122205227e+000	 7.001976293596836e-001	 1.179915370856272e+001
 2.357789438264623e+000	 7.247340360929330e-001	 1.182259416749851e+001
 2.445786412830364e+000	 4.845759675787775e-001	 1.162850710644840e+001
 2.440752943821578e+000	 5.093230229609955e-001	 1.164238037091812e+001
 2.435452691178815e+000	 5.340925648391165e-001	 1.165880381987631e+001
 2.429884139666275e+000	 5.588806093993937e-001	 1.167627807113827e+001
 2.424045846877084e+000	 5.836831188574980e-001	 1.169341377636094e+001
 2.417936445133483e+000	 6.084960029444395e-001	 1.170892678598509e+001
 2.411554643356989e+000	 6.333151204635623e-001	 1.172163560264835e+001
 2.404899228905665e+000	 6.581362809182073e-001	 1.173046141573872e+001
 2.397969069375628e+000	 6.829552462095149e-001	 1.173737325861795e+001
 2.390763114363942e+000	 7.077677324037213e-001	 1.175215899796622e+001
 2.383280397189971e+000	 7.325694115681636e-001	 1.177638937481973e+001
 2.471945920146419e+000	 4.897588684628632e-001	 1.158973285205968e+001
 2.466858614437743e+000	 5.147706120340211e-001	 1.160375369362254e+001
 2.461501671645428e+000	 5.398050826109728e-001	 1.161980538002417e+001
 2.455873560327098e+000	 5.648582537701060e-001	 1.163642209829448e+001
 2.449972822648255e+000	 5.899260445399691e-001	 1.165222282851840e+001
 2.443798076302805e+000	 6.150043209030874e-001	 1.166590412234494e+001
 2.437348016403214e+000	 6.400888973696108e-001	 1.167623538323601e+001
 2.430621417337429e+000	 6.651755386223859e-001	 1.168205696847300e+001
 2.423617134589662e+000	 6.902599612329169e-001	 1.168873302864835e+001
 2.416334106522128e+000	 7.153378354475658e-001	 1.170434989235532e+001
 2.408771356114817e+000	 7.404047870431946e-001	 1.172954797308697e+001
 2.498105427462015e+000	 4.949417693471666e-001	 1.154925140543719e+001
 2.492964285053382e+000	 5.202182011072452e-001	 1.156327172791391e+001
 2.487550652111465e+000	 5.455176003830005e-001	 1.157876399392247e+001
 2.481862980987305e+000	 5.708358981409558e-001	 1.159430951374881e+001
 2.475899798418785e+000	 5.961689702225395e-001	 1.160854589917113e+001
 2.469659707471471e+000	 6.215126388617959e-001	 1.162015725349274e+001
 2.463141389448778e+000	 6.468626742756823e-001	 1.162786709178160e+001
 2.456343605768538e+000	 6.722147963265529e-001	 1.163079127960231e+001
 2.449265199803056e+000	 6.975646762562799e-001	 1.163818743016419e+001
 2.441905098679698e+000	 7.229079384913520e-001	 1.165484009134726e+001
 2.434262315039078e+000	 7.482401625181597e-001	 1.168116814206493e+001
 2.524264934777087e+000	 5.001246702318374e-001	 1.150629916422615e+001
 2.519069955668423e+000	 5.256657901808216e-001	 1.152009116432973e+001
 2.513599632576846e+000	 5.512301181553541e-001	 1.153475837576074e+001
 2.507852401646812e+000	 5.768135425120967e-001	 1.154894551466184e+001
 2.501826774188583e+000	 6.024118959053616e-001	 1.156132171837682e+001
 2.495521338639389e+000	 6.280209568207137e-001	 1.157056793308004e+001
 2.488934762493588e+000	 6.536364511819212e-001	 1.157536727586880e+001
 2.482065794198899e+000	 6.792540540308494e-001	 1.157632659350121e+001
 2.474913265015719e+000	 7.048693912797398e-001	 1.158467310165456e+001
 2.467476090836561e+000	 7.304780415352142e-001	 1.160255005952326e+001
 2.459753273962669e+000	 7.560755379931917e-001	 1.163015649359657e+001
 2.550424442091569e+000	 5.053075711170252e-001	 1.145993586907882e+001
 2.545175626282793e+000	 5.311133792549040e-001	 1.147318416573594e+001
 2.539648613041488e+000	 5.569426359281883e-001	 1.148667715074774e+001
 2.533841822305532e+000	 5.827911868836831e-001	 1.149914198057466e+001
 2.527753749957560e+000	 6.086548215885872e-001	 1.150929481871558e+001
 2.521382969806464e+000	 6.345292747799888e-001	 1.151582519479693e+001
 2.514728135537550e+000	 6.604102280884721e-001	 1.151738359878129e+001
 2.507787982628420e+000	 6.862933117354155e-001	 1.151745901839691e+001
 2.500561330227559e+000	 7.121741063034354e-001	 1.152694240613619e+001
 2.493047082992633e+000	 7.380481445792874e-001	 1.154621725102257e+001
 2.485244232885506e+000	 7.639109134684247e-001	 1.157523894173821e+001
 2.230334643633272e+000	 6.855571587091147e-001	 1.206079267804666e+001
 2.223072299479171e+000	 7.087529998691572e-001	 1.208650604923092e+001
 2.215549382871506e+000	 7.319305087471115e-001	 1.210952762661058e+001
 2.207765230096631e+000	 7.550855204020774e-001	 1.212999177741388e+001
 2.199719261790046e+000	 7.782138361143610e-001	 1.214819062668639e+001
 2.191410984317160e+000	 8.013112254104077e-001	 1.216457380107808e+001
 2.182839991099376e+000	 8.243734281452966e-001	 1.217974800626721e+001
 2.174005963882928e+000	 8.473961566412125e-001	 1.219447641544300e+001
 2.164908673947970e+000	 8.703750978801975e-001	 1.220967784360545e+001
 2.155547983255453e+000	 8.933059157493626e-001	 1.222642567992572e+001
 2.145923845529373e+000	 9.161842533366132e-001	 1.224594654809350e+001
 2.255825602559877e+000	 6.933925341873449e-001	 1.201174606814916e+001
 2.248480255562493e+000	 7.168534854447087e-001	 1.203734907094622e+001
 2.240871357974674e+000	 7.402958948964447e-001	 1.206032625953405e+001
 2.232998238497061e+000	 7.637155499996888e-001	 1.208077133261462e+001
 2.224860311143484e+000	 7.871082040467174e-001	 1.209893458046197e+001
 2.216457076637509e+000	 8.104695782130247e-001	 1.211522285499524e+001
 2.207788123753673e+000	 8.337953636636193e-001	 1.213019940725187e+001
 2.198853130600829e+000	 8.570812237159360e-001	 1.214458356756173e+001
 2.189651865845055e+000	 8.803227960576492e-001	 1.215925024067518e+001
 2.180184189869629e+000	 9.035156950175444e-001	 1.217522918521527e+001
 2.170450055869658e+000	 9.266555138874860e-001	 1.219370404414671e+001
 2.281316561486398e+000	 7.012279096647085e-001	 1.196329739808703e+001
 2.273888211645735e+000	 7.249539710193940e-001	 1.198903716855500e+001
 2.266193333077769e+000	 7.486612810449149e-001	 1.201225768935241e+001
 2.258231246897426e+000	 7.723455795964407e-001	 1.203301946502433e+001
 2.250001360496865e+000	 7.960025719782180e-001	 1.205153698331102e+001
 2.241503168957809e+000	 8.196279310147914e-001	 1.206817891187754e+001
 2.232736256407930e+000	 8.432172991810967e-001	 1.208346820111621e+001
 2.223700297318700e+000	 8.667662907898182e-001	 1.209808206611504e+001
 2.214395057742118e+000	 8.902704942342629e-001	 1.211285181742276e+001
 2.204820396483794e+000	 9.137254742848919e-001	 1.212876250695810e+001
 2.194976266209943e+000	 9.371267744375258e-001	 1.214695235234554e+001
 2.306807520412753e+000	 7.090632851413388e-001	 1.191567619209953e+001
 2.299296167728820e+000	 7.330544565933477e-001	 1.194177703532047e+001
 2.291515308180721e+000	 7.570266671926574e-001	 1.196549071210848e+001
 2.283464255297661e+000	 7.809756091924724e-001	 1.198685153823282e+001
 2.275142409850134e+000	 8.048969399090081e-001	 1.200604374280841e+001
 2.266549261278011e+000	 8.287862838158568e-001	 1.202340189462691e+001
 2.257684389062107e+000	 8.526392346978824e-001	 1.203941127834850e+001
 2.248547464036511e+000	 8.764513578630185e-001	 1.205470819134227e+001
 2.239138249639141e+000	 9.002181924102024e-001	 1.207008012805549e+001
 2.229456603097937e+000	 9.239352535515704e-001	 1.208646581507520e+001
 2.219502476550225e+000	 9.475980349868983e-001	 1.210495505655962e+001
 2.332298479338855e+000	 7.168986606173690e-001	 1.186886145719368e+001
 2.324704123811673e+000	 7.411549421667039e-001	 1.189552438307996e+001
 2.316837283283455e+000	 7.653920533398099e-001	 1.191994424840097e+001
 2.308697263697702e+000	 7.896056387879249e-001	 1.194213569515573e+001
 2.300283459203230e+000	 8.137913078392322e-001	 1.196225772546363e+001
 2.291595353598070e+000	 8.379446366163708e-001	 1.198061436309747e+001
 2.282632521716166e+000	 8.620611702141320e-001	 1.199765531399556e+001
 2.273394630754230e+000	 8.861364249356958e-001	 1.201397659412745e+001
 2.263881441536101e+000	 9.101658905856307e-001	 1.203032108870251e+001
 2.254092809712047e+000	 9.341450328177451e-001	 1.204757900252356e+001
 2.244028686890507e+000	 9.580692955357705e-001	 1.206678815735394e+001
 2.357789438264623e+000	 7.247340360929330e-001	 1.182259416749851e+001
 2.350112079894209e+000	 7.492554277395963e-001	 1.184999712429300e+001
 2.342159258385902e+000	 7.737574394865082e-001	 1.187530117089207e+001
 2.333930272097482e+000	 7.982356683829376e-001	 1.189850727750618e+001
 2.325424508556098e+000	 8.226856757690344e-001	 1.191975371341900e+001
 2.316641445917932e+000	 8.471029894164830e-001	 1.193931695206448e+001
 2.307580654370066e+000	 8.714831057299990e-001	 1.195761262975594e+001
 2.298241797471829e+000	 8.958214920080095e-001	 1.197519652390957e+001
 2.288624633432979e+000	 9.201135887607103e-001	 1.199276551170584e+001
 2.278729016326116e+000	 9.443548120835820e-001	 1.201115846544337e+001
 2.268554897230786e+000	 9.685405560843093e-001	 1.203135703641543e+001
 2.383280397189971e+000	 7.325694115681636e-001	 1.177638937481973e+001
 2.375520035976356e+000	 7.573559133121596e-001	 1.180468816230844e+001
 2.367481233487989e+000	 7.821228256328895e-001	 1.183102172585157e+001
 2.359163280496939e+000	 8.068656979776511e-001	 1.185538282894558e+001
 2.350565557908681e+000	 8.315800436985599e-001	 1.187789293831981e+001
 2.341687538237552e+000	 8.562613422163423e-001	 1.189880338372951e+001
 2.332528787023769e+000	 8.809050412456383e-001	 1.191849663186205e+001
 2.323088964189277e+000	 9.055065590801181e-001	 1.193748763753596e+001
 2.313367825329755e+000	 9.300612869356042e-001	 1.195642522992486e+001
 2.303365222940131e+000	 9.545645913492465e-001	 1.197609348630726e+001
 2.293081107571060e+000	 9.790118166326810e-001	 1.199741304089724e+001
 2.408771356114817e+000	 7.404047870431946e-001	 1.172954797308697e+001
 2.400927992058032e+000	 7.654563988845280e-001	 1.175887781887410e+001
 2.392803208589645e+000	 7.904882117790898e-001	 1.178635657881094e+001
 2.384396288896005e+000	 8.154957275722058e-001	 1.181197371275495e+001
 2.375706607260921e+000	 8.404744116279527e-001	 1.183583722368022e+001
 2.366733630556880e+000	 8.654196950160991e-001	 1.185817508628059e+001
 2.357476919677233e+000	 8.903269767612045e-001	 1.187933685617672e+001
 2.347936130906543e+000	 9.151916261521812e-001	 1.189979542010456e+001
 2.338111017226407e+000	 9.400089851104755e-001	 1.192014884142501e+001
 2.328001429554081e+000	 9.647743706149040e-001	 1.194112224948263e+001
 2.317607317911332e+000	 9.894830771810523e-001	 1.196356971583732e+001
 2.434262315039078e+000	 7.482401625181597e-001	 1.168116814206493e+001
 2.426335948139160e+000	 7.735568844568356e-001	 1.171164592548128e+001
 2.418125183690795e+000	 7.988535979252459e-001	 1.174035951188272e+001
 2.409629297294619e+000	 8.241257571667413e-001	 1.176729937228431e+001
 2.400847656612763e+000	 8.493687795573581e-001	 1.179256276444385e+001
 2.391779722875869e+000	 8.745780478159023e-001	 1.181635544738486e+001
 2.382425052330419e+000	 8.997489122768516e-001	 1.183899364929677e+001
 2.372783297623597e+000	 9.248766932243575e-001	 1.186090624623611e+001
 2.362854209122914e+000	 9.499566832854869e-001	 1.188263710237937e+001
 2.352637636167958e+000	 9.749841498807207e-001	 1.190484751615190e+001
 2.342133528251598e+000	 9.999543377295894e-001	 1.192831871044802e+001
 2.459753273962669e+000	 7.560755379931917e-001	 1.163015649359657e+001
 2.451743904219661e+000	 7.816573700292161e-001	 1.166188360293177e+001
 2.443447158791370e+000	 8.072189840714945e-001	 1.169189979801540e+001
 2.434862305692712e+000	 8.327557867613982e-001	 1.172020026009525e+001
 2.425988705964147e+000	 8.582631474869203e-001	 1.174687357005884e+001
 2.416825815194466e+000	 8.837364006159014e-001	 1.177210372909792e+001
 2.407373184983289e+000	 9.091708477927348e-001	 1.179617251207062e+001
 2.397630464340407e+000	 9.345617602968064e-001	 1.181946210786214e+001
 2.387597401019257e+000	 9.599043814608012e-001	 1.184245799370162e+001
 2.377273842781749e+000	 9.851939291468614e-001	 1.186575198330090e+001
 2.366659738591860e+000	 1.010425598278460e+000	 1.189003061247569e+001
 2.485244232885506e+000	 7.639109134684247e-001	 1.157523894173821e+001
 2.477151860299458e+000	 7.897578556018046e-001	 1.160830475151369e+001
 2.468769133891297e+000	 8.155843702179723e-001	 1.163967427538005e+001
 2.460095314090222e+000	 8.413858163563169e-001	 1.166935045958539e+001
 2.451129755315018e+000	 8.671575154167842e-001	 1.169741459522815e+001
 2.441871907512629e+000	 8.928947534162471e-001	 1.172402866850091e+001
 2.432321317635802e+000	 9.185927833090085e-001	 1.174943812976669e+001
 2.422477631056948e+000	 9.442468273696874e-001	 1.177397503247245e+001
 2.412340592915415e+000	 9.698520796365818e-001	 1.179806148483741e+001
 2.401910049395445e+000	 9.954037084134924e-001	 1.182221334946124e+001
 2.391185948932115e+000	 1.020896858827830e+000	 1.184703093342924e+001
 2.145923845529373e+000	 9.161842533366132e-001	 1.224594654809350e+001
 2.136037810352666e+000	 9.390023168969391e-001	 1.226350982668337e+001
 2.125888595480185e+000	 9.617591535682969e-001	 1.227428913572433e+001
 2.115476437276295e+000	 9.844503614784821e-001	 1.227958181052236e+001
 2.104801667440269e+000	 1.007071527655773e+000	 1.228083036673879e+001
 2.093864713729078e+000	 1.029618230541540e+000	 1.227961009266124e+001
 2.082666100602788e+000	 1.052086042539205e+000	 1.227766971037018e+001
 2.071206449790665e+000	 1.074470532596845e+000	 1.227685905337651e+001
 2.059486480776334e+000	 1.096767268820616e+000	 1.227917464205228e+001
 2.047507011200338e+000	 1.118971821116124e+000	 1.228674215813527e+001
 2.035268957178629e+000	 1.141079763854727e+000	 1.230181153763570e+001
 2.170450055869658e+000	 9.266555138874860e-001	 1.219370404414671e+001
 2.160451031138595e+000	 9.497343698461394e-001	 1.220989891295543e+001
 2.150185818776248e+000	 9.727512991410006e-001	 1.221906612867746e+001
 2.139654657848452e+000	 9.957018495899495e-001	 1.222265009689104e+001
 2.128857883845541e+000	 1.018581557784487e+000	 1.222223235997766e+001
 2.117795929413422e+000	 1.041385951631064e+000	 1.221957986534199e+001
 2.106469325006327e+000	 1.064110552929180e+000	 1.221656214426230e+001
 2.094878699459405e+000	 1.086750879983490e+000	 1.221520541428258e+001
 2.083024780479415e+000	 1.109302450247110e+000	 1.221767362666601e+001
 2.070908395051891e+000	 1.131760782993169e+000	 1.222626424412796e+001
 2.058530469763272e+000	 1.154121402011592e+000	 1.224340337236206e+001
 2.194976266209943e+000	 9.371267744375258e-001	 1.214695235234554e+001
 2.184864251924533e+000	 9.604664227945056e-001	 1.216260487205302e+001
 2.174483042072331e+000	 9.837434447128693e-001	 1.217104697480322e+001
 2.163832878420640e+000	 1.006953337700580e+000	 1.217385236955972e+001
 2.152914100250860e+000	 1.030091587912363e+000	 1.217273616794137e+001
 2.141727145097828e+000	 1.053153672719756e+000	 1.216959798364015e+001
 2.130272549409948e+000	 1.076135063318328e+000	 1.216644765431934e+001
 2.118550949128249e+000	 1.099031227369320e+000	 1.216545373414972e+001
 2.106563080182626e+000	 1.121837631672807e+000	 1.216892620127853e+001
 2.094309778903607e+000	 1.144549744869445e+000	 1.217931237198079e+001
 2.081791982348114e+000	 1.167163040167724e+000	 1.219919214130050e+001
 2.219502476550225e+000	 9.475980349868983e-001	 1.210495505655962e+001
 2.209277472710488e+000	 9.711984757422031e-001	 1.212070009907266e+001
 2.198780265368454e+000	 9.947355902840657e-001	 1.212910310246720e+001
 2.188011098992888e+000	 1.018204825810532e+000	 1.213183679199236e+001
 2.176970316656258e+000	 1.041601618039557e+000	 1.213076824989503e+001
 2.165658360782337e+000	 1.064921393807760e+000	 1.212787317540102e+001
 2.154075773813694e+000	 1.088159573706789e+000	 1.212529381054989e+001
 2.142223198797244e+000	 1.111311574754465e+000	 1.212532016718302e+001
 2.130101379886014e+000	 1.134372813097828e+000	 1.213038679914650e+001
 2.117711162755524e+000	 1.157338706745061e+000	 1.214306892627175e+001
 2.105053494933187e+000	 1.180204678323221e+000	 1.216607785813867e+001
 2.244028686890507e+000	 9.580692955357705e-001	 1.206678815735394e+001
 2.233690693496472e+000	 9.819305286893985e-001	 1.208308316736007e+001
 2.223077488664635e+000	 1.005727735854752e+000	 1.209194667340070e+001
 2.212189319565222e+000	 1.029456313919966e+000	 1.209514611346286e+001
 2.201026533061774e+000	 1.053111648166220e+000	 1.209464028584562e+001
 2.189589576466989e+000	 1.076689114895224e+000	 1.209250272371578e+001
 2.177878998217611e+000	 1.100184084094699e+000	 1.209097385692186e+001
 2.165895448466434e+000	 1.123591922139056e+000	 1.209244414455577e+001
 2.153639679589622e+000	 1.146907994522294e+000	 1.209945115421475e+001
 2.141112546607686e+000	 1.170127668620128e+000	 1.211467597296651e+001
 2.128315007518526e+000	 1.193246316478183e+000	 1.214093889193515e+001
 2.268554897230786e+000	 9.685405560843093e-001	 1.203135703641543e+001
 2.258103914282494e+000	 9.926625816362567e-001	 1.204849592669521e+001
 2.247374711960891e+000	 1.016719881425092e+000	 1.205813472594293e+001
 2.236367540137673e+000	 1.040707802029039e+000	 1.206215635606922e+001
 2.225082749467440e+000	 1.064621678292507e+000	 1.206255320724937e+001
 2.213520792151827e+000	 1.088456835982293e+000	 1.206148971364003e+001
 2.201682222621745e+000	 1.112208594482199e+000	 1.206128389916735e+001
 2.189567698135869e+000	 1.135872269523221e+000	 1.206440546526281e+001
 2.177177979293498e+000	 1.159443175946325e+000	 1.207347325725169e+001
 2.164513930460135e+000	 1.182916630494757e+000	 1.209125204338668e+001
 2.151576520104164e+000	 1.206287954632712e+000	 1.212064854184360e+001
 2.293081107571060e+000	 9.790118166326810e-001	 1.199741304089724e+001
 2.282517135068562e+000	 1.003394634582944e+000	 1.201554024145775e+001
 2.271671935257244e+000	 1.027712026995250e+000	 1.202613965191991e+001
 2.260545760710264e+000	 1.051959290137911e+000	 1.203114758506916e+001
 2.249138965873294e+000	 1.076131708418570e+000	 1.203261417823173e+001
 2.237452007836891e+000	 1.100224557069113e+000	 1.203276002171429e+001
 2.225485447026141e+000	 1.124233104869425e+000	 1.203395986638402e+001
 2.213239947805594e+000	 1.148152616907090e+000	 1.203874119372671e+001
 2.200716278997688e+000	 1.171978357370042e+000	 1.204978215357068e+001
 2.187915314312910e+000	 1.195705592369057e+000	 1.206990879639315e+001
 2.174838032690134e+000	 1.219329592786908e+000	 1.210209152839034e+001
 2.317607317911332e+000	 9.894830771810523e-001	 1.196356971583732e+001
 2.306930355854685e+000	 1.014126687529626e+000	 1.198268056313368e+001
 2.295969158553711e+000	 1.038704172565387e+000	 1.199428308741940e+001
 2.284723981283028e+000	 1.063210778246740e+000	 1.200030672187824e+001
 2.273195182279369e+000	 1.087641738544563e+000	 1.200285331185024e+001
 2.261383223522224e+000	 1.111992278155832e+000	 1.200417906733996e+001
 2.249288671430844e+000	 1.136257615256517e+000	 1.200669426319060e+001
 2.236912197475659e+000	 1.160432964290793e+000	 1.201296237847062e+001
 2.224254578702236e+000	 1.184513538793564e+000	 1.202569859407099e+001
 2.211316698166055e+000	 1.208494554243141e+000	 1.204776756780490e+001
 2.198099545276473e+000	 1.232371230940871e+000	 1.208218040748460e+001
 2.342133528251598e+000	 9.999543377295894e-001	 1.192831871044802e+001
 2.331343576640874e+000	 1.024858740476468e+000	 1.194831685328314e+001
 2.320266381850311e+000	 1.049696318135667e+000	 1.196080880367956e+001
 2.308902201855987e+000	 1.074462266355686e+000	 1.196774392229249e+001
 2.297251398685701e+000	 1.099151768670638e+000	 1.197124014082325e+001
 2.285314439207866e+000	 1.123759999242596e+000	 1.197356834346489e+001
 2.273091895835899e+000	 1.148282125643612e+000	 1.197715272778740e+001
 2.260584447146108e+000	 1.172713311674460e+000	 1.198457060497245e+001
 2.247792878407190e+000	 1.197048720217011e+000	 1.199855155034929e+001
 2.234718082019610e+000	 1.221283516117117e+000	 1.202197581531594e+001
 2.221361057863212e+000	 1.245412869094703e+000	 1.205787191282314e+001
 2.366659738591860e+000	 1.010425598278460e+000	 1.189003061247570e+001
 2.355756797427138e+000	 1.035590793423637e+000	 1.191071281092678e+001
 2.344563605147063e+000	 1.060688463706254e+000	 1.192388413609741e+001
 2.333080422429172e+000	 1.085713754464907e+000	 1.193150870562847e+001
 2.321307615092325e+000	 1.110661798796949e+000	 1.193569986053402e+001
 2.309245654893858e+000	 1.135527720329550e+000	 1.193872174258798e+001
 2.296895120241353e+000	 1.160306636030850e+000	 1.194299041000035e+001
 2.284256696816989e+000	 1.184993659058219e+000	 1.195107439472871e+001
 2.271331178112595e+000	 1.209583901640505e+000	 1.196569460374004e+001
 2.258119465873619e+000	 1.234072477991097e+000	 1.198972346649099e+001
 2.244622570450384e+000	 1.258454507248502e+000	 1.202618323188160e+001
 2.391185948932115e+000	 1.020896858827830e+000	 1.184703093342924e+001
 2.380170018213485e+000	 1.046322846371298e+000	 1.186807142571720e+001
 2.368860828443987e+000	 1.071680609277310e+000	 1.188161571936023e+001
 2.357258643002612e+000	 1.096965242574563e+000	 1.188960585266221e+001
 2.345363831499276e+000	 1.122171828923650e+000	 1.189412936066005e+001
 2.333176870580243e+000	 1.147295441416841e+000	 1.189742169277739e+001
 2.320698344647250e+000	 1.172331146418369e+000	 1.190186818223338e+001
 2.307928946488350e+000	 1.197274006442202e+000	 1.191000546156718e+001
 2.294869477818498e+000	 1.222119083064165e+000	 1.192452221733498e+001
 2.281520849728122e+000	 1.246861439865191e+000	 1.194825917679476e+001
 2.267884083038025e+000	 1.271496145402371e+000	 1.198420822025865e+001
 2.035268957178629e+000	 1.141079763854727e+000	 1.230181153763570e+001
 2.022771440011766e+000	 1.163089972340299e+000	 1.231545529765997e+001
 2.010017391776478e+000	 1.184994713164319e+000	 1.231837112530266e+001
 1.997008027266777e+000	 1.206789589643860e+000	 1.231238310649291e+001
 1.983744660202318e+000	 1.228470220469227e+000	 1.229973384194873e+001
 1.970228703106179e+000	 1.250032242448504e+000	 1.228264269274262e+001
 1.956461667092250e+000	 1.271471313257539e+000	 1.226321777217175e+001
 1.942445161561669e+000	 1.292783114191904e+000	 1.224358174766844e+001
 1.928180893807916e+000	 1.313963352917358e+000	 1.222586741010113e+001
 1.913670668530300e+000	 1.335007766215310e+000	 1.221220339441755e+001
 1.898916387255753e+000	 1.355912122719749e+000	 1.220275990718660e+001
 2.058530469763272e+000	 1.154121402011592e+000	 1.224340337236206e+001
 2.045890115871281e+000	 1.176383169751865e+000	 1.225935946272572e+001
 2.032990298963952e+000	 1.198538264418723e+000	 1.226401513951383e+001
 2.019832247719414e+000	 1.220582239078633e+000	 1.225934557204861e+001
 2.006417290872078e+000	 1.242510662346993e+000	 1.224735340530736e+001
 1.992746857089031e+000	 1.264319121164055e+000	 1.223019048239808e+001
 1.978822474754980e+000	 1.286003223576338e+000	 1.221068270461297e+001
 1.964645771665228e+000	 1.307558601520036e+000	 1.219122016310947e+001
 1.950218474626250e+000	 1.328980913602921e+000	 1.217410531328091e+001
 1.935542408963624e+000	 1.350265847881186e+000	 1.216111542453463e+001
 1.920619497937210e+000	 1.371409124627651e+000	 1.215268413649349e+001
 2.081791982348114e+000	 1.167163040167724e+000	 1.219919214130050e+001
 2.069008791731038e+000	 1.189676367162741e+000	 1.221797039689902e+001
 2.055963206151714e+000	 1.212081815672490e+000	 1.222465877410308e+001
 2.042656468172388e+000	 1.234374888512826e+000	 1.222138065579098e+001
 2.029089921542232e+000	 1.256551104224243e+000	 1.221028833586065e+001
 2.015265011072331e+000	 1.278605999879157e+000	 1.219355581160877e+001
 2.001183282418213e+000	 1.300535133894753e+000	 1.217337085720557e+001
 1.986846381769343e+000	 1.322334088847847e+000	 1.215250618595090e+001
 1.972256055445192e+000	 1.343998474288224e+000	 1.213414872722580e+001
 1.957414149397603e+000	 1.365523929546858e+000	 1.212039414532070e+001
 1.942322608619368e+000	 1.386906126535401e+000	 1.211224723257336e+001
 2.105053494933187e+000	 1.180204678323221e+000	 1.216607785813867e+001
 2.092127467591057e+000	 1.202969564573016e+000	 1.218791064232194e+001
 2.078936113339772e+000	 1.225625366925698e+000	 1.219666724133841e+001
 2.065480688625693e+000	 1.248167537946511e+000	 1.219460294641607e+001
 2.051762552212749e+000	 1.270591546101038e+000	 1.218400453202314e+001
 2.037783165056030e+000	 1.292892878593860e+000	 1.216718305554056e+001
 2.023544090081880e+000	 1.315067044212827e+000	 1.214646588378713e+001
 2.009046991873926e+000	 1.337109576175374e+000	 1.212422346970513e+001
 1.994293636264635e+000	 1.359016034973299e+000	 1.210406448139199e+001
 1.979285889832116e+000	 1.380782011212352e+000	 1.208905248329030e+001
 1.964025719302089e+000	 1.402403128443016e+000	 1.208043336725583e+001
 2.128315007518526e+000	 1.193246316478183e+000	 1.214093889193515e+001
 2.115246143451361e+000	 1.216262761982781e+000	 1.216579933736276e+001
 2.101909020528132e+000	 1.239168918178429e+000	 1.217641943017017e+001
 2.088304909079316e+000	 1.261960187379758e+000	 1.217516994714648e+001
 2.074435182883600e+000	 1.284631987977439e+000	 1.216445687111241e+001
 2.060301319040078e+000	 1.307179757308217e+000	 1.214671427091888e+001
 2.045904897745910e+000	 1.329598954530604e+000	 1.212439634938755e+001
 2.031247601978889e+000	 1.351885063502655e+000	 1.210137594053869e+001
 2.016331217084475e+000	 1.374033595658173e+000	 1.208170804013609e+001
 2.001157630267044e+000	 1.396040092877691e+000	 1.206612901320430e+001
 1.985728829985245e+000	 1.417900130350514e+000	 1.205626067354034e+001
 2.151576520104164e+000	 1.206287954632712e+000	 1.212064854184361e+001
 2.138364819311972e+000	 1.229555959392127e+000	 1.214826858139516e+001
 2.124881927716801e+000	 1.252712469430764e+000	 1.216032409662700e+001
 2.111129129533246e+000	 1.275752836812637e+000	 1.215928475470794e+001
 2.097107813554758e+000	 1.298672429853509e+000	 1.214766031797324e+001
 2.082819473024427e+000	 1.321466636022280e+000	 1.212799368053275e+001
 2.068265705410237e+000	 1.344130864848129e+000	 1.210358956816413e+001
 2.053448212084144e+000	 1.366660550829723e+000	 1.208117209794447e+001
 2.038368797904606e+000	 1.389051156342877e+000	 1.206240572638144e+001
 2.023029370702263e+000	 1.411298174542894e+000	 1.204796358184110e+001
 2.007431940668699e+000	 1.433397132257910e+000	 1.203848190493890e+001
 2.174838032690134e+000	 1.219329592786908e+000	 1.210209152839034e+001
 2.161483495172912e+000	 1.242849156801144e+000	 1.213197975378545e+001
 2.147854834905787e+000	 1.266256020682782e+000	 1.214483604300305e+001
 2.133953349987477e+000	 1.289545486245221e+000	 1.214321213127136e+001
 2.119780444226190e+000	 1.312712871729307e+000	 1.212970592228627e+001
 2.105337627009027e+000	 1.335753514736103e+000	 1.210700588388495e+001
 2.090626513074791e+000	 1.358662775165444e+000	 1.208272316089164e+001
 2.075648822189604e+000	 1.381436038156617e+000	 1.206141684118580e+001
 2.060406378724921e+000	 1.404068717027437e+000	 1.204378168995056e+001
 2.044901111137656e+000	 1.426556256207987e+000	 1.203048080898790e+001
 2.029135051352320e+000	 1.448894134165222e+000	 1.202214202016138e+001
 2.198099545276473e+000	 1.232371230940871e+000	 1.208218040748461e+001
 2.184602171034203e+000	 1.256142354209923e+000	 1.211363979047971e+001
 2.170827742095097e+000	 1.279799571934565e+000	 1.212647228666544e+001
 2.156777570441994e+000	 1.303338135677579e+000	 1.212329459512937e+001
 2.142453074897868e+000	 1.326753313604897e+000	 1.210677686076211e+001
 2.127855780993829e+000	 1.350040393449737e+000	 1.208247728092242e+001
 2.112987320739502e+000	 1.373194685482595e+000	 1.205984280566641e+001
 2.097849432295178e+000	 1.396211525483370e+000	 1.204002945466358e+001
 2.082443959545317e+000	 1.419086277711883e+000	 1.202370917046777e+001
 2.066772851573099e+000	 1.441814337872989e+000	 1.201152506672967e+001
 2.050838162035976e+000	 1.464391136072466e+000	 1.200408764077802e+001
 2.221361057863212e+000	 1.245412869094703e+000	 1.205787191282313e+001
 2.207720846895866e+000	 1.269435551618554e+000	 1.209001742129445e+001
 2.193800649284738e+000	 1.293343123186194e+000	 1.210182821923970e+001
 2.179601790896790e+000	 1.317130785109783e+000	 1.209596852873151e+001
 2.165125705569765e+000	 1.340793755480339e+000	 1.207585764147945e+001
 2.150373934978784e+000	 1.364327272163235e+000	 1.205353103691687e+001
 2.135348128404301e+000	 1.387726595799624e+000	 1.203303896195845e+001
 2.120050042400782e+000	 1.410987012810020e+000	 1.201504119247739e+001
 2.104481540365685e+000	 1.434103838396245e+000	 1.200017616777696e+001
 2.088644592008473e+000	 1.457072419537925e+000	 1.198905737774352e+001
 2.072541272719534e+000	 1.479888137979660e+000	 1.198226941262598e+001
 2.244622570450384e+000	 1.258454507248502e+000	 1.202618323188160e+001
 2.230839522757925e+000	 1.282728749027128e+000	 1.205795937076057e+001
 2.216773556474716e+000	 1.306886674437748e+000	 1.206759375686831e+001
 2.202426011351853e+000	 1.330923434541903e+000	 1.205778030281524e+001
 2.187798336241849e+000	 1.354834197355694e+000	 1.203776035979357e+001
 2.172892088963843e+000	 1.378614150876649e+000	 1.201843441280850e+001
 2.157708936069120e+000	 1.402258506116577e+000	 1.200050832084510e+001
 2.142250652506323e+000	 1.425762500136603e+000	 1.198459295322977e+001
 2.126519121185921e+000	 1.449121399080551e+000	 1.197128288622197e+001
 2.110516332443656e+000	 1.472330501202816e+000	 1.196115267051652e+001
 2.094244383402860e+000	 1.495385139886820e+000	 1.195475272519722e+001
 2.267884083038025e+000	 1.271496145402371e+000	 1.198420822025865e+001
 2.253958198620401e+000	 1.296021946435735e+000	 1.201440652513335e+001
 2.239746463665040e+000	 1.320430225689309e+000	 1.202056948218029e+001
 2.225250231807174e+000	 1.344716083974012e+000	 1.200750393105766e+001
 2.210470966914093e+000	 1.368874639231026e+000	 1.199139155368240e+001
 2.195410242948958e+000	 1.392901029590033e+000	 1.197555495370936e+001
 2.180069743733891e+000	 1.416790416433498e+000	 1.196055182133131e+001
 2.164451262611717e+000	 1.440537987463154e+000	 1.194693303859495e+001
 2.148556702005920e+000	 1.464138959764829e+000	 1.193523927366124e+001
 2.132388072878527e+000	 1.487588582867685e+000	 1.192599713769713e+001
 2.115947494085821e+000	 1.510882141793964e+000	 1.191971492887982e+001
 1.898916387255753e+000	 1.355912122719749e+000	 1.220275990718660e+001
 1.883920047133223e+000	 1.376672225183124e+000	 1.219174631835564e+001
 1.868683738580113e+000	 1.397283911780662e+000	 1.217438057844118e+001
 1.853209646065358e+000	 1.417743060129417e+000	 1.215138282106516e+001
 1.837500047710095e+000	 1.438045590410163e+000	 1.212347106623497e+001
 1.821557314259136e+000	 1.458187468011342e+000	 1.209136305864400e+001
 1.805383907963363e+000	 1.478164706143358e+000	 1.205577819685901e+001
 1.788982381374034e+000	 1.497973368419746e+000	 1.201743954302616e+001
 1.772355376050135e+000	 1.517609571401743e+000	 1.197707590161308e+001
 1.755505621180099e+000	 1.537069487102881e+000	 1.193542395462964e+001
 1.738435932119337e+000	 1.556349345450221e+000	 1.189323043974151e+001
 1.920619497937210e+000	 1.371409124627651e+000	 1.215268413649349e+001
 1.905451761521779e+000	 1.392406498623549e+000	 1.214402666808011e+001
 1.890041314026554e+000	 1.413253760477749e+000	 1.213010352668913e+001
 1.874390364887229e+000	 1.433946740691739e+000	 1.211134760974718e+001
 1.858501218262075e+000	 1.454481312817197e+000	 1.208818357548618e+001
 1.842376271991649e+000	 1.474853396130154e+000	 1.206103032727959e+001
 1.826018016468425e+000	 1.495058958275174e+000	 1.203030361165885e+001
 1.809429033417307e+000	 1.515094017876017e+000	 1.199641871820035e+001
 1.792611994588222e+000	 1.534954647109299e+000	 1.195979326822713e+001
 1.775569660362075e+000	 1.554636974237703e+000	 1.192085007806321e+001
 1.758304878271573e+000	 1.574137186099347e+000	 1.188002008142239e+001
 1.942322608619368e+000	 1.386906126535401e+000	 1.211224723257336e+001
 1.926983475911071e+000	 1.408140772063863e+000	 1.210489809818610e+001
 1.911398889473761e+000	 1.429223609174760e+000	 1.209309629600158e+001
 1.895571083709891e+000	 1.450150421254014e+000	 1.207705918371147e+001
 1.879502388814862e+000	 1.470917035224207e+000	 1.205699119478381e+001
 1.863195229724979e+000	 1.491519324248965e+000	 1.203308685311476e+001
 1.846652124974303e+000	 1.511953210407012e+000	 1.200553392183013e+001
 1.829875685461390e+000	 1.532214667332336e+000	 1.197451667322970e+001
 1.812868613127101e+000	 1.552299722816931e+000	 1.194021926548960e+001
 1.795633699544820e+000	 1.572204461372634e+000	 1.190282921040181e+001
 1.778173824424543e+000	 1.591925026748623e+000	 1.186254091514990e+001
 1.964025719302089e+000	 1.402403128443016e+000	 1.208043336725583e+001
 1.948515190300958e+000	 1.423875045504080e+000	 1.207334610058128e+001
 1.932756464921588e+000	 1.445193457871702e+000	 1.206237977589285e+001
 1.916751802533197e+000	 1.466354101816245e+000	 1.204760548209299e+001
 1.900503559368311e+000	 1.487352757631197e+000	 1.202907809590748e+001
 1.884014187458984e+000	 1.508185252367777e+000	 1.200683971333818e+001
 1.867286233480864e+000	 1.528847462538871e+000	 1.198092323351975e+001
 1.850322337506155e+000	 1.549335316788697e+000	 1.195135608101657e+001
 1.833125231666657e+000	 1.569644798524629e+000	 1.191816405108790e+001
 1.815697738728224e+000	 1.589771948507661e+000	 1.188137526098571e+001
 1.798042770578147e+000	 1.609712867398032e+000	 1.184102418894340e+001
 1.985728829985245e+000	 1.417900130350514e+000	 1.205626067354034e+001
 1.970046904691298e+000	 1.439609318944210e+000	 1.204839096069720e+001
 1.954114040369892e+000	 1.461163306568586e+000	 1.203700912639190e+001
 1.937932521356999e+000	 1.482557782378440e+000	 1.202210694345994e+001
 1.921504729922277e+000	 1.503788480038169e+000	 1.200365803935103e+001
 1.904833145193523e+000	 1.524851180486588e+000	 1.198162163295951e+001
 1.887920341987971e+000	 1.545741714670747e+000	 1.195594644000551e+001
 1.870768989551473e+000	 1.566455966245095e+000	 1.192657473228383e+001
 1.853381850206766e+000	 1.586989874232387e+000	 1.189344653446052e+001
 1.835761777912176e+000	 1.607339435642774e+000	 1.185650394050727e+001
 1.817911716732283e+000	 1.627500708047558e+000	 1.181569553033128e+001
 2.007431940668699e+000	 1.433397132257910e+000	 1.203848190493890e+001
 1.991578619081951e+000	 1.455343592384267e+000	 1.202908220389895e+001
 1.975471615818525e+000	 1.477133155265418e+000	 1.201606820898349e+001
 1.959113240181150e+000	 1.498761462940601e+000	 1.199971099710341e+001
 1.942505900476613e+000	 1.520224202445125e+000	 1.197996899611804e+001
 1.925652102928453e+000	 1.541517108605399e+000	 1.195678580152195e+001
 1.908554450495487e+000	 1.562635966802638e+000	 1.193009429190990e+001
 1.891215641597216e+000	 1.583576615701524e+000	 1.189982091197131e+001
 1.873638468747310e+000	 1.604334949940195e+000	 1.186589010608414e+001
 1.855825817096565e+000	 1.624906922777959e+000	 1.182822888386038e+001
 1.837780662886853e+000	 1.645288548697183e+000	 1.178677149733670e+001
 2.029135051352320e+000	 1.448894134165222e+000	 1.202214202016139e+001
 2.013110333472775e+000	 1.471077865824263e+000	 1.201347774123882e+001
 1.996829191267341e+000	 1.493103003962208e+000	 1.199866416687374e+001
 1.980293959005503e+000	 1.514965143502737e+000	 1.197958669741943e+001
 1.963507071031173e+000	 1.536659924852067e+000	 1.195726790209357e+001
 1.946471060663631e+000	 1.558183036724210e+000	 1.193170080796553e+001
 1.929188559003277e+000	 1.579530218934542e+000	 1.190286856760813e+001
 1.911662293643256e+000	 1.600697265157979e+000	 1.187074885472219e+001
 1.893895087288171e+000	 1.621680025648045e+000	 1.183531842198605e+001
 1.875889856281285e+000	 1.642474409913205e+000	 1.179655780197894e+001
 1.857649609041755e+000	 1.663076389346893e+000	 1.175445613024033e+001
 2.050838162035976e+000	 1.464391136072466e+000	 1.200408764077802e+001
 2.034642047863630e+000	 1.486812139264209e+000	 1.199610747057230e+001
 2.018186766716196e+000	 1.509072852658963e+000	 1.198178450825875e+001
 2.001474677829912e+000	 1.531168824064851e+000	 1.196090515727342e+001
 1.984508241585813e+000	 1.553095647259000e+000	 1.193482553517067e+001
 1.967290018398918e+000	 1.574848964843020e+000	 1.190574568488823e+001
 1.949822667511206e+000	 1.596424471066456e+000	 1.187377733640813e+001
 1.932108945689465e+000	 1.617817914614456e+000	 1.183901427360073e+001
 1.914151705829227e+000	 1.639025101355928e+000	 1.180155123939048e+001
 1.895953895466221e+000	 1.660041897048499e+000	 1.176148866051689e+001
 1.877518555196891e+000	 1.680864229996669e+000	 1.171893750406221e+001
 2.072541272719534e+000	 1.479888137979660e+000	 1.198226941262598e+001
 2.056173762254374e+000	 1.502546412704118e+000	 1.197454598505672e+001
 2.039544342164942e+000	 1.525042701355693e+000	 1.196024138552426e+001
 2.022655396654228e+000	 1.547372504626949e+000	 1.193931970038285e+001
 2.005509412140386e+000	 1.569531369665925e+000	 1.191170554892343e+001
 1.988108976134170e+000	 1.591514892961830e+000	 1.187830505418612e+001
 1.970456776019137e+000	 1.613318723198377e+000	 1.184233030770218e+001
 1.952555597735713e+000	 1.634938564070948e+000	 1.180426995667337e+001
 1.934408324370359e+000	 1.656370177063836e+000	 1.176440029975081e+001
 1.916017934651266e+000	 1.677609384183830e+000	 1.172300588340375e+001
 1.897387501352160e+000	 1.698652070646494e+000	 1.168038428171033e+001
 2.094244383402860e+000	 1.495385139886820e+000	 1.195475272519721e+001
 2.077705476644865e+000	 1.518280686144003e+000	 1.194686943088360e+001
 2.060901917613437e+000	 1.541012550052406e+000	 1.193208447972145e+001
 2.043836115478307e+000	 1.563576185189036e+000	 1.191059865139841e+001
 2.026510582694749e+000	 1.585967092072844e+000	 1.188257974144723e+001
 2.008927933869246e+000	 1.608180821080641e+000	 1.184815760693948e+001
 1.991090884526934e+000	 1.630212975330303e+000	 1.180803425985395e+001
 1.973002249781873e+000	 1.652059213527451e+000	 1.176616142652977e+001
 1.954664942911449e+000	 1.673715252771761e+000	 1.172366525573022e+001
 1.936081973836309e+000	 1.695176871319185e+000	 1.168107657946896e+001
 1.917256447507461e+000	 1.716439911296353e+000	 1.163894226774715e+001
 2.115947494085821e+000	 1.510882141793964e+000	 1.191971492887982e+001
 2.099237191034965e+000	 1.534014959583876e+000	 1.191126561072374e+001
 2.082259493061533e+000	 1.556982398749111e+000	 1.189553442094035e+001
 2.065016834301999e+000	 1.579779865751119e+000	 1.187301619205855e+001
 2.047511753248752e+000	 1.602402814479762e+000	 1.184418072426211e+001
 2.029746891604005e+000	 1.624846749199452e+000	 1.180946694764887e+001
 2.011724993034463e+000	 1.647107227462233e+000	 1.176927687932303e+001
 1.993448901827818e+000	 1.669179862983960e+000	 1.172432265822570e+001
 1.974921561452376e+000	 1.691060328479695e+000	 1.167912963897525e+001
 1.956146013021241e+000	 1.712744358454552e+000	 1.163564679048035e+001
 1.937125393662695e+000	 1.734227751946229e+000	 1.159473096273030e+001
 1.738435932119337e+000	 1.556349345450221e+000	 1.189323043974151e+001
 1.721151818107034e+000	 1.575442586637168e+000	 1.184777136893596e+001
 1.703653718137051e+000	 1.594348471918019e+000	 1.179629923434048e+001
 1.685944696578731e+000	 1.613063422360952e+000	 1.173957953404351e+001
 1.668027897230322e+000	 1.631583926286766e+000	 1.167841437947964e+001
 1.649906541462033e+000	 1.649906541462033e+000	 1.161364456761661e+001
 1.631583926286766e+000	 1.668027897230322e+000	 1.154615156773402e+001
 1.613063422360952e+000	 1.685944696578731e+000	 1.147685940453431e+001
 1.594348471918019e+000	 1.703653718137050e+000	 1.140673641912853e+001
 1.575442586637168e+000	 1.721151818107033e+000	 1.133679688936745e+001
 1.556349345450221e+000	 1.738435932119337e+000	 1.126810249105650e+001
 1.758304878271573e+000	 1.574137186099347e+000	 1.188002008142239e+001
 1.740823220522151e+000	 1.593448647914248e+000	 1.183457932108553e+001
 1.723125131125022e+000	 1.612570612493426e+000	 1.178215938283213e+001
 1.705213709472846e+000	 1.631499460000704e+000	 1.172378373238233e+001
 1.687092135294994e+000	 1.650231638621166e+000	 1.166052083080989e+001
 1.668763666779383e+000	 1.668763666779383e+000	 1.159348594174498e+001
 1.650231638621165e+000	 1.687092135294993e+000	 1.152384284301541e+001
 1.631499460000704e+000	 1.705213709472846e+000	 1.145280542422720e+001
 1.612570612493427e+000	 1.723125131125022e+000	 1.138163915155815e+001
 1.593448647914249e+000	 1.740823220522151e+000	 1.131166238094246e+001
 1.574137186099347e+000	 1.758304878271573e+000	 1.124424750087622e+001
 1.778173824424543e+000	 1.591925026748623e+000	 1.186254091514990e+001
 1.760494622937957e+000	 1.611454709191528e+000	 1.181676547864145e+001
 1.742596544113631e+000	 1.630792753069090e+000	 1.176353546023386e+001
 1.724482722367538e+000	 1.649935497640772e+000	 1.170404079786068e+001
 1.706156373360179e+000	 1.668879350955947e+000	 1.163952254267724e+001
 1.687620792097182e+000	 1.687620792097182e+000	 1.157127457373481e+001
 1.668879350955947e+000	 1.706156373360179e+000	 1.150064521142061e+001
 1.649935497640772e+000	 1.724482722367539e+000	 1.142903871051956e+001
 1.630792753069090e+000	 1.742596544113630e+000	 1.135791661347796e+001
 1.611454709191528e+000	 1.760494622937957e+000	 1.128879894432311e+001
 1.591925026748623e+000	 1.778173824424543e+000	 1.122326522370868e+001
 1.798042770578147e+000	 1.609712867398032e+000	 1.184102418894340e+001
 1.780166025354362e+000	 1.629460770468984e+000	 1.179475688401229e+001
 1.762067957102794e+000	 1.649014893644980e+000	 1.174099740485503e+001
 1.743751735262737e+000	 1.668371535281121e+000	 1.168101356511293e+001
 1.725220611425817e+000	 1.687527063291067e+000	 1.161612818776641e+001
 1.706477917415378e+000	 1.706477917415378e+000	 1.154772089710167e+001
 1.687527063291067e+000	 1.725220611425817e+000	 1.147722980823699e+001
 1.668371535281121e+000	 1.743751735262737e+000	 1.140615309401330e+001
 1.649014893644980e+000	 1.762067957102794e+000	 1.133605040871976e+001
 1.629460770468985e+000	 1.780166025354361e+000	 1.126854414794912e+001
 1.609712867398033e+000	 1.798042770578147e+000	 1.120532052385129e+001
 1.817911716732283e+000	 1.627500708047558e+000	 1.181569553033128e+001
 1.799837427771275e+000	 1.647466831746596e+000	 1.176896859630283e+001
 1.781539370092433e+000	 1.667237034221068e+000	 1.171509923313027e+001
 1.763020748158372e+000	 1.686807572921716e+000	 1.165534729923556e+001
 1.744284849491846e+000	 1.706174775626481e+000	 1.159102937654257e+001
 1.725335042733916e+000	 1.725335042733916e+000	 1.152352080706599e+001
 1.706174775626481e+000	 1.744284849491846e+000	 1.145425763030776e+001
 1.686807572921716e+000	 1.763020748158372e+000	 1.138473839981229e+001
 1.667237034221068e+000	 1.781539370092433e+000	 1.131652585682867e+001
 1.647466831746596e+000	 1.799837427771274e+000	 1.125124843878328e+001
 1.627500708047558e+000	 1.817911716732282e+000	 1.119060160019084e+001
 1.837780662886853e+000	 1.645288548697183e+000	 1.178677149733670e+001
 1.819508830188606e+000	 1.665472893024340e+000	 1.173980062224436e+001
 1.801010783082467e+000	 1.685459174797326e+000	 1.168637622844492e+001
 1.782289761054373e+000	 1.705243610562521e+000	 1.162766702756894e+001
 1.763349087558206e+000	 1.724822487962146e+000	 1.156489802426880e+001
 1.744192168052746e+000	 1.744192168052746e+000	 1.149935296240228e+001
 1.724822487962147e+000	 1.763349087558206e+000	 1.143237667971717e+001
 1.705243610562521e+000	 1.782289761054372e+000	 1.136537734754035e+001
 1.685459174797326e+000	 1.801010783082467e+000	 1.129982857148091e+001
 1.665472893024340e+000	 1.819508830188606e+000	 1.123727132883466e+001
 1.645288548697183e+000	 1.837780662886853e+000	 1.117931571823711e+001
 1.857649609041755e+000	 1.663076389346893e+000	 1.175445613024032e+001
 1.839180232606266e+000	 1.683478954302194e+000	 1.170763482302604e+001
 1.820482196072817e+000	 1.703681315373725e+000	 1.165534208906197e+001
 1.801558773950668e+000	 1.723679648203500e+000	 1.159857482140212e+001
 1.782413325624836e+000	 1.743470200298019e+000	 1.153838366592573e+001
 1.763049293371817e+000	 1.763049293371817e+000	 1.147587603985591e+001
 1.743470200298020e+000	 1.782413325624836e+000	 1.141221907091954e+001
 1.723679648203500e+000	 1.801558773950668e+000	 1.134864243140660e+001
 1.703681315373725e+000	 1.820482196072817e+000	 1.128644104079063e+001
 1.683478954302194e+000	 1.839180232606266e+000	 1.122697761015668e+001
 1.663076389346893e+000	 1.857649609041755e+000	 1.117168500146518e+001
 1.877518555196891e+000	 1.680864229996669e+000	 1.171893750406221e+001
 1.858851635024165e+000	 1.701485015580137e+000	 1.167283179881164e+001
 1.839953609063402e+000	 1.721903455950237e+000	 1.162248603817918e+001
 1.820827786847187e+000	 1.742115685844617e+000	 1.156864703130976e+001
 1.801477563691672e+000	 1.762117912634055e+000	 1.151211072289168e+001
 1.781906418691073e+000	 1.781906418691073e+000	 1.145372594464183e+001
 1.762117912634056e+000	 1.801477563691673e+000	 1.139439810402044e+001
 1.742115685844617e+000	 1.820827786847188e+000	 1.133509278179620e+001
 1.721903455950237e+000	 1.839953609063402e+000	 1.127683920936567e+001
 1.701485015580137e+000	 1.858851635024164e+000	 1.122073359621141e+001
 1.680864229996668e+000	 1.877518555196891e+000	 1.116794227757208e+001
 1.897387501352160e+000	 1.698652070646494e+000	 1.168038428171033e+001
 1.878523037442211e+000	 1.719491076858146e+000	 1.163572775257779e+001
 1.859425022054142e+000	 1.740125596526833e+000	 1.158826989889334e+001
 1.840096799743862e+000	 1.760551723485837e+000	 1.153843147952025e+001
 1.820541801758657e+000	 1.780765624970212e+000	 1.148667572492042e+001
 1.800763544010466e+000	 1.800763544010466e+000	 1.143351298024402e+001
 1.780765624970212e+000	 1.820541801758657e+000	 1.137950530669128e+001
 1.760551723485837e+000	 1.840096799743862e+000	 1.132527100974076e+001
 1.740125596526834e+000	 1.859425022054142e+000	 1.127148906198416e+001
 1.719491076858146e+000	 1.878523037442210e+000	 1.121890338766739e+001
 1.698652070646494e+000	 1.897387501352160e+000	 1.116832697562359e+001
 1.917256447507461e+000	 1.716439911296353e+000	 1.163894226774715e+001
 1.898194439860316e+000	 1.737497138136199e+000	 1.159663133477364e+001
 1.878896435044957e+000	 1.758347737103486e+000	 1.155312513661677e+001
 1.859365812640619e+000	 1.778987761127123e+000	 1.150844461243174e+001
 1.839606039825727e+000	 1.799413337306444e+000	 1.146264449065846e+001
 1.819620669329943e+000	 1.819620669329942e+000	 1.141581898046823e+001
 1.799413337306445e+000	 1.839606039825728e+000	 1.136810744699213e+001
 1.778987761127124e+000	 1.859365812640618e+000	 1.131970003551031e+001
 1.758347737103486e+000	 1.878896435044956e+000	 1.127084320877446e+001
 1.737497138136199e+000	 1.898194439860315e+000	 1.122184516085797e+001
 1.716439911296353e+000	 1.917256447507461e+000	 1.117308107039838e+001
 1.937125393662695e+000	 1.734227751946229e+000	 1.159473096273030e+001
 1.917865842278389e+000	 1.755503199414275e+000	 1.155582047017890e+001
 1.898367848035766e+000	 1.776569877680165e+000	 1.151744987128320e+001
 1.878634825537390e+000	 1.797423798768442e+000	 1.147916861613811e+001
 1.858670277892823e+000	 1.818061049642710e+000	 1.144054926967938e+001
 1.838477794649450e+000	 1.838477794649450e+000	 1.140119440645832e+001
 1.818061049642710e+000	 1.858670277892823e+000	 1.136074351919226e+001
 1.797423798768442e+000	 1.878634825537389e+000	 1.131887990246690e+001
 1.776569877680165e+000	 1.898367848035765e+000	 1.127533747179053e+001
 1.755503199414276e+000	 1.917865842278388e+000	 1.122990747727362e+001
 1.734227751946229e+000	 1.937125393662695e+000	 1.118244507054155e+001
 1.556349345450221e+000	 1.738435932119337e+000	 1.126810249105650e+001
 1.537069487102882e+000	 1.755505621180099e+000	 1.119658360593413e+001
 1.517609571401743e+000	 1.772355376050134e+000	 1.111827688712869e+001
 1.497973368419745e+000	 1.788982381374034e+000	 1.103445326431625e+001
 1.478164706143359e+000	 1.805383907963363e+000	 1.094644279959337e+001
 1.458187468011342e+000	 1.821557314259135e+000	 1.085563508867609e+001
 1.438045590410164e+000	 1.837500047710094e+000	 1.076347939139109e+001
 1.417743060129417e+000	 1.853209646065358e+000	 1.067148447744885e+001
 1.397283911780662e+000	 1.868683738580113e+000	 1.058121817471782e+001
 1.376672225183125e+000	 1.883920047133223e+000	 1.049430660856710e+001
 1.355912122719749e+000	 1.898916387255753e+000	 1.041243312232256e+001
 1.574137186099347e+000	 1.758304878271573e+000	 1.124424750087622e+001
 1.554636974237704e+000	 1.775569660362075e+000	 1.117549429727039e+001
 1.534954647109300e+000	 1.792611994588221e+000	 1.110122727810918e+001
 1.515094017876017e+000	 1.809429033417307e+000	 1.102245666347208e+001
 1.495058958275175e+000	 1.826018016468425e+000	 1.094024600831664e+001
 1.474853396130154e+000	 1.842376271991649e+000	 1.085571335454963e+001
 1.454481312817197e+000	 1.858501218262074e+000	 1.077003211355015e+001
 1.433946740691740e+000	 1.874390364887229e+000	 1.068443166239553e+001
 1.413253760477749e+000	 1.890041314026553e+000	 1.060019763828852e+001
 1.392406498623550e+000	 1.905451761521779e+000	 1.051867191707289e+001
 1.371409124627651e+000	 1.920619497937211e+000	 1.044125226325045e+001
 1.591925026748623e+000	 1.778173824424543e+000	 1.122326522370868e+001
 1.572204461372635e+000	 1.795633699544820e+000	 1.115736888903824e+001
 1.552299722816932e+000	 1.812868613127101e+000	 1.108662709416392e+001
 1.532214667332337e+000	 1.829875685461390e+000	 1.101186779246036e+001
 1.511953210407012e+000	 1.846652124974303e+000	 1.093396874340355e+001
 1.491519324248966e+000	 1.863195229724979e+000	 1.085385927970206e+001
 1.470917035224208e+000	 1.879502388814862e+000	 1.077252180295086e+001
 1.450150421254014e+000	 1.895571083709891e+000	 1.069099298855930e+001
 1.429223609174760e+000	 1.911398889473760e+000	 1.061036468197792e+001
 1.408140772063864e+000	 1.926983475911070e+000	 1.053178446967927e+001
 1.386906126535400e+000	 1.942322608619367e+000	 1.045645590992788e+001
 1.609712867398033e+000	 1.798042770578147e+000	 1.120532052385129e+001
 1.589771948507662e+000	 1.815697738728223e+000	 1.114221458621580e+001
 1.569644798524630e+000	 1.833125231666656e+000	 1.107438069123280e+001
 1.549335316788698e+000	 1.850322337506155e+000	 1.100254008344189e+001
 1.528847462538872e+000	 1.867286233480864e+000	 1.092746250679212e+001
 1.508185252367777e+000	 1.884014187458984e+000	 1.084996845475673e+001
 1.487352757631197e+000	 1.900503559368311e+000	 1.077093114401707e+001
 1.466354101816246e+000	 1.916751802533196e+000	 1.069127819019873e+001
 1.445193457871703e+000	 1.932756464921588e+000	 1.061199296544494e+001
 1.423875045504081e+000	 1.948515190300957e+000	 1.053411561908978e+001
 1.402403128443016e+000	 1.964025719302089e+000	 1.045874374433290e+001
 1.627500708047558e+000	 1.817911716732282e+000	 1.119060160019084e+001
 1.607339435642774e+000	 1.835761777912175e+000	 1.113007175551324e+001
 1.586989874232388e+000	 1.853381850206765e+000	 1.106443303433259e+001
 1.566455966245095e+000	 1.870768989551472e+000	 1.099437275899728e+001
 1.545741714670747e+000	 1.887920341987970e+000	 1.092062762171123e+001
 1.524851180486589e+000	 1.904833145193523e+000	 1.084398628918819e+001
 1.503788480038169e+000	 1.921504729922276e+000	 1.076529172296235e+001
 1.482557782378440e+000	 1.937932521356998e+000	 1.068544319178833e+001
 1.461163306568586e+000	 1.954114040369891e+000	 1.060539795390323e+001
 1.439609318944211e+000	 1.970046904691297e+000	 1.052617258844847e+001
 1.417900130350513e+000	 1.985728829985244e+000	 1.044884395705318e+001
 1.645288548697183e+000	 1.837780662886853e+000	 1.117931571823711e+001
 1.624906922777959e+000	 1.855825817096565e+000	 1.112100924390185e+001
 1.604334949940195e+000	 1.873638468747310e+000	 1.105676473782346e+001
 1.583576615701524e+000	 1.891215641597215e+000	 1.098730572282348e+001
 1.562635966802639e+000	 1.908554450495486e+000	 1.091340809583384e+001
 1.541517108605399e+000	 1.925652102928452e+000	 1.083590296218344e+001
 1.520224202445125e+000	 1.942505900476612e+000	 1.075567917473098e+001
 1.498761462940602e+000	 1.959113240181149e+000	 1.067368555243814e+001
 1.477133155265419e+000	 1.975471615818524e+000	 1.059093275435899e+001
 1.455343592384268e+000	 1.991578619081950e+000	 1.050849478659666e+001
 1.433397132257910e+000	 2.007431940668699e+000	 1.042823089563250e+001
 1.663076389346893e+000	 1.857649609041755e+000	 1.117168500146518e+001
 1.642474409913206e+000	 1.875889856281284e+000	 1.111511978487943e+001
 1.621680025648045e+000	 1.893895087288170e+000	 1.105138721338067e+001
 1.600697265157980e+000	 1.911662293643256e+000	 1.098131457005983e+001
 1.579530218934543e+000	 1.929188559003277e+000	 1.090578660836065e+001
 1.558183036724210e+000	 1.946471060663631e+000	 1.082574849453796e+001
 1.536659924852068e+000	 1.963507071031173e+000	 1.074220844131741e+001
 1.514965143502738e+000	 1.980293959005503e+000	 1.065624000571502e+001
 1.493103003962208e+000	 1.996829191267340e+000	 1.056898402539707e+001
 1.471077865824264e+000	 2.013110333472775e+000	 1.048410494113848e+001
 1.448894134165222e+000	 2.029135051352321e+000	 1.040711512601877e+001
 1.680864229996668e+000	 1.877518555196891e+000	 1.116794227757209e+001
 1.660041897048500e+000	 1.895953895466221e+000	 1.111251548597263e+001
 1.639025101355928e+000	 1.914151705829226e+000	 1.104833791769229e+001
 1.617817914614457e+000	 1.932108945689464e+000	 1.097640570838073e+001
 1.596424471066456e+000	 1.949822667511205e+000	 1.089777961185237e+001
 1.574848964843021e+000	 1.967290018398917e+000	 1.081358793262018e+001
 1.553095647259001e+000	 1.984508241585813e+000	 1.072502913321427e+001
 1.531168824064851e+000	 2.001474677829911e+000	 1.063340856093211e+001
 1.509072852658964e+000	 2.018186766716196e+000	 1.054504800830485e+001
 1.486812139264209e+000	 2.034642047863629e+000	 1.046401868948870e+001
 1.464391136072466e+000	 2.050838162035976e+000	 1.039045893722172e+001
 1.698652070646494e+000	 1.897387501352160e+000	 1.116832697562359e+001
 1.677609384183830e+000	 1.916017934651265e+000	 1.111332339152147e+001
 1.656370177063837e+000	 1.934408324370359e+000	 1.104767569257376e+001
 1.634938564070949e+000	 1.952555597735713e+000	 1.097261158173618e+001
 1.613318723198378e+000	 1.970456776019136e+000	 1.088943254039958e+001
 1.591514892961831e+000	 1.988108976134169e+000	 1.079951663619033e+001
 1.569531369665925e+000	 2.005509412140386e+000	 1.070482827640817e+001
 1.547372504626949e+000	 2.022655396654229e+000	 1.061374518715908e+001
 1.525042701355693e+000	 2.039544342164942e+000	 1.052907931623399e+001
 1.502546412704118e+000	 2.056173762254373e+000	 1.045121304188537e+001
 1.479888137979660e+000	 2.072541272719535e+000	 1.038050882953614e+001
 1.716439911296353e+000	 1.917256447507461e+000	 1.117308107039838e+001
 1.695176871319185e+000	 1.936081973836309e+000	 1.111768111528491e+001
 1.673715252771762e+000	 1.954664942911448e+000	 1.104947619079414e+001
 1.652059213527451e+000	 1.973002249781873e+000	 1.096998598929319e+001
 1.630212975330304e+000	 1.991090884526934e+000	 1.088081511641626e+001
 1.608180821080641e+000	 2.008927933869245e+000	 1.078504622680050e+001
 1.585967092072845e+000	 2.026510582694747e+000	 1.069229863361543e+001
 1.563576185189036e+000	 2.043836115478306e+000	 1.060467101045983e+001
 1.541012550052406e+000	 2.060901917613436e+000	 1.052285116288224e+001
 1.518280686144003e+000	 2.077705476644865e+000	 1.044751694661131e+001
 1.495385139886820e+000	 2.094244383402860e+000	 1.037932691140321e+001
 1.734227751946229e+000	 1.937125393662695e+000	 1.118244507054155e+001
 1.712744358454553e+000	 1.956146013021240e+000	 1.112573253785440e+001
 1.691060328479696e+000	 1.974921561452375e+000	 1.105382738146079e+001
 1.669179862983960e+000	 1.993448901827817e+000	 1.096859949274367e+001
 1.647107227462233e+000	 2.011724993034462e+000	 1.087449996916813e+001
 1.624846749199453e+000	 2.029746891604005e+000	 1.078186372101745e+001
 1.602402814479763e+000	 2.047511753248752e+000	 1.069250790394404e+001
 1.579779865751119e+000	 2.065016834301999e+000	 1.060747825598561e+001
 1.556982398749112e+000	 2.082259493061532e+000	 1.052782454314036e+001
 1.534014959583876e+000	 2.099237191034965e+000	 1.045458931583217e+001
 1.510882141793964e+000	 2.115947494085821e+000	 1.038879713695047e+001
 1.355912122719749e+000	 1.898916387255753e+000	 1.041243312232256e+001
 1.335007766215311e+000	 1.913670668530300e+000	 1.032909847722131e+001
 1.313963352917359e+000	 1.928180893807916e+000	 1.023910498160784e+001
 1.292783114191905e+000	 1.942445161561669e+000	 1.014546520518453e+001
 1.271471313257540e+000	 1.956461667092249e+000	 1.004894833122081e+001
 1.250032242448504e+000	 1.970228703106179e+000	 9.950232863112447e+000
 1.228470220469227e+000	 1.983744660202318e+000	 9.849918540113208e+000
 1.206789589643861e+000	 1.997008027266777e+000	 9.748526424512974e+000
 1.184994713164320e+000	 2.010017391776478e+000	 9.646560692958978e+000
 1.163089972340300e+000	 2.022771440011765e+000	 9.543825734594165e+000
 1.141079763854727e+000	 2.035268957178629e+000	 9.439294317459398e+000
 1.371409124627651e+000	 1.920619497937211e+000	 1.044125226325045e+001
 1.350265847881186e+000	 1.935542408963624e+000	 1.036121088022428e+001
 1.328980913602921e+000	 1.950218474626249e+000	 1.027200530689815e+001
 1.307558601520036e+000	 1.964645771665227e+000	 1.017806611156414e+001
 1.286003223576339e+000	 1.978822474754979e+000	 1.008172325207409e+001
 1.264319121164056e+000	 1.992746857089031e+000	 9.983705059632209e+000
 1.242510662346994e+000	 2.006417290872078e+000	 9.884836652596217e+000
 1.220582239078634e+000	 2.019832247719413e+000	 9.786339996752378e+000
 1.198538264418724e+000	 2.032990298963953e+000	 9.687585220563989e+000
 1.176383169751866e+000	 2.045890115871281e+000	 9.587584185784049e+000
 1.154121402011592e+000	 2.058530469763272e+000	 9.485285413329624e+000
 1.386906126535400e+000	 1.942322608619367e+000	 1.045645590992788e+001
 1.365523929546859e+000	 1.957414149397602e+000	 1.037761677767036e+001
 1.343998474288225e+000	 1.972256055445191e+000	 1.028871435812017e+001
 1.322334088847848e+000	 1.986846381769343e+000	 1.019208227382298e+001
 1.300535133894754e+000	 2.001183282418213e+000	 1.009328668445433e+001
 1.278605999879158e+000	 2.015265011072331e+000	 9.995254993001895e+000
 1.256551104224243e+000	 2.029089921542231e+000	 9.898691287648331e+000
 1.234374888512827e+000	 2.042656468172388e+000	 9.802747129439714e+000
 1.212081815672490e+000	 2.055963206151714e+000	 9.706481540765312e+000
 1.189676367162742e+000	 2.069008791731038e+000	 9.608878919660706e+000
 1.167163040167724e+000	 2.081791982348114e+000	 9.508866393321128e+000
 1.402403128443016e+000	 1.964025719302089e+000	 1.045874374433290e+001
 1.380782011212353e+000	 1.979285889832116e+000	 1.037923997491744e+001
 1.359016034973300e+000	 1.994293636264635e+000	 1.028923490391074e+001
 1.337109576175376e+000	 2.009046991873926e+000	 1.019108587367742e+001
 1.315067044212828e+000	 2.023544090081880e+000	 1.009108604876119e+001
 1.292892878593861e+000	 2.037783165056029e+000	 9.993642275828883e+000
 1.270591546101038e+000	 2.051762552212749e+000	 9.898076199096359e+000
 1.248167537946512e+000	 2.065480688625692e+000	 9.803492630194111e+000
 1.225625366925699e+000	 2.078936113339772e+000	 9.708905591290156e+000
 1.202969564573017e+000	 2.092127467591057e+000	 9.613257991228814e+000
 1.180204678323221e+000	 2.105053494933187e+000	 9.515440668292028e+000
 1.417900130350513e+000	 1.985728829985244e+000	 1.044884395705318e+001
 1.396040092877691e+000	 2.001157630267043e+000	 1.036704112345815e+001
 1.374033595658174e+000	 2.016331217084475e+000	 1.027749379923373e+001
 1.351885063502655e+000	 2.031247601978889e+000	 1.018291208534666e+001
 1.329598954530604e+000	 2.045904897745909e+000	 1.008359378367583e+001
 1.307179757308218e+000	 2.060301319040077e+000	 9.984788014562515e+000
 1.284631987977440e+000	 2.074435182883600e+000	 9.888643886163713e+000
 1.261960187379759e+000	 2.088304909079316e+000	 9.794206708233279e+000
 1.239168918178430e+000	 2.101909020528132e+000	 9.700431605137943e+000
 1.216262761982782e+000	 2.115246143451361e+000	 9.606205121152149e+000
 1.193246316478183e+000	 2.128315007518526e+000	 9.510366116788308e+000
 1.433397132257910e+000	 2.007431940668699e+000	 1.042823089563250e+001
 1.411298174542895e+000	 2.023029370702264e+000	 1.034848202734319e+001
 1.389051156342877e+000	 2.038368797904605e+000	 1.026299079332365e+001
 1.366660550829724e+000	 2.053448212084144e+000	 1.017184129284388e+001
 1.344130864848129e+000	 2.068265705410236e+000	 1.007511413873277e+001
 1.321466636022281e+000	 2.082819473024427e+000	 9.974186411929779e+000
 1.298672429853509e+000	 2.097107813554756e+000	 9.875912443366291e+000
 1.275752836812638e+000	 2.111129129533246e+000	 9.780400168580309e+000
 1.252712469430765e+000	 2.124881927716801e+000	 9.686530936148891e+000
 1.229555959392128e+000	 2.138364819311972e+000	 9.593119118002882e+000
 1.206287954632712e+000	 2.151576520104164e+000	 9.498935031597632e+000
 1.448894134165222e+000	 2.029135051352321e+000	 1.040711512601877e+001
 1.426556256207987e+000	 2.044901111137655e+000	 1.033114386313728e+001
 1.404068717027438e+000	 2.060406378724920e+000	 1.024917996029501e+001
 1.381436038156617e+000	 2.075648822189603e+000	 1.016120407854973e+001
 1.358662775165444e+000	 2.090626513074789e+000	 1.006718905185900e+001
 1.335753514736104e+000	 2.105337627009026e+000	 9.967095987666857e+000
 1.312712871729308e+000	 2.119780444226189e+000	 9.865242880109260e+000
 1.289545486245221e+000	 2.133953349987476e+000	 9.767442469257659e+000
 1.266256020682782e+000	 2.147854834905786e+000	 9.672550788547213e+000
 1.242849156801144e+000	 2.161483495172911e+000	 9.579293213806693e+000
 1.219329592786908e+000	 2.174838032690135e+000	 9.486353993917605e+000
 1.464391136072466e+000	 2.050838162035976e+000	 1.039045893722172e+001
 1.441814337872990e+000	 2.066772851573099e+000	 1.031771486558596e+001
 1.419086277711884e+000	 2.082443959545315e+000	 1.023897456654050e+001
 1.396211525483371e+000	 2.097849432295178e+000	 1.015411281770741e+001
 1.373194685482595e+000	 2.112987320739501e+000	 1.006299050585934e+001
 1.350040393449737e+000	 2.127855780993828e+000	 9.965450577827681e+000
 1.326753313604897e+000	 2.142453074897867e+000	 9.861816348174525e+000
 1.303338135677580e+000	 2.156777570441994e+000	 9.760539685616074e+000
 1.279799571934566e+000	 2.170827742095096e+000	 9.663692857575512e+000
 1.256142354209923e+000	 2.184602171034202e+000	 9.569894319305156e+000
 1.232371230940871e+000	 2.198099545276473e+000	 9.477723680500278e+000
 1.479888137979660e+000	 2.072541272719535e+000	 1.038050882953614e+001
 1.457072419537926e+000	 2.088644592008472e+000	 1.031068433791913e+001
 1.434103838396246e+000	 2.104481540365685e+000	 1.023508195687025e+001
 1.410987012810021e+000	 2.120050042400781e+000	 1.015346830909967e+001
 1.387726595799625e+000	 2.135348128404301e+000	 1.006558834203793e+001
 1.364327272163235e+000	 2.150373934978783e+000	 9.971161114791224e+000
 1.340793755480340e+000	 2.165125705569764e+000	 9.869876347876703e+000
 1.317130785109784e+000	 2.179601790896790e+000	 9.764712388607014e+000
 1.293343123186195e+000	 2.193800649284737e+000	 9.664991887738550e+000
 1.269435551618554e+000	 2.207720846895865e+000	 9.569942204824454e+000
 1.245412869094703e+000	 2.221361057863212e+000	 9.478018608690096e+000
 1.495385139886820e+000	 2.094244383402860e+000	 1.037932691140321e+001
 1.472330501202817e+000	 2.110516332443655e+000	 1.031234906105666e+001
 1.449121399080551e+000	 2.126519121185921e+000	 1.024001008043330e+001
 1.425762500136603e+000	 2.142250652506323e+000	 1.016196635307306e+001
 1.402258506116578e+000	 2.157708936069120e+000	 1.007784308292795e+001
 1.378614150876650e+000	 2.172892088963843e+000	 9.987229900693938e+000
 1.354834197355695e+000	 2.187798336241848e+000	 9.889677303758681e+000
 1.330923434541904e+000	 2.202426011351852e+000	 9.784773443243678e+000
 1.306886674437749e+000	 2.216773556474716e+000	 9.681294154634335e+000
 1.282728749027128e+000	 2.230839522757924e+000	 9.584288612147365e+000
 1.258454507248502e+000	 2.244622570450384e+000	 9.492066823858727e+000
 1.510882141793964e+000	 2.115947494085821e+000	 1.038879713695047e+001
 1.487588582867686e+000	 2.132388072878527e+000	 1.032481968955390e+001
 1.464138959764830e+000	 2.148556702005919e+000	 1.025607398364196e+001
 1.440537987463155e+000	 2.164451262611716e+000	 1.018210428068923e+001
 1.416790416433498e+000	 2.180069743733891e+000	 1.010241243764409e+001
 1.392901029590033e+000	 2.195410242948957e+000	 1.001645331348474e+001
 1.368874639231027e+000	 2.210470966914092e+000	 9.923631086192017e+000
 1.344716083974014e+000	 2.225250231807174e+000	 9.823296527325589e+000
 1.320430225689310e+000	 2.239746463665040e+000	 9.717235875862947e+000
 1.296021946435735e+000	 2.253958198620400e+000	 9.617596302344749e+000
 1.271496145402372e+000	 2.267884083038025e+000	 9.524529533377617e+000
 1.141079763854727e+000	 2.035268957178629e+000	 9.439294317459398e+000
 1.118971821116124e+000	 2.047507011200338e+000	 9.333511486703145e+000
 1.096767268820617e+000	 2.059486480776334e+000	 9.227801547015254e+000
 1.074470532596845e+000	 2.071206449790665e+000	 9.122243349329752e+000
 1.052086042539205e+000	 2.082666100602788e+000	 9.016856995603067e+000
 1.029618230541539e+000	 2.093864713729078e+000	 8.911611340865397e+000
 1.007071527655772e+000	 2.104801667440269e+000	 8.806422025502030e+000
 9.844503614784809e-001	 2.115476437276296e+000	 8.701188670062640e+000
 9.617591535682959e-001	 2.125888595480185e+000	 8.595754846451781e+000
 9.390023168969377e-001	 2.136037810352668e+000	 8.489939224914012e+000
 9.161842533366134e-001	 2.145923845529373e+000	 8.383531182945575e+000
 1.154121402011592e+000	 2.058530469763272e+000	 9.485285413329626e+000
 1.131760782993169e+000	 2.070908395051891e+000	 9.380968414593893e+000
 1.109302450247109e+000	 2.083024780479415e+000	 9.275796488558258e+000
 1.086750879983489e+000	 2.094878699459406e+000	 9.170008203757551e+000
 1.064110552929180e+000	 2.106469325006327e+000	 9.063790610452063e+000
 1.041385951631064e+000	 2.117795929413423e+000	 8.957287376744951e+000
 1.018581557784485e+000	 2.128857883845541e+000	 8.850605848045996e+000
 9.957018495899485e-001	 2.139654657848452e+000	 8.743812744260236e+000
 9.727512991409993e-001	 2.150185818776249e+000	 8.636976998138326e+000
 9.497343698461379e-001	 2.160451031138595e+000	 8.530119641557054e+000
 9.266555138874860e-001	 2.170450055869658e+000	 8.423249597817097e+000
 1.167163040167724e+000	 2.081791982348114e+000	 9.508866393321128e+000
 1.144549744869445e+000	 2.094309778903607e+000	 9.406409560609241e+000
 1.121837631672807e+000	 2.106563080182627e+000	 9.302443481620712e+000
 1.099031227369319e+000	 2.118550949128249e+000	 9.197323846634575e+000
 1.076135063318328e+000	 2.130272549409948e+000	 9.091362965704102e+000
 1.053153672719755e+000	 2.141727145097828e+000	 8.984838690002238e+000
 1.030091587912362e+000	 2.152914100250859e+000	 8.878002134641783e+000
 1.006953337700579e+000	 2.163832878420640e+000	 8.771074597541755e+000
 9.837434447128681e-001	 2.174483042072332e+000	 8.664288108888181e+000
 9.604664227945042e-001	 2.184864251924533e+000	 8.557839522074504e+000
 9.371267744375258e-001	 2.194976266209943e+000	 8.451923876950461e+000
 1.180204678323221e+000	 2.105053494933187e+000	 9.515440668292030e+000
 1.157338706745061e+000	 2.117711162755524e+000	 9.415069151672618e+000
 1.134372813097828e+000	 2.130101379886014e+000	 9.312795861532726e+000
 1.111311574754465e+000	 2.142223198797244e+000	 9.209051374365890e+000
 1.088159573706788e+000	 2.154075773813694e+000	 9.104231984430545e+000
 1.064921393807760e+000	 2.165658360782337e+000	 8.998709566331707e+000
 1.041601618039556e+000	 2.176970316656258e+000	 8.892840107035173e+000
 1.018204825810531e+000	 2.188011098992889e+000	 8.786970824912910e+000
 9.947355902840641e-001	 2.198780265368455e+000	 8.681434400082898e+000
 9.711984757422018e-001	 2.209277472710489e+000	 8.576595589390614e+000
 9.475980349868981e-001	 2.219502476550226e+000	 8.472794132733936e+000
 1.193246316478183e+000	 2.128315007518526e+000	 9.510366116788308e+000
 1.170127668620127e+000	 2.141112546607686e+000	 9.412155469793653e+000
 1.146907994522294e+000	 2.153639679589622e+000	 9.311900725599649e+000
 1.123591922139056e+000	 2.165895448466434e+000	 9.210065353108423e+000
 1.100184084094699e+000	 2.177878998217612e+000	 9.107088651685782e+000
 1.076689114895223e+000	 2.189589576466989e+000	 9.003396716131364e+000
 1.053111648166220e+000	 2.201026533061774e+000	 8.899411928430547e+000
 1.029456313919965e+000	 2.212189319565223e+000	 8.795560886539226e+000
 1.005727735854751e+000	 2.223077488664635e+000	 8.692270134196102e+000
 9.819305286893969e-001	 2.233690693496473e+000	 8.590009971529891e+000
 9.580692955357706e-001	 2.244028686890507e+000	 8.489242493805048e+000
 1.206287954632712e+000	 2.151576520104164e+000	 9.498935031597632e+000
 1.182916630494756e+000	 2.164513930460135e+000	 9.402831279929393e+000
 1.159443175946325e+000	 2.177177979293498e+000	 9.304779830278390e+000
 1.135872269523221e+000	 2.189567698135869e+000	 9.205235174583315e+000
 1.112208594482198e+000	 2.201682222621746e+000	 9.104638819606176e+000
 1.088456835982292e+000	 2.213520792151827e+000	 9.003431520898191e+000
 1.064621678292506e+000	 2.225082749467441e+000	 8.902063889823268e+000
 1.040707802029038e+000	 2.236367540137673e+000	 8.801005275901577e+000
 1.016719881425091e+000	 2.247374711960892e+000	 8.700750845729438e+000
 9.926625816362552e-001	 2.258103914282495e+000	 8.601814161465128e+000
 9.685405560843093e-001	 2.268554897230786e+000	 8.504777487597725e+000
 1.219329592786908e+000	 2.174838032690135e+000	 9.486353993917604e+000
 1.195705592369057e+000	 2.187915314312910e+000	 9.392194202779553e+000
 1.171978357370042e+000	 2.200716278997688e+000	 9.296410451519183e+000
 1.148152616907090e+000	 2.213239947805595e+000	 9.199406394003642e+000
 1.124233104869424e+000	 2.225485447026141e+000	 9.101585014111507e+000
 1.100224557069113e+000	 2.237452007836892e+000	 9.003362301057633e+000
 1.076131708418569e+000	 2.249138965873294e+000	 8.905179132509602e+000
 1.051959290137910e+000	 2.260545760710265e+000	 8.807511259090108e+000
 1.027712026995248e+000	 2.271671935257245e+000	 8.710877304365232e+000
 1.003394634582942e+000	 2.282517135068563e+000	 8.615833077445171e+000
 9.790118166326809e-001	 2.293081107571061e+000	 8.523018542153935e+000
 1.232371230940871e+000	 2.198099545276473e+000	 9.477723680500279e+000
 1.208494554243141e+000	 2.211316698166055e+000	 9.385257036594098e+000
 1.184513538793564e+000	 2.224254578702237e+000	 9.291706210999415e+000
 1.160432964290793e+000	 2.236912197475659e+000	 9.197382051444732e+000
 1.136257615256516e+000	 2.249288671430845e+000	 9.102608243089525e+000
 1.111992278155832e+000	 2.261383223522225e+000	 9.007736603640158e+000
 1.087641738544562e+000	 2.273195182279369e+000	 8.913160408954296e+000
 1.063210778246739e+000	 2.284723981283027e+000	 8.819325633364588e+000
 1.038704172565385e+000	 2.295969158553711e+000	 8.726740011052304e+000
 1.014126687529624e+000	 2.306930355854687e+000	 8.635979847251772e+000
 9.894830771810519e-001	 2.317607317911332e+000	 8.547680598363819e+000
 1.245412869094703e+000	 2.221361057863212e+000	 9.478018608690096e+000
 1.221283516117117e+000	 2.234718082019610e+000	 9.386928031734639e+000
 1.197048720217011e+000	 2.247792878407190e+000	 9.295497870752955e+000
 1.172713311674460e+000	 2.260584447146108e+000	 9.203903977869922e+000
 1.148282125643612e+000	 2.273091895835899e+000	 9.112349805957859e+000
 1.123759999242594e+000	 2.285314439207866e+000	 9.021083508349777e+000
 1.099151768670637e+000	 2.297251398685701e+000	 8.930412879203164e+000
 1.074462266355685e+000	 2.308902201855987e+000	 8.840718008642449e+000
 1.049696318135666e+000	 2.320266381850312e+000	 8.752461550612356e+000
 1.024858740476467e+000	 2.331343576640875e+000	 8.666196525550598e+000
 9.999543377295896e-001	 2.342133528251599e+000	 8.582558824538793e+000
 1.258454507248502e+000	 2.244622570450384e+000	 9.492066823858723e+000
 1.234072477991097e+000	 2.258119465873619e+000	 9.401991121416184e+000
 1.209583901640505e+000	 2.271331178112595e+000	 9.312514098487259e+000
 1.184993659058219e+000	 2.284256696816990e+000	 9.223634086927776e+000
 1.160306636030850e+000	 2.296895120241353e+000	 9.135393104501244e+000
 1.135527720329549e+000	 2.309245654893858e+000	 9.047895950691924e+000
 1.110661798796948e+000	 2.321307615092325e+000	 8.961326940264437e+000
 1.085713754464906e+000	 2.333080422429173e+000	 8.875964137842114e+000
 1.060688463706252e+000	 2.344563605147064e+000	 8.792190982375962e+000
 1.035590793423636e+000	 2.355756797427139e+000	 8.710505216382691e+000
 1.010425598278460e+000	 2.366659738591860e+000	 8.631525061006217e+000
 1.271496145402372e+000	 2.267884083038025e+000	 9.524529533377617e+000
 1.246861439865192e+000	 2.281520849728123e+000	 9.435086111778043e+000
 1.222119083064165e+000	 2.294869477818498e+000	 9.347362205695433e+000
 1.197274006442202e+000	 2.307928946488350e+000	 9.261135653540750e+000
 1.172331146418369e+000	 2.320698344647250e+000	 9.176245454896453e+000
 1.147295441416840e+000	 2.333176870580243e+000	 9.092613060936184e+000
 1.122171828923649e+000	 2.345363831499277e+000	 9.010261086090200e+000
 1.096965242574562e+000	 2.357258643002612e+000	 8.929329292575353e+000
 1.071680609277309e+000	 2.368860828443987e+000	 8.850087726919096e+000
 1.046322846371297e+000	 2.380170018213486e+000	 8.772946915546225e+000
 1.020896858827830e+000	 2.391185948932115e+000	 8.698465054634067e+000
 9.161842533366134e-001	 2.145923845529373e+000	 8.383531182945569e+000
 8.933059157493626e-001	 2.155547983255453e+000	 8.276546924093132e+000
 8.703750978801976e-001	 2.164908673947971e+000	 8.169540826548214e+000
 8.473961566412127e-001	 2.174005963882928e+000	 8.063024441281783e+000
 8.243734281452965e-001	 2.182839991099376e+000	 7.957484468282956e+000
 8.013112254104079e-001	 2.191410984317160e+000	 7.853377129743352e+000
 7.782138361143611e-001	 2.199719261790046e+000	 7.751121541900831e+000
 7.550855204020780e-001	 2.207765230096631e+000	 7.651092147466549e+000
 7.319305087471120e-001	 2.215549382871506e+000	 7.553610279989966e+000
 7.087529998691580e-001	 2.223072299479171e+000	 7.458934940113560e+000
 6.855571587091147e-001	 2.230334643633273e+000	 7.367252871390562e+000
 9.266555138874860e-001	 2.170450055869658e+000	 8.423249597817094e+000
 9.035156950175444e-001	 2.180184189869629e+000	 8.316724199024522e+000
 8.803227960576490e-001	 2.189651865845055e+000	 8.211080177743995e+000
 8.570812237159361e-001	 2.198853130600829e+000	 8.106523169041234e+000
 8.337953636636195e-001	 2.207788123753673e+000	 8.003242107006265e+000
 8.104695782130249e-001	 2.216457076637509e+000	 7.901403925244594e+000
 7.871082040467177e-001	 2.224860311143484e+000	 7.801147119724822e+000
 7.637155499996894e-001	 2.232998238497061e+000	 7.702574239405896e+000
 7.402958948964453e-001	 2.240871357974673e+000	 7.605743380434122e+000
 7.168534854447094e-001	 2.248480255562493e+000	 7.510658769177813e+000
 6.933925341873450e-001	 2.255825602559877e+000	 7.417260527897467e+000
 9.371267744375258e-001	 2.194976266209943e+000	 8.451923876950460e+000
 9.137254742848916e-001	 2.204820396483794e+000	 8.347145271247895e+000
 8.902704942342627e-001	 2.214395057742118e+000	 8.243971342323757e+000
 8.667662907898183e-001	 2.223700297318700e+000	 8.142336317052951e+000
 8.432172991810968e-001	 2.232736256407929e+000	 8.042168023673101e+000
 8.196279310147917e-001	 2.241503168957810e+000	 7.943382857672659e+000
 7.960025719782189e-001	 2.250001360496865e+000	 7.845879463191297e+000
 7.723455795964411e-001	 2.258231246897426e+000	 7.749531199216039e+000
 7.486612810449153e-001	 2.266193333077768e+000	 7.654177471216214e+000
 7.249539710193947e-001	 2.273888211645735e+000	 7.559614019275063e+000
 7.012279096647085e-001	 2.281316561486399e+000	 7.465582263167744e+000
 9.475980349868981e-001	 2.219502476550226e+000	 8.472794132733940e+000
 9.239352535515700e-001	 2.229456603097936e+000	 8.370798933321201e+000
 9.002181924102023e-001	 2.239138249639140e+000	 8.270968243685077e+000
 8.764513578630185e-001	 2.248547464036511e+000	 8.172998336929906e+000
 8.526392346978826e-001	 2.257684389062107e+000	 8.076591618756412e+000
 8.287862838158571e-001	 2.266549261278012e+000	 7.981451798804136e+000
 8.048969399090087e-001	 2.275142409850132e+000	 7.887277619579143e+000
 7.809756091924727e-001	 2.283464255297661e+000	 7.793755216469243e+000
 7.570266671926580e-001	 2.291515308180720e+000	 7.700549194774828e+000
 7.330544565933482e-001	 2.299296167728820e+000	 7.607292521087415e+000
 7.090632851413388e-001	 2.306807520412753e+000	 7.513575336658821e+000
 9.580692955357706e-001	 2.244028686890507e+000	 8.489242493805048e+000
 9.341450328177451e-001	 2.254092809712047e+000	 8.390831255927763e+000
 9.101658905856305e-001	 2.263881441536101e+000	 8.294995459941990e+000
 8.861364249356958e-001	 2.273394630754231e+000	 8.201225832867459e+000
 8.620611702141321e-001	 2.282632521716166e+000	 8.109034075559436e+000
 8.379446366163711e-001	 2.291595353598069e+000	 8.017948181563099e+000
 8.137913078392326e-001	 2.300283459203229e+000	 7.927506143971415e+000
 7.896056387879253e-001	 2.308697263697702e+000	 7.837248128384490e+000
 7.653920533398104e-001	 2.316837283283455e+000	 7.746707203617522e+000
 7.411549421667044e-001	 2.324704123811672e+000	 7.655398734263104e+000
 7.168986606173690e-001	 2.332298479338855e+000	 7.562808550498250e+000
 9.685405560843093e-001	 2.268554897230786e+000	 8.504777487597728e+000
 9.443548120835819e-001	 2.278729016326116e+000	 8.410530421232544e+000
 9.201135887607101e-001	 2.288624633432979e+000	 8.319133561694907e+000
 8.958214920080094e-001	 2.298241797471829e+000	 8.229903454059958e+000
 8.714831057299992e-001	 2.307580654370066e+000	 8.142194854168848e+000
 8.471029894164832e-001	 2.316641445917932e+000	 8.055396139081587e+000
 8.226856757690347e-001	 2.325424508556097e+000	 7.968922923714843e+000
 7.982356683829381e-001	 2.333930272097482e+000	 7.882209966736020e+000
 7.737574394865089e-001	 2.342159258385902e+000	 7.794701463529135e+000
 7.492554277395968e-001	 2.350112079894209e+000	 7.705839837619997e+000
 7.247340360929326e-001	 2.357789438264623e+000	 7.615053154273240e+000
 9.790118166326809e-001	 2.293081107571061e+000	 8.523018542153933e+000
 9.545645913492467e-001	 2.303365222940131e+000	 8.433311691784764e+000
 9.300612869356041e-001	 2.313367825329754e+000	 8.346604597404891e+000
 9.055065590801182e-001	 2.323088964189277e+000	 8.262069942698634e+000
 8.809050412456384e-001	 2.332528787023768e+000	 8.178938345028433e+000
 8.562613422163428e-001	 2.341687538237551e+000	 8.096493803636212e+000
 8.315800436985603e-001	 2.350565557908680e+000	 8.014067159374278e+000
 8.068656979776517e-001	 2.359163280496938e+000	 7.931027654391741e+000
 7.821228256328900e-001	 2.367481233487988e+000	 7.846772696213426e+000
 7.573559133121605e-001	 2.375520035976356e+000	 7.760715945415075e+000
 7.325694115681635e-001	 2.383280397189972e+000	 7.672273859506193e+000
 9.894830771810519e-001	 2.317607317911332e+000	 8.547680598363820e+000
 9.647743706149041e-001	 2.328001429554082e+000	 8.462702504924511e+000
 9.400089851104753e-001	 2.338111017226407e+000	 8.380757715434868e+000
 9.151916261521811e-001	 2.347936130906542e+000	 8.300904326023430e+000
 8.903269767612049e-001	 2.357476919677233e+000	 8.222280670309848e+000
 8.654196950160994e-001	 2.366733630556880e+000	 8.144100753616520e+000
 8.404744116279532e-001	 2.375706607260921e+000	 8.065647490588502e+000
 8.154957275722060e-001	 2.384396288896005e+000	 7.986263840394477e+000
 7.904882117790903e-001	 2.392803208589643e+000	 7.905341951040494e+000
 7.654563988845287e-001	 2.400927992058032e+000	 7.822310440342918e+000
 7.404047870431948e-001	 2.408771356114817e+000	 7.736619955690181e+000
 9.999543377295896e-001	 2.342133528251599e+000	 8.582558824538799e+000
 9.749841498807205e-001	 2.352637636167958e+000	 8.502327683492972e+000
 9.499566832854868e-001	 2.362854209122914e+000	 8.425054912742199e+000
 9.248766932243575e-001	 2.372783297623597e+000	 8.349712241868120e+000
 8.997489122768522e-001	 2.382425052330420e+000	 8.275376622244327e+000
 8.745780478159025e-001	 2.391779722875868e+000	 8.201225597673304e+000
 8.493687795573582e-001	 2.400847656612762e+000	 8.126530256201068e+000
 8.241257571667416e-001	 2.409629297294619e+000	 8.050645863430235e+000
 7.988535979252465e-001	 2.418125183690795e+000	 7.973000296431258e+000
 7.735568844568362e-001	 2.426335948139160e+000	 7.893080414702747e+000
 7.482401625181595e-001	 2.434262315039077e+000	 7.810416520437332e+000
 1.010425598278460e+000	 2.366659738591860e+000	 8.631525061006217e+000
 9.851939291468613e-001	 2.377273842781749e+000	 8.555894754408808e+000
 9.599043814608010e-001	 2.387597401019256e+000	 8.483056901031072e+000
 9.345617602968063e-001	 2.397630464340408e+000	 8.411912388014413e+000
 9.091708477927351e-001	 2.407373184983289e+000	 8.341506728478620e+000
 8.837364006159019e-001	 2.416825815194467e+000	 8.271013686092818e+000
 8.582631474869207e-001	 2.425988705964147e+000	 8.199727878929597e+000
 8.327557867613987e-001	 2.434862305692712e+000	 8.127054834367701e+000
 8.072189840714952e-001	 2.443447158791370e+000	 8.052498622203633e+000
 7.816573700292170e-001	 2.451743904219661e+000	 7.975647211886810e+000
 7.560755379931917e-001	 2.459753273962669e+000	 7.896155716912681e+000
 1.020896858827830e+000	 2.391185948932115e+000	 8.698465054634067e+000
 9.954037084134922e-001	 2.401910049395445e+000	 8.627179367366320e+000
 9.698520796365818e-001	 2.412340592915415e+000	 8.558409081932897e+000
 9.442468273696871e-001	 2.422477631056948e+000	 8.491023086464633e+000
 9.185927833090086e-001	 2.432321317635802e+000	 8.424064435335145e+000
 8.928947534162472e-001	 2.441871907512629e+000	 8.356734940263731e+000
 8.671575154167848e-001	 2.451129755315018e+000	 8.288387365625999e+000
 8.413858163563172e-001	 2.460095314090222e+000	 8.218514829320364e+000
 8.155843702179730e-001	 2.468769133891297e+000	 8.146737544906861e+000
 7.897578556018055e-001	 2.477151860299458e+000	 8.072787060987174e+000
 7.639109134684246e-001	 2.485244232885506e+000	 7.996488172285023e+000
 6.855571587091147e-001	 2.230334643633273e+000	 7.367252871390562e+000
 6.623471141318938e-001	 2.237337161406804e+000	 7.275976737763500e+000
 6.391269560606027e-001	 2.244080678083104e+000	 7.188307118452650e+000
 6.159007346850260e-001	 2.250566098306567e+000	 7.106633636194507e+000
 5.926724590196570e-001	 2.256794405071063e+000	 7.030684339513901e+000
 5.694460951855153e-001	 2.262766658109032e+000	 6.959916671877741e+000
 5.462255647562679e-001	 2.268483992241738e+000	 6.893543625250766e+000
 5.230147431693814e-001	 2.273947615693367e+000	 6.830552963517986e+000
 4.998174582029127e-001	 2.279158808371665e+000	 6.769720162612369e+000
 4.766374885184346e-001	 2.284118920117788e+000	 6.709615739516736e+000
 4.534785622704715e-001	 2.288829368928064e+000	 6.648607660165340e+000
 6.933925341873450e-001	 2.255825602559877e+000	 7.417260527897467e+000
 6.699172171789138e-001	 2.262908153566841e+000	 7.323264425812717e+000
 6.464316710871190e-001	 2.269728743299059e+000	 7.231789653261993e+000
 6.229399923922249e-001	 2.276288286740297e+000	 7.147660153066628e+000
 5.994462359286037e-001	 2.282587778119268e+000	 7.070336060561012e+000
 5.759544131469156e-001	 2.288628289280319e+000	 6.998989969547909e+000
 5.524684904413275e-001	 2.294410968014829e+000	 6.932589813540275e+000
 5.289923875425033e-001	 2.299937036356029e+000	 6.869914089787127e+000
 5.055299759769898e-001	 2.305207788840002e+000	 6.809560251300574e+000
 4.820850775934862e-001	 2.310224590735523e+000	 6.749947009161263e+000
 4.586614631563876e-001	 2.314988876245497e+000	 6.689311306133482e+000
 7.012279096647085e-001	 2.281316561486399e+000	 7.465582263167744e+000
 6.774873202250681e-001	 2.288479145726790e+000	 7.370256044438125e+000
 6.537363861127733e-001	 2.295376808514920e+000	 7.276344397167202e+000
 6.299792500985685e-001	 2.302010475173930e+000	 7.190744780746377e+000
 6.062200128367062e-001	 2.308381151167378e+000	 7.113229288442056e+000
 5.824627311074866e-001	 2.314489920451514e+000	 7.042619771965359e+000
 5.587114161255761e-001	 2.320337943787828e+000	 6.977580495708798e+000
 5.349700319148388e-001	 2.325926457018605e+000	 6.916629004192675e+000
 5.112424937503103e-001	 2.331256769308257e+000	 6.858139565435998e+000
 4.875326666678168e-001	 2.336330261353183e+000	 6.800340007458122e+000
 4.638443640416251e-001	 2.341148383562865e+000	 6.741302784827640e+000
 7.090632851413388e-001	 2.306807520412753e+000	 7.513575336658821e+000
 6.850574232704915e-001	 2.314050137886563e+000	 7.418068569950217e+000
 6.610411011377029e-001	 2.321024873730600e+000	 7.323227335112706e+000
 6.370185078041982e-001	 2.327732663607379e+000	 7.236827353918207e+000
 6.129937897441083e-001	 2.334174524215299e+000	 7.159932145191212e+000
 5.889710490673759e-001	 2.340351551622521e+000	 7.090955422233362e+000
 5.649543418091657e-001	 2.346264919560645e+000	 7.028208141615162e+000
 5.409476762865415e-001	 2.351915877681004e+000	 6.969904620022168e+000
 5.169550115230284e-001	 2.357305749776349e+000	 6.914160589757151e+000
 4.929802557415800e-001	 2.362435931970693e+000	 6.858984090101830e+000
 4.690272649263335e-001	 2.367307890880099e+000	 6.802260112463538e+000
 7.168986606173690e-001	 2.332298479338855e+000	 7.562808550498250e+000
 6.926275263153183e-001	 2.339621130046071e+000	 7.468123080162327e+000
 6.683458161620449e-001	 2.346672938946006e+000	 7.373919301646472e+000
 6.440577655092540e-001	 2.353454852040546e+000	 7.287116720788744e+000
 6.197675666509559e-001	 2.359967897262937e+000	 7.211303852161661e+000
 5.954793670267322e-001	 2.366213182793248e+000	 7.144455178213406e+000
 5.711972674922483e-001	 2.372191895333189e+000	 7.084487656088422e+000
 5.469253206577656e-001	 2.377905298343142e+000	 7.029279508261060e+000
 5.226675292952993e-001	 2.383354730244194e+000	 6.976662411240287e+000
 4.984278448149286e-001	 2.388541602587979e+000	 6.924405921104967e+000
 4.742101658106620e-001	 2.393467398197139e+000	 6.870195140184215e+000
 7.247340360929326e-001	 2.357789438264623e+000	 7.615053154273240e+000
 7.001976293596833e-001	 2.365192122205226e+000	 7.522042065491662e+000
 6.756505311859368e-001	 2.372321004161045e+000	 7.429594441703200e+000
 6.510970232138771e-001	 2.379177040473339e+000	 7.343067833170140e+000
 6.265413435573926e-001	 2.385761270310200e+000	 7.268474088957721e+000
 6.019876849857041e-001	 2.392074813963599e+000	 7.203867687995277e+000
 5.774401931749751e-001	 2.398118871105364e+000	 7.146739830081038e+000
 5.529029650286652e-001	 2.403894719004927e+000	 7.094609195358448e+000
 5.283800470672773e-001	 2.409403710711709e+000	 7.045007746498102e+000
 5.038754338880163e-001	 2.414647273204965e+000	 6.995458125220816e+000
 4.793930666947601e-001	 2.419626905513915e+000	 6.943443739518727e+000
 7.325694115681635e-001	 2.383280397189972e+000	 7.672273859506193e+000
 7.077677324037212e-001	 2.390763114363942e+000	 7.581641216541020e+000
 6.829552462095149e-001	 2.397969069375628e+000	 7.491707398483179e+000
 6.581362809182074e-001	 2.404899228905665e+000	 7.406358907141112e+000
 6.333151204635628e-001	 2.411554643356989e+000	 7.332822414585413e+000
 6.084960029444397e-001	 2.417936445133482e+000	 7.270213520508773e+000
 5.836831188574984e-001	 2.424045846877084e+000	 7.215574840540788e+000
 5.588806093993941e-001	 2.429884139666275e+000	 7.166051503324901e+000
 5.340925648391171e-001	 2.435452691178815e+000	 7.118870004543976e+000
 5.093230229609961e-001	 2.440752943821578e+000	 7.071307967577264e+000
 4.845759675787774e-001	 2.445786412830364e+000	 7.020656005105480e+000
 7.404047870431948e-001	 2.408771356114817e+000	 7.736619955690181e+000
 7.153378354475658e-001	 2.416334106522128e+000	 7.648921298399393e+000
 6.902599612329171e-001	 2.423617134589662e+000	 7.562081025679415e+000
 6.651755386223859e-001	 2.430621417337429e+000	 7.478868649047494e+000
 6.400888973696112e-001	 2.437348016403214e+000	 7.405957746208116e+000
 6.150043209030875e-001	 2.443798076302805e+000	 7.344766747188523e+000
 5.899260445399693e-001	 2.449972822648254e+000	 7.291875795390951e+000
 5.648582537701065e-001	 2.455873560327098e+000	 7.244051929024220e+000
 5.398050826109734e-001	 2.461501671645428e+000	 7.198220382301404e+000
 5.147706120340215e-001	 2.466858614437742e+000	 7.151426058504635e+000
 4.897588684628631e-001	 2.471945920146419e+000	 7.100786473402821e+000
 7.482401625181595e-001	 2.434262315039077e+000	 7.810416520437332e+000
 7.229079384913520e-001	 2.441905098679697e+000	 7.726060105302748e+000
 6.975646762562796e-001	 2.449265199803056e+000	 7.642716264977786e+000
 6.722147963265529e-001	 2.456343605768538e+000	 7.562404041002019e+000
 6.468626742756826e-001	 2.463141389448778e+000	 7.489697891277686e+000
 6.215126388617959e-001	 2.469659707471470e+000	 7.429036570946356e+000
 5.961689702225401e-001	 2.475899798418785e+000	 7.376782320310262e+000
 5.708358981409564e-001	 2.481862980987306e+000	 7.329329059789220e+000
 5.455176003830011e-001	 2.487550652111465e+000	 7.283314990460578e+000
 5.202182011072458e-001	 2.492964285053381e+000	 7.235575081715642e+000
 4.949417693471666e-001	 2.498105427462015e+000	 7.183084356216695e+000
 7.560755379931917e-001	 2.459753273962669e+000	 7.896155716912681e+000
 7.304780415352139e-001	 2.467476090836561e+000	 7.815404489825457e+000
 7.048693912797398e-001	 2.474913265015718e+000	 7.735784848299901e+000
 6.792540540308492e-001	 2.482065794198900e+000	 7.658509986627262e+000
 6.536364511819212e-001	 2.488934762493587e+000	 7.586049129163304e+000
 6.280209568207137e-001	 2.495521338639388e+000	 7.524748999015264e+000
 6.024118959053623e-001	 2.501826774188584e+000	 7.471674184279641e+000
 5.768135425120972e-001	 2.507852401646812e+000	 7.422860022723139e+000
 5.512301181553546e-001	 2.513599632576846e+000	 7.374682007480085e+000
 5.256657901808223e-001	 2.519069955668423e+000	 7.323798544141912e+000
 5.001246702318376e-001	 2.524264934777088e+000	 7.267083787974274e+000
 7.639109134684246e-001	 2.485244232885506e+000	 7.996488172285023e+000
 7.380481445792873e-001	 2.493047082992633e+000	 7.919462461248887e+000
 7.121741063034351e-001	 2.500561330227558e+000	 7.843622059738895e+000
 6.862933117354158e-001	 2.507787982628420e+000	 7.769305809551635e+000
 6.604102280884719e-001	 2.514728135537550e+000	 7.697185838716848e+000
 6.345292747799891e-001	 2.521382969806464e+000	 7.633828556510306e+000
 6.086548215885876e-001	 2.527753749957560e+000	 7.578154961108300e+000
 5.827911868836837e-001	 2.533841822305531e+000	 7.525865965268321e+000
 5.569426359281889e-001	 2.539648613041487e+000	 7.473108859712973e+000
 5.311133792549045e-001	 2.545175626282792e+000	 7.416409545875130e+000
 5.053075711170252e-001	 2.550424442091569e+000	 7.352594085755571e+000
 4.534785622704715e-001	 2.288829368928064e+000	 6.648607660165344e+000
 4.303478228187894e-001	 2.293290988703301e+000	 6.590605591524454e+000
 4.072454120468746e-001	 2.297506054455230e+000	 6.540757736542749e+000
 3.841748921516892e-001	 2.301476178916054e+000	 6.498970800162714e+000
 3.611397700823956e-001	 2.305203035563035e+000	 6.464881722792953e+000
 3.381434964856029e-001	 2.308688356741213e+000	 6.437843393228658e+000
 3.151894647169179e-001	 2.311933931773510e+000	 6.416909706021446e+000
 2.922810099184507e-001	 2.314941605060654e+000	 6.400820593804957e+000
 2.694214081618395e-001	 2.317713274173349e+000	 6.387987634499243e+000
 2.466138756562661e-001	 2.320250887939015e+000	 6.376480798704286e+000
 2.238615680208486e-001	 2.322556444525402e+000	 6.364016864463899e+000
 4.586614631563876e-001	 2.314988876245497e+000	 6.689311306133467e+000
 4.352663576684167e-001	 2.319501488801562e+000	 6.631455934592951e+000
 4.118999046346669e-001	 2.323764729417042e+000	 6.581656629405495e+000
 3.885657069651765e-001	 2.327780229256406e+000	 6.540051644008210e+000
 3.652673116907459e-001	 2.331549680923443e+000	 6.506502514437969e+000
 3.420082088961288e-001	 2.335074836562539e+000	 6.480572837402546e+000
 3.187918307202859e-001	 2.338357505947168e+000	 6.461506419503836e+000
 2.956215504233471e-001	 2.341399554558111e+000	 6.448205491043412e+000
 2.725006815198423e-001	 2.344202901653812e+000	 6.439209644274320e+000
 2.494324769776639e-001	 2.346769518335254e+000	 6.432676118064739e+000
 2.264201284821455e-001	 2.349101425607677e+000	 6.426362009236191e+000
 4.638443640416251e-001	 2.341148383562865e+000	 6.741302784827642e+000
 4.401848925174144e-001	 2.345711988899768e+000	 6.684705102975966e+000
 4.165543972218823e-001	 2.350023404378815e+000	 6.635897893769393e+000
 3.929565217781413e-001	 2.354084279596735e+000	 6.595172963028647e+000
 3.693948532986267e-001	 2.357896326283852e+000	 6.562541436060108e+000
 3.458729213062337e-001	 2.361461316383891e+000	 6.537705133146432e+000
 3.223941967232746e-001	 2.364781080120887e+000	 6.520027336061621e+000
 2.989620909278965e-001	 2.367857504055669e+000	 6.508503706193370e+000
 2.755799548775181e-001	 2.370692529134424e+000	 6.501734078154288e+000
 2.522510782987403e-001	 2.373288148731701e+000	 6.497895811382698e+000
 2.289786889431087e-001	 2.375646406690224e+000	 6.494719336754615e+000
 4.690272649263335e-001	 2.367307890880099e+000	 6.802260112463541e+000
 4.451034273659250e-001	 2.371922488997866e+000	 6.747513934519606e+000
 4.212088898086550e-001	 2.376282079340506e+000	 6.700113145738023e+000
 3.973473365907073e-001	 2.380388329937012e+000	 6.660438316587943e+000
 3.735223949061507e-001	 2.384242971644243e+000	 6.628588514325911e+000
 3.497376337160204e-001	 2.387847796205268e+000	 6.604344761765455e+000
 3.259965627259777e-001	 2.391204654294674e+000	 6.587132900262882e+000
 3.023026314321853e-001	 2.394315453553344e+000	 6.575986689118480e+000
 2.786592282349486e-001	 2.397182156615205e+000	 6.569511933571564e+000
 2.550696796195753e-001	 2.399806779128376e+000	 6.565852388506482e+000
 2.315372494038215e-001	 2.402191387773061e+000	 6.562658135520341e+000
 4.742101658106620e-001	 2.393467398197139e+000	 6.870195140184215e+000
 4.500219622140912e-001	 2.398132989095800e+000	 6.817370334975649e+000
 4.258633823951188e-001	 2.402540754302073e+000	 6.771251850696849e+000
 4.017381514029985e-001	 2.406692380277211e+000	 6.732257463718330e+000
 3.776499365134314e-001	 2.410589617004602e+000	 6.700525929429252e+000
 3.536023461255918e-001	 2.414234276026662e+000	 6.675871962479091e+000
 3.295989287284887e-001	 2.417628228468531e+000	 6.657740627892302e+000
 3.056431719362996e-001	 2.420773403051147e+000	 6.645162051559243e+000
 2.817385015922153e-001	 2.423671784096174e+000	 6.636707315072361e+000
 2.578882809402495e-001	 2.426325409525294e+000	 6.630446350940492e+000
 2.340958098643674e-001	 2.428736368856202e+000	 6.623908600519395e+000
 4.793930666947601e-001	 2.419626905513915e+000	 6.943443739518727e+000
 4.549404970620559e-001	 2.424343489193518e+000	 6.892080873494291e+000
 4.305178749814073e-001	 2.428799429263473e+000	 6.846574178649171e+000
 4.061289662151383e-001	 2.432996430617298e+000	 6.807340346096864e+000
 3.817774781205817e-001	 2.436936262364911e+000	 6.774523011649865e+000
 3.574670585350503e-001	 2.440620755848071e+000	 6.747938646772443e+000
 3.332012947309012e-001	 2.444051802642469e+000	 6.727021860659654e+000
 3.089837124403254e-001	 2.447231352549091e+000	 6.710771103167469e+000
 2.848177749493996e-001	 2.450161411577347e+000	 6.697695711080922e+000
 2.607068822608430e-001	 2.452844039922479e+000	 6.685765187167133e+000
 2.366543703248299e-001	 2.455281349939667e+000	 6.672361543313382e+000
 4.845759675787774e-001	 2.445786412830364e+000	 7.020656005105474e+000
 4.598590319099619e-001	 2.450553989290963e+000	 6.969762385852586e+000
 4.351723675676546e-001	 2.455058104224663e+000	 6.923643860181988e+000
 4.105197810272506e-001	 2.459300480957246e+000	 6.882691066086021e+000
 3.859050197277146e-001	 2.463282907725155e+000	 6.847031228068706e+000
 3.613317709444988e-001	 2.467007235669486e+000	 6.816464297777827e+000
 3.368036607333084e-001	 2.470475376816489e+000	 6.790398499727941e+000
 3.123242529443491e-001	 2.473689302047193e+000	 6.767786358219922e+000
 2.878970483065836e-001	 2.476651039058744e+000	 6.747062230419228e+000
 2.635254835814365e-001	 2.479362670319949e+000	 6.726082313182609e+000
 2.392129307852923e-001	 2.481826331023470e+000	 6.702068028358140e+000
 4.897588684628631e-001	 2.471945920146419e+000	 7.100786473402812e+000
 4.647775667579517e-001	 2.476764489388081e+000	 7.048833584848802e+000
 4.398268601539946e-001	 2.481316779185606e+000	 7.000321043022296e+000
 4.149105958394592e-001	 2.485604531297026e+000	 6.955601860208065e+000
 3.900325613349436e-001	 2.489629553085316e+000	 6.914779160168850e+000
 3.651964833540400e-001	 2.493393715490908e+000	 6.877631855796174e+000
 3.404060267358042e-001	 2.496898950990599e+000	 6.843539719636853e+000
 3.156647934484567e-001	 2.500147251545462e+000	 6.811409015183823e+000
 2.909763216638482e-001	 2.503140666540383e+000	 6.779599801564985e+000
 2.663440849021104e-001	 2.505881300717724e+000	 6.745855962306532e+000
 2.417714912458383e-001	 2.508371312107629e+000	 6.707238941024235e+000
 4.949417693471666e-001	 2.498105427462015e+000	 7.183084356216694e+000
 4.696961016061681e-001	 2.502974989484819e+000	 7.128006677339165e+000
 4.444813527405613e-001	 2.507575454146253e+000	 7.074755149137954e+000
 4.193014106518875e-001	 2.511908581636608e+000	 7.023647068390537e+000
 3.941601029423813e-001	 2.515976198445378e+000	 6.974767472994557e+000
 3.690611957637768e-001	 2.519780195312327e+000	 6.927883590975360e+000
 3.440083927384817e-001	 2.523322525164801e+000	 6.882358664055222e+000
 3.190053339527348e-001	 2.526605201043914e+000	 6.837066411129005e+000
 2.940555950212755e-001	 2.529630294022282e+000	 6.790307337378843e+000
 2.691626862229449e-001	 2.532399931115824e+000	 6.739728027984688e+000
 2.443300517065510e-001	 2.534916293192159e+000	 6.682244492316462e+000
 5.001246702318376e-001	 2.524264934777088e+000	 7.267083787974271e+000
 4.746146364547538e-001	 2.529185489581120e+000	 7.206278987436868e+000
 4.491358453274885e-001	 2.533834129106568e+000	 7.145377732350872e+000
 4.236922254646598e-001	 2.538212631975964e+000	 7.084677099290338e+000
 3.982876445501410e-001	 2.542322843805324e+000	 7.024263876481417e+000
 3.729259081738120e-001	 2.546166675133744e+000	 6.963916964080456e+000
 3.476107587414348e-001	 2.549746099339105e+000	 6.903009124686201e+000
 3.223458744572691e-001	 2.553063150542561e+000	 6.840409452807334e+000
 2.971348683789469e-001	 2.556119921504461e+000	 6.774387867808577e+000
 2.719812875440206e-001	 2.558918561514268e+000	 6.702522862994773e+000
 2.468886121675140e-001	 2.561461274277079e+000	 6.621613664895561e+000
 5.053075711170252e-001	 2.550424442091569e+000	 7.352594085755571e+000
 4.795331713038518e-001	 2.555395989676932e+000	 7.282924585433337e+000
 4.537903379149101e-001	 2.560092804066504e+000	 7.210895336423395e+000
 4.280830402778995e-001	 2.564516682315065e+000	 7.136812391981803e+000
 4.024151861583359e-001	 2.568669489165139e+000	 7.060798079521399e+000
 3.767906205842483e-001	 2.572553154955150e+000	 6.982680476211894e+000
 3.512131247447570e-001	 2.576169673513515e+000	 6.901882204534116e+000
 3.256864149621464e-001	 2.579521100041420e+000	 6.817310026081062e+000
 3.002141417369439e-001	 2.582609548986935e+000	 6.727246642868571e+000
 2.747998888654178e-001	 2.585437191913076e+000	 6.629246038188587e+000
 2.494471726288109e-001	 2.588006255362403e+000	 6.520033604609070e+000
 2.238615680208486e-001	 2.322556444525402e+000	 6.364016864463892e+000
 2.011641876059516e-001	 2.324632283812556e+000	 6.356446462728133e+000
 1.785282247002906e-001	 2.326480135022100e+000	 6.360773465307790e+000
 1.559566963524346e-001	 2.328102134340242e+000	 6.375854521611835e+000
 1.334525552926772e-001	 2.329500459691833e+000	 6.400128077042790e+000
 1.110186895228716e-001	 2.330677328820790e+000	 6.431616394541423e+000
 8.865792196686158e-002	 2.331634997380677e+000	 6.467931556918041e+000
 6.637301018034907e-002	 2.332375757037283e+000	 6.506285652511523e+000
 4.416664611898502e-002	 2.332901933585020e+000	 6.543505297725816e+000
 2.204145596341943e-002	 2.333215885078842e+000	 6.576050601654226e+000
 0.000000000000000e+000	 2.333319999983334e+000	 6.600038605793851e+000
 2.264201284821455e-001	 2.349101425607677e+000	 6.426362009236191e+000
 2.034633349817422e-001	 2.351200990094103e+000	 6.426049215818034e+000
 1.805686609440350e-001	 2.353069960779786e+000	 6.438851678198107e+000
 1.577391579000765e-001	 2.354710498265832e+000	 6.463845380253808e+000
 1.349778123275373e-001	 2.356124805369036e+000	 6.499612805369845e+000
 1.122875452358528e-001	 2.357315125180361e+000	 6.544240309092470e+000
 8.967121181265819e-002	 2.358283739133688e+000	 6.595319990188131e+000
 6.713160113034097e-002	 2.359032965086723e+000	 6.649956286254609e+000
 4.467143591148092e-002	 2.359565155415852e+000	 6.704777466529535e+000
 2.229337235190048e-002	 2.359882695126717e+000	 6.755952141761019e+000
 0.000000000000000e+000	 2.359987999982150e+000	 6.799210833297910e+000
 2.289786889431087e-001	 2.375646406690224e+000	 6.494719336754615e+000
 2.057624823571691e-001	 2.377769696375999e+000	 6.497844331729906e+000
 1.826090971873753e-001	 2.379659786537899e+000	 6.514450109912760e+000
 1.595216194472731e-001	 2.381318862191934e+000	 6.543805018706996e+000
 1.365030693619193e-001	 2.382749151046835e+000	 6.584606257530710e+000
 1.135564009483403e-001	 2.383952921540606e+000	 6.634972177717113e+000
 9.068450165797200e-002	 2.384932480887447e+000	 6.692439627745137e+000
 6.789019207989630e-002	 2.385690173136972e+000	 6.753966595497790e+000
 4.517622570363043e-002	 2.386228377247541e+000	 6.815940340967573e+000
 2.254528874017785e-002	 2.386549505175481e+000	 6.874191155323976e+000
 0.000000000000000e+000	 2.386655999981866e+000	 6.924011798834203e+000
 2.315372494038215e-001	 2.402191387773061e+000	 6.562658135520341e+000
 2.080616297323233e-001	 2.404338402658252e+000	 6.565365436392878e+000
 1.846495334304126e-001	 2.406249612296439e+000	 6.581185458239313e+000
 1.613040809941358e-001	 2.407927226118532e+000	 6.609563234245547e+000
 1.380283263959427e-001	 2.409373496725197e+000	 6.649292387735434e+000
 1.148252566604575e-001	 2.410590717901479e+000	 6.698501900009527e+000
 9.169779150292372e-002	 2.411581222641890e+000	 6.754648501569646e+000
 6.864878302912419e-002	 2.412347381187954e+000	 6.814514966047536e+000
 4.568101549552014e-002	 2.412891599079999e+000	 6.874214522780580e+000
 2.279720512830247e-002	 2.413216315225037e+000	 6.929201541477523e+000
 0.000000000000000e+000	 2.413323999982383e+000	 6.974288553044445e+000
 2.340958098643674e-001	 2.428736368856202e+000	 6.623908600519403e+000
 2.103607771072955e-001	 2.430907108940867e+000	 6.622278135970952e+000
 1.866899696732478e-001	 2.432839438055403e+000	 6.632775816017219e+000
 1.630865425407757e-001	 2.434535590045608e+000	 6.655019138797561e+000
 1.395535834297269e-001	 2.435997842404090e+000	 6.687891053527805e+000
 1.160941123723278e-001	 2.437228514262929e+000	 6.729520700340764e+000
 9.271108134763406e-002	 2.438229964396952e+000	 6.777270384594949e+000
 6.940737397813380e-002	 2.439004589239588e+000	 6.827729094733128e+000
 4.618580528723665e-002	 2.439554820913136e+000	 6.876712804027129e+000
 2.304912151632525e-002	 2.439883125275288e+000	 6.919271728718790e+000
 0.000000000000000e+000	 2.439991999983599e+000	 6.949704619516075e+000
 2.366543703248299e-001	 2.455281349939667e+000	 6.672361543313382e+000
 2.126599244821769e-001	 2.457475815223860e+000	 6.662380454348763e+000
 1.887304059159821e-001	 2.459429263814787e+000	 6.663041862521283e+000
 1.648690040873043e-001	 2.461143953973147e+000	 6.674143145515509e+000
 1.410788404633915e-001	 2.462622188083484e+000	 6.694660853494050e+000
 1.173629680840747e-001	 2.463866310624908e+000	 6.722724887194976e+000
 9.372437119222367e-002	 2.464878706152569e+000	 6.755599556527514e+000
 7.016596492703424e-002	 2.465661797291797e+000	 6.789671860759630e+000
 4.669059507886657e-002	 2.466218042746860e+000	 6.820447256999701e+000
 2.330103790429711e-002	 2.466549935326135e+000	 6.842553110170734e+000
 0.000000000000000e+000	 2.466659999985416e+000	 6.849749915684715e+000
 2.392129307852923e-001	 2.481826331023470e+000	 6.702068028358156e+000
 2.149590718570580e-001	 2.484044521507234e+000	 6.679603172732796e+000
 1.907708421587163e-001	 2.486019089574589e+000	 6.665907927193718e+000
 1.666514656338330e-001	 2.487752317901132e+000	 6.660978791686272e+000
 1.426040974970561e-001	 2.489246533763339e+000	 6.663901758500563e+000
 1.186318237958215e-001	 2.490504106987369e+000	 6.672819355865302e+000
 9.473766103681326e-002	 2.491527447908676e+000	 6.684905254951291e+000
 7.092455587593467e-002	 2.492319005344501e+000	 6.696346815824843e+000
 4.719538487049645e-002	 2.492881264581084e+000	 6.702335867416353e+000
 2.355295429226896e-002	 2.493216745377481e+000	 6.697067937143149e+000
 0.000000000000000e+000	 2.493327999987732e+000	 6.673750037067028e+000
 2.417714912458383e-001	 2.508371312107629e+000	 6.707238941024222e+000
 2.172582192320303e-001	 2.510613227791001e+000	 6.668010078625414e+000
 1.928112784015514e-001	 2.512608915334807e+000	 6.635402935182994e+000
 1.684339271804729e-001	 2.514360681829545e+000	 6.609644410108649e+000
 1.441293545308402e-001	 2.515870879443631e+000	 6.589957551768448e+000
 1.199006795076918e-001	 2.517141903350259e+000	 6.574520853525668e+000
 9.575095088152352e-002	 2.518176189665208e+000	 6.560435835036121e+000
 7.168314682494421e-002	 2.518976213397623e+000	 6.543703321247065e+000
 4.770017466221291e-002	 2.519544486415716e+000	 6.519208744716767e+000
 2.380487068029171e-002	 2.519883555429231e+000	 6.480716711121153e+000
 0.000000000000000e+000	 2.519995999990449e+000	 6.420874951988648e+000
 2.443300517065510e-001	 2.534916293192159e+000	 6.682244492316470e+000
 2.195573666071843e-001	 2.537181934075167e+000	 6.621798130812593e+000
 1.948517146445886e-001	 2.539198741095438e+000	 6.565661243348195e+000
 1.702163887273356e-001	 2.540969045758370e+000	 6.514334660044699e+000
 1.456546115648634e-001	 2.542495225124322e+000	 6.467218091780150e+000
 1.211695352198089e-001	 2.543779699713533e+000	 6.422561024102328e+000
 9.676424072647513e-002	 2.544824931422101e+000	 6.377422659206397e+000
 7.244173777417201e-002	 2.545633421451083e+000	 6.327641357971355e+000
 4.820496445410255e-002	 2.546207708250667e+000	 6.267813940468900e+000
 2.405678706841629e-002	 2.546550365481287e+000	 6.191285110941626e+000
 0.000000000000000e+000	 2.546663999993466e+000	 6.090147150017774e+000
 2.468886121675140e-001	 2.561461274277079e+000	 6.621613664895569e+000
 2.218565139826111e-001	 2.563750640359744e+000	 6.535297546460043e+000
 1.968921508879288e-001	 2.565788566856479e+000	 6.450923374681538e+000
 1.719988502745320e-001	 2.567577409687589e+000	 6.369321927932318e+000
 1.471798685992452e-001	 2.569119570805382e+000	 6.290121410887733e+000
 1.224383909322962e-001	 2.570417496077141e+000	 6.211689248906727e+000
 9.777753057178877e-002	 2.571473673179288e+000	 6.131083736359725e+000
 7.320032872372721e-002	 2.572290629504803e+000	 6.044016033193465e+000
 4.870975424625194e-002	 2.572870930085849e+000	 5.944822903311228e+000
 2.430870345669359e-002	 2.573217175533550e+000	 5.826450488884765e+000
 0.000000000000000e+000	 2.573331999996682e+000	 5.680449283735133e+000
 2.494471726288109e-001	 2.588006255362403e+000	 6.520033604609088e+000
 2.241556613584017e-001	 2.590319346644739e+000	 6.402971815906209e+000
 1.989325871316730e-001	 2.592378392617929e+000	 6.285536658440308e+000
 1.737813118221737e-001	 2.594185773617187e+000	 6.168957607209751e+000
 1.487051256341053e-001	 2.595743916486776e+000	 6.053155661406488e+000
 1.237072466452772e-001	 2.597055292441033e+000	 5.936675297704817e+000
 9.879082041758520e-002	 2.598122414936711e+000	 5.816627128619847e+000
 7.395891967371894e-002	 2.598947837558706e+000	 5.688641805374993e+000
 4.921454403874771e-002	 2.599534151921171e+000	 5.546835596523765e+000
 2.456061984517455e-002	 2.599883985585925e+000	 5.383787966627788e+000
 0.000000000000000e+000	 2.600000000000000e+000	 5.190531340217236e+000
 2.600000000000000e+000	 0.000000000000000e+000	 1.163676478846365e+001
 2.599883985585925e+000	 2.456061984517381e-002	 1.157784282763246e+001
 2.599534151921171e+000	 4.921454403874705e-002	 1.153859378032756e+001
 2.598947837558707e+000	 7.395891967371836e-002	 1.151384461927322e+001
 2.598122414936712e+000	 9.879082041758469e-002	 1.149897761596014e+001
 2.597055292441034e+000	 1.237072466452768e-001	 1.148993046485952e+001
 2.595743916486777e+000	 1.487051256341050e-001	 1.148319323212060e+001
 2.594185773617187e+000	 1.737813118221734e-001	 1.147580220139550e+001
 2.592378392617928e+000	 1.989325871316728e-001	 1.146533072737143e+001
 2.590319346644739e+000	 2.241556613584015e-001	 1.144987723544934e+001
 2.588006255362404e+000	 2.494471726288108e-001	 1.142805053391493e+001
 2.626668000003317e+000	 0.000000000000000e+000	 1.164889767172846e+001
 2.626550795638311e+000	 2.481253623389235e-002	 1.158911092913511e+001
 2.626197373756539e+000	 4.971933383164689e-002	 1.154827787251561e+001
 2.625605045612707e+000	 7.471751062421944e-002	 1.152124542745888e+001
 2.624771156694291e+000	 9.980411026394442e-002	 1.150346420446141e+001
 2.623693088805150e+000	 1.249761023588341e-001	 1.149098671128638e+001
 2.622368262168458e+000	 1.502303826695234e-001	 1.148046211739159e+001
 2.620794137547127e+000	 1.755637733703355e-001	 1.146912765289199e+001
 2.618968218379761e+000	 2.009730233758896e-001	 1.145479676416056e+001
 2.616888052930141e+000	 2.264548087346183e-001	 1.143584417810278e+001
 2.614551236448130e+000	 2.520057330904997e-001	 1.141118805711509e+001
 2.653336000006534e+000	 0.000000000000000e+000	 1.151168200490768e+001
 2.653217605690610e+000	 2.506445262281456e-002	 1.146556970388316e+001
 2.652860595591853e+000	 5.022412362489322e-002	 1.143698436206335e+001
 2.652262253666700e+000	 7.547610157515748e-002	 1.142079503959202e+001
 2.651419898451922e+000	 1.008174001107879e-001	 1.141252349343691e+001
 2.650330885169382e+000	 1.262449580728870e-001	 1.140834027908566e+001
 2.648992607850319e+000	 1.517556397054234e-001	 1.140505711928284e+001
 2.647402501477304e+000	 1.773462349189483e-001	 1.140011563291347e+001
 2.645558044141876e+000	 2.030134596205187e-001	 1.139157255856902e+001
 2.643456759215848e+000	 2.287539561112104e-001	 1.137808163945200e+001
 2.641096217534166e+000	 2.545642935525384e-001	 1.135887236842392e+001
 2.680004000009550e+000	 0.000000000000000e+000	 1.125683422155702e+001
 2.679884415742721e+000	 2.531636901188952e-002	 1.123610224047922e+001
 2.679523817427006e+000	 5.072891341839955e-002	 1.123019488478983e+001
 2.678919461720578e+000	 7.623469252642373e-002	 1.123427689999538e+001
 2.678068640209494e+000	 1.018306899579955e-001	 1.124419700180485e+001
 2.676968681533610e+000	 1.275138137873141e-001	 1.125646835451229e+001
 2.675616953532234e+000	 1.532808967416889e-001	 1.126824852677061e+001
 2.674010865407590e+000	 1.791286964679060e-001	 1.127731887109595e+001
 2.672147869904145e+000	 2.050538958654672e-001	 1.128206326851608e+001
 2.670025465501747e+000	 2.310531034880989e-001	 1.128144616592309e+001
 2.667641198620404e+000	 2.571228540148596e-001	 1.127498981977485e+001
 2.706672000012267e+000	 0.000000000000000e+000	 1.104192332927388e+001
 2.706551225794540e+000	 2.556828540106636e-002	 1.104308890602194e+001
 2.706187039261895e+000	 5.123370321207942e-002	 1.105599344496083e+001
 2.705576669774231e+000	 7.699328347790953e-002	 1.107625966151063e+001
 2.704717381966886e+000	 1.028439798054474e-001	 1.110018136205252e+001
 2.703606477897716e+000	 1.287826695019939e-001	 1.112470346060442e+001
 2.702241299214084e+000	 1.548061537782039e-001	 1.114740161314652e+001
 2.700619229337863e+000	 1.809111580171026e-001	 1.116646141471482e+001
 2.698737695666449e+000	 2.070943321106422e-001	 1.118065709669745e+001
 2.696594171787714e+000	 2.333522508652042e-001	 1.118932964644629e+001
 2.694186179706736e+000	 2.596814144773962e-001	 1.119236425592979e+001
 2.733340000014584e+000	 0.000000000000000e+000	 1.088975585755171e+001
 2.733218035845967e+000	 2.582020179029416e-002	 1.090711974877980e+001
 2.732850261096416e+000	 5.173849300584638e-002	 1.093361624628361e+001
 2.732233877827549e+000	 7.775187442950615e-002	 1.096531016680805e+001
 2.731366123723988e+000	 1.038572696530241e-001	 1.099892021095792e+001
 2.730244274261579e+000	 1.300515252168051e-001	 1.103179857372900e+001
 2.728865644895743e+000	 1.563314108148520e-001	 1.106191032920240e+001
 2.727227593267996e+000	 1.826936195664325e-001	 1.108781253313437e+001
 2.725327521428660e+000	 2.091347683559510e-001	 1.110863297665561e+001
 2.723162878073631e+000	 2.356513982424474e-001	 1.112404850742806e+001
 2.720731160793048e+000	 2.622399749400806e-001	 1.113426281763369e+001
 2.760008000016400e+000	 0.000000000000000e+000	 1.079674961877425e+001
 2.759884845896900e+000	 2.607211817952203e-002	 1.082450481106270e+001
 2.759513482930462e+000	 5.224328279961396e-002	 1.085926633394922e+001
 2.758891085880423e+000	 7.851046538110484e-002	 1.089752506685697e+001
 2.758014865480682e+000	 1.048705595006057e-001	 1.093640415856509e+001
 2.756882070625079e+000	 1.313203809316262e-001	 1.097363829318492e+001
 2.755489990577085e+000	 1.578566678515173e-001	 1.100755290365983e+001
 2.753835957197865e+000	 1.844760811157896e-001	 1.103704327493555e+001
 2.751917347190656e+000	 2.111752046013007e-001	 1.106155346555448e+001
 2.749731584359379e+000	 2.379505456197490e-001	 1.108105495789913e+001
 2.747276141879233e+000	 2.647985354028455e-001	 1.109602492865486e+001
 2.786676000017617e+000	 0.000000000000000e+000	 1.075931155861803e+001
 2.786551655947240e+000	 2.632403456869907e-002	 1.079153762727624e+001
 2.786176704763929e+000	 5.274807259329567e-002	 1.082912719359312e+001
 2.785548293932743e+000	 7.926905633259694e-002	 1.086898088325055e+001
 2.784663607236856e+000	 1.058838493480727e-001	 1.090860548524185e+001
 2.783519866988097e+000	 1.325892366463356e-001	 1.094609294115793e+001
 2.782114336257991e+000	 1.593819248880836e-001	 1.098009947279629e+001
 2.780444321127343e+000	 1.862585426650683e-001	 1.100982478845920e+001
 2.778507172952311e+000	 2.132156408465986e-001	 1.103499129196111e+001
 2.776300290644838e+000	 2.402496929970298e-001	 1.105582319806957e+001
 2.773821122965178e+000	 2.673570958656237e-001	 1.107302543766349e+001
 2.813344000018133e+000	 0.000000000000000e+000	 1.077383827108257e+001
 2.813218465996884e+000	 2.657595095777439e-002	 1.080449625952142e+001
 2.812839926596714e+000	 5.325286238680507e-002	 1.083936423045054e+001
 2.812205501984400e+000	 8.002764728387372e-002	 1.087573585416416e+001
 2.811312348992394e+000	 1.068971391953054e-001	 1.091148027800799e+001
 2.810157663350514e+000	 1.338580923608121e-001	 1.094502091335005e+001
 2.808738681938336e+000	 1.609071819244348e-001	 1.097531456973771e+001
 2.807052685056304e+000	 1.880410042141626e-001	 1.100183087461210e+001
 2.805096998713505e+000	 2.152560770917518e-001	 1.102453189757235e+001
 2.802868996929888e+000	 2.425488403742108e-001	 1.104385187601283e+001
 2.800366104050777e+000	 2.699156563283477e-001	 1.106067691661468e+001
 2.840012000017850e+000	 0.000000000000000e+000	 1.083671648450428e+001
 2.839885276045730e+000	 2.682786734669707e-002	 1.085964427486504e+001
 2.839503148428710e+000	 5.375765218005565e-002	 1.088612616518937e+001
 2.838862710035284e+000	 8.078623823482645e-002	 1.091383167623197e+001
 2.837961090747182e+000	 1.079104290421840e-001	 1.094097044615164e+001
 2.836795459712210e+000	 1.351269480749341e-001	 1.096627089630213e+001
 2.835363027617995e+000	 1.624324389604548e-001	 1.098895947177454e+001
 2.833661048984628e+000	 1.898234657629666e-001	 1.100874039284314e+001
 2.831686824474109e+000	 2.172965133366674e-001	 1.102577583096193e+001
 2.829437703214413e+000	 2.448479877512126e-001	 1.104066639880609e+001
 2.826911085135917e+000	 2.724742167909504e-001	 1.105443181948787e+001
 2.866680000016666e+000	 0.000000000000000e+000	 1.094432352044245e+001
 2.866552086093679e+000	 2.707978373541622e-002	 1.095323166807953e+001
 2.866166370259814e+000	 5.426244197296102e-002	 1.096554635185015e+001
 2.865519918085287e+000	 8.154482918534642e-002	 1.097929514911926e+001
 2.864609832501105e+000	 1.089237188885890e-001	 1.099300562399693e+001
 2.863433256073065e+000	 1.363958037885802e-001	 1.100568396009065e+001
 2.861987373296846e+000	 1.639576959960275e-001	 1.101679441494526e+001
 2.860269412912185e+000	 1.916059273113747e-001	 1.102623952985002e+001
 2.858276650234000e+000	 2.193369495812528e-001	 1.103434100298457e+001
 2.856006409498289e+000	 2.471471351279560e-001	 1.104182110760492e+001
 2.853456066220490e+000	 2.750327772533643e-001	 1.104978451047625e+001
 2.588006255362404e+000	 2.494471726288108e-001	 1.142805053391493e+001
 2.585437191913076e+000	 2.747998888654161e-001	 1.140820369047987e+001
 2.582609548986935e+000	 3.002141417369426e-001	 1.139776238854469e+001
 2.579521100041420e+000	 3.256864149621452e-001	 1.139459040475590e+001
 2.576169673513514e+000	 3.512131247447560e-001	 1.139688270476884e+001
 2.572553154955150e+000	 3.767906205842477e-001	 1.140314186582017e+001
 2.568669489165140e+000	 4.024151861583354e-001	 1.141215355095015e+001
 2.564516682315065e+000	 4.280830402778992e-001	 1.142296137937736e+001
 2.560092804066503e+000	 4.537903379149099e-001	 1.143484155663827e+001
 2.555395989676932e+000	 4.795331713038519e-001	 1.144727764499860e+001
 2.550424442091569e+000	 5.053075711170252e-001	 1.145993586907882e+001
 2.614551236448130e+000	 2.520057330904997e-001	 1.141118805711509e+001
 2.611955822312248e+000	 2.776184901871919e-001	 1.138862700901623e+001
 2.609099176469710e+000	 3.032934150953240e-001	 1.137493910115066e+001
 2.605979049540490e+000	 3.290269554674279e-001	 1.136819213382209e+001
 2.602593247688027e+000	 3.548154907485162e-001	 1.136679616526639e+001
 2.598939634776541e+000	 3.806553329951614e-001	 1.136947612744271e+001
 2.595016134524813e+000	 4.065427277670500e-001	 1.137524342420192e+001
 2.590820732653894e+000	 4.324738550916994e-001	 1.138336688502631e+001
 2.586351479026042e+000	 4.584448305029271e-001	 1.139334346805249e+001
 2.581606489772227e+000	 4.844517061535697e-001	 1.140486912423218e+001
 2.576583949405428e+000	 5.104904720028427e-001	 1.141781024999957e+001
 2.641096217534166e+000	 2.545642935525384e-001	 1.135887236842394e+001
 2.638474452711707e+000	 2.804370915093107e-001	 1.134113587439962e+001
 2.635588803952722e+000	 3.063726884540589e-001	 1.133098422538266e+001
 2.632436999039727e+000	 3.323674959730879e-001	 1.132673893623876e+001
 2.629016821862626e+000	 3.584178567526871e-001	 1.132707465306144e+001
 2.625326114597918e+000	 3.845200454065252e-001	 1.133098764593856e+001
 2.621362779884366e+000	 4.106702693762563e-001	 1.133776321134916e+001
 2.617124782992493e+000	 4.368646699060309e-001	 1.134694238783450e+001
 2.612610153985245e+000	 4.630993230915094e-001	 1.135828841058477e+001
 2.607816989867085e+000	 4.893702410038772e-001	 1.137175335004643e+001
 2.602743456718762e+000	 5.156733728892599e-001	 1.138744539630535e+001
 2.667641198620404e+000	 2.571228540148596e-001	 1.127498981977484e+001
 2.664993083111359e+000	 2.832556928317135e-001	 1.126907277208177e+001
 2.662078431435898e+000	 3.094519618130930e-001	 1.126872043715373e+001
 2.658894948539081e+000	 3.357080364790732e-001	 1.127252498907076e+001
 2.655440396037277e+000	 3.620202227572169e-001	 1.127947841772268e+001
 2.651712594419278e+000	 3.883847578182854e-001	 1.128890053389614e+001
 2.647709425243826e+000	 4.147978109858977e-001	 1.130040184087422e+001
 2.643428833330921e+000	 4.412554847208340e-001	 1.131384567524421e+001
 2.638868828944194e+000	 4.677538156805937e-001	 1.132931007639384e+001
 2.634027489961616e+000	 4.942887758547082e-001	 1.134704986502941e+001
 2.628902964031701e+000	 5.208562737762097e-001	 1.136745942889864e+001
 2.694186179706736e+000	 2.596814144773962e-001	 1.119236425592977e+001
 2.691511713511108e+000	 2.860742941543416e-001	 1.119557503201649e+001
 2.688568058919159e+000	 3.125312351723725e-001	 1.120360238970615e+001
 2.685352898038498e+000	 3.390485769853321e-001	 1.121522522297853e+001
 2.681863970211957e+000	 3.656225887620535e-001	 1.122954895483734e+001
 2.678099074240624e+000	 3.922494702303886e-001	 1.124597917419187e+001
 2.674056070603223e+000	 4.189253525959180e-001	 1.126419396749017e+001
 2.669732883669232e+000	 4.456462995360490e-001	 1.128411475969658e+001
 2.665127503902977e+000	 4.724083082701174e-001	 1.130586511332197e+001
 2.660237990055931e+000	 4.992073107059977e-001	 1.132970829672910e+001
 2.655062471344379e+000	 5.260391746636258e-001	 1.135630961080167e+001
 2.720731160793048e+000	 2.622399749400806e-001	 1.113426281763369e+001
 2.718030343910860e+000	 2.888928954771355e-001	 1.114436388487140e+001
 2.715057686402431e+000	 3.156105085318435e-001	 1.115826196186756e+001
 2.711810847537922e+000	 3.423891174918127e-001	 1.117501973922791e+001
 2.708287544386637e+000	 3.692249547671451e-001	 1.119401036115057e+001
 2.704485554061953e+000	 3.961141826427812e-001	 1.121489191287047e+001
 2.700402715962583e+000	 4.230528942062604e-001	 1.123758066658176e+001
 2.696036934007483e+000	 4.500371143516156e-001	 1.126222288266521e+001
 2.691386178861675e+000	 4.770628008600171e-001	 1.128916495196826e+001
 2.686448490150135e+000	 5.041258455576797e-001	 1.131892165556346e+001
 2.681221978656926e+000	 5.312220755514417e-001	 1.135214231107406e+001
 2.747276141879233e+000	 2.647985354028455e-001	 1.109602492865487e+001
 2.744548974310516e+000	 2.917114968000369e-001	 1.111077486742716e+001
 2.741547313885638e+000	 3.186897818914523e-001	 1.112846033415730e+001
 2.738268797037303e+000	 3.457296579984635e-001	 1.114841854817894e+001
 2.734711118561289e+000	 3.728273207724400e-001	 1.117027951717117e+001
 2.730872033883266e+000	 3.999788950554092e-001	 1.119394154613780e+001
 2.726749361321934e+000	 4.271804358168685e-001	 1.121954557578222e+001
 2.722340984345731e+000	 4.544279291674743e-001	 1.124744812815409e+001
 2.717644853820372e+000	 4.817172934502301e-001	 1.127819262501168e+001
 2.712658990244341e+000	 5.090443804096893e-001	 1.131247883377764e+001
 2.707381485969473e+000	 5.364049764395905e-001	 1.135113018751585e+001
 2.773821122965178e+000	 2.673570958656237e-001	 1.107302543766348e+001
 2.771067604709985e+000	 2.945300981229868e-001	 1.109009344012996e+001
 2.768036941368701e+000	 3.217690552511446e-001	 1.110941347936608e+001
 2.764726746536586e+000	 3.490701985052323e-001	 1.113058604175898e+001
 2.761134692735884e+000	 3.764296867778862e-001	 1.115348511915867e+001
 2.757258513704563e+000	 4.038436074682191e-001	 1.117823492189038e+001
 2.753096006681305e+000	 4.313079774276858e-001	 1.120518549956958e+001
 2.748645034684032e+000	 4.588187439835656e-001	 1.123488702740441e+001
 2.743903528779151e+000	 4.863717860406930e-001	 1.126806250179726e+001
 2.738869490338654e+000	 5.139629152619605e-001	 1.130557857716767e+001
 2.733540993282151e+000	 5.415878773280061e-001	 1.134841426627797e+001
 2.800366104050777e+000	 2.699156563283477e-001	 1.106067691661470e+001
 2.797586235109169e+000	 2.973486994459259e-001	 1.107765702801451e+001
 2.794526568851548e+000	 3.248483286108667e-001	 1.109640399980105e+001
 2.791184696035717e+000	 3.524107390120679e-001	 1.111676823677339e+001
 2.787558266910396e+000	 3.800320527834319e-001	 1.113885272070484e+001
 2.783644993525843e+000	 4.077083198811574e-001	 1.116299112179151e+001
 2.779442652040723e+000	 4.354355190386557e-001	 1.118972490410725e+001
 2.774949085022443e+000	 4.632095587998290e-001	 1.121977916126011e+001
 2.770162203738096e+000	 4.910262786313431e-001	 1.125403690303805e+001
 2.765079990433185e+000	 5.188814501144281e-001	 1.129351150053960e+001
 2.759700500595091e+000	 5.467707782166211e-001	 1.133931698637182e+001
 2.826911085135917e+000	 2.724742167909504e-001	 1.105443181948787e+001
 2.824104865507972e+000	 3.001673007687956e-001	 1.106885697844509e+001
 2.821016196334098e+000	 3.279276019705644e-001	 1.108478285522720e+001
 2.817642645534646e+000	 3.557512795189181e-001	 1.110229424289635e+001
 2.813981841084797e+000	 3.836344187890252e-001	 1.112170590930784e+001
 2.810031473347106e+000	 4.115730322941704e-001	 1.114354231369081e+001
 2.805789297400219e+000	 4.395630606497222e-001	 1.116851641154986e+001
 2.801253135361017e+000	 4.676003736162051e-001	 1.119750726123310e+001
 2.796420878697292e+000	 4.956807712221170e-001	 1.123153612848038e+001
 2.791290490528043e+000	 5.237999849670263e-001	 1.127174077047971e+001
 2.785860007908426e+000	 5.519536791053696e-001	 1.131934756869609e+001
 2.853456066220490e+000	 2.750327772533643e-001	 1.104978451047625e+001
 2.850623495906302e+000	 3.029859020915370e-001	 1.105914039579618e+001
 2.847505823816279e+000	 3.310068753301844e-001	 1.106997097602714e+001
 2.844100595033315e+000	 3.590918200257314e-001	 1.108257762494070e+001
 2.840405415259059e+000	 3.872367847946144e-001	 1.109746738706494e+001
 2.836417953168351e+000	 4.154377447072045e-001	 1.111533451877673e+001
 2.832135942759817e+000	 4.436906022608282e-001	 1.113704122046227e+001
 2.827557185699814e+000	 4.719911884326339e-001	 1.116359724882071e+001
 2.822679553656821e+000	 5.003352638129520e-001	 1.119613807963649e+001
 2.817500990623337e+000	 5.287185198196900e-001	 1.123590127496951e+001
 2.812019515222285e+000	 5.571365799941845e-001	 1.128420069502157e+001
 2.550424442091569e+000	 5.053075711170252e-001	 1.145993586907881e+001
 2.545175626282793e+000	 5.311133792549040e-001	 1.147318416573595e+001
 2.539648613041488e+000	 5.569426359281883e-001	 1.148667715074774e+001
 2.533841822305532e+000	 5.827911868836831e-001	 1.149914198057465e+001
 2.527753749957560e+000	 6.086548215885872e-001	 1.150929481871558e+001
 2.521382969806464e+000	 6.345292747799888e-001	 1.151582519479693e+001
 2.514728135537550e+000	 6.604102280884721e-001	 1.151738359878129e+001
 2.507787982628420e+000	 6.862933117354155e-001	 1.151745901839690e+001
 2.500561330227559e+000	 7.121741063034354e-001	 1.152694240613619e+001
 2.493047082992633e+000	 7.380481445792874e-001	 1.154621725102257e+001
 2.485244232885506e+000	 7.639109134684247e-001	 1.157523894173821e+001
 2.576583949405428e+000	 5.104904720028427e-001	 1.141781024999957e+001
 2.571281296896449e+000	 5.365609683296078e-001	 1.143148557283445e+001
 2.565697593505350e+000	 5.626551537016216e-001	 1.144447611040383e+001
 2.559831242963415e+000	 5.887688312558330e-001	 1.145563511670301e+001
 2.553680725725668e+000	 6.148977472723328e-001	 1.146376674936966e+001
 2.547244600972648e+000	 6.410375927397362e-001	 1.146760714026674e+001
 2.540521508580616e+000	 6.671840049954468e-001	 1.146581204230495e+001
 2.533510171057051e+000	 6.933325694403610e-001	 1.146630508754964e+001
 2.526209395438530e+000	 7.194788213274721e-001	 1.147706776577602e+001
 2.518618075147866e+000	 7.456182476236748e-001	 1.149777545293035e+001
 2.510735191807548e+000	 7.717462889439610e-001	 1.152814486827261e+001
 2.602743456718762e+000	 5.156733728892599e-001	 1.138744539630535e+001
 2.597386967509508e+000	 5.420085574049049e-001	 1.140354667621267e+001
 2.591746573968552e+000	 5.683676714756260e-001	 1.141749566662326e+001
 2.585820663620601e+000	 5.947464756285220e-001	 1.142833904906734e+001
 2.579607701493043e+000	 6.211406729565767e-001	 1.143503442609961e+001
 2.573106232138084e+000	 6.475459106999375e-001	 1.143642780971994e+001
 2.566314881622927e+000	 6.739577819028287e-001	 1.143194444069647e+001
 2.559232359484935e+000	 7.003718271456700e-001	 1.143355556759668e+001
 2.551857460648769e+000	 7.267835363518351e-001	 1.144559016625362e+001
 2.544189067302395e+000	 7.531883506683611e-001	 1.146753879913161e+001
 2.536226150728920e+000	 7.795816644197813e-001	 1.149891201855639e+001
 2.628902964031701e+000	 5.208562737762097e-001	 1.136745942889864e+001
 2.623492638122118e+000	 5.474561464807289e-001	 1.138751362262823e+001
 2.617795554431263e+000	 5.740801892501383e-001	 1.140345555682046e+001
 2.611810084277257e+000	 6.007241200016895e-001	 1.141459408220092e+001
 2.605534677259869e+000	 6.273835986412625e-001	 1.142010690183092e+001
 2.598967863302959e+000	 6.540542286605392e-001	 1.141901417117260e+001
 2.592108254664673e+000	 6.807315588105692e-001	 1.141290854047533e+001
 2.584954547912257e+000	 7.074110848512966e-001	 1.141564719353984e+001
 2.577505525858459e+000	 7.340882513764789e-001	 1.142877705003811e+001
 2.569760059456395e+000	 7.607584537133000e-001	 1.145163536301721e+001
 2.561717109649788e+000	 7.874170398958365e-001	 1.148355766388358e+001
 2.655062471344379e+000	 5.260391746636258e-001	 1.135630961080167e+001
 2.649598308734429e+000	 5.529037355570139e-001	 1.138138219413846e+001
 2.643844534893646e+000	 5.797927070250948e-001	 1.139993660547180e+001
 2.637799504933566e+000	 6.067017643752752e-001	 1.141161410522438e+001
 2.631461653026330e+000	 6.336265243263337e-001	 1.141588043863668e+001
 2.624829494467459e+000	 6.605625466214887e-001	 1.141199522837126e+001
 2.617901627706040e+000	 6.875053357186184e-001	 1.140525414884452e+001
 2.610676736339206e+000	 7.144503425571936e-001	 1.140893803107188e+001
 2.603153591067784e+000	 7.413929664013585e-001	 1.142282604446309e+001
 2.595331051610041e+000	 7.683285567584447e-001	 1.144613237397816e+001
 2.587208068570322e+000	 7.952524153720764e-001	 1.147804732503147e+001
 2.681221978656926e+000	 5.312220755514417e-001	 1.135214231107406e+001
 2.675703979346590e+000	 5.583513246336944e-001	 1.138282240185747e+001
 2.669893515355863e+000	 5.855052248004322e-001	 1.140435051528722e+001
 2.663788925589697e+000	 6.126794087492186e-001	 1.141649204160517e+001
 2.657388628792607e+000	 6.398694500117333e-001	 1.141914438452684e+001
 2.650691125631771e+000	 6.670708645827342e-001	 1.141191048009048e+001
 2.643695000747222e+000	 6.942791126269278e-001	 1.140544784627035e+001
 2.636398924765966e+000	 7.214896002633148e-001	 1.140971192999596e+001
 2.628801656276926e+000	 7.486976814264280e-001	 1.142386971930317e+001
 2.620902043763512e+000	 7.758986598037490e-001	 1.144704131417060e+001
 2.612699027490689e+000	 8.030877908484521e-001	 1.147830024072234e+001
 2.707381485969473e+000	 5.364049764395905e-001	 1.135113018751586e+001
 2.701809649958752e+000	 5.637989137107040e-001	 1.138657538386815e+001
 2.695942495818080e+000	 5.912177425760866e-001	 1.141072472164447e+001
 2.689778346245830e+000	 6.186570531234595e-001	 1.142359851794163e+001
 2.683315604558885e+000	 6.461123756974059e-001	 1.142502554976264e+001
 2.676552756796084e+000	 6.735791825442226e-001	 1.141532714542163e+001
 2.669488373788401e+000	 7.010528895354479e-001	 1.140982388619087e+001
 2.662121113192727e+000	 7.285288579696133e-001	 1.141418303582425e+001
 2.654449721486068e+000	 7.560023964516419e-001	 1.142798040761818e+001
 2.646473035916982e+000	 7.834687628491669e-001	 1.145032308214254e+001
 2.638189986411056e+000	 8.109231663249130e-001	 1.148019490515065e+001
 2.733540993282151e+000	 5.415878773280061e-001	 1.134841426627797e+001
 2.727915320571063e+000	 5.692465027879771e-001	 1.138735104535076e+001
 2.721991476280464e+000	 5.969302603519943e-001	 1.141275987786129e+001
 2.715767766902138e+000	 6.246346974979379e-001	 1.142496498657491e+001
 2.709242580325346e+000	 6.523553013832940e-001	 1.142408899378332e+001
 2.702414387960585e+000	 6.800875005059015e-001	 1.141287477985589e+001
 2.695281746829769e+000	 7.078266664441295e-001	 1.140918055436779e+001
 2.687843301619675e+000	 7.355681156760430e-001	 1.141521568727804e+001
 2.680097786695394e+000	 7.633071114769551e-001	 1.142979601891795e+001
 2.672044028070630e+000	 7.910388658946514e-001	 1.145166594656218e+001
 2.663680945331589e+000	 8.187585418014099e-001	 1.147957466995077e+001
 2.759700500595091e+000	 5.467707782166211e-001	 1.133931698637182e+001
 2.754020991183671e+000	 5.746940918654474e-001	 1.138051683185747e+001
 2.748040456743174e+000	 6.026427781280915e-001	 1.140589083622563e+001
 2.741757187558796e+000	 6.306123418725929e-001	 1.141607547650521e+001
 2.735169556092173e+000	 6.585982270693415e-001	 1.141149728235032e+001
 2.728276019125458e+000	 6.865958184677176e-001	 1.139886981712028e+001
 2.721075119871516e+000	 7.146004433529242e-001	 1.139594612704687e+001
 2.713565490046998e+000	 7.426073733825570e-001	 1.140269072609776e+001
 2.705745851905084e+000	 7.706118265023213e-001	 1.141787993032044e+001
 2.697615020224630e+000	 7.986089689401572e-001	 1.144020083697318e+001
 2.689171904252460e+000	 8.265939172778937e-001	 1.146825337722042e+001
 2.785860007908426e+000	 5.519536791053696e-001	 1.131934756869609e+001
 2.780126661796730e+000	 5.801416809430495e-001	 1.136164033985825e+001
 2.774089437206378e+000	 6.083552959043149e-001	 1.138576460696353e+001
 2.767746608215980e+000	 6.365899862473642e-001	 1.139267482845308e+001
 2.761096531859548e+000	 6.648411527554914e-001	 1.138310895771518e+001
 2.754137650290895e+000	 6.931041364296192e-001	 1.136942198694853e+001
 2.746868492913828e+000	 7.213742202617821e-001	 1.136635252754653e+001
 2.739287678474881e+000	 7.496466310891085e-001	 1.137282216856530e+001
 2.731393917115324e+000	 7.779165415276960e-001	 1.138758473228745e+001
 2.723186012379157e+000	 8.061790719856370e-001	 1.140928764745952e+001
 2.714662863173830e+000	 8.344292927543136e-001	 1.143647435683842e+001
 2.812019515222285e+000	 5.571365799941845e-001	 1.128420069502158e+001
 2.806232332410389e+000	 5.855892700207176e-001	 1.132648748688867e+001
 2.800138417670240e+000	 6.140678136806007e-001	 1.134823802001371e+001
 2.793736028873866e+000	 6.425676306221917e-001	 1.135072778882103e+001
 2.787023507627656e+000	 6.710840784416882e-001	 1.133535469327095e+001
 2.779999281457080e+000	 6.996124543915534e-001	 1.132086915530304e+001
 2.772661865956894e+000	 7.281479971706543e-001	 1.131686602957034e+001
 2.765009866903513e+000	 7.566858887956514e-001	 1.132221769599646e+001
 2.757041982326296e+000	 7.852212565530334e-001	 1.133567147670371e+001
 2.748757004534393e+000	 8.137491750310453e-001	 1.135585174498783e+001
 2.740153822095873e+000	 8.422646682306209e-001	 1.138126268312306e+001
 2.485244232885506e+000	 7.639109134684247e-001	 1.157523894173821e+001
 2.477151860299458e+000	 7.897578556018046e-001	 1.160830475151369e+001
 2.468769133891297e+000	 8.155843702179723e-001	 1.163967427538005e+001
 2.460095314090222e+000	 8.413858163563169e-001	 1.166935045958539e+001
 2.451129755315018e+000	 8.671575154167842e-001	 1.169741459522815e+001
 2.441871907512629e+000	 8.928947534162471e-001	 1.172402866850091e+001
 2.432321317635802e+000	 9.185927833090085e-001	 1.174943812976669e+001
 2.422477631056948e+000	 9.442468273696874e-001	 1.177397503247244e+001
 2.412340592915415e+000	 9.698520796365818e-001	 1.179806148483741e+001
 2.401910049395445e+000	 9.954037084134924e-001	 1.182221334946123e+001
 2.391185948932115e+000	 1.020896858827830e+000	 1.184703093342924e+001
 2.510735191807548e+000	 7.717462889439610e-001	 1.152814486827261e+001
 2.502559816378509e+000	 7.978583411747027e-001	 1.156239161291106e+001
 2.494091108990538e+000	 8.239497563647819e-001	 1.159488177367304e+001
 2.485328322487116e+000	 8.500158459516010e-001	 1.162563429208057e+001
 2.476270804665348e+000	 8.760518833470561e-001	 1.165473068348507e+001
 2.466917999830329e+000	 9.020531062170464e-001	 1.168231774993813e+001
 2.457269450287938e+000	 9.280147188257834e-001	 1.170861080351074e+001
 2.447324797773200e+000	 9.539318944431132e-001	 1.173389734753081e+001
 2.437083784811378e+000	 9.797997778129445e-001	 1.175854115438181e+001
 2.426546256009037e+000	 1.005613487680731e+000	 1.178298666996384e+001
 2.415712159272363e+000	 1.031368119377818e+000	 1.180775196488083e+001
 2.536226150728920e+000	 7.795816644197813e-001	 1.149891201855639e+001
 2.527967772456935e+000	 8.059588267478868e-001	 1.153388535007833e+001
 2.519413084089206e+000	 8.323151425118927e-001	 1.156696014789900e+001
 2.510561330883490e+000	 8.586458755472131e-001	 1.159818454081327e+001
 2.501411854015220e+000	 8.849462512776898e-001	 1.162765366684851e+001
 2.491964092147639e+000	 9.112114590182461e-001	 1.165551279135088e+001
 2.482217582939757e+000	 9.374366543429985e-001	 1.168196103131896e+001
 2.472171964489209e+000	 9.636169615170170e-001	 1.170725562963010e+001
 2.461826976707176e+000	 9.897474759898184e-001	 1.173171671317265e+001
 2.451182462622545e+000	 1.015823266948505e+000	 1.175571826004804e+001
 2.440238369612606e+000	 1.041839379928356e+000	 1.177975426665958e+001
 2.561717109649788e+000	 7.874170398958365e-001	 1.148355766388358e+001
 2.553375728534892e+000	 8.140593123213009e-001	 1.151872649178293e+001
 2.544735059187440e+000	 8.406805286592409e-001	 1.155181305706547e+001
 2.535794339279474e+000	 8.672759051430787e-001	 1.158290686479642e+001
 2.526552903364752e+000	 8.938406192086005e-001	 1.161212898840946e+001
 2.517010184464659e+000	 9.203698118197516e-001	 1.163963563886885e+001
 2.507165715591337e+000	 9.468585898605495e-001	 1.166562244041090e+001
 2.497019131205037e+000	 9.733020285912876e-001	 1.169032935237947e+001
 2.486570168602849e+000	 9.996951741670866e-001	 1.171404616619004e+001
 2.475818669235987e+000	 1.026033046216697e+000	 1.173710587184967e+001
 2.464764579952845e+000	 1.052310640479326e+000	 1.175994512933443e+001
 2.587208068570322e+000	 7.952524153720764e-001	 1.147804732503147e+001
 2.578783684612534e+000	 8.221597978948894e-001	 1.151281276272562e+001
 2.570057034285386e+000	 8.490459148067618e-001	 1.154530986885672e+001
 2.561027347675200e+000	 8.759059347391242e-001	 1.157568068826058e+001
 2.551693952714053e+000	 9.027349871397039e-001	 1.160408343335049e+001
 2.542056276781485e+000	 9.295281646214674e-001	 1.163069655361211e+001
 2.532113848242760e+000	 9.562805253783323e-001	 1.165572361689490e+001
 2.521866297920744e+000	 9.829870956658127e-001	 1.167939893757035e+001
 2.511313360498440e+000	 1.009642872344632e+000	 1.170199387524937e+001
 2.500454875849389e+000	 1.036242825485187e+000	 1.172381255823326e+001
 2.489290790293080e+000	 1.062781901030612e+000	 1.174524717134133e+001
 2.612699027490689e+000	 8.030877908484521e-001	 1.147830024072234e+001
 2.604191640690019e+000	 8.302602834685963e-001	 1.151200496694505e+001
 2.595379009383188e+000	 8.574113009543917e-001	 1.154329201267132e+001
 2.586260356070796e+000	 8.845359643352754e-001	 1.157236607643915e+001
 2.576835002063240e+000	 9.116293550709153e-001	 1.159943257894448e+001
 2.567102369098211e+000	 9.386865174232991e-001	 1.162470228564213e+001
 2.557061980894104e+000	 9.657024608962426e-001	 1.164839685161306e+001
 2.546713464636390e+000	 9.926721627404798e-001	 1.167075521899260e+001
 2.536056552393992e+000	 1.019590570522337e+000	 1.169202706948605e+001
 2.525091082462769e+000	 1.046452604753855e+000	 1.171253944407167e+001
 2.513817000633314e+000	 1.073253161582096e+000	 1.173261021345896e+001
 2.638189986411056e+000	 8.109231663249130e-001	 1.148019490515065e+001
 2.629599596767505e+000	 8.383607690423659e-001	 1.151213294043561e+001
 2.620700984480991e+000	 8.657766871020663e-001	 1.154157939925284e+001
 2.611493364466391e+000	 8.931659939314581e-001	 1.156881067260374e+001
 2.601976051412429e+000	 9.205237230021514e-001	 1.159408829777917e+001
 2.592148461414938e+000	 9.478448702251519e-001	 1.161766419048425e+001
 2.582010113545446e+000	 9.751243964141759e-001	 1.163978691532447e+001
 2.571560631352037e+000	 1.002357229815177e+000	 1.166070891982845e+001
 2.560799744289542e+000	 1.029538268700084e+000	 1.168068249327457e+001
 2.549727289076148e+000	 1.056662384022583e+000	 1.170002084887664e+001
 2.538343210973550e+000	 1.083724422133662e+000	 1.171902310499521e+001
 2.663680945331589e+000	 8.187585418014099e-001	 1.147957466995077e+001
 2.655007552845147e+000	 8.464612546161423e-001	 1.150900156834269e+001
 2.646022959578937e+000	 8.741420732497217e-001	 1.153597690245430e+001
 2.636726372862116e+000	 9.017960235275987e-001	 1.156085669224601e+001
 2.627117100761730e+000	 9.294180909333261e-001	 1.158396631064215e+001
 2.617194553731764e+000	 9.570032230269306e-001	 1.160560638536968e+001
 2.606958246196869e+000	 9.845463319320279e-001	 1.162605986126005e+001
 2.596407798067744e+000	 1.012042296889793e+000	 1.164558515143775e+001
 2.585542936185134e+000	 1.039485966877756e+000	 1.166448952021020e+001
 2.574363495689549e+000	 1.066872163291252e+000	 1.168303526802788e+001
 2.562869421313786e+000	 1.094195682685193e+000	 1.170152550491825e+001
 2.689171904252460e+000	 8.265939172778937e-001	 1.146825337722042e+001
 2.680415508923102e+000	 8.545617401898695e-001	 1.149688671757698e+001
 2.671344934677172e+000	 8.825074593972930e-001	 1.152210622359698e+001
 2.661959381258101e+000	 9.104260531236234e-001	 1.154434797061426e+001
 2.652258150111261e+000	 9.383124588643562e-001	 1.156499378577135e+001
 2.642240646048782e+000	 9.661615758285406e-001	 1.158457394256186e+001
 2.631906378848451e+000	 9.939682674496946e-001	 1.160341185323264e+001
 2.621254964783572e+000	 1.021727363964215e+000	 1.162179455926653e+001
 2.610286128080809e+000	 1.049433665055237e+000	 1.164004015464091e+001
 2.598999702302993e+000	 1.077081942559741e+000	 1.165841633196028e+001
 2.587395631654025e+000	 1.104666943236572e+000	 1.167721962092167e+001
 2.714662863173830e+000	 8.344292927543136e-001	 1.143647435683842e+001
 2.705823465001528e+000	 8.626622257634927e-001	 1.146435349521284e+001
 2.696666909775838e+000	 8.908728455447167e-001	 1.148939230310147e+001
 2.687192389654475e+000	 9.190560827194576e-001	 1.151192231567373e+001
 2.677399199461133e+000	 9.472068267951563e-001	 1.153224574618995e+001
 2.667286738366094e+000	 9.753199286298870e-001	 1.155063851880391e+001
 2.656854511500269e+000	 1.003390202967071e+000	 1.156807801762246e+001
 2.646102131499582e+000	 1.031412431038330e+000	 1.158574772895389e+001
 2.635029319976606e+000	 1.059381363232407e+000	 1.160398384479595e+001
 2.623635908916501e+000	 1.087291721827933e+000	 1.162306374475885e+001
 2.611921841994268e+000	 1.115138203787682e+000	 1.164328190918663e+001
 2.740153822095873e+000	 8.422646682306209e-001	 1.138126268312306e+001
 2.731231421080581e+000	 8.707627113369550e-001	 1.140754811468776e+001
 2.721988884875083e+000	 8.992382316919291e-001	 1.143170374629980e+001
 2.712425398051369e+000	 9.276861123150281e-001	 1.145414403445379e+001
 2.702540248811464e+000	 9.561011947256430e-001	 1.147524652730658e+001
 2.692332830683794e+000	 9.844782814308750e-001	 1.149535505547129e+001
 2.681802644152405e+000	 1.012812138484053e+000	 1.151476869852608e+001
 2.670949298215834e+000	 1.041097498112028e+000	 1.153380880512477e+001
 2.659772511872570e+000	 1.069329061409152e+000	 1.155303768825849e+001
 2.648272115530094e+000	 1.097501501095708e+000	 1.157395420349996e+001
 2.636448052334516e+000	 1.125609464338406e+000	 1.159697473740043e+001
 2.391185948932115e+000	 1.020896858827830e+000	 1.184703093342924e+001
 2.380170018213485e+000	 1.046322846371298e+000	 1.186807142571720e+001
 2.368860828443987e+000	 1.071680609277310e+000	 1.188161571936023e+001
 2.357258643002612e+000	 1.096965242574563e+000	 1.188960585266221e+001
 2.345363831499276e+000	 1.122171828923650e+000	 1.189412936066005e+001
 2.333176870580243e+000	 1.147295441416841e+000	 1.189742169277739e+001
 2.320698344647250e+000	 1.172331146418369e+000	 1.190186818223338e+001
 2.307928946488350e+000	 1.197274006442202e+000	 1.191000546156718e+001
 2.294869477818498e+000	 1.222119083064165e+000	 1.192452221733497e+001
 2.281520849728122e+000	 1.246861439865191e+000	 1.194825917679476e+001
 2.267884083038025e+000	 1.271496145402371e+000	 1.198420822025865e+001
 2.415712159272363e+000	 1.031368119377818e+000	 1.180775196488083e+001
 2.404583238999920e+000	 1.057054899319571e+000	 1.182857459518169e+001
 2.393158051741089e+000	 1.082672754848956e+000	 1.184195170740101e+001
 2.381436863576317e+000	 1.108216730684771e+000	 1.184977477496204e+001
 2.369420047906573e+000	 1.133681859050856e+000	 1.185407548337326e+001
 2.357108086267037e+000	 1.159063162504583e+000	 1.185702909598657e+001
 2.344501569053611e+000	 1.184355656806279e+000	 1.186095738924196e+001
 2.331601196160210e+000	 1.209554353826513e+000	 1.186833104215230e+001
 2.318407777524915e+000	 1.234654264488093e+000	 1.188177136318349e+001
 2.304922233583134e+000	 1.259650401739495e+000	 1.190405123721982e+001
 2.291145595626142e+000	 1.284537783556398e+000	 1.193809517603214e+001
 2.440238369612606e+000	 1.041839379928356e+000	 1.177975426665958e+001
 2.428996459786430e+000	 1.067786952268393e+000	 1.179972596827667e+001
 2.417455275038343e+000	 1.093664900421135e+000	 1.181235261646665e+001
 2.405615084150245e+000	 1.119468218795488e+000	 1.181943883101428e+001
 2.393476264314158e+000	 1.145191889178536e+000	 1.182292189303231e+001
 2.381039301954177e+000	 1.170830883592759e+000	 1.182487617839254e+001
 2.368304793460359e+000	 1.196380167194577e+000	 1.182751718409028e+001
 2.355273445832486e+000	 1.221834701211166e+000	 1.183320502204678e+001
 2.341946077231757e+000	 1.247189445912312e+000	 1.184444725292519e+001
 2.328323617438561e+000	 1.272439363614045e+000	 1.186390093182602e+001
 2.314407108214645e+000	 1.297579421710628e+000	 1.189437373828981e+001
 2.464764579952845e+000	 1.052310640479326e+000	 1.175994512933443e+001
 2.453409680572995e+000	 1.078519005217651e+000	 1.177867061816574e+001
 2.441752498335712e+000	 1.104657045993749e+000	 1.179016905682850e+001
 2.429793304724341e+000	 1.130719706906630e+000	 1.179612172301417e+001
 2.417532480721959e+000	 1.156701919306625e+000	 1.179833276554989e+001
 2.404970517641572e+000	 1.182598604681320e+000	 1.179873483023036e+001
 2.392108017867391e+000	 1.208404677583233e+000	 1.179939430778875e+001
 2.378945695505065e+000	 1.234115048596146e+000	 1.180251606758601e+001
 2.365484376938909e+000	 1.259724627336829e+000	 1.181044753830999e+001
 2.351725001294286e+000	 1.285228325488860e+000	 1.182568199599058e+001
 2.337668620803413e+000	 1.310621059865092e+000	 1.185086092001431e+001
 2.489290790293080e+000	 1.062781901030612e+000	 1.174524717134133e+001
 2.477822901359597e+000	 1.089251058167239e+000	 1.176257363122442e+001
 2.466049721633156e+000	 1.115649191566700e+000	 1.177277796971455e+001
 2.453971525298549e+000	 1.141971195018112e+000	 1.177738135157546e+001
 2.441588697129901e+000	 1.168211949435054e+000	 1.177801580783273e+001
 2.428901733329135e+000	 1.194366325770216e+000	 1.177643118410737e+001
 2.415911242274608e+000	 1.220429187972218e+000	 1.177450174609609e+001
 2.402617945177838e+000	 1.246395395981444e+000	 1.177423229415017e+001
 2.389022676646254e+000	 1.272259808761649e+000	 1.177776363622167e+001
 2.375126385150190e+000	 1.298017287363961e+000	 1.178737726715706e+001
 2.360930133392335e+000	 1.323662698019823e+000	 1.180549910248508e+001
 2.513817000633314e+000	 1.073253161582096e+000	 1.173261021345896e+001
 2.502236122146217e+000	 1.099983111117045e+000	 1.174863280625867e+001
 2.490346944930636e+000	 1.126641337139889e+000	 1.175759607398550e+001
 2.478149745872811e+000	 1.153222683129850e+000	 1.176082393313515e+001
 2.465644913537911e+000	 1.179721979563755e+000	 1.175973696982168e+001
 2.452832949016774e+000	 1.206134046859400e+000	 1.175586084629506e+001
 2.439714466681911e+000	 1.232453698361500e+000	 1.175083440546957e+001
 2.426290194850694e+000	 1.258675743367048e+000	 1.174641731305048e+001
 2.412560976353672e+000	 1.284794990186778e+000	 1.174449707373385e+001
 2.398527769006153e+000	 1.310806249239370e+000	 1.174709525633286e+001
 2.384191645981290e+000	 1.336704336174856e+000	 1.175666383153986e+001
 2.538343210973550e+000	 1.083724422133662e+000	 1.171902310499521e+001
 2.526649342932837e+000	 1.110715164066960e+000	 1.173409128349731e+001
 2.514644168228117e+000	 1.137633482713217e+000	 1.174209322498516e+001
 2.502327966447069e+000	 1.164474171241760e+000	 1.174411801618323e+001
 2.489701129945918e+000	 1.191232009692661e+000	 1.174133504615904e+001
 2.476764164704404e+000	 1.217901767948820e+000	 1.173500401250355e+001
 2.463517691089194e+000	 1.244478208751050e+000	 1.172648467230207e+001
 2.449962444523521e+000	 1.270956090752944e+000	 1.171724616434611e+001
 2.436099276061050e+000	 1.297330171612221e+000	 1.170887572546449e+001
 2.421929152862056e+000	 1.323595211115106e+000	 1.170308662186365e+001
 2.407453158570164e+000	 1.349745974330222e+000	 1.170887650567233e+001
 2.562869421313786e+000	 1.094195682685193e+000	 1.170152550491825e+001
 2.551062563719439e+000	 1.121447217016874e+000	 1.171625010805975e+001
 2.538941391525559e+000	 1.148625628286586e+000	 1.172380569144637e+001
 2.526506187021270e+000	 1.175725659353757e+000	 1.172500840309215e+001
 2.513757346353844e+000	 1.202742039821704e+000	 1.172073617487515e+001
 2.500695380391936e+000	 1.229669489038429e+000	 1.171194047587595e+001
 2.487320915496360e+000	 1.256502719140836e+000	 1.169965786326187e+001
 2.473634694196211e+000	 1.283236438139122e+000	 1.168502114322879e+001
 2.459637575768267e+000	 1.309865353037983e+000	 1.166926995044098e+001
 2.445330536717781e+000	 1.336384172991191e+000	 1.165402828917722e+001
 2.430714671158838e+000	 1.362787612485952e+000	 1.166406385414651e+001
 2.587395631654025e+000	 1.104666943236572e+000	 1.167721962092166e+001
 2.575475784506004e+000	 1.132179269966677e+000	 1.169248073224664e+001
 2.563238614822923e+000	 1.159617773859897e+000	 1.170034935589037e+001
 2.550684407595356e+000	 1.186977147465758e+000	 1.170132998380950e+001
 2.537813562761619e+000	 1.214252069950818e+000	 1.169596823992560e+001
 2.524626596079281e+000	 1.241437210128177e+000	 1.168486453435098e+001
 2.511124139903305e+000	 1.268527229530830e+000	 1.166868757395876e+001
 2.497306943868649e+000	 1.295516785525570e+000	 1.164818752703542e+001
 2.483175875475209e+000	 1.322400534464070e+000	 1.162420863514081e+001
 2.468731920573207e+000	 1.349173134867645e+000	 1.160509006703825e+001
 2.453976183747196e+000	 1.375829250642081e+000	 1.162200509357440e+001
 2.611921841994268e+000	 1.115138203787682e+000	 1.164328190918663e+001
 2.599889005292511e+000	 1.142911322916259e+000	 1.166023746067309e+001
 2.587535838120173e+000	 1.170609919433050e+000	 1.166943284354474e+001
 2.574862628169269e+000	 1.198228635577678e+000	 1.167102148720438e+001
 2.561869779169168e+000	 1.225762100079935e+000	 1.166517518389701e+001
 2.548557811766347e+000	 1.253204931218015e+000	 1.165209980400669e+001
 2.534927364309928e+000	 1.280551739920999e+000	 1.163205093261641e+001
 2.520979193540728e+000	 1.307797132912276e+000	 1.160534920941783e+001
 2.506714175181758e+000	 1.334935715890489e+000	 1.157247762633880e+001
 2.492133304428216e+000	 1.361962096744488e+000	 1.155868369531017e+001
 2.477237696335122e+000	 1.388870888798642e+000	 1.158253658552853e+001
 2.636448052334516e+000	 1.125609464338406e+000	 1.159697473740043e+001
 2.624302226078947e+000	 1.153643375865511e+000	 1.161706984196557e+001
 2.611833061417270e+000	 1.181602065005949e+000	 1.162887058443471e+001
 2.599040848742956e+000	 1.209480123689433e+000	 1.163213915542929e+001
 2.585925995576417e+000	 1.237272130208986e+000	 1.162663123672900e+001
 2.572489027453052e+000	 1.264972652307894e+000	 1.161211394450581e+001
 2.558730588716131e+000	 1.292576250311315e+000	 1.158838376493517e+001
 2.544651443212336e+000	 1.320077480299228e+000	 1.155528424771160e+001
 2.530252474887798e+000	 1.347470897317243e+000	 1.151911554068421e+001
 2.515534688282688e+000	 1.374751058621742e+000	 1.151474192413279e+001
 2.500499208922499e+000	 1.401912526955667e+000	 1.154555230350929e+001
 2.267884083038025e+000	 1.271496145402371e+000	 1.198420822025865e+001
 2.253958198620401e+000	 1.296021946435735e+000	 1.201440652513335e+001
 2.239746463665040e+000	 1.320430225689309e+000	 1.202056948218029e+001
 2.225250231807174e+000	 1.344716083974012e+000	 1.200750393105766e+001
 2.210470966914093e+000	 1.368874639231026e+000	 1.199139155368240e+001
 2.195410242948958e+000	 1.392901029590033e+000	 1.197555495370936e+001
 2.180069743733891e+000	 1.416790416433498e+000	 1.196055182133131e+001
 2.164451262611717e+000	 1.440537987463154e+000	 1.194693303859495e+001
 2.148556702005920e+000	 1.464138959764829e+000	 1.193523927366125e+001
 2.132388072878527e+000	 1.487588582867685e+000	 1.192599713769713e+001
 2.115947494085821e+000	 1.510882141793964e+000	 1.191971492887982e+001
 2.291145595626142e+000	 1.284537783556398e+000	 1.193809517603214e+001
 2.277076874483293e+000	 1.309315143844457e+000	 1.196514062210039e+001
 2.262719370855698e+000	 1.333973776940951e+000	 1.196615803174837e+001
 2.248074452262729e+000	 1.358508733406175e+000	 1.195508557266750e+001
 2.233143597586459e+000	 1.382915081106391e+000	 1.194320997063044e+001
 2.217928396934078e+000	 1.407187908303436e+000	 1.193102641283707e+001
 2.202430551398550e+000	 1.431322326750428e+000	 1.191903345034357e+001
 2.186651872716887e+000	 1.455313474789710e+000	 1.190773000227627e+001
 2.170594282825594e+000	 1.479156520449108e+000	 1.189761185747629e+001
 2.154259813312990e+000	 1.502846664532554e+000	 1.188916769471858e+001
 2.137650604768312e+000	 1.526379143701107e+000	 1.188287464727928e+001
 2.314407108214645e+000	 1.297579421710628e+000	 1.189437373828981e+001
 2.300195550346515e+000	 1.322608341253345e+000	 1.191636511290573e+001
 2.285692278046610e+000	 1.347517328192726e+000	 1.191418821486221e+001
 2.270898672718448e+000	 1.372301382838444e+000	 1.190785723174152e+001
 2.255816228258888e+000	 1.396955522981840e+000	 1.190013174047055e+001
 2.240446550919155e+000	 1.421474787016904e+000	 1.189146483231999e+001
 2.224791359063059e+000	 1.445854237067408e+000	 1.188232126922206e+001
 2.208852482821807e+000	 1.470088962116304e+000	 1.187317438784704e+001
 2.192631863644929e+000	 1.494174081133417e+000	 1.186450245206194e+001
 2.176131553747041e+000	 1.518104746197446e+000	 1.185678447604932e+001
 2.159353715450340e+000	 1.541876145608267e+000	 1.185049554532436e+001
 2.337668620803413e+000	 1.310621059865092e+000	 1.185086092001431e+001
 2.323314226209956e+000	 1.335901538662437e+000	 1.186597729770566e+001
 2.308665185237677e+000	 1.361060879444679e+000	 1.186678029656721e+001
 2.293722893174246e+000	 1.386094032270866e+000	 1.186512220625288e+001
 2.278488858931313e+000	 1.410995964857420e+000	 1.186141380643669e+001
 2.262964704904140e+000	 1.435761665730482e+000	 1.185608956652349e+001
 2.247152166727390e+000	 1.460386147384478e+000	 1.184960502007176e+001
 2.231053092926469e+000	 1.484864449442971e+000	 1.184243351632216e+001
 2.214669444463933e+000	 1.509191641817783e+000	 1.183506236698404e+001
 2.198003294180702e+000	 1.533362827862383e+000	 1.182798841184771e+001
 2.181056826131934e+000	 1.557373147515462e+000	 1.182171303209250e+001
 2.360930133392335e+000	 1.323662698019823e+000	 1.180549910248508e+001
 2.346432902073507e+000	 1.349194736071776e+000	 1.181729666392531e+001
 2.331638092428801e+000	 1.374604430696857e+000	 1.182335640947333e+001
 2.316547113630038e+000	 1.399886681703488e+000	 1.182625031075253e+001
 2.301161489603666e+000	 1.425036406733176e+000	 1.182638261146768e+001
 2.285482858888985e+000	 1.450048544444212e+000	 1.182419187645440e+001
 2.269512974391513e+000	 1.474918057701679e+000	 1.182014821958009e+001
 2.253253703030859e+000	 1.499639936769746e+000	 1.181474985041597e+001
 2.236707025282611e+000	 1.524209202502237e+000	 1.180851895889965e+001
 2.219875034613993e+000	 1.548620909527386e+000	 1.180199696299498e+001
 2.202759936813131e+000	 1.572870149422706e+000	 1.179573915002873e+001
 2.384191645981290e+000	 1.336704336174856e+000	 1.175666383153986e+001
 2.369551577937059e+000	 1.362487933481405e+000	 1.177218727294906e+001
 2.354610999619883e+000	 1.388147981949305e+000	 1.178340188017556e+001
 2.339371334085742e+000	 1.413679331136361e+000	 1.179067790524443e+001
 2.323834120275880e+000	 1.439076848609156e+000	 1.179443390613921e+001
 2.308001012873640e+000	 1.464335423158141e+000	 1.179513453836600e+001
 2.291873782055399e+000	 1.489449968019049e+000	 1.179328758843219e+001
 2.275454313134967e+000	 1.514415424096662e+000	 1.178944026340969e+001
 2.258744606100969e+000	 1.539226763186804e+000	 1.178417475699916e+001
 2.241746775046934e+000	 1.563878991192479e+000	 1.177810311869949e+001
 2.224463047493960e+000	 1.588367151330018e+000	 1.177186145874825e+001
 2.407453158570164e+000	 1.349745974330222e+000	 1.170887650567233e+001
 2.392670253800501e+000	 1.375781130891361e+000	 1.173025219386502e+001
 2.377583906810826e+000	 1.401691533202069e+000	 1.174646544505717e+001
 2.362195554541274e+000	 1.427471980569528e+000	 1.175790787828774e+001
 2.346506750947889e+000	 1.453117290485407e+000	 1.176503252074668e+001
 2.330519166858057e+000	 1.478622301872309e+000	 1.176835142513659e+001
 2.314234589719017e+000	 1.503981878336627e+000	 1.176843246091751e+001
 2.297654923238782e+000	 1.529190911423753e+000	 1.176589529451227e+001
 2.280782186919012e+000	 1.554244323871513e+000	 1.176140658022709e+001
 2.263618515479548e+000	 1.579137072857684e+000	 1.175567439024404e+001
 2.246166158174458e+000	 1.603864153237413e+000	 1.174944191851964e+001
 2.430714671158838e+000	 1.362787612485952e+000	 1.166406385414651e+001
 2.415788929663723e+000	 1.389074328301687e+000	 1.169115459319779e+001
 2.400556814001530e+000	 1.415235084455194e+000	 1.171215941283024e+001
 2.385019774996549e+000	 1.441264630003039e+000	 1.172750958739332e+001
 2.369179381619624e+000	 1.467157732361975e+000	 1.173771210394004e+001
 2.353037320842188e+000	 1.492909180586763e+000	 1.174334706224734e+001
 2.336595397382337e+000	 1.518513788654453e+000	 1.174506417605426e+001
 2.319855533342289e+000	 1.543966398751055e+000	 1.174357839162024e+001
 2.302819767736745e+000	 1.569261884556394e+000	 1.173966464683239e+001
 2.285490255911855e+000	 1.594395154523022e+000	 1.173415180113270e+001
 2.267869268854655e+000	 1.619361155144911e+000	 1.172791577345137e+001
 2.453976183747196e+000	 1.375829250642081e+000	 1.162200509357440e+001
 2.438907605526618e+000	 1.402367525712424e+000	 1.165461808036492e+001
 2.423529721191898e+000	 1.428778635708728e+000	 1.168015977734819e+001
 2.407843995451483e+000	 1.455057279436941e+000	 1.169911875954677e+001
 2.391852012291019e+000	 1.481198174238908e+000	 1.171207483013079e+001
 2.375555474825982e+000	 1.507196059301545e+000	 1.171969616004347e+001
 2.358956205045328e+000	 1.533045698972569e+000	 1.172273545145837e+001
 2.342056143445481e+000	 1.558741886078599e+000	 1.172202514231281e+001
 2.324857348554177e+000	 1.584279445241474e+000	 1.171847167675788e+001
 2.307361996343876e+000	 1.609653236188517e+000	 1.171304887387741e+001
 2.289572379534584e+000	 1.634858157052526e+000	 1.170679043440041e+001
 2.477237696335122e+000	 1.388870888798642e+000	 1.158253658552852e+001
 2.462026281389075e+000	 1.415660723123613e+000	 1.162042699626247e+001
 2.446502628381830e+000	 1.442322186962715e+000	 1.165020628395854e+001
 2.430668215905993e+000	 1.468849928871283e+000	 1.167243735448020e+001
 2.414524642962007e+000	 1.495238616116251e+000	 1.168779107772297e+001
 2.398073628809393e+000	 1.521482938016700e+000	 1.169704312383822e+001
 2.381317012707963e+000	 1.547577609291011e+000	 1.170106974109122e+001
 2.364256753548344e+000	 1.573517373406422e+000	 1.170084249385515e+001
 2.346894929371313e+000	 1.599297005926782e+000	 1.169742198733851e+001
 2.329233736775630e+000	 1.624911317854190e+000	 1.169195061364520e+001
 2.311275490214281e+000	 1.650355158960276e+000	 1.168564436162133e+001
 2.500499208922499e+000	 1.401912526955667e+000	 1.154555230350929e+001
 2.485144957250983e+000	 1.428953920535294e+000	 1.158842664868172e+001
 2.469475535571230e+000	 1.455865738217200e+000	 1.162210245242155e+001
 2.453492436359996e+000	 1.482642578306111e+000	 1.164723339311799e+001
 2.437197273632522e+000	 1.509279057994052e+000	 1.166459908006839e+001
 2.420591782792370e+000	 1.535769816732273e+000	 1.167510154330273e+001
 2.403677820370209e+000	 1.562109519609820e+000	 1.167976057793534e+001
 2.386457363650869e+000	 1.588292860734558e+000	 1.167970796292559e+001
 2.368932510188158e+000	 1.614314566612345e+000	 1.167618058274513e+001
 2.351105477207142e+000	 1.640169399520066e+000	 1.167051248896972e+001
 2.332978600893775e+000	 1.665852160868178e+000	 1.166412594717317e+001
 2.115947494085821e+000	 1.510882141793964e+000	 1.191971492887982e+001
 2.099237191034965e+000	 1.534014959583876e+000	 1.191126561072374e+001
 2.082259493061533e+000	 1.556982398749111e+000	 1.189553442094035e+001
 2.065016834301999e+000	 1.579779865751119e+000	 1.187301619205855e+001
 2.047511753248752e+000	 1.602402814479762e+000	 1.184418072426211e+001
 2.029746891604005e+000	 1.624846749199452e+000	 1.180946694764887e+001
 2.011724993034463e+000	 1.647107227462233e+000	 1.176927687932303e+001
 1.993448901827818e+000	 1.669179862983960e+000	 1.172432265822570e+001
 1.974921561452376e+000	 1.691060328479695e+000	 1.167912963897525e+001
 1.956146013021241e+000	 1.712744358454552e+000	 1.163564679048034e+001
 1.937125393662695e+000	 1.734227751946229e+000	 1.159473096273030e+001
 2.137650604768312e+000	 1.526379143701107e+000	 1.188287464727928e+001
 2.120768905424560e+000	 1.549749233023748e+000	 1.187373498142009e+001
 2.103617068509114e+000	 1.572952247445816e+000	 1.185697675728406e+001
 2.086197553125190e+000	 1.595983546313200e+000	 1.183339566121120e+001
 2.068512923802284e+000	 1.618838536886679e+000	 1.180377068941980e+001
 2.050565849338336e+000	 1.641512677318262e+000	 1.176885738464013e+001
 2.032359101541615e+000	 1.664001479594162e+000	 1.172938083087063e+001
 2.013895553873444e+000	 1.686300512440468e+000	 1.168602845963357e+001
 1.995178179993044e+000	 1.708405404187630e+000	 1.163964481167421e+001
 1.976210052205971e+000	 1.730311845589921e+000	 1.159522795453132e+001
 1.956994339817781e+000	 1.752015592596107e+000	 1.155559772792658e+001
 2.159353715450340e+000	 1.541876145608267e+000	 1.185049554532436e+001
 2.142300619813663e+000	 1.565483506463633e+000	 1.184080697547980e+001
 2.124974643956197e+000	 1.588922096142528e+000	 1.182328209387258e+001
 2.107378271947896e+000	 1.612187226875288e+000	 1.179897568413485e+001
 2.089514094355360e+000	 1.635274259293600e+000	 1.176893352414727e+001
 2.071384807072251e+000	 1.658178605437074e+000	 1.173418473795699e+001
 2.052993210048401e+000	 1.680895731726092e+000	 1.169573386955444e+001
 2.034342205918759e+000	 1.703421161896978e+000	 1.165455273620212e+001
 2.015434798533458e+000	 1.725750479895565e+000	 1.161157212180361e+001
 1.996274091390503e+000	 1.747879332725290e+000	 1.156780023163538e+001
 1.976863285972716e+000	 1.769803433245986e+000	 1.152866839674665e+001
 2.181056826131934e+000	 1.557373147515462e+000	 1.182171303209250e+001
 2.163832334202312e+000	 1.581217779903542e+000	 1.181160333488495e+001
 2.146332219402828e+000	 1.604891944839259e+000	 1.179353877167298e+001
 2.128558990770164e+000	 1.628390907437387e+000	 1.176879284434446e+001
 2.110515264908026e+000	 1.651709981700528e+000	 1.173863710528873e+001
 2.092203764805794e+000	 1.674844533555892e+000	 1.170433266312399e+001
 2.073627318554861e+000	 1.697789983858025e+000	 1.166712137438238e+001
 2.054788857963796e+000	 1.720541811353488e+000	 1.162821678321671e+001
 2.035691417073646e+000	 1.743095555603501e+000	 1.158879487420320e+001
 2.016338130574856e+000	 1.765446819860659e+000	 1.154998470585884e+001
 1.996732232127518e+000	 1.787591273895864e+000	 1.151296121020563e+001
 2.202759936813131e+000	 1.572870149422706e+000	 1.179573915002873e+001
 2.185364048590552e+000	 1.596952053343489e+000	 1.178532268033020e+001
 2.167689794849051e+000	 1.620861793536015e+000	 1.176691286709576e+001
 2.149739709592040e+000	 1.644594587999504e+000	 1.174196288737319e+001
 2.131516435460329e+000	 1.668145704107467e+000	 1.171193042607900e+001
 2.113022722539009e+000	 1.691510461674715e+000	 1.167826837168483e+001
 2.094261427061033e+000	 1.714684235989961e+000	 1.164241516224253e+001
 2.075235510008592e+000	 1.737662460809999e+000	 1.160578484824145e+001
 2.055948035613635e+000	 1.760440631311437e+000	 1.156975694202648e+001
 2.036402169759054e+000	 1.783014306996028e+000	 1.153566612624097e+001
 2.016601178282201e+000	 1.805379114545742e+000	 1.150479189597021e+001
 2.224463047493960e+000	 1.588367151330018e+000	 1.177186145874825e+001
 2.206895762978422e+000	 1.612686326783483e+000	 1.176123927016701e+001
 2.189047370294912e+000	 1.636831642232806e+000	 1.174264679263676e+001
 2.170920428413575e+000	 1.660798268561644e+000	 1.171767913218439e+001
 2.152517606012314e+000	 1.684581426514422e+000	 1.168794178995281e+001
 2.133841680271940e+000	 1.708176389793547e+000	 1.165504058162873e+001
 2.114895535566959e+000	 1.731578488121901e+000	 1.162057117178894e+001
 2.095682162053179e+000	 1.754783110266513e+000	 1.158610829415883e+001
 2.076204654153454e+000	 1.777785707019372e+000	 1.155319473223927e+001
 2.056466208943119e+000	 1.800581794131398e+000	 1.152333013769391e+001
 2.036470124436785e+000	 1.823166955195621e+000	 1.149795976625843e+001
 2.246166158174458e+000	 1.603864153237413e+000	 1.174944191851964e+001
 2.228427477365963e+000	 1.628420600223541e+000	 1.173870176320733e+001
 2.210404945740458e+000	 1.652801490929640e+000	 1.172005790750012e+001
 2.192101147234814e+000	 1.677001949123813e+000	 1.169521090049329e+001
 2.173518776564031e+000	 1.701017148921394e+000	 1.166587703186020e+001
 2.154660638004632e+000	 1.724842317912389e+000	 1.163377750644321e+001
 2.135529644072677e+000	 1.748472740253847e+000	 1.160062719845687e+001
 2.116128814097591e+000	 1.771903759723029e+000	 1.156812306087933e+001
 2.096461272693132e+000	 1.795130782727310e+000	 1.153793226930217e+001
 2.076530248127073e+000	 1.818149281266767e+000	 1.151168018264309e+001
 2.056339070591284e+000	 1.840954795845499e+000	 1.149093820566621e+001
 2.267869268854655e+000	 1.619361155144911e+000	 1.172791577345137e+001
 2.249959191753217e+000	 1.644154873663671e+000	 1.171713198512732e+001
 2.231762521185734e+000	 1.668771339626527e+000	 1.169853713753414e+001
 2.213281866055804e+000	 1.693205629686016e+000	 1.167390196279919e+001
 2.194519947115524e+000	 1.717452871328388e+000	 1.164501776524568e+001
 2.175479595737126e+000	 1.741508246031244e+000	 1.161368488020731e+001
 2.156163752578226e+000	 1.765366992385799e+000	 1.158170067718221e+001
 2.136575466141862e+000	 1.789024409179548e+000	 1.155084718757385e+001
 2.116717891232695e+000	 1.812475858435248e+000	 1.152287844119639e+001
 2.096594287310937e+000	 1.835716768402136e+000	 1.149950759906396e+001
 2.076208016745717e+000	 1.858742636495377e+000	 1.148239397269048e+001
 2.289572379534584e+000	 1.634858157052526e+000	 1.170679043440041e+001
 2.271490906140224e+000	 1.659889147103888e+000	 1.169602369823312e+001
 2.253120096630787e+000	 1.684741188323473e+000	 1.167754760386163e+001
 2.234462584876594e+000	 1.709409310248261e+000	 1.165316900001995e+001
 2.215521117666840e+000	 1.733888593735407e+000	 1.162471965298834e+001
 2.196298553469467e+000	 1.758174174150114e+000	 1.159404401633278e+001
 2.176797861083646e+000	 1.782261244517759e+000	 1.156298650966092e+001
 2.157022118186025e+000	 1.806145058636069e+000	 1.153337839141178e+001
 2.136974509772173e+000	 1.829820934143186e+000	 1.150702431487190e+001
 2.116658326494735e+000	 1.853284255537506e+000	 1.148568866015772e+001
 2.096076962900100e+000	 1.876530477145256e+000	 1.147108173778994e+001
 2.311275490214281e+000	 1.650355158960276e+000	 1.168564436162133e+001
 2.293022620527026e+000	 1.675623420544203e+000	 1.167494137436682e+001
 2.274477672075661e+000	 1.700711037020488e+000	 1.165662325963367e+001
 2.255643303697231e+000	 1.725612990810551e+000	 1.163250007970221e+001
 2.236522288218026e+000	 1.750324316142456e+000	 1.160441070072769e+001
 2.217117511201701e+000	 1.774840102269001e+000	 1.157420989774226e+001
 2.197431969588975e+000	 1.799155496649727e+000	 1.154375493321885e+001
 2.177468770230117e+000	 1.823265708092594e+000	 1.151489169909178e+001
 2.157231128311593e+000	 1.847166009851126e+000	 1.148944051655420e+001
 2.136722365678489e+000	 1.870851742672875e+000	 1.146918169171745e+001
 2.115945909054448e+000	 1.894318317795134e+000	 1.145584092827670e+001
 2.332978600893775e+000	 1.665852160868178e+000	 1.166412594717317e+001
 2.314554334913665e+000	 1.691357693984630e+000	 1.165351897074910e+001
 2.295835247520404e+000	 1.716680885717582e+000	 1.163536753437737e+001
 2.276824022517764e+000	 1.741816671372895e+000	 1.161145314585917e+001
 2.257523458769129e+000	 1.766760038549538e+000	 1.158358957111786e+001
 2.237936468933870e+000	 1.791506030387907e+000	 1.155360929643655e+001
 2.218066078094256e+000	 1.816049748781705e+000	 1.152334942858469e+001
 2.197915422274171e+000	 1.840386357549124e+000	 1.149463712772663e+001
 2.177487746850985e+000	 1.864511085559068e+000	 1.146927467268627e+001
 2.156786404862220e+000	 1.888419229808245e+000	 1.144902426212516e+001
 2.135814855208781e+000	 1.912106158445013e+000	 1.143559265843588e+001
 1.937125393662695e+000	 1.734227751946229e+000	 1.159473096273030e+001
 1.917865842278389e+000	 1.755503199414275e+000	 1.155582047017890e+001
 1.898367848035766e+000	 1.776569877680165e+000	 1.151744987128320e+001
 1.878634825537390e+000	 1.797423798768442e+000	 1.147916861613811e+001
 1.858670277892823e+000	 1.818061049642710e+000	 1.144054926967938e+001
 1.838477794649450e+000	 1.838477794649450e+000	 1.140119440645832e+001
 1.818061049642710e+000	 1.858670277892823e+000	 1.136074351919226e+001
 1.797423798768442e+000	 1.878634825537389e+000	 1.131887990246690e+001
 1.776569877680165e+000	 1.898367848035765e+000	 1.127533747179053e+001
 1.755503199414276e+000	 1.917865842278388e+000	 1.122990747727363e+001
 1.734227751946229e+000	 1.937125393662695e+000	 1.118244507054155e+001
 1.956994339817781e+000	 1.752015592596107e+000	 1.155559772792658e+001
 1.937537244696356e+000	 1.773509260692353e+000	 1.152010374480953e+001
 1.917839261026503e+000	 1.794792018256848e+000	 1.148667559518690e+001
 1.897903838434116e+000	 1.815859836409762e+000	 1.145439499216696e+001
 1.877734515959893e+000	 1.836708761978973e+000	 1.142235601221222e+001
 1.857334919968946e+000	 1.857334919968946e+000	 1.138967320952165e+001
 1.836708761978973e+000	 1.877734515959893e+000	 1.135548977539258e+001
 1.815859836409762e+000	 1.897903838434115e+000	 1.131898570004782e+001
 1.794792018256848e+000	 1.917839261026502e+000	 1.127938589305902e+001
 1.773509260692354e+000	 1.937537244696356e+000	 1.123596821741085e+001
 1.752015592596107e+000	 1.956994339817781e+000	 1.118807139144641e+001
 1.976863285972716e+000	 1.769803433245986e+000	 1.152866839674665e+001
 1.957208647114214e+000	 1.791515321970432e+000	 1.149540128510878e+001
 1.937310674017164e+000	 1.813014158833530e+000	 1.146523247528561e+001
 1.917172851330789e+000	 1.834295874051076e+000	 1.143685203414398e+001
 1.896798754026930e+000	 1.855356474315226e+000	 1.140895342800141e+001
 1.876192045288422e+000	 1.876192045288422e+000	 1.138024273734859e+001
 1.855356474315226e+000	 1.896798754026930e+000	 1.134944794576074e+001
 1.834295874051077e+000	 1.917172851330789e+000	 1.131532825680063e+001
 1.813014158833530e+000	 1.937310674017163e+000	 1.127668339117601e+001
 1.791515321970433e+000	 1.957208647114214e+000	 1.123236281516897e+001
 1.769803433245986e+000	 1.976863285972716e+000	 1.118127485040799e+001
 1.996732232127518e+000	 1.787591273895864e+000	 1.151296121020563e+001
 1.976880049531974e+000	 1.809521383248511e+000	 1.148064075311099e+001
 1.956782087007755e+000	 1.831236299410209e+000	 1.145200058753697e+001
 1.936441864227417e+000	 1.852731911692388e+000	 1.142541270339470e+001
 1.915862992093939e+000	 1.874004186651469e+000	 1.139924526355691e+001
 1.895049170607881e+000	 1.895049170607881e+000	 1.137187280259578e+001
 1.874004186651470e+000	 1.915862992093939e+000	 1.134168652705188e+001
 1.852731911692388e+000	 1.936441864227417e+000	 1.130710466754666e+001
 1.831236299410210e+000	 1.956782087007755e+000	 1.126658283133346e+001
 1.809521383248511e+000	 1.976880049531973e+000	 1.121862430246708e+001
 1.787591273895864e+000	 1.996732232127518e+000	 1.116179023568289e+001
 2.016601178282201e+000	 1.805379114545742e+000	 1.150479189597021e+001
 1.996551451949648e+000	 1.827527444526589e+000	 1.147475506391706e+001
 1.976253499998287e+000	 1.849458439986889e+000	 1.144586961714892e+001
 1.955710877124004e+000	 1.871167949333697e+000	 1.141896251760499e+001
 1.934927230160922e+000	 1.892651898987706e+000	 1.139214945332325e+001
 1.913906295927326e+000	 1.913906295927326e+000	 1.136354781632149e+001
 1.892651898987707e+000	 1.934927230160922e+000	 1.133128789900935e+001
 1.871167949333698e+000	 1.955710877124005e+000	 1.129352416474305e+001
 1.849458439986889e+000	 1.976253499998286e+000	 1.124844653763472e+001
 1.827527444526590e+000	 1.996551451949647e+000	 1.119429165514548e+001
 1.805379114545742e+000	 2.016601178282202e+000	 1.113476456554007e+001
 2.036470124436785e+000	 1.823166955195621e+000	 1.149795976625842e+001
 2.016222854367249e+000	 1.845533505804667e+000	 1.147399101192113e+001
 1.995724912988767e+000	 1.867680580563567e+000	 1.144573305747908e+001
 1.974979890020558e+000	 1.889603986975002e+000	 1.141639365454383e+001
 1.953991468227883e+000	 1.911299611323937e+000	 1.138659220254851e+001
 1.932763421246759e+000	 1.932763421246759e+000	 1.135426091955922e+001
 1.911299611323937e+000	 1.953991468227883e+000	 1.131734256936662e+001
 1.889603986975002e+000	 1.974979890020558e+000	 1.127380253672902e+001
 1.867680580563567e+000	 1.995724912988767e+000	 1.122164093943003e+001
 1.845533505804667e+000	 2.016222854367248e+000	 1.116413382761813e+001
 1.823166955195621e+000	 2.036470124436785e+000	 1.110994070612523e+001
 2.056339070591284e+000	 1.840954795845499e+000	 1.149093820566621e+001
 2.035894256784788e+000	 1.863539567082745e+000	 1.147194690887052e+001
 2.015196325979204e+000	 1.885902721140245e+000	 1.144803418094616e+001
 1.994248902917082e+000	 1.908040024616306e+000	 1.141659919769091e+001
 1.973055706294826e+000	 1.929947323660161e+000	 1.138150221348333e+001
 1.951620546566181e+000	 1.951620546566181e+000	 1.134300825583565e+001
 1.929947323660161e+000	 1.973055706294827e+000	 1.129894355387281e+001
 1.908040024616306e+000	 1.994248902917082e+000	 1.124715667182448e+001
 1.885902721140246e+000	 2.015196325979204e+000	 1.119016690158364e+001
 1.863539567082746e+000	 2.035894256784788e+000	 1.113769077075956e+001
 1.840954795845499e+000	 2.056339070591284e+000	 1.108742929088542e+001
 2.076208016745717e+000	 1.858742636495377e+000	 1.148239397269048e+001
 2.055565659202280e+000	 1.881545628360823e+000	 1.146706103950517e+001
 2.034667738969606e+000	 1.904124861716922e+000	 1.144606733891240e+001
 2.013517915813583e+000	 1.926476062257607e+000	 1.141645746288355e+001
 1.992119944361755e+000	 1.948595035996382e+000	 1.137580504530816e+001
 1.970477671885594e+000	 1.970477671885594e+000	 1.132878337519037e+001
 1.948595035996381e+000	 1.992119944361754e+000	 1.127518088229734e+001
 1.926476062257608e+000	 2.013517915813583e+000	 1.121650178389376e+001
 1.904124861716923e+000	 2.034667738969607e+000	 1.116366650932398e+001
 1.881545628360824e+000	 2.055565659202279e+000	 1.111484849854162e+001
 1.858742636495377e+000	 2.076208016745717e+000	 1.106704836810245e+001
 2.096076962900100e+000	 1.876530477145256e+000	 1.147108173778994e+001
 2.075237061619734e+000	 1.899551689638900e+000	 1.145798088126297e+001
 2.054139151959984e+000	 1.922347002293599e+000	 1.143821594622112e+001
 2.032786928710067e+000	 1.944912099898908e+000	 1.140890475135201e+001
 2.011184182428673e+000	 1.967242748332599e+000	 1.136699135492727e+001
 1.989334797205001e+000	 1.989334797205001e+000	 1.131057176097181e+001
 1.967242748332599e+000	 2.011184182428673e+000	 1.124769427828531e+001
 1.944912099898909e+000	 2.032786928710067e+000	 1.119176027913701e+001
 1.922347002293600e+000	 2.054139151959984e+000	 1.114194365352927e+001
 1.899551689638902e+000	 2.075237061619734e+000	 1.109518795851658e+001
 1.876530477145256e+000	 2.096076962900100e+000	 1.104853879092094e+001
 2.115945909054448e+000	 1.894318317795134e+000	 1.145584092827670e+001
 2.094908464037164e+000	 1.917557750916978e+000	 1.144344080445755e+001
 2.073610564950345e+000	 1.940569142870276e+000	 1.142314160198472e+001
 2.052055941606541e+000	 1.963348137540208e+000	 1.139220199463852e+001
 2.030248420495583e+000	 1.985890460668814e+000	 1.134770506778035e+001
 2.008191922524404e+000	 2.008191922524404e+000	 1.128793882385528e+001
 1.985890460668814e+000	 2.030248420495583e+000	 1.122662475589613e+001
 1.963348137540208e+000	 2.052055941606541e+000	 1.117286420770178e+001
 1.940569142870277e+000	 2.073610564950344e+000	 1.112438014650584e+001
 1.917557750916979e+000	 2.094908464037164e+000	 1.107822724753550e+001
 1.894318317795134e+000	 2.115945909054448e+000	 1.103157127237860e+001
 2.135814855208781e+000	 1.912106158445013e+000	 1.143559265843588e+001
 2.114579866454582e+000	 1.935563812195057e+000	 1.142225877039865e+001
 2.093081977940697e+000	 1.958791283446953e+000	 1.139959019114468e+001
 2.071324954503008e+000	 1.981784175181508e+000	 1.136505250260152e+001
 2.049312658562491e+000	 2.004538173005029e+000	 1.131636556203095e+001
 2.027049047843805e+000	 2.027049047843805e+000	 1.126448978068000e+001
 2.004538173005028e+000	 2.049312658562491e+000	 1.121211300130443e+001
 1.981784175181507e+000	 2.071324954503007e+000	 1.115903319269241e+001
 1.958791283446953e+000	 2.093081977940696e+000	 1.111030837609527e+001
 1.935563812195057e+000	 2.114579866454581e+000	 1.106342864981023e+001
 1.912106158445013e+000	 2.135814855208781e+000	 1.101575350260066e+001
 1.734227751946229e+000	 1.937125393662695e+000	 1.118244507054155e+001
 1.712744358454553e+000	 1.956146013021240e+000	 1.112573253785440e+001
 1.691060328479696e+000	 1.974921561452375e+000	 1.105382738146079e+001
 1.669179862983960e+000	 1.993448901827817e+000	 1.096859949274366e+001
 1.647107227462233e+000	 2.011724993034462e+000	 1.087449996916813e+001
 1.624846749199453e+000	 2.029746891604005e+000	 1.078186372101745e+001
 1.602402814479763e+000	 2.047511753248752e+000	 1.069250790394404e+001
 1.579779865751119e+000	 2.065016834301999e+000	 1.060747825598561e+001
 1.556982398749112e+000	 2.082259493061532e+000	 1.052782454314036e+001
 1.534014959583876e+000	 2.099237191034965e+000	 1.045458931583217e+001
 1.510882141793964e+000	 2.115947494085821e+000	 1.038879713695047e+001
 1.752015592596107e+000	 1.956994339817781e+000	 1.118807139144641e+001
 1.730311845589922e+000	 1.976210052205971e+000	 1.112829689703286e+001
 1.708405404187631e+000	 1.995178179993043e+000	 1.105109042223836e+001
 1.686300512440469e+000	 2.013895553873443e+000	 1.096225373449634e+001
 1.664001479594162e+000	 2.032359101541614e+000	 1.087253926030952e+001
 1.641512677318263e+000	 2.050565849338336e+000	 1.078373009162773e+001
 1.618838536886681e+000	 2.068512923802284e+000	 1.069720669000688e+001
 1.595983546313201e+000	 2.086197553125190e+000	 1.061437077984004e+001
 1.572952247445816e+000	 2.103617068509113e+000	 1.053663220476301e+001
 1.549749233023748e+000	 2.120768905424560e+000	 1.046539617669384e+001
 1.526379143701107e+000	 2.137650604768312e+000	 1.040205102846783e+001
 1.769803433245986e+000	 1.976863285972716e+000	 1.118127485040799e+001
 1.747879332725290e+000	 1.996274091390503e+000	 1.111604717535853e+001
 1.725750479895566e+000	 2.015434798533457e+000	 1.103614683767890e+001
 1.703421161896979e+000	 2.034342205918758e+000	 1.095264647272047e+001
 1.680895731726093e+000	 2.052993210048400e+000	 1.086738064698479e+001
 1.658178605437075e+000	 2.071384807072250e+000	 1.078197298735498e+001
 1.635274259293601e+000	 2.089514094355359e+000	 1.069808761061521e+001
 1.612187226875290e+000	 2.107378271947896e+000	 1.061741421745366e+001
 1.588922096142530e+000	 2.124974643956197e+000	 1.054165348003947e+001
 1.565483506463634e+000	 2.142300619813662e+000	 1.047250284798856e+001
 1.541876145608267e+000	 2.159353715450339e+000	 1.041164289284761e+001
 1.787591273895864e+000	 1.996732232127518e+000	 1.116179023568289e+001
 1.765446819860660e+000	 2.016338130574856e+000	 1.109407561742104e+001
 1.743095555603502e+000	 2.035691417073645e+000	 1.101991893964307e+001
 1.720541811353489e+000	 2.054788857963796e+000	 1.094122751303356e+001
 1.697789983858026e+000	 2.073627318554860e+000	 1.085977826286888e+001
 1.674844533555893e+000	 2.092203764805793e+000	 1.077740958600686e+001
 1.651709981700529e+000	 2.110515264908026e+000	 1.069600483941324e+001
 1.628390907437388e+000	 2.128558990770163e+000	 1.061747600275203e+001
 1.604891944839260e+000	 2.146332219402827e+000	 1.054374765337653e+001
 1.581217779903543e+000	 2.163832334202311e+000	 1.047674138820369e+001
 1.557373147515461e+000	 2.181056826131934e+000	 1.041836082198610e+001
 1.805379114545742e+000	 2.016601178282202e+000	 1.113476456554007e+001
 1.783014306996029e+000	 2.036402169759053e+000	 1.107262308523936e+001
 1.760440631311438e+000	 2.055948035613634e+000	 1.100326603647221e+001
 1.737662460810001e+000	 2.075235510008592e+000	 1.092853573310374e+001
 1.714684235989961e+000	 2.094261427061033e+000	 1.085035845192585e+001
 1.691510461674716e+000	 2.113022722539008e+000	 1.077072649294344e+001
 1.668145704107468e+000	 2.131516435460328e+000	 1.069168027359414e+001
 1.644594587999505e+000	 2.149739709592041e+000	 1.061529060822862e+001
 1.620861793536016e+000	 2.167689794849050e+000	 1.054364132133233e+001
 1.596952053343489e+000	 2.185364048590552e+000	 1.047881233889493e+001
 1.572870149422706e+000	 2.202759936813131e+000	 1.042286339706336e+001
 1.823166955195621e+000	 2.036470124436785e+000	 1.110994070612523e+001
 1.800581794131398e+000	 2.056466208943119e+000	 1.105212409615027e+001
 1.777785707019373e+000	 2.076204654153453e+000	 1.098649831216423e+001
 1.754783110266514e+000	 2.095682162053178e+000	 1.091499306476932e+001
 1.731578488121902e+000	 2.114895535566959e+000	 1.083962660465672e+001
 1.708176389793547e+000	 2.133841680271940e+000	 1.076248642636206e+001
 1.684581426514422e+000	 2.152517606012314e+000	 1.068571000878904e+001
 1.660798268561645e+000	 2.170920428413575e+000	 1.061146575441752e+001
 1.636831642232806e+000	 2.189047370294912e+000	 1.054193428611389e+001
 1.612686326783484e+000	 2.206895762978422e+000	 1.047929025614956e+001
 1.588367151330017e+000	 2.224463047493961e+000	 1.042568481645082e+001
 1.840954795845499e+000	 2.056339070591284e+000	 1.108742929088542e+001
 1.818149281266767e+000	 2.076530248127072e+000	 1.103264812822344e+001
 1.795130782727311e+000	 2.096461272693131e+000	 1.096982113621452e+001
 1.771903759723030e+000	 2.116128814097590e+000	 1.090091146230852e+001
 1.748472740253848e+000	 2.135529644072676e+000	 1.082797403436234e+001
 1.724842317912390e+000	 2.154660638004630e+000	 1.075313494111239e+001
 1.701017148921395e+000	 2.173518776564031e+000	 1.067857085412916e+001
 1.677001949123814e+000	 2.192101147234814e+000	 1.060648866408665e+001
 1.652801490929641e+000	 2.210404945740458e+000	 1.053910550101652e+001
 1.628420600223542e+000	 2.228427477365962e+000	 1.047862930365720e+001
 1.603864153237414e+000	 2.246166158174459e+000	 1.042724009709913e+001
 1.858742636495377e+000	 2.076208016745717e+000	 1.106704836810244e+001
 1.835716768402136e+000	 2.096594287310937e+000	 1.101417313668548e+001
 1.812475858435248e+000	 2.116717891232695e+000	 1.095334210907169e+001
 1.789024409179548e+000	 2.136575466141861e+000	 1.088649991255939e+001
 1.765366992385800e+000	 2.156163752578225e+000	 1.081568489074106e+001
 1.741508246031245e+000	 2.175479595737125e+000	 1.074300718845937e+001
 1.717452871328389e+000	 2.194519947115523e+000	 1.067062688479101e+001
 1.693205629686018e+000	 2.213281866055804e+000	 1.060073235815700e+001
 1.668771339626527e+000	 2.231762521185734e+000	 1.053551906432619e+001
 1.644154873663672e+000	 2.249959191753216e+000	 1.047716890325923e+001
 1.619361155144911e+000	 2.267869268854655e+000	 1.042783034448400e+001
 1.876530477145256e+000	 2.096076962900100e+000	 1.104853879092094e+001
 1.853284255537506e+000	 2.116658326494735e+000	 1.099659262675023e+001
 1.829820934143187e+000	 2.136974509772172e+000	 1.093707815399904e+001
 1.806145058636070e+000	 2.157022118186025e+000	 1.087187148411426e+001
 1.782261244517760e+000	 2.176797861083645e+000	 1.080294310834369e+001
 1.758174174150114e+000	 2.196298553469467e+000	 1.073233470940974e+001
 1.733888593735408e+000	 2.215521117666839e+000	 1.066213602953707e+001
 1.709409310248262e+000	 2.234462584876594e+000	 1.059446199057800e+001
 1.684741188323473e+000	 2.253120096630786e+000	 1.053143025846955e+001
 1.659889147103889e+000	 2.271490906140223e+000	 1.047513943916415e+001
 1.634858157052526e+000	 2.289572379534584e+000	 1.042764808656056e+001
 1.894318317795134e+000	 2.115945909054448e+000	 1.103157127237860e+001
 1.870851742672875e+000	 2.136722365678488e+000	 1.097972277974175e+001
 1.847166009851127e+000	 2.157231128311593e+000	 1.092096265229053e+001
 1.823265708092596e+000	 2.177468770230116e+000	 1.085705041301938e+001
 1.799155496649727e+000	 2.197431969588975e+000	 1.078983938759533e+001
 1.774840102269001e+000	 2.217117511201700e+000	 1.072125225939549e+001
 1.750324316142457e+000	 2.236522288218025e+000	 1.065325669095138e+001
 1.725612990810552e+000	 2.255643303697231e+000	 1.058784121959943e+001
 1.700711037020489e+000	 2.274477672075661e+000	 1.052699163143612e+001
 1.675623420544204e+000	 2.293022620527026e+000	 1.047266801230119e+001
 1.650355158960276e+000	 2.311275490214281e+000	 1.042678266751986e+001
 1.912106158445013e+000	 2.135814855208781e+000	 1.101575350260066e+001
 1.888419229808246e+000	 2.156786404862220e+000	 1.096330962903995e+001
 1.864511085559069e+000	 2.177487746850984e+000	 1.090485261901928e+001
 1.840386357549125e+000	 2.197915422274170e+000	 1.084197922260262e+001
 1.816049748781706e+000	 2.218066078094255e+000	 1.077637820626225e+001
 1.791506030387907e+000	 2.237936468933869e+000	 1.070980466227252e+001
 1.766760038549539e+000	 2.257523458769130e+000	 1.064405439624141e+001
 1.741816671372895e+000	 2.276824022517763e+000	 1.058093861306877e+001
 1.716680885717583e+000	 2.295835247520403e+000	 1.052225911772171e+001
 1.691357693984631e+000	 2.314554334913665e+000	 1.046978424154677e+001
 1.665852160868178e+000	 2.332978600893775e+000	 1.042522569745184e+001
 1.510882141793964e+000	 2.115947494085821e+000	 1.038879713695047e+001
 1.487588582867686e+000	 2.132388072878527e+000	 1.032481968955390e+001
 1.464138959764830e+000	 2.148556702005919e+000	 1.025607398364196e+001
 1.440537987463155e+000	 2.164451262611716e+000	 1.018210428068922e+001
 1.416790416433498e+000	 2.180069743733891e+000	 1.010241243764410e+001
 1.392901029590033e+000	 2.195410242948957e+000	 1.001645331348474e+001
 1.368874639231027e+000	 2.210470966914092e+000	 9.923631086192023e+000
 1.344716083974014e+000	 2.225250231807174e+000	 9.823296527325587e+000
 1.320430225689310e+000	 2.239746463665040e+000	 9.717235875862947e+000
 1.296021946435735e+000	 2.253958198620400e+000	 9.617596302344747e+000
 1.271496145402372e+000	 2.267884083038025e+000	 9.524529533377617e+000
 1.526379143701107e+000	 2.137650604768312e+000	 1.040205102846783e+001
 1.502846664532555e+000	 2.154259813312990e+000	 1.034115496228450e+001
 1.479156520449109e+000	 2.170594282825593e+000	 1.027602088960888e+001
 1.455313474789711e+000	 2.186651872716886e+000	 1.020611217716154e+001
 1.431322326750428e+000	 2.202430551398549e+000	 1.013083789574385e+001
 1.407187908303437e+000	 2.217928396934077e+000	 1.004954793443976e+001
 1.382915081106392e+000	 2.233143597586459e+000	 9.961529107019750e+000
 1.358508733406176e+000	 2.248074452262729e+000	 9.866002301351383e+000
 1.333973776940952e+000	 2.262719370855698e+000	 9.762120712851178e+000
 1.309315143844458e+000	 2.277076874483292e+000	 9.658167660229591e+000
 1.284537783556399e+000	 2.291145595626142e+000	 9.562744474878993e+000
 1.541876145608267e+000	 2.159353715450339e+000	 1.041164289284761e+001
 1.518104746197447e+000	 2.176131553747041e+000	 1.035366421061102e+001
 1.494174081133418e+000	 2.192631863644929e+000	 1.029171141689995e+001
 1.470088962116305e+000	 2.208852482821806e+000	 1.022522992706370e+001
 1.445854237067409e+000	 2.224791359063059e+000	 1.015359933019248e+001
 1.421474787016905e+000	 2.240446550919154e+000	 1.007612804646512e+001
 1.396955522981841e+000	 2.255816228258888e+000	 9.992049062518596e+000
 1.372301382838444e+000	 2.270898672718448e+000	 9.900516799807688e+000
 1.347517328192727e+000	 2.285692278046609e+000	 9.800605160470196e+000
 1.322608341253345e+000	 2.300195550346514e+000	 9.693281635592047e+000
 1.297579421710628e+000	 2.314407108214644e+000	 9.593137368148105e+000
 1.557373147515461e+000	 2.181056826131934e+000	 1.041836082198610e+001
 1.533362827862384e+000	 2.198003294180702e+000	 1.036309970528281e+001
 1.509191641817784e+000	 2.214669444463932e+000	 1.030389230880914e+001
 1.484864449442972e+000	 2.231053092926468e+000	 1.024022723640375e+001
 1.460386147384479e+000	 2.247152166727390e+000	 1.017151605452659e+001
 1.435761665730482e+000	 2.262964704904139e+000	 1.009708732783118e+001
 1.410995964857420e+000	 2.278488858931313e+000	 1.001618182278772e+001
 1.386094032270866e+000	 2.293722893174245e+000	 9.927948939046635e+000
 1.361060879444680e+000	 2.308665185237676e+000	 9.831444417057337e+000
 1.335901538662438e+000	 2.323314226209955e+000	 9.725629358923666e+000
 1.310621059865092e+000	 2.337668620803413e+000	 9.618721314968960e+000
 1.572870149422706e+000	 2.202759936813131e+000	 1.042286339706336e+001
 1.548620909527387e+000	 2.219875034613993e+000	 1.037008609614427e+001
 1.524209202502237e+000	 2.236707025282611e+000	 1.031318361616343e+001
 1.499639936769747e+000	 2.253253703030859e+000	 1.025174718338964e+001
 1.474918057701680e+000	 2.269512974391513e+000	 1.018528005303431e+001
 1.450048544444213e+000	 2.285482858888984e+000	 1.011319075752205e+001
 1.425036406733177e+000	 2.301161489603666e+000	 1.003478761723094e+001
 1.399886681703489e+000	 2.316547113630037e+000	 9.949274578679539e+000
 1.374604430696858e+000	 2.331638092428800e+000	 9.855748433206573e+000
 1.349194736071777e+000	 2.346432902073506e+000	 9.753197456864639e+000
 1.323662698019824e+000	 2.360930133392334e+000	 9.642301044699666e+000
 1.588367151330017e+000	 2.224463047493961e+000	 1.042568481645082e+001
 1.563878991192479e+000	 2.241746775046933e+000	 1.037512514288746e+001
 1.539226763186804e+000	 2.258744606100968e+000	 1.032008308001836e+001
 1.514415424096663e+000	 2.275454313134966e+000	 1.026031029885601e+001
 1.489449968019049e+000	 2.291873782055399e+000	 1.019545980135544e+001
 1.464335423158141e+000	 2.308001012873640e+000	 1.012507821507234e+001
 1.439076848609157e+000	 2.323834120275880e+000	 1.004859944928115e+001
 1.413679331136361e+000	 2.339371334085741e+000	 9.965339783401101e+000
 1.388147981949306e+000	 2.354610999619883e+000	 9.874494445842647e+000
 1.362487933481406e+000	 2.369551577937059e+000	 9.775135728234869e+000
 1.336704336174856e+000	 2.384191645981290e+000	 9.666212666536415e+000
 1.603864153237414e+000	 2.246166158174459e+000	 1.042724009709913e+001
 1.579137072857684e+000	 2.263618515479547e+000	 1.037860053061955e+001
 1.554244323871514e+000	 2.280782186919011e+000	 1.032497060752019e+001
 1.529190911423754e+000	 2.297654923238780e+000	 1.026631874544692e+001
 1.503981878336627e+000	 2.314234589719016e+000	 1.020250418888845e+001
 1.478622301872310e+000	 2.330519166858057e+000	 1.013326818294659e+001
 1.453117290485408e+000	 2.346506750947888e+000	 1.005822661231840e+001
 1.427471980569528e+000	 2.362195554541273e+000	 9.976864182798726e+000
 1.401691533202070e+000	 2.377583906810825e+000	 9.888530209036880e+000
 1.375781130891362e+000	 2.392670253800501e+000	 9.792436058249491e+000
 1.349745974330221e+000	 2.407453158570164e+000	 9.687654285233972e+000
 1.619361155144911e+000	 2.267869268854655e+000	 1.042783034448400e+001
 1.594395154523023e+000	 2.285490255911854e+000	 1.038078276456476e+001
 1.569261884556395e+000	 2.302819767736746e+000	 1.032811283469395e+001
 1.543966398751055e+000	 2.319855533342288e+000	 1.027006058893894e+001
 1.518513788654454e+000	 2.336595397382336e+000	 1.020674653618357e+001
 1.492909180586763e+000	 2.353037320842187e+000	 1.013816154459433e+001
 1.467157732361977e+000	 2.369179381619624e+000	 1.006415830000316e+001
 1.441264630003040e+000	 2.385019774996548e+000	 9.984444422583216e+000
 1.415235084455196e+000	 2.400556814001530e+000	 9.898577311730310e+000
 1.389074328301688e+000	 2.415788929663723e+000	 9.805960774114507e+000
 1.362787612485953e+000	 2.430714671158838e+000	 9.705843474552555e+000
 1.634858157052526e+000	 2.289572379534584e+000	 1.042764808656056e+001
 1.609653236188518e+000	 2.307361996343875e+000	 1.038183413864873e+001
 1.584279445241475e+000	 2.324857348554177e+000	 1.032966777038882e+001
 1.558741886078601e+000	 2.342056143445480e+000	 1.027171415559069e+001
 1.533045698972569e+000	 2.358956205045328e+000	 1.020840870102036e+001
 1.507196059301546e+000	 2.375555474825982e+000	 1.014004547183002e+001
 1.481198174238909e+000	 2.391852012291019e+000	 1.006676730476059e+001
 1.455057279436943e+000	 2.407843995451483e+000	 9.988557701175344e+000
 1.428778635708728e+000	 2.423529721191897e+000	 9.905234576596712e+000
 1.402367525712425e+000	 2.438907605526618e+000	 9.816445927493335e+000
 1.375829250642081e+000	 2.453976183747196e+000	 9.721667459757727e+000
 1.650355158960276e+000	 2.311275490214281e+000	 1.042678266751986e+001
 1.624911317854191e+000	 2.329233736775629e+000	 1.038181377310983e+001
 1.599297005926782e+000	 2.346894929371312e+000	 1.032968951604750e+001
 1.573517373406423e+000	 2.364256753548344e+000	 1.027135246986458e+001
 1.547577609291011e+000	 2.381317012707962e+000	 1.020760526733917e+001
 1.521482938016701e+000	 2.398073628809393e+000	 1.013909739566859e+001
 1.495238616116251e+000	 2.414524642962007e+000	 1.006631379862028e+001
 1.468849928871284e+000	 2.430668215905993e+000	 9.989565386037272e+000
 1.442322186962715e+000	 2.446502628381830e+000	 9.908981534712213e+000
 1.415660723123614e+000	 2.462026281389074e+000	 9.824504647702520e+000
 1.388870888798642e+000	 2.477237696335122e+000	 9.735886821798488e+000
 1.665852160868178e+000	 2.332978600893775e+000	 1.042522569745184e+001
 1.640169399520067e+000	 2.351105477207142e+000	 1.038068271664168e+001
 1.614314566612346e+000	 2.368932510188156e+000	 1.032813305636048e+001
 1.588292860734559e+000	 2.386457363650868e+000	 1.026894776728629e+001
 1.562109519609821e+000	 2.403677820370209e+000	 1.020434781163256e+001
 1.535769816732273e+000	 2.420591782792370e+000	 1.013538905518032e+001
 1.509279057994053e+000	 2.437197273632522e+000	 1.006294919105011e+001
 1.482642578306112e+000	 2.453492436359996e+000	 9.987716704555716e+000
 1.455865738217201e+000	 2.469475535571229e+000	 9.910181971095469e+000
 1.428953920535296e+000	 2.485144957250983e+000	 9.830630561028734e+000
 1.401912526955667e+000	 2.500499208922499e+000	 9.749138807018243e+000
 1.271496145402372e+000	 2.267884083038025e+000	 9.524529533377617e+000
 1.246861439865192e+000	 2.281520849728123e+000	 9.435086111778043e+000
 1.222119083064165e+000	 2.294869477818498e+000	 9.347362205695436e+000
 1.197274006442202e+000	 2.307928946488350e+000	 9.261135653540752e+000
 1.172331146418369e+000	 2.320698344647250e+000	 9.176245454896455e+000
 1.147295441416840e+000	 2.333176870580243e+000	 9.092613060936181e+000
 1.122171828923649e+000	 2.345363831499277e+000	 9.010261086090194e+000
 1.096965242574562e+000	 2.357258643002612e+000	 8.929329292575353e+000
 1.071680609277309e+000	 2.368860828443987e+000	 8.850087726919096e+000
 1.046322846371297e+000	 2.380170018213486e+000	 8.772946915546223e+000
 1.020896858827830e+000	 2.391185948932115e+000	 8.698465054634070e+000
 1.284537783556399e+000	 2.291145595626142e+000	 9.562744474878997e+000
 1.259650401739495e+000	 2.304922233583134e+000	 9.472666491649497e+000
 1.234654264488092e+000	 2.318407777524915e+000	 9.385694303195374e+000
 1.209554353826513e+000	 2.331601196160211e+000	 9.301329915628182e+000
 1.184355656806278e+000	 2.344501569053611e+000	 9.219155630873329e+000
 1.159063162504582e+000	 2.357108086267036e+000	 9.138857757297497e+000
 1.133681859050855e+000	 2.369420047906573e+000	 9.060247510239943e+000
 1.108216730684770e+000	 2.381436863576317e+000	 8.983278941567503e+000
 1.082672754848954e+000	 2.393158051741090e+000	 8.908063766890617e+000
 1.057054899319570e+000	 2.404583238999920e+000	 8.834882989080274e+000
 1.031368119377818e+000	 2.415712159272363e+000	 8.764195246925793e+000
 1.297579421710628e+000	 2.314407108214644e+000	 9.593137368148103e+000
 1.272439363614045e+000	 2.328323617438562e+000	 9.500397648934181e+000
 1.247189445912312e+000	 2.341946077231757e+000	 9.412501736416328e+000
 1.221834701211165e+000	 2.355273445832486e+000	 9.328608507855694e+000
 1.196380167194576e+000	 2.368304793460358e+000	 9.247978195128354e+000
 1.170830883592758e+000	 2.381039301954177e+000	 9.169998768130496e+000
 1.145191889178536e+000	 2.393476264314159e+000	 9.094209260671503e+000
 1.119468218795487e+000	 2.405615084150246e+000	 9.020319864552791e+000
 1.093664900421133e+000	 2.417455275038344e+000	 8.948228649189680e+000
 1.067786952268391e+000	 2.428996459786431e+000	 8.878034796302325e+000
 1.041839379928356e+000	 2.440238369612607e+000	 8.810048271602792e+000
 1.310621059865092e+000	 2.337668620803413e+000	 9.618721314968962e+000
 1.285228325488860e+000	 2.351725001294287e+000	 9.521488476276534e+000
 1.259724627336829e+000	 2.365484376938910e+000	 9.431183141356152e+000
 1.234115048596146e+000	 2.378945695505064e+000	 9.346553733055641e+000
 1.208404677583233e+000	 2.392108017867392e+000	 9.266473077158445e+000
 1.182598604681319e+000	 2.404970517641572e+000	 9.189967718469379e+000
 1.156701919306624e+000	 2.417532480721960e+000	 9.116243915326617e+000
 1.130719706906628e+000	 2.429793304724342e+000	 9.044710123870491e+000
 1.104657045993748e+000	 2.441752498335712e+000	 8.974995817315220e+000
 1.078519005217650e+000	 2.453409680572996e+000	 8.906966519939662e+000
 1.052310640479326e+000	 2.464764579952845e+000	 8.840734970234902e+000
 1.323662698019824e+000	 2.360930133392334e+000	 9.642301044699664e+000
 1.298017287363961e+000	 2.375126385150191e+000	 9.538958801489859e+000
 1.272259808761649e+000	 2.389022676646254e+000	 9.444967236866152e+000
 1.246395395981444e+000	 2.402617945177838e+000	 9.358596822287298e+000
 1.220429187972217e+000	 2.415911242274610e+000	 9.278267538155960e+000
 1.194366325770215e+000	 2.428901733329134e+000	 9.202581390171531e+000
 1.168211949435053e+000	 2.441588697129902e+000	 9.130351322819013e+000
 1.141971195018111e+000	 2.453971525298551e+000	 9.060626325971976e+000
 1.115649191566698e+000	 2.466049721633156e+000	 8.992712566889662e+000
 1.089251058167237e+000	 2.477822901359597e+000	 8.926190416788449e+000
 1.062781901030611e+000	 2.489290790293080e+000	 8.860927278338689e+000
 1.336704336174856e+000	 2.384191645981290e+000	 9.666212666536417e+000
 1.310806249239370e+000	 2.398527769006153e+000	 9.555617722775576e+000
 1.284794990186778e+000	 2.412560976353672e+000	 9.456892051698135e+000
 1.258675743367048e+000	 2.426290194850694e+000	 9.367998059197998e+000
 1.232453698361500e+000	 2.439714466681911e+000	 9.286837199564324e+000
 1.206134046859399e+000	 2.452832949016774e+000	 9.211523662953979e+000
 1.179721979563753e+000	 2.465644913537913e+000	 9.140416465651052e+000
 1.153222683129848e+000	 2.478149745872810e+000	 9.072147417946884e+000
 1.126641337139887e+000	 2.490346944930637e+000	 9.005644788065832e+000
 1.099983111117044e+000	 2.502236122146218e+000	 8.940152520029177e+000
 1.073253161582096e+000	 2.513817000633316e+000	 8.875244903106530e+000
 1.349745974330221e+000	 2.407453158570164e+000	 9.687654285233974e+000
 1.323595211115106e+000	 2.421929152862056e+000	 9.574042015530212e+000
 1.297330171612221e+000	 2.436099276061050e+000	 9.469784215112542e+000
 1.270956090752943e+000	 2.449962444523522e+000	 9.377826959632596e+000
 1.244478208751050e+000	 2.463517691089195e+000	 9.295487118111492e+000
 1.217901767948820e+000	 2.476764164704405e+000	 9.220327492504410e+000
 1.191232009692659e+000	 2.489701129945918e+000	 9.150192350301795e+000
 1.164474171241759e+000	 2.502327966447071e+000	 9.083238499746344e+000
 1.137633482713216e+000	 2.514644168228118e+000	 9.017961711319671e+000
 1.110715164066959e+000	 2.526649342932838e+000	 8.953218331318949e+000
 1.083724422133662e+000	 2.538343210973550e+000	 8.888241975836223e+000
 1.362787612485953e+000	 2.430714671158838e+000	 9.705843474552559e+000
 1.336384172991191e+000	 2.445330536717781e+000	 9.596342495289530e+000
 1.309865353037983e+000	 2.459637575768267e+000	 9.486238306790959e+000
 1.283236438139122e+000	 2.473634694196211e+000	 9.390942502791859e+000
 1.256502719140836e+000	 2.487320915496360e+000	 9.307332904207799e+000
 1.229669489038429e+000	 2.500695380391937e+000	 9.232356923184351e+000
 1.202742039821703e+000	 2.513757346353846e+000	 9.163282922386733e+000
 1.175725659353756e+000	 2.526506187021270e+000	 9.097734651053985e+000
 1.148625628286584e+000	 2.538941391525559e+000	 9.033720656405546e+000
 1.121447217016872e+000	 2.551062563719440e+000	 8.969658503342556e+000
 1.094195682685192e+000	 2.562869421313785e+000	 8.904393680755410e+000
 1.375829250642081e+000	 2.453976183747196e+000	 9.721667459757731e+000
 1.349173134867645e+000	 2.468731920573207e+000	 9.619353476121210e+000
 1.322400534464071e+000	 2.483175875475209e+000	 9.508596262120872e+000
 1.295516785525570e+000	 2.497306943868649e+000	 9.409973410521033e+000
 1.268527229530829e+000	 2.511124139903306e+000	 9.325281880833192e+000
 1.241437210128176e+000	 2.524626596079280e+000	 9.250789133031319e+000
 1.214252069950817e+000	 2.537813562761620e+000	 9.183126005228345e+000
 1.186977147465757e+000	 2.550684407595356e+000	 9.119324771832007e+000
 1.159617773859895e+000	 2.563238614822923e+000	 9.056851784262456e+000
 1.132179269966676e+000	 2.575475784506005e+000	 8.993634513460266e+000
 1.104666943236571e+000	 2.587395631654025e+000	 8.928082861807795e+000
 1.388870888798642e+000	 2.477237696335122e+000	 9.735886821798484e+000
 1.361962096744488e+000	 2.492133304428215e+000	 9.641986235100664e+000
 1.334935715890488e+000	 2.506714175181759e+000	 9.538863008384523e+000
 1.307797132912276e+000	 2.520979193540728e+000	 9.437298471567063e+000
 1.280551739920999e+000	 2.534927364309929e+000	 9.352014280254112e+000
 1.253204931218014e+000	 2.548557811766348e+000	 9.278596508937644e+000
 1.225762100079933e+000	 2.561869779169168e+000	 9.212976260298170e+000
 1.198228635577677e+000	 2.574862628169269e+000	 9.151535435646284e+000
 1.170609919433049e+000	 2.587535838120174e+000	 9.091142851680113e+000
 1.142911322916257e+000	 2.599889005292513e+000	 9.029184329035376e+000
 1.115138203787682e+000	 2.611921841994268e+000	 8.963586608852065e+000
 1.401912526955667e+000	 2.500499208922499e+000	 9.749138807018243e+000
 1.374751058621742e+000	 2.515534688282687e+000	 9.665030862852204e+000
 1.347470897317242e+000	 2.530252474887798e+000	 9.574065330897421e+000
 1.320077480299228e+000	 2.544651443212335e+000	 9.475026907878672e+000
 1.292576250311315e+000	 2.558730588716131e+000	 9.389964476108425e+000
 1.264972652307893e+000	 2.572489027453052e+000	 9.318528750043395e+000
 1.237272130208985e+000	 2.585925995576417e+000	 9.255888168109028e+000
 1.209480123689432e+000	 2.599040848742956e+000	 9.197714754938916e+000
 1.181602065005947e+000	 2.611833061417271e+000	 9.140223968545456e+000
 1.153643375865509e+000	 2.624302226078948e+000	 9.080208064985081e+000
 1.125609464338406e+000	 2.636448052334516e+000	 9.015062824612157e+000
 1.020896858827830e+000	 2.391185948932115e+000	 8.698465054634067e+000
 9.954037084134922e-001	 2.401910049395445e+000	 8.627179367366317e+000
 9.698520796365818e-001	 2.412340592915415e+000	 8.558409081932901e+000
 9.442468273696871e-001	 2.422477631056948e+000	 8.491023086464633e+000
 9.185927833090086e-001	 2.432321317635802e+000	 8.424064435335147e+000
 8.928947534162472e-001	 2.441871907512629e+000	 8.356734940263728e+000
 8.671575154167848e-001	 2.451129755315018e+000	 8.288387365626004e+000
 8.413858163563172e-001	 2.460095314090222e+000	 8.218514829320366e+000
 8.155843702179730e-001	 2.468769133891297e+000	 8.146737544906856e+000
 7.897578556018055e-001	 2.477151860299458e+000	 8.072787060987176e+000
 7.639109134684246e-001	 2.485244232885506e+000	 7.996488172285011e+000
 1.031368119377818e+000	 2.415712159272363e+000	 8.764195246925791e+000
 1.005613487680730e+000	 2.426546256009036e+000	 8.696418166314395e+000
 9.797997778129446e-001	 2.437083784811378e+000	 8.630779527852662e+000
 9.539318944431131e-001	 2.447324797773199e+000	 8.566146844466104e+000
 9.280147188257832e-001	 2.457269450287939e+000	 8.501593666707572e+000
 9.020531062170464e-001	 2.466917999830329e+000	 8.436385067736477e+000
 8.760518833470565e-001	 2.476270804665347e+000	 8.369969376709591e+000
 8.500158459516015e-001	 2.485328322487115e+000	 8.301966857590697e+000
 8.239497563647825e-001	 2.494091108990538e+000	 8.232155478135207e+000
 7.978583411747033e-001	 2.502559816378509e+000	 8.160453935624283e+000
 7.717462889439609e-001	 2.510735191807548e+000	 8.086902125877302e+000
 1.041839379928356e+000	 2.440238369612607e+000	 8.810048271602792e+000
 1.015823266948505e+000	 2.451182462622546e+000	 8.744550219167978e+000
 9.897474759898183e-001	 2.461826976707175e+000	 8.680668259279727e+000
 9.636169615170176e-001	 2.472171964489210e+000	 8.617338016387368e+000
 9.374366543429985e-001	 2.482217582939756e+000	 8.553688874489231e+000
 9.112114590182464e-001	 2.491964092147640e+000	 8.489087676409636e+000
 8.849462512776901e-001	 2.501411854015220e+000	 8.423118469630929e+000
 8.586458755472136e-001	 2.510561330883490e+000	 8.355570402473846e+000
 8.323151425118932e-001	 2.519413084089206e+000	 8.286422445526243e+000
 8.059588267478876e-001	 2.527967772456936e+000	 8.215825116043511e+000
 7.795816644197812e-001	 2.536226150728920e+000	 8.144079404532114e+000
 1.052310640479326e+000	 2.464764579952845e+000	 8.840734970234902e+000
 1.026033046216697e+000	 2.475818669235988e+000	 8.776393175421353e+000
 9.996951741670866e-001	 2.486570168602849e+000	 8.713019389392180e+000
 9.733020285912878e-001	 2.497019131205037e+000	 8.649613035165977e+000
 9.468585898605497e-001	 2.507165715591338e+000	 8.585407682819930e+000
 9.203698118197518e-001	 2.517010184464658e+000	 8.519909457253609e+000
 8.938406192086009e-001	 2.526552903364751e+000	 8.452877436275015e+000
 8.672759051430792e-001	 2.535794339279474e+000	 8.384310704266047e+000
 8.406805286592414e-001	 2.544735059187440e+000	 8.314431951581806e+000
 8.140593123213016e-001	 2.553375728534891e+000	 8.243667809113957e+000
 7.874170398958366e-001	 2.561717109649789e+000	 8.172626130551690e+000
 1.062781901030611e+000	 2.489290790293080e+000	 8.860927278338687e+000
 1.036242825485187e+000	 2.500454875849389e+000	 8.796774876997077e+000
 1.009642872344632e+000	 2.511313360498442e+000	 8.732762118367269e+000
 9.829870956658127e-001	 2.521866297920743e+000	 8.667984811042533e+000
 9.562805253783326e-001	 2.532113848242760e+000	 8.601815163829336e+000
 9.295281646214676e-001	 2.542056276781484e+000	 8.533935093123599e+000
 9.027349871397041e-001	 2.551693952714053e+000	 8.464317174307539e+000
 8.759059347391248e-001	 2.561027347675200e+000	 8.393210793733768e+000
 8.490459148067625e-001	 2.570057034285387e+000	 8.321124551567610e+000
 8.221597978948902e-001	 2.578783684612534e+000	 8.248805117190685e+000
 7.952524153720766e-001	 2.587208068570322e+000	 8.177212763686717e+000
 1.073253161582096e+000	 2.513817000633316e+000	 8.875244903106530e+000
 1.046452604753855e+000	 2.525091082462769e+000	 8.810471367977879e+000
 1.019590570522337e+000	 2.536056552393992e+000	 8.744810537256189e+000
 9.926721627404802e-001	 2.546713464636390e+000	 8.677452218821431e+000
 9.657024608962430e-001	 2.557061980894104e+000	 8.607974191347942e+000
 9.386865174232998e-001	 2.567102369098211e+000	 8.536258439685176e+000
 9.116293550709157e-001	 2.576835002063240e+000	 8.462528653713983e+000
 8.845359643352759e-001	 2.586260356070796e+000	 8.387324200410413e+000
 8.574113009543926e-001	 2.595379009383189e+000	 8.311481255560855e+000
 8.302602834685973e-001	 2.604191640690019e+000	 8.236110089863448e+000
 8.030877908484519e-001	 2.612699027490689e+000	 8.162568750603406e+000
 1.083724422133662e+000	 2.538343210973550e+000	 8.888241975836223e+000
 1.056662384022583e+000	 2.549727289076148e+000	 8.822207231478336e+000
 1.029538268700084e+000	 2.560799744289542e+000	 8.754006012742675e+000
 1.002357229815178e+000	 2.571560631352037e+000	 8.682989517268403e+000
 9.751243964141759e-001	 2.582010113545447e+000	 8.608935715046059e+000
 9.478448702251523e-001	 2.592148461414938e+000	 8.531973616437057e+000
 9.205237230021517e-001	 2.601976051412428e+000	 8.452614784571777e+000
 8.931659939314588e-001	 2.611493364466391e+000	 8.371727554803872e+000
 8.657766871020670e-001	 2.620700984480991e+000	 8.290516820708062e+000
 8.383607690423666e-001	 2.629599596767504e+000	 8.210499659914776e+000
 8.109231663249131e-001	 2.638189986411055e+000	 8.133477056336213e+000
 1.094195682685192e+000	 2.562869421313785e+000	 8.904393680755410e+000
 1.066872163291252e+000	 2.574363495689550e+000	 8.836643157778045e+000
 1.039485966877756e+000	 2.585542936185134e+000	 8.765176852583885e+000
 1.012042296889793e+000	 2.596407798067743e+000	 8.689547981400390e+000
 9.845463319320281e-001	 2.606958246196869e+000	 8.609728960330436e+000
 9.570032230269311e-001	 2.617194553731764e+000	 8.526166013856548e+000
 9.294180909333266e-001	 2.627117100761730e+000	 8.439682192671631e+000
 9.017960235275994e-001	 2.636726372862116e+000	 8.351513091620507e+000
 8.741420732497224e-001	 2.646022959578937e+000	 8.263272939181487e+000
 8.464612546161431e-001	 2.655007552845147e+000	 8.176928471244574e+000
 8.187585418014102e-001	 2.663680945331589e+000	 8.094768585628898e+000
 1.104666943236571e+000	 2.587395631654025e+000	 8.928082861807795e+000
 1.077081942559741e+000	 2.598999702302993e+000	 8.858363477060415e+000
 1.049433665055237e+000	 2.610286128080809e+000	 8.783077920161876e+000
 1.021727363964215e+000	 2.621254964783572e+000	 8.701994701352902e+000
 9.939682674496946e-001	 2.631906378848449e+000	 8.615351558926168e+000
 9.661615758285410e-001	 2.642240646048783e+000	 8.523903222230597e+000
 9.383124588643566e-001	 2.652258150111261e+000	 8.428832909101219e+000
 9.104260531236239e-001	 2.661959381258101e+000	 8.331781060574272e+000
 8.825074593972937e-001	 2.671344934677172e+000	 8.235593986823217e+000
 8.545617401898706e-001	 2.680415508923102e+000	 8.147201870763471e+000
 8.265939172778936e-001	 2.689171904252459e+000	 8.069450238660085e+000
 1.115138203787682e+000	 2.611921841994268e+000	 8.963586608852065e+000
 1.087291721827933e+000	 2.623635908916500e+000	 8.891863659083768e+000
 1.059381363232407e+000	 2.635029319976607e+000	 8.812391571277495e+000
 1.031412431038331e+000	 2.646102131499581e+000	 8.725179744267557e+000
 1.003390202967071e+000	 2.656854511500269e+000	 8.630759614698814e+000
 9.753199286298875e-001	 2.667286738366094e+000	 8.530237612435064e+000
 9.472068267951570e-001	 2.677399199461134e+000	 8.429152912988140e+000
 9.190560827194581e-001	 2.687192389654475e+000	 8.332560622802600e+000
 8.908728455447177e-001	 2.696666909775838e+000	 8.242472511565570e+000
 8.626622257634934e-001	 2.705823465001528e+000	 8.161020277857148e+000
 8.344292927543136e-001	 2.714662863173831e+000	 8.090422291260060e+000
 1.125609464338406e+000	 2.636448052334516e+000	 9.015062824612157e+000
 1.097501501095708e+000	 2.648272115530094e+000	 8.941537781939401e+000
 1.069329061409152e+000	 2.659772511872570e+000	 8.857715998076575e+000
 1.041097498112029e+000	 2.670949298215834e+000	 8.764429676302591e+000
 1.012812138484054e+000	 2.681802644152406e+000	 8.668212897894673e+000
 9.844782814308756e-001	 2.692332830683795e+000	 8.572044897511388e+000
 9.561011947256434e-001	 2.702540248811463e+000	 8.477778601767096e+000
 9.276861123150287e-001	 2.712425398051370e+000	 8.387428190668977e+000
 8.992382316919299e-001	 2.721988884875082e+000	 8.303180676044068e+000
 8.707627113369557e-001	 2.731231421080581e+000	 8.227347545646651e+000
 8.422646682306209e-001	 2.740153822095873e+000	 8.162331492284178e+000
 7.639109134684246e-001	 2.485244232885506e+000	 7.996488172285011e+000
 7.380481445792873e-001	 2.493047082992633e+000	 7.919462461248891e+000
 7.121741063034351e-001	 2.500561330227558e+000	 7.843622059738895e+000
 6.862933117354158e-001	 2.507787982628420e+000	 7.769305809551638e+000
 6.604102280884719e-001	 2.514728135537550e+000	 7.697185838716841e+000
 6.345292747799891e-001	 2.521382969806464e+000	 7.633828556510309e+000
 6.086548215885876e-001	 2.527753749957560e+000	 7.578154961108295e+000
 5.827911868836837e-001	 2.533841822305531e+000	 7.525865965268328e+000
 5.569426359281889e-001	 2.539648613041487e+000	 7.473108859712973e+000
 5.311133792549045e-001	 2.545175626282792e+000	 7.416409545875130e+000
 5.053075711170252e-001	 2.550424442091569e+000	 7.352594085755573e+000
 7.717462889439609e-001	 2.510735191807548e+000	 8.086902125877302e+000
 7.456182476236747e-001	 2.518618075147866e+000	 8.013283654722128e+000
 7.194788213274721e-001	 2.526209395438530e+000	 7.940948131504213e+000
 6.933325694403610e-001	 2.533510171057051e+000	 7.869401799126409e+000
 6.671840049954467e-001	 2.540521508580615e+000	 7.798181210189496e+000
 6.410375927397366e-001	 2.547244600972647e+000	 7.732028173341779e+000
 6.148977472723330e-001	 2.553680725725666e+000	 7.673139339252556e+000
 5.887688312558336e-001	 2.559831242963417e+000	 7.617019819786885e+000
 5.626551537016219e-001	 2.565697593505348e+000	 7.559734757491728e+000
 5.365609683296085e-001	 2.571281296896449e+000	 7.497832193767031e+000
 5.104904720028426e-001	 2.576583949405427e+000	 7.428252299354909e+000
 7.795816644197812e-001	 2.536226150728920e+000	 8.144079404532114e+000
 7.531883506683610e-001	 2.544189067302395e+000	 8.073081624648493e+000
 7.267835363518351e-001	 2.551857460648768e+000	 8.003636033714979e+000
 7.003718271456701e-001	 2.559232359484935e+000	 7.934563803133104e+000
 6.739577819028289e-001	 2.566314881622927e+000	 7.864742526212751e+000
 6.475459106999378e-001	 2.573106232138085e+000	 7.796291508770499e+000
 6.211406729565770e-001	 2.579607701493042e+000	 7.734779195931418e+000
 5.947464756285226e-001	 2.585820663620601e+000	 7.676270183371940e+000
 5.683676714756264e-001	 2.591746573968552e+000	 7.617000964279592e+000
 5.420085574049056e-001	 2.597386967509507e+000	 7.553802909711285e+000
 5.156733728892596e-001	 2.602743456718761e+000	 7.483997957060639e+000
 7.874170398958366e-001	 2.561717109649789e+000	 8.172626130551690e+000
 7.607584537132996e-001	 2.569760059456394e+000	 8.103283026109923e+000
 7.340882513764792e-001	 2.577505525858459e+000	 8.035929128028982e+000
 7.074110848512967e-001	 2.584954547912258e+000	 7.968845286874762e+000
 6.807315588105692e-001	 2.592108254664673e+000	 7.900395967183311e+000
 6.540542286605395e-001	 2.598967863302959e+000	 7.830526236079159e+000
 6.273835986412626e-001	 2.605534677259868e+000	 7.766773919238342e+000
 6.007241200016900e-001	 2.611810084277257e+000	 7.707026833749302e+000
 5.740801892501388e-001	 2.617795554431263e+000	 7.647950686023593e+000
 5.474561464807296e-001	 2.623492638122117e+000	 7.586926369569256e+000
 5.208562737762096e-001	 2.628902964031701e+000	 7.521930838842499e+000
 7.952524153720766e-001	 2.587208068570322e+000	 8.177212763686717e+000
 7.683285567584446e-001	 2.595331051610042e+000	 8.108386258141408e+000
 7.413929664013587e-001	 2.603153591067784e+000	 8.042148340927112e+000
 7.144503425571936e-001	 2.610676736339205e+000	 7.976381658120682e+000
 6.875053357186185e-001	 2.617901627706041e+000	 7.909080886832704e+000
 6.605625466214891e-001	 2.624829494467459e+000	 7.838706757373423e+000
 6.336265243263339e-001	 2.631461653026329e+000	 7.772921672334628e+000
 6.067017643752756e-001	 2.637799504933566e+000	 7.712824935258862e+000
 5.797927070250956e-001	 2.643844534893646e+000	 7.655774050609499e+000
 5.529037355570147e-001	 2.649598308734429e+000	 7.599971009727681e+000
 5.260391746636258e-001	 2.655062471344380e+000	 7.544327025930251e+000
 8.030877908484519e-001	 2.612699027490689e+000	 8.162568750603406e+000
 7.758986598037487e-001	 2.620902043763512e+000	 8.092956690799658e+000
 7.486976814264280e-001	 2.628801656276926e+000	 8.026687974398794e+000
 7.214896002633148e-001	 2.636398924765965e+000	 7.961386660074969e+000
 6.942791126269278e-001	 2.643695000747221e+000	 7.894818628503557e+000
 6.670708645827346e-001	 2.650691125631772e+000	 7.824857441237197e+000
 6.398694500117338e-001	 2.657388628792607e+000	 7.757106126672810e+000
 6.126794087492191e-001	 2.663788925589697e+000	 7.697313613046511e+000
 5.855052248004329e-001	 2.669893515355862e+000	 7.643946006861289e+000
 5.583513246336950e-001	 2.675703979346590e+000	 7.596574593746787e+000
 5.312220755514417e-001	 2.681221978656927e+000	 7.554058519763180e+000
 8.109231663249131e-001	 2.638189986411055e+000	 8.133477056336213e+000
 7.834687628491668e-001	 2.646473035916982e+000	 8.061621771998581e+000
 7.560023964516420e-001	 2.654449721486068e+000	 7.994011392646055e+000
 7.285288579696134e-001	 2.662121113192726e+000	 7.928148635482089e+000
 7.010528895354480e-001	 2.669488373788401e+000	 7.861940717446161e+000
 6.735791825442229e-001	 2.676552756796084e+000	 7.795139689968651e+000
 6.461123756974063e-001	 2.683315604558885e+000	 7.729908944627192e+000
 6.186570531234603e-001	 2.689778346245830e+000	 7.675033678925194e+000
 5.912177425760872e-001	 2.695942495818081e+000	 7.628935155839714e+000
 5.637989137107048e-001	 2.701809649958750e+000	 7.590335167239424e+000
 5.364049764395906e-001	 2.707381485969473e+000	 7.558606652351795e+000
 8.187585418014102e-001	 2.663680945331589e+000	 8.094768585628898e+000
 7.910388658946517e-001	 2.672044028070630e+000	 8.020069436340437e+000
 7.633071114769552e-001	 2.680097786695394e+000	 7.954738841500770e+000
 7.355681156760432e-001	 2.687843301619675e+000	 7.895484158921024e+000
 7.078266664441298e-001	 2.695281746829769e+000	 7.838688796904495e+000
 6.800875005059015e-001	 2.702414387960583e+000	 7.780725419769430e+000
 6.523553013832943e-001	 2.709242580325347e+000	 7.720417628500544e+000
 6.246346974979384e-001	 2.715767766902138e+000	 7.668654669732591e+000
 5.969302603519949e-001	 2.721991476280463e+000	 7.626157968994725e+000
 5.692465027879776e-001	 2.727915320571062e+000	 7.592383545435680e+000
 5.415878773280060e-001	 2.733540993282150e+000	 7.567443170823236e+000
 8.265939172778936e-001	 2.689171904252459e+000	 8.069450238660085e+000
 7.986089689401570e-001	 2.697615020224629e+000	 8.003690310078891e+000
 7.706118265023213e-001	 2.705745851905084e+000	 7.947267414913752e+000
 7.426073733825570e-001	 2.713565490046998e+000	 7.896273555264091e+000
 7.146004433529242e-001	 2.721075119871516e+000	 7.846819963168246e+000
 6.865958184677182e-001	 2.728276019125458e+000	 7.795024171846295e+000
 6.585982270693417e-001	 2.735169556092171e+000	 7.737821762981321e+000
 6.306123418725933e-001	 2.741757187558795e+000	 7.686009256141025e+000
 6.026427781280923e-001	 2.748040456743174e+000	 7.643761895721801e+000
 5.746940918654483e-001	 2.754020991183672e+000	 7.611329377065681e+000
 5.467707782166210e-001	 2.759700500595091e+000	 7.589615671654318e+000
 8.344292927543136e-001	 2.714662863173831e+000	 8.090422291260060e+000
 8.061790719856368e-001	 2.723186012379158e+000	 8.031794112328525e+000
 7.779165415276961e-001	 2.731393917115324e+000	 7.981974791968455e+000
 7.496466310891087e-001	 2.739287678474881e+000	 7.936847227991357e+000
 7.213742202617822e-001	 2.746868492913827e+000	 7.892327786853960e+000
 6.931041364296195e-001	 2.754137650290895e+000	 7.844354947046408e+000
 6.648411527554921e-001	 2.761096531859548e+000	 7.788924235489500e+000
 6.365899862473645e-001	 2.767746608215981e+000	 7.734379357207359e+000
 6.083552959043156e-001	 2.774089437206378e+000	 7.689505285789953e+000
 5.801416809430503e-001	 2.780126661796731e+000	 7.655396038184009e+000
 5.519536791053694e-001	 2.785860007908426e+000	 7.633791963061331e+000
 8.422646682306209e-001	 2.740153822095873e+000	 8.162331492284178e+000
 8.137491750310451e-001	 2.748757004534392e+000	 8.109031577612951e+000
 7.852212565530335e-001	 2.757041982326296e+000	 8.063849493262298e+000
 7.566858887956517e-001	 2.765009866903513e+000	 8.022533497061373e+000
 7.281479971706545e-001	 2.772661865956894e+000	 7.980878236398566e+000
 6.996124543915537e-001	 2.779999281457080e+000	 7.934714968740836e+000
 6.710840784416888e-001	 2.787023507627656e+000	 7.879903546727420e+000
 6.425676306221921e-001	 2.793736028873866e+000	 7.820671644148705e+000
 6.140678136806015e-001	 2.800138417670239e+000	 7.770768961808652e+000
 5.855892700207185e-001	 2.806232332410390e+000	 7.732431001392954e+000
 5.571365799941844e-001	 2.812019515222284e+000	 7.708269320057912e+000
 5.053075711170252e-001	 2.550424442091569e+000	 7.352594085755575e+000
 4.795331713038518e-001	 2.555395989676932e+000	 7.282924585433337e+000
 4.537903379149101e-001	 2.560092804066504e+000	 7.210895336423395e+000
 4.280830402778995e-001	 2.564516682315065e+000	 7.136812391981811e+000
 4.024151861583359e-001	 2.568669489165139e+000	 7.060798079521399e+000
 3.767906205842483e-001	 2.572553154955150e+000	 6.982680476211894e+000
 3.512131247447570e-001	 2.576169673513515e+000	 6.901882204534111e+000
 3.256864149621464e-001	 2.579521100041420e+000	 6.817310026081055e+000
 3.002141417369439e-001	 2.582609548986935e+000	 6.727246642868574e+000
 2.747998888654178e-001	 2.585437191913076e+000	 6.629246038188587e+000
 2.494471726288109e-001	 2.588006255362403e+000	 6.520033604609070e+000
 5.104904720028426e-001	 2.576583949405427e+000	 7.428252299354913e+000
 4.844517061535697e-001	 2.581606489772226e+000	 7.351812011410861e+000
 4.584448305029271e-001	 2.586351479026043e+000	 7.271493788555707e+000
 4.324738550916998e-001	 2.590820732653894e+000	 7.187712825717918e+000
 4.065427277670505e-001	 2.595016134524813e+000	 7.100730993610103e+000
 3.806553329951620e-001	 2.598939634776541e+000	 7.010532377267648e+000
 3.548154907485173e-001	 2.602593247688028e+000	 6.916698101972759e+000
 3.290269554674292e-001	 2.605979049540489e+000	 6.818282040951061e+000
 3.032934150953255e-001	 2.609099176469709e+000	 6.713688925093846e+000
 2.776184901871935e-001	 2.611955822312247e+000	 6.600556292073293e+000
 2.520057330904998e-001	 2.614551236448129e+000	 6.475641621629189e+000
 5.156733728892596e-001	 2.602743456718761e+000	 7.483997957060641e+000
 4.893702410038773e-001	 2.607816989867086e+000	 7.408088936591907e+000
 4.630993230915094e-001	 2.612610153985245e+000	 7.328608735879655e+000
 4.368646699060313e-001	 2.617124782992494e+000	 7.246250381954026e+000
 4.106702693762570e-001	 2.621362779884366e+000	 7.161587105421706e+000
 3.845200454065259e-001	 2.625326114597916e+000	 7.074932793501620e+000
 3.584178567526882e-001	 2.629016821862626e+000	 6.986201699166740e+000
 3.323674959730891e-001	 2.632436999039726e+000	 6.894769123724614e+000
 3.063726884540602e-001	 2.635588803952722e+000	 6.799334710653689e+000
 2.804370915093123e-001	 2.638474452711707e+000	 6.697789899639718e+000
 2.545642935525384e-001	 2.641096217534166e+000	 6.587090992671876e+000
 5.208562737762096e-001	 2.628902964031701e+000	 7.521930838842499e+000
 4.942887758547083e-001	 2.634027489961617e+000	 7.453292527908372e+000
 4.677538156805939e-001	 2.638868828944195e+000	 7.383168222798818e+000
 4.412554847208345e-001	 2.643428833330921e+000	 7.312707840429233e+000
 4.147978109858984e-001	 2.647709425243826e+000	 7.242978487952656e+000
 3.883847578182862e-001	 2.651712594419278e+000	 7.174808624217613e+000
 3.620202227572178e-001	 2.655440396037277e+000	 7.108631447253993e+000
 3.357080364790744e-001	 2.658894948539081e+000	 7.044329355221148e+000
 3.094519618130944e-001	 2.662078431435897e+000	 6.981081243039215e+000
 2.832556928317151e-001	 2.664993083111359e+000	 6.917214301740818e+000
 2.571228540148598e-001	 2.667641198620404e+000	 6.849914116602021e+000
 5.260391746636258e-001	 2.655062471344380e+000	 7.544327025930246e+000
 4.992073107059976e-001	 2.660237990055931e+000	 7.489144816281114e+000
 4.724083082701174e-001	 2.665127503902977e+000	 7.436289993177469e+000
 4.456462995360493e-001	 2.669732883669232e+000	 7.387292712680228e+000
 4.189253525959185e-001	 2.674056070603222e+000	 7.342438305355659e+000
 3.922494702303895e-001	 2.678099074240624e+000	 7.301900874177273e+000
 3.656225887620544e-001	 2.681863970211957e+000	 7.265498964150197e+000
 3.390485769853334e-001	 2.685352898038498e+000	 7.232531042150087e+000
 3.125312351723739e-001	 2.688568058919160e+000	 7.201661765253386e+000
 2.860742941543431e-001	 2.691511713511108e+000	 7.170814481858789e+000
 2.596814144773962e-001	 2.694186179706736e+000	 7.137069225912750e+000
 5.312220755514417e-001	 2.681221978656927e+000	 7.554058519763171e+000
 5.041258455576798e-001	 2.686448490150135e+000	 7.515198130904626e+000
 4.770628008600173e-001	 2.691386178861675e+000	 7.479840911561881e+000
 4.500371143516162e-001	 2.696036934007483e+000	 7.448648765869459e+000
 4.230528942062610e-001	 2.700402715962583e+000	 7.422174797056988e+000
 3.961141826427819e-001	 2.704485554061952e+000	 7.400730367403862e+000
 3.692249547671461e-001	 2.708287544386637e+000	 7.384260926196029e+000
 3.423891174918139e-001	 2.711810847537923e+000	 7.372229709168073e+000
 3.156105085318450e-001	 2.715057686402431e+000	 7.363508432797746e+000
 2.888928954771373e-001	 2.718030343910859e+000	 7.356274134959142e+000
 2.622399749400806e-001	 2.720731160793047e+000	 7.347911349016496e+000
 5.364049764395906e-001	 2.707381485969473e+000	 7.558606652351790e+000
 5.090443804096894e-001	 2.712658990244341e+000	 7.531918023909791e+000
 4.817172934502302e-001	 2.717644853820372e+000	 7.509021658561777e+000
 4.544279291674749e-001	 2.722340984345732e+000	 7.490579324193102e+000
 4.271804358168690e-001	 2.726749361321935e+000	 7.477167349080132e+000
 3.999788950554100e-001	 2.730872033883267e+000	 7.469148635192353e+000
 3.728273207724410e-001	 2.734711118561288e+000	 7.466553599621610e+000
 3.457296579984646e-001	 2.738268797037303e+000	 7.468969056629192e+000
 3.186897818914537e-001	 2.741547313885638e+000	 7.475434076446858e+000
 2.917114968000386e-001	 2.744548974310515e+000	 7.484341889403804e+000
 2.647985354028455e-001	 2.747276141879232e+000	 7.493346944290377e+000
 5.415878773280060e-001	 2.733540993282150e+000	 7.567443170823243e+000
 5.139629152619605e-001	 2.738869490338653e+000	 7.548801878433292e+000
 4.863717860406932e-001	 2.743903528779152e+000	 7.533975479021364e+000
 4.588187439835659e-001	 2.748645034684032e+000	 7.523579099353905e+000
 4.313079774276863e-001	 2.753096006681306e+000	 7.518164087995268e+000
 4.038436074682200e-001	 2.757258513704563e+000	 7.518095778266782e+000
 3.764296867778873e-001	 2.761134692735884e+000	 7.523440341338255e+000
 3.490701985052336e-001	 2.764726746536586e+000	 7.533859644946615e+000
 3.217690552511462e-001	 2.768036941368701e+000	 7.548513060888242e+000
 2.945300981229885e-001	 2.771067604709984e+000	 7.565965201458956e+000
 2.673570958656237e-001	 2.773821122965178e+000	 7.584098610429030e+000
 5.467707782166210e-001	 2.759700500595091e+000	 7.589615671654312e+000
 5.188814501144281e-001	 2.765079990433186e+000	 7.575303562518916e+000
 4.910262786313433e-001	 2.770162203738096e+000	 7.564525106893693e+000
 4.632095587998294e-001	 2.774949085022442e+000	 7.557795164505244e+000
 4.354355190386564e-001	 2.779442652040724e+000	 7.555584570590661e+000
 4.077083198811582e-001	 2.783644993525842e+000	 7.558204492781325e+000
 3.800320527834329e-001	 2.787558266910395e+000	 7.565700042014295e+000
 3.524107390120691e-001	 2.791184696035718e+000	 7.577751949687443e+000
 3.248483286108681e-001	 2.794526568851548e+000	 7.593585155217447e+000
 2.973486994459276e-001	 2.797586235109168e+000	 7.611883190058052e+000
 2.699156563283478e-001	 2.800366104050777e+000	 7.630707295069705e+000
 5.519536791053694e-001	 2.785860007908426e+000	 7.633791963061336e+000
 5.237999849670263e-001	 2.791290490528044e+000	 7.620507055780480e+000
 4.956807712221172e-001	 2.796420878697292e+000	 7.610136378520570e+000
 4.676003736162054e-001	 2.801253135361017e+000	 7.603033478810979e+000
 4.395630606497227e-001	 2.805789297400218e+000	 7.599525506289137e+000
 4.115730322941712e-001	 2.810031473347105e+000	 7.599805057318224e+000
 3.836344187890263e-001	 2.813981841084797e+000	 7.603831439423320e+000
 3.557512795189195e-001	 2.817642645534645e+000	 7.611240057933482e+000
 3.279276019705660e-001	 2.821016196334098e+000	 7.621258663728389e+000
 3.001673007687973e-001	 2.824104865507972e+000	 7.632629248083751e+000
 2.724742167909505e-001	 2.826911085135918e+000	 7.643534427177663e+000
 5.571365799941844e-001	 2.812019515222284e+000	 7.708269320057914e+000
 5.287185198196899e-001	 2.817500990623336e+000	 7.693134674288474e+000
 5.003352638129522e-001	 2.822679553656823e+000	 7.679925508934991e+000
 4.719911884326343e-001	 2.827557185699815e+000	 7.668765292399595e+000
 4.436906022608289e-001	 2.832135942759817e+000	 7.659766363414787e+000
 4.154377447072054e-001	 2.836417953168350e+000	 7.652930208350062e+000
 3.872367847946154e-001	 2.840405415259060e+000	 7.648057326030185e+000
 3.590918200257328e-001	 2.844100595033315e+000	 7.644665265797960e+000
 3.310068753301859e-001	 2.847505823816278e+000	 7.641913465921129e+000
 3.029859020915387e-001	 2.850623495906301e+000	 7.638533572057648e+000
 2.750327772533645e-001	 2.853456066220490e+000	 7.632763978155568e+000
 2.494471726288109e-001	 2.588006255362403e+000	 6.520033604609088e+000
 2.241556613584017e-001	 2.590319346644739e+000	 6.402971815906209e+000
 1.989325871316730e-001	 2.592378392617929e+000	 6.285536658440308e+000
 1.737813118221737e-001	 2.594185773617187e+000	 6.168957607209751e+000
 1.487051256341053e-001	 2.595743916486776e+000	 6.053155661406493e+000
 1.237072466452772e-001	 2.597055292441033e+000	 5.936675297704817e+000
 9.879082041758520e-002	 2.598122414936711e+000	 5.816627128619847e+000
 7.395891967371894e-002	 2.598947837558706e+000	 5.688641805374993e+000
 4.921454403874771e-002	 2.599534151921171e+000	 5.546835596523765e+000
 2.456061984517455e-002	 2.599883985585925e+000	 5.383787966627782e+000
 0.000000000000000e+000	 2.600000000000000e+000	 5.190531340217236e+000
 2.520057330904998e-001	 2.614551236448129e+000	 6.475641621629189e+000
 2.264548087346185e-001	 2.616888052930142e+000	 6.342107550204742e+000
 2.009730233758899e-001	 2.618968218379761e+000	 6.207572217865888e+000
 1.755637733703358e-001	 2.620794137547127e+000	 6.073680810122578e+000
 1.502303826695238e-001	 2.622368262168459e+000	 5.940659685971887e+000
 1.249761023588345e-001	 2.623693088805149e+000	 5.807237782466577e+000
 9.980411026394495e-002	 2.624771156694291e+000	 5.670579619934383e+000
 7.471751062422004e-002	 2.625605045612707e+000	 5.526230495429750e+000
 4.971933383164757e-002	 2.626197373756539e+000	 5.368074335874922e+000
 2.481253623389310e-002	 2.626550795638312e+000	 5.188304567568807e+000
 0.000000000000000e+000	 2.626668000003317e+000	 4.977408211135098e+000
 2.545642935525384e-001	 2.641096217534166e+000	 6.587090992671865e+000
 2.287539561112106e-001	 2.643456759215849e+000	 6.470321355904408e+000
 2.030134596205190e-001	 2.645558044141875e+000	 6.355223836578965e+000
 1.773462349189486e-001	 2.647402501477304e+000	 6.243826988798067e+000
 1.517556397054239e-001	 2.648992607850319e+000	 6.136625719988142e+000
 1.262449580728874e-001	 2.650330885169381e+000	 6.032491470274880e+000
 1.008174001107885e-001	 2.651419898451923e+000	 5.928594931905646e+000
 7.547610157515808e-002	 2.652262253666700e+000	 5.820341947519801e+000
 5.022412362489390e-002	 2.652860595591853e+000	 5.701323101600593e+000
 2.506445262281531e-002	 2.653217605690610e+000	 5.563277396394562e+000
 0.000000000000000e+000	 2.653336000006534e+000	 5.396070247074182e+000
 2.571228540148598e-001	 2.667641198620404e+000	 6.849914116602021e+000
 2.310531034880990e-001	 2.670025465501747e+000	 6.780600081540501e+000
 2.050538958654674e-001	 2.672147869904146e+000	 6.716447124207793e+000
 1.791286964679063e-001	 2.674010865407590e+000	 6.659758526435962e+000
 1.532808967416893e-001	 2.675616953532236e+000	 6.611389740251469e+000
 1.275138137873145e-001	 2.676968681533610e+000	 6.570652959746041e+000
 1.018306899579960e-001	 2.678068640209494e+000	 6.535224726369489e+000
 7.623469252642436e-002	 2.678919461720579e+000	 6.501056206432448e+000
 5.072891341840023e-002	 2.679523817427006e+000	 6.462285831254865e+000
 2.531636901189029e-002	 2.679884415742719e+000	 6.411154042287116e+000
 0.000000000000000e+000	 2.680004000009550e+000	 6.337919900621911e+000
 2.596814144773962e-001	 2.694186179706736e+000	 7.137069225912733e+000
 2.333522508652044e-001	 2.696594171787714e+000	 7.103205849157495e+000
 2.070943321106424e-001	 2.698737695666449e+000	 7.076999273650540e+000
 1.809111580171030e-001	 2.700619229337862e+000	 7.061328311802764e+000
 1.548061537782043e-001	 2.702241299214085e+000	 7.057679894811539e+000
 1.287826695019944e-001	 2.703606477897716e+000	 7.066055371160313e+000
 1.028439798054480e-001	 2.704717381966887e+000	 7.084879405213187e+000
 7.699328347791012e-002	 2.705576669774231e+000	 7.110911082686293e+000
 5.123370321208013e-002	 2.706187039261895e+000	 7.139156887023058e+000
 2.556828540106713e-002	 2.706551225794539e+000	 7.162785268202775e+000
 0.000000000000000e+000	 2.706672000012267e+000	 7.173042551247666e+000
 2.622399749400806e-001	 2.720731160793047e+000	 7.347911349016496e+000
 2.356513982424475e-001	 2.723162878073631e+000	 7.341225582035848e+000
 2.091347683559512e-001	 2.725327521428659e+000	 7.344011060349956e+000
 1.826936195664328e-001	 2.727227593267995e+000	 7.359540319842225e+000
 1.563314108148525e-001	 2.728865644895743e+000	 7.389758080201569e+000
 1.300515252168056e-001	 2.730244274261579e+000	 7.435189964233711e+000
 1.038572696530246e-001	 2.731366123723988e+000	 7.494853333695939e+000
 7.775187442950676e-002	 2.732233877827549e+000	 7.566169814080118e+000
 5.173849300584709e-002	 2.732850261096416e+000	 7.644879144031568e+000
 2.582020179029493e-002	 2.733218035845966e+000	 7.724954048539824e+000
 0.000000000000000e+000	 2.733340000014584e+000	 7.798515869752472e+000
 2.647985354028455e-001	 2.747276141879232e+000	 7.493346944290403e+000
 2.379505456197491e-001	 2.749731584359379e+000	 7.505210738461294e+000
 2.111752046013009e-001	 2.751917347190656e+000	 7.527574855261204e+000
 1.844760811157900e-001	 2.753835957197864e+000	 7.563922162979829e+000
 1.578566678515178e-001	 2.755489990577086e+000	 7.616480066014571e+000
 1.313203809316266e-001	 2.756882070625080e+000	 7.686132371528226e+000
 1.048705595006062e-001	 2.758014865480682e+000	 7.772332737007041e+000
 7.851046538110545e-002	 2.758891085880423e+000	 7.873019234335553e+000
 5.224328279961468e-002	 2.759513482930462e+000	 7.984529635665892e+000
 2.607211817952282e-002	 2.759884845896901e+000	 8.101517096179299e+000
 0.000000000000000e+000	 2.760008000016400e+000	 8.216865952832247e+000
 2.673570958656237e-001	 2.773821122965178e+000	 7.584098610429050e+000
 2.402496929970300e-001	 2.776300290644838e+000	 7.605556065032318e+000
 2.132156408465988e-001	 2.778507172952312e+000	 7.637652888430333e+000
 1.862585426650686e-001	 2.780444321127342e+000	 7.683896787764061e+000
 1.593819248880840e-001	 2.782114336257990e+000	 7.746620822782918e+000
 1.325892366463361e-001	 2.783519866988097e+000	 7.826899180131378e+000
 1.058838493480732e-001	 2.784663607236856e+000	 7.924463938997143e+000
 7.926905633259757e-002	 2.785548293932743e+000	 8.037622324341530e+000
 5.274807259329640e-002	 2.786176704763930e+000	 8.163174020431827e+000
 2.632403456869986e-002	 2.786551655947241e+000	 8.296328193983898e+000
 0.000000000000000e+000	 2.786676000017617e+000	 8.430619929849280e+000
 2.699156563283478e-001	 2.800366104050777e+000	 7.630707295069705e+000
 2.425488403742109e-001	 2.802868996929889e+000	 7.652501353202553e+000
 2.152560770917519e-001	 2.805096998713503e+000	 7.684078595749742e+000
 1.880410042141629e-001	 2.807052685056306e+000	 7.728783457320406e+000
 1.609071819244353e-001	 2.808738681938335e+000	 7.788875188681501e+000
 1.338580923608126e-001	 2.810157663350513e+000	 7.865448334116215e+000
 1.068971391953059e-001	 2.811312348992395e+000	 7.958353554747585e+000
 8.002764728387436e-002	 2.812205501984400e+000	 8.066118251964557e+000
 5.325286238680579e-002	 2.812839926596714e+000	 8.185866528843278e+000
 2.657595095777518e-002	 2.813218465996883e+000	 8.313238111240958e+000
 0.000000000000000e+000	 2.813344000018133e+000	 8.442305913890134e+000
 2.724742167909505e-001	 2.826911085135918e+000	 7.643534427177655e+000
 2.448479877512128e-001	 2.829437703214413e+000	 7.656133131590334e+000
 2.172965133366676e-001	 2.831686824474107e+000	 7.676557913886183e+000
 1.898234657629669e-001	 2.833661048984627e+000	 7.707798694276335e+000
 1.624324389604553e-001	 2.835363027617995e+000	 7.751858508402446e+000
 1.351269480749346e-001	 2.836795459712210e+000	 7.809679519776736e+000
 1.079104290421845e-001	 2.837961090747181e+000	 7.881068674952587e+000
 8.078623823482709e-002	 2.838862710035285e+000	 7.964622410656401e+000
 5.375765218005640e-002	 2.839503148428710e+000	 8.057649913558148e+000
 2.682786734669787e-002	 2.839885276045730e+000	 8.156094524819848e+000
 0.000000000000000e+000	 2.840012000017850e+000	 8.254452955583449e+000
 2.750327772533645e-001	 2.853456066220490e+000	 7.632763978155549e+000
 2.471471351279563e-001	 2.856006409498289e+000	 7.626386298236239e+000
 2.193369495812531e-001	 2.858276650234000e+000	 7.624670526753615e+000
 1.916059273113750e-001	 2.860269412912185e+000	 7.630057186738480e+000
 1.639576959960280e-001	 2.861987373296847e+000	 7.644107246020250e+000
 1.363958037885807e-001	 2.863433256073065e+000	 7.667434534770191e+000
 1.089237188885895e-001	 2.864609832501104e+000	 7.699637042649935e+000
 8.154482918534708e-002	 2.865519918085287e+000	 7.739226456928069e+000
 5.426244197296173e-002	 2.866166370259814e+000	 7.783555402553991e+000
 2.707978373541704e-002	 2.866552086093679e+000	 7.828741944744947e+000
 0.000000000000000e+000	 2.866680000016666e+000	 7.869590999492909e+000
 2.866680000016666e+000	 0.000000000000000e+000	 1.094432352044246e+001
 2.866552086093679e+000	 2.707978373541622e-002	 1.095323166807956e+001
 2.866166370259814e+000	 5.426244197296102e-002	 1.096554635185017e+001
 2.865519918085287e+000	 8.154482918534642e-002	 1.097929514911928e+001
 2.864609832501105e+000	 1.089237188885890e-001	 1.099300562399693e+001
 2.863433256073065e+000	 1.363958037885802e-001	 1.100568396009065e+001
 2.861987373296846e+000	 1.639576959960275e-001	 1.101679441494526e+001
 2.860269412912185e+000	 1.916059273113747e-001	 1.102623952985001e+001
 2.858276650234000e+000	 2.193369495812528e-001	 1.103434100298457e+001
 2.856006409498289e+000	 2.471471351279560e-001	 1.104182110760492e+001
 2.853456066220490e+000	 2.750327772533643e-001	 1.104978451047624e+001
 2.893344000014533e+000	 0.000000000000000e+000	 1.105657655968168e+001
 2.893214896319162e+000	 2.733166233832871e-002	 1.105115382397371e+001
 2.892825592806659e+000	 5.476715605077942e-002	 1.104894040000151e+001
 2.892173127753058e+000	 8.230330635240593e-002	 1.104833360898893e+001
 2.891254577142689e+000	 1.099368567485596e-001	 1.104818720924603e+001
 2.890067056963325e+000	 1.376644691828235e-001	 1.104779007544446e+001
 2.888607725522634e+000	 1.654827242539523e-001	 1.104684596378156e+001
 2.886873785783860e+000	 1.933881215034429e-001	 1.104545429393051e+001
 2.884862487718648e+000	 2.213770797753011e-001	 1.104409184965508e+001
 2.882571130674752e+000	 2.494459376495116e-001	 1.104359527147330e+001
 2.879997065756335e+000	 2.775909539506485e-001	 1.104514418599588e+001
 2.920008000011599e+000	 0.000000000000000e+000	 1.113669251074440e+001
 2.919877706543843e+000	 2.758354094103634e-002	 1.112234733568307e+001
 2.919484815352702e+000	 5.527187012824735e-002	 1.111044093680268e+001
 2.918826337420028e+000	 8.306178351902124e-002	 1.109978031463817e+001
 2.917899321783473e+000	 1.109499946080370e-001	 1.108958323749879e+001
 2.916700857852797e+000	 1.389331345765616e-001	 1.107945703879914e+001
 2.915228077747646e+000	 1.670077525113894e-001	 1.106937877980057e+001
 2.913478158654786e+000	 1.951703156950627e-001	 1.105967670548525e+001
 2.911448325202586e+000	 2.234172099689541e-001	 1.105101288886244e+001
 2.909135851850560e+000	 2.517447401707311e-001	 1.104436692816696e+001
 2.906538065291593e+000	 2.801491306476535e-001	 1.104102053026956e+001
 2.946672000008066e+000	 0.000000000000000e+000	 1.118579438736400e+001
 2.946540516767923e+000	 2.783541954358862e-002	 1.116743304669476e+001
 2.946144037898135e+000	 5.577658420544583e-002	 1.115023082924823e+001
 2.945479547086380e+000	 8.382026068528943e-002	 1.113344163347284e+001
 2.944544066423636e+000	 1.119631324671210e-001	 1.111668217401722e+001
 2.943334658741643e+000	 1.402017999698862e-001	 1.109991097686875e+001
 2.941848429972041e+000	 1.685327807684142e-001	 1.108340903553774e+001
 2.940082531525106e+000	 1.969525098862873e-001	 1.106776205242629e+001
 2.938034162685941e+000	 2.254573401622396e-001	 1.105384415359368e+001
 2.935700573025822e+000	 2.540435426916158e-001	 1.104280293181616e+001
 2.933079064826362e+000	 2.827073073443561e-001	 1.103604563919631e+001
 2.973336000004133e+000	 0.000000000000000e+000	 1.120482630327062e+001
 2.973203326991598e+000	 2.808729814603502e-002	 1.118686344209920e+001
 2.972803260443157e+000	 5.628129828245598e-002	 1.116833558035955e+001
 2.972132756752305e+000	 8.457873785130764e-002	 1.114897797304146e+001
 2.971188811063355e+000	 1.129762703259114e-001	 1.112883829242966e+001
 2.969968459630034e+000	 1.414704653628895e-001	 1.110825590927258e+001
 2.968468782195969e+000	 1.700578090251025e-001	 1.108784314755728e+001
 2.966686904394960e+000	 1.987347040771702e-001	 1.106846843302274e+001
 2.964620000168840e+000	 2.274974703551854e-001	 1.105124121599763e+001
 2.962265294200649e+000	 2.563423452121671e-001	 1.103749851323768e+001
 2.959620064360734e+000	 2.852654840407332e-001	 1.102879287715602e+001
 3.000000000000000e+000	 0.000000000000000e+000	 1.119456142251000e+001
 2.999866137215068e+000	 2.833917674842505e-002	 1.118093036781696e+001
 2.999462482987958e+000	 5.678601235935887e-002	 1.116463083992489e+001
 2.998785966417991e+000	 8.533721501717294e-002	 1.114591110276042e+001
 2.997833555702814e+000	 1.139894081845084e-001	 1.112527882372323e+001
 2.996602260518140e+000	 1.427391307556632e-001	 1.110348073783456e+001
 2.995089134419591e+000	 1.715828372815295e-001	 1.108148461580875e+001
 2.993291277264494e+000	 2.005168982677646e-001	 1.106046345173102e+001
 2.991205837651411e+000	 2.295376005478190e-001	 1.104178174273705e+001
 2.988830015375152e+000	 2.586411477323864e-001	 1.102698369445835e+001
 2.986161063894800e+000	 2.878236607367614e-001	 1.101778314692892e+001
 3.026663999995867e+000	 0.000000000000000e+000	 1.115560948952306e+001
 3.026528947438530e+000	 2.859105535080819e-002	 1.114977234181914e+001
 3.026121705532732e+000	 5.729072643623560e-002	 1.113884951825237e+001
 3.025439176083625e+000	 8.609569218298241e-002	 1.112363108855267e+001
 3.024478300342187e+000	 1.150025460430116e-001	 1.110511072702751e+001
 3.023236061406126e+000	 1.440077961482992e-001	 1.108446586562451e+001
 3.021709486643062e+000	 1.731078655377712e-001	 1.106304049984683e+001
 3.019895650133845e+000	 2.022990924581237e-001	 1.104233055828005e+001
 3.017791675133779e+000	 2.315777307401684e-001	 1.102397169935967e+001
 3.015394736549441e+000	 2.609399502522749e-001	 1.100972935749338e+001
 3.012702063428655e+000	 2.903818374324177e-001	 1.100149081868375e+001
 3.053327999991934e+000	 0.000000000000000e+000	 1.108842396467420e+001
 3.053191757662186e+000	 2.884293395323395e-002	 1.109338148227809e+001
 3.052780928077679e+000	 5.779544051316722e-002	 1.109058852719890e+001
 3.052092385749396e+000	 8.685416934883318e-002	 1.108140286406092e+001
 3.051123044981657e+000	 1.160156839015211e-001	 1.106732710530854e+001
 3.049869862294164e+000	 1.452764615408896e-001	 1.104998946837522e+001
 3.048329838866539e+000	 1.746328937939028e-001	 1.103112755411175e+001
 3.046500023003158e+000	 2.040812866483011e-001	 1.101257505182016e+001
 3.044377512616072e+000	 2.336178609322613e-001	 1.099625122514241e+001
 3.041959457723628e+000	 2.632387527718344e-001	 1.098415298851501e+001
 3.039243062962393e+000	 2.929400141276791e-001	 1.097834933887557e+001
 3.079991999988400e+000	 0.000000000000000e+000	 1.099330878913934e+001
 3.079854567886232e+000	 2.909481255575181e-002	 1.101161007586604e+001
 3.079440150622987e+000	 5.830015459023484e-002	 1.101931517106737e+001
 3.078745595415491e+000	 8.761264651482241e-002	 1.101837246045951e+001
 3.077767789621402e+000	 1.170288217601367e-001	 1.101081328749152e+001
 3.076503663182422e+000	 1.465451269335260e-001	 1.099873343934056e+001
 3.074950191090176e+000	 1.761579220499999e-001	 1.098427804293437e+001
 3.073104395872575e+000	 2.058634808383498e-001	 1.096962977043067e+001
 3.070963350098415e+000	 2.356579911241252e-001	 1.095700019837864e+001
 3.068524178897822e+000	 2.655375552910658e-001	 1.094862411708209e+001
 3.065784062496108e+000	 2.954981908225222e-001	 1.094675653844980e+001
 3.106655999985466e+000	 0.000000000000000e+000	 1.087042480142072e+001
 3.106517378110865e+000	 2.934669115841126e-002	 1.090417680781848e+001
 3.106099373168855e+000	 5.880486866751957e-002	 1.092437320840364e+001
 3.105398805082099e+000	 8.837112368104710e-002	 1.093357291537554e+001
 3.104412534261600e+000	 1.180419596189584e-001	 1.093435259705340e+001
 3.103137464071066e+000	 1.478137923263007e-001	 1.092928902721456e+001
 3.101570543314130e+000	 1.776829503061382e-001	 1.092094525450500e+001
 3.099708768742238e+000	 2.076456750283234e-001	 1.091186048489358e+001
 3.097549187580935e+000	 2.376981213157881e-001	 1.090454351070769e+001
 3.095088900072133e+000	 2.678363578099707e-001	 1.090146946875317e+001
 3.092325062029891e+000	 2.980563675169237e-001	 1.090507965842046e+001
 3.133319999983334e+000	 0.000000000000000e+000	 1.071979582624150e+001
 3.133180188336288e+000	 2.959856976126182e-002	 1.077067267391438e+001
 3.132758595715477e+000	 5.930958274510247e-002	 1.080498860429973e+001
 3.132052014749406e+000	 8.912960084760445e-002	 1.082592988003638e+001
 3.131057278902433e+000	 1.190550974780861e-001	 1.083663182576272e+001
 3.129771264960267e+000	 1.490824577193053e-001	 1.084016218539742e+001
 3.128190895538556e+000	 1.792079785623932e-001	 1.083950873174040e+001
 3.126313141612288e+000	 2.094278692182752e-001	 1.083757101434611e+001
 3.124135025063761e+000	 2.397382515072778e-001	 1.083715606781714e+001
 3.121653621246674e+000	 2.701351603285505e-001	 1.084097784815477e+001
 3.118866061563838e+000	 3.006145442108607e-001	 1.085166010965740e+001
 2.853456066220490e+000	 2.750327772533643e-001	 1.104978451047625e+001
 2.850623495906302e+000	 3.029859020915370e-001	 1.105914039579618e+001
 2.847505823816279e+000	 3.310068753301844e-001	 1.106997097602716e+001
 2.844100595033315e+000	 3.590918200257314e-001	 1.108257762494071e+001
 2.840405415259059e+000	 3.872367847946144e-001	 1.109746738706494e+001
 2.836417953168351e+000	 4.154377447072045e-001	 1.111533451877673e+001
 2.832135942759817e+000	 4.436906022608282e-001	 1.113704122046227e+001
 2.827557185699814e+000	 4.719911884326339e-001	 1.116359724882072e+001
 2.822679553656821e+000	 5.003352638129520e-001	 1.119613807963649e+001
 2.817500990623337e+000	 5.287185198196900e-001	 1.123590127496951e+001
 2.812019515222285e+000	 5.571365799941845e-001	 1.128420069502158e+001
 2.879997065756335e+000	 2.775909539506485e-001	 1.104514418599588e+001
 2.877138148708409e+000	 3.058040806450336e-001	 1.104880457018201e+001
 2.873991478052573e+000	 3.340856868217607e-001	 1.105394275799195e+001
 2.870554576037689e+000	 3.624318594764292e-001	 1.106107932697696e+001
 2.866825026095203e+000	 3.908386104722579e-001	 1.107091455816414e+001
 2.862800475215495e+000	 4.193018774423224e-001	 1.108431199544188e+001
 2.858478636320325e+000	 4.478175247716250e-001	 1.110228130643625e+001
 2.853857290628595e+000	 4.763813446597571e-001	 1.112596010825281e+001
 2.848934290012431e+000	 5.049890582647983e-001	 1.115659440089099e+001
 2.843707559340700e+000	 5.336363169290087e-001	 1.119551723308502e+001
 2.838175098806853e+000	 5.623187034867333e-001	 1.124412521011599e+001
 2.906538065291593e+000	 2.801491306476535e-001	 1.104102053026955e+001
 2.903652801510020e+000	 3.086222591982991e-001	 1.104025663285669e+001
 2.900477132288478e+000	 3.371644983131445e-001	 1.104078447999966e+001
 2.897008557041791e+000	 3.657718989269654e-001	 1.104336595181036e+001
 2.893244636931202e+000	 3.944404361497634e-001	 1.104891502981012e+001
 2.889182997262623e+000	 4.231660101773191e-001	 1.105848354455961e+001
 2.884821329880952e+000	 4.519444472823137e-001	 1.107324634218306e+001
 2.880157395557621e+000	 4.807715008867808e-001	 1.109448550600983e+001
 2.875189026368407e+000	 5.096428527165516e-001	 1.112357324706865e+001
 2.869914128058542e+000	 5.385541140382392e-001	 1.116195305734965e+001
 2.864330682391994e+000	 5.675008269791979e-001	 1.121111870294464e+001
 2.933079064826362e+000	 2.827073073443561e-001	 1.103604563919633e+001
 2.930167454311211e+000	 3.114404377512897e-001	 1.103211861370595e+001
 2.926962786524053e+000	 3.402433098042760e-001	 1.102911896053327e+001
 2.923462538045661e+000	 3.691119383772669e-001	 1.102806804780000e+001
 2.919664247767075e+000	 3.980422618270484e-001	 1.103011007620861e+001
 2.915565519309739e+000	 4.270301429121071e-001	 1.103650019990431e+001
 2.911164023441680e+000	 4.560713697928027e-001	 1.104859219099528e+001
 2.906457500486859e+000	 4.851616571136130e-001	 1.106782525527599e+001
 2.901443762724703e+000	 5.142966471681205e-001	 1.109570958219891e+001
 2.896120696776793e+000	 5.434719111472927e-001	 1.113381019045236e+001
 2.890486265977629e+000	 5.726829504714954e-001	 1.118372861201739e+001
 2.959620064360734e+000	 2.852654840407332e-001	 1.102879287715602e+001
 2.956682107112062e+000	 3.142586163039617e-001	 1.102296705847619e+001
 2.953448440759354e+000	 3.433221212950947e-001	 1.101753744319062e+001
 2.949916519049338e+000	 3.724519778272609e-001	 1.101379910636671e+001
 2.946083858602846e+000	 4.016440875040308e-001	 1.101313898828036e+001
 2.941948041356846e+000	 4.308942756465978e-001	 1.101702658891158e+001
 2.937506717002495e+000	 4.601982923030002e-001	 1.102700433859927e+001
 2.932757605416278e+000	 4.895518133401609e-001	 1.104467722213930e+001
 2.927698499081265e+000	 5.189504416194138e-001	 1.107170120697868e+001
 2.922327265495393e+000	 5.483897082560818e-001	 1.110977000251826e+001
 2.916641849563674e+000	 5.778650739635411e-001	 1.116059965727062e+001
 2.986161063894800e+000	 2.878236607367614e-001	 1.101778314692892e+001
 2.983196759912645e+000	 3.170767948562714e-001	 1.101133913098468e+001
 2.979934094994437e+000	 3.464009327855402e-001	 1.100460548864784e+001
 2.976370500052862e+000	 3.757920172768745e-001	 1.099916119766215e+001
 2.972503469438535e+000	 4.052459131806287e-001	 1.099664440350752e+001
 2.968330563403948e+000	 4.347584083807031e-001	 1.099874590372118e+001
 2.963849410563381e+000	 4.643252148128151e-001	 1.100720244901152e+001
 2.959057710345845e+000	 4.939419695663322e-001	 1.102378940652078e+001
 2.953953235438046e+000	 5.236042360703408e-001	 1.105031230173553e+001
 2.948533834214270e+000	 5.533075053645181e-001	 1.108859672983306e+001
 2.942797433150047e+000	 5.830471974552515e-001	 1.114047610512337e+001
 3.012702063428655e+000	 2.903818374324177e-001	 1.100149081868375e+001
 3.009711412713035e+000	 3.198949734081748e-001	 1.099573837973465e+001
 3.006419749229364e+000	 3.494797442755526e-001	 1.098886853783696e+001
 3.002824481056273e+000	 3.791320567260344e-001	 1.098275028584543e+001
 2.998923080274163e+000	 4.088477388567597e-001	 1.097927732547083e+001
 2.994713085451048e+000	 4.386225411143346e-001	 1.098036457380231e+001
 2.990192104124325e+000	 4.684521373221556e-001	 1.098794463577797e+001
 2.985357815275526e+000	 4.983321257920346e-001	 1.100396375430839e+001
 2.980207971794994e+000	 5.282580305208099e-001	 1.103037671854526e+001
 2.974740402933362e+000	 5.582253024725133e-001	 1.106914018290996e+001
 2.968953016736667e+000	 5.882293209465431e-001	 1.112220382540376e+001
 3.039243062962393e+000	 2.929400141276791e-001	 1.097834933887557e+001
 3.036226065513310e+000	 3.227131519596284e-001	 1.097464018944966e+001
 3.032905403464191e+000	 3.525585557650715e-001	 1.096885716643643e+001
 3.029278462059609e+000	 3.824720961746683e-001	 1.096316124355154e+001
 3.025342691109753e+000	 4.124495645323417e-001	 1.095970185205096e+001
 3.021095607498148e+000	 4.424866738474042e-001	 1.096061665840248e+001
 3.016534797685310e+000	 4.725790598309303e-001	 1.096803146599522e+001
 3.011657920205290e+000	 5.027222820171756e-001	 1.098405971712768e+001
 3.006462708152062e+000	 5.329118249707302e-001	 1.101080103784073e+001
 3.000946971652602e+000	 5.631430995799797e-001	 1.105033823799928e+001
 2.995108600323453e+000	 5.934114444373317e-001	 1.110473215287032e+001
 3.065784062496108e+000	 2.954981908225222e-001	 1.094675653844979e+001
 3.062740718313544e+000	 3.255313305105879e-001	 1.094649693662252e+001
 3.059391057698973e+000	 3.556373672540363e-001	 1.094309204938068e+001
 3.055732443062912e+000	 3.858121356227027e-001	 1.093899258378294e+001
 3.051762301945324e+000	 4.160513902072927e-001	 1.093659962994675e+001
 3.047478129545252e+000	 4.463508065798237e-001	 1.093826797580198e+001
 3.042877491246323e+000	 4.767059823390477e-001	 1.094630971330914e+001
 3.037958025135104e+000	 5.071124382416633e-001	 1.096299757504442e+001
 3.032717444509198e+000	 5.375656194200105e-001	 1.099056740378442e+001
 3.027153540371921e+000	 5.680608966868284e-001	 1.103121912516701e+001
 3.021264183910321e+000	 5.985935679275342e-001	 1.108711556517271e+001
 3.092325062029891e+000	 2.980563675169237e-001	 1.090507965842046e+001
 3.089255371113814e+000	 3.283495090610100e-001	 1.090974286686007e+001
 3.085876711933771e+000	 3.587161787423873e-001	 1.091008865281333e+001
 3.082186424066219e+000	 3.891521750700649e-001	 1.090885092620010e+001
 3.078181912780898e+000	 4.196532158815305e-001	 1.090867405195540e+001
 3.073860651592361e+000	 4.502149393115046e-001	 1.091211998518490e+001
 3.069220184807346e+000	 4.808329048464161e-001	 1.092167587497214e+001
 3.064258130064934e+000	 5.115025944654050e-001	 1.093976153644280e+001
 3.058972180866353e+000	 5.422194138685599e-001	 1.096873615169884e+001
 3.053360109091256e+000	 5.729786937929716e-001	 1.101090352516529e+001
 3.047419767497191e+000	 6.037756914170658e-001	 1.106851518828061e+001
 3.118866061563838e+000	 3.006145442108607e-001	 1.085166010965739e+001
 3.115770023914197e+000	 3.311676876108510e-001	 1.086279871059858e+001
 3.112362366168644e+000	 3.617949902300639e-001	 1.086836166971731e+001
 3.108640405069573e+000	 3.924922145166821e-001	 1.087135521363503e+001
 3.104601523616499e+000	 4.232550415549728e-001	 1.087465421233868e+001
 3.100243173639482e+000	 4.540790720423594e-001	 1.088101343586604e+001
 3.095562878368370e+000	 4.849598273529444e-001	 1.089307946701612e+001
 3.090558234994751e+000	 5.158927506883084e-001	 1.091340262835483e+001
 3.085226917223479e+000	 5.468732083162872e-001	 1.094444823994104e+001
 3.079566677810540e+000	 5.778964908983217e-001	 1.098860648648688e+001
 3.073575351083984e+000	 6.089578149058433e-001	 1.104820013966132e+001
 2.812019515222285e+000	 5.571365799941845e-001	 1.128420069502158e+001
 2.806232332410389e+000	 5.855892700207176e-001	 1.132648748688867e+001
 2.800138417670240e+000	 6.140678136806007e-001	 1.134823802001371e+001
 2.793736028873866e+000	 6.425676306221917e-001	 1.135072778882103e+001
 2.787023507627656e+000	 6.710840784416882e-001	 1.133535469327095e+001
 2.779999281457080e+000	 6.996124543915534e-001	 1.132086915530304e+001
 2.772661865956894e+000	 7.281479971706543e-001	 1.131686602957034e+001
 2.765009866903513e+000	 7.566858887956514e-001	 1.132221769599646e+001
 2.757041982326296e+000	 7.852212565530334e-001	 1.133567147670371e+001
 2.748757004534393e+000	 8.137491750310453e-001	 1.135585174498783e+001
 2.740153822095873e+000	 8.422646682306209e-001	 1.138126268312306e+001
 2.838175098806853e+000	 5.623187034867333e-001	 1.124412521011599e+001
 2.832334087369945e+000	 5.910360420008766e-001	 1.128601264563120e+001
 2.826183490983165e+000	 6.197794746220591e-001	 1.130496511582442e+001
 2.819721551314391e+000	 6.485443783951879e-001	 1.130257913353485e+001
 2.812946594544702e+000	 6.773260677358410e-001	 1.128230441212995e+001
 2.805857033573426e+000	 7.061197961545843e-001	 1.126700528009355e+001
 2.798451370188331e+000	 7.349207580637588e-001	 1.126191041285521e+001
 2.790728197197666e+000	 7.637240906662788e-001	 1.126591634244979e+001
 2.782686200520694e+000	 7.925248759258222e-001	 1.127777820698030e+001
 2.774324161233401e+000	 8.213181426176587e-001	 1.129611220147808e+001
 2.765640957566034e+000	 8.500988684592173e-001	 1.131939867981030e+001
 2.864330682391994e+000	 5.675008269791979e-001	 1.121111870294464e+001
 2.858435842330152e+000	 5.964828139809569e-001	 1.125281769060793e+001
 2.852228564296801e+000	 6.254911355634443e-001	 1.126914241610359e+001
 2.845707073755670e+000	 6.545211261681153e-001	 1.126200730818276e+001
 2.838869681462531e+000	 6.835680570299278e-001	 1.123848095304178e+001
 2.831714785690565e+000	 7.126271379175481e-001	 1.122282217111272e+001
 2.824240874420563e+000	 7.416935189567916e-001	 1.121699025061172e+001
 2.816446527492603e+000	 7.707622925368258e-001	 1.121991799235381e+001
 2.808330418715852e+000	 7.998284952985157e-001	 1.123038097157211e+001
 2.799891317933139e+000	 8.288871102041548e-001	 1.124700032822017e+001
 2.791128093036881e+000	 8.579330686876660e-001	 1.126824620540973e+001
 2.890486265977629e+000	 5.726829504714954e-001	 1.118372861201738e+001
 2.884537597290914e+000	 6.019295859608803e-001	 1.122539209641442e+001
 2.878273637611039e+000	 6.312027965046843e-001	 1.123921452978112e+001
 2.871692596197583e+000	 6.604978739409093e-001	 1.122742223747146e+001
 2.864792768381012e+000	 6.898100463238919e-001	 1.120237547127875e+001
 2.857572537808360e+000	 7.191344796803985e-001	 1.118676873358665e+001
 2.850030378653443e+000	 7.484662798497173e-001	 1.118052079617720e+001
 2.842164857788168e+000	 7.778004944072672e-001	 1.118261180083513e+001
 2.833974636911617e+000	 8.071321146711011e-001	 1.119184936416913e+001
 2.825458474633450e+000	 8.364560777905351e-001	 1.120687170614742e+001
 2.816615228508264e+000	 8.657672689159828e-001	 1.122615141847827e+001
 2.916641849563674e+000	 5.778650739635411e-001	 1.116059965727063e+001
 2.910639352252135e+000	 6.073763579405681e-001	 1.120233947099047e+001
 2.904318710925770e+000	 6.369144574457070e-001	 1.121375576658446e+001
 2.897678118640007e+000	 6.664746217135052e-001	 1.119737777400299e+001
 2.890715855300007e+000	 6.960520356176772e-001	 1.117262484952111e+001
 2.883430289926667e+000	 7.256418214430883e-001	 1.115745120566546e+001
 2.875819882886823e+000	 7.552390407424989e-001	 1.115108546570723e+001
 2.867883188084214e+000	 7.848386962775792e-001	 1.115256516869353e+001
 2.859618855107834e+000	 8.144357340435665e-001	 1.116074059116610e+001
 2.851025631334182e+000	 8.440250453767997e-001	 1.117427821393872e+001
 2.842102363980035e+000	 8.736014691441836e-001	 1.119166481478952e+001
 2.942797433150047e+000	 5.830471974552515e-001	 1.114047610512337e+001
 2.936741107213719e+000	 6.128231299199426e-001	 1.118237910669109e+001
 2.930363784240882e+000	 6.426261183864405e-001	 1.119147096389772e+001
 2.923663641082820e+000	 6.724513694858385e-001	 1.117126205068724e+001
 2.916638942219389e+000	 7.022940249112275e-001	 1.114801015659195e+001
 2.909288042045349e+000	 7.321491632055713e-001	 1.113363090452410e+001
 2.901609387120555e+000	 7.620118016351007e-001	 1.112743287183611e+001
 2.893601518380587e+000	 7.918768981477353e-001	 1.112852006318384e+001
 2.885263073304349e+000	 8.217393534158994e-001	 1.113579507852015e+001
 2.876592788035181e+000	 8.515940129629500e-001	 1.114796291932357e+001
 2.867589499452040e+000	 8.814356693722831e-001	 1.116353540089874e+001
 2.968953016736667e+000	 5.882293209465431e-001	 1.112220382540376e+001
 2.962842862175569e+000	 6.182699018989247e-001	 1.116434734650076e+001
 2.956408857556268e+000	 6.483377793268124e-001	 1.117119615113787e+001
 2.949649163525900e+000	 6.784281172578444e-001	 1.114877609116212e+001
 2.942562029139024e+000	 7.085360142044866e-001	 1.112745498589537e+001
 2.935145794164261e+000	 7.386565049678004e-001	 1.111422187215139e+001
 2.927398891354494e+000	 7.687845625274864e-001	 1.110847377632583e+001
 2.919319848677136e+000	 7.989151000177125e-001	 1.110938927645676e+001
 2.910907291501007e+000	 8.290429727880866e-001	 1.111593203436386e+001
 2.902159944736293e+000	 8.591629805489869e-001	 1.112685494372314e+001
 2.893076634924131e+000	 8.892698696002970e-001	 1.114070485816935e+001
 2.995108600323453e+000	 5.934114444373317e-001	 1.110473215287032e+001
 2.988944617137590e+000	 6.237166738774361e-001	 1.114719877669308e+001
 2.982453930871814e+000	 6.540494402667512e-001	 1.115189906158221e+001
 2.975634685969126e+000	 6.844048650294585e-001	 1.112899173815766e+001
 2.968485116058780e+000	 7.147780034973987e-001	 1.111002368091162e+001
 2.961003546283265e+000	 7.451638467297290e-001	 1.109828842696007e+001
 2.953188395588489e+000	 7.755573234196193e-001	 1.109327796665484e+001
 2.945038178973706e+000	 8.059533018874843e-001	 1.109425262546693e+001
 2.936551509697654e+000	 8.363465921601164e-001	 1.110024497007704e+001
 2.927727101437364e+000	 8.667319481349112e-001	 1.111006430185688e+001
 2.918563770396158e+000	 8.971040698282407e-001	 1.112230169784261e+001
 3.021264183910321e+000	 5.985935679275342e-001	 1.108711556517271e+001
 3.015046372099683e+000	 6.291634458553987e-001	 1.113000725645522e+001
 3.008499004187415e+000	 6.597611012061847e-001	 1.113267950089461e+001
 3.001620208412377e+000	 6.903816128006164e-001	 1.111110902184153e+001
 2.994408202978527e+000	 7.210199927899073e-001	 1.109491945459184e+001
 2.986861298402219e+000	 7.516711884913102e-001	 1.108504262692233e+001
 2.978977899822394e+000	 7.823300843114626e-001	 1.108107106115497e+001
 2.970756509270149e+000	 8.129915037570267e-001	 1.108235309689661e+001
 2.962195727894136e+000	 8.436502115319760e-001	 1.108799718233293e+001
 2.953294258138241e+000	 8.743009157207239e-001	 1.109687671783067e+001
 2.944050905867969e+000	 9.049382700561295e-001	 1.110763540769191e+001
 3.047419767497191e+000	 6.037756914170658e-001	 1.106851518828061e+001
 3.041148127061754e+000	 6.346102178327341e-001	 1.111196679427390e+001
 3.034544077502960e+000	 6.654727621450414e-001	 1.111276958096107e+001
 3.027605730855529e+000	 6.963583605712532e-001	 1.109445582684366e+001
 3.020331289898130e+000	 7.272619820819565e-001	 1.108148240902634e+001
 3.012719050520982e+000	 7.581785302524974e-001	 1.107384164954690e+001
 3.004767404056062e+000	 7.891028452029807e-001	 1.107123124698860e+001
 2.996474839566310e+000	 8.200297056263145e-001	 1.107309294039490e+001
 2.987839946090303e+000	 8.509538309036534e-001	 1.107861719846392e+001
 2.978861414838772e+000	 8.818698833064264e-001	 1.108674841911776e+001
 2.969538041339417e+000	 9.127724702839788e-001	 1.109619059076687e+001
 3.073575351083984e+000	 6.089578149058433e-001	 1.104820013966132e+001
 3.067249882023707e+000	 6.400569898093638e-001	 1.109239228021373e+001
 3.060589150818339e+000	 6.711844230832489e-001	 1.109200387976469e+001
 3.053591253298464e+000	 7.023351083413048e-001	 1.107848643981956e+001
 3.046254376817459e+000	 7.335039713734899e-001	 1.106918746132695e+001
 3.038576802639414e+000	 7.646858720132438e-001	 1.106418509365057e+001
 3.030556908289345e+000	 7.958756060941374e-001	 1.106328595496526e+001
 3.022193169862040e+000	 8.270679074953231e-001	 1.106602971321312e+001
 3.013484164285995e+000	 8.582574502751357e-001	 1.107169418732958e+001
 3.004428571538802e+000	 8.894388508920191e-001	 1.107930090974965e+001
 2.995025176810348e+000	 9.206066705118043e-001	 1.108762109669741e+001
 2.740153822095873e+000	 8.422646682306209e-001	 1.138126268312306e+001
 2.731231421080581e+000	 8.707627113369550e-001	 1.140754811468776e+001
 2.721988884875083e+000	 8.992382316919291e-001	 1.143170374629980e+001
 2.712425398051369e+000	 9.276861123150281e-001	 1.145414403445379e+001
 2.702540248811464e+000	 9.561011947256430e-001	 1.147524652730658e+001
 2.692332830683794e+000	 9.844782814308750e-001	 1.149535505547129e+001
 2.681802644152405e+000	 1.012812138484053e+000	 1.151476869852608e+001
 2.670949298215834e+000	 1.041097498112028e+000	 1.153380880512477e+001
 2.659772511872570e+000	 1.069329061409152e+000	 1.155303768825849e+001
 2.648272115530094e+000	 1.097501501095708e+000	 1.157395420349996e+001
 2.636448052334516e+000	 1.125609464338406e+000	 1.159697473740043e+001
 2.765640957566034e+000	 8.500988684592173e-001	 1.131939867981030e+001
 2.756635566157504e+000	 8.788619818981298e-001	 1.134379073482413e+001
 2.747307061868638e+000	 9.076023630936982e-001	 1.136686699338042e+001
 2.737654621686848e+000	 9.363148474705654e-001	 1.138911135151874e+001
 2.727677527193472e+000	 9.649942285672725e-001	 1.141096337726535e+001
 2.717375166275937e+000	 9.936352605472049e-001	 1.143282167160464e+001
 2.706747034772115e+000	 1.022232660780904e+000	 1.145503465892717e+001
 2.695792738043704e+000	 1.050781112497806e+000	 1.147796067279841e+001
 2.684511992475503e+000	 1.079275267505267e+000	 1.150188175542739e+001
 2.672904626897554e+000	 1.107709748972663e+000	 1.152707473028582e+001
 2.660970583927155e+000	 1.136079154278113e+000	 1.155398227113120e+001
 2.791128093036881e+000	 8.579330686876660e-001	 1.126824620540973e+001
 2.782039711235067e+000	 8.869612524591194e-001	 1.129084494832324e+001
 2.772625238862780e+000	 9.159664944952385e-001	 1.131299234151116e+001
 2.762883845322852e+000	 9.449435826258268e-001	 1.133521059749196e+001
 2.752814805575939e+000	 9.738872624085796e-001	 1.135796955493915e+001
 2.742417501868467e+000	 1.002792239663169e+000	 1.138169023485679e+001
 2.731691425392141e+000	 1.031653183077356e+000	 1.140673734412403e+001
 2.720636177871811e+000	 1.060464726883158e+000	 1.143347299275650e+001
 2.709251473078592e+000	 1.089221473600947e+000	 1.146218096819224e+001
 2.697537138265090e+000	 1.117917996849190e+000	 1.149313058907079e+001
 2.685493115519781e+000	 1.146548844217417e+000	 1.152656606716643e+001
 2.816615228508264e+000	 8.657672689159828e-001	 1.122615141847827e+001
 2.807443856313125e+000	 8.950605230199542e-001	 1.124704360058016e+001
 2.797943415857370e+000	 9.243306258965953e-001	 1.126838777706535e+001
 2.788113068959254e+000	 9.535723177808729e-001	 1.129071369794256e+001
 2.777952083958754e+000	 9.827802962496399e-001	 1.131449012051906e+001
 2.767459837461291e+000	 1.011949218778858e+000	 1.134011417116813e+001
 2.756635816012397e+000	 1.041073705373506e+000	 1.136797751927295e+001
 2.745479617700092e+000	 1.070148341268192e+000	 1.139837014654637e+001
 2.733990953681790e+000	 1.099167679696300e+000	 1.143155841856267e+001
 2.722169649632665e+000	 1.128126244725395e+000	 1.146777022897517e+001
 2.710015647112380e+000	 1.157018534156420e+000	 1.150720067074061e+001
 2.842102363980035e+000	 8.736014691441836e-001	 1.119166481478952e+001
 2.832848001391534e+000	 9.031597935806651e-001	 1.121093157802228e+001
 2.823261592852274e+000	 9.326947572978149e-001	 1.123158097949959e+001
 2.813342292595933e+000	 9.622010529357666e-001	 1.125411987231659e+001
 2.803089362341805e+000	 9.916733300905302e-001	 1.127898497968737e+001
 2.792502173054309e+000	 1.021106197894358e+000	 1.130653415865082e+001
 2.781580206632806e+000	 1.050494227669453e+000	 1.133710576769508e+001
 2.770323057528475e+000	 1.079831955653013e+000	 1.137093376499062e+001
 2.758730434285044e+000	 1.109113885791435e+000	 1.140821804402656e+001
 2.746802161000247e+000	 1.138334492601385e+000	 1.144911180013602e+001
 2.734538178704933e+000	 1.167488224095222e+000	 1.149372730203470e+001
 2.867589499452040e+000	 8.814356693722831e-001	 1.116353540089874e+001
 2.858252146470149e+000	 9.112590641412821e-001	 1.118125924917479e+001
 2.848579769847359e+000	 9.410588886989445e-001	 1.120131200387887e+001
 2.838571516232765e+000	 9.708297880905690e-001	 1.122414753332608e+001
 2.828226640724981e+000	 1.000566363931325e+000	 1.125013997678205e+001
 2.817544508647425e+000	 1.030263177009759e+000	 1.127957679307794e+001
 2.806524597253284e+000	 1.059914749965296e+000	 1.131271190843173e+001
 2.795166497356900e+000	 1.089515570037725e+000	 1.134969127987199e+001
 2.783469914888307e+000	 1.119060091886462e+000	 1.139061610540706e+001
 2.771434672367803e+000	 1.148542740477269e+000	 1.143553226624535e+001
 2.759060710297422e+000	 1.177957914033923e+000	 1.148443620217265e+001
 2.893076634924131e+000	 8.892698696002970e-001	 1.114070485816935e+001
 2.883656291548826e+000	 9.193583347018371e-001	 1.115697591355173e+001
 2.873897946842486e+000	 9.494230201000301e-001	 1.117652598945928e+001
 2.863800739869623e+000	 9.794585232453416e-001	 1.119972623145861e+001
 2.853363919108170e+000	 1.009459397772102e+000	 1.122685805292981e+001
 2.842586844240540e+000	 1.039420156125150e+000	 1.125810785466009e+001
 2.831468987873751e+000	 1.069335272261134e+000	 1.129361452066574e+001
 2.820009937185299e+000	 1.099199184422435e+000	 1.133340460442717e+001
 2.808209395491530e+000	 1.129006297981487e+000	 1.137744900753046e+001
 2.796067183735300e+000	 1.158750988353152e+000	 1.142565435121921e+001
 2.783583241889828e+000	 1.188427603972625e+000	 1.147786895602566e+001
 2.918563770396158e+000	 8.971040698282407e-001	 1.112230169784261e+001
 2.909060436627422e+000	 9.274576052623601e-001	 1.113722325789192e+001
 2.899216123837521e+000	 9.577871515011175e-001	 1.115636589273640e+001
 2.889029963506384e+000	 9.880872584001461e-001	 1.117998864184722e+001
 2.878501197491262e+000	 1.018352431612936e+000	 1.120823782913172e+001
 2.867629179833561e+000	 1.048577135240618e+000	 1.124120652365510e+001
 2.856413378494124e+000	 1.078755794557065e+000	 1.127885056847470e+001
 2.844853377013606e+000	 1.108882798807248e+000	 1.132105893477572e+001
 2.832948876094660e+000	 1.138952504076619e+000	 1.136764126200169e+001
 2.820699695102703e+000	 1.168959236229142e+000	 1.141833364967209e+001
 2.808105773482135e+000	 1.198897293911427e+000	 1.147280473846403e+001
 2.944050905867969e+000	 9.049382700561295e-001	 1.110763540769191e+001
 2.934464581705791e+000	 9.355568758228818e-001	 1.112132881929560e+001
 2.924534300832328e+000	 9.661512829022541e-001	 1.114016524347366e+001
 2.914259187142925e+000	 9.967159935550446e-001	 1.116426259093320e+001
 2.903638475874143e+000	 1.027245465453903e+000	 1.119361693275747e+001
 2.892671515426388e+000	 1.057734114356252e+000	 1.122815588695777e+001
 2.881357769114321e+000	 1.088176316853187e+000	 1.126766511983733e+001
 2.869696816841759e+000	 1.118566413192270e+000	 1.131185166495513e+001
 2.857688356697652e+000	 1.148898710171969e+000	 1.136033358347491e+001
 2.845332206469981e+000	 1.179167484105347e+000	 1.141264589127026e+001
 2.832628305074325e+000	 1.209366983850430e+000	 1.146824673532189e+001
 2.969538041339417e+000	 9.127724702839788e-001	 1.109619059076687e+001
 2.959868726783792e+000	 9.436561463834331e-001	 1.110879945484463e+001
 2.949852477826773e+000	 9.745154143034852e-001	 1.112744092233026e+001
 2.939488410779118e+000	 1.005344728710098e+000	 1.115206312052992e+001
 2.928775754256705e+000	 1.036138499295079e+000	 1.118248285848354e+001
 2.917713851018923e+000	 1.066891093472141e+000	 1.121843351562879e+001
 2.906302159734262e+000	 1.097596839149599e+000	 1.125950115422766e+001
 2.894540256669687e+000	 1.128250027577606e+000	 1.130518140873560e+001
 2.882427837300455e+000	 1.158844916267644e+000	 1.135487111139912e+001
 2.869964717837100e+000	 1.189375731981873e+000	 1.140787434971770e+001
 2.857150836666380e+000	 1.219836673789734e+000	 1.146340872857771e+001
 2.995025176810348e+000	 9.206066705118043e-001	 1.108762109669741e+001
 2.985272871861279e+000	 9.517554169440451e-001	 1.109931481731972e+001
 2.975170654820722e+000	 9.828795457048585e-001	 1.111788595880131e+001
 2.964717634414845e+000	 1.013973463865370e+000	 1.114307195973609e+001
 2.953913032638836e+000	 1.045031533136541e+000	 1.117451968826711e+001
 2.942756186611072e+000	 1.076048072588373e+000	 1.121170210913736e+001
 2.931246550353865e+000	 1.107017361446401e+000	 1.125398945352170e+001
 2.919383696497328e+000	 1.137933641963363e+000	 1.130063712185438e+001
 2.907167317903019e+000	 1.168791122363753e+000	 1.135079174976336e+001
 2.894597229204027e+000	 1.199583979858828e+000	 1.140349738776014e+001
 2.881673368258283e+000	 1.230306363729441e+000	 1.145770183596817e+001
 2.636448052334516e+000	 1.125609464338406e+000	 1.159697473740043e+001
 2.624302226078947e+000	 1.153643375865511e+000	 1.161706984196557e+001
 2.611833061417270e+000	 1.181602065005949e+000	 1.162887058443471e+001
 2.599040848742956e+000	 1.209480123689433e+000	 1.163213915542929e+001
 2.585925995576417e+000	 1.237272130208986e+000	 1.162663123672900e+001
 2.572489027453052e+000	 1.264972652307894e+000	 1.161211394450581e+001
 2.558730588716131e+000	 1.292576250311315e+000	 1.158838376493517e+001
 2.544651443212336e+000	 1.320077480299228e+000	 1.155528424771160e+001
 2.530252474887798e+000	 1.347470897317243e+000	 1.151911554068422e+001
 2.515534688282688e+000	 1.374751058621742e+000	 1.151474192413278e+001
 2.500499208922499e+000	 1.401912526955667e+000	 1.154555230350929e+001
 2.660970583927155e+000	 1.136079154278113e+000	 1.155398227113120e+001
 2.648711785065264e+000	 1.164373819086900e+000	 1.157792087551176e+001
 2.636126640312910e+000	 1.192592561839123e+000	 1.159265730407732e+001
 2.623215442764610e+000	 1.220729924162126e+000	 1.159755719233527e+001
 2.609978603731262e+000	 1.248780433919723e+000	 1.159195537962202e+001
 2.596416653636446e+000	 1.276738608327862e+000	 1.157517622099776e+001
 2.582530242816689e+000	 1.304598957115369e+000	 1.154655396370758e+001
 2.568320142223471e+000	 1.332355985726399e+000	 1.150545293622312e+001
 2.553787244024815e+000	 1.360004198561121e+000	 1.147464316755222e+001
 2.538932562104462e+000	 1.387538102251040e+000	 1.147886067281937e+001
 2.523757232456807e+000	 1.414952208965249e+000	 1.151540153018695e+001
 2.685493115519781e+000	 1.146548844217417e+000	 1.152656606716643e+001
 2.673121344051483e+000	 1.175104262307936e+000	 1.155556966668033e+001
 2.660420219208369e+000	 1.203583058672013e+000	 1.157263192911477e+001
 2.647390036786002e+000	 1.231979724634620e+000	 1.157787163190009e+001
 2.634031211885770e+000	 1.260288737630354e+000	 1.157042790276116e+001
 2.620344279819432e+000	 1.288504564347824e+000	 1.154921688931996e+001
 2.606329896916777e+000	 1.316621663919515e+000	 1.151314857861351e+001
 2.591988841234089e+000	 1.344634491153757e+000	 1.146550409340072e+001
 2.577322013161276e+000	 1.372537499805272e+000	 1.144388678482174e+001
 2.562330435925657e+000	 1.400325145880683e+000	 1.145468882202788e+001
 2.547015255990533e+000	 1.427991890975229e+000	 1.149475270498008e+001
 2.710015647112380e+000	 1.157018534156420e+000	 1.150720067074060e+001
 2.697530903037604e+000	 1.185834705528708e+000	 1.154175870949525e+001
 2.684713798103658e+000	 1.214573555504691e+000	 1.156244749468144e+001
 2.671564630807157e+000	 1.243229525106964e+000	 1.156796735994325e+001
 2.658083820039974e+000	 1.271797041340906e+000	 1.155717312916072e+001
 2.644271906002056e+000	 1.300270520367781e+000	 1.152957641878261e+001
 2.630129551016453e+000	 1.328644370723730e+000	 1.148378658658679e+001
 2.615657540244251e+000	 1.356912996581255e+000	 1.143762372670414e+001
 2.600856782297251e+000	 1.385070801049628e+000	 1.142374115737870e+001
 2.585728309746352e+000	 1.413112189510584e+000	 1.143942200523836e+001
 2.570273279523760e+000	 1.441031572985507e+000	 1.148115248790178e+001
 2.734538178704933e+000	 1.167488224095222e+000	 1.149372730203470e+001
 2.721940462023622e+000	 1.196565148749303e+000	 1.153267323299712e+001
 2.709007376998788e+000	 1.225564052337229e+000	 1.155556683345014e+001
 2.695739224828096e+000	 1.254479325579208e+000	 1.156087551700690e+001
 2.682136428193910e+000	 1.283305345051404e+000	 1.154692750810705e+001
 2.668199532184362e+000	 1.312036476387733e+000	 1.151192145666854e+001
 2.653929205115769e+000	 1.340667077527991e+000	 1.145635819363830e+001
 2.639326239254022e+000	 1.369191502008848e+000	 1.141866385440888e+001
 2.624391551432814e+000	 1.397604102294122e+000	 1.141127072686701e+001
 2.609126183566626e+000	 1.425899233140657e+000	 1.143041642124276e+001
 2.593531303056567e+000	 1.454071254995983e+000	 1.147229689863627e+001
 2.759060710297422e+000	 1.177957914033923e+000	 1.148443620217265e+001
 2.746350021009535e+000	 1.207295591969811e+000	 1.152654403786127e+001
 2.733300955893769e+000	 1.236554549169694e+000	 1.155004051347807e+001
 2.719913818848843e+000	 1.265729126051403e+000	 1.155319837539516e+001
 2.706189036347608e+000	 1.294813648761876e+000	 1.153413707251111e+001
 2.692127158366396e+000	 1.323802432407685e+000	 1.149083243907320e+001
 2.677728859214781e+000	 1.352689784332276e+000	 1.143463185335677e+001
 2.662994938263464e+000	 1.381470007436487e+000	 1.140561877996547e+001
 2.647926320568034e+000	 1.410137403538684e+000	 1.140370501640554e+001
 2.632524057386552e+000	 1.438686276770816e+000	 1.142518458476328e+001
 2.616789326589043e+000	 1.467110937006559e+000	 1.146602749840325e+001
 2.783583241889828e+000	 1.188427603972625e+000	 1.147786895602566e+001
 2.770759579995339e+000	 1.218026035190319e+000	 1.152185763676935e+001
 2.757594534788612e+000	 1.247545046002160e+000	 1.154435845407899e+001
 2.744088412869419e+000	 1.276978926523597e+000	 1.154348682549024e+001
 2.730241644501108e+000	 1.306321952472349e+000	 1.151719407285114e+001
 2.716054784548201e+000	 1.335568388427636e+000	 1.146346469490682e+001
 2.701528513313543e+000	 1.364712491136561e+000	 1.141518445673741e+001
 2.686663637272641e+000	 1.393748512864127e+000	 1.139492098739541e+001
 2.671461089702981e+000	 1.422670704783245e+000	 1.139838812053187e+001
 2.655921931206212e+000	 1.451473320400976e+000	 1.142139127148750e+001
 2.640047350121267e+000	 1.480150619017134e+000	 1.146032774103989e+001
 2.808105773482135e+000	 1.198897293911427e+000	 1.147280473846403e+001
 2.795169138981030e+000	 1.228756478410914e+000	 1.151734167865670e+001
 2.781888113683326e+000	 1.258535542834697e+000	 1.153725299728675e+001
 2.768263006889848e+000	 1.288228726995841e+000	 1.153053328617120e+001
 2.754294252654443e+000	 1.317830256182848e+000	 1.149500551566319e+001
 2.739982410729826e+000	 1.347334344447589e+000	 1.143555590562029e+001
 2.725328167412110e+000	 1.376735197940823e+000	 1.139693356962484e+001
 2.710332336281615e+000	 1.406027018291720e+000	 1.138381267863630e+001
 2.694995858837728e+000	 1.435204006027737e+000	 1.139186321868760e+001
 2.679319805025680e+000	 1.464260364031049e+000	 1.141657988127383e+001
 2.663305373653324e+000	 1.493190301027610e+000	 1.145331948295671e+001
 2.832628305074325e+000	 1.209366983850430e+000	 1.146824673532189e+001
 2.819578697966607e+000	 1.239486921631686e+000	 1.151195056619710e+001
 2.806181692577922e+000	 1.269526039667375e+000	 1.152768381123000e+001
 2.792437600910154e+000	 1.299478527468185e+000	 1.151335598261104e+001
 2.778346860807648e+000	 1.329338559893400e+000	 1.146670068315819e+001
 2.763910036911314e+000	 1.359100300467545e+000	 1.140978643279857e+001
 2.749127821510536e+000	 1.388757904745038e+000	 1.137933698174932e+001
 2.734001035290450e+000	 1.418305523719218e+000	 1.137180461847422e+001
 2.718530627972343e+000	 1.447737307272093e+000	 1.138287303533418e+001
 2.702717678845036e+000	 1.477047407660950e+000	 1.140805074825986e+001
 2.686563397185296e+000	 1.506229983037888e+000	 1.144268595937980e+001
 2.857150836666380e+000	 1.219836673789734e+000	 1.146340872857771e+001
 2.843988256952065e+000	 1.250217364852722e+000	 1.150485125491577e+001
 2.830475271472411e+000	 1.280516536500265e+000	 1.151482298787562e+001
 2.816612194930360e+000	 1.310728327940679e+000	 1.149118342660381e+001
 2.802399468960757e+000	 1.340846863604030e+000	 1.143371875506840e+001
 2.787837663092710e+000	 1.370866256487507e+000	 1.138561957742678e+001
 2.772927475608878e+000	 1.400780611549183e+000	 1.136189264461796e+001
 2.757669734299211e+000	 1.430584029146576e+000	 1.135847807155179e+001
 2.742065397106899e+000	 1.460270608516245e+000	 1.137112946069011e+001
 2.726115552664356e+000	 1.489834451290593e+000	 1.139542801639434e+001
 2.709821420717266e+000	 1.519269665047867e+000	 1.142679773204356e+001
 2.881673368258283e+000	 1.230306363729441e+000	 1.145770183596817e+001
 2.868397815937404e+000	 1.260947808074110e+000	 1.149540922311130e+001
 2.854768850366805e+000	 1.291507033333439e+000	 1.149804032356206e+001
 2.840786788950489e+000	 1.321978128413373e+000	 1.146343908735699e+001
 2.826452077113804e+000	 1.352355167314767e+000	 1.140265466213672e+001
 2.811765289274061e+000	 1.382632212507476e+000	 1.136255793538589e+001
 2.796727129707190e+000	 1.412803318353237e+000	 1.134413580146498e+001
 2.781338433307961e+000	 1.442862534573747e+000	 1.134344804056098e+001
 2.765600166241468e+000	 1.472803909760124e+000	 1.135637306215042e+001
 2.749513426483719e+000	 1.502621494919892e+000	 1.137862225052903e+001
 2.733079444249319e+000	 1.532309347057451e+000	 1.140575542320058e+001
 2.500499208922499e+000	 1.401912526955667e+000	 1.154555230350929e+001
 2.485144957250983e+000	 1.428953920535294e+000	 1.158842664868172e+001
 2.469475535571230e+000	 1.455865738217200e+000	 1.162210245242154e+001
 2.453492436359996e+000	 1.482642578306111e+000	 1.164723339311799e+001
 2.437197273632522e+000	 1.509279057994052e+000	 1.166459908006838e+001
 2.420591782792370e+000	 1.535769816732273e+000	 1.167510154330273e+001
 2.403677820370209e+000	 1.562109519609820e+000	 1.167976057793534e+001
 2.386457363650869e+000	 1.588292860734558e+000	 1.167970796292559e+001
 2.368932510188158e+000	 1.614314566612345e+000	 1.167618058274513e+001
 2.351105477207142e+000	 1.640169399520066e+000	 1.167051248896971e+001
 2.332978600893775e+000	 1.665852160868178e+000	 1.166412594717316e+001
 2.523757232456807e+000	 1.414952208965249e+000	 1.151540153018695e+001
 2.508260165484269e+000	 1.442245124067567e+000	 1.156191554015056e+001
 2.492444996996237e+000	 1.469407258041088e+000	 1.159829482844839e+001
 2.476313233351541e+000	 1.496433158947471e+000	 1.162528352788667e+001
 2.459866503577959e+000	 1.523317393911349e+000	 1.164376977241974e+001
 2.443106559220670e+000	 1.550054552523622e+000	 1.165478182213708e+001
 2.426035274078607e+000	 1.576639250251452e+000	 1.165948295292663e+001
 2.408654643828039e+000	 1.603066131850734e+000	 1.165916513216339e+001
 2.390966785532879e+000	 1.629329874776700e+000	 1.165524151092894e+001
 2.372973937041403e+000	 1.655425192588332e+000	 1.164923777232790e+001
 2.354678456269270e+000	 1.681346838342176e+000	 1.164278238434895e+001
 2.547015255990533e+000	 1.427991890975229e+000	 1.149475270498009e+001
 2.531375373716986e+000	 1.455536327600267e+000	 1.154278852027318e+001
 2.515414458420706e+000	 1.482948777865413e+000	 1.158007549179956e+001
 2.499134030342586e+000	 1.510223739589257e+000	 1.160743188945375e+001
 2.482535733522948e+000	 1.537355729829049e+000	 1.162583706390923e+001
 2.465621335648581e+000	 1.564339288315339e+000	 1.163642721222225e+001
 2.448392727786679e+000	 1.591168980893409e+000	 1.164048981760690e+001
 2.430851924004947e+000	 1.617839402967187e+000	 1.163945678625647e+001
 2.413001060877399e+000	 1.644345182941284e+000	 1.163489631379919e+001
 2.394842396875519e+000	 1.670680985656779e+000	 1.162850352358710e+001
 2.376378311644662e+000	 1.696841515816308e+000	 1.162208992844050e+001
 2.570273279523760e+000	 1.441031572985507e+000	 1.148115248790178e+001
 2.554490581949220e+000	 1.468827531133287e+000	 1.152895048099639e+001
 2.538383919844723e+000	 1.496490297690063e+000	 1.156567327416274e+001
 2.521954827333227e+000	 1.524014320231364e+000	 1.159219747353275e+001
 2.505204963467584e+000	 1.551394065747052e+000	 1.160957690806947e+001
 2.488136112076197e+000	 1.578624024107332e+000	 1.161903804037416e+001
 2.470750181494517e+000	 1.605698711535610e+000	 1.162197396034221e+001
 2.453049204181680e+000	 1.632612674083847e+000	 1.161993698612811e+001
 2.435035336221800e+000	 1.659360491106038e+000	 1.161462990716944e+001
 2.416710856709561e+000	 1.685936778725358e+000	 1.160789591419207e+001
 2.398078167020021e+000	 1.712336193290541e+000	 1.160170727110152e+001
 2.593531303056567e+000	 1.454071254995983e+000	 1.147229689863627e+001
 2.577605790181060e+000	 1.482118734666520e+000	 1.151844391678108e+001
 2.561353381268382e+000	 1.510031817514932e+000	 1.155344379267344e+001
 2.544775624323556e+000	 1.537804900873685e+000	 1.157821617053390e+001
 2.527874193411962e+000	 1.565432401665256e+000	 1.159387317444701e+001
 2.510650888503613e+000	 1.592908759899510e+000	 1.160171446808276e+001
 2.493107635202212e+000	 1.620228442177974e+000	 1.160322080495885e+001
 2.475246484358327e+000	 1.647385945200646e+000	 1.160004609535641e+001
 2.457069611566165e+000	 1.674375799270904e+000	 1.159400802687839e+001
 2.438579316543608e+000	 1.701192571794026e+000	 1.158707728639742e+001
 2.419778022395412e+000	 1.727830870764843e+000	 1.158136544169048e+001
 2.616789326589043e+000	 1.467110937006559e+000	 1.146602749840325e+001
 2.600720998412591e+000	 1.495409938199861e+000	 1.150944555469967e+001
 2.584322842691774e+000	 1.523573337339909e+000	 1.154186647920202e+001
 2.567596421313664e+000	 1.551595481516111e+000	 1.156423814588653e+001
 2.550543423356176e+000	 1.579470737583562e+000	 1.157771533274957e+001
 2.533165664930923e+000	 1.607193495691781e+000	 1.158365443326693e+001
 2.515465088909857e+000	 1.634758172820419e+000	 1.158360656493523e+001
 2.497443764534976e+000	 1.662159216317515e+000	 1.157930910272596e+001
 2.479103886910575e+000	 1.689391107435828e+000	 1.157267567676781e+001
 2.460447776377735e+000	 1.716448364862739e+000	 1.156578468492930e+001
 2.441477877770901e+000	 1.743325548239177e+000	 1.156086638211099e+001
 2.640047350121267e+000	 1.480150619017134e+000	 1.146032774103989e+001
 2.623836206643904e+000	 1.508701141733201e+000	 1.150026312759115e+001
 2.607292304114989e+000	 1.537114857164886e+000	 1.152954172907041e+001
 2.590417218303647e+000	 1.565386062158538e+000	 1.154912531865578e+001
 2.573212653300320e+000	 1.593509073501868e+000	 1.156019621659867e+001
 2.555680441358219e+000	 1.621478231484052e+000	 1.156415165534766e+001
 2.537822542617545e+000	 1.649287903462864e+000	 1.156259644697479e+001
 2.519641044711714e+000	 1.676932487434383e+000	 1.155733398252421e+001
 2.501138162255115e+000	 1.704406415600752e+000	 1.155035560501497e+001
 2.482316236212018e+000	 1.731704157931452e+000	 1.154382840980127e+001
 2.463177733146556e+000	 1.758820225713512e+000	 1.154008153773649e+001
 2.663305373653324e+000	 1.493190301027610e+000	 1.145331948295671e+001
 2.646951414875085e+000	 1.521992345266434e+000	 1.148933228152787e+001
 2.630261765538118e+000	 1.550656376989755e+000	 1.151518816189793e+001
 2.613238015293599e+000	 1.579176642800859e+000	 1.153184893244438e+001
 2.595881883244487e+000	 1.607547409420072e+000	 1.154050986202177e+001
 2.578195217785595e+000	 1.635762967276229e+000	 1.154259369976787e+001
 2.560179996325364e+000	 1.663817634105228e+000	 1.153974290094128e+001
 2.541838324888632e+000	 1.691705758551183e+000	 1.153381009027483e+001
 2.523172437599868e+000	 1.719421723765619e+000	 1.152684680708572e+001
 2.504184696046532e+000	 1.746959951000121e+000	 1.152109058899040e+001
 2.484877588522444e+000	 1.774314903187811e+000	 1.151895046343744e+001
 2.686563397185296e+000	 1.506229983037888e+000	 1.144268595937980e+001
 2.670066623106221e+000	 1.535283548799453e+000	 1.147519319571633e+001
 2.653231226961252e+000	 1.564197896814406e+000	 1.149763998778160e+001
 2.636058812283610e+000	 1.592967223442966e+000	 1.151148721298786e+001
 2.618551113188773e+000	 1.621585745338075e+000	 1.151794941615461e+001
 2.600709994213145e+000	 1.650047703068222e+000	 1.151846009835728e+001
 2.582537450033407e+000	 1.678347364747428e+000	 1.151468391334774e+001
 2.564035605065815e+000	 1.706479029667843e+000	 1.150850659176138e+001
 2.545206712944916e+000	 1.734437031930372e+000	 1.150202305369534e+001
 2.526053155881353e+000	 1.762215744068700e+000	 1.149752376977081e+001
 2.506577443898632e+000	 1.789809580662045e+000	 1.149747944379447e+001
 2.709821420717266e+000	 1.519269665047867e+000	 1.142679773204356e+001
 2.693181831337400e+000	 1.548574752332153e+000	 1.145567240175838e+001
 2.676200688384483e+000	 1.577739416638730e+000	 1.147569108694331e+001
 2.658879609273775e+000	 1.606757804084752e+000	 1.148722310723388e+001
 2.641220343133272e+000	 1.635624081255775e+000	 1.149190511193547e+001
 2.623224770640964e+000	 1.664332438859940e+000	 1.149132052218618e+001
 2.604894903741768e+000	 1.692877095389385e+000	 1.148714134178101e+001
 2.586232885243354e+000	 1.721252300784295e+000	 1.148127092334021e+001
 2.567240988290342e+000	 1.749452340094955e+000	 1.147583144227459e+001
 2.547921615716560e+000	 1.777471537137145e+000	 1.147314952758330e+001
 2.528277299275187e+000	 1.805304258136177e+000	 1.147574012664648e+001
 2.733079444249319e+000	 1.532309347057451e+000	 1.140575542320058e+001
 2.716297039568712e+000	 1.561865955864427e+000	 1.143021434913879e+001
 2.699170149807902e+000	 1.591280936462618e+000	 1.144754330760493e+001
 2.681700406264190e+000	 1.620548384726113e+000	 1.145796480311913e+001
 2.663889573078078e+000	 1.649662417173072e+000	 1.146186230486029e+001
 2.645739547069145e+000	 1.678617174651289e+000	 1.146083300378264e+001
 2.627252357450539e+000	 1.707406826031018e+000	 1.145691928782410e+001
 2.608430165421336e+000	 1.736025571900472e+000	 1.145202728167938e+001
 2.589275263636230e+000	 1.764467648259312e+000	 1.144829097054076e+001
 2.569790075552225e+000	 1.792727330205412e+000	 1.144805709139640e+001
 2.549977154652176e+000	 1.820798935610175e+000	 1.145386816917815e+001
 2.332978600893775e+000	 1.665852160868178e+000	 1.166412594717317e+001
 2.314554334913665e+000	 1.691357693984630e+000	 1.165351897074909e+001
 2.295835247520404e+000	 1.716680885717582e+000	 1.163536753437737e+001
 2.276824022517764e+000	 1.741816671372895e+000	 1.161145314585917e+001
 2.257523458769129e+000	 1.766760038549538e+000	 1.158358957111786e+001
 2.237936468933870e+000	 1.791506030387907e+000	 1.155360929643655e+001
 2.218066078094256e+000	 1.816049748781705e+000	 1.152334942858469e+001
 2.197915422274171e+000	 1.840386357549124e+000	 1.149463712772663e+001
 2.177487746850985e+000	 1.864511085559068e+000	 1.146927467268626e+001
 2.156786404862220e+000	 1.888419229808245e+000	 1.144902426212516e+001
 2.135814855208781e+000	 1.912106158445013e+000	 1.143559265843588e+001
 2.354678456269270e+000	 1.681346838342176e+000	 1.164278238434895e+001
 2.336082819704505e+000	 1.707089607402158e+000	 1.163235473803469e+001
 2.317189619488917e+000	 1.732648339057221e+000	 1.161442650307166e+001
 2.298001564389259e+000	 1.758017921504729e+000	 1.159071982931372e+001
 2.278521479302110e+000	 1.783193295721556e+000	 1.156299205428688e+001
 2.258752303978484e+000	 1.808169458742603e+000	 1.153302154288639e+001
 2.238697091637988e+000	 1.832941466902574e+000	 1.150259292921485e+001
 2.218359007473746e+000	 1.857504439036638e+000	 1.147348186057539e+001
 2.197741327049500e+000	 1.881853559635735e+000	 1.144743934858393e+001
 2.176847434590536e+000	 1.905984081952292e+000	 1.142617583656999e+001
 2.155680821170189e+000	 1.929891331052193e+000	 1.141134509586575e+001
 2.376378311644662e+000	 1.696841515816308e+000	 1.162208992844050e+001
 2.357611304495277e+000	 1.722821520819784e+000	 1.161201981131089e+001
 2.338543991457386e+000	 1.748615792396929e+000	 1.159446038507279e+001
 2.319179106260727e+000	 1.774219171636610e+000	 1.157104459051886e+001
 2.299519499835070e+000	 1.799626552893600e+000	 1.154344287189356e+001
 2.279568139023080e+000	 1.824832887097313e+000	 1.151334841231485e+001
 2.259328105181699e+000	 1.849833185023448e+000	 1.148246173563243e+001
 2.238802592673292e+000	 1.874622520524149e+000	 1.145247478000066e+001
 2.217994907247979e+000	 1.899196033712393e+000	 1.142505455365988e+001
 2.196908464318808e+000	 1.923548934096328e+000	 1.140182648785961e+001
 2.175546787131546e+000	 1.947676503659357e+000	 1.138435760547283e+001
 2.398078167020021e+000	 1.712336193290541e+000	 1.160170727110151e+001
 2.379139789286040e+000	 1.738553434237484e+000	 1.159222135009677e+001
 2.359898363425856e+000	 1.764583245736689e+000	 1.157520555667012e+001
 2.340356648132196e+000	 1.790420421768526e+000	 1.155217486966961e+001
 2.320517520368025e+000	 1.816059810065664e+000	 1.152468350371244e+001
 2.300383974067659e+000	 1.841496315452033e+000	 1.149430955617797e+001
 2.279959118725378e+000	 1.866724903144321e+000	 1.146263898489030e+001
 2.259246177872786e+000	 1.891740602011650e+000	 1.143124902717703e+001
 2.238248487446389e+000	 1.916538507789036e+000	 1.140169117648702e+001
 2.216969494046992e+000	 1.941113786240339e+000	 1.137547383741979e+001
 2.195412753092804e+000	 1.965461676266487e+000	 1.135404478383496e+001
 2.419778022395412e+000	 1.727830870764843e+000	 1.158136544169048e+001
 2.400668274076846e+000	 1.754285347655232e+000	 1.157273568132558e+001
 2.381252735394372e+000	 1.780550699076483e+000	 1.155646489747726e+001
 2.361534190003699e+000	 1.806621671900461e+000	 1.153392242944532e+001
 2.341515540900994e+000	 1.832493067237741e+000	 1.150651803111185e+001
 2.321199809112225e+000	 1.858159743806755e+000	 1.147568594292471e+001
 2.300590132269012e+000	 1.883616621265188e+000	 1.144286825868825e+001
 2.279689763072207e+000	 1.908858683499138e+000	 1.140949770341714e+001
 2.258502067644694e+000	 1.933880981865654e+000	 1.137697994428725e+001
 2.237030523775047e+000	 1.958678638384313e+000	 1.134667556163209e+001
 2.215278719053913e+000	 1.983246848873568e+000	 1.131988181094181e+001
 2.441477877770901e+000	 1.743325548239177e+000	 1.156086638211099e+001
 2.422196758867754e+000	 1.770017261073006e+000	 1.155340688415796e+001
 2.402607107362975e+000	 1.796518152416293e+000	 1.153810635947881e+001
 2.382711731875265e+000	 1.822822922032409e+000	 1.151616188409255e+001
 2.362513561433991e+000	 1.848926324409820e+000	 1.148881160354698e+001
 2.342015644156779e+000	 1.874823172161472e+000	 1.145731824087019e+001
 2.321221145812591e+000	 1.900508339386042e+000	 1.142295186322121e+001
 2.300133348271529e+000	 1.925976764986603e+000	 1.138697202923367e+001
 2.278755647842859e+000	 1.951223455942237e+000	 1.135060944511590e+001
 2.257091553502928e+000	 1.976243490528240e+000	 1.131504726273335e+001
 2.235144685014823e+000	 2.001032021480581e+000	 1.128142567022031e+001
 2.463177733146556e+000	 1.758820225713512e+000	 1.154008153773649e+001
 2.443725243658818e+000	 1.785749174490779e+000	 1.153414538756411e+001
 2.423961479331709e+000	 1.812485605756102e+000	 1.152006154689684e+001
 2.403889273746924e+000	 1.839024172164353e+000	 1.149882923866952e+001
 2.383511581967032e+000	 1.865359581581894e+000	 1.147148891577129e+001
 2.362831479201324e+000	 1.891486600516179e+000	 1.143910521348481e+001
 2.341852159356105e+000	 1.917400057506879e+000	 1.140274912420018e+001
 2.320576933470729e+000	 1.943094846474039e+000	 1.136347952231467e+001
 2.299009228040851e+000	 1.968565930018779e+000	 1.132232417359928e+001
 2.277152583230591e+000	 1.993808342672106e+000	 1.128026036873049e+001
 2.255010650975482e+000	 2.018817194087512e+000	 1.124603034313882e+001
 2.484877588522444e+000	 1.774314903187811e+000	 1.151895046343743e+001
 2.465253728450097e+000	 1.801481087908528e+000	 1.151492657989490e+001
 2.445315851300619e+000	 1.828453059095895e+000	 1.150232430621456e+001
 2.425066815618707e+000	 1.855225422296282e+000	 1.148192043782989e+001
 2.404509602500137e+000	 1.881792838753955e+000	 1.145453269511121e+001
 2.383647314245862e+000	 1.908150028870869e+000	 1.142100212633934e+001
 2.362483172899540e+000	 1.934291775627691e+000	 1.138217469611942e+001
 2.341020518669782e+000	 1.960212927961440e+000	 1.133888219325597e+001
 2.319262808238635e+000	 1.985908404095268e+000	 1.129192259878705e+001
 2.297213612957994e+000	 2.011373194815898e+000	 1.124494137597937e+001
 2.274876616935843e+000	 2.036602366694342e+000	 1.121961305285614e+001
 2.506577443898632e+000	 1.789809580662045e+000	 1.149747944379447e+001
 2.486782213241643e+000	 1.817213001326227e+000	 1.149578942971526e+001
 2.466670223269747e+000	 1.844420512435650e+000	 1.148494932574304e+001
 2.446244357490642e+000	 1.871426672428185e+000	 1.146548992356788e+001
 2.425507623033318e+000	 1.898226095925992e+000	 1.143798219819402e+001
 2.404463149290396e+000	 1.924813457225537e+000	 1.140301916500023e+001
 2.383114186442888e+000	 1.951183493748474e+000	 1.136119688490604e+001
 2.361464103868668e+000	 1.977331009448800e+000	 1.131309475797413e+001
 2.339516388436177e+000	 2.003250878171698e+000	 1.125949543237587e+001
 2.317274642685094e+000	 2.028938046959605e+000	 1.121898347970047e+001
 2.294742582895855e+000	 2.054387539301056e+000	 1.120194941911418e+001
 2.528277299275187e+000	 1.805304258136177e+000	 1.147574012664648e+001
 2.508310698033515e+000	 1.832944914743853e+000	 1.147683511722319e+001
 2.488024595239139e+000	 1.860387965775354e+000	 1.146805074415631e+001
 2.467421899362762e+000	 1.887627922560051e+000	 1.144964920138695e+001
 2.446505643566593e+000	 1.914659353098000e+000	 1.142193171656115e+001
 2.425278984334928e+000	 1.941476885580175e+000	 1.138521986321706e+001
 2.403745199986137e+000	 1.968075211869223e+000	 1.133983598314789e+001
 2.381907689067360e+000	 1.994449090936111e+000	 1.128608286579790e+001
 2.359769968633442e+000	 2.020593352248059e+000	 1.123387743971640e+001
 2.337335672411846e+000	 2.046502899103216e+000	 1.120314565906831e+001
 2.314608548855468e+000	 2.072172711907637e+000	 1.119285285081493e+001
 2.549977154652176e+000	 1.820798935610175e+000	 1.145386816917815e+001
 2.529839182825770e+000	 1.848676828161380e+000	 1.145822567562339e+001
 2.509378967208838e+000	 1.876355419114987e+000	 1.145180076746143e+001
 2.488599441235097e+000	 1.903829172691866e+000	 1.143456541438952e+001
 2.467503664099979e+000	 1.931092610269970e+000	 1.140652909063811e+001
 2.446094819379461e+000	 1.958140313934778e+000	 1.136771954078875e+001
 2.424376213529278e+000	 1.984966929989930e+000	 1.131816261715071e+001
 2.402351274265838e+000	 2.011567172423368e+000	 1.126094433098463e+001
 2.380023548830396e+000	 2.037935826324343e+000	 1.121958732834300e+001
 2.357396702138208e+000	 2.064067751246718e+000	 1.119736346053618e+001
 2.334474514814633e+000	 2.089957884514068e+000	 1.119217295154808e+001
 2.135814855208781e+000	 1.912106158445013e+000	 1.143559265843588e+001
 2.114579866454582e+000	 1.935563812195057e+000	 1.142225877039865e+001
 2.093081977940697e+000	 1.958791283446953e+000	 1.139959019114468e+001
 2.071324954503008e+000	 1.981784175181508e+000	 1.136505250260152e+001
 2.049312658562491e+000	 2.004538173005029e+000	 1.131636556203094e+001
 2.027049047843805e+000	 2.027049047843805e+000	 1.126448978068000e+001
 2.004538173005028e+000	 2.049312658562491e+000	 1.121211300130443e+001
 1.981784175181507e+000	 2.071324954503007e+000	 1.115903319269241e+001
 1.958791283446953e+000	 2.093081977940696e+000	 1.111030837609527e+001
 1.935563812195057e+000	 2.114579866454581e+000	 1.106342864981023e+001
 1.912106158445013e+000	 2.135814855208781e+000	 1.101575350260066e+001
 2.155680821170189e+000	 1.929891331052193e+000	 1.141134509586576e+001
 2.134248318309155e+000	 1.953567172698978e+000	 1.139550979145503e+001
 2.112550470365117e+000	 1.977010690839198e+000	 1.136873303751405e+001
 2.090591077192041e+000	 2.000217447555418e+000	 1.132874672504801e+001
 2.068374037136653e+000	 2.023183088324237e+000	 1.128435568360723e+001
 2.045903344735822e+000	 2.045903344735822e+000	 1.124287870713555e+001
 2.023183088324236e+000	 2.068374037136653e+000	 1.120026263831665e+001
 2.000217447555418e+000	 2.090591077192041e+000	 1.115238719422219e+001
 1.977010690839198e+000	 2.112550470365117e+000	 1.110197829004738e+001
 1.953567172698979e+000	 2.134248318309154e+000	 1.105313675952836e+001
 1.929891331052193e+000	 2.155680821170189e+000	 1.100347990940487e+001
 2.175546787131546e+000	 1.947676503659357e+000	 1.138435760547283e+001
 2.153916770163674e+000	 1.971570533202878e+000	 1.136453371111695e+001
 2.132018962789484e+000	 1.995230098231414e+000	 1.133200883099603e+001
 2.109857199881020e+000	 2.018650719929293e+000	 1.129220386244497e+001
 2.087435415710766e+000	 2.041828003643404e+000	 1.125757987953472e+001
 2.064757641627792e+000	 2.064757641627792e+000	 1.122495505230028e+001
 2.041828003643404e+000	 2.087435415710766e+000	 1.119058552216037e+001
 2.018650719929294e+000	 2.109857199881020e+000	 1.115066415378239e+001
 1.995230098231415e+000	 2.132018962789484e+000	 1.110163054779925e+001
 1.971570533202879e+000	 2.153916770163673e+000	 1.104962322868951e+001
 1.947676503659357e+000	 2.175546787131546e+000	 1.099699998308463e+001
 2.195412753092804e+000	 1.965461676266487e+000	 1.135404478383496e+001
 2.173585222018086e+000	 1.989573893706733e+000	 1.132866492502080e+001
 2.151487455213741e+000	 2.013449505623575e+000	 1.129257087192637e+001
 2.129123322569894e+000	 2.037083992303101e+000	 1.126173922384728e+001
 2.106496794284778e+000	 2.060472918962490e+000	 1.123529717574012e+001
 2.083611938519672e+000	 2.083611938519672e+000	 1.120993029948638e+001
 2.060472918962490e+000	 2.106496794284777e+000	 1.118225422744876e+001
 2.037083992303101e+000	 2.129123322569893e+000	 1.114882566528170e+001
 2.013449505623575e+000	 2.151487455213741e+000	 1.110615357653519e+001
 1.989573893706733e+000	 2.173585222018086e+000	 1.105218608496383e+001
 1.965461676266487e+000	 2.195412753092803e+000	 1.099564181348479e+001
 2.215278719053913e+000	 1.983246848873568e+000	 1.131988181094181e+001
 2.193253673872338e+000	 2.007577254210522e+000	 1.128854894236450e+001
 2.170955947637836e+000	 2.031668913015651e+000	 1.125968482311039e+001
 2.148389445258608e+000	 2.055517264676805e+000	 1.123671968613098e+001
 2.125558172858639e+000	 2.079117834281456e+000	 1.121681747744777e+001
 2.102466235411413e+000	 2.102466235411414e+000	 1.119706698001236e+001
 2.079117834281456e+000	 2.125558172858639e+000	 1.117449223265885e+001
 2.055517264676805e+000	 2.148389445258607e+000	 1.114606318851425e+001
 2.031668913015651e+000	 2.170955947637836e+000	 1.110870654110722e+001
 2.007577254210522e+000	 2.193253673872338e+000	 1.105931664540647e+001
 1.983246848873568e+000	 2.215278719053913e+000	 1.099870430861118e+001
 2.235144685014823e+000	 2.001032021480581e+000	 1.128142567022031e+001
 2.212922125726377e+000	 2.025580614714222e+000	 1.125417104146873e+001
 2.190424440061712e+000	 2.049888320407614e+000	 1.123332041869890e+001
 2.167655567947108e+000	 2.073950537050372e+000	 1.121656059346050e+001
 2.144619551432299e+000	 2.097762749600260e+000	 1.120149967939658e+001
 2.121320532302971e+000	 2.121320532302971e+000	 1.118567679823403e+001
 2.097762749600260e+000	 2.144619551432299e+000	 1.116657207529860e+001
 2.073950537050373e+000	 2.167655567947108e+000	 1.114161687212949e+001
 2.049888320407615e+000	 2.190424440061711e+000	 1.110820418208750e+001
 2.025580614714222e+000	 2.212922125726375e+000	 1.106369911381212e+001
 2.001032021480582e+000	 2.235144685014823e+000	 1.100544938699847e+001
 2.255010650975482e+000	 2.018817194087512e+000	 1.124603034313882e+001
 2.232590577580147e+000	 2.043583975217812e+000	 1.122749749675963e+001
 2.209892932485317e+000	 2.068107727799437e+000	 1.121300568129090e+001
 2.186921690635343e+000	 2.092383809423767e+000	 1.120072391969342e+001
 2.163680930005709e+000	 2.116407664918862e+000	 1.118874982806296e+001
 2.140174829194301e+000	 2.140174829194301e+000	 1.117511881031865e+001
 2.116407664918862e+000	 2.163680930005708e+000	 1.115781356179490e+001
 2.092383809423768e+000	 2.186921690635342e+000	 1.113477380700872e+001
 2.068107727799437e+000	 2.209892932485315e+000	 1.110390619513418e+001
 2.043583975217813e+000	 2.232590577580146e+000	 1.106309427565021e+001
 2.018817194087512e+000	 2.255010650975482e+000	 1.101020847624541e+001
 2.274876616935843e+000	 2.036602366694342e+000	 1.121961305285613e+001
 2.252259029433597e+000	 2.061587335721269e+000	 1.120817639542126e+001
 2.229361424908593e+000	 2.086327135191091e+000	 1.119831260480816e+001
 2.206187813323257e+000	 2.110817081796956e+000	 1.118871647716090e+001
 2.182742308578817e+000	 2.135052580237221e+000	 1.117801933270940e+001
 2.159029126085356e+000	 2.159029126085355e+000	 1.116479765347554e+001
 2.135052580237221e+000	 2.182742308578817e+000	 1.114758202875553e+001
 2.110817081796957e+000	 2.206187813323257e+000	 1.112486633132765e+001
 2.086327135191092e+000	 2.229361424908593e+000	 1.109511704553000e+001
 2.061587335721270e+000	 2.252259029433597e+000	 1.105678266725790e+001
 2.036602366694342e+000	 2.274876616935842e+000	 1.100830309555188e+001
 2.294742582895855e+000	 2.054387539301056e+000	 1.120194941911418e+001
 2.271927481286673e+000	 2.079590696224573e+000	 1.119589684576447e+001
 2.248829917331490e+000	 2.104546542582549e+000	 1.118885541936345e+001
 2.225453936010799e+000	 2.129250354169906e+000	 1.118008816901355e+001
 2.201803687151573e+000	 2.153697495555298e+000	 1.116880322230167e+001
 2.177883422976089e+000	 2.177883422976089e+000	 1.115416182258801e+001
 2.153697495555298e+000	 2.201803687151573e+000	 1.113528665249297e+001
 2.129250354169905e+000	 2.225453936010799e+000	 1.111127038417128e+001
 2.104546542582549e+000	 2.248829917331490e+000	 1.108118437509666e+001
 2.079590696224573e+000	 2.271927481286672e+000	 1.104408742695314e+001
 2.054387539301056e+000	 2.294742582895855e+000	 1.099903452485593e+001
 2.314608548855468e+000	 2.072172711907637e+000	 1.119285285081493e+001
 2.291595933139321e+000	 2.097594056727699e+000	 1.119038730771760e+001
 2.268298409753951e+000	 2.122765949973781e+000	 1.118428889409570e+001
 2.244720058697916e+000	 2.147683626542580e+000	 1.117443028251571e+001
 2.220865065723928e+000	 2.172342410873053e+000	 1.116063844553661e+001
 2.196737719866457e+000	 2.196737719866457e+000	 1.114270199139542e+001
 2.172342410873053e+000	 2.220865065723928e+000	 1.112037880390998e+001
 2.147683626542579e+000	 2.244720058697916e+000	 1.109340390478526e+001
 2.122765949973781e+000	 2.268298409753950e+000	 1.106149745457719e+001
 2.097594056727699e+000	 2.291595933139320e+000	 1.102437280740977e+001
 2.072172711907637e+000	 2.314608548855468e+000	 1.098174453417111e+001
 2.334474514814633e+000	 2.089957884514068e+000	 1.119217295154808e+001
 2.311264384991489e+000	 2.115597417230627e+000	 1.119141395536579e+001
 2.287766902175921e+000	 2.140985357364761e+000	 1.118430667571138e+001
 2.263986181384555e+000	 2.166116898914945e+000	 1.117137382084784e+001
 2.239926444295831e+000	 2.190987326190443e+000	 1.115310221141483e+001
 2.215592016756413e+000	 2.215592016756413e+000	 1.112994937557478e+001
 2.190987326190443e+000	 2.239926444295830e+000	 1.110235044604506e+001
 2.166116898914944e+000	 2.263986181384554e+000	 1.107072527474408e+001
 2.140985357364761e+000	 2.287766902175921e+000	 1.103548567877892e+001
 2.115597417230628e+000	 2.311264384991487e+000	 1.099704273030962e+001
 2.089957884514069e+000	 2.334474514814633e+000	 1.095581400246146e+001
 1.912106158445013e+000	 2.135814855208781e+000	 1.101575350260066e+001
 1.888419229808246e+000	 2.156786404862220e+000	 1.096330962903995e+001
 1.864511085559069e+000	 2.177487746850984e+000	 1.090485261901928e+001
 1.840386357549125e+000	 2.197915422274170e+000	 1.084197922260262e+001
 1.816049748781706e+000	 2.218066078094255e+000	 1.077637820626225e+001
 1.791506030387907e+000	 2.237936468933869e+000	 1.070980466227252e+001
 1.766760038549539e+000	 2.257523458769130e+000	 1.064405439624140e+001
 1.741816671372895e+000	 2.276824022517763e+000	 1.058093861306877e+001
 1.716680885717583e+000	 2.295835247520403e+000	 1.052225911772171e+001
 1.691357693984631e+000	 2.314554334913665e+000	 1.046978424154677e+001
 1.665852160868178e+000	 2.332978600893775e+000	 1.042522569745183e+001
 1.929891331052193e+000	 2.155680821170189e+000	 1.100347990940487e+001
 1.905984081952293e+000	 2.176847434590535e+000	 1.094972912479569e+001
 1.881853559635735e+000	 2.197741327049500e+000	 1.089103094866479e+001
 1.857504439036639e+000	 2.218359007473745e+000	 1.082878933210802e+001
 1.832941466902575e+000	 2.238697091637989e+000	 1.076449799678853e+001
 1.808169458742604e+000	 2.258752303978483e+000	 1.069971347393571e+001
 1.783193295721556e+000	 2.278521479302110e+000	 1.063602823370512e+001
 1.758017921504731e+000	 2.298001564389258e+000	 1.057504413821405e+001
 1.732648339057222e+000	 2.317189619488916e+000	 1.051834644746223e+001
 1.707089607402158e+000	 2.336082819704504e+000	 1.046747860137187e+001
 1.681346838342176e+000	 2.354678456269269e+000	 1.042391799338295e+001
 1.947676503659357e+000	 2.175546787131546e+000	 1.099699998308463e+001
 1.923548934096328e+000	 2.196908464318807e+000	 1.094114648218726e+001
 1.899196033712394e+000	 2.217994907247979e+000	 1.088152405034545e+001
 1.874622520524149e+000	 2.238802592673291e+000	 1.081932933889885e+001
 1.849833185023449e+000	 2.259328105181699e+000	 1.075584679612698e+001
 1.824832887097314e+000	 2.279568139023079e+000	 1.069242037553234e+001
 1.799626552893600e+000	 2.299519499835069e+000	 1.063042534604147e+001
 1.774219171636611e+000	 2.319179106260726e+000	 1.057124045109801e+001
 1.748615792396930e+000	 2.338543991457385e+000	 1.051622065931220e+001
 1.722821520819785e+000	 2.357611304495277e+000	 1.046667074303552e+001
 1.696841515816308e+000	 2.376378311644662e+000	 1.042381991301235e+001
 1.965461676266487e+000	 2.195412753092803e+000	 1.099564181348479e+001
 1.941113786240340e+000	 2.216969494046992e+000	 1.093692165300960e+001
 1.916538507789037e+000	 2.238248487446389e+000	 1.087572641896683e+001
 1.891740602011652e+000	 2.259246177872787e+000	 1.081303196258167e+001
 1.866724903144322e+000	 2.279959118725377e+000	 1.074990023699034e+001
 1.841496315452034e+000	 2.300383974067659e+000	 1.068744960952715e+001
 1.816059810065666e+000	 2.320517520368024e+000	 1.062682528679280e+001
 1.790420421768526e+000	 2.340356648132196e+000	 1.056917011380375e+001
 1.764583245736690e+000	 2.359898363425856e+000	 1.051559600400187e+001
 1.738553434237484e+000	 2.379139789286038e+000	 1.046715625028019e+001
 1.712336193290541e+000	 2.398078167020021e+000	 1.042481895852684e+001
 1.983246848873568e+000	 2.215278719053913e+000	 1.099870430861118e+001
 1.958678638384314e+000	 2.237030523775047e+000	 1.093638147267682e+001
 1.933880981865654e+000	 2.258502067644693e+000	 1.087299520447302e+001
 1.908858683499138e+000	 2.279689763072207e+000	 1.080928806037637e+001
 1.883616621265188e+000	 2.300590132269011e+000	 1.074608728946840e+001
 1.858159743806755e+000	 2.321199809112224e+000	 1.068427367947431e+001
 1.832493067237742e+000	 2.341515540900993e+000	 1.062475052562525e+001
 1.806621671900462e+000	 2.361534190003698e+000	 1.056841299876518e+001
 1.780550699076483e+000	 2.381252735394371e+000	 1.051611818428474e+001
 1.754285347655233e+000	 2.400668274076845e+000	 1.046865605650589e+001
 1.727830870764843e+000	 2.419778022395412e+000	 1.042672164403546e+001
 2.001032021480582e+000	 2.235144685014823e+000	 1.100544938699847e+001
 1.976243490528240e+000	 2.257091553502927e+000	 1.093882668628025e+001
 1.951223455942238e+000	 2.278755647842859e+000	 1.087265710753893e+001
 1.925976764986604e+000	 2.300133348271528e+000	 1.080745339143205e+001
 1.900508339386043e+000	 2.321221145812590e+000	 1.074379689423662e+001
 1.874823172161473e+000	 2.342015644156779e+000	 1.068231985367209e+001
 1.848926324409821e+000	 2.362513561433990e+000	 1.062367282526805e+001
 1.822822922032409e+000	 2.382711731875265e+000	 1.056849254311341e+001
 1.796518152416294e+000	 2.402607107362975e+000	 1.051737049209293e+001
 1.770017261073007e+000	 2.422196758867753e+000	 1.047082247141131e+001
 1.743325548239177e+000	 2.441477877770901e+000	 1.042925941963408e+001
 2.018817194087512e+000	 2.255010650975482e+000	 1.101020847624541e+001
 1.993808342672107e+000	 2.277152583230591e+000	 1.094353902679998e+001
 1.968565930018780e+000	 2.299009228040850e+000	 1.087401532599532e+001
 1.943094846474039e+000	 2.320576933470727e+000	 1.080685543014485e+001
 1.917400057506880e+000	 2.341852159356104e+000	 1.074238464268292e+001
 1.891486600516180e+000	 2.362831479201323e+000	 1.068097671325663e+001
 1.865359581581895e+000	 2.383511581967032e+000	 1.062301965997518e+001
 1.839024172164353e+000	 2.403889273746923e+000	 1.056888204115000e+001
 1.812485605756104e+000	 2.423961479331708e+000	 1.051887997990406e+001
 1.785749174490780e+000	 2.443725243658819e+000	 1.047324523736881e+001
 1.758820225713511e+000	 2.463177733146556e+000	 1.043209462012950e+001
 2.036602366694342e+000	 2.274876616935842e+000	 1.100830309555188e+001
 2.011373194815899e+000	 2.297213612957994e+000	 1.094791524232140e+001
 1.985908404095269e+000	 2.319262808238634e+000	 1.087635654888548e+001
 1.960212927961441e+000	 2.341020518669782e+000	 1.080680022548253e+001
 1.934291775627692e+000	 2.362483172899539e+000	 1.074117950108501e+001
 1.908150028870870e+000	 2.383647314245862e+000	 1.067960074201836e+001
 1.881792838753955e+000	 2.404509602500136e+000	 1.062218067297127e+001
 1.855225422296283e+000	 2.425066815618706e+000	 1.056901097261532e+001
 1.828453059095895e+000	 2.445315851300618e+000	 1.052012366422721e+001
 1.801481087908530e+000	 2.465253728450096e+000	 1.047545761371756e+001
 1.774314903187812e+000	 2.484877588522445e+000	 1.043482643691554e+001
 2.054387539301056e+000	 2.294742582895855e+000	 1.099903452485593e+001
 2.028938046959606e+000	 2.317274642685093e+000	 1.094472860425281e+001
 2.003250878171699e+000	 2.339516388436176e+000	 1.087880049237518e+001
 1.977331009448801e+000	 2.361464103868666e+000	 1.080657930352786e+001
 1.951183493748475e+000	 2.383114186442887e+000	 1.073949057616879e+001
 1.924813457225538e+000	 2.404463149290395e+000	 1.067752295541288e+001
 1.898226095925993e+000	 2.425507623033318e+000	 1.062051417051875e+001
 1.871426672428186e+000	 2.446244357490642e+000	 1.056827136458414e+001
 1.844420512435651e+000	 2.466670223269747e+000	 1.052053475926180e+001
 1.817213001326228e+000	 2.486782213241643e+000	 1.047694248728153e+001
 1.789809580662045e+000	 2.506577443898633e+000	 1.043699691159842e+001
 2.072172711907637e+000	 2.314608548855468e+000	 1.098174453417111e+001
 2.046502899103217e+000	 2.337335672411845e+000	 1.093274480168343e+001
 2.020593352248060e+000	 2.359769968633441e+000	 1.087478619022182e+001
 1.994449090936112e+000	 2.381907689067360e+000	 1.080547661064413e+001
 1.968075211869223e+000	 2.403745199986136e+000	 1.073661391956127e+001
 1.941476885580175e+000	 2.425278984334927e+000	 1.067405556641065e+001
 1.914659353098002e+000	 2.446505643566593e+000	 1.061735365040651e+001
 1.887627922560052e+000	 2.467421899362762e+000	 1.056602418496670e+001
 1.860387965775354e+000	 2.488024595239138e+000	 1.051950893891683e+001
 1.832944914743854e+000	 2.508310698033516e+000	 1.047713850753764e+001
 1.805304258136177e+000	 2.528277299275187e+000	 1.043809695006446e+001
 2.089957884514069e+000	 2.334474514814633e+000	 1.095581400246146e+001
 2.064067751246719e+000	 2.357396702138207e+000	 1.091132342613087e+001
 2.037935826324343e+000	 2.380023548830395e+000	 1.086069079904477e+001
 2.011567172423368e+000	 2.402351274265837e+000	 1.080073181342199e+001
 1.984966929989931e+000	 2.424376213529276e+000	 1.073183936882150e+001
 1.958140313934778e+000	 2.446094819379460e+000	 1.066849868599225e+001
 1.931092610269971e+000	 2.467503664099978e+000	 1.061201436280963e+001
 1.903829172691867e+000	 2.488599441235097e+000	 1.056160576573397e+001
 1.876355419114987e+000	 2.509378967208837e+000	 1.051641062550062e+001
 1.848676828161382e+000	 2.529839182825770e+000	 1.047544624496526e+001
 1.820798935610175e+000	 2.549977154652175e+000	 1.043757235577264e+001
 1.665852160868178e+000	 2.332978600893775e+000	 1.042522569745183e+001
 1.640169399520067e+000	 2.351105477207142e+000	 1.038068271664167e+001
 1.614314566612346e+000	 2.368932510188156e+000	 1.032813305636048e+001
 1.588292860734559e+000	 2.386457363650868e+000	 1.026894776728629e+001
 1.562109519609821e+000	 2.403677820370209e+000	 1.020434781163256e+001
 1.535769816732273e+000	 2.420591782792370e+000	 1.013538905518032e+001
 1.509279057994053e+000	 2.437197273632522e+000	 1.006294919105011e+001
 1.482642578306112e+000	 2.453492436359996e+000	 9.987716704555714e+000
 1.455865738217201e+000	 2.469475535571229e+000	 9.910181971095472e+000
 1.428953920535296e+000	 2.485144957250983e+000	 9.830630561028734e+000
 1.401912526955667e+000	 2.500499208922499e+000	 9.749138807018243e+000
 1.681346838342176e+000	 2.354678456269269e+000	 1.042391799338295e+001
 1.655425192588333e+000	 2.372973937041403e+000	 1.037942739492313e+001
 1.629329874776701e+000	 2.390966785532879e+000	 1.032609630924618e+001
 1.603066131850734e+000	 2.408654643828038e+000	 1.026571949006252e+001
 1.576639250251452e+000	 2.426035274078606e+000	 1.019993121854266e+001
 1.550054552523623e+000	 2.443106559220669e+000	 1.013018842033885e+001
 1.523317393911351e+000	 2.459866503577958e+000	 1.005775584419867e+001
 1.496433158947471e+000	 2.476313233351541e+000	 9.983693420931145e+000
 1.469407258041089e+000	 2.492444996996237e+000	 9.908845903031356e+000
 1.442245124067568e+000	 2.508260165484270e+000	 9.833834866147315e+000
 1.414952208965249e+000	 2.523757232456807e+000	 9.759053133952627e+000
 1.696841515816308e+000	 2.376378311644662e+000	 1.042381991301235e+001
 1.670680985656779e+000	 2.394842396875518e+000	 1.037914324831136e+001
 1.644345182941285e+000	 2.413001060877398e+000	 1.032486142287695e+001
 1.617839402967188e+000	 2.430851924004946e+000	 1.026313453046993e+001
 1.591168980893410e+000	 2.448392727786679e+000	 1.019595131021925e+001
 1.564339288315340e+000	 2.465621335648580e+000	 1.012511041495444e+001
 1.537355729829050e+000	 2.482535733522947e+000	 1.005220387566333e+001
 1.510223739589258e+000	 2.499134030342586e+000	 9.978602890519356e+000
 1.482948777865413e+000	 2.515414458420705e+000	 9.905446047357847e+000
 1.455536327600268e+000	 2.531375373716985e+000	 9.833630068200225e+000
 1.427991890975229e+000	 2.547015255990533e+000	 9.763803143606474e+000
 1.712336193290541e+000	 2.398078167020021e+000	 1.042481895852684e+001
 1.685936778725359e+000	 2.416710856709561e+000	 1.037981614893216e+001
 1.659360491106039e+000	 2.435035336221800e+000	 1.032451571851359e+001
 1.632612674083848e+000	 2.453049204181680e+000	 1.026138677692311e+001
 1.605698711535611e+000	 2.470750181494515e+000	 1.019271566211078e+001
 1.578624024107333e+000	 2.488136112076196e+000	 1.012058538107414e+001
 1.551394065747053e+000	 2.505204963467584e+000	 1.004685738618680e+001
 1.524014320231365e+000	 2.521954827333227e+000	 9.973155825518685e+000
 1.496490297690064e+000	 2.538383919844723e+000	 9.900854384843958e+000
 1.468827531133288e+000	 2.554490581949219e+000	 9.831065817550915e+000
 1.441031572985507e+000	 2.570273279523759e+000	 9.764634236598338e+000
 1.727830870764843e+000	 2.419778022395412e+000	 1.042672164403546e+001
 1.701192571794027e+000	 2.438579316543608e+000	 1.038134459747421e+001
 1.674375799270905e+000	 2.457069611566164e+000	 1.032505287818105e+001
 1.647385945200647e+000	 2.475246484358327e+000	 1.026057029193695e+001
 1.620228442177975e+000	 2.493107635202212e+000	 1.019042588337011e+001
 1.592908759899512e+000	 2.510650888503613e+000	 1.011693156495522e+001
 1.565432401665258e+000	 2.527874193411962e+000	 1.004216222620623e+001
 1.537804900873685e+000	 2.544775624323554e+000	 9.967938471752298e+000
 1.510031817514933e+000	 2.561353381268382e+000	 9.895812115075600e+000
 1.482118734666521e+000	 2.577605790181059e+000	 9.827054531951953e+000
 1.454071254995983e+000	 2.593531303056567e+000	 9.762647954275078e+000
 1.743325548239177e+000	 2.441477877770901e+000	 1.042925941963408e+001
 1.716448364862740e+000	 2.460447776377734e+000	 1.038354554582307e+001
 1.689391107435829e+000	 2.479103886910575e+000	 1.032637866147493e+001
 1.662159216317516e+000	 2.497443764534975e+000	 1.026068492183444e+001
 1.634758172820420e+000	 2.515465088909858e+000	 1.018918312130568e+001
 1.607193495691781e+000	 2.533165664930923e+000	 1.011436052119600e+001
 1.579470737583563e+000	 2.550543423356175e+000	 1.003845130767354e+001
 1.551595481516112e+000	 2.567596421313664e+000	 9.963417839238996e+000
 1.523573337339911e+000	 2.584322842691774e+000	 9.890934819854413e+000
 1.495409938199862e+000	 2.600720998412591e+000	 9.822376509835305e+000
 1.467110937006559e+000	 2.616789326589043e+000	 9.758807061905191e+000
 1.758820225713511e+000	 2.463177733146556e+000	 1.043209462012950e+001
 1.731704157931453e+000	 2.482316236212017e+000	 1.038616023906599e+001
 1.704406415600752e+000	 2.501138162255115e+000	 1.032831663655794e+001
 1.676932487434384e+000	 2.519641044711714e+000	 1.026164191543240e+001
 1.649287903462865e+000	 2.537822542617543e+000	 1.018899356942936e+001
 1.621478231484052e+000	 2.555680441358218e+000	 1.011298251477738e+001
 1.593509073501869e+000	 2.573212653300319e+000	 1.003594990766080e+001
 1.565386062158539e+000	 2.590417218303646e+000	 9.959946917843144e+000
 1.537114857164888e+000	 2.607292304114988e+000	 9.886717604259669e+000
 1.508701141733201e+000	 2.623836206643903e+000	 9.817685013005423e+000
 1.480150619017134e+000	 2.640047350121267e+000	 9.753940592038005e+000
 1.774314903187812e+000	 2.484877588522445e+000	 1.043482643691554e+001
 1.746959951000122e+000	 2.504184696046532e+000	 1.038886007568418e+001
 1.719421723765620e+000	 2.523172437599867e+000	 1.033061392447853e+001
 1.691705758551183e+000	 2.541838324888631e+000	 1.026326955115595e+001
 1.663817634105229e+000	 2.560179996325363e+000	 1.018977397888114e+001
 1.635762967276230e+000	 2.578195217785594e+000	 1.011281192114263e+001
 1.607547409420073e+000	 2.595881883244487e+000	 1.003478096424949e+001
 1.579176642800860e+000	 2.613238015293599e+000	 9.957769878915084e+000
 1.550656376989756e+000	 2.630261765538116e+000	 9.883540216738645e+000
 1.521992345266435e+000	 2.646951414875085e+000	 9.813511320605366e+000
 1.493190301027610e+000	 2.663305373653324e+000	 9.748748850463898e+000
 1.789809580662045e+000	 2.506577443898633e+000	 1.043699691159842e+001
 1.762215744068701e+000	 2.526053155881353e+000	 1.039125248482909e+001
 1.734437031930373e+000	 2.545206712944916e+000	 1.033294695600445e+001
 1.706479029667843e+000	 2.564035605065814e+000	 1.026531877207050e+001
 1.678347364747429e+000	 2.582537450033406e+000	 1.019135717302628e+001
 1.650047703068223e+000	 2.600709994213144e+000	 1.011377262443495e+001
 1.621585745338076e+000	 2.618551113188772e+000	 1.003497036517374e+001
 1.592967223442967e+000	 2.636058812283610e+000	 9.957027263771575e+000
 1.564197896814408e+000	 2.653231226961252e+000	 9.881672149496154e+000
 1.535283548799454e+000	 2.670066623106220e+000	 9.810330021241255e+000
 1.506229983037888e+000	 2.686563397185296e+000	 9.746053637477250e+000
 1.805304258136177e+000	 2.528277299275187e+000	 1.043809695006446e+001
 1.777471537137146e+000	 2.547921615716559e+000	 1.039288681965790e+001
 1.749452340094956e+000	 2.567240988290342e+000	 1.033492724021984e+001
 1.721252300784297e+000	 2.586232885243353e+000	 1.026746882835657e+001
 1.692877095389386e+000	 2.604894903741769e+000	 1.019349756503422e+001
 1.664332438859940e+000	 2.623224770640964e+000	 1.011570341400318e+001
 1.635624081255776e+000	 2.641220343133271e+000	 1.003645222965148e+001
 1.606757804084753e+000	 2.658879609273775e+000	 9.957761159806513e+000
 1.577739416638731e+000	 2.676200688384482e+000	 9.881685643959852e+000
 1.548574752332155e+000	 2.693181831337400e+000	 9.811582223407092e+000
 1.519269665047868e+000	 2.709821420717267e+000	 9.748971175368837e+000
 1.820798935610175e+000	 2.549977154652175e+000	 1.043757235577264e+001
 1.792727330205413e+000	 2.569790075552225e+000	 1.039326026577029e+001
 1.764467648259312e+000	 2.589275263636230e+000	 1.033610714418408e+001
 1.736025571900473e+000	 2.608430165421336e+000	 1.026933292678303e+001
 1.707406826031019e+000	 2.627252357450538e+000	 1.019587667826177e+001
 1.678617174651290e+000	 2.645739547069145e+000	 1.011836337927846e+001
 1.649662417173073e+000	 2.663889573078076e+000	 1.003907418381025e+001
 1.620548384726113e+000	 2.681700406264189e+000	 9.960808494905113e+000
 1.591280936462619e+000	 2.699170149807901e+000	 9.886657301654275e+000
 1.561865955864427e+000	 2.716297039568711e+000	 9.817968691856395e+000
 1.532309347057451e+000	 2.733079444249319e+000	 9.755983329024733e+000
 1.401912526955667e+000	 2.500499208922499e+000	 9.749138807018241e+000
 1.374751058621742e+000	 2.515534688282687e+000	 9.665030862852204e+000
 1.347470897317242e+000	 2.530252474887798e+000	 9.574065330897421e+000
 1.320077480299228e+000	 2.544651443212335e+000	 9.475026907878673e+000
 1.292576250311315e+000	 2.558730588716131e+000	 9.389964476108425e+000
 1.264972652307893e+000	 2.572489027453052e+000	 9.318528750043395e+000
 1.237272130208985e+000	 2.585925995576417e+000	 9.255888168109028e+000
 1.209480123689432e+000	 2.599040848742956e+000	 9.197714754938918e+000
 1.181602065005947e+000	 2.611833061417271e+000	 9.140223968545454e+000
 1.153643375865509e+000	 2.624302226078948e+000	 9.080208064985079e+000
 1.125609464338406e+000	 2.636448052334516e+000	 9.015062824612153e+000
 1.414952208965249e+000	 2.523757232456807e+000	 9.759053133952625e+000
 1.387538102251040e+000	 2.538932562104461e+000	 9.684317583633433e+000
 1.360004198561121e+000	 2.553787244024815e+000	 9.605140951271073e+000
 1.332355985726399e+000	 2.568320142223471e+000	 9.515231543247975e+000
 1.304598957115368e+000	 2.582530242816688e+000	 9.428763159660006e+000
 1.276738608327861e+000	 2.596416653636446e+000	 9.357648934938615e+000
 1.248780433919722e+000	 2.609978603731263e+000	 9.296312791167368e+000
 1.220729924162125e+000	 2.623215442764610e+000	 9.239737401812086e+000
 1.192592561839121e+000	 2.636126640312911e+000	 9.183507904038814e+000
 1.164373819086897e+000	 2.648711785065264e+000	 9.123848653282042e+000
 1.136079154278112e+000	 2.660970583927155e+000	 9.057652851444924e+000
 1.427991890975229e+000	 2.547015255990533e+000	 9.763803143606475e+000
 1.400325145880683e+000	 2.562330435925657e+000	 9.696265126201503e+000
 1.372537499805272e+000	 2.577322013161275e+000	 9.626392225300242e+000
 1.344634491153756e+000	 2.591988841234090e+000	 9.547168784838739e+000
 1.316621663919514e+000	 2.606329896916779e+000	 9.458578172023143e+000
 1.288504564347823e+000	 2.620344279819432e+000	 9.383597579099163e+000
 1.260288737630353e+000	 2.634031211885771e+000	 9.319303433884295e+000
 1.231979724634619e+000	 2.647390036786004e+000	 9.260086370804093e+000
 1.203583058672012e+000	 2.660420219208370e+000	 9.200999919222429e+000
 1.175104262307934e+000	 2.673121344051484e+000	 9.138723010045158e+000
 1.146548844217417e+000	 2.685493115519782e+000	 9.075488528513944e+000
 1.441031572985507e+000	 2.570273279523759e+000	 9.764634236598338e+000
 1.413112189510585e+000	 2.585728309746352e+000	 9.702326553975514e+000
 1.385070801049629e+000	 2.600856782297251e+000	 9.639482368365487e+000
 1.356912996581255e+000	 2.615657540244251e+000	 9.568497720458693e+000
 1.328644370723729e+000	 2.630129551016453e+000	 9.482172009799619e+000
 1.300270520367780e+000	 2.644271906002057e+000	 9.399548512059326e+000
 1.271797041340905e+000	 2.658083820039973e+000	 9.328410673655437e+000
 1.243229525106963e+000	 2.671564630807157e+000	 9.263070618945474e+000
 1.214573555504690e+000	 2.684713798103660e+000	 9.203202263158055e+000
 1.185834705528706e+000	 2.697530903037604e+000	 9.146647125469823e+000
 1.157018534156420e+000	 2.710015647112380e+000	 9.090729055732128e+000
 1.454071254995983e+000	 2.593531303056567e+000	 9.762647954275078e+000
 1.425899233140657e+000	 2.609126183566624e+000	 9.703804508737798e+000
 1.397604102294122e+000	 2.624391551432814e+000	 9.645918029295965e+000
 1.369191502008848e+000	 2.639326239254022e+000	 9.580906266417983e+000
 1.340667077527991e+000	 2.653929205115770e+000	 9.500506848480974e+000
 1.312036476387732e+000	 2.668199532184362e+000	 9.408369275550713e+000
 1.283305345051404e+000	 2.682136428193909e+000	 9.330464954713543e+000
 1.254479325579207e+000	 2.695739224828097e+000	 9.265066181359387e+000
 1.225564052337227e+000	 2.709007376998789e+000	 9.207851288845099e+000
 1.196565148749301e+000	 2.721940462023623e+000	 9.155272469693253e+000
 1.167488224095222e+000	 2.734538178704933e+000	 9.104483368549264e+000
 1.467110937006559e+000	 2.616789326589043e+000	 9.758807061905195e+000
 1.438686276770817e+000	 2.632524057386552e+000	 9.701856274299779e+000
 1.410137403538683e+000	 2.647926320568034e+000	 9.647054330410402e+000
 1.381470007436487e+000	 2.662994938263464e+000	 9.585947594161787e+000
 1.352689784332275e+000	 2.677728859214780e+000	 9.511256331711230e+000
 1.323802432407685e+000	 2.692127158366397e+000	 9.420559572370593e+000
 1.294813648761876e+000	 2.706189036347609e+000	 9.339363199658415e+000
 1.265729126051402e+000	 2.719913818848843e+000	 9.272415660936822e+000
 1.236554549169692e+000	 2.733300955893771e+000	 9.215301072532068e+000
 1.207295591969809e+000	 2.746350021009535e+000	 9.164392705701648e+000
 1.177957914033923e+000	 2.759060710297422e+000	 9.116777325651460e+000
 1.480150619017134e+000	 2.640047350121267e+000	 9.753940592038005e+000
 1.451473320400976e+000	 2.655921931206211e+000	 9.697498790644076e+000
 1.422670704783245e+000	 2.671461089702981e+000	 9.644290382416958e+000
 1.393748512864127e+000	 2.686663637272641e+000	 9.588722162528187e+000
 1.364712491136561e+000	 2.701528513313543e+000	 9.523832567474329e+000
 1.335568388427635e+000	 2.716054784548203e+000	 9.441877971220904e+000
 1.306321952472348e+000	 2.730241644501109e+000	 9.355096208333574e+000
 1.276978926523595e+000	 2.744088412869419e+000	 9.284183010713766e+000
 1.247545046002159e+000	 2.757594534788612e+000	 9.224875823198957e+000
 1.218026035190317e+000	 2.770759579995340e+000	 9.173574165856739e+000
 1.188427603972625e+000	 2.783583241889828e+000	 9.127399189895670e+000
 1.493190301027610e+000	 2.663305373653324e+000	 9.748748850463896e+000
 1.464260364031049e+000	 2.679319805025680e+000	 9.692713882178602e+000
 1.435204006027737e+000	 2.694995858837727e+000	 9.644194860192899e+000
 1.406027018291719e+000	 2.710332336281614e+000	 9.595379958943326e+000
 1.376735197940822e+000	 2.725328167412109e+000	 9.538471310642969e+000
 1.347334344447588e+000	 2.739982410729827e+000	 9.465781760686690e+000
 1.317830256182846e+000	 2.754294252654443e+000	 9.376286814347889e+000
 1.288228726995840e+000	 2.768263006889849e+000	 9.299251375176011e+000
 1.258535542834695e+000	 2.781888113683326e+000	 9.235704267980738e+000
 1.228756478410912e+000	 2.795169138981031e+000	 9.182174657167263e+000
 1.198897293911427e+000	 2.808105773482135e+000	 9.135917445478787e+000
 1.506229983037888e+000	 2.686563397185296e+000	 9.746053637477251e+000
 1.477047407660951e+000	 2.702717678845036e+000	 9.692970288571946e+000
 1.447737307272093e+000	 2.718530627972343e+000	 9.648313721411508e+000
 1.418305523719217e+000	 2.734001035290450e+000	 9.604362452927822e+000
 1.388757904745037e+000	 2.749127821510536e+000	 9.553483126699749e+000
 1.359100300467544e+000	 2.763910036911315e+000	 9.488154218036645e+000
 1.329338559893398e+000	 2.778346860807647e+000	 9.401414736265124e+000
 1.299478527468184e+000	 2.792437600910155e+000	 9.316343721704730e+000
 1.269526039667373e+000	 2.806181692577923e+000	 9.246739339933438e+000
 1.239486921631684e+000	 2.819578697966608e+000	 9.189362185889909e+000
 1.209366983850430e+000	 2.832628305074325e+000	 9.141698537314905e+000
 1.519269665047868e+000	 2.709821420717267e+000	 9.748971175368840e+000
 1.489834451290593e+000	 2.726115552664357e+000	 9.697504531269399e+000
 1.460270608516245e+000	 2.742065397106899e+000	 9.655015397410882e+000
 1.430584029146576e+000	 2.757669734299212e+000	 9.614053778236389e+000
 1.400780611549183e+000	 2.772927475608879e+000	 9.567258128402596e+000
 1.370866256487506e+000	 2.787837663092711e+000	 9.507379150901629e+000
 1.340846863604029e+000	 2.802399468960756e+000	 9.427301931671000e+000
 1.310728327940677e+000	 2.816612194930360e+000	 9.334043396811618e+000
 1.280516536500264e+000	 2.830475271472411e+000	 9.256777789351743e+000
 1.250217364852721e+000	 2.843988256952067e+000	 9.194133606307727e+000
 1.219836673789734e+000	 2.857150836666380e+000	 9.143924537292964e+000
 1.532309347057451e+000	 2.733079444249319e+000	 9.755983329024732e+000
 1.502621494919891e+000	 2.749513426483719e+000	 9.704749424315432e+000
 1.472803909760124e+000	 2.765600166241468e+000	 9.662752477658268e+000
 1.442862534573747e+000	 2.781338433307961e+000	 9.622919243059389e+000
 1.412803318353236e+000	 2.796727129707190e+000	 9.578264753801802e+000
 1.382632212507474e+000	 2.811765289274061e+000	 9.521916060808630e+000
 1.352355167314766e+000	 2.826452077113804e+000	 9.447134217023447e+000
 1.321978128413371e+000	 2.840786788950488e+000	 9.350814611644138e+000
 1.291507033333438e+000	 2.854768850366805e+000	 9.264479723191816e+000
 1.260947808074109e+000	 2.868397815937405e+000	 9.195333198202361e+000
 1.230306363729441e+000	 2.881673368258284e+000	 9.141610741772443e+000
 1.125609464338406e+000	 2.636448052334516e+000	 9.015062824612157e+000
 1.097501501095708e+000	 2.648272115530094e+000	 8.941537781939402e+000
 1.069329061409152e+000	 2.659772511872570e+000	 8.857715998076575e+000
 1.041097498112029e+000	 2.670949298215834e+000	 8.764429676302592e+000
 1.012812138484054e+000	 2.681802644152406e+000	 8.668212897894673e+000
 9.844782814308756e-001	 2.692332830683795e+000	 8.572044897511388e+000
 9.561011947256434e-001	 2.702540248811463e+000	 8.477778601767096e+000
 9.276861123150287e-001	 2.712425398051370e+000	 8.387428190668979e+000
 8.992382316919299e-001	 2.721988884875082e+000	 8.303180676044065e+000
 8.707627113369557e-001	 2.731231421080581e+000	 8.227347545646653e+000
 8.422646682306209e-001	 2.740153822095873e+000	 8.162331492284180e+000
 1.136079154278112e+000	 2.660970583927155e+000	 9.057652851444924e+000
 1.107709748972663e+000	 2.672904626897555e+000	 8.981879534687117e+000
 1.079275267505267e+000	 2.684511992475503e+000	 8.900157641824727e+000
 1.050781112497805e+000	 2.695792738043704e+000	 8.814393921336373e+000
 1.022232660780905e+000	 2.706747034772116e+000	 8.726013926595876e+000
 9.936352605472046e-001	 2.717375166275937e+000	 8.636723796332273e+000
 9.649942285672728e-001	 2.727677527193472e+000	 8.548516544584548e+000
 9.363148474705658e-001	 2.737654621686848e+000	 8.463554663847802e+000
 9.076023630936992e-001	 2.747307061868638e+000	 8.384175224168915e+000
 8.788619818981305e-001	 2.756635566157504e+000	 8.312842752660846e+000
 8.500988684592171e-001	 2.765640957566033e+000	 8.252116046195063e+000
 1.146548844217417e+000	 2.685493115519782e+000	 9.075488528513946e+000
 1.117917996849190e+000	 2.697537138265089e+000	 9.008165901070878e+000
 1.089221473600947e+000	 2.709251473078592e+000	 8.934696187047379e+000
 1.060464726883158e+000	 2.720636177871812e+000	 8.856237581210660e+000
 1.031653183077356e+000	 2.731691425392141e+000	 8.774299881928338e+000
 1.002792239663169e+000	 2.742417501868467e+000	 8.690678992378244e+000
 9.738872624085800e-001	 2.752814805575940e+000	 8.607455968255897e+000
 9.449435826258272e-001	 2.762883845322850e+000	 8.526887732814524e+000
 9.159664944952393e-001	 2.772625238862780e+000	 8.451406261761731e+000
 8.869612524591201e-001	 2.782039711235067e+000	 8.383572707517898e+000
 8.579330686876658e-001	 2.791128093036881e+000	 8.326044435773252e+000
 1.157018534156420e+000	 2.710015647112380e+000	 9.090729055732128e+000
 1.128126244725395e+000	 2.722169649632666e+000	 9.030668167140190e+000
 1.099167679696300e+000	 2.733990953681790e+000	 8.963763043457751e+000
 1.070148341268192e+000	 2.745479617700091e+000	 8.891204599774692e+000
 1.041073705373506e+000	 2.756635816012397e+000	 8.814538735355594e+000
 1.011949218778858e+000	 2.767459837461290e+000	 8.735612689940517e+000
 9.827802962496406e-001	 2.777952083958754e+000	 8.656509227550602e+000
 9.535723177808737e-001	 2.788113068959254e+000	 8.579561166848837e+000
 9.243306258965960e-001	 2.797943415857370e+000	 8.507228893249220e+000
 8.950605230199553e-001	 2.807443856313126e+000	 8.442113903174066e+000
 8.657672689159827e-001	 2.816615228508264e+000	 8.386914575208802e+000
 1.167488224095222e+000	 2.734538178704933e+000	 9.104483368549264e+000
 1.138334492601385e+000	 2.746802161000247e+000	 9.049894548693361e+000
 1.109113885791436e+000	 2.758730434285046e+000	 8.988090304145757e+000
 1.079831955653013e+000	 2.770323057528476e+000	 8.920249052749478e+000
 1.050494227669454e+000	 2.781580206632807e+000	 8.847905576521590e+000
 1.021106197894358e+000	 2.792502173054309e+000	 8.772896106636967e+000
 9.916733300905301e-001	 2.803089362341804e+000	 8.697293404741792e+000
 9.622010529357671e-001	 2.813342292595933e+000	 8.623414049070728e+000
 9.326947572978160e-001	 2.823261592852276e+000	 8.553705278283504e+000
 9.031597935806659e-001	 2.832848001391533e+000	 8.490752751600548e+000
 8.736014691441837e-001	 2.842102363980035e+000	 8.437238245269663e+000
 1.177957914033923e+000	 2.759060710297422e+000	 9.116777325651457e+000
 1.148542740477269e+000	 2.771434672367803e+000	 9.066090074354799e+000
 1.119060091886461e+000	 2.783469914888308e+000	 9.008140411518035e+000
 1.089515570037725e+000	 2.795166497356900e+000	 8.944050137097309e+000
 1.059914749965297e+000	 2.806524597253284e+000	 8.875296624909389e+000
 1.030263177009760e+000	 2.817544508647425e+000	 8.803656673198137e+000
 1.000566363931326e+000	 2.828226640724981e+000	 8.731142414635112e+000
 9.708297880905691e-001	 2.838571516232764e+000	 8.660001957929172e+000
 9.410588886989455e-001	 2.848579769847359e+000	 8.592614912596780e+000
 9.112590641412834e-001	 2.858252146470149e+000	 8.531494989132154e+000
 8.814356693722830e-001	 2.867589499452040e+000	 8.479249650369706e+000
 1.188427603972625e+000	 2.783583241889828e+000	 9.127399189895670e+000
 1.158750988353152e+000	 2.796067183735300e+000	 9.079253482866717e+000
 1.129006297981487e+000	 2.808209395491530e+000	 9.024122059763430e+000
 1.099199184422435e+000	 2.820009937185298e+000	 8.963027089351767e+000
 1.069335272261134e+000	 2.831468987873751e+000	 8.897343177446018e+000
 1.039420156125150e+000	 2.842586844240540e+000	 8.828740017810766e+000
 1.009459397772102e+000	 2.853363919108170e+000	 8.759119060931838e+000
 9.794585232453421e-001	 2.863800739869622e+000	 8.690608108231748e+000
 9.494230201000308e-001	 2.873897946842486e+000	 8.625464876843683e+000
 9.193583347018381e-001	 2.883656291548825e+000	 8.566075058406533e+000
 8.892698696002969e-001	 2.893076634924131e+000	 8.514913960905476e+000
 1.198897293911427e+000	 2.808105773482135e+000	 9.135917445478789e+000
 1.168959236229142e+000	 2.820699695102703e+000	 9.089154042267090e+000
 1.138952504076620e+000	 2.832948876094660e+000	 9.036006024602630e+000
 1.108882798807248e+000	 2.844853377013607e+000	 8.977354037250098e+000
 1.078755794557065e+000	 2.856413378494124e+000	 8.914425495969503e+000
 1.048577135240618e+000	 2.867629179833560e+000	 8.848736071311329e+000
 1.018352431612936e+000	 2.878501197491262e+000	 8.782037137039859e+000
 9.880872584001468e-001	 2.889029963506384e+000	 8.716254454188880e+000
 9.577871515011182e-001	 2.899216123837521e+000	 8.653500055389138e+000
 9.274576052623611e-001	 2.909060436627422e+000	 8.595965468326474e+000
 8.971040698282407e-001	 2.918563770396158e+000	 8.545935841764639e+000
 1.209366983850430e+000	 2.832628305074325e+000	 9.141698537314905e+000
 1.179167484105347e+000	 2.845332206469981e+000	 9.095348295688392e+000
 1.148898710171969e+000	 2.857688356697653e+000	 9.043540924729031e+000
 1.118566413192270e+000	 2.869696816841759e+000	 8.986974788711033e+000
 1.088176316853187e+000	 2.881357769114321e+000	 8.926686638201900e+000
 1.057734114356252e+000	 2.892671515426386e+000	 8.863991957067258e+000
 1.027245465453903e+000	 2.903638475874145e+000	 8.800431758552325e+000
 9.967159935550449e-001	 2.914259187142923e+000	 8.737712756777157e+000
 9.661512829022545e-001	 2.924534300832328e+000	 8.677713326863120e+000
 9.355568758228824e-001	 2.934464581705791e+000	 8.622386133377757e+000
 9.049382700561295e-001	 2.944050905867970e+000	 8.573767967844399e+000
 1.219836673789734e+000	 2.857150836666380e+000	 9.143924537292968e+000
 1.189375731981873e+000	 2.869964717837100e+000	 9.097196738185419e+000
 1.158844916267644e+000	 2.882427837300455e+000	 9.046268919045705e+000
 1.128250027577606e+000	 2.894540256669686e+000	 8.991617561922077e+000
 1.097596839149600e+000	 2.906302159734262e+000	 8.934046235623741e+000
 1.066891093472141e+000	 2.917713851018923e+000	 8.874624833958036e+000
 1.036138499295079e+000	 2.928775754256705e+000	 8.814635776852260e+000
 1.005344728710099e+000	 2.939488410779119e+000	 8.755515617564591e+000
 9.745154143034860e-001	 2.949852477826773e+000	 8.698855728181599e+000
 9.436561463834339e-001	 2.959868726783791e+000	 8.646313693544521e+000
 9.127724702839787e-001	 2.969538041339417e+000	 8.599619527362076e+000
 1.230306363729441e+000	 2.881673368258284e+000	 9.141610741772444e+000
 1.199583979858828e+000	 2.894597229204026e+000	 9.093880428701111e+000
 1.168791122363753e+000	 2.907167317903020e+000	 9.043541343521808e+000
 1.137933641963363e+000	 2.919383696497329e+000	 8.990809660044384e+000
 1.107017361446401e+000	 2.931246550353864e+000	 8.936214221412545e+000
 1.076048072588373e+000	 2.942756186611072e+000	 8.880534695249359e+000
 1.045031533136541e+000	 2.953913032638837e+000	 8.824747236181800e+000
 1.013973463865370e+000	 2.964717634414846e+000	 8.769977585925854e+000
 9.828795457048595e-001	 2.975170654820722e+000	 8.717446593612658e+000
 9.517554169440460e-001	 2.985272871861278e+000	 8.668490815978169e+000
 9.206066705118043e-001	 2.995025176810349e+000	 8.624464713684951e+000
 8.422646682306209e-001	 2.740153822095873e+000	 8.162331492284180e+000
 8.137491750310451e-001	 2.748757004534392e+000	 8.109031577612951e+000
 7.852212565530335e-001	 2.757041982326296e+000	 8.063849493262298e+000
 7.566858887956517e-001	 2.765009866903513e+000	 8.022533497061373e+000
 7.281479971706545e-001	 2.772661865956894e+000	 7.980878236398561e+000
 6.996124543915537e-001	 2.779999281457080e+000	 7.934714968740835e+000
 6.710840784416888e-001	 2.787023507627656e+000	 7.879903546727424e+000
 6.425676306221921e-001	 2.793736028873866e+000	 7.820671644148704e+000
 6.140678136806015e-001	 2.800138417670239e+000	 7.770768961808648e+000
 5.855892700207185e-001	 2.806232332410390e+000	 7.732431001392949e+000
 5.571365799941844e-001	 2.812019515222284e+000	 7.708269320057912e+000
 8.500988684592171e-001	 2.765640957566033e+000	 8.252116046195063e+000
 8.213181426176586e-001	 2.774324161233402e+000	 8.202683737691716e+000
 7.925248759258222e-001	 2.782686200520694e+000	 8.160586564428371e+000
 7.637240906662787e-001	 2.790728197197665e+000	 8.121513342070491e+000
 7.349207580637589e-001	 2.798451370188331e+000	 8.081210790183178e+000
 7.061197961545845e-001	 2.805857033573426e+000	 8.035475334749448e+000
 6.773260677358415e-001	 2.812946594544703e+000	 7.980146809388145e+000
 6.485443783951885e-001	 2.819721551314391e+000	 7.915964493996370e+000
 6.197794746220598e-001	 2.826183490983164e+000	 7.859661954864466e+000
 5.910360420008772e-001	 2.832334087369945e+000	 7.815667672008135e+000
 5.623187034867332e-001	 2.838175098806853e+000	 7.787494175007291e+000
 8.579330686876658e-001	 2.791128093036881e+000	 8.326044435773252e+000
 8.288871102041548e-001	 2.799891317933140e+000	 8.279290135941338e+000
 7.998284952985154e-001	 2.808330418715852e+000	 8.239070178887536e+000
 7.707622925368256e-001	 2.816446527492603e+000	 8.201089690422029e+000
 7.416935189567918e-001	 2.824240874420563e+000	 8.161121716903123e+000
 7.126271379175484e-001	 2.831714785690566e+000	 8.115000615316149e+000
 6.835680570299285e-001	 2.838869681462533e+000	 8.058617492080082e+000
 6.545211261681161e-001	 2.845707073755671e+000	 7.990152318397714e+000
 6.254911355634447e-001	 2.852228564296800e+000	 7.927036783417129e+000
 5.964828139809575e-001	 2.858435842330151e+000	 7.877015162538894e+000
 5.675008269791978e-001	 2.864330682391994e+000	 7.844525529728513e+000
 8.657672689159827e-001	 2.816615228508264e+000	 8.386914575208802e+000
 8.364560777905350e-001	 2.825458474633451e+000	 8.341876857063582e+000
 8.071321146711011e-001	 2.833974636911617e+000	 8.302565417560741e+000
 7.778004944072673e-001	 2.842164857788169e+000	 8.264773265754990e+000
 7.484662798497171e-001	 2.850030378653444e+000	 8.224369743935458e+000
 7.191344796803986e-001	 2.857572537808360e+000	 8.177295521204266e+000
 6.898100463238922e-001	 2.864792768381011e+000	 8.119559802275251e+000
 6.604978739409099e-001	 2.871692596197582e+000	 8.047828015743884e+000
 6.312027965046850e-001	 2.878273637611040e+000	 7.977849748329063e+000
 6.019295859608810e-001	 2.884537597290914e+000	 7.921798631584160e+000
 5.726829504714952e-001	 2.890486265977629e+000	 7.885052674585896e+000
 8.736014691441837e-001	 2.842102363980035e+000	 8.437238245269663e+000
 8.440250453767997e-001	 2.851025631334183e+000	 8.393188592165979e+000
 8.144357340435665e-001	 2.859618855107834e+000	 8.354061292203737e+000
 7.848386962775791e-001	 2.867883188084215e+000	 8.315804709586610e+000
 7.552390407424993e-001	 2.875819882886823e+000	 8.274450238006208e+000
 7.256418214430889e-001	 2.883430289926668e+000	 8.226108924161943e+000
 6.960520356176774e-001	 2.890715855300006e+000	 8.166970490040516e+000
 6.664746217135059e-001	 2.897678118640007e+000	 8.093305163619879e+000
 6.369144574457076e-001	 2.904318710925769e+000	 8.016773760174369e+000
 6.073763579405690e-001	 2.910639352252135e+000	 7.955060053210811e+000
 5.778650739635411e-001	 2.916641849563674e+000	 7.914486020191117e+000
 8.814356693722830e-001	 2.867589499452040e+000	 8.479249650369706e+000
 8.515940129629500e-001	 2.876592788035181e+000	 8.435696387728957e+000
 8.217393534158995e-001	 2.885263073304349e+000	 8.396277735309090e+000
 7.918768981477354e-001	 2.893601518380587e+000	 8.357160856978053e+000
 7.620118016351013e-001	 2.901609387120555e+000	 8.314600807162336e+000
 7.321491632055717e-001	 2.909288042045349e+000	 8.264938821383048e+000
 7.022940249112279e-001	 2.916638942219389e+000	 8.204603206745325e+000
 6.724513694858390e-001	 2.923663641082820e+000	 8.130112445087574e+000
 6.426261183864409e-001	 2.930363784240881e+000	 8.048207248933545e+000
 6.128231299199433e-001	 2.936741107213719e+000	 7.981565761920114e+000
 5.830471974552514e-001	 2.942797433150047e+000	 7.937963372199819e+000
 8.892698696002969e-001	 2.893076634924131e+000	 8.514913960905476e+000
 8.591629805489868e-001	 2.902159944736294e+000	 8.471605387935362e+000
 8.290429727880866e-001	 2.910907291501007e+000	 8.431672590426221e+000
 7.989151000177124e-001	 2.919319848677136e+000	 8.391561018870853e+000
 7.687845625274865e-001	 2.927398891354493e+000	 8.347806915098495e+000
 7.386565049678009e-001	 2.935145794164261e+000	 8.297037317671059e+000
 7.085360142044870e-001	 2.942562029139024e+000	 8.235972886710183e+000
 6.784281172578449e-001	 2.949649163525900e+000	 8.161433129431845e+000
 6.483377793268129e-001	 2.956408857556267e+000	 8.076283107641226e+000
 6.182699018989252e-001	 2.962842862175569e+000	 8.005814037847872e+000
 5.882293209465431e-001	 2.968953016736668e+000	 7.960356253415235e+000
 8.971040698282407e-001	 2.918563770396158e+000	 8.545935841764639e+000
 8.667319481349111e-001	 2.927727101437364e+000	 8.502862570768514e+000
 8.363465921601164e-001	 2.936551509697654e+000	 8.462448602874554e+000
 8.059533018874843e-001	 2.945038178973706e+000	 8.421473270688816e+000
 7.755573234196194e-001	 2.953188395588488e+000	 8.376807507086310e+000
 7.451638467297292e-001	 2.961003546283265e+000	 8.325415624223773e+000
 7.147780034973991e-001	 2.968485116058781e+000	 8.264360150396165e+000
 6.844048650294591e-001	 2.975634685969126e+000	 8.190809272914777e+000
 6.540494402667517e-001	 2.982453930871814e+000	 8.104877667910934e+000
 6.237166738774370e-001	 2.988944617137590e+000	 8.032042729735691e+000
 5.934114444373317e-001	 2.995108600323453e+000	 7.986276270308701e+000
 9.049382700561295e-001	 2.944050905867970e+000	 8.573767967844399e+000
 8.743009157207238e-001	 2.953294258138242e+000	 8.531164478257740e+000
 8.436502115319761e-001	 2.962195727894137e+000	 8.490560410827079e+000
 8.129915037570266e-001	 2.970756509270149e+000	 8.449120746824391e+000
 7.823300843114628e-001	 2.978977899822394e+000	 8.404100646801606e+000
 7.516711884913107e-001	 2.986861298402219e+000	 8.352849073032978e+000
 7.210199927899075e-001	 2.994408202978526e+000	 8.292815727830806e+000
 6.903816128006169e-001	 3.001620208412377e+000	 8.221560821061512e+000
 6.597611012061855e-001	 3.008499004187415e+000	 8.137619705404513e+000
 6.291634458553995e-001	 3.015046372099683e+000	 8.064236913385894e+000
 5.985935679275339e-001	 3.021264183910321e+000	 8.020081521258435e+000
 9.127724702839787e-001	 2.969538041339417e+000	 8.599619527362076e+000
 8.818698833064260e-001	 2.978861414838772e+000	 8.557964941225091e+000
 8.509538309036533e-001	 2.987839946090301e+000	 8.517721536743597e+000
 8.200297056263145e-001	 2.996474839566310e+000	 8.476487940659586e+000
 7.891028452029811e-001	 3.004767404056063e+000	 8.431949163397745e+000
 7.581785302524977e-001	 3.012719050520983e+000	 8.381882145962683e+000
 7.272619820819567e-001	 3.020331289898129e+000	 8.324164901054585e+000
 6.963583605712537e-001	 3.027605730855529e+000	 8.256788725059813e+000
 6.654727621450420e-001	 3.034544077502959e+000	 8.177899473448562e+000
 6.346102178327349e-001	 3.041148127061754e+000	 8.106136583467421e+000
 6.037756914170657e-001	 3.047419767497192e+000	 8.065883044006771e+000
 9.206066705118043e-001	 2.995025176810349e+000	 8.624464713684951e+000
 8.894388508920192e-001	 3.004428571538802e+000	 8.584482798859622e+000
 8.582574502751355e-001	 3.013484164285996e+000	 8.545411379132752e+000
 8.270679074953231e-001	 3.022193169862039e+000	 8.505327009790609e+000
 7.958756060941378e-001	 3.030556908289345e+000	 8.462386308214917e+000
 7.646858720132442e-001	 3.038576802639415e+000	 8.414833517630367e+000
 7.335039713734900e-001	 3.046254376817458e+000	 8.361011964457063e+000
 7.023351083413053e-001	 3.053591253298464e+000	 8.299378847353390e+000
 6.711844230832494e-001	 3.060589150818339e+000	 8.228522781056256e+000
 6.400569898093645e-001	 3.067249882023707e+000	 8.161244376684364e+000
 6.089578149058431e-001	 3.073575351083983e+000	 8.127551299992827e+000
 5.571365799941844e-001	 2.812019515222284e+000	 7.708269320057914e+000
 5.287185198196899e-001	 2.817500990623336e+000	 7.693134674288474e+000
 5.003352638129522e-001	 2.822679553656823e+000	 7.679925508934980e+000
 4.719911884326343e-001	 2.827557185699815e+000	 7.668765292399590e+000
 4.436906022608289e-001	 2.832135942759817e+000	 7.659766363414793e+000
 4.154377447072054e-001	 2.836417953168350e+000	 7.652930208350069e+000
 3.872367847946154e-001	 2.840405415259060e+000	 7.648057326030194e+000
 3.590918200257328e-001	 2.844100595033315e+000	 7.644665265797945e+000
 3.310068753301859e-001	 2.847505823816278e+000	 7.641913465921141e+000
 3.029859020915387e-001	 2.850623495906301e+000	 7.638533572057648e+000
 2.750327772533645e-001	 2.853456066220490e+000	 7.632763978155554e+000
 5.623187034867332e-001	 2.838175098806853e+000	 7.787494175007293e+000
 5.336363169290086e-001	 2.843707559340699e+000	 7.768951632600126e+000
 5.049890582647986e-001	 2.848934290012430e+000	 7.751167981134475e+000
 4.763813446597575e-001	 2.853857290628595e+000	 7.734064274166090e+000
 4.478175247716257e-001	 2.858478636320324e+000	 7.717562516468290e+000
 4.193018774423231e-001	 2.862800475215494e+000	 7.701495209937428e+000
 3.908386104722592e-001	 2.866825026095203e+000	 7.685524661805408e+000
 3.624318594764306e-001	 2.870554576037688e+000	 7.669070517285980e+000
 3.340856868217622e-001	 2.873991478052573e+000	 7.651244025305206e+000
 3.058040806450353e-001	 2.877138148708409e+000	 7.630787604406621e+000
 2.775909539506486e-001	 2.879997065756335e+000	 7.606018345031051e+000
 5.675008269791978e-001	 2.864330682391994e+000	 7.844525529728513e+000
 5.385541140382392e-001	 2.869914128058542e+000	 7.822291429245468e+000
 5.096428527165519e-001	 2.875189026368407e+000	 7.799693511185410e+000
 4.807715008867813e-001	 2.880157395557621e+000	 7.776570160456861e+000
 4.519444472823143e-001	 2.884821329880952e+000	 7.752768790619593e+000
 4.231660101773201e-001	 2.889182997262623e+000	 7.728065392768658e+000
 3.944404361497644e-001	 2.893244636931202e+000	 7.702094033767845e+000
 3.657718989269668e-001	 2.897008557041791e+000	 7.674284635251968e+000
 3.371644983131461e-001	 2.900477132288478e+000	 7.643807416772143e+000
 3.086222591983008e-001	 2.903652801510019e+000	 7.609522451046853e+000
 2.801491306476536e-001	 2.906538065291592e+000	 7.569932855183867e+000
 5.726829504714952e-001	 2.890486265977629e+000	 7.885052674585896e+000
 5.434719111472928e-001	 2.896120696776793e+000	 7.859215630424886e+000
 5.142966471681206e-001	 2.901443762724703e+000	 7.831954581740369e+000
 4.851616571136134e-001	 2.906457500486859e+000	 7.803130560010587e+000
 4.560713697928033e-001	 2.911164023441680e+000	 7.772617461763355e+000
 4.270301429121079e-001	 2.915565519309738e+000	 7.740232395556646e+000
 3.980422618270493e-001	 2.919664247767075e+000	 7.705676177473190e+000
 3.691119383772682e-001	 2.923462538045660e+000	 7.668482168430736e+000
 3.402433098042775e-001	 2.926962786524053e+000	 7.627971704286399e+000
 3.114404377512914e-001	 2.930167454311212e+000	 7.583214440785666e+000
 2.827073073443561e-001	 2.933079064826362e+000	 7.532992018464669e+000
 5.778650739635411e-001	 2.916641849563674e+000	 7.914486020191117e+000
 5.483897082560818e-001	 2.922327265495393e+000	 7.885514286710580e+000
 5.189504416194141e-001	 2.927698499081264e+000	 7.854141605001352e+000
 4.895518133401612e-001	 2.932757605416279e+000	 7.820342424868624e+000
 4.601982923030009e-001	 2.937506717002494e+000	 7.784103405121654e+000
 4.308942756465988e-001	 2.941948041356847e+000	 7.745365416030246e+000
 4.016440875040318e-001	 2.946083858602846e+000	 7.703975901466915e+000
 3.724519778272623e-001	 2.949916519049337e+000	 7.659649648190845e+000
 3.433221212950962e-001	 2.953448440759353e+000	 7.611936073434322e+000
 3.142586163039636e-001	 2.956682107112062e+000	 7.560191219864343e+000
 2.852654840407332e-001	 2.959620064360733e+000	 7.503552737567374e+000
 5.830471974552514e-001	 2.942797433150047e+000	 7.937963372199818e+000
 5.533075053645180e-001	 2.948533834214270e+000	 7.906711061826495e+000
 5.236042360703409e-001	 2.953953235438045e+000	 7.872187055235878e+000
 4.939419695663327e-001	 2.959057710345845e+000	 7.834555322800902e+000
 4.643252148128158e-001	 2.963849410563380e+000	 7.793986629992084e+000
 4.347584083807039e-001	 2.968330563403949e+000	 7.750613116507988e+000
 4.052459131806299e-001	 2.972503469438535e+000	 7.704493458161204e+000
 3.757920172768758e-001	 2.976370500052862e+000	 7.655586505074474e+000
 3.464009327855420e-001	 2.979934094994438e+000	 7.603731359813463e+000
 3.170767948562732e-001	 2.983196759912644e+000	 7.548631944172382e+000
 2.878236607367615e-001	 2.986161063894799e+000	 7.489844201836490e+000
 5.882293209465431e-001	 2.968953016736668e+000	 7.960356253415235e+000
 5.582253024725135e-001	 2.974740402933362e+000	 7.928068414840796e+000
 5.282580305208100e-001	 2.980207971794994e+000	 7.891769658261609e+000
 4.983321257920351e-001	 2.985357815275526e+000	 7.851874768183630e+000
 4.684521373221561e-001	 2.990192104124324e+000	 7.808794872841772e+000
 4.386225411143355e-001	 2.994713085451048e+000	 7.762905586601998e+000
 4.088477388567609e-001	 2.998923080274164e+000	 7.714525969985107e+000
 3.791320567260359e-001	 3.002824481056272e+000	 7.663906038587817e+000
 3.494797442755541e-001	 3.006419749229364e+000	 7.611220628942718e+000
 3.198949734081767e-001	 3.009711412713035e+000	 7.556567522014428e+000
 2.903818374324179e-001	 3.012702063428655e+000	 7.499967831872081e+000
 5.934114444373317e-001	 2.995108600323453e+000	 7.986276270308694e+000
 5.631430995799795e-001	 3.000946971652601e+000	 7.954592832507457e+000
 5.329118249707303e-001	 3.006462708152061e+000	 7.918318634413632e+000
 5.027222820171762e-001	 3.011657920205289e+000	 7.878165607755131e+000
 4.725790598309308e-001	 3.016534797685310e+000	 7.834826245182623e+000
 4.424866738474051e-001	 3.021095607498149e+000	 7.788956359557896e+000
 4.124495645323429e-001	 3.025342691109753e+000	 7.741168907430775e+000
 3.824720961746697e-001	 3.029278462059609e+000	 7.692036436985090e+000
 3.525585557650730e-001	 3.032905403464191e+000	 7.642099804544769e+000
 3.227131519596302e-001	 3.036226065513310e+000	 7.591880904336738e+000
 2.929400141276792e-001	 3.039243062962394e+000	 7.541897271819910e+000
 5.985935679275339e-001	 3.021264183910321e+000	 8.020081521258435e+000
 5.680608966868284e-001	 3.027153540371921e+000	 7.991040108712964e+000
 5.375656194200106e-001	 3.032717444509198e+000	 7.957017991754722e+000
 5.071124382416637e-001	 3.037958025135103e+000	 7.919055457921531e+000
 4.767059823390482e-001	 3.042877491246322e+000	 7.878151932902654e+000
 4.463508065798245e-001	 3.047478129545251e+000	 7.835264478980216e+000
 4.160513902072938e-001	 3.051762301945324e+000	 7.791317615846255e+000
 3.858121356227041e-001	 3.055732443062913e+000	 7.747221844015384e+000
 3.556373672540380e-001	 3.059391057698973e+000	 7.703898342268273e+000
 3.255313305105898e-001	 3.062740718313544e+000	 7.662307419538277e+000
 2.954981908225222e-001	 3.065784062496107e+000	 7.623478426461401e+000
 6.037756914170657e-001	 3.047419767497192e+000	 8.065883044006771e+000
 5.729786937929718e-001	 3.053360109091256e+000	 8.041920668201394e+000
 5.422194138685600e-001	 3.058972180866353e+000	 8.012810866505973e+000
 5.115025944654054e-001	 3.064258130064935e+000	 7.979938190514950e+000
 4.808329048464169e-001	 3.069220184807348e+000	 7.944618943963327e+000
 4.502149393115056e-001	 3.073860651592362e+000	 7.908116612913553e+000
 4.196532158815317e-001	 3.078181912780899e+000	 7.871668888048889e+000
 3.891521750700663e-001	 3.082186424066220e+000	 7.836523469810048e+000
 3.587161787423889e-001	 3.085876711933771e+000	 7.803979946117599e+000
 3.283495090610120e-001	 3.089255371113814e+000	 7.775435150185570e+000
 2.980563675169238e-001	 3.092325062029891e+000	 7.752429540408041e+000
 6.089578149058431e-001	 3.073575351083983e+000	 8.127551299992829e+000
 5.778964908983216e-001	 3.079566677810540e+000	 8.111504931935997e+000
 5.468732083162874e-001	 3.085226917223479e+000	 8.090403907886381e+000
 5.158927506883088e-001	 3.090558234994751e+000	 8.065977464117056e+000
 4.849598273529451e-001	 3.095562878368370e+000	 8.039852901580431e+000
 4.540790720423602e-001	 3.100243173639481e+000	 8.013589212459397e+000
 4.232550415549740e-001	 3.104601523616499e+000	 7.988722580025887e+000
 3.924922145166835e-001	 3.108640405069573e+000	 7.966820743283124e+000
 3.617949902300655e-001	 3.112362366168643e+000	 7.949543325049369e+000
 3.311676876108530e-001	 3.115770023914197e+000	 7.938705349136377e+000
 3.006145442108607e-001	 3.118866061563838e+000	 7.936341316895398e+000
 2.750327772533645e-001	 2.853456066220490e+000	 7.632763978155568e+000
 2.471471351279563e-001	 2.856006409498289e+000	 7.626386298236239e+000
 2.193369495812531e-001	 2.858276650234000e+000	 7.624670526753606e+000
 1.916059273113750e-001	 2.860269412912185e+000	 7.630057186738480e+000
 1.639576959960280e-001	 2.861987373296847e+000	 7.644107246020258e+000
 1.363958037885807e-001	 2.863433256073065e+000	 7.667434534770208e+000
 1.089237188885895e-001	 2.864609832501104e+000	 7.699637042649927e+000
 8.154482918534708e-002	 2.865519918085287e+000	 7.739226456928041e+000
 5.426244197296173e-002	 2.866166370259814e+000	 7.783555402554007e+000
 2.707978373541704e-002	 2.866552086093679e+000	 7.828741944744955e+000
 0.000000000000000e+000	 2.866680000016666e+000	 7.869590999492883e+000
 2.775909539506486e-001	 2.879997065756335e+000	 7.606018345031051e+000
 2.494459376495118e-001	 2.882571130674752e+000	 7.578347585225781e+000
 2.213770797753014e-001	 2.884862487718648e+000	 7.552142329872299e+000
 1.933881215034432e-001	 2.886873785783860e+000	 7.529250098946994e+000
 1.654827242539528e-001	 2.888607725522634e+000	 7.510752019921494e+000
 1.376644691828240e-001	 2.890067056963325e+000	 7.496902393974777e+000
 1.099368567485602e-001	 2.891254577142688e+000	 7.487066326952762e+000
 8.230330635240660e-002	 2.892173127753059e+000	 7.479654735447895e+000
 5.476715605078016e-002	 2.892825592806660e+000	 7.472056146653630e+000
 2.733166233832954e-002	 2.893214896319162e+000	 7.460564818768328e+000
 0.000000000000000e+000	 2.893344000014533e+000	 7.440304804844777e+000
 2.801491306476536e-001	 2.906538065291592e+000	 7.569932855183878e+000
 2.517447401707313e-001	 2.909135851850559e+000	 7.526175371644798e+000
 2.234172099689544e-001	 2.911448325202586e+000	 7.481802487469553e+000
 1.951703156950631e-001	 2.913478158654786e+000	 7.438169784469080e+000
 1.670077525113898e-001	 2.915228077747647e+000	 7.395982377640244e+000
 1.389331345765621e-001	 2.916700857852797e+000	 7.355242253873634e+000
 1.109499946080376e-001	 2.917899321783473e+000	 7.315192816478894e+000
 8.306178351902192e-002	 2.918826337420026e+000	 7.274259891629245e+000
 5.527187012824809e-002	 2.919484815352702e+000	 7.229988570205699e+000
 2.758354094103718e-002	 2.919877706543843e+000	 7.178975375671223e+000
 0.000000000000000e+000	 2.920008000011599e+000	 7.116795356410627e+000
 2.827073073443561e-001	 2.933079064826362e+000	 7.532992018464669e+000
 2.540435426916160e-001	 2.935700573025820e+000	 7.478239778265809e+000
 2.254573401622399e-001	 2.938034162685941e+000	 7.421762160264840e+000
 1.969525098862877e-001	 2.940082531525106e+000	 7.364510093913062e+000
 1.685327807684147e-001	 2.941848429972040e+000	 7.306903068877722e+000
 1.402017999698867e-001	 2.943334658741642e+000	 7.248784917132530e+000
 1.119631324671215e-001	 2.944544066423635e+000	 7.189375895360662e+000
 8.382026068529008e-002	 2.945479547086379e+000	 7.127220266071030e+000
 5.577658420544659e-002	 2.946144037898136e+000	 7.060128702779533e+000
 2.783541954358946e-002	 2.946540516767923e+000	 6.985114971271536e+000
 0.000000000000000e+000	 2.946672000008066e+000	 6.898326458897445e+000
 2.852654840407332e-001	 2.959620064360733e+000	 7.503552737567374e+000
 2.563423452121673e-001	 2.962265294200649e+000	 7.442805376424269e+000
 2.274974703551856e-001	 2.964620000168840e+000	 7.380050085120073e+000
 1.987347040771705e-001	 2.966686904394960e+000	 7.315906451211556e+000
 1.700578090251029e-001	 2.968468782195969e+000	 7.250585089905967e+000
 1.414704653628900e-001	 2.969968459630035e+000	 7.183852588812750e+000
 1.129762703259120e-001	 2.971188811063356e+000	 7.114991798367493e+000
 8.457873785130830e-002	 2.972132756752306e+000	 7.042756605051189e+000
 5.628129828245675e-002	 2.972803260443157e+000	 6.965320461553977e+000
 2.808729814603587e-002	 2.973203326991597e+000	 6.880218084705507e+000
 0.000000000000000e+000	 2.973336000004133e+000	 6.784279864534753e+000
 2.878236607367615e-001	 2.986161063894799e+000	 7.489844201836474e+000
 2.586411477323866e-001	 2.988830015375153e+000	 7.428030794528125e+000
 2.295376005478192e-001	 2.991205837651411e+000	 7.364611879215399e+000
 2.005168982677649e-001	 2.993291277264493e+000	 7.299934826967169e+000
 1.715828372815301e-001	 2.995089134419593e+000	 7.234064284239625e+000
 1.427391307556637e-001	 2.996602260518140e+000	 7.166757049311190e+000
 1.139894081845090e-001	 2.997833555702814e+000	 7.097431288002897e+000
 8.533721501717360e-002	 2.998785966417991e+000	 7.025129160800779e+000
 5.678601235935964e-002	 2.999462482987958e+000	 6.948472081124825e+000
 2.833917674842591e-002	 2.999866137215067e+000	 6.865607971681786e+000
 0.000000000000000e+000	 3.000000000000000e+000	 6.774150031484409e+000
 2.903818374324179e-001	 3.012702063428655e+000	 7.499967831872086e+000
 2.609399502522751e-001	 3.015394736549441e+000	 7.441968377924082e+000
 2.315777307401687e-001	 3.017791675133779e+000	 7.383309403549506e+000
 2.022990924581241e-001	 3.019895650133845e+000	 7.324110780903875e+000
 1.731078655377716e-001	 3.021709486643063e+000	 7.264340026403695e+000
 1.440077961482997e-001	 3.023236061406127e+000	 7.203797928991086e+000
 1.150025460430122e-001	 3.024478300342187e+000	 7.142097456883470e+000
 8.609569218298309e-002	 3.025439176083625e+000	 7.078634946025328e+000
 5.729072643623636e-002	 3.026121705532733e+000	 7.012552732267628e+000
 2.859105535080906e-002	 3.026528947438531e+000	 6.942692547505331e+000
 0.000000000000000e+000	 3.026663999995867e+000	 6.867539159309221e+000
 2.929400141276792e-001	 3.039243062962394e+000	 7.541897271819907e+000
 2.632387527718346e-001	 3.041959457723628e+000	 7.492563898859246e+000
 2.336178609322615e-001	 3.044377512616071e+000	 7.443920182139362e+000
 2.040812866483013e-001	 3.046500023003158e+000	 7.395888569197113e+000
 1.746328937939032e-001	 3.048329838866539e+000	 7.348373983713510e+000
 1.452764615408901e-001	 3.049869862294165e+000	 7.301261078288766e+000
 1.160156839015217e-001	 3.051123044981656e+000	 7.254403647739554e+000
 8.685416934883392e-002	 3.052092385749397e+000	 7.207605133240378e+000
 5.779544051316801e-002	 3.052780928077678e+000	 7.160589318102439e+000
 2.884293395323481e-002	 3.053191757662185e+000	 7.112960485833733e+000
 0.000000000000000e+000	 3.053327999991934e+000	 7.064152484567275e+000
 2.954981908225222e-001	 3.065784062496107e+000	 7.623478426461401e+000
 2.655375552910660e-001	 3.068524178897822e+000	 7.587656313502364e+000
 2.356579911241255e-001	 3.070963350098415e+000	 7.554136873542311e+000
 2.058634808383502e-001	 3.073104395872575e+000	 7.522660312749224e+000
 1.761579220500004e-001	 3.074950191090176e+000	 7.493088951344401e+000
 1.465451269335266e-001	 3.076503663182421e+000	 7.465417027506399e+000
 1.170288217601373e-001	 3.077767789621401e+000	 7.439771483914621e+000
 8.761264651482312e-002	 3.078745595415491e+000	 7.416402590149690e+000
 5.830015459023565e-002	 3.079440150622988e+000	 7.395663436915172e+000
 2.909481255575269e-002	 3.079854567886232e+000	 7.377977520087220e+000
 0.000000000000000e+000	 3.079991999988400e+000	 7.363793820767809e+000
 2.980563675169238e-001	 3.092325062029891e+000	 7.752429540408041e+000
 2.678363578099709e-001	 3.095088900072134e+000	 7.734977563197535e+000
 2.376981213157884e-001	 3.097549187580936e+000	 7.721566791555521e+000
 2.076456750283239e-001	 3.099708768742237e+000	 7.711755222752602e+000
 1.776829503061387e-001	 3.101570543314129e+000	 7.705367756281319e+000
 1.478137923263012e-001	 3.103137464071066e+000	 7.702519530907384e+000
 1.180419596189590e-001	 3.104412534261600e+000	 7.703629003715815e+000
 8.837112368104780e-002	 3.105398805082098e+000	 7.709419542889242e+000
 5.880486866752038e-002	 3.106099373168855e+000	 7.720908501616351e+000
 2.934669115841214e-002	 3.106517378110866e+000	 7.739382935338095e+000
 0.000000000000000e+000	 3.106655999985466e+000	 7.766361328005606e+000
 3.006145442108607e-001	 3.118866061563838e+000	 7.936341316895394e+000
 2.701351603285507e-001	 3.121653621246674e+000	 7.942152417312835e+000
 2.397382515072781e-001	 3.124135025063762e+000	 7.953731472165725e+000
 2.094278692182756e-001	 3.126313141612288e+000	 7.970438880124269e+000
 1.792079785623936e-001	 3.128190895538556e+000	 7.992052226051045e+000
 1.490824577193058e-001	 3.129771264960267e+000	 8.018804190092013e+000
 1.190550974780867e-001	 3.131057278902433e+000	 8.051408892439586e+000
 8.912960084760516e-002	 3.132052014749407e+000	 8.091075359519895e+000
 5.930958274510327e-002	 3.132758595715477e+000	 8.139507006510801e+000
 2.959856976126271e-002	 3.133180188336288e+000	 8.198886239331523e+000
 0.000000000000000e+000	 3.133319999983334e+000	 8.271843498594476e+000
 3.133319999983334e+000	 0.000000000000000e+000	 1.071979582624148e+001
 3.133180188336288e+000	 2.959856976126182e-002	 1.077067267391438e+001
 3.132758595715477e+000	 5.930958274510247e-002	 1.080498860429973e+001
 3.132052014749406e+000	 8.912960084760445e-002	 1.082592988003637e+001
 3.131057278902433e+000	 1.190550974780861e-001	 1.083663182576273e+001
 3.129771264960267e+000	 1.490824577193053e-001	 1.084016218539743e+001
 3.128190895538556e+000	 1.792079785623932e-001	 1.083950873174041e+001
 3.126313141612288e+000	 2.094278692182752e-001	 1.083757101434610e+001
 3.124135025063761e+000	 2.397382515072778e-001	 1.083715606781713e+001
 3.121653621246674e+000	 2.701351603285505e-001	 1.084097784815477e+001
 3.118866061563838e+000	 3.006145442108607e-001	 1.085166010965740e+001
 3.159987999982151e+000	 0.000000000000000e+000	 1.057657672807157e+001
 3.159846998384162e+000	 2.985048614990571e-002	 1.064392360305085e+001
 3.159421817546309e+000	 5.981437253772166e-002	 1.069171219084060e+001
 3.158709222798846e+000	 8.988819179751431e-002	 1.072377816729901e+001
 3.157706020655442e+000	 1.200683873234670e-001	 1.074383426625138e+001
 3.156409061319833e+000	 1.503513134314466e-001	 1.075545479482685e+001
 3.154815241215752e+000	 1.807332355959375e-001	 1.076206485580146e+001
 3.152921505537872e+000	 2.112103307641125e-001	 1.076693415527738e+001
 3.150724850821440e+000	 2.417786877487557e-001	 1.077317520571815e+001
 3.148222327528214e+000	 2.724343077016802e-001	 1.078374567619463e+001
 3.145411042646106e+000	 3.031731046692103e-001	 1.080145458285145e+001
 3.186655999981866e+000	 0.000000000000000e+000	 1.047749348994372e+001
 3.186513808432925e+000	 3.010240253874214e-002	 1.055811583469660e+001
 3.186085039377991e+000	 6.031916233064432e-002	 1.061625413174592e+001
 3.185366430849083e+000	 9.064678274776807e-002	 1.065642018902726e+001
 3.184354762409180e+000	 1.210816771691726e-001	 1.068292774958890e+001
 3.183046857680051e+000	 1.516201691438457e-001	 1.069987832064807e+001
 3.181439586893518e+000	 1.822584926296357e-001	 1.071115218691959e+001
 3.179529869463929e+000	 2.129927923099748e-001	 1.072040447827702e+001
 3.177314676579507e+000	 2.438191239901172e-001	 1.073106608885645e+001
 3.174791033810061e+000	 2.747334550745509e-001	 1.074634918271280e+001
 3.171956023728604e+000	 3.057316651271695e-001	 1.076925695843710e+001
 3.213323999982383e+000	 0.000000000000000e+000	 1.042460209802761e+001
 3.213180618482476e+000	 3.035431892772296e-002	 1.051458584574199e+001
 3.212748261210434e+000	 6.082395212379460e-002	 1.057931317857604e+001
 3.212023638900031e+000	 9.140537369827974e-002	 1.062399499887787e+001
 3.211003504163570e+000	 1.220949670151219e-001	 1.065356569850706e+001
 3.209684654040850e+000	 1.528890248564378e-001	 1.067267046833607e+001
 3.208063932571784e+000	 1.837837496634492e-001	 1.068565829287562e+001
 3.206138233390415e+000	 2.147752538558561e-001	 1.069658049114839e+001
 3.203904502337919e+000	 2.458595602313912e-001	 1.070919458717978e+001
 3.201359740092178e+000	 2.770326024472272e-001	 1.072697322750065e+001
 3.198501004811306e+000	 3.082902255848360e-001	 1.075311779627437e+001
 3.239991999983598e+000	 0.000000000000000e+000	 1.041976356353242e+001
 3.239847428532719e+000	 3.060623531680005e-002	 1.051449416608587e+001
 3.239411483043539e+000	 6.132874191709668e-002	 1.058143139667041e+001
 3.238680846951602e+000	 9.216396464896336e-002	 1.062650440262295e+001
 3.237652245918530e+000	 1.231082568612335e-001	 1.065528384601167e+001
 3.236322450402156e+000	 1.541578805691588e-001	 1.067297087166757e+001
 3.234688278250491e+000	 1.853090066973396e-001	 1.068439228580587e+001
 3.232746597317267e+000	 2.165577154017499e-001	 1.069400179672134e+001
 3.230494328096634e+000	 2.478999964726069e-001	 1.070588708634698e+001
 3.227928446374532e+000	 2.793317498197739e-001	 1.072378241130909e+001
 3.225045985894188e+000	 3.108487860423074e-001	 1.075108636109789e+001
 3.266659999985416e+000	 0.000000000000000e+000	 1.046465188128293e+001
 3.266514238583552e+000	 3.085815170592527e-002	 1.055883277882847e+001
 3.266074704877213e+000	 6.183353171047463e-002	 1.062300103657634e+001
 3.265338055003707e+000	 9.292255559973296e-002	 1.066381932737000e+001
 3.264300987673976e+000	 1.241215467074265e-001	 1.068750612582828e+001
 3.262960246763895e+000	 1.554267362819441e-001	 1.069982652464723e+001
 3.261312623929575e+000	 1.868342637312685e-001	 1.070608981262464e+001
 3.259354961244441e+000	 2.183401769476501e-001	 1.071115365551080e+001
 3.257084153855605e+000	 2.499404327137935e-001	 1.071943463302265e+001
 3.254497152657088e+000	 2.816308971922558e-001	 1.073492481082211e+001
 3.251590966977224e+000	 3.134073464996811e-001	 1.076121395081528e+001
 3.293327999987732e+000	 0.000000000000000e+000	 1.056076160162049e+001
 3.293181048634879e+000	 3.111006809505051e-002	 1.064843216094000e+001
 3.292737926711361e+000	 6.233832150385259e-002	 1.070427107164112e+001
 3.291995263056254e+000	 9.368114655050251e-002	 1.073568588126335e+001
 3.290949729429830e+000	 1.251348365536193e-001	 1.074955027635861e+001
 3.289598043125996e+000	 1.566955919947295e-001	 1.075219694876994e+001
 3.287936969608975e+000	 1.883595207651975e-001	 1.074941780149595e+001
 3.285963325171878e+000	 2.201226384935503e-001	 1.074647132410223e+001
 3.283673979614794e+000	 2.519808689549801e-001	 1.074809687465309e+001
 3.281065858939814e+000	 2.839300445647379e-001	 1.075853552601839e+001
 3.278135948060388e+000	 3.159659069570547e-001	 1.078155705434847e+001
 3.319995999990449e+000	 0.000000000000000e+000	 1.070941503737840e+001
 3.319847858686600e+000	 3.136198448412762e-002	 1.078396798461336e+001
 3.319401148545888e+000	 6.284311129715468e-002	 1.082535342053647e+001
 3.318652471109157e+000	 9.443973750118619e-002	 1.084173112106821e+001
 3.317598471186008e+000	 1.261481263997311e-001	 1.084063317425492e+001
 3.316235839488389e+000	 1.579644477074505e-001	 1.082895911050082e+001
 3.314561315288624e+000	 1.898847777990878e-001	 1.081297897806925e+001
 3.312571689099526e+000	 2.219051000394441e-001	 1.079834418188380e+001
 3.310263805374154e+000	 2.540213051961958e-001	 1.079010580527875e+001
 3.307634565222676e+000	 2.862291919372846e-001	 1.079274005046782e+001
 3.304680929143654e+000	 3.185244674145260e-001	 1.081018034860167e+001
 3.346663999993466e+000	 0.000000000000000e+000	 1.088899903090339e+001
 3.346514668738617e+000	 3.161390087310849e-002	 1.094617738558381e+001
 3.346064370380700e+000	 6.334790109030505e-002	 1.096990001684448e+001
 3.345309679162327e+000	 9.519832845169793e-002	 1.096875568117086e+001
 3.344247212942430e+000	 1.271614162456804e-001	 1.095064133890113e+001
 3.342873635850998e+000	 1.592333034200426e-001	 1.092277764920436e+001
 3.341185660968463e+000	 1.914100348329014e-001	 1.089172660795972e+001
 3.339180053027333e+000	 2.236875615853254e-001	 1.086341157332430e+001
 3.336853631133645e+000	 2.560617414374699e-001	 1.084313993626539e+001
 3.334203271505640e+000	 2.885283393099608e-001	 1.083562872273664e+001
 3.331225910226997e+000	 3.210830278721923e-001	 1.084515954353123e+001
 3.373331999996682e+000	 0.000000000000000e+000	 1.096343769237268e+001
 3.373181478790831e+000	 3.186581726194498e-002	 1.101381497204996e+001
 3.372727592215700e+000	 6.385269088322783e-002	 1.103049235273382e+001
 3.371966887215675e+000	 9.595691940195179e-002	 1.102230157726650e+001
 3.370895954699014e+000	 1.281747060913862e-001	 1.099737270056534e+001
 3.369511432213754e+000	 1.605021591324417e-001	 1.096314864324915e+001
 3.367810006648429e+000	 1.929352918665996e-001	 1.092640172170849e+001
 3.365788416955247e+000	 2.254700231311878e-001	 1.089325240410037e+001
 3.363443456893223e+000	 2.581021776788313e-001	 1.086919055669483e+001
 3.360771977788672e+000	 2.908274866828314e-001	 1.085909947676565e+001
 3.357770891310391e+000	 3.236415883301516e-001	 1.086728304032750e+001
 3.400000000000000e+000	 0.000000000000000e+000	 1.090828888392115e+001
 3.399848288843145e+000	 3.211773365058895e-002	 1.096470176139942e+001
 3.399390814050797e+000	 6.435748067584715e-002	 1.098629947857595e+001
 3.398624095269111e+000	 9.671551035186185e-002	 1.098217964611373e+001
 3.397544696455680e+000	 1.291879959367673e-001	 1.096073130154993e+001
 3.396149228576582e+000	 1.617710148445832e-001	 1.092964844632471e+001
 3.394434352328458e+000	 1.944605489001441e-001	 1.089594537390463e+001
 3.392396780883214e+000	 2.272524846770251e-001	 1.086597404295723e+001
 3.390033282652842e+000	 2.601426139203092e-001	 1.084544376711936e+001
 3.387340684071737e+000	 2.931266340559610e-001	 1.083944352714037e+001
 3.384315872393812e+000	 3.262001487885012e-001	 1.085246724585509e+001
 3.118866061563838e+000	 3.006145442108607e-001	 1.085166010965739e+001
 3.115770023914197e+000	 3.311676876108510e-001	 1.086279871059858e+001
 3.112362366168644e+000	 3.617949902300639e-001	 1.086836166971731e+001
 3.108640405069573e+000	 3.924922145166821e-001	 1.087135521363503e+001
 3.104601523616499e+000	 4.232550415549728e-001	 1.087465421233868e+001
 3.100243173639482e+000	 4.540790720423594e-001	 1.088101343586605e+001
 3.095562878368370e+000	 4.849598273529444e-001	 1.089307946701612e+001
 3.090558234994751e+000	 5.158927506883084e-001	 1.091340262835483e+001
 3.085226917223479e+000	 5.468732083162872e-001	 1.094444823994104e+001
 3.079566677810540e+000	 5.778964908983217e-001	 1.098860648648688e+001
 3.073575351083984e+000	 6.089578149058433e-001	 1.104820013966132e+001
 3.145411042646106e+000	 3.031731046692103e-001	 1.080145458285145e+001
 3.142288654310429e+000	 3.339862889291541e-001	 1.081908159772279e+001
 3.138851993649093e+000	 3.648742635849503e-001	 1.082987888079676e+001
 3.135098354567003e+000	 3.958327550185429e-001	 1.083710862843516e+001
 3.131025097790099e+000	 4.268574075554641e-001	 1.084385858915882e+001
 3.126629653460698e+000	 4.579437844502214e-001	 1.085305777863104e+001
 3.121909523728590e+000	 4.890873689588727e-001	 1.086749304802680e+001
 3.116862285334807e+000	 5.202835654996194e-001	 1.088982582055022e+001
 3.111485592184848e+000	 5.515277009021273e-001	 1.092260826602191e+001
 3.105777177908166e+000	 5.828150257461739e-001	 1.096829814297970e+001
 3.099734858400541e+000	 6.141407157900873e-001	 1.102927150221807e+001
 3.171956023728604e+000	 3.057316651271695e-001	 1.076925695843709e+001
 3.168807284706830e+000	 3.368048902469568e-001	 1.079171567488894e+001
 3.165341621129662e+000	 3.679535369392487e-001	 1.080620464732711e+001
 3.161556304064507e+000	 3.991732955197489e-001	 1.081622014308169e+001
 3.157448671963742e+000	 4.304597735552531e-001	 1.082504021353769e+001
 3.153016133281929e+000	 4.618084968573516e-001	 1.083574523863251e+001
 3.148256169088800e+000	 4.932149105640556e-001	 1.085123953185796e+001
 3.143166335674825e+000	 5.246743803101858e-001	 1.087427327471106e+001
 3.137744267146154e+000	 5.561821934872369e-001	 1.090746400156887e+001
 3.131987678005701e+000	 5.877335605933206e-001	 1.095331681258248e+001
 3.125894365716972e+000	 6.193236166736611e-001	 1.101424245403217e+001
 3.198501004811306e+000	 3.082902255848360e-001	 1.075311779627436e+001
 3.195325915103382e+000	 3.396234915643845e-001	 1.077866213595624e+001
 3.191831248610335e+000	 3.710328102931062e-001	 1.079525429128576e+001
 3.188014253562083e+000	 4.025138360204640e-001	 1.080659820873620e+001
 3.183872246137423e+000	 4.340621395545157e-001	 1.081613512361051e+001
 3.179402613103172e+000	 4.656732092639325e-001	 1.082706932388555e+001
 3.174602814449002e+000	 4.973424521686788e-001	 1.084239519189152e+001
 3.169470386014815e+000	 5.290651951201935e-001	 1.086492474457541e+001
 3.164002942107413e+000	 5.608366860717982e-001	 1.089731484184101e+001
 3.158198178103163e+000	 5.926520954399379e-001	 1.094209318603893e+001
 3.152053873033303e+000	 6.245065175567316e-001	 1.100168219477001e+001
 3.225045985894188e+000	 3.108487860423074e-001	 1.075108636109789e+001
 3.221844545500062e+000	 3.424420928815619e-001	 1.077789940697528e+001
 3.218320876091100e+000	 3.741120836466698e-001	 1.079497827327296e+001
 3.214472203059717e+000	 4.058543765208516e-001	 1.080620361333827e+001
 3.210295820311139e+000	 4.376645055534269e-001	 1.081514809794438e+001
 3.205789092924430e+000	 4.695379216701472e-001	 1.082510780738148e+001
 3.200949459809202e+000	 5.014699937729293e-001	 1.083913512940757e+001
 3.195774436354789e+000	 5.334560099298289e-001	 1.086007233313414e+001
 3.190261617068638e+000	 5.654911786559940e-001	 1.089058493423686e+001
 3.184408678200579e+000	 5.975706302862024e-001	 1.093319391727521e+001
 3.178213380349571e+000	 6.296894184394667e-001	 1.099030583710691e+001
 3.251590966977224e+000	 3.134073464996811e-001	 1.076121395081528e+001
 3.248363175896857e+000	 3.452606941986143e-001	 1.078742607244217e+001
 3.244810503571943e+000	 3.771913570000863e-001	 1.080336472281467e+001
 3.240930152557405e+000	 4.091949170210757e-001	 1.081305161952379e+001
 3.236719394484886e+000	 4.412668715521623e-001	 1.082015440210035e+001
 3.232175572745704e+000	 4.734026340761792e-001	 1.082802408079776e+001
 3.227296105169404e+000	 5.055975353769934e-001	 1.083973423042322e+001
 3.222078486694756e+000	 5.378468247392781e-001	 1.085812104607222e+001
 3.216520292029851e+000	 5.701456712400070e-001	 1.088582331932678e+001
 3.210619178297971e+000	 6.024891651322906e-001	 1.092532134055427e+001
 3.204372887665805e+000	 6.348723193220343e-001	 1.097897368611322e+001
 3.278135948060388e+000	 3.159659069570547e-001	 1.078155705434847e+001
 3.274881806293744e+000	 3.480792955156667e-001	 1.080526364738282e+001
 3.271300131052852e+000	 3.802706303535030e-001	 1.081844182977626e+001
 3.267388102055135e+000	 4.125354575212996e-001	 1.082521397797592e+001
 3.263142968658664e+000	 4.448692375508980e-001	 1.082930142405603e+001
 3.258562052566994e+000	 4.772673464822110e-001	 1.083406840964608e+001
 3.253642750529616e+000	 5.097250769810575e-001	 1.084256803576020e+001
 3.248382537034726e+000	 5.422376395487271e-001	 1.085758926950074e+001
 3.242778966991063e+000	 5.748001638240203e-001	 1.088170400656968e+001
 3.236829678395365e+000	 6.074076999783787e-001	 1.091731313210166e+001
 3.230532394982041e+000	 6.400552202046016e-001	 1.096669047235072e+001
 3.304680929143654e+000	 3.185244674145260e-001	 1.081018034860167e+001
 3.301400436690707e+000	 3.508978968328440e-001	 1.082945920393903e+001
 3.297789758533815e+000	 3.833499037070663e-001	 1.083828010469702e+001
 3.293846051552902e+000	 4.158759980216871e-001	 1.084082082321685e+001
 3.289566542832464e+000	 4.484716035498092e-001	 1.084081020473316e+001
 3.284948532388303e+000	 4.811320588884258e-001	 1.084157909540007e+001
 3.279989395889841e+000	 5.138526185853078e-001	 1.084611352922074e+001
 3.274686587374712e+000	 5.466284543583627e-001	 1.085710917623994e+001
 3.269037641952293e+000	 5.794546564082165e-001	 1.087702598838994e+001
 3.263040178492781e+000	 6.123262348246432e-001	 1.090814191932521e+001
 3.256691902298308e+000	 6.452381210873366e-001	 1.095260454128261e+001
 3.331225910226997e+000	 3.210830278721923e-001	 1.084515954353123e+001
 3.327919067087727e+000	 3.537164981502717e-001	 1.085808786056931e+001
 3.324279386014818e+000	 3.864291770609238e-001	 1.086099451535705e+001
 3.320304001050699e+000	 4.192165385224021e-001	 1.085806245839590e+001
 3.315990117006285e+000	 4.520739695490714e-001	 1.085297686948793e+001
 3.311335012209629e+000	 4.849967712950067e-001	 1.084898354979240e+001
 3.306336041250085e+000	 5.179801601899310e-001	 1.084894984844187e+001
 3.300990637714719e+000	 5.510192691683702e-001	 1.085542706463614e+001
 3.295296316913556e+000	 5.841091489927772e-001	 1.087071319605204e+001
 3.289250678590244e+000	 6.172447696712605e-001	 1.089691484055439e+001
 3.282851409614641e+000	 6.504210219704072e-001	 1.093600700143656e+001
 3.357770891310391e+000	 3.236415883301516e-001	 1.086728304032749e+001
 3.354437697484784e+000	 3.565350994680742e-001	 1.087868686212257e+001
 3.350769013495849e+000	 3.895084504152221e-001	 1.087892134045166e+001
 3.346761950548516e+000	 4.225570790236081e-001	 1.087244585241927e+001
 3.342413691180124e+000	 4.556763355488603e-001	 1.086319548341923e+001
 3.337721492030972e+000	 4.888614837021365e-001	 1.085462464006749e+001
 3.332682686610352e+000	 5.221077017951135e-001	 1.084975892270533e+001
 3.327294688054762e+000	 5.554100839789363e-001	 1.085140363365191e+001
 3.321554991874868e+000	 5.887636415778865e-001	 1.086181440055646e+001
 3.315461178687778e+000	 6.221633045184069e-001	 1.088287305803752e+001
 3.309010916931069e+000	 6.556039228539805e-001	 1.091633083360310e+001
 3.384315872393812e+000	 3.262001487885012e-001	 1.085246724585509e+001
 3.380956327881861e+000	 3.593537007863771e-001	 1.086839144432926e+001
 3.377258640976894e+000	 3.925877237701082e-001	 1.087174181488108e+001
 3.373219900046344e+000	 4.258976195254685e-001	 1.086711115738328e+001
 3.368837265353977e+000	 4.592787015493514e-001	 1.085854216710925e+001
 3.364107971852335e+000	 4.927261961099984e-001	 1.084956859476512e+001
 3.359029331970650e+000	 5.262352434010417e-001	 1.084326214648373e+001
 3.353598738394850e+000	 5.598008987902472e-001	 1.084228570066690e+001
 3.347813666836248e+000	 5.934181341637268e-001	 1.084895344296815e+001
 3.341671678785408e+000	 6.270818393662589e-001	 1.086529854161687e+001
 3.335170424247629e+000	 6.607868237382244e-001	 1.089314900217885e+001
 3.073575351083984e+000	 6.089578149058433e-001	 1.104820013966132e+001
 3.067249882023707e+000	 6.400569898093638e-001	 1.109239228021374e+001
 3.060589150818339e+000	 6.711844230832489e-001	 1.109200387976469e+001
 3.053591253298464e+000	 7.023351083413048e-001	 1.107848643981956e+001
 3.046254376817459e+000	 7.335039713734899e-001	 1.106918746132695e+001
 3.038576802639414e+000	 7.646858720132438e-001	 1.106418509365057e+001
 3.030556908289345e+000	 7.958756060941374e-001	 1.106328595496526e+001
 3.022193169862040e+000	 8.270679074953231e-001	 1.106602971321312e+001
 3.013484164285995e+000	 8.582574502751357e-001	 1.107169418732958e+001
 3.004428571538802e+000	 8.894388508920191e-001	 1.107930090974964e+001
 2.995025176810348e+000	 9.206066705118043e-001	 1.108762109669741e+001
 3.099734858400541e+000	 6.141407157900873e-001	 1.102927150221807e+001
 3.093355552640277e+000	 6.455045788827545e-001	 1.107359250439810e+001
 3.086638131285180e+000	 6.768969408555949e-001	 1.107302574998833e+001
 3.079580673959275e+000	 7.083127527125638e-001	 1.106418027424476e+001
 3.072181352588336e+000	 7.397468970565122e-001	 1.105840490323763e+001
 3.064438433808138e+000	 7.711941899724109e-001	 1.105589262224155e+001
 3.056350281334656e+000	 8.026493830006506e-001	 1.105655438023206e+001
 3.047915358292587e+000	 8.341071651999055e-001	 1.106002416648992e+001
 3.039132229498540e+000	 8.655621652988902e-001	 1.106566455678154e+001
 3.029999563695273e+000	 8.970089539361905e-001	 1.107257266432596e+001
 3.020516135733326e+000	 9.284420459871777e-001	 1.107958643690655e+001
 3.125894365716972e+000	 6.193236166736611e-001	 1.101424245403217e+001
 3.119461223256675e+000	 6.509521679555175e-001	 1.105734373789410e+001
 3.112687111751801e+000	 6.826094586273640e-001	 1.105703490287606e+001
 3.105570094619816e+000	 7.142903970833030e-001	 1.105208697104191e+001
 3.098108328358891e+000	 7.459898227390771e-001	 1.104914092265294e+001
 3.090300064976482e+000	 7.777025079311877e-001	 1.104849083493325e+001
 3.082143654379539e+000	 8.094231599068449e-001	 1.105013936493902e+001
 3.073637546722665e+000	 8.411464229042441e-001	 1.105380338026290e+001
 3.064780294710580e+000	 8.728668803224784e-001	 1.105892000141390e+001
 3.055570555851221e+000	 9.045790569802751e-001	 1.106465298486347e+001
 3.046007094655772e+000	 9.362774214625445e-001	 1.106989938259528e+001
 3.152053873033303e+000	 6.245065175567316e-001	 1.100168219477000e+001
 3.145566893872943e+000	 6.563997570278103e-001	 1.104236037209896e+001
 3.138736092218255e+000	 6.883219763987003e-001	 1.104292055867557e+001
 3.131559515280150e+000	 7.202680414536518e-001	 1.104121463439120e+001
 3.124035304129198e+000	 7.522327484212987e-001	 1.104053312945013e+001
 3.116161696144542e+000	 7.842108258896714e-001	 1.104125703817762e+001
 3.107937027424103e+000	 8.161969368128007e-001	 1.104346772061383e+001
 3.099359735152392e+000	 8.481856806084001e-001	 1.104695314704909e+001
 3.090428359922246e+000	 8.801715953459426e-001	 1.105121448878512e+001
 3.081141548006778e+000	 9.121491600242943e-001	 1.105547297745719e+001
 3.071498053577817e+000	 9.441127969379057e-001	 1.105867696284638e+001
 3.178213380349571e+000	 6.296894184394667e-001	 1.099030583710691e+001
 3.171672564489124e+000	 6.618473460997887e-001	 1.102751121115236e+001
 3.164785072684600e+000	 6.940344941697479e-001	 1.102971416787077e+001
 3.157548935940349e+000	 7.262456858237403e-001	 1.103071790906950e+001
 3.149962279899342e+000	 7.584756741032915e-001	 1.103186887639475e+001
 3.142023327312415e+000	 7.907191438479604e-001	 1.103362037910603e+001
 3.133730400468455e+000	 8.229707137185971e-001	 1.103611909934801e+001
 3.125081923581886e+000	 8.552249383124342e-001	 1.103921201155399e+001
 3.116076425133662e+000	 8.874763103693232e-001	 1.104245357471785e+001
 3.106712540162071e+000	 9.197192630682699e-001	 1.104511311276758e+001
 3.096989012499596e+000	 9.519481724132636e-001	 1.104618230666250e+001
 3.204372887665805e+000	 6.348723193220343e-001	 1.097897368611322e+001
 3.197778235105262e+000	 6.672949351716108e-001	 1.101182712629003e+001
 3.190834053150890e+000	 6.997470119406514e-001	 1.101658684419472e+001
 3.183538356600478e+000	 7.322233301936988e-001	 1.101989496990623e+001
 3.175889255669407e+000	 7.647185997851700e-001	 1.102258181137060e+001
 3.167884958480192e+000	 7.972274618061515e-001	 1.102515796720970e+001
 3.159523773512701e+000	 8.297444906243138e-001	 1.102782169198056e+001
 3.150804112011262e+000	 8.622641960164075e-001	 1.103046655281052e+001
 3.141724490344950e+000	 8.947810253926624e-001	 1.103268927727048e+001
 3.132283532317233e+000	 9.272893661122241e-001	 1.103379770015584e+001
 3.122479971421242e+000	 9.597835478886196e-001	 1.103281872607375e+001
 3.230532394982041e+000	 6.400552202046016e-001	 1.096669047235072e+001
 3.223883905721402e+000	 6.727425242434326e-001	 1.099535783260422e+001
 3.216883033617179e+000	 7.054595297115547e-001	 1.100284676735538e+001
 3.209527777260609e+000	 7.382009745636574e-001	 1.100818448753340e+001
 3.201816231439471e+000	 7.709615254670484e-001	 1.101224841151980e+001
 3.193746589647969e+000	 8.037357797643431e-001	 1.101559098258372e+001
 3.185317146556945e+000	 8.365182675300307e-001	 1.101844791653234e+001
 3.176526300440638e+000	 8.693034537203810e-001	 1.102074665929249e+001
 3.167372555556241e+000	 9.020857404160018e-001	 1.102211494544932e+001
 3.157854524472395e+000	 9.348594691561779e-001	 1.102188935736719e+001
 3.147970930342888e+000	 9.676189233639759e-001	 1.101912379464586e+001
 3.256691902298308e+000	 6.452381210873366e-001	 1.095260454128260e+001
 3.249989576337585e+000	 6.781901133154114e-001	 1.097799910774004e+001
 3.242932014083523e+000	 7.111720474826023e-001	 1.098793655717826e+001
 3.235517197920807e+000	 7.441786189337460e-001	 1.099516257176130e+001
 3.227743207209616e+000	 7.772044511490410e-001	 1.100058450030895e+001
 3.219608220815843e+000	 8.102440977226321e-001	 1.100478077148672e+001
 3.211110519601296e+000	 8.432920444358268e-001	 1.100801009743728e+001
 3.202248488870132e+000	 8.763427114244151e-001	 1.101022079739910e+001
 3.193020620767654e+000	 9.093904554393825e-001	 1.101106012295639e+001
 3.183425516627689e+000	 9.424295722001537e-001	 1.100988347601158e+001
 3.173461889264666e+000	 9.754542988393339e-001	 1.100576342164640e+001
 3.282851409614641e+000	 6.504210219704072e-001	 1.093600700143656e+001
 3.276095246953852e+000	 6.836377023877038e-001	 1.095919490172729e+001
 3.268980994549979e+000	 7.168845652539384e-001	 1.097143062075788e+001
 3.261506618581141e+000	 7.501562633040946e-001	 1.098053969382790e+001
 3.253670182979923e+000	 7.834473768312624e-001	 1.098744174847441e+001
 3.245469851983901e+000	 8.167524156811157e-001	 1.099272492992533e+001
 3.236903892645860e+000	 8.500658213417824e-001	 1.099665613608542e+001
 3.227970677299859e+000	 8.833819691285713e-001	 1.099919127367832e+001
 3.218668685979320e+000	 9.166951704628462e-001	 1.099998540724917e+001
 3.208996508783244e+000	 9.499996752441732e-001	 1.099840268307516e+001
 3.198952848186712e+000	 9.832896743146951e-001	 1.099352592211136e+001
 3.309010916931069e+000	 6.556039228539805e-001	 1.091633083360310e+001
 3.302200917570249e+000	 6.890852914604667e-001	 1.093851503103075e+001
 3.295029975016600e+000	 7.225970830257075e-001	 1.095303247411248e+001
 3.287496039241681e+000	 7.561339076748334e-001	 1.096415758869035e+001
 3.279597158750476e+000	 7.896903025138271e-001	 1.097280415973681e+001
 3.271331483152246e+000	 8.232607336398923e-001	 1.097955337592436e+001
 3.262697265690745e+000	 8.568395982479768e-001	 1.098466517315564e+001
 3.253692865729938e+000	 8.904212268329098e-001	 1.098808949113545e+001
 3.244316751191363e+000	 9.239998854864348e-001	 1.098947730417132e+001
 3.234567500939193e+000	 9.575697782882574e-001	 1.098819129868248e+001
 3.224443807109157e+000	 9.911250497900617e-001	 1.098331608303814e+001
 3.335170424247629e+000	 6.607868237382244e-001	 1.089314900217885e+001
 3.328306588186819e+000	 6.945328805338575e-001	 1.091565289194059e+001
 3.321078955483442e+000	 7.283096007980533e-001	 1.093257203974095e+001
 3.313485459902494e+000	 7.621115520460927e-001	 1.094598613845358e+001
 3.305524134521356e+000	 7.959332281968501e-001	 1.095678454212141e+001
 3.297193114320970e+000	 8.297690515990595e-001	 1.096552441110359e+001
 3.288490638736054e+000	 8.636133751544902e-001	 1.097244324319015e+001
 3.279415054160485e+000	 8.974604845374923e-001	 1.097747119995133e+001
 3.269964816403907e+000	 9.313046005101893e-001	 1.098024307839706e+001
 3.260138493095665e+000	 9.651398813324289e-001	 1.098010979031403e+001
 3.249934766032135e+000	 9.989604252654352e-001	 1.097614922591746e+001
 2.995025176810348e+000	 9.206066705118043e-001	 1.108762109669741e+001
 2.985272871861279e+000	 9.517554169440451e-001	 1.109931481731971e+001
 2.975170654820722e+000	 9.828795457048585e-001	 1.111788595880131e+001
 2.964717634414845e+000	 1.013973463865370e+000	 1.114307195973609e+001
 2.953913032638836e+000	 1.045031533136541e+000	 1.117451968826711e+001
 2.942756186611072e+000	 1.076048072588373e+000	 1.121170210913737e+001
 2.931246550353865e+000	 1.107017361446401e+000	 1.125398945352170e+001
 2.919383696497328e+000	 1.137933641963363e+000	 1.130063712185438e+001
 2.907167317903019e+000	 1.168791122363753e+000	 1.135079174976336e+001
 2.894597229204027e+000	 1.199583979858828e+000	 1.140349738776014e+001
 2.881673368258283e+000	 1.230306363729441e+000	 1.145770183596818e+001
 3.020516135733326e+000	 9.284420459871777e-001	 1.107958643690655e+001
 3.010680827941015e+000	 9.598559025168253e-001	 1.109016343574256e+001
 3.000492629920439e+000	 9.912449318515900e-001	 1.110842778088748e+001
 2.989950642812039e+000	 1.022603493460617e+000	 1.113390422208214e+001
 2.979054081989313e+000	 1.053925901066823e+000	 1.116601098904248e+001
 2.967802278928780e+000	 1.085206425389242e+000	 1.120398695907528e+001
 2.956194683005870e+000	 1.116439296963322e+000	 1.124695585634071e+001
 2.944230863213301e+000	 1.147618709037035e+000	 1.129391630962366e+001
 2.931910509798535e+000	 1.178738820540490e+000	 1.134374806812519e+001
 2.919233435816972e+000	 1.209793759126602e+000	 1.139521827201698e+001
 2.906199578597639e+000	 1.240777624280165e+000	 1.144698782280634e+001
 3.046007094655772e+000	 9.362774214625445e-001	 1.106989938259528e+001
 3.036088784020225e+000	 9.679563880896780e-001	 1.107889162227811e+001
 3.025814605019650e+000	 9.996103179984717e-001	 1.109635302338523e+001
 3.015183651208758e+000	 1.031233523056087e+000	 1.112159127250920e+001
 3.004195131339357e+000	 1.062820268997393e+000	 1.115379200169572e+001
 2.992848371246103e+000	 1.094364778190455e+000	 1.119195554616402e+001
 2.981142815657544e+000	 1.125861232480630e+000	 1.123495474970444e+001
 2.969078029928998e+000	 1.157303776111121e+000	 1.128152697795804e+001
 2.956653701693830e+000	 1.188686518717652e+000	 1.133028043614538e+001
 2.943869642429749e+000	 1.220003538394793e+000	 1.137970047608915e+001
 2.930725788936877e+000	 1.251248884831276e+000	 1.142815594164940e+001
 3.071498053577817e+000	 9.441127969379057e-001	 1.105867696284638e+001
 3.061496740099038e+000	 9.760568736625853e-001	 1.106579824067258e+001
 3.051136580118481e+000	 1.007975704145466e+000	 1.108212541719512e+001
 3.040416659605120e+000	 1.039863552651724e+000	 1.110674465227019e+001
 3.029336180689076e+000	 1.071714636928179e+000	 1.113860498107029e+001
 3.017894463563139e+000	 1.103523130991923e+000	 1.117646379224151e+001
 3.006090948308972e+000	 1.135283167998225e+000	 1.121893878685319e+001
 2.993925196644493e+000	 1.166988843185512e+000	 1.126450175218019e+001
 2.981396893588967e+000	 1.198634216895123e+000	 1.131148493082306e+001
 2.968505849042415e+000	 1.230213317663281e+000	 1.135808730677530e+001
 2.955251999276042e+000	 1.261720145382654e+000	 1.140238086194543e+001
 3.096989012499596e+000	 9.519481724132636e-001	 1.104618230666250e+001
 3.086904696177589e+000	 9.841573592355289e-001	 1.105132439047094e+001
 3.076458555217061e+000	 1.016341090292535e+000	 1.106633568378559e+001
 3.065649668001246e+000	 1.048493582247471e+000	 1.109010998114728e+001
 3.054477230038581e+000	 1.080609004859105e+000	 1.112132202923161e+001
 3.042940555879986e+000	 1.112681483793558e+000	 1.115849317855753e+001
 3.031039080960242e+000	 1.144705103516002e+000	 1.119998187238741e+001
 3.018772363359863e+000	 1.176673910260097e+000	 1.124399021879569e+001
 3.006140085484014e+000	 1.208581915072786e+000	 1.128857035788604e+001
 2.993142055655025e+000	 1.240423096931948e+000	 1.133163066631918e+001
 2.979778209615192e+000	 1.272191405934185e+000	 1.137094185737698e+001
 3.122479971421242e+000	 9.597835478886196e-001	 1.103281872607375e+001
 3.112312652256008e+000	 9.922578448084909e-001	 1.103604709127736e+001
 3.101780530315511e+000	 1.024706476439641e+000	 1.104974106018552e+001
 3.090882676397256e+000	 1.057123611843272e+000	 1.107255977085822e+001
 3.079618279387981e+000	 1.089503372790100e+000	 1.110293743794546e+001
 3.067986648196746e+000	 1.121839836595271e+000	 1.113914259432790e+001
 3.055987213611443e+000	 1.154127039033864e+000	 1.117927049450028e+001
 3.043619530075185e+000	 1.186358977334763e+000	 1.122124971965162e+001
 3.030883277379037e+000	 1.218529613250524e+000	 1.126284848681347e+001
 3.017778262267638e+000	 1.250632876200675e+000	 1.130168070796657e+001
 3.004304419954371e+000	 1.282662666485751e+000	 1.133521186239637e+001
 3.147970930342888e+000	 9.676189233639759e-001	 1.101912379464586e+001
 3.137720608334429e+000	 1.000358330381453e+000	 1.102067296215084e+001
 3.127102505413966e+000	 1.033071862586746e+000	 1.103318700193655e+001
 3.116115684793268e+000	 1.065753641439071e+000	 1.105508623526319e+001
 3.104759328737387e+000	 1.098397740721089e+000	 1.108456002989398e+001
 3.093032740513514e+000	 1.130998189396973e+000	 1.111962018671931e+001
 3.080935346262660e+000	 1.163548974551708e+000	 1.115809506209757e+001
 3.068466696790536e+000	 1.196044044409403e+000	 1.119763615521111e+001
 3.055626469274102e+000	 1.228477311428221e+000	 1.123572429998082e+001
 3.042414468880311e+000	 1.260842655469342e+000	 1.126967551143844e+001
 3.028830630293633e+000	 1.293133927037235e+000	 1.129664655526446e+001
 3.173461889264666e+000	 9.754542988393339e-001	 1.100576342164640e+001
 3.163128564412980e+000	 1.008458815954396e+000	 1.100603189640973e+001
 3.152424480512545e+000	 1.041437248733813e+000	 1.101764967013974e+001
 3.141348693189400e+000	 1.074383671034812e+000	 1.103879409755058e+001
 3.129900378086907e+000	 1.107292108652000e+000	 1.106740549870161e+001
 3.118078832830392e+000	 1.140156542198577e+000	 1.110123521218531e+001
 3.105883478913983e+000	 1.172970910069433e+000	 1.113784124653040e+001
 3.093313863505989e+000	 1.205729111483904e+000	 1.117459479643013e+001
 3.080369661169275e+000	 1.238425009605759e+000	 1.120868625513408e+001
 3.067050675493100e+000	 1.271052434737831e+000	 1.123713077720033e+001
 3.053356840633026e+000	 1.303605187588521e+000	 1.125677346610159e+001
 3.198952848186712e+000	 9.832896743146951e-001	 1.099352592211136e+001
 3.188536520491794e+000	 1.016559301527303e+000	 1.099306068094318e+001
 3.177746455611379e+000	 1.049802634880804e+000	 1.100421646269642e+001
 3.166581701585774e+000	 1.083013700630437e+000	 1.102489339457069e+001
 3.155041427436653e+000	 1.116186476582760e+000	 1.105278874783602e+001
 3.143124925147480e+000	 1.149314894999995e+000	 1.108538988907752e+001
 3.130831611565500e+000	 1.182392845586940e+000	 1.111998132768334e+001
 3.118161030221623e+000	 1.215414178558155e+000	 1.115365110475781e+001
 3.105112853064622e+000	 1.248372707783021e+000	 1.118329656044888e+001
 3.091686882106063e+000	 1.281262214006022e+000	 1.120562953848094e+001
 3.077883050972602e+000	 1.314076448139490e+000	 1.121718110855736e+001
 3.224443807109157e+000	 9.911250497900617e-001	 1.098331608303814e+001
 3.213944476571004e+000	 1.024659787100156e+000	 1.098283808936415e+001
 3.203068430710595e+000	 1.058168021027681e+000	 1.099407925894068e+001
 3.191814709982508e+000	 1.091643730225892e+000	 1.101469227847525e+001
 3.180182476786732e+000	 1.125080844513294e+000	 1.104211622844692e+001
 3.168171017464872e+000	 1.158473247801138e+000	 1.107357125146161e+001
 3.155779744217294e+000	 1.191814781104125e+000	 1.110606554417697e+001
 3.143008196937514e+000	 1.225099245632047e+000	 1.113640155981077e+001
 3.129856044960207e+000	 1.258320405959892e+000	 1.116118146147911e+001
 3.116323088719257e+000	 1.291471993273796e+000	 1.117681189005698e+001
 3.102409261312411e+000	 1.324547708690029e+000	 1.117950813379160e+001
 3.249934766032135e+000	 9.989604252654352e-001	 1.097614922591746e+001
 3.239352432650741e+000	 1.032760272672935e+000	 1.097651445005922e+001
 3.228390405810319e+000	 1.066533407174408e+000	 1.098852766077426e+001
 3.217047718379722e+000	 1.100273759821121e+000	 1.100958981581024e+001
 3.205323526137257e+000	 1.133975212443531e+000	 1.103687827620062e+001
 3.193217109782673e+000	 1.167631600601917e+000	 1.106734300407219e+001
 3.180727876869459e+000	 1.201236716620890e+000	 1.109771344745908e+001
 3.167855363653739e+000	 1.234784312705469e+000	 1.112450449429953e+001
 3.154599236856098e+000	 1.268268104136253e+000	 1.114402153934235e+001
 3.140959295332737e+000	 1.301681772541034e+000	 1.115236473288468e+001
 3.126935471652506e+000	 1.335018969240017e+000	 1.114552558343225e+001
 2.881673368258283e+000	 1.230306363729441e+000	 1.145770183596818e+001
 2.868397815937404e+000	 1.260947808074110e+000	 1.149540922311130e+001
 2.854768850366805e+000	 1.291507033333439e+000	 1.149804032356206e+001
 2.840786788950489e+000	 1.321978128413373e+000	 1.146343908735699e+001
 2.826452077113804e+000	 1.352355167314767e+000	 1.140265466213672e+001
 2.811765289274061e+000	 1.382632212507476e+000	 1.136255793538589e+001
 2.796727129707190e+000	 1.412803318353237e+000	 1.134413580146498e+001
 2.781338433307961e+000	 1.442862534573747e+000	 1.134344804056097e+001
 2.765600166241468e+000	 1.472803909760124e+000	 1.135637306215041e+001
 2.749513426483719e+000	 1.502621494919892e+000	 1.137862225052903e+001
 2.733079444249319e+000	 1.532309347057451e+000	 1.140575542320058e+001
 2.906199578597639e+000	 1.240777624280165e+000	 1.144698782280635e+001
 2.892811036722655e+000	 1.271679861023362e+000	 1.147978496856664e+001
 2.879066073662389e+000	 1.302499178906337e+000	 1.147394795639372e+001
 2.864965009522325e+000	 1.333229616525127e+000	 1.142732116706913e+001
 2.850508293518876e+000	 1.363865197443819e+000	 1.137184548436737e+001
 2.835696504958288e+000	 1.394399933597354e+000	 1.133899821774535e+001
 2.820530354110669e+000	 1.424827828743552e+000	 1.132517584664808e+001
 2.805010682976676e+000	 1.455142881960698e+000	 1.132658663897751e+001
 2.789138465944542e+000	 1.485339091186877e+000	 1.133926419746729e+001
 2.772914810335271e+000	 1.515410456797143e+000	 1.135908201469594e+001
 2.756340956833962e+000	 1.545350985214472e+000	 1.138176918029295e+001
 2.930725788936877e+000	 1.251248884831276e+000	 1.142815594164940e+001
 2.917224257507826e+000	 1.282411913972944e+000	 1.145521871467767e+001
 2.903363296957933e+000	 1.313491324479491e+000	 1.144026562635598e+001
 2.889143230094151e+000	 1.344481104637046e+000	 1.138569638765434e+001
 2.874564509923965e+000	 1.375375227572934e+000	 1.134001162749073e+001
 2.859627720642561e+000	 1.406167654687189e+000	 1.131425789600325e+001
 2.844333578514223e+000	 1.436852339133718e+000	 1.130497900378413e+001
 2.828682932645491e+000	 1.467423229347398e+000	 1.130853776850662e+001
 2.812676765647745e+000	 1.497874272613285e+000	 1.132112955331318e+001
 2.796316194186985e+000	 1.528199418673973e+000	 1.133879703750161e+001
 2.779602469418804e+000	 1.558392623371014e+000	 1.135744618027233e+001
 2.955251999276042e+000	 1.261720145382654e+000	 1.140238086194544e+001
 2.941637478292967e+000	 1.293143966922747e+000	 1.142291346944676e+001
 2.927660520253484e+000	 1.324483470052802e+000	 1.139823454717359e+001
 2.913321450666013e+000	 1.355732592749046e+000	 1.134435072139667e+001
 2.898620726329122e+000	 1.386885257702044e+000	 1.130811926484097e+001
 2.883558936326929e+000	 1.417935375776931e+000	 1.128922853525712e+001
 2.868136802917897e+000	 1.448876849523700e+000	 1.128437530966654e+001
 2.852355182314455e+000	 1.479703576733828e+000	 1.129008287929801e+001
 2.836215065351122e+000	 1.510409454039345e+000	 1.130271476680160e+001
 2.819717578038901e+000	 1.540988380550389e+000	 1.131848971919428e+001
 2.802863982003877e+000	 1.571434261527091e+000	 1.133349793640392e+001
 2.979778209615192e+000	 1.272191405934185e+000	 1.137094185737698e+001
 2.966050699078124e+000	 1.303876019872661e+000	 1.138417263125163e+001
 2.951957743549080e+000	 1.335475615626169e+000	 1.134936027670706e+001
 2.937499671237958e+000	 1.366984080861041e+000	 1.130432117027022e+001
 2.922676942734390e+000	 1.398395287831081e+000	 1.127711945703467e+001
 2.907490152011438e+000	 1.429703096866527e+000	 1.126478831700362e+001
 2.891940027321740e+000	 1.460901359913464e+000	 1.126418284132660e+001
 2.876027431983615e+000	 1.491983924119971e+000	 1.127199258269179e+001
 2.859753365054722e+000	 1.522944635465056e+000	 1.128475545651841e+001
 2.843118961891063e+000	 1.553777342426400e+000	 1.129887296315334e+001
 2.826125494589216e+000	 1.584475899682720e+000	 1.131062669001342e+001
 3.004304419954371e+000	 1.282662666485751e+000	 1.133521186239637e+001
 2.990463919863343e+000	 1.314608072822576e+000	 1.134038844442672e+001
 2.976254966844774e+000	 1.346467761199496e+000	 1.130065092688723e+001
 2.961677891810028e+000	 1.378235568972947e+000	 1.126662699937789e+001
 2.946733159139816e+000	 1.409905317959976e+000	 1.124794770676717e+001
 2.931421367696138e+000	 1.441470817955927e+000	 1.124180157218457e+001
 2.915743251725804e+000	 1.472925870302979e+000	 1.124520724528400e+001
 2.899699681653019e+000	 1.504264271505810e+000	 1.125502619436247e+001
 2.883291664758588e+000	 1.535479816890413e+000	 1.126797679695886e+001
 2.866520345743509e+000	 1.566566304302014e+000	 1.128064979870722e+001
 2.849387007174854e+000	 1.597517537837919e+000	 1.128952509843798e+001
 3.028830630293633e+000	 1.293133927037235e+000	 1.129664655526446e+001
 3.014877140648669e+000	 1.325340125772381e+000	 1.129303048791866e+001
 3.000552190140604e+000	 1.357459906772683e+000	 1.125600771922527e+001
 2.985856112382270e+000	 1.389487057084677e+000	 1.123226955738748e+001
 2.970789375545449e+000	 1.421415348088662e+000	 1.122152356150748e+001
 2.955352583381074e+000	 1.453238539045079e+000	 1.122111836546101e+001
 2.939546476130134e+000	 1.484950380692208e+000	 1.122824132056105e+001
 2.923371931322718e+000	 1.516544618891328e+000	 1.123993133298079e+001
 2.906829964462770e+000	 1.548014998315415e+000	 1.125309314946449e+001
 2.889921729596284e+000	 1.579355266177241e+000	 1.126451306067166e+001
 2.872648519760825e+000	 1.610559175992701e+000	 1.127087597916663e+001
 3.053356840633026e+000	 1.303605187588521e+000	 1.125677346610159e+001
 3.039290361434153e+000	 1.336072178721969e+000	 1.124389443976119e+001
 3.024849413436621e+000	 1.368452052345632e+000	 1.121650576873530e+001
 3.010034332954730e+000	 1.400738545196150e+000	 1.120223195635236e+001
 2.994845591951333e+000	 1.432925378217068e+000	 1.119875026139920e+001
 2.979283799066296e+000	 1.465006260133933e+000	 1.120357412783276e+001
 2.963349700534780e+000	 1.496974891081117e+000	 1.121406465243781e+001
 2.947044180992757e+000	 1.528824966276507e+000	 1.122744357127138e+001
 2.930368264167312e+000	 1.560550179740057e+000	 1.124080774648288e+001
 2.913323113449429e+000	 1.592144228052089e+000	 1.125114512241797e+001
 2.895910032347164e+000	 1.623600814147085e+000	 1.125535210701204e+001
 3.077883050972602e+000	 1.314076448139490e+000	 1.121718110855736e+001
 3.063703582219838e+000	 1.346804231671227e+000	 1.119983909625738e+001
 3.049146636732866e+000	 1.379444197918242e+000	 1.118319952995582e+001
 3.034212553527452e+000	 1.411990033307279e+000	 1.117747879053765e+001
 3.018901808357516e+000	 1.444435408345127e+000	 1.118051442984499e+001
 3.003215014751850e+000	 1.476773981222436e+000	 1.118998933490947e+001
 2.987152924939790e+000	 1.508999401469674e+000	 1.120344329411796e+001
 2.970716430663188e+000	 1.541105313661330e+000	 1.121828613654525e+001
 2.953906563872260e+000	 1.573085361164339e+000	 1.123181242617631e+001
 2.936724497302985e+000	 1.604933189926567e+000	 1.124121767948686e+001
 2.919171544933902e+000	 1.636642452301086e+000	 1.124361606135332e+001
 3.102409261312411e+000	 1.324547708690029e+000	 1.117950813379160e+001
 3.088116803005770e+000	 1.357536284620048e+000	 1.116418377336183e+001
 3.073443860029386e+000	 1.390436343490417e+000	 1.115712259283086e+001
 3.058390774100482e+000	 1.423241521417980e+000	 1.115895589209273e+001
 3.042958024764041e+000	 1.455945438472770e+000	 1.116768580441359e+001
 3.027146230437786e+000	 1.488541702310539e+000	 1.118116922830411e+001
 3.010956149345214e+000	 1.521023911857844e+000	 1.119712949365335e+001
 2.994388680334057e+000	 1.553385661045779e+000	 1.121316965796714e+001
 2.977444863577661e+000	 1.585620542588254e+000	 1.122678741459234e+001
 2.960125881156992e+000	 1.617722151800683e+000	 1.123539158094937e+001
 2.942433057521075e+000	 1.649684090454720e+000	 1.123632012068171e+001
 3.126935471652506e+000	 1.335018969240017e+000	 1.114552558343225e+001
 3.112530023792000e+000	 1.368268337568320e+000	 1.113803819765900e+001
 3.097741083326226e+000	 1.401428489062056e+000	 1.113928750948691e+001
 3.082568994673866e+000	 1.434493009528169e+000	 1.114759012154783e+001
 3.067014241170958e+000	 1.467455468599930e+000	 1.116111700585447e+001
 3.051077446124149e+000	 1.500309423398188e+000	 1.117790357778370e+001
 3.034759373751101e+000	 1.533048422245595e+000	 1.119586146364315e+001
 3.018060930005413e+000	 1.565666008429837e+000	 1.121279195799326e+001
 3.000983163283563e+000	 1.598155724011803e+000	 1.122640115278597e+001
 2.983527265011495e+000	 1.630511113674446e+000	 1.123431670589394e+001
 2.965694570108715e+000	 1.662725728608005e+000	 1.123410620184948e+001
 2.733079444249319e+000	 1.532309347057451e+000	 1.140575542320058e+001
 2.716297039568712e+000	 1.561865955864427e+000	 1.143021434913879e+001
 2.699170149807902e+000	 1.591280936462618e+000	 1.144754330760493e+001
 2.681700406264190e+000	 1.620548384726113e+000	 1.145796480311913e+001
 2.663889573078078e+000	 1.649662417173072e+000	 1.146186230486029e+001
 2.645739547069145e+000	 1.678617174651289e+000	 1.146083300378264e+001
 2.627252357450539e+000	 1.707406826031018e+000	 1.145691928782410e+001
 2.608430165421336e+000	 1.736025571900472e+000	 1.145202728167938e+001
 2.589275263636230e+000	 1.764467648259312e+000	 1.144829097054076e+001
 2.569790075552225e+000	 1.792727330205412e+000	 1.144805709139640e+001
 2.549977154652176e+000	 1.820798935610175e+000	 1.145386816917815e+001
 2.756340956833962e+000	 1.545350985214472e+000	 1.138176918029295e+001
 2.739415715428227e+000	 1.575159153276105e+000	 1.140171210828179e+001
 2.722143056995375e+000	 1.604824487717099e+000	 1.141626157562816e+001
 2.704524626716821e+000	 1.634341034160934e+000	 1.142560247148873e+001
 2.686562203747828e+000	 1.663702859050866e+000	 1.143006073131290e+001
 2.668257701051978e+000	 1.692904053366853e+000	 1.143011764641884e+001
 2.649613165113236e+000	 1.721938736349818e+000	 1.142719695781661e+001
 2.630630775524841e+000	 1.750801059228598e+000	 1.142385105320176e+001
 2.611312844454485e+000	 1.779485208944865e+000	 1.142220985374677e+001
 2.591661815985435e+000	 1.807985411871277e+000	 1.142461878263186e+001
 2.571680265333476e+000	 1.836295937518066e+000	 1.143362627510222e+001
 2.779602469418804e+000	 1.558392623371014e+000	 1.135744618027233e+001
 2.762534391287984e+000	 1.588452350687268e+000	 1.137330574031869e+001
 2.745115964183133e+000	 1.618368038971052e+000	 1.138540783487552e+001
 2.727348847169785e+000	 1.648133683595235e+000	 1.139387288881931e+001
 2.709234834417954e+000	 1.677743300928162e+000	 1.139895817702524e+001
 2.690775855035223e+000	 1.707190932081952e+000	 1.140107284800094e+001
 2.671973972776374e+000	 1.736470646668198e+000	 1.140079327707566e+001
 2.652831385628806e+000	 1.765576546556352e+000	 1.139941377381662e+001
 2.633350425273202e+000	 1.794502769630098e+000	 1.139989252574024e+001
 2.613533556419094e+000	 1.823243493536873e+000	 1.140461127593691e+001
 2.593383376015194e+000	 1.851792939425738e+000	 1.141609783455711e+001
 2.802863982003877e+000	 1.571434261527091e+000	 1.133349793640392e+001
 2.785653067148001e+000	 1.601745548097935e+000	 1.134569634290309e+001
 2.768088871371186e+000	 1.631911590224498e+000	 1.135566187741718e+001
 2.750173067623071e+000	 1.661926333029028e+000	 1.136342417706123e+001
 2.731907465088428e+000	 1.691783742804963e+000	 1.136914455887038e+001
 2.713294009018838e+000	 1.721477810796585e+000	 1.137313182647984e+001
 2.694334780439896e+000	 1.751002556986143e+000	 1.137585846157116e+001
 2.675031995733160e+000	 1.780352033883711e+000	 1.137797709542045e+001
 2.655388006092303e+000	 1.809520330314979e+000	 1.138071504991696e+001
 2.635405296853119e+000	 1.838501575202161e+000	 1.138734132198539e+001
 2.615086486697246e+000	 1.867289941333142e+000	 1.140050963908078e+001
 2.826125494589216e+000	 1.584475899682720e+000	 1.131062669001342e+001
 2.808771743008305e+000	 1.615038745508126e+000	 1.131957605441054e+001
 2.791061778559539e+000	 1.645455141477451e+000	 1.132769530287160e+001
 2.772997288076671e+000	 1.675718982462326e+000	 1.133489746077841e+001
 2.754580095759225e+000	 1.705824184681277e+000	 1.134122108820843e+001
 2.735812163002780e+000	 1.735764689510745e+000	 1.134684693921938e+001
 2.716695588103744e+000	 1.765534467303638e+000	 1.135211506564335e+001
 2.697232605837831e+000	 1.795127521210649e+000	 1.135754225579448e+001
 2.677425586911707e+000	 1.824537890999472e+000	 1.136383969018552e+001
 2.657277037287426e+000	 1.853759656867095e+000	 1.137221019203097e+001
 2.636789597379548e+000	 1.882786943240229e+000	 1.138618320687009e+001
 2.849387007174854e+000	 1.597517537837919e+000	 1.128952509843798e+001
 2.831890418868915e+000	 1.628331942917860e+000	 1.129562780780600e+001
 2.814034685748200e+000	 1.658998692729930e+000	 1.130217132368883e+001
 2.795821508530576e+000	 1.689511631895143e+000	 1.130892671006605e+001
 2.777252726430319e+000	 1.719864626557111e+000	 1.131578344298819e+001
 2.758330316987008e+000	 1.750051568224429e+000	 1.132276699264454e+001
 2.739056395767859e+000	 1.780066377620672e+000	 1.133005691430069e+001
 2.719433215942750e+000	 1.809903008537142e+000	 1.133800533332363e+001
 2.699463167731333e+000	 1.839555451683542e+000	 1.134715570065078e+001
 2.679148777721929e+000	 1.869017738531632e+000	 1.135826168690427e+001
 2.658492708062018e+000	 1.898283945146948e+000	 1.137253201149713e+001
 2.872648519760825e+000	 1.610559175992701e+000	 1.127087597916663e+001
 2.855009094729853e+000	 1.641625140327157e+000	 1.127452514019125e+001
 2.837007592937177e+000	 1.672542243981954e+000	 1.127974462636374e+001
 2.818645728984778e+000	 1.703304281327492e+000	 1.128613864036224e+001
 2.799925357101684e+000	 1.733905068432467e+000	 1.129342169377920e+001
 2.780848470971474e+000	 1.764338446937635e+000	 1.130143718281270e+001
 2.761417203432183e+000	 1.794598287937230e+000	 1.131017654189754e+001
 2.741633826047843e+000	 1.824678495863167e+000	 1.131979885504715e+001
 2.721500748551104e+000	 1.854573012367156e+000	 1.133065079523070e+001
 2.701020518156544e+000	 1.884275820195731e+000	 1.134328675340749e+001
 2.680195818744572e+000	 1.913780947053250e+000	 1.135848901097192e+001
 2.895910032347164e+000	 1.623600814147085e+000	 1.125535210701204e+001
 2.878127770591143e+000	 1.654918337736034e+000	 1.125693205490319e+001
 2.859980500126479e+000	 1.686085795233540e+000	 1.126106128543330e+001
 2.841469949439266e+000	 1.717096930759384e+000	 1.126715266595613e+001
 2.822597987773293e+000	 1.747945510307352e+000	 1.127472028504875e+001
 2.803366624956139e+000	 1.778625325650358e+000	 1.128339909337563e+001
 2.783778011096657e+000	 1.809130198253295e+000	 1.129296519636601e+001
 2.763834436153042e+000	 1.839453983188697e+000	 1.130335667276177e+001
 2.743538329370936e+000	 1.869590573050278e+000	 1.131469478303466e+001
 2.722892258591186e+000	 1.899533901859346e+000	 1.132730542238840e+001
 2.701898929427128e+000	 1.929277948959084e+000	 1.134174066465152e+001
 2.919171544933902e+000	 1.636642452301086e+000	 1.124361606135332e+001
 2.901246446452805e+000	 1.668211535144511e+000	 1.124350293322983e+001
 2.882953407316110e+000	 1.699629346484705e+000	 1.124675872731435e+001
 2.864294169894033e+000	 1.730889580190834e+000	 1.125258090419625e+001
 2.845270618445120e+000	 1.761985952181772e+000	 1.126025806860173e+001
 2.825884778940959e+000	 1.792912204362594e+000	 1.126919074773204e+001
 2.806138818761224e+000	 1.823662108568856e+000	 1.127891290018959e+001
 2.786035046258275e+000	 1.854229470513709e+000	 1.128911402356449e+001
 2.765575910190752e+000	 1.884608133732874e+000	 1.129966171805152e+001
 2.744763999025769e+000	 1.914791983522435e+000	 1.131062455357506e+001
 2.723602040109601e+000	 1.944774950864403e+000	 1.132229507892162e+001
 2.942433057521075e+000	 1.649684090454720e+000	 1.123632012068171e+001
 2.924365122314864e+000	 1.681504732552608e+000	 1.123488249300032e+001
 2.905926314506080e+000	 1.713172897735468e+000	 1.123746574122315e+001
 2.887118390349068e+000	 1.744682229621855e+000	 1.124302822759380e+001
 2.867943249117140e+000	 1.776026394055732e+000	 1.125060838629712e+001
 2.848402932925892e+000	 1.807199083074340e+000	 1.125934671237039e+001
 2.828499626425823e+000	 1.838194018883898e+000	 1.126850856497943e+001
 2.808235656363468e+000	 1.869004957838178e+000	 1.127750764686920e+001
 2.787613491010468e+000	 1.899625694414908e+000	 1.128593001042220e+001
 2.766635739460211e+000	 1.930050065184955e+000	 1.129355843022547e+001
 2.745305150791909e+000	 1.960271952769154e+000	 1.130039697247242e+001
 2.965694570108715e+000	 1.662725728608005e+000	 1.123410620184948e+001
 2.947483798177339e+000	 1.694797929960343e+000	 1.123170579147295e+001
 2.928899221696399e+000	 1.726716448985847e+000	 1.123380253459220e+001
 2.909942610804364e+000	 1.758474879052459e+000	 1.123909236119127e+001
 2.890615879789325e+000	 1.790066835929240e+000	 1.124633919933510e+001
 2.870921086910895e+000	 1.821485961785593e+000	 1.125439824859277e+001
 2.850860434090400e+000	 1.852725929198409e+000	 1.126224015671038e+001
 2.830436266468554e+000	 1.883780445162079e+000	 1.126897595479599e+001
 2.809651071830005e+000	 1.914643255096347e+000	 1.127388259419698e+001
 2.788507479894427e+000	 1.945308146846861e+000	 1.127642891704822e+001
 2.767008261473969e+000	 1.975768954673289e+000	 1.127630188226919e+001
 2.549977154652176e+000	 1.820798935610175e+000	 1.145386816917815e+001
 2.529839182825770e+000	 1.848676828161380e+000	 1.145822567562339e+001
 2.509378967208838e+000	 1.876355419114987e+000	 1.145180076746144e+001
 2.488599441235097e+000	 1.903829172691866e+000	 1.143456541438952e+001
 2.467503664099979e+000	 1.931092610269970e+000	 1.140652909063811e+001
 2.446094819379461e+000	 1.958140313934778e+000	 1.136771954078874e+001
 2.424376213529278e+000	 1.984966929989930e+000	 1.131816261715071e+001
 2.402351274265838e+000	 2.011567172423368e+000	 1.126094433098463e+001
 2.380023548830396e+000	 2.037935826324343e+000	 1.121958732834300e+001
 2.357396702138208e+000	 2.064067751246718e+000	 1.119736346053618e+001
 2.334474514814633e+000	 2.089957884514068e+000	 1.119217295154808e+001
 2.571680265333476e+000	 1.836295937518066e+000	 1.143362627510221e+001
 2.551370897214118e+000	 1.864411101601794e+000	 1.144095060007140e+001
 2.530736542655011e+000	 1.892325267812062e+000	 1.143629830681412e+001
 2.509780160056639e+000	 1.920032853254174e+000	 1.141938009760418e+001
 2.488504834651567e+000	 1.947528332676984e+000	 1.138994377307697e+001
 2.466913777111522e+000	 1.974806242053562e+000	 1.134775436241272e+001
 2.445010322033828e+000	 2.001861182121705e+000	 1.129265397890602e+001
 2.422797926308551e+000	 2.028687821879579e+000	 1.124312204548199e+001
 2.400280167367885e+000	 2.055280902031814e+000	 1.121190583606238e+001
 2.377460741319561e+000	 2.081635238381420e+000	 1.119670063707043e+001
 2.354343460966237e+000	 2.107745725163034e+000	 1.119508146824951e+001
 2.593383376015194e+000	 1.851792939425738e+000	 1.141609783455711e+001
 2.572902611602827e+000	 1.880145375042032e+000	 1.142525724421487e+001
 2.552094118101472e+000	 1.908295116508996e+000	 1.142086966703752e+001
 2.530960878878383e+000	 1.936236533816367e+000	 1.140246250502828e+001
 2.509506005203260e+000	 1.963964055083904e+000	 1.136960244511057e+001
 2.487732734843586e+000	 1.991472170172263e+000	 1.132187477834186e+001
 2.465644430538283e+000	 2.018755434253400e+000	 1.126706206122499e+001
 2.443244578351073e+000	 2.045808471335706e+000	 1.122857427147305e+001
 2.420536785905097e+000	 2.072625977739186e+000	 1.120572440434213e+001
 2.397524780500567e+000	 2.099202725516004e+000	 1.119597778454556e+001
 2.374212407117443e+000	 2.125533565811849e+000	 1.119667216347971e+001
 2.615086486697246e+000	 1.867289941333142e+000	 1.140050963908079e+001
 2.594434325991823e+000	 1.895879648482040e+000	 1.141030353885152e+001
 2.573451693548162e+000	 1.924264965205733e+000	 1.140463512891852e+001
 2.552141597700285e+000	 1.952440214378395e+000	 1.138292499378735e+001
 2.530507175755037e+000	 1.980399777490679e+000	 1.134463776158834e+001
 2.508551692575658e+000	 2.008138098290837e+000	 1.129081830679663e+001
 2.486278539042669e+000	 2.035649686384982e+000	 1.124592084658456e+001
 2.463691230393453e+000	 2.062929120791726e+000	 1.121667028646586e+001
 2.440793404442102e+000	 2.089971053446450e+000	 1.120053095761014e+001
 2.417588819681313e+000	 2.116770212650470e+000	 1.119482305647339e+001
 2.394081353268350e+000	 2.143321406460531e+000	 1.119673300103412e+001
 2.636789597379548e+000	 1.882786943240229e+000	 1.138618320687009e+001
 2.615966040381032e+000	 1.911613921921763e+000	 1.139534176366959e+001
 2.594809268995017e+000	 1.940234813902221e+000	 1.138680771768144e+001
 2.573322316522302e+000	 1.968643894940201e+000	 1.135996990342420e+001
 2.551508346306874e+000	 1.996835499897263e+000	 1.131426851079049e+001
 2.529370650307737e+000	 2.024804026409246e+000	 1.126364245788044e+001
 2.506912647547008e+000	 2.052543938516415e+000	 1.122856215129307e+001
 2.484137882435739e+000	 2.080049770247615e+000	 1.120683245891043e+001
 2.461050022978969e+000	 2.107316129153593e+000	 1.119586124304613e+001
 2.437652858861884e+000	 2.134337699784819e+000	 1.119290650323397e+001
 2.413950299419056e+000	 2.161109247109096e+000	 1.119508731988636e+001
 2.658492708062018e+000	 1.898283945146948e+000	 1.137253201149713e+001
 2.637497754770377e+000	 1.927348195361151e+000	 1.137971564520843e+001
 2.616166844441978e+000	 1.956204662598404e+000	 1.136669021733030e+001
 2.594503035344391e+000	 1.984847575501736e+000	 1.133288653148819e+001
 2.572509516858753e+000	 2.013271222303607e+000	 1.128196596286427e+001
 2.550189608039823e+000	 2.041469954527444e+000	 1.124138217079184e+001
 2.527546756051328e+000	 2.069438190647670e+000	 1.121437273354447e+001
 2.504584534477978e+000	 2.097170419703349e+000	 1.119853375239494e+001
 2.481306641515769e+000	 2.124661204860606e+000	 1.119129657095596e+001
 2.457716898042370e+000	 2.151905186919057e+000	 1.118993807972368e+001
 2.433819245569663e+000	 2.178897087757560e+000	 1.119159213737844e+001
 2.680195818744572e+000	 1.913780947053250e+000	 1.135848901097192e+001
 2.659029469159782e+000	 1.943082468800149e+000	 1.136285753875247e+001
 2.637524419888981e+000	 1.972174511294227e+000	 1.134367227042785e+001
 2.615683754166509e+000	 2.001051256062946e+000	 1.130107446744007e+001
 2.593510687410650e+000	 2.029706944709663e+000	 1.125547180970340e+001
 2.571008565771922e+000	 2.058135882645392e+000	 1.122341770243431e+001
 2.548180864555652e+000	 2.086332442778711e+000	 1.120279166629110e+001
 2.525031186520220e+000	 2.114291069158906e+000	 1.119129529269251e+001
 2.501563260052568e+000	 2.142006280567475e+000	 1.118646160832766e+001
 2.477780937222855e+000	 2.169472674053183e+000	 1.118566569509809e+001
 2.453688191720270e+000	 2.196684928405941e+000	 1.118613648213145e+001
 2.701898929427128e+000	 1.929277948959084e+000	 1.134174066465152e+001
 2.680561183549176e+000	 1.958816742238703e+000	 1.134364154574244e+001
 2.658881995335965e+000	 1.988144359989638e+000	 1.131722755850600e+001
 2.636864472988612e+000	 2.017254936623779e+000	 1.127097347460310e+001
 2.614511857962542e+000	 2.046142667115382e+000	 1.123442530411225e+001
 2.591827523504031e+000	 2.074801810763048e+000	 1.120918235519499e+001
 2.568814973060009e+000	 2.103226694909506e+000	 1.119330777709650e+001
 2.545477838562512e+000	 2.131411718614264e+000	 1.118468399412445e+001
 2.521819878589436e+000	 2.159351356274191e+000	 1.118102222257850e+001
 2.497844976403427e+000	 2.187040161187200e+000	 1.117987330224194e+001
 2.473557137870976e+000	 2.214472769054255e+000	 1.117863975500458e+001
 2.723602040109601e+000	 1.944774950864403e+000	 1.132229507892162e+001
 2.702092897938480e+000	 1.974551015676761e+000	 1.131964636742817e+001
 2.680239570782871e+000	 2.004114208684583e+000	 1.128666041688026e+001
 2.658045191810659e+000	 2.033458617184183e+000	 1.124750222873403e+001
 2.635513028514410e+000	 2.062578389520717e+000	 1.121828128962081e+001
 2.612646481236155e+000	 2.091467738880369e+000	 1.119815983264126e+001
 2.589449081564420e+000	 2.120120947040020e+000	 1.118545715123206e+001
 2.565924490604902e+000	 2.148532368069397e+000	 1.117831024193111e+001
 2.542076497126445e+000	 2.176696431980742e+000	 1.117468337269398e+001
 2.517909015584173e+000	 2.204607648321110e+000	 1.117237902475058e+001
 2.493426084021882e+000	 2.232260609702518e+000	 1.116905011653896e+001
 2.745305150791909e+000	 1.960271952769154e+000	 1.130039697247242e+001
 2.723624612327620e+000	 1.990285289114268e+000	 1.129084967527235e+001
 2.701597146229636e+000	 2.020084057379004e+000	 1.125778746745220e+001
 2.679225910632606e+000	 2.049662297744105e+000	 1.122957713042277e+001
 2.656514199066231e+000	 2.079014111925619e+000	 1.120654477225077e+001
 2.633465438968294e+000	 2.108133666997313e+000	 1.118988166038641e+001
 2.610083190068913e+000	 2.137015199170220e+000	 1.117882069451760e+001
 2.586371142647441e+000	 2.165653017524285e+000	 1.117182562755057e+001
 2.562333115663662e+000	 2.194041507687117e+000	 1.116718704513565e+001
 2.537973054765180e+000	 2.222175135454915e+000	 1.116303331934740e+001
 2.513295030173088e+000	 2.250048450350747e+000	 1.115734289941966e+001
 2.767008261473969e+000	 1.975768954673289e+000	 1.127630188226919e+001
 2.745156326716522e+000	 2.006019562551172e+000	 1.125830682354284e+001
 2.722954721676199e+000	 2.036053906072851e+000	 1.123376679469052e+001
 2.700406629454409e+000	 2.065865978303493e+000	 1.121445666711037e+001
 2.677515369617984e+000	 2.095449834330040e+000	 1.119831383143186e+001
 2.654284396700450e+000	 2.124799595113840e+000	 1.118392466854578e+001
 2.630717298573514e+000	 2.153909451300074e+000	 1.117302175262592e+001
 2.606817794690176e+000	 2.182773666978905e+000	 1.116492073390166e+001
 2.582589734201158e+000	 2.211386583393304e+000	 1.115831023206024e+001
 2.558037093946535e+000	 2.239742622588618e+000	 1.115171717179090e+001
 2.533163976324692e+000	 2.267836290998959e+000	 1.114351904458330e+001
 2.334474514814633e+000	 2.089957884514068e+000	 1.119217295154808e+001
 2.311264384991489e+000	 2.115597417230627e+000	 1.119141395536578e+001
 2.287766902175921e+000	 2.140985357364761e+000	 1.118430667571138e+001
 2.263986181384555e+000	 2.166116898914945e+000	 1.117137382084784e+001
 2.239926444295831e+000	 2.190987326190443e+000	 1.115310221141483e+001
 2.215592016756413e+000	 2.215592016756413e+000	 1.112994937557478e+001
 2.190987326190443e+000	 2.239926444295830e+000	 1.110235044604506e+001
 2.166116898914944e+000	 2.263986181384554e+000	 1.107072527474408e+001
 2.140985357364761e+000	 2.287766902175921e+000	 1.103548567877892e+001
 2.115597417230628e+000	 2.311264384991487e+000	 1.099704273030961e+001
 2.089957884514069e+000	 2.334474514814633e+000	 1.095581400246146e+001
 2.354343460966237e+000	 2.107745725163034e+000	 1.119508146824951e+001
 2.330935787405982e+000	 2.133603478507495e+000	 1.119462198657838e+001
 2.307238315163294e+000	 2.159207497939899e+000	 1.118534600146614e+001
 2.283255194278109e+000	 2.184552936554364e+000	 1.116839390147667e+001
 2.258990682359991e+000	 2.209635038524450e+000	 1.114487933452570e+001
 2.234449142073308e+000	 2.234449142073308e+000	 1.111589514047168e+001
 2.209635038524449e+000	 2.258990682359990e+000	 1.108251958510267e+001
 2.184552936554365e+000	 2.283255194278108e+000	 1.104582280843282e+001
 2.159207497939899e+000	 2.307238315163294e+000	 1.100687339814178e+001
 2.133603478507496e+000	 2.330935787405981e+000	 1.096674499776217e+001
 2.107745725163034e+000	 2.354343460966237e+000	 1.092652285885646e+001
 2.374212407117443e+000	 2.125533565811849e+000	 1.119667216347971e+001
 2.350607189820048e+000	 2.151609539784174e+000	 1.119573749790169e+001
 2.326709728150233e+000	 2.177429638514803e+000	 1.118405503522427e+001
 2.302524207171238e+000	 2.202988974193504e+000	 1.116328003680160e+001
 2.278054920423748e+000	 2.228282750858128e+000	 1.113504825208028e+001
 2.253306267389836e+000	 2.253306267389836e+000	 1.110098140126271e+001
 2.228282750858128e+000	 2.278054920423747e+000	 1.106269296287889e+001
 2.202988974193504e+000	 2.302524207171237e+000	 1.102179417570749e+001
 2.177429638514803e+000	 2.326709728150231e+000	 1.097990016231931e+001
 2.151609539784175e+000	 2.350607189820047e+000	 1.093863608023842e+001
 2.125533565811849e+000	 2.374212407117443e+000	 1.089964320634962e+001
 2.394081353268350e+000	 2.143321406460531e+000	 1.119673300103412e+001
 2.370278592233794e+000	 2.169615601060698e+000	 1.119469996565306e+001
 2.346181141136843e+000	 2.195651779089522e+000	 1.118049176336426e+001
 2.321793220064046e+000	 2.221425011832426e+000	 1.115617839681213e+001
 2.297119158487202e+000	 2.246930463191558e+000	 1.112381568986241e+001
 2.272163392706084e+000	 2.272163392706084e+000	 1.108545053155902e+001
 2.246930463191557e+000	 2.297119158487202e+000	 1.104312643250599e+001
 2.221425011832426e+000	 2.321793220064046e+000	 1.099888929898256e+001
 2.195651779089522e+000	 2.346181141136842e+000	 1.095479332782855e+001
 2.169615601060698e+000	 2.370278592233792e+000	 1.091290692380594e+001
 2.143321406460531e+000	 2.394081353268350e+000	 1.087531854076003e+001
 2.413950299419056e+000	 2.161109247109096e+000	 1.119508731988635e+001
 2.389949994647324e+000	 2.187621662337095e+000	 1.119147803716559e+001
 2.365652554123235e+000	 2.213873919664102e+000	 1.117473826444649e+001
 2.341062232956640e+000	 2.239861049471193e+000	 1.114725519612392e+001
 2.316183396550451e+000	 2.265578175524814e+000	 1.111140530671374e+001
 2.291020518022143e+000	 2.291020518022144e+000	 1.106955956605003e+001
 2.265578175524815e+000	 2.316183396550451e+000	 1.102408897843152e+001
 2.239861049471193e+000	 2.341062232956639e+000	 1.097737034622858e+001
 2.213873919664102e+000	 2.365652554123234e+000	 1.093179215607425e+001
 2.187621662337096e+000	 2.389949994647323e+000	 1.088976048436480e+001
 2.161109247109096e+000	 2.413950299419056e+000	 1.085370481839652e+001
 2.433819245569663e+000	 2.178897087757560e+000	 1.119159213737844e+001
 2.409621397060749e+000	 2.205627723613400e+000	 1.118606812017905e+001
 2.385123967109518e+000	 2.232096060238591e+000	 1.116689954215400e+001
 2.360331245849126e+000	 2.258297087109868e+000	 1.113669573129664e+001
 2.335247634613596e+000	 2.284225887857976e+000	 1.109805690057298e+001
 2.309877643338102e+000	 2.309877643338102e+000	 1.105357954315651e+001
 2.284225887857976e+000	 2.335247634613596e+000	 1.100586216715441e+001
 2.258297087109868e+000	 2.360331245849125e+000	 1.095751126486637e+001
 2.232096060238593e+000	 2.385123967109518e+000	 1.091114740910223e+001
 2.205627723613401e+000	 2.409621397060748e+000	 1.086941136760938e+001
 2.178897087757561e+000	 2.433819245569663e+000	 1.083497012623945e+001
 2.453688191720270e+000	 2.196684928405941e+000	 1.118613648213145e+001
 2.429292799474173e+000	 2.223633784889643e+000	 1.117849299011135e+001
 2.404595380095800e+000	 2.250318200813038e+000	 1.115710236641789e+001
 2.379600258741609e+000	 2.276733124748515e+000	 1.112470341861260e+001
 2.354311872676735e+000	 2.302873600191121e+000	 1.108402560904308e+001
 2.328734768654050e+000	 2.328734768654050e+000	 1.103779483789172e+001
 2.302873600191121e+000	 2.354311872676736e+000	 1.098873958528289e+001
 2.276733124748516e+000	 2.379600258741609e+000	 1.093959730134510e+001
 2.250318200813039e+000	 2.404595380095799e+000	 1.089312093046506e+001
 2.223633784889644e+000	 2.429292799474172e+000	 1.085208545441073e+001
 2.196684928405942e+000	 2.453688191720270e+000	 1.081929433854859e+001
 2.473557137870976e+000	 2.214472769054255e+000	 1.117863975500458e+001
 2.448964201887704e+000	 2.241639846165858e+000	 1.116880041420306e+001
 2.424066793082190e+000	 2.268540341387491e+000	 1.114549412226705e+001
 2.398869271634196e+000	 2.295169162387196e+000	 1.111149883228821e+001
 2.373376110739968e+000	 2.321521312524323e+000	 1.106958110479357e+001
 2.347591893970078e+000	 2.347591893970077e+000	 1.102250248548190e+001
 2.321521312524323e+000	 2.373376110739969e+000	 1.097302626562621e+001
 2.295169162387197e+000	 2.398869271634195e+000	 1.092392450720821e+001
 2.268540341387491e+000	 2.424066793082190e+000	 1.087798521203567e+001
 2.241639846165859e+000	 2.448964201887702e+000	 1.083801951243969e+001
 2.214472769054255e+000	 2.473557137870976e+000	 1.080686876065936e+001
 2.493426084021882e+000	 2.232260609702518e+000	 1.116905011653896e+001
 2.468635604301448e+000	 2.259645907442075e+000	 1.115706179159517e+001
 2.443538206068797e+000	 2.286762481961994e+000	 1.113224166597094e+001
 2.418138284526992e+000	 2.313605200025974e+000	 1.109731874309632e+001
 2.392440348803395e+000	 2.340169024857662e+000	 1.105500678608658e+001
 2.366449019286273e+000	 2.366449019286273e+000	 1.100801149626103e+001
 2.340169024857661e+000	 2.392440348803395e+000	 1.095903810198812e+001
 2.313605200025974e+000	 2.418138284526991e+000	 1.091079923240203e+001
 2.286762481961994e+000	 2.443538206068797e+000	 1.086602294755392e+001
 2.259645907442076e+000	 2.468635604301448e+000	 1.082746079479790e+001
 2.232260609702518e+000	 2.493426084021882e+000	 1.079789576068309e+001
 2.513295030173088e+000	 2.250048450350747e+000	 1.115734289941966e+001
 2.488307006715512e+000	 2.277651968718327e+000	 1.114337080845747e+001
 2.463009619055729e+000	 2.304984622536598e+000	 1.111753018807256e+001
 2.437407297420105e+000	 2.332041237664912e+000	 1.108241515737458e+001
 2.411504586867115e+000	 2.358816737191213e+000	 1.104059896269574e+001
 2.385306144602726e+000	 2.385306144602728e+000	 1.099464216232323e+001
 2.358816737191214e+000	 2.411504586867116e+000	 1.094710125328698e+001
 2.332041237664913e+000	 2.437407297420105e+000	 1.090053760653227e+001
 2.304984622536598e+000	 2.463009619055729e+000	 1.085752657363988e+001
 2.277651968718328e+000	 2.488307006715512e+000	 1.082066662637596e+001
 2.250048450350747e+000	 2.513295030173088e+000	 1.079258838977965e+001
 2.533163976324692e+000	 2.267836290998959e+000	 1.114351904458331e+001
 2.507978409130006e+000	 2.295658029994647e+000	 1.112784210734169e+001
 2.482481032043097e+000	 2.323206763111350e+000	 1.110156208293269e+001
 2.456676310313640e+000	 2.350477275304074e+000	 1.106705435640034e+001
 2.430568824931227e+000	 2.377464449525057e+000	 1.102666603747183e+001
 2.404163269919529e+000	 2.404163269919529e+000	 1.098272535638464e+001
 2.377464449525057e+000	 2.430568824931227e+000	 1.093755153758873e+001
 2.350477275304074e+000	 2.456676310313640e+000	 1.089346500873038e+001
 2.323206763111351e+000	 2.482481032043097e+000	 1.085279779896159e+001
 2.295658029994647e+000	 2.507978409130006e+000	 1.081790397861224e+001
 2.267836290998959e+000	 2.533163976324692e+000	 1.079116999163092e+001
 2.089957884514069e+000	 2.334474514814633e+000	 1.095581400246146e+001
 2.064067751246719e+000	 2.357396702138207e+000	 1.091132342613087e+001
 2.037935826324343e+000	 2.380023548830395e+000	 1.086069079904477e+001
 2.011567172423368e+000	 2.402351274265837e+000	 1.080073181342200e+001
 1.984966929989931e+000	 2.424376213529276e+000	 1.073183936882150e+001
 1.958140313934778e+000	 2.446094819379460e+000	 1.066849868599226e+001
 1.931092610269971e+000	 2.467503664099978e+000	 1.061201436280963e+001
 1.903829172691867e+000	 2.488599441235097e+000	 1.056160576573397e+001
 1.876355419114987e+000	 2.509378967208837e+000	 1.051641062550062e+001
 1.848676828161382e+000	 2.529839182825770e+000	 1.047544624496526e+001
 1.820798935610175e+000	 2.549977154652175e+000	 1.043757235577264e+001
 2.107745725163034e+000	 2.354343460966237e+000	 1.092652285885645e+001
 2.081635238381421e+000	 2.377460741319560e+000	 1.088602988962311e+001
 2.055280902031814e+000	 2.400280167367884e+000	 1.084204923081811e+001
 2.028687821879580e+000	 2.422797926308551e+000	 1.079111435248338e+001
 2.001861182121705e+000	 2.445010322033828e+000	 1.072978674271081e+001
 1.974806242053562e+000	 2.466913777111520e+000	 1.066486505637573e+001
 1.947528332676985e+000	 2.488504834651566e+000	 1.060773548662647e+001
 1.920032853254175e+000	 2.509780160056640e+000	 1.055742093556468e+001
 1.892325267812063e+000	 2.530736542655010e+000	 1.051280083014348e+001
 1.864411101601795e+000	 2.551370897214117e+000	 1.047262448969180e+001
 1.836295937518066e+000	 2.571680265333477e+000	 1.043547200688069e+001
 2.125533565811849e+000	 2.374212407117443e+000	 1.089964320634961e+001
 2.099202725516005e+000	 2.397524780500567e+000	 1.086290512714651e+001
 2.072625977739186e+000	 2.420536785905096e+000	 1.082486225152464e+001
 2.045808471335707e+000	 2.443244578351072e+000	 1.078185281846359e+001
 2.018755434253400e+000	 2.465644430538283e+000	 1.073024329336607e+001
 1.991472170172263e+000	 2.487732734843585e+000	 1.066760558742888e+001
 1.963964055083905e+000	 2.509506005203260e+000	 1.060819593356831e+001
 1.936236533816369e+000	 2.530960878878383e+000	 1.055631491155670e+001
 1.908295116508996e+000	 2.552094118101472e+000	 1.051067913657316e+001
 1.880145375042032e+000	 2.572902611602826e+000	 1.046986476456518e+001
 1.851792939425738e+000	 2.593383376015193e+000	 1.043226610901583e+001
 2.143321406460531e+000	 2.394081353268350e+000	 1.087531854076003e+001
 2.116770212650471e+000	 2.417588819681312e+000	 1.084204800085180e+001
 2.089971053446451e+000	 2.440793404442101e+000	 1.080919749319260e+001
 2.062929120791727e+000	 2.463691230393453e+000	 1.077299490170850e+001
 2.035649686384982e+000	 2.486278539042668e+000	 1.072969725922549e+001
 2.008138098290838e+000	 2.508551692575657e+000	 1.067560495969272e+001
 1.980399777490680e+000	 2.530507175755036e+000	 1.061334348668519e+001
 1.952440214378395e+000	 2.552141597700284e+000	 1.055824766483979e+001
 1.924264965205735e+000	 2.573451693548162e+000	 1.051002095186287e+001
 1.895879648482041e+000	 2.594434325991823e+000	 1.046715982741916e+001
 1.867289941333142e+000	 2.615086486697246e+000	 1.042796534200328e+001
 2.161109247109096e+000	 2.413950299419056e+000	 1.085370481839652e+001
 2.134337699784820e+000	 2.437652858861883e+000	 1.082357016594816e+001
 2.107316129153594e+000	 2.461050022978969e+000	 1.079513523978689e+001
 2.080049770247615e+000	 2.484137882435737e+000	 1.076460039243007e+001
 2.052543938516416e+000	 2.506912647547006e+000	 1.072819676234154e+001
 2.024804026409246e+000	 2.529370650307735e+000	 1.068220116219660e+001
 1.996835499897264e+000	 2.551508346306873e+000	 1.062311288706741e+001
 1.968643894940201e+000	 2.573322316522301e+000	 1.056315879181027e+001
 1.940234813902221e+000	 2.594809268995017e+000	 1.051077385885726e+001
 1.911613921921765e+000	 2.615966040381030e+000	 1.046446714555540e+001
 1.882786943240229e+000	 2.636789597379548e+000	 1.042253771164089e+001
 2.178897087757561e+000	 2.433819245569663e+000	 1.083497012623945e+001
 2.151905186919057e+000	 2.457716898042369e+000	 1.080759577564436e+001
 2.124661204860606e+000	 2.481306641515768e+000	 1.078276818554719e+001
 2.097170419703349e+000	 2.504584534477977e+000	 1.075674100811565e+001
 2.069438190647670e+000	 2.527546756051327e+000	 1.072580103393633e+001
 2.041469954527445e+000	 2.550189608039823e+000	 1.068628364252563e+001
 2.013271222303608e+000	 2.572509516858752e+000	 1.063458752355046e+001
 1.984847575501736e+000	 2.594503035344390e+000	 1.057097495247271e+001
 1.956204662598404e+000	 2.616166844441976e+000	 1.051286491786663e+001
 1.927348195361152e+000	 2.637497754770376e+000	 1.046171605572269e+001
 1.898283945146948e+000	 2.658492708062018e+000	 1.041591556059794e+001
 2.196684928405942e+000	 2.453688191720270e+000	 1.081929433854859e+001
 2.169472674053183e+000	 2.477780937222854e+000	 1.079426117330824e+001
 2.142006280567476e+000	 2.501563260052567e+000	 1.077220118043288e+001
 2.114291069158908e+000	 2.525031186520219e+000	 1.074950020716589e+001
 2.086332442778712e+000	 2.548180864555651e+000	 1.072258030830579e+001
 2.058135882645392e+000	 2.571008565771920e+000	 1.068791564854063e+001
 2.029706944709664e+000	 2.593510687410649e+000	 1.064204763451984e+001
 2.001051256062947e+000	 2.615683754166509e+000	 1.058159916349756e+001
 1.972174511294228e+000	 2.637524419888980e+000	 1.051620794347408e+001
 1.943082468800150e+000	 2.659029469159782e+000	 1.045881489660406e+001
 1.913780947053249e+000	 2.680195818744572e+000	 1.040879260649008e+001
 2.214472769054255e+000	 2.473557137870976e+000	 1.080686876065936e+001
 2.187040161187201e+000	 2.497844976403427e+000	 1.078371457256401e+001
 2.159351356274192e+000	 2.521819878589436e+000	 1.076355096340114e+001
 2.131411718614265e+000	 2.545477838562511e+000	 1.074297298953513e+001
 2.103226694909506e+000	 2.568814973060007e+000	 1.071861570230012e+001
 2.074801810763049e+000	 2.591827523504031e+000	 1.068717039508898e+001
 2.046142667115383e+000	 2.614511857962541e+000	 1.064540003724255e+001
 2.017254936623779e+000	 2.636864472988612e+000	 1.059015377615976e+001
 1.988144359989639e+000	 2.658881995335964e+000	 1.052071075785489e+001
 1.958816742238704e+000	 2.680561183549175e+000	 1.045655158289384e+001
 1.929277948959085e+000	 2.701898929427129e+000	 1.040394122843515e+001
 2.232260609702518e+000	 2.493426084021882e+000	 1.079789576068308e+001
 2.204607648321111e+000	 2.517909015584173e+000	 1.077611572600008e+001
 2.176696431980743e+000	 2.542076497126445e+000	 1.075694588419548e+001
 2.148532368069398e+000	 2.565924490604902e+000	 1.073726568509919e+001
 2.120120947040020e+000	 2.589449081564419e+000	 1.071399908118631e+001
 2.091467738880369e+000	 2.612646481236155e+000	 1.068413101569138e+001
 2.062578389520717e+000	 2.635513028514409e+000	 1.064472305255601e+001
 2.033458617184183e+000	 2.658045191810659e+000	 1.059292802422898e+001
 2.004114208684583e+000	 2.680239570782870e+000	 1.052691157934937e+001
 1.974551015676762e+000	 2.702092897938480e+000	 1.045786320191357e+001
 1.944774950864403e+000	 2.723602040109602e+000	 1.040130176752659e+001
 2.250048450350747e+000	 2.513295030173088e+000	 1.079258838977965e+001
 2.222175135454915e+000	 2.537973054765179e+000	 1.077163558311690e+001
 2.194041507687117e+000	 2.562333115663662e+000	 1.075252561428205e+001
 2.165653017524286e+000	 2.586371142647440e+000	 1.073249573042991e+001
 2.137015199170221e+000	 2.610083190068913e+000	 1.070883291164551e+001
 2.108133666997314e+000	 2.633465438968294e+000	 1.067889049967761e+001
 2.079014111925620e+000	 2.656514199066230e+000	 1.064010392144544e+001
 2.049662297744106e+000	 2.679225910632604e+000	 1.059082439780883e+001
 2.020084057379005e+000	 2.701597146229635e+000	 1.053218251386773e+001
 1.990285289114269e+000	 2.723624612327619e+000	 1.046272688540502e+001
 1.960271952769154e+000	 2.745305150791909e+000	 1.040055999985091e+001
 2.267836290998959e+000	 2.533163976324692e+000	 1.079116999163092e+001
 2.239742622588619e+000	 2.558037093946534e+000	 1.077045593810698e+001
 2.211386583393305e+000	 2.582589734201158e+000	 1.075044084752777e+001
 2.182773666978906e+000	 2.606817794690176e+000	 1.072879143461282e+001
 2.153909451300075e+000	 2.630717298573513e+000	 1.070323010261233e+001
 2.124799595113841e+000	 2.654284396700450e+000	 1.067155161556851e+001
 2.095449834330041e+000	 2.677515369617983e+000	 1.063227597732323e+001
 2.065865978303494e+000	 2.700406629454408e+000	 1.058732807744489e+001
 2.036053906072853e+000	 2.722954721676199e+000	 1.053440696266624e+001
 2.006019562551173e+000	 2.745156326716521e+000	 1.047028436074199e+001
 1.975768954673289e+000	 2.767008261473969e+000	 1.040144237594984e+001
 1.820798935610175e+000	 2.549977154652175e+000	 1.043757235577264e+001
 1.792727330205413e+000	 2.569790075552225e+000	 1.039326026577029e+001
 1.764467648259312e+000	 2.589275263636230e+000	 1.033610714418408e+001
 1.736025571900473e+000	 2.608430165421336e+000	 1.026933292678302e+001
 1.707406826031019e+000	 2.627252357450538e+000	 1.019587667826177e+001
 1.678617174651290e+000	 2.645739547069145e+000	 1.011836337927846e+001
 1.649662417173073e+000	 2.663889573078076e+000	 1.003907418381025e+001
 1.620548384726113e+000	 2.681700406264189e+000	 9.960808494905116e+000
 1.591280936462619e+000	 2.699170149807901e+000	 9.886657301654275e+000
 1.561865955864427e+000	 2.716297039568711e+000	 9.817968691856390e+000
 1.532309347057451e+000	 2.733079444249319e+000	 9.755983329024733e+000
 1.836295937518066e+000	 2.571680265333477e+000	 1.043547200688069e+001
 1.807985411871278e+000	 2.591661815985435e+000	 1.039184334394673e+001
 1.779485208944865e+000	 2.611312844454483e+000	 1.033552087693237e+001
 1.750801059228598e+000	 2.630630775524840e+000	 1.026965796467802e+001
 1.721938736349819e+000	 2.649613165113234e+000	 1.019710963407804e+001
 1.692904053366854e+000	 2.668257701051977e+000	 1.012040648870881e+001
 1.663702859050867e+000	 2.686562203747827e+000	 1.004309014754547e+001
 1.634341034160935e+000	 2.704524626716821e+000	 9.967757014742437e+000
 1.604824487717100e+000	 2.722143056995374e+000	 9.895760113012702e+000
 1.575159153276106e+000	 2.739415715428226e+000	 9.828362262175160e+000
 1.545350985214472e+000	 2.756340956833962e+000	 9.766754481559378e+000
 1.851792939425738e+000	 2.593383376015193e+000	 1.043226610901583e+001
 1.823243493536874e+000	 2.613533556419093e+000	 1.038850950332670e+001
 1.794502769630099e+000	 2.633350425273201e+000	 1.033257965256705e+001
 1.765576546556353e+000	 2.652831385628806e+000	 1.026753422104496e+001
 1.736470646668198e+000	 2.671973972776374e+000	 1.019621384848547e+001
 1.707190932081953e+000	 2.690775855035223e+000	 1.012266856799788e+001
 1.677743300928163e+000	 2.709234834417953e+000	 1.004913847395694e+001
 1.648133683595235e+000	 2.727348847169784e+000	 9.976990103593781e+000
 1.618368038971054e+000	 2.745115964183132e+000	 9.907482805347325e+000
 1.588452350687269e+000	 2.762534391287983e+000	 9.841789298403931e+000
 1.558392623371014e+000	 2.779602469418803e+000	 9.781015176152907e+000
 1.867289941333142e+000	 2.615086486697246e+000	 1.042796534200328e+001
 1.838501575202161e+000	 2.635405296853118e+000	 1.038328310554377e+001
 1.809520330314980e+000	 2.655388006092302e+000	 1.032731441801089e+001
 1.780352033883712e+000	 2.675031995733158e+000	 1.026324738847806e+001
 1.751002556986144e+000	 2.694334780439897e+000	 1.019548210709425e+001
 1.721477810796586e+000	 2.713294009018838e+000	 1.012604169307494e+001
 1.691783742804965e+000	 2.731907465088428e+000	 1.005628859610339e+001
 1.661926333029029e+000	 2.750173067623070e+000	 9.987457675991776e+000
 1.631911590224499e+000	 2.768088871371185e+000	 9.920679075405557e+000
 1.601745548097937e+000	 2.785653067148000e+000	 9.857000099564090e+000
 1.571434261527091e+000	 2.802863982003876e+000	 9.797405939086186e+000
 1.882786943240229e+000	 2.636789597379548e+000	 1.042253771164089e+001
 1.853759656867096e+000	 2.657277037287425e+000	 1.037613875032743e+001
 1.824537890999473e+000	 2.677425586911706e+000	 1.032013797385273e+001
 1.795127521210650e+000	 2.697232605837831e+000	 1.025922794250782e+001
 1.765534467303640e+000	 2.716695588103743e+000	 1.019530429377131e+001
 1.735764689510746e+000	 2.735812163002780e+000	 1.012971365987393e+001
 1.705824184681279e+000	 2.754580095759225e+000	 1.006365081556000e+001
 1.675718982462328e+000	 2.772997288076670e+000	 9.998183994737461e+000
 1.645455141477452e+000	 2.791061778559537e+000	 9.934279306597096e+000
 1.615038745508127e+000	 2.808771743008304e+000	 9.872824061133240e+000
 1.584475899682720e+000	 2.826125494589215e+000	 9.814648831121239e+000
 1.898283945146948e+000	 2.658492708062018e+000	 1.041591556059794e+001
 1.869017738531634e+000	 2.679148777721928e+000	 1.036763533806894e+001
 1.839555451683543e+000	 2.699463167731333e+000	 1.031358510780728e+001
 1.809903008537143e+000	 2.719433215942749e+000	 1.025559860054101e+001
 1.780066377620673e+000	 2.739056395767858e+000	 1.019500157012974e+001
 1.750051568224431e+000	 2.758330316987006e+000	 1.013293934748120e+001
 1.719864626557111e+000	 2.777252726430318e+000	 1.007040470136190e+001
 1.689511631895144e+000	 2.795821508530576e+000	 1.000826492387789e+001
 1.658998692729931e+000	 2.814034685748199e+000	 9.947287922959266e+000
 1.628331942917862e+000	 2.831890418868914e+000	 9.888167121074678e+000
 1.597517537837919e+000	 2.849387007174854e+000	 9.831544977582954e+000
 1.913780947053249e+000	 2.680195818744572e+000	 1.040879260649008e+001
 1.884275820195731e+000	 2.701020518156542e+000	 1.036041542989215e+001
 1.854573012367157e+000	 2.721500748551104e+000	 1.030764787788473e+001
 1.824678495863168e+000	 2.741633826047843e+000	 1.025179722250862e+001
 1.794598287937230e+000	 2.761417203432182e+000	 1.019395704532841e+001
 1.764338446937636e+000	 2.780848470971474e+000	 1.013503770685907e+001
 1.733905068432467e+000	 2.799925357101683e+000	 1.007579620173578e+001
 1.703304281327493e+000	 2.818645728984777e+000	 1.001686515322645e+001
 1.672542243981955e+000	 2.837007592937177e+000	 9.958780717074623e+000
 1.641625140327158e+000	 2.855009094729853e+000	 9.902009182599315e+000
 1.610559175992702e+000	 2.872648519760826e+000	 9.846972078266372e+000
 1.929277948959085e+000	 2.701898929427129e+000	 1.040394122843515e+001
 1.899533901859347e+000	 2.722892258591184e+000	 1.035442063232644e+001
 1.869590573050279e+000	 2.743538329370936e+000	 1.030186389300590e+001
 1.839453983188698e+000	 2.763834436153041e+000	 1.024731839632733e+001
 1.809130198253296e+000	 2.783778011096656e+000	 1.019161259974773e+001
 1.778625325650359e+000	 2.803366624956138e+000	 1.013538871944265e+001
 1.747945510307353e+000	 2.822597987773292e+000	 1.007913472710695e+001
 1.717096930759385e+000	 2.841469949439266e+000	 1.002321539602625e+001
 1.686085795233541e+000	 2.859980500126478e+000	 9.967902153405317e+000
 1.654918337736035e+000	 2.878127770591143e+000	 9.913401514969308e+000
 1.623600814147086e+000	 2.895910032347163e+000	 9.859881898303303e+000
 1.944774950864403e+000	 2.723602040109602e+000	 1.040130176752659e+001
 1.914791983522436e+000	 2.744763999025769e+000	 1.034927120141895e+001
 1.884608133732874e+000	 2.765575910190750e+000	 1.029582219693299e+001
 1.854229470513710e+000	 2.786035046258275e+000	 1.024171008583045e+001
 1.823662108568857e+000	 2.806138818761222e+000	 1.018746567938590e+001
 1.792912204362594e+000	 2.825884778940959e+000	 1.013343032729166e+001
 1.761985952181773e+000	 2.845270618445118e+000	 1.007979020598610e+001
 1.730889580190835e+000	 2.864294169894031e+000	 1.002660956125469e+001
 1.699629346484706e+000	 2.882953407316109e+000	 9.973862648415171e+000
 1.668211535144512e+000	 2.901246446452805e+000	 9.921464133566929e+000
 1.636642452301086e+000	 2.919171544933902e+000	 9.869297741050609e+000
 1.960271952769154e+000	 2.745305150791909e+000	 1.040055999985091e+001
 1.930050065184955e+000	 2.766635739460210e+000	 1.034463347271118e+001
 1.899625694414909e+000	 2.787613491010467e+000	 1.028915973070500e+001
 1.869004957838178e+000	 2.808235656363467e+000	 1.023457025076670e+001
 1.838194018883899e+000	 2.828499626425824e+000	 1.018106606259659e+001
 1.807199083074341e+000	 2.848402932925892e+000	 1.012865533637006e+001
 1.776026394055734e+000	 2.867943249117138e+000	 1.007719011523486e+001
 1.744682229621856e+000	 2.887118390349067e+000	 1.002640190197212e+001
 1.713172897735469e+000	 2.905926314506080e+000	 9.975935828764555e+000
 1.681504732552609e+000	 2.924365122314862e+000	 9.925383160377670e+000
 1.649684090454720e+000	 2.942433057521075e+000	 9.874311903994947e+000
 1.975768954673289e+000	 2.767008261473969e+000	 1.040144237594984e+001
 1.945308146846863e+000	 2.788507479894426e+000	 1.034021612940018e+001
 1.914643255096348e+000	 2.809651071830004e+000	 1.028155776894849e+001
 1.883780445162080e+000	 2.830436266468553e+000	 1.022554344040006e+001
 1.852725929198409e+000	 2.850860434090399e+000	 1.017201260068638e+001
 1.821485961785594e+000	 2.870921086910894e+000	 1.012060829443000e+001
 1.790066835929240e+000	 2.890615879789326e+000	 1.007081648611841e+001
 1.758474879052460e+000	 2.909942610804364e+000	 1.002200414103052e+001
 1.726716448985848e+000	 2.928899221696398e+000	 9.973455768781324e+000
 1.694797929960344e+000	 2.947483798177338e+000	 9.924408165961145e+000
 1.662725728608005e+000	 2.965694570108715e+000	 9.874083118606681e+000
 1.532309347057451e+000	 2.733079444249319e+000	 9.755983329024732e+000
 1.502621494919891e+000	 2.749513426483719e+000	 9.704749424315430e+000
 1.472803909760124e+000	 2.765600166241468e+000	 9.662752477658268e+000
 1.442862534573747e+000	 2.781338433307961e+000	 9.622919243059386e+000
 1.412803318353236e+000	 2.796727129707190e+000	 9.578264753801804e+000
 1.382632212507474e+000	 2.811765289274061e+000	 9.521916060808632e+000
 1.352355167314766e+000	 2.826452077113804e+000	 9.447134217023445e+000
 1.321978128413371e+000	 2.840786788950488e+000	 9.350814611644138e+000
 1.291507033333438e+000	 2.854768850366805e+000	 9.264479723191816e+000
 1.260947808074109e+000	 2.868397815937405e+000	 9.195333198202361e+000
 1.230306363729441e+000	 2.881673368258284e+000	 9.141610741772443e+000
 1.545350985214472e+000	 2.756340956833962e+000	 9.766754481559381e+000
 1.515410456797143e+000	 2.772914810335271e+000	 9.715325388157153e+000
 1.485339091186876e+000	 2.789138465944542e+000	 9.673217060378143e+000
 1.455142881960698e+000	 2.805010682976676e+000	 9.633784537260844e+000
 1.424827828743551e+000	 2.820530354110670e+000	 9.590470846244319e+000
 1.394399933597353e+000	 2.835696504958288e+000	 9.536830617045350e+000
 1.363865197443817e+000	 2.850508293518875e+000	 9.466551847527347e+000
 1.333229616525126e+000	 2.864965009522325e+000	 9.373475904274363e+000
 1.302499178906336e+000	 2.879066073662391e+000	 9.277552443639273e+000
 1.271679861023361e+000	 2.892811036722655e+000	 9.201318045728721e+000
 1.240777624280165e+000	 2.906199578597639e+000	 9.143476509546426e+000
 1.558392623371014e+000	 2.779602469418803e+000	 9.781015176152909e+000
 1.528199418673973e+000	 2.796316194186986e+000	 9.729825675101548e+000
 1.497874272613284e+000	 2.812676765647745e+000	 9.687978954907441e+000
 1.467423229347397e+000	 2.828682932645490e+000	 9.649257748650387e+000
 1.436852339133717e+000	 2.844333578514223e+000	 9.607532732860724e+000
 1.406167654687188e+000	 2.859627720642560e+000	 9.556786038722944e+000
 1.375375227572933e+000	 2.874564509923965e+000	 9.491132815594016e+000
 1.344481104637045e+000	 2.889143230094152e+000	 9.404840796953682e+000
 1.313491324479490e+000	 2.903363296957935e+000	 9.302902683692926e+000
 1.282411913972942e+000	 2.917224257507827e+000	 9.219569965690914e+000
 1.251248884831276e+000	 2.930725788936877e+000	 9.157303178552322e+000
 1.571434261527091e+000	 2.802863982003876e+000	 9.797405939086183e+000
 1.540988380550389e+000	 2.819717578038901e+000	 9.746774576440156e+000
 1.510409454039345e+000	 2.836215065351122e+000	 9.705439103464567e+000
 1.479703576733828e+000	 2.852355182314455e+000	 9.667609415969841e+000
 1.448876849523699e+000	 2.868136802917897e+000	 9.627583593305745e+000
 1.417935375776930e+000	 2.883558936326929e+000	 9.579771329633012e+000
 1.386885257702043e+000	 2.898620726329122e+000	 9.518715311926250e+000
 1.355732592749045e+000	 2.913321450666015e+000	 9.439110494813720e+000
 1.324483470052800e+000	 2.927660520253484e+000	 9.337871847680741e+000
 1.293143966922745e+000	 2.941637478292968e+000	 9.247474724730154e+000
 1.261720145382654e+000	 2.955251999276042e+000	 9.180529175994245e+000
 1.584475899682720e+000	 2.826125494589215e+000	 9.814648831121238e+000
 1.553777342426400e+000	 2.843118961891062e+000	 9.764780372555642e+000
 1.522944635465056e+000	 2.859753365054722e+000	 9.724084917168337e+000
 1.491983924119971e+000	 2.876027431983614e+000	 9.687199039370753e+000
 1.460901359913464e+000	 2.891940027321740e+000	 9.648848062307120e+000
 1.429703096866526e+000	 2.907490152011439e+000	 9.603869432909818e+000
 1.398395287831080e+000	 2.922676942734391e+000	 9.547233931934382e+000
 1.366984080861039e+000	 2.937499671237958e+000	 9.474064669021360e+000
 1.335475615626168e+000	 2.951957743549083e+000	 9.379653833818283e+000
 1.303876019872659e+000	 2.966050699078124e+000	 9.282375725081186e+000
 1.272191405934185e+000	 2.979778209615192e+000	 9.210534758074770e+000
 1.597517537837919e+000	 2.849387007174854e+000	 9.831544977582954e+000
 1.566566304302015e+000	 2.866520345743510e+000	 9.782532938697486e+000
 1.535479816890413e+000	 2.883291664758588e+000	 9.742487948081879e+000
 1.504264271505810e+000	 2.899699681653020e+000	 9.706472809127449e+000
 1.472925870302978e+000	 2.915743251725804e+000	 9.669640005296440e+000
 1.441470817955926e+000	 2.931421367696138e+000	 9.627255043697195e+000
 1.409905317959975e+000	 2.946733159139817e+000	 9.574717515450235e+000
 1.378235568972945e+000	 2.961677891810029e+000	 9.507579822786095e+000
 1.346467761199495e+000	 2.976254966844774e+000	 9.421563544907791e+000
 1.314608072822574e+000	 2.990463919863343e+000	 9.321590804115340e+000
 1.282662666485751e+000	 3.004304419954371e+000	 9.244657745487029e+000
 1.610559175992702e+000	 2.872648519760826e+000	 9.846972078266376e+000
 1.579355266177241e+000	 2.889921729596284e+000	 9.798801333987051e+000
 1.548014998315415e+000	 2.906829964462771e+000	 9.759301548241606e+000
 1.516544618891328e+000	 2.923371931322718e+000	 9.723961325436289e+000
 1.484950380692206e+000	 2.939546476130134e+000	 9.688360289567006e+000
 1.453238539045078e+000	 2.955352583381076e+000	 9.648192422117358e+000
 1.421415348088661e+000	 2.970789375545451e+000	 9.599286991845865e+000
 1.389487057084676e+000	 2.985856112382271e+000	 9.537627026247344e+000
 1.357459906772682e+000	 3.000552190140606e+000	 9.459365297725601e+000
 1.325340125772379e+000	 3.014877140648670e+000	 9.362429056505160e+000
 1.293133927037235e+000	 3.028830630293632e+000	 9.280209287876405e+000
 1.623600814147086e+000	 2.895910032347163e+000	 9.859881898303305e+000
 1.592144228052090e+000	 2.913323113449429e+000	 9.812431374595303e+000
 1.560550179740058e+000	 2.930368264167313e+000	 9.773258516403301e+000
 1.528824966276507e+000	 2.947044180992758e+000	 9.738277309802150e+000
 1.496974891081117e+000	 2.963349700534780e+000	 9.703494551210124e+000
 1.465006260133932e+000	 2.979283799066296e+000	 9.665033206524976e+000
 1.432925378217067e+000	 2.994845591951334e+000	 9.619153230252939e+000
 1.400738545196149e+000	 3.010034332954731e+000	 9.562269794210813e+000
 1.368452052345630e+000	 3.024849413436622e+000	 9.490968899841558e+000
 1.336072178721967e+000	 3.039290361434153e+000	 9.402020372110616e+000
 1.303605187588521e+000	 3.053356840633026e+000	 9.314489655642589e+000
 1.636642452301086e+000	 2.919171544933902e+000	 9.869297741050607e+000
 1.604933189926567e+000	 2.936724497302984e+000	 9.822343191976486e+000
 1.573085361164338e+000	 2.953906563872260e+000	 9.783168733189905e+000
 1.541105313661329e+000	 2.970716430663188e+000	 9.748113308481265e+000
 1.508999401469673e+000	 2.987152924939791e+000	 9.713610958065367e+000
 1.476773981222435e+000	 3.003215014751851e+000	 9.676214227029776e+000
 1.444435408345126e+000	 3.018901808357516e+000	 9.632614894599126e+000
 1.411990033307278e+000	 3.034212553527452e+000	 9.579661973535798e+000
 1.379444197918240e+000	 3.049146636732867e+000	 9.514376954723522e+000
 1.346804231671225e+000	 3.063703582219838e+000	 9.433966297140877e+000
 1.314076448139491e+000	 3.077883050972602e+000	 9.344804057556662e+000
 1.649684090454720e+000	 2.942433057521075e+000	 9.874311903994947e+000
 1.617722151800683e+000	 2.960125881156992e+000	 9.827528776984210e+000
 1.585620542588254e+000	 2.977444863577661e+000	 9.787916785283693e+000
 1.553385661045778e+000	 2.994388680334057e+000	 9.752239388420726e+000
 1.521023911857844e+000	 3.010956149345215e+000	 9.717357968905361e+000
 1.488541702310537e+000	 3.027146230437785e+000	 9.680255319273869e+000
 1.455945438472769e+000	 3.042958024764041e+000	 9.638056303193906e+000
 1.423241521417979e+000	 3.058390774100482e+000	 9.588045639638207e+000
 1.390436343490415e+000	 3.073443860029387e+000	 9.527682786180618e+000
 1.357536284620046e+000	 3.088116803005771e+000	 9.454613923919387e+000
 1.324547708690028e+000	 3.102409261312412e+000	 9.368478482764150e+000
 1.662725728608005e+000	 2.965694570108715e+000	 9.874083118606677e+000
 1.630511113674446e+000	 2.983527265011495e+000	 9.827049510644866e+000
 1.598155724011803e+000	 3.000983163283563e+000	 9.786459579263624e+000
 1.565666008429837e+000	 3.018060930005414e+000	 9.749500826105473e+000
 1.533048422245594e+000	 3.034759373751102e+000	 9.713462089061842e+000
 1.500309423398187e+000	 3.051077446124149e+000	 9.675757138448930e+000
 1.467455468599929e+000	 3.067014241170959e+000	 9.633945292614477e+000
 1.434493009528168e+000	 3.082568994673865e+000	 9.585749001609324e+000
 1.401428489062055e+000	 3.097741083326227e+000	 9.529068375987528e+000
 1.368268337568318e+000	 3.112530023792001e+000	 9.461992665596890e+000
 1.335018969240017e+000	 3.126935471652506e+000	 9.382808720163482e+000
 1.230306363729441e+000	 2.881673368258284e+000	 9.141610741772443e+000
 1.199583979858828e+000	 2.894597229204026e+000	 9.093880428701107e+000
 1.168791122363753e+000	 2.907167317903020e+000	 9.043541343521810e+000
 1.137933641963363e+000	 2.919383696497329e+000	 8.990809660044384e+000
 1.107017361446401e+000	 2.931246550353864e+000	 8.936214221412545e+000
 1.076048072588373e+000	 2.942756186611072e+000	 8.880534695249359e+000
 1.045031533136541e+000	 2.953913032638837e+000	 8.824747236181800e+000
 1.013973463865370e+000	 2.964717634414846e+000	 8.769977585925853e+000
 9.828795457048595e-001	 2.975170654820722e+000	 8.717446593612660e+000
 9.517554169440460e-001	 2.985272871861278e+000	 8.668490815978172e+000
 9.206066705118043e-001	 2.995025176810349e+000	 8.624464713684949e+000
 1.240777624280165e+000	 2.906199578597639e+000	 9.143476509546426e+000
 1.209793759126601e+000	 2.919233435816973e+000	 9.094168970776600e+000
 1.178738820540490e+000	 2.931910509798535e+000	 9.043896995187374e+000
 1.147618709037035e+000	 2.944230863213301e+000	 8.992613612301613e+000
 1.116439296963323e+000	 2.956194683005870e+000	 8.940567261035284e+000
 1.085206425389243e+000	 2.967802278928780e+000	 8.888238817475402e+000
 1.053925901066824e+000	 2.979054081989313e+000	 8.836286707176345e+000
 1.022603493460618e+000	 2.989950642812039e+000	 8.785500018511725e+000
 9.912449318515909e-001	 3.000492629920439e+000	 8.736746260783203e+000
 9.598559025168262e-001	 3.010680827941015e+000	 8.690986826401147e+000
 9.284420459871779e-001	 3.020516135733326e+000	 8.649189443788348e+000
 1.251248884831276e+000	 2.930725788936877e+000	 9.157303178552319e+000
 1.220003538394792e+000	 2.943869642429749e+000	 9.105848324467136e+000
 1.188686518717652e+000	 2.956653701693829e+000	 9.054866007499165e+000
 1.157303776111121e+000	 2.969078029928998e+000	 9.004077812327841e+000
 1.125861232480631e+000	 2.981142815657544e+000	 8.953480896377009e+000
 1.094364778190455e+000	 2.992848371246103e+000	 8.903283777482493e+000
 1.062820268997394e+000	 3.004195131339357e+000	 8.853850817678406e+000
 1.031233523056088e+000	 3.015183651208757e+000	 8.805655305346759e+000
 9.996103179984724e-001	 3.025814605019650e+000	 8.759229295867215e+000
 9.679563880896785e-001	 3.036088784020224e+000	 8.715174511613526e+000
 9.362774214625445e-001	 3.046007094655772e+000	 8.674084300155794e+000
 1.261720145382654e+000	 2.955251999276042e+000	 9.180529175994245e+000
 1.230213317663281e+000	 2.968505849042415e+000	 9.126432915325196e+000
 1.198634216895123e+000	 2.981396893588968e+000	 9.074076219494362e+000
 1.166988843185512e+000	 2.993925196644493e+000	 9.022980478410723e+000
 1.135283167998225e+000	 3.006090948308973e+000	 8.972920006343321e+000
 1.103523130991924e+000	 3.017894463563139e+000	 8.923856475997310e+000
 1.071714636928179e+000	 3.029336180689076e+000	 8.875882696189533e+000
 1.039863552651725e+000	 3.040416659605120e+000	 8.829175620391460e+000
 1.007975704145467e+000	 3.051136580118482e+000	 8.783948123379577e+000
 9.760568736625863e-001	 3.061496740099038e+000	 8.740455896629792e+000
 9.441127969379057e-001	 3.071498053577817e+000	 8.698928202892402e+000
 1.272191405934185e+000	 2.979778209615192e+000	 9.210534758074774e+000
 1.240423096931948e+000	 2.993142055655026e+000	 9.153363932632956e+000
 1.208581915072786e+000	 3.006140085484014e+000	 9.099067535041666e+000
 1.176673910260096e+000	 3.018772363359863e+000	 9.046997647761724e+000
 1.144705103516003e+000	 3.031039080960242e+000	 8.996733575495709e+000
 1.112681483793558e+000	 3.042940555879987e+000	 8.948014811330452e+000
 1.080609004859106e+000	 3.054477230038580e+000	 8.900684031293061e+000
 1.048493582247472e+000	 3.065649668001247e+000	 8.854639988898635e+000
 1.016341090292536e+000	 3.076458555217060e+000	 8.809800089206348e+000
 9.841573592355299e-001	 3.086904696177589e+000	 8.766058823909368e+000
 9.519481724132636e-001	 3.096989012499596e+000	 8.723316643817871e+000
 1.282662666485751e+000	 3.004304419954371e+000	 9.244657745487025e+000
 1.250632876200675e+000	 3.017778262267639e+000	 9.184024033220121e+000
 1.218529613250524e+000	 3.030883277379037e+000	 9.127305646832989e+000
 1.186358977334763e+000	 3.043619530075185e+000	 9.073715972501878e+000
 1.154127039033864e+000	 3.055987213611442e+000	 9.022666613701299e+000
 1.121839836595271e+000	 3.067986648196746e+000	 8.973698774086916e+000
 1.089503372790100e+000	 3.079618279387981e+000	 8.926425392428751e+000
 1.057123611843273e+000	 3.090882676397256e+000	 8.880483884739633e+000
 1.024706476439642e+000	 3.101780530315512e+000	 8.835499251376843e+000
 9.922578448084918e-001	 3.112312652256008e+000	 8.791045252375827e+000
 9.597835478886195e-001	 3.122479971421242e+000	 8.746669409196777e+000
 1.293133927037235e+000	 3.028830630293632e+000	 9.280209287876405e+000
 1.260842655469342e+000	 3.042414468880310e+000	 9.215752079982336e+000
 1.228477311428221e+000	 3.055626469274102e+000	 9.156195799320983e+000
 1.196044044409403e+000	 3.068466696790536e+000	 9.100645557415543e+000
 1.163548974551708e+000	 3.080935346262660e+000	 9.048372119015909e+000
 1.130998189396974e+000	 3.093032740513514e+000	 8.998741585285350e+000
 1.098397740721090e+000	 3.104759328737387e+000	 8.951156593027783e+000
 1.065753641439072e+000	 3.116115684793268e+000	 8.905008867886904e+000
 1.033071862586747e+000	 3.127102505413964e+000	 8.859642866531500e+000
 1.000358330381454e+000	 3.137720608334427e+000	 8.814319589005647e+000
 9.676189233639760e-001	 3.147970930342888e+000	 8.768238329776887e+000
 1.303605187588521e+000	 3.053356840633026e+000	 9.314489655642587e+000
 1.271052434737831e+000	 3.067050675493101e+000	 9.245857913149759e+000
 1.238425009605759e+000	 3.080369661169275e+000	 9.183096588411607e+000
 1.205729111483904e+000	 3.093313863505990e+000	 9.125232837123248e+000
 1.172970910069433e+000	 3.105883478913982e+000	 9.071423081369217e+000
 1.140156542198578e+000	 3.118078832830394e+000	 9.020880875444817e+000
 1.107292108652001e+000	 3.129900378086907e+000	 8.972817093625858e+000
 1.074383671034812e+000	 3.141348693189401e+000	 8.926392259794556e+000
 1.041437248733814e+000	 3.152424480512546e+000	 8.880680730103732e+000
 1.008458815954398e+000	 3.163128564412979e+000	 8.834637051156360e+000
 9.754542988393340e-001	 3.173461889264668e+000	 8.787115056599649e+000
 1.314076448139491e+000	 3.077883050972602e+000	 9.344804057556662e+000
 1.281262214006022e+000	 3.091686882106064e+000	 9.271637152477915e+000
 1.248372707783021e+000	 3.105112853064621e+000	 9.205333795862270e+000
 1.215414178558155e+000	 3.118161030221623e+000	 9.144873490474634e+000
 1.182392845586940e+000	 3.130831611565498e+000	 9.089324524776629e+000
 1.149314894999996e+000	 3.143124925147479e+000	 9.037769902354013e+000
 1.116186476582760e+000	 3.155041427436653e+000	 8.989246442724603e+000
 1.083013700630438e+000	 3.166581701585775e+000	 8.942696854563110e+000
 1.049802634880805e+000	 3.177746455611379e+000	 8.896934467584872e+000
 1.016559301527304e+000	 3.188536520491794e+000	 8.850620201805317e+000
 9.832896743146951e-001	 3.198952848186712e+000	 8.802238861146545e+000
 1.324547708690028e+000	 3.102409261312412e+000	 9.368478482764150e+000
 1.291471993273796e+000	 3.116323088719256e+000	 9.290386028649969e+000
 1.258320405959892e+000	 3.129856044960207e+000	 9.220214256464306e+000
 1.225099245632047e+000	 3.143008196937514e+000	 9.156925390102227e+000
 1.191814781104126e+000	 3.155779744217295e+000	 9.099525585944990e+000
 1.158473247801138e+000	 3.168171017464872e+000	 9.046988805382416e+000
 1.125080844513294e+000	 3.180182476786731e+000	 8.998194753312570e+000
 1.091643730225893e+000	 3.191814709982508e+000	 8.951880663908156e+000
 1.058168021027682e+000	 3.203068430710595e+000	 8.906606593793944e+000
 1.024659787100157e+000	 3.213944476571004e+000	 8.860733769320621e+000
 9.911250497900616e-001	 3.224443807109157e+000	 8.812404458474598e+000
 1.335018969240017e+000	 3.126935471652506e+000	 9.382808720163483e+000
 1.301681772541035e+000	 3.140959295332738e+000	 9.299416242286050e+000
 1.268268104136253e+000	 3.154599236856098e+000	 9.225039756209691e+000
 1.234784312705468e+000	 3.167855363653739e+000	 9.158721585204241e+000
 1.201236716620890e+000	 3.180727876869459e+000	 9.099431627274576e+000
 1.167631600601917e+000	 3.193217109782672e+000	 9.046055894326543e+000
 1.133975212443532e+000	 3.205323526137256e+000	 8.997333213087781e+000
 1.100273759821122e+000	 3.217047718379722e+000	 8.951806694077234e+000
 1.066533407174409e+000	 3.228390405810319e+000	 8.907789601476157e+000
 1.032760272672936e+000	 3.239352432650740e+000	 8.863345137090125e+000
 9.989604252654353e-001	 3.249934766032136e+000	 8.816269852079786e+000
 9.206066705118043e-001	 2.995025176810349e+000	 8.624464713684949e+000
 8.894388508920192e-001	 3.004428571538802e+000	 8.584482798859622e+000
 8.582574502751355e-001	 3.013484164285996e+000	 8.545411379132755e+000
 8.270679074953231e-001	 3.022193169862039e+000	 8.505327009790609e+000
 7.958756060941378e-001	 3.030556908289345e+000	 8.462386308214915e+000
 7.646858720132442e-001	 3.038576802639415e+000	 8.414833517630369e+000
 7.335039713734900e-001	 3.046254376817458e+000	 8.361011964457063e+000
 7.023351083413053e-001	 3.053591253298464e+000	 8.299378847353388e+000
 6.711844230832494e-001	 3.060589150818339e+000	 8.228522781056256e+000
 6.400569898093645e-001	 3.067249882023707e+000	 8.161244376684365e+000
 6.089578149058431e-001	 3.073575351083983e+000	 8.127551299992822e+000
 9.284420459871779e-001	 3.020516135733326e+000	 8.649189443788348e+000
 8.970089539361904e-001	 3.029999563695274e+000	 8.610453374631833e+000
 8.655621652988901e-001	 3.039132229498540e+000	 8.572220757372561e+000
 8.341071651999054e-001	 3.047915358292587e+000	 8.533048140946089e+000
 8.026493830006508e-001	 3.056350281334655e+000	 8.491562939861613e+000
 7.711941899724110e-001	 3.064438433808137e+000	 8.446473190635849e+000
 7.397468970565126e-001	 3.072181352588336e+000	 8.396581521718753e+000
 7.083127527125644e-001	 3.079580673959275e+000	 8.340802734328779e+000
 6.768969408555957e-001	 3.086638131285180e+000	 8.278184375647946e+000
 6.455045788827553e-001	 3.093355552640277e+000	 8.216780323503210e+000
 6.141407157900873e-001	 3.099734858400542e+000	 8.189782265759188e+000
 9.362774214625445e-001	 3.046007094655772e+000	 8.674084300155794e+000
 9.045790569802749e-001	 3.055570555851222e+000	 8.635115011913536e+000
 8.728668803224783e-001	 3.064780294710580e+000	 8.596325785186835e+000
 8.411464229042441e-001	 3.073637546722666e+000	 8.556714299528906e+000
 8.094231599068452e-001	 3.082143654379539e+000	 8.515336676571092e+000
 7.777025079311879e-001	 3.090300064976482e+000	 8.471319686644378e+000
 7.459898227390776e-001	 3.098108328358890e+000	 8.423877508687776e+000
 7.142903970833037e-001	 3.105570094619816e+000	 8.372332397923776e+000
 6.826094586273647e-001	 3.112687111751801e+000	 8.316138598767932e+000
 6.509521679555183e-001	 3.119461223256674e+000	 8.259757224627295e+000
 6.193236166736610e-001	 3.125894365716972e+000	 8.237052621322873e+000
 9.441127969379057e-001	 3.071498053577817e+000	 8.698928202892402e+000
 9.121491600242940e-001	 3.081141548006778e+000	 8.658633727720190e+000
 8.801715953459426e-001	 3.090428359922247e+000	 8.618273234698645e+000
 8.481856806084002e-001	 3.099359735152393e+000	 8.577245140016306e+000
 8.161969368128007e-001	 3.107937027424103e+000	 8.534990481653704e+000
 7.842108258896717e-001	 3.116161696144542e+000	 8.491007843621654e+000
 7.522327484212994e-001	 3.124035304129198e+000	 8.444873194031601e+000
 7.202680414536522e-001	 3.131559515280149e+000	 8.396263946182657e+000
 6.883219763987010e-001	 3.138736092218256e+000	 8.344986533741286e+000
 6.563997570278108e-001	 3.145566893872942e+000	 8.293061123018791e+000
 6.245065175567315e-001	 3.152053873033303e+000	 8.272593372483669e+000
 9.519481724132636e-001	 3.096989012499596e+000	 8.723316643817871e+000
 9.197192630682696e-001	 3.106712540162070e+000	 8.680984242140880e+000
 8.874763103693233e-001	 3.116076425133662e+000	 8.638412575087909e+000
 8.552249383124342e-001	 3.125081923581885e+000	 8.595358848589875e+000
 8.229707137185971e-001	 3.133730400468454e+000	 8.551603496352351e+000
 7.907191438479608e-001	 3.142023327312415e+000	 8.506968099314184e+000
 7.584756741032922e-001	 3.149962279899343e+000	 8.461338601090322e+000
 7.262456858237411e-001	 3.157548935940349e+000	 8.414693080854356e+000
 6.940344941697487e-001	 3.164785072684600e+000	 8.367133325850364e+000
 6.618473460997897e-001	 3.171672564489124e+000	 8.319370185385159e+000
 6.296894184394666e-001	 3.178213380349571e+000	 8.299419715694445e+000
 9.597835478886195e-001	 3.122479971421242e+000	 8.746669409196777e+000
 9.272893661122240e-001	 3.132283532317234e+000	 8.701957152112865e+000
 8.947810253926622e-001	 3.141724490344950e+000	 8.656902604743955e+000
 8.622641960164077e-001	 3.150804112011262e+000	 8.611578241327498e+000
 8.297444906243141e-001	 3.159523773512700e+000	 8.566056611980683e+000
 7.972274618061520e-001	 3.167884958480193e+000	 8.520431545395997e+000
 7.647185997851704e-001	 3.175889255669407e+000	 8.474845052170872e+000
 7.322233301936993e-001	 3.183538356600479e+000	 8.429519139970696e+000
 6.997470119406520e-001	 3.190834053150889e+000	 8.384791731252545e+000
 6.672949351716115e-001	 3.197778235105262e+000	 8.341155861881141e+000
 6.348723193220341e-001	 3.204372887665806e+000	 8.320337737818997e+000
 9.676189233639760e-001	 3.147970930342888e+000	 8.768238329776887e+000
 9.348594691561779e-001	 3.157854524472396e+000	 8.721166127327901e+000
 9.020857404160018e-001	 3.167372555556240e+000	 8.673718101447214e+000
 8.693034537203810e-001	 3.176526300440638e+000	 8.626236877393287e+000
 8.365182675300309e-001	 3.185317146556945e+000	 8.579038055088123e+000
 8.037357797643435e-001	 3.193746589647970e+000	 8.532434993729934e+000
 7.709615254670487e-001	 3.201816231439470e+000	 8.486769725094039e+000
 7.382009745636579e-001	 3.209527777260607e+000	 8.442449153857119e+000
 7.054595297115553e-001	 3.216883033617179e+000	 8.399985681543328e+000
 6.727425242434337e-001	 3.223883905721403e+000	 8.360041377483395e+000
 6.400552202046016e-001	 3.230532394982041e+000	 8.337951138983387e+000
 9.754542988393340e-001	 3.173461889264668e+000	 8.787115056599649e+000
 9.424295722001534e-001	 3.183425516627689e+000	 8.738055127025564e+000
 9.093904554393824e-001	 3.193020620767655e+000	 8.688656489567553e+000
 8.763427114244151e-001	 3.202248488870132e+000	 8.639485186380636e+000
 8.432920444358270e-001	 3.211110519601296e+000	 8.591048984920816e+000
 8.102440977226320e-001	 3.219608220815841e+000	 8.543826054064375e+000
 7.772044511490414e-001	 3.227743207209614e+000	 8.498300221306421e+000
 7.441786189337465e-001	 3.235517197920807e+000	 8.455001913820901e+000
 7.111720474826030e-001	 3.242932014083523e+000	 8.414553863085700e+000
 6.781901133154120e-001	 3.249989576337584e+000	 8.377720638728995e+000
 6.452381210873366e-001	 3.256691902298308e+000	 8.354667977220673e+000
 9.832896743146951e-001	 3.198952848186712e+000	 8.802238861146545e+000
 9.499996752441727e-001	 3.208996508783244e+000	 8.751905636510362e+000
 9.166951704628461e-001	 3.218668685979320e+000	 8.701344523330210e+000
 8.833819691285711e-001	 3.227970677299859e+000	 8.651296609020490e+000
 8.500658213417826e-001	 3.236903892645860e+000	 8.602409102493033e+000
 8.167524156811161e-001	 3.245469851983902e+000	 8.555268222526520e+000
 7.834473768312631e-001	 3.253670182979924e+000	 8.510439144912732e+000
 7.501562633040952e-001	 3.261506618581141e+000	 8.468512052811752e+000
 7.168845652539393e-001	 3.268980994549978e+000	 8.430153310282428e+000
 6.836377023877046e-001	 3.276095246953851e+000	 8.396160764010764e+000
 6.504210219704072e-001	 3.282851409614640e+000	 8.372707433693909e+000
 9.911250497900616e-001	 3.224443807109157e+000	 8.812404458474598e+000
 9.575697782882572e-001	 3.234567500939192e+000	 8.761843922300468e+000
 9.239998854864345e-001	 3.244316751191363e+000	 8.711244985260322e+000
 8.904212268329097e-001	 3.253692865729938e+000	 8.661473750516596e+000
 8.568395982479770e-001	 3.262697265690743e+000	 8.613262270626517e+000
 8.232607336398928e-001	 3.271331483152246e+000	 8.567245980317759e+000
 7.896903025138280e-001	 3.279597158750476e+000	 8.524008692024376e+000
 7.561339076748339e-001	 3.287496039241681e+000	 8.484134137390345e+000
 7.225970830257082e-001	 3.295029975016599e+000	 8.448263012019606e+000
 6.890852914604676e-001	 3.302200917570249e+000	 8.417154464874521e+000
 6.556039228539802e-001	 3.309010916931069e+000	 8.394106597360374e+000
 9.989604252654353e-001	 3.249934766032136e+000	 8.816269852079786e+000
 9.651398813324285e-001	 3.260138493095665e+000	 8.766848304886580e+000
 9.313046005101890e-001	 3.269964816403907e+000	 8.717663398974857e+000
 8.974604845374922e-001	 3.279415054160483e+000	 8.669654545813328e+000
 8.636133751544901e-001	 3.288490638736054e+000	 8.623582144357506e+000
 8.297690515990598e-001	 3.297193114320969e+000	 8.580069902048800e+000
 7.959332281968503e-001	 3.305524134521356e+000	 8.539655249859173e+000
 7.621115520460930e-001	 3.313485459902494e+000	 8.502846770387535e+000
 7.283096007980544e-001	 3.321078955483442e+000	 8.470187530560596e+000
 6.945328805338581e-001	 3.328306588186819e+000	 8.442323193626494e+000
 6.607868237382244e-001	 3.335170424247629e+000	 8.420742898101436e+000
 6.089578149058431e-001	 3.073575351083983e+000	 8.127551299992824e+000
 5.778964908983216e-001	 3.079566677810540e+000	 8.111504931936000e+000
 5.468732083162874e-001	 3.085226917223479e+000	 8.090403907886385e+000
 5.158927506883088e-001	 3.090558234994751e+000	 8.065977464117056e+000
 4.849598273529451e-001	 3.095562878368370e+000	 8.039852901580426e+000
 4.540790720423602e-001	 3.100243173639481e+000	 8.013589212459397e+000
 4.232550415549740e-001	 3.104601523616499e+000	 7.988722580025883e+000
 3.924922145166835e-001	 3.108640405069573e+000	 7.966820743283128e+000
 3.617949902300655e-001	 3.112362366168643e+000	 7.949543325049357e+000
 3.311676876108530e-001	 3.115770023914197e+000	 7.938705349136381e+000
 3.006145442108607e-001	 3.118866061563838e+000	 7.936341316895398e+000
 6.141407157900873e-001	 3.099734858400542e+000	 8.189782265759186e+000
 5.828150257461739e-001	 3.105777177908167e+000	 8.181648101450728e+000
 5.515277009021277e-001	 3.111485592184849e+000	 8.168490923636876e+000
 5.202835654996199e-001	 3.116862285334806e+000	 8.152369516308788e+000
 4.890873689588735e-001	 3.121909523728591e+000	 8.135200109949315e+000
 4.579437844502223e-001	 3.126629653460697e+000	 8.118809555379460e+000
 4.268574075554653e-001	 3.131025097790099e+000	 8.105000663821020e+000
 3.958327550185444e-001	 3.135098354567003e+000	 8.095626495170791e+000
 3.648742635849520e-001	 3.138851993649094e+000	 8.092670492261853e+000
 3.339862889291559e-001	 3.142288654310430e+000	 8.098329495565951e+000
 3.031731046692104e-001	 3.145411042646106e+000	 8.115096828057299e+000
 6.193236166736610e-001	 3.125894365716972e+000	 8.237052621322873e+000
 5.877335605933206e-001	 3.131987678005702e+000	 8.233970606839074e+000
 5.561821934872371e-001	 3.137744267146154e+000	 8.225509833326617e+000
 5.246743803101861e-001	 3.143166335674824e+000	 8.214027718754071e+000
 4.932149105640563e-001	 3.148256169088801e+000	 8.201690952803467e+000
 4.618084968573527e-001	 3.153016133281928e+000	 8.190549651145139e+000
 4.304597735552543e-001	 3.157448671963741e+000	 8.182623980687879e+000
 3.991732955197504e-001	 3.161556304064509e+000	 8.179999817729891e+000
 3.679535369392503e-001	 3.165341621129662e+000	 8.184930125737315e+000
 3.368048902469586e-001	 3.168807284706829e+000	 8.199938886315028e+000
 3.057316651271696e-001	 3.171956023728603e+000	 8.227924583361752e+000
 6.245065175567315e-001	 3.152053873033303e+000	 8.272593372483669e+000
 5.926520954399379e-001	 3.158198178103163e+000	 8.272082400649165e+000
 5.608366860717985e-001	 3.164002942107412e+000	 8.265482600190131e+000
 5.290651951201939e-001	 3.169470386014814e+000	 8.255403128673096e+000
 4.973424521686796e-001	 3.174602814449003e+000	 8.244206311011773e+000
 4.656732092639334e-001	 3.179402613103171e+000	 8.234104284272359e+000
 4.340621395545168e-001	 3.183872246137423e+000	 8.227268430017411e+000
 4.025138360204654e-001	 3.188014253562082e+000	 8.225947925057188e+000
 3.710328102931078e-001	 3.191831248610334e+000	 8.232593875754652e+000
 3.396234915643864e-001	 3.195325915103381e+000	 8.249985658509910e+000
 3.082902255848362e-001	 3.198501004811306e+000	 8.281356267186597e+000
 6.296894184394666e-001	 3.178213380349571e+000	 8.299419715694445e+000
 5.975706302862025e-001	 3.184408678200579e+000	 8.299374296892035e+000
 5.654911786559941e-001	 3.190261617068638e+000	 8.292212626034468e+000
 5.334560099298297e-001	 3.195774436354790e+000	 8.280732490760901e+000
 5.014699937729301e-001	 3.200949459809202e+000	 8.267420423005465e+000
 4.695379216701484e-001	 3.205789092924430e+000	 8.254572423228435e+000
 4.376645055534281e-001	 3.210295820311139e+000	 8.244427800505077e+000
 4.058543765208531e-001	 3.214472203059716e+000	 8.239312216912442e+000
 3.741120836466716e-001	 3.218320876091099e+000	 8.241786168854032e+000
 3.424420928815639e-001	 3.221844545500062e+000	 8.254795306611491e+000
 3.108487860423075e-001	 3.225045985894189e+000	 8.281819183793324e+000
 6.348723193220341e-001	 3.204372887665806e+000	 8.320337737819003e+000
 6.024891651322908e-001	 3.210619178297971e+000	 8.319023549117098e+000
 5.701456712400073e-001	 3.216520292029851e+000	 8.309289320548352e+000
 5.378468247392786e-001	 3.222078486694756e+000	 8.294041900963526e+000
 5.055975353769941e-001	 3.227296105169404e+000	 8.275803736387822e+000
 4.734026340761802e-001	 3.232175572745704e+000	 8.256859343213105e+000
 4.412668715521637e-001	 3.236719394484888e+000	 8.239415237287981e+000
 4.091949170210772e-001	 3.240930152557405e+000	 8.225769153132443e+000
 3.771913570000880e-001	 3.244810503571942e+000	 8.218484542110328e+000
 3.452606941986163e-001	 3.248363175896857e+000	 8.220566518727848e+000
 3.134073464996812e-001	 3.251590966977224e+000	 8.235635627440818e+000
 6.400552202046016e-001	 3.230532394982041e+000	 8.337951138983387e+000
 6.074076999783789e-001	 3.236829678395365e+000	 8.333999455970123e+000
 5.748001638240206e-001	 3.242778966991064e+000	 8.320092701931868e+000
 5.422376395487277e-001	 3.248382537034726e+000	 8.299150505114946e+000
 5.097250769810583e-001	 3.253642750529616e+000	 8.273625797898882e+000
 4.772673464822119e-001	 3.258562052566994e+000	 8.245678790998205e+000
 4.448692375508993e-001	 3.263142968658664e+000	 8.217364755291378e+000
 4.125354575213012e-001	 3.267388102055136e+000	 8.190831179101378e+000
 3.802706303535047e-001	 3.271300131052852e+000	 8.168520034240615e+000
 3.480792955156687e-001	 3.274881806293744e+000	 8.153371076721063e+000
 3.159659069570550e-001	 3.278135948060387e+000	 8.149022324658390e+000
 6.452381210873366e-001	 3.256691902298308e+000	 8.354667977220673e+000
 6.123262348246433e-001	 3.263040178492781e+000	 8.347068992687376e+000
 5.794546564082166e-001	 3.269037641952292e+000	 8.327798027085828e+000
 5.466284543583631e-001	 3.274686587374711e+000	 8.299674230476800e+000
 5.138526185853086e-001	 3.279989395889841e+000	 8.264958179583076e+000
 4.811320588884268e-001	 3.284948532388302e+000	 8.225555189457989e+000
 4.484716035498104e-001	 3.289566542832464e+000	 8.183232796185489e+000
 4.158759980216887e-001	 3.293846051552902e+000	 8.139847699405104e+000
 3.833499037070682e-001	 3.297789758533814e+000	 8.097577630355799e+000
 3.508978968328461e-001	 3.301400436690707e+000	 8.059153816520613e+000
 3.185244674145261e-001	 3.304680929143654e+000	 8.028089944620255e+000
 6.504210219704072e-001	 3.282851409614640e+000	 8.372707433693909e+000
 6.172447696712605e-001	 3.289250678590245e+000	 8.360802467080331e+000
 5.841091489927774e-001	 3.295296316913556e+000	 8.335380449709916e+000
 5.510192691683705e-001	 3.300990637714719e+000	 8.299029548342309e+000
 5.179801601899318e-001	 3.306336041250084e+000	 8.253677439135956e+000
 4.849967712950075e-001	 3.311335012209627e+000	 8.200825879579817e+000
 4.520739695490727e-001	 3.315990117006285e+000	 8.141799826518190e+000
 4.192165385224037e-001	 3.320304001050699e+000	 8.078006096979076e+000
 3.864291770609256e-001	 3.324279386014817e+000	 8.011196757358842e+000
 3.537164981502737e-001	 3.327919067087727e+000	 7.943732645284150e+000
 3.210830278721926e-001	 3.331225910226997e+000	 7.878842673824274e+000
 6.556039228539802e-001	 3.309010916931069e+000	 8.394106597360374e+000
 6.221633045184069e-001	 3.315461178687778e+000	 8.377579198653876e+000
 5.887636415778867e-001	 3.321554991874868e+000	 8.345619704766627e+000
 5.554100839789369e-001	 3.327294688054762e+000	 8.300437265985249e+000
 5.221077017951142e-001	 3.332682686610351e+000	 8.243468112538347e+000
 4.888614837021374e-001	 3.337721492030971e+000	 8.176460188941379e+000
 4.556763355488615e-001	 3.342413691180124e+000	 8.102137802134161e+000
 4.225570790236095e-001	 3.346761950548516e+000	 8.022621398645656e+000
 3.895084504152238e-001	 3.350769013495848e+000	 7.940439957104276e+000
 3.565350994680763e-001	 3.354437697484784e+000	 7.858763993227909e+000
 3.236415883301517e-001	 3.357770891310391e+000	 7.781610649895823e+000
 6.607868237382244e-001	 3.335170424247629e+000	 8.420742898101432e+000
 6.270818393662588e-001	 3.341671678785408e+000	 8.400243966293296e+000
 5.934181341637269e-001	 3.347813666836248e+000	 8.364278088681960e+000
 5.598008987902480e-001	 3.353598738394851e+000	 8.316005024524973e+000
 5.262352434010424e-001	 3.359029331970650e+000	 8.257962013301297e+000
 4.927261961099995e-001	 3.364107971852335e+000	 8.192358430932906e+000
 4.592787015493526e-001	 3.368837265353978e+000	 8.121347928873334e+000
 4.258976195254701e-001	 3.373219900046345e+000	 8.047279734940680e+000
 3.925877237701100e-001	 3.377258640976892e+000	 7.972930785625260e+000
 3.593537007863792e-001	 3.380956327881860e+000	 7.901720334582055e+000
 3.262001487885013e-001	 3.384315872393811e+000	 7.837908642563914e+000
 3.006145442108607e-001	 3.118866061563838e+000	 7.936341316895394e+000
 2.701351603285507e-001	 3.121653621246674e+000	 7.942152417312835e+000
 2.397382515072781e-001	 3.124135025063762e+000	 7.953731472165712e+000
 2.094278692182756e-001	 3.126313141612288e+000	 7.970438880124252e+000
 1.792079785623936e-001	 3.128190895538556e+000	 7.992052226051045e+000
 1.490824577193058e-001	 3.129771264960267e+000	 8.018804190092013e+000
 1.190550974780867e-001	 3.131057278902433e+000	 8.051408892439595e+000
 8.912960084760516e-002	 3.132052014749407e+000	 8.091075359519877e+000
 5.930958274510327e-002	 3.132758595715477e+000	 8.139507006510783e+000
 2.959856976126271e-002	 3.133180188336288e+000	 8.198886239331513e+000
 0.000000000000000e+000	 3.133319999983334e+000	 8.271843498594503e+000
 3.031731046692104e-001	 3.145411042646106e+000	 8.115096828057290e+000
 2.724343077016804e-001	 3.148222327528215e+000	 8.142265012098786e+000
 2.417786877487560e-001	 3.150724850821440e+000	 8.176477080809848e+000
 2.112103307641128e-001	 3.152921505537871e+000	 8.216925299317998e+000
 1.807332355959380e-001	 3.154815241215753e+000	 8.263374591498371e+000
 1.503513134314472e-001	 3.156409061319833e+000	 8.316216045331633e+000
 1.200683873234675e-001	 3.157706020655441e+000	 8.376507482172702e+000
 8.988819179751505e-002	 3.158709222798846e+000	 8.445999684990609e+000
 5.981437253772246e-002	 3.159421817546308e+000	 8.527147103961267e+000
 2.985048614990661e-002	 3.159846998384163e+000	 8.623102080059992e+000
 0.000000000000000e+000	 3.159987999982151e+000	 8.737691863160110e+000
 3.057316651271696e-001	 3.171956023728603e+000	 8.227924583361755e+000
 2.747334550745511e-001	 3.174791033810060e+000	 8.267670965101601e+000
 2.438191239901174e-001	 3.177314676579507e+000	 8.314854437801923e+000
 2.129927923099753e-001	 3.179529869463932e+000	 8.368571221934559e+000
 1.822584926296362e-001	 3.181439586893517e+000	 8.428650527533341e+000
 1.516201691438462e-001	 3.183046857680052e+000	 8.495724663652059e+000
 1.210816771691732e-001	 3.184354762409180e+000	 8.571284775036542e+000
 9.064678274776877e-002	 3.185366430849082e+000	 8.657720705541310e+000
 6.031916233064513e-002	 3.186085039377992e+000	 8.758343725962737e+000
 3.010240253874304e-002	 3.186513808432925e+000	 8.877391100924960e+000
 0.000000000000000e+000	 3.186655999981866e+000	 9.020011722403666e+000
 3.082902255848362e-001	 3.198501004811306e+000	 8.281356267186592e+000
 2.770326024472274e-001	 3.201359740092178e+000	 8.324869630576583e+000
 2.458595602313914e-001	 3.203904502337920e+000	 8.375206019148076e+000
 2.147752538558565e-001	 3.206138233390415e+000	 8.431418468193961e+000
 1.837837496634497e-001	 3.208063932571784e+000	 8.493458572847635e+000
 1.528890248564384e-001	 3.209684654040850e+000	 8.562264272770729e+000
 1.220949670151225e-001	 3.211003504163571e+000	 8.639831759242295e+000
 9.140537369828046e-002	 3.212023638900031e+000	 8.729269903653112e+000
 6.082395212379545e-002	 3.212748261210433e+000	 8.834835860016892e+000
 3.035431892772387e-002	 3.213180618482476e+000	 8.961950746456866e+000
 0.000000000000000e+000	 3.213323999982383e+000	 9.117194581306721e+000
 3.108487860423075e-001	 3.225045985894189e+000	 8.281819183793324e+000
 2.793317498197742e-001	 3.227928446374532e+000	 8.320279423051735e+000
 2.478999964726072e-001	 3.230494328096634e+000	 8.363817530856228e+000
 2.165577154017504e-001	 3.232746597317268e+000	 8.411476768079245e+000
 1.853090066973401e-001	 3.234688278250491e+000	 8.463370146965964e+000
 1.541578805691593e-001	 3.236322450402155e+000	 8.520787026959264e+000
 1.231082568612342e-001	 3.237652245918530e+000	 8.586282256793480e+000
 9.216396464896409e-002	 3.238680846951602e+000	 8.663746156117352e+000
 6.132874191709752e-002	 3.239411483043539e+000	 8.758453899696237e+000
 3.060623531680096e-002	 3.239847428532718e+000	 8.877093135674436e+000
 0.000000000000000e+000	 3.239991999983598e+000	 9.027768958434999e+000
 3.134073464996812e-001	 3.251590966977224e+000	 8.235635627440804e+000
 2.816308971922561e-001	 3.254497152657088e+000	 8.260236750458319e+000
 2.499404327137938e-001	 3.257084153855605e+000	 8.286916429301552e+000
 2.183401769476505e-001	 3.259354961244440e+000	 8.314721878904791e+000
 1.868342637312690e-001	 3.261312623929576e+000	 8.343947260821643e+000
 1.554267362819446e-001	 3.262960246763894e+000	 8.376260292414855e+000
 1.241215467074271e-001	 3.264300987673977e+000	 8.414809751571891e+000
 9.292255559973367e-002	 3.265338055003705e+000	 8.464312059057892e+000
 6.183353171047546e-002	 3.266074704877213e+000	 8.531115407331010e+000
 3.085815170592619e-002	 3.266514238583551e+000	 8.623240189886500e+000
 0.000000000000000e+000	 3.266659999985416e+000	 8.750394793255669e+000
 3.159659069570550e-001	 3.278135948060387e+000	 8.149022324658400e+000
 2.839300445647380e-001	 3.281065858939814e+000	 8.150995029043685e+000
 2.519808689549805e-001	 3.283673979614793e+000	 8.150670534222144e+000
 2.201226384935507e-001	 3.285963325171877e+000	 8.147093807988114e+000
 1.883595207651979e-001	 3.287936969608973e+000	 8.140740346960179e+000
 1.566955919947300e-001	 3.289598043125997e+000	 8.133664069229564e+000
 1.251348365536200e-001	 3.290949729429830e+000	 8.129624373830609e+000
 9.368114655050329e-002	 3.291995263056253e+000	 8.134190432399610e+000
 6.233832150385341e-002	 3.292737926711361e+000	 8.154821082795463e+000
 3.111006809505144e-002	 3.293181048634878e+000	 8.200918997222335e+000
 0.000000000000000e+000	 3.293327999987732e+000	 8.283858125183508e+000
 3.185244674145261e-001	 3.304680929143654e+000	 8.028089944620259e+000
 2.862291919372848e-001	 3.307634565222676e+000	 7.998723775466645e+000
 2.540213051961962e-001	 3.310263805374154e+000	 7.961186729127609e+000
 2.219051000394445e-001	 3.312571689099526e+000	 7.914495134516601e+000
 1.898847777990883e-001	 3.314561315288625e+000	 7.859286202646759e+000
 1.579644477074510e-001	 3.316235839488388e+000	 7.797988542277336e+000
 1.261481263997318e-001	 3.317598471186007e+000	 7.734970032296954e+000
 9.443973750118694e-002	 3.318652471109157e+000	 7.676660993690764e+000
 6.284311129715553e-002	 3.319401148545888e+000	 7.631650926790927e+000
 3.136198448412856e-002	 3.319847858686600e+000	 7.610757400583024e+000
 0.000000000000000e+000	 3.319995999990449e+000	 7.627066029064139e+000
 3.210830278721926e-001	 3.331225910226997e+000	 7.878842673824288e+000
 2.885283393099610e-001	 3.334203271505640e+000	 7.809630400903723e+000
 2.560617414374702e-001	 3.336853631133645e+000	 7.726752091362521e+000
 2.236875615853258e-001	 3.339180053027334e+000	 7.629981216622385e+000
 1.914100348329019e-001	 3.341185660968463e+000	 7.520141458717960e+000
 1.592333034200432e-001	 3.342873635850999e+000	 7.399811270281726e+000
 1.271614162456811e-001	 3.344247212942430e+000	 7.273477246354732e+000
 9.519832845169869e-002	 3.345309679162327e+000	 7.147679394712073e+000
 6.334790109030591e-002	 3.346064370380699e+000	 7.031149139533477e+000
 3.161390087310945e-002	 3.346514668738617e+000	 6.934940806061853e+000
 0.000000000000000e+000	 3.346663999993466e+000	 6.872557277739717e+000
 3.236415883301517e-001	 3.357770891310391e+000	 7.781610649895823e+000
 2.908274866828316e-001	 3.360771977788671e+000	 7.701475370431851e+000
 2.581021776788315e-001	 3.363443456893222e+000	 7.606432732848634e+000
 2.254700231311882e-001	 3.365788416955247e+000	 7.495663921881834e+000
 1.929352918666001e-001	 3.367810006648428e+000	 7.369919791800391e+000
 1.605021591324423e-001	 3.369511432213753e+000	 7.231678996700211e+000
 1.281747060913868e-001	 3.370895954699013e+000	 7.085297497424346e+000
 9.595691940195257e-002	 3.371966887215674e+000	 6.937150421757809e+000
 6.385269088322870e-002	 3.372727592215701e+000	 6.795767161678485e+000
 3.186581726194594e-002	 3.373181478790831e+000	 6.671960496634336e+000
 0.000000000000000e+000	 3.373331999996682e+000	 6.578950466961548e+000
 3.262001487885013e-001	 3.384315872393811e+000	 7.837908642563910e+000
 2.931266340559613e-001	 3.387340684071737e+000	 7.773029112784561e+000
 2.601426139203095e-001	 3.390033282652842e+000	 7.694152679872171e+000
 2.272524846770256e-001	 3.392396780883214e+000	 7.600620545727170e+000
 1.944605489001446e-001	 3.394434352328458e+000	 7.493313480463047e+000
 1.617710148445838e-001	 3.396149228576582e+000	 7.374804890512976e+000
 1.291879959367679e-001	 3.397544696455681e+000	 7.249505713671122e+000
 9.671551035186263e-002	 3.398624095269111e+000	 7.123802176974296e+000
 6.435748067584801e-002	 3.399390814050797e+000	 7.006187352373794e+000
 3.211773365058992e-002	 3.399848288843146e+000	 6.907387342340487e+000
 0.000000000000000e+000	 3.400000000000000e+000	 6.840482853452558e+000
 3.400000000000000e+000	 0.000000000000000e+000	 1.090828888392115e+001
 3.399848288843145e+000	 3.211773365058895e-002	 1.096470176139942e+001
 3.399390814050797e+000	 6.435748067584715e-002	 1.098629947857595e+001
 3.398624095269111e+000	 9.671551035186185e-002	 1.098217964611373e+001
 3.397544696455680e+000	 1.291879959367673e-001	 1.096073130154993e+001
 3.396149228576582e+000	 1.617710148445832e-001	 1.092964844632471e+001
 3.394434352328458e+000	 1.944605489001441e-001	 1.089594537390463e+001
 3.392396780883214e+000	 2.272524846770251e-001	 1.086597404295723e+001
 3.390033282652842e+000	 2.601426139203092e-001	 1.084544376711936e+001
 3.387340684071737e+000	 2.931266340559610e-001	 1.083944352714037e+001
 3.384315872393812e+000	 3.262001487885012e-001	 1.085246724585509e+001
 3.426668000003317e+000	 0.000000000000000e+000	 1.079754370343576e+001
 3.426515098895459e+000	 3.236965003900857e-002	 1.086471264848657e+001
 3.426054035885893e+000	 6.486227046811326e-002	 1.089569926681540e+001
 3.425281303322550e+000	 9.747410130137260e-002	 1.089986998192895e+001
 3.424193438212349e+000	 1.302012857817725e-001	 1.088587740029552e+001
 3.422787024939412e+000	 1.630398705564287e-001	 1.086167275186562e+001
 3.421058698008491e+000	 1.959858059335152e-001	 1.083451991892914e+001
 3.419005144811186e+000	 2.290349462228409e-001	 1.081101131160296e+001
 3.416623108412468e+000	 2.621830501619325e-001	 1.079708586862225e+001
 3.413909390354809e+000	 2.954257814294041e-001	 1.079804949894754e+001
 3.410860853477238e+000	 3.287587092473184e-001	 1.081859831706635e+001
 3.453336000006534e+000	 0.000000000000000e+000	 1.070595661483354e+001
 3.453181908947674e+000	 3.262156642723706e-002	 1.078061960434155e+001
 3.452717257720900e+000	 6.536706026008117e-002	 1.081806644191766e+001
 3.451938511375909e+000	 9.823269225055065e-002	 1.082791608489687e+001
 3.450842179968952e+000	 1.312145756264717e-001	 1.081906873997089e+001
 3.449424821302195e+000	 1.643087262680443e-001	 1.079971712261854e+001
 3.447683043688490e+000	 1.975110629667697e-001	 1.077735908615388e+001
 3.445613508739142e+000	 2.308174077686786e-001	 1.075881188293316e+001
 3.443212934172093e+000	 2.642234864037291e-001	 1.075022834360674e+001
 3.440478096637889e+000	 2.977249288031721e-001	 1.075711529985810e+001
 3.437405834560681e+000	 3.313172697066004e-001	 1.078435461627880e+001
 3.480004000009550e+000	 0.000000000000000e+000	 1.063243589294525e+001
 3.479848718999697e+000	 3.287348281532392e-002	 1.071180371281973e+001
 3.479380479555727e+000	 6.587185005183192e-002	 1.075319311055574e+001
 3.478595719429112e+000	 9.899128319949314e-002	 1.076645956486481e+001
 3.477490921725427e+000	 1.322278654709649e-001	 1.076073534879943e+001
 3.476062617664880e+000	 1.655775819795217e-001	 1.074443952217569e+001
 3.474307389368425e+000	 1.990363199999830e-001	 1.072528905813150e+001
 3.472221872667066e+000	 2.325998693145916e-001	 1.071031137051947e+001
 3.469802759931711e+000	 2.662639226457270e-001	 1.070585853529082e+001
 3.467046802920989e+000	 3.000240761772669e-001	 1.071762354145858e+001
 3.463950815644159e+000	 3.338758301663241e-001	 1.075065895037163e+001
 3.506672000012267e+000	 0.000000000000000e+000	 1.057571904697737e+001
 3.506515529051426e+000	 3.312539920331866e-002	 1.065749560325236e+001
 3.506043701390284e+000	 6.637663984344665e-002	 1.070074068742317e+001
 3.505252927482078e+000	 9.974987414829721e-002	 1.071553057651938e+001
 3.504139663481709e+000	 1.332411553153518e-001	 1.071121453786581e+001
 3.502700414027417e+000	 1.668464376909529e-001	 1.069642346718432e+001
 3.500931735048262e+000	 2.005615770332309e-001	 1.067907940777245e+001
 3.498830236594935e+000	 2.343823308606331e-001	 1.066640622150772e+001
 3.496392585691322e+000	 2.683043588879536e-001	 1.066494171217128e+001
 3.493615509204113e+000	 3.023232235516897e-001	 1.068055154700152e+001
 3.490495796727685e+000	 3.364343906264661e-001	 1.071844536864067e+001
 3.533340000014583e+000	 0.000000000000000e+000	 1.053437926480906e+001
 3.533182339102767e+000	 3.337731559127077e-002	 1.061678171860717e+001
 3.532706923224484e+000	 6.688142963500651e-002	 1.066024592836013e+001
 3.531910135534732e+000	 1.005084650970601e-001	 1.067505355918008e+001
 3.530788405237733e+000	 1.342544451597326e-001	 1.067075628996437e+001
 3.529338210389759e+000	 1.681152934024298e-001	 1.065618300840919e+001
 3.527556080727968e+000	 2.020868340665887e-001	 1.063944761563941e+001
 3.525438600522739e+000	 2.361647924068565e-001	 1.062795771512104e+001
 3.522982411450922e+000	 2.703447951304370e-001	 1.062842449374330e+001
 3.520184215487275e+000	 3.046223709264418e-001	 1.064687415148417e+001
 3.517040777811276e+000	 3.389929510870033e-001	 1.068866128558088e+001
 3.560008000016400e+000	 0.000000000000000e+000	 1.050683156764383e+001
 3.559849149153620e+000	 3.362923197922979e-002	 1.058861030137852e+001
 3.559370145058233e+000	 6.738621942659251e-002	 1.063112669017488e+001
 3.558567343586992e+000	 1.012670560458787e-001	 1.064485271383767e+001
 3.557437146993432e+000	 1.352677350042070e-001	 1.063952839781521e+001
 3.555976006751857e+000	 1.693841491140445e-001	 1.062416747485947e+001
 3.554180426407512e+000	 2.036120911001322e-001	 1.060706336557461e+001
 3.552046964450459e+000	 2.379472539533151e-001	 1.059579575631700e+001
 3.549572237210508e+000	 2.723852313732046e-001	 1.059723808975189e+001
 3.546752921770479e+000	 3.069215183015246e-001	 1.061756633516774e+001
 3.543585758894952e+000	 3.415515115479126e-001	 1.066226945855344e+001
 3.586676000017616e+000	 0.000000000000000e+000	 1.049133869009000e+001
 3.586515959203891e+000	 3.388114836724521e-002	 1.057179711190608e+001
 3.586033366891443e+000	 6.789100921828582e-002	 1.061268743139161e+001
 3.585224551638781e+000	 1.020256469948503e-001	 1.062465723111243e+001
 3.584085888748746e+000	 1.362810248488752e-001	 1.061762136469638e+001
 3.582613803113660e+000	 1.706530048258888e-001	 1.060076599331562e+001
 3.580804772086859e+000	 2.051373481339368e-001	 1.058255263019649e+001
 3.578655328378078e+000	 2.397297155000623e-001	 1.057072247526436e+001
 3.576162062970080e+000	 2.744256676162844e-001	 1.057230136267849e+001
 3.573321628053737e+000	 3.092206656769396e-001	 1.059360569921237e+001
 3.570130739978727e+000	 3.441100720091706e-001	 1.064024982789120e+001
 3.613344000018133e+000	 0.000000000000000e+000	 1.048601669985760e+001
 3.613182769253481e+000	 3.413306475536655e-002	 1.056503089293608e+001
 3.612696588724027e+000	 6.839579901016755e-002	 1.060412446730174e+001
 3.611881759690020e+000	 1.027842379440719e-001	 1.061410628300145e+001
 3.610734630503606e+000	 1.372943146938367e-001	 1.060505307976271e+001
 3.609251599475123e+000	 1.719218605380546e-001	 1.058631179486144e+001
 3.607429117765978e+000	 2.066626051680781e-001	 1.056650155712415e+001
 3.605263692305578e+000	 2.415121770471514e-001	 1.055351564267037e+001
 3.602751888729632e+000	 2.764661038597041e-001	 1.055452372259645e+001
 3.599890334337058e+000	 3.115198130526880e-001	 1.057597479158068e+001
 3.596675721062617e+000	 3.466686324707543e-001	 1.062360122655315e+001
 3.640012000017849e+000	 0.000000000000000e+000	 1.048884037042319e+001
 3.639849579302291e+000	 3.438498114364327e-002	 1.056687859345121e+001
 3.639359810555890e+000	 6.890058880231878e-002	 1.060453099192342e+001
 3.638538967740630e+000	 1.035428288936408e-001	 1.061275379052626e+001
 3.637383372257951e+000	 1.383076045391919e-001	 1.060177327961056e+001
 3.635889395836193e+000	 1.731907162506340e-001	 1.058108631933983e+001
 3.634053463444836e+000	 2.081878622026318e-001	 1.055946016614558e+001
 3.631872056232943e+000	 2.432946385946359e-001	 1.054493191040261e+001
 3.629341714489163e+000	 2.785065401034913e-001	 1.054480786299058e+001
 3.626459040620449e+000	 3.138189604287712e-001	 1.056566329089126e+001
 3.623220702146640e+000	 3.492271929326404e-001	 1.061334296601258e+001
 3.666680000016666e+000	 0.000000000000000e+000	 1.049764831923998e+001
 3.666516389350228e+000	 3.463689753212493e-002	 1.057579036401411e+001
 3.666023032386948e+000	 6.940537859482067e-002	 1.061290187873687e+001
 3.665196175790535e+000	 1.043014198436540e-001	 1.062007297869524e+001
 3.664032114011716e+000	 1.393208943850406e-001	 1.060766780696642e+001
 3.662527192196825e+000	 1.744595719637187e-001	 1.058532312802694e+001
 3.660677809123401e+000	 2.097131192376734e-001	 1.056194586695875e+001
 3.658480420160159e+000	 2.450771001425689e-001	 1.054570988629956e+001
 3.655931540248671e+000	 2.805469763476741e-001	 1.054405234564158e+001
 3.653027746903921e+000	 3.161181078051908e-001	 1.056367005545448e+001
 3.649765683230814e+000	 3.517857533948059e-001	 1.061051630468574e+001
 3.384315872393812e+000	 3.262001487885012e-001	 1.085246724585509e+001
 3.380956327881861e+000	 3.593537007863771e-001	 1.086839144432926e+001
 3.377258640976894e+000	 3.925877237701082e-001	 1.087174181488108e+001
 3.373219900046344e+000	 4.258976195254685e-001	 1.086711115738328e+001
 3.368837265353977e+000	 4.592787015493514e-001	 1.085854216710925e+001
 3.364107971852335e+000	 4.927261961099984e-001	 1.084956859476512e+001
 3.359029331970650e+000	 5.262352434010417e-001	 1.084326214648373e+001
 3.353598738394850e+000	 5.598008987902472e-001	 1.084228570066690e+001
 3.347813666836248e+000	 5.934181341637268e-001	 1.084895344296815e+001
 3.341671678785408e+000	 6.270818393662589e-001	 1.086529854161687e+001
 3.335170424247629e+000	 6.607868237382244e-001	 1.089314900217885e+001
 3.410860853477238e+000	 3.287587092473184e-001	 1.081859831706635e+001
 3.407474958278943e+000	 3.621723021052771e-001	 1.084153770973813e+001
 3.403748268457944e+000	 3.956669971256946e-001	 1.085029482436439e+001
 3.399677849544183e+000	 4.292381600281081e-001	 1.084959090658394e+001
 3.395260839527841e+000	 4.628810675506773e-001	 1.084357272040997e+001
 3.390494451673717e+000	 4.965909085187304e-001	 1.083585107721290e+001
 3.385375977330978e+000	 5.303627850078559e-001	 1.082954506920589e+001
 3.379902788734987e+000	 5.641917136024436e-001	 1.082733261666063e+001
 3.374072341797700e+000	 5.980726267504359e-001	 1.083150796520191e+001
 3.367882178883140e+000	 6.320003742149504e-001	 1.084404679305258e+001
 3.361329931564332e+000	 6.659697246232670e-001	 1.086667960745292e+001
 3.437405834560681e+000	 3.313172697066004e-001	 1.078435461627881e+001
 3.433993588676044e+000	 3.649909034247585e-001	 1.081367348937317e+001
 3.430237895939014e+000	 3.987462704819554e-001	 1.082738097693666e+001
 3.426135799042035e+000	 4.325787005314931e-001	 1.083029267936625e+001
 3.421684413701722e+000	 4.664834335528000e-001	 1.082662681771129e+001
 3.416880931495113e+000	 5.004556209282912e-001	 1.082003999514892e+001
 3.411722622691324e+000	 5.344903266155147e-001	 1.081366861509613e+001
 3.406206839075147e+000	 5.685825284154835e-001	 1.081017659862434e+001
 3.400331016759192e+000	 6.027271193379757e-001	 1.081181007383291e+001
 3.394092678980937e+000	 6.369189090644477e-001	 1.082045973610753e+001
 3.387489438881134e+000	 6.711526255090805e-001	 1.083819406575097e+001
 3.463950815644159e+000	 3.338758301663241e-001	 1.075065895037163e+001
 3.460512219073185e+000	 3.678095047447778e-001	 1.078563613812766e+001
 3.456727523420122e+000	 4.018255438388306e-001	 1.080375647086173e+001
 3.452593748539921e+000	 4.359192410355516e-001	 1.080989818859425e+001
 3.448107987875622e+000	 4.700857995556378e-001	 1.080832081344258e+001
 3.443267411316521e+000	 5.043203333385943e-001	 1.080269799650191e+001
 3.438069268051671e+000	 5.386178682239288e-001	 1.079615596036994e+001
 3.432510889415307e+000	 5.729733432292812e-001	 1.079131821456368e+001
 3.426589691720682e+000	 6.073816119262635e-001	 1.079035725407645e+001
 3.420303179078740e+000	 6.418374439146738e-001	 1.079505398049486e+001
 3.413648946197964e+000	 6.763355263955971e-001	 1.080898009106637e+001
 3.490495796727685e+000	 3.364343906264661e-001	 1.071844536864067e+001
 3.487030849470385e+000	 3.706281060652908e-001	 1.075828973102724e+001
 3.483217150901287e+000	 4.049048171962604e-001	 1.078021784742210e+001
 3.479051698037852e+000	 4.392597815402110e-001	 1.078914129938895e+001
 3.474531562049550e+000	 4.736881655591103e-001	 1.078933325488567e+001
 3.469653891137934e+000	 5.081850457495538e-001	 1.078445824261787e+001
 3.464415913412003e+000	 5.427454098330111e-001	 1.077760744718897e+001
 3.458814939755432e+000	 5.773641580437487e-001	 1.077134023804868e+001
 3.452848366682128e+000	 6.120361045152160e-001	 1.076773268141191e+001
 3.446513679176500e+000	 6.467559787655530e-001	 1.076843381654410e+001
 3.439808453514761e+000	 6.815184272827488e-001	 1.077960017799892e+001
 3.517040777811276e+000	 3.389929510870033e-001	 1.068866128558088e+001
 3.513549479867664e+000	 3.734467073862540e-001	 1.073252649047120e+001
 3.509706778382525e+000	 4.079840905541843e-001	 1.075760273812308e+001
 3.505509647535839e+000	 4.426003220453982e-001	 1.076880811392554e+001
 3.500955136223510e+000	 4.772905315631356e-001	 1.077040432435391e+001
 3.496040370959348e+000	 5.120497581610831e-001	 1.076602322980359e+001
 3.490762558772304e+000	 5.468729514426732e-001	 1.075869880876754e+001
 3.485118990095495e+000	 5.817549728588000e-001	 1.075090530332084e+001
 3.479107041643488e+000	 6.166905971047498e-001	 1.074460233538045e+001
 3.472724179274159e+000	 6.516745136170080e-001	 1.074128781864612e+001
 3.465967960831456e+000	 6.867013281704680e-001	 1.075067183670367e+001
 3.543585758894952e+000	 3.415515115479126e-001	 1.066226945855344e+001
 3.540068110265041e+000	 3.762653087076237e-001	 1.070926808987644e+001
 3.536196405863857e+000	 4.110633639125423e-001	 1.073679050841828e+001
 3.531967597033896e+000	 4.459408625510411e-001	 1.074973697142837e+001
 3.527378710397507e+000	 4.808928975676332e-001	 1.075233521376094e+001
 3.522426850780760e+000	 5.159144705730966e-001	 1.074816355891970e+001
 3.517109204132556e+000	 5.510004930528267e-001	 1.074017935661457e+001
 3.511423040435468e+000	 5.861457876743474e-001	 1.073075353500323e+001
 3.505365716604721e+000	 6.213450896947831e-001	 1.072171209879693e+001
 3.498934679371662e+000	 6.565930484689633e-001	 1.071438544322532e+001
 3.492127468147987e+000	 6.918842290586874e-001	 1.072287870627059e+001
 3.570130739978727e+000	 3.441100720091706e-001	 1.064024982789120e+001
 3.566586740662536e+000	 3.790839100293559e-001	 1.068946684015555e+001
 3.562686033345300e+000	 4.141426372712739e-001	 1.071870280334231e+001
 3.558425546532041e+000	 4.492814030570673e-001	 1.073281836777864e+001
 3.553802284571547e+000	 4.844952635725216e-001	 1.073598743509804e+001
 3.548813330602161e+000	 5.197791829855073e-001	 1.073171665572739e+001
 3.543455849492744e+000	 5.551280346633838e-001	 1.072287013188172e+001
 3.537727090775321e+000	 5.905366024903045e-001	 1.071170015373759e+001
 3.531624391565782e+000	 6.259995822852327e-001	 1.069988484313499e+001
 3.525145179468955e+000	 6.615115833213419e-001	 1.068857362152111e+001
 3.518286975464284e+000	 6.970671299473390e-001	 1.069696908903445e+001
 3.596675721062617e+000	 3.466686324707543e-001	 1.062360122655315e+001
 3.593105371060168e+000	 3.819025113514069e-001	 1.067410676508421e+001
 3.589175660826872e+000	 4.172219106303193e-001	 1.070430400011931e+001
 3.584883496030280e+000	 4.526219435634040e-001	 1.071899479888824e+001
 3.580225858745636e+000	 4.880976295777196e-001	 1.072228207013193e+001
 3.575199810423550e+000	 5.236438953982293e-001	 1.071758544453354e+001
 3.569802494852850e+000	 5.592555762742566e-001	 1.070766202267186e+001
 3.564031141115021e+000	 5.949274173065843e-001	 1.069463305898946e+001
 3.557883066526630e+000	 6.306540748760149e-001	 1.068001750080013e+001
 3.551355679565987e+000	 6.664301181740678e-001	 1.066477334744724e+001
 3.544446482780285e+000	 7.022500308363557e-001	 1.067375448657630e+001
 3.623220702146640e+000	 3.492271929326404e-001	 1.061334296601258e+001
 3.619624001457956e+000	 3.847211126737330e-001	 1.066420457125579e+001
 3.615665288308593e+000	 4.203011839896185e-001	 1.069460157251822e+001
 3.611341445528634e+000	 4.559624840699788e-001	 1.070926053175047e+001
 3.606649432919779e+000	 4.916999955831461e-001	 1.071219896244026e+001
 3.601586290244920e+000	 5.275086078111761e-001	 1.070673697752880e+001
 3.596149140212859e+000	 5.633831178853567e-001	 1.069551384905440e+001
 3.590335191454545e+000	 5.993182321231000e-001	 1.068051039019522e+001
 3.584141741487224e+000	 6.353085674670476e-001	 1.066307812496179e+001
 3.577566179662699e+000	 6.713486530270642e-001	 1.064436699241714e+001
 3.570605990095922e+000	 7.074329317256695e-001	 1.065410813733092e+001
 3.649765683230814e+000	 3.517857533948059e-001	 1.061051630468574e+001
 3.646142631855922e+000	 3.875397139962904e-001	 1.066081051799026e+001
 3.642154915790480e+000	 4.233804573491111e-001	 1.069064637144749e+001
 3.637799395027111e+000	 4.593030245767192e-001	 1.070466130684918e+001
 3.633073007093982e+000	 4.953023615887202e-001	 1.070677585472075e+001
 3.627972770066270e+000	 5.313733202242622e-001	 1.070020102207536e+001
 3.622495785572755e+000	 5.675106594965962e-001	 1.068745041743055e+001
 3.616639241793861e+000	 6.037090469397648e-001	 1.067035806735046e+001
 3.610400416447523e+000	 6.399630600582478e-001	 1.065010293757789e+001
 3.603776679759039e+000	 6.762671878802551e-001	 1.062881399637558e+001
 3.596765497411132e+000	 7.126158326152126e-001	 1.063896355571779e+001
 3.335170424247629e+000	 6.607868237382244e-001	 1.089314900217885e+001
 3.328306588186819e+000	 6.945328805338575e-001	 1.091565289194059e+001
 3.321078955483442e+000	 7.283096007980533e-001	 1.093257203974095e+001
 3.313485459902494e+000	 7.621115520460927e-001	 1.094598613845358e+001
 3.305524134521356e+000	 7.959332281968501e-001	 1.095678454212141e+001
 3.297193114320970e+000	 8.297690515990595e-001	 1.096552441110359e+001
 3.288490638736054e+000	 8.636133751544902e-001	 1.097244324319015e+001
 3.279415054160485e+000	 8.974604845374923e-001	 1.097747119995133e+001
 3.269964816403907e+000	 9.313046005101893e-001	 1.098024307839706e+001
 3.260138493095665e+000	 9.651398813324289e-001	 1.098010979031403e+001
 3.249934766032135e+000	 9.989604252654352e-001	 1.097614922591746e+001
 3.361329931564332e+000	 6.659697246232670e-001	 1.086667960745292e+001
 3.354412258803585e+000	 6.999804696079965e-001	 1.089062070012156e+001
 3.347127935950536e+000	 7.340221185710896e-001	 1.090953294761444e+001
 3.339474880563622e+000	 7.680891964179749e-001	 1.092493559098021e+001
 3.331451110292612e+000	 8.021761538804225e-001	 1.093792498735186e+001
 3.323054745490132e+000	 8.362773695586973e-001	 1.094894812956345e+001
 3.314284011781863e+000	 8.703871520613908e-001	 1.095811357906864e+001
 3.305137242591580e+000	 9.044997422423740e-001	 1.096530506701661e+001
 3.295612881617041e+000	 9.386093155341526e-001	 1.097011595122172e+001
 3.285709485252757e+000	 9.727099843767160e-001	 1.097186155917443e+001
 3.275425724955747e+000	 1.006795800740831e+000	 1.096959075652743e+001
 3.387489438881134e+000	 6.711526255090805e-001	 1.083819406575096e+001
 3.380517929420490e+000	 7.054280586828631e-001	 1.086410110977488e+001
 3.373176916417826e+000	 7.397346363448024e-001	 1.088471196314096e+001
 3.365464301225002e+000	 7.740668407904775e-001	 1.090159086347999e+001
 3.357378086064188e+000	 8.084190795645522e-001	 1.091589733531071e+001
 3.348916376659676e+000	 8.427856875188236e-001	 1.092839029514503e+001
 3.340077384828113e+000	 8.771609289687062e-001	 1.093943412783286e+001
 3.330859431023176e+000	 9.115389999475942e-001	 1.094898896286800e+001
 3.321260946830720e+000	 9.459140305583739e-001	 1.095628304980114e+001
 3.311280477410428e+000	 9.802800874211788e-001	 1.096042200384859e+001
 3.300916683879955e+000	 1.014631176216317e+000	 1.096038089954281e+001
 3.413648946197964e+000	 6.763355263955971e-001	 1.080898009106637e+001
 3.406623600037462e+000	 7.108756477584002e-001	 1.083657847568208e+001
 3.399225896885227e+000	 7.454471541191478e-001	 1.085875211839526e+001
 3.391453721886552e+000	 7.800444851635690e-001	 1.087710171344011e+001
 3.383305061835989e+000	 8.146620052492227e-001	 1.089282036831426e+001
 3.374778007829509e+000	 8.492940054794383e-001	 1.090669703185807e+001
 3.365870757874715e+000	 8.839347058764536e-001	 1.091912189302423e+001
 3.356581619455177e+000	 9.185782576531858e-001	 1.093009394526772e+001
 3.346909012044857e+000	 9.532187455829029e-001	 1.093923091533206e+001
 3.336851469568601e+000	 9.878501904658825e-001	 1.094578175746028e+001
 3.326407642804695e+000	 1.022466551691976e+000	 1.094850952224364e+001
 3.439808453514761e+000	 6.815184272827488e-001	 1.077960017799892e+001
 3.432729270654426e+000	 7.163232368345509e-001	 1.080859439192847e+001
 3.425274877352659e+000	 7.511596718940813e-001	 1.083217723137195e+001
 3.417443142548178e+000	 7.860221295372194e-001	 1.085196564271819e+001
 3.409232037607927e+000	 8.209049309344192e-001	 1.086916606408679e+001
 3.400639638999539e+000	 8.558023234405423e-001	 1.088457714076596e+001
 3.391664130921576e+000	 8.907084827846502e-001	 1.089859440892574e+001
 3.382303807887502e+000	 9.256175153591826e-001	 1.091121715337978e+001
 3.372557077259375e+000	 9.605234606077903e-001	 1.092205764966725e+001
 3.362422461727200e+000	 9.954202935108946e-001	 1.093035300357931e+001
 3.351898601729900e+000	 1.030301927167889e+000	 1.093497284245709e+001
 3.465967960831456e+000	 6.867013281704680e-001	 1.075067183670366e+001
 3.458834941271304e+000	 7.217708259112586e-001	 1.078076067234926e+001
 3.451323857820038e+000	 7.568721896695586e-001	 1.080558368968750e+001
 3.443432563209798e+000	 7.919997739113980e-001	 1.082675480755213e+001
 3.435159013379911e+000	 8.271478566201259e-001	 1.084547449721924e+001
 3.426501270169675e+000	 8.623106414021358e-001	 1.086253174607496e+001
 3.417457503968607e+000	 8.974822596933121e-001	 1.087830798509889e+001
 3.408025996320058e+000	 9.326567730656181e-001	 1.089278319722522e+001
 3.398205142474186e+000	 9.678281756330862e-001	 1.090554442883840e+001
 3.387993453886149e+000	 1.002990396556281e+000	 1.091579693014298e+001
 3.377389560655499e+000	 1.038137302644139e+000	 1.092237208188405e+001
 3.492127468147987e+000	 6.918842290586874e-001	 1.072287870627059e+001
 3.484940611888026e+000	 7.272184149884663e-001	 1.075375761346747e+001
 3.477372838287284e+000	 7.625847074455354e-001	 1.077963843939471e+001
 3.469421983871323e+000	 7.979774182860748e-001	 1.080211372963663e+001
 3.461085989151848e+000	 8.333907823063274e-001	 1.082235965603446e+001
 3.452362901339824e+000	 8.688189593642194e-001	 1.084113718586800e+001
 3.443250877015715e+000	 9.042560366024567e-001	 1.085879520815743e+001
 3.433748184752760e+000	 9.396960307725260e-001	 1.087527584590206e+001
 3.423853207689207e+000	 9.751328906588407e-001	 1.089012218900044e+001
 3.413564446045371e+000	 1.010560499602109e+000	 1.090248049713091e+001
 3.402880519581428e+000	 1.045972678120808e+000	 1.091114916691944e+001
 3.518286975464284e+000	 6.970671299473390e-001	 1.069696908903445e+001
 3.511046282504512e+000	 7.326660040661170e-001	 1.072833226540590e+001
 3.503421818754313e+000	 7.682972252219672e-001	 1.075507698801096e+001
 3.495411404532665e+000	 8.039550626612190e-001	 1.077875702767947e+001
 3.487012964923652e+000	 8.396337079930087e-001	 1.080050689999893e+001
 3.478224532509897e+000	 8.753272773267931e-001	 1.082104219362724e+001
 3.469044250062811e+000	 9.110298135121010e-001	 1.084066184660192e+001
 3.459470373185520e+000	 9.467352884799399e-001	 1.085925261169560e+001
 3.449501272904356e+000	 9.824376056851037e-001	 1.087629595857342e+001
 3.439135438204790e+000	 1.018130602648443e+000	 1.089087048138357e+001
 3.428371478507617e+000	 1.053808053597977e+000	 1.090169579013914e+001
 3.544446482780285e+000	 7.022500308363557e-001	 1.067375448657631e+001
 3.537151953120691e+000	 7.381135931441538e-001	 1.070529671036094e+001
 3.529470799221044e+000	 7.740097429988098e-001	 1.073270142102559e+001
 3.521400825193739e+000	 8.099327070367999e-001	 1.075746716838017e+001
 3.512939940695230e+000	 8.458766336801538e-001	 1.078067044250214e+001
 3.504086163679801e+000	 8.818355952898581e-001	 1.080296511105187e+001
 3.494837623109805e+000	 9.178035904222622e-001	 1.082458379283253e+001
 3.485192561618247e+000	 9.537745461878934e-001	 1.084534142137559e+001
 3.475149338119551e+000	 9.897423207119260e-001	 1.086464125985756e+001
 3.464706430364328e+000	 1.025700705695351e+000	 1.088147735369767e+001
 3.453862437434002e+000	 1.061643429075730e+000	 1.089447371988597e+001
 3.570605990095922e+000	 7.074329317256695e-001	 1.065410813733092e+001
 3.563257623736486e+000	 7.435611822225200e-001	 1.068552634825088e+001
 3.555519779687395e+000	 7.797222607760183e-001	 1.071337843119570e+001
 3.547390245854455e+000	 8.159103514127872e-001	 1.073909223583467e+001
 3.538866916466493e+000	 8.521195593677479e-001	 1.076367085770302e+001
 3.529947794849444e+000	 8.883439132534148e-001	 1.078769113056411e+001
 3.520630996156604e+000	 9.245773673329562e-001	 1.081130404043195e+001
 3.510914750050856e+000	 9.608138038964199e-001	 1.083423732828397e+001
 3.500797403334707e+000	 9.970470357393574e-001	 1.085580055687222e+001
 3.490277422523914e+000	 1.033270808742900e+000	 1.087488745195234e+001
 3.479353396360511e+000	 1.069478804554146e+000	 1.089001072617065e+001
 3.596765497411132e+000	 7.126158326152126e-001	 1.063896355571779e+001
 3.589363294351825e+000	 7.490087713011586e-001	 1.066995818917199e+001
 3.581568760153286e+000	 7.854347785535488e-001	 1.069803735997794e+001
 3.573379666514728e+000	 8.218879957891511e-001	 1.072454371842742e+001
 3.564793892237348e+000	 8.583624850557750e-001	 1.075039261021769e+001
 3.555809426018734e+000	 8.948522312174626e-001	 1.077606956599291e+001
 3.546424369203119e+000	 9.313511442442010e-001	 1.080162969492436e+001
 3.536636938483258e+000	 9.678530616055534e-001	 1.082669926313622e+001
 3.526445468549741e+000	 1.004351750767449e+000	 1.085047974706742e+001
 3.515848414683465e+000	 1.040840911791156e+000	 1.087174990983142e+001
 3.504844355287081e+000	 1.077314180033311e+000	 1.088889656043724e+001
 3.249934766032135e+000	 9.989604252654352e-001	 1.097614922591746e+001
 3.239352432650741e+000	 1.032760272672935e+000	 1.097651445005922e+001
 3.228390405810319e+000	 1.066533407174408e+000	 1.098852766077426e+001
 3.217047718379722e+000	 1.100273759821121e+000	 1.100958981581024e+001
 3.205323526137257e+000	 1.133975212443531e+000	 1.103687827620062e+001
 3.193217109782673e+000	 1.167631600601917e+000	 1.106734300407219e+001
 3.180727876869459e+000	 1.201236716620890e+000	 1.109771344745908e+001
 3.167855363653739e+000	 1.234784312705469e+000	 1.112450449429953e+001
 3.154599236856098e+000	 1.268268104136253e+000	 1.114402153934235e+001
 3.140959295332737e+000	 1.301681772541034e+000	 1.115236473288468e+001
 3.126935471652506e+000	 1.335018969240017e+000	 1.114552558343225e+001
 3.275425724955747e+000	 1.006795800740831e+000	 1.096959075652743e+001
 3.264760388731104e+000	 1.040860758245642e+000	 1.097149211389185e+001
 3.253712380910648e+000	 1.074898793320969e+000	 1.098477197644191e+001
 3.242280726777507e+000	 1.108903789416095e+000	 1.100658165484465e+001
 3.230464575488313e+000	 1.142869580373430e+000	 1.103384084548348e+001
 3.218263202100959e+000	 1.176789953402282e+000	 1.106323518430057e+001
 3.205676009522063e+000	 1.210658652137174e+000	 1.109122297629487e+001
 3.192702530370364e+000	 1.244469379778354e+000	 1.111404083982336e+001
 3.179342428752352e+000	 1.278215802312036e+000	 1.112770831310635e+001
 3.165595501946557e+000	 1.311891551807665e+000	 1.112803149736943e+001
 3.151461681992927e+000	 1.345490229789387e+000	 1.111516361085717e+001
 3.300916683879955e+000	 1.014631176216317e+000	 1.096038089954281e+001
 3.290168344812070e+000	 1.048961243818355e+000	 1.096427864293898e+001
 3.279034356011567e+000	 1.083264179467451e+000	 1.097907385301270e+001
 3.267513735175859e+000	 1.117533819010909e+000	 1.100168558306842e+001
 3.255605624839903e+000	 1.151763948303092e+000	 1.102878736347356e+001
 3.243309294419742e+000	 1.185948306202339e+000	 1.105681500836770e+001
 3.230624142175128e+000	 1.220080587653086e+000	 1.108197314473544e+001
 3.217549697087407e+000	 1.254154446850815e+000	 1.110024048652160e+001
 3.204085620648993e+000	 1.288163500487354e+000	 1.110737390501854e+001
 3.190231708560742e+000	 1.322101331073807e+000	 1.109891137572307e+001
 3.175987892333699e+000	 1.355961490338257e+000	 1.108548437323922e+001
 3.326407642804695e+000	 1.022466551691976e+000	 1.094850952224364e+001
 3.315576300893580e+000	 1.057061729391170e+000	 1.095486497799182e+001
 3.304356331113032e+000	 1.091629565613964e+000	 1.097146180778512e+001
 3.292746743574746e+000	 1.126163848605684e+000	 1.099498499116573e+001
 3.280746674192009e+000	 1.160658316232648e+000	 1.102187345325667e+001
 3.268355386739017e+000	 1.195106659002230e+000	 1.104832781049273e+001
 3.255572274828652e+000	 1.229502523168778e+000	 1.107031665110887e+001
 3.242396863804885e+000	 1.263839513923010e+000	 1.108358137503189e+001
 3.228828812546042e+000	 1.298111198662370e+000	 1.108363964839459e+001
 3.214867915175308e+000	 1.332311110339624e+000	 1.106578755890347e+001
 3.200514102674839e+000	 1.366432750886794e+000	 1.105686139669247e+001
 3.351898601729900e+000	 1.030301927167889e+000	 1.093497284245709e+001
 3.340984256975579e+000	 1.065162214964183e+000	 1.094350265793923e+001
 3.329678306214997e+000	 1.099994951760619e+000	 1.096208105916907e+001
 3.317979751974136e+000	 1.134793878200544e+000	 1.098667236202886e+001
 3.305887723544613e+000	 1.169552684162234e+000	 1.101335481865089e+001
 3.293401479058773e+000	 1.204265011802099e+000	 1.103810864065525e+001
 3.280520407482642e+000	 1.238924458684402e+000	 1.105668424358668e+001
 3.267244030522805e+000	 1.273524580995097e+000	 1.106460658487984e+001
 3.253572004443512e+000	 1.308058896837249e+000	 1.105717791857140e+001
 3.239504121790274e+000	 1.342520889605283e+000	 1.103184082137071e+001
 3.225040313016363e+000	 1.376904011435166e+000	 1.102966570190919e+001
 3.377389560655499e+000	 1.038137302644139e+000	 1.092237208188405e+001
 3.366392213058008e+000	 1.073262700537491e+000	 1.093254625331126e+001
 3.355000281317417e+000	 1.108360337907524e+000	 1.095211520288035e+001
 3.343212760373997e+000	 1.143423907795610e+000	 1.097719848152212e+001
 3.331028772897688e+000	 1.178447052091981e+000	 1.100357780847137e+001
 3.318447571379005e+000	 1.213423364602087e+000	 1.102657240298059e+001
 3.305468540137102e+000	 1.248346394200108e+000	 1.104157445728722e+001
 3.292091197241182e+000	 1.283209648067234e+000	 1.104391369519153e+001
 3.278315196341421e+000	 1.318006595012151e+000	 1.102870114241307e+001
 3.264140328405664e+000	 1.352730668870948e+000	 1.100096358190864e+001
 3.249566523358289e+000	 1.387375271983538e+000	 1.100426495728945e+001
 3.402880519581428e+000	 1.045972678120808e+000	 1.091114916691944e+001
 3.391800169140812e+000	 1.081363186111191e+000	 1.092300229676696e+001
 3.380322256420250e+000	 1.116725724054791e+000	 1.094342931728736e+001
 3.368445768774295e+000	 1.152053937391005e+000	 1.096841407578316e+001
 3.356169822251225e+000	 1.187341420022024e+000	 1.099359313253184e+001
 3.343493663699706e+000	 1.222581717402339e+000	 1.101428891202906e+001
 3.330416672792030e+000	 1.257768329716046e+000	 1.102554342759709e+001
 3.316938363960027e+000	 1.292894715139578e+000	 1.102214421826846e+001
 3.303058388239788e+000	 1.327954293187239e+000	 1.099895087596827e+001
 3.288776535021494e+000	 1.362940448136786e+000	 1.097344794963640e+001
 3.274092733700633e+000	 1.397846532532076e+000	 1.098102268683103e+001
 3.428371478507617e+000	 1.053808053597977e+000	 1.090169579013914e+001
 3.417208125223934e+000	 1.089463671685380e+000	 1.091521502309896e+001
 3.405644231523449e+000	 1.125091110202530e+000	 1.093636851721147e+001
 3.393678777175000e+000	 1.160683966986851e+000	 1.096102143080157e+001
 3.381310871605199e+000	 1.196235787952496e+000	 1.098467689226907e+001
 3.368539756020867e+000	 1.231740070202997e+000	 1.100250880961065e+001
 3.355364805447437e+000	 1.267190265232370e+000	 1.100939921759616e+001
 3.341785530679350e+000	 1.302579782212287e+000	 1.099998036625749e+001
 3.327801580138631e+000	 1.337901991362677e+000	 1.096920850385916e+001
 3.313412741637784e+000	 1.373150227402962e+000	 1.094955689088878e+001
 3.298618944043411e+000	 1.408317793080948e+000	 1.096029752992920e+001
 3.453862437434002e+000	 1.061643429075730e+000	 1.089447371988597e+001
 3.442616081307318e+000	 1.097564157260153e+000	 1.090959794289561e+001
 3.430966206626969e+000	 1.133456496350850e+000	 1.093131932929625e+001
 3.418911785576080e+000	 1.169313996583270e+000	 1.095540171754104e+001
 3.406451920959594e+000	 1.205130155883532e+000	 1.097723321737542e+001
 3.393585848342482e+000	 1.240898423004204e+000	 1.099185859291122e+001
 3.380312938103319e+000	 1.276612200749228e+000	 1.099401632920748e+001
 3.366632697399165e+000	 1.312264849285518e+000	 1.097818060260661e+001
 3.352544772037962e+000	 1.347849689538625e+000	 1.094361670014115e+001
 3.338048948254552e+000	 1.383360006669641e+000	 1.092954266054673e+001
 3.323145154386643e+000	 1.418789053630321e+000	 1.094244255040522e+001
 3.479353396360511e+000	 1.069478804554146e+000	 1.089001072617065e+001
 3.468024037390906e+000	 1.105664642835609e+000	 1.090662952478710e+001
 3.456288181730765e+000	 1.141821882499862e+000	 1.092873142060451e+001
 3.444144793977503e+000	 1.177944026180386e+000	 1.095199669263843e+001
 3.431592970314386e+000	 1.214024523815263e+000	 1.097171720059846e+001
 3.418631940664544e+000	 1.250056775806104e+000	 1.098282825222393e+001
 3.405261070759681e+000	 1.286034136266774e+000	 1.097994530059610e+001
 3.391479864119481e+000	 1.321949916359429e+000	 1.095740570905389e+001
 3.377287963937803e+000	 1.357797387715248e+000	 1.092293434600405e+001
 3.362685154871817e+000	 1.393569785936990e+000	 1.091336150388975e+001
 3.347671364730342e+000	 1.429260314180361e+000	 1.092769775208233e+001
 3.504844355287081e+000	 1.077314180033311e+000	 1.088889656043724e+001
 3.493431993474644e+000	 1.113765128411843e+000	 1.090684893581760e+001
 3.481610156834797e+000	 1.150187268649676e+000	 1.092911312685582e+001
 3.469377802379239e+000	 1.186574055778320e+000	 1.095130404190545e+001
 3.456734019669561e+000	 1.222918891747823e+000	 1.096863645213752e+001
 3.443678032987045e+000	 1.259215128608840e+000	 1.097595624916412e+001
 3.430209203416530e+000	 1.295456071785157e+000	 1.096777667978507e+001
 3.416327030840313e+000	 1.331634983434178e+000	 1.093831981368542e+001
 3.402031155838170e+000	 1.367745085892707e+000	 1.090734729519437e+001
 3.387321361489601e+000	 1.403779565205173e+000	 1.090115613829914e+001
 3.372197575074528e+000	 1.439731574731234e+000	 1.091598332136702e+001
 3.126935471652506e+000	 1.335018969240017e+000	 1.114552558343225e+001
 3.112530023792000e+000	 1.368268337568320e+000	 1.113803819765900e+001
 3.097741083326226e+000	 1.401428489062056e+000	 1.113928750948691e+001
 3.082568994673866e+000	 1.434493009528169e+000	 1.114759012154783e+001
 3.067014241170958e+000	 1.467455468599930e+000	 1.116111700585447e+001
 3.051077446124149e+000	 1.500309423398188e+000	 1.117790357778370e+001
 3.034759373751101e+000	 1.533048422245595e+000	 1.119586146364315e+001
 3.018060930005413e+000	 1.565666008429837e+000	 1.121279195799326e+001
 3.000983163283563e+000	 1.598155724011803e+000	 1.122640115278597e+001
 2.983527265011495e+000	 1.630511113674446e+000	 1.123431670589394e+001
 2.965694570108715e+000	 1.662725728608005e+000	 1.123410620184948e+001
 3.151461681992927e+000	 1.345490229789387e+000	 1.111516361085717e+001
 3.136943244578563e+000	 1.379000390515980e+000	 1.111643584012976e+001
 3.122038306623422e+000	 1.412420634633105e+000	 1.112470004659604e+001
 3.106747215247637e+000	 1.445744497637801e+000	 1.113842495406375e+001
 3.091070457578299e+000	 1.478965498726574e+000	 1.115594246689748e+001
 3.075008661810974e+000	 1.512077144485368e+000	 1.117545779410555e+001
 3.058562598157480e+000	 1.545072932632921e+000	 1.119506133068306e+001
 3.041733179677284e+000	 1.577946355813512e+000	 1.121274229322303e+001
 3.024521462989988e+000	 1.610690905435004e+000	 1.122640409206582e+001
 3.006928648866512e+000	 1.643300075547886e+000	 1.123388140711038e+001
 2.988956082696837e+000	 1.675767366760974e+000	 1.123295891898043e+001
 3.175987892333699e+000	 1.355961490338257e+000	 1.108548437323922e+001
 3.161356465365481e+000	 1.389732443463149e+000	 1.109401066675696e+001
 3.146335529920982e+000	 1.423412780203684e+000	 1.110809450176823e+001
 3.130925435821790e+000	 1.456995985746994e+000	 1.112633892451466e+001
 3.115126673986046e+000	 1.490475528852819e+000	 1.114721709626633e+001
 3.098939877498228e+000	 1.523844865572194e+000	 1.116908248364860e+001
 3.082365822564310e+000	 1.557097443019937e+000	 1.119018087680998e+001
 3.065405429349620e+000	 1.590226703196920e+000	 1.120866423335768e+001
 3.048059762696876e+000	 1.623226086857971e+000	 1.122260633057008e+001
 3.030330032721980e+000	 1.656089037421116e+000	 1.123002019255686e+001
 3.012217595285377e+000	 1.688809004913743e+000	 1.122887724289675e+001
 3.200514102674839e+000	 1.366432750886794e+000	 1.105686139669247e+001
 3.185769686152757e+000	 1.400464496409990e+000	 1.107125090371376e+001
 3.170632753218908e+000	 1.434404925773956e+000	 1.109005292938902e+001
 3.155103656396314e+000	 1.468247473855910e+000	 1.111198759458032e+001
 3.139182890394172e+000	 1.501985558978823e+000	 1.113565019180292e+001
 3.122871093185870e+000	 1.535612586658818e+000	 1.115952145757052e+001
 3.106169046971532e+000	 1.569121953406790e+000	 1.118197975019680e+001
 3.089077679022347e+000	 1.602507050580201e+000	 1.120131513196409e+001
 3.071598062404152e+000	 1.635761268280842e+000	 1.121574533844482e+001
 3.053731416577815e+000	 1.668877999294270e+000	 1.122343360119080e+001
 3.035479107874253e+000	 1.701850643066445e+000	 1.122250827311683e+001
 3.225040313016363e+000	 1.376904011435166e+000	 1.102966570190919e+001
 3.210182906940405e+000	 1.411196549356671e+000	 1.104863797082756e+001
 3.194929976517193e+000	 1.445397071344083e+000	 1.107114708271861e+001
 3.179281876971192e+000	 1.479498961964708e+000	 1.109601352132519e+001
 3.163239106802647e+000	 1.513495589104740e+000	 1.112193611830834e+001
 3.146802308873854e+000	 1.547380307745388e+000	 1.114750242303918e+001
 3.129972271379087e+000	 1.581146463793626e+000	 1.117120106261169e+001
 3.112749928695398e+000	 1.614787397963497e+000	 1.119143609204437e+001
 3.095136362111732e+000	 1.648296449703754e+000	 1.120654331776896e+001
 3.077132800433932e+000	 1.681666961167484e+000	 1.121480856016531e+001
 3.058740620463381e+000	 1.714892281219213e+000	 1.121448780322635e+001
 3.249566523358289e+000	 1.387375271983538e+000	 1.100426495728945e+001
 3.234596127728435e+000	 1.421928602303356e+000	 1.102664583878283e+001
 3.219227199815838e+000	 1.456389216914231e+000	 1.105193795100047e+001
 3.203460097546412e+000	 1.490750450073547e+000	 1.107904595055146e+001
 3.187295323211441e+000	 1.525005619230725e+000	 1.110675413400147e+001
 3.170733524562135e+000	 1.559148028832057e+000	 1.113373692019723e+001
 3.153775495786915e+000	 1.593170974180589e+000	 1.115857141484885e+001
 3.136422178368695e+000	 1.627067745346946e+000	 1.117975205846861e+001
 3.118674661819535e+000	 1.660831631126844e+000	 1.119570734111813e+001
 3.100534184290246e+000	 1.694455923040890e+000	 1.120481854926630e+001
 3.082002133052676e+000	 1.727933919372181e+000	 1.120544049155712e+001
 3.274092733700633e+000	 1.397846532532076e+000	 1.098102268683103e+001
 3.259009348516857e+000	 1.432660655250214e+000	 1.100574043368749e+001
 3.243524423114846e+000	 1.467381362484561e+000	 1.103297533770955e+001
 3.227638318121957e+000	 1.502001938182588e+000	 1.106170054621224e+001
 3.211351539620524e+000	 1.536515649356933e+000	 1.109076824907758e+001
 3.194664740250667e+000	 1.570915749918973e+000	 1.111892028836171e+001
 3.177578720194959e+000	 1.605195484567825e+000	 1.114480094959368e+001
 3.160094428042174e+000	 1.639348092730692e+000	 1.116697193707771e+001
 3.142212961527483e+000	 1.673366812550247e+000	 1.118392951704132e+001
 3.123935568146673e+000	 1.707244884914626e+000	 1.119412379347642e+001
 3.105263645642056e+000	 1.740975557525482e+000	 1.119598006214962e+001
 3.298618944043411e+000	 1.408317793080948e+000	 1.096029752992920e+001
 3.283422569305680e+000	 1.443392708197407e+000	 1.098637908653847e+001
 3.267821646414211e+000	 1.478373508055238e+000	 1.101479747779750e+001
 3.251816538697812e+000	 1.513253426291989e+000	 1.104457915400739e+001
 3.235407756029868e+000	 1.548025679483521e+000	 1.107462711469800e+001
 3.218595955939409e+000	 1.582683471006289e+000	 1.110373165993726e+001
 3.201381944603159e+000	 1.617219994955479e+000	 1.113058343029518e+001
 3.183766677715758e+000	 1.651628440114875e+000	 1.115378873906957e+001
 3.165751261235495e+000	 1.685901993974104e+000	 1.117188718104852e+001
 3.147336952003127e+000	 1.720033846788822e+000	 1.118337148220367e+001
 3.128525158231438e+000	 1.754017195679249e+000	 1.118670953442408e+001
 3.323145154386643e+000	 1.418789053630321e+000	 1.094244255040522e+001
 3.307835790094914e+000	 1.454124761145104e+000	 1.096901002526642e+001
 3.292118869713935e+000	 1.489365653626425e+000	 1.099793069192073e+001
 3.275994759273966e+000	 1.524504914401911e+000	 1.102826959739559e+001
 3.259463972439442e+000	 1.559535709610644e+000	 1.105896394083654e+001
 3.242527171628312e+000	 1.594451192094152e+000	 1.108883398061175e+001
 3.225185169011457e+000	 1.629244505343697e+000	 1.111659634470249e+001
 3.207438927389378e+000	 1.663908787499635e+000	 1.114087974936113e+001
 3.189289560943489e+000	 1.698437175398549e+000	 1.116024311079219e+001
 3.170738335859523e+000	 1.732822808663616e+000	 1.117319601379493e+001
 3.151786670820737e+000	 1.767058833833616e+000	 1.117822148007525e+001
 3.347671364730342e+000	 1.429260314180361e+000	 1.092769775208233e+001
 3.332249010884568e+000	 1.464856814093469e+000	 1.095407190717614e+001
 3.316416093014018e+000	 1.500357799198286e+000	 1.098288907575456e+001
 3.300172979850403e+000	 1.535756402512514e+000	 1.101334550436141e+001
 3.283520188849218e+000	 1.571045739738455e+000	 1.104439644150403e+001
 3.266458387317334e+000	 1.606218913182716e+000	 1.107487405448513e+001
 3.248988393419791e+000	 1.641269015732624e+000	 1.110350103179919e+001
 3.231111177062962e+000	 1.676189134885113e+000	 1.112890671769825e+001
 3.212827860651387e+000	 1.710972356823719e+000	 1.114964576420108e+001
 3.194139719715779e+000	 1.745611770539141e+000	 1.116421926403895e+001
 3.175048183409871e+000	 1.780100471988716e+000	 1.117109830579629e+001
 3.372197575074528e+000	 1.439731574731234e+000	 1.091598332136702e+001
 3.356662231674654e+000	 1.475588867042669e+000	 1.094168543605195e+001
 3.340713316314456e+000	 1.511349944770983e+000	 1.097014152509624e+001
 3.324351200427107e+000	 1.547007890623957e+000	 1.100036616336977e+001
 3.307576405259167e+000	 1.582555769867112e+000	 1.103152680595736e+001
 3.290389603006430e+000	 1.617986634272130e+000	 1.106248261286330e+001
 3.272791617828105e+000	 1.653293526122405e+000	 1.109194283094608e+001
 3.254783426736442e+000	 1.688469482271451e+000	 1.111851607135339e+001
 3.236366160359109e+000	 1.723507538249754e+000	 1.114072953939871e+001
 3.217541103571808e+000	 1.758400732415532e+000	 1.115705087743767e+001
 3.198309695998757e+000	 1.793142110144684e+000	 1.116591256051613e+001
 2.965694570108715e+000	 1.662725728608005e+000	 1.123410620184948e+001
 2.947483798177339e+000	 1.694797929960343e+000	 1.123170579147295e+001
 2.928899221696399e+000	 1.726716448985847e+000	 1.123380253459220e+001
 2.909942610804364e+000	 1.758474879052459e+000	 1.123909236119127e+001
 2.890615879789325e+000	 1.790066835929240e+000	 1.124633919933510e+001
 2.870921086910895e+000	 1.821485961785593e+000	 1.125439824859277e+001
 2.850860434090400e+000	 1.852725929198409e+000	 1.126224015671038e+001
 2.830436266468554e+000	 1.883780445162079e+000	 1.126897595479599e+001
 2.809651071830005e+000	 1.914643255096347e+000	 1.127388259419698e+001
 2.788507479894427e+000	 1.945308146846861e+000	 1.127642891704822e+001
 2.767008261473969e+000	 1.975768954673289e+000	 1.127630188226919e+001
 2.988956082696837e+000	 1.675767366760974e+000	 1.123295891898043e+001
 2.970602474040236e+000	 1.708091127367755e+000	 1.122999416564040e+001
 2.951872128887056e+000	 1.740260000235878e+000	 1.123177438795633e+001
 2.932766831259907e+000	 1.772267528482681e+000	 1.123672828140836e+001
 2.913288510461652e+000	 1.804107277802320e+000	 1.124334023143717e+001
 2.893439240895929e+000	 1.835772840496373e+000	 1.125017491946372e+001
 2.873221241754906e+000	 1.867257839512399e+000	 1.125590292462056e+001
 2.852636876573476e+000	 1.898555932485416e+000	 1.125932716966093e+001
 2.831688652649308e+000	 1.929660815777188e+000	 1.125941004669799e+001
 2.810379220328355e+000	 1.960566228508145e+000	 1.125530104652579e+001
 2.788711372155724e+000	 1.991265956576792e+000	 1.124636470442360e+001
 3.012217595285377e+000	 1.688809004913743e+000	 1.122887724289675e+001
 2.993721149903498e+000	 1.721384324774959e+000	 1.122575043652753e+001
 2.974845036078005e+000	 1.753803551485679e+000	 1.122735063353351e+001
 2.955591051715656e+000	 1.786060177912640e+000	 1.123185244918718e+001
 2.935961141134096e+000	 1.818147719675097e+000	 1.123747439671568e+001
 2.915957394880991e+000	 1.850059719206804e+000	 1.124250484863500e+001
 2.895582049419352e+000	 1.881789749825994e+000	 1.124532908833238e+001
 2.874837486678263e+000	 1.913331419808315e+000	 1.124445729335629e+001
 2.853726233468412e+000	 1.944678376457553e+000	 1.123855327829692e+001
 2.832250960762048e+000	 1.975824310168926e+000	 1.122646381252361e+001
 2.810414482837230e+000	 2.006762958479779e+000	 1.120831384509845e+001
 3.035479107874253e+000	 1.701850643066445e+000	 1.122250827311683e+001
 3.016839825767046e+000	 1.734677522182089e+000	 1.121956793766657e+001
 2.997817943269185e+000	 1.767347102735385e+000	 1.122108602525170e+001
 2.978415272171570e+000	 1.799852827342473e+000	 1.122499570746809e+001
 2.958633771806632e+000	 1.832188161547714e+000	 1.122926274518671e+001
 2.938475548866076e+000	 1.864346597917032e+000	 1.123191282954304e+001
 2.917942857083756e+000	 1.896321660139343e+000	 1.123106010994160e+001
 2.897038096782952e+000	 1.928106907130929e+000	 1.122493674330270e+001
 2.875763814287377e+000	 1.959695937137596e+000	 1.121192328442256e+001
 2.854122701195576e+000	 1.991082391829357e+000	 1.119057972395427e+001
 2.832117593518569e+000	 2.022259960382399e+000	 1.117114623584167e+001
 3.058740620463381e+000	 1.714892281219213e+000	 1.121448780322635e+001
 3.039958501630808e+000	 1.747970719589279e+000	 1.121203115101361e+001
 3.020790850460533e+000	 1.780890653985136e+000	 1.121352858607748e+001
 3.001239492627601e+000	 1.813645476772323e+000	 1.121668395945928e+001
 2.981306402479240e+000	 1.846228603420313e+000	 1.121922285323565e+001
 2.960993702851183e+000	 1.878633476627205e+000	 1.121892132715583e+001
 2.940303664748142e+000	 1.910853570452599e+000	 1.121363595143941e+001
 2.919238706887589e+000	 1.942882394453411e+000	 1.120133495250711e+001
 2.897801395106264e+000	 1.974713497817473e+000	 1.118013028324494e+001
 2.875994441629016e+000	 2.006340473489594e+000	 1.114923041599620e+001
 2.853820704199826e+000	 2.037756962284804e+000	 1.113714436582981e+001
 3.082002133052676e+000	 1.727933919372181e+000	 1.120544049155712e+001
 3.063077177494706e+000	 1.761263916996664e+000	 1.120371588285062e+001
 3.043763757651986e+000	 1.794434205235065e+000	 1.120521980596648e+001
 3.024063713083709e+000	 1.827438126202330e+000	 1.120743840492383e+001
 3.003979033151893e+000	 1.860269045293038e+000	 1.120786911397592e+001
 2.983511856836314e+000	 1.892920355337473e+000	 1.120405083755825e+001
 2.962664472412528e+000	 1.925385480765913e+000	 1.119359551808261e+001
 2.941439316992212e+000	 1.957657881775915e+000	 1.117422091065541e+001
 2.919838975925134e+000	 1.989731058497338e+000	 1.114378436779066e+001
 2.897866182062441e+000	 2.021598555149789e+000	 1.111090683242979e+001
 2.875523814881082e+000	 2.053253964187143e+000	 1.110677592893675e+001
 3.105263645642056e+000	 1.740975557525482e+000	 1.119598006214962e+001
 3.086195853358668e+000	 1.774557114404377e+000	 1.119518947222882e+001
 3.066736664843483e+000	 1.807977756485311e+000	 1.119669487390347e+001
 3.046887933539848e+000	 1.841230775632634e+000	 1.119777581141968e+001
 3.026651663824572e+000	 1.874309487166034e+000	 1.119571306275259e+001
 3.006030010821464e+000	 1.907207234047981e+000	 1.118782028222715e+001
 2.985025280076940e+000	 1.939917391079436e+000	 1.117147713536798e+001
 2.963639927096867e+000	 1.972433369098595e+000	 1.114416373711850e+001
 2.941876556744047e+000	 2.004748619177347e+000	 1.110400020723270e+001
 2.919737922495929e+000	 2.036856636810096e+000	 1.107783493225205e+001
 2.897226925562421e+000	 2.068750966089566e+000	 1.108048211951041e+001
 3.128525158231438e+000	 1.754017195679249e+000	 1.118670953442408e+001
 3.109314529222616e+000	 1.787850311812554e+000	 1.118701103025947e+001
 3.089709572034963e+000	 1.821521307736009e+000	 1.118848294225984e+001
 3.069712153995974e+000	 1.855023425063373e+000	 1.118820881867280e+001
 3.049324294497250e+000	 1.888349929039445e+000	 1.118326373596207e+001
 3.028548164806635e+000	 1.921494112758878e+000	 1.117074743518902e+001
 3.007386087741395e+000	 1.954449301393319e+000	 1.114781905786252e+001
 2.985840537201595e+000	 1.987208856421604e+000	 1.111173328421083e+001
 2.963914137563063e+000	 2.019766179857652e+000	 1.106852477567054e+001
 2.941609662929548e+000	 2.052114718470667e+000	 1.105038209965662e+001
 2.918930036243926e+000	 2.084247967992224e+000	 1.105867805283773e+001
 3.151786670820737e+000	 1.767058833833616e+000	 1.117822148007525e+001
 3.132433205086475e+000	 1.801143509221328e+000	 1.117973170865750e+001
 3.112682479226365e+000	 1.835064858987297e+000	 1.118110742179769e+001
 3.092536374452044e+000	 1.868816074494688e+000	 1.117924627437141e+001
 3.071996925169905e+000	 1.902390370913414e+000	 1.117102806146624e+001
 3.051066318791825e+000	 1.935780991470311e+000	 1.115334938136257e+001
 3.029746895405916e+000	 1.968981211707713e+000	 1.112316000824304e+001
 3.008041147306437e+000	 2.001984343745095e+000	 1.107758622578712e+001
 2.985951718382242e+000	 2.034783740538408e+000	 1.104004364567500e+001
 2.963481403363380e+000	 2.067372800131658e+000	 1.102889134819001e+001
 2.940633146925679e+000	 2.099744969895266e+000	 1.104175320666933e+001
 3.175048183409871e+000	 1.780100471988716e+000	 1.117109830579629e+001
 3.155551880950168e+000	 1.814436706630833e+000	 1.117389499603929e+001
 3.135655386417624e+000	 1.848608410239309e+000	 1.117508630574936e+001
 3.115360594908013e+000	 1.882608723926718e+000	 1.117139359977090e+001
 3.094669555842514e+000	 1.916430812788085e+000	 1.115951127898119e+001
 3.073584472777032e+000	 1.950067870182429e+000	 1.113614300448669e+001
 3.052107703070523e+000	 1.983513122022769e+000	 1.109803974499666e+001
 3.030241757411437e+000	 2.016759831069223e+000	 1.104806423070949e+001
 3.007989299201647e+000	 2.049801301219771e+000	 1.101884014124185e+001
 2.985353143797493e+000	 2.082630881793220e+000	 1.101368170301392e+001
 2.962336257607765e+000	 2.115241971798842e+000	 1.103007188272297e+001
 3.198309695998757e+000	 1.793142110144684e+000	 1.116591256051613e+001
 3.178670556813624e+000	 1.827729904041205e+000	 1.117003704056020e+001
 3.158628293608680e+000	 1.862151961492184e+000	 1.117093252149147e+001
 3.138184815363838e+000	 1.896401373359605e+000	 1.116515318359086e+001
 3.117342186515054e+000	 1.930471254663603e+000	 1.114921738891419e+001
 3.096102626762257e+000	 1.964354748895379e+000	 1.111964550312713e+001
 3.074468510735241e+000	 1.998045032338639e+000	 1.107299965732227e+001
 3.052442367516637e+000	 2.031535318394141e+000	 1.102699364382161e+001
 3.030026880021337e+000	 2.064818861901896e+000	 1.100517486359742e+001
 3.007224884231967e+000	 2.097888963455510e+000	 1.100504860486062e+001
 2.984039368290266e+000	 2.130738973703104e+000	 1.102397368714923e+001
 2.767008261473969e+000	 1.975768954673289e+000	 1.127630188226919e+001
 2.745156326716522e+000	 2.006019562551172e+000	 1.125830682354284e+001
 2.722954721676199e+000	 2.036053906072851e+000	 1.123376679469052e+001
 2.700406629454409e+000	 2.065865978303493e+000	 1.121445666711037e+001
 2.677515369617984e+000	 2.095449834330040e+000	 1.119831383143186e+001
 2.654284396700450e+000	 2.124799595113840e+000	 1.118392466854578e+001
 2.630717298573514e+000	 2.153909451300074e+000	 1.117302175262592e+001
 2.606817794690176e+000	 2.182773666978905e+000	 1.116492073390166e+001
 2.582589734201158e+000	 2.211386583393304e+000	 1.115831023206024e+001
 2.558037093946535e+000	 2.239742622588618e+000	 1.115171717179090e+001
 2.533163976324692e+000	 2.267836290998959e+000	 1.114351904458330e+001
 2.788711372155724e+000	 1.991265956576792e+000	 1.124636470442360e+001
 2.766688041105135e+000	 2.021753835987452e+000	 1.122734639870201e+001
 2.744312297122520e+000	 2.052023754766099e+000	 1.121178443724068e+001
 2.721587348276044e+000	 2.082069658862324e+000	 1.119968269636753e+001
 2.698516540169660e+000	 2.111885556733959e+000	 1.118926989726924e+001
 2.675103354432630e+000	 2.141465523229930e+000	 1.117879322653507e+001
 2.651351407078247e+000	 2.170803703429568e+000	 1.116752281516692e+001
 2.627264446733148e+000	 2.199894316433245e+000	 1.115767019514318e+001
 2.602846352738987e+000	 2.228731659099303e+000	 1.114863488492659e+001
 2.578101133128304e+000	 2.257310109722224e+000	 1.113937274423384e+001
 2.553032922476773e+000	 2.285624131647170e+000	 1.112869077272140e+001
 2.810414482837230e+000	 2.006762958479779e+000	 1.120831384509845e+001
 2.788219755493518e+000	 2.037488109423218e+000	 1.119719280819546e+001
 2.765669872568660e+000	 2.067993603458853e+000	 1.118943796047015e+001
 2.742768067097567e+000	 2.098273339420691e+000	 1.118353266416787e+001
 2.719517710721304e+000	 2.128321279137458e+000	 1.117798408017002e+001
 2.695922312164874e+000	 2.158131451345657e+000	 1.117132863534821e+001
 2.671985515583139e+000	 2.187697955558761e+000	 1.116213736590928e+001
 2.647711098776373e+000	 2.217014965887358e+000	 1.115056711817916e+001
 2.623102971277156e+000	 2.246076734805150e+000	 1.113909867761886e+001
 2.598165172310488e+000	 2.274877596855760e+000	 1.112722038944945e+001
 2.572901868629317e+000	 2.303411972295396e+000	 1.111415745416459e+001
 2.832117593518569e+000	 2.022259960382399e+000	 1.117114623584167e+001
 2.809751469881756e+000	 2.053222382858615e+000	 1.116842356246555e+001
 2.787027448014699e+000	 2.083963452151246e+000	 1.116735373995720e+001
 2.763948785919044e+000	 2.114477019978720e+000	 1.116667527043427e+001
 2.740518881272978e+000	 2.144757001540649e+000	 1.116516111194323e+001
 2.716741269897224e+000	 2.174797379461116e+000	 1.116162391652938e+001
 2.692619624088216e+000	 2.204592207687735e+000	 1.115492112061615e+001
 2.668157750819863e+000	 2.234135615341307e+000	 1.114395985101937e+001
 2.643359589815661e+000	 2.263421810510896e+000	 1.113004764661525e+001
 2.618229211493063e+000	 2.292445083989263e+000	 1.111559026699563e+001
 2.592770814782297e+000	 2.321199812943655e+000	 1.110022891756219e+001
 2.853820704199826e+000	 2.037756962284804e+000	 1.113714436582981e+001
 2.831283184269937e+000	 2.068956656293786e+000	 1.114158725370294e+001
 2.808385023460716e+000	 2.099933300843413e+000	 1.114612781881697e+001
 2.785129504740552e+000	 2.130680700536532e+000	 1.114974768843225e+001
 2.761520051824739e+000	 2.161192723943644e+000	 1.115147321200168e+001
 2.737560227629726e+000	 2.191463307576404e+000	 1.115038049649819e+001
 2.713253732593509e+000	 2.221486459816572e+000	 1.114560027087927e+001
 2.688604402863629e+000	 2.251256264795159e+000	 1.113632254202857e+001
 2.663616208354492e+000	 2.280766886216589e+000	 1.112184065330659e+001
 2.638293250676009e+000	 2.310012571122760e+000	 1.110482495155873e+001
 2.612639760935674e+000	 2.338987653591964e+000	 1.108722721798392e+001
 2.875523814881082e+000	 2.053253964187143e+000	 1.110677592893675e+001
 2.852814898658141e+000	 2.084690929728875e+000	 1.111720402302954e+001
 2.829742598906793e+000	 2.115903149535489e+000	 1.112632645780418e+001
 2.806310223562162e+000	 2.146884381094253e+000	 1.113335618866540e+001
 2.782521222376647e+000	 2.177628446346551e+000	 1.113756077623572e+001
 2.758379185362422e+000	 2.208129235691617e+000	 1.113826724565677e+001
 2.733887841099043e+000	 2.238380711945351e+000	 1.113486675234010e+001
 2.709051054907678e+000	 2.268376914248976e+000	 1.112681901541527e+001
 2.683872826893646e+000	 2.298111961922277e+000	 1.111365648115905e+001
 2.658357289859305e+000	 2.327580058256286e+000	 1.109527819365624e+001
 2.632508707089417e+000	 2.356775494240340e+000	 1.107548545036565e+001
 2.897226925562421e+000	 2.068750966089566e+000	 1.108048211951041e+001
 2.874346613046456e+000	 2.100425203164026e+000	 1.109576604766944e+001
 2.851100174353011e+000	 2.131872998227611e+000	 1.110848670235339e+001
 2.827490942383947e+000	 2.163088061652005e+000	 1.111807677702914e+001
 2.803522392928763e+000	 2.194064168749482e+000	 1.112403307782303e+001
 2.779198143095355e+000	 2.224795163806850e+000	 1.112592123370511e+001
 2.754521949604845e+000	 2.255274964074153e+000	 1.112338019089722e+001
 2.729497706952019e+000	 2.285497563702824e+000	 1.111612645155097e+001
 2.704129445433114e+000	 2.315457037628007e+000	 1.110395801787075e+001
 2.678421329042929e+000	 2.345147545389873e+000	 1.108675800432042e+001
 2.652377653243494e+000	 2.374563334888798e+000	 1.106534656751505e+001
 2.918930036243926e+000	 2.084247967992224e+000	 1.105867805283773e+001
 2.895878327434965e+000	 2.116159476599381e+000	 1.107773804706692e+001
 2.872457749799449e+000	 2.147842846919910e+000	 1.109311696567501e+001
 2.848671661205972e+000	 2.179291742209910e+000	 1.110445584648136e+001
 2.824523563481143e+000	 2.210499891152546e+000	 1.111146897935355e+001
 2.800017100828572e+000	 2.241461091922200e+000	 1.111394849439263e+001
 2.775156058110943e+000	 2.272169216203060e+000	 1.111176871255832e+001
 2.749944358996667e+000	 2.302618213156767e+000	 1.110489021746335e+001
 2.724386063972890e+000	 2.332802113333829e+000	 1.109336360829224e+001
 2.698485368226858e+000	 2.362715032523553e+000	 1.107733289537055e+001
 2.672246599397870e+000	 2.392351175537356e+000	 1.105703850181871e+001
 2.940633146925679e+000	 2.099744969895266e+000	 1.104175320666933e+001
 2.917410041823754e+000	 2.131893750035086e+000	 1.106355780697347e+001
 2.893815325246190e+000	 2.163812695612523e+000	 1.108069762707681e+001
 2.869852380028318e+000	 2.195495422768095e+000	 1.109301084153134e+001
 2.845524734033849e+000	 2.226935613555856e+000	 1.110041765568542e+001
 2.820836058562116e+000	 2.258127020037764e+000	 1.110292479921891e+001
 2.795790166617366e+000	 2.289063468332152e+000	 1.110062976075056e+001
 2.770391011041630e+000	 2.319738862610872e+000	 1.109372472081687e+001
 2.744642682512967e+000	 2.350147189039792e+000	 1.108250014184199e+001
 2.718549407411075e+000	 2.380282519657358e+000	 1.106734797540052e+001
 2.692115545552514e+000	 2.410139016186032e+000	 1.104876444910520e+001
 2.962336257607765e+000	 2.115241971798842e+000	 1.103007188272297e+001
 2.938941756212907e+000	 2.147628023471283e+000	 1.105363672058164e+001
 2.915172900693314e+000	 2.179782544305583e+000	 1.107168164473172e+001
 2.891033098851052e+000	 2.211699103326681e+000	 1.108423093488942e+001
 2.866525904586939e+000	 2.243371335959520e+000	 1.109139932698118e+001
 2.841655016296032e+000	 2.274792948153638e+000	 1.109339643962417e+001
 2.816424275124137e+000	 2.305957720461509e+000	 1.109053092070622e+001
 2.790837663086917e+000	 2.336859512065200e+000	 1.108321426981624e+001
 2.764899301053342e+000	 2.367492264745943e+000	 1.107196429369207e+001
 2.738613446595555e+000	 2.397850006791321e+000	 1.105740815364813e+001
 2.711984491707391e+000	 2.427926856834841e+000	 1.104028496610152e+001
 2.984039368290266e+000	 2.130738973703104e+000	 1.102397368714922e+001
 2.960473470602511e+000	 2.163362296908118e+000	 1.104836034583818e+001
 2.936530476140904e+000	 2.195752392999227e+000	 1.106649518215482e+001
 2.912213817674249e+000	 2.227902783885794e+000	 1.107857771565862e+001
 2.887527075140474e+000	 2.259807058363651e+000	 1.108490600140585e+001
 2.862473974030364e+000	 2.291458876269917e+000	 1.108588101723733e+001
 2.837058383631288e+000	 2.322851972591213e+000	 1.108201075056403e+001
 2.811284315132539e+000	 2.353980161519818e+000	 1.107391393873195e+001
 2.785155919594005e+000	 2.384837340452331e+000	 1.106232341856422e+001
 2.758677485780280e+000	 2.415417493925475e+000	 1.104808904258378e+001
 2.731853437862469e+000	 2.445714697483801e+000	 1.103218012170761e+001
 2.533163976324692e+000	 2.267836290998959e+000	 1.114351904458331e+001
 2.507978409130006e+000	 2.295658029994647e+000	 1.112784210734169e+001
 2.482481032043097e+000	 2.323206763111350e+000	 1.110156208293269e+001
 2.456676310313640e+000	 2.350477275304074e+000	 1.106705435640034e+001
 2.430568824931227e+000	 2.377464449525057e+000	 1.102666603747183e+001
 2.404163269919529e+000	 2.404163269919529e+000	 1.098272535638464e+001
 2.377464449525057e+000	 2.430568824931227e+000	 1.093755153758873e+001
 2.350477275304074e+000	 2.456676310313640e+000	 1.089346500873038e+001
 2.323206763111351e+000	 2.482481032043097e+000	 1.085279779896159e+001
 2.295658029994647e+000	 2.507978409130006e+000	 1.081790397861224e+001
 2.267836290998959e+000	 2.533163976324692e+000	 1.079116999163092e+001
 2.553032922476773e+000	 2.285624131647170e+000	 1.112869077272140e+001
 2.527649811545008e+000	 2.313664091271059e+000	 1.111152300860323e+001
 2.501952445030982e+000	 2.341428903686288e+000	 1.108510169785568e+001
 2.475945323207677e+000	 2.368913312943507e+000	 1.105154926438213e+001
 2.449633062995807e+000	 2.396112161859250e+000	 1.101295152816723e+001
 2.423020395236746e+000	 2.423020395236746e+000	 1.097136842761987e+001
 2.396112161859249e+000	 2.449633062995806e+000	 1.092884525830933e+001
 2.368913312943507e+000	 2.475945323207676e+000	 1.088742427605892e+001
 2.341428903686289e+000	 2.501952445030982e+000	 1.084915650878997e+001
 2.313664091271060e+000	 2.527649811545008e+000	 1.081611361936799e+001
 2.285624131647170e+000	 2.553032922476773e+000	 1.079039966101421e+001
 2.572901868629317e+000	 2.303411972295396e+000	 1.111415745416459e+001
 2.547321213960504e+000	 2.331670152547573e+000	 1.109556050333105e+001
 2.521423858019364e+000	 2.359651044261409e+000	 1.106894428005429e+001
 2.495214336102197e+000	 2.387349350583204e+000	 1.103619206889487e+001
 2.468697301060834e+000	 2.414759874193778e+000	 1.099914212270937e+001
 2.441877520554361e+000	 2.441877520554361e+000	 1.095959973911142e+001
 2.414759874193777e+000	 2.468697301060833e+000	 1.091934989317480e+001
 2.387349350583203e+000	 2.495214336102196e+000	 1.088017026456213e+001
 2.359651044261410e+000	 2.521423858019363e+000	 1.084384449347430e+001
 2.331670152547574e+000	 2.547321213960503e+000	 1.081217549753481e+001
 2.303411972295396e+000	 2.572901868629317e+000	 1.078699868097395e+001
 2.592770814782297e+000	 2.321199812943655e+000	 1.110022891756219e+001
 2.566992616376451e+000	 2.349676213824190e+000	 1.108024344945684e+001
 2.540895271008198e+000	 2.377873184836706e+000	 1.105336047118737e+001
 2.514483348997150e+000	 2.405785388223142e+000	 1.102123761977421e+001
 2.487761539126263e+000	 2.433407586528607e+000	 1.098547896155030e+001
 2.460734645872333e+000	 2.460734645872333e+000	 1.094764845236830e+001
 2.433407586528608e+000	 2.487761539126262e+000	 1.090928399528641e+001
 2.405785388223143e+000	 2.514483348997149e+000	 1.087191192378477e+001
 2.377873184836706e+000	 2.540895271008197e+000	 1.083706173454937e+001
 2.349676213824191e+000	 2.566992616376450e+000	 1.080628089143548e+001
 2.321199812943656e+000	 2.592770814782297e+000	 1.078114952140697e+001
 2.612639760935674e+000	 2.338987653591964e+000	 1.108722721798392e+001
 2.586664018792810e+000	 2.367682275100913e+000	 1.106587284014742e+001
 2.560366683997438e+000	 2.396095325412165e+000	 1.103863294268622e+001
 2.533752361892491e+000	 2.424221425863298e+000	 1.100695267780392e+001
 2.506825777192050e+000	 2.452055298863711e+000	 1.097221496458287e+001
 2.479591771190626e+000	 2.479591771190626e+000	 1.093575536462895e+001
 2.452055298863710e+000	 2.506825777192050e+000	 1.089887759787875e+001
 2.424221425863299e+000	 2.533752361892490e+000	 1.086286951612460e+001
 2.396095325412165e+000	 2.560366683997438e+000	 1.082901934756193e+001
 2.367682275100914e+000	 2.586664018792809e+000	 1.079863202309091e+001
 2.338987653591964e+000	 2.612639760935674e+000	 1.077304539421824e+001
 2.632508707089417e+000	 2.356775494240340e+000	 1.107548545036565e+001
 2.606335421209538e+000	 2.385688336377744e+000	 1.105276067040428e+001
 2.579838096987040e+000	 2.414317465987774e+000	 1.102505531976662e+001
 2.553021374788173e+000	 2.442657463503651e+000	 1.099361489997241e+001
 2.525890015258151e+000	 2.470703011199052e+000	 1.095961388103746e+001
 2.498448896509196e+000	 2.498448896509196e+000	 1.092417202635231e+001
 2.470703011199053e+000	 2.525890015258151e+000	 1.088837140191356e+001
 2.442657463503652e+000	 2.553021374788172e+000	 1.085327387658688e+001
 2.414317465987775e+000	 2.579838096987039e+000	 1.081993891559087e+001
 2.385688336377745e+000	 2.606335421209538e+000	 1.078944146665635e+001
 2.356775494240340e+000	 2.632508707089417e+000	 1.076288973736536e+001
 2.652377653243494e+000	 2.374563334888798e+000	 1.106534656751505e+001
 2.626006823626594e+000	 2.403694397654686e+000	 1.104122880774279e+001
 2.599309509976957e+000	 2.432539606563527e+000	 1.101293110891911e+001
 2.572290387684151e+000	 2.461093501144179e+000	 1.098151182749435e+001
 2.544954253324522e+000	 2.489350723534602e+000	 1.094794934133356e+001
 2.517306021828006e+000	 2.517306021828006e+000	 1.091315985977075e+001
 2.489350723534601e+000	 2.544954253324521e+000	 1.087801596377128e+001
 2.461093501144179e+000	 2.572290387684151e+000	 1.084336567161661e+001
 2.432539606563527e+000	 2.599309509976957e+000	 1.081005182078120e+001
 2.403694397654687e+000	 2.626006823626593e+000	 1.077893155377671e+001
 2.374563334888798e+000	 2.652377653243494e+000	 1.075089569471249e+001
 2.672246599397870e+000	 2.392351175537356e+000	 1.105703850181871e+001
 2.645678226043938e+000	 2.421700458931741e+000	 1.103160786674023e+001
 2.618780922967142e+000	 2.450761747139410e+000	 1.100257262869662e+001
 2.591559400580377e+000	 2.479529538784858e+000	 1.097093987645406e+001
 2.564018491391117e+000	 2.507998435870327e+000	 1.093750391078591e+001
 2.536163147147016e+000	 2.536163147147017e+000	 1.090298927844955e+001
 2.507998435870327e+000	 2.564018491391118e+000	 1.086807088303623e+001
 2.479529538784858e+000	 2.591559400580378e+000	 1.083339465705559e+001
 2.450761747139410e+000	 2.618780922967142e+000	 1.079959857399438e+001
 2.421700458931741e+000	 2.645678226043937e+000	 1.076733377602128e+001
 2.392351175537357e+000	 2.672246599397870e+000	 1.073746829506194e+001
 2.692115545552514e+000	 2.410139016186032e+000	 1.104876444910520e+001
 2.665349628461526e+000	 2.439706520208910e+000	 1.102423608725176e+001
 2.638252335957553e+000	 2.468983887715412e+000	 1.099429994362793e+001
 2.610828413476806e+000	 2.497965576425667e+000	 1.096220333093454e+001
 2.583082729457892e+000	 2.526646148206194e+000	 1.092856814506791e+001
 2.555020272466186e+000	 2.555020272466186e+000	 1.089393880780161e+001
 2.526646148206194e+000	 2.583082729457892e+000	 1.085880399036962e+001
 2.497965576425666e+000	 2.610828413476805e+000	 1.082361893527083e+001
 2.468983887715412e+000	 2.638252335957553e+000	 1.078882814267255e+001
 2.439706520208912e+000	 2.665349628461526e+000	 1.075488818454860e+001
 2.410139016186032e+000	 2.692115545552514e+000	 1.072607803306399e+001
 2.711984491707391e+000	 2.427926856834841e+000	 1.104028496610152e+001
 2.685021030879321e+000	 2.457712581486198e+000	 1.101816005202895e+001
 2.657723748948141e+000	 2.487206028291523e+000	 1.098843980109841e+001
 2.630097426373389e+000	 2.516401614066581e+000	 1.095561333850513e+001
 2.602146967524804e+000	 2.545293860542173e+000	 1.092143964734362e+001
 2.573877397785479e+000	 2.573877397785479e+000	 1.088629420650757e+001
 2.545293860542174e+000	 2.602146967524804e+000	 1.085049053546651e+001
 2.516401614066582e+000	 2.630097426373389e+000	 1.081430421149546e+001
 2.487206028291523e+000	 2.657723748948142e+000	 1.077799727700837e+001
 2.457712581486199e+000	 2.685021030879320e+000	 1.074380118921645e+001
 2.427926856834841e+000	 2.711984491707391e+000	 1.071802518458536e+001
 2.731853437862469e+000	 2.445714697483801e+000	 1.103218012170761e+001
 2.704692433297279e+000	 2.475718642763605e+000	 1.101218128406112e+001
 2.677195161938863e+000	 2.505428168867732e+000	 1.098490616668252e+001
 2.649366439270083e+000	 2.534837651707582e+000	 1.095148690794753e+001
 2.621211205591807e+000	 2.563941572878231e+000	 1.091642212698213e+001
 2.592734523104852e+000	 2.592734523104852e+000	 1.088034758879592e+001
 2.563941572878232e+000	 2.621211205591807e+000	 1.084341237509230e+001
 2.534837651707582e+000	 2.649366439270082e+000	 1.080572304942334e+001
 2.505428168867733e+000	 2.677195161938863e+000	 1.076800606315526e+001
 2.475718642763607e+000	 2.704692433297279e+000	 1.073676644178335e+001
 2.445714697483802e+000	 2.731853437862469e+000	 1.071339524763874e+001
 2.267836290998959e+000	 2.533163976324692e+000	 1.079116999163092e+001
 2.239742622588619e+000	 2.558037093946534e+000	 1.077045593810698e+001
 2.211386583393305e+000	 2.582589734201158e+000	 1.075044084752777e+001
 2.182773666978906e+000	 2.606817794690176e+000	 1.072879143461282e+001
 2.153909451300075e+000	 2.630717298573513e+000	 1.070323010261233e+001
 2.124799595113841e+000	 2.654284396700450e+000	 1.067155161556851e+001
 2.095449834330041e+000	 2.677515369617983e+000	 1.063227597732323e+001
 2.065865978303494e+000	 2.700406629454408e+000	 1.058732807744489e+001
 2.036053906072853e+000	 2.722954721676199e+000	 1.053440696266624e+001
 2.006019562551173e+000	 2.745156326716521e+000	 1.047028436074199e+001
 1.975768954673289e+000	 2.767008261473969e+000	 1.040144237594984e+001
 2.285624131647170e+000	 2.553032922476773e+000	 1.079039966101421e+001
 2.257310109722225e+000	 2.578101133128303e+000	 1.076939708589040e+001
 2.228731659099303e+000	 2.602846352738986e+000	 1.074779807381425e+001
 2.199894316433246e+000	 2.627264446733147e+000	 1.072372898835272e+001
 2.170803703429568e+000	 2.651351407078246e+000	 1.069537826534368e+001
 2.141465523229931e+000	 2.675103354432630e+000	 1.066141101531571e+001
 2.111885556733960e+000	 2.698516540169660e+000	 1.062443836782766e+001
 2.082069658862324e+000	 2.721587348276044e+000	 1.058311088547942e+001
 2.052023754766100e+000	 2.744312297122520e+000	 1.053463800022288e+001
 2.021753835987453e+000	 2.766688041105134e+000	 1.047617902133467e+001
 1.991265956576792e+000	 2.788711372155724e+000	 1.040610996240004e+001
 2.303411972295396e+000	 2.572901868629317e+000	 1.078699868097395e+001
 2.274877596855761e+000	 2.598165172310488e+000	 1.076526196103936e+001
 2.246076734805151e+000	 2.623102971277155e+000	 1.074169797944079e+001
 2.217014965887359e+000	 2.647711098776374e+000	 1.071488271646921e+001
 2.187697955558762e+000	 2.671985515583138e+000	 1.068362232311504e+001
 2.158131451345657e+000	 2.695922312164873e+000	 1.065091371619691e+001
 2.128321279137460e+000	 2.719517710721304e+000	 1.061663425058915e+001
 2.098273339420693e+000	 2.742768067097567e+000	 1.057843428691018e+001
 2.067993603458854e+000	 2.765669872568660e+000	 1.053390059525856e+001
 2.037488109423219e+000	 2.788219755493518e+000	 1.048056693211419e+001
 2.006762958479779e+000	 2.810414482837230e+000	 1.041592472952412e+001
 2.321199812943656e+000	 2.592770814782297e+000	 1.078114952140697e+001
 2.292445083989264e+000	 2.618229211493063e+000	 1.075822242387296e+001
 2.263421810510898e+000	 2.643359589815660e+000	 1.073229869560401e+001
 2.234135615341309e+000	 2.668157750819863e+000	 1.070240662975582e+001
 2.204592207687737e+000	 2.692619624088216e+000	 1.067143756269276e+001
 2.174797379461117e+000	 2.716741269897224e+000	 1.064086627071791e+001
 2.144757001540650e+000	 2.740518881272977e+000	 1.060878676684180e+001
 2.114477019978721e+000	 2.763948785919044e+000	 1.057321658542091e+001
 2.083963452151247e+000	 2.787027448014698e+000	 1.053210694639319e+001
 2.053222382858616e+000	 2.809751469881757e+000	 1.048335312086639e+001
 2.022259960382399e+000	 2.832117593518569e+000	 1.042480491841211e+001
 2.338987653591964e+000	 2.612639760935674e+000	 1.077304539421824e+001
 2.310012571122760e+000	 2.638293250676008e+000	 1.074846090414275e+001
 2.280766886216590e+000	 2.663616208354492e+000	 1.071976880886469e+001
 2.251256264795160e+000	 2.688604402863628e+000	 1.068920877433789e+001
 2.221486459816573e+000	 2.713253732593509e+000	 1.066016190296079e+001
 2.191463307576404e+000	 2.737560227629725e+000	 1.063122495164032e+001
 2.161192723943644e+000	 2.761520051824737e+000	 1.060084911758162e+001
 2.130680700536533e+000	 2.785129504740552e+000	 1.056740649536930e+001
 2.099933300843414e+000	 2.808385023460714e+000	 1.052920005632593e+001
 2.068956656293786e+000	 2.831283184269936e+000	 1.048447384156047e+001
 2.037756962284804e+000	 2.853820704199826e+000	 1.043142328628268e+001
 2.356775494240340e+000	 2.632508707089417e+000	 1.076288973736536e+001
 2.327580058256288e+000	 2.658357289859304e+000	 1.073616995941002e+001
 2.298111961922277e+000	 2.683872826893644e+000	 1.070602577016369e+001
 2.268376914248977e+000	 2.709051054907676e+000	 1.067742740134408e+001
 2.238380711945352e+000	 2.733887841099042e+000	 1.064978110071771e+001
 2.208129235691617e+000	 2.758379185362419e+000	 1.062197431758268e+001
 2.177628446346552e+000	 2.782521222376647e+000	 1.059280312564892e+001
 2.146884381094254e+000	 2.806310223562162e+000	 1.056098174534683e+001
 2.115903149535491e+000	 2.829742598906793e+000	 1.052515237737293e+001
 2.084690929728876e+000	 2.852814898658141e+000	 1.048389526262561e+001
 2.053253964187143e+000	 2.875523814881082e+000	 1.043573888311641e+001
 2.374563334888798e+000	 2.652377653243494e+000	 1.075089569471249e+001
 2.345147545389875e+000	 2.678421329042928e+000	 1.072236711392358e+001
 2.315457037628008e+000	 2.704129445433113e+000	 1.069420260468520e+001
 2.285497563702825e+000	 2.729497706952019e+000	 1.066707401267222e+001
 2.255274964074154e+000	 2.754521949604844e+000	 1.064030740420582e+001
 2.224795163806851e+000	 2.779198143095355e+000	 1.061312572558573e+001
 2.194064168749482e+000	 2.803522392928761e+000	 1.058465778897777e+001
 2.163088061652005e+000	 2.827490942383943e+000	 1.055394767240394e+001
 2.131872998227612e+000	 2.851100174353009e+000	 1.051996444720726e+001
 2.100425203164026e+000	 2.874346613046456e+000	 1.048161214498698e+001
 2.068750966089566e+000	 2.897226925562421e+000	 1.043773987538295e+001
 2.392351175537357e+000	 2.672246599397870e+000	 1.073746829506194e+001
 2.362715032523554e+000	 2.698485368226857e+000	 1.071073968145383e+001
 2.332802113333830e+000	 2.724386063972889e+000	 1.068438955145199e+001
 2.302618213156769e+000	 2.749944358996666e+000	 1.065818480166699e+001
 2.272169216203061e+000	 2.775156058110943e+000	 1.063177801777652e+001
 2.241461091922202e+000	 2.800017100828572e+000	 1.060471583582926e+001
 2.210499891152547e+000	 2.824523563481143e+000	 1.057644782547147e+001
 2.179291742209912e+000	 2.848671661205973e+000	 1.054633580742686e+001
 2.147842846919911e+000	 2.872457749799448e+000	 1.051366351531068e+001
 2.116159476599382e+000	 2.895878327434965e+000	 1.047764651039532e+001
 2.084247967992224e+000	 2.918930036243927e+000	 1.043744225727678e+001
 2.410139016186032e+000	 2.692115545552514e+000	 1.072607803306399e+001
 2.380282519657359e+000	 2.718549407411073e+000	 1.070175760869930e+001
 2.350147189039793e+000	 2.744642682512967e+000	 1.067664297606482e+001
 2.319738862610873e+000	 2.770391011041629e+000	 1.065081907135319e+001
 2.289063468332153e+000	 2.795790166617365e+000	 1.062425355966985e+001
 2.258127020037765e+000	 2.820836058562115e+000	 1.059680510890430e+001
 2.226935613555857e+000	 2.845524734033849e+000	 1.056823220993715e+001
 2.195495422768096e+000	 2.869852380028318e+000	 1.053820245212348e+001
 2.163812695612523e+000	 2.893815325246189e+000	 1.050630216061741e+001
 2.131893750035087e+000	 2.917410041823753e+000	 1.047204630055061e+001
 2.099744969895266e+000	 2.940633146925679e+000	 1.043488855235543e+001
 2.427926856834841e+000	 2.711984491707391e+000	 1.071802518458536e+001
 2.397850006791322e+000	 2.738613446595553e+000	 1.069549367699657e+001
 2.367492264745944e+000	 2.764899301053341e+000	 1.067104051718246e+001
 2.336859512065201e+000	 2.790837663086916e+000	 1.064505764673695e+001
 2.305957720461510e+000	 2.816424275124136e+000	 1.061781651326207e+001
 2.274792948153638e+000	 2.841655016296031e+000	 1.058947629602392e+001
 2.243371335959521e+000	 2.866525904586939e+000	 1.056009270348637e+001
 2.211699103326682e+000	 2.891033098851052e+000	 1.052962724804783e+001
 2.179782544305584e+000	 2.915172900693313e+000	 1.049795690080124e+001
 2.147628023471285e+000	 2.938941756212907e+000	 1.046488402749230e+001
 2.115241971798842e+000	 2.962336257607765e+000	 1.043014650607292e+001
 2.445714697483802e+000	 2.731853437862469e+000	 1.071339524763874e+001
 2.415417493925476e+000	 2.758677485780278e+000	 1.069204012705433e+001
 2.384837340452332e+000	 2.785155919594005e+000	 1.066767945470194e+001
 2.353980161519819e+000	 2.811284315132539e+000	 1.064100128147752e+001
 2.322851972591214e+000	 2.837058383631288e+000	 1.061256967211330e+001
 2.291458876269918e+000	 2.862473974030362e+000	 1.058283292253141e+001
 2.259807058363653e+000	 2.887527075140475e+000	 1.055213237578559e+001
 2.227902783885795e+000	 2.912213817674248e+000	 1.052071173806933e+001
 2.195752392999228e+000	 2.936530476140902e+000	 1.048872679363196e+001
 2.163362296908118e+000	 2.960473470602509e+000	 1.045625541570082e+001
 2.130738973703104e+000	 2.984039368290266e+000	 1.042330776967144e+001
 1.975768954673289e+000	 2.767008261473969e+000	 1.040144237594984e+001
 1.945308146846863e+000	 2.788507479894426e+000	 1.034021612940018e+001
 1.914643255096348e+000	 2.809651071830004e+000	 1.028155776894849e+001
 1.883780445162080e+000	 2.830436266468553e+000	 1.022554344040006e+001
 1.852725929198409e+000	 2.850860434090399e+000	 1.017201260068638e+001
 1.821485961785594e+000	 2.870921086910894e+000	 1.012060829443000e+001
 1.790066835929240e+000	 2.890615879789326e+000	 1.007081648611841e+001
 1.758474879052460e+000	 2.909942610804364e+000	 1.002200414103052e+001
 1.726716448985848e+000	 2.928899221696398e+000	 9.973455768781324e+000
 1.694797929960344e+000	 2.947483798177338e+000	 9.924408165961145e+000
 1.662725728608005e+000	 2.965694570108715e+000	 9.874083118606681e+000
 1.991265956576792e+000	 2.788711372155724e+000	 1.040610996240004e+001
 1.960566228508146e+000	 2.810379220328354e+000	 1.033861570485955e+001
 1.929660815777188e+000	 2.831688652649307e+000	 1.027591809937295e+001
 1.898555932485417e+000	 2.852636876573476e+000	 1.021773260623466e+001
 1.867257839512399e+000	 2.873221241754905e+000	 1.016353167571570e+001
 1.835772840496374e+000	 2.893439240895928e+000	 1.011258782812145e+001
 1.804107277802322e+000	 2.913288510461652e+000	 1.006401569569793e+001
 1.772267528482682e+000	 2.932766831259906e+000	 1.001681270262242e+001
 1.740260000235879e+000	 2.951872128887056e+000	 9.969898081237586e+000
 1.708091127367756e+000	 2.970602474040235e+000	 9.922149946600317e+000
 1.675767366760974e+000	 2.988956082696838e+000	 9.872440177058392e+000
 2.006762958479779e+000	 2.810414482837230e+000	 1.041592472952412e+001
 1.975824310168927e+000	 2.832250960762047e+000	 1.034237101088807e+001
 1.944678376457554e+000	 2.853726233468411e+000	 1.027508713110142e+001
 1.913331419808316e+000	 2.874837486678262e+000	 1.021419454981235e+001
 1.881789749825994e+000	 2.895582049419351e+000	 1.015881878796898e+001
 1.850059719206805e+000	 2.915957394880991e+000	 1.010788214206109e+001
 1.818147719675099e+000	 2.935961141134096e+000	 1.006014850130915e+001
 1.786060177912640e+000	 2.955591051715656e+000	 1.001426668704714e+001
 1.753803551485680e+000	 2.974845036078005e+000	 9.968811996203780e+000
 1.721384324774960e+000	 2.993721149903495e+000	 9.922325656049852e+000
 1.688809004913743e+000	 3.012217595285379e+000	 9.873351924460319e+000
 2.022259960382399e+000	 2.832117593518569e+000	 1.042480491841211e+001
 1.991082391829359e+000	 2.854122701195575e+000	 1.035115953833520e+001
 1.959695937137597e+000	 2.875763814287376e+000	 1.027872193915444e+001
 1.928106907130930e+000	 2.897038096782950e+000	 1.021456708848145e+001
 1.896321660139343e+000	 2.917942857083755e+000	 1.015749269585181e+001
 1.864346597917033e+000	 2.938475548866074e+000	 1.010609019559529e+001
 1.832188161547714e+000	 2.958633771806632e+000	 1.005879240929399e+001
 1.799852827342475e+000	 2.978415272171568e+000	 1.001391960911194e+001
 1.767347102735387e+000	 2.997817943269185e+000	 9.969723647075529e+000
 1.734677522182090e+000	 3.016839825767044e+000	 9.924429842052765e+000
 1.701850643066445e+000	 3.035479107874253e+000	 9.876276344754855e+000
 2.037756962284804e+000	 2.853820704199826e+000	 1.043142328628268e+001
 2.006340473489595e+000	 2.875994441629015e+000	 1.036404266702947e+001
 1.974713497817474e+000	 2.897801395106262e+000	 1.028651356755935e+001
 1.942882394453412e+000	 2.919238706887588e+000	 1.021852459436822e+001
 1.910853570452600e+000	 2.940303664748141e+000	 1.015921122947764e+001
 1.878633476627207e+000	 2.960993702851183e+000	 1.010685246362991e+001
 1.846228603420314e+000	 2.981306402479240e+000	 1.005956880869861e+001
 1.813645476772325e+000	 3.001239492627600e+000	 1.001537115382757e+001
 1.780890653985137e+000	 3.020790850460532e+000	 9.972207543133402e+000
 1.747970719589280e+000	 3.039958501630807e+000	 9.928007550764583e+000
 1.714892281219213e+000	 3.058740620463381e+000	 9.880723959238653e+000
 2.053253964187143e+000	 2.875523814881082e+000	 1.043573888311641e+001
 2.021598555149789e+000	 2.897866182062439e+000	 1.037525921273880e+001
 1.989731058497339e+000	 2.919838975925133e+000	 1.029818319907639e+001
 1.957657881775917e+000	 2.941439316992212e+000	 1.022577433143094e+001
 1.925385480765914e+000	 2.962664472412528e+000	 1.016366779683004e+001
 1.892920355337474e+000	 2.983511856836312e+000	 1.010984761270412e+001
 1.860269045293040e+000	 3.003979033151893e+000	 1.006213981709542e+001
 1.827438126202332e+000	 3.024063713083708e+000	 1.001826419085778e+001
 1.794434205235066e+000	 3.043763757651986e+000	 9.975883750554235e+000
 1.761263916996666e+000	 3.063077177494706e+000	 9.932651671330969e+000
 1.727933919372181e+000	 3.082002133052675e+000	 9.886255330794729e+000
 2.068750966089566e+000	 2.897226925562421e+000	 1.043773987538295e+001
 2.036856636810096e+000	 2.919737922495926e+000	 1.038349811886337e+001
 2.004748619177347e+000	 2.941876556744047e+000	 1.031312237613940e+001
 1.972433369098597e+000	 2.963639927096867e+000	 1.023605278001871e+001
 1.939917391079437e+000	 2.985025280076939e+000	 1.017058787667066e+001
 1.907207234047982e+000	 3.006030010821464e+000	 1.011478916302146e+001
 1.874309487166035e+000	 3.026651663824571e+000	 1.006620511156928e+001
 1.841230775632635e+000	 3.046887933539847e+000	 1.002228177336396e+001
 1.807977756485312e+000	 3.066736664843483e+000	 9.980415057099204e+000
 1.774557114404378e+000	 3.086195853358667e+000	 9.938000263500570e+000
 1.740975557525482e+000	 3.105263645642056e+000	 9.892478550623478e+000
 2.084247967992224e+000	 2.918930036243927e+000	 1.043744225727678e+001
 2.052114718470668e+000	 2.941609662929547e+000	 1.038876969678900e+001
 2.019766179857653e+000	 2.963914137563063e+000	 1.032607113076614e+001
 1.987208856421605e+000	 2.985840537201594e+000	 1.024912194958579e+001
 1.954449301393320e+000	 3.007386087741394e+000	 1.017972549888417e+001
 1.921494112758879e+000	 3.028548164806634e+000	 1.012142213716872e+001
 1.888349929039447e+000	 3.049324294497249e+000	 1.007149874564096e+001
 1.855023425063374e+000	 3.069712153995972e+000	 1.002714412205753e+001
 1.821521307736010e+000	 3.089709572034963e+000	 9.985504121328866e+000
 1.787850311812555e+000	 3.109314529222615e+000	 9.943733869156795e+000
 1.754017195679249e+000	 3.128525158231437e+000	 9.899046708382365e+000
 2.099744969895266e+000	 2.940633146925679e+000	 1.043488855235543e+001
 2.067372800131659e+000	 2.963481403363379e+000	 1.039111137308981e+001
 2.034783740538409e+000	 2.985951718382242e+000	 1.033537981809957e+001
 2.001984343745096e+000	 3.008041147306437e+000	 1.026470515476372e+001
 1.968981211707714e+000	 3.029746895405914e+000	 1.019085971290794e+001
 1.935780991470313e+000	 3.051066318791824e+000	 1.012951969621125e+001
 1.902390370913415e+000	 3.071996925169905e+000	 1.007778595285342e+001
 1.868816074494689e+000	 3.092536374452043e+000	 1.003260559522449e+001
 1.835064858987297e+000	 3.112682479226363e+000	 9.990890607143653e+000
 1.801143509221329e+000	 3.132433205086474e+000	 9.949572808598800e+000
 1.767058833833616e+000	 3.151786670820736e+000	 9.905655346592310e+000
 2.115241971798842e+000	 2.962336257607765e+000	 1.043014650607292e+001
 2.082630881793222e+000	 2.985353143797493e+000	 1.039058642652181e+001
 2.049801301219773e+000	 3.007989299201647e+000	 1.034110815201312e+001
 2.016759831069224e+000	 3.030241757411436e+000	 1.027852445811635e+001
 1.983513122022770e+000	 3.052107703070523e+000	 1.020379104485857e+001
 1.950067870182430e+000	 3.073584472777032e+000	 1.013887976381122e+001
 1.916430812788087e+000	 3.094669555842513e+000	 1.008485993770566e+001
 1.882608723926719e+000	 3.115360594908012e+000	 1.003845164544091e+001
 1.848608410239310e+000	 3.135655386417622e+000	 9.996348304403096e+000
 1.814436706630835e+000	 3.155551880950169e+000	 9.955274462354213e+000
 1.780100471988717e+000	 3.175048183409870e+000	 9.912039900117136e+000
 2.130738973703104e+000	 2.984039368290266e+000	 1.042330776967144e+001
 2.097888963455511e+000	 3.007224884231966e+000	 1.038728271596712e+001
 2.064818861901898e+000	 3.030026880021336e+000	 1.034334105513190e+001
 2.031535318394141e+000	 3.052442367516635e+000	 1.028811523719916e+001
 1.998045032338640e+000	 3.074468510735239e+000	 1.021833794392991e+001
 1.964354748895380e+000	 3.096102626762256e+000	 1.014932163897891e+001
 1.930471254663603e+000	 3.117342186515053e+000	 1.009253865457773e+001
 1.896401373359606e+000	 3.138184815363837e+000	 1.004449576365754e+001
 1.862151961492186e+000	 3.158628293608679e+000	 1.000168223633209e+001
 1.827729904041206e+000	 3.178670556813624e+000	 9.960630539259626e+000
 1.793142110144684e+000	 3.198309695998757e+000	 9.917973121476193e+000
 1.662725728608005e+000	 2.965694570108715e+000	 9.874083118606677e+000
 1.630511113674446e+000	 2.983527265011495e+000	 9.827049510644866e+000
 1.598155724011803e+000	 3.000983163283563e+000	 9.786459579263624e+000
 1.565666008429837e+000	 3.018060930005414e+000	 9.749500826105473e+000
 1.533048422245594e+000	 3.034759373751102e+000	 9.713462089061842e+000
 1.500309423398187e+000	 3.051077446124149e+000	 9.675757138448930e+000
 1.467455468599929e+000	 3.067014241170959e+000	 9.633945292614477e+000
 1.434493009528168e+000	 3.082568994673865e+000	 9.585749001609324e+000
 1.401428489062055e+000	 3.097741083326227e+000	 9.529068375987528e+000
 1.368268337568318e+000	 3.112530023792001e+000	 9.461992665596890e+000
 1.335018969240017e+000	 3.126935471652506e+000	 9.382808720163482e+000
 1.675767366760974e+000	 2.988956082696838e+000	 9.872440177058394e+000
 1.643300075547886e+000	 3.006928648866512e+000	 9.825053266490437e+000
 1.610690905435004e+000	 3.024521462989987e+000	 9.783350536086600e+000
 1.577946355813512e+000	 3.041733179677284e+000	 9.744920650762367e+000
 1.545072932632920e+000	 3.058562598157479e+000	 9.707458029181730e+000
 1.512077144485367e+000	 3.075008661810974e+000	 9.668786616065333e+000
 1.478965498726572e+000	 3.091070457578300e+000	 9.626880509907018e+000
 1.445744497637799e+000	 3.106747215247637e+000	 9.579881394248412e+000
 1.412420634633104e+000	 3.122038306623424e+000	 9.526112750537029e+000
 1.379000390515979e+000	 3.136943244578565e+000	 9.464090859804127e+000
 1.345490229789387e+000	 3.151461681992926e+000	 9.392532628701233e+000
 1.688809004913743e+000	 3.012217595285379e+000	 9.873351924460319e+000
 1.656089037421116e+000	 3.030330032721980e+000	 9.825863874665734e+000
 1.623226086857971e+000	 3.048059762696878e+000	 9.783359425638343e+000
 1.590226703196920e+000	 3.065405429349620e+000	 9.743783800876523e+000
 1.557097443019937e+000	 3.082365822564310e+000	 9.705193809106362e+000
 1.523844865572193e+000	 3.098939877498230e+000	 9.665781895642233e+000
 1.490475528852818e+000	 3.115126673986048e+000	 9.623896874241202e+000
 1.456995985746993e+000	 3.130925435821791e+000	 9.578061286948540e+000
 1.423412780203682e+000	 3.146335529920983e+000	 9.526985370828864e+000
 1.389732443463146e+000	 3.161356465365481e+000	 9.469577641164774e+000
 1.355961490338257e+000	 3.175987892333698e+000	 9.404952130442132e+000
 1.701850643066445e+000	 3.035479107874253e+000	 9.876276344754855e+000
 1.668877999294270e+000	 3.053731416577814e+000	 9.828899415190895e+000
 1.635761268280842e+000	 3.071598062404153e+000	 9.785863814893755e+000
 1.602507050580201e+000	 3.089077679022347e+000	 9.745427663719788e+000
 1.569121953406790e+000	 3.106169046971532e+000	 9.705967948758596e+000
 1.535612586658817e+000	 3.122871093185872e+000	 9.666004958202898e+000
 1.501985558978821e+000	 3.139182890394173e+000	 9.624223209611891e+000
 1.468247473855908e+000	 3.155103656396314e+000	 9.579488819246521e+000
 1.434404925773954e+000	 3.170632753218907e+000	 9.530863292141607e+000
 1.400464496409988e+000	 3.185769686152758e+000	 9.477613744822923e+000
 1.366432750886794e+000	 3.200514102674838e+000	 9.419219603812788e+000
 1.714892281219213e+000	 3.058740620463381e+000	 9.880723959238651e+000
 1.681666961167484e+000	 3.077132800433932e+000	 9.833632389202585e+000
 1.648296449703754e+000	 3.095136362111732e+000	 9.790297318364210e+000
 1.614787397963496e+000	 3.112749928695397e+000	 9.749246997822347e+000
 1.581146463793626e+000	 3.129972271379086e+000	 9.709137316541112e+000
 1.547380307745387e+000	 3.146802308873856e+000	 9.668776721800874e+000
 1.513495589104738e+000	 3.163239106802647e+000	 9.627147436455189e+000
 1.479498961964707e+000	 3.179281876971194e+000	 9.583422918682803e+000
 1.445397071344081e+000	 3.194929976517194e+000	 9.536981544578222e+000
 1.411196549356669e+000	 3.210182906940407e+000	 9.487416527791153e+000
 1.376904011435166e+000	 3.225040313016362e+000	 9.434542123236065e+000
 1.727933919372181e+000	 3.082002133052675e+000	 9.886255330794729e+000
 1.694455923040891e+000	 3.100534184290246e+000	 9.839587380720337e+000
 1.660831631126843e+000	 3.118674661819535e+000	 9.796147418348728e+000
 1.627067745346946e+000	 3.136422178368696e+000	 9.754691913609291e+000
 1.593170974180588e+000	 3.153775495786916e+000	 9.714115273215272e+000
 1.559148028832055e+000	 3.170733524562135e+000	 9.673475352458215e+000
 1.525005619230723e+000	 3.187295323211440e+000	 9.632015054424059e+000
 1.490750450073545e+000	 3.203460097546412e+000	 9.589179961160120e+000
 1.456389216914229e+000	 3.219227199815840e+000	 9.544631977720124e+000
 1.421928602303354e+000	 3.234596127728437e+000	 9.498259005582534e+000
 1.387375271983538e+000	 3.249566523358289e+000	 9.450180696395325e+000
 1.740975557525482e+000	 3.105263645642056e+000	 9.892478550623478e+000
 1.707244884914625e+000	 3.123935568146673e+000	 9.846338700382916e+000
 1.673366812550247e+000	 3.142212961527484e+000	 9.802953266483703e+000
 1.639348092730692e+000	 3.160094428042173e+000	 9.761265834468212e+000
 1.605195484567823e+000	 3.177578720194959e+000	 9.720369795091306e+000
 1.570915749918973e+000	 3.194664740250668e+000	 9.679534552987480e+000
 1.536515649356933e+000	 3.211351539620525e+000	 9.638227601261370e+000
 1.502001938182586e+000	 3.227638318121956e+000	 9.596132405198137e+000
 1.467381362484560e+000	 3.243524423114846e+000	 9.553162076510631e+000
 1.432660655250212e+000	 3.259009348516859e+000	 9.509468856887864e+000
 1.397846532532076e+000	 3.274092733700633e+000	 9.465449465789792e+000
 1.754017195679249e+000	 3.128525158231437e+000	 9.899046708382365e+000
 1.720033846788822e+000	 3.147336952003127e+000	 9.853508012092139e+000
 1.685901993974103e+000	 3.165751261235494e+000	 9.810303467564886e+000
 1.651628440114874e+000	 3.183766677715757e+000	 9.768523439266202e+000
 1.617219994955478e+000	 3.201381944603159e+000	 9.727421577605796e+000
 1.582683471006287e+000	 3.218595955939410e+000	 9.686441830848985e+000
 1.548025679483520e+000	 3.235407756029868e+000	 9.645241089013835e+000
 1.513253426291987e+000	 3.251816538697813e+000	 9.603707401443277e+000
 1.478373508055237e+000	 3.267821646414213e+000	 9.561973749865370e+000
 1.443392708197405e+000	 3.283422569305681e+000	 9.520427397960768e+000
 1.408317793080948e+000	 3.298618944043410e+000	 9.479714876440056e+000
 1.767058833833616e+000	 3.151786670820736e+000	 9.905655346592310e+000
 1.732822808663616e+000	 3.170738335859523e+000	 9.860761943447889e+000
 1.698437175398548e+000	 3.189289560943490e+000	 9.817833846557283e+000
 1.663908787499634e+000	 3.207438927389378e+000	 9.776068587274633e+000
 1.629244505343696e+000	 3.225185169011456e+000	 9.734842120300307e+000
 1.594451192094151e+000	 3.242527171628312e+000	 9.693736746126344e+000
 1.559535709610642e+000	 3.259463972439443e+000	 9.652564418757287e+000
 1.524504914401909e+000	 3.275994759273966e+000	 9.611385378711557e+000
 1.489365653626424e+000	 3.292118869713937e+000	 9.570522093418445e+000
 1.454124761145102e+000	 3.307835790094915e+000	 9.530568528275708e+000
 1.418789053630321e+000	 3.323145154386642e+000	 9.492394811492330e+000
 1.780100471988717e+000	 3.175048183409870e+000	 9.912039900117136e+000
 1.745611770539141e+000	 3.194139719715779e+000	 9.867809680805319e+000
 1.710972356823719e+000	 3.212827860651387e+000	 9.825225199655321e+000
 1.676189134885112e+000	 3.231111177062963e+000	 9.783552226403806e+000
 1.641269015732623e+000	 3.248988393419791e+000	 9.742251794154193e+000
 1.606218913182716e+000	 3.266458387317336e+000	 9.701009140639599e+000
 1.571045739738453e+000	 3.283520188849218e+000	 9.659757774936024e+000
 1.535756402512512e+000	 3.300172979850403e+000	 9.618698607767939e+000
 1.500357799198284e+000	 3.316416093014017e+000	 9.578314127731122e+000
 1.464856814093468e+000	 3.332249010884569e+000	 9.539377648932209e+000
 1.429260314180360e+000	 3.347671364730342e+000	 9.503401881043374e+000
 1.793142110144684e+000	 3.198309695998757e+000	 9.917973121476194e+000
 1.758400732415532e+000	 3.217541103571807e+000	 9.874400549736805e+000
 1.723507538249754e+000	 3.236366160359109e+000	 9.832201030205294e+000
 1.688469482271451e+000	 3.254783426736442e+000	 9.790670285597372e+000
 1.653293526122405e+000	 3.272791617828106e+000	 9.749317892170826e+000
 1.617986634272129e+000	 3.290389603006431e+000	 9.707897349156848e+000
 1.582555769867111e+000	 3.307576405259168e+000	 9.666431000353452e+000
 1.547007890623956e+000	 3.324351200427108e+000	 9.625229743976588e+000
 1.511349944770981e+000	 3.340713316314456e+000	 9.585101617242133e+000
 1.475588867042667e+000	 3.356662231674654e+000	 9.548025159900696e+000
 1.439731574731234e+000	 3.372197575074529e+000	 9.514439660626191e+000
 1.335018969240017e+000	 3.126935471652506e+000	 9.382808720163483e+000
 1.301681772541035e+000	 3.140959295332738e+000	 9.299416242286050e+000
 1.268268104136253e+000	 3.154599236856098e+000	 9.225039756209691e+000
 1.234784312705468e+000	 3.167855363653739e+000	 9.158721585204241e+000
 1.201236716620890e+000	 3.180727876869459e+000	 9.099431627274576e+000
 1.167631600601917e+000	 3.193217109782672e+000	 9.046055894326543e+000
 1.133975212443532e+000	 3.205323526137256e+000	 8.997333213087781e+000
 1.100273759821122e+000	 3.217047718379722e+000	 8.951806694077234e+000
 1.066533407174409e+000	 3.228390405810319e+000	 8.907789601476157e+000
 1.032760272672936e+000	 3.239352432650740e+000	 8.863345137090125e+000
 9.989604252654353e-001	 3.249934766032136e+000	 8.816269852079786e+000
 1.345490229789387e+000	 3.151461681992926e+000	 9.392532628701231e+000
 1.311891551807665e+000	 3.165595501946557e+000	 9.306821455551917e+000
 1.278215802312036e+000	 3.179342428752352e+000	 9.228175644613387e+000
 1.244469379778354e+000	 3.192702530370363e+000	 9.158855075017566e+000
 1.210658652137174e+000	 3.205676009522062e+000	 9.097824514377265e+000
 1.176789953402283e+000	 3.218263202100958e+000	 9.043907141475410e+000
 1.142869580373431e+000	 3.230464575488313e+000	 8.995719943303993e+000
 1.108903789416096e+000	 3.242280726777507e+000	 8.951624850014831e+000
 1.074898793320970e+000	 3.253712380910649e+000	 8.909695212049568e+000
 1.040860758245643e+000	 3.264760388731104e+000	 8.867697097574258e+000
 1.006795800740831e+000	 3.275425724955747e+000	 8.823076235002823e+000
 1.355961490338257e+000	 3.175987892333698e+000	 9.404952130442130e+000
 1.322101331073807e+000	 3.190231708560741e+000	 9.321524634105098e+000
 1.288163500487353e+000	 3.204085620648994e+000	 9.238866370657203e+000
 1.254154446850814e+000	 3.217549697087407e+000	 9.166828080715582e+000
 1.220080587653086e+000	 3.230624142175128e+000	 9.104405778932296e+000
 1.185948306202340e+000	 3.243309294419742e+000	 9.050388957644652e+000
 1.151763948303092e+000	 3.255605624839903e+000	 9.003294622420853e+000
 1.117533819010910e+000	 3.267513735175860e+000	 8.961318087624701e+000
 1.083264179467452e+000	 3.279034356011566e+000	 8.922300106291848e+000
 1.048961243818356e+000	 3.290168344812069e+000	 8.883709775704794e+000
 1.014631176216317e+000	 3.300916683879955e+000	 8.842642536965720e+000
 1.366432750886794e+000	 3.200514102674838e+000	 9.419219603812788e+000
 1.332311110339624e+000	 3.214867915175308e+000	 9.342122317313180e+000
 1.298111198662370e+000	 3.228828812546041e+000	 9.255737118673011e+000
 1.263839513923010e+000	 3.242396863804884e+000	 9.181308053132211e+000
 1.229502523168778e+000	 3.255572274828652e+000	 9.117898747832200e+000
 1.195106659002230e+000	 3.268355386739016e+000	 9.064293859901193e+000
 1.160658316232649e+000	 3.280746674192009e+000	 9.018931692426598e+000
 1.126163848605685e+000	 3.292746743574746e+000	 8.979854646531997e+000
 1.091629565613965e+000	 3.304356331113032e+000	 8.944677052441433e+000
 1.057061729391170e+000	 3.315576300893579e+000	 8.910569782451919e+000
 1.022466551691976e+000	 3.326407642804695e+000	 8.874260919105650e+000
 1.376904011435166e+000	 3.225040313016362e+000	 9.434542123236065e+000
 1.342520889605282e+000	 3.239504121790274e+000	 9.365572859319705e+000
 1.308058896837248e+000	 3.253572004443512e+000	 9.277425721641254e+000
 1.273524580995097e+000	 3.267244030522805e+000	 9.200949369922673e+000
 1.238924458684402e+000	 3.280520407482642e+000	 9.136989867390003e+000
 1.204265011802099e+000	 3.293401479058773e+000	 9.084355667085426e+000
 1.169552684162234e+000	 3.305887723544610e+000	 9.041427135281541e+000
 1.134793878200545e+000	 3.317979751974136e+000	 9.006106657196352e+000
 1.099994951760620e+000	 3.329678306214997e+000	 8.975787220646218e+000
 1.065162214964184e+000	 3.340984256975577e+000	 8.946728510899385e+000
 1.030301927167889e+000	 3.351898601729899e+000	 8.913232926138340e+000
 1.387375271983538e+000	 3.249566523358289e+000	 9.450180696395321e+000
 1.352730668870948e+000	 3.264140328405664e+000	 9.388482859828336e+000
 1.318006595012151e+000	 3.278315196341421e+000	 9.302598131489276e+000
 1.283209648067234e+000	 3.292091197241182e+000	 9.224407987031125e+000
 1.248346394200107e+000	 3.305468540137102e+000	 9.160342542352968e+000
 1.213423364602087e+000	 3.318447571379005e+000	 9.109262532886886e+000
 1.178447052091982e+000	 3.331028772897689e+000	 9.069510706625056e+000
 1.143423907795611e+000	 3.343212760373996e+000	 9.038101685671531e+000
 1.108360337907525e+000	 3.355000281317417e+000	 9.010247720450989e+000
 1.073262700537492e+000	 3.366392213058007e+000	 8.981856886995608e+000
 1.038137302644139e+000	 3.377389560655499e+000	 8.948702976217204e+000
 1.397846532532076e+000	 3.274092733700633e+000	 9.465449465789790e+000
 1.362940448136786e+000	 3.288776535021494e+000	 9.410128699491891e+000
 1.327954293187240e+000	 3.303058388239788e+000	 9.329963846925848e+000
 1.292894715139578e+000	 3.316938363960027e+000	 9.250356045398252e+000
 1.257768329716046e+000	 3.330416672792031e+000	 9.186610928641841e+000
 1.222581717402339e+000	 3.343493663699706e+000	 9.137192257625690e+000
 1.187341420022025e+000	 3.356169822251225e+000	 9.098700340400747e+000
 1.152053937391006e+000	 3.368445768774295e+000	 9.067643077954898e+000
 1.116725724054792e+000	 3.380322256420250e+000	 9.040195943436144e+000
 1.081363186111192e+000	 3.391800169140812e+000	 9.012277874802997e+000
 1.045972678120808e+000	 3.402880519581427e+000	 8.979646528522597e+000
 1.408317793080948e+000	 3.298618944043410e+000	 9.479714876440056e+000
 1.373150227402963e+000	 3.313412741637784e+000	 9.429857663170505e+000
 1.337901991362677e+000	 3.327801580138630e+000	 9.357918932342109e+000
 1.302579782212287e+000	 3.341785530679350e+000	 9.277390193541038e+000
 1.267190265232370e+000	 3.355364805447437e+000	 9.213075199051600e+000
 1.231740070202997e+000	 3.368539756020867e+000	 9.162922695747461e+000
 1.196235787952497e+000	 3.381310871605200e+000	 9.123932480215178e+000
 1.160683966986851e+000	 3.393678777174999e+000	 9.092638643839983e+000
 1.125091110202531e+000	 3.405644231523447e+000	 9.065220339882133e+000
 1.089463671685381e+000	 3.417208125223934e+000	 9.037605164751655e+000
 1.053808053597977e+000	 3.428371478507618e+000	 9.005565227109646e+000
 1.418789053630321e+000	 3.323145154386642e+000	 9.492394811492328e+000
 1.383360006669641e+000	 3.338048948254552e+000	 9.447091350216184e+000
 1.347849689538626e+000	 3.352544772037962e+000	 9.382892907589042e+000
 1.312264849285518e+000	 3.366632697399165e+000	 9.303283731195645e+000
 1.276612200749229e+000	 3.380312938103318e+000	 9.237019773625125e+000
 1.240898423004205e+000	 3.393585848342482e+000	 9.185254441074926e+000
 1.205130155883532e+000	 3.406451920959592e+000	 9.145014790002829e+000
 1.169313996583271e+000	 3.418911785576080e+000	 9.112864828744867e+000
 1.133456496350851e+000	 3.430966206626968e+000	 9.085017724785157e+000
 1.097564157260154e+000	 3.442616081307317e+000	 9.057440253867314e+000
 1.061643429075730e+000	 3.453862437434002e+000	 9.025949583287369e+000
 1.429260314180360e+000	 3.347671364730342e+000	 9.503401881043374e+000
 1.393569785936990e+000	 3.362685154871817e+000	 9.462327135126316e+000
 1.357797387715248e+000	 3.377287963937802e+000	 9.404307342940584e+000
 1.321949916359430e+000	 3.391479864119481e+000	 9.327482199637235e+000
 1.286034136266774e+000	 3.405261070759681e+000	 9.258326609795912e+000
 1.250056775806105e+000	 3.418631940664544e+000	 9.204062836454504e+000
 1.214024523815263e+000	 3.431592970314386e+000	 9.161774547536092e+000
 1.177944026180386e+000	 3.444144793977503e+000	 9.128085481460209e+000
 1.141821882499863e+000	 3.456288181730765e+000	 9.099273015051210e+000
 1.105664642835610e+000	 3.468024037390906e+000	 9.071373587304585e+000
 1.069478804554147e+000	 3.479353396360511e+000	 9.040280091196269e+000
 1.439731574731234e+000	 3.372197575074529e+000	 9.514439660626193e+000
 1.403779565205173e+000	 3.387321361489601e+000	 9.476178525922069e+000
 1.367745085892707e+000	 3.402031155838170e+000	 9.422517521207769e+000
 1.331634983434178e+000	 3.416327030840313e+000	 9.349898100476574e+000
 1.295456071785158e+000	 3.430209203416529e+000	 9.276890637338795e+000
 1.259215128608840e+000	 3.443678032987045e+000	 9.219210454599288e+000
 1.222918891747824e+000	 3.456734019669560e+000	 9.174026861073010e+000
 1.186574055778321e+000	 3.469377802379238e+000	 9.138052927884866e+000
 1.150187268649677e+000	 3.481610156834796e+000	 9.107660333917007e+000
 1.113765128411844e+000	 3.493431993474642e+000	 9.078985666952509e+000
 1.077314180033310e+000	 3.504844355287081e+000	 9.048028313719946e+000
 9.989604252654353e-001	 3.249934766032136e+000	 8.816269852079786e+000
 9.651398813324285e-001	 3.260138493095665e+000	 8.766848304886580e+000
 9.313046005101890e-001	 3.269964816403907e+000	 8.717663398974857e+000
 8.974604845374922e-001	 3.279415054160483e+000	 8.669654545813328e+000
 8.636133751544901e-001	 3.288490638736054e+000	 8.623582144357506e+000
 8.297690515990598e-001	 3.297193114320969e+000	 8.580069902048800e+000
 7.959332281968503e-001	 3.305524134521356e+000	 8.539655249859173e+000
 7.621115520460930e-001	 3.313485459902494e+000	 8.502846770387535e+000
 7.283096007980544e-001	 3.321078955483442e+000	 8.470187530560596e+000
 6.945328805338581e-001	 3.328306588186819e+000	 8.442323193626494e+000
 6.607868237382244e-001	 3.335170424247629e+000	 8.420742898101436e+000
 1.006795800740831e+000	 3.275425724955747e+000	 8.823076235002823e+000
 9.727099843767157e-001	 3.285709485252757e+000	 8.776106886388826e+000
 9.386093155341527e-001	 3.295612881617041e+000	 8.729637925785927e+000
 9.044997422423741e-001	 3.305137242591581e+000	 8.684587861574986e+000
 8.703871520613907e-001	 3.314284011781862e+000	 8.641646664077173e+000
 8.362773695586976e-001	 3.323054745490131e+000	 8.601323389382849e+000
 8.021761538804231e-001	 3.331451110292613e+000	 8.564002454764152e+000
 7.680891964179754e-001	 3.339474880563620e+000	 8.529766763055893e+000
 7.340221185710903e-001	 3.347127935950536e+000	 8.498981688924756e+000
 6.999804696079973e-001	 3.354412258803584e+000	 8.473285846767157e+000
 6.659697246232672e-001	 3.361329931564333e+000	 8.454728567636415e+000
 1.014631176216317e+000	 3.300916683879955e+000	 8.842642536965720e+000
 9.802800874211785e-001	 3.311280477410428e+000	 8.799261077324154e+000
 9.459140305583738e-001	 3.321260946830719e+000	 8.756543716315065e+000
 9.115389999475945e-001	 3.330859431023176e+000	 8.715245048153548e+000
 8.771609289687062e-001	 3.340077384828113e+000	 8.675322750663558e+000
 8.427856875188240e-001	 3.348916376659676e+000	 8.636070326376999e+000
 8.084190795645526e-001	 3.357378086064187e+000	 8.598451177677861e+000
 7.740668407904781e-001	 3.365464301225002e+000	 8.563746863627564e+000
 7.397346363448031e-001	 3.373176916417825e+000	 8.533529879006400e+000
 7.054280586828639e-001	 3.380517929420491e+000	 8.509703489256944e+000
 6.711526255090805e-001	 3.387489438881134e+000	 8.494537778179607e+000
 1.022466551691976e+000	 3.326407642804695e+000	 8.874260919105650e+000
 9.878501904658824e-001	 3.336851469568601e+000	 8.835598890334726e+000
 9.532187455829027e-001	 3.346909012044858e+000	 8.795709081085466e+000
 9.185782576531859e-001	 3.356581619455178e+000	 8.754820761500810e+000
 8.839347058764540e-001	 3.365870757874714e+000	 8.713796753737963e+000
 8.492940054794389e-001	 3.374778007829510e+000	 8.673645507570722e+000
 8.146620052492231e-001	 3.383305061835989e+000	 8.635573289005034e+000
 7.800444851635694e-001	 3.391453721886551e+000	 8.601031677147388e+000
 7.454471541191485e-001	 3.399225896885227e+000	 8.571760632946821e+000
 7.108756477584011e-001	 3.406623600037463e+000	 8.549827416026856e+000
 6.763355263955970e-001	 3.413648946197964e+000	 8.537661634753901e+000
 1.030301927167889e+000	 3.351898601729899e+000	 8.913232926138340e+000
 9.954202935108943e-001	 3.362422461727201e+000	 8.874819735061777e+000
 9.605234606077902e-001	 3.372557077259375e+000	 8.834551784946999e+000
 9.256175153591825e-001	 3.382303807887502e+000	 8.793296366865823e+000
 8.907084827846501e-001	 3.391664130921575e+000	 8.752015835222816e+000
 8.558023234405426e-001	 3.400639638999539e+000	 8.711818598394132e+000
 8.209049309344197e-001	 3.409232037607928e+000	 8.674010767322455e+000
 7.860221295372198e-001	 3.417443142548178e+000	 8.640142959859594e+000
 7.511596718940822e-001	 3.425274877352659e+000	 8.612052547025391e+000
 7.163232368345518e-001	 3.432729270654425e+000	 8.591901639944966e+000
 6.815184272827487e-001	 3.439808453514761e+000	 8.582211124961921e+000
 1.038137302644139e+000	 3.377389560655499e+000	 8.948702976217204e+000
 1.002990396556281e+000	 3.387993453886148e+000	 8.910538011647489e+000
 9.678281756330860e-001	 3.398205142474185e+000	 8.870578137764714e+000
 9.326567730656182e-001	 3.408025996320059e+000	 8.829717956342529e+000
 8.974822596933122e-001	 3.417457503968606e+000	 8.788948136385352e+000
 8.623106414021362e-001	 3.426501270169675e+000	 8.749406780266460e+000
 8.271478566201265e-001	 3.435159013379910e+000	 8.712430535546663e+000
 7.919997739113986e-001	 3.443432563209798e+000	 8.679600701412507e+000
 7.568721896695594e-001	 3.451323857820039e+000	 8.652784639485134e+000
 7.217708259112595e-001	 3.458834941271304e+000	 8.634172811342790e+000
 6.867013281704679e-001	 3.465967960831456e+000	 8.626311773632260e+000
 1.045972678120808e+000	 3.402880519581427e+000	 8.979646528522597e+000
 1.010560499602108e+000	 3.413564446045371e+000	 8.942147973385918e+000
 9.751328906588404e-001	 3.423853207689207e+000	 8.903039340630855e+000
 9.396960307725261e-001	 3.433748184752760e+000	 8.863193803618966e+000
 9.042560366024574e-001	 3.443250877015715e+000	 8.823554636563209e+000
 8.688189593642196e-001	 3.452362901339824e+000	 8.785221925630706e+000
 8.333907823063280e-001	 3.461085989151849e+000	 8.749496130793517e+000
 7.979774182860755e-001	 3.469421983871322e+000	 8.717923481213925e+000
 7.625847074455362e-001	 3.477372838287283e+000	 8.692336529798078e+000
 7.272184149884671e-001	 3.484940611888025e+000	 8.674890213917967e+000
 6.918842290586874e-001	 3.492127468147986e+000	 8.668093777619481e+000
 1.053808053597977e+000	 3.428371478507618e+000	 9.005565227109646e+000
 1.018130602648443e+000	 3.439135438204789e+000	 8.969011022398131e+000
 9.824376056851037e-001	 3.449501272904357e+000	 8.931177053558486e+000
 9.467352884799400e-001	 3.459470373185520e+000	 8.892824191216777e+000
 9.110298135121014e-001	 3.469044250062811e+000	 8.854789966317195e+000
 8.753272773267937e-001	 3.478224532509898e+000	 8.818071274420735e+000
 8.396337079930092e-001	 3.487012964923653e+000	 8.783868230842458e+000
 8.039550626612197e-001	 3.495411404532665e+000	 8.753628833938905e+000
 7.682972252219681e-001	 3.503421818754312e+000	 8.729088634630283e+000
 7.326660040661178e-001	 3.511046282504512e+000	 8.712305784934655e+000
 6.970671299473389e-001	 3.518286975464283e+000	 8.705691846383596e+000
 1.061643429075730e+000	 3.453862437434002e+000	 9.025949583287369e+000
 1.025700705695351e+000	 3.464706430364329e+000	 8.990501482555642e+000
 9.897423207119260e-001	 3.475149338119550e+000	 8.954224409231358e+000
 9.537745461878935e-001	 3.485192561618247e+000	 8.917702326887650e+000
 9.178035904222623e-001	 3.494837623109804e+000	 8.881603208930896e+000
 8.818355952898583e-001	 3.504086163679800e+000	 8.846758105379200e+000
 8.458766336801542e-001	 3.512939940695230e+000	 8.814205182258517e+000
 8.099327070368005e-001	 3.521400825193738e+000	 8.785233623718989e+000
 7.740097429988104e-001	 3.529470799221044e+000	 8.761422379643298e+000
 7.381135931441546e-001	 3.537151953120690e+000	 8.744674158467197e+000
 7.022500308363556e-001	 3.544446482780284e+000	 8.737245072784669e+000
 1.069478804554147e+000	 3.479353396360511e+000	 9.040280091196269e+000
 1.033270808742900e+000	 3.490277422523913e+000	 9.005976902774512e+000
 9.970470357393576e-001	 3.500797403334707e+000	 8.971407004538689e+000
 9.608138038964201e-001	 3.510914750050857e+000	 8.936915243150573e+000
 9.245773673329565e-001	 3.520630996156604e+000	 8.902938690855516e+000
 8.883439132534150e-001	 3.529947794849444e+000	 8.870082402491361e+000
 8.521195593677482e-001	 3.538866916466492e+000	 8.839163530086605e+000
 8.159103514127881e-001	 3.547390245854454e+000	 8.811254426566299e+000
 7.797222607760189e-001	 3.555519779687395e+000	 8.787720426320488e+000
 7.435611822225210e-001	 3.563257623736486e+000	 8.770252730504449e+000
 7.074329317256694e-001	 3.570605990095922e+000	 8.760896832544361e+000
 1.077314180033310e+000	 3.504844355287081e+000	 9.048028313719946e+000
 1.040840911791156e+000	 3.515848414683465e+000	 9.014787048604834e+000
 1.004351750767449e+000	 3.526445468549742e+000	 8.981943871025116e+000
 9.678530616055535e-001	 3.536636938483259e+000	 8.949544680828309e+000
 9.313511442442012e-001	 3.546424369203119e+000	 8.917736761661690e+000
 8.948522312174633e-001	 3.555809426018735e+000	 8.886841516783532e+000
 8.583624850557755e-001	 3.564793892237349e+000	 8.857398549038919e+000
 8.218879957891516e-001	 3.573379666514728e+000	 8.830207920614855e+000
 7.854347785535496e-001	 3.581568760153285e+000	 8.806366913053759e+000
 7.490087713011601e-001	 3.589363294351825e+000	 8.787301744803237e+000
 7.126158326152124e-001	 3.596765497411133e+000	 8.774794710914740e+000
 6.607868237382244e-001	 3.335170424247629e+000	 8.420742898101432e+000
 6.270818393662588e-001	 3.341671678785408e+000	 8.400243966293296e+000
 5.934181341637269e-001	 3.347813666836248e+000	 8.364278088681960e+000
 5.598008987902480e-001	 3.353598738394851e+000	 8.316005024524973e+000
 5.262352434010424e-001	 3.359029331970650e+000	 8.257962013301297e+000
 4.927261961099995e-001	 3.364107971852335e+000	 8.192358430932906e+000
 4.592787015493526e-001	 3.368837265353978e+000	 8.121347928873334e+000
 4.258976195254701e-001	 3.373219900046345e+000	 8.047279734940680e+000
 3.925877237701100e-001	 3.377258640976892e+000	 7.972930785625260e+000
 3.593537007863792e-001	 3.380956327881860e+000	 7.901720334582055e+000
 3.262001487885013e-001	 3.384315872393811e+000	 7.837908642563914e+000
 6.659697246232672e-001	 3.361329931564333e+000	 8.454728567636414e+000
 6.320003742149506e-001	 3.367882178883140e+000	 8.433287879819483e+000
 5.980726267504363e-001	 3.374072341797701e+000	 8.398233576099411e+000
 5.641917136024439e-001	 3.379902788734986e+000	 8.352890257360325e+000
 5.303627850078568e-001	 3.385375977330978e+000	 8.299992923019476e+000
 4.965909085187313e-001	 3.390494451673716e+000	 8.241975928682770e+000
 4.628810675506787e-001	 3.395260839527842e+000	 8.181238883385941e+000
 4.292381600281096e-001	 3.399677849544181e+000	 8.120391297569947e+000
 3.956669971256964e-001	 3.403748268457943e+000	 8.062477779178559e+000
 3.621723021052792e-001	 3.407474958278942e+000	 8.011185544881187e+000
 3.287587092473186e-001	 3.410860853477239e+000	 7.971035967913589e+000
 6.711526255090805e-001	 3.387489438881134e+000	 8.494537778179605e+000
 6.369189090644476e-001	 3.394092678980937e+000	 8.472327157355572e+000
 6.027271193379761e-001	 3.400331016759192e+000	 8.438129015971640e+000
 5.685825284154842e-001	 3.406206839075148e+000	 8.395679149356637e+000
 5.344903266155154e-001	 3.411722622691324e+000	 8.347806609654286e+000
 5.004556209282921e-001	 3.416880931495113e+000	 8.297070846430254e+000
 4.664834335528012e-001	 3.421684413701721e+000	 8.246020728431763e+000
 4.325787005314946e-001	 3.426135799042036e+000	 8.197431898186940e+000
 3.987462704819571e-001	 3.430237895939013e+000	 8.154524390615478e+000
 3.649909034247608e-001	 3.433993588676044e+000	 8.121162410758871e+000
 3.313172697066006e-001	 3.437405834560681e+000	 8.102038113863992e+000
 6.763355263955970e-001	 3.413648946197964e+000	 8.537661634753901e+000
 6.418374439146738e-001	 3.420303179078740e+000	 8.515233988146955e+000
 6.073816119262636e-001	 3.426589691720684e+000	 8.481630184519672e+000
 5.729733432292817e-001	 3.432510889415306e+000	 8.441809191811370e+000
 5.386178682239295e-001	 3.438069268051670e+000	 8.398599113570388e+000
 5.043203333385952e-001	 3.443267411316521e+000	 8.354593466931533e+000
 4.700857995556393e-001	 3.448107987875623e+000	 8.312402651214663e+000
 4.359192410355531e-001	 3.452593748539921e+000	 8.274883325019786e+000
 4.018255438388325e-001	 3.456727523420121e+000	 8.245347763101210e+000
 3.678095047447799e-001	 3.460512219073185e+000	 8.227755222271684e+000
 3.338758301663242e-001	 3.463950815644158e+000	 8.226887286987685e+000
 6.815184272827487e-001	 3.439808453514761e+000	 8.582211124961921e+000
 6.467559787655528e-001	 3.446513679176499e+000	 8.559895509647694e+000
 6.120361045152160e-001	 3.452848366682128e+000	 8.526425117910627e+000
 5.773641580437493e-001	 3.458814939755432e+000	 8.488746884321742e+000
 5.427454098330120e-001	 3.464415913412003e+000	 8.449601794680000e+000
 5.081850457495547e-001	 3.469653891137934e+000	 8.411535398248674e+000
 4.736881655591116e-001	 3.474531562049550e+000	 8.377141000449150e+000
 4.392597815402124e-001	 3.479051698037851e+000	 8.349280333692462e+000
 4.049048171962623e-001	 3.483217150901286e+000	 8.331283924306195e+000
 3.706281060652929e-001	 3.487030849470385e+000	 8.327133325174762e+000
 3.364343906264664e-001	 3.490495796727684e+000	 8.341627318060310e+000
 6.867013281704679e-001	 3.465967960831456e+000	 8.626311773632260e+000
 6.516745136170081e-001	 3.472724179274158e+000	 8.604212633903838e+000
 6.166905971047501e-001	 3.479107041643489e+000	 8.570222907677774e+000
 5.817549728588004e-001	 3.485118990095495e+000	 8.533986430165493e+000
 5.468729514426739e-001	 3.490762558772303e+000	 8.498079865290974e+000
 5.120497581610842e-001	 3.496040370959349e+000	 8.464927888218021e+000
 4.772905315631372e-001	 3.500955136223509e+000	 8.437037333287325e+000
 4.426003220453997e-001	 3.505509647535838e+000	 8.417208384169477e+000
 4.079840905541861e-001	 3.509706778382524e+000	 8.408725177647467e+000
 3.734467073862562e-001	 3.513549479867665e+000	 8.415528137468668e+000
 3.389929510870036e-001	 3.517040777811276e+000	 8.442370281630918e+000
 6.918842290586874e-001	 3.492127468147986e+000	 8.668093777619481e+000
 6.565930484689633e-001	 3.498934679371662e+000	 8.646098916277435e+000
 6.213450896947831e-001	 3.505365716604719e+000	 8.610752548740893e+000
 5.861457876743477e-001	 3.511423040435467e+000	 8.575048495896116e+000
 5.510004930528274e-001	 3.517109204132556e+000	 8.541330999987368e+000
 5.159144705730977e-001	 3.522426850780759e+000	 8.511840229813384e+000
 4.808928975676346e-001	 3.527378710397507e+000	 8.488936567895198e+000
 4.459408625510428e-001	 3.531967597033897e+000	 8.475301498831588e+000
 4.110633639125439e-001	 3.536196405863857e+000	 8.474117630730049e+000
 3.762653087076259e-001	 3.540068110265041e+000	 8.489230319641345e+000
 3.415515115479128e-001	 3.543585758894952e+000	 8.525293286051223e+000
 6.970671299473389e-001	 3.518286975464283e+000	 8.705691846383596e+000
 6.615115833213420e-001	 3.525145179468955e+000	 8.683479464310016e+000
 6.259995822852327e-001	 3.531624391565782e+000	 8.645761837286266e+000
 5.905366024903049e-001	 3.537727090775319e+000	 8.609479031810501e+000
 5.551280346633847e-001	 3.543455849492743e+000	 8.576684018531715e+000
 5.197791829855083e-001	 3.548813330602161e+000	 8.549378252671723e+000
 4.844952635725229e-001	 3.553802284571548e+000	 8.529725236174057e+000
 4.492814030570689e-001	 3.558425546532039e+000	 8.520240235381104e+000
 4.141426372712758e-001	 3.562686033345299e+000	 8.523958853847560e+000
 3.790839100293581e-001	 3.566586740662535e+000	 8.544587090602391e+000
 3.441100720091707e-001	 3.570130739978726e+000	 8.586635425099498e+000
 7.022500308363556e-001	 3.544446482780284e+000	 8.737245072784672e+000
 6.664301181740677e-001	 3.551355679565986e+000	 8.714289884649800e+000
 6.306540748760150e-001	 3.557883066526630e+000	 8.673016315933598e+000
 5.949274173065848e-001	 3.564031141115022e+000	 8.634848150142990e+000
 5.592555762742574e-001	 3.569802494852850e+000	 8.601497638017291e+000
 5.236438953982304e-001	 3.575199810423550e+000	 8.574682896331330e+000
 4.880976295777210e-001	 3.580225858745636e+000	 8.556329831456964e+000
 4.526219435634056e-001	 3.584883496030281e+000	 8.548749768640807e+000
 4.172219106303214e-001	 3.589175660826872e+000	 8.554795661819860e+000
 3.819025113514091e-001	 3.593105371060167e+000	 8.577999681785403e+000
 3.466686324707544e-001	 3.596675721062617e+000	 8.622694882842591e+000
 7.074329317256694e-001	 3.570605990095922e+000	 8.760896832544361e+000
 6.713486530270640e-001	 3.577566179662699e+000	 8.736172812082215e+000
 6.353085674670476e-001	 3.584141741487224e+000	 8.690298263761919e+000
 5.993182321231005e-001	 3.590335191454546e+000	 8.648749058027056e+000
 5.633831178853574e-001	 3.596149140212859e+000	 8.613159290718054e+000
 5.275086078111774e-001	 3.601586290244922e+000	 8.584928860989926e+000
 4.916999955831475e-001	 3.606649432919779e+000	 8.565715246306192e+000
 4.559624840699805e-001	 3.611341445528634e+000	 8.557598075665593e+000
 4.203011839896205e-001	 3.615665288308593e+000	 8.563222012846968e+000
 3.847211126737353e-001	 3.619624001457956e+000	 8.585920922331210e+000
 3.492271929326405e-001	 3.623220702146640e+000	 8.629826183884225e+000
 7.126158326152124e-001	 3.596765497411133e+000	 8.774794710914740e+000
 6.762671878802552e-001	 3.603776679759038e+000	 8.746759768745470e+000
 6.399630600582480e-001	 3.610400416447522e+000	 8.695405728912446e+000
 6.037090469397654e-001	 3.616639241793862e+000	 8.648797042434570e+000
 5.675106594965970e-001	 3.622495785572755e+000	 8.609084004291674e+000
 5.313733202242633e-001	 3.627972770066270e+000	 8.577323331838116e+000
 4.953023615887215e-001	 3.633073007093982e+000	 8.554883295827640e+000
 4.593030245767208e-001	 3.637799395027111e+000	 8.543594218903195e+000
 4.233804573491130e-001	 3.642154915790480e+000	 8.545877018417400e+000
 3.875397139962927e-001	 3.646142631855923e+000	 8.564852948677578e+000
 3.517857533948060e-001	 3.649765683230813e+000	 8.604437581591979e+000
 3.262001487885013e-001	 3.384315872393811e+000	 7.837908642563910e+000
 2.931266340559613e-001	 3.387340684071737e+000	 7.773029112784561e+000
 2.601426139203095e-001	 3.390033282652842e+000	 7.694152679872171e+000
 2.272524846770256e-001	 3.392396780883214e+000	 7.600620545727170e+000
 1.944605489001446e-001	 3.394434352328458e+000	 7.493313480463047e+000
 1.617710148445838e-001	 3.396149228576582e+000	 7.374804890512976e+000
 1.291879959367679e-001	 3.397544696455681e+000	 7.249505713671122e+000
 9.671551035186263e-002	 3.398624095269111e+000	 7.123802176974296e+000
 6.435748067584801e-002	 3.399390814050797e+000	 7.006187352373794e+000
 3.211773365058992e-002	 3.399848288843146e+000	 6.907387342340487e+000
 0.000000000000000e+000	 3.400000000000000e+000	 6.840482853452558e+000
 3.287587092473186e-001	 3.410860853477239e+000	 7.971035967913589e+000
 2.954257814294042e-001	 3.413909390354809e+000	 7.932621260656742e+000
 2.621830501619328e-001	 3.416623108412469e+000	 7.882086683993784e+000
 2.290349462228413e-001	 3.419005144811187e+000	 7.819037998865864e+000
 1.959858059335157e-001	 3.421058698008488e+000	 7.744586323777023e+000
 1.630398705564293e-001	 3.422787024939412e+000	 7.661495403654915e+000
 1.302012857817732e-001	 3.424193438212349e+000	 7.574321201916586e+000
 9.747410130137338e-002	 3.425281303322550e+000	 7.489544913722334e+000
 6.486227046811413e-002	 3.426054035885894e+000	 7.415700388974012e+000
 3.236965003900954e-002	 3.426515098895459e+000	 7.363496842308988e+000
 0.000000000000000e+000	 3.426668000003317e+000	 7.345937643679307e+000
 3.313172697066006e-001	 3.437405834560681e+000	 8.102038113863992e+000
 2.977249288031724e-001	 3.440478096637889e+000	 8.086736191523951e+000
 2.642234864037296e-001	 3.443212934172093e+000	 8.060472978643727e+000
 2.308174077686790e-001	 3.445613508739141e+000	 8.023121600912837e+000
 1.975110629667702e-001	 3.447683043688490e+000	 7.976025431777384e+000
 1.643087262680449e-001	 3.449424821302194e+000	 7.922138884639306e+000
 1.312145756264724e-001	 3.450842179968952e+000	 7.866161064448221e+000
 9.823269225055142e-002	 3.451938511375908e+000	 7.814663441785223e+000
 6.536706026008206e-002	 3.452717257720900e+000	 7.776212594165829e+000
 3.262156642723804e-002	 3.453181908947675e+000	 7.761488939110933e+000
 0.000000000000000e+000	 3.453336000006534e+000	 7.783402289810374e+000
 3.338758301663242e-001	 3.463950815644158e+000	 8.226887286987681e+000
 3.000240761772671e-001	 3.467046802920988e+000	 8.231287585234275e+000
 2.662639226457272e-001	 3.469802759931711e+000	 8.225271404507241e+000
 2.325998693145919e-001	 3.472221872667063e+000	 8.208988272412032e+000
 1.990363199999835e-001	 3.474307389368425e+000	 8.184021737813819e+000
 1.655775819795223e-001	 3.476062617664880e+000	 8.153522977584762e+000
 1.322278654709655e-001	 3.477490921725428e+000	 8.122337840751520e+000
 9.899128319949395e-002	 3.478595719429112e+000	 8.097128561336447e+000
 6.587185005183281e-002	 3.479380479555727e+000	 8.086491243475898e+000
 3.287348281532490e-002	 3.479848718999696e+000	 8.101070092886120e+000
 0.000000000000000e+000	 3.480004000009550e+000	 8.153669264517214e+000
 3.364343906264664e-001	 3.490495796727684e+000	 8.341627318060302e+000
 3.023232235516898e-001	 3.493615509204113e+000	 8.362267127855446e+000
 2.683043588879539e-001	 3.496392585691322e+000	 8.372525463963898e+000
 2.343823308606334e-001	 3.498830236594935e+000	 8.372843734468903e+000
 2.005615770332314e-001	 3.500931735048263e+000	 8.365059804978387e+000
 1.668464376909535e-001	 3.502700414027417e+000	 8.352533678923347e+000
 1.332411553153525e-001	 3.504139663481709e+000	 8.340267236967257e+000
 9.974987414829804e-002	 3.505252927482079e+000	 8.335019338250916e+000
 6.637663984344758e-002	 3.506043701390285e+000	 8.345417448628741e+000
 3.312539920331965e-002	 3.506515529051426e+000	 8.382066821808024e+000
 0.000000000000000e+000	 3.506672000012267e+000	 8.457658144076317e+000
 3.389929510870036e-001	 3.517040777811276e+000	 8.442370281630918e+000
 3.046223709264421e-001	 3.520184215487275e+000	 8.475740746050235e+000
 2.703447951304372e-001	 3.522982411450922e+000	 8.498358214427277e+000
 2.361647924068568e-001	 3.525438600522739e+000	 8.510978109096946e+000
 2.020868340665892e-001	 3.527556080727968e+000	 8.515713185335926e+000
 1.681152934024304e-001	 3.529338210389758e+000	 8.516150511104321e+000
 1.342544451597333e-001	 3.530788405237732e+000	 8.517463173306677e+000
 1.005084650970608e-001	 3.531910135534731e+000	 8.526518087992789e+000
 6.688142963500743e-002	 3.532706923224484e+000	 8.551981144085564e+000
 3.337731559127178e-002	 3.533182339102767e+000	 8.604420760742709e+000
 0.000000000000000e+000	 3.533340000014583e+000	 8.696410811773932e+000
 3.415515115479128e-001	 3.543585758894952e+000	 8.525293286051227e+000
 3.069215183015248e-001	 3.546752921770477e+000	 8.567845027576947e+000
 2.723852313732049e-001	 3.549572237210508e+000	 8.598968361053839e+000
 2.379472539533155e-001	 3.552046964450460e+000	 8.619761729749337e+000
 2.036120911001327e-001	 3.554180426407511e+000	 8.632639997672213e+000
 1.693841491140451e-001	 3.555976006751856e+000	 8.641441920678188e+000
 1.352677350042077e-001	 3.557437146993432e+000	 8.651533059187013e+000
 1.012670560458795e-001	 3.558567343586992e+000	 8.669905588031305e+000
 6.738621942659344e-002	 3.559370145058234e+000	 8.705276300367887e+000
 3.362923197923080e-002	 3.559849149153621e+000	 8.768183942378952e+000
 0.000000000000000e+000	 3.560008000016400e+000	 8.871086876899490e+000
 3.441100720091707e-001	 3.570130739978726e+000	 8.586635425099505e+000
 3.092206656769397e-001	 3.573321628053737e+000	 8.634783818227259e+000
 2.744256676162847e-001	 3.576162062970079e+000	 8.670626538450449e+000
 2.397297155000628e-001	 3.578655328378078e+000	 8.695641151091078e+000
 2.051373481339373e-001	 3.580804772086860e+000	 8.712578712399969e+000
 1.706530048258894e-001	 3.582613803113661e+000	 8.725560889077254e+000
 1.362810248488758e-001	 3.584085888748746e+000	 8.740173284229716e+000
 1.020256469948511e-001	 3.585224551638781e+000	 8.763556506888941e+000
 6.789100921828675e-002	 3.586033366891444e+000	 8.804496352357793e+000
 3.388114836724623e-002	 3.586515959203891e+000	 8.873514289255702e+000
 0.000000000000000e+000	 3.586676000017616e+000	 8.982959298107208e+000
 3.466686324707544e-001	 3.596675721062617e+000	 8.622694882842593e+000
 3.115198130526881e-001	 3.599890334337057e+000	 8.672824986087313e+000
 2.764661038597043e-001	 3.602751888729631e+000	 8.709671771615367e+000
 2.415121770471519e-001	 3.605263692305579e+000	 8.735135347720467e+000
 2.066626051680787e-001	 3.607429117765979e+000	 8.752344132907252e+000
 1.719218605380552e-001	 3.609251599475122e+000	 8.765740745105731e+000
 1.372943146938375e-001	 3.610734630503607e+000	 8.781164913974445e+000
 1.027842379440727e-001	 3.611881759690019e+000	 8.805935038626908e+000
 6.839579901016848e-002	 3.612696588724027e+000	 8.848929831478909e+000
 3.413306475536757e-002	 3.613182769253480e+000	 8.920671305795263e+000
 0.000000000000000e+000	 3.613344000018133e+000	 9.033410200584575e+000
 3.492271929326405e-001	 3.623220702146640e+000	 8.629826183884225e+000
 3.138189604287714e-001	 3.626459040620449e+000	 8.678297344537306e+000
 2.785065401034917e-001	 3.629341714489163e+000	 8.712508106918000e+000
 2.432946385946362e-001	 3.631872056232944e+000	 8.734832092150324e+000
 2.081878622026324e-001	 3.634053463444836e+000	 8.748823563283677e+000
 1.731907162506346e-001	 3.635889395836193e+000	 8.759291168796494e+000
 1.383076045391927e-001	 3.637383372257950e+000	 8.772369579804071e+000
 1.035428288936416e-001	 3.638538967740630e+000	 8.795590732238427e+000
 6.890058880231974e-002	 3.639359810555891e+000	 8.837956191291745e+000
 3.438498114364431e-002	 3.639849579302291e+000	 8.910011960078313e+000
 0.000000000000000e+000	 3.640012000017849e+000	 9.023926877090583e+000
 3.517857533948060e-001	 3.649765683230813e+000	 8.604437581591981e+000
 3.161181078051911e-001	 3.653027746903922e+000	 8.647587725911755e+000
 2.805469763476744e-001	 3.655931540248671e+000	 8.675601404463304e+000
 2.450771001425693e-001	 3.658480420160160e+000	 8.691384502920421e+000
 2.097131192376740e-001	 3.660677809123401e+000	 8.698973152930240e+000
 1.744595719637193e-001	 3.662527192196825e+000	 8.703594376888530e+000
 1.393208943850413e-001	 3.664032114011715e+000	 8.711725553199337e+000
 1.043014198436549e-001	 3.665196175790535e+000	 8.731154506019941e+000
 6.940537859482161e-002	 3.666023032386947e+000	 8.771041816663662e+000
 3.463689753212598e-002	 3.666516389350227e+000	 8.841986745703398e+000
 0.000000000000000e+000	 3.666680000016666e+000	 8.956097963503531e+000
 3.666680000016666e+000	 0.000000000000000e+000	 1.049764831923998e+001
 3.666516389350228e+000	 3.463689753212493e-002	 1.057579036401412e+001
 3.666023032386948e+000	 6.940537859482067e-002	 1.061290187873687e+001
 3.665196175790535e+000	 1.043014198436540e-001	 1.062007297869524e+001
 3.664032114011716e+000	 1.393208943850406e-001	 1.060766780696642e+001
 3.662527192196825e+000	 1.744595719637187e-001	 1.058532312802694e+001
 3.660677809123401e+000	 2.097131192376734e-001	 1.056194586695875e+001
 3.658480420160159e+000	 2.450771001425689e-001	 1.054570988629956e+001
 3.655931540248671e+000	 2.805469763476741e-001	 1.054405234564158e+001
 3.653027746903921e+000	 3.161181078051908e-001	 1.056367005545448e+001
 3.649765683230814e+000	 3.517857533948059e-001	 1.061051630468574e+001
 3.693344000014533e+000	 0.000000000000000e+000	 1.050309462347581e+001
 3.693179199575722e+000	 3.488877613527523e-002	 1.058235495136305e+001
 3.692682254933839e+000	 6.991009267304311e-002	 1.061997233825209e+001
 3.691849385458404e+000	 1.050598970112210e-001	 1.062712033221764e+001
 3.690676858653458e+000	 1.403340322455685e-001	 1.061425408999787e+001
 3.689160993087310e+000	 1.757282373585244e-001	 1.059110706012388e+001
 3.687298161349476e+000	 2.112381474961305e-001	 1.056668621132123e+001
 3.685084793032176e+000	 2.468592943351136e-001	 1.054926610098917e+001
 3.682517377733704e+000	 2.825871065421270e-001	 1.054638213609330e+001
 3.679592468080790e+000	 3.184169103270726e-001	 1.056482344921538e+001
 3.676306682767058e+000	 3.543439300923416e-001	 1.061062588479087e+001
 3.720008000011599e+000	 0.000000000000000e+000	 1.049994969773174e+001
 3.719842009800440e+000	 3.514065473862902e-002	 1.058055659618662e+001
 3.719341477480015e+000	 7.041480675161087e-002	 1.061921029036325e+001
 3.718502595125647e+000	 1.058183741792211e-001	 1.062708145241204e+001
 3.717321603294685e+000	 1.413471701065709e-001	 1.061463538110536e+001
 3.715794793977405e+000	 1.769969027538079e-001	 1.059162686920216e+001
 3.713918513575290e+000	 2.127631757550383e-001	 1.056709319127263e+001
 3.711689165904061e+000	 2.486414885280598e-001	 1.054934550898216e+001
 3.709103215218714e+000	 2.846272367369182e-001	 1.054595905298867e+001
 3.706157189257729e+000	 3.207157128492246e-001	 1.056376251522625e+001
 3.702847682303435e+000	 3.569021067900821e-001	 1.060882716199600e+001
 3.746672000008066e+000	 0.000000000000000e+000	 1.049189599450648e+001
 3.746504820024574e+000	 3.539253334213541e-002	 1.057365996318958e+001
 3.746000700025651e+000	 7.091952083043755e-002	 1.061347986559272e+001
 3.745155804792419e+000	 1.065768513475459e-001	 1.062243927714771e+001
 3.743966347935525e+000	 1.423603079679293e-001	 1.061093502325213e+001
 3.742428594867207e+000	 1.782655681494497e-001	 1.058867032138353e+001
 3.740538865800909e+000	 2.142882040142841e-001	 1.056464559337601e+001
 3.738293538775842e+000	 2.504236827213071e-001	 1.054714724646224e+001
 3.735689052703710e+000	 2.866673669319633e-001	 1.054373478864812e+001
 3.732721910434723e+000	 3.230145153715789e-001	 1.056122672295951e+001
 3.729388681839912e+000	 3.594602834879762e-001	 1.060568574630195e+001
 3.773336000004134e+000	 0.000000000000000e+000	 1.048232243232994e+001
 3.773167630248318e+000	 3.564441194574354e-002	 1.056468571659989e+001
 3.772659922570928e+000	 7.142423490943685e-002	 1.060544719475572e+001
 3.771809014458875e+000	 1.073353285160872e-001	 1.061552119700274e+001
 3.770611092576107e+000	 1.433734458295249e-001	 1.060515970673992e+001
 3.769062395756812e+000	 1.795342335453302e-001	 1.058394386375451e+001
 3.767159218026396e+000	 2.158132322737550e-001	 1.056077266076152e+001
 3.764897911647557e+000	 2.522058769147550e-001	 1.054384913291100e+001
 3.762274890188694e+000	 2.887074971271775e-001	 1.054066441181221e+001
 3.759286631611750e+000	 3.253133178940683e-001	 1.055798009912370e+001
 3.755929681376454e+000	 3.620184601859726e-001	 1.060180950069248e+001
 3.800000000000000e+000	 0.000000000000000e+000	 1.047433469417105e+001
 3.799830440471870e+000	 3.589629054940255e-002	 1.055641962421345e+001
 3.799319145116026e+000	 7.192894898852251e-002	 1.059758835869200e+001
 3.798462224125176e+000	 1.080938056847368e-001	 1.060850589285807e+001
 3.797255837216560e+000	 1.443865836912391e-001	 1.059920523900399e+001
 3.795696196646321e+000	 1.808028989413303e-001	 1.057907737289035e+001
 3.793779570251819e+000	 2.173382605333389e-001	 1.055685786913493e+001
 3.791502284519237e+000	 2.539880711083034e-001	 1.054061052560571e+001
 3.788860727673674e+000	 2.907476273224764e-001	 1.053770835391030e+001
 3.785851352788797e+000	 3.276121204166252e-001	 1.055481240128050e+001
 3.782470680913030e+000	 3.645766368840201e-001	 1.059784895999143e+001
 3.826663999995867e+000	 0.000000000000000e+000	 1.047076509529250e+001
 3.826493250695418e+000	 3.614816915306154e-002	 1.055142128031658e+001
 3.825978367661123e+000	 7.243366306760815e-002	 1.059219700365008e+001
 3.825115433791474e+000	 1.088522828533864e-001	 1.060342988318996e+001
 3.823900581857012e+000	 1.453997215529534e-001	 1.059486206535574e+001
 3.822329997535829e+000	 1.820715643373304e-001	 1.057562869272172e+001
 3.820399922477242e+000	 2.188632887929226e-001	 1.055424252760166e+001
 3.818106657390919e+000	 2.557702653018517e-001	 1.053857503142336e+001
 3.815446565158653e+000	 2.927877575177752e-001	 1.053583428208430e+001
 3.812416073965843e+000	 3.299109229391820e-001	 1.055254020456409e+001
 3.809011680449606e+000	 3.671348135820680e-001	 1.059449768601071e+001
 3.853327999991934e+000	 0.000000000000000e+000	 1.047418204140828e+001
 3.853156060919163e+000	 3.640004775666968e-002	 1.055203246595470e+001
 3.852637590206401e+000	 7.293837714660749e-002	 1.059139163851989e+001
 3.851768643457932e+000	 1.096107600219278e-001	 1.060219379512284e+001
 3.850545326497594e+000	 1.464128594145490e-001	 1.059382055274019e+001
 3.848963798425435e+000	 1.833402297332110e-001	 1.057508797194956e+001
 3.847020274702730e+000	 2.203883170523936e-001	 1.055422921279264e+001
 3.844711030262634e+000	 2.575524594952997e-001	 1.053887308286434e+001
 3.842032402643639e+000	 2.948278877129895e-001	 1.053601886445307e+001
 3.838980795142870e+000	 3.322097254616713e-001	 1.055200790571317e+001
 3.835552679986149e+000	 3.696929902800644e-001	 1.059249256207972e+001
 3.879991999988402e+000	 0.000000000000000e+000	 1.048689909685293e+001
 3.879818871143298e+000	 3.665192636017606e-002	 1.056038516398591e+001
 3.879296812752037e+000	 7.344309122543419e-002	 1.059712262921966e+001
 3.878421853124702e+000	 1.103692371902526e-001	 1.060656837252826e+001
 3.877190071138433e+000	 1.474259972759073e-001	 1.059767604790396e+001
 3.875597599315237e+000	 1.846088951288528e-001	 1.057888181064722e+001
 3.873640626928348e+000	 2.219133453116393e-001	 1.055808504431032e+001
 3.871315403134415e+000	 2.593346536885469e-001	 1.054262438482522e+001
 3.868618240128635e+000	 2.968680179080345e-001	 1.053924943280118e+001
 3.865545516319863e+000	 3.345085279840257e-001	 1.055408864839332e+001
 3.862093679522626e+000	 3.722511669779586e-001	 1.059261402986867e+001
 3.906655999985469e+000	 0.000000000000000e+000	 1.051098368139425e+001
 3.906481681368015e+000	 3.690380496352987e-002	 1.057840924541437e+001
 3.905956035298213e+000	 7.394780530400191e-002	 1.061117890470406e+001
 3.905075062791944e+000	 1.111277143582526e-001	 1.061820023373783e+001
 3.903834815779661e+000	 1.484391351369098e-001	 1.060793372075691e+001
 3.902231400205331e+000	 1.858775605241363e-001	 1.058837722517041e+001
 3.900260979154164e+000	 2.234383735705472e-001	 1.056704480907693e+001
 3.897919776006299e+000	 2.611168478814931e-001	 1.055094023829899e+001
 3.895204077613645e+000	 2.989081481028257e-001	 1.054652554759364e+001
 3.892110237496803e+000	 3.368073305061777e-001	 1.055968517356945e+001
 3.888634679059003e+000	 3.748093436756990e-001	 1.059568627126568e+001
 3.933319999983334e+000	 0.000000000000000e+000	 1.054826541331202e+001
 3.933144491593509e+000	 3.715568356668014e-002	 1.060783984260634e+001
 3.932615257845103e+000	 7.445251938222434e-002	 1.063519438827994e+001
 3.931728272459813e+000	 1.118861915258195e-001	 1.063861739074684e+001
 3.930479560421401e+000	 1.494522729974376e-001	 1.062601320311595e+001
 3.928865201095816e+000	 1.871462259189419e-001	 1.060488543999455e+001
 3.926881331380237e+000	 2.249634018290041e-001	 1.058231394175436e+001
 3.924524148878315e+000	 2.628990420740378e-001	 1.056492574683885e+001
 3.921789915098675e+000	 3.009482782972785e-001	 1.055886046995116e+001
 3.918674958673671e+000	 3.391061330280594e-001	 1.056973059848734e+001
 3.915175678595246e+000	 3.773675203732345e-001	 1.060257733791419e+001
 3.649765683230814e+000	 3.517857533948059e-001	 1.061051630468574e+001
 3.646142631855922e+000	 3.875397139962904e-001	 1.066081051799026e+001
 3.642154915790480e+000	 4.233804573491111e-001	 1.069064637144749e+001
 3.637799395027111e+000	 4.593030245767192e-001	 1.070466130684918e+001
 3.633073007093982e+000	 4.953023615887202e-001	 1.070677585472075e+001
 3.627972770066270e+000	 5.313733202242622e-001	 1.070020102207537e+001
 3.622495785572755e+000	 5.675106594965962e-001	 1.068745041743055e+001
 3.616639241793861e+000	 6.037090469397648e-001	 1.067035806735046e+001
 3.610400416447523e+000	 6.399630600582478e-001	 1.065010293757789e+001
 3.603776679759039e+000	 6.762671878802551e-001	 1.062881399637558e+001
 3.596765497411132e+000	 7.126158326152126e-001	 1.063896355571779e+001
 3.676306682767058e+000	 3.543439300923416e-001	 1.061062588479086e+001
 3.672657284658395e+000	 3.903578925499764e-001	 1.066007501459453e+001
 3.668640570027082e+000	 4.264592688408319e-001	 1.068920959656689e+001
 3.664253376031719e+000	 4.626430640275383e-001	 1.070255732213567e+001
 3.659492617930285e+000	 4.989041872664871e-001	 1.070392376369168e+001
 3.654355292113508e+000	 5.352374529595348e-001	 1.069639528434353e+001
 3.648838479133310e+000	 5.716375820076131e-001	 1.068234649097683e+001
 3.642939346722671e+000	 6.080992031672106e-001	 1.066345322986493e+001
 3.636655152803183e+000	 6.446168545105615e-001	 1.064071218730063e+001
 3.629983248476528e+000	 6.811849849902318e-001	 1.061788211449452e+001
 3.622921080995962e+000	 7.177979561086599e-001	 1.062826657303543e+001
 3.702847682303435e+000	 3.569021067900821e-001	 1.060882716199600e+001
 3.699171937461023e+000	 3.931760711038121e-001	 1.065767731038343e+001
 3.695126224263829e+000	 4.295380803326592e-001	 1.068647835316797e+001
 3.690707357036439e+000	 4.659831034784319e-001	 1.069962106563675e+001
 3.685912228766642e+000	 5.025060129443073e-001	 1.070077197556533e+001
 3.680737814160723e+000	 5.391015856948496e-001	 1.069287158506207e+001
 3.675181172693760e+000	 5.757645045186709e-001	 1.067813692135618e+001
 3.669239451651285e+000	 6.124893593947066e-001	 1.065806946216404e+001
 3.662909889158565e+000	 6.492706489629427e-001	 1.063346954911257e+001
 3.656189817193663e+000	 6.861027821003027e-001	 1.061023492686875e+001
 3.649076664580380e+000	 7.229800796022363e-001	 1.062083526939258e+001
 3.729388681839912e+000	 3.594602834879762e-001	 1.060568574630195e+001
 3.725686590263769e+000	 3.959942496577604e-001	 1.065402944440971e+001
 3.721611878500689e+000	 4.326168918245666e-001	 1.068271322624692e+001
 3.717161338041240e+000	 4.693231429293813e-001	 1.069596703235390e+001
 3.712331839603034e+000	 5.061078386221669e-001	 1.069729761790227e+001
 3.707120336207918e+000	 5.429657184301958e-001	 1.068948186330679e+001
 3.701523866254123e+000	 5.798914270297598e-001	 1.067456417810685e+001
 3.695539556579746e+000	 6.168795156222396e-001	 1.065385909157834e+001
 3.689164625513728e+000	 6.539244434153748e-001	 1.062796019621939e+001
 3.682396385910518e+000	 6.910205792104441e-001	 1.060527699274469e+001
 3.675232248164469e+000	 7.281622030959102e-001	 1.061604102418689e+001
 3.755929681376454e+000	 3.620184601859726e-001	 1.060180950069248e+001
 3.752201243066594e+000	 3.988124282117838e-001	 1.064960055407240e+001
 3.748097532737622e+000	 4.356957033165273e-001	 1.067824454366698e+001
 3.743615319046093e+000	 4.726631823803678e-001	 1.069178995400089e+001
 3.738751450439450e+000	 5.097096643000532e-001	 1.069356645272828e+001
 3.733502858255095e+000	 5.468298511655628e-001	 1.068617305304930e+001
 3.727866559814423e+000	 5.840183495408691e-001	 1.067147011146753e+001
 3.721839661508096e+000	 6.212696718497973e-001	 1.065057630366510e+001
 3.715419361868731e+000	 6.585782378678405e-001	 1.062387179900364e+001
 3.708602954627166e+000	 6.959383763206331e-001	 1.060251408919943e+001
 3.701387831748314e+000	 7.333443265896488e-001	 1.061335863516725e+001
 3.782470680913030e+000	 3.645766368840201e-001	 1.059784895999143e+001
 3.778715895869458e+000	 4.016306067658446e-001	 1.064491657835590e+001
 3.774583186974591e+000	 4.387745148085147e-001	 1.067347138381307e+001
 3.770069300050975e+000	 4.760032218313730e-001	 1.068736313323443e+001
 3.765171061275876e+000	 5.133114899779527e-001	 1.068973056166355e+001
 3.759885380302258e+000	 5.506939839009404e-001	 1.068298414569191e+001
 3.754209253374685e+000	 5.881452720519884e-001	 1.066879242103592e+001
 3.748139766436377e+000	 6.256598280773676e-001	 1.064807304793613e+001
 3.741674098223633e+000	 6.632320323203234e-001	 1.062098990100756e+001
 3.734809523343684e+000	 7.008561734308453e-001	 1.060155030935916e+001
 3.727543415331994e+000	 7.385264500834197e-001	 1.061236314592121e+001
 3.809011680449606e+000	 3.671348135820680e-001	 1.059449768601071e+001
 3.805230548672322e+000	 4.044487853199054e-001	 1.064055991822252e+001
 3.801068841211559e+000	 4.418533263005020e-001	 1.066886055977130e+001
 3.796523281055853e+000	 4.793432612823781e-001	 1.068303677225132e+001
 3.791590672112294e+000	 5.169133156558521e-001	 1.068602604168633e+001
 3.786267902349411e+000	 5.545581166363182e-001	 1.068004327789430e+001
 3.780551946934928e+000	 5.922721945631081e-001	 1.066656116272168e+001
 3.774439871364630e+000	 6.300499843049380e-001	 1.064629499318933e+001
 3.767928834578494e+000	 6.678858267728060e-001	 1.061920881063506e+001
 3.761016092060141e+000	 7.057739705410575e-001	 1.060208522760536e+001
 3.753698998915594e+000	 7.437085735771905e-001	 1.061272674636251e+001
 3.835552679986149e+000	 3.696929902800644e-001	 1.059249256207972e+001
 3.831745201475147e+000	 4.072669638739287e-001	 1.063716905623360e+001
 3.827554495448491e+000	 4.449321377924627e-001	 1.066494558117091e+001
 3.822977262060702e+000	 4.826833007333646e-001	 1.067923629602624e+001
 3.818010282948695e+000	 5.205151413337386e-001	 1.068277071101947e+001
 3.812650424396558e+000	 5.584222493716853e-001	 1.067756484346677e+001
 3.806894640495176e+000	 5.963991170742170e-001	 1.066489529213862e+001
 3.800739976292896e+000	 6.344401405324956e-001	 1.064527753004114e+001
 3.794183570933372e+000	 6.725396212252716e-001	 1.061879088986160e+001
 3.787222660776614e+000	 7.106917676512462e-001	 1.060391112852492e+001
 3.779854582499195e+000	 7.488906970709290e-001	 1.061421574268143e+001
 3.862093679522626e+000	 3.722511669779586e-001	 1.059261402986867e+001
 3.858259854277894e+000	 4.100851424278770e-001	 1.063543813736067e+001
 3.854040149685347e+000	 4.480109492843700e-001	 1.066232559476329e+001
 3.849431243065491e+000	 4.860233401843139e-001	 1.067646067044634e+001
 3.844429893785062e+000	 5.241169670115982e-001	 1.068036182464870e+001
 3.839032946443703e+000	 5.622863821070315e-001	 1.067584662817268e+001
 3.833237334055453e+000	 6.005260395853057e-001	 1.066399924268296e+001
 3.827040081221220e+000	 6.388302967600287e-001	 1.064514181838879e+001
 3.820438307288330e+000	 6.771934156777039e-001	 1.061980941057276e+001
 3.813429229493174e+000	 7.156095647613880e-001	 1.060691029653685e+001
 3.806010166082879e+000	 7.540728205646027e-001	 1.061668759341742e+001
 3.888634679059003e+000	 3.748093436756990e-001	 1.059568627126568e+001
 3.884774507080522e+000	 4.129033209817128e-001	 1.063611651284243e+001
 3.880525803922091e+000	 4.510897607761976e-001	 1.066166430475497e+001
 3.875885224070195e+000	 4.893633796352076e-001	 1.067528071558814e+001
 3.870849504621382e+000	 5.277187926894181e-001	 1.067927379901700e+001
 3.865415468490847e+000	 5.661505148423462e-001	 1.067526696634505e+001
 3.859580027615782e+000	 6.046529620963639e-001	 1.066415953663939e+001
 3.853340186149641e+000	 6.432204529875244e-001	 1.064609087765439e+001
 3.846693043643425e+000	 6.818472101300850e-001	 1.062227977062588e+001
 3.839635798209899e+000	 7.205273618714591e-001	 1.061105236329667e+001
 3.832165749666732e+000	 7.592549440581793e-001	 1.062008800849387e+001
 3.915175678595246e+000	 3.773675203732345e-001	 1.060257733791419e+001
 3.911289159882991e+000	 4.157214995353988e-001	 1.064000824883908e+001
 3.907011458158685e+000	 4.541685722679181e-001	 1.066368887385432e+001
 3.902339205074782e+000	 4.927034190860265e-001	 1.067633741436664e+001
 3.897269115457639e+000	 5.313206183671850e-001	 1.068005594545587e+001
 3.891797990537994e+000	 5.700146475776190e-001	 1.067628191828213e+001
 3.885922721176182e+000	 6.087798846073808e-001	 1.066574142774892e+001
 3.879640291078203e+000	 6.476106092149703e-001	 1.064840571778128e+001
 3.872947779998714e+000	 6.865010045823986e-001	 1.062630005330084e+001
 3.865842366926856e+000	 7.254451589814353e-001	 1.061639171013697e+001
 3.858321333250832e+000	 7.644370675516263e-001	 1.062444810822770e+001
 3.596765497411132e+000	 7.126158326152126e-001	 1.063896355571780e+001
 3.589363294351825e+000	 7.490087713011586e-001	 1.066995818917199e+001
 3.581568760153286e+000	 7.854347785535488e-001	 1.069803735997794e+001
 3.573379666514728e+000	 8.218879957891511e-001	 1.072454371842742e+001
 3.564793892237348e+000	 8.583624850557750e-001	 1.075039261021769e+001
 3.555809426018734e+000	 8.948522312174626e-001	 1.077606956599291e+001
 3.546424369203119e+000	 9.313511442442010e-001	 1.080162969492436e+001
 3.536636938483258e+000	 9.678530616055534e-001	 1.082669926313622e+001
 3.526445468549741e+000	 1.004351750767449e+000	 1.085047974706742e+001
 3.515848414683465e+000	 1.040840911791156e+000	 1.087174990983142e+001
 3.504844355287081e+000	 1.077314180033311e+000	 1.088889656043724e+001
 3.622921080995962e+000	 7.177979561086599e-001	 1.062826657303543e+001
 3.615465049311848e+000	 7.544555432825083e-001	 1.065863407593202e+001
 3.607613833466946e+000	 7.911464394965302e-001	 1.068672634995510e+001
 3.599365188956309e+000	 8.278647435640271e-001	 1.071379757729114e+001
 3.590716979155809e+000	 8.646044743521746e-001	 1.074067298866979e+001
 3.581667178136879e+000	 9.013595729831022e-001	 1.076774528560941e+001
 3.572213873436759e+000	 9.381239051402550e-001	 1.079497294454606e+001
 3.562355268780022e+000	 9.748912634794354e-001	 1.082188069795283e+001
 3.552089686747149e+000	 1.011655370143746e+000	 1.084755604490823e+001
 3.541415571385863e+000	 1.048409879381463e+000	 1.087068316792237e+001
 3.530331490760975e+000	 1.085148380265702e+000	 1.088950535606113e+001
 3.649076664580380e+000	 7.229800796022363e-001	 1.062083526939258e+001
 3.641566804271423e+000	 7.599023152640307e-001	 1.065045554653158e+001
 3.633658906780144e+000	 7.968581004397330e-001	 1.067835434978755e+001
 3.625350711397429e+000	 8.338414913391794e-001	 1.070570507731665e+001
 3.616640066073833e+000	 8.708464636489086e-001	 1.073325217846111e+001
 3.607524930254624e+000	 9.078669147491354e-001	 1.076130643724383e+001
 3.598003377670048e+000	 9.448966660367630e-001	 1.078974210957066e+001
 3.588073599076492e+000	 9.819294653538296e-001	 1.081799622406225e+001
 3.577733904944332e+000	 1.018958989520610e+000	 1.084506473699851e+001
 3.566982728088108e+000	 1.055978846972389e+000	 1.086953174908743e+001
 3.555818626234796e+000	 1.092982580498757e+000	 1.088953655758290e+001
 3.675232248164469e+000	 7.281622030959102e-001	 1.061604102418689e+001
 3.667668559230637e+000	 7.653490872456819e-001	 1.064478061462064e+001
 3.659703980092960e+000	 8.025697613831025e-001	 1.067227413405640e+001
 3.651336233838165e+000	 8.398182391145393e-001	 1.069962251543548e+001
 3.642563152991476e+000	 8.770884529458933e-001	 1.072749941101718e+001
 3.633382682372006e+000	 9.143742565154636e-001	 1.075614526153482e+001
 3.623792881903002e+000	 9.516694269336106e-001	 1.078536318466594e+001
 3.613791929372667e+000	 9.889676672286080e-001	 1.081451700809104e+001
 3.603378123141264e+000	 1.026262608897900e+000	 1.084252688883133e+001
 3.592549884790161e+000	 1.063547814563779e+000	 1.086789410350415e+001
 3.581305761708479e+000	 1.100816780732308e+000	 1.088867203798316e+001
 3.701387831748314e+000	 7.333443265896488e-001	 1.061335863516725e+001
 3.693770314189572e+000	 7.707958592274198e-001	 1.064107165646321e+001
 3.685749053405477e+000	 8.082814223265832e-001	 1.066794290080793e+001
 3.677321756278585e+000	 8.457949868900374e-001	 1.069500981633117e+001
 3.668486239908798e+000	 8.833304422430450e-001	 1.072288592149172e+001
 3.659240434489071e+000	 9.208815982819895e-001	 1.075175358008423e+001
 3.649582386135648e+000	 9.584421878306852e-001	 1.078135855474962e+001
 3.639510259668551e+000	 9.960058691036423e-001	 1.081100668016704e+001
 3.629022341337930e+000	 1.033566228275475e+000	 1.083955876917833e+001
 3.618117041491970e+000	 1.071116782155478e+000	 1.086545121551145e+001
 3.606792897181959e+000	 1.108650980966191e+000	 1.088667027064024e+001
 3.727543415331994e+000	 7.385264500834197e-001	 1.061236314592121e+001
 3.719872069148313e+000	 7.762426312092003e-001	 1.063889199535879e+001
 3.711794126717773e+000	 8.139930832701190e-001	 1.066491862877738e+001
 3.703307278718762e+000	 8.517717346656040e-001	 1.069142667869688e+001
 3.694409326825859e+000	 8.895724315402805e-001	 1.071898090064757e+001
 3.685098186605857e+000	 9.273889400486132e-001	 1.074771856990451e+001
 3.675371890368007e+000	 9.652149487278735e-001	 1.077734260928890e+001
 3.665228589964140e+000	 1.003044070978804e+000	 1.080711680569348e+001
 3.654666559534302e+000	 1.040869847653191e+000	 1.083585982729165e+001
 3.643684198193496e+000	 1.078685749747331e+000	 1.086196184448070e+001
 3.632280032655170e+000	 1.116485181200241e+000	 1.088336148243931e+001
 3.753698998915594e+000	 7.437085735771905e-001	 1.061272674636251e+001
 3.745973824106949e+000	 7.816894031909811e-001	 1.063790256375909e+001
 3.737839200029932e+000	 8.197047442136548e-001	 1.066285651619747e+001
 3.729292801158767e+000	 8.577484824411710e-001	 1.068852880616332e+001
 3.720332413742716e+000	 8.958144208375155e-001	 1.071544753369219e+001
 3.710955938722407e+000	 9.338962818152372e-001	 1.074371862630303e+001
 3.701161394600098e+000	 9.719877096250620e-001	 1.077301744572477e+001
 3.690946920259437e+000	 1.010082272853967e+000	 1.080258244614102e+001
 3.680310777730362e+000	 1.048173467030907e+000	 1.083120812822208e+001
 3.669251354894697e+000	 1.086254717339184e+000	 1.085725785214087e+001
 3.657767168128049e+000	 1.124319381434289e+000	 1.087864289088448e+001
 3.779854582499195e+000	 7.488906970709290e-001	 1.061421574268143e+001
 3.772075579065561e+000	 7.871361751727187e-001	 1.063785863931637e+001
 3.763884273342034e+000	 8.254164051571354e-001	 1.066150549724010e+001
 3.755278323598676e+000	 8.637252302166688e-001	 1.068606421879550e+001
 3.746255500659427e+000	 9.020564101346673e-001	 1.071203912185341e+001
 3.736813690838762e+000	 9.404036235817624e-001	 1.073951930991952e+001
 3.726950898831945e+000	 9.787604705221366e-001	 1.076816865770214e+001
 3.716665250554442e+000	 1.017120474729001e+000	 1.079721349888265e+001
 3.705954995926086e+000	 1.055477086408480e+000	 1.082545587199621e+001
 3.694818511595526e+000	 1.093823684930883e+000	 1.085123961216977e+001
 3.683254303600528e+000	 1.132153581668172e+000	 1.087247402114652e+001
 3.806010166082879e+000	 7.540728205646027e-001	 1.061668759341742e+001
 3.798177334024236e+000	 7.925829471543703e-001	 1.063860665130657e+001
 3.789929346654160e+000	 8.311280661005048e-001	 1.066070483235617e+001
 3.781263846038558e+000	 8.697019779920285e-001	 1.068386964128262e+001
 3.772178587576051e+000	 9.082983994316517e-001	 1.070859528271712e+001
 3.762671442954965e+000	 9.469109653480909e-001	 1.073496937386800e+001
 3.752740403063570e+000	 9.855332314189843e-001	 1.076266120402771e+001
 3.742383580849157e+000	 1.024158676603780e+000	 1.079090823523978e+001
 3.731599214121452e+000	 1.062780705785771e+000	 1.081852499261928e+001
 3.720385668295939e+000	 1.101392652522273e+000	 1.084387149809375e+001
 3.708741439072548e+000	 1.139987781901724e+000	 1.086487209919937e+001
 3.832165749666732e+000	 7.592549440581793e-001	 1.062008800849387e+001
 3.824279088983057e+000	 7.980297191358922e-001	 1.064008105406485e+001
 3.815974419966392e+000	 8.368397270437079e-001	 1.066038076898314e+001
 3.807249368478485e+000	 8.756787257671811e-001	 1.068186696415677e+001
 3.798101674492648e+000	 9.145403887283862e-001	 1.070503822556264e+001
 3.788529195071055e+000	 9.534183071141239e-001	 1.072999686715636e+001
 3.778529907294995e+000	 9.923059923154918e-001	 1.075643535449819e+001
 3.768101911143579e+000	 1.031196878478174e+000	 1.078362143377409e+001
 3.757243432316441e+000	 1.070084325162635e+000	 1.081040283308906e+001
 3.745952824995893e+000	 1.108961620113198e+000	 1.083517744575515e+001
 3.734228574544038e+000	 1.147821982134778e+000	 1.085590751741204e+001
 3.858321333250832e+000	 7.644370675516263e-001	 1.062444810822770e+001
 3.850380843942109e+000	 8.034764911172418e-001	 1.064230126425364e+001
 3.842019493278809e+000	 8.425513879866891e-001	 1.066054326928037e+001
 3.833234890918529e+000	 8.816554735420568e-001	 1.068005977457500e+001
 3.824024761409275e+000	 9.207823780247854e-001	 1.070136909813721e+001
 3.814386947187074e+000	 9.599256488797628e-001	 1.072460531076371e+001
 3.804319411526238e+000	 9.990787532115455e-001	 1.074950270895021e+001
 3.793820241437709e+000	 1.038235080352056e+000	 1.077537938858549e+001
 3.782887650511029e+000	 1.077387944538932e+000	 1.080113789281480e+001
 3.771519981695345e+000	 1.116530587703505e+000	 1.082523658680833e+001
 3.759715710014934e+000	 1.155656182367169e+000	 1.084569936915592e+001
 3.504844355287081e+000	 1.077314180033311e+000	 1.088889656043724e+001
 3.493431993474644e+000	 1.113765128411843e+000	 1.090684893581760e+001
 3.481610156834797e+000	 1.150187268649676e+000	 1.092911312685582e+001
 3.469377802379239e+000	 1.186574055778320e+000	 1.095130404190545e+001
 3.456734019669561e+000	 1.222918891747823e+000	 1.096863645213752e+001
 3.443678032987045e+000	 1.259215128608840e+000	 1.097595624916412e+001
 3.430209203416530e+000	 1.295456071785157e+000	 1.096777667978507e+001
 3.416327030840313e+000	 1.331634983434178e+000	 1.093831981368542e+001
 3.402031155838170e+000	 1.367745085892707e+000	 1.090734729519437e+001
 3.387321361489601e+000	 1.403779565205173e+000	 1.090115613829914e+001
 3.372197575074528e+000	 1.439731574731234e+000	 1.091598332136702e+001
 3.530331490760975e+000	 1.085148380265702e+000	 1.088950535606113e+001
 3.518836138555602e+000	 1.121864398976820e+000	 1.090842855534432e+001
 3.506928333832646e+000	 1.158551400055168e+000	 1.093048694584472e+001
 3.494607026019215e+000	 1.195202790937426e+000	 1.095124635426280e+001
 3.481871298056221e+000	 1.231811925592805e+000	 1.096586130576269e+001
 3.468720368583944e+000	 1.268372107728261e+000	 1.096910557270134e+001
 3.455153594041044e+000	 1.304876594084805e+000	 1.095540784901895e+001
 3.441170470672978e+000	 1.341318597822436e+000	 1.092020249956734e+001
 3.426770636445833e+000	 1.377691291990982e+000	 1.089436872378279e+001
 3.411953872861664e+000	 1.413987813083974e+000	 1.089056583124626e+001
 3.396720106671581e+000	 1.450201264672494e+000	 1.090503236968843e+001
 3.555818626234796e+000	 1.092982580498757e+000	 1.088953655758290e+001
 3.544240283636571e+000	 1.129963669542497e+000	 1.090896612076801e+001
 3.532246510830581e+000	 1.166915531461389e+000	 1.093039171733615e+001
 3.519836249659356e+000	 1.203831526097284e+000	 1.094934460032360e+001
 3.507008576443118e+000	 1.240704959438559e+000	 1.096093369582351e+001
 3.493762704181139e+000	 1.277529086848464e+000	 1.095987533811281e+001
 3.480097984665906e+000	 1.314297116385243e+000	 1.094052828112066e+001
 3.466013910506030e+000	 1.351002212211490e+000	 1.090301486797246e+001
 3.451510117053901e+000	 1.387637498090054e+000	 1.088140494556686e+001
 3.436586384234133e+000	 1.424196060963575e+000	 1.087916043365653e+001
 3.421242638269016e+000	 1.460670954614553e+000	 1.089259334667894e+001
 3.581305761708479e+000	 1.100816780732308e+000	 1.088867203798316e+001
 3.569644428717461e+000	 1.138062940108699e+000	 1.090823656699594e+001
 3.557564687828503e+000	 1.175279662868157e+000	 1.092870134607269e+001
 3.545065473299544e+000	 1.212460261257706e+000	 1.094557824712581e+001
 3.532145854830123e+000	 1.249597993284890e+000	 1.095394590558491e+001
 3.518805039778498e+000	 1.286686065969255e+000	 1.094847853216572e+001
 3.505042375290975e+000	 1.323717638686275e+000	 1.092348015384496e+001
 3.490857350339327e+000	 1.360685826601141e+000	 1.088676065632009e+001
 3.476249597662238e+000	 1.397583704189727e+000	 1.086854598902252e+001
 3.461218895606880e+000	 1.434404308843775e+000	 1.086718422715807e+001
 3.445765169866720e+000	 1.471140644557213e+000	 1.087907355820595e+001
 3.606792897181959e+000	 1.108650980966191e+000	 1.088667027064024e+001
 3.595048573798191e+000	 1.146162210675251e+000	 1.090608502078194e+001
 3.582882864826309e+000	 1.183643794275290e+000	 1.092535320402761e+001
 3.570294696939667e+000	 1.221088996418505e+000	 1.093998322184474e+001
 3.557283133217109e+000	 1.258491027131605e+000	 1.094503942252637e+001
 3.543847375375882e+000	 1.295843045090437e+000	 1.093516987466690e+001
 3.529986765916116e+000	 1.333138160987702e+000	 1.090463972493542e+001
 3.515700790172727e+000	 1.370369440991191e+000	 1.087142308219316e+001
 3.500989078270704e+000	 1.407529910289798e+000	 1.085591521518327e+001
 3.485851406979773e+000	 1.444612556724376e+000	 1.085490926322028e+001
 3.470287701464574e+000	 1.481610334500272e+000	 1.086490228081139e+001
 3.632280032655170e+000	 1.116485181200241e+000	 1.088336148243931e+001
 3.620452718878675e+000	 1.154261481241977e+000	 1.090242188054158e+001
 3.608201041823901e+000	 1.192007925682604e+000	 1.092034314735227e+001
 3.595523920579608e+000	 1.229717731579492e+000	 1.093264687664114e+001
 3.582420411603948e+000	 1.267384060978512e+000	 1.093439986218923e+001
 3.568889710973159e+000	 1.305000024211814e+000	 1.092024071272536e+001
 3.554931156541184e+000	 1.342558683289327e+000	 1.088579335264226e+001
 3.540544230006093e+000	 1.380053055381439e+000	 1.085702131811257e+001
 3.525728558879164e+000	 1.417476116390070e+000	 1.084366670007019e+001
 3.510483918352682e+000	 1.454820804605176e+000	 1.084263282734606e+001
 3.494810233062459e+000	 1.492080024443532e+000	 1.085052831615667e+001
 3.657767168128049e+000	 1.124319381434289e+000	 1.087864289088448e+001
 3.645856863958831e+000	 1.162360751808704e+000	 1.089721797713604e+001
 3.633519218821176e+000	 1.200372057089920e+000	 1.091372061085798e+001
 3.620753144219252e+000	 1.238346466740479e+000	 1.092370302721601e+001
 3.607557689990518e+000	 1.276277094825420e+000	 1.092225196151456e+001
 3.593932046570195e+000	 1.314157003333191e+000	 1.090401397991073e+001
 3.579875547166044e+000	 1.351979205590952e+000	 1.086852435865977e+001
 3.565387669839278e+000	 1.389736669771687e+000	 1.084360785529939e+001
 3.550468039487480e+000	 1.427422322490341e+000	 1.083198266597930e+001
 3.535116429725480e+000	 1.465029052485976e+000	 1.083067494605174e+001
 3.519332764660260e+000	 1.502549714386791e+000	 1.083641758183551e+001
 3.683254303600528e+000	 1.132153581668172e+000	 1.087247402114652e+001
 3.671261009038573e+000	 1.170460022375256e+000	 1.089049981170161e+001
 3.658837395818034e+000	 1.208736188497052e+000	 1.090558377627701e+001
 3.645982367858484e+000	 1.246975201901278e+000	 1.091332706150232e+001
 3.632694968376690e+000	 1.285170128672136e+000	 1.090885463830903e+001
 3.618974382166853e+000	 1.323313982454373e+000	 1.088683921716110e+001
 3.604819937790552e+000	 1.361399727892379e+000	 1.085279960802191e+001
 3.590231109672149e+000	 1.399420284161736e+000	 1.083126591936393e+001
 3.575207520095516e+000	 1.437368528590413e+000	 1.082107095926101e+001
 3.559748941098035e+000	 1.475237300366578e+000	 1.081937593456266e+001
 3.543855296257858e+000	 1.513019404329851e+000	 1.082305073679290e+001
 3.708741439072548e+000	 1.139987781901724e+000	 1.086487209919937e+001
 3.696665154117818e+000	 1.178559292941458e+000	 1.088234486681930e+001
 3.684155572814372e+000	 1.217100319903821e+000	 1.089607481075298e+001
 3.671211591497186e+000	 1.255603937061700e+000	 1.090173111512116e+001
 3.657832246762336e+000	 1.294063162518466e+000	 1.089449611365478e+001
 3.644016717762999e+000	 1.332470961575163e+000	 1.086908765247209e+001
 3.629764328414573e+000	 1.370820250193410e+000	 1.083861854183506e+001
 3.615074549504561e+000	 1.409103898551388e+000	 1.082010693542375e+001
 3.599947000703134e+000	 1.447314734690085e+000	 1.081116257235343e+001
 3.584381452470215e+000	 1.485445548246777e+000	 1.080909398326515e+001
 3.568377827855136e+000	 1.523489094272510e+000	 1.081092083968524e+001
 3.734228574544038e+000	 1.147821982134778e+000	 1.085590751741204e+001
 3.722069299196483e+000	 1.186658563507134e+000	 1.087287698752066e+001
 3.709473749810091e+000	 1.225464451310041e+000	 1.088537517220603e+001
 3.696440815135249e+000	 1.264232672221558e+000	 1.088915931041133e+001
 3.682969525147330e+000	 1.302956196364219e+000	 1.087948909425885e+001
 3.669059053358498e+000	 1.341627940695367e+000	 1.085198125968671e+001
 3.654708719037965e+000	 1.380240772493848e+000	 1.082601109136888e+001
 3.639917989336375e+000	 1.418787512940442e+000	 1.081026804028900e+001
 3.624686481310194e+000	 1.457260940789158e+000	 1.080250920795679e+001
 3.609013963841895e+000	 1.495653796126378e+000	 1.080020278106373e+001
 3.592900359451976e+000	 1.533958784214570e+000	 1.080053103860816e+001
 3.759715710014934e+000	 1.155656182367169e+000	 1.084569936915592e+001
 3.747473444274481e+000	 1.194757834072112e+000	 1.086226182881597e+001
 3.734791926805089e+000	 1.233828582715533e+000	 1.087370097840025e+001
 3.721670038772552e+000	 1.272861407380663e+000	 1.087588305601690e+001
 3.708106803531544e+000	 1.311849230209202e+000	 1.086416601189703e+001
 3.694101388953216e+000	 1.350784919814787e+000	 1.083683233807016e+001
 3.679653109660585e+000	 1.389661294793495e+000	 1.081503519467454e+001
 3.664761429167448e+000	 1.428471127328699e+000	 1.080190963948123e+001
 3.649425961916560e+000	 1.467207146887431e+000	 1.079538088334830e+001
 3.633646475212944e+000	 1.505862044005179e+000	 1.079308917389250e+001
 3.617422891048259e+000	 1.544428474155829e+000	 1.079239229070343e+001
 3.372197575074528e+000	 1.439731574731234e+000	 1.091598332136703e+001
 3.356662231674654e+000	 1.475588867042669e+000	 1.094168543605195e+001
 3.340713316314456e+000	 1.511349944770983e+000	 1.097014152509624e+001
 3.324351200427107e+000	 1.547007890623957e+000	 1.100036616336977e+001
 3.307576405259167e+000	 1.582555769867112e+000	 1.103152680595736e+001
 3.290389603006430e+000	 1.617986634272130e+000	 1.106248261286330e+001
 3.272791617828105e+000	 1.653293526122405e+000	 1.109194283094608e+001
 3.254783426736442e+000	 1.688469482271451e+000	 1.111851607135339e+001
 3.236366160359109e+000	 1.723507538249754e+000	 1.114072953939871e+001
 3.217541103571808e+000	 1.758400732415532e+000	 1.115705087743767e+001
 3.198309695998757e+000	 1.793142110144684e+000	 1.116591256051613e+001
 3.396720106671581e+000	 1.450201264672494e+000	 1.090503236968843e+001
 3.381071790665132e+000	 1.486319310265351e+000	 1.092937323955334e+001
 3.365006895213961e+000	 1.522340441605221e+000	 1.095712080278813e+001
 3.348525794452300e+000	 1.558257691097505e+000	 1.098715860276735e+001
 3.331629013417209e+000	 1.594064073578511e+000	 1.101835339330978e+001
 3.314317229192684e+000	 1.629752590292576e+000	 1.104968842347394e+001
 3.296591271931205e+000	 1.665316232926751e+000	 1.107995703291594e+001
 3.278452125749841e+000	 1.700747987698722e+000	 1.110772357896756e+001
 3.259900929498167e+000	 1.736040839493528e+000	 1.113146215036558e+001
 3.240938977395473e+000	 1.771187776044501e+000	 1.114957916670883e+001
 3.221567719534899e+000	 1.806181792153682e+000	 1.116043867002950e+001
 3.421242638269016e+000	 1.460670954614553e+000	 1.089259334667894e+001
 3.405481349655952e+000	 1.497049753488834e+000	 1.091505434159232e+001
 3.389300474113742e+000	 1.533330938440259e+000	 1.094170597304292e+001
 3.372700388477688e+000	 1.569507491571855e+000	 1.097132862090474e+001
 3.355681621575359e+000	 1.605572377290710e+000	 1.100267975677774e+001
 3.338244855378957e+000	 1.641518546313823e+000	 1.103450380952068e+001
 3.320390926034239e+000	 1.677338939731900e+000	 1.106556472371199e+001
 3.302120824763098e+000	 1.713026493126800e+000	 1.109452115216891e+001
 3.283435698637017e+000	 1.748574140738111e+000	 1.111977236902238e+001
 3.264336851218890e+000	 1.783974819674280e+000	 1.113963302367670e+001
 3.244825743070775e+000	 1.819221474163497e+000	 1.115236580880691e+001
 3.445765169866720e+000	 1.471140644557213e+000	 1.087907355820595e+001
 3.429890908647009e+000	 1.507780196712915e+000	 1.089929045005025e+001
 3.413594053013717e+000	 1.544321435275896e+000	 1.092458755775889e+001
 3.396874982503220e+000	 1.580757292046804e+000	 1.095362368065876e+001
 3.379734229733591e+000	 1.617080681003512e+000	 1.098502787064334e+001
 3.362172481565243e+000	 1.653284502335674e+000	 1.101740937595539e+001
 3.344190580137223e+000	 1.689361646537656e+000	 1.104936871759063e+001
 3.325789523776246e+000	 1.725304998555488e+000	 1.107950161990144e+001
 3.306970467775713e+000	 1.761107441983310e+000	 1.110622026085539e+001
 3.287734725042118e+000	 1.796761863304683e+000	 1.112771980529483e+001
 3.268083766606453e+000	 1.832261156173944e+000	 1.114212911687992e+001
 3.470287701464574e+000	 1.481610334500272e+000	 1.086490228081139e+001
 3.454300467638206e+000	 1.518510639937398e+000	 1.088265971206682e+001
 3.437887631913811e+000	 1.555311932111934e+000	 1.090646774615499e+001
 3.421049576528833e+000	 1.592007092522155e+000	 1.093484573130671e+001
 3.403786837891867e+000	 1.628588984716717e+000	 1.096627446372738e+001
 3.386100107751534e+000	 1.665050458357930e+000	 1.099920620099690e+001
 3.367990234240172e+000	 1.701384353343823e+000	 1.103207585734169e+001
 3.349458222789323e+000	 1.737583503984593e+000	 1.106331342311352e+001
 3.330505236914307e+000	 1.773640743228935e+000	 1.109135402669274e+001
 3.311132598865223e+000	 1.809548906935523e+000	 1.111433791650786e+001
 3.291341790142000e+000	 1.845300838184841e+000	 1.113015843147293e+001
 3.494810233062459e+000	 1.492080024443532e+000	 1.085052831615667e+001
 3.478710026629443e+000	 1.529241083162080e+000	 1.086575434998485e+001
 3.462181210813938e+000	 1.566302428948173e+000	 1.088805808662391e+001
 3.445224170554475e+000	 1.603256892997709e+000	 1.091580209642221e+001
 3.427839446050156e+000	 1.640097288430127e+000	 1.094729964766358e+001
 3.410027733937825e+000	 1.676816414380396e+000	 1.098082477956050e+001
 3.391789888343100e+000	 1.713407060150203e+000	 1.101462361057557e+001
 3.373126921802363e+000	 1.749862009413921e+000	 1.104692692867222e+001
 3.354040006052848e+000	 1.786174044474793e+000	 1.107596410407692e+001
 3.334530472688269e+000	 1.822335950566611e+000	 1.109997835824644e+001
 3.314599813677478e+000	 1.858340520196004e+000	 1.111687859051098e+001
 3.519332764660260e+000	 1.502549714386791e+000	 1.083641758183551e+001
 3.503119585620614e+000	 1.539971526386762e+000	 1.084917832761962e+001
 3.486474789714023e+000	 1.577292925784412e+000	 1.087007720395221e+001
 3.469398764580085e+000	 1.614506693473263e+000	 1.089730321807164e+001
 3.451892054208428e+000	 1.651605592143541e+000	 1.092898339892446e+001
 3.433955360124103e+000	 1.688582370402872e+000	 1.096319291830792e+001
 3.415589542446021e+000	 1.725429766956601e+000	 1.099796650496958e+001
 3.396795620815399e+000	 1.762140514843276e+000	 1.103131120279196e+001
 3.377574775191389e+000	 1.798707345720694e+000	 1.106122051800857e+001
 3.357928346511310e+000	 1.835122994197757e+000	 1.108568999330333e+001
 3.337857837212957e+000	 1.871380202207249e+000	 1.110273423864800e+001
 3.543855296257858e+000	 1.513019404329851e+000	 1.082305073679290e+001
 3.527529144611624e+000	 1.550701969611245e+000	 1.083354504538331e+001
 3.510768368613983e+000	 1.588283422620452e+000	 1.085324854068028e+001
 3.493573358605612e+000	 1.625756493948621e+000	 1.088016042145023e+001
 3.475944662366649e+000	 1.663113895856761e+000	 1.091220332431397e+001
 3.457882986310363e+000	 1.700348326425160e+000	 1.094723348013620e+001
 3.439389196548954e+000	 1.737452473762821e+000	 1.098305222515092e+001
 3.420464319828467e+000	 1.774419020272465e+000	 1.101741892273773e+001
 3.401109544329980e+000	 1.811240646966445e+000	 1.104806534541962e+001
 3.381326220334416e+000	 1.847910037828777e+000	 1.107271155933990e+001
 3.361115860748502e+000	 1.884419884218392e+000	 1.108908334521142e+001
 3.568377827855136e+000	 1.523489094272510e+000	 1.081092083968524e+001
 3.551938703602373e+000	 1.561432412835328e+000	 1.081947506287732e+001
 3.535061947513740e+000	 1.599273919456093e+000	 1.083829812143895e+001
 3.517747952630995e+000	 1.637006294423581e+000	 1.086518369897565e+001
 3.499997270524786e+000	 1.674622199569590e+000	 1.089783244334917e+001
 3.481810612496596e+000	 1.712114282447062e+000	 1.093386214392415e+001
 3.463188850651910e+000	 1.749475180568665e+000	 1.097081932944801e+001
 3.444133018841605e+000	 1.786697525701295e+000	 1.100619234754343e+001
 3.424644313468674e+000	 1.823773948211854e+000	 1.103742598027019e+001
 3.404724094157646e+000	 1.860697081459480e+000	 1.106193764267755e+001
 3.384373884284179e+000	 1.897459566229250e+000	 1.107713520272464e+001
 3.592900359451976e+000	 1.533958784214570e+000	 1.080053103860816e+001
 3.576348262592756e+000	 1.572162856058811e+000	 1.080759384763970e+001
 3.559355526413215e+000	 1.610264416291135e+000	 1.082595233916666e+001
 3.541922546656179e+000	 1.648256094897946e+000	 1.085317951290807e+001
 3.524049878682809e+000	 1.686130503281826e+000	 1.088673698672399e+001
 3.505738238682795e+000	 1.723880238468381e+000	 1.092398517880525e+001
 3.486988504754906e+000	 1.761497887373938e+000	 1.096219498048803e+001
 3.467801717854845e+000	 1.798976031129568e+000	 1.099856098601732e+001
 3.448179082607520e+000	 1.836307249456731e+000	 1.103021633887846e+001
 3.428121967981061e+000	 1.873484125089678e+000	 1.105424924654522e+001
 3.407631907820056e+000	 1.910499248239641e+000	 1.106772120666197e+001
 3.617422891048259e+000	 1.544428474155829e+000	 1.079239229070343e+001
 3.600757821582672e+000	 1.582893299281493e+000	 1.079852954880607e+001
 3.583649105312324e+000	 1.621254913125378e+000	 1.081693576216815e+001
 3.566097140681105e+000	 1.659505895371513e+000	 1.084494861561916e+001
 3.548102486840681e+000	 1.697638806993271e+000	 1.087977421009157e+001
 3.529665864868949e+000	 1.735646194488917e+000	 1.091849723227974e+001
 3.510788158857955e+000	 1.773520594178442e+000	 1.095809268898494e+001
 3.491470416868222e+000	 1.811254536557092e+000	 1.099543927810363e+001
 3.471713851746570e+000	 1.848840550700882e+000	 1.102733446132333e+001
 3.451519841804724e+000	 1.886271168719184e+000	 1.105051129557852e+001
 3.430889931356198e+000	 1.923538930249378e+000	 1.106165707118450e+001
 3.198309695998757e+000	 1.793142110144684e+000	 1.116591256051613e+001
 3.178670556813624e+000	 1.827729904041205e+000	 1.117003704056020e+001
 3.158628293608680e+000	 1.862151961492184e+000	 1.117093252149147e+001
 3.138184815363838e+000	 1.896401373359605e+000	 1.116515318359085e+001
 3.117342186515054e+000	 1.930471254663603e+000	 1.114921738891419e+001
 3.096102626762257e+000	 1.964354748895379e+000	 1.111964550312713e+001
 3.074468510735241e+000	 1.998045032338639e+000	 1.107299965732227e+001
 3.052442367516637e+000	 2.031535318394141e+000	 1.102699364382161e+001
 3.030026880021337e+000	 2.064818861901896e+000	 1.100517486359742e+001
 3.007224884231967e+000	 2.097888963455510e+000	 1.100504860486062e+001
 2.984039368290266e+000	 2.130738973703104e+000	 1.102397368714922e+001
 3.221567719534899e+000	 1.806181792153682e+000	 1.116043867002950e+001
 3.201785765048789e+000	 1.841021107572606e+000	 1.116579644984664e+001
 3.181597755035698e+000	 1.875693481314890e+000	 1.116614567547310e+001
 3.161005612357592e+000	 1.910191953999461e+000	 1.115788863557900e+001
 3.140011416462943e+000	 1.944509590579075e+000	 1.113738364163901e+001
 3.118617403193275e+000	 1.978639484684597e+000	 1.110098447709856e+001
 3.096825964446623e+000	 2.012574762977861e+000	 1.104834800281992e+001
 3.074639647697042e+000	 2.046308589507667e+000	 1.101099346441109e+001
 3.052061155369498e+000	 2.079834170063414e+000	 1.099563013042882e+001
 3.029093344069807e+000	 2.113144756520816e+000	 1.099958751267355e+001
 3.005739223669392e+000	 2.146233651174094e+000	 1.102012642556696e+001
 3.244825743070775e+000	 1.819221474163497e+000	 1.115236580880691e+001
 3.224900973283702e+000	 1.854312311104829e+000	 1.115870231524109e+001
 3.204567216462507e+000	 1.889235001138424e+000	 1.115809990264472e+001
 3.183826409351195e+000	 1.923982534640148e+000	 1.114683021183244e+001
 3.162680646410757e+000	 1.958547926495381e+000	 1.112111387601792e+001
 3.141132179624305e+000	 1.992924220474647e+000	 1.107716162091308e+001
 3.119183418158109e+000	 2.027104493617908e+000	 1.102617377829913e+001
 3.096836927877634e+000	 2.061081860622006e+000	 1.099657371875459e+001
 3.074095430717927e+000	 2.094849478225727e+000	 1.098671264274254e+001
 3.050961803907982e+000	 2.128400549586890e+000	 1.099385819427316e+001
 3.027439079048901e+000	 2.161728328645818e+000	 1.101520842998467e+001
 3.268083766606453e+000	 1.832261156173944e+000	 1.114212911687992e+001
 3.248016181518426e+000	 1.867603514637696e+000	 1.114912107918885e+001
 3.227536677889154e+000	 1.902776520962611e+000	 1.114711874005916e+001
 3.206647206344685e+000	 1.937773115281502e+000	 1.113228356344709e+001
 3.185349876358512e+000	 1.972586262412363e+000	 1.110072005567588e+001
 3.163646956055338e+000	 2.007208956265380e+000	 1.104954534515210e+001
 3.141540871869665e+000	 2.041634224258641e+000	 1.100655771799855e+001
 3.119034208058361e+000	 2.075855131737029e+000	 1.098378445792968e+001
 3.096129706066547e+000	 2.109864786388715e+000	 1.097854267020108e+001
 3.072830263746393e+000	 2.143656342653622e+000	 1.098807123470838e+001
 3.049138934428674e+000	 2.177223006118176e+000	 1.100953991114650e+001
 3.291341790142000e+000	 1.845300838184841e+000	 1.113015843147293e+001
 3.271131389753024e+000	 1.880894718171027e+000	 1.113741760496131e+001
 3.250506139315696e+000	 1.916318040787283e+000	 1.113352730095031e+001
 3.229468003338096e+000	 1.951563695923356e+000	 1.111455851235002e+001
 3.208019106306229e+000	 1.986624598329863e+000	 1.107652035667973e+001
 3.186161732486373e+000	 2.021493692056647e+000	 1.102437999793379e+001
 3.163898325581261e+000	 2.056163954899921e+000	 1.098948432451771e+001
 3.141231488239165e+000	 2.090628402852605e+000	 1.097265839018678e+001
 3.118163981415278e+000	 2.124880094552258e+000	 1.097122143471348e+001
 3.094698723584940e+000	 2.158912135720904e+000	 1.098241592931673e+001
 3.070838789808596e+000	 2.192717683591067e+000	 1.100341702802697e+001
 3.314599813677478e+000	 1.858340520196004e+000	 1.111687859051099e+001
 3.294246597987558e+000	 1.894185921704647e+000	 1.112395546375877e+001
 3.273475600742184e+000	 1.929859560612265e+000	 1.111765256975885e+001
 3.252288800331470e+000	 1.965354276565548e+000	 1.109396937791625e+001
 3.230688336253921e+000	 2.000662934247726e+000	 1.104884779533053e+001
 3.208676508917402e+000	 2.035778427848300e+000	 1.100261267587210e+001
 3.186255779292867e+000	 2.070693685541607e+000	 1.097492210014333e+001
 3.163428768419997e+000	 2.105401673968605e+000	 1.096321114956259e+001
 3.140198256764045e+000	 2.139895402716234e+000	 1.096483147575477e+001
 3.116567183423526e+000	 2.174167928788624e+000	 1.097706076403276e+001
 3.092538645188554e+000	 2.208212361064393e+000	 1.099711250066968e+001
 3.337857837212957e+000	 1.871380202207249e+000	 1.110273423864800e+001
 3.317361806222093e+000	 1.907477125238375e+000	 1.110909724740523e+001
 3.296445062168671e+000	 1.943401080437387e+000	 1.109982372477997e+001
 3.275109597324840e+000	 1.979144857207913e+000	 1.107083533228923e+001
 3.253357566201610e+000	 2.014701270165795e+000	 1.102198682030869e+001
 3.231191285348421e+000	 2.050063163640192e+000	 1.098416991939716e+001
 3.208613233004458e+000	 2.085223416183561e+000	 1.096282376425774e+001
 3.185626048600801e+000	 2.120174945084898e+000	 1.095544158852284e+001
 3.162232532112769e+000	 2.154910710880526e+000	 1.095943703642509e+001
 3.138435643262051e+000	 2.189423721856671e+000	 1.097215391235399e+001
 3.114238500568427e+000	 2.223707038538050e+000	 1.099087623483816e+001
 3.361115860748502e+000	 1.884419884218392e+000	 1.108908334521142e+001
 3.340477014456691e+000	 1.920768328772035e+000	 1.109328529700973e+001
 3.319414523595213e+000	 1.956942600262478e+000	 1.108037248709495e+001
 3.297930394318246e+000	 1.992935437850285e+000	 1.104548078301460e+001
 3.276026796149311e+000	 2.028739606083913e+000	 1.099926307725362e+001
 3.253706061779425e+000	 2.064347899432173e+000	 1.096896314207342e+001
 3.230970686716002e+000	 2.099753146825644e+000	 1.095312649596134e+001
 3.207823328781522e+000	 2.134948216201356e+000	 1.094933209346975e+001
 3.184266807461373e+000	 2.169926019045012e+000	 1.095508446924445e+001
 3.160304103100418e+000	 2.204679514924936e+000	 1.096782374815732e+001
 3.135938355948102e+000	 2.239201716011940e+000	 1.098493595790536e+001
 3.384373884284179e+000	 1.897459566229250e+000	 1.107713520272464e+001
 3.363592222691414e+000	 1.934059532305448e+000	 1.107819498563683e+001
 3.342383985021856e+000	 1.970484120087366e+000	 1.105979420907967e+001
 3.320751191311724e+000	 2.006726018492501e+000	 1.101901802031428e+001
 3.298696026097039e+000	 2.042777942001923e+000	 1.098056725611861e+001
 3.276220838210408e+000	 2.078632635224095e+000	 1.095688884385266e+001
 3.253328140427467e+000	 2.114282877467717e+000	 1.094575220069493e+001
 3.230020608962106e+000	 2.149721487317849e+000	 1.094484892201431e+001
 3.206301082809782e+000	 2.184941327209572e+000	 1.095180266073244e+001
 3.182172562938527e+000	 2.219935307993308e+000	 1.096417937360378e+001
 3.157638211327462e+000	 2.254696393485963e+000	 1.097949786544209e+001
 3.407631907820056e+000	 1.910499248239641e+000	 1.106772120666197e+001
 3.386707430926325e+000	 1.947350735838435e+000	 1.106497312116892e+001
 3.365353446448660e+000	 1.984025639911877e+000	 1.104007964500014e+001
 3.343571988305312e+000	 2.020516599134395e+000	 1.099679186849338e+001
 3.321365256044817e+000	 2.056816277919669e+000	 1.096577518842269e+001
 3.298735614641366e+000	 2.092917371015813e+000	 1.094782884857716e+001
 3.275685594138827e+000	 2.128812608109639e+000	 1.094060779971594e+001
 3.252217889142500e+000	 2.164494758434245e+000	 1.094194256097439e+001
 3.228335358157915e+000	 2.199956635374084e+000	 1.094960347387688e+001
 3.204041022776280e+000	 2.235191101061678e+000	 1.096131116141032e+001
 3.179338066706392e+000	 2.270191070960018e+000	 1.097474727799332e+001
 3.430889931356198e+000	 1.923538930249378e+000	 1.106165707118450e+001
 3.409822639161488e+000	 1.960641939370820e+000	 1.105438930343045e+001
 3.388322907875673e+000	 1.997567159735842e+000	 1.102232377090986e+001
 3.366392785299045e+000	 2.034307179775804e+000	 1.098150928764799e+001
 3.344034485992657e+000	 2.070854613836993e+000	 1.095505940993063e+001
 3.321250391072291e+000	 2.107202106807173e+000	 1.094165056458273e+001
 3.298043047850051e+000	 2.143342338751271e+000	 1.093758554134415e+001
 3.274415169322649e+000	 2.179268029550414e+000	 1.094054810411371e+001
 3.250369633505694e+000	 2.214971943538431e+000	 1.094848220764131e+001
 3.225909482613577e+000	 2.250446894129933e+000	 1.095929131080751e+001
 3.201037922084772e+000	 2.285685748434004e+000	 1.097084930755801e+001
 2.984039368290266e+000	 2.130738973703104e+000	 1.102397368714922e+001
 2.960473470602511e+000	 2.163362296908118e+000	 1.104836034583818e+001
 2.936530476140904e+000	 2.195752392999227e+000	 1.106649518215482e+001
 2.912213817674249e+000	 2.227902783885794e+000	 1.107857771565862e+001
 2.887527075140474e+000	 2.259807058363651e+000	 1.108490600140585e+001
 2.862473974030364e+000	 2.291458876269917e+000	 1.108588101723733e+001
 2.837058383631288e+000	 2.322851972591213e+000	 1.108201075056403e+001
 2.811284315132539e+000	 2.353980161519818e+000	 1.107391393873195e+001
 2.785155919594005e+000	 2.384837340452331e+000	 1.106232341856422e+001
 2.758677485780280e+000	 2.415417493925475e+000	 1.104808904258378e+001
 2.731853437862469e+000	 2.445714697483801e+000	 1.103218012170761e+001
 3.005739223669392e+000	 2.146233651174094e+000	 1.102012642556696e+001
 2.982001955396933e+000	 2.179094210322679e+000	 1.104452535919233e+001
 2.957884848112856e+000	 2.211719846336016e+000	 1.106210487359715e+001
 2.933391359548965e+000	 2.244104034014959e+000	 1.107321902882663e+001
 2.908525095676398e+000	 2.276240315533231e+000	 1.107832766239433e+001
 2.883289809077597e+000	 2.308122304622442e+000	 1.107800078250668e+001
 2.857689397177289e+000	 2.339743690710203e+000	 1.107292264150337e+001
 2.831727900334018e+000	 2.371098243005753e+000	 1.106389544177420e+001
 2.805409499794068e+000	 2.402179814527716e+000	 1.105184262802064e+001
 2.778738515509806e+000	 2.432982346068519e+000	 1.103781172175280e+001
 2.751719403824789e+000	 2.463499870090225e+000	 1.102297665632635e+001
 3.027439079048901e+000	 2.161728328645818e+000	 1.101520842998467e+001
 3.003530440191761e+000	 2.194826123737929e+000	 1.103898341206308e+001
 2.979239220085217e+000	 2.227687299673442e+000	 1.105556735723156e+001
 2.954568901424074e+000	 2.260305284144703e+000	 1.106543867313649e+001
 2.929523116212681e+000	 2.292673572703324e+000	 1.106918747005353e+001
 2.904105644125149e+000	 2.324785732975416e+000	 1.106752002218419e+001
 2.878320410723559e+000	 2.356635408829572e+000	 1.106126289213921e+001
 2.852171485535715e+000	 2.388216324492001e+000	 1.105136666885401e+001
 2.825663079994293e+000	 2.419522288603348e+000	 1.103890927088600e+001
 2.798799545239444e+000	 2.450547198211751e+000	 1.102509876917060e+001
 2.771585369787177e+000	 2.481285042696783e+000	 1.101127568585883e+001
 3.049138934428674e+000	 2.177223006118176e+000	 1.100953991114650e+001
 3.025058924986865e+000	 2.210558037153778e+000	 1.103216422958507e+001
 3.000593592057848e+000	 2.243654753011424e+000	 1.104740324874593e+001
 2.975746443299435e+000	 2.276506534274954e+000	 1.105583010793081e+001
 2.950521136749184e+000	 2.309106829873869e+000	 1.105813427818298e+001
 2.924921479172884e+000	 2.341449161328782e+000	 1.105512615371563e+001
 2.898951424269965e+000	 2.373527126949274e+000	 1.104774129170169e+001
 2.872615070737501e+000	 2.405334405978518e+000	 1.103704424846902e+001
 2.845916660194563e+000	 2.436864762679191e+000	 1.102423196193115e+001
 2.818860574969084e+000	 2.468112050355137e+000	 1.101063663232253e+001
 2.791451335749533e+000	 2.499070215303443e+000	 1.099772805597563e+001
 3.070838789808596e+000	 2.192717683591067e+000	 1.100341702802697e+001
 3.046587409782116e+000	 2.226289950570137e+000	 1.102447074667601e+001
 3.021947964030613e+000	 2.259622206349883e+000	 1.103810417686731e+001
 2.996923985174903e+000	 2.292707784405640e+000	 1.104495612916701e+001
 2.971519157285764e+000	 2.325540087044802e+000	 1.104578509925473e+001
 2.945737314220657e+000	 2.358112589682488e+000	 1.104147405149171e+001
 2.919582437816374e+000	 2.390418845069260e+000	 1.103303483819119e+001
 2.893058655939248e+000	 2.422452487465267e+000	 1.102161220023318e+001
 2.866170240394756e+000	 2.454207236755209e+000	 1.100848729654141e+001
 2.838921604698617e+000	 2.485676902498641e+000	 1.099508071228041e+001
 2.811317301711756e+000	 2.516855387910169e+000	 1.098295489842403e+001
 3.092538645188554e+000	 2.208212361064393e+000	 1.099711250066968e+001
 3.068115894577388e+000	 2.242021863986914e+000	 1.101627985172928e+001
 3.043302336003375e+000	 2.275589659688736e+000	 1.102813363791312e+001
 3.018101527050339e+000	 2.308909034536690e+000	 1.103334981544931e+001
 2.992517177822280e+000	 2.341973344216063e+000	 1.103272612318208e+001
 2.966553149268331e+000	 2.374776018036476e+000	 1.102718712026989e+001
 2.940213451362647e+000	 2.407310563189484e+000	 1.101778884904416e+001
 2.913502241140829e+000	 2.439570568952201e+000	 1.100572306607598e+001
 2.886423820594753e+000	 2.471549710831364e+000	 1.099232098645346e+001
 2.858982634427930e+000	 2.503241754642230e+000	 1.097905648871685e+001
 2.831183267673744e+000	 2.534640560516928e+000	 1.096754873081140e+001
 3.114238500568427e+000	 2.223707038538050e+000	 1.099087623483816e+001
 3.089644379372549e+000	 2.257753777404020e+000	 1.100794313730900e+001
 3.064656707975995e+000	 2.291557113027905e+000	 1.101792785333940e+001
 3.039279068925603e+000	 2.325110284668033e+000	 1.102151547382550e+001
 3.013515198358590e+000	 2.358406601387589e+000	 1.101951373337019e+001
 2.987368984315767e+000	 2.391439446390696e+000	 1.101285836410963e+001
 2.960844464908652e+000	 2.424202281309897e+000	 1.100261806623345e+001
 2.933945826342114e+000	 2.456688650439283e+000	 1.098999903545381e+001
 2.906677400794436e+000	 2.488892184907615e+000	 1.097634898970969e+001
 2.879043664156916e+000	 2.520806606785869e+000	 1.096316063993640e+001
 2.851049233635401e+000	 2.552425733123689e+000	 1.095207455276714e+001
 3.135938355948102e+000	 2.239201716011940e+000	 1.098493595790536e+001
 3.111172864167472e+000	 2.273485690821364e+000	 1.099978765750949e+001
 3.086011079948338e+000	 2.307524566367307e+000	 1.100789663014155e+001
 3.060456610800551e+000	 2.341311534799600e+000	 1.100992958536154e+001
 3.034513218894551e+000	 2.374839858559316e+000	 1.100667552017869e+001
 3.008184819362826e+000	 2.408102874745090e+000	 1.099905145103876e+001
 2.981475478454255e+000	 2.441093999430454e+000	 1.098810775607242e+001
 2.954389411542977e+000	 2.473806731926468e+000	 1.097503306486435e+001
 2.926930980993686e+000	 2.506234658983931e+000	 1.096115863510937e+001
 2.899104693885463e+000	 2.538371458929526e+000	 1.094796215816419e+001
 2.870915199596624e+000	 2.570210905730416e+000	 1.093707093865824e+001
 3.157638211327462e+000	 2.254696393485963e+000	 1.097949786544209e+001
 3.132701348962026e+000	 2.289217604238856e+000	 1.099211669165880e+001
 3.107365451920267e+000	 2.323492019706864e+000	 1.099842422396952e+001
 3.081634152675045e+000	 2.357512784931316e+000	 1.099904175050405e+001
 3.055511239430021e+000	 2.391273115731184e+000	 1.099471129192168e+001
 3.029000654409365e+000	 2.424766303099605e+000	 1.098630177365606e+001
 3.002106491999317e+000	 2.457985717551105e+000	 1.097481480397801e+001
 2.974832996743293e+000	 2.490924813413718e+000	 1.096138999193703e+001
 2.947184561192380e+000	 2.523577133060271e+000	 1.094730974142256e+001
 2.919165723613464e+000	 2.555936311073163e+000	 1.093400346032109e+001
 2.890781165557315e+000	 2.587996078337078e+000	 1.092305112702409e+001
 3.179338066706392e+000	 2.270191070960018e+000	 1.097474727799332e+001
 3.154229833756086e+000	 2.304949517656405e+000	 1.098521051406192e+001
 3.128719823891644e+000	 2.339459473046493e+000	 1.098987020482849e+001
 3.102811694548941e+000	 2.373714035063113e+000	 1.098927563424064e+001
 3.076509259964860e+000	 2.407706372903130e+000	 1.098409408352261e+001
 3.049816489455247e+000	 2.441429731454188e+000	 1.097511750586451e+001
 3.022737505543709e+000	 2.474877435671805e+000	 1.096326880443293e+001
 2.995276581942928e+000	 2.508042894900989e+000	 1.094960764435999e+001
 2.967438141390403e+000	 2.540919607136598e+000	 1.093533573161576e+001
 2.939226753340806e+000	 2.573501163216748e+000	 1.092180149450028e+001
 2.910647131517372e+000	 2.605781250943639e+000	 1.091050410688756e+001
 3.201037922084772e+000	 2.285685748434004e+000	 1.097084930755801e+001
 3.175758318549517e+000	 2.320681431073920e+000	 1.097932716949851e+001
 3.150074195862330e+000	 2.355426926386115e+000	 1.098257032524204e+001
 3.123989236422098e+000	 2.389915285194917e+000	 1.098102991106798e+001
 3.097507280498922e+000	 2.424139630075088e+000	 1.097527116293519e+001
 3.070632324500331e+000	 2.458093159808781e+000	 1.096598065591858e+001
 3.043368519087290e+000	 2.491769153792503e+000	 1.095397314637585e+001
 3.015720167141756e+000	 2.525160976388238e+000	 1.094019794388707e+001
 2.987691721587632e+000	 2.558262081212876e+000	 1.092574474232671e+001
 2.959287783067378e+000	 2.591066015360244e+000	 1.091184884234978e+001
 2.930513097476696e+000	 2.623566423550066e+000	 1.089989570109055e+001
 2.731853437862469e+000	 2.445714697483801e+000	 1.103218012170761e+001
 2.704692433297279e+000	 2.475718642763605e+000	 1.101218128406112e+001
 2.677195161938863e+000	 2.505428168867732e+000	 1.098490616668252e+001
 2.649366439270083e+000	 2.534837651707582e+000	 1.095148690794753e+001
 2.621211205591807e+000	 2.563941572878231e+000	 1.091642212698212e+001
 2.592734523104852e+000	 2.592734523104852e+000	 1.088034758879592e+001
 2.563941572878232e+000	 2.621211205591807e+000	 1.084341237509230e+001
 2.534837651707582e+000	 2.649366439270082e+000	 1.080572304942334e+001
 2.505428168867733e+000	 2.677195161938863e+000	 1.076800606315526e+001
 2.475718642763607e+000	 2.704692433297279e+000	 1.073676644178335e+001
 2.445714697483802e+000	 2.731853437862469e+000	 1.071339524763874e+001
 2.751719403824789e+000	 2.463499870090225e+000	 1.102297665632635e+001
 2.724360885152517e+000	 2.493722003266977e+000	 1.100486997035865e+001
 2.696663654363745e+000	 2.523647576259597e+000	 1.097998694977107e+001
 2.668632561959408e+000	 2.553270924081257e+000	 1.094812723855165e+001
 2.640272584166119e+000	 2.582586488197334e+000	 1.091177316796967e+001
 2.611588819996889e+000	 2.611588819996889e+000	 1.087429404405559e+001
 2.582586488197334e+000	 2.640272584166120e+000	 1.083571223712801e+001
 2.553270924081257e+000	 2.668632561959408e+000	 1.079601048493879e+001
 2.523647576259597e+000	 2.696663654363744e+000	 1.076018391139176e+001
 2.493722003266977e+000	 2.724360885152516e+000	 1.073180621890439e+001
 2.463499870090225e+000	 2.751719403824789e+000	 1.071033636687985e+001
 2.771585369787177e+000	 2.481285042696783e+000	 1.101127568585883e+001
 2.744029337007786e+000	 2.511725363770436e+000	 1.099484992919057e+001
 2.716132146788636e+000	 2.541866983651510e+000	 1.097197627338855e+001
 2.687898684648724e+000	 2.571704196454952e+000	 1.094229861411314e+001
 2.659333962740415e+000	 2.601231403516437e+000	 1.090576483817830e+001
 2.630443116888912e+000	 2.630443116888913e+000	 1.086632802051630e+001
 2.601231403516436e+000	 2.659333962740416e+000	 1.082551943397639e+001
 2.571704196454953e+000	 2.687898684648724e+000	 1.078571395014220e+001
 2.541866983651512e+000	 2.716132146788635e+000	 1.075291942160891e+001
 2.511725363770436e+000	 2.744029337007785e+000	 1.072690224823619e+001
 2.481285042696784e+000	 2.771585369787176e+000	 1.070696049781610e+001
 2.791451335749533e+000	 2.499070215303443e+000	 1.099772805597563e+001
 2.763697788862998e+000	 2.529728724273947e+000	 1.098273401807257e+001
 2.735600639213450e+000	 2.560086391043439e+000	 1.096145663338742e+001
 2.707164807337962e+000	 2.590137468828628e+000	 1.093341769032222e+001
 2.678395341314634e+000	 2.619876318835491e+000	 1.089824965657761e+001
 2.649297413780869e+000	 2.649297413780869e+000	 1.085674994004704e+001
 2.619876318835491e+000	 2.678395341314634e+000	 1.081385893188911e+001
 2.590137468828628e+000	 2.707164807337961e+000	 1.077664192578389e+001
 2.560086391043440e+000	 2.735600639213450e+000	 1.074627860524252e+001
 2.529728724273948e+000	 2.763697788862997e+000	 1.072211552502647e+001
 2.499070215303442e+000	 2.791451335749532e+000	 1.070332573266073e+001
 2.811317301711756e+000	 2.516855387910169e+000	 1.098295489842403e+001
 2.783366240718062e+000	 2.547732084777479e+000	 1.096910675693902e+001
 2.755069131638113e+000	 2.578305798435343e+000	 1.094898332224032e+001
 2.726430930027048e+000	 2.608570741202241e+000	 1.092201713436674e+001
 2.697456719888714e+000	 2.638521234154452e+000	 1.088775390856082e+001
 2.668151710672706e+000	 2.668151710672706e+000	 1.084586739500596e+001
 2.638521234154452e+000	 2.697456719888714e+000	 1.080387815623390e+001
 2.608570741202241e+000	 2.726430930027048e+000	 1.076888188901994e+001
 2.578305798435342e+000	 2.755069131638112e+000	 1.074034131712454e+001
 2.547732084777480e+000	 2.783366240718061e+000	 1.071752127258999e+001
 2.516855387910169e+000	 2.811317301711755e+000	 1.069950480688392e+001
 2.831183267673744e+000	 2.534640560516928e+000	 1.096754873081140e+001
 2.803034692572887e+000	 2.565735445280995e+000	 1.095452539918050e+001
 2.774537624062541e+000	 2.596525205827185e+000	 1.093508547778159e+001
 2.745697052715913e+000	 2.627004013575750e+000	 1.090860435422684e+001
 2.716518098462591e+000	 2.657166149473270e+000	 1.087457370579631e+001
 2.687006007564368e+000	 2.687006007564369e+000	 1.083478557621227e+001
 2.657166149473270e+000	 2.716518098462590e+000	 1.079599013060627e+001
 2.627004013575751e+000	 2.745697052715912e+000	 1.076253292681774e+001
 2.596525205827186e+000	 2.774537624062540e+000	 1.073519941199645e+001
 2.565735445280997e+000	 2.803034692572887e+000	 1.071320711999492e+001
 2.534640560516928e+000	 2.831183267673744e+000	 1.069558330135790e+001
 2.851049233635401e+000	 2.552425733123689e+000	 1.095207455276714e+001
 2.822703144427385e+000	 2.583738805784463e+000	 1.093952100052254e+001
 2.794006116486654e+000	 2.614744613218929e+000	 1.092026713093899e+001
 2.764963175404485e+000	 2.645437285949114e+000	 1.089366253066340e+001
 2.735579477036205e+000	 2.675811064791899e+000	 1.085960321801706e+001
 2.705860304455802e+000	 2.705860304455802e+000	 1.082438970640527e+001
 2.675811064791898e+000	 2.735579477036205e+000	 1.079004989945506e+001
 2.645437285949114e+000	 2.764963175404485e+000	 1.075770387651187e+001
 2.614744613218929e+000	 2.794006116486654e+000	 1.073095490204512e+001
 2.583738805784464e+000	 2.822703144427384e+000	 1.070927128060154e+001
 2.552425733123689e+000	 2.851049233635401e+000	 1.069165784512423e+001
 2.870915199596624e+000	 2.570210905730416e+000	 1.093707093865824e+001
 2.842371596281463e+000	 2.601742166287846e+000	 1.092459948585110e+001
 2.813474608910373e+000	 2.632964020610537e+000	 1.090500825250400e+001
 2.784229298092693e+000	 2.663870558322291e+000	 1.087765164906719e+001
 2.754640855609494e+000	 2.694455980110292e+000	 1.084590277425101e+001
 2.724714601346951e+000	 2.724714601346951e+000	 1.081494961701728e+001
 2.694455980110292e+000	 2.754640855609494e+000	 1.078457347001839e+001
 2.663870558322292e+000	 2.784229298092693e+000	 1.075451146740862e+001
 2.632964020610537e+000	 2.813474608910372e+000	 1.072771811541201e+001
 2.601742166287847e+000	 2.842371596281464e+000	 1.070582073141127e+001
 2.570210905730416e+000	 2.870915199596624e+000	 1.068783431875277e+001
 2.890781165557315e+000	 2.587996078337078e+000	 1.092305112702409e+001
 2.862040048135035e+000	 2.619745526791112e+000	 1.091024271408265e+001
 2.832943101333616e+000	 2.651183428001972e+000	 1.088976579898693e+001
 2.803495420780469e+000	 2.682303830695240e+000	 1.086219919528003e+001
 2.773702234182394e+000	 2.713100895428402e+000	 1.083420289884754e+001
 2.743568898237763e+000	 2.743568898237764e+000	 1.080672011727297e+001
 2.713100895428401e+000	 2.773702234182393e+000	 1.077952289073738e+001
 2.682303830695241e+000	 2.803495420780466e+000	 1.075235321549143e+001
 2.651183428001974e+000	 2.832943101333616e+000	 1.072560585562850e+001
 2.619745526791113e+000	 2.862040048135034e+000	 1.070296939318738e+001
 2.587996078337078e+000	 2.890781165557315e+000	 1.068422605826414e+001
 2.910647131517372e+000	 2.605781250943639e+000	 1.091050410688756e+001
 2.881708499988007e+000	 2.637748887294224e+000	 1.089690954117317e+001
 2.852411593756304e+000	 2.669402835393198e+000	 1.087500910963312e+001
 2.822761543467736e+000	 2.700737103067920e+000	 1.084971799455875e+001
 2.792763612754842e+000	 2.731745810746180e+000	 1.082474454424350e+001
 2.762423195128184e+000	 2.762423195128184e+000	 1.079994115194018e+001
 2.731745810746180e+000	 2.792763612754842e+000	 1.077514136893776e+001
 2.700737103067920e+000	 2.822761543467736e+000	 1.075014759491694e+001
 2.669402835393199e+000	 2.852411593756304e+000	 1.072471892837592e+001
 2.637748887294225e+000	 2.881708499988006e+000	 1.070083631131056e+001
 2.605781250943640e+000	 2.910647131517373e+000	 1.068095205958859e+001
 2.930513097476696e+000	 2.623566423550066e+000	 1.089989570109056e+001
 2.901376951840289e+000	 2.655752247797149e+000	 1.088503688135336e+001
 2.871880086178356e+000	 2.687622242784177e+000	 1.086307058054816e+001
 2.842027666154426e+000	 2.719170375440287e+000	 1.084047943535868e+001
 2.811824991326779e+000	 2.750390726063579e+000	 1.081775374851054e+001
 2.781277492018158e+000	 2.781277492018158e+000	 1.079483795978309e+001
 2.750390726063579e+000	 2.811824991326779e+000	 1.077165751439824e+001
 2.719170375440287e+000	 2.842027666154426e+000	 1.074810581704644e+001
 2.687622242784177e+000	 2.871880086178355e+000	 1.072403135067942e+001
 2.655752247797150e+000	 2.901376951840288e+000	 1.069954383733404e+001
 2.623566423550066e+000	 2.930513097476695e+000	 1.067813518353598e+001
 2.445714697483802e+000	 2.731853437862469e+000	 1.071339524763874e+001
 2.415417493925476e+000	 2.758677485780278e+000	 1.069204012705433e+001
 2.384837340452332e+000	 2.785155919594005e+000	 1.066767945470194e+001
 2.353980161519819e+000	 2.811284315132539e+000	 1.064100128147752e+001
 2.322851972591214e+000	 2.837058383631288e+000	 1.061256967211330e+001
 2.291458876269918e+000	 2.862473974030362e+000	 1.058283292253141e+001
 2.259807058363653e+000	 2.887527075140475e+000	 1.055213237578559e+001
 2.227902783885795e+000	 2.912213817674248e+000	 1.052071173806933e+001
 2.195752392999228e+000	 2.936530476140902e+000	 1.048872679363196e+001
 2.163362296908118e+000	 2.960473470602509e+000	 1.045625541570082e+001
 2.130738973703104e+000	 2.984039368290266e+000	 1.042330776967144e+001
 2.463499870090225e+000	 2.751719403824789e+000	 1.071033636687985e+001
 2.432982346068520e+000	 2.778738515509805e+000	 1.068975401663076e+001
 2.402179814527717e+000	 2.805409499794067e+000	 1.066518507494520e+001
 2.371098243005753e+000	 2.831727900334017e+000	 1.063758584072082e+001
 2.339743690710203e+000	 2.857689397177289e+000	 1.060778500252543e+001
 2.308122304622443e+000	 2.883289809077596e+000	 1.057649191856228e+001
 2.276240315533232e+000	 2.908525095676396e+000	 1.054430552269186e+001
 2.244104034014960e+000	 2.933391359548965e+000	 1.051172375384792e+001
 2.211719846336016e+000	 2.957884848112855e+000	 1.047915340340731e+001
 2.179094210322679e+000	 2.982001955396932e+000	 1.044692027323337e+001
 2.146233651174095e+000	 3.005739223669392e+000	 1.041527953621815e+001
 2.481285042696784e+000	 2.771585369787176e+000	 1.070696049781610e+001
 2.450547198211751e+000	 2.798799545239443e+000	 1.068695056054619e+001
 2.419522288603349e+000	 2.825663079994292e+000	 1.066213682584636e+001
 2.388216324492002e+000	 2.852171485535715e+000	 1.063369957390871e+001
 2.356635408829573e+000	 2.878320410723559e+000	 1.060268785114962e+001
 2.324785732975417e+000	 2.904105644125148e+000	 1.057002791425527e+001
 2.292673572703325e+000	 2.929523116212681e+000	 1.053653232812021e+001
 2.260305284144705e+000	 2.954568901424073e+000	 1.050290961050945e+001
 2.227687299673443e+000	 2.979239220085216e+000	 1.046977431335792e+001
 2.194826123737930e+000	 3.003530440191760e+000	 1.043765742868165e+001
 2.161728328645818e+000	 3.027439079048901e+000	 1.040701700612327e+001
 2.499070215303442e+000	 2.791451335749532e+000	 1.070332573266073e+001
 2.468112050355138e+000	 2.818860574969083e+000	 1.068368612577891e+001
 2.436864762679192e+000	 2.845916660194561e+000	 1.065859072566778e+001
 2.405334405978520e+000	 2.872615070737500e+000	 1.062940034244284e+001
 2.373527126949274e+000	 2.898951424269965e+000	 1.059734091764417e+001
 2.341449161328784e+000	 2.924921479172883e+000	 1.056351223391449e+001
 2.309106829873870e+000	 2.950521136749184e+000	 1.052889730682413e+001
 2.276506534274954e+000	 2.975746443299433e+000	 1.049437234679994e+001
 2.243654753011425e+000	 3.000593592057847e+000	 1.046071717605358e+001
 2.210558037153779e+000	 3.025058924986865e+000	 1.042862598336549e+001
 2.177223006118176e+000	 3.049138934428673e+000	 1.039871829857713e+001
 2.516855387910169e+000	 2.811317301711755e+000	 1.069950480688392e+001
 2.485676902498642e+000	 2.838921604698615e+000	 1.068003218853297e+001
 2.454207236755210e+000	 2.866170240394754e+000	 1.065461840612133e+001
 2.422452487465268e+000	 2.893058655939248e+000	 1.062476213317576e+001
 2.390418845069261e+000	 2.919582437816373e+000	 1.059182351624468e+001
 2.358112589682489e+000	 2.945737314220656e+000	 1.055703325189196e+001
 2.325540087044803e+000	 2.971519157285764e+000	 1.052150237456358e+001
 2.292707784405641e+000	 2.996923985174902e+000	 1.048623263803615e+001
 2.259622206349885e+000	 3.021947964030613e+000	 1.045212736994719e+001
 2.226289950570138e+000	 3.046587409782116e+000	 1.042000267676993e+001
 2.192717683591067e+000	 3.070838789808597e+000	 1.039059887553603e+001
 2.534640560516928e+000	 2.831183267673744e+000	 1.069558330135790e+001
 2.503241754642231e+000	 2.858982634427929e+000	 1.067607356324031e+001
 2.471549710831363e+000	 2.886423820594751e+000	 1.065030537086085e+001
 2.439570568952202e+000	 2.913502241140827e+000	 1.061987334988393e+001
 2.407310563189485e+000	 2.940213451362646e+000	 1.058622990455536e+001
 2.374776018036478e+000	 2.966553149268330e+000	 1.055069476387634e+001
 2.341973344216064e+000	 2.992517177822279e+000	 1.051446526790129e+001
 2.308909034536692e+000	 3.018101527050338e+000	 1.047862727124130e+001
 2.275589659688737e+000	 3.043302336003374e+000	 1.044416653749576e+001
 2.242021863986916e+000	 3.068115894577388e+000	 1.041198049609705e+001
 2.208212361064392e+000	 3.092538645188554e+000	 1.038289023194289e+001
 2.552425733123689e+000	 2.851049233635401e+000	 1.069165784512423e+001
 2.520806606785871e+000	 2.879043664156915e+000	 1.067190663193077e+001
 2.488892184907617e+000	 2.906677400794436e+000	 1.064574925405229e+001
 2.456688650439284e+000	 2.933945826342113e+000	 1.061483510445252e+001
 2.424202281309898e+000	 2.960844464908652e+000	 1.058066761157370e+001
 2.391439446390697e+000	 2.987368984315766e+000	 1.054461435678441e+001
 2.358406601387590e+000	 3.013515198358589e+000	 1.050791796178197e+001
 2.325110284668035e+000	 3.039279068925602e+000	 1.047170761701825e+001
 2.291557113027905e+000	 3.064656707975995e+000	 1.043701111870726e+001
 2.257753777404021e+000	 3.089644379372548e+000	 1.040476727963270e+001
 2.223707038538050e+000	 3.114238500568427e+000	 1.037583857781204e+001
 2.570210905730416e+000	 2.870915199596624e+000	 1.068783431875277e+001
 2.538371458929527e+000	 2.899104693885465e+000	 1.066763757395243e+001
 2.506234658983931e+000	 2.926930980993684e+000	 1.064105807901767e+001
 2.473806731926470e+000	 2.954389411542977e+000	 1.060975950778609e+001
 2.441093999430454e+000	 2.981475478454253e+000	 1.057525576498487e+001
 2.408102874745091e+000	 3.008184819362824e+000	 1.053892177732289e+001
 2.374839858559317e+000	 3.034513218894550e+000	 1.050200508500250e+001
 2.341311534799601e+000	 3.060456610800551e+000	 1.046563809831735e+001
 2.307524566367309e+000	 3.086011079948338e+000	 1.043085088033591e+001
 2.273485690821365e+000	 3.111172864167470e+000	 1.039858431422700e+001
 2.239201716011941e+000	 3.135938355948102e+000	 1.036970351257337e+001
 2.587996078337078e+000	 2.890781165557315e+000	 1.068422605826414e+001
 2.555936311073165e+000	 2.919165723613464e+000	 1.066338059602507e+001
 2.523577133060271e+000	 2.947184561192379e+000	 1.063634851694865e+001
 2.490924813413718e+000	 2.974832996743291e+000	 1.060476796045804e+001
 2.457985717551106e+000	 3.002106491999317e+000	 1.057012341776180e+001
 2.424766303099606e+000	 3.029000654409364e+000	 1.053375729928467e+001
 2.391273115731185e+000	 3.055511239430020e+000	 1.049688233367389e+001
 2.357512784931317e+000	 3.081634152675044e+000	 1.046059465624862e+001
 2.323492019706865e+000	 3.107365451920266e+000	 1.042588744093388e+001
 2.289217604238857e+000	 3.132701348962026e+000	 1.039366492717225e+001
 2.254696393485963e+000	 3.157638211327462e+000	 1.036475669204757e+001
 2.605781250943640e+000	 2.910647131517373e+000	 1.068095205958859e+001
 2.573501163216749e+000	 2.939226753340805e+000	 1.065925616261096e+001
 2.540919607136599e+000	 2.967438141390402e+000	 1.063174414568714e+001
 2.508042894900989e+000	 2.995276581942926e+000	 1.059998944311160e+001
 2.474877435671806e+000	 3.022737505543709e+000	 1.056540787410318e+001
 2.441429731454189e+000	 3.049816489455246e+000	 1.052927008963979e+001
 2.407706372903130e+000	 3.076509259964858e+000	 1.049271488277142e+001
 2.373714035063113e+000	 3.102811694548940e+000	 1.045676321307955e+001
 2.339459473046495e+000	 3.128719823891644e+000	 1.042233279195904e+001
 2.304949517656405e+000	 3.154229833756084e+000	 1.039025307274565e+001
 2.270191070960018e+000	 3.179338066706392e+000	 1.036128048840465e+001
 2.623566423550066e+000	 2.930513097476695e+000	 1.067813518353598e+001
 2.591066015360247e+000	 2.959287783067377e+000	 1.065538922658817e+001
 2.558262081212877e+000	 2.987691721587632e+000	 1.062737370856944e+001
 2.525160976388239e+000	 3.015720167141756e+000	 1.059555880662391e+001
 2.491769153792506e+000	 3.043368519087290e+000	 1.056125301474167e+001
 2.458093159808782e+000	 3.070632324500329e+000	 1.052561657347863e+001
 2.424139630075089e+000	 3.097507280498922e+000	 1.048967579586367e+001
 2.389915285194918e+000	 3.123989236422097e+000	 1.045433813255193e+001
 2.355426926386116e+000	 3.150074195862330e+000	 1.042040781512429e+001
 2.320681431073921e+000	 3.175758318549516e+000	 1.038860191367037e+001
 2.285685748434003e+000	 3.201037922084772e+000	 1.035956664343902e+001
 2.130738973703104e+000	 2.984039368290266e+000	 1.042330776967144e+001
 2.097888963455511e+000	 3.007224884231966e+000	 1.038728271596712e+001
 2.064818861901898e+000	 3.030026880021336e+000	 1.034334105513191e+001
 2.031535318394141e+000	 3.052442367516635e+000	 1.028811523719916e+001
 1.998045032338640e+000	 3.074468510735239e+000	 1.021833794392991e+001
 1.964354748895380e+000	 3.096102626762256e+000	 1.014932163897891e+001
 1.930471254663603e+000	 3.117342186515053e+000	 1.009253865457773e+001
 1.896401373359606e+000	 3.138184815363837e+000	 1.004449576365754e+001
 1.862151961492186e+000	 3.158628293608679e+000	 1.000168223633209e+001
 1.827729904041206e+000	 3.178670556813624e+000	 9.960630539259626e+000
 1.793142110144684e+000	 3.198309695998757e+000	 9.917973121476191e+000
 2.146233651174095e+000	 3.005739223669392e+000	 1.041527953621815e+001
 2.113144756520816e+000	 3.029093344069806e+000	 1.038217303474678e+001
 2.079834170063415e+000	 3.052061155369497e+000	 1.034304174060241e+001
 2.046308589507668e+000	 3.074639647697040e+000	 1.029436696044895e+001
 2.012574762977862e+000	 3.096825964446623e+000	 1.023267432403423e+001
 1.978639484684599e+000	 3.118617403193275e+000	 1.016117484026261e+001
 1.944509590579077e+000	 3.140011416462942e+000	 1.010095791265535e+001
 1.910191953999462e+000	 3.161005612357592e+000	 1.005065617092198e+001
 1.875693481314891e+000	 3.181597755035698e+000	 1.000657849331156e+001
 1.841021107572608e+000	 3.201785765048789e+000	 9.965089517467334e+000
 1.806181792153683e+000	 3.221567719534900e+000	 9.922669169772494e+000
 2.161728328645818e+000	 3.027439079048901e+000	 1.040701700612327e+001
 2.128400549586890e+000	 3.050961803907981e+000	 1.037630895763576e+001
 2.094849478225728e+000	 3.074095430717927e+000	 1.034127998490853e+001
 2.061081860622007e+000	 3.096836927877634e+000	 1.029830009415180e+001
 2.027104493617909e+000	 3.119183418158109e+000	 1.024378417089659e+001
 1.992924220474649e+000	 3.141132179624305e+000	 1.017492265589532e+001
 1.958547926495383e+000	 3.162680646410756e+000	 1.011041836187675e+001
 1.923982534640149e+000	 3.183826409351194e+000	 1.005702221732495e+001
 1.889235001138425e+000	 3.204567216462506e+000	 1.001089545019028e+001
 1.854312311104831e+000	 3.224900973283702e+000	 9.968267843080545e+000
 1.819221474163497e+000	 3.244825743070775e+000	 9.925500056657093e+000
 2.177223006118176e+000	 3.049138934428673e+000	 1.039871829857713e+001
 2.143656342653623e+000	 3.072830263746392e+000	 1.036992974665775e+001
 2.109864786388716e+000	 3.096129706066546e+000	 1.033833172117101e+001
 2.075855131737030e+000	 3.119034208058360e+000	 1.030022177470270e+001
 2.041634224258642e+000	 3.141540871869664e+000	 1.025194254528508e+001
 2.007208956265381e+000	 3.163646956055338e+000	 1.018989812175877e+001
 1.972586262412364e+000	 3.185349876358512e+000	 1.012100442969319e+001
 1.937773115281503e+000	 3.206647206344684e+000	 1.006368944671596e+001
 1.902776520962613e+000	 3.227536677889154e+000	 1.001472765425499e+001
 1.867603514637697e+000	 3.248016181518425e+000	 9.970245682724926e+000
 1.832261156173944e+000	 3.268083766606453e+000	 9.926516972644635e+000
 2.192717683591067e+000	 3.070838789808597e+000	 1.039059887553603e+001
 2.158912135720905e+000	 3.094698723584939e+000	 1.036329164738918e+001
 2.124880094552259e+000	 3.118163981415277e+000	 1.033448961942223e+001
 2.090628402852606e+000	 3.141231488239165e+000	 1.030045575942304e+001
 2.056163954899922e+000	 3.163898325581261e+000	 1.025749798667257e+001
 2.021493692056648e+000	 3.186161732486373e+000	 1.020198629380291e+001
 1.986624598329865e+000	 3.208019106306229e+000	 1.013280631339625e+001
 1.951563695923357e+000	 3.229468003338096e+000	 1.007076298010069e+001
 1.916318040787283e+000	 3.250506139315696e+000	 1.001818315786389e+001
 1.880894718171029e+000	 3.271131389753024e+000	 9.971120758474852e+000
 1.845300838184841e+000	 3.291341790141999e+000	 9.925792839178429e+000
 2.208212361064392e+000	 3.092538645188554e+000	 1.038289023194289e+001
 2.174167928788625e+000	 3.116567183423526e+000	 1.035666666374756e+001
 2.139895402716236e+000	 3.140198256764044e+000	 1.033006194337917e+001
 2.105401673968606e+000	 3.163428768419998e+000	 1.029934136180420e+001
 2.070693685541608e+000	 3.186255779292868e+000	 1.026081469726186e+001
 2.035778427848301e+000	 3.208676508917402e+000	 1.021085406248013e+001
 2.000662934247727e+000	 3.230688336253922e+000	 1.014591105115117e+001
 1.965354276565550e+000	 3.252288800331470e+000	 1.007835462232297e+001
 1.929859560612266e+000	 3.273475600742183e+000	 1.002138078277006e+001
 1.894185921704648e+000	 3.294246597987558e+000	 9.971005759285008e+000
 1.858340520196004e+000	 3.314599813677478e+000	 9.923419855544228e+000
 2.223707038538050e+000	 3.114238500568427e+000	 1.037583857781204e+001
 2.189423721856672e+000	 3.138435643262051e+000	 1.035034132257604e+001
 2.154910710880527e+000	 3.162232532112769e+000	 1.032537139509378e+001
 2.120174945084900e+000	 3.185626048600799e+000	 1.029723237289361e+001
 2.085223416183562e+000	 3.208613233004458e+000	 1.026227153588713e+001
 2.050063163640193e+000	 3.231191285348421e+000	 1.021689840974968e+001
 2.014701270165797e+000	 3.253357566201609e+000	 1.015760258198239e+001
 1.979144857207914e+000	 3.275109597324839e+000	 1.008657995048062e+001
 1.943401080437389e+000	 3.296445062168672e+000	 1.002444736587790e+001
 1.907477125238377e+000	 3.317361806222092e+000	 9.970025733942459e+000
 1.871380202207249e+000	 3.337857837212958e+000	 9.919574471801493e+000
 2.239201716011941e+000	 3.135938355948102e+000	 1.036970351257337e+001
 2.204679514924937e+000	 3.160304103100417e+000	 1.034461542851947e+001
 2.169926019045013e+000	 3.184266807461372e+000	 1.032075394806861e+001
 2.134948216201358e+000	 3.207823328781521e+000	 1.029449596949485e+001
 2.099753146825645e+000	 3.230970686716001e+000	 1.026226099728689e+001
 2.064347899432174e+000	 3.253706061779425e+000	 1.022053035445192e+001
 2.028739606083914e+000	 3.276026796149308e+000	 1.016586564123514e+001
 1.992935437850286e+000	 3.297930394318245e+000	 1.009555538495929e+001
 1.956942600262480e+000	 3.319414523595211e+000	 1.002751498733249e+001
 1.920768328772037e+000	 3.340477014456690e+000	 9.968455607274454e+000
 1.884419884218392e+000	 3.361115860748503e+000	 9.916559149058227e+000
 2.254696393485963e+000	 3.157638211327462e+000	 1.036475669204757e+001
 2.219935307993310e+000	 3.182172562938526e+000	 1.033980080965830e+001
 2.184941327209573e+000	 3.206301082809782e+000	 1.031655766939193e+001
 2.149721487317850e+000	 3.230020608962105e+000	 1.029151160981572e+001
 2.114282877467717e+000	 3.253328140427468e+000	 1.026118817745133e+001
 2.078632635224096e+000	 3.276220838210407e+000	 1.022217398272300e+001
 2.042777942001925e+000	 3.298696026097039e+000	 1.017113577632532e+001
 2.006726018492503e+000	 3.320751191311725e+000	 1.010483861032052e+001
 1.970484120087367e+000	 3.342383985021857e+000	 1.003089541150500e+001
 1.934059532305449e+000	 3.363592222691413e+000	 9.968345165832858e+000
 1.897459566229250e+000	 3.384373884284180e+000	 9.915147239941765e+000
 2.270191070960018e+000	 3.179338066706392e+000	 1.036128048840465e+001
 2.235191101061679e+000	 3.204041022776280e+000	 1.033622005434218e+001
 2.199956635374086e+000	 3.228335358157914e+000	 1.031314153141733e+001
 2.164494758434246e+000	 3.252217889142499e+000	 1.028866991716431e+001
 2.128812608109640e+000	 3.275685594138827e+000	 1.025946972570992e+001
 2.092917371015813e+000	 3.298735614641365e+000	 1.022226546406029e+001
 2.056816277919670e+000	 3.321365256044816e+000	 1.017386130303726e+001
 2.020516599134397e+000	 3.343571988305312e+000	 1.011132340263928e+001
 1.984025639911879e+000	 3.365353446448660e+000	 1.003620069529695e+001
 1.947350735838437e+000	 3.386707430926325e+000	 9.969986079621634e+000
 1.910499248239641e+000	 3.407631907820057e+000	 9.914909282219540e+000
 2.285685748434003e+000	 3.201037922084772e+000	 1.035956664343902e+001
 2.250446894129934e+000	 3.225909482613577e+000	 1.033420523964080e+001
 2.214971943538432e+000	 3.250369633505693e+000	 1.031087421348378e+001
 2.179268029550415e+000	 3.274415169322649e+000	 1.028637155225971e+001
 2.143342338751272e+000	 3.298043047850050e+000	 1.025753278418824e+001
 2.107202106807173e+000	 3.321250391072290e+000	 1.022125205371959e+001
 2.070854613836993e+000	 3.344034485992656e+000	 1.017461115367255e+001
 2.034307179775805e+000	 3.366392785299044e+000	 1.011583970450889e+001
 1.997567159735843e+000	 3.388322907875672e+000	 1.004340640406335e+001
 1.960641939370821e+000	 3.409822639161488e+000	 9.972927143255514e+000
 1.923538930249378e+000	 3.430889931356199e+000	 9.915408808876848e+000
 1.793142110144684e+000	 3.198309695998757e+000	 9.917973121476191e+000
 1.758400732415532e+000	 3.217541103571807e+000	 9.874400549736803e+000
 1.723507538249754e+000	 3.236366160359109e+000	 9.832201030205292e+000
 1.688469482271451e+000	 3.254783426736442e+000	 9.790670285597372e+000
 1.653293526122405e+000	 3.272791617828106e+000	 9.749317892170826e+000
 1.617986634272129e+000	 3.290389603006431e+000	 9.707897349156847e+000
 1.582555769867111e+000	 3.307576405259168e+000	 9.666431000353452e+000
 1.547007890623956e+000	 3.324351200427108e+000	 9.625229743976588e+000
 1.511349944770981e+000	 3.340713316314456e+000	 9.585101617242129e+000
 1.475588867042667e+000	 3.356662231674654e+000	 9.548025159900694e+000
 1.439731574731234e+000	 3.372197575074529e+000	 9.514439660626193e+000
 1.806181792153683e+000	 3.221567719534900e+000	 9.922669169772497e+000
 1.771187776044500e+000	 3.240938977395473e+000	 9.879528977435822e+000
 1.736040839493528e+000	 3.259900929498167e+000	 9.837560694453448e+000
 1.700747987698722e+000	 3.278452125749842e+000	 9.796058692625278e+000
 1.665316232926750e+000	 3.296591271931206e+000	 9.754551733749150e+000
 1.629752590292574e+000	 3.314317229192684e+000	 9.712834263786846e+000
 1.594064073578509e+000	 3.331629013417209e+000	 9.670992272052299e+000
 1.558257691097504e+000	 3.348525794452300e+000	 9.630351202283062e+000
 1.522340441605219e+000	 3.365006895213962e+000	 9.592494052730562e+000
 1.486319310265349e+000	 3.381071790665132e+000	 9.557461949977158e+000
 1.450201264672494e+000	 3.396720106671581e+000	 9.525291715508255e+000
 1.819221474163497e+000	 3.244825743070775e+000	 9.925500056657093e+000
 1.783974819674280e+000	 3.264336851218890e+000	 9.882336138553534e+000
 1.748574140738111e+000	 3.283435698637017e+000	 9.840243061258988e+000
 1.713026493126800e+000	 3.302120824763098e+000	 9.798489291064684e+000
 1.677338939731899e+000	 3.320390926034241e+000	 9.756600367720257e+000
 1.641518546313822e+000	 3.338244855378957e+000	 9.714499389881224e+000
 1.605572377290709e+000	 3.355681621575362e+000	 9.674138202669145e+000
 1.569507491571853e+000	 3.372700388477690e+000	 9.636158350672492e+000
 1.533330938440257e+000	 3.389300474113742e+000	 9.600468758277138e+000
 1.497049753488832e+000	 3.405481349655953e+000	 9.566988017254859e+000
 1.460670954614553e+000	 3.421242638269016e+000	 9.535644744077688e+000
 1.832261156173944e+000	 3.268083766606453e+000	 9.926516972644635e+000
 1.796761863304683e+000	 3.287734725042119e+000	 9.882838003915541e+000
 1.761107441983310e+000	 3.306970467775714e+000	 9.840231889981460e+000
 1.725304998555488e+000	 3.325789523776247e+000	 9.797916874409014e+000
 1.689361646537655e+000	 3.344190580137223e+000	 9.755914398475614e+000
 1.653284502335673e+000	 3.362172481565245e+000	 9.716130480753055e+000
 1.617080681003511e+000	 3.379734229733591e+000	 9.678557451665888e+000
 1.580757292046803e+000	 3.396874982503220e+000	 9.642955875376165e+000
 1.544321435275894e+000	 3.413594053013718e+000	 9.609098844742917e+000
 1.507780196712913e+000	 3.429890908647009e+000	 9.576772300574318e+000
 1.471140644557212e+000	 3.445765169866720e+000	 9.545775431002998e+000
 1.845300838184841e+000	 3.291341790141999e+000	 9.925792839178428e+000
 1.809548906935523e+000	 3.311132598865223e+000	 9.881076310410194e+000
 1.773640743228935e+000	 3.330505236914307e+000	 9.837540313730651e+000
 1.737583503984593e+000	 3.349458222789323e+000	 9.795434113736052e+000
 1.701384353343822e+000	 3.367990234240172e+000	 9.756103238255099e+000
 1.665050458357930e+000	 3.386100107751536e+000	 9.719145927208306e+000
 1.628588984716716e+000	 3.403786837891867e+000	 9.684144512231647e+000
 1.592007092522154e+000	 3.421049576528835e+000	 9.650697487486823e+000
 1.555311932111932e+000	 3.437887631913811e+000	 9.618419803064246e+000
 1.518510639937396e+000	 3.454300467638207e+000	 9.586943216226926e+000
 1.481610334500272e+000	 3.470287701464573e+000	 9.555916741421623e+000
 1.858340520196004e+000	 3.314599813677478e+000	 9.923419855544228e+000
 1.822335950566611e+000	 3.334530472688268e+000	 9.877121847160812e+000
 1.786174044474793e+000	 3.354040006052849e+000	 9.833906524891967e+000
 1.749862009413920e+000	 3.373126921802362e+000	 9.794299387554229e+000
 1.713407060150202e+000	 3.391789888343099e+000	 9.757652772651557e+000
 1.676816414380395e+000	 3.410027733937826e+000	 9.723339217871278e+000
 1.640097288430125e+000	 3.427839446050158e+000	 9.690751785462085e+000
 1.603256892997707e+000	 3.445224170554475e+000	 9.659304354861369e+000
 1.566302428948170e+000	 3.462181210813938e+000	 9.628431939260608e+000
 1.529241083162078e+000	 3.478710026629442e+000	 9.597591076010737e+000
 1.492080024443532e+000	 3.494810233062460e+000	 9.566260334537265e+000
 1.871380202207249e+000	 3.337857837212958e+000	 9.919574471801495e+000
 1.835122994197758e+000	 3.357928346511310e+000	 9.873200421981769e+000
 1.798707345720694e+000	 3.377574775191389e+000	 9.831786697517922e+000
 1.762140514843276e+000	 3.396795620815399e+000	 9.794437769670989e+000
 1.725429766956601e+000	 3.415589542446022e+000	 9.760283248138677e+000
 1.688582370402871e+000	 3.433955360124104e+000	 9.728478299981974e+000
 1.651605592143539e+000	 3.451892054208428e+000	 9.698203980940104e+000
 1.614506693473261e+000	 3.469398764580087e+000	 9.668667544104398e+000
 1.577292925784410e+000	 3.486474789714023e+000	 9.639102785310122e+000
 1.539971526386760e+000	 3.503119585620616e+000	 9.608770478434408e+000
 1.502549714386791e+000	 3.519332764660260e+000	 9.576958947150622e+000
 1.884419884218392e+000	 3.361115860748503e+000	 9.916559149058228e+000
 1.847910037828777e+000	 3.381326220334415e+000	 9.870811310630257e+000
 1.811240646966444e+000	 3.401109544329981e+000	 9.830844548141817e+000
 1.774419020272465e+000	 3.420464319828467e+000	 9.795510962943773e+000
 1.737452473762821e+000	 3.439389196548955e+000	 9.763693844888678e+000
 1.700348326425159e+000	 3.457882986310363e+000	 9.734308097715008e+000
 1.663113895856760e+000	 3.475944662366650e+000	 9.706300581551096e+000
 1.625756493948619e+000	 3.493573358605613e+000	 9.678650441721519e+000
 1.588283422620450e+000	 3.510768368613983e+000	 9.650369487061081e+000
 1.550701969611243e+000	 3.527529144611627e+000	 9.620502674369138e+000
 1.513019404329850e+000	 3.543855296257858e+000	 9.588128748579742e+000
 1.897459566229250e+000	 3.384373884284180e+000	 9.915147239941765e+000
 1.860697081459480e+000	 3.404724094157645e+000	 9.869549946217767e+000
 1.823773948211853e+000	 3.424644313468674e+000	 9.830696839733236e+000
 1.786697525701294e+000	 3.444133018841604e+000	 9.797163953567456e+000
 1.749475180568665e+000	 3.463188850651911e+000	 9.767565241681144e+000
 1.712114282447061e+000	 3.481810612496597e+000	 9.740553013501931e+000
 1.674622199569588e+000	 3.499997270524788e+000	 9.714818290085063e+000
 1.637006294423580e+000	 3.517747952630996e+000	 9.689091155444494e+000
 1.599273919456091e+000	 3.535061947513742e+000	 9.662141170284109e+000
 1.561432412835325e+000	 3.551938703602373e+000	 9.632777908377788e+000
 1.523489094272510e+000	 3.568377827855136e+000	 9.599851668345677e+000
 1.910499248239641e+000	 3.407631907820057e+000	 9.914909282219542e+000
 1.873484125089678e+000	 3.428121967981061e+000	 9.869000705675866e+000
 1.836307249456730e+000	 3.448179082607521e+000	 9.830947871662762e+000
 1.798976031129568e+000	 3.467801717854844e+000	 9.799027632903885e+000
 1.761497887373937e+000	 3.486988504754908e+000	 9.771562165421516e+000
 1.723880238468380e+000	 3.505738238682796e+000	 9.746919413168332e+000
 1.686130503281824e+000	 3.524049878682809e+000	 9.723513458496498e+000
 1.648256094897944e+000	 3.541922546656179e+000	 9.699804896675808e+000
 1.610264416291134e+000	 3.559355526413216e+000	 9.674301285909777e+000
 1.572162856058808e+000	 3.576348262592756e+000	 9.645557736883944e+000
 1.533958784214570e+000	 3.592900359451976e+000	 9.612177697925812e+000
 1.923538930249378e+000	 3.430889931356199e+000	 9.915408808876848e+000
 1.886271168719184e+000	 3.451519841804724e+000	 9.868739683338061e+000
 1.848840550700881e+000	 3.471713851746570e+000	 9.831192167066122e+000
 1.811254536557091e+000	 3.491470416868222e+000	 9.800721405077841e+000
 1.773520594178441e+000	 3.510788158857956e+000	 9.775335925999343e+000
 1.735646194488916e+000	 3.529665864868949e+000	 9.753098095654927e+000
 1.697638806993269e+000	 3.548102486840681e+000	 9.732124500643892e+000
 1.659505895371511e+000	 3.566097140681106e+000	 9.710586344948522e+000
 1.621254913125376e+000	 3.583649105312325e+000	 9.686709935439030e+000
 1.582893299281490e+000	 3.600757821582674e+000	 9.658777324279235e+000
 1.544428474155829e+000	 3.617422891048259e+000	 9.625127167804463e+000
 1.439731574731234e+000	 3.372197575074529e+000	 9.514439660626195e+000
 1.403779565205173e+000	 3.387321361489601e+000	 9.476178525922068e+000
 1.367745085892707e+000	 3.402031155838170e+000	 9.422517521207773e+000
 1.331634983434178e+000	 3.416327030840313e+000	 9.349898100476574e+000
 1.295456071785158e+000	 3.430209203416529e+000	 9.276890637338795e+000
 1.259215128608840e+000	 3.443678032987045e+000	 9.219210454599292e+000
 1.222918891747824e+000	 3.456734019669560e+000	 9.174026861073012e+000
 1.186574055778321e+000	 3.469377802379238e+000	 9.138052927884866e+000
 1.150187268649677e+000	 3.481610156834796e+000	 9.107660333917007e+000
 1.113765128411844e+000	 3.493431993474642e+000	 9.078985666952509e+000
 1.077314180033310e+000	 3.504844355287081e+000	 9.048028313719946e+000
 1.450201264672494e+000	 3.396720106671581e+000	 9.525291715508258e+000
 1.413987813083974e+000	 3.411953872861663e+000	 9.488686073058355e+000
 1.377691291990982e+000	 3.426770636445832e+000	 9.438080377470715e+000
 1.341318597822436e+000	 3.441170470672978e+000	 9.370224713852434e+000
 1.304876594084805e+000	 3.455153594041044e+000	 9.293835006551634e+000
 1.268372107728261e+000	 3.468720368583944e+000	 9.232307920765267e+000
 1.231811925592806e+000	 3.481871298056221e+000	 9.183841256981019e+000
 1.195202790937426e+000	 3.494607026019214e+000	 9.145247467540903e+000
 1.158551400055168e+000	 3.506928333832644e+000	 9.113003603959696e+000
 1.121864398976821e+000	 3.518836138555602e+000	 9.083358419926906e+000
 1.085148380265702e+000	 3.530331490760975e+000	 9.052430669336779e+000
 1.460670954614553e+000	 3.421242638269016e+000	 9.535644744077688e+000
 1.424196060963574e+000	 3.436586384234133e+000	 9.500012270021676e+000
 1.387637498090055e+000	 3.451510117053900e+000	 9.451694220959565e+000
 1.351002212211490e+000	 3.466013910506030e+000	 9.387781192400977e+000
 1.314297116385243e+000	 3.480097984665906e+000	 9.310509488189201e+000
 1.277529086848464e+000	 3.493762704181139e+000	 9.245222910458523e+000
 1.240704959438560e+000	 3.507008576443119e+000	 9.193579461092890e+000
 1.203831526097285e+000	 3.519836249659356e+000	 9.152482094222114e+000
 1.166915531461390e+000	 3.532246510830581e+000	 9.118505903554199e+000
 1.129963669542498e+000	 3.544240283636570e+000	 9.088005973184558e+000
 1.092982580498757e+000	 3.555818626234796e+000	 9.057216012992107e+000
 1.471140644557212e+000	 3.445765169866720e+000	 9.545775431002998e+000
 1.434404308843775e+000	 3.461218895606880e+000	 9.510544318471883e+000
 1.397583704189727e+000	 3.476249597662238e+000	 9.463850221302380e+000
 1.360685826601141e+000	 3.490857350339327e+000	 9.403113888105084e+000
 1.323717638686275e+000	 3.505042375290975e+000	 9.327116012236530e+000
 1.286686065969255e+000	 3.518805039778496e+000	 9.258172606567193e+000
 1.249597993284890e+000	 3.532145854830123e+000	 9.203465431543329e+000
 1.212460261257707e+000	 3.545065473299543e+000	 9.159979777833343e+000
 1.175279662868157e+000	 3.557564687828503e+000	 9.124382266889285e+000
 1.138062940108700e+000	 3.569644428717461e+000	 9.093129390413957e+000
 1.100816780732308e+000	 3.581305761708479e+000	 9.062566406895066e+000
 1.481610334500272e+000	 3.470287701464573e+000	 9.555916741421623e+000
 1.444612556724376e+000	 3.485851406979773e+000	 9.520622476169315e+000
 1.407529910289798e+000	 3.500989078270704e+000	 9.474989623691753e+000
 1.370369440991190e+000	 3.515700790172727e+000	 9.416758979298544e+000
 1.333138160987702e+000	 3.529986765916117e+000	 9.343836448156743e+000
 1.295843045090437e+000	 3.543847375375882e+000	 9.271353867055652e+000
 1.258491027131605e+000	 3.557283133217108e+000	 9.213702264582725e+000
 1.221088996418506e+000	 3.570294696939667e+000	 9.167941826177657e+000
 1.183643794275290e+000	 3.582882864826309e+000	 9.130825014573134e+000
 1.146162210675252e+000	 3.595048573798191e+000	 9.098905733551291e+000
 1.108650980966192e+000	 3.606792897181959e+000	 9.068638403648290e+000
 1.492080024443532e+000	 3.494810233062460e+000	 9.566260334537265e+000
 1.454820804605176e+000	 3.510483918352682e+000	 9.530542469625974e+000
 1.417476116390070e+000	 3.525728558879165e+000	 9.485506154987778e+000
 1.380053055381439e+000	 3.540544230006091e+000	 9.429202377409100e+000
 1.342558683289327e+000	 3.554931156541184e+000	 9.359845373711364e+000
 1.305000024211814e+000	 3.568889710973159e+000	 9.284944380031405e+000
 1.267384060978513e+000	 3.582420411603949e+000	 9.224473484016915e+000
 1.229717731579493e+000	 3.595523920579608e+000	 9.176549293844694e+000
 1.192007925682606e+000	 3.608201041823900e+000	 9.138005267504289e+000
 1.154261481241978e+000	 3.620452718878675e+000	 9.105489667662674e+000
 1.116485181200240e+000	 3.632280032655170e+000	 9.075564728697033e+000
 1.502549714386791e+000	 3.519332764660260e+000	 9.576958947150622e+000
 1.465029052485976e+000	 3.535116429725479e+000	 9.540557873362257e+000
 1.427422322490341e+000	 3.550468039487481e+000	 9.495748393372773e+000
 1.389736669771687e+000	 3.565387669839278e+000	 9.440882082040018e+000
 1.351979205590952e+000	 3.579875547166044e+000	 9.374471758940764e+000
 1.314157003333191e+000	 3.593932046570194e+000	 9.299103774758573e+000
 1.276277094825421e+000	 3.607557689990518e+000	 9.235944284543910e+000
 1.238346466740479e+000	 3.620753144219250e+000	 9.185964343174470e+000
 1.200372057089921e+000	 3.633519218821174e+000	 9.146074411212631e+000
 1.162360751808705e+000	 3.645856863958830e+000	 9.113015014895673e+000
 1.124319381434289e+000	 3.657767168128049e+000	 9.083455910644428e+000
 1.513019404329850e+000	 3.543855296257858e+000	 9.588128748579742e+000
 1.475237300366577e+000	 3.559748941098035e+000	 9.550882457386566e+000
 1.437368528590412e+000	 3.575207520095515e+000	 9.506022103323957e+000
 1.399420284161736e+000	 3.590231109672148e+000	 9.452190498716721e+000
 1.361399727892379e+000	 3.604819937790551e+000	 9.388189219088488e+000
 1.323313982454373e+000	 3.618974382166853e+000	 9.313974690752039e+000
 1.285170128672137e+000	 3.632694968376689e+000	 9.248262731222409e+000
 1.246975201901279e+000	 3.645982367858483e+000	 9.196331559617663e+000
 1.208736188497053e+000	 3.658837395818033e+000	 9.155165513068377e+000
 1.170460022375257e+000	 3.671261009038572e+000	 9.121596259967692e+000
 1.132153581668172e+000	 3.683254303600529e+000	 9.092401861956923e+000
 1.523489094272510e+000	 3.568377827855136e+000	 9.599851668345677e+000
 1.485445548246778e+000	 3.584381452470217e+000	 9.561692504426585e+000
 1.447314734690085e+000	 3.599947000703133e+000	 9.516592537571981e+000
 1.409103898551388e+000	 3.615074549504560e+000	 9.463476721094146e+000
 1.370820250193411e+000	 3.629764328414573e+000	 9.401425803371499e+000
 1.332470961575163e+000	 3.644016717762999e+000	 9.329683806967827e+000
 1.294063162518467e+000	 3.657832246762335e+000	 9.261560917180198e+000
 1.255603937061701e+000	 3.671211591497187e+000	 9.207779223686266e+000
 1.217100319903821e+000	 3.684155572814372e+000	 9.165394694626684e+000
 1.178559292941459e+000	 3.696665154117818e+000	 9.131330009521760e+000
 1.139987781901724e+000	 3.708741439072548e+000	 9.102473412447804e+000
 1.533958784214570e+000	 3.592900359451976e+000	 9.612177697925812e+000
 1.495653796126378e+000	 3.609013963841896e+000	 9.573129098357285e+000
 1.457260940789158e+000	 3.624686481310194e+000	 9.527686707622827e+000
 1.418787512940441e+000	 3.639917989336373e+000	 9.475048779322691e+000
 1.380240772493849e+000	 3.654708719037964e+000	 9.414565896390077e+000
 1.341627940695367e+000	 3.669059053358498e+000	 9.345741593622780e+000
 1.302956196364220e+000	 3.682969525147330e+000	 9.275956081558757e+000
 1.264232672221559e+000	 3.696440815135248e+000	 9.220420541568382e+000
 1.225464451310042e+000	 3.709473749810091e+000	 9.176862461251732e+000
 1.186658563507136e+000	 3.722069299196482e+000	 9.142296407554149e+000
 1.147821982134778e+000	 3.734228574544038e+000	 9.113723797793059e+000
 1.544428474155829e+000	 3.617422891048259e+000	 9.625127167804463e+000
 1.505862044005179e+000	 3.633646475212943e+000	 9.585300385192507e+000
 1.467207146887431e+000	 3.649425961916561e+000	 9.539495624334968e+000
 1.428471127328699e+000	 3.664761429167447e+000	 9.487175856178954e+000
 1.389661294793495e+000	 3.679653109660585e+000	 9.427952406101477e+000
 1.350784919814788e+000	 3.694101388953216e+000	 9.361585121221534e+000
 1.311849230209202e+000	 3.708106803531544e+000	 9.291551689580285e+000
 1.272861407380664e+000	 3.721670038772552e+000	 9.234354836368095e+000
 1.233828582715533e+000	 3.734791926805089e+000	 9.189654991046028e+000
 1.194757834072113e+000	 3.747473444274481e+000	 9.154560508998088e+000
 1.155656182367169e+000	 3.759715710014934e+000	 9.126190105215457e+000
 1.077314180033310e+000	 3.504844355287081e+000	 9.048028313719946e+000
 1.040840911791156e+000	 3.515848414683465e+000	 9.014787048604834e+000
 1.004351750767449e+000	 3.526445468549742e+000	 8.981943871025116e+000
 9.678530616055535e-001	 3.536636938483259e+000	 8.949544680828307e+000
 9.313511442442012e-001	 3.546424369203119e+000	 8.917736761661690e+000
 8.948522312174633e-001	 3.555809426018735e+000	 8.886841516783532e+000
 8.583624850557755e-001	 3.564793892237349e+000	 8.857398549038919e+000
 8.218879957891516e-001	 3.573379666514728e+000	 8.830207920614855e+000
 7.854347785535496e-001	 3.581568760153285e+000	 8.806366913053758e+000
 7.490087713011601e-001	 3.589363294351825e+000	 8.787301744803237e+000
 7.126158326152124e-001	 3.596765497411133e+000	 8.774794710914739e+000
 1.085148380265702e+000	 3.530331490760975e+000	 9.052430669336779e+000
 1.048409879381463e+000	 3.541415571385863e+000	 9.020213342751392e+000
 1.011655370143745e+000	 3.552089686747149e+000	 8.989092843670486e+000
 9.748912634794358e-001	 3.562355268780022e+000	 8.958783087271485e+000
 9.381239051402550e-001	 3.572213873436759e+000	 8.929143380910372e+000
 9.013595729831024e-001	 3.581667178136879e+000	 8.900191124847090e+000
 8.646044743521751e-001	 3.590716979155809e+000	 8.872174293304642e+000
 8.278647435640277e-001	 3.599365188956309e+000	 8.845607021374107e+000
 7.911464394965310e-001	 3.607613833466946e+000	 8.821305230552239e+000
 7.544555432825092e-001	 3.615465049311848e+000	 8.800417060231572e+000
 7.177979561086599e-001	 3.622921080995963e+000	 8.784448600214510e+000
 1.092982580498757e+000	 3.555818626234796e+000	 9.057216012992107e+000
 1.055978846972389e+000	 3.566982728088109e+000	 9.026094300950300e+000
 1.018958989520610e+000	 3.577733904944332e+000	 8.996716032696826e+000
 9.819294653538297e-001	 3.588073599076492e+000	 8.968509230526710e+000
 9.448966660367629e-001	 3.598003377670048e+000	 8.941052886979065e+000
 9.078669147491362e-001	 3.607524930254625e+000	 8.914093987380356e+000
 8.708464636489093e-001	 3.616640066073833e+000	 8.887616037814350e+000
 8.338414913391804e-001	 3.625350711397429e+000	 8.861874234460348e+000
 7.968581004397339e-001	 3.633658906780143e+000	 8.837429780664131e+000
 7.599023152640315e-001	 3.641566804271422e+000	 8.815178856233134e+000
 7.229800796022363e-001	 3.649076664580380e+000	 8.796376765900233e+000
 1.100816780732308e+000	 3.581305761708479e+000	 9.062566406895066e+000
 1.063547814563778e+000	 3.592549884790160e+000	 9.032586305506726e+000
 1.026262608897900e+000	 3.603378123141265e+000	 9.004942013777317e+000
 9.889676672286080e-001	 3.613791929372667e+000	 8.978802903911014e+000
 9.516694269336109e-001	 3.623792881903003e+000	 8.953495563347682e+000
 9.143742565154642e-001	 3.633382682372006e+000	 8.928524458535124e+000
 8.770884529458937e-001	 3.642563152991475e+000	 8.903636657048468e+000
 8.398182391145398e-001	 3.651336233838164e+000	 8.878856326543142e+000
 8.025697613831035e-001	 3.659703980092960e+000	 8.854517561707038e+000
 7.653490872456831e-001	 3.667668559230636e+000	 8.831291707472715e+000
 7.281622030959102e-001	 3.675232248164470e+000	 8.810209738760609e+000
 1.108650980966192e+000	 3.606792897181959e+000	 9.068638403648290e+000
 1.071116782155477e+000	 3.618117041491970e+000	 9.039818598234543e+000
 1.033566228275475e+000	 3.629022341337930e+000	 9.013864069995949e+000
 9.960058691036424e-001	 3.639510259668551e+000	 8.989713497676620e+000
 9.584421878306856e-001	 3.649582386135649e+000	 8.966469740139424e+000
 9.208815982819899e-001	 3.659240434489071e+000	 8.943423498933452e+000
 8.833304422430456e-001	 3.668486239908799e+000	 8.920114345619922e+000
 8.457949868900379e-001	 3.677321756278584e+000	 8.896364296621810e+000
 8.082814223265840e-001	 3.685749053405477e+000	 8.872308960557460e+000
 7.707958592274207e-001	 3.693770314189572e+000	 8.848423023536231e+000
 7.333443265896487e-001	 3.701387831748314e+000	 8.825540667519210e+000
 1.116485181200240e+000	 3.632280032655170e+000	 9.075564728697033e+000
 1.078685749747331e+000	 3.643684198193496e+000	 9.047895024876787e+000
 1.040869847653190e+000	 3.654666559534302e+000	 9.023548488069837e+000
 1.003044070978805e+000	 3.665228589964140e+000	 9.001261813149846e+000
 9.652149487278739e-001	 3.675371890368007e+000	 8.979943616115023e+000
 9.273889400486137e-001	 3.685098186605857e+000	 8.958700487676360e+000
 8.895724315402811e-001	 3.694409326825858e+000	 8.936894402613444e+000
 8.517717346656049e-001	 3.703307278718762e+000	 8.914175115199425e+000
 8.139930832701200e-001	 3.711794126717774e+000	 8.890509429378087e+000
 7.762426312092013e-001	 3.719872069148313e+000	 8.866204646174666e+000
 7.385264500834193e-001	 3.727543415331995e+000	 8.841926819826737e+000
 1.124319381434289e+000	 3.657767168128049e+000	 9.083455910644428e+000
 1.086254717339184e+000	 3.669251354894697e+000	 9.056895726486388e+000
 1.048173467030906e+000	 3.680310777730361e+000	 9.034036293111635e+000
 1.010082272853967e+000	 3.690946920259437e+000	 9.013441823285458e+000
 9.719877096250622e-001	 3.701161394600098e+000	 8.993857027470286e+000
 9.338962818152375e-001	 3.710955938722406e+000	 8.974234982000178e+000
 8.958144208375163e-001	 3.720332413742716e+000	 8.953790964883842e+000
 8.577484824411717e-001	 3.729292801158769e+000	 8.932033414204504e+000
 8.197047442136559e-001	 3.737839200029932e+000	 8.908791115372534e+000
 7.816894031909821e-001	 3.745973824106948e+000	 8.884234402353517e+000
 7.437085735771903e-001	 3.753698998915593e+000	 8.858891042346077e+000
 1.132153581668172e+000	 3.683254303600529e+000	 9.092401861956923e+000
 1.093823684930883e+000	 3.694818511595525e+000	 9.066878780336978e+000
 1.055477086408480e+000	 3.705954995926085e+000	 9.045344932458296e+000
 1.017120474729001e+000	 3.716665250554442e+000	 9.026226358388895e+000
 9.787604705221366e-001	 3.726950898831944e+000	 9.008123166014755e+000
 9.404036235817628e-001	 3.736813690838762e+000	 8.989878427116738e+000
 9.020564101346680e-001	 3.746255500659427e+000	 8.970588691785999e+000
 8.637252302166697e-001	 3.755278323598676e+000	 8.949653130047921e+000
 8.254164051571362e-001	 3.763884273342034e+000	 8.926794445843104e+000
 7.871361751727196e-001	 3.772075579065561e+000	 8.902077615249990e+000
 7.488906970709288e-001	 3.779854582499195e+000	 8.875923181912997e+000
 1.139987781901724e+000	 3.708741439072548e+000	 9.102473412447804e+000
 1.101392652522272e+000	 3.720385668295939e+000	 9.077881792790706e+000
 1.062780705785770e+000	 3.731599214121452e+000	 9.057469911015582e+000
 1.024158676603780e+000	 3.742383580849156e+000	 9.039552341210987e+000
 9.855332314189849e-001	 3.752740403063570e+000	 9.022630249165852e+000
 9.469109653480912e-001	 3.762671442954964e+000	 9.005455818632910e+000
 9.082983994316525e-001	 3.772178587576051e+000	 8.987044403671405e+000
 8.697019779920292e-001	 3.781263846038558e+000	 8.966719102068002e+000
 8.311280661005058e-001	 3.789929346654160e+000	 8.944129670701981e+000
 7.925829471543713e-001	 3.798177334024236e+000	 8.919268575219313e+000
 7.540728205646026e-001	 3.806010166082880e+000	 8.892481469644135e+000
 1.147821982134778e+000	 3.734228574544038e+000	 9.113723797793059e+000
 1.108961620113198e+000	 3.745952824995893e+000	 9.089923446419242e+000
 1.070084325162635e+000	 3.757243432316443e+000	 9.070386380435703e+000
 1.031196878478174e+000	 3.768101911143579e+000	 9.053347880143006e+000
 9.923059923154926e-001	 3.778529907294996e+000	 9.037243144061264e+000
 9.534183071141243e-001	 3.788529195071055e+000	 9.020767319815899e+000
 9.145403887283864e-001	 3.798101674492648e+000	 9.002888676362357e+000
 8.756787257671816e-001	 3.807249368478485e+000	 8.982888628496358e+000
 8.368397270437089e-001	 3.815974419966391e+000	 8.960378364468332e+000
 7.980297191358932e-001	 3.824279088983057e+000	 8.935311972644215e+000
 7.592549440581792e-001	 3.832165749666733e+000	 8.907993869763107e+000
 1.155656182367169e+000	 3.759715710014934e+000	 9.126190105215457e+000
 1.116530587703505e+000	 3.771519981695345e+000	 9.103005003548130e+000
 1.077387944538932e+000	 3.782887650511029e+000	 9.084050684318219e+000
 1.038235080352056e+000	 3.793820241437709e+000	 9.067516251049472e+000
 9.990787532115458e-001	 3.804319411526238e+000	 9.051804947966126e+000
 9.599256488797634e-001	 3.814386947187075e+000	 9.035589835847489e+000
 9.207823780247855e-001	 3.824024761409273e+000	 9.017827393691004e+000
 8.816554735420574e-001	 3.833234890918528e+000	 8.997792981959474e+000
 8.425513879866898e-001	 3.842019493278807e+000	 8.975094889673954e+000
 8.034764911172426e-001	 3.850380843942109e+000	 8.949684294475219e+000
 7.644370675516261e-001	 3.858321333250832e+000	 8.921859394818590e+000
 7.126158326152124e-001	 3.596765497411133e+000	 8.774794710914740e+000
 6.762671878802552e-001	 3.603776679759038e+000	 8.746759768745468e+000
 6.399630600582480e-001	 3.610400416447522e+000	 8.695405728912448e+000
 6.037090469397654e-001	 3.616639241793862e+000	 8.648797042434570e+000
 5.675106594965970e-001	 3.622495785572755e+000	 8.609084004291672e+000
 5.313733202242633e-001	 3.627972770066270e+000	 8.577323331838116e+000
 4.953023615887215e-001	 3.633073007093982e+000	 8.554883295827638e+000
 4.593030245767208e-001	 3.637799395027111e+000	 8.543594218903197e+000
 4.233804573491130e-001	 3.642154915790480e+000	 8.545877018417404e+000
 3.875397139962927e-001	 3.646142631855923e+000	 8.564852948677579e+000
 3.517857533948060e-001	 3.649765683230813e+000	 8.604437581591981e+000
 7.177979561086599e-001	 3.622921080995963e+000	 8.784448600214510e+000
 6.811849849902317e-001	 3.629983248476528e+000	 8.752747552111245e+000
 6.446168545105617e-001	 3.636655152803183e+000	 8.696359753884332e+000
 6.080992031672113e-001	 3.642939346722671e+000	 8.644606446679184e+000
 5.716375820076141e-001	 3.648838479133310e+000	 8.600646739835094e+000
 5.352374529595360e-001	 3.654355292113508e+000	 8.565146057830562e+000
 4.989041872664885e-001	 3.659492617930284e+000	 8.539139491635510e+000
 4.626430640275401e-001	 3.664253376031720e+000	 8.524167211026477e+000
 4.264592688408337e-001	 3.668640570027080e+000	 8.522387659909434e+000
 3.903578925499786e-001	 3.672657284658394e+000	 8.536671879904327e+000
 3.543439300923417e-001	 3.676306682767058e+000	 8.570682181458047e+000
 7.229800796022363e-001	 3.649076664580380e+000	 8.796376765900233e+000
 6.861027821003027e-001	 3.656189817193663e+000	 8.761853062044667e+000
 6.492706489629431e-001	 3.662909889158565e+000	 8.702200334104479e+000
 6.124893593947072e-001	 3.669239451651285e+000	 8.646792034241772e+000
 5.757645045186717e-001	 3.675181172693759e+000	 8.600188363366012e+000
 5.391015856948508e-001	 3.680737814160723e+000	 8.562593216167977e+000
 5.025060129443084e-001	 3.685912228766641e+000	 8.534642378751780e+000
 4.659831034784336e-001	 3.690707357036437e+000	 8.517522844216257e+000
 4.295380803326613e-001	 3.695126224263828e+000	 8.513069653769376e+000
 3.931760711038144e-001	 3.699171937461022e+000	 8.523843806730117e+000
 3.569021067900821e-001	 3.702847682303435e+000	 8.553194646449670e+000
 7.281622030959102e-001	 3.675232248164470e+000	 8.810209738760609e+000
 6.910205792104441e-001	 3.682396385910518e+000	 8.773613761855986e+000
 6.539244434153749e-001	 3.689164625513728e+000	 8.712243496670356e+000
 6.168795156222401e-001	 3.695539556579747e+000	 8.654472058610308e+000
 5.798914270297606e-001	 3.701523866254123e+000	 8.606586642830562e+000
 5.429657184301966e-001	 3.707120336207916e+000	 8.568271223074428e+000
 5.061078386221682e-001	 3.712331839603034e+000	 8.539708156846174e+000
 4.693231429293828e-001	 3.717161338041239e+000	 8.521680338001490e+000
 4.326168918245687e-001	 3.721611878500688e+000	 8.515650622080752e+000
 3.959942496577627e-001	 3.725686590263768e+000	 8.523822274025148e+000
 3.594602834879763e-001	 3.729388681839912e+000	 8.549184040795364e+000
 7.333443265896487e-001	 3.701387831748314e+000	 8.825540667519208e+000
 6.959383763206329e-001	 3.708602954627166e+000	 8.787530421260794e+000
 6.585782378678406e-001	 3.715419361868731e+000	 8.725775850450969e+000
 6.212696718497978e-001	 3.721839661508096e+000	 8.666742512258072e+000
 5.840183495408700e-001	 3.727866559814423e+000	 8.618703864351891e+000
 5.468298511655639e-001	 3.733502858255095e+000	 8.580777566531811e+000
 5.097096643000546e-001	 3.738751450439449e+000	 8.552650582467280e+000
 4.726631823803694e-001	 3.743615319046093e+000	 8.534663046213849e+000
 4.356957033165294e-001	 3.748097532737622e+000	 8.527869154217994e+000
 3.988124282117861e-001	 3.752201243066593e+000	 8.534079047178675e+000
 3.620184601859728e-001	 3.755929681376453e+000	 8.555885487728670e+000
 7.385264500834193e-001	 3.727543415331995e+000	 8.841926819826739e+000
 7.008561734308453e-001	 3.734809523343684e+000	 8.803068486343870e+000
 6.632320323203235e-001	 3.741674098223632e+000	 8.742055265062694e+000
 6.256598280773683e-001	 3.748139766436377e+000	 8.682677764823110e+000
 5.881452720519894e-001	 3.754209253374684e+000	 8.635387354442536e+000
 5.506939839009415e-001	 3.759885380302257e+000	 8.598701144127842e+000
 5.133114899779541e-001	 3.765171061275875e+000	 8.571781060949270e+000
 4.760032218313748e-001	 3.770069300050974e+000	 8.554498248232411e+000
 4.387745148085166e-001	 3.774583186974591e+000	 8.547474249583948e+000
 4.016306067658471e-001	 3.778715895869457e+000	 8.552103165355508e+000
 3.645766368840204e-001	 3.782470680913031e+000	 8.570558799158237e+000
 7.437085735771903e-001	 3.753698998915593e+000	 8.858891042346077e+000
 7.057739705410576e-001	 3.761016092060142e+000	 8.819659413186813e+000
 6.678858267728063e-001	 3.767928834578493e+000	 8.760299573638317e+000
 6.300499843049385e-001	 3.774439871364630e+000	 8.701331179790655e+000
 5.922721945631088e-001	 3.780551946934928e+000	 8.655469990690774e+000
 5.545581166363193e-001	 3.786267902349412e+000	 8.620622600846390e+000
 5.169133156558536e-001	 3.791590672112294e+000	 8.595408751079981e+000
 4.793432612823798e-001	 3.796523281055853e+000	 8.579216967005143e+000
 4.418533263005041e-001	 3.801068841211559e+000	 8.572224802183039e+000
 4.044487853199077e-001	 3.805230548672321e+000	 8.575400052551098e+000
 3.671348135820682e-001	 3.809011680449607e+000	 8.590487179847067e+000
 7.488906970709288e-001	 3.779854582499195e+000	 8.875923181912997e+000
 7.106917676512462e-001	 3.787222660776614e+000	 8.836701966919399e+000
 6.725396212252720e-001	 3.794183570933372e+000	 8.779477928584360e+000
 6.344401405324963e-001	 3.800739976292897e+000	 8.721735710719482e+000
 5.963991170742183e-001	 3.806894640495175e+000	 8.677770701480021e+000
 5.584222493716865e-001	 3.812650424396558e+000	 8.645114666805686e+000
 5.205151413337398e-001	 3.818010282948693e+000	 8.621840681909662e+000
 4.826833007333665e-001	 3.822977262060701e+000	 8.606853812546179e+000
 4.449321377924647e-001	 3.827554495448490e+000	 8.599889125004824e+000
 4.072669638739311e-001	 3.831745201475147e+000	 8.601490683642632e+000
 3.696929902800645e-001	 3.835552679986149e+000	 8.612976002489871e+000
 7.540728205646026e-001	 3.806010166082880e+000	 8.892481469644133e+000
 7.156095647613882e-001	 3.813429229493175e+000	 8.853563487859198e+000
 6.771934156777041e-001	 3.820438307288329e+000	 8.798730846778314e+000
 6.388302967600293e-001	 3.827040081221221e+000	 8.742904477998104e+000
 6.005260395853068e-001	 3.833237334055454e+000	 8.701094955267728e+000
 5.622863821070326e-001	 3.839032946443702e+000	 8.670742494944069e+000
 5.241169670115997e-001	 3.844429893785062e+000	 8.649381881118881e+000
 4.860233401843158e-001	 3.849431243065491e+000	 8.635446849684728e+000
 4.480109492843720e-001	 3.854040149685346e+000	 8.628244512301704e+000
 4.100851424278794e-001	 3.858259854277893e+000	 8.627910802792121e+000
 3.722511669779587e-001	 3.862093679522626e+000	 8.635351650279814e+000
 7.592549440581792e-001	 3.832165749666733e+000	 8.907993869763107e+000
 7.205273618714591e-001	 3.839635798209898e+000	 8.869581126311143e+000
 6.818472101300854e-001	 3.846693043643425e+000	 8.817278491151059e+000
 6.432204529875250e-001	 3.853340186149642e+000	 8.763831327058654e+000
 6.046529620963648e-001	 3.859580027615781e+000	 8.724235239924212e+000
 5.661505148423475e-001	 3.865415468490848e+000	 8.696063998657387e+000
 5.277187926894196e-001	 3.870849504621382e+000	 8.676335514391536e+000
 4.893633796352094e-001	 3.875885224070195e+000	 8.663037488907760e+000
 4.510897607761997e-001	 3.880525803922092e+000	 8.655076837949933e+000
 4.129033209817154e-001	 3.884774507080522e+000	 8.652210191699401e+000
 3.748093436756992e-001	 3.888634679059003e+000	 8.654960423738926e+000
 7.644370675516261e-001	 3.858321333250832e+000	 8.921859394818588e+000
 7.254451589814354e-001	 3.865842366926856e+000	 8.884063047513934e+000
 6.865010045823988e-001	 3.872947779998714e+000	 8.834313133838691e+000
 6.476106092149710e-001	 3.879640291078204e+000	 8.783491368930399e+000
 6.087798846073815e-001	 3.885922721176182e+000	 8.745971532601402e+000
 5.700146475776197e-001	 3.891797990537994e+000	 8.719630189390145e+000
 5.313206183671867e-001	 3.897269115457639e+000	 8.701003035271427e+000
 4.927034190860284e-001	 3.902339205074783e+000	 8.687670399199188e+000
 4.541685722679201e-001	 3.907011458158685e+000	 8.678180188182814e+000
 4.157214995354012e-001	 3.911289159882991e+000	 8.671951985339776e+000
 3.773675203732346e-001	 3.915175678595245e+000	 8.669167508762744e+000
 3.517857533948060e-001	 3.649765683230813e+000	 8.604437581591977e+000
 3.161181078051911e-001	 3.653027746903922e+000	 8.647587725911759e+000
 2.805469763476744e-001	 3.655931540248671e+000	 8.675601404463304e+000
 2.450771001425693e-001	 3.658480420160160e+000	 8.691384502920421e+000
 2.097131192376740e-001	 3.660677809123401e+000	 8.698973152930243e+000
 1.744595719637193e-001	 3.662527192196825e+000	 8.703594376888539e+000
 1.393208943850413e-001	 3.664032114011715e+000	 8.711725553199335e+000
 1.043014198436549e-001	 3.665196175790535e+000	 8.731154506019941e+000
 6.940537859482161e-002	 3.666023032386947e+000	 8.771041816663658e+000
 3.463689753212598e-002	 3.666516389350227e+000	 8.841986745703391e+000
 0.000000000000000e+000	 3.666680000016666e+000	 8.956097963503529e+000
 3.543439300923417e-001	 3.676306682767058e+000	 8.570682181458050e+000
 3.184169103270729e-001	 3.679592468080790e+000	 8.607134586803742e+000
 2.825871065421272e-001	 3.682517377733703e+000	 8.627625667521317e+000
 2.468592943351140e-001	 3.685084793032176e+000	 8.635571192734412e+000
 2.112381474961312e-001	 3.687298161349476e+000	 8.635463087892811e+000
 1.757282373585250e-001	 3.689160993087310e+000	 8.632916152179952e+000
 1.403340322455692e-001	 3.690676858653458e+000	 8.634714577743152e+000
 1.050598970112219e-001	 3.691849385458404e+000	 8.648860171233531e+000
 6.991009267304407e-002	 3.692682254933840e+000	 8.684623957898687e+000
 3.488877613527627e-002	 3.693179199575721e+000	 8.752602627021231e+000
 0.000000000000000e+000	 3.693344000014533e+000	 8.864781071698088e+000
 3.569021067900821e-001	 3.702847682303435e+000	 8.553194646449667e+000
 3.207157128492248e-001	 3.706157189257728e+000	 8.583716227325271e+000
 2.846272367369186e-001	 3.709103215218715e+000	 8.597397466875361e+000
 2.486414885280603e-001	 3.711689165904061e+000	 8.598063591615606e+000
 2.127631757550389e-001	 3.713918513575291e+000	 8.590557224004643e+000
 1.769969027538086e-001	 3.715794793977405e+000	 8.580770460715547e+000
 1.413471701065716e-001	 3.717321603294685e+000	 8.575677787430728e+000
 1.058183741792219e-001	 3.718502595125647e+000	 8.583371830834622e+000
 7.041480675161180e-002	 3.719341477480014e+000	 8.613103714266371e+000
 3.514065473863007e-002	 3.719842009800440e+000	 8.675329548176222e+000
 0.000000000000000e+000	 3.720008000011599e+000	 8.781764365741646e+000
 3.594602834879763e-001	 3.729388681839912e+000	 8.549184040795364e+000
 3.230145153715792e-001	 3.732721910434723e+000	 8.574321083135532e+000
 2.866673669319635e-001	 3.735689052703710e+000	 8.581703175729416e+000
 2.504236827213076e-001	 3.738293538775841e+000	 8.575477010787807e+000
 2.142882040142847e-001	 3.740538865800909e+000	 8.560743006428936e+000
 1.782655681494503e-001	 3.742428594867207e+000	 8.543571989981029e+000
 1.423603079679300e-001	 3.743966347935524e+000	 8.531023808277972e+000
 1.065768513475467e-001	 3.745155804792417e+000	 8.531169969629145e+000
 7.091952083043850e-002	 3.746000700025651e+000	 8.553122173400404e+000
 3.539253334213648e-002	 3.746504820024574e+000	 8.607068333373931e+000
 0.000000000000000e+000	 3.746672000008066e+000	 8.704317464768788e+000
 3.620184601859728e-001	 3.755929681376453e+000	 8.555885487728665e+000
 3.253133178940685e-001	 3.759286631611750e+000	 8.575972738122001e+000
 2.887074971271778e-001	 3.762274890188694e+000	 8.577375301336234e+000
 2.522058769147554e-001	 3.764897911647556e+000	 8.564485914369993e+000
 2.158132322737557e-001	 3.767159218026396e+000	 8.542582217489587e+000
 1.795342335453309e-001	 3.769062395756812e+000	 8.517827241809142e+000
 1.433734458295256e-001	 3.770611092576106e+000	 8.497272972553407e+000
 1.073353285160881e-001	 3.771809014458875e+000	 8.488869200637337e+000
 7.142423490943783e-002	 3.772659922570928e+000	 8.501479611319830e+000
 3.564441194574462e-002	 3.773167630248318e+000	 8.544906793900095e+000
 0.000000000000000e+000	 3.773336000004134e+000	 8.629927604078432e+000
 3.645766368840204e-001	 3.782470680913031e+000	 8.570558799158235e+000
 3.276121204166254e-001	 3.785851352788797e+000	 8.585728085609150e+000
 2.907476273224767e-001	 3.788860727673674e+000	 8.581290122745239e+000
 2.539880711083038e-001	 3.791502284519238e+000	 8.561820986235784e+000
 2.173382605333394e-001	 3.793779570251819e+000	 8.532707432741020e+000
 1.808028989413310e-001	 3.795696196646321e+000	 8.500130345219171e+000
 1.443865836912399e-001	 3.797255837216559e+000	 8.471052463331970e+000
 1.080938056847377e-001	 3.798462224125173e+000	 8.453212723595104e+000
 7.192894898852349e-002	 3.799319145116026e+000	 8.455129254306478e+000
 3.589629054940362e-002	 3.799830440471868e+000	 8.486112789881540e+000
 0.000000000000000e+000	 3.800000000000000e+000	 8.556292000242307e+000
 3.671348135820682e-001	 3.809011680449607e+000	 8.590487179847067e+000
 3.299109229391822e-001	 3.812416073965843e+000	 8.600675582128448e+000
 2.927877575177755e-001	 3.815446565158654e+000	 8.590365441060122e+000
 2.557702653018521e-001	 3.818106657390918e+000	 8.564266331057645e+000
 2.188632887929231e-001	 3.820399922477242e+000	 8.527818634439711e+000
 1.820715643373311e-001	 3.822329997535830e+000	 8.487159051240163e+000
 1.453997215529541e-001	 3.823900581857012e+000	 8.449091666799173e+000
 1.088522828533873e-001	 3.825115433791475e+000	 8.421067017987133e+000
 7.243366306760912e-002	 3.825978367661124e+000	 8.411171302932921e+000
 3.614816915306263e-002	 3.826493250695418e+000	 8.428127582478593e+000
 0.000000000000000e+000	 3.826663999995867e+000	 8.481310535412012e+000
 3.696929902800645e-001	 3.835552679986149e+000	 8.612976002489871e+000
 3.322097254616717e-001	 3.838980795142871e+000	 8.617933589262318e+000
 2.948278877129898e-001	 3.842032402643638e+000	 8.601558436759303e+000
 2.575524594953000e-001	 3.844711030262634e+000	 8.568656803035106e+000
 2.203883170523942e-001	 3.847020274702730e+000	 8.524679974793527e+000
 1.833402297332117e-001	 3.848963798425436e+000	 8.475670900903763e+000
 1.464128594145498e-001	 3.850545326497594e+000	 8.428217722246453e+000
 1.096107600219286e-001	 3.851768643457931e+000	 8.389416759255607e+000
 7.293837714660847e-002	 3.852637590206400e+000	 8.366847205540232e+000
 3.640004775667077e-002	 3.853156060919164e+000	 8.368559462432486e+000
 0.000000000000000e+000	 3.853327999991934e+000	 8.403078745360652e+000
 3.722511669779587e-001	 3.862093679522626e+000	 8.635351650279810e+000
 3.345085279840260e-001	 3.865545516319864e+000	 8.634648799328144e+000
 2.968680179080348e-001	 3.868618240128634e+000	 8.611863628928301e+000
 2.593346536885474e-001	 3.871315403134416e+000	 8.571875456170922e+000
 2.219133453116400e-001	 3.873640626928349e+000	 8.520116681784502e+000
 1.846088951288535e-001	 3.875597599315236e+000	 8.462499558074541e+000
 1.474259972759081e-001	 3.877190071138433e+000	 8.405351260245565e+000
 1.103692371902535e-001	 3.878421853124701e+000	 8.355359947441711e+000
 7.344309122543517e-002	 3.879296812752037e+000	 8.319534169166989e+000
 3.665192636017719e-002	 3.879818871143298e+000	 8.305177641683423e+000
 0.000000000000000e+000	 3.879991999988402e+000	 8.319881096649633e+000
 3.748093436756992e-001	 3.888634679059003e+000	 8.654960423738924e+000
 3.368073305061779e-001	 3.892110237496804e+000	 8.647994740895554e+000
 2.989081481028261e-001	 3.895204077613644e+000	 8.618310931533319e+000
 2.611168478814935e-001	 3.897919776006299e+000	 8.570851110279108e+000
 2.234383735705477e-001	 3.900260979154163e+000	 8.511012100753419e+000
 1.858775605241369e-001	 3.902231400205332e+000	 8.444551299243049e+000
 1.484391351369106e-001	 3.903834815779660e+000	 8.377502320011095e+000
 1.111277143582535e-001	 3.905075062791944e+000	 8.316103238116991e+000
 7.394780530400290e-002	 3.905956035298211e+000	 8.266739896585932e+000
 3.690380496353097e-002	 3.906481681368015e+000	 8.235906395481072e+000
 0.000000000000000e+000	 3.906655999985469e+000	 8.230184539106002e+000
 3.773675203732346e-001	 3.915175678595245e+000	 8.669167508762746e+000
 3.391061330280596e-001	 3.918674958673670e+000	 8.655170360348217e+000
 3.009482782972789e-001	 3.921789915098675e+000	 8.617963802132703e+000
 2.628990420740383e-001	 3.924524148878315e+000	 8.562556027239813e+000
 2.249634018290048e-001	 3.926881331380237e+000	 8.494304865301707e+000
 1.871462259189425e-001	 3.928865201095816e+000	 8.418801652835962e+000
 1.494522729974383e-001	 3.930479560421401e+000	 8.341766437450682e+000
 1.118861915258204e-001	 3.931728272459813e+000	 8.268957466000904e+000
 7.445251938222533e-002	 3.932615257845103e+000	 8.206097538715197e+000
 3.715568356668126e-002	 3.933144491593509e+000	 8.158819443108879e+000
 0.000000000000000e+000	 3.933319999983334e+000	 8.132632320546001e+000
 3.933319999983334e+000	 0.000000000000000e+000	 1.054826541331203e+001
 3.933144491593509e+000	 3.715568356668014e-002	 1.060783984260634e+001
 3.932615257845103e+000	 7.445251938222434e-002	 1.063519438827994e+001
 3.931728272459813e+000	 1.118861915258195e-001	 1.063861739074684e+001
 3.930479560421401e+000	 1.494522729974376e-001	 1.062601320311595e+001
 3.928865201095816e+000	 1.871462259189419e-001	 1.060488543999455e+001
 3.926881331380237e+000	 2.249634018290041e-001	 1.058231394175436e+001
 3.924524148878315e+000	 2.628990420740378e-001	 1.056492574683885e+001
 3.921789915098675e+000	 3.009482782972785e-001	 1.055886046995116e+001
 3.918674958673671e+000	 3.391061330280594e-001	 1.056973059848734e+001
 3.915175678595246e+000	 3.773675203732345e-001	 1.060257733791419e+001
 3.959987999982151e+000	 0.000000000000000e+000	 1.057756865755699e+001
 3.959811301641444e+000	 3.740759995516202e-002	 1.063042308657755e+001
 3.959278479676159e+000	 7.495730917472704e-002	 1.065346205001430e+001
 3.958385480509716e+000	 1.126447824758345e-001	 1.065431345885706e+001
 3.957128302175165e+000	 1.504655628432892e-001	 1.064029040841947e+001
 3.955502997456446e+000	 1.884150816320309e-001	 1.061837321015237e+001
 3.953505677058800e+000	 2.264886588640514e-001	 1.059518444588669e+001
 3.951132512805530e+000	 2.646815036219777e-001	 1.057695733370232e+001
 3.948379740858182e+000	 3.029887145414693e-001	 1.056949780605426e+001
 3.945243664957141e+000	 3.414052804044879e-001	 1.057814082117939e+001
 3.941720659679418e+000	 3.799260808354097e-001	 1.060770155328090e+001
 3.986655999981866e+000	 0.000000000000000e+000	 1.056978169736964e+001
 3.986478111690256e+000	 3.765951634344035e-002	 1.062087170815081e+001
 3.985941701508023e+000	 7.546209896688423e-002	 1.064410040405083e+001
 3.985042688560328e+000	 1.134033734254160e-001	 1.064642239763188e+001
 3.983777043929510e+000	 1.514788526886650e-001	 1.063455185187779e+001
 3.982140793817519e+000	 1.896839373446401e-001	 1.061494321827068e+001
 3.980130022737659e+000	 2.280139158986443e-001	 1.059376426881963e+001
 3.977740876732896e+000	 2.664639651695106e-001	 1.057686170739309e+001
 3.974969566617713e+000	 3.050291507853133e-001	 1.056971976350154e+001
 3.971812371240533e+000	 3.437044277806347e-001	 1.057741229816043e+001
 3.968265640763441e+000	 3.824846412973636e-001	 1.060454908230685e+001
 4.013323999982383e+000	 0.000000000000000e+000	 1.052214493914332e+001
 4.013144921739844e+000	 3.791143273156598e-002	 1.057641538709544e+001
 4.012604923340605e+000	 7.596688875878213e-002	 1.060414636164556e+001
 4.011699896611567e+000	 1.141619643746716e-001	 1.061176433767419e+001
 4.010425785684370e+000	 1.524921425336828e-001	 1.060550043430520e+001
 4.008778590178979e+000	 1.909527930568868e-001	 1.059136146658995e+001
 4.006754368416778e+000	 2.295391729328923e-001	 1.057509798060400e+001
 4.004349240660396e+000	 2.682464267167314e-001	 1.056216900709050e+001
 4.001559392377266e+000	 3.070695870288871e-001	 1.055770324213920e+001
 3.998381077523854e+000	 3.460035751565555e-001	 1.056644549173860e+001
 3.994810621847331e+000	 3.850432017591319e-001	 1.059270065774940e+001
 4.039991999983600e+000	 0.000000000000000e+000	 1.047331720867797e+001
 4.039811731790116e+000	 3.816334911958979e-002	 1.052970476970313e+001
 4.039268145173816e+000	 7.647167855050698e-002	 1.056076063709975e+001
 4.038357104663356e+000	 1.149205553237095e-001	 1.057248843014427e+001
 4.037074527439684e+000	 1.535054323784602e-001	 1.057071601127143e+001
 4.035416386540783e+000	 1.922216487688887e-001	 1.056106786354638e+001
 4.033378714096125e+000	 2.310644299669047e-001	 1.054893452639859e+001
 4.030957604588013e+000	 2.700288882637349e-001	 1.053943881897174e+001
 4.028149218136838e+000	 3.091100232722672e-001	 1.053739855259800e+001
 4.024949783807111e+000	 3.483027225323062e-001	 1.054728540830901e+001
 4.021355602931107e+000	 3.876017622207494e-001	 1.057317962955401e+001
 4.066659999985416e+000	 0.000000000000000e+000	 1.043165636411684e+001
 4.066478541840969e+000	 3.841526550756264e-002	 1.048827184016136e+001
 4.065931367007566e+000	 7.697646834214493e-002	 1.052097337356399e+001
 4.065014312715617e+000	 1.156791462726372e-001	 1.053533172420305e+001
 4.063723269195385e+000	 1.545187222231149e-001	 1.053676043479554e+001
 4.062054182902881e+000	 1.934905044807631e-001	 1.053048957014256e+001
 4.060003059775668e+000	 2.325896870007906e-001	 1.052153659968970e+001
 4.057565968515734e+000	 2.718113498106163e-001	 1.051467414721798e+001
 4.054739043896424e+000	 3.111504595155297e-001	 1.051439430233191e+001
 4.051518490090317e+000	 3.506018699079425e-001	 1.052486916107064e+001
 4.047900584014783e+000	 3.901603226822512e-001	 1.054990723539950e+001
 4.093327999987732e+000	 0.000000000000000e+000	 1.039866047441785e+001
 4.093145351892311e+000	 3.866718189553543e-002	 1.045370245357521e+001
 4.092594588841765e+000	 7.748125813378229e-002	 1.048645650976167e+001
 4.091671520768268e+000	 1.164377372215629e-001	 1.050205092880486e+001
 4.090372010951407e+000	 1.555320120677645e-001	 1.050547420155421e+001
 4.088691979265224e+000	 1.947593601926277e-001	 1.050155016060844e+001
 4.086627405455375e+000	 2.341149440346594e-001	 1.049491035599351e+001
 4.084174332443538e+000	 2.735938113574702e-001	 1.048996338831988e+001
 4.081328869656024e+000	 3.131908957587514e-001	 1.049086088739750e+001
 4.078087196373478e+000	 3.529010172835201e-001	 1.050145979512689e+001
 4.074445565098374e+000	 3.927188831436725e-001	 1.052528058201198e+001
 4.119995999990450e+000	 0.000000000000000e+000	 1.037591014486441e+001
 4.119812161944039e+000	 3.891909828355897e-002	 1.042764623394112e+001
 4.119257810676322e+000	 7.798604792550518e-002	 1.045892793027536e+001
 4.118328728821235e+000	 1.171963281705943e-001	 1.047443181061028e+001
 4.117020752707688e+000	 1.565453019125268e-001	 1.047871090045262e+001
 4.115329775627761e+000	 1.960282159045998e-001	 1.047617124368873e+001
 4.113251751135212e+000	 2.356402010686202e-001	 1.047104581775858e+001
 4.110782696371410e+000	 2.753762729043919e-001	 1.046736550789464e+001
 4.107918695415634e+000	 3.152313320020084e-001	 1.046892682187830e+001
 4.104655902656602e+000	 3.552001646590953e-001	 1.047925599571682e+001
 4.100990546181900e+000	 3.952774436050482e-001	 1.050156910918205e+001
 4.146663999993466e+000	 0.000000000000000e+000	 1.036506586302817e+001
 4.146478971996062e+000	 3.917101467168416e-002	 1.041181420298095e+001
 4.145921032511149e+000	 7.849083771739988e-002	 1.044014938340948e+001
 4.144985936874439e+000	 1.179549191198392e-001	 1.045428740721091e+001
 4.143669494464162e+000	 1.575585917575192e-001	 1.045833572768788e+001
 4.141967571990445e+000	 1.972970716167970e-001	 1.045627128614031e+001
 4.139876096815145e+000	 2.371654581027823e-001	 1.045191601298839e+001
 4.137391060299332e+000	 2.771587344514758e-001	 1.044890950119322e+001
 4.134508521175254e+000	 3.172717682453773e-001	 1.045067852707994e+001
 4.131224608939702e+000	 3.574993120347234e-001	 1.046040306064777e+001
 4.127535527265377e+000	 3.978360040664135e-001	 1.048097837392766e+001
 4.173331999996684e+000	 0.000000000000000e+000	 1.036786544648976e+001
 4.173145782048277e+000	 3.942293105996188e-002	 1.040797650014583e+001
 4.172584254346157e+000	 7.899562750955257e-002	 1.043192447992827e+001
 4.171643144927796e+000	 1.187135100694056e-001	 1.044345631120615e+001
 4.170318236220767e+000	 1.585718816028596e-001	 1.044622406290717e+001
 4.168605368353228e+000	 1.985659273293367e-001	 1.044376448782302e+001
 4.166500442495146e+000	 2.386907151372550e-001	 1.043947615619866e+001
 4.163999424227286e+000	 2.789411959988172e-001	 1.043659388691712e+001
 4.161098346934876e+000	 3.193122044889346e-001	 1.043816014522941e+001
 4.157793315222783e+000	 3.597984594104604e-001	 1.044699304090789e+001
 4.154080508348820e+000	 4.003945645278036e-001	 1.046565052502919e+001
 4.200000000000000e+000	 0.000000000000000e+000	 1.038612158779328e+001
 4.199812592100592e+000	 3.967484744844299e-002	 1.041796018974427e+001
 4.199247476181255e+000	 7.950041730204953e-002	 1.043609676907433e+001
 4.198300352981238e+000	 1.194721010194014e-001	 1.044380102198454e+001
 4.196966977977437e+000	 1.595851714486656e-001	 1.044426010374543e+001
 4.195243164716059e+000	 1.998347830423365e-001	 1.044055970608896e+001
 4.193124788175180e+000	 2.402159721721477e-001	 1.043566286982707e+001
 4.190607788155259e+000	 2.807236575465109e-001	 1.043238623286306e+001
 4.187688172694503e+000	 3.213526407327566e-001	 1.043337337659160e+001
 4.184362021505857e+000	 3.620976067863623e-001	 1.044106489648407e+001
 4.180625489432248e+000	 4.029531249892535e-001	 1.045766478474704e+001
 3.915175678595246e+000	 3.773675203732345e-001	 1.060257733791419e+001
 3.911289159882991e+000	 4.157214995353988e-001	 1.064000824883908e+001
 3.907011458158685e+000	 4.541685722679181e-001	 1.066368887385432e+001
 3.902339205074782e+000	 4.927034190860265e-001	 1.067633741436664e+001
 3.897269115457639e+000	 5.313206183671850e-001	 1.068005594545587e+001
 3.891797990537994e+000	 5.700146475776190e-001	 1.067628191828213e+001
 3.885922721176182e+000	 6.087798846073808e-001	 1.066574142774892e+001
 3.879640291078203e+000	 6.476106092149703e-001	 1.064840571778128e+001
 3.872947779998714e+000	 6.865010045823986e-001	 1.062630005330084e+001
 3.865842366926856e+000	 7.254451589814353e-001	 1.061639171013697e+001
 3.858321333250832e+000	 7.644370675516263e-001	 1.062444810822770e+001
 3.941720659679418e+000	 3.799260808354097e-001	 1.060770155328090e+001
 3.937807790280955e+000	 4.185401008579659e-001	 1.064185845009935e+001
 3.933501085640564e+000	 4.572478456274203e-001	 1.066332169567820e+001
 3.928797154573237e+000	 4.960439595927764e-001	 1.067460794218854e+001
 3.923692689631786e+000	 5.349229843727676e-001	 1.067764768642403e+001
 3.918184470359234e+000	 5.738793599907123e-001	 1.067372949328231e+001
 3.912269366535886e+000	 6.129074262186266e-001	 1.066344554293645e+001
 3.905944341417220e+000	 6.520014240316409e-001	 1.064664003517599e+001
 3.899206454958563e+000	 6.911554971736034e-001	 1.062619237525651e+001
 3.892052867022555e+000	 7.303636938346297e-001	 1.061717917436992e+001
 3.884480840565159e+000	 7.696199684411721e-001	 1.062400960732741e+001
 3.968265640763441e+000	 3.824846412973636e-001	 1.060454908230684e+001
 3.964326420678744e+000	 4.213587021803618e-001	 1.063594110085739e+001
 3.959990713122277e+000	 4.603271189867886e-001	 1.065542922810324e+001
 3.955255104071564e+000	 4.993845000994173e-001	 1.066539031337693e+001
 3.950116263805866e+000	 5.385253503782557e-001	 1.066764710766984e+001
 3.944570950180483e+000	 5.777440724037151e-001	 1.066340471743996e+001
 3.938616011895685e+000	 6.170349678297760e-001	 1.065318791053163e+001
 3.932248391756404e+000	 6.563922388481978e-001	 1.063678087093744e+001
 3.925465129918650e+000	 6.958099897646699e-001	 1.061790009591168e+001
 3.918263367118545e+000	 7.352822286876528e-001	 1.060942887555032e+001
 3.910640347879802e+000	 7.748028693305064e-001	 1.061487853978230e+001
 3.994810621847331e+000	 3.850432017591319e-001	 1.059270065774940e+001
 3.990845051076375e+000	 4.241773035026022e-001	 1.062245227848557e+001
 3.986480340603841e+000	 4.634063923460214e-001	 1.064075165958782e+001
 3.981713053569775e+000	 5.027250406059335e-001	 1.064990041599758e+001
 3.976539837979889e+000	 5.421277163836208e-001	 1.065168039488738e+001
 3.970957430001742e+000	 5.816087848165880e-001	 1.064728185461975e+001
 3.964962657255565e+000	 6.211625094407808e-001	 1.063723199308437e+001
 3.958552442095746e+000	 6.607830536645897e-001	 1.062132548756834e+001
 3.951723804878960e+000	 7.004644823555442e-001	 1.060402650222076e+001
 3.944473867214804e+000	 7.402007635404506e-001	 1.059591206088957e+001
 3.936799855194743e+000	 7.799857702195772e-001	 1.059995122970370e+001
 4.021355602931107e+000	 3.876017622207494e-001	 1.057317962955401e+001
 4.017363681473869e+000	 4.269959048247032e-001	 1.060209417716256e+001
 4.012969968085275e+000	 4.664856657051181e-001	 1.062013120761060e+001
 4.008171003067891e+000	 5.060655811123093e-001	 1.062936242643091e+001
 4.002963412153861e+000	 5.457300823888341e-001	 1.063140521353373e+001
 3.997343909823011e+000	 5.854734972292921e-001	 1.062736746887160e+001
 3.991309302615524e+000	 6.252900510515953e-001	 1.061786247867057e+001
 3.984856492435232e+000	 6.651738684807651e-001	 1.060278113243655e+001
 3.977982479839473e+000	 7.051189749461718e-001	 1.058718880951493e+001
 3.970684367311317e+000	 7.451192983929696e-001	 1.057940946474901e+001
 3.962959362509964e+000	 7.851686711083351e-001	 1.058212931802800e+001
 4.047900584014783e+000	 3.901603226822512e-001	 1.054990723539950e+001
 4.043882311871244e+000	 4.298145061466808e-001	 1.057762385982612e+001
 4.039459595566599e+000	 4.695649390640773e-001	 1.059526898379880e+001
 4.034628952565923e+000	 5.094061216185285e-001	 1.060475884072417e+001
 4.029386986327793e+000	 5.493324483938679e-001	 1.060759069533648e+001
 4.023730389644294e+000	 5.893382096417901e-001	 1.060477711727729e+001
 4.017655947975553e+000	 6.294175926621730e-001	 1.059677326233266e+001
 4.011160542774849e+000	 6.695646832966722e-001	 1.058342066324715e+001
 4.004241154800172e+000	 7.097734675364991e-001	 1.056997804666089e+001
 3.996894867408061e+000	 7.500378332451562e-001	 1.056271109317954e+001
 3.989118869825450e+000	 7.903515719967293e-001	 1.056431945284122e+001
 4.074445565098374e+000	 3.927188831436725e-001	 1.052528058201198e+001
 4.070400942268520e+000	 4.326331074685509e-001	 1.055152558188183e+001
 4.065949223047831e+000	 4.726442124228986e-001	 1.056859542925551e+001
 4.061086902063884e+000	 5.127466621245760e-001	 1.057826084796376e+001
 4.055810560501692e+000	 5.529348143986932e-001	 1.058190797597920e+001
 4.050116869465589e+000	 5.932029220540420e-001	 1.058047448589452e+001
 4.044002593335649e+000	 6.335451342724680e-001	 1.057437867106105e+001
 4.037464593114586e+000	 6.739554981122601e-001	 1.056356369078815e+001
 4.030499829761044e+000	 7.144279601264723e-001	 1.055300638273553e+001
 4.023105367505020e+000	 7.549563680969567e-001	 1.054735543405450e+001
 4.015278377141183e+000	 7.955344728847096e-001	 1.054889092398243e+001
 4.100990546181900e+000	 3.952774436050482e-001	 1.050156910918205e+001
 4.096919572665721e+000	 4.354517087903298e-001	 1.052613168380182e+001
 4.092438850528989e+000	 4.757234857815804e-001	 1.054248905428978e+001
 4.087544851561791e+000	 5.160872026304352e-001	 1.055227559424747e+001
 4.082234134675567e+000	 5.565371804032820e-001	 1.055677446196969e+001
 4.076503349286900e+000	 5.970676344660099e-001	 1.055685565081185e+001
 4.070349238695804e+000	 6.376726758824340e-001	 1.055290697235216e+001
 4.063768643454430e+000	 6.783463129274768e-001	 1.054500023312886e+001
 4.056758504722065e+000	 7.190824527160371e-001	 1.053747572060770e+001
 4.049315867602173e+000	 7.598749029483173e-001	 1.053380697108293e+001
 4.041437884457146e+000	 8.007173737722259e-001	 1.053604724281400e+001
 4.127535527265377e+000	 3.978360040664135e-001	 1.048097837392766e+001
 4.123438203062861e+000	 4.382703101120333e-001	 1.050370111191677e+001
 4.118928478010091e+000	 4.788027591401219e-001	 1.051924663722354e+001
 4.114002801059660e+000	 5.194277431360904e-001	 1.052912130878862e+001
 4.108657708849428e+000	 5.601395464076057e-001	 1.053451258776387e+001
 4.102889829108227e+000	 6.009323468776550e-001	 1.053622910545363e+001
 4.096695884056011e+000	 6.418002174920238e-001	 1.053463364076182e+001
 4.090072693794365e+000	 6.827371277422708e-001	 1.052990306212057e+001
 4.083017179683222e+000	 7.237369453051399e-001	 1.052552929148855e+001
 4.075526367699502e+000	 7.647934377991849e-001	 1.052413779901866e+001
 4.067597391773321e+000	 8.059002746592268e-001	 1.052755946800560e+001
 4.154080508348820e+000	 4.003945645278036e-001	 1.046565052502919e+001
 4.149956833459963e+000	 4.410889114336775e-001	 1.048642022693454e+001
 4.145418105491159e+000	 4.818820324985225e-001	 1.050108435974807e+001
 4.140460750557502e+000	 5.227682836415261e-001	 1.051102875836700e+001
 4.135081283023280e+000	 5.637419124116356e-001	 1.051735158095159e+001
 4.129276308929571e+000	 6.047970592889388e-001	 1.052080548688661e+001
 4.123042529416265e+000	 6.459277591011917e-001	 1.052173271099534e+001
 4.116376744134381e+000	 6.871279425565912e-001	 1.052035203059528e+001
 4.109275854644496e+000	 7.283914378937264e-001	 1.051921433769776e+001
 4.101736867796985e+000	 7.697119726495050e-001	 1.052034322493866e+001
 4.093756899089692e+000	 8.110831755456629e-001	 1.052535144261807e+001
 4.180625489432248e+000	 4.029531249892535e-001	 1.045766478474704e+001
 4.176475463857045e+000	 4.439075127552786e-001	 1.047640361205988e+001
 4.171907732972210e+000	 4.849613058567810e-001	 1.049013893500053e+001
 4.166918700055335e+000	 5.261088241467262e-001	 1.050014268832703e+001
 4.161504857197135e+000	 5.673442784153437e-001	 1.050742920853033e+001
 4.155662788750933e+000	 6.086617716998225e-001	 1.051269961909487e+001
 4.149389174776560e+000	 6.500553007098915e-001	 1.051627910926355e+001
 4.142680794474464e+000	 6.915187573703857e-001	 1.051833581307387e+001
 4.135534529605870e+000	 7.330459304817428e-001	 1.052048403142856e+001
 4.127947367894609e+000	 7.746305074992251e-001	 1.052432247357144e+001
 4.119916406406244e+000	 8.162660764314833e-001	 1.053124978700453e+001
 3.858321333250832e+000	 7.644370675516263e-001	 1.062444810822770e+001
 3.850380843942109e+000	 8.034764911172418e-001	 1.064230126425364e+001
 3.842019493278809e+000	 8.425513879866891e-001	 1.066054326928037e+001
 3.833234890918529e+000	 8.816554735420568e-001	 1.068005977457500e+001
 3.824024761409275e+000	 9.207823780247854e-001	 1.070136909813721e+001
 3.814386947187074e+000	 9.599256488797628e-001	 1.072460531076371e+001
 3.804319411526238e+000	 9.990787532115455e-001	 1.074950270895021e+001
 3.793820241437709e+000	 1.038235080352056e+000	 1.077537938858549e+001
 3.782887650511029e+000	 1.077387944538932e+000	 1.080113789281480e+001
 3.771519981695345e+000	 1.116530587703505e+000	 1.082523658680833e+001
 3.759715710014934e+000	 1.155656182367169e+000	 1.084569936915592e+001
 3.884480840565159e+000	 7.696199684411721e-001	 1.062400960732741e+001
 3.876486514556273e+000	 8.089240801958822e-001	 1.063956873027458e+001
 3.868068473743193e+000	 8.482639057642208e-001	 1.065561600671681e+001
 3.859224311576942e+000	 8.876331179184215e-001	 1.067305389629104e+001
 3.849951737177908e+000	 9.270253037128130e-001	 1.069243197183596e+001
 3.840248578353792e+000	 9.664339668438119e-001	 1.071392800624414e+001
 3.830112784569850e+000	 1.005852530122790e+000	 1.073733035602177e+001
 3.819542429866924e+000	 1.045274338061189e+000	 1.076201977960713e+001
 3.808535715722647e+000	 1.084692659567023e+000	 1.078696612263680e+001
 3.797090973851328e+000	 1.124100690751761e+000	 1.081070034570889e+001
 3.785206668937873e+000	 1.163491557846334e+000	 1.083131988257807e+001
 3.910640347879802e+000	 7.748028693305064e-001	 1.061487853978230e+001
 3.902592185170744e+000	 8.143716692742633e-001	 1.062811594758555e+001
 3.894117454207846e+000	 8.539764235414399e-001	 1.064199312261821e+001
 3.885213732235561e+000	 8.936107622944156e-001	 1.065743780244740e+001
 3.875878712946665e+000	 9.332682294004115e-001	 1.067503859693494e+001
 3.866110209520529e+000	 9.729422848073704e-001	 1.069502391904042e+001
 3.855906157613378e+000	 1.012626307033486e+000	 1.071723896786894e+001
 3.845264618295935e+000	 1.052313595769716e+000	 1.074114132341959e+001
 3.834183780933948e+000	 1.091997374594454e+000	 1.076576222227011e+001
 3.822661966006883e+000	 1.131670793799310e+000	 1.078971021292810e+001
 3.810697627860287e+000	 1.171326933324751e+000	 1.081115649486086e+001
 3.936799855194743e+000	 7.799857702195772e-001	 1.059995122970370e+001
 3.928697855785512e+000	 8.198192583523399e-001	 1.061092329551684e+001
 3.920166434672769e+000	 8.596889413183101e-001	 1.062269999361727e+001
 3.911203152894398e+000	 8.995884066700156e-001	 1.063624379023092e+001
 3.901805688715573e+000	 9.395111550875681e-001	 1.065219115868434e+001
 3.891971840687339e+000	 9.794506027704423e-001	 1.067082919272258e+001
 3.881699530656882e+000	 1.019400083943650e+000	 1.069207063193041e+001
 3.870986806724832e+000	 1.059352853477671e+000	 1.071544496987775e+001
 3.859831846145037e+000	 1.099302089621277e+000	 1.074006043606063e+001
 3.848232958162134e+000	 1.139240896846218e+000	 1.076460269187778e+001
 3.836188586782309e+000	 1.179162308802503e+000	 1.078731824990347e+001
 3.962959362509964e+000	 7.851686711083351e-001	 1.058212931802800e+001
 3.954803526400566e+000	 8.252668474300684e-001	 1.059097257116198e+001
 3.946215415137962e+000	 8.654014590947966e-001	 1.060075978698016e+001
 3.937192573553473e+000	 9.055660510451962e-001	 1.061249862120586e+001
 3.927732664484667e+000	 9.457540807742726e-001	 1.062688331077913e+001
 3.917833471854273e+000	 9.859589207330298e-001	 1.064426880353661e+001
 3.907492903700438e+000	 1.026173860853302e+000	 1.066464359772672e+001
 3.896708995153701e+000	 1.066392111185088e+000	 1.068761643071756e+001
 3.885479911356020e+000	 1.106606804647542e+000	 1.071237839610861e+001
 3.873803950317198e+000	 1.146810999892553e+000	 1.073769678056949e+001
 3.861679545704070e+000	 1.186997684279673e+000	 1.076189630392018e+001
 3.989118869825450e+000	 7.903515719967293e-001	 1.056431945284122e+001
 3.980909197015897e+000	 8.307144365074040e-001	 1.057124655974923e+001
 3.972264395603426e+000	 8.711139768708635e-001	 1.057919288662445e+001
 3.963181994212798e+000	 9.115436954199335e-001	 1.058922277900568e+001
 3.953659640253977e+000	 9.519970064605126e-001	 1.060209924120738e+001
 3.943695103021376e+000	 9.924672386951354e-001	 1.061825541137720e+001
 3.933286276744113e+000	 1.032947637762458e+000	 1.063776498717519e+001
 3.922431183582631e+000	 1.073431368892000e+000	 1.066032453376720e+001
 3.911127976566998e+000	 1.113911519673297e+000	 1.068521519569171e+001
 3.899374942472197e+000	 1.154381102938380e+000	 1.071129174341961e+001
 3.887170504625702e+000	 1.194833059756341e+000	 1.073696137541145e+001
 4.015278377141183e+000	 7.955344728847096e-001	 1.054889092398243e+001
 4.007014867631494e+000	 8.361620255843024e-001	 1.055462021269577e+001
 3.998313376069161e+000	 8.768264946464752e-001	 1.056101627540875e+001
 3.989171414872387e+000	 9.175213397942028e-001	 1.056942968450996e+001
 3.979586616023536e+000	 9.582399321462762e-001	 1.058081269761577e+001
 3.969556734188702e+000	 9.989755566567617e-001	 1.059568817312545e+001
 3.959079649787976e+000	 1.039721414671137e+000	 1.061422570220651e+001
 3.948153372011707e+000	 1.080470626598443e+000	 1.063621954764723e+001
 3.936776041778080e+000	 1.121216234698595e+000	 1.066104943844437e+001
 3.924945934627249e+000	 1.161951205983767e+000	 1.068766486487716e+001
 3.912661463547339e+000	 1.202668435232591e+000	 1.071456118381228e+001
 4.041437884457146e+000	 8.007173737722259e-001	 1.053604724281400e+001
 4.033120538247349e+000	 8.416096146607199e-001	 1.054171536278830e+001
 4.024362356535171e+000	 8.825390124215965e-001	 1.054788212482892e+001
 4.015160835532258e+000	 9.234989841679794e-001	 1.055565040615768e+001
 4.005513591793375e+000	 9.644828578315524e-001	 1.056593213207471e+001
 3.995418365356301e+000	 1.005483874617912e+000	 1.057945152005558e+001
 3.984873022832094e+000	 1.046495191579357e+000	 1.059679897193435e+001
 3.973875560441019e+000	 1.087509884304450e+000	 1.061793147829706e+001
 3.962424106989367e+000	 1.128520949723485e+000	 1.064233726439306e+001
 3.950516926782475e+000	 1.169521309028779e+000	 1.066906918569617e+001
 3.938152422469113e+000	 1.210503810708504e+000	 1.069671787733036e+001
 4.067597391773321e+000	 8.059002746592268e-001	 1.052755946800560e+001
 4.059226208863447e+000	 8.470572037366112e-001	 1.053374854102988e+001
 4.050411337001454e+000	 8.882515301961919e-001	 1.054029891628650e+001
 4.041150256192424e+000	 9.294766285412386e-001	 1.054824931548590e+001
 4.031440567563525e+000	 9.707257835163287e-001	 1.055846178852017e+001
 4.021279996524220e+000	 1.011992192578588e+000	 1.057159366101177e+001
 4.010666395876541e+000	 1.053268968487136e+000	 1.058807605204523e+001
 3.999597748870653e+000	 1.094549142010055e+000	 1.060806833859566e+001
 3.988072172200969e+000	 1.135825664748019e+000	 1.063151035388866e+001
 3.976087918937997e+000	 1.177091412073483e+000	 1.065773122263546e+001
 3.963643381391157e+000	 1.218339186184163e+000	 1.068542545046149e+001
 4.093756899089692e+000	 8.110831755456629e-001	 1.052535144261807e+001
 4.085331879479782e+000	 8.525047928119330e-001	 1.053255330780453e+001
 4.076460317468012e+000	 8.939640479702253e-001	 1.053998617516270e+001
 4.067139676852902e+000	 9.354542729139563e-001	 1.054862058047874e+001
 4.057367543334020e+000	 9.769687092005942e-001	 1.055926333653551e+001
 4.047141627692513e+000	 1.018500510538794e+000	 1.057253013643557e+001
 4.036459768921380e+000	 1.060042745394492e+000	 1.058882314484897e+001
 4.025319937300696e+000	 1.101588399715292e+000	 1.060828766743570e+001
 4.013720237412986e+000	 1.143130379772245e+000	 1.063078434362862e+001
 4.001658911093933e+000	 1.184661515117947e+000	 1.065584718054940e+001
 3.989134340313600e+000	 1.226174561659649e+000	 1.068264715164378e+001
 4.119916406406244e+000	 8.162660764314833e-001	 1.053124978700453e+001
 4.111437550096344e+000	 8.579523818866410e-001	 1.053986569903429e+001
 4.102509297934843e+000	 8.996765657436617e-001	 1.054857211266556e+001
 4.093129097513706e+000	 9.414319172861084e-001	 1.055826717426290e+001
 4.083294519104891e+000	 9.832116348843376e-001	 1.056969691534280e+001
 4.073003258861228e+000	 1.025008828498531e+000	 1.058342849295186e+001
 4.062253141966685e+000	 1.066816522301444e+000	 1.059982706378139e+001
 4.051042125731239e+000	 1.108627657420195e+000	 1.061901456421295e+001
 4.039368302625527e+000	 1.150435094796215e+000	 1.064084089177295e+001
 4.027229903250404e+000	 1.192231618162235e+000	 1.066484254046480e+001
 4.014625299236578e+000	 1.234009937135045e+000	 1.069019912183042e+001
 3.759715710014934e+000	 1.155656182367169e+000	 1.084569936915592e+001
 3.747473444274481e+000	 1.194757834072112e+000	 1.086226182881597e+001
 3.734791926805089e+000	 1.233828582715533e+000	 1.087370097840025e+001
 3.721670038772552e+000	 1.272861407380663e+000	 1.087588305601690e+001
 3.708106803531544e+000	 1.311849230209202e+000	 1.086416601189703e+001
 3.694101388953216e+000	 1.350784919814787e+000	 1.083683233807016e+001
 3.679653109660585e+000	 1.389661294793495e+000	 1.081503519467455e+001
 3.664761429167448e+000	 1.428471127328699e+000	 1.080190963948123e+001
 3.649425961916560e+000	 1.467207146887431e+000	 1.079538088334830e+001
 3.633646475212944e+000	 1.505862044005179e+000	 1.079308917389250e+001
 3.617422891048259e+000	 1.544428474155829e+000	 1.079239229070343e+001
 3.785206668937873e+000	 1.163491557846334e+000	 1.083131988257807e+001
 3.772881400354629e+000	 1.202858319648345e+000	 1.084798563120942e+001
 3.760113901905668e+000	 1.242193968865346e+000	 1.085893532016979e+001
 3.746903047171049e+000	 1.281491436978597e+000	 1.086015500685735e+001
 3.733247852883757e+000	 1.320743598141762e+000	 1.084711191686773e+001
 3.719147481273075e+000	 1.359943272617523e+000	 1.082210634804243e+001
 3.704601242315141e+000	 1.399083230311879e+000	 1.080440141552593e+001
 3.689608595886351e+000	 1.438156194403447e+000	 1.079392951275971e+001
 3.674169153815358e+000	 1.477154845064890e+000	 1.078878638248162e+001
 3.658282681829495e+000	 1.516071823273362e+000	 1.078678764395670e+001
 3.641949101391516e+000	 1.554899734706702e+000	 1.078547075627779e+001
 3.810697627860287e+000	 1.171326933324751e+000	 1.081115649486086e+001
 3.798289356434168e+000	 1.210958805223801e+000	 1.082866566726183e+001
 3.785435877005571e+000	 1.250559355014358e+000	 1.083991567160369e+001
 3.772136055568818e+000	 1.290121466575713e+000	 1.084101330987389e+001
 3.758388902235207e+000	 1.329637966073493e+000	 1.082753644576371e+001
 3.744193573592156e+000	 1.369101625419423e+000	 1.080675575929366e+001
 3.729549374968920e+000	 1.408505165829424e+000	 1.079317350706006e+001
 3.714455762604492e+000	 1.447841261477360e+000	 1.078544484573447e+001
 3.698912345713430e+000	 1.487102543241513e+000	 1.078182917887422e+001
 3.682918888445374e+000	 1.526281602540710e+000	 1.078031186958245e+001
 3.666475311734168e+000	 1.565370995256741e+000	 1.077860566965856e+001
 3.836188586782309e+000	 1.179162308802503e+000	 1.078731824990347e+001
 3.823697312513241e+000	 1.219059290798574e+000	 1.080617580715495e+001
 3.810757852104945e+000	 1.258924741162679e+000	 1.081829505544275e+001
 3.797369063966007e+000	 1.298751496172133e+000	 1.081990583950703e+001
 3.783529951586039e+000	 1.338532334004527e+000	 1.080692614245580e+001
 3.769239665910597e+000	 1.378259978220630e+000	 1.079150817940922e+001
 3.754497507622048e+000	 1.417927101346283e+000	 1.078195967380691e+001
 3.739302929321989e+000	 1.457526328550590e+000	 1.077696362210703e+001
 3.723655537610877e+000	 1.497050241417462e+000	 1.077493663056953e+001
 3.707555095060664e+000	 1.536491381807390e+000	 1.077402857776188e+001
 3.691001522076282e+000	 1.575842255806114e+000	 1.077212350550513e+001
 3.861679545704070e+000	 1.186997684279673e+000	 1.076189630392018e+001
 3.849105268591986e+000	 1.227159776372763e+000	 1.078237164591815e+001
 3.836079827203931e+000	 1.267290127310418e+000	 1.079570730959384e+001
 3.822602072362762e+000	 1.307381525767978e+000	 1.079825988181354e+001
 3.808671000936399e+000	 1.347426701934999e+000	 1.078734150596632e+001
 3.794285758228536e+000	 1.387418331021288e+000	 1.077709615261924e+001
 3.779445640274659e+000	 1.427349036862607e+000	 1.077137396119868e+001
 3.764150096038960e+000	 1.467211395623299e+000	 1.076900003011282e+001
 3.748398729507803e+000	 1.506997939592899e+000	 1.076854212768108e+001
 3.732191301675452e+000	 1.546701161073566e+000	 1.076830982410695e+001
 3.715527732417928e+000	 1.586313516354986e+000	 1.076635483831934e+001
 3.887170504625702e+000	 1.194833059756341e+000	 1.073696137541145e+001
 3.874513224670545e+000	 1.235260261946463e+000	 1.075908762986860e+001
 3.861401802302680e+000	 1.275655513457685e+000	 1.077376390689987e+001
 3.847835080759229e+000	 1.316011555363373e+000	 1.077747866509731e+001
 3.833812050286428e+000	 1.356321069865043e+000	 1.076977528149569e+001
 3.819331850546111e+000	 1.396576683821540e+000	 1.076425546318621e+001
 3.804393772926876e+000	 1.436770972378545e+000	 1.076203440030910e+001
 3.788997262755524e+000	 1.476896462695643e+000	 1.076207246522330e+001
 3.773141921404313e+000	 1.516945637767987e+000	 1.076308296996126e+001
 3.756827508289828e+000	 1.556910940339404e+000	 1.076353076246722e+001
 3.740053942759174e+000	 1.596784776903525e+000	 1.076163202156339e+001
 3.912661463547339e+000	 1.202668435232591e+000	 1.071456118381228e+001
 3.899921180749060e+000	 1.243360747519771e+000	 1.073813417866878e+001
 3.886723777401332e+000	 1.284020899604590e+000	 1.075405077684265e+001
 3.873068089155554e+000	 1.324641584958439e+000	 1.075893789815695e+001
 3.858953099636274e+000	 1.365215437794790e+000	 1.075509914843887e+001
 3.844377942863459e+000	 1.405735036621528e+000	 1.075372345584554e+001
 3.829341905578835e+000	 1.446192907894250e+000	 1.075456117338569e+001
 3.813844429471796e+000	 1.486581529767779e+000	 1.075670155672084e+001
 3.797885113300514e+000	 1.526893335942891e+000	 1.075899827065372e+001
 3.781463714903873e+000	 1.567120719605069e+000	 1.076006744257085e+001
 3.764580153100086e+000	 1.607256037451897e+000	 1.075828689586166e+001
 3.938152422469113e+000	 1.210503810708504e+000	 1.069671787733036e+001
 3.925329136827668e+000	 1.251461233092785e+000	 1.072129480319857e+001
 3.912045752500035e+000	 1.292386285751245e+000	 1.073812512909092e+001
 3.898301097551884e+000	 1.333271614553298e+000	 1.074398231580537e+001
 3.884094148986077e+000	 1.374109805724376e+000	 1.074418374645772e+001
 3.869424035180720e+000	 1.414893389421396e+000	 1.074623737252696e+001
 3.854290038230660e+000	 1.455614843409874e+000	 1.074957479923463e+001
 3.838691596187895e+000	 1.496266596839867e+000	 1.075340821706437e+001
 3.822628305196501e+000	 1.536841034117769e+000	 1.075672688543964e+001
 3.806099921517680e+000	 1.577330498870728e+000	 1.075829463441845e+001
 3.789106363440732e+000	 1.617727298000268e+000	 1.075664852496878e+001
 3.963643381391157e+000	 1.218339186184163e+000	 1.068542545046149e+001
 3.950737092906511e+000	 1.259561718665599e+000	 1.071032321943191e+001
 3.937367727598935e+000	 1.300751671897758e+000	 1.072751227881111e+001
 3.923534105948365e+000	 1.341901644148074e+000	 1.073425313284554e+001
 3.909235198335982e+000	 1.383004173653933e+000	 1.073789719010877e+001
 3.894470127498032e+000	 1.424051742221288e+000	 1.074253270462377e+001
 3.879238170882482e+000	 1.465036778925567e+000	 1.074769433756264e+001
 3.863538762903941e+000	 1.505951663912063e+000	 1.075271171302068e+001
 3.847371497092382e+000	 1.546788732292786e+000	 1.075670536534764e+001
 3.830736128131333e+000	 1.587540278136545e+000	 1.075858367822648e+001
 3.813632573781182e+000	 1.628198558548805e+000	 1.075704095825366e+001
 3.989134340313600e+000	 1.226174561659649e+000	 1.068264715164378e+001
 3.976145048985731e+000	 1.267662204238311e+000	 1.070694045849619e+001
 3.962689702698176e+000	 1.309117058044240e+000	 1.072370247366225e+001
 3.948767114345144e+000	 1.350531673742887e+000	 1.073119022507164e+001
 3.934376247686132e+000	 1.391898541583594e+000	 1.073710359449522e+001
 3.919516219815531e+000	 1.433210095021344e+000	 1.074334156011441e+001
 3.904186303534432e+000	 1.474458714441479e+000	 1.074953561142938e+001
 3.888385929620046e+000	 1.515636730984523e+000	 1.075512775758701e+001
 3.872114688988262e+000	 1.556736430468104e+000	 1.075936593255519e+001
 3.855372334744916e+000	 1.597750057402686e+000	 1.076130035877642e+001
 3.838158784121502e+000	 1.638669819097675e+000	 1.075978101851378e+001
 4.014625299236578e+000	 1.234009937135045e+000	 1.069019912183042e+001
 4.001553005065471e+000	 1.275762689811019e+000	 1.071283185002384e+001
 3.988011677797905e+000	 1.317482444190801e+000	 1.072814772240081e+001
 3.974000122742366e+000	 1.359161703337862e+000	 1.073579859651813e+001
 3.959517297036672e+000	 1.400792909513493e+000	 1.074266161145374e+001
 3.944562312133357e+000	 1.442368447821711e+000	 1.074939104487605e+001
 3.929134436186639e+000	 1.483880649957763e+000	 1.075570944700471e+001
 3.913233096336334e+000	 1.525321798057408e+000	 1.076116662178088e+001
 3.896857880884243e+000	 1.566684128643885e+000	 1.076513447806535e+001
 3.880008541358522e+000	 1.607959836669317e+000	 1.076680280308518e+001
 3.862684994461762e+000	 1.649141079647046e+000	 1.076517611399357e+001
 3.617422891048259e+000	 1.544428474155829e+000	 1.079239229070343e+001
 3.600757821582672e+000	 1.582893299281493e+000	 1.079852954880607e+001
 3.583649105312324e+000	 1.621254913125378e+000	 1.081693576216815e+001
 3.566097140681105e+000	 1.659505895371513e+000	 1.084494861561916e+001
 3.548102486840681e+000	 1.697638806993271e+000	 1.087977421009157e+001
 3.529665864868949e+000	 1.735646194488917e+000	 1.091849723227974e+001
 3.510788158857955e+000	 1.773520594178442e+000	 1.095809268898494e+001
 3.491470416868222e+000	 1.811254536557092e+000	 1.099543927810363e+001
 3.471713851746570e+000	 1.848840550700882e+000	 1.102733446132334e+001
 3.451519841804724e+000	 1.886271168719184e+000	 1.105051129557852e+001
 3.430889931356198e+000	 1.923538930249378e+000	 1.106165707118450e+001
 3.641949101391516e+000	 1.554899734706702e+000	 1.078547075627779e+001
 3.625171042372079e+000	 1.593625352230694e+000	 1.079107075555599e+001
 3.607946328612285e+000	 1.632247058698082e+000	 1.080975524603322e+001
 3.590275361257489e+000	 1.670757383482981e+000	 1.083863515728599e+001
 3.572158703250427e+000	 1.709148837121984e+000	 1.087466920193275e+001
 3.553597080557927e+000	 1.747413915578442e+000	 1.091467399003773e+001
 3.534591383266208e+000	 1.785545104568417e+000	 1.095533578347999e+001
 3.515142666541674e+000	 1.823534883943736e+000	 1.099322396818586e+001
 3.495252151454283e+000	 1.861375732127375e+000	 1.102480631504553e+001
 3.474921225660749e+000	 1.899060130596229e+000	 1.104646609207530e+001
 3.454151443945081e+000	 1.936580568406244e+000	 1.105452108095082e+001
 3.666475311734168e+000	 1.565370995256741e+000	 1.077860566965856e+001
 3.649584263160969e+000	 1.604357405179059e+000	 1.078379027802734e+001
 3.632243551911827e+000	 1.643239204269950e+000	 1.080263771712822e+001
 3.614453581833564e+000	 1.682008871593611e+000	 1.083206338946642e+001
 3.596214919659974e+000	 1.720658867249862e+000	 1.086881082161955e+001
 3.577528296246816e+000	 1.759181636667134e+000	 1.090946165570621e+001
 3.558394607674472e+000	 1.797569614957565e+000	 1.095044735448285e+001
 3.538814916215225e+000	 1.835815231329567e+000	 1.098806270423265e+001
 3.518790451162161e+000	 1.873910913553071e+000	 1.101848119235700e+001
 3.498322609516990e+000	 1.911849092472505e+000	 1.103777232808041e+001
 3.477412956534197e+000	 1.949622206562376e+000	 1.104192096494625e+001
 3.691001522076282e+000	 1.575842255806114e+000	 1.077212350550513e+001
 3.673997483949385e+000	 1.615089458126757e+000	 1.077699318730958e+001
 3.656540775210977e+000	 1.654231349841147e+000	 1.079588369217399e+001
 3.638631802409330e+000	 1.693260359703563e+000	 1.082554578797469e+001
 3.620271136069302e+000	 1.732168897377055e+000	 1.086253965905848e+001
 3.601459511935571e+000	 1.770949357755138e+000	 1.090324470590930e+001
 3.582197832082684e+000	 1.809594125346025e+000	 1.094387113051993e+001
 3.562487165888796e+000	 1.848095578714712e+000	 1.098047339823464e+001
 3.542328750870120e+000	 1.886446094978093e+000	 1.100896565940340e+001
 3.521723993373348e+000	 1.924638054348121e+000	 1.102513920546018e+001
 3.500674469123442e+000	 1.962663844717872e+000	 1.102468202400429e+001
 3.715527732417928e+000	 1.586313516354986e+000	 1.076635483831934e+001
 3.698410704737381e+000	 1.625821511073953e+000	 1.077098695683625e+001
 3.680837998509758e+000	 1.665223495411832e+000	 1.078979399232651e+001
 3.662810022984793e+000	 1.704511847812997e+000	 1.081939265937661e+001
 3.644327352478393e+000	 1.743678927503718e+000	 1.085619131051932e+001
 3.625390727624157e+000	 1.782717078842601e+000	 1.089639947399400e+001
 3.606001056490789e+000	 1.821618635733935e+000	 1.093603924773397e+001
 3.586159415562315e+000	 1.860375926099302e+000	 1.097095864729163e+001
 3.565867050578072e+000	 1.898981276402560e+000	 1.099684699782702e+001
 3.545125377229727e+000	 1.937427016223188e+000	 1.100925245132916e+001
 3.523935981712723e+000	 1.975705482872834e+000	 1.100360169991605e+001
 3.740053942759174e+000	 1.596784776903525e+000	 1.076163202156340e+001
 3.722823925524999e+000	 1.636553564020810e+000	 1.076607906707466e+001
 3.705135221808199e+000	 1.676215640982174e+000	 1.078466728770884e+001
 3.686988243559954e+000	 1.715763335922071e+000	 1.081390963928737e+001
 3.668383568887226e+000	 1.755188957630005e+000	 1.085009384425922e+001
 3.649321943312530e+000	 1.794484799929671e+000	 1.088929159616291e+001
 3.629804280898727e+000	 1.833643146121435e+000	 1.092736968931266e+001
 3.609831665235705e+000	 1.872656273483468e+000	 1.096000317871662e+001
 3.589405350285924e+000	 1.911516457826590e+000	 1.098269066749948e+001
 3.568526761086030e+000	 1.950215978097816e+000	 1.099077180992547e+001
 3.547197494301936e+000	 1.988747121027364e+000	 1.097944710750546e+001
 3.764580153100086e+000	 1.607256037451897e+000	 1.075828689586166e+001
 3.747237146312288e+000	 1.647285616967497e+000	 1.076257463974191e+001
 3.729432445106324e+000	 1.687207786552331e+000	 1.078079767137050e+001
 3.711166464134817e+000	 1.727014824030942e+000	 1.080939521947478e+001
 3.692439785295785e+000	 1.766698987756068e+000	 1.084456529382646e+001
 3.673253159000651e+000	 1.806252521016490e+000	 1.088227348367765e+001
 3.653607505306437e+000	 1.845667656508661e+000	 1.091826374891876e+001
 3.633503914908892e+000	 1.884936620867337e+000	 1.094807131663038e+001
 3.612943649993593e+000	 1.924051639250307e+000	 1.096703778781693e+001
 3.591928144942161e+000	 1.963004939972117e+000	 1.097032854972466e+001
 3.570459006890980e+000	 2.001788759181559e+000	 1.095299304726499e+001
 3.789106363440732e+000	 1.617727298000268e+000	 1.075664852496878e+001
 3.771650367099297e+000	 1.658017669914180e+000	 1.076077410021022e+001
 3.753729668404155e+000	 1.698199932122468e+000	 1.077847226134134e+001
 3.735344684709383e+000	 1.738266312139771e+000	 1.080613830246192e+001
 3.716496001704045e+000	 1.778209017882060e+000	 1.083991117778939e+001
 3.697184374688481e+000	 1.818020242103209e+000	 1.087568181995195e+001
 3.677410729713861e+000	 1.857692166895753e+000	 1.090910351703301e+001
 3.657176164581796e+000	 1.897216968251040e+000	 1.093560446907299e+001
 3.636481949700989e+000	 1.936586820673828e+000	 1.095040263671682e+001
 3.615329528798024e+000	 1.975793901846201e+000	 1.094852298510173e+001
 3.593720519479760e+000	 2.014830397335523e+000	 1.092749770834241e+001
 3.813632573781182e+000	 1.628198558548805e+000	 1.075704095825366e+001
 3.796063587886068e+000	 1.668749722861022e+000	 1.076097086683204e+001
 3.778026891701721e+000	 1.709192077692748e+000	 1.077796882951380e+001
 3.759522905283656e+000	 1.749517800248717e+000	 1.080441578239181e+001
 3.740552218111992e+000	 1.789719048008136e+000	 1.083642204470077e+001
 3.721115590375979e+000	 1.829787963189973e+000	 1.086983508141449e+001
 3.701213954120938e+000	 1.869716677282848e+000	 1.090024938917934e+001
 3.680848414254348e+000	 1.909497315634706e+000	 1.092301863470869e+001
 3.660020249408020e+000	 1.949122002097276e+000	 1.093327016661805e+001
 3.638730912653521e+000	 1.988582863720177e+000	 1.092592201188669e+001
 3.616982032068171e+000	 2.027872035489355e+000	 1.090481232062936e+001
 3.838158784121502e+000	 1.638669819097675e+000	 1.075978101851377e+001
 3.820476808672654e+000	 1.679481775808191e+000	 1.076344906598107e+001
 3.802324114999044e+000	 1.720184223263335e+000	 1.077955345615590e+001
 3.783701125857639e+000	 1.760769288357938e+000	 1.080449015097966e+001
 3.764608434519603e+000	 1.801229078134447e+000	 1.083437104216949e+001
 3.745046806063102e+000	 1.841555684276927e+000	 1.086503108107731e+001
 3.725017178527611e+000	 1.881741187670087e+000	 1.089203759505316e+001
 3.704520663926468e+000	 1.921777663018466e+000	 1.091070192824753e+001
 3.683558549114603e+000	 1.961657183520769e+000	 1.091609353652732e+001
 3.662132296508555e+000	 2.001371825594157e+000	 1.090307711339976e+001
 3.640243544656117e+000	 2.040913673643154e+000	 1.088508940549898e+001
 3.862684994461762e+000	 1.649141079647046e+000	 1.076517611399357e+001
 3.844890029459101e+000	 1.690213828755853e+000	 1.076848127166608e+001
 3.826621338296151e+000	 1.731176368834391e+000	 1.078347820891294e+001
 3.807879346431334e+000	 1.772020776467594e+000	 1.080660712743674e+001
 3.788664650926863e+000	 1.812739108261148e+000	 1.083401150896706e+001
 3.768978021749813e+000	 1.853323405364218e+000	 1.086154453380134e+001
 3.748820402933820e+000	 1.893765698057605e+000	 1.088477774762379e+001
 3.728192913598082e+000	 1.934058010402449e+000	 1.089901212375213e+001
 3.707096848820648e+000	 1.974192364944430e+000	 1.089929165959398e+001
 3.685533680363033e+000	 2.014160787468252e+000	 1.088250758072713e+001
 3.663505057243498e+000	 2.053955311797023e+000	 1.086844314774409e+001
 3.430889931356198e+000	 1.923538930249378e+000	 1.106165707118450e+001
 3.409822639161488e+000	 1.960641939370820e+000	 1.105438930343045e+001
 3.388322907875673e+000	 1.997567159735842e+000	 1.102232377090986e+001
 3.366392785299045e+000	 2.034307179775804e+000	 1.098150928764799e+001
 3.344034485992657e+000	 2.070854613836993e+000	 1.095505940993062e+001
 3.321250391072291e+000	 2.107202106807173e+000	 1.094165056458273e+001
 3.298043047850051e+000	 2.143342338751271e+000	 1.093758554134415e+001
 3.274415169322649e+000	 2.179268029550414e+000	 1.094054810411371e+001
 3.250369633505694e+000	 2.214971943538431e+000	 1.094848220764131e+001
 3.225909482613577e+000	 2.250446894129933e+000	 1.095929131080751e+001
 3.201037922084772e+000	 2.285685748434004e+000	 1.097084930755801e+001
 3.454151443945081e+000	 1.936580568406244e+000	 1.105452108095082e+001
 3.432941315024939e+000	 1.973935136782386e+000	 1.104201447382171e+001
 3.411295815066717e+000	 2.011110710990246e+000	 1.100418131832287e+001
 3.389217005754839e+000	 2.048099829210576e+000	 1.096903358972407e+001
 3.366707116665132e+000	 2.084895055714759e+000	 1.094613011411495e+001
 3.343768545057394e+000	 2.121488985522725e+000	 1.093462462075903e+001
 3.320403855514565e+000	 2.157874249070070e+000	 1.093310748719967e+001
 3.296615779427530e+000	 2.194043516878545e+000	 1.093759396867255e+001
 3.272407214324913e+000	 2.229989504223993e+000	 1.094586198886836e+001
 3.247781223047381e+000	 2.265704975795808e+000	 1.095599374599715e+001
 3.222741032766358e+000	 2.301182750341904e+000	 1.096605134359667e+001
 3.477412956534197e+000	 1.949622206562376e+000	 1.104192096494625e+001
 3.456059990888607e+000	 1.987228334193262e+000	 1.102355991791697e+001
 3.434268722257934e+000	 2.024654262244012e+000	 1.098505905681050e+001
 3.412041226210741e+000	 2.061892478644769e+000	 1.095515352669336e+001
 3.389379747337629e+000	 2.098935497592009e+000	 1.093553843767447e+001
 3.366286699042419e+000	 2.135775864237826e+000	 1.092548175949417e+001
 3.342764663178891e+000	 2.172406159388485e+000	 1.092424709810728e+001
 3.318816389532113e+000	 2.208819004206356e+000	 1.093033024299994e+001
 3.294444795143724e+000	 2.245007064909296e+000	 1.093944348315534e+001
 3.269652963480679e+000	 2.280963057461481e+000	 1.094950697044377e+001
 3.244444143447348e+000	 2.316679752249655e+000	 1.095873433799653e+001
 3.500674469123442e+000	 1.962663844717872e+000	 1.102468202400429e+001
 3.479178666752396e+000	 2.000521531603536e+000	 1.099997001474587e+001
 3.457241629449239e+000	 2.038197813497221e+000	 1.096560783296183e+001
 3.434865446666673e+000	 2.075685128078454e+000	 1.094048221040187e+001
 3.412052378010084e+000	 2.112975939468804e+000	 1.092394056258020e+001
 3.388804853027323e+000	 2.150062742952528e+000	 1.091533514154457e+001
 3.365125470843008e+000	 2.186938069706559e+000	 1.091402288940584e+001
 3.341016999636398e+000	 2.223594491533884e+000	 1.091936479129360e+001
 3.316482375962151e+000	 2.260024625594372e+000	 1.092960588505810e+001
 3.291524703913511e+000	 2.296221139126975e+000	 1.094019190203859e+001
 3.266147254127807e+000	 2.332176754157270e+000	 1.094922940890126e+001
 3.523935981712723e+000	 1.975705482872834e+000	 1.100360169991605e+001
 3.502297342616207e+000	 2.013814729013301e+000	 1.097480532731614e+001
 3.480214536640537e+000	 2.051741364749952e+000	 1.094633689876077e+001
 3.457689667122557e+000	 2.089477777511701e+000	 1.092558490322535e+001
 3.434725008682439e+000	 2.127016381345205e+000	 1.091194368612119e+001
 3.411323007012064e+000	 2.164349621666885e+000	 1.090482032520985e+001
 3.387486278506896e+000	 2.201469980024335e+000	 1.090363450456418e+001
 3.363217609740387e+000	 2.238369978861164e+000	 1.090781784813895e+001
 3.338519956780216e+000	 2.275042186279246e+000	 1.091681269880381e+001
 3.313396444345928e+000	 2.311479220792313e+000	 1.092838465286686e+001
 3.287850364807802e+000	 2.347673756064768e+000	 1.093784433498442e+001
 3.547197494301936e+000	 1.988747121027364e+000	 1.097944710750546e+001
 3.525416018479945e+000	 2.027107926422647e+000	 1.095088381184002e+001
 3.503187443831742e+000	 2.065284916002286e+000	 1.092770996794554e+001
 3.480513887578316e+000	 2.103270426944580e+000	 1.091097984377953e+001
 3.457397639354630e+000	 2.141056823221275e+000	 1.090010690651820e+001
 3.433841160996597e+000	 2.178636500380949e+000	 1.089452408718846e+001
 3.409847086170532e+000	 2.216001890341860e+000	 1.089368372217063e+001
 3.385418219844079e+000	 2.253145466188233e+000	 1.089705691572282e+001
 3.360557537597944e+000	 2.290059746963949e+000	 1.090413230805498e+001
 3.335268184777969e+000	 2.326737302457517e+000	 1.091441423967858e+001
 3.309553475487395e+000	 2.363170757972164e+000	 1.092486445721911e+001
 3.570459006890980e+000	 2.001788759181559e+000	 1.095299304726499e+001
 3.548534694343513e+000	 2.040401123831665e+000	 1.092855757105539e+001
 3.526160351022762e+000	 2.078828467254305e+000	 1.091014597171710e+001
 3.503338108033874e+000	 2.117063076377164e+000	 1.089713907518510e+001
 3.480070270026597e+000	 2.155097265097072e+000	 1.088894210921867e+001
 3.456359314980883e+000	 2.192923379094772e+000	 1.088498535283554e+001
 3.432207893833896e+000	 2.230533800659176e+000	 1.088472419241124e+001
 3.407618829947475e+000	 2.267920953515126e+000	 1.088763856136929e+001
 3.382595118415356e+000	 2.305077307648509e+000	 1.089323174653537e+001
 3.357139925209684e+000	 2.341995384122610e+000	 1.090102855073080e+001
 3.331256586166657e+000	 2.378667759879476e+000	 1.091055358042337e+001
 3.593720519479760e+000	 2.014830397335523e+000	 1.092749770834241e+001
 3.571653370206811e+000	 2.053694321240443e+000	 1.090813642630814e+001
 3.549133258213510e+000	 2.092372018506087e+000	 1.089401981919974e+001
 3.526162328489153e+000	 2.130855725809522e+000	 1.088448927577286e+001
 3.502742900698279e+000	 2.169137706972662e+000	 1.087891485384143e+001
 3.478877468964877e+000	 2.207210257808405e+000	 1.087669612578559e+001
 3.454568701496963e+000	 2.245065710976327e+000	 1.087726239626637e+001
 3.429819440050576e+000	 2.282696440841879e+000	 1.088007226718972e+001
 3.404632699232478e+000	 2.320094868332957e+000	 1.088461253140226e+001
 3.379011665641113e+000	 2.357253465787612e+000	 1.089039638341559e+001
 3.352959696845650e+000	 2.394164761786720e+000	 1.089696094258653e+001
 3.616982032068171e+000	 2.027872035489355e+000	 1.090481232062936e+001
 3.594772046069743e+000	 2.066987518649075e+000	 1.088988860060279e+001
 3.572106165403896e+000	 2.105915569757716e+000	 1.087966316243968e+001
 3.548986548944075e+000	 2.144648375241726e+000	 1.087341259211870e+001
 3.525415531369615e+000	 2.183178148848104e+000	 1.087044526174319e+001
 3.501395622948538e+000	 2.221497136521903e+000	 1.087010241696851e+001
 3.476929509159712e+000	 2.259597621293356e+000	 1.087175860333528e+001
 3.452020050153380e+000	 2.297471928168530e+000	 1.087482140453001e+001
 3.426670280049331e+000	 2.335112429017318e+000	 1.087873047232815e+001
 3.400883406072306e+000	 2.372511547452548e+000	 1.088295583510436e+001
 3.374662807524445e+000	 2.409661763693914e+000	 1.088699547926188e+001
 3.640243544656117e+000	 2.040913673643154e+000	 1.088508940549898e+001
 3.617890721932214e+000	 2.080280716057648e+000	 1.087404140859177e+001
 3.595079072593831e+000	 2.119459121009271e+000	 1.086736516573921e+001
 3.571810769398565e+000	 2.158441024673847e+000	 1.086424747430392e+001
 3.548088162040541e+000	 2.197218590723459e+000	 1.086390890417765e+001
 3.523913776931821e+000	 2.235784015235317e+000	 1.086560517304588e+001
 3.499290316822126e+000	 2.274129531610309e+000	 1.086862782834947e+001
 3.474220660255889e+000	 2.312247415495112e+000	 1.087230420679947e+001
 3.448707860865935e+000	 2.350129989701623e+000	 1.087599664933494e+001
 3.422755146503306e+000	 2.387769629117438e+000	 1.087910095686403e+001
 3.396365918203103e+000	 2.425158765601074e+000	 1.088104407993509e+001
 3.663505057243498e+000	 2.053955311797023e+000	 1.086844314774409e+001
 3.641009397794123e+000	 2.093573913466255e+000	 1.086078195319511e+001
 3.618051979783224e+000	 2.133002672260831e+000	 1.085737327913314e+001
 3.594634989852545e+000	 2.172233674105955e+000	 1.085728951330285e+001
 3.570760792711000e+000	 2.211259032598791e+000	 1.085963769102163e+001
 3.546431930914687e+000	 2.250070893948701e+000	 1.086356120429349e+001
 3.521651124484179e+000	 2.288661441927229e+000	 1.086824078643405e+001
 3.496421270358105e+000	 2.327022902821664e+000	 1.087289474075243e+001
 3.470745441682317e+000	 2.365147550385902e+000	 1.087677838917329e+001
 3.444626886934159e+000	 2.403027710782308e+000	 1.087918272445965e+001
 3.418069028881694e+000	 2.440655767508218e+000	 1.087943225784960e+001
 3.201037922084772e+000	 2.285685748434004e+000	 1.097084930755801e+001
 3.175758318549517e+000	 2.320681431073920e+000	 1.097932716949851e+001
 3.150074195862330e+000	 2.355426926386115e+000	 1.098257032524204e+001
 3.123989236422098e+000	 2.389915285194917e+000	 1.098102991106798e+001
 3.097507280498922e+000	 2.424139630075088e+000	 1.097527116293519e+001
 3.070632324500331e+000	 2.458093159808781e+000	 1.096598065591858e+001
 3.043368519087290e+000	 2.491769153792503e+000	 1.095397314637585e+001
 3.015720167141756e+000	 2.525160976388238e+000	 1.094019794388707e+001
 2.987691721587632e+000	 2.558262081212876e+000	 1.092574474232671e+001
 2.959287783067378e+000	 2.591066015360244e+000	 1.091184884234978e+001
 2.930513097476696e+000	 2.623566423550066e+000	 1.089989570109055e+001
 3.222741032766358e+000	 2.301182750341904e+000	 1.096605134359667e+001
 3.197290032937911e+000	 2.336415704514344e+000	 1.097297356461459e+001
 3.171431771308376e+000	 2.371396775083201e+000	 1.097517548599809e+001
 3.145169955243393e+000	 2.406118965757234e+000	 1.097300289693488e+001
 3.118508451050198e+000	 2.440575352482112e+000	 1.096691145176422e+001
 3.091451282232050e+000	 2.474759087927573e+000	 1.095747450440416e+001
 3.064002627591507e+000	 2.508663405924286e+000	 1.094539054518780e+001
 3.036166819184163e+000	 2.542281625844455e+000	 1.093149016338997e+001
 3.007948340124859e+000	 2.575607156920352e+000	 1.091674246110875e+001
 2.979351822248521e+000	 2.608633502494951e+000	 1.090226084718790e+001
 2.950382043628141e+000	 2.641354264199035e+000	 1.088930814350173e+001
 3.244444143447348e+000	 2.316679752249655e+000	 1.095873433799653e+001
 3.218821747325635e+000	 2.352149977954658e+000	 1.096470773597013e+001
 3.192789346753697e+000	 2.387366623780209e+000	 1.096631965646824e+001
 3.166350674063929e+000	 2.422322646319497e+000	 1.096382177722989e+001
 3.139509621600685e+000	 2.457011074889094e+000	 1.095757188195904e+001
 3.112270239962971e+000	 2.491425016046330e+000	 1.094804228825623e+001
 3.084636736094925e+000	 2.525557658056028e+000	 1.093582787629655e+001
 3.056613471225788e+000	 2.559402275300624e+000	 1.092165363768496e+001
 3.028204958661327e+000	 2.592952232627757e+000	 1.090638166637648e+001
 2.999415861428941e+000	 2.626200989629561e+000	 1.089101751667387e+001
 2.970250989778902e+000	 2.659142104847869e+000	 1.087671585708308e+001
 3.266147254127807e+000	 2.332176754157270e+000	 1.094922940890126e+001
 3.240353461712776e+000	 2.367884251394873e+000	 1.095482894718732e+001
 3.214146922198396e+000	 2.403336472477146e+000	 1.095627702584651e+001
 3.187531392883817e+000	 2.438526326881711e+000	 1.095374206253770e+001
 3.160510792150514e+000	 2.473446797296040e+000	 1.094749529326568e+001
 3.133089197693235e+000	 2.508090944165057e+000	 1.093791979323624e+001
 3.105270844597697e+000	 2.542451910187743e+000	 1.092551909544317e+001
 3.077060123266782e+000	 2.576522924756755e+000	 1.091092532247301e+001
 3.048461577197192e+000	 2.610297308335110e+000	 1.089490674955240e+001
 3.019479900608788e+000	 2.643768476764096e+000	 1.087837472009814e+001
 2.990119935929130e+000	 2.676929945496604e+000	 1.086282098055341e+001
 3.287850364807802e+000	 2.347673756064768e+000	 1.093784433498442e+001
 3.261885176099420e+000	 2.383618524835003e+000	 1.094361465276842e+001
 3.235504497642578e+000	 2.419306321174022e+000	 1.094530132906996e+001
 3.208712111703175e+000	 2.454730007443882e+000	 1.094299999262551e+001
 3.181511962699814e+000	 2.489882519702956e+000	 1.093690627096621e+001
 3.153908155422980e+000	 2.524756872283761e+000	 1.092732540452813e+001
 3.125904953099967e+000	 2.559346162319434e+000	 1.091468145411560e+001
 3.097506775307299e+000	 2.593643574212858e+000	 1.089952601316057e+001
 3.068718195732605e+000	 2.627642384042429e+000	 1.088254633885029e+001
 3.039543939788216e+000	 2.661335963898584e+000	 1.086457281954661e+001
 3.009988882078974e+000	 2.694717786145271e+000	 1.084975129884024e+001
 3.309553475487395e+000	 2.363170757972164e+000	 1.092486445721911e+001
 3.283416890485646e+000	 2.399352798275059e+000	 1.093132138844807e+001
 3.256862073086341e+000	 2.435276169870847e+000	 1.093362673026352e+001
 3.229892830522121e+000	 2.470933688006018e+000	 1.093181341721571e+001
 3.202513133248717e+000	 2.506318242109850e+000	 1.092601202793673e+001
 3.174727113152346e+000	 2.541422800402450e+000	 1.091646099375753e+001
 3.146539061601881e+000	 2.576240414451111e+000	 1.090351639492115e+001
 3.117953427347487e+000	 2.610764223668947e+000	 1.088766125169222e+001
 3.088974814267724e+000	 2.644987459749730e+000	 1.086951422038610e+001
 3.059607978967380e+000	 2.678903451033047e+000	 1.085040467431035e+001
 3.029857828228584e+000	 2.712505626793908e+000	 1.083782394805333e+001
 3.331256586166657e+000	 2.378667759879476e+000	 1.091055358042337e+001
 3.304948604871548e+000	 2.415087071715054e+000	 1.091818566238708e+001
 3.278219648529785e+000	 2.451246018567627e+000	 1.092146870788477e+001
 3.251073549340771e+000	 2.487137368568123e+000	 1.092038267911798e+001
 3.223514303797348e+000	 2.522753964516724e+000	 1.091500328953480e+001
 3.195546070881470e+000	 2.558088728521125e+000	 1.090551280913086e+001
 3.167173170103586e+000	 2.593134666582784e+000	 1.089221045020005e+001
 3.138400079387502e+000	 2.627884873125035e+000	 1.087552223658470e+001
 3.109231432802701e+000	 2.662332535457031e+000	 1.085601026230077e+001
 3.079672018146434e+000	 2.696470938167511e+000	 1.083767745975444e+001
 3.049726774378111e+000	 2.730293467442543e+000	 1.082710374250194e+001
 3.352959696845650e+000	 2.394164761786720e+000	 1.089696094258653e+001
 3.326480319257204e+000	 2.430821345154999e+000	 1.090442484717053e+001
 3.299577223973020e+000	 2.467215867264375e+000	 1.090902494149167e+001
 3.272254268159244e+000	 2.503341049130208e+000	 1.090889149961423e+001
 3.244515474345840e+000	 2.539189686923587e+000	 1.090405518118835e+001
 3.216365028610494e+000	 2.574754656639798e+000	 1.089465236855332e+001
 3.187807278605231e+000	 2.610028918714458e+000	 1.088093614373273e+001
 3.158846731427494e+000	 2.645005522581132e+000	 1.086328673601711e+001
 3.129488051337688e+000	 2.679677611164347e+000	 1.084280821877165e+001
 3.099736057325529e+000	 2.714038425301998e+000	 1.082653914996736e+001
 3.069595720527703e+000	 2.748081308091211e+000	 1.081764372500140e+001
 3.374662807524445e+000	 2.409661763693914e+000	 1.088699547926188e+001
 3.348012033642701e+000	 2.446555618594906e+000	 1.089129982048073e+001
 3.320934799416141e+000	 2.483185715961096e+000	 1.089647620006104e+001
 3.293434986977653e+000	 2.519544729692277e+000	 1.089750786599483e+001
 3.265516644894320e+000	 2.555625409330442e+000	 1.089332811856473e+001
 3.237183986339555e+000	 2.591420584758472e+000	 1.088403735559167e+001
 3.208441387106963e+000	 2.626923170846145e+000	 1.086985289540139e+001
 3.179293383467614e+000	 2.662126172037250e+000	 1.085112000383962e+001
 3.149744669872843e+000	 2.697022686871697e+000	 1.083144319832678e+001
 3.119800096504820e+000	 2.731605912436533e+000	 1.081701445885879e+001
 3.089464666677513e+000	 2.765869148739946e+000	 1.080948537618611e+001
 3.396365918203103e+000	 2.425158765601074e+000	 1.088104407993509e+001
 3.369543748028127e+000	 2.462289892034791e+000	 1.088232088551884e+001
 3.342292374859254e+000	 2.499155564657801e+000	 1.088440044366014e+001
 3.314615705796120e+000	 2.535748410254336e+000	 1.088638492114979e+001
 3.286517815442918e+000	 2.572061131737296e+000	 1.088296870020402e+001
 3.258002944068796e+000	 2.608086512877155e+000	 1.087381251815409e+001
 3.229075495608925e+000	 2.643817422977850e+000	 1.085910792867429e+001
 3.199740035508014e+000	 2.679246821493402e+000	 1.083967204989192e+001
 3.170001288408318e+000	 2.714367762579099e+000	 1.082198418367338e+001
 3.139864135684460e+000	 2.749173399571141e+000	 1.080911718190357e+001
 3.109333612827688e+000	 2.783656989388780e+000	 1.080265882576142e+001
 3.418069028881694e+000	 2.440655767508218e+000	 1.087943225784960e+001
 3.391075462413564e+000	 2.478024165474663e+000	 1.087801235978814e+001
 3.363649950302459e+000	 2.515125413354498e+000	 1.087645337731440e+001
 3.335796424614757e+000	 2.551952090816394e+000	 1.087569478700017e+001
 3.307518985991763e+000	 2.588496854144156e+000	 1.087311060250756e+001
 3.278821901798353e+000	 2.624752440995853e+000	 1.086411056976705e+001
 3.249709604111268e+000	 2.660711675109583e+000	 1.084883718078645e+001
 3.220186687548850e+000	 2.696367470949601e+000	 1.083029099798889e+001
 3.190257906944268e+000	 2.731712838286568e+000	 1.081442160162973e+001
 3.159928174864604e+000	 2.766740886705848e+000	 1.080285041542242e+001
 3.129202558978380e+000	 2.801444830037749e+000	 1.079718306560826e+001
 2.930513097476696e+000	 2.623566423550066e+000	 1.089989570109055e+001
 2.901376951840289e+000	 2.655752247797149e+000	 1.088503688135336e+001
 2.871880086178356e+000	 2.687622242784177e+000	 1.086307058054816e+001
 2.842027666154426e+000	 2.719170375440287e+000	 1.084047943535868e+001
 2.811824991326779e+000	 2.750390726063579e+000	 1.081775374851054e+001
 2.781277492018158e+000	 2.781277492018158e+000	 1.079483795978309e+001
 2.750390726063579e+000	 2.811824991326779e+000	 1.077165751439824e+001
 2.719170375440287e+000	 2.842027666154426e+000	 1.074810581704644e+001
 2.687622242784177e+000	 2.871880086178355e+000	 1.072403135067942e+001
 2.655752247797150e+000	 2.901376951840288e+000	 1.069954383733404e+001
 2.623566423550066e+000	 2.930513097476695e+000	 1.067813518353598e+001
 2.950382043628141e+000	 2.641354264199035e+000	 1.088930814350173e+001
 2.921048354254666e+000	 2.673758309074019e+000	 1.087297531396399e+001
 2.891351499165647e+000	 2.705844383359314e+000	 1.085319247795944e+001
 2.861296679047928e+000	 2.737606413079703e+000	 1.083276384404372e+001
 2.830889229390904e+000	 2.769038438397574e+000	 1.081174243726587e+001
 2.800134617335033e+000	 2.800134617335034e+000	 1.079017615481377e+001
 2.769038438397574e+000	 2.830889229390904e+000	 1.076809389592552e+001
 2.737606413079703e+000	 2.861296679047927e+000	 1.074549173185336e+001
 2.705844383359316e+000	 2.891351499165647e+000	 1.072231924510827e+001
 2.673758309074020e+000	 2.921048354254666e+000	 1.069846616651735e+001
 2.641354264199035e+000	 2.950382043628141e+000	 1.067534612901499e+001
 2.970250989778902e+000	 2.659142104847869e+000	 1.087671585708308e+001
 2.940719756668409e+000	 2.691764370350713e+000	 1.086083921184649e+001
 2.910822912152359e+000	 2.724066523934227e+000	 1.084341534134411e+001
 2.880565691940904e+000	 2.756042450718837e+000	 1.082482325852523e+001
 2.849953467454566e+000	 2.787686150731230e+000	 1.080521187067913e+001
 2.818991742651509e+000	 2.818991742651509e+000	 1.078472575193341e+001
 2.787686150731230e+000	 2.849953467454566e+000	 1.076349047618085e+001
 2.756042450718837e+000	 2.880565691940903e+000	 1.074159798841386e+001
 2.724066523934227e+000	 2.910822912152358e+000	 1.071909214987506e+001
 2.691764370350713e+000	 2.940719756668408e+000	 1.069595459172829e+001
 2.659142104847869e+000	 2.970250989778902e+000	 1.067223001388357e+001
 2.990119935929130e+000	 2.676929945496604e+000	 1.086282098055341e+001
 2.960391159081659e+000	 2.709770431627273e+000	 1.084929062040787e+001
 2.930294325138621e+000	 2.742288664508966e+000	 1.083388207936065e+001
 2.899834704833481e+000	 2.774478488357760e+000	 1.081682169087929e+001
 2.869017705517879e+000	 2.806333863064627e+000	 1.079834764127190e+001
 2.837848867967679e+000	 2.837848867967678e+000	 1.077869459489467e+001
 2.806333863064627e+000	 2.869017705517878e+000	 1.075807821465943e+001
 2.774478488357761e+000	 2.899834704833481e+000	 1.073667971913117e+001
 2.742288664508967e+000	 2.930294325138620e+000	 1.071463061799946e+001
 2.709770431627275e+000	 2.960391159081658e+000	 1.069199776699344e+001
 2.676929945496605e+000	 2.990119935929129e+000	 1.066876888138586e+001
 3.009988882078974e+000	 2.694717786145271e+000	 1.084975129884024e+001
 2.980062561494562e+000	 2.727776492903745e+000	 1.083843877940563e+001
 2.949765738124573e+000	 2.760510805083593e+000	 1.082472228381798e+001
 2.919103717725783e+000	 2.792914525996539e+000	 1.080890936408467e+001
 2.888081943580947e+000	 2.824981575397851e+000	 1.079132107420731e+001
 2.856705993283642e+000	 2.856705993283642e+000	 1.077227577501562e+001
 2.824981575397851e+000	 2.888081943580947e+000	 1.075207282577210e+001
 2.792914525996539e+000	 2.919103717725782e+000	 1.073097631036955e+001
 2.760510805083593e+000	 2.949765738124572e+000	 1.070919894648210e+001
 2.727776492903746e+000	 2.980062561494561e+000	 1.068688632530314e+001
 2.694717786145272e+000	 3.009988882078973e+000	 1.066410162752018e+001
 3.029857828228584e+000	 2.712505626793908e+000	 1.083782394805333e+001
 2.999733963907259e+000	 2.745782554180174e+000	 1.082838027868522e+001
 2.969237151110345e+000	 2.778732945658162e+000	 1.081605242588561e+001
 2.938372730617929e+000	 2.811350563635246e+000	 1.080122290424110e+001
 2.907146181643887e+000	 2.843629287730986e+000	 1.078428941533340e+001
 2.875563118599498e+000	 2.875563118599498e+000	 1.076564781504285e+001
 2.843629287730986e+000	 2.907146181643888e+000	 1.074567495870153e+001
 2.811350563635245e+000	 2.938372730617929e+000	 1.072471157865677e+001
 2.778732945658162e+000	 2.969237151110346e+000	 1.070304534938557e+001
 2.745782554180174e+000	 2.999733963907259e+000	 1.068089429456703e+001
 2.712505626793907e+000	 3.029857828228584e+000	 1.065839068847048e+001
 3.049726774378111e+000	 2.730293467442543e+000	 1.082710374250194e+001
 3.019405366319895e+000	 2.763788615456600e+000	 1.081919925973239e+001
 2.988708564096077e+000	 2.796955086232730e+000	 1.080797605350735e+001
 2.957641743510049e+000	 2.829786601273951e+000	 1.079388553348329e+001
 2.926210419706810e+000	 2.862277000064116e+000	 1.077739601940884e+001
 2.894420243915342e+000	 2.894420243915343e+000	 1.075897485267379e+001
 2.862277000064116e+000	 2.926210419706810e+000	 1.073907037638154e+001
 2.829786601273952e+000	 2.957641743510049e+000	 1.071809394545366e+001
 2.796955086232730e+000	 2.988708564096076e+000	 1.069640212890223e+001
 2.763788615456601e+000	 3.019405366319894e+000	 1.067427926566168e+001
 2.730293467442543e+000	 3.049726774378111e+000	 1.065192053325946e+001
 3.069595720527703e+000	 2.748081308091211e+000	 1.081764372500140e+001
 3.039076768732614e+000	 2.781794676733072e+000	 1.081096761886006e+001
 3.008179977081899e+000	 2.815177226807353e+000	 1.080058398996383e+001
 2.976910756402264e+000	 2.848222638912723e+000	 1.078700726355813e+001
 2.945274657769825e+000	 2.880924712397324e+000	 1.077077053850193e+001
 2.913277369231274e+000	 2.913277369231275e+000	 1.075240682375440e+001
 2.880924712397323e+000	 2.945274657769825e+000	 1.073243013363847e+001
 2.848222638912723e+000	 2.976910756402262e+000	 1.071131661055541e+001
 2.815177226807355e+000	 3.008179977081898e+000	 1.068948584450031e+001
 2.781794676733074e+000	 3.039076768732615e+000	 1.066728255797555e+001
 2.748081308091210e+000	 3.069595720527704e+000	 1.064495882272195e+001
 3.089464666677513e+000	 2.765869148739946e+000	 1.080948537618611e+001
 3.058748171145559e+000	 2.799800738009632e+000	 1.080374521195645e+001
 3.027651390067949e+000	 2.833399367382091e+000	 1.079395453353239e+001
 2.996179769294696e+000	 2.866658676551633e+000	 1.078068509003573e+001
 2.964338895833045e+000	 2.899572424730694e+000	 1.076452911055604e+001
 2.932134494547392e+000	 2.932134494547392e+000	 1.074607964516630e+001
 2.899572424730694e+000	 2.964338895833045e+000	 1.072591075453325e+001
 2.866658676551633e+000	 2.996179769294696e+000	 1.070455772418618e+001
 2.833399367382091e+000	 3.027651390067947e+000	 1.068249748023442e+001
 2.799800738009633e+000	 3.058748171145558e+000	 1.066012938256343e+001
 2.765869148739946e+000	 3.089464666677513e+000	 1.063775656929476e+001
 3.109333612827688e+000	 2.783656989388780e+000	 1.080265882576142e+001
 3.078419573558874e+000	 2.817806799286326e+000	 1.079758006072442e+001
 3.047122803054358e+000	 2.851621507956997e+000	 1.078815365819536e+001
 3.015448782187471e+000	 2.885094714190752e+000	 1.077500318712598e+001
 2.983403133896581e+000	 2.918220137064311e+000	 1.075877454811333e+001
 2.950991619863794e+000	 2.950991619863794e+000	 1.074011539741731e+001
 2.918220137064311e+000	 2.983403133896581e+000	 1.071965440893919e+001
 2.885094714190752e+000	 3.015448782187471e+000	 1.069798055784568e+001
 2.851621507956998e+000	 3.047122803054358e+000	 1.067562261030304e+001
 2.817806799286327e+000	 3.078419573558873e+000	 1.065302900301731e+001
 2.783656989388780e+000	 3.109333612827689e+000	 1.063054829396377e+001
 3.129202558978380e+000	 2.801444830037749e+000	 1.079718306560826e+001
 3.098090975972703e+000	 2.835812860563197e+000	 1.079250856034587e+001
 3.066594216041264e+000	 2.869843648532129e+000	 1.078323521534958e+001
 3.034717795080714e+000	 2.903530751830148e+000	 1.077003310307319e+001
 3.002467371960544e+000	 2.936867849398260e+000	 1.075359652719016e+001
 2.969848745180576e+000	 2.969848745180576e+000	 1.073462250694911e+001
 2.936867849398261e+000	 3.002467371960544e+000	 1.071378908838984e+001
 2.903530751830149e+000	 3.034717795080714e+000	 1.069173367396279e+001
 2.869843648532130e+000	 3.066594216041263e+000	 1.066903156293061e+001
 2.835812860563197e+000	 3.098090975972703e+000	 1.064617489415567e+001
 2.801444830037748e+000	 3.129202558978380e+000	 1.062355218049450e+001
 2.623566423550066e+000	 2.930513097476695e+000	 1.067813518353598e+001
 2.591066015360247e+000	 2.959287783067377e+000	 1.065538922658816e+001
 2.558262081212877e+000	 2.987691721587632e+000	 1.062737370856944e+001
 2.525160976388239e+000	 3.015720167141756e+000	 1.059555880662391e+001
 2.491769153792506e+000	 3.043368519087290e+000	 1.056125301474167e+001
 2.458093159808782e+000	 3.070632324500329e+000	 1.052561657347863e+001
 2.424139630075089e+000	 3.097507280498922e+000	 1.048967579586367e+001
 2.389915285194918e+000	 3.123989236422097e+000	 1.045433813255193e+001
 2.355426926386116e+000	 3.150074195862330e+000	 1.042040781512429e+001
 2.320681431073921e+000	 3.175758318549516e+000	 1.038860191367037e+001
 2.285685748434003e+000	 3.201037922084772e+000	 1.035956664343902e+001
 2.641354264199035e+000	 2.950382043628141e+000	 1.067534612901499e+001
 2.608633502494952e+000	 2.979351822248521e+000	 1.065133230636907e+001
 2.575607156920352e+000	 3.007948340124857e+000	 1.062270227311829e+001
 2.542281625844456e+000	 3.036166819184162e+000	 1.059080751151418e+001
 2.508663405924287e+000	 3.064002627591505e+000	 1.055683341149588e+001
 2.474759087927575e+000	 3.091451282232050e+000	 1.052181374749911e+001
 2.440575352482113e+000	 3.118508451050197e+000	 1.048664608567977e+001
 2.406118965757235e+000	 3.145169955243393e+000	 1.045210795666705e+001
 2.371396775083202e+000	 3.171431771308376e+000	 1.041887362462709e+001
 2.336415704514345e+000	 3.197290032937910e+000	 1.038753128054292e+001
 2.301182750341904e+000	 3.222741032766359e+000	 1.035860048621294e+001
 2.659142104847869e+000	 2.970250989778902e+000	 1.067223001388357e+001
 2.626200989629562e+000	 2.999415861428939e+000	 1.064672228652292e+001
 2.592952232627758e+000	 3.028204958661326e+000	 1.061728616017817e+001
 2.559402275300625e+000	 3.056613471225786e+000	 1.058516151380433e+001
 2.525557658056029e+000	 3.084636736094924e+000	 1.055141714943241e+001
 2.491425016046331e+000	 3.112270239962971e+000	 1.051696634131786e+001
 2.457011074889095e+000	 3.139509621600685e+000	 1.048258335194423e+001
 2.422322646319499e+000	 3.166350674063928e+000	 1.044892074179227e+001
 2.387366623780210e+000	 3.192789346753697e+000	 1.041652729526507e+001
 2.352149977954659e+000	 3.218821747325634e+000	 1.038586638216656e+001
 2.316679752249655e+000	 3.244444143447348e+000	 1.035733457267133e+001
 2.676929945496605e+000	 2.990119935929129e+000	 1.066876888138587e+001
 2.643768476764097e+000	 3.019479900608787e+000	 1.064180797134260e+001
 2.610297308335112e+000	 3.048461577197192e+000	 1.061138898389085e+001
 2.576522924756755e+000	 3.077060123266782e+000	 1.057889647395663e+001
 2.542451910187744e+000	 3.105270844597697e+000	 1.054528883137427e+001
 2.508090944165058e+000	 3.133089197693233e+000	 1.051136444958044e+001
 2.473446797296041e+000	 3.160510792150513e+000	 1.047777937932724e+001
 2.438526326881712e+000	 3.187531392883815e+000	 1.044506580638771e+001
 2.403336472477147e+000	 3.214146922198395e+000	 1.041365116697660e+001
 2.367884251394875e+000	 3.240353461712775e+000	 1.038387771148761e+001
 2.332176754157270e+000	 3.266147254127807e+000	 1.035602232563000e+001
 2.694717786145272e+000	 3.009988882078973e+000	 1.066410162752018e+001
 2.661335963898585e+000	 3.039543939788214e+000	 1.063683238353582e+001
 2.627642384042430e+000	 3.068718195732605e+000	 1.060526913204175e+001
 2.593643574212859e+000	 3.097506775307298e+000	 1.057228355787999e+001
 2.559346162319434e+000	 3.125904953099965e+000	 1.053872947327339e+001
 2.524756872283763e+000	 3.153908155422979e+000	 1.050529566252990e+001
 2.489882519702958e+000	 3.181511962699814e+000	 1.047252470388242e+001
 2.454730007443883e+000	 3.208712111703174e+000	 1.044083264758096e+001
 2.419306321174023e+000	 3.235504497642577e+000	 1.041052935500395e+001
 2.383618524835004e+000	 3.261885176099417e+000	 1.038183930029942e+001
 2.347673756064768e+000	 3.287850364807801e+000	 1.035492263448348e+001
 2.712505626793907e+000	 3.029857828228584e+000	 1.065839068847048e+001
 2.678903451033047e+000	 3.059607978967379e+000	 1.063170950975083e+001
 2.644987459749731e+000	 3.088974814267722e+000	 1.059917813621402e+001
 2.610764223668948e+000	 3.117953427347486e+000	 1.056558784027016e+001
 2.576240414451112e+000	 3.146539061601880e+000	 1.053201493891775e+001
 2.541422800402450e+000	 3.174727113152345e+000	 1.049904353004521e+001
 2.506318242109851e+000	 3.202513133248715e+000	 1.046710710416584e+001
 2.470933688006018e+000	 3.229892830522120e+000	 1.043650945690013e+001
 2.435276169870849e+000	 3.256862073086340e+000	 1.040744628755968e+001
 2.399352798275060e+000	 3.283416890485646e+000	 1.038002727594891e+001
 2.363170757972164e+000	 3.309553475487395e+000	 1.035429842784749e+001
 2.730293467442543e+000	 3.049726774378111e+000	 1.065192053325946e+001
 2.696470938167511e+000	 3.079672018146433e+000	 1.062575568086303e+001
 2.662332535457031e+000	 3.109231432802699e+000	 1.059335903759934e+001
 2.627884873125036e+000	 3.138400079387501e+000	 1.055906670325737e+001
 2.593134666582784e+000	 3.167173170103585e+000	 1.052541436973147e+001
 2.558088728521127e+000	 3.195546070881469e+000	 1.049288602069924e+001
 2.522753964516725e+000	 3.223514303797348e+000	 1.046181008744649e+001
 2.487137368568124e+000	 3.251073549340771e+000	 1.043238163132186e+001
 2.451246018567628e+000	 3.278219648529785e+000	 1.040468523918830e+001
 2.415087071715055e+000	 3.304948604871547e+000	 1.037871841428038e+001
 2.378667759879475e+000	 3.331256586166656e+000	 1.035441524314704e+001
 2.748081308091210e+000	 3.069595720527704e+000	 1.064495882272195e+001
 2.714038425301998e+000	 3.099736057325528e+000	 1.061920109495119e+001
 2.679677611164348e+000	 3.129488051337687e+000	 1.058771939827661e+001
 2.645005522581134e+000	 3.158846731427494e+000	 1.055296823057382e+001
 2.610028918714458e+000	 3.187807278605230e+000	 1.051918860989012e+001
 2.574754656639799e+000	 3.216365028610493e+000	 1.048709397606130e+001
 2.539189686923588e+000	 3.244515474345839e+000	 1.045691137123050e+001
 2.503341049130208e+000	 3.272254268159243e+000	 1.042873027984679e+001
 2.467215867264376e+000	 3.299577223973019e+000	 1.040252686001858e+001
 2.430821345155000e+000	 3.326480319257202e+000	 1.037818868898701e+001
 2.394164761786720e+000	 3.352959696845651e+000	 1.035446242836282e+001
 2.765869148739946e+000	 3.089464666677513e+000	 1.063775656929476e+001
 2.731605912436534e+000	 3.119800096504819e+000	 1.061232226236470e+001
 2.697022686871698e+000	 3.149744669872842e+000	 1.058171923371366e+001
 2.662126172037251e+000	 3.179293383467612e+000	 1.054752959744301e+001
 2.626923170846145e+000	 3.208441387106961e+000	 1.051358862696264e+001
 2.591420584758473e+000	 3.237183986339554e+000	 1.048192956045893e+001
 2.555625409330443e+000	 3.265516644894317e+000	 1.045268136031023e+001
 2.519544729692278e+000	 3.293434986977654e+000	 1.042583072580364e+001
 2.483185715961097e+000	 3.320934799416141e+000	 1.040124770109081e+001
 2.446555618594908e+000	 3.348012033642701e+000	 1.037799526722768e+001
 2.409661763693915e+000	 3.374662807524445e+000	 1.035287696423986e+001
 2.783656989388780e+000	 3.109333612827689e+000	 1.063054829396377e+001
 2.749173399571144e+000	 3.139864135684459e+000	 1.060537870419957e+001
 2.714367762579100e+000	 3.170001288408317e+000	 1.057560310530985e+001
 2.679246821493403e+000	 3.199740035508014e+000	 1.054270744471223e+001
 2.643817422977850e+000	 3.229075495608923e+000	 1.050885392827928e+001
 2.608086512877156e+000	 3.258002944068794e+000	 1.047764470640163e+001
 2.572061131737296e+000	 3.286517815442917e+000	 1.044938161953841e+001
 2.535748410254337e+000	 3.314615705796117e+000	 1.042395100507308e+001
 2.499155564657801e+000	 3.342292374859252e+000	 1.040081143984687e+001
 2.462289892034792e+000	 3.369543748028125e+000	 1.037599696754939e+001
 2.425158765601073e+000	 3.396365918203102e+000	 1.034944492740981e+001
 2.801444830037748e+000	 3.129202558978380e+000	 1.062355218049450e+001
 2.766740886705849e+000	 3.159928174864604e+000	 1.059861310128887e+001
 2.731712838286569e+000	 3.190257906944266e+000	 1.056963601465955e+001
 2.696367470949602e+000	 3.220186687548848e+000	 1.053805466895287e+001
 2.660711675109584e+000	 3.249709604111267e+000	 1.050521097321605e+001
 2.624752440995853e+000	 3.278821901798352e+000	 1.047447955585959e+001
 2.588496854144156e+000	 3.307518985991762e+000	 1.044726334251723e+001
 2.551952090816395e+000	 3.335796424614756e+000	 1.042332386940019e+001
 2.515125413354500e+000	 3.363649950302459e+000	 1.039876524221510e+001
 2.478024165474664e+000	 3.391075462413564e+000	 1.037187783663789e+001
 2.440655767508217e+000	 3.418069028881693e+000	 1.034398298461471e+001
 2.285685748434003e+000	 3.201037922084772e+000	 1.035956664343902e+001
 2.250446894129934e+000	 3.225909482613577e+000	 1.033420523964080e+001
 2.214971943538432e+000	 3.250369633505693e+000	 1.031087421348378e+001
 2.179268029550415e+000	 3.274415169322649e+000	 1.028637155225970e+001
 2.143342338751272e+000	 3.298043047850050e+000	 1.025753278418824e+001
 2.107202106807173e+000	 3.321250391072290e+000	 1.022125205371959e+001
 2.070854613836993e+000	 3.344034485992656e+000	 1.017461115367255e+001
 2.034307179775805e+000	 3.366392785299044e+000	 1.011583970450888e+001
 1.997567159735843e+000	 3.388322907875672e+000	 1.004340640406335e+001
 1.960641939370821e+000	 3.409822639161488e+000	 9.972927143255514e+000
 1.923538930249378e+000	 3.430889931356199e+000	 9.915408808876848e+000
 2.301182750341904e+000	 3.222741032766359e+000	 1.035860048621294e+001
 2.265704975795809e+000	 3.247781223047380e+000	 1.033302261253911e+001
 2.229989504223994e+000	 3.272407214324913e+000	 1.030939276530321e+001
 2.194043516878546e+000	 3.296615779427529e+000	 1.028468359573624e+001
 2.157874249070071e+000	 3.320403855514563e+000	 1.025590351957049e+001
 2.121488985522726e+000	 3.343768545057394e+000	 1.022015497408276e+001
 2.084895055714761e+000	 3.366707116665132e+000	 1.017530755917079e+001
 2.048099829210577e+000	 3.389217005754838e+000	 1.011984192939547e+001
 2.011110710990248e+000	 3.411295815066716e+000	 1.005225607333189e+001
 1.973935136782387e+000	 3.432941315024938e+000	 9.978494335047088e+000
 1.936580568406245e+000	 3.454151443945082e+000	 9.918039782129551e+000
 2.316679752249655e+000	 3.244444143447348e+000	 1.035733457267133e+001
 2.280963057461482e+000	 3.269652963480678e+000	 1.033186630365201e+001
 2.245007064909297e+000	 3.294444795143722e+000	 1.030822880438208e+001
 2.208819004206358e+000	 3.318816389532112e+000	 1.028354113023103e+001
 2.172406159388486e+000	 3.342764663178890e+000	 1.025493223231555e+001
 2.135775864237826e+000	 3.366286699042417e+000	 1.021983703471546e+001
 2.098935497592009e+000	 3.389379747337627e+000	 1.017676249728675e+001
 2.061892478644771e+000	 3.412041226210740e+000	 1.012435893552896e+001
 2.024654262244014e+000	 3.434268722257934e+000	 1.006127546658236e+001
 1.987228334193262e+000	 3.456059990888607e+000	 9.987891384369203e+000
 1.949622206562376e+000	 3.477412956534196e+000	 9.924113551928668e+000
 2.332176754157270e+000	 3.266147254127807e+000	 1.035602232563000e+001
 2.296221139126976e+000	 3.291524703913511e+000	 1.033097246648879e+001
 2.260024625594372e+000	 3.316482375962150e+000	 1.030760646150670e+001
 2.223594491533885e+000	 3.341016999636398e+000	 1.028310931169037e+001
 2.186938069706560e+000	 3.365125470843009e+000	 1.025443305979547e+001
 2.150062742952530e+000	 3.388804853027323e+000	 1.022000666724185e+001
 2.112975939468805e+000	 3.412052378010083e+000	 1.017861848581333e+001
 2.075685128078455e+000	 3.434865446666672e+000	 1.012905174569956e+001
 2.038197813497222e+000	 3.457241629449238e+000	 1.007008388497755e+001
 2.000521531603537e+000	 3.479178666752395e+000	 1.000048628363690e+001
 1.962663844717872e+000	 3.500674469123442e+000	 9.933070494115214e+000
 2.347673756064768e+000	 3.287850364807801e+000	 1.035492263448348e+001
 2.311479220792314e+000	 3.313396444345925e+000	 1.033058466815746e+001
 2.275042186279247e+000	 3.338519956780215e+000	 1.030771888655434e+001
 2.238369978861166e+000	 3.363217609740386e+000	 1.028281363209877e+001
 2.201469980024337e+000	 3.387486278506895e+000	 1.025404396352061e+001
 2.164349621666887e+000	 3.411323007012063e+000	 1.022031950151557e+001
 2.127016381345207e+000	 3.434725008682439e+000	 1.018054224388081e+001
 2.089477777511702e+000	 3.457689667122557e+000	 1.013360527930926e+001
 2.051741364749953e+000	 3.480214536640535e+000	 1.007839193622990e+001
 2.013814729013303e+000	 3.502297342616207e+000	 1.001377536666515e+001
 1.975705482872835e+000	 3.523935981712723e+000	 9.944358453648258e+000
 2.363170757972164e+000	 3.309553475487395e+000	 1.035429842784749e+001
 2.326737302457518e+000	 3.335268184777969e+000	 1.033094452086528e+001
 2.290059746963951e+000	 3.360557537597944e+000	 1.030769211109045e+001
 2.253145466188234e+000	 3.385418219844079e+000	 1.028218666881675e+001
 2.216001890341861e+000	 3.409847086170532e+000	 1.025343996664348e+001
 2.178636500380950e+000	 3.433841160996597e+000	 1.022045504554307e+001
 2.141056823221275e+000	 3.457397639354630e+000	 1.018222429177608e+001
 2.103270426944582e+000	 3.480513887578315e+000	 1.013772797382690e+001
 2.065284916002288e+000	 3.503187443831740e+000	 1.008593324456721e+001
 2.027107926422649e+000	 3.525416018479944e+000	 1.002579360851791e+001
 1.988747121027364e+000	 3.547197494301935e+000	 9.957435445228679e+000
 2.378667759879475e+000	 3.331256586166656e+000	 1.035441524314704e+001
 2.341995384122610e+000	 3.357139925209682e+000	 1.033105894080638e+001
 2.305077307648510e+000	 3.382595118415356e+000	 1.030686934605635e+001
 2.267920953515127e+000	 3.407618829947475e+000	 1.028092814070388e+001
 2.230533800659177e+000	 3.432207893833895e+000	 1.025231943224795e+001
 2.192923379094773e+000	 3.456359314980883e+000	 1.022011626984936e+001
 2.155097265097074e+000	 3.480070270026596e+000	 1.018337854853695e+001
 2.117063076377165e+000	 3.503338108033874e+000	 1.014115140326177e+001
 2.078828467254306e+000	 3.526160351022761e+000	 1.009246409809655e+001
 2.040401123831666e+000	 3.548534694343512e+000	 1.003632941027713e+001
 2.001788759181560e+000	 3.570459006890981e+000	 9.971743503328160e+000
 2.394164761786720e+000	 3.352959696845651e+000	 1.035446242836282e+001
 2.357253465787613e+000	 3.379011665641112e+000	 1.032992778152937e+001
 2.320094868332958e+000	 3.404632699232478e+000	 1.030497940871173e+001
 2.282696440841880e+000	 3.429819440050575e+000	 1.027876038762145e+001
 2.245065710976328e+000	 3.454568701496963e+000	 1.025040364029475e+001
 2.207210257808407e+000	 3.478877468964876e+000	 1.021902919017296e+001
 2.169137706972663e+000	 3.502742900698279e+000	 1.018374192742262e+001
 2.130855725809523e+000	 3.526162328489152e+000	 1.014362989379108e+001
 2.092372018506089e+000	 3.549133258213509e+000	 1.009776309231660e+001
 2.053694321240444e+000	 3.571653370206809e+000	 1.004519282133833e+001
 2.014830397335522e+000	 3.593720519479759e+000	 9.984951526534784e+000
 2.409661763693915e+000	 3.374662807524445e+000	 1.035287696423986e+001
 2.372511547452549e+000	 3.400883406072305e+000	 1.032731253526367e+001
 2.335112429017319e+000	 3.426670280049330e+000	 1.030177286909635e+001
 2.297471928168531e+000	 3.452020050153380e+000	 1.027542794684377e+001
 2.259597621293357e+000	 3.476929509159713e+000	 1.024743636316130e+001
 2.221497136521905e+000	 3.501395622948536e+000	 1.021694244856591e+001
 2.183178148848106e+000	 3.525415531369613e+000	 1.018307392935592e+001
 2.144648375241727e+000	 3.548986548944075e+000	 1.014494013666944e+001
 2.105915569757717e+000	 3.572106165403896e+000	 1.010163076995160e+001
 2.066987518649075e+000	 3.594772046069743e+000	 1.005221521394908e+001
 2.027872035489355e+000	 3.616982032068172e+000	 9.995742402364011e+000
 2.425158765601073e+000	 3.396365918203102e+000	 1.034944492740981e+001
 2.387769629117440e+000	 3.422755146503306e+000	 1.032299545820483e+001
 2.350129989701624e+000	 3.448707860865933e+000	 1.029702163176192e+001
 2.312247415495113e+000	 3.474220660255889e+000	 1.027069712808994e+001
 2.274129531610310e+000	 3.499290316822125e+000	 1.024318343983917e+001
 2.235784015235319e+000	 3.523913776931821e+000	 1.021362689296930e+001
 2.197218590723462e+000	 3.548088162040541e+000	 1.018115623442791e+001
 2.158441024673848e+000	 3.571810769398564e+000	 1.014488079854176e+001
 2.119459121009272e+000	 3.595079072593830e+000	 1.010388925727162e+001
 2.080280716057648e+000	 3.617890721932212e+000	 1.005724895304492e+001
 2.040913673643154e+000	 3.640243544656117e+000	 1.000400580662008e+001
 2.440655767508217e+000	 3.418069028881693e+000	 1.034398298461471e+001
 2.403027710782309e+000	 3.444626886934158e+000	 1.031677916249576e+001
 2.365147550385903e+000	 3.470745441682316e+000	 1.029051851595545e+001
 2.327022902821665e+000	 3.496421270358104e+000	 1.026435558723778e+001
 2.288661441927231e+000	 3.521651124484178e+000	 1.023743234884892e+001
 2.250070893948702e+000	 3.546431930914686e+000	 1.020887515533290e+001
 2.211259032598793e+000	 3.570760792710999e+000	 1.017779229155106e+001
 2.172233674105956e+000	 3.594634989852544e+000	 1.014327212927528e+001
 2.133002672260833e+000	 3.618051979783224e+000	 1.010438189705510e+001
 2.093573913466256e+000	 3.641009397794123e+000	 1.006016706159219e+001
 2.053955311797024e+000	 3.663505057243499e+000	 1.000965131231364e+001
 1.923538930249378e+000	 3.430889931356199e+000	 9.915408808876848e+000
 1.886271168719184e+000	 3.451519841804724e+000	 9.868739683338061e+000
 1.848840550700881e+000	 3.471713851746570e+000	 9.831192167066122e+000
 1.811254536557091e+000	 3.491470416868222e+000	 9.800721405077841e+000
 1.773520594178441e+000	 3.510788158857956e+000	 9.775335925999343e+000
 1.735646194488916e+000	 3.529665864868949e+000	 9.753098095654927e+000
 1.697638806993269e+000	 3.548102486840681e+000	 9.732124500643895e+000
 1.659505895371511e+000	 3.566097140681106e+000	 9.710586344948522e+000
 1.621254913125376e+000	 3.583649105312325e+000	 9.686709935439030e+000
 1.582893299281490e+000	 3.600757821582674e+000	 9.658777324279235e+000
 1.544428474155829e+000	 3.617422891048259e+000	 9.625127167804463e+000
 1.936580568406245e+000	 3.454151443945082e+000	 9.918039782129553e+000
 1.899060130596229e+000	 3.474921225660749e+000	 9.870080270426413e+000
 1.861375732127374e+000	 3.495252151454282e+000	 9.832541288077815e+000
 1.823534883943736e+000	 3.515142666541675e+000	 9.803064704731725e+000
 1.785545104568416e+000	 3.534591383266208e+000	 9.779353999599572e+000
 1.747413915578441e+000	 3.553597080557928e+000	 9.759174674638219e+000
 1.709148837121983e+000	 3.572158703250429e+000	 9.740354603408186e+000
 1.670757383482979e+000	 3.590275361257490e+000	 9.720784403776907e+000
 1.632247058698080e+000	 3.607946328612285e+000	 9.698417915020894e+000
 1.593625352230691e+000	 3.625171042372081e+000	 9.671272851548592e+000
 1.554899734706702e+000	 3.641949101391516e+000	 9.637431696531865e+000
 1.949622206562376e+000	 3.477412956534196e+000	 9.924113551928670e+000
 1.911849092472505e+000	 3.498322609516991e+000	 9.874296265330091e+000
 1.873910913553071e+000	 3.518790451162159e+000	 9.836104726825981e+000
 1.835815231329566e+000	 3.538814916215224e+000	 9.806906246254169e+000
 1.797569614957564e+000	 3.558394607674472e+000	 9.784137649831655e+000
 1.759181636667133e+000	 3.577528296246815e+000	 9.765305555913232e+000
 1.720658867249860e+000	 3.596214919659975e+000	 9.747986595279892e+000
 1.682008871593609e+000	 3.614453581833564e+000	 9.729827669621654e+000
 1.643239204269948e+000	 3.632243551911828e+000	 9.708546333801056e+000
 1.604357405179057e+000	 3.649584263160969e+000	 9.681931378648104e+000
 1.565370995256741e+000	 3.666475311734168e+000	 9.647843681575266e+000
 1.962663844717872e+000	 3.500674469123442e+000	 9.933070494115212e+000
 1.924638054348121e+000	 3.521723993373346e+000	 9.880901180271518e+000
 1.886446094978092e+000	 3.542328750870120e+000	 9.841467198285429e+000
 1.848095578714712e+000	 3.562487165888798e+000	 9.811899456584506e+000
 1.809594125346024e+000	 3.582197832082685e+000	 9.789405970359782e+000
 1.770949357755137e+000	 3.601459511935572e+000	 9.771271901810884e+000
 1.732168897377053e+000	 3.620271136069302e+000	 9.754859556993745e+000
 1.693260359703562e+000	 3.638631802409332e+000	 9.737608438811593e+000
 1.654231349841144e+000	 3.656540775210979e+000	 9.717035447115077e+000
 1.615089458126755e+000	 3.673997483949387e+000	 9.690735307514725e+000
 1.575842255806114e+000	 3.691001522076282e+000	 9.656381300481339e+000
 1.975705482872835e+000	 3.523935981712723e+000	 9.944358453648260e+000
 1.937427016223188e+000	 3.545125377229727e+000	 9.889412638640883e+000
 1.898981276402559e+000	 3.565867050578070e+000	 9.848214165408738e+000
 1.860375926099302e+000	 3.586159415562315e+000	 9.817695173000203e+000
 1.821618635733935e+000	 3.606001056490789e+000	 9.794872183596874e+000
 1.782717078842599e+000	 3.625390727624156e+000	 9.776845808017152e+000
 1.743678927503717e+000	 3.644327352478394e+000	 9.760800423171682e+000
 1.704511847812995e+000	 3.662810022984794e+000	 9.744003927272058e+000
 1.665223495411831e+000	 3.680837998509761e+000	 9.723807669499632e+000
 1.625821511073950e+000	 3.698410704737382e+000	 9.697646640914005e+000
 1.586313516354986e+000	 3.715527732417928e+000	 9.663040002760717e+000
 1.988747121027364e+000	 3.547197494301935e+000	 9.957435445228679e+000
 1.950215978097817e+000	 3.568526761086031e+000	 9.899355041719202e+000
 1.911516457826590e+000	 3.589405350285925e+000	 9.855934470374814e+000
 1.872656273483467e+000	 3.609831665235706e+000	 9.823944236844977e+000
 1.833643146121434e+000	 3.629804280898727e+000	 9.800246194398964e+000
 1.794484799929669e+000	 3.649321943312531e+000	 9.781792814257575e+000
 1.755188957630003e+000	 3.668383568887227e+000	 9.765626446559329e+000
 1.715763335922068e+000	 3.686988243559954e+000	 9.748878684420612e+000
 1.676215640982171e+000	 3.705135221808201e+000	 9.728769933900839e+000
 1.636553564020808e+000	 3.722823925525001e+000	 9.702609282165392e+000
 1.596784776903525e+000	 3.740053942759174e+000	 9.667794744890408e+000
 2.001788759181560e+000	 3.570459006890981e+000	 9.971743503328160e+000
 1.963004939972117e+000	 3.591928144942162e+000	 9.910262226462450e+000
 1.924051639250306e+000	 3.612943649993593e+000	 9.864222955081193e+000
 1.884936620867336e+000	 3.633503914908891e+000	 9.830300074742496e+000
 1.845667656508661e+000	 3.653607505306437e+000	 9.805237129571481e+000
 1.806252521016490e+000	 3.673253159000652e+000	 9.785874399227602e+000
 1.766698987756067e+000	 3.692439785295785e+000	 9.769147645078437e+000
 1.727014824030940e+000	 3.711166464134817e+000	 9.752086988605807e+000
 1.687207786552328e+000	 3.729432445106324e+000	 9.731816031335834e+000
 1.647285616967495e+000	 3.747237146312289e+000	 9.705551314438523e+000
 1.607256037451896e+000	 3.764580153100085e+000	 9.670602204234474e+000
 2.014830397335522e+000	 3.593720519479759e+000	 9.984951526534784e+000
 1.975793901846201e+000	 3.615329528798024e+000	 9.921680114751633e+000
 1.936586820673828e+000	 3.636481949700988e+000	 9.872683071368254e+000
 1.897216968251039e+000	 3.657176164581797e+000	 9.836421267863667e+000
 1.857692166895752e+000	 3.677410729713860e+000	 9.809555863830454e+000
 1.818020242103208e+000	 3.697184374688481e+000	 9.788850460484532e+000
 1.778209017882059e+000	 3.716496001704046e+000	 9.771169232473270e+000
 1.738266312139770e+000	 3.735344684709384e+000	 9.753475224925108e+000
 1.698199932122465e+000	 3.753729668404156e+000	 9.732828931893520e+000
 1.658017669914177e+000	 3.771650367099298e+000	 9.706387260545633e+000
 1.617727298000268e+000	 3.789106363440732e+000	 9.671402972838886e+000
 2.027872035489355e+000	 3.616982032068172e+000	 9.995742402364012e+000
 1.988582863720177e+000	 3.638730912653521e+000	 9.933169354492737e+000
 1.949122002097276e+000	 3.660020249408020e+000	 9.880929481437015e+000
 1.909497315634706e+000	 3.680848414254348e+000	 9.841974109784449e+000
 1.869716677282848e+000	 3.701213954120938e+000	 9.812917532828068e+000
 1.829787963189971e+000	 3.721115590375978e+000	 9.790481779976341e+000
 1.789719048008134e+000	 3.740552218111992e+000	 9.771494033290390e+000
 1.749517800248716e+000	 3.759522905283657e+000	 9.752884246215707e+000
 1.709192077692746e+000	 3.778026891701722e+000	 9.731683087914568e+000
 1.668749722861019e+000	 3.796063587886070e+000	 9.705020324108526e+000
 1.628198558548805e+000	 3.813632573781182e+000	 9.670123732005965e+000
 2.040913673643154e+000	 3.640243544656117e+000	 1.000400580662008e+001
 2.001371825594157e+000	 3.662132296508555e+000	 9.944293371746166e+000
 1.961657183520769e+000	 3.683558549114603e+000	 9.888590648899481e+000
 1.921777663018466e+000	 3.704520663926468e+000	 9.846635153445090e+000
 1.881741187670086e+000	 3.725017178527611e+000	 9.815044033821566e+000
 1.841555684276925e+000	 3.745046806063103e+000	 9.790532475851043e+000
 1.801229078134445e+000	 3.764608434519604e+000	 9.769924882891448e+000
 1.760769288357937e+000	 3.783701125857640e+000	 9.750151717970830e+000
 1.720184223263332e+000	 3.802324114999045e+000	 9.728246720147670e+000
 1.679481775808188e+000	 3.820476808672655e+000	 9.701344612933227e+000
 1.638669819097675e+000	 3.838158784121502e+000	 9.666679408508514e+000
 2.053955311797024e+000	 3.663505057243499e+000	 1.000965131231364e+001
 2.014160787468252e+000	 3.685533680363033e+000	 9.953211461330964e+000
 1.974192364944430e+000	 3.707096848820648e+000	 9.895311420877665e+000
 1.934058010402448e+000	 3.728192913598082e+000	 9.850093747695238e+000
 1.893765698057604e+000	 3.748820402933820e+000	 9.815666514534513e+000
 1.853323405364218e+000	 3.768978021749816e+000	 9.788772441155691e+000
 1.812739108261146e+000	 3.788664650926863e+000	 9.766267013165502e+000
 1.772020776467593e+000	 3.807879346431335e+000	 9.745114447895398e+000
 1.731176368834389e+000	 3.826621338296154e+000	 9.722384087638922e+000
 1.690213828755850e+000	 3.844890029459103e+000	 9.695247345382697e+000
 1.649141079647045e+000	 3.862684994461762e+000	 9.660975313259735e+000
 1.544428474155829e+000	 3.617422891048259e+000	 9.625127167804461e+000
 1.505862044005179e+000	 3.633646475212943e+000	 9.585300385192509e+000
 1.467207146887431e+000	 3.649425961916561e+000	 9.539495624334968e+000
 1.428471127328699e+000	 3.664761429167447e+000	 9.487175856178954e+000
 1.389661294793495e+000	 3.679653109660585e+000	 9.427952406101477e+000
 1.350784919814788e+000	 3.694101388953216e+000	 9.361585121221534e+000
 1.311849230209202e+000	 3.708106803531544e+000	 9.291551689580286e+000
 1.272861407380664e+000	 3.721670038772552e+000	 9.234354836368093e+000
 1.233828582715533e+000	 3.734791926805089e+000	 9.189654991046028e+000
 1.194757834072113e+000	 3.747473444274481e+000	 9.154560508998088e+000
 1.155656182367169e+000	 3.759715710014934e+000	 9.126190105215457e+000
 1.554899734706702e+000	 3.641949101391516e+000	 9.637431696531866e+000
 1.516071823273362e+000	 3.658282681829496e+000	 9.596955380810861e+000
 1.477154845064890e+000	 3.674169153815358e+000	 9.550894336725049e+000
 1.438156194403448e+000	 3.689608595886352e+000	 9.498955362900574e+000
 1.399083230311879e+000	 3.704601242315141e+000	 9.440988600029140e+000
 1.359943272617523e+000	 3.719147481273075e+000	 9.376987276477991e+000
 1.320743598141762e+000	 3.733247852883756e+000	 9.308215929513715e+000
 1.281491436978598e+000	 3.746903047171049e+000	 9.249860006270865e+000
 1.242193968865348e+000	 3.760113901905669e+000	 9.204481181074264e+000
 1.202858319648347e+000	 3.772881400354629e+000	 9.169269305477311e+000
 1.163491557846334e+000	 3.785206668937873e+000	 9.141450103455782e+000
 1.565370995256741e+000	 3.666475311734168e+000	 9.647843681575267e+000
 1.526281602540710e+000	 3.682918888445373e+000	 9.606821939222552e+000
 1.487102543241513e+000	 3.698912345713430e+000	 9.560682351782008e+000
 1.447841261477360e+000	 3.714455762604492e+000	 9.509342600502009e+000
 1.408505165829424e+000	 3.729549374968920e+000	 9.452857139453137e+000
 1.369101625419423e+000	 3.744193573592155e+000	 9.391416581083215e+000
 1.329637966073493e+000	 3.758388902235207e+000	 9.325435797432242e+000
 1.290121466575714e+000	 3.772136055568818e+000	 9.266724316749830e+000
 1.250559355014359e+000	 3.785435877005571e+000	 9.221440880618205e+000
 1.210958805223802e+000	 3.798289356434168e+000	 9.186830710759985e+000
 1.171326933324751e+000	 3.810697627860287e+000	 9.160202198815387e+000
 1.575842255806114e+000	 3.691001522076282e+000	 9.656381300481337e+000
 1.536491381807389e+000	 3.707555095060664e+000	 9.614939012924914e+000
 1.497050241417462e+000	 3.723655537610877e+000	 9.568896628347506e+000
 1.457526328550590e+000	 3.739302929321990e+000	 9.518350511700572e+000
 1.417927101346284e+000	 3.754497507622050e+000	 9.463525673341941e+000
 1.378259978220630e+000	 3.769239665910597e+000	 9.404774854615170e+000
 1.338532334004528e+000	 3.783529951586039e+000	 9.342578102647677e+000
 1.298751496172134e+000	 3.797369063966006e+000	 9.284315924875189e+000
 1.258924741162680e+000	 3.810757852104944e+000	 9.239712663679805e+000
 1.219059290798575e+000	 3.823697312513240e+000	 9.206209863670587e+000
 1.179162308802503e+000	 3.836188586782309e+000	 9.181175991332713e+000
 1.586313516354986e+000	 3.715527732417928e+000	 9.663040002760717e+000
 1.546701161073566e+000	 3.732191301675452e+000	 9.621320966645346e+000
 1.506997939592899e+000	 3.748398729507805e+000	 9.575548363326130e+000
 1.467211395623299e+000	 3.764150096038960e+000	 9.525965779195875e+000
 1.427349036862607e+000	 3.779445640274658e+000	 9.472935758261308e+000
 1.387418331021288e+000	 3.794285758228535e+000	 9.416938646255348e+000
 1.347426701935000e+000	 3.808671000936399e+000	 9.358572006137194e+000
 1.307381525767980e+000	 3.822602072362762e+000	 9.302011891890219e+000
 1.267290127310419e+000	 3.836079827203932e+000	 9.258488581482602e+000
 1.227159776372764e+000	 3.849105268591986e+000	 9.226389976695243e+000
 1.186997684279672e+000	 3.861679545704069e+000	 9.203123781877720e+000
 1.596784776903525e+000	 3.740053942759174e+000	 9.667794744890408e+000
 1.556910940339404e+000	 3.756827508289827e+000	 9.625959734940095e+000
 1.516945637767987e+000	 3.773141921404314e+000	 9.580625052542159e+000
 1.476896462695643e+000	 3.788997262755523e+000	 9.532150771153775e+000
 1.436770972378545e+000	 3.804393772926877e+000	 9.481004670567673e+000
 1.396576683821540e+000	 3.819331850546111e+000	 9.427760896494180e+000
 1.356321069865043e+000	 3.833812050286428e+000	 9.373099278289168e+000
 1.316011555363374e+000	 3.847835080759229e+000	 9.319198601424406e+000
 1.275655513457686e+000	 3.861401802302680e+000	 9.276974520627464e+000
 1.235260261946464e+000	 3.874513224670544e+000	 9.246372608922547e+000
 1.194833059756341e+000	 3.887170504625702e+000	 9.224820735642640e+000
 1.607256037451896e+000	 3.764580153100085e+000	 9.670602204234474e+000
 1.567120719605069e+000	 3.781463714903874e+000	 9.628826958586533e+000
 1.526893335942890e+000	 3.797885113300513e+000	 9.584092531058776e+000
 1.486581529767779e+000	 3.813844429471796e+000	 9.536845467592315e+000
 1.446192907894251e+000	 3.829341905578835e+000	 9.487627201692945e+000
 1.405735036621529e+000	 3.844377942863459e+000	 9.437072584844000e+000
 1.365215437794791e+000	 3.858953099636275e+000	 9.385909166542499e+000
 1.324641584958440e+000	 3.873068089155554e+000	 9.335272171628771e+000
 1.284020899604591e+000	 3.886723777401332e+000	 9.294390560122704e+000
 1.243360747519773e+000	 3.899921180749059e+000	 9.265177943440548e+000
 1.202668435232591e+000	 3.912661463547339e+000	 9.245065056275127e+000
 1.617727298000268e+000	 3.789106363440732e+000	 9.671402972838884e+000
 1.577330498870728e+000	 3.806099921517680e+000	 9.629876100729701e+000
 1.536841034117769e+000	 3.822628305196501e+000	 9.585896993889492e+000
 1.496266596839867e+000	 3.838691596187895e+000	 9.539969368535543e+000
 1.455614843409874e+000	 3.854290038230659e+000	 9.492677437287471e+000
 1.414893389421397e+000	 3.869424035180720e+000	 9.444684364193314e+000
 1.374109805724377e+000	 3.884094148986077e+000	 9.396731565706888e+000
 1.333271614553299e+000	 3.898301097551884e+000	 9.349638861507586e+000
 1.292386285751246e+000	 3.912045752500036e+000	 9.309971327338875e+000
 1.251461233092786e+000	 3.925329136827667e+000	 9.281845068987517e+000
 1.210503810708504e+000	 3.938152422469113e+000	 9.262678170171856e+000
 1.628198558548805e+000	 3.813632573781182e+000	 9.670123732005965e+000
 1.587540278136545e+000	 3.830736128131332e+000	 9.629044543694814e+000
 1.546788732292785e+000	 3.847371497092383e+000	 9.585966997985567e+000
 1.505951663912062e+000	 3.863538762903940e+000	 9.541423384755770e+000
 1.465036778925567e+000	 3.879238170882483e+000	 9.496010520947509e+000
 1.424051742221288e+000	 3.894470127498032e+000	 9.450388182403799e+000
 1.383004173653933e+000	 3.909235198335981e+000	 9.405278482972218e+000
 1.341901644148075e+000	 3.923534105948364e+000	 9.361466201136183e+000
 1.300751671897759e+000	 3.937367727598935e+000	 9.322966352936540e+000
 1.259561718665601e+000	 3.950737092906512e+000	 9.295432265664831e+000
 1.218339186184163e+000	 3.963643381391156e+000	 9.276504920474499e+000
 1.638669819097675e+000	 3.838158784121502e+000	 9.666679408508514e+000
 1.597750057402686e+000	 3.855372334744916e+000	 9.626255667330293e+000
 1.556736430468104e+000	 3.872114688988261e+000	 9.584215446335762e+000
 1.515636730984523e+000	 3.888385929620046e+000	 9.541091711883015e+000
 1.474458714441479e+000	 3.904186303534432e+000	 9.497464403216741e+000
 1.433210095021345e+000	 3.919516219815532e+000	 9.453958891720774e+000
 1.391898541583594e+000	 3.934376247686132e+000	 9.411245493882159e+000
 1.350531673742888e+000	 3.948767114345142e+000	 9.370040037499802e+000
 1.309117058044241e+000	 3.962689702698176e+000	 9.332640424812691e+000
 1.267662204238312e+000	 3.976145048985731e+000	 9.305017294530307e+000
 1.226174561659649e+000	 3.989134340313600e+000	 9.285413770334458e+000
 1.649141079647045e+000	 3.862684994461762e+000	 9.660975313259735e+000
 1.607959836669317e+000	 3.880008541358522e+000	 9.621420909702582e+000
 1.566684128643885e+000	 3.896857880884244e+000	 9.580541554974449e+000
 1.525321798057408e+000	 3.913233096336334e+000	 9.538843688621283e+000
 1.483880649957764e+000	 3.929134436186639e+000	 9.496861576516523e+000
 1.442368447821711e+000	 3.944562312133357e+000	 9.455155846538890e+000
 1.400792909513494e+000	 3.959517297036672e+000	 9.414313189674569e+000
 1.359161703337863e+000	 3.974000122742365e+000	 9.374947225221995e+000
 1.317482444190802e+000	 3.988011677797904e+000	 9.338273941109204e+000
 1.275762689811020e+000	 4.001553005065472e+000	 9.309702951192499e+000
 1.234009937135045e+000	 4.014625299236578e+000	 9.288975007060223e+000
 1.155656182367169e+000	 3.759715710014934e+000	 9.126190105215457e+000
 1.116530587703505e+000	 3.771519981695345e+000	 9.103005003548129e+000
 1.077387944538932e+000	 3.782887650511029e+000	 9.084050684318218e+000
 1.038235080352056e+000	 3.793820241437709e+000	 9.067516251049474e+000
 9.990787532115458e-001	 3.804319411526238e+000	 9.051804947966124e+000
 9.599256488797634e-001	 3.814386947187075e+000	 9.035589835847489e+000
 9.207823780247855e-001	 3.824024761409273e+000	 9.017827393691007e+000
 8.816554735420574e-001	 3.833234890918528e+000	 8.997792981959474e+000
 8.425513879866898e-001	 3.842019493278807e+000	 8.975094889673951e+000
 8.034764911172426e-001	 3.850380843942109e+000	 8.949684294475219e+000
 7.644370675516261e-001	 3.858321333250832e+000	 8.921859394818590e+000
 1.163491557846334e+000	 3.785206668937873e+000	 9.141450103455782e+000
 1.124100690751761e+000	 3.797090973851327e+000	 9.119114744195212e+000
 1.084692659567022e+000	 3.808535715722648e+000	 9.100829847959014e+000
 1.045274338061189e+000	 3.819542429866924e+000	 9.084759941001689e+000
 1.005852530122790e+000	 3.830112784569852e+000	 9.069299972297525e+000
 9.664339668438120e-001	 3.840248578353792e+000	 9.053126638078254e+000
 9.270253037128136e-001	 3.849951737177908e+000	 9.035211841804539e+000
 8.876331179184220e-001	 3.859224311576942e+000	 9.014853546074789e+000
 8.482639057642215e-001	 3.868068473743192e+000	 8.991686933195375e+000
 8.089240801958836e-001	 3.876486514556274e+000	 8.965690935143723e+000
 7.696199684411721e-001	 3.884480840565159e+000	 8.937188803535554e+000
 1.171326933324751e+000	 3.810697627860287e+000	 9.160202198815387e+000
 1.131670793799310e+000	 3.822661966006884e+000	 9.139225606409763e+000
 1.091997374594454e+000	 3.834183780933947e+000	 9.121958396183995e+000
 1.052313595769716e+000	 3.845264618295935e+000	 9.106550878696341e+000
 1.012626307033486e+000	 3.855906157613377e+000	 9.091406248098577e+000
 9.729422848073708e-001	 3.866110209520530e+000	 9.075212638482599e+000
 9.332682294004119e-001	 3.875878712946665e+000	 9.056985661527699e+000
 8.936107622944163e-001	 3.885213732235560e+000	 9.036064788335546e+000
 8.539764235414411e-001	 3.894117454207846e+000	 9.012136191560746e+000
 8.143716692742643e-001	 3.902592185170742e+000	 8.985232585430781e+000
 7.748028693305061e-001	 3.910640347879801e+000	 8.955729946877966e+000
 1.179162308802503e+000	 3.836188586782309e+000	 9.181175991332713e+000
 1.139240896846218e+000	 3.848232958162134e+000	 9.161829915884180e+000
 1.099302089621277e+000	 3.859831846145037e+000	 9.145709688527944e+000
 1.059352853477671e+000	 3.870986806724833e+000	 9.130963170446083e+000
 1.019400083943650e+000	 3.881699530656881e+000	 9.116013436649157e+000
 9.794506027704428e-001	 3.891971840687341e+000	 9.099588515777860e+000
 9.395111550875688e-001	 3.901805688715573e+000	 9.080758448865320e+000
 8.995884066700163e-001	 3.911203152894399e+000	 9.058931110607553e+000
 8.596889413183112e-001	 3.920166434672770e+000	 9.033869398252572e+000
 8.198192583523409e-001	 3.928697855785511e+000	 9.005687491882798e+000
 7.799857702195771e-001	 3.936799855194742e+000	 8.974843430596163e+000
 1.186997684279672e+000	 3.861679545704069e+000	 9.203123781877720e+000
 1.146810999892553e+000	 3.873803950317199e+000	 9.185446878264260e+000
 1.106606804647541e+000	 3.885479911356019e+000	 9.170387230469556e+000
 1.066392111185088e+000	 3.896708995153701e+000	 9.156103453156634e+000
 1.026173860853302e+000	 3.907492903700438e+000	 9.141055097281992e+000
 9.859589207330300e-001	 3.917833471854272e+000	 9.124029744038431e+000
 9.457540807742733e-001	 3.927732664484668e+000	 9.104174551499586e+000
 9.055660510451968e-001	 3.937192573553473e+000	 9.080990892573349e+000
 8.654014590947976e-001	 3.946215415137963e+000	 9.054345803276924e+000
 8.252668474300694e-001	 3.954803526400566e+000	 9.024464313145449e+000
 7.851686711083348e-001	 3.962959362509965e+000	 8.991917570622256e+000
 1.194833059756341e+000	 3.887170504625702e+000	 9.224820735642640e+000
 1.154381102938380e+000	 3.899374942472197e+000	 9.208622625933820e+000
 1.113911519673297e+000	 3.911127976566998e+000	 9.194324612894178e+000
 1.073431368892000e+000	 3.922431183582631e+000	 9.180110736303799e+000
 1.032947637762458e+000	 3.933286276744113e+000	 9.164495156732752e+000
 9.924672386951359e-001	 3.943695103021377e+000	 9.146346271081212e+000
 9.519970064605130e-001	 3.953659640253977e+000	 9.124912681985524e+000
 9.115436954199343e-001	 3.963181994212797e+000	 9.099816051449832e+000
 8.711139768708643e-001	 3.972264395603425e+000	 9.071056691593627e+000
 8.307144365074048e-001	 3.980909197015896e+000	 9.039001609775658e+000
 7.903515719967292e-001	 3.989118869825450e+000	 9.004367867409926e+000
 1.202668435232591e+000	 3.912661463547339e+000	 9.245065056275127e+000
 1.161951205983767e+000	 3.924945934627249e+000	 9.229930281581385e+000
 1.121216234698595e+000	 3.936776041778080e+000	 9.215885473794934e+000
 1.080470626598443e+000	 3.948153372011707e+000	 9.201156270917181e+000
 1.039721414671137e+000	 3.959079649787976e+000	 9.184331150691726e+000
 9.989755566567625e-001	 3.969556734188702e+000	 9.164382231321762e+000
 9.582399321462770e-001	 3.979586616023536e+000	 9.140685568109777e+000
 9.175213397942035e-001	 3.989171414872388e+000	 9.113011640867731e+000
 8.768264946464762e-001	 3.998313376069161e+000	 9.081524942012235e+000
 8.361620255843035e-001	 4.007014867631494e+000	 9.047244368397211e+000
 7.955344728847096e-001	 4.015278377141184e+000	 9.011953384079718e+000
 1.210503810708504e+000	 3.938152422469113e+000	 9.262678170171856e+000
 1.169521309028779e+000	 3.950516926782475e+000	 9.247970037788779e+000
 1.128520949723485e+000	 3.962424106989368e+000	 9.233463481203982e+000
 1.087509884304450e+000	 3.973875560441018e+000	 9.217443444346598e+000
 1.046495191579357e+000	 3.984873022832094e+000	 9.198594039352367e+000
 1.005483874617913e+000	 3.995418365356300e+000	 9.176015691538890e+000
 9.644828578315530e-001	 4.005513591793374e+000	 9.149489674409741e+000
 9.234989841679803e-001	 4.015160835532258e+000	 9.120261050164777e+000
 8.825390124215976e-001	 4.024362356535170e+000	 9.088908681326563e+000
 8.416096146607207e-001	 4.033120538247347e+000	 9.056044500703063e+000
 8.007173737722256e-001	 4.041437884457146e+000	 9.022451224270014e+000
 1.218339186184163e+000	 3.963643381391156e+000	 9.276504920474499e+000
 1.177091412073484e+000	 3.976087918937997e+000	 9.261369251920263e+000
 1.135825664748019e+000	 3.988072172200969e+000	 9.245482336398482e+000
 1.094549142010055e+000	 3.999597748870652e+000	 9.227207699650259e+000
 1.053268968487136e+000	 4.010666395876540e+000	 9.206114944194683e+000
 1.011992192578589e+000	 4.021279996524219e+000	 9.182607878701901e+000
 9.707257835163295e-001	 4.031440567563525e+000	 9.156653407515904e+000
 9.294766285412396e-001	 4.041150256192426e+000	 9.128445384996921e+000
 8.882515301961927e-001	 4.050411337001454e+000	 9.098371805088206e+000
 8.470572037366123e-001	 4.059226208863447e+000	 9.067001684669423e+000
 8.059002746592268e-001	 4.067597391773321e+000	 9.035064848245185e+000
 1.226174561659649e+000	 3.989134340313600e+000	 9.285413770334458e+000
 1.184661515117947e+000	 4.001658911093932e+000	 9.268793516459381e+000
 1.143130379772245e+000	 4.013720237412986e+000	 9.251336341466352e+000
 1.101588399715292e+000	 4.025319937300696e+000	 9.232553185531955e+000
 1.060042745394492e+000	 4.036459768921380e+000	 9.211895566831599e+000
 1.018500510538794e+000	 4.047141627692512e+000	 9.189078129054456e+000
 9.769687092005952e-001	 4.057367543334021e+000	 9.164050828241841e+000
 9.354542729139569e-001	 4.067139676852901e+000	 9.136982091817631e+000
 8.939640479702261e-001	 4.076460317468011e+000	 9.108226927991076e+000
 8.525047928119343e-001	 4.085331879479782e+000	 9.078312414016803e+000
 8.110831755456628e-001	 4.093756899089693e+000	 9.047917613389474e+000
 1.234009937135045e+000	 4.014625299236578e+000	 9.288975007060223e+000
 1.192231618162235e+000	 4.027229903250403e+000	 9.271992015618729e+000
 1.150435094796215e+000	 4.039368302625527e+000	 9.254733037064860e+000
 1.108627657420196e+000	 4.051042125731239e+000	 9.236360051966912e+000
 1.066816522301444e+000	 4.062253141966684e+000	 9.216319323376041e+000
 1.025008828498531e+000	 4.073003258861228e+000	 9.194313443074368e+000
 9.832116348843378e-001	 4.083294519104889e+000	 9.170273689669090e+000
 9.414319172861090e-001	 4.093129097513706e+000	 9.144341744300379e+000
 8.996765657436628e-001	 4.102509297934844e+000	 9.116839364633492e+000
 8.579523818866420e-001	 4.111437550096343e+000	 9.088252644034881e+000
 8.162660764314833e-001	 4.119916406406246e+000	 9.059212004072872e+000
 7.644370675516261e-001	 3.858321333250832e+000	 8.921859394818588e+000
 7.254451589814354e-001	 3.865842366926856e+000	 8.884063047513937e+000
 6.865010045823988e-001	 3.872947779998714e+000	 8.834313133838691e+000
 6.476106092149710e-001	 3.879640291078204e+000	 8.783491368930399e+000
 6.087798846073815e-001	 3.885922721176182e+000	 8.745971532601402e+000
 5.700146475776197e-001	 3.891797990537994e+000	 8.719630189390141e+000
 5.313206183671867e-001	 3.897269115457639e+000	 8.701003035271427e+000
 4.927034190860284e-001	 3.902339205074783e+000	 8.687670399199188e+000
 4.541685722679201e-001	 3.907011458158685e+000	 8.678180188182813e+000
 4.157214995354012e-001	 3.911289159882991e+000	 8.671951985339774e+000
 3.773675203732346e-001	 3.915175678595245e+000	 8.669167508762744e+000
 7.696199684411721e-001	 3.884480840565159e+000	 8.937188803535554e+000
 7.303636938346297e-001	 3.892052867022554e+000	 8.899832876928333e+000
 6.911554971736034e-001	 3.899206454958561e+000	 8.852338756670669e+000
 6.520014240316413e-001	 3.905944341417219e+000	 8.804050111943113e+000
 6.129074262186277e-001	 3.912269366535888e+000	 8.768309095608396e+000
 5.738793599907134e-001	 3.918184470359234e+000	 8.743494972443680e+000
 5.349229843727692e-001	 3.923692689631786e+000	 8.725794235747177e+000
 4.960439595927782e-001	 3.928797154573237e+000	 8.712517189905007e+000
 4.572478456274227e-001	 3.933501085640565e+000	 8.701992728867809e+000
 4.185401008579682e-001	 3.937807790280954e+000	 8.693444369331814e+000
 3.799260808354098e-001	 3.941720659679419e+000	 8.686853012945342e+000
 7.748028693305061e-001	 3.910640347879801e+000	 8.955729946877966e+000
 7.352822286876529e-001	 3.918263367118545e+000	 8.918424396596448e+000
 6.958099897646701e-001	 3.925465129918650e+000	 8.872683115515073e+000
 6.563922388481983e-001	 3.932248391756403e+000	 8.826655499124106e+000
 6.170349678297767e-001	 3.938616011895685e+000	 8.792427923906951e+000
 5.777440724037162e-001	 3.944570950180483e+000	 8.769111787237630e+000
 5.385253503782572e-001	 3.950116263805866e+000	 8.752773777192477e+000
 4.993845000994192e-001	 3.955255104071563e+000	 8.740688219707570e+000
 4.603271189867908e-001	 3.959990713122277e+000	 8.731201800334564e+000
 4.213587021803643e-001	 3.964326420678744e+000	 8.723579673118721e+000
 3.824846412973639e-001	 3.968265640763441e+000	 8.717838707774753e+000
 7.799857702195771e-001	 3.936799855194742e+000	 8.974843430596161e+000
 7.402007635404505e-001	 3.944473867214804e+000	 8.937214689657145e+000
 7.004644823555445e-001	 3.951723804878960e+000	 8.892776780276527e+000
 6.607830536645900e-001	 3.958552442095745e+000	 8.848767843751512e+000
 6.211625094407817e-001	 3.964962657255565e+000	 8.815886100083569e+000
 5.816087848165891e-001	 3.970957430001741e+000	 8.794149152699937e+000
 5.421277163836221e-001	 3.976539837979887e+000	 8.779743740965991e+000
 5.027250406059354e-001	 3.981713053569776e+000	 8.770152854775144e+000
 4.634063923460235e-001	 3.986480340603840e+000	 8.763988445855341e+000
 4.241773035026046e-001	 3.990845051076375e+000	 8.760805690544657e+000
 3.850432017591321e-001	 3.994810621847332e+000	 8.760904842719413e+000
 7.851686711083348e-001	 3.962959362509965e+000	 8.991917570622256e+000
 7.451192983929696e-001	 3.970684367311316e+000	 8.953605254724797e+000
 7.051189749461719e-001	 3.977982479839472e+000	 8.910070863306414e+000
 6.651738684807658e-001	 3.984856492435232e+000	 8.867869297531735e+000
 6.252900510515963e-001	 3.991309302615523e+000	 8.836262312118315e+000
 5.854734972292937e-001	 3.997343909823011e+000	 8.816292823136127e+000
 5.457300823888359e-001	 4.002963412153861e+000	 8.804571987059140e+000
 5.060655811123113e-001	 4.008171003067892e+000	 8.799138123431508e+000
 4.664856657051201e-001	 4.012969968085276e+000	 8.798618959720853e+000
 4.269959048247057e-001	 4.017363681473868e+000	 8.802408625640226e+000
 3.876017622207494e-001	 4.021355602931106e+000	 8.810528037427948e+000
 7.903515719967292e-001	 3.989118869825450e+000	 9.004367867409926e+000
 7.500378332451563e-001	 3.996894867408061e+000	 8.965021479771661e+000
 7.097734675364993e-001	 4.004241154800173e+000	 8.922211449716158e+000
 6.695646832966730e-001	 4.011160542774849e+000	 8.882610429765609e+000
 6.294175926621741e-001	 4.017655947975554e+000	 8.853881610534785e+000
 5.893382096417913e-001	 4.023730389644293e+000	 8.837593654884927e+000
 5.493324483938694e-001	 4.029386986327793e+000	 8.830205544356726e+000
 5.094061216185306e-001	 4.034628952565923e+000	 8.829373781075587e+000
 4.695649390640794e-001	 4.039459595566599e+000	 8.833748495282734e+000
 4.298145061466832e-001	 4.043882311871244e+000	 8.842767279373911e+000
 3.901603226822514e-001	 4.047900584014784e+000	 8.856464607730407e+000
 7.955344728847096e-001	 4.015278377141184e+000	 9.011953384079719e+000
 7.549563680969570e-001	 4.023105367505021e+000	 8.974234662007715e+000
 7.144279601264725e-001	 4.030499829761043e+000	 8.935289115750116e+000
 6.739554981122607e-001	 4.037464593114586e+000	 8.900199012088175e+000
 6.335451342724690e-001	 4.044002593335649e+000	 8.875189644255732e+000
 5.932029220540432e-001	 4.050116869465589e+000	 8.862170564204227e+000
 5.529348143986951e-001	 4.055810560501691e+000	 8.857860894242702e+000
 5.127466621245780e-001	 4.061086902063885e+000	 8.860052926765430e+000
 4.726442124229007e-001	 4.065949223047831e+000	 8.867494956669489e+000
 4.326331074685535e-001	 4.070400942268521e+000	 8.879688635401543e+000
 3.927188831436725e-001	 4.074445565098374e+000	 8.896702129363256e+000
 8.007173737722256e-001	 4.041437884457146e+000	 9.022451224270014e+000
 7.598749029483174e-001	 4.049315867602174e+000	 8.987263950714674e+000
 7.190824527160377e-001	 4.056758504722066e+000	 8.951856402565614e+000
 6.783463129274774e-001	 4.063768643454428e+000	 8.920626617221066e+000
 6.376726758824347e-001	 4.070349238695803e+000	 8.898672772078017e+000
 5.970676344660112e-001	 4.076503349286900e+000	 8.887936907863264e+000
 5.565371804032837e-001	 4.082234134675567e+000	 8.885449431437969e+000
 5.160872026304370e-001	 4.087544851561791e+000	 8.889158115546943e+000
 4.757234857815826e-001	 4.092438850528988e+000	 8.897927962484813e+000
 4.354517087903323e-001	 4.096919572665721e+000	 8.911342420388667e+000
 3.952774436050484e-001	 4.100990546181900e+000	 8.929520617635729e+000
 8.059002746592268e-001	 4.067597391773321e+000	 9.035064848245183e+000
 7.647934377991847e-001	 4.075526367699501e+000	 9.002192837315667e+000
 7.237369453051401e-001	 4.083017179683221e+000	 8.969867354720185e+000
 6.827371277422712e-001	 4.090072693794363e+000	 8.941832259630131e+000
 6.418002174920245e-001	 4.096695884056009e+000	 8.922236184498436e+000
 6.009323468776562e-001	 4.102889829108227e+000	 8.912823954030346e+000
 5.601395464076071e-001	 4.108657708849427e+000	 8.910949754123408e+000
 5.194277431360924e-001	 4.114002801059660e+000	 8.914733665590124e+000
 4.788027591401242e-001	 4.118928478010091e+000	 8.923173040460730e+000
 4.382703101120360e-001	 4.123438203062862e+000	 8.935947939799108e+000
 3.978360040664137e-001	 4.127535527265376e+000	 8.953242798108212e+000
 8.110831755456628e-001	 4.093756899089693e+000	 9.047917613389474e+000
 7.697119726495052e-001	 4.101736867796985e+000	 9.017089480448863e+000
 7.283914378937266e-001	 4.109275854644497e+000	 8.987353930148629e+000
 6.871279425565917e-001	 4.116376744134381e+000	 8.961830243528199e+000
 6.459277591011925e-001	 4.123042529416264e+000	 8.943860724576574e+000
 6.047970592889399e-001	 4.129276308929571e+000	 8.934833957874071e+000
 5.637419124116373e-001	 4.135081283023280e+000	 8.932406513536332e+000
 5.227682836415281e-001	 4.140460750557502e+000	 8.934884680996690e+000
 4.818820324985248e-001	 4.145418105491159e+000	 8.941410839291352e+000
 4.410889114336800e-001	 4.149956833459962e+000	 8.951773493052352e+000
 4.003945645278038e-001	 4.154080508348820e+000	 8.966233737861055e+000
 8.162660764314833e-001	 4.119916406406246e+000	 9.059212004072872e+000
 7.746305074992252e-001	 4.127947367894609e+000	 9.030100129766250e+000
 7.330459304817431e-001	 4.135534529605870e+000	 9.002424410325604e+000
 6.915187573703863e-001	 4.142680794474464e+000	 8.978708707787474e+000
 6.500553007098926e-001	 4.149389174776561e+000	 8.961601472117305e+000
 6.086617716998241e-001	 4.155662788750935e+000	 8.952038879571557e+000
 5.673442784153456e-001	 4.161504857197135e+000	 8.947929284070256e+000
 5.261088241467282e-001	 4.166918700055335e+000	 8.947776090760003e+000
 4.849613058567833e-001	 4.171907732972208e+000	 8.950876351722350e+000
 4.439075127552812e-001	 4.176475463857043e+000	 8.957135794515782e+000
 4.029531249892537e-001	 4.180625489432248e+000	 8.966900476671881e+000
 3.773675203732346e-001	 3.915175678595245e+000	 8.669167508762744e+000
 3.391061330280596e-001	 3.918674958673670e+000	 8.655170360348217e+000
 3.009482782972789e-001	 3.921789915098675e+000	 8.617963802132701e+000
 2.628990420740383e-001	 3.924524148878315e+000	 8.562556027239813e+000
 2.249634018290048e-001	 3.926881331380237e+000	 8.494304865301707e+000
 1.871462259189425e-001	 3.928865201095816e+000	 8.418801652835960e+000
 1.494522729974383e-001	 3.930479560421401e+000	 8.341766437450682e+000
 1.118861915258204e-001	 3.931728272459813e+000	 8.268957466000902e+000
 7.445251938222533e-002	 3.932615257845103e+000	 8.206097538715198e+000
 3.715568356668126e-002	 3.933144491593509e+000	 8.158819443108879e+000
 0.000000000000000e+000	 3.933319999983334e+000	 8.132632320546000e+000
 3.799260808354098e-001	 3.941720659679419e+000	 8.686853012945342e+000
 3.414052804044881e-001	 3.945243664957141e+000	 8.668405051158297e+000
 3.029887145414698e-001	 3.948379740858184e+000	 8.627214173293545e+000
 2.646815036219781e-001	 3.951132512805529e+000	 8.568398190529731e+000
 2.264886588640519e-001	 3.953505677058799e+000	 8.497312928791827e+000
 1.884150816320316e-001	 3.955502997456446e+000	 8.419412906604565e+000
 1.504655628432900e-001	 3.957128302175165e+000	 8.340124976757375e+000
 1.126447824758355e-001	 3.958385480509717e+000	 8.264738021096552e+000
 7.495730917472805e-002	 3.959278479676159e+000	 8.198311399854166e+000
 3.740759995516315e-002	 3.959811301641444e+000	 8.145604469078396e+000
 0.000000000000000e+000	 3.959987999982151e+000	 8.111029098487091e+000
 3.824846412973639e-001	 3.968265640763441e+000	 8.717838707774753e+000
 3.437044277806349e-001	 3.971812371240532e+000	 8.701250795267418e+000
 3.050291507853137e-001	 3.974969566617713e+000	 8.664182563311336e+000
 2.664639651695110e-001	 3.977740876732895e+000	 8.611944652952223e+000
 2.280139158986450e-001	 3.980130022737658e+000	 8.549967715346121e+000
 1.896839373446407e-001	 3.982140793817517e+000	 8.483638594332371e+000
 1.514788526886658e-001	 3.983777043929511e+000	 8.418151184008398e+000
 1.134033734254169e-001	 3.985042688560327e+000	 8.358375194955992e+000
 7.546209896688526e-002	 3.985941701508022e+000	 8.308745654298026e+000
 3.765951634344149e-002	 3.986478111690256e+000	 8.273175556535740e+000
 0.000000000000000e+000	 3.986655999981866e+000	 8.254993679902713e+000
 3.850432017591321e-001	 3.994810621847332e+000	 8.760904842719413e+000
 3.460035751565559e-001	 3.998381077523854e+000	 8.752887193610487e+000
 3.070695870288875e-001	 4.001559392377267e+000	 8.728457822543579e+000
 2.682464267167318e-001	 4.004349240660396e+000	 8.692739253486051e+000
 2.295391729328930e-001	 4.006754368416779e+000	 8.650989428615754e+000
 1.909527930568875e-001	 4.008778590178979e+000	 8.608419013915521e+000
 1.524921425336836e-001	 4.010425785684371e+000	 8.570013035697748e+000
 1.141619643746725e-001	 4.011699896611567e+000	 8.540403310463972e+000
 7.596688875878316e-002	 4.012604923340605e+000	 8.523748513722403e+000
 3.791143273156714e-002	 4.013144921739845e+000	 8.523621172258245e+000
 0.000000000000000e+000	 4.013323999982383e+000	 8.542900927407640e+000
 3.876017622207494e-001	 4.021355602931106e+000	 8.810528037427948e+000
 3.483027225323065e-001	 4.024949783807112e+000	 8.812278283190015e+000
 3.091100232722676e-001	 4.028149218136837e+000	 8.800114996420295e+000
 2.700288882637353e-001	 4.030957604588013e+000	 8.779275748649370e+000
 2.310644299669053e-001	 4.033378714096125e+000	 8.755036864967195e+000
 1.922216487688894e-001	 4.035416386540783e+000	 8.732571346762306e+000
 1.535054323784610e-001	 4.037074527439684e+000	 8.716815935229592e+000
 1.149205553237103e-001	 4.038357104663356e+000	 8.712346441865270e+000
 7.647167855050803e-002	 4.039268145173817e+000	 8.723260533778127e+000
 3.816334911959094e-002	 4.039811731790116e+000	 8.753067225719148e+000
 0.000000000000000e+000	 4.039991999983600e+000	 8.804582397999850e+000
 3.901603226822514e-001	 4.047900584014784e+000	 8.856464607730407e+000
 3.506018699079427e-001	 4.051518490090317e+000	 8.865180830035847e+000
 3.111504595155301e-001	 4.054739043896424e+000	 8.862345236747554e+000
 2.718113498106167e-001	 4.057565968515733e+000	 8.853079424317677e+000
 2.325896870007913e-001	 4.060003059775668e+000	 8.842528777522436e+000
 1.934905044807638e-001	 4.062054182902881e+000	 8.835723975395183e+000
 1.545187222231158e-001	 4.063723269195385e+000	 8.837451509300346e+000
 1.156791462726381e-001	 4.065014312715615e+000	 8.852132296300589e+000
 7.697646834214598e-002	 4.065931367007567e+000	 8.883707537308016e+000
 3.841526550756381e-002	 4.066478541840970e+000	 8.935531038304276e+000
 0.000000000000000e+000	 4.066659999985416e+000	 9.010267284638154e+000
 3.927188831436725e-001	 4.074445565098374e+000	 8.896702129363256e+000
 3.529010172835205e-001	 4.078087196373478e+000	 8.909906048931122e+000
 3.131908957587518e-001	 4.081328869656024e+000	 8.913608381261399e+000
 2.735938113574707e-001	 4.084174332443536e+000	 8.912705863176209e+000
 2.341149440346599e-001	 4.086627405455374e+000	 8.912105942201105e+000
 1.947593601926284e-001	 4.088691979265223e+000	 8.916592306967644e+000
 1.555320120677654e-001	 4.090372010951407e+000	 8.930699277220025e+000
 1.164377372215638e-001	 4.091671520768268e+000	 8.958594092043612e+000
 7.748125813378330e-002	 4.092594588841763e+000	 9.003966206205829e+000
 3.866718189553659e-002	 4.093145351892310e+000	 9.069922778242106e+000
 0.000000000000000e+000	 4.093327999987732e+000	 9.158889610324119e+000
 3.952774436050484e-001	 4.100990546181900e+000	 8.929520617635729e+000
 3.552001646590956e-001	 4.104655902656603e+000	 8.944843134723289e+000
 3.152313320020088e-001	 4.107918695415633e+000	 8.952392124917527e+000
 2.753762729043923e-001	 4.110782696371409e+000	 8.956730371467122e+000
 2.356402010686208e-001	 4.113251751135212e+000	 8.962420212398889e+000
 1.960282159046005e-001	 4.115329775627760e+000	 8.973893548107021e+000
 1.565453019125276e-001	 4.117020752707689e+000	 8.995330531405568e+000
 1.171963281705952e-001	 4.118328728821235e+000	 9.030545932616617e+000
 7.798604792550624e-002	 4.119257810676323e+000	 9.082882248702470e+000
 3.891909828356013e-002	 4.119812161944039e+000	 9.155108704356403e+000
 0.000000000000000e+000	 4.119995999990450e+000	 9.249325374290770e+000
 3.978360040664137e-001	 4.127535527265376e+000	 8.953242798108212e+000
 3.574993120347236e-001	 4.131224608939701e+000	 8.968416741288461e+000
 3.172717682453777e-001	 4.134508521175254e+000	 8.977212102413482e+000
 2.771587344514764e-001	 4.137391060299331e+000	 8.983748283773981e+000
 2.371654581027829e-001	 4.139876096815146e+000	 8.992135044770732e+000
 1.972970716167977e-001	 4.141967571990445e+000	 9.006347451151045e+000
 1.575585917575201e-001	 4.143669494464163e+000	 9.030109304245617e+000
 1.179549191198401e-001	 4.144985936874438e+000	 9.066783995188027e+000
 7.849083771740094e-002	 4.145921032511149e+000	 9.119271810934501e+000
 3.917101467168534e-002	 4.146478971996061e+000	 9.189912803186164e+000
 0.000000000000000e+000	 4.146663999993466e+000	 9.280394417814165e+000
 4.003945645278038e-001	 4.154080508348820e+000	 8.966233737861055e+000
 3.597984594104606e-001	 4.157793315222783e+000	 8.979086833285715e+000
 3.193122044889351e-001	 4.161098346934877e+000	 8.986611957750858e+000
 2.789411959988177e-001	 4.163999424227287e+000	 8.992375248361872e+000
 2.386907151372557e-001	 4.166500442495147e+000	 8.999925998970308e+000
 1.985659273293375e-001	 4.168605368353228e+000	 9.012677027561209e+000
 1.585718816028605e-001	 4.170318236220767e+000	 9.033793295120828e+000
 1.187135100694066e-001	 4.171643144927797e+000	 9.066087671801139e+000
 7.899562750955365e-002	 4.172584254346156e+000	 9.111922833658747e+000
 3.942293105996306e-002	 4.173145782048277e+000	 9.173118363152119e+000
 0.000000000000000e+000	 4.173331999996684e+000	 9.250862218488445e+000
 4.029531249892537e-001	 4.180625489432248e+000	 8.966900476671881e+000
 3.620976067863625e-001	 4.184362021505856e+000	 8.975348531667809e+000
 3.213526407327570e-001	 4.187688172694504e+000	 8.979163401412306e+000
 2.807236575465114e-001	 4.190607788155260e+000	 8.981247493939641e+000
 2.402159721721483e-001	 4.193124788175179e+000	 8.984481212504420e+000
 1.998347830423373e-001	 4.195243164716059e+000	 8.991609229970296e+000
 1.595851714486665e-001	 4.196966977977437e+000	 9.005134759350232e+000
 1.194721010194024e-001	 4.198300352981236e+000	 9.027220665531951e+000
 7.950041730205061e-002	 4.199247476181253e+000	 9.059596356554701e+000
 3.967484744844418e-002	 4.199812592100591e+000	 9.103469488563778e+000
 0.000000000000000e+000	 4.200000000000000e+000	 9.159441616144449e+000
 4.200000000000000e+000	 0.000000000000000e+000	 1.038612158779328e+001
 4.199812592100592e+000	 3.967484744844299e-002	 1.041796018974427e+001
 4.199247476181255e+000	 7.950041730204953e-002	 1.043609676907433e+001
 4.198300352981238e+000	 1.194721010194014e-001	 1.044380102198454e+001
 4.196966977977437e+000	 1.595851714486656e-001	 1.044426010374543e+001
 4.195243164716059e+000	 1.998347830423365e-001	 1.044055970608896e+001
 4.193124788175180e+000	 2.402159721721477e-001	 1.043566286982707e+001
 4.190607788155259e+000	 2.807236575465109e-001	 1.043238623286306e+001
 4.187688172694503e+000	 3.213526407327566e-001	 1.043337337659160e+001
 4.184362021505857e+000	 3.620976067863623e-001	 1.044106489648407e+001
 4.180625489432248e+000	 4.029531249892535e-001	 1.045766478474704e+001
 4.226668000003317e+000	 0.000000000000000e+000	 1.041119036915560e+001
 4.226479402152904e+000	 3.992676383716136e-002	 1.043476584313994e+001
 4.225910698016349e+000	 8.000520709494820e-002	 1.044703884663153e+001
 4.224957561034674e+000	 1.202306919698985e-001	 1.045081453613475e+001
 4.223615719734106e+000	 1.605984612950158e-001	 1.044882725639339e+001
 4.221880961078892e+000	 2.011036387558750e-001	 1.044372317714769e+001
 4.219749133855214e+000	 2.417412292075336e-001	 1.043804081798670e+001
 4.217216152083234e+000	 2.825061190946210e-001	 1.043418915760507e+001
 4.214277998454134e+000	 3.233930769768958e-001	 1.043442298469623e+001
 4.210930727788930e+000	 3.643967541624678e-001	 1.044081510830472e+001
 4.207170470515677e+000	 4.055116854507894e-001	 1.045522500523355e+001
 4.253336000006534e+000	 0.000000000000000e+000	 1.043271349481431e+001
 4.253146212205121e+000	 4.017868022608315e-002	 1.044962584587889e+001
 4.252573919851357e+000	 8.050999688819120e-002	 1.045731452810113e+001
 4.251614769088035e+000	 1.209892829208252e-001	 1.045815315152332e+001
 4.250264461490710e+000	 1.616117511418326e-001	 1.045445643111828e+001
 4.248518757441675e+000	 2.023724944698755e-001	 1.044846439321450e+001
 4.246373479535218e+000	 2.432664862433427e-001	 1.044232463257564e+001
 4.243824516011195e+000	 2.842885806430889e-001	 1.043807231285947e+001
 4.240867824213765e+000	 3.254335132213078e-001	 1.043760756209723e+001
 4.237499434072024e+000	 3.666959015387497e-001	 1.044266987314136e+001
 4.233715451599139e+000	 4.080702459124009e-001	 1.045480907639439e+001
 4.280004000009551e+000	 0.000000000000000e+000	 1.045008757321067e+001
 4.279813022257144e+000	 4.043059661515751e-002	 1.046184529536874e+001
 4.279237141686184e+000	 8.101478668169247e-002	 1.046616045716833e+001
 4.278271977141238e+000	 1.217478738720743e-001	 1.046500766310642e+001
 4.276913203247188e+000	 1.626250409889992e-001	 1.046031462770622e+001
 4.275156553804367e+000	 2.036413501842226e-001	 1.045394796168069e+001
 4.272997825215164e+000	 2.447917432794693e-001	 1.044769718147932e+001
 4.270432879939134e+000	 2.860710421918251e-001	 1.044325663164199e+001
 4.267457649973411e+000	 3.274739494659244e-001	 1.044220496620454e+001
 4.264068140355160e+000	 3.689950489151641e-001	 1.044598179133506e+001
 4.260260432682667e+000	 4.106288063740698e-001	 1.045586102625530e+001
 4.306672000012267e+000	 0.000000000000000e+000	 1.046284022259400e+001
 4.306479832308872e+000	 4.068251300433352e-002	 1.047084463029098e+001
 4.305900363520742e+000	 8.151957647536588e-002	 1.047291349726927e+001
 4.304929185194207e+000	 1.225064648235383e-001	 1.047065452182612e+001
 4.303561945003476e+000	 1.636383308363992e-001	 1.046564050433757e+001
 4.301794350166915e+000	 2.049102058988004e-001	 1.045939672297028e+001
 4.299622170895022e+000	 2.463170003158075e-001	 1.045338671615816e+001
 4.297041243867040e+000	 2.878535037407402e-001	 1.044899615827225e+001
 4.294047475733071e+000	 3.295143857106775e-001	 1.044751446953535e+001
 4.290636846638357e+000	 3.712941962916666e-001	 1.045011375471644e+001
 4.286805413766293e+000	 4.131873668357763e-001	 1.045782461743153e+001
 4.333340000014585e+000	 0.000000000000000e+000	 1.047062603975620e+001
 4.333146642360213e+000	 4.093442939356041e-002	 1.047615577642654e+001
 4.332563585354944e+000	 8.202436626912542e-002	 1.047700707614837e+001
 4.331586393246863e+000	 1.232650557751097e-001	 1.047445239905611e+001
 4.330210686759509e+000	 1.646516206839158e-001	 1.046974118255215e+001
 4.328432146529278e+000	 2.061790616134939e-001	 1.046408881608394e+001
 4.326246516574763e+000	 2.478422573522515e-001	 1.045866421721758e+001
 4.323649607794899e+000	 2.896359652897448e-001	 1.045457569275944e+001
 4.320637301492754e+000	 3.315548219554990e-001	 1.045285472100650e+001
 4.317205552921638e+000	 3.735933436682132e-001	 1.045443724215182e+001
 4.313350394850049e+000	 4.157459272975019e-001	 1.046014199349079e+001
 4.360008000016401e+000	 0.000000000000000e+000	 1.047322271670980e+001
 4.359813452411068e+000	 4.118634578278727e-002	 1.047741843417587e+001
 4.359226807188694e+000	 8.252915606288493e-002	 1.047796766556664e+001
 4.358243601299130e+000	 1.240236467266810e-001	 1.047583887937535e+001
 4.356859428515224e+000	 1.656649105314323e-001	 1.047198917345212e+001
 4.355069942891406e+000	 2.074479173281874e-001	 1.046735485804148e+001
 4.352870862254360e+000	 2.493675143886956e-001	 1.046284084630213e+001
 4.350257971722702e+000	 2.914184268387492e-001	 1.045930853372012e+001
 4.347227127252466e+000	 3.335952582003203e-001	 1.045756179776370e+001
 4.343774259205019e+000	 3.758924910447597e-001	 1.045833069744744e+001
 4.339895375933970e+000	 4.183044877592276e-001	 1.046225239932658e+001
 4.386676000017618e+000	 0.000000000000000e+000	 1.047052729901351e+001
 4.386480262461337e+000	 4.143826217196327e-002	 1.047437650174392e+001
 4.385890029021907e+000	 8.303394585655827e-002	 1.047541139041022e+001
 4.384900809350929e+000	 1.247822376781449e-001	 1.047432727620783e+001
 4.383508170270559e+000	 1.666782003788322e-001	 1.047181941998373e+001
 4.381707739253251e+000	 2.087167730427653e-001	 1.046857523237575e+001
 4.379495207933779e+000	 2.508927714250337e-001	 1.046526549978922e+001
 4.376866335650435e+000	 2.932008883876641e-001	 1.046253431563462e+001
 4.373816953012211e+000	 3.356356944450734e-001	 1.046098734369630e+001
 4.370342965488527e+000	 3.781916384212623e-001	 1.046117798610722e+001
 4.366440357018083e+000	 4.208630482209341e-001	 1.046359097239259e+001
 4.413344000018133e+000	 0.000000000000000e+000	 1.046255257975389e+001
 4.413147072510929e+000	 4.169017856103757e-002	 1.046687462825203e+001
 4.412553250854495e+000	 8.353873565005948e-002	 1.046904076172522e+001
 4.411558017402181e+000	 1.255408286293939e-001	 1.046950356513180e+001
 4.410156912025449e+000	 1.676914902259989e-001	 1.046872645038775e+001
 4.408345535614769e+000	 2.099856287571122e-001	 1.046717748206531e+001
 4.406119553612994e+000	 2.524180284611601e-001	 1.046532245997699e+001
 4.403474699578092e+000	 2.949833499364003e-001	 1.046361693645212e+001
 4.400406778771992e+000	 3.376761306896899e-001	 1.046249679096938e+001
 4.396911671772176e+000	 3.804907857976765e-001	 1.046236692760792e+001
 4.392985338102427e+000	 4.234216086826028e-001	 1.046358760180086e+001
 4.440012000017850e+000	 0.000000000000000e+000	 1.044942362347968e+001
 4.439813882559739e+000	 4.194209494995930e-002	 1.045485489131301e+001
 4.439216472686362e+000	 8.404352544330236e-002	 1.045864152846860e+001
 4.438215225452806e+000	 1.262994195803206e-001	 1.046102342991082e+001
 4.436805653779830e+000	 1.687047800728155e-001	 1.046226163814458e+001
 4.434983331975912e+000	 2.112544844711125e-001	 1.046263380251462e+001
 4.432743899291976e+000	 2.539432854969692e-001	 1.046242913966634e+001
 4.430083063505655e+000	 2.967658114848681e-001	 1.046194257174534e+001
 4.426996604531821e+000	 3.397165669341018e-001	 1.046146766108385e+001
 4.423480378055990e+000	 3.827899331739585e-001	 1.046128790001730e+001
 4.419530319187035e+000	 4.259801691442144e-001	 1.046166585242978e+001
 4.466680000016666e+000	 0.000000000000000e+000	 1.043137441465757e+001
 4.466480692607676e+000	 4.219401133867760e-002	 1.043835359386931e+001
 4.465879694517425e+000	 8.454831523620093e-002	 1.044407964301390e+001
 4.464872433502732e+000	 1.270580105308175e-001	 1.044860941653614e+001
 4.463454395533638e+000	 1.697180699191654e-001	 1.045203056396332e+001
 4.461621128336632e+000	 2.125233401846509e-001	 1.045445863040077e+001
 4.459368244970697e+000	 2.554685425323549e-001	 1.045603391623460e+001
 4.456691427433116e+000	 2.985482730329781e-001	 1.045691777179798e+001
 4.453586430291699e+000	 3.417570031782409e-001	 1.045728794213997e+001
 4.450049084339993e+000	 3.850890805500640e-001	 1.045733251393102e+001
 4.446075300271936e+000	 4.285387296057502e-001	 1.045724195132530e+001
 4.180625489432248e+000	 4.029531249892535e-001	 1.045766478474704e+001
 4.176475463857045e+000	 4.439075127552786e-001	 1.047640361205988e+001
 4.171907732972210e+000	 4.849613058567810e-001	 1.049013893500053e+001
 4.166918700055335e+000	 5.261088241467262e-001	 1.050014268832703e+001
 4.161504857197135e+000	 5.673442784153437e-001	 1.050742920853033e+001
 4.155662788750933e+000	 6.086617716998225e-001	 1.051269961909487e+001
 4.149389174776560e+000	 6.500553007098915e-001	 1.051627910926355e+001
 4.142680794474464e+000	 6.915187573703857e-001	 1.051833581307387e+001
 4.135534529605870e+000	 7.330459304817428e-001	 1.052048403142856e+001
 4.127947367894609e+000	 7.746305074992251e-001	 1.052432247357144e+001
 4.119916406406244e+000	 8.162660764314833e-001	 1.053124978700453e+001
 4.207170470515677e+000	 4.055116854507894e-001	 1.045522500523355e+001
 4.202994094254131e+000	 4.467261140768506e-001	 1.047179330238149e+001
 4.198397360453264e+000	 4.880405792149010e-001	 1.048442104069894e+001
 4.193376649553178e+000	 5.294493646516860e-001	 1.049427642557818e+001
 4.187928431371007e+000	 5.709466444187181e-001	 1.050229927958242e+001
 4.182049268572324e+000	 6.125264841102888e-001	 1.050914773854471e+001
 4.175735820136896e+000	 6.541828423181011e-001	 1.051513784892001e+001
 4.168984844814609e+000	 6.959095721836308e-001	 1.052028020444297e+001
 4.161793204567331e+000	 7.377004230691653e-001	 1.052533974322752e+001
 4.154157867992348e+000	 7.795490423483210e-001	 1.053161542708337e+001
 4.146075913722957e+000	 8.214489773166681e-001	 1.054030235651213e+001
 4.233715451599139e+000	 4.080702459124009e-001	 1.045480907639439e+001
 4.229512724651257e+000	 4.495447153984008e-001	 1.046905699770376e+001
 4.224886987934366e+000	 4.911198525729065e-001	 1.048032522080666e+001
 4.219834599051070e+000	 5.327899051564446e-001	 1.048969184323598e+001
 4.214352005544932e+000	 5.745490104218120e-001	 1.049803520384415e+001
 4.208435748393774e+000	 6.163911965204039e-001	 1.050598299957868e+001
 4.202082465497298e+000	 6.583103839258993e-001	 1.051385432177157e+001
 4.195288895154834e+000	 7.003003869964147e-001	 1.052138931720622e+001
 4.188051879528887e+000	 7.423549156560879e-001	 1.052865472733517e+001
 4.180368368090208e+000	 7.844675771968939e-001	 1.053673307833431e+001
 4.172235421039816e+000	 8.266318782013202e-001	 1.054663288754793e+001
 4.260260432682667e+000	 4.106288063740698e-001	 1.045586102625530e+001
 4.256031355048466e+000	 4.523633167199345e-001	 1.046773751338740e+001
 4.251376615415561e+000	 4.941991259308263e-001	 1.047749128087907e+001
 4.246292548549063e+000	 5.361304456610527e-001	 1.048612289666512e+001
 4.240775579718958e+000	 5.781513764246956e-001	 1.049446114108843e+001
 4.234822228215323e+000	 6.202559089302561e-001	 1.050311465919457e+001
 4.228429110857803e+000	 6.624379255333883e-001	 1.051241656182493e+001
 4.221592945495159e+000	 7.046912018088520e-001	 1.052171939191997e+001
 4.214310554490549e+000	 7.470094082426365e-001	 1.053058355974370e+001
 4.206578868188182e+000	 7.893861120450736e-001	 1.053991953420341e+001
 4.198394928356806e+000	 8.318147790855723e-001	 1.055056581582741e+001
 4.286805413766293e+000	 4.131873668357763e-001	 1.045782461743153e+001
 4.282549985445799e+000	 4.551819180414574e-001	 1.046736760269403e+001
 4.277866242896895e+000	 4.972783992886887e-001	 1.047554011043699e+001
 4.272750498047201e+000	 5.394709861655601e-001	 1.048327669262176e+001
 4.267199153893131e+000	 5.817537424274391e-001	 1.049136736729569e+001
 4.261208708037016e+000	 6.241206213399326e-001	 1.050041192632816e+001
 4.254775756218443e+000	 6.665654671406720e-001	 1.051076723277747e+001
 4.247896995835610e+000	 7.090820166210587e-001	 1.052128351146232e+001
 4.240569229452330e+000	 7.516639008289352e-001	 1.053123195183292e+001
 4.232789368286272e+000	 7.943046468929923e-001	 1.054136498887502e+001
 4.224554435673913e+000	 8.369976799695582e-001	 1.055236727025176e+001
 4.313350394850049e+000	 4.157459272975019e-001	 1.046014199349079e+001
 4.309068615843296e+000	 4.580005193629747e-001	 1.046746896348289e+001
 4.304355870378411e+000	 5.003576726465224e-001	 1.047407305270930e+001
 4.299208447545529e+000	 5.428115266700173e-001	 1.048083322411049e+001
 4.293622728067493e+000	 5.853561084301131e-001	 1.048851037602472e+001
 4.287595187858888e+000	 6.279853337495214e-001	 1.049770443044169e+001
 4.281122401579249e+000	 6.706930087478522e-001	 1.050878962719890e+001
 4.274201046176212e+000	 7.134728314331500e-001	 1.052005193416691e+001
 4.266827904414243e+000	 7.563183934151094e-001	 1.053065735822468e+001
 4.258999868384476e+000	 7.992231817407802e-001	 1.054120660196430e+001
 4.250713942991122e+000	 8.421805808534109e-001	 1.055224621645520e+001
 4.339895375933970e+000	 4.183044877592276e-001	 1.046225239932658e+001
 4.335587246240997e+000	 4.608191206844921e-001	 1.046755131064833e+001
 4.330845497860159e+000	 5.034369460043563e-001	 1.047267133215814e+001
 4.325666397044096e+000	 5.461520671744743e-001	 1.047844515538858e+001
 4.320046302242091e+000	 5.889584744327864e-001	 1.048561302262510e+001
 4.313981667680984e+000	 6.318500461591107e-001	 1.049478272598661e+001
 4.307469046940256e+000	 6.748205503550329e-001	 1.050631275668714e+001
 4.300505096516986e+000	 7.178636462452412e-001	 1.051795244995086e+001
 4.293086579376300e+000	 7.609728860012833e-001	 1.052886960172316e+001
 4.285210368482795e+000	 8.041417165885677e-001	 1.053952938818908e+001
 4.276873450308417e+000	 8.473634817372637e-001	 1.055035560673283e+001
 4.366440357018083e+000	 4.208630482209341e-001	 1.046359097239259e+001
 4.362105876638948e+000	 4.636377220060151e-001	 1.046711151149927e+001
 4.357335125342180e+000	 5.065162193622187e-001	 1.047089553732824e+001
 4.352124346542950e+000	 5.494926076789817e-001	 1.047573765498346e+001
 4.346469876416969e+000	 5.925608404355302e-001	 1.048236470946855e+001
 4.340368147503342e+000	 6.357147585687872e-001	 1.049139883121415e+001
 4.333815692301494e+000	 6.789480919623162e-001	 1.050313936625283e+001
 4.326809146857960e+000	 7.222544610574481e-001	 1.051487075845832e+001
 4.319345254338512e+000	 7.656273785875821e-001	 1.052583151461457e+001
 4.311420868581225e+000	 8.090602514364862e-001	 1.053636711809595e+001
 4.303032957625781e+000	 8.525463826212494e-001	 1.054679353607704e+001
 4.392985338102427e+000	 4.234216086826028e-001	 1.046358760180086e+001
 4.388624507037184e+000	 4.664563233275489e-001	 1.046563278141861e+001
 4.383824752824526e+000	 5.095954927201384e-001	 1.046828515667962e+001
 4.378582296042137e+000	 5.528331481835896e-001	 1.047230827469255e+001
 4.372893450592176e+000	 5.961632064384140e-001	 1.047842161046384e+001
 4.366754627326002e+000	 6.395794709786392e-001	 1.048726679988079e+001
 4.360162337663002e+000	 6.830756335698055e-001	 1.049903581380260e+001
 4.353113197199152e+000	 7.266452758698857e-001	 1.051065086828862e+001
 4.345603929300893e+000	 7.702818711741308e-001	 1.052145959563372e+001
 4.337631368679769e+000	 8.139787862846665e-001	 1.053170322937377e+001
 4.329192464943203e+000	 8.577292835055018e-001	 1.054160440406477e+001
 4.419530319187035e+000	 4.259801691442144e-001	 1.046166585242978e+001
 4.415143137435748e+000	 4.692749246490989e-001	 1.046258393726811e+001
 4.410314380307235e+000	 5.126747660781440e-001	 1.046435816517607e+001
 4.405040245541705e+000	 5.561736886883483e-001	 1.046772687263187e+001
 4.399317024767752e+000	 5.997655724415079e-001	 1.047340693320338e+001
 4.393141107149005e+000	 6.434441833887549e-001	 1.048206332446582e+001
 4.386508983024807e+000	 6.872031751776038e-001	 1.049373222100687e+001
 4.379417247540588e+000	 7.310360906826696e-001	 1.050509551642255e+001
 4.371862604263454e+000	 7.749363637610538e-001	 1.051562468193952e+001
 4.363841868778422e+000	 8.188973211332393e-001	 1.052547174830899e+001
 4.355351972260665e+000	 8.629121843901543e-001	 1.053478008234929e+001
 4.446075300271936e+000	 4.285387296057502e-001	 1.045724195132530e+001
 4.441661767834682e+000	 4.720935259706710e-001	 1.045741870612492e+001
 4.436804007790360e+000	 5.157540394362642e-001	 1.045861065950809e+001
 4.431498195041699e+000	 5.595142291933083e-001	 1.046153557849259e+001
 4.425740598943746e+000	 6.033679384448824e-001	 1.046691121716928e+001
 4.419527586972392e+000	 6.473088957992211e-001	 1.047542836958366e+001
 4.412855628386948e+000	 6.913307167858139e-001	 1.048692266210133e+001
 4.405721297882295e+000	 7.354269054959153e-001	 1.049796660700271e+001
 4.398121279226208e+000	 7.795908563484764e-001	 1.050815263547173e+001
 4.390052368877188e+000	 8.238158559823360e-001	 1.051755822095949e+001
 4.381511479578152e+000	 8.680950852753391e-001	 1.052626108752264e+001
 4.119916406406244e+000	 8.162660764314833e-001	 1.053124978700453e+001
 4.111437550096344e+000	 8.579523818866410e-001	 1.053986569903429e+001
 4.102509297934843e+000	 8.996765657436617e-001	 1.054857211266556e+001
 4.093129097513706e+000	 9.414319172861084e-001	 1.055826717426290e+001
 4.083294519104891e+000	 9.832116348843376e-001	 1.056969691534280e+001
 4.073003258861228e+000	 1.025008828498531e+000	 1.058342849295186e+001
 4.062253141966685e+000	 1.066816522301444e+000	 1.059982706378139e+001
 4.051042125731239e+000	 1.108627657420195e+000	 1.061901456421295e+001
 4.039368302625527e+000	 1.150435094796215e+000	 1.064084089177295e+001
 4.027229903250404e+000	 1.192231618162235e+000	 1.066484254046480e+001
 4.014625299236578e+000	 1.234009937135045e+000	 1.069019912183042e+001
 4.146075913722957e+000	 8.214489773166681e-001	 1.054030235651213e+001
 4.137543220713117e+000	 8.633999709607193e-001	 1.055021975188623e+001
 4.128558278401947e+000	 9.053890835164926e-001	 1.056006361160386e+001
 4.119118518174838e+000	 9.474095616576930e-001	 1.057066220129819e+001
 4.109221494876151e+000	 9.894545605675654e-001	 1.058270277239562e+001
 4.098864890030391e+000	 1.031517146457817e+000	 1.059670543688958e+001
 4.088046515012491e+000	 1.073590299208018e+000	 1.061299952119917e+001
 4.076764314162331e+000	 1.115666915124804e+000	 1.063168424299884e+001
 4.065016367838656e+000	 1.157739809819977e+000	 1.065259911418999e+001
 4.052800895407486e+000	 1.199801721206408e+000	 1.067528317709561e+001
 4.040116258160177e+000	 1.241845312610418e+000	 1.069893175301611e+001
 4.172235421039816e+000	 8.266318782013202e-001	 1.054663288754793e+001
 4.163648891330075e+000	 8.688475600342712e-001	 1.055734086195068e+001
 4.154607258869277e+000	 9.111016012888170e-001	 1.056779026518750e+001
 4.145107938836247e+000	 9.533872060288050e-001	 1.057874862348499e+001
 4.135148470647740e+000	 9.956974862503660e-001	 1.059085386003975e+001
 4.124726521199934e+000	 1.038025464416730e+000	 1.060458881692247e+001
 4.113839888058725e+000	 1.080364076114282e+000	 1.062025727525106e+001
 4.102486502593892e+000	 1.122706172829172e+000	 1.063794635558814e+001
 4.090664433052284e+000	 1.165044524843574e+000	 1.065749636000675e+001
 4.078371887565092e+000	 1.207371824250493e+000	 1.067846062107475e+001
 4.065607217084311e+000	 1.249680688085785e+000	 1.070006253653735e+001
 4.198394928356806e+000	 8.318147790855723e-001	 1.055056581582741e+001
 4.189754561947185e+000	 8.742951491074277e-001	 1.056163281983895e+001
 4.180656239336789e+000	 9.168141190607618e-001	 1.057224253769383e+001
 4.171097359497876e+000	 9.593648503995627e-001	 1.058311058441234e+001
 4.161075446419582e+000	 1.001940411932846e+000	 1.059483465974358e+001
 4.150588152369765e+000	 1.044533782375364e+000	 1.060786973613216e+001
 4.139633261105280e+000	 1.087137853020315e+000	 1.062250391609466e+001
 4.128208691025804e+000	 1.129745430533361e+000	 1.063882241412585e+001
 4.116312498266290e+000	 1.172349239867047e+000	 1.065667703760241e+001
 4.103942879723094e+000	 1.214941927294514e+000	 1.067564666887943e+001
 4.091098176008842e+000	 1.257516063561146e+000	 1.069499464781427e+001
 4.224554435673913e+000	 8.369976799695582e-001	 1.055236727025176e+001
 4.215860232564423e+000	 8.797427381803208e-001	 1.056343714827256e+001
 4.206705219804441e+000	 9.225266368324540e-001	 1.057384487356065e+001
 4.197086780159657e+000	 9.653424947700842e-001	 1.058426265187321e+001
 4.187002422191598e+000	 1.008183337615112e+000	 1.059525670302962e+001
 4.176449783539791e+000	 1.051042100333811e+000	 1.060726313966027e+001
 4.165426634152052e+000	 1.093911629926193e+000	 1.062056381896683e+001
 4.153930879457951e+000	 1.136784688237429e+000	 1.063525179227316e+001
 4.141960563480547e+000	 1.179653954890438e+000	 1.065120060885372e+001
 4.129513871881357e+000	 1.222512030338491e+000	 1.066802545937698e+001
 4.116589134933641e+000	 1.265351439036504e+000	 1.068504097113995e+001
 4.250713942991122e+000	 8.421805808534109e-001	 1.055224621645520e+001
 4.241965903181752e+000	 8.851903272530827e-001	 1.056303451241624e+001
 4.232754200272183e+000	 9.282391546040192e-001	 1.057295738207978e+001
 4.223076200821531e+000	 9.713201391404875e-001	 1.058265178418397e+001
 4.212929397963709e+000	 1.014426263297271e+000	 1.059266007089149e+001
 4.202311414709920e+000	 1.057550418292166e+000	 1.060341036478442e+001
 4.191220007198934e+000	 1.100685406831993e+000	 1.061518499563865e+001
 4.179653067890218e+000	 1.143823945941438e+000	 1.062809488388866e+001
 4.167608628694930e+000	 1.186958669913788e+000	 1.064204506049500e+001
 4.155084864039749e+000	 1.230082133382446e+000	 1.065669726290391e+001
 4.142080093858572e+000	 1.273186814511860e+000	 1.067142821109453e+001
 4.276873450308417e+000	 8.473634817372637e-001	 1.055035560673283e+001
 4.268071573799144e+000	 8.906379163258443e-001	 1.056064613156492e+001
 4.258803180739970e+000	 9.339516723755845e-001	 1.056987751831959e+001
 4.249065621483434e+000	 9.772977835108908e-001	 1.057865928751115e+001
 4.238856373735842e+000	 1.020669188979431e+000	 1.058751879323769e+001
 4.228173045880060e+000	 1.064058736250520e+000	 1.059688167127435e+001
 4.217013380245822e+000	 1.107459183737793e+000	 1.060704192065092e+001
 4.205375256322488e+000	 1.150863203645447e+000	 1.061813623090345e+001
 4.193256693909314e+000	 1.194263384937138e+000	 1.063011033899860e+001
 4.180655856198142e+000	 1.237652236426401e+000	 1.064268222810990e+001
 4.167571052783504e+000	 1.281022189987216e+000	 1.065530095588710e+001
 4.303032957625781e+000	 8.525463826212494e-001	 1.054679353607704e+001
 4.294177244416569e+000	 8.960855053987376e-001	 1.055643519212690e+001
 4.284852161207754e+000	 9.396641901472764e-001	 1.056484176043693e+001
 4.275055042145303e+000	 9.832754278814120e-001	 1.057260276458844e+001
 4.264783349507913e+000	 1.026912114661697e+000	 1.058023810960597e+001
 4.254034677050121e+000	 1.070567054208968e+000	 1.058817875286739e+001
 4.242806753292610e+000	 1.114232960643671e+000	 1.059673833340391e+001
 4.231097444754643e+000	 1.157902461349516e+000	 1.060608762170055e+001
 4.218904759123573e+000	 1.201568099960529e+000	 1.061622175052850e+001
 4.206226848356403e+000	 1.245222339470378e+000	 1.062692408836346e+001
 4.193062011708301e+000	 1.288857565462575e+000	 1.063772569467098e+001
 4.329192464943203e+000	 8.577292835055018e-001	 1.054160440406477e+001
 4.320282915033996e+000	 9.015330944718942e-001	 1.055050826184868e+001
 4.310901141675489e+000	 9.453767079192216e-001	 1.055802728353139e+001
 4.301044462807080e+000	 9.892530722521702e-001	 1.056473805518788e+001
 4.290710325279849e+000	 1.033155040344177e+000	 1.057116016363357e+001
 4.279896308220005e+000	 1.077075372167602e+000	 1.057773723066193e+001
 4.268600126339194e+000	 1.121006737549704e+000	 1.058481001712268e+001
 4.256819633186567e+000	 1.164941719053705e+000	 1.059259116124664e+001
 4.244552824337582e+000	 1.208872814984003e+000	 1.060113332744422e+001
 4.231797840514403e+000	 1.252792442514399e+000	 1.061029382942976e+001
 4.218552970632834e+000	 1.296692940937935e+000	 1.061969479077959e+001
 4.355351972260665e+000	 8.629121843901543e-001	 1.053478008234929e+001
 4.346388585651394e+000	 9.069806835454463e-001	 1.054291670522916e+001
 4.336950122143129e+000	 9.510892256915464e-001	 1.054955363018728e+001
 4.327033883468698e+000	 9.952307166232822e-001	 1.055526116869243e+001
 4.316637301051570e+000	 1.039397966026977e+000	 1.056056528591773e+001
 4.305757939389626e+000	 1.083583690126516e+000	 1.056592912918898e+001
 4.294393499385467e+000	 1.127780514455969e+000	 1.057172755566983e+001
 4.282541821618144e+000	 1.171980976758073e+000	 1.057822231416348e+001
 4.270200889551217e+000	 1.216177530007600e+000	 1.058553116276124e+001
 4.257368832672012e+000	 1.260362545558484e+000	 1.059359332004887e+001
 4.244043929556965e+000	 1.304528316413302e+000	 1.060213041273533e+001
 4.381511479578152e+000	 8.680950852753391e-001	 1.052626108752264e+001
 4.372494256268735e+000	 9.124282726195253e-001	 1.053365810007383e+001
 4.362999102610631e+000	 9.568017434643776e-001	 1.053948437784193e+001
 4.353023304130099e+000	 1.001208360994867e+000	 1.054431020909966e+001
 4.342564276823000e+000	 1.045640891710206e+000	 1.054867418318949e+001
 4.331619570558885e+000	 1.090092008085801e+000	 1.055306533588612e+001
 4.320186872431323e+000	 1.134554291362543e+000	 1.055789906913209e+001
 4.308264010049259e+000	 1.179020234462681e+000	 1.056349292187022e+001
 4.295848954764352e+000	 1.223482245031362e+000	 1.057003671390747e+001
 4.282939824829096e+000	 1.267932648602657e+000	 1.057755890696506e+001
 4.269534888480566e+000	 1.312363691888676e+000	 1.058588842479704e+001
 4.014625299236578e+000	 1.234009937135045e+000	 1.069019912183042e+001
 4.001553005065471e+000	 1.275762689811019e+000	 1.071283185002384e+001
 3.988011677797905e+000	 1.317482444190801e+000	 1.072814772240081e+001
 3.974000122742366e+000	 1.359161703337862e+000	 1.073579859651813e+001
 3.959517297036672e+000	 1.400792909513493e+000	 1.074266161145374e+001
 3.944562312133357e+000	 1.442368447821711e+000	 1.074939104487605e+001
 3.929134436186639e+000	 1.483880649957763e+000	 1.075570944700471e+001
 3.913233096336334e+000	 1.525321798057408e+000	 1.076116662178088e+001
 3.896857880884243e+000	 1.566684128643885e+000	 1.076513447806535e+001
 3.880008541358522e+000	 1.607959836669317e+000	 1.076680280308518e+001
 3.862684994461762e+000	 1.649141079647046e+000	 1.076517611399357e+001
 4.040116258160177e+000	 1.241845312610418e+000	 1.069893175301611e+001
 4.026960961145821e+000	 1.283863175383798e+000	 1.071950651118782e+001
 4.013333652898217e+000	 1.325847830337527e+000	 1.073259097067367e+001
 3.999233131140133e+000	 1.367791732933090e+000	 1.073959816827507e+001
 3.984658346387703e+000	 1.409687277443730e+000	 1.074620927202736e+001
 3.969608404451609e+000	 1.451526800622489e+000	 1.075253019034773e+001
 3.954082568839195e+000	 1.493302585474527e+000	 1.075836277260443e+001
 3.938080263052889e+000	 1.535006865130830e+000	 1.076335168558572e+001
 3.921601072780403e+000	 1.576631826820247e+000	 1.076697867260815e+001
 3.904644747972214e+000	 1.618169615936555e+000	 1.076855769934053e+001
 3.887211204802013e+000	 1.659612340197034e+000	 1.076723114917771e+001
 4.065607217084311e+000	 1.249680688085785e+000	 1.070006253653735e+001
 4.052368917226699e+000	 1.291963660956650e+000	 1.071843497038076e+001
 4.038655627999038e+000	 1.334213216484404e+000	 1.072939639639671e+001
 4.024466139538371e+000	 1.376421762528545e+000	 1.073562578985698e+001
 4.009799395739159e+000	 1.418581645374264e+000	 1.074108357113945e+001
 3.994654496770230e+000	 1.460685153423631e+000	 1.074633390659506e+001
 3.979030701492055e+000	 1.502724520991713e+000	 1.075138878574740e+001
 3.962927429769677e+000	 1.544691932204722e+000	 1.075593024443182e+001
 3.946344264676717e+000	 1.586579524997117e+000	 1.075952519091198e+001
 3.929280954585979e+000	 1.628379395204330e+000	 1.076158349711102e+001
 3.911737415142254e+000	 1.670083600747572e+000	 1.076135348281277e+001
 4.091098176008842e+000	 1.257516063561146e+000	 1.069499464781427e+001
 4.077776873307971e+000	 1.300064146529557e+000	 1.071112955623768e+001
 4.063977603100237e+000	 1.342578602631396e+000	 1.072034742075647e+001
 4.049699147936964e+000	 1.385051792124172e+000	 1.072594850211992e+001
 4.034940445090934e+000	 1.427476013305023e+000	 1.073035575529777e+001
 4.019700589089125e+000	 1.469843506225049e+000	 1.073418798989156e+001
 4.003978834145140e+000	 1.512146456509219e+000	 1.073796766704258e+001
 3.987774596486632e+000	 1.554376999278973e+000	 1.074193612312708e+001
 3.971087456573137e+000	 1.596527223174380e+000	 1.074562623358734e+001
 3.953917161199785e+000	 1.638589174472521e+000	 1.074850445085142e+001
 3.936263625482467e+000	 1.680554861298542e+000	 1.074989393467164e+001
 4.116589134933641e+000	 1.265351439036504e+000	 1.068504097113995e+001
 4.103184829389508e+000	 1.308164632102502e+000	 1.069901036698106e+001
 4.089299578201687e+000	 1.350943988778462e+000	 1.070691902390178e+001
 4.074932156335790e+000	 1.393681821719912e+000	 1.071197536745055e+001
 4.060081494442918e+000	 1.436370381235935e+000	 1.071566559495888e+001
 4.044746681408201e+000	 1.479001859026653e+000	 1.071862300710940e+001
 4.028926966798369e+000	 1.521568392026945e+000	 1.072139651434553e+001
 4.012621763203689e+000	 1.564062066353473e+000	 1.072443613379241e+001
 3.995830648469614e+000	 1.606474921351918e+000	 1.072805900066035e+001
 3.978553367813597e+000	 1.648798953741010e+000	 1.073187195551044e+001
 3.960789835822633e+000	 1.691026121849827e+000	 1.073513374708734e+001
 4.142080093858572e+000	 1.273186814511860e+000	 1.067142821109453e+001
 4.128592785471174e+000	 1.316265117675463e+000	 1.068340968875811e+001
 4.114621553303263e+000	 1.359309374925567e+000	 1.069038528381377e+001
 4.100165164734732e+000	 1.402311851315711e+000	 1.069505657542707e+001
 4.085222543795005e+000	 1.445264749166924e+000	 1.069839321447731e+001
 4.069792773727361e+000	 1.488160211828356e+000	 1.070102604008886e+001
 4.053875099451660e+000	 1.530990327544789e+000	 1.070351022261875e+001
 4.037468929920784e+000	 1.573747133428113e+000	 1.070631069946396e+001
 4.020573840366099e+000	 1.616422619529614e+000	 1.070978654840192e+001
 4.003189574427383e+000	 1.659008733009677e+000	 1.071417428599457e+001
 3.985316046162736e+000	 1.701497382401312e+000	 1.071928409175213e+001
 4.167571052783504e+000	 1.281022189987216e+000	 1.065530095588710e+001
 4.154000741552840e+000	 1.324365603248425e+000	 1.066557636071025e+001
 4.139943528404840e+000	 1.367674761072673e+000	 1.067196548712676e+001
 4.125398173133672e+000	 1.410941880911512e+000	 1.067648578445693e+001
 4.110363593147087e+000	 1.454159117097919e+000	 1.067986159540003e+001
 4.094838866046510e+000	 1.497318564630069e+000	 1.068270454614339e+001
 4.078823232104933e+000	 1.540412263062650e+000	 1.068555612122392e+001
 4.062316096637850e+000	 1.583432200502780e+000	 1.068887302460456e+001
 4.045317032262544e+000	 1.626370317707353e+000	 1.069301144346874e+001
 4.027825781041108e+000	 1.669218512278404e+000	 1.069821019974503e+001
 4.009842256502755e+000	 1.711968642952877e+000	 1.070457277931714e+001
 4.193062011708301e+000	 1.288857565462575e+000	 1.063772569467098e+001
 4.179408697634375e+000	 1.332466088821368e+000	 1.064668008904163e+001
 4.165265503506290e+000	 1.376040147219743e+000	 1.065282608202766e+001
 4.150631181532491e+000	 1.419571910507259e+000	 1.065750216576042e+001
 4.135504642499055e+000	 1.463053485028845e+000	 1.066133867772114e+001
 4.119884958365556e+000	 1.506476917431704e+000	 1.066491147146586e+001
 4.103771364758110e+000	 1.549834198580429e+000	 1.066872863298607e+001
 4.087163263354825e+000	 1.593117267577365e+000	 1.067321575429280e+001
 4.070060224158895e+000	 1.636318015885016e+000	 1.067870007994434e+001
 4.052461987654741e+000	 1.679428291547071e+000	 1.068539350903724e+001
 4.034368466842676e+000	 1.722439903504409e+000	 1.069337444015741e+001
 4.218552970632834e+000	 1.296692940937935e+000	 1.061969479077959e+001
 4.204816653715645e+000	 1.340566574394276e+000	 1.062783145230993e+001
 4.190587478607485e+000	 1.384405533366737e+000	 1.063408257879081e+001
 4.175864189931072e+000	 1.428201940102896e+000	 1.063929239271247e+001
 4.160645691850802e+000	 1.471947852959630e+000	 1.064403940545221e+001
 4.144931050684400e+000	 1.515635270233171e+000	 1.064884732046889e+001
 4.128719497411107e+000	 1.559256134098022e+000	 1.065417133499392e+001
 4.112010430071640e+000	 1.602802334651756e+000	 1.066038331422627e+001
 4.094803416055107e+000	 1.646265714062487e+000	 1.066775581370130e+001
 4.077098194268250e+000	 1.689638070815559e+000	 1.067644492988243e+001
 4.058894677182479e+000	 1.732911164055787e+000	 1.068647196402030e+001
 4.244043929556965e+000	 1.304528316413302e+000	 1.060213041273533e+001
 4.230224609796522e+000	 1.348667059967129e+000	 1.061004030998790e+001
 4.215909453708300e+000	 1.392770919513618e+000	 1.061680140015003e+001
 4.201097198329294e+000	 1.436831969698365e+000	 1.062299257783988e+001
 4.185786741202223e+000	 1.480842220890201e+000	 1.062912771884953e+001
 4.169977143002949e+000	 1.524793623034384e+000	 1.063566217195980e+001
 4.153667630063844e+000	 1.568678069615330e+000	 1.064297896758190e+001
 4.136857596788233e+000	 1.612487401725843e+000	 1.065137388153960e+001
 4.119546607951128e+000	 1.656213412239649e+000	 1.066103932722679e+001
 4.101734400881598e+000	 1.699847850083750e+000	 1.067204705373461e+001
 4.083420887522148e+000	 1.743382424606897e+000	 1.068432963254243e+001
 4.269534888480566e+000	 1.312363691888676e+000	 1.058588842479704e+001
 4.255632565876873e+000	 1.356767545539909e+000	 1.059421684794024e+001
 4.241231428808608e+000	 1.401136305660350e+000	 1.060200168360467e+001
 4.226330206727042e+000	 1.445461999293613e+000	 1.060969015966173e+001
 4.210927790553209e+000	 1.489736588820484e+000	 1.061771849552747e+001
 4.195023235321111e+000	 1.533951975835254e+000	 1.062645764437252e+001
 4.178615762716243e+000	 1.578100005132252e+000	 1.063619939365968e+001
 4.161704763504536e+000	 1.622172468799514e+000	 1.064714130837212e+001
 4.144289799846913e+000	 1.666161110416386e+000	 1.065937048775794e+001
 4.126370607494755e+000	 1.710057629351524e+000	 1.067284611074063e+001
 4.107947097861665e+000	 1.753853685157622e+000	 1.068738075013704e+001
 3.862684994461762e+000	 1.649141079647046e+000	 1.076517611399357e+001
 3.844890029459101e+000	 1.690213828755853e+000	 1.076848127166608e+001
 3.826621338296151e+000	 1.731176368834391e+000	 1.078347820891294e+001
 3.807879346431334e+000	 1.772020776467594e+000	 1.080660712743674e+001
 3.788664650926863e+000	 1.812739108261148e+000	 1.083401150896706e+001
 3.768978021749813e+000	 1.853323405364218e+000	 1.086154453380134e+001
 3.748820402933820e+000	 1.893765698057605e+000	 1.088477774762379e+001
 3.728192913598082e+000	 1.934058010402449e+000	 1.089901212375213e+001
 3.707096848820648e+000	 1.974192364944430e+000	 1.089929165959398e+001
 3.685533680363033e+000	 2.014160787468252e+000	 1.088250758072713e+001
 3.663505057243498e+000	 2.053955311797023e+000	 1.086844314774409e+001
 3.887211204802013e+000	 1.659612340197034e+000	 1.076723114917771e+001
 3.869303250245444e+000	 1.700945881704125e+000	 1.077063751097066e+001
 3.850918561593066e+000	 1.742168514406036e+000	 1.078489435638435e+001
 3.832057567004748e+000	 1.783272264577802e+000	 1.080650031133314e+001
 3.812720867333757e+000	 1.824249138388354e+000	 1.083164587111264e+001
 3.792909237436087e+000	 1.865091126451960e+000	 1.085621905629703e+001
 3.772623627339524e+000	 1.905790208445515e+000	 1.087581337687555e+001
 3.751865163269135e+000	 1.946338357786760e+000	 1.088573826134087e+001
 3.730635148526093e+000	 1.986727546368357e+000	 1.088103209897940e+001
 3.708935064216883e+000	 2.026949749342556e+000	 1.086370992857344e+001
 3.686766569830242e+000	 2.066996949951050e+000	 1.085309224528016e+001
 3.911737415142254e+000	 1.670083600747572e+000	 1.076135348281277e+001
 3.893716471031692e+000	 1.711677934652947e+000	 1.076572491746480e+001
 3.875215784889801e+000	 1.753160659978216e+000	 1.078003488664441e+001
 3.856235787577899e+000	 1.794523752688519e+000	 1.080083993025649e+001
 3.836777083740312e+000	 1.835759168516035e+000	 1.082437871439958e+001
 3.816840453121952e+000	 1.876858847540136e+000	 1.084657690011289e+001
 3.796426851744760e+000	 1.917814718833813e+000	 1.086305437809520e+001
 3.775537412939671e+000	 1.958618705171413e+000	 1.086913503596888e+001
 3.754173448230981e+000	 1.999262727792577e+000	 1.085985921610992e+001
 3.732336448070155e+000	 2.039738711217104e+000	 1.084501155437161e+001
 3.710028082416403e+000	 2.080038588105279e+000	 1.083750138564558e+001
 3.936263625482467e+000	 1.680554861298542e+000	 1.074989393467164e+001
 3.918129691817840e+000	 1.722409987602205e+000	 1.075581260514961e+001
 3.899513008186363e+000	 1.764152805550830e+000	 1.077071573864072e+001
 3.880414008150813e+000	 1.805775240799661e+000	 1.079121763583668e+001
 3.860833300146565e+000	 1.847269198644123e+000	 1.081360661790495e+001
 3.840771668807451e+000	 1.888626568628697e+000	 1.083384908131948e+001
 3.820230076149578e+000	 1.929839229222470e+000	 1.084759597419841e+001
 3.799209662609750e+000	 1.970899052556393e+000	 1.085019187088950e+001
 3.777711747935383e+000	 2.011797909217094e+000	 1.083789544828825e+001
 3.755737831922926e+000	 2.052527673091920e+000	 1.082685197305361e+001
 3.733289595002063e+000	 2.093080226259743e+000	 1.082209016429811e+001
 3.960789835822633e+000	 1.691026121849827e+000	 1.073513374708734e+001
 3.942542912603887e+000	 1.733142040551793e+000	 1.074290363176268e+001
 3.923810231482769e+000	 1.775144951123781e+000	 1.075868966272885e+001
 3.904592228723509e+000	 1.817026728911142e+000	 1.077916411581622e+001
 3.884889516552547e+000	 1.858779228772551e+000	 1.080066678967036e+001
 3.864702884492636e+000	 1.900394289717594e+000	 1.081920821760468e+001
 3.844033300554041e+000	 1.941863739611455e+000	 1.083047535432604e+001
 3.822881912279440e+000	 1.983179399941692e+000	 1.082983992476066e+001
 3.801250047639373e+000	 2.024333090641914e+000	 1.081725296485874e+001
 3.779139215775276e+000	 2.065316634967020e+000	 1.080962396878731e+001
 3.756551107587308e+000	 2.106121864414475e+000	 1.080723203279334e+001
 3.985316046162736e+000	 1.701497382401312e+000	 1.071928409175212e+001
 3.966956133389826e+000	 1.743874093501599e+000	 1.072893425184821e+001
 3.948107454779024e+000	 1.786137096696969e+000	 1.074564524134122e+001
 3.928770449296013e+000	 1.828278217022880e+000	 1.076614790380612e+001
 3.908945732958295e+000	 1.870289258901253e+000	 1.078683568717552e+001
 3.888634100177547e+000	 1.912162010806777e+000	 1.080376698121900e+001
 3.867836524958197e+000	 1.953888250000737e+000	 1.081266998111821e+001
 3.846554161948798e+000	 1.995459747327294e+000	 1.080895027518639e+001
 3.824788347343020e+000	 2.036868272067043e+000	 1.079833013287704e+001
 3.802540599627279e+000	 2.078105596842430e+000	 1.079367454840743e+001
 3.779812620172219e+000	 2.119163502569507e+000	 1.079325526490396e+001
 4.009842256502755e+000	 1.711968642952877e+000	 1.070457277931714e+001
 3.991369354175657e+000	 1.754606146451514e+000	 1.071577313705391e+001
 3.972404678075141e+000	 1.797129242270299e+000	 1.073320588311038e+001
 3.952948669868347e+000	 1.839529705134791e+000	 1.075357416795544e+001
 3.933001949363844e+000	 1.881799289030159e+000	 1.077332762141663e+001
 3.912565315862232e+000	 1.923929731896198e+000	 1.078857653944823e+001
 3.891639749362106e+000	 1.965912760390286e+000	 1.079509588867156e+001
 3.870226411617892e+000	 2.007740094713191e+000	 1.078875455381316e+001
 3.848326647046395e+000	 2.049403453492486e+000	 1.078147428922858e+001
 3.825941983479014e+000	 2.090894558718166e+000	 1.077930589042805e+001
 3.803074132756878e+000	 2.132205140724873e+000	 1.078044391844099e+001
 4.034368466842676e+000	 1.722439903504409e+000	 1.069337444015741e+001
 4.015782574961377e+000	 1.765338199401428e+000	 1.070542529580925e+001
 3.996701901371128e+000	 1.808121387843667e+000	 1.072292879157686e+001
 3.977126890440536e+000	 1.850781193246788e+000	 1.074278347943251e+001
 3.957058165769226e+000	 1.893309319159202e+000	 1.076129334528704e+001
 3.936496531546734e+000	 1.935697452985806e+000	 1.077462498314447e+001
 3.915442973765817e+000	 1.977937270780072e+000	 1.077860597157729e+001
 3.893898661286784e+000	 2.020020442099368e+000	 1.077139572560078e+001
 3.871864946749569e+000	 2.061938634918248e+000	 1.076698765121770e+001
 3.849343367330559e+000	 2.103683520594251e+000	 1.076677628982438e+001
 3.826335645341370e+000	 2.145246778880604e+000	 1.076903879295972e+001
 4.058894677182479e+000	 1.732911164055787e+000	 1.068647196402030e+001
 4.040195795746984e+000	 1.776070252351231e+000	 1.069968102200474e+001
 4.020999124666999e+000	 1.819113533416977e+000	 1.071663375106186e+001
 4.001305111012600e+000	 1.862032681358789e+000	 1.073505236178363e+001
 3.981114382174480e+000	 1.904819349288316e+000	 1.075181862692399e+001
 3.960427747231099e+000	 1.947465174075554e+000	 1.076283574382023e+001
 3.939246198169390e+000	 1.989961781170067e+000	 1.076398826541642e+001
 3.917570910955537e+000	 2.032300789485816e+000	 1.075735451754732e+001
 3.895403246452611e+000	 2.074473816344336e+000	 1.075512826171694e+001
 3.872744751181991e+000	 2.116472482470704e+000	 1.075630109876260e+001
 3.849597157925778e+000	 2.158288417036733e+000	 1.075923838352446e+001
 4.083420887522148e+000	 1.743382424606897e+000	 1.068432963254243e+001
 4.064609016532469e+000	 1.786802305300813e+000	 1.069886966181215e+001
 4.045296347962761e+000	 1.830105678990131e+000	 1.071549237092223e+001
 4.025483331584565e+000	 1.873284169470709e+000	 1.073202542208298e+001
 4.005170598579635e+000	 1.916329379417432e+000	 1.074594897547664e+001
 3.984358962915372e+000	 1.959232895165392e+000	 1.075406599978668e+001
 3.963049422572876e+000	 2.001986291560236e+000	 1.075198619090997e+001
 3.941243160624214e+000	 2.044581136872522e+000	 1.074691273399734e+001
 3.918941546155595e+000	 2.087008997770754e+000	 1.074611092966728e+001
 3.896146135033390e+000	 2.129261444347548e+000	 1.074805366344829e+001
 3.872858670510183e+000	 2.171330055193294e+000	 1.075119983069777e+001
 4.107947097861665e+000	 1.753853685157622e+000	 1.068738075013704e+001
 4.089022237317836e+000	 1.797534358250065e+000	 1.070320329371961e+001
 4.069593571258429e+000	 1.841097824563030e+000	 1.071953027879866e+001
 4.049661552156451e+000	 1.884535657582464e+000	 1.073429268045319e+001
 4.029226814984733e+000	 1.927839409546485e+000	 1.074509026182329e+001
 4.008290178599602e+000	 1.971000616255271e+000	 1.074916760998414e+001
 3.986852646976334e+000	 2.014010801950552e+000	 1.074421023205341e+001
 3.964915410292882e+000	 2.056861484259475e+000	 1.074030809655383e+001
 3.942479845858591e+000	 2.099544179197508e+000	 1.074010816612375e+001
 3.919547518884829e+000	 2.142050406224803e+000	 1.074216625725604e+001
 3.896120183094670e+000	 2.184371693350318e+000	 1.074503986691200e+001
 3.663505057243498e+000	 2.053955311797023e+000	 1.086844314774409e+001
 3.641009397794123e+000	 2.093573913466255e+000	 1.086078195319511e+001
 3.618051979783224e+000	 2.133002672260831e+000	 1.085737327913314e+001
 3.594634989852545e+000	 2.172233674105955e+000	 1.085728951330285e+001
 3.570760792711000e+000	 2.211259032598791e+000	 1.085963769102163e+001
 3.546431930914687e+000	 2.250070893948701e+000	 1.086356120429349e+001
 3.521651124484179e+000	 2.288661441927229e+000	 1.086824078643405e+001
 3.496421270358105e+000	 2.327022902821664e+000	 1.087289474075243e+001
 3.470745441682317e+000	 2.365147550385902e+000	 1.087677838917329e+001
 3.444626886934159e+000	 2.403027710782308e+000	 1.087918272445965e+001
 3.418069028881694e+000	 2.440655767508218e+000	 1.087943225784960e+001
 3.686766569830242e+000	 2.066996949951050e+000	 1.085309224528016e+001
 3.664128073655406e+000	 2.106867110874977e+000	 1.084841849230700e+001
 3.641024886972017e+000	 2.146546223512473e+000	 1.084797892298952e+001
 3.617459210305964e+000	 2.186026323538118e+000	 1.085072794890335e+001
 3.593433423380952e+000	 2.225299474474157e+000	 1.085565492860380e+001
 3.568950084897113e+000	 2.264357772662104e+000	 1.086178622233051e+001
 3.544011932145869e+000	 2.303193352244159e+000	 1.086818649076305e+001
 3.518621880460040e+000	 2.341798390148219e+000	 1.087395920397827e+001
 3.492783022498508e+000	 2.380165111070181e+000	 1.087824633440830e+001
 3.466498627364913e+000	 2.418285792447177e+000	 1.088022721571213e+001
 3.439772139560280e+000	 2.456152769415362e+000	 1.087911655798206e+001
 3.710028082416403e+000	 2.080038588105279e+000	 1.083750138564558e+001
 3.687246749516119e+000	 2.120160308283864e+000	 1.083545368226830e+001
 3.663997794160271e+000	 2.160089774764248e+000	 1.083762415455746e+001
 3.640283430758890e+000	 2.199818972970387e+000	 1.084286617520690e+001
 3.616106054050469e+000	 2.239339916349606e+000	 1.085006831447161e+001
 3.591468238879172e+000	 2.278644651375572e+000	 1.085815671843117e+001
 3.566372739807267e+000	 2.317725262561140e+000	 1.086609669829014e+001
 3.540822490561769e+000	 2.356573877474813e+000	 1.087289349444294e+001
 3.514820603314581e+000	 2.395182671754490e+000	 1.087759218700287e+001
 3.488370367795641e+000	 2.433543874112068e+000	 1.087927673295972e+001
 3.461475250238931e+000	 2.471649771322521e+000	 1.087706811900664e+001
 3.733289595002063e+000	 2.093080226259743e+000	 1.082209016429811e+001
 3.710365425376351e+000	 2.133453505692957e+000	 1.082230149123800e+001
 3.686970701348075e+000	 2.173633326016202e+000	 1.082671679981487e+001
 3.663107651211415e+000	 2.213611622402808e+000	 1.083410489369821e+001
 3.638778684719643e+000	 2.253380358225186e+000	 1.084326998178825e+001
 3.613986392860959e+000	 2.292931530089151e+000	 1.085305435886527e+001
 3.588733547468467e+000	 2.332257172878210e+000	 1.086234026266145e+001
 3.563023100663379e+000	 2.371349364801481e+000	 1.087005086862601e+001
 3.536858184130619e+000	 2.410200232438856e+000	 1.087515039196891e+001
 3.510242108226418e+000	 2.448801955777006e+000	 1.087664327539073e+001
 3.483178360917712e+000	 2.487146773229715e+000	 1.087357245017143e+001
 3.756551107587308e+000	 2.106121864414475e+000	 1.080723203279334e+001
 3.733484101236187e+000	 2.146746703102297e+000	 1.080933002060553e+001
 3.709943608535523e+000	 2.187176877268380e+000	 1.081561914617127e+001
 3.685931871663629e+000	 2.227404271835431e+000	 1.082479965248647e+001
 3.661451315388570e+000	 2.267420800100942e+000	 1.083560735862153e+001
 3.636504546842563e+000	 2.307218408802881e+000	 1.084681662244629e+001
 3.611094355129561e+000	 2.346789083195411e+000	 1.085724244351189e+001
 3.585223710764961e+000	 2.386124852128255e+000	 1.086574166487267e+001
 3.558895764946705e+000	 2.425217793123309e+000	 1.087121324129309e+001
 3.532113848657318e+000	 2.464060037442008e+000	 1.087259755048542e+001
 3.504881471596690e+000	 2.502643775136959e+000	 1.086887473368759e+001
 3.779812620172219e+000	 2.119163502569507e+000	 1.079325526490396e+001
 3.756602777095718e+000	 2.160039900511925e+000	 1.079686249226974e+001
 3.732916515722703e+000	 2.200720428520827e+000	 1.080464894813315e+001
 3.708756092115632e+000	 2.241196921268303e+000	 1.081526186727080e+001
 3.684123946057342e+000	 2.281461241976922e+000	 1.082738420081560e+001
 3.659022700824081e+000	 2.321505287516808e+000	 1.083973784160970e+001
 3.633455162790639e+000	 2.361320993512780e+000	 1.085108595175213e+001
 3.607424320866601e+000	 2.400900339455171e+000	 1.086023434859503e+001
 3.580933345762923e+000	 2.440235353807876e+000	 1.086603191446914e+001
 3.553985589088419e+000	 2.479318119107100e+000	 1.086737000501094e+001
 3.526584582275933e+000	 2.518140777044271e+000	 1.086318084104062e+001
 3.803074132756878e+000	 2.132205140724873e+000	 1.078044391844099e+001
 3.779721452955028e+000	 2.173333097921881e+000	 1.078517823139522e+001
 3.755889422909708e+000	 2.214263979773591e+000	 1.079408042828657e+001
 3.731580312567512e+000	 2.254989570701471e+000	 1.080575983753958e+001
 3.706796576726056e+000	 2.295501683853173e+000	 1.081886162009757e+001
 3.681540854805606e+000	 2.335792166230976e+000	 1.083207023882460e+001
 3.655815970451795e+000	 2.375852903830359e+000	 1.084411199039135e+001
 3.629624930968387e+000	 2.415675826782264e+000	 1.085375655332755e+001
 3.602970926579354e+000	 2.455252914492586e+000	 1.085981751532740e+001
 3.575857329519798e+000	 2.494576200772307e+000	 1.086115185289227e+001
 3.548287692955509e+000	 2.533637778951668e+000	 1.085665834690141e+001
 3.826335645341370e+000	 2.145246778880604e+000	 1.076903879295972e+001
 3.802840128814207e+000	 2.186626295332208e+000	 1.077451364483728e+001
 3.778862330096630e+000	 2.227807531026718e+000	 1.078414527379642e+001
 3.754404533019363e+000	 2.268782220134982e+000	 1.079651975820583e+001
 3.729469207394803e+000	 2.309542125729741e+000	 1.081025910762260e+001
 3.704059008787234e+000	 2.350079044945431e+000	 1.082402495853607e+001
 3.678176778113121e+000	 2.390384814148185e+000	 1.083652129108504e+001
 3.651825541070408e+000	 2.430451314109564e+000	 1.084649611781273e+001
 3.625008507396083e+000	 2.470270475177467e+000	 1.085274210531966e+001
 3.597729069951527e+000	 2.509834282437645e+000	 1.085409610009262e+001
 3.569990803635482e+000	 2.549134780859165e+000	 1.084943754073863e+001
 3.849597157925778e+000	 2.158288417036733e+000	 1.075923838352446e+001
 3.825958804673342e+000	 2.199919492742945e+000	 1.076506319541987e+001
 3.801835237283558e+000	 2.241351082280250e+000	 1.077503362861223e+001
 3.777228753471282e+000	 2.282574869568885e+000	 1.078772672687198e+001
 3.752141838063679e+000	 2.323582567606674e+000	 1.080175555314943e+001
 3.726577162769055e+000	 2.364365923660214e+000	 1.081577309482810e+001
 3.700537585774706e+000	 2.404916724466300e+000	 1.082847514658959e+001
 3.674026151172752e+000	 2.445226801437109e+000	 1.083860211928494e+001
 3.647046088213191e+000	 2.485288035862547e+000	 1.084493973340894e+001
 3.619600810383687e+000	 2.525092364103140e+000	 1.084631856662894e+001
 3.591693914315921e+000	 2.564631782766780e+000	 1.084161243623004e+001
 3.872858670510183e+000	 2.171330055193294e+000	 1.075119983069777e+001
 3.849077480532520e+000	 2.213212690154133e+000	 1.075698037224033e+001
 3.824808144470584e+000	 2.254894633534237e+000	 1.076689508156045e+001
 3.800052973923359e+000	 2.296367519003226e+000	 1.077952574690809e+001
 3.774814468732780e+000	 2.337623009484017e+000	 1.079349026003120e+001
 3.749095316751166e+000	 2.378652802375369e+000	 1.080744671498649e+001
 3.722898393436643e+000	 2.419448634784743e+000	 1.082009643929508e+001
 3.696226761275508e+000	 2.460002288764932e+000	 1.083018590311256e+001
 3.669083669030763e+000	 2.500305596547853e+000	 1.083650746270713e+001
 3.641472550816350e+000	 2.540350445768814e+000	 1.083789890584410e+001
 3.613397024996893e+000	 2.580128784674530e+000	 1.083324177856544e+001
 3.896120183094670e+000	 2.184371693350318e+000	 1.074503986691200e+001
 3.872196156391830e+000	 2.226505887565815e+000	 1.075037865716681e+001
 3.847781051657799e+000	 2.268438184788724e+000	 1.075983965049551e+001
 3.822877194375687e+000	 2.310160168438054e+000	 1.077202272651774e+001
 3.797487099402197e+000	 2.351663451361817e+000	 1.078556395619532e+001
 3.771613470733660e+000	 2.392939681090942e+000	 1.079913987913345e+001
 3.745259201099026e+000	 2.433980545103553e+000	 1.081147066600036e+001
 3.718427371378765e+000	 2.474777776093068e+000	 1.082132210895037e+001
 3.691121249848881e+000	 2.515323157233418e+000	 1.082750639399624e+001
 3.663344291249593e+000	 2.555608527434688e+000	 1.082888162104923e+001
 3.635100135678463e+000	 2.595625786582433e+000	 1.082435004972889e+001
 3.418069028881694e+000	 2.440655767508218e+000	 1.087943225784960e+001
 3.391075462413564e+000	 2.478024165474663e+000	 1.087801235978814e+001
 3.363649950302459e+000	 2.515125413354498e+000	 1.087645337731440e+001
 3.335796424614757e+000	 2.551952090816394e+000	 1.087569478700017e+001
 3.307518985991763e+000	 2.588496854144156e+000	 1.087311060250756e+001
 3.278821901798353e+000	 2.624752440995853e+000	 1.086411056976705e+001
 3.249709604111268e+000	 2.660711675109583e+000	 1.084883718078645e+001
 3.220186687548850e+000	 2.696367470949601e+000	 1.083029099798889e+001
 3.190257906944268e+000	 2.731712838286568e+000	 1.081442160162973e+001
 3.159928174864604e+000	 2.766740886705848e+000	 1.080285041542242e+001
 3.129202558978380e+000	 2.801444830037749e+000	 1.079718306560826e+001
 3.439772139560280e+000	 2.456152769415362e+000	 1.087911655798206e+001
 3.412607176799092e+000	 2.493758438914534e+000	 1.087536035695390e+001
 3.385007525745849e+000	 2.531095262051196e+000	 1.087052007380681e+001
 3.356977143433667e+000	 2.568155771378457e+000	 1.086553204993275e+001
 3.328520156540966e+000	 2.604932576551025e+000	 1.086123343418016e+001
 3.299640859528343e+000	 2.641418369114568e+000	 1.085271717496987e+001
 3.270343712614112e+000	 2.677605927241350e+000	 1.083748960619415e+001
 3.240633339590237e+000	 2.713488120405851e+000	 1.082132929025014e+001
 3.210514525480814e+000	 2.749057913994119e+000	 1.080735623341717e+001
 3.179992214045371e+000	 2.784308373840668e+000	 1.079709904044482e+001
 3.149071505129704e+000	 2.819232670686875e+000	 1.079217691501956e+001
 3.461475250238931e+000	 2.471649771322521e+000	 1.087706811900664e+001
 3.434138891184774e+000	 2.509492712354419e+000	 1.087136427220088e+001
 3.406365101189476e+000	 2.547065110747905e+000	 1.086372153103183e+001
 3.378157862252898e+000	 2.584359451940527e+000	 1.085504782613101e+001
 3.349521327090561e+000	 2.621368298957908e+000	 1.084627515476681e+001
 3.320459817258793e+000	 2.658084297233307e+000	 1.083743859319418e+001
 3.290977821117469e+000	 2.694500179373151e+000	 1.082429344381768e+001
 3.261079991632188e+000	 2.730608769862154e+000	 1.081108028467177e+001
 3.230771144017953e+000	 2.766402989701746e+000	 1.079939240252797e+001
 3.200056253226749e+000	 2.801875860975598e+000	 1.079074749903209e+001
 3.168940451281644e+000	 2.837020511336151e+000	 1.078675650303021e+001
 3.483178360917712e+000	 2.487146773229715e+000	 1.087357245017143e+001
 3.455670605570664e+000	 2.525226985794328e+000	 1.086628245443309e+001
 3.427722676633388e+000	 2.563034959444632e+000	 1.085629216749373e+001
 3.399338581072477e+000	 2.600563132502614e+000	 1.084445622646720e+001
 3.370522497640566e+000	 2.637804021364806e+000	 1.083165285650019e+001
 3.341278774989704e+000	 2.674750225352065e+000	 1.081893506753766e+001
 3.311611929621332e+000	 2.711394431504983e+000	 1.080933597597387e+001
 3.281526643674675e+000	 2.747729419318503e+000	 1.079952338628005e+001
 3.251027762555652e+000	 2.783748065409440e+000	 1.079051062844590e+001
 3.220120292408699e+000	 2.819443348110626e+000	 1.078378257437275e+001
 3.188809397434151e+000	 2.854808351985561e+000	 1.078092050342112e+001
 3.504881471596690e+000	 2.502643775136959e+000	 1.086887473368759e+001
 3.477202319956819e+000	 2.540961259234274e+000	 1.086033390740989e+001
 3.449080252077623e+000	 2.579004808141385e+000	 1.084842795692923e+001
 3.420519299892435e+000	 2.616766813064721e+000	 1.083393372449108e+001
 3.391523668190997e+000	 2.654239743771723e+000	 1.081765138278779e+001
 3.362097732721079e+000	 2.691416153470844e+000	 1.080185007361646e+001
 3.332246038125688e+000	 2.728288683636842e+000	 1.079259029289094e+001
 3.301973295717676e+000	 2.764850068774895e+000	 1.078662817634597e+001
 3.271284381093876e+000	 2.801093141117196e+000	 1.078068151442981e+001
 3.240184331591174e+000	 2.837010835245738e+000	 1.077618089020161e+001
 3.208678343587174e+000	 2.872596192635087e+000	 1.077465702925862e+001
 3.526584582275933e+000	 2.518140777044271e+000	 1.086318084104062e+001
 3.498734034343295e+000	 2.556695532674269e+000	 1.085369928883120e+001
 3.470437827522229e+000	 2.594974656838175e+000	 1.084028741062595e+001
 3.441700018712803e+000	 2.632970493626854e+000	 1.082362012276924e+001
 3.412524838741869e+000	 2.670675466178660e+000	 1.080442944638888e+001
 3.382916690452920e+000	 2.708082081589644e+000	 1.078724291007070e+001
 3.352880146630526e+000	 2.745182935768729e+000	 1.077615697716598e+001
 3.322419947761167e+000	 2.781970718231322e+000	 1.077235468316315e+001
 3.291540999632590e+000	 2.818438216825003e+000	 1.076986600123079e+001
 3.260248370774131e+000	 2.854578322380923e+000	 1.076790915087404e+001
 3.228547289740662e+000	 2.890384033284712e+000	 1.076794386310718e+001
 3.548287692955509e+000	 2.533637778951668e+000	 1.085665834690141e+001
 3.520265748730149e+000	 2.572429806114325e+000	 1.084652190779396e+001
 3.491795402967247e+000	 2.610944505535007e+000	 1.083199255882297e+001
 3.462880737533613e+000	 2.649174174189019e+000	 1.081361951894300e+001
 3.433526009293200e+000	 2.687111188585622e+000	 1.079282731744829e+001
 3.403735648185230e+000	 2.724748009708466e+000	 1.077503584013447e+001
 3.373514255135836e+000	 2.762077187900638e+000	 1.076256264420317e+001
 3.342866599805126e+000	 2.799091367687780e+000	 1.075716425102489e+001
 3.311797618171762e+000	 2.835783292532855e+000	 1.075801562217598e+001
 3.280312409957529e+000	 2.872145809516169e+000	 1.075892438274675e+001
 3.248416235894569e+000	 2.908171873934421e+000	 1.076074868833086e+001
 3.569990803635482e+000	 2.549134780859165e+000	 1.084943754073863e+001
 3.541797463117435e+000	 2.588164079554456e+000	 1.083890872068942e+001
 3.513152978412723e+000	 2.626914354231893e+000	 1.082362993123173e+001
 3.484061456354891e+000	 2.665377854751221e+000	 1.080400127151573e+001
 3.454527179845005e+000	 2.703546910992609e+000	 1.078309503732940e+001
 3.424554605918010e+000	 2.741413937827308e+000	 1.076511844115856e+001
 3.394148363641605e+000	 2.778971440032568e+000	 1.075169317030506e+001
 3.363313251849528e+000	 2.816212017144263e+000	 1.074446400606683e+001
 3.332054236711353e+000	 2.853128368240739e+000	 1.074507275956054e+001
 3.300376449141319e+000	 2.889713296651464e+000	 1.074917417680931e+001
 3.268285182048843e+000	 2.925959714584197e+000	 1.075302932143753e+001
 3.591693914315921e+000	 2.564631782766780e+000	 1.084161243623004e+001
 3.563329177505210e+000	 2.603898352994674e+000	 1.083093132560730e+001
 3.534510553858698e+000	 2.642884202928839e+000	 1.081525153671517e+001
 3.505242175176669e+000	 2.681581535313462e+000	 1.079518073153251e+001
 3.475528350397301e+000	 2.719982633399626e+000	 1.077510416782801e+001
 3.445373563651263e+000	 2.758079865946171e+000	 1.075734925254011e+001
 3.414782472147825e+000	 2.795865692164516e+000	 1.074339769887325e+001
 3.383759903894350e+000	 2.833332666600767e+000	 1.073476133432073e+001
 3.352310855251333e+000	 2.870473443948651e+000	 1.073296114644877e+001
 3.320440488325465e+000	 2.907280783786795e+000	 1.073859693251344e+001
 3.288154128203432e+000	 2.943747555234022e+000	 1.074473394542150e+001
 3.613397024996893e+000	 2.580128784674530e+000	 1.083324177856544e+001
 3.584860891893529e+000	 2.619632626434988e+000	 1.082262695530928e+001
 3.555868129305218e+000	 2.658854051625854e+000	 1.080687584215999e+001
 3.526422893998978e+000	 2.697785215875753e+000	 1.078758938064765e+001
 3.496529520950103e+000	 2.736418355806673e+000	 1.076869621610717e+001
 3.466192521384992e+000	 2.774745794065056e+000	 1.075155742428463e+001
 3.435416580654481e+000	 2.812759944296480e+000	 1.073749649107896e+001
 3.404206555939567e+000	 2.850453316057285e+000	 1.072787142745090e+001
 3.372567473791665e+000	 2.887818519656581e+000	 1.072405349720345e+001
 3.340504527509918e+000	 2.924848270922150e+000	 1.072740421435226e+001
 3.308023074358291e+000	 2.961535395883882e+000	 1.073580134406258e+001
 3.635100135678463e+000	 2.595625786582433e+000	 1.082435004972889e+001
 3.606392606282453e+000	 2.635366899875415e+000	 1.081399946883185e+001
 3.577225704752324e+000	 2.674823900322948e+000	 1.079858093888440e+001
 3.547603612821848e+000	 2.713988896438097e+000	 1.078105816800073e+001
 3.517530691503432e+000	 2.752854078213755e+000	 1.076368429021318e+001
 3.487011479119201e+000	 2.791411722183962e+000	 1.074754436617386e+001
 3.456050689161568e+000	 2.829654196428459e+000	 1.073378256917688e+001
 3.424653207985159e+000	 2.867573965513814e+000	 1.072358257301328e+001
 3.392824092332315e+000	 2.905163595364520e+000	 1.071814598649919e+001
 3.360568566694637e+000	 2.942415758057519e+000	 1.071866896475754e+001
 3.327892020513366e+000	 2.979323236533758e+000	 1.072616113714172e+001
 3.129202558978380e+000	 2.801444830037749e+000	 1.079718306560826e+001
 3.098090975972703e+000	 2.835812860563197e+000	 1.079250856034587e+001
 3.066594216041264e+000	 2.869843648532129e+000	 1.078323521534958e+001
 3.034717795080714e+000	 2.903530751830148e+000	 1.077003310307319e+001
 3.002467371960544e+000	 2.936867849398260e+000	 1.075359652719016e+001
 2.969848745180576e+000	 2.969848745180576e+000	 1.073462250694911e+001
 2.936867849398261e+000	 3.002467371960544e+000	 1.071378908838984e+001
 2.903530751830149e+000	 3.034717795080714e+000	 1.069173367396279e+001
 2.869843648532130e+000	 3.066594216041263e+000	 1.066903156293061e+001
 2.835812860563197e+000	 3.098090975972703e+000	 1.064617489415567e+001
 2.801444830037748e+000	 3.129202558978380e+000	 1.062355218049450e+001
 3.149071505129704e+000	 2.819232670686875e+000	 1.079217691501956e+001
 3.117762378387155e+000	 2.853818921840275e+000	 1.078781888499446e+001
 3.086065629028769e+000	 2.888065789107530e+000	 1.077859867944627e+001
 3.053986807974516e+000	 2.921966789469875e+000	 1.076524097711709e+001
 3.021531610025019e+000	 2.955515561732601e+000	 1.074849669578179e+001
 2.988705870497813e+000	 2.988705870497813e+000	 1.072912048882012e+001
 2.955515561732601e+000	 3.021531610025020e+000	 1.070784805699064e+001
 2.921966789469876e+000	 3.053986807974515e+000	 1.068537347510539e+001
 2.888065789107530e+000	 3.086065629028767e+000	 1.066232673419760e+001
 2.853818921840277e+000	 3.117762378387154e+000	 1.063925169899433e+001
 2.819232670686876e+000	 3.149071505129704e+000	 1.061658467805107e+001
 3.168940451281644e+000	 2.837020511336151e+000	 1.078675650303021e+001
 3.137433780802209e+000	 2.871824983117554e+000	 1.078279591897261e+001
 3.105537042016849e+000	 2.906287929683185e+000	 1.077364068588806e+001
 3.073255820868856e+000	 2.940402827109916e+000	 1.076009127902998e+001
 3.040595848089982e+000	 2.974163274067317e+000	 1.074297658843611e+001
 3.007562995815484e+000	 3.007562995815484e+000	 1.072313035445646e+001
 2.974163274067317e+000	 3.040595848089982e+000	 1.070136740617678e+001
 2.940402827109917e+000	 3.073255820868856e+000	 1.067845991094755e+001
 2.906287929683185e+000	 3.105537042016848e+000	 1.065511384418335e+001
 2.871824983117555e+000	 3.137433780802209e+000	 1.063194588781067e+001
 2.837020511336151e+000	 3.168940451281644e+000	 1.060946096321468e+001
 3.188809397434151e+000	 2.854808351985561e+000	 1.078092050342112e+001
 3.157105183217814e+000	 2.889831044395010e+000	 1.077745409116159e+001
 3.125008455005450e+000	 2.924510070259066e+000	 1.076839300496256e+001
 3.092524833763677e+000	 2.958838864750235e+000	 1.075463440684540e+001
 3.059660086155382e+000	 2.992810986402366e+000	 1.073710621906272e+001
 3.026420121133541e+000	 3.026420121133540e+000	 1.071674242462677e+001
 2.992810986402366e+000	 3.059660086155382e+000	 1.069445815776326e+001
 2.958838864750236e+000	 3.092524833763677e+000	 1.067112480137376e+001
 2.924510070259066e+000	 3.125008455005449e+000	 1.064754530960883e+001
 2.889831044395010e+000	 3.157105183217813e+000	 1.062442997286157e+001
 2.854808351985561e+000	 3.188809397434151e+000	 1.060237283988946e+001
 3.208678343587174e+000	 2.872596192635087e+000	 1.077465702925862e+001
 3.176776585633915e+000	 2.907837105672620e+000	 1.077179675896049e+001
 3.144479867994519e+000	 2.942732210835145e+000	 1.076287577671770e+001
 3.111793846658931e+000	 2.977274902390801e+000	 1.074890853434753e+001
 3.078724324221171e+000	 3.011458698737709e+000	 1.073094276091201e+001
 3.045277246451941e+000	 3.045277246451941e+000	 1.071003355356495e+001
 3.011458698737709e+000	 3.078724324221171e+000	 1.068721724467453e+001
 2.977274902390801e+000	 3.111793846658930e+000	 1.066348527154593e+001
 2.942732210835145e+000	 3.144479867994518e+000	 1.063975827615497e+001
 2.907837105672621e+000	 3.176776585633915e+000	 1.061686066150641e+001
 2.872596192635087e+000	 3.208678343587173e+000	 1.059549582855167e+001
 3.228547289740662e+000	 2.890384033284712e+000	 1.076794386310718e+001
 3.196447988050458e+000	 2.925843166950362e+000	 1.076581643107438e+001
 3.163951280984001e+000	 2.960954351411394e+000	 1.075709772701762e+001
 3.131062859554560e+000	 2.995710940031577e+000	 1.074293982085132e+001
 3.097788562287297e+000	 3.030106411073305e+000	 1.072453075030006e+001
 3.064134371770635e+000	 3.064134371770636e+000	 1.070306732662531e+001
 3.030106411073305e+000	 3.097788562287297e+000	 1.067972770228065e+001
 2.995710940031576e+000	 3.131062859554559e+000	 1.065564393643733e+001
 2.960954351411395e+000	 3.163951280984000e+000	 1.063187479547772e+001
 2.925843166950363e+000	 3.196447988050458e+000	 1.060937902475324e+001
 2.890384033284712e+000	 3.228547289740663e+000	 1.058898932514545e+001
 3.248416235894569e+000	 2.908171873934421e+000	 1.076074868833086e+001
 3.216119390467393e+000	 2.943849228228216e+000	 1.075949499106777e+001
 3.183422693973840e+000	 2.979176491987786e+000	 1.075105638400021e+001
 3.150331872450513e+000	 3.014146977672529e+000	 1.073674262099045e+001
 3.116852800353711e+000	 3.048754123409113e+000	 1.071790228992883e+001
 3.082991497089580e+000	 3.082991497089580e+000	 1.069589425711190e+001
 3.048754123409114e+000	 3.116852800353712e+000	 1.067205885848868e+001
 3.014146977672530e+000	 3.150331872450512e+000	 1.064768908371538e+001
 2.979176491987787e+000	 3.183422693973839e+000	 1.062400200018846e+001
 2.943849228228217e+000	 3.216119390467392e+000	 1.060211066342120e+001
 2.908171873934422e+000	 3.248416235894569e+000	 1.058299675729010e+001
 3.268285182048843e+000	 2.925959714584197e+000	 1.075302932143753e+001
 3.235790792884662e+000	 2.961855289506158e+000	 1.075280392165104e+001
 3.202894106963984e+000	 2.997398632564292e+000	 1.074473829491908e+001
 3.169600885346736e+000	 3.032583015313621e+000	 1.073031969451334e+001
 3.135917038420363e+000	 3.067401835745095e+000	 1.071107725181912e+001
 3.101848622408730e+000	 3.101848622408731e+000	 1.068855198231737e+001
 3.067401835745095e+000	 3.135917038420363e+000	 1.066426652264221e+001
 3.032583015313622e+000	 3.169600885346736e+000	 1.063969485504334e+001
 2.997398632564291e+000	 3.202894106963981e+000	 1.061623227688683e+001
 2.961855289506159e+000	 3.235790792884661e+000	 1.059516587202111e+001
 2.925959714584196e+000	 3.268285182048841e+000	 1.057764573791351e+001
 3.288154128203432e+000	 2.943747555234022e+000	 1.074473394542150e+001
 3.255462195302214e+000	 2.979861350784167e+000	 1.074570452966857e+001
 3.222365519954375e+000	 3.015620773140882e+000	 1.073811924335393e+001
 3.188869898243179e+000	 3.051019052954823e+000	 1.072366241608623e+001
 3.154981276487200e+000	 3.086049548081208e+000	 1.070406347987252e+001
 3.120705747728038e+000	 3.120705747728039e+000	 1.068106545880453e+001
 3.086049548081208e+000	 3.154981276487199e+000	 1.065639317327945e+001
 3.051019052954824e+000	 3.188869898243178e+000	 1.063172142586807e+001
 3.015620773140883e+000	 3.222365519954375e+000	 1.060864343732808e+001
 2.979861350784168e+000	 3.255462195302214e+000	 1.058863980045027e+001
 2.943747555234023e+000	 3.288154128203432e+000	 1.057304821642067e+001
 3.308023074358291e+000	 2.961535395883882e+000	 1.073580134406258e+001
 3.275133597719994e+000	 2.997867412062220e+000	 1.073814817175934e+001
 3.241836932944962e+000	 3.033842913717531e+000	 1.073116446677347e+001
 3.208138911139784e+000	 3.069455090596099e+000	 1.071675098510370e+001
 3.174045514554174e+000	 3.104697260417412e+000	 1.069685699207792e+001
 3.139562873047458e+000	 3.139562873047459e+000	 1.067344715696259e+001
 3.104697260417412e+000	 3.174045514554175e+000	 1.064846814479771e+001
 3.069455090596098e+000	 3.208138911139783e+000	 1.062381518375719e+001
 3.033842913717530e+000	 3.241836932944961e+000	 1.060129888780362e+001
 2.997867412062221e+000	 3.275133597719993e+000	 1.058261261359382e+001
 2.961535395883882e+000	 3.308023074358290e+000	 1.056930062750070e+001
 3.327892020513366e+000	 2.979323236533758e+000	 1.072616113714172e+001
 3.294805000137952e+000	 3.015873473340294e+000	 1.073007648066159e+001
 3.261308345935689e+000	 3.052065054294209e+000	 1.072382887443664e+001
 3.227407924036499e+000	 3.087891128237413e+000	 1.070955463550573e+001
 3.193109752621236e+000	 3.123344972753669e+000	 1.068944218237753e+001
 3.158419998366947e+000	 3.158419998366947e+000	 1.066569725486842e+001
 3.123344972753668e+000	 3.193109752621235e+000	 1.064050781307030e+001
 3.087891128237413e+000	 3.227407924036498e+000	 1.061600890534646e+001
 3.052065054294209e+000	 3.261308345935689e+000	 1.059424779680919e+001
 3.015873473340296e+000	 3.294805000137950e+000	 1.057714964891967e+001
 2.979323236533757e+000	 3.327892020513365e+000	 1.056648403767129e+001
 2.801444830037748e+000	 3.129202558978380e+000	 1.062355218049450e+001
 2.766740886705849e+000	 3.159928174864604e+000	 1.059861310128887e+001
 2.731712838286569e+000	 3.190257906944266e+000	 1.056963601465955e+001
 2.696367470949602e+000	 3.220186687548848e+000	 1.053805466895287e+001
 2.660711675109584e+000	 3.249709604111267e+000	 1.050521097321605e+001
 2.624752440995853e+000	 3.278821901798352e+000	 1.047447955585959e+001
 2.588496854144156e+000	 3.307518985991762e+000	 1.044726334251723e+001
 2.551952090816395e+000	 3.335796424614756e+000	 1.042332386940019e+001
 2.515125413354500e+000	 3.363649950302459e+000	 1.039876524221510e+001
 2.478024165474664e+000	 3.391075462413564e+000	 1.037187783663789e+001
 2.440655767508217e+000	 3.418069028881693e+000	 1.034398298461471e+001
 2.819232670686876e+000	 3.149071505129704e+000	 1.061658467805107e+001
 2.784308373840670e+000	 3.179992214045370e+000	 1.059203020367530e+001
 2.749057913994120e+000	 3.210514525480812e+000	 1.056405643431837e+001
 2.713488120405852e+000	 3.240633339590236e+000	 1.053403861837387e+001
 2.677605927241352e+000	 3.270343712614111e+000	 1.050319833079323e+001
 2.641418369114570e+000	 3.299640859528343e+000	 1.047343501993608e+001
 2.604932576551026e+000	 3.328520156540965e+000	 1.044760478036212e+001
 2.568155771378458e+000	 3.356977143433667e+000	 1.042310096205069e+001
 2.531095262051198e+000	 3.385007525745848e+000	 1.039590113876380e+001
 2.493758438914536e+000	 3.412607176799092e+000	 1.036714007590004e+001
 2.456152769415361e+000	 3.439772139560280e+000	 1.033807999180739e+001
 2.837020511336151e+000	 3.168940451281644e+000	 1.060946096321468e+001
 2.801875860975600e+000	 3.200056253226749e+000	 1.058562876174712e+001
 2.766402989701746e+000	 3.230771144017953e+000	 1.055909090893658e+001
 2.730608769862155e+000	 3.261079991632187e+000	 1.053114443324674e+001
 2.694500179373153e+000	 3.290977821117469e+000	 1.050292458627735e+001
 2.658084297233307e+000	 3.320459817258792e+000	 1.047548120407367e+001
 2.621368298957909e+000	 3.349521327090560e+000	 1.045039042692687e+001
 2.584359451940528e+000	 3.378157862252897e+000	 1.042297915779564e+001
 2.547065110747906e+000	 3.406365101189476e+000	 1.039354996469676e+001
 2.509492712354420e+000	 3.434138891184773e+000	 1.036326272484335e+001
 2.471649771322521e+000	 3.461475250238931e+000	 1.033329856216785e+001
 2.854808351985561e+000	 3.188809397434151e+000	 1.060237283988946e+001
 2.819443348110627e+000	 3.220120292408697e+000	 1.057961733112977e+001
 2.783748065409441e+000	 3.251027762555652e+000	 1.055496094906798e+001
 2.747729419318505e+000	 3.281526643674674e+000	 1.052960320212625e+001
 2.711394431504984e+000	 3.311611929621331e+000	 1.050457311085454e+001
 2.674750225352067e+000	 3.341278774989703e+000	 1.048038374047265e+001
 2.637804021364808e+000	 3.370522497640566e+000	 1.045278948106064e+001
 2.600563132502616e+000	 3.399338581072476e+000	 1.042280960216127e+001
 2.563034959444632e+000	 3.427722676633386e+000	 1.039155069312626e+001
 2.525226985794328e+000	 3.455670605570663e+000	 1.036006988990171e+001
 2.487146773229715e+000	 3.483178360917711e+000	 1.032944559813958e+001
 2.872596192635087e+000	 3.208678343587173e+000	 1.059549582855167e+001
 2.837010835245740e+000	 3.240184331591173e+000	 1.057418780901052e+001
 2.801093141117199e+000	 3.271284381093875e+000	 1.055187117142076e+001
 2.764850068774896e+000	 3.301973295717675e+000	 1.052962901818237e+001
 2.728288683636843e+000	 3.332246038125688e+000	 1.050836464066401e+001
 2.691416153470845e+000	 3.362097732721078e+000	 1.048445888182398e+001
 2.654239743771723e+000	 3.391523668190995e+000	 1.045457299743107e+001
 2.616766813064722e+000	 3.420519299892435e+000	 1.042246114771380e+001
 2.579004808141386e+000	 3.449080252077623e+000	 1.038976061628446e+001
 2.540961259234274e+000	 3.477202319956819e+000	 1.035740467666527e+001
 2.502643775136959e+000	 3.504881471596690e+000	 1.032634774019885e+001
 2.890384033284712e+000	 3.228547289740663e+000	 1.058898932514545e+001
 2.854578322380924e+000	 3.260248370774130e+000	 1.056951558087703e+001
 2.818438216825004e+000	 3.291540999632589e+000	 1.055000942998367e+001
 2.781970718231322e+000	 3.322419947761165e+000	 1.053141909158883e+001
 2.745182935768729e+000	 3.352880146630526e+000	 1.051240455621186e+001
 2.708082081589645e+000	 3.382916690452919e+000	 1.048675544975133e+001
 2.670675466178661e+000	 3.412524838741868e+000	 1.045561900768168e+001
 2.632970493626856e+000	 3.441700018712803e+000	 1.042181995686855e+001
 2.594974656838176e+000	 3.470437827522228e+000	 1.038805493053028e+001
 2.556695532674270e+000	 3.498734034343295e+000	 1.035512875618069e+001
 2.518140777044271e+000	 3.526584582275933e+000	 1.032385091384407e+001
 2.908171873934422e+000	 3.248416235894569e+000	 1.058299675729010e+001
 2.872145809516170e+000	 3.280312409957526e+000	 1.056575966435765e+001
 2.835783292532856e+000	 3.311797618171760e+000	 1.054954694417618e+001
 2.799091367687780e+000	 3.342866599805124e+000	 1.053463404100979e+001
 2.762077187900638e+000	 3.373514255135835e+000	 1.051420638118770e+001
 2.724748009708467e+000	 3.403735648185228e+000	 1.048726094953648e+001
 2.687111188585623e+000	 3.433526009293199e+000	 1.045547750289218e+001
 2.649174174189021e+000	 3.462880737533611e+000	 1.042078910295273e+001
 2.610944505535009e+000	 3.491795402967246e+000	 1.038632632010738e+001
 2.572429806114326e+000	 3.520265748730147e+000	 1.035312193055846e+001
 2.533637778951668e+000	 3.548287692955509e+000	 1.032181987649681e+001
 2.925959714584196e+000	 3.268285182048841e+000	 1.057764573791351e+001
 2.889713296651466e+000	 3.300376449141320e+000	 1.056306285028722e+001
 2.853128368240741e+000	 3.332054236711353e+000	 1.055063842414923e+001
 2.816212017144264e+000	 3.363313251849527e+000	 1.053583147390615e+001
 2.778971440032569e+000	 3.394148363641605e+000	 1.051377275379150e+001
 2.741413937827309e+000	 3.424554605918008e+000	 1.048597896399188e+001
 2.703546910992610e+000	 3.454527179845004e+000	 1.045397835936376e+001
 2.665377854751222e+000	 3.484061456354890e+000	 1.041928816959647e+001
 2.626914354231894e+000	 3.513152978412722e+000	 1.038448453970601e+001
 2.588164079554457e+000	 3.541797463117434e+000	 1.035128169791681e+001
 2.549134780859165e+000	 3.569990803635482e+000	 1.032013776431805e+001
 2.943747555234023e+000	 3.288154128203432e+000	 1.057304821642067e+001
 2.907280783786796e+000	 3.320440488325464e+000	 1.056155184111528e+001
 2.870473443948652e+000	 3.352310855251331e+000	 1.055130074049789e+001
 2.833332666600767e+000	 3.383759903894348e+000	 1.053437123348555e+001
 2.795865692164517e+000	 3.414782472147823e+000	 1.051112718746550e+001
 2.758079865946172e+000	 3.445373563651261e+000	 1.048292831833025e+001
 2.719982633399626e+000	 3.475528350397299e+000	 1.045113281949958e+001
 2.681581535313464e+000	 3.505242175176668e+000	 1.041708230865041e+001
 2.642884202928839e+000	 3.534510553858696e+000	 1.038245599587957e+001
 2.603898352994674e+000	 3.563329177505208e+000	 1.034952281668985e+001
 2.564631782766780e+000	 3.591693914315921e+000	 1.031870563894322e+001
 2.961535395883882e+000	 3.308023074358290e+000	 1.056930062750070e+001
 2.924848270922151e+000	 3.340504527509917e+000	 1.056102832443547e+001
 2.887818519656582e+000	 3.372567473791665e+000	 1.054892101718564e+001
 2.850453316057287e+000	 3.404206555939566e+000	 1.053029212540399e+001
 2.812759944296480e+000	 3.435416580654480e+000	 1.050630724870645e+001
 2.774745794065057e+000	 3.466192521384991e+000	 1.047814224282017e+001
 2.736418355806673e+000	 3.496529520950103e+000	 1.044696699408110e+001
 2.697785215875754e+000	 3.526422893998977e+000	 1.041393028318969e+001
 2.658854051625856e+000	 3.555868129305217e+000	 1.038018332736390e+001
 2.619632626434989e+000	 3.584860891893528e+000	 1.034777686932715e+001
 2.580128784674530e+000	 3.613397024996892e+000	 1.031744203413955e+001
 2.979323236533757e+000	 3.327892020513365e+000	 1.056648403767129e+001
 2.942415758057519e+000	 3.360568566694637e+000	 1.055807605583770e+001
 2.905163595364522e+000	 3.392824092332316e+000	 1.054353972183346e+001
 2.867573965513815e+000	 3.424653207985158e+000	 1.052364594983844e+001
 2.829654196428458e+000	 3.456050689161565e+000	 1.049936372520504e+001
 2.791411722183963e+000	 3.487011479119198e+000	 1.047166753332011e+001
 2.752854078213757e+000	 3.517530691503431e+000	 1.044152101427696e+001
 2.713988896438098e+000	 3.547603612821848e+000	 1.040986176672146e+001
 2.674823900322949e+000	 3.577225704752323e+000	 1.037758740006536e+001
 2.635366899875415e+000	 3.606392606282451e+000	 1.034599182541003e+001
 2.595625786582433e+000	 3.635100135678463e+000	 1.031628250238907e+001
 2.440655767508217e+000	 3.418069028881693e+000	 1.034398298461471e+001
 2.403027710782309e+000	 3.444626886934158e+000	 1.031677916249576e+001
 2.365147550385903e+000	 3.470745441682316e+000	 1.029051851595545e+001
 2.327022902821665e+000	 3.496421270358104e+000	 1.026435558723778e+001
 2.288661441927231e+000	 3.521651124484178e+000	 1.023743234884892e+001
 2.250070893948702e+000	 3.546431930914686e+000	 1.020887515533290e+001
 2.211259032598793e+000	 3.570760792710999e+000	 1.017779229155106e+001
 2.172233674105956e+000	 3.594634989852544e+000	 1.014327212927528e+001
 2.133002672260833e+000	 3.618051979783224e+000	 1.010438189705510e+001
 2.093573913466256e+000	 3.641009397794123e+000	 1.006016706159219e+001
 2.053955311797024e+000	 3.663505057243499e+000	 1.000965131231364e+001
 2.456152769415361e+000	 3.439772139560280e+000	 1.033807999180739e+001
 2.418285792447179e+000	 3.466498627364913e+000	 1.031026886322787e+001
 2.380165111070181e+000	 3.492783022498506e+000	 1.028383192025270e+001
 2.341798390148221e+000	 3.518621880460039e+000	 1.025790006919995e+001
 2.303193352244160e+000	 3.544011932145867e+000	 1.023159151013848e+001
 2.264357772662105e+000	 3.568950084897113e+000	 1.020400862110878e+001
 2.225299474474158e+000	 3.593433423380951e+000	 1.017423546911051e+001
 2.186026323538119e+000	 3.617459210305963e+000	 1.014133595976891e+001
 2.146546223512476e+000	 3.641024886972018e+000	 1.010435263043446e+001
 2.106867110874978e+000	 3.664128073655407e+000	 1.006230608444259e+001
 2.066996949951050e+000	 3.686766569830242e+000	 1.001419505743018e+001
 2.471649771322521e+000	 3.461475250238931e+000	 1.033329856216785e+001
 2.433543874112069e+000	 3.488370367795640e+000	 1.030504083926199e+001
 2.395182671754491e+000	 3.514820603314580e+000	 1.027849734082028e+001
 2.356573877474815e+000	 3.540822490561768e+000	 1.025278871753969e+001
 2.317725262561142e+000	 3.566372739807267e+000	 1.022702285378699e+001
 2.278644651375573e+000	 3.591468238879171e+000	 1.020029165462409e+001
 2.239339916349608e+000	 3.616106054050468e+000	 1.017166849130553e+001
 2.199818972970387e+000	 3.640283430758889e+000	 1.014020631731288e+001
 2.160089774764249e+000	 3.663997794160270e+000	 1.010493645951390e+001
 2.120160308283866e+000	 3.687246749516119e+000	 1.006486808169537e+001
 2.080038588105279e+000	 3.710028082416402e+000	 1.001898831058419e+001
 2.487146773229715e+000	 3.483178360917711e+000	 1.032944559813958e+001
 2.448801955777006e+000	 3.510242108226416e+000	 1.030088495728860e+001
 2.410200232438857e+000	 3.536858184130618e+000	 1.027428983326690e+001
 2.371349364801481e+000	 3.563023100663378e+000	 1.024878367659622e+001
 2.332257172878212e+000	 3.588733547468467e+000	 1.022347718120303e+001
 2.292931530089151e+000	 3.613986392860957e+000	 1.019746494489212e+001
 2.253380358225186e+000	 3.638778684719642e+000	 1.016982282148456e+001
 2.213611622402810e+000	 3.663107651211412e+000	 1.013960597688912e+001
 2.173633326016204e+000	 3.686970701348075e+000	 1.010584765356633e+001
 2.133453505692959e+000	 3.710365425376349e+000	 1.006755864018044e+001
 2.093080226259744e+000	 3.733289595002064e+000	 1.002372743578779e+001
 2.502643775136959e+000	 3.504881471596690e+000	 1.032634774019885e+001
 2.464060037442009e+000	 3.532113848657317e+000	 1.029761155711736e+001
 2.425217793123310e+000	 3.558895764946705e+000	 1.027100560580845e+001
 2.386124852128257e+000	 3.585223710764961e+000	 1.024566887407189e+001
 2.346789083195412e+000	 3.611094355129560e+000	 1.022072766590308e+001
 2.307218408802882e+000	 3.636504546842561e+000	 1.019529210633423e+001
 2.267420800100944e+000	 3.661451315388570e+000	 1.016845337266637e+001
 2.227404271835432e+000	 3.685931871663629e+000	 1.013928166461531e+001
 2.187176877268380e+000	 3.709943608535522e+000	 1.010682491773848e+001
 2.146746703102298e+000	 3.733484101236187e+000	 1.007010825650918e+001
 2.106121864414475e+000	 3.756551107587308e+000	 1.002813417563062e+001
 2.518140777044271e+000	 3.526584582275933e+000	 1.032385091384407e+001
 2.479318119107102e+000	 3.553985589088418e+000	 1.029505098069079e+001
 2.440235353807877e+000	 3.580933345762921e+000	 1.026846153323947e+001
 2.400900339455172e+000	 3.607424320866600e+000	 1.024324952268055e+001
 2.361320993512782e+000	 3.633455162790638e+000	 1.021856934533737e+001
 2.321505287516810e+000	 3.659022700824080e+000	 1.019355916306277e+001
 2.281461241976924e+000	 3.684123946057341e+000	 1.016733798633516e+001
 2.241196921268304e+000	 3.708756092115631e+000	 1.013900353287956e+001
 2.200720428520829e+000	 3.732916515722703e+000	 1.010763086612402e+001
 2.160039900511926e+000	 3.756602777095717e+000	 1.007227180945161e+001
 2.119163502569507e+000	 3.779812620172219e+000	 1.003195512409404e+001
 2.533637778951668e+000	 3.548287692955509e+000	 1.032181987649681e+001
 2.494576200772307e+000	 3.575857329519796e+000	 1.029305310159155e+001
 2.455252914492587e+000	 3.602970926579353e+000	 1.026649467189973e+001
 2.415675826782265e+000	 3.629624930968386e+000	 1.024135162321954e+001
 2.375852903830360e+000	 3.655815970451794e+000	 1.021681861450330e+001
 2.335792166230979e+000	 3.681540854805606e+000	 1.019207403525855e+001
 2.295501683853174e+000	 3.706796576726054e+000	 1.016627691358837e+001
 2.254989570701473e+000	 3.731580312567512e+000	 1.013856463804609e+001
 2.214263979773593e+000	 3.755889422909709e+000	 1.010805149759283e+001
 2.173333097921883e+000	 3.779721452955028e+000	 1.007382803523191e+001
 2.132205140724873e+000	 3.803074132756878e+000	 1.003496120242876e+001
 2.549134780859165e+000	 3.569990803635482e+000	 1.032013776431805e+001
 2.509834282437646e+000	 3.597729069951526e+000	 1.029148685502248e+001
 2.470270475177468e+000	 3.625008507396082e+000	 1.026496177559335e+001
 2.430451314109565e+000	 3.651825541070407e+000	 1.023982146900448e+001
 2.390384814148185e+000	 3.678176778113119e+000	 1.021531272126983e+001
 2.350079044945432e+000	 3.704059008787233e+000	 1.019066602755326e+001
 2.309542125729743e+000	 3.729469207394803e+000	 1.016509229853715e+001
 2.268782220134983e+000	 3.754404533019363e+000	 1.013778042062252e+001
 2.227807531026719e+000	 3.778862330096628e+000	 1.010789567425984e+001
 2.186626295332208e+000	 3.802840128814206e+000	 1.007457900561770e+001
 2.145246778880603e+000	 3.826335645341369e+000	 1.003694713796596e+001
 2.564631782766780e+000	 3.591693914315921e+000	 1.031870563894322e+001
 2.525092364103141e+000	 3.619600810383686e+000	 1.029023976823914e+001
 2.485288035862548e+000	 3.647046088213191e+000	 1.026373881242045e+001
 2.445226801437110e+000	 3.674026151172752e+000	 1.023852515160929e+001
 2.404916724466302e+000	 3.700537585774705e+000	 1.021390926334084e+001
 2.364365923660214e+000	 3.726577162769055e+000	 1.018918531933256e+001
 2.323582567606676e+000	 3.752141838063679e+000	 1.016362766386441e+001
 2.282574869568885e+000	 3.777228753471281e+000	 1.013648818778438e+001
 2.241351082280252e+000	 3.801835237283556e+000	 1.010699460248164e+001
 2.199919492742946e+000	 3.825958804673341e+000	 1.007434960868527e+001
 2.158288417036733e+000	 3.849597157925776e+000	 1.003773094573726e+001
 2.580128784674530e+000	 3.613397024996892e+000	 1.031744203413955e+001
 2.540350445768814e+000	 3.641472550816349e+000	 1.028921749141612e+001
 2.500305596547856e+000	 3.669083669030762e+000	 1.026272048248248e+001
 2.460002288764933e+000	 3.696226761275507e+000	 1.023734806785674e+001
 2.419448634784744e+000	 3.722898393436643e+000	 1.021248568678812e+001
 2.378652802375370e+000	 3.749095316751165e+000	 1.018750245687847e+001
 2.337623009484018e+000	 3.774814468732779e+000	 1.016174739844947e+001
 2.296367519003227e+000	 3.800052973923357e+000	 1.013454659815798e+001
 2.254894633534239e+000	 3.824808144470582e+000	 1.010520131627420e+001
 2.213212690154134e+000	 3.849077480532518e+000	 1.007298703214797e+001
 2.171330055193293e+000	 3.872858670510183e+000	 1.003715341278603e+001
 2.595625786582433e+000	 3.635100135678463e+000	 1.031628250238907e+001
 2.555608527434690e+000	 3.663344291249594e+000	 1.028834332892874e+001
 2.515323157233419e+000	 3.691121249848880e+000	 1.026181973642527e+001
 2.474777776093069e+000	 3.718427371378764e+000	 1.023619442800695e+001
 2.433980545103553e+000	 3.745259201099025e+000	 1.021093878608907e+001
 2.392939681090943e+000	 3.771613470733658e+000	 1.018550784727483e+001
 2.351663451361819e+000	 3.797487099402198e+000	 1.015933624697307e+001
 2.310160168438055e+000	 3.822877194375687e+000	 1.013183514876712e+001
 2.268438184788725e+000	 3.847781051657798e+000	 1.010239016305115e+001
 2.226505887565816e+000	 3.872196156391828e+000	 1.007036024914106e+001
 2.184371693350319e+000	 3.896120183094671e+000	 1.003507758505695e+001
 2.053955311797024e+000	 3.663505057243499e+000	 1.000965131231364e+001
 2.014160787468252e+000	 3.685533680363033e+000	 9.953211461330964e+000
 1.974192364944430e+000	 3.707096848820648e+000	 9.895311420877665e+000
 1.934058010402448e+000	 3.728192913598082e+000	 9.850093747695238e+000
 1.893765698057604e+000	 3.748820402933820e+000	 9.815666514534513e+000
 1.853323405364218e+000	 3.768978021749816e+000	 9.788772441155691e+000
 1.812739108261146e+000	 3.788664650926863e+000	 9.766267013165502e+000
 1.772020776467593e+000	 3.807879346431335e+000	 9.745114447895398e+000
 1.731176368834389e+000	 3.826621338296154e+000	 9.722384087638922e+000
 1.690213828755850e+000	 3.844890029459103e+000	 9.695247345382697e+000
 1.649141079647045e+000	 3.862684994461762e+000	 9.660975313259735e+000
 2.066996949951050e+000	 3.686766569830242e+000	 1.001419505743018e+001
 2.026949749342556e+000	 3.708935064216883e+000	 9.960655233438622e+000
 1.986727546368357e+000	 3.730635148526093e+000	 9.902887536925501e+000
 1.946338357786760e+000	 3.751865163269136e+000	 9.854558856355803e+000
 1.905790208445514e+000	 3.772623627339523e+000	 9.817448027556944e+000
 1.865091126451959e+000	 3.792909237436088e+000	 9.788341359473828e+000
 1.824249138388352e+000	 3.812720867333757e+000	 9.764140434159609e+000
 1.783272264577800e+000	 3.832057567004750e+000	 9.741857132721103e+000
 1.742168514406034e+000	 3.850918561593067e+000	 9.718609146694409e+000
 1.700945881704123e+000	 3.869303250245444e+000	 9.691616107585144e+000
 1.659612340197034e+000	 3.887211204802014e+000	 9.658196451557940e+000
 2.080038588105279e+000	 3.710028082416402e+000	 1.001898831058419e+001
 2.039738711217104e+000	 3.732336448070155e+000	 9.968208434889579e+000
 1.999262727792577e+000	 3.754173448230980e+000	 9.912861623098081e+000
 1.958618705171412e+000	 3.775537412939671e+000	 9.861918400321256e+000
 1.917814718833812e+000	 3.796426851744759e+000	 9.822650573613570e+000
 1.876858847540135e+000	 3.816840453121952e+000	 9.791886228385023e+000
 1.835759168516034e+000	 3.836777083740314e+000	 9.766569672703742e+000
 1.794523752688518e+000	 3.856235787577902e+000	 9.743755495040702e+000
 1.753160659978214e+000	 3.875215784889802e+000	 9.720603170885770e+000
 1.711677934652944e+000	 3.893716471031693e+000	 9.694372358793146e+000
 1.670083600747572e+000	 3.911737415142254e+000	 9.662419009789041e+000
 2.093080226259744e+000	 3.733289595002064e+000	 1.002372743578779e+001
 2.052527673091920e+000	 3.755737831922926e+000	 9.975547299884866e+000
 2.011797909217094e+000	 3.777711747935385e+000	 9.923680821848842e+000
 1.970899052556393e+000	 3.799209662609751e+000	 9.871416416154228e+000
 1.929839229222468e+000	 3.820230076149580e+000	 9.830436647551494e+000
 1.888626568628695e+000	 3.840771668807453e+000	 9.798467935296824e+000
 1.847269198644121e+000	 3.860833300146565e+000	 9.772494311134651e+000
 1.805775240799659e+000	 3.880414008150813e+000	 9.749608488933623e+000
 1.764152805550827e+000	 3.899513008186365e+000	 9.727005541420068e+000
 1.722409987602202e+000	 3.918129691817841e+000	 9.701977343301170e+000
 1.680554861298541e+000	 3.936263625482468e+000	 9.671907911856216e+000
 2.106121864414475e+000	 3.756551107587308e+000	 1.002813417563062e+001
 2.065316634967020e+000	 3.779139215775277e+000	 9.982374158069639e+000
 2.024333090641914e+000	 3.801250047639374e+000	 9.933810553712741e+000
 1.983179399941690e+000	 3.822881912279438e+000	 9.882332142549929e+000
 1.941863739611454e+000	 3.844033300554041e+000	 9.840002981589315e+000
 1.900394289717593e+000	 3.864702884492638e+000	 9.807181127239087e+000
 1.858779228772550e+000	 3.884889516552548e+000	 9.780887710921832e+000
 1.817026728911141e+000	 3.904592228723510e+000	 9.758249373897854e+000
 1.775144951123779e+000	 3.923810231482770e+000	 9.736490986729804e+000
 1.733142040551790e+000	 3.942542912603888e+000	 9.712929217894885e+000
 1.691026121849827e+000	 3.960789835822633e+000	 9.684967089976276e+000
 2.119163502569507e+000	 3.779812620172219e+000	 1.003195512409404e+001
 2.078105596842430e+000	 3.802540599627279e+000	 9.988416901058688e+000
 2.036868272067042e+000	 3.824788347343020e+000	 9.942936365445080e+000
 1.995459747327294e+000	 3.846554161948797e+000	 9.893982131083973e+000
 1.953888250000736e+000	 3.867836524958199e+000	 9.850582516608034e+000
 1.912162010806776e+000	 3.888634100177547e+000	 9.817156027501945e+000
 1.870289258901251e+000	 3.908945732958296e+000	 9.790758659689253e+000
 1.828278217022879e+000	 3.928770449296015e+000	 9.768547177535220e+000
 1.786137096696968e+000	 3.948107454779024e+000	 9.747770846353433e+000
 1.743874093501597e+000	 3.966956133389827e+000	 9.725764102720106e+000
 1.701497382401312e+000	 3.985316046162736e+000	 9.699940308598906e+000
 2.132205140724873e+000	 3.803074132756878e+000	 1.003496120242876e+001
 2.090894558718166e+000	 3.825941983479015e+000	 9.993428452442794e+000
 2.049403453492485e+000	 3.848326647046395e+000	 9.950773545557974e+000
 2.007740094713190e+000	 3.870226411617893e+000	 9.905422356372933e+000
 1.965912760390285e+000	 3.891639749362105e+000	 9.861446381495323e+000
 1.923929731896196e+000	 3.912565315862232e+000	 9.827560262955061e+000
 1.881799289030157e+000	 3.933001949363844e+000	 9.801153032094893e+000
 1.839529705134789e+000	 3.952948669868349e+000	 9.779408175817212e+000
 1.797129242270296e+000	 3.972404678075142e+000	 9.759594356662731e+000
 1.754606146451512e+000	 3.991369354175659e+000	 9.739057158804028e+000
 1.711968642952877e+000	 4.009842256502755e+000	 9.715002974165563e+000
 2.145246778880603e+000	 3.826335645341369e+000	 1.003694713796596e+001
 2.103683520594251e+000	 3.849343367330560e+000	 9.997186241127544e+000
 2.061938634918248e+000	 3.871864946749569e+000	 9.957063041808286e+000
 2.020020442099369e+000	 3.893898661286784e+000	 9.915067597428918e+000
 1.977937270780072e+000	 3.915442973765818e+000	 9.871905880200497e+000
 1.935697452985805e+000	 3.936496531546734e+000	 9.837600701593356e+000
 1.893309319159200e+000	 3.957058165769228e+000	 9.811155463978501e+000
 1.850781193246786e+000	 3.977126890440537e+000	 9.789777390183410e+000
 1.808121387843664e+000	 3.996701901371129e+000	 9.770749957506704e+000
 1.765338199401425e+000	 4.015782574961380e+000	 9.750867169902957e+000
 1.722439903504408e+000	 4.034368466842676e+000	 9.726978213846472e+000
 2.158288417036733e+000	 3.849597157925776e+000	 1.003773094573726e+001
 2.116472482470704e+000	 3.872744751181992e+000	 9.999491677863796e+000
 2.074473816344336e+000	 3.895403246452611e+000	 9.961570919795385e+000
 2.032300789485816e+000	 3.917570910955538e+000	 9.922519943394230e+000
 1.989961781170065e+000	 3.939246198169390e+000	 9.881314486173963e+000
 1.947465174075554e+000	 3.960427747231101e+000	 9.846525299876941e+000
 1.904819349288315e+000	 3.981114382174480e+000	 9.819891039215875e+000
 1.862032681358787e+000	 4.001305111012601e+000	 9.798635773399109e+000
 1.819113533416974e+000	 4.020999124666998e+000	 9.779064734365893e+000
 1.776070252351229e+000	 4.040195795746985e+000	 9.758343546738733e+000
 1.732911164055787e+000	 4.058894677182479e+000	 9.734779863920640e+000
 2.171330055193293e+000	 3.872858670510183e+000	 1.003715341278603e+001
 2.129261444347548e+000	 3.896146135033388e+000	 1.000016963483557e+001
 2.087008997770753e+000	 3.918941546155595e+000	 9.964087825469591e+000
 2.044581136872523e+000	 3.941243160624216e+000	 9.927517421633965e+000
 2.001986291560235e+000	 3.963049422572877e+000	 9.889054227321113e+000
 1.959232895165392e+000	 3.984358962915374e+000	 9.853624959453212e+000
 1.916329379417430e+000	 4.005170598579636e+000	 9.826459632157871e+000
 1.873284169470707e+000	 4.025483331584564e+000	 9.803542455987675e+000
 1.830105678990129e+000	 4.045296347962763e+000	 9.782294055098719e+000
 1.786802305300810e+000	 4.064609016532471e+000	 9.760947088905436e+000
 1.743382424606897e+000	 4.083420887522148e+000	 9.737875597283772e+000
 2.184371693350319e+000	 3.896120183094671e+000	 1.003507758505695e+001
 2.142050406224803e+000	 3.919547518884829e+000	 9.999067928177642e+000
 2.099544179197507e+000	 3.942479845858590e+000	 9.964428451387391e+000
 2.056861484259475e+000	 3.964915410292883e+000	 9.929823623937809e+000
 2.014010801950551e+000	 3.986852646976334e+000	 9.893892387620003e+000
 1.971000616255269e+000	 4.008290178599601e+000	 9.858064638988600e+000
 1.927839409546483e+000	 4.029226814984732e+000	 9.828336471972417e+000
 1.884535657582463e+000	 4.049661552156453e+000	 9.803004911961851e+000
 1.841097824563027e+000	 4.069593571258430e+000	 9.780241308906994e+000
 1.797534358250062e+000	 4.089022237317838e+000	 9.758349272365626e+000
 1.753853685157622e+000	 4.107947097861664e+000	 9.735761635569883e+000
 1.649141079647045e+000	 3.862684994461762e+000	 9.660975313259735e+000
 1.607959836669317e+000	 3.880008541358522e+000	 9.621420909702582e+000
 1.566684128643885e+000	 3.896857880884244e+000	 9.580541554974449e+000
 1.525321798057408e+000	 3.913233096336334e+000	 9.538843688621283e+000
 1.483880649957764e+000	 3.929134436186639e+000	 9.496861576516523e+000
 1.442368447821711e+000	 3.944562312133357e+000	 9.455155846538890e+000
 1.400792909513494e+000	 3.959517297036672e+000	 9.414313189674569e+000
 1.359161703337863e+000	 3.974000122742365e+000	 9.374947225221995e+000
 1.317482444190802e+000	 3.988011677797904e+000	 9.338273941109204e+000
 1.275762689811020e+000	 4.001553005065472e+000	 9.309702951192499e+000
 1.234009937135045e+000	 4.014625299236578e+000	 9.288975007060223e+000
 1.659612340197034e+000	 3.887211204802014e+000	 9.658196451557940e+000
 1.618169615936555e+000	 3.904644747972214e+000	 9.619928303356797e+000
 1.576631826820247e+000	 3.921601072780403e+000	 9.580438906231514e+000
 1.535006865130830e+000	 3.938080263052889e+000	 9.540184356428693e+000
 1.493302585474528e+000	 3.954082568839193e+000	 9.499629768099158e+000
 1.451526800622490e+000	 3.969608404451609e+000	 9.459247892312535e+000
 1.409687277443731e+000	 3.984658346387704e+000	 9.419519016064877e+000
 1.367791732933091e+000	 3.999233131140132e+000	 9.380932139111312e+000
 1.325847830337528e+000	 4.013333652898218e+000	 9.344357167736570e+000
 1.283863175383799e+000	 4.026960961145821e+000	 9.315007677638238e+000
 1.241845312610418e+000	 4.040116258160177e+000	 9.293917332936795e+000
 1.670083600747572e+000	 3.911737415142254e+000	 9.662419009789041e+000
 1.628379395204330e+000	 3.929280954585979e+000	 9.625928411445358e+000
 1.586579524997117e+000	 3.946344264676716e+000	 9.588071901175878e+000
 1.544691932204722e+000	 3.962927429769678e+000	 9.549234614510411e+000
 1.502724520991713e+000	 3.979030701492054e+000	 9.509794133081597e+000
 1.460685153423632e+000	 3.994654496770229e+000	 9.470119152385660e+000
 1.418581645374265e+000	 4.009799395739159e+000	 9.430574059477623e+000
 1.376421762528547e+000	 4.024466139538371e+000	 9.391992107843834e+000
 1.334213216484406e+000	 4.038655627999036e+000	 9.355761995726915e+000
 1.291963660956652e+000	 4.052368917226699e+000	 9.325746123557021e+000
 1.249680688085785e+000	 4.065607217084311e+000	 9.304004741771504e+000
 1.680554861298541e+000	 3.936263625482468e+000	 9.671907911856216e+000
 1.638589174472521e+000	 3.953917161199785e+000	 9.637499123566453e+000
 1.596527223174380e+000	 3.971087456573137e+000	 9.601368260941852e+000
 1.554376999278973e+000	 3.987774596486632e+000	 9.563809292204232e+000
 1.512146456509219e+000	 4.003978834145141e+000	 9.525077710007000e+000
 1.469843506225050e+000	 4.019700589089125e+000	 9.485312110678917e+000
 1.427476013305023e+000	 4.034940445090933e+000	 9.445519520132702e+000
 1.385051792124172e+000	 4.049699147936963e+000	 9.407001305188562e+000
 1.342578602631397e+000	 4.063977603100236e+000	 9.371106910017513e+000
 1.300064146529559e+000	 4.077776873307971e+000	 9.340526479193333e+000
 1.257516063561146e+000	 4.091098176008841e+000	 9.317926564330229e+000
 1.691026121849827e+000	 3.960789835822633e+000	 9.684967089976276e+000
 1.648798953741009e+000	 3.978553367813596e+000	 9.652759298829805e+000
 1.606474921351918e+000	 3.995830648469615e+000	 9.618297834670337e+000
 1.564062066353474e+000	 4.012621763203689e+000	 9.581550444795075e+000
 1.521568392026945e+000	 4.028926966798369e+000	 9.542652557629245e+000
 1.479001859026653e+000	 4.044746681408199e+000	 9.502725467659026e+000
 1.436370381235935e+000	 4.060081494442918e+000	 9.462972117151281e+000
 1.393681821719912e+000	 4.074932156335789e+000	 9.424639666421216e+000
 1.350943988778463e+000	 4.089299578201687e+000	 9.389014483897487e+000
 1.308164632102503e+000	 4.103184829389505e+000	 9.358030360866460e+000
 1.265351439036505e+000	 4.116589134933641e+000	 9.334444075339350e+000
 1.701497382401312e+000	 3.985316046162736e+000	 9.699940308598906e+000
 1.659008733009677e+000	 4.003189574427382e+000	 9.669848670667173e+000
 1.616422619529614e+000	 4.020573840366098e+000	 9.636200469500700e+000
 1.573747133428113e+000	 4.037468929920783e+000	 9.599475479437469e+000
 1.530990327544789e+000	 4.053875099451660e+000	 9.560730729722515e+000
 1.488160211828356e+000	 4.069792773727359e+000	 9.521071271683480e+000
 1.445264749166924e+000	 4.085222543795005e+000	 9.481644955671081e+000
 1.402311851315712e+000	 4.100165164734732e+000	 9.443637363797716e+000
 1.359309374925569e+000	 4.114621553303263e+000	 9.408266899493297e+000
 1.316265117675464e+000	 4.128592785471173e+000	 9.377009428752798e+000
 1.273186814511860e+000	 4.142080093858571e+000	 9.352387350773967e+000
 1.711968642952877e+000	 4.009842256502755e+000	 9.715002974165563e+000
 1.669218512278404e+000	 4.027825781041108e+000	 9.685665362778604e+000
 1.626370317707353e+000	 4.045317032262544e+000	 9.652433866220580e+000
 1.583432200502780e+000	 4.062316096637851e+000	 9.616259790523667e+000
 1.540412263062650e+000	 4.078823232104933e+000	 9.578143571148104e+000
 1.497318564630069e+000	 4.094838866046510e+000	 9.539129489163281e+000
 1.454159117097919e+000	 4.110363593147085e+000	 9.500300538219051e+000
 1.410941880911513e+000	 4.125398173133672e+000	 9.462773439802241e+000
 1.367674761072675e+000	 4.139943528404841e+000	 9.427693807132730e+000
 1.324365603248427e+000	 4.154000741552840e+000	 9.396282046547032e+000
 1.281022189987217e+000	 4.167571052783504e+000	 9.370652163055686e+000
 1.722439903504408e+000	 4.034368466842676e+000	 9.726978213846472e+000
 1.679428291547071e+000	 4.052461987654741e+000	 9.698374325369896e+000
 1.636318015885016e+000	 4.070060224158894e+000	 9.666042279896921e+000
 1.593117267577365e+000	 4.087163263354823e+000	 9.630863936588453e+000
 1.549834198580428e+000	 4.103771364758109e+000	 9.593768512626378e+000
 1.506476917431704e+000	 4.119884958365555e+000	 9.555727386345044e+000
 1.463053485028846e+000	 4.135504642499056e+000	 9.517749039474289e+000
 1.419571910507260e+000	 4.150631181532491e+000	 9.480874135182388e+000
 1.376040147219744e+000	 4.165265503506290e+000	 9.446170731711858e+000
 1.332466088821370e+000	 4.179408697634374e+000	 9.414729981220404e+000
 1.288857565462574e+000	 4.193062011708301e+000	 9.388196912546412e+000
 1.732911164055787e+000	 4.058894677182479e+000	 9.734779863920640e+000
 1.689638070815559e+000	 4.077098194268251e+000	 9.707236568082220e+000
 1.646265714062487e+000	 4.094803416055107e+000	 9.676141730914162e+000
 1.602802334651756e+000	 4.112010430071640e+000	 9.642290817782866e+000
 1.559256134098022e+000	 4.128719497411105e+000	 9.606527356740767e+000
 1.515635270233172e+000	 4.144931050684399e+000	 9.569737819497322e+000
 1.471947852959630e+000	 4.160645691850803e+000	 9.532846624753727e+000
 1.428201940102896e+000	 4.175864189931072e+000	 9.496811259866368e+000
 1.384405533366738e+000	 4.190587478607485e+000	 9.462617520171245e+000
 1.340566574394277e+000	 4.204816653715645e+000	 9.431274868609693e+000
 1.296692940937935e+000	 4.218552970632833e+000	 9.404039593803171e+000
 1.743382424606897e+000	 4.083420887522148e+000	 9.737875597283772e+000
 1.699847850083750e+000	 4.101734400881599e+000	 9.711547422151538e+000
 1.656213412239648e+000	 4.119546607951128e+000	 9.681886131363893e+000
 1.612487401725843e+000	 4.136857596788232e+000	 9.649584020738654e+000
 1.568678069615330e+000	 4.153667630063844e+000	 9.615384604764097e+000
 1.524793623034385e+000	 4.169977143002949e+000	 9.580077566895087e+000
 1.480842220890202e+000	 4.185786741202224e+000	 9.544493810382679e+000
 1.436831969698367e+000	 4.201097198329294e+000	 9.509500604959662e+000
 1.392770919513620e+000	 4.215909453708300e+000	 9.475996828352599e+000
 1.348667059967130e+000	 4.230224609796522e+000	 9.444908305176762e+000
 1.304528316413302e+000	 4.244043929556965e+000	 9.417254795132088e+000
 1.753853685157622e+000	 4.107947097861664e+000	 9.735761635569883e+000
 1.710057629351524e+000	 4.126370607494756e+000	 9.710635021947677e+000
 1.666161110416385e+000	 4.144289799846913e+000	 9.682465705795957e+000
 1.622172468799515e+000	 4.161704763504535e+000	 9.651826200765392e+000
 1.578100005132253e+000	 4.178615762716243e+000	 9.619345822601646e+000
 1.533951975835255e+000	 4.195023235321111e+000	 9.585705700855703e+000
 1.489736588820484e+000	 4.210927790553209e+000	 9.551633864199259e+000
 1.445461999293614e+000	 4.226330206727042e+000	 9.517900394103762e+000
 1.401136305660351e+000	 4.241231428808609e+000	 9.485312645590049e+000
 1.356767545539911e+000	 4.255632565876873e+000	 9.454710537635833e+000
 1.312363691888676e+000	 4.269534888480566e+000	 9.426970730050700e+000
 1.234009937135045e+000	 4.014625299236578e+000	 9.288975007060223e+000
 1.192231618162235e+000	 4.027229903250403e+000	 9.271992015618729e+000
 1.150435094796215e+000	 4.039368302625527e+000	 9.254733037064860e+000
 1.108627657420196e+000	 4.051042125731239e+000	 9.236360051966912e+000
 1.066816522301444e+000	 4.062253141966684e+000	 9.216319323376041e+000
 1.025008828498531e+000	 4.073003258861228e+000	 9.194313443074368e+000
 9.832116348843378e-001	 4.083294519104889e+000	 9.170273689669090e+000
 9.414319172861090e-001	 4.093129097513706e+000	 9.144341744300379e+000
 8.996765657436628e-001	 4.102509297934844e+000	 9.116839364633492e+000
 8.579523818866420e-001	 4.111437550096343e+000	 9.088252644034881e+000
 8.162660764314833e-001	 4.119916406406246e+000	 9.059212004072872e+000
 1.241845312610418e+000	 4.040116258160177e+000	 9.293917332936795e+000
 1.199801721206407e+000	 4.052800895407485e+000	 9.276779413904567e+000
 1.157739809819977e+000	 4.065016367838656e+000	 9.259555195436075e+000
 1.115666915124804e+000	 4.076764314162331e+000	 9.241409550039011e+000
 1.073590299208018e+000	 4.088046515012491e+000	 9.221785468175384e+000
 1.031517146457817e+000	 4.098864890030391e+000	 9.200375929585743e+000
 9.894545605675660e-001	 4.109221494876151e+000	 9.177096394243710e+000
 9.474095616576935e-001	 4.119118518174837e+000	 9.152065265726986e+000
 9.053890835164935e-001	 4.128558278401945e+000	 9.125574880783010e+000
 8.633999709607205e-001	 4.137543220713117e+000	 9.098074696001481e+000
 8.214489773166679e-001	 4.146075913722956e+000	 9.070151315704436e+000
 1.249680688085785e+000	 4.065607217084311e+000	 9.304004741771504e+000
 1.207371824250493e+000	 4.078371887565093e+000	 9.286305129470554e+000
 1.165044524843574e+000	 4.090664433052284e+000	 9.268697603866871e+000
 1.122706172829172e+000	 4.102486502593892e+000	 9.250359124121207e+000
 1.080364076114283e+000	 4.113839888058724e+000	 9.230738310128334e+000
 1.038025464416730e+000	 4.124726521199935e+000	 9.209527162247342e+000
 9.956974862503664e-001	 4.135148470647740e+000	 9.186633661464789e+000
 9.533872060288057e-001	 4.145107938836248e+000	 9.162161159686763e+000
 9.111016012888182e-001	 4.154607258869276e+000	 9.136380476830770e+000
 8.688475600342719e-001	 4.163648891330073e+000	 9.109712163996509e+000
 8.266318782013199e-001	 4.172235421039815e+000	 9.082706543451337e+000
 1.257516063561146e+000	 4.091098176008841e+000	 9.317926564330229e+000
 1.214941927294513e+000	 4.103942879723093e+000	 9.299355361269910e+000
 1.172349239867047e+000	 4.116312498266290e+000	 9.281039080934338e+000
 1.129745430533361e+000	 4.128208691025804e+000	 9.262175763224931e+000
 1.087137853020316e+000	 4.139633261105280e+000	 9.242228382445230e+000
 1.044533782375364e+000	 4.150588152369766e+000	 9.220896440122967e+000
 1.001940411932846e+000	 4.161075446419582e+000	 9.198088657142328e+000
 9.593648503995635e-001	 4.171097359497876e+000	 9.173901451681173e+000
 9.168141190607630e-001	 4.180656239336789e+000	 9.148591963986227e+000
 8.742951491074287e-001	 4.189754561947185e+000	 9.122559528538135e+000
 8.318147790855722e-001	 4.198394928356807e+000	 9.096325707311628e+000
 1.265351439036505e+000	 4.116589134933641e+000	 9.334444075339350e+000
 1.222512030338490e+000	 4.129513871881357e+000	 9.314786219448063e+000
 1.179653954890438e+000	 4.141960563480546e+000	 9.295526248991754e+000
 1.136784688237430e+000	 4.153930879457953e+000	 9.275892065489881e+000
 1.093911629926193e+000	 4.165426634152050e+000	 9.255369533729059e+000
 1.051042100333812e+000	 4.176449783539791e+000	 9.233673973758290e+000
 1.008183337615113e+000	 4.187002422191598e+000	 9.210722933703613e+000
 9.653424947700848e-001	 4.197086780159657e+000	 9.186613899459724e+000
 9.225266368324550e-001	 4.206705219804440e+000	 9.161598092828170e+000
 8.797427381803220e-001	 4.215860232564422e+000	 9.136061270413928e+000
 8.369976799695580e-001	 4.224554435673912e+000	 9.110503735415991e+000
 1.273186814511860e+000	 4.142080093858571e+000	 9.352387350773967e+000
 1.230082133382446e+000	 4.155084864039749e+000	 9.331520832443976e+000
 1.186958669913788e+000	 4.167608628694931e+000	 9.311170886064190e+000
 1.143823945941438e+000	 4.179653067890218e+000	 9.290603829597648e+000
 1.100685406831993e+000	 4.191220007198933e+000	 9.269336753387369e+000
 1.057550418292166e+000	 4.202311414709921e+000	 9.247108938841402e+000
 1.014426263297272e+000	 4.212929397963711e+000	 9.223855211620693e+000
 9.713201391404883e-001	 4.223076200821531e+000	 9.199680485120066e+000
 9.282391546040201e-001	 4.232754200272183e+000	 9.174839255174268e+000
 8.851903272530837e-001	 4.241965903181751e+000	 9.149710775797225e+000
 8.421805808534107e-001	 4.250713942991123e+000	 9.124781565714129e+000
 1.281022189987217e+000	 4.167571052783504e+000	 9.370652163055686e+000
 1.237652236426401e+000	 4.180655856198142e+000	 9.348546487566605e+000
 1.194263384937138e+000	 4.193256693909315e+000	 9.327047306873704e+000
 1.150863203645447e+000	 4.205375256322488e+000	 9.305467671058754e+000
 1.107459183737794e+000	 4.217013380245822e+000	 9.283364017751438e+000
 1.064058736250521e+000	 4.228173045880062e+000	 9.260507546495242e+000
 1.020669188979431e+000	 4.238856373735841e+000	 9.236857518527884e+000
 9.772977835108917e-001	 4.249065621483434e+000	 9.212535915961919e+000
 9.339516723755856e-001	 4.258803180739968e+000	 9.187806190902791e+000
 8.906379163258454e-001	 4.268071573799145e+000	 9.163049242606878e+000
 8.473634817372635e-001	 4.276873450308417e+000	 9.138745245287231e+000
 1.288857565462574e+000	 4.193062011708301e+000	 9.388196912546412e+000
 1.245222339470378e+000	 4.206226848356404e+000	 9.364911803621993e+000
 1.201568099960529e+000	 4.218904759123572e+000	 9.342289771754350e+000
 1.157902461349516e+000	 4.231097444754642e+000	 9.319698662314956e+000
 1.114232960643672e+000	 4.242806753292610e+000	 9.296742156022134e+000
 1.070567054208968e+000	 4.254034677050119e+000	 9.273231129495015e+000
 1.026912114661697e+000	 4.264783349507913e+000	 9.249156928444924e+000
 9.832754278814129e-001	 4.275055042145303e+000	 9.224666133721867e+000
 9.396641901472774e-001	 4.284852161207753e+000	 9.200038699516128e+000
 8.960855053987386e-001	 4.294177244416568e+000	 9.175664588057122e+000
 8.525463826212495e-001	 4.303032957625781e+000	 9.152025027386467e+000
 1.296692940937935e+000	 4.218552970632833e+000	 9.404039593803171e+000
 1.252792442514398e+000	 4.231797840514404e+000	 9.379723934235042e+000
 1.208872814984003e+000	 4.244552824337582e+000	 9.356089922277558e+000
 1.164941719053705e+000	 4.256819633186567e+000	 9.332567995648940e+000
 1.121006737549705e+000	 4.268600126339194e+000	 9.308816735203507e+000
 1.077075372167602e+000	 4.279896308220005e+000	 9.284694243736244e+000
 1.033155040344177e+000	 4.290710325279848e+000	 9.260231420758178e+000
 9.892530722521710e-001	 4.301044462807080e+000	 9.235606831834694e+000
 9.453767079192226e-001	 4.310901141675489e+000	 9.211124356245383e+000
 9.015330944718958e-001	 4.320282915033996e+000	 9.187190357347054e+000
 8.577292835055018e-001	 4.329192464943202e+000	 9.164294466294816e+000
 1.304528316413302e+000	 4.244043929556965e+000	 9.417254795132088e+000
 1.260362545558484e+000	 4.257368832672011e+000	 9.392145800575841e+000
 1.216177530007600e+000	 4.270200889551217e+000	 9.367694242464696e+000
 1.171980976758073e+000	 4.282541821618144e+000	 9.343400667943115e+000
 1.127780514455969e+000	 4.294393499385466e+000	 9.318985963225696e+000
 1.083583690126516e+000	 4.305757939389624e+000	 9.294362784312733e+000
 1.039397966026978e+000	 4.316637301051570e+000	 9.269608862912600e+000
 9.952307166232832e-001	 4.327033883468698e+000	 9.244941980383757e+000
 9.510892256915473e-001	 4.336950122143129e+000	 9.220697232505042e+000
 9.069806835454475e-001	 4.346388585651394e+000	 9.197304633442254e+000
 8.629121843901537e-001	 4.355351972260664e+000	 9.175269510102611e+000
 1.312363691888676e+000	 4.269534888480566e+000	 9.426970730050700e+000
 1.267932648602657e+000	 4.282939824829096e+000	 9.401393352261424e+000
 1.223482245031362e+000	 4.295848954764351e+000	 9.376401544517705e+000
 1.179020234462681e+000	 4.308264010049258e+000	 9.351573186373919e+000
 1.134554291362543e+000	 4.320186872431324e+000	 9.326698609497228e+000
 1.090092008085802e+000	 4.331619570558885e+000	 9.301752115593587e+000
 1.045640891710207e+000	 4.342564276823000e+000	 9.276865344467081e+000
 1.001208360994868e+000	 4.353023304130100e+000	 9.252302358418774e+000
 9.568017434643784e-001	 4.362999102610631e+000	 9.228436620515605e+000
 9.124282726195264e-001	 4.372494256268734e+000	 9.205728947901960e+000
 8.680950852753387e-001	 4.381511479578151e+000	 9.184707591484722e+000
 8.162660764314833e-001	 4.119916406406246e+000	 9.059212004072872e+000
 7.746305074992252e-001	 4.127947367894609e+000	 9.030100129766250e+000
 7.330459304817431e-001	 4.135534529605870e+000	 9.002424410325604e+000
 6.915187573703863e-001	 4.142680794474464e+000	 8.978708707787474e+000
 6.500553007098926e-001	 4.149389174776561e+000	 8.961601472117305e+000
 6.086617716998241e-001	 4.155662788750935e+000	 8.952038879571557e+000
 5.673442784153456e-001	 4.161504857197135e+000	 8.947929284070256e+000
 5.261088241467282e-001	 4.166918700055335e+000	 8.947776090760003e+000
 4.849613058567833e-001	 4.171907732972208e+000	 8.950876351722350e+000
 4.439075127552812e-001	 4.176475463857043e+000	 8.957135794515782e+000
 4.029531249892537e-001	 4.180625489432248e+000	 8.966900476671881e+000
 8.214489773166679e-001	 4.146075913722956e+000	 9.070151315704436e+000
 7.795490423483210e-001	 4.154157867992348e+000	 9.042449265750236e+000
 7.377004230691655e-001	 4.161793204567331e+000	 9.016404645204990e+000
 6.959095721836315e-001	 4.168984844814609e+000	 8.993983316498548e+000
 6.541828423181021e-001	 4.175735820136896e+000	 8.977233495265015e+000
 6.125264841102901e-001	 4.182049268572324e+000	 8.966606068680406e+000
 5.709466444187197e-001	 4.187928431371007e+000	 8.960193721372905e+000
 5.294493646516879e-001	 4.193376649553178e+000	 8.956712240122323e+000
 4.880405792149032e-001	 4.198397360453264e+000	 8.955626987921189e+000
 4.467261140768532e-001	 4.202994094254131e+000	 8.956973334153490e+000
 4.055116854507895e-001	 4.207170470515677e+000	 8.961193901270057e+000
 8.266318782013199e-001	 4.172235421039815e+000	 9.082706543451337e+000
 7.844675771968941e-001	 4.180368368090208e+000	 9.056206570900656e+000
 7.423549156560880e-001	 4.188051879528886e+000	 9.031538847109111e+000
 7.003003869964152e-001	 4.195288895154834e+000	 9.010156741559161e+000
 6.583103839259004e-001	 4.202082465497299e+000	 8.993586221795210e+000
 6.163911965204050e-001	 4.208435748393773e+000	 8.981815675738174e+000
 5.745490104218138e-001	 4.214352005544933e+000	 8.973042177058897e+000
 5.327899051564466e-001	 4.219834599051071e+000	 8.966213287685537e+000
 4.911198525729089e-001	 4.224886987934367e+000	 8.960980085261834e+000
 4.495447153984033e-001	 4.229512724651257e+000	 8.957523419156404e+000
 4.080702459124012e-001	 4.233715451599140e+000	 8.956397167565420e+000
 8.318147790855722e-001	 4.198394928356807e+000	 9.096325707311628e+000
 7.893861120450738e-001	 4.206578868188182e+000	 9.070876663833587e+000
 7.470094082426367e-001	 4.214310554490549e+000	 9.047399024479528e+000
 7.046912018088525e-001	 4.221592945495158e+000	 9.026878490639842e+000
 6.624379255333894e-001	 4.228429110857805e+000	 9.010375960537107e+000
 6.202559089302573e-001	 4.234822228215324e+000	 8.997480381023202e+000
 5.781513764246974e-001	 4.240775579718958e+000	 8.986397415241669e+000
 5.361304456610546e-001	 4.246292548549061e+000	 8.976322354177924e+000
 4.941991259308284e-001	 4.251376615415560e+000	 8.967105924462217e+000
 4.523633167199370e-001	 4.256031355048466e+000	 8.959086813228037e+000
 4.106288063740698e-001	 4.260260432682667e+000	 8.952941372208716e+000
 8.369976799695580e-001	 4.224554435673912e+000	 9.110503735415991e+000
 7.943046468929926e-001	 4.232789368286274e+000	 9.086007618107059e+000
 7.516639008289354e-001	 4.240569229452330e+000	 9.063596630827703e+000
 7.090820166210595e-001	 4.247896995835609e+000	 9.043832964590985e+000
 6.665654671406729e-001	 4.254775756218444e+000	 9.027352010613456e+000
 6.241206213399340e-001	 4.261208708037016e+000	 9.013439542847580e+000
 5.817537424274406e-001	 4.267199153893131e+000	 9.000202541335147e+000
 5.394709861655621e-001	 4.272750498047200e+000	 8.987096474214006e+000
 4.972783992886910e-001	 4.277866242896893e+000	 8.974182115764165e+000
 4.551819180414601e-001	 4.282549985445800e+000	 8.961964802315018e+000
 4.131873668357765e-001	 4.286805413766292e+000	 8.951251038561551e+000
 8.421805808534107e-001	 4.250713942991123e+000	 9.124781565714129e+000
 7.992231817407801e-001	 4.258999868384476e+000	 9.101190259867652e+000
 7.563183934151097e-001	 4.266827904414243e+000	 9.079782063489244e+000
 7.134728314331505e-001	 4.274201046176210e+000	 9.060739161768376e+000
 6.706930087478533e-001	 4.281122401579250e+000	 9.044307334210970e+000
 6.279853337495228e-001	 4.287595187858888e+000	 9.029559194971894e+000
 5.853561084301144e-001	 4.293622728067493e+000	 9.014421200472317e+000
 5.428115266700191e-001	 4.299208447545526e+000	 8.998607004975323e+000
 5.003576726465248e-001	 4.304355870378411e+000	 8.982394225543292e+000
 4.580005193629775e-001	 4.309068615843296e+000	 8.966460045228677e+000
 4.157459272975020e-001	 4.313350394850049e+000	 8.951745195843827e+000
 8.473634817372635e-001	 4.276873450308417e+000	 9.138745245287231e+000
 8.041417165885677e-001	 4.285210368482794e+000	 9.116057459368252e+000
 7.609728860012833e-001	 4.293086579376299e+000	 9.095644152143860e+000
 7.178636462452421e-001	 4.300505096516986e+000	 9.077350367687545e+000
 6.748205503550336e-001	 4.307469046940256e+000	 9.061075487289505e+000
 6.318500461591116e-001	 4.313981667680984e+000	 9.045732019574228e+000
 5.889584744327882e-001	 4.320046302242091e+000	 9.029037746174067e+000
 5.461520671744763e-001	 4.325666397044095e+000	 9.010939999590470e+000
 5.034369460043586e-001	 4.330845497860159e+000	 8.991936361841082e+000
 4.608191206844949e-001	 4.335587246240999e+000	 8.972877377208530e+000
 4.183044877592278e-001	 4.339895375933969e+000	 8.954838405057540e+000
 8.525463826212495e-001	 4.303032957625781e+000	 9.152025027386467e+000
 8.090602514364863e-001	 4.311420868581226e+000	 9.130283416618815e+000
 7.656273785875825e-001	 4.319345254338512e+000	 9.110909637536929e+000
 7.222544610574486e-001	 4.326809146857957e+000	 9.093453830632019e+000
 6.789480919623173e-001	 4.333815692301495e+000	 9.077511603743371e+000
 6.357147585687886e-001	 4.340368147503341e+000	 9.061877296813522e+000
 5.925608404355318e-001	 4.346469876416971e+000	 9.044057380534648e+000
 5.494926076789838e-001	 4.352124346542950e+000	 9.024196546717608e+000
 5.065162193622209e-001	 4.357335125342182e+000	 9.003011720568454e+000
 4.636377220060178e-001	 4.362105876638946e+000	 8.981524568429594e+000
 4.208630482209342e-001	 4.366440357018084e+000	 8.960941733951213e+000
 8.577292835055018e-001	 4.329192464943202e+000	 9.164294466294816e+000
 8.139787862846666e-001	 4.337631368679769e+000	 9.143582941417339e+000
 7.702818711741309e-001	 4.345603929300892e+000	 9.125342640816761e+000
 7.266452758698863e-001	 4.353113197199152e+000	 9.108870423808661e+000
 6.830756335698065e-001	 4.360162337663001e+000	 9.093500164105320e+000
 6.395794709786408e-001	 4.366754627326001e+000	 9.077940831977385e+000
 5.961632064384156e-001	 4.372893450592176e+000	 9.059506267128155e+000
 5.528331481835914e-001	 4.378582296042137e+000	 9.038493077757975e+000
 5.095954927201408e-001	 4.383824752824524e+000	 9.015833094044064e+000
 4.664563233275514e-001	 4.388624507037182e+000	 8.992713039359799e+000
 4.234216086826028e-001	 4.392985338102427e+000	 8.970463683181189e+000
 8.629121843901537e-001	 4.355351972260664e+000	 9.175269510102611e+000
 8.188973211332394e-001	 4.363841868778422e+000	 9.155710727997763e+000
 7.749363637610540e-001	 4.371862604263454e+000	 9.138744123882125e+000
 7.310360906826702e-001	 4.379417247540587e+000	 9.123454294616575e+000
 6.872031751776049e-001	 4.386508983024807e+000	 9.108954846204856e+000
 6.434441833887559e-001	 4.393141107149004e+000	 9.093894861157025e+000
 5.997655724415095e-001	 4.399317024767750e+000	 9.075431617783307e+000
 5.561736886883503e-001	 4.405040245541704e+000	 9.053961643062371e+000
 5.126747660781463e-001	 4.410314380307237e+000	 9.030623343450907e+000
 4.692749246491018e-001	 4.415143137435746e+000	 9.006758534781884e+000
 4.259801691442147e-001	 4.419530319187035e+000	 8.983811065721239e+000
 8.680950852753387e-001	 4.381511479578151e+000	 9.184707591484722e+000
 8.238158559823360e-001	 4.390052368877188e+000	 9.166460624519459e+000
 7.795908563484765e-001	 4.398121279226207e+000	 9.150951341115651e+000
 7.354269054959162e-001	 4.405721297882296e+000	 9.137092501567208e+000
 6.913307167858148e-001	 4.412855628386947e+000	 9.123818349642288e+000
 6.473088957992225e-001	 4.419527586972392e+000	 9.109737936346468e+000
 6.033679384448840e-001	 4.425740598943745e+000	 9.091901754318631e+000
 5.595142291933103e-001	 4.431498195041699e+000	 9.070750158425923e+000
 5.157540394362666e-001	 4.436804007790360e+000	 9.047615836719610e+000
 4.720935259706737e-001	 4.441661767834682e+000	 9.023981758206988e+000
 4.285387296057504e-001	 4.446075300271935e+000	 9.001389841475028e+000
 4.029531249892537e-001	 4.180625489432248e+000	 8.966900476671881e+000
 3.620976067863625e-001	 4.184362021505856e+000	 8.975348531667809e+000
 3.213526407327570e-001	 4.187688172694504e+000	 8.979163401412306e+000
 2.807236575465114e-001	 4.190607788155260e+000	 8.981247493939641e+000
 2.402159721721483e-001	 4.193124788175179e+000	 8.984481212504420e+000
 1.998347830423373e-001	 4.195243164716059e+000	 8.991609229970296e+000
 1.595851714486665e-001	 4.196966977977437e+000	 9.005134759350232e+000
 1.194721010194024e-001	 4.198300352981236e+000	 9.027220665531951e+000
 7.950041730205061e-002	 4.199247476181253e+000	 9.059596356554701e+000
 3.967484744844418e-002	 4.199812592100591e+000	 9.103469488563778e+000
 0.000000000000000e+000	 4.200000000000000e+000	 9.159441616144449e+000
 4.055116854507895e-001	 4.207170470515677e+000	 8.961193901270057e+000
 3.643967541624681e-001	 4.210930727788930e+000	 8.964309356907215e+000
 3.233930769768961e-001	 4.214277998454133e+000	 8.963354987871785e+000
 2.825061190946215e-001	 4.217216152083235e+000	 8.960562203028312e+000
 2.417412292075342e-001	 4.219749133855213e+000	 8.958135575928621e+000
 2.011036387558757e-001	 4.221880961078892e+000	 8.958145409370133e+000
 1.605984612950167e-001	 4.223615719734106e+000	 8.962428019494359e+000
 1.202306919698994e-001	 4.224957561034675e+000	 8.972492532031883e+000
 8.000520709494927e-002	 4.225910698016350e+000	 8.989433082734886e+000
 3.992676383716256e-002	 4.226479402152904e+000	 9.013845415883640e+000
 0.000000000000000e+000	 4.226668000003317e+000	 9.045746978239627e+000
 4.080702459124012e-001	 4.233715451599140e+000	 8.956397167565420e+000
 3.666959015387500e-001	 4.237499434072024e+000	 8.954439443020714e+000
 3.254335132213082e-001	 4.240867824213765e+000	 8.949065732509254e+000
 2.842885806430894e-001	 4.243824516011195e+000	 8.941929620072962e+000
 2.432664862433434e-001	 4.246373479535219e+000	 8.934651683516405e+000
 2.023724944698763e-001	 4.248518757441677e+000	 8.928718628457292e+000
 1.616117511418334e-001	 4.250264461490711e+000	 8.925389849454435e+000
 1.209892829208262e-001	 4.251614769088036e+000	 8.925610156713946e+000
 8.050999688819228e-002	 4.252573919851357e+000	 8.929927512638658e+000
 4.017868022608438e-002	 4.253146212205120e+000	 8.938414730636474e+000
 0.000000000000000e+000	 4.253336000006534e+000	 8.950594198239642e+000
 4.106288063740698e-001	 4.260260432682667e+000	 8.952941372208716e+000
 3.689950489151643e-001	 4.264068140355160e+000	 8.946292840926578e+000
 3.274739494659247e-001	 4.267457649973410e+000	 8.936957047484038e+000
 2.860710421918256e-001	 4.270432879939134e+000	 8.926098112674062e+000
 2.447917432794700e-001	 4.272997825215165e+000	 8.914839738753031e+000
 2.036413501842233e-001	 4.275156553804367e+000	 8.904171207827654e+000
 1.626250409890001e-001	 4.276913203247188e+000	 8.894860498079551e+000
 1.217478738720753e-001	 4.278271977141238e+000	 8.887373200506973e+000
 8.101478668169354e-002	 4.279237141686182e+000	 8.881796031187161e+000
 4.043059661515872e-002	 4.279813022257143e+000	 8.877763848755038e+000
 0.000000000000000e+000	 4.280004000009551e+000	 8.874389202812107e+000
 4.131873668357765e-001	 4.286805413766292e+000	 8.951251038561551e+000
 3.712941962916669e-001	 4.290636846638358e+000	 8.940409673067306e+000
 3.295143857106780e-001	 4.294047475733071e+000	 8.927668858166378e+000
 2.878535037407407e-001	 4.297041243867040e+000	 8.913786774970067e+000
 2.463170003158082e-001	 4.299622170895024e+000	 8.899472632667361e+000
 2.049102058988012e-001	 4.301794350166916e+000	 8.885299841868424e+000
 1.636383308364001e-001	 4.303561945003477e+000	 8.871625978826662e+000
 1.225064648235393e-001	 4.304929185194208e+000	 8.858518165643341e+000
 8.151957647536698e-002	 4.305900363520742e+000	 8.845682610681603e+000
 4.068251300433474e-002	 4.306479832308872e+000	 8.832397174886442e+000
 0.000000000000000e+000	 4.306672000012267e+000	 8.817445952355264e+000
 4.157459272975020e-001	 4.313350394850049e+000	 8.951745195843827e+000
 3.735933436682134e-001	 4.317205552921639e+000	 8.937317441181747e+000
 3.315548219554993e-001	 4.320637301492754e+000	 8.921821134413571e+000
 2.896359652897452e-001	 4.323649607794900e+000	 8.905687174669641e+000
 2.478422573522522e-001	 4.326246516574763e+000	 8.889287896288760e+000
 2.061790616134947e-001	 4.328432146529278e+000	 8.872857743772649e+000
 1.646516206839167e-001	 4.330210686759510e+000	 8.856420391982413e+000
 1.232650557751107e-001	 4.331586393246864e+000	 8.839720877310501e+000
 8.202436626912654e-002	 4.332563585354944e+000	 8.822161431734605e+000
 4.093442939356163e-002	 4.333146642360212e+000	 8.802739840144538e+000
 0.000000000000000e+000	 4.333340000014585e+000	 8.779989270865585e+000
 4.183044877592278e-001	 4.339895375933969e+000	 8.954838405057540e+000
 3.758924910447601e-001	 4.343774259205020e+000	 8.937532274629364e+000
 3.335952582003206e-001	 4.347227127252465e+000	 8.920015356273238e+000
 2.914184268387496e-001	 4.350257971722702e+000	 8.902465028544532e+000
 2.493675143886962e-001	 4.352870862254360e+000	 8.884989575817677e+000
 2.074479173281881e-001	 4.355069942891406e+000	 8.867556707801342e+000
 1.656649105314333e-001	 4.356859428515224e+000	 8.849928159005236e+000
 1.240236467266820e-001	 4.358243601299130e+000	 8.831598872691412e+000
 8.252915606288601e-002	 4.359226807188695e+000	 8.811739407314867e+000
 4.118634578278849e-002	 4.359813452411068e+000	 8.789140339210086e+000
 0.000000000000000e+000	 4.360008000016401e+000	 8.762157571952589e+000
 4.208630482209342e-001	 4.366440357018084e+000	 8.960941733951213e+000
 3.781916384212625e-001	 4.370342965488526e+000	 8.941560121797224e+000
 3.356356944450737e-001	 4.373816953012210e+000	 8.922835916904026e+000
 2.932008883876646e-001	 4.376866335650437e+000	 8.904761809427788e+000
 2.508927714250344e-001	 4.379495207933778e+000	 8.887250033800619e+000
 2.087167730427661e-001	 4.381707739253251e+000	 8.870069092315434e+000
 1.666782003788331e-001	 4.383508170270559e+000	 8.852786172728251e+000
 1.247822376781459e-001	 4.384900809350929e+000	 8.834713701337210e+000
 8.303394585655943e-002	 4.385890029021909e+000	 8.814858614029346e+000
 4.143826217196451e-002	 4.386480262461337e+000	 8.791873071061975e+000
 0.000000000000000e+000	 4.386676000017618e+000	 8.764005485419336e+000
 4.234216086826028e-001	 4.392985338102427e+000	 8.970463683181189e+000
 3.804907857976769e-001	 4.396911671772175e+000	 8.949897886997103e+000
 3.376761306896904e-001	 4.400406778771993e+000	 8.930851465369724e+000
 2.949833499364008e-001	 4.403474699578092e+000	 8.913196287614365e+000
 2.524180284611608e-001	 4.406119553612993e+000	 8.896711679437598e+000
 2.099856287571130e-001	 4.408345535614769e+000	 8.881029726928656e+000
 1.676914902259998e-001	 4.410156912025449e+000	 8.865585866981494e+000
 1.255408286293950e-001	 4.411558017402181e+000	 8.849573140621251e+000
 8.353873565006062e-002	 4.412553250854495e+000	 8.831898634565492e+000
 4.169017856103882e-002	 4.413147072510927e+000	 8.811140787415468e+000
 0.000000000000000e+000	 4.413344000018133e+000	 8.785506388615410e+000
 4.259801691442147e-001	 4.419530319187035e+000	 8.983811065721239e+000
 3.827899331739588e-001	 4.423480378055991e+000	 8.963034515144498e+000
 3.397165669341023e-001	 4.426996604531820e+000	 8.944616191834284e+000
 2.967658114848686e-001	 4.430083063505656e+000	 8.928366009421996e+000
 2.539432854969698e-001	 4.432743899291977e+000	 8.913988631003141e+000
 2.112544844711133e-001	 4.434983331975911e+000	 8.901037746971799e+000
 1.687047800728163e-001	 4.436805653779831e+000	 8.888875209021443e+000
 1.262994195803216e-001	 4.438215225452805e+000	 8.876633329845699e+000
 8.404352544330351e-002	 4.439216472686363e+000	 8.863178815029855e+000
 4.194209494996055e-002	 4.439813882559739e+000	 8.847076952748171e+000
 0.000000000000000e+000	 4.440012000017850e+000	 8.826554846565633e+000
 4.285387296057504e-001	 4.446075300271935e+000	 9.001389841475028e+000
 3.850890805500644e-001	 4.450049084339992e+000	 8.981452026402037e+000
 3.417570031782413e-001	 4.453586430291699e+000	 8.964671057565877e+000
 2.985482730329786e-001	 4.456691427433116e+000	 8.950848715538998e+000
 2.554685425323556e-001	 4.459368244970696e+000	 8.939668313216954e+000
 2.125233401846516e-001	 4.461621128336632e+000	 8.930658358306182e+000
 1.697180699191663e-001	 4.463454395533639e+000	 8.923160617994247e+000
 1.270580105308184e-001	 4.464872433502730e+000	 8.916300826399681e+000
 8.454831523620206e-002	 4.465879694517425e+000	 8.908960440738920e+000
 4.219401133867887e-002	 4.466480692607676e+000	 8.899748019608673e+000
 0.000000000000000e+000	 4.466680000016666e+000	 8.886968964687176e+000
 4.466680000016666e+000	 0.000000000000000e+000	 1.043137441465757e+001
 4.466480692607676e+000	 4.219401133867760e-002	 1.043835359386931e+001
 4.465879694517425e+000	 8.454831523620093e-002	 1.044407964301390e+001
 4.464872433502732e+000	 1.270580105308175e-001	 1.044860941653614e+001
 4.463454395533638e+000	 1.697180699191654e-001	 1.045203056396332e+001
 4.461621128336632e+000	 2.125233401846509e-001	 1.045445863040077e+001
 4.459368244970697e+000	 2.554685425323549e-001	 1.045603391623460e+001
 4.456691427433116e+000	 2.985482730329781e-001	 1.045691777179798e+001
 4.453586430291699e+000	 3.417570031782409e-001	 1.045728794213997e+001
 4.450049084339993e+000	 3.850890805500640e-001	 1.045733251393102e+001
 4.446075300271936e+000	 4.285387296057502e-001	 1.045724195132530e+001
 4.493344001125477e+000	 0.000000000000000e+000	 1.041204889171117e+001
 4.493143503944068e+000	 4.244588995207978e-002	 1.042034581134640e+001
 4.492538918175069e+000	 8.505302933503606e-002	 1.042774326191327e+001
 4.491525644281116e+000	 1.278164877294522e-001	 1.043414508017486e+001
 4.490099141285576e+000	 1.707312078212957e-001	 1.043949352811049e+001
 4.488254930336909e+000	 2.137920056316579e-001	 1.044376800981784e+001
 4.485988598306078e+000	 2.569935708536612e-001	 1.044698382098678e+001
 4.483295801413886e+000	 3.003304672990533e-001	 1.044919060639636e+001
 4.480172268884856e+000	 3.437971334569229e-001	 1.045047013738403e+001
 4.476613806624297e+000	 3.873878831668750e-001	 1.045093295503242e+001
 4.472616300914867e+000	 4.310969064089001e-001	 1.045071335632721e+001
 4.520008008899155e+000	 0.000000000000000e+000	 1.039496675914115e+001
 4.519806321945046e+000	 4.269776862821970e-002	 1.040387153687008e+001
 4.519198148496462e+000	 8.555774355965609e-002	 1.041224866327198e+001
 4.518178861721836e+000	 1.285749651172135e-001	 1.041987927530966e+001
 4.516743893697839e+000	 1.717443459761730e-001	 1.042658722252303e+001
 4.514888738994899e+000	 2.150606713952958e-001	 1.043223934406176e+001
 4.512608958295946e+000	 2.585185995557295e-001	 1.043674606859801e+001
 4.509900182045276e+000	 3.021126620102522e-001	 1.044006201289316e+001
 4.506758114124131e+000	 3.458372642453048e-001	 1.044218618830533e+001
 4.503178535549549e+000	 3.896866863581595e-001	 1.044316135512078e+001
 4.499157308192906e+000	 4.336550838514770e-001	 1.044307199271397e+001
 4.546672030003567e+000	 0.000000000000000e+000	 1.038034455599761e+001
 4.546469153276179e+000	 4.294964743008928e-002	 1.038920561701569e+001
 4.545857392146254e+000	 8.606245803627631e-002	 1.039791903170622e+001
 4.544832092488003e+000	 1.293334428837648e-001	 1.040617313839809e+001
 4.543388659431392e+000	 1.727574846371274e-001	 1.041369983610894e+001
 4.541522560968784e+000	 2.163293377927727e-001	 1.042027636553287e+001
 4.539229331595074e+000	 2.600436290198506e-001	 1.042572772071739e+001
 4.536504575978026e+000	 3.038948576121461e-001	 1.042992936817201e+001
 4.533343972655577e+000	 3.478773960534281e-001	 1.043280988057840e+001
 4.529743277756489e+000	 3.919854906986115e-001	 1.043435301956470e+001
 4.525698328740826e+000	 4.362132625730023e-001	 1.043459872663022e+001
 4.573336071104578e+000	 0.000000000000000e+000	 1.036850298914751e+001
 4.573132004603026e+000	 4.320152642068041e-002	 1.037670594810531e+001
 4.572516655789086e+000	 8.656717289111186e-002	 1.038514115447386e+001
 4.571485343242732e+000	 1.300919212187695e-001	 1.039343364006197e+001
 4.570033445147192e+000	 1.737706240574890e-001	 1.040124930636347e+001
 4.568156402916755e+000	 2.175980051412969e-001	 1.040829815337727e+001
 4.565849724858240e+000	 2.615686596273152e-001	 1.041433846499459e+001
 4.563108989862871e+000	 3.056770545503059e-001	 1.041918162932909e+001
 4.559929851125255e+000	 3.499175293913336e-001	 1.042269719960624e+001
 4.556308039885855e+000	 3.942842967629247e-001	 1.042481772511194e+001
 4.552239369193410e+000	 4.387714432129977e-001	 1.042554280270986e+001
 4.600000138868055e+000	 0.000000000000000e+000	 1.035986392537581e+001
 4.599794882591152e+000	 4.345340566298506e-002	 1.036681079444087e+001
 4.599175946089609e+000	 8.707188825037808e-002	 1.037436305842833e+001
 4.598138620649135e+000	 1.308504003118912e-001	 1.038211153295312e+001
 4.596678257506200e+000	 1.747837644905879e-001	 1.038968156991833e+001
 4.594790271496990e+000	 2.188666737580766e-001	 1.039673767805100e+001
 4.592470144740218e+000	 2.630936917594145e-001	 1.040298944452981e+001
 4.589713430350547e+000	 3.074592532703025e-001	 1.040819843839843e+001
 4.586515756179225e+000	 3.519576647690627e-001	 1.041218570040978e+001
 4.582872828578394e+000	 3.965831051257931e-001	 1.041483934431107e+001
 4.578780436185432e+000	 4.413296264109848e-001	 1.041612171185922e+001
 4.626664239959866e+000	 0.000000000000000e+000	 1.035494748801877e+001
 4.626457793906116e+000	 4.370528521999509e-002	 1.036003619992606e+001
 4.625835269712468e+000	 8.757660424029021e-002	 1.036609172995258e+001
 4.624791931370330e+000	 1.316088803527934e-001	 1.037269937293502e+001
 4.623323103169382e+000	 1.757969061897542e-001	 1.037946887749801e+001
 4.621424173367673e+000	 2.201353439603201e-001	 1.038604040214773e+001
 4.619090597895791e+000	 2.646187257974394e-001	 1.039209213621808e+001
 4.616317904091794e+000	 3.092414542177068e-001	 1.039734926938622e+001
 4.613101694463548e+000	 3.539978026966565e-001	 1.040159391403256e+001
 4.609437650474841e+000	 3.988819163619110e-001	 1.040467550145518e+001
 4.605321536351673e+000	 4.438878128064857e-001	 1.040652108637634e+001
 4.653328381045879e+000	 0.000000000000000e+000	 1.035436925393164e+001
 4.653120745213482e+000	 4.395716515470247e-002	 1.035697348932531e+001
 4.652494633322307e+000	 8.808132098706338e-002	 1.036089091453736e+001
 4.651445282069431e+000	 1.323673615311397e-001	 1.036572961063161e+001
 4.649967988797696e+000	 1.768100494083182e-001	 1.037110817069118e+001
 4.648058115186988e+000	 2.214040160652356e-001	 1.037666293522414e+001
 4.645711090979727e+000	 2.661437621226807e-001	 1.038205727601774e+001
 4.642922417737344e+000	 3.110236578380899e-001	 1.038699261590767e+001
 4.639687672624278e+000	 3.560379436841560e-001	 1.039122078898755e+001
 4.636002512215939e+000	 4.011807310459718e-001	 1.039455725877489e+001
 4.631862676326913e+000	 4.464460030390216e-001	 1.039689462130264e+001
 4.679992568791956e+000	 0.000000000000000e+000	 1.035889944958191e+001
 4.679783743178812e+000	 4.420904553009910e-002	 1.035851022735652e+001
 4.679154043583776e+000	 8.858603861691296e-002	 1.035970440623504e+001
 4.678098679409551e+000	 1.331258440365936e-001	 1.036212844806095e+001
 4.676612921052108e+000	 1.778231943996098e-001	 1.036543711960657e+001
 4.674692103613120e+000	 2.226726903900312e-001	 1.036930109019408e+001
 4.672331630646810e+000	 2.676688011164292e-001	 1.037341509380275e+001
 4.669526977937934e+000	 3.128058645770228e-001	 1.037750671778605e+001
 4.666273697307479e+000	 3.580780882416026e-001	 1.038134516634005e+001
 4.662567420442432e+000	 4.034795497526700e-001	 1.038468883166702e+001
 4.658403862745927e+000	 4.490041977481145e-001	 1.038736402095415e+001
 4.706656809863967e+000	 0.000000000000000e+000	 1.036795339638970e+001
 4.706446794467666e+000	 4.446092640917691e-002	 1.036521432771373e+001
 4.705813507161520e+000	 8.909075725605413e-002	 1.036409200203155e+001
 4.704752130053802e+000	 1.338843280588184e-001	 1.036427270350905e+001
 4.703257906593572e+000	 1.788363414169591e-001	 1.036545002625165e+001
 4.701326145304251e+000	 2.239413672519153e-001	 1.036733221177538e+001
 4.698952223551813e+000	 2.691938431599759e-001	 1.036965003560504e+001
 4.696131591344303e+000	 3.145880748800764e-001	 1.037216530711768e+001
 4.692859775159207e+000	 3.601182368790375e-001	 1.037468005207593e+001
 4.689132381795056e+000	 4.057783730566990e-001	 1.037704645249685e+001
 4.684945102243494e+000	 4.515623975732859e-001	 1.037917762352254e+001
 4.733321110927781e+000	 0.000000000000000e+000	 1.037798253533895e+001
 4.733109905745613e+000	 4.471280785492781e-002	 1.037410958833615e+001
 4.732473030720188e+000	 8.959547703070218e-002	 1.037163775078854e+001
 4.731405640665302e+000	 1.346428137874779e-001	 1.037031829341696e+001
 4.729902952083057e+000	 1.798494907136964e-001	 1.036990762182670e+001
 4.727960246918568e+000	 2.252100469680961e-001	 1.037017427361465e+001
 4.725572876349514e+000	 2.707188886346119e-001	 1.037090644812177e+001
 4.722736264607185e+000	 3.163702891928219e-001	 1.037192013510945e+001
 4.719445912825524e+000	 3.621583901065016e-001	 1.037306791428091e+001
 4.715697402914556e+000	 4.080772015327532e-001	 1.037424850309435e+001
 4.711486401454396e+000	 4.541206031540578e-001	 1.037541713565915e+001
 4.446075300271936e+000	 4.285387296057502e-001	 1.045724195132530e+001
 4.441661767834682e+000	 4.720935259706710e-001	 1.045741870612492e+001
 4.436804007790360e+000	 5.157540394362642e-001	 1.045861065950809e+001
 4.431498195041699e+000	 5.595142291933083e-001	 1.046153557849259e+001
 4.425740598943746e+000	 6.033679384448824e-001	 1.046691121716928e+001
 4.419527586972392e+000	 6.473088957992211e-001	 1.047542836958366e+001
 4.412855628386948e+000	 6.913307167858139e-001	 1.048692266210133e+001
 4.405721297882295e+000	 7.354269054959153e-001	 1.049796660700271e+001
 4.398121279226208e+000	 7.795908563484764e-001	 1.050815263547173e+001
 4.390052368877188e+000	 8.238158559823360e-001	 1.051755822095949e+001
 4.381511479578152e+000	 8.680950852753391e-001	 1.052626108752264e+001
 4.472616300914867e+000	 4.310969064089001e-001	 1.045071335632721e+001
 4.468176421743034e+000	 4.749117046406273e-001	 1.045053237913490e+001
 4.463289663131959e+000	 5.188328510548874e-001	 1.045146032243365e+001
 4.457952177150324e+000	 5.628542687816455e-001	 1.045419568164813e+001
 4.452160210882960e+000	 6.069697642707739e-001	 1.045945712673452e+001
 4.445910110121298e+000	 6.511730286932239e-001	 1.046796020045633e+001
 4.439198323047761e+000	 6.954576394661731e-001	 1.047929985620135e+001
 4.432021403909766e+000	 7.398170619033307e-001	 1.049006828906543e+001
 4.424376016678722e+000	 7.842446509914091e-001	 1.049996164056213e+001
 4.416258938689484e+000	 8.287336532936124e-001	 1.050899489208522e+001
 4.407667064255489e+000	 8.732772089808065e-001	 1.051719112648828e+001
 4.499157308192906e+000	 4.336550838514770e-001	 1.044307199271397e+001
 4.494691082279965e+000	 4.777298840151175e-001	 1.044285696819058e+001
 4.489775325094918e+000	 5.219116634433039e-001	 1.044380517865606e+001
 4.484406165872398e+000	 5.661943092051772e-001	 1.044659380309522e+001
 4.478579829427026e+000	 6.105715909973927e-001	 1.045193902021136e+001
 4.472292639865749e+000	 6.550371625536073e-001	 1.046057652005046e+001
 4.465541024294118e+000	 6.995845631786762e-001	 1.047182734461722e+001
 4.458321516512070e+000	 7.442072194087526e-001	 1.048242332414727e+001
 4.450630760694663e+000	 7.888984467982984e-001	 1.049213747351955e+001
 4.442465515053097e+000	 8.336514518348714e-001	 1.050093177286180e+001
 4.433822655471317e+000	 8.784593339823468e-001	 1.050878304863201e+001
 4.525698328740826e+000	 4.362132625730023e-001	 1.043459872663022e+001
 4.521205756073643e+000	 4.805480647986484e-001	 1.043461510083465e+001
 4.516261000300147e+000	 5.249904773711639e-001	 1.043581793538243e+001
 4.510860167820908e+000	 5.695343512988463e-001	 1.043885981073126e+001
 4.504999461180328e+000	 6.141734195251155e-001	 1.044444968134355e+001
 4.498675182800865e+000	 6.589012983463135e-001	 1.045333737437012e+001
 4.491883738711193e+000	 7.037114889549528e-001	 1.046454738214913e+001
 4.484621642263760e+000	 7.485973791096094e-001	 1.047505844102170e+001
 4.476885517837255e+000	 7.935522449324758e-001	 1.048469020291705e+001
 4.468672104519224e+000	 8.385692528354413e-001	 1.049336076454652e+001
 4.459978259764123e+000	 8.836414615753686e-001	 1.050100866469161e+001
 4.552239369193410e+000	 4.387714432129977e-001	 1.042554280270986e+001
 4.547720449752237e+000	 4.833662476957265e-001	 1.042599299586956e+001
 4.542746695368543e+000	 5.280692936081172e-001	 1.042763107338335e+001
 4.537314189608825e+000	 5.728743958975963e-001	 1.043108046925626e+001
 4.531419112747249e+000	 6.177752507543191e-001	 1.043703682339461e+001
 4.525057745521771e+000	 6.627654370372839e-001	 1.044625664690285e+001
 4.518226472884162e+000	 7.078384178266320e-001	 1.045745657504961e+001
 4.510921787739378e+000	 7.529875421033312e-001	 1.046795253246544e+001
 4.503140294669723e+000	 7.982060465572736e-001	 1.047758049054243e+001
 4.494878713639077e+000	 8.434870575246499e-001	 1.048622339934416e+001
 4.486133883672389e+000	 8.888235930552790e-001	 1.049378905287736e+001
 4.578780436185432e+000	 4.413296264109848e-001	 1.041612171185922e+001
 4.574235169943915e+000	 4.861844334108587e-001	 1.041714057173168e+001
 4.569232416921015e+000	 5.311481129238143e-001	 1.041933720167978e+001
 4.563768237849136e+000	 5.762144438363704e-001	 1.042330004635142e+001
 4.557838790732178e+000	 6.213770855853804e-001	 1.042970395142555e+001
 4.551440334623583e+000	 6.666295795924611e-001	 1.043930318100484e+001
 4.544569233398202e+000	 7.119653508253430e-001	 1.045050648615830e+001
 4.537221959513468e+000	 7.573777094873468e-001	 1.046103743901656e+001
 4.529395097755288e+000	 8.028598528360240e-001	 1.047072055329586e+001
 4.521085348963856e+000	 8.484048671318258e-001	 1.047941197966149e+001
 4.512289533734595e+000	 8.940057297174856e-001	 1.048699587438998e+001
 4.605321536351673e+000	 4.438878128064857e-001	 1.040652108637634e+001
 4.600749923276847e+000	 4.890026226485517e-001	 1.040817157851918e+001
 4.595718171578467e+000	 5.342269360879052e-001	 1.041098943239835e+001
 4.590222319154814e+000	 5.795544959501119e-001	 1.041552093574208e+001
 4.584258501739502e+000	 6.249789249186764e-001	 1.042241123837833e+001
 4.577822956701428e+000	 6.704937269777871e-001	 1.043238712752135e+001
 4.570912026838486e+000	 7.160922889827148e-001	 1.044360424831369e+001
 4.563522164160577e+000	 7.617678823590856e-001	 1.045419873855384e+001
 4.555649933657177e+000	 8.075136649320592e-001	 1.046397512867188e+001
 4.547292017044766e+000	 8.533226828862970e-001	 1.047277071893233e+001
 4.538445216489230e+000	 8.991878728573964e-001	 1.048045268872077e+001
 4.631862676326913e+000	 4.464460030390216e-001	 1.039689462130264e+001
 4.627264716379197e+000	 4.918208161133120e-001	 1.039916375271908e+001
 4.622203965961801e+000	 5.373057638700401e-001	 1.040260177498201e+001
 4.616676440138842e+000	 5.828945530737640e-001	 1.040770429646539e+001
 4.610678252373610e+000	 6.285807696545841e-001	 1.041507641441090e+001
 4.604205618350420e+000	 6.743578801592033e-001	 1.042537894127705e+001
 4.597254859790194e+000	 7.202192333303772e-001	 1.043661318570687e+001
 4.589822408255249e+000	 7.661580618159766e-001	 1.044727654146191e+001
 4.581904808938611e+000	 8.121674840087112e-001	 1.045716244368148e+001
 4.573498724433014e+000	 8.582405060173921e-001	 1.046609688395051e+001
 4.564600938474771e+000	 9.043700237704185e-001	 1.047393626874496e+001
 4.658403862745927e+000	 4.490041977481145e-001	 1.038736402095415e+001
 4.653779555879137e+000	 4.946390145096463e-001	 1.039015899372301e+001
 4.648689806691922e+000	 5.403845970398689e-001	 1.039414954898009e+001
 4.643130607414194e+000	 5.862346160422691e-001	 1.039977070769442e+001
 4.637098049238889e+000	 6.321826206934800e-001	 1.040757566895524e+001
 4.630588326165689e+000	 6.782220401026525e-001	 1.041812577338131e+001
 4.623597738838498e+000	 7.243461848999593e-001	 1.042935344285770e+001
 4.616122698372031e+000	 7.705482489554488e-001	 1.044006629115770e+001
 4.608159730162812e+000	 8.168213112293123e-001	 1.045005518707663e+001
 4.599705477679802e+000	 8.631583377544390e-001	 1.045914193865205e+001
 4.590756706229705e+000	 9.095521837519599e-001	 1.046717791561913e+001
 4.684945102243494e+000	 4.515623975732859e-001	 1.037917762352254e+001
 4.680294448404837e+000	 4.974572185420615e-001	 1.038177668681237e+001
 4.675175700389738e+000	 5.434634363670421e-001	 1.038579260633134e+001
 4.669584827593856e+000	 5.895746856905718e-001	 1.039162453847284e+001
 4.663517898939720e+000	 6.357844789357414e-001	 1.039974456499439e+001
 4.656971086742349e+000	 6.820862077740766e-001	 1.041043417875036e+001
 4.649940670568578e+000	 7.284731447230903e-001	 1.042160262090860e+001
 4.642423041085465e+000	 7.749384448749320e-001	 1.043231956976462e+001
 4.634414703893004e+000	 8.214751477571949e-001	 1.044238148474677e+001
 4.625912283336335e+000	 8.680761793267665e-001	 1.045161268929051e+001
 4.616912526292515e+000	 9.147343540974275e-001	 1.045986477349401e+001
 4.711486401454396e+000	 4.541206031540578e-001	 1.037541713565915e+001
 4.706809400584462e+000	 5.002754289150643e-001	 1.037718521483746e+001
 4.701661653676148e+000	 5.465422826212099e-001	 1.038038350299300e+001
 4.696039107290805e+000	 5.929147628536144e-001	 1.038540583050734e+001
 4.689937808080499e+000	 6.393863452817449e-001	 1.039273867854030e+001
 4.683353906675523e+000	 6.859503841394175e-001	 1.040270184376196e+001
 4.676283661565610e+000	 7.326001138314001e-001	 1.041328365655712e+001
 4.668723442970103e+000	 7.793286506718558e-001	 1.042375230247552e+001
 4.660669736692415e+000	 8.261289947556908e-001	 1.043382587816238e+001
 4.652119147953821e+000	 8.729940319637028e-001	 1.044317243095308e+001
 4.643068405201682e+000	 9.199165361022299e-001	 1.045164114405342e+001
 4.381511479578152e+000	 8.680950852753391e-001	 1.052626108752264e+001
 4.372494256268735e+000	 9.124282726195253e-001	 1.053365810007383e+001
 4.362999102610631e+000	 9.568017434643776e-001	 1.053948437784193e+001
 4.353023304130099e+000	 1.001208360994867e+000	 1.054431020909966e+001
 4.342564276823000e+000	 1.045640891710206e+000	 1.054867418318949e+001
 4.331619570558885e+000	 1.090092008085801e+000	 1.055306533588612e+001
 4.320186872431323e+000	 1.134554291362543e+000	 1.055789906913209e+001
 4.308264010049259e+000	 1.179020234462681e+000	 1.056349292187022e+001
 4.295848954764352e+000	 1.223482245031362e+000	 1.057003671390747e+001
 4.282939824829096e+000	 1.267932648602657e+000	 1.057755890696506e+001
 4.269534888480566e+000	 1.312363691888676e+000	 1.058588842479704e+001
 4.407667064255489e+000	 8.732772089808065e-001	 1.051719112648828e+001
 4.398596012318691e+000	 9.178750448236623e-001	 1.052398764336062e+001
 4.389044177011387e+000	 9.625134046409614e-001	 1.052918725096881e+001
 4.379008827655714e+000	 1.007185109014209e+000	 1.053336092885187e+001
 4.368487364822226e+000	 1.051882881261982e+000	 1.053705992073378e+001
 4.357477323754350e+000	 1.096599350117776e+000	 1.054079860647161e+001
 4.345976377738679e+000	 1.141327052535939e+000	 1.054503179460826e+001
 4.333982341416010e+000	 1.186058436624959e+000	 1.055013121562058e+001
 4.321493174027922e+000	 1.230785864707158e+000	 1.055635675222954e+001
 4.308506982593760e+000	 1.275501616503612e+000	 1.056382379326452e+001
 4.295022025012785e+000	 1.320197892442914e+000	 1.057246601421441e+001
 4.433822655471317e+000	 8.784593339823468e-001	 1.050878304863201e+001
 4.424697774893605e+000	 9.233218183900276e-001	 1.051517635178062e+001
 4.415089257922868e+000	 9.682250672459721e-001	 1.051998190383837e+001
 4.404994357677094e+000	 1.013161858528212e+000	 1.052376634781761e+001
 4.394410459301542e+000	 1.058124872374679e+000	 1.052708819679366e+001
 4.383335083413517e+000	 1.103106693776949e+000	 1.053047904670695e+001
 4.371765889492628e+000	 1.148099815402816e+000	 1.053442471743377e+001
 4.359700679211523e+000	 1.193096640547001e+000	 1.053934134937575e+001
 4.347137399701697e+000	 1.238089486208987e+000	 1.054554803181358e+001
 4.334074146749346e+000	 1.283070586296852e+000	 1.055323523418585e+001
 4.320509167915920e+000	 1.328032094955654e+000	 1.056242863794451e+001
 4.459978259764123e+000	 8.836414615753686e-001	 1.050100866469161e+001
 4.450799550518534e+000	 9.287685946801909e-001	 1.050717184494541e+001
 4.441134351855978e+000	 9.739367327072045e-001	 1.051178555935824e+001
 4.430979900690286e+000	 1.019138611030946e+000	 1.051540726242753e+001
 4.420333566741423e+000	 1.064366866608685e+000	 1.051859530267250e+001
 4.409192856000538e+000	 1.109614040690051e+000	 1.052189157474454e+001
 4.397555414140286e+000	 1.154872581656271e+000	 1.052580351052668e+001
 4.385419029865138e+000	 1.200134847988272e+000	 1.053078139912368e+001
 4.372781638196507e+000	 1.245393111362680e+000	 1.053719218175128e+001
 4.359641323687432e+000	 1.290639559874549e+000	 1.054528904873299e+001
 4.345996323561552e+000	 1.335866301385387e+000	 1.055517436178412e+001
 4.486133883672389e+000	 8.888235930552790e-001	 1.049378905287736e+001
 4.476901345718530e+000	 9.342153750557224e-001	 1.049987127406078e+001
 4.467179465321621e+000	 9.796484024524531e-001	 1.050446588856532e+001
 4.456965463191335e+000	 1.025115368016482e+000	 1.050811560845727e+001
 4.446256693622321e+000	 1.070608865524385e+000	 1.051137169383097e+001
 4.435050647979574e+000	 1.116121392483815e+000	 1.051477803176308e+001
 4.423344958128767e+000	 1.161645352989399e+000	 1.051885409940357e+001
 4.411137399806196e+000	 1.207173060708236e+000	 1.052407356964985e+001
 4.398425895923181e+000	 1.252696741994064e+000	 1.053083935734897e+001
 4.385208519799599e+000	 1.298208539128881e+000	 1.053945447409364e+001
 4.371483498321261e+000	 1.343700513690607e+000	 1.055005085343671e+001
 4.512289533734595e+000	 8.940057297174856e-001	 1.048699587438998e+001
 4.503003167018644e+000	 9.396621608781910e-001	 1.049312281115672e+001
 4.493224604830710e+000	 9.853600779095112e-001	 1.049784266956556e+001
 4.482951051676290e+000	 1.031092130978891e+000	 1.050167745754649e+001
 4.472179846424698e+000	 1.076850870682165e+000	 1.050516397530366e+001
 4.460908465814778e+000	 1.122628750784974e+000	 1.050883932362607e+001
 4.449134527905185e+000	 1.168418131095294e+000	 1.051322495508154e+001
 4.436855795464038e+000	 1.214211280466358e+000	 1.051880663341951e+001
 4.424070179292549e+000	 1.260000379928967e+000	 1.052601081945662e+001
 4.410775741477422e+000	 1.305777525952022e+000	 1.053517687960659e+001
 4.396970698566632e+000	 1.351534733829807e+000	 1.054640393812946e+001
 4.538445216489230e+000	 8.991878728573964e-001	 1.048045268872077e+001
 4.529105020943929e+000	 9.451089535091675e-001	 1.048672713658050e+001
 4.519269776894150e+000	 9.910717605061749e-001	 1.049168944352814e+001
 4.508936672641198e+000	 1.037068901412243e+000	 1.049583452502700e+001
 4.498103031629029e+000	 1.083092883642415e+000	 1.049967688267821e+001
 4.486766315970298e+000	 1.129136117220259e+000	 1.050373755781831e+001
 4.474924129916655e+000	 1.175190917667052e+000	 1.050852938227934e+001
 4.462574223268005e+000	 1.221249509022102e+000	 1.051453836508328e+001
 4.449714494715445e+000	 1.267304026993219e+000	 1.052220151004493e+001
 4.436342995112479e+000	 1.313346522236146e+000	 1.053188047790071e+001
 4.422457930669240e+000	 1.359368963761478e+000	 1.054358186023609e+001
 4.564600938474771e+000	 9.043700237704185e-001	 1.047393626874496e+001
 4.555206914019435e+000	 9.505557543102216e-001	 1.048043892482663e+001
 4.545314988022853e+000	 9.967834516702375e-001	 1.048573516785790e+001
 4.534922332582101e+000	 1.043045680810607e+000	 1.049028598682789e+001
 4.524026255715767e+000	 1.089334905965518e+000	 1.049457525882427e+001
 4.512624204910294e+000	 1.135643493416402e+000	 1.049909817586153e+001
 4.500713770610291e+000	 1.181963714397768e+000	 1.050434780311956e+001
 4.488292689647442e+000	 1.228287748134932e+000	 1.051079797179688e+001
 4.475358848602693e+000	 1.274607685012648e+000	 1.051888262419893e+001
 4.461910287096350e+000	 1.320915529873429e+000	 1.052897103333899e+001
 4.447945201000674e+000	 1.367203205444115e+000	 1.054092855085012e+001
 4.590756706229705e+000	 9.095521837519599e-001	 1.046717791561913e+001
 4.581308852770215e+000	 9.560025646429224e-001	 1.047396832877426e+001
 4.571360244727723e+000	 1.002495152829494e+000	 1.047966586666491e+001
 4.560908037995050e+000	 1.049022470668055e+000	 1.048469029285078e+001
 4.549949525165379e+000	 1.095576939211864e+000	 1.048948602655173e+001
 4.538482139098918e+000	 1.142150881000136e+000	 1.049451208140126e+001
 4.526503456433209e+000	 1.188736522980538e+000	 1.050023003652563e+001
 4.514011201031684e+000	 1.235325999564314e+000	 1.050708851953861e+001
 4.501003247365127e+000	 1.281911355813081e+000	 1.051550417868951e+001
 4.487477623820609e+000	 1.328484550756047e+000	 1.052583856789614e+001
 4.473432515932507e+000	 1.375037460836209e+000	 1.053778411917789e+001
 4.616912526292515e+000	 9.147343540974275e-001	 1.045986477349401e+001
 4.607410843721322e+000	 9.614493858688405e-001	 1.046698246240044e+001
 4.597405553519671e+000	 1.008206865411738e+000	 1.047312627864502e+001
 4.586893795376091e+000	 1.054999272478657e+000	 1.047866697696430e+001
 4.575872846458331e+000	 1.101818984941838e+000	 1.048400015737060e+001
 4.564340125000327e+000	 1.148658281598193e+000	 1.048953776414957e+001
 4.552293193832523e+000	 1.195509345108457e+000	 1.049569757349921e+001
 4.539729763850075e+000	 1.242364265069712e+000	 1.050288935560035e+001
 4.526647697413575e+000	 1.289215041220348e+000	 1.051149757727830e+001
 4.513045011676836e+000	 1.336053586776173e+000	 1.052185766016641e+001
 4.498919881836327e+000	 1.382871731896253e+000	 1.053348534255142e+001
 4.643068405201682e+000	 9.199165361022299e-001	 1.045164114405342e+001
 4.633512893397808e+000	 9.668962193495464e-001	 1.045910688203461e+001
 4.623450920909602e+000	 1.013918590844765e+000	 1.046572145330184e+001
 4.612879611221272e+000	 1.060976087736485e+000	 1.047179846376016e+001
 4.601796226075083e+000	 1.108061044715827e+000	 1.047767463651741e+001
 4.590198169078672e+000	 1.155165696837306e+000	 1.048370341986065e+001
 4.578082989255348e+000	 1.202282182474619e+000	 1.049024584845611e+001
 4.565448384531957e+000	 1.249402546410591e+000	 1.049765852742101e+001
 4.552292205158868e+000	 1.296518743060277e+000	 1.050627817290475e+001
 4.538612457056610e+000	 1.343622639825984e+000	 1.051637261932833e+001
 4.524407305083716e+000	 1.390706020582740e+000	 1.052736615511962e+001
 4.269534888480566e+000	 1.312363691888676e+000	 1.058588842479704e+001
 4.255632565876873e+000	 1.356767545539909e+000	 1.059421684794024e+001
 4.241231428808608e+000	 1.401136305660350e+000	 1.060200168360467e+001
 4.226330206727042e+000	 1.445461999293613e+000	 1.060969015966173e+001
 4.210927790553209e+000	 1.489736588820484e+000	 1.061771849552747e+001
 4.195023235321111e+000	 1.533951975835254e+000	 1.062645764437252e+001
 4.178615762716243e+000	 1.578100005132252e+000	 1.063619939365968e+001
 4.161704763504536e+000	 1.622172468799514e+000	 1.064714130837212e+001
 4.144289799846913e+000	 1.666161110416386e+000	 1.065937048775794e+001
 4.126370607494755e+000	 1.710057629351524e+000	 1.067284611074063e+001
 4.107947097861665e+000	 1.753853685157622e+000	 1.068738075013704e+001
 4.295022025012785e+000	 1.320197892442914e+000	 1.057246601421441e+001
 4.281036712012197e+000	 1.364866816437977e+000	 1.058160819405658e+001
 4.266549606856836e+000	 1.409500437410214e+000	 1.059065691598004e+001
 4.251559431413378e+000	 1.454090734808399e+000	 1.059999694594081e+001
 4.236065069982164e+000	 1.498629623032470e+000	 1.060998568026953e+001
 4.220065571956185e+000	 1.543108955333008e+000	 1.062090791675936e+001
 4.203560154374750e+000	 1.587520527821554e+000	 1.063296185131731e+001
 4.186548204366940e+000	 1.631856083588732e+000	 1.064624390587390e+001
 4.169029281479971e+000	 1.676107316926896e+000	 1.066073235587809e+001
 4.151003119887775e+000	 1.720265877653798e+000	 1.067626972998650e+001
 4.132469630475130e+000	 1.764323375533540e+000	 1.069254395953113e+001
 4.320509167915920e+000	 1.328032094955654e+000	 1.056242863794451e+001
 4.306440864497702e+000	 1.372966089360724e+000	 1.057241674260317e+001
 4.291867791233776e+000	 1.417864571250883e+000	 1.058260450830112e+001
 4.276788662406224e+000	 1.462719472480056e+000	 1.059333892988789e+001
 4.261202355694690e+000	 1.507522659467327e+000	 1.060490902881094e+001
 4.245107914851145e+000	 1.552265937119550e+000	 1.061752568887879e+001
 4.228504552268712e+000	 1.596941052865476e+000	 1.063130757219703e+001
 4.211391651439614e+000	 1.641539700798301e+000	 1.064626585209511e+001
 4.193768769297368e+000	 1.686053525923383e+000	 1.066228772866876e+001
 4.175635638438452e+000	 1.730474128507555e+000	 1.067911869680217e+001
 4.156992169218811e+000	 1.774793068526321e+000	 1.069634354149360e+001
 4.345996323561552e+000	 1.335866301385387e+000	 1.055517436178412e+001
 4.331845029684224e+000	 1.381065366332917e+000	 1.056595567328359e+001
 4.317185988268775e+000	 1.426228709273348e+000	 1.057712842046145e+001
 4.302017906012683e+000	 1.471348214465735e+000	 1.058899241908822e+001
 4.286339653974895e+000	 1.516415700348281e+000	 1.060177856258213e+001
 4.270150270266355e+000	 1.561422923484098e+000	 1.061563584020944e+001
 4.253448962634002e+000	 1.606361582619120e+000	 1.063061719597843e+001
 4.236235110933194e+000	 1.651223322849099e+000	 1.064666418746636e+001
 4.218508269483742e+000	 1.695999739892365e+000	 1.066359040729356e+001
 4.200268169304669e+000	 1.740682384464818e+000	 1.068106363415677e+001
 4.181514720223089e+000	 1.785262766753336e+000	 1.069858668527861e+001
 4.371483498321261e+000	 1.343700513690607e+000	 1.055005085343671e+001
 4.357249213922601e+000	 1.389164649379327e+000	 1.056153397468702e+001
 4.342504204291177e+000	 1.434592853568603e+000	 1.057350953277532e+001
 4.327247168539862e+000	 1.479976962922586e+000	 1.058623125809703e+001
 4.311476971106893e+000	 1.525308747898565e+000	 1.059988196064314e+001
 4.295192644462189e+000	 1.570579916715873e+000	 1.061456053211249e+001
 4.278393391706491e+000	 1.615782119437595e+000	 1.063026777196052e+001
 4.261078589058305e+000	 1.660906952161999e+000	 1.064689099357454e+001
 4.243247788223720e+000	 1.705945961320361e+000	 1.066418737017045e+001
 4.224900718644310e+000	 1.750890648077604e+000	 1.068176598415892e+001
 4.206037289618354e+000	 1.795732472831950e+000	 1.069906854866126e+001
 4.396970698566632e+000	 1.351534733829807e+000	 1.054640393812946e+001
 4.382653423563671e+000	 1.397263940524723e+000	 1.055845693639381e+001
 4.367822445630329e+000	 1.442957006227640e+000	 1.057102614945901e+001
 4.352476456294863e+000	 1.488605720007758e+000	 1.058432735834345e+001
 4.336614313374794e+000	 1.534201804341407e+000	 1.059850513090827e+001
 4.320235043699011e+000	 1.579736919104094e+000	 1.061361983511252e+001
 4.303337845722058e+000	 1.625202665676005e+000	 1.062963345695463e+001
 4.285922092025571e+000	 1.670590591157880e+000	 1.064639417603021e+001
 4.267987331701933e+000	 1.715892192693890e+000	 1.066361965496746e+001
 4.249533292615256e+000	 1.761098921897935e+000	 1.068087900311125e+001
 4.230559883534988e+000	 1.806202189379531e+000	 1.069757337974340e+001
 4.422457930669240e+000	 1.359368963761478e+000	 1.054358186023609e+001
 4.408057664958274e+000	 1.405363241793874e+000	 1.055602664059841e+001
 4.393140718615578e+000	 1.451321169341452e+000	 1.056895450220531e+001
 4.377705775584788e+000	 1.497234487878403e+000	 1.058255122819345e+001
 4.361751687062710e+000	 1.543094871900039e+000	 1.059693278108920e+001
 4.345277474237193e+000	 1.588893932937980e+000	 1.061213235495188e+001
 4.328282330916575e+000	 1.634623223689457e+000	 1.062808621050711e+001
 4.310765626045626e+000	 1.680274242257618e+000	 1.064461824272574e+001
 4.292726906103014e+000	 1.725838436499471e+000	 1.066142323356017e+001
 4.274165897375390e+000	 1.771307208477830e+000	 1.067804874661257e+001
 4.255082508103375e+000	 1.816671919013446e+000	 1.069387562541377e+001
 4.447945201000674e+000	 1.367203205444115e+000	 1.054092855085012e+001
 4.433461944457243e+000	 1.413462555211549e+000	 1.055354245327277e+001
 4.418459029576266e+000	 1.459685345001031e+000	 1.056656925385169e+001
 4.402935132716745e+000	 1.505863268691670e+000	 1.058017250317016e+001
 4.386889098454755e+000	 1.551987952797689e+000	 1.059444898937237e+001
 4.370319942337101e+000	 1.598050960506750e+000	 1.060941585747352e+001
 4.353226853525915e+000	 1.644043795833055e+000	 1.062499648756456e+001
 4.335609197329096e+000	 1.689957907882091e+000	 1.064100507767555e+001
 4.317466517611591e+000	 1.735784695223622e+000	 1.065712988023960e+001
 4.298798539082597e+000	 1.781515510369309e+000	 1.067291504511399e+001
 4.279605169453902e+000	 1.827141664351063e+000	 1.068774102700603e+001
 4.473432515932507e+000	 1.375037460836209e+000	 1.053778411917789e+001
 4.458866268411421e+000	 1.421561882802518e+000	 1.055030151489224e+001
 4.443777384841742e+000	 1.468049535297369e+000	 1.056314400214260e+001
 4.428164533997837e+000	 1.514492064604708e+000	 1.057646047632999e+001
 4.412026553835039e+000	 1.560881049257587e+000	 1.059033777484667e+001
 4.395362454259105e+000	 1.607208004099625e+000	 1.060478789238436e+001
 4.378171419785952e+000	 1.653464384461906e+000	 1.061973392868994e+001
 4.360452812086606e+000	 1.699641590452172e+000	 1.063499471062064e+001
 4.342206172412294e+000	 1.745730971352863e+000	 1.065026803344694e+001
 4.323431223894759e+000	 1.791723830124395e+000	 1.066511247031719e+001
 4.304127873716954e+000	 1.837611428009748e+000	 1.067892770367304e+001
 4.498919881836327e+000	 1.382871731896253e+000	 1.053348534255142e+001
 4.484270643171641e+000	 1.429661226591549e+000	 1.054559923074591e+001
 4.469095790741352e+000	 1.476413742321459e+000	 1.055795178358678e+001
 4.453393985735167e+000	 1.523120877774671e+000	 1.057068462879320e+001
 4.437164059487676e+000	 1.569774163502965e+000	 1.058388366769638e+001
 4.420405016263575e+000	 1.616365066005822e+000	 1.059756641594933e+001
 4.403116035932562e+000	 1.662884991931116e+000	 1.061166804793257e+001
 4.385296476528788e+000	 1.709325292388740e+000	 1.062602608257235e+001
 4.366945876689758e+000	 1.755677267373712e+000	 1.064036365129878e+001
 4.348063957969757e+000	 1.801932170295104e+000	 1.065427129278565e+001
 4.328650627022914e+000	 1.848081212606869e+000	 1.066718722397284e+001
 4.524407305083716e+000	 1.390706020582740e+000	 1.052736615511962e+001
 4.509675075088747e+000	 1.437760588603412e+000	 1.053872976085159e+001
 4.494414253604443e+000	 1.484777968164294e+000	 1.055026557741035e+001
 4.478623494235840e+000	 1.531749710358705e+000	 1.056211516042780e+001
 4.462301621696776e+000	 1.578667297757052e+000	 1.057437227917420e+001
 4.445447634610878e+000	 1.625522148514563e+000	 1.058707041266425e+001
 4.428060708201620e+000	 1.672305620595791e+000	 1.060016891845108e+001
 4.410140196866271e+000	 1.719009016112672e+000	 1.061353780746248e+001
 4.391685636628613e+000	 1.765623585772689e+000	 1.062694106115524e+001
 4.372696747465478e+000	 1.812140533433458e+000	 1.064001843112338e+001
 4.353173435502171e+000	 1.858551020759795e+000	 1.065226566613952e+001
 4.107947097861665e+000	 1.753853685157622e+000	 1.068738075013704e+001
 4.089022237317836e+000	 1.797534358250065e+000	 1.070320329371961e+001
 4.069593571258429e+000	 1.841097824563030e+000	 1.071953027879866e+001
 4.049661552156451e+000	 1.884535657582464e+000	 1.073429268045319e+001
 4.029226814984733e+000	 1.927839409546485e+000	 1.074509026182329e+001
 4.008290178599602e+000	 1.971000616255271e+000	 1.074916760998414e+001
 3.986852646976334e+000	 2.014010801950552e+000	 1.074421023205341e+001
 3.964915410292882e+000	 2.056861484259475e+000	 1.074030809655383e+001
 3.942479845858591e+000	 2.099544179197508e+000	 1.074010816612375e+001
 3.919547518884829e+000	 2.142050406224803e+000	 1.074216625725604e+001
 3.896120183094670e+000	 2.184371693350318e+000	 1.074503986691200e+001
 4.132469630475130e+000	 1.764323375533540e+000	 1.069254395953113e+001
 4.113431797320074e+000	 1.808264801918528e+000	 1.070918287298516e+001
 4.093887151164926e+000	 1.852088321854113e+000	 1.072494680503196e+001
 4.073836147183756e+000	 1.895785458523871e+000	 1.073786498752656e+001
 4.053279424139898e+000	 1.939347713736705e+000	 1.074565172945625e+001
 4.032217805777888e+000	 1.982766572765459e+000	 1.074568207244931e+001
 4.010652302066275e+000	 2.026033509255522e+000	 1.073826796120505e+001
 3.988584110287830e+000	 2.069139990198221e+000	 1.073464468627969e+001
 3.966014615973809e+000	 2.112077480963578e+000	 1.073448738959847e+001
 3.942945393679174e+000	 2.154837450386865e+000	 1.073632609663282e+001
 3.919378207595921e+000	 2.197411375903190e+000	 1.073880475745957e+001
 4.156992169218811e+000	 1.774793068526321e+000	 1.069634354149360e+001
 4.137841363424330e+000	 1.818995248269089e+000	 1.071314949916832e+001
 4.118180737144485e+000	 1.863078821892374e+000	 1.072798141271056e+001
 4.098010748254414e+000	 1.907035262277360e+000	 1.073895893475772e+001
 4.077332039307960e+000	 1.950856020803727e+000	 1.074390112601229e+001
 4.056145438937856e+000	 1.994532532216958e+000	 1.074030172853285e+001
 4.034451963105934e+000	 2.038056219566090e+000	 1.073188642241648e+001
 4.012252816199793e+000	 2.081418499206607e+000	 1.072763862467837e+001
 3.989549391972592e+000	 2.124610785863071e+000	 1.072710675216311e+001
 3.966343274322894e+000	 2.167624497745854e+000	 1.072867795752092e+001
 3.942636237911627e+000	 2.210451061716202e+000	 1.073093279624095e+001
 4.181514720223089e+000	 1.785262766753336e+000	 1.069858668527861e+001
 4.162250941732745e+000	 1.829725699984286e+000	 1.071504228832159e+001
 4.142474335270258e+000	 1.874069327425340e+000	 1.072867645580594e+001
 4.122185361411838e+000	 1.918285071655266e+000	 1.073769155544007e+001
 4.101384666501830e+000	 1.962364333624481e+000	 1.074000176805069e+001
 4.080073084061180e+000	 2.006298497551087e+000	 1.073336605067772e+001
 4.058251636045005e+000	 2.050078935887735e+000	 1.072519110719049e+001
 4.035921533945722e+000	 2.093697014354039e+000	 1.072049838316527e+001
 4.013084179738415e+000	 2.137144097029070e+000	 1.071893340445631e+001
 3.989741166665250e+000	 2.180411551498271e+000	 1.071997061601321e+001
 3.965894279856078e+000	 2.223490754048992e+000	 1.072206193473572e+001
 4.206037289618354e+000	 1.795732472831950e+000	 1.069906854866126e+001
 4.186660538347462e+000	 1.840456159746656e+000	 1.071478554495869e+001
 4.166767951615396e+000	 1.885059841200544e+000	 1.072705732277337e+001
 4.146359992699433e+000	 1.929534889469920e+000	 1.073416138121390e+001
 4.125437311734429e+000	 1.973872655075902e+000	 1.073409754340146e+001
 4.104000747129543e+000	 2.018064471709167e+000	 1.072576935761679e+001
 4.082051326833178e+000	 2.062101661225940e+000	 1.071811039009213e+001
 4.059590269442583e+000	 2.105975538709924e+000	 1.071328460714597e+001
 4.036618985154763e+000	 2.149677417594655e+000	 1.071102976550244e+001
 4.013139076555489e+000	 2.193198614840611e+000	 1.071102531378529e+001
 3.989152339243563e+000	 2.236530456161202e+000	 1.071277866456962e+001
 4.230559883534988e+000	 1.806202189379531e+000	 1.069757337974340e+001
 4.211070159370624e+000	 1.851186630238740e+000	 1.071229000778891e+001
 4.191061592253049e+000	 1.896050365965515e+000	 1.072313378711220e+001
 4.170534648160610e+000	 1.940784718533653e+000	 1.072844987840334e+001
 4.149489981018678e+000	 1.985380988034921e+000	 1.072631441430349e+001
 4.127928434124627e+000	 2.029830457632516e+000	 1.071755756931440e+001
 4.105851041420147e+000	 2.074124398586184e+000	 1.071057823811132e+001
 4.083259028607333e+000	 2.118254075343665e+000	 1.070592097357973e+001
 4.060153814105110e+000	 2.162210750692911e+000	 1.070339641222948e+001
 4.036537009842877e+000	 2.205985690969373e+000	 1.070276404394830e+001
 4.012410421888376e+000	 2.249570171312477e+000	 1.070372866392165e+001
 4.255082508103375e+000	 1.816671919013446e+000	 1.069387562541377e+001
 4.235479810904370e+000	 1.861917114143071e+000	 1.070745407880374e+001
 4.215355263256365e+000	 1.907040904467783e+000	 1.071690133862717e+001
 4.194709333838777e+000	 1.952034561658800e+000	 1.072062286305148e+001
 4.173542680367494e+000	 1.996889335378473e+000	 1.071676189787981e+001
 4.151856151028105e+000	 2.041596458262454e+000	 1.070865452668401e+001
 4.129650785755607e+000	 2.086147150973950e+000	 1.070253469838635e+001
 4.106927817356930e+000	 2.130532627324669e+000	 1.069833787163628e+001
 4.083688672472942e+000	 2.174744099456916e+000	 1.069592851215488e+001
 4.059934972376665e+000	 2.218772783081054e+000	 1.069512509482884e+001
 4.035668533604806e+000	 2.262609902762454e+000	 1.069569644930246e+001
 4.279605169453902e+000	 1.827141664351063e+000	 1.068774102700603e+001
 4.259889499050846e+000	 1.872647614142192e+000	 1.070016503639149e+001
 4.239648970698495e+000	 1.918031459454879e+000	 1.070834249617410e+001
 4.218884055777345e+000	 1.963284421657692e+000	 1.071073189551725e+001
 4.197595415793796e+000	 2.008397699983488e+000	 1.070572682667513e+001
 4.175783903821666e+000	 2.053362476540301e+000	 1.069899055594231e+001
 4.153450565789250e+000	 2.098169921394718e+000	 1.069392636349705e+001
 4.130596641608336e+000	 2.142811197722343e+000	 1.069047284961781e+001
 4.107223566141736e+000	 2.187277467019754e+000	 1.068852955303782e+001
 4.083332970006111e+000	 2.231559894372153e+000	 1.068795319726844e+001
 4.058926680207141e+000	 2.275649653770777e+000	 1.068855393843240e+001
 4.304127873716954e+000	 1.837611428009748e+000	 1.067892770367304e+001
 4.284299229912193e+000	 1.883378132918639e+000	 1.069030023312582e+001
 4.263942720652592e+000	 1.929022033674333e+000	 1.069742810263714e+001
 4.243058820019717e+000	 1.974534301342660e+000	 1.069881565545847e+001
 4.221648193310499e+000	 2.019906084726900e+000	 1.069370543661708e+001
 4.199711698486981e+000	 2.065128515407375e+000	 1.068850291415753e+001
 4.177250387470768e+000	 2.110192712853969e+000	 1.068470681522674e+001
 4.154265507278510e+000	 2.155089789606092e+000	 1.068227104083900e+001
 4.130758500994970e+000	 2.199810856514507e+000	 1.068111173498203e+001
 4.106731008580471e+000	 2.244347028039166e+000	 1.068110344682634e+001
 4.082184867509671e+000	 2.288689427597087e+000	 1.068207528919876e+001
 4.328650627022914e+000	 1.848081212606869e+000	 1.066718722397284e+001
 4.308709009590553e+000	 1.894108673154950e+000	 1.067772827884435e+001
 4.288236519191803e+000	 1.940012629873676e+000	 1.068411860285154e+001
 4.267233632609309e+000	 1.985784203526040e+000	 1.068490129798842e+001
 4.245701018930529e+000	 2.031414492485641e+000	 1.068063011682606e+001
 4.223639541005738e+000	 2.076894577804999e+000	 1.067713621420852e+001
 4.201050256749856e+000	 2.122215528357185e+000	 1.067483704765237e+001
 4.177934420284409e+000	 2.167368406045322e+000	 1.067368556930438e+001
 4.154293482916130e+000	 2.212344271074257e+000	 1.067359634335159e+001
 4.130129093949001e+000	 2.257134187278590e+000	 1.067444162879494e+001
 4.105443101326692e+000	 2.301729227501026e+000	 1.067604745679005e+001
 4.353173435502171e+000	 1.858551020759795e+000	 1.065226566613952e+001
 4.333118844188068e+000	 1.904839237533663e+000	 1.066231020960659e+001
 4.312530372389278e+000	 1.951003250800439e+000	 1.066836530515387e+001
 4.291408499589530e+000	 1.997034131020163e+000	 1.066900579175884e+001
 4.269753898666800e+000	 2.042922926136646e+000	 1.066641280798099e+001
 4.247567437359611e+000	 2.088660666674489e+000	 1.066484282997182e+001
 4.224850179576207e+000	 2.134238370909847e+000	 1.066428587038238e+001
 4.201603386542996e+000	 2.179647050109439e+000	 1.066467793598427e+001
 4.177828517788692e+000	 2.224877713832085e+000	 1.066591410326111e+001
 4.153527231960960e+000	 2.269921375286927e+000	 1.066784452628275e+001
 4.128701387472490e+000	 2.314769056742235e+000	 1.067027044096878e+001
 3.896120183094670e+000	 2.184371693350318e+000	 1.074503986691200e+001
 3.872196156391830e+000	 2.226505887565815e+000	 1.075037865716681e+001
 3.847781051657799e+000	 2.268438184788724e+000	 1.075983965049551e+001
 3.822877194375687e+000	 2.310160168438054e+000	 1.077202272651774e+001
 3.797487099402197e+000	 2.351663451361817e+000	 1.078556395619532e+001
 3.771613470733660e+000	 2.392939681090942e+000	 1.079913987913345e+001
 3.745259201099026e+000	 2.433980545103553e+000	 1.081147066600036e+001
 3.718427371378765e+000	 2.474777776093068e+000	 1.082132210895037e+001
 3.691121249848881e+000	 2.515323157233418e+000	 1.082750639399624e+001
 3.663344291249593e+000	 2.555608527434688e+000	 1.082888162104923e+001
 3.635100135678463e+000	 2.595625786582433e+000	 1.082435004972889e+001
 3.919378207595921e+000	 2.197411375903190e+000	 1.073880475745957e+001
 3.895311365586440e+000	 2.239797091651857e+000	 1.074367812901340e+001
 3.870750514038509e+000	 2.281979705176810e+000	 1.075265611268942e+001
 3.845697992317276e+000	 2.323950749653989e+000	 1.076435870982158e+001
 3.820156330291954e+000	 2.365701787864012e+000	 1.077744267714423e+001
 3.794128248100461e+000	 2.407224417477454e+000	 1.079060599024708e+001
 3.767616655739987e+000	 2.448510276350554e+000	 1.080259114226287e+001
 3.740624652482407e+000	 2.489551047824761e+000	 1.081218721777349e+001
 3.713155526113803e+000	 2.530338466023375e+000	 1.081823069343414e+001
 3.685212751997570e+000	 2.570864321138575e+000	 1.081960492907334e+001
 3.656799991960950e+000	 2.611120464702004e+000	 1.081523832592312e+001
 3.942636237911627e+000	 2.210451061716202e+000	 1.073093279624095e+001
 3.918426580559851e+000	 2.253088299060944e+000	 1.073561348595452e+001
 3.893719982161631e+000	 2.295521228950525e+000	 1.074437898513621e+001
 3.868518795964159e+000	 2.337741334317803e+000	 1.075586037169614e+001
 3.842825566849163e+000	 2.379740127875997e+000	 1.076872698502436e+001
 3.816643031096151e+000	 2.421509157435314e+000	 1.078169110577034e+001
 3.789974115970547e+000	 2.463040011230107e+000	 1.079351141760244e+001
 3.762821939135638e+000	 2.504324323249833e+000	 1.080299518786300e+001
 3.735189807887588e+000	 2.545353778567166e+000	 1.080899911602022e+001
 3.707081218212970e+000	 2.586120118656366e+000	 1.081042881158122e+001
 3.678499853668706e+000	 2.626615146695153e+000	 1.080623687655984e+001
 3.965894279856078e+000	 2.223490754048992e+000	 1.072206193473572e+001
 3.941541807090635e+000	 2.266379513115587e+000	 1.072670631258242e+001
 3.916689461769292e+000	 2.309062759494951e+000	 1.073542589364325e+001
 3.891339611021289e+000	 2.351531925876843e+000	 1.074685370506006e+001
 3.865494814740871e+000	 2.393778474907056e+000	 1.075966348088148e+001
 3.839157825349139e+000	 2.435793904535413e+000	 1.077257458882668e+001
 3.812331587379767e+000	 2.477569753374349e+000	 1.078435568236234e+001
 3.785019236887463e+000	 2.519097606061323e+000	 1.079382701176406e+001
 3.757224100678466e+000	 2.560369098618344e+000	 1.079986134030954e+001
 3.728949695362555e+000	 2.601375923801742e+000	 1.080138342503797e+001
 3.700199726226330e+000	 2.642109836435287e+000	 1.079736803549549e+001
 3.989152339243563e+000	 2.236530456161202e+000	 1.071277866456962e+001
 3.964657050957376e+000	 2.279670737138295e+000	 1.071742988039983e+001
 3.939658958603628e+000	 2.322604300195172e+000	 1.072616903159634e+001
 3.914160443193615e+000	 2.365322527778455e+000	 1.073762188028630e+001
 3.888164079634114e+000	 2.407816832466474e+000	 1.075045827805533e+001
 3.861672636487839e+000	 2.450078662348638e+000	 1.076339737086030e+001
 3.834689075556711e+000	 2.492099506415424e+000	 1.077521146912569e+001
 3.807216551286875e+000	 2.533870899952260e+000	 1.078472851327269e+001
 3.779258409994675e+000	 2.575384429930460e+000	 1.079083307791604e+001
 3.750818188913090e+000	 2.616631740388379e+000	 1.079246587179411e+001
 3.721899615058423e+000	 2.657604537795815e+000	 1.078862170506098e+001
 4.012410421888376e+000	 2.249570171312477e+000	 1.070372866392165e+001
 3.987772317938652e+000	 2.292961974451581e+000	 1.070821044944755e+001
 3.962628478406767e+000	 2.336145854436272e+000	 1.071693640974063e+001
 3.936981298186089e+000	 2.379113143469983e+000	 1.072840644938148e+001
 3.910833367195941e+000	 2.421855204063538e+000	 1.074127816699941e+001
 3.884187470140661e+000	 2.464363434445877e+000	 1.075426308333120e+001
 3.857046586090442e+000	 2.506629273985477e+000	 1.076613075750977e+001
 3.829413887882881e+000	 2.548644208615679e+000	 1.077571143153963e+001
 3.801292741344446e+000	 2.590399776257062e+000	 1.078189714311928e+001
 3.772686704331336e+000	 2.631887572229961e+000	 1.078364126136680e+001
 3.743599525589591e+000	 2.673099254650146e+000	 1.077998651969282e+001
 4.035668533604806e+000	 2.262609902762454e+000	 1.069569644930246e+001
 4.010887613813038e+000	 2.306253228377954e+000	 1.069951015407346e+001
 3.985598026920840e+000	 2.349687425603333e+000	 1.070801309290088e+001
 3.959802181703660e+000	 2.392903776398774e+000	 1.071940853913669e+001
 3.933502683093391e+000	 2.435893593207531e+000	 1.073225177085090e+001
 3.906702331936016e+000	 2.478648224398018e+000	 1.074523918168536e+001
 3.879404124570022e+000	 2.521159059716648e+000	 1.075713107250671e+001
 3.851611252224484e+000	 2.563417535744617e+000	 1.076675449973677e+001
 3.823327100236015e+000	 2.605415141351706e+000	 1.077300451779440e+001
 3.794555247084064e+000	 2.647143423140165e+000	 1.077484376755052e+001
 3.765299463244429e+000	 2.688593990871690e+000	 1.077161647662681e+001
 4.058926680207141e+000	 2.275649653770777e+000	 1.068855393843240e+001
 4.034002944359120e+000	 2.319544502239928e+000	 1.069198709579630e+001
 4.008567609887977e+000	 2.363229017081439e+000	 1.069969162358284e+001
 3.982623099451280e+000	 2.406694430012174e+000	 1.071079003369396e+001
 3.956172032993508e+000	 2.449932003407741e+000	 1.072347069212441e+001
 3.929217227502314e+000	 2.492933035775949e+000	 1.073635806191322e+001
 3.901761696584512e+000	 2.535688867241079e+000	 1.074819657663210e+001
 3.873808649860681e+000	 2.578190885032107e+000	 1.075780451850716e+001
 3.845361492177609e+000	 2.620430528967938e+000	 1.076407541185643e+001
 3.816423822638035e+000	 2.662399296932675e+000	 1.076597768152815e+001
 3.786999433447543e+000	 2.704088750333855e+000	 1.076337187318930e+001
 4.082184867509671e+000	 2.288689427597087e+000	 1.068207528919876e+001
 4.057118315355471e+000	 2.332835799360010e+000	 1.068546084359966e+001
 4.031537233050311e+000	 2.376770632255675e+000	 1.069251632036585e+001
 4.005444057133900e+000	 2.420485107757529e+000	 1.070269413217192e+001
 3.978841422563334e+000	 2.463970438173451e+000	 1.071499065088647e+001
 3.951732162467971e+000	 2.507217872150561e+000	 1.072761816999447e+001
 3.924119307722978e+000	 2.550218700190915e+000	 1.073927915613171e+001
 3.896006086340477e+000	 2.592964260171183e+000	 1.074877742440953e+001
 3.867395922677467e+000	 2.635445942859312e+000	 1.075500031940092e+001
 3.838292436460015e+000	 2.677655197421168e+000	 1.075696860507962e+001
 3.808699441623531e+000	 2.719583536910049e+000	 1.075502476924718e+001
 4.105443101326692e+000	 2.301729227501026e+000	 1.067604745679005e+001
 4.080233732580672e+000	 2.346127123060713e+000	 1.067963210258708e+001
 4.054506902149972e+000	 2.390312274511121e+000	 1.068628787177139e+001
 4.028265060456469e+000	 2.434275813082185e+000	 1.069554457009387e+001
 4.001510857469911e+000	 2.478008901013948e+000	 1.070683407289443e+001
 3.974247142461394e+000	 2.521502737092738e+000	 1.071898510451526e+001
 3.946476963574481e+000	 2.564748562198295e+000	 1.073029950148570e+001
 3.918203567212872e+000	 2.607737664854878e+000	 1.073955935356009e+001
 3.889430397243822e+000	 2.650461386779378e+000	 1.074564107071566e+001
 3.860161094016768e+000	 2.692911128419326e+000	 1.074775632595670e+001
 3.830399493196998e+000	 2.735078354473679e+000	 1.074632797171412e+001
 4.128701387472490e+000	 2.314769056742235e+000	 1.067027044096878e+001
 4.103349201813303e+000	 2.359418476664549e+000	 1.067421680030745e+001
 4.077476622929090e+000	 2.403853947232863e+000	 1.068064624236332e+001
 4.051086115123940e+000	 2.448066549433488e+000	 1.068916188494065e+001
 4.024180343380284e+000	 2.492047395438517e+000	 1.069927463125611e+001
 3.996762173110999e+000	 2.535787634173376e+000	 1.071039271273021e+001
 3.968834669728084e+000	 2.579278456895365e+000	 1.072114818243866e+001
 3.940401098026867e+000	 2.622511102776228e+000	 1.073000770066458e+001
 3.911464921384908e+000	 2.665476864481689e+000	 1.073583188033046e+001
 3.882029800775060e+000	 2.708167093740828e+000	 1.073808541374805e+001
 3.852099593592544e+000	 2.750573206898159e+000	 1.073701675034481e+001
 3.635100135678463e+000	 2.595625786582433e+000	 1.082435004972889e+001
 3.606392606282453e+000	 2.635366899875415e+000	 1.081399946883185e+001
 3.577225704752324e+000	 2.674823900322948e+000	 1.079858093888440e+001
 3.547603612821848e+000	 2.713988896438097e+000	 1.078105816800073e+001
 3.517530691503432e+000	 2.752854078213755e+000	 1.076368429021318e+001
 3.487011479119201e+000	 2.791411722183962e+000	 1.074754436617386e+001
 3.456050689161568e+000	 2.829654196428459e+000	 1.073378256917688e+001
 3.424653207985159e+000	 2.867573965513814e+000	 1.072358257301328e+001
 3.392824092332315e+000	 2.905163595364520e+000	 1.071814598649919e+001
 3.360568566694637e+000	 2.942415758057519e+000	 1.071866896475754e+001
 3.327892020513366e+000	 2.979323236533758e+000	 1.072616113714172e+001
 3.656799991960950e+000	 2.611120464702004e+000	 1.081523832592312e+001
 3.627921091973301e+000	 2.651098813948400e+000	 1.080523095328895e+001
 3.598580077613614e+000	 2.690791354327859e+000	 1.079084877987301e+001
 3.568781155578661e+000	 2.730190147244945e+000	 1.077522083586195e+001
 3.538528712914069e+000	 2.769287336070453e+000	 1.075945207002083e+001
 3.507827315033624e+000	 2.808075151232928e+000	 1.074444251139535e+001
 3.476681703567104e+000	 2.846545915253110e+000	 1.073115697062524e+001
 3.445096794038395e+000	 2.884692047714542e+000	 1.072060522085970e+001
 3.413077673376231e+000	 2.922506070163752e+000	 1.071382012527916e+001
 3.380629597259997e+000	 2.959980610933395e+000	 1.071183384433339e+001
 3.347757987303395e+000	 2.997108409881948e+000	 1.071565227772688e+001
 3.678499853668706e+000	 2.626615146695153e+000	 1.080623687655984e+001
 3.649449583046557e+000	 2.666830731954232e+000	 1.079654531329333e+001
 3.619934455813751e+000	 2.706758812324469e+000	 1.078369039102604e+001
 3.589958703630074e+000	 2.746391402101919e+000	 1.076978110770943e+001
 3.559526739574368e+000	 2.785720598035260e+000	 1.075546372431380e+001
 3.528643156152111e+000	 2.824738584447534e+000	 1.074147321433844e+001
 3.497312723130440e+000	 2.863437638300463e+000	 1.072861546099562e+001
 3.465540385202509e+000	 2.901810134194556e+000	 1.071774718377483e+001
 3.433331259483468e+000	 2.939848549298362e+000	 1.070975370711411e+001
 3.400690632840491e+000	 2.977545468200245e+000	 1.070552470747417e+001
 3.367623959059742e+000	 3.014893587676185e+000	 1.070592809798461e+001
 3.700199726226330e+000	 2.642109836435287e+000	 1.079736803549549e+001
 3.670978084883970e+000	 2.682562657825638e+000	 1.078821827179301e+001
 3.641288844690950e+000	 2.722726278304398e+000	 1.077699896021337e+001
 3.611136262270088e+000	 2.762592665059088e+000	 1.076463309720536e+001
 3.580524776733461e+000	 2.802153868216249e+000	 1.075161464004632e+001
 3.549459007678244e+000	 2.841402025993399e+000	 1.073853305319234e+001
 3.517943753008951e+000	 2.880329369793212e+000	 1.072605531533449e+001
 3.485983986588032e+000	 2.918928229233141e+000	 1.071490554444009e+001
 3.453584855717061e+000	 2.957191037103732e+000	 1.070584235584595e+001
 3.420751678451021e+000	 2.995110334249032e+000	 1.069963409304106e+001
 3.387489940748560e+000	 3.032678774362513e+000	 1.069703209463739e+001
 3.721899615058423e+000	 2.657604537795815e+000	 1.078862170506098e+001
 3.692506602867291e+000	 2.698294595495338e+000	 1.078040312982093e+001
 3.662643249583431e+000	 2.738693756259258e+000	 1.077064122804185e+001
 3.632313836792711e+000	 2.778793940166521e+000	 1.075964503338803e+001
 3.601522829640471e+000	 2.818587150721498e+000	 1.074777478773994e+001
 3.570274874815602e+000	 2.858065480036140e+000	 1.073549357109440e+001
 3.538574798360022e+000	 2.897221113954046e+000	 1.072334907635480e+001
 3.506427603305497e+000	 2.936046337109576e+000	 1.071195288590831e+001
 3.473838467140046e+000	 2.974533537915240e+000	 1.070195736751765e+001
 3.440812739106495e+000	 3.012675213470731e+000	 1.069403033266430e+001
 3.407355937336000e+000	 3.050463974386978e+000	 1.068882762536267e+001
 3.743599525589591e+000	 2.673099254650146e+000	 1.077998651969282e+001
 3.714035142378266e+000	 2.714026548896057e+000	 1.077294046282682e+001
 3.683997675829406e+000	 2.754661250180662e+000	 1.076445923790030e+001
 3.653491432491950e+000	 2.794995231474285e+000	 1.075466101700517e+001
 3.622520903544524e+000	 2.835020449659075e+000	 1.074379048246153e+001
 3.591090762767767e+000	 2.874728950741375e+000	 1.073220303984340e+001
 3.559205864341033e+000	 2.914112875005660e+000	 1.072034631871496e+001
 3.526871240465430e+000	 2.953164462103143e+000	 1.070873905402331e+001
 3.494092098815463e+000	 2.991876056068263e+000	 1.069794746825883e+001
 3.460873819821822e+000	 3.030240110256311e+000	 1.068855930117630e+001
 3.427221953788212e+000	 3.068249192195626e+000	 1.068115565980986e+001
 3.765299463244429e+000	 2.688593990871690e+000	 1.077161647662681e+001
 3.735563708798650e+000	 2.729758521960522e+000	 1.076564721577939e+001
 3.705352128767096e+000	 2.770628764060226e+000	 1.075827208230655e+001
 3.674669054661811e+000	 2.811196543032450e+000	 1.074950277320722e+001
 3.643519003694748e+000	 2.851453769137059e+000	 1.073948614120642e+001
 3.611906676738323e+000	 2.891392442274725e+000	 1.072848822006016e+001
 3.579836956109366e+000	 2.931004657170742e+000	 1.071687540979222e+001
 3.547314903178365e+000	 2.970282608493129e+000	 1.070509291639526e+001
 3.514345755806346e+000	 3.009218595898182e+000	 1.069364056881171e+001
 3.480934925611911e+000	 3.047805028996743e+000	 1.068304616380155e+001
 3.447087995071350e+000	 3.086034432234503e+000	 1.067383651633853e+001
 3.786999433447543e+000	 2.704088750333855e+000	 1.076337187318930e+001
 3.757092307510191e+000	 2.745490518621454e+000	 1.075831843815876e+001
 3.726706613734713e+000	 2.786596301889566e+000	 1.075187764571612e+001
 3.695846708596300e+000	 2.827397878891083e+000	 1.074397140075743e+001
 3.664517135340264e+000	 2.867887113263517e+000	 1.073466603684252e+001
 3.632722621930851e+000	 2.908055958801806e+000	 1.072415611794921e+001
 3.600468078822400e+000	 2.947896464671987e+000	 1.071274526710263e+001
 3.567758596554829e+000	 2.987400780558812e+000	 1.070082411808178e+001
 3.534599443175731e+000	 3.026561161740375e+000	 1.068884551584364e+001
 3.500996061491667e+000	 3.065369974082996e+000	 1.067729712024475e+001
 3.466954066151565e+000	 3.103819698949656e+000	 1.066667159580583e+001
 3.808699441623531e+000	 2.719583536910049e+000	 1.075502476924718e+001
 3.778620943894639e+000	 2.761222542811580e+000	 1.075072901549004e+001
 3.748061136070473e+000	 2.802563867660294e+000	 1.074505434394511e+001
 3.717024399589422e+000	 2.843599243100253e+000	 1.073784911790987e+001
 3.685515303730202e+000	 2.884320486146528e+000	 1.072911604876413e+001
 3.653538603548932e+000	 2.924719504488237e+000	 1.071899573880915e+001
 3.621099237637516e+000	 2.964788301732085e+000	 1.070774711251346e+001
 3.588202325705354e+000	 3.004518982579476e+000	 1.069572483411810e+001
 3.554853165986657e+000	 3.043903757930221e+000	 1.068335384018677e+001
 3.521057232476001e+000	 3.082934949906039e+000	 1.067110114581326e+001
 3.486820171995006e+000	 3.121604996787129e+000	 1.065944511253249e+001
 3.830399493196998e+000	 2.735078354473679e+000	 1.074632797171412e+001
 3.800149623333742e+000	 2.776954598463622e+000	 1.074263539756742e+001
 3.769415701112596e+000	 2.818531465364028e+000	 1.073756286035363e+001
 3.738202132935184e+000	 2.859800639710027e+000	 1.073090100509973e+001
 3.706513514113687e+000	 2.900753891894165e+000	 1.072260541039876e+001
 3.674354626796149e+000	 2.941383083499637e+000	 1.071277983743336e+001
 3.641730437712098e+000	 2.981680172573729e+000	 1.070165622338799e+001
 3.608646095740468e+000	 3.021637218834403e+000	 1.068957151903413e+001
 3.575106929302158e+000	 3.061246388803097e+000	 1.067694150213930e+001
 3.541118443579818e+000	 3.100499960856845e+000	 1.066423172970387e+001
 3.506686317567826e+000	 3.139390330192969e+000	 1.065192582257221e+001
 3.852099593592544e+000	 2.750573206898159e+000	 1.073701675034481e+001
 3.821678351209255e+000	 2.792686689510306e+000	 1.073377732351176e+001
 3.790770314199296e+000	 2.834499098992381e+000	 1.072914787893074e+001
 3.759379913927593e+000	 2.876002072770478e+000	 1.072287674458454e+001
 3.727511771739845e+000	 2.917187334614499e+000	 1.071488845370416e+001
 3.695170696876086e+000	 2.958046700001626e+000	 1.070526666553704e+001
 3.662361684203525e+000	 2.998572081419610e+000	 1.069423368079687e+001
 3.629089911770705e+000	 3.038755493602875e+000	 1.068212665349042e+001
 3.595360738185273e+000	 3.078589058694384e+000	 1.066937063395736e+001
 3.561179699818029e+000	 3.118065011326383e+000	 1.065644861057915e+001
 3.526552507836179e+000	 3.157175703613221e+000	 1.064386874940374e+001
 3.327892020513366e+000	 2.979323236533758e+000	 1.072616113714172e+001
 3.294805000137952e+000	 3.015873473340294e+000	 1.073007648066159e+001
 3.261308345935689e+000	 3.052065054294209e+000	 1.072382887443664e+001
 3.227407924036499e+000	 3.087891128237413e+000	 1.070955463550573e+001
 3.193109752621236e+000	 3.123344972753669e+000	 1.068944218237753e+001
 3.158419998366947e+000	 3.158419998366947e+000	 1.066569725486842e+001
 3.123344972753668e+000	 3.193109752621235e+000	 1.064050781307030e+001
 3.087891128237413e+000	 3.227407924036498e+000	 1.061600890534646e+001
 3.052065054294209e+000	 3.261308345935689e+000	 1.059424779680919e+001
 3.015873473340296e+000	 3.294805000137950e+000	 1.057714964891967e+001
 2.979323236533757e+000	 3.327892020513365e+000	 1.056648403767129e+001
 3.347757987303395e+000	 2.997108409881948e+000	 1.071565227772688e+001
 3.314473452812669e+000	 3.033876834594319e+000	 1.072039688856714e+001
 3.280776839171725e+000	 3.070284462445565e+000	 1.071528524519640e+001
 3.246674047528561e+000	 3.106324401379362e+000	 1.070158336599229e+001
 3.212171131989779e+000	 3.141989888849766e+000	 1.068171392470028e+001
 3.177274296044633e+000	 3.177274296044634e+000	 1.065811880470390e+001
 3.141989888849766e+000	 3.212171131989780e+000	 1.063322226745027e+001
 3.106324401379360e+000	 3.246674047528559e+000	 1.060939408320271e+001
 3.070284462445565e+000	 3.280776839171725e+000	 1.058891292758607e+001
 3.033876834594320e+000	 3.314473452812668e+000	 1.057393034657660e+001
 2.997108409881948e+000	 3.347757987303394e+000	 1.056518379354423e+001
 3.367623959059742e+000	 3.014893587676185e+000	 1.070592809798461e+001
 3.334141910404290e+000	 3.051880200348930e+000	 1.070810389985233e+001
 3.300245337274650e+000	 3.088503875151511e+000	 1.070477377786444e+001
 3.265940175836902e+000	 3.124757679129364e+000	 1.069239590700713e+001
 3.231232516123409e+000	 3.160634809606826e+000	 1.067359510444038e+001
 3.196128598435629e+000	 3.196128598435629e+000	 1.065102076059096e+001
 3.160634809606826e+000	 3.231232516123408e+000	 1.062730464474116e+001
 3.124757679129365e+000	 3.265940175836902e+000	 1.060502230251766e+001
 3.088503875151512e+000	 3.300245337274649e+000	 1.058665472469257e+001
 3.051880200348931e+000	 3.334141910404288e+000	 1.057454637613996e+001
 3.014893587676185e+000	 3.367623959059741e+000	 1.056384258471931e+001
 3.387489940748560e+000	 3.032678774362513e+000	 1.069703209463739e+001
 3.353810377829602e+000	 3.069883575104714e+000	 1.069536557327926e+001
 3.319713845111270e+000	 3.106723296966643e+000	 1.069233698240914e+001
 3.285206313777745e+000	 3.143190966095471e+000	 1.068202046976769e+001
 3.250293909787164e+000	 3.179279739685800e+000	 1.066509760488342e+001
 3.214982910253216e+000	 3.214982910253216e+000	 1.064439729126467e+001
 3.179279739685799e+000	 3.250293909787164e+000	 1.062273065792844e+001
 3.143190966095472e+000	 3.285206313777744e+000	 1.060285072573151e+001
 3.106723296966644e+000	 3.319713845111269e+000	 1.058741235073596e+001
 3.069883575104714e+000	 3.353810377829599e+000	 1.057643412321311e+001
 3.032678774362513e+000	 3.387489940748560e+000	 1.056222489870851e+001
 3.407355937336000e+000	 3.050463974386978e+000	 1.068882762536267e+001
 3.373478860005382e+000	 3.087886963362258e+000	 1.068388275168783e+001
 3.339182367548385e+000	 3.124942732445550e+000	 1.067817413415724e+001
 3.304472466167311e+000	 3.161624266885730e+000	 1.067047304321464e+001
 3.269355317746097e+000	 3.197924683747635e+000	 1.065622107989478e+001
 3.233837236210684e+000	 3.233837236210684e+000	 1.063823036512777e+001
 3.197924683747635e+000	 3.269355317746097e+000	 1.061946387692182e+001
 3.161624266885730e+000	 3.304472466167310e+000	 1.060282444956923e+001
 3.124942732445552e+000	 3.339182367548385e+000	 1.059091039923323e+001
 3.087886963362259e+000	 3.373478860005381e+000	 1.057744344938315e+001
 3.050463974386978e+000	 3.407355937335999e+000	 1.056028320802655e+001
 3.427221953788212e+000	 3.068249192195626e+000	 1.068115565980986e+001
 3.393147361848418e+000	 3.105890369622151e+000	 1.067348848103775e+001
 3.358650909452801e+000	 3.143162186142826e+000	 1.066487733356891e+001
 3.323738637821821e+000	 3.180057586108189e+000	 1.065775766474702e+001
 3.288416744765251e+000	 3.216569646453285e+000	 1.064695319525857e+001
 3.252691581021319e+000	 3.252691581021319e+000	 1.063248996076996e+001
 3.216569646453285e+000	 3.288416744765252e+000	 1.061745590724065e+001
 3.180057586108189e+000	 3.323738637821821e+000	 1.060487665128852e+001
 3.143162186142827e+000	 3.358650909452801e+000	 1.059393640564618e+001
 3.105890369622152e+000	 3.393147361848417e+000	 1.057755509343710e+001
 3.068249192195626e+000	 3.427221953788212e+000	 1.055798186956844e+001
 3.447087995071350e+000	 3.086034432234503e+000	 1.067383651633853e+001
 3.412815888275493e+000	 3.123893798384978e+000	 1.066399519217545e+001
 3.378119475691321e+000	 3.161381662613057e+000	 1.065316495347972e+001
 3.343004833557501e+000	 3.198490928370902e+000	 1.064429960571656e+001
 3.307478195609673e+000	 3.235214632463700e+000	 1.063726986827005e+001
 3.271545949398407e+000	 3.271545949398407e+000	 1.062713427619795e+001
 3.235214632463701e+000	 3.307478195609675e+000	 1.061664656789609e+001
 3.198490928370902e+000	 3.343004833557500e+000	 1.060839439319243e+001
 3.161381662613058e+000	 3.378119475691321e+000	 1.059541115992815e+001
 3.123893798384979e+000	 3.412815888275493e+000	 1.057676041397247e+001
 3.086034432234504e+000	 3.447087995071350e+000	 1.055529621424208e+001
 3.466954066151565e+000	 3.103819698949656e+000	 1.066667159580583e+001
 3.432484444203388e+000	 3.141897254151326e+000	 1.065519642059498e+001
 3.397588071130752e+000	 3.179601166410840e+000	 1.064281924007073e+001
 3.362271058190569e+000	 3.216924298281913e+000	 1.063255753720022e+001
 3.326539675044415e+000	 3.253859646439833e+000	 1.062713550565082e+001
 3.290400346055236e+000	 3.290400346055236e+000	 1.062210993682756e+001
 3.253859646439832e+000	 3.326539675044415e+000	 1.061696406850156e+001
 3.216924298281914e+000	 3.362271058190569e+000	 1.061017971157242e+001
 3.179601166410838e+000	 3.397588071130751e+000	 1.059535250529422e+001
 3.141897254151327e+000	 3.432484444203387e+000	 1.057506050043489e+001
 3.103819698949656e+000	 3.466954066151564e+000	 1.055221163783094e+001
 3.486820171995006e+000	 3.121604996787129e+000	 1.065944511253249e+001
 3.452153034548887e+000	 3.159900741421784e+000	 1.064686852358291e+001
 3.417056700637892e+000	 3.197820702090761e+000	 1.063360525233279e+001
 3.381537316537249e+000	 3.235357700449274e+000	 1.062271128946357e+001
 3.345601187834516e+000	 3.272504693042630e+000	 1.061715072498818e+001
 3.309254775705090e+000	 3.309254775705090e+000	 1.061735220228673e+001
 3.272504693042629e+000	 3.345601187834515e+000	 1.061750458556816e+001
 3.235357700449275e+000	 3.381537316537248e+000	 1.060975222312639e+001
 3.197820702090762e+000	 3.417056700637892e+000	 1.059378684091426e+001
 3.159900741421784e+000	 3.452153034548886e+000	 1.057246528488922e+001
 3.121604996787128e+000	 3.486820171995005e+000	 1.054872269303128e+001
 3.506686317567826e+000	 3.139390330192969e+000	 1.065192582257221e+001
 3.471821664228772e+000	 3.177904264696934e+000	 1.063877239486322e+001
 3.436525369079551e+000	 3.216040274207416e+000	 1.062527255922788e+001
 3.400803613413762e+000	 3.253791139481034e+000	 1.061449619262592e+001
 3.364662738745024e+000	 3.291149776933045e+000	 1.060942249212279e+001
 3.328109243061256e+000	 3.328109243061256e+000	 1.061278517207625e+001
 3.291149776933045e+000	 3.364662738745024e+000	 1.061537796687946e+001
 3.253791139481036e+000	 3.400803613413762e+000	 1.060716281396058e+001
 3.216040274207417e+000	 3.436525369079551e+000	 1.059074825525028e+001
 3.177904264696934e+000	 3.471821664228771e+000	 1.056899265448865e+001
 3.139390330192968e+000	 3.506686317567826e+000	 1.054483218261088e+001
 3.526552507836179e+000	 3.157175703613221e+000	 1.064386874940374e+001
 3.491490338159828e+000	 3.195907828477368e+000	 1.063065517685400e+001
 3.455994081322530e+000	 3.234259887315394e+000	 1.061755693471637e+001
 3.420069953636332e+000	 3.272224619985245e+000	 1.060763370588083e+001
 3.383724332540991e+000	 3.309794902772032e+000	 1.060385580117970e+001
 3.346963752837023e+000	 3.346963752837023e+000	 1.060810286451244e+001
 3.309794902772032e+000	 3.383724332540992e+000	 1.061040720258709e+001
 3.272224619985246e+000	 3.420069953636332e+000	 1.060246898657493e+001
 3.234259887315396e+000	 3.455994081322531e+000	 1.058627765963343e+001
 3.195907828477369e+000	 3.491490338159828e+000	 1.056466756460752e+001
 3.157175703613221e+000	 3.526552507836178e+000	 1.054055025363814e+001
 2.979323236533757e+000	 3.327892020513365e+000	 1.056648403767129e+001
 2.942415758057519e+000	 3.360568566694637e+000	 1.055807605583770e+001
 2.905163595364522e+000	 3.392824092332316e+000	 1.054353972183346e+001
 2.867573965513815e+000	 3.424653207985158e+000	 1.052364594983844e+001
 2.829654196428458e+000	 3.456050689161565e+000	 1.049936372520504e+001
 2.791411722183963e+000	 3.487011479119198e+000	 1.047166753332011e+001
 2.752854078213757e+000	 3.517530691503431e+000	 1.044152101427696e+001
 2.713988896438098e+000	 3.547603612821848e+000	 1.040986176672146e+001
 2.674823900322949e+000	 3.577225704752323e+000	 1.037758740006536e+001
 2.635366899875415e+000	 3.606392606282451e+000	 1.034599182541003e+001
 2.595625786582433e+000	 3.635100135678463e+000	 1.031628250238907e+001
 2.997108409881948e+000	 3.347757987303394e+000	 1.056518379354423e+001
 2.959980610933398e+000	 3.380629597259997e+000	 1.055357027628565e+001
 2.922506070163753e+000	 3.413077673376230e+000	 1.053694741984466e+001
 2.884692047714543e+000	 3.445096794038394e+000	 1.051607428378630e+001
 2.846545915253111e+000	 3.476681703567104e+000	 1.049172801567193e+001
 2.808075151232929e+000	 3.507827315033624e+000	 1.046468626884613e+001
 2.769287336070453e+000	 3.538528712914067e+000	 1.043571071662466e+001
 2.730190147244946e+000	 3.568781155578661e+000	 1.040553177810720e+001
 2.690791354327860e+000	 3.598580077613612e+000	 1.037483465712707e+001
 2.651098813948400e+000	 3.627921091973300e+000	 1.034434894973867e+001
 2.611120464702003e+000	 3.656799991960950e+000	 1.031530043981126e+001
 3.014893587676185e+000	 3.367623959059741e+000	 1.056384258471931e+001
 2.977545468200246e+000	 3.400690632840491e+000	 1.054927415550398e+001
 2.939848549298364e+000	 3.433331259483468e+000	 1.053082963045534e+001
 2.901810134194558e+000	 3.465540385202508e+000	 1.050910702890237e+001
 2.863437638300465e+000	 3.497312723130437e+000	 1.048471769588384e+001
 2.824738584447536e+000	 3.528643156152111e+000	 1.045826845633068e+001
 2.785720598035261e+000	 3.559526739574368e+000	 1.043034492749284e+001
 2.746391402101920e+000	 3.589958703630072e+000	 1.040149610792532e+001
 2.706758812324471e+000	 3.619934455813750e+000	 1.037222034704261e+001
 2.666830731954234e+000	 3.649449583046557e+000	 1.034295278432029e+001
 2.626615146695152e+000	 3.678499853668705e+000	 1.031450455305927e+001
 3.032678774362513e+000	 3.387489940748560e+000	 1.056222489870851e+001
 2.995110334249033e+000	 3.420751678451020e+000	 1.054511300928500e+001
 2.957191037103734e+000	 3.453584855717059e+000	 1.052510126583880e+001
 2.918928229233141e+000	 3.485983986588031e+000	 1.050265221241540e+001
 2.880329369793212e+000	 3.517943753008949e+000	 1.047823697631333e+001
 2.841402025993400e+000	 3.549459007678243e+000	 1.045231709513836e+001
 2.802153868216250e+000	 3.580524776733459e+000	 1.042532756630522e+001
 2.762592665059090e+000	 3.611136262270087e+000	 1.039766124059090e+001
 2.722726278304400e+000	 3.641288844690951e+000	 1.036965466642524e+001
 2.682562657825638e+000	 3.670978084883968e+000	 1.034157547604312e+001
 2.642109836435286e+000	 3.700199726226330e+000	 1.031376015030534e+001
 3.050463974386978e+000	 3.407355937335999e+000	 1.056028320802655e+001
 3.012675213470734e+000	 3.440812739106494e+000	 1.054102532676993e+001
 2.974533537915241e+000	 3.473838467140045e+000	 1.051969074526929e+001
 2.936046337109576e+000	 3.506427603305496e+000	 1.049663167082389e+001
 2.897221113954048e+000	 3.538574798360020e+000	 1.047220415905011e+001
 2.858065480036141e+000	 3.570274874815600e+000	 1.044674955030523e+001
 2.818587150721498e+000	 3.601522829640470e+000	 1.042057719519444e+001
 2.778793940166523e+000	 3.632313836792710e+000	 1.039394859425737e+001
 2.738693756259259e+000	 3.662643249583431e+000	 1.036706306137529e+001
 2.698294595495339e+000	 3.692506602867289e+000	 1.034004500422678e+001
 2.657604537795814e+000	 3.721899615058423e+000	 1.031295050003747e+001
 3.068249192195626e+000	 3.427221953788212e+000	 1.055798186956844e+001
 3.030240110256313e+000	 3.460873819821821e+000	 1.053696184054467e+001
 2.991876056068266e+000	 3.494092098815462e+000	 1.051453905062028e+001
 2.953164462103146e+000	 3.526871240465430e+000	 1.049098009415303e+001
 2.914112875005661e+000	 3.559205864341032e+000	 1.046655067387409e+001
 2.874728950741376e+000	 3.591090762767767e+000	 1.044149658318044e+001
 2.835020449659076e+000	 3.622520903544523e+000	 1.041602604665662e+001
 2.794995231474286e+000	 3.653491432491948e+000	 1.039029354761615e+001
 2.754661250180662e+000	 3.683997675829406e+000	 1.036438525524068e+001
 2.714026548896059e+000	 3.714035142378265e+000	 1.033830614700586e+001
 2.673099254650146e+000	 3.743599525589591e+000	 1.031196890467820e+001
 3.086034432234504e+000	 3.447087995071350e+000	 1.055529621424208e+001
 3.047805028996744e+000	 3.480934925611909e+000	 1.053288459843983e+001
 3.009218595898184e+000	 3.514345755806345e+000	 1.050959878389456e+001
 2.970282608493129e+000	 3.547314903178363e+000	 1.048564407249393e+001
 2.931004657170744e+000	 3.579836956109366e+000	 1.046122011679340e+001
 2.891392442274726e+000	 3.611906676738323e+000	 1.043650138466004e+001
 2.851453769137059e+000	 3.643519003694745e+000	 1.041161905388012e+001
 2.811196543032452e+000	 3.674669054661810e+000	 1.038664446941816e+001
 2.770628764060227e+000	 3.705352128767095e+000	 1.036157427912410e+001
 2.729758521960524e+000	 3.735563708798649e+000	 1.033631734609782e+001
 2.688593990871690e+000	 3.765299463244429e+000	 1.031068351780371e+001
 3.103819698949656e+000	 3.466954066151564e+000	 1.055221163783094e+001
 3.065369974082997e+000	 3.500996061491667e+000	 1.052876603696049e+001
 3.026561161740376e+000	 3.534599443175730e+000	 1.050483322669895e+001
 2.987400780558813e+000	 3.567758596554828e+000	 1.048058114472728e+001
 2.947896464671988e+000	 3.600468078822399e+000	 1.045616729094263e+001
 2.908055958801807e+000	 3.632722621930849e+000	 1.043171861090265e+001
 2.867887113263519e+000	 3.664517135340263e+000	 1.040731288363480e+001
 2.827397878891083e+000	 3.695846708596299e+000	 1.038296175060173e+001
 2.786596301889567e+000	 3.726706613734711e+000	 1.035859550502036e+001
 2.745490518621455e+000	 3.757092307510189e+000	 1.033404974242258e+001
 2.704088750333854e+000	 3.786999433447542e+000	 1.030905395449456e+001
 3.121604996787128e+000	 3.486820171995005e+000	 1.054872269303128e+001
 3.082934949906041e+000	 3.521057232476000e+000	 1.052458805627452e+001
 3.043903757930221e+000	 3.554853165986655e+000	 1.050021540157951e+001
 3.004518982579477e+000	 3.588202325705353e+000	 1.047575884933759e+001
 2.964788301732086e+000	 3.621099237637516e+000	 1.045135724974042e+001
 2.924719504488238e+000	 3.653538603548931e+000	 1.042711342142167e+001
 2.884320486146530e+000	 3.685515303730201e+000	 1.040307497161328e+001
 2.843599243100253e+000	 3.717024399589420e+000	 1.037921683891693e+001
 2.802563867660295e+000	 3.748061136070472e+000	 1.035542568147300e+001
 2.761222542811582e+000	 3.778620943894637e+000	 1.033148621425331e+001
 2.719583536910049e+000	 3.808699441623531e+000	 1.030706957959302e+001
 3.139390330192968e+000	 3.506686317567826e+000	 1.054483218261088e+001
 3.100499960856846e+000	 3.541118443579816e+000	 1.052034109669058e+001
 3.061246388803098e+000	 3.575106929302158e+000	 1.049572713513648e+001
 3.021637218834405e+000	 3.608646095740467e+000	 1.047115377722873e+001
 2.981680172573730e+000	 3.641730437712097e+000	 1.044676434221008e+001
 2.941383083499639e+000	 3.674354626796149e+000	 1.042266051945289e+001
 2.900753891894166e+000	 3.706513514113685e+000	 1.039888256012027e+001
 2.859800639710028e+000	 3.738202132935183e+000	 1.037539127594011e+001
 2.818531465364029e+000	 3.769415701112595e+000	 1.035205197164339e+001
 2.776954598463623e+000	 3.800149623333741e+000	 1.032862041779101e+001
 2.735078354473680e+000	 3.830399493196999e+000	 1.030473095031798e+001
 3.157175703613221e+000	 3.526552507836178e+000	 1.054055025363814e+001
 3.118065011326384e+000	 3.561179699818027e+000	 1.051602321656065e+001
 3.078589058694385e+000	 3.595360738185272e+000	 1.049135812284223e+001
 3.038755493602877e+000	 3.629089911770705e+000	 1.046675062645448e+001
 2.998572081419612e+000	 3.662361684203524e+000	 1.044237126037088e+001
 2.958046700001628e+000	 3.695170696876085e+000	 1.041834319450071e+001
 2.917187334614501e+000	 3.727511771739843e+000	 1.039472173801014e+001
 2.876002072770479e+000	 3.759379913927593e+000	 1.037147573637780e+001
 2.834499098992384e+000	 3.790770314199296e+000	 1.034847099369031e+001
 2.792686689510307e+000	 3.821678351209254e+000	 1.032545583006082e+001
 2.750573206898159e+000	 3.852099593592544e+000	 1.030204886284700e+001
 2.595625786582433e+000	 3.635100135678463e+000	 1.031628250238907e+001
 2.555608527434690e+000	 3.663344291249594e+000	 1.028834332892874e+001
 2.515323157233419e+000	 3.691121249848880e+000	 1.026181973642527e+001
 2.474777776093069e+000	 3.718427371378764e+000	 1.023619442800695e+001
 2.433980545103553e+000	 3.745259201099025e+000	 1.021093878608907e+001
 2.392939681090943e+000	 3.771613470733658e+000	 1.018550784727483e+001
 2.351663451361819e+000	 3.797487099402198e+000	 1.015933624697307e+001
 2.310160168438055e+000	 3.822877194375687e+000	 1.013183514876712e+001
 2.268438184788725e+000	 3.847781051657798e+000	 1.010239016305115e+001
 2.226505887565816e+000	 3.872196156391828e+000	 1.007036024914107e+001
 2.184371693350319e+000	 3.896120183094671e+000	 1.003507758505695e+001
 2.611120464702003e+000	 3.656799991960950e+000	 1.031530043981126e+001
 2.570864321138576e+000	 3.685212751997569e+000	 1.028767291205210e+001
 2.530338466023376e+000	 3.713155526113802e+000	 1.026115996040191e+001
 2.489551047824761e+000	 3.740624652482406e+000	 1.023532958890531e+001
 2.448510276350556e+000	 3.767616655739987e+000	 1.020973836191107e+001
 2.407224417477455e+000	 3.794128248100461e+000	 1.018392605063077e+001
 2.365701787864014e+000	 3.820156330291952e+000	 1.015741129678139e+001
 2.323950749653990e+000	 3.845697992317274e+000	 1.012968830886481e+001
 2.281979705176812e+000	 3.870750514038508e+000	 1.010022459567495e+001
 2.239797091651859e+000	 3.895311365586439e+000	 1.006845973087678e+001
 2.197411375903191e+000	 3.919378207595922e+000	 1.003380513207098e+001
 2.626615146695152e+000	 3.678499853668705e+000	 1.031450455305927e+001
 2.586120118656368e+000	 3.707081218212969e+000	 1.028720535460068e+001
 2.545353778567167e+000	 3.735189807887586e+000	 1.026080812588442e+001
 2.504324323249835e+000	 3.762821939135638e+000	 1.023495482298206e+001
 2.463040011230107e+000	 3.789974115970546e+000	 1.020927499105316e+001
 2.421509157435316e+000	 3.816643031096150e+000	 1.018338010247493e+001
 2.379740127875998e+000	 3.842825566849162e+000	 1.015685896238732e+001
 2.337741334317804e+000	 3.868518795964157e+000	 1.012927419765733e+001
 2.295521228950527e+000	 3.893719982161630e+000	 1.010015983384143e+001
 2.253088299060946e+000	 3.918426580559849e+000	 1.006901995352797e+001
 2.210451061716201e+000	 3.942636237911626e+000	 1.003532841857256e+001
 2.642109836435286e+000	 3.700199726226330e+000	 1.031376015030534e+001
 2.601375923801743e+000	 3.728949695362554e+000	 1.028680655027401e+001
 2.560369098618345e+000	 3.757224100678465e+000	 1.026062081731228e+001
 2.519097606061324e+000	 3.785019236887461e+000	 1.023490763477781e+001
 2.477569753374350e+000	 3.812331587379766e+000	 1.020935745252294e+001
 2.435793904535414e+000	 3.839157825349139e+000	 1.018364053627041e+001
 2.393778474907057e+000	 3.865494814740868e+000	 1.015740213774790e+001
 2.351531925876845e+000	 3.891339611021287e+000	 1.013025880196794e+001
 2.309062759494952e+000	 3.916689461769291e+000	 1.010179581613523e+001
 2.266379513115588e+000	 3.941541807090635e+000	 1.007156579299869e+001
 2.223490754048992e+000	 3.965894279856078e+000	 1.003908837014332e+001
 2.657604537795814e+000	 3.721899615058423e+000	 1.031295050003747e+001
 2.616631740388380e+000	 3.750818188913088e+000	 1.028636067447039e+001
 2.575384429930460e+000	 3.779258409994675e+000	 1.026047346508629e+001
 2.533870899952260e+000	 3.807216551286874e+000	 1.023504517791055e+001
 2.492099506415426e+000	 3.834689075556711e+000	 1.020981521195986e+001
 2.450078662348639e+000	 3.861672636487839e+000	 1.018449983930471e+001
 2.407816832466475e+000	 3.888164079634113e+000	 1.015878716229602e+001
 2.365322527778456e+000	 3.914160443193614e+000	 1.013233326465609e+001
 2.322604300195174e+000	 3.939658958603628e+000	 1.010475956073362e+001
 2.279670737138297e+000	 3.964657050957376e+000	 1.007565133507270e+001
 2.236530456161203e+000	 3.989152339243565e+000	 1.004455745265502e+001
 2.673099254650146e+000	 3.743599525589591e+000	 1.031196890467820e+001
 2.631887572229962e+000	 3.772686704331336e+000	 1.028576964508186e+001
 2.590399776257065e+000	 3.801292741344446e+000	 1.026025979504929e+001
 2.548644208615681e+000	 3.829413887882881e+000	 1.023524368771817e+001
 2.506629273985478e+000	 3.857046586090440e+000	 1.021049783203291e+001
 2.464363434445877e+000	 3.884187470140660e+000	 1.018577183555688e+001
 2.421855204063539e+000	 3.910833367195940e+000	 1.016078317111497e+001
 2.379113143469984e+000	 3.936981298186088e+000	 1.013521319706307e+001
 2.336145854436273e+000	 3.962628478406765e+000	 1.010870443521518e+001
 2.292961974451583e+000	 3.987772317938651e+000	 1.008085909780784e+001
 2.249570171312477e+000	 4.012410421888377e+000	 1.005088783386741e+001
 2.688593990871690e+000	 3.765299463244429e+000	 1.031068351780371e+001
 2.647143423140167e+000	 3.794555247084062e+000	 1.028495258620151e+001
 2.605415141351707e+000	 3.823327100236013e+000	 1.025989128122491e+001
 2.563417535744619e+000	 3.851611252224484e+000	 1.023539791772102e+001
 2.521159059716650e+000	 3.879404124570022e+000	 1.021127438743346e+001
 2.478648224398019e+000	 3.906702331936014e+000	 1.018729107414337e+001
 2.435893593207533e+000	 3.933502683093391e+000	 1.016318145187915e+001
 2.392903776398776e+000	 3.959802181703660e+000	 1.013863799961064e+001
 2.349687425603335e+000	 3.985598026920840e+000	 1.011330943610330e+001
 2.306253228377956e+000	 4.010887613813038e+000	 1.008653467054190e+001
 2.262609902762454e+000	 4.035668533604805e+000	 1.005597969005496e+001
 2.704088750333854e+000	 3.786999433447542e+000	 1.030905395449456e+001
 2.662399296932676e+000	 3.816423822638035e+000	 1.028384529462511e+001
 2.620430528967939e+000	 3.845361492177608e+000	 1.025929660168225e+001
 2.578190885032109e+000	 3.873808649860683e+000	 1.023542057975010e+001
 2.535688867241081e+000	 3.901761696584511e+000	 1.021203288427743e+001
 2.492933035775951e+000	 3.929217227502314e+000	 1.018891222311731e+001
 2.449932003407743e+000	 3.956172032993508e+000	 1.016579480828799e+001
 2.406694430012176e+000	 3.982623099451279e+000	 1.014237019022450e+001
 2.363229017081441e+000	 4.008567609887977e+000	 1.011811830410550e+001
 2.319544502239928e+000	 4.034002944359119e+000	 1.009070756751936e+001
 2.275649653770778e+000	 4.058926680207141e+000	 1.005963117241635e+001
 2.719583536910049e+000	 3.808699441623531e+000	 1.030706957959302e+001
 2.677655197421170e+000	 3.838292436460013e+000	 1.028239877336125e+001
 2.635445942859314e+000	 3.867395922677467e+000	 1.025842109740012e+001
 2.592964260171184e+000	 3.896006086340478e+000	 1.023524178759310e+001
 2.550218700190916e+000	 3.924119307722977e+000	 1.021267968373976e+001
 2.507217872150561e+000	 3.951732162467970e+000	 1.019050946840625e+001
 2.463970438173453e+000	 3.978841422563334e+000	 1.016845692973306e+001
 2.420485107757531e+000	 4.005444057133898e+000	 1.014613165354264e+001
 2.376770632255676e+000	 4.031537233050311e+000	 1.012131157829051e+001
 2.332835799360012e+000	 4.057118315355470e+000	 1.009316227752923e+001
 2.288689427597086e+000	 4.082184867509672e+000	 1.006191885881162e+001
 2.735078354473680e+000	 3.830399493196999e+000	 1.030473095031798e+001
 2.692911128419328e+000	 3.860161094016767e+000	 1.028059492434988e+001
 2.650461386779380e+000	 3.889430397243821e+000	 1.025722623401054e+001
 2.607737664854879e+000	 3.918203567212871e+000	 1.023480850401738e+001
 2.564748562198297e+000	 3.946476963574479e+000	 1.021313892975152e+001
 2.521502737092741e+000	 3.974247142461394e+000	 1.019197591768326e+001
 2.478008901013949e+000	 4.001510857469909e+000	 1.017101703856396e+001
 2.434275813082187e+000	 4.028265060456468e+000	 1.014832266558324e+001
 2.390312274511123e+000	 4.054506902149972e+000	 1.012259390429406e+001
 2.346127123060715e+000	 4.080233732580671e+000	 1.009402905428240e+001
 2.301729227501026e+000	 4.105443101326692e+000	 1.006290897823806e+001
 2.750573206898159e+000	 3.852099593592544e+000	 1.030204886284700e+001
 2.708167093740829e+000	 3.882029800775058e+000	 1.027844741880188e+001
 2.665476864481691e+000	 3.911464921384907e+000	 1.025568906630596e+001
 2.622511102776231e+000	 3.940401098026868e+000	 1.023408399103466e+001
 2.579278456895366e+000	 3.968834669728083e+000	 1.021335198059782e+001
 2.535787634173377e+000	 3.996762173110999e+000	 1.019322300897485e+001
 2.492047395438518e+000	 4.024180343380283e+000	 1.017222186017656e+001
 2.448066549433489e+000	 4.051086115123938e+000	 1.014848377195781e+001
 2.403853947232866e+000	 4.077476622929091e+000	 1.012213976185755e+001
 2.359418476664551e+000	 4.103349201813302e+000	 1.009342601131507e+001
 2.314769056742235e+000	 4.128701387472490e+000	 1.006265728241227e+001
 2.184371693350319e+000	 3.896120183094671e+000	 1.003507758505695e+001
 2.142050406224803e+000	 3.919547518884829e+000	 9.999067928177642e+000
 2.099544179197507e+000	 3.942479845858590e+000	 9.964428451387391e+000
 2.056861484259475e+000	 3.964915410292883e+000	 9.929823623937809e+000
 2.014010801950551e+000	 3.986852646976334e+000	 9.893892387620003e+000
 1.971000616255269e+000	 4.008290178599601e+000	 9.858064638988600e+000
 1.927839409546483e+000	 4.029226814984732e+000	 9.828336471972417e+000
 1.884535657582463e+000	 4.049661552156453e+000	 9.803004911961851e+000
 1.841097824563027e+000	 4.069593571258430e+000	 9.780241308906994e+000
 1.797534358250062e+000	 4.089022237317838e+000	 9.758349272365626e+000
 1.753853685157622e+000	 4.107947097861664e+000	 9.735761635569883e+000
 2.197411375903191e+000	 3.919378207595922e+000	 1.003380513207098e+001
 2.154837450386865e+000	 3.942945393679174e+000	 9.998765863079113e+000
 2.112077480963578e+000	 3.966014615973810e+000	 9.965402552004900e+000
 2.069139990198221e+000	 3.988584110287832e+000	 9.932424690993601e+000
 2.026033509255521e+000	 4.010652302066276e+000	 9.898226995154374e+000
 1.982766572765458e+000	 4.032217805777888e+000	 9.860927943074660e+000
 1.939347713736703e+000	 4.053279424139900e+000	 9.828258996943701e+000
 1.895785458523869e+000	 4.073836147183757e+000	 9.800668304935329e+000
 1.852088321854111e+000	 4.093887151164926e+000	 9.776405928254597e+000
 1.808264801918526e+000	 4.113431797320075e+000	 9.753842117332546e+000
 1.764323375533539e+000	 4.132469630475129e+000	 9.731464384056970e+000
 2.210451061716201e+000	 3.942636237911626e+000	 1.003532841857256e+001
 2.167624497745854e+000	 3.966343274322894e+000	 1.000148981181046e+001
 2.124610785863071e+000	 3.989549391972592e+000	 9.969448090355000e+000
 2.081418499206607e+000	 4.012252816199793e+000	 9.937579843508052e+000
 2.038056219566089e+000	 4.034451963105935e+000	 9.903021545994948e+000
 1.994532532216957e+000	 4.056145438937857e+000	 9.864991836799954e+000
 1.950856020803725e+000	 4.077332039307960e+000	 9.829733490493846e+000
 1.907035262277359e+000	 4.098010748254416e+000	 9.800061564786706e+000
 1.863078821892371e+000	 4.118180737144486e+000	 9.774300968935364e+000
 1.818995248269086e+000	 4.137841363424331e+000	 9.750886327189527e+000
 1.774793068526321e+000	 4.156992169218809e+000	 9.728359156989422e+000
 2.223490754048992e+000	 3.965894279856078e+000	 1.003908837014332e+001
 2.180411551498271e+000	 3.989741166665249e+000	 1.000660184599057e+001
 2.137144097029069e+000	 4.013084179738416e+000	 9.975462400191120e+000
 2.093697014354038e+000	 4.035921533945724e+000	 9.942799259819463e+000
 2.050078935887734e+000	 4.058251636045004e+000	 9.907792378076739e+000
 2.006298497551086e+000	 4.080073084061181e+000	 9.869927842209943e+000
 1.962364333624480e+000	 4.101384666501832e+000	 9.832554065954811e+000
 1.918285071655264e+000	 4.122185361411839e+000	 9.801011008310507e+000
 1.874069327425338e+000	 4.142474335270260e+000	 9.773806437915178e+000
 1.829725699984283e+000	 4.162250941732746e+000	 9.749437090604376e+000
 1.785262766753336e+000	 4.181514720223089e+000	 9.726497804664030e+000
 2.236530456161203e+000	 3.989152339243565e+000	 1.004455745265502e+001
 2.193198614840611e+000	 4.013139076555488e+000	 1.001309671088487e+001
 2.149677417594655e+000	 4.036618985154761e+000	 9.981087262471840e+000
 2.105975538709923e+000	 4.059590269442585e+000	 9.947719950421973e+000
 2.062101661225939e+000	 4.082051326833178e+000	 9.912513378266013e+000
 2.018064471709165e+000	 4.104000747129543e+000	 9.875022158983562e+000
 1.973872655075901e+000	 4.125437311734432e+000	 9.836531412593763e+000
 1.929534889469918e+000	 4.146359992699434e+000	 9.803359093426412e+000
 1.885059841200541e+000	 4.166767951615396e+000	 9.774817558468140e+000
 1.840456159746654e+000	 4.186660538347463e+000	 9.749463392181598e+000
 1.795732472831950e+000	 4.206037289618354e+000	 9.725944052416066e+000
 2.249570171312477e+000	 4.012410421888377e+000	 1.005088783386741e+001
 2.205985690969373e+000	 4.036537009842876e+000	 1.001874650871367e+001
 2.162210750692910e+000	 4.060153814105112e+000	 9.986039858186748e+000
 2.118254075343665e+000	 4.083259028607333e+000	 9.952314838298053e+000
 2.074124398586183e+000	 4.105851041420149e+000	 9.917153283578863e+000
 2.029830457632516e+000	 4.127928434124629e+000	 9.880168659647607e+000
 1.985380988034921e+000	 4.149489981018680e+000	 9.841491460194545e+000
 1.940784718533651e+000	 4.170534648160611e+000	 9.806963148604904e+000
 1.896050365965512e+000	 4.191061592253051e+000	 9.777243578580864e+000
 1.851186630238736e+000	 4.211070159370625e+000	 9.750946913952634e+000
 1.806202189379531e+000	 4.230559883534988e+000	 9.726772509264713e+000
 2.262609902762454e+000	 4.035668533604805e+000	 1.005597969005496e+001
 2.218772783081055e+000	 4.059934972376666e+000	 1.002332100502627e+001
 2.174744099456915e+000	 4.083688672472943e+000	 9.990310806817659e+000
 2.130532627324669e+000	 4.106927817356931e+000	 9.956550925949959e+000
 2.086147150973949e+000	 4.129650785755607e+000	 9.921675361113582e+000
 2.041596458262453e+000	 4.151856151028108e+000	 9.885346895564709e+000
 1.996889335378471e+000	 4.173542680367495e+000	 9.847274060685404e+000
 1.952034561658799e+000	 4.194709333838778e+000	 9.811694118259640e+000
 1.907040904467781e+000	 4.215355263256367e+000	 9.781006593752196e+000
 1.861917114143068e+000	 4.235479810904372e+000	 9.753880949197585e+000
 1.816671919013446e+000	 4.255082508103375e+000	 9.729067686331746e+000
 2.275649653770778e+000	 4.058926680207141e+000	 1.005963117241635e+001
 2.231559894372153e+000	 4.083332970006112e+000	 1.002684580628470e+001
 2.187277467019754e+000	 4.107223566141736e+000	 9.993883658928455e+000
 2.142811197722343e+000	 4.130596641608336e+000	 9.960389007963645e+000
 2.098169921394717e+000	 4.153450565789250e+000	 9.926037104923870e+000
 2.053362476540299e+000	 4.175783903821666e+000	 9.890530651418109e+000
 2.008397699983486e+000	 4.197595415793796e+000	 9.853596338966568e+000
 1.963284421657689e+000	 4.218884055777344e+000	 9.817435323457763e+000
 1.918031459454877e+000	 4.239648970698497e+000	 9.786040383603462e+000
 1.872647614142190e+000	 4.259889499050848e+000	 9.758269328096462e+000
 1.827141664351063e+000	 4.279605169453903e+000	 9.732923024634445e+000
 2.288689427597086e+000	 4.082184867509672e+000	 1.006191885881162e+001
 2.244347028039166e+000	 4.106731008580471e+000	 1.002933796200336e+001
 2.199810856514507e+000	 4.130758500994972e+000	 9.996734652406548e+000
 2.155089789606092e+000	 4.154265507278510e+000	 9.963783399486133e+000
 2.110192712853968e+000	 4.177250387470768e+000	 9.930189949153780e+000
 2.065128515407374e+000	 4.199711698486983e+000	 9.895687655525178e+000
 2.019906084726898e+000	 4.221648193310501e+000	 9.860033883073019e+000
 1.974534301342659e+000	 4.243058820019718e+000	 9.824081237328969e+000
 1.929022033674331e+000	 4.263942720652592e+000	 9.792289261740125e+000
 1.883378132918636e+000	 4.284299229912195e+000	 9.764125354730464e+000
 1.837611428009747e+000	 4.304127873716953e+000	 9.738439931872048e+000
 2.301729227501026e+000	 4.105443101326692e+000	 1.006290897823806e+001
 2.257134187278591e+000	 4.130129093949002e+000	 1.003080577440105e+001
 2.212344271074256e+000	 4.154293482916130e+000	 9.998832483222476e+000
 2.167368406045321e+000	 4.177934420284408e+000	 9.966681679981313e+000
 2.122215528357185e+000	 4.201050256749856e+000	 9.934078996786214e+000
 2.076894577804997e+000	 4.223639541005738e+000	 9.900779305670413e+000
 2.031414492485639e+000	 4.245701018930529e+000	 9.866562976391744e+000
 1.985784203526038e+000	 4.267233632609310e+000	 9.831536274581296e+000
 1.940012629873674e+000	 4.288236519191804e+000	 9.799706938331470e+000
 1.894108673154947e+000	 4.308709009590554e+000	 9.771470754975837e+000
 1.848081212606869e+000	 4.328650627022916e+000	 9.745726827842162e+000
 2.314769056742235e+000	 4.128701387472490e+000	 1.006265728241227e+001
 2.269921375286927e+000	 4.153527231960959e+000	 1.003124862085950e+001
 2.224877713832085e+000	 4.177828517788692e+000	 1.000013809013199e+001
 2.179647050109439e+000	 4.201603386542996e+000	 9.969024451658850e+000
 2.134238370909847e+000	 4.224850179576208e+000	 9.937642763385817e+000
 2.088660666674487e+000	 4.247567437359612e+000	 9.905760409843110e+000
 2.042922926136644e+000	 4.269753898666802e+000	 9.873173208847069e+000
 1.997034131020160e+000	 4.291408499589530e+000	 9.839713594558681e+000
 1.951003250800436e+000	 4.312530372389279e+000	 9.808255394897874e+000
 1.904839237533661e+000	 4.333118844188069e+000	 9.780334634852647e+000
 1.858551020759794e+000	 4.353173435502172e+000	 9.754898198139127e+000
 1.753853685157622e+000	 4.107947097861664e+000	 9.735761635569883e+000
 1.710057629351524e+000	 4.126370607494756e+000	 9.710635021947677e+000
 1.666161110416385e+000	 4.144289799846913e+000	 9.682465705795959e+000
 1.622172468799515e+000	 4.161704763504535e+000	 9.651826200765392e+000
 1.578100005132253e+000	 4.178615762716243e+000	 9.619345822601646e+000
 1.533951975835255e+000	 4.195023235321111e+000	 9.585705700855703e+000
 1.489736588820484e+000	 4.210927790553209e+000	 9.551633864199259e+000
 1.445461999293614e+000	 4.226330206727042e+000	 9.517900394103762e+000
 1.401136305660351e+000	 4.241231428808609e+000	 9.485312645590049e+000
 1.356767545539911e+000	 4.255632565876873e+000	 9.454710537635833e+000
 1.312363691888676e+000	 4.269534888480566e+000	 9.426970730050700e+000
 1.764323375533539e+000	 4.132469630475129e+000	 9.731464384056970e+000
 1.720265877653797e+000	 4.151003119887775e+000	 9.707224049932275e+000
 1.676107316926896e+000	 4.169029281479970e+000	 9.680297073991138e+000
 1.631856083588733e+000	 4.186548204366940e+000	 9.651134074244174e+000
 1.587520527821555e+000	 4.203560154374750e+000	 9.620248605164443e+000
 1.543108955333008e+000	 4.220065571956183e+000	 9.588212234797357e+000
 1.498629623032471e+000	 4.236065069982164e+000	 9.555649666418328e+000
 1.454090734808400e+000	 4.251559431413378e+000	 9.523233898921761e+000
 1.409500437410216e+000	 4.266549606856837e+000	 9.491681424387835e+000
 1.364866816437979e+000	 4.281036712012198e+000	 9.461747465462302e+000
 1.320197892442914e+000	 4.295022025012786e+000	 9.434216028272410e+000
 1.774793068526321e+000	 4.156992169218809e+000	 9.728359156989422e+000
 1.730474128507555e+000	 4.175635638438452e+000	 9.704565718958952e+000
 1.686053525923382e+000	 4.193768769297369e+000	 9.678470433794351e+000
 1.641539700798301e+000	 4.211391651439614e+000	 9.650414165447462e+000
 1.596941052865475e+000	 4.228504552268712e+000	 9.620805554867115e+000
 1.552265937119550e+000	 4.245107914851143e+000	 9.590116178210373e+000
 1.507522659467327e+000	 4.261202355694691e+000	 9.558875721340066e+000
 1.462719472480057e+000	 4.276788662406223e+000	 9.527667164116558e+000
 1.417864571250884e+000	 4.291867791233775e+000	 9.497121972579487e+000
 1.372966089360725e+000	 4.306440864497702e+000	 9.467915301621439e+000
 1.328032094955654e+000	 4.320509167915920e+000	 9.440759364455271e+000
 1.785262766753336e+000	 4.181514720223089e+000	 9.726497804664030e+000
 1.740682384464818e+000	 4.200268169304669e+000	 9.702811295668010e+000
 1.695999739892365e+000	 4.218508269483743e+000	 9.677220369344681e+000
 1.651223322849099e+000	 4.236235110933195e+000	 9.649968125172629e+000
 1.606361582619120e+000	 4.253448962634001e+000	 9.621369007473291e+000
 1.561422923484099e+000	 4.270150270266355e+000	 9.591804060749851e+000
 1.516415700348282e+000	 4.286339653974895e+000	 9.561716173773974e+000
 1.471348214465736e+000	 4.302017906012683e+000	 9.531605305152864e+000
 1.426228709273350e+000	 4.317185988268776e+000	 9.502023688031001e+000
 1.381065366332918e+000	 4.331845029684222e+000	 9.473571016414070e+000
 1.335866301385387e+000	 4.345996323561552e+000	 9.446889620286935e+000
 1.795732472831950e+000	 4.206037289618354e+000	 9.725944052416066e+000
 1.750890648077604e+000	 4.224900718644310e+000	 9.702121932036389e+000
 1.705945961320361e+000	 4.243247788223719e+000	 9.676789726473409e+000
 1.660906952161999e+000	 4.261078589058304e+000	 9.650104607370240e+000
 1.615782119437595e+000	 4.278393391706491e+000	 9.622297407329489e+000
 1.570579916715873e+000	 4.295192644462189e+000	 9.593667988743952e+000
 1.525308747898565e+000	 4.311476971106892e+000	 9.564580574487954e+000
 1.479976962922587e+000	 4.327247168539862e+000	 9.535459032325163e+000
 1.434592853568604e+000	 4.342504204291177e+000	 9.506782110154386e+000
 1.389164649379328e+000	 4.357249213922600e+000	 9.479078624386274e+000
 1.343700513690607e+000	 4.371483498321261e+000	 9.452922608757408e+000
 1.806202189379531e+000	 4.230559883534988e+000	 9.726772509264713e+000
 1.761098921897934e+000	 4.249533292615258e+000	 9.702667782565429e+000
 1.715892192693890e+000	 4.267987331701933e+000	 9.677428827038751e+000
 1.670590591157880e+000	 4.285922092025571e+000	 9.651138569094977e+000
 1.625202665676005e+000	 4.303337845722058e+000	 9.623954681277985e+000
 1.579736919104094e+000	 4.320235043699010e+000	 9.596105081304954e+000
 1.534201804341408e+000	 4.336614313374793e+000	 9.567883366657496e+000
 1.488605720007759e+000	 4.352476456294863e+000	 9.539644175601220e+000
 1.442957006227642e+000	 4.367822445630329e+000	 9.511798471131495e+000
 1.397263940524724e+000	 4.382653423563671e+000	 9.484808749862747e+000
 1.351534733829807e+000	 4.396970698566631e+000	 9.459184183232287e+000
 1.816671919013446e+000	 4.255082508103375e+000	 9.729067686331746e+000
 1.771307208477829e+000	 4.274165897375390e+000	 9.704627128626166e+000
 1.725838436499470e+000	 4.292726906103013e+000	 9.679394688185870e+000
 1.680274242257619e+000	 4.310765626045627e+000	 9.653390573534715e+000
 1.634623223689457e+000	 4.328282330916575e+000	 9.626709614188748e+000
 1.588893932937980e+000	 4.345277474237192e+000	 9.599516906989994e+000
 1.543094871900040e+000	 4.361751687062710e+000	 9.572043372185714e+000
 1.497234487878403e+000	 4.377705775584788e+000	 9.544581209050026e+000
 1.451321169341454e+000	 4.393140718615577e+000	 9.517479246828820e+000
 1.405363241793875e+000	 4.408057664958273e+000	 9.491138192670347e+000
 1.359368963761478e+000	 4.422457930669241e+000	 9.466005783906686e+000
 1.827141664351063e+000	 4.279605169453903e+000	 9.732923024634445e+000
 1.781515510369310e+000	 4.298798539082598e+000	 9.708185509669136e+000
 1.735784695223622e+000	 4.317466517611590e+000	 9.682950246328860e+000
 1.689957907882090e+000	 4.335609197329095e+000	 9.657186095989182e+000
 1.644043795833055e+000	 4.353226853525915e+000	 9.630935226040940e+000
 1.598050960506751e+000	 4.370319942337100e+000	 9.604308920984899e+000
 1.551987952797689e+000	 4.386889098454755e+000	 9.577483277895791e+000
 1.505863268691670e+000	 4.402935132716745e+000	 9.550694774867395e+000
 1.459685345001032e+000	 4.418459029576267e+000	 9.524235707412283e+000
 1.413462555211551e+000	 4.433461944457243e+000	 9.498449494042003e+000
 1.367203205444115e+000	 4.447945201000674e+000	 9.473725858318542e+000
 1.837611428009747e+000	 4.304127873716953e+000	 9.738439931872048e+000
 1.791723830124394e+000	 4.323431223894758e+000	 9.713534861018424e+000
 1.745730971352862e+000	 4.342206172412293e+000	 9.688363585660669e+000
 1.699641590452172e+000	 4.360452812086607e+000	 9.662854832675627e+000
 1.653464384461907e+000	 4.378171419785954e+000	 9.637008150487162e+000
 1.607208004099625e+000	 4.395362454259106e+000	 9.610889902786123e+000
 1.560881049257588e+000	 4.412026553835039e+000	 9.584629121596711e+000
 1.514492064604709e+000	 4.428164533997835e+000	 9.558413207011858e+000
 1.468049535297370e+000	 4.443777384841742e+000	 9.532483467671268e+000
 1.421561882802519e+000	 4.458866268411421e+000	 9.507130502690670e+000
 1.375037460836209e+000	 4.473432515932509e+000	 9.482689432190874e+000
 1.848081212606869e+000	 4.328650627022916e+000	 9.745726827842162e+000
 1.801932170295104e+000	 4.348063957969758e+000	 9.720872657982197e+000
 1.755677267373712e+000	 4.366945876689758e+000	 9.695907171005207e+000
 1.709325292388740e+000	 4.385296476528787e+000	 9.670730012243244e+000
 1.662884991931116e+000	 4.403116035932561e+000	 9.645308014836866e+000
 1.616365066005823e+000	 4.420405016263575e+000	 9.619671394356313e+000
 1.569774163502966e+000	 4.437164059487675e+000	 9.593909778023448e+000
 1.523120877774671e+000	 4.453393985735167e+000	 9.568168054462412e+000
 1.476413742321461e+000	 4.469095790741354e+000	 9.542642037059540e+000
 1.429661226591551e+000	 4.484270643171642e+000	 9.517573941043796e+000
 1.382871731896253e+000	 4.498919881836327e+000	 9.493247681225633e+000
 1.858551020759794e+000	 4.353173435502172e+000	 9.754898198139127e+000
 1.812140533433459e+000	 4.372696747465477e+000	 9.730401066024179e+000
 1.765623585772689e+000	 4.391685636628613e+000	 9.705857084834312e+000
 1.719009016112672e+000	 4.410140196866269e+000	 9.681147709884506e+000
 1.672305620595792e+000	 4.428060708201620e+000	 9.656216821397649e+000
 1.625522148514564e+000	 4.445447634610878e+000	 9.631067138730117e+000
 1.578667297757052e+000	 4.462301621696776e+000	 9.605756444652062e+000
 1.531749710358706e+000	 4.478623494235840e+000	 9.580393604109297e+000
 1.484777968164295e+000	 4.494414253604442e+000	 9.555134369461317e+000
 1.437760588603414e+000	 4.509675075088747e+000	 9.530176971628634e+000
 1.390706020582740e+000	 4.524407305083716e+000	 9.505757503808916e+000
 1.312363691888676e+000	 4.269534888480566e+000	 9.426970730050700e+000
 1.267932648602657e+000	 4.282939824829096e+000	 9.401393352261424e+000
 1.223482245031362e+000	 4.295848954764351e+000	 9.376401544517705e+000
 1.179020234462681e+000	 4.308264010049258e+000	 9.351573186373919e+000
 1.134554291362543e+000	 4.320186872431324e+000	 9.326698609497228e+000
 1.090092008085802e+000	 4.331619570558885e+000	 9.301752115593587e+000
 1.045640891710207e+000	 4.342564276823000e+000	 9.276865344467081e+000
 1.001208360994868e+000	 4.353023304130100e+000	 9.252302358418774e+000
 9.568017434643784e-001	 4.362999102610631e+000	 9.228436620515605e+000
 9.124282726195264e-001	 4.372494256268734e+000	 9.205728947901958e+000
 8.680950852753387e-001	 4.381511479578151e+000	 9.184707591484720e+000
 1.320197892442914e+000	 4.295022025012786e+000	 9.434216028272410e+000
 1.275501616503612e+000	 4.308506982593760e+000	 9.408516368100365e+000
 1.230785864707158e+000	 4.321493174027922e+000	 9.383305958209414e+000
 1.186058436624959e+000	 4.333982341416010e+000	 9.358238055777230e+000
 1.141327052535939e+000	 4.345976377738680e+000	 9.333170916266120e+000
 1.096599350117777e+000	 4.357477323754351e+000	 9.308139437709027e+000
 1.051882881261983e+000	 4.368487364822227e+000	 9.283328624683481e+000
 1.007185109014211e+000	 4.379008827655716e+000	 9.259048793732120e+000
 9.625134046409619e-001	 4.389044177011388e+000	 9.235712351319441e+000
 9.178750448236637e-001	 4.398596012318689e+000	 9.213812027042561e+000
 8.732772089808061e-001	 4.407667064255488e+000	 9.193900702721155e+000
 1.328032094955654e+000	 4.320509167915920e+000	 9.440759364455271e+000
 1.283070586296851e+000	 4.334074146749345e+000	 9.415191229470585e+000
 1.238089486208986e+000	 4.347137399701695e+000	 9.390021620530634e+000
 1.193096640547001e+000	 4.359700679211523e+000	 9.364968184885473e+000
 1.148099815402817e+000	 4.371765889492628e+000	 9.339947054336342e+000
 1.103106693776949e+000	 4.383335083413515e+000	 9.315044658952981e+000
 1.058124872374680e+000	 4.394410459301543e+000	 9.290491323594415e+000
 1.013161858528213e+000	 4.404994357677094e+000	 9.266636530688487e+000
 9.682250672459731e-001	 4.415089257922869e+000	 9.243925968567940e+000
 9.233218183900289e-001	 4.424697774893605e+000	 9.222879201366965e+000
 8.784593339823468e-001	 4.433822655471318e+000	 9.204070089037993e+000
 1.335866301385387e+000	 4.345996323561552e+000	 9.446889620286935e+000
 1.290639559874550e+000	 4.359641323687432e+000	 9.421626684566757e+000
 1.245393111362680e+000	 4.372781638196507e+000	 9.396682826385993e+000
 1.200134847988272e+000	 4.385419029865139e+000	 9.371828364735812e+000
 1.154872581656272e+000	 4.397555414140288e+000	 9.347027142245960e+000
 1.109614040690051e+000	 4.409192856000539e+000	 9.322407960834532e+000
 1.064366866608686e+000	 4.420333566741422e+000	 9.298238348958183e+000
 1.019138611030948e+000	 4.430979900690285e+000	 9.274899946227924e+000
 9.739367327072057e-001	 4.441134351855977e+000	 9.252865663104842e+000
 9.287685946801924e-001	 4.450799550518535e+000	 9.232677201458529e+000
 8.836414615753686e-001	 4.459978259764123e+000	 9.214925655981205e+000
 1.343700513690607e+000	 4.371483498321261e+000	 9.452922608757408e+000
 1.298208539128881e+000	 4.385208519799600e+000	 9.428053967907429e+000
 1.252696741994064e+000	 4.398425895923181e+000	 9.403450173082490e+000
 1.207173060708236e+000	 4.411137399806195e+000	 9.378913123900610e+000
 1.161645352989399e+000	 4.423344958128768e+000	 9.354444071623071e+000
 1.116121392483815e+000	 4.435050647979574e+000	 9.330204916458515e+000
 1.070608865524385e+000	 4.446256693622320e+000	 9.306492185313616e+000
 1.025115368016484e+000	 4.456965463191334e+000	 9.283712571015172e+000
 9.796484024524539e-001	 4.467179465321621e+000	 9.262360213724644e+000
 9.342153750557234e-001	 4.476901345718530e+000	 9.242994145824536e+000
 8.888235930552788e-001	 4.486133883672388e+000	 9.226219011152264e+000
 1.351534733829807e+000	 4.396970698566631e+000	 9.459184183232287e+000
 1.305777525952022e+000	 4.410775741477425e+000	 9.434724762766253e+000
 1.260000379928967e+000	 4.424070179292549e+000	 9.410508625448063e+000
 1.214211280466358e+000	 4.436855795464037e+000	 9.386344898848773e+000
 1.168418131095294e+000	 4.449134527905184e+000	 9.362261785233379e+000
 1.122628750784974e+000	 4.460908465814775e+000	 9.338444878596945e+000
 1.076850870682166e+000	 4.472179846424697e+000	 9.315211394312636e+000
 1.031092130978892e+000	 4.482951051676290e+000	 9.292985897131830e+000
 9.853600779095125e-001	 4.493224604830710e+000	 9.272277718397763e+000
 9.396621608781921e-001	 4.503003167018642e+000	 9.253658390563594e+000
 8.940057297174857e-001	 4.512289533734596e+000	 9.237742434223389e+000
 1.359368963761478e+000	 4.422457930669241e+000	 9.466005783906686e+000
 1.313346522236146e+000	 4.436342995112480e+000	 9.441909165723466e+000
 1.267304026993219e+000	 4.449714494715444e+000	 9.418065583901905e+000
 1.221249509022102e+000	 4.462574223268007e+000	 9.394272207902375e+000
 1.175190917667052e+000	 4.474924129916656e+000	 9.370573559075076e+000
 1.129136117220259e+000	 4.486766315970299e+000	 9.347169372062977e+000
 1.083092883642415e+000	 4.498103031629026e+000	 9.324389119411180e+000
 1.037068901412243e+000	 4.508936672641196e+000	 9.302667963950556e+000
 9.910717605061759e-001	 4.519269776894150e+000	 9.282524329352354e+000
 9.451089535091687e-001	 4.529105020943928e+000	 9.264537382327140e+000
 8.991878728573965e-001	 4.538445216489231e+000	 9.249327849471765e+000
 1.367203205444115e+000	 4.447945201000674e+000	 9.473725858318542e+000
 1.320915529873429e+000	 4.461910287096349e+000	 9.449893653238249e+000
 1.274607685012648e+000	 4.475358848602692e+000	 9.426348955345295e+000
 1.228287748134932e+000	 4.488292689647442e+000	 9.402867828633443e+000
 1.181963714397769e+000	 4.500713770610291e+000	 9.379500288348213e+000
 1.135643493416403e+000	 4.512624204910295e+000	 9.356450490206765e+000
 1.089334905965519e+000	 4.524026255715766e+000	 9.334051594737412e+000
 1.043045680810608e+000	 4.534922332582100e+000	 9.312741981121310e+000
 9.967834516702385e-001	 4.545314988022854e+000	 9.293042991854573e+000
 9.505557543102224e-001	 4.555206914019434e+000	 9.275536514440443e+000
 9.043700237704183e-001	 4.564600938474771e+000	 9.260845800730726e+000
 1.375037460836209e+000	 4.473432515932509e+000	 9.482689432190874e+000
 1.328484550756046e+000	 4.487477623820607e+000	 9.458979050146008e+000
 1.281911355813081e+000	 4.501003247365127e+000	 9.435605226747271e+000
 1.235325999564315e+000	 4.514011201031685e+000	 9.412326978551715e+000
 1.188736522980538e+000	 4.526503456433209e+000	 9.389188777134882e+000
 1.142150881000137e+000	 4.538482139098920e+000	 9.366389295360319e+000
 1.095576939211864e+000	 4.549949525165379e+000	 9.344256657963431e+000
 1.049022470668056e+000	 4.560908037995050e+000	 9.323224955428506e+000
 1.002495152829495e+000	 4.571360244727723e+000	 9.303812186535497e+000
 9.560025646429237e-001	 4.581308852770216e+000	 9.286597986054201e+000
 9.095521837519596e-001	 4.590756706229706e+000	 9.272204428659530e+000
 1.382871731896253e+000	 4.498919881836327e+000	 9.493247681225633e+000
 1.336053586776173e+000	 4.513045011676836e+000	 9.469479500622088e+000
 1.289215041220348e+000	 4.526647697413575e+000	 9.446097541303999e+000
 1.242364265069712e+000	 4.539729763850075e+000	 9.422865498940688e+000
 1.195509345108457e+000	 4.552293193832523e+000	 9.399810031631809e+000
 1.148658281598194e+000	 4.564340125000325e+000	 9.377114223065808e+000
 1.101818984941838e+000	 4.575872846458329e+000	 9.355092267014321e+000
 1.054999272478658e+000	 4.586893795376091e+000	 9.334166321359522e+000
 1.008206865411739e+000	 4.597405553519669e+000	 9.314844675119392e+000
 9.614493858688419e-001	 4.607410843721322e+000	 9.297699664203092e+000
 9.147343540974272e-001	 4.616912526292514e+000	 9.283348450237947e+000
 1.390706020582740e+000	 4.524407305083716e+000	 9.505757503808916e+000
 1.343622639825983e+000	 4.538612457056611e+000	 9.481725737828356e+000
 1.296518743060277e+000	 4.552292205158868e+000	 9.458103777055690e+000
 1.249402546410591e+000	 4.565448384531957e+000	 9.434718041704841e+000
 1.202282182474620e+000	 4.578082989255348e+000	 9.411557556784274e+000
 1.155165696837306e+000	 4.590198169078671e+000	 9.388779489928536e+000
 1.108061044715827e+000	 4.601796226075082e+000	 9.366675020455480e+000
 1.060976087736485e+000	 4.612879611221272e+000	 9.345646575231907e+000
 1.013918590844767e+000	 4.623450920909602e+000	 9.326185991558345e+000
 9.668962193495476e-001	 4.633512893397807e+000	 9.308853948653406e+000
 9.199165361022297e-001	 4.643068405201682e+000	 9.294258140395282e+000
 8.680950852753387e-001	 4.381511479578151e+000	 9.184707591484722e+000
 8.238158559823360e-001	 4.390052368877188e+000	 9.166460624519459e+000
 7.795908563484765e-001	 4.398121279226207e+000	 9.150951341115651e+000
 7.354269054959162e-001	 4.405721297882296e+000	 9.137092501567208e+000
 6.913307167858148e-001	 4.412855628386947e+000	 9.123818349642288e+000
 6.473088957992225e-001	 4.419527586972392e+000	 9.109737936346468e+000
 6.033679384448840e-001	 4.425740598943745e+000	 9.091901754318631e+000
 5.595142291933103e-001	 4.431498195041699e+000	 9.070750158425923e+000
 5.157540394362666e-001	 4.436804007790360e+000	 9.047615836719610e+000
 4.720935259706737e-001	 4.441661767834682e+000	 9.023981758206988e+000
 4.285387296057504e-001	 4.446075300271935e+000	 9.001389841475028e+000
 8.732772089808061e-001	 4.407667064255488e+000	 9.193900702721155e+000
 8.287336532936124e-001	 4.416258938689484e+000	 9.177033697614927e+000
 7.842446509914095e-001	 4.424376016678722e+000	 9.163043917313628e+000
 7.398170619033314e-001	 4.432021403909765e+000	 9.150711053634785e+000
 6.954576394661742e-001	 4.439198323047760e+000	 9.138829344041922e+000
 6.511730286932252e-001	 4.445910110121297e+000	 9.125982659294275e+000
 6.069697642707758e-001	 4.452160210882961e+000	 9.109173878762698e+000
 5.628542687816476e-001	 4.457952177150324e+000	 9.088828562472799e+000
 5.188328510548899e-001	 4.463289663131958e+000	 9.066456590259964e+000
 4.749117046406300e-001	 4.468176421743035e+000	 9.043663420678724e+000
 4.310969064089004e-001	 4.472616300914869e+000	 9.022069398006142e+000
 8.784593339823468e-001	 4.433822655471318e+000	 9.204070089037993e+000
 8.336514518348714e-001	 4.442465515053097e+000	 9.188517097774689e+000
 7.888984467982986e-001	 4.450630760694661e+000	 9.175944918590471e+000
 7.442072194087532e-001	 4.458321516512071e+000	 9.165037258795806e+000
 6.995845631786775e-001	 4.465541024294117e+000	 9.154486127690031e+000
 6.550371625536086e-001	 4.472292639865747e+000	 9.142861493694554e+000
 6.105715909973943e-001	 4.478579829427026e+000	 9.127183976032697e+000
 5.661943092051792e-001	 4.484406165872399e+000	 9.107805440956209e+000
 5.219116634433063e-001	 4.489775325094919e+000	 9.086391059098846e+000
 4.777298840151202e-001	 4.494691082279964e+000	 9.064645357902196e+000
 4.336550838514772e-001	 4.499157308192906e+000	 9.044242782290450e+000
 8.836414615753686e-001	 4.459978259764123e+000	 9.214925655981205e+000
 8.385692528354412e-001	 4.468672104519224e+000	 9.200589885945689e+000
 7.935522449324761e-001	 4.476885517837256e+000	 9.189309456658751e+000
 7.485973791096102e-001	 4.484621642263760e+000	 9.179708625215270e+000
 7.037114889549538e-001	 4.491883738711193e+000	 9.170414435206675e+000
 6.589012983463148e-001	 4.498675182800866e+000	 9.159992915249575e+000
 6.141734195251172e-001	 4.504999461180325e+000	 9.145551899564978e+000
 5.695343512988482e-001	 4.510860167820907e+000	 9.127313312512658e+000
 5.249904773711663e-001	 4.516261000300147e+000	 9.107071522568337e+000
 4.805480647986511e-001	 4.521205756073644e+000	 9.086602504591511e+000
 4.362132625730025e-001	 4.525698328740826e+000	 9.067606291395878e+000
 8.888235930552788e-001	 4.486133883672388e+000	 9.226219011152264e+000
 8.434870575246498e-001	 4.494878713639076e+000	 9.212972613770150e+000
 7.982060465572737e-001	 4.503140294669722e+000	 9.202833369187431e+000
 7.529875421033320e-001	 4.510921787739379e+000	 9.194402077194562e+000
 7.078384178266330e-001	 4.518226472884162e+000	 9.186277571930278e+000
 6.627654370372851e-001	 4.525057745521769e+000	 9.177031762858748e+000
 6.177752507543209e-001	 4.531419112747249e+000	 9.163930585965641e+000
 5.728743958975985e-001	 4.537314189608826e+000	 9.147014454998214e+000
 5.280692936081197e-001	 4.542746695368543e+000	 9.128176569770112e+000
 4.833662476957295e-001	 4.547720449752237e+000	 9.109232449111943e+000
 4.387714432129978e-001	 4.552239369193409e+000	 9.091874932874363e+000
 8.940057297174857e-001	 4.512289533734596e+000	 9.237742434223389e+000
 8.484048671318258e-001	 4.521085348963856e+000	 9.225426416635413e+000
 8.028598528360241e-001	 4.529395097755289e+000	 9.216252439095063e+000
 7.573777094873473e-001	 4.537221959513468e+000	 9.208833303416151e+000
 7.119653508253439e-001	 4.544569233398201e+000	 9.201775893332910e+000
 6.666295795924624e-001	 4.551440334623585e+000	 9.193668722345599e+000
 6.213770855853823e-001	 4.557838790732179e+000	 9.182005658965450e+000
 5.762144438363727e-001	 4.563768237849134e+000	 9.166600637917874e+000
 5.311481129238166e-001	 4.569232416921015e+000	 9.149410967305556e+000
 4.861844334108614e-001	 4.574235169943914e+000	 9.132255441923961e+000
 4.413296264109849e-001	 4.578780436185433e+000	 9.116782577930989e+000
 8.991878728573965e-001	 4.538445216489231e+000	 9.249327849471765e+000
 8.533226828862971e-001	 4.547292017044767e+000	 9.237752108223026e+000
 8.075136649320595e-001	 4.555649933657178e+000	 9.229341614056121e+000
 7.617678823590861e-001	 4.563522164160577e+000	 9.222756103862082e+000
 7.160922889827159e-001	 4.570912026838487e+000	 9.216646281329677e+000
 6.704937269777883e-001	 4.577822956701428e+000	 9.209640938303849e+000
 6.249789249186784e-001	 4.584258501739503e+000	 9.199495026051586e+000
 5.795544959501140e-001	 4.590222319154812e+000	 9.185792845114232e+000
 5.342269360879076e-001	 4.595718171578466e+000	 9.170505514663722e+000
 4.890026226485546e-001	 4.600749923276847e+000	 9.155414388912696e+000
 4.438878128064857e-001	 4.605321536351674e+000	 9.142082096548556e+000
 9.043700237704183e-001	 4.564600938474771e+000	 9.260845800730726e+000
 8.582405060173920e-001	 4.573498724433015e+000	 9.249789276497115e+000
 8.121674840087119e-001	 4.581904808938611e+000	 9.241914226213098e+000
 7.661580618159770e-001	 4.589822408255248e+000	 9.235961735461125e+000
 7.202192333303782e-001	 4.597254859790191e+000	 9.230661617609840e+000
 6.743578801592047e-001	 4.604205618350421e+000	 9.224719033492990e+000
 6.285807696545859e-001	 4.610678252373609e+000	 9.216148468072747e+000
 5.828945530737658e-001	 4.616676440138839e+000	 9.204340988109390e+000
 5.373057638700425e-001	 4.622203965961801e+000	 9.191216887765696e+000
 4.918208161133147e-001	 4.627264716379197e+000	 9.178474830213299e+000
 4.464460030390217e-001	 4.631862676326912e+000	 9.167545475296389e+000
 9.095521837519596e-001	 4.590756706229706e+000	 9.272204428659530e+000
 8.631583377544391e-001	 4.599705477679802e+000	 9.261415381073956e+000
 8.168213112293127e-001	 4.608159730162813e+000	 9.253821212086095e+000
 7.705482489554496e-001	 4.616122698372031e+000	 9.248278256516731e+000
 7.243461848999602e-001	 4.623597738838497e+000	 9.243630254110382e+000
 6.782220401026543e-001	 4.630588326165689e+000	 9.238694396088057e+000
 6.321826206934819e-001	 4.637098049238887e+000	 9.231747222100347e+000
 5.862346160422717e-001	 4.643130607414195e+000	 9.222023610475638e+000
 5.403845970398715e-001	 4.648689806691922e+000	 9.211327471141310e+000
 4.946390145096492e-001	 4.653779555879138e+000	 9.201224905114847e+000
 4.490041977481146e-001	 4.658403862745926e+000	 9.192963918518290e+000
 9.147343540974272e-001	 4.616912526292514e+000	 9.283348450237947e+000
 8.680761793267664e-001	 4.625912283336335e+000	 9.272544851917022e+000
 8.214751477571952e-001	 4.634414703893005e+000	 9.264950332672703e+000
 7.749384448749330e-001	 4.642423041085467e+000	 9.259569869965150e+000
 7.284731447230914e-001	 4.649940670568578e+000	 9.255395480747477e+000
 6.820862077740778e-001	 4.656971086742346e+000	 9.251391623491854e+000
 6.357844789357430e-001	 4.663517898939720e+000	 9.246103557815248e+000
 5.895746856905739e-001	 4.669584827593855e+000	 9.238536446841341e+000
 5.434634363670444e-001	 4.675175700389735e+000	 9.229598230538437e+000
 4.974572185420643e-001	 4.680294448404835e+000	 9.220571669307907e+000
 4.515623975732860e-001	 4.684945102243493e+000	 9.212587811351863e+000
 9.199165361022297e-001	 4.643068405201682e+000	 9.294258140395282e+000
 8.729940319637027e-001	 4.652119147953821e+000	 9.283128189304096e+000
 8.261289947556909e-001	 4.660669736692415e+000	 9.275225393730290e+000
 7.793286506718566e-001	 4.668723442970105e+000	 9.269700275700647e+000
 7.326001138314011e-001	 4.676283661565609e+000	 9.264937336213379e+000
 6.859503841394185e-001	 4.683353906675523e+000	 9.259660423010176e+000
 6.393863452817467e-001	 4.689937808080498e+000	 9.252577662770134e+000
 5.929147628536167e-001	 4.696039107290805e+000	 9.242670208217326e+000
 5.465422826212124e-001	 4.701661653676148e+000	 9.231383854894531e+000
 5.002754289150674e-001	 4.706809400584463e+000	 9.220076194328094e+000
 4.541206031540581e-001	 4.711486401454396e+000	 9.209839616128011e+000
 4.285387296057504e-001	 4.446075300271935e+000	 9.001389841475028e+000
 3.850890805500644e-001	 4.450049084339992e+000	 8.981452026402037e+000
 3.417570031782413e-001	 4.453586430291699e+000	 8.964671057565877e+000
 2.985482730329786e-001	 4.456691427433116e+000	 8.950848715538998e+000
 2.554685425323556e-001	 4.459368244970696e+000	 8.939668313216954e+000
 2.125233401846516e-001	 4.461621128336632e+000	 8.930658358306181e+000
 1.697180699191663e-001	 4.463454395533639e+000	 8.923160617994245e+000
 1.270580105308184e-001	 4.464872433502730e+000	 8.916300826399681e+000
 8.454831523620206e-002	 4.465879694517425e+000	 8.908960440738920e+000
 4.219401133867887e-002	 4.466480692607676e+000	 8.899748019608673e+000
 0.000000000000000e+000	 4.466680000016666e+000	 8.886968964687176e+000
 4.310969064089004e-001	 4.472616300914869e+000	 9.022069398006142e+000
 3.873878831668753e-001	 4.476613806624297e+000	 9.003552017686740e+000
 3.437971334569231e-001	 4.480172268884855e+000	 8.988863642512012e+000
 3.003304672990538e-001	 4.483295801413886e+000	 8.977819071214492e+000
 2.569935708536618e-001	 4.485988598306078e+000	 8.970102325095610e+000
 2.137920056316586e-001	 4.488254930336908e+000	 8.965240130164798e+000
 1.707312078212965e-001	 4.490099141285577e+000	 8.962579320491930e+000
 1.278164877294533e-001	 4.491525644281117e+000	 8.961266332468062e+000
 8.505302933503721e-002	 4.492538918175069e+000	 8.960227133683290e+000
 4.244588995208106e-002	 4.493143503944066e+000	 8.958146106214528e+000
 0.000000000000000e+000	 4.493344001125477e+000	 8.953442580527964e+000
 4.336550838514772e-001	 4.499157308192906e+000	 9.044242782290450e+000
 3.896866863581597e-001	 4.503178535549550e+000	 9.027231586270204e+000
 3.458372642453051e-001	 4.506758114124129e+000	 9.014527064322381e+000
 3.021126620102527e-001	 4.509900182045278e+000	 9.005946072393805e+000
 2.585185995557301e-001	 4.512608958295946e+000	 9.001164680736533e+000
 2.150606713952966e-001	 4.514888738994900e+000	 8.999701937980589e+000
 1.717443459761739e-001	 4.516743893697840e+000	 9.000907045069745e+000
 1.285749651172146e-001	 4.518178861721835e+000	 9.003948035894926e+000
 8.555774355965724e-002	 4.519198148496463e+000	 9.007800244448607e+000
 4.269776862822099e-002	 4.519806321945047e+000	 9.011233023328668e+000
 0.000000000000000e+000	 4.520008008899155e+000	 9.012793363634348e+000
 4.362132625730025e-001	 4.525698328740826e+000	 9.067606291395878e+000
 3.919854906986117e-001	 4.529743277756488e+000	 9.052212300234876e+000
 3.478773960534284e-001	 4.533343972655576e+000	 9.041417146888273e+000
 3.038948576121467e-001	 4.536504575978026e+000	 9.035024489413642e+000
 2.600436290198512e-001	 4.539229331595072e+000	 9.032689575995942e+000
 2.163293377927735e-001	 4.541522560968785e+000	 9.033913771362920e+000
 1.727574846371283e-001	 4.543388659431391e+000	 9.038041950275730e+000
 1.293334428837658e-001	 4.544832092488003e+000	 9.044260780065489e+000
 8.606245803627748e-002	 4.545857392146254e+000	 9.051596106460725e+000
 4.294964743009057e-002	 4.546469153276180e+000	 9.058907851181692e+000
 0.000000000000000e+000	 4.546672030003567e+000	 9.064881024095369e+000
 4.387714432129978e-001	 4.552239369193409e+000	 9.091874932874363e+000
 3.942842967629250e-001	 4.556308039885856e+000	 9.078229909895562e+000
 3.499175293913340e-001	 4.559929851125256e+000	 9.069298491715582e+000
 3.056770545503065e-001	 4.563108989862871e+000	 9.064851519577372e+000
 2.615686596273159e-001	 4.565849724858238e+000	 9.064506269764561e+000
 2.175980051412977e-001	 4.568156402916756e+000	 9.067732241186050e+000
 1.737706240574899e-001	 4.570033445147191e+000	 9.073859234734686e+000
 1.300919212187705e-001	 4.571485343242731e+000	 9.082085669478518e+000
 8.656717289111304e-002	 4.572516655789088e+000	 9.091485282621214e+000
 4.320152642068171e-002	 4.573132004603025e+000	 9.101010563936280e+000
 0.000000000000000e+000	 4.573336071104578e+000	 9.109491479112290e+000
 4.413296264109849e-001	 4.578780436185433e+000	 9.116782577930989e+000
 3.965831051257935e-001	 4.582872828578392e+000	 9.105034654662545e+000
 3.519576647690630e-001	 4.586515756179225e+000	 9.097944952264879e+000
 3.074592532703030e-001	 4.589713430350548e+000	 9.095227441225422e+000
 2.630936917594153e-001	 4.592470144740218e+000	 9.096439928509359e+000
 2.188666737580774e-001	 4.594790271496987e+000	 9.101001623851213e+000
 1.747837644905889e-001	 4.596678257506201e+000	 9.108212388911372e+000
 1.308504003118923e-001	 4.598138620649136e+000	 9.117271535349847e+000
 8.707188825037926e-002	 4.599175946089610e+000	 9.127294249676988e+000
 4.345340566298635e-002	 4.599794882591152e+000	 9.137323936368375e+000
 0.000000000000000e+000	 4.600000138868055e+000	 9.146338984188565e+000
 4.438878128064857e-001	 4.605321536351674e+000	 9.142082096548556e+000
 3.988819163619112e-001	 4.609437650474842e+000	 9.132391548566449e+000
 3.539978026966568e-001	 4.613101694463546e+000	 9.127140083094380e+000
 3.092414542177074e-001	 4.616317904091796e+000	 9.125956238203859e+000
 2.646187257974401e-001	 4.619090597895790e+000	 9.128312436282245e+000
 2.201353439603209e-001	 4.621424173367672e+000	 9.133554865577963e+000
 1.757969061897552e-001	 4.623323103169382e+000	 9.140934400978413e+000
 1.316088803527945e-001	 4.624791931370331e+000	 9.149636348928350e+000
 8.757660424029136e-002	 4.625835269712470e+000	 9.158807023464309e+000
 4.370528521999640e-002	 4.626457793906115e+000	 9.167575384156578e+000
 0.000000000000000e+000	 4.626664239959866e+000	 9.175068190256544e+000
 4.464460030390217e-001	 4.631862676326912e+000	 9.167545475296389e+000
 4.011807310459722e-001	 4.636002512215941e+000	 9.160080645306078e+000
 3.560379436841565e-001	 4.639687672624278e+000	 9.156677564822159e+000
 3.110236578380905e-001	 4.642922417737345e+000	 9.156846195924242e+000
 2.661437621226814e-001	 4.645711090979727e+000	 9.159943171587045e+000
 2.214040160652363e-001	 4.648058115186988e+000	 9.165214548333761e+000
 1.768100494083191e-001	 4.649967988797696e+000	 9.171838918634951e+000
 1.323673615311408e-001	 4.651445282069432e+000	 9.178968584627677e+000
 8.808132098706455e-002	 4.652494633322307e+000	 9.185766727402928e+000
 4.395716515470378e-002	 4.653120745213480e+000	 9.191438740448154e+000
 0.000000000000000e+000	 4.653328381045879e+000	 9.195256129715197e+000
 4.490041977481146e-001	 4.658403862745926e+000	 9.192963918518290e+000
 4.034795497526701e-001	 4.662567420442432e+000	 9.187897283640746e+000
 3.580780882416031e-001	 4.666273697307478e+000	 9.186361605877156e+000
 3.128058645770233e-001	 4.669526977937935e+000	 9.187562758763468e+000
 2.676688011164299e-001	 4.672331630646811e+000	 9.190568847091438e+000
 2.226726903900320e-001	 4.674692103613119e+000	 9.194662564174733e+000
 1.778231943996107e-001	 4.676612921052107e+000	 9.199088925026491e+000
 1.331258440365946e-001	 4.678098679409549e+000	 9.203083596492222e+000
 8.858603861691414e-002	 4.679154043583776e+000	 9.205902598074795e+000
 4.420904553010043e-002	 4.679783743178811e+000	 9.206850264115449e+000
 0.000000000000000e+000	 4.679992568791956e+000	 9.205305662249309e+000
 4.515623975732860e-001	 4.684945102243493e+000	 9.212587811351863e+000
 4.057783730566992e-001	 4.689132381795057e+000	 9.206853629774233e+000
 3.601182368790378e-001	 4.692859775159207e+000	 9.203691800440579e+000
 3.145880748800770e-001	 4.696131591344303e+000	 9.202622457893641e+000
 2.691938431599767e-001	 4.698952223551811e+000	 9.203057952357352e+000
 2.239413672519161e-001	 4.701326145304252e+000	 9.204338181186667e+000
 1.788363414169600e-001	 4.703257906593573e+000	 9.205763517945790e+000
 1.338843280588195e-001	 4.704752130053801e+000	 9.206625588520685e+000
 8.909075725605534e-002	 4.705813507161522e+000	 9.206236129186259e+000
 4.446092640917822e-002	 4.706446794467667e+000	 9.203954146050927e+000
 0.000000000000000e+000	 4.706656809863967e+000	 9.199211578995101e+000
 4.541206031540581e-001	 4.711486401454396e+000	 9.209839616128011e+000
 4.080772015327535e-001	 4.715697402914556e+000	 9.201758332130822e+000
 3.621583901065020e-001	 4.719445912825525e+000	 9.196112885201973e+000
 3.163702891928225e-001	 4.722736264607184e+000	 9.192514780085157e+000
 2.707188886346127e-001	 4.725572876349514e+000	 9.190471803297726e+000
 2.252100469680970e-001	 4.727960246918568e+000	 9.189422301224798e+000
 1.798494907136974e-001	 4.729902952083058e+000	 9.188767069186216e+000
 1.346428137874790e-001	 4.731405640665302e+000	 9.187899112405294e+000
 8.959547703070339e-002	 4.732473030720187e+000	 9.186231524338673e+000
 4.471280785492915e-002	 4.733109905745613e+000	 9.183223711323176e+000
 0.000000000000000e+000	 4.733321110927781e+000	 9.178406175183429e+000
 4.733321110927781e+000	 0.000000000000000e+000	 1.037798253533895e+001
 4.733109905745613e+000	 4.471280785492781e-002	 1.037410958833615e+001
 4.732473030720188e+000	 8.959547703070218e-002	 1.037163775078854e+001
 4.731405640665302e+000	 1.346428137874779e-001	 1.037031829341696e+001
 4.729902952083057e+000	 1.798494907136964e-001	 1.036990762182670e+001
 4.727960246918568e+000	 2.252100469680961e-001	 1.037017427361465e+001
 4.725572876349514e+000	 2.707188886346119e-001	 1.037090644812177e+001
 4.722736264607185e+000	 3.163702891928219e-001	 1.037192013510945e+001
 4.719445912825524e+000	 3.621583901065016e-001	 1.037306791428091e+001
 4.715697402914556e+000	 4.080772015327532e-001	 1.037424850309435e+001
 4.711486401454396e+000	 4.541206031540578e-001	 1.037541713565915e+001
 4.759989469820151e+000	 0.000000000000000e+000	 1.038373323475400e+001
 4.759777074671015e+000	 4.496472763253101e-002	 1.037990622616323e+001
 4.759136611380217e+000	 9.010027361466881e-002	 1.037713262929504e+001
 4.758063207462941e+000	 1.354014149440846e-001	 1.037523712368387e+001
 4.756552052470237e+000	 1.808627941936055e-001	 1.037404698737875e+001
 4.754598401764884e+000	 2.264789197545885e-001	 1.037339871676784e+001
 4.752197580332299e+000	 2.722441661938199e-001	 1.037314516130079e+001
 4.749344986623096e+000	 3.181527747266116e-001	 1.037316324162804e+001
 4.746036096423840e+000	 3.641988538086731e-001	 1.037336232564980e+001
 4.742266466752270e+000	 4.103763798492339e-001	 1.037369334282849e+001
 4.738031739773277e+000	 4.566791980477858e-001	 1.037415872280114e+001
 4.786657848721423e+000	 0.000000000000000e+000	 1.038330737325526e+001
 4.786444263604397e+000	 4.521664759929027e-002	 1.038025934769415e+001
 4.785800212045457e+000	 9.060507057761931e-002	 1.037792480124275e+001
 4.784720794261156e+000	 1.361600166701584e-001	 1.037619380616258e+001
 4.783201172851483e+000	 1.818760984341039e-001	 1.037495694266639e+001
 4.781236576596879e+000	 2.277477934934140e-001	 1.037411154739494e+001
 4.778822304290479e+000	 2.737694448977087e-001	 1.037356845763816e+001
 4.775953728602225e+000	 3.199352615980164e-001	 1.037325932205946e+001
 4.772626299971283e+000	 3.662393190419611e-001	 1.037314455499538e+001
 4.768835550523107e+000	 4.126755598908812e-001	 1.037322201761001e+001
 4.764577098007344e+000	 4.592377948612594e-001	 1.037353651521605e+001
 4.813326200962827e+000	 0.000000000000000e+000	 1.037797692244682e+001
 4.813111425879084e+000	 4.546856731450769e-002	 1.037623105358021e+001
 4.812463786055541e+000	 9.110986703643685e-002	 1.037487368115299e+001
 4.811378354410160e+000	 1.369186176384996e-001	 1.037385242961524e+001
 4.809850266591904e+000	 1.828894016623030e-001	 1.037311378856224e+001
 4.807874724798890e+000	 2.290166659644496e-001	 1.037260899527461e+001
 4.805447001632020e+000	 2.752947220774363e-001	 1.037230039240023e+001
 4.802562443980586e+000	 3.217177466880521e-001	 1.037216833377489e+001
 4.799216476936393e+000	 3.682797822358817e-001	 1.037221871804185e+001
 4.795404607732644e+000	 4.149747376344186e-001	 1.037249123629603e+001
 4.791122429703765e+000	 4.617963891171835e-001	 1.037306842637015e+001
 4.839994479875598e+000	 0.000000000000000e+000	 1.036898555021048e+001
 4.839778514828407e+000	 4.572048633748538e-002	 1.036886014458650e+001
 4.839127286750117e+000	 9.161466210800462e-002	 1.036882016684064e+001
 4.838035841260178e+000	 1.376772165219083e-001	 1.036886312825074e+001
 4.836499287056593e+000	 1.839027021053143e-001	 1.036898421241385e+001
 4.834512799755251e+000	 2.302855349475718e-001	 1.036918179673701e+001
 4.832071625764876e+000	 2.768199950641596e-001	 1.036946342697364e+001
 4.829171086194195e+000	 3.235002268777344e-001	 1.036985232003854e+001
 4.825806580787716e+000	 3.703202398199508e-001	 1.037039447736052e+001
 4.821973591886459e+000	 4.172739090565691e-001	 1.037116649796469e+001
 4.817667688409711e+000	 4.643549763382627e-001	 1.037228418723992e+001
 4.866662638790970e+000	 0.000000000000000e+000	 1.035754939477670e+001
 4.866445483785695e+000	 4.597240422752544e-002	 1.035916276448724e+001
 4.865790667468827e+000	 9.211945490920574e-002	 1.036058715543905e+001
 4.864693208161425e+000	 1.384358119931847e-001	 1.036186247526331e+001
 4.863148187610658e+000	 1.849159979902493e-001	 1.036302556355790e+001
 4.861150754850293e+000	 2.315543982226574e-001	 1.036411535669229e+001
 4.858696130097009e+000	 2.783452611890359e-001	 1.036517848202157e+001
 4.855779608679063e+000	 3.252826990480789e-001	 1.036627535897912e+001
 4.852396564993790e+000	 3.723606882236841e-001	 1.036748689191559e+001
 4.848542456490132e+000	 4.195730701340565e-001	 1.036892184686475e+001
 4.844212827672348e+000	 4.669135520472020e-001	 1.037072501156334e+001
 4.893330631040176e+000	 0.000000000000000e+000	 1.034485781371889e+001
 4.893112286084272e+000	 4.622432054393000e-002	 1.034813302211278e+001
 4.892453881551312e+000	 9.262424455692345e-002	 1.035098004264815e+001
 4.891350408464123e+000	 1.391944027251290e-001	 1.035347386350680e+001
 4.889796921619200e+000	 1.859292875442192e-001	 1.035568611972190e+001
 4.887788543468357e+000	 2.328232535695832e-001	 1.035768990513515e+001
 4.885320468036373e+000	 2.798705177832224e-001	 1.035956498854044e+001
 4.882387964871203e+000	 3.270651600801012e-001	 1.036140351371973e+001
 4.878986383023156e+000	 3.744011238765979e-001	 1.036331627085884e+001
 4.875111155049245e+000	 4.218722168436039e-001	 1.036543963453521e+001
 4.870757801038846e+000	 4.694721117667060e-001	 1.036794327101096e+001
 4.919998409954449e+000	 0.000000000000000e+000	 1.033207410881392e+001
 4.919778875057467e+000	 4.647623484600112e-002	 1.033674359333192e+001
 4.919116882337213e+000	 9.312903016804092e-002	 1.034078720583595e+001
 4.918007395518488e+000	 1.399529873905411e-001	 1.034430787378775e+001
 4.916445442447325e+000	 1.869425689943357e-001	 1.034740534465494e+001
 4.914426118993777e+000	 2.340920987682258e-001	 1.035018064833264e+001
 4.911944592990931e+000	 2.813957621778768e-001	 1.035274093689560e+001
 4.908996108206631e+000	 3.288476068548173e-001	 1.035520478362258e+001
 4.905575988344355e+000	 3.764415432082079e-001	 1.035770803141345e+001
 4.901679641069377e+000	 4.241713451619347e-001	 1.036041028882548e+001
 4.897302562056370e+000	 4.720306510194794e-001	 1.036350217990542e+001
 4.946665928865022e+000	 0.000000000000000e+000	 1.032033622767118e+001
 4.946445204038610e+000	 4.672814669304094e-002	 1.032594630371948e+001
 4.945779623166170e+000	 9.363381085944129e-002	 1.033078047159682e+001
 4.944664122674740e+000	 1.407115646622214e-001	 1.033496263123964e+001
 4.943093703460129e+000	 1.879558405677100e-001	 1.033861413731530e+001
 4.941063434810888e+000	 2.353609315984621e-001	 1.034185791489367e+001
 4.938568458368636e+000	 2.829209917041559e-001	 1.034482292391122e+001
 4.935603992121360e+000	 3.306300362532426e-001	 1.034764905660680e+001
 4.932165334425926e+000	 3.784819426480299e-001	 1.035049256069432e+001
 4.928247868056106e+000	 4.264704510657722e-001	 1.035353208955883e+001
 4.923847064272092e+000	 4.745891653282274e-001	 1.035697548913255e+001
 4.973333141103128e+000	 0.000000000000000e+000	 1.031075744299440e+001
 4.973111226361029e+000	 4.698005564435157e-002	 1.031667269262726e+001
 4.972442057377833e+000	 9.413858574800782e-002	 1.032171556834416e+001
 4.971320543283099e+000	 1.414701332129701e-001	 1.032602415022095e+001
 4.969741658022722e+000	 1.889691004914536e-001	 1.032973507292814e+001
 4.967700444304020e+000	 2.366297498401687e-001	 1.033298729690989e+001
 4.965192017577452e+000	 2.844462036932173e-001	 1.033592619808656e+001
 4.962211570051403e+000	 3.324124451563928e-001	 1.033870806249919e+001
 4.958754374736414e+000	 3.805223186255800e-001	 1.034150508131869e+001
 4.954815789515014e+000	 4.287695305318400e-001	 1.034451095059254e+001
 4.950391261233176e+000	 4.771476502156543e-001	 1.034794718890392e+001
 5.000000000000000e+000	 0.000000000000000e+000	 1.030442701030368e+001
 4.999776895358052e+000	 4.723196125923512e-002	 1.030983455934623e+001
 4.999104138311836e+000	 9.464335395062358e-002	 1.031433256449073e+001
 4.997976610693785e+000	 1.422286917155873e-001	 1.031806666816126e+001
 4.996389259500202e+000	 1.899823469926779e-001	 1.032118263621364e+001
 4.994337100857515e+000	 2.378985512732224e-001	 1.032382978634999e+001
 4.991815224025334e+000	 2.859713954762181e-001	 1.032616470300743e+001
 4.988818795432773e+000	 3.341948304452838e-001	 1.032835532737974e+001
 4.985343062744359e+000	 3.825626675703741e-001	 1.033058552066709e+001
 4.981383358951679e+000	 4.310685795368613e-001	 1.033306020803890e+001
 4.976935106486797e+000	 4.797061012044654e-001	 1.033601122004385e+001
 4.711486401454396e+000	 4.541206031540578e-001	 1.037541713565915e+001
 4.706809400584462e+000	 5.002754289150643e-001	 1.037718521483746e+001
 4.701661653676148e+000	 5.465422826212099e-001	 1.038038350299300e+001
 4.696039107290805e+000	 5.929147628536144e-001	 1.038540583050734e+001
 4.689937808080499e+000	 6.393863452817449e-001	 1.039273867854030e+001
 4.683353906675523e+000	 6.859503841394175e-001	 1.040270184376196e+001
 4.676283661565610e+000	 7.326001138314001e-001	 1.041328365655712e+001
 4.668723442970103e+000	 7.793286506718558e-001	 1.042375230247552e+001
 4.660669736692415e+000	 8.261289947556908e-001	 1.043382587816238e+001
 4.652119147953821e+000	 8.729940319637028e-001	 1.044317243095308e+001
 4.643068405201682e+000	 9.199165361022299e-001	 1.045164114405342e+001
 4.738031739773277e+000	 4.566791980477858e-001	 1.037415872280114e+001
 4.733328387862385e+000	 5.030940681690770e-001	 1.037528631629056e+001
 4.728151637647650e+000	 5.496215974204830e-001	 1.037779491734952e+001
 4.722497412852646e+000	 5.962553483164129e-001	 1.038207476315157e+001
 4.716361737855575e+000	 6.429887597671158e-001	 1.038860256728051e+001
 4.709740741598711e+000	 6.898151485630015e-001	 1.039759583970216e+001
 4.702630661491457e+000	 7.367277109902938e-001	 1.040717414519997e+001
 4.695027847302338e+000	 7.837195245792672e-001	 1.041680335383285e+001
 4.686928765035167e+000	 8.307835499861416e-001	 1.042629647788831e+001
 4.678330000784435e+000	 8.779126330095246e-001	 1.043547070224359e+001
 4.669228264565003e+000	 9.250995067421185e-001	 1.044414614012341e+001
 4.764577098007344e+000	 4.592377948612594e-001	 1.037353651521605e+001
 4.759847395035628e+000	 5.059127095378930e-001	 1.037453517838150e+001
 4.754641641492657e+000	 5.527009145300992e-001	 1.037682513899293e+001
 4.748955738264196e+000	 5.995959362855476e-001	 1.038078509378842e+001
 4.742785687454572e+000	 6.465911769552423e-001	 1.038687478976921e+001
 4.736127596318019e+000	 6.936799158861571e-001	 1.039520367045757e+001
 4.728977681183592e+000	 7.408553112459421e-001	 1.040405099984425e+001
 4.721332271368977e+000	 7.881104017809552e-001	 1.041303705210472e+001
 4.713187813078358e+000	 8.354381087086972e-001	 1.042200776372405e+001
 4.704540873279440e+000	 8.828312377455567e-001	 1.043081038329152e+001
 4.695388143554561e+000	 9.302824812705677e-001	 1.043929215931154e+001
 4.791122429703765e+000	 4.617963891171835e-001	 1.037306842637015e+001
 4.786366375697530e+000	 5.087313480891076e-001	 1.037432217564426e+001
 4.781131618855301e+000	 5.557802285614468e-001	 1.037675092675359e+001
 4.775414037225054e+000	 6.029365209151660e-001	 1.038071415128691e+001
 4.769209610637267e+000	 6.501935905420583e-001	 1.038664768499226e+001
 4.762514424658145e+000	 6.975446793456983e-001	 1.039455081668686e+001
 4.755324674536412e+000	 7.449829073751975e-001	 1.040288121702768e+001
 4.747636669138935e+000	 7.925012745930328e-001	 1.041137648311315e+001
 4.739446834870297e+000	 8.400926627780263e-001	 1.041991091672555e+001
 4.730751719571419e+000	 8.877498375643832e-001	 1.042835826993824e+001
 4.721547996392131e+000	 9.354654506175089e-001	 1.043659039641765e+001
 4.817667688409711e+000	 4.643549763382627e-001	 1.037228418723992e+001
 4.812885283441428e+000	 5.115499788903157e-001	 1.037405225861118e+001
 4.807621523379716e+000	 5.588595341259149e-001	 1.037686605206476e+001
 4.801872263434823e+000	 6.062770963594155e-001	 1.038105839189078e+001
 4.795633461163435e+000	 6.537959942234991e-001	 1.038703451259958e+001
 4.788901180443781e+000	 7.014094321784388e-001	 1.039468456712070e+001
 4.781671595444322e+000	 7.491104921549110e-001	 1.040265476329531e+001
 4.773940994581146e+000	 7.968921353316150e-001	 1.041076852993016e+001
 4.765705784459294e+000	 8.447472040487973e-001	 1.041892405094237e+001
 4.756962493792949e+000	 8.926684238585888e-001	 1.042701808910179e+001
 4.747707777299492e+000	 9.406484057128736e-001	 1.043494463214459e+001
 4.844212827672348e+000	 4.669135520472020e-001	 1.037072501156334e+001
 4.839404071860663e+000	 5.143685970091132e-001	 1.037314453582359e+001
 4.834111308710036e+000	 5.619388258348924e-001	 1.037648080576290e+001
 4.828330370593108e+000	 6.096176567724445e-001	 1.038103283895748e+001
 4.822057192792849e+000	 6.573983816954989e-001	 1.038716883384726e+001
 4.815287817499626e+000	 7.052741676211933e-001	 1.039467337901262e+001
 4.808018397801716e+000	 7.532380583619346e-001	 1.040238389628017e+001
 4.800245201664535e+000	 8.012829763128150e-001	 1.041018316301095e+001
 4.791964615893656e+000	 8.494017243756793e-001	 1.041798883543390e+001
 4.783173150076616e+000	 8.975869880207578e-001	 1.042571725958397e+001
 4.773867440498423e+000	 9.458313374865937e-001	 1.043328214344018e+001
 4.870757801038846e+000	 4.694721117667060e-001	 1.036794327101096e+001
 4.865922694548569e+000	 5.171871975130948e-001	 1.037103186829268e+001
 4.860600928490404e+000	 5.650180982997679e-001	 1.037492151959751e+001
 4.854788312399505e+000	 6.129581963084000e-001	 1.037987053939313e+001
 4.848480759285287e+000	 6.610007466539926e-001	 1.038620391094576e+001
 4.841674289650374e+000	 7.091388789107755e-001	 1.039360625844582e+001
 4.834365035503001e+000	 7.573655987731198e-001	 1.040110250678987e+001
 4.826549244358026e+000	 8.056737898527467e-001	 1.040861275220063e+001
 4.818223283221690e+000	 8.540562156133401e-001	 1.041606978438883e+001
 4.809383642554999e+000	 9.025055214434751e-001	 1.042340616854224e+001
 4.800026940210695e+000	 9.510142368686003e-001	 1.043055297460248e+001
 4.897302562056370e+000	 4.720306510194794e-001	 1.036350217990542e+001
 4.892441105098484e+000	 5.200057754698557e-001	 1.036716047594367e+001
 4.887090336364951e+000	 5.680973461319309e-001	 1.037153010189953e+001
 4.881246042553618e+000	 6.162987091214296e-001	 1.037682203615815e+001
 4.874904114400521e+000	 6.646030827949144e-001	 1.038331212412516e+001
 4.868060550720721e+000	 7.130035592839999e-001	 1.039059215975174e+001
 4.860711462442573e+000	 7.614931061653186e-001	 1.039786548111226e+001
 4.852853076630550e+000	 8.100645682675249e-001	 1.040507139979525e+001
 4.844481740491707e+000	 8.587106696164487e-001	 1.041215356886064e+001
 4.835593925360678e+000	 9.074240155193246e-001	 1.041905746986389e+001
 4.826186230658091e+000	 9.561970947888259e-001	 1.042572923029702e+001
 4.923847064272092e+000	 4.745891653282274e-001	 1.035697548913255e+001
 4.918959257103751e+000	 5.228243259469916e-001	 1.036098955559671e+001
 4.913579485977811e+000	 5.711765639427692e-001	 1.036566358688072e+001
 4.907703514755048e+000	 6.196391893656807e-001	 1.037115485624499e+001
 4.901327211898328e+000	 6.682053838141989e-001	 1.037768375842072e+001
 4.894446554535365e+000	 7.168682019776805e-001	 1.038475940332820e+001
 4.887057632514837e+000	 7.656205733153829e-001	 1.039174808278687e+001
 4.879156652451032e+000	 8.144553038732628e-001	 1.039859429387317e+001
 4.870739941752015e+000	 8.633650782396737e-001	 1.040524834931450e+001
 4.861803952626233e+000	 9.123424616408908e-001	 1.041166540362809e+001
 4.852345266062382e+000	 9.613799021772006e-001	 1.041780438967199e+001
 4.950391261233176e+000	 4.771476502156543e-001	 1.034794718890392e+001
 4.945477104157704e+000	 5.256428440120974e-001	 1.035199091005679e+001
 4.940068330973121e+000	 5.742557463436726e-001	 1.035669369705907e+001
 4.934160682703395e+000	 6.229796311953018e-001	 1.036215301355490e+001
 4.927750005538482e+000	 6.718076434077810e-001	 1.036852314279966e+001
 4.920832254918999e+000	 7.207328002286314e-001	 1.037525511117521e+001
 4.913403499614191e+000	 7.697479930001639e-001	 1.038184535312117e+001
 4.905459925788398e+000	 8.188459889860746e-001	 1.038823708114644e+001
 4.896997841050921e+000	 8.680194333376836e-001	 1.039438312821572e+001
 4.888013678484247e+000	 9.172608512007586e-001	 1.040024513587581e+001
 4.878504000645347e+000	 9.665626499636570e-001	 1.040579264079151e+001
 4.976935106486797e+000	 4.797061012044654e-001	 1.033601122004385e+001
 4.971994599853684e+000	 5.284613247327685e-001	 1.033964858790339e+001
 4.966556824995021e+000	 5.773348879460298e-001	 1.034400641832656e+001
 4.960617500098262e+000	 6.263200287644395e-001	 1.034911652612568e+001
 4.954172449080762e+000	 6.754098552715955e-001	 1.035505771216793e+001
 4.947217605696319e+000	 7.245973472736669e-001	 1.036124465949536e+001
 4.939749017635035e+000	 7.738753579965136e-001	 1.036727152976094e+001
 4.931762850611571e+000	 8.232366159220741e-001	 1.037307525861314e+001
 4.923255392436736e+000	 8.726737267651472e-001	 1.037860712192198e+001
 4.914223057067300e+000	 9.221791755915122e-001	 1.038383211794097e+001
 4.904662388628768e+000	 9.717453290781269e-001	 1.038872823464064e+001
 4.643068405201682e+000	 9.199165361022299e-001	 1.045164114405342e+001
 4.633512893397808e+000	 9.668962193495464e-001	 1.045910688203461e+001
 4.623450920909602e+000	 1.013918590844765e+000	 1.046572145330184e+001
 4.612879611221272e+000	 1.060976087736485e+000	 1.047179846376016e+001
 4.601796226075083e+000	 1.108061044715827e+000	 1.047767463651741e+001
 4.590198169078672e+000	 1.155165696837306e+000	 1.048370341986065e+001
 4.578082989255348e+000	 1.202282182474619e+000	 1.049024584845611e+001
 4.565448384531957e+000	 1.249402546410591e+000	 1.049765852742101e+001
 4.552292205158868e+000	 1.296518743060277e+000	 1.050627817290475e+001
 4.538612457056610e+000	 1.343622639825984e+000	 1.051637261932833e+001
 4.524407305083716e+000	 1.390706020582740e+000	 1.052736615511962e+001
 4.669228264565003e+000	 9.250995067421185e-001	 1.044414614012341e+001
 4.659618915336745e+000	 9.723438817405615e-001	 1.045210293622273e+001
 4.649500251936107e+000	 1.019631185499925e+000	 1.045929734370242e+001
 4.638869381640498e+000	 1.066953812558383e+000	 1.046597431337325e+001
 4.627723550764356e+000	 1.114304054419368e+000	 1.047240806827827e+001
 4.616060148286782e+000	 1.161674102388338e+000	 1.047888933386255e+001
 4.603876709421853e+000	 1.209056050545213e+000	 1.048571797933983e+001
 4.591170919126122e+000	 1.256441898851738e+000	 1.049319287691912e+001
 4.577940615537890e+000	 1.303823556392736e+000	 1.050159840248640e+001
 4.564183793342687e+000	 1.351192844750042e+000	 1.051111219548902e+001
 4.549898607059532e+000	 1.398541501507601e+000	 1.052116771892112e+001
 4.695388143554561e+000	 9.302824812705677e-001	 1.043929215931154e+001
 4.685724956861634e+000	 9.777915482187314e-001	 1.044731683499895e+001
 4.675549602506140e+000	 1.025343784441016e+000	 1.045493085902399e+001
 4.664859171558671e+000	 1.072931541865138e+000	 1.046225567185867e+001
 4.653650894905826e+000	 1.120547068806811e+000	 1.046931120511386e+001
 4.641922146898159e+000	 1.168182512822402e+000	 1.047624922190692e+001
 4.629670448940496e+000	 1.215829923698024e+000	 1.048331238782805e+001
 4.616893473019093e+000	 1.263481256574305e+000	 1.049074686443867e+001
 4.603589045160168e+000	 1.311128375205806e+000	 1.049879090634622e+001
 4.589755148814241e+000	 1.358763055353852e+000	 1.050753757070859e+001
 4.575389928160809e+000	 1.406376988311272e+000	 1.051651327933462e+001
 4.721547996392131e+000	 9.354654506175089e-001	 1.043659039641765e+001
 4.711830972288417e+000	 9.832392092507670e-001	 1.044449380859263e+001
 4.701598927034792e+000	 1.031056377671105e+000	 1.045210838726879e+001
 4.690848935495057e+000	 1.078909265195828e+000	 1.045953483023944e+001
 4.679578213127979e+000	 1.126790076952974e+000	 1.046686854190738e+001
 4.667784119655578e+000	 1.174690916749863e+000	 1.047419767824517e+001
 4.655464162673449e+000	 1.222603790078849e+000	 1.048153796297635e+001
 4.642616001197560e+000	 1.270520607259488e+000	 1.048895068130016e+001
 4.629237449142049e+000	 1.318433186716127e+000	 1.049663240171139e+001
 4.615326478722450e+000	 1.366333258389628e+000	 1.050461152911681e+001
 4.600881223778735e+000	 1.414212467281752e+000	 1.051255670009942e+001
 4.747707777299492e+000	 9.406484057128736e-001	 1.043494463214459e+001
 4.737936915933036e+000	 9.886868553033805e-001	 1.044260726636979e+001
 4.727648179937163e+000	 1.036768955193263e+000	 1.045003955101348e+001
 4.716838627968924e+000	 1.084886972089533e+000	 1.045732696837889e+001
 4.705505460059299e+000	 1.133033067932675e+000	 1.046454778077292e+001
 4.693646021301822e+000	 1.181199302781087e+000	 1.047177104196574e+001
 4.681257805482884e+000	 1.229377637833485e+000	 1.047905433108718e+001
 4.668338458648202e+000	 1.277559938588484e+000	 1.048644138592985e+001
 4.654885782599884e+000	 1.325737978140341e+000	 1.049390705626006e+001
 4.640897738318488e+000	 1.373903440609585e+000	 1.050130311860751e+001
 4.626372449304512e+000	 1.422047924707039e+000	 1.050845470179688e+001
 4.773867440498423e+000	 9.458313374865937e-001	 1.043328214344018e+001
 4.764042742111435e+000	 9.941344768432842e-001	 1.044060081951727e+001
 4.753697315628352e+000	 1.042481507010558e+000	 1.044770305986847e+001
 4.742828203499540e+000	 1.090864652085331e+000	 1.045466740014001e+001
 4.731432590328278e+000	 1.139276030820732e+000	 1.046156477016122e+001
 4.719507806579668e+000	 1.187707659526438e+000	 1.046845649500897e+001
 4.707051332230972e+000	 1.236151455107731e+000	 1.047539202802395e+001
 4.694060800357711e+000	 1.284599238242489e+000	 1.048240656685708e+001
 4.680534000650018e+000	 1.333042736695088e+000	 1.048951852295326e+001
 4.666468882853538e+000	 1.381473588765937e+000	 1.049658790228951e+001
 4.651863560129326e+000	 1.429883346875132e+000	 1.050336725470490e+001
 4.800026940210695e+000	 9.510142368686003e-001	 1.043055297460248e+001
 4.790148405139557e+000	 9.995820643371888e-001	 1.043744026937471e+001
 4.779746288523450e+000	 1.048194023126059e+000	 1.044409881024295e+001
 4.768817616606180e+000	 1.096842294722301e+000	 1.045060838126722e+001
 4.757359558563402e+000	 1.145518954691962e+000	 1.045704230294328e+001
 4.745369430231896e+000	 1.194215975596280e+000	 1.046346544552246e+001
 4.732844697779878e+000	 1.242925230047382e+000	 1.046993197762808e+001
 4.719782981312768e+000	 1.291638493902699e+000	 1.047648297935501e+001
 4.706182058408796e+000	 1.340347449597011e+000	 1.048314264298511e+001
 4.692039867578768e+000	 1.389043689610899e+000	 1.048984166968561e+001
 4.677354511644374e+000	 1.437718720074028e+000	 1.049651031322584e+001
 4.826186230658091e+000	 9.561970947888259e-001	 1.042572923029702e+001
 4.816253859333342e+000	 1.005029608251808e+000	 1.043211290450310e+001
 4.805795053037558e+000	 1.053906493542835e+000	 1.043824719723036e+001
 4.794806821808106e+000	 1.102819889539520e+000	 1.044422126393781e+001
 4.783286319393154e+000	 1.151761828621185e+000	 1.045012045457219e+001
 4.771230847001283e+000	 1.200724239600978e+000	 1.045602436136462e+001
 4.758637856991776e+000	 1.249698950798238e+000	 1.046200459950275e+001
 4.745504956500062e+000	 1.298677693250309e+000	 1.046812243148536e+001
 4.731829910992570e+000	 1.347652104062751e+000	 1.047442666581962e+001
 4.717610647745360e+000	 1.396613729896686e+000	 1.048095994409552e+001
 4.702845259240852e+000	 1.445554030591727e+000	 1.048774358331213e+001
 4.852345266062382e+000	 9.613799021772006e-001	 1.041780438967199e+001
 4.842359059008736e+000	 1.010477099053851e+000	 1.042362680034526e+001
 4.831843563585773e+000	 1.059618908263955e+000	 1.042918844663461e+001
 4.820795773624587e+000	 1.108797426076069e+000	 1.043459585332119e+001
 4.809212827446026e+000	 1.158004641683217e+000	 1.043995597449880e+001
 4.797092011630610e+000	 1.207232440150896e+000	 1.044537420664423e+001
 4.784430764728838e+000	 1.256472605506096e+000	 1.045095223598055e+001
 4.771226680906276e+000	 1.305716823966517e+000	 1.045678568818595e+001
 4.757477513517681e+000	 1.354956687308949e+000	 1.046297307638487e+001
 4.743181178604490e+000	 1.404183696375513e+000	 1.046968759360105e+001
 4.728335758309948e+000	 1.453389264716227e+000	 1.047703094025647e+001
 4.878504000645347e+000	 9.665626499636570e-001	 1.040579264079151e+001
 4.868463958481682e+000	 1.015924527210032e+000	 1.041101023177103e+001
 4.857891774583190e+000	 1.065331257292487e+000	 1.041598196639436e+001
 4.846784426574895e+000	 1.114774893871027e+000	 1.042083978256493e+001
 4.835139037350504e+000	 1.164247382952877e+000	 1.042572169470518e+001
 4.822952878862655e+000	 1.213740565856400e+000	 1.043076989373180e+001
 4.810223375853232e+000	 1.263246182316751e+000	 1.043612865748028e+001
 4.796948109518096e+000	 1.312755873732517e+000	 1.044194203976912e+001
 4.783124821100482e+000	 1.362261186552246e+000	 1.044838662530789e+001
 4.768751415407335e+000	 1.411753575799593e+000	 1.045576870824639e+001
 4.753825964242861e+000	 1.461224408735526e+000	 1.046427247111008e+001
 4.904662388628768e+000	 9.717453290781269e-001	 1.038872823464064e+001
 4.894568512068120e+000	 1.021371883187062e+000	 1.039331091515056e+001
 4.883939640444909e+000	 1.071043530631502e+000	 1.039770571669431e+001
 4.872772735178299e+000	 1.120752282463470e+000	 1.040207790553383e+001
 4.861064903735073e+000	 1.170490041504984e+000	 1.040660595473057e+001
 4.848813403440197e+000	 1.220248605327853e+000	 1.041147975017896e+001
 4.836015645227130e+000	 1.270019669376003e+000	 1.041689858086557e+001
 4.822669197322209e+000	 1.319794830229507e+000	 1.042306888119611e+001
 4.808771788857317e+000	 1.369565589009284e+000	 1.043027430940888e+001
 4.794321313405072e+000	 1.419323354921142e+000	 1.043894670950071e+001
 4.779315832430783e+000	 1.469059448937622e+000	 1.044936435392603e+001
 4.524407305083716e+000	 1.390706020582740e+000	 1.052736615511962e+001
 4.509675075088747e+000	 1.437760588603412e+000	 1.053872976085159e+001
 4.494414253604443e+000	 1.484777968164294e+000	 1.055026557741035e+001
 4.478623494235840e+000	 1.531749710358705e+000	 1.056211516042780e+001
 4.462301621696776e+000	 1.578667297757052e+000	 1.057437227917420e+001
 4.445447634610878e+000	 1.625522148514563e+000	 1.058707041266425e+001
 4.428060708201620e+000	 1.672305620595791e+000	 1.060016891845108e+001
 4.410140196866271e+000	 1.719009016112672e+000	 1.061353780746248e+001
 4.391685636628613e+000	 1.765623585772689e+000	 1.062694106115524e+001
 4.372696747465478e+000	 1.812140533433458e+000	 1.064001843112338e+001
 4.353173435502171e+000	 1.858551020759795e+000	 1.065226566613952e+001
 4.549898607059532e+000	 1.398541501507601e+000	 1.052116771892112e+001
 4.535083373104525e+000	 1.445861183193071e+000	 1.053148205767527e+001
 4.519736569483269e+000	 1.493143466892460e+000	 1.054197229694324e+001
 4.503856842214986e+000	 1.540379856096477e+000	 1.055278097685055e+001
 4.487443009391757e+000	 1.587561785386848e+000	 1.056401034095511e+001
 4.470494063995282e+000	 1.634680624567193e+000	 1.057570999654096e+001
 4.453009176602114e+000	 1.681727682911336e+000	 1.058786321758007e+001
 4.434987697972089e+000	 1.728694213525793e+000	 1.060037181922838e+001
 4.416429161514878e+000	 1.775571417823013e+000	 1.061303953554562e+001
 4.397333285629620e+000	 1.822350450101617e+000	 1.062555383592539e+001
 4.377699975912727e+000	 1.869022422229697e+000	 1.063746612053981e+001
 4.575389928160809e+000	 1.406376988311272e+000	 1.051651327933462e+001
 4.560491690183496e+000	 1.453961783860481e+000	 1.052567770078759e+001
 4.545058904360769e+000	 1.501508971897163e+000	 1.053510806430266e+001
 4.529090209126037e+000	 1.549010008309379e+000	 1.054494291694092e+001
 4.512584415949611e+000	 1.596456279690133e+000	 1.055528551814087e+001
 4.495540512171281e+000	 1.643839107491402e+000	 1.056619165206180e+001
 4.477957663720667e+000	 1.691149752296235e+000	 1.057765605678139e+001
 4.459835217720181e+000	 1.738379418205699e+000	 1.058959739470343e+001
 4.441172704965379e+000	 1.785519257337162e+000	 1.060184169123952e+001
 4.421969842277713e+000	 1.832560374430208e+000	 1.061410417254734e+001
 4.402226534724702e+000	 1.879493831556171e+000	 1.062596943788655e+001
 4.600881223778735e+000	 1.414212467281752e+000	 1.051255670009942e+001
 4.585899981862075e+000	 1.462062376429718e+000	 1.052065486765647e+001
 4.570381213923803e+000	 1.509874468538931e+000	 1.052916325773500e+001
 4.554323550811518e+000	 1.557640151894844e+000	 1.053821140760359e+001
 4.537725797373787e+000	 1.605350765101788e+000	 1.054789612179687e+001
 4.520586935308483e+000	 1.652997581260137e+000	 1.055826942546889e+001
 4.502906125898312e+000	 1.700571812262213e+000	 1.056932511299153e+001
 4.484682712628255e+000	 1.748064613203672e+000	 1.058098381161366e+001
 4.465916223679773e+000	 1.795467086906851e+000	 1.059307648257581e+001
 4.446606374296626e+000	 1.842770288552342e+000	 1.060532628569905e+001
 4.426753069017446e+000	 1.889965230414765e+000	 1.061732873818983e+001
 4.626372449304512e+000	 1.422047924707039e+000	 1.050845470179688e+001
 4.611308203676677e+000	 1.470162946724856e+000	 1.051575136396510e+001
 4.595703453859223e+000	 1.518239942178289e+000	 1.052362538536219e+001
 4.579556823113962e+000	 1.566270271750308e+000	 1.053219223150964e+001
 4.562867109667728e+000	 1.614245226056694e+000	 1.054153476204189e+001
 4.545633289576500e+000	 1.662156029846346e+000	 1.055169131513939e+001
 4.527854519476074e+000	 1.709993846320989e+000	 1.056264236979913e+001
 4.509530139214028e+000	 1.757749781570993e+000	 1.057429570118622e+001
 4.490659674357717e+000	 1.805414889123798e+000	 1.058646994674127e+001
 4.471242838573231e+000	 1.852980174601130e+000	 1.059887650423253e+001
 4.451279535870309e+000	 1.900436600481029e+000	 1.061109968759515e+001
 4.651863560129326e+000	 1.429883346875132e+000	 1.050336725470490e+001
 4.636716311163718e+000	 1.478263480569972e+000	 1.051030515412430e+001
 4.621025579853891e+000	 1.526605378175764e+000	 1.051797973430889e+001
 4.604789981875901e+000	 1.574900352773203e+000	 1.052648727578184e+001
 4.588008308834882e+000	 1.623139646989730e+000	 1.053588917723853e+001
 4.570679531144936e+000	 1.671314437222977e+000	 1.054620016224617e+001
 4.552802800794988e+000	 1.719415837984281e+000	 1.055737505057696e+001
 4.534377453995208e+000	 1.767434906358946e+000	 1.056929400480592e+001
 4.515403013698871e+000	 1.815362646579719e+000	 1.058174616507355e+001
 4.495879191994396e+000	 1.863190014709683e+000	 1.059441158830056e+001
 4.475805892362633e+000	 1.910907923430507e+000	 1.060684141271047e+001
 4.677354511644374e+000	 1.437718720074028e+000	 1.049651031322584e+001
 4.662124259859619e+000	 1.486363963789141e+000	 1.050365489050286e+001
 4.646347547594663e+000	 1.534970761891882e+000	 1.051171001557671e+001
 4.630022982939861e+000	 1.583530379860965e+000	 1.052069527408400e+001
 4.613149350878688e+000	 1.632034012335776e+000	 1.053064305486898e+001
 4.595725616183406e+000	 1.680472787362978e+000	 1.054153453200874e+001
 4.577750926196077e+000	 1.728837770763812e+000	 1.055328654172866e+001
 4.559224613489508e+000	 1.777119970618811e+000	 1.056573692092716e+001
 4.540146198402894e+000	 1.825310341866332e+000	 1.057862821537305e+001
 4.520515391446991e+000	 1.873399791011110e+000	 1.059158966888456e+001
 4.500332095573771e+000	 1.921379180938751e+000	 1.060411740926528e+001
 4.702845259240852e+000	 1.445554030591727e+000	 1.048774358331213e+001
 4.687532005300790e+000	 1.494464382206437e+000	 1.049535772820523e+001
 4.671669312768398e+000	 1.543336078687172e+000	 1.050430783263519e+001
 4.655255782148381e+000	 1.592160337911028e+000	 1.051441254232361e+001
 4.638290191802596e+000	 1.640928306529714e+000	 1.052547684436803e+001
 4.620771500861514e+000	 1.689631064239296e+000	 1.053742958584414e+001
 4.602698852020376e+000	 1.738259628171301e+000	 1.055013730637498e+001
 4.584071574214638e+000	 1.786804957401870e+000	 1.056338084255793e+001
 4.564889185169442e+000	 1.835257957575353e+000	 1.057683911550836e+001
 4.545151393817891e+000	 1.883609485638524e+000	 1.059007117992256e+001
 4.524858102583068e+000	 1.931850354681308e+000	 1.060249644525576e+001
 4.728335758309948e+000	 1.453389264716227e+000	 1.047703094025647e+001
 4.712939503023649e+000	 1.502564721645936e+000	 1.048556747668029e+001
 4.696990831061952e+000	 1.551701313922158e+000	 1.049572262794110e+001
 4.680488335343983e+000	 1.600790211820825e+000	 1.050730914988477e+001
 4.663430787610048e+000	 1.649822514006423e+000	 1.052006856217141e+001
 4.645817141348872e+000	 1.698789251824879e+000	 1.053361794471251e+001
 4.627646534608915e+000	 1.747681393718469e+000	 1.054768578878821e+001
 4.608918292688311e+000	 1.796489849759405e+000	 1.056198128561683e+001
 4.589631930698175e+000	 1.845205476298500e+000	 1.057610275858656e+001
 4.569787155993958e+000	 1.893819080725032e+000	 1.058951978325660e+001
 4.549383870469874e+000	 1.942321426333724e+000	 1.060155345872188e+001
 4.753825964242861e+000	 1.461224408735526e+000	 1.046427247111008e+001
 4.738346708564613e+000	 1.510664967931714e+000	 1.047434114535156e+001
 4.722312058162185e+000	 1.560066452957368e+000	 1.048620010697209e+001
 4.705720598369203e+000	 1.609419986487791e+000	 1.049962310905423e+001
 4.688571094304490e+000	 1.658716619200784e+000	 1.051430164458405e+001
 4.670862493815090e+000	 1.707947334092676e+000	 1.052983574148159e+001
 4.652593930302719e+000	 1.757103050917036e+000	 1.054568930986948e+001
 4.633764725428240e+000	 1.806174630742699e+000	 1.056129380844959e+001
 4.614374391688747e+000	 1.855152880627489e+000	 1.057614483994601e+001
 4.594422634862072e+000	 1.904028558403749e+000	 1.058960328660733e+001
 4.573909356313535e+000	 1.952792377571551e+000	 1.060087045029376e+001
 4.779315832430783e+000	 1.469059448937622e+000	 1.044936435392603e+001
 4.763753577460100e+000	 1.518765106887844e+000	 1.046172213746895e+001
 4.747632949755956e+000	 1.568431481153328e+000	 1.047590365229329e+001
 4.730952527066570e+000	 1.618049646809360e+000	 1.049163938964617e+001
 4.713711067889371e+000	 1.667610606547676e+000	 1.050856145136484e+001
 4.695907514429774e+000	 1.717105295015634e+000	 1.052619424257695e+001
 4.677540995442822e+000	 1.766524583278722e+000	 1.054394421819272e+001
 4.658610828952133e+000	 1.815859283403033e+000	 1.056107492277804e+001
 4.639116524840820e+000	 1.865100153154037e+000	 1.057669377621678e+001
 4.619057787309098e+000	 1.914237900807783e+000	 1.058999455477366e+001
 4.598434517193399e+000	 1.963263190070333e+000	 1.060003737063740e+001
 4.353173435502171e+000	 1.858551020759795e+000	 1.065226566613952e+001
 4.333118844188068e+000	 1.904839237533663e+000	 1.066231020960659e+001
 4.312530372389278e+000	 1.951003250800439e+000	 1.066836530515387e+001
 4.291408499589530e+000	 1.997034131020163e+000	 1.066900579175884e+001
 4.269753898666800e+000	 2.042922926136646e+000	 1.066641280798099e+001
 4.247567437359611e+000	 2.088660666674489e+000	 1.066484282997182e+001
 4.224850179576207e+000	 2.134238370909847e+000	 1.066428587038238e+001
 4.201603386542996e+000	 2.179647050109439e+000	 1.066467793598427e+001
 4.177828517788692e+000	 2.224877713832085e+000	 1.066591410326111e+001
 4.153527231960960e+000	 2.269921375286927e+000	 1.066784452628275e+001
 4.128701387472490e+000	 2.314769056742235e+000	 1.067027044096878e+001
 4.377699975912727e+000	 1.869022422229697e+000	 1.063746612053981e+001
 4.357532393524315e+000	 1.915571434911691e+000	 1.064736458985379e+001
 4.336827922675253e+000	 1.961995544302362e+000	 1.065340472540274e+001
 4.315587045550745e+000	 2.008285770551153e+000	 1.065431613740792e+001
 4.293810438819873e+000	 2.054433111164409e+000	 1.065374450848550e+001
 4.271498975110129e+000	 2.100428546131131e+000	 1.065402590817500e+001
 4.248653724323996e+000	 2.146263043122858e+000	 1.065511977889882e+001
 4.225275954793839e+000	 2.191927562762204e+000	 1.065694610604176e+001
 4.201367134271600e+000	 2.237413063954258e+000	 1.065938136867568e+001
 4.176928930750041e+000	 2.282710509275002e+000	 1.066225446793391e+001
 4.151963213112460e+000	 2.327810870410583e+000	 1.066534265364945e+001
 4.402226534724702e+000	 1.879493831556171e+000	 1.062596943788655e+001
 4.381945961177230e+000	 1.926303640341893e+000	 1.063593754312447e+001
 4.361125491190895e+000	 1.972987846051518e+000	 1.064208015943216e+001
 4.339765609652384e+000	 2.019537418523855e+000	 1.064365884618476e+001
 4.317866997021876e+000	 2.065943304827759e+000	 1.064478513729262e+001
 4.295430530815843e+000	 2.112196434416588e+000	 1.064652260724479e+001
 4.272457286930998e+000	 2.158287724357238e+000	 1.064883286583828e+001
 4.248948540805665e+000	 2.204208084628181e+000	 1.065163739757988e+001
 4.224905768415010e+000	 2.249948423480745e+000	 1.065481342148724e+001
 4.200330647096902e+000	 2.295499652857716e+000	 1.065818972632431e+001
 4.175225056205250e+000	 2.340852693863087e+000	 1.066154250259751e+001
 4.426753069017446e+000	 1.889965230414765e+000	 1.061732873818983e+001
 4.406359504423866e+000	 1.937035835043452e+000	 1.062747259903159e+001
 4.385423035416232e+000	 1.983980136811944e+000	 1.063374509095759e+001
 4.363944149582698e+000	 2.030789055248471e+000	 1.063621622472176e+001
 4.341923531174543e+000	 2.077453486984451e+000	 1.063867022262795e+001
 4.319362062597204e+000	 2.123964310937663e+000	 1.064145763939981e+001
 4.296260825741616e+000	 2.170312393570411e+000	 1.064455772095524e+001
 4.272621103152047e+000	 2.216488594217080e+000	 1.064791072856520e+001
 4.248444379026888e+000	 2.262483770475300e+000	 1.065141369740843e+001
 4.223732340049087e+000	 2.308288783654709e+000	 1.065491616499496e+001
 4.198486876043154e+000	 2.353894504277206e+000	 1.065821589149773e+001
 4.451279535870309e+000	 1.900436600481029e+000	 1.061109968759515e+001
 4.430772980541285e+000	 1.947768000235553e+000	 1.062141898104790e+001
 4.409720512831290e+000	 1.994972397347677e+000	 1.062776136412381e+001
 4.388122623029947e+000	 2.042040661035201e+000	 1.063117957012050e+001
 4.365979999179608e+000	 2.088963637492247e+000	 1.063456247516262e+001
 4.343293528574661e+000	 2.135732155101159e+000	 1.063798358850424e+001
 4.320064299100253e+000	 2.182337029719798e+000	 1.064145504219103e+001
 4.296293600406571e+000	 2.228769070038614e+000	 1.064495291540070e+001
 4.271982924915197e+000	 2.275019083001672e+000	 1.064841288136456e+001
 4.247133968654143e+000	 2.321077879285622e+000	 1.065172581526767e+001
 4.221748631918484e+000	 2.366936278830407e+000	 1.065473338588202e+001
 4.475805892362633e+000	 1.910907923430507e+000	 1.060684141271047e+001
 4.455186346806542e+000	 1.958500117137379e+000	 1.061723248486074e+001
 4.434017880916100e+000	 2.005964608422758e+000	 1.062353710071445e+001
 4.412300987682382e+000	 2.053292216194244e+000	 1.062776608315307e+001
 4.390036358938798e+000	 2.100473736208904e+000	 1.063165162474774e+001
 4.367224886868670e+000	 2.147499946313881e+000	 1.063528072679303e+001
 4.343867665351315e+000	 2.194361611762827e+000	 1.063871344451099e+001
 4.319965991142817e+000	 2.241049490602491e+000	 1.064197848585372e+001
 4.295521364887907e+000	 2.287554339123615e+000	 1.064506873633625e+001
 4.270535491959619e+000	 2.333866917370094e+000	 1.064793673265932e+001
 4.245010283123539e+000	 2.379977994700153e+000	 1.065049010859307e+001
 4.500332095573771e+000	 1.921379180938751e+000	 1.060411740926528e+001
 4.479599560496697e+000	 1.969232166968115e+000	 1.061437635311787e+001
 4.458315097150689e+000	 2.016956750801223e+000	 1.062060709427765e+001
 4.436479201228258e+000	 2.064543701035800e+000	 1.062521873609331e+001
 4.414092568353847e+000	 2.111983762992179e+000	 1.062915425686936e+001
 4.391156095599677e+000	 2.159267663982630e+000	 1.063255683181004e+001
 4.367670882839205e+000	 2.206386118656919e+000	 1.063554926905980e+001
 4.343638233934360e+000	 2.253329834418422e+000	 1.063822949202483e+001
 4.319059657752982e+000	 2.300089516904883e+000	 1.064066593158939e+001
 4.293936869013054e+000	 2.346655875527765e+000	 1.064289285165875e+001
 4.268271788950622e+000	 2.393019629063903e+000	 1.064490563222071e+001
 4.524858102583068e+000	 1.931850354681308e+000	 1.060249644525576e+001
 4.504012578888808e+000	 1.979964130946945e+000	 1.061232214663812e+001
 4.482612119015088e+000	 2.027948805247112e+000	 1.061831224604189e+001
 4.460657221355828e+000	 2.075795095870070e+000	 1.062280613940339e+001
 4.438148585326483e+000	 2.123493697699832e+000	 1.062631364880951e+001
 4.415087112888134e+000	 2.171035287514209e+000	 1.062904700352605e+001
 4.391473909908327e+000	 2.218410529359499e+000	 1.063120639259793e+001
 4.367310287354787e+000	 2.265610079996117e+000	 1.063297532333178e+001
 4.342597762318389e+000	 2.312624594409227e+000	 1.063451587029085e+001
 4.317338058861997e+000	 2.359444731378275e+000	 1.063596383890321e+001
 4.291533108692035e+000	 2.406061159099123e+000	 1.063742386860062e+001
 4.549383870469874e+000	 1.942321426333724e+000	 1.060155345872188e+001
 4.528425359259934e+000	 1.990695990293054e+000	 1.061055061215580e+001
 4.506908903989321e+000	 2.038940752524462e+000	 1.061598790390604e+001
 4.484835005753348e+000	 2.087046381007252e+000	 1.061982240729376e+001
 4.462204367758438e+000	 2.135003520189621e+000	 1.062239960549950e+001
 4.439017896854490e+000	 2.182802796315422e+000	 1.062401348160537e+001
 4.415276704903087e+000	 2.230434822827990e+000	 1.062495603718446e+001
 4.390982109977675e+000	 2.277890205845288e+000	 1.062551251948325e+001
 4.366135637392090e+000	 2.325159549700400e+000	 1.062595651650900e+001
 4.340739020553997e+000	 2.372233462541266e+000	 1.062654494479057e+001
 4.314794201640082e+000	 2.419102561983274e+000	 1.062751295546163e+001
 4.573909356313535e+000	 1.952792377571551e+000	 1.060087045029376e+001
 4.552837858887132e+000	 2.001427726225625e+000	 1.060855363938437e+001
 4.531205409553421e+000	 2.049932573397313e+000	 1.061299338299500e+001
 4.509012512109073e+000	 2.098297536757549e+000	 1.061558702217414e+001
 4.486259873551446e+000	 2.146513210319305e+000	 1.061670829505336e+001
 4.462948405619200e+000	 2.194570169793071e+000	 1.061674546279190e+001
 4.439079226167888e+000	 2.242458978019818e+000	 1.061609658007349e+001
 4.414653660376604e+000	 2.290170190475643e+000	 1.061516458341974e+001
 4.389673241782055e+000	 2.337694360842155e+000	 1.061435222159841e+001
 4.364139713136595e+000	 2.385022046636375e+000	 1.061405685356203e+001
 4.338055027087065e+000	 2.432143814893819e+000	 1.061466514030430e+001
 4.598434517193399e+000	 1.963263190070333e+000	 1.060003737063740e+001
 4.577250035047463e+000	 2.012159319963842e+000	 1.060589681645103e+001
 4.555501593187414e+000	 2.060924248629703e+000	 1.060871186770990e+001
 4.533189698111257e+000	 2.109548543431159e+000	 1.060944469801308e+001
 4.510315060607234e+000	 2.158022747946641e+000	 1.060856208396929e+001
 4.486878597302711e+000	 2.206337387353962e+000	 1.060655891838668e+001
 4.462881432047134e+000	 2.254482973892404e+000	 1.060395336379295e+001
 4.438324897125159e+000	 2.302450012396894e+000	 1.060128179419938e+001
 4.413210534296251e+000	 2.350229005898244e+000	 1.059909354996870e+001
 4.387540095657339e+000	 2.397810461283245e+000	 1.059794553188948e+001
 4.361315544325289e+000	 2.445184895008223e+000	 1.059839666159123e+001
 4.128701387472490e+000	 2.314769056742235e+000	 1.067027044096878e+001
 4.103349201813303e+000	 2.359418476664549e+000	 1.067421680030745e+001
 4.077476622929090e+000	 2.403853947232863e+000	 1.068064624236332e+001
 4.051086115123940e+000	 2.448066549433488e+000	 1.068916188494065e+001
 4.024180343380284e+000	 2.492047395438517e+000	 1.069927463125611e+001
 3.996762173110999e+000	 2.535787634173376e+000	 1.071039271273021e+001
 3.968834669728084e+000	 2.579278456895365e+000	 1.072114818243866e+001
 3.940401098026867e+000	 2.622511102776228e+000	 1.073000770066458e+001
 3.911464921384908e+000	 2.665476864481689e+000	 1.073583188033046e+001
 3.882029800775060e+000	 2.708167093740828e+000	 1.073808541374805e+001
 3.852099593592544e+000	 2.750573206898159e+000	 1.073701675034481e+001
 4.151963213112460e+000	 2.327810870410583e+000	 1.066534265364945e+001
 4.126468188805896e+000	 2.372711852972975e+000	 1.066952882110015e+001
 4.100449839287810e+000	 2.417397680753247e+000	 1.067569125837943e+001
 4.073910642746602e+000	 2.461859384486436e+000	 1.068349805518021e+001
 4.046853279179697e+000	 2.506088026269067e+000	 1.069253065104315e+001
 4.019280630144203e+000	 2.550074705158071e+000	 1.070227975998962e+001
 3.991195778323190e+000	 2.593810562780759e+000	 1.071209437222146e+001
 3.962602006906416e+000	 2.637286788948845e+000	 1.072044901765927e+001
 3.933502798784717e+000	 2.680494627269417e+000	 1.072601802600288e+001
 3.903901835557515e+000	 2.723425380745688e+000	 1.072840726831763e+001
 3.873802996353268e+000	 2.766070417360369e+000	 1.072766898582639e+001
 4.175225056205250e+000	 2.340852693863087e+000	 1.066154250259751e+001
 4.149587193144093e+000	 2.386005239254254e+000	 1.066567213482919e+001
 4.123423072882692e+000	 2.430941424434303e+000	 1.067140827498310e+001
 4.096735187493785e+000	 2.475652229886951e+000	 1.067847149348789e+001
 4.069526231989785e+000	 2.520128667633113e+000	 1.068650017702627e+001
 4.041799104072064e+000	 2.564361786861185e+000	 1.069504631150080e+001
 4.013556903694774e+000	 2.608342679568453e+000	 1.070357141295133e+001
 3.984802932442126e+000	 2.652062486206556e+000	 1.071130641303841e+001
 3.955540692718250e+000	 2.695512401323905e+000	 1.071671970618898e+001
 3.925773886749151e+000	 2.738683679197817e+000	 1.071928619751995e+001
 3.895506415396549e+000	 2.781567639449146e+000	 1.071895897297023e+001
 4.198486876043154e+000	 2.353894504277206e+000	 1.065821589149773e+001
 4.172706174370148e+000	 2.399298612245635e+000	 1.066207428253426e+001
 4.146396283511082e+000	 2.444485154575170e+000	 1.066729239736994e+001
 4.119559709423029e+000	 2.489445061498262e+000	 1.067363105209359e+001
 4.092199162133382e+000	 2.534169294960264e+000	 1.068077226136006e+001
 4.064317555487759e+000	 2.578648854281084e+000	 1.068831489217839e+001
 4.035918006711387e+000	 2.622874781828016e+000	 1.069577045971871e+001
 4.007003835782910e+000	 2.666838168692684e+000	 1.070255908734668e+001
 3.977578564619736e+000	 2.710530160364861e+000	 1.070782326211240e+001
 3.947645916074441e+000	 2.753941962396010e+000	 1.071059669296252e+001
 3.917209812741994e+000	 2.797064846045182e+000	 1.071073828496616e+001
 4.221748631918484e+000	 2.366936278830407e+000	 1.065473338588202e+001
 4.195825092026316e+000	 2.412591948684358e+000	 1.065818589078173e+001
 4.169369430970326e+000	 2.458028847474985e+000	 1.066286051576957e+001
 4.142384168591882e+000	 2.503237855183602e+000	 1.066854633876861e+001
 4.114872029933323e+000	 2.548209883680131e+000	 1.067495594810196e+001
 4.086835944984467e+000	 2.592935882416122e+000	 1.068172097934841e+001
 4.058279048241576e+000	 2.637406844129021e+000	 1.068838779047404e+001
 4.029204678077676e+000	 2.681613810550552e+000	 1.069440245845953e+001
 3.999616375923409e+000	 2.725547878111993e+000	 1.069919727305568e+001
 3.969517885257866e+000	 2.769200203639070e+000	 1.070219729142401e+001
 3.938913150409199e+000	 2.812562010029167e+000	 1.070284418121372e+001
 4.245010283123539e+000	 2.379977994700153e+000	 1.065049010859307e+001
 4.218943905654852e+000	 2.425885225307669e+000	 1.065348060798227e+001
 4.192342475057772e+000	 2.471572479432886e+000	 1.065765127495853e+001
 4.165208525057892e+000	 2.517030586806200e+000	 1.066280771202668e+001
 4.137544795712443e+000	 2.562250409222322e+000	 1.066868028675306e+001
 4.109354233155369e+000	 2.607222846264663e+000	 1.067491956368978e+001
 4.080639989153887e+000	 2.651938841041037e+000	 1.068109187301016e+001
 4.051405420475334e+000	 2.696389385923486e+000	 1.068660079226837e+001
 4.021654088063500e+000	 2.740565528285002e+000	 1.069089357831629e+001
 3.991389756023894e+000	 2.784458376225797e+000	 1.069393238937283e+001
 3.960616390417767e+000	 2.828059104281789e+000	 1.069510141466403e+001
 4.268271788950622e+000	 2.393019629063903e+000	 1.064490563222071e+001
 4.242062574798013e+000	 2.439178418852811e+000	 1.064745503624022e+001
 4.215315375570760e+000	 2.485116026748010e+000	 1.065122503811976e+001
 4.188032738878608e+000	 2.530823232229286e+000	 1.065602626973734e+001
 4.160217419793573e+000	 2.576290847016447e+000	 1.066159433852258e+001
 4.131872380593637e+000	 2.621509720825069e+000	 1.066758516620846e+001
 4.103000790316869e+000	 2.666470747133634e+000	 1.067357046489381e+001
 4.073606024124799e+000	 2.711164868954809e+000	 1.067880376157305e+001
 4.043691662474240e+000	 2.755583084603595e+000	 1.068284531790309e+001
 4.013261490097005e+000	 2.799716453454991e+000	 1.068570943261932e+001
 3.982319494787302e+000	 2.843556101683742e+000	 1.068732403370201e+001
 4.291533108692035e+000	 2.406061159099123e+000	 1.063742386860062e+001
 4.265181058998054e+000	 2.452471506057029e+000	 1.063962865887871e+001
 4.238288092306640e+000	 2.498659465719493e+000	 1.064316384523716e+001
 4.210856770111576e+000	 2.544615767316091e+000	 1.064783383137507e+001
 4.182889862499550e+000	 2.590331172492116e+000	 1.065336717556638e+001
 4.154390347892454e+000	 2.635796481095700e+000	 1.065941184775516e+001
 4.125361412599070e+000	 2.681002536976384e+000	 1.066549285096394e+001
 4.095806450174976e+000	 2.725940233787844e+000	 1.067068921746214e+001
 4.065729060589863e+000	 2.770600520787479e+000	 1.067472743679281e+001
 4.035133049201670e+000	 2.814974408625450e+000	 1.067759107764898e+001
 4.004022425537404e+000	 2.859052975115712e+000	 1.067932408453907e+001
 4.314794201640082e+000	 2.419102561983274e+000	 1.062751295546163e+001
 4.288299317797230e+000	 2.465764463657565e+000	 1.062954376377864e+001
 4.261260585062754e+000	 2.512202772646475e+000	 1.063307136620611e+001
 4.233680578814340e+000	 2.558408167929846e+000	 1.063788291411954e+001
 4.205562084153207e+000	 2.604371361078937e+000	 1.064368787343898e+001
 4.176908095644997e+000	 2.650083102074917e+000	 1.065011321134256e+001
 4.147721816869036e+000	 2.695534185138857e+000	 1.065652747849536e+001
 4.118006659774781e+000	 2.740715454565915e+000	 1.066196252858044e+001
 4.087766243844598e+000	 2.785617810556357e+000	 1.066624237734932e+001
 4.057004395062370e+000	 2.830232215035974e+000	 1.066930210983284e+001
 4.025725144687676e+000	 2.874549697458393e+000	 1.067113534744254e+001
 4.338055027087065e+000	 2.432143814893819e+000	 1.061466514030430e+001
 4.311417310737799e+000	 2.479057268391663e+000	 1.061676536266423e+001
 4.284232813636449e+000	 2.525745923828093e+000	 1.062057284883404e+001
 4.256504125044452e+000	 2.572200409933781e+000	 1.062584670301276e+001
 4.228234045077380e+000	 2.618411388206521e+000	 1.063226549698922e+001
 4.199425584444444e+000	 2.664369558761081e+000	 1.063942239750772e+001
 4.170081963995318e+000	 2.710065666190623e+000	 1.064639867073514e+001
 4.140206614073120e+000	 2.755490505432346e+000	 1.065235591306181e+001
 4.109803173672678e+000	 2.800634927629937e+000	 1.065711946642566e+001
 4.078875489403576e+000	 2.845489845985364e+000	 1.066055850330765e+001
 4.047427614257718e+000	 2.890046241592473e+000	 1.066259783491221e+001
 4.361315544325289e+000	 2.445184895008223e+000	 1.059839666159123e+001
 4.334534997362015e+000	 2.492349896996570e+000	 1.060088110646315e+001
 4.307204737825070e+000	 2.539288895563483e+000	 1.060531506189794e+001
 4.279327368859457e+000	 2.585992469191127e+000	 1.061141901537135e+001
 4.250905705594900e+000	 2.632451229304477e+000	 1.061882907992067e+001
 4.221942774883972e+000	 2.678655826152553e+000	 1.062705439677412e+001
 4.192441814846462e+000	 2.724596954701255e+000	 1.063485715386473e+001
 4.162406274218905e+000	 2.770265360530462e+000	 1.064162776341068e+001
 4.131839811508338e+000	 2.815651845727923e+000	 1.064711422298719e+001
 4.100746293949764e+000	 2.860747274772419e+000	 1.065110267574479e+001
 4.069129796267132e+000	 2.905542580398644e+000	 1.065343095047308e+001
 3.852099593592544e+000	 2.750573206898159e+000	 1.073701675034481e+001
 3.821678351209255e+000	 2.792686689510306e+000	 1.073377732351176e+001
 3.790770314199296e+000	 2.834499098992381e+000	 1.072914787893074e+001
 3.759379913927593e+000	 2.876002072770478e+000	 1.072287674458454e+001
 3.727511771739845e+000	 2.917187334614499e+000	 1.071488845370416e+001
 3.695170696876086e+000	 2.958046700001626e+000	 1.070526666553704e+001
 3.662361684203525e+000	 2.998572081419610e+000	 1.069423368079687e+001
 3.629089911770705e+000	 3.038755493602875e+000	 1.068212665349042e+001
 3.595360738185273e+000	 3.078589058694384e+000	 1.066937063395736e+001
 3.561179699818029e+000	 3.118065011326383e+000	 1.065644861057915e+001
 3.526552507836179e+000	 3.157175703613221e+000	 1.064386874940374e+001
 3.873802996353268e+000	 2.766070417360369e+000	 1.072766898582639e+001
 3.843210355370015e+000	 2.808421174698224e+000	 1.072485700815858e+001
 3.812128177074005e+000	 2.850469162607365e+000	 1.072062693482093e+001
 3.780560917797261e+000	 2.892205971397670e+000	 1.071469682094123e+001
 3.748513224922960e+000	 2.933623278209317e+000	 1.070697305832242e+001
 3.715989934787254e+000	 2.974712852406442e+000	 1.069753293929658e+001
 3.682996070399316e+000	 3.015466560910336e+000	 1.068660365944846e+001
 3.649536838981732e+000	 3.055876373465033e+000	 1.067453786288046e+001
 3.615617629333496e+000	 3.095934367828268e+000	 1.066178586814869e+001
 3.581244009018296e+000	 3.135632734880839e+000	 1.064886474692929e+001
 3.546421721381069e+000	 3.174963783647567e+000	 1.063632446055380e+001
 3.895506415396549e+000	 2.781567639449146e+000	 1.071895897297023e+001
 3.864742375684650e+000	 2.824155671690768e+000	 1.071665101711437e+001
 3.833486055971865e+000	 2.866439238203753e+000	 1.071287212614303e+001
 3.801741937557330e+000	 2.908409882181733e+000	 1.070731884010793e+001
 3.769514693861729e+000	 2.950059234135116e+000	 1.069988919535010e+001
 3.736809188317338e+000	 2.991379017314969e+000	 1.069066490860082e+001
 3.703630472075321e+000	 3.032361053076080e+000	 1.067988983766362e+001
 3.669983781532329e+000	 3.072997266172065e+000	 1.066794482437872e+001
 3.635874535678719e+000	 3.113279689975390e+000	 1.065531906138943e+001
 3.601308333271102e+000	 3.153200471615380e+000	 1.064257815951139e+001
 3.566290949832161e+000	 3.192751877027288e+000	 1.063032912692012e+001
 3.917209812741994e+000	 2.797064846045182e+000	 1.071073828496616e+001
 3.886274374472734e+000	 2.839890152953399e+000	 1.070898430839111e+001
 3.854843913517219e+000	 2.882409297834739e+000	 1.070568544119110e+001
 3.822922936141674e+000	 2.924613776766638e+000	 1.070052514002146e+001
 3.790516141804254e+000	 2.966495173629784e+000	 1.069340256422771e+001
 3.757628421033339e+000	 3.008045165562213e+000	 1.068441435771546e+001
 3.724264853122053e+000	 3.049255528352266e+000	 1.067383253849377e+001
 3.690430703641078e+000	 3.090118141763176e+000	 1.066207860367424e+001
 3.656131421772111e+000	 3.130624994782195e+000	 1.064969399493056e+001
 3.621372637464641e+000	 3.170768190787212e+000	 1.063730710610325e+001
 3.586160158419070e+000	 3.210539952623959e+000	 1.062559705042413e+001
 3.938913150409199e+000	 2.812562010029167e+000	 1.070284418121372e+001
 3.907806314053837e+000	 2.855624590951576e+000	 1.070166913580934e+001
 3.876201712334408e+000	 2.898379313553516e+000	 1.069885757471338e+001
 3.844103876484156e+000	 2.940817626796362e+000	 1.069408797935626e+001
 3.811517531998638e+000	 2.982931067931204e+000	 1.068726980628300e+001
 3.778447596502259e+000	 3.024711267983182e+000	 1.067852484467538e+001
 3.744899177430023e+000	 3.066149957174310e+000	 1.066816450587499e+001
 3.710877569526564e+000	 3.107238970277572e+000	 1.065666315482044e+001
 3.676388252164828e+000	 3.147970251895123e+000	 1.064462763198515e+001
 3.641436886487101e+000	 3.188335861653541e+000	 1.063276315252430e+001
 3.606029312371414e+000	 3.228327979309160e+000	 1.062183580655283e+001
 3.960616390417767e+000	 2.828059104281789e+000	 1.069510141466403e+001
 3.929338156747531e+000	 2.871358958150761e+000	 1.069450684547830e+001
 3.897559415047773e+000	 2.914349257413285e+000	 1.069216971433479e+001
 3.865284721518647e+000	 2.957021403914879e+000	 1.068777131454319e+001
 3.832518827692988e+000	 2.999366888277261e+000	 1.068124027285232e+001
 3.799266678291102e+000	 3.041377295412881e+000	 1.067273346086950e+001
 3.765533408889746e+000	 3.083044309977635e+000	 1.066261265589491e+001
 3.731324343407372e+000	 3.124359721754459e+000	 1.065141706326383e+001
 3.696644991408034e+000	 3.165315430960618e+000	 1.063983185246100e+001
 3.661501045226678e+000	 3.205903453471577e+000	 1.062865289888190e+001
 3.625898376918811e+000	 3.246115925954463e+000	 1.061874796179787e+001
 3.982319494787302e+000	 2.843556101683742e+000	 1.068732403370201e+001
 3.950869864873384e+000	 2.887093227016413e+000	 1.068728966751520e+001
 3.918916984281657e+000	 2.930319101467232e+000	 1.068539532283217e+001
 3.886465434179013e+000	 2.973225079766164e+000	 1.068133257317399e+001
 3.853519992135405e+000	 3.015802605905840e+000	 1.067505779024416e+001
 3.820085629966870e+000	 3.058043218686316e+000	 1.066677258785283e+001
 3.786167511391734e+000	 3.099938557197659e+000	 1.065689982560465e+001
 3.751770989502083e+000	 3.141480366233044e+000	 1.064605528667184e+001
 3.716901604052892e+000	 3.182660501625122e+000	 1.063501518568925e+001
 3.681565078571564e+000	 3.223470935498523e+000	 1.062467970395626e+001
 3.645767317290875e+000	 3.263903761431447e+000	 1.061603278932732e+001
 4.004022425537404e+000	 2.859052975115712e+000	 1.067932408453907e+001
 3.972401400750971e+000	 2.902827370013994e+000	 1.067980250308656e+001
 3.940274382660399e+000	 2.946288817768555e+000	 1.067830191632076e+001
 3.907645977399122e+000	 2.989428625994190e+000	 1.067452442382871e+001
 3.874520988573994e+000	 3.032238192054827e+000	 1.066846242156440e+001
 3.840904415096564e+000	 3.074709008638495e+000	 1.066037165138960e+001
 3.806801448826500e+000	 3.116832669269804e+000	 1.065074651936668e+001
 3.772217472029284e+000	 3.158600873752531e+000	 1.064029089354169e+001
 3.737158054650565e+000	 3.200005433535076e+000	 1.062988454112290e+001
 3.701628951409949e+000	 3.241038276991590e+000	 1.062054540769330e+001
 3.665636098717228e+000	 3.281691454611689e+000	 1.061338798285620e+001
 4.025725144687676e+000	 2.874549697458393e+000	 1.067113534744254e+001
 3.993932726699861e+000	 2.918561359608961e+000	 1.067182470684738e+001
 3.961631572808342e+000	 2.962258378370446e+000	 1.067065283840370e+001
 3.928826314112840e+000	 3.005632014242933e+000	 1.066709654235747e+001
 3.895521780256860e+000	 3.048673617962105e+000	 1.066119222541675e+001
 3.861722997247187e+000	 3.091374636104424e+000	 1.065325887272687e+001
 3.827435185084556e+000	 3.133726616629489e+000	 1.064387265272638e+001
 3.792663755207555e+000	 3.175721214352126e+000	 1.063383679956848e+001
 3.757414307752215e+000	 3.217350196336924e+000	 1.062414693697660e+001
 3.721692628630025e+000	 3.258605447207982e+000	 1.061595205177140e+001
 3.685504686427483e+000	 3.299478974366764e+000	 1.061051136867933e+001
 4.047427614257718e+000	 2.890046241592473e+000	 1.066259783491221e+001
 4.015463805039628e+000	 2.934295168266779e+000	 1.066322472217156e+001
 3.982988517349825e+000	 2.978227755326101e+000	 1.066220903032994e+001
 3.950006407254037e+000	 3.021835216156369e+000	 1.065879737464208e+001
 3.916522330432105e+000	 3.065108854865560e+000	 1.065298501148775e+001
 3.882541339985742e+000	 3.108040071919109e+000	 1.064516301709368e+001
 3.848068684056416e+000	 3.150620369712136e+000	 1.063599929379084e+001
 3.813109803255485e+000	 3.192841358071037e+000	 1.062640750174678e+001
 3.777670327908999e+000	 3.234694759677108e+000	 1.061751122677543e+001
 3.741756075119986e+000	 3.276172415404905e+000	 1.061060359820578e+001
 3.705373045651260e+000	 3.317266289568249e+000	 1.060710261582701e+001
 4.069129796267132e+000	 2.905542580398644e+000	 1.065343095047308e+001
 4.036994598089843e+000	 2.950028768452905e+000	 1.065399490638265e+001
 4.004345178909193e+000	 2.994196920688713e+000	 1.065273798398624e+001
 3.971186219756580e+000	 3.038038203378470e+000	 1.064937589585817e+001
 3.937522602347835e+000	 3.081543874003077e+000	 1.064358009302028e+001
 3.903359406879230e+000	 3.124705286917557e+000	 1.063581513941640e+001
 3.868701909632593e+000	 3.167513898953163e+000	 1.062685040209482e+001
 3.833555580391654e+000	 3.209961274948469e+000	 1.061772081017755e+001
 3.797926079672085e+000	 3.252039093202068e+000	 1.060968982377773e+001
 3.761819255768024e+000	 3.293739150839572e+000	 1.060420764595074e+001
 3.725241141618175e+000	 3.335053369087720e+000	 1.060285592314976e+001
 3.526552507836179e+000	 3.157175703613221e+000	 1.064386874940374e+001
 3.491490338159828e+000	 3.195907828477368e+000	 1.063065517685400e+001
 3.455994081322530e+000	 3.234259887315394e+000	 1.061755693471637e+001
 3.420069953636332e+000	 3.272224619985245e+000	 1.060763370588083e+001
 3.383724332540991e+000	 3.309794902772032e+000	 1.060385580117970e+001
 3.346963752837023e+000	 3.346963752837023e+000	 1.060810286451244e+001
 3.309794902772032e+000	 3.383724332540992e+000	 1.061040720258709e+001
 3.272224619985246e+000	 3.420069953636332e+000	 1.060246898657493e+001
 3.234259887315396e+000	 3.455994081322531e+000	 1.058627765963343e+001
 3.195907828477369e+000	 3.491490338159828e+000	 1.056466756460752e+001
 3.157175703613221e+000	 3.526552507836178e+000	 1.054055025363814e+001
 3.546421721381069e+000	 3.174963783647567e+000	 1.063632446055380e+001
 3.511162005309020e+000	 3.213914132076515e+000	 1.062347292504593e+001
 3.475465756353108e+000	 3.252482273120868e+000	 1.061129219719789e+001
 3.439339225849170e+000	 3.290660905733673e+000	 1.060281455583887e+001
 3.402788827168555e+000	 3.328442866063796e+000	 1.060098431524312e+001
 3.365821131929980e+000	 3.365821131929980e+000	 1.060330423019854e+001
 3.328442866063797e+000	 3.402788827168556e+000	 1.060322161907249e+001
 3.290660905733673e+000	 3.439339225849169e+000	 1.059614600219348e+001
 3.252482273120869e+000	 3.475465756353108e+000	 1.058070980400310e+001
 3.213914132076516e+000	 3.511162005309019e+000	 1.055970444044739e+001
 3.174963783647567e+000	 3.546421721381069e+000	 1.053599774048916e+001
 3.566290949832161e+000	 3.192751877027288e+000	 1.063032912692012e+001
 3.530833687216243e+000	 3.231920449184717e+000	 1.061816911727780e+001
 3.494937445991728e+000	 3.270704672597463e+000	 1.060730114346984e+001
 3.458608512518250e+000	 3.309097205313643e+000	 1.060071960038907e+001
 3.421853336098788e+000	 3.347090843345852e+000	 1.060043104886057e+001
 3.384678525170281e+000	 3.384678525170281e+000	 1.059892668977334e+001
 3.347090843345852e+000	 3.421853336098788e+000	 1.059513783233144e+001
 3.309097205313644e+000	 3.458608512518249e+000	 1.058867630994283e+001
 3.270704672597465e+000	 3.494937445991728e+000	 1.057438510099593e+001
 3.231920449184717e+000	 3.530833687216242e+000	 1.055432087733049e+001
 3.192751877027288e+000	 3.566290949832160e+000	 1.053129505543441e+001
 3.586160158419070e+000	 3.210539952623959e+000	 1.062559705042413e+001
 3.550505349456825e+000	 3.249926748291658e+000	 1.061445287801960e+001
 3.514409116163697e+000	 3.288927053856719e+000	 1.060528402715030e+001
 3.477877779923087e+000	 3.327533486462375e+000	 1.060103684306914e+001
 3.440917825969560e+000	 3.365738801984989e+000	 1.059969794129226e+001
 3.403535899558241e+000	 3.403535899558241e+000	 1.059484684042337e+001
 3.365738801984989e+000	 3.440917825969561e+000	 1.058785114075133e+001
 3.327533486462376e+000	 3.477877779923085e+000	 1.058013298266668e+001
 3.288927053856721e+000	 3.514409116163698e+000	 1.056735828217188e+001
 3.249926748291659e+000	 3.550505349456825e+000	 1.054855248151097e+001
 3.210539952623960e+000	 3.586160158419070e+000	 1.052645818457463e+001
 3.606029312371414e+000	 3.228327979309160e+000	 1.062183580655283e+001
 3.570176957606095e+000	 3.267932997887018e+000	 1.061202647543430e+001
 3.533880732794333e+000	 3.307149385010174e+000	 1.060493407912909e+001
 3.497146994343197e+000	 3.345969716917086e+000	 1.060275282260968e+001
 3.459982263418742e+000	 3.384386709347995e+000	 1.059856531520693e+001
 3.422393222094180e+000	 3.422393222094180e+000	 1.059094524570913e+001
 3.384386709347995e+000	 3.459982263418741e+000	 1.058131294138586e+001
 3.345969716917085e+000	 3.497146994343196e+000	 1.057110528886917e+001
 3.307149385010174e+000	 3.533880732794332e+000	 1.055968745906220e+001
 3.267932997887019e+000	 3.570176957606094e+000	 1.054243849429231e+001
 3.228327979309159e+000	 3.606029312371414e+000	 1.052150707853094e+001
 3.625898376918811e+000	 3.246115925954463e+000	 1.061874796179787e+001
 3.589848477239379e+000	 3.285939166460482e+000	 1.061058702798374e+001
 3.553352261808945e+000	 3.325371634169369e+000	 1.060593919979115e+001
 3.516416122058093e+000	 3.364405864414994e+000	 1.060355382798279e+001
 3.479046615084206e+000	 3.403034532801657e+000	 1.059693157395011e+001
 3.441250459778411e+000	 3.441250459778411e+000	 1.058710646934975e+001
 3.403034532801657e+000	 3.479046615084205e+000	 1.057539197186574e+001
 3.364405864414994e+000	 3.516416122058091e+000	 1.056311762784766e+001
 3.325371634169370e+000	 3.553352261808946e+000	 1.055143325465460e+001
 3.285939166460482e+000	 3.589848477239376e+000	 1.053602090265608e+001
 3.246115925954463e+000	 3.625898376918811e+000	 1.051646474261541e+001
 3.645767317290875e+000	 3.263903761431447e+000	 1.061603278932732e+001
 3.609519873932002e+000	 3.303945222501731e+000	 1.060982820936776e+001
 3.572823669132847e+000	 3.343593769445843e+000	 1.060757278359670e+001
 3.535685129347288e+000	 3.382841896693317e+000	 1.060320597650354e+001
 3.498110847603818e+000	 3.421682239712763e+000	 1.059469898127885e+001
 3.460107579611250e+000	 3.460107579611252e+000	 1.058321910798658e+001
 3.421682239712763e+000	 3.498110847603817e+000	 1.056996121072728e+001
 3.382841896693318e+000	 3.535685129347289e+000	 1.055613562469890e+001
 3.343593769445845e+000	 3.572823669132847e+000	 1.054295598508088e+001
 3.303945222501733e+000	 3.609519873932001e+000	 1.052934355046553e+001
 3.263903761431447e+000	 3.645767317290875e+000	 1.051135632800812e+001
 3.665636098717228e+000	 3.281691454611689e+000	 1.061338798285620e+001
 3.629191113259291e+000	 3.321951134500448e+000	 1.060944195176059e+001
 3.592294920691352e+000	 3.361815758951137e+000	 1.060769731453599e+001
 3.554953982490301e+000	 3.401277781489275e+000	 1.060162679713555e+001
 3.517174927615452e+000	 3.440329797448102e+000	 1.059177370420311e+001
 3.478964548593017e+000	 3.478964548593018e+000	 1.057917582295737e+001
 3.440329797448102e+000	 3.517174927615451e+000	 1.056489789704139e+001
 3.401277781489275e+000	 3.554953982490300e+000	 1.055001940915350e+001
 3.361815758951137e+000	 3.592294920691351e+000	 1.053562224311622e+001
 3.321951134500449e+000	 3.629191113259290e+000	 1.052245125027372e+001
 3.281691454611689e+000	 3.665636098717227e+000	 1.050620822395544e+001
 3.685504686427483e+000	 3.299478974366764e+000	 1.061051136867933e+001
 3.648862160796576e+000	 3.339956870946316e+000	 1.060896904805841e+001
 3.611765982409770e+000	 3.380037570796788e+000	 1.060599163324269e+001
 3.574222647766642e+000	 3.419713486540084e+000	 1.059873764988975e+001
 3.536238821756975e+000	 3.458977173374460e+000	 1.058806585460142e+001
 3.497821333724026e+000	 3.497821333724026e+000	 1.057487337111122e+001
 3.458977173374460e+000	 3.536238821756975e+000	 1.056008354938428e+001
 3.419713486540086e+000	 3.574222647766642e+000	 1.054463360429217e+001
 3.380037570796789e+000	 3.611765982409770e+000	 1.052946213149687e+001
 3.339956870946317e+000	 3.648862160796575e+000	 1.051549659910944e+001
 3.299478974366763e+000	 3.685504686427482e+000	 1.050104715100574e+001
 3.705373045651260e+000	 3.317266289568249e+000	 1.060710261582701e+001
 3.668532982119180e+000	 3.357962400329018e+000	 1.060655979896178e+001
 3.631236820213418e+000	 3.398259173094338e+000	 1.060238983566101e+001
 3.593491091455829e+000	 3.438148979582966e+000	 1.059446377566608e+001
 3.555302496666260e+000	 3.477624334858627e+000	 1.058348952964927e+001
 3.516677902004592e+000	 3.516677902004593e+000	 1.057021263469292e+001
 3.477624334858627e+000	 3.555302496666259e+000	 1.055540398416801e+001
 3.438148979582966e+000	 3.593491091455829e+000	 1.053984733243400e+001
 3.398259173094339e+000	 3.631236820213417e+000	 1.052432667467080e+001
 3.357962400329019e+000	 3.668532982119179e+000	 1.050961360310964e+001
 3.317266289568248e+000	 3.705373045651260e+000	 1.049589925530076e+001
 3.725241141618175e+000	 3.335053369087720e+000	 1.060285592314976e+001
 3.688203542802434e+000	 3.375967691138236e+000	 1.060170298381192e+001
 3.650707400027607e+000	 3.416480533955327e+000	 1.059682988969642e+001
 3.612759279837374e+000	 3.456584228355137e+000	 1.058873434473258e+001
 3.574365918981176e+000	 3.496271249267390e+000	 1.057796285109711e+001
 3.535534220435035e+000	 3.535534220435036e+000	 1.056509865032460e+001
 3.496271249267390e+000	 3.574365918981175e+000	 1.055074933334774e+001
 3.456584228355137e+000	 3.612759279837374e+000	 1.053553422070979e+001
 3.416480533955327e+000	 3.650707400027605e+000	 1.052007161597956e+001
 3.375967691138237e+000	 3.688203542802432e+000	 1.050496603637830e+001
 3.335053369087720e+000	 3.725241141618176e+000	 1.049079552479086e+001
 3.157175703613221e+000	 3.526552507836178e+000	 1.054055025363814e+001
 3.118065011326384e+000	 3.561179699818027e+000	 1.051602321656065e+001
 3.078589058694385e+000	 3.595360738185272e+000	 1.049135812284223e+001
 3.038755493602877e+000	 3.629089911770705e+000	 1.046675062645448e+001
 2.998572081419612e+000	 3.662361684203524e+000	 1.044237126037088e+001
 2.958046700001628e+000	 3.695170696876085e+000	 1.041834319450071e+001
 2.917187334614501e+000	 3.727511771739843e+000	 1.039472173801014e+001
 2.876002072770479e+000	 3.759379913927593e+000	 1.037147573637780e+001
 2.834499098992384e+000	 3.790770314199296e+000	 1.034847099369031e+001
 2.792686689510307e+000	 3.821678351209254e+000	 1.032545583006082e+001
 2.750573206898159e+000	 3.852099593592544e+000	 1.030204886284700e+001
 3.174963783647567e+000	 3.546421721381069e+000	 1.053599774048916e+001
 3.135632734880841e+000	 3.581244009018294e+000	 1.051169435490768e+001
 3.095934367828270e+000	 3.615617629333495e+000	 1.048713929386431e+001
 3.055876373465034e+000	 3.649536838981732e+000	 1.046257941628179e+001
 3.015466560910337e+000	 3.682996070399315e+000	 1.043823134080563e+001
 2.974712852406443e+000	 3.715989934787253e+000	 1.041425837394096e+001
 2.933623278209318e+000	 3.748513224922960e+000	 1.039074926857057e+001
 2.892205971397670e+000	 3.780560917797259e+000	 1.036769896812738e+001
 2.850469162607365e+000	 3.812128177074004e+000	 1.034499147105488e+001
 2.808421174698226e+000	 3.843210355370014e+000	 1.032238492874342e+001
 2.766070417360369e+000	 3.873802996353269e+000	 1.029949906808760e+001
 3.192751877027288e+000	 3.566290949832160e+000	 1.053129505543441e+001
 3.153200471615380e+000	 3.601308333271100e+000	 1.050740921049130e+001
 3.113279689975391e+000	 3.635874535678719e+000	 1.048309030144826e+001
 3.072997266172067e+000	 3.669983781532328e+000	 1.045865170732612e+001
 3.032361053076082e+000	 3.703630472075321e+000	 1.043437120424877e+001
 2.991379017314970e+000	 3.736809188317336e+000	 1.041046701256144e+001
 2.950059234135118e+000	 3.769514693861728e+000	 1.038707576358614e+001
 2.908409882181734e+000	 3.801741937557329e+000	 1.036423254640024e+001
 2.866439238203754e+000	 3.833486055971864e+000	 1.034185317355750e+001
 2.824155671690770e+000	 3.864742375684650e+000	 1.031971878237867e+001
 2.781567639449146e+000	 3.895506415396549e+000	 1.029746286553079e+001
 3.210539952623960e+000	 3.586160158419070e+000	 1.052645818457463e+001
 3.170768190787212e+000	 3.621372637464638e+000	 1.050316499815429e+001
 3.130624994782196e+000	 3.656131421772108e+000	 1.047919145808881e+001
 3.090118141763178e+000	 3.690430703641078e+000	 1.045493255665125e+001
 3.049255528352266e+000	 3.724264853122051e+000	 1.043074206416692e+001
 3.008045165562216e+000	 3.757628421033338e+000	 1.040690764364016e+001
 2.966495173629784e+000	 3.790516141804253e+000	 1.038362797762401e+001
 2.924613776766640e+000	 3.822922936141673e+000	 1.036099207301764e+001
 2.882409297834739e+000	 3.854843913517218e+000	 1.033896088715830e+001
 2.839890152953400e+000	 3.886274374472733e+000	 1.031735139540732e+001
 2.797064846045183e+000	 3.917209812741994e+000	 1.029582319662936e+001
 3.228327979309159e+000	 3.606029312371414e+000	 1.052150707853094e+001
 3.188335861653541e+000	 3.641436886487099e+000	 1.049896327469994e+001
 3.147970251895124e+000	 3.676388252164825e+000	 1.047542782407705e+001
 3.107238970277573e+000	 3.710877569526564e+000	 1.045139221062990e+001
 3.066149957174311e+000	 3.744899177430022e+000	 1.042730080751819e+001
 3.024711267983184e+000	 3.778447596502258e+000	 1.040352500749098e+001
 2.982931067931206e+000	 3.811517531998637e+000	 1.038033946157027e+001
 2.940817626796363e+000	 3.844103876484155e+000	 1.035790059719333e+001
 2.898379313553519e+000	 3.876201712334407e+000	 1.033622756379049e+001
 2.855624590951578e+000	 3.907806314053836e+000	 1.031518572970449e+001
 2.812562010029166e+000	 3.938913150409197e+000	 1.029447282963731e+001
 3.246115925954463e+000	 3.625898376918811e+000	 1.051646474261541e+001
 3.205903453471577e+000	 3.661501045226677e+000	 1.049480900979918e+001
 3.165315430960621e+000	 3.696644991408035e+000	 1.047178826094634e+001
 3.124359721754462e+000	 3.731324343407371e+000	 1.044800514259117e+001
 3.083044309977637e+000	 3.765533408889745e+000	 1.042400901812104e+001
 3.041377295412882e+000	 3.799266678291101e+000	 1.040026906192764e+001
 2.999366888277262e+000	 3.832518827692987e+000	 1.037714956141411e+001
 2.957021403914880e+000	 3.865284721518646e+000	 1.035488760371080e+001
 2.914349257413285e+000	 3.897559415047772e+000	 1.033357329984899e+001
 2.871358958150763e+000	 3.929338156747529e+000	 1.031313267414083e+001
 2.828059104281789e+000	 3.960616390417768e+000	 1.029331332084474e+001
 3.263903761431447e+000	 3.645767317290875e+000	 1.051135632800812e+001
 3.223470935498525e+000	 3.681565078571562e+000	 1.049070965832930e+001
 3.182660501625123e+000	 3.716901604052892e+000	 1.046826448674935e+001
 3.141480366233045e+000	 3.751770989502082e+000	 1.044474909267752e+001
 3.099938557197660e+000	 3.786167511391734e+000	 1.042083200259562e+001
 3.058043218686318e+000	 3.820085629966869e+000	 1.039709399565242e+001
 3.015802605905843e+000	 3.853519992135404e+000	 1.037400242030310e+001
 2.973225079766165e+000	 3.886465434179012e+000	 1.035188800471767e+001
 2.930319101467233e+000	 3.918916984281657e+000	 1.033092431864697e+001
 2.887093227016414e+000	 3.950869864873383e+000	 1.031111001847205e+001
 2.843556101683741e+000	 3.982319494787302e+000	 1.029225398051649e+001
 3.281691454611689e+000	 3.665636098717227e+000	 1.050620822395544e+001
 3.241038276991592e+000	 3.701628951409947e+000	 1.048667423414363e+001
 3.200005433535079e+000	 3.737158054650565e+000	 1.046485013315041e+001
 3.158600873752532e+000	 3.772217472029282e+000	 1.044160410988199e+001
 3.116832669269805e+000	 3.806801448826498e+000	 1.041773781883409e+001
 3.074709008638496e+000	 3.840904415096563e+000	 1.039395724451286e+001
 3.032238192054828e+000	 3.874520988573993e+000	 1.037084598380000e+001
 2.989428625994192e+000	 3.907645977399120e+000	 1.034884113505446e+001
 2.946288817768555e+000	 3.940274382660399e+000	 1.032821195674372e+001
 2.902827370013994e+000	 3.972401400750969e+000	 1.030904143144586e+001
 2.859052975115711e+000	 4.004022425537404e+000	 1.029118611831621e+001
 3.299478974366763e+000	 3.685504686427482e+000	 1.050104715100574e+001
 3.258605447207982e+000	 3.721692628630023e+000	 1.048271238527362e+001
 3.217350196336925e+000	 3.757414307752212e+000	 1.046153980432136e+001
 3.175721214352127e+000	 3.792663755207554e+000	 1.043855159623955e+001
 3.133726616629491e+000	 3.827435185084555e+000	 1.041469630696212e+001
 3.091374636104426e+000	 3.861722997247186e+000	 1.039081851057549e+001
 3.048673617962106e+000	 3.895521780256858e+000	 1.036763100827715e+001
 3.005632014242935e+000	 3.928826314112839e+000	 1.034568975104074e+001
 2.962258378370447e+000	 3.961631572808341e+000	 1.032537165405393e+001
 2.918561359608963e+000	 3.993932726699861e+000	 1.030685544302298e+001
 2.874549697458392e+000	 4.025725144687676e+000	 1.028913030884212e+001
 3.317266289568248e+000	 3.705373045651260e+000	 1.049589925530076e+001
 3.276172415404907e+000	 3.741756075119985e+000	 1.047883347056726e+001
 3.234694759677109e+000	 3.777670327908998e+000	 1.045832813763080e+001
 3.192841358071038e+000	 3.813109803255483e+000	 1.043557335315079e+001
 3.150620369712137e+000	 3.848068684056416e+000	 1.041167812275588e+001
 3.108040071919110e+000	 3.882541339985740e+000	 1.038763878396921e+001
 3.065108854865561e+000	 3.916522330432104e+000	 1.036431007238909e+001
 3.021835216156370e+000	 3.950006407254036e+000	 1.034237903264736e+001
 2.978227755326102e+000	 3.982988517349825e+000	 1.032234194765425e+001
 2.934295168266779e+000	 4.015463805039627e+000	 1.030414782002193e+001
 2.890046241592473e+000	 4.047427614257718e+000	 1.028566336687086e+001
 3.335053369087720e+000	 3.725241141618176e+000	 1.049079552479086e+001
 3.293739150839573e+000	 3.761819255768023e+000	 1.047504563776960e+001
 3.252039093202069e+000	 3.797926079672084e+000	 1.045520886612017e+001
 3.209961274948470e+000	 3.833555580391652e+000	 1.043265062981802e+001
 3.167513898953164e+000	 3.868701909632591e+000	 1.040865377348405e+001
 3.124705286917558e+000	 3.903359406879229e+000	 1.038437936745597e+001
 3.081543874003079e+000	 3.937522602347834e+000	 1.036083659156942e+001
 3.038038203378472e+000	 3.971186219756580e+000	 1.033885558898878e+001
 2.994196920688714e+000	 4.004345178909192e+000	 1.031903828691967e+001
 2.950028768452906e+000	 4.036994598089842e+000	 1.029999885582685e+001
 2.905542580398644e+000	 4.069129796267132e+000	 1.028084107302660e+001
 2.750573206898159e+000	 3.852099593592544e+000	 1.030204886284700e+001
 2.708167093740829e+000	 3.882029800775058e+000	 1.027844741880188e+001
 2.665476864481691e+000	 3.911464921384907e+000	 1.025568906630596e+001
 2.622511102776231e+000	 3.940401098026868e+000	 1.023408399103466e+001
 2.579278456895366e+000	 3.968834669728083e+000	 1.021335198059782e+001
 2.535787634173377e+000	 3.996762173110999e+000	 1.019322300897485e+001
 2.492047395438518e+000	 4.024180343380283e+000	 1.017222186017657e+001
 2.448066549433489e+000	 4.051086115123938e+000	 1.014848377195781e+001
 2.403853947232866e+000	 4.077476622929091e+000	 1.012213976185755e+001
 2.359418476664551e+000	 4.103349201813302e+000	 1.009342601131507e+001
 2.314769056742235e+000	 4.128701387472490e+000	 1.006265728241227e+001
 2.766070417360369e+000	 3.873802996353269e+000	 1.029949906808760e+001
 2.723425380745690e+000	 3.903901835557513e+000	 1.027650767701098e+001
 2.680494627269417e+000	 3.933502798784716e+000	 1.025441679495788e+001
 2.637286788948848e+000	 3.962602006906415e+000	 1.023368699473296e+001
 2.593810562780761e+000	 3.991195778323188e+000	 1.021394696170052e+001
 2.550074705158073e+000	 4.019280630144202e+000	 1.019415047848217e+001
 2.506088026269068e+000	 4.046853279179696e+000	 1.017199775729501e+001
 2.461859384486437e+000	 4.073910642746602e+000	 1.014743322239637e+001
 2.417397680753248e+000	 4.100449839287809e+000	 1.012063802797796e+001
 2.372711852972977e+000	 4.126468188805896e+000	 1.009187370995521e+001
 2.327810870410583e+000	 4.151963213112461e+000	 1.006147654222303e+001
 2.781567639449146e+000	 3.895506415396549e+000	 1.029746286553079e+001
 2.738683679197817e+000	 3.925773886749149e+000	 1.027522451267969e+001
 2.695512401323906e+000	 3.955540692718248e+000	 1.025394367532219e+001
 2.652062486206557e+000	 3.984802932442126e+000	 1.023415301874194e+001
 2.608342679568454e+000	 4.013556903694772e+000	 1.021515214670289e+001
 2.564361786861186e+000	 4.041799104072061e+000	 1.019431716030025e+001
 2.520128667633115e+000	 4.069526231989785e+000	 1.017123839571992e+001
 2.475652229886951e+000	 4.096735187493783e+000	 1.014602837925810e+001
 2.430941424434304e+000	 4.123423072882691e+000	 1.011888279653179e+001
 2.386005239254255e+000	 4.149587193144091e+000	 1.009007482292920e+001
 2.340852693863087e+000	 4.175225056205249e+000	 1.005994935681775e+001
 2.797064846045183e+000	 3.917209812741994e+000	 1.029582319662936e+001
 2.753941962396011e+000	 3.947645916074441e+000	 1.027447345026831e+001
 2.710530160364864e+000	 3.977578564619735e+000	 1.025414591619965e+001
 2.666838168692685e+000	 4.007003835782909e+000	 1.023525762665360e+001
 2.622874781828018e+000	 4.035918006711385e+000	 1.021559983322241e+001
 2.578648854281084e+000	 4.064317555487757e+000	 1.019389262630572e+001
 2.534169294960265e+000	 4.092199162133381e+000	 1.017016393379014e+001
 2.489445061498264e+000	 4.119559709423027e+000	 1.014452853288822e+001
 2.444485154575173e+000	 4.146396283511083e+000	 1.011718238751788e+001
 2.399298612245636e+000	 4.172706174370147e+000	 1.008839686291085e+001
 2.353894504277207e+000	 4.198486876043155e+000	 1.005851284907720e+001
 2.812562010029166e+000	 3.938913150409197e+000	 1.029447282963731e+001
 2.769200203639073e+000	 3.969517885257864e+000	 1.027414069911050e+001
 2.725547878111994e+000	 3.999616375923409e+000	 1.025491099393308e+001
 2.681613810550554e+000	 4.029204678077674e+000	 1.023573984922787e+001
 2.637406844129024e+000	 4.058279048241573e+000	 1.021529477338715e+001
 2.592935882416123e+000	 4.086835944984467e+000	 1.019305225236419e+001
 2.548209883680132e+000	 4.114872029933322e+000	 1.016897871272290e+001
 2.503237855183604e+000	 4.142384168591880e+000	 1.014317642169093e+001
 2.458028847474986e+000	 4.169369430970327e+000	 1.011582763921487e+001
 2.412591948684360e+000	 4.195825092026315e+000	 1.008718873128647e+001
 2.366936278830408e+000	 4.221748631918484e+000	 1.005758419664129e+001
 2.828059104281789e+000	 3.960616390417768e+000	 1.029331332084474e+001
 2.784458376225799e+000	 3.991389756023893e+000	 1.027412210933148e+001
 2.740565528285003e+000	 4.021654088063499e+000	 1.025536190221830e+001
 2.696389385923488e+000	 4.051405420475333e+000	 1.023535068972643e+001
 2.651938841041038e+000	 4.080639989153885e+000	 1.021437767307669e+001
 2.607222846264665e+000	 4.109354233155368e+000	 1.019195620308992e+001
 2.562250409222323e+000	 4.137544795712441e+000	 1.016787132730210e+001
 2.517030586806202e+000	 4.165208525057891e+000	 1.014219831775489e+001
 2.471572479432887e+000	 4.192342475057770e+000	 1.011509201411067e+001
 2.425885225307671e+000	 4.218943905654851e+000	 1.008678084991490e+001
 2.379977994700152e+000	 4.245010283123540e+000	 1.005756079518053e+001
 2.843556101683741e+000	 3.982319494787302e+000	 1.029225398051649e+001
 2.799716453454993e+000	 4.013261490097004e+000	 1.027404189211928e+001
 2.755583084603597e+000	 4.043691662474239e+000	 1.025470746168083e+001
 2.711164868954809e+000	 4.073606024124797e+000	 1.023421114118175e+001
 2.666470747133637e+000	 4.103000790316870e+000	 1.021297444467732e+001
 2.621509720825071e+000	 4.131872380593637e+000	 1.019074949841888e+001
 2.576290847016449e+000	 4.160217419793572e+000	 1.016701470172580e+001
 2.530823232229289e+000	 4.188032738878608e+000	 1.014180411700154e+001
 2.485116026748012e+000	 4.215315375570760e+000	 1.011523170853792e+001
 2.439178418852813e+000	 4.242062574798011e+000	 1.008748529559198e+001
 2.393019629063903e+000	 4.268271788950621e+000	 1.005882042318099e+001
 2.859052975115711e+000	 4.004022425537404e+000	 1.029118611831621e+001
 2.814974408625452e+000	 4.035133049201670e+000	 1.027276137759699e+001
 2.770600520787481e+000	 4.065729060589862e+000	 1.025304401232381e+001
 2.725940233787845e+000	 4.095806450174976e+000	 1.023242314756501e+001
 2.681002536976386e+000	 4.125361412599069e+000	 1.021125326849722e+001
 2.635796481095702e+000	 4.154390347892453e+000	 1.018956208560513e+001
 2.590331172492117e+000	 4.182889862499549e+000	 1.016656617043314e+001
 2.544615767316093e+000	 4.210856770111573e+000	 1.014218743370008e+001
 2.498659465719495e+000	 4.238288092306640e+000	 1.011648576589078e+001
 2.452471506057029e+000	 4.265181058998053e+000	 1.008959593713293e+001
 2.406061159099123e+000	 4.291533108692035e+000	 1.006172140820139e+001
 2.874549697458392e+000	 4.025725144687676e+000	 1.028913030884212e+001
 2.830232215035975e+000	 4.057004395062370e+000	 1.027023834452527e+001
 2.785617810556359e+000	 4.087766243844597e+000	 1.025044993464931e+001
 2.740715454565916e+000	 4.118006659774780e+000	 1.023007020013275e+001
 2.695534185138858e+000	 4.147721816869036e+000	 1.020937058555860e+001
 2.650083102074919e+000	 4.176908095644997e+000	 1.018850891645025e+001
 2.604371361078938e+000	 4.205562084153206e+000	 1.016666756373702e+001
 2.558408167929848e+000	 4.233680578814339e+000	 1.014352569919947e+001
 2.512202772646477e+000	 4.261260585062753e+000	 1.011907619330270e+001
 2.465764463657566e+000	 4.288299317797230e+000	 1.009338857498859e+001
 2.419102561983274e+000	 4.314794201640081e+000	 1.006660279456120e+001
 2.890046241592473e+000	 4.047427614257718e+000	 1.028566336687086e+001
 2.845489845985365e+000	 4.078875489403574e+000	 1.026653604327630e+001
 2.800634927629938e+000	 4.109803173672677e+000	 1.024698600966523e+001
 2.755490505432348e+000	 4.140206614073119e+000	 1.022721793927340e+001
 2.710065666190625e+000	 4.170081963995317e+000	 1.020740454930288e+001
 2.664369558761083e+000	 4.199425584444442e+000	 1.018769002958348e+001
 2.618411388206523e+000	 4.228234045077378e+000	 1.016744529809697e+001
 2.572200409933783e+000	 4.256504125044451e+000	 1.014598026473345e+001
 2.525745923828095e+000	 4.284232813636448e+000	 1.012320808166975e+001
 2.479057268391665e+000	 4.311417310737797e+000	 1.009912108331483e+001
 2.432143814893820e+000	 4.338055027087065e+000	 1.007378451242079e+001
 2.905542580398644e+000	 4.069129796267132e+000	 1.028084107302660e+001
 2.860747274772420e+000	 4.100746293949762e+000	 1.026170083887648e+001
 2.815651845727925e+000	 4.131839811508338e+000	 1.024269603818020e+001
 2.770265360530464e+000	 4.162406274218904e+000	 1.022391476163126e+001
 2.724596954701256e+000	 4.192441814846460e+000	 1.020541561898746e+001
 2.678655826152555e+000	 4.221942774883970e+000	 1.018723299007920e+001
 2.632451229304480e+000	 4.250905705594900e+000	 1.016901047087178e+001
 2.585992469191129e+000	 4.279327368859455e+000	 1.014969650815987e+001
 2.539288895563485e+000	 4.307204737825070e+000	 1.012906972890828e+001
 2.492349896996571e+000	 4.334534997362013e+000	 1.010703355441740e+001
 2.445184895008223e+000	 4.361315544325288e+000	 1.008356754821524e+001
 2.314769056742235e+000	 4.128701387472490e+000	 1.006265728241227e+001
 2.269921375286927e+000	 4.153527231960959e+000	 1.003124862085950e+001
 2.224877713832085e+000	 4.177828517788692e+000	 1.000013809013199e+001
 2.179647050109439e+000	 4.201603386542996e+000	 9.969024451658850e+000
 2.134238370909847e+000	 4.224850179576208e+000	 9.937642763385817e+000
 2.088660666674487e+000	 4.247567437359612e+000	 9.905760409843110e+000
 2.042922926136644e+000	 4.269753898666802e+000	 9.873173208847069e+000
 1.997034131020160e+000	 4.291408499589530e+000	 9.839713594558681e+000
 1.951003250800436e+000	 4.312530372389279e+000	 9.808255394897874e+000
 1.904839237533661e+000	 4.333118844188069e+000	 9.780334634852647e+000
 1.858551020759794e+000	 4.353173435502172e+000	 9.754898198139127e+000
 2.327810870410583e+000	 4.151963213112461e+000	 1.006147654222303e+001
 2.282710509275002e+000	 4.176928930750042e+000	 1.003074163514660e+001
 2.237413063954258e+000	 4.201367134271600e+000	 1.000047695552616e+001
 2.191927562762203e+000	 4.225275954793839e+000	 9.970386810433901e+000
 2.146263043122858e+000	 4.248653724323997e+000	 9.940215011035319e+000
 2.100428546131129e+000	 4.271498975110131e+000	 9.909740747049295e+000
 2.054433111164407e+000	 4.293810438819873e+000	 9.878774540003992e+000
 2.008285770551150e+000	 4.315587045550745e+000	 9.847154298112184e+000
 1.961995544302361e+000	 4.336827922675255e+000	 9.816400462580230e+000
 1.915571434911689e+000	 4.357532393524317e+000	 9.789058523895422e+000
 1.869022422229697e+000	 4.377699975912727e+000	 9.764207453247135e+000
 2.340852693863087e+000	 4.175225056205249e+000	 1.005994935681775e+001
 2.295499652857716e+000	 4.200330647096901e+000	 1.002971169705200e+001
 2.249948423480745e+000	 4.224905768415010e+000	 1.000008568392070e+001
 2.204208084628181e+000	 4.248948540805665e+000	 9.970791626299560e+000
 2.158287724357237e+000	 4.272457286931000e+000	 9.941591042315363e+000
 2.112196434416586e+000	 4.295430530815843e+000	 9.912282377391927e+000
 2.065943304827756e+000	 4.317866997021875e+000	 9.882696806070536e+000
 2.019537418523853e+000	 4.339765609652384e+000	 9.852694141340379e+000
 1.972987846051516e+000	 4.361125491190895e+000	 9.822909090342378e+000
 1.926303640341891e+000	 4.381945961177231e+000	 9.796184069394359e+000
 1.879493831556170e+000	 4.402226534724702e+000	 9.771983771848205e+000
 2.353894504277207e+000	 4.198486876043155e+000	 1.005851284907720e+001
 2.308288783654709e+000	 4.223732340049086e+000	 1.002866296403126e+001
 2.262483770475299e+000	 4.248444379026888e+000	 9.999519678308435e+000
 2.216488594217080e+000	 4.272621103152047e+000	 9.970829652120910e+000
 2.170312393570410e+000	 4.296260825741616e+000	 9.942380972543930e+000
 2.123964310937661e+000	 4.319362062597204e+000	 9.913998714147610e+000
 2.077453486984449e+000	 4.341923531174544e+000	 9.885540591184686e+000
 2.030789055248469e+000	 4.363944149582701e+000	 9.856892725961071e+000
 1.983980136811941e+000	 4.385423035416232e+000	 9.828200753089162e+000
 1.937035835043450e+000	 4.406359504423868e+000	 9.802048008086947e+000
 1.889965230414766e+000	 4.426753069017446e+000	 9.778464347906109e+000
 2.366936278830408e+000	 4.221748631918484e+000	 1.005758419664129e+001
 2.321077879285621e+000	 4.247133968654143e+000	 1.002807839732722e+001
 2.275019083001672e+000	 4.271982924915198e+000	 9.999312269900562e+000
 2.228769070038613e+000	 4.296293600406571e+000	 9.971069072328415e+000
 2.182337029719798e+000	 4.320064299100253e+000	 9.943172233992467e+000
 2.135732155101159e+000	 4.343293528574663e+000	 9.915480757711075e+000
 2.088963637492245e+000	 4.365979999179609e+000	 9.887884723887156e+000
 2.042040661035199e+000	 4.388122623029948e+000	 9.860300922281155e+000
 1.994972397347675e+000	 4.409720512831291e+000	 9.832689186587926e+000
 1.947768000235550e+000	 4.430772980541286e+000	 9.806984015711196e+000
 1.900436600481028e+000	 4.451279535870308e+000	 9.783886358275648e+000
 2.379977994700152e+000	 4.245010283123540e+000	 1.005756079518053e+001
 2.333866917370093e+000	 4.270535491959618e+000	 1.002841995459157e+001
 2.287554339123615e+000	 4.295521364887907e+000	 9.999974929959107e+000
 2.241049490602490e+000	 4.319965991142814e+000	 9.972055723761359e+000
 2.194361611762826e+000	 4.343867665351315e+000	 9.944529795489890e+000
 2.147499946313880e+000	 4.367224886868670e+000	 9.917297303668619e+000
 2.100473736208902e+000	 4.390036358938799e+000	 9.890286463342537e+000
 2.053292216194242e+000	 4.412300987682381e+000	 9.863449045391350e+000
 2.005964608422755e+000	 4.434017880916101e+000	 9.836756041906842e+000
 1.958500117137376e+000	 4.455186346806544e+000	 9.811321878128066e+000
 1.910907923430507e+000	 4.475805892362633e+000	 9.788486109956050e+000
 2.393019629063903e+000	 4.268271788950621e+000	 1.005882042318099e+001
 2.346655875527765e+000	 4.293936869013054e+000	 1.003012878289393e+001
 2.300089516904883e+000	 4.319059657752982e+000	 1.000199748121495e+001
 2.253329834418422e+000	 4.343638233934361e+000	 9.974313315621126e+000
 2.206386118656918e+000	 4.367670882839205e+000	 9.946996380988901e+000
 2.159267663982628e+000	 4.391156095599678e+000	 9.919995150015872e+000
 2.111983762992177e+000	 4.414092568353845e+000	 9.893281685217879e+000
 2.064543701035798e+000	 4.436479201228258e+000	 9.866847009695526e+000
 2.016956750801220e+000	 4.458315097150689e+000	 9.840696661646863e+000
 1.969232166968113e+000	 4.479599560496698e+000	 9.815386665203501e+000
 1.921379180938751e+000	 4.500332095573771e+000	 9.792498191918577e+000
 2.406061159099123e+000	 4.291533108692035e+000	 1.006172140820139e+001
 2.359444731378276e+000	 4.317338058861998e+000	 1.003362541211963e+001
 2.312624594409227e+000	 4.342597762318389e+000	 1.000584830890272e+001
 2.265610079996117e+000	 4.367310287354788e+000	 9.978343648583500e+000
 2.218410529359498e+000	 4.391473909908327e+000	 9.951092687149068e+000
 2.171035287514208e+000	 4.415087112888135e+000	 9.924099303568390e+000
 2.123493697699830e+000	 4.438148585326483e+000	 9.897385067249005e+000
 2.075795095870067e+000	 4.460657221355828e+000	 9.870984483941866e+000
 2.027948805247110e+000	 4.482612119015089e+000	 9.844940445786236e+000
 1.979964130946943e+000	 4.504012578888810e+000	 9.819497907401832e+000
 1.931850354681308e+000	 4.524858102583068e+000	 9.796154631388406e+000
 2.419102561983274e+000	 4.314794201640081e+000	 1.006660279456120e+001
 2.372233462541266e+000	 4.340739020553997e+000	 1.003930994875617e+001
 2.325159549700400e+000	 4.366135637392091e+000	 1.001197457144201e+001
 2.277890205845286e+000	 4.390982109977674e+000	 9.984626833117062e+000
 2.230434822827990e+000	 4.415276704903087e+000	 9.957317599990201e+000
 2.182802796315420e+000	 4.439017896854491e+000	 9.930113185611409e+000
 2.135003520189619e+000	 4.462204367758439e+000	 9.903090274521862e+000
 2.087046381007250e+000	 4.484835005753348e+000	 9.876331046753656e+000
 2.038940752524460e+000	 4.506908903989322e+000	 9.849918529564972e+000
 1.990695990293051e+000	 4.528425359259936e+000	 9.823968775046421e+000
 1.942321426333725e+000	 4.549383870469876e+000	 9.799684054467964e+000
 2.432143814893820e+000	 4.338055027087065e+000	 1.007378451242079e+001
 2.385022046636375e+000	 4.364139713136596e+000	 1.004756227006830e+001
 2.337694360842154e+000	 4.389673241782057e+000	 1.002080241079270e+001
 2.290170190475642e+000	 4.414653660376604e+000	 9.993621507052055e+000
 2.242458978019816e+000	 4.439079226167888e+000	 9.966148410664882e+000
 2.194570169793070e+000	 4.462948405619200e+000	 9.938518836832481e+000
 2.146513210319303e+000	 4.486259873551447e+000	 9.910870144495991e+000
 2.098297536757547e+000	 4.509012512109074e+000	 9.883336342656889e+000
 2.049932573397310e+000	 4.531205409553421e+000	 9.856043349721677e+000
 2.001427726225622e+000	 4.552837858887135e+000	 9.829104530194309e+000
 1.952792377571550e+000	 4.573909356313535e+000	 9.803310850995704e+000
 2.445184895008223e+000	 4.361315544325288e+000	 1.008356754821524e+001
 2.397810461283245e+000	 4.387540095657339e+000	 1.005874221866098e+001
 2.350229005898243e+000	 4.413210534296250e+000	 1.003273716251026e+001
 2.302450012396893e+000	 4.438324897125158e+000	 1.000576505244160e+001
 2.254482973892402e+000	 4.462881432047135e+000	 9.978041030397954e+000
 2.206337387353960e+000	 4.486878597302712e+000	 9.949777121578631e+000
 2.158022747946639e+000	 4.510315060607235e+000	 9.921176871794277e+000
 2.109548543431156e+000	 4.533189698111257e+000	 9.892430238602337e+000
 2.060924248629700e+000	 4.555501593187415e+000	 9.863708763939185e+000
 2.012159319963839e+000	 4.577250035047465e+000	 9.835161053090502e+000
 1.963263190070333e+000	 4.598434517193399e+000	 9.807254343540414e+000
 1.858551020759794e+000	 4.353173435502172e+000	 9.754898198139127e+000
 1.812140533433459e+000	 4.372696747465477e+000	 9.730401066024179e+000
 1.765623585772689e+000	 4.391685636628613e+000	 9.705857084834312e+000
 1.719009016112672e+000	 4.410140196866269e+000	 9.681147709884506e+000
 1.672305620595792e+000	 4.428060708201620e+000	 9.656216821397649e+000
 1.625522148514564e+000	 4.445447634610878e+000	 9.631067138730117e+000
 1.578667297757052e+000	 4.462301621696776e+000	 9.605756444652062e+000
 1.531749710358706e+000	 4.478623494235840e+000	 9.580393604109297e+000
 1.484777968164295e+000	 4.494414253604442e+000	 9.555134369461317e+000
 1.437760588603414e+000	 4.509675075088747e+000	 9.530176971628634e+000
 1.390706020582740e+000	 4.524407305083716e+000	 9.505757503808916e+000
 1.869022422229697e+000	 4.377699975912727e+000	 9.764207453247135e+000
 1.822350450101617e+000	 4.397333285629620e+000	 9.740311032409529e+000
 1.775571417823013e+000	 4.416429161514878e+000	 9.716353676332320e+000
 1.728694213525794e+000	 4.434987697972089e+000	 9.692205696542532e+000
 1.681727682911336e+000	 4.453009176602114e+000	 9.667795608381899e+000
 1.634680624567194e+000	 4.470494063995283e+000	 9.643106758772635e+000
 1.587561785386848e+000	 4.487443009391756e+000	 9.618173737234500e+000
 1.540379856096478e+000	 4.503856842214986e+000	 9.593078553074893e+000
 1.493143466892461e+000	 4.519736569483268e+000	 9.567946569671701e+000
 1.445861183193073e+000	 4.535083373104527e+000	 9.542942194632687e+000
 1.398541501507601e+000	 4.549898607059533e+000	 9.518264332255772e+000
 1.879493831556170e+000	 4.402226534724702e+000	 9.771983771848205e+000
 1.832560374430207e+000	 4.421969842277713e+000	 9.748746754592892e+000
 1.785519257337162e+000	 4.441172704965378e+000	 9.725395097784139e+000
 1.738379418205699e+000	 4.459835217720181e+000	 9.701791146927569e+000
 1.691149752296236e+000	 4.477957663720669e+000	 9.677853420404693e+000
 1.643839107491403e+000	 4.495540512171281e+000	 9.653553420247711e+000
 1.596456279690134e+000	 4.512584415949610e+000	 9.628912194680893e+000
 1.549010008309380e+000	 4.529090209126037e+000	 9.603996633940721e+000
 1.501508971897164e+000	 4.545058904360769e+000	 9.578915489336056e+000
 1.453961783860482e+000	 4.560491690183496e+000	 9.553815113818127e+000
 1.406376988311272e+000	 4.575389928160809e+000	 9.528874930404548e+000
 1.889965230414766e+000	 4.426753069017446e+000	 9.778464347906109e+000
 1.842770288552342e+000	 4.446606374296626e+000	 9.755850804017793e+000
 1.795467086906851e+000	 4.465916223679773e+000	 9.733055907420479e+000
 1.748064613203672e+000	 4.484682712628255e+000	 9.709937011111389e+000
 1.700571812262214e+000	 4.502906125898312e+000	 9.686407784438332e+000
 1.652997581260138e+000	 4.520586935308485e+000	 9.662435177347280e+000
 1.605350765101789e+000	 4.537725797373788e+000	 9.638036100187982e+000
 1.557640151894845e+000	 4.554323550811517e+000	 9.613273799273497e+000
 1.509874468538931e+000	 4.570381213923803e+000	 9.588253917310139e+000
 1.462062376429719e+000	 4.585899981862074e+000	 9.563120236587963e+000
 1.414212467281752e+000	 4.600881223778737e+000	 9.538050111348406e+000
 1.900436600481028e+000	 4.451279535870308e+000	 9.783886358275648e+000
 1.852980174601130e+000	 4.471242838573231e+000	 9.761768659431027e+000
 1.805414889123797e+000	 4.490659674357717e+000	 9.739415891318309e+000
 1.757749781570994e+000	 4.509530139214029e+000	 9.716683182309629e+000
 1.709993846320989e+000	 4.527854519476072e+000	 9.693484280008075e+000
 1.662156029846346e+000	 4.545633289576499e+000	 9.669788640429889e+000
 1.614245226056694e+000	 4.562867109667728e+000	 9.645618191768222e+000
 1.566270271750309e+000	 4.579556823113962e+000	 9.621043751708147e+000
 1.518239942178290e+000	 4.595703453859223e+000	 9.596181086677063e+000
 1.470162946724858e+000	 4.611308203676678e+000	 9.571186610672459e+000
 1.422047924707039e+000	 4.626372449304512e+000	 9.546252730308149e+000
 1.910907923430507e+000	 4.475805892362633e+000	 9.788486109956050e+000
 1.863190014709682e+000	 4.495879191994395e+000	 9.766647832861928e+000
 1.815362646579719e+000	 4.515403013698873e+000	 9.744559183785283e+000
 1.767434906358946e+000	 4.534377453995210e+000	 9.722075627215995e+000
 1.719415837984281e+000	 4.552802800794987e+000	 9.699115694874422e+000
 1.671314437222977e+000	 4.570679531144938e+000	 9.675658172291852e+000
 1.623139646989731e+000	 4.588008308834881e+000	 9.651738914181738e+000
 1.574900352773205e+000	 4.604789981875901e+000	 9.627447266433679e+000
 1.526605378175765e+000	 4.621025579853892e+000	 9.602922082490824e+000
 1.478263480569974e+000	 4.636716311163719e+000	 9.578347331635325e+000
 1.429883346875132e+000	 4.651863560129327e+000	 9.553947306197818e+000
 1.921379180938751e+000	 4.500332095573771e+000	 9.792498191918577e+000
 1.873399791011110e+000	 4.520515391446991e+000	 9.770637001898020e+000
 1.825310341866332e+000	 4.540146198402894e+000	 9.748573395244824e+000
 1.777119970618811e+000	 4.559224613489509e+000	 9.726165524525971e+000
 1.728837770763812e+000	 4.577750926196077e+000	 9.703341189081300e+000
 1.680472787362979e+000	 4.595725616183406e+000	 9.680095092471284e+000
 1.632034012335777e+000	 4.613149350878689e+000	 9.656485678063293e+000
 1.583530379860966e+000	 4.630022982939862e+000	 9.632631519535194e+000
 1.534970761891884e+000	 4.646347547594662e+000	 9.608707253541073e+000
 1.486363963789142e+000	 4.662124259859619e+000	 9.584939052075242e+000
 1.437718720074028e+000	 4.677354511644374e+000	 9.561311998063422e+000
 1.931850354681308e+000	 4.524858102583068e+000	 9.796154631388406e+000
 1.883609485638523e+000	 4.545151393817888e+000	 9.773885148069407e+000
 1.835257957575353e+000	 4.564889185169442e+000	 9.751548747385581e+000
 1.786804957401870e+000	 4.584071574214639e+000	 9.729008411384474e+000
 1.738259628171301e+000	 4.602698852020376e+000	 9.706205467094456e+000
 1.689631064239296e+000	 4.620771500861516e+000	 9.683156889319204e+000
 1.640928306529715e+000	 4.638290191802595e+000	 9.659952126006878e+000
 1.592160337911029e+000	 4.655255782148378e+000	 9.636749422002083e+000
 1.543336078687173e+000	 4.671669312768397e+000	 9.613717416570458e+000
 1.494464382206439e+000	 4.687532005300789e+000	 9.590256393772227e+000
 1.445554030591727e+000	 4.702845259240851e+000	 9.566224120581277e+000
 1.942321426333725e+000	 4.549383870469876e+000	 9.799684054467964e+000
 1.893819080725033e+000	 4.569787155993960e+000	 9.776540701163473e+000
 1.845205476298500e+000	 4.589631930698173e+000	 9.753577215350417e+000
 1.796489849759405e+000	 4.608918292688313e+000	 9.730663337504609e+000
 1.747681393718469e+000	 4.627646534608913e+000	 9.707757957768045e+000
 1.698789251824880e+000	 4.645817141348874e+000	 9.684906439584232e+000
 1.649822514006424e+000	 4.663430787610048e+000	 9.662237405381436e+000
 1.600790211820826e+000	 4.680488335343982e+000	 9.639558127972906e+000
 1.551701313922159e+000	 4.696990831061952e+000	 9.616241804130523e+000
 1.502564721645938e+000	 4.712939503023648e+000	 9.592397634876591e+000
 1.453389264716227e+000	 4.728335758309947e+000	 9.568195214713006e+000
 1.952792377571550e+000	 4.573909356313535e+000	 9.803310850995704e+000
 1.904028558403749e+000	 4.594422634862071e+000	 9.778750689301436e+000
 1.855152880627489e+000	 4.614374391688748e+000	 9.754751676751530e+000
 1.806174630742699e+000	 4.633764725428240e+000	 9.731192026717382e+000
 1.757103050917036e+000	 4.652593930302719e+000	 9.708052001889929e+000
 1.707947334092676e+000	 4.670862493815090e+000	 9.685378751522769e+000
 1.658716619200785e+000	 4.688571094304491e+000	 9.662471324899290e+000
 1.609419986487792e+000	 4.705720598369203e+000	 9.639051614571159e+000
 1.560066452957369e+000	 4.722312058162185e+000	 9.615247912130320e+000
 1.510664967931714e+000	 4.738346708564613e+000	 9.591244181805749e+000
 1.461224408735526e+000	 4.753825964242861e+000	 9.567273691566118e+000
 1.963263190070333e+000	 4.598434517193399e+000	 9.807254343540414e+000
 1.914237900807782e+000	 4.619057787309097e+000	 9.780659894616758e+000
 1.865100153154038e+000	 4.639116524840820e+000	 9.755165067308912e+000
 1.815859283403033e+000	 4.658610828952133e+000	 9.730658045723551e+000
 1.766524583278723e+000	 4.677540995442822e+000	 9.706929253331630e+000
 1.717105295015634e+000	 4.695907514429774e+000	 9.683056150110948e+000
 1.667610606547677e+000	 4.713711067889371e+000	 9.658954562635937e+000
 1.618049646809361e+000	 4.730952527066571e+000	 9.634733238503763e+000
 1.568431481153329e+000	 4.747632949755954e+000	 9.610575288649427e+000
 1.518765106887845e+000	 4.763753577460098e+000	 9.586730932203302e+000
 1.469059448937622e+000	 4.779315832430783e+000	 9.563510885269000e+000
 1.390706020582740e+000	 4.524407305083716e+000	 9.505757503808916e+000
 1.343622639825983e+000	 4.538612457056611e+000	 9.481725737828356e+000
 1.296518743060277e+000	 4.552292205158868e+000	 9.458103777055690e+000
 1.249402546410591e+000	 4.565448384531957e+000	 9.434718041704841e+000
 1.202282182474620e+000	 4.578082989255348e+000	 9.411557556784274e+000
 1.155165696837306e+000	 4.590198169078671e+000	 9.388779489928536e+000
 1.108061044715827e+000	 4.601796226075082e+000	 9.366675020455480e+000
 1.060976087736485e+000	 4.612879611221272e+000	 9.345646575231907e+000
 1.013918590844767e+000	 4.623450920909602e+000	 9.326185991558345e+000
 9.668962193495476e-001	 4.633512893397807e+000	 9.308853948653406e+000
 9.199165361022297e-001	 4.643068405201682e+000	 9.294258140395282e+000
 1.398541501507601e+000	 4.549898607059533e+000	 9.518264332255772e+000
 1.351192844750042e+000	 4.564183793342687e+000	 9.493850486120012e+000
 1.303823556392736e+000	 4.577940615537889e+000	 9.469901592490601e+000
 1.256441898851738e+000	 4.591170919126122e+000	 9.446361955897082e+000
 1.209056050545214e+000	 4.603876709421853e+000	 9.423181296726201e+000
 1.161674102388338e+000	 4.616060148286781e+000	 9.400489132521376e+000
 1.114304054419369e+000	 4.627723550764354e+000	 9.378552267274106e+000
 1.066953812558384e+000	 4.638869381640500e+000	 9.357752458810332e+000
 1.019631185499927e+000	 4.649500251936107e+000	 9.338564898098516e+000
 9.723438817405630e-001	 4.659618915336746e+000	 9.321537795181056e+000
 9.250995067421182e-001	 4.669228264565003e+000	 9.307230241214786e+000
 1.406376988311272e+000	 4.575389928160809e+000	 9.528874930404548e+000
 1.358763055353852e+000	 4.589755148814242e+000	 9.504168731252884e+000
 1.311128375205806e+000	 4.603589045160167e+000	 9.480069372474254e+000
 1.263481256574304e+000	 4.616893473019093e+000	 9.456675922887476e+000
 1.215829923698024e+000	 4.629670448940495e+000	 9.433918979694919e+000
 1.168182512822402e+000	 4.641922146898158e+000	 9.411907131140300e+000
 1.120547068806811e+000	 4.653650894905825e+000	 9.390889042727590e+000
 1.072931541865139e+000	 4.664859171558671e+000	 9.371231613618942e+000
 1.025343784441017e+000	 4.675549602506138e+000	 9.352996831778722e+000
 9.777915482187325e-001	 4.685724956861633e+000	 9.335861046031454e+000
 9.302824812705676e-001	 4.695388143554562e+000	 9.320185041750138e+000
 1.414212467281752e+000	 4.600881223778737e+000	 9.538050111348406e+000
 1.366333258389628e+000	 4.615326478722449e+000	 9.513282837565996e+000
 1.318433186716127e+000	 4.629237449142049e+000	 9.489350887446106e+000
 1.270520607259488e+000	 4.642616001197560e+000	 9.466515314820214e+000
 1.222603790078849e+000	 4.655464162673450e+000	 9.444718217917650e+000
 1.174690916749864e+000	 4.667784119655579e+000	 9.424049063113044e+000
 1.126790076952975e+000	 4.679578213127977e+000	 9.404059699576044e+000
 1.078909265195829e+000	 4.690848935495056e+000	 9.384460443226541e+000
 1.031056377671107e+000	 4.701598927034792e+000	 9.365474513373943e+000
 9.832392092507680e-001	 4.711830972288415e+000	 9.347390606154375e+000
 9.354654506175086e-001	 4.721547996392132e+000	 9.330544897542854e+000
 1.422047924707039e+000	 4.626372449304512e+000	 9.546252730308149e+000
 1.373903440609585e+000	 4.640897738318490e+000	 9.521794543066022e+000
 1.325737978140340e+000	 4.654885782599884e+000	 9.498487406550238e+000
 1.277559938588484e+000	 4.668338458648202e+000	 9.476725890899793e+000
 1.229377637833485e+000	 4.681257805482885e+000	 9.455784189268584e+000
 1.181199302781088e+000	 4.693646021301822e+000	 9.435132210246861e+000
 1.133033067932675e+000	 4.705505460059298e+000	 9.414763726093899e+000
 1.084886972089534e+000	 4.716838627968922e+000	 9.394776565314036e+000
 1.036768955193264e+000	 4.727648179937162e+000	 9.375352849394989e+000
 9.886868553033817e-001	 4.737936915933035e+000	 9.356741103466742e+000
 9.406484057128736e-001	 4.747707777299493e+000	 9.339238585329413e+000
 1.429883346875132e+000	 4.651863560129327e+000	 9.553947306197818e+000
 1.381473588765937e+000	 4.666468882853535e+000	 9.530304697634401e+000
 1.333042736695088e+000	 4.680534000650019e+000	 9.507648865988248e+000
 1.284599238242489e+000	 4.694060800357712e+000	 9.485735479113394e+000
 1.236151455107731e+000	 4.707051332230970e+000	 9.464415497425812e+000
 1.187707659526438e+000	 4.719507806579667e+000	 9.443521605766630e+000
 1.139276030820732e+000	 4.731432590328278e+000	 9.423011264748046e+000
 1.090864652085332e+000	 4.742828203499540e+000	 9.402945358931746e+000
 1.042481507010559e+000	 4.753697315628352e+000	 9.383468572722386e+000
 9.941344768432852e-001	 4.764042742111435e+000	 9.364791664928143e+000
 9.458313374865937e-001	 4.773867440498423e+000	 9.347174151389673e+000
 1.437718720074028e+000	 4.677354511644374e+000	 9.561311998063422e+000
 1.389043689610899e+000	 4.692039867578767e+000	 9.537620922495053e+000
 1.340347449597012e+000	 4.706182058408798e+000	 9.514476189540730e+000
 1.291638493902699e+000	 4.719782981312768e+000	 9.492189092086438e+000
 1.242925230047383e+000	 4.732844697779877e+000	 9.470705965334215e+000
 1.194215975596280e+000	 4.745369430231895e+000	 9.449833368414041e+000
 1.145518954691963e+000	 4.757359558563401e+000	 9.429498626258805e+000
 1.096842294722301e+000	 4.768817616606179e+000	 9.409730523761347e+000
 1.048194023126060e+000	 4.779746288523450e+000	 9.390639855537305e+000
 9.995820643371901e-001	 4.790148405139555e+000	 9.372401905911694e+000
 9.510142368686003e-001	 4.800026940210695e+000	 9.355239514670611e+000
 1.445554030591727e+000	 4.702845259240851e+000	 9.566224120581277e+000
 1.396613729896686e+000	 4.717610647745360e+000	 9.542201846395379e+000
 1.347652104062751e+000	 4.731829910992570e+000	 9.518858859531353e+000
 1.298677693250309e+000	 4.745504956500063e+000	 9.496496212967831e+000
 1.249698950798238e+000	 4.758637856991776e+000	 9.475167926089890e+000
 1.200724239600978e+000	 4.771230847001283e+000	 9.454670440604319e+000
 1.151761828621185e+000	 4.783286319393156e+000	 9.434907007791558e+000
 1.102819889539521e+000	 4.794806821808104e+000	 9.415879042459832e+000
 1.053906493542836e+000	 4.805795053037559e+000	 9.397666881880973e+000
 1.005029608251809e+000	 4.816253859333341e+000	 9.380412513021369e+000
 9.561970947888254e-001	 4.826186230658090e+000	 9.364303052779256e+000
 1.453389264716227e+000	 4.728335758309947e+000	 9.568195214713006e+000
 1.404183696375512e+000	 4.743181178604491e+000	 9.544218688889059e+000
 1.354956687308949e+000	 4.757477513517681e+000	 9.521081721400165e+000
 1.305716823966517e+000	 4.771226680906276e+000	 9.499058434787759e+000
 1.256472605506095e+000	 4.784430764728837e+000	 9.478303259199096e+000
 1.207232440150896e+000	 4.797092011630610e+000	 9.458623075994410e+000
 1.158004641683218e+000	 4.809212827446026e+000	 9.439903010495183e+000
 1.108797426076070e+000	 4.820795773624587e+000	 9.422121721399659e+000
 1.059618908263956e+000	 4.831843563585775e+000	 9.405332404803245e+000
 1.010477099053852e+000	 4.842359059008737e+000	 9.389645627359100e+000
 9.613799021772006e-001	 4.852345266062382e+000	 9.375214171482268e+000
 1.461224408735526e+000	 4.753825964242861e+000	 9.567273691566118e+000
 1.411753575799593e+000	 4.768751415407334e+000	 9.543843281119582e+000
 1.362261186552246e+000	 4.783124821100482e+000	 9.521427723162212e+000
 1.312755873732517e+000	 4.796948109518096e+000	 9.500269859890150e+000
 1.263246182316752e+000	 4.810223375853232e+000	 9.480603831577216e+000
 1.213740565856400e+000	 4.822952878862653e+000	 9.462269315583322e+000
 1.164247382952878e+000	 4.835139037350504e+000	 9.445139144205786e+000
 1.114774893871027e+000	 4.846784426574895e+000	 9.429173717449498e+000
 1.065331257292489e+000	 4.857891774583191e+000	 9.414402288668015e+000
 1.015924527210033e+000	 4.868463958481681e+000	 9.400906149880315e+000
 9.665626499636570e-001	 4.878504000645349e+000	 9.388803858322868e+000
 1.469059448937622e+000	 4.779315832430783e+000	 9.563510885269000e+000
 1.419323354921142e+000	 4.794321313405073e+000	 9.541247849612921e+000
 1.369565589009284e+000	 4.808771788857316e+000	 9.520177921361183e+000
 1.319794830229507e+000	 4.822669197322208e+000	 9.500517491636041e+000
 1.270019669376003e+000	 4.836015645227129e+000	 9.482551929041371e+000
 1.220248605327854e+000	 4.848813403440198e+000	 9.466175452759952e+000
 1.170490041504984e+000	 4.861064903735074e+000	 9.451254319783523e+000
 1.120752282463471e+000	 4.872772735178298e+000	 9.437735051305287e+000
 1.071043530631503e+000	 4.883939640444909e+000	 9.425626037159836e+000
 1.021371883187063e+000	 4.894568512068120e+000	 9.414981114007464e+000
 9.717453290781267e-001	 4.904662388628768e+000	 9.405885220938796e+000
 9.199165361022297e-001	 4.643068405201682e+000	 9.294258140395282e+000
 8.729940319637027e-001	 4.652119147953821e+000	 9.283128189304096e+000
 8.261289947556909e-001	 4.660669736692415e+000	 9.275225393730290e+000
 7.793286506718566e-001	 4.668723442970105e+000	 9.269700275700647e+000
 7.326001138314011e-001	 4.676283661565609e+000	 9.264937336213379e+000
 6.859503841394185e-001	 4.683353906675523e+000	 9.259660423010176e+000
 6.393863452817467e-001	 4.689937808080498e+000	 9.252577662770134e+000
 5.929147628536167e-001	 4.696039107290805e+000	 9.242670208217326e+000
 5.465422826212124e-001	 4.701661653676148e+000	 9.231383854894531e+000
 5.002754289150674e-001	 4.706809400584463e+000	 9.220076194328094e+000
 4.541206031540581e-001	 4.711486401454396e+000	 9.209839616128011e+000
 9.250995067421182e-001	 4.669228264565003e+000	 9.307230241214786e+000
 8.779126330095247e-001	 4.678330000784436e+000	 9.295517865312680e+000
 8.307835499861416e-001	 4.686928765035166e+000	 9.285797703008075e+000
 7.837195245792679e-001	 4.695027847302339e+000	 9.277259506223311e+000
 7.367277109902949e-001	 4.702630661491456e+000	 9.269090719069656e+000
 6.898151485630030e-001	 4.709740741598712e+000	 9.260466488198206e+000
 6.429887597671178e-001	 4.716361737855574e+000	 9.250343868042743e+000
 5.962553483164153e-001	 4.722497412852646e+000	 9.237711163574589e+000
 5.496215974204857e-001	 4.728151637647651e+000	 9.223884961855033e+000
 5.030940681690798e-001	 4.733328387862384e+000	 9.210179974522232e+000
 4.566791980477860e-001	 4.738031739773277e+000	 9.197655124940285e+000
 9.302824812705676e-001	 4.695388143554562e+000	 9.320185041750138e+000
 8.828312377455569e-001	 4.704540873279440e+000	 9.306438942752454e+000
 8.354381087086975e-001	 4.713187813078358e+000	 9.294366705335870e+000
 7.881104017809557e-001	 4.721332271368975e+000	 9.283294267361555e+000
 7.408553112459433e-001	 4.728977681183592e+000	 9.272547689519712e+000
 6.936799158861584e-001	 4.736127596318019e+000	 9.261443205165133e+000
 6.465911769552440e-001	 4.742785687454572e+000	 9.249146032267335e+000
 5.995959362855495e-001	 4.748955738264194e+000	 9.234677159855458e+000
 5.527009145301018e-001	 4.754641641492658e+000	 9.219201530322431e+000
 5.059127095378959e-001	 4.759847395035628e+000	 9.203969972534317e+000
 4.592377948612595e-001	 4.764577098007343e+000	 9.189986927947759e+000
 9.354654506175086e-001	 4.721547996392132e+000	 9.330544897542854e+000
 8.877498375643832e-001	 4.730751719571417e+000	 9.315354875325934e+000
 8.400926627780265e-001	 4.739446834870298e+000	 9.301612675066444e+000
 7.925012745930337e-001	 4.747636669138935e+000	 9.288758839021865e+000
 7.449829073751983e-001	 4.755324674536411e+000	 9.276235683317751e+000
 6.975446793456998e-001	 4.762514424658144e+000	 9.263477461058306e+000
 6.501935905420603e-001	 4.769209610637267e+000	 9.249818706481820e+000
 6.029365209151680e-001	 4.775414037225054e+000	 9.234332298746143e+000
 5.557802285614493e-001	 4.781131618855298e+000	 9.218013343257928e+000
 5.087313480891106e-001	 4.786366375697531e+000	 9.202028560182660e+000
 4.617963891171837e-001	 4.791122429703765e+000	 9.187307684137004e+000
 9.406484057128736e-001	 4.747707777299493e+000	 9.339238585329413e+000
 8.926684238585889e-001	 4.756962493792949e+000	 9.323209908489847e+000
 8.447472040487978e-001	 4.765705784459295e+000	 9.308481233569371e+000
 7.968921353316155e-001	 4.773940994581147e+000	 9.294586357003077e+000
 7.491104921549121e-001	 4.781671595444322e+000	 9.281061722209353e+000
 7.014094321784405e-001	 4.788901180443782e+000	 9.267436770215431e+000
 6.537959942235011e-001	 4.795633461163436e+000	 9.253178488943515e+000
 6.062770963594178e-001	 4.801872263434824e+000	 9.237424560084079e+000
 5.588595341259174e-001	 4.807621523379713e+000	 9.220986078100136e+000
 5.115499788903188e-001	 4.812885283441428e+000	 9.204926206715935e+000
 4.643549763382630e-001	 4.817667688409712e+000	 9.190080540747713e+000
 9.458313374865937e-001	 4.773867440498423e+000	 9.347174151389673e+000
 8.975869880207581e-001	 4.783173150076618e+000	 9.330927280830016e+000
 8.494017243756795e-001	 4.791964615893656e+000	 9.315897056811497e+000
 8.012829763128158e-001	 4.800245201664535e+000	 9.301689400073617e+000
 7.532380583619357e-001	 4.808018397801718e+000	 9.287912974888107e+000
 7.052741676211949e-001	 4.815287817499627e+000	 9.274169801915752e+000
 6.573983816955008e-001	 4.822057192792848e+000	 9.260024485273426e+000
 6.096176567724465e-001	 4.828330370593107e+000	 9.244686223061777e+000
 5.619388258348950e-001	 4.834111308710037e+000	 9.228771681116710e+000
 5.143685970091161e-001	 4.839404071860662e+000	 9.213221798743724e+000
 4.669135520472022e-001	 4.844212827672348e+000	 9.198759391558880e+000
 9.510142368686003e-001	 4.800026940210695e+000	 9.355239514670611e+000
 9.025055214434749e-001	 4.809383642554999e+000	 9.339409823347106e+000
 8.540562156133406e-001	 4.818223283221691e+000	 9.324764463393358e+000
 8.056737898527479e-001	 4.826549244358029e+000	 9.310960559537845e+000
 7.573655987731208e-001	 4.834365035503002e+000	 9.297657301063303e+000
 7.091388789107771e-001	 4.841674289650374e+000	 9.284506892115781e+000
 6.610007466539944e-001	 4.848480759285287e+000	 9.271138753701635e+000
 6.129581963084021e-001	 4.854788312399506e+000	 9.256834273877390e+000
 5.650180982997706e-001	 4.860600928490404e+000	 9.242008729780947e+000
 5.171871975130977e-001	 4.865922694548567e+000	 9.227462949993758e+000
 4.694721117667061e-001	 4.870757801038845e+000	 9.213789127018355e+000
 9.561970947888254e-001	 4.826186230658090e+000	 9.364303052779256e+000
 9.074240155193247e-001	 4.835593925360676e+000	 9.349540541443485e+000
 8.587106696164492e-001	 4.844481740491709e+000	 9.335967985381378e+000
 8.100645682675256e-001	 4.852853076630551e+000	 9.323272991948400e+000
 7.614931061653197e-001	 4.860711462442573e+000	 9.311143779272976e+000
 7.130035592840015e-001	 4.868060550720722e+000	 9.299260539771170e+000
 6.646030827949162e-001	 4.874904114400522e+000	 9.287286735975465e+000
 6.162987091214318e-001	 4.881246042553618e+000	 9.274570800343250e+000
 5.680973461319333e-001	 4.887090336364949e+000	 9.261322783624213e+000
 5.200057754698587e-001	 4.892441105098485e+000	 9.248186301278434e+000
 4.720306510194797e-001	 4.897302562056368e+000	 9.235605876522826e+000
 9.613799021772006e-001	 4.852345266062382e+000	 9.375214171482268e+000
 9.123424616408908e-001	 4.861803952626233e+000	 9.362183180255936e+000
 8.633650782396743e-001	 4.870739941752016e+000	 9.350372922577787e+000
 8.144553038732636e-001	 4.879156652451032e+000	 9.339480955593935e+000
 7.656205733153840e-001	 4.887057632514837e+000	 9.329203219049411e+000
 7.168682019776821e-001	 4.894446554535366e+000	 9.319225888321089e+000
 6.682053838142009e-001	 4.901327211898328e+000	 9.309218104195372e+000
 6.196391893656831e-001	 4.907703514755048e+000	 9.298583373940598e+000
 5.711765639427719e-001	 4.913579485977810e+000	 9.287326723995863e+000
 5.228243259469946e-001	 4.918959257103752e+000	 9.275917811037388e+000
 4.745891653282275e-001	 4.923847064272091e+000	 9.264637243141966e+000
 9.665626499636570e-001	 4.878504000645349e+000	 9.388803858322868e+000
 9.172608512007584e-001	 4.888013678484246e+000	 9.378182773951243e+000
 8.680194333376842e-001	 4.896997841050922e+000	 9.368825880841913e+000
 8.188459889860752e-001	 4.905459925788396e+000	 9.360420331364249e+000
 7.697479930001649e-001	 4.913403499614191e+000	 9.352648658018342e+000
 7.207328002286328e-001	 4.920832254918997e+000	 9.345181192886361e+000
 6.718076434077829e-001	 4.927750005538484e+000	 9.337669382326640e+000
 6.229796311953038e-001	 4.934160682703394e+000	 9.329545419789033e+000
 5.742557463436753e-001	 4.940068330973122e+000	 9.320621083143898e+000
 5.256428440121004e-001	 4.945477104157705e+000	 9.311173036806945e+000
 4.771476502156546e-001	 4.950391261233177e+000	 9.301302531067993e+000
 9.717453290781267e-001	 4.904662388628768e+000	 9.405885220938796e+000
 9.221791755915124e-001	 4.914223057067300e+000	 9.398366179575428e+000
 8.726737267651474e-001	 4.923255392436735e+000	 9.392155295051882e+000
 8.232366159220749e-001	 4.931762850611571e+000	 9.386909128569661e+000
 7.738753579965146e-001	 4.939749017635035e+000	 9.382275844488488e+000
 7.245973472736680e-001	 4.947217605696317e+000	 9.377888273709646e+000
 6.754098552715974e-001	 4.954172449080763e+000	 9.373357891025945e+000
 6.263200287644418e-001	 4.960617500098262e+000	 9.368116574978735e+000
 5.773348879460326e-001	 4.966556824995019e+000	 9.361794363012130e+000
 5.284613247327714e-001	 4.971994599853685e+000	 9.354457407952502e+000
 4.797061012044656e-001	 4.976935106486797e+000	 9.346012966060188e+000
 4.541206031540581e-001	 4.711486401454396e+000	 9.209839616128011e+000
 4.080772015327535e-001	 4.715697402914556e+000	 9.201758332130822e+000
 3.621583901065020e-001	 4.719445912825525e+000	 9.196112885201973e+000
 3.163702891928225e-001	 4.722736264607184e+000	 9.192514780085157e+000
 2.707188886346127e-001	 4.725572876349514e+000	 9.190471803297726e+000
 2.252100469680970e-001	 4.727960246918568e+000	 9.189422301224798e+000
 1.798494907136974e-001	 4.729902952083058e+000	 9.188767069186216e+000
 1.346428137874790e-001	 4.731405640665302e+000	 9.187899112405294e+000
 8.959547703070339e-002	 4.732473030720187e+000	 9.186231524338673e+000
 4.471280785492915e-002	 4.733109905745613e+000	 9.183223711323176e+000
 0.000000000000000e+000	 4.733321110927781e+000	 9.178406175183429e+000
 4.566791980477860e-001	 4.738031739773277e+000	 9.197655124940285e+000
 4.103763798492342e-001	 4.742266466752271e+000	 9.187284223475135e+000
 3.641988538086734e-001	 4.746036096423838e+000	 9.179329193649531e+000
 3.181527747266120e-001	 4.749344986623094e+000	 9.173515248049672e+000
 2.722441661938205e-001	 4.752197580332298e+000	 9.169468271657467e+000
 2.264789197545892e-001	 4.754598401764884e+000	 9.166747939334389e+000
 1.808627941936064e-001	 4.756552052470238e+000	 9.164878460848291e+000
 1.354014149440857e-001	 4.758063207462942e+000	 9.163377226296253e+000
 9.010027361467005e-002	 4.759136611380218e+000	 9.161781608282240e+000
 4.496472763253237e-002	 4.759777074671015e+000	 9.159674159661558e+000
 0.000000000000000e+000	 4.759989469820151e+000	 9.156706427301916e+000
 4.592377948612595e-001	 4.764577098007343e+000	 9.189986927947759e+000
 4.126755598908816e-001	 4.768835550523108e+000	 9.178106751983073e+000
 3.662393190419614e-001	 4.772626299971281e+000	 9.168578861340412e+000
 3.199352615980169e-001	 4.775953728602225e+000	 9.161244179814599e+000
 2.737694448977094e-001	 4.778822304290480e+000	 9.155848555037814e+000
 2.277477934934148e-001	 4.781236576596879e+000	 9.152074649932134e+000
 1.818760984341048e-001	 4.783201172851484e+000	 9.149571481046404e+000
 1.361600166701595e-001	 4.784720794261155e+000	 9.147981888900450e+000
 9.060507057762055e-002	 4.785800212045455e+000	 9.146968207902289e+000
 4.521664759929164e-002	 4.786444263604397e+000	 9.146236384776771e+000
 0.000000000000000e+000	 4.786657848721423e+000	 9.145558774995511e+000
 4.617963891171837e-001	 4.791122429703765e+000	 9.187307684137004e+000
 4.149747376344187e-001	 4.795404607732642e+000	 9.174580130354068e+000
 3.682797822358820e-001	 4.799216476936393e+000	 9.164092261371037e+000
 3.217177466880528e-001	 4.802562443980587e+000	 9.155803124220478e+000
 2.752947220774370e-001	 4.805447001632019e+000	 9.149580804849519e+000
 2.290166659644504e-001	 4.807874724798890e+000	 9.145233025682046e+000
 1.828894016623039e-001	 4.809850266591901e+000	 9.142535412271386e+000
 1.369186176385007e-001	 4.811378354410160e+000	 9.141257726788698e+000
 9.110986703643810e-002	 4.812463786055542e+000	 9.141188347434966e+000
 4.546856731450907e-002	 4.813111425879084e+000	 9.142157253118688e+000
 0.000000000000000e+000	 4.813326200962827e+000	 9.144057752167079e+000
 4.643549763382630e-001	 4.817667688409712e+000	 9.190080540747713e+000
 4.172739090565695e-001	 4.821973591886458e+000	 9.177051578496876e+000
 3.703202398199511e-001	 4.825806580787716e+000	 9.166095366748747e+000
 3.235002268777351e-001	 4.829171086194194e+000	 9.157291906749050e+000
 2.768199950641603e-001	 4.832071625764875e+000	 9.150634220036416e+000
 2.302855349475726e-001	 4.834512799755250e+000	 9.146057581777965e+000
 1.839027021053153e-001	 4.836499287056594e+000	 9.143466448361208e+000
 1.376772165219094e-001	 4.838035841260179e+000	 9.142759389969003e+000
 9.161466210800583e-002	 4.839127286750117e+000	 9.143852319071549e+000
 4.572048633748675e-002	 4.839778514828407e+000	 9.146700284863808e+000
 0.000000000000000e+000	 4.839994479875598e+000	 9.151318081938053e+000
 4.669135520472022e-001	 4.844212827672348e+000	 9.198759391558880e+000
 4.195730701340568e-001	 4.848542456490133e+000	 9.185861514968442e+000
 3.723606882236845e-001	 4.852396564993790e+000	 9.174809871659070e+000
 3.252826990480796e-001	 4.855779608679062e+000	 9.165808677400115e+000
 2.783452611890366e-001	 4.858696130097009e+000	 9.158979018449584e+000
 2.315543982226583e-001	 4.861150754850295e+000	 9.154386647810734e+000
 1.849159979902502e-001	 4.863148187610658e+000	 9.152067503964890e+000
 1.384358119931858e-001	 4.864693208161427e+000	 9.152051276159909e+000
 9.211945490920699e-002	 4.865790667468827e+000	 9.154383319362070e+000
 4.597240422752683e-002	 4.866445483785694e+000	 9.159145199878109e+000
 0.000000000000000e+000	 4.866662638790970e+000	 9.166474129707700e+000
 4.694721117667061e-001	 4.870757801038845e+000	 9.213789127018355e+000
 4.218722168436042e-001	 4.875111155049245e+000	 9.201343742425804e+000
 3.744011238765984e-001	 4.878986383023155e+000	 9.190453309010650e+000
 3.270651600801019e-001	 4.882387964871204e+000	 9.181449957204524e+000
 2.798705177832233e-001	 4.885320468036373e+000	 9.174586409310169e+000
 2.328232535695840e-001	 4.887788543468357e+000	 9.170062263269015e+000
 1.859292875442203e-001	 4.889796921619201e+000	 9.168048030277696e+000
 1.391944027251300e-001	 4.891350408464121e+000	 9.168707264063386e+000
 9.262424455692471e-002	 4.892453881551311e+000	 9.172217097437486e+000
 4.622432054393138e-002	 4.893112286084270e+000	 9.178787478407784e+000
 0.000000000000000e+000	 4.893330631040176e+000	 9.188679373937294e+000
 4.720306510194797e-001	 4.897302562056368e+000	 9.235605876522826e+000
 4.241713451619351e-001	 4.901679641069377e+000	 9.223825627316748e+000
 3.764415432082082e-001	 4.905575988344354e+000	 9.213239164398001e+000
 3.288476068548179e-001	 4.908996108206632e+000	 9.204310683425295e+000
 2.813957621778775e-001	 4.911944592990930e+000	 9.197428566720248e+000
 2.340920987682267e-001	 4.914426118993778e+000	 9.192930076538019e+000
 1.869425689943367e-001	 4.916445442447324e+000	 9.191123836811959e+000
 1.399529873905422e-001	 4.918007395518488e+000	 9.192310455299896e+000
 9.312903016804217e-002	 4.919116882337213e+000	 9.196801614607242e+000
 4.647623484600252e-002	 4.919778875057468e+000	 9.204937935943931e+000
 0.000000000000000e+000	 4.919998409954449e+000	 9.217105893992921e+000
 4.745891653282275e-001	 4.923847064272091e+000	 9.264637243141966e+000
 4.264704510657726e-001	 4.928247868056106e+000	 9.253628274024377e+000
 3.784819426480304e-001	 4.932165334425927e+000	 9.243376986616216e+000
 3.306300362532432e-001	 4.935603992121361e+000	 9.234484253495751e+000
 2.829209917041566e-001	 4.938568458368637e+000	 9.227478604182846e+000
 2.353609315984630e-001	 4.941063434810887e+000	 9.222839247265071e+000
 1.879558405677110e-001	 4.943093703460129e+000	 9.221016918978620e+000
 1.407115646622226e-001	 4.944664122674740e+000	 9.222452924681811e+000
 9.363381085944257e-002	 4.945779623166172e+000	 9.227596714906744e+000
 4.672814669304236e-002	 4.946445204038611e+000	 9.236922311731735e+000
 0.000000000000000e+000	 4.946665928865022e+000	 9.250943874408794e+000
 4.771476502156546e-001	 4.950391261233177e+000	 9.301302531067993e+000
 4.287695305318403e-001	 4.954815789515013e+000	 9.291066693672326e+000
 3.805223186255805e-001	 4.958754374736414e+000	 9.281072494855930e+000
 3.324124451563934e-001	 4.962211570051403e+000	 9.272062567742124e+000
 2.844462036932180e-001	 4.965192017577452e+000	 9.264710550093724e+000
 2.366297498401695e-001	 4.967700444304020e+000	 9.259642351967875e+000
 1.889691004914545e-001	 4.969741658022721e+000	 9.257455291263552e+000
 1.414701332129713e-001	 4.971320543283099e+000	 9.258735478515426e+000
 9.413858574800907e-002	 4.972442057377833e+000	 9.264073806187994e+000
 4.698005564435299e-002	 4.973111226361030e+000	 9.274080870417063e+000
 0.000000000000000e+000	 4.973333141103128e+000	 9.289401124961028e+000
 4.797061012044656e-001	 4.976935106486797e+000	 9.346012966060188e+000
 4.310685795368616e-001	 4.981383358951680e+000	 9.336449967788125e+000
 3.825626675703746e-001	 4.985343062744359e+000	 9.326527682701924e+000
 3.341948304452843e-001	 4.988818795432774e+000	 9.317136070935620e+000
 2.859713954762189e-001	 4.991815224025334e+000	 9.309099324169589e+000
 2.378985512732232e-001	 4.994337100857515e+000	 9.303195292764981e+000
 1.899823469926789e-001	 4.996389259500201e+000	 9.300172825792199e+000
 1.422286917155884e-001	 4.997976610693784e+000	 9.300767420635333e+000
 9.464335395062488e-002	 4.999104138311836e+000	 9.305715551363759e+000
 4.723196125923654e-002	 4.999776895358053e+000	 9.315768016344455e+000
 0.000000000000000e+000	 5.000000000000000e+000	 9.331702615966329e+000
