patch_n	x	y	stress_yy
0	 0.000000000000000e+000	 0.000000000000000e+000	 2.588823038814385e-001
0	 0.000000000000000e+000	 6.666714722864756e-002	 6.619141658038175e-002
0	 0.000000000000000e+000	 1.333351778131789e-001	-6.891549206085686e-002
0	 0.000000000000000e+000	 2.000039750814772e-001	-1.513167783412915e-001
0	 0.000000000000000e+000	 2.666734223614256e-001	-1.858903534817162e-001
0	 0.000000000000000e+000	 3.333434029809069e-001	-1.775136836818477e-001
0	 0.000000000000000e+000	 4.000138002678044e-001	-1.310637901657813e-001
0	 0.000000000000000e+000	 4.666844975500011e-001	-5.141724921576536e-002
0	 0.000000000000000e+000	 5.333553781553803e-001	 5.654980780570523e-002
0	 0.000000000000000e+000	 6.000263254118248e-001	 1.879616944454752e-001
0	 0.000000000000000e+000	 6.666972226472177e-001	 3.379431691609947e-001
0	 6.666714722864756e-002	 0.000000000000000e+000	 2.776312725637538e-001
0	 6.666714722864756e-002	 6.666714722864756e-002	 1.022007438164818e-001
0	 6.666714722864754e-002	 1.333351778131789e-001	-2.376032322307665e-002
0	 6.666714722864754e-002	 2.000039750814772e-001	-1.040973439755996e-001
0	 6.666714722864757e-002	 2.666734223614255e-001	-1.426553426174574e-001
0	 6.666714722864758e-002	 3.333434029809069e-001	-1.432789521310515e-001
0	 6.666714722864756e-002	 4.000138002678045e-001	-1.098124143448805e-001
0	 6.666714722864756e-002	 4.666844975500011e-001	-4.609957996333747e-002
0	 6.666714722864754e-002	 5.333553781553803e-001	 4.401609141376069e-002
0	 6.666714722864756e-002	 6.000263254118246e-001	 1.566915312819114e-001
0	 6.666714722864756e-002	 6.666972226472178e-001	 2.880840622329305e-001
0	 1.333351778131789e-001	 0.000000000000000e+000	 2.578274080115644e-001
0	 1.333351778131789e-001	 6.666714722864754e-002	 1.100616306344578e-001
0	 1.333351778131789e-001	 1.333351778131789e-001	 2.212447063172423e-003
0	 1.333351778131789e-001	 2.000039750814772e-001	-6.863949142125740e-002
0	 1.333351778131789e-001	 2.666734223614256e-001	-1.054132141232019e-001
0	 1.333351778131790e-001	 3.333434029809070e-001	-1.110274309735450e-001
0	 1.333351778131789e-001	 4.000138002678044e-001	-8.840053256240793e-002
0	 1.333351778131790e-001	 4.666844975500012e-001	-4.045059016348811e-002
0	 1.333351778131789e-001	 5.333553781553801e-001	 2.990464424998439e-002
0	 1.333351778131789e-001	 6.000263254118247e-001	 1.197477379976721e-001
0	 1.333351778131789e-001	 6.666972226472177e-001	 2.261615776929372e-001
0	 2.000039750814772e-001	 0.000000000000000e+000	 2.090576503480211e-001
0	 2.000039750814773e-001	 6.666714722864757e-002	 9.612169815748557e-002
0	 2.000039750814772e-001	 1.333351778131789e-001	 1.273877203172050e-002
0	 2.000039750814772e-001	 2.000039750814772e-001	-4.319131240486453e-002
0	 2.000039750814773e-001	 2.666734223614256e-001	-7.376850334686382e-002
0	 2.000039750814773e-001	 3.333434029809069e-001	-8.109251283821307e-002
0	 2.000039750814773e-001	 4.000138002678043e-001	-6.726281679632591e-002
0	 2.000039750814773e-001	 4.666844975500011e-001	-3.437865503003078e-002
0	 2.000039750814772e-001	 5.333553781553803e-001	 1.546096874868988e-002
0	 2.000039750814772e-001	 6.000263254118247e-001	 8.015728691915884e-002
0	 2.000039750814772e-001	 6.666972226472175e-001	 1.576117679526604e-001
0	 2.666734223614256e-001	 0.000000000000000e+000	 1.409088302102179e-001
0	 2.666734223614255e-001	 6.666714722864758e-002	 6.672847256793940e-002
0	 2.666734223614255e-001	 1.333351778131789e-001	 1.155452741120280e-002
0	 2.666734223614255e-001	 2.000039750814772e-001	-2.600095695582012e-002
0	 2.666734223614255e-001	 2.666734223614256e-001	-4.732578409353658e-002
0	 2.666734223614255e-001	 3.333434029809069e-001	-5.380760944583803e-002
0	 2.666734223614255e-001	 4.000138002678043e-001	-4.683394035511522e-002
0	 2.666734223614255e-001	 4.666844975500011e-001	-2.779213607338611e-002
0	 2.666734223614255e-001	 5.333553781553801e-001	 1.930592230465045e-003
0	 2.666734223614257e-001	 6.000263254118248e-001	 4.094718146733514e-002
0	 2.666734223614256e-001	 6.666972226472175e-001	 8.787071662843697e-002
0	 3.333434029809069e-001	 0.000000000000000e+000	 6.296766876339981e-002
0	 3.333434029809069e-001	 6.666714722864756e-002	 2.822938511986692e-002
0	 3.333434029809069e-001	 1.333351778131789e-001	 2.395511435272866e-003
0	 3.333434029809069e-001	 2.000039750814772e-001	-1.531663339870790e-002
0	 3.333434029809070e-001	 2.666734223614256e-001	-2.568966862061820e-002
0	 3.333434029809070e-001	 3.333434029809070e-001	-2.950615160691326e-002
0	 3.333434029809069e-001	 4.000138002678044e-001	-2.754857787803028e-002
0	 3.333434029809068e-001	 4.666844975500011e-001	-2.059938110283507e-002
0	 3.333434029809070e-001	 5.333553781553804e-001	-9.440933101443807e-003
0	 3.333434029809069e-001	 6.000263254118247e-001	 5.144456153577739e-003
0	 3.333434029809068e-001	 6.666972226472177e-001	 2.237453853763876e-002
0	 4.000138002678044e-001	 0.000000000000000e+000	-1.517922228770530e-002
0	 4.000138002678045e-001	 6.666714722864756e-002	-1.302822785102693e-002
0	 4.000138002678044e-001	 1.333351778131789e-001	-1.100255514921867e-002
0	 4.000138002678044e-001	 2.000039750814772e-001	-9.386608347212319e-003
0	 4.000138002678043e-001	 2.666734223614255e-001	-8.464807633947292e-003
0	 4.000138002678042e-001	 3.333434029809068e-001	-8.521589219959054e-003
0	 4.000138002678044e-001	 4.000138002678044e-001	-9.841405335388730e-003
0	 4.000138002678044e-001	 4.666844975500012e-001	-1.270872422841299e-002
0	 4.000138002678043e-001	 5.333553781553801e-001	-1.740803016409480e-002
0	 4.000138002678045e-001	 6.000263254118248e-001	-2.422382342365410e-002
0	 4.000138002678044e-001	 6.666972226472177e-001	-3.344062030415973e-002
0	 4.666844975500011e-001	 0.000000000000000e+000	-8.394534069042736e-002
0	 4.666844975500011e-001	 6.666714722864756e-002	-5.069712491988953e-002
0	 4.666844975500012e-001	 1.333351778131790e-001	-2.490402907607990e-002
0	 4.666844975500011e-001	 2.000039750814772e-001	-6.459206699565130e-003
0	 4.666844975500011e-001	 2.666734223614255e-001	 4.744109715051726e-003
0	 4.666844975500011e-001	 3.333434029809069e-001	 8.812608729661123e-003
0	 4.666844975500012e-001	 4.000138002678044e-001	 5.852899971103925e-003
0	 4.666844975500012e-001	 4.666844975500012e-001	-4.028485862444246e-003
0	 4.666844975500011e-001	 5.333553781553803e-001	-2.072509699716046e-002
0	 4.666844975500011e-001	 6.000263254118247e-001	-4.413056058133408e-002
0	 4.666844975500011e-001	 6.666972226472175e-001	-7.413858268519774e-002
0	 5.333553781553803e-001	 0.000000000000000e+000	-1.337442936385684e-001
0	 5.333553781553804e-001	 6.666714722864757e-002	-7.843015956772008e-002
0	 5.333553781553803e-001	 1.333351778131789e-001	-3.557334455566751e-002
0	 5.333553781553804e-001	 2.000039750814772e-001	-4.782811635521684e-003
0	 5.333553781553801e-001	 2.666734223614254e-001	 1.433235583121412e-002
0	 5.333553781553804e-001	 3.333434029809069e-001	 2.216295417042318e-002
0	 5.333553781553803e-001	 4.000138002678044e-001	 1.909965940799447e-002
0	 5.333553781553803e-001	 4.666844975500012e-001	 5.533027279283634e-003
0	 5.333553781553803e-001	 5.333553781553803e-001	-1.814650676458406e-002
0	 5.333553781553804e-001	 6.000263254118249e-001	-5.154862755356815e-002
0	 5.333553781553804e-001	 6.666972226472178e-001	-9.428314019872468e-002
0	 6.000263254118248e-001	 0.000000000000000e+000	-1.549897977696908e-001
0	 6.000263254118249e-001	 6.666714722864756e-002	-8.988028017886213e-002
0	 6.000263254118247e-001	 1.333351778131789e-001	-3.927501327281044e-002
0	 6.000263254118247e-001	 2.000039750814773e-001	-2.605864614867630e-003
0	 6.000263254118248e-001	 2.666734223614256e-001	 2.069516467647138e-002
0	 6.000263254118247e-001	 3.333434029809069e-001	 3.119593994482387e-002
0	 6.000263254118248e-001	 4.000138002678045e-001	 2.946419300968765e-002
0	 6.000263254118248e-001	 4.666844975500011e-001	 1.606752217670441e-002
0	 6.000263254118248e-001	 5.333553781553803e-001	-8.426607755582983e-003
0	 6.000263254118246e-001	 6.000263254118247e-001	-4.345086549247727e-002
0	 6.000263254118246e-001	 6.666972226472174e-001	-8.843805324337720e-002
0	 6.666972226472177e-001	 0.000000000000000e+000	-1.380956791652775e-001
0	 6.666972226472178e-001	 6.666714722864757e-002	-7.870053004098701e-002
0	 6.666972226472178e-001	 1.333351778131790e-001	-3.227362438676756e-002
0	 6.666972226472177e-001	 2.000039750814772e-001	 1.823134622544853e-003
0	 6.666972226472178e-001	 2.666734223614256e-001	 2.422773176967825e-002
0	 6.666972226472175e-001	 3.333434029809068e-001	 3.557803980906096e-002
0	 6.666972226472178e-001	 4.000138002678045e-001	 3.651181947801668e-002
0	 6.666972226472175e-001	 4.666844975500011e-001	 2.766671950501789e-002
0	 6.666972226472178e-001	 5.333553781553804e-001	 9.680276615000137e-003
0	 6.666972226472175e-001	 6.000263254118247e-001	-1.681008446826561e-002
0	 6.666972226472177e-001	 6.666972226472177e-001	-5.116705102273895e-002
0	 0.000000000000000e+000	 6.666972226472177e-001	 3.379431691609945e-001
0	 0.000000000000000e+000	 7.333579753122048e-001	 4.012616324043412e-001
0	 0.000000000000000e+000	 8.000185779984418e-001	 3.043239251894675e-001
0	 0.000000000000000e+000	 8.666790473703455e-001	 8.964356131338157e-002
0	 0.000000000000000e+000	 9.333394000923322e-001	-2.002656842957371e-001
0	 0.000000000000000e+000	 9.999996528288190e-001	-5.228897755740649e-001
0	 0.000000000000000e+000	 1.066659822244222e+000	-8.357144153186360e-001
0	 0.000000000000000e+000	 1.133319925002959e+000	-1.096225045184828e+000
0	 0.000000000000000e+000	 1.199979977769445e+000	-1.261906845684827e+000
0	 0.000000000000000e+000	 1.266639997208098e+000	-1.290244736187062e+000
0	 0.000000000000000e+000	 1.333299999983334e+000	-1.138723374916635e+000
0	 6.666714722864756e-002	 6.666972226472178e-001	 2.880840622329304e-001
0	 6.666714722864756e-002	 7.333579753122048e-001	 3.411361101729846e-001
0	 6.666714722864753e-002	 8.000185779984416e-001	 2.462276735534036e-001
0	 6.666714722864756e-002	 8.666790473703454e-001	 4.061015180812592e-002
0	 6.666714722864753e-002	 9.333394000923322e-001	-2.384648113779208e-001
0	 6.666714722864756e-002	 9.999996528288193e-001	-5.537453280646574e-001
0	 6.666714722864758e-002	 1.066659822244223e+000	-8.679792660536082e-001
0	 6.666714722864756e-002	 1.133319925002959e+000	-1.143914248885572e+000
0	 6.666714722864757e-002	 1.199979977769445e+000	-1.344297655839210e+000
0	 6.666714722864756e-002	 1.266639997208098e+000	-1.431876621930541e+000
0	 6.666714722864757e-002	 1.333299999983334e+000	-1.369398037913381e+000
0	 1.333351778131789e-001	 6.666972226472177e-001	 2.261615776929372e-001
0	 1.333351778131789e-001	 7.333579753122047e-001	 2.656353155787899e-001
0	 1.333351778131790e-001	 8.000185779984420e-001	 1.781660337548091e-001
0	 1.333351778131790e-001	 8.666790473703455e-001	-3.952261178091651e-003
0	 1.333351778131789e-001	 9.333394000923321e-001	-2.484253489040544e-001
0	 1.333351778131789e-001	 9.999996528288190e-001	-5.229587953886592e-001
0	 1.333351778131789e-001	 1.066659822244222e+000	-7.952579528760989e-001
0	 1.333351778131790e-001	 1.133319925002959e+000	-1.033027959887173e+000
0	 1.333351778131789e-001	 1.199979977769445e+000	-1.203973741218049e+000
0	 1.333351778131789e-001	 1.266639997208098e+000	-1.275800007939889e+000
0	 1.333351778131789e-001	 1.333299999983334e+000	-1.216211257399180e+000
0	 2.000039750814772e-001	 6.666972226472175e-001	 1.576117679526604e-001
0	 2.000039750814773e-001	 7.333579753122047e-001	 1.820024972666088e-001
0	 2.000039750814773e-001	 8.000185779984420e-001	 1.073588403078811e-001
0	 2.000039750814772e-001	 8.666790473703457e-001	-3.867791661556750e-002
0	 2.000039750814772e-001	 9.333394000923323e-001	-2.284663149269926e-001
0	 2.000039750814773e-001	 9.999996528288193e-001	-4.343647237779590e-001
0	 2.000039750814772e-001	 1.066659822244222e+000	-6.287313400460881e-001
0	 2.000039750814772e-001	 1.133319925002959e+000	-7.839241883334460e-001
0	 2.000039750814773e-001	 1.199979977769445e+000	-8.723011209655844e-001
0	 2.000039750814772e-001	 1.266639997208098e+000	-8.662198179912188e-001
0	 2.000039750814772e-001	 1.333299999983334e+000	-7.380377871825612e-001
0	 2.666734223614256e-001	 6.666972226472175e-001	 8.787071662843694e-002
0	 2.666734223614256e-001	 7.333579753122046e-001	 9.748092869662184e-002
0	 2.666734223614256e-001	 8.000185779984419e-001	 4.102594213357305e-002
0	 2.666734223614256e-001	 8.666790473703455e-001	-5.820105029528203e-002
0	 2.666734223614256e-001	 9.333394000923322e-001	-1.769067331662315e-001
0	 2.666734223614255e-001	 9.999996528288190e-001	-2.917976683952284e-001
0	 2.666734223614254e-001	 1.066659822244222e+000	-3.795802952363022e-001
0	 2.666734223614256e-001	 1.133319925002959e+000	-4.169609302804191e-001
0	 2.666734223614256e-001	 1.199979977769445e+000	-3.806457674548351e-001
0	 2.666734223614255e-001	 1.266639997208098e+000	-2.473408780228557e-001
0	 2.666734223614255e-001	 1.333299999983334e+000	 6.247789415897209e-003
0	 3.333434029809068e-001	 6.666972226472177e-001	 2.237453853763876e-002
0	 3.333434029809069e-001	 7.333579753122047e-001	 1.931390814223670e-002
0	 3.333434029809068e-001	 8.000185779984416e-001	-1.361279744050153e-002
0	 3.333434029809069e-001	 8.666790473703455e-001	-5.715589482730373e-002
0	 3.333434029809069e-001	 9.333394000923321e-001	-9.206563300571016e-002
0	 3.333434029809070e-001	 9.999996528288190e-001	-9.909219333295638e-002
0	 3.333434029809070e-001	 1.066659822244223e+000	-5.898568953511107e-002
0	 3.333434029809070e-001	 1.133319925002959e+000	 4.750383229353583e-002
0	 3.333434029809069e-001	 1.199979977769445e+000	 2.396263936908241e-001
0	 3.333434029809069e-001	 1.266639997208098e+000	 5.366320838268268e-001
0	 3.333434029809068e-001	 1.333299999983334e+000	 9.577710595037068e-001
0	 4.000138002678044e-001	 6.666972226472177e-001	-3.344062030415973e-002
0	 4.000138002678045e-001	 7.333579753122047e-001	-4.525524131135950e-002
0	 4.000138002678044e-001	 8.000185779984420e-001	-4.933750067978454e-002
0	 4.000138002678044e-001	 8.666790473703455e-001	-3.017667963910866e-002
0	 4.000138002678044e-001	 9.333394000923323e-001	 2.773795050824976e-002
0	 4.000138002678045e-001	 9.999996528288192e-001	 1.399171283872777e-001
0	 4.000138002678045e-001	 1.066659822244223e+000	 3.218716025504753e-001
0	 4.000138002678043e-001	 1.133319925002959e+000	 5.891121314779342e-001
0	 4.000138002678044e-001	 1.199979977769445e+000	 9.571494835773660e-001
0	 4.000138002678043e-001	 1.266639997208098e+000	 1.441494437184116e+000
0	 4.000138002678044e-001	 1.333299999983334e+000	 2.057657780561104e+000
0	 4.666844975500011e-001	 6.666972226472175e-001	-7.413858268519774e-002
0	 4.666844975500011e-001	 7.333579753122047e-001	-8.898317176799830e-002
0	 4.666844975500011e-001	 8.000185779984419e-001	-5.892827544211120e-002
0	 4.666844975500011e-001	 8.666790473703454e-001	 2.810236902618212e-002
0	 4.666844975500011e-001	 9.333394000923323e-001	 1.841849766688489e-001
0	 4.666844975500011e-001	 9.999996528288191e-001	 4.213957148152950e-001
0	 4.666844975500010e-001	 1.066659822244222e+000	 7.518107030917415e-001
0	 4.666844975500011e-001	 1.133319925002959e+000	 1.187506013420770e+000
0	 4.666844975500011e-001	 1.199979977769446e+000	 1.740557670021050e+000
0	 4.666844975500012e-001	 1.266639997208098e+000	 2.423041649407256e+000
0	 4.666844975500011e-001	 1.333299999983334e+000	 3.247033880390148e+000
0	 5.333553781553804e-001	 6.666972226472178e-001	-9.428314019872468e-002
0	 5.333553781553803e-001	 7.333579753122047e-001	-1.046265105206749e-001
0	 5.333553781553803e-001	 8.000185779984419e-001	-3.516521517667056e-002
0	 5.333553781553804e-001	 8.666790473703456e-001	 1.230470281116493e-001
0	 5.333553781553801e-001	 9.333394000923323e-001	 3.789563991105674e-001
0	 5.333553781553803e-001	 9.999996528288189e-001	 7.415089750725838e-001
0	 5.333553781553803e-001	 1.066659822244223e+000	 1.219650730735100e+000
0	 5.333553781553803e-001	 1.133319925002959e+000	 1.822327538319488e+000
0	 5.333553781553801e-001	 1.199979977769445e+000	 2.558485167530541e+000
0	 5.333553781553804e-001	 1.266639997208098e+000	 3.437069285556301e+000
0	 5.333553781553803e-001	 1.333299999983334e+000	 4.467025457068292e+000
0	 6.000263254118246e-001	 6.666972226472174e-001	-8.843805324337720e-002
0	 6.000263254118249e-001	 7.333579753122049e-001	-8.494186005104414e-002
0	 6.000263254118247e-001	 8.000185779984418e-001	 2.917160107741355e-002
0	 6.000263254118247e-001	 8.666790473703452e-001	 2.600230777485065e-001
0	 6.000263254118248e-001	 9.333394000923323e-001	 6.137331658107781e-001
0	 6.000263254118247e-001	 9.999996528288192e-001	 1.096422309352316e+000
0	 6.000263254118247e-001	 1.066659822244223e+000	 1.714210800698838e+000
0	 6.000263254118248e-001	 1.133319925002959e+000	 2.473218780412335e+000
0	 6.000263254118247e-001	 1.199979977769445e+000	 3.379566237290302e+000
0	 6.000263254118246e-001	 1.266639997208098e+000	 4.439373008365521e+000
0	 6.000263254118247e-001	 1.333299999983334e+000	 5.658758778906408e+000
0	 6.666972226472177e-001	 6.666972226472177e-001	-5.116705102273895e-002
0	 6.666972226472175e-001	 7.333579753122046e-001	-2.268579802826422e-002
0	 6.666972226472177e-001	 8.000185779984419e-001	 1.413021086928777e-001
0	 6.666972226472177e-001	 8.666790473703455e-001	 4.443963012581123e-001
0	 6.666972226472177e-001	 9.333394000923323e-001	 8.901962190912053e-001
0	 6.666972226472177e-001	 9.999996528288192e-001	 1.482301108919149e+000
0	 6.666972226472177e-001	 1.066659822244223e+000	 2.224310024769767e+000
0	 6.666972226472177e-001	 1.133319925002959e+000	 3.119821827970046e+000
0	 6.666972226472175e-001	 1.199979977769445e+000	 4.172435187145192e+000
0	 6.666972226472175e-001	 1.266639997208098e+000	 5.385748578218389e+000
0	 6.666972226472175e-001	 1.333299999983334e+000	 6.763360284411323e+000
0	 0.000000000000000e+000	 1.333299999983334e+000	-1.138723374916635e+000
0	 0.000000000000000e+000	 1.399969999982150e+000	-7.348493866971566e-001
0	 0.000000000000000e+000	 1.466639999981867e+000	-5.954795128828394e-002
0	 0.000000000000000e+000	 1.533309999982383e+000	 8.496836783160173e-001
0	 0.000000000000000e+000	 1.599979999983600e+000	 1.955348249120979e+000
0	 0.000000000000000e+000	 1.666649999985416e+000	 3.219948508131056e+000
0	 0.000000000000000e+000	 1.733319999987733e+000	 4.605987202349905e+000
0	 0.000000000000000e+000	 1.799989999990450e+000	 6.075967078780419e+000
0	 0.000000000000000e+000	 1.866659999993467e+000	 7.592390884424656e+000
0	 0.000000000000000e+000	 1.933329999996684e+000	 9.117761366283919e+000
0	 0.000000000000000e+000	 2.000000000000000e+000	 1.061458127135869e+001
0	 6.666714722864757e-002	 1.333299999983334e+000	-1.369398037913382e+000
0	 6.666714722864754e-002	 1.399969999982149e+000	-1.015136545898590e+000
0	 6.666714722864757e-002	 1.466639999981867e+000	-2.750797473964770e-001
0	 6.666714722864757e-002	 1.533309999982383e+000	 8.165236839890948e-001
0	 6.666714722864754e-002	 1.599979999983600e+000	 2.225425074654917e+000
0	 6.666714722864756e-002	 1.666649999985416e+000	 3.917375750998401e+000
0	 6.666714722864754e-002	 1.733319999987733e+000	 5.858127039417632e+000
0	 6.666714722864756e-002	 1.799989999990450e+000	 8.013430266311222e+000
0	 6.666714722864754e-002	 1.866659999993467e+000	 1.034903675807851e+001
0	 6.666714722864757e-002	 1.933329999996684e+000	 1.283069784111939e+001
0	 6.666714722864756e-002	 2.000000000000000e+000	 1.542416484183445e+001
0	 1.333351778131789e-001	 1.333299999983334e+000	-1.216211257399179e+000
0	 1.333351778131789e-001	 1.399969999982150e+000	-8.421751953605918e-001
0	 1.333351778131789e-001	 1.466639999981866e+000	-1.295597074957566e-002
0	 1.333351778131789e-001	 1.533309999982383e+000	 1.240358648429702e+000
0	 1.333351778131789e-001	 1.599979999983600e+000	 2.886680894174695e+000
0	 1.333351778131790e-001	 1.666649999985416e+000	 4.894922998484494e+000
0	 1.333351778131790e-001	 1.733319999987734e+000	 7.233997193359766e+000
0	 1.333351778131789e-001	 1.799989999990450e+000	 9.872815710802858e+000
0	 1.333351778131789e-001	 1.866659999993467e+000	 1.278029078281767e+001
0	 1.333351778131789e-001	 1.933329999996684e+000	 1.592533464140978e+001
0	 1.333351778131789e-001	 2.000000000000000e+000	 1.927685951858635e+001
0	 2.000039750814772e-001	 1.333299999983334e+000	-7.380377871825612e-001
0	 2.000039750814773e-001	 1.399969999982151e+000	-2.874300517512349e-001
0	 2.000039750814772e-001	 1.466639999981866e+000	 6.487640666353851e-001
0	 2.000039750814773e-001	 1.533309999982383e+000	 2.042530051631870e+000
0	 2.000039750814772e-001	 1.599979999983600e+000	 3.865853386894995e+000
0	 2.000039750814773e-001	 1.666649999985416e+000	 6.090719556083829e+000
0	 2.000039750814772e-001	 1.733319999987733e+000	 8.689114042859600e+000
0	 2.000039750814773e-001	 1.799989999990450e+000	 1.163302233088588e+001
0	 2.000039750814772e-001	 1.866659999993467e+000	 1.489442990382842e+001
0	 2.000039750814773e-001	 1.933329999996684e+000	 1.844532224535515e+001
0	 2.000039750814773e-001	 2.000000000000000e+000	 2.225768483913637e+001
0	 2.666734223614255e-001	 1.333299999983334e+000	 6.247789415897209e-003
0	 2.666734223614254e-001	 1.399969999982150e+000	 5.776344355128771e-001
0	 2.666734223614256e-001	 1.466639999981866e+000	 1.632021440626373e+000
0	 2.666734223614256e-001	 1.533309999982383e+000	 3.144379905056932e+000
0	 2.666734223614256e-001	 1.599979999983599e+000	 5.089680929107622e+000
0	 2.666734223614256e-001	 1.666649999985417e+000	 7.442895613084088e+000
0	 2.666734223614255e-001	 1.733319999987733e+000	 1.017899505729450e+001
0	 2.666734223614254e-001	 1.799989999990449e+000	 1.327295036204958e+001
0	 2.666734223614256e-001	 1.866659999993467e+000	 1.669973262766257e+001
0	 2.666734223614256e-001	 1.933329999996684e+000	 2.043431295444930e+001
0	 2.666734223614256e-001	 2.000000000000000e+000	 2.445166244272808e+001
0	 3.333434029809068e-001	 1.333299999983334e+000	 9.577710595037059e-001
0	 3.333434029809070e-001	 1.399969999982150e+000	 1.681554084178492e+000
0	 3.333434029809069e-001	 1.466639999981867e+000	 2.858757614853892e+000
0	 3.333434029809068e-001	 1.533309999982383e+000	 4.467250751471041e+000
0	 3.333434029809068e-001	 1.599979999983600e+000	 6.484902593973622e+000
0	 3.333434029809069e-001	 1.666649999985416e+000	 8.889582242307956e+000
0	 3.333434029809069e-001	 1.733319999987733e+000	 1.165915879642286e+001
0	 3.333434029809067e-001	 1.799989999990449e+000	 1.477150135626981e+001
0	 3.333434029809069e-001	 1.866659999993467e+000	 1.820447902180287e+001
0	 3.333434029809068e-001	 1.933329999996683e+000	 2.193596089297860e+001
0	 3.333434029809069e-001	 2.000000000000000e+000	 2.594381606975622e+001
0	 4.000138002678044e-001	 1.333299999983334e+000	 2.057657780561104e+000
0	 4.000138002678045e-001	 1.399969999982150e+000	 2.952864979074543e+000
0	 4.000138002678044e-001	 1.466639999981866e+000	 4.250914440598693e+000
0	 4.000138002678044e-001	 1.533309999982383e+000	 5.932485664796611e+000
0	 4.000138002678044e-001	 1.599979999983600e+000	 7.978258151333782e+000
0	 4.000138002678042e-001	 1.666649999985416e+000	 1.036891139987809e+001
0	 4.000138002678043e-001	 1.733319999987733e+000	 1.308512491009980e+001
0	 4.000138002678044e-001	 1.799989999990450e+000	 1.610757818167169e+001
0	 4.000138002678043e-001	 1.866659999993466e+000	 1.941695071426885e+001
0	 4.000138002678044e-001	 1.933329999996683e+000	 2.299392200756881e+001
0	 4.000138002678044e-001	 2.000000000000000e+000	 2.681917156125152e+001
0	 4.666844975500011e-001	 1.333299999983334e+000	 3.247033880390148e+000
0	 4.666844975500012e-001	 1.399969999982150e+000	 4.320103472038133e+000
0	 4.666844975500011e-001	 1.466639999981867e+000	 5.730434156689679e+000
0	 4.666844975500011e-001	 1.533309999982383e+000	 7.461428249977718e+000
0	 4.666844975500011e-001	 1.599979999983600e+000	 9.496488067537278e+000
0	 4.666844975500012e-001	 1.666649999985417e+000	 1.181901592500547e+001
0	 4.666844975500011e-001	 1.733319999987733e+000	 1.441241413802146e+001
0	 4.666844975500011e-001	 1.799989999990450e+000	 1.726008502222658e+001
0	 4.666844975500012e-001	 1.866659999993467e+000	 2.034543089326419e+001
0	 4.666844975500011e-001	 1.933329999996684e+000	 2.365185406677970e+001
0	 4.666844975500011e-001	 2.000000000000000e+000	 2.716275685842073e+001
0	 5.333553781553803e-001	 1.333299999983334e+000	 4.467025457068292e+000
0	 5.333553781553801e-001	 1.399969999982150e+000	 5.711806181847392e+000
0	 5.333553781553801e-001	 1.466639999981867e+000	 7.219259389411958e+000
0	 5.333553781553803e-001	 1.533309999982383e+000	 8.975422642859384e+000
0	 5.333553781553803e-001	 1.599979999983600e+000	 1.096633350528873e+001
0	 5.333553781553800e-001	 1.666649999985416e+000	 1.317802953980071e+001
0	 5.333553781553801e-001	 1.733319999987733e+000	 1.559654830949772e+001
0	 5.333553781553803e-001	 1.799989999990450e+000	 1.820792737748380e+001
0	 5.333553781553801e-001	 1.866659999993467e+000	 2.099820430686465e+001
0	 5.333553781553803e-001	 1.933329999996684e+000	 2.395341666074764e+001
0	 5.333553781553803e-001	 2.000000000000000e+000	 2.705960200224175e+001
0	 6.000263254118247e-001	 1.333299999983334e+000	 5.658758778906409e+000
0	 6.000263254118248e-001	 1.399969999982150e+000	 7.056509994161439e+000
0	 6.000263254118249e-001	 1.466639999981867e+000	 8.639333152425113e+000
0	 6.000263254118249e-001	 1.533309999982383e+000	 1.039581351008091e+001
0	 6.000263254118248e-001	 1.599979999983600e+000	 1.231453632351353e+001
0	 6.000263254118248e-001	 1.666649999985416e+000	 1.438408684910881e+001
0	 6.000263254118247e-001	 1.733319999987733e+000	 1.659305034325383e+001
0	 6.000263254118247e-001	 1.799989999990450e+000	 1.893001206233681e+001
0	 6.000263254118247e-001	 1.866659999993466e+000	 2.138355726274721e+001
0	 6.000263254118247e-001	 1.933329999996684e+000	 2.394227120087562e+001
0	 6.000263254118248e-001	 2.000000000000000e+000	 2.659473913311386e+001
0	 6.666972226472175e-001	 1.333299999983334e+000	 6.763360284411323e+000
0	 6.666972226472175e-001	 1.399969999982150e+000	 8.282752061467324e+000
0	 6.666972226472177e-001	 1.466639999981867e+000	 9.912598846691607e+000
0	 6.666972226472178e-001	 1.533309999982383e+000	 1.164394604898308e+001
0	 6.666972226472177e-001	 1.599979999983600e+000	 1.346783907724136e+001
0	 6.666972226472175e-001	 1.666649999985417e+000	 1.537532334036678e+001
0	 6.666972226472177e-001	 1.733319999987733e+000	 1.735744424726040e+001
0	 6.666972226472174e-001	 1.799989999990450e+000	 1.940524720682399e+001
0	 6.666972226472177e-001	 1.866659999993467e+000	 2.150977762796004e+001
0	 6.666972226472177e-001	 1.933329999996683e+000	 2.366208091957180e+001
0	 6.666972226472177e-001	 2.000000000000000e+000	 2.585320249056314e+001
0	 0.000000000000000e+000	 2.000000000000000e+000	 1.061458127135869e+001
0	 0.000000000000000e+000	 2.066670000003317e+000	 1.310380669724687e+001
0	 0.000000000000000e+000	 2.133340000006534e+000	 1.758606996114167e+001
0	 0.000000000000000e+000	 2.200010000009551e+000	 2.399338813945006e+001
0	 0.000000000000000e+000	 2.266680000012268e+000	 3.225777830859725e+001
0	 0.000000000000000e+000	 2.333350000014584e+000	 4.231125754502693e+001
0	 0.000000000000000e+000	 2.400020000016401e+000	 5.408584292520101e+001
0	 0.000000000000000e+000	 2.466690000017618e+000	 6.751355152559987e+001
0	 0.000000000000000e+000	 2.533360000018134e+000	 8.252640042272219e+001
0	 0.000000000000000e+000	 2.600030000017851e+000	 9.905640669308490e+001
0	 0.000000000000000e+000	 2.666700000016666e+000	 1.170355874132235e+002
0	 6.666714722864756e-002	 2.000000000000000e+000	 1.542416484183445e+001
0	 6.666714722864756e-002	 2.066670000003316e+000	 1.879009169063371e+001
0	 6.666714722864756e-002	 2.133340000006534e+000	 2.357291622682649e+001
0	 6.666714722864757e-002	 2.200010000009551e+000	 2.971406564017291e+001
0	 6.666714722864756e-002	 2.266680000012268e+000	 3.715496712044617e+001
0	 6.666714722864756e-002	 2.333350000014583e+000	 4.583704785743271e+001
0	 6.666714722864756e-002	 2.400020000016402e+000	 5.570173504093224e+001
0	 6.666714722864758e-002	 2.466690000017618e+000	 6.669045586075758e+001
0	 6.666714722864753e-002	 2.533360000018134e+000	 7.874463750673480e+001
0	 6.666714722864757e-002	 2.600030000017850e+000	 9.180570716870318e+001
0	 6.666714722864756e-002	 2.666700000016667e+000	 1.058150920365153e+002
0	 1.333351778131789e-001	 2.000000000000000e+000	 1.927685951858635e+001
0	 1.333351778131789e-001	 2.066670000003317e+000	 2.321062696002954e+001
0	 1.333351778131789e-001	 2.133340000006534e+000	 2.808999001533691e+001
0	 1.333351778131789e-001	 2.200010000009551e+000	 3.386524817239662e+001
0	 1.333351778131789e-001	 2.266680000012268e+000	 4.048670091910592e+001
0	 1.333351778131790e-001	 2.333350000014585e+000	 4.790464774337108e+001
0	 1.333351778131789e-001	 2.400020000016402e+000	 5.606938813310721e+001
0	 1.333351778131790e-001	 2.466690000017618e+000	 6.493122157623860e+001
0	 1.333351778131789e-001	 2.533360000018134e+000	 7.444044756069850e+001
0	 1.333351778131789e-001	 2.600030000017850e+000	 8.454736557442897e+001
0	 1.333351778131789e-001	 2.666700000016666e+000	 9.520227510538138e+001
0	 2.000039750814773e-001	 2.000000000000000e+000	 2.225768483913637e+001
0	 2.000039750814773e-001	 2.066670000003318e+000	 2.648955599998443e+001
0	 2.000039750814773e-001	 2.133340000006534e+000	 3.129007307848597e+001
0	 2.000039750814773e-001	 2.200010000009551e+000	 3.661787011197870e+001
0	 2.000039750814773e-001	 2.266680000012268e+000	 4.243158113780591e+001
0	 2.000039750814772e-001	 2.333350000014584e+000	 4.868984019331647e+001
0	 2.000039750814772e-001	 2.400020000016401e+000	 5.535128131586499e+001
0	 2.000039750814773e-001	 2.466690000017618e+000	 6.237453854281168e+001
0	 2.000039750814772e-001	 2.533360000018134e+000	 6.971824591152226e+001
0	 2.000039750814773e-001	 2.600030000017851e+000	 7.734103745936824e+001
0	 2.000039750814772e-001	 2.666700000016666e+000	 8.520154722372669e+001
0	 2.666734223614256e-001	 2.000000000000000e+000	 2.445166244272808e+001
0	 2.666734223614255e-001	 2.066670000003317e+000	 2.875102469998829e+001
0	 2.666734223614256e-001	 2.133340000006534e+000	 3.332594986617428e+001
0	 2.666734223614255e-001	 2.200010000009550e+000	 3.814286884029122e+001
0	 2.666734223614255e-001	 2.266680000012267e+000	 4.316821252134727e+001
0	 2.666734223614257e-001	 2.333350000014585e+000	 4.836841180835354e+001
0	 2.666734223614256e-001	 2.400020000016401e+000	 5.370989760032429e+001
0	 2.666734223614256e-001	 2.466690000017619e+000	 5.915910079627658e+001
0	 2.666734223614255e-001	 2.533360000018133e+000	 6.468245229523070e+001
0	 2.666734223614256e-001	 2.600030000017851e+000	 7.024638299620975e+001
0	 2.666734223614255e-001	 2.666700000016666e+000	 7.581732379823990e+001
0	 3.333434029809069e-001	 2.000000000000000e+000	 2.594381606975622e+001
0	 3.333434029809069e-001	 2.066670000003317e+000	 3.011918134382884e+001
0	 3.333434029809070e-001	 2.133340000006534e+000	 3.435040752567450e+001
0	 3.333434029809069e-001	 2.200010000009551e+000	 3.861118474343260e+001
0	 3.333434029809069e-001	 2.266680000012268e+000	 4.287520312524347e+001
0	 3.333434029809069e-001	 2.333350000014584e+000	 4.711615279924861e+001
0	 3.333434029809069e-001	 2.400020000016401e+000	 5.130772389359049e+001
0	 3.333434029809068e-001	 2.466690000017617e+000	 5.542360653641264e+001
0	 3.333434029809069e-001	 2.533360000018135e+000	 5.943749085585955e+001
0	 3.333434029809070e-001	 2.600030000017851e+000	 6.332306698007682e+001
0	 3.333434029809069e-001	 2.666700000016666e+000	 6.705402503721112e+001
0	 4.000138002678044e-001	 2.000000000000000e+000	 2.681917156125152e+001
0	 4.000138002678045e-001	 2.066670000003318e+000	 3.071817660901240e+001
0	 4.000138002678044e-001	 2.133340000006534e+000	 3.451623590098726e+001
0	 4.000138002678045e-001	 2.200010000009551e+000	 3.819376121151834e+001
0	 4.000138002678044e-001	 2.266680000012267e+000	 4.173116431494745e+001
0	 4.000138002678044e-001	 2.333350000014584e+000	 4.510885698561606e+001
0	 4.000138002678045e-001	 2.400020000016401e+000	 4.830725099786525e+001
0	 4.000138002678044e-001	 2.466690000017617e+000	 5.130675812603572e+001
0	 4.000138002678043e-001	 2.533360000018134e+000	 5.408779014446776e+001
0	 4.000138002678043e-001	 2.600030000017850e+000	 5.663075882750134e+001
0	 4.000138002678043e-001	 2.666700000016665e+000	 5.891607594947604e+001
0	 4.666844975500011e-001	 2.000000000000000e+000	 2.716275685842073e+001
0	 4.666844975500010e-001	 2.066670000003317e+000	 3.067216356624737e+001
0	 4.666844975500012e-001	 2.133340000006534e+000	 3.397622753226747e+001
0	 4.666844975500012e-001	 2.200010000009551e+000	 3.706154463805082e+001
0	 4.666844975500012e-001	 2.266680000012267e+000	 3.991471076516586e+001
0	 4.666844975500012e-001	 2.333350000014585e+000	 4.252232179517963e+001
0	 4.666844975500011e-001	 2.400020000016400e+000	 4.487097360965800e+001
0	 4.666844975500012e-001	 2.466690000017617e+000	 4.694726209016534e+001
0	 4.666844975500012e-001	 2.533360000018134e+000	 4.873778311826483e+001
0	 4.666844975500012e-001	 2.600030000017851e+000	 5.022913257551823e+001
0	 4.666844975500012e-001	 2.666700000016666e+000	 5.140790634348595e+001
0	 5.333553781553803e-001	 2.000000000000000e+000	 2.705960200224175e+001
0	 5.333553781553803e-001	 2.066670000003317e+000	 3.010529767899088e+001
0	 5.333553781553801e-001	 2.133340000006534e+000	 3.288317765532180e+001
0	 5.333553781553803e-001	 2.200010000009550e+000	 3.538548441936776e+001
0	 5.333553781553801e-001	 2.266680000012268e+000	 3.760446045926014e+001
0	 5.333553781553804e-001	 2.333350000014586e+000	 3.953234826312834e+001
0	 5.333553781553804e-001	 2.400020000016402e+000	 4.116139031909997e+001
0	 5.333553781553801e-001	 2.466690000017617e+000	 4.248382911530058e+001
0	 5.333553781553804e-001	 2.533360000018134e+000	 4.349190713985395e+001
0	 5.333553781553803e-001	 2.600030000017851e+000	 4.417786688088184e+001
0	 5.333553781553804e-001	 2.666700000016666e+000	 4.453395082650413e+001
0	 6.000263254118248e-001	 2.000000000000000e+000	 2.659473913311386e+001
0	 6.000263254118247e-001	 2.066670000003317e+000	 2.914173680305797e+001
0	 6.000263254118248e-001	 2.133340000006534e+000	 3.138988420117655e+001
0	 6.000263254118246e-001	 2.200010000009550e+000	 3.333653295416952e+001
0	 6.000263254118249e-001	 2.266680000012268e+000	 3.497903468873454e+001
0	 6.000263254118247e-001	 2.333350000014585e+000	 3.631474103156707e+001
0	 6.000263254118248e-001	 2.400020000016401e+000	 3.734100360936034e+001
0	 6.000263254118247e-001	 2.466690000017617e+000	 3.805517404880531e+001
0	 6.000263254118248e-001	 2.533360000018134e+000	 3.845460397659085e+001
0	 6.000263254118248e-001	 2.600030000017850e+000	 3.853664501940352e+001
0	 6.000263254118247e-001	 2.666700000016666e+000	 3.829864880392766e+001
0	 6.666972226472177e-001	 2.000000000000000e+000	 2.585320249056314e+001
0	 6.666972226472177e-001	 2.066670000003317e+000	 2.790564118629369e+001
0	 6.666972226472178e-001	 2.133340000006534e+000	 2.964914779571667e+001
0	 6.666972226472177e-001	 2.200010000009551e+000	 3.108564564312544e+001
0	 6.666972226472177e-001	 2.266680000012268e+000	 3.221705805281096e+001
0	 6.666972226472177e-001	 2.333350000014584e+000	 3.304530834906189e+001
0	 6.666972226472175e-001	 2.400020000016400e+000	 3.357231985616453e+001
0	 6.666972226472177e-001	 2.466690000017617e+000	 3.380001589840280e+001
0	 6.666972226472177e-001	 2.533360000018134e+000	 3.373031980005833e+001
0	 6.666972226472175e-001	 2.600030000017851e+000	 3.336515488541036e+001
0	 6.666972226472175e-001	 2.666700000016666e+000	 3.270644447873579e+001
0	 0.000000000000000e+000	 2.666700000016666e+000	 1.170355874132235e+002
0	 0.000000000000000e+000	 2.733360000014533e+000	 1.337909554890538e+002
0	 0.000000000000000e+000	 2.800020000011600e+000	 1.467270323771190e+002
0	 0.000000000000000e+000	 2.866680000008067e+000	 1.558836919021200e+002
0	 0.000000000000000e+000	 2.933340000004133e+000	 1.613008078888155e+002
0	 0.000000000000000e+000	 3.000000000000000e+000	 1.630182541620219e+002
0	 0.000000000000000e+000	 3.066659999995868e+000	 1.610759045466127e+002
0	 0.000000000000000e+000	 3.133319999991934e+000	 1.555136328675195e+002
0	 0.000000000000000e+000	 3.199979999988401e+000	 1.463713129497315e+002
0	 0.000000000000000e+000	 3.266639999985467e+000	 1.336888186182952e+002
0	 0.000000000000000e+000	 3.333299999983334e+000	 1.175060236983150e+002
0	 6.666714722864756e-002	 2.666700000016667e+000	 1.058150920365153e+002
0	 6.666714722864754e-002	 2.733360000014533e+000	 1.187386244117704e+002
0	 6.666714722864756e-002	 2.800020000011600e+000	 1.286100053958750e+002
0	 6.666714722864754e-002	 2.866680000008066e+000	 1.354659568956713e+002
0	 6.666714722864757e-002	 2.933340000004133e+000	 1.393432008180459e+002
0	 6.666714722864756e-002	 3.000000000000001e+000	 1.402784590699313e+002
0	 6.666714722864758e-002	 3.066659999995867e+000	 1.383084535583046e+002
0	 6.666714722864756e-002	 3.133319999991935e+000	 1.334699061901885e+002
0	 6.666714722864757e-002	 3.199979999988401e+000	 1.257995388726507e+002
0	 6.666714722864756e-002	 3.266639999985467e+000	 1.153340735128043e+002
0	 6.666714722864757e-002	 3.333299999983334e+000	 1.021102320178075e+002
0	 1.333351778131789e-001	 2.666700000016666e+000	 9.520227510538138e+001
0	 1.333351778131789e-001	 2.733360000014533e+000	 1.049022254777018e+002
0	 1.333351778131790e-001	 2.800020000011600e+000	 1.122030061979462e+002
0	 1.333351778131789e-001	 2.866680000008067e+000	 1.171381167209251e+002
0	 1.333351778131789e-001	 2.933340000004133e+000	 1.197410565014841e+002
0	 1.333351778131789e-001	 3.000000000000000e+000	 1.200453249945033e+002
0	 1.333351778131789e-001	 3.066659999995868e+000	 1.180844216548977e+002
0	 1.333351778131789e-001	 3.133319999991934e+000	 1.138918459376170e+002
0	 1.333351778131789e-001	 3.199979999988401e+000	 1.075010972976457e+002
0	 1.333351778131789e-001	 3.266639999985468e+000	 9.894567519000293e+001
0	 1.333351778131789e-001	 3.333299999983333e+000	 8.825907906974280e+001
0	 2.000039750814772e-001	 2.666700000016666e+000	 8.520154722372669e+001
0	 2.000039750814773e-001	 2.733360000014534e+000	 9.223082845620129e+001
0	 2.000039750814773e-001	 2.800020000011600e+000	 9.741003890758887e+001
0	 2.000039750814773e-001	 2.866680000008066e+000	 1.007693850321983e+002
0	 2.000039750814772e-001	 2.933340000004133e+000	 1.023390732843645e+002
0	 2.000039750814773e-001	 3.000000000000000e+000	 1.021493101184488e+002
0	 2.000039750814772e-001	 3.066659999995867e+000	 1.002303019888382e+002
0	 2.000039750814772e-001	 3.133319999991934e+000	 9.661225534994637e+001
0	 2.000039750814773e-001	 3.199979999988401e+000	 9.132537665621260e+001
0	 2.000039750814773e-001	 3.266639999985468e+000	 8.439987236210254e+001
0	 2.000039750814772e-001	 3.333299999983334e+000	 7.586594892210806e+001
0	 2.666734223614255e-001	 2.666700000016666e+000	 7.581732379823990e+001
0	 2.666734223614255e-001	 2.733360000014533e+000	 8.067350805849119e+001
0	 2.666734223614256e-001	 2.800020000011599e+000	 8.413511268837097e+001
0	 2.666734223614255e-001	 2.866680000008067e+000	 8.622898057817693e+001
0	 2.666734223614256e-001	 2.933340000004134e+000	 8.698195461822564e+001
0	 2.666734223614256e-001	 3.000000000000000e+000	 8.642087769885293e+001
0	 2.666734223614254e-001	 3.066659999995867e+000	 8.457259271041369e+001
0	 2.666734223614255e-001	 3.133319999991934e+000	 8.146394254328183e+001
0	 2.666734223614256e-001	 3.199979999988400e+000	 7.712177008785048e+001
0	 2.666734223614255e-001	 3.266639999985469e+000	 7.157291823453177e+001
0	 2.666734223614254e-001	 3.333299999983333e+000	 6.484422987375706e+001
0	 3.333434029809069e-001	 2.666700000016666e+000	 6.705402503721112e+001
0	 3.333434029809069e-001	 2.733360000014533e+000	 7.017934393645737e+001
0	 3.333434029809069e-001	 2.800020000011600e+000	 7.228224174195333e+001
0	 3.333434029809068e-001	 2.866680000008066e+000	 7.338612720069654e+001
0	 3.333434029809069e-001	 2.933340000004133e+000	 7.351440905969804e+001
0	 3.333434029809070e-001	 3.000000000000000e+000	 7.269049606598242e+001
0	 3.333434029809069e-001	 3.066659999995868e+000	 7.093779696658777e+001
0	 3.333434029809069e-001	 3.133319999991934e+000	 6.827972050856558e+001
0	 3.333434029809070e-001	 3.199979999988401e+000	 6.473967543898094e+001
0	 3.333434029809069e-001	 3.266639999985467e+000	 6.034107050491242e+001
0	 3.333434029809068e-001	 3.333299999983334e+000	 5.510731445345214e+001
0	 4.000138002678043e-001	 2.666700000016665e+000	 5.891607594947604e+001
0	 4.000138002678043e-001	 2.733360000014533e+000	 6.069742068157377e+001
0	 4.000138002678044e-001	 2.800020000011600e+000	 6.175544530700384e+001
0	 4.000138002678043e-001	 2.866680000008066e+000	 6.211005383365529e+001
0	 4.000138002678042e-001	 2.933340000004133e+000	 6.178115026942639e+001
0	 4.000138002678044e-001	 3.000000000000000e+000	 6.078863862222445e+001
0	 4.000138002678044e-001	 3.066659999995868e+000	 5.915242289996596e+001
0	 4.000138002678044e-001	 3.133319999991934e+000	 5.689240711057659e+001
0	 4.000138002678044e-001	 3.199979999988401e+000	 5.402849526199113e+001
0	 4.000138002678045e-001	 3.266639999985468e+000	 5.058059136215350e+001
0	 4.000138002678044e-001	 3.333299999983334e+000	 4.656859941901689e+001
0	 4.666844975500012e-001	 2.666700000016666e+000	 5.140790634348596e+001
0	 4.666844975500011e-001	 2.733360000014533e+000	 5.217682782395613e+001
0	 4.666844975500011e-001	 2.800020000011600e+000	 5.245874765824405e+001
0	 4.666844975500011e-001	 2.866680000008067e+000	 5.226999450206142e+001
0	 4.666844975500011e-001	 2.933340000004133e+000	 5.162689701112544e+001
0	 4.666844975500010e-001	 2.999999999999999e+000	 5.054578384115937e+001
0	 4.666844975500011e-001	 3.066659999995868e+000	 4.904298364789224e+001
0	 4.666844975500011e-001	 3.133319999991934e+000	 4.713482508705906e+001
0	 4.666844975500011e-001	 3.199979999988401e+000	 4.483763681440051e+001
0	 4.666844975500012e-001	 3.266639999985468e+000	 4.216774748566326e+001
0	 4.666844975500012e-001	 3.333299999983334e+000	 3.914148575659979e+001
0	 5.333553781553804e-001	 2.666700000016666e+000	 4.453395082650413e+001
0	 5.333553781553801e-001	 2.733360000014532e+000	 4.456665983154572e+001
0	 5.333553781553803e-001	 2.800020000011600e+000	 4.429617810562788e+001
0	 5.333553781553801e-001	 2.866680000008066e+000	 4.373518832121381e+001
0	 5.333553781553800e-001	 2.933340000004133e+000	 4.289637315077007e+001
0	 5.333553781553803e-001	 3.000000000000001e+000	 4.179241526676681e+001
0	 5.333553781553803e-001	 3.066659999995867e+000	 4.043599734167741e+001
0	 5.333553781553804e-001	 3.133319999991935e+000	 3.883980204797885e+001
0	 5.333553781553800e-001	 3.199979999988401e+000	 3.701651205815148e+001
0	 5.333553781553801e-001	 3.266639999985468e+000	 3.497881004467908e+001
0	 5.333553781553801e-001	 3.333299999983334e+000	 3.273937868004883e+001
0	 6.000263254118247e-001	 2.666700000016666e+000	 3.829864880392766e+001
0	 6.000263254118247e-001	 2.733360000014533e+000	 3.781601610942276e+001
0	 6.000263254118247e-001	 2.800020000011599e+000	 3.717177099365213e+001
0	 6.000263254118248e-001	 2.866680000008067e+000	 3.637487949601680e+001
0	 6.000263254118249e-001	 2.933340000004134e+000	 3.543430765591938e+001
0	 6.000263254118247e-001	 3.000000000000000e+000	 3.435902151276437e+001
0	 6.000263254118249e-001	 3.066659999995868e+000	 3.315798710595778e+001
0	 6.000263254118247e-001	 3.133319999991935e+000	 3.184017047490743e+001
0	 6.000263254118248e-001	 3.199979999988400e+000	 3.041453765902282e+001
0	 6.000263254118248e-001	 3.266639999985468e+000	 2.889005469771517e+001
0	 6.000263254118248e-001	 3.333299999983334e+000	 2.727568763039740e+001
0	 6.666972226472175e-001	 2.666700000016666e+000	 3.270644447873580e+001
0	 6.666972226472175e-001	 2.733360000014533e+000	 3.187400099924912e+001
0	 6.666972226472178e-001	 2.800020000011599e+000	 3.098956570079988e+001
0	 6.666972226472177e-001	 2.866680000008066e+000	 3.005831732042813e+001
0	 6.666972226472177e-001	 2.933340000004133e+000	 2.908543459517440e+001
0	 6.666972226472178e-001	 3.000000000000001e+000	 2.807609626207974e+001
0	 6.666972226472175e-001	 3.066659999995868e+000	 2.703548105818559e+001
0	 6.666972226472175e-001	 3.133319999991934e+000	 2.596876772053395e+001
0	 6.666972226472178e-001	 3.199979999988401e+000	 2.488113498616724e+001
0	 6.666972226472177e-001	 3.266639999985468e+000	 2.377776159212838e+001
0	 6.666972226472177e-001	 3.333299999983334e+000	 2.266382627546073e+001
0	 0.000000000000000e+000	 3.333299999983334e+000	 1.175060236983150e+002
0	 0.000000000000000e+000	 3.399969999982150e+000	 1.001920343277151e+002
0	 0.000000000000000e+000	 3.466639999981866e+000	 8.414652971280515e+001
0	 0.000000000000000e+000	 3.533309999982383e+000	 6.944717863058355e+001
0	 0.000000000000000e+000	 3.599979999983599e+000	 5.617164985806153e+001
0	 0.000000000000000e+000	 3.666649999985415e+000	 4.439761217226339e+001
0	 0.000000000000000e+000	 3.733319999987731e+000	 3.420273435022651e+001
0	 0.000000000000000e+000	 3.799989999990448e+000	 2.566468516900132e+001
0	 0.000000000000000e+000	 3.866659999993465e+000	 1.886113340565130e+001
0	 0.000000000000000e+000	 3.933329999996682e+000	 1.386974783725299e+001
0	 0.000000000000000e+000	 4.000000000000001e+000	 1.076819724089589e+001
0	 6.666714722864757e-002	 3.333299999983334e+000	 1.021102320178075e+002
0	 6.666714722864757e-002	 3.399969999982149e+000	 8.798097246468811e+001
0	 6.666714722864754e-002	 3.466639999981865e+000	 7.482273779821156e+001
0	 6.666714722864757e-002	 3.533309999982383e+000	 6.270091071551485e+001
0	 6.666714722864753e-002	 3.599979999983598e+000	 5.168087391374517e+001
0	 6.666714722864757e-002	 3.666649999985415e+000	 4.182801009005958e+001
0	 6.666714722864756e-002	 3.733319999987732e+000	 3.320770194162538e+001
0	 6.666714722864757e-002	 3.799989999990449e+000	 2.588533216561974e+001
0	 6.666714722864754e-002	 3.866659999993463e+000	 1.992628345923006e+001
0	 6.666714722864757e-002	 3.933329999996682e+000	 1.539593851965364e+001
0	 6.666714722864756e-002	 4.000000000000000e+000	 1.235968004409780e+001
0	 1.333351778131789e-001	 3.333299999983333e+000	 8.825907906974280e+001
0	 1.333351778131789e-001	 3.399969999982150e+000	 7.686180905507685e+001
0	 1.333351778131789e-001	 3.466639999981865e+000	 6.619161002114095e+001
0	 1.333351778131789e-001	 3.533309999982381e+000	 5.630256457252000e+001
0	 1.333351778131789e-001	 3.599979999983599e+000	 4.724875531380655e+001
0	 1.333351778131789e-001	 3.666649999985415e+000	 3.908426484960056e+001
0	 1.333351778131789e-001	 3.733319999987731e+000	 3.186317578450977e+001
0	 1.333351778131789e-001	 3.799989999990448e+000	 2.563957072314914e+001
0	 1.333351778131789e-001	 3.866659999993465e+000	 2.046753227014155e+001
0	 1.333351778131790e-001	 3.933329999996681e+000	 1.640114303011717e+001
0	 1.333351778131789e-001	 3.999999999999999e+000	 1.349448560771374e+001
0	 2.000039750814772e-001	 3.333299999983334e+000	 7.586594892210806e+001
0	 2.000039750814772e-001	 3.399969999982150e+000	 6.678739533426131e+001
0	 2.000039750814772e-001	 3.466639999981866e+000	 5.823984059498697e+001
0	 2.000039750814773e-001	 3.533309999982383e+000	 5.026705310769692e+001
0	 2.000039750814772e-001	 3.599979999983599e+000	 4.291280127580855e+001
0	 2.000039750814773e-001	 3.666649999985415e+000	 3.622085350274460e+001
0	 2.000039750814772e-001	 3.733319999987731e+000	 3.023497819193358e+001
0	 2.000039750814773e-001	 3.799989999990448e+000	 2.499894374680938e+001
0	 2.000039750814772e-001	 3.866659999993465e+000	 2.055651857081139e+001
0	 2.000039750814773e-001	 3.933329999996681e+000	 1.695147106738468e+001
0	 2.000039750814773e-001	 4.000000000000000e+000	 1.422756963997955e+001
0	 2.666734223614254e-001	 3.333299999983333e+000	 6.484422987375706e+001
0	 2.666734223614255e-001	 3.399969999982150e+000	 5.771058645963289e+001
0	 2.666734223614255e-001	 3.466639999981866e+000	 5.095412730833670e+001
0	 2.666734223614256e-001	 3.533309999982382e+000	 4.460929242791252e+001
0	 2.666734223614257e-001	 3.599979999983600e+000	 3.871052182640823e+001
0	 2.666734223614255e-001	 3.666649999985415e+000	 3.329225551187565e+001
0	 2.666734223614255e-001	 3.733319999987732e+000	 2.838893349237053e+001
0	 2.666734223614254e-001	 3.799989999990447e+000	 2.403499577595251e+001
0	 2.666734223614254e-001	 3.866659999993464e+000	 2.026488237068517e+001
0	 2.666734223614256e-001	 3.933329999996680e+000	 1.711303328463599e+001
0	 2.666734223614256e-001	 4.000000000000001e+000	 1.461388852587628e+001
0	 3.333434029809068e-001	 3.333299999983334e+000	 5.510731445345215e+001
0	 3.333434029809069e-001	 3.399969999982150e+000	 4.958424150971028e+001
0	 3.333434029809069e-001	 3.466639999981866e+000	 4.432117152416696e+001
0	 3.333434029809068e-001	 3.533309999982382e+000	 3.934420184008411e+001
0	 3.333434029809069e-001	 3.599979999983599e+000	 3.467942980072647e+001
0	 3.333434029809068e-001	 3.666649999985415e+000	 3.035295274936141e+001
0	 3.333434029809069e-001	 3.733319999987732e+000	 2.639086802925888e+001
0	 3.333434029809068e-001	 3.799989999990448e+000	 2.281927298369162e+001
0	 3.333434029809069e-001	 3.866659999993465e+000	 1.966426495593490e+001
0	 3.333434029809069e-001	 3.933329999996682e+000	 1.695194128926675e+001
0	 3.333434029809069e-001	 4.000000000000000e+000	 1.470839932696771e+001
0	 4.000138002678044e-001	 3.333299999983334e+000	 4.656859941901688e+001
0	 4.000138002678045e-001	 3.399969999982150e+000	 4.236122348335759e+001
0	 4.000138002678044e-001	 3.466639999981866e+000	 3.832767817913401e+001
0	 4.000138002678044e-001	 3.533309999982382e+000	 3.448670385054499e+001
0	 4.000138002678044e-001	 3.599979999983599e+000	 3.085704084179110e+001
0	 4.000138002678043e-001	 3.666649999985415e+000	 2.745742949707466e+001
0	 4.000138002678044e-001	 3.733319999987733e+000	 2.430661016059976e+001
0	 4.000138002678044e-001	 3.799989999990450e+000	 2.142332317657207e+001
0	 4.000138002678044e-001	 3.866659999993464e+000	 1.882630888919914e+001
0	 4.000138002678043e-001	 3.933329999996680e+000	 1.653430764269011e+001
0	 4.000138002678044e-001	 4.000000000000001e+000	 1.456605978125583e+001
0	 4.666844975500012e-001	 3.333299999983334e+000	 3.914148575659979e+001
0	 4.666844975500012e-001	 3.399969999982150e+000	 3.599439929910599e+001
0	 4.666844975500011e-001	 3.466639999981866e+000	 3.296035578295787e+001
0	 4.666844975500011e-001	 3.533309999982383e+000	 3.005172416449395e+001
0	 4.666844975500010e-001	 3.599979999983598e+000	 2.728087340005377e+001
0	 4.666844975500012e-001	 3.666649999985416e+000	 2.466017244597783e+001
0	 4.666844975500011e-001	 3.733319999987732e+000	 2.220199025860770e+001
0	 4.666844975500011e-001	 3.799989999990449e+000	 1.991869579428607e+001
0	 4.666844975500012e-001	 3.866659999993466e+000	 1.782265800935653e+001
0	 4.666844975500011e-001	 3.933329999996681e+000	 1.592624586016386e+001
0	 4.666844975500011e-001	 4.000000000000000e+000	 1.424182830305374e+001
0	 5.333553781553801e-001	 3.333299999983334e+000	 3.273937868004883e+001
0	 5.333553781553803e-001	 3.399969999982150e+000	 3.043663979457781e+001
0	 5.333553781553803e-001	 3.466639999981866e+000	 2.820591641789971e+001
0	 5.333553781553801e-001	 3.533309999982382e+000	 2.605419168552906e+001
0	 5.333553781553803e-001	 3.599979999983599e+000	 2.398844873298082e+001
0	 5.333553781553803e-001	 3.666649999985415e+000	 2.201567069577064e+001
0	 5.333553781553804e-001	 3.733319999987732e+000	 2.014284070941469e+001
0	 5.333553781553801e-001	 3.799989999990448e+000	 1.837694190942971e+001
0	 5.333553781553801e-001	 3.866659999993465e+000	 1.672495743133304e+001
0	 5.333553781553800e-001	 3.933329999996681e+000	 1.519387041064255e+001
0	 5.333553781553801e-001	 4.000000000000000e+000	 1.379066398287666e+001
0	 6.000263254118248e-001	 3.333299999983334e+000	 2.727568763039740e+001
0	 6.000263254118247e-001	 3.399969999982150e+000	 2.564081972601414e+001
0	 6.000263254118247e-001	 3.466639999981865e+000	 2.405107573833346e+001
0	 6.000263254118248e-001	 3.533309999982384e+000	 2.250903851526469e+001
0	 6.000263254118247e-001	 3.599979999983598e+000	 2.101729090471740e+001
0	 6.000263254118247e-001	 3.666649999985415e+000	 1.957841575460134e+001
0	 6.000263254118248e-001	 3.733319999987732e+000	 1.819499591282653e+001
0	 6.000263254118246e-001	 3.799989999990447e+000	 1.686961422730334e+001
0	 6.000263254118247e-001	 3.866659999993465e+000	 1.560485354594237e+001
0	 6.000263254118248e-001	 3.933329999996682e+000	 1.440329671665444e+001
0	 6.000263254118248e-001	 4.000000000000000e+000	 1.326752658735059e+001
0	 6.666972226472177e-001	 3.333299999983334e+000	 2.266382627546073e+001
0	 6.666972226472175e-001	 3.399969999982150e+000	 2.155981776790461e+001
0	 6.666972226472177e-001	 3.466639999981866e+000	 2.048255297041113e+001
0	 6.666972226472178e-001	 3.533309999982383e+000	 1.943119995303373e+001
0	 6.666972226472178e-001	 3.599979999983598e+000	 1.840492678582583e+001
0	 6.666972226472177e-001	 3.666649999985415e+000	 1.740290153884091e+001
0	 6.666972226472175e-001	 3.733319999987732e+000	 1.642429228213258e+001
0	 6.666972226472175e-001	 3.799989999990448e+000	 1.546826708575448e+001
0	 6.666972226472174e-001	 3.866659999993465e+000	 1.453399401976026e+001
0	 6.666972226472178e-001	 3.933329999996682e+000	 1.362064115420368e+001
0	 6.666972226472177e-001	 4.000000000000001e+000	 1.272737655913853e+001
0	 0.000000000000000e+000	 4.000000000000001e+000	 1.076819724089589e+001
0	 0.000000000000000e+000	 4.066670000003318e+000	 8.890236494158058e+000
0	 0.000000000000000e+000	 4.133340000006534e+000	 7.483393055111900e+000
0	 0.000000000000000e+000	 4.200010000009550e+000	 6.495994571598825e+000
0	 0.000000000000000e+000	 4.266680000012267e+000	 5.876368691460311e+000
0	 0.000000000000000e+000	 4.333350000014583e+000	 5.572843062537880e+000
0	 0.000000000000000e+000	 4.400020000016400e+000	 5.533745332673124e+000
0	 0.000000000000000e+000	 4.466690000017617e+000	 5.707403149707631e+000
0	 0.000000000000000e+000	 4.533360000018132e+000	 6.042144161483099e+000
0	 0.000000000000000e+000	 4.600030000017848e+000	 6.486296015841258e+000
0	 0.000000000000000e+000	 4.666700000016666e+000	 6.988186360623869e+000
0	 6.666714722864756e-002	 4.000000000000000e+000	 1.235968004409779e+001
0	 6.666714722864756e-002	 4.066670000003317e+000	 1.033278139669419e+001
0	 6.666714722864754e-002	 4.133340000006534e+000	 8.757521584101356e+000
0	 6.666714722864757e-002	 4.200010000009549e+000	 7.589791767325450e+000
0	 6.666714722864754e-002	 4.266680000012267e+000	 6.785483107373034e+000
0	 6.666714722864757e-002	 4.333350000014583e+000	 6.300486765251177e+000
0	 6.666714722864754e-002	 4.400020000016400e+000	 6.090693901967444e+000
0	 6.666714722864757e-002	 4.466690000017616e+000	 6.111995678529867e+000
0	 6.666714722864756e-002	 4.533360000018133e+000	 6.320283255946903e+000
0	 6.666714722864757e-002	 4.600030000017847e+000	 6.671447795227546e+000
0	 6.666714722864756e-002	 4.666700000016667e+000	 7.121380457381212e+000
0	 1.333351778131789e-001	 3.999999999999999e+000	 1.349448560771374e+001
0	 1.333351778131789e-001	 4.066670000003316e+000	 1.141014237907544e+001
0	 1.333351778131789e-001	 4.133340000006533e+000	 9.749910419801413e+000
0	 1.333351778131789e-001	 4.200010000009550e+000	 8.476694383718769e+000
0	 1.333351778131789e-001	 4.266680000012268e+000	 7.553398924655364e+000
0	 1.333351778131790e-001	 4.333350000014582e+000	 6.942928696439868e+000
0	 1.333351778131789e-001	 4.400020000016400e+000	 6.608188352901708e+000
0	 1.333351778131789e-001	 4.466690000017616e+000	 6.512082547871117e+000
0	 1.333351778131789e-001	 4.533360000018132e+000	 6.617515935179082e+000
0	 1.333351778131790e-001	 4.600030000017850e+000	 6.887393168657385e+000
0	 1.333351778131789e-001	 4.666700000016666e+000	 7.284618902138600e+000
0	 2.000039750814773e-001	 4.000000000000000e+000	 1.422756963997955e+001
0	 2.000039750814773e-001	 4.066670000003317e+000	 1.216408897713452e+001
0	 2.000039750814773e-001	 4.133340000006534e+000	 1.049070362078053e+001
0	 2.000039750814773e-001	 4.200010000009550e+000	 9.176781754462285e+000
0	 2.000039750814772e-001	 4.266680000012268e+000	 8.191691561725483e+000
0	 2.000039750814773e-001	 4.333350000014582e+000	 7.504801226116834e+000
0	 2.000039750814773e-001	 4.400020000016400e+000	 7.085478931183989e+000
0	 2.000039750814772e-001	 4.466690000017616e+000	 6.903092860475633e+000
0	 2.000039750814773e-001	 4.533360000018133e+000	 6.927011197541414e+000
0	 2.000039750814772e-001	 4.600030000017850e+000	 7.126602125931988e+000
0	 2.000039750814772e-001	 4.666700000016665e+000	 7.471233829199002e+000
0	 2.666734223614256e-001	 4.000000000000001e+000	 1.461388852587628e+001
0	 2.666734223614255e-001	 4.066670000003317e+000	 1.263639117831071e+001
0	 2.666734223614256e-001	 4.133340000006534e+000	 1.101004552154161e+001
0	 2.666734223614255e-001	 4.200010000009550e+000	 9.710133357191120e+000
0	 2.666734223614256e-001	 4.266680000012268e+000	 8.711936486882483e+000
0	 2.666734223614256e-001	 4.333350000014584e+000	 7.990736712240004e+000
0	 2.666734223614256e-001	 4.400020000016400e+000	 7.521815834889138e+000
0	 2.666734223614256e-001	 4.466690000017615e+000	 7.280455656456438e+000
0	 2.666734223614256e-001	 4.533360000018131e+000	 7.241937978569597e+000
0	 2.666734223614256e-001	 4.600030000017850e+000	 7.381544602857376e+000
0	 2.666734223614256e-001	 4.666700000016667e+000	 7.674557330949683e+000
0	 3.333434029809069e-001	 4.000000000000000e+000	 1.470839932696771e+001
0	 3.333434029809068e-001	 4.066670000003318e+000	 1.286881942153683e+001
0	 3.333434029809068e-001	 4.133340000006533e+000	 1.133808073244809e+001
0	 3.333434029809068e-001	 4.200010000009550e+000	 1.009682881344789e+001
0	 3.333434029809068e-001	 4.266680000012268e+000	 9.125709218283788e+000
0	 3.333434029809068e-001	 4.333350000014582e+000	 8.405367500704523e+000
0	 3.333434029809069e-001	 4.400020000016400e+000	 7.916449214459957e+000
0	 3.333434029809068e-001	 4.466690000017615e+000	 7.639599913301142e+000
0	 3.333434029809069e-001	 4.533360000018132e+000	 7.555465150980276e+000
0	 3.333434029809069e-001	 4.600030000017848e+000	 7.644690481250745e+000
0	 3.333434029809069e-001	 4.666700000016666e+000	 7.887921457867053e+000
0	 4.000138002678044e-001	 4.000000000000001e+000	 1.456605978125583e+001
0	 4.000138002678044e-001	 4.066670000003318e+000	 1.290314459713835e+001
0	 4.000138002678043e-001	 4.133340000006534e+000	 1.150495413965722e+001
0	 4.000138002678044e-001	 4.200010000009550e+000	 1.035694788864213e+001
0	 4.000138002678044e-001	 4.266680000012268e+000	 9.444585323923917e+000
0	 4.000138002678044e-001	 4.333350000014582e+000	 8.753325925334554e+000
0	 4.000138002678044e-001	 4.400020000016400e+000	 8.268629172707170e+000
0	 4.000138002678043e-001	 4.466690000017615e+000	 7.975954545876059e+000
0	 4.000138002678043e-001	 4.533360000018132e+000	 7.860761524676646e+000
0	 4.000138002678045e-001	 4.600030000017850e+000	 7.908509588945522e+000
0	 4.000138002678044e-001	 4.666700000016665e+000	 8.104658218520431e+000
0	 4.666844975500011e-001	 4.000000000000000e+000	 1.424182830305374e+001
0	 4.666844975500011e-001	 4.066670000003318e+000	 1.278113804674395e+001
0	 4.666844975500013e-001	 4.133340000006535e+000	 1.154081090506067e+001
0	 4.666844975500011e-001	 4.200010000009550e+000	 1.051057049201380e+001
0	 4.666844975500012e-001	 4.266680000012267e+000	 9.680140421614475e+000
0	 4.666844975500011e-001	 4.333350000014582e+000	 9.039244307874823e+000
0	 4.666844975500010e-001	 4.400020000016399e+000	 8.577605764808139e+000
0	 4.666844975500012e-001	 4.466690000017618e+000	 8.284948406428775e+000
0	 4.666844975500010e-001	 4.533360000018131e+000	 8.150995846752181e+000
0	 4.666844975500012e-001	 4.600030000017849e+000	 8.165471699794921e+000
0	 4.666844975500012e-001	 4.666700000016667e+000	 8.318099579574657e+000
0	 5.333553781553801e-001	 4.000000000000000e+000	 1.379066398287666e+001
0	 5.333553781553803e-001	 4.066670000003317e+000	 1.254457156320843e+001
0	 5.333553781553803e-001	 4.133340000006534e+000	 1.147579646623234e+001
0	 5.333553781553801e-001	 4.200010000009550e+000	 1.057777667660038e+001
0	 5.333553781553803e-001	 4.266680000012267e+000	 9.843950178965551e+000
0	 5.333553781553803e-001	 4.333350000014582e+000	 9.267754957981850e+000
0	 5.333553781553803e-001	 4.400020000016401e+000	 8.842628998304326e+000
0	 5.333553781553801e-001	 4.466690000017616e+000	 8.562010284588983e+000
0	 5.333553781553804e-001	 4.533360000018134e+000	 8.419336801492893e+000
0	 5.333553781553801e-001	 4.600030000017849e+000	 8.408046533674085e+000
0	 5.333553781553804e-001	 4.666700000016666e+000	 8.521577465791657e+000
0	 6.000263254118248e-001	 4.000000000000000e+000	 1.326752658735058e+001
0	 6.000263254118247e-001	 4.066670000003316e+000	 1.223521739054699e+001
0	 6.000263254118248e-001	 4.133340000006535e+000	 1.134005653638349e+001
0	 6.000263254118247e-001	 4.200010000009550e+000	 1.057864663920773e+001
0	 6.000263254118248e-001	 4.266680000012268e+000	 9.947590313368323e+000
0	 6.000263254118246e-001	 4.333350000014583e+000	 9.443490173214768e+000
0	 6.000263254118248e-001	 4.400020000016400e+000	 9.062948833097462e+000
0	 6.000263254118247e-001	 4.466690000017615e+000	 8.802568907367743e+000
0	 6.000263254118247e-001	 4.533360000018132e+000	 8.658953010377836e+000
0	 6.000263254118247e-001	 4.600030000017848e+000	 8.628703756480874e+000
0	 6.000263254118247e-001	 4.666700000016666e+000	 8.708423760030922e+000
0	 6.666972226472177e-001	 4.000000000000001e+000	 1.272737655913853e+001
0	 6.666972226472177e-001	 4.066670000003317e+000	 1.189484822388171e+001
0	 6.666972226472177e-001	 4.133340000006535e+000	 1.116373710432491e+001
0	 6.666972226472177e-001	 4.200010000009551e+000	 1.053326072038484e+001
0	 6.666972226472177e-001	 4.266680000012267e+000	 1.000263659197906e+001
0	 6.666972226472177e-001	 4.333350000014583e+000	 9.571082239025914e+000
0	 6.666972226472175e-001	 4.400020000016401e+000	 9.237815181444580e+000
0	 6.666972226472177e-001	 4.466690000017615e+000	 9.002052939155014e+000
0	 6.666972226472175e-001	 4.533360000018132e+000	 8.863013032078010e+000
0	 6.666972226472177e-001	 4.600030000017849e+000	 8.819912980135127e+000
0	 6.666972226472177e-001	 4.666700000016666e+000	 8.871970303248757e+000
0	 0.000000000000000e+000	 4.666700000016666e+000	 6.988186360623873e+000
0	 0.000000000000000e+000	 4.733360000014533e+000	 7.475087290172621e+000
0	 0.000000000000000e+000	 4.800020000011600e+000	 7.908889780027709e+000
0	 0.000000000000000e+000	 4.866680000008066e+000	 8.289618720420730e+000
0	 0.000000000000000e+000	 4.933340000004134e+000	 8.617299001584209e+000
0	 0.000000000000000e+000	 5.000000000000000e+000	 8.891955513751642e+000
0	 0.000000000000000e+000	 5.066659999995866e+000	 9.113613147157516e+000
0	 0.000000000000000e+000	 5.133319999991933e+000	 9.282296792037258e+000
0	 0.000000000000000e+000	 5.199979999988399e+000	 9.398031338627302e+000
0	 0.000000000000000e+000	 5.266639999985466e+000	 9.460841677164988e+000
0	 0.000000000000000e+000	 5.333299999983335e+000	 9.470752697888667e+000
0	 6.666714722864756e-002	 4.666700000016667e+000	 7.121380457381214e+000
0	 6.666714722864753e-002	 4.733360000014533e+000	 7.581193277092181e+000
0	 6.666714722864756e-002	 4.800020000011601e+000	 7.991451940299468e+000
0	 6.666714722864756e-002	 4.866680000008067e+000	 8.352010019599129e+000
0	 6.666714722864757e-002	 4.933340000004133e+000	 8.662721087588158e+000
0	 6.666714722864756e-002	 5.000000000000003e+000	 8.923438716864489e+000
0	 6.666714722864758e-002	 5.066659999995870e+000	 9.134016480026942e+000
0	 6.666714722864754e-002	 5.133319999991933e+000	 9.294307949675311e+000
0	 6.666714722864757e-002	 5.199979999988399e+000	 9.404166698410291e+000
0	 6.666714722864754e-002	 5.266639999985466e+000	 9.463446298833537e+000
0	 6.666714722864757e-002	 5.333299999983336e+000	 9.472000323547565e+000
0	 1.333351778131789e-001	 4.666700000016666e+000	 7.284618902138602e+000
0	 1.333351778131789e-001	 4.733360000014534e+000	 7.710546488388840e+000
0	 1.333351778131789e-001	 4.800020000011600e+000	 8.091199097879219e+000
0	 1.333351778131789e-001	 4.866680000008066e+000	 8.426284280401944e+000
0	 1.333351778131789e-001	 4.933340000004134e+000	 8.715509585750077e+000
0	 1.333351778131789e-001	 5.000000000000002e+000	 8.958582563717529e+000
0	 1.333351778131789e-001	 5.066659999995866e+000	 9.155210764099115e+000
0	 1.333351778131790e-001	 5.133319999991935e+000	 9.305101736690544e+000
0	 1.333351778131790e-001	 5.199979999988400e+000	 9.407963031288302e+000
0	 1.333351778131789e-001	 5.266639999985466e+000	 9.463502197689868e+000
0	 1.333351778131789e-001	 5.333299999983332e+000	 9.471426785693478e+000
0	 2.000039750814772e-001	 4.666700000016665e+000	 7.471233829199004e+000
0	 2.000039750814772e-001	 4.733360000014534e+000	 7.858029112506533e+000
0	 2.000039750814773e-001	 4.800020000011601e+000	 8.204378615067933e+000
0	 2.000039750814773e-001	 4.866680000008069e+000	 8.509869156997461e+000
0	 2.000039750814772e-001	 4.933340000004133e+000	 8.774087558410141e+000
0	 2.000039750814773e-001	 5.000000000000002e+000	 8.996620639421865e+000
0	 2.000039750814773e-001	 5.066659999995867e+000	 9.177055220149258e+000
0	 2.000039750814773e-001	 5.133319999991935e+000	 9.314978120709750e+000
0	 2.000039750814773e-001	 5.199979999988401e+000	 9.409976161221641e+000
0	 2.000039750814773e-001	 5.266639999985465e+000	 9.461636161803927e+000
0	 2.000039750814772e-001	 5.333299999983334e+000	 9.469544942576485e+000
0	 2.666734223614256e-001	 4.666700000016667e+000	 7.674557330949685e+000
0	 2.666734223614255e-001	 4.733360000014532e+000	 8.018523306530097e+000
0	 2.666734223614256e-001	 4.800020000011600e+000	 8.327237831101765e+000
0	 2.666734223614256e-001	 4.866680000008067e+000	 8.600192286786891e+000
0	 2.666734223614256e-001	 4.933340000004134e+000	 8.836878055708377e+000
0	 2.666734223614256e-001	 5.000000000000000e+000	 9.036786519989843e+000
0	 2.666734223614256e-001	 5.066659999995867e+000	 9.199409061755635e+000
0	 2.666734223614256e-001	 5.133319999991934e+000	 9.324237063130822e+000
0	 2.666734223614257e-001	 5.199979999988400e+000	 9.410761906241186e+000
0	 2.666734223614255e-001	 5.266639999985467e+000	 9.458474973213207e+000
0	 2.666734223614254e-001	 5.333299999983334e+000	 9.466867646174134e+000
0	 3.333434029809069e-001	 4.666700000016666e+000	 7.887921457867055e+000
0	 3.333434029809069e-001	 4.733360000014533e+000	 8.186911196188712e+000
0	 3.333434029809069e-001	 4.800020000011601e+000	 8.456024062154505e+000
0	 3.333434029809069e-001	 4.866680000008067e+000	 8.694681290406029e+000
0	 3.333434029809069e-001	 4.933340000004134e+000	 8.902304115585482e+000
0	 3.333434029809069e-001	 5.000000000000001e+000	 9.078313772335703e+000
0	 3.333434029809069e-001	 5.066659999995866e+000	 9.222131495300168e+000
0	 3.333434029809069e-001	 5.133319999991933e+000	 9.333178519122983e+000
0	 3.333434029809069e-001	 5.199979999988400e+000	 9.410876078448865e+000
0	 3.333434029809069e-001	 5.266639999985466e+000	 9.454645407923172e+000
0	 3.333434029809068e-001	 5.333299999983334e+000	 9.463907742191918e+000
0	 4.000138002678044e-001	 4.666700000016665e+000	 8.104658218520431e+000
0	 4.000138002678044e-001	 4.733360000014534e+000	 8.358074875858492e+000
0	 4.000138002678044e-001	 4.800020000011599e+000	 8.586984601339227e+000
0	 4.000138002678044e-001	 4.866680000008067e+000	 8.790763771726212e+000
0	 4.000138002678043e-001	 4.933340000004134e+000	 8.968788763783561e+000
0	 4.000138002678044e-001	 5.000000000000002e+000	 9.120435954275934e+000
0	 4.000138002678043e-001	 5.066659999995866e+000	 9.245081719968509e+000
0	 4.000138002678044e-001	 5.133319999991934e+000	 9.342102437627045e+000
0	 4.000138002678044e-001	 5.199979999988399e+000	 9.410874484017791e+000
0	 4.000138002678045e-001	 5.266639999985467e+000	 9.450774235907549e+000
0	 4.000138002678044e-001	 5.333299999983333e+000	 9.461178070063671e+000
0	 4.666844975500012e-001	 4.666700000016667e+000	 8.318099579574660e+000
0	 4.666844975500011e-001	 4.733360000014533e+000	 8.526896408564280e+000
0	 4.666844975500011e-001	 4.800020000011597e+000	 8.716366718709459e+000
0	 4.666844975500012e-001	 4.866680000008067e+000	 8.885867317855070e+000
0	 4.666844975500011e-001	 4.933340000004133e+000	 9.034755013846464e+000
0	 4.666844975500011e-001	 4.999999999999999e+000	 9.162386614529442e+000
0	 4.666844975500010e-001	 5.066659999995867e+000	 9.268118927750223e+000
0	 4.666844975500011e-001	 5.133319999991932e+000	 9.351308761355494e+000
0	 4.666844975500012e-001	 5.199979999988399e+000	 9.411312923192385e+000
0	 4.666844975500012e-001	 5.266639999985466e+000	 9.447488221108458e+000
0	 4.666844975500012e-001	 5.333299999983335e+000	 9.459191462951729e+000
0	 5.333553781553804e-001	 4.666700000016666e+000	 8.521577465791657e+000
0	 5.333553781553803e-001	 4.733360000014533e+000	 8.688257825980619e+000
0	 5.333553781553801e-001	 4.800020000011600e+000	 8.840417661259703e+000
0	 5.333553781553803e-001	 4.866680000008066e+000	 8.977419499136705e+000
0	 5.333553781553801e-001	 4.933340000004134e+000	 9.098625867119782e+000
0	 5.333553781553804e-001	 5.000000000000002e+000	 9.203399292717439e+000
0	 5.333553781553803e-001	 5.066659999995867e+000	 9.291102303438537e+000
0	 5.333553781553803e-001	 5.133319999991934e+000	 9.361097426792302e+000
0	 5.333553781553801e-001	 5.199979999988400e+000	 9.412747190288288e+000
0	 5.333553781553803e-001	 5.266639999985466e+000	 9.445414121436443e+000
0	 5.333553781553803e-001	 5.333299999983334e+000	 9.458460747747047e+000
0	 6.000263254118247e-001	 4.666700000016666e+000	 8.708423760030922e+000
0	 6.000263254118248e-001	 4.733360000014533e+000	 8.837041128431881e+000
0	 6.000263254118248e-001	 4.800020000011600e+000	 8.955384652925400e+000
0	 6.000263254118248e-001	 4.866680000008066e+000	 9.062847869151506e+000
0	 6.000263254118248e-001	 4.933340000004134e+000	 9.158824312750557e+000
0	 6.000263254118247e-001	 5.000000000000001e+000	 9.242707519363126e+000
0	 6.000263254118246e-001	 5.066659999995866e+000	 9.313891024630117e+000
0	 6.000263254118247e-001	 5.133319999991933e+000	 9.371768364192633e+000
0	 6.000263254118249e-001	 5.199979999988400e+000	 9.415733073692115e+000
0	 6.000263254118247e-001	 5.266639999985466e+000	 9.445178688770252e+000
0	 6.000263254118248e-001	 5.333299999983335e+000	 9.459498745068999e+000
0	 6.666972226472177e-001	 4.666700000016666e+000	 8.871970303248759e+000
0	 6.666972226472177e-001	 4.733360000014534e+000	 8.968128284891590e+000
0	 6.666972226472177e-001	 4.800020000011601e+000	 9.057514894582152e+000
0	 6.666972226472177e-001	 4.866680000008066e+000	 9.139579964715429e+000
0	 6.666972226472178e-001	 4.933340000004134e+000	 9.213773327686628e+000
0	 6.666972226472174e-001	 5.000000000000000e+000	 9.279544815891100e+000
0	 6.666972226472178e-001	 5.066659999995867e+000	 9.336344261724452e+000
0	 6.666972226472177e-001	 5.133319999991933e+000	 9.383621497582446e+000
0	 6.666972226472177e-001	 5.199979999988399e+000	 9.420826355861074e+000
0	 6.666972226472178e-001	 5.266639999985466e+000	 9.447408668956506e+000
0	 6.666972226472177e-001	 5.333299999983336e+000	 9.462818269265108e+000
0	 0.000000000000000e+000	 5.333299999983335e+000	 9.470752697888663e+000
0	 0.000000000000000e+000	 5.399969999982150e+000	 9.456694811302004e+000
0	 0.000000000000000e+000	 5.466639999981866e+000	 9.447515407915642e+000
0	 0.000000000000000e+000	 5.533309999982383e+000	 9.443107408581630e+000
0	 0.000000000000000e+000	 5.599979999983598e+000	 9.443363734152019e+000
0	 0.000000000000000e+000	 5.666649999985415e+000	 9.448177305478877e+000
0	 0.000000000000000e+000	 5.733319999987732e+000	 9.457441043414399e+000
0	 0.000000000000000e+000	 5.799989999990449e+000	 9.471047868810759e+000
0	 0.000000000000000e+000	 5.866659999993465e+000	 9.488890702520086e+000
0	 0.000000000000000e+000	 5.933329999996681e+000	 9.510862465394713e+000
0	 0.000000000000000e+000	 6.000000000000000e+000	 9.536856078286913e+000
0	 6.666714722864757e-002	 5.333299999983336e+000	 9.472000323547565e+000
0	 6.666714722864757e-002	 5.399969999982149e+000	 9.457582259811467e+000
0	 6.666714722864756e-002	 5.466639999981866e+000	 9.447996460034634e+000
0	 6.666714722864758e-002	 5.533309999982382e+000	 9.443165207879680e+000
0	 6.666714722864753e-002	 5.599979999983598e+000	 9.443010787009282e+000
0	 6.666714722864757e-002	 5.666649999985414e+000	 9.447455481086115e+000
0	 6.666714722864754e-002	 5.733319999987730e+000	 9.456421573772916e+000
0	 6.666714722864758e-002	 5.799989999990449e+000	 9.469831348732457e+000
0	 6.666714722864756e-002	 5.866659999993465e+000	 9.487607089627531e+000
0	 6.666714722864756e-002	 5.933329999996681e+000	 9.509671080121038e+000
0	 6.666714722864756e-002	 6.000000000000000e+000	 9.535945603875799e+000
0	 1.333351778131789e-001	 5.333299999983332e+000	 9.471426785693474e+000
0	 1.333351778131789e-001	 5.399969999982152e+000	 9.457772411742049e+000
0	 1.333351778131789e-001	 5.466639999981864e+000	 9.448741219938530e+000
0	 1.333351778131789e-001	 5.533309999982382e+000	 9.444283359769608e+000
0	 1.333351778131789e-001	 5.599979999983598e+000	 9.444348980722110e+000
0	 1.333351778131789e-001	 5.666649999985416e+000	 9.448888232282778e+000
0	 1.333351778131790e-001	 5.733319999987732e+000	 9.457851263938499e+000
0	 1.333351778131790e-001	 5.799989999990449e+000	 9.471188225176144e+000
0	 1.333351778131789e-001	 5.866659999993464e+000	 9.488849265482639e+000
0	 1.333351778131790e-001	 5.933329999996682e+000	 9.510784534344950e+000
0	 1.333351778131789e-001	 6.000000000000000e+000	 9.536944181250066e+000
0	 2.000039750814772e-001	 5.333299999983334e+000	 9.469544942576485e+000
0	 2.000039750814772e-001	 5.399969999982150e+000	 9.457585363611928e+000
0	 2.000039750814773e-001	 5.466639999981867e+000	 9.449904315709967e+000
0	 2.000039750814773e-001	 5.533309999982384e+000	 9.446478317396849e+000
0	 2.000039750814772e-001	 5.599979999983597e+000	 9.447283887198825e+000
0	 2.000039750814773e-001	 5.666649999985414e+000	 9.452297543642228e+000
0	 2.000039750814772e-001	 5.733319999987733e+000	 9.461495805253392e+000
0	 2.000039750814773e-001	 5.799989999990447e+000	 9.474855190558722e+000
0	 2.000039750814772e-001	 5.866659999993462e+000	 9.492352218084625e+000
0	 2.000039750814773e-001	 5.933329999996682e+000	 9.513963406357545e+000
0	 2.000039750814773e-001	 6.000000000000001e+000	 9.539665273903996e+000
0	 2.666734223614254e-001	 5.333299999983334e+000	 9.466867646174134e+000
0	 2.666734223614255e-001	 5.399969999982146e+000	 9.457341205508319e+000
0	 2.666734223614255e-001	 5.466639999981866e+000	 9.451640368955282e+000
0	 2.666734223614256e-001	 5.533309999982381e+000	 9.449766527482328e+000
0	 2.666734223614256e-001	 5.599979999983599e+000	 9.451721072056728e+000
0	 2.666734223614254e-001	 5.666649999985413e+000	 9.457505393645864e+000
0	 2.666734223614255e-001	 5.733319999987731e+000	 9.467120883217115e+000
0	 2.666734223614255e-001	 5.799989999990447e+000	 9.480568931737913e+000
0	 2.666734223614255e-001	 5.866659999993463e+000	 9.497850930175684e+000
0	 2.666734223614256e-001	 5.933329999996680e+000	 9.518968269497911e+000
0	 2.666734223614256e-001	 6.000000000000000e+000	 9.543922340672124e+000
0	 3.333434029809068e-001	 5.333299999983334e+000	 9.463907742191918e+000
0	 3.333434029809069e-001	 5.399969999982150e+000	 9.457360021088119e+000
0	 3.333434029809069e-001	 5.466639999981866e+000	 9.454103994805095e+000
0	 3.333434029809069e-001	 5.533309999982382e+000	 9.454164430323136e+000
0	 3.333434029809069e-001	 5.599979999983598e+000	 9.457566094622559e+000
0	 3.333434029809069e-001	 5.666649999985413e+000	 9.464333754683702e+000
0	 3.333434029809068e-001	 5.733319999987731e+000	 9.474492177486940e+000
0	 3.333434029809069e-001	 5.799989999990449e+000	 9.488066130012689e+000
0	 3.333434029809069e-001	 5.866659999993464e+000	 9.505080379241383e+000
0	 3.333434029809069e-001	 5.933329999996681e+000	 9.525559692153466e+000
0	 3.333434029809069e-001	 6.000000000000001e+000	 9.549528835729477e+000
0	 4.000138002678044e-001	 5.333299999983333e+000	 9.461178070063671e+000
0	 4.000138002678045e-001	 5.399969999982150e+000	 9.457961887578321e+000
0	 4.000138002678043e-001	 5.466639999981865e+000	 9.457449801914791e+000
0	 4.000138002678044e-001	 5.533309999982382e+000	 9.459688459793041e+000
0	 4.000138002678045e-001	 5.599979999983598e+000	 9.464724507933035e+000
0	 4.000138002678043e-001	 5.666649999985415e+000	 9.472604593054784e+000
0	 4.000138002678044e-001	 5.733319999987732e+000	 9.483375361878315e+000
0	 4.000138002678044e-001	 5.799989999990449e+000	 9.497083461123703e+000
0	 4.000138002678044e-001	 5.866659999993466e+000	 9.513775537511005e+000
0	 4.000138002678042e-001	 5.933329999996680e+000	 9.533498237760373e+000
0	 4.000138002678045e-001	 6.000000000000001e+000	 9.556298208591908e+000
0	 4.666844975500012e-001	 5.333299999983335e+000	 9.459191462951729e+000
0	 4.666844975500012e-001	 5.399969999982149e+000	 9.459466875776233e+000
0	 4.666844975500010e-001	 5.466639999981865e+000	 9.461832392464773e+000
0	 4.666844975500011e-001	 5.533309999982383e+000	 9.466355043342617e+000
0	 4.666844975500011e-001	 5.599979999983598e+000	 9.473101858735070e+000
0	 4.666844975500011e-001	 5.666649999985415e+000	 9.482139868967462e+000
0	 4.666844975500011e-001	 5.733319999987730e+000	 9.493536104365118e+000
0	 4.666844975500012e-001	 5.799989999990449e+000	 9.507357595253406e+000
0	 4.666844975500011e-001	 5.866659999993464e+000	 9.523671371957757e+000
0	 4.666844975500012e-001	 5.933329999996682e+000	 9.542544464803525e+000
0	 4.666844975500011e-001	 5.999999999999998e+000	 9.564043904116183e+000
0	 5.333553781553803e-001	 5.333299999983334e+000	 9.458460747747044e+000
0	 5.333553781553803e-001	 5.399969999982149e+000	 9.462195050049587e+000
0	 5.333553781553801e-001	 5.466639999981867e+000	 9.467406362160546e+000
0	 5.333553781553803e-001	 5.533309999982382e+000	 9.474180601999464e+000
0	 5.333553781553801e-001	 5.599979999983596e+000	 9.482603687485906e+000
0	 5.333553781553801e-001	 5.666649999985415e+000	 9.492761536539426e+000
0	 5.333553781553803e-001	 5.733319999987733e+000	 9.504740067079659e+000
0	 5.333553781553803e-001	 5.799989999990449e+000	 9.518625197026186e+000
0	 5.333553781553803e-001	 5.866659999993465e+000	 9.534502844298633e+000
0	 5.333553781553801e-001	 5.933329999996681e+000	 9.552458926816652e+000
0	 5.333553781553801e-001	 5.999999999999999e+000	 9.572579362499887e+000
0	 6.000263254118248e-001	 5.333299999983335e+000	 9.459498745069000e+000
0	 6.000263254118247e-001	 5.399969999982150e+000	 9.466466468336407e+000
0	 6.000263254118248e-001	 5.466639999981866e+000	 9.474326300232685e+000
0	 6.000263254118248e-001	 5.533309999982383e+000	 9.483181550368142e+000
0	 6.000263254118248e-001	 5.599979999983598e+000	 9.493135528353063e+000
0	 6.000263254118248e-001	 5.666649999985415e+000	 9.504291543797805e+000
0	 6.000263254118248e-001	 5.733319999987732e+000	 9.516752906312718e+000
0	 6.000263254118247e-001	 5.799989999990447e+000	 9.530622925508165e+000
0	 6.000263254118249e-001	 5.866659999993464e+000	 9.546004910994505e+000
0	 6.000263254118246e-001	 5.933329999996681e+000	 9.563002172382110e+000
0	 6.000263254118249e-001	 6.000000000000002e+000	 9.581718019281404e+000
0	 6.666972226472177e-001	 5.333299999983336e+000	 9.462818269265107e+000
0	 6.666972226472175e-001	 5.399969999982150e+000	 9.472601182144842e+000
0	 6.666972226472178e-001	 5.466639999981866e+000	 9.482746789436622e+000
0	 6.666972226472174e-001	 5.533309999982380e+000	 9.493374296629899e+000
0	 6.666972226472175e-001	 5.599979999983599e+000	 9.504602909214121e+000
0	 6.666972226472175e-001	 5.666649999985415e+000	 9.516551832678722e+000
0	 6.666972226472177e-001	 5.733319999987732e+000	 9.529340272513220e+000
0	 6.666972226472177e-001	 5.799989999990449e+000	 9.543087434207061e+000
0	 6.666972226472175e-001	 5.866659999993465e+000	 9.557912523249742e+000
0	 6.666972226472175e-001	 5.933329999996681e+000	 9.573934745130757e+000
0	 6.666972226472177e-001	 6.000000000000002e+000	 9.591273305339593e+000
0	 0.000000000000000e+000	 6.000000000000000e+000	 9.536856078286913e+000
0	 0.000000000000000e+000	 6.066670000003317e+000	 9.563639570242479e+000
0	 0.000000000000000e+000	 6.133340000006534e+000	 9.588094041203725e+000
0	 0.000000000000000e+000	 6.200010000009550e+000	 9.610282018367697e+000
0	 0.000000000000000e+000	 6.266680000012268e+000	 9.630266028931361e+000
0	 0.000000000000000e+000	 6.333350000014583e+000	 9.648108600091739e+000
0	 0.000000000000000e+000	 6.400020000016398e+000	 9.663872259045800e+000
0	 0.000000000000000e+000	 6.466690000017615e+000	 9.677619532990500e+000
0	 0.000000000000000e+000	 6.533360000018133e+000	 9.689412949122769e+000
0	 0.000000000000000e+000	 6.600030000017849e+000	 9.699315034639488e+000
0	 0.000000000000000e+000	 6.666700000016666e+000	 9.707388316737589e+000
0	 6.666714722864756e-002	 6.000000000000000e+000	 9.535945603875799e+000
0	 6.666714722864754e-002	 6.066670000003317e+000	 9.563112335939216e+000
0	 6.666714722864754e-002	 6.133340000006531e+000	 9.587938357887412e+000
0	 6.666714722864756e-002	 6.200010000009551e+000	 9.610474063176518e+000
0	 6.666714722864754e-002	 6.266680000012268e+000	 9.630769845262636e+000
0	 6.666714722864754e-002	 6.333350000014581e+000	 9.648876097601807e+000
0	 6.666714722864754e-002	 6.400020000016400e+000	 9.664843213650126e+000
0	 6.666714722864758e-002	 6.466690000017616e+000	 9.678721586863617e+000
0	 6.666714722864754e-002	 6.533360000018128e+000	 9.690561610698277e+000
0	 6.666714722864757e-002	 6.600030000017847e+000	 9.700413678610124e+000
0	 6.666714722864757e-002	 6.666700000016667e+000	 9.708328184055118e+000
0	 1.333351778131789e-001	 6.000000000000000e+000	 9.536944181250066e+000
0	 1.333351778131789e-001	 6.066670000003316e+000	 9.564040795510891e+000
0	 1.333351778131789e-001	 6.133340000006534e+000	 9.588845851885955e+000
0	 1.333351778131789e-001	 6.200010000009550e+000	 9.611397828030700e+000
0	 1.333351778131790e-001	 6.266680000012268e+000	 9.631735201600524e+000
0	 1.333351778131790e-001	 6.333350000014584e+000	 9.649896450250779e+000
0	 1.333351778131789e-001	 6.400020000016398e+000	 9.665920051636862e+000
0	 1.333351778131789e-001	 6.466690000017615e+000	 9.679844483414104e+000
0	 1.333351778131789e-001	 6.533360000018132e+000	 9.691708223237850e+000
0	 1.333351778131789e-001	 6.600030000017847e+000	 9.701549748763394e+000
0	 1.333351778131789e-001	 6.666700000016665e+000	 9.709407537645982e+000
0	 2.000039750814773e-001	 6.000000000000001e+000	 9.539665273903996e+000
0	 2.000039750814773e-001	 6.066670000003317e+000	 9.566300603544628e+000
0	 2.000039750814772e-001	 6.133340000006531e+000	 9.590745685565274e+000
0	 2.000039750814773e-001	 6.200010000009550e+000	 9.613027299690280e+000
0	 2.000039750814773e-001	 6.266680000012268e+000	 9.633172225643921e+000
0	 2.000039750814773e-001	 6.333350000014582e+000	 9.651207243150459e+000
0	 2.000039750814773e-001	 6.400020000016402e+000	 9.667159131934131e+000
0	 2.000039750814773e-001	 6.466690000017615e+000	 9.681054671719231e+000
0	 2.000039750814773e-001	 6.533360000018134e+000	 9.692920642229908e+000
0	 2.000039750814772e-001	 6.600030000017847e+000	 9.702783823190375e+000
0	 2.000039750814772e-001	 6.666700000016666e+000	 9.710670994324790e+000
0	 2.666734223614256e-001	 6.000000000000000e+000	 9.543922340672124e+000
0	 2.666734223614255e-001	 6.066670000003315e+000	 9.569767410234299e+000
0	 2.666734223614256e-001	 6.133340000006533e+000	 9.593567017138414e+000
0	 2.666734223614256e-001	 6.200010000009550e+000	 9.615336460978812e+000
0	 2.666734223614256e-001	 6.266680000012266e+000	 9.635091041349959e+000
0	 2.666734223614256e-001	 6.333350000014582e+000	 9.652846057846164e+000
0	 2.666734223614256e-001	 6.400020000016400e+000	 9.668616810061810e+000
0	 2.666734223614254e-001	 6.466690000017616e+000	 9.682418597591244e+000
0	 2.666734223614256e-001	 6.533360000018131e+000	 9.694266720028757e+000
0	 2.666734223614256e-001	 6.600030000017849e+000	 9.704176476968643e+000
0	 2.666734223614256e-001	 6.666700000016666e+000	 9.712163168005208e+000
0	 3.333434029809069e-001	 6.000000000000001e+000	 9.549528835729477e+000
0	 3.333434029809069e-001	 6.066670000003318e+000	 9.574316861381043e+000
0	 3.333434029809069e-001	 6.133340000006531e+000	 9.597239000665926e+000
0	 3.333434029809069e-001	 6.200010000009551e+000	 9.618299290783796e+000
0	 3.333434029809068e-001	 6.266680000012266e+000	 9.637501768934293e+000
0	 3.333434029809068e-001	 6.333350000014582e+000	 9.654850472317062e+000
0	 3.333434029809069e-001	 6.400020000016401e+000	 9.670349438131677e+000
0	 3.333434029809068e-001	 6.466690000017614e+000	 9.684002703577738e+000
0	 3.333434029809069e-001	 6.533360000018130e+000	 9.695814305854825e+000
0	 3.333434029809069e-001	 6.600030000017850e+000	 9.705788282162478e+000
0	 3.333434029809068e-001	 6.666700000016665e+000	 9.713928669700222e+000
0	 4.000138002678045e-001	 6.000000000000001e+000	 9.556298208591908e+000
0	 4.000138002678044e-001	 6.066670000003317e+000	 9.579824598393262e+000
0	 4.000138002678044e-001	 6.133340000006535e+000	 9.601690786056080e+000
0	 4.000138002678045e-001	 6.200010000009552e+000	 9.621889764056700e+000
0	 4.000138002678044e-001	 6.266680000012265e+000	 9.640414524871327e+000
0	 4.000138002678045e-001	 6.333350000014582e+000	 9.657258060976256e+000
0	 4.000138002678044e-001	 6.400020000016400e+000	 9.672413364847667e+000
0	 4.000138002678044e-001	 6.466690000017614e+000	 9.685873428961818e+000
0	 4.000138002678043e-001	 6.533360000018130e+000	 9.697631245794867e+000
0	 4.000138002678044e-001	 6.600030000017847e+000	 9.707679807823002e+000
0	 4.000138002678044e-001	 6.666700000016665e+000	 9.716012107522378e+000
0	 4.666844975500011e-001	 5.999999999999998e+000	 9.564043904116183e+000
0	 4.666844975500010e-001	 6.066670000003314e+000	 9.586166258286852e+000
0	 4.666844975500012e-001	 6.133340000006535e+000	 9.606851519064897e+000
0	 4.666844975500011e-001	 6.200010000009550e+000	 9.626081851813105e+000
0	 4.666844975500011e-001	 6.266680000012268e+000	 9.643839421894198e+000
0	 4.666844975500010e-001	 6.333350000014582e+000	 9.660106394670924e+000
0	 4.666844975500012e-001	 6.400020000016399e+000	 9.674864935506026e+000
0	 4.666844975500010e-001	 6.466690000017613e+000	 9.688097209762173e+000
0	 4.666844975500011e-001	 6.533360000018130e+000	 9.699785382802084e+000
0	 4.666844975500012e-001	 6.600030000017848e+000	 9.709911619988414e+000
0	 4.666844975500011e-001	 6.666700000016666e+000	 9.718458086683834e+000
0	 5.333553781553801e-001	 5.999999999999999e+000	 9.572579362499887e+000
0	 5.333553781553800e-001	 6.066670000003316e+000	 9.593217473685172e+000
0	 5.333553781553803e-001	 6.133340000006532e+000	 9.612650341296135e+000
0	 5.333553781553803e-001	 6.200010000009550e+000	 9.630849521132712e+000
0	 5.333553781553803e-001	 6.266680000012266e+000	 9.647786568994814e+000
0	 5.333553781553803e-001	 6.333350000014583e+000	 9.663433040682316e+000
0	 5.333553781553803e-001	 6.400020000016400e+000	 9.677760491995130e+000
0	 5.333553781553803e-001	 6.466690000017616e+000	 9.690740478733094e+000
0	 5.333553781553803e-001	 6.533360000018133e+000	 9.702344556696087e+000
0	 5.333553781553803e-001	 6.600030000017848e+000	 9.712544281683933e+000
0	 5.333553781553804e-001	 6.666700000016668e+000	 9.721311209496458e+000
0	 6.000263254118249e-001	 6.000000000000002e+000	 9.581718019281404e+000
0	 6.000263254118247e-001	 6.066670000003317e+000	 9.600853872818837e+000
0	 6.000263254118249e-001	 6.133340000006534e+000	 9.619016390201150e+000
0	 6.000263254118247e-001	 6.200010000009550e+000	 9.636166735159183e+000
0	 6.000263254118247e-001	 6.266680000012266e+000	 9.652266071423723e+000
0	 6.000263254118248e-001	 6.333350000014584e+000	 9.667275562725598e+000
0	 6.000263254118248e-001	 6.400020000016399e+000	 9.681156372795565e+000
0	 6.000263254118248e-001	 6.466690000017616e+000	 9.693869665364407e+000
0	 6.000263254118248e-001	 6.533360000018132e+000	 9.705376604162899e+000
0	 6.000263254118249e-001	 6.600030000017850e+000	 9.715638352921774e+000
0	 6.000263254118247e-001	 6.666700000016666e+000	 9.724616075371753e+000
0	 6.666972226472177e-001	 6.000000000000002e+000	 9.591273305339593e+000
0	 6.666972226472175e-001	 6.066670000003317e+000	 9.608951079525516e+000
0	 6.666972226472177e-001	 6.133340000006534e+000	 9.625878799078679e+000
0	 6.666972226472175e-001	 6.200010000009550e+000	 9.642007453099888e+000
0	 6.666972226472175e-001	 6.266680000012266e+000	 9.657288030689948e+000
0	 6.666972226472178e-001	 6.333350000014584e+000	 9.671671520949673e+000
0	 6.666972226472177e-001	 6.400020000016399e+000	 9.685108912979864e+000
0	 6.666972226472177e-001	 6.466690000017617e+000	 9.697551195881305e+000
0	 6.666972226472178e-001	 6.533360000018132e+000	 9.708949358754765e+000
0	 6.666972226472177e-001	 6.600030000017849e+000	 9.719254390701005e+000
0	 6.666972226472177e-001	 6.666700000016666e+000	 9.728417280820768e+000
0	 0.000000000000000e+000	 6.666700000016666e+000	 9.707388316737589e+000
0	 0.000000000000000e+000	 6.733360000014533e+000	 9.714851438609216e+000
0	 0.000000000000000e+000	 6.800020000011601e+000	 9.722855222506368e+000
0	 0.000000000000000e+000	 6.866680000008067e+000	 9.731357233502296e+000
0	 0.000000000000000e+000	 6.933340000004135e+000	 9.740315036670021e+000
0	 0.000000000000000e+000	 7.000000000000002e+000	 9.749686197082717e+000
0	 0.000000000000000e+000	 7.066659999995869e+000	 9.759428279813479e+000
0	 0.000000000000000e+000	 7.133319999991937e+000	 9.769498849935417e+000
0	 0.000000000000000e+000	 7.199979999988404e+000	 9.779855472521627e+000
0	 0.000000000000000e+000	 7.266639999985471e+000	 9.790455712645258e+000
0	 0.000000000000000e+000	 7.333299999983334e+000	 9.801257135379361e+000
0	 6.666714722864757e-002	 6.666700000016667e+000	 9.708328184055118e+000
0	 6.666714722864754e-002	 6.733360000014533e+000	 9.715575299354850e+000
0	 6.666714722864756e-002	 6.800020000011601e+000	 9.723369483333652e+000
0	 6.666714722864754e-002	 6.866680000008065e+000	 9.731674426223343e+000
0	 6.666714722864757e-002	 6.933340000004134e+000	 9.740453818255745e+000
0	 6.666714722864756e-002	 7.000000000000004e+000	 9.749671349662632e+000
0	 6.666714722864758e-002	 7.066659999995870e+000	 9.759290710675803e+000
0	 6.666714722864754e-002	 7.133319999991938e+000	 9.769275591527045e+000
0	 6.666714722864757e-002	 7.199979999988403e+000	 9.779589682448137e+000
0	 6.666714722864754e-002	 7.266639999985471e+000	 9.790196673670918e+000
0	 6.666714722864756e-002	 7.333299999983333e+000	 9.801060255427085e+000
0	 1.333351778131789e-001	 6.666700000016665e+000	 9.709407537645985e+000
0	 1.333351778131789e-001	 6.733360000014532e+000	 9.716561882488762e+000
0	 1.333351778131789e-001	 6.800020000011598e+000	 9.724249389160969e+000
0	 1.333351778131789e-001	 6.866680000008066e+000	 9.732439909935959e+000
0	 1.333351778131789e-001	 6.933340000004134e+000	 9.741103297087067e+000
0	 1.333351778131789e-001	 7.000000000000000e+000	 9.750209402887638e+000
0	 1.333351778131789e-001	 7.066659999995868e+000	 9.759728079611026e+000
0	 1.333351778131789e-001	 7.133319999991938e+000	 9.769629179530543e+000
0	 1.333351778131790e-001	 7.199979999988406e+000	 9.779882554919535e+000
0	 1.333351778131789e-001	 7.266639999985471e+000	 9.790458058051328e+000
0	 1.333351778131789e-001	 7.333299999983333e+000	 9.801325541199237e+000
0	 2.000039750814772e-001	 6.666700000016666e+000	 9.710670994324790e+000
0	 2.000039750814773e-001	 6.733360000014532e+000	 9.717836818129859e+000
0	 2.000039750814772e-001	 6.800020000011601e+000	 9.725504210429536e+000
0	 2.000039750814773e-001	 6.866680000008067e+000	 9.733649222452552e+000
0	 2.000039750814772e-001	 6.933340000004135e+000	 9.742247905427639e+000
0	 2.000039750814773e-001	 7.000000000000003e+000	 9.751276310583533e+000
0	 2.000039750814773e-001	 7.066659999995870e+000	 9.760710489148959e+000
0	 2.000039750814773e-001	 7.133319999991937e+000	 9.770526492352634e+000
0	 2.000039750814773e-001	 7.199979999988407e+000	 9.780700371423279e+000
0	 2.000039750814773e-001	 7.266639999985469e+000	 9.791208177589606e+000
0	 2.000039750814772e-001	 7.333299999983334e+000	 9.802025962080295e+000
0	 2.666734223614256e-001	 6.666700000016666e+000	 9.712163168005210e+000
0	 2.666734223614255e-001	 6.733360000014532e+000	 9.719425733602773e+000
0	 2.666734223614256e-001	 6.800020000011599e+000	 9.727143214887652e+000
0	 2.666734223614256e-001	 6.866680000008069e+000	 9.735297898989195e+000
0	 2.666734223614256e-001	 6.933340000004134e+000	 9.743872073036702e+000
0	 2.666734223614256e-001	 7.000000000000003e+000	 9.752848024159539e+000
0	 2.666734223614255e-001	 7.066659999995866e+000	 9.762208039487000e+000
0	 2.666734223614256e-001	 7.133319999991937e+000	 9.771934406148404e+000
0	 2.666734223614256e-001	 7.199979999988403e+000	 9.782009411273075e+000
0	 2.666734223614255e-001	 7.266639999985472e+000	 9.792415341990330e+000
0	 2.666734223614256e-001	 7.333299999983333e+000	 9.803134485429446e+000
0	 3.333434029809068e-001	 6.666700000016665e+000	 9.713928669700222e+000
0	 3.333434029809069e-001	 6.733360000014531e+000	 9.721354253438083e+000
0	 3.333434029809069e-001	 6.800020000011599e+000	 9.729175667590962e+000
0	 3.333434029809069e-001	 6.866680000008067e+000	 9.737381472165730e+000
0	 3.333434029809069e-001	 6.933340000004137e+000	 9.745960227169274e+000
0	 3.333434029809068e-001	 7.000000000000001e+000	 9.754900492608510e+000
0	 3.333434029809068e-001	 7.066659999995867e+000	 9.764190828490314e+000
0	 3.333434029809069e-001	 7.133319999991936e+000	 9.773819794821538e+000
0	 3.333434029809070e-001	 7.199979999988404e+000	 9.783775951609115e+000
0	 3.333434029809069e-001	 7.266639999985472e+000	 9.794047858859862e+000
0	 3.333434029809069e-001	 7.333299999983335e+000	 9.804624076580680e+000
0	 4.000138002678044e-001	 6.666700000016665e+000	 9.716012107522380e+000
0	 4.000138002678045e-001	 6.733360000014534e+000	 9.723647999372593e+000
0	 4.000138002678044e-001	 6.800020000011601e+000	 9.731610830902623e+000
0	 4.000138002678043e-001	 6.866680000008065e+000	 9.739895472006005e+000
0	 4.000138002678044e-001	 6.933340000004135e+000	 9.748496792576349e+000
0	 4.000138002678044e-001	 7.000000000000002e+000	 9.757409662507161e+000
0	 4.000138002678044e-001	 7.066659999995870e+000	 9.766628951692022e+000
0	 4.000138002678043e-001	 7.133319999991936e+000	 9.776149530024490e+000
0	 4.000138002678044e-001	 7.199979999988402e+000	 9.785966267398102e+000
0	 4.000138002678044e-001	 7.266639999985472e+000	 9.796074033706402e+000
0	 4.000138002678045e-001	 7.333299999983336e+000	 9.806467698842948e+000
0	 4.666844975500011e-001	 6.666700000016666e+000	 9.718458086683834e+000
0	 4.666844975500012e-001	 6.733360000014534e+000	 9.726332590349337e+000
0	 4.666844975500012e-001	 6.800020000011600e+000	 9.734457964493437e+000
0	 4.666844975500011e-001	 6.866680000008067e+000	 9.742835425937997e+000
0	 4.666844975500012e-001	 6.933340000004135e+000	 9.751466191504921e+000
0	 4.666844975500010e-001	 7.000000000000002e+000	 9.760351478016078e+000
0	 4.666844975500011e-001	 7.066659999995870e+000	 9.769492502293291e+000
0	 4.666844975500012e-001	 7.133319999991937e+000	 9.778890481158456e+000
0	 4.666844975500012e-001	 7.199979999988405e+000	 9.788546631433416e+000
0	 4.666844975500012e-001	 7.266639999985471e+000	 9.798462169940038e+000
0	 4.666844975500012e-001	 7.333299999983333e+000	 9.808638313500170e+000
0	 5.333553781553804e-001	 6.666700000016668e+000	 9.721311209496459e+000
0	 5.333553781553801e-001	 6.733360000014531e+000	 9.729433642517652e+000
0	 5.333553781553804e-001	 6.800020000011601e+000	 9.737726325341850e+000
0	 5.333553781553801e-001	 6.866680000008066e+000	 9.746196858793772e+000
0	 5.333553781553803e-001	 6.933340000004133e+000	 9.754852843698171e+000
0	 5.333553781553804e-001	 7.000000000000004e+000	 9.763701880879783e+000
0	 5.333553781553801e-001	 7.066659999995870e+000	 9.772751571163308e+000
0	 5.333553781553805e-001	 7.133319999991937e+000	 9.782009515373504e+000
0	 5.333553781553803e-001	 7.199979999988402e+000	 9.791483314335087e+000
0	 5.333553781553804e-001	 7.266639999985472e+000	 9.801180568872773e+000
0	 5.333553781553804e-001	 7.333299999983335e+000	 9.811108879811300e+000
0	 6.000263254118247e-001	 6.666700000016666e+000	 9.724616075371754e+000
0	 6.000263254118248e-001	 6.733360000014533e+000	 9.732976769233229e+000
0	 6.000263254118247e-001	 6.800020000011599e+000	 9.741425167733986e+000
0	 6.000263254118248e-001	 6.866680000008067e+000	 9.749975292809529e+000
0	 6.000263254118248e-001	 6.933340000004136e+000	 9.758641166395298e+000
0	 6.000263254118248e-001	 7.000000000000002e+000	 9.767436810426752e+000
0	 6.000263254118246e-001	 7.066659999995869e+000	 9.776376246839348e+000
0	 6.000263254118246e-001	 7.133319999991936e+000	 9.785473497568514e+000
0	 6.000263254118247e-001	 7.199979999988402e+000	 9.794742584549759e+000
0	 6.000263254118246e-001	 7.266639999985471e+000	 9.804197529718504e+000
0	 6.000263254118247e-001	 7.333299999983333e+000	 9.813852355010219e+000
0	 6.666972226472177e-001	 6.666700000016666e+000	 9.728417280820768e+000
0	 6.666972226472175e-001	 6.733360000014531e+000	 9.736987581057882e+000
0	 6.666972226472177e-001	 6.800020000011599e+000	 9.745563743263535e+000
0	 6.666972226472178e-001	 6.866680000008068e+000	 9.754166247625481e+000
0	 6.666972226472177e-001	 6.933340000004135e+000	 9.762815574331452e+000
0	 6.666972226472177e-001	 7.000000000000004e+000	 9.771532203569203e+000
0	 6.666972226472177e-001	 7.066659999995871e+000	 9.780336615526466e+000
0	 6.666972226472175e-001	 7.133319999991937e+000	 9.789249290390991e+000
0	 6.666972226472174e-001	 7.199979999988403e+000	 9.798290708350523e+000
0	 6.666972226472178e-001	 7.266639999985471e+000	 9.807481349592820e+000
0	 6.666972226472177e-001	 7.333299999983334e+000	 9.816841694305595e+000
0	 0.000000000000000e+000	 7.333299999983334e+000	 9.801257135379361e+000
0	 0.000000000000000e+000	 7.399969999982151e+000	 9.811863370345666e+000
0	 0.000000000000000e+000	 7.466639999981866e+000	 9.821919840181550e+000
0	 0.000000000000000e+000	 7.533309999982383e+000	 9.831451699514858e+000
0	 0.000000000000000e+000	 7.599979999983600e+000	 9.840484102973326e+000
0	 0.000000000000000e+000	 7.666649999985414e+000	 9.849042205184730e+000
0	 0.000000000000000e+000	 7.733319999987731e+000	 9.857151160776848e+000
0	 0.000000000000000e+000	 7.799989999990449e+000	 9.864836124377412e+000
0	 0.000000000000000e+000	 7.866659999993465e+000	 9.872122250614199e+000
0	 0.000000000000000e+000	 7.933329999996682e+000	 9.879034694114939e+000
0	 0.000000000000000e+000	 8.000000000000002e+000	 9.885598609507408e+000
0	 6.666714722864756e-002	 7.333299999983333e+000	 9.801060255427084e+000
0	 6.666714722864757e-002	 7.399969999982150e+000	 9.811757983778405e+000
0	 6.666714722864754e-002	 7.466639999981864e+000	 9.821903106105483e+000
0	 6.666714722864757e-002	 7.533309999982384e+000	 9.831517791010860e+000
0	 6.666714722864753e-002	 7.599979999983598e+000	 9.840624207097068e+000
0	 6.666714722864757e-002	 7.666649999985415e+000	 9.849244522966616e+000
0	 6.666714722864756e-002	 7.733319999987732e+000	 9.857400907222026e+000
0	 6.666714722864757e-002	 7.799989999990451e+000	 9.865115528465822e+000
0	 6.666714722864756e-002	 7.866659999993464e+000	 9.872410555300494e+000
0	 6.666714722864757e-002	 7.933329999996681e+000	 9.879308156328563e+000
0	 6.666714722864756e-002	 8.000000000000002e+000	 9.885830500152490e+000
0	 1.333351778131789e-001	 7.333299999983333e+000	 9.801325541199233e+000
0	 1.333351778131789e-001	 7.399969999982150e+000	 9.812050111807645e+000
0	 1.333351778131789e-001	 7.466639999981866e+000	 9.822226440588665e+000
0	 1.333351778131789e-001	 7.533309999982381e+000	 9.831873676753181e+000
0	 1.333351778131789e-001	 7.599979999983597e+000	 9.841010969512100e+000
0	 1.333351778131789e-001	 7.666649999985415e+000	 9.849657468076316e+000
0	 1.333351778131789e-001	 7.733319999987732e+000	 9.857832321656662e+000
0	 1.333351778131790e-001	 7.799989999990450e+000	 9.865554679464040e+000
0	 1.333351778131789e-001	 7.866659999993464e+000	 9.872843690709310e+000
0	 1.333351778131790e-001	 7.933329999996681e+000	 9.879718504603334e+000
0	 1.333351778131789e-001	 7.999999999999997e+000	 9.886198270356964e+000
0	 2.000039750814772e-001	 7.333299999983334e+000	 9.802025962080295e+000
0	 2.000039750814773e-001	 7.399969999982151e+000	 9.812718377688110e+000
0	 2.000039750814773e-001	 7.466639999981867e+000	 9.822873484245877e+000
0	 2.000039750814772e-001	 7.533309999982382e+000	 9.832507378191853e+000
0	 2.000039750814772e-001	 7.599979999983599e+000	 9.841636155964309e+000
0	 2.000039750814772e-001	 7.666649999985415e+000	 9.850275914001461e+000
0	 2.000039750814772e-001	 7.733319999987731e+000	 9.858442748741553e+000
0	 2.000039750814773e-001	 7.799989999990448e+000	 9.866152756622810e+000
0	 2.000039750814772e-001	 7.866659999993464e+000	 9.873422034083454e+000
0	 2.000039750814773e-001	 7.933329999996682e+000	 9.880266677561679e+000
0	 2.000039750814773e-001	 8.000000000000002e+000	 9.886702783495712e+000
0	 2.666734223614256e-001	 7.333299999983333e+000	 9.803134485429442e+000
0	 2.666734223614255e-001	 7.399969999982150e+000	 9.813741402720366e+000
0	 2.666734223614255e-001	 7.466639999981865e+000	 9.823827875806812e+000
0	 2.666734223614256e-001	 7.533309999982383e+000	 9.833406914958417e+000
0	 2.666734223614256e-001	 7.599979999983600e+000	 9.842491530444777e+000
0	 2.666734223614255e-001	 7.666649999985414e+000	 9.851094732535552e+000
0	 2.666734223614255e-001	 7.733319999987733e+000	 9.859229531500327e+000
0	 2.666734223614254e-001	 7.799989999990446e+000	 9.866908937608770e+000
0	 2.666734223614255e-001	 7.866659999993465e+000	 9.874145961130456e+000
0	 2.666734223614256e-001	 7.933329999996683e+000	 9.880953612334965e+000
0	 2.666734223614256e-001	 8.000000000000002e+000	 9.887344901491934e+000
0	 3.333434029809069e-001	 7.333299999983335e+000	 9.804624076580680e+000
0	 3.333434029809070e-001	 7.399969999982151e+000	 9.815097806251107e+000
0	 3.333434029809068e-001	 7.466639999981865e+000	 9.825073252116308e+000
0	 3.333434029809068e-001	 7.533309999982381e+000	 9.834560304866020e+000
0	 3.333434029809069e-001	 7.599979999983600e+000	 9.843568855189957e+000
0	 3.333434029809068e-001	 7.666649999985415e+000	 9.852108793777875e+000
0	 3.333434029809068e-001	 7.733319999987731e+000	 9.860190011319496e+000
0	 3.333434029809069e-001	 7.799989999990449e+000	 9.867822398504522e+000
0	 3.333434029809068e-001	 7.866659999993463e+000	 9.875015846022695e+000
0	 3.333434029809069e-001	 7.933329999996681e+000	 9.881780244563702e+000
0	 3.333434029809069e-001	 7.999999999999999e+000	 9.888125484817252e+000
0	 4.000138002678045e-001	 7.333299999983336e+000	 9.806467698842944e+000
0	 4.000138002678045e-001	 7.399969999982149e+000	 9.816766205673098e+000
0	 4.000138002678043e-001	 7.466639999981864e+000	 9.826593248134351e+000
0	 4.000138002678045e-001	 7.533309999982382e+000	 9.835955563909639e+000
0	 4.000138002678044e-001	 7.599979999983599e+000	 9.844859890681835e+000
0	 4.000138002678043e-001	 7.666649999985416e+000	 9.853312966133823e+000
0	 4.000138002678044e-001	 7.733319999987733e+000	 9.861321527948537e+000
0	 4.000138002678044e-001	 7.799989999990448e+000	 9.868892313808782e+000
0	 4.000138002678044e-001	 7.866659999993465e+000	 9.876032061397497e+000
0	 4.000138002678044e-001	 7.933329999996681e+000	 9.882747508397529e+000
0	 4.000138002678045e-001	 8.000000000000000e+000	 9.889045392491765e+000
0	 4.666844975500012e-001	 7.333299999983333e+000	 9.808638313500168e+000
0	 4.666844975500012e-001	 7.399969999982150e+000	 9.818725216425261e+000
0	 4.666844975500011e-001	 7.466639999981865e+000	 9.828371496936157e+000
0	 4.666844975500011e-001	 7.533309999982382e+000	 9.837580706265985e+000
0	 4.666844975500009e-001	 7.599979999983596e+000	 9.846356395647817e+000
0	 4.666844975500012e-001	 7.666649999985415e+000	 9.854702116314750e+000
0	 4.666844975500011e-001	 7.733319999987730e+000	 9.862621419499920e+000
0	 4.666844975500012e-001	 7.799989999990448e+000	 9.870117856436336e+000
0	 4.666844975500012e-001	 7.866659999993464e+000	 9.877194978357133e+000
0	 4.666844975500011e-001	 7.933329999996681e+000	 9.883856336495370e+000
0	 4.666844975500012e-001	 8.000000000000002e+000	 9.890105482084106e+000
0	 5.333553781553804e-001	 7.333299999983335e+000	 9.811108879811300e+000
0	 5.333553781553801e-001	 7.399969999982149e+000	 9.820953451992773e+000
0	 5.333553781553803e-001	 7.466639999981866e+000	 9.830391629712183e+000
0	 5.333553781553803e-001	 7.533309999982383e+000	 9.839423744293574e+000
0	 5.333553781553801e-001	 7.599979999983598e+000	 9.848050127060889e+000
0	 5.333553781553803e-001	 7.666649999985416e+000	 9.856271109338099e+000
0	 5.333553781553801e-001	 7.733319999987730e+000	 9.864087022449189e+000
0	 5.333553781553803e-001	 7.799989999990448e+000	 9.871498197718129e+000
0	 5.333553781553801e-001	 7.866659999993465e+000	 9.878504966468864e+000
0	 5.333553781553803e-001	 7.933329999996681e+000	 9.885107660025350e+000
0	 5.333553781553801e-001	 7.999999999999998e+000	 9.891306609711535e+000
0	 6.000263254118247e-001	 7.333299999983333e+000	 9.813852355010218e+000
0	 6.000263254118247e-001	 7.399969999982151e+000	 9.823429523906849e+000
0	 6.000263254118247e-001	 7.466639999981864e+000	 9.832637275768068e+000
0	 6.000263254118248e-001	 7.533309999982383e+000	 9.841472688532667e+000
0	 6.000263254118247e-001	 7.599979999983598e+000	 9.849932840139463e+000
0	 6.000263254118247e-001	 7.666649999985415e+000	 9.858014808527290e+000
0	 6.000263254118248e-001	 7.733319999987732e+000	 9.865715671634931e+000
0	 6.000263254118247e-001	 7.799989999990448e+000	 9.873032507401202e+000
0	 6.000263254118248e-001	 7.866659999993464e+000	 9.879962393764897e+000
0	 6.000263254118247e-001	 7.933329999996683e+000	 9.886502408664816e+000
0	 6.000263254118248e-001	 8.000000000000000e+000	 9.892649630039770e+000
0	 6.666972226472177e-001	 7.333299999983334e+000	 9.816841694305595e+000
0	 6.666972226472177e-001	 7.399969999982152e+000	 9.826132041744849e+000
0	 6.666972226472175e-001	 7.466639999981865e+000	 9.835092062524506e+000
0	 6.666972226472178e-001	 7.533309999982382e+000	 9.843715547705170e+000
0	 6.666972226472178e-001	 7.599979999983599e+000	 9.851996288347356e+000
0	 6.666972226472177e-001	 7.666649999985414e+000	 9.859928075511640e+000
0	 6.666972226472175e-001	 7.733319999987732e+000	 9.867504700258532e+000
0	 6.666972226472178e-001	 7.799989999990447e+000	 9.874719953648597e+000
0	 6.666972226472174e-001	 7.866659999993463e+000	 9.881567626742349e+000
0	 6.666972226472175e-001	 7.933329999996680e+000	 9.888041510600310e+000
0	 6.666972226472177e-001	 8.000000000000000e+000	 9.894135396283003e+000
0	 0.000000000000000e+000	 8.000000000000002e+000	 9.885598609507408e+000
0	 0.000000000000000e+000	 8.066670000003317e+000	 9.891958119274158e+000
0	 0.000000000000000e+000	 8.133340000006534e+000	 9.898235458802178e+000
0	 0.000000000000000e+000	 8.200010000009550e+000	 9.904422952075828e+000
0	 0.000000000000000e+000	 8.266680000012267e+000	 9.910512923079320e+000
0	 0.000000000000000e+000	 8.333350000014585e+000	 9.916497695797045e+000
0	 0.000000000000000e+000	 8.400020000016399e+000	 9.922369594213240e+000
0	 0.000000000000000e+000	 8.466690000017618e+000	 9.928120942312219e+000
0	 0.000000000000000e+000	 8.533360000018131e+000	 9.933744064078294e+000
0	 0.000000000000000e+000	 8.600030000017849e+000	 9.939231283495762e+000
0	 0.000000000000000e+000	 8.666700000016666e+000	 9.944574924548871e+000
0	 6.666714722864756e-002	 8.000000000000002e+000	 9.885830500152490e+000
0	 6.666714722864757e-002	 8.066670000003315e+000	 9.892135080676830e+000
0	 6.666714722864754e-002	 8.133340000006532e+000	 9.898360377539921e+000
0	 6.666714722864757e-002	 8.200010000009552e+000	 9.904500037944972e+000
0	 6.666714722864754e-002	 8.266680000012267e+000	 9.910547709095233e+000
0	 6.666714722864757e-002	 8.333350000014582e+000	 9.916497038193912e+000
0	 6.666714722864754e-002	 8.400020000016397e+000	 9.922341672444183e+000
0	 6.666714722864756e-002	 8.466690000017616e+000	 9.928075259049315e+000
0	 6.666714722864756e-002	 8.533360000018131e+000	 9.933691445212492e+000
0	 6.666714722864757e-002	 8.600030000017846e+000	 9.939183878136936e+000
0	 6.666714722864757e-002	 8.666700000016668e+000	 9.944546205025826e+000
0	 1.333351778131789e-001	 7.999999999999997e+000	 9.886198270356964e+000
0	 1.333351778131789e-001	 8.066670000003317e+000	 9.892449648974669e+000
0	 1.333351778131789e-001	 8.133340000006534e+000	 9.898623210683432e+000
0	 1.333351778131790e-001	 8.200010000009549e+000	 9.904713968527759e+000
0	 1.333351778131789e-001	 8.266680000012268e+000	 9.910716935552262e+000
0	 1.333351778131790e-001	 8.333350000014582e+000	 9.916627124801433e+000
0	 1.333351778131789e-001	 8.400020000016401e+000	 9.922439549319886e+000
0	 1.333351778131790e-001	 8.466690000017616e+000	 9.928149222152099e+000
0	 1.333351778131789e-001	 8.533360000018131e+000	 9.933751156342680e+000
0	 1.333351778131790e-001	 8.600030000017846e+000	 9.939240364936133e+000
0	 1.333351778131789e-001	 8.666700000016666e+000	 9.944611860976984e+000
0	 2.000039750814773e-001	 8.000000000000002e+000	 9.886702783495712e+000
0	 2.000039750814773e-001	 8.066670000003317e+000	 9.892902296294889e+000
0	 2.000039750814772e-001	 8.133340000006530e+000	 9.899024043752339e+000
0	 2.000039750814773e-001	 8.200010000009549e+000	 9.905064447381962e+000
0	 2.000039750814773e-001	 8.266680000012267e+000	 9.911019928697645e+000
0	 2.000039750814772e-001	 8.333350000014583e+000	 9.916886909213286e+000
0	 2.000039750814773e-001	 8.400020000016399e+000	 9.922661810442774e+000
0	 2.000039750814773e-001	 8.466690000017614e+000	 9.928341053899978e+000
0	 2.000039750814772e-001	 8.533360000018133e+000	 9.933921061098815e+000
0	 2.000039750814772e-001	 8.600030000017849e+000	 9.939398253553142e+000
0	 2.000039750814772e-001	 8.666700000016666e+000	 9.944769052776863e+000
0	 2.666734223614256e-001	 8.000000000000002e+000	 9.887344901491934e+000
0	 2.666734223614256e-001	 8.066670000003313e+000	 9.893493493347108e+000
0	 2.666734223614256e-001	 8.133340000006532e+000	 9.899562960878029e+000
0	 2.666734223614256e-001	 8.200010000009549e+000	 9.905551176701975e+000
0	 2.666734223614256e-001	 8.266680000012267e+000	 9.911456013436231e+000
0	 2.666734223614256e-001	 8.333350000014582e+000	 9.917275343698082e+000
0	 2.666734223614256e-001	 8.400020000016399e+000	 9.923007040104777e+000
0	 2.666734223614255e-001	 8.466690000017616e+000	 9.928648975273582e+000
0	 2.666734223614257e-001	 8.533360000018130e+000	 9.934199021821785e+000
0	 2.666734223614255e-001	 8.600030000017849e+000	 9.939655052366643e+000
0	 2.666734223614255e-001	 8.666700000016668e+000	 9.945014939525418e+000
0	 3.333434029809069e-001	 7.999999999999999e+000	 9.888125484817252e+000
0	 3.333434029809069e-001	 8.066670000003319e+000	 9.894223709423539e+000
0	 3.333434029809069e-001	 8.133340000006532e+000	 9.900240044803731e+000
0	 3.333434029809068e-001	 8.200010000009550e+000	 9.906173857319049e+000
0	 3.333434029809068e-001	 8.266680000012263e+000	 9.912024513330611e+000
0	 3.333434029809068e-001	 8.333350000014580e+000	 9.917791379199676e+000
0	 3.333434029809069e-001	 8.400020000016401e+000	 9.923473821287390e+000
0	 3.333434029809069e-001	 8.466690000017618e+000	 9.929071205954914e+000
0	 3.333434029809069e-001	 8.533360000018131e+000	 9.934582899563445e+000
0	 3.333434029809069e-001	 8.600030000017849e+000	 9.940008268474166e+000
0	 3.333434029809069e-001	 8.666700000016665e+000	 9.945346679048218e+000
0	 4.000138002678045e-001	 8.000000000000000e+000	 9.889045392491765e+000
0	 4.000138002678044e-001	 8.066670000003317e+000	 9.895093412399028e+000
0	 4.000138002678044e-001	 8.133340000006534e+000	 9.901055376884665e+000
0	 4.000138002678043e-001	 8.200010000009552e+000	 9.906932188701203e+000
0	 4.000138002678045e-001	 8.266680000012267e+000	 9.912724750601225e+000
0	 4.000138002678044e-001	 8.333350000014583e+000	 9.918433965337250e+000
0	 4.000138002678043e-001	 8.400020000016399e+000	 9.924060735661822e+000
0	 4.000138002678045e-001	 8.466690000017614e+000	 9.929605964327495e+000
0	 4.000138002678045e-001	 8.533360000018133e+000	 9.935070554086799e+000
0	 4.000138002678044e-001	 8.600030000017847e+000	 9.940455407692280e+000
0	 4.000138002678044e-001	 8.666700000016668e+000	 9.945761427896459e+000
0	 4.666844975500012e-001	 8.000000000000002e+000	 9.890105482084106e+000
0	 4.666844975500011e-001	 8.066670000003319e+000	 9.896103068731136e+000
0	 4.666844975500012e-001	 8.133340000006536e+000	 9.902009037088025e+000
0	 4.666844975500012e-001	 8.200010000009550e+000	 9.907825868953504e+000
0	 4.666844975500011e-001	 8.266680000012267e+000	 9.913556046126331e+000
0	 4.666844975500012e-001	 8.333350000014585e+000	 9.919202050405231e+000
0	 4.666844975500011e-001	 8.400020000016401e+000	 9.924766363588985e+000
0	 4.666844975500011e-001	 8.466690000017614e+000	 9.930251467476282e+000
0	 4.666844975500011e-001	 8.533360000018131e+000	 9.935659843865903e+000
0	 4.666844975500012e-001	 8.600030000017849e+000	 9.940993974556587e+000
0	 4.666844975500011e-001	 8.666700000016665e+000	 9.946256341347031e+000
0	 5.333553781553801e-001	 7.999999999999998e+000	 9.891306609711535e+000
0	 5.333553781553801e-001	 8.066670000003319e+000	 9.897253143460148e+000
0	 5.333553781553803e-001	 8.133340000006536e+000	 9.903101103993045e+000
0	 5.333553781553803e-001	 8.200010000009550e+000	 9.908854594817797e+000
0	 5.333553781553803e-001	 8.266680000012267e+000	 9.914517719442062e+000
0	 5.333553781553803e-001	 8.333350000014583e+000	 9.920094581373418e+000
0	 5.333553781553804e-001	 8.400020000016399e+000	 9.925589284119479e+000
0	 5.333553781553803e-001	 8.466690000017616e+000	 9.931005931187809e+000
0	 5.333553781553803e-001	 8.533360000018131e+000	 9.936348626086028e+000
0	 5.333553781553803e-001	 8.600030000017847e+000	 9.941621472321742e+000
0	 5.333553781553803e-001	 8.666700000016666e+000	 9.946828573402517e+000
0	 6.000263254118248e-001	 8.000000000000000e+000	 9.892649630039770e+000
0	 6.000263254118247e-001	 8.066670000003315e+000	 9.898544100209019e+000
0	 6.000263254118248e-001	 8.133340000006536e+000	 9.904331654790958e+000
0	 6.000263254118244e-001	 8.200010000009547e+000	 9.910018061672997e+000
0	 6.000263254118248e-001	 8.266680000012267e+000	 9.915609088742528e+000
0	 6.000263254118247e-001	 8.333350000014582e+000	 9.921110503886943e+000
0	 6.000263254118248e-001	 8.400020000016399e+000	 9.926528074993639e+000
0	 6.000263254118248e-001	 8.466690000017618e+000	 9.931867569950040e+000
0	 6.000263254118247e-001	 8.533360000018133e+000	 9.937134756643481e+000
0	 6.000263254118248e-001	 8.600030000017851e+000	 9.942335402961396e+000
0	 6.000263254118247e-001	 8.666700000016666e+000	 9.947475276791142e+000
0	 6.666972226472177e-001	 8.000000000000000e+000	 9.894135396283003e+000
0	 6.666972226472177e-001	 8.066670000003319e+000	 9.899976401183338e+000
0	 6.666972226472177e-001	 8.133340000006532e+000	 9.905700765284932e+000
0	 6.666972226472177e-001	 8.200010000009550e+000	 9.911315963534712e+000
0	 6.666972226472177e-001	 8.266680000012267e+000	 9.916829470879510e+000
0	 6.666972226472178e-001	 8.333350000014583e+000	 9.922248762266149e+000
0	 6.666972226472175e-001	 8.400020000016397e+000	 9.927581312641513e+000
0	 6.666972226472177e-001	 8.466690000017618e+000	 9.932834596952397e+000
0	 6.666972226472177e-001	 8.533360000018131e+000	 9.938016090145677e+000
0	 6.666972226472177e-001	 8.600030000017849e+000	 9.943133267168168e+000
0	 6.666972226472177e-001	 8.666700000016668e+000	 9.948193602966716e+000
0	 0.000000000000000e+000	 8.666700000016666e+000	 9.944574924548871e+000
0	 0.000000000000000e+000	 8.733360002791901e+000	 9.949696592866545e+000
0	 0.000000000000000e+000	 8.800020022230555e+000	 9.954534246691226e+000
0	 0.000000000000000e+000	 8.866680074997039e+000	 9.959102368387914e+000
0	 0.000000000000000e+000	 8.933340177755776e+000	 9.963415441019993e+000
0	 0.000000000000000e+000	 9.000000347171179e+000	 9.967487948349309e+000
0	 0.000000000000000e+000	 9.066660599907664e+000	 9.971334374836129e+000
0	 0.000000000000000e+000	 9.133320952629653e+000	 9.974969205638907e+000
0	 0.000000000000000e+000	 9.199981422001555e+000	 9.978406926614689e+000
0	 0.000000000000000e+000	 9.266642024687791e+000	 9.981662024318814e+000
0	 0.000000000000000e+000	 9.333302777352783e+000	 9.984748986004927e+000
0	 6.666714722864757e-002	 8.666700000016668e+000	 9.944546205025826e+000
0	 6.666714722864754e-002	 8.733360002791903e+000	 9.949692466381345e+000
0	 6.666714722864757e-002	 8.800020022230557e+000	 9.954551833687265e+000
0	 6.666714722864756e-002	 8.866680074997040e+000	 9.959138268448497e+000
0	 6.666714722864756e-002	 8.933340177755776e+000	 9.963465732877495e+000
0	 6.666714722864757e-002	 9.000000347171183e+000	 9.967548189894126e+000
0	 6.666714722864757e-002	 9.066660599907671e+000	 9.971399603125693e+000
0	 6.666714722864754e-002	 9.133320952629651e+000	 9.975033936906900e+000
0	 6.666714722864756e-002	 9.199981422001557e+000	 9.978465156279908e+000
0	 6.666714722864756e-002	 9.266642024687791e+000	 9.981707226994260e+000
0	 6.666714722864756e-002	 9.333302777352785e+000	 9.984774115506925e+000
0	 1.333351778131789e-001	 8.666700000016666e+000	 9.944611860976981e+000
0	 1.333351778131789e-001	 8.733360002791903e+000	 9.949773063364845e+000
0	 1.333351778131789e-001	 8.800020022230552e+000	 9.954645233140159e+000
0	 1.333351778131790e-001	 8.866680074997039e+000	 9.959241757274935e+000
0	 1.333351778131789e-001	 8.933340177755776e+000	 9.963576023456316e+000
0	 1.333351778131789e-001	 9.000000347171181e+000	 9.967661420086667e+000
0	 1.333351778131789e-001	 9.066660599907667e+000	 9.971511336283465e+000
0	 1.333351778131789e-001	 9.133320952629651e+000	 9.975139161879374e+000
0	 1.333351778131789e-001	 9.199981422001558e+000	 9.978558287422263e+000
0	 1.333351778131789e-001	 9.266642024687792e+000	 9.981782104175046e+000
0	 1.333351778131789e-001	 9.333302777352783e+000	 9.984824004115865e+000
0	 2.000039750814772e-001	 8.666700000016666e+000	 9.944769052776863e+000
0	 2.000039750814772e-001	 8.733360002791903e+000	 9.949935246943708e+000
0	 2.000039750814773e-001	 8.800020022230557e+000	 9.954811110210637e+000
0	 2.000039750814772e-001	 8.866680074997037e+000	 9.959409401342708e+000
0	 2.000039750814773e-001	 8.933340177755776e+000	 9.963742879826420e+000
0	 2.000039750814773e-001	 9.000000347171181e+000	 9.967824305869705e+000
0	 2.000039750814772e-001	 9.066660599907666e+000	 9.971666440401958e+000
0	 2.000039750814773e-001	 9.133320952629655e+000	 9.975282045074048e+000
0	 2.000039750814772e-001	 9.199981422001555e+000	 9.978683882258231e+000
0	 2.000039750814772e-001	 9.266642024687789e+000	 9.981884715048194e+000
0	 2.000039750814772e-001	 9.333302777352781e+000	 9.984897307259011e+000
0	 2.666734223614255e-001	 8.666700000016668e+000	 9.945014939525418e+000
0	 2.666734223614254e-001	 8.733360002791899e+000	 9.950175878975777e+000
0	 2.666734223614257e-001	 8.800020022230557e+000	 9.955046128794798e+000
0	 2.666734223614255e-001	 8.866680074997042e+000	 9.959637765865047e+000
0	 2.666734223614256e-001	 8.933340177755779e+000	 9.963962867795267e+000
0	 2.666734223614256e-001	 9.000000347171179e+000	 9.968033512920336e+000
0	 2.666734223614254e-001	 9.066660599907666e+000	 9.971861780301165e+000
0	 2.666734223614256e-001	 9.133320952629651e+000	 9.975459749724926e+000
0	 2.666734223614256e-001	 9.199981422001555e+000	 9.978839501704758e+000
0	 2.666734223614256e-001	 9.266642024687792e+000	 9.982013117479992e+000
0	 2.666734223614256e-001	 9.333302777352781e+000	 9.984992679015896e+000
0	 3.333434029809069e-001	 8.666700000016665e+000	 9.945346679048219e+000
0	 3.333434029809070e-001	 8.733360002791905e+000	 9.950491820050162e+000
0	 3.333434029809069e-001	 8.800020022230555e+000	 9.955346951524273e+000
0	 3.333434029809068e-001	 8.866680074997037e+000	 9.959923414793014e+000
0	 3.333434029809069e-001	 8.933340177755776e+000	 9.964232551908079e+000
0	 3.333434029809069e-001	 9.000000347171179e+000	 9.968285705650029e+000
0	 3.333434029809069e-001	 9.066660599907666e+000	 9.972094219528620e+000
0	 3.333434029809069e-001	 9.133320952629655e+000	 9.975669437782505e+000
0	 3.333434029809069e-001	 9.199981422001555e+000	 9.979022705379430e+000
0	 3.333434029809070e-001	 9.266642024687794e+000	 9.982165368016135e+000
0	 3.333434029809070e-001	 9.333302777352783e+000	 9.985108772118284e+000
0	 4.000138002678044e-001	 8.666700000016668e+000	 9.945761427896459e+000
0	 4.000138002678044e-001	 8.733360002791903e+000	 9.950879929487227e+000
0	 4.000138002678044e-001	 8.800020022230555e+000	 9.955710239766209e+000
0	 4.000138002678044e-001	 8.866680074997039e+000	 9.960262910815601e+000
0	 4.000138002678044e-001	 8.933340177755778e+000	 9.964548495447689e+000
0	 4.000138002678044e-001	 9.000000347171177e+000	 9.968577547204822e+000
0	 4.000138002678044e-001	 9.066660599907666e+000	 9.972360620359362e+000
0	 4.000138002678044e-001	 9.133320952629651e+000	 9.975908269913724e+000
0	 4.000138002678044e-001	 9.199981422001557e+000	 9.979231051600410e+000
0	 4.000138002678045e-001	 9.266642024687792e+000	 9.982339521881823e+000
0	 4.000138002678044e-001	 9.333302777352781e+000	 9.985244237950457e+000
0	 4.666844975500011e-001	 8.666700000016665e+000	 9.946256341347031e+000
0	 4.666844975500012e-001	 8.733360002791903e+000	 9.951337065338684e+000
0	 4.666844975500011e-001	 8.800020022230555e+000	 9.956132653623484e+000
0	 4.666844975500011e-001	 8.866680074997039e+000	 9.960652815359726e+000
0	 4.666844975500011e-001	 8.933340177755774e+000	 9.964907260434831e+000
0	 4.666844975500011e-001	 9.000000347171177e+000	 9.968905699465168e+000
0	 4.666844975500011e-001	 9.066660599907666e+000	 9.972657843796133e+000
0	 4.666844975500011e-001	 9.133320952629651e+000	 9.976173405502152e+000
0	 4.666844975500012e-001	 9.199981422001557e+000	 9.979462097386572e+000
0	 4.666844975500012e-001	 9.266642024687792e+000	 9.982533632981779e+000
0	 4.666844975500011e-001	 9.333302777352783e+000	 9.985397726549049e+000
0	 5.333553781553803e-001	 8.666700000016666e+000	 9.946828573402515e+000
0	 5.333553781553803e-001	 8.733360002791903e+000	 9.951860084387668e+000
0	 5.333553781553801e-001	 8.800020022230552e+000	 9.956610851934522e+000
0	 5.333553781553801e-001	 8.866680074997039e+000	 9.961089688590317e+000
0	 5.333553781553803e-001	 8.933340177755776e+000	 9.965305407627923e+000
0	 5.333553781553801e-001	 9.000000347171177e+000	 9.969266823046119e+000
0	 5.333553781553803e-001	 9.066660599907667e+000	 9.972982749569331e+000
0	 5.333553781553801e-001	 9.133320952629653e+000	 9.976462002647818e+000
0	 5.333553781553801e-001	 9.199981422001555e+000	 9.979713398457541e+000
0	 5.333553781553803e-001	 9.266642024687794e+000	 9.982745753900199e+000
0	 5.333553781553803e-001	 9.333302777352783e+000	 9.985567886603205e+000
0	 6.000263254118247e-001	 8.666700000016666e+000	 9.947475276791140e+000
0	 6.000263254118248e-001	 8.733360002791901e+000	 9.952445842148455e+000
0	 6.000263254118247e-001	 8.800020022230553e+000	 9.957141492273360e+000
0	 6.000263254118247e-001	 8.866680074997040e+000	 9.961570089410117e+000
0	 6.000263254118247e-001	 8.933340177755776e+000	 9.965739496523174e+000
0	 6.000263254118249e-001	 9.000000347171179e+000	 9.969657577297163e+000
0	 6.000263254118247e-001	 9.066660599907662e+000	 9.973332196136898e+000
0	 6.000263254118247e-001	 9.133320952629653e+000	 9.976771218167345e+000
0	 6.000263254118247e-001	 9.199981422001551e+000	 9.979982509233565e+000
0	 6.000263254118247e-001	 9.266642024687794e+000	 9.982973935900837e+000
0	 6.000263254118247e-001	 9.333302777352785e+000	 9.985753365454498e+000
0	 6.666972226472177e-001	 8.666700000016668e+000	 9.948193602966716e+000
0	 6.666972226472174e-001	 8.733360002791899e+000	 9.953091192866776e+000
0	 6.666972226472178e-001	 8.800020022230555e+000	 9.957721230949570e+000
0	 6.666972226472175e-001	 8.866680074997039e+000	 9.962090575459849e+000
0	 6.666972226472177e-001	 8.933340177755778e+000	 9.966206085354441e+000
0	 6.666972226472177e-001	 9.000000347171181e+000	 9.970074620302301e+000
0	 6.666972226472177e-001	 9.066660599907666e+000	 9.973703040684367e+000
0	 6.666972226472174e-001	 9.133320952629651e+000	 9.977098207593752e+000
0	 6.666972226472178e-001	 9.199981422001557e+000	 9.980266982835527e+000
0	 6.666972226472177e-001	 9.266642024687791e+000	 9.983216228926805e+000
0	 6.666972226472177e-001	 9.333302777352783e+000	 9.985952809096823e+000
0	 0.000000000000000e+000	 9.333302777352783e+000	 9.984748986004924e+000
0	 0.000000000000000e+000	 9.399973674588177e+000	 9.987595488494636e+000
0	 0.000000000000000e+000	 9.466644621844621e+000	 9.990125446298743e+000
0	 0.000000000000000e+000	 9.533315502450000e+000	 9.992349052308416e+000
0	 0.000000000000000e+000	 9.599986199732195e+000	 9.994276492707304e+000
0	 0.000000000000000e+000	 9.666656597019093e+000	 9.995917946970705e+000
0	 0.000000000000000e+000	 9.733326577638575e+000	 9.997283587864928e+000
0	 0.000000000000000e+000	 9.799996024918521e+000	 9.998383581446252e+000
0	 0.000000000000000e+000	 9.866664822186820e+000	 9.999228087059841e+000
0	 0.000000000000000e+000	 9.933332852771352e+000	 9.999827257338621e+000
0	 0.000000000000000e+000	 1.000000000000000e+001	 1.000019123820124e+001
0	 6.666714722864756e-002	 9.333302777352785e+000	 9.984774115506925e+000
0	 6.666714722864754e-002	 9.399973674588171e+000	 9.987599243474223e+000
0	 6.666714722864756e-002	 9.466644621844621e+000	 9.990112680091542e+000
0	 6.666714722864756e-002	 9.533315502449998e+000	 9.992324701586913e+000
0	 6.666714722864753e-002	 9.599986199732189e+000	 9.994245577547066e+000
0	 6.666714722864758e-002	 9.666656597019097e+000	 9.995885570916533e+000
0	 6.666714722864760e-002	 9.733326577638577e+000	 9.997254937997258e+000
0	 6.666714722864756e-002	 9.799996024918521e+000	 9.998363928447265e+000
0	 6.666714722864756e-002	 9.866664822186817e+000	 9.999222785279773e+000
0	 6.666714722864754e-002	 9.933332852771351e+000	 9.999841744861856e+000
0	 6.666714722864756e-002	 1.000000000000000e+001	 1.000023103691289e+001
0	 1.333351778131789e-001	 9.333302777352783e+000	 9.984824004115865e+000
0	 1.333351778131789e-001	 9.399973674588175e+000	 9.987623225085693e+000
0	 1.333351778131789e-001	 9.466644621844619e+000	 9.990116133935974e+000
0	 1.333351778131789e-001	 9.533315502450002e+000	 9.992313141839720e+000
0	 1.333351778131789e-001	 9.599986199732189e+000	 9.994224653406146e+000
0	 1.333351778131789e-001	 9.666656597019095e+000	 9.995861066680165e+000
0	 1.333351778131789e-001	 9.733326577638577e+000	 9.997232773141366e+000
0	 1.333351778131789e-001	 9.799996024918523e+000	 9.998350157703515e+000
0	 1.333351778131789e-001	 9.866664822186818e+000	 9.999223598713005e+000
0	 1.333351778131789e-001	 9.933332852771352e+000	 9.999863467947758e+000
0	 1.333351778131789e-001	 9.999999999999998e+000	 1.000028013061600e+001
0	 2.000039750814772e-001	 9.333302777352781e+000	 9.984897307259011e+000
0	 2.000039750814772e-001	 9.399973674588173e+000	 9.987666650635951e+000
0	 2.000039750814773e-001	 9.466644621844623e+000	 9.990135418836932e+000
0	 2.000039750814773e-001	 9.533315502449998e+000	 9.992314209588718e+000
0	 2.000039750814773e-001	 9.599986199732197e+000	 9.994213614141584e+000
0	 2.000039750814773e-001	 9.666656597019090e+000	 9.995844217268799e+000
0	 2.000039750814772e-001	 9.733326577638572e+000	 9.997216597265762e+000
0	 2.000039750814772e-001	 9.799996024918523e+000	 9.998341325949209e+000
0	 2.000039750814772e-001	 9.866664822186818e+000	 9.999228968655904e+000
0	 2.000039750814773e-001	 9.933332852771354e+000	 9.999890084241848e+000
0	 2.000039750814772e-001	 1.000000000000000e+001	 1.000033522507997e+001
0	 2.666734223614256e-001	 9.333302777352781e+000	 9.984992679015896e+000
0	 2.666734223614256e-001	 9.399973674588173e+000	 9.987728736050872e+000
0	 2.666734223614256e-001	 9.466644621844621e+000	 9.990170144378954e+000
0	 2.666734223614257e-001	 9.533315502450002e+000	 9.992327739890792e+000
0	 2.666734223614256e-001	 9.599986199732193e+000	 9.994212352095763e+000
0	 2.666734223614255e-001	 9.666656597019093e+000	 9.995834804121515e+000
0	 2.666734223614256e-001	 9.733326577638572e+000	 9.997205912713030e+000
0	 2.666734223614256e-001	 9.799996024918524e+000	 9.998336488231946e+000
0	 2.666734223614255e-001	 9.866664822186822e+000	 9.999237334655163e+000
0	 2.666734223614256e-001	 9.933332852771349e+000	 9.999919249573914e+000
0	 2.666734223614256e-001	 1.000000000000000e+001	 1.000039302419195e+001
0	 3.333434029809070e-001	 9.333302777352783e+000	 9.985108772118283e+000
0	 3.333434029809069e-001	 9.399973674588175e+000	 9.987808695875243e+000
0	 3.333434029809069e-001	 9.466644621844621e+000	 9.990219918726288e+000
0	 3.333434029809069e-001	 9.533315502450000e+000	 9.992353566337872e+000
0	 3.333434029809068e-001	 9.599986199732193e+000	 9.994220758096729e+000
0	 3.333434029809069e-001	 9.666656597019093e+000	 9.995832607109144e+000
0	 3.333434029809069e-001	 9.733326577638573e+000	 9.997200220200252e+000
0	 3.333434029809069e-001	 9.799996024918523e+000	 9.998334697913085e+000
0	 3.333434029809069e-001	 9.866664822186817e+000	 9.999247134507471e+000
0	 3.333434029809069e-001	 9.933332852771356e+000	 9.999948617958834e+000
0	 3.333434029809069e-001	 1.000000000000000e+001	 1.000045022995679e+001
0	 4.000138002678044e-001	 9.333302777352781e+000	 9.985244237950457e+000
0	 4.000138002678045e-001	 9.399973674588178e+000	 9.987905743273048e+000
0	 4.000138002678043e-001	 9.466644621844619e+000	 9.990284348622922e+000
0	 4.000138002678043e-001	 9.533315502450000e+000	 9.992391521056973e+000
0	 4.000138002678044e-001	 9.599986199732197e+000	 9.994238721458103e+000
0	 4.000138002678044e-001	 9.666656597019092e+000	 9.995837404534518e+000
0	 4.000138002678044e-001	 9.733326577638573e+000	 9.997199018818870e+000
0	 4.000138002678045e-001	 9.799996024918524e+000	 9.998335006667752e+000
0	 4.000138002678044e-001	 9.866664822186822e+000	 9.999256804260085e+000
0	 4.000138002678044e-001	 9.933332852771351e+000	 9.999975841596347e+000
0	 4.000138002678044e-001	 1.000000000000000e+001	 1.000050354249678e+001
0	 4.666844975500011e-001	 9.333302777352783e+000	 9.985397726549049e+000
0	 4.666844975500012e-001	 9.399973674588175e+000	 9.988019090027219e+000
0	 4.666844975500012e-001	 9.466644621844617e+000	 9.990363039392774e+000
0	 4.666844975500012e-001	 9.533315502449998e+000	 9.992441434710493e+000
0	 4.666844975500012e-001	 9.599986199732195e+000	 9.994266129979465e+000
0	 4.666844975500012e-001	 9.666656597019095e+000	 9.995848973132356e+000
0	 4.666844975500012e-001	 9.733326577638575e+000	 9.997201806034889e+000
0	 4.666844975500013e-001	 9.799996024918523e+000	 9.998336464484742e+000
0	 4.666844975500011e-001	 9.866664822186818e+000	 9.999264778210632e+000
0	 4.666844975500012e-001	 9.933332852771352e+000	 9.999998570870991e+000
0	 4.666844975500011e-001	 1.000000000000000e+001	 1.000054966005260e+001
0	 5.333553781553803e-001	 9.333302777352783e+000	 9.985567886603205e+000
0	 5.333553781553803e-001	 9.399973674588177e+000	 9.988147946539863e+000
0	 5.333553781553803e-001	 9.466644621844619e+000	 9.990455594939581e+000
0	 5.333553781553803e-001	 9.533315502450000e+000	 9.992503136495962e+000
0	 5.333553781553803e-001	 9.599986199732197e+000	 9.994302869946010e+000
0	 5.333553781553804e-001	 9.666656597019093e+000	 9.995867088069582e+000
0	 5.333553781553803e-001	 9.733326577638573e+000	 9.997208077688702e+000
0	 5.333553781553804e-001	 9.799996024918523e+000	 9.998338119666760e+000
0	 5.333553781553801e-001	 9.866664822186818e+000	 9.999269488907135e+000
0	 5.333553781553803e-001	 9.933332852771351e+000	 1.000001445435239e+001
0	 5.333553781553803e-001	 1.000000000000000e+001	 1.000058527898273e+001
0	 6.000263254118247e-001	 9.333302777352785e+000	 9.985753365454498e+000
0	 6.000263254118247e-001	 9.399973674588177e+000	 9.988291521832142e+000
0	 6.000263254118248e-001	 9.466644621844621e+000	 9.990561617746911e+000
0	 6.000263254118249e-001	 9.533315502449998e+000	 9.992576454146096e+000
0	 6.000263254118247e-001	 9.599986199732198e+000	 9.994348826128709e+000
0	 6.000263254118247e-001	 9.666656597019093e+000	 9.995891522944927e+000
0	 6.000263254118247e-001	 9.733326577638573e+000	 9.997217327995390e+000
0	 6.000263254118248e-001	 9.799996024918523e+000	 9.998339018830276e+000
0	 6.000263254118249e-001	 9.866664822186820e+000	 9.999269367148182e+000
0	 6.000263254118248e-001	 9.933332852771352e+000	 1.000002113879510e+001
0	 6.000263254118248e-001	 1.000000000000000e+001	 1.000060709376302e+001
0	 6.666972226472177e-001	 9.333302777352783e+000	 9.985952809096826e+000
0	 6.666972226472174e-001	 9.399973674588175e+000	 9.988449023544320e+000
0	 6.666972226472175e-001	 9.466644621844619e+000	 9.990680708878100e+000
0	 6.666972226472175e-001	 9.533315502449998e+000	 9.992661213928743e+000
0	 6.666972226472178e-001	 9.599986199732195e+000	 9.994403881784178e+000
0	 6.666972226472175e-001	 9.666656597019092e+000	 9.995922049789092e+000
0	 6.666972226472177e-001	 9.733326577638573e+000	 9.997229049544238e+000
0	 6.666972226472177e-001	 9.799996024918519e+000	 9.998338206905350e+000
0	 6.666972226472177e-001	 9.866664822186818e+000	 9.999262841982473e+000
0	 6.666972226472175e-001	 9.933332852771351e+000	 1.000001626913838e+001
0	 6.666972226472177e-001	 1.000000000000000e+001	 1.000061179698757e+001
0	 6.666972226472177e-001	 0.000000000000000e+000	-1.380956791652775e-001
0	 6.666972226472178e-001	 6.666714722864757e-002	-7.870053004098701e-002
0	 6.666972226472178e-001	 1.333351778131790e-001	-3.227362438676758e-002
0	 6.666972226472177e-001	 2.000039750814772e-001	 1.823134622544860e-003
0	 6.666972226472178e-001	 2.666734223614256e-001	 2.422773176967824e-002
0	 6.666972226472175e-001	 3.333434029809068e-001	 3.557803980906095e-002
0	 6.666972226472178e-001	 4.000138002678045e-001	 3.651181947801668e-002
0	 6.666972226472175e-001	 4.666844975500011e-001	 2.766671950501789e-002
0	 6.666972226472178e-001	 5.333553781553804e-001	 9.680276615000137e-003
0	 6.666972226472175e-001	 6.000263254118247e-001	-1.681008446826561e-002
0	 6.666972226472177e-001	 6.666972226472177e-001	-5.116705102273895e-002
0	 7.333579753122048e-001	 0.000000000000000e+000	-6.218137319573417e-002
0	 7.333579753122048e-001	 6.666714722864756e-002	-2.607307949290900e-002
0	 7.333579753122049e-001	 1.333351778131790e-001	 1.331702574798713e-003
0	 7.333579753122047e-001	 2.000039750814772e-001	 2.086381551570746e-002
0	 7.333579753122048e-001	 2.666734223614256e-001	 3.335404967815971e-002
0	 7.333579753122046e-001	 3.333434029809069e-001	 3.963314325647384e-002
0	 7.333579753122048e-001	 4.000138002678045e-001	 4.053178229552705e-002
0	 7.333579753122048e-001	 4.666844975500011e-001	 3.688060069396849e-002
0	 7.333579753122047e-001	 5.333553781553803e-001	 2.951018020606321e-002
0	 7.333579753122049e-001	 6.000263254118246e-001	 1.925105044216938e-002
0	 7.333579753122046e-001	 6.666972226472174e-001	 6.933688867843631e-003
0	 8.000185779984418e-001	 0.000000000000000e+000	 4.465891984344746e-002
0	 8.000185779984416e-001	 6.666714722864753e-002	 4.689652799161000e-002
0	 8.000185779984416e-001	 1.333351778131790e-001	 4.544765409148953e-002
0	 8.000185779984420e-001	 2.000039750814772e-001	 4.168866967441056e-002
0	 8.000185779984418e-001	 2.666734223614256e-001	 3.699598420921284e-002
0	 8.000185779984417e-001	 3.333434029809069e-001	 3.274604509643915e-002
0	 8.000185779984420e-001	 4.000138002678044e-001	 3.031533766351802e-002
0	 8.000185779984420e-001	 4.666844975500012e-001	 3.108038516094366e-002
0	 8.000185779984418e-001	 5.333553781553803e-001	 3.641774875945041e-002
0	 8.000185779984419e-001	 6.000263254118249e-001	 4.770402754818308e-002
0	 8.000185779984417e-001	 6.666972226472175e-001	 6.631585853386267e-002
0	 8.666790473703455e-001	 0.000000000000000e+000	 1.185314823271082e-001
0	 8.666790473703456e-001	 6.666714722864757e-002	 8.665900378615954e-002
0	 8.666790473703454e-001	 1.333351778131789e-001	 5.581213601884904e-002
0	 8.666790473703456e-001	 2.000039750814772e-001	 2.826565276692371e-002
0	 8.666790473703454e-001	 2.666734223614256e-001	 6.294474918188474e-003
0	 8.666790473703454e-001	 3.333434029809069e-001	-7.826329512715703e-003
0	 8.666790473703455e-001	 4.000138002678044e-001	-1.182154539967040e-002
0	 8.666790473703453e-001	 4.666844975500010e-001	-3.415810516575956e-003
0	 8.666790473703455e-001	 5.333553781553801e-001	 1.966638445501524e-002
0	 8.666790473703456e-001	 6.000263254118249e-001	 5.970069592212403e-002
0	 8.666790473703455e-001	 6.666972226472177e-001	 1.189629273804340e-001
0	 9.333394000923322e-001	 0.000000000000000e+000	 9.554254160204950e-002
0	 9.333394000923324e-001	 6.666714722864756e-002	 3.966500543681738e-002
0	 9.333394000923320e-001	 1.333351778131789e-001	-1.183699522750303e-002
0	 9.333394000923322e-001	 2.000039750814772e-001	-5.543732193311608e-002
0	 9.333394000923322e-001	 2.666734223614255e-001	-8.760957186055596e-002
0	 9.333394000923324e-001	 3.333434029809070e-001	-1.048270778610258e-001
0	 9.333394000923324e-001	 4.000138002678044e-001	-1.035629084817964e-001
0	 9.333394000923323e-001	 4.666844975500011e-001	-8.028986798466596e-002
0	 9.333394000923325e-001	 5.333553781553803e-001	-3.148049635748191e-002
0	 9.333394000923324e-001	 6.000263254118248e-001	 4.639293068127480e-002
0	 9.333394000923323e-001	 6.666972226472175e-001	 1.568584016848423e-001
0	 9.999996528288190e-001	 0.000000000000000e+000	-8.820173001391796e-002
0	 9.999996528288192e-001	 6.666714722864754e-002	-1.476348633387699e-001
0	 9.999996528288191e-001	 1.333351778131789e-001	-2.017619326727069e-001
0	 9.999996528288191e-001	 2.000039750814773e-001	-2.454523835474162e-001
0	 9.999996528288189e-001	 2.666734223614254e-001	-2.735752830142118e-001
0	 9.999996528288189e-001	 3.333434029809069e-001	-2.809993196872624e-001
0	 9.999996528288189e-001	 4.000138002678043e-001	-2.625928037768920e-001
0	 9.999996528288191e-001	 4.666844975500011e-001	-2.132236671129285e-001
0	 9.999996528288192e-001	 5.333553781553803e-001	-1.277594631581386e-001
0	 9.999996528288189e-001	 6.000263254118246e-001	-1.067367011716724e-003
0	 9.999996528288192e-001	 6.666972226472177e-001	 1.719858245971508e-001
0	 1.066659822244222e+000	 0.000000000000000e+000	-4.965952152327249e-001
0	 1.066659822244222e+000	 6.666714722864758e-002	-5.287900526521054e-001
0	 1.066659822244223e+000	 1.333351778131789e-001	-5.582249187833139e-001
0	 1.066659822244223e+000	 2.000039750814773e-001	-5.778117035935804e-001
0	 1.066659822244222e+000	 2.666734223614256e-001	-5.804618186519450e-001
0	 1.066659822244222e+000	 3.333434029809069e-001	-5.590861971792219e-001
0	 1.066659822244223e+000	 4.000138002678044e-001	-5.065952940853971e-001
0	 1.066659822244223e+000	 4.666844975500011e-001	-4.158990859944676e-001
0	 1.066659822244222e+000	 5.333553781553801e-001	-2.799070712567294e-001
0	 1.066659822244223e+000	 6.000263254118248e-001	-9.152826994850570e-002
0	 1.066659822244223e+000	 6.666972226472175e-001	 1.563287761406740e-001
0	 1.133319925002959e+000	 0.000000000000000e+000	-1.193531851796579e+000
0	 1.133319925002959e+000	 6.666714722864756e-002	-1.157350066444354e+000
0	 1.133319925002959e+000	 1.333351778131790e-001	-1.125488245467753e+000
0	 1.133319925002959e+000	 2.000039750814772e-001	-1.088547495985503e+000
0	 1.133319925002959e+000	 2.666734223614256e-001	-1.037128372105209e+000
0	 1.133319925002959e+000	 3.333434029809069e-001	-9.618308749739296e-001
0	 1.133319925002959e+000	 4.000138002678044e-001	-8.532544528142610e-001
0	 1.133319925002959e+000	 4.666844975500011e-001	-7.019980009458761e-001
0	 1.133319925002959e+000	 5.333553781553803e-001	-4.986598617925752e-001
0	 1.133319925002959e+000	 6.000263254118248e-001	-2.338378248748072e-001
0	 1.133319925002959e+000	 6.666972226472177e-001	 1.018708732123139e-001
0	 1.199979977769445e+000	 0.000000000000000e+000	-2.242905632478307e+000
0	 1.199979977769445e+000	 6.666714722864757e-002	-2.086864462486665e+000
0	 1.199979977769445e+000	 1.333351778131789e-001	-1.947814254076606e+000
0	 1.199979977769445e+000	 2.000039750814773e-001	-1.813692017033605e+000
0	 1.199979977769445e+000	 2.666734223614256e-001	-1.672434169927916e+000
0	 1.199979977769445e+000	 3.333434029809069e-001	-1.511976540157762e+000
0	 1.199979977769446e+000	 4.000138002678044e-001	-1.320254363976990e+000
0	 1.199979977769445e+000	 4.666844975500010e-001	-1.085202286507220e+000
0	 1.199979977769445e+000	 5.333553781553800e-001	-7.947543617344728e-001
0	 1.199979977769445e+000	 6.000263254118247e-001	-4.368440524902695e-001
0	 1.199979977769445e+000	 6.666972226472177e-001	 5.957695827516485e-004
0	 1.266639997208098e+000	 0.000000000000000e+000	-3.708610605081472e+000
0	 1.266639997208098e+000	 6.666714722864756e-002	-3.370882852380267e+000
0	 1.266639997208098e+000	 1.333351778131789e-001	-3.069465335402702e+000
0	 1.266639997208098e+000	 2.000039750814773e-001	-2.789277565444902e+000
0	 1.266639997208098e+000	 2.666734223614256e-001	-2.515238471896499e+000
0	 1.266639997208098e+000	 3.333434029809069e-001	-2.232266402266479e+000
0	 1.266639997208098e+000	 4.000138002678043e-001	-1.925279122193673e+000
0	 1.266639997208098e+000	 4.666844975500012e-001	-1.579193815442041e+000
0	 1.266639997208098e+000	 5.333553781553801e-001	-1.178927083880661e+000
0	 1.266639997208098e+000	 6.000263254118246e-001	-7.093949474484251e-001
0	 1.266639997208098e+000	 6.666972226472177e-001	-1.555128441034873e-001
0	 1.333299999983334e+000	 0.000000000000000e+000	-5.654540872440309e+000
0	 1.333299999983334e+000	 6.666714722864757e-002	-5.062954901556399e+000
0	 1.333299999983334e+000	 1.333351778131789e-001	-4.534703929681032e+000
0	 1.333299999983334e+000	 2.000039750814773e-001	-4.051336482322922e+000
0	 1.333299999983334e+000	 2.666734223614256e-001	-3.594400571009846e+000
0	 1.333299999983334e+000	 3.333434029809070e-001	-3.145443693285179e+000
0	 1.333299999983334e+000	 4.000138002678044e-001	-2.686012832690948e+000
0	 1.333299999983334e+000	 4.666844975500011e-001	-2.197654458737357e+000
0	 1.333299999983334e+000	 5.333553781553804e-001	-1.661914526858872e+000
0	 1.333299999983334e+000	 6.000263254118248e-001	-1.060338478356746e+000
0	 1.333299999983334e+000	 6.666972226472175e-001	-3.744712403281186e-001
0	 6.666972226472177e-001	 6.666972226472177e-001	-5.116705102273895e-002
0	 6.666972226472175e-001	 7.333579753122046e-001	-2.268579802826420e-002
0	 6.666972226472177e-001	 8.000185779984419e-001	 1.413021086928777e-001
0	 6.666972226472177e-001	 8.666790473703455e-001	 4.443963012581123e-001
0	 6.666972226472177e-001	 9.333394000923323e-001	 8.901962190912054e-001
0	 6.666972226472177e-001	 9.999996528288192e-001	 1.482301108919149e+000
0	 6.666972226472177e-001	 1.066659822244223e+000	 2.224310024769767e+000
0	 6.666972226472177e-001	 1.133319925002959e+000	 3.119821827970046e+000
0	 6.666972226472175e-001	 1.199979977769445e+000	 4.172435187145192e+000
0	 6.666972226472175e-001	 1.266639997208098e+000	 5.385748578218389e+000
0	 6.666972226472175e-001	 1.333299999983334e+000	 6.763360284411323e+000
0	 7.333579753122046e-001	 6.666972226472174e-001	 6.933688867843638e-003
0	 7.333579753122048e-001	 7.333579753122048e-001	 7.034159741338099e-002
0	 7.333579753122049e-001	 8.000185779984421e-001	 2.875624353441990e-001
0	 7.333579753122048e-001	 8.666790473703456e-001	 6.598885907052221e-001
0	 7.333579753122047e-001	 9.333394000923323e-001	 1.188612228379907e+000
0	 7.333579753122048e-001	 9.999996528288194e-001	 1.875025290086692e+000
0	 7.333579753122047e-001	 1.066659822244223e+000	 2.720419494376291e+000
0	 7.333579753122050e-001	 1.133319925002959e+000	 3.726086336629814e+000
0	 7.333579753122047e-001	 1.199979977769446e+000	 4.893317089057728e+000
0	 7.333579753122049e-001	 1.266639997208098e+000	 6.223402800699656e+000
0	 7.333579753122048e-001	 1.333299999983334e+000	 7.717634297425026e+000
0	 8.000185779984417e-001	 6.666972226472175e-001	 6.631585853386267e-002
0	 8.000185779984420e-001	 7.333579753122049e-001	 1.725737062958799e-001
0	 8.000185779984415e-001	 8.000185779984417e-001	 4.452923842150577e-001
0	 8.000185779984418e-001	 8.666790473703456e-001	 8.835796688434158e-001
0	 8.000185779984417e-001	 9.333394000923323e-001	 1.486543093351335e+000
0	 8.000185779984418e-001	 9.999996528288193e-001	 2.253289947523765e+000
0	 8.000185779984419e-001	 1.066659822244222e+000	 3.182927277757355e+000
0	 8.000185779984419e-001	 1.133319925002959e+000	 4.274561887058487e+000
0	 8.000185779984421e-001	 1.199979977769445e+000	 5.527300335042219e+000
0	 8.000185779984420e-001	 1.266639997208098e+000	 6.940248937932161e+000
0	 8.000185779984420e-001	 1.333299999983334e+000	 8.512513768561234e+000
0	 8.666790473703455e-001	 6.666972226472177e-001	 1.189629273804340e-001
0	 8.666790473703456e-001	 7.333579753122047e-001	 2.765655130504962e-001
0	 8.666790473703454e-001	 8.000185779984418e-001	 6.081551628583871e-001
0	 8.666790473703454e-001	 8.666790473703455e-001	 1.110777679453442e+000
0	 8.666790473703456e-001	 9.333394000923325e-001	 1.781478611325818e+000
0	 8.666790473703456e-001	 9.999996528288193e-001	 2.617303252802652e+000
0	 8.666790473703454e-001	 1.066659822244223e+000	 3.615296644045155e+000
0	 8.666790473703457e-001	 1.133319925002959e+000	 4.772503571046689e+000
0	 8.666790473703454e-001	 1.199979977769446e+000	 6.085968565631761e+000
0	 8.666790473703454e-001	 1.266639997208098e+000	 7.552735905455990e+000
0	 8.666790473703453e-001	 1.333299999983333e+000	 9.169849614007042e+000
0	 9.333394000923323e-001	 6.666972226472175e-001	 1.568584016848423e-001
0	 9.333394000923324e-001	 7.333579753122047e-001	 3.748720482870238e-001
0	 9.333394000923323e-001	 8.000185779984417e-001	 7.698140325513376e-001
0	 9.333394000923325e-001	 8.666790473703453e-001	 1.336790825641276e+000
0	 9.333394000923323e-001	 9.333394000923322e-001	 2.070908642421249e+000
0	 9.333394000923323e-001	 9.999996528288190e-001	 2.967273441452855e+000
0	 9.333394000923322e-001	 1.066659822244223e+000	 4.020990924992098e+000
0	 9.333394000923323e-001	 1.133319925002959e+000	 5.227166538987571e+000
0	 9.333394000923323e-001	 1.199979977769445e+000	 6.580905473079614e+000
0	 9.333394000923324e-001	 1.266639997208098e+000	 8.077312660600393e+000
0	 9.333394000923326e-001	 1.333299999983334e+000	 9.711492778575003e+000
0	 9.999996528288192e-001	 6.666972226472177e-001	 1.719858245971509e-001
0	 9.999996528288195e-001	 7.333579753122050e-001	 4.600483887945522e-001
0	 9.999996528288192e-001	 8.000185779984419e-001	 9.239323082961642e-001
0	 9.999996528288193e-001	 8.666790473703455e-001	 1.556927369839090e+000
0	 9.999996528288190e-001	 9.333394000923324e-001	 2.352323109554091e+000
0	 9.999996528288191e-001	 9.999996528288192e-001	 3.303408812962101e+000
0	 9.999996528288191e-001	 1.066659822244222e+000	 4.403473514971715e+000
0	 9.999996528288192e-001	 1.133319925002959e+000	 5.645805999877577e+000
0	 9.999996528288192e-001	 1.199979977769445e+000	 7.023694801359756e+000
0	 9.999996528288193e-001	 1.266639997208098e+000	 8.530428202483982e+000
0	 9.999996528288191e-001	 1.333299999983334e+000	 1.015929423570295e+001
0	 1.066659822244223e+000	 6.666972226472175e-001	 1.563287761406741e-001
0	 1.066659822244222e+000	 7.333579753122046e-001	 5.246496575420572e-001
0	 1.066659822244223e+000	 8.000185779984421e-001	 1.064173358820907e+000
0	 1.066659822244222e+000	 8.666790473703455e-001	 1.766495633806001e+000
0	 1.066659822244223e+000	 9.333394000923321e-001	 2.623211998440138e+000
0	 1.066659822244222e+000	 9.999996528288191e-001	 3.625917730777065e+000
0	 1.066659822244222e+000	 1.066659822244222e+000	 4.766207870979324e+000
0	 1.066659822244223e+000	 1.133319925002959e+000	 6.035677221316970e+000
0	 1.066659822244222e+000	 1.199979977769445e+000	 7.425920346167183e+000
0	 1.066659822244222e+000	 1.266639997208098e+000	 8.928531572014800e+000
0	 1.066659822244223e+000	 1.333299999983334e+000	 1.053510498745367e+001
0	 1.133319925002959e+000	 6.666972226472177e-001	 1.018708732123139e-001
0	 1.133319925002959e+000	 7.333579753122048e-001	 5.612310236788258e-001
0	 1.133319925002959e+000	 8.000185779984419e-001	 1.184200606579888e+000
0	 1.133319925002959e+000	 8.666790473703456e-001	 1.960803998628600e+000
0	 1.133319925002959e+000	 9.333394000923324e-001	 2.881065357595070e+000
0	 1.133319925002959e+000	 9.999996528288191e-001	 3.935008622303899e+000
0	 1.133319925002959e+000	 1.066659822244223e+000	 5.112657512632485e+000
0	 1.133319925002959e+000	 1.133319925002959e+000	 6.404035529510156e+000
0	 1.133319925002959e+000	 1.199979977769445e+000	 7.799165954918129e+000
0	 1.133319925002959e+000	 1.266639997208098e+000	 9.288071851890233e+000
0	 1.133319925002959e+000	 1.333299999983334e+000	 1.086077606451458e+001
0	 1.199979977769445e+000	 6.666972226472177e-001	 5.957695827517595e-004
0	 1.199979977769445e+000	 7.333579753122047e-001	 5.623477025346934e-001
0	 1.199979977769445e+000	 8.000185779984421e-001	 1.277677527753985e+000
0	 1.199979977769446e+000	 8.666790473703454e-001	 2.135160904721247e+000
0	 1.199979977769445e+000	 9.333394000923322e-001	 3.123373298334738e+000
0	 1.199979977769445e+000	 9.999996528288192e-001	 4.230889978908485e+000
0	 1.199979977769445e+000	 1.066659822244222e+000	 5.446286022171184e+000
0	 1.199979977769445e+000	 1.133319925002959e+000	 6.758136309265797e+000
0	 1.199979977769446e+000	 1.199979977769446e+000	 8.155015526749914e+000
0	 1.199979977769445e+000	 1.266639997208098e+000	 9.625498166596787e+000
0	 1.199979977769445e+000	 1.333299999983334e+000	 1.115815852619716e+001
0	 1.266639997208098e+000	 6.666972226472177e-001	-1.555128441034873e-001
0	 1.266639997208098e+000	 7.333579753122046e-001	 5.205549556201263e-001
0	 1.266639997208098e+000	 8.000185779984420e-001	 1.338267652250717e+000
0	 1.266639997208098e+000	 8.666790473703453e-001	 2.284874851826165e+000
0	 1.266639997208098e+000	 9.333394000923323e-001	 3.347625994775228e+000
0	 1.266639997208098e+000	 9.999996528288193e-001	 4.513770355916472e+000
0	 1.266639997208098e+000	 1.066659822244222e+000	 5.770557044457807e+000
0	 1.266639997208098e+000	 1.133319925002959e+000	 7.105235003996662e+000
0	 1.266639997208098e+000	 1.199979977769445e+000	 8.505053012520779e+000
0	 1.266639997208098e+000	 1.266639997208098e+000	 9.957259682409628e+000
0	 1.266639997208098e+000	 1.333299999983334e+000	 1.144910346043641e+001
0	 1.333299999983334e+000	 6.666972226472175e-001	-3.744712403281189e-001
0	 1.333299999983334e+000	 7.333579753122048e-001	 4.284080906261165e-001
0	 1.333299999983334e+000	 8.000185779984420e-001	 1.359634563704126e+000
0	 1.333299999983334e+000	 8.666790473703455e-001	 2.405254399013283e+000
0	 1.333299999983334e+000	 9.333394000923325e-001	 3.551313683832706e+000
0	 1.333299999983334e+000	 9.999996528288192e-001	 4.783858372613068e+000
0	 1.333299999983334e+000	 1.066659822244222e+000	 6.088934286976881e+000
0	 1.333299999983334e+000	 1.133319925002959e+000	 7.452587115719306e+000
0	 1.333299999983334e+000	 1.199979977769445e+000	 8.860862414809439e+000
0	 1.333299999983334e+000	 1.266639997208098e+000	 1.029980560739208e+001
0	 1.333299999983334e+000	 1.333299999983334e+000	 1.175546198379008e+001
0	 6.666972226472175e-001	 1.333299999983334e+000	 6.763360284411323e+000
0	 6.666972226472175e-001	 1.399969999982150e+000	 8.282752061467324e+000
0	 6.666972226472177e-001	 1.466639999981867e+000	 9.912598846691607e+000
0	 6.666972226472178e-001	 1.533309999982383e+000	 1.164394604898308e+001
0	 6.666972226472177e-001	 1.599979999983600e+000	 1.346783907724136e+001
0	 6.666972226472175e-001	 1.666649999985417e+000	 1.537532334036678e+001
0	 6.666972226472177e-001	 1.733319999987733e+000	 1.735744424726040e+001
0	 6.666972226472174e-001	 1.799989999990450e+000	 1.940524720682399e+001
0	 6.666972226472177e-001	 1.866659999993467e+000	 2.150977762796004e+001
0	 6.666972226472177e-001	 1.933329999996683e+000	 2.366208091957180e+001
0	 6.666972226472177e-001	 2.000000000000000e+000	 2.585320249056314e+001
0	 7.333579753122048e-001	 1.333299999983334e+000	 7.717634297425028e+000
0	 7.333579753122048e-001	 1.399969999982150e+000	 9.318643495137614e+000
0	 7.333579753122048e-001	 1.466639999981867e+000	 1.096331614140564e+001
0	 7.333579753122048e-001	 1.533309999982383e+000	 1.264503324375274e+001
0	 7.333579753122049e-001	 1.599979999983600e+000	 1.435717580970284e+001
0	 7.333579753122047e-001	 1.666649999985416e+000	 1.609312484678013e+001
0	 7.333579753122047e-001	 1.733319999987733e+000	 1.784626136250915e+001
0	 7.333579753122047e-001	 1.799989999990450e+000	 1.960996636441472e+001
0	 7.333579753122048e-001	 1.866659999993467e+000	 2.137762086002201e+001
0	 7.333579753122043e-001	 1.933329999996683e+000	 2.314260585685638e+001
0	 7.333579753122045e-001	 2.000000000000000e+000	 2.489830236244358e+001
0	 8.000185779984420e-001	 1.333299999983334e+000	 8.512513768561236e+000
0	 8.000185779984419e-001	 1.399969999982150e+000	 1.015845251136893e+001
0	 8.000185779984416e-001	 1.466639999981867e+000	 1.178956055600606e+001
0	 8.000185779984418e-001	 1.533309999982383e+000	 1.340139365611956e+001
0	 8.000185779984418e-001	 1.599979999983600e+000	 1.498950756535632e+001
0	 8.000185779984419e-001	 1.666649999985417e+000	 1.654945803736313e+001
0	 8.000185779984416e-001	 1.733319999987733e+000	 1.807680082578680e+001
0	 8.000185779984420e-001	 1.799989999990450e+000	 1.956709168427397e+001
0	 8.000185779984418e-001	 1.866659999993467e+000	 2.101588636647130e+001
0	 8.000185779984418e-001	 1.933329999996684e+000	 2.241874062602540e+001
0	 8.000185779984421e-001	 2.000000000000000e+000	 2.377121021658277e+001
0	 8.666790473703453e-001	 1.333299999983333e+000	 9.169849614007044e+000
0	 8.666790473703451e-001	 1.399969999982150e+000	 1.082943771914220e+001
0	 8.666790473703453e-001	 1.466639999981866e+000	 1.242347134869021e+001
0	 8.666790473703456e-001	 1.533309999982383e+000	 1.394952014726355e+001
0	 8.666790473703455e-001	 1.599979999983600e+000	 1.540515375947443e+001
0	 8.666790473703455e-001	 1.666649999985416e+000	 1.678794182993456e+001
0	 8.666790473703456e-001	 1.733319999987733e+000	 1.809545400325542e+001
0	 8.666790473703455e-001	 1.799989999990450e+000	 1.932525992404802e+001
0	 8.666790473703453e-001	 1.866659999993466e+000	 2.047492923692304e+001
0	 8.666790473703455e-001	 1.933329999996684e+000	 2.154203158649078e+001
0	 8.666790473703455e-001	 2.000000000000000e+000	 2.252413661736118e+001
0	 9.333394000923326e-001	 1.333299999983334e+000	 9.711492778575005e+000
0	 9.333394000923320e-001	 1.399969999982150e+000	 1.135885773955161e+001
0	 9.333394000923323e-001	 1.466639999981866e+000	 1.289718777007998e+001
0	 9.333394000923321e-001	 1.533309999982383e+000	 1.432590554816542e+001
0	 9.333394000923325e-001	 1.599979999983600e+000	 1.564443375181259e+001
0	 9.333394000923322e-001	 1.666649999985417e+000	 1.685219505902553e+001
0	 9.333394000923323e-001	 1.733319999987733e+000	 1.794861214780757e+001
0	 9.333394000923321e-001	 1.799989999990450e+000	 1.893310769616152e+001
0	 9.333394000923323e-001	 1.866659999993467e+000	 1.980510438208948e+001
0	 9.333394000923325e-001	 1.933329999996684e+000	 2.056402488359296e+001
0	 9.333394000923323e-001	 2.000000000000000e+000	 2.120929187867276e+001
0	 9.999996528288191e-001	 1.333299999983334e+000	 1.015929423570295e+001
0	 9.999996528288191e-001	 1.399969999982150e+000	 1.177397120580382e+001
0	 9.999996528288192e-001	 1.466639999981866e+000	 1.324284906322056e+001
0	 9.999996528288191e-001	 1.533309999982383e+000	 1.456704265960461e+001
0	 9.999996528288190e-001	 1.599979999983600e+000	 1.574766684660654e+001
0	 9.999996528288190e-001	 1.666649999985416e+000	 1.678583647587601e+001
0	 9.999996528288193e-001	 1.733319999987733e+000	 1.768266639906189e+001
0	 9.999996528288193e-001	 1.799989999990450e+000	 1.843927146781219e+001
0	 9.999996528288193e-001	 1.866659999993467e+000	 1.905676653377403e+001
0	 9.999996528288192e-001	 1.933329999996684e+000	 1.953626644859369e+001
0	 9.999996528288194e-001	 2.000000000000000e+000	 1.987888606391658e+001
0	 1.066659822244223e+000	 1.333299999983334e+000	 1.053510498745367e+001
0	 1.066659822244222e+000	 1.399969999982150e+000	 1.210203676321734e+001
0	 1.066659822244222e+000	 1.466639999981866e+000	 1.349259446357916e+001
0	 1.066659822244223e+000	 1.533309999982383e+000	 1.470942425215746e+001
0	 1.066659822244223e+000	 1.599979999983600e+000	 1.575517229256957e+001
0	 1.066659822244222e+000	 1.666649999985416e+000	 1.663248474843176e+001
0	 1.066659822244223e+000	 1.733319999987733e+000	 1.734400778335920e+001
0	 1.066659822244223e+000	 1.799989999990450e+000	 1.789238756096610e+001
0	 1.066659822244223e+000	 1.866659999993467e+000	 1.828027024486562e+001
0	 1.066659822244223e+000	 1.933329999996684e+000	 1.851030199866979e+001
0	 1.066659822244222e+000	 2.000000000000000e+000	 1.858512898598972e+001
0	 1.133319925002959e+000	 1.333299999983334e+000	 1.086077606451458e+001
0	 1.133319925002959e+000	 1.399969999982150e+000	 1.237031306922178e+001
0	 1.133319925002959e+000	 1.466639999981866e+000	 1.367856319904385e+001
0	 1.133319925002959e+000	 1.533309999982383e+000	 1.478954306619560e+001
0	 1.133319925002959e+000	 1.599979999983599e+000	 1.570726928289065e+001
0	 1.133319925002959e+000	 1.666649999985416e+000	 1.643575846134138e+001
0	 1.133319925002959e+000	 1.733319999987734e+000	 1.697902721375903e+001
0	 1.133319925002959e+000	 1.799989999990450e+000	 1.734109215235357e+001
0	 1.133319925002959e+000	 1.866659999993467e+000	 1.752596988933384e+001
0	 1.133319925002959e+000	 1.933329999996684e+000	 1.753767703690746e+001
0	 1.133319925002959e+000	 2.000000000000000e+000	 1.738023020728084e+001
0	 1.199979977769445e+000	 1.333299999983334e+000	 1.115815852619717e+001
0	 1.199979977769445e+000	 1.399969999982150e+000	 1.260605879335694e+001
0	 1.199979977769445e+000	 1.466639999981866e+000	 1.383289448992237e+001
0	 1.199979977769445e+000	 1.533309999982383e+000	 1.484389181188426e+001
0	 1.199979977769445e+000	 1.599979999983599e+000	 1.564427695523206e+001
0	 1.199979977769445e+000	 1.666649999985416e+000	 1.623927611595386e+001
0	 1.199979977769445e+000	 1.733319999987733e+000	 1.663411549003651e+001
0	 1.199979977769445e+000	 1.799989999990450e+000	 1.683402127346545e+001
0	 1.199979977769445e+000	 1.866659999993467e+000	 1.684421966222484e+001
0	 1.199979977769445e+000	 1.933329999996684e+000	 1.666993685229749e+001
0	 1.199979977769445e+000	 2.000000000000000e+000	 1.631639903966492e+001
0	 1.266639997208098e+000	 1.333299999983334e+000	 1.144910346043641e+001
0	 1.266639997208098e+000	 1.399969999982150e+000	 1.283653261727203e+001
0	 1.266639997208098e+000	 1.466639999981867e+000	 1.398772754894099e+001
0	 1.266639997208098e+000	 1.533309999982383e+000	 1.490896316918085e+001
0	 1.266639997208098e+000	 1.599979999983600e+000	 1.560651439172773e+001
0	 1.266639997208098e+000	 1.666649999985416e+000	 1.608665613031630e+001
0	 1.266639997208098e+000	 1.733319999987733e+000	 1.635566329867984e+001
0	 1.266639997208098e+000	 1.799989999990450e+000	 1.641981081055020e+001
0	 1.266639997208098e+000	 1.866659999993467e+000	 1.628537357965773e+001
0	 1.266639997208098e+000	 1.933329999996684e+000	 1.595862651973140e+001
0	 1.266639997208098e+000	 2.000000000000000e+000	 1.544584454449877e+001
0	 1.333299999983334e+000	 1.333299999983334e+000	 1.175546198379008e+001
0	 1.333299999983334e+000	 1.399969999982150e+000	 1.308899323472479e+001
0	 1.333299999983334e+000	 1.466639999981867e+000	 1.417520158124341e+001
0	 1.333299999983334e+000	 1.533309999982383e+000	 1.502124978783361e+001
0	 1.333299999983334e+000	 1.599979999983599e+000	 1.563430061898159e+001
0	 1.333299999983334e+000	 1.666649999985416e+000	 1.602151683917201e+001
0	 1.333299999983334e+000	 1.733319999987733e+000	 1.619006121288801e+001
0	 1.333299999983334e+000	 1.799989999990449e+000	 1.614709650461122e+001
0	 1.333299999983334e+000	 1.866659999993467e+000	 1.589978547882174e+001
0	 1.333299999983334e+000	 1.933329999996683e+000	 1.545529089999816e+001
0	 1.333299999983334e+000	 2.000000000000000e+000	 1.482077553261759e+001
0	 6.666972226472177e-001	 2.000000000000000e+000	 2.585320249056314e+001
0	 6.666972226472177e-001	 2.066670000003317e+000	 2.790564118629369e+001
0	 6.666972226472178e-001	 2.133340000006534e+000	 2.964914779571667e+001
0	 6.666972226472177e-001	 2.200010000009551e+000	 3.108564564312544e+001
0	 6.666972226472177e-001	 2.266680000012268e+000	 3.221705805281096e+001
0	 6.666972226472177e-001	 2.333350000014584e+000	 3.304530834906190e+001
0	 6.666972226472175e-001	 2.400020000016400e+000	 3.357231985616453e+001
0	 6.666972226472177e-001	 2.466690000017617e+000	 3.380001589840280e+001
0	 6.666972226472177e-001	 2.533360000018134e+000	 3.373031980005833e+001
0	 6.666972226472175e-001	 2.600030000017851e+000	 3.336515488541036e+001
0	 6.666972226472175e-001	 2.666700000016666e+000	 3.270644447873579e+001
0	 7.333579753122045e-001	 2.000000000000000e+000	 2.489830236244358e+001
0	 7.333579753122047e-001	 2.066670000003317e+000	 2.649144558848588e+001
0	 7.333579753122046e-001	 2.133340000006534e+000	 2.777715518852685e+001
0	 7.333579753122048e-001	 2.200010000009550e+000	 2.876138883285267e+001
0	 7.333579753122048e-001	 2.266680000012268e+000	 2.945010419174724e+001
0	 7.333579753122047e-001	 2.333350000014585e+000	 2.984925893549200e+001
0	 7.333579753122048e-001	 2.400020000016402e+000	 2.996481073436607e+001
0	 7.333579753122048e-001	 2.466690000017618e+000	 2.980271725864620e+001
0	 7.333579753122047e-001	 2.533360000018134e+000	 2.936893617860669e+001
0	 7.333579753122048e-001	 2.600030000017851e+000	 2.866942516451955e+001
0	 7.333579753122047e-001	 2.666700000016666e+000	 2.771014188665438e+001
0	 8.000185779984421e-001	 2.000000000000000e+000	 2.377121021658277e+001
0	 8.000185779984418e-001	 2.066670000003317e+000	 2.494502925619466e+001
0	 8.000185779984417e-001	 2.133340000006534e+000	 2.582119871065512e+001
0	 8.000185779984420e-001	 2.200010000009550e+000	 2.640917460522300e+001
0	 8.000185779984419e-001	 2.266680000012267e+000	 2.671841296515483e+001
0	 8.000185779984420e-001	 2.333350000014585e+000	 2.675836981570486e+001
0	 8.000185779984419e-001	 2.400020000016400e+000	 2.653850118212496e+001
0	 8.000185779984418e-001	 2.466690000017618e+000	 2.606826308966465e+001
0	 8.000185779984416e-001	 2.533360000018134e+000	 2.535711156357122e+001
0	 8.000185779984420e-001	 2.600030000017851e+000	 2.441450262908951e+001
0	 8.000185779984420e-001	 2.666700000016666e+000	 2.324989231146213e+001
0	 8.666790473703455e-001	 2.000000000000000e+000	 2.252413661736118e+001
0	 8.666790473703456e-001	 2.066670000003316e+000	 2.331831965451933e+001
0	 8.666790473703453e-001	 2.133340000006534e+000	 2.383155518199217e+001
0	 8.666790473703455e-001	 2.200010000009550e+000	 2.407626158295053e+001
0	 8.666790473703457e-001	 2.266680000012267e+000	 2.406485724056306e+001
0	 8.666790473703455e-001	 2.333350000014585e+000	 2.380976053799606e+001
0	 8.666790473703453e-001	 2.400020000016401e+000	 2.332338985841368e+001
0	 8.666790473703456e-001	 2.466690000017618e+000	 2.261816358497787e+001
0	 8.666790473703456e-001	 2.533360000018134e+000	 2.170650010084835e+001
0	 8.666790473703453e-001	 2.600030000017850e+000	 2.060081778918260e+001
0	 8.666790473703455e-001	 2.666700000016666e+000	 1.931353503313586e+001
0	 9.333394000923323e-001	 2.000000000000000e+000	 2.120929187867276e+001
0	 9.333394000923322e-001	 2.066670000003317e+000	 2.166324396074607e+001
0	 9.333394000923322e-001	 2.133340000006534e+000	 2.185850109708775e+001
0	 9.333394000923322e-001	 2.200010000009550e+000	 2.180990802648339e+001
0	 9.333394000923323e-001	 2.266680000012267e+000	 2.153230948771643e+001
0	 9.333394000923323e-001	 2.333350000014585e+000	 2.104055021956827e+001
0	 9.333394000923321e-001	 2.400020000016401e+000	 2.034947496081823e+001
0	 9.333394000923324e-001	 2.466690000017618e+000	 1.947392845024355e+001
0	 9.333394000923324e-001	 2.533360000018134e+000	 1.842875542661946e+001
0	 9.333394000923324e-001	 2.600030000017851e+000	 1.722880062871906e+001
0	 9.333394000923322e-001	 2.666700000016666e+000	 1.588890879531343e+001
0	 9.999996528288194e-001	 2.000000000000000e+000	 1.987888606391658e+001
0	 9.999996528288194e-001	 2.066670000003317e+000	 2.003172906433861e+001
0	 9.999996528288190e-001	 2.133340000006534e+000	 1.995231262514032e+001
0	 9.999996528288192e-001	 2.200010000009550e+000	 1.965737183399217e+001
0	 9.999996528288193e-001	 2.266680000012267e+000	 1.916364177856265e+001
0	 9.999996528288192e-001	 2.333350000014584e+000	 1.848785754651841e+001
0	 9.999996528288192e-001	 2.400020000016401e+000	 1.764675422552422e+001
0	 9.999996528288190e-001	 2.466690000017618e+000	 1.665706690324301e+001
0	 9.999996528288192e-001	 2.533360000018134e+000	 1.553553066733576e+001
0	 9.999996528288190e-001	 2.600030000017850e+000	 1.429888060546164e+001
0	 9.999996528288190e-001	 2.666700000016665e+000	 1.296385180527793e+001
0	 1.066659822244222e+000	 2.000000000000000e+000	 1.858512898598972e+001
0	 1.066659822244223e+000	 2.066670000003317e+000	 1.847570156693026e+001
0	 1.066659822244223e+000	 2.133340000006534e+000	 1.816326560998821e+001
0	 1.066659822244222e+000	 2.200010000009550e+000	 1.766591054136033e+001
0	 1.066659822244223e+000	 2.266680000012268e+000	 1.700172578724178e+001
0	 1.066659822244222e+000	 2.333350000014584e+000	 1.618880077382604e+001
0	 1.066659822244223e+000	 2.400020000016401e+000	 1.524522492730488e+001
0	 1.066659822244222e+000	 2.466690000017617e+000	 1.418908767386844e+001
0	 1.066659822244222e+000	 2.533360000018134e+000	 1.303847843970523e+001
0	 1.066659822244222e+000	 2.600030000017851e+000	 1.181148665100207e+001
0	 1.066659822244223e+000	 2.666700000016666e+000	 1.052620173394414e+001
0	 1.133319925002959e+000	 2.000000000000000e+000	 1.738023020728084e+001
0	 1.133319925002959e+000	 2.066670000003318e+000	 1.704708778231676e+001
0	 1.133319925002959e+000	 2.133340000006534e+000	 1.654163557010168e+001
0	 1.133319925002959e+000	 2.200010000009550e+000	 1.588278132217569e+001
0	 1.133319925002959e+000	 2.266680000012267e+000	 1.508943279007731e+001
0	 1.133319925002959e+000	 2.333350000014585e+000	 1.418049772534369e+001
0	 1.133319925002959e+000	 2.400020000016401e+000	 1.317488387951056e+001
0	 1.133319925002959e+000	 2.466690000017617e+000	 1.209149900411216e+001
0	 1.133319925002959e+000	 2.533360000018134e+000	 1.094925085068138e+001
0	 1.133319925002959e+000	 2.600030000017851e+000	 9.767047170749615e+000
0	 1.133319925002959e+000	 2.666700000016666e+000	 8.563795715846846e+000
0	 1.199979977769445e+000	 2.000000000000000e+000	 1.631639903966492e+001
0	 1.199979977769445e+000	 2.066670000003316e+000	 1.579781373645028e+001
0	 1.199979977769445e+000	 2.133340000006534e+000	 1.513769769857655e+001
0	 1.199979977769445e+000	 2.200010000009550e+000	 1.435524098772313e+001
0	 1.199979977769445e+000	 2.266680000012267e+000	 1.346963366556816e+001
0	 1.199979977769445e+000	 2.333350000014584e+000	 1.250006579378865e+001
0	 1.199979977769445e+000	 2.400020000016402e+000	 1.146572743406027e+001
0	 1.199979977769445e+000	 2.466690000017618e+000	 1.038580864805759e+001
0	 1.199979977769445e+000	 2.533360000018134e+000	 9.279499497453982e+000
0	 1.199979977769445e+000	 2.600030000017851e+000	 8.165990043921525e+000
0	 1.199979977769445e+000	 2.666700000016666e+000	 7.064470349131181e+000
0	 1.266639997208098e+000	 2.000000000000000e+000	 1.544584454449877e+001
0	 1.266639997208098e+000	 2.066670000003316e+000	 1.477980516743462e+001
0	 1.266639997208098e+000	 2.133340000006534e+000	 1.400172686312864e+001
0	 1.266639997208098e+000	 2.200010000009551e+000	 1.313054598697902e+001
0	 1.266639997208098e+000	 2.266680000012268e+000	 1.218519889438286e+001
0	 1.266639997208098e+000	 2.333350000014584e+000	 1.118462194073639e+001
0	 1.266639997208098e+000	 2.400020000016401e+000	 1.014775148143472e+001
0	 1.266639997208098e+000	 2.466690000017617e+000	 9.093523871872048e+000
0	 1.266639997208098e+000	 2.533360000018134e+000	 8.040875467441612e+000
0	 1.266639997208098e+000	 2.600030000017851e+000	 7.008742623535540e+000
0	 1.266639997208098e+000	 2.666700000016667e+000	 6.016061695545066e+000
0	 1.333299999983334e+000	 2.000000000000000e+000	 1.482077553261759e+001
0	 1.333299999983334e+000	 2.066670000003317e+000	 1.404498752552139e+001
0	 1.333299999983334e+000	 2.133340000006534e+000	 1.318399760608986e+001
0	 1.333299999983334e+000	 2.200010000009551e+000	 1.225595240660665e+001
0	 1.333299999983334e+000	 2.266680000012267e+000	 1.127899855935458e+001
0	 1.333299999983334e+000	 2.333350000014585e+000	 1.027128269661565e+001
0	 1.333299999983334e+000	 2.400020000016401e+000	 9.250951450671154e+000
0	 1.333299999983334e+000	 2.466690000017617e+000	 8.236151453801462e+000
0	 1.333299999983334e+000	 2.533360000018134e+000	 7.245029338286216e+000
0	 1.333299999983334e+000	 2.600030000017851e+000	 6.295731736404239e+000
0	 1.333299999983334e+000	 2.666700000016667e+000	 5.406405280433550e+000
0	 6.666972226472175e-001	 2.666700000016666e+000	 3.270644447873579e+001
0	 6.666972226472175e-001	 2.733360000014533e+000	 3.187400099924912e+001
0	 6.666972226472178e-001	 2.800020000011599e+000	 3.098956570079988e+001
0	 6.666972226472177e-001	 2.866680000008066e+000	 3.005831732042813e+001
0	 6.666972226472177e-001	 2.933340000004133e+000	 2.908543459517441e+001
0	 6.666972226472178e-001	 3.000000000000001e+000	 2.807609626207974e+001
0	 6.666972226472175e-001	 3.066659999995868e+000	 2.703548105818559e+001
0	 6.666972226472175e-001	 3.133319999991934e+000	 2.596876772053394e+001
0	 6.666972226472178e-001	 3.199979999988401e+000	 2.488113498616724e+001
0	 6.666972226472177e-001	 3.266639999985468e+000	 2.377776159212837e+001
0	 6.666972226472177e-001	 3.333299999983334e+000	 2.266382627546073e+001
0	 7.333579753122047e-001	 2.666700000016666e+000	 2.771014188665437e+001
0	 7.333579753122049e-001	 2.733360000014534e+000	 2.663981134602762e+001
0	 7.333579753122047e-001	 2.800020000011599e+000	 2.560390268364238e+001
0	 7.333579753122049e-001	 2.866680000008067e+000	 2.460397898786953e+001
0	 7.333579753122047e-001	 2.933340000004133e+000	 2.364160334707956e+001
0	 7.333579753122050e-001	 3.000000000000001e+000	 2.271833884964255e+001
0	 7.333579753122045e-001	 3.066659999995868e+000	 2.183574858392813e+001
0	 7.333579753122048e-001	 3.133319999991935e+000	 2.099539563830560e+001
0	 7.333579753122047e-001	 3.199979999988400e+000	 2.019884310114376e+001
0	 7.333579753122050e-001	 3.266639999985469e+000	 1.944765406081107e+001
0	 7.333579753122049e-001	 3.333299999983335e+000	 1.874339160567552e+001
0	 8.000185779984420e-001	 2.666700000016666e+000	 2.324989231146213e+001
0	 8.000185779984420e-001	 2.733360000014533e+000	 2.202866518711853e+001
0	 8.000185779984418e-001	 2.800020000011599e+000	 2.090842695483038e+001
0	 8.000185779984419e-001	 2.866680000008066e+000	 1.988753790127224e+001
0	 8.000185779984419e-001	 2.933340000004134e+000	 1.896435831311779e+001
0	 8.000185779984420e-001	 3.000000000000001e+000	 1.813724847703965e+001
0	 8.000185779984416e-001	 3.066659999995867e+000	 1.740456867970935e+001
0	 8.000185779984419e-001	 3.133319999991934e+000	 1.676467920779754e+001
0	 8.000185779984420e-001	 3.199979999988401e+000	 1.621594034797376e+001
0	 8.000185779984420e-001	 3.266639999985467e+000	 1.575671238690656e+001
0	 8.000185779984419e-001	 3.333299999983334e+000	 1.538535561126351e+001
0	 8.666790473703455e-001	 2.666700000016666e+000	 1.931353503313586e+001
0	 8.666790473703456e-001	 2.733360000014534e+000	 1.801620142427437e+001
0	 8.666790473703454e-001	 2.800020000011600e+000	 1.686872236093910e+001
0	 8.666790473703455e-001	 2.866680000008066e+000	 1.586666818011529e+001
0	 8.666790473703454e-001	 2.933340000004133e+000	 1.500560921878683e+001
0	 8.666790473703455e-001	 3.000000000000000e+000	 1.428111581393615e+001
0	 8.666790473703456e-001	 3.066659999995868e+000	 1.368875830254447e+001
0	 8.666790473703454e-001	 3.133319999991934e+000	 1.322410702159142e+001
0	 8.666790473703452e-001	 3.199979999988400e+000	 1.288273230805541e+001
0	 8.666790473703455e-001	 3.266639999985468e+000	 1.266020449891342e+001
0	 8.666790473703455e-001	 3.333299999983334e+000	 1.255209393114101e+001
0	 9.333394000923322e-001	 2.666700000016666e+000	 1.588890879531343e+001
0	 9.333394000923324e-001	 2.733360000014533e+000	 1.457805841950840e+001
0	 9.333394000923322e-001	 2.800020000011600e+000	 1.345037221181709e+001
0	 9.333394000923322e-001	 2.866680000008067e+000	 1.249904341595688e+001
0	 9.333394000923324e-001	 2.933340000004133e+000	 1.171726527564370e+001
0	 9.333394000923324e-001	 3.000000000000000e+000	 1.109823103459184e+001
0	 9.333394000923324e-001	 3.066659999995868e+000	 1.063513393651416e+001
0	 9.333394000923323e-001	 3.133319999991933e+000	 1.032116722512190e+001
0	 9.333394000923321e-001	 3.199979999988401e+000	 1.014952414412483e+001
0	 9.333394000923325e-001	 3.266639999985468e+000	 1.011339793723115e+001
0	 9.333394000923324e-001	 3.333299999983334e+000	 1.020598184814746e+001
0	 9.999996528288190e-001	 2.666700000016665e+000	 1.296385180527793e+001
0	 9.999996528288193e-001	 2.733360000014533e+000	 1.168987399507904e+001
0	 9.999996528288190e-001	 2.800020000011598e+000	 1.061895928057054e+001
0	 9.999996528288190e-001	 2.866680000008067e+000	 9.742336672419135e+000
0	 9.999996528288190e-001	 2.933340000004133e+000	 9.051235181289929e+000
0	 9.999996528288192e-001	 3.000000000000000e+000	 8.536883817846489e+000
0	 9.999996528288193e-001	 3.066659999995868e+000	 8.190511592750934e+000
0	 9.999996528288190e-001	 3.133319999991933e+000	 8.003347516663776e+000
0	 9.999996528288190e-001	 3.199979999988401e+000	 7.966620600243985e+000
0	 9.999996528288192e-001	 3.266639999985468e+000	 8.071559854149079e+000
0	 9.999996528288191e-001	 3.333299999983334e+000	 8.309394289035009e+000
0	 1.066659822244223e+000	 2.666700000016666e+000	 1.052620173394414e+001
0	 1.066659822244223e+000	 2.733360000014534e+000	 9.327285433476018e+000
0	 1.066659822244223e+000	 2.800020000011600e+000	 8.340065803549779e+000
0	 1.066659822244222e+000	 2.866680000008066e+000	 7.554220485174687e+000
0	 1.066659822244223e+000	 2.933340000004134e+000	 6.959427119358503e+000
0	 1.066659822244223e+000	 3.000000000000000e+000	 6.545363347107642e+000
0	 1.066659822244222e+000	 3.066659999995867e+000	 6.301706809427138e+000
0	 1.066659822244223e+000	 3.133319999991935e+000	 6.218135147320567e+000
0	 1.066659822244222e+000	 3.199979999988400e+000	 6.284326001790138e+000
0	 1.066659822244223e+000	 3.266639999985468e+000	 6.489957013836703e+000
0	 1.066659822244223e+000	 3.333299999983333e+000	 6.824705824459599e+000
0	 1.133319925002959e+000	 2.666700000016666e+000	 8.563795715846847e+000
0	 1.133319925002959e+000	 2.733360000014532e+000	 7.465929477408823e+000
0	 1.133319925002959e+000	 2.800020000011600e+000	 6.579273480337674e+000
0	 1.133319925002959e+000	 2.866680000008067e+000	 5.892366861935431e+000
0	 1.133319925002959e+000	 2.933340000004133e+000	 5.393748759502975e+000
0	 1.133319925002959e+000	 3.000000000000001e+000	 5.071958310339998e+000
0	 1.133319925002959e+000	 3.066659999995868e+000	 4.915534651744951e+000
0	 1.133319925002959e+000	 3.133319999991935e+000	 4.913016921015235e+000
0	 1.133319925002959e+000	 3.199979999988400e+000	 5.052944255446969e+000
0	 1.133319925002959e+000	 3.266639999985468e+000	 5.323855792335095e+000
0	 1.133319925002959e+000	 3.333299999983334e+000	 5.714290668973415e+000
0	 1.199979977769445e+000	 2.666700000016666e+000	 7.064470349131181e+000
0	 1.199979977769446e+000	 2.733360000014533e+000	 6.081442329797081e+000
0	 1.199979977769445e+000	 2.800020000011599e+000	 5.302163473740126e+000
0	 1.199979977769445e+000	 2.866680000008067e+000	 4.714447282443171e+000
0	 1.199979977769445e+000	 2.933340000004133e+000	 4.306107257388261e+000
0	 1.199979977769445e+000	 3.000000000000000e+000	 4.064956900056494e+000
0	 1.199979977769445e+000	 3.066659999995868e+000	 3.978809711928001e+000
0	 1.199979977769445e+000	 3.133319999991933e+000	 4.035479194482086e+000
0	 1.199979977769445e+000	 3.199979999988401e+000	 4.222778849197065e+000
0	 1.199979977769445e+000	 3.266639999985467e+000	 4.528522177550361e+000
0	 1.199979977769445e+000	 3.333299999983334e+000	 4.940522681018473e+000
0	 1.266639997208098e+000	 2.666700000016667e+000	 6.016061695545066e+000
0	 1.266639997208098e+000	 2.733360000014533e+000	 5.149459653762840e+000
0	 1.266639997208098e+000	 2.800020000011600e+000	 4.474316409778464e+000
0	 1.266639997208098e+000	 2.866680000008067e+000	 3.978132698462190e+000
0	 1.266639997208098e+000	 2.933340000004133e+000	 3.648409254683600e+000
0	 1.266639997208098e+000	 3.000000000000000e+000	 3.472646813311730e+000
0	 1.266639997208098e+000	 3.066659999995868e+000	 3.438346109214848e+000
0	 1.266639997208098e+000	 3.133319999991934e+000	 3.533007877260667e+000
0	 1.266639997208098e+000	 3.199979999988401e+000	 3.744132852316270e+000
0	 1.266639997208098e+000	 3.266639999985467e+000	 4.059221769248067e+000
0	 1.266639997208098e+000	 3.333299999983333e+000	 4.465775362921798e+000
0	 1.333299999983334e+000	 2.666700000016667e+000	 5.406405280433543e+000
0	 1.333299999983334e+000	 2.733360000014532e+000	 4.645616572625041e+000
0	 1.333299999983334e+000	 2.800020000011599e+000	 4.061312377684065e+000
0	 1.333299999983334e+000	 2.866680000008067e+000	 3.641093533773887e+000
0	 1.333299999983334e+000	 2.933340000004133e+000	 3.372560879057257e+000
0	 1.333299999983334e+000	 3.000000000000000e+000	 3.243315251696650e+000
0	 1.333299999983334e+000	 3.066659999995868e+000	 3.240957489854100e+000
0	 1.333299999983334e+000	 3.133319999991933e+000	 3.353088431691269e+000
0	 1.333299999983334e+000	 3.199979999988401e+000	 3.567308915369404e+000
0	 1.333299999983334e+000	 3.266639999985468e+000	 3.871219779049378e+000
0	 1.333299999983334e+000	 3.333299999983333e+000	 4.252421860891710e+000
0	 6.666972226472177e-001	 3.333299999983334e+000	 2.266382627546073e+001
0	 6.666972226472175e-001	 3.399969999982150e+000	 2.155981776790461e+001
0	 6.666972226472177e-001	 3.466639999981866e+000	 2.048255297041113e+001
0	 6.666972226472178e-001	 3.533309999982383e+000	 1.943119995303374e+001
0	 6.666972226472178e-001	 3.599979999983598e+000	 1.840492678582583e+001
0	 6.666972226472177e-001	 3.666649999985415e+000	 1.740290153884091e+001
0	 6.666972226472175e-001	 3.733319999987732e+000	 1.642429228213258e+001
0	 6.666972226472175e-001	 3.799989999990448e+000	 1.546826708575448e+001
0	 6.666972226472174e-001	 3.866659999993465e+000	 1.453399401976026e+001
0	 6.666972226472178e-001	 3.933329999996682e+000	 1.362064115420368e+001
0	 6.666972226472177e-001	 4.000000000000001e+000	 1.272737655913853e+001
0	 7.333579753122049e-001	 3.333299999983335e+000	 1.874339160567552e+001
0	 7.333579753122047e-001	 3.399969999982150e+000	 1.807107933713024e+001
0	 7.333579753122046e-001	 3.466639999981866e+000	 1.741250073369321e+001
0	 7.333579753122048e-001	 3.533309999982382e+000	 1.676405254364364e+001
0	 7.333579753122047e-001	 3.599979999983598e+000	 1.612213151526093e+001
0	 7.333579753122047e-001	 3.666649999985415e+000	 1.548313439682423e+001
0	 7.333579753122046e-001	 3.733319999987732e+000	 1.484345793661271e+001
0	 7.333579753122048e-001	 3.799989999990449e+000	 1.419949888290538e+001
0	 7.333579753122046e-001	 3.866659999993464e+000	 1.354765398398129e+001
0	 7.333579753122046e-001	 3.933329999996681e+000	 1.288431998811926e+001
0	 7.333579753122047e-001	 4.000000000000001e+000	 1.220589364359816e+001
0	 8.000185779984419e-001	 3.333299999983334e+000	 1.538535561126351e+001
0	 8.000185779984421e-001	 3.399969999982150e+000	 1.506244733155207e+001
0	 8.000185779984417e-001	 3.466639999981866e+000	 1.474570704437864e+001
0	 8.000185779984417e-001	 3.533309999982382e+000	 1.442906071530880e+001
0	 8.000185779984418e-001	 3.599979999983599e+000	 1.410643430990794e+001
0	 8.000185779984418e-001	 3.666649999985415e+000	 1.377175379374137e+001
0	 8.000185779984418e-001	 3.733319999987732e+000	 1.341894513237414e+001
0	 8.000185779984419e-001	 3.799989999990448e+000	 1.304193429137122e+001
0	 8.000185779984418e-001	 3.866659999993465e+000	 1.263464723629740e+001
0	 8.000185779984419e-001	 3.933329999996681e+000	 1.219100993271731e+001
0	 8.000185779984419e-001	 4.000000000000001e+000	 1.170494834619538e+001
0	 8.666790473703455e-001	 3.333299999983334e+000	 1.255209393114101e+001
0	 8.666790473703454e-001	 3.399969999982150e+000	 1.250408194369971e+001
0	 8.666790473703455e-001	 3.466639999981866e+000	 1.245932251647722e+001
0	 8.666790473703455e-001	 3.533309999982384e+000	 1.240957137515454e+001
0	 8.666790473703453e-001	 3.599979999983599e+000	 1.234658424541248e+001
0	 8.666790473703456e-001	 3.666649999985416e+000	 1.226211685293156e+001
0	 8.666790473703456e-001	 3.733319999987732e+000	 1.214792492339222e+001
0	 8.666790473703456e-001	 3.799989999990449e+000	 1.199576418247459e+001
0	 8.666790473703454e-001	 3.866659999993465e+000	 1.179739035585873e+001
0	 8.666790473703457e-001	 3.933329999996682e+000	 1.154455916922438e+001
0	 8.666790473703456e-001	 4.000000000000000e+000	 1.122902634825110e+001
0	 9.333394000923324e-001	 3.333299999983334e+000	 1.020598184814746e+001
0	 9.333394000923320e-001	 3.399969999982150e+000	 1.036614304292064e+001
0	 9.333394000923321e-001	 3.466639999981866e+000	 1.053049747410049e+001
0	 9.333394000923325e-001	 3.533309999982384e+000	 1.068893117363070e+001
0	 9.333394000923321e-001	 3.599979999983598e+000	 1.083133017345475e+001
0	 9.333394000923321e-001	 3.666649999985415e+000	 1.094758050551597e+001
0	 9.333394000923322e-001	 3.733319999987731e+000	 1.102756820175745e+001
0	 9.333394000923325e-001	 3.799989999990449e+000	 1.106117929412207e+001
0	 9.333394000923322e-001	 3.866659999993465e+000	 1.103829981455256e+001
0	 9.333394000923323e-001	 3.933329999996682e+000	 1.094881579499140e+001
0	 9.333394000923325e-001	 4.000000000000002e+000	 1.078261326738088e+001
0	 9.999996528288191e-001	 3.333299999983334e+000	 8.309394289035005e+000
0	 9.999996528288189e-001	 3.399969999982150e+000	 8.618790175370986e+000
0	 9.999996528288193e-001	 3.466639999981866e+000	 8.936381951453669e+000
0	 9.999996528288189e-001	 3.533309999982382e+000	 9.250486504504099e+000
0	 9.999996528288194e-001	 3.599979999983599e+000	 9.549420721743303e+000
0	 9.999996528288190e-001	 3.666649999985415e+000	 9.821501490391988e+000
0	 9.999996528288191e-001	 3.733319999987731e+000	 1.005504569767082e+001
0	 9.999996528288191e-001	 3.799989999990448e+000	 1.023837023080014e+001
0	 9.999996528288188e-001	 3.866659999993464e+000	 1.035979197700025e+001
0	 9.999996528288190e-001	 3.933329999996681e+000	 1.040762782349124e+001
0	 9.999996528288191e-001	 4.000000000000001e+000	 1.037019465749299e+001
0	 1.066659822244223e+000	 3.333299999983333e+000	 6.824705824459597e+000
0	 1.066659822244222e+000	 3.399969999982149e+000	 7.232182564007280e+000
0	 1.066659822244222e+000	 3.466639999981866e+000	 7.654125692828265e+000
0	 1.066659822244223e+000	 3.533309999982382e+000	 8.077583504852338e+000
0	 1.066659822244222e+000	 3.599979999983598e+000	 8.489604294009251e+000
0	 1.066659822244222e+000	 3.666649999985415e+000	 8.877236354228494e+000
0	 1.066659822244223e+000	 3.733319999987732e+000	 9.227527979439570e+000
0	 1.066659822244223e+000	 3.799989999990447e+000	 9.527527463571811e+000
0	 1.066659822244222e+000	 3.866659999993465e+000	 9.764283100554389e+000
0	 1.066659822244223e+000	 3.933329999996682e+000	 9.924843184316391e+000
0	 1.066659822244222e+000	 4.000000000000000e+000	 9.996256008786801e+000
0	 1.133319925002959e+000	 3.333299999983334e+000	 5.714290668973415e+000
0	 1.133319925002959e+000	 3.399969999982150e+000	 6.176479108579519e+000
0	 1.133319925002959e+000	 3.466639999981866e+000	 6.660878152595805e+000
0	 1.133319925002959e+000	 3.533309999982382e+000	 7.153568055057926e+000
0	 1.133319925002959e+000	 3.599979999983599e+000	 7.640629070001328e+000
0	 1.133319925002959e+000	 3.666649999985415e+000	 8.108141451461515e+000
0	 1.133319925002959e+000	 3.733319999987732e+000	 8.542185453473874e+000
0	 1.133319925002959e+000	 3.799989999990448e+000	 8.928841330073716e+000
0	 1.133319925002959e+000	 3.866659999993465e+000	 9.254189335296422e+000
0	 1.133319925002959e+000	 3.933329999996681e+000	 9.504309723177185e+000
0	 1.133319925002959e+000	 4.000000000000000e+000	 9.665282747751176e+000
0	 1.199979977769445e+000	 3.333299999983334e+000	 4.940522681018472e+000
0	 1.199979977769446e+000	 3.399969999982151e+000	 5.421838385625438e+000
0	 1.199979977769445e+000	 3.466639999981866e+000	 5.933788495202782e+000
0	 1.199979977769445e+000	 3.533309999982382e+000	 6.461785778803863e+000
0	 1.199979977769445e+000	 3.599979999983599e+000	 6.991243005482096e+000
0	 1.199979977769445e+000	 3.666649999985415e+000	 7.507572944290843e+000
0	 1.199979977769445e+000	 3.733319999987731e+000	 7.996188364283595e+000
0	 1.199979977769445e+000	 3.799989999990449e+000	 8.442502034513728e+000
0	 1.199979977769445e+000	 3.866659999993465e+000	 8.831926724034757e+000
0	 1.199979977769445e+000	 3.933329999996682e+000	 9.149875201900118e+000
0	 1.199979977769445e+000	 4.000000000000000e+000	 9.381760237163393e+000
0	 1.266639997208098e+000	 3.333299999983333e+000	 4.465775362921798e+000
0	 1.266639997208098e+000	 3.399969999982150e+000	 4.938418648466177e+000
0	 1.266639997208098e+000	 3.466639999981866e+000	 5.450005595166497e+000
0	 1.266639997208098e+000	 3.533309999982383e+000	 5.985582043070165e+000
0	 1.266639997208098e+000	 3.599979999983598e+000	 6.530193832224585e+000
0	 1.266639997208098e+000	 3.666649999985415e+000	 7.068886802677392e+000
0	 1.266639997208098e+000	 3.733319999987731e+000	 7.586706794476206e+000
0	 1.266639997208098e+000	 3.799989999990450e+000	 8.068699647668792e+000
0	 1.266639997208098e+000	 3.866659999993465e+000	 8.499911202303007e+000
0	 1.266639997208098e+000	 3.933329999996681e+000	 8.865387298426757e+000
0	 1.266639997208098e+000	 4.000000000000000e+000	 9.150173776088110e+000
0	 1.333299999983334e+000	 3.333299999983333e+000	 4.252421860891710e+000
0	 1.333299999983334e+000	 3.399969999982150e+000	 4.696377827202731e+000
0	 1.333299999983334e+000	 3.466639999981866e+000	 5.186678037072165e+000
0	 1.333299999983334e+000	 3.533309999982381e+000	 5.708301958130932e+000
0	 1.333299999983334e+000	 3.599979999983598e+000	 6.246229058010130e+000
0	 1.333299999983334e+000	 3.666649999985415e+000	 6.785438804341013e+000
0	 1.333299999983334e+000	 3.733319999987731e+000	 7.310910664755048e+000
0	 1.333299999983334e+000	 3.799989999990448e+000	 7.807624106883782e+000
0	 1.333299999983334e+000	 3.866659999993465e+000	 8.260558598358962e+000
0	 1.333299999983334e+000	 3.933329999996681e+000	 8.654693606812536e+000
0	 1.333299999983334e+000	 4.000000000000001e+000	 8.975008599876560e+000
0	 6.666972226472177e-001	 4.000000000000001e+000	 1.272737655913853e+001
0	 6.666972226472177e-001	 4.066670000003317e+000	 1.189484822388171e+001
0	 6.666972226472177e-001	 4.133340000006535e+000	 1.116373710432491e+001
0	 6.666972226472177e-001	 4.200010000009551e+000	 1.053326072038484e+001
0	 6.666972226472177e-001	 4.266680000012267e+000	 1.000263659197906e+001
0	 6.666972226472177e-001	 4.333350000014583e+000	 9.571082239025914e+000
0	 6.666972226472175e-001	 4.400020000016401e+000	 9.237815181444582e+000
0	 6.666972226472177e-001	 4.466690000017615e+000	 9.002052939155014e+000
0	 6.666972226472175e-001	 4.533360000018132e+000	 8.863013032078010e+000
0	 6.666972226472177e-001	 4.600030000017849e+000	 8.819912980135127e+000
0	 6.666972226472177e-001	 4.666700000016666e+000	 8.871970303248757e+000
0	 7.333579753122047e-001	 4.000000000000001e+000	 1.220589364359816e+001
0	 7.333579753122047e-001	 4.066670000003316e+000	 1.155332265456436e+001
0	 7.333579753122047e-001	 4.133340000006532e+000	 1.097091287193756e+001
0	 7.333579753122048e-001	 4.200010000009550e+000	 1.046009826415713e+001
0	 7.333579753122046e-001	 4.266680000012268e+000	 1.002231279966312e+001
0	 7.333579753122047e-001	 4.333350000014583e+000	 9.658990446896318e+000
0	 7.333579753122048e-001	 4.400020000016400e+000	 9.371565174298192e+000
0	 7.333579753122048e-001	 4.466690000017617e+000	 9.161470950310958e+000
0	 7.333579753122048e-001	 4.533360000018131e+000	 9.030141743377527e+000
0	 7.333579753122049e-001	 4.600030000017849e+000	 8.979011521941530e+000
0	 7.333579753122049e-001	 4.666700000016667e+000	 9.009514254447272e+000
0	 8.000185779984419e-001	 4.000000000000001e+000	 1.170494834619538e+001
0	 8.000185779984418e-001	 4.066670000003316e+000	 1.121566986753756e+001
0	 8.000185779984417e-001	 4.133340000006532e+000	 1.076870052279346e+001
0	 8.000185779984417e-001	 4.200010000009549e+000	 1.036744423039351e+001
0	 8.000185779984416e-001	 4.266680000012265e+000	 1.001530490876875e+001
0	 8.000185779984420e-001	 4.333350000014583e+000	 9.715686476350870e+000
0	 8.000185779984420e-001	 4.400020000016400e+000	 9.471992851572175e+000
0	 8.000185779984419e-001	 4.466690000017619e+000	 9.287627952865609e+000
0	 8.000185779984417e-001	 4.533360000018132e+000	 9.165995698664705e+000
0	 8.000185779984419e-001	 4.600030000017848e+000	 9.110500007403697e+000
0	 8.000185779984419e-001	 4.666700000016667e+000	 9.124544797517368e+000
0	 8.666790473703456e-001	 4.000000000000000e+000	 1.122902634825110e+001
0	 8.666790473703456e-001	 4.066670000003319e+000	 1.088657262216516e+001
0	 8.666790473703453e-001	 4.133340000006533e+000	 1.056189314763361e+001
0	 8.666790473703456e-001	 4.200010000009551e+000	 1.026011529149768e+001
0	 8.666790473703453e-001	 4.266680000012268e+000	 9.986366420599078e+000
0	 8.666790473703455e-001	 4.333350000014585e+000	 9.745773901780162e+000
0	 8.666790473703454e-001	 4.400020000016399e+000	 9.543465101883768e+000
0	 8.666790473703455e-001	 4.466690000017616e+000	 9.384567387753325e+000
0	 8.666790473703456e-001	 4.533360000018133e+000	 9.274208126232772e+000
0	 8.666790473703453e-001	 4.600030000017848e+000	 9.217514684166678e+000
0	 8.666790473703455e-001	 4.666700000016666e+000	 9.219614428400089e+000
0	 9.333394000923325e-001	 4.000000000000002e+000	 1.078261326738088e+001
0	 9.333394000923322e-001	 4.066670000003316e+000	 1.057071363074499e+001
0	 9.333394000923320e-001	 4.133340000006533e+000	 1.035528380347443e+001
0	 9.333394000923321e-001	 4.200010000009550e+000	 1.014292809656187e+001
0	 9.333394000923322e-001	 4.266680000012265e+000	 9.940250821000401e+000
0	 9.333394000923324e-001	 4.333350000014582e+000	 9.753856287783675e+000
0	 9.333394000923321e-001	 4.400020000016397e+000	 9.590348807905796e+000
0	 9.333394000923325e-001	 4.466690000017617e+000	 9.456332692361340e+000
0	 9.333394000923322e-001	 4.533360000018131e+000	 9.358412252145417e+000
0	 9.333394000923322e-001	 4.600030000017849e+000	 9.303191798253589e+000
0	 9.333394000923324e-001	 4.666700000016667e+000	 9.297275641681919e+000
0	 9.999996528288191e-001	 4.000000000000001e+000	 1.037019465749299e+001
0	 9.999996528288193e-001	 4.066670000003317e+000	 1.027277555850744e+001
0	 9.999996528288190e-001	 4.133340000006533e+000	 1.015366551360666e+001
0	 9.999996528288192e-001	 4.200010000009551e+000	 1.002069927136608e+001
0	 9.999996528288191e-001	 4.266680000012267e+000	 9.881711580361591e+000
0	 9.999996528288191e-001	 4.333350000014583e+000	 9.744537189169435e+000
0	 9.999996528288189e-001	 4.400020000016399e+000	 9.617010846366380e+000
0	 9.999996528288191e-001	 4.466690000017617e+000	 9.506967300529583e+000
0	 9.999996528288191e-001	 4.533360000018133e+000	 9.422241300236621e+000
0	 9.999996528288192e-001	 4.600030000017848e+000	 9.370667594065520e+000
0	 9.999996528288190e-001	 4.666700000016665e+000	 9.360080930594760e+000
0	 1.066659822244222e+000	 4.000000000000000e+000	 9.996256008786801e+000
0	 1.066659822244223e+000	 4.066670000003317e+000	 9.997441023614211e+000
0	 1.066659822244223e+000	 4.133340000006535e+000	 9.961831267594421e+000
0	 1.066659822244222e+000	 4.200010000009551e+000	 9.898245418377439e+000
0	 1.066659822244223e+000	 4.266680000012268e+000	 9.815502153613627e+000
0	 1.066659822244223e+000	 4.333350000014583e+000	 9.722420150953720e+000
0	 1.066659822244222e+000	 4.400020000016401e+000	 9.627818088048841e+000
0	 1.066659822244222e+000	 4.466690000017616e+000	 9.540514642550512e+000
0	 1.066659822244223e+000	 4.533360000018133e+000	 9.469328492110630e+000
0	 1.066659822244223e+000	 4.600030000017850e+000	 9.423078314381494e+000
0	 1.066659822244223e+000	 4.666700000016665e+000	 9.410582787015763e+000
0	 1.133319925002959e+000	 4.000000000000000e+000	 9.665282747751174e+000
0	 1.133319925002959e+000	 4.066670000003318e+000	 9.749392597157106e+000
0	 1.133319925002959e+000	 4.133340000006533e+000	 9.784574021274437e+000
0	 1.133319925002959e+000	 4.200010000009550e+000	 9.780383116749558e+000
0	 1.133319925002959e+000	 4.266680000012266e+000	 9.746375980229278e+000
0	 1.133319925002959e+000	 4.333350000014583e+000	 9.692108708360721e+000
0	 1.133319925002959e+000	 4.400020000016400e+000	 9.627137397791376e+000
0	 1.133319925002959e+000	 4.466690000017616e+000	 9.561018145169024e+000
0	 1.133319925002959e+000	 4.533360000018131e+000	 9.503307047141854e+000
0	 1.133319925002959e+000	 4.600030000017847e+000	 9.463560200358359e+000
0	 1.133319925002959e+000	 4.666700000016666e+000	 9.451333701467391e+000
0	 1.199979977769445e+000	 4.000000000000000e+000	 9.381760237163393e+000
0	 1.199979977769446e+000	 4.066670000003319e+000	 9.533312803157275e+000
0	 1.199979977769445e+000	 4.133340000006534e+000	 9.626686696755249e+000
0	 1.199979977769445e+000	 4.200010000009550e+000	 9.671928922322017e+000
0	 1.199979977769445e+000	 4.266680000012267e+000	 9.679086484222628e+000
0	 1.199979977769445e+000	 4.333350000014583e+000	 9.658206386822393e+000
0	 1.199979977769445e+000	 4.400020000016399e+000	 9.619335634486976e+000
0	 1.199979977769445e+000	 4.466690000017617e+000	 9.572521231582330e+000
0	 1.199979977769445e+000	 4.533360000018131e+000	 9.527810182474731e+000
0	 1.199979977769445e+000	 4.600030000017847e+000	 9.495249491530750e+000
0	 1.199979977769445e+000	 4.666700000016665e+000	 9.484886163117265e+000
0	 1.266639997208098e+000	 4.000000000000000e+000	 9.150173776088106e+000
0	 1.266639997208098e+000	 4.066670000003318e+000	 9.353884118564309e+000
0	 1.266639997208098e+000	 4.133340000006533e+000	 9.492962182416825e+000
0	 1.266639997208098e+000	 4.200010000009550e+000	 9.577699367620060e+000
0	 1.266639997208098e+000	 4.266680000012269e+000	 9.618387074148828e+000
0	 1.266639997208098e+000	 4.333350000014583e+000	 9.625316701978122e+000
0	 1.266639997208098e+000	 4.400020000016400e+000	 9.608779651083257e+000
0	 1.266639997208098e+000	 4.466690000017615e+000	 9.579067321439819e+000
0	 1.266639997208098e+000	 4.533360000018132e+000	 9.546471113023682e+000
0	 1.266639997208098e+000	 4.600030000017848e+000	 9.521282425810991e+000
0	 1.266639997208098e+000	 4.666700000016666e+000	 9.513792659778176e+000
0	 1.333299999983334e+000	 4.000000000000001e+000	 8.975008599876560e+000
0	 1.333299999983334e+000	 4.066670000003317e+000	 9.215788973255730e+000
0	 1.333299999983334e+000	 4.133340000006533e+000	 9.388193332909902e+000
0	 1.333299999983334e+000	 4.200010000009550e+000	 9.502510961854187e+000
0	 1.333299999983334e+000	 4.266680000012266e+000	 9.569031143103898e+000
0	 1.333299999983334e+000	 4.333350000014582e+000	 9.598043159674671e+000
0	 1.333299999983334e+000	 4.400020000016401e+000	 9.599836294582344e+000
0	 1.333299999983334e+000	 4.466690000017616e+000	 9.584699830843015e+000
0	 1.333299999983334e+000	 4.533360000018133e+000	 9.562923051473064e+000
0	 1.333299999983334e+000	 4.600030000017849e+000	 9.544795239489115e+000
0	 1.333299999983334e+000	 4.666700000016666e+000	 9.540605677908024e+000
0	 6.666972226472177e-001	 4.666700000016666e+000	 8.871970303248757e+000
0	 6.666972226472177e-001	 4.733360000014534e+000	 8.968128284891588e+000
0	 6.666972226472177e-001	 4.800020000011601e+000	 9.057514894582152e+000
0	 6.666972226472177e-001	 4.866680000008066e+000	 9.139579964715429e+000
0	 6.666972226472178e-001	 4.933340000004134e+000	 9.213773327686630e+000
0	 6.666972226472174e-001	 5.000000000000000e+000	 9.279544815891100e+000
0	 6.666972226472178e-001	 5.066659999995867e+000	 9.336344261724452e+000
0	 6.666972226472177e-001	 5.133319999991933e+000	 9.383621497582446e+000
0	 6.666972226472177e-001	 5.199979999988399e+000	 9.420826355861072e+000
0	 6.666972226472178e-001	 5.266639999985466e+000	 9.447408668956506e+000
0	 6.666972226472177e-001	 5.333299999983336e+000	 9.462818269265108e+000
0	 7.333579753122049e-001	 4.666700000016667e+000	 9.009514254447273e+000
0	 7.333579753122050e-001	 4.733360000014534e+000	 9.079432472744326e+000
0	 7.333579753122046e-001	 4.800020000011598e+000	 9.145295384934810e+000
0	 7.333579753122049e-001	 4.866680000008067e+000	 9.206624666718442e+000
0	 7.333579753122047e-001	 4.933340000004134e+000	 9.262941993795050e+000
0	 7.333579753122048e-001	 5.000000000000000e+000	 9.313769041864626e+000
0	 7.333579753122046e-001	 5.066659999995867e+000	 9.358627486627240e+000
0	 7.333579753122050e-001	 5.133319999991935e+000	 9.397039003783172e+000
0	 7.333579753122046e-001	 5.199979999988399e+000	 9.428525269032798e+000
0	 7.333579753122050e-001	 5.266639999985465e+000	 9.452607958076627e+000
0	 7.333579753122049e-001	 5.333299999983335e+000	 9.468808746615290e+000
0	 8.000185779984419e-001	 4.666700000016667e+000	 9.124544797517368e+000
0	 8.000185779984420e-001	 4.733360000014533e+000	 9.173621619573311e+000
0	 8.000185779984419e-001	 4.800020000011601e+000	 9.220700625279347e+000
0	 8.000185779984419e-001	 4.866680000008066e+000	 9.265381158553449e+000
0	 8.000185779984418e-001	 4.933340000004132e+000	 9.307262563313643e+000
0	 8.000185779984420e-001	 5.000000000000001e+000	 9.345944183478075e+000
0	 8.000185779984421e-001	 5.066659999995867e+000	 9.381025362964937e+000
0	 8.000185779984419e-001	 5.133319999991933e+000	 9.412105445692529e+000
0	 8.000185779984419e-001	 5.199979999988400e+000	 9.438783775579228e+000
0	 8.000185779984420e-001	 5.266639999985466e+000	 9.460659696543537e+000
0	 8.000185779984419e-001	 5.333299999983335e+000	 9.477332552503963e+000
0	 8.666790473703455e-001	 4.666700000016666e+000	 9.219614428400092e+000
0	 8.666790473703455e-001	 4.733360000014534e+000	 9.252655558127961e+000
0	 8.666790473703453e-001	 4.800020000011600e+000	 9.285166547140483e+000
0	 8.666790473703454e-001	 4.866680000008067e+000	 9.316830232466307e+000
0	 8.666790473703455e-001	 4.933340000004133e+000	 9.347329451134096e+000
0	 8.666790473703455e-001	 5.000000000000000e+000	 9.376347040172595e+000
0	 8.666790473703455e-001	 5.066659999995866e+000	 9.403565836610563e+000
0	 8.666790473703456e-001	 5.133319999991933e+000	 9.428668677476837e+000
0	 8.666790473703456e-001	 5.199979999988400e+000	 9.451338399800257e+000
0	 8.666790473703455e-001	 5.266639999985466e+000	 9.471257840609745e+000
0	 8.666790473703454e-001	 5.333299999983334e+000	 9.488109836934275e+000
0	 9.333394000923324e-001	 4.666700000016667e+000	 9.297275641681919e+000
0	 9.333394000923325e-001	 4.733360000014534e+000	 9.318494120036899e+000
0	 9.333394000923321e-001	 4.800020000011599e+000	 9.340129081176592e+000
0	 9.333394000923325e-001	 4.866680000008067e+000	 9.361952680102927e+000
0	 9.333394000923323e-001	 4.933340000004132e+000	 9.383737071817805e+000
0	 9.333394000923323e-001	 5.000000000000001e+000	 9.405254411323151e+000
0	 9.333394000923324e-001	 5.066659999995867e+000	 9.426276853620916e+000
0	 9.333394000923323e-001	 5.133319999991933e+000	 9.446576553713074e+000
0	 9.333394000923323e-001	 5.199979999988400e+000	 9.465925666601589e+000
0	 9.333394000923326e-001	 5.266639999985465e+000	 9.484096347288443e+000
0	 9.333394000923322e-001	 5.333299999983334e+000	 9.500860750775647e+000
0	 9.999996528288190e-001	 4.666700000016665e+000	 9.360080930594760e+000
0	 9.999996528288192e-001	 4.733360000014534e+000	 9.373097135807829e+000
0	 9.999996528288190e-001	 4.800020000011600e+000	 9.387024157179567e+000
0	 9.999996528288190e-001	 4.866680000008066e+000	 9.401729292509153e+000
0	 9.999996528288192e-001	 4.933340000004135e+000	 9.417079839595738e+000
0	 9.999996528288191e-001	 5.000000000000000e+000	 9.432943096238461e+000
0	 9.999996528288193e-001	 5.066659999995867e+000	 9.449186360236473e+000
0	 9.999996528288191e-001	 5.133319999991934e+000	 9.465676929388890e+000
0	 9.999996528288190e-001	 5.199979999988399e+000	 9.482282101494837e+000
0	 9.999996528288192e-001	 5.266639999985465e+000	 9.498869174353445e+000
0	 9.999996528288192e-001	 5.333299999983335e+000	 9.515305445763797e+000
0	 1.066659822244223e+000	 4.666700000016665e+000	 9.410582787015763e+000
0	 1.066659822244223e+000	 4.733360000014534e+000	 9.418424434827507e+000
0	 1.066659822244222e+000	 4.800020000011600e+000	 9.427287704074812e+000
0	 1.066659822244222e+000	 4.866680000008066e+000	 9.437140860130780e+000
0	 1.066659822244223e+000	 4.933340000004135e+000	 9.447952168368504e+000
0	 1.066659822244223e+000	 5.000000000000002e+000	 9.459689894161027e+000
0	 1.066659822244222e+000	 5.066659999995866e+000	 9.472322302881352e+000
0	 1.066659822244223e+000	 5.133319999991933e+000	 9.485817659902537e+000
0	 1.066659822244223e+000	 5.199979999988400e+000	 9.500144230597524e+000
0	 1.066659822244223e+000	 5.266639999985466e+000	 9.515270280339262e+000
0	 1.066659822244223e+000	 5.333299999983333e+000	 9.531164074500698e+000
0	 1.133319925002959e+000	 4.666700000016666e+000	 9.451333701467394e+000
0	 1.133319925002959e+000	 4.733360000014534e+000	 9.456435845361719e+000
0	 1.133319925002959e+000	 4.800020000011601e+000	 9.462355649921204e+000
0	 1.133319925002959e+000	 4.866680000008065e+000	 9.469168172813527e+000
0	 1.133319925002959e+000	 4.933340000004133e+000	 9.476948471706280e+000
0	 1.133319925002959e+000	 5.000000000000000e+000	 9.485771604267079e+000
0	 1.133319925002959e+000	 5.066659999995868e+000	 9.495712628163448e+000
0	 1.133319925002959e+000	 5.133319999991933e+000	 9.506846601062927e+000
0	 1.133319925002959e+000	 5.199979999988399e+000	 9.519248580632993e+000
0	 1.133319925002959e+000	 5.266639999985467e+000	 9.532993624541080e+000
0	 1.133319925002959e+000	 5.333299999983335e+000	 9.548156790454611e+000
0	 1.199979977769445e+000	 4.666700000016665e+000	 9.484886163117267e+000
0	 1.199979977769446e+000	 4.733360000014533e+000	 9.489091194555190e+000
0	 1.199979977769445e+000	 4.800020000011599e+000	 9.493663921911061e+000
0	 1.199979977769445e+000	 4.866680000008066e+000	 9.498792019802929e+000
0	 1.199979977769445e+000	 4.933340000004134e+000	 9.504663162848784e+000
0	 1.199979977769445e+000	 5.000000000000000e+000	 9.511465025666572e+000
0	 1.199979977769445e+000	 5.066659999995867e+000	 9.519385282874222e+000
0	 1.199979977769446e+000	 5.133319999991933e+000	 9.528611609089580e+000
0	 1.199979977769445e+000	 5.199979999988400e+000	 9.539331678930479e+000
0	 1.199979977769445e+000	 5.266639999985467e+000	 9.551733167014717e+000
0	 1.199979977769445e+000	 5.333299999983335e+000	 9.566003747960027e+000
0	 1.266639997208098e+000	 4.666700000016666e+000	 9.513792659778179e+000
0	 1.266639997208098e+000	 4.733360000014533e+000	 9.518350308431572e+000
0	 1.266639997208098e+000	 4.800020000011601e+000	 9.522648446370077e+000
0	 1.266639997208098e+000	 4.866680000008065e+000	 9.526993189744426e+000
0	 1.266639997208098e+000	 4.933340000004135e+000	 9.531690654705272e+000
0	 1.266639997208098e+000	 5.000000000000001e+000	 9.537046957403199e+000
0	 1.266639997208098e+000	 5.066659999995867e+000	 9.543368213988803e+000
0	 1.266639997208098e+000	 5.133319999991934e+000	 9.550960540612604e+000
0	 1.266639997208098e+000	 5.199979999988400e+000	 9.560130053425080e+000
0	 1.266639997208098e+000	 5.266639999985466e+000	 9.571182868576646e+000
0	 1.266639997208098e+000	 5.333299999983333e+000	 9.584425102217722e+000
0	 1.333299999983334e+000	 4.666700000016666e+000	 9.540605677908026e+000
0	 1.333299999983334e+000	 4.733360000014533e+000	 9.546173011893414e+000
0	 1.333299999983334e+000	 4.800020000011600e+000	 9.550745148757372e+000
0	 1.333299999983334e+000	 4.866680000008067e+000	 9.554752470683265e+000
0	 1.333299999983334e+000	 4.933340000004134e+000	 9.558625359854471e+000
0	 1.333299999983334e+000	 5.000000000000000e+000	 9.562794198454284e+000
0	 1.333299999983334e+000	 5.066659999995867e+000	 9.567689368665960e+000
0	 1.333299999983334e+000	 5.133319999991933e+000	 9.573741252672713e+000
0	 1.333299999983334e+000	 5.199979999988399e+000	 9.581380232657681e+000
0	 1.333299999983334e+000	 5.266639999985466e+000	 9.591036690803987e+000
0	 1.333299999983334e+000	 5.333299999983335e+000	 9.603141009294696e+000
0	 6.666972226472177e-001	 5.333299999983336e+000	 9.462818269265107e+000
0	 6.666972226472175e-001	 5.399969999982150e+000	 9.472601182144842e+000
0	 6.666972226472178e-001	 5.466639999981866e+000	 9.482746789436625e+000
0	 6.666972226472174e-001	 5.533309999982380e+000	 9.493374296629900e+000
0	 6.666972226472175e-001	 5.599979999983599e+000	 9.504602909214121e+000
0	 6.666972226472175e-001	 5.666649999985415e+000	 9.516551832678722e+000
0	 6.666972226472177e-001	 5.733319999987732e+000	 9.529340272513220e+000
0	 6.666972226472177e-001	 5.799989999990449e+000	 9.543087434207061e+000
0	 6.666972226472175e-001	 5.866659999993465e+000	 9.557912523249742e+000
0	 6.666972226472175e-001	 5.933329999996681e+000	 9.573934745130757e+000
0	 6.666972226472177e-001	 6.000000000000002e+000	 9.591273305339593e+000
0	 7.333579753122049e-001	 5.333299999983335e+000	 9.468808746615290e+000
0	 7.333579753122047e-001	 5.399969999982150e+000	 9.480827861023345e+000
0	 7.333579753122047e-001	 5.466639999981864e+000	 9.492768387570285e+000
0	 7.333579753122048e-001	 5.533309999982381e+000	 9.504761737522657e+000
0	 7.333579753122048e-001	 5.599979999983598e+000	 9.516939322146930e+000
0	 7.333579753122047e-001	 5.666649999985415e+000	 9.529432552709668e+000
0	 7.333579753122046e-001	 5.733319999987731e+000	 9.542372840477334e+000
0	 7.333579753122047e-001	 5.799989999990449e+000	 9.555891596716478e+000
0	 7.333579753122048e-001	 5.866659999993463e+000	 9.570120232693656e+000
0	 7.333579753122047e-001	 5.933329999996682e+000	 9.585190159675353e+000
0	 7.333579753122046e-001	 6.000000000000001e+000	 9.601232788928146e+000
0	 8.000185779984419e-001	 5.333299999983335e+000	 9.477332552503963e+000
0	 8.000185779984421e-001	 5.399969999982150e+000	 9.491015455356930e+000
0	 8.000185779984417e-001	 5.466639999981866e+000	 9.504276264042932e+000
0	 8.000185779984418e-001	 5.533309999982383e+000	 9.517252715671262e+000
0	 8.000185779984416e-001	 5.599979999983597e+000	 9.530082547351192e+000
0	 8.000185779984418e-001	 5.666649999985415e+000	 9.542903496191988e+000
0	 8.000185779984418e-001	 5.733319999987730e+000	 9.555853299302955e+000
0	 8.000185779984418e-001	 5.799989999990448e+000	 9.569069693793336e+000
0	 8.000185779984417e-001	 5.866659999993465e+000	 9.582690416772451e+000
0	 8.000185779984420e-001	 5.933329999996681e+000	 9.596853205349557e+000
0	 8.000185779984421e-001	 6.000000000000001e+000	 9.611695796633965e+000
0	 8.666790473703454e-001	 5.333299999983334e+000	 9.488109836934275e+000
0	 8.666790473703454e-001	 5.399969999982149e+000	 9.502941206065136e+000
0	 8.666790473703454e-001	 5.466639999981865e+000	 9.517097765035675e+000
0	 8.666790473703456e-001	 5.533309999982383e+000	 9.530717696821380e+000
0	 8.666790473703453e-001	 5.599979999983598e+000	 9.543939184397782e+000
0	 8.666790473703456e-001	 5.666649999985416e+000	 9.556900410740390e+000
0	 8.666790473703456e-001	 5.733319999987733e+000	 9.569739558824750e+000
0	 8.666790473703455e-001	 5.799989999990449e+000	 9.582594811626358e+000
0	 8.666790473703452e-001	 5.866659999993463e+000	 9.595604352120727e+000
0	 8.666790473703455e-001	 5.933329999996682e+000	 9.608906363283403e+000
0	 8.666790473703453e-001	 6.000000000000000e+000	 9.622639028089878e+000
0	 9.333394000923322e-001	 5.333299999983334e+000	 9.500860750775647e+000
0	 9.333394000923319e-001	 5.399969999982148e+000	 9.516382354984440e+000
0	 9.333394000923321e-001	 5.466639999981866e+000	 9.531060237648012e+000
0	 9.333394000923323e-001	 5.533309999982382e+000	 9.545027147598210e+000
0	 9.333394000923321e-001	 5.599979999983598e+000	 9.558415833666851e+000
0	 9.333394000923321e-001	 5.666649999985415e+000	 9.571359044685803e+000
0	 9.333394000923324e-001	 5.733319999987732e+000	 9.583989529486887e+000
0	 9.333394000923324e-001	 5.799989999990448e+000	 9.596440036901912e+000
0	 9.333394000923321e-001	 5.866659999993465e+000	 9.608843315762734e+000
0	 9.333394000923323e-001	 5.933329999996682e+000	 9.621332114901191e+000
0	 9.333394000923323e-001	 5.999999999999999e+000	 9.634039183149088e+000
0	 9.999996528288192e-001	 5.333299999983335e+000	 9.515305445763797e+000
0	 9.999996528288189e-001	 5.399969999982150e+000	 9.531116144868124e+000
0	 9.999996528288193e-001	 5.466639999981867e+000	 9.545991029897827e+000
0	 9.999996528288189e-001	 5.533309999982381e+000	 9.560051535506528e+000
0	 9.999996528288191e-001	 5.599979999983598e+000	 9.573419096347870e+000
0	 9.999996528288188e-001	 5.666649999985414e+000	 9.586215147075489e+000
0	 9.999996528288190e-001	 5.733319999987732e+000	 9.598561122343025e+000
0	 9.999996528288192e-001	 5.799989999990448e+000	 9.610578456804117e+000
0	 9.999996528288189e-001	 5.866659999993463e+000	 9.622388585112393e+000
0	 9.999996528288189e-001	 5.933329999996682e+000	 9.634112941921483e+000
0	 9.999996528288193e-001	 6.000000000000001e+000	 9.645872961884988e+000
0	 1.066659822244223e+000	 5.333299999983333e+000	 9.531164074500698e+000
0	 1.066659822244222e+000	 5.399969999982149e+000	 9.546919819386421e+000
0	 1.066659822244222e+000	 5.466639999981865e+000	 9.561717490721353e+000
0	 1.066659822244222e+000	 5.533309999982381e+000	 9.575661328930671e+000
0	 1.066659822244222e+000	 5.599979999983596e+000	 9.588855574439492e+000
0	 1.066659822244222e+000	 5.666649999985415e+000	 9.601404467673024e+000
0	 1.066659822244223e+000	 5.733319999987733e+000	 9.613412249056401e+000
0	 1.066659822244223e+000	 5.799989999990450e+000	 9.624983159014761e+000
0	 1.066659822244222e+000	 5.866659999993466e+000	 9.636221437973280e+000
0	 1.066659822244222e+000	 5.933329999996682e+000	 9.647231326357090e+000
0	 1.066659822244222e+000	 6.000000000000000e+000	 9.658117064591302e+000
0	 1.133319925002959e+000	 5.333299999983335e+000	 9.548156790454611e+000
0	 1.133319925002959e+000	 5.399969999982149e+000	 9.563570623126404e+000
0	 1.133319925002959e+000	 5.466639999981866e+000	 9.578066969973232e+000
0	 1.133319925002959e+000	 5.533309999982383e+000	 9.591726997134495e+000
0	 1.133319925002959e+000	 5.599979999983599e+000	 9.604631870749707e+000
0	 1.133319925002959e+000	 5.666649999985415e+000	 9.616862756958270e+000
0	 1.133319925002959e+000	 5.733319999987732e+000	 9.628500821899664e+000
0	 1.133319925002959e+000	 5.799989999990448e+000	 9.639627231713298e+000
0	 1.133319925002959e+000	 5.866659999993465e+000	 9.650323152538608e+000
0	 1.133319925002959e+000	 5.933329999996680e+000	 9.660669750515050e+000
0	 1.133319925002959e+000	 6.000000000000000e+000	 9.670748191782009e+000
0	 1.199979977769445e+000	 5.333299999983335e+000	 9.566003747960028e+000
0	 1.199979977769445e+000	 5.399969999982149e+000	 9.580845801592032e+000
0	 1.199979977769446e+000	 5.466639999981866e+000	 9.594866818426391e+000
0	 1.199979977769445e+000	 5.533309999982381e+000	 9.608119010261492e+000
0	 1.199979977769445e+000	 5.599979999983598e+000	 9.620654588895706e+000
0	 1.199979977769445e+000	 5.666649999985415e+000	 9.632525766127422e+000
0	 1.199979977769445e+000	 5.733319999987733e+000	 9.643784753755025e+000
0	 1.199979977769445e+000	 5.799989999990447e+000	 9.654483763576847e+000
0	 1.199979977769445e+000	 5.866659999993464e+000	 9.664675007391271e+000
0	 1.199979977769445e+000	 5.933329999996682e+000	 9.674410696996647e+000
0	 1.199979977769446e+000	 6.000000000000001e+000	 9.683743044191330e+000
0	 1.266639997208098e+000	 5.333299999983333e+000	 9.584425102217718e+000
0	 1.266639997208098e+000	 5.399969999982150e+000	 9.598522601204135e+000
0	 1.266639997208098e+000	 5.466639999981865e+000	 9.611944387772207e+000
0	 1.266639997208098e+000	 5.533309999982382e+000	 9.624707839334603e+000
0	 1.266639997208098e+000	 5.599979999983599e+000	 9.636830333303960e+000
0	 1.266639997208098e+000	 5.666649999985417e+000	 9.648329247092924e+000
0	 1.266639997208098e+000	 5.733319999987732e+000	 9.659221958114145e+000
0	 1.266639997208098e+000	 5.799989999990448e+000	 9.669525843780193e+000
0	 1.266639997208098e+000	 5.866659999993466e+000	 9.679258281503751e+000
0	 1.266639997208098e+000	 5.933329999996682e+000	 9.688436648697410e+000
0	 1.266639997208098e+000	 5.999999999999998e+000	 9.697078322773763e+000
0	 1.333299999983334e+000	 5.333299999983335e+000	 9.603141009294696e+000
0	 1.333299999983334e+000	 5.399969999982147e+000	 9.616378269300363e+000
0	 1.333299999983334e+000	 5.466639999981867e+000	 9.629127030620325e+000
0	 1.333299999983334e+000	 5.533309999982382e+000	 9.641363956256335e+000
0	 1.333299999983334e+000	 5.599979999983598e+000	 9.653065709210168e+000
0	 1.333299999983334e+000	 5.666649999985414e+000	 9.664208952483532e+000
0	 1.333299999983334e+000	 5.733319999987731e+000	 9.674770349078173e+000
0	 1.333299999983334e+000	 5.799989999990448e+000	 9.684726561995838e+000
0	 1.333299999983334e+000	 5.866659999993465e+000	 9.694054254238221e+000
0	 1.333299999983334e+000	 5.933329999996682e+000	 9.702730088807046e+000
0	 1.333299999983334e+000	 6.000000000000000e+000	 9.710730728704004e+000
0	 6.666972226472177e-001	 6.000000000000002e+000	 9.591273305339593e+000
0	 6.666972226472175e-001	 6.066670000003317e+000	 9.608951079525518e+000
0	 6.666972226472177e-001	 6.133340000006534e+000	 9.625878799078677e+000
0	 6.666972226472175e-001	 6.200010000009550e+000	 9.642007453099886e+000
0	 6.666972226472175e-001	 6.266680000012266e+000	 9.657288030689948e+000
0	 6.666972226472178e-001	 6.333350000014584e+000	 9.671671520949673e+000
0	 6.666972226472177e-001	 6.400020000016399e+000	 9.685108912979864e+000
0	 6.666972226472177e-001	 6.466690000017617e+000	 9.697551195881305e+000
0	 6.666972226472178e-001	 6.533360000018132e+000	 9.708949358754765e+000
0	 6.666972226472177e-001	 6.600030000017849e+000	 9.719254390701005e+000
0	 6.666972226472177e-001	 6.666700000016666e+000	 9.728417280820768e+000
0	 7.333579753122046e-001	 6.000000000000001e+000	 9.601232788928146e+000
0	 7.333579753122047e-001	 6.066670000003317e+000	 9.617549883390758e+000
0	 7.333579753122046e-001	 6.133340000006531e+000	 9.633317219112444e+000
0	 7.333579753122047e-001	 6.200010000009551e+000	 9.648477227025492e+000
0	 7.333579753122048e-001	 6.266680000012268e+000	 9.662972338062218e+000
0	 7.333579753122048e-001	 6.333350000014584e+000	 9.676744983154899e+000
0	 7.333579753122049e-001	 6.400020000016399e+000	 9.689737593235840e+000
0	 7.333579753122047e-001	 6.466690000017616e+000	 9.701892599237308e+000
0	 7.333579753122046e-001	 6.533360000018131e+000	 9.713152432091524e+000
0	 7.333579753122049e-001	 6.600030000017849e+000	 9.723459522730808e+000
0	 7.333579753122049e-001	 6.666700000016668e+000	 9.732756302087378e+000
0	 8.000185779984421e-001	 6.000000000000001e+000	 9.611695796633965e+000
0	 8.000185779984420e-001	 6.066670000003317e+000	 9.626755236349776e+000
0	 8.000185779984418e-001	 6.133340000006535e+000	 9.641434669002379e+000
0	 8.000185779984418e-001	 6.200010000009550e+000	 9.655670979872891e+000
0	 8.000185779984418e-001	 6.266680000012267e+000	 9.669401054242455e+000
0	 8.000185779984418e-001	 6.333350000014582e+000	 9.682561777392184e+000
0	 8.000185779984418e-001	 6.400020000016400e+000	 9.695090034603213e+000
0	 8.000185779984418e-001	 6.466690000017616e+000	 9.706922711156631e+000
0	 8.000185779984419e-001	 6.533360000018132e+000	 9.717996692333520e+000
0	 8.000185779984418e-001	 6.600030000017848e+000	 9.728248863415017e+000
0	 8.000185779984419e-001	 6.666700000016668e+000	 9.737616109682168e+000
0	 8.666790473703453e-001	 6.000000000000000e+000	 9.622639028089878e+000
0	 8.666790473703454e-001	 6.066670000003318e+000	 9.636535274019265e+000
0	 8.666790473703453e-001	 6.133340000006533e+000	 9.650192141347379e+000
0	 8.666790473703454e-001	 6.200010000009550e+000	 9.663543982244923e+000
0	 8.666790473703454e-001	 6.266680000012265e+000	 9.676525148882568e+000
0	 8.666790473703455e-001	 6.333350000014583e+000	 9.689069993430941e+000
0	 8.666790473703456e-001	 6.400020000016400e+000	 9.701112868060736e+000
0	 8.666790473703457e-001	 6.466690000017617e+000	 9.712588124942581e+000
0	 8.666790473703455e-001	 6.533360000018132e+000	 9.723430116247107e+000
0	 8.666790473703453e-001	 6.600030000017848e+000	 9.733573194144986e+000
0	 8.666790473703454e-001	 6.666700000016666e+000	 9.742951710806826e+000
0	 9.333394000923323e-001	 5.999999999999999e+000	 9.634039183149088e+000
0	 9.333394000923322e-001	 6.066670000003316e+000	 9.646858132190257e+000
0	 9.333394000923321e-001	 6.133340000006531e+000	 9.659550628900499e+000
0	 9.333394000923323e-001	 6.200010000009550e+000	 9.672051504899606e+000
0	 9.333394000923322e-001	 6.266680000012266e+000	 9.684295591807292e+000
0	 9.333394000923327e-001	 6.333350000014585e+000	 9.696217721243322e+000
0	 9.333394000923324e-001	 6.400020000016402e+000	 9.707752724827468e+000
0	 9.333394000923324e-001	 6.466690000017615e+000	 9.718835434179434e+000
0	 9.333394000923323e-001	 6.533360000018131e+000	 9.729400680918996e+000
0	 9.333394000923322e-001	 6.600030000017846e+000	 9.739383296665855e+000
0	 9.333394000923323e-001	 6.666700000016666e+000	 9.748718113039775e+000
0	 9.999996528288193e-001	 6.000000000000001e+000	 9.645872961884988e+000
0	 9.999996528288191e-001	 6.066670000003316e+000	 9.657691946828138e+000
0	 9.999996528288191e-001	 6.133340000006532e+000	 9.669471124568917e+000
0	 9.999996528288191e-001	 6.200010000009550e+000	 9.681148818750039e+000
0	 9.999996528288191e-001	 6.266680000012265e+000	 9.692663353014238e+000
0	 9.999996528288190e-001	 6.333350000014582e+000	 9.703953051004229e+000
0	 9.999996528288191e-001	 6.400020000016398e+000	 9.714956236362742e+000
0	 9.999996528288192e-001	 6.466690000017618e+000	 9.725611232732490e+000
0	 9.999996528288189e-001	 6.533360000018130e+000	 9.735856363756160e+000
0	 9.999996528288190e-001	 6.600030000017848e+000	 9.745629953076477e+000
0	 9.999996528288190e-001	 6.666700000016665e+000	 9.754870324336160e+000
0	 1.066659822244222e+000	 6.000000000000000e+000	 9.658117064591302e+000
0	 1.066659822244222e+000	 6.066670000003316e+000	 9.669004854072629e+000
0	 1.066659822244223e+000	 6.133340000006535e+000	 9.679914621413904e+000
0	 1.066659822244223e+000	 6.200010000009550e+000	 9.690791194864520e+000
0	 1.066659822244222e+000	 6.266680000012267e+000	 9.701579402673859e+000
0	 1.066659822244223e+000	 6.333350000014582e+000	 9.712224073091297e+000
0	 1.066659822244223e+000	 6.400020000016399e+000	 9.722670034366209e+000
0	 1.066659822244222e+000	 6.466690000017616e+000	 9.732862114747951e+000
0	 1.066659822244223e+000	 6.533360000018132e+000	 9.742745142485914e+000
0	 1.066659822244222e+000	 6.600030000017847e+000	 9.752263945829464e+000
0	 1.066659822244223e+000	 6.666700000016665e+000	 9.761363353027953e+000
0	 1.133319925002959e+000	 6.000000000000000e+000	 9.670748191782009e+000
0	 1.133319925002959e+000	 6.066670000003319e+000	 9.680764990237748e+000
0	 1.133319925002959e+000	 6.133340000006535e+000	 9.690842112650898e+000
0	 1.133319925002959e+000	 6.200010000009549e+000	 9.700933904466464e+000
0	 1.133319925002959e+000	 6.266680000012265e+000	 9.710994711129448e+000
0	 1.133319925002959e+000	 6.333350000014582e+000	 9.720978878084887e+000
0	 1.133319925002959e+000	 6.400020000016399e+000	 9.730840750777777e+000
0	 1.133319925002959e+000	 6.466690000017615e+000	 9.740534674653121e+000
0	 1.133319925002959e+000	 6.533360000018131e+000	 9.750014995155897e+000
0	 1.133319925002959e+000	 6.600030000017849e+000	 9.759236057731126e+000
0	 1.133319925002959e+000	 6.666700000016666e+000	 9.768152207823810e+000
0	 1.199979977769446e+000	 6.000000000000001e+000	 9.683743044191330e+000
0	 1.199979977769445e+000	 6.066670000003316e+000	 9.692940491811843e+000
0	 1.199979977769445e+000	 6.133340000006532e+000	 9.702214591649398e+000
0	 1.199979977769445e+000	 6.200010000009551e+000	 9.711532218934368e+000
0	 1.199979977769446e+000	 6.266680000012268e+000	 9.720860248897145e+000
0	 1.199979977769445e+000	 6.333350000014581e+000	 9.730165556768124e+000
0	 1.199979977769445e+000	 6.400020000016399e+000	 9.739415017777663e+000
0	 1.199979977769445e+000	 6.466690000017614e+000	 9.748575507156174e+000
0	 1.199979977769445e+000	 6.533360000018132e+000	 9.757613900133997e+000
0	 1.199979977769445e+000	 6.600030000017847e+000	 9.766497071941531e+000
0	 1.199979977769445e+000	 6.666700000016665e+000	 9.775191897809149e+000
0	 1.266639997208098e+000	 5.999999999999998e+000	 9.697078322773763e+000
0	 1.266639997208098e+000	 6.066670000003318e+000	 9.705499495457564e+000
0	 1.266639997208098e+000	 6.133340000006533e+000	 9.713993051933031e+000
0	 1.266639997208098e+000	 6.200010000009550e+000	 9.722541409801888e+000
0	 1.266639997208098e+000	 6.266680000012264e+000	 9.731126986665899e+000
0	 1.266639997208098e+000	 6.333350000014584e+000	 9.739732200126793e+000
0	 1.266639997208098e+000	 6.400020000016401e+000	 9.748339467786355e+000
0	 1.266639997208098e+000	 6.466690000017615e+000	 9.756931207246325e+000
0	 1.266639997208098e+000	 6.533360000018131e+000	 9.765489836108461e+000
0	 1.266639997208098e+000	 6.600030000017850e+000	 9.773997771974496e+000
0	 1.266639997208098e+000	 6.666700000016668e+000	 9.782437432446180e+000
0	 1.333299999983334e+000	 6.000000000000000e+000	 9.710730728704004e+000
0	 1.333299999983334e+000	 6.066670000003318e+000	 9.718410138011889e+000
0	 1.333299999983334e+000	 6.133340000006531e+000	 9.726138487179510e+000
0	 1.333299999983334e+000	 6.200010000009550e+000	 9.733916748757753e+000
0	 1.333299999983334e+000	 6.266680000012265e+000	 9.741745895297443e+000
0	 1.333299999983334e+000	 6.333350000014583e+000	 9.749626899349440e+000
0	 1.333299999983334e+000	 6.400020000016400e+000	 9.757560733464590e+000
0	 1.333299999983334e+000	 6.466690000017614e+000	 9.765548370193756e+000
0	 1.333299999983334e+000	 6.533360000018132e+000	 9.773590782087759e+000
0	 1.333299999983334e+000	 6.600030000017849e+000	 9.781688941697489e+000
0	 1.333299999983333e+000	 6.666700000016665e+000	 9.789843821573763e+000
0	 6.666972226472177e-001	 6.666700000016666e+000	 9.728417280820771e+000
0	 6.666972226472175e-001	 6.733360000014531e+000	 9.736987581057882e+000
0	 6.666972226472177e-001	 6.800020000011599e+000	 9.745563743263531e+000
0	 6.666972226472178e-001	 6.866680000008068e+000	 9.754166247625481e+000
0	 6.666972226472177e-001	 6.933340000004135e+000	 9.762815574331452e+000
0	 6.666972226472177e-001	 7.000000000000004e+000	 9.771532203569201e+000
0	 6.666972226472177e-001	 7.066659999995871e+000	 9.780336615526464e+000
0	 6.666972226472175e-001	 7.133319999991937e+000	 9.789249290390991e+000
0	 6.666972226472174e-001	 7.199979999988403e+000	 9.798290708350523e+000
0	 6.666972226472178e-001	 7.266639999985471e+000	 9.807481349592822e+000
0	 6.666972226472177e-001	 7.333299999983334e+000	 9.816841694305595e+000
0	 7.333579753122049e-001	 6.666700000016668e+000	 9.732756302087378e+000
0	 7.333579753122049e-001	 6.733360000014532e+000	 9.741484351329003e+000
0	 7.333579753122045e-001	 6.800020000011598e+000	 9.750143729006894e+000
0	 7.333579753122049e-001	 6.866680000008069e+000	 9.758760634730393e+000
0	 7.333579753122048e-001	 6.933340000004135e+000	 9.767361268108905e+000
0	 7.333579753122049e-001	 7.000000000000004e+000	 9.775971828751791e+000
0	 7.333579753122048e-001	 7.066659999995870e+000	 9.784618516268392e+000
0	 7.333579753122048e-001	 7.133319999991937e+000	 9.793327530268103e+000
0	 7.333579753122046e-001	 7.199979999988405e+000	 9.802125070360297e+000
0	 7.333579753122049e-001	 7.266639999985471e+000	 9.811037336154339e+000
0	 7.333579753122048e-001	 7.333299999983334e+000	 9.820090527259612e+000
0	 8.000185779984419e-001	 6.666700000016668e+000	 9.737616109682168e+000
0	 8.000185779984421e-001	 6.733360000014534e+000	 9.746442721467169e+000
0	 8.000185779984419e-001	 6.800020000011601e+000	 9.755138007330782e+000
0	 8.000185779984418e-001	 6.866680000008066e+000	 9.763732373411749e+000
0	 8.000185779984418e-001	 6.933340000004136e+000	 9.772256225848825e+000
0	 8.000185779984421e-001	 7.000000000000004e+000	 9.780739970780711e+000
0	 8.000185779984418e-001	 7.066659999995868e+000	 9.789214014346220e+000
0	 8.000185779984419e-001	 7.133319999991937e+000	 9.797708762684046e+000
0	 8.000185779984421e-001	 7.199979999988404e+000	 9.806254621932993e+000
0	 8.000185779984420e-001	 7.266639999985473e+000	 9.814881998231732e+000
0	 8.000185779984420e-001	 7.333299999983335e+000	 9.823621297719075e+000
0	 8.666790473703454e-001	 6.666700000016666e+000	 9.742951710806828e+000
0	 8.666790473703455e-001	 6.733360000014533e+000	 9.751822438512972e+000
0	 8.666790473703454e-001	 6.800020000011601e+000	 9.760510673443509e+000
0	 8.666790473703455e-001	 6.866680000008068e+000	 9.769049515361520e+000
0	 8.666790473703455e-001	 6.933340000004135e+000	 9.777472064030054e+000
0	 8.666790473703455e-001	 7.000000000000002e+000	 9.785811419212186e+000
0	 8.666790473703455e-001	 7.066659999995870e+000	 9.794100680670972e+000
0	 8.666790473703455e-001	 7.133319999991937e+000	 9.802372948169486e+000
0	 8.666790473703453e-001	 7.199979999988404e+000	 9.810661321470807e+000
0	 8.666790473703456e-001	 7.266639999985472e+000	 9.818998900338027e+000
0	 8.666790473703454e-001	 7.333299999983332e+000	 9.827418784534181e+000
0	 9.333394000923323e-001	 6.666700000016666e+000	 9.748718113039773e+000
0	 9.333394000923323e-001	 6.733360000014533e+000	 9.757583249893010e+000
0	 9.333394000923321e-001	 6.800020000011599e+000	 9.766225822935974e+000
0	 9.333394000923325e-001	 6.866680000008069e+000	 9.774680112640480e+000
0	 9.333394000923323e-001	 6.933340000004133e+000	 9.782980399478298e+000
0	 9.333394000923324e-001	 7.000000000000003e+000	 9.791160963921275e+000
0	 9.333394000923323e-001	 7.066659999995871e+000	 9.799256086441204e+000
0	 9.333394000923322e-001	 7.133319999991935e+000	 9.807300047509880e+000
0	 9.333394000923323e-001	 7.199979999988404e+000	 9.815327127599156e+000
0	 9.333394000923323e-001	 7.266639999985473e+000	 9.823371607180821e+000
0	 9.333394000923325e-001	 7.333299999983336e+000	 9.831467766726707e+000
0	 9.999996528288190e-001	 6.666700000016665e+000	 9.754870324336160e+000
0	 9.999996528288194e-001	 6.733360000014532e+000	 9.763684903419835e+000
0	 9.999996528288190e-001	 6.800020000011599e+000	 9.772247551781565e+000
0	 9.999996528288191e-001	 6.866680000008065e+000	 9.780592217678031e+000
0	 9.999996528288190e-001	 6.933340000004134e+000	 9.788752849365968e+000
0	 9.999996528288189e-001	 7.000000000000003e+000	 9.796763395102088e+000
0	 9.999996528288190e-001	 7.066659999995869e+000	 9.804657803143078e+000
0	 9.999996528288192e-001	 7.133319999991937e+000	 9.812470021745654e+000
0	 9.999996528288192e-001	 7.199979999988405e+000	 9.820233999166543e+000
0	 9.999996528288193e-001	 7.266639999985471e+000	 9.827983683662470e+000
0	 9.999996528288190e-001	 7.333299999983334e+000	 9.835753023490140e+000
0	 1.066659822244223e+000	 6.666700000016665e+000	 9.761363353027949e+000
0	 1.066659822244222e+000	 6.733360000014532e+000	 9.770087147291950e+000
0	 1.066659822244223e+000	 6.800020000011600e+000	 9.778539956336143e+000
0	 1.066659822244222e+000	 6.866680000008064e+000	 9.786753883272311e+000
0	 1.066659822244223e+000	 6.933340000004132e+000	 9.794761031212198e+000
0	 1.066659822244223e+000	 7.000000000000002e+000	 9.802593503267623e+000
0	 1.066659822244222e+000	 7.066659999995870e+000	 9.810283402550297e+000
0	 1.066659822244223e+000	 7.133319999991937e+000	 9.817862832172050e+000
0	 1.066659822244223e+000	 7.199979999988405e+000	 9.825363895244664e+000
0	 1.066659822244223e+000	 7.266639999985473e+000	 9.832818694879903e+000
0	 1.066659822244223e+000	 7.333299999983333e+000	 9.840259334189593e+000
0	 1.133319925002959e+000	 6.666700000016666e+000	 9.768152207823807e+000
0	 1.133319925002959e+000	 6.733360000014531e+000	 9.776749730093863e+000
0	 1.133319925002959e+000	 6.800020000011600e+000	 9.785067133338211e+000
0	 1.133319925002959e+000	 6.866680000008067e+000	 9.793133162590140e+000
0	 1.133319925002959e+000	 6.933340000004133e+000	 9.800976562882914e+000
0	 1.133319925002959e+000	 7.000000000000002e+000	 9.808626079249832e+000
0	 1.133319925002959e+000	 7.066659999995870e+000	 9.816110456724182e+000
0	 1.133319925002959e+000	 7.133319999991936e+000	 9.823458440339259e+000
0	 1.133319925002959e+000	 7.199979999988403e+000	 9.830698775128345e+000
0	 1.133319925002959e+000	 7.266639999985470e+000	 9.837860206124766e+000
0	 1.133319925002959e+000	 7.333299999983335e+000	 9.844971478361799e+000
0	 1.199979977769445e+000	 6.666700000016665e+000	 9.775191897809153e+000
0	 1.199979977769446e+000	 6.733360000014534e+000	 9.783632400795998e+000
0	 1.199979977769445e+000	 6.800020000011601e+000	 9.791793179908700e+000
0	 1.199979977769445e+000	 6.866680000008066e+000	 9.799698109167002e+000
0	 1.199979977769445e+000	 6.933340000004136e+000	 9.807371062590741e+000
0	 1.199979977769445e+000	 7.000000000000000e+000	 9.814835914199655e+000
0	 1.199979977769445e+000	 7.066659999995868e+000	 9.822116538013590e+000
0	 1.199979977769445e+000	 7.133319999991937e+000	 9.829236808052304e+000
0	 1.199979977769446e+000	 7.199979999988406e+000	 9.836220598335601e+000
0	 1.199979977769445e+000	 7.266639999985471e+000	 9.843091782883278e+000
0	 1.199979977769445e+000	 7.333299999983334e+000	 9.849874235715173e+000
0	 1.266639997208098e+000	 6.666700000016668e+000	 9.782437432446180e+000
0	 1.266639997208098e+000	 6.733360000014534e+000	 9.790694908754785e+000
0	 1.266639997208098e+000	 6.800020000011600e+000	 9.798682193551095e+000
0	 1.266639997208098e+000	 6.866680000008064e+000	 9.806416776907149e+000
0	 1.266639997208098e+000	 6.933340000004136e+000	 9.813916148895078e+000
0	 1.266639997208098e+000	 7.000000000000002e+000	 9.821197799586994e+000
0	 1.266639997208098e+000	 7.066659999995870e+000	 9.828279219054959e+000
0	 1.266639997208098e+000	 7.133319999991936e+000	 9.835177897371104e+000
0	 1.266639997208098e+000	 7.199979999988404e+000	 9.841911324607537e+000
0	 1.266639997208098e+000	 7.266639999985470e+000	 9.848496990836368e+000
0	 1.266639997208098e+000	 7.333299999983333e+000	 9.854952386129721e+000
0	 1.333299999983333e+000	 6.666700000016665e+000	 9.789843821573763e+000
0	 1.333299999983334e+000	 6.733360000014532e+000	 9.797897003712588e+000
0	 1.333299999983334e+000	 6.800020000011602e+000	 9.805698272151378e+000
0	 1.333299999983334e+000	 6.866680000008067e+000	 9.813257220083454e+000
0	 1.333299999983334e+000	 6.933340000004134e+000	 9.820583440702086e+000
0	 1.333299999983334e+000	 7.000000000000001e+000	 9.827686527200601e+000
0	 1.333299999983334e+000	 7.066659999995868e+000	 9.834576072772286e+000
0	 1.333299999983334e+000	 7.133319999991937e+000	 9.841261670610447e+000
0	 1.333299999983334e+000	 7.199979999988403e+000	 9.847752913908439e+000
0	 1.333299999983334e+000	 7.266639999985473e+000	 9.854059395859565e+000
0	 1.333299999983334e+000	 7.333299999983335e+000	 9.860190709657136e+000
0	 6.666972226472177e-001	 7.333299999983334e+000	 9.816841694305595e+000
0	 6.666972226472177e-001	 7.399969999982152e+000	 9.826132041744849e+000
0	 6.666972226472175e-001	 7.466639999981865e+000	 9.835092062524508e+000
0	 6.666972226472178e-001	 7.533309999982382e+000	 9.843715547705170e+000
0	 6.666972226472178e-001	 7.599979999983599e+000	 9.851996288347358e+000
0	 6.666972226472177e-001	 7.666649999985414e+000	 9.859928075511640e+000
0	 6.666972226472175e-001	 7.733319999987732e+000	 9.867504700258534e+000
0	 6.666972226472178e-001	 7.799989999990447e+000	 9.874719953648597e+000
0	 6.666972226472174e-001	 7.866659999993463e+000	 9.881567626742349e+000
0	 6.666972226472175e-001	 7.933329999996680e+000	 9.888041510600310e+000
0	 6.666972226472177e-001	 8.000000000000000e+000	 9.894135396283003e+000
0	 7.333579753122048e-001	 7.333299999983334e+000	 9.820090527259609e+000
0	 7.333579753122048e-001	 7.399969999982151e+000	 9.829081433075775e+000
0	 7.333579753122047e-001	 7.466639999981866e+000	 9.837780538485095e+000
0	 7.333579753122047e-001	 7.533309999982381e+000	 9.846178696306071e+000
0	 7.333579753122048e-001	 7.599979999983600e+000	 9.854266759357159e+000
0	 7.333579753122047e-001	 7.666649999985416e+000	 9.862035580456796e+000
0	 7.333579753122047e-001	 7.733319999987732e+000	 9.869476012423441e+000
0	 7.333579753122046e-001	 7.799989999990449e+000	 9.876578908075544e+000
0	 7.333579753122047e-001	 7.866659999993463e+000	 9.883335120231539e+000
0	 7.333579753122045e-001	 7.933329999996680e+000	 9.889735501709886e+000
0	 7.333579753122047e-001	 8.000000000000000e+000	 9.895770905328986e+000
0	 8.000185779984420e-001	 7.333299999983335e+000	 9.823621297719074e+000
0	 8.000185779984419e-001	 7.399969999982150e+000	 9.832303726212270e+000
0	 8.000185779984418e-001	 7.466639999981867e+000	 9.840730006464291e+000
0	 8.000185779984417e-001	 7.533309999982383e+000	 9.848888782842277e+000
0	 8.000185779984416e-001	 7.599979999983598e+000	 9.856768699713308e+000
0	 8.000185779984418e-001	 7.666649999985415e+000	 9.864358401444491e+000
0	 8.000185779984417e-001	 7.733319999987731e+000	 9.871646532402906e+000
0	 8.000185779984419e-001	 7.799989999990449e+000	 9.878621736955633e+000
0	 8.000185779984417e-001	 7.866659999993464e+000	 9.885272659469779e+000
0	 8.000185779984419e-001	 7.933329999996680e+000	 9.891587944312386e+000
0	 8.000185779984419e-001	 8.000000000000002e+000	 9.897556235850534e+000
0	 8.666790473703454e-001	 7.333299999983332e+000	 9.827418784534181e+000
0	 8.666790473703454e-001	 7.399969999982150e+000	 9.835784666686855e+000
0	 8.666790473703456e-001	 7.466639999981867e+000	 9.843927074848176e+000
0	 8.666790473703455e-001	 7.533309999982383e+000	 9.851833174730942e+000
0	 8.666790473703455e-001	 7.599979999983599e+000	 9.859490132047899e+000
0	 8.666790473703456e-001	 7.666649999985416e+000	 9.866885112511815e+000
0	 8.666790473703455e-001	 7.733319999987731e+000	 9.874005281835469e+000
0	 8.666790473703454e-001	 7.799989999990448e+000	 9.880837805731606e+000
0	 8.666790473703454e-001	 7.866659999993464e+000	 9.887369849912970e+000
0	 8.666790473703455e-001	 7.933329999996680e+000	 9.893588580092347e+000
0	 8.666790473703457e-001	 8.000000000000002e+000	 9.899481161982456e+000
0	 9.333394000923325e-001	 7.333299999983336e+000	 9.831467766726703e+000
0	 9.333394000923321e-001	 7.399969999982149e+000	 9.839510000187930e+000
0	 9.333394000923324e-001	 7.466639999981869e+000	 9.847358352169614e+000
0	 9.333394000923325e-001	 7.533309999982382e+000	 9.854999239532436e+000
0	 9.333394000923319e-001	 7.599979999983597e+000	 9.862419079137100e+000
0	 9.333394000923319e-001	 7.666649999985414e+000	 9.869604287844293e+000
0	 9.333394000923322e-001	 7.733319999987732e+000	 9.876541282514696e+000
0	 9.333394000923326e-001	 7.799989999990449e+000	 9.883216480009013e+000
0	 9.333394000923323e-001	 7.866659999993467e+000	 9.889616297187894e+000
0	 9.333394000923324e-001	 7.933329999996682e+000	 9.895727150912061e+000
0	 9.333394000923323e-001	 7.999999999999998e+000	 9.901535458042144e+000
0	 9.999996528288190e-001	 7.333299999983334e+000	 9.835753023490138e+000
0	 9.999996528288190e-001	 7.399969999982151e+000	 9.843465472559734e+000
0	 9.999996528288192e-001	 7.466639999981866e+000	 9.851010447108106e+000
0	 9.999996528288191e-001	 7.533309999982382e+000	 9.858374344950256e+000
0	 9.999996528288191e-001	 7.599979999983598e+000	 9.865543563901177e+000
0	 9.999996528288190e-001	 7.666649999985412e+000	 9.872504501775822e+000
0	 9.999996528288190e-001	 7.733319999987732e+000	 9.879243556389220e+000
0	 9.999996528288190e-001	 7.799989999990448e+000	 9.885747125556325e+000
0	 9.999996528288191e-001	 7.866659999993463e+000	 9.892001607092077e+000
0	 9.999996528288192e-001	 7.933329999996682e+000	 9.897993398811508e+000
0	 9.999996528288193e-001	 8.000000000000002e+000	 9.903708898529553e+000
0	 1.066659822244223e+000	 7.333299999983333e+000	 9.840259334189589e+000
0	 1.066659822244222e+000	 7.399969999982149e+000	 9.847636829802324e+000
0	 1.066659822244222e+000	 7.466639999981865e+000	 9.854869968489947e+000
0	 1.066659822244222e+000	 7.533309999982381e+000	 9.861945858831110e+000
0	 1.066659822244222e+000	 7.599979999983598e+000	 9.868851609404517e+000
0	 1.066659822244222e+000	 7.666649999985415e+000	 9.875574328788842e+000
0	 1.066659822244223e+000	 7.733319999987733e+000	 9.882101125562709e+000
0	 1.066659822244222e+000	 7.799989999990447e+000	 9.888419108304824e+000
0	 1.066659822244223e+000	 7.866659999993464e+000	 9.894515385593847e+000
0	 1.066659822244223e+000	 7.933329999996683e+000	 9.900377066008449e+000
0	 1.066659822244222e+000	 8.000000000000000e+000	 9.905991258127253e+000
0	 1.133319925002959e+000	 7.333299999983335e+000	 9.844971478361794e+000
0	 1.133319925002959e+000	 7.399969999982148e+000	 9.852009818071625e+000
0	 1.133319925002959e+000	 7.466639999981865e+000	 9.858923525288066e+000
0	 1.133319925002959e+000	 7.533309999982384e+000	 9.865701149164833e+000
0	 1.133319925002959e+000	 7.599979999983597e+000	 9.872331238855596e+000
0	 1.133319925002959e+000	 7.666649999985415e+000	 9.878802343514053e+000
0	 1.133319925002959e+000	 7.733319999987731e+000	 9.885103012293872e+000
0	 1.133319925002959e+000	 7.799989999990448e+000	 9.891221794348745e+000
0	 1.133319925002959e+000	 7.866659999993463e+000	 9.897147238832320e+000
0	 1.133319925002959e+000	 7.933329999996682e+000	 9.902867894898314e+000
0	 1.133319925002959e+000	 8.000000000000000e+000	 9.908372311700367e+000
0	 1.199979977769445e+000	 7.333299999983334e+000	 9.849874235715172e+000
0	 1.199979977769445e+000	 7.399969999982150e+000	 9.856570183679393e+000
0	 1.199979977769445e+000	 7.466639999981866e+000	 9.863157726622191e+000
0	 1.199979977769445e+000	 7.533309999982385e+000	 9.869627584084437e+000
0	 1.199979977769445e+000	 7.599979999983601e+000	 9.875970475606998e+000
0	 1.199979977769445e+000	 7.666649999985415e+000	 9.882177120730724e+000
0	 1.199979977769445e+000	 7.733319999987729e+000	 9.888238238996463e+000
0	 1.199979977769445e+000	 7.799989999990447e+000	 9.894144549945088e+000
0	 1.199979977769445e+000	 7.866659999993463e+000	 9.899886773117409e+000
0	 1.199979977769445e+000	 7.933329999996681e+000	 9.905455628054305e+000
0	 1.199979977769445e+000	 8.000000000000000e+000	 9.910841834296596e+000
0	 1.266639997208098e+000	 7.333299999983333e+000	 9.854952386129721e+000
0	 1.266639997208098e+000	 7.399969999982148e+000	 9.861303673093186e+000
0	 1.266639997208098e+000	 7.466639999981866e+000	 9.867559181758656e+000
0	 1.266639997208098e+000	 7.533309999982382e+000	 9.873712531866053e+000
0	 1.266639997208098e+000	 7.599979999983598e+000	 9.879757343155355e+000
0	 1.266639997208098e+000	 7.666649999985414e+000	 9.885687235366451e+000
0	 1.266639997208098e+000	 7.733319999987731e+000	 9.891495828239258e+000
0	 1.266639997208098e+000	 7.799989999990448e+000	 9.897176741513736e+000
0	 1.266639997208098e+000	 7.866659999993465e+000	 9.902723594929771e+000
0	 1.266639997208098e+000	 7.933329999996680e+000	 9.908130008227298e+000
0	 1.266639997208098e+000	 8.000000000000000e+000	 9.913389601146228e+000
0	 1.333299999983334e+000	 7.333299999983335e+000	 9.860190709657131e+000
0	 1.333299999983334e+000	 7.399969999982149e+000	 9.866196032936454e+000
0	 1.333299999983334e+000	 7.466639999981864e+000	 9.872114500110566e+000
0	 1.333299999983334e+000	 7.533309999982382e+000	 9.877943360929052e+000
0	 1.333299999983334e+000	 7.599979999983599e+000	 9.883679865141438e+000
0	 1.333299999983334e+000	 7.666649999985416e+000	 9.889321262497274e+000
0	 1.333299999983334e+000	 7.733319999987731e+000	 9.894864802746103e+000
0	 1.333299999983334e+000	 7.799989999990450e+000	 9.900307735637453e+000
0	 1.333299999983334e+000	 7.866659999993467e+000	 9.905647310920889e+000
0	 1.333299999983334e+000	 7.933329999996681e+000	 9.910880778345931e+000
0	 1.333299999983334e+000	 8.000000000000000e+000	 9.916005387662125e+000
0	 6.666972226472177e-001	 8.000000000000000e+000	 9.894135396283003e+000
0	 6.666972226472177e-001	 8.066670000003319e+000	 9.899976401183338e+000
0	 6.666972226472177e-001	 8.133340000006532e+000	 9.905700765284932e+000
0	 6.666972226472177e-001	 8.200010000009550e+000	 9.911315963534712e+000
0	 6.666972226472177e-001	 8.266680000012267e+000	 9.916829470879510e+000
0	 6.666972226472178e-001	 8.333350000014583e+000	 9.922248762266149e+000
0	 6.666972226472175e-001	 8.400020000016397e+000	 9.927581312641511e+000
0	 6.666972226472177e-001	 8.466690000017618e+000	 9.932834596952400e+000
0	 6.666972226472177e-001	 8.533360000018131e+000	 9.938016090145677e+000
0	 6.666972226472177e-001	 8.600030000017849e+000	 9.943133267168168e+000
0	 6.666972226472177e-001	 8.666700000016668e+000	 9.948193602966716e+000
0	 7.333579753122047e-001	 8.000000000000000e+000	 9.895770905328986e+000
0	 7.333579753122047e-001	 8.066670000003317e+000	 9.901554455929668e+000
0	 7.333579753122047e-001	 8.133340000006532e+000	 9.907211398805933e+000
0	 7.333579753122048e-001	 8.200010000009550e+000	 9.912750767456080e+000
0	 7.333579753122048e-001	 8.266680000012268e+000	 9.918181595378357e+000
0	 7.333579753122049e-001	 8.333350000014585e+000	 9.923512916071083e+000
0	 7.333579753122048e-001	 8.400020000016401e+000	 9.928753763032489e+000
0	 7.333579753122047e-001	 8.466690000017614e+000	 9.933913169760869e+000
0	 7.333579753122046e-001	 8.533360000018128e+000	 9.939000169754515e+000
0	 7.333579753122048e-001	 8.600030000017849e+000	 9.944023796511639e+000
0	 7.333579753122049e-001	 8.666700000016668e+000	 9.948993083530525e+000
0	 8.000185779984419e-001	 8.000000000000002e+000	 9.897556235850534e+000
0	 8.000185779984418e-001	 8.066670000003317e+000	 9.903276016765425e+000
0	 8.000185779984418e-001	 8.133340000006532e+000	 9.908860175402991e+000
0	 8.000185779984418e-001	 8.200010000009552e+000	 9.914318964627377e+000
0	 8.000185779984417e-001	 8.266680000012265e+000	 9.919662637302762e+000
0	 8.000185779984419e-001	 8.333350000014582e+000	 9.924901446293310e+000
0	 8.000185779984418e-001	 8.400020000016395e+000	 9.930045644463146e+000
0	 8.000185779984416e-001	 8.466690000017612e+000	 9.935105484676479e+000
0	 8.000185779984418e-001	 8.533360000018133e+000	 9.940091219797411e+000
0	 8.000185779984421e-001	 8.600030000017847e+000	 9.945013102690123e+000
0	 8.000185779984419e-001	 8.666700000016668e+000	 9.949881386218740e+000
0	 8.666790473703457e-001	 8.000000000000002e+000	 9.899481161982456e+000
0	 8.666790473703457e-001	 8.066670000003320e+000	 9.905130882754458e+000
0	 8.666790473703454e-001	 8.133340000006534e+000	 9.910637007798641e+000
0	 8.666790473703455e-001	 8.200010000009549e+000	 9.916010670156426e+000
0	 8.666790473703455e-001	 8.266680000012267e+000	 9.921263002869271e+000
0	 8.666790473703456e-001	 8.333350000014582e+000	 9.926405138978524e+000
0	 8.666790473703456e-001	 8.400020000016401e+000	 9.931448211525694e+000
0	 8.666790473703459e-001	 8.466690000017620e+000	 9.936403353552160e+000
0	 8.666790473703454e-001	 8.533360000018131e+000	 9.941281698099340e+000
0	 8.666790473703452e-001	 8.600030000017844e+000	 9.946094378208644e+000
0	 8.666790473703455e-001	 8.666700000016665e+000	 9.950852526921503e+000
0	 9.333394000923323e-001	 7.999999999999998e+000	 9.901535458042144e+000
0	 9.333394000923324e-001	 8.066670000003317e+000	 9.907108853145131e+000
0	 9.333394000923322e-001	 8.133340000006534e+000	 9.912531808899235e+000
0	 9.333394000923323e-001	 8.200010000009550e+000	 9.917815999331941e+000
0	 9.333394000923324e-001	 8.266680000012265e+000	 9.922973098470763e+000
0	 9.333394000923325e-001	 8.333350000014583e+000	 9.928014780343203e+000
0	 9.333394000923325e-001	 8.400020000016401e+000	 9.932952718976722e+000
0	 9.333394000923324e-001	 8.466690000017616e+000	 9.937798588398886e+000
0	 9.333394000923323e-001	 8.533360000018130e+000	 9.942564062637123e+000
0	 9.333394000923321e-001	 8.600030000017849e+000	 9.947260815718943e+000
0	 9.333394000923325e-001	 8.666700000016668e+000	 9.951900521671840e+000
0	 9.999996528288193e-001	 8.000000000000002e+000	 9.903708898529553e+000
0	 9.999996528288193e-001	 8.066670000003319e+000	 9.909199727370318e+000
0	 9.999996528288189e-001	 8.133340000006530e+000	 9.914534491794882e+000
0	 9.999996528288193e-001	 8.200010000009550e+000	 9.919725067623507e+000
0	 9.999996528288191e-001	 8.266680000012265e+000	 9.924783330676570e+000
0	 9.999996528288190e-001	 8.333350000014583e+000	 9.929721156774374e+000
0	 9.999996528288190e-001	 8.400020000016401e+000	 9.934550421737246e+000
0	 9.999996528288189e-001	 8.466690000017614e+000	 9.939283001385491e+000
0	 9.999996528288190e-001	 8.533360000018133e+000	 9.943930771539474e+000
0	 9.999996528288193e-001	 8.600030000017847e+000	 9.948505608019445e+000
0	 9.999996528288192e-001	 8.666700000016665e+000	 9.953019386645787e+000
0	 1.066659822244222e+000	 8.000000000000000e+000	 9.905991258127253e+000
0	 1.066659822244223e+000	 8.066670000003317e+000	 9.911393305047483e+000
0	 1.066659822244223e+000	 8.133340000006536e+000	 9.916634969759519e+000
0	 1.066659822244222e+000	 8.200010000009552e+000	 9.921727990681676e+000
0	 1.066659822244222e+000	 8.266680000012265e+000	 9.926684106232358e+000
0	 1.066659822244223e+000	 8.333350000014583e+000	 9.931515054829859e+000
0	 1.066659822244222e+000	 8.400020000016399e+000	 9.936232574892559e+000
0	 1.066659822244222e+000	 8.466690000017616e+000	 9.940848404838821e+000
0	 1.066659822244222e+000	 8.533360000018131e+000	 9.945374283086958e+000
0	 1.066659822244223e+000	 8.600030000017849e+000	 9.949821948055329e+000
0	 1.066659822244223e+000	 8.666700000016665e+000	 9.954203138162262e+000
0	 1.133319925002959e+000	 8.000000000000000e+000	 9.908372311700367e+000
0	 1.133319925002959e+000	 8.066670000003319e+000	 9.913679385978560e+000
0	 1.133319925002959e+000	 8.133340000006534e+000	 9.918823156250895e+000
0	 1.133319925002959e+000	 8.200010000009549e+000	 9.923814884337906e+000
0	 1.133319925002959e+000	 8.266680000012265e+000	 9.928665832060140e+000
0	 1.133319925002959e+000	 8.333350000014582e+000	 9.933387261238133e+000
0	 1.133319925002959e+000	 8.400020000016399e+000	 9.937990433692427e+000
0	 1.133319925002959e+000	 8.466690000017616e+000	 9.942486611243535e+000
0	 1.133319925002959e+000	 8.533360000018133e+000	 9.946887055712010e+000
0	 1.133319925002959e+000	 8.600030000017847e+000	 9.951203028918373e+000
0	 1.133319925002959e+000	 8.666700000016666e+000	 9.955445792683172e+000
0	 1.199979977769445e+000	 8.000000000000000e+000	 9.910841834296596e+000
0	 1.199979977769445e+000	 8.066670000003315e+000	 9.916047770149994e+000
0	 1.199979977769445e+000	 8.133340000006532e+000	 9.921088964910496e+000
0	 1.199979977769445e+000	 8.200010000009550e+000	 9.925975864604489e+000
0	 1.199979977769445e+000	 8.266680000012267e+000	 9.930718915258327e+000
0	 1.199979977769445e+000	 8.333350000014582e+000	 9.935328562898336e+000
0	 1.199979977769445e+000	 8.400020000016399e+000	 9.939815253550886e+000
0	 1.199979977769445e+000	 8.466690000017616e+000	 9.944189433242311e+000
0	 1.199979977769445e+000	 8.533360000018130e+000	 9.948461547998971e+000
0	 1.199979977769445e+000	 8.600030000017847e+000	 9.952642043847183e+000
0	 1.199979977769445e+000	 8.666700000016665e+000	 9.956741366813324e+000
0	 1.266639997208098e+000	 8.000000000000000e+000	 9.913389601146228e+000
0	 1.266639997208098e+000	 8.066670000003319e+000	 9.918488257732776e+000
0	 1.266639997208098e+000	 8.133340000006534e+000	 9.923422309563676e+000
0	 1.266639997208098e+000	 8.200010000009547e+000	 9.928201047674731e+000
0	 1.266639997208098e+000	 8.266680000012268e+000	 9.932833763101687e+000
0	 1.266639997208098e+000	 8.333350000014583e+000	 9.937329746880339e+000
0	 1.266639997208098e+000	 8.400020000016399e+000	 9.941698290046444e+000
0	 1.266639997208098e+000	 8.466690000017616e+000	 9.945948683635724e+000
0	 1.266639997208098e+000	 8.533360000018131e+000	 9.950090218684005e+000
0	 1.266639997208098e+000	 8.600030000017849e+000	 9.954132186226993e+000
0	 1.266639997208098e+000	 8.666700000016668e+000	 9.958083877300474e+000
0	 1.333299999983334e+000	 8.000000000000000e+000	 9.916005387662125e+000
0	 1.333299999983334e+000	 8.066670000003315e+000	 9.920990649082373e+000
0	 1.333299999983334e+000	 8.133340000006532e+000	 9.925813104219506e+000
0	 1.333299999983334e+000	 8.200010000009550e+000	 9.930480549922766e+000
0	 1.333299999983334e+000	 8.266680000012267e+000	 9.935000783041376e+000
0	 1.333299999983334e+000	 8.333350000014583e+000	 9.939381600424667e+000
0	 1.333299999983334e+000	 8.400020000016399e+000	 9.943630798921898e+000
0	 1.333299999983334e+000	 8.466690000017616e+000	 9.947756175382311e+000
0	 1.333299999983334e+000	 8.533360000018131e+000	 9.951765526655176e+000
0	 1.333299999983334e+000	 8.600030000017847e+000	 9.955666649589755e+000
0	 1.333299999983334e+000	 8.666700000016666e+000	 9.959467341035342e+000
0	 6.666972226472177e-001	 8.666700000016668e+000	 9.948193602966716e+000
0	 6.666972226472174e-001	 8.733360002791899e+000	 9.953091192866776e+000
0	 6.666972226472178e-001	 8.800020022230555e+000	 9.957721230949570e+000
0	 6.666972226472175e-001	 8.866680074997039e+000	 9.962090575459849e+000
0	 6.666972226472177e-001	 8.933340177755778e+000	 9.966206085354441e+000
0	 6.666972226472177e-001	 9.000000347171181e+000	 9.970074620302301e+000
0	 6.666972226472177e-001	 9.066660599907666e+000	 9.973703040684367e+000
0	 6.666972226472174e-001	 9.133320952629651e+000	 9.977098207593752e+000
0	 6.666972226472178e-001	 9.199981422001557e+000	 9.980266982835529e+000
0	 6.666972226472177e-001	 9.266642024687791e+000	 9.983216228926805e+000
0	 6.666972226472177e-001	 9.333302777352783e+000	 9.985952809096823e+000
0	 7.333579753122049e-001	 8.666700000016668e+000	 9.948993083530528e+000
0	 7.333579753122048e-001	 8.733360002791903e+000	 9.953805959587889e+000
0	 7.333579753122047e-001	 8.800020022230552e+000	 9.958359750731011e+000
0	 7.333579753122049e-001	 8.866680074997042e+000	 9.962660361693645e+000
0	 7.333579753122049e-001	 8.933340177755776e+000	 9.966713697910937e+000
0	 7.333579753122046e-001	 9.000000347171177e+000	 9.970525665519457e+000
0	 7.333579753122048e-001	 9.066660599907667e+000	 9.974102171357043e+000
0	 7.333579753122048e-001	 9.133320952629653e+000	 9.977449122963083e+000
0	 7.333579753122048e-001	 9.199981422001555e+000	 9.980572428578171e+000
0	 7.333579753122049e-001	 9.266642024687794e+000	 9.983477997144346e+000
0	 7.333579753122047e-001	 9.333302777352785e+000	 9.986171738304934e+000
0	 8.000185779984419e-001	 8.666700000016668e+000	 9.949881386218738e+000
0	 8.000185779984418e-001	 8.733360002791901e+000	 9.954598815197544e+000
0	 8.000185779984422e-001	 8.800020022230557e+000	 9.959066155979434e+000
0	 8.000185779984415e-001	 8.866680074997039e+000	 9.963288514156037e+000
0	 8.000185779984420e-001	 8.933340177755776e+000	 9.967270996007265e+000
0	 8.000185779984419e-001	 9.000000347171181e+000	 9.971018708501271e+000
0	 8.000185779984418e-001	 9.066660599907666e+000	 9.974536759294351e+000
0	 8.000185779984418e-001	 9.133320952629653e+000	 9.977830256731087e+000
0	 8.000185779984419e-001	 9.199981422001553e+000	 9.980904309844245e+000
0	 8.000185779984418e-001	 9.266642024687791e+000	 9.983764028354754e+000
0	 8.000185779984418e-001	 9.333302777352783e+000	 9.986414522671787e+000
0	 8.666790473703455e-001	 8.666700000016665e+000	 9.950852526921501e+000
0	 8.666790473703455e-001	 8.733360002791905e+000	 9.955464584527199e+000
0	 8.666790473703455e-001	 8.800020022230553e+000	 9.959835963138053e+000
0	 8.666790473703453e-001	 8.866680074997040e+000	 9.963971123573693e+000
0	 8.666790473703455e-001	 8.933340177755778e+000	 9.967874527326591e+000
0	 8.666790473703456e-001	 9.000000347171179e+000	 9.971550636562002e+000
0	 8.666790473703454e-001	 9.066660599907666e+000	 9.975003914117870e+000
0	 8.666790473703456e-001	 9.133320952629651e+000	 9.978238823504952e+000
0	 8.666790473703454e-001	 9.199981422001555e+000	 9.981259828906769e+000
0	 8.666790473703456e-001	 9.266642024687792e+000	 9.984071395179532e+000
0	 8.666790473703453e-001	 9.333302777352779e+000	 9.986677987852184e+000
0	 9.333394000923325e-001	 8.666700000016668e+000	 9.951900521671837e+000
0	 9.333394000923324e-001	 8.733360002791905e+000	 9.956398092549254e+000
0	 9.333394000923320e-001	 8.800020022230555e+000	 9.960664688790727e+000
0	 9.333394000923324e-001	 8.866680074997040e+000	 9.964704280815065e+000
0	 9.333394000923323e-001	 8.933340177755776e+000	 9.968520839696197e+000
0	 9.333394000923323e-001	 9.000000347171179e+000	 9.972118337163296e+000
0	 9.333394000923323e-001	 9.066660599907666e+000	 9.975500745600741e+000
0	 9.333394000923325e-001	 9.133320952629653e+000	 9.978672038048003e+000
0	 9.333394000923322e-001	 9.199981422001555e+000	 9.981636188199852e+000
0	 9.333394000923324e-001	 9.266642024687794e+000	 9.984397170406119e+000
0	 9.333394000923324e-001	 9.333302777352783e+000	 9.986958959671767e+000
0	 9.999996528288192e-001	 8.666700000016665e+000	 9.953019386645789e+000
0	 9.999996528288193e-001	 8.733360002791901e+000	 9.957394164377014e+000
0	 9.999996528288192e-001	 8.800020022230557e+000	 9.961547849662019e+000
0	 9.999996528288190e-001	 8.866680074997037e+000	 9.965484076890402e+000
0	 9.999996528288191e-001	 8.933340177755774e+000	 9.969206481087518e+000
0	 9.999996528288189e-001	 9.000000347171179e+000	 9.972718697914393e+000
0	 9.999996528288191e-001	 9.066660599907666e+000	 9.976024363667730e+000
0	 9.999996528288194e-001	 9.133320952629651e+000	 9.979127115279853e+000
0	 9.999996528288192e-001	 9.199981422001555e+000	 9.982030590318729e+000
0	 9.999996528288192e-001	 9.266642024687794e+000	 9.984738426988050e+000
0	 9.999996528288190e-001	 9.333302777352783e+000	 9.987254264127046e+000
0	 1.066659822244223e+000	 8.666700000016665e+000	 9.954203138162262e+000
0	 1.066659822244223e+000	 8.733360002791901e+000	 9.958447625264874e+000
0	 1.066659822244223e+000	 8.800020022230557e+000	 9.962480962617081e+000
0	 1.066659822244223e+000	 8.866680074997042e+000	 9.966306602951782e+000
0	 1.066659822244223e+000	 8.933340177755778e+000	 9.969927999616202e+000
0	 1.066659822244222e+000	 9.000000347171179e+000	 9.973348606571996e+000
0	 1.066659822244222e+000	 9.066660599907666e+000	 9.976571878395204e+000
0	 1.066659822244223e+000	 9.133320952629653e+000	 9.979601270276200e+000
0	 1.066659822244222e+000	 9.199981422001557e+000	 9.982440238019771e+000
0	 1.066659822244222e+000	 9.266642024687791e+000	 9.985092238044999e+000
0	 1.066659822244222e+000	 9.333302777352781e+000	 9.987560727385276e+000
0	 1.133319925002959e+000	 8.666700000016666e+000	 9.955445792683172e+000
0	 1.133319925002959e+000	 8.733360002791903e+000	 9.959553300608043e+000
0	 1.133319925002959e+000	 8.800020022230553e+000	 9.963459544661824e+000
0	 1.133319925002959e+000	 8.866680074997042e+000	 9.967167950293081e+000
0	 1.133319925002959e+000	 8.933340177755778e+000	 9.970681943542044e+000
0	 1.133319925002959e+000	 9.000000347171181e+000	 9.974004951040330e+000
0	 1.133319925002959e+000	 9.066660599907667e+000	 9.977140400011132e+000
0	 1.133319925002959e+000	 9.133320952629653e+000	 9.980091718269113e+000
0	 1.133319925002959e+000	 9.199981422001555e+000	 9.982862334220382e+000
0	 1.133319925002959e+000	 9.266642024687792e+000	 9.985455676862593e+000
0	 1.133319925002959e+000	 9.333302777352781e+000	 9.987875175784735e+000
0	 1.199979977769445e+000	 8.666700000016665e+000	 9.956741366813322e+000
0	 1.199979977769445e+000	 8.733360002791903e+000	 9.960706015942842e+000
0	 1.199979977769445e+000	 8.800020022230553e+000	 9.964479112942705e+000
0	 1.199979977769446e+000	 8.866680074997040e+000	 9.968064210350017e+000
0	 1.199979977769446e+000	 8.933340177755779e+000	 9.971464861268929e+000
0	 1.199979977769445e+000	 9.000000347171177e+000	 9.974684619371065e+000
0	 1.199979977769445e+000	 9.066660599907666e+000	 9.977727038895017e+000
0	 1.199979977769445e+000	 9.133320952629651e+000	 9.980595674646677e+000
0	 1.199979977769445e+000	 9.199981422001555e+000	 9.983294081999144e+000
0	 1.199979977769446e+000	 9.266642024687791e+000	 9.985825816892563e+000
0	 1.199979977769445e+000	 9.333302777352783e+000	 9.988194435834341e+000
0	 1.266639997208098e+000	 8.666700000016668e+000	 9.958083877300474e+000
0	 1.266639997208098e+000	 8.733360002791905e+000	 9.961900596946412e+000
0	 1.266639997208098e+000	 8.800020022230553e+000	 9.965535184746916e+000
0	 1.266639997208098e+000	 8.866680074997040e+000	 9.968991474699971e+000
0	 1.266639997208098e+000	 8.933340177755776e+000	 9.972273301345039e+000
0	 1.266639997208098e+000	 9.000000347171181e+000	 9.975384499763415e+000
0	 1.266639997208098e+000	 9.066660599907666e+000	 9.978328905578003e+000
0	 1.266639997208098e+000	 9.133320952629653e+000	 9.981110354953355e+000
0	 1.266639997208098e+000	 9.199981422001555e+000	 9.983732684595658e+000
0	 1.266639997208098e+000	 9.266642024687792e+000	 9.986199731752715e+000
0	 1.266639997208098e+000	 9.333302777352781e+000	 9.988515334214013e+000
0	 1.333299999983334e+000	 8.666700000016666e+000	 9.959467341035341e+000
0	 1.333299999983334e+000	 8.733360002791905e+000	 9.963131869436879e+000
0	 1.333299999983334e+000	 8.800020022230555e+000	 9.966623277502279e+000
0	 1.333299999983334e+000	 8.866680074997039e+000	 9.969945835062257e+000
0	 1.333299999983334e+000	 8.933340177755778e+000	 9.973103812462560e+000
0	 1.333299999983334e+000	 9.000000347171179e+000	 9.976101480564116e+000
0	 1.333299999983334e+000	 9.066660599907667e+000	 9.978943110742849e+000
0	 1.333299999983334e+000	 9.133320952629651e+000	 9.981632974889681e+000
0	 1.333299999983334e+000	 9.199981422001553e+000	 9.984175345410691e+000
0	 1.333299999983334e+000	 9.266642024687794e+000	 9.986574495226927e+000
0	 1.333299999983334e+000	 9.333302777352783e+000	 9.988834697774411e+000
0	 6.666972226472177e-001	 9.333302777352783e+000	 9.985952809096824e+000
0	 6.666972226472174e-001	 9.399973674588175e+000	 9.988449023544320e+000
0	 6.666972226472175e-001	 9.466644621844619e+000	 9.990680708878100e+000
0	 6.666972226472175e-001	 9.533315502449998e+000	 9.992661213928741e+000
0	 6.666972226472178e-001	 9.599986199732195e+000	 9.994403881784180e+000
0	 6.666972226472175e-001	 9.666656597019092e+000	 9.995922049789092e+000
0	 6.666972226472177e-001	 9.733326577638573e+000	 9.997229049544238e+000
0	 6.666972226472177e-001	 9.799996024918519e+000	 9.998338206905350e+000
0	 6.666972226472177e-001	 9.866664822186818e+000	 9.999262841982473e+000
0	 6.666972226472175e-001	 9.933332852771351e+000	 1.000001626913838e+001
0	 6.666972226472177e-001	 1.000000000000000e+001	 1.000061179698757e+001
0	 7.333579753122047e-001	 9.333302777352785e+000	 9.986171738304932e+000
0	 7.333579753122049e-001	 9.399973674588173e+000	 9.988626505657326e+000
0	 7.333579753122046e-001	 9.466644621844619e+000	 9.990819672452380e+000
0	 7.333579753122049e-001	 9.533315502450002e+000	 9.992765089634471e+000
0	 7.333579753122048e-001	 9.599986199732197e+000	 9.994476602506678e+000
0	 7.333579753122047e-001	 9.666656597019092e+000	 9.995968050730548e+000
0	 7.333579753122048e-001	 9.733326577638575e+000	 9.997253268325002e+000
0	 7.333579753122046e-001	 9.799996024918521e+000	 9.998346083665867e+000
0	 7.333579753122047e-001	 9.866664822186817e+000	 9.999260319484304e+000
0	 7.333579753122047e-001	 9.933332852771352e+000	 1.000000979286624e+001
0	 7.333579753122048e-001	 1.000000000000000e+001	 1.000060831525070e+001
0	 8.000185779984418e-001	 9.333302777352783e+000	 9.986414522671787e+000
0	 8.000185779984419e-001	 9.399973674588175e+000	 9.988828303827170e+000
0	 8.000185779984417e-001	 9.466644621844619e+000	 9.990983187359616e+000
0	 8.000185779984419e-001	 9.533315502450000e+000	 9.992893383325518e+000
0	 8.000185779984419e-001	 9.599986199732195e+000	 9.994573096238081e+000
0	 8.000185779984419e-001	 9.666656597019092e+000	 9.996036525066444e+000
0	 8.000185779984418e-001	 9.733326577638575e+000	 9.997297863235211e+000
0	 8.000185779984419e-001	 9.799996024918521e+000	 9.998371298623493e+000
0	 8.000185779984417e-001	 9.866664822186820e+000	 9.999271013563906e+000
0	 8.000185779984418e-001	 9.933332852771351e+000	 1.000001118484130e+001
0	 8.000185779984418e-001	 1.000000000000000e+001	 1.000060598369173e+001
0	 8.666790473703453e-001	 9.333302777352779e+000	 9.986677987852183e+000
0	 8.666790473703454e-001	 9.399973674588180e+000	 9.989050973415845e+000
0	 8.666790473703456e-001	 9.466644621844619e+000	 9.991167609419653e+000
0	 8.666790473703454e-001	 9.533315502449998e+000	 9.993042322028424e+000
0	 8.666790473703455e-001	 9.599986199732195e+000	 9.994689531958466e+000
0	 8.666790473703455e-001	 9.666656597019093e+000	 9.996123654476946e+000
0	 8.666790473703454e-001	 9.733326577638573e+000	 9.997359099401452e+000
0	 8.666790473703455e-001	 9.799996024918524e+000	 9.998410271098710e+000
0	 8.666790473703455e-001	 9.866664822186820e+000	 9.999291568483969e+000
0	 8.666790473703454e-001	 9.933332852771351e+000	 1.000001738501970e+001
0	 8.666790473703455e-001	 1.000000000000000e+001	 1.000060210871416e+001
0	 9.333394000923324e-001	 9.333302777352783e+000	 9.986958959671766e+000
0	 9.333394000923324e-001	 9.399973674588177e+000	 9.989291069960558e+000
0	 9.333394000923325e-001	 9.466644621844621e+000	 9.991369294632019e+000
0	 9.333394000923320e-001	 9.533315502449998e+000	 9.993208132953438e+000
0	 9.333394000923323e-001	 9.599986199732195e+000	 9.994822078836275e+000
0	 9.333394000923321e-001	 9.666656597019090e+000	 9.996225620835606e+000
0	 9.333394000923322e-001	 9.733326577638573e+000	 9.997433242149311e+000
0	 9.333394000923323e-001	 9.799996024918521e+000	 9.998459420617238e+000
0	 9.333394000923321e-001	 9.866664822186820e+000	 9.999318628720351e+000
0	 9.333394000923322e-001	 9.933332852771351e+000	 1.000002533357935e+001
0	 9.333394000923322e-001	 1.000000000000000e+001	 1.000059399695363e+001
0	 9.999996528288190e-001	 9.333302777352783e+000	 9.987254264127047e+000
0	 9.999996528288191e-001	 9.399973674588178e+000	 9.989545149173928e+000
0	 9.999996528288194e-001	 9.466644621844621e+000	 9.991584599175688e+000
0	 9.999996528288190e-001	 9.533315502449998e+000	 9.993387043494646e+000
0	 9.999996528288191e-001	 9.599986199732195e+000	 9.994966906228395e+000
0	 9.999996528288193e-001	 9.666656597019092e+000	 9.996338606209227e+000
0	 9.999996528288190e-001	 9.733326577638572e+000	 9.997516557003426e+000
0	 9.999996528288191e-001	 9.799996024918524e+000	 9.998515166910464e+000
0	 9.999996528288191e-001	 9.866664822186822e+000	 9.999348838961954e+000
0	 9.999996528288190e-001	 9.933332852771351e+000	 1.000003197092056e+001
0	 9.999996528288190e-001	 1.000000000000000e+001	 1.000057895527866e+001
0	 1.066659822244222e+000	 9.333302777352781e+000	 9.987560727385279e+000
0	 1.066659822244222e+000	 9.399973674588177e+000	 9.989809766943779e+000
0	 1.066659822244223e+000	 9.466644621844621e+000	 9.991809879409306e+000
0	 1.066659822244222e+000	 9.533315502449998e+000	 9.993575281230060e+000
0	 1.066659822244223e+000	 9.599986199732197e+000	 9.995120183679923e+000
0	 1.066659822244222e+000	 9.666656597019090e+000	 9.996458792857890e+000
0	 1.066659822244222e+000	 9.733326577638572e+000	 9.997605309687319e+000
0	 1.066659822244222e+000	 9.799996024918519e+000	 9.998573929915098e+000
0	 1.066659822244222e+000	 9.866664822186818e+000	 9.999378844110810e+000
0	 1.066659822244222e+000	 9.933332852771352e+000	 1.000003423766535e+001
0	 1.066659822244222e+000	 1.000000000000000e+001	 1.000055429079015e+001
0	 1.133319925002959e+000	 9.333302777352781e+000	 9.987875175784735e+000
0	 1.133319925002959e+000	 9.399973674588177e+000	 9.990081479333249e+000
0	 1.133319925002958e+000	 9.466644621844621e+000	 9.992041491870914e+000
0	 1.133319925002959e+000	 9.533315502450000e+000	 9.993769073921424e+000
0	 1.133319925002959e+000	 9.599986199732195e+000	 9.995278080924383e+000
0	 1.133319925002959e+000	 9.666656597019092e+000	 9.996582363235071e+000
0	 1.133319925002959e+000	 9.733326577638573e+000	 9.997695766123453e+000
0	 1.133319925002959e+000	 9.799996024918521e+000	 9.998632129773460e+000
0	 1.133319925002959e+000	 9.866664822186818e+000	 9.999405289281972e+000
0	 1.133319925002959e+000	 9.933332852771351e+000	 1.000002907465797e+001
0	 1.133319925002959e+000	 9.999999999999998e+000	 1.000051731082111e+001
0	 1.199979977769445e+000	 9.333302777352783e+000	 9.988194435834341e+000
0	 1.199979977769445e+000	 9.399973674588175e+000	 9.990356842580795e+000
0	 1.199979977769445e+000	 9.466644621844619e+000	 9.992275793278306e+000
0	 1.199979977769445e+000	 9.533315502449996e+000	 9.993964649514391e+000
0	 1.199979977769445e+000	 9.599986199732193e+000	 9.995436767883719e+000
0	 1.199979977769445e+000	 9.666656597019093e+000	 9.996705499987611e+000
0	 1.199979977769445e+000	 9.733326577638573e+000	 9.997784192433270e+000
0	 1.199979977769445e+000	 9.799996024918523e+000	 9.998686186833144e+000
0	 1.199979977769445e+000	 9.866664822186818e+000	 9.999424819803599e+000
0	 1.199979977769445e+000	 9.933332852771352e+000	 1.000001342296459e+001
0	 1.199979977769445e+000	 1.000000000000000e+001	 1.000046532293730e+001
0	 1.266639997208098e+000	 9.333302777352781e+000	 9.988515334214013e+000
0	 1.266639997208098e+000	 9.399973674588178e+000	 9.990632413100141e+000
0	 1.266639997208098e+000	 9.466644621844617e+000	 9.992509140528664e+000
0	 1.266639997208098e+000	 9.533315502450000e+000	 9.994158236138425e+000
0	 1.266639997208098e+000	 9.599986199732195e+000	 9.995592414668060e+000
0	 1.266639997208098e+000	 9.666656597019093e+000	 9.996824385955485e+000
0	 1.266639997208098e+000	 9.733326577638575e+000	 9.997866854937188e+000
0	 1.266639997208098e+000	 9.799996024918523e+000	 9.998732521647384e+000
0	 1.266639997208098e+000	 9.866664822186818e+000	 9.999434081217144e+000
0	 1.266639997208098e+000	 9.933332852771349e+000	 9.999984223873199e+000
0	 1.266639997208098e+000	 1.000000000000000e+001	 1.000039563493712e+001
0	 1.333299999983334e+000	 9.333302777352783e+000	 9.988834697774411e+000
0	 1.333299999983334e+000	 9.399973674588175e+000	 9.990904747480297e+000
0	 1.333299999983334e+000	 9.466644621844621e+000	 9.992737890698765e+000
0	 1.333299999983333e+000	 9.533315502449998e+000	 9.994346062106780e+000
0	 1.333299999983334e+000	 9.599986199732193e+000	 9.995741191576029e+000
0	 1.333299999983334e+000	 9.666656597019093e+000	 9.996935204172235e+000
0	 1.333299999983334e+000	 9.733326577638575e+000	 9.997940020154541e+000
0	 1.333299999983334e+000	 9.799996024918519e+000	 9.998767554974810e+000
0	 1.333299999983334e+000	 9.866664822186818e+000	 9.999429719276620e+000
0	 1.333299999983334e+000	 9.933332852771352e+000	 9.999938418894084e+000
0	 1.333299999983334e+000	 1.000000000000000e+001	 1.000030555485079e+001
0	 1.333299999983334e+000	 0.000000000000000e+000	-5.654540872440309e+000
0	 1.333299999983334e+000	 6.666714722864757e-002	-5.062954901556398e+000
0	 1.333299999983334e+000	 1.333351778131789e-001	-4.534703929681032e+000
0	 1.333299999983334e+000	 2.000039750814773e-001	-4.051336482322922e+000
0	 1.333299999983334e+000	 2.666734223614256e-001	-3.594400571009846e+000
0	 1.333299999983334e+000	 3.333434029809070e-001	-3.145443693285179e+000
0	 1.333299999983334e+000	 4.000138002678044e-001	-2.686012832690948e+000
0	 1.333299999983334e+000	 4.666844975500011e-001	-2.197654458737357e+000
0	 1.333299999983334e+000	 5.333553781553804e-001	-1.661914526858872e+000
0	 1.333299999983334e+000	 6.000263254118248e-001	-1.060338478356746e+000
0	 1.333299999983334e+000	 6.666972226472175e-001	-3.744712403281189e-001
0	 1.399969999982150e+000	 0.000000000000000e+000	-8.115619169078794e+000
0	 1.399969999982149e+000	 6.666714722864756e-002	-7.212747360722902e+000
0	 1.399969999982150e+000	 1.333351778131789e-001	-6.401409086605039e+000
0	 1.399969999982150e+000	 2.000039750814772e-001	-5.660376993236051e+000
0	 1.399969999982150e+000	 2.666734223614255e-001	-4.968423347872460e+000
0	 1.399969999982150e+000	 3.333434029809069e-001	-4.304320038470426e+000
0	 1.399969999982150e+000	 4.000138002678044e-001	-3.646838573629744e+000
0	 1.399969999982150e+000	 4.666844975500012e-001	-2.974750082527859e+000
0	 1.399969999982150e+000	 5.333553781553800e-001	-2.266825314843970e+000
0	 1.399969999982150e+000	 6.000263254118248e-001	-1.501834640673113e+000
0	 1.399969999982150e+000	 6.666972226472177e-001	-6.585480504303516e-001
0	 1.466639999981867e+000	 0.000000000000000e+000	-1.104228557094312e+001
0	 1.466639999981866e+000	 6.666714722864756e-002	-9.797696653598816e+000
0	 1.466639999981866e+000	 1.333351778131789e-001	-8.666350808885159e+000
0	 1.466639999981866e+000	 2.000039750814772e-001	-7.625789667734344e+000
0	 1.466639999981866e+000	 2.666734223614254e-001	-6.653554679724660e+000
0	 1.466639999981867e+000	 3.333434029809069e-001	-5.727187112979240e+000
0	 1.466639999981866e+000	 4.000138002678044e-001	-4.824228054060179e+000
0	 1.466639999981867e+000	 4.666844975500011e-001	-3.922218407857791e+000
0	 1.466639999981867e+000	 5.333553781553803e-001	-2.998698897475207e+000
0	 1.466639999981866e+000	 6.000263254118247e-001	-2.031210064108065e+000
0	 1.466639999981867e+000	 6.666972226472175e-001	-9.972922669195800e-001
0	 1.533309999982383e+000	 0.000000000000000e+000	-1.437270363704688e+001
0	 1.533309999982383e+000	 6.666714722864754e-002	-1.276386835859213e+001
0	 1.533309999982383e+000	 1.333351778131789e-001	-1.128287138163076e+001
0	 1.533309999982383e+000	 2.000039750814772e-001	-9.907568246353062e+000
0	 1.533309999982383e+000	 2.666734223614256e-001	-8.615814566101507e+000
0	 1.533309999982383e+000	 3.333434029809069e-001	-7.385466027203241e+000
0	 1.533309999982383e+000	 4.000138002678044e-001	-6.194378388804454e+000
0	 1.533309999982383e+000	 4.666844975500011e-001	-5.020407482706734e+000
0	 1.533309999982383e+000	 5.333553781553801e-001	-3.841409213205259e+000
0	 1.533309999982383e+000	 6.000263254118249e-001	-2.635239556928950e+000
0	 1.533309999982383e+000	 6.666972226472179e-001	-1.379754562682495e+000
0	 1.599979999983600e+000	 0.000000000000000e+000	-1.804503692640320e+001
0	 1.599979999983600e+000	 6.666714722864756e-002	-1.605732805411073e+001
0	 1.599979999983600e+000	 1.333351778131789e-001	-1.420431308995145e+001
0	 1.599979999983600e+000	 2.000039750814773e-001	-1.246570646962785e+001
0	 1.599979999983600e+000	 2.666734223614256e-001	-1.082122300653858e+001
0	 1.599979999983600e+000	 3.333434029809069e-001	-9.250577891534585e+000
0	 1.599979999983600e+000	 4.000138002678044e-001	-7.733486692685321e+000
0	 1.599979999983599e+000	 4.666844975500011e-001	-6.249665355054743e+000
0	 1.599979999983600e+000	 5.333553781553801e-001	-4.778830200487219e+000
0	 1.599979999983600e+000	 6.000263254118248e-001	-3.300697927403396e+000
0	 1.599979999983600e+000	 6.666972226472178e-001	-1.794985610605937e+000
0	 1.666649999985416e+000	 0.000000000000000e+000	-2.199744899802471e+001
0	 1.666649999985416e+000	 6.666714722864757e-002	-1.962414131856244e+001
0	 1.666649999985417e+000	 1.333351778131790e-001	-1.738401821895705e+001
0	 1.666649999985417e+000	 2.000039750814773e-001	-1.526019807809480e+001
0	 1.666649999985417e+000	 2.666734223614256e-001	-1.323580000057196e+001
0	 1.666649999985416e+000	 3.333434029809069e-001	-1.129394381636601e+001
0	 1.666649999985416e+000	 4.000138002678043e-001	-9.417750080526087e+000
0	 1.666649999985417e+000	 4.666844975500012e-001	-7.590340072882355e+000
0	 1.666649999985416e+000	 5.333553781553803e-001	-5.794835797774530e+000
0	 1.666649999985416e+000	 6.000263254118246e-001	-4.014359983799320e+000
0	 1.666649999985417e+000	 6.666972226472175e-001	-2.232036083576927e+000
0	 1.733319999987733e+000	 0.000000000000000e+000	-2.616810341092353e+001
0	 1.733319999987733e+000	 6.666714722864756e-002	-2.341037373035505e+001
0	 1.733319999987733e+000	 1.333351778131790e-001	-2.077532905375759e+001
0	 1.733319999987733e+000	 2.000039750814772e-001	-1.825103681229038e+001
0	 1.733319999987733e+000	 2.666734223614256e-001	-1.582556554773826e+001
0	 1.733319999987733e+000	 3.333434029809068e-001	-1.348698491209079e+001
0	 1.733319999987733e+000	 4.000138002678043e-001	-1.122336566715054e+001
0	 1.733319999987733e+000	 4.666844975500012e-001	-9.022779684170589e+000
0	 1.733319999987733e+000	 5.333553781553801e-001	-6.873299943521057e+000
0	 1.733319999987733e+000	 6.000263254118248e-001	-4.763000534384908e+000
0	 1.733319999987733e+000	 6.666972226472177e-001	-2.679956654482683e+000
0	 1.799989999990450e+000	 0.000000000000000e+000	-3.049516372411138e+001
0	 1.799989999990450e+000	 6.666714722864756e-002	-2.736209086789618e+001
0	 1.799989999990450e+000	 1.333351778131789e-001	-2.433158787946330e+001
0	 1.799989999990450e+000	 2.000039750814773e-001	-2.139821641275148e+001
0	 1.799989999990450e+000	 2.666734223614256e-001	-1.855653964757464e+001
0	 1.799989999990450e+000	 3.333434029809069e-001	-1.580112228910278e+001
0	 1.799989999990450e+000	 4.000138002678044e-001	-1.312653056738308e+001
0	 1.799989999990450e+000	 4.666844975500012e-001	-1.052733223690091e+001
0	 1.799989999990450e+000	 5.333553781553801e-001	-7.998096576181025e+000
0	 1.799989999990450e+000	 6.000263254118247e-001	-5.533394387428631e+000
0	 1.799989999990450e+000	 6.666972226472175e-001	-3.127797996210564e+000
0	 1.866659999993467e+000	 0.000000000000000e+000	-3.491679349659939e+001
0	 1.866659999993467e+000	 6.666714722864756e-002	-3.142535830959344e+001
0	 1.866659999993467e+000	 1.333351778131790e-001	-2.800613698118465e+001
0	 1.866659999993467e+000	 2.000039750814772e-001	-2.466173062001540e+001
0	 1.866659999993467e+000	 2.666734223614255e-001	-2.139474229961872e+001
0	 1.866659999993467e+000	 3.333434029809069e-001	-1.820777705779636e+001
0	 1.866659999993466e+000	 4.000138002678043e-001	-1.510344189604859e+001
0	 1.866659999993467e+000	 4.666844975500012e-001	-1.208434577905531e+001
0	 1.866659999993467e+000	 5.333553781553803e-001	-9.153099634209061e+000
0	 1.866659999993467e+000	 6.000263254118248e-001	-6.312316351199248e+000
0	 1.866659999993467e+000	 6.666972226472175e-001	-3.564610781648114e+000
0	 1.933329999996684e+000	 0.000000000000000e+000	-3.937115628739833e+001
0	 1.933329999996684e+000	 6.666714722864756e-002	-3.554624163385436e+001
0	 1.933329999996684e+000	 1.333351778131789e-001	-3.175231864403233e+001
0	 1.933329999996684e+000	 2.000039750814773e-001	-2.800157317461985e+001
0	 1.933329999996684e+000	 2.666734223614255e-001	-2.430619350340867e+001
0	 1.933329999996683e+000	 3.333434029809068e-001	-2.067837032856651e+001
0	 1.933329999996684e+000	 4.000138002678044e-001	-1.713029676797251e+001
0	 1.933329999996684e+000	 4.666844975500012e-001	-1.367416835861622e+001
0	 1.933329999996683e+000	 5.333553781553803e-001	-1.032218305606017e+001
0	 1.933329999996683e+000	 6.000263254118246e-001	-7.086541233965789e+000
0	 1.933329999996684e+000	 6.666972226472177e-001	-3.979445683683067e+000
0	 2.000000000000000e+000	 0.000000000000000e+000	-4.379641565551831e+001
0	 2.000000000000000e+000	 6.666714722864756e-002	-3.967080641908635e+001
0	 2.000000000000000e+000	 1.333351778131789e-001	-3.552347515311720e+001
0	 2.000000000000000e+000	 2.000039750814773e-001	-3.137773781710292e+001
0	 2.000000000000000e+000	 2.666734223614256e-001	-2.725691325848318e+001
0	 2.000000000000000e+000	 3.333434029809069e-001	-2.318432321180871e+001
0	 2.000000000000000e+000	 4.000138002678044e-001	-1.918329229798081e+001
0	 2.000000000000000e+000	 4.666844975500011e-001	-1.527714802356656e+001
0	 2.000000000000000e+000	 5.333553781553801e-001	-1.148922078018972e+001
0	 2.000000000000000e+000	 6.000263254118247e-001	-7.842843843997581e+000
0	 2.000000000000000e+000	 6.666972226472178e-001	-4.361353375203297e+000
0	 1.333299999983334e+000	 6.666972226472175e-001	-3.744712403281189e-001
0	 1.333299999983334e+000	 7.333579753122048e-001	 4.284080906261165e-001
0	 1.333299999983334e+000	 8.000185779984420e-001	 1.359634563704126e+000
0	 1.333299999983334e+000	 8.666790473703455e-001	 2.405254399013283e+000
0	 1.333299999983334e+000	 9.333394000923325e-001	 3.551313683832706e+000
0	 1.333299999983334e+000	 9.999996528288192e-001	 4.783858372613068e+000
0	 1.333299999983334e+000	 1.066659822244222e+000	 6.088934286976881e+000
0	 1.333299999983334e+000	 1.133319925002959e+000	 7.452587115719308e+000
0	 1.333299999983334e+000	 1.199979977769445e+000	 8.860862414809438e+000
0	 1.333299999983334e+000	 1.266639997208098e+000	 1.029980560739208e+001
0	 1.333299999983334e+000	 1.333299999983334e+000	 1.175546198379007e+001
0	 1.399969999982150e+000	 6.666972226472177e-001	-6.585480504303516e-001
0	 1.399969999982150e+000	 7.333579753122047e-001	 2.923050387320987e-001
0	 1.399969999982150e+000	 8.000185779984420e-001	 1.356098762026876e+000
0	 1.399969999982150e+000	 8.666790473703453e-001	 2.517818409630094e+000
0	 1.399969999982150e+000	 9.333394000923321e-001	 3.762449174783943e+000
0	 1.399969999982150e+000	 9.999996528288191e-001	 5.074976153797456e+000
0	 1.399969999982150e+000	 1.066659822244222e+000	 6.440384346047594e+000
0	 1.399969999982150e+000	 1.133319925002959e+000	 7.843658653980757e+000
0	 1.399969999982150e+000	 1.199979977769445e+000	 9.269783883114631e+000
0	 1.399969999982150e+000	 1.266639997208098e+000	 1.070374474204038e+001
0	 1.399969999982150e+000	 1.333299999983334e+000	 1.213052584242523e+001
0	 1.466639999981867e+000	 6.666972226472175e-001	-9.972922669195800e-001
0	 1.466639999981866e+000	 7.333579753122049e-001	 1.296722338789409e-001
0	 1.466639999981866e+000	 8.000185779984416e-001	 1.351041689351057e+000
0	 1.466639999981866e+000	 8.666790473703452e-001	 2.650903045874784e+000
0	 1.466639999981866e+000	 9.333394000923323e-001	 4.013343191618271e+000
0	 1.466639999981866e+000	 9.999996528288191e-001	 5.422448956541686e+000
0	 1.466639999981866e+000	 1.066659822244222e+000	 6.862307112399115e+000
0	 1.466639999981867e+000	 1.133319925002959e+000	 8.317004372740893e+000
0	 1.466639999981866e+000	 1.199979977769445e+000	 9.770627392915976e+000
0	 1.466639999981867e+000	 1.266639997208098e+000	 1.120726277007464e+001
0	 1.466639999981867e+000	 1.333299999983334e+000	 1.261099704317137e+001
0	 1.533309999982383e+000	 6.666972226472179e-001	-1.379754562682495e+000
0	 1.533309999982383e+000	 7.333579753122046e-001	-5.044614532131408e-002
0	 1.533309999982383e+000	 8.000185779984415e-001	 1.351718222349344e+000
0	 1.533309999982383e+000	 8.666790473703455e-001	 2.810089731122904e+000
0	 1.533309999982383e+000	 9.333394000923323e-001	 4.308019554963078e+000
0	 1.533309999982383e+000	 9.999996528288191e-001	 5.828858851006782e+000
0	 1.533309999982383e+000	 1.066659822244223e+000	 7.355958759567090e+000
0	 1.533309999982383e+000	 1.133319925002959e+000	 8.872670404136258e+000
0	 1.533309999982383e+000	 1.199979977769445e+000	 1.036234489138884e+001
0	 1.533309999982383e+000	 1.266639997208098e+000	 1.180833331118478e+001
0	 1.533309999982383e+000	 1.333299999983334e+000	 1.319398673657271e+001
0	 1.599979999983600e+000	 6.666972226472178e-001	-1.794985610605937e+000
0	 1.599979999983600e+000	 7.333579753122048e-001	-2.390059202566919e-001
0	 1.599979999983600e+000	 8.000185779984418e-001	 1.365383237694396e+000
0	 1.599979999983599e+000	 8.666790473703455e-001	 3.000959888750098e+000
0	 1.599979999983600e+000	 9.333394000923322e-001	 4.650502085445890e+000
0	 1.599979999983600e+000	 9.999996528288191e-001	 6.296787907353991e+000
0	 1.599979999983600e+000	 1.066659822244223e+000	 7.922595461087399e+000
0	 1.599979999983599e+000	 1.133319925002959e+000	 9.510702880303725e+000
0	 1.599979999983600e+000	 1.199979977769445e+000	 1.104388832570896e+001
0	 1.599979999983600e+000	 1.266639997208098e+000	 1.250492998506114e+001
0	 1.599979999983600e+000	 1.333299999983334e+000	 1.387660607317395e+001
0	 1.666649999985417e+000	 6.666972226472175e-001	-2.232036083576927e+000
0	 1.666649999985416e+000	 7.333579753122048e-001	-4.269629123152945e-001
0	 1.666649999985417e+000	 8.000185779984419e-001	 1.399291612058907e+000
0	 1.666649999985416e+000	 8.666790473703454e-001	 3.229094942132115e+000
0	 1.666649999985417e+000	 9.333394000923322e-001	 5.044814603694396e+000
0	 1.666649999985417e+000	 9.999996528288192e-001	 6.828818195744777e+000
0	 1.666649999985416e+000	 1.066659822244222e+000	 8.563473390496238e+000
0	 1.666649999985416e+000	 1.133319925002959e+000	 1.023114793338047e+001
0	 1.666649999985417e+000	 1.199979977769445e+000	 1.181420964305244e+001
0	 1.666649999985416e+000	 1.266639997208098e+000	 1.329502641139447e+001
0	 1.666649999985417e+000	 1.333299999983334e+000	 1.465596620352027e+001
0	 1.733319999987733e+000	 6.666972226472177e-001	-2.679956654482683e+000
0	 1.733319999987733e+000	 7.333579753122046e-001	-6.052729428852985e-001
0	 1.733319999987733e+000	 8.000185779984417e-001	 1.460698222115553e+000
0	 1.733319999987733e+000	 8.666790473703455e-001	 3.500076314644739e+000
0	 1.733319999987733e+000	 9.333394000923322e-001	 5.494980930336448e+000
0	 1.733319999987733e+000	 9.999996528288190e-001	 7.427531786340809e+000
0	 1.733319999987734e+000	 1.066659822244223e+000	 9.279848721330014e+000
0	 1.733319999987733e+000	 1.133319925002959e+000	 1.103405169550403e+001
0	 1.733319999987733e+000	 1.199979977769445e+000	 1.267226079059577e+001
0	 1.733319999987733e+000	 1.266639997208098e+000	 1.417659620987594e+001
0	 1.733319999987733e+000	 1.333299999983334e+000	 1.552917827815731e+001
0	 1.799989999990450e+000	 6.666972226472175e-001	-3.127797996210564e+000
0	 1.799989999990449e+000	 7.333579753122046e-001	-7.648918333549672e-001
0	 1.799989999990450e+000	 8.000185779984419e-001	 1.556857944537050e+000
0	 1.799989999990450e+000	 8.666790473703455e-001	 3.819485429663888e+000
0	 1.799989999990450e+000	 9.333394000923323e-001	 6.005024886000035e+000
0	 1.799989999990450e+000	 9.999996528288191e-001	 8.095510749303973e+000
0	 1.799989999990450e+000	 1.066659822244223e+000	 1.007297762712546e+001
0	 1.799989999990450e+000	 1.133319925002959e+000	 1.191946029881219e+001
0	 1.799989999990450e+000	 1.199979977769445e+000	 1.361699371551581e+001
0	 1.799989999990450e+000	 1.266639997208098e+000	 1.514761300019718e+001
0	 1.799989999990450e+000	 1.333299999983334e+000	 1.649335344763116e+001
0	 1.866659999993467e+000	 6.666972226472175e-001	-3.564610781648114e+000
0	 1.866659999993467e+000	 7.333579753122049e-001	-8.967754051126291e-001
0	 1.866659999993467e+000	 8.000185779984417e-001	 1.695025655996095e+000
0	 1.866659999993467e+000	 8.666790473703454e-001	 4.192903710565547e+000
0	 1.866659999993467e+000	 9.333394000923323e-001	 6.578970291313305e+000
0	 1.866659999993467e+000	 9.999996528288191e-001	 8.835337154796356e+000
0	 1.866659999993467e+000	 1.066659822244222e+000	 1.094411628141954e+001
0	 1.866659999993467e+000	 1.133319925002959e+000	 1.288741987544314e+001
0	 1.866659999993467e+000	 1.199979977769445e+000	 1.464736036498976e+001
0	 1.866659999993467e+000	 1.266639997208098e+000	 1.620605040205015e+001
0	 1.866659999993467e+000	 1.333299999983334e+000	 1.754560286248842e+001
0	 1.933329999996684e+000	 6.666972226472177e-001	-3.979445683683067e+000
0	 1.933329999996684e+000	 7.333579753122047e-001	-9.918794795466952e-001
0	 1.933329999996683e+000	 8.000185779984418e-001	 1.882456233165407e+000
0	 1.933329999996684e+000	 8.666790473703455e-001	 4.625912580725768e+000
0	 1.933329999996684e+000	 9.333394000923323e-001	 7.220840966904556e+000
0	 1.933329999996683e+000	 9.999996528288190e-001	 9.649593072980281e+000
0	 1.933329999996684e+000	 1.066659822244222e+000	 1.189452085774949e+001
0	 1.933329999996684e+000	 1.133319925002959e+000	 1.393797655753534e+001
0	 1.933329999996684e+000	 1.199979977769445e+000	 1.576231268619523e+001
0	 1.933329999996684e+000	 1.266639997208098e+000	 1.734988203512732e+001
0	 1.933329999996684e+000	 1.333299999983334e+000	 1.868303767327610e+001
0	 2.000000000000000e+000	 6.666972226472178e-001	-4.361353375203297e+000
0	 2.000000000000000e+000	 7.333579753122046e-001	-1.041159878045658e+000
0	 2.000000000000000e+000	 8.000185779984420e-001	 2.126404552717705e+000
0	 2.000000000000000e+000	 8.666790473703454e-001	 5.124093463520709e+000
0	 2.000000000000000e+000	 9.333394000923323e-001	 7.934660733402249e+000
0	 2.000000000000000e+000	 9.999996528288191e-001	 1.054086057401828e+001
0	 2.000000000000000e+000	 1.066659822244222e+000	 1.292544752965283e+001
0	 2.000000000000000e+000	 1.133319925002959e+000	 1.507117647722755e+001
0	 2.000000000000000e+000	 1.199979977769445e+000	 1.696080262631014e+001
0	 2.000000000000000e+000	 1.266639997208098e+000	 1.857708151912153e+001
0	 2.000000000000000e+000	 1.333299999983334e+000	 1.990276903054172e+001
0	 1.333299999983334e+000	 1.333299999983334e+000	 1.175546198379008e+001
0	 1.333299999983334e+000	 1.399969999982150e+000	 1.308899323472479e+001
0	 1.333299999983334e+000	 1.466639999981867e+000	 1.417520158124341e+001
0	 1.333299999983334e+000	 1.533309999982383e+000	 1.502124978783361e+001
0	 1.333299999983334e+000	 1.599979999983599e+000	 1.563430061898159e+001
0	 1.333299999983334e+000	 1.666649999985416e+000	 1.602151683917201e+001
0	 1.333299999983334e+000	 1.733319999987733e+000	 1.619006121288801e+001
0	 1.333299999983334e+000	 1.799989999990449e+000	 1.614709650461122e+001
0	 1.333299999983334e+000	 1.866659999993467e+000	 1.589978547882174e+001
0	 1.333299999983334e+000	 1.933329999996683e+000	 1.545529089999816e+001
0	 1.333299999983334e+000	 2.000000000000000e+000	 1.482077553261759e+001
0	 1.399969999982150e+000	 1.333299999983334e+000	 1.213052584242524e+001
0	 1.399969999982150e+000	 1.399969999982150e+000	 1.341839234652280e+001
0	 1.399969999982150e+000	 1.466639999981866e+000	 1.445048397725319e+001
0	 1.399969999982150e+000	 1.533309999982383e+000	 1.523473536214621e+001
0	 1.399969999982150e+000	 1.599979999983600e+000	 1.577908112872995e+001
0	 1.399969999982150e+000	 1.666649999985416e+000	 1.609145590453104e+001
0	 1.399969999982150e+000	 1.733319999987733e+000	 1.617979431707440e+001
0	 1.399969999982150e+000	 1.799989999990450e+000	 1.605203099388345e+001
0	 1.399969999982150e+000	 1.866659999993467e+000	 1.571610056247996e+001
0	 1.399969999982150e+000	 1.933329999996684e+000	 1.517993765038414e+001
0	 1.399969999982150e+000	 2.000000000000000e+000	 1.445147688511457e+001
0	 1.466639999981867e+000	 1.333299999983334e+000	 1.261099704317137e+001
0	 1.466639999981866e+000	 1.399969999982150e+000	 1.385892556357570e+001
0	 1.466639999981867e+000	 1.466639999981867e+000	 1.484409481084041e+001
0	 1.466639999981866e+000	 1.533309999982383e+000	 1.557513992539275e+001
0	 1.466639999981866e+000	 1.599979999983599e+000	 1.606069604765829e+001
0	 1.466639999981867e+000	 1.666649999985416e+000	 1.630939831806090e+001
0	 1.466639999981867e+000	 1.733319999987733e+000	 1.632988187702291e+001
0	 1.466639999981866e+000	 1.799989999990450e+000	 1.613078186496489e+001
0	 1.466639999981866e+000	 1.866659999993466e+000	 1.572073342230577e+001
0	 1.466639999981867e+000	 1.933329999996684e+000	 1.510837168946290e+001
0	 1.466639999981866e+000	 2.000000000000000e+000	 1.430233180685190e+001
0	 1.533309999982383e+000	 1.333299999983334e+000	 1.319398673657271e+001
0	 1.533309999982383e+000	 1.399969999982150e+000	 1.440684010925288e+001
0	 1.533309999982383e+000	 1.466639999981866e+000	 1.535129884469843e+001
0	 1.533309999982383e+000	 1.533309999982383e+000	 1.603662724608951e+001
0	 1.533309999982383e+000	 1.599979999983600e+000	 1.647208961660454e+001
0	 1.533309999982383e+000	 1.666649999985416e+000	 1.666695025942021e+001
0	 1.533309999982383e+000	 1.733319999987733e+000	 1.663047347771158e+001
0	 1.533309999982383e+000	 1.799989999990451e+000	 1.637192357465191e+001
0	 1.533309999982383e+000	 1.866659999993467e+000	 1.590056485341280e+001
0	 1.533309999982383e+000	 1.933329999996684e+000	 1.522566161716418e+001
0	 1.533309999982383e+000	 2.000000000000000e+000	 1.435647816907422e+001
0	 1.599979999983600e+000	 1.333299999983334e+000	 1.387660607317395e+001
0	 1.599979999983600e+000	 1.399969999982150e+000	 1.505838320692426e+001
0	 1.599979999983600e+000	 1.466639999981866e+000	 1.596736084152124e+001
0	 1.599979999983599e+000	 1.533309999982383e+000	 1.661336109275339e+001
0	 1.599979999983599e+000	 1.599979999983599e+000	 1.700620607640744e+001
0	 1.599979999983599e+000	 1.666649999985416e+000	 1.715571790826832e+001
0	 1.599979999983600e+000	 1.733319999987733e+000	 1.707171870411926e+001
0	 1.599979999983599e+000	 1.799989999990450e+000	 1.676403057974176e+001
0	 1.599979999983600e+000	 1.866659999993467e+000	 1.624247565091552e+001
0	 1.599979999983600e+000	 1.933329999996684e+000	 1.551687603341854e+001
0	 1.599979999983600e+000	 2.000000000000000e+000	 1.459705384302708e+001
0	 1.666649999985417e+000	 1.333299999983334e+000	 1.465596620352027e+001
0	 1.666649999985416e+000	 1.399969999982150e+000	 1.580980207996025e+001
0	 1.666649999985416e+000	 1.466639999981866e+000	 1.668754556400339e+001
0	 1.666649999985416e+000	 1.533309999982383e+000	 1.729950523390193e+001
0	 1.666649999985416e+000	 1.599979999983599e+000	 1.765598966790631e+001
0	 1.666649999985416e+000	 1.666649999985416e+000	 1.776730744426522e+001
0	 1.666649999985416e+000	 1.733319999987733e+000	 1.764376714122556e+001
0	 1.666649999985416e+000	 1.799989999990449e+000	 1.729567733703246e+001
0	 1.666649999985417e+000	 1.866659999993467e+000	 1.673334660992924e+001
0	 1.666649999985417e+000	 1.933329999996684e+000	 1.596708353815750e+001
0	 1.666649999985416e+000	 2.000000000000000e+000	 1.500719669995699e+001
0	 1.733319999987733e+000	 1.333299999983334e+000	 1.552917827815731e+001
0	 1.733319999987733e+000	 1.399969999982150e+000	 1.665734395173185e+001
0	 1.733319999987733e+000	 1.466639999981867e+000	 1.750711777484001e+001
0	 1.733319999987733e+000	 1.533309999982383e+000	 1.808922343805323e+001
0	 1.733319999987733e+000	 1.599979999983600e+000	 1.841438463194119e+001
0	 1.733319999987733e+000	 1.666649999985416e+000	 1.849332504707174e+001
0	 1.733319999987733e+000	 1.733319999987733e+000	 1.833676837401087e+001
0	 1.733319999987733e+000	 1.799989999990450e+000	 1.795543830332289e+001
0	 1.733319999987733e+000	 1.866659999993466e+000	 1.736005852557020e+001
0	 1.733319999987733e+000	 1.933329999996684e+000	 1.656135273131346e+001
0	 1.733319999987734e+000	 2.000000000000000e+000	 1.557004461111147e+001
0	 1.799989999990450e+000	 1.333299999983334e+000	 1.649335344763117e+001
0	 1.799989999990450e+000	 1.399969999982150e+000	 1.759725604561049e+001
0	 1.799989999990450e+000	 1.466639999981866e+000	 1.842134223672673e+001
0	 1.799989999990451e+000	 1.533309999982383e+000	 1.897667947372607e+001
0	 1.799989999990450e+000	 1.599979999983599e+000	 1.927433520935279e+001
0	 1.799989999990451e+000	 1.666649999985417e+000	 1.932537689634933e+001
0	 1.799989999990450e+000	 1.733319999987733e+000	 1.914087198745640e+001
0	 1.799989999990450e+000	 1.799989999990450e+000	 1.873188793541279e+001
0	 1.799989999990450e+000	 1.866659999993467e+000	 1.810949219295552e+001
0	 1.799989999990450e+000	 1.933329999996684e+000	 1.728475221281977e+001
0	 1.799989999990450e+000	 2.000000000000000e+000	 1.626873544773893e+001
0	 1.866659999993467e+000	 1.333299999983334e+000	 1.754560286248842e+001
0	 1.866659999993467e+000	 1.399969999982150e+000	 1.862578558496814e+001
0	 1.866659999993467e+000	 1.466639999981866e+000	 1.942548371235989e+001
0	 1.866659999993467e+000	 1.533309999982383e+000	 1.995603710943987e+001
0	 1.866659999993467e+000	 1.599979999983600e+000	 2.022878564098247e+001
0	 1.866659999993467e+000	 1.666649999985416e+000	 2.025506917176029e+001
0	 1.866659999993466e+000	 1.733319999987733e+000	 2.004622756654405e+001
0	 1.866659999993466e+000	 1.799989999990449e+000	 1.961360069010264e+001
0	 1.866659999993467e+000	 1.866659999993467e+000	 1.896852840720311e+001
0	 1.866659999993467e+000	 1.933329999996684e+000	 1.812235058261069e+001
0	 1.866659999993467e+000	 2.000000000000000e+000	 1.708640708108877e+001
0	 1.933329999996684e+000	 1.333299999983334e+000	 1.868303767327610e+001
0	 1.933329999996684e+000	 1.399969999982150e+000	 1.973917979317736e+001
0	 1.933329999996684e+000	 1.466639999981867e+000	 2.051480696443624e+001
0	 1.933329999996684e+000	 1.533309999982383e+000	 2.102146011371458e+001
0	 1.933329999996683e+000	 1.599979999983600e+000	 2.127068016767231e+001
0	 1.933329999996683e+000	 1.666649999985416e+000	 2.127400805296755e+001
0	 1.933329999996684e+000	 1.733319999987733e+000	 2.104298469625657e+001
0	 1.933329999996684e+000	 1.799989999990450e+000	 2.058915102419380e+001
0	 1.933329999996684e+000	 1.866659999993467e+000	 1.992404796343183e+001
0	 1.933329999996684e+000	 1.933329999996684e+000	 1.905921644062137e+001
0	 1.933329999996684e+000	 2.000000000000000e+000	 1.800619738241133e+001
0	 2.000000000000000e+000	 1.333299999983334e+000	 1.990276903054172e+001
0	 2.000000000000000e+000	 1.399969999982150e+000	 2.093368589361111e+001
0	 2.000000000000000e+000	 1.466639999981866e+000	 2.168457675565322e+001
0	 2.000000000000000e+000	 1.533309999982383e+000	 2.216711225507086e+001
0	 2.000000000000000e+000	 1.599979999983599e+000	 2.239296303026500e+001
0	 2.000000000000000e+000	 1.666649999985417e+000	 2.237379971963479e+001
0	 2.000000000000000e+000	 1.733319999987733e+000	 2.212129296157747e+001
0	 2.000000000000000e+000	 1.799989999990449e+000	 2.164711339448848e+001
0	 1.999999999999999e+000	 1.866659999993466e+000	 2.096293165676140e+001
0	 2.000000000000000e+000	 1.933329999996684e+000	 2.008041838678792e+001
0	 2.000000000000000e+000	 2.000000000000000e+000	 1.901124422295794e+001
0	 1.333299999983334e+000	 2.000000000000000e+000	 1.482077553261759e+001
0	 1.333299999983334e+000	 2.066670000003317e+000	 1.404498752552139e+001
0	 1.333299999983334e+000	 2.133340000006534e+000	 1.318399760608986e+001
0	 1.333299999983334e+000	 2.200010000009551e+000	 1.225595240660664e+001
0	 1.333299999983334e+000	 2.266680000012267e+000	 1.127899855935458e+001
0	 1.333299999983334e+000	 2.333350000014585e+000	 1.027128269661565e+001
0	 1.333299999983334e+000	 2.400020000016401e+000	 9.250951450671153e+000
0	 1.333299999983334e+000	 2.466690000017617e+000	 8.236151453801458e+000
0	 1.333299999983334e+000	 2.533360000018134e+000	 7.245029338286216e+000
0	 1.333299999983334e+000	 2.600030000017851e+000	 6.295731736404239e+000
0	 1.333299999983334e+000	 2.666700000016667e+000	 5.406405280433543e+000
0	 1.399969999982150e+000	 2.000000000000000e+000	 1.445147688511457e+001
0	 1.399969999982150e+000	 2.066670000003317e+000	 1.359262157695890e+001
0	 1.399969999982150e+000	 2.133340000006534e+000	 1.267137339438653e+001
0	 1.399969999982150e+000	 2.200010000009551e+000	 1.170481450218701e+001
0	 1.399969999982150e+000	 2.266680000012268e+000	 1.071002706514929e+001
0	 1.399969999982150e+000	 2.333350000014585e+000	 9.704093248061655e+000
0	 1.399969999982150e+000	 2.400020000016401e+000	 8.704095215711721e+000
0	 1.399969999982150e+000	 2.466690000017617e+000	 7.727115132886471e+000
0	 1.399969999982150e+000	 2.533360000018133e+000	 6.790235164372263e+000
0	 1.399969999982150e+000	 2.600030000017851e+000	 5.910537474954751e+000
0	 1.399969999982150e+000	 2.666700000016667e+000	 5.105104229419023e+000
0	 1.466639999981866e+000	 2.000000000000000e+000	 1.430233180685190e+001
0	 1.466639999981867e+000	 2.066670000003317e+000	 1.337512229545625e+001
0	 1.466639999981866e+000	 2.133340000006534e+000	 1.240416461104613e+001
0	 1.466639999981866e+000	 2.200010000009550e+000	 1.140546329621556e+001
0	 1.466639999981866e+000	 2.266680000012267e+000	 1.039502289355806e+001
0	 1.466639999981867e+000	 2.333350000014585e+000	 9.388847945666605e+000
0	 1.466639999981866e+000	 2.400020000016401e+000	 8.402942995133650e+000
0	 1.466639999981867e+000	 2.466690000017617e+000	 7.453312584551107e+000
0	 1.466639999981867e+000	 2.533360000018134e+000	 6.555961256510404e+000
0	 1.466639999981866e+000	 2.600030000017849e+000	 5.726893553602395e+000
0	 1.466639999981867e+000	 2.666700000016667e+000	 4.982114018417445e+000
0	 1.533309999982383e+000	 2.000000000000000e+000	 1.435647816907422e+001
0	 1.533309999982383e+000	 2.066670000003316e+000	 1.337388703945229e+001
0	 1.533309999982383e+000	 2.133340000006534e+000	 1.236252706696133e+001
0	 1.533309999982384e+000	 2.200010000009551e+000	 1.133731201729841e+001
0	 1.533309999982383e+000	 2.266680000012267e+000	 1.031315565616005e+001
0	 1.533309999982383e+000	 2.333350000014585e+000	 9.304971749242396e+000
0	 1.533309999982383e+000	 2.400020000016401e+000	 8.327674062241140e+000
0	 1.533309999982383e+000	 2.466690000017617e+000	 7.396176360851552e+000
0	 1.533309999982383e+000	 2.533360000018134e+000	 6.525392410768472e+000
0	 1.533309999982383e+000	 2.600030000017850e+000	 5.730235977686281e+000
0	 1.533309999982383e+000	 2.666700000016666e+000	 5.025620827298983e+000
0	 1.599979999983600e+000	 2.000000000000000e+000	 1.459705384302708e+001
0	 1.599979999983600e+000	 2.066670000003318e+000	 1.357031316738675e+001
0	 1.599979999983600e+000	 2.133340000006534e+000	 1.252661657302581e+001
0	 1.599979999983600e+000	 2.200010000009550e+000	 1.147977389404267e+001
0	 1.599979999983600e+000	 2.266680000012267e+000	 1.044359496453549e+001
0	 1.599979999983600e+000	 2.333350000014584e+000	 9.431889618601957e+000
0	 1.599979999983600e+000	 2.400020000016400e+000	 8.458467690339489e+000
0	 1.599979999983600e+000	 2.466690000017617e+000	 7.537139013845081e+000
0	 1.599979999983600e+000	 2.533360000018134e+000	 6.681713423215371e+000
0	 1.599979999983600e+000	 2.600030000017851e+000	 5.906000752546689e+000
0	 1.599979999983599e+000	 2.666700000016666e+000	 5.223810835934877e+000
0	 1.666649999985416e+000	 2.000000000000000e+000	 1.500719669995699e+001
0	 1.666649999985416e+000	 2.066670000003316e+000	 1.394579803770047e+001
0	 1.666649999985416e+000	 2.133340000006534e+000	 1.287658894013419e+001
0	 1.666649999985416e+000	 2.200010000009550e+000	 1.181226215505654e+001
0	 1.666649999985417e+000	 2.266680000012268e+000	 1.076551043026565e+001
0	 1.666649999985416e+000	 2.333350000014584e+000	 9.749026513559347e+000
0	 1.666649999985417e+000	 2.400020000016402e+000	 8.775503152735102e+000
0	 1.666649999985416e+000	 2.466690000017617e+000	 7.857633095590096e+000
0	 1.666649999985416e+000	 2.533360000018134e+000	 7.008109089921184e+000
0	 1.666649999985416e+000	 2.600030000017850e+000	 6.239623883524921e+000
0	 1.666649999985417e+000	 2.666700000016667e+000	 5.564870224197531e+000
0	 1.733319999987734e+000	 2.000000000000000e+000	 1.557004461111147e+001
0	 1.733319999987733e+000	 2.066670000003317e+000	 1.448173900883524e+001
0	 1.733319999987733e+000	 2.133340000006533e+000	 1.339259997918219e+001
0	 1.733319999987733e+000	 2.200010000009551e+000	 1.231419002894922e+001
0	 1.733319999987733e+000	 2.266680000012267e+000	 1.125807166493295e+001
0	 1.733319999987733e+000	 2.333350000014584e+000	 1.023580739392968e+001
0	 1.733319999987733e+000	 2.400020000016401e+000	 9.258959722735465e+000
0	 1.733319999987733e+000	 2.466690000017618e+000	 8.339091158146072e+000
0	 1.733319999987733e+000	 2.533360000018134e+000	 7.487764206956989e+000
0	 1.733319999987733e+000	 2.600030000017851e+000	 6.716541375963434e+000
0	 1.733319999987733e+000	 2.666700000016666e+000	 6.036985171960321e+000
0	 1.799989999990450e+000	 2.000000000000000e+000	 1.626873544773893e+001
0	 1.799989999990450e+000	 2.066670000003318e+000	 1.515953343923379e+001
0	 1.799989999990450e+000	 2.133340000006533e+000	 1.405480550106657e+001
0	 1.799989999990450e+000	 2.200010000009550e+000	 1.296497074433103e+001
0	 1.799989999990450e+000	 2.266680000012268e+000	 1.190044828012081e+001
0	 1.799989999990450e+000	 2.333350000014585e+000	 1.087165721952917e+001
0	 1.799989999990450e+000	 2.400020000016400e+000	 9.889016673649168e+000
0	 1.799989999990449e+000	 2.466690000017617e+000	 8.962945753573639e+000
0	 1.799989999990450e+000	 2.533360000018134e+000	 8.103863570395046e+000
0	 1.799989999990450e+000	 2.600030000017851e+000	 7.322189235205759e+000
0	 1.799989999990450e+000	 2.666700000016666e+000	 6.628341859097791e+000
0	 1.866659999993467e+000	 2.000000000000000e+000	 1.708640708108877e+001
0	 1.866659999993467e+000	 2.066670000003317e+000	 1.596057868733993e+001
0	 1.866659999993466e+000	 2.133340000006533e+000	 1.484336131668502e+001
0	 1.866659999993467e+000	 2.200010000009550e+000	 1.374401752981332e+001
0	 1.866659999993467e+000	 2.266680000012267e+000	 1.267180988741374e+001
0	 1.866659999993467e+000	 2.333350000014584e+000	 1.163600095017512e+001
0	 1.866659999993467e+000	 2.400020000016401e+000	 1.064585327878591e+001
0	 1.866659999993467e+000	 2.466690000017618e+000	 9.710629433934415e+000
0	 1.866659999993466e+000	 2.533360000018134e+000	 8.839591976308721e+000
0	 1.866659999993467e+000	 2.600030000017850e+000	 8.042003466596583e+000
0	 1.866659999993467e+000	 2.666700000016666e+000	 7.327126465485591e+000
0	 1.933329999996684e+000	 2.000000000000000e+000	 1.800619738241133e+001
0	 1.933329999996684e+000	 2.066670000003317e+000	 1.686627211159839e+001
0	 1.933329999996684e+000	 2.133340000006534e+000	 1.573842323693636e+001
0	 1.933329999996684e+000	 2.200010000009551e+000	 1.463074361400839e+001
0	 1.933329999996684e+000	 2.266680000012268e+000	 1.355132609839733e+001
0	 1.933329999996684e+000	 2.333350000014585e+000	 1.250826354568589e+001
0	 1.933329999996684e+000	 2.400020000016400e+000	 1.150964881145646e+001
0	 1.933329999996684e+000	 2.466690000017618e+000	 1.056357475129132e+001
0	 1.933329999996684e+000	 2.533360000018134e+000	 9.678134220772432e+000
0	 1.933329999996683e+000	 2.600030000017850e+000	 8.861420075481595e+000
0	 1.933329999996684e+000	 2.666700000016667e+000	 8.121525171000403e+000
0	 2.000000000000000e+000	 2.000000000000000e+000	 1.901124422295794e+001
0	 2.000000000000000e+000	 2.066670000003318e+000	 1.785801107045491e+001
0	 2.000000000000000e+000	 2.133340000006534e+000	 1.672014707272034e+001
0	 2.000000000000000e+000	 2.200010000009551e+000	 1.560456222552970e+001
0	 2.000000000000000e+000	 2.266680000012268e+000	 1.451816652465824e+001
0	 2.000000000000000e+000	 2.333350000014584e+000	 1.346786996588096e+001
0	 2.000000000000000e+000	 2.400020000016400e+000	 1.246058254497272e+001
0	 2.000000000000000e+000	 2.466690000017618e+000	 1.150321425770816e+001
0	 2.000000000000000e+000	 2.533360000018134e+000	 1.060267509986173e+001
0	 1.999999999999999e+000	 2.600030000017850e+000	 9.765875067207663e+000
0	 2.000000000000000e+000	 2.666700000016667e+000	 8.999724155520026e+000
0	 1.333299999983334e+000	 2.666700000016667e+000	 5.406405280433543e+000
0	 1.333299999983334e+000	 2.733360000014532e+000	 4.645616572625038e+000
0	 1.333299999983334e+000	 2.800020000011599e+000	 4.061312377684061e+000
0	 1.333299999983334e+000	 2.866680000008067e+000	 3.641093533773880e+000
0	 1.333299999983334e+000	 2.933340000004133e+000	 3.372560879057257e+000
0	 1.333299999983334e+000	 3.000000000000000e+000	 3.243315251696647e+000
0	 1.333299999983334e+000	 3.066659999995868e+000	 3.240957489854097e+000
0	 1.333299999983334e+000	 3.133319999991933e+000	 3.353088431691264e+000
0	 1.333299999983334e+000	 3.199979999988401e+000	 3.567308915369402e+000
0	 1.333299999983334e+000	 3.266639999985468e+000	 3.871219779049376e+000
0	 1.333299999983334e+000	 3.333299999983333e+000	 4.252421860891708e+000
0	 1.399969999982150e+000	 2.666700000016667e+000	 5.105104229419023e+000
0	 1.399969999982150e+000	 2.733360000014533e+000	 4.427832989931073e+000
0	 1.399969999982150e+000	 2.800020000011600e+000	 3.912954432882334e+000
0	 1.399969999982150e+000	 2.866680000008066e+000	 3.548393550373564e+000
0	 1.399969999982150e+000	 2.933340000004133e+000	 3.322075334505197e+000
0	 1.399969999982150e+000	 3.000000000000000e+000	 3.221924777377492e+000
0	 1.399969999982150e+000	 3.066659999995867e+000	 3.235866871090490e+000
0	 1.399969999982150e+000	 3.133319999991934e+000	 3.351826607744140e+000
0	 1.399969999982150e+000	 3.199979999988401e+000	 3.557728979438048e+000
0	 1.399969999982150e+000	 3.266639999985468e+000	 3.841498978271668e+000
0	 1.399969999982150e+000	 3.333299999983334e+000	 4.191061596344307e+000
0	 1.466639999981867e+000	 2.666700000016667e+000	 4.982114018417441e+000
0	 1.466639999981867e+000	 2.733360000014534e+000	 4.364358892903262e+000
0	 1.466639999981867e+000	 2.800020000011600e+000	 3.897675067755060e+000
0	 1.466639999981866e+000	 2.866680000008065e+000	 3.570346828267162e+000
0	 1.466639999981866e+000	 2.933340000004133e+000	 3.370658459733761e+000
0	 1.466639999981866e+000	 3.000000000000000e+000	 3.286894247448988e+000
0	 1.466639999981866e+000	 3.066659999995866e+000	 3.307338476706995e+000
0	 1.466639999981866e+000	 3.133319999991934e+000	 3.420275432801770e+000
0	 1.466639999981866e+000	 3.199979999988401e+000	 3.613989401027258e+000
0	 1.466639999981867e+000	 3.266639999985468e+000	 3.876764666677284e+000
0	 1.466639999981866e+000	 3.333299999983333e+000	 4.196885515045675e+000
0	 1.533309999982383e+000	 2.666700000016666e+000	 5.025620827298983e+000
0	 1.533309999982383e+000	 2.733360000014532e+000	 4.446190059342737e+000
0	 1.533309999982383e+000	 2.800020000011600e+000	 4.008900439426373e+000
0	 1.533309999982383e+000	 2.866680000008067e+000	 3.702430685293926e+000
0	 1.533309999982383e+000	 2.933340000004133e+000	 3.515459514689489e+000
0	 1.533309999982383e+000	 3.000000000000000e+000	 3.436665645357131e+000
0	 1.533309999982383e+000	 3.066659999995868e+000	 3.454727795040938e+000
0	 1.533309999982383e+000	 3.133319999991934e+000	 3.558324681484992e+000
0	 1.533309999982383e+000	 3.199979999988401e+000	 3.736135022433354e+000
0	 1.533309999982383e+000	 3.266639999985467e+000	 3.976837535630128e+000
0	 1.533309999982383e+000	 3.333299999983333e+000	 4.269110938819352e+000
0	 1.599979999983599e+000	 2.666700000016666e+000	 5.223810835934877e+000
0	 1.599979999983600e+000	 2.733360000014532e+000	 4.664322267051610e+000
0	 1.599979999983600e+000	 2.800020000011600e+000	 4.240056705021392e+000
0	 1.599979999983599e+000	 2.866680000008067e+000	 3.940122439294175e+000
0	 1.599979999983599e+000	 2.933340000004134e+000	 3.753627759319976e+000
0	 1.599979999983600e+000	 3.000000000000001e+000	 3.669680954548738e+000
0	 1.599979999983600e+000	 3.066659999995868e+000	 3.677390314430529e+000
0	 1.599979999983599e+000	 3.133319999991933e+000	 3.765864128415412e+000
0	 1.599979999983600e+000	 3.199979999988402e+000	 3.924210685953462e+000
0	 1.599979999983600e+000	 3.266639999985469e+000	 4.141538276494817e+000
0	 1.599979999983600e+000	 3.333299999983334e+000	 4.406955189489604e+000
0	 1.666649999985417e+000	 2.666700000016667e+000	 5.564870224197531e+000
0	 1.666649999985416e+000	 2.733360000014533e+000	 5.009751293833098e+000
0	 1.666649999985417e+000	 2.800020000011600e+000	 4.584570021666398e+000
0	 1.666649999985416e+000	 2.866680000008067e+000	 4.278899408109322e+000
0	 1.666649999985416e+000	 2.933340000004133e+000	 4.082312453573774e+000
0	 1.666649999985416e+000	 3.000000000000000e+000	 3.984382158471671e+000
0	 1.666649999985417e+000	 3.066659999995867e+000	 3.974681523214988e+000
0	 1.666649999985416e+000	 3.133319999991935e+000	 4.042783548215596e+000
0	 1.666649999985417e+000	 3.199979999988401e+000	 4.178261233885575e+000
0	 1.666649999985416e+000	 3.266639999985467e+000	 4.370687580636812e+000
0	 1.666649999985416e+000	 3.333299999983334e+000	 4.609635588881377e+000
0	 1.733319999987733e+000	 2.666700000016666e+000	 6.036985171960321e+000
0	 1.733319999987733e+000	 2.733360000014533e+000	 5.473472917491481e+000
0	 1.733319999987733e+000	 2.800020000011601e+000	 5.035866546488656e+000
0	 1.733319999987733e+000	 2.866680000008067e+000	 4.714238909581692e+000
0	 1.733319999987733e+000	 2.933340000004133e+000	 4.498662857400458e+000
0	 1.733319999987733e+000	 3.000000000000000e+000	 4.379211240574726e+000
0	 1.733319999987734e+000	 3.066659999995868e+000	 4.345956909734332e+000
0	 1.733319999987733e+000	 3.133319999991933e+000	 4.388972715508990e+000
0	 1.733319999987733e+000	 3.199979999988401e+000	 4.498331508528443e+000
0	 1.733319999987733e+000	 3.266639999985468e+000	 4.664106139422374e+000
0	 1.733319999987733e+000	 3.333299999983334e+000	 4.876369458820461e+000
0	 1.799989999990450e+000	 2.666700000016666e+000	 6.628341859097791e+000
0	 1.799989999990450e+000	 2.733360000014533e+000	 6.046482915832183e+000
0	 1.799989999990450e+000	 2.800020000011600e+000	 5.587372436616537e+000
0	 1.799989999990449e+000	 2.866680000008066e+000	 5.241618261554745e+000
0	 1.799989999990450e+000	 2.933340000004133e+000	 4.999828230750554e+000
0	 1.799989999990450e+000	 3.000000000000001e+000	 4.852610184307679e+000
0	 1.799989999990450e+000	 3.066659999995867e+000	 4.790571962329608e+000
0	 1.799989999990450e+000	 3.133319999991935e+000	 4.804321404919838e+000
0	 1.799989999990449e+000	 3.199979999988400e+000	 4.884466352181718e+000
0	 1.799989999990450e+000	 3.266639999985469e+000	 5.021614644218461e+000
0	 1.799989999990450e+000	 3.333299999983335e+000	 5.206374121133313e+000
0	 1.866659999993467e+000	 2.666700000016666e+000	 7.327126465485595e+000
0	 1.866659999993467e+000	 2.733360000014533e+000	 6.719777066661550e+000
0	 1.866659999993467e+000	 2.800020000011600e+000	 6.232513849179382e+000
0	 1.866659999993467e+000	 2.866680000008067e+000	 5.856514781872869e+000
0	 1.866659999993467e+000	 2.933340000004134e+000	 5.582957833575680e+000
0	 1.866659999993467e+000	 3.000000000000000e+000	 5.403020973121226e+000
0	 1.866659999993467e+000	 3.066659999995868e+000	 5.307882169342793e+000
0	 1.866659999993467e+000	 3.133319999991935e+000	 5.288719391073370e+000
0	 1.866659999993466e+000	 3.199979999988400e+000	 5.336710607145884e+000
0	 1.866659999993467e+000	 3.266639999985467e+000	 5.443033786392947e+000
0	 1.866659999993467e+000	 3.333299999983333e+000	 5.598866897647090e+000
0	 1.933329999996684e+000	 2.666700000016667e+000	 8.121525171000403e+000
0	 1.933329999996684e+000	 2.733360000014533e+000	 7.484351147787194e+000
0	 1.933329999996684e+000	 2.800020000011600e+000	 6.964716941307680e+000
0	 1.933329999996683e+000	 2.866680000008066e+000	 6.554405788381578e+000
0	 1.933329999996684e+000	 2.933340000004134e+000	 6.245200925828327e+000
0	 1.933329999996684e+000	 3.000000000000001e+000	 6.028885590467086e+000
0	 1.933329999996684e+000	 3.066659999995867e+000	 5.897243019116667e+000
0	 1.933329999996683e+000	 3.133319999991934e+000	 5.842056448595628e+000
0	 1.933329999996683e+000	 3.199979999988400e+000	 5.855109115722229e+000
0	 1.933329999996684e+000	 3.266639999985469e+000	 5.928184257314374e+000
0	 1.933329999996684e+000	 3.333299999983334e+000	 6.053065110189751e+000
0	 2.000000000000000e+000	 2.666700000016667e+000	 8.999724155520024e+000
0	 2.000000000000000e+000	 2.733360000014533e+000	 8.331200937017629e+000
0	 2.000000000000000e+000	 2.800020000011600e+000	 7.777407870132882e+000
0	 2.000000000000000e+000	 2.866680000008066e+000	 7.330768598927325e+000
0	 2.000000000000000e+000	 2.933340000004133e+000	 6.983706767462083e+000
0	 2.000000000000000e+000	 3.000000000000001e+000	 6.728646019797896e+000
0	 2.000000000000000e+000	 3.066659999995868e+000	 6.558009999995093e+000
0	 2.000000000000000e+000	 3.133319999991934e+000	 6.464222352113586e+000
0	 2.000000000000000e+000	 3.199979999988401e+000	 6.439706720212881e+000
0	 2.000000000000000e+000	 3.266639999985468e+000	 6.476886748352118e+000
0	 1.999999999999999e+000	 3.333299999983333e+000	 6.568186080589955e+000
0	 1.333299999983334e+000	 3.333299999983333e+000	 4.252421860891708e+000
0	 1.333299999983334e+000	 3.399969999982150e+000	 4.696377827202731e+000
0	 1.333299999983334e+000	 3.466639999981866e+000	 5.186678037072163e+000
0	 1.333299999983334e+000	 3.533309999982381e+000	 5.708301958130932e+000
0	 1.333299999983334e+000	 3.599979999983598e+000	 6.246229058010130e+000
0	 1.333299999983334e+000	 3.666649999985415e+000	 6.785438804341011e+000
0	 1.333299999983334e+000	 3.733319999987731e+000	 7.310910664755048e+000
0	 1.333299999983334e+000	 3.799989999990448e+000	 7.807624106883781e+000
0	 1.333299999983334e+000	 3.866659999993465e+000	 8.260558598358962e+000
0	 1.333299999983334e+000	 3.933329999996681e+000	 8.654693606812536e+000
0	 1.333299999983334e+000	 4.000000000000001e+000	 8.975008599876556e+000
0	 1.399969999982150e+000	 3.333299999983334e+000	 4.191061596344307e+000
0	 1.399969999982150e+000	 3.399969999982150e+000	 4.600633059512948e+000
0	 1.399969999982150e+000	 3.466639999981866e+000	 5.062436318482961e+000
0	 1.399969999982150e+000	 3.533309999982384e+000	 5.561576764923720e+000
0	 1.399969999982150e+000	 3.599979999983599e+000	 6.083159790504769e+000
0	 1.399969999982150e+000	 3.666649999985415e+000	 6.612290786895933e+000
0	 1.399969999982150e+000	 3.733319999987732e+000	 7.134075145767218e+000
0	 1.399969999982150e+000	 3.799989999990448e+000	 7.633618258788862e+000
0	 1.399969999982150e+000	 3.866659999993465e+000	 8.096025517631347e+000
0	 1.399969999982150e+000	 3.933329999996682e+000	 8.506402313965308e+000
0	 1.399969999982150e+000	 4.000000000000001e+000	 8.849854039461690e+000
0	 1.466639999981866e+000	 3.333299999983333e+000	 4.196885515045675e+000
0	 1.466639999981866e+000	 3.399969999982150e+000	 4.575027443664634e+000
0	 1.466639999981867e+000	 3.466639999981867e+000	 5.009783167448996e+000
0	 1.466639999981867e+000	 3.533309999982383e+000	 5.486468013068940e+000
0	 1.466639999981866e+000	 3.599979999983598e+000	 5.990397307194815e+000
0	 1.466639999981867e+000	 3.666649999985415e+000	 6.506886376497315e+000
0	 1.466639999981867e+000	 3.733319999987731e+000	 7.021250547647381e+000
0	 1.466639999981866e+000	 3.799989999990449e+000	 7.518805147316210e+000
0	 1.466639999981867e+000	 3.866659999993465e+000	 7.984865502175281e+000
0	 1.466639999981867e+000	 3.933329999996681e+000	 8.404746938896331e+000
0	 1.466639999981866e+000	 4.000000000000001e+000	 8.763764784151361e+000
0	 1.533309999982383e+000	 3.333299999983333e+000	 4.269110938819352e+000
0	 1.533309999982383e+000	 3.399969999982150e+000	 4.618048517858588e+000
0	 1.533309999982382e+000	 3.466639999981866e+000	 5.026602966908882e+000
0	 1.533309999982383e+000	 3.533309999982382e+000	 5.480383558603531e+000
0	 1.533309999982383e+000	 3.599979999983599e+000	 5.964999565576076e+000
0	 1.533309999982383e+000	 3.666649999985414e+000	 6.466060260460386e+000
0	 1.533309999982383e+000	 3.733319999987732e+000	 6.969174915890710e+000
0	 1.533309999982383e+000	 3.799989999990447e+000	 7.459952804501440e+000
0	 1.533309999982383e+000	 3.866659999993464e+000	 7.924003198927382e+000
0	 1.533309999982383e+000	 3.933329999996682e+000	 8.346935371803651e+000
0	 1.533309999982383e+000	 4.000000000000001e+000	 8.714358595765640e+000
0	 1.599979999983600e+000	 3.333299999983334e+000	 4.406955189489604e+000
0	 1.599979999983600e+000	 3.399969999982150e+000	 4.728183820296270e+000
0	 1.599979999983600e+000	 3.466639999981866e+000	 5.110780099801836e+000
0	 1.599979999983600e+000	 3.533309999982382e+000	 5.540731257565005e+000
0	 1.599979999983600e+000	 3.599979999983598e+000	 6.004024523144910e+000
0	 1.599979999983600e+000	 3.666649999985415e+000	 6.486647126100918e+000
0	 1.599979999983600e+000	 3.733319999987732e+000	 6.974586295992761e+000
0	 1.599979999983600e+000	 3.799989999990449e+000	 7.453829262380523e+000
0	 1.599979999983600e+000	 3.866659999993466e+000	 7.910363254824572e+000
0	 1.599979999983600e+000	 3.933329999996681e+000	 8.330175502885648e+000
0	 1.599979999983600e+000	 4.000000000000001e+000	 8.699253236124800e+000
0	 1.666649999985416e+000	 3.333299999983334e+000	 4.609635588881377e+000
0	 1.666649999985416e+000	 3.399969999982149e+000	 4.903920889179807e+000
0	 1.666649999985416e+000	 3.466639999981866e+000	 5.260198949067654e+000
0	 1.666649999985417e+000	 3.533309999982383e+000	 5.664918965991491e+000
0	 1.666649999985416e+000	 3.599979999983599e+000	 6.104530137398188e+000
0	 1.666649999985416e+000	 3.666649999985415e+000	 6.565481660735012e+000
0	 1.666649999985416e+000	 3.733319999987732e+000	 7.034222733449589e+000
0	 1.666649999985416e+000	 3.799989999990448e+000	 7.497202552989841e+000
0	 1.666649999985416e+000	 3.866659999993464e+000	 7.940870316804037e+000
0	 1.666649999985417e+000	 3.933329999996682e+000	 8.351675222340866e+000
0	 1.666649999985417e+000	 4.000000000000000e+000	 8.716066467049304e+000
0	 1.733319999987733e+000	 3.333299999983334e+000	 4.876369458820465e+000
0	 1.733319999987733e+000	 3.399969999982150e+000	 5.143747262712068e+000
0	 1.733319999987733e+000	 3.466639999981865e+000	 5.472743897646874e+000
0	 1.733319999987733e+000	 3.533309999982382e+000	 5.850354539921593e+000
0	 1.733319999987733e+000	 3.599979999983599e+000	 6.263574365833264e+000
0	 1.733319999987733e+000	 3.666649999985415e+000	 6.699398551679325e+000
0	 1.733319999987733e+000	 3.733319999987731e+000	 7.144822273757542e+000
0	 1.733319999987733e+000	 3.799989999990449e+000	 7.586840708366029e+000
0	 1.733319999987733e+000	 3.866659999993465e+000	 8.012449031803278e+000
0	 1.733319999987734e+000	 3.933329999996683e+000	 8.408642420368150e+000
0	 1.733319999987733e+000	 4.000000000000000e+000	 8.762416050359843e+000
0	 1.799989999990450e+000	 3.333299999983335e+000	 5.206374121133310e+000
0	 1.799989999990450e+000	 3.399969999982149e+000	 5.446150479096511e+000
0	 1.799989999990450e+000	 3.466639999981866e+000	 5.746299328480541e+000
0	 1.799989999990450e+000	 3.533309999982382e+000	 6.094445835394543e+000
0	 1.799989999990450e+000	 3.599979999983598e+000	 6.478215165948019e+000
0	 1.799989999990450e+000	 3.666649999985415e+000	 6.885232486250893e+000
0	 1.799989999990450e+000	 3.733319999987731e+000	 7.303122962413399e+000
0	 1.799989999990450e+000	 3.799989999990448e+000	 7.719511760546156e+000
0	 1.799989999990451e+000	 3.866659999993465e+000	 8.122024046760100e+000
0	 1.799989999990450e+000	 3.933329999996681e+000	 8.498284987166594e+000
0	 1.799989999990450e+000	 4.000000000000000e+000	 8.835919747877302e+000
0	 1.866659999993467e+000	 3.333299999983333e+000	 5.598866897647090e+000
0	 1.866659999993467e+000	 3.399969999982150e+000	 5.809618076537355e+000
0	 1.866659999993467e+000	 3.466639999981866e+000	 6.078749624510381e+000
0	 1.866659999993467e+000	 3.533309999982382e+000	 6.394600708450119e+000
0	 1.866659999993467e+000	 3.599979999983599e+000	 6.745510495240884e+000
0	 1.866659999993467e+000	 3.666649999985415e+000	 7.119818151767292e+000
0	 1.866659999993467e+000	 3.733319999987733e+000	 7.505862844914400e+000
0	 1.866659999993466e+000	 3.799989999990448e+000	 7.891983741567580e+000
0	 1.866659999993467e+000	 3.866659999993466e+000	 8.266520008612584e+000
0	 1.866659999993467e+000	 3.933329999996682e+000	 8.617810812935499e+000
0	 1.866659999993467e+000	 4.000000000000001e+000	 8.934195321422806e+000
0	 1.933329999996684e+000	 3.333299999983334e+000	 6.053065110189754e+000
0	 1.933329999996684e+000	 3.399969999982150e+000	 6.232637593239435e+000
0	 1.933329999996684e+000	 3.466639999981867e+000	 6.467979168678749e+000
0	 1.933329999996684e+000	 3.533309999982382e+000	 6.748227015128714e+000
0	 1.933329999996684e+000	 3.599979999983598e+000	 7.062518311210696e+000
0	 1.933329999996684e+000	 3.666649999985414e+000	 7.399990235546462e+000
0	 1.933329999996684e+000	 3.733319999987732e+000	 7.749779966758091e+000
0	 1.933329999996684e+000	 3.799989999990448e+000	 8.101024683468031e+000
0	 1.933329999996684e+000	 3.866659999993465e+000	 8.442861564299104e+000
0	 1.933329999996684e+000	 3.933329999996681e+000	 8.764427787874471e+000
0	 1.933329999996684e+000	 4.000000000000000e+000	 9.054860532817635e+000
0	 1.999999999999999e+000	 3.333299999983333e+000	 6.568186080589955e+000
0	 2.000000000000000e+000	 3.399969999982150e+000	 6.713696567408331e+000
0	 2.000000000000000e+000	 3.466639999981866e+000	 6.911872343928616e+000
0	 2.000000000000000e+000	 3.533309999982383e+000	 7.152732611471214e+000
0	 2.000000000000000e+000	 3.599979999983598e+000	 7.426296571356931e+000
0	 2.000000000000000e+000	 3.666649999985415e+000	 7.722583424906859e+000
0	 2.000000000000000e+000	 3.733319999987732e+000	 8.031612373442467e+000
0	 2.000000000000000e+000	 3.799989999990448e+000	 8.343402618285584e+000
0	 2.000000000000000e+000	 3.866659999993464e+000	 8.647973360758360e+000
0	 2.000000000000000e+000	 3.933329999996682e+000	 8.935343802183311e+000
0	 2.000000000000000e+000	 4.000000000000001e+000	 9.195533143883310e+000
0	 1.333299999983334e+000	 4.000000000000001e+000	 8.975008599876556e+000
0	 1.333299999983334e+000	 4.066670000003317e+000	 9.215788973255730e+000
0	 1.333299999983334e+000	 4.133340000006533e+000	 9.388193332909903e+000
0	 1.333299999983334e+000	 4.200010000009550e+000	 9.502510961854187e+000
0	 1.333299999983334e+000	 4.266680000012266e+000	 9.569031143103898e+000
0	 1.333299999983334e+000	 4.333350000014582e+000	 9.598043159674671e+000
0	 1.333299999983334e+000	 4.400020000016401e+000	 9.599836294582344e+000
0	 1.333299999983334e+000	 4.466690000017616e+000	 9.584699830843015e+000
0	 1.333299999983334e+000	 4.533360000018133e+000	 9.562923051473060e+000
0	 1.333299999983334e+000	 4.600030000017849e+000	 9.544795239489114e+000
0	 1.333299999983334e+000	 4.666700000016666e+000	 9.540605677908024e+000
0	 1.399969999982150e+000	 4.000000000000001e+000	 8.849854039461690e+000
0	 1.399969999982150e+000	 4.066670000003315e+000	 9.116334232687107e+000
0	 1.399969999982150e+000	 4.133340000006533e+000	 9.312489545991230e+000
0	 1.399969999982150e+000	 4.200010000009550e+000	 9.448465041719743e+000
0	 1.399969999982150e+000	 4.266680000012267e+000	 9.534405782218574e+000
0	 1.399969999982150e+000	 4.333350000014584e+000	 9.580456829833919e+000
0	 1.399969999982150e+000	 4.400020000016400e+000	 9.596763246912158e+000
0	 1.399969999982150e+000	 4.466690000017616e+000	 9.593470095799917e+000
0	 1.399969999982150e+000	 4.533360000018131e+000	 9.580722438844095e+000
0	 1.399969999982150e+000	 4.600030000017849e+000	 9.568665338391764e+000
0	 1.399969999982150e+000	 4.666700000016666e+000	 9.567443856790282e+000
0	 1.466639999981866e+000	 4.000000000000001e+000	 8.763764784151361e+000
0	 1.466639999981866e+000	 4.066670000003317e+000	 9.048451444923941e+000
0	 1.466639999981866e+000	 4.133340000006534e+000	 9.261771233458287e+000
0	 1.466639999981866e+000	 4.200010000009550e+000	 9.413687334317780e+000
0	 1.466639999981867e+000	 4.266680000012266e+000	 9.514162932065965e+000
0	 1.466639999981867e+000	 4.333350000014583e+000	 9.573161211266660e+000
0	 1.466639999981866e+000	 4.400020000016400e+000	 9.600645356483845e+000
0	 1.466639999981866e+000	 4.466690000017616e+000	 9.606578552281757e+000
0	 1.466639999981867e+000	 4.533360000018133e+000	 9.600923983224808e+000
0	 1.466639999981867e+000	 4.600030000017849e+000	 9.593644833877676e+000
0	 1.466639999981866e+000	 4.666700000016668e+000	 9.594704288805211e+000
0	 1.533309999982383e+000	 4.000000000000001e+000	 8.714358595765642e+000
0	 1.533309999982383e+000	 4.066670000003316e+000	 9.010207882829894e+000
0	 1.533309999982383e+000	 4.133340000006533e+000	 9.234507829701245e+000
0	 1.533309999982383e+000	 4.200010000009551e+000	 9.397002086047701e+000
0	 1.533309999982383e+000	 4.266680000012266e+000	 9.507434301537563e+000
0	 1.533309999982383e+000	 4.333350000014583e+000	 9.575548125839283e+000
0	 1.533309999982383e+000	 4.400020000016398e+000	 9.611087208621512e+000
0	 1.533309999982383e+000	 4.466690000017616e+000	 9.623795199553129e+000
0	 1.533309999982383e+000	 4.533360000018134e+000	 9.623415748303183e+000
0	 1.533309999982383e+000	 4.600030000017848e+000	 9.619692504540943e+000
0	 1.533309999982383e+000	 4.666700000016665e+000	 9.622369117935877e+000
0	 1.599979999983600e+000	 4.000000000000001e+000	 8.699253236124799e+000
0	 1.599979999983600e+000	 4.066670000003318e+000	 8.999670819268877e+000
0	 1.599979999983600e+000	 4.133340000006534e+000	 9.229168769110354e+000
0	 1.599979999983599e+000	 4.200010000009549e+000	 9.397233543309035e+000
0	 1.599979999983600e+000	 4.266680000012267e+000	 9.513351599524921e+000
0	 1.599979999983599e+000	 4.333350000014583e+000	 9.587009395418210e+000
0	 1.599979999983600e+000	 4.400020000016400e+000	 9.627693388649277e+000
0	 1.599979999983600e+000	 4.466690000017616e+000	 9.644890036878687e+000
0	 1.599979999983599e+000	 4.533360000018131e+000	 9.648085797767177e+000
0	 1.599979999983600e+000	 4.600030000017849e+000	 9.646767128975698e+000
0	 1.599979999983599e+000	 4.666700000016665e+000	 9.650420488165391e+000
0	 1.666649999985417e+000	 4.000000000000000e+000	 8.716066467049304e+000
0	 1.666649999985417e+000	 4.066670000003318e+000	 9.014907527104898e+000
0	 1.666649999985416e+000	 4.133340000006532e+000	 9.244223486076066e+000
0	 1.666649999985417e+000	 4.200010000009550e+000	 9.413205952501395e+000
0	 1.666649999985416e+000	 4.266680000012267e+000	 9.531046534919710e+000
0	 1.666649999985417e+000	 4.333350000014584e+000	 9.606936841869970e+000
0	 1.666649999985417e+000	 4.400020000016401e+000	 9.650068481891321e+000
0	 1.666649999985416e+000	 4.466690000017616e+000	 9.669633063523101e+000
0	 1.666649999985417e+000	 4.533360000018133e+000	 9.674822195304783e+000
0	 1.666649999985417e+000	 4.600030000017848e+000	 9.674827485776083e+000
0	 1.666649999985416e+000	 4.666700000016666e+000	 9.678840543476834e+000
0	 1.733319999987733e+000	 4.000000000000000e+000	 8.762416050359843e+000
0	 1.733319999987733e+000	 4.066670000003316e+000	 9.053985279202179e+000
0	 1.733319999987733e+000	 4.133340000006534e+000	 9.278141414988909e+000
0	 1.733319999987733e+000	 4.200010000009549e+000	 9.443743560024535e+000
0	 1.733319999987733e+000	 4.266680000012268e+000	 9.559650816613665e+000
0	 1.733319999987733e+000	 4.333350000014582e+000	 9.634722287061125e+000
0	 1.733319999987734e+000	 4.400020000016401e+000	 9.677817073671877e+000
0	 1.733319999987733e+000	 4.466690000017617e+000	 9.697794278751072e+000
0	 1.733319999987733e+000	 4.533360000018132e+000	 9.703513004604032e+000
0	 1.733319999987733e+000	 4.600030000017849e+000	 9.703832353536230e+000
0	 1.733319999987733e+000	 4.666700000016666e+000	 9.707611427853330e+000
0	 1.799989999990450e+000	 4.000000000000000e+000	 8.835919747877302e+000
0	 1.799989999990450e+000	 4.066670000003317e+000	 9.114971348425094e+000
0	 1.799989999990451e+000	 4.133340000006535e+000	 9.329391990239623e+000
0	 1.799989999990450e+000	 4.200010000009550e+000	 9.487670612278285e+000
0	 1.799989999990450e+000	 4.266680000012265e+000	 9.598296153498602e+000
0	 1.799989999990450e+000	 4.333350000014583e+000	 9.669757552858290e+000
0	 1.799989999990450e+000	 4.400020000016399e+000	 9.710543749315205e+000
0	 1.799989999990450e+000	 4.466690000017616e+000	 9.729143681827365e+000
0	 1.799989999990450e+000	 4.533360000018132e+000	 9.734046289352962e+000
0	 1.799989999990450e+000	 4.600030000017848e+000	 9.733740510850330e+000
0	 1.799989999990450e+000	 4.666700000016666e+000	 9.736715285277992e+000
0	 1.866659999993467e+000	 4.000000000000001e+000	 8.934195321422802e+000
0	 1.866659999993467e+000	 4.066670000003317e+000	 9.195933007638194e+000
0	 1.866659999993467e+000	 4.133340000006533e+000	 9.396444646219020e+000
0	 1.866659999993467e+000	 4.200010000009551e+000	 9.543811355662601e+000
0	 1.866659999993467e+000	 4.266680000012267e+000	 9.646114254466440e+000
0	 1.866659999993467e+000	 4.333350000014582e+000	 9.711434461128206e+000
0	 1.866659999993467e+000	 4.400020000016399e+000	 9.747853094145647e+000
0	 1.866659999993467e+000	 4.466690000017616e+000	 9.763451272016736e+000
0	 1.866659999993467e+000	 4.533360000018133e+000	 9.766310113239635e+000
0	 1.866659999993467e+000	 4.600030000017848e+000	 9.764510736312555e+000
0	 1.866659999993467e+000	 4.666700000016665e+000	 9.766134259733940e+000
0	 1.933329999996684e+000	 4.000000000000000e+000	 9.054860532817635e+000
0	 1.933329999996684e+000	 4.066670000003317e+000	 9.294937529706193e+000
0	 1.933329999996684e+000	 4.133340000006534e+000	 9.477768817318065e+000
0	 1.933329999996684e+000	 4.200010000009550e+000	 9.610990036577540e+000
0	 1.933329999996684e+000	 4.266680000012267e+000	 9.702236828409180e+000
0	 1.933329999996684e+000	 4.333350000014583e+000	 9.759144833737590e+000
0	 1.933329999996684e+000	 4.400020000016400e+000	 9.789349693487560e+000
0	 1.933329999996683e+000	 4.466690000017615e+000	 9.800487048584046e+000
0	 1.933329999996683e+000	 4.533360000018132e+000	 9.800192539952150e+000
0	 1.933329999996683e+000	 4.600030000017848e+000	 9.796101808517101e+000
0	 1.933329999996683e+000	 4.666700000016665e+000	 9.795850495204306e+000
0	 2.000000000000000e+000	 4.000000000000001e+000	 9.195533143883308e+000
0	 2.000000000000000e+000	 4.066670000003317e+000	 9.410052187493994e+000
0	 2.000000000000000e+000	 4.133340000006533e+000	 9.571833937927865e+000
0	 2.000000000000000e+000	 4.200010000009550e+000	 9.688030901423311e+000
0	 2.000000000000000e+000	 4.266680000012267e+000	 9.765795584218878e+000
0	 2.000000000000000e+000	 4.333350000014583e+000	 9.812280492553292e+000
0	 2.000000000000000e+000	 4.400020000016400e+000	 9.834638132665361e+000
0	 2.000000000000000e+000	 4.466690000017617e+000	 9.840021010794104e+000
0	 2.000000000000000e+000	 4.533360000018132e+000	 9.835581633178620e+000
0	 2.000000000000000e+000	 4.600030000017848e+000	 9.828472506058191e+000
0	 2.000000000000000e+000	 4.666700000016665e+000	 9.825846135672226e+000
0	 1.333299999983334e+000	 4.666700000016666e+000	 9.540605677908026e+000
0	 1.333299999983334e+000	 4.733360000014533e+000	 9.546173011893417e+000
0	 1.333299999983334e+000	 4.800020000011600e+000	 9.550745148757372e+000
0	 1.333299999983334e+000	 4.866680000008067e+000	 9.554752470683265e+000
0	 1.333299999983334e+000	 4.933340000004134e+000	 9.558625359854471e+000
0	 1.333299999983334e+000	 5.000000000000000e+000	 9.562794198454283e+000
0	 1.333299999983334e+000	 5.066659999995867e+000	 9.567689368665960e+000
0	 1.333299999983334e+000	 5.133319999991933e+000	 9.573741252672713e+000
0	 1.333299999983334e+000	 5.199979999988399e+000	 9.581380232657679e+000
0	 1.333299999983334e+000	 5.266639999985466e+000	 9.591036690803987e+000
0	 1.333299999983334e+000	 5.333299999983335e+000	 9.603141009294696e+000
0	 1.399969999982150e+000	 4.666700000016666e+000	 9.567443856790284e+000
0	 1.399969999982150e+000	 4.733360000014534e+000	 9.573992902159151e+000
0	 1.399969999982150e+000	 4.800020000011600e+000	 9.578850080656681e+000
0	 1.399969999982150e+000	 4.866680000008065e+000	 9.582561091752245e+000
0	 1.399969999982149e+000	 4.933340000004133e+000	 9.585671634915151e+000
0	 1.399969999982150e+000	 5.000000000000000e+000	 9.588727409614631e+000
0	 1.399969999982150e+000	 5.066659999995865e+000	 9.592274115319890e+000
0	 1.399969999982150e+000	 5.133319999991933e+000	 9.596857451500105e+000
0	 1.399969999982150e+000	 5.199979999988397e+000	 9.603023117624360e+000
0	 1.399969999982150e+000	 5.266639999985467e+000	 9.611316813161732e+000
0	 1.399969999982150e+000	 5.333299999983334e+000	 9.622284237581241e+000
0	 1.466639999981866e+000	 4.666700000016668e+000	 9.594704288805213e+000
0	 1.466639999981866e+000	 4.733360000014533e+000	 9.601916165606742e+000
0	 1.466639999981866e+000	 4.800020000011600e+000	 9.606879561431450e+000
0	 1.466639999981866e+000	 4.866680000008065e+000	 9.610231732943060e+000
0	 1.466639999981866e+000	 4.933340000004134e+000	 9.612609936805262e+000
0	 1.466639999981866e+000	 5.000000000000000e+000	 9.614651429681683e+000
0	 1.466639999981866e+000	 5.066659999995865e+000	 9.616993468235934e+000
0	 1.466639999981866e+000	 5.133319999991934e+000	 9.620273309131544e+000
0	 1.466639999981866e+000	 5.199979999988400e+000	 9.625128209031987e+000
0	 1.466639999981867e+000	 5.266639999985466e+000	 9.632195424600734e+000
0	 1.466639999981867e+000	 5.333299999983336e+000	 9.642112212501127e+000
0	 1.533309999982383e+000	 4.666700000016665e+000	 9.622369117935879e+000
0	 1.533309999982383e+000	 4.733360000014532e+000	 9.629924002284252e+000
0	 1.533309999982383e+000	 4.800020000011601e+000	 9.634812577970980e+000
0	 1.533309999982383e+000	 4.866680000008067e+000	 9.637739898762613e+000
0	 1.533309999982383e+000	 4.933340000004133e+000	 9.639411018425694e+000
0	 1.533309999982383e+000	 5.000000000000002e+000	 9.640530990726667e+000
0	 1.533309999982383e+000	 5.066659999995867e+000	 9.641804869431921e+000
0	 1.533309999982383e+000	 5.133319999991933e+000	 9.643937708307824e+000
0	 1.533309999982383e+000	 5.199979999988399e+000	 9.647634561120665e+000
0	 1.533309999982383e+000	 5.266639999985466e+000	 9.653600481636730e+000
0	 1.533309999982383e+000	 5.333299999983332e+000	 9.662540523622191e+000
0	 1.599979999983599e+000	 4.666700000016665e+000	 9.650420488165391e+000
0	 1.599979999983600e+000	 4.733360000014533e+000	 9.657997612239676e+000
0	 1.599979999983600e+000	 4.800020000011599e+000	 9.662628117164577e+000
0	 1.599979999983599e+000	 4.866680000008066e+000	 9.665061093717888e+000
0	 1.599979999983600e+000	 4.933340000004135e+000	 9.666045632677381e+000
0	 1.599979999983600e+000	 5.000000000000001e+000	 9.666330824820761e+000
0	 1.599979999983599e+000	 5.066659999995866e+000	 9.666665760925678e+000
0	 1.599979999983599e+000	 5.133319999991932e+000	 9.667799531769758e+000
0	 1.599979999983600e+000	 5.199979999988398e+000	 9.670481228130536e+000
0	 1.599979999983600e+000	 5.266639999985466e+000	 9.675459940785517e+000
0	 1.599979999983600e+000	 5.333299999983335e+000	 9.683484760512187e+000
0	 1.666649999985416e+000	 4.666700000016666e+000	 9.678840543476836e+000
0	 1.666649999985416e+000	 4.733360000014534e+000	 9.686118195521090e+000
0	 1.666649999985416e+000	 4.800020000011599e+000	 9.690305165901570e+000
0	 1.666649999985416e+000	 4.866680000008066e+000	 9.692170822315786e+000
0	 1.666649999985417e+000	 4.933340000004134e+000	 9.692484532461187e+000
0	 1.666649999985417e+000	 5.000000000000002e+000	 9.692015664035163e+000
0	 1.666649999985417e+000	 5.066659999995866e+000	 9.691533584735053e+000
0	 1.666649999985417e+000	 5.133319999991935e+000	 9.691807662258142e+000
0	 1.666649999985417e+000	 5.199979999988400e+000	 9.693607264301683e+000
0	 1.666649999985416e+000	 5.266639999985466e+000	 9.697701758562886e+000
0	 1.666649999985416e+000	 5.333299999983333e+000	 9.704860512738897e+000
0	 1.733319999987733e+000	 4.666700000016666e+000	 9.707611427853331e+000
0	 1.733319999987733e+000	 4.733360000014533e+000	 9.714266952176530e+000
0	 1.733319999987733e+000	 4.800020000011601e+000	 9.717822711071296e+000
0	 1.733319999987733e+000	 4.866680000008066e+000	 9.719044589063266e+000
0	 1.733319999987733e+000	 4.933340000004134e+000	 9.718698470678024e+000
0	 1.733319999987733e+000	 4.999999999999999e+000	 9.717550240441046e+000
0	 1.733319999987733e+000	 5.066659999995868e+000	 9.716365782877809e+000
0	 1.733319999987733e+000	 5.133319999991933e+000	 9.715910982513769e+000
0	 1.733319999987733e+000	 5.199979999988401e+000	 9.716951723874256e+000
0	 1.733319999987733e+000	 5.266639999985465e+000	 9.720253891484605e+000
0	 1.733319999987733e+000	 5.333299999983333e+000	 9.726583369870118e+000
0	 1.799989999990450e+000	 4.666700000016666e+000	 9.736715285277992e+000
0	 1.799989999990450e+000	 4.733360000014532e+000	 9.742425082254034e+000
0	 1.799989999990450e+000	 4.800020000011600e+000	 9.745159739563055e+000
0	 1.799989999990450e+000	 4.866680000008066e+000	 9.745657898467261e+000
0	 1.799989999990450e+000	 4.933340000004134e+000	 9.744658200228741e+000
0	 1.799989999990450e+000	 5.000000000000001e+000	 9.742899286109582e+000
0	 1.799989999990450e+000	 5.066659999995868e+000	 9.741119797371811e+000
0	 1.799989999990450e+000	 5.133319999991933e+000	 9.740058375277416e+000
0	 1.799989999990450e+000	 5.199979999988399e+000	 9.740453661088340e+000
0	 1.799989999990450e+000	 5.266639999985467e+000	 9.743044296066469e+000
0	 1.799989999990450e+000	 5.333299999983335e+000	 9.748568921473641e+000
0	 1.866659999993467e+000	 4.666700000016665e+000	 9.766134259733942e+000
0	 1.866659999993467e+000	 4.733360000014533e+000	 9.770573785801664e+000
0	 1.866659999993467e+000	 4.800020000011600e+000	 9.772295238266187e+000
0	 1.866659999993467e+000	 4.866680000008065e+000	 9.771986255034671e+000
0	 1.866659999993467e+000	 4.933340000004134e+000	 9.770334474014241e+000
0	 1.866659999993466e+000	 5.000000000000001e+000	 9.768027533111951e+000
0	 1.866659999993467e+000	 5.066659999995866e+000	 9.765753070234855e+000
0	 1.866659999993467e+000	 5.133319999991934e+000	 9.764198723289912e+000
0	 1.866659999993467e+000	 5.199979999988400e+000	 9.764052130184066e+000
0	 1.866659999993467e+000	 5.266639999985465e+000	 9.766000928824234e+000
0	 1.866659999993467e+000	 5.333299999983334e+000	 9.770732757117248e+000
0	 1.933329999996683e+000	 4.666700000016665e+000	 9.795850495204306e+000
0	 1.933329999996684e+000	 4.733360000014533e+000	 9.798694262867471e+000
0	 1.933329999996683e+000	 4.800020000011600e+000	 9.799208194069998e+000
0	 1.933329999996683e+000	 4.866680000008065e+000	 9.798005163272457e+000
0	 1.933329999996684e+000	 4.933340000004134e+000	 9.795698044935406e+000
0	 1.933329999996684e+000	 5.000000000000001e+000	 9.792899713519347e+000
0	 1.933329999996684e+000	 5.066659999995866e+000	 9.790223043484748e+000
0	 1.933329999996684e+000	 5.133319999991933e+000	 9.788280909292009e+000
0	 1.933329999996684e+000	 5.199979999988400e+000	 9.787686185401549e+000
0	 1.933329999996684e+000	 5.266639999985466e+000	 9.789051746273696e+000
0	 1.933329999996684e+000	 5.333299999983335e+000	 9.792990466368737e+000
0	 2.000000000000000e+000	 4.666700000016665e+000	 9.825846135672226e+000
0	 2.000000000000000e+000	 4.733360000014532e+000	 9.826767713499518e+000
0	 2.000000000000000e+000	 4.800020000011600e+000	 9.825877593863794e+000
0	 2.000000000000000e+000	 4.866680000008066e+000	 9.823690127687531e+000
0	 2.000000000000000e+000	 4.933340000004134e+000	 9.820719665893114e+000
0	 2.000000000000000e+000	 5.000000000000001e+000	 9.817480559402918e+000
0	 2.000000000000000e+000	 5.066659999995868e+000	 9.814487159139301e+000
0	 2.000000000000000e+000	 5.133319999991932e+000	 9.812253816024535e+000
0	 2.000000000000000e+000	 5.199979999988400e+000	 9.811294880980906e+000
0	 2.000000000000000e+000	 5.266639999985466e+000	 9.812124704930628e+000
0	 1.999999999999999e+000	 5.333299999983333e+000	 9.815257638795909e+000
0	 1.333299999983334e+000	 5.333299999983335e+000	 9.603141009294696e+000
0	 1.333299999983334e+000	 5.399969999982147e+000	 9.616378269300363e+000
0	 1.333299999983334e+000	 5.466639999981867e+000	 9.629127030620325e+000
0	 1.333299999983334e+000	 5.533309999982382e+000	 9.641363956256333e+000
0	 1.333299999983334e+000	 5.599979999983598e+000	 9.653065709210168e+000
0	 1.333299999983334e+000	 5.666649999985414e+000	 9.664208952483534e+000
0	 1.333299999983334e+000	 5.733319999987731e+000	 9.674770349078173e+000
0	 1.333299999983334e+000	 5.799989999990448e+000	 9.684726561995838e+000
0	 1.333299999983334e+000	 5.866659999993465e+000	 9.694054254238219e+000
0	 1.333299999983334e+000	 5.933329999996682e+000	 9.702730088807046e+000
0	 1.333299999983334e+000	 6.000000000000000e+000	 9.710730728704007e+000
0	 1.399969999982150e+000	 5.333299999983334e+000	 9.622284237581237e+000
0	 1.399969999982150e+000	 5.399969999982149e+000	 9.634642991373319e+000
0	 1.399969999982150e+000	 5.466639999981866e+000	 9.646700678375989e+000
0	 1.399969999982150e+000	 5.533309999982382e+000	 9.658393622426312e+000
0	 1.399969999982150e+000	 5.599979999983598e+000	 9.669658147361361e+000
0	 1.399969999982150e+000	 5.666649999985414e+000	 9.680430577018202e+000
0	 1.399969999982150e+000	 5.733319999987731e+000	 9.690647235233890e+000
0	 1.399969999982150e+000	 5.799989999990447e+000	 9.700244445845470e+000
0	 1.399969999982150e+000	 5.866659999993464e+000	 9.709158532690001e+000
0	 1.399969999982150e+000	 5.933329999996680e+000	 9.717325819604492e+000
0	 1.399969999982150e+000	 5.999999999999999e+000	 9.724682630426020e+000
0	 1.466639999981867e+000	 5.333299999983336e+000	 9.642112212501129e+000
0	 1.466639999981866e+000	 5.399969999982148e+000	 9.653626100629069e+000
0	 1.466639999981867e+000	 5.466639999981867e+000	 9.664991398073758e+000
0	 1.466639999981866e+000	 5.533309999982382e+000	 9.676110733105396e+000
0	 1.466639999981866e+000	 5.599979999983600e+000	 9.686886733994220e+000
0	 1.466639999981867e+000	 5.666649999985416e+000	 9.697222029010428e+000
0	 1.466639999981867e+000	 5.733319999987734e+000	 9.707019246424206e+000
0	 1.466639999981866e+000	 5.799989999990448e+000	 9.716181014505764e+000
0	 1.466639999981866e+000	 5.866659999993465e+000	 9.724609961525299e+000
0	 1.466639999981867e+000	 5.933329999996682e+000	 9.732208715752922e+000
0	 1.466639999981866e+000	 6.000000000000000e+000	 9.738879905458861e+000
0	 1.533309999982383e+000	 5.333299999983332e+000	 9.662540523622191e+000
0	 1.533309999982383e+000	 5.399969999982151e+000	 9.673231609350649e+000
0	 1.533309999982383e+000	 5.466639999981867e+000	 9.683894477162889e+000
0	 1.533309999982383e+000	 5.533309999982382e+000	 9.694404703360142e+000
0	 1.533309999982383e+000	 5.599979999983600e+000	 9.704637864243551e+000
0	 1.533309999982383e+000	 5.666649999985415e+000	 9.714469536114279e+000
0	 1.533309999982383e+000	 5.733319999987732e+000	 9.723775295273482e+000
0	 1.533309999982383e+000	 5.799989999990449e+000	 9.732430718022314e+000
0	 1.533309999982383e+000	 5.866659999993465e+000	 9.740311380661904e+000
0	 1.533309999982383e+000	 5.933329999996682e+000	 9.747292859493397e+000
0	 1.533309999982383e+000	 6.000000000000002e+000	 9.753250730817905e+000
0	 1.599979999983600e+000	 5.333299999983335e+000	 9.683484760512187e+000
0	 1.599979999983600e+000	 5.399969999982149e+000	 9.693363529821061e+000
0	 1.599979999983600e+000	 5.466639999981867e+000	 9.703305203092718e+000
0	 1.599979999983600e+000	 5.533309999982382e+000	 9.713164948257095e+000
0	 1.599979999983600e+000	 5.599979999983598e+000	 9.722797933244145e+000
0	 1.599979999983600e+000	 5.666649999985417e+000	 9.732059325983800e+000
0	 1.599979999983600e+000	 5.733319999987730e+000	 9.740804294406003e+000
0	 1.599979999983600e+000	 5.799989999990450e+000	 9.748888006440657e+000
0	 1.599979999983600e+000	 5.866659999993464e+000	 9.756165630017680e+000
0	 1.599979999983600e+000	 5.933329999996682e+000	 9.762492333067007e+000
0	 1.599979999983600e+000	 6.000000000000001e+000	 9.767723283518507e+000
0	 1.666649999985416e+000	 5.333299999983333e+000	 9.704860512738897e+000
0	 1.666649999985416e+000	 5.399969999982149e+000	 9.713925874323376e+000
0	 1.666649999985416e+000	 5.466639999981866e+000	 9.723118863312493e+000
0	 1.666649999985416e+000	 5.533309999982381e+000	 9.732280882862783e+000
0	 1.666649999985416e+000	 5.599979999983599e+000	 9.741253336130804e+000
0	 1.666649999985417e+000	 5.666649999985415e+000	 9.749877626273069e+000
0	 1.666649999985416e+000	 5.733319999987731e+000	 9.757995156446103e+000
0	 1.666649999985416e+000	 5.799989999990447e+000	 9.765447329806399e+000
0	 1.666649999985416e+000	 5.866659999993463e+000	 9.772075549510493e+000
0	 1.666649999985417e+000	 5.933329999996682e+000	 9.777721218714861e+000
0	 1.666649999985416e+000	 6.000000000000000e+000	 9.782225740576001e+000
0	 1.733319999987733e+000	 5.333299999983333e+000	 9.726583369870118e+000
0	 1.733319999987733e+000	 5.399969999982151e+000	 9.734822655140606e+000
0	 1.733319999987733e+000	 5.466639999981867e+000	 9.743230745271529e+000
0	 1.733319999987734e+000	 5.533309999982383e+000	 9.751641922243774e+000
0	 1.733319999987733e+000	 5.599979999983598e+000	 9.759890468038339e+000
0	 1.733319999987733e+000	 5.666649999985415e+000	 9.767810664636144e+000
0	 1.733319999987733e+000	 5.733319999987733e+000	 9.775236794018086e+000
0	 1.733319999987733e+000	 5.799989999990448e+000	 9.782003138165115e+000
0	 1.733319999987734e+000	 5.866659999993464e+000	 9.787943979058138e+000
0	 1.733319999987734e+000	 5.933329999996683e+000	 9.792893598678051e+000
0	 1.733319999987734e+000	 6.000000000000002e+000	 9.796686279005767e+000
0	 1.799989999990450e+000	 5.333299999983335e+000	 9.748568921473641e+000
0	 1.799989999990450e+000	 5.399969999982148e+000	 9.755957884555825e+000
0	 1.799989999990450e+000	 5.466639999981867e+000	 9.763536136419102e+000
0	 1.799989999990450e+000	 5.533309999982383e+000	 9.771137481466633e+000
0	 1.799989999990450e+000	 5.599979999983598e+000	 9.778595724101562e+000
0	 1.799989999990450e+000	 5.666649999985415e+000	 9.785744668727073e+000
0	 1.799989999990450e+000	 5.733319999987730e+000	 9.792418119746305e+000
0	 1.799989999990450e+000	 5.799989999990448e+000	 9.798449881562384e+000
0	 1.799989999990450e+000	 5.866659999993465e+000	 9.803673758578473e+000
0	 1.799989999990450e+000	 5.933329999996683e+000	 9.807923555197663e+000
0	 1.799989999990450e+000	 6.000000000000000e+000	 9.811033075823119e+000
0	 1.866659999993467e+000	 5.333299999983334e+000	 9.770732757117248e+000
0	 1.866659999993467e+000	 5.399969999982148e+000	 9.777235574852064e+000
0	 1.866659999993466e+000	 5.466639999981865e+000	 9.783930324204544e+000
0	 1.866659999993466e+000	 5.533309999982382e+000	 9.790656975597877e+000
0	 1.866659999993467e+000	 5.599979999983598e+000	 9.797255499455277e+000
0	 1.866659999993467e+000	 5.666649999985416e+000	 9.803565866199939e+000
0	 1.866659999993467e+000	 5.733319999987732e+000	 9.809428046255047e+000
0	 1.866659999993467e+000	 5.799989999990448e+000	 9.814682010043788e+000
0	 1.866659999993467e+000	 5.866659999993464e+000	 9.819167727989315e+000
0	 1.866659999993467e+000	 5.933329999996681e+000	 9.822725170514808e+000
0	 1.866659999993466e+000	 5.999999999999998e+000	 9.825194308043439e+000
0	 1.933329999996684e+000	 5.333299999983335e+000	 9.792990466368737e+000
0	 1.933329999996683e+000	 5.399969999982149e+000	 9.798559738312356e+000
0	 1.933329999996683e+000	 5.466639999981865e+000	 9.804308596077117e+000
0	 1.933329999996684e+000	 5.533309999982384e+000	 9.810089819704070e+000
0	 1.933329999996684e+000	 5.599979999983599e+000	 9.815756189234289e+000
0	 1.933329999996684e+000	 5.666649999985416e+000	 9.821160484708813e+000
0	 1.933329999996683e+000	 5.733319999987731e+000	 9.826155486168659e+000
0	 1.933329999996684e+000	 5.799989999990449e+000	 9.830593973654874e+000
0	 1.933329999996684e+000	 5.866659999993465e+000	 9.834328727208524e+000
0	 1.933329999996684e+000	 5.933329999996682e+000	 9.837212526870571e+000
0	 1.933329999996684e+000	 6.000000000000002e+000	 9.839098152682070e+000
0	 1.999999999999999e+000	 5.333299999983333e+000	 9.815257638795906e+000
0	 2.000000000000000e+000	 5.399969999982149e+000	 9.819834387219760e+000
0	 2.000000000000000e+000	 5.466639999981868e+000	 9.824566239486156e+000
0	 2.000000000000000e+000	 5.533309999982383e+000	 9.829325428851806e+000
0	 2.000000000000000e+000	 5.599979999983598e+000	 9.833984188573432e+000
0	 2.000000000000000e+000	 5.666649999985416e+000	 9.838414751907749e+000
0	 2.000000000000000e+000	 5.733319999987732e+000	 9.842489352111485e+000
0	 2.000000000000000e+000	 5.799989999990446e+000	 9.846080222441294e+000
0	 2.000000000000000e+000	 5.866659999993464e+000	 9.849059596153920e+000
0	 2.000000000000000e+000	 5.933329999996681e+000	 9.851299706506035e+000
0	 2.000000000000000e+000	 6.000000000000000e+000	 9.852672786754336e+000
0	 1.333299999983334e+000	 6.000000000000000e+000	 9.710730728704007e+000
0	 1.333299999983334e+000	 6.066670000003318e+000	 9.718410138011889e+000
0	 1.333299999983334e+000	 6.133340000006531e+000	 9.726138487179510e+000
0	 1.333299999983334e+000	 6.200010000009550e+000	 9.733916748757753e+000
0	 1.333299999983334e+000	 6.266680000012265e+000	 9.741745895297443e+000
0	 1.333299999983334e+000	 6.333350000014583e+000	 9.749626899349444e+000
0	 1.333299999983334e+000	 6.400020000016400e+000	 9.757560733464590e+000
0	 1.333299999983334e+000	 6.466690000017614e+000	 9.765548370193756e+000
0	 1.333299999983334e+000	 6.533360000018132e+000	 9.773590782087759e+000
0	 1.333299999983334e+000	 6.600030000017849e+000	 9.781688941697489e+000
0	 1.333299999983333e+000	 6.666700000016665e+000	 9.789843821573763e+000
0	 1.399969999982150e+000	 5.999999999999999e+000	 9.724682630426020e+000
0	 1.399969999982150e+000	 6.066670000003314e+000	 9.731618545008516e+000
0	 1.399969999982150e+000	 6.133340000006533e+000	 9.738578679422993e+000
0	 1.399969999982150e+000	 6.200010000009550e+000	 9.745582661831930e+000
0	 1.399969999982150e+000	 6.266680000012267e+000	 9.752650120397894e+000
0	 1.399969999982150e+000	 6.333350000014585e+000	 9.759800683283363e+000
0	 1.399969999982150e+000	 6.400020000016400e+000	 9.767053978650846e+000
0	 1.399969999982150e+000	 6.466690000017616e+000	 9.774429634662871e+000
0	 1.399969999982150e+000	 6.533360000018132e+000	 9.781947279481964e+000
0	 1.399969999982150e+000	 6.600030000017850e+000	 9.789626541270629e+000
0	 1.399969999982150e+000	 6.666700000016665e+000	 9.797487048191426e+000
0	 1.466639999981866e+000	 6.000000000000000e+000	 9.738879905458861e+000
0	 1.466639999981866e+000	 6.066670000003317e+000	 9.745049895970368e+000
0	 1.466639999981866e+000	 6.133340000006533e+000	 9.751233611441554e+000
0	 1.466639999981866e+000	 6.200010000009550e+000	 9.757466518382739e+000
0	 1.466639999981866e+000	 6.266680000012267e+000	 9.763784083304367e+000
0	 1.466639999981867e+000	 6.333350000014582e+000	 9.770221772716818e+000
0	 1.466639999981866e+000	 6.400020000016401e+000	 9.776815053130431e+000
0	 1.466639999981866e+000	 6.466690000017615e+000	 9.783599391055613e+000
0	 1.466639999981866e+000	 6.533360000018132e+000	 9.790610253002784e+000
0	 1.466639999981866e+000	 6.600030000017847e+000	 9.797883105482301e+000
0	 1.466639999981867e+000	 6.666700000016666e+000	 9.805453415004577e+000
0	 1.533309999982383e+000	 6.000000000000002e+000	 9.753250730817905e+000
0	 1.533309999982383e+000	 6.066670000003316e+000	 9.758646793565781e+000
0	 1.533309999982383e+000	 6.133340000006531e+000	 9.764058120862936e+000
0	 1.533309999982383e+000	 6.200010000009550e+000	 9.769533200303819e+000
0	 1.533309999982383e+000	 6.266680000012267e+000	 9.775120519482872e+000
0	 1.533309999982383e+000	 6.333350000014584e+000	 9.780868565994560e+000
0	 1.533309999982383e+000	 6.400020000016398e+000	 9.786825827433349e+000
0	 1.533309999982383e+000	 6.466690000017615e+000	 9.793040791393679e+000
0	 1.533309999982383e+000	 6.533360000018134e+000	 9.799561945470039e+000
0	 1.533309999982383e+000	 6.600030000017848e+000	 9.806437777256905e+000
0	 1.533309999982383e+000	 6.666700000016665e+000	 9.813716774348748e+000
0	 1.599979999983600e+000	 6.000000000000001e+000	 9.767723283518507e+000
0	 1.599979999983600e+000	 6.066670000003319e+000	 9.772351840463111e+000
0	 1.599979999983600e+000	 6.133340000006534e+000	 9.777007045314969e+000
0	 1.599979999983600e+000	 6.200010000009550e+000	 9.781747589488813e+000
0	 1.599979999983600e+000	 6.266680000012268e+000	 9.786632164399380e+000
0	 1.599979999983600e+000	 6.333350000014582e+000	 9.791719461461410e+000
0	 1.599979999983600e+000	 6.400020000016401e+000	 9.797068172089642e+000
0	 1.599979999983600e+000	 6.466690000017616e+000	 9.802736987698818e+000
0	 1.599979999983599e+000	 6.533360000018131e+000	 9.808784599703666e+000
0	 1.599979999983600e+000	 6.600030000017847e+000	 9.815269699518975e+000
0	 1.599979999983600e+000	 6.666700000016665e+000	 9.822250978559460e+000
0	 1.666649999985416e+000	 6.000000000000000e+000	 9.782225740576001e+000
0	 1.666649999985417e+000	 6.066670000003317e+000	 9.786107639330668e+000
0	 1.666649999985417e+000	 6.133340000006534e+000	 9.790035222425388e+000
0	 1.666649999985416e+000	 6.200010000009549e+000	 9.794074567831419e+000
0	 1.666649999985417e+000	 6.266680000012266e+000	 9.798291753519926e+000
0	 1.666649999985416e+000	 6.333350000014584e+000	 9.802752857462174e+000
0	 1.666649999985417e+000	 6.400020000016399e+000	 9.807523957629361e+000
0	 1.666649999985417e+000	 6.466690000017617e+000	 9.812671131992731e+000
0	 1.666649999985416e+000	 6.533360000018130e+000	 9.818260458523509e+000
0	 1.666649999985417e+000	 6.600030000017849e+000	 9.824358015192958e+000
0	 1.666649999985416e+000	 6.666700000016665e+000	 9.831029879972270e+000
0	 1.733319999987734e+000	 6.000000000000002e+000	 9.796686279005767e+000
0	 1.733319999987733e+000	 6.066670000003316e+000	 9.799856792836785e+000
0	 1.733319999987733e+000	 6.133340000006533e+000	 9.803097489821969e+000
0	 1.733319999987733e+000	 6.200010000009549e+000	 9.806479017225245e+000
0	 1.733319999987733e+000	 6.266680000012267e+000	 9.810072022310472e+000
0	 1.733319999987733e+000	 6.333350000014583e+000	 9.813947152341594e+000
0	 1.733319999987733e+000	 6.400020000016400e+000	 9.818175054582522e+000
0	 1.733319999987733e+000	 6.466690000017618e+000	 9.822826376297172e+000
0	 1.733319999987733e+000	 6.533360000018130e+000	 9.827971764749464e+000
0	 1.733319999987733e+000	 6.600030000017848e+000	 9.833681867203332e+000
0	 1.733319999987733e+000	 6.666700000016665e+000	 9.840027330922705e+000
0	 1.799989999990450e+000	 6.000000000000000e+000	 9.811033075823119e+000
0	 1.799989999990450e+000	 6.066670000003319e+000	 9.813541903649808e+000
0	 1.799989999990450e+000	 6.133340000006534e+000	 9.816148685132490e+000
0	 1.799989999990450e+000	 6.200010000009550e+000	 9.818925819563951e+000
0	 1.799989999990449e+000	 6.266680000012266e+000	 9.821945706237038e+000
0	 1.799989999990450e+000	 6.333350000014582e+000	 9.825280744444488e+000
0	 1.799989999990450e+000	 6.400020000016401e+000	 9.829003333479161e+000
0	 1.799989999990450e+000	 6.466690000017615e+000	 9.833185872633864e+000
0	 1.799989999990451e+000	 6.533360000018133e+000	 9.837900761201386e+000
0	 1.799989999990450e+000	 6.600030000017849e+000	 9.843220398474593e+000
0	 1.799989999990450e+000	 6.666700000016665e+000	 9.849217183746273e+000
0	 1.866659999993466e+000	 5.999999999999998e+000	 9.825194308043439e+000
0	 1.866659999993467e+000	 6.066670000003315e+000	 9.827105574438056e+000
0	 1.866659999993467e+000	 6.133340000006532e+000	 9.829143645984686e+000
0	 1.866659999993467e+000	 6.200010000009550e+000	 9.831379856741229e+000
0	 1.866659999993467e+000	 6.266680000012266e+000	 9.833885540765573e+000
0	 1.866659999993467e+000	 6.333350000014582e+000	 9.836732032115634e+000
0	 1.866659999993467e+000	 6.400020000016400e+000	 9.839990664849310e+000
0	 1.866659999993467e+000	 6.466690000017616e+000	 9.843732773024518e+000
0	 1.866659999993467e+000	 6.533360000018132e+000	 9.848029690699180e+000
0	 1.866659999993467e+000	 6.600030000017849e+000	 9.852952751931202e+000
0	 1.866659999993467e+000	 6.666700000016665e+000	 9.858573290778532e+000
0	 1.933329999996684e+000	 6.000000000000002e+000	 9.839098152682070e+000
0	 1.933329999996684e+000	 6.066670000003319e+000	 9.840490407869895e+000
0	 1.933329999996683e+000	 6.133340000006533e+000	 9.842037210006369e+000
0	 1.933329999996683e+000	 6.200010000009547e+000	 9.843806010650718e+000
0	 1.933329999996684e+000	 6.266680000012266e+000	 9.845864261362125e+000
0	 1.933329999996684e+000	 6.333350000014584e+000	 9.848279413699807e+000
0	 1.933329999996684e+000	 6.400020000016398e+000	 9.851118919222985e+000
0	 1.933329999996684e+000	 6.466690000017617e+000	 9.854450229490867e+000
0	 1.933329999996684e+000	 6.533360000018132e+000	 9.858340796062693e+000
0	 1.933329999996684e+000	 6.600030000017847e+000	 9.862858070497653e+000
0	 1.933329999996684e+000	 6.666700000016666e+000	 9.868069504355024e+000
0	 2.000000000000000e+000	 6.000000000000000e+000	 9.852672786754336e+000
0	 2.000000000000000e+000	 6.066670000003317e+000	 9.853639006613605e+000
0	 2.000000000000000e+000	 6.133340000006534e+000	 9.854784214825274e+000
0	 2.000000000000000e+000	 6.200010000009550e+000	 9.856169163186046e+000
0	 2.000000000000000e+000	 6.266680000012267e+000	 9.857854603492662e+000
0	 2.000000000000000e+000	 6.333350000014584e+000	 9.859901287541820e+000
0	 2.000000000000000e+000	 6.400020000016399e+000	 9.862369967130222e+000
0	 2.000000000000000e+000	 6.466690000017615e+000	 9.865321394054648e+000
0	 2.000000000000000e+000	 6.533360000018130e+000	 9.868816320111797e+000
0	 2.000000000000000e+000	 6.600030000017847e+000	 9.872915497098401e+000
0	 2.000000000000000e+000	 6.666700000016667e+000	 9.877679676811230e+000
0	 1.333299999983333e+000	 6.666700000016665e+000	 9.789843821573763e+000
0	 1.333299999983334e+000	 6.733360000014532e+000	 9.797897003712588e+000
0	 1.333299999983334e+000	 6.800020000011602e+000	 9.805698272151375e+000
0	 1.333299999983334e+000	 6.866680000008067e+000	 9.813257220083454e+000
0	 1.333299999983334e+000	 6.933340000004134e+000	 9.820583440702086e+000
0	 1.333299999983334e+000	 7.000000000000001e+000	 9.827686527200601e+000
0	 1.333299999983334e+000	 7.066659999995868e+000	 9.834576072772292e+000
0	 1.333299999983334e+000	 7.133319999991937e+000	 9.841261670610445e+000
0	 1.333299999983334e+000	 7.199979999988403e+000	 9.847752913908439e+000
0	 1.333299999983334e+000	 7.266639999985473e+000	 9.854059395859565e+000
0	 1.333299999983334e+000	 7.333299999983335e+000	 9.860190709657132e+000
0	 1.399969999982150e+000	 6.666700000016665e+000	 9.797487048191428e+000
0	 1.399969999982150e+000	 6.733360000014534e+000	 9.805326614720872e+000
0	 1.399969999982150e+000	 6.800020000011598e+000	 9.812933383155659e+000
0	 1.399969999982150e+000	 6.866680000008065e+000	 9.820308892615014e+000
0	 1.399969999982150e+000	 6.933340000004132e+000	 9.827454682218139e+000
0	 1.399969999982150e+000	 7.000000000000004e+000	 9.834372291084272e+000
0	 1.399969999982150e+000	 7.066659999995869e+000	 9.841063258332657e+000
0	 1.399969999982150e+000	 7.133319999991937e+000	 9.847529123082548e+000
0	 1.399969999982150e+000	 7.199979999988402e+000	 9.853771424453154e+000
0	 1.399969999982150e+000	 7.266639999985469e+000	 9.859791701563760e+000
0	 1.399969999982150e+000	 7.333299999983333e+000	 9.865591493533605e+000
0	 1.466639999981867e+000	 6.666700000016666e+000	 9.805453415004578e+000
0	 1.466639999981866e+000	 6.733360000014533e+000	 9.813075047442265e+000
0	 1.466639999981867e+000	 6.800020000011599e+000	 9.820477000922397e+000
0	 1.466639999981866e+000	 6.866680000008065e+000	 9.827653961623724e+000
0	 1.466639999981866e+000	 6.933340000004136e+000	 9.834600615724995e+000
0	 1.466639999981866e+000	 7.000000000000001e+000	 9.841311649405062e+000
0	 1.466639999981866e+000	 7.066659999995869e+000	 9.847781748842646e+000
0	 1.466639999981866e+000	 7.133319999991936e+000	 9.854005600216558e+000
0	 1.466639999981866e+000	 7.199979999988404e+000	 9.859977889705597e+000
0	 1.466639999981867e+000	 7.266639999985470e+000	 9.865693303488566e+000
0	 1.466639999981866e+000	 7.333299999983333e+000	 9.871146527744275e+000
0	 1.533309999982383e+000	 6.666700000016665e+000	 9.813716774348748e+000
0	 1.533309999982383e+000	 6.733360000014534e+000	 9.821110383464296e+000
0	 1.533309999982383e+000	 6.800020000011601e+000	 9.828292664750860e+000
0	 1.533309999982383e+000	 6.866680000008065e+000	 9.835252652580376e+000
0	 1.533309999982383e+000	 6.933340000004133e+000	 9.841979381324787e+000
0	 1.533309999982383e+000	 7.000000000000003e+000	 9.848461885356043e+000
0	 1.533309999982383e+000	 7.066659999995869e+000	 9.854689199046094e+000
0	 1.533309999982384e+000	 7.133319999991937e+000	 9.860650356766929e+000
0	 1.533309999982383e+000	 7.199979999988407e+000	 9.866334392890490e+000
0	 1.533309999982383e+000	 7.266639999985468e+000	 9.871730341788753e+000
0	 1.533309999982383e+000	 7.333299999983335e+000	 9.876827237833709e+000
0	 1.599979999983600e+000	 6.666700000016665e+000	 9.822250978559463e+000
0	 1.599979999983600e+000	 6.733360000014534e+000	 9.829400704374482e+000
0	 1.599979999983600e+000	 6.800020000011599e+000	 9.836343913940354e+000
0	 1.599979999983599e+000	 6.866680000008065e+000	 9.843065190955780e+000
0	 1.599979999983600e+000	 6.933340000004135e+000	 9.849549119119530e+000
0	 1.599979999983600e+000	 7.000000000000004e+000	 9.855780282130317e+000
0	 1.599979999983599e+000	 7.066659999995868e+000	 9.861743263686911e+000
0	 1.599979999983600e+000	 7.133319999991937e+000	 9.867422647488052e+000
0	 1.599979999983600e+000	 7.199979999988405e+000	 9.872803017232515e+000
0	 1.599979999983600e+000	 7.266639999985471e+000	 9.877868956619070e+000
0	 1.599979999983600e+000	 7.333299999983336e+000	 9.882605049346489e+000
0	 1.666649999985416e+000	 6.666700000016665e+000	 9.831029879972270e+000
0	 1.666649999985416e+000	 6.733360000014533e+000	 9.837914091760391e+000
0	 1.666649999985417e+000	 6.800020000011601e+000	 9.844594287790162e+000
0	 1.666649999985416e+000	 6.866680000008065e+000	 9.851051802220741e+000
0	 1.666649999985417e+000	 6.933340000004134e+000	 9.857267969211296e+000
0	 1.666649999985416e+000	 7.000000000000002e+000	 9.863224122920974e+000
0	 1.666649999985417e+000	 7.066659999995871e+000	 9.868901597508945e+000
0	 1.666649999985417e+000	 7.133319999991937e+000	 9.874281727134353e+000
0	 1.666649999985416e+000	 7.199979999988403e+000	 9.879345845956397e+000
0	 1.666649999985416e+000	 7.266639999985471e+000	 9.884075288134259e+000
0	 1.666649999985416e+000	 7.333299999983333e+000	 9.888451387827125e+000
0	 1.733319999987733e+000	 6.666700000016665e+000	 9.840027330922705e+000
0	 1.733319999987733e+000	 6.733360000014533e+000	 9.846618627209509e+000
0	 1.733319999987733e+000	 6.800020000011600e+000	 9.853007325599576e+000
0	 1.733319999987733e+000	 6.866680000008066e+000	 9.859172711846064e+000
0	 1.733319999987733e+000	 6.933340000004134e+000	 9.865094071702186e+000
0	 1.733319999987733e+000	 7.000000000000001e+000	 9.870750690921126e+000
0	 1.733319999987733e+000	 7.066659999995869e+000	 9.876121855256052e+000
0	 1.733319999987733e+000	 7.133319999991938e+000	 9.881186850460235e+000
0	 1.733319999987733e+000	 7.199979999988405e+000	 9.885924962286831e+000
0	 1.733319999987733e+000	 7.266639999985472e+000	 9.890315476489089e+000
0	 1.733319999987733e+000	 7.333299999983336e+000	 9.894337678820214e+000
0	 1.799989999990450e+000	 6.666700000016665e+000	 9.849217183746273e+000
0	 1.799989999990450e+000	 6.733360000014531e+000	 9.855482392309398e+000
0	 1.799989999990450e+000	 6.800020000011600e+000	 9.861546566667876e+000
0	 1.799989999990450e+000	 6.866680000008066e+000	 9.867388145302545e+000
0	 1.799989999990450e+000	 6.933340000004134e+000	 9.872985566694247e+000
0	 1.799989999990450e+000	 7.000000000000001e+000	 9.878317269323848e+000
0	 1.799989999990449e+000	 7.066659999995867e+000	 9.883361691672169e+000
0	 1.799989999990449e+000	 7.133319999991937e+000	 9.888097272220112e+000
0	 1.799989999990450e+000	 7.199979999988402e+000	 9.892502449448523e+000
0	 1.799989999990450e+000	 7.266639999985472e+000	 9.896555661838288e+000
0	 1.799989999990450e+000	 7.333299999983334e+000	 9.900235347870277e+000
0	 1.866659999993467e+000	 6.666700000016665e+000	 9.858573290778532e+000
0	 1.866659999993467e+000	 6.733360000014531e+000	 9.864473468647580e+000
0	 1.866659999993467e+000	 6.800020000011600e+000	 9.870175550294354e+000
0	 1.866659999993467e+000	 6.866680000008066e+000	 9.875658328060990e+000
0	 1.866659999993467e+000	 6.933340000004135e+000	 9.880900594289559e+000
0	 1.866659999993467e+000	 7.000000000000002e+000	 9.885881141322230e+000
0	 1.866659999993467e+000	 7.066659999995870e+000	 9.890578761501118e+000
0	 1.866659999993467e+000	 7.133319999991938e+000	 9.894972247168386e+000
0	 1.866659999993467e+000	 7.199979999988404e+000	 9.899040390666155e+000
0	 1.866659999993467e+000	 7.266639999985472e+000	 9.902761984336614e+000
0	 1.866659999993467e+000	 7.333299999983332e+000	 9.906115820521903e+000
0	 1.933329999996684e+000	 6.666700000016666e+000	 9.868069504355024e+000
0	 1.933329999996683e+000	 6.733360000014532e+000	 9.873559937811603e+000
0	 1.933329999996684e+000	 6.800020000011600e+000	 9.878857815778336e+000
0	 1.933329999996684e+000	 6.866680000008066e+000	 9.883943485592178e+000
0	 1.933329999996684e+000	 6.933340000004134e+000	 9.888797294590196e+000
0	 1.933329999996684e+000	 7.000000000000004e+000	 9.893399590109377e+000
0	 1.933329999996684e+000	 7.066659999995870e+000	 9.897730719486795e+000
0	 1.933329999996683e+000	 7.133319999991936e+000	 9.901771030059473e+000
0	 1.933329999996684e+000	 7.199979999988405e+000	 9.905500869164468e+000
0	 1.933329999996683e+000	 7.266639999985469e+000	 9.908900584138820e+000
0	 1.933329999996684e+000	 7.333299999983332e+000	 9.911950522319607e+000
0	 2.000000000000000e+000	 6.666700000016667e+000	 9.877679676811232e+000
0	 2.000000000000000e+000	 6.733360000014533e+000	 9.882709881389005e+000
0	 2.000000000000000e+000	 6.800020000011601e+000	 9.887556902419060e+000
0	 2.000000000000000e+000	 6.866680000008067e+000	 9.892203843366948e+000
0	 2.000000000000000e+000	 6.933340000004135e+000	 9.896633807698214e+000
0	 2.000000000000000e+000	 7.000000000000002e+000	 9.900829898878392e+000
0	 2.000000000000000e+000	 7.066659999995869e+000	 9.904775220373065e+000
0	 2.000000000000000e+000	 7.133319999991935e+000	 9.908452875647793e+000
0	 1.999999999999999e+000	 7.199979999988401e+000	 9.911845968168134e+000
0	 2.000000000000000e+000	 7.266639999985471e+000	 9.914937601399647e+000
0	 2.000000000000000e+000	 7.333299999983335e+000	 9.917710878807959e+000
0	 1.333299999983334e+000	 7.333299999983335e+000	 9.860190709657129e+000
0	 1.333299999983334e+000	 7.399969999982149e+000	 9.866196032936454e+000
0	 1.333299999983334e+000	 7.466639999981864e+000	 9.872114500110566e+000
0	 1.333299999983334e+000	 7.533309999982382e+000	 9.877943360929052e+000
0	 1.333299999983334e+000	 7.599979999983599e+000	 9.883679865141438e+000
0	 1.333299999983334e+000	 7.666649999985416e+000	 9.889321262497273e+000
0	 1.333299999983334e+000	 7.733319999987731e+000	 9.894864802746103e+000
0	 1.333299999983334e+000	 7.799989999990450e+000	 9.900307735637453e+000
0	 1.333299999983334e+000	 7.866659999993467e+000	 9.905647310920891e+000
0	 1.333299999983334e+000	 7.933329999996681e+000	 9.910880778345931e+000
0	 1.333299999983334e+000	 8.000000000000000e+000	 9.916005387662125e+000
0	 1.399969999982150e+000	 7.333299999983333e+000	 9.865591493533604e+000
0	 1.399969999982150e+000	 7.399969999982149e+000	 9.871243054298216e+000
0	 1.399969999982150e+000	 7.466639999981867e+000	 9.876816561106082e+000
0	 1.399969999982150e+000	 7.533309999982384e+000	 9.882312998830029e+000
0	 1.399969999982151e+000	 7.599979999983600e+000	 9.887733352342904e+000
0	 1.399969999982150e+000	 7.666649999985414e+000	 9.893078606517562e+000
0	 1.399969999982150e+000	 7.733319999987733e+000	 9.898349746226813e+000
0	 1.399969999982150e+000	 7.799989999990450e+000	 9.903547756343521e+000
0	 1.399969999982150e+000	 7.866659999993465e+000	 9.908673621740514e+000
0	 1.399969999982150e+000	 7.933329999996682e+000	 9.913728327290631e+000
0	 1.399969999982150e+000	 7.999999999999998e+000	 9.918712857866700e+000
0	 1.466639999981866e+000	 7.333299999983333e+000	 9.871146527744275e+000
0	 1.466639999981867e+000	 7.399969999982151e+000	 9.876433163820490e+000
0	 1.466639999981867e+000	 7.466639999981866e+000	 9.881653558822578e+000
0	 1.466639999981867e+000	 7.533309999982382e+000	 9.886811911966337e+000
0	 1.466639999981866e+000	 7.599979999983598e+000	 9.891912422467593e+000
0	 1.466639999981867e+000	 7.666649999985416e+000	 9.896959289542128e+000
0	 1.466639999981866e+000	 7.733319999987729e+000	 9.901956712405774e+000
0	 1.466639999981866e+000	 7.799989999990448e+000	 9.906908890274334e+000
0	 1.466639999981866e+000	 7.866659999993463e+000	 9.911820022363585e+000
0	 1.466639999981867e+000	 7.933329999996682e+000	 9.916694307889372e+000
0	 1.466639999981867e+000	 8.000000000000000e+000	 9.921535946067451e+000
0	 1.533309999982383e+000	 7.333299999983335e+000	 9.876827237833707e+000
0	 1.533309999982383e+000	 7.399969999982150e+000	 9.881743296966326e+000
0	 1.533309999982382e+000	 7.466639999981863e+000	 9.886607157469213e+000
0	 1.533309999982383e+000	 7.533309999982382e+000	 9.891425712120835e+000
0	 1.533309999982383e+000	 7.599979999983598e+000	 9.896205853699618e+000
0	 1.533309999982383e+000	 7.666649999985413e+000	 9.900954474984005e+000
0	 1.533309999982383e+000	 7.733319999987732e+000	 9.905678468752450e+000
0	 1.533309999982383e+000	 7.799989999990446e+000	 9.910384727783381e+000
0	 1.533309999982384e+000	 7.866659999993466e+000	 9.915080144855271e+000
0	 1.533309999982383e+000	 7.933329999996682e+000	 9.919771612746530e+000
0	 1.533309999982383e+000	 8.000000000000000e+000	 9.924466024235588e+000
0	 1.599979999983600e+000	 7.333299999983336e+000	 9.882605049346488e+000
0	 1.599979999983600e+000	 7.399969999982153e+000	 9.887150389198794e+000
0	 1.599979999983600e+000	 7.466639999981866e+000	 9.891659021255162e+000
0	 1.599979999983600e+000	 7.533309999982381e+000	 9.896140011076342e+000
0	 1.599979999983600e+000	 7.599979999983598e+000	 9.900602424223086e+000
0	 1.599979999983600e+000	 7.666649999985414e+000	 9.905055326256157e+000
0	 1.599979999983600e+000	 7.733319999987732e+000	 9.909507782736274e+000
0	 1.599979999983600e+000	 7.799989999990448e+000	 9.913968859224173e+000
0	 1.599979999983599e+000	 7.866659999993463e+000	 9.918447621280670e+000
0	 1.599979999983600e+000	 7.933329999996682e+000	 9.922953134466452e+000
0	 1.599979999983600e+000	 8.000000000000000e+000	 9.927494464342299e+000
0	 1.666649999985416e+000	 7.333299999983333e+000	 9.888451387827125e+000
0	 1.666649999985417e+000	 7.399969999982152e+000	 9.892631375980951e+000
0	 1.666649999985417e+000	 7.466639999981866e+000	 9.896790814389574e+000
0	 1.666649999985417e+000	 7.533309999982383e+000	 9.900940420615717e+000
0	 1.666649999985417e+000	 7.599979999983599e+000	 9.905090912222150e+000
0	 1.666649999985416e+000	 7.666649999985415e+000	 9.909253006771557e+000
0	 1.666649999985416e+000	 7.733319999987730e+000	 9.913437421826668e+000
0	 1.666649999985416e+000	 7.799989999990448e+000	 9.917654874950227e+000
0	 1.666649999985416e+000	 7.866659999993462e+000	 9.921916083704954e+000
0	 1.666649999985416e+000	 7.933329999996679e+000	 9.926231765653526e+000
0	 1.666649999985416e+000	 8.000000000000000e+000	 9.930612638358719e+000
0	 1.733319999987733e+000	 7.333299999983336e+000	 9.894337678820214e+000
0	 1.733319999987733e+000	 7.399969999982151e+000	 9.898163192775847e+000
0	 1.733319999987733e+000	 7.466639999981865e+000	 9.901984201081612e+000
0	 1.733319999987733e+000	 7.533309999982382e+000	 9.905812552521837e+000
0	 1.733319999987733e+000	 7.599979999983599e+000	 9.909660095880930e+000
0	 1.733319999987733e+000	 7.666649999985414e+000	 9.913538679943237e+000
0	 1.733319999987733e+000	 7.733319999987732e+000	 9.917460153493146e+000
0	 1.733319999987733e+000	 7.799989999990449e+000	 9.921436365315014e+000
0	 1.733319999987734e+000	 7.866659999993465e+000	 9.925479164193215e+000
0	 1.733319999987733e+000	 7.933329999996682e+000	 9.929600398912108e+000
0	 1.733319999987734e+000	 8.000000000000002e+000	 9.933811918256104e+000
0	 1.799989999990450e+000	 7.333299999983334e+000	 9.900235347870275e+000
0	 1.799989999990450e+000	 7.399969999982150e+000	 9.903722775046557e+000
0	 1.799989999990450e+000	 7.466639999981866e+000	 9.907220845540412e+000
0	 1.799989999990449e+000	 7.533309999982381e+000	 9.910742018577507e+000
0	 1.799989999990450e+000	 7.599979999983598e+000	 9.914298753383529e+000
0	 1.799989999990450e+000	 7.666649999985416e+000	 9.917903509184168e+000
0	 1.799989999990450e+000	 7.733319999987731e+000	 9.921568745205102e+000
0	 1.799989999990450e+000	 7.799989999990448e+000	 9.925306920672043e+000
0	 1.799989999990450e+000	 7.866659999993463e+000	 9.929130494810632e+000
0	 1.799989999990450e+000	 7.933329999996681e+000	 9.933051926846577e+000
0	 1.799989999990450e+000	 8.000000000000002e+000	 9.937083676005571e+000
0	 1.866659999993467e+000	 7.333299999983332e+000	 9.906115820521899e+000
0	 1.866659999993467e+000	 7.399969999982150e+000	 9.909287058256155e+000
0	 1.866659999993467e+000	 7.466639999981867e+000	 9.912482411975159e+000
0	 1.866659999993467e+000	 7.533309999982382e+000	 9.915714430565583e+000
0	 1.866659999993467e+000	 7.599979999983596e+000	 9.918995662914092e+000
0	 1.866659999993467e+000	 7.666649999985417e+000	 9.922338657907337e+000
0	 1.866659999993467e+000	 7.733319999987733e+000	 9.925755964432007e+000
0	 1.866659999993467e+000	 7.799989999990448e+000	 9.929260131374779e+000
0	 1.866659999993467e+000	 7.866659999993464e+000	 9.932863707622317e+000
0	 1.866659999993467e+000	 7.933329999996682e+000	 9.936579242061278e+000
0	 1.866659999993466e+000	 8.000000000000000e+000	 9.940419283578352e+000
0	 1.933329999996684e+000	 7.333299999983332e+000	 9.911950522319607e+000
0	 1.933329999996684e+000	 7.399969999982150e+000	 9.914832977867686e+000
0	 1.933329999996684e+000	 7.466639999981866e+000	 9.917750564595011e+000
0	 1.933329999996684e+000	 7.533309999982383e+000	 9.920715400268918e+000
0	 1.933329999996684e+000	 7.599979999983599e+000	 9.923739602656704e+000
0	 1.933329999996684e+000	 7.666649999985414e+000	 9.926835289525741e+000
0	 1.933329999996683e+000	 7.733319999987731e+000	 9.930014578643306e+000
0	 1.933329999996684e+000	 7.799989999990449e+000	 9.933289587776770e+000
0	 1.933329999996684e+000	 7.866659999993466e+000	 9.936672434693422e+000
0	 1.933329999996684e+000	 7.933329999996683e+000	 9.940175237160588e+000
0	 1.933329999996684e+000	 8.000000000000000e+000	 9.943810112945618e+000
0	 2.000000000000000e+000	 7.333299999983335e+000	 9.917710878807959e+000
0	 2.000000000000000e+000	 7.399969999982149e+000	 9.920337469344197e+000
0	 2.000000000000000e+000	 7.466639999981866e+000	 9.923006967609103e+000
0	 2.000000000000000e+000	 7.533309999982381e+000	 9.925730539470349e+000
0	 2.000000000000000e+000	 7.599979999983599e+000	 9.928519350795526e+000
0	 2.000000000000000e+000	 7.666649999985416e+000	 9.931384567452351e+000
0	 2.000000000000000e+000	 7.733319999987733e+000	 9.934337355308452e+000
0	 2.000000000000000e+000	 7.799989999990450e+000	 9.937388880231463e+000
0	 2.000000000000000e+000	 7.866659999993465e+000	 9.940550308089058e+000
0	 2.000000000000000e+000	 7.933329999996682e+000	 9.943832804748865e+000
0	 2.000000000000000e+000	 7.999999999999999e+000	 9.947247536078544e+000
0	 1.333299999983334e+000	 8.000000000000000e+000	 9.916005387662125e+000
0	 1.333299999983334e+000	 8.066670000003315e+000	 9.920990649082372e+000
0	 1.333299999983334e+000	 8.133340000006532e+000	 9.925813104219506e+000
0	 1.333299999983334e+000	 8.200010000009550e+000	 9.930480549922766e+000
0	 1.333299999983334e+000	 8.266680000012267e+000	 9.935000783041376e+000
0	 1.333299999983334e+000	 8.333350000014583e+000	 9.939381600424666e+000
0	 1.333299999983334e+000	 8.400020000016399e+000	 9.943630798921898e+000
0	 1.333299999983334e+000	 8.466690000017616e+000	 9.947756175382310e+000
0	 1.333299999983334e+000	 8.533360000018131e+000	 9.951765526655176e+000
0	 1.333299999983334e+000	 8.600030000017847e+000	 9.955666649589761e+000
0	 1.333299999983334e+000	 8.666700000016666e+000	 9.959467341035342e+000
0	 1.399969999982150e+000	 7.999999999999998e+000	 9.918712857866700e+000
0	 1.399969999982150e+000	 8.066670000003315e+000	 9.923580167986742e+000
0	 1.399969999982150e+000	 8.133340000006532e+000	 9.928286711886981e+000
0	 1.399969999982150e+000	 8.200010000009547e+000	 9.932838724017556e+000
0	 1.399969999982150e+000	 8.266680000012265e+000	 9.937242438828676e+000
0	 1.399969999982150e+000	 8.333350000014583e+000	 9.941504090770396e+000
0	 1.399969999982150e+000	 8.400020000016399e+000	 9.945629914292930e+000
0	 1.399969999982150e+000	 8.466690000017614e+000	 9.949626143846402e+000
0	 1.399969999982150e+000	 8.533360000018126e+000	 9.953499013880931e+000
0	 1.399969999982150e+000	 8.600030000017846e+000	 9.957254758846688e+000
0	 1.399969999982150e+000	 8.666700000016670e+000	 9.960899613193783e+000
0	 1.466639999981867e+000	 8.000000000000000e+000	 9.921535946067451e+000
0	 1.466639999981866e+000	 8.066670000003317e+000	 9.926281175765956e+000
0	 1.466639999981866e+000	 8.133340000006532e+000	 9.930866686589326e+000
0	 1.466639999981866e+000	 8.200010000009554e+000	 9.935297353857788e+000
0	 1.466639999981866e+000	 8.266680000012265e+000	 9.939578052891694e+000
0	 1.466639999981867e+000	 8.333350000014585e+000	 9.943713659011340e+000
0	 1.466639999981866e+000	 8.400020000016397e+000	 9.947709047537003e+000
0	 1.466639999981867e+000	 8.466690000017616e+000	 9.951569093788951e+000
0	 1.466639999981867e+000	 8.533360000018133e+000	 9.955298673087512e+000
0	 1.466639999981867e+000	 8.600030000017847e+000	 9.958902660752930e+000
0	 1.466639999981867e+000	 8.666700000016668e+000	 9.962385932105512e+000
0	 1.533309999982383e+000	 8.000000000000000e+000	 9.924466024235588e+000
0	 1.533309999982383e+000	 8.066670000003313e+000	 9.929083317800766e+000
0	 1.533309999982383e+000	 8.133340000006529e+000	 9.933541316374525e+000
0	 1.533309999982384e+000	 8.200010000009550e+000	 9.937843739416545e+000
0	 1.533309999982383e+000	 8.266680000012265e+000	 9.941994306386558e+000
0	 1.533309999982383e+000	 8.333350000014585e+000	 9.945996736744270e+000
0	 1.533309999982383e+000	 8.400020000016399e+000	 9.949854749949401e+000
0	 1.533309999982383e+000	 8.466690000017618e+000	 9.953572065461625e+000
0	 1.533309999982383e+000	 8.533360000018133e+000	 9.957152402740649e+000
0	 1.533309999982383e+000	 8.600030000017849e+000	 9.960599481246177e+000
0	 1.533309999982383e+000	 8.666700000016663e+000	 9.963917020437917e+000
0	 1.599979999983600e+000	 8.000000000000000e+000	 9.927494464342299e+000
0	 1.599979999983599e+000	 8.066670000003319e+000	 9.931976239471860e+000
0	 1.599979999983600e+000	 8.133340000006536e+000	 9.936298889290619e+000
0	 1.599979999983600e+000	 8.200010000009549e+000	 9.940465180666967e+000
0	 1.599979999983600e+000	 8.266680000012265e+000	 9.944477880469286e+000
0	 1.599979999983599e+000	 8.333350000014582e+000	 9.948339755565991e+000
0	 1.599979999983599e+000	 8.400020000016399e+000	 9.952053572825417e+000
0	 1.599979999983600e+000	 8.466690000017612e+000	 9.955622099116008e+000
0	 1.599979999983599e+000	 8.533360000018131e+000	 9.959048101306106e+000
0	 1.599979999983600e+000	 8.600030000017851e+000	 9.962334346264115e+000
0	 1.599979999983600e+000	 8.666700000016670e+000	 9.965483600858427e+000
0	 1.666649999985416e+000	 8.000000000000000e+000	 9.930612638358719e+000
0	 1.666649999985417e+000	 8.066670000003317e+000	 9.934949586159933e+000
0	 1.666649999985416e+000	 8.133340000006532e+000	 9.939127693385643e+000
0	 1.666649999985416e+000	 8.200010000009547e+000	 9.943148977582197e+000
0	 1.666649999985416e+000	 8.266680000012263e+000	 9.947015456295944e+000
0	 1.666649999985416e+000	 8.333350000014582e+000	 9.950729147073197e+000
0	 1.666649999985416e+000	 8.400020000016399e+000	 9.954292067460358e+000
0	 1.666649999985417e+000	 8.466690000017616e+000	 9.957706235003714e+000
0	 1.666649999985417e+000	 8.533360000018131e+000	 9.960973667249633e+000
0	 1.666649999985417e+000	 8.600030000017849e+000	 9.964096381744419e+000
0	 1.666649999985417e+000	 8.666700000016666e+000	 9.967076396034420e+000
0	 1.733319999987734e+000	 8.000000000000002e+000	 9.933811918256104e+000
0	 1.733319999987733e+000	 8.066670000003315e+000	 9.937993003245692e+000
0	 1.733319999987733e+000	 8.133340000006532e+000	 9.942016016707587e+000
0	 1.733319999987733e+000	 8.200010000009549e+000	 9.945882430135363e+000
0	 1.733319999987733e+000	 8.266680000012268e+000	 9.949593715022564e+000
0	 1.733319999987733e+000	 8.333350000014583e+000	 9.953151342862769e+000
0	 1.733319999987733e+000	 8.400020000016399e+000	 9.956556785149518e+000
0	 1.733319999987733e+000	 8.466690000017616e+000	 9.959811513376399e+000
0	 1.733319999987733e+000	 8.533360000018130e+000	 9.962916999036960e+000
0	 1.733319999987733e+000	 8.600030000017847e+000	 9.965874713624734e+000
0	 1.733319999987733e+000	 8.666700000016666e+000	 9.968686128633324e+000
0	 1.799989999990450e+000	 8.000000000000002e+000	 9.937083676005571e+000
0	 1.799989999990450e+000	 8.066670000003317e+000	 9.941096136109831e+000
0	 1.799989999990450e+000	 8.133340000006534e+000	 9.944952147304489e+000
0	 1.799989999990450e+000	 8.200010000009552e+000	 9.948652838299598e+000
0	 1.799989999990450e+000	 8.266680000012265e+000	 9.952199337805208e+000
0	 1.799989999990450e+000	 8.333350000014582e+000	 9.955592774531398e+000
0	 1.799989999990450e+000	 8.400020000016401e+000	 9.958834277188203e+000
0	 1.799989999990450e+000	 8.466690000017614e+000	 9.961924974485662e+000
0	 1.799989999990450e+000	 8.533360000018133e+000	 9.964865995133842e+000
0	 1.799989999990450e+000	 8.600030000017851e+000	 9.967658467842771e+000
0	 1.799989999990450e+000	 8.666700000016665e+000	 9.970303521322515e+000
0	 1.866659999993466e+000	 8.000000000000000e+000	 9.940419283578352e+000
0	 1.866659999993467e+000	 8.066670000003315e+000	 9.944248630133078e+000
0	 1.866659999993467e+000	 8.133340000006532e+000	 9.947924373224375e+000
0	 1.866659999993467e+000	 8.200010000009550e+000	 9.951447502048053e+000
0	 1.866659999993467e+000	 8.266680000012265e+000	 9.954819005799967e+000
0	 1.866659999993467e+000	 8.333350000014583e+000	 9.958039873675912e+000
0	 1.866659999993467e+000	 8.400020000016399e+000	 9.961111094871688e+000
0	 1.866659999993467e+000	 8.466690000017616e+000	 9.964033658583137e+000
0	 1.866659999993466e+000	 8.533360000018131e+000	 9.966808554006027e+000
0	 1.866659999993467e+000	 8.600030000017846e+000	 9.969436770336174e+000
0	 1.866659999993467e+000	 8.666700000016663e+000	 9.971919296769396e+000
0	 1.933329999996684e+000	 8.000000000000000e+000	 9.943810112945618e+000
0	 1.933329999996684e+000	 8.066670000003313e+000	 9.947440130696069e+000
0	 1.933329999996684e+000	 8.133340000006534e+000	 9.950920982515203e+000
0	 1.933329999996684e+000	 8.200010000009550e+000	 9.954253721353863e+000
0	 1.933329999996684e+000	 8.266680000012265e+000	 9.957439400162851e+000
0	 1.933329999996684e+000	 8.333350000014582e+000	 9.960479071893044e+000
0	 1.933329999996684e+000	 8.400020000016401e+000	 9.963373789495307e+000
0	 1.933329999996683e+000	 8.466690000017614e+000	 9.966124605920431e+000
0	 1.933329999996684e+000	 8.533360000018131e+000	 9.968732574119260e+000
0	 1.933329999996684e+000	 8.600030000017849e+000	 9.971198747042639e+000
0	 1.933329999996684e+000	 8.666700000016666e+000	 9.973524177641393e+000
0	 2.000000000000000e+000	 7.999999999999999e+000	 9.947247536078544e+000
0	 2.000000000000000e+000	 8.066670000003319e+000	 9.950660283179563e+000
0	 1.999999999999999e+000	 8.133340000006532e+000	 9.953930263225029e+000
0	 2.000000000000000e+000	 8.200010000009550e+000	 9.957058796190111e+000
0	 2.000000000000000e+000	 8.266680000012268e+000	 9.960047202049921e+000
0	 1.999999999999999e+000	 8.333350000014582e+000	 9.962896800779598e+000
0	 2.000000000000000e+000	 8.400020000016399e+000	 9.965608912354316e+000
0	 2.000000000000000e+000	 8.466690000017616e+000	 9.968184856749161e+000
0	 2.000000000000000e+000	 8.533360000018131e+000	 9.970625953939296e+000
0	 2.000000000000000e+000	 8.600030000017847e+000	 9.972933523899808e+000
0	 2.000000000000000e+000	 8.666700000016666e+000	 9.975108886605890e+000
0	 1.333299999983334e+000	 8.666700000016666e+000	 9.959467341035342e+000
0	 1.333299999983334e+000	 8.733360002791905e+000	 9.963131869436879e+000
0	 1.333299999983334e+000	 8.800020022230555e+000	 9.966623277502279e+000
0	 1.333299999983334e+000	 8.866680074997039e+000	 9.969945835062259e+000
0	 1.333299999983334e+000	 8.933340177755778e+000	 9.973103812462560e+000
0	 1.333299999983334e+000	 9.000000347171179e+000	 9.976101480564115e+000
0	 1.333299999983334e+000	 9.066660599907667e+000	 9.978943110742847e+000
0	 1.333299999983334e+000	 9.133320952629651e+000	 9.981632974889680e+000
0	 1.333299999983334e+000	 9.199981422001553e+000	 9.984175345410691e+000
0	 1.333299999983334e+000	 9.266642024687794e+000	 9.986574495226927e+000
0	 1.333299999983334e+000	 9.333302777352783e+000	 9.988834697774411e+000
0	 1.399969999982150e+000	 8.666700000016670e+000	 9.960899613193783e+000
0	 1.399969999982150e+000	 8.733360002791905e+000	 9.964407035630741e+000
0	 1.399969999982150e+000	 8.800020022230555e+000	 9.967750563690796e+000
0	 1.399969999982150e+000	 8.866680074997042e+000	 9.970934934338480e+000
0	 1.399969999982150e+000	 8.933340177755774e+000	 9.973964885025904e+000
0	 1.399969999982150e+000	 9.000000347171181e+000	 9.976845153692802e+000
0	 1.399969999982150e+000	 9.066660599907664e+000	 9.979580478766490e+000
0	 1.399969999982150e+000	 9.133320952629651e+000	 9.982175599161929e+000
0	 1.399969999982150e+000	 9.199981422001558e+000	 9.984635254281615e+000
0	 1.399969999982150e+000	 9.266642024687794e+000	 9.986964184015591e+000
0	 1.399969999982150e+000	 9.333302777352783e+000	 9.989167128741556e+000
0	 1.466639999981867e+000	 8.666700000016668e+000	 9.962385932105509e+000
0	 1.466639999981866e+000	 8.733360002791899e+000	 9.965731291857090e+000
0	 1.466639999981866e+000	 8.800020022230552e+000	 9.968922729702484e+000
0	 1.466639999981867e+000	 8.866680074997040e+000	 9.971965357815803e+000
0	 1.466639999981866e+000	 8.933340177755776e+000	 9.974864288830919e+000
0	 1.466639999981866e+000	 9.000000347171181e+000	 9.977624635841258e+000
0	 1.466639999981867e+000	 9.066660599907666e+000	 9.980251512399850e+000
0	 1.466639999981867e+000	 9.133320952629649e+000	 9.982750032519450e+000
0	 1.466639999981866e+000	 9.199981422001553e+000	 9.985125310672276e+000
0	 1.466639999981866e+000	 9.266642024687792e+000	 9.987382461790293e+000
0	 1.466639999981866e+000	 9.333302777352781e+000	 9.989526601264899e+000
0	 1.533309999982383e+000	 8.666700000016663e+000	 9.963917020437917e+000
0	 1.533309999982383e+000	 8.733360002791899e+000	 9.967097016817155e+000
0	 1.533309999982383e+000	 8.800020022230553e+000	 9.970133560156281e+000
0	 1.533309999982383e+000	 8.866680074997042e+000	 9.973032045914232e+000
0	 1.533309999982383e+000	 8.933340177755776e+000	 9.975797869981438e+000
0	 1.533309999982383e+000	 9.000000347171183e+000	 9.978436428679878e+000
0	 1.533309999982383e+000	 9.066660599907666e+000	 9.980953118763079e+000
0	 1.533309999982383e+000	 9.133320952629651e+000	 9.983353337415997e+000
0	 1.533309999982383e+000	 9.199981422001557e+000	 9.985642482255136e+000
0	 1.533309999982383e+000	 9.266642024687794e+000	 9.987825951328443e+000
0	 1.533309999982383e+000	 9.333302777352785e+000	 9.989909143115431e+000
0	 1.599979999983600e+000	 8.666700000016670e+000	 9.965483600858425e+000
0	 1.599979999983600e+000	 8.733360002791901e+000	 9.968496589212109e+000
0	 1.599979999983600e+000	 8.800020022230555e+000	 9.971376839671194e+000
0	 1.599979999983599e+000	 8.866680074997040e+000	 9.974129939053650e+000
0	 1.599979999983600e+000	 8.933340177755778e+000	 9.976761474581188e+000
0	 1.599979999983600e+000	 9.000000347171183e+000	 9.979277033879086e+000
0	 1.599979999983599e+000	 9.066660599907667e+000	 9.981682204976286e+000
0	 1.599979999983600e+000	 9.133320952629651e+000	 9.983982576305399e+000
0	 1.599979999983600e+000	 9.199981422001553e+000	 9.986183736702586e+000
0	 1.599979999983600e+000	 9.266642024687792e+000	 9.988291275407621e+000
0	 1.599979999983600e+000	 9.333302777352785e+000	 9.990310782063940e+000
0	 1.666649999985417e+000	 8.666700000016666e+000	 9.967076396034418e+000
0	 1.666649999985416e+000	 8.733360002791901e+000	 9.969922387743143e+000
0	 1.666649999985416e+000	 8.800020022230553e+000	 9.972646352866128e+000
0	 1.666649999985416e+000	 8.866680074997040e+000	 9.975253977654084e+000
0	 1.666649999985417e+000	 8.933340177755779e+000	 9.977750948733956e+000
0	 1.666649999985416e+000	 9.000000347171177e+000	 9.980142953109247e+000
0	 1.666649999985416e+000	 9.066660599907666e+000	 9.982435678159682e+000
0	 1.666649999985416e+000	 9.133320952629655e+000	 9.984634811641428e+000
0	 1.666649999985416e+000	 9.199981422001555e+000	 9.986746041687002e+000
0	 1.666649999985416e+000	 9.266642024687791e+000	 9.988775056805253e+000
0	 1.666649999985417e+000	 9.333302777352785e+000	 9.990727545881343e+000
0	 1.733319999987733e+000	 8.666700000016666e+000	 9.968686128633324e+000
0	 1.733319999987733e+000	 8.733360002791903e+000	 9.971366791111425e+000
0	 1.733319999987733e+000	 8.800020022230557e+000	 9.973935884360120e+000
0	 1.733319999987733e+000	 8.866680074997042e+000	 9.976399102135432e+000
0	 1.733319999987733e+000	 8.933340177755774e+000	 9.978762138543550e+000
0	 1.733319999987733e+000	 9.000000347171181e+000	 9.981030688040731e+000
0	 1.733319999987733e+000	 9.066660599907664e+000	 9.983210445433340e+000
0	 1.733319999987733e+000	 9.133320952629651e+000	 9.985307105877856e+000
0	 1.733319999987733e+000	 9.199981422001555e+000	 9.987326364880815e+000
0	 1.733319999987733e+000	 9.266642024687792e+000	 9.989273918298817e+000
0	 1.733319999987733e+000	 9.333302777352783e+000	 9.991155462338472e+000
0	 1.799989999990450e+000	 8.666700000016665e+000	 9.970303521322514e+000
0	 1.799989999990450e+000	 8.733360002791901e+000	 9.972822178018184e+000
0	 1.799989999990450e+000	 8.800020022230555e+000	 9.975239218772092e+000
0	 1.799989999990450e+000	 8.866680074997042e+000	 9.977560252917687e+000
0	 1.799989999990450e+000	 8.933340177755778e+000	 9.979790890113700e+000
0	 1.799989999990450e+000	 9.000000347171181e+000	 9.981936740343910e+000
0	 1.799989999990450e+000	 9.066660599907666e+000	 9.984003413917444e+000
0	 1.799989999990450e+000	 9.133320952629653e+000	 9.985996521468502e+000
0	 1.799989999990449e+000	 9.199981422001555e+000	 9.987921673956437e+000
0	 1.799989999990450e+000	 9.266642024687791e+000	 9.989784482665790e+000
0	 1.799989999990450e+000	 9.333302777352783e+000	 9.991590559206262e+000
0	 1.866659999993467e+000	 8.666700000016663e+000	 9.971919296769396e+000
0	 1.866659999993467e+000	 8.733360002791903e+000	 9.974280927164566e+000
0	 1.866659999993466e+000	 8.800020022230552e+000	 9.976550140720990e+000
0	 1.866659999993466e+000	 8.866680074997039e+000	 9.978732370420810e+000
0	 1.866659999993468e+000	 8.933340177755779e+000	 9.980833049548178e+000
0	 1.866659999993467e+000	 9.000000347171181e+000	 9.982857611689241e+000
0	 1.866659999993467e+000	 9.066660599907664e+000	 9.984811490732156e+000
0	 1.866659999993467e+000	 9.133320952629656e+000	 9.986700120867127e+000
0	 1.866659999993466e+000	 9.199981422001555e+000	 9.988528936586244e+000
0	 1.866659999993467e+000	 9.266642024687792e+000	 9.990303372683679e+000
0	 1.866659999993467e+000	 9.333302777352783e+000	 9.992028864255506e+000
0	 1.933329999996684e+000	 8.666700000016666e+000	 9.973524177641391e+000
0	 1.933329999996683e+000	 8.733360002791901e+000	 9.975735417251796e+000
0	 1.933329999996683e+000	 8.800020022230555e+000	 9.977862434825829e+000
0	 1.933329999996683e+000	 8.866680074997039e+000	 9.979910395064746e+000
0	 1.933329999996684e+000	 8.933340177755776e+000	 9.981884462950776e+000
0	 1.933329999996683e+000	 9.000000347171177e+000	 9.983789803747021e+000
0	 1.933329999996684e+000	 9.066660599907667e+000	 9.985631582997593e+000
0	 1.933329999996684e+000	 9.133320952629653e+000	 9.987414966527474e+000
0	 1.933329999996684e+000	 9.199981422001555e+000	 9.989145120442672e+000
0	 1.933329999996684e+000	 9.266642024687791e+000	 9.990827211129947e+000
0	 1.933329999996683e+000	 9.333302777352783e+000	 9.992466405257133e+000
0	 2.000000000000000e+000	 8.666700000016666e+000	 9.975108886605884e+000
0	 2.000000000000000e+000	 8.733360002791905e+000	 9.977178026981029e+000
0	 2.000000000000000e+000	 8.800020022230553e+000	 9.979169885705529e+000
0	 2.000000000000000e+000	 8.866680074997044e+000	 9.981089267269459e+000
0	 2.000000000000000e+000	 8.933340177755776e+000	 9.982940976425262e+000
0	 2.000000000000000e+000	 9.000000347171179e+000	 9.984729818187693e+000
0	 1.999999999999999e+000	 9.066660599907666e+000	 9.986460597833894e+000
0	 2.000000000000000e+000	 9.133320952629651e+000	 9.988138120903420e+000
0	 2.000000000000000e+000	 9.199981422001555e+000	 9.989767193198098e+000
0	 2.000000000000000e+000	 9.266642024687791e+000	 9.991352620782111e+000
0	 2.000000000000000e+000	 9.333302777352783e+000	 9.992899209981971e+000
0	 1.333299999983334e+000	 9.333302777352783e+000	 9.988834697774411e+000
0	 1.333299999983334e+000	 9.399973674588175e+000	 9.990904747480295e+000
0	 1.333299999983334e+000	 9.466644621844621e+000	 9.992737890698765e+000
0	 1.333299999983333e+000	 9.533315502449998e+000	 9.994346062106780e+000
0	 1.333299999983334e+000	 9.599986199732193e+000	 9.995741191576029e+000
0	 1.333299999983334e+000	 9.666656597019093e+000	 9.996935204172235e+000
0	 1.333299999983334e+000	 9.733326577638575e+000	 9.997940020154541e+000
0	 1.333299999983334e+000	 9.799996024918519e+000	 9.998767554974810e+000
0	 1.333299999983334e+000	 9.866664822186818e+000	 9.999429719276620e+000
0	 1.333299999983334e+000	 9.933332852771352e+000	 9.999938418894084e+000
0	 1.333299999983334e+000	 1.000000000000000e+001	 1.000030555485079e+001
0	 1.399969999982150e+000	 9.333302777352783e+000	 9.989167128741556e+000
0	 1.399969999982150e+000	 9.399973674588175e+000	 9.991188636440759e+000
0	 1.399969999982150e+000	 9.466644621844623e+000	 9.992976855593225e+000
0	 1.399969999982150e+000	 9.533315502449998e+000	 9.994542887946015e+000
0	 1.399969999982150e+000	 9.599986199732195e+000	 9.995897830538661e+000
0	 1.399969999982150e+000	 9.666656597019092e+000	 9.997052775703020e+000
0	 1.399969999982150e+000	 9.733326577638572e+000	 9.998018811062162e+000
0	 1.399969999982150e+000	 9.799996024918523e+000	 9.998807019529892e+000
0	 1.399969999982150e+000	 9.866664822186820e+000	 9.999428479309744e+000
0	 1.399969999982150e+000	 9.933332852771351e+000	 9.999894263893877e+000
0	 1.399969999982150e+000	 1.000000000000000e+001	 1.000021544206210e+001
0	 1.466639999981866e+000	 9.333302777352781e+000	 9.989526601264895e+000
0	 1.466639999981867e+000	 9.399973674588177e+000	 9.991498007138940e+000
0	 1.466639999981867e+000	 9.466644621844619e+000	 9.993239799835321e+000
0	 1.466639999981866e+000	 9.533315502449998e+000	 9.994762295503769e+000
0	 1.466639999981866e+000	 9.599986199732197e+000	 9.996075805688991e+000
0	 1.466639999981867e+000	 9.666656597019093e+000	 9.997190637330492e+000
0	 1.466639999981866e+000	 9.733326577638577e+000	 9.998117092761499e+000
0	 1.466639999981867e+000	 9.799996024918519e+000	 9.998865469708663e+000
0	 1.466639999981866e+000	 9.866664822186820e+000	 9.999446061290797e+000
0	 1.466639999981867e+000	 9.933332852771351e+000	 9.999869156018095e+000
0	 1.466639999981867e+000	 1.000000000000000e+001	 1.000014503779069e+001
0	 1.533309999982383e+000	 9.333302777352785e+000	 9.989909143115431e+000
0	 1.533309999982383e+000	 9.399973674588178e+000	 9.991828242270328e+000
0	 1.533309999982383e+000	 9.466644621844621e+000	 9.993521611231502e+000
0	 1.533309999982384e+000	 9.533315502450003e+000	 9.994998827881240e+000
0	 1.533309999982383e+000	 9.599986199732197e+000	 9.996269465605650e+000
0	 1.533309999982383e+000	 9.666656597019088e+000	 9.997343093294049e+000
0	 1.533309999982383e+000	 9.733326577638570e+000	 9.998229275338575e+000
0	 1.533309999982383e+000	 9.799996024918521e+000	 9.998937571633034e+000
0	 1.533309999982383e+000	 9.866664822186818e+000	 9.999477537572300e+000
0	 1.533309999982383e+000	 9.933332852771351e+000	 9.999858724051263e+000
0	 1.533309999982383e+000	 1.000000000000000e+001	 1.000009067746360e+001
0	 1.599979999983600e+000	 9.333302777352785e+000	 9.990310782063940e+000
0	 1.599979999983600e+000	 9.399973674588175e+000	 9.992174724530521e+000
0	 1.599979999983600e+000	 9.466644621844617e+000	 9.993817177588234e+000
0	 1.599979999983600e+000	 9.533315502450002e+000	 9.995247028179563e+000
0	 1.599979999983600e+000	 9.599986199732195e+000	 9.996473158867195e+000
0	 1.599979999983599e+000	 9.666656597019095e+000	 9.997504447833368e+000
0	 1.599979999983600e+000	 9.733326577638573e+000	 9.998349768879415e+000
0	 1.599979999983600e+000	 9.799996024918523e+000	 9.999017991424896e+000
0	 1.599979999983600e+000	 9.866664822186817e+000	 9.999517980506710e+000
0	 1.599979999983600e+000	 9.933332852771351e+000	 9.999858596778063e+000
0	 1.599979999983600e+000	 1.000000000000000e+001	 1.000004869650772e+001
0	 1.666649999985417e+000	 9.333302777352785e+000	 9.990727545881343e+000
0	 1.666649999985416e+000	 9.399973674588177e+000	 9.992532836614922e+000
0	 1.666649999985417e+000	 9.466644621844617e+000	 9.994121386711898e+000
0	 1.666649999985417e+000	 9.533315502450002e+000	 9.995501439499867e+000
0	 1.666649999985416e+000	 9.599986199732197e+000	 9.996681234052280e+000
0	 1.666649999985416e+000	 9.666656597019092e+000	 9.997669005187889e+000
0	 1.666649999985416e+000	 9.733326577638573e+000	 9.998472983470075e+000
0	 1.666649999985416e+000	 9.799996024918519e+000	 9.999101395206083e+000
0	 1.666649999985416e+000	 9.866664822186818e+000	 9.999562462446390e+000
0	 1.666649999985416e+000	 9.933332852771351e+000	 9.999864402983206e+000
0	 1.666649999985416e+000	 1.000000000000000e+001	 1.000001543035013e+001
0	 1.733319999987733e+000	 9.333302777352783e+000	 9.991155462338472e+000
0	 1.733319999987733e+000	 9.399973674588175e+000	 9.992897961219077e+000
0	 1.733319999987733e+000	 9.466644621844623e+000	 9.994429126408928e+000
0	 1.733319999987734e+000	 9.533315502450000e+000	 9.995756604943248e+000
0	 1.733319999987733e+000	 9.599986199732193e+000	 9.996888039739559e+000
0	 1.733319999987734e+000	 9.666656597019093e+000	 9.997831069597140e+000
0	 1.733319999987733e+000	 9.733326577638573e+000	 9.998593329196490e+000
0	 1.733319999987733e+000	 9.799996024918521e+000	 9.999182449098505e+000
0	 1.733319999987733e+000	 9.866664822186820e+000	 9.999606055743737e+000
0	 1.733319999987733e+000	 9.933332852771354e+000	 9.999871771451245e+000
0	 1.733319999987733e+000	 1.000000000000000e+001	 9.999987214417798e+000
0	 1.799989999990450e+000	 9.333302777352783e+000	 9.991590559206262e+000
0	 1.799989999990450e+000	 9.399973674588177e+000	 9.993265481038492e+000
0	 1.799989999990450e+000	 9.466644621844617e+000	 9.994735284485795e+000
0	 1.799989999990450e+000	 9.533315502449998e+000	 9.996007067610844e+000
0	 1.799989999990450e+000	 9.599986199732197e+000	 9.997087924507612e+000
0	 1.799989999990450e+000	 9.666656597019092e+000	 9.997984945300635e+000
0	 1.799989999990449e+000	 9.733326577638575e+000	 9.998705216144732e+000
0	 1.799989999990450e+000	 9.799996024918523e+000	 9.999255819224096e+000
0	 1.799989999990450e+000	 9.866664822186822e+000	 9.999643832751348e+000
0	 1.799989999990450e+000	 9.933332852771352e+000	 9.999876330966870e+000
0	 1.799989999990450e+000	 1.000000000000000e+001	 9.999960384137708e+000
0	 1.866659999993467e+000	 9.333302777352783e+000	 9.992028864255506e+000
0	 1.866659999993467e+000	 9.399973674588173e+000	 9.993630778768603e+000
0	 1.866659999993467e+000	 9.466644621844619e+000	 9.995034748748900e+000
0	 1.866659999993467e+000	 9.533315502449998e+000	 9.996247370603818e+000
0	 1.866659999993467e+000	 9.599986199732193e+000	 9.997275236935090e+000
0	 1.866659999993467e+000	 9.666656597019093e+000	 9.998124936537947e+000
0	 1.866659999993467e+000	 9.733326577638573e+000	 9.998803054400913e+000
0	 1.866659999993467e+000	 9.799996024918524e+000	 9.999316171704662e+000
0	 1.866659999993467e+000	 9.866664822186820e+000	 9.999670865821633e+000
0	 1.866659999993467e+000	 9.933332852771352e+000	 9.999873710314727e+000
0	 1.866659999993467e+000	 1.000000000000000e+001	 9.999931274936696e+000
0	 1.933329999996683e+000	 9.333302777352783e+000	 9.992466405257130e+000
0	 1.933329999996684e+000	 9.399973674588178e+000	 9.993989237105005e+000
0	 1.933329999996683e+000	 9.466644621844617e+000	 9.995322407004656e+000
0	 1.933329999996683e+000	 9.533315502450000e+000	 9.996472057023254e+000
0	 1.933329999996684e+000	 9.599986199732197e+000	 9.997444325600513e+000
0	 1.933329999996684e+000	 9.666656597019092e+000	 9.998245347548505e+000
0	 1.933329999996684e+000	 9.733326577638575e+000	 9.998881254050852e+000
0	 1.933329999996683e+000	 9.799996024918524e+000	 9.999358172662106e+000
0	 1.933329999996684e+000	 9.866664822186820e+000	 9.999682227306987e+000
0	 1.933329999996683e+000	 9.933332852771352e+000	 9.999859538279502e+000
0	 1.933329999996684e+000	 1.000000000000000e+001	 9.999896222241768e+000
0	 2.000000000000000e+000	 9.333302777352783e+000	 9.992899209981967e+000
0	 2.000000000000000e+000	 9.399973674588178e+000	 9.994336238743104e+000
0	 2.000000000000000e+000	 9.466644621844621e+000	 9.995593147059555e+000
0	 1.999999999999999e+000	 9.533315502449996e+000	 9.996675669970246e+000
0	 2.000000000000000e+000	 9.599986199732197e+000	 9.997589539082629e+000
0	 2.000000000000000e+000	 9.666656597019093e+000	 9.998340482571903e+000
0	 2.000000000000000e+000	 9.733326577638575e+000	 9.998934225180722e+000
0	 2.000000000000000e+000	 9.799996024918523e+000	 9.999376488218385e+000
0	 1.999999999999999e+000	 9.866664822186820e+000	 9.999672989559944e+000
0	 2.000000000000000e+000	 9.933332852771354e+000	 9.999829443645687e+000
0	 2.000000000000000e+000	 1.000000000000000e+001	 9.999851561480014e+000
0	 2.000000000000000e+000	 0.000000000000000e+000	-4.379641565551831e+001
0	 2.000000000000000e+000	 6.666714722864756e-002	-3.967080641908635e+001
0	 2.000000000000000e+000	 1.333351778131789e-001	-3.552347515311720e+001
0	 2.000000000000000e+000	 2.000039750814773e-001	-3.137773781710292e+001
0	 2.000000000000000e+000	 2.666734223614256e-001	-2.725691325848318e+001
0	 2.000000000000000e+000	 3.333434029809069e-001	-2.318432321180871e+001
0	 2.000000000000000e+000	 4.000138002678044e-001	-1.918329229798081e+001
0	 2.000000000000000e+000	 4.666844975500011e-001	-1.527714802356656e+001
0	 2.000000000000000e+000	 5.333553781553801e-001	-1.148922078018972e+001
0	 2.000000000000000e+000	 6.000263254118247e-001	-7.842843843997581e+000
0	 2.000000000000000e+000	 6.666972226472178e-001	-4.361353375203297e+000
0	 2.066670000003317e+000	 0.000000000000000e+000	-4.841616938208378e+001
0	 2.066670000003316e+000	 6.666714722864754e-002	-4.393557579977630e+001
0	 2.066670000003317e+000	 1.333351778131789e-001	-3.938814655732256e+001
0	 2.066670000003318e+000	 2.000039750814773e-001	-3.480772172399566e+001
0	 2.066670000003317e+000	 2.666734223614256e-001	-3.022814472798943e+001
0	 2.066670000003317e+000	 3.333434029809069e-001	-2.568326235547323e+001
0	 2.066670000003317e+000	 4.000138002678045e-001	-2.120692474973453e+001
0	 2.066670000003317e+000	 4.666844975500010e-001	-1.683298541040999e+001
0	 2.066670000003317e+000	 5.333553781553803e-001	-1.259530119280443e+001
0	 2.066670000003317e+000	 6.000263254118247e-001	-8.527732307298045e+000
0	 2.066670000003317e+000	 6.666972226472175e-001	-4.664142318841682e+000
0	 2.133340000006534e+000	 0.000000000000000e+000	-5.343638234562524e+001
0	 2.133340000006534e+000	 6.666714722864754e-002	-4.846202422043361e+001
0	 2.133340000006534e+000	 1.333351778131789e-001	-4.340243430207595e+001
0	 2.133340000006534e+000	 2.000039750814773e-001	-3.829921944154266e+001
0	 2.133340000006534e+000	 2.666734223614255e-001	-3.319399031761932e+001
0	 2.133340000006534e+000	 3.333434029809069e-001	-2.812836143583282e+001
0	 2.133340000006534e+000	 4.000138002678044e-001	-2.314395112749857e+001
0	 2.133340000006534e+000	 4.666844975500012e-001	-1.828238154886780e+001
0	 2.133340000006534e+000	 5.333553781553801e-001	-1.358527868037547e+001
0	 2.133340000006534e+000	 6.000263254118247e-001	-9.094272325988509e+000
0	 2.133340000006534e+000	 6.666972226472177e-001	-4.850996112654475e+000
0	 2.200010000009551e+000	 0.000000000000000e+000	-5.876876875126567e+001
0	 2.200010000009551e+000	 6.666714722864757e-002	-5.317364422450217e+001
0	 2.200010000009551e+000	 1.333351778131789e-001	-4.750102276730640e+001
0	 2.200010000009550e+000	 2.000039750814773e-001	-4.179752076485401e+001
0	 2.200010000009550e+000	 2.666734223614255e-001	-3.610975889072956e+001
0	 2.200010000009551e+000	 3.333434029809069e-001	-3.048436210576739e+001
0	 2.200010000009551e+000	 4.000138002678044e-001	-2.496795965700511e+001
0	 2.200010000009551e+000	 4.666844975500012e-001	-1.960718507674951e+001
0	 2.200010000009550e+000	 5.333553781553803e-001	-1.444867618175509e+001
0	 2.200010000009551e+000	 6.000263254118249e-001	-9.539075072514972e+000
0	 2.200010000009551e+000	 6.666972226472174e-001	-4.925028132664457e+000
0	 2.266680000012268e+000	 0.000000000000000e+000	-6.432504280413262e+001
0	 2.266680000012267e+000	 6.666714722864757e-002	-5.799392835542929e+001
0	 2.266680000012268e+000	 1.333351778131789e-001	-5.161859633294557e+001
0	 2.266680000012268e+000	 2.000039750814773e-001	-4.524791548904130e+001
0	 2.266680000012267e+000	 2.666734223614256e-001	-3.893075931067774e+001
0	 2.266680000012268e+000	 3.333434029809069e-001	-3.271600601815718e+001
0	 2.266680000012267e+000	 4.000138002678044e-001	-2.665253856398637e+001
0	 2.266680000012268e+000	 4.666844975500012e-001	-2.078924463186443e+001
0	 2.266680000012268e+000	 5.333553781553801e-001	-1.517501663579513e+001
0	 2.266680000012268e+000	 6.000263254118248e-001	-9.858751719322967e+000
0	 2.266680000012268e+000	 6.666972226472175e-001	-4.889351754893913e+000
0	 2.333350000014584e+000	 0.000000000000000e+000	-7.001691870935856e+001
0	 2.333350000014584e+000	 6.666714722864754e-002	-6.284636915666568e+001
0	 2.333350000014585e+000	 1.333351778131789e-001	-5.568983937892723e+001
0	 2.333350000014585e+000	 2.000039750814773e-001	-4.859569340921744e+001
0	 2.333350000014584e+000	 2.666734223614255e-001	-4.161230044082224e+001
0	 2.333350000014584e+000	 3.333434029809068e-001	-3.478803482588280e+001
0	 2.333350000014584e+000	 4.000138002678044e-001	-2.817127607417450e+001
0	 2.333350000014585e+000	 4.666844975500012e-001	-2.181040885202160e+001
0	 2.333350000014585e+000	 5.333553781553804e-001	-1.575382298134698e+001
0	 2.333350000014584e+000	 6.000263254118248e-001	-1.004991343885753e+001
0	 2.333350000014584e+000	 6.666972226472177e-001	-4.747080355364610e+000
0	 2.400020000016401e+000	 0.000000000000000e+000	-7.575611067208055e+001
0	 2.400020000016402e+000	 6.666714722864756e-002	-6.765445917166555e+001
0	 2.400020000016401e+000	 1.333351778131789e-001	-5.964943628518765e+001
0	 2.400020000016401e+000	 2.000039750814773e-001	-5.178614432049709e+001
0	 2.400020000016401e+000	 2.666734223614256e-001	-4.410969114452234e+001
0	 2.400020000016401e+000	 3.333434029809069e-001	-3.666519018182511e+001
0	 2.400020000016400e+000	 4.000138002678043e-001	-2.949776041330166e+001
0	 2.400020000016401e+000	 4.666844975500011e-001	-2.265252637502973e+001
0	 2.400020000016401e+000	 5.333553781553803e-001	-1.617461815726173e+001
0	 2.400020000016401e+000	 6.000263254118247e-001	-1.010917140356324e+001
0	 2.400020000016400e+000	 6.666972226472178e-001	-4.501327310097810e+000
0	 2.466690000017618e+000	 0.000000000000000e+000	-8.145433289744045e+001
0	 2.466690000017618e+000	 6.666714722864757e-002	-7.234169094388643e+001
0	 2.466690000017618e+000	 1.333351778131789e-001	-6.343207143166531e+001
0	 2.466690000017618e+000	 2.000039750814773e-001	-5.476455801799624e+001
0	 2.466690000017619e+000	 2.666734223614257e-001	-4.637824028513808e+001
0	 2.466690000017618e+000	 3.333434029809068e-001	-3.831221373886542e+001
0	 2.466690000017618e+000	 4.000138002678044e-001	-3.060557980709995e+001
0	 2.466690000017618e+000	 4.666844975500012e-001	-2.329744583869737e+001
0	 2.466690000017618e+000	 5.333553781553803e-001	-1.642692510238995e+001
0	 2.466690000017618e+000	 6.000263254118247e-001	-1.003313678588421e+001
0	 2.466690000017618e+000	 6.666972226472178e-001	-4.155205995114294e+000
0	 2.533360000018134e+000	 0.000000000000000e+000	-8.702329959058483e+001
0	 2.533360000018134e+000	 6.666714722864754e-002	-7.683155701678926e+001
0	 2.533360000018134e+000	 1.333351778131789e-001	-6.697242919830117e+001
0	 2.533360000018133e+000	 2.000039750814772e-001	-5.747622429683236e+001
0	 2.533360000018134e+000	 2.666734223614255e-001	-4.837325672603030e+001
0	 2.533360000018134e+000	 3.333434029809069e-001	-3.969384714988526e+001
0	 2.533360000018134e+000	 4.000138002678044e-001	-3.146832248130148e+001
0	 2.533360000018134e+000	 4.666844975500012e-001	-2.372701588083276e+001
0	 2.533360000018134e+000	 5.333553781553804e-001	-1.650026675558190e+001
0	 2.533360000018134e+000	 6.000263254118248e-001	-9.818420758264065e+000
0	 2.533360000018135e+000	 6.666972226472178e-001	-3.711829786434318e+000
0	 2.600030000017851e+000	 0.000000000000000e+000	-9.237472495666499e+001
0	 2.600030000017850e+000	 6.666714722864756e-002	-8.104754993383850e+001
0	 2.600030000017851e+000	 1.333351778131790e-001	-7.020519396503842e+001
0	 2.600030000017851e+000	 2.000039750814772e-001	-5.986643295212444e+001
0	 2.600030000017851e+000	 2.666734223614256e-001	-5.005004933056074e+001
0	 2.600030000017851e+000	 3.333434029809069e-001	-4.077483206776650e+001
0	 2.600030000017850e+000	 4.000138002678043e-001	-3.205957666163832e+001
0	 2.600030000017851e+000	 4.666844975500011e-001	-2.392308513924390e+001
0	 2.600030000017851e+000	 5.333553781553803e-001	-1.638416605568741e+001
0	 2.600030000017850e+000	 6.000263254118247e-001	-9.461634493145974e+000
0	 2.600030000017851e+000	 6.666972226472175e-001	-3.174312060077647e+000
0	 2.666700000016666e+000	 0.000000000000000e+000	-9.742032320083703e+001
0	 2.666700000016667e+000	 6.666714722864757e-002	-8.491316223850197e+001
0	 2.666700000016666e+000	 1.333351778131789e-001	-7.306505011182263e+001
0	 2.666700000016666e+000	 2.000039750814772e-001	-6.188047377899300e+001
0	 2.666700000016666e+000	 2.666734223614256e-001	-5.136392696209192e+001
0	 2.666700000016667e+000	 3.333434029809069e-001	-4.151991014539141e+001
0	 2.666700000016666e+000	 4.000138002678045e-001	-3.235293057384250e+001
0	 2.666700000016667e+000	 4.666844975500012e-001	-2.386750225173851e+001
0	 2.666700000016667e+000	 5.333553781553803e-001	-1.606814594155592e+001
0	 2.666700000016666e+000	 6.000263254118246e-001	-8.959389162972606e+000
0	 2.666700000016666e+000	 6.666972226472175e-001	-2.545766192063544e+000
0	 2.000000000000000e+000	 6.666972226472178e-001	-4.361353375203297e+000
0	 2.000000000000000e+000	 7.333579753122046e-001	-1.041159878045658e+000
0	 2.000000000000000e+000	 8.000185779984420e-001	 2.126404552717705e+000
0	 2.000000000000000e+000	 8.666790473703454e-001	 5.124093463520709e+000
0	 2.000000000000000e+000	 9.333394000923323e-001	 7.934660733402249e+000
0	 2.000000000000000e+000	 9.999996528288191e-001	 1.054086057401828e+001
0	 2.000000000000000e+000	 1.066659822244222e+000	 1.292544752965283e+001
0	 2.000000000000000e+000	 1.133319925002959e+000	 1.507117647722755e+001
0	 2.000000000000000e+000	 1.199979977769445e+000	 1.696080262631014e+001
0	 2.000000000000000e+000	 1.266639997208098e+000	 1.857708151912153e+001
0	 2.000000000000000e+000	 1.333299999983334e+000	 1.990276903054172e+001
0	 2.066670000003317e+000	 6.666972226472175e-001	-4.664142318841682e+000
0	 2.066670000003317e+000	 7.333579753122047e-001	-1.005997077761543e+000
0	 2.066670000003317e+000	 8.000185779984417e-001	 2.457866152222682e+000
0	 2.066670000003316e+000	 8.666790473703452e-001	 5.710836906050187e+000
0	 2.066670000003317e+000	 9.333394000923324e-001	 8.736305107475303e+000
0	 2.066670000003317e+000	 9.999996528288192e-001	 1.151766106908107e+001
0	 2.066670000003317e+000	 1.066659822244222e+000	 1.403829549229138e+001
0	 2.066670000003317e+000	 1.133319925002959e+000	 1.628159946738168e+001
0	 2.066670000003316e+000	 1.199979977769445e+000	 1.823096447348815e+001
0	 2.066670000003317e+000	 1.266639997208098e+000	 1.986978237861550e+001
0	 2.066670000003317e+000	 1.333299999983334e+000	 2.118144543964324e+001
0	 2.133340000006534e+000	 6.666972226472177e-001	-4.850996112654475e+000
0	 2.133340000006534e+000	 7.333579753122046e-001	-8.597592047661076e-001
0	 2.133340000006534e+000	 8.000185779984417e-001	 2.893671645945219e+000
0	 2.133340000006534e+000	 8.666790473703453e-001	 6.393626501242824e+000
0	 2.133340000006534e+000	 9.333394000923322e-001	 9.624435868028412e+000
0	 2.133340000006534e+000	 9.999996528288191e-001	 1.257043069835704e+001
0	 2.133340000006534e+000	 1.066659822244222e+000	 1.521594238945056e+001
0	 2.133340000006534e+000	 1.133319925002959e+000	 1.754530278370928e+001
0	 2.133340000006534e+000	 1.199979977769445e+000	 1.954284416872198e+001
0	 2.133340000006534e+000	 1.266639997208098e+000	 2.119289927727435e+001
0	 2.133340000006534e+000	 1.333299999983334e+000	 2.247980128735554e+001
0	 2.200010000009551e+000	 6.666972226472174e-001	-4.925028132664457e+000
0	 2.200010000009550e+000	 7.333579753122047e-001	-6.113835538271433e-001
0	 2.200010000009551e+000	 8.000185779984421e-001	 3.419828525601235e+000
0	 2.200010000009550e+000	 8.666790473703455e-001	 7.154183241218453e+000
0	 2.200010000009551e+000	 9.333394000923322e-001	 1.057725622904407e+001
0	 2.200010000009550e+000	 9.999996528288193e-001	 1.367462362553572e+001
0	 2.200010000009550e+000	 1.066659822244222e+000	 1.643186206760383e+001
0	 2.200010000009550e+000	 1.133319925002959e+000	 1.883454869262421e+001
0	 2.200010000009551e+000	 1.199979977769446e+000	 2.086826113844886e+001
0	 2.200010000009551e+000	 1.266639997208098e+000	 2.251857754341496e+001
0	 2.200010000009551e+000	 1.333299999983334e+000	 2.377107654635192e+001
0	 2.266680000012268e+000	 6.666972226472175e-001	-4.889351754893913e+000
0	 2.266680000012268e+000	 7.333579753122047e-001	-2.698074197118707e-001
0	 2.266680000012267e+000	 8.000185779984418e-001	 4.022344282907168e+000
0	 2.266680000012267e+000	 8.666790473703455e-001	 7.974228118097385e+000
0	 2.266680000012267e+000	 9.333394000923323e-001	 1.157296940450521e+001
0	 2.266680000012268e+000	 9.999996528288192e-001	 1.480569401430706e+001
0	 2.266680000012268e+000	 1.066659822244222e+000	 1.765952837322504e+001
0	 2.266680000012268e+000	 1.133319925002959e+000	 2.012159946054065e+001
0	 2.266680000012268e+000	 1.199979977769445e+000	 2.217903480910623e+001
0	 2.266680000012268e+000	 1.266639997208098e+000	 2.381896250535450e+001
0	 2.266680000012268e+000	 1.333299999983334e+000	 2.502851118930592e+001
0	 2.333350000014584e+000	 6.666972226472177e-001	-4.747080355364611e+000
0	 2.333350000014585e+000	 7.333579753122047e-001	 1.560319028129182e-001
0	 2.333350000014585e+000	 8.000185779984421e-001	 4.687226409579933e+000
0	 2.333350000014584e+000	 8.666790473703454e-001	 8.835482124000404e+000
0	 2.333350000014585e+000	 9.333394000923322e-001	 1.258977860839526e+001
0	 2.333350000014584e+000	 9.999996528288190e-001	 1.593909602836134e+001
0	 2.333350000014585e+000	 1.066659822244222e+000	 1.887241515278833e+001
0	 2.333350000014584e+000	 1.133319925002959e+000	 2.137871735387305e+001
0	 2.333350000014584e+000	 1.199979977769445e+000	 2.344698460713178e+001
0	 2.333350000014584e+000	 1.266639997208098e+000	 2.506619949141025e+001
0	 2.333350000014584e+000	 1.333299999983334e+000	 2.622534518889123e+001
0	 2.400020000016400e+000	 6.666972226472178e-001	-4.501327310097810e+000
0	 2.400020000016402e+000	 7.333579753122049e-001	 6.571971189810100e-001
0	 2.400020000016400e+000	 8.000185779984417e-001	 5.400482397336968e+000
0	 2.400020000016401e+000	 8.666790473703454e-001	 9.719666251048754e+000
0	 2.400020000016401e+000	 9.333394000923324e-001	 1.360588705469798e+001
0	 2.400020000016401e+000	 9.999996528288190e-001	 1.705028383138934e+001
0	 2.400020000016401e+000	 1.066659822244223e+000	 2.004399625276824e+001
0	 2.400020000016401e+000	 1.133319925002959e+000	 2.257816463903622e+001
0	 2.400020000016401e+000	 1.199979977769445e+000	 2.464392995896352e+001
0	 2.400020000016401e+000	 1.266639997208098e+000	 2.623243382989974e+001
0	 2.400020000016401e+000	 1.333299999983334e+000	 2.733481851778168e+001
0	 2.466690000017618e+000	 6.666972226472178e-001	-4.155205995114295e+000
0	 2.466690000017618e+000	 7.333579753122049e-001	 1.224750934026663e+000
0	 2.466690000017618e+000	 8.000185779984418e-001	 6.148119737896185e+000
0	 2.466690000017618e+000	 8.666790473703456e-001	 1.060850149136417e+001
0	 2.466690000017618e+000	 9.333394000923324e-001	 1.459949795739770e+001
0	 2.466690000017617e+000	 9.999996528288191e-001	 1.811471158708213e+001
0	 2.466690000017616e+000	 1.066659822244222e+000	 2.114774551963968e+001
0	 2.466690000017618e+000	 1.133319925002959e+000	 2.369220358244519e+001
0	 2.466690000017617e+000	 1.199979977769445e+000	 2.574169029103965e+001
0	 2.466690000017618e+000	 1.266639997208098e+000	 2.728981084914075e+001
0	 2.466690000017617e+000	 1.333299999983333e+000	 2.833017114865131e+001
0	 2.533360000018135e+000	 6.666972226472178e-001	-3.711829786434316e+000
0	 2.533360000018134e+000	 7.333579753122047e-001	 1.849756053184649e+000
0	 2.533360000018134e+000	 8.000185779984416e-001	 6.916145922976026e+000
0	 2.533360000018134e+000	 8.666790473703456e-001	 1.148370883706888e+001
0	 2.533360000018133e+000	 9.333394000923321e-001	 1.554881453047912e+001
0	 2.533360000018134e+000	 9.999996528288193e-001	 1.910783345913131e+001
0	 2.533360000018134e+000	 1.066659822244222e+000	 2.215713679987787e+001
0	 2.533360000018134e+000	 1.133319925002959e+000	 2.469309645051540e+001
0	 2.533360000018134e+000	 1.199979977769445e+000	 2.671208502979864e+001
0	 2.533360000018134e+000	 1.266639997208098e+000	 2.821047587745123e+001
0	 2.533360000018134e+000	 1.333299999983334e+000	 2.918464305417429e+001
0	 2.600030000017851e+000	 6.666972226472175e-001	-3.174312060077647e+000
0	 2.600030000017851e+000	 7.333579753122047e-001	 2.523275181690271e+000
0	 2.600030000017851e+000	 8.000185779984421e-001	 7.690568444295383e+000
0	 2.600030000017850e+000	 8.666790473703452e-001	 1.232700928028555e+001
0	 2.600030000017851e+000	 9.333394000923322e-001	 1.643203998792739e+001
0	 2.600030000017851e+000	 9.999996528288190e-001	 2.000510361122877e+001
0	 2.600030000017851e+000	 1.066659822244223e+000	 2.304564393995837e+001
0	 2.600030000017851e+000	 1.133319925002959e+000	 2.555310550966254e+001
0	 2.600030000017851e+000	 1.199979977769445e+000	 2.752693360167923e+001
0	 2.600030000017851e+000	 1.266639997208098e+000	 2.896657424314936e+001
0	 2.600030000017851e+000	 1.333299999983334e+000	 2.987147420702500e+001
0	 2.666700000016666e+000	 6.666972226472175e-001	-2.545766192063544e+000
0	 2.666700000016666e+000	 7.333579753122048e-001	 3.236371024779309e+000
0	 2.666700000016666e+000	 8.000185779984421e-001	 8.457394793573730e+000
0	 2.666700000016666e+000	 8.666790473703452e-001	 1.312012381313738e+001
0	 2.666700000016666e+000	 9.333394000923324e-001	 1.722737754372813e+001
0	 2.666700000016666e+000	 9.999996528288191e-001	 2.078197620706686e+001
0	 2.666700000016666e+000	 1.066659822244222e+000	 2.378674078635718e+001
0	 2.666700000016666e+000	 1.133319925002959e+000	 2.624449302630257e+001
0	 2.666700000016666e+000	 1.199979977769445e+000	 2.815805543312045e+001
0	 2.666700000016667e+000	 1.266639997208098e+000	 2.953025127455347e+001
0	 2.666700000016667e+000	 1.333299999983334e+000	 3.036390457987796e+001
0	 2.000000000000000e+000	 1.333299999983334e+000	 1.990276903054172e+001
0	 2.000000000000000e+000	 1.399969999982150e+000	 2.093368589361111e+001
0	 2.000000000000000e+000	 1.466639999981866e+000	 2.168457675565322e+001
0	 2.000000000000000e+000	 1.533309999982383e+000	 2.216711225507086e+001
0	 2.000000000000000e+000	 1.599979999983599e+000	 2.239296303026500e+001
0	 2.000000000000000e+000	 1.666649999985417e+000	 2.237379971963479e+001
0	 2.000000000000000e+000	 1.733319999987733e+000	 2.212129296157747e+001
0	 2.000000000000000e+000	 1.799989999990449e+000	 2.164711339448848e+001
0	 1.999999999999999e+000	 1.866659999993466e+000	 2.096293165676140e+001
0	 2.000000000000000e+000	 1.933329999996684e+000	 2.008041838678792e+001
0	 2.000000000000000e+000	 2.000000000000000e+000	 1.901124422295794e+001
0	 2.066670000003317e+000	 1.333299999983334e+000	 2.118144543964324e+001
0	 2.066670000003317e+000	 1.399969999982150e+000	 2.218087728214077e+001
0	 2.066670000003316e+000	 1.466639999981866e+000	 2.290152523275960e+001
0	 2.066670000003317e+000	 1.533309999982383e+000	 2.335508159049989e+001
0	 2.066670000003317e+000	 1.599979999983599e+000	 2.355323865436003e+001
0	 2.066670000003317e+000	 1.666649999985417e+000	 2.350768872333649e+001
0	 2.066670000003317e+000	 1.733319999987734e+000	 2.323012409642391e+001
0	 2.066670000003318e+000	 1.799989999990450e+000	 2.273223707261505e+001
0	 2.066670000003317e+000	 1.866659999993467e+000	 2.202571995090085e+001
0	 2.066670000003317e+000	 1.933329999996684e+000	 2.112226503027041e+001
0	 2.066670000003317e+000	 2.000000000000000e+000	 2.003356460971094e+001
0	 2.133340000006534e+000	 1.333299999983334e+000	 2.247980128735554e+001
0	 2.133340000006534e+000	 1.399969999982151e+000	 2.343798973832810e+001
0	 2.133340000006534e+000	 1.466639999981866e+000	 2.411973123593290e+001
0	 2.133340000006534e+000	 1.533309999982383e+000	 2.453659498762472e+001
0	 2.133340000006533e+000	 1.599979999983600e+000	 2.470015020085656e+001
0	 2.133340000006534e+000	 1.666649999985416e+000	 2.462196608307949e+001
0	 2.133340000006534e+000	 1.733319999987733e+000	 2.431361184174285e+001
0	 2.133340000006534e+000	 1.799989999990450e+000	 2.378665668429396e+001
0	 2.133340000006534e+000	 1.866659999993467e+000	 2.305266981817842e+001
0	 2.133340000006534e+000	 1.933329999996684e+000	 2.212322045083991e+001
0	 2.133340000006533e+000	 2.000000000000000e+000	 2.100987778972031e+001
0	 2.200010000009551e+000	 1.333299999983334e+000	 2.377107654635192e+001
0	 2.200010000009551e+000	 1.399969999982150e+000	 2.467976406108231e+001
0	 2.200010000009550e+000	 1.466639999981866e+000	 2.531547956801417e+001
0	 2.200010000009552e+000	 1.533309999982383e+000	 2.568952443091426e+001
0	 2.200010000009550e+000	 1.599979999983600e+000	 2.581320001354744e+001
0	 2.200010000009551e+000	 1.666649999985416e+000	 2.569780767967668e+001
0	 2.200010000009550e+000	 1.733319999987733e+000	 2.535464879306311e+001
0	 2.200010000009551e+000	 1.799989999990450e+000	 2.479502471746610e+001
0	 2.200010000009551e+000	 1.866659999993467e+000	 2.403023681664309e+001
0	 2.200010000009550e+000	 1.933329999996683e+000	 2.307158645434965e+001
0	 2.200010000009551e+000	 2.000000000000000e+000	 2.193037499433954e+001
0	 2.266680000012268e+000	 1.333299999983334e+000	 2.502851118930592e+001
0	 2.266680000012268e+000	 1.399969999982150e+000	 2.588094104931268e+001
0	 2.266680000012267e+000	 1.466639999981866e+000	 2.646505503184462e+001
0	 2.266680000012268e+000	 1.533309999982383e+000	 2.679174190483760e+001
0	 2.266680000012267e+000	 1.599979999983600e+000	 2.687189043622566e+001
0	 2.266680000012268e+000	 1.666649999985416e+000	 2.671638939394091e+001
0	 2.266680000012267e+000	 1.733319999987733e+000	 2.633612754591372e+001
0	 2.266680000012267e+000	 1.799989999990450e+000	 2.574199366007254e+001
0	 2.266680000012267e+000	 1.866659999993467e+000	 2.494487650434399e+001
0	 2.266680000012268e+000	 1.933329999996684e+000	 2.395566484665287e+001
0	 2.266680000012268e+000	 2.000000000000000e+000	 2.278524745492211e+001
0	 2.333350000014584e+000	 1.333299999983334e+000	 2.622534518889124e+001
0	 2.333350000014585e+000	 1.399969999982150e+000	 2.701626150192868e+001
0	 2.333350000014585e+000	 1.466639999981867e+000	 2.754474243026546e+001
0	 2.333350000014584e+000	 1.533309999982383e+000	 2.782111939386386e+001
0	 2.333350000014584e+000	 1.599979999983599e+000	 2.785572381268423e+001
0	 2.333350000014585e+000	 1.666649999985416e+000	 2.765888710668523e+001
0	 2.333350000014584e+000	 1.733319999987733e+000	 2.724094069582360e+001
0	 2.333350000014584e+000	 1.799989999990450e+000	 2.661221600005424e+001
0	 2.333350000014585e+000	 1.866659999993467e+000	 2.578304443933025e+001
0	 2.333350000014585e+000	 1.933329999996684e+000	 2.476375743360288e+001
0	 2.333350000014584e+000	 2.000000000000000e+000	 2.356468640282154e+001
0	 2.400020000016401e+000	 1.333299999983334e+000	 2.733481851778168e+001
0	 2.400020000016401e+000	 1.399969999982150e+000	 2.806046621783992e+001
0	 2.400020000016401e+000	 1.466639999981867e+000	 2.853082656611813e+001
0	 2.400020000016400e+000	 1.533309999982383e+000	 2.875552888246223e+001
0	 2.400020000016400e+000	 1.599979999983599e+000	 2.874420248671633e+001
0	 2.400020000016401e+000	 1.666649999985417e+000	 2.850647669872268e+001
0	 2.400020000016401e+000	 1.733319999987733e+000	 2.805198083832181e+001
0	 2.400020000016400e+000	 1.799989999990450e+000	 2.739034422535234e+001
0	 2.400020000016401e+000	 1.866659999993467e+000	 2.653119617965104e+001
0	 2.400020000016401e+000	 1.933329999996684e+000	 2.548416602105301e+001
0	 2.400020000016400e+000	 2.000000000000000e+000	 2.425888306939136e+001
0	 2.466690000017617e+000	 1.333299999983333e+000	 2.833017114865131e+001
0	 2.466690000017618e+000	 1.399969999982150e+000	 2.898829599595615e+001
0	 2.466690000017618e+000	 1.466639999981867e+000	 2.939959224224413e+001
0	 2.466690000017617e+000	 1.533309999982383e+000	 2.957284235510209e+001
0	 2.466690000017617e+000	 1.599979999983600e+000	 2.951682880211510e+001
0	 2.466690000017618e+000	 1.666649999985417e+000	 2.924033405086639e+001
0	 2.466690000017618e+000	 1.733319999987734e+000	 2.875214056893746e+001
0	 2.466690000017617e+000	 1.799989999990450e+000	 2.806103082390792e+001
0	 2.466690000017618e+000	 1.866659999993467e+000	 2.717578728335561e+001
0	 2.466690000017618e+000	 1.933329999996684e+000	 2.610519241485660e+001
0	 2.466690000017618e+000	 2.000000000000000e+000	 2.485802868598511e+001
0	 2.533360000018134e+000	 1.333299999983334e+000	 2.918464305417430e+001
0	 2.533360000018134e+000	 1.399969999982150e+000	 2.977449163518721e+001
0	 2.533360000018134e+000	 1.466639999981866e+000	 3.012732426148503e+001
0	 2.533360000018134e+000	 1.533309999982383e+000	 3.025093179625283e+001
0	 2.533360000018134e+000	 1.599979999983600e+000	 3.015310510267385e+001
0	 2.533360000018134e+000	 1.666649999985417e+000	 2.984163504392957e+001
0	 2.533360000018134e+000	 1.733319999987733e+000	 2.932431248319972e+001
0	 2.533360000018134e+000	 1.799989999990450e+000	 2.860892828366219e+001
0	 2.533360000018133e+000	 1.866659999993467e+000	 2.770327330849316e+001
0	 2.533360000018134e+000	 1.933329999996683e+000	 2.661513842086703e+001
0	 2.533360000018134e+000	 2.000000000000000e+000	 2.535231448395635e+001
0	 2.600030000017851e+000	 1.333299999983334e+000	 2.987147420702500e+001
0	 2.600030000017850e+000	 1.399969999982150e+000	 3.039379393444314e+001
0	 2.600030000017850e+000	 1.466639999981866e+000	 3.069030742668263e+001
0	 2.600030000017851e+000	 1.533309999982383e+000	 3.076766919038401e+001
0	 2.600030000017850e+000	 1.599979999983600e+000	 3.063253373218594e+001
0	 2.600030000017850e+000	 1.666649999985416e+000	 3.029155555872547e+001
0	 2.600030000017851e+000	 1.733319999987733e+000	 2.975138917663779e+001
0	 2.600030000017851e+000	 1.799989999990451e+000	 2.901868909255639e+001
0	 2.600030000017851e+000	 1.866659999993467e+000	 2.810010981311307e+001
0	 2.600030000017850e+000	 1.933329999996683e+000	 2.700230584493773e+001
0	 2.600030000017851e+000	 2.000000000000000e+000	 2.573193169465866e+001
0	 2.666700000016667e+000	 1.333299999983334e+000	 3.036390457987797e+001
0	 2.666700000016667e+000	 1.399969999982150e+000	 3.082094369263407e+001
0	 2.666700000016667e+000	 1.466639999981867e+000	 3.106482654067876e+001
0	 2.666700000016667e+000	 1.533309999982383e+000	 3.110092652196517e+001
0	 2.666700000016666e+000	 1.599979999983600e+000	 3.093461703444481e+001
0	 2.666700000016666e+000	 1.666649999985416e+000	 3.057127147606741e+001
0	 2.666700000016666e+000	 1.733319999987733e+000	 3.001626324478098e+001
0	 2.666700000016666e+000	 1.799989999990450e+000	 2.927496573853185e+001
0	 2.666700000016666e+000	 1.866659999993467e+000	 2.835275235526461e+001
0	 2.666700000016666e+000	 1.933329999996684e+000	 2.725499649292213e+001
0	 2.666700000016666e+000	 2.000000000000000e+000	 2.598707154944562e+001
0	 2.000000000000000e+000	 2.000000000000000e+000	 1.901124422295794e+001
0	 2.000000000000000e+000	 2.066670000003318e+000	 1.785801107045491e+001
0	 2.000000000000000e+000	 2.133340000006534e+000	 1.672014707272034e+001
0	 2.000000000000000e+000	 2.200010000009551e+000	 1.560456222552970e+001
0	 2.000000000000000e+000	 2.266680000012268e+000	 1.451816652465824e+001
0	 2.000000000000000e+000	 2.333350000014584e+000	 1.346786996588096e+001
0	 2.000000000000000e+000	 2.400020000016400e+000	 1.246058254497272e+001
0	 2.000000000000000e+000	 2.466690000017618e+000	 1.150321425770816e+001
0	 2.000000000000000e+000	 2.533360000018134e+000	 1.060267509986173e+001
0	 1.999999999999999e+000	 2.600030000017850e+000	 9.765875067207663e+000
0	 2.000000000000000e+000	 2.666700000016667e+000	 8.999724155520026e+000
0	 2.066670000003317e+000	 2.000000000000000e+000	 2.003356460971094e+001
0	 2.066670000003317e+000	 2.066670000003317e+000	 1.886368147225355e+001
0	 2.066670000003316e+000	 2.133340000006534e+000	 1.771272952337262e+001
0	 2.066670000003318e+000	 2.200010000009551e+000	 1.658647774571880e+001
0	 2.066670000003317e+000	 2.266680000012268e+000	 1.549069512194251e+001
0	 2.066670000003316e+000	 2.333350000014584e+000	 1.443115063469402e+001
0	 2.066670000003318e+000	 2.400020000016401e+000	 1.341361326662342e+001
0	 2.066670000003317e+000	 2.466690000017618e+000	 1.244385200038064e+001
0	 2.066670000003317e+000	 2.533360000018135e+000	 1.152763581861542e+001
0	 2.066670000003317e+000	 2.600030000017850e+000	 1.067073370397733e+001
0	 2.066670000003317e+000	 2.666700000016667e+000	 9.878914639115777e+000
0	 2.133340000006533e+000	 2.000000000000000e+000	 2.100987778972031e+001
0	 2.133340000006534e+000	 2.066670000003317e+000	 1.981825771855273e+001
0	 2.133340000006534e+000	 2.133340000006534e+000	 1.864941319450536e+001
0	 2.133340000006534e+000	 2.200010000009551e+000	 1.750806903517124e+001
0	 2.133340000006533e+000	 2.266680000012268e+000	 1.639895005814325e+001
0	 2.133340000006534e+000	 2.333350000014585e+000	 1.532678108101409e+001
0	 2.133340000006534e+000	 2.400020000016401e+000	 1.429628692137635e+001
0	 2.133340000006534e+000	 2.466690000017618e+000	 1.331219239682248e+001
0	 2.133340000006534e+000	 2.533360000018134e+000	 1.237922232494479e+001
0	 2.133340000006534e+000	 2.600030000017850e+000	 1.150210152333543e+001
0	 2.133340000006534e+000	 2.666700000016666e+000	 1.068555480958642e+001
0	 2.200010000009551e+000	 2.000000000000000e+000	 2.193037499433954e+001
0	 2.200010000009551e+000	 2.066670000003318e+000	 2.071376990762051e+001
0	 2.200010000009550e+000	 2.133340000006533e+000	 1.952392275643391e+001
0	 2.200010000009551e+000	 2.200010000009551e+000	 1.836461104138235e+001
0	 2.200010000009551e+000	 2.266680000012268e+000	 1.723961226306837e+001
0	 2.200010000009551e+000	 2.333350000014585e+000	 1.615270392209438e+001
0	 2.200010000009550e+000	 2.400020000016401e+000	 1.510766351906266e+001
0	 2.200010000009551e+000	 2.466690000017618e+000	 1.410826855457547e+001
0	 2.200010000009550e+000	 2.533360000018134e+000	 1.315829652923491e+001
0	 2.200010000009551e+000	 2.600030000017851e+000	 1.226152494364298e+001
0	 2.200010000009551e+000	 2.666700000016666e+000	 1.142173129840156e+001
0	 2.266680000012268e+000	 2.000000000000000e+000	 2.278524745492211e+001
0	 2.266680000012268e+000	 2.066670000003317e+000	 2.154224813772505e+001
0	 2.266680000012267e+000	 2.133340000006534e+000	 2.032998287947366e+001
0	 2.266680000012267e+000	 2.200010000009550e+000	 1.915137871184744e+001
0	 2.266680000012267e+000	 2.266680000012267e+000	 1.800936266652575e+001
0	 2.266680000012268e+000	 2.333350000014584e+000	 1.690686177518799e+001
0	 2.266680000012268e+000	 2.400020000016402e+000	 1.584680306951341e+001
0	 2.266680000012267e+000	 2.466690000017617e+000	 1.483211358118123e+001
0	 2.266680000012267e+000	 2.533360000018134e+000	 1.386572034187063e+001
0	 2.266680000012268e+000	 2.600030000017851e+000	 1.295055038326070e+001
0	 2.266680000012268e+000	 2.666700000016666e+000	 1.208953073703049e+001
0	 2.333350000014584e+000	 2.000000000000000e+000	 2.356468640282154e+001
0	 2.333350000014584e+000	 2.066670000003316e+000	 2.229572250713439e+001
0	 2.333350000014585e+000	 2.133340000006534e+000	 2.106131823393990e+001
0	 2.333350000014585e+000	 2.200010000009551e+000	 1.986364699406163e+001
0	 2.333350000014584e+000	 2.266680000012268e+000	 1.870488219832318e+001
0	 2.333350000014584e+000	 2.333350000014584e+000	 1.758719725754795e+001
0	 2.333350000014585e+000	 2.400020000016402e+000	 1.651276558255949e+001
0	 2.333350000014584e+000	 2.466690000017617e+000	 1.548376058418124e+001
0	 2.333350000014585e+000	 2.533360000018135e+000	 1.450235567323669e+001
0	 2.333350000014584e+000	 2.600030000017851e+000	 1.357072426054924e+001
0	 2.333350000014584e+000	 2.666700000016666e+000	 1.269103975694233e+001
0	 2.400020000016400e+000	 2.000000000000000e+000	 2.425888306939136e+001
0	 2.400020000016401e+000	 2.066670000003318e+000	 2.296622311411661e+001
0	 2.400020000016400e+000	 2.133340000006534e+000	 2.171165349014792e+001
0	 2.400020000016401e+000	 2.200010000009550e+000	 2.049669083552022e+001
0	 2.400020000016401e+000	 2.266680000012267e+000	 1.932285178826833e+001
0	 2.400020000016402e+000	 2.333350000014585e+000	 1.819165298642716e+001
0	 2.400020000016400e+000	 2.400020000016400e+000	 1.710461106803167e+001
0	 2.400020000016401e+000	 2.466690000017617e+000	 1.606324267111680e+001
0	 2.400020000016401e+000	 2.533360000018135e+000	 1.506906443371756e+001
0	 2.400020000016401e+000	 2.600030000017851e+000	 1.412359299386896e+001
0	 2.400020000016401e+000	 2.666700000016665e+000	 1.322834498960602e+001
0	 2.466690000017618e+000	 2.000000000000000e+000	 2.485802868598511e+001
0	 2.466690000017618e+000	 2.066670000003317e+000	 2.354578005693983e+001
0	 2.466690000017618e+000	 2.133340000006534e+000	 2.227471331841307e+001
0	 2.466690000017618e+000	 2.200010000009551e+000	 2.104578518371825e+001
0	 2.466690000017617e+000	 2.266680000012268e+000	 1.985995236616885e+001
0	 2.466690000017618e+000	 2.333350000014585e+000	 1.871817157907841e+001
0	 2.466690000017618e+000	 2.400020000016400e+000	 1.762139953576059e+001
0	 2.466690000017618e+000	 2.466690000017619e+000	 1.657059294952905e+001
0	 2.466690000017617e+000	 2.533360000018135e+000	 1.556670853369757e+001
0	 2.466690000017618e+000	 2.600030000017851e+000	 1.461070300157997e+001
0	 2.466690000017618e+000	 2.666700000016666e+000	 1.370353306649018e+001
0	 2.533360000018134e+000	 2.000000000000000e+000	 2.535231448395635e+001
0	 2.533360000018134e+000	 2.066670000003318e+000	 2.402642343387210e+001
0	 2.533360000018134e+000	 2.133340000006534e+000	 2.274422238905050e+001
0	 2.533360000018134e+000	 2.200010000009550e+000	 2.150620498615078e+001
0	 2.533360000018134e+000	 2.266680000012268e+000	 2.031286486183229e+001
0	 2.533360000018134e+000	 2.333350000014585e+000	 1.916469565275442e+001
0	 2.533360000018134e+000	 2.400020000016401e+000	 1.806219099557677e+001
0	 2.533360000018134e+000	 2.466690000017618e+000	 1.700584452695899e+001
0	 2.533360000018134e+000	 2.533360000018134e+000	 1.599614988356085e+001
0	 2.533360000018134e+000	 2.600030000017850e+000	 1.503360070204227e+001
0	 2.533360000018134e+000	 2.666700000016666e+000	 1.411869061906324e+001
0	 2.600030000017851e+000	 2.000000000000000e+000	 2.573193169465866e+001
0	 2.600030000017850e+000	 2.066670000003317e+000	 2.440018334318153e+001
0	 2.600030000017851e+000	 2.133340000006534e+000	 2.311390537237550e+001
0	 2.600030000017851e+000	 2.200010000009551e+000	 2.187322519031288e+001
0	 2.600030000017851e+000	 2.266680000012268e+000	 2.067827020506612e+001
0	 2.600030000017851e+000	 2.333350000014585e+000	 1.952916782470776e+001
0	 2.600030000017851e+000	 2.400020000016401e+000	 1.842604545731056e+001
0	 2.600030000017851e+000	 2.466690000017618e+000	 1.736903051094740e+001
0	 2.600030000017850e+000	 2.533360000018134e+000	 1.635825039369134e+001
0	 2.600030000017851e+000	 2.600030000017851e+000	 1.539383251361556e+001
0	 2.600030000017851e+000	 2.666700000016666e+000	 1.447590427879340e+001
0	 2.666700000016666e+000	 2.000000000000000e+000	 2.598707154944562e+001
0	 2.666700000016667e+000	 2.066670000003317e+000	 2.465908988313614e+001
0	 2.666700000016666e+000	 2.133340000006534e+000	 2.337748693870326e+001
0	 2.666700000016666e+000	 2.200010000009550e+000	 2.214212074369952e+001
0	 2.666700000016667e+000	 2.266680000012268e+000	 2.095284932567774e+001
0	 2.666700000016666e+000	 2.333350000014584e+000	 1.980953071219092e+001
0	 2.666700000016665e+000	 2.400020000016401e+000	 1.871202293079222e+001
0	 2.666700000016666e+000	 2.466690000017617e+000	 1.766018400903501e+001
0	 2.666700000016666e+000	 2.533360000018134e+000	 1.665387197447282e+001
0	 2.666700000016666e+000	 2.600030000017850e+000	 1.569294485465939e+001
0	 2.666700000016666e+000	 2.666700000016667e+000	 1.477726067714863e+001
0	 2.000000000000000e+000	 2.666700000016667e+000	 8.999724155520024e+000
0	 2.000000000000000e+000	 2.733360000014533e+000	 8.331200937017629e+000
0	 2.000000000000000e+000	 2.800020000011600e+000	 7.777407870132882e+000
0	 2.000000000000000e+000	 2.866680000008066e+000	 7.330768598927325e+000
0	 2.000000000000000e+000	 2.933340000004133e+000	 6.983706767462083e+000
0	 2.000000000000000e+000	 3.000000000000001e+000	 6.728646019797896e+000
0	 2.000000000000000e+000	 3.066659999995868e+000	 6.558009999995093e+000
0	 2.000000000000000e+000	 3.133319999991934e+000	 6.464222352113586e+000
0	 2.000000000000000e+000	 3.199979999988401e+000	 6.439706720212881e+000
0	 2.000000000000000e+000	 3.266639999985468e+000	 6.476886748352118e+000
0	 1.999999999999999e+000	 3.333299999983333e+000	 6.568186080589955e+000
0	 2.066670000003317e+000	 2.666700000016667e+000	 9.878914639115779e+000
0	 2.066670000003318e+000	 2.733360000014533e+000	 9.179905549664010e+000
0	 2.066670000003317e+000	 2.800020000011600e+000	 8.592739296852448e+000
0	 2.066670000003316e+000	 2.866680000008066e+000	 8.110484559231740e+000
0	 2.066670000003318e+000	 2.933340000004133e+000	 7.726210015351978e+000
0	 2.066670000003317e+000	 3.000000000000001e+000	 7.432984343762795e+000
0	 2.066670000003318e+000	 3.066659999995868e+000	 7.223876223013244e+000
0	 2.066670000003317e+000	 3.133319999991935e+000	 7.091954331651893e+000
0	 2.066670000003316e+000	 3.199979999988402e+000	 7.030287348226796e+000
0	 2.066670000003317e+000	 3.266639999985468e+000	 7.031943951285479e+000
0	 2.066670000003317e+000	 3.333299999983334e+000	 7.089992819374963e+000
0	 2.133340000006534e+000	 2.666700000016666e+000	 1.068555480958642e+001
0	 2.133340000006534e+000	 2.733360000014533e+000	 9.957724390125522e+000
0	 2.133340000006534e+000	 2.800020000011601e+000	 9.339159084855512e+000
0	 2.133340000006534e+000	 2.866680000008066e+000	 8.823546722054763e+000
0	 2.133340000006534e+000	 2.933340000004133e+000	 8.404575130000993e+000
0	 2.133340000006534e+000	 3.000000000000002e+000	 8.075932136971339e+000
0	 2.133340000006534e+000	 3.066659999995868e+000	 7.831305571242277e+000
0	 2.133340000006534e+000	 3.133319999991935e+000	 7.664383261089666e+000
0	 2.133340000006534e+000	 3.199979999988401e+000	 7.568853034788747e+000
0	 2.133340000006534e+000	 3.266639999985467e+000	 7.538402720614142e+000
0	 2.133340000006534e+000	 3.333299999983333e+000	 7.566720146839822e+000
0	 2.200010000009551e+000	 2.666700000016666e+000	 1.142173129840156e+001
0	 2.200010000009550e+000	 2.733360000014534e+000	 1.066717366984358e+001
0	 2.200010000009551e+000	 2.800020000011600e+000	 1.001953619456179e+001
0	 2.200010000009550e+000	 2.866680000008066e+000	 9.473099965800920e+000
0	 2.200010000009550e+000	 2.933340000004133e+000	 9.022146076805003e+000
0	 2.200010000009551e+000	 3.000000000000000e+000	 8.660955620817303e+000
0	 2.200010000009550e+000	 3.066659999995867e+000	 8.383809691080350e+000
0	 2.200010000009550e+000	 3.133319999991934e+000	 8.184989380835944e+000
0	 2.200010000009551e+000	 3.199979999988401e+000	 8.058775783325208e+000
0	 2.200010000009551e+000	 3.266639999985468e+000	 7.999449991788454e+000
0	 2.200010000009551e+000	 3.333299999983335e+000	 8.001293099465359e+000
0	 2.266680000012268e+000	 2.666700000016666e+000	 1.208953073703049e+001
0	 2.266680000012268e+000	 2.733360000014533e+000	 1.131076960025929e+001
0	 2.266680000012266e+000	 2.800020000011598e+000	 1.063673958639075e+001
0	 2.266680000012268e+000	 2.866680000008067e+000	 1.006228916887458e+001
0	 2.266680000012268e+000	 2.933340000004134e+000	 9.582266821159708e+000
0	 2.266680000012268e+000	 3.000000000000000e+000	 9.191521016694216e+000
0	 2.266680000012268e+000	 3.066659999995867e+000	 8.884900228925345e+000
0	 2.266680000012267e+000	 3.133319999991935e+000	 8.657252931299500e+000
0	 2.266680000012267e+000	 3.199979999988401e+000	 8.503427597262322e+000
0	 2.266680000012268e+000	 3.266639999985468e+000	 8.418272700258539e+000
0	 2.266680000012267e+000	 3.333299999983334e+000	 8.396636713732129e+000
0	 2.333350000014584e+000	 2.666700000016666e+000	 1.269103975694233e+001
0	 2.333350000014584e+000	 2.733360000014533e+000	 1.189102839281360e+001
0	 2.333350000014585e+000	 2.800020000011600e+000	 1.119363822076161e+001
0	 2.333350000014584e+000	 2.866680000008067e+000	 1.059425920967975e+001
0	 2.333350000014585e+000	 2.933340000004134e+000	 1.008828132846047e+001
0	 2.333350000014584e+000	 3.000000000000000e+000	 9.671094545995311e+000
0	 2.333350000014585e+000	 3.066659999995868e+000	 9.338088831174879e+000
0	 2.333350000014585e+000	 3.133319999991934e+000	 9.084654152888856e+000
0	 2.333350000014585e+000	 3.199979999988402e+000	 8.906180480026029e+000
0	 2.333350000014585e+000	 3.266639999985467e+000	 8.798057781474252e+000
0	 2.333350000014584e+000	 3.333299999983333e+000	 8.755676026120476e+000
0	 2.400020000016401e+000	 2.666700000016665e+000	 1.322834498960602e+001
0	 2.400020000016402e+000	 2.733360000014533e+000	 1.241046625894716e+001
0	 2.400020000016401e+000	 2.800020000011600e+000	 1.169310105809335e+001
0	 2.400020000016400e+000	 2.866680000008066e+000	 1.107215496662022e+001
0	 2.400020000016402e+000	 2.933340000004134e+000	 1.054353356410241e+001
0	 2.400020000016401e+000	 3.000000000000000e+000	 1.010314243011356e+001
0	 2.400020000016401e+000	 3.066659999995868e+000	 9.746887144226296e+000
0	 2.400020000016401e+000	 3.133319999991933e+000	 9.470673286012218e+000
0	 2.400020000016401e+000	 3.199979999988401e+000	 9.270406435041998e+000
0	 2.400020000016401e+000	 3.266639999985468e+000	 9.141992170885189e+000
0	 2.400020000016401e+000	 3.333299999983334e+000	 9.081336073110480e+000
0	 2.466690000017618e+000	 2.666700000016666e+000	 1.370353306649018e+001
0	 2.466690000017618e+000	 2.733360000014534e+000	 1.287159941010039e+001
0	 2.466690000017617e+000	 2.800020000011600e+000	 1.213799705880465e+001
0	 2.466690000017617e+000	 2.866680000008067e+000	 1.149912131809951e+001
0	 2.466690000017617e+000	 2.933340000004133e+000	 1.095136749348038e+001
0	 2.466690000017618e+000	 3.000000000000000e+000	 1.049113089044167e+001
0	 2.466690000017617e+000	 3.066659999995866e+000	 1.011480681447666e+001
0	 2.466690000017618e+000	 3.133319999991934e+000	 9.818790571077599e+000
0	 2.466690000017617e+000	 3.199979999988401e+000	 9.599477465735586e+000
0	 2.466690000017618e+000	 3.266639999985469e+000	 9.453262803940731e+000
0	 2.466690000017618e+000	 3.333299999983335e+000	 9.376541891181986e+000
0	 2.533360000018134e+000	 2.666700000016666e+000	 1.411869061906324e+001
0	 2.533360000018134e+000	 2.733360000014533e+000	 1.327694405771346e+001
0	 2.533360000018134e+000	 2.800020000011600e+000	 1.253119518331397e+001
0	 2.533360000018134e+000	 2.866680000008067e+000	 1.187830314252084e+001
0	 2.533360000018134e+000	 2.933340000004134e+000	 1.131512708198894e+001
0	 2.533360000018134e+000	 3.000000000000000e+000	 1.083852614837207e+001
0	 2.533360000018134e+000	 3.066659999995867e+000	 1.044535948832281e+001
0	 2.533360000018134e+000	 3.133319999991935e+000	 1.013248624849269e+001
0	 2.533360000018134e+000	 3.199979999988401e+000	 9.896765575531997e+000
0	 2.533360000018134e+000	 3.266639999985468e+000	 9.735056616089956e+000
0	 2.533360000018134e+000	 3.333299999983334e+000	 9.644218516814615e+000
0	 2.600030000017851e+000	 2.666700000016666e+000	 1.447590427879341e+001
0	 2.600030000017851e+000	 2.733360000014533e+000	 1.362901641322629e+001
0	 2.600030000017850e+000	 2.800020000011600e+000	 1.287556439203950e+001
0	 2.600030000017850e+000	 2.866680000008066e+000	 1.221284531828720e+001
0	 2.600030000017850e+000	 2.933340000004133e+000	 1.163815629502241e+001
0	 2.600030000017851e+000	 3.000000000000000e+000	 1.114879442529690e+001
0	 2.600030000017851e+000	 3.066659999995868e+000	 1.074205681216126e+001
0	 2.600030000017851e+000	 3.133319999991935e+000	 1.041524055866493e+001
0	 2.600030000017850e+000	 3.199979999988401e+000	 1.016564276785609e+001
0	 2.600030000017851e+000	 3.266639999985468e+000	 9.990560542781751e+000
0	 2.600030000017851e+000	 3.333299999983334e+000	 9.887290986487747e+000
0	 2.666700000016666e+000	 2.666700000016667e+000	 1.477726067714863e+001
0	 2.666700000016666e+000	 2.733360000014533e+000	 1.393033268807854e+001
0	 2.666700000016666e+000	 2.800020000011600e+000	 1.317397364539913e+001
0	 2.666700000016667e+000	 2.866680000008067e+000	 1.250589272380132e+001
0	 2.666700000016665e+000	 2.933340000004133e+000	 1.192379909797480e+001
0	 2.666700000016667e+000	 3.000000000000000e+000	 1.142540194260805e+001
0	 2.666700000016667e+000	 3.066659999995868e+000	 1.100841043238828e+001
0	 2.666700000016666e+000	 3.133319999991934e+000	 1.067053374200151e+001
0	 2.666700000016667e+000	 3.199979999988401e+000	 1.040948104613247e+001
0	 2.666700000016666e+000	 3.266639999985468e+000	 1.022296151946471e+001
0	 2.666700000016666e+000	 3.333299999983333e+000	 1.010868433668049e+001
0	 1.999999999999999e+000	 3.333299999983333e+000	 6.568186080589955e+000
0	 2.000000000000000e+000	 3.399969999982150e+000	 6.713696567408331e+000
0	 2.000000000000000e+000	 3.466639999981866e+000	 6.911872343928616e+000
0	 2.000000000000000e+000	 3.533309999982383e+000	 7.152732611471214e+000
0	 2.000000000000000e+000	 3.599979999983598e+000	 7.426296571356931e+000
0	 2.000000000000000e+000	 3.666649999985415e+000	 7.722583424906859e+000
0	 2.000000000000000e+000	 3.733319999987732e+000	 8.031612373442467e+000
0	 2.000000000000000e+000	 3.799989999990448e+000	 8.343402618285584e+000
0	 2.000000000000000e+000	 3.866659999993464e+000	 8.647973360758360e+000
0	 2.000000000000000e+000	 3.933329999996682e+000	 8.935343802183311e+000
0	 2.000000000000000e+000	 4.000000000000001e+000	 9.195533143883310e+000
0	 2.066670000003317e+000	 3.333299999983334e+000	 7.089992819374960e+000
0	 2.066670000003317e+000	 3.399969999982149e+000	 7.201643510636309e+000
0	 2.066670000003317e+000	 3.466639999981867e+000	 7.362650842470293e+000
0	 2.066670000003317e+000	 3.533309999982382e+000	 7.563939156642751e+000
0	 2.066670000003317e+000	 3.599979999983598e+000	 7.796432794919899e+000
0	 2.066670000003317e+000	 3.666649999985415e+000	 8.051056099068273e+000
0	 2.066670000003317e+000	 3.733319999987733e+000	 8.318733410854744e+000
0	 2.066670000003317e+000	 3.799989999990449e+000	 8.590389072046541e+000
0	 2.066670000003317e+000	 3.866659999993464e+000	 8.856947424411242e+000
0	 2.066670000003317e+000	 3.933329999996682e+000	 9.109332809716701e+000
0	 2.066670000003317e+000	 4.000000000000000e+000	 9.338469569731181e+000
0	 2.133340000006534e+000	 3.333299999983333e+000	 7.566720146839822e+000
0	 2.133340000006534e+000	 3.399969999982150e+000	 7.648091254865818e+000
0	 2.133340000006534e+000	 3.466639999981866e+000	 7.775521224230547e+000
0	 2.133340000006534e+000	 3.533309999982382e+000	 7.940801761675065e+000
0	 2.133340000006534e+000	 3.599979999983599e+000	 8.135724573940847e+000
0	 2.133340000006534e+000	 3.666649999985415e+000	 8.352081367769632e+000
0	 2.133340000006534e+000	 3.733319999987732e+000	 8.581663849903480e+000
0	 2.133340000006534e+000	 3.799989999990448e+000	 8.816263727084824e+000
0	 2.133340000006534e+000	 3.866659999993465e+000	 9.047672706056376e+000
0	 2.133340000006533e+000	 3.933329999996681e+000	 9.267682493561235e+000
0	 2.133340000006533e+000	 4.000000000000000e+000	 9.468084796342779e+000
0	 2.200010000009551e+000	 3.333299999983335e+000	 8.001293099465359e+000
0	 2.200010000009551e+000	 3.399969999982150e+000	 8.055673818827961e+000
0	 2.200010000009550e+000	 3.466639999981866e+000	 8.152845173727251e+000
0	 2.200010000009551e+000	 3.533309999982383e+000	 8.285428460409396e+000
0	 2.200010000009550e+000	 3.599979999983598e+000	 8.446044975120838e+000
0	 2.200010000009551e+000	 3.666649999985416e+000	 8.627316014108303e+000
0	 2.200010000009551e+000	 3.733319999987732e+000	 8.821862873618901e+000
0	 2.200010000009550e+000	 3.799989999990448e+000	 9.022306849899980e+000
0	 2.200010000009550e+000	 3.866659999993464e+000	 9.221269239199298e+000
0	 2.200010000009551e+000	 3.933329999996682e+000	 9.411371337764830e+000
0	 2.200010000009551e+000	 4.000000000000001e+000	 9.585234441844953e+000
0	 2.266680000012267e+000	 3.333299999983334e+000	 8.396636713732132e+000
0	 2.266680000012268e+000	 3.399969999982150e+000	 8.427025221253576e+000
0	 2.266680000012268e+000	 3.466639999981866e+000	 8.496984375478128e+000
0	 2.266680000012267e+000	 3.533309999982382e+000	 8.599927286686748e+000
0	 2.266680000012268e+000	 3.599979999983599e+000	 8.729267065160705e+000
0	 2.266680000012268e+000	 3.666649999985415e+000	 8.878416821181510e+000
0	 2.266680000012267e+000	 3.733319999987731e+000	 9.040789665031063e+000
0	 2.266680000012267e+000	 3.799989999990448e+000	 9.209798706991519e+000
0	 2.266680000012267e+000	 3.866659999993464e+000	 9.378857057345334e+000
0	 2.266680000012267e+000	 3.933329999996681e+000	 9.541377826375294e+000
0	 2.266680000012268e+000	 4.000000000000002e+000	 9.690774124364468e+000
0	 2.333350000014584e+000	 3.333299999983333e+000	 8.755676026120476e+000
0	 2.333350000014584e+000	 3.399969999982150e+000	 8.764779480873337e+000
0	 2.333350000014585e+000	 3.466639999981866e+000	 8.810300514000655e+000
0	 2.333350000014584e+000	 3.533309999982382e+000	 8.886406274347955e+000
0	 2.333350000014584e+000	 3.599979999983599e+000	 8.987263910761122e+000
0	 2.333350000014584e+000	 3.666649999985415e+000	 9.107040572086296e+000
0	 2.333350000014584e+000	 3.733319999987732e+000	 9.239903407169933e+000
0	 2.333350000014585e+000	 3.799989999990448e+000	 9.380019564858767e+000
0	 2.333350000014584e+000	 3.866659999993464e+000	 9.521556193999793e+000
0	 2.333350000014584e+000	 3.933329999996681e+000	 9.658680443440348e+000
0	 2.333350000014583e+000	 3.999999999999999e+000	 9.785559462028019e+000
0	 2.400020000016401e+000	 3.333299999983334e+000	 9.081336073110480e+000
0	 2.400020000016401e+000	 3.399969999982150e+000	 9.071570616417683e+000
0	 2.400020000016401e+000	 3.466639999981866e+000	 9.095155273812072e+000
0	 2.400020000016400e+000	 3.533309999982382e+000	 9.146973457233612e+000
0	 2.400020000016401e+000	 3.599979999983599e+000	 9.221908578622603e+000
0	 2.400020000016401e+000	 3.666649999985415e+000	 9.314844049919568e+000
0	 2.400020000016401e+000	 3.733319999987732e+000	 9.420663283065307e+000
0	 2.400020000016401e+000	 3.799989999990449e+000	 9.534249690000943e+000
0	 2.400020000016401e+000	 3.866659999993465e+000	 9.650486682667834e+000
0	 2.400020000016401e+000	 3.933329999996682e+000	 9.764257673007608e+000
0	 2.400020000016401e+000	 4.000000000000000e+000	 9.870446072962213e+000
0	 2.466690000017618e+000	 3.333299999983335e+000	 9.376541891181986e+000
0	 2.466690000017618e+000	 3.399969999982150e+000	 9.350032646616784e+000
0	 2.466690000017618e+000	 3.466639999981866e+000	 9.353910339429449e+000
0	 2.466690000017618e+000	 3.533309999982383e+000	 9.383736869184185e+000
0	 2.466690000017617e+000	 3.599979999983598e+000	 9.435074135445465e+000
0	 2.466690000017618e+000	 3.666649999985415e+000	 9.503484037778005e+000
0	 2.466690000017616e+000	 3.733319999987732e+000	 9.584528475746811e+000
0	 2.466690000017618e+000	 3.799989999990449e+000	 9.673769348917144e+000
0	 2.466690000017617e+000	 3.866659999993464e+000	 9.766768556854490e+000
0	 2.466690000017618e+000	 3.933329999996682e+000	 9.859087999124633e+000
0	 2.466690000017617e+000	 4.000000000000000e+000	 9.946289575293594e+000
0	 2.533360000018134e+000	 3.333299999983334e+000	 9.644218516814615e+000
0	 2.533360000018133e+000	 3.399969999982150e+000	 9.602799590200625e+000
0	 2.533360000018134e+000	 3.466639999981866e+000	 9.588927395369648e+000
0	 2.533360000018134e+000	 3.533309999982382e+000	 9.598804544039894e+000
0	 2.533360000018134e+000	 3.599979999983598e+000	 9.628633647929846e+000
0	 2.533360000018134e+000	 3.666649999985415e+000	 9.674617318758216e+000
0	 2.533360000018134e+000	 3.733319999987732e+000	 9.732958168243986e+000
0	 2.533360000018134e+000	 3.799989999990448e+000	 9.799858808106329e+000
0	 2.533360000018134e+000	 3.866659999993465e+000	 9.871521850064722e+000
0	 2.533360000018134e+000	 3.933329999996682e+000	 9.944149905838824e+000
0	 2.533360000018134e+000	 4.000000000000000e+000	 1.001394558714861e+001
0	 2.600030000017851e+000	 3.333299999983334e+000	 9.887290986487749e+000
0	 2.600030000017851e+000	 3.399969999982150e+000	 9.832505465898944e+000
0	 2.600030000017850e+000	 3.466639999981866e+000	 9.802568126149279e+000
0	 2.600030000017850e+000	 3.533309999982382e+000	 9.794284515640772e+000
0	 2.600030000017850e+000	 3.599979999983599e+000	 9.804460182775715e+000
0	 2.600030000017851e+000	 3.666649999985415e+000	 9.829900675956610e+000
0	 2.600030000017850e+000	 3.733319999987732e+000	 9.867411543586169e+000
0	 2.600030000017850e+000	 3.799989999990448e+000	 9.913798334067346e+000
0	 2.600030000017851e+000	 3.866659999993465e+000	 9.965866595803337e+000
0	 2.600030000017850e+000	 3.933329999996682e+000	 1.002042187719756e+001
0	 2.600030000017851e+000	 4.000000000000001e+000	 1.007426972665364e+001
0	 2.666700000016666e+000	 3.333299999983333e+000	 1.010868433668049e+001
0	 2.666700000016667e+000	 3.399969999982149e+000	 1.004178429244126e+001
0	 2.666700000016666e+000	 3.466639999981866e+000	 9.997194216284772e+000
0	 2.666700000016667e+000	 3.533309999982382e+000	 9.972284817826687e+000
0	 2.666700000016666e+000	 3.599979999983598e+000	 9.964426806682866e+000
0	 2.666700000016666e+000	 3.666649999985415e+000	 9.970990892469402e+000
0	 2.666700000016665e+000	 3.733319999987732e+000	 9.989347784802586e+000
0	 2.666700000016666e+000	 3.799989999990448e+000	 1.001686819329891e+001
0	 2.666700000016666e+000	 3.866659999993464e+000	 1.005092282757508e+001
0	 2.666700000016666e+000	 3.933329999996681e+000	 1.008888239724806e+001
0	 2.666700000016666e+000	 4.000000000000001e+000	 1.012811761193497e+001
0	 2.000000000000000e+000	 4.000000000000001e+000	 9.195533143883308e+000
0	 2.000000000000000e+000	 4.066670000003317e+000	 9.410052187493994e+000
0	 2.000000000000000e+000	 4.133340000006533e+000	 9.571833937927865e+000
0	 2.000000000000000e+000	 4.200010000009550e+000	 9.688030901423311e+000
0	 2.000000000000000e+000	 4.266680000012267e+000	 9.765795584218878e+000
0	 2.000000000000000e+000	 4.333350000014583e+000	 9.812280492553292e+000
0	 2.000000000000000e+000	 4.400020000016400e+000	 9.834638132665361e+000
0	 2.000000000000000e+000	 4.466690000017617e+000	 9.840021010794104e+000
0	 2.000000000000000e+000	 4.533360000018132e+000	 9.835581633178620e+000
0	 2.000000000000000e+000	 4.600030000017848e+000	 9.828472506058191e+000
0	 2.000000000000000e+000	 4.666700000016665e+000	 9.825846135672226e+000
0	 2.066670000003317e+000	 4.000000000000000e+000	 9.338469569731181e+000
0	 2.066670000003317e+000	 4.066670000003317e+000	 9.526695924669198e+000
0	 2.066670000003317e+000	 4.133340000006534e+000	 9.666837290827980e+000
0	 2.066670000003317e+000	 4.200010000009550e+000	 9.765548804100170e+000
0	 2.066670000003317e+000	 4.266680000012268e+000	 9.829485600378574e+000
0	 2.066670000003317e+000	 4.333350000014584e+000	 9.865302815556127e+000
0	 2.066670000003317e+000	 4.400020000016399e+000	 9.879655585525860e+000
0	 2.066670000003317e+000	 4.466690000017616e+000	 9.879199046181006e+000
0	 2.066670000003317e+000	 4.533360000018133e+000	 9.870588333414894e+000
0	 2.066670000003317e+000	 4.600030000017849e+000	 9.860478583120992e+000
0	 2.066670000003317e+000	 4.666700000016667e+000	 9.855524931192935e+000
0	 2.133340000006533e+000	 4.000000000000000e+000	 9.468084796342779e+000
0	 2.133340000006534e+000	 4.066670000003317e+000	 9.632072586938877e+000
0	 2.133340000006534e+000	 4.133340000006534e+000	 9.752422334285015e+000
0	 2.133340000006534e+000	 4.200010000009551e+000	 9.835300989721388e+000
0	 2.133340000006534e+000	 4.266680000012268e+000	 9.886875504588364e+000
0	 2.133340000006534e+000	 4.333350000014583e+000	 9.913312830226378e+000
0	 2.133340000006534e+000	 4.400020000016401e+000	 9.920779917976013e+000
0	 2.133340000006534e+000	 4.466690000017617e+000	 9.915443719177990e+000
0	 2.133340000006534e+000	 4.533360000018132e+000	 9.903471185173180e+000
0	 2.133340000006534e+000	 4.600030000017849e+000	 9.891029267302539e+000
0	 2.133340000006533e+000	 4.666700000016666e+000	 9.884284916907205e+000
0	 2.200010000009551e+000	 4.000000000000001e+000	 9.585234441844953e+000
0	 2.200010000009551e+000	 4.066670000003318e+000	 9.726926800227211e+000
0	 2.200010000009551e+000	 4.133340000006533e+000	 9.829227765920752e+000
0	 2.200010000009551e+000	 4.200010000009550e+000	 9.897825291506617e+000
0	 2.200010000009550e+000	 4.266680000012266e+000	 9.938407329565985e+000
0	 2.200010000009551e+000	 4.333350000014582e+000	 9.956661832680140e+000
0	 2.200010000009550e+000	 4.400020000016401e+000	 9.958276753430496e+000
0	 2.200010000009552e+000	 4.466690000017616e+000	 9.948940044398594e+000
0	 2.200010000009551e+000	 4.533360000018133e+000	 9.934339658166095e+000
0	 2.200010000009551e+000	 4.600030000017848e+000	 9.920163547314802e+000
0	 2.200010000009551e+000	 4.666700000016666e+000	 9.912099664426611e+000
0	 2.266680000012268e+000	 4.000000000000002e+000	 9.690774124364467e+000
0	 2.266680000012268e+000	 4.066670000003317e+000	 9.812003190458329e+000
0	 2.266680000012267e+000	 4.133340000006533e+000	 9.897892283356919e+000
0	 2.266680000012268e+000	 4.200010000009550e+000	 9.953659542675419e+000
0	 2.266680000012267e+000	 4.266680000012268e+000	 9.984523108029126e+000
0	 2.266680000012267e+000	 4.333350000014583e+000	 9.995701119033475e+000
0	 2.266680000012268e+000	 4.400020000016401e+000	 9.992411715303994e+000
0	 2.266680000012267e+000	 4.466690000017615e+000	 9.979873036456343e+000
0	 2.266680000012267e+000	 4.533360000018131e+000	 9.963303222106285e+000
0	 2.266680000012268e+000	 4.600030000017849e+000	 9.947920411869712e+000
0	 2.266680000012268e+000	 4.666700000016667e+000	 9.938942745362626e+000
0	 2.333350000014583e+000	 3.999999999999999e+000	 9.785559462028015e+000
0	 2.333350000014584e+000	 4.066670000003318e+000	 9.888046383556308e+000
0	 2.333350000014585e+000	 4.133340000006532e+000	 9.959054584215197e+000
0	 2.333350000014585e+000	 4.200010000009550e+000	 1.000334157644736e+001
0	 2.333350000014584e+000	 4.266680000012268e+000	 1.002566487269547e+001
0	 2.333350000014584e+000	 4.333350000014582e+000	 1.003078198540242e+001
0	 2.333350000014585e+000	 4.400020000016401e+000	 1.002345042701116e+001
0	 2.333350000014584e+000	 4.466690000017615e+000	 1.000842770996474e+001
0	 2.333350000014585e+000	 4.533360000018133e+000	 9.990471346706343e+000
0	 2.333350000014585e+000	 4.600030000017849e+000	 9.974338849679233e+000
0	 2.333350000014584e+000	 4.666700000016666e+000	 9.964787731326823e+000
0	 2.400020000016401e+000	 4.000000000000000e+000	 9.870446072962213e+000
0	 2.400020000016401e+000	 4.066670000003317e+000	 9.955801005445109e+000
0	 2.400020000016401e+000	 4.133340000006534e+000	 1.001335336611721e+001
0	 2.400020000016400e+000	 4.200010000009549e+000	 1.004740922604191e+001
0	 2.400020000016401e+000	 4.266680000012267e+000	 1.006227465628264e+001
0	 2.400020000016401e+000	 4.333350000014584e+000	 1.006225572790300e+001
0	 2.400020000016401e+000	 4.400020000016400e+000	 1.005165851196662e+001
0	 2.400020000016400e+000	 4.466690000017617e+000	 1.003478907953729e+001
0	 2.400020000016400e+000	 4.533360000018133e+000	 1.001595350167887e+001
0	 2.400020000016401e+000	 4.600030000017848e+000	 9.999457849455316e+000
0	 2.400020000016401e+000	 4.666700000016665e+000	 9.989608193930701e+000
0	 2.466690000017617e+000	 4.000000000000000e+000	 9.946289575293591e+000
0	 2.466690000017618e+000	 4.066670000003317e+000	 1.001601168204866e+001
0	 2.466690000017617e+000	 4.133340000006534e+000	 1.006142732668452e+001
0	 2.466690000017617e+000	 4.200010000009550e+000	 1.008640032467856e+001
0	 2.466690000017617e+000	 4.266680000012267e+000	 1.009479449150824e+001
0	 2.466690000017618e+000	 4.333350000014583e+000	 1.009047364265117e+001
0	 2.466690000017617e+000	 4.400020000016401e+000	 1.007730159358500e+001
0	 2.466690000017617e+000	 4.466690000017616e+000	 1.005914215978747e+001
0	 2.466690000017617e+000	 4.533360000018131e+000	 1.003985915673646e+001
0	 2.466690000017617e+000	 4.600030000017848e+000	 1.002331639990987e+001
0	 2.466690000017617e+000	 4.666700000016666e+000	 1.001337770478578e+001
0	 2.533360000018134e+000	 4.000000000000000e+000	 1.001394558714860e+001
0	 2.533360000018134e+000	 4.066670000003318e+000	 1.006942303929083e+001
0	 2.533360000018134e+000	 4.133340000006535e+000	 1.010391516353864e+001
0	 2.533360000018134e+000	 4.200010000009552e+000	 1.012085270557670e+001
0	 2.533360000018134e+000	 4.266680000012267e+000	 1.012366641108985e+001
0	 2.533360000018134e+000	 4.333350000014583e+000	 1.011578702576292e+001
0	 2.533360000018134e+000	 4.400020000016400e+000	 1.010064529528088e+001
0	 2.533360000018134e+000	 4.466690000017616e+000	 1.008167196532876e+001
0	 2.533360000018134e+000	 4.533360000018133e+000	 1.006229778159169e+001
0	 2.533360000018134e+000	 4.600030000017849e+000	 1.004595348975487e+001
0	 2.533360000018134e+000	 4.666700000016667e+000	 1.003606983550359e+001
0	 2.600030000017851e+000	 4.000000000000001e+000	 1.007426972665364e+001
0	 2.600030000017850e+000	 4.066670000003316e+000	 1.011677970309541e+001
0	 2.600030000017851e+000	 4.133340000006535e+000	 1.014145557430101e+001
0	 2.600030000017851e+000	 4.200010000009550e+000	 1.015130420195574e+001
0	 2.600030000017850e+000	 4.266680000012267e+000	 1.014933244774497e+001
0	 2.600030000017851e+000	 4.333350000014584e+000	 1.013854717335416e+001
0	 2.600030000017851e+000	 4.400020000016401e+000	 1.012195524046884e+001
0	 2.600030000017851e+000	 4.466690000017618e+000	 1.010256351077461e+001
0	 2.600030000017850e+000	 4.533360000018133e+000	 1.008337884595714e+001
0	 2.600030000017851e+000	 4.600030000017849e+000	 1.006740810770221e+001
0	 2.600030000017851e+000	 4.666700000016666e+000	 1.005765815769563e+001
0	 2.666700000016666e+000	 4.000000000000001e+000	 1.012811761193497e+001
0	 2.666700000016666e+000	 4.066670000003316e+000	 1.015882629938611e+001
0	 2.666700000016666e+000	 4.133340000006534e+000	 1.017468725659306e+001
0	 2.666700000016667e+000	 4.200010000009551e+000	 1.017829264703496e+001
0	 2.666700000016666e+000	 4.266680000012266e+000	 1.017223463419111e+001
0	 2.666700000016667e+000	 4.333350000014584e+000	 1.015910538154079e+001
0	 2.666700000016666e+000	 4.400020000016401e+000	 1.014149705256343e+001
0	 2.666700000016666e+000	 4.466690000017615e+000	 1.012200181073844e+001
0	 2.666700000016666e+000	 4.533360000018131e+000	 1.010321181954538e+001
0	 2.666700000016667e+000	 4.600030000017850e+000	 1.008771924246382e+001
0	 2.666700000016666e+000	 4.666700000016666e+000	 1.007811624297342e+001
0	 2.000000000000000e+000	 4.666700000016665e+000	 9.825846135672226e+000
0	 2.000000000000000e+000	 4.733360000014532e+000	 9.826767713499518e+000
0	 2.000000000000000e+000	 4.800020000011600e+000	 9.825877593863794e+000
0	 2.000000000000000e+000	 4.866680000008066e+000	 9.823690127687531e+000
0	 2.000000000000000e+000	 4.933340000004134e+000	 9.820719665893114e+000
0	 2.000000000000000e+000	 5.000000000000001e+000	 9.817480559402918e+000
0	 2.000000000000000e+000	 5.066659999995868e+000	 9.814487159139301e+000
0	 2.000000000000000e+000	 5.133319999991932e+000	 9.812253816024535e+000
0	 2.000000000000000e+000	 5.199979999988400e+000	 9.811294880980906e+000
0	 2.000000000000000e+000	 5.266639999985466e+000	 9.812124704930628e+000
0	 1.999999999999999e+000	 5.333299999983333e+000	 9.815257638795909e+000
0	 2.066670000003317e+000	 4.666700000016667e+000	 9.855524931192935e+000
0	 2.066670000003318e+000	 4.733360000014534e+000	 9.854590927931000e+000
0	 2.066670000003317e+000	 4.800020000011599e+000	 9.852375516674398e+000
0	 2.066670000003316e+000	 4.866680000008067e+000	 9.849286993622506e+000
0	 2.066670000003317e+000	 4.933340000004134e+000	 9.845733654974719e+000
0	 2.066670000003318e+000	 5.000000000000001e+000	 9.842123796930352e+000
0	 2.066670000003317e+000	 5.066659999995868e+000	 9.838865715688684e+000
0	 2.066670000003317e+000	 5.133319999991933e+000	 9.836367707448998e+000
0	 2.066670000003317e+000	 5.199979999988400e+000	 9.835038068410508e+000
0	 2.066670000003318e+000	 5.266639999985466e+000	 9.835285094772445e+000
0	 2.066670000003317e+000	 5.333299999983334e+000	 9.837517082733941e+000
0	 2.133340000006533e+000	 4.666700000016666e+000	 9.884284916907205e+000
0	 2.133340000006534e+000	 4.733360000014534e+000	 9.881917332393885e+000
0	 2.133340000006534e+000	 4.800020000011599e+000	 9.878701152126585e+000
0	 2.133340000006534e+000	 4.866680000008066e+000	 9.874947315303409e+000
0	 2.133340000006534e+000	 4.933340000004134e+000	 9.870966761122379e+000
0	 2.133340000006534e+000	 5.000000000000004e+000	 9.867070428781524e+000
0	 2.133340000006534e+000	 5.066659999995867e+000	 9.863569257478815e+000
0	 2.133340000006534e+000	 5.133319999991933e+000	 9.860774186412247e+000
0	 2.133340000006534e+000	 5.199979999988400e+000	 9.858996154779749e+000
0	 2.133340000006533e+000	 5.266639999985465e+000	 9.858546101779226e+000
0	 2.133340000006534e+000	 5.333299999983335e+000	 9.859734966608562e+000
0	 2.200010000009551e+000	 4.666700000016666e+000	 9.912099664426613e+000
0	 2.200010000009551e+000	 4.733360000014534e+000	 9.908663080934428e+000
0	 2.200010000009551e+000	 4.800020000011602e+000	 9.904724153006807e+000
0	 2.200010000009550e+000	 4.866680000008064e+000	 9.900505160562199e+000
0	 2.200010000009550e+000	 4.933340000004133e+000	 9.896228383519109e+000
0	 2.200010000009551e+000	 5.000000000000002e+000	 9.892116101795947e+000
0	 2.200010000009551e+000	 5.066659999995867e+000	 9.888390595311154e+000
0	 2.200010000009551e+000	 5.133319999991935e+000	 9.885274143983132e+000
0	 2.200010000009551e+000	 5.199979999988400e+000	 9.882989027730256e+000
0	 2.200010000009551e+000	 5.266639999985465e+000	 9.881757526470885e+000
0	 2.200010000009551e+000	 5.333299999983335e+000	 9.881801920123362e+000
0	 2.266680000012268e+000	 4.666700000016667e+000	 9.938942745362628e+000
0	 2.266680000012268e+000	 4.733360000014534e+000	 9.934744327598871e+000
0	 2.266680000012267e+000	 4.800020000011599e+000	 9.930314172101404e+000
0	 2.266680000012267e+000	 4.866680000008068e+000	 9.925794597230889e+000
0	 2.266680000012268e+000	 4.933340000004133e+000	 9.921327921347933e+000
0	 2.266680000012268e+000	 5.000000000000001e+000	 9.917056462813157e+000
0	 2.266680000012268e+000	 5.066659999995868e+000	 9.913122539987123e+000
0	 2.266680000012268e+000	 5.133319999991934e+000	 9.909668471230438e+000
0	 2.266680000012267e+000	 5.199979999988399e+000	 9.906836574903633e+000
0	 2.266680000012268e+000	 5.266639999985467e+000	 9.904769169367267e+000
0	 2.266680000012268e+000	 5.333299999983335e+000	 9.903608572981856e+000
0	 2.333350000014584e+000	 4.666700000016666e+000	 9.964787731326823e+000
0	 2.333350000014585e+000	 4.733360000014534e+000	 9.960077226433441e+000
0	 2.333350000014584e+000	 4.800020000011599e+000	 9.955340862196811e+000
0	 2.333350000014584e+000	 4.866680000008065e+000	 9.950649693141461e+000
0	 2.333350000014585e+000	 4.933340000004134e+000	 9.946074773791917e+000
0	 2.333350000014585e+000	 5.000000000000000e+000	 9.941687158672657e+000
0	 2.333350000014585e+000	 5.066659999995866e+000	 9.937557902308191e+000
0	 2.333350000014585e+000	 5.133319999991933e+000	 9.933758059222980e+000
0	 2.333350000014585e+000	 5.199979999988401e+000	 9.930358683941520e+000
0	 2.333350000014584e+000	 5.266639999985466e+000	 9.927430830988268e+000
0	 2.333350000014584e+000	 5.333299999983334e+000	 9.925045554887660e+000
0	 2.400020000016401e+000	 4.666700000016665e+000	 9.989608193930703e+000
0	 2.400020000016402e+000	 4.733360000014534e+000	 9.984577931484388e+000
0	 2.400020000016400e+000	 4.800020000011599e+000	 9.979673876079419e+000
0	 2.400020000016400e+000	 4.866680000008066e+000	 9.974904516125921e+000
0	 2.400020000016401e+000	 4.933340000004132e+000	 9.970278340034064e+000
0	 2.400020000016401e+000	 5.000000000000001e+000	 9.965803836213976e+000
0	 2.400020000016402e+000	 5.066659999995868e+000	 9.961489493075780e+000
0	 2.400020000016401e+000	 5.133319999991934e+000	 9.957343799029596e+000
0	 2.400020000016400e+000	 5.199979999988399e+000	 9.953375242485556e+000
0	 2.400020000016400e+000	 5.266639999985464e+000	 9.949592311853758e+000
0	 2.400020000016401e+000	 5.333299999983335e+000	 9.946003495544336e+000
0	 2.466690000017617e+000	 4.666700000016666e+000	 1.001337770478578e+001
0	 2.466690000017617e+000	 4.733360000014532e+000	 1.000816259679794e+001
0	 2.466690000017617e+000	 4.800020000011599e+000	 1.000318286653561e+001
0	 2.466690000017618e+000	 4.866680000008067e+000	 9.998393134016290e+000
0	 2.466690000017617e+000	 4.933340000004133e+000	 9.993748019257462e+000
0	 2.466690000017618e+000	 4.999999999999999e+000	 9.989202142276659e+000
0	 2.466690000017617e+000	 5.066659999995866e+000	 9.984710123091370e+000
0	 2.466690000017617e+000	 5.133319999991931e+000	 9.980226581719109e+000
0	 2.466690000017618e+000	 5.199979999988399e+000	 9.975706138177362e+000
0	 2.466690000017618e+000	 5.266639999985466e+000	 9.971103412483645e+000
0	 2.466690000017618e+000	 5.333299999983335e+000	 9.966373024655464e+000
0	 2.533360000018134e+000	 4.666700000016667e+000	 1.003606983550359e+001
0	 2.533360000018134e+000	 4.733360000014534e+000	 1.003074737642036e+001
0	 2.533360000018134e+000	 4.800020000011600e+000	 1.002573748635182e+001
0	 2.533360000018135e+000	 4.866680000008066e+000	 1.002094961464454e+001
0	 2.533360000018134e+000	 4.933340000004133e+000	 1.001629321064513e+001
0	 2.533360000018134e+000	 5.000000000000000e+000	 1.001167772370022e+001
0	 2.533360000018134e+000	 5.066659999995869e+000	 1.000701260315642e+001
0	 2.533360000018134e+000	 5.133319999991934e+000	 1.000220729836033e+001
0	 2.533360000018134e+000	 5.199979999988400e+000	 9.997171258658584e+000
0	 2.533360000018134e+000	 5.266639999985466e+000	 9.991813933397815e+000
0	 2.533360000018134e+000	 5.333299999983334e+000	 9.986044771924616e+000
0	 2.600030000017851e+000	 4.666700000016666e+000	 1.005765815769563e+001
0	 2.600030000017851e+000	 4.733360000014534e+000	 1.005224842439788e+001
0	 2.600030000017850e+000	 4.800020000011600e+000	 1.004720738831441e+001
0	 2.600030000017851e+000	 4.866680000008067e+000	 1.004240802584268e+001
0	 2.600030000017851e+000	 4.933340000004134e+000	 1.003772331338013e+001
0	 2.600030000017851e+000	 5.000000000000000e+000	 1.003302622732421e+001
0	 2.600030000017850e+000	 5.066659999995865e+000	 1.002818974407238e+001
0	 2.600030000017851e+000	 5.133319999991933e+000	 1.002308684002211e+001
0	 2.600030000017851e+000	 5.199979999988400e+000	 1.001759049157086e+001
0	 2.600030000017851e+000	 5.266639999985467e+000	 1.001157367511614e+001
0	 2.600030000017851e+000	 5.333299999983334e+000	 1.000490936705541e+001
0	 2.666700000016666e+000	 4.666700000016666e+000	 1.007811624297342e+001
0	 2.666700000016666e+000	 4.733360000014534e+000	 1.007258189477672e+001
0	 2.666700000016666e+000	 4.800020000011600e+000	 1.006746222520982e+001
0	 2.666700000016666e+000	 4.866680000008065e+000	 1.006260243544273e+001
0	 2.666700000016666e+000	 4.933340000004134e+000	 1.005784772664551e+001
0	 2.666700000016666e+000	 5.000000000000001e+000	 1.005304329998815e+001
0	 2.666700000016666e+000	 5.066659999995866e+000	 1.004803435664073e+001
0	 2.666700000016666e+000	 5.133319999991932e+000	 1.004266609777328e+001
0	 2.666700000016666e+000	 5.199979999988400e+000	 1.003678372455586e+001
0	 2.666700000016666e+000	 5.266639999985466e+000	 1.003023243815854e+001
0	 2.666700000016666e+000	 5.333299999983334e+000	 1.002285743975139e+001
0	 1.999999999999999e+000	 5.333299999983333e+000	 9.815257638795906e+000
0	 2.000000000000000e+000	 5.399969999982149e+000	 9.819834387219760e+000
0	 2.000000000000000e+000	 5.466639999981868e+000	 9.824566239486156e+000
0	 2.000000000000000e+000	 5.533309999982383e+000	 9.829325428851806e+000
0	 2.000000000000000e+000	 5.599979999983598e+000	 9.833984188573432e+000
0	 2.000000000000000e+000	 5.666649999985416e+000	 9.838414751907749e+000
0	 2.000000000000000e+000	 5.733319999987732e+000	 9.842489352111485e+000
0	 2.000000000000000e+000	 5.799989999990446e+000	 9.846080222441294e+000
0	 2.000000000000000e+000	 5.866659999993464e+000	 9.849059596153920e+000
0	 2.000000000000000e+000	 5.933329999996681e+000	 9.851299706506035e+000
0	 2.000000000000000e+000	 6.000000000000000e+000	 9.852672786754336e+000
0	 2.066670000003317e+000	 5.333299999983334e+000	 9.837517082733942e+000
0	 2.066670000003317e+000	 5.399969999982149e+000	 9.840985018707743e+000
0	 2.066670000003317e+000	 5.466639999981866e+000	 9.844596364771904e+000
0	 2.066670000003317e+000	 5.533309999982383e+000	 9.848245643030314e+000
0	 2.066670000003317e+000	 5.599979999983598e+000	 9.851827375586826e+000
0	 2.066670000003316e+000	 5.666649999985413e+000	 9.855236084545309e+000
0	 2.066670000003317e+000	 5.733319999987732e+000	 9.858366292009608e+000
0	 2.066670000003317e+000	 5.799989999990448e+000	 9.861112520083561e+000
0	 2.066670000003317e+000	 5.866659999993464e+000	 9.863369290871031e+000
0	 2.066670000003318e+000	 5.933329999996682e+000	 9.865031126475877e+000
0	 2.066670000003318e+000	 6.000000000000000e+000	 9.865992549001923e+000
0	 2.133340000006534e+000	 5.333299999983335e+000	 9.859734966608562e+000
0	 2.133340000006534e+000	 5.399969999982150e+000	 9.861956671022000e+000
0	 2.133340000006533e+000	 5.466639999981865e+000	 9.864341102731503e+000
0	 2.133340000006534e+000	 5.533309999982383e+000	 9.866804100353217e+000
0	 2.133340000006534e+000	 5.599979999983599e+000	 9.869261502503306e+000
0	 2.133340000006534e+000	 5.666649999985416e+000	 9.871629147797890e+000
0	 2.133340000006534e+000	 5.733319999987731e+000	 9.873822874853152e+000
0	 2.133340000006534e+000	 5.799989999990447e+000	 9.875758522285191e+000
0	 2.133340000006534e+000	 5.866659999993463e+000	 9.877351928710162e+000
0	 2.133340000006534e+000	 5.933329999996682e+000	 9.878518932744184e+000
0	 2.133340000006533e+000	 5.999999999999999e+000	 9.879175373003433e+000
0	 2.200010000009551e+000	 5.333299999983335e+000	 9.881801920123362e+000
0	 2.200010000009551e+000	 5.399969999982151e+000	 9.882682668113985e+000
0	 2.200010000009551e+000	 5.466639999981867e+000	 9.883769271499530e+000
0	 2.200010000009551e+000	 5.533309999982381e+000	 9.884997913073557e+000
0	 2.200010000009550e+000	 5.599979999983598e+000	 9.886304775629682e+000
0	 2.200010000009550e+000	 5.666649999985415e+000	 9.887626041961438e+000
0	 2.200010000009550e+000	 5.733319999987733e+000	 9.888897894862406e+000
0	 2.200010000009551e+000	 5.799989999990448e+000	 9.890056517126144e+000
0	 2.200010000009550e+000	 5.866659999993464e+000	 9.891038091546243e+000
0	 2.200010000009551e+000	 5.933329999996683e+000	 9.891778800916240e+000
0	 2.200010000009551e+000	 6.000000000000000e+000	 9.892214828029733e+000
0	 2.266680000012268e+000	 5.333299999983335e+000	 9.903608572981856e+000
0	 2.266680000012268e+000	 5.399969999982151e+000	 9.903096333935105e+000
0	 2.266680000012268e+000	 5.466639999981865e+000	 9.902849689210576e+000
0	 2.266680000012267e+000	 5.533309999982382e+000	 9.902824193444443e+000
0	 2.266680000012267e+000	 5.599979999983598e+000	 9.902975401272808e+000
0	 2.266680000012268e+000	 5.666649999985415e+000	 9.903258867331847e+000
0	 2.266680000012267e+000	 5.733319999987731e+000	 9.903630146257676e+000
0	 2.266680000012268e+000	 5.799989999990449e+000	 9.904044792686404e+000
0	 2.266680000012268e+000	 5.866659999993463e+000	 9.904458361254230e+000
0	 2.266680000012267e+000	 5.933329999996682e+000	 9.904826406597271e+000
0	 2.266680000012268e+000	 5.999999999999999e+000	 9.905104483351671e+000
0	 2.333350000014584e+000	 5.333299999983334e+000	 9.925045554887660e+000
0	 2.333350000014584e+000	 5.399969999982150e+000	 9.923130992436789e+000
0	 2.333350000014584e+000	 5.466639999981866e+000	 9.921551173999252e+000
0	 2.333350000014584e+000	 5.533309999982382e+000	 9.920280053718878e+000
0	 2.333350000014585e+000	 5.599979999983598e+000	 9.919291585739499e+000
0	 2.333350000014584e+000	 5.666649999985415e+000	 9.918559724205004e+000
0	 2.333350000014584e+000	 5.733319999987730e+000	 9.918058423259190e+000
0	 2.333350000014584e+000	 5.799989999990448e+000	 9.917761637045942e+000
0	 2.333350000014584e+000	 5.866659999993466e+000	 9.917643319709098e+000
0	 2.333350000014584e+000	 5.933329999996682e+000	 9.917677425392546e+000
0	 2.333350000014584e+000	 6.000000000000000e+000	 9.917837908240131e+000
0	 2.400020000016401e+000	 5.333299999983335e+000	 9.946003495544336e+000
0	 2.400020000016401e+000	 5.399969999982150e+000	 9.942719967570499e+000
0	 2.400020000016401e+000	 5.466639999981866e+000	 9.939842544000147e+000
0	 2.400020000016401e+000	 5.533309999982382e+000	 9.937362606149955e+000
0	 2.400020000016401e+000	 5.599979999983600e+000	 9.935271535336613e+000
0	 2.400020000016401e+000	 5.666649999985413e+000	 9.933560712876810e+000
0	 2.400020000016401e+000	 5.733319999987731e+000	 9.932221520087271e+000
0	 2.400020000016401e+000	 5.799989999990448e+000	 9.931245338284700e+000
0	 2.400020000016400e+000	 5.866659999993465e+000	 9.930623548785809e+000
0	 2.400020000016401e+000	 5.933329999996682e+000	 9.930347532907311e+000
0	 2.400020000016400e+000	 5.999999999999999e+000	 9.930408671965942e+000
0	 2.466690000017618e+000	 5.333299999983335e+000	 9.966373024655464e+000
0	 2.466690000017618e+000	 5.399969999982149e+000	 9.961796583287667e+000
0	 2.466690000017618e+000	 5.466639999981864e+000	 9.957692617347863e+000
0	 2.466690000017618e+000	 5.533309999982383e+000	 9.954068962990728e+000
0	 2.466690000017617e+000	 5.599979999983598e+000	 9.950933456370946e+000
0	 2.466690000017617e+000	 5.666649999985415e+000	 9.948293933643210e+000
0	 2.466690000017617e+000	 5.733319999987733e+000	 9.946158230962221e+000
0	 2.466690000017617e+000	 5.799989999990447e+000	 9.944534184482684e+000
0	 2.466690000017618e+000	 5.866659999993463e+000	 9.943429630359326e+000
0	 2.466690000017618e+000	 5.933329999996681e+000	 9.942852404746837e+000
0	 2.466690000017619e+000	 6.000000000000001e+000	 9.942810343799959e+000
0	 2.533360000018134e+000	 5.333299999983334e+000	 9.986044771924616e+000
0	 2.533360000018134e+000	 5.399969999982150e+000	 9.980294163539716e+000
0	 2.533360000018134e+000	 5.466639999981864e+000	 9.975070212176981e+000
0	 2.533360000018135e+000	 5.533309999982382e+000	 9.970396236494258e+000
0	 2.533360000018134e+000	 5.599979999983598e+000	 9.966295555149348e+000
0	 2.533360000018134e+000	 5.666649999985416e+000	 9.962791486800084e+000
0	 2.533360000018134e+000	 5.733319999987732e+000	 9.959907350104315e+000
0	 2.533360000018134e+000	 5.799989999990447e+000	 9.957666463719864e+000
0	 2.533360000018134e+000	 5.866659999993464e+000	 9.956092146304604e+000
0	 2.533360000018135e+000	 5.933329999996681e+000	 9.955207716516359e+000
0	 2.533360000018134e+000	 6.000000000000001e+000	 9.955036493013044e+000
0	 2.600030000017851e+000	 5.333299999983334e+000	 1.000490936705541e+001
0	 2.600030000017851e+000	 5.399969999982151e+000	 9.998146032278092e+000
0	 2.600030000017850e+000	 5.466639999981866e+000	 9.991944146622135e+000
0	 2.600030000017850e+000	 5.533309999982381e+000	 9.986341538913615e+000
0	 2.600030000017851e+000	 5.599979999983599e+000	 9.981376037978668e+000
0	 2.600030000017851e+000	 5.666649999985416e+000	 9.977085472643365e+000
0	 2.600030000017850e+000	 5.733319999987732e+000	 9.973507671733824e+000
0	 2.600030000017850e+000	 5.799989999990449e+000	 9.970680464076200e+000
0	 2.600030000017851e+000	 5.866659999993464e+000	 9.968641678496606e+000
0	 2.600030000017850e+000	 5.933329999996680e+000	 9.967429143821178e+000
0	 2.600030000017851e+000	 6.000000000000001e+000	 9.967080688876081e+000
0	 2.666700000016666e+000	 5.333299999983334e+000	 1.002285743975139e+001
0	 2.666700000016666e+000	 5.399969999982149e+000	 1.001528551345425e+001
0	 2.666700000016666e+000	 5.466639999981865e+000	 1.000828323881792e+001
0	 2.666700000016666e+000	 5.533309999982381e+000	 1.000190198250191e+001
0	 2.666700000016666e+000	 5.599979999983598e+000	 9.996193111165750e+000
0	 2.666700000016666e+000	 5.666649999985415e+000	 9.991207991468951e+000
0	 2.666700000016666e+000	 5.733319999987732e+000	 9.986997990071082e+000
0	 2.666700000016667e+000	 5.799989999990449e+000	 9.983614473631677e+000
0	 2.666700000016666e+000	 5.866659999993464e+000	 9.981108808810296e+000
0	 2.666700000016666e+000	 5.933329999996680e+000	 9.979532362266523e+000
0	 2.666700000016666e+000	 6.000000000000000e+000	 9.978936500659907e+000
0	 2.000000000000000e+000	 6.000000000000000e+000	 9.852672786754336e+000
0	 2.000000000000000e+000	 6.066670000003317e+000	 9.853639006613605e+000
0	 2.000000000000000e+000	 6.133340000006534e+000	 9.854784214825274e+000
0	 2.000000000000000e+000	 6.200010000009550e+000	 9.856169163186046e+000
0	 2.000000000000000e+000	 6.266680000012267e+000	 9.857854603492662e+000
0	 2.000000000000000e+000	 6.333350000014584e+000	 9.859901287541820e+000
0	 2.000000000000000e+000	 6.400020000016399e+000	 9.862369967130222e+000
0	 2.000000000000000e+000	 6.466690000017615e+000	 9.865321394054648e+000
0	 2.000000000000000e+000	 6.533360000018130e+000	 9.868816320111797e+000
0	 2.000000000000000e+000	 6.600030000017847e+000	 9.872915497098401e+000
0	 2.000000000000000e+000	 6.666700000016667e+000	 9.877679676811230e+000
0	 2.066670000003318e+000	 6.000000000000000e+000	 9.865992549001923e+000
0	 2.066670000003318e+000	 6.066670000003319e+000	 9.866646028209253e+000
0	 2.066670000003316e+000	 6.133340000006531e+000	 9.867489529701656e+000
0	 2.066670000003317e+000	 6.200010000009548e+000	 9.868575819348509e+000
0	 2.066670000003317e+000	 6.266680000012265e+000	 9.869957663019168e+000
0	 2.066670000003317e+000	 6.333350000014584e+000	 9.871687826582992e+000
0	 2.066670000003317e+000	 6.400020000016399e+000	 9.873819075909383e+000
0	 2.066670000003317e+000	 6.466690000017618e+000	 9.876404176867702e+000
0	 2.066670000003317e+000	 6.533360000018130e+000	 9.879495895327342e+000
0	 2.066670000003317e+000	 6.600030000017847e+000	 9.883146997157697e+000
0	 2.066670000003318e+000	 6.666700000016668e+000	 9.887410248228166e+000
0	 2.133340000006533e+000	 5.999999999999999e+000	 9.879175373003433e+000
0	 2.133340000006534e+000	 6.066670000003316e+000	 9.879624393796187e+000
0	 2.133340000006534e+000	 6.133340000006535e+000	 9.880255263604092e+000
0	 2.133340000006534e+000	 6.200010000009550e+000	 9.881113007303274e+000
0	 2.133340000006533e+000	 6.266680000012266e+000	 9.882242649769815e+000
0	 2.133340000006534e+000	 6.333350000014583e+000	 9.883689215879837e+000
0	 2.133340000006534e+000	 6.400020000016398e+000	 9.885497730509453e+000
0	 2.133340000006534e+000	 6.466690000017616e+000	 9.887713218534749e+000
0	 2.133340000006534e+000	 6.533360000018133e+000	 9.890380704831895e+000
0	 2.133340000006535e+000	 6.600030000017849e+000	 9.893545214277008e+000
0	 2.133340000006534e+000	 6.666700000016666e+000	 9.897251771746182e+000
0	 2.200010000009551e+000	 6.000000000000000e+000	 9.892214828029733e+000
0	 2.200010000009551e+000	 6.066670000003318e+000	 9.892544101441711e+000
0	 2.200010000009551e+000	 6.133340000006534e+000	 9.893032113722772e+000
0	 2.200010000009551e+000	 6.200010000009551e+000	 9.893716393689886e+000
0	 2.200010000009551e+000	 6.266680000012268e+000	 9.894634470159886e+000
0	 2.200010000009552e+000	 6.333350000014584e+000	 9.895823871949778e+000
0	 2.200010000009550e+000	 6.400020000016399e+000	 9.897322127876478e+000
0	 2.200010000009551e+000	 6.466690000017618e+000	 9.899166766756885e+000
0	 2.200010000009551e+000	 6.533360000018131e+000	 9.901395317407966e+000
0	 2.200010000009550e+000	 6.600030000017850e+000	 9.904045308646694e+000
0	 2.200010000009551e+000	 6.666700000016667e+000	 9.907154269289956e+000
0	 2.266680000012268e+000	 5.999999999999999e+000	 9.905104483351671e+000
0	 2.266680000012268e+000	 6.066670000003317e+000	 9.905375149213169e+000
0	 2.266680000012268e+000	 6.133340000006533e+000	 9.905770777247964e+000
0	 2.266680000012268e+000	 6.200010000009548e+000	 9.906321645147827e+000
0	 2.266680000012267e+000	 6.266680000012268e+000	 9.907058030604661e+000
0	 2.266680000012267e+000	 6.333350000014582e+000	 9.908010211310259e+000
0	 2.266680000012267e+000	 6.400020000016399e+000	 9.909208464956471e+000
0	 2.266680000012267e+000	 6.466690000017615e+000	 9.910683069235123e+000
0	 2.266680000012268e+000	 6.533360000018131e+000	 9.912464301838053e+000
0	 2.266680000012268e+000	 6.600030000017848e+000	 9.914582440457124e+000
0	 2.266680000012268e+000	 6.666700000016666e+000	 9.917067762784173e+000
0	 2.333350000014584e+000	 6.000000000000000e+000	 9.917837908240131e+000
0	 2.333350000014584e+000	 6.066670000003316e+000	 9.918087535177873e+000
0	 2.333350000014585e+000	 6.133340000006531e+000	 9.918421951369803e+000
0	 2.333350000014585e+000	 6.200010000009550e+000	 9.918864428316702e+000
0	 2.333350000014584e+000	 6.266680000012266e+000	 9.919438237519415e+000
0	 2.333350000014584e+000	 6.333350000014582e+000	 9.920166650478738e+000
0	 2.333350000014584e+000	 6.400020000016401e+000	 9.921072938695509e+000
0	 2.333350000014584e+000	 6.466690000017614e+000	 9.922180373670553e+000
0	 2.333350000014584e+000	 6.533360000018130e+000	 9.923512226904661e+000
0	 2.333350000014584e+000	 6.600030000017848e+000	 9.925091769898684e+000
0	 2.333350000014584e+000	 6.666700000016666e+000	 9.926942274153468e+000
0	 2.400020000016400e+000	 5.999999999999999e+000	 9.930408671965942e+000
0	 2.400020000016401e+000	 6.066670000003318e+000	 9.930651257403145e+000
0	 2.400020000016400e+000	 6.133340000006531e+000	 9.930936333278552e+000
0	 2.400020000016401e+000	 6.200010000009550e+000	 9.931280409835997e+000
0	 2.400020000016401e+000	 6.266680000012265e+000	 9.931699997319399e+000
0	 2.400020000016401e+000	 6.333350000014582e+000	 9.932211605972640e+000
0	 2.400020000016402e+000	 6.400020000016401e+000	 9.932831746039611e+000
0	 2.400020000016400e+000	 6.466690000017616e+000	 9.933576927764170e+000
0	 2.400020000016400e+000	 6.533360000018132e+000	 9.934463661390266e+000
0	 2.400020000016402e+000	 6.600030000017850e+000	 9.935508457161753e+000
0	 2.400020000016401e+000	 6.666700000016665e+000	 9.936727825322539e+000
0	 2.466690000017619e+000	 6.000000000000001e+000	 9.942810343799959e+000
0	 2.466690000017618e+000	 6.066670000003318e+000	 9.943036313956307e+000
0	 2.466690000017617e+000	 6.133340000006533e+000	 9.943264620164381e+000
0	 2.466690000017618e+000	 6.200010000009552e+000	 9.943505256345222e+000
0	 2.466690000017618e+000	 6.266680000012268e+000	 9.943768216419906e+000
0	 2.466690000017617e+000	 6.333350000014584e+000	 9.944063494309397e+000
0	 2.466690000017617e+000	 6.400020000016401e+000	 9.944401083934789e+000
0	 2.466690000017618e+000	 6.466690000017615e+000	 9.944790979217093e+000
0	 2.466690000017617e+000	 6.533360000018130e+000	 9.945243174077383e+000
0	 2.466690000017618e+000	 6.600030000017848e+000	 9.945767662436680e+000
0	 2.466690000017617e+000	 6.666700000016665e+000	 9.946374438216026e+000
0	 2.533360000018134e+000	 6.000000000000001e+000	 9.955036493013044e+000
0	 2.533360000018134e+000	 6.066670000003315e+000	 9.955212702904685e+000
0	 2.533360000018134e+000	 6.133340000006534e+000	 9.955357509217567e+000
0	 2.533360000018133e+000	 6.200010000009548e+000	 9.955474634483961e+000
0	 2.533360000018133e+000	 6.266680000012267e+000	 9.955567801236176e+000
0	 2.533360000018134e+000	 6.333350000014582e+000	 9.955640732006453e+000
0	 2.533360000018134e+000	 6.400020000016399e+000	 9.955697149327106e+000
0	 2.533360000018134e+000	 6.466690000017615e+000	 9.955740775730348e+000
0	 2.533360000018134e+000	 6.533360000018132e+000	 9.955775333748518e+000
0	 2.533360000018133e+000	 6.600030000017847e+000	 9.955804545913850e+000
0	 2.533360000018134e+000	 6.666700000016667e+000	 9.955832134758630e+000
0	 2.600030000017851e+000	 6.000000000000001e+000	 9.967080688876081e+000
0	 2.600030000017851e+000	 6.066670000003318e+000	 9.967150422315601e+000
0	 2.600030000017850e+000	 6.133340000006534e+000	 9.967165697628277e+000
0	 2.600030000017851e+000	 6.200010000009549e+000	 9.967124210891722e+000
0	 2.600030000017850e+000	 6.266680000012265e+000	 9.967023658183532e+000
0	 2.600030000017849e+000	 6.333350000014582e+000	 9.966861735581293e+000
0	 2.600030000017850e+000	 6.400020000016399e+000	 9.966636139162574e+000
0	 2.600030000017850e+000	 6.466690000017614e+000	 9.966344565005016e+000
0	 2.600030000017849e+000	 6.533360000018132e+000	 9.965984709186159e+000
0	 2.600030000017851e+000	 6.600030000017847e+000	 9.965554267783606e+000
0	 2.600030000017851e+000	 6.666700000016667e+000	 9.965050936874997e+000
0	 2.666700000016666e+000	 6.000000000000000e+000	 9.978936500659907e+000
0	 2.666700000016666e+000	 6.066670000003318e+000	 9.978819470256376e+000
0	 2.666700000016666e+000	 6.133340000006531e+000	 9.978639882586764e+000
0	 2.666700000016666e+000	 6.200010000009550e+000	 9.978389652208024e+000
0	 2.666700000016666e+000	 6.266680000012266e+000	 9.978060693677236e+000
0	 2.666700000016667e+000	 6.333350000014584e+000	 9.977644921551319e+000
0	 2.666700000016666e+000	 6.400020000016399e+000	 9.977134250387278e+000
0	 2.666700000016666e+000	 6.466690000017616e+000	 9.976520594742116e+000
0	 2.666700000016667e+000	 6.533360000018133e+000	 9.975795869172819e+000
0	 2.666700000016666e+000	 6.600030000017849e+000	 9.974951988236391e+000
0	 2.666700000016667e+000	 6.666700000016666e+000	 9.973980866489809e+000
0	 2.000000000000000e+000	 6.666700000016667e+000	 9.877679676811232e+000
0	 2.000000000000000e+000	 6.733360000014533e+000	 9.882709881389005e+000
0	 2.000000000000000e+000	 6.800020000011601e+000	 9.887556902419060e+000
0	 2.000000000000000e+000	 6.866680000008067e+000	 9.892203843366948e+000
0	 2.000000000000000e+000	 6.933340000004135e+000	 9.896633807698214e+000
0	 2.000000000000000e+000	 7.000000000000002e+000	 9.900829898878392e+000
0	 2.000000000000000e+000	 7.066659999995869e+000	 9.904775220373065e+000
0	 2.000000000000000e+000	 7.133319999991935e+000	 9.908452875647793e+000
0	 1.999999999999999e+000	 7.199979999988401e+000	 9.911845968168134e+000
0	 2.000000000000000e+000	 7.266639999985471e+000	 9.914937601399647e+000
0	 2.000000000000000e+000	 7.333299999983335e+000	 9.917710878807959e+000
0	 2.066670000003318e+000	 6.666700000016668e+000	 9.887410248228166e+000
0	 2.066670000003317e+000	 6.733360000014534e+000	 9.891918381574888e+000
0	 2.066670000003317e+000	 6.800020000011601e+000	 9.896261250458995e+000
0	 2.066670000003316e+000	 6.866680000008064e+000	 9.900425237079105e+000
0	 2.066670000003317e+000	 6.933340000004135e+000	 9.904396723633809e+000
0	 2.066670000003317e+000	 7.000000000000002e+000	 9.908162092321771e+000
0	 2.066670000003316e+000	 7.066659999995870e+000	 9.911707725341552e+000
0	 2.066670000003317e+000	 7.133319999991937e+000	 9.915020004891879e+000
0	 2.066670000003317e+000	 7.199979999988404e+000	 9.918085313171311e+000
0	 2.066670000003317e+000	 7.266639999985471e+000	 9.920890032378491e+000
0	 2.066670000003316e+000	 7.333299999983333e+000	 9.923420544712089e+000
0	 2.133340000006534e+000	 6.666700000016666e+000	 9.897251771746186e+000
0	 2.133340000006534e+000	 6.733360000014531e+000	 9.901178981379365e+000
0	 2.133340000006533e+000	 6.800020000011599e+000	 9.904969631787507e+000
0	 2.133340000006534e+000	 6.866680000008066e+000	 9.908613227977778e+000
0	 2.133340000006534e+000	 6.933340000004134e+000	 9.912099274957321e+000
0	 2.133340000006534e+000	 7.000000000000001e+000	 9.915417277733338e+000
0	 2.133340000006534e+000	 7.066659999995870e+000	 9.918556741312957e+000
0	 2.133340000006534e+000	 7.133319999991937e+000	 9.921507170703396e+000
0	 2.133340000006534e+000	 7.199979999988404e+000	 9.924258070911762e+000
0	 2.133340000006534e+000	 7.266639999985472e+000	 9.926798946945318e+000
0	 2.133340000006534e+000	 7.333299999983334e+000	 9.929119303811170e+000
0	 2.200010000009551e+000	 6.666700000016667e+000	 9.907154269289958e+000
0	 2.200010000009551e+000	 6.733360000014533e+000	 9.910457453612379e+000
0	 2.200010000009551e+000	 6.800020000011601e+000	 9.913661083174262e+000
0	 2.200010000009551e+000	 6.866680000008067e+000	 9.916757629866750e+000
0	 2.200010000009550e+000	 6.933340000004134e+000	 9.919739565581017e+000
0	 2.200010000009551e+000	 7.000000000000004e+000	 9.922599362208281e+000
0	 2.200010000009550e+000	 7.066659999995869e+000	 9.925329491639687e+000
0	 2.200010000009550e+000	 7.133319999991937e+000	 9.927922425766457e+000
0	 2.200010000009551e+000	 7.199979999988406e+000	 9.930370636479760e+000
0	 2.200010000009550e+000	 7.266639999985472e+000	 9.932666595670806e+000
0	 2.200010000009551e+000	 7.333299999983334e+000	 9.934802775230772e+000
0	 2.266680000012268e+000	 6.666700000016666e+000	 9.917067762784177e+000
0	 2.266680000012268e+000	 6.733360000014533e+000	 9.919719571083949e+000
0	 2.266680000012267e+000	 6.800020000011598e+000	 9.922314641388919e+000
0	 2.266680000012268e+000	 6.866680000008067e+000	 9.924848256549765e+000
0	 2.266680000012268e+000	 6.933340000004137e+000	 9.927315699417141e+000
0	 2.266680000012268e+000	 7.000000000000004e+000	 9.929712252841716e+000
0	 2.266680000012268e+000	 7.066659999995870e+000	 9.932033199674178e+000
0	 2.266680000012268e+000	 7.133319999991937e+000	 9.934273822765226e+000
0	 2.266680000012267e+000	 7.199979999988404e+000	 9.936429404965473e+000
0	 2.266680000012268e+000	 7.266639999985471e+000	 9.938495229125678e+000
0	 2.266680000012267e+000	 7.333299999983334e+000	 9.940466578096446e+000
0	 2.333350000014584e+000	 6.666700000016666e+000	 9.926942274153472e+000
0	 2.333350000014585e+000	 6.733360000014534e+000	 9.928931106603995e+000
0	 2.333350000014585e+000	 6.800020000011600e+000	 9.930909343201147e+000
0	 2.333350000014584e+000	 6.866680000008065e+000	 9.932874921830594e+000
0	 2.333350000014585e+000	 6.933340000004133e+000	 9.934825780377924e+000
0	 2.333350000014584e+000	 6.999999999999999e+000	 9.936759856728827e+000
0	 2.333350000014584e+000	 7.066659999995870e+000	 9.938675088768905e+000
0	 2.333350000014585e+000	 7.133319999991938e+000	 9.940569414383788e+000
0	 2.333350000014584e+000	 7.199979999988402e+000	 9.942440771459143e+000
0	 2.333350000014584e+000	 7.266639999985472e+000	 9.944287097880579e+000
0	 2.333350000014585e+000	 7.333299999983334e+000	 9.946106331533756e+000
0	 2.400020000016401e+000	 6.666700000016665e+000	 9.936727825322540e+000
0	 2.400020000016401e+000	 6.733360000014530e+000	 9.938057832982507e+000
0	 2.400020000016401e+000	 6.800020000011601e+000	 9.939424225380634e+000
0	 2.400020000016400e+000	 6.866680000008065e+000	 9.940827439513008e+000
0	 2.400020000016401e+000	 6.933340000004137e+000	 9.942267912375687e+000
0	 2.400020000016402e+000	 7.000000000000003e+000	 9.943746080964756e+000
0	 2.400020000016401e+000	 7.066659999995870e+000	 9.945262382276278e+000
0	 2.400020000016401e+000	 7.133319999991937e+000	 9.946817253306314e+000
0	 2.400020000016401e+000	 7.199979999988405e+000	 9.948411131050957e+000
0	 2.400020000016401e+000	 7.266639999985472e+000	 9.950044452506239e+000
0	 2.400020000016401e+000	 7.333299999983335e+000	 9.951717654668277e+000
0	 2.466690000017617e+000	 6.666700000016665e+000	 9.946374438216029e+000
0	 2.466690000017618e+000	 6.733360000014532e+000	 9.947065523029451e+000
0	 2.466690000017617e+000	 6.800020000011598e+000	 9.947838324697038e+000
0	 2.466690000017617e+000	 6.866680000008066e+000	 9.948695623400774e+000
0	 2.466690000017618e+000	 6.933340000004133e+000	 9.949640199322648e+000
0	 2.466690000017617e+000	 7.000000000000002e+000	 9.950674832644642e+000
0	 2.466690000017617e+000	 7.066659999995867e+000	 9.951802303548739e+000
0	 2.466690000017617e+000	 7.133319999991936e+000	 9.953025392216894e+000
0	 2.466690000017618e+000	 7.199979999988405e+000	 9.954346878831103e+000
0	 2.466690000017617e+000	 7.266639999985471e+000	 9.955769543573316e+000
0	 2.466690000017617e+000	 7.333299999983335e+000	 9.957296166625554e+000
0	 2.533360000018134e+000	 6.666700000016667e+000	 9.955832134758630e+000
0	 2.533360000018134e+000	 6.733360000014533e+000	 9.955919949554815e+000
0	 2.533360000018134e+000	 6.800020000011599e+000	 9.956130677920029e+000
0	 2.533360000018134e+000	 6.866680000008067e+000	 9.956469287297669e+000
0	 2.533360000018134e+000	 6.933340000004135e+000	 9.956940745131085e+000
0	 2.533360000018134e+000	 7.000000000000003e+000	 9.957550018863662e+000
0	 2.533360000018134e+000	 7.066659999995868e+000	 9.958302075938727e+000
0	 2.533360000018134e+000	 7.133319999991937e+000	 9.959201883799663e+000
0	 2.533360000018134e+000	 7.199979999988404e+000	 9.960254409889823e+000
0	 2.533360000018134e+000	 7.266639999985472e+000	 9.961464621652551e+000
0	 2.533360000018134e+000	 7.333299999983335e+000	 9.962837486531200e+000
0	 2.600030000017851e+000	 6.666700000016667e+000	 9.965050936874999e+000
0	 2.600030000017851e+000	 6.733360000014534e+000	 9.964586885368531e+000
0	 2.600030000017850e+000	 6.800020000011601e+000	 9.964280321819278e+000
0	 2.600030000017850e+000	 6.866680000008066e+000	 9.964138245007437e+000
0	 2.600030000017850e+000	 6.933340000004133e+000	 9.964167653713249e+000
0	 2.600030000017850e+000	 7.000000000000000e+000	 9.964375546716935e+000
0	 2.600030000017850e+000	 7.066659999995869e+000	 9.964768922798697e+000
0	 2.600030000017850e+000	 7.133319999991937e+000	 9.965354780738764e+000
0	 2.600030000017850e+000	 7.199979999988406e+000	 9.966140119317318e+000
0	 2.600030000017850e+000	 7.266639999985471e+000	 9.967131937314587e+000
0	 2.600030000017851e+000	 7.333299999983335e+000	 9.968337233510733e+000
0	 2.666700000016667e+000	 6.666700000016666e+000	 9.973980866489811e+000
0	 2.666700000016666e+000	 6.733360000014533e+000	 9.973032103280612e+000
0	 2.666700000016666e+000	 6.800020000011600e+000	 9.972266293164445e+000
0	 2.666700000016667e+000	 6.866680000008068e+000	 9.971692310333861e+000
0	 2.666700000016666e+000	 6.933340000004133e+000	 9.971319028981405e+000
0	 2.666700000016666e+000	 7.000000000000001e+000	 9.971155323299643e+000
0	 2.666700000016666e+000	 7.066659999995870e+000	 9.971210067481097e+000
0	 2.666700000016666e+000	 7.133319999991936e+000	 9.971492135718282e+000
0	 2.666700000016667e+000	 7.199979999988404e+000	 9.972010402203775e+000
0	 2.666700000016667e+000	 7.266639999985472e+000	 9.972773741130087e+000
0	 2.666700000016666e+000	 7.333299999983334e+000	 9.973791026689730e+000
0	 2.000000000000000e+000	 7.333299999983335e+000	 9.917710878807959e+000
0	 2.000000000000000e+000	 7.399969999982149e+000	 9.920337469344197e+000
0	 2.000000000000000e+000	 7.466639999981866e+000	 9.923006967609103e+000
0	 2.000000000000000e+000	 7.533309999982381e+000	 9.925730539470349e+000
0	 2.000000000000000e+000	 7.599979999983599e+000	 9.928519350795526e+000
0	 2.000000000000000e+000	 7.666649999985416e+000	 9.931384567452351e+000
0	 2.000000000000000e+000	 7.733319999987733e+000	 9.934337355308452e+000
0	 2.000000000000000e+000	 7.799989999990450e+000	 9.937388880231463e+000
0	 2.000000000000000e+000	 7.866659999993465e+000	 9.940550308089058e+000
0	 2.000000000000000e+000	 7.933329999996682e+000	 9.943832804748865e+000
0	 2.000000000000000e+000	 7.999999999999999e+000	 9.947247536078544e+000
0	 2.066670000003316e+000	 7.333299999983333e+000	 9.923420544712089e+000
0	 2.066670000003317e+000	 7.399969999982151e+000	 9.925829095509551e+000
0	 2.066670000003317e+000	 7.466639999981866e+000	 9.928282951282782e+000
0	 2.066670000003317e+000	 7.533309999982385e+000	 9.930792101091090e+000
0	 2.066670000003317e+000	 7.599979999983598e+000	 9.933366533993681e+000
0	 2.066670000003317e+000	 7.666649999985413e+000	 9.936016239049813e+000
0	 2.066670000003317e+000	 7.733319999987732e+000	 9.938751205318763e+000
0	 2.066670000003317e+000	 7.799989999990448e+000	 9.941581421859807e+000
0	 2.066670000003316e+000	 7.866659999993463e+000	 9.944516877732184e+000
0	 2.066670000003317e+000	 7.933329999996682e+000	 9.947567561995173e+000
0	 2.066670000003318e+000	 8.000000000000000e+000	 9.950743463708008e+000
0	 2.133340000006534e+000	 7.333299999983334e+000	 9.929119303811170e+000
0	 2.133340000006534e+000	 7.399969999982150e+000	 9.931344054447800e+000
0	 2.133340000006534e+000	 7.466639999981867e+000	 9.933610368552092e+000
0	 2.133340000006534e+000	 7.533309999982381e+000	 9.935927129337806e+000
0	 2.133340000006534e+000	 7.599979999983597e+000	 9.938303220018700e+000
0	 2.133340000006534e+000	 7.666649999985414e+000	 9.940747523808575e+000
0	 2.133340000006534e+000	 7.733319999987733e+000	 9.943268923921181e+000
0	 2.133340000006533e+000	 7.799989999990447e+000	 9.945876303570278e+000
0	 2.133340000006534e+000	 7.866659999993463e+000	 9.948578545969653e+000
0	 2.133340000006534e+000	 7.933329999996681e+000	 9.951384534333069e+000
0	 2.133340000006533e+000	 8.000000000000000e+000	 9.954303151874310e+000
0	 2.200010000009551e+000	 7.333299999983334e+000	 9.934802775230770e+000
0	 2.200010000009551e+000	 7.399969999982152e+000	 9.936870734512254e+000
0	 2.200010000009550e+000	 7.466639999981866e+000	 9.938971667632078e+000
0	 2.200010000009551e+000	 7.533309999982383e+000	 9.941113422921442e+000
0	 2.200010000009550e+000	 7.599979999983598e+000	 9.943303848711512e+000
0	 2.200010000009551e+000	 7.666649999985415e+000	 9.945550793333444e+000
0	 2.200010000009550e+000	 7.733319999987731e+000	 9.947862105118460e+000
0	 2.200010000009551e+000	 7.799989999990448e+000	 9.950245632397712e+000
0	 2.200010000009550e+000	 7.866659999993464e+000	 9.952709223502371e+000
0	 2.200010000009551e+000	 7.933329999996682e+000	 9.955260726763648e+000
0	 2.200010000009551e+000	 8.000000000000002e+000	 9.957907990512698e+000
0	 2.266680000012267e+000	 7.333299999983334e+000	 9.940466578096443e+000
0	 2.266680000012268e+000	 7.399969999982151e+000	 9.942397524056226e+000
0	 2.266680000012267e+000	 7.466639999981864e+000	 9.944349296737904e+000
0	 2.266680000012267e+000	 7.533309999982381e+000	 9.946328780552976e+000
0	 2.266680000012267e+000	 7.599979999983598e+000	 9.948342859912927e+000
0	 2.266680000012268e+000	 7.666649999985415e+000	 9.950398419229245e+000
0	 2.266680000012267e+000	 7.733319999987732e+000	 9.952502342913419e+000
0	 2.266680000012268e+000	 7.799989999990448e+000	 9.954661515376941e+000
0	 2.266680000012267e+000	 7.866659999993465e+000	 9.956882821031286e+000
0	 2.266680000012267e+000	 7.933329999996682e+000	 9.959173144287952e+000
0	 2.266680000012268e+000	 7.999999999999999e+000	 9.961539369558466e+000
0	 2.333350000014585e+000	 7.333299999983334e+000	 9.946106331533754e+000
0	 2.333350000014585e+000	 7.399969999982150e+000	 9.947912811433007e+000
0	 2.333350000014585e+000	 7.466639999981867e+000	 9.949725704084635e+000
0	 2.333350000014585e+000	 7.533309999982383e+000	 9.951551000943347e+000
0	 2.333350000014584e+000	 7.599979999983598e+000	 9.953394693463814e+000
0	 2.333350000014584e+000	 7.666649999985417e+000	 9.955262773100751e+000
0	 2.333350000014584e+000	 7.733319999987731e+000	 9.957161231308838e+000
0	 2.333350000014584e+000	 7.799989999990448e+000	 9.959096059542803e+000
0	 2.333350000014584e+000	 7.866659999993466e+000	 9.961073249257343e+000
0	 2.333350000014585e+000	 7.933329999996681e+000	 9.963098791907136e+000
0	 2.333350000014584e+000	 8.000000000000000e+000	 9.965178678946874e+000
0	 2.400020000016401e+000	 7.333299999983335e+000	 9.951717654668276e+000
0	 2.400020000016401e+000	 7.399969999982150e+000	 9.953404984995938e+000
0	 2.400020000016401e+000	 7.466639999981867e+000	 9.955083337887421e+000
0	 2.400020000016400e+000	 7.533309999982380e+000	 9.956757882803510e+000
0	 2.400020000016401e+000	 7.599979999983599e+000	 9.958433789205028e+000
0	 2.400020000016401e+000	 7.666649999985415e+000	 9.960116226552755e+000
0	 2.400020000016401e+000	 7.733319999987733e+000	 9.961810364307535e+000
0	 2.400020000016401e+000	 7.799989999990446e+000	 9.963521371930174e+000
0	 2.400020000016401e+000	 7.866659999993465e+000	 9.965254418881465e+000
0	 2.400020000016401e+000	 7.933329999996680e+000	 9.967014674622199e+000
0	 2.400020000016401e+000	 8.000000000000002e+000	 9.968807308613229e+000
0	 2.466690000017617e+000	 7.333299999983335e+000	 9.957296166625550e+000
0	 2.466690000017618e+000	 7.399969999982150e+000	 9.958862433098330e+000
0	 2.466690000017618e+000	 7.466639999981866e+000	 9.960404646361337e+000
0	 2.466690000017618e+000	 7.533309999982383e+000	 9.961927224844413e+000
0	 2.466690000017617e+000	 7.599979999983598e+000	 9.963434586977407e+000
0	 2.466690000017618e+000	 7.666649999985415e+000	 9.964931151190090e+000
0	 2.466690000017618e+000	 7.733319999987732e+000	 9.966421335912301e+000
0	 2.466690000017617e+000	 7.799989999990448e+000	 9.967909559573862e+000
0	 2.466690000017617e+000	 7.866659999993463e+000	 9.969400240604564e+000
0	 2.466690000017618e+000	 7.933329999996683e+000	 9.970897797434279e+000
0	 2.466690000017618e+000	 8.000000000000000e+000	 9.972406648492777e+000
0	 2.533360000018134e+000	 7.333299999983335e+000	 9.962837486531200e+000
0	 2.533360000018134e+000	 7.399969999982148e+000	 9.964273544093469e+000
0	 2.533360000018134e+000	 7.466639999981864e+000	 9.965672077721521e+000
0	 2.533360000018134e+000	 7.533309999982383e+000	 9.967036825777043e+000
0	 2.533360000018134e+000	 7.599979999983598e+000	 9.968371526621821e+000
0	 2.533360000018134e+000	 7.666649999985417e+000	 9.969679918617526e+000
0	 2.533360000018134e+000	 7.733319999987731e+000	 9.970965740125914e+000
0	 2.533360000018134e+000	 7.799989999990448e+000	 9.972232729508711e+000
0	 2.533360000018134e+000	 7.866659999993463e+000	 9.973484625127636e+000
0	 2.533360000018134e+000	 7.933329999996682e+000	 9.974725165344445e+000
0	 2.533360000018134e+000	 8.000000000000000e+000	 9.975958088520804e+000
0	 2.600030000017851e+000	 7.333299999983335e+000	 9.968337233510731e+000
0	 2.600030000017851e+000	 7.399969999982148e+000	 9.969626706334687e+000
0	 2.600030000017849e+000	 7.466639999981864e+000	 9.970868080183042e+000
0	 2.600030000017851e+000	 7.533309999982382e+000	 9.972064484312325e+000
0	 2.600030000017850e+000	 7.599979999983598e+000	 9.973219047979104e+000
0	 2.600030000017851e+000	 7.666649999985415e+000	 9.974334900439875e+000
0	 2.600030000017851e+000	 7.733319999987731e+000	 9.975415170951191e+000
0	 2.600030000017851e+000	 7.799989999990449e+000	 9.976462988769580e+000
0	 2.600030000017851e+000	 7.866659999993465e+000	 9.977481483151586e+000
0	 2.600030000017851e+000	 7.933329999996683e+000	 9.978473783353755e+000
0	 2.600030000017851e+000	 7.999999999999998e+000	 9.979443018632614e+000
0	 2.666700000016666e+000	 7.333299999983334e+000	 9.973791026689728e+000
0	 2.666700000016667e+000	 7.399969999982150e+000	 9.974910308175319e+000
0	 2.666700000016666e+000	 7.466639999981866e+000	 9.975975101961067e+000
0	 2.666700000016667e+000	 7.533309999982382e+000	 9.976987999161256e+000
0	 2.666700000016667e+000	 7.599979999983601e+000	 9.977951590890125e+000
0	 2.666700000016666e+000	 7.666649999985414e+000	 9.978868468261926e+000
0	 2.666700000016666e+000	 7.733319999987731e+000	 9.979741222390896e+000
0	 2.666700000016667e+000	 7.799989999990448e+000	 9.980572444391285e+000
0	 2.666700000016666e+000	 7.866659999993464e+000	 9.981364725377357e+000
0	 2.666700000016666e+000	 7.933329999996681e+000	 9.982120656463325e+000
0	 2.666700000016666e+000	 8.000000000000002e+000	 9.982842828763451e+000
0	 2.000000000000000e+000	 7.999999999999999e+000	 9.947247536078544e+000
0	 2.000000000000000e+000	 8.066670000003319e+000	 9.950660283179563e+000
0	 1.999999999999999e+000	 8.133340000006532e+000	 9.953930263225029e+000
0	 2.000000000000000e+000	 8.200010000009550e+000	 9.957058796190111e+000
0	 2.000000000000000e+000	 8.266680000012268e+000	 9.960047202049921e+000
0	 1.999999999999999e+000	 8.333350000014582e+000	 9.962896800779598e+000
0	 2.000000000000000e+000	 8.400020000016399e+000	 9.965608912354316e+000
0	 2.000000000000000e+000	 8.466690000017616e+000	 9.968184856749161e+000
0	 2.000000000000000e+000	 8.533360000018131e+000	 9.970625953939296e+000
0	 2.000000000000000e+000	 8.600030000017847e+000	 9.972933523899808e+000
0	 2.000000000000000e+000	 8.666700000016666e+000	 9.975108886605890e+000
0	 2.066670000003318e+000	 8.000000000000000e+000	 9.950743463708008e+000
0	 2.066670000003317e+000	 8.066670000003317e+000	 9.953918056748350e+000
0	 2.066670000003317e+000	 8.133340000006534e+000	 9.956959262896106e+000
0	 2.066670000003317e+000	 8.200010000009550e+000	 9.959868743063813e+000
0	 2.066670000003317e+000	 8.266680000012267e+000	 9.962648158164146e+000
0	 2.066670000003316e+000	 8.333350000014582e+000	 9.965299169109706e+000
0	 2.066670000003317e+000	 8.400020000016399e+000	 9.967823436813106e+000
0	 2.066670000003317e+000	 8.466690000017616e+000	 9.970222622186935e+000
0	 2.066670000003316e+000	 8.533360000018130e+000	 9.972498386143780e+000
0	 2.066670000003317e+000	 8.600030000017847e+000	 9.974652389596304e+000
0	 2.066670000003317e+000	 8.666700000016666e+000	 9.976686293457034e+000
0	 2.133340000006533e+000	 8.000000000000000e+000	 9.954303151874310e+000
0	 2.133340000006534e+000	 8.066670000003317e+000	 9.957220037489938e+000
0	 2.133340000006534e+000	 8.133340000006536e+000	 9.960016205538871e+000
0	 2.133340000006534e+000	 8.200010000009550e+000	 9.962693602428239e+000
0	 2.133340000006534e+000	 8.266680000012267e+000	 9.965254174565224e+000
0	 2.133340000006534e+000	 8.333350000014582e+000	 9.967699868356974e+000
0	 2.133340000006534e+000	 8.400020000016399e+000	 9.970032630210673e+000
0	 2.133340000006534e+000	 8.466690000017614e+000	 9.972254406533477e+000
0	 2.133340000006534e+000	 8.533360000018131e+000	 9.974367143732545e+000
0	 2.133340000006535e+000	 8.600030000017851e+000	 9.976372788215020e+000
0	 2.133340000006534e+000	 8.666700000016666e+000	 9.978273286388092e+000
0	 2.200010000009551e+000	 8.000000000000002e+000	 9.957907990512698e+000
0	 2.200010000009551e+000	 8.066670000003319e+000	 9.960552296169018e+000
0	 2.200010000009551e+000	 8.133340000006534e+000	 9.963091143903842e+000
0	 2.200010000009551e+000	 8.200010000009549e+000	 9.965526710175976e+000
0	 2.200010000009551e+000	 8.266680000012268e+000	 9.967861171444243e+000
0	 2.200010000009551e+000	 8.333350000014582e+000	 9.970096704167419e+000
0	 2.200010000009550e+000	 8.400020000016399e+000	 9.972235484804305e+000
0	 2.200010000009551e+000	 8.466690000017616e+000	 9.974279689813724e+000
0	 2.200010000009550e+000	 8.533360000018130e+000	 9.976231495654449e+000
0	 2.200010000009551e+000	 8.600030000017849e+000	 9.978093078785312e+000
0	 2.200010000009552e+000	 8.666700000016666e+000	 9.979866615665069e+000
0	 2.266680000012268e+000	 7.999999999999999e+000	 9.961539369558466e+000
0	 2.266680000012268e+000	 8.066670000003319e+000	 9.963900903550234e+000
0	 2.266680000012267e+000	 8.133340000006532e+000	 9.966174130741450e+000
0	 2.266680000012267e+000	 8.200010000009549e+000	 9.968361402199662e+000
0	 2.266680000012267e+000	 8.266680000012267e+000	 9.970465068992329e+000
0	 2.266680000012267e+000	 8.333350000014585e+000	 9.972487482187022e+000
0	 2.266680000012267e+000	 8.400020000016399e+000	 9.974430992851286e+000
0	 2.266680000012268e+000	 8.466690000017616e+000	 9.976297952052557e+000
0	 2.266680000012268e+000	 8.533360000018130e+000	 9.978090710858435e+000
0	 2.266680000012268e+000	 8.600030000017849e+000	 9.979811620336392e+000
0	 2.266680000012268e+000	 8.666700000016668e+000	 9.981463031553989e+000
0	 2.333350000014584e+000	 8.000000000000000e+000	 9.965178678946874e+000
0	 2.333350000014584e+000	 8.066670000003315e+000	 9.967251930398303e+000
0	 2.333350000014585e+000	 8.133340000006532e+000	 9.969255218802177e+000
0	 2.333350000014585e+000	 8.200010000009550e+000	 9.971191014391856e+000
0	 2.333350000014584e+000	 8.266680000012265e+000	 9.973061787400628e+000
0	 2.333350000014584e+000	 8.333350000014583e+000	 9.974870008061856e+000
0	 2.333350000014584e+000	 8.400020000016397e+000	 9.976618146608844e+000
0	 2.333350000014584e+000	 8.466690000017614e+000	 9.978308673274926e+000
0	 2.333350000014584e+000	 8.533360000018131e+000	 9.979944058293400e+000
0	 2.333350000014585e+000	 8.600030000017847e+000	 9.981526771897604e+000
0	 2.333350000014584e+000	 8.666700000016668e+000	 9.983059284320859e+000
0	 2.400020000016401e+000	 8.000000000000002e+000	 9.968807308613229e+000
0	 2.400020000016400e+000	 8.066670000003315e+000	 9.970591447477897e+000
0	 2.400020000016400e+000	 8.133340000006532e+000	 9.972324460836461e+000
0	 2.400020000016401e+000	 8.200010000009550e+000	 9.974008882645174e+000
0	 2.400020000016401e+000	 8.266680000012267e+000	 9.975647246860264e+000
0	 2.400020000016402e+000	 8.333350000014583e+000	 9.977242087437897e+000
0	 2.400020000016401e+000	 8.400020000016399e+000	 9.978795938334294e+000
0	 2.400020000016401e+000	 8.466690000017620e+000	 9.980311333505664e+000
0	 2.400020000016400e+000	 8.533360000018130e+000	 9.981790806908226e+000
0	 2.400020000016401e+000	 8.600030000017847e+000	 9.983236892498184e+000
0	 2.400020000016401e+000	 8.666700000016666e+000	 9.984652124231733e+000
0	 2.466690000017618e+000	 8.000000000000000e+000	 9.972406648492777e+000
0	 2.466690000017617e+000	 8.066670000003317e+000	 9.973905525553670e+000
0	 2.466690000017617e+000	 8.133340000006534e+000	 9.975371909594784e+000
0	 2.466690000017618e+000	 8.200010000009550e+000	 9.976808342852268e+000
0	 2.466690000017618e+000	 8.266680000012268e+000	 9.978217367562335e+000
0	 2.466690000017618e+000	 8.333350000014582e+000	 9.979601525961151e+000
0	 2.466690000017617e+000	 8.400020000016397e+000	 9.980963360284886e+000
0	 2.466690000017617e+000	 8.466690000017618e+000	 9.982305412769735e+000
0	 2.466690000017617e+000	 8.533360000018131e+000	 9.983630225651845e+000
0	 2.466690000017618e+000	 8.600030000017849e+000	 9.984940341167416e+000
0	 2.466690000017618e+000	 8.666700000016668e+000	 9.986238301552625e+000
0	 2.533360000018134e+000	 8.000000000000000e+000	 9.975958088520804e+000
0	 2.533360000018134e+000	 8.066670000003315e+000	 9.977180235390343e+000
0	 2.533360000018134e+000	 8.133340000006534e+000	 9.978387617827565e+000
0	 2.533360000018134e+000	 8.200010000009550e+000	 9.979582730905708e+000
0	 2.533360000018133e+000	 8.266680000012265e+000	 9.980768069697991e+000
0	 2.533360000018134e+000	 8.333350000014583e+000	 9.981946129277649e+000
0	 2.533360000018134e+000	 8.400020000016401e+000	 9.983119404717913e+000
0	 2.533360000018134e+000	 8.466690000017614e+000	 9.984290391092010e+000
0	 2.533360000018134e+000	 8.533360000018133e+000	 9.985461583473160e+000
0	 2.533360000018134e+000	 8.600030000017847e+000	 9.986635476934595e+000
0	 2.533360000018134e+000	 8.666700000016668e+000	 9.987814566549544e+000
0	 2.600030000017851e+000	 7.999999999999998e+000	 9.979443018632614e+000
0	 2.600030000017851e+000	 8.066670000003317e+000	 9.980401647752572e+000
0	 2.600030000017850e+000	 8.133340000006532e+000	 9.981361638285295e+000
0	 2.600030000017851e+000	 8.200010000009550e+000	 9.982325382698082e+000
0	 2.600030000017850e+000	 8.266680000012265e+000	 9.983295273458335e+000
0	 2.600030000017851e+000	 8.333350000014583e+000	 9.984273703033392e+000
0	 2.600030000017851e+000	 8.400020000016397e+000	 9.985263063890617e+000
0	 2.600030000017851e+000	 8.466690000017618e+000	 9.986265748497406e+000
0	 2.600030000017850e+000	 8.533360000018133e+000	 9.987284149321075e+000
0	 2.600030000017851e+000	 8.600030000017849e+000	 9.988320658828981e+000
0	 2.600030000017850e+000	 8.666700000016666e+000	 9.989377669488524e+000
0	 2.666700000016666e+000	 8.000000000000002e+000	 9.982842828763451e+000
0	 2.666700000016666e+000	 8.066670000003317e+000	 9.983555833405086e+000
0	 2.666700000016666e+000	 8.133340000006532e+000	 9.984284023718406e+000
0	 2.666700000016666e+000	 8.200010000009552e+000	 9.985029634122018e+000
0	 2.666700000016666e+000	 8.266680000012267e+000	 9.985794899034488e+000
0	 2.666700000016667e+000	 8.333350000014583e+000	 9.986582052874391e+000
0	 2.666700000016667e+000	 8.400020000016399e+000	 9.987393330060307e+000
0	 2.666700000016667e+000	 8.466690000017616e+000	 9.988230965010803e+000
0	 2.666700000016667e+000	 8.533360000018133e+000	 9.989097192144486e+000
0	 2.666700000016666e+000	 8.600030000017847e+000	 9.989994245879863e+000
0	 2.666700000016666e+000	 8.666700000016666e+000	 9.990924360635585e+000
0	 2.000000000000000e+000	 8.666700000016666e+000	 9.975108886605884e+000
0	 2.000000000000000e+000	 8.733360002791905e+000	 9.977178026981029e+000
0	 2.000000000000000e+000	 8.800020022230553e+000	 9.979169885705529e+000
0	 2.000000000000000e+000	 8.866680074997044e+000	 9.981089267269459e+000
0	 2.000000000000000e+000	 8.933340177755776e+000	 9.982940976425262e+000
0	 2.000000000000000e+000	 9.000000347171179e+000	 9.984729818187693e+000
0	 1.999999999999999e+000	 9.066660599907666e+000	 9.986460597833894e+000
0	 2.000000000000000e+000	 9.133320952629651e+000	 9.988138120903420e+000
0	 2.000000000000000e+000	 9.199981422001555e+000	 9.989767193198098e+000
0	 2.000000000000000e+000	 9.266642024687791e+000	 9.991352620782111e+000
0	 2.000000000000000e+000	 9.333302777352783e+000	 9.992899209981971e+000
0	 2.066670000003317e+000	 8.666700000016666e+000	 9.976686293457032e+000
0	 2.066670000003317e+000	 8.733360002791905e+000	 9.978622923178085e+000
0	 2.066670000003317e+000	 8.800020022230557e+000	 9.980487532539996e+000
0	 2.066670000003318e+000	 8.866680074997042e+000	 9.982284536693967e+000
0	 2.066670000003317e+000	 8.933340177755774e+000	 9.984018351037678e+000
0	 2.066670000003316e+000	 9.000000347171179e+000	 9.985693391215399e+000
0	 2.066670000003317e+000	 9.066660599907667e+000	 9.987314073117831e+000
0	 2.066670000003316e+000	 9.133320952629653e+000	 9.988884812882169e+000
0	 2.066670000003317e+000	 9.199981422001557e+000	 9.990410026892164e+000
0	 2.066670000003317e+000	 9.266642024687791e+000	 9.991894131777981e+000
0	 2.066670000003317e+000	 9.333302777352783e+000	 9.993341544416280e+000
0	 2.133340000006534e+000	 8.666700000016666e+000	 9.978273286388092e+000
0	 2.133340000006534e+000	 8.733360002791901e+000	 9.980085994485958e+000
0	 2.133340000006534e+000	 8.800020022230555e+000	 9.981830231891591e+000
0	 2.133340000006534e+000	 8.866680074997040e+000	 9.983510058093353e+000
0	 2.133340000006534e+000	 8.933340177755774e+000	 9.985129532812611e+000
0	 2.133340000006535e+000	 9.000000347171181e+000	 9.986692716003722e+000
0	 2.133340000006534e+000	 9.066660599907664e+000	 9.988203667854137e+000
0	 2.133340000006534e+000	 9.133320952629651e+000	 9.989666448784202e+000
0	 2.133340000006534e+000	 9.199981422001557e+000	 9.991085119447256e+000
0	 2.133340000006534e+000	 9.266642024687791e+000	 9.992463740729658e+000
0	 2.133340000006534e+000	 9.333302777352783e+000	 9.993806373750662e+000
0	 2.200010000009552e+000	 8.666700000016666e+000	 9.979866615665069e+000
0	 2.200010000009551e+000	 8.733360002791905e+000	 9.981562202331428e+000
0	 2.200010000009550e+000	 8.800020022230555e+000	 9.983191494452891e+000
0	 2.200010000009550e+000	 8.866680074997039e+000	 9.984758229531700e+000
0	 2.200010000009551e+000	 8.933340177755774e+000	 9.986266145291477e+000
0	 2.200010000009551e+000	 9.000000347171177e+000	 9.987718979677219e+000
0	 2.200010000009550e+000	 9.066660599907666e+000	 9.989120470855195e+000
0	 2.200010000009551e+000	 9.133320952629651e+000	 9.990474357213056e+000
0	 2.200010000009551e+000	 9.199981422001557e+000	 9.991784377359812e+000
0	 2.200010000009550e+000	 9.266642024687792e+000	 9.993054270125747e+000
0	 2.200010000009551e+000	 9.333302777352783e+000	 9.994287774562428e+000
0	 2.266680000012268e+000	 8.666700000016668e+000	 9.981463031553989e+000
0	 2.266680000012267e+000	 8.733360002791899e+000	 9.983046508141294e+000
0	 2.266680000012268e+000	 8.800020022230555e+000	 9.984564830916467e+000
0	 2.266680000012268e+000	 8.866680074997044e+000	 9.986021449073105e+000
0	 2.266680000012268e+000	 8.933340177755778e+000	 9.987419812015823e+000
0	 2.266680000012268e+000	 9.000000347171179e+000	 9.988763369360285e+000
0	 2.266680000012267e+000	 9.066660599907664e+000	 9.990055570933215e+000
0	 2.266680000012267e+000	 9.133320952629651e+000	 9.991299866772300e+000
0	 2.266680000012268e+000	 9.199981422001557e+000	 9.992499707126282e+000
0	 2.266680000012268e+000	 9.266642024687792e+000	 9.993658542454945e+000
0	 2.266680000012268e+000	 9.333302777352783e+000	 9.994779823428928e+000
0	 2.333350000014584e+000	 8.666700000016668e+000	 9.983059284320856e+000
0	 2.333350000014585e+000	 8.733360002791905e+000	 9.984533873342357e+000
0	 2.333350000014585e+000	 8.800020022230557e+000	 9.985943751974928e+000
0	 2.333350000014584e+000	 8.866680074997042e+000	 9.987292114781621e+000
0	 2.333350000014585e+000	 8.933340177755776e+000	 9.988582156527082e+000
0	 2.333350000014585e+000	 9.000000347171177e+000	 9.989817072177456e+000
0	 2.333350000014584e+000	 9.066660599907666e+000	 9.991000056900496e+000
0	 2.333350000014585e+000	 9.133320952629651e+000	 9.992134306065472e+000
0	 2.333350000014584e+000	 9.199981422001555e+000	 9.993223015243160e+000
0	 2.333350000014585e+000	 9.266642024687794e+000	 9.994269380205919e+000
0	 2.333350000014585e+000	 9.333302777352781e+000	 9.995276596927571e+000
0	 2.400020000016401e+000	 8.666700000016666e+000	 9.984652124231731e+000
0	 2.400020000016401e+000	 8.733360002791901e+000	 9.986019259361434e+000
0	 2.400020000016401e+000	 8.800020022230555e+000	 9.987321768320836e+000
0	 2.400020000016401e+000	 8.866680074997042e+000	 9.988562624721377e+000
0	 2.400020000016400e+000	 8.933340177755774e+000	 9.989744802366747e+000
0	 2.400020000016401e+000	 9.000000347171179e+000	 9.990871275253243e+000
0	 2.400020000016400e+000	 9.066660599907664e+000	 9.991945017569364e+000
0	 2.400020000016401e+000	 9.133320952629651e+000	 9.992969003696105e+000
0	 2.400020000016401e+000	 9.199981422001557e+000	 9.993946208206854e+000
0	 2.400020000016402e+000	 9.266642024687791e+000	 9.994879605867316e+000
0	 2.400020000016400e+000	 9.333302777352781e+000	 9.995772171635537e+000
0	 2.466690000017618e+000	 8.666700000016668e+000	 9.986238301552625e+000
0	 2.466690000017617e+000	 8.733360002791899e+000	 9.987497627625285e+000
0	 2.466690000017617e+000	 8.800020022230553e+000	 9.988692390646794e+000
0	 2.466690000017617e+000	 8.866680074997039e+000	 9.989825376956375e+000
0	 2.466690000017618e+000	 8.933340177755774e+000	 9.990899373076321e+000
0	 2.466690000017618e+000	 9.000000347171177e+000	 9.991917165712058e+000
0	 2.466690000017618e+000	 9.066660599907667e+000	 9.992881541752023e+000
0	 2.466690000017617e+000	 9.133320952629651e+000	 9.993795288267751e+000
0	 2.466690000017617e+000	 9.199981422001557e+000	 9.994661192513807e+000
0	 2.466690000017618e+000	 9.266642024687792e+000	 9.995482041927779e+000
0	 2.466690000017618e+000	 9.333302777352783e+000	 9.996260624130311e+000
0	 2.533360000018134e+000	 8.666700000016668e+000	 9.987814566549538e+000
0	 2.533360000018134e+000	 8.733360002791899e+000	 9.988963939560778e+000
0	 2.533360000018134e+000	 8.800020022230557e+000	 9.990049129645390e+000
0	 2.533360000018134e+000	 8.866680074997040e+000	 9.991072769550737e+000
0	 2.533360000018134e+000	 8.933340177755774e+000	 9.992037492197259e+000
0	 2.533360000018134e+000	 9.000000347171177e+000	 9.992945930678438e+000
0	 2.533360000018134e+000	 9.066660599907666e+000	 9.993800718260815e+000
0	 2.533360000018134e+000	 9.133320952629653e+000	 9.994604488383983e+000
0	 2.533360000018135e+000	 9.199981422001557e+000	 9.995359874660490e+000
0	 2.533360000018134e+000	 9.266642024687794e+000	 9.996069510876001e+000
0	 2.533360000018134e+000	 9.333302777352785e+000	 9.996736030989132e+000
0	 2.600030000017850e+000	 8.666700000016666e+000	 9.989377669488523e+000
0	 2.600030000017851e+000	 8.733360002791903e+000	 9.990413156594679e+000
0	 2.600030000017851e+000	 8.800020022230553e+000	 9.991385496009183e+000
0	 2.600030000017851e+000	 8.866680074997044e+000	 9.992297200568531e+000
0	 2.600030000017851e+000	 8.933340177755776e+000	 9.993150783271052e+000
0	 2.600030000017850e+000	 9.000000347171179e+000	 9.993948757276876e+000
0	 2.600030000017850e+000	 9.066660599907664e+000	 9.994693635908016e+000
0	 2.600030000017851e+000	 9.133320952629653e+000	 9.995387932648278e+000
0	 2.600030000017851e+000	 9.199981422001557e+000	 9.996034161143356e+000
0	 2.600030000017850e+000	 9.266642024687791e+000	 9.996634835200633e+000
0	 2.600030000017850e+000	 9.333302777352783e+000	 9.997192468789427e+000
0	 2.666700000016666e+000	 8.666700000016666e+000	 9.990924360635585e+000
0	 2.666700000016667e+000	 8.733360002791903e+000	 9.991840240153771e+000
0	 2.666700000016666e+000	 8.800020022230553e+000	 9.992695000430796e+000
0	 2.666700000016666e+000	 8.866680074997039e+000	 9.993491068073858e+000
0	 2.666700000016666e+000	 8.933340177755774e+000	 9.994230869839155e+000
0	 2.666700000016666e+000	 9.000000347171177e+000	 9.994916832631827e+000
0	 2.666700000016666e+000	 9.066660599907666e+000	 9.995551383505871e+000
0	 2.666700000016667e+000	 9.133320952629653e+000	 9.996136949664269e+000
0	 2.666700000016667e+000	 9.199981422001553e+000	 9.996675958458852e+000
0	 2.666700000016666e+000	 9.266642024687791e+000	 9.997170837390369e+000
0	 2.666700000016667e+000	 9.333302777352785e+000	 9.997624014108450e+000
0	 2.000000000000000e+000	 9.333302777352783e+000	 9.992899209981967e+000
0	 2.000000000000000e+000	 9.399973674588178e+000	 9.994336238743104e+000
0	 2.000000000000000e+000	 9.466644621844621e+000	 9.995593147059555e+000
0	 1.999999999999999e+000	 9.533315502449996e+000	 9.996675669970246e+000
0	 2.000000000000000e+000	 9.599986199732197e+000	 9.997589539082629e+000
0	 2.000000000000000e+000	 9.666656597019093e+000	 9.998340482571903e+000
0	 2.000000000000000e+000	 9.733326577638575e+000	 9.998934225180722e+000
0	 2.000000000000000e+000	 9.799996024918523e+000	 9.999376488218385e+000
0	 1.999999999999999e+000	 9.866664822186820e+000	 9.999672989559944e+000
0	 2.000000000000000e+000	 9.933332852771354e+000	 9.999829443645687e+000
0	 2.000000000000000e+000	 1.000000000000000e+001	 9.999851561480014e+000
0	 2.066670000003317e+000	 9.333302777352783e+000	 9.993341544416278e+000
0	 2.066670000003317e+000	 9.399973674588177e+000	 9.994686019687260e+000
0	 2.066670000003317e+000	 9.466644621844623e+000	 9.995861494629732e+000
0	 2.066670000003318e+000	 9.533315502449998e+000	 9.996873300936670e+000
0	 2.066670000003317e+000	 9.599986199732195e+000	 9.997726767083181e+000
0	 2.066670000003318e+000	 9.666656597019095e+000	 9.998427218325752e+000
0	 2.066670000003318e+000	 9.733326577638577e+000	 9.998979976701888e+000
0	 2.066670000003317e+000	 9.799996024918519e+000	 9.999390361029336e+000
0	 2.066670000003317e+000	 9.866664822186817e+000	 9.999663686905508e+000
0	 2.066670000003317e+000	 9.933332852771351e+000	 9.999805266706469e+000
0	 2.066670000003317e+000	 1.000000000000000e+001	 9.999820409586095e+000
0	 2.133340000006534e+000	 9.333302777352783e+000	 9.993806373750664e+000
0	 2.133340000006534e+000	 9.399973674588180e+000	 9.995052784992650e+000
0	 2.133340000006533e+000	 9.466644621844619e+000	 9.996142896001421e+000
0	 2.133340000006534e+000	 9.533315502450002e+000	 9.997081595180996e+000
0	 2.133340000006534e+000	 9.599986199732195e+000	 9.997873767946388e+000
0	 2.133340000006534e+000	 9.666656597019095e+000	 9.998524296722938e+000
0	 2.133340000006534e+000	 9.733326577638575e+000	 9.999038060945889e+000
0	 2.133340000006534e+000	 9.799996024918521e+000	 9.999419937059791e+000
0	 2.133340000006534e+000	 9.866664822186818e+000	 9.999674798517646e+000
0	 2.133340000006535e+000	 9.933332852771351e+000	 9.999807515780224e+000
0	 2.133340000006534e+000	 1.000000000000000e+001	 9.999822956315120e+000
0	 2.200010000009551e+000	 9.333302777352783e+000	 9.994287774562428e+000
0	 2.200010000009551e+000	 9.399973674588175e+000	 9.995431870931071e+000
0	 2.200010000009551e+000	 9.466644621844623e+000	 9.996433619836138e+000
0	 2.200010000009550e+000	 9.533315502449998e+000	 9.997297426454395e+000
0	 2.200010000009550e+000	 9.599986199732193e+000	 9.998027693214400e+000
0	 2.200010000009551e+000	 9.666656597019092e+000	 9.998628819795794e+000
0	 2.200010000009551e+000	 9.733326577638575e+000	 9.999105203128991e+000
0	 2.200010000009551e+000	 9.799996024918521e+000	 9.999461237394492e+000
0	 2.200010000009551e+000	 9.866664822186822e+000	 9.999701314021982e+000
0	 2.200010000009550e+000	 9.933332852771352e+000	 9.999829821689946e+000
0	 2.200010000009551e+000	 1.000000000000000e+001	 9.999851146324547e+000
0	 2.266680000012268e+000	 9.333302777352783e+000	 9.994779823428928e+000
0	 2.266680000012267e+000	 9.399973674588173e+000	 9.995818613774389e+000
0	 2.266680000012267e+000	 9.466644621844619e+000	 9.996729934795368e+000
0	 2.266680000012268e+000	 9.533315502450000e+000	 9.997517668508042e+000
0	 2.266680000012268e+000	 9.599986199732195e+000	 9.998185694429324e+000
0	 2.266680000012267e+000	 9.666656597019090e+000	 9.998737889576667e+000
0	 2.266680000012267e+000	 9.733326577638575e+000	 9.999178128467429e+000
0	 2.266680000012268e+000	 9.799996024918524e+000	 9.999510283118156e+000
0	 2.266680000012267e+000	 9.866664822186822e+000	 9.999738223044128e+000
0	 2.266680000012267e+000	 9.933332852771352e+000	 9.999865815258568e+000
0	 2.266680000012268e+000	 1.000000000000000e+001	 9.999896924271752e+000
0	 2.333350000014585e+000	 9.333302777352781e+000	 9.995276596927567e+000
0	 2.333350000014584e+000	 9.399973674588175e+000	 9.996208349794372e+000
0	 2.333350000014585e+000	 9.466644621844623e+000	 9.997028109540633e+000
0	 2.333350000014584e+000	 9.533315502449998e+000	 9.997739195093025e+000
0	 2.333350000014584e+000	 9.599986199732193e+000	 9.998344923133342e+000
0	 2.333350000014585e+000	 9.666656597019093e+000	 9.998848608097930e+000
0	 2.333350000014584e+000	 9.733326577638573e+000	 9.999253562177323e+000
0	 2.333350000014584e+000	 9.799996024918521e+000	 9.999563095315681e+000
0	 2.333350000014584e+000	 9.866664822186818e+000	 9.999780515209855e+000
0	 2.333350000014585e+000	 9.933332852771356e+000	 9.999909127309156e+000
0	 2.333350000014584e+000	 1.000000000000000e+001	 9.999952234814444e+000
0	 2.400020000016400e+000	 9.333302777352781e+000	 9.995772171635535e+000
0	 2.400020000016401e+000	 9.399973674588177e+000	 9.996596415262847e+000
0	 2.400020000016401e+000	 9.466644621844621e+000	 9.997324412733434e+000
0	 2.400020000016401e+000	 9.533315502450000e+000	 9.997958879960628e+000
0	 2.400020000016401e+000	 9.599986199732197e+000	 9.998502530868578e+000
0	 2.400020000016401e+000	 9.666656597019093e+000	 9.998958077391876e+000
0	 2.400020000016401e+000	 9.733326577638573e+000	 9.999328229474976e+000
0	 2.400020000016401e+000	 9.799996024918523e+000	 9.999615695071769e+000
0	 2.400020000016401e+000	 9.866664822186820e+000	 9.999823180144805e+000
0	 2.400020000016401e+000	 9.933332852771354e+000	 9.999953388664782e+000
0	 2.400020000016401e+000	 1.000000000000000e+001	 1.000000902260978e+001
0	 2.466690000017618e+000	 9.333302777352783e+000	 9.996260624130311e+000
0	 2.466690000017618e+000	 9.399973674588178e+000	 9.996978146451641e+000
0	 2.466690000017617e+000	 9.466644621844621e+000	 9.997615113035256e+000
0	 2.466690000017619e+000	 9.533315502450002e+000	 9.998173596861932e+000
0	 2.466690000017618e+000	 9.599986199732198e+000	 9.998655669177209e+000
0	 2.466690000017618e+000	 9.666656597019095e+000	 9.999063399490890e+000
0	 2.466690000017618e+000	 9.733326577638575e+000	 9.999398855576565e+000
0	 2.466690000017618e+000	 9.799996024918521e+000	 9.999664103471288e+000
0	 2.466690000017618e+000	 9.866664822186820e+000	 9.999861207474543e+000
0	 2.466690000017617e+000	 9.933332852771347e+000	 9.999992230148132e+000
0	 2.466690000017618e+000	 1.000000000000000e+001	 1.000005923231529e+001
0	 2.533360000018134e+000	 9.333302777352785e+000	 9.996736030989132e+000
0	 2.533360000018134e+000	 9.399973674588177e+000	 9.997348879632579e+000
0	 2.533360000018135e+000	 9.466644621844623e+000	 9.997896479107629e+000
0	 2.533360000018134e+000	 9.533315502450000e+000	 9.998380219548153e+000
0	 2.533360000018134e+000	 9.599986199732197e+000	 9.998801489601364e+000
0	 2.533360000018134e+000	 9.666656597019093e+000	 9.999161676427256e+000
0	 2.533360000018135e+000	 9.733326577638575e+000	 9.999462165698379e+000
0	 2.533360000018134e+000	 9.799996024918523e+000	 9.999704341599003e+000
0	 2.533360000018134e+000	 9.866664822186820e+000	 9.999889586824903e+000
0	 2.533360000018134e+000	 9.933332852771351e+000	 1.000001928258252e+001
0	 2.533360000018134e+000	 1.000000000000000e+001	 1.000009480858839e+001
0	 2.600030000017850e+000	 9.333302777352783e+000	 9.997192468789425e+000
0	 2.600030000017851e+000	 9.399973674588178e+000	 9.997703951077437e+000
0	 2.600030000017851e+000	 9.466644621844619e+000	 9.998164779612008e+000
0	 2.600030000017851e+000	 9.533315502449998e+000	 9.998575621770456e+000
0	 2.600030000017850e+000	 9.599986199732195e+000	 9.998937143683200e+000
0	 2.600030000017851e+000	 9.666656597019093e+000	 9.999250010233419e+000
0	 2.600030000017850e+000	 9.733326577638575e+000	 9.999514885056541e+000
0	 2.600030000017850e+000	 9.799996024918521e+000	 9.999732430539771e+000
0	 2.600030000017851e+000	 9.866664822186820e+000	 9.999903307821400e+000
0	 2.600030000017851e+000	 9.933332852771351e+000	 1.000002817679072e+001
0	 2.600030000017851e+000	 1.000000000000000e+001	 1.000010769608667e+001
0	 2.666700000016667e+000	 9.333302777352785e+000	 9.997624014108450e+000
0	 2.666700000016666e+000	 9.399973674588180e+000	 9.998038697058046e+000
0	 2.666700000016666e+000	 9.466644621844619e+000	 9.998416283209910e+000
0	 2.666700000016667e+000	 9.533315502449998e+000	 9.998756677279953e+000
0	 2.666700000016667e+000	 9.599986199732197e+000	 9.999059782964824e+000
0	 2.666700000016666e+000	 9.666656597019092e+000	 9.999325502941645e+000
0	 2.666700000016666e+000	 9.733326577638573e+000	 9.999553738867304e+000
0	 2.666700000016667e+000	 9.799996024918521e+000	 9.999744391378233e+000
0	 2.666700000016666e+000	 9.866664822186817e+000	 9.999897360089788e+000
0	 2.666700000016666e+000	 9.933332852771352e+000	 1.000001254359568e+001
0	 2.666700000016666e+000	 1.000000000000000e+001	 1.000008983946755e+001
0	 2.666700000016666e+000	 0.000000000000000e+000	-9.742032320083703e+001
0	 2.666700000016667e+000	 6.666714722864757e-002	-8.491316223850197e+001
0	 2.666700000016666e+000	 1.333351778131789e-001	-7.306505011182263e+001
0	 2.666700000016666e+000	 2.000039750814772e-001	-6.188047377899300e+001
0	 2.666700000016666e+000	 2.666734223614256e-001	-5.136392696209192e+001
0	 2.666700000016667e+000	 3.333434029809069e-001	-4.151991014539141e+001
0	 2.666700000016666e+000	 4.000138002678045e-001	-3.235293057384250e+001
0	 2.666700000016667e+000	 4.666844975500012e-001	-2.386750225173851e+001
0	 2.666700000016667e+000	 5.333553781553803e-001	-1.606814594155592e+001
0	 2.666700000016666e+000	 6.000263254118246e-001	-8.959389162972606e+000
0	 2.666700000016666e+000	 6.666972226472175e-001	-2.545766192063543e+000
0	 2.733360000014533e+000	 0.000000000000000e+000	-1.014446035738160e+002
0	 2.733360000014533e+000	 6.666714722864756e-002	-8.788066948704166e+001
0	 2.733360000014533e+000	 1.333351778131789e-001	-7.514419566835899e+001
0	 2.733360000014533e+000	 2.000039750814772e-001	-6.322530642556881e+001
0	 2.733360000014533e+000	 2.666734223614255e-001	-5.211413300399335e+001
0	 2.733360000014533e+000	 3.333434029809070e-001	-4.180081358475709e+001
0	 2.733360000014532e+000	 4.000138002678042e-001	-3.227549328324982e+001
0	 2.733360000014533e+000	 4.666844975500012e-001	-2.352832414777165e+001
0	 2.733360000014534e+000	 5.333553781553803e-001	-1.554946515836038e+001
0	 2.733360000014532e+000	 6.000263254118246e-001	-8.329082225800487e+000
0	 2.733360000014533e+000	 6.666972226472174e-001	-1.857348190814304e+000
0	 2.800020000011600e+000	 0.000000000000000e+000	-1.038326448386242e+002
0	 2.800020000011599e+000	 6.666714722864754e-002	-8.949135450627696e+001
0	 2.800020000011600e+000	 1.333351778131790e-001	-7.611268205475108e+001
0	 2.800020000011599e+000	 2.000039750814773e-001	-6.367499364180925e+001
0	 2.800020000011599e+000	 2.666734223614256e-001	-5.215666247824012e+001
0	 2.800020000011600e+000	 3.333434029809069e-001	-4.153606882612665e+001
0	 2.800020000011600e+000	 4.000138002678045e-001	-3.179159999730006e+001
0	 2.800020000011600e+000	 4.666844975500012e-001	-2.290165035197881e+001
0	 2.800020000011600e+000	 5.333553781553804e-001	-1.484462129759264e+001
0	 2.800020000011599e+000	 6.000263254118248e-001	-7.598921287791693e+000
0	 2.800020000011599e+000	 6.666972226472174e-001	-1.142965821640438e+000
0	 2.866680000008067e+000	 0.000000000000000e+000	-1.046448271130728e+002
0	 2.866680000008066e+000	 6.666714722864756e-002	-8.980057161419839e+001
0	 2.866680000008067e+000	 1.333351778131789e-001	-7.602078056272546e+001
0	 2.866680000008066e+000	 2.000039750814773e-001	-6.327466644217232e+001
0	 2.866680000008067e+000	 2.666734223614256e-001	-5.153144884585540e+001
0	 2.866680000008067e+000	 3.333434029809070e-001	-4.076035447516033e+001
0	 2.866680000008066e+000	 4.000138002678043e-001	-3.093061713799979e+001
0	 2.866680000008067e+000	 4.666844975500011e-001	-2.201147774745802e+001
0	 2.866680000008066e+000	 5.333553781553801e-001	-1.397218432062173e+001
0	 2.866680000008067e+000	 6.000263254118248e-001	-6.781991977597734e+000
0	 2.866680000008067e+000	 6.666972226472175e-001	-4.101629407168907e-001
0	 2.933340000004133e+000	 0.000000000000000e+000	-1.039415305149864e+002
0	 2.933340000004133e+000	 6.666714722864754e-002	-8.886367512880705e+001
0	 2.933340000004133e+000	 1.333351778131789e-001	-7.491876248401705e+001
0	 2.933340000004133e+000	 2.000039750814772e-001	-6.206945584112219e+001
0	 2.933340000004134e+000	 2.666734223614255e-001	-5.027842556786687e+001
0	 2.933340000004133e+000	 3.333434029809069e-001	-3.950834913752155e+001
0	 2.933340000004133e+000	 4.000138002678044e-001	-2.972191112735767e+001
0	 2.933340000004133e+000	 4.666844975500011e-001	-2.088180321730861e+001
0	 2.933340000004133e+000	 5.333553781553801e-001	-1.295072418881734e+001
0	 2.933340000004133e+000	 6.000263254118248e-001	-5.891379923870458e+000
0	 2.933340000004133e+000	 6.666972226472175e-001	 3.335165957813722e-001
0	 3.000000000000000e+000	 0.000000000000000e+000	-1.017831351622040e+002
0	 3.000000000000000e+000	 6.666714722864756e-002	-8.673601936811522e+001
0	 3.000000000000000e+000	 1.333351778131789e-001	-7.285689911036899e+001
0	 3.000000000000000e+000	 2.000039750814772e-001	-6.010449285312926e+001
0	 3.000000000000000e+000	 2.666734223614255e-001	-4.843752610530658e+001
0	 3.000000000000000e+000	 3.333434029809069e-001	-3.781473141887675e+001
0	 3.000000000000000e+000	 4.000138002678044e-001	-2.819484838738434e+001
0	 3.000000000000000e+000	 4.666844975500011e-001	-1.953662364463117e+001
0	 3.000000000000000e+000	 5.333553781553801e-001	-1.179881086354990e+001
0	 3.000000000000000e+000	 6.000263254118246e-001	-4.940170755261954e+000
0	 3.000000000000000e+000	 6.666972226472177e-001	 1.080528931679307e+000
0	 3.066659999995868e+000	 0.000000000000000e+000	-9.823002117257843e+001
0	 3.066659999995867e+000	 6.666714722864758e-002	-8.347295865014603e+001
0	 3.066659999995868e+000	 1.333351778131790e-001	-6.988546173353288e+001
0	 3.066659999995868e+000	 2.000039750814772e-001	-5.742490849267006e+001
0	 3.066659999995868e+000	 2.666734223614256e-001	-4.604868391921119e+001
0	 3.066659999995868e+000	 3.333434029809069e-001	-3.571417992489558e+001
0	 3.066659999995868e+000	 4.000138002678044e-001	-2.637879534009252e+001
0	 3.066659999995868e+000	 4.666844975500012e-001	-1.799993591252756e+001
0	 3.066659999995867e+000	 5.333553781553800e-001	-1.053501430619052e+001
0	 3.066659999995868e+000	 6.000263254118247e-001	-3.941450100424708e+000
0	 3.066659999995868e+000	 6.666972226472177e-001	 1.823330210801912e+000
0	 3.133319999991934e+000	 0.000000000000000e+000	-9.334256866397649e+001
0	 3.133319999991935e+000	 6.666714722864757e-002	-7.912984729293338e+001
0	 3.133319999991934e+000	 1.333351778131789e-001	-6.605472164526857e+001
0	 3.133319999991934e+000	 2.000039750814772e-001	-5.407583377422734e+001
0	 3.133319999991934e+000	 2.666734223614256e-001	-4.315183247062175e+001
0	 3.133319999991935e+000	 3.333434029809069e-001	-3.324137326125072e+001
0	 3.133319999991934e+000	 4.000138002678044e-001	-2.430311840749700e+001
0	 3.133319999991934e+000	 4.666844975500011e-001	-1.629573690410089e+001
0	 3.133319999991935e+000	 5.333553781553804e-001	-9.177904478110980e+000
0	 3.133319999991935e+000	 6.000263254118248e-001	-2.908303588011417e+000
0	 3.133319999991934e+000	 6.666972226472177e-001	 2.554376576974104e+000
0	 3.199979999988401e+000	 0.000000000000000e+000	-8.718115775427896e+001
0	 3.199979999988401e+000	 6.666714722864756e-002	-7.376203961452221e+001
0	 3.199979999988400e+000	 1.333351778131789e-001	-6.141495013734422e+001
0	 3.199979999988401e+000	 2.000039750814773e-001	-5.010239971229009e+001
0	 3.199979999988400e+000	 2.666734223614256e-001	-3.978690522058378e+001
0	 3.199979999988400e+000	 3.333434029809069e-001	-3.043099003361798e+001
0	 3.199979999988401e+000	 4.000138002678044e-001	-2.199718401161462e+001
0	 3.199979999988401e+000	 4.666844975500011e-001	-1.444802350245556e+001
0	 3.199979999988401e+000	 5.333553781553803e-001	-7.746051340683869e+000
0	 3.199979999988401e+000	 6.000263254118249e-001	-1.853816846675107e+000
0	 3.199979999988400e+000	 6.666972226472174e-001	 3.266124174020787e+000
0	 3.266639999985467e+000	 0.000000000000000e+000	-7.980616856138059e+001
0	 3.266639999985468e+000	 6.666714722864754e-002	-6.742488993296830e+001
0	 3.266639999985467e+000	 1.333351778131789e-001	-5.601641850153631e+001
0	 3.266639999985468e+000	 2.000039750814772e-001	-4.554973732135346e+001
0	 3.266639999985468e+000	 2.666734223614255e-001	-3.599383563014729e+001
0	 3.266639999985468e+000	 3.333434029809069e-001	-2.731770884767629e+001
0	 3.266639999985468e+000	 4.000138002678043e-001	-1.949035857446430e+001
0	 3.266639999985468e+000	 4.666844975500012e-001	-1.248079259069722e+001
0	 3.266639999985467e+000	 5.333553781553803e-001	-6.258024855282306e+000
0	 3.266639999985467e+000	 6.000263254118246e-001	-7.910755050691014e-001
0	 3.266639999985467e+000	 6.666972226472177e-001	 3.951029145766870e+000
0	 3.333299999983334e+000	 0.000000000000000e+000	-7.127798120319021e+001
0	 3.333299999983334e+000	 6.666714722864757e-002	-6.017375256633844e+001
0	 3.333299999983334e+000	 1.333351778131789e-001	-4.990939802962974e+001
0	 3.333299999983335e+000	 2.000039750814773e-001	-4.046297761591878e+001
0	 3.333299999983333e+000	 2.666734223614255e-001	-3.181255716036681e+001
0	 3.333299999983334e+000	 3.333434029809069e-001	-2.393620830910773e+001
0	 3.333299999983334e+000	 4.000138002678044e-001	-1.681200851806698e+001
0	 3.333299999983334e+000	 4.666844975500011e-001	-1.041804105193288e+001
0	 3.333299999983333e+000	 5.333553781553801e-001	-4.732394983280272e+000
0	 3.333299999983334e+000	 6.000263254118247e-001	 2.668348081529430e-001
0	 3.333299999983333e+000	 6.666972226472174e-001	 4.601547636037154e+000
0	 2.666700000016666e+000	 6.666972226472175e-001	-2.545766192063544e+000
0	 2.666700000016666e+000	 7.333579753122048e-001	 3.236371024779308e+000
0	 2.666700000016666e+000	 8.000185779984421e-001	 8.457394793573728e+000
0	 2.666700000016666e+000	 8.666790473703452e-001	 1.312012381313738e+001
0	 2.666700000016666e+000	 9.333394000923324e-001	 1.722737754372813e+001
0	 2.666700000016666e+000	 9.999996528288191e-001	 2.078197620706686e+001
0	 2.666700000016666e+000	 1.066659822244222e+000	 2.378674078635718e+001
0	 2.666700000016666e+000	 1.133319925002959e+000	 2.624449302630256e+001
0	 2.666700000016666e+000	 1.199979977769445e+000	 2.815805543312045e+001
0	 2.666700000016667e+000	 1.266639997208098e+000	 2.953025127455347e+001
0	 2.666700000016667e+000	 1.333299999983334e+000	 3.036390457987796e+001
0	 2.733360000014533e+000	 6.666972226472174e-001	-1.857348190814304e+000
0	 2.733360000014533e+000	 7.333579753122049e-001	 3.948221877005587e+000
0	 2.733360000014532e+000	 8.000185779984421e-001	 9.169437053910382e+000
0	 2.733360000014533e+000	 8.666790473703455e-001	 1.381236092595041e+001
0	 2.733360000014533e+000	 9.333394000923323e-001	 1.788305784641707e+001
0	 2.733360000014533e+000	 9.999996528288194e-001	 2.138759293586560e+001
0	 2.733360000014534e+000	 1.066659822244223e+000	 2.433203208213488e+001
0	 2.733360000014532e+000	 1.133319925002959e+000	 2.672244194036454e+001
0	 2.733360000014533e+000	 1.199979977769446e+000	 2.856488993300898e+001
0	 2.733360000014533e+000	 1.266639997208098e+000	 2.986544424984859e+001
0	 2.733360000014533e+000	 1.333299999983334e+000	 3.063017384799823e+001
0	 2.800020000011599e+000	 6.666972226472174e-001	-1.142965821640439e+000
0	 2.800020000011599e+000	 7.333579753122047e-001	 4.622665928161122e+000
0	 2.800020000011599e+000	 8.000185779984418e-001	 9.790655584396149e+000
0	 2.800020000011600e+000	 8.666790473703459e-001	 1.436974354251439e+001
0	 2.800020000011601e+000	 9.333394000923324e-001	 1.836867096165207e+001
0	 2.800020000011599e+000	 9.999996528288192e-001	 2.179617976465443e+001
0	 2.800020000011600e+000	 1.066659822244223e+000	 2.466101263809536e+001
0	 2.800020000011601e+000	 1.133319925002960e+000	 2.697191303229432e+001
0	 2.800020000011600e+000	 1.199979977769446e+000	 2.873762516133011e+001
0	 2.800020000011600e+000	 1.266639997208098e+000	 2.996689400305218e+001
0	 2.800020000011600e+000	 1.333299999983334e+000	 3.066846529908861e+001
0	 2.866680000008067e+000	 6.666972226472175e-001	-4.101629407168907e-001
0	 2.866680000008067e+000	 7.333579753122049e-001	 5.257427285465528e+000
0	 2.866680000008067e+000	 8.000185779984420e-001	 1.032343904395830e+001
0	 2.866680000008067e+000	 8.666790473703454e-001	 1.479872145443237e+001
0	 2.866680000008067e+000	 9.333394000923325e-001	 1.869412438824028e+001
0	 2.866680000008066e+000	 9.999996528288193e-001	 2.202049846843811e+001
0	 2.866680000008066e+000	 1.066659822244222e+000	 2.478869506980483e+001
0	 2.866680000008067e+000	 1.133319925002959e+000	 2.700956631885873e+001
0	 2.866680000008067e+000	 1.199979977769445e+000	 2.869396509387116e+001
0	 2.866680000008067e+000	 1.266639997208098e+000	 2.985274502487724e+001
0	 2.866680000008067e+000	 1.333299999983334e+000	 3.049676049368389e+001
0	 2.933340000004133e+000	 6.666972226472175e-001	 3.335165957813704e-001
0	 2.933340000004133e+000	 7.333579753122048e-001	 5.850230056138633e+000
0	 2.933340000004133e+000	 8.000185779984419e-001	 1.077017609152437e+001
0	 2.933340000004133e+000	 8.666790473703454e-001	 1.510574445330778e+001
0	 2.933340000004133e+000	 9.333394000923322e-001	 1.886932562498926e+001
0	 2.933340000004133e+000	 9.999996528288190e-001	 2.207331082222179e+001
0	 2.933340000004134e+000	 1.066659822244223e+000	 2.473009199282979e+001
0	 2.933340000004133e+000	 1.133319925002959e+000	 2.685206181682495e+001
0	 2.933340000004133e+000	 1.199979977769445e+000	 2.845161370641954e+001
0	 2.933340000004133e+000	 1.266639997208098e+000	 2.954114180603687e+001
0	 2.933340000004133e+000	 1.333299999983334e+000	 3.013304099231899e+001
0	 3.000000000000000e+000	 6.666972226472177e-001	 1.080528931679305e+000
0	 3.000000000000001e+000	 7.333579753122049e-001	 6.398798347400416e+000
0	 3.000000000000000e+000	 8.000185779984419e-001	 1.113325538602230e+001
0	 3.000000000000000e+000	 8.666790473703456e-001	 1.529726233074442e+001
0	 3.000000000000000e+000	 9.333394000923324e-001	 1.890418217070689e+001
0	 3.000000000000000e+000	 9.999996528288193e-001	 2.196737860101099e+001
0	 3.000000000000000e+000	 1.066659822244222e+000	 2.450021602273713e+001
0	 3.000000000000001e+000	 1.133319925002959e+000	 2.651605954296034e+001
0	 3.000000000000000e+000	 1.199979977769445e+000	 2.802827497476291e+001
0	 3.000000000000000e+000	 1.266639997208098e+000	 2.905022883724432e+001
0	 3.000000000000000e+000	 1.333299999983334e+000	 2.959528835552887e+001
0	 3.066659999995868e+000	 6.666972226472177e-001	 1.823330210801911e+000
0	 3.066659999995868e+000	 7.333579753122047e-001	 6.900856266471042e+000
0	 3.066659999995868e+000	 8.000185779984419e-001	 1.141506558638016e+001
0	 3.066659999995868e+000	 8.666790473703456e-001	 1.537972487834640e+001
0	 3.066659999995867e+000	 9.333394000923321e-001	 1.880860152420149e+001
0	 3.066659999995868e+000	 9.999996528288193e-001	 2.171546357981152e+001
0	 3.066659999995867e+000	 1.066659822244222e+000	 2.411407977509401e+001
0	 3.066659999995868e+000	 1.133319925002959e+000	 2.601821951403259e+001
0	 3.066659999995867e+000	 1.199979977769445e+000	 2.744165287468907e+001
0	 3.066659999995868e+000	 1.266639997208098e+000	 2.839815060921298e+001
0	 3.066659999995868e+000	 1.333299999983334e+000	 2.890148414384870e+001
0	 3.133319999991934e+000	 6.666972226472177e-001	 2.554376576974103e+000
0	 3.133319999991935e+000	 7.333579753122048e-001	 7.354127920570788e+000
0	 3.133319999991935e+000	 8.000185779984418e-001	 1.161799535152645e+001
0	 3.133319999991934e+000	 8.666790473703457e-001	 1.535958188771821e+001
0	 3.133319999991933e+000	 9.333394000923323e-001	 1.859249118428172e+001
0	 3.133319999991934e+000	 9.999996528288193e-001	 2.133032753362966e+001
0	 3.133319999991934e+000	 1.066659822244222e+000	 2.358669586546795e+001
0	 3.133319999991934e+000	 1.133319925002959e+000	 2.537520174680962e+001
0	 3.133319999991933e+000	 1.199979977769445e+000	 2.670945138198614e+001
0	 3.133319999991933e+000	 1.266639997208098e+000	 2.760305161265646e+001
0	 3.133319999991934e+000	 1.333299999983334e+000	 2.806960991781365e+001
0	 3.199979999988400e+000	 6.666972226472174e-001	 3.266124174020787e+000
0	 3.199979999988401e+000	 7.333579753122048e-001	 7.756337416920132e+000
0	 3.199979999988401e+000	 8.000185779984420e-001	 1.174443334038988e+001
0	 3.199979999988401e+000	 8.666790473703454e-001	 1.524328315046474e+001
0	 3.199979999988401e+000	 9.333394000923322e-001	 1.826575864975666e+001
0	 3.199979999988401e+000	 9.999996528288193e-001	 2.082473223747198e+001
0	 3.199979999988400e+000	 1.066659822244222e+000	 2.293307690942677e+001
0	 3.199979999988400e+000	 1.133319925002959e+000	 2.460366625805962e+001
0	 3.199979999988401e+000	 1.199979977769445e+000	 2.584937447244235e+001
0	 3.199979999988401e+000	 1.266639997208098e+000	 2.668307633828839e+001
0	 3.199979999988401e+000	 1.333299999983334e+000	 2.711764723795906e+001
0	 3.266639999985467e+000	 6.666972226472177e-001	 3.951029145766871e+000
0	 3.266639999985468e+000	 7.333579753122048e-001	 8.105208862739747e+000
0	 3.266639999985468e+000	 8.000185779984420e-001	 1.179676821189946e+001
0	 3.266639999985468e+000	 8.666790473703454e-001	 1.503727845819119e+001
0	 3.266639999985467e+000	 9.333394000923322e-001	 1.783831141943571e+001
0	 3.266639999985468e+000	 9.999996528288192e-001	 2.021143946634546e+001
0	 3.266639999985467e+000	 1.066659822244222e+000	 2.216823552253862e+001
0	 3.266639999985467e+000	 1.133319925002959e+000	 2.372027306455108e+001
0	 3.266639999985468e+000	 1.199979977769445e+000	 2.487912612184616e+001
0	 3.266639999985467e+000	 1.266639997208098e+000	 2.565636927682266e+001
0	 3.266639999985467e+000	 1.333299999983334e+000	 2.606357766482037e+001
0	 3.333299999983333e+000	 6.666972226472174e-001	 4.601547636037153e+000
0	 3.333299999983334e+000	 7.333579753122048e-001	 8.398466365250407e+000
0	 3.333299999983335e+000	 8.000185779984420e-001	 1.177738862498453e+001
0	 3.333299999983334e+000	 8.666790473703455e-001	 1.474801760250311e+001
0	 3.333299999983335e+000	 9.333394000923323e-001	 1.732005699212867e+001
0	 3.333299999983334e+000	 9.999996528288192e-001	 1.950321099525742e+001
0	 3.333299999983334e+000	 1.066659822244222e+000	 2.130718432037202e+001
0	 3.333299999983333e+000	 1.133319925002959e+000	 2.274168218305272e+001
0	 3.333299999983334e+000	 1.199979977769445e+000	 2.381641030598630e+001
0	 3.333299999983333e+000	 1.266639997208098e+000	 2.454107491897326e+001
0	 3.333299999983333e+000	 1.333299999983334e+000	 2.492538275893311e+001
0	 2.666700000016667e+000	 1.333299999983334e+000	 3.036390457987797e+001
0	 2.666700000016667e+000	 1.399969999982150e+000	 3.082094369263407e+001
0	 2.666700000016667e+000	 1.466639999981867e+000	 3.106482654067876e+001
0	 2.666700000016667e+000	 1.533309999982383e+000	 3.110092652196517e+001
0	 2.666700000016666e+000	 1.599979999983600e+000	 3.093461703444481e+001
0	 2.666700000016666e+000	 1.666649999985416e+000	 3.057127147606740e+001
0	 2.666700000016666e+000	 1.733319999987733e+000	 3.001626324478098e+001
0	 2.666700000016666e+000	 1.799989999990450e+000	 2.927496573853185e+001
0	 2.666700000016666e+000	 1.866659999993467e+000	 2.835275235526461e+001
0	 2.666700000016666e+000	 1.933329999996684e+000	 2.725499649292213e+001
0	 2.666700000016666e+000	 2.000000000000000e+000	 2.598707154944561e+001
0	 2.733360000014533e+000	 1.333299999983334e+000	 3.063017384799823e+001
0	 2.733360000014533e+000	 1.399969999982150e+000	 3.102769382627029e+001
0	 2.733360000014533e+000	 1.466639999981867e+000	 3.122515744339888e+001
0	 2.733360000014533e+000	 1.533309999982383e+000	 3.122666597252198e+001
0	 2.733360000014533e+000	 1.599979999983599e+000	 3.103632068677602e+001
0	 2.733360000014533e+000	 1.666649999985416e+000	 3.065822285929561e+001
0	 2.733360000014533e+000	 1.733319999987733e+000	 3.009647376321384e+001
0	 2.733360000014532e+000	 1.799989999990450e+000	 2.935517467166194e+001
0	 2.733360000014533e+000	 1.866659999993467e+000	 2.843842685776966e+001
0	 2.733360000014533e+000	 1.933329999996684e+000	 2.735033159466497e+001
0	 2.733360000014533e+000	 2.000000000000000e+000	 2.609499015547415e+001
0	 2.800020000011600e+000	 1.333299999983334e+000	 3.066846529908861e+001
0	 2.800020000011600e+000	 1.399969999982150e+000	 3.101439838484637e+001
0	 2.800020000011600e+000	 1.466639999981866e+000	 3.117278382293708e+001
0	 2.800020000011600e+000	 1.533309999982383e+000	 3.114661307554564e+001
0	 2.800020000011600e+000	 1.599979999983599e+000	 3.093887760485534e+001
0	 2.800020000011600e+000	 1.666649999985417e+000	 3.055256887304770e+001
0	 2.800020000011599e+000	 1.733319999987733e+000	 2.999067834230281e+001
0	 2.800020000011600e+000	 1.799989999990450e+000	 2.925619747479897e+001
0	 2.800020000011600e+000	 1.866659999993467e+000	 2.835211773271293e+001
0	 2.800020000011600e+000	 1.933329999996684e+000	 2.728143057821983e+001
0	 2.800020000011599e+000	 2.000000000000000e+000	 2.604712747349314e+001
0	 2.866680000008067e+000	 1.333299999983334e+000	 3.049676049368389e+001
0	 2.866680000008067e+000	 1.399969999982150e+000	 3.079855467981898e+001
0	 2.866680000008066e+000	 1.466639999981866e+000	 3.092467968860625e+001
0	 2.866680000008066e+000	 1.533309999982383e+000	 3.087717948513934e+001
0	 2.866680000008066e+000	 1.599979999983599e+000	 3.065809803451047e+001
0	 2.866680000008067e+000	 1.666649999985416e+000	 3.026947930181014e+001
0	 2.866680000008067e+000	 1.733319999987733e+000	 2.971336725212739e+001
0	 2.866680000008067e+000	 1.799989999990450e+000	 2.899180585054962e+001
0	 2.866680000008066e+000	 1.866659999993467e+000	 2.810683906216264e+001
0	 2.866680000008067e+000	 1.933329999996683e+000	 2.706051085205076e+001
0	 2.866680000008067e+000	 2.000000000000000e+000	 2.585486518529666e+001
0	 2.933340000004133e+000	 1.333299999983334e+000	 3.013304099231900e+001
0	 2.933340000004133e+000	 1.399969999982150e+000	 3.039766002264502e+001
0	 2.933340000004133e+000	 1.466639999981866e+000	 3.049781904971932e+001
0	 2.933340000004133e+000	 1.533309999982383e+000	 3.043477685540639e+001
0	 2.933340000004134e+000	 1.599979999983599e+000	 3.020979222156933e+001
0	 2.933340000004133e+000	 1.666649999985416e+000	 2.982412393006965e+001
0	 2.933340000004133e+000	 1.733319999987733e+000	 2.927903076276735e+001
0	 2.933340000004133e+000	 1.799989999990450e+000	 2.857577150152099e+001
0	 2.933340000004134e+000	 1.866659999993467e+000	 2.771560492818748e+001
0	 2.933340000004134e+000	 1.933329999996684e+000	 2.669978982462231e+001
0	 2.933340000004133e+000	 2.000000000000000e+000	 2.552958497267942e+001
0	 3.000000000000000e+000	 1.333299999983334e+000	 2.959528835552888e+001
0	 3.000000000000000e+000	 1.399969999982150e+000	 2.982921172478137e+001
0	 3.000000000000000e+000	 1.466639999981866e+000	 2.990917591558932e+001
0	 3.000000000000000e+000	 1.533309999982383e+000	 2.983581684045019e+001
0	 3.000000000000000e+000	 1.599979999983600e+000	 2.960977041185994e+001
0	 3.000000000000000e+000	 1.666649999985416e+000	 2.923167254231313e+001
0	 3.000000000000000e+000	 1.733319999987733e+000	 2.870215914430276e+001
0	 3.000000000000000e+000	 1.799989999990450e+000	 2.802186613032050e+001
0	 3.000000000000001e+000	 1.866659999993467e+000	 2.719142941285651e+001
0	 3.000000000000000e+000	 1.933329999996684e+000	 2.621148490439947e+001
0	 3.000000000000001e+000	 2.000000000000000e+000	 2.508266851743665e+001
0	 3.066659999995868e+000	 1.333299999983334e+000	 2.890148414384871e+001
0	 3.066659999995868e+000	 1.399969999982150e+000	 2.911070709768502e+001
0	 3.066659999995867e+000	 1.466639999981866e+000	 2.917572429552945e+001
0	 3.066659999995867e+000	 1.533309999982383e+000	 2.909671109437429e+001
0	 3.066659999995868e+000	 1.599979999983600e+000	 2.887384285121053e+001
0	 3.066659999995867e+000	 1.666649999985417e+000	 2.850729492302765e+001
0	 3.066659999995867e+000	 1.733319999987733e+000	 2.799724266681389e+001
0	 3.066659999995868e+000	 1.799989999990450e+000	 2.734386143955593e+001
0	 3.066659999995868e+000	 1.866659999993467e+000	 2.654732659823925e+001
0	 3.066659999995868e+000	 1.933329999996684e+000	 2.560781349984781e+001
0	 3.066659999995868e+000	 2.000000000000000e+000	 2.452549750136416e+001
0	 3.133319999991934e+000	 1.333299999983334e+000	 2.806960991781366e+001
0	 3.133319999991934e+000	 1.399969999982150e+000	 2.825964345281309e+001
0	 3.133319999991934e+000	 1.466639999981867e+000	 2.831443819885292e+001
0	 3.133319999991933e+000	 1.533309999982383e+000	 2.823387127128236e+001
0	 3.133319999991934e+000	 1.599979999983599e+000	 2.801781978544938e+001
0	 3.133319999991935e+000	 1.666649999985417e+000	 2.766616085670059e+001
0	 3.133319999991933e+000	 1.733319999987733e+000	 2.717877160038126e+001
0	 3.133319999991934e+000	 1.799989999990450e+000	 2.655552913183537e+001
0	 3.133319999991934e+000	 1.866659999993467e+000	 2.579631056640559e+001
0	 3.133319999991934e+000	 1.933329999996684e+000	 2.490099301943324e+001
0	 3.133319999991935e+000	 2.000000000000000e+000	 2.386945360625833e+001
0	 3.199979999988401e+000	 1.333299999983334e+000	 2.711764723795906e+001
0	 3.199979999988400e+000	 1.399969999982150e+000	 2.729351810162273e+001
0	 3.199979999988401e+000	 1.466639999981867e+000	 2.734229163487302e+001
0	 3.199979999988400e+000	 1.533309999982383e+000	 2.726370902527812e+001
0	 3.199979999988401e+000	 1.599979999983600e+000	 2.705751146040503e+001
0	 3.199979999988400e+000	 1.666649999985416e+000	 2.672344012781941e+001
0	 3.199979999988400e+000	 1.733319999987733e+000	 2.626123621508572e+001
0	 3.199979999988401e+000	 1.799989999990450e+000	 2.567064090976722e+001
0	 3.199979999988401e+000	 1.866659999993467e+000	 2.495139539942583e+001
0	 3.199979999988401e+000	 1.933329999996684e+000	 2.410324087162230e+001
0	 3.199979999988401e+000	 2.000000000000000e+000	 2.312591851391608e+001
0	 3.266639999985467e+000	 1.333299999983334e+000	 2.606357766482037e+001
0	 3.266639999985467e+000	 1.399969999982150e+000	 2.622982835557120e+001
0	 3.266639999985467e+000	 1.466639999981867e+000	 2.627625861290317e+001
0	 3.266639999985467e+000	 1.533309999982383e+000	 2.620263601046548e+001
0	 3.266639999985467e+000	 1.599979999983600e+000	 2.600872812190609e+001
0	 3.266639999985469e+000	 1.666649999985417e+000	 2.569430252087184e+001
0	 3.266639999985468e+000	 1.733319999987733e+000	 2.525912678100839e+001
0	 3.266639999985468e+000	 1.799989999990450e+000	 2.470296847596023e+001
0	 3.266639999985467e+000	 1.866659999993467e+000	 2.402559517937069e+001
0	 3.266639999985469e+000	 1.933329999996684e+000	 2.322677446488191e+001
0	 3.266639999985468e+000	 2.000000000000000e+000	 2.230627390613491e+001
0	 3.333299999983333e+000	 1.333299999983334e+000	 2.492538275893311e+001
0	 3.333299999983333e+000	 1.399969999982150e+000	 2.508607152611586e+001
0	 3.333299999983334e+000	 1.466639999981866e+000	 2.513331314225690e+001
0	 3.333299999983334e+000	 1.533309999982383e+000	 2.506706388094840e+001
0	 3.333299999983333e+000	 1.599979999983599e+000	 2.488728001578138e+001
0	 3.333299999983333e+000	 1.666649999985416e+000	 2.459391782034581e+001
0	 3.333299999983334e+000	 1.733319999987733e+000	 2.418693356823060e+001
0	 3.333299999983334e+000	 1.799989999990450e+000	 2.366628353302354e+001
0	 3.333299999983334e+000	 1.866659999993467e+000	 2.303192398831132e+001
0	 3.333299999983333e+000	 1.933329999996684e+000	 2.228381120767959e+001
0	 3.333299999983334e+000	 2.000000000000000e+000	 2.142190146471286e+001
0	 2.666700000016666e+000	 2.000000000000000e+000	 2.598707154944561e+001
0	 2.666700000016667e+000	 2.066670000003317e+000	 2.465908988313614e+001
0	 2.666700000016666e+000	 2.133340000006534e+000	 2.337748693870325e+001
0	 2.666700000016666e+000	 2.200010000009550e+000	 2.214212074369952e+001
0	 2.666700000016667e+000	 2.266680000012268e+000	 2.095284932567774e+001
0	 2.666700000016666e+000	 2.333350000014584e+000	 1.980953071219092e+001
0	 2.666700000016665e+000	 2.400020000016401e+000	 1.871202293079222e+001
0	 2.666700000016666e+000	 2.466690000017617e+000	 1.766018400903501e+001
0	 2.666700000016666e+000	 2.533360000018134e+000	 1.665387197447281e+001
0	 2.666700000016666e+000	 2.600030000017850e+000	 1.569294485465939e+001
0	 2.666700000016666e+000	 2.666700000016667e+000	 1.477726067714863e+001
0	 2.733360000014533e+000	 2.000000000000000e+000	 2.609499015547415e+001
0	 2.733360000014533e+000	 2.066670000003317e+000	 2.478082369541994e+001
0	 2.733360000014533e+000	 2.133340000006534e+000	 2.351328780882899e+001
0	 2.733360000014534e+000	 2.200010000009550e+000	 2.229203542748254e+001
0	 2.733360000014532e+000	 2.266680000012267e+000	 2.111671948316210e+001
0	 2.733360000014533e+000	 2.333350000014584e+000	 1.998699290764927e+001
0	 2.733360000014533e+000	 2.400020000016402e+000	 1.890250863272597e+001
0	 2.733360000014533e+000	 2.466690000017618e+000	 1.786291959017430e+001
0	 2.733360000014533e+000	 2.533360000018134e+000	 1.686787871177655e+001
0	 2.733360000014533e+000	 2.600030000017851e+000	 1.591703892931531e+001
0	 2.733360000014533e+000	 2.666700000016665e+000	 1.501005317457332e+001
0	 2.800020000011599e+000	 2.000000000000000e+000	 2.604712747349314e+001
0	 2.800020000011600e+000	 2.066670000003317e+000	 2.475546443688759e+001
0	 2.800020000011600e+000	 2.133340000006534e+000	 2.351035617274667e+001
0	 2.800020000011600e+000	 2.200010000009551e+000	 2.231128217222591e+001
0	 2.800020000011600e+000	 2.266680000012266e+000	 2.115772192648113e+001
0	 2.800020000011600e+000	 2.333350000014585e+000	 2.004915492666832e+001
0	 2.800020000011600e+000	 2.400020000016400e+000	 1.898506066394377e+001
0	 2.800020000011600e+000	 2.466690000017618e+000	 1.796491862946400e+001
0	 2.800020000011600e+000	 2.533360000018134e+000	 1.698820831438578e+001
0	 2.800020000011599e+000	 2.600030000017850e+000	 1.605440920986610e+001
0	 2.800020000011600e+000	 2.666700000016667e+000	 1.516300080706219e+001
0	 2.866680000008067e+000	 2.000000000000000e+000	 2.585486518529666e+001
0	 2.866680000008066e+000	 2.066670000003316e+000	 2.459355126258750e+001
0	 2.866680000008067e+000	 2.133340000006534e+000	 2.337841411167305e+001
0	 2.866680000008066e+000	 2.200010000009550e+000	 2.220879143822881e+001
0	 2.866680000008067e+000	 2.266680000012268e+000	 2.108402094793063e+001
0	 2.866680000008066e+000	 2.333350000014585e+000	 2.000344034645455e+001
0	 2.866680000008067e+000	 2.400020000016400e+000	 1.896638733947693e+001
0	 2.866680000008067e+000	 2.466690000017618e+000	 1.797219963267434e+001
0	 2.866680000008067e+000	 2.533360000018135e+000	 1.702021493172367e+001
0	 2.866680000008066e+000	 2.600030000017850e+000	 1.610977094230199e+001
0	 2.866680000008067e+000	 2.666700000016667e+000	 1.524020537008673e+001
0	 2.933340000004133e+000	 2.000000000000000e+000	 2.552958497267942e+001
0	 2.933340000004133e+000	 2.066670000003317e+000	 2.430562332756870e+001
0	 2.933340000004133e+000	 2.133340000006534e+000	 2.312718370682558e+001
0	 2.933340000004133e+000	 2.200010000009550e+000	 2.199349368579128e+001
0	 2.933340000004134e+000	 2.266680000012268e+000	 2.090378083980727e+001
0	 2.933340000004133e+000	 2.333350000014585e+000	 1.985727274421539e+001
0	 2.933340000004134e+000	 2.400020000016401e+000	 1.885319697435766e+001
0	 2.933340000004133e+000	 2.466690000017618e+000	 1.789078110557644e+001
0	 2.933340000004133e+000	 2.533360000018134e+000	 1.696925271321436e+001
0	 2.933340000004133e+000	 2.600030000017851e+000	 1.608783937261428e+001
0	 2.933340000004133e+000	 2.666700000016665e+000	 1.524576865911940e+001
0	 3.000000000000001e+000	 2.000000000000000e+000	 2.508266851743665e+001
0	 3.000000000000000e+000	 2.066670000003317e+000	 2.390221978688085e+001
0	 3.000000000000001e+000	 2.133340000006534e+000	 2.276638703942246e+001
0	 3.000000000000000e+000	 2.200010000009551e+000	 2.167431937521406e+001
0	 3.000000000000000e+000	 2.266680000012267e+000	 2.062516589440854e+001
0	 3.000000000000000e+000	 2.333350000014584e+000	 1.961807569715904e+001
0	 3.000000000000000e+000	 2.400020000016401e+000	 1.865219788361907e+001
0	 3.000000000000001e+000	 2.466690000017618e+000	 1.772668155394238e+001
0	 3.000000000000000e+000	 2.533360000018134e+000	 1.684067580828298e+001
0	 3.000000000000000e+000	 2.600030000017850e+000	 1.599332974679520e+001
0	 3.000000000000000e+000	 2.666700000016666e+000	 1.518379246963366e+001
0	 3.066659999995868e+000	 2.000000000000000e+000	 2.452549750136416e+001
0	 3.066659999995867e+000	 2.066670000003317e+000	 2.339387979557426e+001
0	 3.066659999995868e+000	 2.133340000006534e+000	 2.230574619068256e+001
0	 3.066659999995868e+000	 2.200010000009550e+000	 2.126019896679871e+001
0	 3.066659999995868e+000	 2.266680000012268e+000	 2.025634040403268e+001
0	 3.066659999995868e+000	 2.333350000014584e+000	 1.929327278249468e+001
0	 3.066659999995868e+000	 2.400020000016401e+000	 1.837009838229523e+001
0	 3.066659999995868e+000	 2.466690000017617e+000	 1.748591948354518e+001
0	 3.066659999995867e+000	 2.533360000018134e+000	 1.663983836635564e+001
0	 3.066659999995867e+000	 2.600030000017851e+000	 1.583095731083801e+001
0	 3.066659999995868e+000	 2.666700000016666e+000	 1.505837859710400e+001
0	 3.133319999991935e+000	 2.000000000000000e+000	 2.386945360625833e+001
0	 3.133319999991935e+000	 2.066670000003317e+000	 2.279114250869984e+001
0	 3.133319999991933e+000	 2.133340000006533e+000	 2.175498324182545e+001
0	 3.133319999991934e+000	 2.200010000009551e+000	 2.076006292084757e+001
0	 3.133319999991934e+000	 2.266680000012267e+000	 1.980546866097885e+001
0	 3.133319999991934e+000	 2.333350000014584e+000	 1.889028757743226e+001
0	 3.133319999991934e+000	 2.400020000016401e+000	 1.801360678542108e+001
0	 3.133319999991934e+000	 2.466690000017617e+000	 1.717451340015884e+001
0	 3.133319999991934e+000	 2.533360000018134e+000	 1.637209453685941e+001
0	 3.133319999991934e+000	 2.600030000017851e+000	 1.560543731073694e+001
0	 3.133319999991934e+000	 2.666700000016666e+000	 1.487362883700587e+001
0	 3.199979999988401e+000	 2.000000000000000e+000	 2.312591851391608e+001
0	 3.199979999988400e+000	 2.066670000003316e+000	 2.210454708130914e+001
0	 3.199979999988401e+000	 2.133340000006534e+000	 2.112382027407141e+001
0	 3.199979999988401e+000	 2.200010000009551e+000	 2.018284169766364e+001
0	 3.199979999988400e+000	 2.266680000012267e+000	 1.928071495754694e+001
0	 3.199979999988401e+000	 2.333350000014585e+000	 1.841654365918265e+001
0	 3.199979999988401e+000	 2.400020000016401e+000	 1.758943140803244e+001
0	 3.199979999988401e+000	 2.466690000017617e+000	 1.679848180955826e+001
0	 3.199979999988400e+000	 2.533360000018134e+000	 1.604279846922235e+001
0	 3.199979999988401e+000	 2.600030000017851e+000	 1.532148499248723e+001
0	 3.199979999988401e+000	 2.666700000016666e+000	 1.463364498481576e+001
0	 3.266639999985468e+000	 2.000000000000000e+000	 2.230627390613491e+001
0	 3.266639999985468e+000	 2.066670000003317e+000	 2.134463266845437e+001
0	 3.266639999985468e+000	 2.133340000006534e+000	 2.042197936864137e+001
0	 3.266639999985467e+000	 2.200010000009551e+000	 1.953746575755077e+001
0	 3.266639999985468e+000	 2.266680000012268e+000	 1.869024358603770e+001
0	 3.266639999985467e+000	 2.333350000014584e+000	 1.787946460495758e+001
0	 3.266639999985468e+000	 2.400020000016401e+000	 1.710428056516611e+001
0	 3.266639999985468e+000	 2.466690000017618e+000	 1.636384321751930e+001
0	 3.266639999985468e+000	 2.533360000018134e+000	 1.565730431287344e+001
0	 3.266639999985467e+000	 2.600030000017850e+000	 1.498381560208511e+001
0	 3.266639999985468e+000	 2.666700000016666e+000	 1.434252883601114e+001
0	 3.333299999983334e+000	 2.000000000000000e+000	 2.142190146471286e+001
0	 3.333299999983333e+000	 2.066670000003317e+000	 2.052193842518836e+001
0	 3.333299999983333e+000	 2.133340000006534e+000	 1.965918260675707e+001
0	 3.333299999983334e+000	 2.200010000009551e+000	 1.883286556081357e+001
0	 3.333299999983335e+000	 2.266680000012268e+000	 1.804221883875271e+001
0	 3.333299999983334e+000	 2.333350000014584e+000	 1.728647399196964e+001
0	 3.333299999983334e+000	 2.400020000016401e+000	 1.656486257185977e+001
0	 3.333299999983334e+000	 2.466690000017617e+000	 1.587661612981881e+001
0	 3.333299999983334e+000	 2.533360000018134e+000	 1.522096621724274e+001
0	 3.333299999983334e+000	 2.600030000017851e+000	 1.459714438552778e+001
0	 3.333299999983334e+000	 2.666700000016666e+000	 1.400438218607049e+001
0	 2.666700000016666e+000	 2.666700000016667e+000	 1.477726067714863e+001
0	 2.666700000016666e+000	 2.733360000014533e+000	 1.393033268807854e+001
0	 2.666700000016666e+000	 2.800020000011600e+000	 1.317397364539913e+001
0	 2.666700000016667e+000	 2.866680000008067e+000	 1.250589272380132e+001
0	 2.666700000016665e+000	 2.933340000004133e+000	 1.192379909797480e+001
0	 2.666700000016667e+000	 3.000000000000000e+000	 1.142540194260805e+001
0	 2.666700000016667e+000	 3.066659999995868e+000	 1.100841043238828e+001
0	 2.666700000016666e+000	 3.133319999991934e+000	 1.067053374200151e+001
0	 2.666700000016667e+000	 3.199979999988401e+000	 1.040948104613247e+001
0	 2.666700000016666e+000	 3.266639999985468e+000	 1.022296151946471e+001
0	 2.666700000016666e+000	 3.333299999983333e+000	 1.010868433668049e+001
0	 2.733360000014533e+000	 2.666700000016665e+000	 1.501005317457332e+001
0	 2.733360000014534e+000	 2.733360000014534e+000	 1.416933521991162e+001
0	 2.733360000014534e+000	 2.800020000011599e+000	 1.341599041432069e+001
0	 2.733360000014533e+000	 2.866680000008067e+000	 1.274810736310472e+001
0	 2.733360000014533e+000	 2.933340000004133e+000	 1.216377467156664e+001
0	 2.733360000014532e+000	 3.000000000000000e+000	 1.166108094500812e+001
0	 2.733360000014533e+000	 3.066659999995868e+000	 1.123811478872959e+001
0	 2.733360000014533e+000	 3.133319999991935e+000	 1.089296480803022e+001
0	 2.733360000014534e+000	 3.199979999988401e+000	 1.062371960820789e+001
0	 2.733360000014533e+000	 3.266639999985468e+000	 1.042846779455929e+001
0	 2.733360000014533e+000	 3.333299999983334e+000	 1.030529797237976e+001
0	 2.800020000011600e+000	 2.666700000016667e+000	 1.516300080706219e+001
0	 2.800020000011600e+000	 2.733360000014533e+000	 1.433522232412020e+001
0	 2.800020000011600e+000	 2.800020000011600e+000	 1.359135138774709e+001
0	 2.800020000011600e+000	 2.866680000008066e+000	 1.292981675630754e+001
0	 2.800020000011600e+000	 2.933340000004135e+000	 1.234904718816497e+001
0	 2.800020000011599e+000	 3.000000000000000e+000	 1.184747144168153e+001
0	 2.800020000011600e+000	 3.066659999995867e+000	 1.142351827521809e+001
0	 2.800020000011599e+000	 3.133319999991933e+000	 1.107561644713425e+001
0	 2.800020000011599e+000	 3.199979999988401e+000	 1.080219471578836e+001
0	 2.800020000011599e+000	 3.266639999985467e+000	 1.060168183953747e+001
0	 2.800020000011600e+000	 3.333299999983334e+000	 1.047250657673742e+001
0	 2.866680000008067e+000	 2.666700000016667e+000	 1.524020537008673e+001
0	 2.866680000008067e+000	 2.733360000014534e+000	 1.443151963536436e+001
0	 2.866680000008066e+000	 2.800020000011600e+000	 1.370305498581964e+001
0	 2.866680000008066e+000	 2.866680000008066e+000	 1.305354105532496e+001
0	 2.866680000008067e+000	 2.933340000004133e+000	 1.248170747775147e+001
0	 2.866680000008066e+000	 3.000000000000000e+000	 1.198628388696898e+001
0	 2.866680000008066e+000	 3.066659999995866e+000	 1.156599991684613e+001
0	 2.866680000008067e+000	 3.133319999991934e+000	 1.121958520125022e+001
0	 2.866680000008067e+000	 3.199979999988401e+000	 1.094576937404732e+001
0	 2.866680000008066e+000	 3.266639999985468e+000	 1.074328206910223e+001
0	 2.866680000008066e+000	 3.333299999983333e+000	 1.061085292027847e+001
0	 2.933340000004133e+000	 2.666700000016665e+000	 1.524576865911940e+001
0	 2.933340000004134e+000	 2.733360000014534e+000	 1.446175278830523e+001
0	 2.933340000004134e+000	 2.800020000011600e+000	 1.375409962868073e+001
0	 2.933340000004133e+000	 2.866680000008067e+000	 1.312180041207319e+001
0	 2.933340000004133e+000	 2.933340000004133e+000	 1.256384637030872e+001
0	 2.933340000004133e+000	 3.000000000000000e+000	 1.207922873521213e+001
0	 2.933340000004133e+000	 3.066659999995868e+000	 1.166693873860698e+001
0	 2.933340000004133e+000	 3.133319999991933e+000	 1.132596761231561e+001
0	 2.933340000004133e+000	 3.199979999988400e+000	 1.105530658815910e+001
0	 2.933340000004133e+000	 3.266639999985467e+000	 1.085394689795722e+001
0	 2.933340000004133e+000	 3.333299999983335e+000	 1.072087977352858e+001
0	 3.000000000000000e+000	 2.666700000016666e+000	 1.518379246963366e+001
0	 3.000000000000001e+000	 2.733360000014533e+000	 1.442944741760494e+001
0	 3.000000000000000e+000	 2.800020000011599e+000	 1.374748373647368e+001
0	 3.000000000000001e+000	 2.866680000008066e+000	 1.313711497846939e+001
0	 3.000000000000000e+000	 2.933340000004133e+000	 1.259755469582032e+001
0	 3.000000000000000e+000	 3.000000000000000e+000	 1.212801644075352e+001
0	 3.000000000000000e+000	 3.066659999995868e+000	 1.172771376549480e+001
0	 3.000000000000000e+000	 3.133319999991934e+000	 1.139586022226875e+001
0	 3.000000000000000e+000	 3.199979999988401e+000	 1.113166936329872e+001
0	 3.000000000000000e+000	 3.266639999985468e+000	 1.093435474080687e+001
0	 3.000000000000001e+000	 3.333299999983335e+000	 1.080312990701409e+001
0	 3.066659999995868e+000	 2.666700000016666e+000	 1.505837859710400e+001
0	 3.066659999995868e+000	 2.733360000014534e+000	 1.433812915792659e+001
0	 3.066659999995867e+000	 2.800020000011600e+000	 1.368620572934286e+001
0	 3.066659999995867e+000	 2.866680000008066e+000	 1.310200490643169e+001
0	 3.066659999995867e+000	 2.933340000004134e+000	 1.258492328427078e+001
0	 3.066659999995868e+000	 3.000000000000000e+000	 1.213435745793663e+001
0	 3.066659999995868e+000	 3.066659999995868e+000	 1.174970402250458e+001
0	 3.066659999995868e+000	 3.133319999991934e+000	 1.143035957304876e+001
0	 3.066659999995868e+000	 3.199979999988401e+000	 1.117572070464208e+001
0	 3.066659999995868e+000	 3.266639999985467e+000	 1.098518401235632e+001
0	 3.066659999995868e+000	 3.333299999983334e+000	 1.085814609126204e+001
0	 3.133319999991934e+000	 2.666700000016666e+000	 1.487362883700587e+001
0	 3.133319999991934e+000	 2.733360000014532e+000	 1.419132364393431e+001
0	 3.133319999991934e+000	 2.800020000011599e+000	 1.357326402743357e+001
0	 3.133319999991934e+000	 2.866680000008067e+000	 1.301899034787919e+001
0	 3.133319999991933e+000	 2.933340000004133e+000	 1.252804296564555e+001
0	 3.133319999991934e+000	 3.000000000000000e+000	 1.209996224110586e+001
0	 3.133319999991934e+000	 3.066659999995867e+000	 1.173428853463224e+001
0	 3.133319999991934e+000	 3.133319999991934e+000	 1.143056220659562e+001
0	 3.133319999991933e+000	 3.199979999988400e+000	 1.118832361736581e+001
0	 3.133319999991935e+000	 3.266639999985468e+000	 1.100711312731147e+001
0	 3.133319999991935e+000	 3.333299999983334e+000	 1.088647109680012e+001
0	 3.199979999988401e+000	 2.666700000016666e+000	 1.463364498481576e+001
0	 3.199979999988401e+000	 2.733360000014534e+000	 1.399255651029323e+001
0	 3.199979999988400e+000	 2.800020000011599e+000	 1.341165705089219e+001
0	 3.199979999988401e+000	 2.866680000008067e+000	 1.289059145473202e+001
0	 3.199979999988401e+000	 2.933340000004134e+000	 1.242900456993106e+001
0	 3.199979999988401e+000	 3.000000000000000e+000	 1.202654124460652e+001
0	 3.199979999988400e+000	 3.066659999995866e+000	 1.168284632687454e+001
0	 3.199979999988400e+000	 3.133319999991933e+000	 1.139756466485016e+001
0	 3.199979999988402e+000	 3.199979999988402e+000	 1.117034110664734e+001
0	 3.199979999988401e+000	 3.266639999985467e+000	 1.100082050037893e+001
0	 3.199979999988401e+000	 3.333299999983334e+000	 1.088864769415672e+001
0	 3.266639999985468e+000	 2.666700000016666e+000	 1.434252883601114e+001
0	 3.266639999985468e+000	 2.733360000014533e+000	 1.374535339166945e+001
0	 3.266639999985467e+000	 2.800020000011599e+000	 1.320438321986597e+001
0	 3.266639999985468e+000	 2.866680000008066e+000	 1.271932837891120e+001
0	 3.266639999985467e+000	 2.933340000004133e+000	 1.228989892711465e+001
0	 3.266639999985468e+000	 3.000000000000000e+000	 1.191580492278483e+001
0	 3.266639999985467e+000	 3.066659999995867e+000	 1.159675642422914e+001
0	 3.266639999985468e+000	 3.133319999991935e+000	 1.133246348975403e+001
0	 3.266639999985468e+000	 3.199979999988401e+000	 1.112263617766488e+001
0	 3.266639999985468e+000	 3.266639999985468e+000	 1.096698454626606e+001
0	 3.266639999985468e+000	 3.333299999983334e+000	 1.086521865386090e+001
0	 3.333299999983334e+000	 2.666700000016666e+000	 1.400438218607050e+001
0	 3.333299999983333e+000	 2.733360000014532e+000	 1.345323992273012e+001
0	 3.333299999983334e+000	 2.800020000011600e+000	 1.295444095450325e+001
0	 3.333299999983334e+000	 2.866680000008067e+000	 1.250772127233880e+001
0	 3.333299999983334e+000	 2.933340000004133e+000	 1.211281686718469e+001
0	 3.333299999983334e+000	 3.000000000000000e+000	 1.176946372998794e+001
0	 3.333299999983334e+000	 3.066659999995868e+000	 1.147739785169459e+001
0	 3.333299999983334e+000	 3.133319999991934e+000	 1.123635522324972e+001
0	 3.333299999983334e+000	 3.199979999988400e+000	 1.104607183559745e+001
0	 3.333299999983334e+000	 3.266639999985468e+000	 1.090628367968094e+001
0	 3.333299999983333e+000	 3.333299999983333e+000	 1.081672674644240e+001
0	 2.666700000016666e+000	 3.333299999983333e+000	 1.010868433668049e+001
0	 2.666700000016667e+000	 3.399969999982149e+000	 1.004178429244126e+001
0	 2.666700000016666e+000	 3.466639999981866e+000	 9.997194216284772e+000
0	 2.666700000016667e+000	 3.533309999982382e+000	 9.972284817826687e+000
0	 2.666700000016666e+000	 3.599979999983598e+000	 9.964426806682866e+000
0	 2.666700000016666e+000	 3.666649999985415e+000	 9.970990892469400e+000
0	 2.666700000016665e+000	 3.733319999987732e+000	 9.989347784802586e+000
0	 2.666700000016666e+000	 3.799989999990448e+000	 1.001686819329891e+001
0	 2.666700000016666e+000	 3.866659999993464e+000	 1.005092282757508e+001
0	 2.666700000016666e+000	 3.933329999996681e+000	 1.008888239724806e+001
0	 2.666700000016666e+000	 4.000000000000001e+000	 1.012811761193497e+001
0	 2.733360000014533e+000	 3.333299999983334e+000	 1.030529797237976e+001
0	 2.733360000014533e+000	 3.399969999982150e+000	 1.022817843720668e+001
0	 2.733360000014533e+000	 3.466639999981866e+000	 1.017097194914379e+001
0	 2.733360000014533e+000	 3.533309999982382e+000	 1.013156931170435e+001
0	 2.733360000014532e+000	 3.599979999983598e+000	 1.010786132840181e+001
0	 2.733360000014534e+000	 3.666649999985416e+000	 1.009773880274977e+001
0	 2.733360000014532e+000	 3.733319999987730e+000	 1.009909253826211e+001
0	 2.733360000014533e+000	 3.799989999990449e+000	 1.010981333845280e+001
0	 2.733360000014533e+000	 3.866659999993464e+000	 1.012779200683614e+001
0	 2.733360000014533e+000	 3.933329999996682e+000	 1.015091934692648e+001
0	 2.733360000014532e+000	 4.000000000000001e+000	 1.017708616223847e+001
0	 2.800020000011600e+000	 3.333299999983334e+000	 1.047250657673742e+001
0	 2.800020000011599e+000	 3.399969999982149e+000	 1.038782407615856e+001
0	 2.800020000011600e+000	 3.466639999981866e+000	 1.032077099429874e+001
0	 2.800020000011599e+000	 3.533309999982381e+000	 1.026970603328073e+001
0	 2.800020000011600e+000	 3.599979999983599e+000	 1.023298789522758e+001
0	 2.800020000011600e+000	 3.666649999985416e+000	 1.020897528226248e+001
0	 2.800020000011599e+000	 3.733319999987732e+000	 1.019602689650877e+001
0	 2.800020000011599e+000	 3.799989999990448e+000	 1.019250144009004e+001
0	 2.800020000011600e+000	 3.866659999993465e+000	 1.019675761512997e+001
0	 2.800020000011600e+000	 3.933329999996682e+000	 1.020715412375251e+001
0	 2.800020000011600e+000	 4.000000000000001e+000	 1.022204966808174e+001
0	 2.866680000008066e+000	 3.333299999983333e+000	 1.061085292027847e+001
0	 2.866680000008066e+000	 3.399969999982149e+000	 1.052115597091308e+001
0	 2.866680000008066e+000	 3.466639999981866e+000	 1.044692446205706e+001
0	 2.866680000008066e+000	 3.533309999982383e+000	 1.038693279915483e+001
0	 2.866680000008067e+000	 3.599979999983599e+000	 1.033995538765098e+001
0	 2.866680000008067e+000	 3.666649999985415e+000	 1.030476663299020e+001
0	 2.866680000008066e+000	 3.733319999987732e+000	 1.028014094061741e+001
0	 2.866680000008067e+000	 3.799989999990449e+000	 1.026485271597769e+001
0	 2.866680000008067e+000	 3.866659999993465e+000	 1.025767636451624e+001
0	 2.866680000008066e+000	 3.933329999996682e+000	 1.025738629167846e+001
0	 2.866680000008066e+000	 4.000000000000000e+000	 1.026275690290992e+001
0	 2.933340000004133e+000	 3.333299999983335e+000	 1.072087977352858e+001
0	 2.933340000004133e+000	 3.399969999982149e+000	 1.062860888308692e+001
0	 2.933340000004133e+000	 3.466639999981866e+000	 1.054976546272680e+001
0	 2.933340000004133e+000	 3.533309999982383e+000	 1.048348742592616e+001
0	 2.933340000004134e+000	 3.599979999983598e+000	 1.042891268616316e+001
0	 2.933340000004133e+000	 3.666649999985415e+000	 1.038517915691602e+001
0	 2.933340000004133e+000	 3.733319999987732e+000	 1.035142475166318e+001
0	 2.933340000004134e+000	 3.799989999990448e+000	 1.032678738388320e+001
0	 2.933340000004133e+000	 3.866659999993465e+000	 1.031040496705477e+001
0	 2.933340000004133e+000	 3.933329999996682e+000	 1.030141541465679e+001
0	 2.933340000004133e+000	 4.000000000000000e+000	 1.029895664016824e+001
0	 3.000000000000001e+000	 3.333299999983335e+000	 1.080312990701409e+001
0	 3.000000000000001e+000	 3.399969999982150e+000	 1.071061757429746e+001
0	 3.000000000000000e+000	 3.466639999981867e+000	 1.062962710661649e+001
0	 3.000000000000000e+000	 3.533309999982383e+000	 1.055960773019471e+001
0	 3.000000000000000e+000	 3.599979999983599e+000	 1.050000867125575e+001
0	 3.000000000000000e+000	 3.666649999985415e+000	 1.045027915602338e+001
0	 3.000000000000000e+000	 3.733319999987730e+000	 1.040986841072153e+001
0	 3.000000000000000e+000	 3.799989999990449e+000	 1.037822566157423e+001
0	 3.000000000000000e+000	 3.866659999993464e+000	 1.035480013480565e+001
0	 3.000000000000000e+000	 3.933329999996682e+000	 1.033904105664013e+001
0	 3.000000000000000e+000	 4.000000000000000e+000	 1.033039765330208e+001
0	 3.066659999995868e+000	 3.333299999983334e+000	 1.085814609126204e+001
0	 3.066659999995867e+000	 3.399969999982150e+000	 1.076761680616266e+001
0	 3.066659999995867e+000	 3.466639999981866e+000	 1.068684250403531e+001
0	 3.066659999995868e+000	 3.533309999982382e+000	 1.061553152856098e+001
0	 3.066659999995866e+000	 3.599979999983598e+000	 1.055339222342082e+001
0	 3.066659999995868e+000	 3.666649999985415e+000	 1.050013293229611e+001
0	 3.066659999995868e+000	 3.733319999987732e+000	 1.045546199886825e+001
0	 3.066659999995868e+000	 3.799989999990448e+000	 1.041908776681870e+001
0	 3.066659999995867e+000	 3.866659999993464e+000	 1.039071857982913e+001
0	 3.066659999995867e+000	 3.933329999996682e+000	 1.037006278158125e+001
0	 3.066659999995868e+000	 4.000000000000000e+000	 1.035682871575696e+001
0	 3.133319999991935e+000	 3.333299999983334e+000	 1.088647109680012e+001
0	 3.133319999991933e+000	 3.399969999982149e+000	 1.080004134030114e+001
0	 3.133319999991935e+000	 3.466639999981866e+000	 1.072174476529291e+001
0	 3.133319999991934e+000	 3.533309999982382e+000	 1.065149663762594e+001
0	 3.133319999991934e+000	 3.599979999983599e+000	 1.058921222315086e+001
0	 3.133319999991934e+000	 3.666649999985415e+000	 1.053480678771841e+001
0	 3.133319999991934e+000	 3.733319999987731e+000	 1.048819559717942e+001
0	 3.133319999991933e+000	 3.799989999990448e+000	 1.044929391738484e+001
0	 3.133319999991935e+000	 3.866659999993465e+000	 1.041801701418569e+001
0	 3.133319999991934e+000	 3.933329999996682e+000	 1.039428015343316e+001
0	 3.133319999991934e+000	 4.000000000000000e+000	 1.037799860097847e+001
0	 3.199979999988401e+000	 3.333299999983334e+000	 1.088864769415672e+001
0	 3.199979999988401e+000	 3.399969999982150e+000	 1.080832593833208e+001
0	 3.199979999988402e+000	 3.466639999981866e+000	 1.073466700069955e+001
0	 3.199979999988401e+000	 3.533309999982381e+000	 1.066774087399109e+001
0	 3.199979999988401e+000	 3.599979999983599e+000	 1.060761755093880e+001
0	 3.199979999988402e+000	 3.666649999985416e+000	 1.055436702427485e+001
0	 3.199979999988401e+000	 3.733319999987732e+000	 1.050805928673149e+001
0	 3.199979999988401e+000	 3.799989999990448e+000	 1.046876433104106e+001
0	 3.199979999988401e+000	 3.866659999993464e+000	 1.043655214993604e+001
0	 3.199979999988401e+000	 3.933329999996682e+000	 1.041149273614894e+001
0	 3.199979999988401e+000	 4.000000000000001e+000	 1.039365608241238e+001
0	 3.266639999985468e+000	 3.333299999983334e+000	 1.086521865386090e+001
0	 3.266639999985467e+000	 3.399969999982150e+000	 1.079290536187534e+001
0	 3.266639999985468e+000	 3.466639999981866e+000	 1.072594232056603e+001
0	 3.266639999985468e+000	 3.533309999982383e+000	 1.066450205425843e+001
0	 3.266639999985467e+000	 3.599979999983598e+000	 1.060875708727803e+001
0	 3.266639999985467e+000	 3.666649999985415e+000	 1.055887994395039e+001
0	 3.266639999985467e+000	 3.733319999987731e+000	 1.051504314860118e+001
0	 3.266639999985467e+000	 3.799989999990448e+000	 1.047741922555614e+001
0	 3.266639999985467e+000	 3.866659999993465e+000	 1.044618069914108e+001
0	 3.266639999985468e+000	 3.933329999996682e+000	 1.042150009368190e+001
0	 3.266639999985467e+000	 4.000000000000000e+000	 1.040354993350456e+001
0	 3.333299999983333e+000	 3.333299999983333e+000	 1.081672674644240e+001
0	 3.333299999983334e+000	 3.399969999982149e+000	 1.075421437255135e+001
0	 3.333299999983334e+000	 3.466639999981866e+000	 1.069590383520375e+001
0	 3.333299999983335e+000	 3.533309999982382e+000	 1.064201799503045e+001
0	 3.333299999983334e+000	 3.599979999983599e+000	 1.059277971266233e+001
0	 3.333299999983334e+000	 3.666649999985415e+000	 1.054841184873034e+001
0	 3.333299999983334e+000	 3.733319999987732e+000	 1.050913726386555e+001
0	 3.333299999983333e+000	 3.799989999990448e+000	 1.047517881869902e+001
0	 3.333299999983333e+000	 3.866659999993464e+000	 1.044675937386194e+001
0	 3.333299999983334e+000	 3.933329999996682e+000	 1.042410178998550e+001
0	 3.333299999983334e+000	 4.000000000000000e+000	 1.040742892770101e+001
0	 2.666700000016666e+000	 4.000000000000001e+000	 1.012811761193497e+001
0	 2.666700000016666e+000	 4.066670000003316e+000	 1.015882629938611e+001
0	 2.666700000016666e+000	 4.133340000006534e+000	 1.017468725659306e+001
0	 2.666700000016667e+000	 4.200010000009551e+000	 1.017829264703496e+001
0	 2.666700000016666e+000	 4.266680000012266e+000	 1.017223463419111e+001
0	 2.666700000016667e+000	 4.333350000014584e+000	 1.015910538154079e+001
0	 2.666700000016666e+000	 4.400020000016401e+000	 1.014149705256343e+001
0	 2.666700000016666e+000	 4.466690000017615e+000	 1.012200181073844e+001
0	 2.666700000016666e+000	 4.533360000018131e+000	 1.010321181954537e+001
0	 2.666700000016667e+000	 4.600030000017850e+000	 1.008771924246382e+001
0	 2.666700000016666e+000	 4.666700000016666e+000	 1.007811624297342e+001
0	 2.733360000014532e+000	 4.000000000000001e+000	 1.017708616223847e+001
0	 2.733360000014533e+000	 4.066670000003316e+000	 1.019728208395715e+001
0	 2.733360000014534e+000	 4.133340000006533e+000	 1.020536873814371e+001
0	 2.733360000014533e+000	 4.200010000009550e+000	 1.020354492062719e+001
0	 2.733360000014533e+000	 4.266680000012268e+000	 1.019400942723669e+001
0	 2.733360000014533e+000	 4.333350000014582e+000	 1.017896105380133e+001
0	 2.733360000014533e+000	 4.400020000016401e+000	 1.016059859615033e+001
0	 2.733360000014534e+000	 4.466690000017617e+000	 1.014112085011297e+001
0	 2.733360000014533e+000	 4.533360000018132e+000	 1.012272661151854e+001
0	 2.733360000014532e+000	 4.600030000017848e+000	 1.010761467619646e+001
0	 2.733360000014533e+000	 4.666700000016666e+000	 1.009798383997616e+001
0	 2.800020000011600e+000	 4.000000000000001e+000	 1.022204966808174e+001
0	 2.800020000011600e+000	 4.066670000003317e+000	 1.023318655993604e+001
0	 2.800020000011600e+000	 4.133340000006532e+000	 1.023462716336566e+001
0	 2.800020000011601e+000	 4.200010000009550e+000	 1.022821025884266e+001
0	 2.800020000011599e+000	 4.266680000012265e+000	 1.021577462683917e+001
0	 2.800020000011600e+000	 4.333350000014583e+000	 1.019915904782736e+001
0	 2.800020000011600e+000	 4.400020000016399e+000	 1.018020230227945e+001
0	 2.800020000011600e+000	 4.466690000017618e+000	 1.016074317066770e+001
0	 2.800020000011601e+000	 4.533360000018133e+000	 1.014262043346443e+001
0	 2.800020000011600e+000	 4.600030000017847e+000	 1.012767287114203e+001
0	 2.800020000011599e+000	 4.666700000016665e+000	 1.011773926417290e+001
0	 2.866680000008066e+000	 4.000000000000000e+000	 1.026275690290991e+001
0	 2.866680000008066e+000	 4.066670000003319e+000	 1.026624688724141e+001
0	 2.866680000008066e+000	 4.133340000006533e+000	 1.026214007501216e+001
0	 2.866680000008067e+000	 4.200010000009549e+000	 1.025194858363047e+001
0	 2.866680000008066e+000	 4.266680000012268e+000	 1.023718453050466e+001
0	 2.866680000008067e+000	 4.333350000014584e+000	 1.021936003304315e+001
0	 2.866680000008067e+000	 4.400020000016399e+000	 1.019998720865437e+001
0	 2.866680000008066e+000	 4.466690000017615e+000	 1.018057817474679e+001
0	 2.866680000008066e+000	 4.533360000018133e+000	 1.016264504872891e+001
0	 2.866680000008067e+000	 4.600030000017848e+000	 1.014769994800932e+001
0	 2.866680000008067e+000	 4.666700000016665e+000	 1.013725498999660e+001
0	 2.933340000004133e+000	 4.000000000000000e+000	 1.029895664016824e+001
0	 2.933340000004133e+000	 4.066670000003316e+000	 1.029617022579196e+001
0	 2.933340000004133e+000	 4.133340000006534e+000	 1.028758501583655e+001
0	 2.933340000004134e+000	 4.200010000009551e+000	 1.027441981693972e+001
0	 2.933340000004133e+000	 4.266680000012266e+000	 1.025789343573924e+001
0	 2.933340000004133e+000	 4.333350000014583e+000	 1.023922467887297e+001
0	 2.933340000004133e+000	 4.400020000016398e+000	 1.021963235297872e+001
0	 2.933340000004133e+000	 4.466690000017616e+000	 1.020033526469437e+001
0	 2.933340000004133e+000	 4.533360000018132e+000	 1.018255222065787e+001
0	 2.933340000004133e+000	 4.600030000017849e+000	 1.016750202750712e+001
0	 2.933340000004133e+000	 4.666700000016666e+000	 1.015640349188015e+001
0	 3.000000000000000e+000	 4.000000000000000e+000	 1.033039765330208e+001
0	 3.000000000000000e+000	 4.066670000003318e+000	 1.032266373550650e+001
0	 3.000000000000000e+000	 4.133340000006533e+000	 1.031063952859220e+001
0	 3.000000000000001e+000	 4.200010000009552e+000	 1.029528388071959e+001
0	 3.000000000000000e+000	 4.266680000012268e+000	 1.027755564004905e+001
0	 3.000000000000000e+000	 4.333350000014582e+000	 1.025841365474105e+001
0	 3.000000000000000e+000	 4.400020000016400e+000	 1.023881677295606e+001
0	 3.000000000000001e+000	 4.466690000017617e+000	 1.021972384285456e+001
0	 3.000000000000000e+000	 4.533360000018133e+000	 1.020209371259709e+001
0	 3.000000000000000e+000	 4.600030000017848e+000	 1.018688523034419e+001
0	 3.000000000000001e+000	 4.666700000016665e+000	 1.017505724425644e+001
0	 3.066659999995868e+000	 4.000000000000000e+000	 1.035682871575695e+001
0	 3.066659999995867e+000	 4.066670000003317e+000	 1.034543457630389e+001
0	 3.066659999995868e+000	 4.133340000006534e+000	 1.033098115603258e+001
0	 3.066659999995868e+000	 4.200010000009550e+000	 1.031420069691927e+001
0	 3.066659999995867e+000	 4.266680000012268e+000	 1.029582544094021e+001
0	 3.066659999995867e+000	 4.333350000014583e+000	 1.027658763007170e+001
0	 3.066659999995868e+000	 4.400020000016401e+000	 1.025721950629001e+001
0	 3.066659999995867e+000	 4.466690000017616e+000	 1.023845331157148e+001
0	 3.066659999995868e+000	 4.533360000018134e+000	 1.022102128789244e+001
0	 3.066659999995867e+000	 4.600030000017848e+000	 1.020565567722927e+001
0	 3.066659999995867e+000	 4.666700000016665e+000	 1.019308872155835e+001
0	 3.133319999991934e+000	 4.000000000000000e+000	 1.037799860097847e+001
0	 3.133319999991935e+000	 4.066670000003318e+000	 1.036418990810311e+001
0	 3.133319999991933e+000	 4.133340000006533e+000	 1.034828744091121e+001
0	 3.133319999991933e+000	 4.200010000009549e+000	 1.033083018748803e+001
0	 3.133319999991934e+000	 4.266680000012266e+000	 1.031235713591891e+001
0	 3.133319999991934e+000	 4.333350000014583e+000	 1.029340727428916e+001
0	 3.133319999991934e+000	 4.400020000016399e+000	 1.027451959068414e+001
0	 3.133319999991933e+000	 4.466690000017615e+000	 1.025623307318921e+001
0	 3.133319999991933e+000	 4.533360000018131e+000	 1.023908670988973e+001
0	 3.133319999991934e+000	 4.600030000017847e+000	 1.022361948887111e+001
0	 3.133319999991934e+000	 4.666700000016667e+000	 1.021037039821873e+001
0	 3.199979999988401e+000	 4.000000000000001e+000	 1.039365608241238e+001
0	 3.199979999988401e+000	 4.066670000003318e+000	 1.037863689082324e+001
0	 3.199979999988401e+000	 4.133340000006533e+000	 1.036223592598164e+001
0	 3.199979999988400e+000	 4.200010000009550e+000	 1.034483227437514e+001
0	 3.199979999988401e+000	 4.266680000012267e+000	 1.032680502249131e+001
0	 3.199979999988401e+000	 4.333350000014584e+000	 1.030853325681776e+001
0	 3.199979999988401e+000	 4.400020000016400e+000	 1.029039606384207e+001
0	 3.199979999988401e+000	 4.466690000017616e+000	 1.027277253005188e+001
0	 3.199979999988400e+000	 4.533360000018132e+000	 1.025604174193478e+001
0	 3.199979999988400e+000	 4.600030000017847e+000	 1.024058278597843e+001
0	 3.199979999988401e+000	 4.666700000016666e+000	 1.022677474867043e+001
0	 3.266639999985467e+000	 4.000000000000000e+000	 1.040354993350456e+001
0	 3.266639999985468e+000	 4.066670000003318e+000	 1.038848268438342e+001
0	 3.266639999985467e+000	 4.133340000006534e+000	 1.037250415399752e+001
0	 3.266639999985467e+000	 4.200010000009549e+000	 1.035586687952991e+001
0	 3.266639999985468e+000	 4.266680000012268e+000	 1.033882339816363e+001
0	 3.266639999985467e+000	 4.333350000014583e+000	 1.032162624708176e+001
0	 3.266639999985468e+000	 4.400020000016400e+000	 1.030452796346738e+001
0	 3.266639999985467e+000	 4.466690000017616e+000	 1.028778108450356e+001
0	 3.266639999985468e+000	 4.533360000018132e+000	 1.027163814737336e+001
0	 3.266639999985467e+000	 4.600030000017848e+000	 1.025635168925990e+001
0	 3.266639999985468e+000	 4.666700000016667e+000	 1.024217424734627e+001
0	 3.333299999983334e+000	 4.000000000000000e+000	 1.040742892770101e+001
0	 3.333299999983333e+000	 4.066670000003316e+000	 1.039343444870291e+001
0	 3.333299999983334e+000	 4.133340000006534e+000	 1.037876966771256e+001
0	 3.333299999983334e+000	 4.200010000009550e+000	 1.036359392490171e+001
0	 3.333299999983334e+000	 4.266680000012267e+000	 1.034806656044210e+001
0	 3.333299999983333e+000	 4.333350000014582e+000	 1.033234691450549e+001
0	 3.333299999983334e+000	 4.400020000016401e+000	 1.031659432726366e+001
0	 3.333299999983334e+000	 4.466690000017615e+000	 1.030096813888833e+001
0	 3.333299999983334e+000	 4.533360000018131e+000	 1.028562768955126e+001
0	 3.333299999983334e+000	 4.600030000017849e+000	 1.027073231942425e+001
0	 3.333299999983334e+000	 4.666700000016666e+000	 1.025644136867905e+001
0	 2.666700000016666e+000	 4.666700000016666e+000	 1.007811624297342e+001
0	 2.666700000016666e+000	 4.733360000014534e+000	 1.007258189477672e+001
0	 2.666700000016666e+000	 4.800020000011600e+000	 1.006746222520982e+001
0	 2.666700000016666e+000	 4.866680000008065e+000	 1.006260243544273e+001
0	 2.666700000016666e+000	 4.933340000004134e+000	 1.005784772664551e+001
0	 2.666700000016666e+000	 5.000000000000001e+000	 1.005304329998815e+001
0	 2.666700000016666e+000	 5.066659999995866e+000	 1.004803435664073e+001
0	 2.666700000016666e+000	 5.133319999991932e+000	 1.004266609777328e+001
0	 2.666700000016666e+000	 5.199979999988400e+000	 1.003678372455586e+001
0	 2.666700000016666e+000	 5.266639999985466e+000	 1.003023243815854e+001
0	 2.666700000016666e+000	 5.333299999983334e+000	 1.002285743975139e+001
0	 2.733360000014533e+000	 4.666700000016666e+000	 1.009798383997616e+001
0	 2.733360000014533e+000	 4.733360000014534e+000	 1.009212397735326e+001
0	 2.733360000014533e+000	 4.800020000011601e+000	 1.008674040684616e+001
0	 2.733360000014533e+000	 4.866680000008066e+000	 1.008165786098955e+001
0	 2.733360000014533e+000	 4.933340000004134e+000	 1.007670107231822e+001
0	 2.733360000014533e+000	 4.999999999999999e+000	 1.007169477336687e+001
0	 2.733360000014533e+000	 5.066659999995868e+000	 1.006646369667023e+001
0	 2.733360000014533e+000	 5.133319999991935e+000	 1.006083257476306e+001
0	 2.733360000014534e+000	 5.199979999988399e+000	 1.005462614018013e+001
0	 2.733360000014533e+000	 5.266639999985466e+000	 1.004766912545620e+001
0	 2.733360000014533e+000	 5.333299999983336e+000	 1.003978626312608e+001
0	 2.800020000011599e+000	 4.666700000016665e+000	 1.011773926417290e+001
0	 2.800020000011599e+000	 4.733360000014532e+000	 1.011127228267629e+001
0	 2.800020000011600e+000	 4.800020000011601e+000	 1.010537014733747e+001
0	 2.800020000011600e+000	 4.866680000008067e+000	 1.009984303049082e+001
0	 2.800020000011600e+000	 4.933340000004133e+000	 1.009450110447071e+001
0	 2.800020000011599e+000	 5.000000000000000e+000	 1.008915454161149e+001
0	 2.800020000011600e+000	 5.066659999995868e+000	 1.008361351424761e+001
0	 2.800020000011600e+000	 5.133319999991933e+000	 1.007768819471343e+001
0	 2.800020000011600e+000	 5.199979999988400e+000	 1.007118875534335e+001
0	 2.800020000011599e+000	 5.266639999985466e+000	 1.006392536847179e+001
0	 2.800020000011600e+000	 5.333299999983335e+000	 1.005570820643319e+001
0	 2.866680000008067e+000	 4.666700000016665e+000	 1.013725498999660e+001
0	 2.866680000008067e+000	 4.733360000014535e+000	 1.012996622158463e+001
0	 2.866680000008067e+000	 4.800020000011600e+000	 1.012334698463524e+001
0	 2.866680000008067e+000	 4.866680000008067e+000	 1.011719879971740e+001
0	 2.866680000008067e+000	 4.933340000004133e+000	 1.011132318740008e+001
0	 2.866680000008067e+000	 5.000000000000002e+000	 1.010552166825225e+001
0	 2.866680000008066e+000	 5.066659999995866e+000	 1.009959576284288e+001
0	 2.866680000008067e+000	 5.133319999991933e+000	 1.009334699174096e+001
0	 2.866680000008067e+000	 5.199979999988400e+000	 1.008657687551547e+001
0	 2.866680000008065e+000	 5.266639999985464e+000	 1.007908693473545e+001
0	 2.866680000008066e+000	 5.333299999983334e+000	 1.007067868996986e+001
0	 2.933340000004133e+000	 4.666700000016666e+000	 1.015640349188015e+001
0	 2.933340000004133e+000	 4.733360000014534e+000	 1.014814520491705e+001
0	 2.933340000004134e+000	 4.800020000011599e+000	 1.014066645669092e+001
0	 2.933340000004133e+000	 4.866680000008066e+000	 1.013376602444023e+001
0	 2.933340000004134e+000	 4.933340000004133e+000	 1.012724268540353e+001
0	 2.933340000004133e+000	 5.000000000000002e+000	 1.012089521681929e+001
0	 2.933340000004134e+000	 5.066659999995868e+000	 1.011452239592603e+001
0	 2.933340000004133e+000	 5.133319999991933e+000	 1.010792299996226e+001
0	 2.933340000004134e+000	 5.199979999988400e+000	 1.010089580616651e+001
0	 2.933340000004133e+000	 5.266639999985464e+000	 1.009323959177731e+001
0	 2.933340000004133e+000	 5.333299999983334e+000	 1.008475313403318e+001
0	 3.000000000000001e+000	 4.666700000016665e+000	 1.017505724425644e+001
0	 3.000000000000000e+000	 4.733360000014533e+000	 1.016574864351234e+001
0	 3.000000000000001e+000	 4.800020000011600e+000	 1.015732410145593e+001
0	 3.000000000000001e+000	 4.866680000008067e+000	 1.014958556043022e+001
0	 3.000000000000000e+000	 4.933340000004136e+000	 1.014233496277817e+001
0	 3.000000000000000e+000	 5.000000000000000e+000	 1.013537425084277e+001
0	 3.000000000000000e+000	 5.066659999995866e+000	 1.012850536696701e+001
0	 3.000000000000000e+000	 5.133319999991934e+000	 1.012153025349388e+001
0	 3.000000000000001e+000	 5.199979999988400e+000	 1.011425085276637e+001
0	 3.000000000000000e+000	 5.266639999985465e+000	 1.010646910712749e+001
0	 3.000000000000001e+000	 5.333299999983333e+000	 1.009798695892021e+001
0	 3.066659999995867e+000	 4.666700000016665e+000	 1.019308872155835e+001
0	 3.066659999995868e+000	 4.733360000014534e+000	 1.018271594820923e+001
0	 3.066659999995867e+000	 4.800020000011600e+000	 1.017331545688171e+001
0	 3.066659999995867e+000	 4.866680000008067e+000	 1.016469826345820e+001
0	 3.066659999995866e+000	 4.933340000004134e+000	 1.015667538382110e+001
0	 3.066659999995868e+000	 5.000000000000002e+000	 1.014905783385284e+001
0	 3.066659999995867e+000	 5.066659999995866e+000	 1.014165662943579e+001
0	 3.066659999995868e+000	 5.133319999991933e+000	 1.013428278645239e+001
0	 3.066659999995868e+000	 5.199979999988400e+000	 1.012674732078503e+001
0	 3.066659999995868e+000	 5.266639999985466e+000	 1.011886124831612e+001
0	 3.066659999995868e+000	 5.333299999983334e+000	 1.011043558492808e+001
0	 3.133319999991934e+000	 4.666700000016667e+000	 1.021037039821873e+001
0	 3.133319999991934e+000	 4.733360000014534e+000	 1.019898652984647e+001
0	 3.133319999991934e+000	 4.800020000011601e+000	 1.018863606091965e+001
0	 3.133319999991934e+000	 4.866680000008065e+000	 1.017914498929506e+001
0	 3.133319999991933e+000	 4.933340000004133e+000	 1.017033931282946e+001
0	 3.133319999991934e+000	 5.000000000000001e+000	 1.016204502937964e+001
0	 3.133319999991934e+000	 5.066659999995868e+000	 1.015408813680232e+001
0	 3.133319999991933e+000	 5.133319999991933e+000	 1.014629463295434e+001
0	 3.133319999991934e+000	 5.199979999988399e+000	 1.013849051569241e+001
0	 3.133319999991935e+000	 5.266639999985467e+000	 1.013050178287331e+001
0	 3.133319999991933e+000	 5.333299999983334e+000	 1.012215443235380e+001
0	 3.199979999988401e+000	 4.666700000016666e+000	 1.022677474867043e+001
0	 3.199979999988401e+000	 4.733360000014532e+000	 1.021449979926278e+001
0	 3.199979999988401e+000	 4.800020000011601e+000	 1.020328145152115e+001
0	 3.199979999988401e+000	 4.866680000008067e+000	 1.019296659371164e+001
0	 3.199979999988401e+000	 4.933340000004134e+000	 1.018340211410031e+001
0	 3.199979999988401e+000	 5.000000000000000e+000	 1.017443490095325e+001
0	 3.199979999988401e+000	 5.066659999995866e+000	 1.016591184253655e+001
0	 3.199979999988401e+000	 5.133319999991931e+000	 1.015767982711627e+001
0	 3.199979999988401e+000	 5.199979999988399e+000	 1.014958574295846e+001
0	 3.199979999988401e+000	 5.266639999985465e+000	 1.014147647832920e+001
0	 3.199979999988401e+000	 5.333299999983335e+000	 1.013319892149452e+001
0	 3.266639999985468e+000	 4.666700000016667e+000	 1.024217424734627e+001
0	 3.266639999985468e+000	 4.733360000014534e+000	 1.022919516729686e+001
0	 3.266639999985468e+000	 4.800020000011602e+000	 1.021724716663757e+001
0	 3.266639999985468e+000	 4.866680000008066e+000	 1.020620393247875e+001
0	 3.266639999985467e+000	 4.933340000004134e+000	 1.019593915193072e+001
0	 3.266639999985468e+000	 4.999999999999999e+000	 1.018632651210383e+001
0	 3.266639999985468e+000	 5.066659999995868e+000	 1.017723970010840e+001
0	 3.266639999985467e+000	 5.133319999991933e+000	 1.016855240305471e+001
0	 3.266639999985468e+000	 5.199979999988400e+000	 1.016013830805309e+001
0	 3.266639999985467e+000	 5.266639999985466e+000	 1.015187110221384e+001
0	 3.266639999985468e+000	 5.333299999983334e+000	 1.014362447264724e+001
0	 3.333299999983334e+000	 4.666700000016666e+000	 1.025644136867905e+001
0	 3.333299999983334e+000	 4.733360000014533e+000	 1.024301204478739e+001
0	 3.333299999983334e+000	 4.800020000011600e+000	 1.023052874422028e+001
0	 3.333299999983333e+000	 4.866680000008066e+000	 1.021889786136723e+001
0	 3.333299999983334e+000	 4.933340000004135e+000	 1.020802579061780e+001
0	 3.333299999983334e+000	 5.000000000000000e+000	 1.019781892636147e+001
0	 3.333299999983333e+000	 5.066659999995866e+000	 1.018818366298777e+001
0	 3.333299999983333e+000	 5.133319999991934e+000	 1.017902639488620e+001
0	 3.333299999983334e+000	 5.199979999988399e+000	 1.017025351644623e+001
0	 3.333299999983333e+000	 5.266639999985465e+000	 1.016177142205737e+001
0	 3.333299999983333e+000	 5.333299999983334e+000	 1.015348650610906e+001
0	 2.666700000016666e+000	 5.333299999983334e+000	 1.002285743975139e+001
0	 2.666700000016666e+000	 5.399969999982149e+000	 1.001528551345425e+001
0	 2.666700000016666e+000	 5.466639999981865e+000	 1.000828323881792e+001
0	 2.666700000016666e+000	 5.533309999982381e+000	 1.000190198250191e+001
0	 2.666700000016666e+000	 5.599979999983598e+000	 9.996193111165750e+000
0	 2.666700000016666e+000	 5.666649999985415e+000	 9.991207991468951e+000
0	 2.666700000016666e+000	 5.733319999987732e+000	 9.986997990071078e+000
0	 2.666700000016667e+000	 5.799989999990449e+000	 9.983614473631677e+000
0	 2.666700000016666e+000	 5.866659999993464e+000	 9.981108808810296e+000
0	 2.666700000016666e+000	 5.933329999996680e+000	 9.979532362266525e+000
0	 2.666700000016666e+000	 6.000000000000000e+000	 9.978936500659906e+000
0	 2.733360000014533e+000	 5.333299999983336e+000	 1.003978626312608e+001
0	 2.733360000014533e+000	 5.399969999982153e+000	 1.003163538640137e+001
0	 2.733360000014533e+000	 5.466639999981866e+000	 1.002403571219715e+001
0	 2.733360000014533e+000	 5.533309999982382e+000	 1.001705026633124e+001
0	 2.733360000014532e+000	 5.599979999983598e+000	 1.001074207462153e+001
0	 2.733360000014533e+000	 5.666649999985416e+000	 1.000517416288581e+001
0	 2.733360000014533e+000	 5.733319999987730e+000	 1.000040955694198e+001
0	 2.733360000014532e+000	 5.799989999990448e+000	 9.996511282607891e+000
0	 2.733360000014534e+000	 5.866659999993463e+000	 9.993542365701448e+000
0	 2.733360000014533e+000	 5.933329999996681e+000	 9.991565832040534e+000
0	 2.733360000014533e+000	 5.999999999999999e+000	 9.990644707443034e+000
0	 2.800020000011600e+000	 5.333299999983335e+000	 1.005570820643319e+001
0	 2.800020000011599e+000	 5.399969999982149e+000	 1.004718278643373e+001
0	 2.800020000011600e+000	 5.466639999981864e+000	 1.003917174083439e+001
0	 2.800020000011599e+000	 5.533309999982382e+000	 1.003174697351133e+001
0	 2.800020000011600e+000	 5.599979999983597e+000	 1.002498038834068e+001
0	 2.800020000011600e+000	 5.666649999985416e+000	 1.001894388919849e+001
0	 2.800020000011599e+000	 5.733319999987730e+000	 1.001370937996095e+001
0	 2.800020000011600e+000	 5.799989999990449e+000	 1.000934876450426e+001
0	 2.800020000011601e+000	 5.866659999993465e+000	 1.000593394670450e+001
0	 2.800020000011600e+000	 5.933329999996681e+000	 1.000353683043786e+001
0	 2.800020000011600e+000	 6.000000000000001e+000	 1.000222931958055e+001
0	 2.866680000008066e+000	 5.333299999983334e+000	 1.007067868996986e+001
0	 2.866680000008066e+000	 5.399969999982150e+000	 1.006195002937365e+001
0	 2.866680000008067e+000	 5.466639999981867e+000	 1.005368584161360e+001
0	 2.866680000008067e+000	 5.533309999982384e+000	 1.004596412752405e+001
0	 2.866680000008067e+000	 5.599979999983598e+000	 1.003886288793937e+001
0	 2.866680000008067e+000	 5.666649999985414e+000	 1.003246012369392e+001
0	 2.866680000008067e+000	 5.733319999987732e+000	 1.002683383562206e+001
0	 2.866680000008067e+000	 5.799989999990449e+000	 1.002206202455818e+001
0	 2.866680000008066e+000	 5.866659999993464e+000	 1.001822269133668e+001
0	 2.866680000008066e+000	 5.933329999996682e+000	 1.001539383679195e+001
0	 2.866680000008067e+000	 6.000000000000002e+000	 1.001365346175844e+001
0	 2.933340000004133e+000	 5.333299999983334e+000	 1.008475313403318e+001
0	 2.933340000004133e+000	 5.399969999982147e+000	 1.007595943104346e+001
0	 2.933340000004133e+000	 5.466639999981866e+000	 1.006757253141863e+001
0	 2.933340000004133e+000	 5.533309999982381e+000	 1.005967375185123e+001
0	 2.933340000004133e+000	 5.599979999983597e+000	 1.005234440903384e+001
0	 2.933340000004133e+000	 5.666649999985415e+000	 1.004566581965896e+001
0	 2.933340000004133e+000	 5.733319999987731e+000	 1.003971930041920e+001
0	 2.933340000004134e+000	 5.799989999990450e+000	 1.003458616800709e+001
0	 2.933340000004134e+000	 5.866659999993465e+000	 1.003034773911525e+001
0	 2.933340000004134e+000	 5.933329999996682e+000	 1.002708533043625e+001
0	 2.933340000004133e+000	 5.999999999999998e+000	 1.002488025866271e+001
0	 3.000000000000001e+000	 5.333299999983333e+000	 1.009798695892022e+001
0	 3.000000000000001e+000	 5.399969999982151e+000	 1.008923330726545e+001
0	 3.000000000000000e+000	 5.466639999981865e+000	 1.008082632713340e+001
0	 3.000000000000000e+000	 5.533309999982382e+000	 1.007284786997479e+001
0	 3.000000000000000e+000	 5.599979999983598e+000	 1.006537978724027e+001
0	 3.000000000000000e+000	 5.666649999985415e+000	 1.005850393038057e+001
0	 3.000000000000000e+000	 5.733319999987733e+000	 1.005230215084640e+001
0	 3.000000000000000e+000	 5.799989999990447e+000	 1.004685630008845e+001
0	 3.000000000000000e+000	 5.866659999993465e+000	 1.004224822955748e+001
0	 3.000000000000000e+000	 5.933329999996682e+000	 1.003855979070418e+001
0	 3.000000000000001e+000	 6.000000000000001e+000	 1.003587283497936e+001
0	 3.066659999995868e+000	 5.333299999983334e+000	 1.011043558492808e+001
0	 3.066659999995868e+000	 5.399969999982151e+000	 1.010179397386193e+001
0	 3.066659999995868e+000	 5.466639999981865e+000	 1.009344174564181e+001
0	 3.066659999995868e+000	 5.533309999982382e+000	 1.008545850537655e+001
0	 3.066659999995867e+000	 5.599979999983598e+000	 1.007792385817488e+001
0	 3.066659999995867e+000	 5.666649999985414e+000	 1.007091740914565e+001
0	 3.066659999995868e+000	 5.733319999987733e+000	 1.006451876339763e+001
0	 3.066659999995867e+000	 5.799989999990448e+000	 1.005880752603966e+001
0	 3.066659999995868e+000	 5.866659999993465e+000	 1.005386330218057e+001
0	 3.066659999995867e+000	 5.933329999996684e+000	 1.004976569692918e+001
0	 3.066659999995868e+000	 6.000000000000000e+000	 1.004659431539436e+001
0	 3.133319999991933e+000	 5.333299999983334e+000	 1.012215443235380e+001
0	 3.133319999991933e+000	 5.399969999982149e+000	 1.011366374665519e+001
0	 3.133319999991935e+000	 5.466639999981865e+000	 1.010541330382777e+001
0	 3.133319999991934e+000	 5.533309999982383e+000	 1.009747768153837e+001
0	 3.133319999991934e+000	 5.599979999983598e+000	 1.008993145745385e+001
0	 3.133319999991934e+000	 5.666649999985416e+000	 1.008284920924107e+001
0	 3.133319999991935e+000	 5.733319999987731e+000	 1.007630551456688e+001
0	 3.133319999991934e+000	 5.799989999990448e+000	 1.007037495109817e+001
0	 3.133319999991935e+000	 5.866659999993465e+000	 1.006513209650181e+001
0	 3.133319999991934e+000	 5.933329999996680e+000	 1.006065152844469e+001
0	 3.133319999991934e+000	 5.999999999999999e+000	 1.005700782459370e+001
0	 3.199979999988401e+000	 5.333299999983335e+000	 1.013319892149452e+001
0	 3.199979999988401e+000	 5.399969999982150e+000	 1.012486494146756e+001
0	 3.199979999988401e+000	 5.466639999981866e+000	 1.011673551857516e+001
0	 3.199979999988401e+000	 5.533309999982383e+000	 1.010887742194214e+001
0	 3.199979999988401e+000	 5.599979999983599e+000	 1.010135742069338e+001
0	 3.199979999988401e+000	 5.666649999985416e+000	 1.009424228395374e+001
0	 3.199979999988402e+000	 5.733319999987733e+000	 1.008759878084812e+001
0	 3.199979999988400e+000	 5.799989999990448e+000	 1.008149368050136e+001
0	 3.199979999988400e+000	 5.866659999993465e+000	 1.007599375203839e+001
0	 3.199979999988401e+000	 5.933329999996682e+000	 1.007116576458409e+001
0	 3.199979999988401e+000	 6.000000000000001e+000	 1.006707648726338e+001
0	 3.266639999985468e+000	 5.333299999983334e+000	 1.014362447264723e+001
0	 3.266639999985468e+000	 5.399969999982151e+000	 1.013541987412130e+001
0	 3.266639999985467e+000	 5.466639999981867e+000	 1.012740290676785e+001
0	 3.266639999985468e+000	 5.533309999982383e+000	 1.011962975006970e+001
0	 3.266639999985468e+000	 5.599979999983599e+000	 1.011215658350963e+001
0	 3.266639999985468e+000	 5.666649999985416e+000	 1.010503958657057e+001
0	 3.266639999985468e+000	 5.733319999987731e+000	 1.009833493873530e+001
0	 3.266639999985468e+000	 5.799989999990448e+000	 1.009209881948668e+001
0	 3.266639999985468e+000	 5.866659999993465e+000	 1.008638740830758e+001
0	 3.266639999985468e+000	 5.933329999996681e+000	 1.008125688468085e+001
0	 3.266639999985468e+000	 6.000000000000001e+000	 1.007676342808932e+001
0	 3.333299999983333e+000	 5.333299999983334e+000	 1.015348650610906e+001
0	 3.333299999983333e+000	 5.399969999982149e+000	 1.014535086043871e+001
0	 3.333299999983335e+000	 5.466639999981867e+000	 1.013740998528974e+001
0	 3.333299999983333e+000	 5.533309999982381e+000	 1.012970668940287e+001
0	 3.333299999983334e+000	 5.599979999983598e+000	 1.012228378151885e+001
0	 3.333299999983334e+000	 5.666649999985415e+000	 1.011518407037845e+001
0	 3.333299999983333e+000	 5.733319999987731e+000	 1.010845036472241e+001
0	 3.333299999983334e+000	 5.799989999990448e+000	 1.010212547329154e+001
0	 3.333299999983334e+000	 5.866659999993465e+000	 1.009625220482658e+001
0	 3.333299999983334e+000	 5.933329999996682e+000	 1.009087336806833e+001
0	 3.333299999983334e+000	 6.000000000000000e+000	 1.008603177175756e+001
0	 2.666700000016666e+000	 6.000000000000000e+000	 9.978936500659906e+000
0	 2.666700000016666e+000	 6.066670000003318e+000	 9.978819470256376e+000
0	 2.666700000016666e+000	 6.133340000006531e+000	 9.978639882586764e+000
0	 2.666700000016666e+000	 6.200010000009550e+000	 9.978389652208023e+000
0	 2.666700000016666e+000	 6.266680000012266e+000	 9.978060693677234e+000
0	 2.666700000016667e+000	 6.333350000014584e+000	 9.977644921551319e+000
0	 2.666700000016666e+000	 6.400020000016399e+000	 9.977134250387278e+000
0	 2.666700000016666e+000	 6.466690000017616e+000	 9.976520594742116e+000
0	 2.666700000016667e+000	 6.533360000018133e+000	 9.975795869172819e+000
0	 2.666700000016666e+000	 6.600030000017849e+000	 9.974951988236391e+000
0	 2.666700000016667e+000	 6.666700000016666e+000	 9.973980866489809e+000
0	 2.733360000014533e+000	 5.999999999999999e+000	 9.990644707443034e+000
0	 2.733360000014533e+000	 6.066670000003318e+000	 9.990249061041833e+000
0	 2.733360000014533e+000	 6.133340000006531e+000	 9.989798131676533e+000
0	 2.733360000014533e+000	 6.200010000009550e+000	 9.989278699725087e+000
0	 2.733360000014532e+000	 6.266680000012265e+000	 9.988677545565484e+000
0	 2.733360000014533e+000	 6.333350000014583e+000	 9.987981449575733e+000
0	 2.733360000014533e+000	 6.400020000016398e+000	 9.987177192133814e+000
0	 2.733360000014533e+000	 6.466690000017616e+000	 9.986251553617684e+000
0	 2.733360000014534e+000	 6.533360000018131e+000	 9.985191314405347e+000
0	 2.733360000014533e+000	 6.600030000017849e+000	 9.983983254874801e+000
0	 2.733360000014533e+000	 6.666700000016669e+000	 9.982614155404002e+000
0	 2.800020000011600e+000	 6.000000000000001e+000	 1.000222931958055e+001
0	 2.800020000011599e+000	 6.066670000003314e+000	 1.000147792426377e+001
0	 2.800020000011600e+000	 6.133340000006533e+000	 1.000068968153500e+001
0	 2.800020000011600e+000	 6.200010000009551e+000	 9.999847285644609e+000
0	 2.800020000011600e+000	 6.266680000012266e+000	 9.998933430843090e+000
0	 2.800020000011599e+000	 6.333350000014583e+000	 9.997930811380886e+000
0	 2.800020000011600e+000	 6.400020000016398e+000	 9.996822121508446e+000
0	 2.800020000011600e+000	 6.466690000017617e+000	 9.995590055476212e+000
0	 2.800020000011600e+000	 6.533360000018133e+000	 9.994217307534626e+000
0	 2.800020000011600e+000	 6.600030000017847e+000	 9.992686571934124e+000
0	 2.800020000011599e+000	 6.666700000016666e+000	 9.990980542925172e+000
0	 2.866680000008067e+000	 6.000000000000002e+000	 1.001365346175844e+001
0	 2.866680000008066e+000	 6.066670000003318e+000	 1.001248514504409e+001
0	 2.866680000008067e+000	 6.133340000006531e+000	 1.001130690235017e+001
0	 2.866680000008067e+000	 6.200010000009550e+000	 1.001009838985104e+001
0	 2.866680000008067e+000	 6.266680000012267e+000	 1.000883926372113e+001
0	 2.866680000008066e+000	 6.333350000014584e+000	 1.000750918013479e+001
0	 2.866680000008067e+000	 6.400020000016400e+000	 1.000608779526639e+001
0	 2.866680000008066e+000	 6.466690000017617e+000	 1.000455476529035e+001
0	 2.866680000008067e+000	 6.533360000018133e+000	 1.000288974638100e+001
0	 2.866680000008067e+000	 6.600030000017847e+000	 1.000107239471275e+001
0	 2.866680000008067e+000	 6.666700000016667e+000	 9.999082366459957e+000
0	 2.933340000004133e+000	 5.999999999999998e+000	 1.002488025866271e+001
0	 2.933340000004133e+000	 6.066670000003318e+000	 1.002324980850461e+001
0	 2.933340000004133e+000	 6.133340000006531e+000	 1.002164216431005e+001
0	 2.933340000004134e+000	 6.200010000009550e+000	 1.002003499222882e+001
0	 2.933340000004133e+000	 6.266680000012266e+000	 1.001840595841069e+001
0	 2.933340000004133e+000	 6.333350000014582e+000	 1.001673272900543e+001
0	 2.933340000004133e+000	 6.400020000016399e+000	 1.001499297016287e+001
0	 2.933340000004134e+000	 6.466690000017615e+000	 1.001316434803275e+001
0	 2.933340000004134e+000	 6.533360000018130e+000	 1.001122452876488e+001
0	 2.933340000004133e+000	 6.600030000017846e+000	 1.000915117850902e+001
0	 2.933340000004133e+000	 6.666700000016666e+000	 1.000692196341496e+001
0	 3.000000000000001e+000	 6.000000000000001e+000	 1.003587283497936e+001
0	 3.000000000000000e+000	 6.066670000003319e+000	 1.003375099976724e+001
0	 3.000000000000000e+000	 6.133340000006531e+000	 1.003168783760266e+001
0	 3.000000000000000e+000	 6.200010000009551e+000	 1.002966007266229e+001
0	 3.000000000000000e+000	 6.266680000012267e+000	 1.002764442912282e+001
0	 3.000000000000001e+000	 6.333350000014584e+000	 1.002561763116084e+001
0	 3.000000000000000e+000	 6.400020000016398e+000	 1.002355640295305e+001
0	 3.000000000000000e+000	 6.466690000017616e+000	 1.002143746867610e+001
0	 3.000000000000000e+000	 6.533360000018132e+000	 1.001923755250663e+001
0	 3.000000000000001e+000	 6.600030000017850e+000	 1.001693337862132e+001
0	 3.000000000000000e+000	 6.666700000016667e+000	 1.001450167119680e+001
0	 3.066659999995868e+000	 6.000000000000000e+000	 1.004659431539436e+001
0	 3.066659999995867e+000	 6.066670000003318e+000	 1.004396780395381e+001
0	 3.066659999995868e+000	 6.133340000006535e+000	 1.004143629241600e+001
0	 3.066659999995868e+000	 6.200010000009550e+000	 1.003897661103592e+001
0	 3.066659999995867e+000	 6.266680000012266e+000	 1.003656559006859e+001
0	 3.066659999995868e+000	 6.333350000014582e+000	 1.003418005976899e+001
0	 3.066659999995868e+000	 6.400020000016399e+000	 1.003179685039213e+001
0	 3.066659999995867e+000	 6.466690000017615e+000	 1.002939279219302e+001
0	 3.066659999995868e+000	 6.533360000018133e+000	 1.002694471542663e+001
0	 3.066659999995867e+000	 6.600030000017847e+000	 1.002442945034799e+001
0	 3.066659999995868e+000	 6.666700000016666e+000	 1.002182382721207e+001
0	 3.133319999991934e+000	 5.999999999999999e+000	 1.005700782459370e+001
0	 3.133319999991934e+000	 6.066670000003319e+000	 1.005387930618619e+001
0	 3.133319999991934e+000	 6.133340000006534e+000	 1.005087989893803e+001
0	 3.133319999991933e+000	 6.200010000009549e+000	 1.004798758723406e+001
0	 3.133319999991933e+000	 6.266680000012265e+000	 1.004518035545906e+001
0	 3.133319999991935e+000	 6.333350000014582e+000	 1.004243618799787e+001
0	 3.133319999991934e+000	 6.400020000016400e+000	 1.003973306923533e+001
0	 3.133319999991935e+000	 6.466690000017617e+000	 1.003704898355617e+001
0	 3.133319999991933e+000	 6.533360000018131e+000	 1.003436191534524e+001
0	 3.133319999991935e+000	 6.600030000017848e+000	 1.003164984898739e+001
0	 3.133319999991935e+000	 6.666700000016668e+000	 1.002889076886738e+001
0	 3.199979999988401e+000	 6.000000000000001e+000	 1.006707648726338e+001
0	 3.199979999988401e+000	 6.066670000003318e+000	 1.006346459158622e+001
0	 3.199979999988400e+000	 6.133340000006532e+000	 1.006001102735677e+001
0	 3.199979999988401e+000	 6.200010000009552e+000	 1.005669598114110e+001
0	 3.199979999988401e+000	 6.266680000012265e+000	 1.005349963950532e+001
0	 3.199979999988401e+000	 6.333350000014583e+000	 1.005040218901551e+001
0	 3.199979999988401e+000	 6.400020000016400e+000	 1.004738381623777e+001
0	 3.199979999988401e+000	 6.466690000017616e+000	 1.004442470773819e+001
0	 3.199979999988402e+000	 6.533360000018134e+000	 1.004150505008286e+001
0	 3.199979999988401e+000	 6.600030000017847e+000	 1.003860502983789e+001
0	 3.199979999988401e+000	 6.666700000016667e+000	 1.003570483356936e+001
0	 3.266639999985468e+000	 6.000000000000001e+000	 1.007676342808932e+001
0	 3.266639999985469e+000	 6.066670000003318e+000	 1.007270274527577e+001
0	 3.266639999985467e+000	 6.133340000006532e+000	 1.006882204786020e+001
0	 3.266639999985468e+000	 6.200010000009550e+000	 1.006510477264148e+001
0	 3.266639999985467e+000	 6.266680000012267e+000	 1.006153435641843e+001
0	 3.266639999985467e+000	 6.333350000014583e+000	 1.005809423598986e+001
0	 3.266639999985468e+000	 6.400020000016402e+000	 1.005476784815468e+001
0	 3.266639999985468e+000	 6.466690000017616e+000	 1.005153862971172e+001
0	 3.266639999985468e+000	 6.533360000018133e+000	 1.004839001745981e+001
0	 3.266639999985468e+000	 6.600030000017850e+000	 1.004530544819782e+001
0	 3.266639999985468e+000	 6.666700000016667e+000	 1.004226835872459e+001
0	 3.333299999983334e+000	 6.000000000000000e+000	 1.008603177175756e+001
0	 3.333299999983333e+000	 6.066670000003317e+000	 1.008157285237669e+001
0	 3.333299999983334e+000	 6.133340000006530e+000	 1.007730533063633e+001
0	 3.333299999983334e+000	 6.200010000009549e+000	 1.007321694161953e+001
0	 3.333299999983333e+000	 6.266680000012265e+000	 1.006929542040938e+001
0	 3.333299999983334e+000	 6.333350000014584e+000	 1.006552850208893e+001
0	 3.333299999983334e+000	 6.400020000016399e+000	 1.006190392174126e+001
0	 3.333299999983334e+000	 6.466690000017616e+000	 1.005840941444941e+001
0	 3.333299999983334e+000	 6.533360000018132e+000	 1.005503271529649e+001
0	 3.333299999983333e+000	 6.600030000017847e+000	 1.005176155936555e+001
0	 3.333299999983333e+000	 6.666700000016665e+000	 1.004858368173967e+001
0	 2.666700000016667e+000	 6.666700000016666e+000	 9.973980866489811e+000
0	 2.666700000016666e+000	 6.733360000014533e+000	 9.973032103280612e+000
0	 2.666700000016666e+000	 6.800020000011600e+000	 9.972266293164445e+000
0	 2.666700000016667e+000	 6.866680000008068e+000	 9.971692310333861e+000
0	 2.666700000016666e+000	 6.933340000004133e+000	 9.971319028981403e+000
0	 2.666700000016666e+000	 7.000000000000001e+000	 9.971155323299643e+000
0	 2.666700000016666e+000	 7.066659999995870e+000	 9.971210067481099e+000
0	 2.666700000016666e+000	 7.133319999991936e+000	 9.971492135718282e+000
0	 2.666700000016667e+000	 7.199979999988404e+000	 9.972010402203775e+000
0	 2.666700000016667e+000	 7.266639999985472e+000	 9.972773741130085e+000
0	 2.666700000016666e+000	 7.333299999983334e+000	 9.973791026689730e+000
0	 2.733360000014533e+000	 6.666700000016669e+000	 9.982614155404002e+000
0	 2.733360000014533e+000	 6.733360000014534e+000	 9.981256002103613e+000
0	 2.733360000014532e+000	 6.800020000011597e+000	 9.980096154882221e+000
0	 2.733360000014533e+000	 6.866680000008068e+000	 9.979145109093615e+000
0	 2.733360000014533e+000	 6.933340000004135e+000	 9.978413360091633e+000
0	 2.733360000014533e+000	 7.000000000000002e+000	 9.977911403230078e+000
0	 2.733360000014533e+000	 7.066659999995870e+000	 9.977649733862736e+000
0	 2.733360000014533e+000	 7.133319999991938e+000	 9.977638847343412e+000
0	 2.733360000014533e+000	 7.199979999988402e+000	 9.977889239025881e+000
0	 2.733360000014534e+000	 7.266639999985472e+000	 9.978411404263952e+000
0	 2.733360000014532e+000	 7.333299999983332e+000	 9.979215838411365e+000
0	 2.800020000011599e+000	 6.666700000016666e+000	 9.990980542925176e+000
0	 2.800020000011599e+000	 6.733360000014534e+000	 9.989280044007314e+000
0	 2.800020000011600e+000	 6.800020000011601e+000	 9.987784739024590e+000
0	 2.800020000011600e+000	 6.866680000008067e+000	 9.986506392453714e+000
0	 2.800020000011600e+000	 6.933340000004137e+000	 9.985456768771329e+000
0	 2.800020000011599e+000	 7.000000000000002e+000	 9.984647632454122e+000
0	 2.800020000011600e+000	 7.066659999995870e+000	 9.984090747978740e+000
0	 2.800020000011600e+000	 7.133319999991938e+000	 9.983797879821832e+000
0	 2.800020000011599e+000	 7.199979999988404e+000	 9.983780792460065e+000
0	 2.800020000011600e+000	 7.266639999985472e+000	 9.984051250370069e+000
0	 2.800020000011600e+000	 7.333299999983335e+000	 9.984621018028498e+000
0	 2.866680000008067e+000	 6.666700000016667e+000	 9.999082366459955e+000
0	 2.866680000008067e+000	 6.733360000014534e+000	 9.997097851697255e+000
0	 2.866680000008066e+000	 6.800020000011600e+000	 9.995318432510661e+000
0	 2.866680000008066e+000	 6.866680000008065e+000	 9.993756790461314e+000
0	 2.866680000008067e+000	 6.933340000004135e+000	 9.992425607110334e+000
0	 2.866680000008067e+000	 7.000000000000002e+000	 9.991337564018870e+000
0	 2.866680000008066e+000	 7.066659999995868e+000	 9.990505342748017e+000
0	 2.866680000008067e+000	 7.133319999991937e+000	 9.989941624858917e+000
0	 2.866680000008066e+000	 7.199979999988406e+000	 9.989659091912660e+000
0	 2.866680000008066e+000	 7.266639999985473e+000	 9.989670425470351e+000
0	 2.866680000008067e+000	 7.333299999983332e+000	 9.989988307093094e+000
0	 2.933340000004133e+000	 6.666700000016666e+000	 1.000692196341496e+001
0	 2.933340000004133e+000	 6.733360000014532e+000	 1.000470304787901e+001
0	 2.933340000004134e+000	 6.800020000011598e+000	 1.000268362225945e+001
0	 2.933340000004133e+000	 6.866680000008068e+000	 1.000087693316356e+001
0	 2.933340000004133e+000	 6.933340000004132e+000	 9.999296227198480e+000
0	 2.933340000004133e+000	 7.000000000000004e+000	 9.997954750971386e+000
0	 2.933340000004133e+000	 7.066659999995871e+000	 9.996865751089505e+000
0	 2.933340000004133e+000	 7.133319999991936e+000	 9.996042474159975e+000
0	 2.933340000004134e+000	 7.199979999988404e+000	 9.995498166789986e+000
0	 2.933340000004133e+000	 7.266639999985470e+000	 9.995246075586689e+000
0	 2.933340000004134e+000	 7.333299999983336e+000	 9.995299447157251e+000
0	 3.000000000000000e+000	 6.666700000016667e+000	 1.001450167119680e+001
0	 3.000000000000000e+000	 6.733360000014532e+000	 1.001208925525810e+001
0	 3.000000000000001e+000	 6.800020000011600e+000	 1.000986669519009e+001
0	 3.000000000000000e+000	 6.866680000008067e+000	 1.000784745060765e+001
0	 3.000000000000001e+000	 6.933340000004137e+000	 1.000604498112558e+001
0	 3.000000000000000e+000	 7.000000000000001e+000	 1.000447274635880e+001
0	 3.000000000000000e+000	 7.066659999995869e+000	 1.000314420592210e+001
0	 3.000000000000000e+000	 7.133319999991936e+000	 1.000207281943034e+001
0	 3.000000000000000e+000	 7.199979999988403e+000	 1.000127204649837e+001
0	 3.000000000000000e+000	 7.266639999985471e+000	 1.000075534674098e+001
0	 3.000000000000000e+000	 7.333299999983334e+000	 1.000053617977300e+001
0	 3.066659999995868e+000	 6.666700000016666e+000	 1.002182382721207e+001
0	 3.066659999995868e+000	 6.733360000014532e+000	 1.001925009654008e+001
0	 3.066659999995868e+000	 6.800020000011600e+000	 1.001685403822159e+001
0	 3.066659999995868e+000	 6.866680000008067e+000	 1.001464897284067e+001
0	 3.066659999995867e+000	 6.933340000004134e+000	 1.001264822098151e+001
0	 3.066659999995867e+000	 7.000000000000002e+000	 1.001086510322814e+001
0	 3.066659999995868e+000	 7.066659999995869e+000	 1.000931294016473e+001
0	 3.066659999995868e+000	 7.133319999991938e+000	 1.000800505237539e+001
0	 3.066659999995868e+000	 7.199979999988404e+000	 1.000695476044412e+001
0	 3.066659999995867e+000	 7.266639999985471e+000	 1.000617538495509e+001
0	 3.066659999995868e+000	 7.333299999983332e+000	 1.000568024649237e+001
0	 3.133319999991935e+000	 6.666700000016668e+000	 1.002889076886738e+001
0	 3.133319999991934e+000	 6.733360000014532e+000	 1.002617919443052e+001
0	 3.133319999991934e+000	 6.800020000011601e+000	 1.002363203827301e+001
0	 3.133319999991934e+000	 6.866680000008066e+000	 1.002126212990986e+001
0	 3.133319999991935e+000	 6.933340000004134e+000	 1.001908229885607e+001
0	 3.133319999991934e+000	 7.000000000000000e+000	 1.001710537462656e+001
0	 3.133319999991934e+000	 7.066659999995871e+000	 1.001534418673633e+001
0	 3.133319999991935e+000	 7.133319999991937e+000	 1.001381156470037e+001
0	 3.133319999991935e+000	 7.199979999988403e+000	 1.001252033803358e+001
0	 3.133319999991934e+000	 7.266639999985471e+000	 1.001148333625094e+001
0	 3.133319999991935e+000	 7.333299999983335e+000	 1.001071338886739e+001
0	 3.199979999988401e+000	 6.666700000016667e+000	 1.003570483356936e+001
0	 3.199979999988401e+000	 6.733360000014534e+000	 1.003287017163493e+001
0	 3.199979999988401e+000	 6.800020000011601e+000	 1.003018708226345e+001
0	 3.199979999988401e+000	 6.866680000008067e+000	 1.002766755186236e+001
0	 3.199979999988401e+000	 6.933340000004135e+000	 1.002532356683908e+001
0	 3.199979999988400e+000	 7.000000000000001e+000	 1.002316711360109e+001
0	 3.199979999988401e+000	 7.066659999995870e+000	 1.002121017855582e+001
0	 3.199979999988401e+000	 7.133319999991938e+000	 1.001946474811066e+001
0	 3.199979999988401e+000	 7.199979999988406e+000	 1.001794280867303e+001
0	 3.199979999988401e+000	 7.266639999985470e+000	 1.001665634665039e+001
0	 3.199979999988400e+000	 7.333299999983332e+000	 1.001561734845011e+001
0	 3.266639999985468e+000	 6.666700000016667e+000	 1.004226835872460e+001
0	 3.266639999985468e+000	 6.733360000014532e+000	 1.003931665085886e+001
0	 3.266639999985468e+000	 6.800020000011600e+000	 1.003650555711191e+001
0	 3.266639999985467e+000	 6.866680000008067e+000	 1.003384586874527e+001
0	 3.266639999985468e+000	 6.933340000004136e+000	 1.003134837702041e+001
0	 3.266639999985468e+000	 7.000000000000002e+000	 1.002902387319885e+001
0	 3.266639999985468e+000	 7.066659999995869e+000	 1.002688314854206e+001
0	 3.266639999985468e+000	 7.133319999991937e+000	 1.002493699431156e+001
0	 3.266639999985468e+000	 7.199979999988405e+000	 1.002319620176883e+001
0	 3.266639999985468e+000	 7.266639999985472e+000	 1.002167156217533e+001
0	 3.266639999985467e+000	 7.333299999983333e+000	 1.002037386679256e+001
0	 3.333299999983333e+000	 6.666700000016665e+000	 1.004858368173967e+001
0	 3.333299999983334e+000	 6.733360000014534e+000	 1.004551225480788e+001
0	 3.333299999983334e+000	 6.800020000011599e+000	 1.004257384973751e+001
0	 3.333299999983333e+000	 6.866680000008065e+000	 1.003977771060578e+001
0	 3.333299999983334e+000	 6.933340000004136e+000	 1.003713308148985e+001
0	 3.333299999983334e+000	 7.000000000000001e+000	 1.003464920646688e+001
0	 3.333299999983334e+000	 7.066659999995870e+000	 1.003233532961401e+001
0	 3.333299999983334e+000	 7.133319999991937e+000	 1.003020069500841e+001
0	 3.333299999983334e+000	 7.199979999988403e+000	 1.002825454672725e+001
0	 3.333299999983334e+000	 7.266639999985472e+000	 1.002650612884766e+001
0	 3.333299999983334e+000	 7.333299999983336e+000	 1.002496468544678e+001
0	 2.666700000016666e+000	 7.333299999983334e+000	 9.973791026689728e+000
0	 2.666700000016667e+000	 7.399969999982150e+000	 9.974910308175319e+000
0	 2.666700000016666e+000	 7.466639999981866e+000	 9.975975101961067e+000
0	 2.666700000016667e+000	 7.533309999982382e+000	 9.976987999161256e+000
0	 2.666700000016667e+000	 7.599979999983601e+000	 9.977951590890125e+000
0	 2.666700000016666e+000	 7.666649999985414e+000	 9.978868468261926e+000
0	 2.666700000016666e+000	 7.733319999987731e+000	 9.979741222390896e+000
0	 2.666700000016667e+000	 7.799989999990448e+000	 9.980572444391285e+000
0	 2.666700000016666e+000	 7.866659999993464e+000	 9.981364725377357e+000
0	 2.666700000016666e+000	 7.933329999996681e+000	 9.982120656463328e+000
0	 2.666700000016666e+000	 8.000000000000002e+000	 9.982842828763449e+000
0	 2.733360000014532e+000	 7.333299999983332e+000	 9.979215838411363e+000
0	 2.733360000014533e+000	 7.399969999982148e+000	 9.980136438228106e+000
0	 2.733360000014533e+000	 7.466639999981865e+000	 9.981001229132875e+000
0	 2.733360000014533e+000	 7.533309999982384e+000	 9.981812326590640e+000
0	 2.733360000014533e+000	 7.599979999983600e+000	 9.982571846066268e+000
0	 2.733360000014534e+000	 7.666649999985417e+000	 9.983281903024725e+000
0	 2.733360000014533e+000	 7.733319999987729e+000	 9.983944612930870e+000
0	 2.733360000014533e+000	 7.799989999990448e+000	 9.984562091249650e+000
0	 2.733360000014533e+000	 7.866659999993463e+000	 9.985136453445955e+000
0	 2.733360000014533e+000	 7.933329999996681e+000	 9.985669814984727e+000
0	 2.733360000014533e+000	 8.000000000000000e+000	 9.986164291330884e+000
0	 2.800020000011600e+000	 7.333299999983335e+000	 9.984621018028498e+000
0	 2.800020000011600e+000	 7.399969999982151e+000	 9.985317630215004e+000
0	 2.800020000011600e+000	 7.466639999981866e+000	 9.985961690825196e+000
0	 2.800020000011599e+000	 7.533309999982382e+000	 9.986554893546854e+000
0	 2.800020000011600e+000	 7.599979999983598e+000	 9.987098932067800e+000
0	 2.800020000011600e+000	 7.666649999985414e+000	 9.987595500075845e+000
0	 2.800020000011599e+000	 7.733319999987730e+000	 9.988046291258774e+000
0	 2.800020000011600e+000	 7.799989999990449e+000	 9.988452999304426e+000
0	 2.800020000011601e+000	 7.866659999993465e+000	 9.988817317900566e+000
0	 2.800020000011600e+000	 7.933329999996679e+000	 9.989140940735007e+000
0	 2.800020000011600e+000	 8.000000000000002e+000	 9.989425561495567e+000
0	 2.866680000008067e+000	 7.333299999983332e+000	 9.989988307093094e+000
0	 2.866680000008067e+000	 7.399969999982149e+000	 9.990440580043069e+000
0	 2.866680000008067e+000	 7.466639999981867e+000	 9.990847374434553e+000
0	 2.866680000008067e+000	 7.533309999982386e+000	 9.991210016050495e+000
0	 2.866680000008067e+000	 7.599979999983599e+000	 9.991529830673786e+000
0	 2.866680000008067e+000	 7.666649999985414e+000	 9.991808144087361e+000
0	 2.866680000008067e+000	 7.733319999987731e+000	 9.992046282074146e+000
0	 2.866680000008067e+000	 7.799989999990450e+000	 9.992245570417060e+000
0	 2.866680000008067e+000	 7.866659999993466e+000	 9.992407334899035e+000
0	 2.866680000008067e+000	 7.933329999996682e+000	 9.992532901302987e+000
0	 2.866680000008067e+000	 8.000000000000000e+000	 9.992623595411850e+000
0	 2.933340000004134e+000	 7.333299999983336e+000	 9.995299447157251e+000
0	 2.933340000004134e+000	 7.399969999982150e+000	 9.995491983619344e+000
0	 2.933340000004133e+000	 7.466639999981868e+000	 9.995649167357531e+000
0	 2.933340000004133e+000	 7.533309999982381e+000	 9.995772010122066e+000
0	 2.933340000004133e+000	 7.599979999983597e+000	 9.995861523663219e+000
0	 2.933340000004133e+000	 7.666649999985413e+000	 9.995918719731257e+000
0	 2.933340000004133e+000	 7.733319999987731e+000	 9.995944610076446e+000
0	 2.933340000004134e+000	 7.799989999990449e+000	 9.995940206449047e+000
0	 2.933340000004134e+000	 7.866659999993466e+000	 9.995906520599331e+000
0	 2.933340000004133e+000	 7.933329999996682e+000	 9.995844564277554e+000
0	 2.933340000004133e+000	 7.999999999999997e+000	 9.995755349233994e+000
0	 3.000000000000000e+000	 7.333299999983334e+000	 1.000053617977300e+001
0	 3.000000000000000e+000	 7.399969999982149e+000	 1.000045853685089e+001
0	 3.000000000000000e+000	 7.466639999981865e+000	 1.000035795699066e+001
0	 3.000000000000000e+000	 7.533309999982382e+000	 1.000023519178216e+001
0	 3.000000000000000e+000	 7.599979999983598e+000	 1.000009099281519e+001
0	 3.000000000000000e+000	 7.666649999985414e+000	 9.999926111679571e+000
0	 3.000000000000000e+000	 7.733319999987733e+000	 9.999741299965173e+000
0	 3.000000000000000e+000	 7.799989999990447e+000	 9.999537309261820e+000
0	 3.000000000000000e+000	 7.866659999993463e+000	 9.999314891159330e+000
0	 3.000000000000000e+000	 7.933329999996681e+000	 9.999074797247554e+000
0	 3.000000000000000e+000	 8.000000000000002e+000	 9.998817779116306e+000
0	 3.066659999995868e+000	 7.333299999983332e+000	 1.000568024649237e+001
0	 3.066659999995867e+000	 7.399969999982149e+000	 1.000532693564476e+001
0	 3.066659999995867e+000	 7.466639999981866e+000	 1.000496463073053e+001
0	 3.066659999995867e+000	 7.533309999982381e+000	 1.000459387705130e+001
0	 3.066659999995867e+000	 7.599979999983598e+000	 1.000421521990868e+001
0	 3.066659999995868e+000	 7.666649999985415e+000	 1.000382920460432e+001
0	 3.066659999995868e+000	 7.733319999987732e+000	 1.000343637643983e+001
0	 3.066659999995868e+000	 7.799989999990447e+000	 1.000303728071684e+001
0	 3.066659999995868e+000	 7.866659999993464e+000	 1.000263246273696e+001
0	 3.066659999995868e+000	 7.933329999996684e+000	 1.000222246780184e+001
0	 3.066659999995868e+000	 7.999999999999999e+000	 1.000180784121310e+001
0	 3.133319999991935e+000	 7.333299999983335e+000	 1.001071338886739e+001
0	 3.133319999991933e+000	 7.399969999982149e+000	 1.001008387590799e+001
0	 3.133319999991934e+000	 7.466639999981867e+000	 1.000946007597365e+001
0	 3.133319999991934e+000	 7.533309999982381e+000	 1.000884238195005e+001
0	 3.133319999991934e+000	 7.599979999983597e+000	 1.000823118672278e+001
0	 3.133319999991934e+000	 7.666649999985415e+000	 1.000762688317751e+001
0	 3.133319999991933e+000	 7.733319999987729e+000	 1.000702986419989e+001
0	 3.133319999991933e+000	 7.799989999990448e+000	 1.000644052267555e+001
0	 3.133319999991934e+000	 7.866659999993463e+000	 1.000585925149013e+001
0	 3.133319999991934e+000	 7.933329999996681e+000	 1.000528644352929e+001
0	 3.133319999991934e+000	 8.000000000000000e+000	 1.000472249167865e+001
0	 3.199979999988400e+000	 7.333299999983332e+000	 1.001561734845011e+001
0	 3.199979999988401e+000	 7.399969999982150e+000	 1.001471605354764e+001
0	 3.199979999988402e+000	 7.466639999981868e+000	 1.001383518011661e+001
0	 3.199979999988401e+000	 7.533309999982383e+000	 1.001297502249895e+001
0	 3.199979999988400e+000	 7.599979999983598e+000	 1.001213587503649e+001
0	 3.199979999988402e+000	 7.666649999985416e+000	 1.001131803207117e+001
0	 3.199979999988401e+000	 7.733319999987731e+000	 1.001052178794484e+001
0	 3.199979999988401e+000	 7.799989999990446e+000	 1.000974743699942e+001
0	 3.199979999988400e+000	 7.866659999993463e+000	 1.000899527357674e+001
0	 3.199979999988401e+000	 7.933329999996683e+000	 1.000826559201874e+001
0	 3.199979999988400e+000	 7.999999999999999e+000	 1.000755868666728e+001
0	 3.266639999985467e+000	 7.333299999983333e+000	 1.002037386679256e+001
0	 3.266639999985467e+000	 7.399969999982149e+000	 1.001921016447075e+001
0	 3.266639999985467e+000	 7.466639999981865e+000	 1.001808083055595e+001
0	 3.266639999985468e+000	 7.533309999982382e+000	 1.001698611471854e+001
0	 3.266639999985468e+000	 7.599979999983599e+000	 1.001592626662888e+001
0	 3.266639999985467e+000	 7.666649999985416e+000	 1.001490153595731e+001
0	 3.266639999985467e+000	 7.733319999987731e+000	 1.001391217237420e+001
0	 3.266639999985468e+000	 7.799989999990448e+000	 1.001295842554987e+001
0	 3.266639999985467e+000	 7.866659999993465e+000	 1.001204054515470e+001
0	 3.266639999985467e+000	 7.933329999996679e+000	 1.001115878085906e+001
0	 3.266639999985468e+000	 8.000000000000000e+000	 1.001031338233327e+001
0	 3.333299999983334e+000	 7.333299999983336e+000	 1.002496468544678e+001
0	 3.333299999983334e+000	 7.399969999982150e+000	 1.002355290458435e+001
0	 3.333299999983334e+000	 7.466639999981866e+000	 1.002218791468821e+001
0	 3.333299999983335e+000	 7.533309999982381e+000	 1.002086997462939e+001
0	 3.333299999983334e+000	 7.599979999983599e+000	 1.001959934327895e+001
0	 3.333299999983334e+000	 7.666649999985416e+000	 1.001837627950794e+001
0	 3.333299999983333e+000	 7.733319999987731e+000	 1.001720104218740e+001
0	 3.333299999983334e+000	 7.799989999990448e+000	 1.001607389018837e+001
0	 3.333299999983334e+000	 7.866659999993466e+000	 1.001499508238192e+001
0	 3.333299999983334e+000	 7.933329999996681e+000	 1.001396487763907e+001
0	 3.333299999983334e+000	 8.000000000000000e+000	 1.001298353483092e+001
0	 2.666700000016666e+000	 8.000000000000002e+000	 9.982842828763449e+000
0	 2.666700000016666e+000	 8.066670000003317e+000	 9.983555833405088e+000
0	 2.666700000016666e+000	 8.133340000006532e+000	 9.984284023718406e+000
0	 2.666700000016666e+000	 8.200010000009552e+000	 9.985029634122018e+000
0	 2.666700000016666e+000	 8.266680000012267e+000	 9.985794899034488e+000
0	 2.666700000016667e+000	 8.333350000014583e+000	 9.986582052874391e+000
0	 2.666700000016667e+000	 8.400020000016399e+000	 9.987393330060307e+000
0	 2.666700000016667e+000	 8.466690000017616e+000	 9.988230965010803e+000
0	 2.666700000016667e+000	 8.533360000018133e+000	 9.989097192144488e+000
0	 2.666700000016666e+000	 8.600030000017847e+000	 9.989994245879863e+000
0	 2.666700000016666e+000	 8.666700000016666e+000	 9.990924360635585e+000
0	 2.733360000014533e+000	 8.000000000000000e+000	 9.986164291330884e+000
0	 2.733360000014534e+000	 8.066670000003319e+000	 9.986652385049631e+000
0	 2.733360000014534e+000	 8.133340000006532e+000	 9.987166562139221e+000
0	 2.733360000014533e+000	 8.200010000009549e+000	 9.987708883214111e+000
0	 2.733360000014533e+000	 8.266680000012268e+000	 9.988281408888723e+000
0	 2.733360000014534e+000	 8.333350000014585e+000	 9.988886199777429e+000
0	 2.733360000014533e+000	 8.400020000016403e+000	 9.989525316494703e+000
0	 2.733360000014533e+000	 8.466690000017614e+000	 9.990200819654964e+000
0	 2.733360000014533e+000	 8.533360000018133e+000	 9.990914769872621e+000
0	 2.733360000014533e+000	 8.600030000017851e+000	 9.991669227762108e+000
0	 2.733360000014533e+000	 8.666700000016666e+000	 9.992466253937851e+000
0	 2.800020000011600e+000	 8.000000000000002e+000	 9.989425561495567e+000
0	 2.800020000011599e+000	 8.066670000003315e+000	 9.989707684308961e+000
0	 2.800020000011600e+000	 8.133340000006530e+000	 9.990023957967759e+000
0	 2.800020000011600e+000	 8.200010000009554e+000	 9.990376293158766e+000
0	 2.800020000011599e+000	 8.266680000012263e+000	 9.990766600568648e+000
0	 2.800020000011600e+000	 8.333350000014582e+000	 9.991196790884185e+000
0	 2.800020000011600e+000	 8.400020000016397e+000	 9.991668774792085e+000
0	 2.800020000011599e+000	 8.466690000017616e+000	 9.992184462979063e+000
0	 2.800020000011600e+000	 8.533360000018133e+000	 9.992745766131892e+000
0	 2.800020000011600e+000	 8.600030000017849e+000	 9.993354594937275e+000
0	 2.800020000011600e+000	 8.666700000016666e+000	 9.994012860081973e+000
0	 2.866680000008067e+000	 8.000000000000000e+000	 9.992623595411850e+000
0	 2.866680000008066e+000	 8.066670000003320e+000	 9.992716583231012e+000
0	 2.866680000008066e+000	 8.133340000006532e+000	 9.992849336667595e+000
0	 2.866680000008067e+000	 8.200010000009547e+000	 9.993023640357087e+000
0	 2.866680000008066e+000	 8.266680000012268e+000	 9.993241278934999e+000
0	 2.866680000008066e+000	 8.333350000014580e+000	 9.993504037036828e+000
0	 2.866680000008066e+000	 8.400020000016397e+000	 9.993813699298038e+000
0	 2.866680000008066e+000	 8.466690000017616e+000	 9.994172050354163e+000
0	 2.866680000008067e+000	 8.533360000018131e+000	 9.994580874840663e+000
0	 2.866680000008067e+000	 8.600030000017847e+000	 9.995041957393058e+000
0	 2.866680000008067e+000	 8.666700000016665e+000	 9.995557082646840e+000
0	 2.933340000004133e+000	 7.999999999999997e+000	 9.995755349233994e+000
0	 2.933340000004134e+000	 8.066670000003320e+000	 9.995673933863751e+000
0	 2.933340000004134e+000	 8.133340000006534e+000	 9.995635823702285e+000
0	 2.933340000004134e+000	 8.200010000009550e+000	 9.995642701210270e+000
0	 2.933340000004133e+000	 8.266680000012263e+000	 9.995696248848432e+000
0	 2.933340000004134e+000	 8.333350000014582e+000	 9.995798149077499e+000
0	 2.933340000004133e+000	 8.400020000016397e+000	 9.995950084358178e+000
0	 2.933340000004134e+000	 8.466690000017618e+000	 9.996153737151204e+000
0	 2.933340000004133e+000	 8.533360000018130e+000	 9.996410789917256e+000
0	 2.933340000004133e+000	 8.600030000017849e+000	 9.996722925117080e+000
0	 2.933340000004133e+000	 8.666700000016668e+000	 9.997091825211385e+000
0	 3.000000000000000e+000	 8.000000000000002e+000	 9.998817779116306e+000
0	 3.000000000000000e+000	 8.066670000003319e+000	 9.998574588255167e+000
0	 3.000000000000000e+000	 8.133340000006530e+000	 9.998376544535422e+000
0	 3.000000000000000e+000	 8.200010000009550e+000	 9.998225252119461e+000
0	 3.000000000000000e+000	 8.266680000012267e+000	 9.998122315169654e+000
0	 3.000000000000000e+000	 8.333350000014583e+000	 9.998069337848419e+000
0	 3.000000000000000e+000	 8.400020000016401e+000	 9.998067924318143e+000
0	 3.000000000000000e+000	 8.466690000017614e+000	 9.998119678741229e+000
0	 3.000000000000000e+000	 8.533360000018133e+000	 9.998226205280052e+000
0	 3.000000000000000e+000	 8.600030000017847e+000	 9.998389108097019e+000
0	 3.000000000000001e+000	 8.666700000016666e+000	 9.998609991354552e+000
0	 3.066659999995868e+000	 7.999999999999999e+000	 1.000180784121310e+001
0	 3.066659999995867e+000	 8.066670000003319e+000	 1.000141339845320e+001
0	 3.066659999995868e+000	 8.133340000006534e+000	 1.000106462463061e+001
0	 3.066659999995867e+000	 8.200010000009552e+000	 1.000076306948581e+001
0	 3.066659999995867e+000	 8.266680000012267e+000	 1.000051028275934e+001
0	 3.066659999995868e+000	 8.333350000014583e+000	 1.000030781419173e+001
0	 3.066659999995867e+000	 8.400020000016401e+000	 1.000015721352352e+001
0	 3.066659999995868e+000	 8.466690000017616e+000	 1.000006003049523e+001
0	 3.066659999995867e+000	 8.533360000018130e+000	 1.000001781484742e+001
0	 3.066659999995867e+000	 8.600030000017847e+000	 1.000003211632055e+001
0	 3.066659999995868e+000	 8.666700000016663e+000	 1.000010448465520e+001
0	 3.133319999991934e+000	 8.000000000000000e+000	 1.000472249167865e+001
0	 3.133319999991934e+000	 8.066670000003317e+000	 1.000418521650583e+001
0	 3.133319999991934e+000	 8.133340000006534e+000	 1.000369318945140e+001
0	 3.133319999991935e+000	 8.200010000009550e+000	 1.000324792971047e+001
0	 3.133319999991935e+000	 8.266680000012267e+000	 1.000285095647817e+001
0	 3.133319999991934e+000	 8.333350000014580e+000	 1.000250378894962e+001
0	 3.133319999991934e+000	 8.400020000016399e+000	 1.000220794631993e+001
0	 3.133319999991934e+000	 8.466690000017616e+000	 1.000196494778423e+001
0	 3.133319999991933e+000	 8.533360000018130e+000	 1.000177631253766e+001
0	 3.133319999991934e+000	 8.600030000017846e+000	 1.000164355977530e+001
0	 3.133319999991934e+000	 8.666700000016668e+000	 1.000156820869233e+001
0	 3.199979999988400e+000	 7.999999999999999e+000	 1.000755868666728e+001
0	 3.199979999988401e+000	 8.066670000003315e+000	 1.000688489446100e+001
0	 3.199979999988401e+000	 8.133340000006530e+000	 1.000625536446138e+001
0	 3.199979999988401e+000	 8.200010000009550e+000	 1.000567160919461e+001
0	 3.199979999988401e+000	 8.266680000012267e+000	 1.000513514118685e+001
0	 3.199979999988400e+000	 8.333350000014582e+000	 1.000464747296423e+001
0	 3.199979999988401e+000	 8.400020000016399e+000	 1.000421011705298e+001
0	 3.199979999988401e+000	 8.466690000017614e+000	 1.000382458597921e+001
0	 3.199979999988401e+000	 8.533360000018133e+000	 1.000349239226917e+001
0	 3.199979999988401e+000	 8.600030000017846e+000	 1.000321504844897e+001
0	 3.199979999988400e+000	 8.666700000016668e+000	 1.000299406704481e+001
0	 3.266639999985468e+000	 8.000000000000000e+000	 1.001031338233327e+001
0	 3.266639999985468e+000	 8.066670000003317e+000	 1.000950728436669e+001
0	 3.266639999985467e+000	 8.133340000006534e+000	 1.000874427512416e+001
0	 3.266639999985467e+000	 8.200010000009549e+000	 1.000802588433936e+001
0	 3.266639999985468e+000	 8.266680000012268e+000	 1.000735364174603e+001
0	 3.266639999985468e+000	 8.333350000014583e+000	 1.000672907707774e+001
0	 3.266639999985468e+000	 8.400020000016399e+000	 1.000615372006826e+001
0	 3.266639999985468e+000	 8.466690000017618e+000	 1.000562910045120e+001
0	 3.266639999985468e+000	 8.533360000018131e+000	 1.000515674796030e+001
0	 3.266639999985468e+000	 8.600030000017849e+000	 1.000473819232919e+001
0	 3.266639999985468e+000	 8.666700000016668e+000	 1.000437496329158e+001
0	 3.333299999983334e+000	 8.000000000000000e+000	 1.001298353483092e+001
0	 3.333299999983333e+000	 8.066670000003315e+000	 1.001204723827084e+001
0	 3.333299999983333e+000	 8.133340000006530e+000	 1.001115304690328e+001
0	 3.333299999983334e+000	 8.200010000009550e+000	 1.001030253154594e+001
0	 3.333299999983333e+000	 8.266680000012267e+000	 1.000949726301641e+001
0	 3.333299999983334e+000	 8.333350000014583e+000	 1.000873881213233e+001
0	 3.333299999983333e+000	 8.400020000016399e+000	 1.000802874971139e+001
0	 3.333299999983334e+000	 8.466690000017616e+000	 1.000736864657119e+001
0	 3.333299999983334e+000	 8.533360000018131e+000	 1.000676007352939e+001
0	 3.333299999983334e+000	 8.600030000017847e+000	 1.000620460140364e+001
0	 3.333299999983333e+000	 8.666700000016666e+000	 1.000570380101156e+001
0	 2.666700000016666e+000	 8.666700000016666e+000	 9.990924360635585e+000
0	 2.666700000016667e+000	 8.733360002791903e+000	 9.991840240153772e+000
0	 2.666700000016666e+000	 8.800020022230553e+000	 9.992695000430796e+000
0	 2.666700000016666e+000	 8.866680074997039e+000	 9.993491068073858e+000
0	 2.666700000016666e+000	 8.933340177755774e+000	 9.994230869839155e+000
0	 2.666700000016666e+000	 9.000000347171177e+000	 9.994916832631827e+000
0	 2.666700000016666e+000	 9.066660599907666e+000	 9.995551383505871e+000
0	 2.666700000016667e+000	 9.133320952629653e+000	 9.996136949664269e+000
0	 2.666700000016667e+000	 9.199981422001553e+000	 9.996675958458852e+000
0	 2.666700000016666e+000	 9.266642024687791e+000	 9.997170837390369e+000
0	 2.666700000016667e+000	 9.333302777352785e+000	 9.997624014108450e+000
0	 2.733360000014533e+000	 8.666700000016666e+000	 9.992466253937851e+000
0	 2.733360000014533e+000	 8.733360002791901e+000	 9.993255529798006e+000
0	 2.733360000014533e+000	 8.800020022230552e+000	 9.993987164623642e+000
0	 2.733360000014532e+000	 8.866680074997042e+000	 9.994663492423658e+000
0	 2.733360000014533e+000	 8.933340177755774e+000	 9.995286847340996e+000
0	 2.733360000014532e+000	 9.000000347171177e+000	 9.995859563652472e+000
0	 2.733360000014534e+000	 9.066660599907667e+000	 9.996383975768893e+000
0	 2.733360000014533e+000	 9.133320952629651e+000	 9.996862418234985e+000
0	 2.733360000014533e+000	 9.199981422001557e+000	 9.997297225729360e+000
0	 2.733360000014533e+000	 9.266642024687792e+000	 9.997690733064577e+000
0	 2.733360000014533e+000	 9.333302777352785e+000	 9.998045275187110e+000
0	 2.800020000011600e+000	 8.666700000016666e+000	 9.994012860081973e+000
0	 2.800020000011600e+000	 8.733360002791903e+000	 9.994669331076253e+000
0	 2.800020000011600e+000	 8.800020022230555e+000	 9.995273171969366e+000
0	 2.800020000011599e+000	 8.866680074997040e+000	 9.995826577730300e+000
0	 2.800020000011599e+000	 8.933340177755776e+000	 9.996331743445287e+000
0	 2.800020000011600e+000	 9.000000347171181e+000	 9.996790864317585e+000
0	 2.800020000011601e+000	 9.066660599907666e+000	 9.997206135667565e+000
0	 2.800020000011601e+000	 9.133320952629653e+000	 9.997579752932699e+000
0	 2.800020000011600e+000	 9.199981422001551e+000	 9.997913911667489e+000
0	 2.800020000011599e+000	 9.266642024687791e+000	 9.998210807543467e+000
0	 2.800020000011600e+000	 9.333302777352783e+000	 9.998472636349359e+000
0	 2.866680000008067e+000	 8.666700000016665e+000	 9.995557082646837e+000
0	 2.866680000008066e+000	 8.733360002791905e+000	 9.996075917978947e+000
0	 2.866680000008067e+000	 8.800020022230552e+000	 9.996548443432346e+000
0	 2.866680000008067e+000	 8.866680074997044e+000	 9.996976668494085e+000
0	 2.866680000008067e+000	 8.933340177755778e+000	 9.997362602749927e+000
0	 2.866680000008067e+000	 9.000000347171183e+000	 9.997708255884348e+000
0	 2.866680000008066e+000	 9.066660599907666e+000	 9.998015637680529e+000
0	 2.866680000008066e+000	 9.133320952629651e+000	 9.998286758020349e+000
0	 2.866680000008067e+000	 9.199981422001555e+000	 9.998523626884353e+000
0	 2.866680000008066e+000	 9.266642024687794e+000	 9.998728254351747e+000
0	 2.866680000008067e+000	 9.333302777352781e+000	 9.998902650600446e+000
0	 2.933340000004133e+000	 8.666700000016668e+000	 9.997091825211385e+000
0	 2.933340000004133e+000	 8.733360002791903e+000	 9.997469564496429e+000
0	 2.933340000004133e+000	 8.800020022230557e+000	 9.997808399976982e+000
0	 2.933340000004134e+000	 8.866680074997042e+000	 9.998110109215329e+000
0	 2.933340000004133e+000	 8.933340177755774e+000	 9.998376469852820e+000
0	 2.933340000004133e+000	 9.000000347171179e+000	 9.998609259609998e+000
0	 2.933340000004134e+000	 9.066660599907666e+000	 9.998810256286435e+000
0	 2.933340000004133e+000	 9.133320952629653e+000	 9.998981237760885e+000
0	 2.933340000004134e+000	 9.199981422001557e+000	 9.999123981991097e+000
0	 2.933340000004134e+000	 9.266642024687794e+000	 9.999240267013981e+000
0	 2.933340000004133e+000	 9.333302777352779e+000	 9.999331870945490e+000
0	 3.000000000000001e+000	 8.666700000016666e+000	 9.998609991354552e+000
0	 3.000000000000000e+000	 8.733360002791903e+000	 9.998844544619081e+000
0	 3.000000000000001e+000	 8.800020022230559e+000	 9.999048462567636e+000
0	 3.000000000000000e+000	 8.866680074997040e+000	 9.999223244394305e+000
0	 3.000000000000000e+000	 8.933340177755774e+000	 9.999370389351865e+000
0	 3.000000000000001e+000	 9.000000347171181e+000	 9.999491396751704e+000
0	 3.000000000000000e+000	 9.066660599907664e+000	 9.999587765963893e+000
0	 3.000000000000000e+000	 9.133320952629653e+000	 9.999660996417177e+000
0	 3.000000000000000e+000	 9.199981422001555e+000	 9.999712587598832e+000
0	 3.000000000000000e+000	 9.266642024687792e+000	 9.999744039054866e+000
0	 3.000000000000001e+000	 9.333302777352783e+000	 9.999756850389778e+000
0	 3.066659999995868e+000	 8.666700000016663e+000	 1.000010448465520e+001
0	 3.066659999995868e+000	 8.733360002791903e+000	 1.000019513233726e+001
0	 3.066659999995868e+000	 8.800020022230557e+000	 1.000026405216867e+001
0	 3.066659999995867e+000	 8.866680074997042e+000	 1.000031241853136e+001
0	 3.066659999995867e+000	 8.933340177755776e+000	 1.000034140584495e+001
0	 3.066659999995868e+000	 9.000000347171179e+000	 1.000035218856672e+001
0	 3.066659999995868e+000	 9.066660599907667e+000	 1.000034594119161e+001
0	 3.066659999995867e+000	 9.133320952629655e+000	 1.000032383825218e+001
0	 3.066659999995866e+000	 9.199981422001555e+000	 1.000028705431871e+001
0	 3.066659999995868e+000	 9.266642024687792e+000	 1.000023676399898e+001
0	 3.066659999995868e+000	 9.333302777352783e+000	 1.000017414193853e+001
0	 3.133319999991934e+000	 8.666700000016668e+000	 1.000156820869233e+001
0	 3.133319999991934e+000	 8.733360002791903e+000	 1.000151560164137e+001
0	 3.133319999991933e+000	 8.800020022230553e+000	 1.000145058974447e+001
0	 3.133319999991934e+000	 8.866680074997039e+000	 1.000137397612677e+001
0	 3.133319999991933e+000	 8.933340177755776e+000	 1.000128656392998e+001
0	 3.133319999991934e+000	 9.000000347171181e+000	 1.000118915631225e+001
0	 3.133319999991933e+000	 9.066660599907664e+000	 1.000108255644817e+001
0	 3.133319999991934e+000	 9.133320952629653e+000	 1.000096756752883e+001
0	 3.133319999991934e+000	 9.199981422001553e+000	 1.000084499276181e+001
0	 3.133319999991934e+000	 9.266642024687792e+000	 1.000071563537103e+001
0	 3.133319999991934e+000	 9.333302777352781e+000	 1.000058029859695e+001
0	 3.199979999988400e+000	 8.666700000016668e+000	 1.000299406704481e+001
0	 3.199979999988401e+000	 8.733360002791901e+000	 1.000280022652179e+001
0	 3.199979999988401e+000	 8.800020022230553e+000	 1.000260349625941e+001
0	 3.199979999988401e+000	 8.866680074997039e+000	 1.000240426168086e+001
0	 3.199979999988401e+000	 8.933340177755778e+000	 1.000220290820483e+001
0	 3.199979999988401e+000	 9.000000347171175e+000	 1.000199982124549e+001
0	 3.199979999988400e+000	 9.066660599907666e+000	 1.000179538621225e+001
0	 3.199979999988401e+000	 9.133320952629651e+000	 1.000158998851006e+001
0	 3.199979999988401e+000	 9.199981422001555e+000	 1.000138401353928e+001
0	 3.199979999988401e+000	 9.266642024687791e+000	 1.000117784669562e+001
0	 3.199979999988401e+000	 9.333302777352783e+000	 1.000097187337019e+001
0	 3.266639999985468e+000	 8.666700000016668e+000	 1.000437496329158e+001
0	 3.266639999985467e+000	 8.733360002791901e+000	 1.000404328096888e+001
0	 3.266639999985467e+000	 8.800020022230555e+000	 1.000371819267784e+001
0	 3.266639999985468e+000	 8.866680074997042e+000	 1.000339961969393e+001
0	 3.266639999985468e+000	 8.933340177755778e+000	 1.000308748326746e+001
0	 3.266639999985468e+000	 9.000000347171181e+000	 1.000278170462363e+001
0	 3.266639999985469e+000	 9.066660599907667e+000	 1.000248220496242e+001
0	 3.266639999985467e+000	 9.133320952629651e+000	 1.000218890545874e+001
0	 3.266639999985469e+000	 9.199981422001555e+000	 1.000190172726225e+001
0	 3.266639999985468e+000	 9.266642024687792e+000	 1.000162059149739e+001
0	 3.266639999985467e+000	 9.333302777352783e+000	 1.000134541926357e+001
0	 3.333299999983333e+000	 8.666700000016666e+000	 1.000570380101156e+001
0	 3.333299999983334e+000	 8.733360002791903e+000	 1.000523903897301e+001
0	 3.333299999983333e+000	 8.800020022230553e+000	 1.000479009996415e+001
0	 3.333299999983334e+000	 8.866680074997039e+000	 1.000435639466626e+001
0	 3.333299999983334e+000	 8.933340177755776e+000	 1.000393733371571e+001
0	 3.333299999983334e+000	 9.000000347171181e+000	 1.000353232770393e+001
0	 3.333299999983334e+000	 9.066660599907667e+000	 1.000314078717745e+001
0	 3.333299999983334e+000	 9.133320952629649e+000	 1.000276212263786e+001
0	 3.333299999983333e+000	 9.199981422001553e+000	 1.000239574454183e+001
0	 3.333299999983334e+000	 9.266642024687794e+000	 1.000204106330101e+001
0	 3.333299999983334e+000	 9.333302777352785e+000	 1.000169748928224e+001
0	 2.666700000016667e+000	 9.333302777352785e+000	 9.997624014108450e+000
0	 2.666700000016666e+000	 9.399973674588180e+000	 9.998038697058046e+000
0	 2.666700000016666e+000	 9.466644621844619e+000	 9.998416283209910e+000
0	 2.666700000016667e+000	 9.533315502449998e+000	 9.998756677279953e+000
0	 2.666700000016667e+000	 9.599986199732197e+000	 9.999059782964826e+000
0	 2.666700000016666e+000	 9.666656597019092e+000	 9.999325502941645e+000
0	 2.666700000016666e+000	 9.733326577638573e+000	 9.999553738867306e+000
0	 2.666700000016667e+000	 9.799996024918521e+000	 9.999744391378236e+000
0	 2.666700000016666e+000	 9.866664822186817e+000	 9.999897360089788e+000
0	 2.666700000016666e+000	 9.933332852771352e+000	 1.000001254359568e+001
0	 2.666700000016666e+000	 1.000000000000000e+001	 1.000008983946755e+001
0	 2.733360000014533e+000	 9.333302777352785e+000	 9.998045275187110e+000
0	 2.733360000014532e+000	 9.399973674588173e+000	 9.998368985453721e+000
0	 2.733360000014533e+000	 9.466644621844619e+000	 9.998667785062391e+000
0	 2.733360000014533e+000	 9.533315502450002e+000	 9.998940841359408e+000
0	 2.733360000014533e+000	 9.599986199732197e+000	 9.999187320884596e+000
0	 2.733360000014533e+000	 9.666656597019092e+000	 9.999406389371069e+000
0	 2.733360000014533e+000	 9.733326577638575e+000	 9.999597211744550e+000
0	 2.733360000014533e+000	 9.799996024918521e+000	 9.999758952123235e+000
0	 2.733360000014533e+000	 9.866664822186822e+000	 9.999890773816885e+000
0	 2.733360000014534e+000	 9.933332852771352e+000	 9.999991839326826e+000
0	 2.733360000014533e+000	 1.000000000000000e+001	 1.000006131034511e+001
0	 2.800020000011600e+000	 9.333302777352783e+000	 9.998472636349359e+000
0	 2.800020000011599e+000	 9.399973674588173e+000	 9.998711140627357e+000
0	 2.800020000011599e+000	 9.466644621844617e+000	 9.998935539273658e+000
0	 2.800020000011599e+000	 9.533315502449998e+000	 9.999144352513541e+000
0	 2.800020000011600e+000	 9.599986199732197e+000	 9.999336099964577e+000
0	 2.800020000011599e+000	 9.666656597019090e+000	 9.999509300636289e+000
0	 2.800020000011600e+000	 9.733326577638575e+000	 9.999662472929813e+000
0	 2.800020000011600e+000	 9.799996024918524e+000	 9.999794134637313e+000
0	 2.800020000011600e+000	 9.866664822186818e+000	 9.999902802941769e+000
0	 2.800020000011600e+000	 9.933332852771351e+000	 9.999986994416002e+000
0	 2.800020000011600e+000	 1.000000000000000e+001	 1.000004522502281e+001
0	 2.866680000008067e+000	 9.333302777352781e+000	 9.998902650600448e+000
0	 2.866680000008067e+000	 9.399973674588178e+000	 9.999061038220390e+000
0	 2.866680000008066e+000	 9.466644621844619e+000	 9.999214894087661e+000
0	 2.866680000008067e+000	 9.533315502449998e+000	 9.999362181552257e+000
0	 2.866680000008067e+000	 9.599986199732195e+000	 9.999500863542894e+000
0	 2.866680000008067e+000	 9.666656597019095e+000	 9.999628902566602e+000
0	 2.866680000008067e+000	 9.733326577638573e+000	 9.999744260708246e+000
0	 2.866680000008067e+000	 9.799996024918524e+000	 9.999844899630054e+000
0	 2.866680000008066e+000	 9.866664822186820e+000	 9.999928780571374e+000
0	 2.866680000008067e+000	 9.933332852771352e+000	 9.999993864348129e+000
0	 2.866680000008067e+000	 1.000000000000000e+001	 1.000003811135228e+001
0	 2.933340000004133e+000	 9.333302777352779e+000	 9.999331870945490e+000
0	 2.933340000004133e+000	 9.399973674588175e+000	 9.999414553874466e+000
0	 2.933340000004133e+000	 9.466644621844619e+000	 9.999501197748433e+000
0	 2.933340000004133e+000	 9.533315502450000e+000	 9.999589299285587e+000
0	 2.933340000004134e+000	 9.599986199732195e+000	 9.999676354957938e+000
0	 2.933340000004133e+000	 9.666656597019092e+000	 9.999759860991365e+000
0	 2.933340000004133e+000	 9.733326577638573e+000	 9.999837313364917e+000
0	 2.933340000004133e+000	 9.799996024918519e+000	 9.999906207810646e+000
0	 2.933340000004133e+000	 9.866664822186820e+000	 9.999964039812987e+000
0	 2.933340000004133e+000	 9.933332852771349e+000	 1.000000830460840e+001
0	 2.933340000004133e+000	 1.000000000000000e+001	 1.000003649718502e+001
0	 3.000000000000001e+000	 9.333302777352783e+000	 9.999756850389781e+000
0	 3.000000000000000e+000	 9.399973674588177e+000	 9.999767563230991e+000
0	 3.000000000000000e+000	 9.466644621844621e+000	 9.999789798500027e+000
0	 3.000000000000000e+000	 9.533315502449998e+000	 9.999820676523445e+000
0	 3.000000000000001e+000	 9.599986199732197e+000	 9.999857317547921e+000
0	 3.000000000000000e+000	 9.666656597019093e+000	 9.999896841739837e+000
0	 3.000000000000000e+000	 9.733326577638575e+000	 9.999936369185052e+000
0	 3.000000000000000e+000	 9.799996024918524e+000	 9.999973019888470e+000
0	 3.000000000000000e+000	 9.866664822186822e+000	 1.000000391377348e+001
0	 3.000000000000000e+000	 9.933332852771352e+000	 1.000002617068175e+001
0	 3.000000000000000e+000	 1.000000000000000e+001	 1.000003691037276e+001
0	 3.066659999995868e+000	 9.333302777352783e+000	 1.000017414193853e+001
0	 3.066659999995866e+000	 9.399973674588175e+000	 1.000011594193154e+001
0	 3.066659999995868e+000	 9.466644621844619e+000	 1.000007604458642e+001
0	 3.066659999995868e+000	 9.533315502450000e+000	 1.000005128407584e+001
0	 3.066659999995868e+000	 9.599986199732195e+000	 1.000003849465108e+001
0	 3.066659999995867e+000	 9.666656597019092e+000	 1.000003451064139e+001
0	 3.066659999995867e+000	 9.733326577638572e+000	 1.000003616645385e+001
0	 3.066659999995868e+000	 9.799996024918521e+000	 1.000004029657293e+001
0	 3.066659999995867e+000	 9.866664822186818e+000	 1.000004373556002e+001
0	 3.066659999995868e+000	 9.933332852771352e+000	 1.000004331805331e+001
0	 3.066659999995868e+000	 9.999999999999998e+000	 1.000003587876719e+001
0	 3.133319999991934e+000	 9.333302777352781e+000	 1.000058029859695e+001
0	 3.133319999991933e+000	 9.399973674588175e+000	 1.000045556561762e+001
0	 3.133319999991933e+000	 9.466644621844619e+000	 1.000035528425157e+001
0	 3.133319999991935e+000	 9.533315502450002e+000	 1.000027609275276e+001
0	 3.133319999991934e+000	 9.599986199732195e+000	 1.000021462960569e+001
0	 3.133319999991933e+000	 9.666656597019092e+000	 1.000016753352530e+001
0	 3.133319999991934e+000	 9.733326577638573e+000	 1.000013144345634e+001
0	 3.133319999991934e+000	 9.799996024918521e+000	 1.000010299857332e+001
0	 3.133319999991935e+000	 9.866664822186820e+000	 1.000007883827972e+001
0	 3.133319999991934e+000	 9.933332852771351e+000	 1.000005560220812e+001
0	 3.133319999991934e+000	 1.000000000000000e+001	 1.000002993021970e+001
0	 3.199979999988401e+000	 9.333302777352783e+000	 1.000097187337019e+001
0	 3.199979999988400e+000	 9.399973674588175e+000	 1.000078230993078e+001
0	 3.199979999988401e+000	 9.466644621844621e+000	 1.000062286573957e+001
0	 3.199979999988402e+000	 9.533315502450000e+000	 1.000049007336409e+001
0	 3.199979999988401e+000	 9.599986199732197e+000	 1.000038046575001e+001
0	 3.199979999988401e+000	 9.666656597019093e+000	 1.000029057622088e+001
0	 3.199979999988400e+000	 9.733326577638572e+000	 1.000021693847776e+001
0	 3.199979999988401e+000	 9.799996024918524e+000	 1.000015608659898e+001
0	 3.199979999988401e+000	 9.866664822186822e+000	 1.000010455503958e+001
0	 3.199979999988401e+000	 9.933332852771352e+000	 1.000005887863136e+001
0	 3.199979999988401e+000	 1.000000000000000e+001	 1.000001559258216e+001
0	 3.266639999985467e+000	 9.333302777352783e+000	 1.000134541926357e+001
0	 3.266639999985468e+000	 9.399973674588178e+000	 1.000109205051252e+001
0	 3.266639999985467e+000	 9.466644621844621e+000	 1.000087413729442e+001
0	 3.266639999985468e+000	 9.533315502449998e+000	 1.000068819671989e+001
0	 3.266639999985468e+000	 9.599986199732197e+000	 1.000053074642230e+001
0	 3.266639999985467e+000	 9.666656597019093e+000	 1.000039830455745e+001
0	 3.266639999985468e+000	 9.733326577638573e+000	 1.000028738980323e+001
0	 3.266639999985468e+000	 9.799996024918521e+000	 1.000019452135930e+001
0	 3.266639999985468e+000	 9.866664822186820e+000	 1.000011621894682e+001
0	 3.266639999985467e+000	 9.933332852771351e+000	 1.000004900280796e+001
0	 3.266639999985467e+000	 1.000000000000000e+001	 9.999989393705993e+000
0	 3.333299999983334e+000	 9.333302777352785e+000	 1.000169748928224e+001
0	 3.333299999983334e+000	 9.399973674588177e+000	 1.000138066300434e+001
0	 3.333299999983334e+000	 9.466644621844619e+000	 1.000110444716009e+001
0	 3.333299999983333e+000	 9.533315502450000e+000	 1.000086543363008e+001
0	 3.333299999983334e+000	 9.599986199732197e+000	 1.000066021496083e+001
0	 3.333299999983333e+000	 9.666656597019093e+000	 1.000048538436433e+001
0	 3.333299999983333e+000	 9.733326577638573e+000	 1.000033753571789e+001
0	 3.333299999983334e+000	 9.799996024918523e+000	 1.000021326356362e+001
0	 3.333299999983334e+000	 9.866664822186818e+000	 1.000010916310826e+001
0	 3.333299999983334e+000	 9.933332852771351e+000	 1.000002183022300e+001
0	 3.333299999983334e+000	 1.000000000000000e+001	 9.999947861442907e+000
0	 3.333299999983334e+000	 0.000000000000000e+000	-7.127798120319021e+001
0	 3.333299999983334e+000	 6.666714722864757e-002	-6.017375256633844e+001
0	 3.333299999983334e+000	 1.333351778131789e-001	-4.990939802962974e+001
0	 3.333299999983335e+000	 2.000039750814773e-001	-4.046297761591878e+001
0	 3.333299999983333e+000	 2.666734223614255e-001	-3.181255716036680e+001
0	 3.333299999983334e+000	 3.333434029809069e-001	-2.393620830910773e+001
0	 3.333299999983334e+000	 4.000138002678044e-001	-1.681200851806698e+001
0	 3.333299999983334e+000	 4.666844975500011e-001	-1.041804105193288e+001
0	 3.333299999983333e+000	 5.333553781553801e-001	-4.732394983280272e+000
0	 3.333299999983334e+000	 6.000263254118247e-001	 2.668348081529421e-001
0	 3.333299999983333e+000	 6.666972226472174e-001	 4.601547636037153e+000
0	 3.399969999982150e+000	 0.000000000000000e+000	-6.222806494046113e+001
0	 3.399969999982150e+000	 6.666714722864757e-002	-5.250677577781602e+001
0	 3.399969999982151e+000	 1.333351778131789e-001	-4.347975267292051e+001
0	 3.399969999982150e+000	 2.000039750814772e-001	-3.513474889435624e+001
0	 3.399969999982150e+000	 2.666734223614254e-001	-2.745952309067273e+001
0	 3.399969999982150e+000	 3.333434029809069e-001	-2.044183928915887e+001
0	 3.399969999982150e+000	 4.000138002678045e-001	-1.406946689475513e+001
0	 3.399969999982150e+000	 4.666844975500012e-001	-8.330180689107444e+000
0	 3.399969999982150e+000	 5.333553781553801e-001	-3.211760829762050e+000
0	 3.399969999982150e+000	 6.000263254118247e-001	 1.298007150498479e+000
0	 3.399969999982150e+000	 6.666972226472175e-001	 5.211332344178218e+000
0	 3.466639999981866e+000	 0.000000000000000e+000	-5.332020893338917e+001
0	 3.466639999981866e+000	 6.666714722864757e-002	-4.494626277714635e+001
0	 3.466639999981866e+000	 1.333351778131789e-001	-3.713030132093390e+001
0	 3.466639999981866e+000	 2.000039750814772e-001	-2.986839614544217e+001
0	 3.466639999981866e+000	 2.666734223614256e-001	-2.315662372933354e+001
0	 3.466639999981866e+000	 3.333434029809069e-001	-1.699106544812721e+001
0	 3.466639999981866e+000	 4.000138002678044e-001	-1.136780757321306e+001
0	 3.466639999981866e+000	 4.666844975500010e-001	-6.282941270993492e+000
0	 3.466639999981866e+000	 5.333553781553803e-001	-1.732562602154466e+000
0	 3.466639999981866e+000	 6.000263254118247e-001	 2.287227478935649e+000
0	 3.466639999981866e+000	 6.666972226472177e-001	 5.780323124698189e+000
0	 3.533309999982383e+000	 0.000000000000000e+000	-4.465918464332817e+001
0	 3.533309999982382e+000	 6.666714722864757e-002	-3.758033960028200e+001
0	 3.533309999982382e+000	 1.333351778131790e-001	-3.093384735426735e+001
0	 3.533309999982382e+000	 2.000039750814773e-001	-2.472272273491342e+001
0	 3.533309999982383e+000	 2.666734223614257e-001	-1.894998495206156e+001
0	 3.533309999982382e+000	 3.333434029809068e-001	-1.361865759476994e+001
0	 3.533309999982383e+000	 4.000138002678044e-001	-8.731768630433102e+000
0	 3.533309999982382e+000	 4.666844975500012e-001	-4.292350404016867e+000
0	 3.533309999982382e+000	 5.333553781553801e-001	-3.034396374077057e-001
0	 3.533309999982383e+000	 6.000263254118247e-001	 3.231922571122593e+000
0	 3.533309999982382e+000	 6.666972226472177e-001	 6.310690747337587e+000
0	 3.599979999983599e+000	 0.000000000000000e+000	-3.634976353163525e+001
0	 3.599979999983598e+000	 6.666714722864754e-002	-3.049713228317797e+001
0	 3.599979999983598e+000	 1.333351778131789e-001	-2.496319415352019e+001
0	 3.599979999983599e+000	 2.000039750814772e-001	-1.975653202850811e+001
0	 3.599979999983600e+000	 2.666734223614256e-001	-1.488573263457024e+001
0	 3.599979999983599e+000	 3.333434029809069e-001	-1.035938653784477e+001
0	 3.599979999983598e+000	 4.000138002678044e-001	-6.186088143407996e+000
0	 3.599979999983598e+000	 4.666844975500010e-001	-2.374435694603504e+000
0	 3.599979999983599e+000	 5.333553781553801e-001	 1.066968727527868e+000
0	 3.599979999983598e+000	 6.000263254118246e-001	 4.129519204717399e+000
0	 3.599979999983598e+000	 6.666972226472177e-001	 6.804605981836934e+000
0	 3.666649999985415e+000	 0.000000000000000e+000	-2.849671705967064e+001
0	 3.666649999985415e+000	 6.666714722864756e-002	-2.378476686179171e+001
0	 3.666649999985415e+000	 1.333351778131789e-001	-1.929114509929354e+001
0	 3.666649999985416e+000	 2.000039750814773e-001	-1.502862739196572e+001
0	 3.666649999985415e+000	 2.666734223614255e-001	-1.100999265257384e+001
0	 3.666649999985415e+000	 3.333434029809068e-001	-7.248023086110159e+000
0	 3.666649999985414e+000	 4.000138002678043e-001	-3.755504189130861e+000
0	 3.666649999985415e+000	 4.666844975500012e-001	-5.452247491797295e-001
0	 3.666649999985415e+000	 5.333553781553801e-001	 2.370023155701787e+000
0	 3.666649999985416e+000	 6.000263254118248e-001	 4.977444157378116e+000
0	 3.666649999985415e+000	 6.666972226472178e-001	 7.264239597936742e+000
0	 3.733319999987731e+000	 0.000000000000000e+000	-2.120481668879778e+001
0	 3.733319999987731e+000	 6.666714722864754e-002	-1.753136937208312e+001
0	 3.733319999987732e+000	 1.333351778131789e-001	-1.399050357219038e+001
0	 3.733319999987732e+000	 2.000039750814772e-001	-1.059781219102703e+001
0	 3.733319999987732e+000	 2.666734223614256e-001	-7.368890881787587e+000
0	 3.733319999987732e+000	 3.333434029809069e-001	-4.319338048325113e+000
0	 3.733319999987732e+000	 4.000138002678044e-001	-1.464754844595181e+000
0	 3.733319999987732e+000	 4.666844975500011e-001	 1.179254825828027e+000
0	 3.733319999987732e+000	 5.333553781553803e-001	 3.597084310163472e+000
0	 3.733319999987732e+000	 6.000263254118248e-001	 5.773124206762784e+000
0	 3.733319999987732e+000	 6.666972226472177e-001	 7.691762365377556e+000
0	 3.799989999990448e+000	 0.000000000000000e+000	-1.457883388038328e+001
0	 3.799989999990448e+000	 6.666714722864756e-002	-1.182506585001453e+001
0	 3.799989999990448e+000	 1.333351778131790e-001	-9.134072952815497e+000
0	 3.799989999990448e+000	 2.000039750814773e-001	-6.522889791434192e+000
0	 3.799989999990448e+000	 2.666734223614255e-001	-4.008553197927652e+000
0	 3.799989999990449e+000	 3.333434029809069e-001	-1.608102233249307e+000
0	 3.799989999990449e+000	 4.000138002678043e-001	 6.614218132051022e-001
0	 3.799989999990448e+000	 4.666844975500011e-001	 2.782975423993035e+000
0	 3.799989999990449e+000	 5.333553781553804e-001	 4.739512853962234e+000
0	 3.799989999990448e+000	 6.000263254118247e-001	 6.513986130529342e+000
0	 3.799989999990448e+000	 6.666972226472178e-001	 8.089345053899894e+000
0	 3.866659999993465e+000	 0.000000000000000e+000	-8.723540095796938e+000
0	 3.866659999993464e+000	 6.666714722864754e-002	-6.753982331550723e+000
0	 3.866659999993465e+000	 1.333351778131789e-001	-4.794656621775534e+000
0	 3.866659999993464e+000	 2.000039750814772e-001	-2.862663558930654e+000
0	 3.866659999993464e+000	 2.666734223614256e-001	-9.751054767111334e-001
0	 3.866659999993464e+000	 3.333434029809068e-001	 8.509135503570100e-001
0	 3.866659999993466e+000	 4.000138002678044e-001	 2.598287707275713e+000
0	 3.866659999993465e+000	 4.666844975500011e-001	 4.249909438888350e+000
0	 3.866659999993465e+000	 5.333553781553801e-001	 5.788669450147252e+000
0	 3.866659999993465e+000	 6.000263254118248e-001	 7.197456706335713e+000
0	 3.866659999993465e+000	 6.666972226472175e-001	 8.459158433244300e+000
0	 3.933329999996682e+000	 0.000000000000000e+000	-3.743706796411741e+000
0	 3.933329999996682e+000	 6.666714722864757e-002	-2.406244852658914e+000
0	 3.933329999996681e+000	 1.333351778131789e-001	-1.045057959678944e+000
0	 3.933329999996682e+000	 2.000039750814773e-001	 3.240631407387795e-001
0	 3.933329999996681e+000	 2.666734223614256e-001	 1.685326406143941e+000
0	 3.933329999996681e+000	 3.333434029809069e-001	 3.022938493732869e+000
0	 3.933329999996680e+000	 4.000138002678043e-001	 4.321104760621939e+000
0	 3.933329999996682e+000	 4.666844975500011e-001	 5.564029264086811e+000
0	 3.933329999996681e+000	 5.333553781553801e-001	 6.735914761767585e+000
0	 3.933329999996682e+000	 6.000263254118247e-001	 7.820962711839794e+000
0	 3.933329999996682e+000	 6.666972226472177e-001	 8.803373273151300e+000
0	 4.000000000000001e+000	 0.000000000000000e+000	 2.558945563962690e-001
0	 4.000000000000000e+000	 6.666714722864756e-002	 1.130020550691322e+000
0	 4.000000000000000e+000	 1.333351778131789e-001	 2.041919652864086e+000
0	 4.000000000000001e+000	 2.000039750814773e-001	 2.978486941828073e+000
0	 4.000000000000001e+000	 2.666734223614256e-001	 3.926616574918661e+000
0	 4.000000000000000e+000	 3.333434029809068e-001	 4.873201788116830e+000
0	 4.000000000000001e+000	 4.000138002678044e-001	 5.805134896248727e+000
0	 4.000000000000000e+000	 4.666844975500011e-001	 6.709307293161052e+000
0	 3.999999999999999e+000	 5.333553781553801e-001	 7.572609451872230e+000
0	 4.000000000000001e+000	 6.000263254118247e-001	 8.381930924699450e+000
0	 4.000000000000001e+000	 6.666972226472177e-001	 9.124160343361460e+000
0	 3.333299999983333e+000	 6.666972226472174e-001	 4.601547636037153e+000
0	 3.333299999983334e+000	 7.333579753122048e-001	 8.398466365250409e+000
0	 3.333299999983335e+000	 8.000185779984420e-001	 1.177738862498453e+001
0	 3.333299999983334e+000	 8.666790473703455e-001	 1.474801760250311e+001
0	 3.333299999983335e+000	 9.333394000923323e-001	 1.732005699212866e+001
0	 3.333299999983334e+000	 9.999996528288192e-001	 1.950321099525742e+001
0	 3.333299999983334e+000	 1.066659822244222e+000	 2.130718432037202e+001
0	 3.333299999983333e+000	 1.133319925002959e+000	 2.274168218305271e+001
0	 3.333299999983334e+000	 1.199979977769445e+000	 2.381641030598629e+001
0	 3.333299999983333e+000	 1.266639997208098e+000	 2.454107491897327e+001
0	 3.333299999983333e+000	 1.333299999983334e+000	 2.492538275893311e+001
0	 3.399969999982150e+000	 6.666972226472175e-001	 5.211332344178218e+000
0	 3.399969999982150e+000	 7.333579753122046e-001	 8.641707591913193e+000
0	 3.399969999982150e+000	 8.000185779984418e-001	 1.170067903869883e+001
0	 3.399969999982150e+000	 8.666790473703455e-001	 1.439590350172206e+001
0	 3.399969999982150e+000	 9.333394000923323e-001	 1.673503825815219e+001
0	 3.399969999982150e+000	 9.999996528288190e-001	 1.872574104515417e+001
0	 3.399969999982149e+000	 1.066659822244222e+000	 2.037567005990048e+001
0	 3.399969999982149e+000	 1.133319925002959e+000	 2.169248395958086e+001
0	 3.399969999982150e+000	 1.199979977769445e+000	 2.268384186141069e+001
0	 3.399969999982150e+000	 1.266639997208098e+000	 2.335740334263747e+001
0	 3.399969999982150e+000	 1.333299999983333e+000	 2.372082844054551e+001
0	 3.466639999981866e+000	 6.666972226472177e-001	 5.780323124698187e+000
0	 3.466639999981867e+000	 7.333579753122049e-001	 8.845992480698438e+000
0	 3.466639999981866e+000	 8.000185779984418e-001	 1.158576086026734e+001
0	 3.466639999981866e+000	 8.666790473703454e-001	 1.400545090936641e+001
0	 3.466639999981866e+000	 9.333394000923324e-001	 1.611088568630176e+001
0	 3.466639999981866e+000	 9.999996528288191e-001	 1.790788866173623e+001
0	 3.466639999981866e+000	 1.066659822244222e+000	 1.940228371869970e+001
0	 3.466639999981866e+000	 1.133319925002959e+000	 2.059989515259813e+001
0	 3.466639999981866e+000	 1.199979977769445e+000	 2.150654767122090e+001
0	 3.466639999981866e+000	 1.266639997208098e+000	 2.212806639474670e+001
0	 3.466639999981866e+000	 1.333299999983334e+000	 2.247027685574772e+001
0	 3.533309999982382e+000	 6.666972226472177e-001	 6.310690747337587e+000
0	 3.533309999982381e+000	 7.333579753122046e-001	 9.017357667858365e+000
0	 3.533309999982383e+000	 8.000185779984418e-001	 1.144210367015794e+001
0	 3.533309999982383e+000	 8.666790473703456e-001	 1.358912942248938e+001
0	 3.533309999982382e+000	 9.333394000923326e-001	 1.546263595790074e+001
0	 3.533309999982383e+000	 9.999996528288191e-001	 1.706682467424592e+001
0	 3.533309999982383e+000	 1.066659822244223e+000	 1.840589733419365e+001
0	 3.533309999982382e+000	 1.133319925002959e+000	 1.948405606523575e+001
0	 3.533309999982382e+000	 1.199979977769445e+000	 2.030550335969341e+001
0	 3.533309999982383e+000	 1.266639997208098e+000	 2.087444207472255e+001
0	 3.533309999982382e+000	 1.333299999983334e+000	 2.119507543231751e+001
0	 3.599979999983598e+000	 6.666972226472177e-001	 6.804605981836934e+000
0	 3.599979999983599e+000	 7.333579753122048e-001	 9.161839789645088e+000
0	 3.599979999983599e+000	 8.000185779984418e-001	 1.127917704883852e+001
0	 3.599979999983599e+000	 8.666790473703452e-001	 1.315940863814431e+001
0	 3.599979999983598e+000	 9.333394000923321e-001	 1.480532575427254e+001
0	 3.599979999983599e+000	 9.999996528288194e-001	 1.621971991192558e+001
0	 3.599979999983600e+000	 1.066659822244223e+000	 1.740538294380631e+001
0	 3.599979999983599e+000	 1.133319925002959e+000	 1.836510700062491e+001
0	 3.599979999983598e+000	 1.199979977769445e+000	 1.910168455110471e+001
0	 3.599979999983599e+000	 1.266639997208098e+000	 1.961790838198660e+001
0	 3.599979999983599e+000	 1.333299999983334e+000	 1.991657159803255e+001
0	 3.666649999985415e+000	 6.666972226472178e-001	 7.264239597936742e+000
0	 3.666649999985415e+000	 7.333579753122046e-001	 9.285475482310838e+000
0	 3.666649999985415e+000	 8.000185779984420e-001	 1.110645057677702e+001
0	 3.666649999985416e+000	 8.666790473703455e-001	 1.272875815338457e+001
0	 3.666649999985415e+000	 9.333394000923321e-001	 1.415399175674049e+001
0	 3.666649999985415e+000	 9.999996528288190e-001	 1.538374520401764e+001
0	 3.666649999985416e+000	 1.066659822244223e+000	 1.641961258496164e+001
0	 3.666649999985415e+000	 1.133319925002959e+000	 1.726318826189683e+001
0	 3.666649999985415e+000	 1.199979977769445e+000	 1.791606686973122e+001
0	 3.666649999985415e+000	 1.266639997208098e+000	 1.837984331596041e+001
0	 3.666649999985415e+000	 1.333299999983334e+000	 1.865611278067050e+001
0	 3.733319999987732e+000	 6.666972226472177e-001	 7.691762365377560e+000
0	 3.733319999987733e+000	 7.333579753122047e-001	 9.394301382107898e+000
0	 3.733319999987732e+000	 8.000185779984416e-001	 1.093339383444149e+001
0	 3.733319999987732e+000	 8.666790473703455e-001	 1.230964756526357e+001
0	 3.733319999987732e+000	 9.333394000923323e-001	 1.352367064662812e+001
0	 3.733319999987731e+000	 9.999996528288191e-001	 1.457607137976456e+001
0	 3.733319999987732e+000	 1.066659822244223e+000	 1.546745829508369e+001
0	 3.733319999987731e+000	 1.133319925002959e+000	 1.619844015218273e+001
0	 3.733319999987731e+000	 1.199979977769445e+000	 1.676962593984942e+001
0	 3.733319999987732e+000	 1.266639997208098e+000	 1.718162487606547e+001
0	 3.733319999987732e+000	 1.333299999983334e+000	 1.743504640800893e+001
0	 3.799989999990448e+000	 6.666972226472178e-001	 8.089345053899896e+000
0	 3.799989999990448e+000	 7.333579753122048e-001	 9.494354125288549e+000
0	 3.799989999990448e+000	 8.000185779984419e-001	 1.076947640229994e+001
0	 3.799989999990448e+000	 8.666790473703457e-001	 1.191454647083480e+001
0	 3.799989999990448e+000	 9.333394000923323e-001	 1.292939910525892e+001
0	 3.799989999990448e+000	 9.999996528288191e-001	 1.381386926840879e+001
0	 3.799989999990448e+000	 1.066659822244223e+000	 1.456779211159650e+001
0	 3.799989999990448e+000	 1.133319925002959e+000	 1.519100297461380e+001
0	 3.799989999990448e+000	 1.199979977769445e+000	 1.568333738573570e+001
0	 3.799989999990448e+000	 1.266639997208098e+000	 1.604463106172323e+001
0	 3.799989999990448e+000	 1.333299999983334e+000	 1.627471990782534e+001
0	 3.866659999993465e+000	 6.666972226472175e-001	 8.459158433244300e+000
0	 3.866659999993465e+000	 7.333579753122047e-001	 9.591670348105106e+000
0	 3.866659999993465e+000	 8.000185779984418e-001	 1.062416786082050e+001
0	 3.866659999993465e+000	 8.666790473703454e-001	 1.155592446715180e+001
0	 3.866659999993465e+000	 9.333394000923323e-001	 1.238621381395648e+001
0	 3.866659999993465e+000	 9.999996528288192e-001	 1.311430969919289e+001
0	 3.866659999993466e+000	 1.066659822244223e+000	 1.373948607192410e+001
0	 3.866659999993465e+000	 1.133319925002959e+000	 1.426101703232127e+001
0	 3.866659999993465e+000	 1.199979977769445e+000	 1.467817683166650e+001
0	 3.866659999993465e+000	 1.266639997208098e+000	 1.499023987235509e+001
0	 3.866659999993464e+000	 1.333299999983334e+000	 1.519648070789721e+001
0	 3.933329999996682e+000	 6.666972226472177e-001	 8.803373273151300e+000
0	 3.933329999996681e+000	 7.333579753122047e-001	 9.692286686809926e+000
0	 3.933329999996682e+000	 8.000185779984419e-001	 1.050693779047135e+001
0	 3.933329999996682e+000	 8.666790473703457e-001	 1.124625115126815e+001
0	 3.933329999996682e+000	 9.333394000923322e-001	 1.190915145404442e+001
0	 3.933329999996682e+000	 9.999996528288191e-001	 1.249456350135941e+001
0	 3.933329999996682e+000	 1.066659822244223e+000	 1.300141221349060e+001
0	 3.933329999996682e+000	 1.133319925002959e+000	 1.342862262843635e+001
0	 3.933329999996682e+000	 1.199979977769445e+000	 1.377511990191814e+001
0	 3.933329999996681e+000	 1.266639997208098e+000	 1.403982930738241e+001
0	 3.933329999996682e+000	 1.333299999983334e+000	 1.422167623600184e+001
0	 4.000000000000001e+000	 6.666972226472177e-001	 9.124160343361460e+000
0	 4.000000000000001e+000	 7.333579753122047e-001	 9.802239777655405e+000
0	 4.000000000000001e+000	 8.000185779984419e-001	 1.042725577172066e+001
0	 4.000000000000000e+000	 8.666790473703455e-001	 1.099799612023749e+001
0	 4.000000000000000e+000	 9.333394000923325e-001	 1.151324870684640e+001
0	 4.000000000000001e+000	 9.999996528288192e-001	 1.197180150415096e+001
0	 4.000000000000001e+000	 1.066659822244223e+000	 1.237244257372010e+001
0	 4.000000000000000e+000	 1.133319925002959e+000	 1.271396006609024e+001
0	 4.000000000000001e+000	 1.199979977769446e+000	 1.299514222076698e+001
0	 3.999999999999999e+000	 1.266639997208098e+000	 1.321477736622649e+001
0	 4.000000000000001e+000	 1.333299999983334e+000	 1.337165391991660e+001
0	 3.333299999983333e+000	 1.333299999983334e+000	 2.492538275893311e+001
0	 3.333299999983333e+000	 1.399969999982150e+000	 2.508607152611586e+001
0	 3.333299999983334e+000	 1.466639999981866e+000	 2.513331314225691e+001
0	 3.333299999983334e+000	 1.533309999982383e+000	 2.506706388094840e+001
0	 3.333299999983333e+000	 1.599979999983599e+000	 2.488728001578138e+001
0	 3.333299999983333e+000	 1.666649999985416e+000	 2.459391782034580e+001
0	 3.333299999983334e+000	 1.733319999987733e+000	 2.418693356823060e+001
0	 3.333299999983334e+000	 1.799989999990450e+000	 2.366628353302354e+001
0	 3.333299999983334e+000	 1.866659999993467e+000	 2.303192398831132e+001
0	 3.333299999983333e+000	 1.933329999996684e+000	 2.228381120767959e+001
0	 3.333299999983334e+000	 2.000000000000000e+000	 2.142190146471286e+001
0	 3.399969999982150e+000	 1.333299999983333e+000	 2.372082844054551e+001
0	 3.399969999982150e+000	 1.399969999982150e+000	 2.387809809058555e+001
0	 3.399969999982150e+000	 1.466639999981867e+000	 2.392816064156633e+001
0	 3.399969999982151e+000	 1.533309999982383e+000	 2.387122251499517e+001
0	 3.399969999982150e+000	 1.599979999983600e+000	 2.370749013237844e+001
0	 3.399969999982150e+000	 1.666649999985416e+000	 2.343716991522149e+001
0	 3.399969999982150e+000	 1.733319999987733e+000	 2.306046828502861e+001
0	 3.399969999982150e+000	 1.799989999990450e+000	 2.257759166330312e+001
0	 3.399969999982150e+000	 1.866659999993467e+000	 2.198874647154736e+001
0	 3.399969999982150e+000	 1.933329999996684e+000	 2.129413913126263e+001
0	 3.399969999982150e+000	 2.000000000000000e+000	 2.049397606394927e+001
0	 3.466639999981866e+000	 1.333299999983334e+000	 2.247027685574773e+001
0	 3.466639999981866e+000	 1.399969999982150e+000	 2.262447679398207e+001
0	 3.466639999981867e+000	 1.466639999981867e+000	 2.267829674603659e+001
0	 3.466639999981865e+000	 1.533309999982383e+000	 2.263215378245112e+001
0	 3.466639999981866e+000	 1.599979999983600e+000	 2.248646497376453e+001
0	 3.466639999981866e+000	 1.666649999985416e+000	 2.224164739051475e+001
0	 3.466639999981866e+000	 1.733319999987733e+000	 2.189811810323884e+001
0	 3.466639999981866e+000	 1.799989999990450e+000	 2.145629418247288e+001
0	 3.466639999981866e+000	 1.866659999993467e+000	 2.091659269875210e+001
0	 3.466639999981867e+000	 1.933329999996684e+000	 2.027943072261079e+001
0	 3.466639999981866e+000	 2.000000000000000e+000	 1.954522532458225e+001
0	 3.533309999982382e+000	 1.333299999983334e+000	 2.119507543231751e+001
0	 3.533309999982383e+000	 1.399969999982150e+000	 2.134625221518853e+001
0	 3.533309999982382e+000	 1.466639999981866e+000	 2.140435165226575e+001
0	 3.533309999982382e+000	 1.533309999982383e+000	 2.136996196423869e+001
0	 3.533309999982382e+000	 1.599979999983600e+000	 2.124367137179604e+001
0	 3.533309999982382e+000	 1.666649999985416e+000	 2.102606809562561e+001
0	 3.533309999982383e+000	 1.733319999987733e+000	 2.071774035641441e+001
0	 3.533309999982382e+000	 1.799989999990450e+000	 2.031927637484863e+001
0	 3.533309999982382e+000	 1.866659999993467e+000	 1.983126437161359e+001
0	 3.533309999982382e+000	 1.933329999996683e+000	 1.925429256739377e+001
0	 3.533309999982382e+000	 2.000000000000000e+000	 1.858894918287288e+001
0	 3.599979999983599e+000	 1.333299999983334e+000	 1.991657159803255e+001
0	 3.599979999983598e+000	 1.399969999982150e+000	 2.006446893308797e+001
0	 3.599979999983599e+000	 1.466639999981866e+000	 2.012695555685171e+001
0	 3.599979999983599e+000	 1.533309999982383e+000	 2.010475134128025e+001
0	 3.599979999983598e+000	 1.599979999983600e+000	 1.999857615832932e+001
0	 3.599979999983599e+000	 1.666649999985417e+000	 1.980914987995394e+001
0	 3.599979999983599e+000	 1.733319999987733e+000	 1.953719237810832e+001
0	 3.599979999983598e+000	 1.799989999990450e+000	 1.918342352474597e+001
0	 3.599979999983599e+000	 1.866659999993467e+000	 1.874856319181961e+001
0	 3.599979999983599e+000	 1.933329999996684e+000	 1.823333125128127e+001
0	 3.599979999983599e+000	 2.000000000000000e+000	 1.763844757508215e+001
0	 3.666649999985415e+000	 1.333299999983334e+000	 1.865611278067050e+001
0	 3.666649999985415e+000	 1.399969999982150e+000	 1.880017152656336e+001
0	 3.666649999985415e+000	 1.466639999981867e+000	 1.886673865639227e+001
0	 3.666649999985415e+000	 1.533309999982383e+000	 1.885662619449800e+001
0	 3.666649999985416e+000	 1.599979999983600e+000	 1.877064616522060e+001
0	 3.666649999985415e+000	 1.666649999985416e+000	 1.860961059289949e+001
0	 3.666649999985415e+000	 1.733319999987733e+000	 1.837433150187340e+001
0	 3.666649999985415e+000	 1.799989999990450e+000	 1.806562091648044e+001
0	 3.666649999985415e+000	 1.866659999993467e+000	 1.768429086105800e+001
0	 3.666649999985415e+000	 1.933329999996684e+000	 1.723115335994280e+001
0	 3.666649999985415e+000	 2.000000000000000e+000	 1.670702043747094e+001
0	 3.733319999987732e+000	 1.333299999983334e+000	 1.743504640800893e+001
0	 3.733319999987732e+000	 1.399969999982150e+000	 1.757440457449756e+001
0	 3.733319999987732e+000	 1.466639999981866e+000	 1.764433114748518e+001
0	 3.733319999987732e+000	 1.533309999982383e+000	 1.764569080481410e+001
0	 3.733319999987731e+000	 1.599979999983600e+000	 1.757934822432597e+001
0	 3.733319999987732e+000	 1.666649999985416e+000	 1.744616808386191e+001
0	 3.733319999987731e+000	 1.733319999987733e+000	 1.724701506126244e+001
0	 3.733319999987732e+000	 1.799989999990450e+000	 1.698275383436746e+001
0	 3.733319999987731e+000	 1.866659999993467e+000	 1.665424908101634e+001
0	 3.733319999987732e+000	 1.933329999996684e+000	 1.626236547904779e+001
0	 3.733319999987732e+000	 2.000000000000000e+000	 1.580796770630001e+001
0	 3.799989999990448e+000	 1.333299999983334e+000	 1.627471990782535e+001
0	 3.799989999990448e+000	 1.399969999982150e+000	 1.640821265577334e+001
0	 3.799989999990447e+000	 1.466639999981866e+000	 1.648036322672807e+001
0	 3.799989999990448e+000	 1.533309999982383e+000	 1.649204945315059e+001
0	 3.799989999990448e+000	 1.599979999983599e+000	 1.644414916750148e+001
0	 3.799989999990448e+000	 1.666649999985416e+000	 1.633754020224077e+001
0	 3.799989999990448e+000	 1.733319999987733e+000	 1.617310038982805e+001
0	 3.799989999990447e+000	 1.799989999990450e+000	 1.595170756272234e+001
0	 3.799989999990447e+000	 1.866659999993466e+000	 1.567423955338217e+001
0	 3.799989999990448e+000	 1.933329999996684e+000	 1.534157419426558e+001
0	 3.799989999990448e+000	 2.000000000000000e+000	 1.495458931783005e+001
0	 3.866659999993464e+000	 1.333299999983334e+000	 1.519648070789720e+001
0	 3.866659999993465e+000	 1.399969999982150e+000	 1.532264034927345e+001
0	 3.866659999993465e+000	 1.466639999981867e+000	 1.539546509071846e+001
0	 3.866659999993465e+000	 1.533309999982383e+000	 1.541580642042941e+001
0	 3.866659999993465e+000	 1.599979999983599e+000	 1.538451582660297e+001
0	 3.866659999993464e+000	 1.666649999985416e+000	 1.530244479743548e+001
0	 3.866659999993465e+000	 1.733319999987734e+000	 1.517044482112276e+001
0	 3.866659999993465e+000	 1.799989999990450e+000	 1.498936738586024e+001
0	 3.866659999993465e+000	 1.866659999993467e+000	 1.476006397984292e+001
0	 3.866659999993465e+000	 1.933329999996683e+000	 1.448338609126532e+001
0	 3.866659999993464e+000	 2.000000000000000e+000	 1.416018520832158e+001
0	 3.933329999996682e+000	 1.333299999983334e+000	 1.422167623600184e+001
0	 3.933329999996682e+000	 1.399969999982150e+000	 1.433873223388050e+001
0	 3.933329999996682e+000	 1.466639999981867e+000	 1.441026693605384e+001
0	 3.933329999996682e+000	 1.533309999982383e+000	 1.443706598757237e+001
0	 3.933329999996682e+000	 1.599979999983600e+000	 1.441991503348626e+001
0	 3.933329999996682e+000	 1.666649999985416e+000	 1.435959971884532e+001
0	 3.933329999996682e+000	 1.733319999987733e+000	 1.425690568869897e+001
0	 3.933329999996682e+000	 1.799989999990450e+000	 1.411261858809626e+001
0	 3.933329999996682e+000	 1.866659999993467e+000	 1.392752406208588e+001
0	 3.933329999996680e+000	 1.933329999996684e+000	 1.370240775571616e+001
0	 3.933329999996682e+000	 2.000000000000000e+000	 1.343805531403506e+001
0	 4.000000000000001e+000	 1.333299999983334e+000	 1.337165391991660e+001
0	 4.000000000000001e+000	 1.399969999982150e+000	 1.347753288847702e+001
0	 4.000000000000001e+000	 1.466639999981866e+000	 1.354539895933149e+001
0	 4.000000000000001e+000	 1.533309999982383e+000	 1.357593243550118e+001
0	 4.000000000000000e+000	 1.599979999983600e+000	 1.356981362000700e+001
0	 4.000000000000001e+000	 1.666649999985416e+000	 1.352772281586950e+001
0	 4.000000000000000e+000	 1.733319999987733e+000	 1.345034032610894e+001
0	 4.000000000000000e+000	 1.799989999990450e+000	 1.333834645374528e+001
0	 4.000000000000000e+000	 1.866659999993466e+000	 1.319242150179821e+001
0	 4.000000000000000e+000	 1.933329999996684e+000	 1.301324577328702e+001
0	 4.000000000000000e+000	 2.000000000000000e+000	 1.280149957123081e+001
0	 3.333299999983334e+000	 2.000000000000000e+000	 2.142190146471286e+001
0	 3.333299999983333e+000	 2.066670000003317e+000	 2.052193842518836e+001
0	 3.333299999983333e+000	 2.133340000006534e+000	 1.965918260675707e+001
0	 3.333299999983334e+000	 2.200010000009551e+000	 1.883286556081357e+001
0	 3.333299999983335e+000	 2.266680000012268e+000	 1.804221883875271e+001
0	 3.333299999983334e+000	 2.333350000014584e+000	 1.728647399196964e+001
0	 3.333299999983334e+000	 2.400020000016401e+000	 1.656486257185977e+001
0	 3.333299999983334e+000	 2.466690000017617e+000	 1.587661612981881e+001
0	 3.333299999983334e+000	 2.533360000018134e+000	 1.522096621724274e+001
0	 3.333299999983334e+000	 2.600030000017851e+000	 1.459714438552778e+001
0	 3.333299999983334e+000	 2.666700000016666e+000	 1.400438218607049e+001
0	 3.399969999982150e+000	 2.000000000000000e+000	 2.049397606394927e+001
0	 3.399969999982149e+000	 2.066670000003317e+000	 1.965894225085784e+001
0	 3.399969999982150e+000	 2.133340000006534e+000	 1.885913387228646e+001
0	 3.399969999982150e+000	 2.200010000009551e+000	 1.809387414830615e+001
0	 3.399969999982150e+000	 2.266680000012268e+000	 1.736248629898818e+001
0	 3.399969999982149e+000	 2.333350000014584e+000	 1.666429354440412e+001
0	 3.399969999982149e+000	 2.400020000016401e+000	 1.599861910462578e+001
0	 3.399969999982150e+000	 2.466690000017617e+000	 1.536478619972525e+001
0	 3.399969999982150e+000	 2.533360000018133e+000	 1.476211804977487e+001
0	 3.399969999982149e+000	 2.600030000017851e+000	 1.418993787484728e+001
0	 3.399969999982150e+000	 2.666700000016667e+000	 1.364756889501535e+001
0	 3.466639999981866e+000	 2.000000000000000e+000	 1.954522532458225e+001
0	 3.466639999981866e+000	 2.066670000003318e+000	 1.877932838280951e+001
0	 3.466639999981865e+000	 2.133340000006534e+000	 1.804641835586957e+001
0	 3.466639999981866e+000	 2.200010000009550e+000	 1.734590218494637e+001
0	 3.466639999981866e+000	 2.266680000012267e+000	 1.667718681122402e+001
0	 3.466639999981866e+000	 2.333350000014584e+000	 1.603967917588694e+001
0	 3.466639999981866e+000	 2.400020000016401e+000	 1.543278622011978e+001
0	 3.466639999981867e+000	 2.466690000017618e+000	 1.485591488510744e+001
0	 3.466639999981867e+000	 2.533360000018134e+000	 1.430847211203507e+001
0	 3.466639999981866e+000	 2.600030000017849e+000	 1.378986484208811e+001
0	 3.466639999981866e+000	 2.666700000016667e+000	 1.329950001645218e+001
0	 3.533309999982382e+000	 2.000000000000000e+000	 1.858894918287288e+001
0	 3.533309999982383e+000	 2.066670000003317e+000	 1.789506268781888e+001
0	 3.533309999982381e+000	 2.133340000006534e+000	 1.723172454803308e+001
0	 3.533309999982382e+000	 2.200010000009551e+000	 1.659841747824868e+001
0	 3.533309999982382e+000	 2.266680000012267e+000	 1.599462419319917e+001
0	 3.533309999982383e+000	 2.333350000014584e+000	 1.541982740761819e+001
0	 3.533309999982383e+000	 2.400020000016401e+000	 1.487350983623969e+001
0	 3.533309999982382e+000	 2.466690000017617e+000	 1.435515419379779e+001
0	 3.533309999982382e+000	 2.533360000018134e+000	 1.386424319502687e+001
0	 3.533309999982382e+000	 2.600030000017850e+000	 1.340025955466159e+001
0	 3.533309999982382e+000	 2.666700000016667e+000	 1.296268598743677e+001
0	 3.599979999983599e+000	 2.000000000000000e+000	 1.763844757508215e+001
0	 3.599979999983598e+000	 2.066670000003316e+000	 1.701811103266140e+001
0	 3.599979999983599e+000	 2.133340000006534e+000	 1.642574093930351e+001
0	 3.599979999983598e+000	 2.200010000009550e+000	 1.586088783572750e+001
0	 3.599979999983599e+000	 2.266680000012268e+000	 1.532310226265251e+001
0	 3.599979999983599e+000	 2.333350000014584e+000	 1.481193476079793e+001
0	 3.599979999983598e+000	 2.400020000016400e+000	 1.432693587088335e+001
0	 3.599979999983598e+000	 2.466690000017617e+000	 1.386765613362862e+001
0	 3.599979999983598e+000	 2.533360000018133e+000	 1.343364608975375e+001
0	 3.599979999983598e+000	 2.600030000017850e+000	 1.302445627997900e+001
0	 3.599979999983599e+000	 2.666700000016666e+000	 1.263963724502484e+001
0	 3.666649999985415e+000	 2.000000000000000e+000	 1.670702043747094e+001
0	 3.666649999985414e+000	 2.066670000003316e+000	 1.616043928411240e+001
0	 3.666649999985415e+000	 2.133340000006534e+000	 1.563915602020740e+001
0	 3.666649999985416e+000	 2.200010000009551e+000	 1.514278106489712e+001
0	 3.666649999985415e+000	 2.266680000012267e+000	 1.467092483732282e+001
0	 3.666649999985416e+000	 2.333350000014584e+000	 1.422319775662606e+001
0	 3.666649999985415e+000	 2.400020000016400e+000	 1.379921024194855e+001
0	 3.666649999985415e+000	 2.466690000017618e+000	 1.339857271243218e+001
0	 3.666649999985415e+000	 2.533360000018134e+000	 1.302089558721909e+001
0	 3.666649999985415e+000	 2.600030000017850e+000	 1.266578928545156e+001
0	 3.666649999985415e+000	 2.666700000016666e+000	 1.233286422627207e+001
0	 3.733319999987732e+000	 2.000000000000000e+000	 1.580796770630001e+001
0	 3.733319999987732e+000	 2.066670000003317e+000	 1.533401330894711e+001
0	 3.733319999987732e+000	 2.133340000006534e+000	 1.488265828127110e+001
0	 3.733319999987733e+000	 2.200010000009550e+000	 1.445356497327169e+001
0	 3.733319999987731e+000	 2.266680000012267e+000	 1.404639573494880e+001
0	 3.733319999987732e+000	 2.333350000014584e+000	 1.366081291630247e+001
0	 3.733319999987731e+000	 2.400020000016401e+000	 1.329647886733295e+001
0	 3.733319999987732e+000	 2.466690000017617e+000	 1.295305593804067e+001
0	 3.733319999987732e+000	 2.533360000018134e+000	 1.263020647842622e+001
0	 3.733319999987733e+000	 2.600030000017851e+000	 1.232759283849036e+001
0	 3.733319999987732e+000	 2.666700000016666e+000	 1.204487736823406e+001
0	 3.799989999990448e+000	 2.000000000000000e+000	 1.495458931783005e+001
0	 3.799989999990448e+000	 2.066670000003317e+000	 1.455079897394069e+001
0	 3.799989999990448e+000	 2.133340000006533e+000	 1.416693621302089e+001
0	 3.799989999990448e+000	 2.200010000009550e+000	 1.380270736836539e+001
0	 3.799989999990448e+000	 2.266680000012268e+000	 1.345781877326905e+001
0	 3.799989999990448e+000	 2.333350000014584e+000	 1.313197676102692e+001
0	 3.799989999990447e+000	 2.400020000016401e+000	 1.282488766493418e+001
0	 3.799989999990449e+000	 2.466690000017618e+000	 1.253625781828617e+001
0	 3.799989999990447e+000	 2.533360000018134e+000	 1.226579355437841e+001
0	 3.799989999990448e+000	 2.600030000017851e+000	 1.201320120650654e+001
0	 3.799989999990448e+000	 2.666700000016667e+000	 1.177818710796637e+001
0	 3.866659999993464e+000	 2.000000000000000e+000	 1.416018520832158e+001
0	 3.866659999993464e+000	 2.066670000003317e+000	 1.382276214586813e+001
0	 3.866659999993465e+000	 2.133340000006534e+000	 1.350267830598294e+001
0	 3.866659999993464e+000	 2.200010000009550e+000	 1.319967605769216e+001
0	 3.866659999993465e+000	 2.266680000012268e+000	 1.291349777002207e+001
0	 3.866659999993465e+000	 2.333350000014584e+000	 1.264388581199908e+001
0	 3.866659999993466e+000	 2.400020000016401e+000	 1.239058255264974e+001
0	 3.866659999993464e+000	 2.466690000017617e+000	 1.215333036100072e+001
0	 3.866659999993465e+000	 2.533360000018134e+000	 1.193187160607885e+001
0	 3.866659999993465e+000	 2.600030000017850e+000	 1.172594865691108e+001
0	 3.866659999993464e+000	 2.666700000016666e+000	 1.153530388252448e+001
0	 3.933329999996682e+000	 2.000000000000000e+000	 1.343805531403506e+001
0	 3.933329999996681e+000	 2.066670000003317e+000	 1.316186869150436e+001
0	 3.933329999996681e+000	 2.133340000006534e+000	 1.290057305068334e+001
0	 3.933329999996681e+000	 2.200010000009551e+000	 1.265393884876596e+001
0	 3.933329999996682e+000	 2.266680000012268e+000	 1.242173654294631e+001
0	 3.933329999996681e+000	 2.333350000014584e+000	 1.220373659041858e+001
0	 3.933329999996682e+000	 2.400020000016401e+000	 1.199970944837710e+001
0	 3.933329999996681e+000	 2.466690000017617e+000	 1.180942557401628e+001
0	 3.933329999996681e+000	 2.533360000018134e+000	 1.163265542453068e+001
0	 3.933329999996681e+000	 2.600030000017850e+000	 1.146916945711494e+001
0	 3.933329999996681e+000	 2.666700000016666e+000	 1.131873812896384e+001
0	 4.000000000000000e+000	 2.000000000000000e+000	 1.280149957123081e+001
0	 4.000000000000001e+000	 2.066670000003318e+000	 1.258008447762418e+001
0	 4.000000000000000e+000	 2.133340000006534e+000	 1.237130893764804e+001
0	 4.000000000000000e+000	 2.200010000009551e+000	 1.217496354910058e+001
0	 4.000000000000001e+000	 2.266680000012268e+000	 1.199083890978007e+001
0	 4.000000000000000e+000	 2.333350000014584e+000	 1.181872561748492e+001
0	 3.999999999999999e+000	 2.400020000016400e+000	 1.165841427001361e+001
0	 4.000000000000001e+000	 2.466690000017618e+000	 1.150969546516472e+001
0	 4.000000000000001e+000	 2.533360000018134e+000	 1.137235980073691e+001
0	 4.000000000000000e+000	 2.600030000017850e+000	 1.124619787452899e+001
0	 4.000000000000000e+000	 2.666700000016667e+000	 1.113100028433981e+001
0	 3.333299999983334e+000	 2.666700000016666e+000	 1.400438218607050e+001
0	 3.333299999983333e+000	 2.733360000014532e+000	 1.345323992273012e+001
0	 3.333299999983334e+000	 2.800020000011600e+000	 1.295444095450325e+001
0	 3.333299999983334e+000	 2.866680000008067e+000	 1.250772127233880e+001
0	 3.333299999983334e+000	 2.933340000004133e+000	 1.211281686718469e+001
0	 3.333299999983334e+000	 3.000000000000000e+000	 1.176946372998794e+001
0	 3.333299999983334e+000	 3.066659999995868e+000	 1.147739785169459e+001
0	 3.333299999983334e+000	 3.133319999991934e+000	 1.123635522324972e+001
0	 3.333299999983334e+000	 3.199979999988400e+000	 1.104607183559745e+001
0	 3.333299999983334e+000	 3.266639999985468e+000	 1.090628367968094e+001
0	 3.333299999983333e+000	 3.333299999983333e+000	 1.081672674644240e+001
0	 3.399969999982150e+000	 2.666700000016667e+000	 1.364756889501535e+001
0	 3.399969999982150e+000	 2.733360000014533e+000	 1.314424101640028e+001
0	 3.399969999982150e+000	 2.800020000011599e+000	 1.268930630028544e+001
0	 3.399969999982149e+000	 2.866680000008067e+000	 1.228250864765309e+001
0	 3.399969999982150e+000	 2.933340000004133e+000	 1.192359195948463e+001
0	 3.399969999982150e+000	 3.000000000000000e+000	 1.161230013676058e+001
0	 3.399969999982149e+000	 3.066659999995866e+000	 1.134837708046054e+001
0	 3.399969999982149e+000	 3.133319999991934e+000	 1.113156669156326e+001
0	 3.399969999982150e+000	 3.199979999988401e+000	 1.096161287104660e+001
0	 3.399969999982150e+000	 3.266639999985469e+000	 1.083825951988751e+001
0	 3.399969999982150e+000	 3.333299999983333e+000	 1.076125053906210e+001
0	 3.466639999981866e+000	 2.666700000016667e+000	 1.329950001645219e+001
0	 3.466639999981867e+000	 2.733360000014534e+000	 1.284529687726957e+001
0	 3.466639999981865e+000	 2.800020000011599e+000	 1.243526380829836e+001
0	 3.466639999981866e+000	 2.866680000008066e+000	 1.206915585100857e+001
0	 3.466639999981866e+000	 2.933340000004133e+000	 1.174672804686934e+001
0	 3.466639999981866e+000	 3.000000000000000e+000	 1.146773543734907e+001
0	 3.466639999981866e+000	 3.066659999995867e+000	 1.123193306391530e+001
0	 3.466639999981866e+000	 3.133319999991934e+000	 1.103907596803481e+001
0	 3.466639999981866e+000	 3.199979999988401e+000	 1.088891919117357e+001
0	 3.466639999981866e+000	 3.266639999985468e+000	 1.078121777479671e+001
0	 3.466639999981865e+000	 3.333299999983333e+000	 1.071572676036858e+001
0	 3.533309999982382e+000	 2.666700000016667e+000	 1.296268598743677e+001
0	 3.533309999982382e+000	 2.733360000014533e+000	 1.255816503635401e+001
0	 3.533309999982382e+000	 2.800020000011600e+000	 1.219340302028002e+001
0	 3.533309999982384e+000	 2.866680000008067e+000	 1.186816935162685e+001
0	 3.533309999982383e+000	 2.933340000004133e+000	 1.158223344280580e+001
0	 3.533309999982383e+000	 3.000000000000001e+000	 1.133536470622750e+001
0	 3.533309999982382e+000	 3.066659999995868e+000	 1.112733255430181e+001
0	 3.533309999982383e+000	 3.133319999991935e+000	 1.095790639943791e+001
0	 3.533309999982383e+000	 3.199979999988402e+000	 1.082685565404420e+001
0	 3.533309999982382e+000	 3.266639999985468e+000	 1.073394973052842e+001
0	 3.533309999982382e+000	 3.333299999983335e+000	 1.067895804129754e+001
0	 3.599979999983599e+000	 2.666700000016666e+000	 1.263963724502485e+001
0	 3.599979999983599e+000	 2.733360000014533e+000	 1.228460302466955e+001
0	 3.599979999983598e+000	 2.800020000011600e+000	 1.196481347796827e+001
0	 3.599979999983598e+000	 2.866680000008066e+000	 1.168005561872946e+001
0	 3.599979999983599e+000	 2.933340000004134e+000	 1.143011646076095e+001
0	 3.599979999983599e+000	 3.000000000000000e+000	 1.121478301786995e+001
0	 3.599979999983598e+000	 3.066659999995866e+000	 1.103384230386302e+001
0	 3.599979999983599e+000	 3.133319999991935e+000	 1.088708133254606e+001
0	 3.599979999983599e+000	 3.199979999988401e+000	 1.077428711772437e+001
0	 3.599979999983599e+000	 3.266639999985468e+000	 1.069524667320257e+001
0	 3.599979999983599e+000	 3.333299999983334e+000	 1.064974701278467e+001
0	 3.666649999985415e+000	 2.666700000016666e+000	 1.233286422627207e+001
0	 3.666649999985415e+000	 2.733360000014533e+000	 1.202636837323212e+001
0	 3.666649999985415e+000	 2.800020000011600e+000	 1.175058472310099e+001
0	 3.666649999985415e+000	 2.866680000008066e+000	 1.150532112153795e+001
0	 3.666649999985415e+000	 2.933340000004133e+000	 1.129038541420171e+001
0	 3.666649999985415e+000	 3.000000000000001e+000	 1.110558544675046e+001
0	 3.666649999985415e+000	 3.066659999995868e+000	 1.095072906484178e+001
0	 3.666649999985415e+000	 3.133319999991935e+000	 1.082562411413274e+001
0	 3.666649999985416e+000	 3.199979999988402e+000	 1.073007844027983e+001
0	 3.666649999985415e+000	 3.266639999985468e+000	 1.066389988893901e+001
0	 3.666649999985414e+000	 3.333299999983333e+000	 1.062689630576566e+001
0	 3.733319999987732e+000	 2.666700000016666e+000	 1.204487736823406e+001
0	 3.733319999987732e+000	 2.733360000014533e+000	 1.178521861305756e+001
0	 3.733319999987731e+000	 2.800020000011599e+000	 1.155180629741598e+001
0	 3.733319999987732e+000	 2.866680000008066e+000	 1.134447232927378e+001
0	 3.733319999987732e+000	 2.933340000004133e+000	 1.116304861659495e+001
0	 3.733319999987731e+000	 3.000000000000000e+000	 1.100736706734298e+001
0	 3.733319999987732e+000	 3.066659999995868e+000	 1.087725958948095e+001
0	 3.733319999987732e+000	 3.133319999991933e+000	 1.077255809097139e+001
0	 3.733319999987732e+000	 3.199979999988401e+000	 1.069309447977640e+001
0	 3.733319999987730e+000	 3.266639999985467e+000	 1.063870066385761e+001
0	 3.733319999987732e+000	 3.333299999983334e+000	 1.060920855117615e+001
0	 3.799989999990448e+000	 2.666700000016667e+000	 1.177818710796637e+001
0	 3.799989999990448e+000	 2.733360000014533e+000	 1.156291127516167e+001
0	 3.799989999990447e+000	 2.800020000011599e+000	 1.136956774265099e+001
0	 3.799989999990448e+000	 2.866680000008066e+000	 1.119801571115838e+001
0	 3.799989999990448e+000	 2.933340000004133e+000	 1.104811438140747e+001
0	 3.799989999990448e+000	 3.000000000000000e+000	 1.091972295412151e+001
0	 3.799989999990449e+000	 3.066659999995867e+000	 1.081270063002334e+001
0	 3.799989999990449e+000	 3.133319999991935e+000	 1.072690660983542e+001
0	 3.799989999990448e+000	 3.199979999988401e+000	 1.066220009427982e+001
0	 3.799989999990448e+000	 3.266639999985468e+000	 1.061844028407819e+001
0	 3.799989999990448e+000	 3.333299999983334e+000	 1.059548637995180e+001
0	 3.866659999993464e+000	 2.666700000016666e+000	 1.153530388252448e+001
0	 3.866659999993464e+000	 2.733360000014533e+000	 1.136120389056018e+001
0	 3.866659999993465e+000	 2.800020000011601e+000	 1.120495860054374e+001
0	 3.866659999993464e+000	 2.866680000008067e+000	 1.106645773641314e+001
0	 3.866659999993465e+000	 2.933340000004133e+000	 1.094559102210609e+001
0	 3.866659999993465e+000	 3.000000000000001e+000	 1.084224818155994e+001
0	 3.866659999993466e+000	 3.066659999995868e+000	 1.075631893871175e+001
0	 3.866659999993465e+000	 3.133319999991935e+000	 1.068769301749824e+001
0	 3.866659999993464e+000	 3.199979999988401e+000	 1.063626014185581e+001
0	 3.866659999993465e+000	 3.266639999985468e+000	 1.060191003572055e+001
0	 3.866659999993464e+000	 3.333299999983333e+000	 1.058453242302822e+001
0	 3.933329999996681e+000	 2.666700000016666e+000	 1.131873812896384e+001
0	 3.933329999996681e+000	 2.733360000014532e+000	 1.118185399026881e+001
0	 3.933329999996682e+000	 2.800020000011600e+000	 1.105906841283186e+001
0	 3.933329999996682e+000	 2.866680000008067e+000	 1.095030487425939e+001
0	 3.933329999996681e+000	 2.933340000004133e+000	 1.085548685215753e+001
0	 3.933329999996681e+000	 3.000000000000000e+000	 1.077453782413216e+001
0	 3.933329999996681e+000	 3.066659999995867e+000	 1.070738126778892e+001
0	 3.933329999996682e+000	 3.133319999991934e+000	 1.065394066073318e+001
0	 3.933329999996682e+000	 3.199979999988401e+000	 1.061413948057009e+001
0	 3.933329999996682e+000	 3.266639999985468e+000	 1.058790120490448e+001
0	 3.933329999996682e+000	 3.333299999983335e+000	 1.057514931134101e+001
0	 4.000000000000000e+000	 2.666700000016667e+000	 1.113100028433981e+001
0	 4.000000000000000e+000	 2.733360000014532e+000	 1.102661910530317e+001
0	 4.000000000000001e+000	 2.800020000011599e+000	 1.093298672125298e+001
0	 4.000000000000001e+000	 2.866680000008067e+000	 1.085006359391842e+001
0	 4.000000000000000e+000	 2.933340000004133e+000	 1.077781018502849e+001
0	 4.000000000000001e+000	 3.000000000000001e+000	 1.071618695631201e+001
0	 4.000000000000001e+000	 3.066659999995868e+000	 1.066515436949756e+001
0	 4.000000000000000e+000	 3.133319999991934e+000	 1.062467288631359e+001
0	 4.000000000000001e+000	 3.199979999988401e+000	 1.059470296848830e+001
0	 4.000000000000000e+000	 3.266639999985468e+000	 1.057520507774975e+001
0	 4.000000000000000e+000	 3.333299999983334e+000	 1.056613967582575e+001
0	 3.333299999983333e+000	 3.333299999983333e+000	 1.081672674644240e+001
0	 3.333299999983334e+000	 3.399969999982149e+000	 1.075421437255135e+001
0	 3.333299999983334e+000	 3.466639999981866e+000	 1.069590383520375e+001
0	 3.333299999983335e+000	 3.533309999982382e+000	 1.064201799503045e+001
0	 3.333299999983334e+000	 3.599979999983599e+000	 1.059277971266233e+001
0	 3.333299999983334e+000	 3.666649999985415e+000	 1.054841184873035e+001
0	 3.333299999983334e+000	 3.733319999987732e+000	 1.050913726386555e+001
0	 3.333299999983333e+000	 3.799989999990448e+000	 1.047517881869902e+001
0	 3.333299999983333e+000	 3.866659999993464e+000	 1.044675937386194e+001
0	 3.333299999983334e+000	 3.933329999996682e+000	 1.042410178998550e+001
0	 3.333299999983334e+000	 4.000000000000000e+000	 1.040742892770101e+001
0	 3.399969999982150e+000	 3.333299999983333e+000	 1.076125053906210e+001
0	 3.399969999982150e+000	 3.399969999982150e+000	 1.070882586434791e+001
0	 3.399969999982150e+000	 3.466639999981867e+000	 1.065957467921109e+001
0	 3.399969999982151e+000	 3.533309999982383e+000	 1.061374048876041e+001
0	 3.399969999982150e+000	 3.599979999983598e+000	 1.057156679810469e+001
0	 3.399969999982150e+000	 3.666649999985415e+000	 1.053329711235277e+001
0	 3.399969999982150e+000	 3.733319999987733e+000	 1.049917493661359e+001
0	 3.399969999982150e+000	 3.799989999990449e+000	 1.046944377599611e+001
0	 3.399969999982150e+000	 3.866659999993464e+000	 1.044434713560936e+001
0	 3.399969999982150e+000	 3.933329999996682e+000	 1.042412852056241e+001
0	 3.399969999982151e+000	 4.000000000000000e+000	 1.040903143596440e+001
0	 3.466639999981865e+000	 3.333299999983333e+000	 1.071572676036858e+001
0	 3.466639999981866e+000	 3.399969999982150e+000	 1.067227806336338e+001
0	 3.466639999981867e+000	 3.466639999981866e+000	 1.063105154915178e+001
0	 3.466639999981866e+000	 3.533309999982383e+000	 1.059230417168116e+001
0	 3.466639999981866e+000	 3.599979999983599e+000	 1.055629288489901e+001
0	 3.466639999981866e+000	 3.666649999985415e+000	 1.052327464275283e+001
0	 3.466639999981866e+000	 3.733319999987732e+000	 1.049350639919014e+001
0	 3.466639999981866e+000	 3.799989999990448e+000	 1.046724510815854e+001
0	 3.466639999981866e+000	 3.866659999993464e+000	 1.044474772360566e+001
0	 3.466639999981866e+000	 3.933329999996682e+000	 1.042627119947915e+001
0	 3.466639999981866e+000	 4.000000000000000e+000	 1.041207248972675e+001
0	 3.533309999982382e+000	 3.333299999983335e+000	 1.067895804129754e+001
0	 3.533309999982383e+000	 3.399969999982151e+000	 1.064343114555234e+001
0	 3.533309999982382e+000	 3.466639999981866e+000	 1.060925963350104e+001
0	 3.533309999982382e+000	 3.533309999982382e+000	 1.057670671229044e+001
0	 3.533309999982382e+000	 3.599979999983599e+000	 1.054603558906737e+001
0	 3.533309999982381e+000	 3.666649999985414e+000	 1.051750947097870e+001
0	 3.533309999982382e+000	 3.733319999987731e+000	 1.049139156517133e+001
0	 3.533309999982382e+000	 3.799989999990447e+000	 1.046794507879222e+001
0	 3.533309999982383e+000	 3.866659999993465e+000	 1.044743321898832e+001
0	 3.533309999982383e+000	 3.933329999996682e+000	 1.043011919290663e+001
0	 3.533309999982383e+000	 4.000000000000001e+000	 1.041626620769419e+001
0	 3.599979999983599e+000	 3.333299999983334e+000	 1.064974701278467e+001
0	 3.599979999983598e+000	 3.399969999982150e+000	 1.062114528686936e+001
0	 3.599979999983599e+000	 3.466639999981866e+000	 1.059312412073416e+001
0	 3.599979999983599e+000	 3.533309999982382e+000	 1.056594577908596e+001
0	 3.599979999983598e+000	 3.599979999983599e+000	 1.053987252663178e+001
0	 3.599979999983598e+000	 3.666649999985415e+000	 1.051516662807856e+001
0	 3.599979999983598e+000	 3.733319999987732e+000	 1.049209034813332e+001
0	 3.599979999983598e+000	 3.799989999990447e+000	 1.047090595150307e+001
0	 3.599979999983599e+000	 3.866659999993465e+000	 1.045187570289486e+001
0	 3.599979999983598e+000	 3.933329999996681e+000	 1.043526186701578e+001
0	 3.599979999983598e+000	 4.000000000000000e+000	 1.042132670857290e+001
0	 3.666649999985414e+000	 3.333299999983333e+000	 1.062689630576566e+001
0	 3.666649999985415e+000	 3.399969999982150e+000	 1.060428066326896e+001
0	 3.666649999985415e+000	 3.466639999981865e+000	 1.058157019932631e+001
0	 3.666649999985415e+000	 3.533309999982383e+000	 1.055901904056549e+001
0	 3.666649999985415e+000	 3.599979999983599e+000	 1.053688131361432e+001
0	 3.666649999985414e+000	 3.666649999985414e+000	 1.051541114510061e+001
0	 3.666649999985416e+000	 3.733319999987732e+000	 1.049486266165222e+001
0	 3.666649999985416e+000	 3.799989999990448e+000	 1.047548998989699e+001
0	 3.666649999985415e+000	 3.866659999993465e+000	 1.045754725646279e+001
0	 3.666649999985415e+000	 3.933329999996682e+000	 1.044128858797751e+001
0	 3.666649999985415e+000	 4.000000000000001e+000	 1.042696811106903e+001
0	 3.733319999987732e+000	 3.333299999983334e+000	 1.060920855117615e+001
0	 3.733319999987733e+000	 3.399969999982150e+000	 1.059169745070568e+001
0	 3.733319999987732e+000	 3.466639999981865e+000	 1.057352305775274e+001
0	 3.733319999987732e+000	 3.533309999982383e+000	 1.055492416522671e+001
0	 3.733319999987731e+000	 3.599979999983598e+000	 1.053613956603701e+001
0	 3.733319999987733e+000	 3.666649999985416e+000	 1.051740805309303e+001
0	 3.733319999987731e+000	 3.733319999987732e+000	 1.049896841930421e+001
0	 3.733319999987732e+000	 3.799989999990448e+000	 1.048105945757992e+001
0	 3.733319999987732e+000	 3.866659999993464e+000	 1.046391996082964e+001
0	 3.733319999987732e+000	 3.933329999996682e+000	 1.044778872196278e+001
0	 3.733319999987732e+000	 4.000000000000001e+000	 1.043290453388876e+001
0	 3.799989999990448e+000	 3.333299999983334e+000	 1.059548637995180e+001
0	 3.799989999990448e+000	 3.399969999982149e+000	 1.058225582513403e+001
0	 3.799989999990449e+000	 3.466639999981867e+000	 1.056790788448864e+001
0	 3.799989999990449e+000	 3.533309999982383e+000	 1.055265882156735e+001
0	 3.799989999990447e+000	 3.599979999983598e+000	 1.053672489992190e+001
0	 3.799989999990448e+000	 3.666649999985415e+000	 1.052032238310401e+001
0	 3.799989999990448e+000	 3.733319999987732e+000	 1.050366753466539e+001
0	 3.799989999990449e+000	 3.799989999990448e+000	 1.048697661815779e+001
0	 3.799989999990448e+000	 3.866659999993465e+000	 1.047046589713293e+001
0	 3.799989999990448e+000	 3.933329999996681e+000	 1.045435163514253e+001
0	 3.799989999990448e+000	 4.000000000000002e+000	 1.043885009573830e+001
0	 3.866659999993464e+000	 3.333299999983333e+000	 1.058453242302822e+001
0	 3.866659999993465e+000	 3.399969999982150e+000	 1.057481596250850e+001
0	 3.866659999993465e+000	 3.466639999981866e+000	 1.056364986800920e+001
0	 3.866659999993465e+000	 3.533309999982382e+000	 1.055122067808510e+001
0	 3.866659999993464e+000	 3.599979999983598e+000	 1.053771493129101e+001
0	 3.866659999993463e+000	 3.666649999985415e+000	 1.052331916618170e+001
0	 3.866659999993464e+000	 3.733319999987732e+000	 1.050821992131195e+001
0	 3.866659999993464e+000	 3.799989999990448e+000	 1.049260373523653e+001
0	 3.866659999993465e+000	 3.866659999993465e+000	 1.047665714651019e+001
0	 3.866659999993465e+000	 3.933329999996682e+000	 1.046056669368770e+001
0	 3.866659999993465e+000	 4.000000000000001e+000	 1.044451891532383e+001
0	 3.933329999996682e+000	 3.333299999983335e+000	 1.057514931134100e+001
0	 3.933329999996682e+000	 3.399969999982150e+000	 1.056823803878358e+001
0	 3.933329999996682e+000	 3.466639999981866e+000	 1.055967419678960e+001
0	 3.933329999996681e+000	 3.533309999982383e+000	 1.054960740327768e+001
0	 3.933329999996682e+000	 3.599979999983599e+000	 1.053818727616639e+001
0	 3.933329999996681e+000	 3.666649999985415e+000	 1.052556343337430e+001
0	 3.933329999996682e+000	 3.733319999987732e+000	 1.051188549282001e+001
0	 3.933329999996682e+000	 3.799989999990449e+000	 1.049730307242204e+001
0	 3.933329999996682e+000	 3.866659999993465e+000	 1.048196579009897e+001
0	 3.933329999996682e+000	 3.933329999996682e+000	 1.046602326376930e+001
0	 3.933329999996682e+000	 4.000000000000000e+000	 1.044962511135157e+001
0	 4.000000000000000e+000	 3.333299999983334e+000	 1.056613967582575e+001
0	 4.000000000000001e+000	 3.399969999982151e+000	 1.056138222991374e+001
0	 4.000000000000001e+000	 3.466639999981866e+000	 1.055490605930502e+001
0	 4.000000000000000e+000	 3.533309999982383e+000	 1.054681666564275e+001
0	 4.000000000000001e+000	 3.599979999983599e+000	 1.053721955057004e+001
0	 4.000000000000000e+000	 3.666649999985415e+000	 1.052622021573000e+001
0	 4.000000000000001e+000	 3.733319999987732e+000	 1.051392416276573e+001
0	 3.999999999999999e+000	 3.799989999990447e+000	 1.050043689332031e+001
0	 4.000000000000000e+000	 3.866659999993465e+000	 1.048586390903679e+001
0	 4.000000000000000e+000	 3.933329999996681e+000	 1.047031071155826e+001
0	 4.000000000000001e+000	 4.000000000000001e+000	 1.045388280252772e+001
0	 3.333299999983334e+000	 4.000000000000000e+000	 1.040742892770101e+001
0	 3.333299999983333e+000	 4.066670000003316e+000	 1.039343444870291e+001
0	 3.333299999983334e+000	 4.133340000006534e+000	 1.037876966771256e+001
0	 3.333299999983334e+000	 4.200010000009550e+000	 1.036359392490171e+001
0	 3.333299999983334e+000	 4.266680000012267e+000	 1.034806656044210e+001
0	 3.333299999983333e+000	 4.333350000014582e+000	 1.033234691450550e+001
0	 3.333299999983334e+000	 4.400020000016401e+000	 1.031659432726365e+001
0	 3.333299999983334e+000	 4.466690000017615e+000	 1.030096813888833e+001
0	 3.333299999983334e+000	 4.533360000018131e+000	 1.028562768955126e+001
0	 3.333299999983334e+000	 4.600030000017849e+000	 1.027073231942426e+001
0	 3.333299999983334e+000	 4.666700000016666e+000	 1.025644136867905e+001
0	 3.399969999982151e+000	 4.000000000000000e+000	 1.040903143596440e+001
0	 3.399969999982149e+000	 4.066670000003316e+000	 1.039629140662100e+001
0	 3.399969999982150e+000	 4.133340000006534e+000	 1.038304022083155e+001
0	 3.399969999982150e+000	 4.200010000009551e+000	 1.036936577894583e+001
0	 3.399969999982150e+000	 4.266680000012266e+000	 1.035535598131358e+001
0	 3.399969999982150e+000	 4.333350000014585e+000	 1.034109872828454e+001
0	 3.399969999982149e+000	 4.400020000016400e+000	 1.032668192020848e+001
0	 3.399969999982150e+000	 4.466690000017615e+000	 1.031219345743514e+001
0	 3.399969999982150e+000	 4.533360000018131e+000	 1.029772124031427e+001
0	 3.399969999982150e+000	 4.600030000017849e+000	 1.028335316919563e+001
0	 3.399969999982150e+000	 4.666700000016667e+000	 1.026917714442895e+001
0	 3.466639999981866e+000	 4.000000000000000e+000	 1.041207248972675e+001
0	 3.466639999981866e+000	 4.066670000003318e+000	 1.039993677464839e+001
0	 3.466639999981865e+000	 4.133340000006532e+000	 1.038749569562673e+001
0	 3.466639999981867e+000	 4.200010000009550e+000	 1.037477589823345e+001
0	 3.466639999981866e+000	 4.266680000012267e+000	 1.036180402804024e+001
0	 3.466639999981867e+000	 4.333350000014584e+000	 1.034860673061884e+001
0	 3.466639999981866e+000	 4.400020000016401e+000	 1.033521065154095e+001
0	 3.466639999981866e+000	 4.466690000017616e+000	 1.032164243637827e+001
0	 3.466639999981866e+000	 4.533360000018133e+000	 1.030792873070250e+001
0	 3.466639999981867e+000	 4.600030000017849e+000	 1.029409618008537e+001
0	 3.466639999981866e+000	 4.666700000016666e+000	 1.028017143009854e+001
0	 3.533309999982383e+000	 4.000000000000001e+000	 1.041626620769419e+001
0	 3.533309999982383e+000	 4.066670000003318e+000	 1.040420478653128e+001
0	 3.533309999982382e+000	 4.133340000006533e+000	 1.039207369839192e+001
0	 3.533309999982382e+000	 4.200010000009550e+000	 1.037984851911374e+001
0	 3.533309999982383e+000	 4.266680000012268e+000	 1.036750482453436e+001
0	 3.533309999982382e+000	 4.333350000014582e+000	 1.035501819049139e+001
0	 3.533309999982382e+000	 4.400020000016400e+000	 1.034236419282248e+001
0	 3.533309999982381e+000	 4.466690000017615e+000	 1.032951840736525e+001
0	 3.533309999982382e+000	 4.533360000018133e+000	 1.031645640995729e+001
0	 3.533309999982383e+000	 4.600030000017848e+000	 1.030315377643626e+001
0	 3.533309999982381e+000	 4.666700000016666e+000	 1.028958608263974e+001
0	 3.599979999983598e+000	 4.000000000000000e+000	 1.042132670857290e+001
0	 3.599979999983598e+000	 4.066670000003317e+000	 1.040892967601579e+001
0	 3.599979999983598e+000	 4.133340000006532e+000	 1.039671183542097e+001
0	 3.599979999983599e+000	 4.200010000009550e+000	 1.038460787793592e+001
0	 3.599979999983599e+000	 4.266680000012268e+000	 1.037255249470814e+001
0	 3.599979999983600e+000	 4.333350000014584e+000	 1.036048037688518e+001
0	 3.599979999983599e+000	 4.400020000016400e+000	 1.034832621561449e+001
0	 3.599979999983599e+000	 4.466690000017616e+000	 1.033602470204359e+001
0	 3.599979999983598e+000	 4.533360000018132e+000	 1.032351052731996e+001
0	 3.599979999983599e+000	 4.600030000017849e+000	 1.031071838259110e+001
0	 3.599979999983599e+000	 4.666700000016667e+000	 1.029758295900450e+001
0	 3.666649999985415e+000	 4.000000000000001e+000	 1.042696811106903e+001
0	 3.666649999985415e+000	 4.066670000003316e+000	 1.041394567684808e+001
0	 3.666649999985415e+000	 4.133340000006535e+000	 1.040134771300768e+001
0	 3.666649999985415e+000	 4.200010000009550e+000	 1.038907821104918e+001
0	 3.666649999985415e+000	 4.266680000012268e+000	 1.037704116247390e+001
0	 3.666649999985415e+000	 4.333350000014582e+000	 1.036514055878319e+001
0	 3.666649999985415e+000	 4.400020000016399e+000	 1.035328039147839e+001
0	 3.666649999985415e+000	 4.466690000017616e+000	 1.034136465206082e+001
0	 3.666649999985415e+000	 4.533360000018133e+000	 1.032929733203179e+001
0	 3.666649999985416e+000	 4.600030000017848e+000	 1.031698242289266e+001
0	 3.666649999985415e+000	 4.666700000016665e+000	 1.030432391614477e+001
0	 3.733319999987732e+000	 4.000000000000001e+000	 1.043290453388876e+001
0	 3.733319999987732e+000	 4.066670000003318e+000	 1.041908702277432e+001
0	 3.733319999987732e+000	 4.133340000006534e+000	 1.040591893744593e+001
0	 3.733319999987732e+000	 4.200010000009550e+000	 1.039328375480275e+001
0	 3.733319999987732e+000	 4.266680000012267e+000	 1.038106495174387e+001
0	 3.733319999987732e+000	 4.333350000014583e+000	 1.036914600516845e+001
0	 3.733319999987731e+000	 4.400020000016400e+000	 1.035741039197561e+001
0	 3.733319999987732e+000	 4.466690000017617e+000	 1.034574158906446e+001
0	 3.733319999987732e+000	 4.533360000018134e+000	 1.033402307333415e+001
0	 3.733319999987732e+000	 4.600030000017848e+000	 1.032213832168379e+001
0	 3.733319999987732e+000	 4.666700000016666e+000	 1.030997081101250e+001
0	 3.799989999990448e+000	 4.000000000000002e+000	 1.043885009573830e+001
0	 3.799989999990449e+000	 4.066670000003317e+000	 1.042418794754070e+001
0	 3.799989999990448e+000	 4.133340000006533e+000	 1.041036311502959e+001
0	 3.799989999990448e+000	 4.200010000009550e+000	 1.039724874554585e+001
0	 3.799989999990448e+000	 4.266680000012267e+000	 1.038471798643034e+001
0	 3.799989999990448e+000	 4.333350000014583e+000	 1.037264398502395e+001
0	 3.799989999990448e+000	 4.400020000016399e+000	 1.036089988866757e+001
0	 3.799989999990447e+000	 4.466690000017616e+000	 1.034935884470207e+001
0	 3.799989999990448e+000	 4.533360000018131e+000	 1.033789400046833e+001
0	 3.799989999990448e+000	 4.600030000017847e+000	 1.032637850330722e+001
0	 3.799989999990448e+000	 4.666700000016667e+000	 1.031468550055963e+001
0	 3.866659999993465e+000	 4.000000000000001e+000	 1.044451891532383e+001
0	 3.866659999993465e+000	 4.066670000003317e+000	 1.042908268489340e+001
0	 3.866659999993465e+000	 4.133340000006534e+000	 1.041461785205251e+001
0	 3.866659999993465e+000	 4.200010000009551e+000	 1.040099741962769e+001
0	 3.866659999993465e+000	 4.266680000012266e+000	 1.038809439044558e+001
0	 3.866659999993465e+000	 4.333350000014582e+000	 1.037578176733272e+001
0	 3.866659999993465e+000	 4.400020000016401e+000	 1.036393255311574e+001
0	 3.866659999993464e+000	 4.466690000017616e+000	 1.035241975062119e+001
0	 3.866659999993464e+000	 4.533360000018132e+000	 1.034111636267567e+001
0	 3.866659999993464e+000	 4.600030000017848e+000	 1.032989539210578e+001
0	 3.866659999993465e+000	 4.666700000016666e+000	 1.031862984173812e+001
0	 3.933329999996682e+000	 4.000000000000000e+000	 1.044962511135157e+001
0	 3.933329999996681e+000	 4.066670000003316e+000	 1.043360546857865e+001
0	 3.933329999996681e+000	 4.133340000006533e+000	 1.041862075480857e+001
0	 3.933329999996682e+000	 4.200010000009550e+000	 1.040455401339755e+001
0	 3.933329999996680e+000	 4.266680000012266e+000	 1.039128828770189e+001
0	 3.933329999996682e+000	 4.333350000014583e+000	 1.037870662107779e+001
0	 3.933329999996681e+000	 4.400020000016400e+000	 1.036669205688153e+001
0	 3.933329999996681e+000	 4.466690000017616e+000	 1.035512763846935e+001
0	 3.933329999996682e+000	 4.533360000018132e+000	 1.034389640919751e+001
0	 3.933329999996681e+000	 4.600030000017848e+000	 1.033288141242229e+001
0	 3.933329999996681e+000	 4.666700000016665e+000	 1.032196569149993e+001
0	 4.000000000000001e+000	 4.000000000000001e+000	 1.045388280252772e+001
0	 4.000000000000000e+000	 4.066670000003317e+000	 1.043759053234264e+001
0	 4.000000000000001e+000	 4.133340000006534e+000	 1.042230942959168e+001
0	 4.000000000000000e+000	 4.200010000009551e+000	 1.040794276320470e+001
0	 4.000000000000001e+000	 4.266680000012266e+000	 1.039439380211158e+001
0	 4.000000000000000e+000	 4.333350000014583e+000	 1.038156581524220e+001
0	 4.000000000000001e+000	 4.400020000016400e+000	 1.036936207152641e+001
0	 4.000000000000000e+000	 4.466690000017617e+000	 1.035768583989411e+001
0	 4.000000000000001e+000	 4.533360000018133e+000	 1.034644038927518e+001
0	 4.000000000000000e+000	 4.600030000017849e+000	 1.033552898859951e+001
0	 4.000000000000001e+000	 4.666700000016666e+000	 1.032485490679700e+001
0	 3.333299999983334e+000	 4.666700000016666e+000	 1.025644136867905e+001
0	 3.333299999983334e+000	 4.733360000014533e+000	 1.024301204478739e+001
0	 3.333299999983334e+000	 4.800020000011600e+000	 1.023052874422029e+001
0	 3.333299999983333e+000	 4.866680000008066e+000	 1.021889786136723e+001
0	 3.333299999983334e+000	 4.933340000004135e+000	 1.020802579061780e+001
0	 3.333299999983334e+000	 5.000000000000000e+000	 1.019781892636147e+001
0	 3.333299999983333e+000	 5.066659999995866e+000	 1.018818366298777e+001
0	 3.333299999983333e+000	 5.133319999991934e+000	 1.017902639488620e+001
0	 3.333299999983334e+000	 5.199979999988399e+000	 1.017025351644623e+001
0	 3.333299999983333e+000	 5.266639999985465e+000	 1.016177142205737e+001
0	 3.333299999983333e+000	 5.333299999983334e+000	 1.015348650610906e+001
0	 3.399969999982150e+000	 4.666700000016667e+000	 1.026917714442895e+001
0	 3.399969999982150e+000	 4.733360000014534e+000	 1.025556066074700e+001
0	 3.399969999982150e+000	 4.800020000011600e+000	 1.024276821781727e+001
0	 3.399969999982150e+000	 4.866680000008066e+000	 1.023073954589121e+001
0	 3.399969999982150e+000	 4.933340000004133e+000	 1.021941437522027e+001
0	 3.399969999982150e+000	 5.000000000000000e+000	 1.020873243605587e+001
0	 3.399969999982149e+000	 5.066659999995866e+000	 1.019863345864939e+001
0	 3.399969999982149e+000	 5.133319999991932e+000	 1.018905717325227e+001
0	 3.399969999982150e+000	 5.199979999988398e+000	 1.017994331011588e+001
0	 3.399969999982151e+000	 5.266639999985468e+000	 1.017123159949162e+001
0	 3.399969999982150e+000	 5.333299999983333e+000	 1.016286177163085e+001
0	 3.466639999981866e+000	 4.666700000016666e+000	 1.028017143009854e+001
0	 3.466639999981867e+000	 4.733360000014533e+000	 1.026657108358849e+001
0	 3.466639999981866e+000	 4.800020000011599e+000	 1.025366872740247e+001
0	 3.466639999981866e+000	 4.866680000008066e+000	 1.024143276568486e+001
0	 3.466639999981866e+000	 4.933340000004134e+000	 1.022983160257995e+001
0	 3.466639999981866e+000	 5.000000000000000e+000	 1.021883364223203e+001
0	 3.466639999981866e+000	 5.066659999995865e+000	 1.020840728878544e+001
0	 3.466639999981866e+000	 5.133319999991931e+000	 1.019852094638443e+001
0	 3.466639999981866e+000	 5.199979999988400e+000	 1.018914301917328e+001
0	 3.466639999981867e+000	 5.266639999985465e+000	 1.018024191129626e+001
0	 3.466639999981865e+000	 5.333299999983334e+000	 1.017178602689762e+001
0	 3.533309999982381e+000	 4.666700000016666e+000	 1.028958608263974e+001
0	 3.533309999982383e+000	 4.733360000014534e+000	 1.027616849469808e+001
0	 3.533309999982382e+000	 4.800020000011601e+000	 1.026332329325803e+001
0	 3.533309999982383e+000	 4.866680000008068e+000	 1.025104289438778e+001
0	 3.533309999982383e+000	 4.933340000004134e+000	 1.023931971415552e+001
0	 3.533309999982383e+000	 5.000000000000001e+000	 1.022814616862941e+001
0	 3.533309999982383e+000	 5.066659999995867e+000	 1.021751467387761e+001
0	 3.533309999982383e+000	 5.133319999991935e+000	 1.020741764596826e+001
0	 3.533309999982382e+000	 5.199979999988400e+000	 1.019784750096951e+001
0	 3.533309999982383e+000	 5.266639999985467e+000	 1.018879665494946e+001
0	 3.533309999982382e+000	 5.333299999983336e+000	 1.018025752397625e+001
0	 3.599979999983599e+000	 4.666700000016667e+000	 1.029758295900450e+001
0	 3.599979999983598e+000	 4.733360000014533e+000	 1.028447807546204e+001
0	 3.599979999983599e+000	 4.800020000011600e+000	 1.027182493566607e+001
0	 3.599979999983598e+000	 4.866680000008066e+000	 1.025963530563963e+001
0	 3.599979999983599e+000	 4.933340000004135e+000	 1.024792095140572e+001
0	 3.599979999983599e+000	 5.000000000000002e+000	 1.023669363898739e+001
0	 3.599979999983599e+000	 5.066659999995866e+000	 1.022596513440761e+001
0	 3.599979999983599e+000	 5.133319999991934e+000	 1.021574720368936e+001
0	 3.599979999983598e+000	 5.199979999988399e+000	 1.020605161285564e+001
0	 3.599979999983598e+000	 5.266639999985465e+000	 1.019689012792938e+001
0	 3.599979999983598e+000	 5.333299999983332e+000	 1.018827451493355e+001
0	 3.666649999985415e+000	 4.666700000016665e+000	 1.030432391614477e+001
0	 3.666649999985415e+000	 4.733360000014534e+000	 1.029162500726659e+001
0	 3.666649999985416e+000	 4.800020000011601e+000	 1.027926667490872e+001
0	 3.666649999985415e+000	 4.866680000008065e+000	 1.026727537308001e+001
0	 3.666649999985414e+000	 4.933340000004133e+000	 1.025567755578928e+001
0	 3.666649999985415e+000	 5.000000000000001e+000	 1.024449967704539e+001
0	 3.666649999985415e+000	 5.066659999995866e+000	 1.023376819085714e+001
0	 3.666649999985415e+000	 5.133319999991933e+000	 1.022350955123333e+001
0	 3.666649999985415e+000	 5.199979999988400e+000	 1.021375021218275e+001
0	 3.666649999985414e+000	 5.266639999985467e+000	 1.020451662771421e+001
0	 3.666649999985414e+000	 5.333299999983333e+000	 1.019583525183644e+001
0	 3.733319999987732e+000	 4.666700000016666e+000	 1.030997081101250e+001
0	 3.733319999987732e+000	 4.733360000014533e+000	 1.029773447149798e+001
0	 3.733319999987731e+000	 4.800020000011599e+000	 1.028574153126811e+001
0	 3.733319999987732e+000	 4.866680000008066e+000	 1.027402847034856e+001
0	 3.733319999987732e+000	 4.933340000004131e+000	 1.026263176876490e+001
0	 3.733319999987731e+000	 5.000000000000001e+000	 1.025158790654282e+001
0	 3.733319999987732e+000	 5.066659999995867e+000	 1.024093336370789e+001
0	 3.733319999987733e+000	 5.133319999991934e+000	 1.023070462028574e+001
0	 3.733319999987732e+000	 5.199979999988399e+000	 1.022093815630194e+001
0	 3.733319999987732e+000	 5.266639999985464e+000	 1.021167045178209e+001
0	 3.733319999987732e+000	 5.333299999983335e+000	 1.020293798675175e+001
0	 3.799989999990448e+000	 4.666700000016667e+000	 1.031468550055964e+001
0	 3.799989999990448e+000	 4.733360000014531e+000	 1.030293164954247e+001
0	 3.799989999990447e+000	 4.800020000011600e+000	 1.029134252502642e+001
0	 3.799989999990448e+000	 4.866680000008067e+000	 1.027995997108490e+001
0	 3.799989999990448e+000	 4.933340000004134e+000	 1.026882583179133e+001
0	 3.799989999990448e+000	 5.000000000000000e+000	 1.025798195121909e+001
0	 3.799989999990449e+000	 5.066659999995868e+000	 1.024747017344158e+001
0	 3.799989999990448e+000	 5.133319999991934e+000	 1.023733234253218e+001
0	 3.799989999990448e+000	 5.199979999988400e+000	 1.022761030256429e+001
0	 3.799989999990447e+000	 5.266639999985466e+000	 1.021834589761122e+001
0	 3.799989999990448e+000	 5.333299999983334e+000	 1.020958097174636e+001
0	 3.866659999993465e+000	 4.666700000016666e+000	 1.031862984173812e+001
0	 3.866659999993465e+000	 4.733360000014532e+000	 1.030734172278629e+001
0	 3.866659999993464e+000	 4.800020000011601e+000	 1.029616267646576e+001
0	 3.866659999993464e+000	 4.866680000008066e+000	 1.028513524892869e+001
0	 3.866659999993465e+000	 4.933340000004133e+000	 1.027430198632724e+001
0	 3.866659999993464e+000	 5.000000000000000e+000	 1.026370543481362e+001
0	 3.866659999993465e+000	 5.066659999995868e+000	 1.025338814053992e+001
0	 3.866659999993464e+000	 5.133319999991934e+000	 1.024339264965829e+001
0	 3.866659999993465e+000	 5.199979999988400e+000	 1.023376150832087e+001
0	 3.866659999993465e+000	 5.266639999985466e+000	 1.022453726267978e+001
0	 3.866659999993464e+000	 5.333299999983333e+000	 1.021576245888713e+001
0	 3.933329999996681e+000	 4.666700000016665e+000	 1.032196569149993e+001
0	 3.933329999996682e+000	 4.733360000014532e+000	 1.031108987261569e+001
0	 3.933329999996682e+000	 4.800020000011600e+000	 1.030029500586827e+001
0	 3.933329999996682e+000	 4.866680000008067e+000	 1.028961967751955e+001
0	 3.933329999996682e+000	 4.933340000004135e+000	 1.027910247383144e+001
0	 3.933329999996681e+000	 5.000000000000000e+000	 1.026878198106583e+001
0	 3.933329999996682e+000	 5.066659999995867e+000	 1.025869678548459e+001
0	 3.933329999996682e+000	 5.133319999991932e+000	 1.024888547334963e+001
0	 3.933329999996681e+000	 5.199979999988400e+000	 1.023938663092279e+001
0	 3.933329999996682e+000	 5.266639999985466e+000	 1.023023884446594e+001
0	 3.933329999996682e+000	 5.333299999983335e+000	 1.022148070024097e+001
0	 4.000000000000001e+000	 4.666700000016666e+000	 1.032485490679700e+001
0	 4.000000000000000e+000	 4.733360000014533e+000	 1.031430128041693e+001
0	 4.000000000000000e+000	 4.800020000011600e+000	 1.030383253351610e+001
0	 4.000000000000001e+000	 4.866680000008067e+000	 1.029347863049711e+001
0	 4.000000000000000e+000	 4.933340000004134e+000	 1.028326953576258e+001
0	 4.000000000000001e+000	 5.000000000000001e+000	 1.027323521371513e+001
0	 4.000000000000000e+000	 5.066659999995866e+000	 1.026340562875734e+001
0	 4.000000000000001e+000	 5.133319999991933e+000	 1.025381074529180e+001
0	 4.000000000000001e+000	 5.199979999988398e+000	 1.024448052772115e+001
0	 4.000000000000000e+000	 5.266639999985467e+000	 1.023544494044793e+001
0	 4.000000000000000e+000	 5.333299999983334e+000	 1.022673394787472e+001
0	 3.333299999983333e+000	 5.333299999983334e+000	 1.015348650610906e+001
0	 3.333299999983333e+000	 5.399969999982149e+000	 1.014535086043871e+001
0	 3.333299999983335e+000	 5.466639999981867e+000	 1.013740998528974e+001
0	 3.333299999983333e+000	 5.533309999982381e+000	 1.012970668940287e+001
0	 3.333299999983334e+000	 5.599979999983598e+000	 1.012228378151885e+001
0	 3.333299999983334e+000	 5.666649999985415e+000	 1.011518407037844e+001
0	 3.333299999983333e+000	 5.733319999987731e+000	 1.010845036472242e+001
0	 3.333299999983334e+000	 5.799989999990448e+000	 1.010212547329154e+001
0	 3.333299999983334e+000	 5.866659999993465e+000	 1.009625220482658e+001
0	 3.333299999983334e+000	 5.933329999996682e+000	 1.009087336806833e+001
0	 3.333299999983334e+000	 6.000000000000000e+000	 1.008603177175756e+001
0	 3.399969999982150e+000	 5.333299999983333e+000	 1.016286177163085e+001
0	 3.399969999982150e+000	 5.399969999982149e+000	 1.015473983590900e+001
0	 3.399969999982150e+000	 5.466639999981865e+000	 1.014683373834575e+001
0	 3.399969999982151e+000	 5.533309999982381e+000	 1.013917241524950e+001
0	 3.399969999982150e+000	 5.599979999983600e+000	 1.013178480292873e+001
0	 3.399969999982149e+000	 5.666649999985415e+000	 1.012469983769184e+001
0	 3.399969999982150e+000	 5.733319999987732e+000	 1.011794645584730e+001
0	 3.399969999982150e+000	 5.799989999990446e+000	 1.011155359370357e+001
0	 3.399969999982151e+000	 5.866659999993466e+000	 1.010555018756909e+001
0	 3.399969999982150e+000	 5.933329999996681e+000	 1.009996517375232e+001
0	 3.399969999982151e+000	 6.000000000000000e+000	 1.009482748856172e+001
0	 3.466639999981865e+000	 5.333299999983334e+000	 1.017178602689762e+001
0	 3.466639999981866e+000	 5.399969999982149e+000	 1.016365362907456e+001
0	 3.466639999981867e+000	 5.466639999981865e+000	 1.015575774889986e+001
0	 3.466639999981866e+000	 5.533309999982380e+000	 1.014811523239801e+001
0	 3.466639999981866e+000	 5.599979999983599e+000	 1.014074292559356e+001
0	 3.466639999981866e+000	 5.666649999985414e+000	 1.013365767451103e+001
0	 3.466639999981866e+000	 5.733319999987733e+000	 1.012687632517497e+001
0	 3.466639999981866e+000	 5.799989999990448e+000	 1.012041572360990e+001
0	 3.466639999981865e+000	 5.866659999993466e+000	 1.011429271584034e+001
0	 3.466639999981867e+000	 5.933329999996682e+000	 1.010852414789086e+001
0	 3.466639999981866e+000	 6.000000000000001e+000	 1.010312686578601e+001
0	 3.533309999982382e+000	 5.333299999983336e+000	 1.018025752397625e+001
0	 3.533309999982384e+000	 5.399969999982149e+000	 1.017209622767399e+001
0	 3.533309999982383e+000	 5.466639999981865e+000	 1.016419078620312e+001
0	 3.533309999982382e+000	 5.533309999982381e+000	 1.015654773745267e+001
0	 3.533309999982382e+000	 5.599979999983598e+000	 1.014917361931165e+001
0	 3.533309999982382e+000	 5.666649999985414e+000	 1.014207496966906e+001
0	 3.533309999982382e+000	 5.733319999987731e+000	 1.013525832641390e+001
0	 3.533309999982383e+000	 5.799989999990449e+000	 1.012873022743523e+001
0	 3.533309999982382e+000	 5.866659999993465e+000	 1.012249721062204e+001
0	 3.533309999982382e+000	 5.933329999996680e+000	 1.011656581386339e+001
0	 3.533309999982383e+000	 5.999999999999999e+000	 1.011094257504830e+001
0	 3.599979999983598e+000	 5.333299999983332e+000	 1.018827451493355e+001
0	 3.599979999983599e+000	 5.399969999982150e+000	 1.018007161944585e+001
0	 3.599979999983599e+000	 5.466639999981866e+000	 1.017214161950664e+001
0	 3.599979999983599e+000	 5.533309999982381e+000	 1.016448252701779e+001
0	 3.599979999983598e+000	 5.599979999983599e+000	 1.015709235388124e+001
0	 3.599979999983598e+000	 5.666649999985415e+000	 1.014996911199886e+001
0	 3.599979999983598e+000	 5.733319999987731e+000	 1.014311081327257e+001
0	 3.599979999983598e+000	 5.799989999990446e+000	 1.013651546960427e+001
0	 3.599979999983599e+000	 5.866659999993464e+000	 1.013018109289587e+001
0	 3.599979999983598e+000	 5.933329999996682e+000	 1.012410569504930e+001
0	 3.599979999983599e+000	 6.000000000000001e+000	 1.011828728796647e+001
0	 3.666649999985414e+000	 5.333299999983333e+000	 1.019583525183644e+001
0	 3.666649999985415e+000	 5.399969999982151e+000	 1.018758379212878e+001
0	 3.666649999985415e+000	 5.466639999981864e+000	 1.017961901806147e+001
0	 3.666649999985415e+000	 5.533309999982382e+000	 1.017193219769770e+001
0	 3.666649999985415e+000	 5.599979999983599e+000	 1.016451459910064e+001
0	 3.666649999985415e+000	 5.666649999985415e+000	 1.015735749033351e+001
0	 3.666649999985415e+000	 5.733319999987732e+000	 1.015045213945948e+001
0	 3.666649999985415e+000	 5.799989999990447e+000	 1.014378981454175e+001
0	 3.666649999985415e+000	 5.866659999993464e+000	 1.013736178364353e+001
0	 3.666649999985415e+000	 5.933329999996682e+000	 1.013115931482800e+001
0	 3.666649999985414e+000	 5.999999999999999e+000	 1.012517367615839e+001
0	 3.733319999987732e+000	 5.333299999983335e+000	 1.020293798675175e+001
0	 3.733319999987733e+000	 5.399969999982149e+000	 1.019463673346136e+001
0	 3.733319999987732e+000	 5.466639999981865e+000	 1.018663175111871e+001
0	 3.733319999987732e+000	 5.533309999982381e+000	 1.017890934609668e+001
0	 3.733319999987732e+000	 5.599979999983598e+000	 1.017145582476814e+001
0	 3.733319999987731e+000	 5.666649999985413e+000	 1.016425749350599e+001
0	 3.733319999987731e+000	 5.733319999987732e+000	 1.015730065868311e+001
0	 3.733319999987733e+000	 5.799989999990449e+000	 1.015057162667237e+001
0	 3.733319999987732e+000	 5.866659999993465e+000	 1.014405670384668e+001
0	 3.733319999987732e+000	 5.933329999996681e+000	 1.013774219657893e+001
0	 3.733319999987732e+000	 5.999999999999999e+000	 1.013161441124198e+001
0	 3.799989999990448e+000	 5.333299999983334e+000	 1.020958097174636e+001
0	 3.799989999990448e+000	 5.399969999982146e+000	 1.020123443118217e+001
0	 3.799989999990448e+000	 5.466639999981866e+000	 1.019318858792940e+001
0	 3.799989999990447e+000	 5.533309999982382e+000	 1.018542656881903e+001
0	 3.799989999990448e+000	 5.599979999983599e+000	 1.017793150068202e+001
0	 3.799989999990447e+000	 5.666649999985414e+000	 1.017068651034933e+001
0	 3.799989999990447e+000	 5.733319999987730e+000	 1.016367472465196e+001
0	 3.799989999990448e+000	 5.799989999990449e+000	 1.015687927042086e+001
0	 3.799989999990447e+000	 5.866659999993463e+000	 1.015028327448705e+001
0	 3.799989999990449e+000	 5.933329999996682e+000	 1.014386986368146e+001
0	 3.799989999990448e+000	 6.000000000000001e+000	 1.013762216483508e+001
0	 3.866659999993464e+000	 5.333299999983333e+000	 1.021576245888714e+001
0	 3.866659999993466e+000	 5.399969999982149e+000	 1.020738087302983e+001
0	 3.866659999993465e+000	 5.466639999981866e+000	 1.019929829774466e+001
0	 3.866659999993465e+000	 5.533309999982382e+000	 1.019149646246910e+001
0	 3.866659999993463e+000	 5.599979999983596e+000	 1.018395709664056e+001
0	 3.866659999993463e+000	 5.666649999985414e+000	 1.017666192969656e+001
0	 3.866659999993465e+000	 5.733319999987731e+000	 1.016959269107453e+001
0	 3.866659999993465e+000	 5.799989999990447e+000	 1.016273111021195e+001
0	 3.866659999993465e+000	 5.866659999993465e+000	 1.015605891654628e+001
0	 3.866659999993465e+000	 5.933329999996682e+000	 1.014955783951502e+001
0	 3.866659999993464e+000	 5.999999999999998e+000	 1.014320960855561e+001
0	 3.933329999996682e+000	 5.333299999983335e+000	 1.022148070024097e+001
0	 3.933329999996682e+000	 5.399969999982149e+000	 1.021308004674296e+001
0	 3.933329999996681e+000	 5.466639999981866e+000	 1.020496964981558e+001
0	 3.933329999996681e+000	 5.533309999982382e+000	 1.019713162365117e+001
0	 3.933329999996681e+000	 5.599979999983598e+000	 1.018954808244208e+001
0	 3.933329999996682e+000	 5.666649999985416e+000	 1.018220114038068e+001
0	 3.933329999996681e+000	 5.733319999987731e+000	 1.017507291165932e+001
0	 3.933329999996682e+000	 5.799989999990448e+000	 1.016814551047034e+001
0	 3.933329999996682e+000	 5.866659999993465e+000	 1.016140105100613e+001
0	 3.933329999996682e+000	 5.933329999996683e+000	 1.015482164745903e+001
0	 3.933329999996682e+000	 5.999999999999999e+000	 1.014838941402144e+001
0	 4.000000000000000e+000	 5.333299999983334e+000	 1.022673394787472e+001
0	 4.000000000000001e+000	 5.399969999982149e+000	 1.021833594006017e+001
0	 4.000000000000001e+000	 5.466639999981867e+000	 1.021021141339324e+001
0	 4.000000000000001e+000	 5.533309999982382e+000	 1.020234464896962e+001
0	 4.000000000000000e+000	 5.599979999983598e+000	 1.019471992788489e+001
0	 4.000000000000001e+000	 5.666649999985415e+000	 1.018732153123473e+001
0	 4.000000000000001e+000	 5.733319999987731e+000	 1.018013374011483e+001
0	 4.000000000000001e+000	 5.799989999990448e+000	 1.017314083562078e+001
0	 4.000000000000001e+000	 5.866659999993465e+000	 1.016632709884826e+001
0	 4.000000000000000e+000	 5.933329999996681e+000	 1.015967681089293e+001
0	 4.000000000000001e+000	 6.000000000000000e+000	 1.015317425285047e+001
0	 3.333299999983334e+000	 6.000000000000000e+000	 1.008603177175756e+001
0	 3.333299999983333e+000	 6.066670000003317e+000	 1.008157285237669e+001
0	 3.333299999983334e+000	 6.133340000006530e+000	 1.007730533063633e+001
0	 3.333299999983334e+000	 6.200010000009549e+000	 1.007321694161953e+001
0	 3.333299999983333e+000	 6.266680000012265e+000	 1.006929542040937e+001
0	 3.333299999983334e+000	 6.333350000014584e+000	 1.006552850208893e+001
0	 3.333299999983334e+000	 6.400020000016399e+000	 1.006190392174126e+001
0	 3.333299999983334e+000	 6.466690000017616e+000	 1.005840941444941e+001
0	 3.333299999983334e+000	 6.533360000018132e+000	 1.005503271529649e+001
0	 3.333299999983333e+000	 6.600030000017847e+000	 1.005176155936555e+001
0	 3.333299999983333e+000	 6.666700000016665e+000	 1.004858368173967e+001
0	 3.399969999982151e+000	 6.000000000000000e+000	 1.009482748856172e+001
0	 3.399969999982149e+000	 6.066670000003314e+000	 1.009002354699079e+001
0	 3.399969999982150e+000	 6.133340000006534e+000	 1.008541530789492e+001
0	 3.399969999982150e+000	 6.200010000009550e+000	 1.008099502337536e+001
0	 3.399969999982150e+000	 6.266680000012268e+000	 1.007675494553340e+001
0	 3.399969999982151e+000	 6.333350000014585e+000	 1.007268732647034e+001
0	 3.399969999982150e+000	 6.400020000016399e+000	 1.006878441828741e+001
0	 3.399969999982150e+000	 6.466690000017615e+000	 1.006503847308598e+001
0	 3.399969999982150e+000	 6.533360000018131e+000	 1.006144174296727e+001
0	 3.399969999982150e+000	 6.600030000017848e+000	 1.005798648003261e+001
0	 3.399969999982150e+000	 6.666700000016665e+000	 1.005466493638328e+001
0	 3.466639999981866e+000	 6.000000000000001e+000	 1.010312686578601e+001
0	 3.466639999981866e+000	 6.066670000003319e+000	 1.009802115809900e+001
0	 3.466639999981866e+000	 6.133340000006535e+000	 1.009311352077953e+001
0	 3.466639999981866e+000	 6.200010000009550e+000	 1.008840011091671e+001
0	 3.466639999981866e+000	 6.266680000012269e+000	 1.008387708559977e+001
0	 3.466639999981866e+000	 6.333350000014583e+000	 1.007954060191787e+001
0	 3.466639999981866e+000	 6.400020000016399e+000	 1.007538681696020e+001
0	 3.466639999981866e+000	 6.466690000017615e+000	 1.007141188781594e+001
0	 3.466639999981866e+000	 6.533360000018132e+000	 1.006761197157429e+001
0	 3.466639999981867e+000	 6.600030000017848e+000	 1.006398322532441e+001
0	 3.466639999981866e+000	 6.666700000016665e+000	 1.006052180615552e+001
0	 3.533309999982383e+000	 5.999999999999999e+000	 1.011094257504830e+001
0	 3.533309999982381e+000	 6.066670000003314e+000	 1.010557521913279e+001
0	 3.533309999982382e+000	 6.133340000006532e+000	 1.010040674584473e+001
0	 3.533309999982382e+000	 6.200010000009549e+000	 1.009543660523089e+001
0	 3.533309999982382e+000	 6.266680000012266e+000	 1.009066424733799e+001
0	 3.533309999982382e+000	 6.333350000014584e+000	 1.008608912221281e+001
0	 3.533309999982383e+000	 6.400020000016400e+000	 1.008171067990210e+001
0	 3.533309999982382e+000	 6.466690000017614e+000	 1.007752837045264e+001
0	 3.533309999982382e+000	 6.533360000018134e+000	 1.007354164391116e+001
0	 3.533309999982382e+000	 6.600030000017846e+000	 1.006974995032447e+001
0	 3.533309999982382e+000	 6.666700000016666e+000	 1.006615273973932e+001
0	 3.599979999983599e+000	 6.000000000000001e+000	 1.011828728796647e+001
0	 3.599979999983597e+000	 6.066670000003316e+000	 1.011269526352366e+001
0	 3.599979999983598e+000	 6.133340000006532e+000	 1.010730175964524e+001
0	 3.599979999983598e+000	 6.200010000009549e+000	 1.010210890730521e+001
0	 3.599979999983598e+000	 6.266680000012264e+000	 1.009711883747759e+001
0	 3.599979999983599e+000	 6.333350000014583e+000	 1.009233368113640e+001
0	 3.599979999983598e+000	 6.400020000016399e+000	 1.008775556925565e+001
0	 3.599979999983599e+000	 6.466690000017617e+000	 1.008338663280937e+001
0	 3.599979999983599e+000	 6.533360000018132e+000	 1.007922900277159e+001
0	 3.599979999983599e+000	 6.600030000017849e+000	 1.007528481011634e+001
0	 3.599979999983599e+000	 6.666700000016668e+000	 1.007155618581763e+001
0	 3.666649999985414e+000	 5.999999999999999e+000	 1.012517367615839e+001
0	 3.666649999985415e+000	 6.066670000003317e+000	 1.011939082470309e+001
0	 3.666649999985415e+000	 6.133340000006533e+000	 1.011380533873563e+001
0	 3.666649999985415e+000	 6.200010000009550e+000	 1.010842141812698e+001
0	 3.666649999985415e+000	 6.266680000012267e+000	 1.010324326274807e+001
0	 3.666649999985415e+000	 6.333350000014583e+000	 1.009827507246989e+001
0	 3.666649999985415e+000	 6.400020000016400e+000	 1.009352104716341e+001
0	 3.666649999985415e+000	 6.466690000017616e+000	 1.008898538669952e+001
0	 3.666649999985416e+000	 6.533360000018130e+000	 1.008467229094925e+001
0	 3.666649999985415e+000	 6.600030000017849e+000	 1.008058595978355e+001
0	 3.666649999985415e+000	 6.666700000016666e+000	 1.007673059307338e+001
0	 3.733319999987732e+000	 5.999999999999999e+000	 1.013161441124198e+001
0	 3.733319999987732e+000	 6.066670000003316e+000	 1.012567143610258e+001
0	 3.733319999987732e+000	 6.133340000006531e+000	 1.011992425967056e+001
0	 3.733319999987732e+000	 6.200010000009550e+000	 1.011437853868351e+001
0	 3.733319999987732e+000	 6.266680000012267e+000	 1.010903992987899e+001
0	 3.733319999987732e+000	 6.333350000014582e+000	 1.010391408999457e+001
0	 3.733319999987732e+000	 6.400020000016399e+000	 1.009900667576784e+001
0	 3.733319999987732e+000	 6.466690000017615e+000	 1.009432334393640e+001
0	 3.733319999987732e+000	 6.533360000018132e+000	 1.008986975123781e+001
0	 3.733319999987731e+000	 6.600030000017848e+000	 1.008565155440967e+001
0	 3.733319999987732e+000	 6.666700000016666e+000	 1.008167441018956e+001
0	 3.799989999990448e+000	 6.000000000000001e+000	 1.013762216483508e+001
0	 3.799989999990448e+000	 6.066670000003319e+000	 1.013154663115363e+001
0	 3.799989999990449e+000	 6.133340000006533e+000	 1.012566529900468e+001
0	 3.799989999990447e+000	 6.200010000009549e+000	 1.011998466996212e+001
0	 3.799989999990448e+000	 6.266680000012267e+000	 1.011451124559984e+001
0	 3.799989999990449e+000	 6.333350000014582e+000	 1.010925152749168e+001
0	 3.799989999990448e+000	 6.400020000016399e+000	 1.010421201721156e+001
0	 3.799989999990447e+000	 6.466690000017615e+000	 1.009939921633335e+001
0	 3.799989999990448e+000	 6.533360000018132e+000	 1.009481962643093e+001
0	 3.799989999990448e+000	 6.600030000017847e+000	 1.009047974907821e+001
0	 3.799989999990448e+000	 6.666700000016666e+000	 1.008638608584905e+001
0	 3.866659999993464e+000	 5.999999999999998e+000	 1.014320960855561e+001
0	 3.866659999993464e+000	 6.066670000003314e+000	 1.013702594328773e+001
0	 3.866659999993465e+000	 6.133340000006532e+000	 1.013103523329261e+001
0	 3.866659999993464e+000	 6.200010000009550e+000	 1.012524421295014e+001
0	 3.866659999993465e+000	 6.266680000012266e+000	 1.011965961664014e+001
0	 3.866659999993465e+000	 6.333350000014581e+000	 1.011428817874249e+001
0	 3.866659999993465e+000	 6.400020000016402e+000	 1.010913663363706e+001
0	 3.866659999993465e+000	 6.466690000017614e+000	 1.010421171570370e+001
0	 3.866659999993465e+000	 6.533360000018132e+000	 1.009952015932231e+001
0	 3.866659999993465e+000	 6.600030000017849e+000	 1.009506869887273e+001
0	 3.866659999993464e+000	 6.666700000016665e+000	 1.009086406873485e+001
0	 3.933329999996682e+000	 5.999999999999999e+000	 1.014838941402144e+001
0	 3.933329999996682e+000	 6.066670000003318e+000	 1.014211890593638e+001
0	 3.933329999996682e+000	 6.133340000006532e+000	 1.013604083908901e+001
0	 3.933329999996682e+000	 6.200010000009550e+000	 1.013016156863486e+001
0	 3.933329999996682e+000	 6.266680000012267e+000	 1.012448744972942e+001
0	 3.933329999996682e+000	 6.333350000014585e+000	 1.011902483752826e+001
0	 3.933329999996682e+000	 6.400020000016398e+000	 1.011378008718688e+001
0	 3.933329999996682e+000	 6.466690000017615e+000	 1.010875955386082e+001
0	 3.933329999996681e+000	 6.533360000018132e+000	 1.010396959270560e+001
0	 3.933329999996681e+000	 6.600030000017847e+000	 1.009941655887677e+001
0	 3.933329999996682e+000	 6.666700000016667e+000	 1.009510680752988e+001
0	 4.000000000000001e+000	 6.000000000000000e+000	 1.015317425285047e+001
0	 4.000000000000000e+000	 6.066670000003316e+000	 1.014683505253108e+001
0	 4.000000000000001e+000	 6.133340000006534e+000	 1.014068889294852e+001
0	 4.000000000000000e+000	 6.200010000009549e+000	 1.013474113800360e+001
0	 4.000000000000000e+000	 6.266680000012267e+000	 1.012899715159723e+001
0	 4.000000000000001e+000	 6.333350000014583e+000	 1.012346229763026e+001
0	 4.000000000000001e+000	 6.400020000016398e+000	 1.011814194000356e+001
0	 4.000000000000001e+000	 6.466690000017616e+000	 1.011304144261801e+001
0	 4.000000000000001e+000	 6.533360000018131e+000	 1.010816616937450e+001
0	 4.000000000000001e+000	 6.600030000017848e+000	 1.010352148417390e+001
0	 4.000000000000000e+000	 6.666700000016667e+000	 1.009911275091708e+001
0	 3.333299999983333e+000	 6.666700000016665e+000	 1.004858368173967e+001
0	 3.333299999983334e+000	 6.733360000014534e+000	 1.004551225480788e+001
0	 3.333299999983334e+000	 6.800020000011599e+000	 1.004257384973751e+001
0	 3.333299999983333e+000	 6.866680000008065e+000	 1.003977771060578e+001
0	 3.333299999983334e+000	 6.933340000004136e+000	 1.003713308148985e+001
0	 3.333299999983334e+000	 7.000000000000001e+000	 1.003464920646688e+001
0	 3.333299999983334e+000	 7.066659999995870e+000	 1.003233532961401e+001
0	 3.333299999983334e+000	 7.133319999991937e+000	 1.003020069500841e+001
0	 3.333299999983334e+000	 7.199979999988403e+000	 1.002825454672725e+001
0	 3.333299999983334e+000	 7.266639999985472e+000	 1.002650612884766e+001
0	 3.333299999983334e+000	 7.333299999983336e+000	 1.002496468544679e+001
0	 3.399969999982150e+000	 6.666700000016665e+000	 1.005466493638328e+001
0	 3.399969999982150e+000	 6.733360000014533e+000	 1.005146967338284e+001
0	 3.399969999982150e+000	 6.800020000011599e+000	 1.004840250845647e+001
0	 3.399969999982149e+000	 6.866680000008065e+000	 1.004547104349467e+001
0	 3.399969999982150e+000	 6.933340000004132e+000	 1.004268288038793e+001
0	 3.399969999982150e+000	 7.000000000000003e+000	 1.004004562102670e+001
0	 3.399969999982150e+000	 7.066659999995868e+000	 1.003756686730147e+001
0	 3.399969999982150e+000	 7.133319999991937e+000	 1.003525422110270e+001
0	 3.399969999982150e+000	 7.199979999988404e+000	 1.003311528432084e+001
0	 3.399969999982150e+000	 7.266639999985472e+000	 1.003115765884634e+001
0	 3.399969999982150e+000	 7.333299999983333e+000	 1.002938894656969e+001
0	 3.466639999981866e+000	 6.666700000016665e+000	 1.006052180615552e+001
0	 3.466639999981866e+000	 6.733360000014534e+000	 1.005720328074403e+001
0	 3.466639999981866e+000	 6.800020000011600e+000	 1.005400884554961e+001
0	 3.466639999981866e+000	 6.866680000008068e+000	 1.005094462282675e+001
0	 3.466639999981866e+000	 6.933340000004136e+000	 1.004801673482994e+001
0	 3.466639999981866e+000	 7.000000000000001e+000	 1.004523130381367e+001
0	 3.466639999981866e+000	 7.066659999995870e+000	 1.004259445203241e+001
0	 3.466639999981866e+000	 7.133319999991937e+000	 1.004011230174064e+001
0	 3.466639999981866e+000	 7.199979999988405e+000	 1.003779097519287e+001
0	 3.466639999981867e+000	 7.266639999985472e+000	 1.003563659464352e+001
0	 3.466639999981866e+000	 7.333299999983334e+000	 1.003365528234708e+001
0	 3.533309999982382e+000	 6.666700000016666e+000	 1.006615273973932e+001
0	 3.533309999982383e+000	 6.733360000014534e+000	 1.006271195687740e+001
0	 3.533309999982382e+000	 6.800020000011600e+000	 1.005939206654881e+001
0	 3.533309999982383e+000	 6.866680000008066e+000	 1.005619787392276e+001
0	 3.533309999982381e+000	 6.933340000004134e+000	 1.005313418416844e+001
0	 3.533309999982382e+000	 7.000000000000002e+000	 1.005020580245507e+001
0	 3.533309999982382e+000	 7.066659999995869e+000	 1.004741753395183e+001
0	 3.533309999982382e+000	 7.133319999991937e+000	 1.004477418382793e+001
0	 3.533309999982381e+000	 7.199979999988403e+000	 1.004228055725255e+001
0	 3.533309999982382e+000	 7.266639999985471e+000	 1.003994145939488e+001
0	 3.533309999982382e+000	 7.333299999983334e+000	 1.003776169542408e+001
0	 3.599979999983599e+000	 6.666700000016668e+000	 1.007155618581763e+001
0	 3.599979999983600e+000	 6.733360000014534e+000	 1.006799458176889e+001
0	 3.599979999983599e+000	 6.800020000011600e+000	 1.006455137698596e+001
0	 3.599979999983599e+000	 6.866680000008067e+000	 1.006123022210347e+001
0	 3.599979999983598e+000	 6.933340000004133e+000	 1.005803476775601e+001
0	 3.599979999983598e+000	 7.000000000000002e+000	 1.005496866457825e+001
0	 3.599979999983598e+000	 7.066659999995869e+000	 1.005203556320476e+001
0	 3.599979999983599e+000	 7.133319999991937e+000	 1.004923911427017e+001
0	 3.599979999983599e+000	 7.199979999988406e+000	 1.004658296840908e+001
0	 3.599979999983598e+000	 7.266639999985472e+000	 1.004407077625612e+001
0	 3.599979999983598e+000	 7.333299999983334e+000	 1.004170618844585e+001
0	 3.666649999985415e+000	 6.666700000016666e+000	 1.007673059307338e+001
0	 3.666649999985416e+000	 6.733360000014534e+000	 1.007305003540445e+001
0	 3.666649999985416e+000	 6.800020000011600e+000	 1.006948598239294e+001
0	 3.666649999985415e+000	 6.866680000008067e+000	 1.006604109268963e+001
0	 3.666649999985415e+000	 6.933340000004133e+000	 1.006271802494523e+001
0	 3.666649999985416e+000	 7.000000000000003e+000	 1.005951943781050e+001
0	 3.666649999985415e+000	 7.066659999995871e+000	 1.005644798993619e+001
0	 3.666649999985415e+000	 7.133319999991936e+000	 1.005350633997301e+001
0	 3.666649999985415e+000	 7.199979999988405e+000	 1.005069714657168e+001
0	 3.666649999985415e+000	 7.266639999985470e+000	 1.004802306838296e+001
0	 3.666649999985415e+000	 7.333299999983333e+000	 1.004548676405752e+001
0	 3.733319999987732e+000	 6.666700000016666e+000	 1.008167441018956e+001
0	 3.733319999987732e+000	 6.733360000014533e+000	 1.007787719777002e+001
0	 3.733319999987731e+000	 6.800020000011600e+000	 1.007419508830163e+001
0	 3.733319999987732e+000	 6.866680000008068e+000	 1.007062991100199e+001
0	 3.733319999987732e+000	 6.933340000004133e+000	 1.006718349508866e+001
0	 3.733319999987732e+000	 7.000000000000002e+000	 1.006385766977919e+001
0	 3.733319999987731e+000	 7.066659999995870e+000	 1.006065426429116e+001
0	 3.733319999987732e+000	 7.133319999991936e+000	 1.005757510784208e+001
0	 3.733319999987732e+000	 7.199979999988404e+000	 1.005462202964954e+001
0	 3.733319999987731e+000	 7.266639999985470e+000	 1.005179685893108e+001
0	 3.733319999987731e+000	 7.333299999983333e+000	 1.004910142490424e+001
0	 3.799989999990448e+000	 6.666700000016666e+000	 1.008638608584905e+001
0	 3.799989999990448e+000	 6.733360000014532e+000	 1.008247494885152e+001
0	 3.799989999990448e+000	 6.800020000011599e+000	 1.007867790024392e+001
0	 3.799989999990448e+000	 6.866680000008067e+000	 1.007499610236135e+001
0	 3.799989999990448e+000	 6.933340000004133e+000	 1.007143071753889e+001
0	 3.799989999990448e+000	 7.000000000000002e+000	 1.006798290811163e+001
0	 3.799989999990447e+000	 7.066659999995869e+000	 1.006465383641465e+001
0	 3.799989999990448e+000	 7.133319999991937e+000	 1.006144466478305e+001
0	 3.799989999990449e+000	 7.199979999988404e+000	 1.005835655555185e+001
0	 3.799989999990448e+000	 7.266639999985471e+000	 1.005539067105621e+001
0	 3.799989999990448e+000	 7.333299999983335e+000	 1.005254817363112e+001
0	 3.866659999993464e+000	 6.666700000016665e+000	 1.009086406873485e+001
0	 3.866659999993465e+000	 6.733360000014534e+000	 1.008684216863494e+001
0	 3.866659999993465e+000	 6.800020000011601e+000	 1.008293362375170e+001
0	 3.866659999993464e+000	 6.866680000008066e+000	 1.007913909208845e+001
0	 3.866659999993465e+000	 6.933340000004132e+000	 1.007545923164848e+001
0	 3.866659999993465e+000	 7.000000000000003e+000	 1.007189470043513e+001
0	 3.866659999993465e+000	 7.066659999995868e+000	 1.006844615645171e+001
0	 3.866659999993465e+000	 7.133319999991937e+000	 1.006511425770152e+001
0	 3.866659999993466e+000	 7.199979999988405e+000	 1.006189966218786e+001
0	 3.866659999993465e+000	 7.266639999985471e+000	 1.005880302791404e+001
0	 3.866659999993464e+000	 7.333299999983333e+000	 1.005582501288333e+001
0	 3.933329999996682e+000	 6.666700000016667e+000	 1.009510680752988e+001
0	 3.933329999996683e+000	 6.733360000014534e+000	 1.009097773710622e+001
0	 3.933329999996682e+000	 6.800020000011600e+000	 1.008696146435685e+001
0	 3.933329999996682e+000	 6.866680000008065e+000	 1.008305830550405e+001
0	 3.933329999996682e+000	 6.933340000004136e+000	 1.007926857677004e+001
0	 3.933329999996682e+000	 7.000000000000002e+000	 1.007559259437706e+001
0	 3.933329999996682e+000	 7.066659999995871e+000	 1.007203067454736e+001
0	 3.933329999996681e+000	 7.133319999991936e+000	 1.006858313350317e+001
0	 3.933329999996681e+000	 7.199979999988402e+000	 1.006525028746673e+001
0	 3.933329999996682e+000	 7.266639999985471e+000	 1.006203245266027e+001
0	 3.933329999996681e+000	 7.333299999983332e+000	 1.005892994530601e+001
0	 4.000000000000000e+000	 6.666700000016667e+000	 1.009911275091708e+001
0	 4.000000000000001e+000	 6.733360000014534e+000	 1.009488053425129e+001
0	 4.000000000000000e+000	 6.800020000011600e+000	 1.009076062759129e+001
0	 4.000000000000000e+000	 6.866680000008067e+000	 1.008675316792892e+001
0	 4.000000000000000e+000	 6.933340000004136e+000	 1.008285829225610e+001
0	 4.000000000000001e+000	 7.000000000000004e+000	 1.007907613756471e+001
0	 4.000000000000000e+000	 7.066659999995868e+000	 1.007540684084659e+001
0	 4.000000000000001e+000	 7.133319999991937e+000	 1.007185053909364e+001
0	 4.000000000000001e+000	 7.199979999988403e+000	 1.006840736929769e+001
0	 4.000000000000001e+000	 7.266639999985472e+000	 1.006507746845061e+001
0	 4.000000000000000e+000	 7.333299999983334e+000	 1.006186097354429e+001
0	 3.333299999983334e+000	 7.333299999983336e+000	 1.002496468544678e+001
0	 3.333299999983334e+000	 7.399969999982150e+000	 1.002355290458435e+001
0	 3.333299999983334e+000	 7.466639999981866e+000	 1.002218791468821e+001
0	 3.333299999983335e+000	 7.533309999982381e+000	 1.002086997462939e+001
0	 3.333299999983334e+000	 7.599979999983599e+000	 1.001959934327895e+001
0	 3.333299999983334e+000	 7.666649999985416e+000	 1.001837627950794e+001
0	 3.333299999983333e+000	 7.733319999987731e+000	 1.001720104218739e+001
0	 3.333299999983334e+000	 7.799989999990448e+000	 1.001607389018837e+001
0	 3.333299999983334e+000	 7.866659999993466e+000	 1.001499508238192e+001
0	 3.333299999983334e+000	 7.933329999996681e+000	 1.001396487763907e+001
0	 3.333299999983334e+000	 8.000000000000000e+000	 1.001298353483091e+001
0	 3.399969999982150e+000	 7.333299999983333e+000	 1.002938894656969e+001
0	 3.399969999982150e+000	 7.399969999982151e+000	 1.002774559883723e+001
0	 3.399969999982150e+000	 7.466639999981865e+000	 1.002615969598309e+001
0	 3.399969999982151e+000	 7.533309999982384e+000	 1.002463153102945e+001
0	 3.399969999982150e+000	 7.599979999983599e+000	 1.002316139699848e+001
0	 3.399969999982150e+000	 7.666649999985415e+000	 1.002174958691231e+001
0	 3.399969999982150e+000	 7.733319999987733e+000	 1.002039639379309e+001
0	 3.399969999982150e+000	 7.799989999990450e+000	 1.001910211066299e+001
0	 3.399969999982150e+000	 7.866659999993464e+000	 1.001786703054414e+001
0	 3.399969999982150e+000	 7.933329999996682e+000	 1.001669144645875e+001
0	 3.399969999982150e+000	 8.000000000000000e+000	 1.001557565142892e+001
0	 3.466639999981866e+000	 7.333299999983334e+000	 1.003365528234708e+001
0	 3.466639999981867e+000	 7.399969999982151e+000	 1.003179547918133e+001
0	 3.466639999981867e+000	 7.466639999981866e+000	 1.003000232785974e+001
0	 3.466639999981866e+000	 7.533309999982382e+000	 1.002827615157334e+001
0	 3.466639999981866e+000	 7.599979999983598e+000	 1.002661727351316e+001
0	 3.466639999981866e+000	 7.666649999985415e+000	 1.002502601687020e+001
0	 3.466639999981866e+000	 7.733319999987730e+000	 1.002350270483548e+001
0	 3.466639999981867e+000	 7.799989999990448e+000	 1.002204766060005e+001
0	 3.466639999981866e+000	 7.866659999993463e+000	 1.002066120735489e+001
0	 3.466639999981866e+000	 7.933329999996683e+000	 1.001934366829105e+001
0	 3.466639999981866e+000	 8.000000000000002e+000	 1.001809536659954e+001
0	 3.533309999982382e+000	 7.333299999983334e+000	 1.003776169542408e+001
0	 3.533309999982383e+000	 7.399969999982149e+000	 1.003570002039943e+001
0	 3.533309999982383e+000	 7.466639999981866e+000	 1.003371284846402e+001
0	 3.533309999982382e+000	 7.533309999982381e+000	 1.003180052899549e+001
0	 3.533309999982383e+000	 7.599979999983599e+000	 1.002996341137148e+001
0	 3.533309999982381e+000	 7.666649999985412e+000	 1.002820184496963e+001
0	 3.533309999982383e+000	 7.733319999987733e+000	 1.002651617916758e+001
0	 3.533309999982382e+000	 7.799989999990447e+000	 1.002490676334299e+001
0	 3.533309999982382e+000	 7.866659999993465e+000	 1.002337394687351e+001
0	 3.533309999982383e+000	 7.933329999996682e+000	 1.002191807913678e+001
0	 3.533309999982382e+000	 7.999999999999997e+000	 1.002053950951043e+001
0	 3.599979999983598e+000	 7.333299999983334e+000	 1.004170618844585e+001
0	 3.599979999983598e+000	 7.399969999982150e+000	 1.003945669727433e+001
0	 3.599979999983599e+000	 7.466639999981867e+000	 1.003728829594181e+001
0	 3.599979999983599e+000	 7.533309999982381e+000	 1.003520135603034e+001
0	 3.599979999983599e+000	 7.599979999983599e+000	 1.003319624912191e+001
0	 3.599979999983598e+000	 7.666649999985414e+000	 1.003127334679857e+001
0	 3.599979999983599e+000	 7.733319999987731e+000	 1.002943302064238e+001
0	 3.599979999983599e+000	 7.799989999990449e+000	 1.002767564223531e+001
0	 3.599979999983600e+000	 7.866659999993467e+000	 1.002600158315943e+001
0	 3.599979999983599e+000	 7.933329999996681e+000	 1.002441121499672e+001
0	 3.599979999983599e+000	 8.000000000000002e+000	 1.002290490932929e+001
0	 3.666649999985415e+000	 7.333299999983333e+000	 1.004548676405752e+001
0	 3.666649999985415e+000	 7.399969999982150e+000	 1.004306298458874e+001
0	 3.666649999985415e+000	 7.466639999981866e+000	 1.004072570843895e+001
0	 3.666649999985415e+000	 7.533309999982382e+000	 1.003847532541228e+001
0	 3.666649999985415e+000	 7.599979999983598e+000	 1.003631222531292e+001
0	 3.666649999985414e+000	 7.666649999985413e+000	 1.003423679794506e+001
0	 3.666649999985415e+000	 7.733319999987730e+000	 1.003224943311282e+001
0	 3.666649999985415e+000	 7.799989999990448e+000	 1.003035052062040e+001
0	 3.666649999985415e+000	 7.866659999993463e+000	 1.002854045027199e+001
0	 3.666649999985415e+000	 7.933329999996681e+000	 1.002681961187173e+001
0	 3.666649999985414e+000	 7.999999999999998e+000	 1.002518839522378e+001
0	 3.733319999987731e+000	 7.333299999983333e+000	 1.004910142490423e+001
0	 3.733319999987732e+000	 7.399969999982150e+000	 1.004651635712546e+001
0	 3.733319999987732e+000	 7.466639999981863e+000	 1.004402212410130e+001
0	 3.733319999987732e+000	 7.533309999982382e+000	 1.004161912987581e+001
0	 3.733319999987731e+000	 7.599979999983598e+000	 1.003930777849304e+001
0	 3.733319999987733e+000	 7.666649999985415e+000	 1.003708847399705e+001
0	 3.733319999987731e+000	 7.733319999987730e+000	 1.003496162043195e+001
0	 3.733319999987732e+000	 7.799989999990449e+000	 1.003292762184177e+001
0	 3.733319999987732e+000	 7.866659999993464e+000	 1.003098688227061e+001
0	 3.733319999987732e+000	 7.933329999996682e+000	 1.002913980576255e+001
0	 3.733319999987732e+000	 8.000000000000002e+000	 1.002738679636162e+001
0	 3.799989999990448e+000	 7.333299999983335e+000	 1.005254817363112e+001
0	 3.799989999990448e+000	 7.399969999982149e+000	 1.004981428966726e+001
0	 3.799989999990448e+000	 7.466639999981866e+000	 1.004717458107477e+001
0	 3.799989999990449e+000	 7.533309999982382e+000	 1.004462946215532e+001
0	 3.799989999990448e+000	 7.599979999983599e+000	 1.004217934721069e+001
0	 3.799989999990448e+000	 7.666649999985415e+000	 1.003982465054257e+001
0	 3.799989999990448e+000	 7.733319999987731e+000	 1.003756578645270e+001
0	 3.799989999990449e+000	 7.799989999990449e+000	 1.003540316924284e+001
0	 3.799989999990448e+000	 7.866659999993463e+000	 1.003333721321468e+001
0	 3.799989999990449e+000	 7.933329999996682e+000	 1.003136833266996e+001
0	 3.799989999990448e+000	 8.000000000000002e+000	 1.002949694191046e+001
0	 3.866659999993464e+000	 7.333299999983333e+000	 1.005582501288333e+001
0	 3.866659999993465e+000	 7.399969999982150e+000	 1.005295425699691e+001
0	 3.866659999993464e+000	 7.466639999981866e+000	 1.005018011750517e+001
0	 3.866659999993465e+000	 7.533309999982382e+000	 1.004750301498528e+001
0	 3.866659999993464e+000	 7.599979999983598e+000	 1.004492337001437e+001
0	 3.866659999993465e+000	 7.666649999985417e+000	 1.004244160316960e+001
0	 3.866659999993464e+000	 7.733319999987731e+000	 1.004005813502811e+001
0	 3.866659999993464e+000	 7.799989999990449e+000	 1.003777338616705e+001
0	 3.866659999993466e+000	 7.866659999993464e+000	 1.003558777716358e+001
0	 3.866659999993466e+000	 7.933329999996682e+000	 1.003350172859483e+001
0	 3.866659999993465e+000	 8.000000000000000e+000	 1.003151566103799e+001
0	 3.933329999996681e+000	 7.333299999983332e+000	 1.005892994530601e+001
0	 3.933329999996682e+000	 7.399969999982150e+000	 1.005593373389715e+001
0	 3.933329999996682e+000	 7.466639999981867e+000	 1.005303577153840e+001
0	 3.933329999996681e+000	 7.533309999982382e+000	 1.005023648110011e+001
0	 3.933329999996681e+000	 7.599979999983597e+000	 1.004753628545258e+001
0	 3.933329999996681e+000	 7.666649999985414e+000	 1.004493560746617e+001
0	 3.933329999996681e+000	 7.733319999987731e+000	 1.004243487001115e+001
0	 3.933329999996681e+000	 7.799989999990448e+000	 1.004003449595789e+001
0	 3.933329999996682e+000	 7.866659999993464e+000	 1.003773490817670e+001
0	 3.933329999996681e+000	 7.933329999996681e+000	 1.003553652953790e+001
0	 3.933329999996682e+000	 8.000000000000000e+000	 1.003343978291186e+001
0	 4.000000000000000e+000	 7.333299999983334e+000	 1.006186097354429e+001
0	 4.000000000000001e+000	 7.399969999982151e+000	 1.005875019515076e+001
0	 4.000000000000001e+000	 7.466639999981867e+000	 1.005573858132033e+001
0	 4.000000000000000e+000	 7.533309999982382e+000	 1.005282655323428e+001
0	 4.000000000000001e+000	 7.599979999983599e+000	 1.005001453207381e+001
0	 4.000000000000000e+000	 7.666649999985416e+000	 1.004730293902024e+001
0	 4.000000000000001e+000	 7.733319999987733e+000	 1.004469219525483e+001
0	 4.000000000000000e+000	 7.799989999990449e+000	 1.004218272195879e+001
0	 4.000000000000000e+000	 7.866659999993463e+000	 1.003977494031344e+001
0	 4.000000000000000e+000	 7.933329999996682e+000	 1.003746927150002e+001
0	 4.000000000000000e+000	 7.999999999999998e+000	 1.003526613669980e+001
0	 3.333299999983334e+000	 8.000000000000000e+000	 1.001298353483091e+001
0	 3.333299999983333e+000	 8.066670000003315e+000	 1.001204723827084e+001
0	 3.333299999983333e+000	 8.133340000006530e+000	 1.001115304690328e+001
0	 3.333299999983334e+000	 8.200010000009550e+000	 1.001030253154594e+001
0	 3.333299999983333e+000	 8.266680000012267e+000	 1.000949726301641e+001
0	 3.333299999983334e+000	 8.333350000014583e+000	 1.000873881213233e+001
0	 3.333299999983333e+000	 8.400020000016399e+000	 1.000802874971139e+001
0	 3.333299999983334e+000	 8.466690000017616e+000	 1.000736864657119e+001
0	 3.333299999983334e+000	 8.533360000018131e+000	 1.000676007352940e+001
0	 3.333299999983334e+000	 8.600030000017847e+000	 1.000620460140364e+001
0	 3.333299999983333e+000	 8.666700000016666e+000	 1.000570380101156e+001
0	 3.399969999982150e+000	 8.000000000000000e+000	 1.001557565142892e+001
0	 3.399969999982150e+000	 8.066670000003315e+000	 1.001451016351725e+001
0	 3.399969999982150e+000	 8.133340000006532e+000	 1.001348637408613e+001
0	 3.399969999982150e+000	 8.200010000009549e+000	 1.001250588610756e+001
0	 3.399969999982150e+000	 8.266680000012265e+000	 1.001157030255361e+001
0	 3.399969999982150e+000	 8.333350000014582e+000	 1.001068122639622e+001
0	 3.399969999982150e+000	 8.400020000016399e+000	 1.000984026060742e+001
0	 3.399969999982151e+000	 8.466690000017616e+000	 1.000904900815921e+001
0	 3.399969999982150e+000	 8.533360000018128e+000	 1.000830907202361e+001
0	 3.399969999982150e+000	 8.600030000017847e+000	 1.000762205517263e+001
0	 3.399969999982150e+000	 8.666700000016670e+000	 1.000698956057824e+001
0	 3.466639999981866e+000	 8.000000000000002e+000	 1.001809536659954e+001
0	 3.466639999981866e+000	 8.066670000003319e+000	 1.001690224350837e+001
0	 3.466639999981866e+000	 8.133340000006532e+000	 1.001575108703471e+001
0	 3.466639999981867e+000	 8.200010000009554e+000	 1.001464349055337e+001
0	 3.466639999981866e+000	 8.266680000012267e+000	 1.001358104743915e+001
0	 3.466639999981866e+000	 8.333350000014585e+000	 1.001256535106682e+001
0	 3.466639999981866e+000	 8.400020000016397e+000	 1.001159799481123e+001
0	 3.466639999981866e+000	 8.466690000017614e+000	 1.001068057204712e+001
0	 3.466639999981866e+000	 8.533360000018133e+000	 1.000981467614934e+001
0	 3.466639999981866e+000	 8.600030000017846e+000	 1.000900190049268e+001
0	 3.466639999981866e+000	 8.666700000016668e+000	 1.000824383845193e+001
0	 3.533309999982382e+000	 7.999999999999997e+000	 1.002053950951043e+001
0	 3.533309999982382e+000	 8.066670000003313e+000	 1.001922061815156e+001
0	 3.533309999982383e+000	 8.133340000006530e+000	 1.001794458031613e+001
0	 3.533309999982382e+000	 8.200010000009550e+000	 1.001671293803014e+001
0	 3.533309999982383e+000	 8.266680000012267e+000	 1.001552723331966e+001
0	 3.533309999982381e+000	 8.333350000014582e+000	 1.001438900821072e+001
0	 3.533309999982383e+000	 8.400020000016401e+000	 1.001329980472931e+001
0	 3.533309999982382e+000	 8.466690000017612e+000	 1.001226116490146e+001
0	 3.533309999982383e+000	 8.533360000018135e+000	 1.001127463075323e+001
0	 3.533309999982383e+000	 8.600030000017847e+000	 1.001034174431063e+001
0	 3.533309999982382e+000	 8.666700000016668e+000	 1.000946404759970e+001
0	 3.599979999983599e+000	 8.000000000000002e+000	 1.002290490932929e+001
0	 3.599979999983598e+000	 8.066670000003315e+000	 1.002146242735412e+001
0	 3.599979999983598e+000	 8.133340000006532e+000	 1.002006424849737e+001
0	 3.599979999983598e+000	 8.200010000009549e+000	 1.001871182168473e+001
0	 3.599979999983599e+000	 8.266680000012268e+000	 1.001740659584187e+001
0	 3.599979999983599e+000	 8.333350000014582e+000	 1.001615001989447e+001
0	 3.599979999983598e+000	 8.400020000016399e+000	 1.001494354276823e+001
0	 3.599979999983599e+000	 8.466690000017614e+000	 1.001378861338882e+001
0	 3.599979999983598e+000	 8.533360000018131e+000	 1.001268668068195e+001
0	 3.599979999983600e+000	 8.600030000017849e+000	 1.001163919357330e+001
0	 3.599979999983598e+000	 8.666700000016668e+000	 1.001064760098855e+001
0	 3.666649999985414e+000	 7.999999999999998e+000	 1.002518839522378e+001
0	 3.666649999985415e+000	 8.066670000003317e+000	 1.002362481102343e+001
0	 3.666649999985415e+000	 8.133340000006538e+000	 1.002210748614554e+001
0	 3.666649999985415e+000	 8.200010000009549e+000	 1.002063773466393e+001
0	 3.666649999985416e+000	 8.266680000012268e+000	 1.001921687065239e+001
0	 3.666649999985416e+000	 8.333350000014582e+000	 1.001784620818463e+001
0	 3.666649999985415e+000	 8.400020000016397e+000	 1.001652706133451e+001
0	 3.666649999985415e+000	 8.466690000017614e+000	 1.001526074417575e+001
0	 3.666649999985416e+000	 8.533360000018133e+000	 1.001404857078215e+001
0	 3.666649999985415e+000	 8.600030000017849e+000	 1.001289185522747e+001
0	 3.666649999985415e+000	 8.666700000016668e+000	 1.001179191158551e+001
0	 3.733319999987732e+000	 8.000000000000002e+000	 1.002738679636162e+001
0	 3.733319999987732e+000	 8.066670000003315e+000	 1.002570490906675e+001
0	 3.733319999987732e+000	 8.133340000006532e+000	 1.002407168782765e+001
0	 3.733319999987732e+000	 8.200010000009552e+000	 1.002248827011460e+001
0	 3.733319999987732e+000	 8.266680000012268e+000	 1.002095579339787e+001
0	 3.733319999987732e+000	 8.333350000014585e+000	 1.001947539514781e+001
0	 3.733319999987731e+000	 8.400020000016397e+000	 1.001804821283468e+001
0	 3.733319999987732e+000	 8.466690000017616e+000	 1.001667538392881e+001
0	 3.733319999987732e+000	 8.533360000018131e+000	 1.001535804590046e+001
0	 3.733319999987731e+000	 8.600030000017849e+000	 1.001409733622000e+001
0	 3.733319999987732e+000	 8.666700000016665e+000	 1.001289439235767e+001
0	 3.799989999990448e+000	 8.000000000000002e+000	 1.002949694191046e+001
0	 3.799989999990449e+000	 8.066670000003317e+000	 1.002769986139148e+001
0	 3.799989999990448e+000	 8.133340000006534e+000	 1.002595424811073e+001
0	 3.799989999990447e+000	 8.200010000009547e+000	 1.002426102118351e+001
0	 3.799989999990448e+000	 8.266680000012263e+000	 1.002262109972501e+001
0	 3.799989999990448e+000	 8.333350000014583e+000	 1.002103540285054e+001
0	 3.799989999990447e+000	 8.400020000016397e+000	 1.001950484967528e+001
0	 3.799989999990448e+000	 8.466690000017616e+000	 1.001803035931456e+001
0	 3.799989999990448e+000	 8.533360000018131e+000	 1.001661285088360e+001
0	 3.799989999990449e+000	 8.600030000017849e+000	 1.001525324349768e+001
0	 3.799989999990447e+000	 8.666700000016666e+000	 1.001395245627202e+001
0	 3.866659999993465e+000	 8.000000000000000e+000	 1.003151566103799e+001
0	 3.866659999993464e+000	 8.066670000003315e+000	 1.002960680790492e+001
0	 3.866659999993465e+000	 8.133340000006532e+000	 1.002775256156190e+001
0	 3.866659999993465e+000	 8.200010000009552e+000	 1.002595358101754e+001
0	 3.866659999993465e+000	 8.266680000012267e+000	 1.002421052528049e+001
0	 3.866659999993465e+000	 8.333350000014583e+000	 1.002252405335938e+001
0	 3.866659999993465e+000	 8.400020000016401e+000	 1.002089482426287e+001
0	 3.866659999993465e+000	 8.466690000017614e+000	 1.001932349699960e+001
0	 3.866659999993465e+000	 8.533360000018133e+000	 1.001781073057819e+001
0	 3.866659999993465e+000	 8.600030000017847e+000	 1.001635718400731e+001
0	 3.866659999993465e+000	 8.666700000016666e+000	 1.001496351629561e+001
0	 3.933329999996682e+000	 8.000000000000000e+000	 1.003343978291186e+001
0	 3.933329999996682e+000	 8.066670000003317e+000	 1.003142288851439e+001
0	 3.933329999996682e+000	 8.133340000006532e+000	 1.002946402274811e+001
0	 3.933329999996682e+000	 8.200010000009552e+000	 1.002756354276345e+001
0	 3.933329999996681e+000	 8.266680000012265e+000	 1.002572180571092e+001
0	 3.933329999996682e+000	 8.333350000014583e+000	 1.002393916874092e+001
0	 3.933329999996682e+000	 8.400020000016401e+000	 1.002221598900394e+001
0	 3.933329999996682e+000	 8.466690000017616e+000	 1.002055262365045e+001
0	 3.933329999996682e+000	 8.533360000018131e+000	 1.001894942983090e+001
0	 3.933329999996681e+000	 8.600030000017846e+000	 1.001740676469577e+001
0	 3.933329999996682e+000	 8.666700000016668e+000	 1.001592498539549e+001
0	 4.000000000000000e+000	 7.999999999999998e+000	 1.003526613669980e+001
0	 4.000000000000000e+000	 8.066670000003319e+000	 1.003314524312726e+001
0	 4.000000000000000e+000	 8.133340000006534e+000	 1.003108602623645e+001
0	 4.000000000000001e+000	 8.200010000009550e+000	 1.002908849956814e+001
0	 4.000000000000000e+000	 8.266680000012265e+000	 1.002715267666299e+001
0	 4.000000000000000e+000	 8.333350000014583e+000	 1.002527857106173e+001
0	 4.000000000000001e+000	 8.400020000016399e+000	 1.002346619630506e+001
0	 4.000000000000001e+000	 8.466690000017616e+000	 1.002171556593370e+001
0	 4.000000000000001e+000	 8.533360000018131e+000	 1.002002669348839e+001
0	 4.000000000000001e+000	 8.600030000017847e+000	 1.001839959250981e+001
0	 4.000000000000000e+000	 8.666700000016666e+000	 1.001683427653869e+001
0	 3.333299999983333e+000	 8.666700000016666e+000	 1.000570380101156e+001
0	 3.333299999983334e+000	 8.733360002791903e+000	 1.000523903897301e+001
0	 3.333299999983333e+000	 8.800020022230553e+000	 1.000479009996415e+001
0	 3.333299999983334e+000	 8.866680074997039e+000	 1.000435639466626e+001
0	 3.333299999983334e+000	 8.933340177755776e+000	 1.000393733371571e+001
0	 3.333299999983334e+000	 9.000000347171181e+000	 1.000353232770393e+001
0	 3.333299999983334e+000	 9.066660599907667e+000	 1.000314078717745e+001
0	 3.333299999983334e+000	 9.133320952629649e+000	 1.000276212263786e+001
0	 3.333299999983333e+000	 9.199981422001553e+000	 1.000239574454183e+001
0	 3.333299999983334e+000	 9.266642024687794e+000	 1.000204106330101e+001
0	 3.333299999983334e+000	 9.333302777352785e+000	 1.000169748928224e+001
0	 3.399969999982150e+000	 8.666700000016670e+000	 1.000698956057824e+001
0	 3.399969999982150e+000	 8.733360002791903e+000	 1.000639754547455e+001
0	 3.399969999982150e+000	 8.800020022230555e+000	 1.000582998708770e+001
0	 3.399969999982150e+000	 8.866680074997044e+000	 1.000528579043120e+001
0	 3.399969999982150e+000	 8.933340177755772e+000	 1.000476386045494e+001
0	 3.399969999982150e+000	 9.000000347171181e+000	 1.000426310204515e+001
0	 3.399969999982150e+000	 9.066660599907666e+000	 1.000378242002451e+001
0	 3.399969999982150e+000	 9.133320952629651e+000	 1.000332071915206e+001
0	 3.399969999982151e+000	 9.199981422001560e+000	 1.000287690412321e+001
0	 3.399969999982150e+000	 9.266642024687794e+000	 1.000244987956969e+001
0	 3.399969999982149e+000	 9.333302777352781e+000	 1.000203855005969e+001
0	 3.466639999981866e+000	 8.666700000016668e+000	 1.000824383845193e+001
0	 3.466639999981866e+000	 8.733360002791899e+000	 1.000753045211582e+001
0	 3.466639999981866e+000	 8.800020022230552e+000	 1.000684939285954e+001
0	 3.466639999981866e+000	 8.866680074997040e+000	 1.000619911648863e+001
0	 3.466639999981866e+000	 8.933340177755778e+000	 1.000557807872739e+001
0	 3.466639999981866e+000	 9.000000347171181e+000	 1.000498473521900e+001
0	 3.466639999981866e+000	 9.066660599907666e+000	 1.000441754152530e+001
0	 3.466639999981866e+000	 9.133320952629651e+000	 1.000387495312701e+001
0	 3.466639999981866e+000	 9.199981422001555e+000	 1.000335542542348e+001
0	 3.466639999981866e+000	 9.266642024687792e+000	 1.000285741373298e+001
0	 3.466639999981866e+000	 9.333302777352783e+000	 1.000237937329243e+001
0	 3.533309999982382e+000	 8.666700000016668e+000	 1.000946404759970e+001
0	 3.533309999982382e+000	 8.733360002791903e+000	 1.000863496958339e+001
0	 3.533309999982382e+000	 8.800020022230553e+000	 1.000784536509766e+001
0	 3.533309999982382e+000	 8.866680074997040e+000	 1.000709329720003e+001
0	 3.533309999982382e+000	 8.933340177755776e+000	 1.000637682885022e+001
0	 3.533309999982382e+000	 9.000000347171181e+000	 1.000569402291016e+001
0	 3.533309999982382e+000	 9.066660599907667e+000	 1.000504294214404e+001
0	 3.533309999982383e+000	 9.133320952629655e+000	 1.000442164921814e+001
0	 3.533309999982383e+000	 9.199981422001553e+000	 1.000382820670099e+001
0	 3.533309999982383e+000	 9.266642024687792e+000	 1.000326067706327e+001
0	 3.533309999982383e+000	 9.333302777352783e+000	 1.000271712267786e+001
0	 3.599979999983598e+000	 8.666700000016668e+000	 1.001064760098855e+001
0	 3.599979999983598e+000	 8.733360002791901e+000	 1.000970830856377e+001
0	 3.599979999983600e+000	 8.800020022230557e+000	 1.000881495162007e+001
0	 3.599979999983599e+000	 8.866680074997044e+000	 1.000796525692689e+001
0	 3.599979999983598e+000	 8.933340177755776e+000	 1.000715695114042e+001
0	 3.599979999983599e+000	 9.000000347171181e+000	 1.000638776080333e+001
0	 3.599979999983599e+000	 9.066660599907662e+000	 1.000565541234488e+001
0	 3.599979999983599e+000	 9.133320952629651e+000	 1.000495763208098e+001
0	 3.599979999983598e+000	 9.199981422001555e+000	 1.000429214621403e+001
0	 3.599979999983599e+000	 9.266642024687792e+000	 1.000365668083300e+001
0	 3.599979999983598e+000	 9.333302777352785e+000	 1.000304896191345e+001
0	 3.666649999985415e+000	 8.666700000016668e+000	 1.001179191158551e+001
0	 3.666649999985415e+000	 8.733360002791903e+000	 1.001074767974351e+001
0	 3.666649999985416e+000	 8.800020022230555e+000	 1.000975520024472e+001
0	 3.666649999985415e+000	 8.866680074997040e+000	 1.000881192003077e+001
0	 3.666649999985414e+000	 8.933340177755776e+000	 1.000791528591512e+001
0	 3.666649999985415e+000	 9.000000347171179e+000	 1.000706274458314e+001
0	 3.666649999985415e+000	 9.066660599907666e+000	 1.000625174259206e+001
0	 3.666649999985415e+000	 9.133320952629653e+000	 1.000547972637098e+001
0	 3.666649999985414e+000	 9.199981422001557e+000	 1.000474414222086e+001
0	 3.666649999985415e+000	 9.266642024687791e+000	 1.000404243631454e+001
0	 3.666649999985415e+000	 9.333302777352783e+000	 1.000337205469671e+001
0	 3.733319999987732e+000	 8.666700000016665e+000	 1.001289439235767e+001
0	 3.733319999987732e+000	 8.733360002791905e+000	 1.001175029380911e+001
0	 3.733319999987732e+000	 8.800020022230553e+000	 1.001066315878968e+001
0	 3.733319999987732e+000	 8.866680074997039e+000	 1.000963021087314e+001
0	 3.733319999987732e+000	 8.933340177755772e+000	 1.000864867349138e+001
0	 3.733319999987731e+000	 9.000000347171177e+000	 1.000771576993428e+001
0	 3.733319999987732e+000	 9.066660599907667e+000	 1.000682872334973e+001
0	 3.733319999987731e+000	 9.133320952629653e+000	 1.000598475674361e+001
0	 3.733319999987732e+000	 9.199981422001553e+000	 1.000518109297984e+001
0	 3.733319999987733e+000	 9.266642024687791e+000	 1.000441495478033e+001
0	 3.733319999987732e+000	 9.333302777352783e+000	 1.000368356472500e+001
0	 3.799989999990447e+000	 8.666700000016666e+000	 1.001395245627202e+001
0	 3.799989999990448e+000	 8.733360002791903e+000	 1.001271336144714e+001
0	 3.799989999990447e+000	 8.800020022230553e+000	 1.001153587507287e+001
0	 3.799989999990447e+000	 8.866680074997040e+000	 1.001041705381550e+001
0	 3.799989999990448e+000	 8.933340177755778e+000	 1.000935395418627e+001
0	 3.799989999990448e+000	 9.000000347171179e+000	 1.000834363254143e+001
0	 3.799989999990448e+000	 9.066660599907666e+000	 1.000738314508208e+001
0	 3.799989999990447e+000	 9.133320952629651e+000	 1.000646954785436e+001
0	 3.799989999990449e+000	 9.199981422001555e+000	 1.000559989674925e+001
0	 3.799989999990448e+000	 9.266642024687794e+000	 1.000477124750278e+001
0	 3.799989999990448e+000	 9.333302777352783e+000	 1.000398065569579e+001
0	 3.866659999993465e+000	 8.666700000016666e+000	 1.001496351629561e+001
0	 3.866659999993464e+000	 8.733360002791901e+000	 1.001363409334411e+001
0	 3.866659999993465e+000	 8.800020022230553e+000	 1.001237039691235e+001
0	 3.866659999993465e+000	 8.866680074997042e+000	 1.001116937321938e+001
0	 3.866659999993465e+000	 8.933340177755779e+000	 1.001002796831692e+001
0	 3.866659999993464e+000	 9.000000347171177e+000	 1.000894312808930e+001
0	 3.866659999993465e+000	 9.066660599907666e+000	 1.000791179825336e+001
0	 3.866659999993465e+000	 9.133320952629653e+000	 1.000693092435873e+001
0	 3.866659999993464e+000	 9.199981422001553e+000	 1.000599745178744e+001
0	 3.866659999993465e+000	 9.266642024687791e+000	 1.000510832575428e+001
0	 3.866659999993464e+000	 9.333302777352783e+000	 1.000426049130654e+001
0	 3.933329999996682e+000	 8.666700000016668e+000	 1.001592498539549e+001
0	 3.933329999996681e+000	 8.733360002791899e+000	 1.001450970018656e+001
0	 3.933329999996681e+000	 8.800020022230553e+000	 1.001316377212607e+001
0	 3.933329999996682e+000	 8.866680074997040e+000	 1.001188409344629e+001
0	 3.933329999996682e+000	 8.933340177755776e+000	 1.001066755620036e+001
0	 3.933329999996682e+000	 9.000000347171179e+000	 1.000951105226246e+001
0	 3.933329999996681e+000	 9.066660599907666e+000	 1.000841147332771e+001
0	 3.933329999996682e+000	 9.133320952629655e+000	 1.000736571091213e+001
0	 3.933329999996682e+000	 9.199981422001555e+000	 1.000637065635268e+001
0	 3.933329999996682e+000	 9.266642024687792e+000	 1.000542320080726e+001
0	 3.933329999996682e+000	 9.333302777352781e+000	 1.000452023525470e+001
0	 4.000000000000000e+000	 8.666700000016666e+000	 1.001683427653869e+001
0	 4.000000000000000e+000	 8.733360002791903e+000	 1.001533739266105e+001
0	 4.000000000000000e+000	 8.800020022230553e+000	 1.001391304853208e+001
0	 4.000000000000000e+000	 8.866680074997042e+000	 1.001255813885769e+001
0	 4.000000000000001e+000	 8.933340177755778e+000	 1.001126955815366e+001
0	 4.000000000000000e+000	 9.000000347171179e+000	 1.001004420074569e+001
0	 4.000000000000001e+000	 9.066660599907666e+000	 1.000887896076934e+001
0	 4.000000000000000e+000	 9.133320952629651e+000	 1.000777073217009e+001
0	 4.000000000000001e+000	 9.199981422001555e+000	 1.000671640870329e+001
0	 4.000000000000001e+000	 9.266642024687791e+000	 1.000571288393414e+001
0	 4.000000000000001e+000	 9.333302777352783e+000	 1.000475705123767e+001
0	 3.333299999983334e+000	 9.333302777352785e+000	 1.000169748928224e+001
0	 3.333299999983334e+000	 9.399973674588177e+000	 1.000138066300434e+001
0	 3.333299999983334e+000	 9.466644621844619e+000	 1.000110444716009e+001
0	 3.333299999983333e+000	 9.533315502450000e+000	 1.000086543363008e+001
0	 3.333299999983334e+000	 9.599986199732197e+000	 1.000066021496083e+001
0	 3.333299999983333e+000	 9.666656597019093e+000	 1.000048538436433e+001
0	 3.333299999983333e+000	 9.733326577638573e+000	 1.000033753571789e+001
0	 3.333299999983334e+000	 9.799996024918523e+000	 1.000021326356362e+001
0	 3.333299999983334e+000	 9.866664822186818e+000	 1.000010916310826e+001
0	 3.333299999983334e+000	 9.933332852771351e+000	 1.000002183022300e+001
0	 3.333299999983334e+000	 1.000000000000000e+001	 9.999947861442907e+000
0	 3.399969999982149e+000	 9.333302777352781e+000	 1.000203855005969e+001
0	 3.399969999982150e+000	 9.399973674588175e+000	 1.000165871087268e+001
0	 3.399969999982150e+000	 9.466644621844621e+000	 1.000132479543930e+001
0	 3.399969999982150e+000	 9.533315502449996e+000	 1.000103348436397e+001
0	 3.399969999982150e+000	 9.599986199732197e+000	 1.000078145905974e+001
0	 3.399969999982150e+000	 9.666656597019092e+000	 1.000056540174825e+001
0	 3.399969999982150e+000	 9.733326577638573e+000	 1.000038199545917e+001
0	 3.399969999982150e+000	 9.799996024918523e+000	 1.000022792402990e+001
0	 3.399969999982150e+000	 9.866664822186822e+000	 1.000009987210561e+001
0	 3.399969999982150e+000	 9.933332852771351e+000	 9.999994525138522e+000
0	 3.399969999982150e+000	 1.000000000000000e+001	 9.999908569388023e+000
0	 3.466639999981866e+000	 9.333302777352783e+000	 1.000237937329243e+001
0	 3.466639999981866e+000	 9.399973674588178e+000	 1.000193762670615e+001
0	 3.466639999981866e+000	 9.466644621844619e+000	 1.000154747122040e+001
0	 3.466639999981866e+000	 9.533315502449996e+000	 1.000120561381005e+001
0	 3.466639999981866e+000	 9.599986199732197e+000	 1.000090876240105e+001
0	 3.466639999981866e+000	 9.666656597019095e+000	 1.000065362587013e+001
0	 3.466639999981866e+000	 9.733326577638575e+000	 1.000043691404439e+001
0	 3.466639999981866e+000	 9.799996024918521e+000	 1.000025533770121e+001
0	 3.466639999981866e+000	 9.866664822186820e+000	 1.000010560856781e+001
0	 3.466639999981866e+000	 9.933332852771351e+000	 9.999984439321228e+000
0	 3.466639999981866e+000	 1.000000000000000e+001	 9.999888543587870e+000
0	 3.533309999982383e+000	 9.333302777352783e+000	 1.000271712267786e+001
0	 3.533309999982383e+000	 9.399973674588177e+000	 1.000221471434507e+001
0	 3.533309999982383e+000	 9.466644621844624e+000	 1.000176985446079e+001
0	 3.533309999982382e+000	 9.533315502450005e+000	 1.000137921401741e+001
0	 3.533309999982383e+000	 9.599986199732197e+000	 1.000103946509955e+001
0	 3.533309999982382e+000	 9.666656597019092e+000	 1.000074728088372e+001
0	 3.533309999982383e+000	 9.733326577638572e+000	 1.000049933563793e+001
0	 3.533309999982381e+000	 9.799996024918523e+000	 1.000029230472169e+001
0	 3.533309999982382e+000	 9.866664822186822e+000	 1.000012286458528e+001
0	 3.533309999982382e+000	 9.933332852771351e+000	 9.999987692770336e+000
0	 3.533309999982383e+000	 1.000000000000000e+001	 9.999883467908795e+000
0	 3.599979999983598e+000	 9.333302777352785e+000	 1.000304896191346e+001
0	 3.599979999983598e+000	 9.399973674588177e+000	 1.000248727762995e+001
0	 3.599979999983599e+000	 9.466644621844619e+000	 1.000198932511803e+001
0	 3.599979999983599e+000	 9.533315502450002e+000	 1.000155167703511e+001
0	 3.599979999983598e+000	 9.599986199732197e+000	 1.000117090727011e+001
0	 3.599979999983598e+000	 9.666656597019093e+000	 1.000084359094287e+001
0	 3.599979999983599e+000	 9.733326577638575e+000	 1.000056630440425e+001
0	 3.599979999983598e+000	 9.799996024918523e+000	 1.000033562523548e+001
0	 3.599979999983598e+000	 9.866664822186820e+000	 1.000014813224842e+001
0	 3.599979999983599e+000	 9.933332852771349e+000	 1.000000040548486e+001
0	 3.599979999983599e+000	 1.000000000000000e+001	 9.999889026216856e+000
0	 3.666649999985415e+000	 9.333302777352783e+000	 1.000337205469671e+001
0	 3.666649999985415e+000	 9.399973674588177e+000	 1.000275262040116e+001
0	 3.666649999985415e+000	 9.466644621844621e+000	 1.000220326314957e+001
0	 3.666649999985415e+000	 9.533315502449998e+000	 1.000172039491226e+001
0	 3.666649999985415e+000	 9.599986199732198e+000	 1.000130042902750e+001
0	 3.666649999985415e+000	 9.666656597019092e+000	 1.000093978020145e+001
0	 3.666649999985415e+000	 9.733326577638575e+000	 1.000063486450766e+001
0	 3.666649999985415e+000	 9.799996024918523e+000	 1.000038209938702e+001
0	 3.666649999985415e+000	 9.866664822186820e+000	 1.000017790364753e+001
0	 3.666649999985416e+000	 9.933332852771352e+000	 1.000001869746411e+001
0	 3.666649999985415e+000	 1.000000000000000e+001	 9.999900902378355e+000
0	 3.733319999987732e+000	 9.333302777352783e+000	 1.000368356472500e+001
0	 3.733319999987732e+000	 9.399973674588173e+000	 1.000300804649906e+001
0	 3.733319999987732e+000	 9.466644621844621e+000	 1.000240904851290e+001
0	 3.733319999987732e+000	 9.533315502449998e+000	 1.000188275969782e+001
0	 3.733319999987732e+000	 9.599986199732195e+000	 1.000142537048659e+001
0	 3.733319999987731e+000	 9.666656597019093e+000	 1.000103307281322e+001
0	 3.733319999987731e+000	 9.733326577638573e+000	 1.000070206011263e+001
0	 3.733319999987732e+000	 9.799996024918524e+000	 1.000042852732050e+001
0	 3.733319999987731e+000	 9.866664822186818e+000	 1.000020867087304e+001
0	 3.733319999987732e+000	 9.933332852771352e+000	 1.000003868870703e+001
0	 3.733319999987731e+000	 1.000000000000000e+001	 9.999914780259378e+000
0	 3.799989999990448e+000	 9.333302777352783e+000	 1.000398065569580e+001
0	 3.799989999990449e+000	 9.399973674588178e+000	 1.000325085976414e+001
0	 3.799989999990447e+000	 9.466644621844621e+000	 1.000260406116555e+001
0	 3.799989999990448e+000	 9.533315502450000e+000	 1.000203616344092e+001
0	 3.799989999990449e+000	 9.599986199732193e+000	 1.000154307176217e+001
0	 3.799989999990449e+000	 9.666656597019093e+000	 1.000112069293200e+001
0	 3.799989999990447e+000	 9.733326577638573e+000	 1.000076493538350e+001
0	 3.799989999990448e+000	 9.799996024918524e+000	 1.000047170918018e+001
0	 3.799989999990448e+000	 9.866664822186822e+000	 1.000023692601539e+001
0	 3.799989999990448e+000	 9.933332852771351e+000	 1.000005649921299e+001
0	 3.799989999990448e+000	 9.999999999999998e+000	 9.999926343726287e+000
0	 3.866659999993464e+000	 9.333302777352783e+000	 1.000426049130654e+001
0	 3.866659999993465e+000	 9.399973674588177e+000	 1.000347836403679e+001
0	 3.866659999993464e+000	 9.466644621844621e+000	 1.000278568106499e+001
0	 3.866659999993465e+000	 9.533315502450000e+000	 1.000217799819060e+001
0	 3.866659999993465e+000	 9.599986199732197e+000	 1.000165087296911e+001
0	 3.866659999993464e+000	 9.666656597019093e+000	 1.000119986471166e+001
0	 3.866659999993464e+000	 9.733326577638573e+000	 1.000082053448476e+001
0	 3.866659999993464e+000	 9.799996024918523e+000	 1.000050844511020e+001
0	 3.866659999993465e+000	 9.866664822186818e+000	 1.000025916116491e+001
0	 3.866659999993465e+000	 9.933332852771351e+000	 1.000006824898092e+001
0	 3.866659999993465e+000	 1.000000000000000e+001	 9.999931276645185e+000
0	 3.933329999996682e+000	 9.333302777352781e+000	 1.000452023525470e+001
0	 3.933329999996681e+000	 9.399973674588177e+000	 1.000368786315739e+001
0	 3.933329999996682e+000	 9.466644621844621e+000	 1.000295128816865e+001
0	 3.933329999996681e+000	 9.533315502449996e+000	 1.000230565599595e+001
0	 3.933329999996682e+000	 9.599986199732197e+000	 1.000174611422224e+001
0	 3.933329999996682e+000	 9.666656597019093e+000	 1.000126781230597e+001
0	 3.933329999996681e+000	 9.733326577638573e+000	 1.000086590158069e+001
0	 3.933329999996682e+000	 9.799996024918521e+000	 1.000053553525492e+001
0	 3.933329999996682e+000	 9.866664822186820e+000	 1.000027186841201e+001
0	 3.933329999996681e+000	 9.933332852771352e+000	 1.000007005801012e+001
0	 3.933329999996682e+000	 1.000000000000000e+001	 9.999925262882337e+000
0	 4.000000000000001e+000	 9.333302777352783e+000	 1.000475705123767e+001
0	 4.000000000000000e+000	 9.399973674588177e+000	 1.000387666096635e+001
0	 4.000000000000000e+000	 9.466644621844621e+000	 1.000309826243410e+001
0	 4.000000000000000e+000	 9.533315502449998e+000	 1.000241652890596e+001
0	 4.000000000000001e+000	 9.599986199732198e+000	 1.000182613563633e+001
0	 4.000000000000001e+000	 9.666656597019093e+000	 1.000132175986876e+001
0	 4.000000000000000e+000	 9.733326577638573e+000	 1.000089808083578e+001
0	 4.000000000000001e+000	 9.799996024918523e+000	 1.000054977975857e+001
0	 4.000000000000000e+000	 9.866664822186820e+000	 1.000027153984706e+001
0	 4.000000000000000e+000	 9.933332852771352e+000	 1.000005804629978e+001
0	 4.000000000000001e+000	 1.000000000000000e+001	 9.999903986303961e+000
0	 4.000000000000001e+000	 0.000000000000000e+000	 2.558945563962690e-001
0	 4.000000000000000e+000	 6.666714722864756e-002	 1.130020550691321e+000
0	 4.000000000000000e+000	 1.333351778131789e-001	 2.041919652864086e+000
0	 4.000000000000001e+000	 2.000039750814773e-001	 2.978486941828073e+000
0	 4.000000000000001e+000	 2.666734223614256e-001	 3.926616574918662e+000
0	 4.000000000000000e+000	 3.333434029809068e-001	 4.873201788116828e+000
0	 4.000000000000001e+000	 4.000138002678044e-001	 5.805134896248727e+000
0	 4.000000000000000e+000	 4.666844975500011e-001	 6.709307293161052e+000
0	 3.999999999999999e+000	 5.333553781553801e-001	 7.572609451872232e+000
0	 4.000000000000001e+000	 6.000263254118247e-001	 8.381930924699450e+000
0	 4.000000000000001e+000	 6.666972226472177e-001	 9.124160343361458e+000
0	 4.066670000003318e+000	 0.000000000000000e+000	 3.379461606685406e+000
0	 4.066670000003317e+000	 6.666714722864756e-002	 3.924130013124894e+000
0	 4.066670000003317e+000	 1.333351778131789e-001	 4.508322122962385e+000
0	 4.066670000003317e+000	 2.000039750814772e-001	 5.122117569121586e+000
0	 4.066670000003317e+000	 2.666734223614256e-001	 5.755595370274044e+000
0	 4.066670000003318e+000	 3.333434029809069e-001	 6.398833930994615e+000
0	 4.066670000003319e+000	 4.000138002678045e-001	 7.041911041900682e+000
0	 4.066670000003317e+000	 4.666844975500010e-001	 7.674903879775330e+000
0	 4.066670000003317e+000	 5.333553781553801e-001	 8.287889007674419e+000
0	 4.066670000003318e+000	 6.000263254118247e-001	 8.870942375017480e+000
0	 4.066670000003318e+000	 6.666972226472178e-001	 9.414139317662489e+000
0	 4.133340000006534e+000	 0.000000000000000e+000	 5.849850802888931e+000
0	 4.133340000006533e+000	 6.666714722864754e-002	 6.145934286971719e+000
0	 4.133340000006533e+000	 1.333351778131789e-001	 6.479987810067139e+000
0	 4.133340000006533e+000	 2.000039750814773e-001	 6.844896916486469e+000
0	 4.133340000006534e+000	 2.666734223614256e-001	 7.233546776109644e+000
0	 4.133340000006532e+000	 3.333434029809069e-001	 7.638822184486801e+000
0	 4.133340000006534e+000	 4.000138002678044e-001	 8.053607562930086e+000
0	 4.133340000006535e+000	 4.666844975500012e-001	 8.470786958595483e+000
0	 4.133340000006533e+000	 5.333553781553801e-001	 8.883244044554918e+000
0	 4.133340000006535e+000	 6.000263254118248e-001	 9.283862119858537e+000
0	 4.133340000006534e+000	 6.666972226472177e-001	 9.665524109587116e+000
0	 4.200010000009550e+000	 0.000000000000000e+000	 7.740278890190153e+000
0	 4.200010000009550e+000	 6.666714722864757e-002	 7.858109262817228e+000
0	 4.200010000009550e+000	 1.333351778131789e-001	 8.009802012079566e+000
0	 4.200010000009550e+000	 2.000039750814773e-001	 8.190669871799200e+000
0	 4.200010000009550e+000	 2.666734223614256e-001	 8.396025381562986e+000
0	 4.200010000009550e+000	 3.333434029809069e-001	 8.621180886783128e+000
0	 4.200010000009550e+000	 4.000138002678043e-001	 8.861448538752679e+000
0	 4.200010000009550e+000	 4.666844975500010e-001	 9.112140294695903e+000
0	 4.200010000009550e+000	 5.333553781553801e-001	 9.368567917813536e+000
0	 4.200010000009550e+000	 6.000263254118247e-001	 9.626042977322928e+000
0	 4.200010000009550e+000	 6.666972226472177e-001	 9.879876848493186e+000
0	 4.266680000012267e+000	 0.000000000000000e+000	 9.123962613772410e+000
0	 4.266680000012267e+000	 6.666714722864754e-002	 9.123330831246779e+000
0	 4.266680000012267e+000	 1.333351778131789e-001	 9.150650026900751e+000
0	 4.266680000012267e+000	 2.000039750814772e-001	 9.203281322936082e+000
0	 4.266680000012268e+000	 2.666734223614256e-001	 9.278585775771425e+000
0	 4.266680000012268e+000	 3.333434029809068e-001	 9.373924376073097e+000
0	 4.266680000012267e+000	 4.000138002678043e-001	 9.486658048783943e+000
0	 4.266680000012267e+000	 4.666844975500011e-001	 9.614147653150788e+000
0	 4.266680000012267e+000	 5.333553781553803e-001	 9.753753982749894e+000
0	 4.266680000012268e+000	 6.000263254118248e-001	 9.902837765510782e+000
0	 4.266680000012268e+000	 6.666972226472177e-001	 1.005875966373838e+001
0	 4.333350000014583e+000	 0.000000000000000e+000	 1.007411871881908e+001
0	 4.333350000014583e+000	 6.666714722864757e-002	 1.000427488284569e+001
0	 4.333350000014582e+000	 1.333351778131789e-001	 9.955417152431634e+000
0	 4.333350000014584e+000	 2.000039750814773e-001	 9.926576157773184e+000
0	 4.333350000014585e+000	 2.666734223614256e-001	 9.916782547872105e+000
0	 4.333350000014582e+000	 3.333434029809070e-001	 9.925066990545966e+000
0	 4.333350000014584e+000	 4.000138002678043e-001	 9.950460172439124e+000
0	 4.333350000014583e+000	 4.666844975500012e-001	 9.991992799034083e+000
0	 4.333350000014583e+000	 5.333553781553800e-001	 1.004869559466340e+001
0	 4.333350000014585e+000	 6.000263254118247e-001	 1.011959930252200e+001
0	 4.333350000014584e+000	 6.666972226472177e-001	 1.020373468468021e+001
0	 4.400020000016400e+000	 0.000000000000000e+000	 1.066396395051361e+001
0	 4.400020000016400e+000	 6.666714722864754e-002	 1.056361730819920e+001
0	 4.400020000016400e+000	 1.333351778131789e-001	 1.047698868657301e+001
0	 4.400020000016400e+000	 2.000039750814773e-001	 1.040439926418643e+001
0	 4.400020000016400e+000	 2.666734223614255e-001	 1.034617028700188e+001
0	 4.400020000016401e+000	 3.333434029809069e-001	 1.030262306839078e+001
0	 4.400020000016402e+000	 4.000138002678044e-001	 1.027407898913325e+001
0	 4.400020000016398e+000	 4.666844975500011e-001	 1.026085949741951e+001
0	 4.400020000016400e+000	 5.333553781553803e-001	 1.026328610885321e+001
0	 4.400020000016399e+000	 6.000263254118248e-001	 1.028168040645634e+001
0	 4.400020000016401e+000	 6.666972226472177e-001	 1.031636404067605e+001
0	 4.466690000017617e+000	 0.000000000000000e+000	 1.096671505403947e+001
0	 4.466690000017615e+000	 6.666714722864757e-002	 1.086403399789249e+001
0	 4.466690000017616e+000	 1.333351778131789e-001	 1.076824992722557e+001
0	 4.466690000017617e+000	 2.000039750814773e-001	 1.068059553005152e+001
0	 4.466690000017615e+000	 2.666734223614255e-001	 1.060230358229742e+001
0	 4.466690000017616e+000	 3.333434029809068e-001	 1.053460694779631e+001
0	 4.466690000017617e+000	 4.000138002678044e-001	 1.047873857828105e+001
0	 4.466690000017618e+000	 4.666844975500012e-001	 1.043593151338055e+001
0	 4.466690000017617e+000	 5.333553781553801e-001	 1.040741888061833e+001
0	 4.466690000017615e+000	 6.000263254118246e-001	 1.039443389541333e+001
0	 4.466690000017616e+000	 6.666972226472175e-001	 1.039820986108308e+001
0	 4.533360000018132e+000	 0.000000000000000e+000	 1.105558877458018e+001
0	 4.533360000018132e+000	 6.666714722864753e-002	 1.096820084251069e+001
0	 4.533360000018133e+000	 1.333351778131789e-001	 1.088208617228983e+001
0	 4.533360000018132e+000	 2.000039750814773e-001	 1.079900984324397e+001
0	 4.533360000018130e+000	 2.666734223614256e-001	 1.072073702289517e+001
0	 4.533360000018131e+000	 3.333434029809069e-001	 1.064903296695111e+001
0	 4.533360000018130e+000	 4.000138002678044e-001	 1.058566301929707e+001
0	 4.533360000018132e+000	 4.666844975500010e-001	 1.053239261199047e+001
0	 4.533360000018133e+000	 5.333553781553804e-001	 1.049098726525752e+001
0	 4.533360000018133e+000	 6.000263254118246e-001	 1.046321258749235e+001
0	 4.533360000018132e+000	 6.666972226472177e-001	 1.045083427525831e+001
0	 4.600030000017848e+000	 0.000000000000000e+000	 1.100380185731932e+001
0	 4.600030000017848e+000	 6.666714722864756e-002	 1.093879373263884e+001
0	 4.600030000017849e+000	 1.333351778131790e-001	 1.087138271966617e+001
0	 4.600030000017849e+000	 2.000039750814772e-001	 1.080348709163908e+001
0	 4.600030000017848e+000	 2.666734223614256e-001	 1.073702519793134e+001
0	 4.600030000017848e+000	 3.333434029809069e-001	 1.067391546404347e+001
0	 4.600030000017849e+000	 4.000138002678044e-001	 1.061607639159560e+001
0	 4.600030000017849e+000	 4.666844975500012e-001	 1.056542655832229e+001
0	 4.600030000017849e+000	 5.333553781553803e-001	 1.052388461806933e+001
0	 4.600030000017848e+000	 6.000263254118246e-001	 1.049336930079254e+001
0	 4.600030000017848e+000	 6.666972226472174e-001	 1.047579941255860e+001
0	 4.666700000016666e+000	 0.000000000000000e+000	 1.088457104744049e+001
0	 4.666700000016666e+000	 6.666714722864757e-002	 1.083848855886196e+001
0	 4.666700000016666e+000	 1.333351778131789e-001	 1.078902486725483e+001
0	 4.666700000016665e+000	 2.000039750814772e-001	 1.073787216311201e+001
0	 4.666700000016667e+000	 2.666734223614256e-001	 1.068672269654191e+001
0	 4.666700000016667e+000	 3.333434029809069e-001	 1.063726877726145e+001
0	 4.666700000016667e+000	 4.000138002678045e-001	 1.059120277459067e+001
0	 4.666700000016666e+000	 4.666844975500011e-001	 1.055021711744882e+001
0	 4.666700000016666e+000	 5.333553781553803e-001	 1.051600429435210e+001
0	 4.666700000016666e+000	 6.000263254118248e-001	 1.049025685341290e+001
0	 4.666700000016666e+000	 6.666972226472177e-001	 1.047466740234065e+001
0	 4.000000000000001e+000	 6.666972226472177e-001	 9.124160343361460e+000
0	 4.000000000000001e+000	 7.333579753122047e-001	 9.802239777655407e+000
0	 4.000000000000001e+000	 8.000185779984419e-001	 1.042725577172066e+001
0	 4.000000000000000e+000	 8.666790473703455e-001	 1.099799612023749e+001
0	 4.000000000000000e+000	 9.333394000923325e-001	 1.151324870684640e+001
0	 4.000000000000001e+000	 9.999996528288192e-001	 1.197180150415096e+001
0	 4.000000000000001e+000	 1.066659822244223e+000	 1.237244257372010e+001
0	 4.000000000000000e+000	 1.133319925002959e+000	 1.271396006609024e+001
0	 4.000000000000001e+000	 1.199979977769446e+000	 1.299514222076698e+001
0	 3.999999999999999e+000	 1.266639997208098e+000	 1.321477736622650e+001
0	 4.000000000000001e+000	 1.333299999983334e+000	 1.337165391991660e+001
0	 4.066670000003318e+000	 6.666972226472178e-001	 9.414139317662491e+000
0	 4.066670000003318e+000	 7.333579753122048e-001	 9.916371148376229e+000
0	 4.066670000003317e+000	 8.000185779984417e-001	 1.038247940829106e+001
0	 4.066670000003317e+000	 8.666790473703452e-001	 1.081123039418703e+001
0	 4.066670000003318e+000	 9.333394000923323e-001	 1.120139046813848e+001
0	 4.066670000003318e+000	 9.999996528288193e-001	 1.155172605751612e+001
0	 4.066670000003318e+000	 1.066659822244223e+000	 1.186100365498869e+001
0	 4.066670000003318e+000	 1.133319925002959e+000	 1.212798981852473e+001
0	 4.066670000003317e+000	 1.199979977769445e+000	 1.235145117139367e+001
0	 4.066670000003318e+000	 1.266639997208098e+000	 1.253015440216699e+001
0	 4.066670000003316e+000	 1.333299999983333e+000	 1.266286626471904e+001
0	 4.133340000006534e+000	 6.666972226472177e-001	 9.665524109587116e+000
0	 4.133340000006533e+000	 7.333579753122046e-001	 1.002438150807516e+001
0	 4.133340000006533e+000	 8.000185779984418e-001	 1.036061709349899e+001
0	 4.133340000006534e+000	 8.666790473703455e-001	 1.067299406417982e+001
0	 4.133340000006533e+000	 9.333394000923322e-001	 1.096027566481437e+001
0	 4.133340000006534e+000	 9.999996528288193e-001	 1.122122518647634e+001
0	 4.133340000006535e+000	 1.066659822244222e+000	 1.145460596661767e+001
0	 4.133340000006534e+000	 1.133319925002959e+000	 1.165918138906982e+001
0	 4.133340000006534e+000	 1.199979977769445e+000	 1.183371488404455e+001
0	 4.133340000006532e+000	 1.266639997208098e+000	 1.197696992813485e+001
0	 4.133340000006533e+000	 1.333299999983334e+000	 1.208771004431548e+001
0	 4.200010000009550e+000	 6.666972226472177e-001	 9.879876848493185e+000
0	 4.200010000009551e+000	 7.333579753122048e-001	 1.012459626505658e+001
0	 4.200010000009550e+000	 8.000185779984418e-001	 1.035711459220341e+001
0	 4.200010000009550e+000	 8.666790473703454e-001	 1.057621033367329e+001
0	 4.200010000009551e+000	 9.333394000923323e-001	 1.078066202487423e+001
0	 4.200010000009550e+000	 9.999996528288191e-001	 1.096924823288355e+001
0	 4.200010000009551e+000	 1.066659822244222e+000	 1.114074755644891e+001
0	 4.200010000009550e+000	 1.133319925002959e+000	 1.129393862598906e+001
0	 4.200010000009550e+000	 1.199979977769445e+000	 1.142760010359456e+001
0	 4.200010000009549e+000	 1.266639997208098e+000	 1.154051068302839e+001
0	 4.200010000009550e+000	 1.333299999983334e+000	 1.163144908972631e+001
0	 4.266680000012268e+000	 6.666972226472177e-001	 1.005875966373838e+001
0	 4.266680000012267e+000	 7.333579753122047e-001	 1.021534082762472e+001
0	 4.266680000012266e+000	 8.000185779984417e-001	 1.036741766926308e+001
0	 4.266680000012267e+000	 8.666790473703454e-001	 1.051380240612474e+001
0	 4.266680000012267e+000	 9.333394000923324e-001	 1.065330727631811e+001
0	 4.266680000012268e+000	 9.999996528288193e-001	 1.078474453858962e+001
0	 4.266680000012268e+000	 1.066659822244223e+000	 1.090692647232420e+001
0	 4.266680000012267e+000	 1.133319925002959e+000	 1.101866537754595e+001
0	 4.266680000012266e+000	 1.199979977769445e+000	 1.111877357491860e+001
0	 4.266680000012267e+000	 1.266639997208098e+000	 1.120606340574589e+001
0	 4.266680000012266e+000	 1.333299999983334e+000	 1.127934723197193e+001
0	 4.333350000014584e+000	 6.666972226472177e-001	 1.020373468468021e+001
0	 4.333350000014583e+000	 7.333579753122046e-001	 1.029494060408367e+001
0	 4.333350000014584e+000	 8.000185779984420e-001	 1.038697208953673e+001
0	 4.333350000014585e+000	 8.666790473703455e-001	 1.047869348499133e+001
0	 4.333350000014582e+000	 9.333394000923323e-001	 1.056896914714599e+001
0	 4.333350000014582e+000	 9.999996528288191e-001	 1.065666344544628e+001
0	 4.333350000014583e+000	 1.066659822244222e+000	 1.074064076208528e+001
0	 4.333350000014582e+000	 1.133319925002959e+000	 1.081976549200395e+001
0	 4.333350000014583e+000	 1.199979977769445e+000	 1.089290204289149e+001
0	 4.333350000014582e+000	 1.266639997208098e+000	 1.095891483518560e+001
0	 4.333350000014582e+000	 1.333299999983334e+000	 1.101666830207267e+001
0	 4.400020000016401e+000	 6.666972226472177e-001	 1.031636404067605e+001
0	 4.400020000016400e+000	 7.333579753122048e-001	 1.036172100273737e+001
0	 4.400020000016401e+000	 8.000185779984419e-001	 1.041122361788290e+001
0	 4.400020000016399e+000	 8.666790473703452e-001	 1.046380677373021e+001
0	 4.400020000016399e+000	 9.333394000923323e-001	 1.051840536535775e+001
0	 4.400020000016399e+000	 9.999996528288192e-001	 1.057395429530522e+001
0	 4.400020000016400e+000	 1.066659822244222e+000	 1.062938847357381e+001
0	 4.400020000016401e+000	 1.133319925002959e+000	 1.068364281762644e+001
0	 4.400020000016402e+000	 1.199979977769446e+000	 1.073565225238803e+001
0	 4.400020000016400e+000	 1.266639997208098e+000	 1.078435171024568e+001
0	 4.400020000016401e+000	 1.333299999983334e+000	 1.082867613104882e+001
0	 4.466690000017616e+000	 6.666972226472175e-001	 1.039820986108308e+001
0	 4.466690000017616e+000	 7.333579753122047e-001	 1.041400743188964e+001
0	 4.466690000017617e+000	 8.000185779984417e-001	 1.043561801916002e+001
0	 4.466690000017617e+000	 8.666790473703455e-001	 1.046206547579830e+001
0	 4.466690000017616e+000	 9.333394000923323e-001	 1.049237365895316e+001
0	 4.466690000017617e+000	 9.999996528288191e-001	 1.052556643001805e+001
0	 4.466690000017616e+000	 1.066659822244222e+000	 1.056066765463139e+001
0	 4.466690000017615e+000	 1.133319925002959e+000	 1.059670120267671e+001
0	 4.466690000017617e+000	 1.199979977769445e+000	 1.063269094828291e+001
0	 4.466690000017615e+000	 1.266639997208098e+000	 1.066766076982427e+001
0	 4.466690000017616e+000	 1.333299999983334e+000	 1.070063454992064e+001
0	 4.533360000018132e+000	 6.666972226472177e-001	 1.045083427525831e+001
0	 4.533360000018131e+000	 7.333579753122048e-001	 1.045012529984413e+001
0	 4.533360000018132e+000	 8.000185779984418e-001	 1.045560105822639e+001
0	 4.533360000018131e+000	 8.666790473703454e-001	 1.046639279465250e+001
0	 4.533360000018133e+000	 9.333394000923325e-001	 1.048163175593191e+001
0	 4.533360000018131e+000	 9.999996528288193e-001	 1.050044919143626e+001
0	 4.533360000018133e+000	 1.066659822244223e+000	 1.052197635309951e+001
0	 4.533360000018133e+000	 1.133319925002959e+000	 1.054534449541804e+001
0	 4.533360000018132e+000	 1.199979977769445e+000	 1.056968487545083e+001
0	 4.533360000018131e+000	 1.266639997208098e+000	 1.059412875281947e+001
0	 4.533360000018131e+000	 1.333299999983334e+000	 1.061780738970833e+001
0	 4.600030000017848e+000	 6.666972226472174e-001	 1.047579941255860e+001
0	 4.600030000017849e+000	 7.333579753122048e-001	 1.046840001490434e+001
0	 4.600030000017850e+000	 8.000185779984420e-001	 1.046661849994018e+001
0	 4.600030000017847e+000	 8.666790473703451e-001	 1.046971193374956e+001
0	 4.600030000017848e+000	 9.333394000923322e-001	 1.047693738429360e+001
0	 4.600030000017848e+000	 9.999996528288191e-001	 1.048755192141131e+001
0	 4.600030000017849e+000	 1.066659822244223e+000	 1.050081261681965e+001
0	 4.600030000017849e+000	 1.133319925002959e+000	 1.051597654411363e+001
0	 4.600030000017848e+000	 1.199979977769445e+000	 1.053230077876639e+001
0	 4.600030000017848e+000	 1.266639997208098e+000	 1.054904239812930e+001
0	 4.600030000017848e+000	 1.333299999983333e+000	 1.056545848143204e+001
0	 4.666700000016666e+000	 6.666972226472177e-001	 1.047466740234065e+001
0	 4.666700000016666e+000	 7.333579753122047e-001	 1.046715698537364e+001
0	 4.666700000016666e+000	 8.000185779984419e-001	 1.046411610915947e+001
0	 4.666700000016665e+000	 8.666790473703454e-001	 1.046494609654612e+001
0	 4.666700000016666e+000	 9.333394000923324e-001	 1.046904827203771e+001
0	 4.666700000016665e+000	 9.999996528288191e-001	 1.047582396179452e+001
0	 4.666700000016666e+000	 1.066659822244222e+000	 1.048467449363316e+001
0	 4.666700000016667e+000	 1.133319925002959e+000	 1.049500119702657e+001
0	 4.666700000016665e+000	 1.199979977769445e+000	 1.050620540310413e+001
0	 4.666700000016666e+000	 1.266639997208098e+000	 1.051768844465175e+001
0	 4.666700000016666e+000	 1.333299999983334e+000	 1.052885165611189e+001
0	 4.000000000000001e+000	 1.333299999983334e+000	 1.337165391991660e+001
0	 4.000000000000001e+000	 1.399969999982150e+000	 1.347753288847702e+001
0	 4.000000000000001e+000	 1.466639999981866e+000	 1.354539895933149e+001
0	 4.000000000000001e+000	 1.533309999982383e+000	 1.357593243550119e+001
0	 4.000000000000000e+000	 1.599979999983600e+000	 1.356981362000701e+001
0	 4.000000000000001e+000	 1.666649999985416e+000	 1.352772281586950e+001
0	 4.000000000000000e+000	 1.733319999987733e+000	 1.345034032610894e+001
0	 4.000000000000000e+000	 1.799989999990450e+000	 1.333834645374528e+001
0	 4.000000000000000e+000	 1.866659999993466e+000	 1.319242150179821e+001
0	 4.000000000000000e+000	 1.933329999996684e+000	 1.301324577328702e+001
0	 4.000000000000000e+000	 2.000000000000000e+000	 1.280149957123081e+001
0	 4.066670000003316e+000	 1.333299999983333e+000	 1.266286626471905e+001
0	 4.066670000003316e+000	 1.399969999982150e+000	 1.275642857894585e+001
0	 4.066670000003316e+000	 1.466639999981866e+000	 1.281884661529979e+001
0	 4.066670000003317e+000	 1.533309999982383e+000	 1.285068154468700e+001
0	 4.066670000003317e+000	 1.599979999983600e+000	 1.285249453801340e+001
0	 4.066670000003317e+000	 1.666649999985417e+000	 1.282484676618459e+001
0	 4.066670000003318e+000	 1.733319999987734e+000	 1.276829940010599e+001
0	 4.066670000003317e+000	 1.799989999990450e+000	 1.268341361068271e+001
0	 4.066670000003316e+000	 1.866659999993467e+000	 1.257075056881966e+001
0	 4.066670000003317e+000	 1.933329999996684e+000	 1.243087144542147e+001
0	 4.066670000003316e+000	 2.000000000000000e+000	 1.226433741139250e+001
0	 4.133340000006533e+000	 1.333299999983334e+000	 1.208771004431548e+001
0	 4.133340000006533e+000	 1.399969999982150e+000	 1.216907385622204e+001
0	 4.133340000006534e+000	 1.466639999981866e+000	 1.222529869667707e+001
0	 4.133340000006534e+000	 1.533309999982383e+000	 1.225683852318300e+001
0	 4.133340000006534e+000	 1.599979999983600e+000	 1.226414729324206e+001
0	 4.133340000006533e+000	 1.666649999985416e+000	 1.224767896435625e+001
0	 4.133340000006534e+000	 1.733319999987733e+000	 1.220788749402739e+001
0	 4.133340000006533e+000	 1.799989999990450e+000	 1.214522683975707e+001
0	 4.133340000006532e+000	 1.866659999993467e+000	 1.206015095904671e+001
0	 4.133340000006532e+000	 1.933329999996683e+000	 1.195311380939749e+001
0	 4.133340000006533e+000	 2.000000000000000e+000	 1.182456934831040e+001
0	 4.200010000009550e+000	 1.333299999983334e+000	 1.163144908972631e+001
0	 4.200010000009550e+000	 1.399969999982150e+000	 1.170091572676647e+001
0	 4.200010000009550e+000	 1.466639999981866e+000	 1.175044040701570e+001
0	 4.200010000009550e+000	 1.533309999982383e+000	 1.178038179328403e+001
0	 4.200010000009550e+000	 1.599979999983600e+000	 1.179109854838132e+001
0	 4.200010000009550e+000	 1.666649999985416e+000	 1.178294933511727e+001
0	 4.200010000009550e+000	 1.733319999987733e+000	 1.175629281630140e+001
0	 4.200010000009550e+000	 1.799989999990450e+000	 1.171148765474309e+001
0	 4.200010000009550e+000	 1.866659999993467e+000	 1.164889251325153e+001
0	 4.200010000009550e+000	 1.933329999996683e+000	 1.156886605463577e+001
0	 4.200010000009550e+000	 1.999999999999999e+000	 1.147176694170468e+001
0	 4.266680000012266e+000	 1.333299999983334e+000	 1.127934723197193e+001
0	 4.266680000012266e+000	 1.399969999982150e+000	 1.133740119704000e+001
0	 4.266680000012266e+000	 1.466639999981866e+000	 1.137995694986799e+001
0	 4.266680000012267e+000	 1.533309999982383e+000	 1.140728977728487e+001
0	 4.266680000012268e+000	 1.599979999983600e+000	 1.141967496611945e+001
0	 4.266680000012268e+000	 1.666649999985416e+000	 1.141738780320039e+001
0	 4.266680000012268e+000	 1.733319999987733e+000	 1.140070357535626e+001
0	 4.266680000012267e+000	 1.799989999990450e+000	 1.136989756941547e+001
0	 4.266680000012268e+000	 1.866659999993467e+000	 1.132524507220633e+001
0	 4.266680000012267e+000	 1.933329999996684e+000	 1.126702137055698e+001
0	 4.266680000012267e+000	 2.000000000000000e+000	 1.119550175129548e+001
0	 4.333350000014582e+000	 1.333299999983334e+000	 1.101666830207267e+001
0	 4.333350000014583e+000	 1.399969999982150e+000	 1.106397727350343e+001
0	 4.333350000014582e+000	 1.466639999981867e+000	 1.109953352878624e+001
0	 4.333350000014583e+000	 1.533309999982383e+000	 1.112354089748030e+001
0	 4.333350000014584e+000	 1.599979999983599e+000	 1.113620320914468e+001
0	 4.333350000014583e+000	 1.666649999985416e+000	 1.113772429333833e+001
0	 4.333350000014582e+000	 1.733319999987733e+000	 1.112830797962015e+001
0	 4.333350000014582e+000	 1.799989999990449e+000	 1.110815809754890e+001
0	 4.333350000014582e+000	 1.866659999993466e+000	 1.107747847668323e+001
0	 4.333350000014582e+000	 1.933329999996684e+000	 1.103647294658175e+001
0	 4.333350000014584e+000	 2.000000000000000e+000	 1.098534533680292e+001
0	 4.400020000016401e+000	 1.333299999983334e+000	 1.082867613104883e+001
0	 4.400020000016400e+000	 1.399969999982150e+000	 1.086609096261754e+001
0	 4.400020000016401e+000	 1.466639999981867e+000	 1.089485534732271e+001
0	 4.400020000016399e+000	 1.533309999982383e+000	 1.091511357616506e+001
0	 4.400020000016400e+000	 1.599979999983600e+000	 1.092700994014524e+001
0	 4.400020000016399e+000	 1.666649999985416e+000	 1.093068873026380e+001
0	 4.400020000016399e+000	 1.733319999987733e+000	 1.092629423752125e+001
0	 4.400020000016400e+000	 1.799989999990450e+000	 1.091397075291799e+001
0	 4.400020000016400e+000	 1.866659999993467e+000	 1.089386256745439e+001
0	 4.400020000016400e+000	 1.933329999996683e+000	 1.086611397213070e+001
0	 4.400020000016400e+000	 2.000000000000000e+000	 1.083086925794710e+001
0	 4.466690000017616e+000	 1.333299999983334e+000	 1.070063454992064e+001
0	 4.466690000017616e+000	 1.399969999982150e+000	 1.072918927084307e+001
0	 4.466690000017617e+000	 1.466639999981867e+000	 1.075160760902961e+001
0	 4.466690000017615e+000	 1.533309999982383e+000	 1.076798623563384e+001
0	 4.466690000017616e+000	 1.599979999983600e+000	 1.077842182180930e+001
0	 4.466690000017617e+000	 1.666649999985416e+000	 1.078301103870945e+001
0	 4.466690000017617e+000	 1.733319999987733e+000	 1.078185055748770e+001
0	 4.466690000017616e+000	 1.799989999990450e+000	 1.077503704929741e+001
0	 4.466690000017617e+000	 1.866659999993467e+000	 1.076266718529189e+001
0	 4.466690000017615e+000	 1.933329999996684e+000	 1.074483763662438e+001
0	 4.466690000017617e+000	 2.000000000000000e+000	 1.072164507444808e+001
0	 4.533360000018131e+000	 1.333299999983334e+000	 1.061780738970833e+001
0	 4.533360000018132e+000	 1.399969999982150e+000	 1.063871920464070e+001
0	 4.533360000018131e+000	 1.466639999981866e+000	 1.065547551745912e+001
0	 4.533360000018134e+000	 1.533309999982383e+000	 1.066813729818132e+001
0	 4.533360000018132e+000	 1.599979999983599e+000	 1.067676551682502e+001
0	 4.533360000018132e+000	 1.666649999985417e+000	 1.068142114340791e+001
0	 4.533360000018132e+000	 1.733319999987733e+000	 1.068216514794761e+001
0	 4.533360000018133e+000	 1.799989999990450e+000	 1.067905850046171e+001
0	 4.533360000018132e+000	 1.866659999993467e+000	 1.067216217096779e+001
0	 4.533360000018133e+000	 1.933329999996684e+000	 1.066153712948336e+001
0	 4.533360000018131e+000	 2.000000000000000e+000	 1.064724434602591e+001
0	 4.600030000017848e+000	 1.333299999983333e+000	 1.056545848143204e+001
0	 4.600030000017848e+000	 1.399969999982150e+000	 1.058012777047110e+001
0	 4.600030000017848e+000	 1.466639999981866e+000	 1.059214427616339e+001
0	 4.600030000017849e+000	 1.533309999982383e+000	 1.060154518610212e+001
0	 4.600030000017849e+000	 1.599979999983600e+000	 1.060836768788053e+001
0	 4.600030000017848e+000	 1.666649999985416e+000	 1.061264896909178e+001
0	 4.600030000017849e+000	 1.733319999987733e+000	 1.061442621732905e+001
0	 4.600030000017847e+000	 1.799989999990450e+000	 1.061373662018547e+001
0	 4.600030000017848e+000	 1.866659999993467e+000	 1.061061736525415e+001
0	 4.600030000017849e+000	 1.933329999996683e+000	 1.060510564012816e+001
0	 4.600030000017851e+000	 2.000000000000000e+000	 1.059723863240058e+001
0	 4.666700000016666e+000	 1.333299999983334e+000	 1.052885165611189e+001
0	 4.666700000016665e+000	 1.399969999982150e+000	 1.053886197479489e+001
0	 4.666700000016667e+000	 1.466639999981866e+000	 1.054729908869453e+001
0	 4.666700000016666e+000	 1.533309999982383e+000	 1.055418832169086e+001
0	 4.666700000016666e+000	 1.599979999983600e+000	 1.055955499766390e+001
0	 4.666700000016667e+000	 1.666649999985417e+000	 1.056342444049365e+001
0	 4.666700000016665e+000	 1.733319999987733e+000	 1.056582197406009e+001
0	 4.666700000016666e+000	 1.799989999990450e+000	 1.056677292224322e+001
0	 4.666700000016665e+000	 1.866659999993467e+000	 1.056630260892296e+001
0	 4.666700000016666e+000	 1.933329999996684e+000	 1.056443635797928e+001
0	 4.666700000016666e+000	 2.000000000000000e+000	 1.056119949329208e+001
0	 4.000000000000000e+000	 2.000000000000000e+000	 1.280149957123081e+001
0	 4.000000000000001e+000	 2.066670000003318e+000	 1.258008447762418e+001
0	 4.000000000000000e+000	 2.133340000006534e+000	 1.237130893764804e+001
0	 4.000000000000000e+000	 2.200010000009551e+000	 1.217496354910058e+001
0	 4.000000000000001e+000	 2.266680000012268e+000	 1.199083890978007e+001
0	 4.000000000000000e+000	 2.333350000014584e+000	 1.181872561748492e+001
0	 3.999999999999999e+000	 2.400020000016400e+000	 1.165841427001361e+001
0	 4.000000000000001e+000	 2.466690000017618e+000	 1.150969546516472e+001
0	 4.000000000000001e+000	 2.533360000018134e+000	 1.137235980073691e+001
0	 4.000000000000000e+000	 2.600030000017850e+000	 1.124619787452899e+001
0	 4.000000000000000e+000	 2.666700000016667e+000	 1.113100028433981e+001
0	 4.066670000003316e+000	 2.000000000000000e+000	 1.226433741139250e+001
0	 4.066670000003317e+000	 2.066670000003317e+000	 1.209003485739624e+001
0	 4.066670000003317e+000	 2.133340000006534e+000	 1.192634748584194e+001
0	 4.066670000003318e+000	 2.200010000009551e+000	 1.177308243525248e+001
0	 4.066670000003318e+000	 2.266680000012268e+000	 1.163004684415084e+001
0	 4.066670000003316e+000	 2.333350000014584e+000	 1.149704785106010e+001
0	 4.066670000003316e+000	 2.400020000016401e+000	 1.137389259450339e+001
0	 4.066670000003317e+000	 2.466690000017618e+000	 1.126038821300391e+001
0	 4.066670000003316e+000	 2.533360000018134e+000	 1.115634184508498e+001
0	 4.066670000003316e+000	 2.600030000017850e+000	 1.106156062926998e+001
0	 4.066670000003317e+000	 2.666700000016666e+000	 1.097585170408236e+001
0	 4.133340000006533e+000	 2.000000000000000e+000	 1.182456934831040e+001
0	 4.133340000006534e+000	 2.066670000003318e+000	 1.168988237459549e+001
0	 4.133340000006533e+000	 2.133340000006534e+000	 1.156399800009692e+001
0	 4.133340000006534e+000	 2.200010000009551e+000	 1.144674065186689e+001
0	 4.133340000006534e+000	 2.266680000012268e+000	 1.133793475695762e+001
0	 4.133340000006533e+000	 2.333350000014585e+000	 1.123740474242139e+001
0	 4.133340000006534e+000	 2.400020000016401e+000	 1.114497503531056e+001
0	 4.133340000006533e+000	 2.466690000017616e+000	 1.106047006267757e+001
0	 4.133340000006533e+000	 2.533360000018134e+000	 1.098371425157487e+001
0	 4.133340000006533e+000	 2.600030000017850e+000	 1.091453202905505e+001
0	 4.133340000006534e+000	 2.666700000016666e+000	 1.085274782217072e+001
0	 4.200010000009550e+000	 1.999999999999999e+000	 1.147176694170468e+001
0	 4.200010000009550e+000	 2.066670000003318e+000	 1.136989868190614e+001
0	 4.200010000009550e+000	 2.133340000006534e+000	 1.127522064973951e+001
0	 4.200010000009550e+000	 2.200010000009551e+000	 1.118757530859076e+001
0	 4.200010000009551e+000	 2.266680000012268e+000	 1.110680512184594e+001
0	 4.200010000009550e+000	 2.333350000014584e+000	 1.103275255289113e+001
0	 4.200010000009550e+000	 2.400020000016400e+000	 1.096526006511248e+001
0	 4.200010000009550e+000	 2.466690000017618e+000	 1.090417012189618e+001
0	 4.200010000009550e+000	 2.533360000018134e+000	 1.084932518662849e+001
0	 4.200010000009550e+000	 2.600030000017851e+000	 1.080056772269569e+001
0	 4.200010000009550e+000	 2.666700000016667e+000	 1.075774019348416e+001
0	 4.266680000012267e+000	 2.000000000000000e+000	 1.119550175129548e+001
0	 4.266680000012266e+000	 2.066670000003317e+000	 1.112035543201246e+001
0	 4.266680000012268e+000	 2.133340000006534e+000	 1.105097560409617e+001
0	 4.266680000012267e+000	 2.200010000009551e+000	 1.098722351507099e+001
0	 4.266680000012268e+000	 2.266680000012268e+000	 1.092896041246134e+001
0	 4.266680000012268e+000	 2.333350000014584e+000	 1.087604754379165e+001
0	 4.266680000012267e+000	 2.400020000016401e+000	 1.082834615658646e+001
0	 4.266680000012266e+000	 2.466690000017617e+000	 1.078571749837029e+001
0	 4.266680000012267e+000	 2.533360000018134e+000	 1.074802281666771e+001
0	 4.266680000012268e+000	 2.600030000017850e+000	 1.071512335900337e+001
0	 4.266680000012266e+000	 2.666700000016666e+000	 1.068688037290191e+001
0	 4.333350000014584e+000	 2.000000000000000e+000	 1.098534533680292e+001
0	 4.333350000014584e+000	 2.066670000003317e+000	 1.093152427759863e+001
0	 4.333350000014582e+000	 2.133340000006534e+000	 1.088222303249337e+001
0	 4.333350000014583e+000	 2.200010000009551e+000	 1.083732238095448e+001
0	 4.333350000014583e+000	 2.266680000012267e+000	 1.079670310244931e+001
0	 4.333350000014582e+000	 2.333350000014585e+000	 1.076024597644528e+001
0	 4.333350000014584e+000	 2.400020000016402e+000	 1.072783178240981e+001
0	 4.333350000014583e+000	 2.466690000017617e+000	 1.069934129981035e+001
0	 4.333350000014582e+000	 2.533360000018134e+000	 1.067465530811441e+001
0	 4.333350000014583e+000	 2.600030000017851e+000	 1.065365458678950e+001
0	 4.333350000014582e+000	 2.666700000016667e+000	 1.063621991530319e+001
0	 4.400020000016400e+000	 2.000000000000000e+000	 1.083086925794710e+001
0	 4.400020000016399e+000	 2.066670000003317e+000	 1.079367687134883e+001
0	 4.400020000016400e+000	 2.133340000006534e+000	 1.075992310425752e+001
0	 4.400020000016400e+000	 2.200010000009550e+000	 1.072950901588808e+001
0	 4.400020000016400e+000	 2.266680000012268e+000	 1.070233566545536e+001
0	 4.400020000016401e+000	 2.333350000014585e+000	 1.067830411217430e+001
0	 4.400020000016400e+000	 2.400020000016401e+000	 1.065731541525982e+001
0	 4.400020000016401e+000	 2.466690000017618e+000	 1.063927063392688e+001
0	 4.400020000016400e+000	 2.533360000018133e+000	 1.062407082739045e+001
0	 4.400020000016400e+000	 2.600030000017851e+000	 1.061161705486555e+001
0	 4.400020000016400e+000	 2.666700000016666e+000	 1.060181037556720e+001
0	 4.466690000017617e+000	 2.000000000000000e+000	 1.072164507444808e+001
0	 4.466690000017616e+000	 2.066670000003317e+000	 1.069708486594718e+001
0	 4.466690000017616e+000	 2.133340000006533e+000	 1.067503598871504e+001
0	 4.466690000017616e+000	 2.200010000009551e+000	 1.065542052951862e+001
0	 4.466690000017614e+000	 2.266680000012267e+000	 1.063816057512494e+001
0	 4.466690000017616e+000	 2.333350000014584e+000	 1.062317821230097e+001
0	 4.466690000017616e+000	 2.400020000016400e+000	 1.061039552781375e+001
0	 4.466690000017615e+000	 2.466690000017617e+000	 1.059973460843029e+001
0	 4.466690000017616e+000	 2.533360000018134e+000	 1.059111754091766e+001
0	 4.466690000017618e+000	 2.600030000017851e+000	 1.058446641204292e+001
0	 4.466690000017615e+000	 2.666700000016666e+000	 1.057970330857314e+001
0	 4.533360000018131e+000	 2.000000000000000e+000	 1.064724434602591e+001
0	 4.533360000018132e+000	 2.066670000003316e+000	 1.063201991407782e+001
0	 4.533360000018133e+000	 2.133340000006534e+000	 1.061852185519228e+001
0	 4.533360000018131e+000	 2.200010000009550e+000	 1.060669403149294e+001
0	 4.533360000018131e+000	 2.266680000012268e+000	 1.059648030510346e+001
0	 4.533360000018132e+000	 2.333350000014585e+000	 1.058782453814753e+001
0	 4.533360000018131e+000	 2.400020000016401e+000	 1.058067059274881e+001
0	 4.533360000018133e+000	 2.466690000017617e+000	 1.057496233103101e+001
0	 4.533360000018133e+000	 2.533360000018134e+000	 1.057064361511782e+001
0	 4.533360000018132e+000	 2.600030000017850e+000	 1.056765830713297e+001
0	 4.533360000018132e+000	 2.666700000016667e+000	 1.056595026920016e+001
0	 4.600030000017851e+000	 2.000000000000000e+000	 1.059723863240058e+001
0	 4.600030000017849e+000	 2.066670000003317e+000	 1.058875366842483e+001
0	 4.600030000017849e+000	 2.133340000006534e+000	 1.058134087301560e+001
0	 4.600030000017848e+000	 2.200010000009551e+000	 1.057496663145779e+001
0	 4.600030000017848e+000	 2.266680000012268e+000	 1.056959732903635e+001
0	 4.600030000017849e+000	 2.333350000014585e+000	 1.056519935103620e+001
0	 4.600030000017847e+000	 2.400020000016400e+000	 1.056173908274225e+001
0	 4.600030000017848e+000	 2.466690000017618e+000	 1.055918290943946e+001
0	 4.600030000017849e+000	 2.533360000018134e+000	 1.055749721641276e+001
0	 4.600030000017850e+000	 2.600030000017851e+000	 1.055664838894710e+001
0	 4.600030000017849e+000	 2.666700000016667e+000	 1.055660281232744e+001
0	 4.666700000016666e+000	 2.000000000000000e+000	 1.056119949329208e+001
0	 4.666700000016665e+000	 2.066670000003317e+000	 1.055755778167228e+001
0	 4.666700000016666e+000	 2.133340000006534e+000	 1.055445321151132e+001
0	 4.666700000016666e+000	 2.200010000009551e+000	 1.055187543905996e+001
0	 4.666700000016667e+000	 2.266680000012268e+000	 1.054981412056899e+001
0	 4.666700000016666e+000	 2.333350000014584e+000	 1.054825891228916e+001
0	 4.666700000016665e+000	 2.400020000016401e+000	 1.054719947047124e+001
0	 4.666700000016666e+000	 2.466690000017617e+000	 1.054662545136600e+001
0	 4.666700000016665e+000	 2.533360000018134e+000	 1.054652651122422e+001
0	 4.666700000016666e+000	 2.600030000017851e+000	 1.054689230629666e+001
0	 4.666700000016665e+000	 2.666700000016666e+000	 1.054771249283410e+001
0	 4.000000000000000e+000	 2.666700000016667e+000	 1.113100028433981e+001
0	 4.000000000000000e+000	 2.733360000014532e+000	 1.102661910530317e+001
0	 4.000000000000001e+000	 2.800020000011599e+000	 1.093298672125298e+001
0	 4.000000000000001e+000	 2.866680000008067e+000	 1.085006359391842e+001
0	 4.000000000000000e+000	 2.933340000004133e+000	 1.077781018502849e+001
0	 4.000000000000001e+000	 3.000000000000001e+000	 1.071618695631201e+001
0	 4.000000000000001e+000	 3.066659999995868e+000	 1.066515436949756e+001
0	 4.000000000000000e+000	 3.133319999991934e+000	 1.062467288631359e+001
0	 4.000000000000001e+000	 3.199979999988401e+000	 1.059470296848830e+001
0	 4.000000000000000e+000	 3.266639999985468e+000	 1.057520507774975e+001
0	 4.000000000000000e+000	 3.333299999983334e+000	 1.056613967582575e+001
0	 4.066670000003317e+000	 2.666700000016666e+000	 1.097585170408236e+001
0	 4.066670000003318e+000	 2.733360000014534e+000	 1.089857229143944e+001
0	 4.066670000003316e+000	 2.800020000011600e+000	 1.082918112964267e+001
0	 4.066670000003319e+000	 2.866680000008066e+000	 1.076767418664396e+001
0	 4.066670000003316e+000	 2.933340000004133e+000	 1.071404743039512e+001
0	 4.066670000003318e+000	 3.000000000000000e+000	 1.066829682884782e+001
0	 4.066670000003317e+000	 3.066659999995868e+000	 1.063041834995358e+001
0	 4.066670000003317e+000	 3.133319999991934e+000	 1.060040796166376e+001
0	 4.066670000003316e+000	 3.199979999988402e+000	 1.057826163192961e+001
0	 4.066670000003318e+000	 3.266639999985468e+000	 1.056397532870222e+001
0	 4.066670000003317e+000	 3.333299999983334e+000	 1.055754501993253e+001
0	 4.133340000006534e+000	 2.666700000016666e+000	 1.085274782217072e+001
0	 4.133340000006533e+000	 2.733360000014534e+000	 1.079736145534218e+001
0	 4.133340000006531e+000	 2.800020000011599e+000	 1.074748921798988e+001
0	 4.133340000006533e+000	 2.866680000008066e+000	 1.070315639803399e+001
0	 4.133340000006534e+000	 2.933340000004133e+000	 1.066438828339461e+001
0	 4.133340000006535e+000	 3.000000000000000e+000	 1.063121016199171e+001
0	 4.133340000006534e+000	 3.066659999995868e+000	 1.060364732174518e+001
0	 4.133340000006535e+000	 3.133319999991935e+000	 1.058172505057479e+001
0	 4.133340000006532e+000	 3.199979999988400e+000	 1.056546863640023e+001
0	 4.133340000006534e+000	 3.266639999985468e+000	 1.055490336714106e+001
0	 4.133340000006534e+000	 3.333299999983334e+000	 1.055005453071679e+001
0	 4.200010000009550e+000	 2.666700000016667e+000	 1.075774019348416e+001
0	 4.200010000009551e+000	 2.733360000014533e+000	 1.071960640435952e+001
0	 4.200010000009551e+000	 2.800020000011601e+000	 1.068505549226225e+001
0	 4.200010000009550e+000	 2.866680000008066e+000	 1.065413587882622e+001
0	 4.200010000009550e+000	 2.933340000004133e+000	 1.062689598568527e+001
0	 4.200010000009553e+000	 3.000000000000000e+000	 1.060338423447317e+001
0	 4.200010000009550e+000	 3.066659999995868e+000	 1.058364904682357e+001
0	 4.200010000009550e+000	 3.133319999991934e+000	 1.056773884437017e+001
0	 4.200010000009550e+000	 3.199979999988401e+000	 1.055570204874647e+001
0	 4.200010000009551e+000	 3.266639999985468e+000	 1.054758708158600e+001
0	 4.200010000009550e+000	 3.333299999983334e+000	 1.054344236452220e+001
0	 4.266680000012266e+000	 2.666700000016666e+000	 1.068688037290191e+001
0	 4.266680000012268e+000	 2.733360000014534e+000	 1.066192694583961e+001
0	 4.266680000012265e+000	 2.800020000011599e+000	 1.063902445842739e+001
0	 4.266680000012267e+000	 2.866680000008066e+000	 1.061823827975830e+001
0	 4.266680000012267e+000	 2.933340000004134e+000	 1.059963377892538e+001
0	 4.266680000012268e+000	 3.000000000000000e+000	 1.058327632502163e+001
0	 4.266680000012267e+000	 3.066659999995866e+000	 1.056923128713999e+001
0	 4.266680000012267e+000	 3.133319999991934e+000	 1.055756403437338e+001
0	 4.266680000012267e+000	 3.199979999988402e+000	 1.054833993581467e+001
0	 4.266680000012268e+000	 3.266639999985468e+000	 1.054162436055675e+001
0	 4.266680000012265e+000	 3.333299999983333e+000	 1.053748267769237e+001
0	 4.333350000014582e+000	 2.666700000016667e+000	 1.063621991530319e+001
0	 4.333350000014583e+000	 2.733360000014533e+000	 1.062094288713059e+001
0	 4.333350000014583e+000	 2.800020000011600e+000	 1.060654062245292e+001
0	 4.333350000014583e+000	 2.866680000008067e+000	 1.059308925156790e+001
0	 4.333350000014582e+000	 2.933340000004133e+000	 1.058066490477324e+001
0	 4.333350000014583e+000	 3.000000000000000e+000	 1.056934371236656e+001
0	 4.333350000014582e+000	 3.066659999995868e+000	 1.055920180464557e+001
0	 4.333350000014583e+000	 3.133319999991934e+000	 1.055031531190789e+001
0	 4.333350000014583e+000	 3.199979999988401e+000	 1.054276036445117e+001
0	 4.333350000014582e+000	 3.266639999985467e+000	 1.053661309257299e+001
0	 4.333350000014582e+000	 3.333299999983334e+000	 1.053194962657098e+001
0	 4.400020000016400e+000	 2.666700000016666e+000	 1.060181037556720e+001
0	 4.400020000016401e+000	 2.733360000014534e+000	 1.059327403558054e+001
0	 4.400020000016400e+000	 2.800020000011600e+000	 1.058474849030644e+001
0	 4.400020000016398e+000	 2.866680000008066e+000	 1.057631444499268e+001
0	 4.400020000016399e+000	 2.933340000004133e+000	 1.056805260488707e+001
0	 4.400020000016399e+000	 3.000000000000001e+000	 1.056004367523743e+001
0	 4.400020000016399e+000	 3.066659999995867e+000	 1.055236836129154e+001
0	 4.400020000016400e+000	 3.133319999991934e+000	 1.054510736829720e+001
0	 4.400020000016401e+000	 3.199979999988401e+000	 1.053834140150225e+001
0	 4.400020000016401e+000	 3.266639999985468e+000	 1.053215116615447e+001
0	 4.400020000016401e+000	 3.333299999983334e+000	 1.052661736750168e+001
0	 4.466690000017615e+000	 2.666700000016666e+000	 1.057970330857314e+001
0	 4.466690000017617e+000	 2.733360000014534e+000	 1.057554019853760e+001
0	 4.466690000017617e+000	 2.800020000011600e+000	 1.057079256795553e+001
0	 4.466690000017615e+000	 2.866680000008066e+000	 1.056553951077027e+001
0	 4.466690000017616e+000	 2.933340000004134e+000	 1.055986012092519e+001
0	 4.466690000017617e+000	 3.000000000000000e+000	 1.055383349236366e+001
0	 4.466690000017615e+000	 3.066659999995868e+000	 1.054753871902905e+001
0	 4.466690000017616e+000	 3.133319999991934e+000	 1.054105489486478e+001
0	 4.466690000017616e+000	 3.199979999988400e+000	 1.053446111381425e+001
0	 4.466690000017615e+000	 3.266639999985468e+000	 1.052783646982088e+001
0	 4.466690000017615e+000	 3.333299999983334e+000	 1.052126005682812e+001
0	 4.533360000018132e+000	 2.666700000016667e+000	 1.056595026920016e+001
0	 4.533360000018132e+000	 2.733360000014534e+000	 1.056436118334982e+001
0	 4.533360000018132e+000	 2.800020000011601e+000	 1.056181736136776e+001
0	 4.533360000018134e+000	 2.866680000008067e+000	 1.055839009963831e+001
0	 4.533360000018133e+000	 2.933340000004133e+000	 1.055415069454583e+001
0	 4.533360000018131e+000	 3.000000000000000e+000	 1.054917044247469e+001
0	 4.533360000018132e+000	 3.066659999995867e+000	 1.054352063980930e+001
0	 4.533360000018132e+000	 3.133319999991934e+000	 1.053727258293409e+001
0	 4.533360000018131e+000	 3.199979999988400e+000	 1.053049756823347e+001
0	 4.533360000018132e+000	 3.266639999985468e+000	 1.052326689209193e+001
0	 4.533360000018130e+000	 3.333299999983333e+000	 1.051565185089394e+001
0	 4.600030000017849e+000	 2.666700000016667e+000	 1.055660281232743e+001
0	 4.600030000017848e+000	 2.733360000014532e+000	 1.055635679736529e+001
0	 4.600030000017848e+000	 2.800020000011599e+000	 1.055496737651069e+001
0	 4.600030000017848e+000	 2.866680000008066e+000	 1.055249186233440e+001
0	 4.600030000017848e+000	 2.933340000004133e+000	 1.054898756740723e+001
0	 4.600030000017849e+000	 3.000000000000001e+000	 1.054451180429997e+001
0	 4.600030000017849e+000	 3.066659999995868e+000	 1.053912188558348e+001
0	 4.600030000017849e+000	 3.133319999991934e+000	 1.053287512382860e+001
0	 4.600030000017848e+000	 3.199979999988401e+000	 1.052582883160626e+001
0	 4.600030000017849e+000	 3.266639999985468e+000	 1.051804032148733e+001
0	 4.600030000017849e+000	 3.333299999983334e+000	 1.050956690604280e+001
0	 4.666700000016665e+000	 2.666700000016666e+000	 1.054771249283410e+001
0	 4.666700000016666e+000	 2.733360000014533e+000	 1.054814684793205e+001
0	 4.666700000016665e+000	 2.800020000011599e+000	 1.054738711935186e+001
0	 4.666700000016666e+000	 2.866680000008067e+000	 1.054547044959618e+001
0	 4.666700000016667e+000	 2.933340000004133e+000	 1.054243398116764e+001
0	 4.666700000016666e+000	 3.000000000000001e+000	 1.053831485656891e+001
0	 4.666700000016667e+000	 3.066659999995868e+000	 1.053315021830273e+001
0	 4.666700000016667e+000	 3.133319999991934e+000	 1.052697720887180e+001
0	 4.666700000016666e+000	 3.199979999988401e+000	 1.051983297077890e+001
0	 4.666700000016667e+000	 3.266639999985468e+000	 1.051175464652681e+001
0	 4.666700000016666e+000	 3.333299999983334e+000	 1.050277937861835e+001
0	 4.000000000000000e+000	 3.333299999983334e+000	 1.056613967582575e+001
0	 4.000000000000001e+000	 3.399969999982151e+000	 1.056138222991374e+001
0	 4.000000000000001e+000	 3.466639999981866e+000	 1.055490605930502e+001
0	 4.000000000000000e+000	 3.533309999982383e+000	 1.054681666564275e+001
0	 4.000000000000001e+000	 3.599979999983599e+000	 1.053721955057004e+001
0	 4.000000000000000e+000	 3.666649999985415e+000	 1.052622021573000e+001
0	 4.000000000000001e+000	 3.733319999987732e+000	 1.051392416276573e+001
0	 3.999999999999999e+000	 3.799989999990447e+000	 1.050043689332031e+001
0	 4.000000000000000e+000	 3.866659999993465e+000	 1.048586390903679e+001
0	 4.000000000000000e+000	 3.933329999996681e+000	 1.047031071155826e+001
0	 4.000000000000001e+000	 4.000000000000001e+000	 1.045388280252772e+001
0	 4.066670000003317e+000	 3.333299999983334e+000	 1.055754501993253e+001
0	 4.066670000003316e+000	 3.399969999982149e+000	 1.055418980525728e+001
0	 4.066670000003317e+000	 3.466639999981866e+000	 1.054917282549748e+001
0	 4.066670000003316e+000	 3.533309999982383e+000	 1.054255498362278e+001
0	 4.066670000003316e+000	 3.599979999983597e+000	 1.053439718260277e+001
0	 4.066670000003316e+000	 3.666649999985415e+000	 1.052476032540703e+001
0	 4.066670000003318e+000	 3.733319999987732e+000	 1.051370531500514e+001
0	 4.066670000003317e+000	 3.799989999990448e+000	 1.050129305436667e+001
0	 4.066670000003317e+000	 3.866659999993465e+000	 1.048758444646116e+001
0	 4.066670000003316e+000	 3.933329999996682e+000	 1.047264039425813e+001
0	 4.066670000003317e+000	 4.000000000000001e+000	 1.045652180072709e+001
0	 4.133340000006534e+000	 3.333299999983334e+000	 1.055005453071680e+001
0	 4.133340000006534e+000	 3.399969999982150e+000	 1.054730723960995e+001
0	 4.133340000006533e+000	 3.466639999981866e+000	 1.054304536583296e+001
0	 4.133340000006534e+000	 3.533309999982382e+000	 1.053729144452514e+001
0	 4.133340000006533e+000	 3.599979999983598e+000	 1.053006801082572e+001
0	 4.133340000006532e+000	 3.666649999985415e+000	 1.052139759987391e+001
0	 4.133340000006534e+000	 3.733319999987731e+000	 1.051130274680897e+001
0	 4.133340000006533e+000	 3.799989999990449e+000	 1.049980598677008e+001
0	 4.133340000006533e+000	 3.866659999993465e+000	 1.048692985489645e+001
0	 4.133340000006534e+000	 3.933329999996682e+000	 1.047269688632725e+001
0	 4.133340000006533e+000	 4.000000000000000e+000	 1.045712961620162e+001
0	 4.200010000009550e+000	 3.333299999983334e+000	 1.054344236452220e+001
0	 4.200010000009550e+000	 3.399969999982151e+000	 1.054065251708231e+001
0	 4.200010000009550e+000	 3.466639999981866e+000	 1.053656411957250e+001
0	 4.200010000009550e+000	 3.533309999982383e+000	 1.053116757014486e+001
0	 4.200010000009551e+000	 3.599979999983599e+000	 1.052445326695142e+001
0	 4.200010000009550e+000	 3.666649999985415e+000	 1.051641160814425e+001
0	 4.200010000009550e+000	 3.733319999987731e+000	 1.050703299187542e+001
0	 4.200010000009550e+000	 3.799989999990448e+000	 1.049630781629689e+001
0	 4.200010000009550e+000	 3.866659999993465e+000	 1.048422647956068e+001
0	 4.200010000009549e+000	 3.933329999996682e+000	 1.047077937981881e+001
0	 4.200010000009550e+000	 4.000000000000000e+000	 1.045595691522321e+001
0	 4.266680000012265e+000	 3.333299999983333e+000	 1.053748267769237e+001
0	 4.266680000012267e+000	 3.399969999982150e+000	 1.053414362178494e+001
0	 4.266680000012266e+000	 3.466639999981866e+000	 1.052976952597710e+001
0	 4.266680000012267e+000	 3.533309999982383e+000	 1.052432488227693e+001
0	 4.266680000012268e+000	 3.599979999983599e+000	 1.051777418269246e+001
0	 4.266680000012268e+000	 3.666649999985415e+000	 1.051008191923170e+001
0	 4.266680000012267e+000	 3.733319999987732e+000	 1.050121258390269e+001
0	 4.266680000012267e+000	 3.799989999990447e+000	 1.049113066871341e+001
0	 4.266680000012268e+000	 3.866659999993466e+000	 1.047980066567185e+001
0	 4.266680000012267e+000	 3.933329999996681e+000	 1.046718706678599e+001
0	 4.266680000012266e+000	 4.000000000000000e+000	 1.045325436406380e+001
0	 4.333350000014582e+000	 3.333299999983334e+000	 1.053194962657098e+001
0	 4.333350000014583e+000	 3.399969999982150e+000	 1.052769853782844e+001
0	 4.333350000014583e+000	 3.466639999981866e+000	 1.052270202430786e+001
0	 4.333350000014583e+000	 3.533309999982382e+000	 1.051690490271643e+001
0	 4.333350000014583e+000	 3.599979999983599e+000	 1.051025198976135e+001
0	 4.333350000014582e+000	 3.666649999985415e+000	 1.050268810214982e+001
0	 4.333350000014583e+000	 3.733319999987732e+000	 1.049415805658897e+001
0	 4.333350000014583e+000	 3.799989999990449e+000	 1.048460666978597e+001
0	 4.333350000014582e+000	 3.866659999993465e+000	 1.047397875844794e+001
0	 4.333350000014582e+000	 3.933329999996681e+000	 1.046221913928201e+001
0	 4.333350000014584e+000	 4.000000000000000e+000	 1.044927262899530e+001
0	 4.400020000016401e+000	 3.333299999983334e+000	 1.052661736750168e+001
0	 4.400020000016400e+000	 3.399969999982150e+000	 1.052123524932336e+001
0	 4.400020000016401e+000	 3.466639999981866e+000	 1.051540205382576e+001
0	 4.400020000016401e+000	 3.533309999982383e+000	 1.050904915325837e+001
0	 4.400020000016400e+000	 3.599979999983599e+000	 1.050210791987070e+001
0	 4.400020000016399e+000	 3.666649999985415e+000	 1.049450972591226e+001
0	 4.400020000016401e+000	 3.733319999987732e+000	 1.048618594363249e+001
0	 4.400020000016400e+000	 3.799989999990448e+000	 1.047706794528090e+001
0	 4.400020000016401e+000	 3.866659999993465e+000	 1.046708710310693e+001
0	 4.400020000016400e+000	 3.933329999996681e+000	 1.045617478936003e+001
0	 4.400020000016399e+000	 4.000000000000000e+000	 1.044426237628965e+001
0	 4.466690000017615e+000	 3.333299999983334e+000	 1.052126005682812e+001
0	 4.466690000017616e+000	 3.399969999982150e+000	 1.051467174038032e+001
0	 4.466690000017616e+000	 3.466639999981866e+000	 1.050791005379189e+001
0	 4.466690000017615e+000	 3.533309999982381e+000	 1.050089915569780e+001
0	 4.466690000017616e+000	 3.599979999983598e+000	 1.049356320473306e+001
0	 4.466690000017615e+000	 3.666649999985415e+000	 1.048582635953263e+001
0	 4.466690000017617e+000	 3.733319999987732e+000	 1.047761277873147e+001
0	 4.466690000017616e+000	 3.799989999990448e+000	 1.046884662096456e+001
0	 4.466690000017614e+000	 3.866659999993464e+000	 1.045945204486684e+001
0	 4.466690000017615e+000	 3.933329999996682e+000	 1.044935320907325e+001
0	 4.466690000017617e+000	 4.000000000000001e+000	 1.043847427221873e+001
0	 4.533360000018130e+000	 3.333299999983333e+000	 1.051565185089394e+001
0	 4.533360000018132e+000	 3.399969999982150e+000	 1.050792599510989e+001
0	 4.533360000018133e+000	 3.466639999981866e+000	 1.050026646346728e+001
0	 4.533360000018133e+000	 3.533309999982383e+000	 1.049259643182976e+001
0	 4.533360000018133e+000	 3.599979999983599e+000	 1.048483907606096e+001
0	 4.533360000018133e+000	 3.666649999985415e+000	 1.047691757202453e+001
0	 4.533360000018134e+000	 3.733319999987733e+000	 1.046875509558409e+001
0	 4.533360000018131e+000	 3.799989999990447e+000	 1.046027482260327e+001
0	 4.533360000018132e+000	 3.866659999993465e+000	 1.045139992894566e+001
0	 4.533360000018132e+000	 3.933329999996682e+000	 1.044205359047486e+001
0	 4.533360000018131e+000	 4.000000000000000e+000	 1.043215898305451e+001
0	 4.600030000017849e+000	 3.333299999983334e+000	 1.050956690604280e+001
0	 4.600030000017849e+000	 3.399969999982150e+000	 1.050091599762263e+001
0	 4.600030000017848e+000	 3.466639999981866e+000	 1.049251172211297e+001
0	 4.600030000017848e+000	 3.533309999982383e+000	 1.048428250344927e+001
0	 4.600030000017848e+000	 3.599979999983599e+000	 1.047615676556700e+001
0	 4.600030000017849e+000	 3.666649999985415e+000	 1.046806293240162e+001
0	 4.600030000017848e+000	 3.733319999987732e+000	 1.045992942788858e+001
0	 4.600030000017848e+000	 3.799989999990448e+000	 1.045168467596335e+001
0	 4.600030000017848e+000	 3.866659999993464e+000	 1.044325710056135e+001
0	 4.600030000017848e+000	 3.933329999996681e+000	 1.043457512561805e+001
0	 4.600030000017848e+000	 4.000000000000000e+000	 1.042556717506887e+001
0	 4.666700000016666e+000	 3.333299999983334e+000	 1.050277937861835e+001
0	 4.666700000016665e+000	 3.399969999982149e+000	 1.049355973202917e+001
0	 4.666700000016665e+000	 3.466639999981867e+000	 1.048468626899003e+001
0	 4.666700000016665e+000	 3.533309999982382e+000	 1.047609889235139e+001
0	 4.666700000016666e+000	 3.599979999983599e+000	 1.046773750496373e+001
0	 4.666700000016666e+000	 3.666649999985415e+000	 1.045954200967749e+001
0	 4.666700000016667e+000	 3.733319999987732e+000	 1.045145230934315e+001
0	 4.666700000016665e+000	 3.799989999990447e+000	 1.044340830681115e+001
0	 4.666700000016666e+000	 3.866659999993465e+000	 1.043534990493195e+001
0	 4.666700000016665e+000	 3.933329999996681e+000	 1.042721700655600e+001
0	 4.666700000016666e+000	 4.000000000000000e+000	 1.041894951453375e+001
0	 4.000000000000001e+000	 4.000000000000001e+000	 1.045388280252772e+001
0	 4.000000000000000e+000	 4.066670000003317e+000	 1.043759053234264e+001
0	 4.000000000000001e+000	 4.133340000006534e+000	 1.042230942959168e+001
0	 4.000000000000000e+000	 4.200010000009551e+000	 1.040794276320470e+001
0	 4.000000000000001e+000	 4.266680000012266e+000	 1.039439380211158e+001
0	 4.000000000000000e+000	 4.333350000014583e+000	 1.038156581524220e+001
0	 4.000000000000001e+000	 4.400020000016400e+000	 1.036936207152641e+001
0	 4.000000000000000e+000	 4.466690000017617e+000	 1.035768583989411e+001
0	 4.000000000000001e+000	 4.533360000018133e+000	 1.034644038927518e+001
0	 4.000000000000000e+000	 4.600030000017849e+000	 1.033552898859951e+001
0	 4.000000000000001e+000	 4.666700000016666e+000	 1.032485490679700e+001
0	 4.066670000003317e+000	 4.000000000000001e+000	 1.045652180072709e+001
0	 4.066670000003316e+000	 4.066670000003317e+000	 1.044032292487538e+001
0	 4.066670000003317e+000	 4.133340000006534e+000	 1.042504882164682e+001
0	 4.066670000003318e+000	 4.200010000009550e+000	 1.041062658791574e+001
0	 4.066670000003317e+000	 4.266680000012268e+000	 1.039698332055649e+001
0	 4.066670000003318e+000	 4.333350000014584e+000	 1.038404611644338e+001
0	 4.066670000003318e+000	 4.400020000016400e+000	 1.037174207245077e+001
0	 4.066670000003316e+000	 4.466690000017617e+000	 1.035999828545299e+001
0	 4.066670000003317e+000	 4.533360000018134e+000	 1.034874185232439e+001
0	 4.066670000003317e+000	 4.600030000017848e+000	 1.033789986993930e+001
0	 4.066670000003317e+000	 4.666700000016667e+000	 1.032739943517210e+001
0	 4.133340000006533e+000	 4.000000000000000e+000	 1.045712961620162e+001
0	 4.133340000006534e+000	 4.066670000003318e+000	 1.044132804474206e+001
0	 4.133340000006534e+000	 4.133340000006535e+000	 1.042634244508929e+001
0	 4.133340000006534e+000	 4.200010000009550e+000	 1.041212076175981e+001
0	 4.133340000006533e+000	 4.266680000012267e+000	 1.039861093927012e+001
0	 4.133340000006532e+000	 4.333350000014583e+000	 1.038576092213675e+001
0	 4.133340000006534e+000	 4.400020000016400e+000	 1.037351865487620e+001
0	 4.133340000006533e+000	 4.466690000017617e+000	 1.036183208200499e+001
0	 4.133340000006534e+000	 4.533360000018133e+000	 1.035064914803963e+001
0	 4.133340000006533e+000	 4.600030000017849e+000	 1.033991779749667e+001
0	 4.133340000006535e+000	 4.666700000016667e+000	 1.032958597489260e+001
0	 4.200010000009550e+000	 4.000000000000000e+000	 1.045595691522321e+001
0	 4.200010000009550e+000	 4.066670000003318e+000	 1.044080065050174e+001
0	 4.200010000009550e+000	 4.133340000006534e+000	 1.042633575951851e+001
0	 4.200010000009550e+000	 4.200010000009550e+000	 1.041252805412991e+001
0	 4.200010000009550e+000	 4.266680000012268e+000	 1.039934334619234e+001
0	 4.200010000009551e+000	 4.333350000014582e+000	 1.038674744756221e+001
0	 4.200010000009549e+000	 4.400020000016399e+000	 1.037470617009593e+001
0	 4.200010000009551e+000	 4.466690000017616e+000	 1.036318532564990e+001
0	 4.200010000009550e+000	 4.533360000018133e+000	 1.035215072608053e+001
0	 4.200010000009550e+000	 4.600030000017849e+000	 1.034156818324425e+001
0	 4.200010000009550e+000	 4.666700000016666e+000	 1.033140350899749e+001
0	 4.266680000012266e+000	 4.000000000000000e+000	 1.045325436406380e+001
0	 4.266680000012266e+000	 4.066670000003317e+000	 1.043893550071346e+001
0	 4.266680000012270e+000	 4.133340000006535e+000	 1.042517422453386e+001
0	 4.266680000012267e+000	 4.200010000009550e+000	 1.041195123441902e+001
0	 4.266680000012267e+000	 4.266680000012268e+000	 1.039924722926296e+001
0	 4.266680000012267e+000	 4.333350000014584e+000	 1.038704290795969e+001
0	 4.266680000012267e+000	 4.400020000016402e+000	 1.037531896940320e+001
0	 4.266680000012266e+000	 4.466690000017616e+000	 1.036405611248754e+001
0	 4.266680000012265e+000	 4.533360000018131e+000	 1.035323503610670e+001
0	 4.266680000012267e+000	 4.600030000017849e+000	 1.034283643915473e+001
0	 4.266680000012266e+000	 4.666700000016666e+000	 1.033284102052565e+001
0	 4.333350000014584e+000	 4.000000000000000e+000	 1.044927262899530e+001
0	 4.333350000014584e+000	 4.066670000003319e+000	 1.043592735393625e+001
0	 4.333350000014583e+000	 4.133340000006534e+000	 1.042300329973476e+001
0	 4.333350000014584e+000	 4.200010000009550e+000	 1.041049307202019e+001
0	 4.333350000014582e+000	 4.266680000012266e+000	 1.039838927642185e+001
0	 4.333350000014584e+000	 4.333350000014584e+000	 1.038668451856910e+001
0	 4.333350000014583e+000	 4.400020000016399e+000	 1.037537140409127e+001
0	 4.333350000014583e+000	 4.466690000017614e+000	 1.036444253861769e+001
0	 4.333350000014582e+000	 4.533360000018132e+000	 1.035389052777773e+001
0	 4.333350000014585e+000	 4.600030000017850e+000	 1.034370797720073e+001
0	 4.333350000014584e+000	 4.666700000016667e+000	 1.033388749251603e+001
0	 4.400020000016399e+000	 4.000000000000000e+000	 1.044426237628966e+001
0	 4.400020000016399e+000	 4.066670000003318e+000	 1.043197096872916e+001
0	 4.400020000016401e+000	 4.133340000006534e+000	 1.041996844472061e+001
0	 4.400020000016399e+000	 4.200010000009549e+000	 1.040825633632637e+001
0	 4.400020000016400e+000	 4.266680000012268e+000	 1.039683617560883e+001
0	 4.400020000016399e+000	 4.333350000014583e+000	 1.038570949463037e+001
0	 4.400020000016401e+000	 4.400020000016401e+000	 1.037487782545336e+001
0	 4.400020000016400e+000	 4.466690000017616e+000	 1.036434270014019e+001
0	 4.400020000016400e+000	 4.533360000018132e+000	 1.035410565075325e+001
0	 4.400020000016399e+000	 4.600030000017850e+000	 1.034416820935491e+001
0	 4.400020000016400e+000	 4.666700000016666e+000	 1.033453190800758e+001
0	 4.466690000017617e+000	 4.000000000000001e+000	 1.043847427221873e+001
0	 4.466690000017616e+000	 4.066670000003317e+000	 1.042726110365122e+001
0	 4.466690000017618e+000	 4.133340000006533e+000	 1.041621511909080e+001
0	 4.466690000017617e+000	 4.200010000009550e+000	 1.040534379673060e+001
0	 4.466690000017615e+000	 4.266680000012266e+000	 1.039465461476376e+001
0	 4.466690000017617e+000	 4.333350000014583e+000	 1.038415505138343e+001
0	 4.466690000017616e+000	 4.400020000016399e+000	 1.037385258478275e+001
0	 4.466690000017615e+000	 4.466690000017616e+000	 1.036375469315484e+001
0	 4.466690000017616e+000	 4.533360000018131e+000	 1.035386885469286e+001
0	 4.466690000017616e+000	 4.600030000017849e+000	 1.034420254758993e+001
0	 4.466690000017615e+000	 4.666700000016665e+000	 1.033476325003921e+001
0	 4.533360000018131e+000	 4.000000000000000e+000	 1.043215898305451e+001
0	 4.533360000018134e+000	 4.066670000003318e+000	 1.042199251726150e+001
0	 4.533360000018132e+000	 4.133340000006533e+000	 1.041188878244473e+001
0	 4.533360000018132e+000	 4.200010000009550e+000	 1.040185822262586e+001
0	 4.533360000018132e+000	 4.266680000012266e+000	 1.039191128182648e+001
0	 4.533360000018132e+000	 4.333350000014582e+000	 1.038205840406821e+001
0	 4.533360000018132e+000	 4.400020000016400e+000	 1.037231003337266e+001
0	 4.533360000018132e+000	 4.466690000017616e+000	 1.036267661376143e+001
0	 4.533360000018132e+000	 4.533360000018132e+000	 1.035316858925616e+001
0	 4.533360000018132e+000	 4.600030000017849e+000	 1.034379640387844e+001
0	 4.533360000018131e+000	 4.666700000016666e+000	 1.033457050164988e+001
0	 4.600030000017848e+000	 4.000000000000000e+000	 1.042556717506887e+001
0	 4.600030000017849e+000	 4.066670000003318e+000	 1.041635996811899e+001
0	 4.600030000017848e+000	 4.133340000006533e+000	 1.040713489438181e+001
0	 4.600030000017848e+000	 4.200010000009550e+000	 1.039790238340516e+001
0	 4.600030000017850e+000	 4.266680000012268e+000	 1.038867286473682e+001
0	 4.600030000017850e+000	 4.333350000014584e+000	 1.037945676792462e+001
0	 4.600030000017849e+000	 4.400020000016400e+000	 1.037026452251634e+001
0	 4.600030000017849e+000	 4.466690000017617e+000	 1.036110655805979e+001
0	 4.600030000017849e+000	 4.533360000018131e+000	 1.035199330410278e+001
0	 4.600030000017848e+000	 4.600030000017848e+000	 1.034293519019310e+001
0	 4.600030000017848e+000	 4.666700000016666e+000	 1.033394264587855e+001
0	 4.666700000016666e+000	 4.000000000000000e+000	 1.041894951453375e+001
0	 4.666700000016666e+000	 4.066670000003317e+000	 1.041055821478274e+001
0	 4.666700000016666e+000	 4.133340000006533e+000	 1.040209891450143e+001
0	 4.666700000016666e+000	 4.200010000009550e+000	 1.039357904846148e+001
0	 4.666700000016666e+000	 4.266680000012266e+000	 1.038500605143463e+001
0	 4.666700000016666e+000	 4.333350000014583e+000	 1.037638735819258e+001
0	 4.666700000016666e+000	 4.400020000016400e+000	 1.036773040350705e+001
0	 4.666700000016666e+000	 4.466690000017616e+000	 1.035904262214973e+001
0	 4.666700000016665e+000	 4.533360000018131e+000	 1.035033144889233e+001
0	 4.666700000016666e+000	 4.600030000017849e+000	 1.034160431850655e+001
0	 4.666700000016666e+000	 4.666700000016666e+000	 1.033286866576410e+001
0	 4.000000000000001e+000	 4.666700000016666e+000	 1.032485490679700e+001
0	 4.000000000000000e+000	 4.733360000014533e+000	 1.031430128041693e+001
0	 4.000000000000000e+000	 4.800020000011600e+000	 1.030383253351610e+001
0	 4.000000000000001e+000	 4.866680000008067e+000	 1.029347863049711e+001
0	 4.000000000000000e+000	 4.933340000004134e+000	 1.028326953576258e+001
0	 4.000000000000001e+000	 5.000000000000001e+000	 1.027323521371513e+001
0	 4.000000000000000e+000	 5.066659999995866e+000	 1.026340562875734e+001
0	 4.000000000000001e+000	 5.133319999991933e+000	 1.025381074529180e+001
0	 4.000000000000001e+000	 5.199979999988398e+000	 1.024448052772115e+001
0	 4.000000000000000e+000	 5.266639999985467e+000	 1.023544494044793e+001
0	 4.000000000000000e+000	 5.333299999983334e+000	 1.022673394787472e+001
0	 4.066670000003317e+000	 4.666700000016667e+000	 1.032739943517210e+001
0	 4.066670000003317e+000	 4.733360000014532e+000	 1.031709335534355e+001
0	 4.066670000003315e+000	 4.800020000011599e+000	 1.030689301363910e+001
0	 4.066670000003319e+000	 4.866680000008068e+000	 1.029681802978002e+001
0	 4.066670000003318e+000	 4.933340000004133e+000	 1.028688802348760e+001
0	 4.066670000003318e+000	 5.000000000000000e+000	 1.027712261448309e+001
0	 4.066670000003318e+000	 5.066659999995868e+000	 1.026754142248776e+001
0	 4.066670000003318e+000	 5.133319999991933e+000	 1.025816406722290e+001
0	 4.066670000003316e+000	 5.199979999988400e+000	 1.024901016840972e+001
0	 4.066670000003317e+000	 5.266639999985466e+000	 1.024009934576952e+001
0	 4.066670000003316e+000	 5.333299999983332e+000	 1.023145121902351e+001
0	 4.133340000006535e+000	 4.666700000016667e+000	 1.032958597489260e+001
0	 4.133340000006533e+000	 4.733360000014532e+000	 1.031949710948830e+001
0	 4.133340000006533e+000	 4.800020000011599e+000	 1.030953328377250e+001
0	 4.133340000006534e+000	 4.866680000008066e+000	 1.029970498911010e+001
0	 4.133340000006532e+000	 4.933340000004133e+000	 1.029002271686591e+001
0	 4.133340000006535e+000	 5.000000000000001e+000	 1.028049695840481e+001
0	 4.133340000006534e+000	 5.066659999995867e+000	 1.027113820509164e+001
0	 4.133340000006533e+000	 5.133319999991933e+000	 1.026195694829124e+001
0	 4.133340000006533e+000	 5.199979999988400e+000	 1.025296367936844e+001
0	 4.133340000006533e+000	 5.266639999985466e+000	 1.024416888968808e+001
0	 4.133340000006534e+000	 5.333299999983334e+000	 1.023558307061497e+001
0	 4.200010000009550e+000	 4.666700000016666e+000	 1.033140350899750e+001
0	 4.200010000009551e+000	 4.733360000014533e+000	 1.032150812864625e+001
0	 4.200010000009550e+000	 4.800020000011601e+000	 1.031175498915654e+001
0	 4.200010000009550e+000	 4.866680000008065e+000	 1.030214666986171e+001
0	 4.200010000009551e+000	 4.933340000004133e+000	 1.029268575009511e+001
0	 4.200010000009552e+000	 5.000000000000003e+000	 1.028337480919005e+001
0	 4.200010000009550e+000	 5.066659999995866e+000	 1.027421642647989e+001
0	 4.200010000009550e+000	 5.133319999991934e+000	 1.026521318129797e+001
0	 4.200010000009550e+000	 5.199979999988400e+000	 1.025636765297761e+001
0	 4.200010000009551e+000	 5.266639999985466e+000	 1.024768242085212e+001
0	 4.200010000009550e+000	 5.333299999983334e+000	 1.023916006425484e+001
0	 4.266680000012266e+000	 4.666700000016666e+000	 1.033284102052565e+001
0	 4.266680000012268e+000	 4.733360000014534e+000	 1.032312199861248e+001
0	 4.266680000012265e+000	 4.800020000011599e+000	 1.031355977503145e+001
0	 4.266680000012266e+000	 4.866680000008066e+000	 1.030415023340926e+001
0	 4.266680000012267e+000	 4.933340000004133e+000	 1.029488925737271e+001
0	 4.266680000012268e+000	 5.000000000000001e+000	 1.028577273054852e+001
0	 4.266680000012265e+000	 5.066659999995865e+000	 1.027679653656342e+001
0	 4.266680000012267e+000	 5.133319999991932e+000	 1.026795655904417e+001
0	 4.266680000012265e+000	 5.199979999988399e+000	 1.025924868161748e+001
0	 4.266680000012267e+000	 5.266639999985466e+000	 1.025066878791013e+001
0	 4.266680000012265e+000	 5.333299999983333e+000	 1.024221276154882e+001
0	 4.333350000014584e+000	 4.666700000016667e+000	 1.033388749251604e+001
0	 4.333350000014583e+000	 4.733360000014534e+000	 1.032433430518207e+001
0	 4.333350000014582e+000	 4.800020000011601e+000	 1.031494928663742e+001
0	 4.333350000014583e+000	 4.866680000008066e+000	 1.030572284112713e+001
0	 4.333350000014582e+000	 4.933340000004132e+000	 1.029664537289629e+001
0	 4.333350000014582e+000	 5.000000000000000e+000	 1.028770728618993e+001
0	 4.333350000014583e+000	 5.066659999995868e+000	 1.027889898525312e+001
0	 4.333350000014583e+000	 5.133319999991933e+000	 1.027021087433094e+001
0	 4.333350000014583e+000	 5.199979999988400e+000	 1.026163335766842e+001
0	 4.333350000014583e+000	 5.266639999985465e+000	 1.025315683951064e+001
0	 4.333350000014584e+000	 5.333299999983335e+000	 1.024477172410263e+001
0	 4.400020000016400e+000	 4.666700000016666e+000	 1.033453190800758e+001
0	 4.400020000016401e+000	 4.733360000014534e+000	 1.032514063415011e+001
0	 4.400020000016400e+000	 4.800020000011600e+000	 1.031592516921471e+001
0	 4.400020000016399e+000	 4.866680000008065e+000	 1.030687165438972e+001
0	 4.400020000016399e+000	 4.933340000004133e+000	 1.029796623086339e+001
0	 4.400020000016399e+000	 5.000000000000001e+000	 1.028919503982403e+001
0	 4.400020000016401e+000	 5.066659999995868e+000	 1.028054422245993e+001
0	 4.400020000016401e+000	 5.133319999991933e+000	 1.027199991995939e+001
0	 4.400020000016401e+000	 5.199979999988400e+000	 1.026354827351069e+001
0	 4.400020000016399e+000	 5.266639999985465e+000	 1.025517542430213e+001
0	 4.400020000016400e+000	 5.333299999983334e+000	 1.024686751352198e+001
0	 4.466690000017615e+000	 4.666700000016665e+000	 1.033476325003922e+001
0	 4.466690000017616e+000	 4.733360000014532e+000	 1.032553657131165e+001
0	 4.466690000017619e+000	 4.800020000011601e+000	 1.031648906800357e+001
0	 4.466690000017617e+000	 4.866680000008068e+000	 1.030760383457140e+001
0	 4.466690000017615e+000	 4.933340000004133e+000	 1.029886396547157e+001
0	 4.466690000017617e+000	 5.000000000000000e+000	 1.029025255516054e+001
0	 4.466690000017615e+000	 5.066659999995867e+000	 1.028175269809475e+001
0	 4.466690000017616e+000	 5.133319999991931e+000	 1.027334748873061e+001
0	 4.466690000017617e+000	 5.199979999988400e+000	 1.026502002152460e+001
0	 4.466690000017617e+000	 5.266639999985465e+000	 1.025675339093312e+001
0	 4.466690000017615e+000	 5.333299999983333e+000	 1.024853069141260e+001
0	 4.533360000018131e+000	 4.666700000016666e+000	 1.033457050164988e+001
0	 4.533360000018132e+000	 4.733360000014534e+000	 1.032551770246181e+001
0	 4.533360000018133e+000	 4.800020000011601e+000	 1.031664262824420e+001
0	 4.533360000018132e+000	 4.866680000008067e+000	 1.030792654304658e+001
0	 4.533360000018133e+000	 4.933340000004134e+000	 1.029935071091842e+001
0	 4.533360000018131e+000	 5.000000000000002e+000	 1.029089639590923e+001
0	 4.533360000018132e+000	 5.066659999995866e+000	 1.028254486206850e+001
0	 4.533360000018132e+000	 5.133319999991933e+000	 1.027427737344574e+001
0	 4.533360000018132e+000	 5.199979999988399e+000	 1.026607519409045e+001
0	 4.533360000018133e+000	 5.266639999985467e+000	 1.025791958805211e+001
0	 4.533360000018131e+000	 5.333299999983333e+000	 1.024979181938022e+001
0	 4.600030000017848e+000	 4.666700000016666e+000	 1.033394264587855e+001
0	 4.600030000017850e+000	 4.733360000014534e+000	 1.032507961339565e+001
0	 4.600030000017849e+000	 4.800020000011601e+000	 1.031638749517687e+001
0	 4.600030000017849e+000	 4.866680000008065e+000	 1.030784694118965e+001
0	 4.600030000017848e+000	 4.933340000004134e+000	 1.029943860140148e+001
0	 4.600030000017848e+000	 5.000000000000000e+000	 1.029114312577980e+001
0	 4.600030000017849e+000	 5.066659999995869e+000	 1.028294116429211e+001
0	 4.600030000017848e+000	 5.133319999991933e+000	 1.027481336690587e+001
0	 4.600030000017849e+000	 5.199979999988400e+000	 1.026674038358854e+001
0	 4.600030000017848e+000	 5.266639999985466e+000	 1.025870286430762e+001
0	 4.600030000017849e+000	 5.333299999983335e+000	 1.025068145903055e+001
0	 4.666700000016666e+000	 4.666700000016666e+000	 1.033286866576410e+001
0	 4.666700000016665e+000	 4.733360000014534e+000	 1.032421788990829e+001
0	 4.666700000016665e+000	 4.800020000011599e+000	 1.031572531404181e+001
0	 4.666700000016665e+000	 4.866680000008066e+000	 1.030737219037502e+001
0	 4.666700000016667e+000	 4.933340000004134e+000	 1.029913977111830e+001
0	 4.666700000016666e+000	 5.000000000000000e+000	 1.029100930848201e+001
0	 4.666700000016665e+000	 5.066659999995865e+000	 1.028296205467649e+001
0	 4.666700000016666e+000	 5.133319999991933e+000	 1.027497926191211e+001
0	 4.666700000016666e+000	 5.199979999988398e+000	 1.026704218239920e+001
0	 4.666700000016666e+000	 5.266639999985467e+000	 1.025913206834817e+001
0	 4.666700000016667e+000	 5.333299999983335e+000	 1.025123017196931e+001
0	 4.000000000000000e+000	 5.333299999983334e+000	 1.022673394787472e+001
0	 4.000000000000001e+000	 5.399969999982149e+000	 1.021833594006017e+001
0	 4.000000000000001e+000	 5.466639999981867e+000	 1.021021141339324e+001
0	 4.000000000000001e+000	 5.533309999982382e+000	 1.020234464896962e+001
0	 4.000000000000000e+000	 5.599979999983598e+000	 1.019471992788489e+001
0	 4.000000000000001e+000	 5.666649999985415e+000	 1.018732153123473e+001
0	 4.000000000000001e+000	 5.733319999987731e+000	 1.018013374011483e+001
0	 4.000000000000001e+000	 5.799989999990448e+000	 1.017314083562078e+001
0	 4.000000000000001e+000	 5.866659999993465e+000	 1.016632709884826e+001
0	 4.000000000000000e+000	 5.933329999996681e+000	 1.015967681089293e+001
0	 4.000000000000001e+000	 6.000000000000000e+000	 1.015317425285047e+001
0	 4.066670000003316e+000	 5.333299999983332e+000	 1.023145121902351e+001
0	 4.066670000003316e+000	 5.399969999982148e+000	 1.022307118388542e+001
0	 4.066670000003318e+000	 5.466639999981867e+000	 1.021494556215247e+001
0	 4.066670000003317e+000	 5.533309999982383e+000	 1.020706153268065e+001
0	 4.066670000003316e+000	 5.599979999983598e+000	 1.019940627432599e+001
0	 4.066670000003316e+000	 5.666649999985413e+000	 1.019196696594449e+001
0	 4.066670000003317e+000	 5.733319999987731e+000	 1.018473078639214e+001
0	 4.066670000003318e+000	 5.799989999990449e+000	 1.017768491452497e+001
0	 4.066670000003316e+000	 5.866659999993464e+000	 1.017081652919898e+001
0	 4.066670000003318e+000	 5.933329999996681e+000	 1.016411280927022e+001
0	 4.066670000003317e+000	 5.999999999999999e+000	 1.015756093359467e+001
0	 4.133340000006534e+000	 5.333299999983334e+000	 1.023558307061497e+001
0	 4.133340000006534e+000	 5.399969999982150e+000	 1.022722690392124e+001
0	 4.133340000006533e+000	 5.466639999981865e+000	 1.021910979152918e+001
0	 4.133340000006534e+000	 5.533309999982381e+000	 1.021122148962088e+001
0	 4.133340000006533e+000	 5.599979999983598e+000	 1.020355175437844e+001
0	 4.133340000006533e+000	 5.666649999985416e+000	 1.019609034198395e+001
0	 4.133340000006534e+000	 5.733319999987732e+000	 1.018882700861952e+001
0	 4.133340000006533e+000	 5.799989999990448e+000	 1.018175151046723e+001
0	 4.133340000006532e+000	 5.866659999993462e+000	 1.017485360370921e+001
0	 4.133340000006533e+000	 5.933329999996681e+000	 1.016812304452756e+001
0	 4.133340000006533e+000	 6.000000000000000e+000	 1.016154958910435e+001
0	 4.200010000009550e+000	 5.333299999983334e+000	 1.023916006425483e+001
0	 4.200010000009550e+000	 5.399969999982151e+000	 1.023083483010410e+001
0	 4.200010000009550e+000	 5.466639999981865e+000	 1.022273645341618e+001
0	 4.200010000009550e+000	 5.533309999982381e+000	 1.021485694726502e+001
0	 4.200010000009550e+000	 5.599979999983599e+000	 1.020718832472453e+001
0	 4.200010000009550e+000	 5.666649999985415e+000	 1.019972259886863e+001
0	 4.200010000009550e+000	 5.733319999987733e+000	 1.019245178277120e+001
0	 4.200010000009550e+000	 5.799989999990447e+000	 1.018536788950620e+001
0	 4.200010000009550e+000	 5.866659999993464e+000	 1.017846293214755e+001
0	 4.200010000009550e+000	 5.933329999996681e+000	 1.017172892376914e+001
0	 4.200010000009550e+000	 5.999999999999999e+000	 1.016515787744493e+001
0	 4.266680000012265e+000	 5.333299999983333e+000	 1.024221276154882e+001
0	 4.266680000012267e+000	 5.399969999982151e+000	 1.023392669237041e+001
0	 4.266680000012266e+000	 5.466639999981866e+000	 1.022585789970627e+001
0	 4.266680000012266e+000	 5.533309999982381e+000	 1.021800033308784e+001
0	 4.266680000012268e+000	 5.599979999983598e+000	 1.021034794204657e+001
0	 4.266680000012268e+000	 5.666649999985415e+000	 1.020289467611395e+001
0	 4.266680000012267e+000	 5.733319999987731e+000	 1.019563448482144e+001
0	 4.266680000012266e+000	 5.799989999990448e+000	 1.018856131770050e+001
0	 4.266680000012267e+000	 5.866659999993463e+000	 1.018166912428259e+001
0	 4.266680000012267e+000	 5.933329999996680e+000	 1.017495185409920e+001
0	 4.266680000012268e+000	 6.000000000000001e+000	 1.016840345668181e+001
0	 4.333350000014584e+000	 5.333299999983335e+000	 1.024477172410263e+001
0	 4.333350000014582e+000	 5.399969999982149e+000	 1.023653422065667e+001
0	 4.333350000014582e+000	 5.466639999981866e+000	 1.022850648229222e+001
0	 4.333350000014583e+000	 5.533309999982382e+000	 1.022068407456404e+001
0	 4.333350000014583e+000	 5.599979999983598e+000	 1.021306256302686e+001
0	 4.333350000014583e+000	 5.666649999985414e+000	 1.020563751323543e+001
0	 4.333350000014584e+000	 5.733319999987733e+000	 1.019840449074446e+001
0	 4.333350000014582e+000	 5.799989999990448e+000	 1.019135906110873e+001
0	 4.333350000014582e+000	 5.866659999993464e+000	 1.018449678988296e+001
0	 4.333350000014582e+000	 5.933329999996682e+000	 1.017781324262194e+001
0	 4.333350000014584e+000	 6.000000000000001e+000	 1.017130398488037e+001
0	 4.400020000016400e+000	 5.333299999983334e+000	 1.024686751352198e+001
0	 4.400020000016400e+000	 5.399969999982148e+000	 1.023868914489930e+001
0	 4.400020000016400e+000	 5.466639999981866e+000	 1.023071455306686e+001
0	 4.400020000016402e+000	 5.533309999982383e+000	 1.022294059916843e+001
0	 4.400020000016400e+000	 5.599979999983598e+000	 1.021536414434773e+001
0	 4.400020000016398e+000	 5.666649999985412e+000	 1.020798204974851e+001
0	 4.400020000016400e+000	 5.733319999987731e+000	 1.020079117651451e+001
0	 4.400020000016401e+000	 5.799989999990448e+000	 1.019378838578954e+001
0	 4.400020000016400e+000	 5.866659999993464e+000	 1.018697053871727e+001
0	 4.400020000016400e+000	 5.933329999996680e+000	 1.018033449644153e+001
0	 4.400020000016400e+000	 6.000000000000001e+000	 1.017387712010604e+001
0	 4.466690000017615e+000	 5.333299999983333e+000	 1.024853069141260e+001
0	 4.466690000017617e+000	 5.399969999982151e+000	 1.024042319503477e+001
0	 4.466690000017615e+000	 5.466639999981865e+000	 1.023251446392299e+001
0	 4.466690000017615e+000	 5.533309999982382e+000	 1.022480233437572e+001
0	 4.466690000017616e+000	 5.599979999983598e+000	 1.021728464269144e+001
0	 4.466690000017615e+000	 5.666649999985414e+000	 1.020995922516867e+001
0	 4.466690000017616e+000	 5.733319999987733e+000	 1.020282391810586e+001
0	 4.466690000017617e+000	 5.799989999990447e+000	 1.019587655780153e+001
0	 4.466690000017614e+000	 5.866659999993463e+000	 1.018911498055415e+001
0	 4.466690000017615e+000	 5.933329999996681e+000	 1.018253702266222e+001
0	 4.466690000017617e+000	 6.000000000000001e+000	 1.017614052042423e+001
0	 4.533360000018131e+000	 5.333299999983333e+000	 1.024979181938022e+001
0	 4.533360000018132e+000	 5.399969999982150e+000	 1.024176810099955e+001
0	 4.533360000018133e+000	 5.466639999981866e+000	 1.023393856675340e+001
0	 4.533360000018132e+000	 5.533309999982382e+000	 1.022630170766067e+001
0	 4.533360000018130e+000	 5.599979999983598e+000	 1.021885601474036e+001
0	 4.533360000018134e+000	 5.666649999985416e+000	 1.021159997901140e+001
0	 4.533360000018134e+000	 5.733319999987732e+000	 1.020453209149274e+001
0	 4.533360000018133e+000	 5.799989999990450e+000	 1.019765084320334e+001
0	 4.533360000018132e+000	 5.866659999993465e+000	 1.019095472516218e+001
0	 4.533360000018132e+000	 5.933329999996682e+000	 1.018444222838819e+001
0	 4.533360000018131e+000	 5.999999999999999e+000	 1.017811184390034e+001
0	 4.600030000017849e+000	 5.333299999983335e+000	 1.025068145903055e+001
0	 4.600030000017848e+000	 5.399969999982150e+000	 1.024275559273008e+001
0	 4.600030000017848e+000	 5.466639999981867e+000	 1.023501921345087e+001
0	 4.600030000017848e+000	 5.533309999982382e+000	 1.022747114649805e+001
0	 4.600030000017850e+000	 5.599979999983599e+000	 1.022011021717676e+001
0	 4.600030000017849e+000	 5.666649999985416e+000	 1.021293525079215e+001
0	 4.600030000017848e+000	 5.733319999987731e+000	 1.020594507264939e+001
0	 4.600030000017849e+000	 5.799989999990449e+000	 1.019913850805362e+001
0	 4.600030000017848e+000	 5.866659999993464e+000	 1.019251438231000e+001
0	 4.600030000017849e+000	 5.933329999996682e+000	 1.018607152072368e+001
0	 4.600030000017850e+000	 6.000000000000003e+000	 1.017980874859981e+001
0	 4.666700000016667e+000	 5.333299999983335e+000	 1.025123017196931e+001
0	 4.666700000016665e+000	 5.399969999982150e+000	 1.024341740016285e+001
0	 4.666700000016666e+000	 5.466639999981867e+000	 1.023578875590824e+001
0	 4.666700000016665e+000	 5.533309999982381e+000	 1.022834307836260e+001
0	 4.666700000016665e+000	 5.599979999983599e+000	 1.022107920668296e+001
0	 4.666700000016666e+000	 5.666649999985414e+000	 1.021399598002643e+001
0	 4.666700000016666e+000	 5.733319999987731e+000	 1.020709223755007e+001
0	 4.666700000016666e+000	 5.799989999990449e+000	 1.020036681841099e+001
0	 4.666700000016666e+000	 5.866659999993465e+000	 1.019381856176621e+001
0	 4.666700000016665e+000	 5.933329999996681e+000	 1.018744630677287e+001
0	 4.666700000016665e+000	 5.999999999999999e+000	 1.018124889258802e+001
0	 4.000000000000001e+000	 6.000000000000000e+000	 1.015317425285047e+001
0	 4.000000000000000e+000	 6.066670000003316e+000	 1.014683505253108e+001
0	 4.000000000000001e+000	 6.133340000006534e+000	 1.014068889294852e+001
0	 4.000000000000000e+000	 6.200010000009549e+000	 1.013474113800360e+001
0	 4.000000000000000e+000	 6.266680000012267e+000	 1.012899715159723e+001
0	 4.000000000000001e+000	 6.333350000014583e+000	 1.012346229763026e+001
0	 4.000000000000001e+000	 6.400020000016398e+000	 1.011814194000355e+001
0	 4.000000000000001e+000	 6.466690000017616e+000	 1.011304144261801e+001
0	 4.000000000000001e+000	 6.533360000018131e+000	 1.010816616937450e+001
0	 4.000000000000001e+000	 6.600030000017848e+000	 1.010352148417390e+001
0	 4.000000000000000e+000	 6.666700000016667e+000	 1.009911275091708e+001
0	 4.066670000003317e+000	 5.999999999999999e+000	 1.015756093359467e+001
0	 4.066670000003317e+000	 6.066670000003317e+000	 1.015117566921501e+001
0	 4.066670000003316e+000	 6.133340000006531e+000	 1.014498307463637e+001
0	 4.066670000003317e+000	 6.200010000009548e+000	 1.013898726590853e+001
0	 4.066670000003318e+000	 6.266680000012268e+000	 1.013319235908123e+001
0	 4.066670000003318e+000	 6.333350000014585e+000	 1.012760247020423e+001
0	 4.066670000003317e+000	 6.400020000016399e+000	 1.012222171532729e+001
0	 4.066670000003317e+000	 6.466690000017617e+000	 1.011705421050018e+001
0	 4.066670000003317e+000	 6.533360000018131e+000	 1.011210407177269e+001
0	 4.066670000003317e+000	 6.600030000017848e+000	 1.010737541519455e+001
0	 4.066670000003317e+000	 6.666700000016667e+000	 1.010287235681559e+001
0	 4.133340000006533e+000	 6.000000000000000e+000	 1.016154958910435e+001
0	 4.133340000006532e+000	 6.066670000003314e+000	 1.015514495539801e+001
0	 4.133340000006533e+000	 6.133340000006534e+000	 1.014892966860284e+001
0	 4.133340000006533e+000	 6.200010000009550e+000	 1.014290669575490e+001
0	 4.133340000006533e+000	 6.266680000012266e+000	 1.013707900389028e+001
0	 4.133340000006532e+000	 6.333350000014583e+000	 1.013144956004501e+001
0	 4.133340000006534e+000	 6.400020000016400e+000	 1.012602133125519e+001
0	 4.133340000006534e+000	 6.466690000017617e+000	 1.012079728455684e+001
0	 4.133340000006533e+000	 6.533360000018131e+000	 1.011578038698609e+001
0	 4.133340000006533e+000	 6.600030000017847e+000	 1.011097360557898e+001
0	 4.133340000006534e+000	 6.666700000016666e+000	 1.010637990737158e+001
0	 4.200010000009550e+000	 5.999999999999999e+000	 1.016515787744493e+001
0	 4.200010000009548e+000	 6.066670000003315e+000	 1.015875681441169e+001
0	 4.200010000009550e+000	 6.133340000006532e+000	 1.015253935843003e+001
0	 4.200010000009550e+000	 6.200010000009551e+000	 1.014650742635980e+001
0	 4.200010000009551e+000	 6.266680000012267e+000	 1.014066293506074e+001
0	 4.200010000009550e+000	 6.333350000014582e+000	 1.013500780139261e+001
0	 4.200010000009550e+000	 6.400020000016401e+000	 1.012954394221524e+001
0	 4.200010000009552e+000	 6.466690000017616e+000	 1.012427327438836e+001
0	 4.200010000009551e+000	 6.533360000018134e+000	 1.011919771477178e+001
0	 4.200010000009550e+000	 6.600030000017849e+000	 1.011431918022531e+001
0	 4.200010000009550e+000	 6.666700000016665e+000	 1.010963958760872e+001
0	 4.266680000012268e+000	 6.000000000000001e+000	 1.016840345668181e+001
0	 4.266680000012266e+000	 6.066670000003318e+000	 1.016202514958760e+001
0	 4.266680000012268e+000	 6.133340000006533e+000	 1.015582282770012e+001
0	 4.266680000012268e+000	 6.200010000009550e+000	 1.014979745654026e+001
0	 4.266680000012268e+000	 6.266680000012266e+000	 1.014395000162890e+001
0	 4.266680000012266e+000	 6.333350000014582e+000	 1.013828142848701e+001
0	 4.266680000012268e+000	 6.400020000016399e+000	 1.013279270263540e+001
0	 4.266680000012267e+000	 6.466690000017616e+000	 1.012748478959508e+001
0	 4.266680000012267e+000	 6.533360000018132e+000	 1.012235865488688e+001
0	 4.266680000012266e+000	 6.600030000017847e+000	 1.011741526403176e+001
0	 4.266680000012267e+000	 6.666700000016666e+000	 1.011265558255063e+001
0	 4.333350000014584e+000	 6.000000000000001e+000	 1.017130398488037e+001
0	 4.333350000014584e+000	 6.066670000003317e+000	 1.016496386425738e+001
0	 4.333350000014582e+000	 6.133340000006533e+000	 1.015879075999523e+001
0	 4.333350000014584e+000	 6.200010000009550e+000	 1.015278478511334e+001
0	 4.333350000014583e+000	 6.266680000012268e+000	 1.014694605263116e+001
0	 4.333350000014582e+000	 6.333350000014582e+000	 1.014127467556813e+001
0	 4.333350000014583e+000	 6.400020000016398e+000	 1.013577076694369e+001
0	 4.333350000014584e+000	 6.466690000017617e+000	 1.013043443977730e+001
0	 4.333350000014582e+000	 6.533360000018131e+000	 1.012526580708842e+001
0	 4.333350000014584e+000	 6.600030000017849e+000	 1.012026498189647e+001
0	 4.333350000014583e+000	 6.666700000016667e+000	 1.011543207722093e+001
0	 4.400020000016400e+000	 6.000000000000001e+000	 1.017387712010604e+001
0	 4.400020000016399e+000	 6.066670000003317e+000	 1.016758686175263e+001
0	 4.400020000016400e+000	 6.133340000006532e+000	 1.016145383889752e+001
0	 4.400020000016400e+000	 6.200010000009550e+000	 1.015547741089612e+001
0	 4.400020000016400e+000	 6.266680000012267e+000	 1.014965693710381e+001
0	 4.400020000016399e+000	 6.333350000014581e+000	 1.014399177687600e+001
0	 4.400020000016401e+000	 6.400020000016399e+000	 1.013848128956808e+001
0	 4.400020000016399e+000	 6.466690000017616e+000	 1.013312483453544e+001
0	 4.400020000016402e+000	 6.533360000018130e+000	 1.012792177113350e+001
0	 4.400020000016400e+000	 6.600030000017850e+000	 1.012287145871764e+001
0	 4.400020000016401e+000	 6.666700000016666e+000	 1.011797325664328e+001
0	 4.466690000017617e+000	 6.000000000000001e+000	 1.017614052042423e+001
0	 4.466690000017616e+000	 6.066670000003315e+000	 1.016990804540491e+001
0	 4.466690000017617e+000	 6.133340000006533e+000	 1.016382274798911e+001
0	 4.466690000017618e+000	 6.200010000009551e+000	 1.015788333270563e+001
0	 4.466690000017615e+000	 6.266680000012264e+000	 1.015208850408320e+001
0	 4.466690000017616e+000	 6.333350000014582e+000	 1.014643696665058e+001
0	 4.466690000017615e+000	 6.400020000016399e+000	 1.014092742493653e+001
0	 4.466690000017616e+000	 6.466690000017617e+000	 1.013555858346983e+001
0	 4.466690000017615e+000	 6.533360000018130e+000	 1.013032914677919e+001
0	 4.466690000017615e+000	 6.600030000017847e+000	 1.012523781939343e+001
0	 4.466690000017615e+000	 6.666700000016666e+000	 1.012028330584129e+001
0	 4.533360000018131e+000	 5.999999999999999e+000	 1.017811184390034e+001
0	 4.533360000018133e+000	 6.066670000003318e+000	 1.017194131854582e+001
0	 4.533360000018132e+000	 6.133340000006532e+000	 1.016590817085219e+001
0	 4.533360000018132e+000	 6.200010000009550e+000	 1.016001054935896e+001
0	 4.533360000018133e+000	 6.266680000012267e+000	 1.015424660260568e+001
0	 4.533360000018132e+000	 6.333350000014582e+000	 1.014861447913186e+001
0	 4.533360000018133e+000	 6.400020000016399e+000	 1.014311232747704e+001
0	 4.533360000018131e+000	 6.466690000017615e+000	 1.013773829618079e+001
0	 4.533360000018131e+000	 6.533360000018130e+000	 1.013249053378261e+001
0	 4.533360000018132e+000	 6.600030000017847e+000	 1.012736718882203e+001
0	 4.533360000018131e+000	 6.666700000016664e+000	 1.012236640983863e+001
0	 4.600030000017850e+000	 6.000000000000003e+000	 1.017980874859981e+001
0	 4.600030000017849e+000	 6.066670000003318e+000	 1.017370058450699e+001
0	 4.600030000017848e+000	 6.133340000006533e+000	 1.016772079106888e+001
0	 4.600030000017848e+000	 6.200010000009550e+000	 1.016186705967315e+001
0	 4.600030000017848e+000	 6.266680000012268e+000	 1.015613708170757e+001
0	 4.600030000017848e+000	 6.333350000014583e+000	 1.015052854855981e+001
0	 4.600030000017848e+000	 6.400020000016400e+000	 1.014503915161761e+001
0	 4.600030000017848e+000	 6.466690000017617e+000	 1.013966658226868e+001
0	 4.600030000017849e+000	 6.533360000018130e+000	 1.013440853190080e+001
0	 4.600030000017849e+000	 6.600030000017848e+000	 1.012926269190161e+001
0	 4.600030000017848e+000	 6.666700000016665e+000	 1.012422675365889e+001
0	 4.666700000016665e+000	 5.999999999999999e+000	 1.018124889258802e+001
0	 4.666700000016665e+000	 6.066670000003318e+000	 1.017519974662000e+001
0	 4.666700000016667e+000	 6.133340000006533e+000	 1.016927129222133e+001
0	 4.666700000016667e+000	 6.200010000009550e+000	 1.016346086246529e+001
0	 4.666700000016666e+000	 6.266680000012266e+000	 1.015776579042522e+001
0	 4.666700000016666e+000	 6.333350000014583e+000	 1.015218340917441e+001
0	 4.666700000016667e+000	 6.400020000016400e+000	 1.014671105178622e+001
0	 4.666700000016666e+000	 6.466690000017615e+000	 1.014134605133393e+001
0	 4.666700000016666e+000	 6.533360000018132e+000	 1.013608574089087e+001
0	 4.666700000016667e+000	 6.600030000017849e+000	 1.013092745353037e+001
0	 4.666700000016666e+000	 6.666700000016667e+000	 1.012586852232576e+001
0	 4.000000000000000e+000	 6.666700000016667e+000	 1.009911275091708e+001
0	 4.000000000000001e+000	 6.733360000014534e+000	 1.009488053425129e+001
0	 4.000000000000000e+000	 6.800020000011600e+000	 1.009076062759129e+001
0	 4.000000000000000e+000	 6.866680000008067e+000	 1.008675316792892e+001
0	 4.000000000000000e+000	 6.933340000004136e+000	 1.008285829225610e+001
0	 4.000000000000001e+000	 7.000000000000004e+000	 1.007907613756471e+001
0	 4.000000000000000e+000	 7.066659999995868e+000	 1.007540684084659e+001
0	 4.000000000000001e+000	 7.133319999991937e+000	 1.007185053909364e+001
0	 4.000000000000001e+000	 7.199979999988403e+000	 1.006840736929769e+001
0	 4.000000000000001e+000	 7.266639999985472e+000	 1.006507746845061e+001
0	 4.000000000000000e+000	 7.333299999983334e+000	 1.006186097354429e+001
0	 4.066670000003317e+000	 6.666700000016667e+000	 1.010287235681559e+001
0	 4.066670000003318e+000	 6.733360000014534e+000	 1.009854030932029e+001
0	 4.066670000003315e+000	 6.800020000011600e+000	 1.009432065194619e+001
0	 4.066670000003318e+000	 6.866680000008066e+000	 1.009021342547291e+001
0	 4.066670000003317e+000	 6.933340000004137e+000	 1.008621867068016e+001
0	 4.066670000003318e+000	 7.000000000000004e+000	 1.008233642834758e+001
0	 4.066670000003318e+000	 7.066659999995872e+000	 1.007856673925483e+001
0	 4.066670000003318e+000	 7.133319999991937e+000	 1.007490964418162e+001
0	 4.066670000003317e+000	 7.199979999988406e+000	 1.007136518390755e+001
0	 4.066670000003318e+000	 7.266639999985471e+000	 1.006793339921230e+001
0	 4.066670000003316e+000	 7.333299999983334e+000	 1.006461433087553e+001
0	 4.133340000006534e+000	 6.666700000016666e+000	 1.010637990737158e+001
0	 4.133340000006533e+000	 6.733360000014532e+000	 1.010195114874516e+001
0	 4.133340000006533e+000	 6.800020000011598e+000	 1.009763582764260e+001
0	 4.133340000006534e+000	 6.866680000008067e+000	 1.009343389211704e+001
0	 4.133340000006534e+000	 6.933340000004133e+000	 1.008934529022156e+001
0	 4.133340000006535e+000	 7.000000000000001e+000	 1.008536997000921e+001
0	 4.133340000006535e+000	 7.066659999995870e+000	 1.008150787953305e+001
0	 4.133340000006534e+000	 7.133319999991937e+000	 1.007775896684621e+001
0	 4.133340000006533e+000	 7.199979999988403e+000	 1.007412318000172e+001
0	 4.133340000006534e+000	 7.266639999985473e+000	 1.007060046705266e+001
0	 4.133340000006533e+000	 7.333299999983331e+000	 1.006719077605208e+001
0	 4.200010000009550e+000	 6.666700000016665e+000	 1.010963958760872e+001
0	 4.200010000009550e+000	 6.733360000014530e+000	 1.010511843828448e+001
0	 4.200010000009550e+000	 6.800020000011600e+000	 1.010071248780717e+001
0	 4.200010000009551e+000	 6.866680000008068e+000	 1.009642159498893e+001
0	 4.200010000009551e+000	 6.933340000004137e+000	 1.009224561864184e+001
0	 4.200010000009553e+000	 7.000000000000003e+000	 1.008818441757802e+001
0	 4.200010000009551e+000	 7.066659999995870e+000	 1.008423785060959e+001
0	 4.200010000009550e+000	 7.133319999991937e+000	 1.008040577654865e+001
0	 4.200010000009550e+000	 7.199979999988405e+000	 1.007668805420727e+001
0	 4.200010000009551e+000	 7.266639999985471e+000	 1.007308454239758e+001
0	 4.200010000009550e+000	 7.333299999983334e+000	 1.006959509993168e+001
0	 4.266680000012267e+000	 6.666700000016666e+000	 1.011265558255063e+001
0	 4.266680000012267e+000	 6.733360000014534e+000	 1.010804756369693e+001
0	 4.266680000012265e+000	 6.800020000011598e+000	 1.010355696556648e+001
0	 4.266680000012267e+000	 6.866680000008068e+000	 1.009918356121608e+001
0	 4.266680000012266e+000	 6.933340000004134e+000	 1.009492712370249e+001
0	 4.266680000012267e+000	 7.000000000000001e+000	 1.009078742608245e+001
0	 4.266680000012267e+000	 7.066659999995868e+000	 1.008676424141274e+001
0	 4.266680000012266e+000	 7.133319999991937e+000	 1.008285734275009e+001
0	 4.266680000012267e+000	 7.199979999988403e+000	 1.007906650315126e+001
0	 4.266680000012267e+000	 7.266639999985473e+000	 1.007539149567301e+001
0	 4.266680000012266e+000	 7.333299999983335e+000	 1.007183209337207e+001
0	 4.333350000014583e+000	 6.666700000016667e+000	 1.011543207722093e+001
0	 4.333350000014583e+000	 6.733360000014533e+000	 1.011074391074108e+001
0	 4.333350000014583e+000	 6.800020000011601e+000	 1.010617559404714e+001
0	 4.333350000014584e+000	 6.866680000008067e+000	 1.010172681792608e+001
0	 4.333350000014582e+000	 6.933340000004133e+000	 1.009739727316502e+001
0	 4.333350000014582e+000	 7.000000000000001e+000	 1.009318665055092e+001
0	 4.333350000014583e+000	 7.066659999995871e+000	 1.008909464087084e+001
0	 4.333350000014582e+000	 7.133319999991937e+000	 1.008512093491179e+001
0	 4.333350000014583e+000	 7.199979999988405e+000	 1.008126522346079e+001
0	 4.333350000014582e+000	 7.266639999985470e+000	 1.007752719730485e+001
0	 4.333350000014583e+000	 7.333299999983334e+000	 1.007390654723098e+001
0	 4.400020000016401e+000	 6.666700000016666e+000	 1.011797325664328e+001
0	 4.400020000016402e+000	 6.733360000014533e+000	 1.011321286517561e+001
0	 4.400020000016399e+000	 6.800020000011600e+000	 1.010857470637572e+001
0	 4.400020000016398e+000	 6.866680000008065e+000	 1.010405839224652e+001
0	 4.400020000016401e+000	 6.933340000004135e+000	 1.009966353479093e+001
0	 4.400020000016401e+000	 7.000000000000004e+000	 1.009538974601186e+001
0	 4.400020000016400e+000	 7.066659999995868e+000	 1.009123663791224e+001
0	 4.400020000016400e+000	 7.133319999991937e+000	 1.008720382249494e+001
0	 4.400020000016401e+000	 7.199979999988403e+000	 1.008329091176290e+001
0	 4.400020000016400e+000	 7.266639999985472e+000	 1.007949751771901e+001
0	 4.400020000016401e+000	 7.333299999983334e+000	 1.007582325236614e+001
0	 4.466690000017615e+000	 6.666700000016666e+000	 1.012028330584130e+001
0	 4.466690000017616e+000	 6.733360000014532e+000	 1.011545981275916e+001
0	 4.466690000017619e+000	 6.800020000011601e+000	 1.011076063567890e+001
0	 4.466690000017615e+000	 6.866680000008068e+000	 1.010618531130497e+001
0	 4.466690000017616e+000	 6.933340000004135e+000	 1.010173337634176e+001
0	 4.466690000017616e+000	 7.000000000000001e+000	 1.009740436749371e+001
0	 4.466690000017616e+000	 7.066659999995868e+000	 1.009319782146524e+001
0	 4.466690000017617e+000	 7.133319999991938e+000	 1.008911327496075e+001
0	 4.466690000017617e+000	 7.199979999988404e+000	 1.008515026468466e+001
0	 4.466690000017616e+000	 7.266639999985470e+000	 1.008130832734139e+001
0	 4.466690000017615e+000	 7.333299999983334e+000	 1.007758699963530e+001
0	 4.533360000018131e+000	 6.666700000016664e+000	 1.012236640983863e+001
0	 4.533360000018130e+000	 6.733360000014534e+000	 1.011749013925033e+001
0	 4.533360000018133e+000	 6.800020000011601e+000	 1.011273971508325e+001
0	 4.533360000018134e+000	 6.866680000008067e+000	 1.010811460222896e+001
0	 4.533360000018133e+000	 6.933340000004134e+000	 1.010361426557899e+001
0	 4.533360000018132e+000	 7.000000000000001e+000	 1.009923817002490e+001
0	 4.533360000018133e+000	 7.066659999995871e+000	 1.009498578045818e+001
0	 4.533360000018131e+000	 7.133319999991936e+000	 1.009085656177044e+001
0	 4.533360000018132e+000	 7.199979999988403e+000	 1.008684997885317e+001
0	 4.533360000018133e+000	 7.266639999985471e+000	 1.008296549659791e+001
0	 4.533360000018132e+000	 7.333299999983334e+000	 1.007920257989619e+001
0	 4.600030000017848e+000	 6.666700000016665e+000	 1.012422675365889e+001
0	 4.600030000017850e+000	 6.733360000014533e+000	 1.011930923040777e+001
0	 4.600030000017849e+000	 6.800020000011599e+000	 1.011451827771542e+001
0	 4.600030000017849e+000	 6.866680000008066e+000	 1.010985329214612e+001
0	 4.600030000017849e+000	 6.933340000004133e+000	 1.010531367026415e+001
0	 4.600030000017847e+000	 7.000000000000000e+000	 1.010089880863383e+001
0	 4.600030000017849e+000	 7.066659999995870e+000	 1.009660810381943e+001
0	 4.600030000017848e+000	 7.133319999991935e+000	 1.009244095238521e+001
0	 4.600030000017848e+000	 7.199979999988403e+000	 1.008839675089548e+001
0	 4.600030000017848e+000	 7.266639999985471e+000	 1.008447489591451e+001
0	 4.600030000017849e+000	 7.333299999983335e+000	 1.008067478400654e+001
0	 4.666700000016666e+000	 6.666700000016667e+000	 1.012586852232576e+001
0	 4.666700000016666e+000	 6.733360000014533e+000	 1.012092247199014e+001
0	 4.666700000016665e+000	 6.800020000011598e+000	 1.011610265670199e+001
0	 4.666700000016666e+000	 6.866680000008067e+000	 1.011140840818397e+001
0	 4.666700000016666e+000	 6.933340000004134e+000	 1.010683905815874e+001
0	 4.666700000016666e+000	 7.000000000000002e+000	 1.010239393834896e+001
0	 4.666700000016666e+000	 7.066659999995869e+000	 1.009807238047727e+001
0	 4.666700000016665e+000	 7.133319999991937e+000	 1.009387371626630e+001
0	 4.666700000016665e+000	 7.199979999988401e+000	 1.008979727743868e+001
0	 4.666700000016666e+000	 7.266639999985471e+000	 1.008584239571708e+001
0	 4.666700000016666e+000	 7.333299999983335e+000	 1.008200840282410e+001
0	 4.000000000000000e+000	 7.333299999983334e+000	 1.006186097354429e+001
0	 4.000000000000001e+000	 7.399969999982151e+000	 1.005875019515076e+001
0	 4.000000000000001e+000	 7.466639999981867e+000	 1.005573858132033e+001
0	 4.000000000000000e+000	 7.533309999982382e+000	 1.005282655323428e+001
0	 4.000000000000001e+000	 7.599979999983599e+000	 1.005001453207381e+001
0	 4.000000000000000e+000	 7.666649999985416e+000	 1.004730293902024e+001
0	 4.000000000000001e+000	 7.733319999987733e+000	 1.004469219525483e+001
0	 4.000000000000000e+000	 7.799989999990449e+000	 1.004218272195879e+001
0	 4.000000000000000e+000	 7.866659999993463e+000	 1.003977494031344e+001
0	 4.000000000000000e+000	 7.933329999996682e+000	 1.003746927150001e+001
0	 4.000000000000000e+000	 7.999999999999998e+000	 1.003526613669980e+001
0	 4.066670000003316e+000	 7.333299999983334e+000	 1.006461433087552e+001
0	 4.066670000003316e+000	 7.399969999982149e+000	 1.006140069216912e+001
0	 4.066670000003318e+000	 7.466639999981865e+000	 1.005828641932867e+001
0	 4.066670000003316e+000	 7.533309999982385e+000	 1.005527191921900e+001
0	 4.066670000003316e+000	 7.599979999983598e+000	 1.005235759870496e+001
0	 4.066670000003316e+000	 7.666649999985415e+000	 1.004954386465140e+001
0	 4.066670000003317e+000	 7.733319999987732e+000	 1.004683112392318e+001
0	 4.066670000003317e+000	 7.799989999990450e+000	 1.004421978338515e+001
0	 4.066670000003317e+000	 7.866659999993464e+000	 1.004171024990216e+001
0	 4.066670000003318e+000	 7.933329999996683e+000	 1.003930293033909e+001
0	 4.066670000003317e+000	 7.999999999999998e+000	 1.003699823156076e+001
0	 4.133340000006533e+000	 7.333299999983331e+000	 1.006719077605208e+001
0	 4.133340000006533e+000	 7.399969999982150e+000	 1.006388639567156e+001
0	 4.133340000006532e+000	 7.466639999981865e+000	 1.006068090279111e+001
0	 4.133340000006533e+000	 7.533309999982382e+000	 1.005757466868672e+001
0	 4.133340000006533e+000	 7.599979999983597e+000	 1.005456806463439e+001
0	 4.133340000006532e+000	 7.666649999985415e+000	 1.005166146191006e+001
0	 4.133340000006534e+000	 7.733319999987732e+000	 1.004885523178976e+001
0	 4.133340000006533e+000	 7.799989999990446e+000	 1.004614974554949e+001
0	 4.133340000006533e+000	 7.866659999993464e+000	 1.004354537446525e+001
0	 4.133340000006533e+000	 7.933329999996682e+000	 1.004104248981301e+001
0	 4.133340000006533e+000	 7.999999999999998e+000	 1.003864146286877e+001
0	 4.200010000009550e+000	 7.333299999983334e+000	 1.006959509993167e+001
0	 4.200010000009550e+000	 7.399969999982150e+000	 1.006621095940274e+001
0	 4.200010000009550e+000	 7.466639999981867e+000	 1.006292468697847e+001
0	 4.200010000009550e+000	 7.533309999982381e+000	 1.005973659707355e+001
0	 4.200010000009550e+000	 7.599979999983598e+000	 1.005664700410267e+001
0	 4.200010000009550e+000	 7.666649999985412e+000	 1.005365622248047e+001
0	 4.200010000009550e+000	 7.733319999987731e+000	 1.005076456662168e+001
0	 4.200010000009550e+000	 7.799989999990448e+000	 1.004797235094097e+001
0	 4.200010000009550e+000	 7.866659999993464e+000	 1.004527988985304e+001
0	 4.200010000009550e+000	 7.933329999996681e+000	 1.004268749777255e+001
0	 4.200010000009550e+000	 8.000000000000000e+000	 1.004019548911421e+001
0	 4.266680000012266e+000	 7.333299999983335e+000	 1.007183209337207e+001
0	 4.266680000012266e+000	 7.399969999982149e+000	 1.006837803710733e+001
0	 4.266680000012266e+000	 7.466639999981864e+000	 1.006502042716156e+001
0	 4.266680000012267e+000	 7.533309999982384e+000	 1.006175949981560e+001
0	 4.266680000012267e+000	 7.599979999983598e+000	 1.005859549135041e+001
0	 4.266680000012268e+000	 7.666649999985415e+000	 1.005552863804693e+001
0	 4.266680000012267e+000	 7.733319999987731e+000	 1.005255917618608e+001
0	 4.266680000012268e+000	 7.799989999990448e+000	 1.004968734204875e+001
0	 4.266680000012267e+000	 7.866659999993467e+000	 1.004691337191592e+001
0	 4.266680000012268e+000	 7.933329999996682e+000	 1.004423750206850e+001
0	 4.266680000012267e+000	 7.999999999999999e+000	 1.004165996878740e+001
0	 4.333350000014583e+000	 7.333299999983334e+000	 1.007390654723098e+001
0	 4.333350000014583e+000	 7.399969999982147e+000	 1.007039128253005e+001
0	 4.333350000014582e+000	 7.466639999981865e+000	 1.006697077861114e+001
0	 4.333350000014583e+000	 7.533309999982382e+000	 1.006364517234900e+001
0	 4.333350000014583e+000	 7.599979999983598e+000	 1.006041460061826e+001
0	 4.333350000014583e+000	 7.666649999985417e+000	 1.005727920029371e+001
0	 4.333350000014583e+000	 7.733319999987731e+000	 1.005423910825005e+001
0	 4.333350000014582e+000	 7.799989999990449e+000	 1.005129446136200e+001
0	 4.333350000014582e+000	 7.866659999993464e+000	 1.004844539650427e+001
0	 4.333350000014583e+000	 7.933329999996682e+000	 1.004569205055159e+001
0	 4.333350000014584e+000	 8.000000000000000e+000	 1.004303456037869e+001
0	 4.400020000016401e+000	 7.333299999983334e+000	 1.007582325236614e+001
0	 4.400020000016400e+000	 7.399969999982148e+000	 1.007225434941556e+001
0	 4.400020000016400e+000	 7.466639999981865e+000	 1.006877839659810e+001
0	 4.400020000016401e+000	 7.533309999982382e+000	 1.006539541010983e+001
0	 4.400020000016400e+000	 7.599979999983599e+000	 1.006210540614680e+001
0	 4.400020000016399e+000	 7.666649999985416e+000	 1.005890840090510e+001
0	 4.400020000016400e+000	 7.733319999987733e+000	 1.005580441058077e+001
0	 4.400020000016399e+000	 7.799989999990448e+000	 1.005279345136986e+001
0	 4.400020000016400e+000	 7.866659999993464e+000	 1.004987553946846e+001
0	 4.400020000016399e+000	 7.933329999996680e+000	 1.004705069107262e+001
0	 4.400020000016399e+000	 7.999999999999999e+000	 1.004431892237840e+001
0	 4.466690000017615e+000	 7.333299999983334e+000	 1.007758699963530e+001
0	 4.466690000017616e+000	 7.399969999982149e+000	 1.007397089150853e+001
0	 4.466690000017616e+000	 7.466639999981865e+000	 1.007044593639319e+001
0	 4.466690000017615e+000	 7.533309999982380e+000	 1.006701200853424e+001
0	 4.466690000017617e+000	 7.599979999983598e+000	 1.006366898217665e+001
0	 4.466690000017614e+000	 7.666649999985415e+000	 1.006041673156537e+001
0	 4.466690000017616e+000	 7.733319999987733e+000	 1.005725513094532e+001
0	 4.466690000017617e+000	 7.799989999990446e+000	 1.005418405456151e+001
0	 4.466690000017615e+000	 7.866659999993464e+000	 1.005120337665886e+001
0	 4.466690000017616e+000	 7.933329999996683e+000	 1.004831297148233e+001
0	 4.466690000017617e+000	 8.000000000000002e+000	 1.004551271327690e+001
0	 4.533360000018132e+000	 7.333299999983334e+000	 1.007920257989619e+001
0	 4.533360000018132e+000	 7.399969999982147e+000	 1.007554456255363e+001
0	 4.533360000018132e+000	 7.466639999981864e+000	 1.007197605326722e+001
0	 4.533360000018133e+000	 7.533309999982382e+000	 1.006849676305835e+001
0	 4.533360000018134e+000	 7.599979999983600e+000	 1.006510640294838e+001
0	 4.533360000018133e+000	 7.666649999985414e+000	 1.006180468395878e+001
0	 4.533360000018134e+000	 7.733319999987732e+000	 1.005859131711087e+001
0	 4.533360000018133e+000	 7.799989999990450e+000	 1.005546601342610e+001
0	 4.533360000018132e+000	 7.866659999993465e+000	 1.005242848392585e+001
0	 4.533360000018134e+000	 7.933329999996682e+000	 1.004947843963152e+001
0	 4.533360000018131e+000	 8.000000000000000e+000	 1.004661559156452e+001
0	 4.600030000017849e+000	 7.333299999983335e+000	 1.008067478400654e+001
0	 4.600030000017849e+000	 7.399969999982149e+000	 1.007697901629559e+001
0	 4.600030000017850e+000	 7.466639999981866e+000	 1.007337140249105e+001
0	 4.600030000017849e+000	 7.533309999982382e+000	 1.006985146911828e+001
0	 4.600030000017848e+000	 7.599979999983599e+000	 1.006641874270266e+001
0	 4.600030000017849e+000	 7.666649999985415e+000	 1.006307274976962e+001
0	 4.600030000017847e+000	 7.733319999987730e+000	 1.005981301684454e+001
0	 4.600030000017848e+000	 7.799989999990448e+000	 1.005663907045280e+001
0	 4.600030000017848e+000	 7.866659999993465e+000	 1.005355043711979e+001
0	 4.600030000017848e+000	 7.933329999996680e+000	 1.005054664337092e+001
0	 4.600030000017849e+000	 8.000000000000002e+000	 1.004762721573160e+001
0	 4.666700000016666e+000	 7.333299999983335e+000	 1.008200840282410e+001
0	 4.666700000016665e+000	 7.399969999982150e+000	 1.007827790647907e+001
0	 4.666700000016666e+000	 7.466639999981865e+000	 1.007463463933545e+001
0	 4.666700000016665e+000	 7.533309999982381e+000	 1.007107792215012e+001
0	 4.666700000016666e+000	 7.599979999983601e+000	 1.006760707568007e+001
0	 4.666700000016666e+000	 7.666649999985416e+000	 1.006422142068220e+001
0	 4.666700000016667e+000	 7.733319999987731e+000	 1.006092027791346e+001
0	 4.666700000016665e+000	 7.799989999990447e+000	 1.005770296813079e+001
0	 4.666700000016666e+000	 7.866659999993464e+000	 1.005456881209109e+001
0	 4.666700000016665e+000	 7.933329999996680e+000	 1.005151713055136e+001
0	 4.666700000016666e+000	 7.999999999999999e+000	 1.004854724426850e+001
0	 4.000000000000000e+000	 7.999999999999998e+000	 1.003526613669980e+001
0	 4.000000000000000e+000	 8.066670000003319e+000	 1.003314524312726e+001
0	 4.000000000000000e+000	 8.133340000006534e+000	 1.003108602623645e+001
0	 4.000000000000001e+000	 8.200010000009550e+000	 1.002908849956814e+001
0	 4.000000000000000e+000	 8.266680000012265e+000	 1.002715267666299e+001
0	 4.000000000000000e+000	 8.333350000014583e+000	 1.002527857106173e+001
0	 4.000000000000001e+000	 8.400020000016399e+000	 1.002346619630506e+001
0	 4.000000000000001e+000	 8.466690000017616e+000	 1.002171556593370e+001
0	 4.000000000000001e+000	 8.533360000018131e+000	 1.002002669348839e+001
0	 4.000000000000001e+000	 8.600030000017847e+000	 1.001839959250981e+001
0	 4.000000000000000e+000	 8.666700000016666e+000	 1.001683427653869e+001
0	 4.066670000003317e+000	 7.999999999999998e+000	 1.003699823156076e+001
0	 4.066670000003318e+000	 8.066670000003319e+000	 1.003477777107447e+001
0	 4.066670000003317e+000	 8.133340000006534e+000	 1.003262267164844e+001
0	 4.066670000003317e+000	 8.200010000009552e+000	 1.003053259803884e+001
0	 4.066670000003317e+000	 8.266680000012270e+000	 1.002850721500197e+001
0	 4.066670000003316e+000	 8.333350000014582e+000	 1.002654618729412e+001
0	 4.066670000003318e+000	 8.400020000016401e+000	 1.002464917967148e+001
0	 4.066670000003316e+000	 8.466690000017614e+000	 1.002281585689027e+001
0	 4.066670000003317e+000	 8.533360000018131e+000	 1.002104588370681e+001
0	 4.066670000003318e+000	 8.600030000017847e+000	 1.001933892487732e+001
0	 4.066670000003316e+000	 8.666700000016666e+000	 1.001769464515806e+001
0	 4.133340000006533e+000	 7.999999999999998e+000	 1.003864146286877e+001
0	 4.133340000006533e+000	 8.066670000003317e+000	 1.003632615926771e+001
0	 4.133340000006532e+000	 8.133340000006532e+000	 1.003407976204353e+001
0	 4.133340000006533e+000	 8.200010000009550e+000	 1.003190161857019e+001
0	 4.133340000006533e+000	 8.266680000012270e+000	 1.002979107622158e+001
0	 4.133340000006533e+000	 8.333350000014585e+000	 1.002774748237162e+001
0	 4.133340000006533e+000	 8.400020000016397e+000	 1.002577018439425e+001
0	 4.133340000006535e+000	 8.466690000017616e+000	 1.002385852966338e+001
0	 4.133340000006532e+000	 8.533360000018131e+000	 1.002201186555292e+001
0	 4.133340000006533e+000	 8.600030000017847e+000	 1.002022953943683e+001
0	 4.133340000006534e+000	 8.666700000016666e+000	 1.001851089868901e+001
0	 4.200010000009550e+000	 8.000000000000000e+000	 1.004019548911421e+001
0	 4.200010000009547e+000	 8.066670000003317e+000	 1.003779022898537e+001
0	 4.200010000009550e+000	 8.133340000006534e+000	 1.003545724714606e+001
0	 4.200010000009549e+000	 8.200010000009549e+000	 1.003319560499001e+001
0	 4.200010000009551e+000	 8.266680000012268e+000	 1.003100436391096e+001
0	 4.200010000009550e+000	 8.333350000014582e+000	 1.002888258530262e+001
0	 4.200010000009550e+000	 8.400020000016401e+000	 1.002682933055874e+001
0	 4.200010000009551e+000	 8.466690000017614e+000	 1.002484366107304e+001
0	 4.200010000009551e+000	 8.533360000018135e+000	 1.002292463823926e+001
0	 4.200010000009550e+000	 8.600030000017847e+000	 1.002107132345114e+001
0	 4.200010000009550e+000	 8.666700000016666e+000	 1.001928277810240e+001
0	 4.266680000012267e+000	 7.999999999999999e+000	 1.004165996878740e+001
0	 4.266680000012267e+000	 8.066670000003317e+000	 1.003916980150586e+001
0	 4.266680000012268e+000	 8.133340000006536e+000	 1.003675507668022e+001
0	 4.266680000012267e+000	 8.200010000009550e+000	 1.003441460112616e+001
0	 4.266680000012268e+000	 8.266680000012268e+000	 1.003214718165937e+001
0	 4.266680000012266e+000	 8.333350000014582e+000	 1.002995162509551e+001
0	 4.266680000012266e+000	 8.400020000016397e+000	 1.002782673825026e+001
0	 4.266680000012266e+000	 8.466690000017618e+000	 1.002577132793932e+001
0	 4.266680000012267e+000	 8.533360000018133e+000	 1.002378420097834e+001
0	 4.266680000012267e+000	 8.600030000017847e+000	 1.002186416418303e+001
0	 4.266680000012266e+000	 8.666700000016668e+000	 1.002001002436906e+001
0	 4.333350000014584e+000	 8.000000000000000e+000	 1.004303456037869e+001
0	 4.333350000014583e+000	 8.066670000003319e+000	 1.004046469810756e+001
0	 4.333350000014582e+000	 8.133340000006534e+000	 1.003797320037023e+001
0	 4.333350000014584e+000	 8.200010000009549e+000	 1.003555865080645e+001
0	 4.333350000014583e+000	 8.266680000012268e+000	 1.003321963305601e+001
0	 4.333350000014584e+000	 8.333350000014583e+000	 1.003095473075864e+001
0	 4.333350000014584e+000	 8.400020000016401e+000	 1.002876252755414e+001
0	 4.333350000014584e+000	 8.466690000017618e+000	 1.002664160708222e+001
0	 4.333350000014582e+000	 8.533360000018131e+000	 1.002459055298270e+001
0	 4.333350000014584e+000	 8.600030000017851e+000	 1.002260794889535e+001
0	 4.333350000014583e+000	 8.666700000016668e+000	 1.002069237845989e+001
0	 4.400020000016399e+000	 7.999999999999999e+000	 1.004431892237840e+001
0	 4.400020000016399e+000	 8.066670000003317e+000	 1.004167474006887e+001
0	 4.400020000016400e+000	 8.133340000006532e+000	 1.003911156794031e+001
0	 4.400020000016399e+000	 8.200010000009547e+000	 1.003662779785874e+001
0	 4.400020000016399e+000	 8.266680000012265e+000	 1.003422182169010e+001
0	 4.400020000016400e+000	 8.333350000014583e+000	 1.003189203130042e+001
0	 4.400020000016401e+000	 8.400020000016399e+000	 1.002963681855567e+001
0	 4.400020000016400e+000	 8.466690000017618e+000	 1.002745457532182e+001
0	 4.400020000016400e+000	 8.533360000018131e+000	 1.002534369346489e+001
0	 4.400020000016400e+000	 8.600030000017849e+000	 1.002330256485085e+001
0	 4.400020000016401e+000	 8.666700000016666e+000	 1.002132958134571e+001
0	 4.466690000017617e+000	 8.000000000000002e+000	 1.004551271327690e+001
0	 4.466690000017616e+000	 8.066670000003317e+000	 1.004279974866817e+001
0	 4.466690000017617e+000	 8.133340000006534e+000	 1.004017012911470e+001
0	 4.466690000017616e+000	 8.200010000009550e+000	 1.003762208611082e+001
0	 4.466690000017616e+000	 8.266680000012267e+000	 1.003515385115088e+001
0	 4.466690000017616e+000	 8.333350000014585e+000	 1.003276365572923e+001
0	 4.466690000017614e+000	 8.400020000016397e+000	 1.003044973134019e+001
0	 4.466690000017615e+000	 8.466690000017616e+000	 1.002821030947814e+001
0	 4.466690000017617e+000	 8.533360000018131e+000	 1.002604362163743e+001
0	 4.466690000017615e+000	 8.600030000017847e+000	 1.002394789931238e+001
0	 4.466690000017616e+000	 8.666700000016668e+000	 1.002192137399736e+001
0	 4.533360000018131e+000	 8.000000000000000e+000	 1.004661559156452e+001
0	 4.533360000018133e+000	 8.066670000003317e+000	 1.004383954518389e+001
0	 4.533360000018132e+000	 8.133340000006534e+000	 1.004114883361761e+001
0	 4.533360000018133e+000	 8.200010000009550e+000	 1.003854155939057e+001
0	 4.533360000018133e+000	 8.266680000012263e+000	 1.003601582502756e+001
0	 4.533360000018133e+000	 8.333350000014583e+000	 1.003356973305343e+001
0	 4.533360000018133e+000	 8.400020000016399e+000	 1.003120138599305e+001
0	 4.533360000018132e+000	 8.466690000017614e+000	 1.002890888637124e+001
0	 4.533360000018132e+000	 8.533360000018133e+000	 1.002669033671284e+001
0	 4.533360000018132e+000	 8.600030000017847e+000	 1.002454383954273e+001
0	 4.533360000018131e+000	 8.666700000016666e+000	 1.002246749738575e+001
0	 4.600030000017849e+000	 8.000000000000002e+000	 1.004762721573160e+001
0	 4.600030000017849e+000	 8.066670000003317e+000	 1.004479395089440e+001
0	 4.600030000017848e+000	 8.133340000006532e+000	 1.004204763117330e+001
0	 4.600030000017849e+000	 8.200010000009550e+000	 1.003938626152578e+001
0	 4.600030000017848e+000	 8.266680000012265e+000	 1.003680784690934e+001
0	 4.600030000017848e+000	 8.333350000014582e+000	 1.003431039228142e+001
0	 4.600030000017849e+000	 8.400020000016397e+000	 1.003189190259954e+001
0	 4.600030000017848e+000	 8.466690000017614e+000	 1.002955038282113e+001
0	 4.600030000017849e+000	 8.533360000018131e+000	 1.002728383790369e+001
0	 4.600030000017849e+000	 8.600030000017847e+000	 1.002509027280472e+001
0	 4.600030000017848e+000	 8.666700000016666e+000	 1.002296769248167e+001
0	 4.666700000016666e+000	 7.999999999999999e+000	 1.004854724426850e+001
0	 4.666700000016665e+000	 8.066670000003317e+000	 1.004566278707811e+001
0	 4.666700000016666e+000	 8.133340000006532e+000	 1.004286647150596e+001
0	 4.666700000016667e+000	 8.200010000009552e+000	 1.004015623634437e+001
0	 4.666700000016666e+000	 8.266680000012267e+000	 1.003753002038547e+001
0	 4.666700000016667e+000	 8.333350000014583e+000	 1.003498576242162e+001
0	 4.666700000016667e+000	 8.400020000016399e+000	 1.003252140124498e+001
0	 4.666700000016667e+000	 8.466690000017616e+000	 1.003013487564786e+001
0	 4.666700000016665e+000	 8.533360000018131e+000	 1.002782412442249e+001
0	 4.666700000016666e+000	 8.600030000017847e+000	 1.002558708636112e+001
0	 4.666700000016666e+000	 8.666700000016668e+000	 1.002342170025602e+001
0	 4.000000000000000e+000	 8.666700000016666e+000	 1.001683427653869e+001
0	 4.000000000000000e+000	 8.733360002791903e+000	 1.001533739266105e+001
0	 4.000000000000000e+000	 8.800020022230553e+000	 1.001391304853208e+001
0	 4.000000000000000e+000	 8.866680074997042e+000	 1.001255813885769e+001
0	 4.000000000000001e+000	 8.933340177755778e+000	 1.001126955815366e+001
0	 4.000000000000000e+000	 9.000000347171179e+000	 1.001004420074569e+001
0	 4.000000000000001e+000	 9.066660599907666e+000	 1.000887896076934e+001
0	 4.000000000000000e+000	 9.133320952629651e+000	 1.000777073217009e+001
0	 4.000000000000001e+000	 9.199981422001555e+000	 1.000671640870329e+001
0	 4.000000000000001e+000	 9.266642024687791e+000	 1.000571288393414e+001
0	 4.000000000000001e+000	 9.333302777352783e+000	 1.000475705123767e+001
0	 4.066670000003316e+000	 8.666700000016666e+000	 1.001769464515806e+001
0	 4.066670000003317e+000	 8.733360002791907e+000	 1.001612059418908e+001
0	 4.066670000003318e+000	 8.800020022230557e+000	 1.001462200517144e+001
0	 4.066670000003317e+000	 8.866680074997040e+000	 1.001319579388965e+001
0	 4.066670000003317e+000	 8.933340177755774e+000	 1.001183887592753e+001
0	 4.066670000003317e+000	 9.000000347171181e+000	 1.001054816666830e+001
0	 4.066670000003315e+000	 9.066660599907666e+000	 1.000932058129468e+001
0	 4.066670000003319e+000	 9.133320952629655e+000	 1.000815303478864e+001
0	 4.066670000003317e+000	 9.199981422001557e+000	 1.000704244193163e+001
0	 4.066670000003317e+000	 9.266642024687789e+000	 1.000598571730444e+001
0	 4.066670000003317e+000	 9.333302777352781e+000	 1.000497977528729e+001
0	 4.133340000006534e+000	 8.666700000016666e+000	 1.001851089868901e+001
0	 4.133340000006533e+000	 8.733360002791901e+000	 1.001686430795659e+001
0	 4.133340000006534e+000	 8.800020022230553e+000	 1.001529600607156e+001
0	 4.133340000006534e+000	 8.866680074997039e+000	 1.001380291064626e+001
0	 4.133340000006533e+000	 8.933340177755774e+000	 1.001238193908248e+001
0	 4.133340000006532e+000	 9.000000347171179e+000	 1.001103000857151e+001
0	 4.133340000006534e+000	 9.066660599907666e+000	 1.000974403609405e+001
0	 4.133340000006534e+000	 9.133320952629653e+000	 1.000852093842025e+001
0	 4.133340000006533e+000	 9.199981422001557e+000	 1.000735763210966e+001
0	 4.133340000006534e+000	 9.266642024687794e+000	 1.000625103351135e+001
0	 4.133340000006534e+000	 9.333302777352781e+000	 1.000519805876371e+001
0	 4.200010000009550e+000	 8.666700000016666e+000	 1.001928277810239e+001
0	 4.200010000009549e+000	 8.733360002791905e+000	 1.001756811429684e+001
0	 4.200010000009550e+000	 8.800020022230555e+000	 1.001593447652985e+001
0	 4.200010000009551e+000	 8.866680074997040e+000	 1.001437876499113e+001
0	 4.200010000009550e+000	 8.933340177755776e+000	 1.001289787965049e+001
0	 4.200010000009550e+000	 9.000000347171177e+000	 1.001148872025770e+001
0	 4.200010000009550e+000	 9.066660599907664e+000	 1.001014818634264e+001
0	 4.200010000009550e+000	 9.133320952629651e+000	 1.000887317721515e+001
0	 4.200010000009552e+000	 9.199981422001555e+000	 1.000766059196511e+001
0	 4.200010000009550e+000	 9.266642024687792e+000	 1.000650732946247e+001
0	 4.200010000009550e+000	 9.333302777352779e+000	 1.000541028835716e+001
0	 4.266680000012266e+000	 8.666700000016668e+000	 1.002001002436906e+001
0	 4.266680000012267e+000	 8.733360002791901e+000	 1.001823159354301e+001
0	 4.266680000012267e+000	 8.800020022230553e+000	 1.001653684184374e+001
0	 4.266680000012267e+000	 8.866680074997040e+000	 1.001492263278798e+001
0	 4.266680000012267e+000	 8.933340177755776e+000	 1.001338582966350e+001
0	 4.266680000012268e+000	 9.000000347171179e+000	 1.001192329552933e+001
0	 4.266680000012267e+000	 9.066660599907664e+000	 1.001053189321561e+001
0	 4.266680000012268e+000	 9.133320952629651e+000	 1.000920848532356e+001
0	 4.266680000012267e+000	 9.199981422001558e+000	 1.000794993422571e+001
0	 4.266680000012268e+000	 9.266642024687794e+000	 1.000675310206551e+001
0	 4.266680000012267e+000	 9.333302777352783e+000	 1.000561485075766e+001
0	 4.333350000014583e+000	 8.666700000016668e+000	 1.002069237845989e+001
0	 4.333350000014583e+000	 8.733360002791903e+000	 1.001885432602831e+001
0	 4.333350000014583e+000	 8.800020022230555e+000	 1.001710252731071e+001
0	 4.333350000014582e+000	 8.866680074997040e+000	 1.001543378990038e+001
0	 4.333350000014584e+000	 8.933340177755776e+000	 1.001384492115345e+001
0	 4.333350000014585e+000	 9.000000347171181e+000	 1.001233272818878e+001
0	 4.333350000014582e+000	 9.066660599907664e+000	 1.001089401788806e+001
0	 4.333350000014584e+000	 9.133320952629653e+000	 1.000952559689580e+001
0	 4.333350000014584e+000	 9.199981422001558e+000	 1.000822427161913e+001
0	 4.333350000014584e+000	 9.266642024687791e+000	 1.000698684822812e+001
0	 4.333350000014585e+000	 9.333302777352783e+000	 1.000581013265545e+001
0	 4.400020000016401e+000	 8.666700000016666e+000	 1.002132958134571e+001
0	 4.400020000016400e+000	 8.733360002791903e+000	 1.001943589208595e+001
0	 4.400020000016399e+000	 8.800020022230553e+000	 1.001763095822815e+001
0	 4.400020000016401e+000	 8.866680074997042e+000	 1.001591151219202e+001
0	 4.400020000016398e+000	 8.933340177755774e+000	 1.001427428615228e+001
0	 4.400020000016399e+000	 9.000000347171179e+000	 1.001271601203849e+001
0	 4.400020000016400e+000	 9.066660599907667e+000	 1.001123342153523e+001
0	 4.400020000016400e+000	 9.133320952629651e+000	 1.000982324608200e+001
0	 4.400020000016399e+000	 9.199981422001555e+000	 1.000848221687315e+001
0	 4.400020000016399e+000	 9.266642024687791e+000	 1.000720706485797e+001
0	 4.400020000016400e+000	 9.333302777352783e+000	 1.000599452074066e+001
0	 4.466690000017616e+000	 8.666700000016668e+000	 1.002192137399736e+001
0	 4.466690000017614e+000	 8.733360002791898e+000	 1.001997587204914e+001
0	 4.466690000017617e+000	 8.800020022230557e+000	 1.001812155989351e+001
0	 4.466690000017617e+000	 8.866680074997040e+000	 1.001635507552654e+001
0	 4.466690000017616e+000	 8.933340177755778e+000	 1.001467305669190e+001
0	 4.466690000017616e+000	 9.000000347171179e+000	 1.001307214088087e+001
0	 4.466690000017617e+000	 9.066660599907667e+000	 1.001154896533226e+001
0	 4.466690000017615e+000	 9.133320952629653e+000	 1.001010016703246e+001
0	 4.466690000017616e+000	 9.199981422001557e+000	 1.000872238271544e+001
0	 4.466690000017616e+000	 9.266642024687792e+000	 1.000741224886272e+001
0	 4.466690000017617e+000	 9.333302777352785e+000	 1.000616640170340e+001
0	 4.533360000018131e+000	 8.666700000016666e+000	 1.002246749738575e+001
0	 4.533360000018132e+000	 8.733360002791899e+000	 1.002047384625110e+001
0	 4.533360000018133e+000	 8.800020022230555e+000	 1.001857375760422e+001
0	 4.533360000018133e+000	 8.866680074997040e+000	 1.001676375576758e+001
0	 4.533360000018131e+000	 8.933340177755776e+000	 1.001504036480433e+001
0	 4.533360000018134e+000	 9.000000347171181e+000	 1.001340010851835e+001
0	 4.533360000018131e+000	 9.066660599907667e+000	 1.001183951045426e+001
0	 4.533360000018131e+000	 9.133320952629653e+000	 1.001035509389739e+001
0	 4.533360000018133e+000	 9.199981422001557e+000	 1.000894338187375e+001
0	 4.533360000018133e+000	 9.266642024687792e+000	 1.000760089715009e+001
0	 4.533360000018133e+000	 9.333302777352781e+000	 1.000632416223383e+001
0	 4.600030000017848e+000	 8.666700000016666e+000	 1.002296769248167e+001
0	 4.600030000017849e+000	 8.733360002791903e+000	 1.002092939502503e+001
0	 4.600030000017848e+000	 8.800020022230555e+000	 1.001898697665775e+001
0	 4.600030000017848e+000	 8.866680074997040e+000	 1.001713682877881e+001
0	 4.600030000017850e+000	 8.933340177755778e+000	 1.001537534252145e+001
0	 4.600030000017848e+000	 9.000000347171177e+000	 1.001369890875333e+001
0	 4.600030000017848e+000	 9.066660599907664e+000	 1.001210391807641e+001
0	 4.600030000017849e+000	 9.133320952629653e+000	 1.001058676082701e+001
0	 4.600030000017848e+000	 9.199981422001555e+000	 1.000914382707580e+001
0	 4.600030000017849e+000	 9.266642024687794e+000	 1.000777150662771e+001
0	 4.600030000017849e+000	 9.333302777352783e+000	 1.000646618902207e+001
0	 4.666700000016666e+000	 8.666700000016668e+000	 1.002342170025602e+001
0	 4.666700000016667e+000	 8.733360002791903e+000	 1.002134209870412e+001
0	 4.666700000016667e+000	 8.800020022230553e+000	 1.001936064235151e+001
0	 4.666700000016665e+000	 8.866680074997039e+000	 1.001747357042384e+001
0	 4.666700000016666e+000	 8.933340177755776e+000	 1.001567712187523e+001
0	 4.666700000016666e+000	 9.000000347171179e+000	 1.001396753538825e+001
0	 4.666700000016666e+000	 9.066660599907662e+000	 1.001234104937388e+001
0	 4.666700000016666e+000	 9.133320952629649e+000	 1.001079390197160e+001
0	 4.666700000016666e+000	 9.199981422001557e+000	 1.000932233104927e+001
0	 4.666700000016667e+000	 9.266642024687792e+000	 1.000792257420327e+001
0	 4.666700000016666e+000	 9.333302777352783e+000	 1.000659086875831e+001
0	 4.000000000000001e+000	 9.333302777352783e+000	 1.000475705123767e+001
0	 4.000000000000000e+000	 9.399973674588177e+000	 1.000387666096635e+001
0	 4.000000000000000e+000	 9.466644621844621e+000	 1.000309826243410e+001
0	 4.000000000000000e+000	 9.533315502449998e+000	 1.000241652890596e+001
0	 4.000000000000001e+000	 9.599986199732198e+000	 1.000182613563633e+001
0	 4.000000000000001e+000	 9.666656597019093e+000	 1.000132175986876e+001
0	 4.000000000000000e+000	 9.733326577638573e+000	 1.000089808083578e+001
0	 4.000000000000001e+000	 9.799996024918523e+000	 1.000054977975857e+001
0	 4.000000000000000e+000	 9.866664822186820e+000	 1.000027153984707e+001
0	 4.000000000000000e+000	 9.933332852771352e+000	 1.000005804629978e+001
0	 4.000000000000001e+000	 1.000000000000000e+001	 9.999903986303961e+000
0	 4.066670000003317e+000	 9.333302777352781e+000	 1.000497977528729e+001
0	 4.066670000003318e+000	 9.399973674588175e+000	 1.000405390856777e+001
0	 4.066670000003318e+000	 9.466644621844623e+000	 1.000323589208191e+001
0	 4.066670000003317e+000	 9.533315502449998e+000	 1.000251992324976e+001
0	 4.066670000003318e+000	 9.599986199732197e+000	 1.000190020158815e+001
0	 4.066670000003318e+000	 9.666656597019093e+000	 1.000137092871025e+001
0	 4.066670000003318e+000	 9.733326577638573e+000	 1.000092630832566e+001
0	 4.066670000003318e+000	 9.799996024918521e+000	 1.000056054623990e+001
0	 4.066670000003316e+000	 9.866664822186817e+000	 1.000026785035461e+001
0	 4.066670000003317e+000	 9.933332852771351e+000	 1.000004243066752e+001
0	 4.066670000003318e+000	 1.000000000000000e+001	 9.999878499272196e+000
0	 4.133340000006534e+000	 9.333302777352781e+000	 1.000519805876371e+001
0	 4.133340000006535e+000	 9.399973674588177e+000	 1.000422941405325e+001
0	 4.133340000006533e+000	 9.466644621844621e+000	 1.000337402008166e+001
0	 4.133340000006535e+000	 9.533315502450002e+000	 1.000262565396882e+001
0	 4.133340000006534e+000	 9.599986199732195e+000	 1.000197809503204e+001
0	 4.133340000006531e+000	 9.666656597019092e+000	 1.000142512478620e+001
0	 4.133340000006534e+000	 9.733326577638577e+000	 1.000096052694325e+001
0	 4.133340000006533e+000	 9.799996024918523e+000	 1.000057808741232e+001
0	 4.133340000006532e+000	 9.866664822186818e+000	 1.000027159429954e+001
0	 4.133340000006533e+000	 9.933332852771349e+000	 1.000003483790798e+001
0	 4.133340000006534e+000	 1.000000000000000e+001	 9.999861610737725e+000
0	 4.200010000009550e+000	 9.333302777352779e+000	 1.000541028835715e+001
0	 4.200010000009550e+000	 9.399973674588173e+000	 1.000440146674459e+001
0	 4.200010000009551e+000	 9.466644621844623e+000	 1.000351085851456e+001
0	 4.200010000009551e+000	 9.533315502450000e+000	 1.000273187603079e+001
0	 4.200010000009550e+000	 9.599986199732197e+000	 1.000205793394941e+001
0	 4.200010000009551e+000	 9.666656597019093e+000	 1.000148244921866e+001
0	 4.200010000009550e+000	 9.733326577638573e+000	 1.000099884107881e+001
0	 4.200010000009550e+000	 9.799996024918521e+000	 1.000060053106208e+001
0	 4.200010000009550e+000	 9.866664822186824e+000	 1.000028094299226e+001
0	 4.200010000009550e+000	 9.933332852771351e+000	 1.000003350298513e+001
0	 4.200010000009550e+000	 9.999999999999998e+000	 9.999851639448499e+000
0	 4.266680000012267e+000	 9.333302777352783e+000	 1.000561485075766e+001
0	 4.266680000012267e+000	 9.399973674588173e+000	 1.000456835596358e+001
0	 4.266680000012268e+000	 9.466644621844623e+000	 1.000364461946164e+001
0	 4.266680000012266e+000	 9.533315502449998e+000	 1.000283674440340e+001
0	 4.266680000012267e+000	 9.599986199732197e+000	 1.000213783632155e+001
0	 4.266680000012267e+000	 9.666656597019088e+000	 1.000154100312980e+001
0	 4.266680000012268e+000	 9.733326577638577e+000	 1.000103935512258e+001
0	 4.266680000012266e+000	 9.799996024918521e+000	 1.000062600497516e+001
0	 4.266680000012267e+000	 9.866664822186822e+000	 1.000029406774329e+001
0	 4.266680000012265e+000	 9.933332852771349e+000	 1.000003666086344e+001
0	 4.266680000012267e+000	 9.999999999999998e+000	 9.999846904153012e+000
0	 4.333350000014585e+000	 9.333302777352783e+000	 1.000581013265545e+001
0	 4.333350000014584e+000	 9.399973674588177e+000	 1.000472837103201e+001
0	 4.333350000014582e+000	 9.466644621844621e+000	 1.000377351500401e+001
0	 4.333350000014584e+000	 9.533315502449998e+000	 1.000293841405427e+001
0	 4.333350000014583e+000	 9.599986199732193e+000	 1.000221592012985e+001
0	 4.333350000014583e+000	 9.666656597019095e+000	 1.000159888764174e+001
0	 4.333350000014583e+000	 9.733326577638570e+000	 1.000108017346488e+001
0	 4.333350000014583e+000	 9.799996024918523e+000	 1.000065263693787e+001
0	 4.333350000014582e+000	 9.866664822186820e+000	 1.000030913986311e+001
0	 4.333350000014584e+000	 9.933332852771352e+000	 1.000004254650687e+001
0	 4.333350000014583e+000	 9.999999999999998e+000	 9.999845723599277e+000
0	 4.400020000016400e+000	 9.333302777352783e+000	 1.000599452074066e+001
0	 4.400020000016400e+000	 9.399973674588177e+000	 1.000487980127167e+001
0	 4.400020000016400e+000	 9.466644621844621e+000	 1.000389575722283e+001
0	 4.400020000016400e+000	 9.533315502450000e+000	 1.000303503995120e+001
0	 4.400020000016399e+000	 9.599986199732195e+000	 1.000229030335569e+001
0	 4.400020000016399e+000	 9.666656597019092e+000	 1.000165420387665e+001
0	 4.400020000016399e+000	 9.733326577638573e+000	 1.000111940049585e+001
0	 4.400020000016401e+000	 9.799996024918521e+000	 1.000067855473630e+001
0	 4.400020000016400e+000	 9.866664822186818e+000	 1.000032433066239e+001
0	 4.400020000016400e+000	 9.933332852771351e+000	 1.000004939487987e+001
0	 4.400020000016400e+000	 1.000000000000000e+001	 9.999846416535814e+000
0	 4.466690000017617e+000	 9.333302777352785e+000	 1.000616640170340e+001
0	 4.466690000017617e+000	 9.399973674588177e+000	 1.000502093600439e+001
0	 4.466690000017615e+000	 9.466644621844619e+000	 1.000400955819917e+001
0	 4.466690000017617e+000	 9.533315502449998e+000	 1.000312477706185e+001
0	 4.466690000017616e+000	 9.599986199732197e+000	 1.000235910398041e+001
0	 4.466690000017617e+000	 9.666656597019097e+000	 1.000170505295665e+001
0	 4.466690000017617e+000	 9.733326577638573e+000	 1.000115514060577e+001
0	 4.466690000017616e+000	 9.799996024918523e+000	 1.000070188615663e+001
0	 4.466690000017617e+000	 9.866664822186820e+000	 1.000033781145155e+001
0	 4.466690000017617e+000	 9.933332852771351e+000	 1.000005544094636e+001
0	 4.466690000017617e+000	 1.000000000000000e+001	 9.999847301710707e+000
0	 4.533360000018133e+000	 9.333302777352781e+000	 1.000632416223383e+001
0	 4.533360000018131e+000	 9.399973674588173e+000	 1.000515006455194e+001
0	 4.533360000018133e+000	 9.466644621844623e+000	 1.000411313001416e+001
0	 4.533360000018130e+000	 9.533315502449998e+000	 1.000320578035387e+001
0	 4.533360000018132e+000	 9.599986199732195e+000	 1.000242043998543e+001
0	 4.533360000018133e+000	 9.666656597019095e+000	 1.000174953600387e+001
0	 4.533360000018132e+000	 9.733326577638573e+000	 1.000118549818494e+001
0	 4.533360000018132e+000	 9.799996024918519e+000	 1.000072075898501e+001
0	 4.533360000018130e+000	 9.866664822186817e+000	 1.000034775354101e+001
0	 4.533360000018132e+000	 9.933332852771351e+000	 1.000005891967061e+001
0	 4.533360000018132e+000	 1.000000000000000e+001	 9.999846697872453e+000
0	 4.600030000017849e+000	 9.333302777352783e+000	 1.000646618902207e+001
0	 4.600030000017848e+000	 9.399973674588177e+000	 1.000526547623608e+001
0	 4.600030000017848e+000	 9.466644621844619e+000	 1.000420468474890e+001
0	 4.600030000017850e+000	 9.533315502450000e+000	 1.000327620479503e+001
0	 4.600030000017848e+000	 9.599986199732195e+000	 1.000247242935201e+001
0	 4.600030000017849e+000	 9.666656597019093e+000	 1.000178575414046e+001
0	 4.600030000017848e+000	 9.733326577638575e+000	 1.000120857762357e+001
0	 4.600030000017848e+000	 9.799996024918523e+000	 1.000073330100759e+001
0	 4.600030000017849e+000	 9.866664822186820e+000	 1.000035232824148e+001
0	 4.600030000017849e+000	 9.933332852771351e+000	 1.000005806601702e+001
0	 4.600030000017848e+000	 1.000000000000000e+001	 9.999842923769132e+000
0	 4.666700000016666e+000	 9.333302777352783e+000	 1.000659086875831e+001
0	 4.666700000016665e+000	 9.399973674588175e+000	 1.000536546037861e+001
0	 4.666700000016666e+000	 9.466644621844619e+000	 1.000428243448448e+001
0	 4.666700000016666e+000	 9.533315502449996e+000	 1.000333420535292e+001
0	 4.666700000016666e+000	 9.599986199732195e+000	 1.000251319006159e+001
0	 4.666700000016666e+000	 9.666656597019093e+000	 1.000181180848847e+001
0	 4.666700000016666e+000	 9.733326577638573e+000	 1.000122248331194e+001
0	 4.666700000016667e+000	 9.799996024918524e+000	 1.000073764001060e+001
0	 4.666700000016667e+000	 9.866664822186822e+000	 1.000034970686335e+001
0	 4.666700000016666e+000	 9.933332852771352e+000	 1.000005111494943e+001
0	 4.666700000016666e+000	 1.000000000000000e+001	 9.999834298148961e+000
0	 4.666700000016666e+000	 0.000000000000000e+000	 1.088457104744049e+001
0	 4.666700000016666e+000	 6.666714722864757e-002	 1.083848855886196e+001
0	 4.666700000016666e+000	 1.333351778131789e-001	 1.078902486725483e+001
0	 4.666700000016665e+000	 2.000039750814772e-001	 1.073787216311201e+001
0	 4.666700000016667e+000	 2.666734223614256e-001	 1.068672269654191e+001
0	 4.666700000016667e+000	 3.333434029809069e-001	 1.063726877726145e+001
0	 4.666700000016667e+000	 4.000138002678045e-001	 1.059120277459067e+001
0	 4.666700000016666e+000	 4.666844975500011e-001	 1.055021711744882e+001
0	 4.666700000016666e+000	 5.333553781553803e-001	 1.051600429435210e+001
0	 4.666700000016666e+000	 6.000263254118248e-001	 1.049025685341291e+001
0	 4.666700000016666e+000	 6.666972226472177e-001	 1.047466740234065e+001
0	 4.733360000014533e+000	 0.000000000000000e+000	 1.076289668292058e+001
0	 4.733360000014534e+000	 6.666714722864756e-002	 1.072922393025550e+001
0	 4.733360000014534e+000	 1.333351778131790e-001	 1.069282446364035e+001
0	 4.733360000014534e+000	 2.000039750814773e-001	 1.065499819050050e+001
0	 4.733360000014534e+000	 2.666734223614256e-001	 1.061704506340521e+001
0	 4.733360000014533e+000	 3.333434029809069e-001	 1.058026508006252e+001
0	 4.733360000014533e+000	 4.000138002678044e-001	 1.054595828331547e+001
0	 4.733360000014534e+000	 4.666844975500012e-001	 1.051542476113944e+001
0	 4.733360000014532e+000	 5.333553781553801e-001	 1.048996464664070e+001
0	 4.733360000014533e+000	 6.000263254118247e-001	 1.047087811805610e+001
0	 4.733360000014533e+000	 6.666972226472175e-001	 1.045946539875400e+001
0	 4.800020000011600e+000	 0.000000000000000e+000	 1.065482424511322e+001
0	 4.800020000011600e+000	 6.666714722864754e-002	 1.063117683973204e+001
0	 4.800020000011600e+000	 1.333351778131789e-001	 1.060550229086891e+001
0	 4.800020000011601e+000	 2.000039750814773e-001	 1.057875502858457e+001
0	 4.800020000011600e+000	 2.666734223614256e-001	 1.055188951667317e+001
0	 4.800020000011599e+000	 3.333434029809069e-001	 1.052586025265875e+001
0	 4.800020000011599e+000	 4.000138002678044e-001	 1.050162176779266e+001
0	 4.800020000011598e+000	 4.666844975500011e-001	 1.048012862705180e+001
0	 4.800020000011600e+000	 5.333553781553803e-001	 1.046233542913786e+001
0	 4.800020000011601e+000	 6.000263254118248e-001	 1.044919680647730e+001
0	 4.800020000011599e+000	 6.666972226472175e-001	 1.044166742522238e+001
0	 4.866680000008066e+000	 0.000000000000000e+000	 1.056019603760339e+001
0	 4.866680000008066e+000	 6.666714722864757e-002	 1.054443243905672e+001
0	 4.866680000008066e+000	 1.333351778131789e-001	 1.052735229524944e+001
0	 4.866680000008068e+000	 2.000039750814772e-001	 1.050961136694094e+001
0	 4.866680000008066e+000	 2.666734223614256e-001	 1.049186543991708e+001
0	 4.866680000008066e+000	 3.333434029809069e-001	 1.047477032498795e+001
0	 4.866680000008067e+000	 4.000138002678044e-001	 1.045898185798611e+001
0	 4.866680000008067e+000	 4.666844975500011e-001	 1.044515589976552e+001
0	 4.866680000008067e+000	 5.333553781553804e-001	 1.043394833620125e+001
0	 4.866680000008066e+000	 6.000263254118248e-001	 1.042601507818972e+001
0	 4.866680000008067e+000	 6.666972226472177e-001	 1.042201206164960e+001
0	 4.933340000004134e+000	 0.000000000000000e+000	 1.047885436397582e+001
0	 4.933340000004134e+000	 6.666714722864756e-002	 1.046907587999446e+001
0	 4.933340000004133e+000	 1.333351778131789e-001	 1.045866842309069e+001
0	 4.933340000004134e+000	 2.000039750814772e-001	 1.044803589514613e+001
0	 4.933340000004133e+000	 2.666734223614255e-001	 1.043758221670806e+001
0	 4.933340000004133e+000	 3.333434029809070e-001	 1.042771132698779e+001
0	 4.933340000004135e+000	 4.000138002678044e-001	 1.041882718385956e+001
0	 4.933340000004133e+000	 4.666844975500011e-001	 1.041133376386012e+001
0	 4.933340000004133e+000	 5.333553781553801e-001	 1.040563506218848e+001
0	 4.933340000004133e+000	 6.000263254118248e-001	 1.040213509270645e+001
0	 4.933340000004133e+000	 6.666972226472175e-001	 1.040123788793945e+001
0	 5.000000000000000e+000	 0.000000000000000e+000	 1.041064152781503e+001
0	 5.000000000000004e+000	 6.666714722864757e-002	 1.040519231430999e+001
0	 5.000000000000001e+000	 1.333351778131789e-001	 1.039974462070113e+001
0	 5.000000000000000e+000	 2.000039750814773e-001	 1.039449730277649e+001
0	 4.999999999999999e+000	 2.666734223614255e-001	 1.038964923061705e+001
0	 5.000000000000001e+000	 3.333434029809069e-001	 1.038539928859571e+001
0	 5.000000000000000e+000	 4.000138002678044e-001	 1.038194637537665e+001
0	 4.999999999999999e+000	 4.666844975500013e-001	 1.037948940391502e+001
0	 5.000000000000001e+000	 5.333553781553803e-001	 1.037822730145706e+001
0	 5.000000000000000e+000	 6.000263254118246e-001	 1.037835900954055e+001
0	 5.000000000000000e+000	 6.666972226472174e-001	 1.038008348399562e+001
0	 5.066659999995866e+000	 0.000000000000000e+000	 1.035539983270527e+001
0	 5.066659999995868e+000	 6.666714722864757e-002	 1.035286689376776e+001
0	 5.066659999995868e+000	 1.333351778131789e-001	 1.035087483438909e+001
0	 5.066659999995868e+000	 2.000039750814773e-001	 1.034946427940816e+001
0	 5.066659999995867e+000	 2.666734223614256e-001	 1.034867586521481e+001
0	 5.066659999995866e+000	 3.333434029809069e-001	 1.034855023974909e+001
0	 5.066659999995865e+000	 4.000138002678043e-001	 1.034912806250085e+001
0	 5.066659999995866e+000	 4.666844975500011e-001	 1.035045000450953e+001
0	 5.066659999995867e+000	 5.333553781553803e-001	 1.035255674836442e+001
0	 5.066659999995867e+000	 6.000263254118248e-001	 1.035548898820499e+001
0	 5.066659999995867e+000	 6.666972226472177e-001	 1.035928742972181e+001
0	 5.133319999991933e+000	 0.000000000000000e+000	 1.031297158223059e+001
0	 5.133319999991933e+000	 6.666714722864756e-002	 1.031218477013203e+001
0	 5.133319999991935e+000	 1.333351778131790e-001	 1.031235301046266e+001
0	 5.133319999991933e+000	 2.000039750814772e-001	 1.031340551461707e+001
0	 5.133319999991934e+000	 2.666734223614256e-001	 1.031527150407191e+001
0	 5.133319999991934e+000	 3.333434029809070e-001	 1.031788021038509e+001
0	 5.133319999991934e+000	 4.000138002678043e-001	 1.032116087519549e+001
0	 5.133319999991934e+000	 4.666844975500011e-001	 1.032504275022284e+001
0	 5.133319999991934e+000	 5.333553781553804e-001	 1.032945509726785e+001
0	 5.133319999991932e+000	 6.000263254118248e-001	 1.033432718821270e+001
0	 5.133319999991933e+000	 6.666972226472177e-001	 1.033958830502162e+001
0	 5.199979999988399e+000	 0.000000000000000e+000	 1.028319907997478e+001
0	 5.199979999988400e+000	 6.666714722864757e-002	 1.028323109516684e+001
0	 5.199979999988400e+000	 1.333351778131789e-001	 1.028447309522967e+001
0	 5.199979999988401e+000	 2.000039750814773e-001	 1.028678969797899e+001
0	 5.199979999988401e+000	 2.666734223614257e-001	 1.029004553075879e+001
0	 5.199979999988399e+000	 3.333434029809069e-001	 1.029410523044075e+001
0	 5.199979999988399e+000	 4.000138002678045e-001	 1.029883344342380e+001
0	 5.199979999988399e+000	 4.666844975500011e-001	 1.030409482563401e+001
0	 5.199979999988400e+000	 5.333553781553801e-001	 1.030975404252464e+001
0	 5.199979999988400e+000	 6.000263254118249e-001	 1.031567576907651e+001
0	 5.199979999988399e+000	 6.666972226472175e-001	 1.032172468979862e+001
0	 5.266639999985466e+000	 0.000000000000000e+000	 1.026592462952141e+001
0	 5.266639999985467e+000	 6.666714722864756e-002	 1.026609102063597e+001
0	 5.266639999985463e+000	 1.333351778131789e-001	 1.026752903499783e+001
0	 5.266639999985465e+000	 2.000039750814773e-001	 1.027008551906944e+001
0	 5.266639999985465e+000	 2.666734223614255e-001	 1.027360732884565e+001
0	 5.266639999985465e+000	 3.333434029809068e-001	 1.027794132985294e+001
0	 5.266639999985464e+000	 4.000138002678043e-001	 1.028293439714888e+001
0	 5.266639999985465e+000	 4.666844975500011e-001	 1.028843341532204e+001
0	 5.266639999985465e+000	 5.333553781553801e-001	 1.029428527849192e+001
0	 5.266639999985466e+000	 6.000263254118247e-001	 1.030033689030921e+001
0	 5.266639999985466e+000	 6.666972226472175e-001	 1.030643516395634e+001
0	 5.333299999983335e+000	 0.000000000000000e+000	 1.026099053445381e+001
0	 5.333299999983336e+000	 6.666714722864757e-002	 1.026084969830299e+001
0	 5.333299999983333e+000	 1.333351778131789e-001	 1.026181477607453e+001
0	 5.333299999983335e+000	 2.000039750814773e-001	 1.026376166746380e+001
0	 5.333299999983335e+000	 2.666734223614255e-001	 1.026656628190258e+001
0	 5.333299999983334e+000	 3.333434029809068e-001	 1.027010453855835e+001
0	 5.333299999983334e+000	 4.000138002678044e-001	 1.027425236633365e+001
0	 5.333299999983335e+000	 4.666844975500012e-001	 1.027888570386578e+001
0	 5.333299999983333e+000	 5.333553781553803e-001	 1.028388049952675e+001
0	 5.333299999983334e+000	 6.000263254118247e-001	 1.028911271142349e+001
0	 5.333299999983335e+000	 6.666972226472175e-001	 1.029445830739826e+001
0	 4.666700000016666e+000	 6.666972226472177e-001	 1.047466740234065e+001
0	 4.666700000016666e+000	 7.333579753122047e-001	 1.046715698537364e+001
0	 4.666700000016666e+000	 8.000185779984419e-001	 1.046411610915946e+001
0	 4.666700000016665e+000	 8.666790473703454e-001	 1.046494609654612e+001
0	 4.666700000016666e+000	 9.333394000923324e-001	 1.046904827203771e+001
0	 4.666700000016665e+000	 9.999996528288191e-001	 1.047582396179452e+001
0	 4.666700000016666e+000	 1.066659822244222e+000	 1.048467449363316e+001
0	 4.666700000016667e+000	 1.133319925002959e+000	 1.049500119702657e+001
0	 4.666700000016665e+000	 1.199979977769445e+000	 1.050620540310413e+001
0	 4.666700000016666e+000	 1.266639997208098e+000	 1.051768844465175e+001
0	 4.666700000016666e+000	 1.333299999983334e+000	 1.052885165611189e+001
0	 4.733360000014533e+000	 6.666972226472175e-001	 1.045946539875400e+001
0	 4.733360000014534e+000	 7.333579753122049e-001	 1.045410093105278e+001
0	 4.733360000014533e+000	 8.000185779984421e-001	 1.045198767024356e+001
0	 4.733360000014535e+000	 8.666790473703455e-001	 1.045267185801098e+001
0	 4.733360000014534e+000	 9.333394000923324e-001	 1.045569973749311e+001
0	 4.733360000014534e+000	 9.999996528288193e-001	 1.046061755328151e+001
0	 4.733360000014534e+000	 1.066659822244223e+000	 1.046697155142134e+001
0	 4.733360000014534e+000	 1.133319925002959e+000	 1.047430797941142e+001
0	 4.733360000014533e+000	 1.199979977769446e+000	 1.048217308620431e+001
0	 4.733360000014534e+000	 1.266639997208098e+000	 1.049011312220629e+001
0	 4.733360000014533e+000	 1.333299999983334e+000	 1.049767433927750e+001
0	 4.800020000011599e+000	 6.666972226472175e-001	 1.044166742522238e+001
0	 4.800020000011600e+000	 7.333579753122048e-001	 1.043848472372787e+001
0	 4.800020000011601e+000	 8.000185779984418e-001	 1.043753108544337e+001
0	 4.800020000011601e+000	 8.666790473703455e-001	 1.043848060319298e+001
0	 4.800020000011598e+000	 9.333394000923322e-001	 1.044100737099411e+001
0	 4.800020000011600e+000	 9.999996528288191e-001	 1.044478548405760e+001
0	 4.800020000011600e+000	 1.066659822244222e+000	 1.044948903878776e+001
0	 4.800020000011601e+000	 1.133319925002959e+000	 1.045479213278239e+001
0	 4.800020000011601e+000	 1.199979977769446e+000	 1.046036886483289e+001
0	 4.800020000011601e+000	 1.266639997208098e+000	 1.046589333492428e+001
0	 4.800020000011599e+000	 1.333299999983334e+000	 1.047103964423523e+001
0	 4.866680000008067e+000	 6.666972226472177e-001	 1.042201206164960e+001
0	 4.866680000008067e+000	 7.333579753122048e-001	 1.042096120146477e+001
0	 4.866680000008067e+000	 8.000185779984419e-001	 1.042130314738510e+001
0	 4.866680000008066e+000	 8.666790473703454e-001	 1.042282277568333e+001
0	 4.866680000008067e+000	 9.333394000923325e-001	 1.042530496352348e+001
0	 4.866680000008067e+000	 9.999996528288193e-001	 1.042853458896086e+001
0	 4.866680000008066e+000	 1.066659822244222e+000	 1.043229653094218e+001
0	 4.866680000008066e+000	 1.133319925002959e+000	 1.043637566930555e+001
0	 4.866680000008068e+000	 1.199979977769446e+000	 1.044055688478056e+001
0	 4.866680000008067e+000	 1.266639997208098e+000	 1.044462505898828e+001
0	 4.866680000008067e+000	 1.333299999983334e+000	 1.044836507444135e+001
0	 4.933340000004133e+000	 6.666972226472175e-001	 1.040123788793945e+001
0	 4.933340000004135e+000	 7.333579753122048e-001	 1.040218320232929e+001
0	 4.933340000004133e+000	 8.000185779984418e-001	 1.040386064869493e+001
0	 4.933340000004134e+000	 8.666790473703453e-001	 1.040614881907330e+001
0	 4.933340000004133e+000	 9.333394000923323e-001	 1.040892630606399e+001
0	 4.933340000004134e+000	 9.999996528288190e-001	 1.041207170282931e+001
0	 4.933340000004134e+000	 1.066659822244223e+000	 1.041546360309435e+001
0	 4.933340000004134e+000	 1.133319925002959e+000	 1.041898060114700e+001
0	 4.933340000004133e+000	 1.199979977769445e+000	 1.042250129183798e+001
0	 4.933340000004134e+000	 1.266639997208098e+000	 1.042590427058087e+001
0	 4.933340000004134e+000	 1.333299999983334e+000	 1.042906813335219e+001
0	 5.000000000000000e+000	 6.666972226472174e-001	 1.038008348399562e+001
0	 5.000000000000001e+000	 7.333579753122048e-001	 1.038280356438721e+001
0	 5.000000000000002e+000	 8.000185779984419e-001	 1.038576038199904e+001
0	 5.000000000000002e+000	 8.666790473703456e-001	 1.038890917695410e+001
0	 5.000000000000002e+000	 9.333394000923323e-001	 1.039220518959840e+001
0	 5.000000000000000e+000	 9.999996528288192e-001	 1.039560366050099e+001
0	 5.000000000000000e+000	 1.066659822244222e+000	 1.039905983045405e+001
0	 5.000000000000001e+000	 1.133319925002959e+000	 1.040252894047284e+001
0	 5.000000000000000e+000	 1.199979977769445e+000	 1.040596623179582e+001
0	 5.000000000000001e+000	 1.266639997208098e+000	 1.040932694588461e+001
0	 5.000000000000001e+000	 1.333299999983334e+000	 1.041256632442403e+001
0	 5.066659999995867e+000	 6.666972226472177e-001	 1.035928742972181e+001
0	 5.066659999995867e+000	 7.333579753122047e-001	 1.036347512570426e+001
0	 5.066659999995867e+000	 8.000185779984420e-001	 1.036755913992355e+001
0	 5.066659999995867e+000	 8.666790473703457e-001	 1.037155429291694e+001
0	 5.066659999995866e+000	 9.333394000923322e-001	 1.037547540510947e+001
0	 5.066659999995865e+000	 9.999996528288191e-001	 1.037933729681395e+001
0	 5.066659999995865e+000	 1.066659822244222e+000	 1.038315478823103e+001
0	 5.066659999995867e+000	 1.133319925002959e+000	 1.038694269944920e+001
0	 5.066659999995866e+000	 1.199979977769445e+000	 1.039071585044479e+001
0	 5.066659999995866e+000	 1.266639997208098e+000	 1.039448906108209e+001
0	 5.066659999995866e+000	 1.333299999983334e+000	 1.039827715111322e+001
0	 5.133319999991933e+000	 6.666972226472177e-001	 1.033958830502162e+001
0	 5.133319999991933e+000	 7.333579753122048e-001	 1.034485072434616e+001
0	 5.133319999991932e+000	 8.000185779984419e-001	 1.034981371509459e+001
0	 5.133319999991932e+000	 8.666790473703454e-001	 1.035453461055304e+001
0	 5.133319999991933e+000	 9.333394000923324e-001	 1.035907074357997e+001
0	 5.133319999991934e+000	 9.999996528288192e-001	 1.036347944660623e+001
0	 5.133319999991932e+000	 1.066659822244223e+000	 1.036781805163509e+001
0	 5.133319999991934e+000	 1.133319925002959e+000	 1.037214389024217e+001
0	 5.133319999991934e+000	 1.199979977769446e+000	 1.037651429357559e+001
0	 5.133319999991933e+000	 1.266639997208098e+000	 1.038098659235589e+001
0	 5.133319999991933e+000	 1.333299999983334e+000	 1.038561811687608e+001
0	 5.199979999988399e+000	 6.666972226472175e-001	 1.032172468979862e+001
0	 5.199979999988399e+000	 7.333579753122046e-001	 1.032758319837859e+001
0	 5.199979999988400e+000	 8.000185779984420e-001	 1.033308090013828e+001
0	 5.199979999988399e+000	 8.666790473703453e-001	 1.033830057345358e+001
0	 5.199979999988400e+000	 9.333394000923322e-001	 1.034332499599265e+001
0	 5.199979999988399e+000	 9.999996528288190e-001	 1.034823694471589e+001
0	 5.199979999988400e+000	 1.066659822244222e+000	 1.035311919587599e+001
0	 5.199979999988399e+000	 1.133319925002959e+000	 1.035805452501791e+001
0	 5.199979999988400e+000	 1.199979977769445e+000	 1.036312570697893e+001
0	 5.199979999988399e+000	 1.266639997208098e+000	 1.036841551588864e+001
0	 5.199979999988399e+000	 1.333299999983334e+000	 1.037400672516897e+001
0	 5.266639999985466e+000	 6.666972226472175e-001	 1.030643516395634e+001
0	 5.266639999985465e+000	 7.333579753122048e-001	 1.031232538586719e+001
0	 5.266639999985467e+000	 8.000185779984419e-001	 1.031791748768067e+001
0	 5.266639999985464e+000	 8.666790473703454e-001	 1.032330262520974e+001
0	 5.266639999985464e+000	 9.333394000923322e-001	 1.032857195333026e+001
0	 5.266639999985465e+000	 9.999996528288192e-001	 1.033381662598097e+001
0	 5.266639999985465e+000	 1.066659822244222e+000	 1.033912779616354e+001
0	 5.266639999985465e+000	 1.133319925002959e+000	 1.034459661594257e+001
0	 5.266639999985466e+000	 1.199979977769445e+000	 1.035031423644554e+001
0	 5.266639999985465e+000	 1.266639997208098e+000	 1.035637180786295e+001
0	 5.266639999985466e+000	 1.333299999983334e+000	 1.036286047944824e+001
0	 5.333299999983335e+000	 6.666972226472175e-001	 1.029445830739826e+001
0	 5.333299999983333e+000	 7.333579753122048e-001	 1.029973012487756e+001
0	 5.333299999983335e+000	 8.000185779984421e-001	 1.030488027034783e+001
0	 5.333299999983334e+000	 8.666790473703455e-001	 1.030999120941269e+001
0	 5.333299999983336e+000	 9.333394000923325e-001	 1.031514540657554e+001
0	 5.333299999983335e+000	 9.999996528288192e-001	 1.032042532523952e+001
0	 5.333299999983332e+000	 1.066659822244222e+000	 1.032591342770753e+001
0	 5.333299999983334e+000	 1.133319925002959e+000	 1.033169217518225e+001
0	 5.333299999983334e+000	 1.199979977769445e+000	 1.033784402776615e+001
0	 5.333299999983334e+000	 1.266639997208098e+000	 1.034445144446147e+001
0	 5.333299999983335e+000	 1.333299999983334e+000	 1.035159688317028e+001
0	 4.666700000016666e+000	 1.333299999983334e+000	 1.052885165611189e+001
0	 4.666700000016665e+000	 1.399969999982150e+000	 1.053886197479489e+001
0	 4.666700000016667e+000	 1.466639999981866e+000	 1.054729908869453e+001
0	 4.666700000016666e+000	 1.533309999982383e+000	 1.055418832169086e+001
0	 4.666700000016666e+000	 1.599979999983600e+000	 1.055955499766390e+001
0	 4.666700000016667e+000	 1.666649999985417e+000	 1.056342444049365e+001
0	 4.666700000016665e+000	 1.733319999987733e+000	 1.056582197406009e+001
0	 4.666700000016666e+000	 1.799989999990450e+000	 1.056677292224322e+001
0	 4.666700000016665e+000	 1.866659999993467e+000	 1.056630260892296e+001
0	 4.666700000016666e+000	 1.933329999996684e+000	 1.056443635797928e+001
0	 4.666700000016666e+000	 2.000000000000000e+000	 1.056119949329209e+001
0	 4.733360000014533e+000	 1.333299999983334e+000	 1.049767433927750e+001
0	 4.733360000014534e+000	 1.399969999982150e+000	 1.050448175541325e+001
0	 4.733360000014532e+000	 1.466639999981867e+000	 1.051047405984352e+001
0	 4.733360000014533e+000	 1.533309999982383e+000	 1.051567126194718e+001
0	 4.733360000014534e+000	 1.599979999983600e+000	 1.052009337110308e+001
0	 4.733360000014533e+000	 1.666649999985416e+000	 1.052376039669007e+001
0	 4.733360000014534e+000	 1.733319999987733e+000	 1.052669234808701e+001
0	 4.733360000014532e+000	 1.799989999990450e+000	 1.052890923467271e+001
0	 4.733360000014533e+000	 1.866659999993467e+000	 1.053043106582602e+001
0	 4.733360000014533e+000	 1.933329999996684e+000	 1.053127785092573e+001
0	 4.733360000014533e+000	 2.000000000000000e+000	 1.053146959935066e+001
0	 4.800020000011599e+000	 1.333299999983334e+000	 1.047103964423523e+001
0	 4.800020000011600e+000	 1.399969999982150e+000	 1.047573818472373e+001
0	 4.800020000011600e+000	 1.466639999981866e+000	 1.048014574078696e+001
0	 4.800020000011601e+000	 1.533309999982383e+000	 1.048427818524414e+001
0	 4.800020000011599e+000	 1.599979999983600e+000	 1.048815139091451e+001
0	 4.800020000011600e+000	 1.666649999985417e+000	 1.049178123061730e+001
0	 4.800020000011600e+000	 1.733319999987733e+000	 1.049518357717174e+001
0	 4.800020000011600e+000	 1.799989999990450e+000	 1.049837430339703e+001
0	 4.800020000011601e+000	 1.866659999993467e+000	 1.050136928211242e+001
0	 4.800020000011600e+000	 1.933329999996684e+000	 1.050418438613709e+001
0	 4.800020000011601e+000	 2.000000000000000e+000	 1.050683548829028e+001
0	 4.866680000008067e+000	 1.333299999983334e+000	 1.044836507444135e+001
0	 4.866680000008064e+000	 1.399969999982150e+000	 1.045188182452715e+001
0	 4.866680000008068e+000	 1.466639999981866e+000	 1.045543117193870e+001
0	 4.866680000008067e+000	 1.533309999982383e+000	 1.045902603087710e+001
0	 4.866680000008066e+000	 1.599979999983599e+000	 1.046267931554352e+001
0	 4.866680000008065e+000	 1.666649999985416e+000	 1.046640394013909e+001
0	 4.866680000008067e+000	 1.733319999987733e+000	 1.047021281886495e+001
0	 4.866680000008065e+000	 1.799989999990450e+000	 1.047411886592224e+001
0	 4.866680000008066e+000	 1.866659999993466e+000	 1.047813499551207e+001
0	 4.866680000008064e+000	 1.933329999996683e+000	 1.048227412183561e+001
0	 4.866680000008067e+000	 2.000000000000000e+000	 1.048654915909396e+001
0	 4.933340000004134e+000	 1.333299999983334e+000	 1.042906813335219e+001
0	 4.933340000004133e+000	 1.399969999982150e+000	 1.043216323662437e+001
0	 4.933340000004134e+000	 1.466639999981866e+000	 1.043544739371259e+001
0	 4.933340000004134e+000	 1.533309999982383e+000	 1.043893173814143e+001
0	 4.933340000004135e+000	 1.599979999983600e+000	 1.044262740343545e+001
0	 4.933340000004134e+000	 1.666649999985417e+000	 1.044654552311923e+001
0	 4.933340000004133e+000	 1.733319999987733e+000	 1.045069723071734e+001
0	 4.933340000004135e+000	 1.799989999990450e+000	 1.045509365975439e+001
0	 4.933340000004133e+000	 1.866659999993467e+000	 1.045974594375491e+001
0	 4.933340000004134e+000	 1.933329999996684e+000	 1.046466521624352e+001
0	 4.933340000004133e+000	 2.000000000000000e+000	 1.046986261074479e+001
0	 5.000000000000001e+000	 1.333299999983334e+000	 1.041256632442404e+001
0	 5.000000000000001e+000	 1.399969999982150e+000	 1.041583298281624e+001
0	 5.000000000000001e+000	 1.466639999981867e+000	 1.041931144652256e+001
0	 5.000000000000000e+000	 1.533309999982383e+000	 1.042301224633251e+001
0	 5.000000000000000e+000	 1.599979999983600e+000	 1.042694591303565e+001
0	 5.000000000000001e+000	 1.666649999985416e+000	 1.043112297742152e+001
0	 5.000000000000000e+000	 1.733319999987733e+000	 1.043555397027965e+001
0	 5.000000000000002e+000	 1.799989999990450e+000	 1.044024942239958e+001
0	 5.000000000000001e+000	 1.866659999993466e+000	 1.044521986457090e+001
0	 5.000000000000002e+000	 1.933329999996684e+000	 1.045047582758310e+001
0	 5.000000000000001e+000	 2.000000000000000e+000	 1.045602784222578e+001
0	 5.066659999995866e+000	 1.333299999983334e+000	 1.039827715111322e+001
0	 5.066659999995864e+000	 1.399969999982150e+000	 1.040214162490364e+001
0	 5.066659999995867e+000	 1.466639999981866e+000	 1.040614037078248e+001
0	 5.066659999995866e+000	 1.533309999982383e+000	 1.041028449474574e+001
0	 5.066659999995868e+000	 1.599979999983600e+000	 1.041458510278950e+001
0	 5.066659999995866e+000	 1.666649999985417e+000	 1.041905330090976e+001
0	 5.066659999995869e+000	 1.733319999987733e+000	 1.042370019510257e+001
0	 5.066659999995867e+000	 1.799989999990450e+000	 1.042853689136396e+001
0	 5.066659999995866e+000	 1.866659999993467e+000	 1.043357449568997e+001
0	 5.066659999995868e+000	 1.933329999996684e+000	 1.043882411407665e+001
0	 5.066659999995867e+000	 2.000000000000000e+000	 1.044429685252003e+001
0	 5.133319999991933e+000	 1.333299999983334e+000	 1.038561811687608e+001
0	 5.133319999991933e+000	 1.399969999982150e+000	 1.039033972468746e+001
0	 5.133319999991934e+000	 1.466639999981867e+000	 1.039505120690627e+001
0	 5.133319999991933e+000	 1.533309999982383e+000	 1.039976542267655e+001
0	 5.133319999991933e+000	 1.599979999983599e+000	 1.040449523114238e+001
0	 5.133319999991934e+000	 1.666649999985417e+000	 1.040925349144780e+001
0	 5.133319999991933e+000	 1.733319999987733e+000	 1.041405306273686e+001
0	 5.133319999991932e+000	 1.799989999990450e+000	 1.041890680415362e+001
0	 5.133319999991931e+000	 1.866659999993466e+000	 1.042382757484213e+001
0	 5.133319999991931e+000	 1.933329999996683e+000	 1.042882823394645e+001
0	 5.133319999991933e+000	 2.000000000000000e+000	 1.043392164061063e+001
0	 5.199979999988399e+000	 1.333299999983334e+000	 1.037400672516897e+001
0	 5.199979999988399e+000	 1.399969999982150e+000	 1.037967784396859e+001
0	 5.199979999988400e+000	 1.466639999981867e+000	 1.038516099530785e+001
0	 5.199979999988399e+000	 1.533309999982383e+000	 1.039047196942035e+001
0	 5.199979999988400e+000	 1.599979999983600e+000	 1.039562655653969e+001
0	 5.199979999988400e+000	 1.666649999985417e+000	 1.040064054689947e+001
0	 5.199979999988400e+000	 1.733319999987733e+000	 1.040552973073328e+001
0	 5.199979999988399e+000	 1.799989999990450e+000	 1.041030989827470e+001
0	 5.199979999988400e+000	 1.866659999993467e+000	 1.041499683975735e+001
0	 5.199979999988400e+000	 1.933329999996684e+000	 1.041960634541482e+001
0	 5.199979999988400e+000	 2.000000000000000e+000	 1.042415420548067e+001
0	 5.266639999985466e+000	 1.333299999983334e+000	 1.036286047944824e+001
0	 5.266639999985466e+000	 1.399969999982150e+000	 1.036940654454795e+001
0	 5.266639999985465e+000	 1.466639999981866e+000	 1.037558677640118e+001
0	 5.266639999985465e+000	 1.533309999982383e+000	 1.038142107427260e+001
0	 5.266639999985466e+000	 1.599979999983600e+000	 1.038692933742686e+001
0	 5.266639999985465e+000	 1.666649999985416e+000	 1.039213146512864e+001
0	 5.266639999985467e+000	 1.733319999987734e+000	 1.039704735664260e+001
0	 5.266639999985466e+000	 1.799989999990450e+000	 1.040169691123338e+001
0	 5.266639999985466e+000	 1.866659999993467e+000	 1.040610002816566e+001
0	 5.266639999985466e+000	 1.933329999996684e+000	 1.041027660670406e+001
0	 5.266639999985465e+000	 2.000000000000000e+000	 1.041424654611327e+001
0	 5.333299999983335e+000	 1.333299999983334e+000	 1.035159688317029e+001
0	 5.333299999983334e+000	 1.399969999982150e+000	 1.035877638822647e+001
0	 5.333299999983335e+000	 1.466639999981867e+000	 1.036544559060021e+001
0	 5.333299999983333e+000	 1.533309999982383e+000	 1.037162967652874e+001
0	 5.333299999983334e+000	 1.599979999983600e+000	 1.037735383224931e+001
0	 5.333299999983332e+000	 1.666649999985416e+000	 1.038264324399919e+001
0	 5.333299999983334e+000	 1.733319999987733e+000	 1.038752309801561e+001
0	 5.333299999983334e+000	 1.799989999990450e+000	 1.039201858053582e+001
0	 5.333299999983333e+000	 1.866659999993467e+000	 1.039615487779705e+001
0	 5.333299999983336e+000	 1.933329999996684e+000	 1.039995717603655e+001
0	 5.333299999983333e+000	 2.000000000000000e+000	 1.040345066149154e+001
0	 4.666700000016666e+000	 2.000000000000000e+000	 1.056119949329209e+001
0	 4.666700000016665e+000	 2.066670000003317e+000	 1.055755778167228e+001
0	 4.666700000016666e+000	 2.133340000006534e+000	 1.055445321151132e+001
0	 4.666700000016666e+000	 2.200010000009551e+000	 1.055187543905996e+001
0	 4.666700000016667e+000	 2.266680000012268e+000	 1.054981412056899e+001
0	 4.666700000016666e+000	 2.333350000014584e+000	 1.054825891228916e+001
0	 4.666700000016665e+000	 2.400020000016401e+000	 1.054719947047124e+001
0	 4.666700000016666e+000	 2.466690000017617e+000	 1.054662545136600e+001
0	 4.666700000016665e+000	 2.533360000018134e+000	 1.054652651122422e+001
0	 4.666700000016666e+000	 2.600030000017851e+000	 1.054689230629666e+001
0	 4.666700000016665e+000	 2.666700000016666e+000	 1.054771249283410e+001
0	 4.733360000014533e+000	 2.000000000000000e+000	 1.053146959935066e+001
0	 4.733360000014531e+000	 2.066670000003317e+000	 1.053139157995645e+001
0	 4.733360000014532e+000	 2.133340000006534e+000	 1.053142330880581e+001
0	 4.733360000014532e+000	 2.200010000009550e+000	 1.053157616608818e+001
0	 4.733360000014534e+000	 2.266680000012268e+000	 1.053186153199296e+001
0	 4.733360000014534e+000	 2.333350000014585e+000	 1.053229078670956e+001
0	 4.733360000014534e+000	 2.400020000016402e+000	 1.053287531042739e+001
0	 4.733360000014532e+000	 2.466690000017617e+000	 1.053362648333589e+001
0	 4.733360000014534e+000	 2.533360000018134e+000	 1.053455568562442e+001
0	 4.733360000014534e+000	 2.600030000017850e+000	 1.053567429748245e+001
0	 4.733360000014534e+000	 2.666700000016666e+000	 1.053699369909932e+001
0	 4.800020000011601e+000	 2.000000000000000e+000	 1.050683548829028e+001
0	 4.800020000011598e+000	 2.066670000003316e+000	 1.050928982399360e+001
0	 4.800020000011599e+000	 2.133340000006534e+000	 1.051152355969736e+001
0	 4.800020000011600e+000	 2.200010000009551e+000	 1.051356596476377e+001
0	 4.800020000011600e+000	 2.266680000012266e+000	 1.051544630855502e+001
0	 4.800020000011601e+000	 2.333350000014586e+000	 1.051719386043330e+001
0	 4.800020000011599e+000	 2.400020000016400e+000	 1.051883788976078e+001
0	 4.800020000011600e+000	 2.466690000017618e+000	 1.052040766589964e+001
0	 4.800020000011600e+000	 2.533360000018134e+000	 1.052193245821208e+001
0	 4.800020000011601e+000	 2.600030000017851e+000	 1.052344153606025e+001
0	 4.800020000011600e+000	 2.666700000016666e+000	 1.052496416880632e+001
0	 4.866680000008067e+000	 2.000000000000000e+000	 1.048654915909396e+001
0	 4.866680000008067e+000	 2.066670000003316e+000	 1.049065009926912e+001
0	 4.866680000008066e+000	 2.133340000006534e+000	 1.049428720738836e+001
0	 4.866680000008065e+000	 2.200010000009550e+000	 1.049750380722077e+001
0	 4.866680000008068e+000	 2.266680000012267e+000	 1.050034322253547e+001
0	 4.866680000008066e+000	 2.333350000014585e+000	 1.050284877710155e+001
0	 4.866680000008066e+000	 2.400020000016401e+000	 1.050506379468808e+001
0	 4.866680000008068e+000	 2.466690000017619e+000	 1.050703159906417e+001
0	 4.866680000008066e+000	 2.533360000018135e+000	 1.050879551399887e+001
0	 4.866680000008065e+000	 2.600030000017850e+000	 1.051039886326127e+001
0	 4.866680000008067e+000	 2.666700000016666e+000	 1.051188497062041e+001
0	 4.933340000004133e+000	 2.000000000000000e+000	 1.046986261074479e+001
0	 4.933340000004133e+000	 2.066670000003317e+000	 1.047486999126841e+001
0	 4.933340000004134e+000	 2.133340000006534e+000	 1.047924749508116e+001
0	 4.933340000004133e+000	 2.200010000009550e+000	 1.048304866559316e+001
0	 4.933340000004133e+000	 2.266680000012267e+000	 1.048632704621456e+001
0	 4.933340000004135e+000	 2.333350000014585e+000	 1.048913618035549e+001
0	 4.933340000004133e+000	 2.400020000016400e+000	 1.049152961142606e+001
0	 4.933340000004133e+000	 2.466690000017617e+000	 1.049356088283638e+001
0	 4.933340000004134e+000	 2.533360000018134e+000	 1.049528353799657e+001
0	 4.933340000004135e+000	 2.600030000017851e+000	 1.049675112031670e+001
0	 4.933340000004133e+000	 2.666700000016666e+000	 1.049801717320691e+001
0	 5.000000000000001e+000	 2.000000000000000e+000	 1.045602784222578e+001
0	 5.000000000000002e+000	 2.066670000003317e+000	 1.046134708547686e+001
0	 5.000000000000003e+000	 2.133340000006534e+000	 1.046593766597816e+001
0	 5.000000000000001e+000	 2.200010000009550e+000	 1.046985951201496e+001
0	 5.000000000000000e+000	 2.266680000012267e+000	 1.047317255187259e+001
0	 5.000000000000000e+000	 2.333350000014584e+000	 1.047593671383632e+001
0	 5.000000000000002e+000	 2.400020000016401e+000	 1.047821192619143e+001
0	 4.999999999999999e+000	 2.466690000017617e+000	 1.048005811722321e+001
0	 4.999999999999999e+000	 2.533360000018134e+000	 1.048153521521690e+001
0	 4.999999999999998e+000	 2.600030000017850e+000	 1.048270314845779e+001
0	 5.000000000000000e+000	 2.666700000016666e+000	 1.048362184523111e+001
0	 5.066659999995867e+000	 2.000000000000000e+000	 1.044429685252003e+001
0	 5.066659999995866e+000	 2.066670000003317e+000	 1.044947896737991e+001
0	 5.066659999995868e+000	 2.133340000006534e+000	 1.045389096328177e+001
0	 5.066659999995868e+000	 2.200010000009551e+000	 1.045759531862021e+001
0	 5.066659999995867e+000	 2.266680000012268e+000	 1.046065451178983e+001
0	 5.066659999995865e+000	 2.333350000014584e+000	 1.046313102118521e+001
0	 5.066659999995867e+000	 2.400020000016401e+000	 1.046508732520092e+001
0	 5.066659999995865e+000	 2.466690000017617e+000	 1.046658590223154e+001
0	 5.066659999995868e+000	 2.533360000018134e+000	 1.046768923067162e+001
0	 5.066659999995867e+000	 2.600030000017850e+000	 1.046845978891570e+001
0	 5.066659999995868e+000	 2.666700000016667e+000	 1.046896005535835e+001
0	 5.133319999991933e+000	 2.000000000000000e+000	 1.043392164061063e+001
0	 5.133319999991933e+000	 2.066670000003317e+000	 1.043866322246296e+001
0	 5.133319999991933e+000	 2.133340000006534e+000	 1.044264063019438e+001
0	 5.133319999991935e+000	 2.200010000009551e+000	 1.044591505754292e+001
0	 5.133319999991934e+000	 2.266680000012268e+000	 1.044854769824658e+001
0	 5.133319999991934e+000	 2.333350000014585e+000	 1.045059974604336e+001
0	 5.133319999991935e+000	 2.400020000016401e+000	 1.045213239467127e+001
0	 5.133319999991932e+000	 2.466690000017617e+000	 1.045320683786832e+001
0	 5.133319999991933e+000	 2.533360000018134e+000	 1.045388426937245e+001
0	 5.133319999991932e+000	 2.600030000017851e+000	 1.045422588292166e+001
0	 5.133319999991932e+000	 2.666700000016667e+000	 1.045429287225392e+001
0	 5.199979999988400e+000	 2.000000000000000e+000	 1.042415420548067e+001
0	 5.199979999988399e+000	 2.066670000003317e+000	 1.042829743621148e+001
0	 5.199979999988399e+000	 2.133340000006534e+000	 1.043171990991843e+001
0	 5.199979999988400e+000	 2.200010000009551e+000	 1.043447770091713e+001
0	 5.199979999988399e+000	 2.266680000012267e+000	 1.043662688352312e+001
0	 5.199979999988400e+000	 2.333350000014585e+000	 1.043822353205197e+001
0	 5.199979999988399e+000	 2.400020000016401e+000	 1.043932372081923e+001
0	 5.199979999988400e+000	 2.466690000017618e+000	 1.043998352414045e+001
0	 5.199979999988399e+000	 2.533360000018133e+000	 1.044025901633116e+001
0	 5.199979999988399e+000	 2.600030000017851e+000	 1.044020627170688e+001
0	 5.199979999988400e+000	 2.666700000016666e+000	 1.043988136458315e+001
0	 5.266639999985465e+000	 2.000000000000000e+000	 1.041424654611327e+001
0	 5.266639999985466e+000	 2.066670000003317e+000	 1.041777919411090e+001
0	 5.266639999985464e+000	 2.133340000006534e+000	 1.042066204565636e+001
0	 5.266639999985465e+000	 2.200010000009550e+000	 1.042294222087691e+001
0	 5.266639999985467e+000	 2.266680000012268e+000	 1.042466683989979e+001
0	 5.266639999985466e+000	 2.333350000014584e+000	 1.042588302285225e+001
0	 5.266639999985465e+000	 2.400020000016400e+000	 1.042663788986154e+001
0	 5.266639999985465e+000	 2.466690000017616e+000	 1.042697856105487e+001
0	 5.266639999985467e+000	 2.533360000018135e+000	 1.042695215655946e+001
0	 5.266639999985467e+000	 2.600030000017851e+000	 1.042660579650256e+001
0	 5.266639999985467e+000	 2.666700000016667e+000	 1.042598660101134e+001
0	 5.333299999983333e+000	 2.000000000000000e+000	 1.040345066149154e+001
0	 5.333299999983334e+000	 2.066670000003317e+000	 1.040650608164669e+001
0	 5.333299999983334e+000	 2.133340000006534e+000	 1.040900028061059e+001
0	 5.333299999983336e+000	 2.200010000009551e+000	 1.041096758955630e+001
0	 5.333299999983335e+000	 2.266680000012267e+000	 1.041244233965689e+001
0	 5.333299999983334e+000	 2.333350000014584e+000	 1.041345886208541e+001
0	 5.333299999983335e+000	 2.400020000016401e+000	 1.041405148801493e+001
0	 5.333299999983333e+000	 2.466690000017617e+000	 1.041425454861849e+001
0	 5.333299999983333e+000	 2.533360000018134e+000	 1.041410237506913e+001
0	 5.333299999983334e+000	 2.600030000017851e+000	 1.041362929853989e+001
0	 5.333299999983334e+000	 2.666700000016666e+000	 1.041286965020379e+001
0	 4.666700000016665e+000	 2.666700000016666e+000	 1.054771249283410e+001
0	 4.666700000016666e+000	 2.733360000014533e+000	 1.054814684793205e+001
0	 4.666700000016665e+000	 2.800020000011599e+000	 1.054738711935186e+001
0	 4.666700000016666e+000	 2.866680000008067e+000	 1.054547044959618e+001
0	 4.666700000016667e+000	 2.933340000004133e+000	 1.054243398116763e+001
0	 4.666700000016666e+000	 3.000000000000001e+000	 1.053831485656891e+001
0	 4.666700000016667e+000	 3.066659999995868e+000	 1.053315021830273e+001
0	 4.666700000016667e+000	 3.133319999991934e+000	 1.052697720887180e+001
0	 4.666700000016666e+000	 3.199979999988401e+000	 1.051983297077890e+001
0	 4.666700000016667e+000	 3.266639999985468e+000	 1.051175464652681e+001
0	 4.666700000016666e+000	 3.333299999983334e+000	 1.050277937861835e+001
0	 4.733360000014534e+000	 2.666700000016666e+000	 1.053699369909932e+001
0	 4.733360000014534e+000	 2.733360000014534e+000	 1.053783128069174e+001
0	 4.733360000014532e+000	 2.800020000011599e+000	 1.053750769038354e+001
0	 4.733360000014534e+000	 2.866680000008067e+000	 1.053603855464142e+001
0	 4.733360000014535e+000	 2.933340000004133e+000	 1.053343949993211e+001
0	 4.733360000014534e+000	 3.000000000000001e+000	 1.052972615272240e+001
0	 4.733360000014534e+000	 3.066659999995868e+000	 1.052491413947908e+001
0	 4.733360000014535e+000	 3.133319999991935e+000	 1.051901908666898e+001
0	 4.733360000014533e+000	 3.199979999988401e+000	 1.051205662075894e+001
0	 4.733360000014534e+000	 3.266639999985468e+000	 1.050404236821588e+001
0	 4.733360000014534e+000	 3.333299999983334e+000	 1.049499195550668e+001
0	 4.800020000011600e+000	 2.666700000016666e+000	 1.052496416880632e+001
0	 4.800020000011601e+000	 2.733360000014533e+000	 1.052596485362145e+001
0	 4.800020000011600e+000	 2.800020000011599e+000	 1.052588743500971e+001
0	 4.800020000011601e+000	 2.866680000008067e+000	 1.052472951074233e+001
0	 4.800020000011599e+000	 2.933340000004134e+000	 1.052248867859055e+001
0	 4.800020000011600e+000	 3.000000000000001e+000	 1.051916253632570e+001
0	 4.800020000011599e+000	 3.066659999995867e+000	 1.051474868171906e+001
0	 4.800020000011600e+000	 3.133319999991934e+000	 1.050924471254196e+001
0	 4.800020000011601e+000	 3.199979999988401e+000	 1.050264822656581e+001
0	 4.800020000011599e+000	 3.266639999985467e+000	 1.049495682156199e+001
0	 4.800020000011601e+000	 3.333299999983334e+000	 1.048616809530194e+001
0	 4.866680000008067e+000	 2.666700000016666e+000	 1.051188497062041e+001
0	 4.866680000008067e+000	 2.733360000014533e+000	 1.051285384011782e+001
0	 4.866680000008067e+000	 2.800020000011600e+000	 1.051286573011635e+001
0	 4.866680000008066e+000	 2.866680000008066e+000	 1.051190369703223e+001
0	 4.866680000008066e+000	 2.933340000004133e+000	 1.050995079728162e+001
0	 4.866680000008068e+000	 3.000000000000001e+000	 1.050699008728076e+001
0	 4.866680000008066e+000	 3.066659999995867e+000	 1.050300462344591e+001
0	 4.866680000008067e+000	 3.133319999991935e+000	 1.049797746219334e+001
0	 4.866680000008067e+000	 3.199979999988401e+000	 1.049189165993936e+001
0	 4.866680000008066e+000	 3.266639999985469e+000	 1.048473027310033e+001
0	 4.866680000008066e+000	 3.333299999983333e+000	 1.047647635809261e+001
0	 4.933340000004133e+000	 2.666700000016666e+000	 1.049801717320691e+001
0	 4.933340000004136e+000	 2.733360000014534e+000	 1.049880451357750e+001
0	 4.933340000004133e+000	 2.800020000011600e+000	 1.049878195258951e+001
0	 4.933340000004133e+000	 2.866680000008067e+000	 1.049792149264449e+001
0	 4.933340000004133e+000	 2.933340000004134e+000	 1.049619513614398e+001
0	 4.933340000004136e+000	 3.000000000000001e+000	 1.049357488548960e+001
0	 4.933340000004133e+000	 3.066659999995868e+000	 1.049003274308296e+001
0	 4.933340000004133e+000	 3.133319999991933e+000	 1.048554071132571e+001
0	 4.933340000004132e+000	 3.199979999988401e+000	 1.048007079261951e+001
0	 4.933340000004135e+000	 3.266639999985467e+000	 1.047359498936606e+001
0	 4.933340000004134e+000	 3.333299999983334e+000	 1.046608530396710e+001
0	 5.000000000000000e+000	 2.666700000016666e+000	 1.048362184523111e+001
0	 5.000000000000000e+000	 2.733360000014533e+000	 1.048412314739717e+001
0	 4.999999999999999e+000	 2.800020000011599e+000	 1.048397547931516e+001
0	 5.000000000000002e+000	 2.866680000008066e+000	 1.048314327671241e+001
0	 5.000000000000001e+000	 2.933340000004133e+000	 1.048159097531630e+001
0	 4.999999999999999e+000	 3.000000000000000e+000	 1.047928301085419e+001
0	 5.000000000000002e+000	 3.066659999995868e+000	 1.047618381905350e+001
0	 5.000000000000001e+000	 3.133319999991935e+000	 1.047225783564166e+001
0	 5.000000000000001e+000	 3.199979999988401e+000	 1.046746949634611e+001
0	 5.000000000000001e+000	 3.266639999985468e+000	 1.046178323689436e+001
0	 4.999999999999999e+000	 3.333299999983335e+000	 1.045516349301387e+001
0	 5.066659999995868e+000	 2.666700000016667e+000	 1.046896005535836e+001
0	 5.066659999995868e+000	 2.733360000014534e+000	 1.046911601497350e+001
0	 5.066659999995869e+000	 2.800020000011599e+000	 1.046878568717933e+001
0	 5.066659999995866e+000	 2.866680000008066e+000	 1.046792942836938e+001
0	 5.066659999995868e+000	 2.933340000004134e+000	 1.046650759493725e+001
0	 5.066659999995867e+000	 3.000000000000000e+000	 1.046448054327651e+001
0	 5.066659999995867e+000	 3.066659999995867e+000	 1.046180862978082e+001
0	 5.066659999995868e+000	 3.133319999991934e+000	 1.045845221084378e+001
0	 5.066659999995867e+000	 3.199979999988401e+000	 1.045437164285908e+001
0	 5.066659999995868e+000	 3.266639999985468e+000	 1.044952728222039e+001
0	 5.066659999995867e+000	 3.333299999983334e+000	 1.044387948532140e+001
0	 5.133319999991932e+000	 2.666700000016667e+000	 1.045429287225392e+001
0	 5.133319999991934e+000	 2.733360000014533e+000	 1.045408938970314e+001
0	 5.133319999991933e+000	 2.800020000011600e+000	 1.045355195306799e+001
0	 5.133319999991932e+000	 2.866680000008067e+000	 1.045264032674871e+001
0	 5.133319999991933e+000	 2.933340000004133e+000	 1.045131427514548e+001
0	 5.133319999991934e+000	 3.000000000000000e+000	 1.044953356265857e+001
0	 5.133319999991934e+000	 3.066659999995868e+000	 1.044725795368820e+001
0	 5.133319999991933e+000	 3.133319999991933e+000	 1.044444721263469e+001
0	 5.133319999991932e+000	 3.199979999988400e+000	 1.044106110389829e+001
0	 5.133319999991935e+000	 3.266639999985469e+000	 1.043705939187933e+001
0	 5.133319999991933e+000	 3.333299999983333e+000	 1.043240184097814e+001
0	 5.199979999988400e+000	 2.666700000016666e+000	 1.043988136458315e+001
0	 5.199979999988400e+000	 2.733360000014534e+000	 1.043934954498276e+001
0	 5.199979999988400e+000	 2.800020000011600e+000	 1.043861365386719e+001
0	 5.199979999988397e+000	 2.866680000008066e+000	 1.043763635098374e+001
0	 5.199979999988400e+000	 2.933340000004134e+000	 1.043638029607968e+001
0	 5.199979999988400e+000	 3.000000000000000e+000	 1.043480814890231e+001
0	 5.199979999988400e+000	 3.066659999995868e+000	 1.043288256919897e+001
0	 5.199979999988400e+000	 3.133319999991934e+000	 1.043056621671696e+001
0	 5.199979999988398e+000	 3.199979999988401e+000	 1.042782175120365e+001
0	 5.199979999988399e+000	 3.266639999985467e+000	 1.042461183240639e+001
0	 5.199979999988399e+000	 3.333299999983334e+000	 1.042089912007254e+001
0	 5.266639999985467e+000	 2.666700000016667e+000	 1.042598660101134e+001
0	 5.266639999985464e+000	 2.733360000014533e+000	 1.042520275420899e+001
0	 5.266639999985467e+000	 2.800020000011599e+000	 1.042431016646289e+001
0	 5.266639999985467e+000	 2.866680000008066e+000	 1.042327788020780e+001
0	 5.266639999985465e+000	 2.933340000004133e+000	 1.042207493787849e+001
0	 5.266639999985465e+000	 3.000000000000000e+000	 1.042067038190976e+001
0	 5.266639999985464e+000	 3.066659999995868e+000	 1.041903325473639e+001
0	 5.266639999985467e+000	 3.133319999991934e+000	 1.041713259879321e+001
0	 5.266639999985467e+000	 3.199979999988402e+000	 1.041493745651504e+001
0	 5.266639999985466e+000	 3.266639999985468e+000	 1.041241687033672e+001
0	 5.266639999985465e+000	 3.333299999983332e+000	 1.040953988269308e+001
0	 5.333299999983334e+000	 2.666700000016666e+000	 1.041286965020379e+001
0	 5.333299999983334e+000	 2.733360000014532e+000	 1.041195529077852e+001
0	 5.333299999983335e+000	 2.800020000011600e+000	 1.041098086774111e+001
0	 5.333299999983334e+000	 2.866680000008067e+000	 1.040992529355424e+001
0	 5.333299999983334e+000	 2.933340000004133e+000	 1.040876748068059e+001
0	 5.333299999983334e+000	 3.000000000000000e+000	 1.040748634158287e+001
0	 5.333299999983335e+000	 3.066659999995868e+000	 1.040606078872378e+001
0	 5.333299999983334e+000	 3.133319999991934e+000	 1.040446973456603e+001
0	 5.333299999983336e+000	 3.199979999988401e+000	 1.040269209157237e+001
0	 5.333299999983335e+000	 3.266639999985468e+000	 1.040070677220551e+001
0	 5.333299999983332e+000	 3.333299999983333e+000	 1.039849268892822e+001
0	 4.666700000016666e+000	 3.333299999983334e+000	 1.050277937861835e+001
0	 4.666700000016665e+000	 3.399969999982149e+000	 1.049355973202917e+001
0	 4.666700000016665e+000	 3.466639999981867e+000	 1.048468626899003e+001
0	 4.666700000016665e+000	 3.533309999982382e+000	 1.047609889235139e+001
0	 4.666700000016666e+000	 3.599979999983599e+000	 1.046773750496373e+001
0	 4.666700000016666e+000	 3.666649999985415e+000	 1.045954200967749e+001
0	 4.666700000016667e+000	 3.733319999987732e+000	 1.045145230934315e+001
0	 4.666700000016665e+000	 3.799989999990447e+000	 1.044340830681115e+001
0	 4.666700000016666e+000	 3.866659999993465e+000	 1.043534990493195e+001
0	 4.666700000016665e+000	 3.933329999996681e+000	 1.042721700655600e+001
0	 4.666700000016666e+000	 4.000000000000000e+000	 1.041894951453375e+001
0	 4.733360000014534e+000	 3.333299999983334e+000	 1.049499195550668e+001
0	 4.733360000014533e+000	 3.399969999982150e+000	 1.048562879719097e+001
0	 4.733360000014532e+000	 3.466639999981867e+000	 1.047663785066675e+001
0	 4.733360000014532e+000	 3.533309999982382e+000	 1.046797275275038e+001
0	 4.733360000014534e+000	 3.599979999983599e+000	 1.045958714025823e+001
0	 4.733360000014534e+000	 3.666649999985415e+000	 1.045143465000661e+001
0	 4.733360000014533e+000	 3.733319999987731e+000	 1.044346891881194e+001
0	 4.733360000014532e+000	 3.799989999990448e+000	 1.043564358349052e+001
0	 4.733360000014532e+000	 3.866659999993463e+000	 1.042791228085874e+001
0	 4.733360000014533e+000	 3.933329999996681e+000	 1.042022864773291e+001
0	 4.733360000014533e+000	 4.000000000000000e+000	 1.041254632092940e+001
0	 4.800020000011601e+000	 3.333299999983334e+000	 1.048616809530194e+001
0	 4.800020000011601e+000	 3.399969999982150e+000	 1.047701617656506e+001
0	 4.800020000011601e+000	 3.466639999981866e+000	 1.046821670029879e+001
0	 4.800020000011599e+000	 3.533309999982382e+000	 1.045973532092213e+001
0	 4.800020000011600e+000	 3.599979999983599e+000	 1.045153769285400e+001
0	 4.800020000011601e+000	 3.666649999985415e+000	 1.044358947051338e+001
0	 4.800020000011600e+000	 3.733319999987731e+000	 1.043585630831918e+001
0	 4.800020000011600e+000	 3.799989999990449e+000	 1.042830386069034e+001
0	 4.800020000011601e+000	 3.866659999993465e+000	 1.042089778204581e+001
0	 4.800020000011600e+000	 3.933329999996681e+000	 1.041360372680453e+001
0	 4.800020000011601e+000	 4.000000000000000e+000	 1.040638734938545e+001
0	 4.866680000008066e+000	 3.333299999983333e+000	 1.047647635809261e+001
0	 4.866680000008066e+000	 3.399969999982150e+000	 1.046782533151750e+001
0	 4.866680000008067e+000	 3.466639999981866e+000	 1.045947051814985e+001
0	 4.866680000008068e+000	 3.533309999982383e+000	 1.045138787364789e+001
0	 4.866680000008067e+000	 3.599979999983599e+000	 1.044355335366987e+001
0	 4.866680000008066e+000	 3.666649999985416e+000	 1.043594291387398e+001
0	 4.866680000008067e+000	 3.733319999987733e+000	 1.042853250991845e+001
0	 4.866680000008067e+000	 3.799989999990448e+000	 1.042129809746153e+001
0	 4.866680000008065e+000	 3.866659999993464e+000	 1.041421563216144e+001
0	 4.866680000008067e+000	 3.933329999996682e+000	 1.040726106967638e+001
0	 4.866680000008066e+000	 4.000000000000001e+000	 1.040041036566456e+001
0	 4.933340000004134e+000	 3.333299999983334e+000	 1.046608530396709e+001
0	 4.933340000004133e+000	 3.399969999982150e+000	 1.045815972341442e+001
0	 4.933340000004133e+000	 3.466639999981866e+000	 1.045044700448362e+001
0	 4.933340000004133e+000	 3.533309999982382e+000	 1.044293168770892e+001
0	 4.933340000004134e+000	 3.599979999983598e+000	 1.043559831362453e+001
0	 4.933340000004133e+000	 3.666649999985415e+000	 1.042843142276463e+001
0	 4.933340000004132e+000	 3.733319999987731e+000	 1.042141555566340e+001
0	 4.933340000004136e+000	 3.799989999990449e+000	 1.041453525285509e+001
0	 4.933340000004133e+000	 3.866659999993465e+000	 1.040777505487388e+001
0	 4.933340000004135e+000	 3.933329999996682e+000	 1.040111950225395e+001
0	 4.933340000004134e+000	 4.000000000000001e+000	 1.039455313552952e+001
0	 4.999999999999999e+000	 3.333299999983335e+000	 1.045516349301387e+001
0	 5.000000000000000e+000	 3.399969999982150e+000	 1.044812281362190e+001
0	 5.000000000000001e+000	 3.466639999981866e+000	 1.044119385956381e+001
0	 5.000000000000000e+000	 3.533309999982383e+000	 1.043436803988647e+001
0	 5.000000000000002e+000	 3.599979999983599e+000	 1.042763676363674e+001
0	 5.000000000000001e+000	 3.666649999985415e+000	 1.042099143986150e+001
0	 5.000000000000000e+000	 3.733319999987731e+000	 1.041442347760763e+001
0	 5.000000000000000e+000	 3.799989999990447e+000	 1.040792428592198e+001
0	 5.000000000000000e+000	 3.866659999993464e+000	 1.040148527385141e+001
0	 5.000000000000002e+000	 3.933329999996682e+000	 1.039509785044279e+001
0	 5.000000000000000e+000	 4.000000000000000e+000	 1.038875342474298e+001
0	 5.066659999995867e+000	 3.333299999983334e+000	 1.044387948532140e+001
0	 5.066659999995866e+000	 3.399969999982150e+000	 1.043781806350606e+001
0	 5.066659999995866e+000	 3.466639999981866e+000	 1.043175878365411e+001
0	 5.066659999995866e+000	 3.533309999982383e+000	 1.042569820696178e+001
0	 5.066659999995866e+000	 3.599979999983598e+000	 1.041963289462528e+001
0	 5.066659999995866e+000	 3.666649999985415e+000	 1.041355940784086e+001
0	 5.066659999995866e+000	 3.733319999987732e+000	 1.040747430780473e+001
0	 5.066659999995868e+000	 3.799989999990448e+000	 1.040137415571313e+001
0	 5.066659999995868e+000	 3.866659999993465e+000	 1.039525551276229e+001
0	 5.066659999995867e+000	 3.933329999996681e+000	 1.038911494014839e+001
0	 5.066659999995867e+000	 4.000000000000001e+000	 1.038294899906769e+001
0	 5.133319999991933e+000	 3.333299999983333e+000	 1.043240184097813e+001
0	 5.133319999991933e+000	 3.399969999982150e+000	 1.042734893443301e+001
0	 5.133319999991932e+000	 3.466639999981866e+000	 1.042218947701825e+001
0	 5.133319999991934e+000	 3.533309999982382e+000	 1.041692346571611e+001
0	 5.133319999991933e+000	 3.599979999983599e+000	 1.041155089750890e+001
0	 5.133319999991933e+000	 3.666649999985415e+000	 1.040607176937889e+001
0	 5.133319999991933e+000	 3.733319999987732e+000	 1.040048607830835e+001
0	 5.133319999991932e+000	 3.799989999990448e+000	 1.039479382127956e+001
0	 5.133319999991933e+000	 3.866659999993465e+000	 1.038899499527479e+001
0	 5.133319999991932e+000	 3.933329999996682e+000	 1.038308959727630e+001
0	 5.133319999991933e+000	 4.000000000000001e+000	 1.037707762426636e+001
0	 5.199979999988399e+000	 3.333299999983334e+000	 1.042089912007254e+001
0	 5.199979999988399e+000	 3.399969999982150e+000	 1.041681888776886e+001
0	 5.199979999988400e+000	 3.466639999981866e+000	 1.041253363991993e+001
0	 5.199979999988400e+000	 3.533309999982382e+000	 1.040804509293074e+001
0	 5.199979999988398e+000	 3.599979999983598e+000	 1.040335496320637e+001
0	 5.199979999988400e+000	 3.666649999985415e+000	 1.039846496715181e+001
0	 5.199979999988399e+000	 3.733319999987732e+000	 1.039337682117207e+001
0	 5.199979999988400e+000	 3.799989999990449e+000	 1.038809224167219e+001
0	 5.199979999988399e+000	 3.866659999993465e+000	 1.038261294505717e+001
0	 5.199979999988400e+000	 3.933329999996682e+000	 1.037694064773202e+001
0	 5.199979999988399e+000	 4.000000000000001e+000	 1.037107706610171e+001
0	 5.266639999985465e+000	 3.333299999983332e+000	 1.040953988269308e+001
0	 5.266639999985465e+000	 3.399969999982149e+000	 1.040633138487971e+001
0	 5.266639999985467e+000	 3.466639999981867e+000	 1.040283897262284e+001
0	 5.266639999985466e+000	 3.533309999982383e+000	 1.039906436538692e+001
0	 5.266639999985465e+000	 3.599979999983598e+000	 1.039500928263644e+001
0	 5.266639999985467e+000	 3.666649999985415e+000	 1.039067544383583e+001
0	 5.266639999985465e+000	 3.733319999987732e+000	 1.038606456844953e+001
0	 5.266639999985465e+000	 3.799989999990448e+000	 1.038117837594202e+001
0	 5.266639999985467e+000	 3.866659999993465e+000	 1.037601858577771e+001
0	 5.266639999985466e+000	 3.933329999996682e+000	 1.037058691742105e+001
0	 5.266639999985466e+000	 4.000000000000000e+000	 1.036488509033647e+001
0	 5.333299999983332e+000	 3.333299999983333e+000	 1.039849268892822e+001
0	 5.333299999983333e+000	 3.399969999982150e+000	 1.039598988713168e+001
0	 5.333299999983334e+000	 3.466639999981866e+000	 1.039315317539072e+001
0	 5.333299999983334e+000	 3.533309999982382e+000	 1.038998255986592e+001
0	 5.333299999983333e+000	 3.599979999983599e+000	 1.038647804671789e+001
0	 5.333299999983334e+000	 3.666649999985415e+000	 1.038263964210717e+001
0	 5.333299999983334e+000	 3.733319999987732e+000	 1.037846735219436e+001
0	 5.333299999983334e+000	 3.799989999990448e+000	 1.037396118314000e+001
0	 5.333299999983333e+000	 3.866659999993464e+000	 1.036912114110469e+001
0	 5.333299999983335e+000	 3.933329999996682e+000	 1.036394723224894e+001
0	 5.333299999983334e+000	 4.000000000000000e+000	 1.035843946273333e+001
0	 4.666700000016666e+000	 4.000000000000000e+000	 1.041894951453375e+001
0	 4.666700000016666e+000	 4.066670000003317e+000	 1.041055821478275e+001
0	 4.666700000016666e+000	 4.133340000006533e+000	 1.040209891450143e+001
0	 4.666700000016666e+000	 4.200010000009550e+000	 1.039357904846148e+001
0	 4.666700000016666e+000	 4.266680000012266e+000	 1.038500605143463e+001
0	 4.666700000016666e+000	 4.333350000014583e+000	 1.037638735819258e+001
0	 4.666700000016666e+000	 4.400020000016400e+000	 1.036773040350705e+001
0	 4.666700000016666e+000	 4.466690000017616e+000	 1.035904262214973e+001
0	 4.666700000016665e+000	 4.533360000018131e+000	 1.035033144889233e+001
0	 4.666700000016666e+000	 4.600030000017849e+000	 1.034160431850655e+001
0	 4.666700000016666e+000	 4.666700000016666e+000	 1.033286866576410e+001
0	 4.733360000014533e+000	 4.000000000000000e+000	 1.041254632092940e+001
0	 4.733360000014532e+000	 4.066670000003317e+000	 1.040480157127264e+001
0	 4.733360000014532e+000	 4.133340000006534e+000	 1.039696370256389e+001
0	 4.733360000014533e+000	 4.200010000009550e+000	 1.038903590108482e+001
0	 4.733360000014533e+000	 4.266680000012268e+000	 1.038102135311707e+001
0	 4.733360000014534e+000	 4.333350000014583e+000	 1.037292324494233e+001
0	 4.733360000014534e+000	 4.400020000016401e+000	 1.036474476284221e+001
0	 4.733360000014532e+000	 4.466690000017617e+000	 1.035648909309837e+001
0	 4.733360000014533e+000	 4.533360000018132e+000	 1.034815942199245e+001
0	 4.733360000014534e+000	 4.600030000017850e+000	 1.033975893580611e+001
0	 4.733360000014533e+000	 4.666700000016665e+000	 1.033129082082097e+001
0	 4.800020000011601e+000	 4.000000000000000e+000	 1.040638734938545e+001
0	 4.800020000011599e+000	 4.066670000003316e+000	 1.039914619714147e+001
0	 4.800020000011599e+000	 4.133340000006532e+000	 1.039180032069332e+001
0	 4.800020000011599e+000	 4.200010000009550e+000	 1.038434912936151e+001
0	 4.800020000011599e+000	 4.266680000012266e+000	 1.037679203246656e+001
0	 4.800020000011599e+000	 4.333350000014584e+000	 1.036912843932905e+001
0	 4.800020000011600e+000	 4.400020000016400e+000	 1.036135775926948e+001
0	 4.800020000011601e+000	 4.466690000017618e+000	 1.035347940160840e+001
0	 4.800020000011600e+000	 4.533360000018133e+000	 1.034549277566632e+001
0	 4.800020000011599e+000	 4.600030000017847e+000	 1.033739729076378e+001
0	 4.800020000011601e+000	 4.666700000016666e+000	 1.032919235622131e+001
0	 4.866680000008066e+000	 4.000000000000001e+000	 1.040041036566456e+001
0	 4.866680000008066e+000	 4.066670000003319e+000	 1.039355223876302e+001
0	 4.866680000008067e+000	 4.133340000006534e+000	 1.038658883976215e+001
0	 4.866680000008066e+000	 4.200010000009550e+000	 1.037951627255031e+001
0	 4.866680000008066e+000	 4.266680000012268e+000	 1.037233064101588e+001
0	 4.866680000008066e+000	 4.333350000014584e+000	 1.036502804904722e+001
0	 4.866680000008066e+000	 4.400020000016399e+000	 1.035760460053270e+001
0	 4.866680000008069e+000	 4.466690000017617e+000	 1.035005639936066e+001
0	 4.866680000008066e+000	 4.533360000018132e+000	 1.034237954941949e+001
0	 4.866680000008064e+000	 4.600030000017848e+000	 1.033457015459752e+001
0	 4.866680000008068e+000	 4.666700000016666e+000	 1.032662431878311e+001
0	 4.933340000004134e+000	 4.000000000000001e+000	 1.039455313552951e+001
0	 4.933340000004135e+000	 4.066670000003317e+000	 1.038797984251098e+001
0	 4.933340000004132e+000	 4.133340000006533e+000	 1.038130933064275e+001
0	 4.933340000004135e+000	 4.200010000009551e+000	 1.037453486990997e+001
0	 4.933340000004133e+000	 4.266680000012266e+000	 1.036764973029778e+001
0	 4.933340000004135e+000	 4.333350000014583e+000	 1.036064718179130e+001
0	 4.933340000004132e+000	 4.400020000016398e+000	 1.035352049437568e+001
0	 4.933340000004133e+000	 4.466690000017616e+000	 1.034626293803606e+001
0	 4.933340000004133e+000	 4.533360000018131e+000	 1.033886778275754e+001
0	 4.933340000004134e+000	 4.600030000017849e+000	 1.033132829852527e+001
0	 4.933340000004134e+000	 4.666700000016666e+000	 1.032363775532436e+001
0	 5.000000000000000e+000	 4.000000000000000e+000	 1.038875342474298e+001
0	 5.000000000000002e+000	 4.066670000003318e+000	 1.038238915475908e+001
0	 5.000000000000000e+000	 4.133340000006532e+000	 1.037594186420757e+001
0	 5.000000000000003e+000	 4.200010000009552e+000	 1.036940246069927e+001
0	 5.000000000000001e+000	 4.266680000012268e+000	 1.036276185184505e+001
0	 5.000000000000000e+000	 4.333350000014582e+000	 1.035601094525578e+001
0	 5.000000000000001e+000	 4.400020000016400e+000	 1.034914064854229e+001
0	 5.000000000000001e+000	 4.466690000017617e+000	 1.034214186931542e+001
0	 5.000000000000001e+000	 4.533360000018133e+000	 1.033500551518603e+001
0	 5.000000000000000e+000	 4.600030000017847e+000	 1.032772249376498e+001
0	 5.000000000000000e+000	 4.666700000016665e+000	 1.032028371266306e+001
0	 5.066659999995867e+000	 4.000000000000001e+000	 1.038294899906769e+001
0	 5.066659999995866e+000	 4.066670000003317e+000	 1.037674032188106e+001
0	 5.066659999995867e+000	 4.133340000006535e+000	 1.037046651132898e+001
0	 5.066659999995866e+000	 4.200010000009550e+000	 1.036411658417695e+001
0	 5.066659999995864e+000	 4.266680000012265e+000	 1.035767955719049e+001
0	 5.066659999995867e+000	 4.333350000014584e+000	 1.035114444713511e+001
0	 5.066659999995867e+000	 4.400020000016402e+000	 1.034450027077633e+001
0	 5.066659999995867e+000	 4.466690000017617e+000	 1.033773604487964e+001
0	 5.066659999995866e+000	 4.533360000018133e+000	 1.033084078621057e+001
0	 5.066659999995868e+000	 4.600030000017850e+000	 1.032380351153459e+001
0	 5.066659999995865e+000	 4.666700000016665e+000	 1.031661323761722e+001
0	 5.133319999991933e+000	 4.000000000000001e+000	 1.037707762426636e+001
0	 5.133319999991933e+000	 4.066670000003317e+000	 1.037099349025064e+001
0	 5.133319999991933e+000	 4.133340000006533e+000	 1.036486334287942e+001
0	 5.133319999991931e+000	 4.200010000009550e+000	 1.035867477960177e+001
0	 5.133319999991934e+000	 4.266680000012267e+000	 1.035241539786686e+001
0	 5.133319999991932e+000	 4.333350000014583e+000	 1.034607279512377e+001
0	 5.133319999991934e+000	 4.400020000016401e+000	 1.033963456882165e+001
0	 5.133319999991933e+000	 4.466690000017616e+000	 1.033308831640958e+001
0	 5.133319999991932e+000	 4.533360000018132e+000	 1.032642163533668e+001
0	 5.133319999991933e+000	 4.600030000017848e+000	 1.031962212305204e+001
0	 5.133319999991935e+000	 4.666700000016667e+000	 1.031267737700479e+001
0	 5.199979999988399e+000	 4.000000000000001e+000	 1.037107706610171e+001
0	 5.199979999988399e+000	 4.066670000003317e+000	 1.036510880624155e+001
0	 5.199979999988400e+000	 4.133340000006533e+000	 1.035911242973127e+001
0	 5.199979999988399e+000	 4.200010000009550e+000	 1.035307458623250e+001
0	 5.199979999988400e+000	 4.266680000012267e+000	 1.034698192540694e+001
0	 5.199979999988400e+000	 4.333350000014583e+000	 1.034082109691624e+001
0	 5.199979999988400e+000	 4.400020000016400e+000	 1.033457875042207e+001
0	 5.199979999988400e+000	 4.466690000017617e+000	 1.032824153558609e+001
0	 5.199979999988399e+000	 4.533360000018131e+000	 1.032179610206994e+001
0	 5.199979999988400e+000	 4.600030000017849e+000	 1.031522909953528e+001
0	 5.199979999988398e+000	 4.666700000016666e+000	 1.030852717764378e+001
0	 5.266639999985466e+000	 4.000000000000000e+000	 1.036488509033647e+001
0	 5.266639999985466e+000	 4.066670000003318e+000	 1.035904641622752e+001
0	 5.266639999985466e+000	 4.133340000006534e+000	 1.035319384275694e+001
0	 5.266639999985465e+000	 4.200010000009550e+000	 1.034731354332789e+001
0	 5.266639999985465e+000	 4.266680000012268e+000	 1.034139169134351e+001
0	 5.266639999985466e+000	 4.333350000014583e+000	 1.033541446020698e+001
0	 5.266639999985467e+000	 4.400020000016400e+000	 1.032936802332143e+001
0	 5.266639999985465e+000	 4.466690000017616e+000	 1.032323855409003e+001
0	 5.266639999985467e+000	 4.533360000018132e+000	 1.031701222591592e+001
0	 5.266639999985465e+000	 4.600030000017848e+000	 1.031067521220224e+001
0	 5.266639999985466e+000	 4.666700000016667e+000	 1.030421368635216e+001
0	 5.333299999983334e+000	 4.000000000000000e+000	 1.035843946273333e+001
0	 5.333299999983333e+000	 4.066670000003317e+000	 1.035276646658225e+001
0	 5.333299999983335e+000	 4.133340000006533e+000	 1.034708765282884e+001
0	 5.333299999983334e+000	 4.200010000009550e+000	 1.034138919014666e+001
0	 5.333299999983334e+000	 4.266680000012267e+000	 1.033565724720933e+001
0	 5.333299999983333e+000	 4.333350000014582e+000	 1.032987799269043e+001
0	 5.333299999983334e+000	 4.400020000016400e+000	 1.032403759526354e+001
0	 5.333299999983333e+000	 4.466690000017616e+000	 1.031812222360228e+001
0	 5.333299999983333e+000	 4.533360000018132e+000	 1.031211804638019e+001
0	 5.333299999983334e+000	 4.600030000017849e+000	 1.030601123227087e+001
0	 5.333299999983335e+000	 4.666700000016667e+000	 1.029978794994791e+001
0	 4.666700000016666e+000	 4.666700000016666e+000	 1.033286866576410e+001
0	 4.666700000016665e+000	 4.733360000014534e+000	 1.032421788990829e+001
0	 4.666700000016665e+000	 4.800020000011599e+000	 1.031572531404181e+001
0	 4.666700000016665e+000	 4.866680000008066e+000	 1.030737219037502e+001
0	 4.666700000016667e+000	 4.933340000004134e+000	 1.029913977111830e+001
0	 4.666700000016666e+000	 5.000000000000000e+000	 1.029100930848201e+001
0	 4.666700000016665e+000	 5.066659999995865e+000	 1.028296205467649e+001
0	 4.666700000016666e+000	 5.133319999991933e+000	 1.027497926191211e+001
0	 4.666700000016666e+000	 5.199979999988398e+000	 1.026704218239920e+001
0	 4.666700000016666e+000	 5.266639999985467e+000	 1.025913206834817e+001
0	 4.666700000016667e+000	 5.333299999983335e+000	 1.025123017196931e+001
0	 4.733360000014533e+000	 4.666700000016665e+000	 1.033129082082097e+001
0	 4.733360000014534e+000	 4.733360000014534e+000	 1.032286879800268e+001
0	 4.733360000014533e+000	 4.800020000011600e+000	 1.031459021676968e+001
0	 4.733360000014535e+000	 4.866680000008068e+000	 1.030643753128190e+001
0	 4.733360000014535e+000	 4.933340000004136e+000	 1.029839319569926e+001
0	 4.733360000014534e+000	 5.000000000000000e+000	 1.029043966418166e+001
0	 4.733360000014535e+000	 5.066659999995868e+000	 1.028255939088903e+001
0	 4.733360000014535e+000	 5.133319999991935e+000	 1.027473482998128e+001
0	 4.733360000014533e+000	 5.199979999988399e+000	 1.026694843561833e+001
0	 4.733360000014534e+000	 5.266639999985465e+000	 1.025918266196009e+001
0	 4.733360000014534e+000	 5.333299999983335e+000	 1.025141996316648e+001
0	 4.800020000011601e+000	 4.666700000016666e+000	 1.032919235622131e+001
0	 4.800020000011601e+000	 4.733360000014534e+000	 1.032100450727717e+001
0	 4.800020000011601e+000	 4.800020000011601e+000	 1.031294728816361e+001
0	 4.800020000011601e+000	 4.866680000008066e+000	 1.030500433844167e+001
0	 4.800020000011599e+000	 4.933340000004132e+000	 1.029715929767237e+001
0	 4.800020000011600e+000	 5.000000000000001e+000	 1.028939580541669e+001
0	 4.800020000011601e+000	 5.066659999995867e+000	 1.028169750123566e+001
0	 4.800020000011601e+000	 5.133319999991933e+000	 1.027404802469029e+001
0	 4.800020000011601e+000	 5.199979999988400e+000	 1.026643101534157e+001
0	 4.800020000011601e+000	 5.266639999985465e+000	 1.025883011275053e+001
0	 4.800020000011601e+000	 5.333299999983336e+000	 1.025122895647820e+001
0	 4.866680000008068e+000	 4.666700000016666e+000	 1.032662431878312e+001
0	 4.866680000008068e+000	 4.733360000014535e+000	 1.031867494265110e+001
0	 4.866680000008066e+000	 4.800020000011600e+000	 1.031084499207356e+001
0	 4.866680000008066e+000	 4.866680000008067e+000	 1.030311927546414e+001
0	 4.866680000008066e+000	 4.933340000004132e+000	 1.029548260123650e+001
0	 4.866680000008067e+000	 5.000000000000000e+000	 1.028791977780425e+001
0	 4.866680000008066e+000	 5.066659999995865e+000	 1.028041561358106e+001
0	 4.866680000008067e+000	 5.133319999991933e+000	 1.027295491698055e+001
0	 4.866680000008066e+000	 5.199979999988399e+000	 1.026552249641638e+001
0	 4.866680000008067e+000	 5.266639999985466e+000	 1.025810316030218e+001
0	 4.866680000008065e+000	 5.333299999983334e+000	 1.025068171705161e+001
0	 4.933340000004134e+000	 4.666700000016666e+000	 1.032363775532436e+001
0	 4.933340000004136e+000	 4.733360000014534e+000	 1.031593002904382e+001
0	 4.933340000004132e+000	 4.800020000011599e+000	 1.030833179234944e+001
0	 4.933340000004134e+000	 4.866680000008067e+000	 1.030082900595906e+001
0	 4.933340000004134e+000	 4.933340000004133e+000	 1.029340763059046e+001
0	 4.933340000004136e+000	 5.000000000000003e+000	 1.028605362696147e+001
0	 4.933340000004135e+000	 5.066659999995868e+000	 1.027875295578989e+001
0	 4.933340000004134e+000	 5.133319999991933e+000	 1.027149157779352e+001
0	 4.933340000004132e+000	 5.199979999988400e+000	 1.026425545369019e+001
0	 4.933340000004134e+000	 5.266639999985466e+000	 1.025703054419768e+001
0	 4.933340000004134e+000	 5.333299999983335e+000	 1.024980281003384e+001
0	 5.000000000000000e+000	 4.666700000016665e+000	 1.032028371266307e+001
0	 5.000000000000001e+000	 4.733360000014534e+000	 1.031281969137469e+001
0	 5.000000000000001e+000	 4.800020000011601e+000	 1.030545615284121e+001
0	 5.000000000000002e+000	 4.866680000008067e+000	 1.029818019353619e+001
0	 5.000000000000001e+000	 4.933340000004135e+000	 1.029097890993310e+001
0	 4.999999999999999e+000	 4.999999999999999e+000	 1.028383939850548e+001
0	 5.000000000000001e+000	 5.066659999995866e+000	 1.027674875572680e+001
0	 5.000000000000001e+000	 5.133319999991935e+000	 1.026969407807061e+001
0	 5.000000000000001e+000	 5.199979999988400e+000	 1.026266246201042e+001
0	 5.000000000000002e+000	 5.266639999985465e+000	 1.025564100401973e+001
0	 5.000000000000000e+000	 5.333299999983333e+000	 1.024861680057206e+001
0	 5.066659999995865e+000	 4.666700000016665e+000	 1.031661323761722e+001
0	 5.066659999995867e+000	 4.733360000014534e+000	 1.030939385456305e+001
0	 5.066659999995868e+000	 4.800020000011600e+000	 1.030226653739883e+001
0	 5.066659999995867e+000	 4.866680000008067e+000	 1.029521950180531e+001
0	 5.066659999995867e+000	 4.933340000004134e+000	 1.028824096346324e+001
0	 5.066659999995866e+000	 5.000000000000000e+000	 1.028131913805339e+001
0	 5.066659999995867e+000	 5.066659999995867e+000	 1.027444224125648e+001
0	 5.066659999995867e+000	 5.133319999991932e+000	 1.026759848875327e+001
0	 5.066659999995867e+000	 5.199979999988399e+000	 1.026077609622452e+001
0	 5.066659999995867e+000	 5.266639999985464e+000	 1.025396327935097e+001
0	 5.066659999995866e+000	 5.333299999983334e+000	 1.024714825381337e+001
0	 5.133319999991935e+000	 4.666700000016667e+000	 1.031267737700479e+001
0	 5.133319999991933e+000	 4.733360000014533e+000	 1.030570244352825e+001
0	 5.133319999991932e+000	 4.800020000011600e+000	 1.029881140987221e+001
0	 5.133319999991933e+000	 4.866680000008067e+000	 1.029199359437619e+001
0	 5.133319999991933e+000	 4.933340000004135e+000	 1.028523831537974e+001
0	 5.133319999991934e+000	 5.000000000000000e+000	 1.027853489122236e+001
0	 5.133319999991933e+000	 5.066659999995867e+000	 1.027187264024357e+001
0	 5.133319999991933e+000	 5.133319999991933e+000	 1.026524088078291e+001
0	 5.133319999991933e+000	 5.199979999988399e+000	 1.025862893117990e+001
0	 5.133319999991933e+000	 5.266639999985465e+000	 1.025202610977407e+001
0	 5.133319999991933e+000	 5.333299999983335e+000	 1.024542173490495e+001
0	 5.199979999988398e+000	 4.666700000016666e+000	 1.030852717764378e+001
0	 5.199979999988399e+000	 4.733360000014532e+000	 1.030179538318963e+001
0	 5.199979999988400e+000	 4.800020000011599e+000	 1.029513923411131e+001
0	 5.199979999988399e+000	 4.866680000008066e+000	 1.028854913485862e+001
0	 5.199979999988400e+000	 4.933340000004133e+000	 1.028201548988141e+001
0	 5.199979999988400e+000	 5.000000000000000e+000	 1.027552870362950e+001
0	 5.199979999988400e+000	 5.066659999995866e+000	 1.026907918055273e+001
0	 5.199979999988400e+000	 5.133319999991933e+000	 1.026265732510097e+001
0	 5.199979999988398e+000	 5.199979999988399e+000	 1.025625354172400e+001
0	 5.199979999988397e+000	 5.266639999985464e+000	 1.024985823487171e+001
0	 5.199979999988400e+000	 5.333299999983334e+000	 1.024346180899391e+001
0	 5.266639999985466e+000	 4.666700000016667e+000	 1.030421368635216e+001
0	 5.266639999985465e+000	 4.733360000014534e+000	 1.029772259846655e+001
0	 5.266639999985467e+000	 4.800020000011601e+000	 1.029129847396605e+001
0	 5.266639999985467e+000	 4.866680000008067e+000	 1.028493278686231e+001
0	 5.266639999985465e+000	 4.933340000004131e+000	 1.027861701116706e+001
0	 5.266639999985465e+000	 5.000000000000000e+000	 1.027234262089193e+001
0	 5.266639999985465e+000	 5.066659999995868e+000	 1.026610109004863e+001
0	 5.266639999985467e+000	 5.133319999991935e+000	 1.025988389264885e+001
0	 5.266639999985466e+000	 5.199979999988399e+000	 1.025368250270427e+001
0	 5.266639999985467e+000	 5.266639999985467e+000	 1.024748839422654e+001
0	 5.266639999985464e+000	 5.333299999983333e+000	 1.024129304122740e+001
0	 5.333299999983335e+000	 4.666700000016667e+000	 1.029978794994791e+001
0	 5.333299999983334e+000	 4.733360000014534e+000	 1.029353401427832e+001
0	 5.333299999983334e+000	 4.800020000011600e+000	 1.028733759328637e+001
0	 5.333299999983335e+000	 4.866680000008067e+000	 1.028119121399706e+001
0	 5.333299999983336e+000	 4.933340000004135e+000	 1.027508740343554e+001
0	 5.333299999983333e+000	 5.000000000000000e+000	 1.026901868862679e+001
0	 5.333299999983333e+000	 5.066659999995866e+000	 1.026297759659592e+001
0	 5.333299999983335e+000	 5.133319999991934e+000	 1.025695665436800e+001
0	 5.333299999983334e+000	 5.199979999988399e+000	 1.025094838896808e+001
0	 5.333299999983334e+000	 5.266639999985465e+000	 1.024494532742124e+001
0	 5.333299999983332e+000	 5.333299999983334e+000	 1.023893999675254e+001
0	 4.666700000016667e+000	 5.333299999983335e+000	 1.025123017196931e+001
0	 4.666700000016665e+000	 5.399969999982150e+000	 1.024341740016285e+001
0	 4.666700000016666e+000	 5.466639999981867e+000	 1.023578875590824e+001
0	 4.666700000016665e+000	 5.533309999982381e+000	 1.022834307836260e+001
0	 4.666700000016665e+000	 5.599979999983599e+000	 1.022107920668296e+001
0	 4.666700000016666e+000	 5.666649999985414e+000	 1.021399598002643e+001
0	 4.666700000016666e+000	 5.733319999987731e+000	 1.020709223755007e+001
0	 4.666700000016666e+000	 5.799989999990449e+000	 1.020036681841099e+001
0	 4.666700000016666e+000	 5.866659999993465e+000	 1.019381856176621e+001
0	 4.666700000016665e+000	 5.933329999996681e+000	 1.018744630677286e+001
0	 4.666700000016665e+000	 5.999999999999999e+000	 1.018124889258802e+001
0	 4.733360000014534e+000	 5.333299999983335e+000	 1.025141996316648e+001
0	 4.733360000014534e+000	 5.399969999982151e+000	 1.024374058752740e+001
0	 4.733360000014534e+000	 5.466639999981867e+000	 1.023623792604835e+001
0	 4.733360000014532e+000	 5.533309999982381e+000	 1.022891065145864e+001
0	 4.733360000014534e+000	 5.599979999983599e+000	 1.022175743648763e+001
0	 4.733360000014534e+000	 5.666649999985415e+000	 1.021477695386458e+001
0	 4.733360000014533e+000	 5.733319999987730e+000	 1.020796787631884e+001
0	 4.733360000014532e+000	 5.799989999990450e+000	 1.020132887657972e+001
0	 4.733360000014533e+000	 5.866659999993464e+000	 1.019485862737658e+001
0	 4.733360000014534e+000	 5.933329999996682e+000	 1.018855580143867e+001
0	 4.733360000014532e+000	 5.999999999999999e+000	 1.018241907149540e+001
0	 4.800020000011601e+000	 5.333299999983336e+000	 1.025122895647820e+001
0	 4.800020000011600e+000	 5.399969999982150e+000	 1.024370490665126e+001
0	 4.800020000011600e+000	 5.466639999981865e+000	 1.023634749002663e+001
0	 4.800020000011600e+000	 5.533309999982383e+000	 1.022915517273689e+001
0	 4.800020000011598e+000	 5.599979999983598e+000	 1.022212642091459e+001
0	 4.800020000011599e+000	 5.666649999985416e+000	 1.021525970069229e+001
0	 4.800020000011601e+000	 5.733319999987732e+000	 1.020855347820252e+001
0	 4.800020000011600e+000	 5.799989999990449e+000	 1.020200621957786e+001
0	 4.800020000011600e+000	 5.866659999993465e+000	 1.019561639095087e+001
0	 4.800020000011600e+000	 5.933329999996681e+000	 1.018938245845412e+001
0	 4.800020000011599e+000	 6.000000000000002e+000	 1.018330288822015e+001
0	 4.866680000008065e+000	 5.333299999983334e+000	 1.025068171705160e+001
0	 4.866680000008067e+000	 5.399969999982150e+000	 1.024333088958530e+001
0	 4.866680000008067e+000	 5.466639999981867e+000	 1.023613456995041e+001
0	 4.866680000008068e+000	 5.533309999982383e+000	 1.022909097751373e+001
0	 4.866680000008066e+000	 5.599979999983598e+000	 1.022219833164199e+001
0	 4.866680000008066e+000	 5.666649999985414e+000	 1.021545485170206e+001
0	 4.866680000008068e+000	 5.733319999987731e+000	 1.020885875706068e+001
0	 4.866680000008067e+000	 5.799989999990450e+000	 1.020240826708467e+001
0	 4.866680000008066e+000	 5.866659999993464e+000	 1.019610160114080e+001
0	 4.866680000008066e+000	 5.933329999996682e+000	 1.018993697859588e+001
0	 4.866680000008067e+000	 6.000000000000001e+000	 1.018391261881670e+001
0	 4.933340000004134e+000	 5.333299999983335e+000	 1.024980281003384e+001
0	 4.933340000004133e+000	 5.399969999982148e+000	 1.024263906838043e+001
0	 4.933340000004133e+000	 5.466639999981866e+000	 1.023561628792698e+001
0	 4.933340000004133e+000	 5.533309999982381e+000	 1.022873240110546e+001
0	 4.933340000004132e+000	 5.599979999983598e+000	 1.022198534034795e+001
0	 4.933340000004133e+000	 5.666649999985415e+000	 1.021537303808642e+001
0	 4.933340000004132e+000	 5.733319999987731e+000	 1.020889342675293e+001
0	 4.933340000004135e+000	 5.799989999990449e+000	 1.020254443877946e+001
0	 4.933340000004133e+000	 5.866659999993465e+000	 1.019632400659804e+001
0	 4.933340000004134e+000	 5.933329999996682e+000	 1.019023006264069e+001
0	 4.933340000004134e+000	 5.999999999999999e+000	 1.018426053933946e+001
0	 5.000000000000000e+000	 5.333299999983333e+000	 1.024861680057205e+001
0	 5.000000000000000e+000	 5.399969999982149e+000	 1.024164997508755e+001
0	 5.000000000000000e+000	 5.466639999981865e+000	 1.023480976606364e+001
0	 4.999999999999999e+000	 5.533309999982382e+000	 1.022809377882856e+001
0	 5.000000000000002e+000	 5.599979999983600e+000	 1.022149961871057e+001
0	 5.000000000000001e+000	 5.666649999985415e+000	 1.021502489103789e+001
0	 5.000000000000000e+000	 5.733319999987733e+000	 1.020866720113878e+001
0	 4.999999999999999e+000	 5.799989999990447e+000	 1.020242415434147e+001
0	 5.000000000000001e+000	 5.866659999993464e+000	 1.019629335597422e+001
0	 5.000000000000002e+000	 5.933329999996682e+000	 1.019027241136524e+001
0	 5.000000000000001e+000	 6.000000000000001e+000	 1.018435892584283e+001
0	 5.066659999995866e+000	 5.333299999983334e+000	 1.024714825381337e+001
0	 5.066659999995866e+000	 5.399969999982149e+000	 1.024038414175753e+001
0	 5.066659999995866e+000	 5.466639999981865e+000	 1.023373212646771e+001
0	 5.066659999995866e+000	 5.533309999982381e+000	 1.022718944599937e+001
0	 5.066659999995867e+000	 5.599979999983598e+000	 1.022075333840797e+001
0	 5.066659999995867e+000	 5.666649999985416e+000	 1.021442104174898e+001
0	 5.066659999995866e+000	 5.733319999987732e+000	 1.020818979407784e+001
0	 5.066659999995867e+000	 5.799989999990449e+000	 1.020205683345003e+001
0	 5.066659999995867e+000	 5.866659999993464e+000	 1.019601939792102e+001
0	 5.066659999995867e+000	 5.933329999996681e+000	 1.019007472554625e+001
0	 5.066659999995866e+000	 5.999999999999999e+000	 1.018422005438120e+001
0	 5.133319999991933e+000	 5.333299999983335e+000	 1.024542173490495e+001
0	 5.133319999991934e+000	 5.399969999982151e+000	 1.023886210044126e+001
0	 5.133319999991932e+000	 5.466639999981865e+000	 1.023240049124650e+001
0	 5.133319999991934e+000	 5.533309999982383e+000	 1.022603373793427e+001
0	 5.133319999991933e+000	 5.599979999983598e+000	 1.021975867111825e+001
0	 5.133319999991933e+000	 5.666649999985416e+000	 1.021357212141216e+001
0	 5.133319999991933e+000	 5.733319999987731e+000	 1.020747091942967e+001
0	 5.133319999991933e+000	 5.799989999990448e+000	 1.020145189578440e+001
0	 5.133319999991932e+000	 5.866659999993463e+000	 1.019551188109009e+001
0	 5.133319999991931e+000	 5.933329999996680e+000	 1.018964770596040e+001
0	 5.133319999991933e+000	 6.000000000000000e+000	 1.018385620100898e+001
0	 5.199979999988400e+000	 5.333299999983334e+000	 1.024346180899391e+001
0	 5.199979999988399e+000	 5.399969999982148e+000	 1.023710438318968e+001
0	 5.199979999988400e+000	 5.466639999981865e+000	 1.023083198250727e+001
0	 5.199979999988400e+000	 5.533309999982381e+000	 1.022464098994959e+001
0	 5.199979999988400e+000	 5.599979999983599e+000	 1.021852778851953e+001
0	 5.199979999988400e+000	 5.666649999985415e+000	 1.021248876121997e+001
0	 5.199979999988400e+000	 5.733319999987731e+000	 1.020652029105379e+001
0	 5.199979999988399e+000	 5.799989999990448e+000	 1.020061876102388e+001
0	 5.199979999988400e+000	 5.866659999993464e+000	 1.019478055413311e+001
0	 5.199979999988400e+000	 5.933329999996682e+000	 1.018900205338439e+001
0	 5.199979999988400e+000	 6.000000000000001e+000	 1.018327964178057e+001
0	 5.266639999985464e+000	 5.333299999983333e+000	 1.024129304122740e+001
0	 5.266639999985466e+000	 5.399969999982151e+000	 1.023513152205359e+001
0	 5.266639999985467e+000	 5.466639999981865e+000	 1.022904372235736e+001
0	 5.266639999985466e+000	 5.533309999982383e+000	 1.022302553736176e+001
0	 5.266639999985466e+000	 5.599979999983598e+000	 1.021707286228993e+001
0	 5.266639999985466e+000	 5.666649999985415e+000	 1.021118159236491e+001
0	 5.266639999985465e+000	 5.733319999987732e+000	 1.020534762280981e+001
0	 5.266639999985466e+000	 5.799989999990449e+000	 1.019956684884772e+001
0	 5.266639999985466e+000	 5.866659999993466e+000	 1.019383516570173e+001
0	 5.266639999985465e+000	 5.933329999996682e+000	 1.018814846859492e+001
0	 5.266639999985465e+000	 5.999999999999999e+000	 1.018250265275040e+001
0	 5.333299999983332e+000	 5.333299999983334e+000	 1.023893999675254e+001
0	 5.333299999983333e+000	 5.399969999982149e+000	 1.023296404908394e+001
0	 5.333299999983335e+000	 5.466639999981867e+000	 1.022705283290405e+001
0	 5.333299999983333e+000	 5.533309999982382e+000	 1.022120171548715e+001
0	 5.333299999983334e+000	 5.599979999983598e+000	 1.021540606410754e+001
0	 5.333299999983335e+000	 5.666649999985415e+000	 1.020966124603946e+001
0	 5.333299999983335e+000	 5.733319999987732e+000	 1.020396262855726e+001
0	 5.333299999983334e+000	 5.799989999990448e+000	 1.019830557893520e+001
0	 5.333299999983334e+000	 5.866659999993463e+000	 1.019268546444758e+001
0	 5.333299999983334e+000	 5.933329999996682e+000	 1.018709765236870e+001
0	 5.333299999983333e+000	 6.000000000000000e+000	 1.018153750997282e+001
0	 4.666700000016665e+000	 5.999999999999999e+000	 1.018124889258802e+001
0	 4.666700000016665e+000	 6.066670000003318e+000	 1.017519974662000e+001
0	 4.666700000016667e+000	 6.133340000006533e+000	 1.016927129222133e+001
0	 4.666700000016667e+000	 6.200010000009550e+000	 1.016346086246529e+001
0	 4.666700000016666e+000	 6.266680000012266e+000	 1.015776579042522e+001
0	 4.666700000016666e+000	 6.333350000014583e+000	 1.015218340917441e+001
0	 4.666700000016667e+000	 6.400020000016400e+000	 1.014671105178622e+001
0	 4.666700000016666e+000	 6.466690000017615e+000	 1.014134605133393e+001
0	 4.666700000016666e+000	 6.533360000018132e+000	 1.013608574089087e+001
0	 4.666700000016667e+000	 6.600030000017849e+000	 1.013092745353037e+001
0	 4.666700000016666e+000	 6.666700000016667e+000	 1.012586852232576e+001
0	 4.733360000014532e+000	 5.999999999999999e+000	 1.018241907149540e+001
0	 4.733360000014531e+000	 6.066670000003317e+000	 1.017642338970091e+001
0	 4.733360000014534e+000	 6.133340000006534e+000	 1.017054262458223e+001
0	 4.733360000014531e+000	 6.200010000009549e+000	 1.016477382342784e+001
0	 4.733360000014533e+000	 6.266680000012268e+000	 1.015911403352630e+001
0	 4.733360000014534e+000	 6.333350000014583e+000	 1.015356030216609e+001
0	 4.733360000014534e+000	 6.400020000016399e+000	 1.014810967663579e+001
0	 4.733360000014533e+000	 6.466690000017617e+000	 1.014275920422385e+001
0	 4.733360000014534e+000	 6.533360000018131e+000	 1.013750593221883e+001
0	 4.733360000014534e+000	 6.600030000017849e+000	 1.013234690790924e+001
0	 4.733360000014533e+000	 6.666700000016668e+000	 1.012727917858362e+001
0	 4.800020000011599e+000	 6.000000000000002e+000	 1.018330288822015e+001
0	 4.800020000011600e+000	 6.066670000003317e+000	 1.017735655663593e+001
0	 4.800020000011599e+000	 6.133340000006534e+000	 1.017152123442190e+001
0	 4.800020000011599e+000	 6.200010000009550e+000	 1.016579372921094e+001
0	 4.800020000011600e+000	 6.266680000012267e+000	 1.016017084863588e+001
0	 4.800020000011599e+000	 6.333350000014581e+000	 1.015464940032955e+001
0	 4.800020000011600e+000	 6.400020000016399e+000	 1.014922619192485e+001
0	 4.800020000011600e+000	 6.466690000017617e+000	 1.014389803105459e+001
0	 4.800020000011601e+000	 6.533360000018134e+000	 1.013866172535166e+001
0	 4.800020000011599e+000	 6.600030000017846e+000	 1.013351408244890e+001
0	 4.800020000011601e+000	 6.666700000016667e+000	 1.012845190997915e+001
0	 4.866680000008067e+000	 6.000000000000001e+000	 1.018391261881670e+001
0	 4.866680000008067e+000	 6.066670000003318e+000	 1.017801321970774e+001
0	 4.866680000008066e+000	 6.133340000006531e+000	 1.017222240899976e+001
0	 4.866680000008066e+000	 6.200010000009550e+000	 1.016653680079911e+001
0	 4.866680000008065e+000	 6.266680000012267e+000	 1.016095300921206e+001
0	 4.866680000008068e+000	 6.333350000014584e+000	 1.015546764834497e+001
0	 4.866680000008067e+000	 6.400020000016401e+000	 1.015007733230413e+001
0	 4.866680000008067e+000	 6.466690000017618e+000	 1.014477867519586e+001
0	 4.866680000008066e+000	 6.533360000018133e+000	 1.013956829112648e+001
0	 4.866680000008066e+000	 6.600030000017847e+000	 1.013444279420231e+001
0	 4.866680000008066e+000	 6.666700000016667e+000	 1.012939879852968e+001
0	 4.933340000004134e+000	 5.999999999999999e+000	 1.018426053933946e+001
0	 4.933340000004136e+000	 6.066670000003319e+000	 1.017840735119897e+001
0	 4.933340000004134e+000	 6.133340000006531e+000	 1.017266143557514e+001
0	 4.933340000004135e+000	 6.200010000009551e+000	 1.016701925917685e+001
0	 4.933340000004133e+000	 6.266680000012266e+000	 1.016147728871303e+001
0	 4.933340000004135e+000	 6.333350000014585e+000	 1.015603199089255e+001
0	 4.933340000004133e+000	 6.400020000016399e+000	 1.015067983242436e+001
0	 4.933340000004135e+000	 6.466690000017617e+000	 1.014541728001734e+001
0	 4.933340000004135e+000	 6.533360000018133e+000	 1.014024080038042e+001
0	 4.933340000004134e+000	 6.600030000017846e+000	 1.013514686022251e+001
0	 4.933340000004134e+000	 6.666700000016666e+000	 1.013013192625252e+001
0	 5.000000000000001e+000	 6.000000000000001e+000	 1.018435892584283e+001
0	 5.000000000000003e+000	 6.066670000003318e+000	 1.017855292339234e+001
0	 5.000000000000001e+000	 6.133340000006531e+000	 1.017285360140743e+001
0	 5.000000000000002e+000	 6.200010000009550e+000	 1.016725732532874e+001
0	 4.999999999999999e+000	 6.266680000012266e+000	 1.016176046059692e+001
0	 5.000000000000001e+000	 6.333350000014583e+000	 1.015635937265253e+001
0	 5.000000000000000e+000	 6.400020000016399e+000	 1.015105042693628e+001
0	 5.000000000000000e+000	 6.466690000017615e+000	 1.014582998888874e+001
0	 5.000000000000001e+000	 6.533360000018132e+000	 1.014069442395059e+001
0	 5.000000000000000e+000	 6.600030000017849e+000	 1.013564009756247e+001
0	 5.000000000000000e+000	 6.666700000016666e+000	 1.013066337516498e+001
0	 5.066659999995866e+000	 5.999999999999999e+000	 1.018422005438120e+001
0	 5.066659999995866e+000	 6.066670000003316e+000	 1.017846390857047e+001
0	 5.066659999995866e+000	 6.133340000006533e+000	 1.017281419375601e+001
0	 5.066659999995867e+000	 6.200010000009549e+000	 1.016726722023931e+001
0	 5.066659999995865e+000	 6.266680000012267e+000	 1.016181929832185e+001
0	 5.066659999995868e+000	 6.333350000014584e+000	 1.015646673830512e+001
0	 5.066659999995868e+000	 6.400020000016398e+000	 1.015120585049059e+001
0	 5.066659999995867e+000	 6.466690000017616e+000	 1.014603294517977e+001
0	 5.066659999995867e+000	 6.533360000018131e+000	 1.014094433267413e+001
0	 5.066659999995867e+000	 6.600030000017848e+000	 1.013593632327517e+001
0	 5.066659999995865e+000	 6.666700000016666e+000	 1.013100522728437e+001
0	 5.133319999991933e+000	 6.000000000000000e+000	 1.018385620100898e+001
0	 5.133319999991933e+000	 6.066670000003318e+000	 1.017815427901603e+001
0	 5.133319999991935e+000	 6.133340000006536e+000	 1.017255849988025e+001
0	 5.133319999991932e+000	 6.200010000009548e+000	 1.016706516489309e+001
0	 5.133319999991934e+000	 6.266680000012266e+000	 1.016167057534603e+001
0	 5.133319999991932e+000	 6.333350000014583e+000	 1.015637103253051e+001
0	 5.133319999991933e+000	 6.400020000016398e+000	 1.015116283773805e+001
0	 5.133319999991933e+000	 6.466690000017614e+000	 1.014604229226011e+001
0	 5.133319999991933e+000	 6.533360000018132e+000	 1.014100569738813e+001
0	 5.133319999991934e+000	 6.600030000017849e+000	 1.013604935441362e+001
0	 5.133319999991934e+000	 6.666700000016666e+000	 1.013116956462805e+001
0	 5.199979999988400e+000	 6.000000000000001e+000	 1.018327964178057e+001
0	 5.199979999988400e+000	 6.066670000003317e+000	 1.017763800701169e+001
0	 5.199979999988400e+000	 6.133340000006534e+000	 1.017210180703951e+001
0	 5.199979999988400e+000	 6.200010000009551e+000	 1.016666738027461e+001
0	 5.199979999988400e+000	 6.266680000012266e+000	 1.016133106512754e+001
0	 5.199979999988398e+000	 6.333350000014580e+000	 1.015608920000894e+001
0	 5.199979999988400e+000	 6.400020000016400e+000	 1.015093812332938e+001
0	 5.199979999988400e+000	 6.466690000017615e+000	 1.014587417349944e+001
0	 5.199979999988398e+000	 6.533360000018131e+000	 1.014089368892973e+001
0	 5.199979999988399e+000	 6.600030000017847e+000	 1.013599300803079e+001
0	 5.199979999988400e+000	 6.666700000016666e+000	 1.013116846921328e+001
0	 5.266639999985465e+000	 5.999999999999999e+000	 1.018250265275040e+001
0	 5.266639999985466e+000	 6.066670000003317e+000	 1.017692906484010e+001
0	 5.266639999985466e+000	 6.133340000006534e+000	 1.017145940249315e+001
0	 5.266639999985464e+000	 6.200010000009550e+000	 1.016609008736835e+001
0	 5.266639999985466e+000	 6.266680000012268e+000	 1.016081754112454e+001
0	 5.266639999985466e+000	 6.333350000014582e+000	 1.015563818542059e+001
0	 5.266639999985465e+000	 6.400020000016400e+000	 1.015054844191528e+001
0	 5.266639999985467e+000	 6.466690000017617e+000	 1.014554473226746e+001
0	 5.266639999985466e+000	 6.533360000018134e+000	 1.014062347813599e+001
0	 5.266639999985464e+000	 6.600030000017847e+000	 1.013578110117967e+001
0	 5.266639999985466e+000	 6.666700000016666e+000	 1.013101402305737e+001
0	 5.333299999983333e+000	 6.000000000000000e+000	 1.018153750997282e+001
0	 5.333299999983334e+000	 6.066670000003316e+000	 1.017604142478391e+001
0	 5.333299999983333e+000	 6.133340000006530e+000	 1.017064657350053e+001
0	 5.333299999983333e+000	 6.200010000009549e+000	 1.016534950715889e+001
0	 5.333299999983334e+000	 6.266680000012265e+000	 1.016014677679521e+001
0	 5.333299999983332e+000	 6.333350000014582e+000	 1.015503493344565e+001
0	 5.333299999983334e+000	 6.400020000016399e+000	 1.015001052814649e+001
0	 5.333299999983334e+000	 6.466690000017615e+000	 1.014507011193389e+001
0	 5.333299999983332e+000	 6.533360000018132e+000	 1.014021023584408e+001
0	 5.333299999983334e+000	 6.600030000017847e+000	 1.013542745091326e+001
0	 5.333299999983333e+000	 6.666700000016665e+000	 1.013071830817766e+001
0	 4.666700000016666e+000	 6.666700000016667e+000	 1.012586852232576e+001
0	 4.666700000016666e+000	 6.733360000014533e+000	 1.012092247199014e+001
0	 4.666700000016665e+000	 6.800020000011598e+000	 1.011610265670199e+001
0	 4.666700000016666e+000	 6.866680000008067e+000	 1.011140840818397e+001
0	 4.666700000016666e+000	 6.933340000004134e+000	 1.010683905815874e+001
0	 4.666700000016666e+000	 7.000000000000002e+000	 1.010239393834896e+001
0	 4.666700000016666e+000	 7.066659999995869e+000	 1.009807238047727e+001
0	 4.666700000016665e+000	 7.133319999991937e+000	 1.009387371626630e+001
0	 4.666700000016665e+000	 7.199979999988401e+000	 1.008979727743868e+001
0	 4.666700000016666e+000	 7.266639999985471e+000	 1.008584239571709e+001
0	 4.666700000016666e+000	 7.333299999983335e+000	 1.008200840282410e+001
0	 4.733360000014533e+000	 6.666700000016668e+000	 1.012727917858362e+001
0	 4.733360000014534e+000	 6.733360000014532e+000	 1.012231941950109e+001
0	 4.733360000014533e+000	 6.800020000011597e+000	 1.011748427685506e+001
0	 4.733360000014535e+000	 6.866680000008068e+000	 1.011277301460219e+001
0	 4.733360000014534e+000	 6.933340000004136e+000	 1.010818489669915e+001
0	 4.733360000014535e+000	 7.000000000000002e+000	 1.010371918710260e+001
0	 4.733360000014534e+000	 7.066659999995871e+000	 1.009937514976920e+001
0	 4.733360000014535e+000	 7.133319999991938e+000	 1.009515204865559e+001
0	 4.733360000014532e+000	 7.199979999988402e+000	 1.009104914771844e+001
0	 4.733360000014534e+000	 7.266639999985473e+000	 1.008706571091437e+001
0	 4.733360000014534e+000	 7.333299999983334e+000	 1.008320100220005e+001
0	 4.800020000011601e+000	 6.666700000016667e+000	 1.012845190997915e+001
0	 4.800020000011602e+000	 6.733360000014533e+000	 1.012349333776994e+001
0	 4.800020000011600e+000	 6.800020000011601e+000	 1.011865657571007e+001
0	 4.800020000011601e+000	 6.866680000008068e+000	 1.011394081063692e+001
0	 4.800020000011600e+000	 6.933340000004136e+000	 1.010934522938794e+001
0	 4.800020000011600e+000	 7.000000000000004e+000	 1.010486901880057e+001
0	 4.800020000011600e+000	 7.066659999995869e+000	 1.010051136571219e+001
0	 4.800020000011600e+000	 7.133319999991937e+000	 1.009627145696025e+001
0	 4.800020000011601e+000	 7.199979999988405e+000	 1.009214847938211e+001
0	 4.800020000011601e+000	 7.266639999985471e+000	 1.008814161981524e+001
0	 4.800020000011599e+000	 7.333299999983333e+000	 1.008425006509702e+001
0	 4.866680000008066e+000	 6.666700000016667e+000	 1.012939879852968e+001
0	 4.866680000008067e+000	 6.733360000014533e+000	 1.012445449612739e+001
0	 4.866680000008066e+000	 6.800020000011600e+000	 1.011962823528295e+001
0	 4.866680000008066e+000	 6.866680000008065e+000	 1.011491911636136e+001
0	 4.866680000008066e+000	 6.933340000004136e+000	 1.011032623972749e+001
0	 4.866680000008068e+000	 7.000000000000002e+000	 1.010584870574631e+001
0	 4.866680000008066e+000	 7.066659999995869e+000	 1.010148561478273e+001
0	 4.866680000008067e+000	 7.133319999991937e+000	 1.009723606720170e+001
0	 4.866680000008067e+000	 7.199979999988404e+000	 1.009309916336812e+001
0	 4.866680000008066e+000	 7.266639999985472e+000	 1.008907400364691e+001
0	 4.866680000008066e+000	 7.333299999983333e+000	 1.008515968840298e+001
0	 4.933340000004134e+000	 6.666700000016666e+000	 1.013013192625252e+001
0	 4.933340000004135e+000	 6.733360000014533e+000	 1.012521316390407e+001
0	 4.933340000004133e+000	 6.800020000011601e+000	 1.012040793758972e+001
0	 4.933340000004134e+000	 6.866680000008069e+000	 1.011571525184867e+001
0	 4.933340000004132e+000	 6.933340000004133e+000	 1.011113411122013e+001
0	 4.933340000004134e+000	 7.000000000000004e+000	 1.010666352024328e+001
0	 4.933340000004133e+000	 7.066659999995871e+000	 1.010230248345732e+001
0	 4.933340000004134e+000	 7.133319999991935e+000	 1.009805000540141e+001
0	 4.933340000004132e+000	 7.199979999988402e+000	 1.009390509061476e+001
0	 4.933340000004134e+000	 7.266639999985473e+000	 1.008986674363656e+001
0	 4.933340000004135e+000	 7.333299999983336e+000	 1.008593396900598e+001
0	 5.000000000000000e+000	 6.666700000016666e+000	 1.013066337516498e+001
0	 5.000000000000001e+000	 6.733360000014532e+000	 1.012577961043068e+001
0	 5.000000000000001e+000	 6.800020000011600e+000	 1.012100436464630e+001
0	 4.999999999999999e+000	 6.866680000008065e+000	 1.011633653717207e+001
0	 5.000000000000002e+000	 6.933340000004136e+000	 1.011177502736821e+001
0	 5.000000000000001e+000	 7.000000000000003e+000	 1.010731873459493e+001
0	 5.000000000000000e+000	 7.066659999995870e+000	 1.010296655821240e+001
0	 5.000000000000001e+000	 7.133319999991936e+000	 1.009871739758084e+001
0	 5.000000000000001e+000	 7.199979999988404e+000	 1.009457015206045e+001
0	 5.000000000000001e+000	 7.266639999985471e+000	 1.009052372101143e+001
0	 5.000000000000000e+000	 7.333299999983334e+000	 1.008657700379396e+001
0	 5.066659999995865e+000	 6.666700000016666e+000	 1.013100522728437e+001
0	 5.066659999995868e+000	 6.733360000014533e+000	 1.012616410503786e+001
0	 5.066659999995868e+000	 6.800020000011600e+000	 1.012142619846863e+001
0	 5.066659999995867e+000	 6.866680000008065e+000	 1.011679029240475e+001
0	 5.066659999995866e+000	 6.933340000004136e+000	 1.011225517167410e+001
0	 5.066659999995868e+000	 7.000000000000003e+000	 1.010781962110468e+001
0	 5.066659999995867e+000	 7.066659999995870e+000	 1.010348242552448e+001
0	 5.066659999995868e+000	 7.133319999991938e+000	 1.009924236976145e+001
0	 5.066659999995867e+000	 7.199979999988406e+000	 1.009509823864354e+001
0	 5.066659999995868e+000	 7.266639999985473e+000	 1.009104881699870e+001
0	 5.066659999995866e+000	 7.333299999983334e+000	 1.008709288965491e+001
0	 5.133319999991934e+000	 6.666700000016666e+000	 1.013116956462805e+001
0	 5.133319999991936e+000	 6.733360000014533e+000	 1.012637691705630e+001
0	 5.133319999991933e+000	 6.800020000011600e+000	 1.012168212107271e+001
0	 5.133319999991935e+000	 6.866680000008068e+000	 1.011708383761983e+001
0	 5.133319999991935e+000	 6.933340000004137e+000	 1.011258072764011e+001
0	 5.133319999991933e+000	 7.000000000000002e+000	 1.010817145207601e+001
0	 5.133319999991934e+000	 7.066659999995869e+000	 1.010385467187004e+001
0	 5.133319999991933e+000	 7.133319999991937e+000	 1.009962904796465e+001
0	 5.133319999991933e+000	 7.199979999988404e+000	 1.009549324130237e+001
0	 5.133319999991932e+000	 7.266639999985472e+000	 1.009144591282561e+001
0	 5.133319999991933e+000	 7.333299999983333e+000	 1.008748572347685e+001
0	 5.199979999988400e+000	 6.666700000016666e+000	 1.013116846921328e+001
0	 5.199979999988399e+000	 6.733360000014533e+000	 1.012642831581665e+001
0	 5.199979999988399e+000	 6.800020000011601e+000	 1.012178081447448e+001
0	 5.199979999988399e+000	 6.866680000008068e+000	 1.011722449289054e+001
0	 5.199979999988398e+000	 6.933340000004133e+000	 1.011275787876859e+001
0	 5.199979999988400e+000	 7.000000000000004e+000	 1.010837949981233e+001
0	 5.199979999988400e+000	 7.066659999995870e+000	 1.010408788372554e+001
0	 5.199979999988401e+000	 7.133319999991937e+000	 1.009988155821194e+001
0	 5.199979999988401e+000	 7.199979999988405e+000	 1.009575905097530e+001
0	 5.199979999988397e+000	 7.266639999985469e+000	 1.009171888971933e+001
0	 5.199979999988400e+000	 7.333299999983335e+000	 1.008775960214777e+001
0	 5.266639999985466e+000	 6.666700000016666e+000	 1.013101402305737e+001
0	 5.266639999985465e+000	 6.733360000014532e+000	 1.012632857064956e+001
0	 5.266639999985467e+000	 6.800020000011600e+000	 1.012173096068986e+001
0	 5.266639999985466e+000	 6.866680000008067e+000	 1.011721957829005e+001
0	 5.266639999985467e+000	 6.933340000004135e+000	 1.011279280856187e+001
0	 5.266639999985466e+000	 7.000000000000003e+000	 1.010844903661710e+001
0	 5.266639999985466e+000	 7.066659999995870e+000	 1.010418664756747e+001
0	 5.266639999985466e+000	 7.133319999991937e+000	 1.010000402652476e+001
0	 5.266639999985466e+000	 7.199979999988404e+000	 1.009589955860072e+001
0	 5.266639999985465e+000	 7.266639999985472e+000	 1.009187162890709e+001
0	 5.266639999985466e+000	 7.333299999983334e+000	 1.008791862255562e+001
0	 5.333299999983333e+000	 6.666700000016665e+000	 1.013071830817766e+001
0	 5.333299999983335e+000	 6.733360000014533e+000	 1.012608795088572e+001
0	 5.333299999983335e+000	 6.800020000011599e+000	 1.012154124173483e+001
0	 5.333299999983333e+000	 6.866680000008065e+000	 1.011707641389152e+001
0	 5.333299999983334e+000	 6.933340000004136e+000	 1.011269170052232e+001
0	 5.333299999983335e+000	 7.000000000000002e+000	 1.010838533479374e+001
0	 5.333299999983335e+000	 7.066659999995870e+000	 1.010415554987231e+001
0	 5.333299999983334e+000	 7.133319999991936e+000	 1.010000057892452e+001
0	 5.333299999983334e+000	 7.199979999988403e+000	 1.009591865511695e+001
0	 5.333299999983335e+000	 7.266639999985472e+000	 1.009190801161606e+001
0	 5.333299999983334e+000	 7.333299999983334e+000	 1.008796688158838e+001
0	 4.666700000016666e+000	 7.333299999983335e+000	 1.008200840282410e+001
0	 4.666700000016665e+000	 7.399969999982150e+000	 1.007827790647907e+001
0	 4.666700000016666e+000	 7.466639999981865e+000	 1.007463463933545e+001
0	 4.666700000016665e+000	 7.533309999982381e+000	 1.007107792215012e+001
0	 4.666700000016666e+000	 7.599979999983601e+000	 1.006760707568007e+001
0	 4.666700000016666e+000	 7.666649999985416e+000	 1.006422142068220e+001
0	 4.666700000016667e+000	 7.733319999987731e+000	 1.006092027791346e+001
0	 4.666700000016665e+000	 7.799989999990447e+000	 1.005770296813078e+001
0	 4.666700000016666e+000	 7.866659999993464e+000	 1.005456881209109e+001
0	 4.666700000016665e+000	 7.933329999996680e+000	 1.005151713055136e+001
0	 4.666700000016666e+000	 7.999999999999999e+000	 1.004854724426850e+001
0	 4.733360000014534e+000	 7.333299999983334e+000	 1.008320100220004e+001
0	 4.733360000014534e+000	 7.399969999982149e+000	 1.007943851042693e+001
0	 4.733360000014533e+000	 7.466639999981866e+000	 1.007576276474190e+001
0	 4.733360000014532e+000	 7.533309999982384e+000	 1.007217287685797e+001
0	 4.733360000014533e+000	 7.599979999983600e+000	 1.006866795848810e+001
0	 4.733360000014534e+000	 7.666649999985417e+000	 1.006524712134528e+001
0	 4.733360000014533e+000	 7.733319999987731e+000	 1.006190947714254e+001
0	 4.733360000014532e+000	 7.799989999990451e+000	 1.005865413759283e+001
0	 4.733360000014533e+000	 7.866659999993463e+000	 1.005548021440919e+001
0	 4.733360000014532e+000	 7.933329999996680e+000	 1.005238681930459e+001
0	 4.733360000014532e+000	 8.000000000000000e+000	 1.004937306399201e+001
0	 4.800020000011599e+000	 7.333299999983333e+000	 1.008425006509701e+001
0	 4.800020000011600e+000	 7.399969999982149e+000	 1.008045896280961e+001
0	 4.800020000011601e+000	 7.466639999981867e+000	 1.007675443122770e+001
0	 4.800020000011600e+000	 7.533309999982382e+000	 1.007313538767694e+001
0	 4.800020000011600e+000	 7.599979999983599e+000	 1.006960074948289e+001
0	 4.800020000011601e+000	 7.666649999985415e+000	 1.006614943397117e+001
0	 4.800020000011599e+000	 7.733319999987730e+000	 1.006278035846741e+001
0	 4.800020000011599e+000	 7.799989999990448e+000	 1.005949244029719e+001
0	 4.800020000011600e+000	 7.866659999993463e+000	 1.005628459678612e+001
0	 4.800020000011600e+000	 7.933329999996680e+000	 1.005315574525983e+001
0	 4.800020000011601e+000	 8.000000000000002e+000	 1.005010480304391e+001
0	 4.866680000008066e+000	 7.333299999983333e+000	 1.008515968840298e+001
0	 4.866680000008065e+000	 7.399969999982150e+000	 1.008134364887406e+001
0	 4.866680000008068e+000	 7.466639999981866e+000	 1.007761423232475e+001
0	 4.866680000008067e+000	 7.533309999982384e+000	 1.007397017634978e+001
0	 4.866680000008066e+000	 7.599979999983599e+000	 1.007041021854397e+001
0	 4.866680000008066e+000	 7.666649999985415e+000	 1.006693309650210e+001
0	 4.866680000008069e+000	 7.733319999987732e+000	 1.006353754781891e+001
0	 4.866680000008067e+000	 7.799989999990450e+000	 1.006022231008923e+001
0	 4.866680000008066e+000	 7.866659999993464e+000	 1.005698612090782e+001
0	 4.866680000008066e+000	 7.933329999996681e+000	 1.005382771786949e+001
0	 4.866680000008066e+000	 8.000000000000000e+000	 1.005074583856900e+001
0	 4.933340000004135e+000	 7.333299999983336e+000	 1.008593396900597e+001
0	 4.933340000004133e+000	 7.399969999982149e+000	 1.008209695386730e+001
0	 4.933340000004134e+000	 7.466639999981868e+000	 1.007834676156486e+001
0	 4.933340000004133e+000	 7.533309999982381e+000	 1.007468196461921e+001
0	 4.933340000004133e+000	 7.599979999983597e+000	 1.007110113555082e+001
0	 4.933340000004133e+000	 7.666649999985412e+000	 1.006760284688023e+001
0	 4.933340000004132e+000	 7.733319999987732e+000	 1.006418567112794e+001
0	 4.933340000004134e+000	 7.799989999990447e+000	 1.006084818081446e+001
0	 4.933340000004134e+000	 7.866659999993467e+000	 1.005758894846031e+001
0	 4.933340000004135e+000	 7.933329999996682e+000	 1.005440654658599e+001
0	 4.933340000004133e+000	 7.999999999999999e+000	 1.005129954771207e+001
0	 5.000000000000000e+000	 7.333299999983334e+000	 1.008657700379396e+001
0	 5.000000000000001e+000	 7.399969999982150e+000	 1.008272326303623e+001
0	 5.000000000000001e+000	 7.466639999981868e+000	 1.007895661247996e+001
0	 4.999999999999999e+000	 7.533309999982383e+000	 1.007527547422795e+001
0	 5.000000000000000e+000	 7.599979999983597e+000	 1.007167827038295e+001
0	 5.000000000000002e+000	 7.666649999985415e+000	 1.006816342304781e+001
0	 5.000000000000000e+000	 7.733319999987732e+000	 1.006472935432533e+001
0	 5.000000000000000e+000	 7.799989999990447e+000	 1.006137448631827e+001
0	 5.000000000000000e+000	 7.866659999993463e+000	 1.005809724112949e+001
0	 5.000000000000000e+000	 7.933329999996681e+000	 1.005489604086177e+001
0	 5.000000000000001e+000	 8.000000000000002e+000	 1.005176930761791e+001
0	 5.066659999995866e+000	 7.333299999983334e+000	 1.008709288965491e+001
0	 5.066659999995867e+000	 7.399969999982150e+000	 1.008322696162788e+001
0	 5.066659999995867e+000	 7.466639999981867e+000	 1.007944837860191e+001
0	 5.066659999995865e+000	 7.533309999982381e+000	 1.007575542691868e+001
0	 5.066659999995865e+000	 7.599979999983597e+000	 1.007214639291986e+001
0	 5.066659999995866e+000	 7.666649999985415e+000	 1.006861956294707e+001
0	 5.066659999995865e+000	 7.733319999987730e+000	 1.006517322334193e+001
0	 5.066659999995867e+000	 7.799989999990447e+000	 1.006180566044615e+001
0	 5.066659999995867e+000	 7.866659999993464e+000	 1.005851516060136e+001
0	 5.066659999995868e+000	 7.933329999996682e+000	 1.005530001014919e+001
0	 5.066659999995867e+000	 8.000000000000000e+000	 1.005215849543132e+001
0	 5.133319999991933e+000	 7.333299999983333e+000	 1.008748572347685e+001
0	 5.133319999991932e+000	 7.399969999982150e+000	 1.008361243488915e+001
0	 5.133319999991932e+000	 7.466639999981867e+000	 1.007982665346257e+001
0	 5.133319999991933e+000	 7.533309999982383e+000	 1.007612654443418e+001
0	 5.133319999991933e+000	 7.599979999983598e+000	 1.007251027304103e+001
0	 5.133319999991933e+000	 7.666649999985415e+000	 1.006897600452015e+001
0	 5.133319999991934e+000	 7.733319999987731e+000	 1.006552190410863e+001
0	 5.133319999991933e+000	 7.799989999990449e+000	 1.006214613704352e+001
0	 5.133319999991933e+000	 7.866659999993464e+000	 1.005884686856186e+001
0	 5.133319999991931e+000	 7.933329999996680e+000	 1.005562226390070e+001
0	 5.133319999991933e+000	 8.000000000000000e+000	 1.005247048829711e+001
0	 5.199979999988400e+000	 7.333299999983335e+000	 1.008775960214776e+001
0	 5.199979999988398e+000	 7.399969999982151e+000	 1.008388406806704e+001
0	 5.199979999988400e+000	 7.466639999981865e+000	 1.008009603059381e+001
0	 5.199979999988400e+000	 7.533309999982383e+000	 1.007639354851711e+001
0	 5.199979999988398e+000	 7.599979999983598e+000	 1.007277468062593e+001
0	 5.199979999988399e+000	 7.666649999985416e+000	 1.006923748570933e+001
0	 5.199979999988399e+000	 7.733319999987733e+000	 1.006578002255625e+001
0	 5.199979999988400e+000	 7.799989999990447e+000	 1.006240034995579e+001
0	 5.199979999988399e+000	 7.866659999993463e+000	 1.005909652669692e+001
0	 5.199979999988400e+000	 7.933329999996681e+000	 1.005586661156868e+001
0	 5.199979999988400e+000	 8.000000000000002e+000	 1.005270866336009e+001
0	 5.266639999985466e+000	 7.333299999983334e+000	 1.008791862255561e+001
0	 5.266639999985465e+000	 7.399969999982149e+000	 1.008404624640850e+001
0	 5.266639999985466e+000	 7.466639999981867e+000	 1.008026110352752e+001
0	 5.266639999985466e+000	 7.533309999982383e+000	 1.007656116091022e+001
0	 5.266639999985465e+000	 7.599979999983598e+000	 1.007294438555412e+001
0	 5.266639999985467e+000	 7.666649999985416e+000	 1.006940874445676e+001
0	 5.266639999985465e+000	 7.733319999987730e+000	 1.006595220461568e+001
0	 5.266639999985465e+000	 7.799989999990447e+000	 1.006257273302844e+001
0	 5.266639999985467e+000	 7.866659999993463e+000	 1.005926829669255e+001
0	 5.266639999985467e+000	 7.933329999996682e+000	 1.005603686260558e+001
0	 5.266639999985465e+000	 7.999999999999999e+000	 1.005287639776502e+001
0	 5.333299999983334e+000	 7.333299999983334e+000	 1.008796688158838e+001
0	 5.333299999983332e+000	 7.399969999982148e+000	 1.008410335516048e+001
0	 5.333299999983334e+000	 7.466639999981866e+000	 1.008032646579554e+001
0	 5.333299999983335e+000	 7.533309999982381e+000	 1.007663410335618e+001
0	 5.333299999983333e+000	 7.599979999983599e+000	 1.007302415770504e+001
0	 5.333299999983334e+000	 7.666649999985415e+000	 1.006949451870468e+001
0	 5.333299999983333e+000	 7.733319999987731e+000	 1.006604307621776e+001
0	 5.333299999983334e+000	 7.799989999990449e+000	 1.006266772010688e+001
0	 5.333299999983335e+000	 7.866659999993465e+000	 1.005936634023468e+001
0	 5.333299999983334e+000	 7.933329999996681e+000	 1.005613682646375e+001
0	 5.333299999983333e+000	 8.000000000000002e+000	 1.005297706865672e+001
0	 4.666700000016666e+000	 7.999999999999999e+000	 1.004854724426850e+001
0	 4.666700000016665e+000	 8.066670000003317e+000	 1.004566278707811e+001
0	 4.666700000016666e+000	 8.133340000006532e+000	 1.004286647150596e+001
0	 4.666700000016667e+000	 8.200010000009552e+000	 1.004015623634437e+001
0	 4.666700000016666e+000	 8.266680000012267e+000	 1.003753002038547e+001
0	 4.666700000016667e+000	 8.333350000014583e+000	 1.003498576242162e+001
0	 4.666700000016667e+000	 8.400020000016399e+000	 1.003252140124498e+001
0	 4.666700000016667e+000	 8.466690000017616e+000	 1.003013487564786e+001
0	 4.666700000016665e+000	 8.533360000018131e+000	 1.002782412442248e+001
0	 4.666700000016666e+000	 8.600030000017847e+000	 1.002558708636112e+001
0	 4.666700000016666e+000	 8.666700000016668e+000	 1.002342170025602e+001
0	 4.733360000014532e+000	 8.000000000000000e+000	 1.004937306399201e+001
0	 4.733360000014531e+000	 8.066670000003315e+000	 1.004644401520046e+001
0	 4.733360000014532e+000	 8.133340000006530e+000	 1.004360392351981e+001
0	 4.733360000014533e+000	 8.200010000009552e+000	 1.004085067645467e+001
0	 4.733360000014534e+000	 8.266680000012267e+000	 1.003818216150951e+001
0	 4.733360000014535e+000	 8.333350000014583e+000	 1.003559626618885e+001
0	 4.733360000014534e+000	 8.400020000016403e+000	 1.003309087799723e+001
0	 4.733360000014533e+000	 8.466690000017616e+000	 1.003066388443916e+001
0	 4.733360000014534e+000	 8.533360000018131e+000	 1.002831317301919e+001
0	 4.733360000014533e+000	 8.600030000017851e+000	 1.002603663124181e+001
0	 4.733360000014534e+000	 8.666700000016665e+000	 1.002383214661155e+001
0	 4.800020000011601e+000	 8.000000000000002e+000	 1.005010480304391e+001
0	 4.800020000011598e+000	 8.066670000003317e+000	 1.004713791302960e+001
0	 4.800020000011599e+000	 8.133340000006532e+000	 1.004426049626062e+001
0	 4.800020000011600e+000	 8.200010000009552e+000	 1.004147038729155e+001
0	 4.800020000011599e+000	 8.266680000012261e+000	 1.003876542067686e+001
0	 4.800020000011600e+000	 8.333350000014582e+000	 1.003614343097113e+001
0	 4.800020000011599e+000	 8.400020000016395e+000	 1.003360225272882e+001
0	 4.800020000011601e+000	 8.466690000017618e+000	 1.003113972050450e+001
0	 4.800020000011600e+000	 8.533360000018133e+000	 1.002875366885267e+001
0	 4.800020000011599e+000	 8.600030000017846e+000	 1.002644193232788e+001
0	 4.800020000011600e+000	 8.666700000016666e+000	 1.002420234548463e+001
0	 4.866680000008066e+000	 8.000000000000000e+000	 1.005074583856900e+001
0	 4.866680000008067e+000	 8.066670000003319e+000	 1.004774740462030e+001
0	 4.866680000008066e+000	 8.133340000006532e+000	 1.004483869920231e+001
0	 4.866680000008065e+000	 8.200010000009547e+000	 1.004201750225726e+001
0	 4.866680000008066e+000	 8.266680000012267e+000	 1.003928159372741e+001
0	 4.866680000008066e+000	 8.333350000014582e+000	 1.003662875355501e+001
0	 4.866680000008065e+000	 8.400020000016397e+000	 1.003405676168229e+001
0	 4.866680000008068e+000	 8.466690000017618e+000	 1.003156339805154e+001
0	 4.866680000008067e+000	 8.533360000018133e+000	 1.002914644260498e+001
0	 4.866680000008067e+000	 8.600030000017846e+000	 1.002680367528489e+001
0	 4.866680000008067e+000	 8.666700000016663e+000	 1.002453287603352e+001
0	 4.933340000004133e+000	 7.999999999999999e+000	 1.005129954771207e+001
0	 4.933340000004135e+000	 8.066670000003319e+000	 1.004827541402732e+001
0	 4.933340000004133e+000	 8.133340000006534e+000	 1.004534104181876e+001
0	 4.933340000004135e+000	 8.200010000009550e+000	 1.004249415475406e+001
0	 4.933340000004134e+000	 8.266680000012265e+000	 1.003973247650090e+001
0	 4.933340000004134e+000	 8.333350000014580e+000	 1.003705373072705e+001
0	 4.933340000004134e+000	 8.400020000016399e+000	 1.003445564110012e+001
0	 4.933340000004135e+000	 8.466690000017616e+000	 1.003193593128793e+001
0	 4.933340000004134e+000	 8.533360000018131e+000	 1.002949232495812e+001
0	 4.933340000004133e+000	 8.600030000017849e+000	 1.002712254577842e+001
0	 4.933340000004135e+000	 8.666700000016668e+000	 1.002482431741654e+001
0	 5.000000000000001e+000	 8.000000000000002e+000	 1.005176930761791e+001
0	 5.000000000000001e+000	 8.066670000003319e+000	 1.004872486530542e+001
0	 5.000000000000002e+000	 8.133340000006532e+000	 1.004577003358389e+001
0	 5.000000000000002e+000	 8.200010000009552e+000	 1.004290247818418e+001
0	 5.000000000000000e+000	 8.266680000012267e+000	 1.004011986483719e+001
0	 5.000000000000001e+000	 8.333350000014583e+000	 1.003741985927379e+001
0	 5.000000000000000e+000	 8.400020000016399e+000	 1.003480012722487e+001
0	 5.000000000000001e+000	 8.466690000017616e+000	 1.003225833442136e+001
0	 5.000000000000000e+000	 8.533360000018130e+000	 1.002979214659411e+001
0	 5.000000000000000e+000	 8.600030000017846e+000	 1.002739922947403e+001
0	 4.999999999999999e+000	 8.666700000016665e+000	 1.002507724879201e+001
0	 5.066659999995867e+000	 8.000000000000000e+000	 1.005215849543132e+001
0	 5.066659999995867e+000	 8.066670000003319e+000	 1.004909868250934e+001
0	 5.066659999995867e+000	 8.133340000006532e+000	 1.004612818397161e+001
0	 5.066659999995866e+000	 8.200010000009549e+000	 1.004324460594992e+001
0	 5.066659999995867e+000	 8.266680000012268e+000	 1.004044555457607e+001
0	 5.066659999995866e+000	 8.333350000014582e+000	 1.003772863598184e+001
0	 5.066659999995868e+000	 8.400020000016403e+000	 1.003509145629904e+001
0	 5.066659999995868e+000	 8.466690000017618e+000	 1.003253162165950e+001
0	 5.066659999995866e+000	 8.533360000018131e+000	 1.003004673819499e+001
0	 5.066659999995865e+000	 8.600030000017847e+000	 1.002763441203729e+001
0	 5.066659999995866e+000	 8.666700000016666e+000	 1.002529224931825e+001
0	 5.133319999991933e+000	 8.000000000000000e+000	 1.005247048829711e+001
0	 5.133319999991933e+000	 8.066670000003319e+000	 1.004939978969384e+001
0	 5.133319999991933e+000	 8.133340000006534e+000	 1.004641800245582e+001
0	 5.133319999991933e+000	 8.200010000009552e+000	 1.004352267145352e+001
0	 5.133319999991933e+000	 8.266680000012267e+000	 1.004071134155734e+001
0	 5.133319999991934e+000	 8.333350000014583e+000	 1.003798155763774e+001
0	 5.133319999991933e+000	 8.400020000016401e+000	 1.003533086456514e+001
0	 5.133319999991933e+000	 8.466690000017618e+000	 1.003275680721000e+001
0	 5.133319999991933e+000	 8.533360000018131e+000	 1.003025693044271e+001
0	 5.133319999991934e+000	 8.600030000017849e+000	 1.002782877913377e+001
0	 5.133319999991933e+000	 8.666700000016666e+000	 1.002546989815356e+001
0	 5.199979999988400e+000	 8.000000000000002e+000	 1.005270866336009e+001
0	 5.199979999988400e+000	 8.066670000003317e+000	 1.004963111091367e+001
0	 5.199979999988400e+000	 8.133340000006532e+000	 1.004664199851045e+001
0	 5.199979999988399e+000	 8.200010000009549e+000	 1.004373880809725e+001
0	 5.199979999988400e+000	 8.266680000012268e+000	 1.004091902162086e+001
0	 5.199979999988400e+000	 8.333350000014580e+000	 1.003818012102807e+001
0	 5.199979999988400e+000	 8.400020000016399e+000	 1.003551958826567e+001
0	 5.199979999988400e+000	 8.466690000017616e+000	 1.003293490528049e+001
0	 5.199979999988400e+000	 8.533360000018131e+000	 1.003042355401934e+001
0	 5.199979999988400e+000	 8.600030000017849e+000	 1.002798301642899e+001
0	 5.199979999988400e+000	 8.666700000016666e+000	 1.002561077445627e+001
0	 5.266639999985465e+000	 7.999999999999999e+000	 1.005287639776502e+001
0	 5.266639999985467e+000	 8.066670000003319e+000	 1.004979557022357e+001
0	 5.266639999985464e+000	 8.133340000006532e+000	 1.004680268160940e+001
0	 5.266639999985466e+000	 8.200010000009549e+000	 1.004389514928337e+001
0	 5.266639999985465e+000	 8.266680000012268e+000	 1.004107039060639e+001
0	 5.266639999985467e+000	 8.333350000014583e+000	 1.003832582293935e+001
0	 5.266639999985465e+000	 8.400020000016399e+000	 1.003565886364317e+001
0	 5.266639999985467e+000	 8.466690000017616e+000	 1.003306693007870e+001
0	 5.266639999985466e+000	 8.533360000018130e+000	 1.003054743960687e+001
0	 5.266639999985465e+000	 8.600030000017849e+000	 1.002809780958856e+001
0	 5.266639999985465e+000	 8.666700000016665e+000	 1.002571545738465e+001
0	 5.333299999983333e+000	 8.000000000000002e+000	 1.005297706865672e+001
0	 5.333299999983334e+000	 8.066670000003317e+000	 1.004989609167830e+001
0	 5.333299999983333e+000	 8.133340000006532e+000	 1.004690256122652e+001
0	 5.333299999983333e+000	 8.200010000009550e+000	 1.004399382841411e+001
0	 5.333299999983334e+000	 8.266680000012267e+000	 1.004116724435377e+001
0	 5.333299999983335e+000	 8.333350000014583e+000	 1.003842016015820e+001
0	 5.333299999983334e+000	 8.400020000016399e+000	 1.003574992694013e+001
0	 5.333299999983334e+000	 8.466690000017616e+000	 1.003315389581226e+001
0	 5.333299999983333e+000	 8.533360000018133e+000	 1.003062941788731e+001
0	 5.333299999983334e+000	 8.600030000017847e+000	 1.002817384427802e+001
0	 5.333299999983334e+000	 8.666700000016666e+000	 1.002578452609707e+001
0	 4.666700000016666e+000	 8.666700000016668e+000	 1.002342170025602e+001
0	 4.666700000016667e+000	 8.733360002791903e+000	 1.002134209870412e+001
0	 4.666700000016667e+000	 8.800020022230553e+000	 1.001936064235151e+001
0	 4.666700000016665e+000	 8.866680074997039e+000	 1.001747357042384e+001
0	 4.666700000016666e+000	 8.933340177755776e+000	 1.001567712187523e+001
0	 4.666700000016666e+000	 9.000000347171179e+000	 1.001396753538825e+001
0	 4.666700000016666e+000	 9.066660599907662e+000	 1.001234104937388e+001
0	 4.666700000016666e+000	 9.133320952629649e+000	 1.001079390197160e+001
0	 4.666700000016666e+000	 9.199981422001557e+000	 1.000932233104927e+001
0	 4.666700000016667e+000	 9.266642024687792e+000	 1.000792257420327e+001
0	 4.666700000016666e+000	 9.333302777352783e+000	 1.000659086875831e+001
0	 4.733360000014534e+000	 8.666700000016665e+000	 1.002383214661155e+001
0	 4.733360000014534e+000	 8.733360002791901e+000	 1.002171476119307e+001
0	 4.733360000014533e+000	 8.800020022230550e+000	 1.001969766471118e+001
0	 4.733360000014534e+000	 8.866680074997040e+000	 1.001777694202621e+001
0	 4.733360000014534e+000	 8.933340177755776e+000	 1.001594867772161e+001
0	 4.733360000014534e+000	 9.000000347171181e+000	 1.001420895610387e+001
0	 4.733360000014534e+000	 9.066660599907667e+000	 1.001255386120241e+001
0	 4.733360000014532e+000	 9.133320952629651e+000	 1.001097947676975e+001
0	 4.733360000014533e+000	 9.199981422001555e+000	 1.000948188628142e+001
0	 4.733360000014534e+000	 9.266642024687792e+000	 1.000805717293588e+001
0	 4.733360000014533e+000	 9.333302777352785e+000	 1.000670141965472e+001
0	 4.800020000011600e+000	 8.666700000016666e+000	 1.002420234548463e+001
0	 4.800020000011601e+000	 8.733360002791901e+000	 1.002205091225557e+001
0	 4.800020000011600e+000	 8.800020022230555e+000	 1.002000171598242e+001
0	 4.800020000011601e+000	 8.866680074997042e+000	 1.001805070197757e+001
0	 4.800020000011599e+000	 8.933340177755774e+000	 1.001619381527143e+001
0	 4.800020000011600e+000	 9.000000347171181e+000	 1.001442700061248e+001
0	 4.800020000011600e+000	 9.066660599907666e+000	 1.001274620246735e+001
0	 4.800020000011600e+000	 9.133320952629649e+000	 1.001114736502060e+001
0	 4.800020000011601e+000	 9.199981422001555e+000	 1.000962643217495e+001
0	 4.800020000011600e+000	 9.266642024687789e+000	 1.000817934755112e+001
0	 4.800020000011600e+000	 9.333302777352781e+000	 1.000680205448793e+001
0	 4.866680000008067e+000	 8.666700000016663e+000	 1.002453287603352e+001
0	 4.866680000008066e+000	 8.733360002791905e+000	 1.002235104500840e+001
0	 4.866680000008069e+000	 8.800020022230555e+000	 1.002027320563681e+001
0	 4.866680000008066e+000	 8.866680074997042e+000	 1.001829517850041e+001
0	 4.866680000008067e+000	 8.933340177755778e+000	 1.001641278389439e+001
0	 4.866680000008068e+000	 9.000000347171181e+000	 1.001462184182750e+001
0	 4.866680000008067e+000	 9.066660599907666e+000	 1.001291817202210e+001
0	 4.866680000008066e+000	 9.133320952629651e+000	 1.001129759391406e+001
0	 4.866680000008067e+000	 9.199981422001555e+000	 1.000975592665289e+001
0	 4.866680000008067e+000	 9.266642024687792e+000	 1.000828898910156e+001
0	 4.866680000008066e+000	 9.333302777352779e+000	 1.000689259983667e+001
0	 4.933340000004135e+000	 8.666700000016668e+000	 1.002482431741653e+001
0	 4.933340000004135e+000	 8.733360002791905e+000	 1.002261565256838e+001
0	 4.933340000004132e+000	 8.800020022230555e+000	 1.002051254314587e+001
0	 4.933340000004134e+000	 8.866680074997042e+000	 1.001851069981725e+001
0	 4.933340000004135e+000	 8.933340177755776e+000	 1.001660583296029e+001
0	 4.933340000004134e+000	 9.000000347171179e+000	 1.001479365266234e+001
0	 4.933340000004133e+000	 9.066660599907666e+000	 1.001306986872018e+001
0	 4.933340000004133e+000	 9.133320952629655e+000	 1.001143019064020e+001
0	 4.933340000004134e+000	 9.199981422001555e+000	 1.000987032763825e+001
0	 4.933340000004135e+000	 9.266642024687792e+000	 1.000838598863972e+001
0	 4.933340000004133e+000	 9.333302777352781e+000	 1.000697288227956e+001
0	 4.999999999999999e+000	 8.666700000016665e+000	 1.002507724879201e+001
0	 5.000000000000001e+000	 8.733360002791903e+000	 1.002284522805235e+001
0	 5.000000000000001e+000	 8.800020022230557e+000	 1.002072013798111e+001
0	 5.000000000000001e+000	 8.866680074997040e+000	 1.001869759415057e+001
0	 5.000000000000000e+000	 8.933340177755774e+000	 1.001677321183895e+001
0	 5.000000000000001e+000	 9.000000347171179e+000	 1.001494260603039e+001
0	 5.000000000000001e+000	 9.066660599907664e+000	 1.001320139141503e+001
0	 4.999999999999999e+000	 9.133320952629653e+000	 1.001154518238893e+001
0	 5.000000000000001e+000	 9.199981422001557e+000	 1.000996959305399e+001
0	 5.000000000000001e+000	 9.266642024687792e+000	 1.000847023721818e+001
0	 5.000000000000000e+000	 9.333302777352783e+000	 1.000704272839533e+001
0	 5.066659999995866e+000	 8.666700000016666e+000	 1.002529224931825e+001
0	 5.066659999995867e+000	 8.733360002791905e+000	 1.002304026457714e+001
0	 5.066659999995865e+000	 8.800020022230553e+000	 1.002089639961410e+001
0	 5.066659999995867e+000	 8.866680074997042e+000	 1.001885618972288e+001
0	 5.066659999995866e+000	 8.933340177755778e+000	 1.001691516990009e+001
0	 5.066659999995867e+000	 9.000000347171179e+000	 1.001506887484511e+001
0	 5.066659999995867e+000	 9.066660599907666e+000	 1.001331283896014e+001
0	 5.066659999995867e+000	 9.133320952629653e+000	 1.001164259635024e+001
0	 5.066659999995867e+000	 9.199981422001555e+000	 1.001005368082315e+001
0	 5.066659999995868e+000	 9.266642024687791e+000	 1.000854162588949e+001
0	 5.066659999995865e+000	 9.333302777352783e+000	 1.000710196476266e+001
0	 5.133319999991933e+000	 8.666700000016666e+000	 1.002546989815356e+001
0	 5.133319999991933e+000	 8.733360002791903e+000	 1.002320125525957e+001
0	 5.133319999991933e+000	 8.800020022230555e+000	 1.002104173751633e+001
0	 5.133319999991933e+000	 8.866680074997039e+000	 1.001898681475666e+001
0	 5.133319999991932e+000	 8.933340177755776e+000	 1.001703195651347e+001
0	 5.133319999991933e+000	 9.000000347171179e+000	 1.001517263201984e+001
0	 5.133319999991933e+000	 9.066660599907666e+000	 1.001340431020897e+001
0	 5.133319999991935e+000	 9.133320952629653e+000	 1.001172245971411e+001
0	 5.133319999991931e+000	 9.199981422001555e+000	 1.001012254886866e+001
0	 5.133319999991932e+000	 9.266642024687791e+000	 1.000860004570615e+001
0	 5.133319999991932e+000	 9.333302777352783e+000	 1.000715041796021e+001
0	 5.199979999988400e+000	 8.666700000016666e+000	 1.002561077445627e+001
0	 5.199979999988399e+000	 8.733360002791903e+000	 1.002332869321644e+001
0	 5.199979999988398e+000	 8.800020022230555e+000	 1.002115656115937e+001
0	 5.199979999988398e+000	 8.866680074997040e+000	 1.001908979747439e+001
0	 5.199979999988400e+000	 8.933340177755776e+000	 1.001712382104889e+001
0	 5.199979999988400e+000	 9.000000347171179e+000	 1.001525405046807e+001
0	 5.199979999988399e+000	 9.066660599907662e+000	 1.001347590401495e+001
0	 5.199979999988399e+000	 9.133320952629653e+000	 1.001178479967051e+001
0	 5.199979999988400e+000	 9.199981422001557e+000	 1.001017615511355e+001
0	 5.199979999988400e+000	 9.266642024687789e+000	 1.000864538772074e+001
0	 5.199979999988400e+000	 9.333302777352785e+000	 1.000718791456664e+001
0	 5.266639999985465e+000	 8.666700000016665e+000	 1.002571545738465e+001
0	 5.266639999985465e+000	 8.733360002791901e+000	 1.002342307156463e+001
0	 5.266639999985466e+000	 8.800020022230555e+000	 1.002124128001470e+001
0	 5.266639999985467e+000	 8.866680074997039e+000	 1.001916546609861e+001
0	 5.266639999985465e+000	 8.933340177755776e+000	 1.001719101287612e+001
0	 5.266639999985465e+000	 9.000000347171181e+000	 1.001531330310314e+001
0	 5.266639999985464e+000	 9.066660599907664e+000	 1.001352771923158e+001
0	 5.266639999985467e+000	 9.133320952629653e+000	 1.001182964340945e+001
0	 5.266639999985465e+000	 9.199981422001553e+000	 1.001021445748083e+001
0	 5.266639999985466e+000	 9.266642024687794e+000	 1.000867754298581e+001
0	 5.266639999985466e+000	 9.333302777352781e+000	 1.000721428116066e+001
0	 5.333299999983334e+000	 8.666700000016666e+000	 1.002578452609707e+001
0	 5.333299999983333e+000	 8.733360002791903e+000	 1.002348488342089e+001
0	 5.333299999983334e+000	 8.800020022230553e+000	 1.002129630355390e+001
0	 5.333299999983335e+000	 8.866680074997040e+000	 1.001921414885177e+001
0	 5.333299999983335e+000	 8.933340177755776e+000	 1.001723378136491e+001
0	 5.333299999983334e+000	 9.000000347171179e+000	 1.001535056283847e+001
0	 5.333299999983334e+000	 9.066660599907666e+000	 1.001355985471230e+001
0	 5.333299999983333e+000	 9.133320952629649e+000	 1.001185701812088e+001
0	 5.333299999983334e+000	 9.199981422001555e+000	 1.001023741389342e+001
0	 5.333299999983336e+000	 9.266642024687794e+000	 1.000869640255392e+001
0	 5.333299999983336e+000	 9.333302777352786e+000	 1.000722934432091e+001
0	 4.666700000016666e+000	 9.333302777352783e+000	 1.000659086875831e+001
0	 4.666700000016665e+000	 9.399973674588175e+000	 1.000536546037861e+001
0	 4.666700000016666e+000	 9.466644621844619e+000	 1.000428243448448e+001
0	 4.666700000016666e+000	 9.533315502449996e+000	 1.000333420535292e+001
0	 4.666700000016666e+000	 9.599986199732195e+000	 1.000251319006159e+001
0	 4.666700000016666e+000	 9.666656597019093e+000	 1.000181180848847e+001
0	 4.666700000016666e+000	 9.733326577638573e+000	 1.000122248331194e+001
0	 4.666700000016667e+000	 9.799996024918524e+000	 1.000073764001060e+001
0	 4.666700000016667e+000	 9.866664822186822e+000	 1.000034970686335e+001
0	 4.666700000016666e+000	 9.933332852771352e+000	 1.000005111494943e+001
0	 4.666700000016666e+000	 1.000000000000000e+001	 9.999834298148961e+000
0	 4.733360000014533e+000	 9.333302777352785e+000	 1.000670141965472e+001
0	 4.733360000014534e+000	 9.399973674588173e+000	 1.000545345976671e+001
0	 4.733360000014533e+000	 9.466644621844621e+000	 1.000435010965727e+001
0	 4.733360000014533e+000	 9.533315502450000e+000	 1.000338383354508e+001
0	 4.733360000014533e+000	 9.599986199732195e+000	 1.000254709850240e+001
0	 4.733360000014534e+000	 9.666656597019093e+000	 1.000183237445482e+001
0	 4.733360000014534e+000	 9.733326577638573e+000	 1.000123213418113e+001
0	 4.733360000014533e+000	 9.799996024918521e+000	 1.000073885331348e+001
0	 4.733360000014534e+000	 9.866664822186820e+000	 1.000034501033715e+001
0	 4.733360000014534e+000	 9.933332852771351e+000	 1.000004308659085e+001
0	 4.733360000014533e+000	 1.000000000000000e+001	 9.999825566267138e+000
0	 4.800020000011600e+000	 9.333302777352781e+000	 1.000680205448793e+001
0	 4.800020000011601e+000	 9.399973674588175e+000	 1.000553392645330e+001
0	 4.800020000011599e+000	 9.466644621844619e+000	 1.000441245016631e+001
0	 4.800020000011600e+000	 9.533315502449998e+000	 1.000343013605962e+001
0	 4.800020000011600e+000	 9.599986199732198e+000	 1.000257949746803e+001
0	 4.800020000011600e+000	 9.666656597019090e+000	 1.000185305062792e+001
0	 4.800020000011600e+000	 9.733326577638575e+000	 1.000124331467754e+001
0	 4.800020000011601e+000	 9.799996024918521e+000	 1.000074281165667e+001
0	 4.800020000011600e+000	 9.866664822186818e+000	 1.000034406650679e+001
0	 4.800020000011600e+000	 9.933332852771349e+000	 1.000003960707150e+001
0	 4.800020000011600e+000	 1.000000000000000e+001	 9.999821964096254e+000
0	 4.866680000008066e+000	 9.333302777352779e+000	 1.000689259983667e+001
0	 4.866680000008065e+000	 9.399973674588178e+000	 1.000560662239575e+001
0	 4.866680000008065e+000	 9.466644621844619e+000	 1.000446915067501e+001
0	 4.866680000008066e+000	 9.533315502449998e+000	 1.000347273759320e+001
0	 4.866680000008067e+000	 9.599986199732195e+000	 1.000260993901494e+001
0	 4.866680000008067e+000	 9.666656597019093e+000	 1.000187331375041e+001
0	 4.866680000008065e+000	 9.733326577638572e+000	 1.000125542355548e+001
0	 4.866680000008067e+000	 9.799996024918524e+000	 1.000074883313162e+001
0	 4.866680000008067e+000	 9.866664822186820e+000	 1.000034611012585e+001
0	 4.866680000008066e+000	 9.933332852771351e+000	 1.000003982513108e+001
0	 4.866680000008066e+000	 1.000000000000000e+001	 9.999822551686126e+000
0	 4.933340000004133e+000	 9.333302777352781e+000	 1.000697288227956e+001
0	 4.933340000004133e+000	 9.399973674588177e+000	 1.000567130955144e+001
0	 4.933340000004133e+000	 9.466644621844621e+000	 1.000451990584702e+001
0	 4.933340000004133e+000	 9.533315502450000e+000	 1.000351126284254e+001
0	 4.933340000004134e+000	 9.599986199732193e+000	 1.000263797519962e+001
0	 4.933340000004133e+000	 9.666656597019090e+000	 1.000189264056476e+001
0	 4.933340000004133e+000	 9.733326577638573e+000	 1.000126785956941e+001
0	 4.933340000004134e+000	 9.799996024918521e+000	 1.000075623582993e+001
0	 4.933340000004133e+000	 9.866664822186820e+000	 1.000035037594775e+001
0	 4.933340000004132e+000	 9.933332852771351e+000	 1.000004288950941e+001
0	 4.933340000004134e+000	 1.000000000000000e+001	 9.999826389086866e+000
0	 5.000000000000000e+000	 9.333302777352783e+000	 1.000704272839533e+001
0	 5.000000000000001e+000	 9.399973674588180e+000	 1.000572774987792e+001
0	 5.000000000000001e+000	 9.466644621844621e+000	 1.000456441034580e+001
0	 5.000000000000000e+000	 9.533315502450002e+000	 1.000354533650430e+001
0	 5.000000000000001e+000	 9.599986199732195e+000	 1.000266315807855e+001
0	 5.000000000000002e+000	 9.666656597019090e+000	 1.000191050781348e+001
0	 5.000000000000001e+000	 9.733326577638575e+000	 1.000128002147353e+001
0	 5.000000000000002e+000	 9.799996024918523e+000	 1.000076433784307e+001
0	 4.999999999999999e+000	 9.866664822186820e+000	 1.000035609872597e+001
0	 5.000000000000002e+000	 9.933332852771352e+000	 1.000004794894630e+001
0	 5.000000000000000e+000	 1.000000000000000e+001	 9.999832536348166e+000
0	 5.066659999995865e+000	 9.333302777352783e+000	 1.000710196476266e+001
0	 5.066659999995866e+000	 9.399973674588177e+000	 1.000577570533251e+001
0	 5.066659999995866e+000	 9.466644621844619e+000	 1.000460235883499e+001
0	 5.066659999995867e+000	 9.533315502449998e+000	 1.000357458327518e+001
0	 5.066659999995867e+000	 9.599986199732193e+000	 1.000268503970826e+001
0	 5.066659999995867e+000	 9.666656597019093e+000	 1.000192639223904e+001
0	 5.066659999995867e+000	 9.733326577638577e+000	 1.000129130802231e+001
0	 5.066659999995866e+000	 9.799996024918521e+000	 1.000077245726254e+001
0	 5.066659999995866e+000	 9.866664822186822e+000	 1.000036251321411e+001
0	 5.066659999995865e+000	 9.933332852771352e+000	 1.000005415218166e+001
0	 5.066659999995866e+000	 1.000000000000000e+001	 9.999840053519819e+000
0	 5.133319999991932e+000	 9.333302777352783e+000	 1.000715041796021e+001
0	 5.133319999991931e+000	 9.399973674588177e+000	 1.000581493787262e+001
0	 5.133319999991933e+000	 9.466644621844623e+000	 1.000463344597802e+001
0	 5.133319999991934e+000	 9.533315502449998e+000	 1.000359862785187e+001
0	 5.133319999991932e+000	 9.599986199732193e+000	 1.000270317214519e+001
0	 5.133319999991932e+000	 9.666656597019093e+000	 1.000193977058405e+001
0	 5.133319999991934e+000	 9.733326577638575e+000	 1.000130111797002e+001
0	 5.133319999991934e+000	 9.799996024918524e+000	 1.000077991217981e+001
0	 5.133319999991932e+000	 9.866664822186818e+000	 1.000036885416563e+001
0	 5.133319999991933e+000	 9.933332852771354e+000	 1.000006064795512e+001
0	 5.133319999991933e+000	 1.000000000000000e+001	 9.999848000652007e+000
0	 5.199979999988400e+000	 9.333302777352785e+000	 1.000718791456664e+001
0	 5.199979999988400e+000	 9.399973674588175e+000	 1.000584520945572e+001
0	 5.199979999988399e+000	 9.466644621844617e+000	 1.000465736643849e+001
0	 5.199979999988399e+000	 9.533315502449998e+000	 1.000361709493111e+001
0	 5.199979999988400e+000	 9.599986199732195e+000	 1.000271710744581e+001
0	 5.199979999988399e+000	 9.666656597019092e+000	 1.000195011959098e+001
0	 5.199979999988400e+000	 9.733326577638573e+000	 1.000130885007105e+001
0	 5.199979999988400e+000	 9.799996024918521e+000	 1.000078602068643e+001
0	 5.199979999988400e+000	 9.866664822186820e+000	 1.000037435633395e+001
0	 5.199979999988399e+000	 9.933332852771349e+000	 1.000006658500663e+001
0	 5.199979999988399e+000	 1.000000000000000e+001	 9.999855437794256e+000
0	 5.266639999985466e+000	 9.333302777352781e+000	 1.000721428116066e+001
0	 5.266639999985466e+000	 9.399973674588177e+000	 1.000586628203915e+001
0	 5.266639999985467e+000	 9.466644621844619e+000	 1.000467381487992e+001
0	 5.266639999985465e+000	 9.533315502449998e+000	 1.000362960920949e+001
0	 5.266639999985465e+000	 9.599986199732197e+000	 1.000272639766662e+001
0	 5.266639999985465e+000	 9.666656597019095e+000	 1.000195691600232e+001
0	 5.266639999985466e+000	 9.733326577638572e+000	 1.000131390307969e+001
0	 5.266639999985465e+000	 9.799996024918523e+000	 1.000079010087397e+001
0	 5.266639999985467e+000	 9.866664822186822e+000	 1.000037825447268e+001
0	 5.266639999985465e+000	 9.933332852771351e+000	 1.000007111207596e+001
0	 5.266639999985466e+000	 9.999999999999998e+000	 9.999861424996736e+000
0	 5.333299999983336e+000	 9.333302777352786e+000	 1.000722934432090e+001
0	 5.333299999983335e+000	 9.399973674588177e+000	 1.000587791758041e+001
0	 5.333299999983334e+000	 9.466644621844619e+000	 1.000468248596587e+001
0	 5.333299999983335e+000	 9.533315502450002e+000	 1.000363579538375e+001
0	 5.333299999983336e+000	 9.599986199732197e+000	 1.000273059486416e+001
0	 5.333299999983335e+000	 9.666656597019093e+000	 1.000195963656064e+001
0	 5.333299999983333e+000	 9.733326577638573e+000	 1.000131567575030e+001
0	 5.333299999983334e+000	 9.799996024918523e+000	 1.000079147083375e+001
0	 5.333299999983334e+000	 9.866664822186817e+000	 1.000037978333527e+001
0	 5.333299999983333e+000	 9.933332852771349e+000	 1.000007337790293e+001
0	 5.333299999983335e+000	 1.000000000000000e+001	 9.999865022309027e+000
0	 5.333299999983335e+000	 0.000000000000000e+000	 1.026099053445381e+001
0	 5.333299999983336e+000	 6.666714722864757e-002	 1.026084969830299e+001
0	 5.333299999983333e+000	 1.333351778131789e-001	 1.026181477607453e+001
0	 5.333299999983335e+000	 2.000039750814773e-001	 1.026376166746380e+001
0	 5.333299999983335e+000	 2.666734223614255e-001	 1.026656628190258e+001
0	 5.333299999983334e+000	 3.333434029809068e-001	 1.027010453855835e+001
0	 5.333299999983334e+000	 4.000138002678044e-001	 1.027425236633365e+001
0	 5.333299999983335e+000	 4.666844975500012e-001	 1.027888570386578e+001
0	 5.333299999983333e+000	 5.333553781553803e-001	 1.028388049952675e+001
0	 5.333299999983334e+000	 6.000263254118247e-001	 1.028911271142349e+001
0	 5.333299999983335e+000	 6.666972226472175e-001	 1.029445830739826e+001
0	 5.399969999982150e+000	 0.000000000000000e+000	 1.026123834105053e+001
0	 5.399969999982147e+000	 6.666714722864756e-002	 1.026076560913028e+001
0	 5.399969999982152e+000	 1.333351778131789e-001	 1.026112307822830e+001
0	 5.399969999982150e+000	 2.000039750814772e-001	 1.026223561782608e+001
0	 5.399969999982146e+000	 2.666734223614254e-001	 1.026402810725097e+001
0	 5.399969999982151e+000	 3.333434029809069e-001	 1.026642543567537e+001
0	 5.399969999982151e+000	 4.000138002678045e-001	 1.026935250211603e+001
0	 5.399969999982150e+000	 4.666844975500012e-001	 1.027273421543371e+001
0	 5.399969999982150e+000	 5.333553781553801e-001	 1.027649549433308e+001
0	 5.399969999982149e+000	 6.000263254118247e-001	 1.028056126736284e+001
0	 5.399969999982150e+000	 6.666972226472175e-001	 1.028485647291614e+001
0	 5.466639999981866e+000	 0.000000000000000e+000	 1.025970505558055e+001
0	 5.466639999981865e+000	 6.666714722864754e-002	 1.025910461383079e+001
0	 5.466639999981864e+000	 1.333351778131789e-001	 1.025909004742979e+001
0	 5.466639999981866e+000	 2.000039750814773e-001	 1.025962818667221e+001
0	 5.466639999981864e+000	 2.666734223614254e-001	 1.026068587167028e+001
0	 5.466639999981867e+000	 3.333434029809070e-001	 1.026222995235271e+001
0	 5.466639999981865e+000	 4.000138002678044e-001	 1.026422728846421e+001
0	 5.466639999981866e+000	 4.666844975500011e-001	 1.026664474956493e+001
0	 5.466639999981868e+000	 5.333553781553803e-001	 1.026944921503041e+001
0	 5.466639999981866e+000	 6.000263254118248e-001	 1.027260757405168e+001
0	 5.466639999981866e+000	 6.666972226472178e-001	 1.027608672563562e+001
0	 5.533309999982383e+000	 0.000000000000000e+000	 1.025652670424865e+001
0	 5.533309999982382e+000	 6.666714722864757e-002	 1.025596326522392e+001
0	 5.533309999982383e+000	 1.333351778131790e-001	 1.025577464867018e+001
0	 5.533309999982384e+000	 2.000039750814773e-001	 1.025596263645510e+001
0	 5.533309999982381e+000	 2.666734223614256e-001	 1.025652902011741e+001
0	 5.533309999982381e+000	 3.333434029809069e-001	 1.025747560086597e+001
0	 5.533309999982384e+000	 4.000138002678045e-001	 1.025880418957908e+001
0	 5.533309999982382e+000	 4.666844975500011e-001	 1.026051660680415e+001
0	 5.533309999982382e+000	 5.333553781553803e-001	 1.026261468275751e+001
0	 5.533309999982383e+000	 6.000263254118247e-001	 1.026510025732447e+001
0	 5.533309999982380e+000	 6.666972226472174e-001	 1.026797518005973e+001
0	 5.599979999983598e+000	 0.000000000000000e+000	 1.025183931325954e+001
0	 5.599979999983598e+000	 6.666714722864756e-002	 1.025143811612901e+001
0	 5.599979999983598e+000	 1.333351778131789e-001	 1.025123584694071e+001
0	 5.599979999983599e+000	 2.000039750814772e-001	 1.025126222962766e+001
0	 5.599979999983599e+000	 2.666734223614256e-001	 1.025154699754933e+001
0	 5.599979999983598e+000	 3.333434029809068e-001	 1.025211989349068e+001
0	 5.599979999983598e+000	 4.000138002678043e-001	 1.025301066966151e+001
0	 5.599979999983598e+000	 4.666844975500012e-001	 1.025424908769614e+001
0	 5.599979999983598e+000	 5.333553781553801e-001	 1.025586491865318e+001
0	 5.599979999983599e+000	 6.000263254118247e-001	 1.025788794301568e+001
0	 5.599979999983598e+000	 6.666972226472175e-001	 1.026034795069145e+001
0	 5.666649999985415e+000	 0.000000000000000e+000	 1.024577890881798e+001
0	 5.666649999985415e+000	 6.666714722864757e-002	 1.024562571936546e+001
0	 5.666649999985415e+000	 1.333351778131789e-001	 1.024553260723256e+001
0	 5.666649999985416e+000	 2.000039750814773e-001	 1.024555022864277e+001
0	 5.666649999985416e+000	 2.666734223614256e-001	 1.024572924892295e+001
0	 5.666649999985415e+000	 3.333434029809069e-001	 1.024612034250241e+001
0	 5.666649999985414e+000	 4.000138002678043e-001	 1.024677419291239e+001
0	 5.666649999985415e+000	 4.666844975500011e-001	 1.024774149278560e+001
0	 5.666649999985416e+000	 5.333553781553803e-001	 1.024907294385619e+001
0	 5.666649999985414e+000	 6.000263254118247e-001	 1.025081925695975e+001
0	 5.666649999985415e+000	 6.666972226472175e-001	 1.025303115203377e+001
0	 5.733319999987732e+000	 0.000000000000000e+000	 1.023848151712868e+001
0	 5.733319999987730e+000	 6.666714722864756e-002	 1.023862262775258e+001
0	 5.733319999987733e+000	 1.333351778131790e-001	 1.023872389453689e+001
0	 5.733319999987733e+000	 2.000039750814773e-001	 1.023884989595331e+001
0	 5.733319999987730e+000	 2.666734223614254e-001	 1.023906521919516e+001
0	 5.733319999987732e+000	 3.333434029809069e-001	 1.023943446017672e+001
0	 5.733319999987732e+000	 4.000138002678044e-001	 1.024002222353257e+001
0	 5.733319999987732e+000	 4.666844975500011e-001	 1.024089312261727e+001
0	 5.733319999987732e+000	 5.333553781553803e-001	 1.024211177950530e+001
0	 5.733319999987732e+000	 6.000263254118248e-001	 1.024374282499115e+001
0	 5.733319999987731e+000	 6.666972226472175e-001	 1.024585089858968e+001
0	 5.799989999990449e+000	 0.000000000000000e+000	 1.023008316439637e+001
0	 5.799989999990448e+000	 6.666714722864754e-002	 1.023052539410974e+001
0	 5.799989999990449e+000	 1.333351778131790e-001	 1.023086867384492e+001
0	 5.799989999990449e+000	 2.000039750814773e-001	 1.023118449401213e+001
0	 5.799989999990448e+000	 2.666734223614255e-001	 1.023154435332289e+001
0	 5.799989999990450e+000	 3.333434029809069e-001	 1.023201975878915e+001
0	 5.799989999990450e+000	 4.000138002678044e-001	 1.023268222572292e+001
0	 5.799989999990448e+000	 4.666844975500011e-001	 1.023360327773586e+001
0	 5.799989999990449e+000	 5.333553781553804e-001	 1.023485444673930e+001
0	 5.799989999990448e+000	 6.000263254118247e-001	 1.023650727294433e+001
0	 5.799989999990447e+000	 6.666972226472177e-001	 1.023863330486217e+001
0	 5.866659999993465e+000	 0.000000000000000e+000	 1.022071987682575e+001
0	 5.866659999993465e+000	 6.666714722864756e-002	 1.022143057125629e+001
0	 5.866659999993463e+000	 1.333351778131789e-001	 1.022202591014778e+001
0	 5.866659999993463e+000	 2.000039750814772e-001	 1.022257728527211e+001
0	 5.866659999993466e+000	 2.666734223614256e-001	 1.022315609626301e+001
0	 5.866659999993466e+000	 3.333434029809069e-001	 1.022383375061523e+001
0	 5.866659999993464e+000	 4.000138002678044e-001	 1.022468166368430e+001
0	 5.866659999993464e+000	 4.666844975500011e-001	 1.022577125868609e+001
0	 5.866659999993465e+000	 5.333553781553803e-001	 1.022717396669695e+001
0	 5.866659999993464e+000	 6.000263254118247e-001	 1.022896122665373e+001
0	 5.866659999993466e+000	 6.666972226472177e-001	 1.023120448535424e+001
0	 5.933329999996681e+000	 0.000000000000000e+000	 1.021052768062153e+001
0	 5.933329999996681e+000	 6.666714722864756e-002	 1.021143471201152e+001
0	 5.933329999996682e+000	 1.333351778131789e-001	 1.021225456843663e+001
0	 5.933329999996682e+000	 2.000039750814772e-001	 1.021305153218613e+001
0	 5.933329999996681e+000	 2.666734223614256e-001	 1.021388989297241e+001
0	 5.933329999996681e+000	 3.333434029809069e-001	 1.021483394793049e+001
0	 5.933329999996680e+000	 4.000138002678043e-001	 1.021594800161753e+001
0	 5.933329999996681e+000	 4.666844975500012e-001	 1.021729636601266e+001
0	 5.933329999996681e+000	 5.333553781553801e-001	 1.021894336051700e+001
0	 5.933329999996681e+000	 6.000263254118248e-001	 1.022095331195380e+001
0	 5.933329999996681e+000	 6.666972226472177e-001	 1.022339055456884e+001
0	 6.000000000000000e+000	 0.000000000000000e+000	 1.019964260198838e+001
0	 6.000000000000000e+000	 6.666714722864756e-002	 1.020063436919476e+001
0	 5.999999999999999e+000	 1.333351778131789e-001	 1.020161361370262e+001
0	 5.999999999999999e+000	 2.000039750814772e-001	 1.020263049720698e+001
0	 6.000000000000000e+000	 2.666734223614256e-001	 1.020373518840798e+001
0	 6.000000000000000e+000	 3.333434029809069e-001	 1.020497786301045e+001
0	 6.000000000000001e+000	 4.000138002678044e-001	 1.020640870372346e+001
0	 5.999999999999997e+000	 4.666844975500011e-001	 1.020807790026027e+001
0	 6.000000000000000e+000	 5.333553781553803e-001	 1.021003564933821e+001
0	 6.000000000000001e+000	 6.000263254118247e-001	 1.021233215467897e+001
0	 6.000000000000002e+000	 6.666972226472177e-001	 1.021501762700897e+001
0	 5.333299999983335e+000	 6.666972226472175e-001	 1.029445830739826e+001
0	 5.333299999983333e+000	 7.333579753122048e-001	 1.029973012487756e+001
0	 5.333299999983335e+000	 8.000185779984421e-001	 1.030488027034783e+001
0	 5.333299999983334e+000	 8.666790473703455e-001	 1.030999120941269e+001
0	 5.333299999983336e+000	 9.333394000923325e-001	 1.031514540657554e+001
0	 5.333299999983335e+000	 9.999996528288192e-001	 1.032042532523952e+001
0	 5.333299999983332e+000	 1.066659822244222e+000	 1.032591342770753e+001
0	 5.333299999983334e+000	 1.133319925002959e+000	 1.033169217518226e+001
0	 5.333299999983334e+000	 1.199979977769445e+000	 1.033784402776615e+001
0	 5.333299999983334e+000	 1.266639997208098e+000	 1.034445144446147e+001
0	 5.333299999983335e+000	 1.333299999983334e+000	 1.035159688317028e+001
0	 5.399969999982150e+000	 6.666972226472175e-001	 1.028485647291613e+001
0	 5.399969999982149e+000	 7.333579753122046e-001	 1.028925568471306e+001
0	 5.399969999982151e+000	 8.000185779984419e-001	 1.029372899133545e+001
0	 5.399969999982149e+000	 8.666790473703454e-001	 1.029834263685495e+001
0	 5.399969999982148e+000	 9.333394000923321e-001	 1.030316286415688e+001
0	 5.399969999982148e+000	 9.999996528288190e-001	 1.030825591494021e+001
0	 5.399969999982150e+000	 1.066659822244222e+000	 1.031368802971758e+001
0	 5.399969999982149e+000	 1.133319925002959e+000	 1.031952544781529e+001
0	 5.399969999982149e+000	 1.199979977769445e+000	 1.032583440737336e+001
0	 5.399969999982150e+000	 1.266639997208098e+000	 1.033268114534547e+001
0	 5.399969999982148e+000	 1.333299999983333e+000	 1.034013189749902e+001
0	 5.466639999981866e+000	 6.666972226472178e-001	 1.027608672563562e+001
0	 5.466639999981867e+000	 7.333579753122049e-001	 1.027980083472040e+001
0	 5.466639999981864e+000	 8.000185779984419e-001	 1.028372190626246e+001
0	 5.466639999981866e+000	 8.666790473703454e-001	 1.028790197300529e+001
0	 5.466639999981867e+000	 9.333394000923324e-001	 1.029239306648939e+001
0	 5.466639999981867e+000	 9.999996528288191e-001	 1.029724721705235e+001
0	 5.466639999981864e+000	 1.066659822244222e+000	 1.030251645382881e+001
0	 5.466639999981866e+000	 1.133319925002959e+000	 1.030825280475048e+001
0	 5.466639999981867e+000	 1.199979977769446e+000	 1.031450829654615e+001
0	 5.466639999981864e+000	 1.266639997208098e+000	 1.032133495474167e+001
0	 5.466639999981866e+000	 1.333299999983334e+000	 1.032878480366003e+001
0	 5.533309999982380e+000	 6.666972226472174e-001	 1.026797518005973e+001
0	 5.533309999982381e+000	 7.333579753122047e-001	 1.027117419166546e+001
0	 5.533309999982383e+000	 8.000185779984416e-001	 1.027465827102424e+001
0	 5.533309999982384e+000	 8.666790473703457e-001	 1.027846724981406e+001
0	 5.533309999982381e+000	 9.333394000923323e-001	 1.028264095855065e+001
0	 5.533309999982382e+000	 9.999996528288190e-001	 1.028721922658744e+001
0	 5.533309999982381e+000	 1.066659822244222e+000	 1.029224188211563e+001
0	 5.533309999982381e+000	 1.133319925002959e+000	 1.029774875216415e+001
0	 5.533309999982381e+000	 1.199979977769445e+000	 1.030377966259967e+001
0	 5.533309999982382e+000	 1.266639997208098e+000	 1.031037443812663e+001
0	 5.533309999982383e+000	 1.333299999983334e+000	 1.031757290228729e+001
0	 5.599979999983598e+000	 6.666972226472175e-001	 1.026034795069145e+001
0	 5.599979999983599e+000	 7.333579753122048e-001	 1.026318437231407e+001
0	 5.599979999983598e+000	 8.000185779984419e-001	 1.026633734151610e+001
0	 5.599979999983598e+000	 8.666790473703454e-001	 1.026983649923165e+001
0	 5.599979999983598e+000	 9.333394000923322e-001	 1.027371148531826e+001
0	 5.599979999983598e+000	 9.999996528288192e-001	 1.027799193855700e+001
0	 5.599979999983598e+000	 1.066659822244222e+000	 1.028270749665243e+001
0	 5.599979999983598e+000	 1.133319925002959e+000	 1.028788779623260e+001
0	 5.599979999983598e+000	 1.199979977769445e+000	 1.029356247284906e+001
0	 5.599979999983599e+000	 1.266639997208098e+000	 1.029976116097690e+001
0	 5.599979999983599e+000	 1.333299999983334e+000	 1.030651349401474e+001
0	 5.666649999985415e+000	 6.666972226472175e-001	 1.025303115203377e+001
0	 5.666649999985415e+000	 7.333579753122048e-001	 1.025563999343210e+001
0	 5.666649999985413e+000	 8.000185779984419e-001	 1.025855837363342e+001
0	 5.666649999985415e+000	 8.666790473703456e-001	 1.026180775320840e+001
0	 5.666649999985415e+000	 9.333394000923322e-001	 1.026540959176981e+001
0	 5.666649999985417e+000	 9.999996528288189e-001	 1.026938534797254e+001
0	 5.666649999985417e+000	 1.066659822244223e+000	 1.027375647951360e+001
0	 5.666649999985415e+000	 1.133319925002959e+000	 1.027854444313217e+001
0	 5.666649999985416e+000	 1.199979977769445e+000	 1.028377069460948e+001
0	 5.666649999985416e+000	 1.266639997208098e+000	 1.028945668876901e+001
0	 5.666649999985416e+000	 1.333299999983334e+000	 1.029562387947634e+001
0	 5.733319999987731e+000	 6.666972226472175e-001	 1.024585089858968e+001
0	 5.733319999987732e+000	 7.333579753122048e-001	 1.024834967178539e+001
0	 5.733319999987729e+000	 8.000185779984415e-001	 1.025112062327153e+001
0	 5.733319999987731e+000	 8.666790473703456e-001	 1.025417904369470e+001
0	 5.733319999987732e+000	 9.333394000923325e-001	 1.025754022288290e+001
0	 5.733319999987732e+000	 9.999996528288191e-001	 1.026121944984557e+001
0	 5.733319999987733e+000	 1.066659822244222e+000	 1.026523201277356e+001
0	 5.733319999987732e+000	 1.133319925002959e+000	 1.026959319903916e+001
0	 5.733319999987733e+000	 1.199979977769445e+000	 1.027431829519608e+001
0	 5.733319999987731e+000	 1.266639997208098e+000	 1.027942258697949e+001
0	 5.733319999987732e+000	 1.333299999983334e+000	 1.028492135930605e+001
0	 5.799989999990447e+000	 6.666972226472177e-001	 1.023863330486218e+001
0	 5.799989999990448e+000	 7.333579753122046e-001	 1.024112202413981e+001
0	 5.799989999990450e+000	 8.000185779984418e-001	 1.024382334632579e+001
0	 5.799989999990449e+000	 8.666790473703455e-001	 1.024674840264089e+001
0	 5.799989999990449e+000	 9.333394000923325e-001	 1.024990832363512e+001
0	 5.799989999990449e+000	 9.999996528288192e-001	 1.025331423918760e+001
0	 5.799989999990450e+000	 1.066659822244223e+000	 1.025697727850669e+001
0	 5.799989999990448e+000	 1.133319925002959e+000	 1.026090857012990e+001
0	 5.799989999990448e+000	 1.199979977769445e+000	 1.026511924192398e+001
0	 5.799989999990448e+000	 1.266639997208098e+000	 1.026962042108490e+001
0	 5.799989999990448e+000	 1.333299999983334e+000	 1.027442323413781e+001
0	 5.866659999993466e+000	 6.666972226472177e-001	 1.023120448535424e+001
0	 5.866659999993464e+000	 7.333579753122049e-001	 1.023376566726119e+001
0	 5.866659999993465e+000	 8.000185779984417e-001	 1.023646579869151e+001
0	 5.866659999993464e+000	 8.666790473703453e-001	 1.023931386199736e+001
0	 5.866659999993463e+000	 9.333394000923321e-001	 1.024231883900405e+001
0	 5.866659999993466e+000	 9.999996528288190e-001	 1.024548971101015e+001
0	 5.866659999993466e+000	 1.066659822244223e+000	 1.024883545878738e+001
0	 5.866659999993464e+000	 1.133319925002959e+000	 1.025236506258072e+001
0	 5.866659999993465e+000	 1.199979977769445e+000	 1.025608750210836e+001
0	 5.866659999993465e+000	 1.266639997208098e+000	 1.026001175656175e+001
0	 5.866659999993463e+000	 1.333299999983333e+000	 1.026414680460560e+001
0	 5.933329999996681e+000	 6.666972226472177e-001	 1.022339055456884e+001
0	 5.933329999996682e+000	 7.333579753122047e-001	 1.022608921791539e+001
0	 5.933329999996681e+000	 8.000185779984418e-001	 1.022884723626408e+001
0	 5.933329999996681e+000	 8.666790473703454e-001	 1.023167345371446e+001
0	 5.933329999996682e+000	 9.333394000923323e-001	 1.023457671396732e+001
0	 5.933329999996681e+000	 9.999996528288192e-001	 1.023756586032472e+001
0	 5.933329999996681e+000	 1.066659822244223e+000	 1.024064973569004e+001
0	 5.933329999996680e+000	 1.133319925002959e+000	 1.024383718256793e+001
0	 5.933329999996682e+000	 1.199979977769445e+000	 1.024713704306435e+001
0	 5.933329999996682e+000	 1.266639997208098e+000	 1.025055815888662e+001
0	 5.933329999996681e+000	 1.333299999983334e+000	 1.025410937134335e+001
0	 6.000000000000002e+000	 6.666972226472177e-001	 1.021501762700897e+001
0	 6.000000000000000e+000	 7.333579753122046e-001	 1.021790129286824e+001
0	 5.999999999999999e+000	 8.000185779984420e-001	 1.022076691493882e+001
0	 6.000000000000000e+000	 8.666790473703453e-001	 1.022362520974255e+001
0	 5.999999999999999e+000	 9.333394000923323e-001	 1.022648689350249e+001
0	 6.000000000000001e+000	 9.999996528288192e-001	 1.022936268214283e+001
0	 6.000000000000000e+000	 1.066659822244222e+000	 1.023226329128906e+001
0	 5.999999999999999e+000	 1.133319925002959e+000	 1.023519943626785e+001
0	 6.000000000000002e+000	 1.199979977769446e+000	 1.023818183210711e+001
0	 5.999999999999999e+000	 1.266639997208098e+000	 1.024122119353603e+001
0	 6.000000000000001e+000	 1.333299999983334e+000	 1.024432823498504e+001
0	 5.333299999983335e+000	 1.333299999983334e+000	 1.035159688317029e+001
0	 5.333299999983334e+000	 1.399969999982150e+000	 1.035877638822647e+001
0	 5.333299999983335e+000	 1.466639999981867e+000	 1.036544559060021e+001
0	 5.333299999983333e+000	 1.533309999982383e+000	 1.037162967652874e+001
0	 5.333299999983334e+000	 1.599979999983600e+000	 1.037735383224931e+001
0	 5.333299999983332e+000	 1.666649999985416e+000	 1.038264324399919e+001
0	 5.333299999983334e+000	 1.733319999987733e+000	 1.038752309801561e+001
0	 5.333299999983334e+000	 1.799989999990450e+000	 1.039201858053582e+001
0	 5.333299999983333e+000	 1.866659999993467e+000	 1.039615487779705e+001
0	 5.333299999983336e+000	 1.933329999996684e+000	 1.039995717603655e+001
0	 5.333299999983333e+000	 2.000000000000000e+000	 1.040345066149154e+001
0	 5.399969999982148e+000	 1.333299999983333e+000	 1.034013189749902e+001
0	 5.399969999982148e+000	 1.399969999982150e+000	 1.034759896555366e+001
0	 5.399969999982150e+000	 1.466639999981867e+000	 1.035446848326525e+001
0	 5.399969999982149e+000	 1.533309999982383e+000	 1.036077093259259e+001
0	 5.399969999982149e+000	 1.599979999983600e+000	 1.036653679549454e+001
0	 5.399969999982149e+000	 1.666649999985417e+000	 1.037179655392989e+001
0	 5.399969999982151e+000	 1.733319999987733e+000	 1.037658068985747e+001
0	 5.399969999982149e+000	 1.799989999990450e+000	 1.038091968523609e+001
0	 5.399969999982150e+000	 1.866659999993467e+000	 1.038484402202456e+001
0	 5.399969999982150e+000	 1.933329999996684e+000	 1.038838418218167e+001
0	 5.399969999982149e+000	 2.000000000000000e+000	 1.039157064766622e+001
0	 5.466639999981866e+000	 1.333299999983334e+000	 1.032878480366003e+001
0	 5.466639999981866e+000	 1.399969999982150e+000	 1.033623730493193e+001
0	 5.466639999981866e+000	 1.466639999981867e+000	 1.034305798102113e+001
0	 5.466639999981866e+000	 1.533309999982383e+000	 1.034928144740147e+001
0	 5.466639999981867e+000	 1.599979999983600e+000	 1.035494231954686e+001
0	 5.466639999981866e+000	 1.666649999985416e+000	 1.036007521293118e+001
0	 5.466639999981866e+000	 1.733319999987733e+000	 1.036471474302829e+001
0	 5.466639999981868e+000	 1.799989999990450e+000	 1.036889552531205e+001
0	 5.466639999981866e+000	 1.866659999993467e+000	 1.037265217525633e+001
0	 5.466639999981867e+000	 1.933329999996684e+000	 1.037601930833499e+001
0	 5.466639999981869e+000	 2.000000000000000e+000	 1.037903154002188e+001
0	 5.533309999982383e+000	 1.333299999983334e+000	 1.031757290228729e+001
0	 5.533309999982382e+000	 1.399969999982150e+000	 1.032476414771507e+001
0	 5.533309999982381e+000	 1.466639999981866e+000	 1.033133352215110e+001
0	 5.533309999982382e+000	 1.533309999982383e+000	 1.033731861237780e+001
0	 5.533309999982383e+000	 1.599979999983600e+000	 1.034275700517759e+001
0	 5.533309999982381e+000	 1.666649999985416e+000	 1.034768628733290e+001
0	 5.533309999982381e+000	 1.733319999987733e+000	 1.035214404562614e+001
0	 5.533309999982381e+000	 1.799989999990450e+000	 1.035616786683971e+001
0	 5.533309999982383e+000	 1.866659999993467e+000	 1.035979533775602e+001
0	 5.533309999982385e+000	 1.933329999996684e+000	 1.036306404515748e+001
0	 5.533309999982382e+000	 2.000000000000000e+000	 1.036601157582647e+001
0	 5.599979999983599e+000	 1.333299999983334e+000	 1.030651349401474e+001
0	 5.599979999983599e+000	 1.399969999982150e+000	 1.031325223525683e+001
0	 5.599979999983600e+000	 1.466639999981867e+000	 1.031941454493844e+001
0	 5.599979999983598e+000	 1.533309999982383e+000	 1.032503981894403e+001
0	 5.599979999983598e+000	 1.599979999983599e+000	 1.033016745315805e+001
0	 5.599979999983599e+000	 1.666649999985417e+000	 1.033483684346494e+001
0	 5.599979999983599e+000	 1.733319999987733e+000	 1.033908738574915e+001
0	 5.599979999983598e+000	 1.799989999990450e+000	 1.034295847589511e+001
0	 5.599979999983598e+000	 1.866659999993467e+000	 1.034648950978727e+001
0	 5.599979999983598e+000	 1.933329999996684e+000	 1.034971988331006e+001
0	 5.599979999983598e+000	 2.000000000000000e+000	 1.035268899234790e+001
0	 5.666649999985416e+000	 1.333299999983334e+000	 1.029562387947634e+001
0	 5.666649999985416e+000	 1.399969999982150e+000	 1.030177430891098e+001
0	 5.666649999985417e+000	 1.466639999981867e+000	 1.030742048766641e+001
0	 5.666649999985417e+000	 1.533309999982383e+000	 1.031260245852259e+001
0	 5.666649999985414e+000	 1.599979999983600e+000	 1.031736026425952e+001
0	 5.666649999985415e+000	 1.666649999985416e+000	 1.032173394765712e+001
0	 5.666649999985414e+000	 1.733319999987733e+000	 1.032576355149539e+001
0	 5.666649999985416e+000	 1.799989999990450e+000	 1.032948911855427e+001
0	 5.666649999985416e+000	 1.866659999993467e+000	 1.033295069161372e+001
0	 5.666649999985415e+000	 1.933329999996684e+000	 1.033618831345368e+001
0	 5.666649999985415e+000	 2.000000000000000e+000	 1.033924202685410e+001
0	 5.733319999987732e+000	 1.333299999983334e+000	 1.028492135930605e+001
0	 5.733319999987732e+000	 1.399969999982150e+000	 1.029040311003128e+001
0	 5.733319999987733e+000	 1.466639999981867e+000	 1.029547078861825e+001
0	 5.733319999987733e+000	 1.533309999982383e+000	 1.030016392253594e+001
0	 5.733319999987729e+000	 1.599979999983600e+000	 1.030452203925332e+001
0	 5.733319999987732e+000	 1.666649999985416e+000	 1.030858466623935e+001
0	 5.733319999987733e+000	 1.733319999987733e+000	 1.031239133096301e+001
0	 5.733319999987731e+000	 1.799989999990450e+000	 1.031598156089324e+001
0	 5.733319999987732e+000	 1.866659999993467e+000	 1.031939488349901e+001
0	 5.733319999987731e+000	 1.933329999996684e+000	 1.032267082624928e+001
0	 5.733319999987733e+000	 2.000000000000000e+000	 1.032584891661301e+001
0	 5.799989999990448e+000	 1.333299999983334e+000	 1.027442323413781e+001
0	 5.799989999990447e+000	 1.399969999982150e+000	 1.027921137997151e+001
0	 5.799989999990446e+000	 1.466639999981866e+000	 1.028368488607726e+001
0	 5.799989999990448e+000	 1.533309999982383e+000	 1.028788160240653e+001
0	 5.799989999990449e+000	 1.599979999983600e+000	 1.029183937891078e+001
0	 5.799989999990448e+000	 1.666649999985416e+000	 1.029559606554148e+001
0	 5.799989999990449e+000	 1.733319999987733e+000	 1.029918951225007e+001
0	 5.799989999990448e+000	 1.799989999990450e+000	 1.030265756898802e+001
0	 5.799989999990448e+000	 1.866659999993467e+000	 1.030603808570679e+001
0	 5.799989999990448e+000	 1.933329999996684e+000	 1.030936891235781e+001
0	 5.799989999990447e+000	 2.000000000000000e+000	 1.031268789889255e+001
0	 5.866659999993463e+000	 1.333299999983333e+000	 1.026414680460560e+001
0	 5.866659999993465e+000	 1.399969999982150e+000	 1.026827186008542e+001
0	 5.866659999993463e+000	 1.466639999981866e+000	 1.027218221832667e+001
0	 5.866659999993463e+000	 1.533309999982383e+000	 1.027591288955678e+001
0	 5.866659999993465e+000	 1.599979999983600e+000	 1.027949888400320e+001
0	 5.866659999993465e+000	 1.666649999985416e+000	 1.028297521189336e+001
0	 5.866659999993464e+000	 1.733319999987733e+000	 1.028637688345470e+001
0	 5.866659999993465e+000	 1.799989999990450e+000	 1.028973890891468e+001
0	 5.866659999993465e+000	 1.866659999993467e+000	 1.029309629850070e+001
0	 5.866659999993466e+000	 1.933329999996684e+000	 1.029648406244022e+001
0	 5.866659999993464e+000	 2.000000000000000e+000	 1.029993721096067e+001
0	 5.933329999996681e+000	 1.333299999983334e+000	 1.025410937134335e+001
0	 5.933329999996681e+000	 1.399969999982150e+000	 1.025765729172680e+001
0	 5.933329999996682e+000	 1.466639999981867e+000	 1.026108222364977e+001
0	 5.933329999996682e+000	 1.533309999982383e+000	 1.026441517540916e+001
0	 5.933329999996682e+000	 1.599979999983600e+000	 1.026768715530189e+001
0	 5.933329999996682e+000	 1.666649999985416e+000	 1.027092917162488e+001
0	 5.933329999996682e+000	 1.733319999987733e+000	 1.027417223267502e+001
0	 5.933329999996684e+000	 1.799989999990450e+000	 1.027744734674922e+001
0	 5.933329999996682e+000	 1.866659999993467e+000	 1.028078552214440e+001
0	 5.933329999996682e+000	 1.933329999996684e+000	 1.028421776715745e+001
0	 5.933329999996681e+000	 2.000000000000000e+000	 1.028777509008529e+001
0	 6.000000000000001e+000	 1.333299999983334e+000	 1.024432823498504e+001
0	 6.000000000000000e+000	 1.399969999982150e+000	 1.024744041624940e+001
0	 6.000000000000000e+000	 1.466639999981866e+000	 1.025050434032981e+001
0	 6.000000000000002e+000	 1.533309999982383e+000	 1.025354585138611e+001
0	 6.000000000000000e+000	 1.599979999983600e+000	 1.025659079357819e+001
0	 5.999999999999998e+000	 1.666649999985417e+000	 1.025966501106589e+001
0	 6.000000000000000e+000	 1.733319999987733e+000	 1.026279434800911e+001
0	 5.999999999999999e+000	 1.799989999990450e+000	 1.026600464856769e+001
0	 5.999999999999998e+000	 1.866659999993466e+000	 1.026932175690152e+001
0	 6.000000000000002e+000	 1.933329999996684e+000	 1.027277151717044e+001
0	 5.999999999999998e+000	 2.000000000000000e+000	 1.027637977353435e+001
0	 5.333299999983333e+000	 2.000000000000000e+000	 1.040345066149154e+001
0	 5.333299999983334e+000	 2.066670000003317e+000	 1.040650608164669e+001
0	 5.333299999983334e+000	 2.133340000006534e+000	 1.040900028061059e+001
0	 5.333299999983336e+000	 2.200010000009551e+000	 1.041096758955630e+001
0	 5.333299999983335e+000	 2.266680000012267e+000	 1.041244233965689e+001
0	 5.333299999983334e+000	 2.333350000014584e+000	 1.041345886208541e+001
0	 5.333299999983335e+000	 2.400020000016401e+000	 1.041405148801493e+001
0	 5.333299999983333e+000	 2.466690000017617e+000	 1.041425454861849e+001
0	 5.333299999983333e+000	 2.533360000018134e+000	 1.041410237506913e+001
0	 5.333299999983334e+000	 2.600030000017851e+000	 1.041362929853989e+001
0	 5.333299999983334e+000	 2.666700000016666e+000	 1.041286965020379e+001
0	 5.399969999982149e+000	 2.000000000000000e+000	 1.039157064766622e+001
0	 5.399969999982150e+000	 2.066670000003317e+000	 1.039434686174390e+001
0	 5.399969999982151e+000	 2.133340000006534e+000	 1.039664978898248e+001
0	 5.399969999982150e+000	 2.200010000009551e+000	 1.039850019329392e+001
0	 5.399969999982151e+000	 2.266680000012268e+000	 1.039991883859018e+001
0	 5.399969999982150e+000	 2.333350000014585e+000	 1.040092648878320e+001
0	 5.399969999982150e+000	 2.400020000016401e+000	 1.040154390778494e+001
0	 5.399969999982149e+000	 2.466690000017617e+000	 1.040179185950731e+001
0	 5.399969999982149e+000	 2.533360000018133e+000	 1.040169110786224e+001
0	 5.399969999982151e+000	 2.600030000017851e+000	 1.040126241676166e+001
0	 5.399969999982150e+000	 2.666700000016667e+000	 1.040052655011749e+001
0	 5.466639999981869e+000	 2.000000000000000e+000	 1.037903154002188e+001
0	 5.466639999981866e+000	 2.066670000003317e+000	 1.038167594308875e+001
0	 5.466639999981865e+000	 2.133340000006534e+000	 1.038392283280157e+001
0	 5.466639999981867e+000	 2.200010000009551e+000	 1.038578168837552e+001
0	 5.466639999981864e+000	 2.266680000012267e+000	 1.038726198902582e+001
0	 5.466639999981866e+000	 2.333350000014584e+000	 1.038837321396762e+001
0	 5.466639999981868e+000	 2.400020000016402e+000	 1.038912484241613e+001
0	 5.466639999981865e+000	 2.466690000017618e+000	 1.038952635358649e+001
0	 5.466639999981866e+000	 2.533360000018134e+000	 1.038958722669388e+001
0	 5.466639999981866e+000	 2.600030000017850e+000	 1.038931694095347e+001
0	 5.466639999981865e+000	 2.666700000016666e+000	 1.038872497558041e+001
0	 5.533309999982382e+000	 2.000000000000000e+000	 1.036601157582647e+001
0	 5.533309999982384e+000	 2.066670000003317e+000	 1.036864404616660e+001
0	 5.533309999982382e+000	 2.133340000006534e+000	 1.037094283278174e+001
0	 5.533309999982381e+000	 2.200010000009550e+000	 1.037290841275466e+001
0	 5.533309999982382e+000	 2.266680000012267e+000	 1.037454126316815e+001
0	 5.533309999982382e+000	 2.333350000014584e+000	 1.037584186110497e+001
0	 5.533309999982383e+000	 2.400020000016401e+000	 1.037681068364789e+001
0	 5.533309999982382e+000	 2.466690000017617e+000	 1.037744820787967e+001
0	 5.533309999982383e+000	 2.533360000018134e+000	 1.037775491088306e+001
0	 5.533309999982381e+000	 2.600030000017850e+000	 1.037773126974083e+001
0	 5.533309999982381e+000	 2.666700000016666e+000	 1.037737776153568e+001
0	 5.599979999983598e+000	 2.000000000000000e+000	 1.035268899234790e+001
0	 5.599979999983598e+000	 2.066670000003316e+000	 1.035540189146277e+001
0	 5.599979999983598e+000	 2.133340000006534e+000	 1.035783320963686e+001
0	 5.599979999983598e+000	 2.200010000009550e+000	 1.035997670438488e+001
0	 5.599979999983598e+000	 2.266680000012267e+000	 1.036182613322156e+001
0	 5.599979999983599e+000	 2.333350000014584e+000	 1.036337525366158e+001
0	 5.599979999983599e+000	 2.400020000016401e+000	 1.036461782321966e+001
0	 5.599979999983598e+000	 2.466690000017617e+000	 1.036554759941050e+001
0	 5.599979999983599e+000	 2.533360000018134e+000	 1.036615833974878e+001
0	 5.599979999983598e+000	 2.600030000017851e+000	 1.036644380174921e+001
0	 5.599979999983600e+000	 2.666700000016667e+000	 1.036639774292647e+001
0	 5.666649999985415e+000	 2.000000000000000e+000	 1.033924202685410e+001
0	 5.666649999985414e+000	 2.066670000003316e+000	 1.034210019946259e+001
0	 5.666649999985417e+000	 2.133340000006535e+000	 1.034471738408079e+001
0	 5.666649999985415e+000	 2.200010000009551e+000	 1.034708290121972e+001
0	 5.666649999985413e+000	 2.266680000012268e+000	 1.034918607139037e+001
0	 5.666649999985417e+000	 2.333350000014584e+000	 1.035101621510374e+001
0	 5.666649999985415e+000	 2.400020000016401e+000	 1.035256265287082e+001
0	 5.666649999985416e+000	 2.466690000017618e+000	 1.035381470520259e+001
0	 5.666649999985414e+000	 2.533360000018134e+000	 1.035476169261004e+001
0	 5.666649999985417e+000	 2.600030000017851e+000	 1.035539293560416e+001
0	 5.666649999985416e+000	 2.666700000016667e+000	 1.035569775469589e+001
0	 5.733319999987733e+000	 2.000000000000000e+000	 1.032584891661301e+001
0	 5.733319999987731e+000	 2.066670000003317e+000	 1.032888969065139e+001
0	 5.733319999987732e+000	 2.133340000006534e+000	 1.033171877682742e+001
0	 5.733319999987733e+000	 2.200010000009551e+000	 1.033432334121273e+001
0	 5.733319999987731e+000	 2.266680000012267e+000	 1.033669054987898e+001
0	 5.733319999987731e+000	 2.333350000014584e+000	 1.033880756889779e+001
0	 5.733319999987730e+000	 2.400020000016401e+000	 1.034066156434079e+001
0	 5.733319999987733e+000	 2.466690000017617e+000	 1.034223970227959e+001
0	 5.733319999987733e+000	 2.533360000018134e+000	 1.034352914878584e+001
0	 5.733319999987732e+000	 2.600030000017851e+000	 1.034451706993115e+001
0	 5.733319999987732e+000	 2.666700000016666e+000	 1.034519063178711e+001
0	 5.799989999990447e+000	 2.000000000000000e+000	 1.031268789889255e+001
0	 5.799989999990449e+000	 2.066670000003317e+000	 1.031592108551449e+001
0	 5.799989999990448e+000	 2.133340000006534e+000	 1.031896080859059e+001
0	 5.799989999990450e+000	 2.200010000009551e+000	 1.032179436231746e+001
0	 5.799989999990447e+000	 2.266680000012268e+000	 1.032440904089174e+001
0	 5.799989999990447e+000	 2.333350000014584e+000	 1.032679213851003e+001
0	 5.799989999990449e+000	 2.400020000016401e+000	 1.032893094936896e+001
0	 5.799989999990448e+000	 2.466690000017618e+000	 1.033081276766514e+001
0	 5.799989999990448e+000	 2.533360000018134e+000	 1.033242488759519e+001
0	 5.799989999990448e+000	 2.600030000017850e+000	 1.033375460335569e+001
0	 5.799989999990447e+000	 2.666700000016666e+000	 1.033478920914325e+001
0	 5.866659999993464e+000	 2.000000000000000e+000	 1.029993721096067e+001
0	 5.866659999993463e+000	 2.066670000003316e+000	 1.030334510453725e+001
0	 5.866659999993463e+000	 2.133340000006534e+000	 1.030656690008419e+001
0	 5.866659999993465e+000	 2.200010000009550e+000	 1.030959230248746e+001
0	 5.866659999993464e+000	 2.266680000012268e+000	 1.031241101663301e+001
0	 5.866659999993467e+000	 2.333350000014584e+000	 1.031501274740678e+001
0	 5.866659999993466e+000	 2.400020000016401e+000	 1.031738719969475e+001
0	 5.866659999993463e+000	 2.466690000017618e+000	 1.031952407838285e+001
0	 5.866659999993465e+000	 2.533360000018134e+000	 1.032141308835705e+001
0	 5.866659999993464e+000	 2.600030000017850e+000	 1.032304393450327e+001
0	 5.866659999993464e+000	 2.666700000016666e+000	 1.032440632170745e+001
0	 5.933329999996681e+000	 2.000000000000000e+000	 1.028777509008529e+001
0	 5.933329999996682e+000	 2.066670000003317e+000	 1.029131246820499e+001
0	 5.933329999996682e+000	 2.133340000006533e+000	 1.029466047202209e+001
0	 5.933329999996682e+000	 2.200010000009550e+000	 1.029781349967626e+001
0	 5.933329999996682e+000	 2.266680000012268e+000	 1.030076594930713e+001
0	 5.933329999996682e+000	 2.333350000014584e+000	 1.030351221905435e+001
0	 5.933329999996682e+000	 2.400020000016402e+000	 1.030604670705755e+001
0	 5.933329999996682e+000	 2.466690000017617e+000	 1.030836381145636e+001
0	 5.933329999996682e+000	 2.533360000018134e+000	 1.031045793039043e+001
0	 5.933329999996681e+000	 2.600030000017850e+000	 1.031232346199938e+001
0	 5.933329999996680e+000	 2.666700000016666e+000	 1.031395480442283e+001
0	 5.999999999999998e+000	 2.000000000000000e+000	 1.027637977353435e+001
0	 6.000000000000001e+000	 2.066670000003318e+000	 1.027997389700303e+001
0	 5.999999999999999e+000	 2.133340000006534e+000	 1.028336494511816e+001
0	 6.000000000000000e+000	 2.200010000009551e+000	 1.028655429183741e+001
0	 5.999999999999999e+000	 2.266680000012268e+000	 1.028954331111848e+001
0	 5.999999999999998e+000	 2.333350000014584e+000	 1.029233337691903e+001
0	 5.999999999999999e+000	 2.400020000016400e+000	 1.029492586319674e+001
0	 5.999999999999998e+000	 2.466690000017618e+000	 1.029732214390927e+001
0	 6.000000000000001e+000	 2.533360000018134e+000	 1.029952359301432e+001
0	 5.999999999999999e+000	 2.600030000017850e+000	 1.030153158446951e+001
0	 6.000000000000001e+000	 2.666700000016667e+000	 1.030334749223254e+001
0	 5.333299999983334e+000	 2.666700000016666e+000	 1.041286965020379e+001
0	 5.333299999983334e+000	 2.733360000014532e+000	 1.041195529077852e+001
0	 5.333299999983335e+000	 2.800020000011600e+000	 1.041098086774111e+001
0	 5.333299999983334e+000	 2.866680000008067e+000	 1.040992529355425e+001
0	 5.333299999983334e+000	 2.933340000004133e+000	 1.040876748068059e+001
0	 5.333299999983334e+000	 3.000000000000000e+000	 1.040748634158287e+001
0	 5.333299999983335e+000	 3.066659999995868e+000	 1.040606078872378e+001
0	 5.333299999983334e+000	 3.133319999991934e+000	 1.040446973456603e+001
0	 5.333299999983336e+000	 3.199979999988401e+000	 1.040269209157237e+001
0	 5.333299999983335e+000	 3.266639999985468e+000	 1.040070677220551e+001
0	 5.333299999983332e+000	 3.333299999983333e+000	 1.039849268892822e+001
0	 5.399969999982150e+000	 2.666700000016667e+000	 1.040052655011749e+001
0	 5.399969999982152e+000	 2.733360000014533e+000	 1.039962144075941e+001
0	 5.399969999982149e+000	 2.800020000011599e+000	 1.039866403722549e+001
0	 5.399969999982148e+000	 2.866680000008067e+000	 1.039764402411033e+001
0	 5.399969999982149e+000	 2.933340000004133e+000	 1.039655108600851e+001
0	 5.399969999982150e+000	 3.000000000000000e+000	 1.039537490751465e+001
0	 5.399969999982148e+000	 3.066659999995866e+000	 1.039410517322332e+001
0	 5.399969999982149e+000	 3.133319999991933e+000	 1.039273156772917e+001
0	 5.399969999982150e+000	 3.199979999988401e+000	 1.039124377562679e+001
0	 5.399969999982151e+000	 3.266639999985469e+000	 1.038963148151082e+001
0	 5.399969999982148e+000	 3.333299999983333e+000	 1.038788436997590e+001
0	 5.466639999981865e+000	 2.666700000016666e+000	 1.038872497558041e+001
0	 5.466639999981867e+000	 2.733360000014534e+000	 1.038794189536091e+001
0	 5.466639999981865e+000	 2.800020000011599e+000	 1.038709090079506e+001
0	 5.466639999981865e+000	 2.866680000008066e+000	 1.038617076199244e+001
0	 5.466639999981867e+000	 2.933340000004134e+000	 1.038518024906267e+001
0	 5.466639999981864e+000	 3.000000000000000e+000	 1.038411813211530e+001
0	 5.466639999981865e+000	 3.066659999995867e+000	 1.038298318125994e+001
0	 5.466639999981866e+000	 3.133319999991934e+000	 1.038177416660620e+001
0	 5.466639999981865e+000	 3.199979999988401e+000	 1.038048985826370e+001
0	 5.466639999981866e+000	 3.266639999985467e+000	 1.037912902634207e+001
0	 5.466639999981865e+000	 3.333299999983335e+000	 1.037769044095090e+001
0	 5.533309999982381e+000	 2.666700000016666e+000	 1.037737776153568e+001
0	 5.533309999982382e+000	 2.733360000014534e+000	 1.037680682205124e+001
0	 5.533309999982382e+000	 2.800020000011600e+000	 1.037613452621064e+001
0	 5.533309999982385e+000	 2.866680000008067e+000	 1.037536704302155e+001
0	 5.533309999982381e+000	 2.933340000004133e+000	 1.037451054149164e+001
0	 5.533309999982383e+000	 3.000000000000000e+000	 1.037357119062861e+001
0	 5.533309999982381e+000	 3.066659999995868e+000	 1.037255515944015e+001
0	 5.533309999982383e+000	 3.133319999991935e+000	 1.037146861693395e+001
0	 5.533309999982382e+000	 3.199979999988402e+000	 1.037031773211771e+001
0	 5.533309999982382e+000	 3.266639999985468e+000	 1.036910867399915e+001
0	 5.533309999982382e+000	 3.333299999983334e+000	 1.036784761158598e+001
0	 5.599979999983600e+000	 2.666700000016667e+000	 1.036639774292646e+001
0	 5.599979999983598e+000	 2.733360000014533e+000	 1.036610638829861e+001
0	 5.599979999983599e+000	 2.800020000011600e+000	 1.036566798123300e+001
0	 5.599979999983598e+000	 2.866680000008066e+000	 1.036509440301852e+001
0	 5.599979999983598e+000	 2.933340000004134e+000	 1.036439753494402e+001
0	 5.599979999983599e+000	 3.000000000000001e+000	 1.036358925829837e+001
0	 5.599979999983597e+000	 3.066659999995867e+000	 1.036268145437045e+001
0	 5.599979999983598e+000	 3.133319999991934e+000	 1.036168600444915e+001
0	 5.599979999983598e+000	 3.199979999988401e+000	 1.036061478982335e+001
0	 5.599979999983598e+000	 3.266639999985468e+000	 1.035947969178197e+001
0	 5.599979999983598e+000	 3.333299999983333e+000	 1.035829259161390e+001
0	 5.666649999985416e+000	 2.666700000016667e+000	 1.035569775469589e+001
0	 5.666649999985415e+000	 2.733360000014532e+000	 1.035573076157121e+001
0	 5.666649999985415e+000	 2.800020000011600e+000	 1.035556433362298e+001
0	 5.666649999985415e+000	 2.866680000008066e+000	 1.035521437780431e+001
0	 5.666649999985416e+000	 2.933340000004133e+000	 1.035469680106838e+001
0	 5.666649999985416e+000	 3.000000000000000e+000	 1.035402751036834e+001
0	 5.666649999985416e+000	 3.066659999995868e+000	 1.035322241265733e+001
0	 5.666649999985416e+000	 3.133319999991935e+000	 1.035229741488858e+001
0	 5.666649999985416e+000	 3.199979999988401e+000	 1.035126842401519e+001
0	 5.666649999985417e+000	 3.266639999985468e+000	 1.035015134699041e+001
0	 5.666649999985414e+000	 3.333299999983333e+000	 1.034896209076740e+001
0	 5.733319999987732e+000	 2.666700000016666e+000	 1.034519063178711e+001
0	 5.733319999987729e+000	 2.733360000014532e+000	 1.034557010933726e+001
0	 5.733319999987731e+000	 2.800020000011599e+000	 1.034569665114134e+001
0	 5.733319999987731e+000	 2.866680000008066e+000	 1.034558850319982e+001
0	 5.733319999987730e+000	 2.933340000004133e+000	 1.034526391151331e+001
0	 5.733319999987733e+000	 3.000000000000000e+000	 1.034474112208229e+001
0	 5.733319999987732e+000	 3.066659999995868e+000	 1.034403838090732e+001
0	 5.733319999987730e+000	 3.133319999991934e+000	 1.034317393398897e+001
0	 5.733319999987733e+000	 3.199979999988402e+000	 1.034216602732780e+001
0	 5.733319999987733e+000	 3.266639999985468e+000	 1.034103290692436e+001
0	 5.733319999987733e+000	 3.333299999983334e+000	 1.033979281877924e+001
0	 5.799989999990447e+000	 2.666700000016666e+000	 1.033478920914325e+001
0	 5.799989999990447e+000	 2.733360000014533e+000	 1.033551459906495e+001
0	 5.799989999990448e+000	 2.800020000011599e+000	 1.033593800154886e+001
0	 5.799989999990448e+000	 2.866680000008066e+000	 1.033607831502600e+001
0	 5.799989999990449e+000	 2.933340000004133e+000	 1.033595443792737e+001
0	 5.799989999990447e+000	 3.000000000000000e+000	 1.033558526868400e+001
0	 5.799989999990447e+000	 3.066659999995867e+000	 1.033498970572691e+001
0	 5.799989999990449e+000	 3.133319999991935e+000	 1.033418664748713e+001
0	 5.799989999990448e+000	 3.199979999988401e+000	 1.033319499239572e+001
0	 5.799989999990449e+000	 3.266639999985468e+000	 1.033203363888371e+001
0	 5.799989999990449e+000	 3.333299999983334e+000	 1.033072148538219e+001
0	 5.866659999993464e+000	 2.666700000016666e+000	 1.032440632170745e+001
0	 5.866659999993463e+000	 2.733360000014533e+000	 1.032545439822246e+001
0	 5.866659999993465e+000	 2.800020000011600e+000	 1.032616145260636e+001
0	 5.866659999993464e+000	 2.866680000008067e+000	 1.032654534910373e+001
0	 5.866659999993463e+000	 2.933340000004133e+000	 1.032662395195916e+001
0	 5.866659999993464e+000	 3.000000000000000e+000	 1.032641512541724e+001
0	 5.866659999993465e+000	 3.066659999995867e+000	 1.032593673372258e+001
0	 5.866659999993464e+000	 3.133319999991935e+000	 1.032520664111979e+001
0	 5.866659999993464e+000	 3.199979999988400e+000	 1.032424271185351e+001
0	 5.866659999993465e+000	 3.266639999985468e+000	 1.032306281016835e+001
0	 5.866659999993464e+000	 3.333299999983334e+000	 1.032168480030896e+001
0	 5.933329999996680e+000	 2.666700000016666e+000	 1.031395480442284e+001
0	 5.933329999996681e+000	 2.733360000014533e+000	 1.031527967427799e+001
0	 5.933329999996682e+000	 2.800020000011600e+000	 1.031624007207461e+001
0	 5.933329999996683e+000	 2.866680000008067e+000	 1.031685114125392e+001
0	 5.933329999996681e+000	 2.933340000004134e+000	 1.031712802525722e+001
0	 5.933329999996682e+000	 3.000000000000000e+000	 1.031708586752577e+001
0	 5.933329999996682e+000	 3.066659999995867e+000	 1.031673981150084e+001
0	 5.933329999996681e+000	 3.133319999991934e+000	 1.031610500062372e+001
0	 5.933329999996681e+000	 3.199979999988401e+000	 1.031519657833573e+001
0	 5.933329999996682e+000	 3.266639999985469e+000	 1.031402968807816e+001
0	 5.933329999996681e+000	 3.333299999983334e+000	 1.031261947329231e+001
0	 6.000000000000001e+000	 2.666700000016667e+000	 1.030334749223254e+001
0	 6.000000000000000e+000	 2.733360000014533e+000	 1.030488059469973e+001
0	 6.000000000000000e+000	 2.800020000011601e+000	 1.030604692771437e+001
0	 6.000000000000002e+000	 2.866680000008067e+000	 1.030685722729750e+001
0	 5.999999999999999e+000	 2.933340000004133e+000	 1.030732222947015e+001
0	 6.000000000000002e+000	 3.000000000000001e+000	 1.030745267025335e+001
0	 6.000000000000001e+000	 3.066659999995867e+000	 1.030725928566817e+001
0	 5.999999999999999e+000	 3.133319999991934e+000	 1.030675281173566e+001
0	 6.000000000000002e+000	 3.199979999988401e+000	 1.030594398447692e+001
0	 6.000000000000000e+000	 3.266639999985469e+000	 1.030484353991301e+001
0	 6.000000000000000e+000	 3.333299999983334e+000	 1.030346221406501e+001
0	 5.333299999983332e+000	 3.333299999983333e+000	 1.039849268892822e+001
0	 5.333299999983333e+000	 3.399969999982150e+000	 1.039598988713168e+001
0	 5.333299999983334e+000	 3.466639999981866e+000	 1.039315317539072e+001
0	 5.333299999983334e+000	 3.533309999982382e+000	 1.038998255986592e+001
0	 5.333299999983333e+000	 3.599979999983599e+000	 1.038647804671789e+001
0	 5.333299999983334e+000	 3.666649999985415e+000	 1.038263964210717e+001
0	 5.333299999983334e+000	 3.733319999987732e+000	 1.037846735219436e+001
0	 5.333299999983334e+000	 3.799989999990448e+000	 1.037396118314000e+001
0	 5.333299999983333e+000	 3.866659999993464e+000	 1.036912114110469e+001
0	 5.333299999983335e+000	 3.933329999996682e+000	 1.036394723224894e+001
0	 5.333299999983334e+000	 4.000000000000000e+000	 1.035843946273333e+001
0	 5.399969999982148e+000	 3.333299999983333e+000	 1.038788436997590e+001
0	 5.399969999982150e+000	 3.399969999982150e+000	 1.038588933876176e+001
0	 5.399969999982148e+000	 3.466639999981866e+000	 1.038353912504056e+001
0	 5.399969999982149e+000	 3.533309999982383e+000	 1.038083135439231e+001
0	 5.399969999982149e+000	 3.599979999983599e+000	 1.037776365239705e+001
0	 5.399969999982150e+000	 3.666649999985415e+000	 1.037433364463477e+001
0	 5.399969999982150e+000	 3.733319999987733e+000	 1.037053895668549e+001
0	 5.399969999982148e+000	 3.799989999990448e+000	 1.036637721412923e+001
0	 5.399969999982149e+000	 3.866659999993464e+000	 1.036184604254595e+001
0	 5.399969999982151e+000	 3.933329999996682e+000	 1.035694306751569e+001
0	 5.399969999982148e+000	 4.000000000000000e+000	 1.035166591461838e+001
0	 5.466639999981865e+000	 3.333299999983335e+000	 1.037769044095090e+001
0	 5.466639999981865e+000	 3.399969999982149e+000	 1.037603548116528e+001
0	 5.466639999981866e+000	 3.466639999981866e+000	 1.037402387444709e+001
0	 5.466639999981864e+000	 3.533309999982382e+000	 1.037165124837724e+001
0	 5.466639999981866e+000	 3.599979999983599e+000	 1.036891323053667e+001
0	 5.466639999981866e+000	 3.666649999985415e+000	 1.036580544850629e+001
0	 5.466639999981866e+000	 3.733319999987732e+000	 1.036232352986699e+001
0	 5.466639999981867e+000	 3.799989999990450e+000	 1.035846310219968e+001
0	 5.466639999981866e+000	 3.866659999993465e+000	 1.035421979308526e+001
0	 5.466639999981868e+000	 3.933329999996681e+000	 1.034958923010462e+001
0	 5.466639999981867e+000	 4.000000000000001e+000	 1.034456704083863e+001
0	 5.533309999982382e+000	 3.333299999983334e+000	 1.036784761158598e+001
0	 5.533309999982381e+000	 3.399969999982150e+000	 1.036639336568166e+001
0	 5.533309999982381e+000	 3.466639999981866e+000	 1.036459703806772e+001
0	 5.533309999982383e+000	 3.533309999982382e+000	 1.036245264090741e+001
0	 5.533309999982383e+000	 3.599979999983599e+000	 1.035995418636406e+001
0	 5.533309999982381e+000	 3.666649999985414e+000	 1.035709568660091e+001
0	 5.533309999982381e+000	 3.733319999987731e+000	 1.035387115378121e+001
0	 5.533309999982384e+000	 3.799989999990449e+000	 1.035027460006826e+001
0	 5.533309999982382e+000	 3.866659999993465e+000	 1.034630003762529e+001
0	 5.533309999982383e+000	 3.933329999996681e+000	 1.034194147861554e+001
0	 5.533309999982381e+000	 4.000000000000001e+000	 1.033719293520228e+001
0	 5.599979999983598e+000	 3.333299999983333e+000	 1.035829259161390e+001
0	 5.599979999983599e+000	 3.399969999982150e+000	 1.035692804365035e+001
0	 5.599979999983598e+000	 3.466639999981866e+000	 1.035524823035987e+001
0	 5.599979999983598e+000	 3.533309999982383e+000	 1.035324593106956e+001
0	 5.599979999983599e+000	 3.599979999983599e+000	 1.035091392510650e+001
0	 5.599979999983598e+000	 3.666649999985415e+000	 1.034824499179780e+001
0	 5.599979999983598e+000	 3.733319999987731e+000	 1.034523191047056e+001
0	 5.599979999983598e+000	 3.799989999990448e+000	 1.034186746045183e+001
0	 5.599979999983598e+000	 3.866659999993466e+000	 1.033814442106870e+001
0	 5.599979999983598e+000	 3.933329999996681e+000	 1.033405557164825e+001
0	 5.599979999983600e+000	 4.000000000000001e+000	 1.032959369151751e+001
0	 5.666649999985414e+000	 3.333299999983333e+000	 1.034896209076739e+001
0	 5.666649999985416e+000	 3.399969999982150e+000	 1.034760456641079e+001
0	 5.666649999985415e+000	 3.466639999981866e+000	 1.034596706578098e+001
0	 5.666649999985415e+000	 3.533309999982383e+000	 1.034404151795036e+001
0	 5.666649999985416e+000	 3.599979999983599e+000	 1.034181985199131e+001
0	 5.666649999985413e+000	 3.666649999985415e+000	 1.033929399697619e+001
0	 5.666649999985414e+000	 3.733319999987732e+000	 1.033645588197739e+001
0	 5.666649999985415e+000	 3.799989999990447e+000	 1.033329743606726e+001
0	 5.666649999985415e+000	 3.866659999993463e+000	 1.032981058831818e+001
0	 5.666649999985414e+000	 3.933329999996682e+000	 1.032598726780249e+001
0	 5.666649999985415e+000	 4.000000000000000e+000	 1.032181940359253e+001
0	 5.733319999987733e+000	 3.333299999983334e+000	 1.033979281877924e+001
0	 5.733319999987732e+000	 3.399969999982149e+000	 1.033838798530240e+001
0	 5.733319999987732e+000	 3.466639999981866e+000	 1.033674315878846e+001
0	 5.733319999987733e+000	 3.533309999982383e+000	 1.033484980063653e+001
0	 5.733319999987730e+000	 3.599979999983598e+000	 1.033269937224574e+001
0	 5.733319999987731e+000	 3.666649999985416e+000	 1.033028333501524e+001
0	 5.733319999987730e+000	 3.733319999987731e+000	 1.032759315034410e+001
0	 5.733319999987731e+000	 3.799989999990448e+000	 1.032462027963146e+001
0	 5.733319999987731e+000	 3.866659999993464e+000	 1.032135618427641e+001
0	 5.733319999987733e+000	 3.933329999996682e+000	 1.031779232567806e+001
0	 5.733319999987731e+000	 4.000000000000001e+000	 1.031392016523551e+001
0	 5.799989999990449e+000	 3.333299999983334e+000	 1.033072148538219e+001
0	 5.799989999990446e+000	 3.399969999982149e+000	 1.032924335166462e+001
0	 5.799989999990448e+000	 3.466639999981866e+000	 1.032756612383971e+001
0	 5.799989999990448e+000	 3.533309999982382e+000	 1.032568117821476e+001
0	 5.799989999990447e+000	 3.599979999983599e+000	 1.032357989109713e+001
0	 5.799989999990447e+000	 3.666649999985415e+000	 1.032125363879411e+001
0	 5.799989999990447e+000	 3.733319999987731e+000	 1.031869379761307e+001
0	 5.799989999990449e+000	 3.799989999990447e+000	 1.031589174386128e+001
0	 5.799989999990447e+000	 3.866659999993464e+000	 1.031283885384607e+001
0	 5.799989999990449e+000	 3.933329999996682e+000	 1.030952650387477e+001
0	 5.799989999990447e+000	 4.000000000000001e+000	 1.030594607025464e+001
0	 5.866659999993464e+000	 3.333299999983334e+000	 1.032168480030896e+001
0	 5.866659999993464e+000	 3.399969999982150e+000	 1.032013571683689e+001
0	 5.866659999993464e+000	 3.466639999981865e+000	 1.031842557539216e+001
0	 5.866659999993463e+000	 3.533309999982382e+000	 1.031654604977178e+001
0	 5.866659999993463e+000	 3.599979999983599e+000	 1.031448881377274e+001
0	 5.866659999993464e+000	 3.666649999985415e+000	 1.031224554119203e+001
0	 5.866659999993466e+000	 3.733319999987733e+000	 1.030980790582665e+001
0	 5.866659999993464e+000	 3.799989999990449e+000	 1.030716758147360e+001
0	 5.866659999993466e+000	 3.866659999993466e+000	 1.030431624192984e+001
0	 5.866659999993464e+000	 3.933329999996682e+000	 1.030124556099236e+001
0	 5.866659999993465e+000	 4.000000000000001e+000	 1.029794721245813e+001
0	 5.933329999996681e+000	 3.333299999983334e+000	 1.031261947329231e+001
0	 5.933329999996681e+000	 3.399969999982150e+000	 1.031103013215862e+001
0	 5.933329999996680e+000	 3.466639999981866e+000	 1.030931112790322e+001
0	 5.933329999996680e+000	 3.533309999982382e+000	 1.030745481439425e+001
0	 5.933329999996682e+000	 3.599979999983598e+000	 1.030545354549986e+001
0	 5.933329999996681e+000	 3.666649999985415e+000	 1.030329967508815e+001
0	 5.933329999996682e+000	 3.733319999987732e+000	 1.030098555702726e+001
0	 5.933329999996682e+000	 3.799989999990449e+000	 1.029850354518530e+001
0	 5.933329999996681e+000	 3.866659999993465e+000	 1.029584599343039e+001
0	 5.933329999996682e+000	 3.933329999996681e+000	 1.029300525563064e+001
0	 5.933329999996681e+000	 4.000000000000001e+000	 1.028997368565417e+001
0	 6.000000000000000e+000	 3.333299999983334e+000	 1.030346221406501e+001
0	 6.000000000000000e+000	 3.399969999982150e+000	 1.030189164896924e+001
0	 6.000000000000000e+000	 3.466639999981866e+000	 1.030021239583030e+001
0	 5.999999999999999e+000	 3.533309999982383e+000	 1.029841787116891e+001
0	 6.000000000000001e+000	 3.599979999983598e+000	 1.029650149150580e+001
0	 6.000000000000000e+000	 3.666649999985415e+000	 1.029445667336166e+001
0	 6.000000000000001e+000	 3.733319999987732e+000	 1.029227683325725e+001
0	 6.000000000000002e+000	 3.799989999990448e+000	 1.028995538771326e+001
0	 6.000000000000000e+000	 3.866659999993465e+000	 1.028748575325040e+001
0	 6.000000000000000e+000	 3.933329999996682e+000	 1.028486134638939e+001
0	 6.000000000000001e+000	 4.000000000000001e+000	 1.028207558365093e+001
0	 5.333299999983334e+000	 4.000000000000000e+000	 1.035843946273333e+001
0	 5.333299999983333e+000	 4.066670000003317e+000	 1.035276646658225e+001
0	 5.333299999983335e+000	 4.133340000006533e+000	 1.034708765282884e+001
0	 5.333299999983334e+000	 4.200010000009550e+000	 1.034138919014666e+001
0	 5.333299999983334e+000	 4.266680000012267e+000	 1.033565724720933e+001
0	 5.333299999983333e+000	 4.333350000014582e+000	 1.032987799269043e+001
0	 5.333299999983334e+000	 4.400020000016400e+000	 1.032403759526354e+001
0	 5.333299999983333e+000	 4.466690000017616e+000	 1.031812222360228e+001
0	 5.333299999983333e+000	 4.533360000018132e+000	 1.031211804638019e+001
0	 5.333299999983334e+000	 4.600030000017849e+000	 1.030601123227087e+001
0	 5.333299999983335e+000	 4.666700000016667e+000	 1.029978794994791e+001
0	 5.399969999982148e+000	 4.000000000000000e+000	 1.035166591461838e+001
0	 5.399969999982149e+000	 4.066670000003316e+000	 1.034620345841652e+001
0	 5.399969999982150e+000	 4.133340000006534e+000	 1.034073712422135e+001
0	 5.399969999982150e+000	 4.200010000009550e+000	 1.033525336373594e+001
0	 5.399969999982151e+000	 4.266680000012266e+000	 1.032973862866341e+001
0	 5.399969999982151e+000	 4.333350000014584e+000	 1.032417937070682e+001
0	 5.399969999982148e+000	 4.400020000016400e+000	 1.031856204156931e+001
0	 5.399969999982151e+000	 4.466690000017615e+000	 1.031287309295393e+001
0	 5.399969999982149e+000	 4.533360000018131e+000	 1.030709897656380e+001
0	 5.399969999982150e+000	 4.600030000017849e+000	 1.030122614410198e+001
0	 5.399969999982150e+000	 4.666700000016667e+000	 1.029524104727156e+001
0	 5.466639999981867e+000	 4.000000000000001e+000	 1.034456704083863e+001
0	 5.466639999981866e+000	 4.066670000003319e+000	 1.033934896264575e+001
0	 5.466639999981865e+000	 4.133340000006533e+000	 1.033412487359884e+001
0	 5.466639999981867e+000	 4.200010000009550e+000	 1.032888161235037e+001
0	 5.466639999981866e+000	 4.266680000012267e+000	 1.032360601755285e+001
0	 5.466639999981866e+000	 4.333350000014582e+000	 1.031828492785869e+001
0	 5.466639999981866e+000	 4.400020000016400e+000	 1.031290518192042e+001
0	 5.466639999981865e+000	 4.466690000017616e+000	 1.030745361839047e+001
0	 5.466639999981866e+000	 4.533360000018134e+000	 1.030191707592132e+001
0	 5.466639999981867e+000	 4.600030000017849e+000	 1.029628239316545e+001
0	 5.466639999981867e+000	 4.666700000016667e+000	 1.029053640877532e+001
0	 5.533309999982381e+000	 4.000000000000001e+000	 1.033719293520228e+001
0	 5.533309999982383e+000	 4.066670000003317e+000	 1.033224584915625e+001
0	 5.533309999982380e+000	 4.133340000006533e+000	 1.032728720715389e+001
0	 5.533309999982381e+000	 4.200010000009550e+000	 1.032230433871692e+001
0	 5.533309999982381e+000	 4.266680000012267e+000	 1.031728457336708e+001
0	 5.533309999982382e+000	 4.333350000014583e+000	 1.031221524062610e+001
0	 5.533309999982381e+000	 4.400020000016400e+000	 1.030708367001570e+001
0	 5.533309999982381e+000	 4.466690000017613e+000	 1.030187719105759e+001
0	 5.533309999982383e+000	 4.533360000018133e+000	 1.029658313327350e+001
0	 5.533309999982380e+000	 4.600030000017847e+000	 1.029118882618517e+001
0	 5.533309999982381e+000	 4.666700000016666e+000	 1.028568159931430e+001
0	 5.599979999983600e+000	 4.000000000000001e+000	 1.032959369151751e+001
0	 5.599979999983598e+000	 4.066670000003316e+000	 1.032493698783435e+001
0	 5.599979999983598e+000	 4.133340000006533e+000	 1.032026043107904e+001
0	 5.599979999983599e+000	 4.200010000009550e+000	 1.031555194556251e+001
0	 5.599979999983598e+000	 4.266680000012268e+000	 1.031079945559559e+001
0	 5.599979999983598e+000	 4.333350000014582e+000	 1.030599088548911e+001
0	 5.599979999983598e+000	 4.400020000016400e+000	 1.030111415955398e+001
0	 5.599979999983599e+000	 4.466690000017616e+000	 1.029615720210100e+001
0	 5.599979999983598e+000	 4.533360000018131e+000	 1.029110793744106e+001
0	 5.599979999983598e+000	 4.600030000017850e+000	 1.028595428988499e+001
0	 5.599979999983598e+000	 4.666700000016666e+000	 1.028068418374364e+001
0	 5.666649999985415e+000	 4.000000000000000e+000	 1.032181940359253e+001
0	 5.666649999985414e+000	 4.066670000003317e+000	 1.031746524856632e+001
0	 5.666649999985415e+000	 4.133340000006534e+000	 1.031308085156688e+001
0	 5.666649999985415e+000	 4.200010000009550e+000	 1.030865483561408e+001
0	 5.666649999985415e+000	 4.266680000012268e+000	 1.030417582372776e+001
0	 5.666649999985415e+000	 4.333350000014583e+000	 1.029963243892781e+001
0	 5.666649999985415e+000	 4.400020000016400e+000	 1.029501330423409e+001
0	 5.666649999985415e+000	 4.466690000017616e+000	 1.029030704266643e+001
0	 5.666649999985415e+000	 4.533360000018132e+000	 1.028550227724470e+001
0	 5.666649999985416e+000	 4.600030000017848e+000	 1.028058763098874e+001
0	 5.666649999985415e+000	 4.666700000016666e+000	 1.027555172691844e+001
0	 5.733319999987731e+000	 4.000000000000001e+000	 1.031392016523551e+001
0	 5.733319999987732e+000	 4.066670000003319e+000	 1.030987350123851e+001
0	 5.733319999987732e+000	 4.133340000006534e+000	 1.030578477480995e+001
0	 5.733319999987733e+000	 4.200010000009550e+000	 1.030164341159856e+001
0	 5.733319999987731e+000	 4.266680000012267e+000	 1.029743883725308e+001
0	 5.733319999987733e+000	 4.333350000014582e+000	 1.029316047742226e+001
0	 5.733319999987731e+000	 4.400020000016400e+000	 1.028879775775484e+001
0	 5.733319999987733e+000	 4.466690000017616e+000	 1.028434010389956e+001
0	 5.733319999987732e+000	 4.533360000018135e+000	 1.027977694150514e+001
0	 5.733319999987731e+000	 4.600030000017849e+000	 1.027509769622031e+001
0	 5.733319999987731e+000	 4.666700000016667e+000	 1.027029179369380e+001
0	 5.799989999990447e+000	 4.000000000000001e+000	 1.030594607025464e+001
0	 5.799989999990450e+000	 4.066670000003317e+000	 1.030220461573724e+001
0	 5.799989999990448e+000	 4.133340000006534e+000	 1.029840850700081e+001
0	 5.799989999990448e+000	 4.200010000009550e+000	 1.029454807624290e+001
0	 5.799989999990449e+000	 4.266680000012267e+000	 1.029061365566096e+001
0	 5.799989999990448e+000	 4.333350000014582e+000	 1.028659557745253e+001
0	 5.799989999990449e+000	 4.400020000016400e+000	 1.028248417381509e+001
0	 5.799989999990448e+000	 4.466690000017617e+000	 1.027826977694612e+001
0	 5.799989999990450e+000	 4.533360000018133e+000	 1.027394271904309e+001
0	 5.799989999990448e+000	 4.600030000017847e+000	 1.026949333230352e+001
0	 5.799989999990449e+000	 4.666700000016667e+000	 1.026491194892488e+001
0	 5.866659999993465e+000	 4.000000000000001e+000	 1.029794721245813e+001
0	 5.866659999993463e+000	 4.066670000003317e+000	 1.029450146194879e+001
0	 5.866659999993463e+000	 4.133340000006534e+000	 1.029098835433205e+001
0	 5.866659999993464e+000	 4.200010000009550e+000	 1.028739923227402e+001
0	 5.866659999993462e+000	 4.266680000012265e+000	 1.028372543844086e+001
0	 5.866659999993464e+000	 4.333350000014582e+000	 1.027995831549870e+001
0	 5.866659999993464e+000	 4.400020000016401e+000	 1.027608920611363e+001
0	 5.866659999993464e+000	 4.466690000017616e+000	 1.027210945295179e+001
0	 5.866659999993465e+000	 4.533360000018132e+000	 1.026801039867929e+001
0	 5.866659999993465e+000	 4.600030000017848e+000	 1.026378338596225e+001
0	 5.866659999993463e+000	 4.666700000016665e+000	 1.025941975746677e+001
0	 5.933329999996681e+000	 4.000000000000001e+000	 1.028997368565417e+001
0	 5.933329999996681e+000	 4.066670000003317e+000	 1.028680690975950e+001
0	 5.933329999996680e+000	 4.133340000006534e+000	 1.028356062299619e+001
0	 5.933329999996682e+000	 4.200010000009550e+000	 1.028022728241890e+001
0	 5.933329999996681e+000	 4.266680000012267e+000	 1.027679934508223e+001
0	 5.933329999996682e+000	 4.333350000014582e+000	 1.027326926804081e+001
0	 5.933329999996682e+000	 4.400020000016401e+000	 1.026962950834930e+001
0	 5.933329999996682e+000	 4.466690000017616e+000	 1.026587252306231e+001
0	 5.933329999996681e+000	 4.533360000018132e+000	 1.026199076923444e+001
0	 5.933329999996681e+000	 4.600030000017847e+000	 1.025797670392032e+001
0	 5.933329999996681e+000	 4.666700000016667e+000	 1.025382278417458e+001
0	 6.000000000000001e+000	 4.000000000000001e+000	 1.028207558365093e+001
0	 6.000000000000000e+000	 4.066670000003317e+000	 1.027916382905566e+001
0	 5.999999999999999e+000	 4.133340000006533e+000	 1.027616161918582e+001
0	 6.000000000000001e+000	 4.200010000009550e+000	 1.027306262940443e+001
0	 6.000000000000002e+000	 4.266680000012267e+000	 1.026986053507447e+001
0	 6.000000000000001e+000	 4.333350000014583e+000	 1.026654901155898e+001
0	 5.999999999999999e+000	 4.400020000016400e+000	 1.026312173422094e+001
0	 6.000000000000001e+000	 4.466690000017617e+000	 1.025957237842336e+001
0	 5.999999999999999e+000	 4.533360000018132e+000	 1.025589461952926e+001
0	 5.999999999999999e+000	 4.600030000017848e+000	 1.025208213290162e+001
0	 5.999999999999999e+000	 4.666700000016665e+000	 1.024812859390344e+001
0	 5.333299999983335e+000	 4.666700000016667e+000	 1.029978794994791e+001
0	 5.333299999983334e+000	 4.733360000014534e+000	 1.029353401427832e+001
0	 5.333299999983334e+000	 4.800020000011600e+000	 1.028733759328637e+001
0	 5.333299999983335e+000	 4.866680000008067e+000	 1.028119121399706e+001
0	 5.333299999983336e+000	 4.933340000004135e+000	 1.027508740343554e+001
0	 5.333299999983333e+000	 5.000000000000000e+000	 1.026901868862679e+001
0	 5.333299999983333e+000	 5.066659999995866e+000	 1.026297759659592e+001
0	 5.333299999983335e+000	 5.133319999991934e+000	 1.025695665436800e+001
0	 5.333299999983334e+000	 5.199979999988399e+000	 1.025094838896808e+001
0	 5.333299999983334e+000	 5.266639999985465e+000	 1.024494532742124e+001
0	 5.333299999983332e+000	 5.333299999983334e+000	 1.023893999675254e+001
0	 5.399969999982150e+000	 4.666700000016667e+000	 1.029524104727156e+001
0	 5.399969999982151e+000	 4.733360000014534e+000	 1.028922201239104e+001
0	 5.399969999982149e+000	 4.800020000011599e+000	 1.028325024446272e+001
0	 5.399969999982148e+000	 4.866680000008066e+000	 1.027731923366466e+001
0	 5.399969999982148e+000	 4.933340000004132e+000	 1.027142247017493e+001
0	 5.399969999982150e+000	 5.000000000000000e+000	 1.026555344417162e+001
0	 5.399969999982149e+000	 5.066659999995867e+000	 1.025970564583275e+001
0	 5.399969999982149e+000	 5.133319999991934e+000	 1.025387256533644e+001
0	 5.399969999982149e+000	 5.199979999988398e+000	 1.024804769286076e+001
0	 5.399969999982152e+000	 5.266639999985468e+000	 1.024222451858375e+001
0	 5.399969999982150e+000	 5.333299999983332e+000	 1.023639653268353e+001
0	 5.466639999981867e+000	 4.666700000016667e+000	 1.029053640877532e+001
0	 5.466639999981866e+000	 4.733360000014533e+000	 1.028475146852867e+001
0	 5.466639999981865e+000	 4.800020000011599e+000	 1.027900314394560e+001
0	 5.466639999981864e+000	 4.866680000008065e+000	 1.027328572487143e+001
0	 5.466639999981867e+000	 4.933340000004136e+000	 1.026759350115147e+001
0	 5.466639999981864e+000	 5.000000000000000e+000	 1.026192076263108e+001
0	 5.466639999981866e+000	 5.066659999995867e+000	 1.025626179915557e+001
0	 5.466639999981865e+000	 5.133319999991932e+000	 1.025061090057029e+001
0	 5.466639999981865e+000	 5.199979999988400e+000	 1.024496235672055e+001
0	 5.466639999981866e+000	 5.266639999985466e+000	 1.023931045745172e+001
0	 5.466639999981867e+000	 5.333299999983335e+000	 1.023364949260911e+001
0	 5.533309999982381e+000	 4.666700000016666e+000	 1.028568159931430e+001
0	 5.533309999982381e+000	 4.733360000014534e+000	 1.028012914492808e+001
0	 5.533309999982383e+000	 4.800020000011601e+000	 1.027460254934091e+001
0	 5.533309999982383e+000	 4.866680000008068e+000	 1.026909673857966e+001
0	 5.533309999982381e+000	 4.933340000004133e+000	 1.026360663867113e+001
0	 5.533309999982382e+000	 5.000000000000001e+000	 1.025812717564220e+001
0	 5.533309999982381e+000	 5.066659999995867e+000	 1.025265327551971e+001
0	 5.533309999982382e+000	 5.133319999991934e+000	 1.024717986433050e+001
0	 5.533309999982382e+000	 5.199979999988400e+000	 1.024170186810144e+001
0	 5.533309999982381e+000	 5.266639999985465e+000	 1.023621421285936e+001
0	 5.533309999982382e+000	 5.333299999983334e+000	 1.023071182463115e+001
0	 5.599979999983598e+000	 4.666700000016666e+000	 1.028068418374364e+001
0	 5.599979999983598e+000	 4.733360000014534e+000	 1.027536180382614e+001
0	 5.599979999983599e+000	 4.800020000011600e+000	 1.027005471825461e+001
0	 5.599979999983598e+000	 4.866680000008064e+000	 1.026475832575164e+001
0	 5.599979999983597e+000	 4.933340000004133e+000	 1.025946802503990e+001
0	 5.599979999983600e+000	 5.000000000000002e+000	 1.025417921484198e+001
0	 5.599979999983597e+000	 5.066659999995865e+000	 1.024888729388049e+001
0	 5.599979999983598e+000	 5.133319999991934e+000	 1.024358766087805e+001
0	 5.599979999983598e+000	 5.199979999988400e+000	 1.023827571455732e+001
0	 5.599979999983598e+000	 5.266639999985467e+000	 1.023294685364090e+001
0	 5.599979999983598e+000	 5.333299999983333e+000	 1.022759647685142e+001
0	 5.666649999985415e+000	 4.666700000016666e+000	 1.027555172691844e+001
0	 5.666649999985416e+000	 4.733360000014534e+000	 1.027045620745968e+001
0	 5.666649999985415e+000	 4.800020000011600e+000	 1.026536590829256e+001
0	 5.666649999985415e+000	 4.866680000008066e+000	 1.026027653734972e+001
0	 5.666649999985416e+000	 4.933340000004133e+000	 1.025518380256378e+001
0	 5.666649999985417e+000	 5.000000000000002e+000	 1.025008341186739e+001
0	 5.666649999985416e+000	 5.066659999995867e+000	 1.024497107319323e+001
0	 5.666649999985416e+000	 5.133319999991934e+000	 1.023984249447394e+001
0	 5.666649999985415e+000	 5.199979999988400e+000	 1.023469338364215e+001
0	 5.666649999985415e+000	 5.266639999985467e+000	 1.022951944863055e+001
0	 5.666649999985414e+000	 5.333299999983334e+000	 1.022431639737177e+001
0	 5.733319999987731e+000	 4.666700000016667e+000	 1.027029179369381e+001
0	 5.733319999987732e+000	 4.733360000014533e+000	 1.026541911806559e+001
0	 5.733319999987731e+000	 4.800020000011599e+000	 1.026054237706072e+001
0	 5.733319999987732e+000	 4.866680000008066e+000	 1.025565742433613e+001
0	 5.733319999987733e+000	 4.933340000004133e+000	 1.025076011354873e+001
0	 5.733319999987732e+000	 5.000000000000000e+000	 1.024584629835547e+001
0	 5.733319999987731e+000	 5.066659999995868e+000	 1.024091183241328e+001
0	 5.733319999987733e+000	 5.133319999991934e+000	 1.023595256937911e+001
0	 5.733319999987731e+000	 5.199979999988400e+000	 1.023096436290988e+001
0	 5.733319999987732e+000	 5.266639999985466e+000	 1.022594306666254e+001
0	 5.733319999987731e+000	 5.333299999983334e+000	 1.022088453429403e+001
0	 5.799989999990449e+000	 4.666700000016667e+000	 1.026491194892488e+001
0	 5.799989999990448e+000	 4.733360000014532e+000	 1.026025729788071e+001
0	 5.799989999990447e+000	 4.800020000011598e+000	 1.025559038216498e+001
0	 5.799989999990448e+000	 4.866680000008067e+000	 1.025090703767317e+001
0	 5.799989999990449e+000	 4.933340000004134e+000	 1.024620310030074e+001
0	 5.799989999990446e+000	 5.000000000000000e+000	 1.024147440594318e+001
0	 5.799989999990448e+000	 5.066659999995866e+000	 1.023671679049595e+001
0	 5.799989999990448e+000	 5.133319999991933e+000	 1.023192608985454e+001
0	 5.799989999990448e+000	 5.199979999988400e+000	 1.022709813991443e+001
0	 5.799989999990449e+000	 5.266639999985467e+000	 1.022222877657109e+001
0	 5.799989999990449e+000	 5.333299999983335e+000	 1.021731383572001e+001
0	 5.866659999993463e+000	 4.666700000016665e+000	 1.025941975746677e+001
0	 5.866659999993464e+000	 4.733360000014533e+000	 1.025497750914189e+001
0	 5.866659999993465e+000	 4.800020000011601e+000	 1.025051618121126e+001
0	 5.866659999993464e+000	 4.866680000008066e+000	 1.024603142832314e+001
0	 5.866659999993463e+000	 4.933340000004132e+000	 1.024151890512581e+001
0	 5.866659999993463e+000	 5.000000000000001e+000	 1.023697426626754e+001
0	 5.866659999993465e+000	 5.066659999995867e+000	 1.023239316639659e+001
0	 5.866659999993464e+000	 5.133319999991934e+000	 1.022777126016123e+001
0	 5.866659999993463e+000	 5.199979999988399e+000	 1.022310420220975e+001
0	 5.866659999993465e+000	 5.266639999985466e+000	 1.021838764719043e+001
0	 5.866659999993464e+000	 5.333299999983334e+000	 1.021361724975154e+001
0	 5.933329999996681e+000	 4.666700000016667e+000	 1.025382278417459e+001
0	 5.933329999996682e+000	 4.733360000014532e+000	 1.024958651408600e+001
0	 5.933329999996682e+000	 4.800020000011601e+000	 1.024532603180548e+001
0	 5.933329999996682e+000	 4.866680000008067e+000	 1.024103664724836e+001
0	 5.933329999996681e+000	 4.933340000004133e+000	 1.023671367032993e+001
0	 5.933329999996681e+000	 4.999999999999999e+000	 1.023235241096554e+001
0	 5.933329999996681e+000	 5.066659999995867e+000	 1.022794817907049e+001
0	 5.933329999996681e+000	 5.133319999991931e+000	 1.022349628456012e+001
0	 5.933329999996682e+000	 5.199979999988400e+000	 1.021899203734978e+001
0	 5.933329999996682e+000	 5.266639999985466e+000	 1.021443074735478e+001
0	 5.933329999996681e+000	 5.333299999983334e+000	 1.020980772449045e+001
0	 5.999999999999999e+000	 4.666700000016665e+000	 1.024812859390345e+001
0	 5.999999999999999e+000	 4.733360000014532e+000	 1.024409107494989e+001
0	 6.000000000000001e+000	 4.800020000011600e+000	 1.024002619155357e+001
0	 6.000000000000002e+000	 4.866680000008067e+000	 1.023592874541108e+001
0	 6.000000000000000e+000	 4.933340000004133e+000	 1.023179353821906e+001
0	 6.000000000000000e+000	 5.000000000000001e+000	 1.022761537167417e+001
0	 6.000000000000000e+000	 5.066659999995867e+000	 1.022338904747303e+001
0	 6.000000000000000e+000	 5.133319999991932e+000	 1.021910936731224e+001
0	 6.000000000000001e+000	 5.199979999988400e+000	 1.021477113288848e+001
0	 6.000000000000000e+000	 5.266639999985466e+000	 1.021036914589836e+001
0	 6.000000000000000e+000	 5.333299999983334e+000	 1.020589820803854e+001
0	 5.333299999983332e+000	 5.333299999983334e+000	 1.023893999675254e+001
0	 5.333299999983333e+000	 5.399969999982149e+000	 1.023296404908394e+001
0	 5.333299999983335e+000	 5.466639999981867e+000	 1.022705283290405e+001
0	 5.333299999983333e+000	 5.533309999982382e+000	 1.022120171548715e+001
0	 5.333299999983334e+000	 5.599979999983598e+000	 1.021540606410754e+001
0	 5.333299999983335e+000	 5.666649999985415e+000	 1.020966124603946e+001
0	 5.333299999983335e+000	 5.733319999987732e+000	 1.020396262855726e+001
0	 5.333299999983334e+000	 5.799989999990448e+000	 1.019830557893520e+001
0	 5.333299999983334e+000	 5.866659999993463e+000	 1.019268546444758e+001
0	 5.333299999983334e+000	 5.933329999996682e+000	 1.018709765236870e+001
0	 5.333299999983333e+000	 6.000000000000000e+000	 1.018153750997282e+001
0	 5.399969999982150e+000	 5.333299999983332e+000	 1.023639653268353e+001
0	 5.399969999982150e+000	 5.399969999982150e+000	 1.023059387081154e+001
0	 5.399969999982148e+000	 5.466639999981866e+000	 1.022484933847840e+001
0	 5.399969999982148e+000	 5.533309999982381e+000	 1.021915780573555e+001
0	 5.399969999982150e+000	 5.599979999983600e+000	 1.021351414263449e+001
0	 5.399969999982151e+000	 5.666649999985416e+000	 1.020791321922668e+001
0	 5.399969999982152e+000	 5.733319999987732e+000	 1.020234990556362e+001
0	 5.399969999982150e+000	 5.799989999990447e+000	 1.019681907169676e+001
0	 5.399969999982152e+000	 5.866659999993465e+000	 1.019131558767761e+001
0	 5.399969999982150e+000	 5.933329999996681e+000	 1.018583432355760e+001
0	 5.399969999982150e+000	 6.000000000000000e+000	 1.018037014938826e+001
0	 5.466639999981867e+000	 5.333299999983335e+000	 1.023364949260911e+001
0	 5.466639999981866e+000	 5.399969999982149e+000	 1.022800974324094e+001
0	 5.466639999981865e+000	 5.466639999981865e+000	 1.022242331396490e+001
0	 5.466639999981865e+000	 5.533309999982381e+000	 1.021688467939505e+001
0	 5.466639999981866e+000	 5.599979999983598e+000	 1.021138831414547e+001
0	 5.466639999981866e+000	 5.666649999985415e+000	 1.020592869283023e+001
0	 5.466639999981867e+000	 5.733319999987732e+000	 1.020050029006342e+001
0	 5.466639999981866e+000	 5.799989999990448e+000	 1.019509758045908e+001
0	 5.466639999981865e+000	 5.866659999993466e+000	 1.018971503863130e+001
0	 5.466639999981866e+000	 5.933329999996682e+000	 1.018434713919414e+001
0	 5.466639999981867e+000	 6.000000000000001e+000	 1.017898835676167e+001
0	 5.533309999982382e+000	 5.333299999983334e+000	 1.023071182463115e+001
0	 5.533309999982381e+000	 5.399969999982148e+000	 1.022522645646127e+001
0	 5.533309999982382e+000	 5.466639999981866e+000	 1.021979101828359e+001
0	 5.533309999982382e+000	 5.533309999982383e+000	 1.021439969106017e+001
0	 5.533309999982382e+000	 5.599979999983598e+000	 1.020904665575308e+001
0	 5.533309999982382e+000	 5.666649999985415e+000	 1.020372609332439e+001
0	 5.533309999982382e+000	 5.733319999987731e+000	 1.019843218473616e+001
0	 5.533309999982381e+000	 5.799989999990448e+000	 1.019315911095049e+001
0	 5.533309999982381e+000	 5.866659999993465e+000	 1.018790105292942e+001
0	 5.533309999982384e+000	 5.933329999996681e+000	 1.018265219163505e+001
0	 5.533309999982383e+000	 6.000000000000000e+000	 1.017740670802943e+001
0	 5.599979999983598e+000	 5.333299999983333e+000	 1.022759647685142e+001
0	 5.599979999983599e+000	 5.399969999982150e+000	 1.022225880056169e+001
0	 5.599979999983599e+000	 5.466639999981866e+000	 1.021696871035456e+001
0	 5.599979999983596e+000	 5.533309999982381e+000	 1.021172019532547e+001
0	 5.599979999983599e+000	 5.599979999983598e+000	 1.020650724456993e+001
0	 5.599979999983598e+000	 5.666649999985414e+000	 1.020132384718341e+001
0	 5.599979999983598e+000	 5.733319999987731e+000	 1.019616399226139e+001
0	 5.599979999983598e+000	 5.799989999990447e+000	 1.019102166889932e+001
0	 5.599979999983599e+000	 5.866659999993464e+000	 1.018589086619273e+001
0	 5.599979999983599e+000	 5.933329999996682e+000	 1.018076557323706e+001
0	 5.599979999983598e+000	 6.000000000000000e+000	 1.017563977912783e+001
0	 5.666649999985414e+000	 5.333299999983334e+000	 1.022431639737177e+001
0	 5.666649999985416e+000	 5.399969999982151e+000	 1.021912156563135e+001
0	 5.666649999985415e+000	 5.466639999981865e+000	 1.021397264909782e+001
0	 5.666649999985415e+000	 5.533309999982382e+000	 1.020886354678549e+001
0	 5.666649999985416e+000	 5.599979999983599e+000	 1.020378815770865e+001
0	 5.666649999985413e+000	 5.666649999985413e+000	 1.019874038088158e+001
0	 5.666649999985414e+000	 5.733319999987733e+000	 1.019371411531859e+001
0	 5.666649999985414e+000	 5.799989999990446e+000	 1.018870326003395e+001
0	 5.666649999985415e+000	 5.866659999993463e+000	 1.018370171404199e+001
0	 5.666649999985415e+000	 5.933329999996681e+000	 1.017870337635698e+001
0	 5.666649999985415e+000	 6.000000000000000e+000	 1.017370214599321e+001
0	 5.733319999987731e+000	 5.333299999983334e+000	 1.022088453429403e+001
0	 5.733319999987733e+000	 5.399969999982150e+000	 1.021582954175939e+001
0	 5.733319999987733e+000	 5.466639999981865e+000	 1.021081909343346e+001
0	 5.733319999987733e+000	 5.533309999982382e+000	 1.020584710003476e+001
0	 5.733319999987731e+000	 5.599979999983598e+000	 1.020090747228182e+001
0	 5.733319999987731e+000	 5.666649999985416e+000	 1.019599412089317e+001
0	 5.733319999987733e+000	 5.733319999987733e+000	 1.019110095658729e+001
0	 5.733319999987733e+000	 5.799989999990449e+000	 1.018622189008269e+001
0	 5.733319999987733e+000	 5.866659999993464e+000	 1.018135083209794e+001
0	 5.733319999987733e+000	 5.933329999996682e+000	 1.017648169335150e+001
0	 5.733319999987732e+000	 6.000000000000000e+000	 1.017160838456190e+001
0	 5.799989999990449e+000	 5.333299999983335e+000	 1.021731383572001e+001
0	 5.799989999990447e+000	 5.399969999982148e+000	 1.021239751903493e+001
0	 5.799989999990449e+000	 5.466639999981867e+000	 1.020752430228148e+001
0	 5.799989999990449e+000	 5.533309999982381e+000	 1.020268820966783e+001
0	 5.799989999990447e+000	 5.599979999983598e+000	 1.019788326540211e+001
0	 5.799989999990448e+000	 5.666649999985414e+000	 1.019310349369244e+001
0	 5.799989999990448e+000	 5.733319999987732e+000	 1.018834291874700e+001
0	 5.799989999990448e+000	 5.799989999990448e+000	 1.018359556477392e+001
0	 5.799989999990449e+000	 5.866659999993463e+000	 1.017885545598133e+001
0	 5.799989999990448e+000	 5.933329999996682e+000	 1.017411661657739e+001
0	 5.799989999990447e+000	 6.000000000000000e+000	 1.016937307077024e+001
0	 5.866659999993464e+000	 5.333299999983334e+000	 1.021361724975154e+001
0	 5.866659999993464e+000	 5.399969999982150e+000	 1.020884028754714e+001
0	 5.866659999993465e+000	 5.466639999981866e+000	 1.020410453456199e+001
0	 5.866659999993464e+000	 5.533309999982381e+000	 1.019940423027923e+001
0	 5.866659999993463e+000	 5.599979999983597e+000	 1.019473361418208e+001
0	 5.866659999993466e+000	 5.666649999985416e+000	 1.019008692575368e+001
0	 5.866659999993467e+000	 5.733319999987733e+000	 1.018545840447725e+001
0	 5.866659999993463e+000	 5.799989999990448e+000	 1.018084228983596e+001
0	 5.866659999993465e+000	 5.866659999993466e+000	 1.017623282131295e+001
0	 5.866659999993464e+000	 5.933329999996681e+000	 1.017162423839143e+001
0	 5.866659999993464e+000	 5.999999999999999e+000	 1.016701078055455e+001
0	 5.933329999996681e+000	 5.333299999983334e+000	 1.020980772449045e+001
0	 5.933329999996681e+000	 5.399969999982150e+000	 1.020517263738518e+001
0	 5.933329999996682e+000	 5.466639999981867e+000	 1.020057604919498e+001
0	 5.933329999996681e+000	 5.533309999982383e+000	 1.019601251646351e+001
0	 5.933329999996682e+000	 5.599979999983599e+000	 1.019147659573438e+001
0	 5.933329999996680e+000	 5.666649999985415e+000	 1.018696284355118e+001
0	 5.933329999996682e+000	 5.733319999987732e+000	 1.018246581645757e+001
0	 5.933329999996681e+000	 5.799989999990448e+000	 1.017798007099713e+001
0	 5.933329999996682e+000	 5.866659999993464e+000	 1.017350016371353e+001
0	 5.933329999996681e+000	 5.933329999996682e+000	 1.016902065115034e+001
0	 5.933329999996680e+000	 5.999999999999999e+000	 1.016453608985120e+001
0	 6.000000000000000e+000	 5.333299999983334e+000	 1.020589820803854e+001
0	 6.000000000000000e+000	 5.399969999982150e+000	 1.020140935863815e+001
0	 6.000000000000000e+000	 5.466639999981867e+000	 1.019695510510055e+001
0	 5.999999999999999e+000	 5.533309999982383e+000	 1.019253042281522e+001
0	 6.000000000000000e+000	 5.599979999983598e+000	 1.018813028717160e+001
0	 6.000000000000001e+000	 5.666649999985416e+000	 1.018374967355921e+001
0	 6.000000000000001e+000	 5.733319999987732e+000	 1.017938355736745e+001
0	 6.000000000000001e+000	 5.799989999990447e+000	 1.017502691398584e+001
0	 5.999999999999999e+000	 5.866659999993464e+000	 1.017067471880382e+001
0	 6.000000000000000e+000	 5.933329999996681e+000	 1.016632194721088e+001
0	 5.999999999999998e+000	 5.999999999999999e+000	 1.016196357459647e+001
0	 5.333299999983333e+000	 6.000000000000000e+000	 1.018153750997282e+001
0	 5.333299999983334e+000	 6.066670000003316e+000	 1.017604142478391e+001
0	 5.333299999983333e+000	 6.133340000006530e+000	 1.017064657350053e+001
0	 5.333299999983333e+000	 6.200010000009549e+000	 1.016534950715889e+001
0	 5.333299999983334e+000	 6.266680000012265e+000	 1.016014677679521e+001
0	 5.333299999983332e+000	 6.333350000014582e+000	 1.015503493344565e+001
0	 5.333299999983334e+000	 6.400020000016399e+000	 1.015001052814649e+001
0	 5.333299999983334e+000	 6.466690000017615e+000	 1.014507011193389e+001
0	 5.333299999983332e+000	 6.533360000018132e+000	 1.014021023584408e+001
0	 5.333299999983334e+000	 6.600030000017847e+000	 1.013542745091326e+001
0	 5.333299999983333e+000	 6.666700000016665e+000	 1.013071830817766e+001
0	 5.399969999982150e+000	 6.000000000000000e+000	 1.018037014938826e+001
0	 5.399969999982149e+000	 6.066670000003315e+000	 1.017496255891227e+001
0	 5.399969999982150e+000	 6.133340000006534e+000	 1.016965225993161e+001
0	 5.399969999982150e+000	 6.200010000009550e+000	 1.016443594358653e+001
0	 5.399969999982150e+000	 6.266680000012268e+000	 1.015931030101734e+001
0	 5.399969999982151e+000	 6.333350000014585e+000	 1.015427202336427e+001
0	 5.399969999982149e+000	 6.400020000016399e+000	 1.014931780176765e+001
0	 5.399969999982149e+000	 6.466690000017616e+000	 1.014444432736773e+001
0	 5.399969999982148e+000	 6.533360000018130e+000	 1.013964829130483e+001
0	 5.399969999982151e+000	 6.600030000017849e+000	 1.013492638471919e+001
0	 5.399969999982149e+000	 6.666700000016665e+000	 1.013027529875112e+001
0	 5.466639999981867e+000	 6.000000000000001e+000	 1.017898835676167e+001
0	 5.466639999981866e+000	 6.066670000003317e+000	 1.017367956757912e+001
0	 5.466639999981866e+000	 6.133340000006533e+000	 1.016846320249752e+001
0	 5.466639999981867e+000	 6.200010000009551e+000	 1.016333606803976e+001
0	 5.466639999981866e+000	 6.266680000012267e+000	 1.015829497072872e+001
0	 5.466639999981864e+000	 6.333350000014582e+000	 1.015333671708726e+001
0	 5.466639999981867e+000	 6.400020000016399e+000	 1.014845811363829e+001
0	 5.466639999981865e+000	 6.466690000017616e+000	 1.014365596690465e+001
0	 5.466639999981865e+000	 6.533360000018130e+000	 1.013892708340921e+001
0	 5.466639999981866e+000	 6.600030000017850e+000	 1.013426826967489e+001
0	 5.466639999981865e+000	 6.666700000016668e+000	 1.012967633222456e+001
0	 5.533309999982383e+000	 6.000000000000000e+000	 1.017740670802943e+001
0	 5.533309999982382e+000	 6.066670000003315e+000	 1.017220542790123e+001
0	 5.533309999982381e+000	 6.133340000006534e+000	 1.016709098785375e+001
0	 5.533309999982381e+000	 6.200010000009550e+000	 1.016206028507097e+001
0	 5.533309999982381e+000	 6.266680000012264e+000	 1.015711021673688e+001
0	 5.533309999982382e+000	 6.333350000014583e+000	 1.015223768003549e+001
0	 5.533309999982384e+000	 6.400020000016401e+000	 1.014743957215078e+001
0	 5.533309999982382e+000	 6.466690000017614e+000	 1.014271279026676e+001
0	 5.533309999982382e+000	 6.533360000018133e+000	 1.013805423156739e+001
0	 5.533309999982381e+000	 6.600030000017848e+000	 1.013346079323670e+001
0	 5.533309999982381e+000	 6.666700000016665e+000	 1.012892937245868e+001
0	 5.599979999983598e+000	 6.000000000000000e+000	 1.017563977912783e+001
0	 5.599979999983598e+000	 6.066670000003317e+000	 1.017055311699544e+001
0	 5.599979999983598e+000	 6.133340000006532e+000	 1.016554720265583e+001
0	 5.599979999983599e+000	 6.200010000009550e+000	 1.016061899923258e+001
0	 5.599979999983597e+000	 6.266680000012265e+000	 1.015576546984938e+001
0	 5.599979999983598e+000	 6.333350000014583e+000	 1.015098357762982e+001
0	 5.599979999983597e+000	 6.400020000016397e+000	 1.014627028569758e+001
0	 5.599979999983598e+000	 6.466690000017617e+000	 1.014162255717626e+001
0	 5.599979999983598e+000	 6.533360000018132e+000	 1.013703735518949e+001
0	 5.599979999983600e+000	 6.600030000017849e+000	 1.013251164286095e+001
0	 5.599979999983598e+000	 6.666700000016665e+000	 1.012804238331424e+001
0	 5.666649999985415e+000	 6.000000000000000e+000	 1.017370214599321e+001
0	 5.666649999985415e+000	 6.066670000003319e+000	 1.016873561197855e+001
0	 5.666649999985415e+000	 6.133340000006534e+000	 1.016384343355921e+001
0	 5.666649999985415e+000	 6.200010000009550e+000	 1.015902261507701e+001
0	 5.666649999985415e+000	 6.266680000012266e+000	 1.015427016087371e+001
0	 5.666649999985415e+000	 6.333350000014583e+000	 1.014958307529114e+001
0	 5.666649999985414e+000	 6.400020000016398e+000	 1.014495836267108e+001
0	 5.666649999985414e+000	 6.466690000017617e+000	 1.014039302735534e+001
0	 5.666649999985414e+000	 6.533360000018130e+000	 1.013588407368570e+001
0	 5.666649999985417e+000	 6.600030000017849e+000	 1.013142850600400e+001
0	 5.666649999985415e+000	 6.666700000016665e+000	 1.012702332865200e+001
0	 5.733319999987732e+000	 6.000000000000000e+000	 1.017160838456190e+001
0	 5.733319999987733e+000	 6.066670000003317e+000	 1.016676588996738e+001
0	 5.733319999987732e+000	 6.133340000006532e+000	 1.016199126721946e+001
0	 5.733319999987733e+000	 6.200010000009550e+000	 1.015728153715665e+001
0	 5.733319999987732e+000	 6.266680000012266e+000	 1.015263372061743e+001
0	 5.733319999987731e+000	 6.333350000014582e+000	 1.014804483844028e+001
0	 5.733319999987732e+000	 6.400020000016399e+000	 1.014351191146369e+001
0	 5.733319999987732e+000	 6.466690000017616e+000	 1.013903196052616e+001
0	 5.733319999987730e+000	 6.533360000018130e+000	 1.013460200646616e+001
0	 5.733319999987732e+000	 6.600030000017848e+000	 1.013021907012216e+001
0	 5.733319999987732e+000	 6.666700000016666e+000	 1.012588017233271e+001
0	 5.799989999990447e+000	 6.000000000000000e+000	 1.016937307077024e+001
0	 5.799989999990450e+000	 6.066670000003319e+000	 1.016465692807872e+001
0	 5.799989999990447e+000	 6.133340000006532e+000	 1.016000229029204e+001
0	 5.799989999990447e+000	 6.200010000009550e+000	 1.015540617002392e+001
0	 5.799989999990449e+000	 6.266680000012267e+000	 1.015086557988806e+001
0	 5.799989999990448e+000	 6.333350000014582e+000	 1.014637753249814e+001
0	 5.799989999990448e+000	 6.400020000016398e+000	 1.014193904046783e+001
0	 5.799989999990448e+000	 6.466690000017615e+000	 1.013754711641090e+001
0	 5.799989999990450e+000	 6.533360000018132e+000	 1.013319877294099e+001
0	 5.799989999990447e+000	 6.600030000017847e+000	 1.012889102267182e+001
0	 5.799989999990448e+000	 6.666700000016666e+000	 1.012462087821709e+001
0	 5.866659999993464e+000	 5.999999999999999e+000	 1.016701078055455e+001
0	 5.866659999993464e+000	 6.066670000003316e+000	 1.016242170342939e+001
0	 5.866659999993464e+000	 6.133340000006532e+000	 1.015788808943249e+001
0	 5.866659999993464e+000	 6.200010000009550e+000	 1.015340691823126e+001
0	 5.866659999993463e+000	 6.266680000012265e+000	 1.014897516949312e+001
0	 5.866659999993464e+000	 6.333350000014582e+000	 1.014458982288556e+001
0	 5.866659999993463e+000	 6.400020000016399e+000	 1.014024785807596e+001
0	 5.866659999993464e+000	 6.466690000017617e+000	 1.013594625473176e+001
0	 5.866659999993463e+000	 6.533360000018131e+000	 1.013168199252040e+001
0	 5.866659999993465e+000	 6.600030000017848e+000	 1.012745205110932e+001
0	 5.866659999993463e+000	 6.666700000016666e+000	 1.012325341016591e+001
0	 5.933329999996680e+000	 5.999999999999999e+000	 1.016453608985120e+001
0	 5.933329999996682e+000	 6.066670000003318e+000	 1.016007319313623e+001
0	 5.933329999996681e+000	 6.133340000006534e+000	 1.015566025129629e+001
0	 5.933329999996681e+000	 6.200010000009550e+000	 1.015129418633104e+001
0	 5.933329999996682e+000	 6.266680000012266e+000	 1.014697192024019e+001
0	 5.933329999996681e+000	 6.333350000014584e+000	 1.014269037502343e+001
0	 5.933329999996682e+000	 6.400020000016399e+000	 1.013844647268044e+001
0	 5.933329999996682e+000	 6.466690000017615e+000	 1.013423713521090e+001
0	 5.933329999996682e+000	 6.533360000018133e+000	 1.013005928461452e+001
0	 5.933329999996682e+000	 6.600030000017848e+000	 1.012590984289097e+001
0	 5.933329999996681e+000	 6.666700000016665e+000	 1.012178573203994e+001
0	 5.999999999999998e+000	 5.999999999999999e+000	 1.016196357459647e+001
0	 6.000000000000000e+000	 6.066670000003318e+000	 1.015762437431602e+001
0	 6.000000000000000e+000	 6.133340000006533e+000	 1.015333036253895e+001
0	 5.999999999999999e+000	 6.200010000009550e+000	 1.014907837887569e+001
0	 6.000000000000000e+000	 6.266680000012266e+000	 1.014486526293676e+001
0	 5.999999999999999e+000	 6.333350000014583e+000	 1.014068785433262e+001
0	 5.999999999999999e+000	 6.400020000016399e+000	 1.013654299267370e+001
0	 6.000000000000001e+000	 6.466690000017615e+000	 1.013242751757051e+001
0	 6.000000000000002e+000	 6.533360000018133e+000	 1.012833826863350e+001
0	 6.000000000000000e+000	 6.600030000017848e+000	 1.012427208547313e+001
0	 6.000000000000001e+000	 6.666700000016666e+000	 1.012022580769989e+001
0	 5.333299999983333e+000	 6.666700000016665e+000	 1.013071830817766e+001
0	 5.333299999983335e+000	 6.733360000014533e+000	 1.012608795088572e+001
0	 5.333299999983335e+000	 6.800020000011599e+000	 1.012154124173483e+001
0	 5.333299999983333e+000	 6.866680000008065e+000	 1.011707641389152e+001
0	 5.333299999983334e+000	 6.933340000004136e+000	 1.011269170052232e+001
0	 5.333299999983335e+000	 7.000000000000002e+000	 1.010838533479374e+001
0	 5.333299999983335e+000	 7.066659999995870e+000	 1.010415554987231e+001
0	 5.333299999983334e+000	 7.133319999991936e+000	 1.010000057892452e+001
0	 5.333299999983334e+000	 7.199979999988403e+000	 1.009591865511695e+001
0	 5.333299999983335e+000	 7.266639999985472e+000	 1.009190801161606e+001
0	 5.333299999983334e+000	 7.333299999983334e+000	 1.008796688158838e+001
0	 5.399969999982149e+000	 6.666700000016665e+000	 1.013027529875113e+001
0	 5.399969999982151e+000	 6.733360000014533e+000	 1.012569992551478e+001
0	 5.399969999982149e+000	 6.800020000011598e+000	 1.012120470041854e+001
0	 5.399969999982148e+000	 6.866680000008065e+000	 1.011678770699048e+001
0	 5.399969999982147e+000	 6.933340000004132e+000	 1.011244702875876e+001
0	 5.399969999982148e+000	 7.000000000000003e+000	 1.010818074925140e+001
0	 5.399969999982150e+000	 7.066659999995870e+000	 1.010398695199653e+001
0	 5.399969999982151e+000	 7.133319999991937e+000	 1.009986372052227e+001
0	 5.399969999982150e+000	 7.199979999988405e+000	 1.009580913835668e+001
0	 5.399969999982151e+000	 7.266639999985471e+000	 1.009182128902783e+001
0	 5.399969999982149e+000	 7.333299999983333e+000	 1.008789825606388e+001
0	 5.466639999981865e+000	 6.666700000016668e+000	 1.012967633222456e+001
0	 5.466639999981866e+000	 6.733360000014534e+000	 1.012515673936047e+001
0	 5.466639999981865e+000	 6.800020000011600e+000	 1.012071435250463e+001
0	 5.466639999981865e+000	 6.866680000008067e+000	 1.011634711956055e+001
0	 5.466639999981866e+000	 6.933340000004135e+000	 1.011205298843180e+001
0	 5.466639999981865e+000	 7.000000000000001e+000	 1.010782990702187e+001
0	 5.466639999981865e+000	 7.066659999995869e+000	 1.010367582323431e+001
0	 5.466639999981866e+000	 7.133319999991937e+000	 1.009958868497267e+001
0	 5.466639999981866e+000	 7.199979999988405e+000	 1.009556644014047e+001
0	 5.466639999981865e+000	 7.266639999985472e+000	 1.009160703664122e+001
0	 5.466639999981865e+000	 7.333299999983330e+000	 1.008770842237849e+001
0	 5.533309999982381e+000	 6.666700000016665e+000	 1.012892937245868e+001
0	 5.533309999982381e+000	 6.733360000014532e+000	 1.012446668705535e+001
0	 5.533309999982381e+000	 6.800020000011599e+000	 1.012007872388832e+001
0	 5.533309999982384e+000	 6.866680000008068e+000	 1.011576330925036e+001
0	 5.533309999982381e+000	 6.933340000004134e+000	 1.011151826943434e+001
0	 5.533309999982384e+000	 7.000000000000003e+000	 1.010734143073313e+001
0	 5.533309999982381e+000	 7.066659999995869e+000	 1.010323061943951e+001
0	 5.533309999982383e+000	 7.133319999991937e+000	 1.009918366184634e+001
0	 5.533309999982382e+000	 7.199979999988406e+000	 1.009519838424643e+001
0	 5.533309999982382e+000	 7.266639999985472e+000	 1.009127261293261e+001
0	 5.533309999982382e+000	 7.333299999983333e+000	 1.008740417419772e+001
0	 5.599979999983598e+000	 6.666700000016665e+000	 1.012804238331424e+001
0	 5.599979999983598e+000	 6.733360000014534e+000	 1.012363806323201e+001
0	 5.599979999983598e+000	 6.800020000011601e+000	 1.011930634046482e+001
0	 5.599979999983598e+000	 6.866680000008066e+000	 1.011504493370860e+001
0	 5.599979999983598e+000	 6.933340000004134e+000	 1.011085156165942e+001
0	 5.599979999983599e+000	 7.000000000000002e+000	 1.010672394301321e+001
0	 5.599979999983598e+000	 7.066659999995867e+000	 1.010265979646604e+001
0	 5.599979999983598e+000	 7.133319999991937e+000	 1.009865684071383e+001
0	 5.599979999983598e+000	 7.199979999988404e+000	 1.009471279445260e+001
0	 5.599979999983597e+000	 7.266639999985470e+000	 1.009082537637836e+001
0	 5.599979999983599e+000	 7.333299999983333e+000	 1.008699230518706e+001
0	 5.666649999985415e+000	 6.666700000016665e+000	 1.012702332865200e+001
0	 5.666649999985417e+000	 6.733360000014534e+000	 1.012267916252304e+001
0	 5.666649999985416e+000	 6.800020000011601e+000	 1.011840572812933e+001
0	 5.666649999985414e+000	 6.866680000008066e+000	 1.011420065058394e+001
0	 5.666649999985416e+000	 6.933340000004133e+000	 1.011006155499984e+001
0	 5.666649999985416e+000	 7.000000000000002e+000	 1.010598606649008e+001
0	 5.666649999985414e+000	 7.066659999995870e+000	 1.010197181016772e+001
0	 5.666649999985415e+000	 7.133319999991937e+000	 1.009801641114569e+001
0	 5.666649999985414e+000	 7.199979999988403e+000	 1.009411749453707e+001
0	 5.666649999985416e+000	 7.266639999985471e+000	 1.009027268545482e+001
0	 5.666649999985415e+000	 7.333299999983334e+000	 1.008647960901199e+001
0	 5.733319999987732e+000	 6.666700000016666e+000	 1.012588017233271e+001
0	 5.733319999987732e+000	 6.733360000014532e+000	 1.012159827956098e+001
0	 5.733319999987730e+000	 6.800020000011600e+000	 1.011738541277713e+001
0	 5.733319999987732e+000	 6.866680000008068e+000	 1.011323911752502e+001
0	 5.733319999987730e+000	 6.933340000004131e+000	 1.010915693934862e+001
0	 5.733319999987732e+000	 7.000000000000001e+000	 1.010513642379179e+001
0	 5.733319999987731e+000	 7.066659999995870e+000	 1.010117511639847e+001
0	 5.733319999987732e+000	 7.133319999991937e+000	 1.009727056271252e+001
0	 5.733319999987731e+000	 7.199979999988404e+000	 1.009342030827786e+001
0	 5.733319999987732e+000	 7.266639999985472e+000	 1.008962189863840e+001
0	 5.733319999987732e+000	 7.333299999983334e+000	 1.008587287933803e+001
0	 5.799989999990448e+000	 6.666700000016666e+000	 1.012462087821709e+001
0	 5.799989999990448e+000	 6.733360000014534e+000	 1.012040370897844e+001
0	 5.799989999990447e+000	 6.800020000011599e+000	 1.011625392030337e+001
0	 5.799989999990448e+000	 6.866680000008067e+000	 1.011216899218054e+001
0	 5.799989999990448e+000	 6.933340000004134e+000	 1.010814640459865e+001
0	 5.799989999990448e+000	 6.999999999999999e+000	 1.010418363754628e+001
0	 5.799989999990448e+000	 7.066659999995870e+000	 1.010027817101215e+001
0	 5.799989999990450e+000	 7.133319999991938e+000	 1.009642748498485e+001
0	 5.799989999990446e+000	 7.199979999988403e+000	 1.009262905945309e+001
0	 5.799989999990447e+000	 7.266639999985470e+000	 1.008888037440546e+001
0	 5.799989999990447e+000	 7.333299999983335e+000	 1.008517890983065e+001
0	 5.866659999993463e+000	 6.666700000016666e+000	 1.012325341016591e+001
0	 5.866659999993465e+000	 6.733360000014533e+000	 1.011910374540799e+001
0	 5.866659999993466e+000	 6.800020000011599e+000	 1.011501977660332e+001
0	 5.866659999993463e+000	 6.866680000008067e+000	 1.011099893219920e+001
0	 5.866659999993466e+000	 6.933340000004134e+000	 1.010703864064285e+001
0	 5.866659999993464e+000	 7.000000000000003e+000	 1.010313633038159e+001
0	 5.866659999993464e+000	 7.066659999995869e+000	 1.009928942986266e+001
0	 5.866659999993464e+000	 7.133319999991936e+000	 1.009549536753329e+001
0	 5.866659999993466e+000	 7.199979999988402e+000	 1.009175157184077e+001
0	 5.866659999993463e+000	 7.266639999985468e+000	 1.008805547123238e+001
0	 5.866659999993464e+000	 7.333299999983335e+000	 1.008440449415531e+001
0	 5.933329999996681e+000	 6.666700000016665e+000	 1.012178573203994e+001
0	 5.933329999996682e+000	 6.733360000014534e+000	 1.011770668348221e+001
0	 5.933329999996681e+000	 6.800020000011600e+000	 1.011369150757220e+001
0	 5.933329999996682e+000	 6.866680000008069e+000	 1.010973759522960e+001
0	 5.933329999996680e+000	 6.933340000004135e+000	 1.010584233737420e+001
0	 5.933329999996682e+000	 7.000000000000001e+000	 1.010200312492571e+001
0	 5.933329999996682e+000	 7.066659999995870e+000	 1.009821734880386e+001
0	 5.933329999996681e+000	 7.133319999991937e+000	 1.009448239992839e+001
0	 5.933329999996682e+000	 7.199979999988405e+000	 1.009079566921903e+001
0	 5.933329999996682e+000	 7.266639999985472e+000	 1.008715454759551e+001
0	 5.933329999996681e+000	 7.333299999983335e+000	 1.008355642597755e+001
0	 6.000000000000001e+000	 6.666700000016666e+000	 1.012022580769989e+001
0	 5.999999999999999e+000	 6.733360000014533e+000	 1.011622081783370e+001
0	 6.000000000000001e+000	 6.800020000011600e+000	 1.011227763910519e+001
0	 5.999999999999999e+000	 6.866680000008066e+000	 1.010839363892047e+001
0	 6.000000000000001e+000	 6.933340000004135e+000	 1.010456618468559e+001
0	 5.999999999999999e+000	 7.000000000000002e+000	 1.010079264380663e+001
0	 5.999999999999998e+000	 7.066659999995869e+000	 1.009707038368963e+001
0	 5.999999999999998e+000	 7.133319999991936e+000	 1.009339677174069e+001
0	 6.000000000000000e+000	 7.199979999988403e+000	 1.008976917536588e+001
0	 5.999999999999999e+000	 7.266639999985472e+000	 1.008618496197124e+001
0	 6.000000000000001e+000	 7.333299999983335e+000	 1.008264149896285e+001
0	 5.333299999983334e+000	 7.333299999983334e+000	 1.008796688158838e+001
0	 5.333299999983332e+000	 7.399969999982148e+000	 1.008410335516048e+001
0	 5.333299999983334e+000	 7.466639999981866e+000	 1.008032646579554e+001
0	 5.333299999983335e+000	 7.533309999982381e+000	 1.007663410335618e+001
0	 5.333299999983333e+000	 7.599979999983599e+000	 1.007302415770504e+001
0	 5.333299999983334e+000	 7.666649999985415e+000	 1.006949451870468e+001
0	 5.333299999983333e+000	 7.733319999987731e+000	 1.006604307621776e+001
0	 5.333299999983334e+000	 7.799989999990449e+000	 1.006266772010688e+001
0	 5.333299999983335e+000	 7.866659999993465e+000	 1.005936634023468e+001
0	 5.333299999983334e+000	 7.933329999996681e+000	 1.005613682646375e+001
0	 5.333299999983333e+000	 8.000000000000002e+000	 1.005297706865672e+001
0	 5.399969999982149e+000	 7.333299999983333e+000	 1.008789825606387e+001
0	 5.399969999982150e+000	 7.399969999982147e+000	 1.008404996376918e+001
0	 5.399969999982147e+000	 7.466639999981865e+000	 1.008028733033014e+001
0	 5.399969999982149e+000	 7.533309999982384e+000	 1.007660817885405e+001
0	 5.399969999982149e+000	 7.599979999983599e+000	 1.007301033244825e+001
0	 5.399969999982151e+000	 7.666649999985414e+000	 1.006949161422001e+001
0	 5.399969999982150e+000	 7.733319999987733e+000	 1.006604984727660e+001
0	 5.399969999982150e+000	 7.799989999990449e+000	 1.006268285472537e+001
0	 5.399969999982149e+000	 7.866659999993464e+000	 1.005938845967360e+001
0	 5.399969999982150e+000	 7.933329999996682e+000	 1.005616448522862e+001
0	 5.399969999982149e+000	 8.000000000000000e+000	 1.005300875449771e+001
0	 5.466639999981865e+000	 7.333299999983330e+000	 1.008770842237849e+001
0	 5.466639999981866e+000	 7.399969999982151e+000	 1.008388185298850e+001
0	 5.466639999981866e+000	 7.466639999981867e+000	 1.008013962127610e+001
0	 5.466639999981866e+000	 7.533309999982384e+000	 1.007647948971689e+001
0	 5.466639999981866e+000	 7.599979999983598e+000	 1.007289922078642e+001
0	 5.466639999981866e+000	 7.666649999985417e+000	 1.006939657696029e+001
0	 5.466639999981865e+000	 7.733319999987732e+000	 1.006596932071407e+001
0	 5.466639999981866e+000	 7.799989999990449e+000	 1.006261521452338e+001
0	 5.466639999981866e+000	 7.866659999993464e+000	 1.005933202086376e+001
0	 5.466639999981868e+000	 7.933329999996682e+000	 1.005611750221082e+001
0	 5.466639999981868e+000	 8.000000000000000e+000	 1.005296942104015e+001
0	 5.533309999982382e+000	 7.333299999983333e+000	 1.008740417419772e+001
0	 5.533309999982381e+000	 7.399969999982150e+000	 1.008360522774341e+001
0	 5.533309999982381e+000	 7.466639999981866e+000	 1.007988900665212e+001
0	 5.533309999982383e+000	 7.533309999982381e+000	 1.007625321889130e+001
0	 5.533309999982383e+000	 7.599979999983599e+000	 1.007269557242840e+001
0	 5.533309999982381e+000	 7.666649999985415e+000	 1.006921377523090e+001
0	 5.533309999982381e+000	 7.733319999987729e+000	 1.006580553526626e+001
0	 5.533309999982381e+000	 7.799989999990447e+000	 1.006246856050195e+001
0	 5.533309999982381e+000	 7.866659999993464e+000	 1.005920055890544e+001
0	 5.533309999982384e+000	 7.933329999996682e+000	 1.005599923844418e+001
0	 5.533309999982382e+000	 7.999999999999999e+000	 1.005286230708564e+001
0	 5.599979999983599e+000	 7.333299999983333e+000	 1.008699230518706e+001
0	 5.599979999983598e+000	 7.399969999982150e+000	 1.008322629295885e+001
0	 5.599979999983600e+000	 7.466639999981867e+000	 1.007954115447683e+001
0	 5.599979999983598e+000	 7.533309999982381e+000	 1.007593454932389e+001
0	 5.599979999983599e+000	 7.599979999983598e+000	 1.007240413708303e+001
0	 5.599979999983598e+000	 7.666649999985415e+000	 1.006894757733718e+001
0	 5.599979999983598e+000	 7.733319999987732e+000	 1.006556252966924e+001
0	 5.599979999983598e+000	 7.799989999990448e+000	 1.006224665366220e+001
0	 5.599979999983598e+000	 7.866659999993466e+000	 1.005899760889897e+001
0	 5.599979999983597e+000	 7.933329999996679e+000	 1.005581305496252e+001
0	 5.599979999983598e+000	 8.000000000000000e+000	 1.005269065143578e+001
0	 5.666649999985415e+000	 7.333299999983334e+000	 1.008647960901199e+001
0	 5.666649999985416e+000	 7.399969999982151e+000	 1.008275125355977e+001
0	 5.666649999985414e+000	 7.466639999981868e+000	 1.007910173276886e+001
0	 5.666649999985416e+000	 7.533309999982383e+000	 1.007552866396134e+001
0	 5.666649999985416e+000	 7.599979999983599e+000	 1.007202966445919e+001
0	 5.666649999985413e+000	 7.666649999985415e+000	 1.006860235158442e+001
0	 5.666649999985413e+000	 7.733319999987732e+000	 1.006524434265907e+001
0	 5.666649999985414e+000	 7.799989999990447e+000	 1.006195325500513e+001
0	 5.666649999985415e+000	 7.866659999993463e+000	 1.005872670594465e+001
0	 5.666649999985414e+000	 7.933329999996681e+000	 1.005556231279964e+001
0	 5.666649999985416e+000	 8.000000000000002e+000	 1.005245769289213e+001
0	 5.733319999987732e+000	 7.333299999983334e+000	 1.008587287933802e+001
0	 5.733319999987732e+000	 7.399969999982147e+000	 1.008218631447109e+001
0	 5.733319999987732e+000	 7.466639999981865e+000	 1.007857640954694e+001
0	 5.733319999987732e+000	 7.533309999982383e+000	 1.007504074575025e+001
0	 5.733319999987731e+000	 7.599979999983597e+000	 1.007157690426570e+001
0	 5.733319999987731e+000	 7.666649999985415e+000	 1.006818246627798e+001
0	 5.733319999987732e+000	 7.733319999987731e+000	 1.006485501297180e+001
0	 5.733319999987732e+000	 7.799989999990449e+000	 1.006159212553186e+001
0	 5.733319999987733e+000	 7.866659999993464e+000	 1.005839138514284e+001
0	 5.733319999987732e+000	 7.933329999996681e+000	 1.005525037298941e+001
0	 5.733319999987732e+000	 8.000000000000002e+000	 1.005216667025630e+001
0	 5.799989999990447e+000	 7.333299999983335e+000	 1.008517890983065e+001
0	 5.799989999990447e+000	 7.399969999982149e+000	 1.008153768061780e+001
0	 5.799989999990448e+000	 7.466639999981866e+000	 1.007797085282968e+001
0	 5.799989999990448e+000	 7.533309999982381e+000	 1.007447597763724e+001
0	 5.799989999990447e+000	 7.599979999983598e+000	 1.007105060621143e+001
0	 5.799989999990447e+000	 7.666649999985415e+000	 1.006769228972321e+001
0	 5.799989999990447e+000	 7.733319999987731e+000	 1.006439857934357e+001
0	 5.799989999990448e+000	 7.799989999990449e+000	 1.006116702624344e+001
0	 5.799989999990449e+000	 7.866659999993465e+000	 1.005799518159378e+001
0	 5.799989999990449e+000	 7.933329999996682e+000	 1.005488059656560e+001
0	 5.799989999990447e+000	 8.000000000000000e+000	 1.005182082232984e+001
0	 5.866659999993464e+000	 7.333299999983335e+000	 1.008440449415531e+001
0	 5.866659999993464e+000	 7.399969999982150e+000	 1.008081155692482e+001
0	 5.866659999993465e+000	 7.466639999981865e+000	 1.007729073063576e+001
0	 5.866659999993463e+000	 7.533309999982382e+000	 1.007383954256893e+001
0	 5.866659999993465e+000	 7.599979999983598e+000	 1.007045552000522e+001
0	 5.866659999993464e+000	 7.666649999985415e+000	 1.006713619022541e+001
0	 5.866659999993465e+000	 7.733319999987730e+000	 1.006387908051038e+001
0	 5.866659999993464e+000	 7.799989999990449e+000	 1.006068171814091e+001
0	 5.866659999993465e+000	 7.866659999993463e+000	 1.005754163039786e+001
0	 5.866659999993464e+000	 7.933329999996682e+000	 1.005445634456208e+001
0	 5.866659999993464e+000	 8.000000000000000e+000	 1.005142338791438e+001
0	 5.933329999996681e+000	 7.333299999983335e+000	 1.008355642597755e+001
0	 5.933329999996682e+000	 7.399969999982151e+000	 1.008001414831710e+001
0	 5.933329999996681e+000	 7.466639999981865e+000	 1.007654171098381e+001
0	 5.933329999996680e+000	 7.533309999982381e+000	 1.007313662349199e+001
0	 5.933329999996682e+000	 7.599979999983599e+000	 1.006979639535593e+001
0	 5.933329999996680e+000	 7.666649999985415e+000	 1.006651853608996e+001
0	 5.933329999996682e+000	 7.733319999987733e+000	 1.006330055520833e+001
0	 5.933329999996682e+000	 7.799989999990450e+000	 1.006013996222538e+001
0	 5.933329999996681e+000	 7.866659999993465e+000	 1.005703426665536e+001
0	 5.933329999996682e+000	 7.933329999996682e+000	 1.005398097801264e+001
0	 5.933329999996680e+000	 8.000000000000000e+000	 1.005097760581145e+001
0	 6.000000000000001e+000	 7.333299999983335e+000	 1.008264149896284e+001
0	 5.999999999999999e+000	 7.399969999982151e+000	 1.007915165971958e+001
0	 6.000000000000001e+000	 7.466639999981866e+000	 1.007572946189251e+001
0	 6.000000000000001e+000	 7.533309999982382e+000	 1.007237240335301e+001
0	 6.000000000000002e+000	 7.599979999983599e+000	 1.006907798197243e+001
0	 6.000000000000000e+000	 7.666649999985416e+000	 1.006584369562214e+001
0	 6.000000000000000e+000	 7.733319999987733e+000	 1.006266704217350e+001
0	 5.999999999999999e+000	 7.799989999990448e+000	 1.005954551949786e+001
0	 6.000000000000000e+000	 7.866659999993465e+000	 1.005647662546662e+001
0	 6.000000000000001e+000	 7.933329999996682e+000	 1.005345785795110e+001
0	 5.999999999999999e+000	 7.999999999999999e+000	 1.005048671482269e+001
0	 5.333299999983333e+000	 8.000000000000002e+000	 1.005297706865672e+001
0	 5.333299999983334e+000	 8.066670000003317e+000	 1.004989609167830e+001
0	 5.333299999983333e+000	 8.133340000006532e+000	 1.004690256122652e+001
0	 5.333299999983333e+000	 8.200010000009550e+000	 1.004399382841411e+001
0	 5.333299999983334e+000	 8.266680000012267e+000	 1.004116724435377e+001
0	 5.333299999983335e+000	 8.333350000014583e+000	 1.003842016015820e+001
0	 5.333299999983334e+000	 8.400020000016399e+000	 1.003574992694013e+001
0	 5.333299999983334e+000	 8.466690000017616e+000	 1.003315389581226e+001
0	 5.333299999983333e+000	 8.533360000018133e+000	 1.003062941788732e+001
0	 5.333299999983334e+000	 8.600030000017847e+000	 1.002817384427802e+001
0	 5.333299999983334e+000	 8.666700000016666e+000	 1.002578452609707e+001
0	 5.399969999982149e+000	 8.000000000000000e+000	 1.005300875449771e+001
0	 5.399969999982149e+000	 8.066670000003317e+000	 1.004993080814805e+001
0	 5.399969999982150e+000	 8.133340000006532e+000	 1.004693982876626e+001
0	 5.399969999982151e+000	 8.200010000009549e+000	 1.004403310233871e+001
0	 5.399969999982150e+000	 8.266680000012265e+000	 1.004120791485190e+001
0	 5.399969999982150e+000	 8.333350000014582e+000	 1.003846155229224e+001
0	 5.399969999982149e+000	 8.400020000016399e+000	 1.003579130064615e+001
0	 5.399969999982151e+000	 8.466690000017616e+000	 1.003319444590011e+001
0	 5.399969999982148e+000	 8.533360000018128e+000	 1.003066827404052e+001
0	 5.399969999982150e+000	 8.600030000017847e+000	 1.002821007105385e+001
0	 5.399969999982151e+000	 8.666700000016668e+000	 1.002581712292654e+001
0	 5.466639999981868e+000	 8.000000000000000e+000	 1.005296942104015e+001
0	 5.466639999981865e+000	 8.066670000003317e+000	 1.004989797445579e+001
0	 5.466639999981865e+000	 8.133340000006530e+000	 1.004691300110234e+001
0	 5.466639999981867e+000	 8.200010000009554e+000	 1.004401172576616e+001
0	 5.466639999981866e+000	 8.266680000012265e+000	 1.004119137323360e+001
0	 5.466639999981867e+000	 8.333350000014585e+000	 1.003844916829106e+001
0	 5.466639999981866e+000	 8.400020000016397e+000	 1.003578233572489e+001
0	 5.466639999981865e+000	 8.466690000017616e+000	 1.003318810032150e+001
0	 5.466639999981867e+000	 8.533360000018133e+000	 1.003066368686723e+001
0	 5.466639999981866e+000	 8.600030000017847e+000	 1.002820632014847e+001
0	 5.466639999981867e+000	 8.666700000016668e+000	 1.002581322495161e+001
0	 5.533309999982382e+000	 7.999999999999999e+000	 1.005286230708564e+001
0	 5.533309999982385e+000	 8.066670000003315e+000	 1.004980072887586e+001
0	 5.533309999982382e+000	 8.133340000006530e+000	 1.004682510755753e+001
0	 5.533309999982381e+000	 8.200010000009550e+000	 1.004393261064316e+001
0	 5.533309999982381e+000	 8.266680000012267e+000	 1.004112040564530e+001
0	 5.533309999982383e+000	 8.333350000014583e+000	 1.003838566007643e+001
0	 5.533309999982384e+000	 8.400020000016401e+000	 1.003572554144913e+001
0	 5.533309999982383e+000	 8.466690000017616e+000	 1.003313721727585e+001
0	 5.533309999982382e+000	 8.533360000018135e+000	 1.003061785506917e+001
0	 5.533309999982381e+000	 8.600030000017847e+000	 1.002816462234163e+001
0	 5.533309999982382e+000	 8.666700000016666e+000	 1.002577468660569e+001
0	 5.599979999983598e+000	 8.000000000000000e+000	 1.005269065143578e+001
0	 5.599979999983598e+000	 8.066670000003315e+000	 1.004964220968252e+001
0	 5.599979999983598e+000	 8.133340000006532e+000	 1.004667917745445e+001
0	 5.599979999983598e+000	 8.200010000009549e+000	 1.004379866891643e+001
0	 5.599979999983598e+000	 8.266680000012265e+000	 1.004099779823340e+001
0	 5.599979999983599e+000	 8.333350000014583e+000	 1.003827367957014e+001
0	 5.599979999983598e+000	 8.400020000016397e+000	 1.003562342709160e+001
0	 5.599979999983598e+000	 8.466690000017612e+000	 1.003304415496265e+001
0	 5.599979999983599e+000	 8.533360000018131e+000	 1.003053297734818e+001
0	 5.599979999983599e+000	 8.600030000017847e+000	 1.002808700841307e+001
0	 5.599979999983598e+000	 8.666700000016668e+000	 1.002570336232219e+001
0	 5.666649999985416e+000	 8.000000000000002e+000	 1.005245769289213e+001
0	 5.666649999985414e+000	 8.066670000003315e+000	 1.004942555515008e+001
0	 5.666649999985416e+000	 8.133340000006538e+000	 1.004647824011581e+001
0	 5.666649999985414e+000	 8.200010000009549e+000	 1.004361281253272e+001
0	 5.666649999985415e+000	 8.266680000012268e+000	 1.004082633714429e+001
0	 5.666649999985414e+000	 8.333350000014582e+000	 1.003811587869395e+001
0	 5.666649999985415e+000	 8.400020000016401e+000	 1.003547850192514e+001
0	 5.666649999985416e+000	 8.466690000017616e+000	 1.003291127158136e+001
0	 5.666649999985416e+000	 8.533360000018131e+000	 1.003041125240601e+001
0	 5.666649999985417e+000	 8.600030000017849e+000	 1.002797550914258e+001
0	 5.666649999985414e+000	 8.666700000016666e+000	 1.002560110653451e+001
0	 5.733319999987732e+000	 8.000000000000002e+000	 1.005216667025630e+001
0	 5.733319999987731e+000	 8.066670000003317e+000	 1.004915390355289e+001
0	 5.733319999987732e+000	 8.133340000006534e+000	 1.004622532486430e+001
0	 5.733319999987732e+000	 8.200010000009552e+000	 1.004337795343872e+001
0	 5.733319999987731e+000	 8.266680000012267e+000	 1.004060880852442e+001
0	 5.733319999987731e+000	 8.333350000014583e+000	 1.003791490936961e+001
0	 5.733319999987731e+000	 8.400020000016397e+000	 1.003529327522251e+001
0	 5.733319999987731e+000	 8.466690000017616e+000	 1.003274092533137e+001
0	 5.733319999987732e+000	 8.533360000018131e+000	 1.003025487894443e+001
0	 5.733319999987732e+000	 8.600030000017847e+000	 1.002783215530991e+001
0	 5.733319999987732e+000	 8.666700000016665e+000	 1.002546977367607e+001
0	 5.799989999990447e+000	 8.000000000000000e+000	 1.005182082232984e+001
0	 5.799989999990450e+000	 8.066670000003319e+000	 1.004883039316521e+001
0	 5.799989999990448e+000	 8.133340000006534e+000	 1.004592346102258e+001
0	 5.799989999990448e+000	 8.200010000009549e+000	 1.004309700358116e+001
0	 5.799989999990448e+000	 8.266680000012265e+000	 1.004034799852021e+001
0	 5.799989999990448e+000	 8.333350000014582e+000	 1.003767342351889e+001
0	 5.799989999990448e+000	 8.400020000016399e+000	 1.003507025625649e+001
0	 5.799989999990446e+000	 8.466690000017614e+000	 1.003253547441219e+001
0	 5.799989999990450e+000	 8.533360000018135e+000	 1.003006605566523e+001
0	 5.799989999990449e+000	 8.600030000017849e+000	 1.002765897769487e+001
0	 5.799989999990449e+000	 8.666700000016670e+000	 1.002531121818029e+001
0	 5.866659999993464e+000	 8.000000000000000e+000	 1.005142338791438e+001
0	 5.866659999993464e+000	 8.066670000003317e+000	 1.004845816226136e+001
0	 5.866659999993463e+000	 8.133340000006530e+000	 1.004557567791334e+001
0	 5.866659999993464e+000	 8.200010000009550e+000	 1.004277287490677e+001
0	 5.866659999993463e+000	 8.266680000012267e+000	 1.004004669327804e+001
0	 5.866659999993466e+000	 8.333350000014583e+000	 1.003739407306358e+001
0	 5.866659999993464e+000	 8.400020000016399e+000	 1.003481195429984e+001
0	 5.866659999993465e+000	 8.466690000017618e+000	 1.003229727702325e+001
0	 5.866659999993467e+000	 8.533360000018133e+000	 1.002984698127021e+001
0	 5.866659999993464e+000	 8.600030000017847e+000	 1.002745800707718e+001
0	 5.866659999993465e+000	 8.666700000016666e+000	 1.002512729448057e+001
0	 5.933329999996680e+000	 8.000000000000000e+000	 1.005097760581145e+001
0	 5.933329999996682e+000	 8.066670000003317e+000	 1.004804034911564e+001
0	 5.933329999996681e+000	 8.133340000006534e+000	 1.004518500485929e+001
0	 5.933329999996681e+000	 8.200010000009550e+000	 1.004240847936224e+001
0	 5.933329999996681e+000	 8.266680000012265e+000	 1.003970767894434e+001
0	 5.933329999996682e+000	 8.333350000014583e+000	 1.003707950992544e+001
0	 5.933329999996682e+000	 8.400020000016401e+000	 1.003452087862539e+001
0	 5.933329999996682e+000	 8.466690000017618e+000	 1.003202869136399e+001
0	 5.933329999996681e+000	 8.533360000018131e+000	 1.002959985446112e+001
0	 5.933329999996682e+000	 8.600030000017847e+000	 1.002723127423662e+001
0	 5.933329999996681e+000	 8.666700000016665e+000	 1.002491985701034e+001
0	 5.999999999999999e+000	 7.999999999999999e+000	 1.005048671482269e+001
0	 6.000000000000000e+000	 8.066670000003319e+000	 1.004758009200235e+001
0	 6.000000000000000e+000	 8.133340000006532e+000	 1.004475447118307e+001
0	 6.000000000000000e+000	 8.200010000009552e+000	 1.004200672889431e+001
0	 6.000000000000002e+000	 8.266680000012268e+000	 1.003933374166556e+001
0	 6.000000000000000e+000	 8.333350000014583e+000	 1.003673238602625e+001
0	 5.999999999999999e+000	 8.400020000016399e+000	 1.003419953850587e+001
0	 6.000000000000001e+000	 8.466690000017616e+000	 1.003173207563388e+001
0	 6.000000000000002e+000	 8.533360000018133e+000	 1.002932687393976e+001
0	 6.000000000000000e+000	 8.600030000017847e+000	 1.002698080995299e+001
0	 5.999999999999999e+000	 8.666700000016666e+000	 1.002469076020300e+001
0	 5.333299999983334e+000	 8.666700000016666e+000	 1.002578452609707e+001
0	 5.333299999983333e+000	 8.733360002791903e+000	 1.002348488342089e+001
0	 5.333299999983334e+000	 8.800020022230553e+000	 1.002129630355390e+001
0	 5.333299999983335e+000	 8.866680074997040e+000	 1.001921414885177e+001
0	 5.333299999983335e+000	 8.933340177755776e+000	 1.001723378136491e+001
0	 5.333299999983334e+000	 9.000000347171179e+000	 1.001535056283847e+001
0	 5.333299999983334e+000	 9.066660599907666e+000	 1.001355985471230e+001
0	 5.333299999983333e+000	 9.133320952629649e+000	 1.001185701812088e+001
0	 5.333299999983334e+000	 9.199981422001555e+000	 1.001023741389342e+001
0	 5.333299999983336e+000	 9.266642024687794e+000	 1.000869640255392e+001
0	 5.333299999983336e+000	 9.333302777352786e+000	 1.000722934432091e+001
0	 5.399969999982151e+000	 8.666700000016668e+000	 1.002581712292654e+001
0	 5.399969999982150e+000	 8.733360002791903e+000	 1.002351347741577e+001
0	 5.399969999982151e+000	 8.800020022230555e+000	 1.002132118456454e+001
0	 5.399969999982152e+000	 8.866680074997044e+000	 1.001923559605676e+001
0	 5.399969999982149e+000	 8.933340177755772e+000	 1.001725206327004e+001
0	 5.399969999982151e+000	 9.000000347171179e+000	 1.001536593727573e+001
0	 5.399969999982149e+000	 9.066660599907664e+000	 1.001357256883904e+001
0	 5.399969999982148e+000	 9.133320952629651e+000	 1.001186730841885e+001
0	 5.399969999982152e+000	 9.199981422001558e+000	 1.001024550616788e+001
0	 5.399969999982150e+000	 9.266642024687794e+000	 1.000870251193258e+001
0	 5.399969999982150e+000	 9.333302777352781e+000	 1.000723367525313e+001
0	 5.466639999981867e+000	 8.666700000016668e+000	 1.002581322495161e+001
0	 5.466639999981866e+000	 8.733360002791901e+000	 1.002350897897864e+001
0	 5.466639999981867e+000	 8.800020022230555e+000	 1.002131619961124e+001
0	 5.466639999981865e+000	 8.866680074997040e+000	 1.001923023372009e+001
0	 5.466639999981867e+000	 8.933340177755779e+000	 1.001724642786913e+001
0	 5.466639999981865e+000	 9.000000347171179e+000	 1.001536012831563e+001
0	 5.466639999981866e+000	 9.066660599907666e+000	 1.001356668100999e+001
0	 5.466639999981864e+000	 9.133320952629649e+000	 1.001186143159591e+001
0	 5.466639999981865e+000	 9.199981422001555e+000	 1.001023972541035e+001
0	 5.466639999981866e+000	 9.266642024687796e+000	 1.000869690748349e+001
0	 5.466639999981865e+000	 9.333302777352783e+000	 1.000722832253872e+001
0	 5.533309999982382e+000	 8.666700000016666e+000	 1.002577468660569e+001
0	 5.533309999982381e+000	 8.733360002791899e+000	 1.002347306698872e+001
0	 5.533309999982381e+000	 8.800020022230555e+000	 1.002128286197334e+001
0	 5.533309999982381e+000	 8.866680074997042e+000	 1.001919941947589e+001
0	 5.533309999982383e+000	 8.933340177755776e+000	 1.001721808710589e+001
0	 5.533309999982383e+000	 9.000000347171183e+000	 1.001533421216598e+001
0	 5.533309999982382e+000	 9.066660599907667e+000	 1.001354314165195e+001
0	 5.533309999982383e+000	 9.133320952629655e+000	 1.001184022225269e+001
0	 5.533309999982383e+000	 9.199981422001555e+000	 1.001022080035023e+001
0	 5.533309999982382e+000	 9.266642024687791e+000	 1.000868022201976e+001
0	 5.533309999982382e+000	 9.333302777352783e+000	 1.000721383302952e+001
0	 5.599979999983598e+000	 8.666700000016668e+000	 1.002570336232219e+001
0	 5.599979999983598e+000	 8.733360002791903e+000	 1.002340742032513e+001
0	 5.599979999983599e+000	 8.800020022230555e+000	 1.002122268493016e+001
0	 5.599979999983599e+000	 8.866680074997044e+000	 1.001914451095824e+001
0	 5.599979999983598e+000	 8.933340177755776e+000	 1.001716825292375e+001
0	 5.599979999983598e+000	 9.000000347171179e+000	 1.001528926503447e+001
0	 5.599979999983599e+000	 9.066660599907664e+000	 1.001350290119162e+001
0	 5.599979999983600e+000	 9.133320952629653e+000	 1.001180451498980e+001
0	 5.599979999983598e+000	 9.199981422001555e+000	 1.001018945971696e+001
0	 5.599979999983599e+000	 9.266642024687792e+000	 1.000865308835455e+001
0	 5.599979999983599e+000	 9.333302777352785e+000	 1.000719075357731e+001
0	 5.666649999985414e+000	 8.666700000016666e+000	 1.002560110653451e+001
0	 5.666649999985415e+000	 8.733360002791901e+000	 1.002331371786704e+001
0	 5.666649999985417e+000	 8.800020022230555e+000	 1.002113718176110e+001
0	 5.666649999985414e+000	 8.866680074997042e+000	 1.001906686580131e+001
0	 5.666649999985415e+000	 8.933340177755778e+000	 1.001709813726635e+001
0	 5.666649999985415e+000	 9.000000347171183e+000	 1.001522636312889e+001
0	 5.666649999985415e+000	 9.066660599907664e+000	 1.001344691005582e+001
0	 5.666649999985415e+000	 9.133320952629655e+000	 1.001175514440789e+001
0	 5.666649999985415e+000	 9.199981422001553e+000	 1.001014643223995e+001
0	 5.666649999985415e+000	 9.266642024687791e+000	 1.000861613930094e+001
0	 5.666649999985415e+000	 9.333302777352783e+000	 1.000715963103388e+001
0	 5.733319999987732e+000	 8.666700000016665e+000	 1.002546977367607e+001
0	 5.733319999987731e+000	 8.733360002791905e+000	 1.002319363849357e+001
0	 5.733319999987732e+000	 8.800020022230553e+000	 1.002102786574550e+001
0	 5.733319999987731e+000	 8.866680074997039e+000	 1.001896784163919e+001
0	 5.733319999987731e+000	 8.933340177755776e+000	 1.001700895207718e+001
0	 5.733319999987733e+000	 9.000000347171183e+000	 1.001514658265700e+001
0	 5.733319999987731e+000	 9.066660599907664e+000	 1.001337611867124e+001
0	 5.733319999987733e+000	 9.133320952629655e+000	 1.001169294510755e+001
0	 5.733319999987732e+000	 9.199981422001555e+000	 1.001009244664861e+001
0	 5.733319999987732e+000	 9.266642024687792e+000	 1.000857000767217e+001
0	 5.733319999987732e+000	 9.333302777352783e+000	 1.000712101225106e+001
0	 5.799989999990449e+000	 8.666700000016670e+000	 1.002531121818029e+001
0	 5.799989999990448e+000	 8.733360002791903e+000	 1.002304886108395e+001
0	 5.799989999990448e+000	 8.800020022230553e+000	 1.002089625016270e+001
0	 5.799989999990448e+000	 8.866680074997042e+000	 1.001884879610604e+001
0	 5.799989999990449e+000	 8.933340177755778e+000	 1.001690190929988e+001
0	 5.799989999990448e+000	 9.000000347171181e+000	 1.001505099982652e+001
0	 5.799989999990449e+000	 9.066660599907666e+000	 1.001329147746469e+001
0	 5.799989999990447e+000	 9.133320952629653e+000	 1.001161875168946e+001
0	 5.799989999990446e+000	 9.199981422001553e+000	 1.001002823167237e+001
0	 5.799989999990448e+000	 9.266642024687792e+000	 1.000851532628133e+001
0	 5.799989999990448e+000	 9.333302777352783e+000	 1.000707544408063e+001
0	 5.866659999993465e+000	 8.666700000016666e+000	 1.002512729448057e+001
0	 5.866659999993466e+000	 8.733360002791905e+000	 1.002288106451726e+001
0	 5.866659999993463e+000	 8.800020022230553e+000	 1.002074384829208e+001
0	 5.866659999993464e+000	 8.866680074997040e+000	 1.001871108683595e+001
0	 5.866659999993464e+000	 8.933340177755778e+000	 1.001677822087795e+001
0	 5.866659999993466e+000	 9.000000347171179e+000	 1.001494069084520e+001
0	 5.866659999993466e+000	 9.066660599907664e+000	 1.001319393686287e+001
0	 5.866659999993464e+000	 9.133320952629651e+000	 1.001153339875425e+001
0	 5.866659999993465e+000	 9.199981422001557e+000	 1.000995451604067e+001
0	 5.866659999993463e+000	 9.266642024687789e+000	 1.000845272794155e+001
0	 5.866659999993465e+000	 9.333302777352781e+000	 1.000702347337444e+001
0	 5.933329999996681e+000	 8.666700000016665e+000	 1.002491985701034e+001
0	 5.933329999996682e+000	 8.733360002791899e+000	 1.002269192767270e+001
0	 5.933329999996681e+000	 8.800020022230555e+000	 1.002057217341299e+001
0	 5.933329999996684e+000	 8.866680074997042e+000	 1.001855607146309e+001
0	 5.933329999996682e+000	 8.933340177755776e+000	 1.001663909875500e+001
0	 5.933329999996682e+000	 9.000000347171181e+000	 1.001481673192080e+001
0	 5.933329999996682e+000	 9.066660599907664e+000	 1.001308444729257e+001
0	 5.933329999996682e+000	 9.133320952629653e+000	 1.001143772090251e+001
0	 5.933329999996681e+000	 9.199981422001555e+000	 1.000987202848289e+001
0	 5.933329999996682e+000	 9.266642024687792e+000	 1.000838284546602e+001
0	 5.933329999996681e+000	 9.333302777352783e+000	 1.000696564698424e+001
0	 5.999999999999999e+000	 8.666700000016666e+000	 1.002469076020300e+001
0	 6.000000000000000e+000	 8.733360002791903e+000	 1.002248312942943e+001
0	 6.000000000000000e+000	 8.800020022230552e+000	 1.002038273880478e+001
0	 6.000000000000001e+000	 8.866680074997042e+000	 1.001838510762154e+001
0	 6.000000000000002e+000	 8.933340177755778e+000	 1.001648575487457e+001
0	 6.000000000000000e+000	 9.000000347171179e+000	 1.001468019926105e+001
0	 5.999999999999998e+000	 9.066660599907664e+000	 1.001296395918053e+001
0	 6.000000000000000e+000	 9.133320952629651e+000	 1.001133255273493e+001
0	 5.999999999999999e+000	 9.199981422001555e+000	 1.000978149772849e+001
0	 6.000000000000000e+000	 9.266642024687791e+000	 1.000830631166784e+001
0	 5.999999999999999e+000	 9.333302777352785e+000	 1.000690251176190e+001
0	 5.333299999983336e+000	 9.333302777352786e+000	 1.000722934432090e+001
0	 5.333299999983335e+000	 9.399973674588177e+000	 1.000587791758041e+001
0	 5.333299999983334e+000	 9.466644621844619e+000	 1.000468248596587e+001
0	 5.333299999983335e+000	 9.533315502450002e+000	 1.000363579538375e+001
0	 5.333299999983336e+000	 9.599986199732197e+000	 1.000273059486416e+001
0	 5.333299999983335e+000	 9.666656597019093e+000	 1.000195963656064e+001
0	 5.333299999983333e+000	 9.733326577638573e+000	 1.000131567575030e+001
0	 5.333299999983334e+000	 9.799996024918523e+000	 1.000079147083375e+001
0	 5.333299999983334e+000	 9.866664822186817e+000	 1.000037978333527e+001
0	 5.333299999983333e+000	 9.933332852771349e+000	 1.000007337790293e+001
0	 5.333299999983335e+000	 1.000000000000000e+001	 9.999865022309027e+000
0	 5.399969999982150e+000	 9.333302777352781e+000	 1.000723367525313e+001
0	 5.399969999982150e+000	 9.399973674588175e+000	 1.000588067120896e+001
0	 5.399969999982151e+000	 9.466644621844621e+000	 1.000468388120511e+001
0	 5.399969999982150e+000	 9.533315502449996e+000	 1.000363607133513e+001
0	 5.399969999982152e+000	 9.599986199732197e+000	 1.000273001082268e+001
0	 5.399969999982150e+000	 9.666656597019093e+000	 1.000195847202173e+001
0	 5.399969999982150e+000	 9.733326577638573e+000	 1.000131423041627e+001
0	 5.399969999982150e+000	 9.799996024918523e+000	 1.000079006462031e+001
0	 5.399969999982149e+000	 9.866664822186818e+000	 1.000037875637850e+001
0	 5.399969999982148e+000	 9.933332852771349e+000	 1.000007309056574e+001
0	 5.399969999982150e+000	 1.000000000000000e+001	 9.999865855187723e+000
0	 5.466639999981865e+000	 9.333302777352783e+000	 1.000722832253872e+001
0	 5.466639999981866e+000	 9.399973674588178e+000	 1.000587557187115e+001
0	 5.466639999981866e+000	 9.466644621844619e+000	 1.000467898724380e+001
0	 5.466639999981864e+000	 9.533315502449998e+000	 1.000363136627757e+001
0	 5.466639999981866e+000	 9.599986199732197e+000	 1.000272550972584e+001
0	 5.466639999981864e+000	 9.666656597019093e+000	 1.000195422147400e+001
0	 5.466639999981866e+000	 9.733326577638573e+000	 1.000131030853980e+001
0	 5.466639999981866e+000	 9.799996024918517e+000	 1.000078658107304e+001
0	 5.466639999981866e+000	 9.866664822186822e+000	 1.000037585235606e+001
0	 5.466639999981866e+000	 9.933332852771351e+000	 1.000007093880369e+001
0	 5.466639999981866e+000	 1.000000000000000e+001	 9.999864659963935e+000
0	 5.533309999982382e+000	 9.333302777352783e+000	 1.000721383302952e+001
0	 5.533309999982384e+000	 9.399973674588178e+000	 1.000586309532689e+001
0	 5.533309999982382e+000	 9.466644621844623e+000	 1.000466822855776e+001
0	 5.533309999982381e+000	 9.533315502450002e+000	 1.000362207321079e+001
0	 5.533309999982383e+000	 9.599986199732195e+000	 1.000271747290454e+001
0	 5.533309999982381e+000	 9.666656597019090e+000	 1.000194727438755e+001
0	 5.533309999982381e+000	 9.733326577638572e+000	 1.000130432753828e+001
0	 5.533309999982382e+000	 9.799996024918523e+000	 1.000078148536514e+001
0	 5.533309999982383e+000	 9.866664822186824e+000	 1.000037160400661e+001
0	 5.533309999982382e+000	 9.933332852771351e+000	 1.000006754273156e+001
0	 5.533309999982383e+000	 1.000000000000000e+001	 9.999862163939826e+000
0	 5.599979999983599e+000	 9.333302777352785e+000	 1.000719075357731e+001
0	 5.599979999983598e+000	 9.399973674588178e+000	 1.000584371733606e+001
0	 5.599979999983597e+000	 9.466644621844619e+000	 1.000465202962301e+001
0	 5.599979999983598e+000	 9.533315502449998e+000	 1.000360858513437e+001
0	 5.599979999983599e+000	 9.599986199732198e+000	 1.000270628168979e+001
0	 5.599979999983597e+000	 9.666656597019092e+000	 1.000193802023246e+001
0	 5.599979999983599e+000	 9.733326577638575e+000	 1.000129670482907e+001
0	 5.599979999983598e+000	 9.799996024918523e+000	 1.000077524266991e+001
0	 5.599979999983599e+000	 9.866664822186822e+000	 1.000036654406894e+001
0	 5.599979999983599e+000	 9.933332852771351e+000	 1.000006352246402e+001
0	 5.599979999983598e+000	 1.000000000000000e+001	 9.999859094417426e+000
0	 5.666649999985415e+000	 9.333302777352783e+000	 1.000715963103388e+001
0	 5.666649999985416e+000	 9.399973674588178e+000	 1.000581791365853e+001
0	 5.666649999985415e+000	 9.466644621844619e+000	 1.000463081491546e+001
0	 5.666649999985415e+000	 9.533315502449998e+000	 1.000359129504797e+001
0	 5.666649999985414e+000	 9.599986199732197e+000	 1.000269231741253e+001
0	 5.666649999985415e+000	 9.666656597019095e+000	 1.000192684847876e+001
0	 5.666649999985414e+000	 9.733326577638577e+000	 1.000128785782946e+001
0	 5.666649999985415e+000	 9.799996024918523e+000	 1.000076831816062e+001
0	 5.666649999985416e+000	 9.866664822186820e+000	 1.000036120528164e+001
0	 5.666649999985415e+000	 9.933332852771352e+000	 1.000005949811557e+001
0	 5.666649999985415e+000	 1.000000000000000e+001	 9.999856178699339e+000
0	 5.733319999987732e+000	 9.333302777352783e+000	 1.000712101225106e+001
0	 5.733319999987730e+000	 9.399973674588175e+000	 1.000578616005421e+001
0	 5.733319999987733e+000	 9.466644621844619e+000	 1.000460500891103e+001
0	 5.733319999987732e+000	 9.533315502449998e+000	 1.000357059595124e+001
0	 5.733319999987731e+000	 9.599986199732197e+000	 1.000267596140375e+001
0	 5.733319999987732e+000	 9.666656597019095e+000	 1.000191414859656e+001
0	 5.733319999987732e+000	 9.733326577638575e+000	 1.000127820395680e+001
0	 5.733319999987733e+000	 9.799996024918523e+000	 1.000076117701065e+001
0	 5.733319999987731e+000	 9.866664822186818e+000	 1.000035612038361e+001
0	 5.733319999987733e+000	 9.933332852771351e+000	 1.000005608980086e+001
0	 5.733319999987732e+000	 1.000000000000000e+001	 9.999854144087532e+000
0	 5.799989999990448e+000	 9.333302777352783e+000	 1.000707544408063e+001
0	 5.799989999990447e+000	 9.399973674588177e+000	 1.000574893228307e+001
0	 5.799989999990448e+000	 9.466644621844621e+000	 1.000457503608566e+001
0	 5.799989999990449e+000	 9.533315502449998e+000	 1.000354688084378e+001
0	 5.799989999990448e+000	 9.599986199732195e+000	 1.000265759499443e+001
0	 5.799989999990447e+000	 9.666656597019092e+000	 1.000190031005594e+001
0	 5.799989999990447e+000	 9.733326577638573e+000	 1.000126816062831e+001
0	 5.799989999990449e+000	 9.799996024918524e+000	 1.000075428439310e+001
0	 5.799989999990448e+000	 9.866664822186818e+000	 1.000035182211344e+001
0	 5.799989999990449e+000	 9.933332852771351e+000	 1.000005391763465e+001
0	 5.799989999990449e+000	 1.000000000000000e+001	 9.999853717884232e+000
0	 5.866659999993465e+000	 9.333302777352781e+000	 1.000702347337443e+001
0	 5.866659999993463e+000	 9.399973674588175e+000	 1.000570670610495e+001
0	 5.866659999993465e+000	 9.466644621844621e+000	 1.000454132091529e+001
0	 5.866659999993465e+000	 9.533315502450000e+000	 1.000352054272527e+001
0	 5.866659999993463e+000	 9.599986199732195e+000	 1.000263759951548e+001
0	 5.866659999993463e+000	 9.666656597019092e+000	 1.000188572232701e+001
0	 5.866659999993464e+000	 9.733326577638573e+000	 1.000125814526150e+001
0	 5.866659999993463e+000	 9.799996024918521e+000	 1.000074810548144e+001
0	 5.866659999993464e+000	 9.866664822186818e+000	 1.000034884320994e+001
0	 5.866659999993465e+000	 9.933332852771351e+000	 1.000005360173151e+001
0	 5.866659999993465e+000	 1.000000000000000e+001	 9.999855627391746e+000
0	 5.933329999996681e+000	 9.333302777352783e+000	 1.000696564698424e+001
0	 5.933329999996682e+000	 9.399973674588177e+000	 1.000565995727975e+001
0	 5.933329999996682e+000	 9.466644621844621e+000	 1.000450428787581e+001
0	 5.933329999996681e+000	 9.533315502449996e+000	 1.000349197459535e+001
0	 5.933329999996682e+000	 9.599986199732195e+000	 1.000261635629796e+001
0	 5.933329999996681e+000	 9.666656597019093e+000	 1.000187077487978e+001
0	 5.933329999996682e+000	 9.733326577638575e+000	 1.000124857527355e+001
0	 5.933329999996682e+000	 9.799996024918523e+000	 1.000074310544877e+001
0	 5.933329999996683e+000	 9.866664822186822e+000	 1.000034771641177e+001
0	 5.933329999996682e+000	 9.933332852771352e+000	 1.000005576220604e+001
0	 5.933329999996681e+000	 9.999999999999998e+000	 9.999860599912145e+000
0	 5.999999999999999e+000	 9.333302777352785e+000	 1.000690251176191e+001
0	 6.000000000000002e+000	 9.399973674588177e+000	 1.000560916156737e+001
0	 5.999999999999999e+000	 9.466644621844619e+000	 1.000446436144317e+001
0	 6.000000000000001e+000	 9.533315502449998e+000	 1.000346156945363e+001
0	 6.000000000000001e+000	 9.599986199732198e+000	 1.000259424667278e+001
0	 6.000000000000002e+000	 9.666656597019093e+000	 1.000185585718434e+001
0	 6.000000000000000e+000	 9.733326577638573e+000	 1.000123986808183e+001
0	 6.000000000000000e+000	 9.799996024918524e+000	 1.000073974946853e+001
0	 6.000000000000001e+000	 9.866664822186820e+000	 1.000034897445765e+001
0	 6.000000000000000e+000	 9.933332852771354e+000	 1.000006101917281e+001
0	 6.000000000000000e+000	 1.000000000000000e+001	 9.999869362748061e+000
0	 6.000000000000000e+000	 0.000000000000000e+000	 1.019964260198838e+001
0	 6.000000000000000e+000	 6.666714722864756e-002	 1.020063436919476e+001
0	 5.999999999999999e+000	 1.333351778131789e-001	 1.020161361370262e+001
0	 5.999999999999999e+000	 2.000039750814772e-001	 1.020263049720698e+001
0	 6.000000000000000e+000	 2.666734223614256e-001	 1.020373518840798e+001
0	 6.000000000000000e+000	 3.333434029809069e-001	 1.020497786301045e+001
0	 6.000000000000001e+000	 4.000138002678044e-001	 1.020640870372346e+001
0	 5.999999999999997e+000	 4.666844975500011e-001	 1.020807790026027e+001
0	 6.000000000000000e+000	 5.333553781553803e-001	 1.021003564933821e+001
0	 6.000000000000001e+000	 6.000263254118247e-001	 1.021233215467897e+001
0	 6.000000000000002e+000	 6.666972226472177e-001	 1.021501762700897e+001
0	 6.066670000003317e+000	 0.000000000000000e+000	 1.018893881644324e+001
0	 6.066670000003317e+000	 6.666714722864756e-002	 1.018990635674422e+001
0	 6.066670000003317e+000	 1.333351778131789e-001	 1.019095335012144e+001
0	 6.066670000003317e+000	 2.000039750814773e-001	 1.019211349076675e+001
0	 6.066670000003315e+000	 2.666734223614256e-001	 1.019342047949569e+001
0	 6.066670000003318e+000	 3.333434029809069e-001	 1.019490802374709e+001
0	 6.066670000003316e+000	 4.000138002678044e-001	 1.019660983758270e+001
0	 6.066670000003315e+000	 4.666844975500010e-001	 1.019855964168701e+001
0	 6.066670000003319e+000	 5.333553781553803e-001	 1.020079116336738e+001
0	 6.066670000003318e+000	 6.000263254118248e-001	 1.020333813655417e+001
0	 6.066670000003318e+000	 6.666972226472177e-001	 1.020623430180107e+001
0	 6.133340000006534e+000	 0.000000000000000e+000	 1.017913789748016e+001
0	 6.133340000006531e+000	 6.666714722864754e-002	 1.018001223628119e+001
0	 6.133340000006534e+000	 1.333351778131789e-001	 1.018104469768056e+001
0	 6.133340000006531e+000	 2.000039750814772e-001	 1.018225482590409e+001
0	 6.133340000006533e+000	 2.666734223614256e-001	 1.018366217145680e+001
0	 6.133340000006532e+000	 3.333434029809069e-001	 1.018528629112244e+001
0	 6.133340000006534e+000	 4.000138002678044e-001	 1.018714674796321e+001
0	 6.133340000006533e+000	 4.666844975500012e-001	 1.018926311131959e+001
0	 6.133340000006534e+000	 5.333553781553801e-001	 1.019165495681042e+001
0	 6.133340000006534e+000	 6.000263254118247e-001	 1.019434186633306e+001
0	 6.133340000006534e+000	 6.666972226472175e-001	 1.019734342806381e+001
0	 6.200010000009550e+000	 0.000000000000000e+000	 1.017014696826957e+001
0	 6.200010000009550e+000	 6.666714722864757e-002	 1.017087568214957e+001
0	 6.200010000009550e+000	 1.333351778131789e-001	 1.017182754508875e+001
0	 6.200010000009550e+000	 2.000039750814773e-001	 1.017301026898174e+001
0	 6.200010000009550e+000	 2.666734223614256e-001	 1.017443157169111e+001
0	 6.200010000009550e+000	 3.333434029809068e-001	 1.017609917704704e+001
0	 6.200010000009550e+000	 4.000138002678044e-001	 1.017802081484698e+001
0	 6.200010000009549e+000	 4.666844975500010e-001	 1.018020422085556e+001
0	 6.200010000009550e+000	 5.333553781553801e-001	 1.018265713680459e+001
0	 6.200010000009550e+000	 6.000263254118247e-001	 1.018538731039324e+001
0	 6.200010000009550e+000	 6.666972226472175e-001	 1.018840249528848e+001
0	 6.266680000012268e+000	 0.000000000000000e+000	 1.016187315198188e+001
0	 6.266680000012266e+000	 6.666714722864753e-002	 1.016242036869324e+001
0	 6.266680000012266e+000	 1.333351778131789e-001	 1.016324178105484e+001
0	 6.266680000012268e+000	 2.000039750814773e-001	 1.016433558636243e+001
0	 6.266680000012265e+000	 2.666734223614255e-001	 1.016569998759841e+001
0	 6.266680000012265e+000	 3.333434029809068e-001	 1.016733319343142e+001
0	 6.266680000012266e+000	 4.000138002678045e-001	 1.016923341821600e+001
0	 6.266680000012266e+000	 4.666844975500011e-001	 1.017139888199255e+001
0	 6.266680000012269e+000	 5.333553781553803e-001	 1.017382781048724e+001
0	 6.266680000012266e+000	 6.000263254118248e-001	 1.017651843511234e+001
0	 6.266680000012267e+000	 6.666972226472177e-001	 1.017946899296641e+001
0	 6.333350000014583e+000	 0.000000000000000e+000	 1.015422357178748e+001
0	 6.333350000014582e+000	 6.666714722864756e-002	 1.015456997025612e+001
0	 6.333350000014584e+000	 1.333351778131790e-001	 1.015522729428759e+001
0	 6.333350000014582e+000	 2.000039750814773e-001	 1.015618654440888e+001
0	 6.333350000014582e+000	 2.666734223614256e-001	 1.015743872657851e+001
0	 6.333350000014583e+000	 3.333434029809068e-001	 1.015897485218612e+001
0	 6.333350000014582e+000	 4.000138002678045e-001	 1.016078593805225e+001
0	 6.333350000014582e+000	 4.666844975500011e-001	 1.016286300642812e+001
0	 6.333350000014582e+000	 5.333553781553800e-001	 1.016519708499573e+001
0	 6.333350000014582e+000	 6.000263254118248e-001	 1.016777920686795e+001
0	 6.333350000014585e+000	 6.666972226472178e-001	 1.017060041058887e+001
0	 6.400020000016398e+000	 0.000000000000000e+000	 1.014710535085680e+001
0	 6.400020000016401e+000	 6.666714722864754e-002	 1.014724816118212e+001
0	 6.400020000016398e+000	 1.333351778131789e-001	 1.014772397349585e+001
0	 6.400020000016399e+000	 2.000039750814772e-001	 1.014851890948387e+001
0	 6.400020000016400e+000	 2.666734223614256e-001	 1.014961909603121e+001
0	 6.400020000016399e+000	 3.333434029809069e-001	 1.015101066522171e+001
0	 6.400020000016400e+000	 4.000138002678044e-001	 1.015267975433771e+001
0	 6.400020000016400e+000	 4.666844975500012e-001	 1.015461250585989e+001
0	 6.400020000016397e+000	 5.333553781553801e-001	 1.015679506746737e+001
0	 6.400020000016400e+000	 6.000263254118248e-001	 1.015921359203769e+001
0	 6.400020000016399e+000	 6.666972226472175e-001	 1.016185423764721e+001
0	 6.466690000017615e+000	 0.000000000000000e+000	 1.014042561236027e+001
0	 6.466690000017616e+000	 6.666714722864756e-002	 1.014037861581514e+001
0	 6.466690000017616e+000	 1.333351778131790e-001	 1.014067170738841e+001
0	 6.466690000017616e+000	 2.000039750814773e-001	 1.014128844795012e+001
0	 6.466690000017617e+000	 2.666734223614255e-001	 1.014221240335633e+001
0	 6.466690000017615e+000	 3.333434029809069e-001	 1.014342714444872e+001
0	 6.466690000017614e+000	 4.000138002678044e-001	 1.014491624705436e+001
0	 6.466690000017614e+000	 4.666844975500011e-001	 1.014666329198547e+001
0	 6.466690000017615e+000	 5.333553781553801e-001	 1.014865186503949e+001
0	 6.466690000017616e+000	 6.000263254118248e-001	 1.015086555699916e+001
0	 6.466690000017615e+000	 6.666972226472177e-001	 1.015328796363273e+001
0	 6.533360000018133e+000	 0.000000000000000e+000	 1.013409147946829e+001
0	 6.533360000018130e+000	 6.666714722864756e-002	 1.013388500849910e+001
0	 6.533360000018131e+000	 1.333351778131789e-001	 1.013401038467410e+001
0	 6.533360000018130e+000	 2.000039750814772e-001	 1.013445092617040e+001
0	 6.533360000018132e+000	 2.666734223614256e-001	 1.013518995595368e+001
0	 6.533360000018130e+000	 3.333434029809069e-001	 1.013621080177774e+001
0	 6.533360000018130e+000	 4.000138002678043e-001	 1.013749679618421e+001
0	 6.533360000018132e+000	 4.666844975500012e-001	 1.013903127650245e+001
0	 6.533360000018133e+000	 5.333553781553801e-001	 1.014079758484946e+001
0	 6.533360000018131e+000	 6.000263254118248e-001	 1.014277906812998e+001
0	 6.533360000018131e+000	 6.666972226472177e-001	 1.014495907803674e+001
0	 6.600030000017849e+000	 0.000000000000000e+000	 1.012801007535132e+001
0	 6.600030000017847e+000	 6.666714722864756e-002	 1.012769101357793e+001
0	 6.600030000017848e+000	 1.333351778131790e-001	 1.012767989406172e+001
0	 6.600030000017847e+000	 2.000039750814772e-001	 1.012796211050746e+001
0	 6.600030000017847e+000	 2.666734223614254e-001	 1.012852306122309e+001
0	 6.600030000017849e+000	 3.333434029809069e-001	 1.012934814911928e+001
0	 6.600030000017848e+000	 4.000138002678044e-001	 1.013042278170925e+001
0	 6.600030000017850e+000	 4.666844975500013e-001	 1.013173237110844e+001
0	 6.600030000017848e+000	 5.333553781553803e-001	 1.013326233403460e+001
0	 6.600030000017848e+000	 6.000263254118248e-001	 1.013499809180778e+001
0	 6.600030000017847e+000	 6.666972226472177e-001	 1.013692507035057e+001
0	 6.666700000016666e+000	 0.000000000000000e+000	 1.012208852317978e+001
0	 6.666700000016668e+000	 6.666714722864757e-002	 1.012172030539558e+001
0	 6.666700000016665e+000	 1.333351778131789e-001	 1.012162012426013e+001
0	 6.666700000016666e+000	 2.000039750814772e-001	 1.012177776732407e+001
0	 6.666700000016666e+000	 2.666734223614256e-001	 1.012218302656437e+001
0	 6.666700000016667e+000	 3.333434029809069e-001	 1.012282569838396e+001
0	 6.666700000016667e+000	 4.000138002678045e-001	 1.012369558361150e+001
0	 6.666700000016666e+000	 4.666844975500011e-001	 1.012478248750107e+001
0	 6.666700000016666e+000	 5.333553781553803e-001	 1.012607621973226e+001
0	 6.666700000016665e+000	 6.000263254118248e-001	 1.012756659441015e+001
0	 6.666700000016666e+000	 6.666972226472177e-001	 1.012924343006551e+001
0	 6.000000000000002e+000	 6.666972226472177e-001	 1.021501762700897e+001
0	 6.000000000000000e+000	 7.333579753122046e-001	 1.021790129286824e+001
0	 5.999999999999999e+000	 8.000185779984420e-001	 1.022076691493882e+001
0	 6.000000000000000e+000	 8.666790473703453e-001	 1.022362520974255e+001
0	 5.999999999999999e+000	 9.333394000923323e-001	 1.022648689350249e+001
0	 6.000000000000001e+000	 9.999996528288192e-001	 1.022936268214283e+001
0	 6.000000000000000e+000	 1.066659822244222e+000	 1.023226329128906e+001
0	 5.999999999999999e+000	 1.133319925002959e+000	 1.023519943626785e+001
0	 6.000000000000002e+000	 1.199979977769446e+000	 1.023818183210711e+001
0	 5.999999999999999e+000	 1.266639997208098e+000	 1.024122119353603e+001
0	 6.000000000000001e+000	 1.333299999983334e+000	 1.024432823498504e+001
0	 6.066670000003318e+000	 6.666972226472177e-001	 1.020623430180107e+001
0	 6.066670000003316e+000	 7.333579753122046e-001	 1.020927286561846e+001
0	 6.066670000003318e+000	 8.000185779984419e-001	 1.021223436377125e+001
0	 6.066670000003317e+000	 8.666790473703452e-001	 1.021513214865063e+001
0	 6.066670000003316e+000	 9.333394000923322e-001	 1.021797957241164e+001
0	 6.066670000003316e+000	 9.999996528288190e-001	 1.022078998697309e+001
0	 6.066670000003316e+000	 1.066659822244222e+000	 1.022357674401763e+001
0	 6.066670000003319e+000	 1.133319925002959e+000	 1.022635319499173e+001
0	 6.066670000003315e+000	 1.199979977769445e+000	 1.022913269110572e+001
0	 6.066670000003318e+000	 1.266639997208098e+000	 1.023192858333377e+001
0	 6.066670000003318e+000	 1.333299999983334e+000	 1.023475422241394e+001
0	 6.133340000006534e+000	 6.666972226472175e-001	 1.019734342806381e+001
0	 6.133340000006532e+000	 7.333579753122045e-001	 1.020044839645445e+001
0	 6.133340000006534e+000	 8.000185779984419e-001	 1.020344374999501e+001
0	 6.133340000006533e+000	 8.666790473703454e-001	 1.020634499310537e+001
0	 6.133340000006530e+000	 9.333394000923319e-001	 1.020916762999746e+001
0	 6.133340000006531e+000	 9.999996528288191e-001	 1.021192716467523e+001
0	 6.133340000006533e+000	 1.066659822244222e+000	 1.021463910093474e+001
0	 6.133340000006534e+000	 1.133319925002959e+000	 1.021731894236408e+001
0	 6.133340000006534e+000	 1.199979977769445e+000	 1.021998219234343e+001
0	 6.133340000006531e+000	 1.266639997208098e+000	 1.022264435404505e+001
0	 6.133340000006532e+000	 1.333299999983334e+000	 1.022532093043336e+001
0	 6.200010000009550e+000	 6.666972226472175e-001	 1.018840249528848e+001
0	 6.200010000009550e+000	 7.333579753122047e-001	 1.019149673232656e+001
0	 6.200010000009550e+000	 8.000185779984419e-001	 1.019447128677267e+001
0	 6.200010000009550e+000	 8.666790473703455e-001	 1.019734333120366e+001
0	 6.200010000009550e+000	 9.333394000923322e-001	 1.020013003798836e+001
0	 6.200010000009550e+000	 9.999996528288190e-001	 1.020284857928743e+001
0	 6.200010000009550e+000	 1.066659822244222e+000	 1.020551612705350e+001
0	 6.200010000009550e+000	 1.133319925002959e+000	 1.020814985303108e+001
0	 6.200010000009549e+000	 1.199979977769445e+000	 1.021076692875664e+001
0	 6.200010000009550e+000	 1.266639997208098e+000	 1.021338452555859e+001
0	 6.200010000009550e+000	 1.333299999983334e+000	 1.021601981455731e+001
0	 6.266680000012267e+000	 6.666972226472177e-001	 1.017946899296641e+001
0	 6.266680000012268e+000	 7.333579753122048e-001	 1.018248672018516e+001
0	 6.266680000012267e+000	 8.000185779984419e-001	 1.018539318726675e+001
0	 6.266680000012267e+000	 8.666790473703454e-001	 1.018820675104242e+001
0	 6.266680000012266e+000	 9.333394000923322e-001	 1.019094576811281e+001
0	 6.266680000012265e+000	 9.999996528288189e-001	 1.019362859484787e+001
0	 6.266680000012268e+000	 1.066659822244223e+000	 1.019627358738699e+001
0	 6.266680000012266e+000	 1.133319925002959e+000	 1.019889910163892e+001
0	 6.266680000012266e+000	 1.199979977769445e+000	 1.020152349328176e+001
0	 6.266680000012265e+000	 1.266639997208098e+000	 1.020416511776307e+001
0	 6.266680000012266e+000	 1.333299999983334e+000	 1.020684233029982e+001
0	 6.333350000014585e+000	 6.666972226472178e-001	 1.017060041058887e+001
0	 6.333350000014584e+000	 7.333579753122047e-001	 1.017348720698060e+001
0	 6.333350000014584e+000	 8.000185779984420e-001	 1.017628566463981e+001
0	 6.333350000014583e+000	 8.666790473703455e-001	 1.017901484071854e+001
0	 6.333350000014582e+000	 9.333394000923323e-001	 1.018169379209923e+001
0	 6.333350000014583e+000	 9.999996528288191e-001	 1.018434157539473e+001
0	 6.333350000014580e+000	 1.066659822244222e+000	 1.018697724694835e+001
0	 6.333350000014582e+000	 1.133319925002959e+000	 1.018961986283377e+001
0	 6.333350000014584e+000	 1.199979977769446e+000	 1.019228847885518e+001
0	 6.333350000014584e+000	 1.266639997208098e+000	 1.019500215054720e+001
0	 6.333350000014583e+000	 1.333299999983334e+000	 1.019777993317490e+001
0	 6.400020000016399e+000	 6.666972226472175e-001	 1.016185423764721e+001
0	 6.400020000016400e+000	 7.333579753122048e-001	 1.016456703966325e+001
0	 6.400020000016400e+000	 8.000185779984419e-001	 1.016722493205441e+001
0	 6.400020000016400e+000	 8.666790473703455e-001	 1.016984718832894e+001
0	 6.400020000016402e+000	 9.333394000923324e-001	 1.017245308167610e+001
0	 6.400020000016398e+000	 9.999996528288190e-001	 1.017506188496622e+001
0	 6.400020000016400e+000	 1.066659822244223e+000	 1.017769287075065e+001
0	 6.400020000016401e+000	 1.133319925002959e+000	 1.018036531126185e+001
0	 6.400020000016399e+000	 1.199979977769445e+000	 1.018309847841331e+001
0	 6.400020000016396e+000	 1.266639997208098e+000	 1.018591164379966e+001
0	 6.400020000016398e+000	 1.333299999983333e+000	 1.018882407869656e+001
0	 6.466690000017615e+000	 6.666972226472177e-001	 1.015328796363273e+001
0	 6.466690000017616e+000	 7.333579753122048e-001	 1.015579506518346e+001
0	 6.466690000017616e+000	 8.000185779984418e-001	 1.015828720267309e+001
0	 6.466690000017617e+000	 8.666790473703455e-001	 1.016078338197051e+001
0	 6.466690000017616e+000	 9.333394000923324e-001	 1.016330260857185e+001
0	 6.466690000017616e+000	 9.999996528288192e-001	 1.016586388760047e+001
0	 6.466690000017616e+000	 1.066659822244222e+000	 1.016848622380700e+001
0	 6.466690000017616e+000	 1.133319925002959e+000	 1.017118862156931e+001
0	 6.466690000017616e+000	 1.199979977769445e+000	 1.017399008489255e+001
0	 6.466690000017615e+000	 1.266639997208098e+000	 1.017690961740915e+001
0	 6.466690000017614e+000	 1.333299999983333e+000	 1.017996622237881e+001
0	 6.533360000018131e+000	 6.666972226472177e-001	 1.014495907803674e+001
0	 6.533360000018132e+000	 7.333579753122047e-001	 1.014724013049160e+001
0	 6.533360000018134e+000	 8.000185779984419e-001	 1.014954868965840e+001
0	 6.533360000018132e+000	 8.666790473703455e-001	 1.015190300974018e+001
0	 6.533360000018131e+000	 9.333394000923324e-001	 1.015432134451494e+001
0	 6.533360000018133e+000	 9.999996528288193e-001	 1.015682194733571e+001
0	 6.533360000018132e+000	 1.066659822244223e+000	 1.015942307113052e+001
0	 6.533360000018131e+000	 1.133319925002959e+000	 1.016214296840237e+001
0	 6.533360000018132e+000	 1.199979977769445e+000	 1.016499989122930e+001
0	 6.533360000018132e+000	 1.266639997208098e+000	 1.016801209126438e+001
0	 6.533360000018133e+000	 1.333299999983334e+000	 1.017119781973569e+001
0	 6.600030000017847e+000	 6.666972226472177e-001	 1.013692507035057e+001
0	 6.600030000017847e+000	 7.333579753122048e-001	 1.013897108253806e+001
0	 6.600030000017848e+000	 8.000185779984418e-001	 1.014108560617291e+001
0	 6.600030000017850e+000	 8.666790473703455e-001	 1.014328565973484e+001
0	 6.600030000017847e+000	 9.333394000923323e-001	 1.014558826123382e+001
0	 6.600030000017847e+000	 9.999996528288191e-001	 1.014801042821012e+001
0	 6.600030000017847e+000	 1.066659822244222e+000	 1.015056917773429e+001
0	 6.600030000017849e+000	 1.133319925002959e+000	 1.015328152640720e+001
0	 6.600030000017849e+000	 1.199979977769445e+000	 1.015616449035996e+001
0	 6.600030000017849e+000	 1.266639997208098e+000	 1.015923508525403e+001
0	 6.600030000017849e+000	 1.333299999983334e+000	 1.016251032628116e+001
0	 6.666700000016666e+000	 6.666972226472177e-001	 1.012924343006551e+001
0	 6.666700000016667e+000	 7.333579753122047e-001	 1.013105676827320e+001
0	 6.666700000016668e+000	 8.000185779984419e-001	 1.013297416537917e+001
0	 6.666700000016666e+000	 8.666790473703453e-001	 1.013501092005141e+001
0	 6.666700000016666e+000	 9.333394000923323e-001	 1.013718233045693e+001
0	 6.666700000016668e+000	 9.999996528288192e-001	 1.013950369426187e+001
0	 6.666700000016665e+000	 1.066659822244222e+000	 1.014199030863145e+001
0	 6.666700000016667e+000	 1.133319925002959e+000	 1.014465747022999e+001
0	 6.666700000016665e+000	 1.199979977769446e+000	 1.014752047522094e+001
0	 6.666700000016666e+000	 1.266639997208098e+000	 1.015059461926681e+001
0	 6.666700000016665e+000	 1.333299999983334e+000	 1.015389519752927e+001
0	 6.000000000000001e+000	 1.333299999983334e+000	 1.024432823498504e+001
0	 6.000000000000000e+000	 1.399969999982150e+000	 1.024744041624940e+001
0	 6.000000000000000e+000	 1.466639999981866e+000	 1.025050434032981e+001
0	 6.000000000000002e+000	 1.533309999982383e+000	 1.025354585138611e+001
0	 6.000000000000000e+000	 1.599979999983600e+000	 1.025659079357819e+001
0	 5.999999999999998e+000	 1.666649999985417e+000	 1.025966501106589e+001
0	 6.000000000000000e+000	 1.733319999987733e+000	 1.026279434800911e+001
0	 5.999999999999999e+000	 1.799989999990450e+000	 1.026600464856769e+001
0	 5.999999999999998e+000	 1.866659999993466e+000	 1.026932175690152e+001
0	 6.000000000000002e+000	 1.933329999996684e+000	 1.027277151717044e+001
0	 5.999999999999998e+000	 2.000000000000000e+000	 1.027637977353435e+001
0	 6.066670000003318e+000	 1.333299999983334e+000	 1.023475422241394e+001
0	 6.066670000003314e+000	 1.399969999982149e+000	 1.023759409721930e+001
0	 6.066670000003318e+000	 1.466639999981866e+000	 1.024043660999315e+001
0	 6.066670000003316e+000	 1.533309999982383e+000	 1.024330226171304e+001
0	 6.066670000003319e+000	 1.599979999983600e+000	 1.024621155335655e+001
0	 6.066670000003317e+000	 1.666649999985417e+000	 1.024918498590120e+001
0	 6.066670000003317e+000	 1.733319999987733e+000	 1.025224306032458e+001
0	 6.066670000003319e+000	 1.799989999990450e+000	 1.025540627760422e+001
0	 6.066670000003316e+000	 1.866659999993467e+000	 1.025869513871771e+001
0	 6.066670000003318e+000	 1.933329999996684e+000	 1.026213014464258e+001
0	 6.066670000003317e+000	 2.000000000000000e+000	 1.026573179635642e+001
0	 6.133340000006532e+000	 1.333299999983334e+000	 1.022532093043336e+001
0	 6.133340000006534e+000	 1.399969999982150e+000	 1.022802050796181e+001
0	 6.133340000006533e+000	 1.466639999981866e+000	 1.023075117238635e+001
0	 6.133340000006532e+000	 1.533309999982383e+000	 1.023352888561817e+001
0	 6.133340000006533e+000	 1.599979999983600e+000	 1.023636960956850e+001
0	 6.133340000006532e+000	 1.666649999985416e+000	 1.023928930614858e+001
0	 6.133340000006532e+000	 1.733319999987733e+000	 1.024230393726962e+001
0	 6.133340000006531e+000	 1.799989999990450e+000	 1.024542946484284e+001
0	 6.133340000006533e+000	 1.866659999993467e+000	 1.024868185077948e+001
0	 6.133340000006533e+000	 1.933329999996683e+000	 1.025207705699077e+001
0	 6.133340000006534e+000	 2.000000000000000e+000	 1.025563104538793e+001
0	 6.200010000009550e+000	 1.333299999983334e+000	 1.021601981455732e+001
0	 6.200010000009551e+000	 1.399969999982150e+000	 1.021868635446963e+001
0	 6.200010000009550e+000	 1.466639999981866e+000	 1.022139361297294e+001
0	 6.200010000009550e+000	 1.533309999982383e+000	 1.022415381702809e+001
0	 6.200010000009550e+000	 1.599979999983600e+000	 1.022697919359594e+001
0	 6.200010000009550e+000	 1.666649999985417e+000	 1.022988196963738e+001
0	 6.200010000009549e+000	 1.733319999987733e+000	 1.023287437211326e+001
0	 6.200010000009551e+000	 1.799989999990450e+000	 1.023596862798443e+001
0	 6.200010000009550e+000	 1.866659999993467e+000	 1.023917696421180e+001
0	 6.200010000009546e+000	 1.933329999996683e+000	 1.024251160775621e+001
0	 6.200010000009550e+000	 2.000000000000000e+000	 1.024598478557856e+001
0	 6.266680000012266e+000	 1.333299999983334e+000	 1.020684233029982e+001
0	 6.266680000012267e+000	 1.399969999982150e+000	 1.020955834273544e+001
0	 6.266680000012267e+000	 1.466639999981866e+000	 1.021230951721648e+001
0	 6.266680000012265e+000	 1.533309999982383e+000	 1.021510514986943e+001
0	 6.266680000012267e+000	 1.599979999983600e+000	 1.021795453682076e+001
0	 6.266680000012267e+000	 1.666649999985416e+000	 1.022086697419696e+001
0	 6.266680000012267e+000	 1.733319999987733e+000	 1.022385175812452e+001
0	 6.266680000012265e+000	 1.799989999990450e+000	 1.022691818472992e+001
0	 6.266680000012265e+000	 1.866659999993467e+000	 1.023007555013964e+001
0	 6.266680000012267e+000	 1.933329999996683e+000	 1.023333315048016e+001
0	 6.266680000012268e+000	 2.000000000000000e+000	 1.023670028187800e+001
0	 6.333350000014583e+000	 1.333299999983334e+000	 1.019777993317490e+001
0	 6.333350000014582e+000	 1.399969999982150e+000	 1.020060317875191e+001
0	 6.333350000014583e+000	 1.466639999981867e+000	 1.020344447058053e+001
0	 6.333350000014583e+000	 1.533309999982383e+000	 1.020631097806881e+001
0	 6.333350000014583e+000	 1.599979999983599e+000	 1.020920987062485e+001
0	 6.333350000014583e+000	 1.666649999985416e+000	 1.021214831765669e+001
0	 6.333350000014582e+000	 1.733319999987733e+000	 1.021513348857242e+001
0	 6.333350000014583e+000	 1.799989999990450e+000	 1.021817255278014e+001
0	 6.333350000014584e+000	 1.866659999993467e+000	 1.022127267968792e+001
0	 6.333350000014584e+000	 1.933329999996684e+000	 1.022444103870382e+001
0	 6.333350000014583e+000	 2.000000000000000e+000	 1.022768479923594e+001
0	 6.400020000016398e+000	 1.333299999983333e+000	 1.018882407869656e+001
0	 6.400020000016399e+000	 1.399969999982150e+000	 1.019178756851175e+001
0	 6.400020000016399e+000	 1.466639999981867e+000	 1.019474405852864e+001
0	 6.400020000016396e+000	 1.533309999982382e+000	 1.019769939555286e+001
0	 6.400020000016401e+000	 1.599979999983600e+000	 1.020065942639007e+001
0	 6.400020000016399e+000	 1.666649999985416e+000	 1.020362999784591e+001
0	 6.400020000016398e+000	 1.733319999987733e+000	 1.020661695672601e+001
0	 6.400020000016401e+000	 1.799989999990450e+000	 1.020962614983603e+001
0	 6.400020000016400e+000	 1.866659999993467e+000	 1.021266342398162e+001
0	 6.400020000016397e+000	 1.933329999996684e+000	 1.021573462596841e+001
0	 6.400020000016399e+000	 2.000000000000000e+000	 1.021884560260206e+001
0	 6.466690000017614e+000	 1.333299999983333e+000	 1.017996622237881e+001
0	 6.466690000017614e+000	 1.399969999982150e+000	 1.018307821800761e+001
0	 6.466690000017615e+000	 1.466639999981867e+000	 1.018615386652434e+001
0	 6.466690000017616e+000	 1.533309999982383e+000	 1.018919849624818e+001
0	 6.466690000017616e+000	 1.599979999983600e+000	 1.019221743549834e+001
0	 6.466690000017617e+000	 1.666649999985416e+000	 1.019521601259397e+001
0	 6.466690000017618e+000	 1.733319999987734e+000	 1.019819955585428e+001
0	 6.466690000017617e+000	 1.799989999990450e+000	 1.020117339359847e+001
0	 6.466690000017616e+000	 1.866659999993467e+000	 1.020414285414569e+001
0	 6.466690000017618e+000	 1.933329999996684e+000	 1.020711326581516e+001
0	 6.466690000017617e+000	 2.000000000000000e+000	 1.021008995692607e+001
0	 6.533360000018133e+000	 1.333299999983334e+000	 1.017119781973569e+001
0	 6.533360000018131e+000	 1.399969999982150e+000	 1.017444183323219e+001
0	 6.533360000018131e+000	 1.466639999981866e+000	 1.017761948003119e+001
0	 6.533360000018131e+000	 1.533309999982383e+000	 1.018073637408140e+001
0	 6.533360000018130e+000	 1.599979999983599e+000	 1.018379812933151e+001
0	 6.533360000018132e+000	 1.666649999985416e+000	 1.018681035973023e+001
0	 6.533360000018133e+000	 1.733319999987733e+000	 1.018977867922626e+001
0	 6.533360000018134e+000	 1.799989999990450e+000	 1.019270870176831e+001
0	 6.533360000018132e+000	 1.866659999993467e+000	 1.019560604130509e+001
0	 6.533360000018132e+000	 1.933329999996684e+000	 1.019847631178529e+001
0	 6.533360000018132e+000	 2.000000000000000e+000	 1.020132512715762e+001
0	 6.600030000017849e+000	 1.333299999983334e+000	 1.016251032628116e+001
0	 6.600030000017849e+000	 1.399969999982150e+000	 1.016584512017816e+001
0	 6.600030000017847e+000	 1.466639999981867e+000	 1.016908648451274e+001
0	 6.600030000017847e+000	 1.533309999982383e+000	 1.017224112297913e+001
0	 6.600030000017847e+000	 1.599979999983600e+000	 1.017531573927149e+001
0	 6.600030000017847e+000	 1.666649999985416e+000	 1.017831703708403e+001
0	 6.600030000017847e+000	 1.733319999987733e+000	 1.018125172011096e+001
0	 6.600030000017847e+000	 1.799989999990450e+000	 1.018412649204646e+001
0	 6.600030000017847e+000	 1.866659999993467e+000	 1.018694805658475e+001
0	 6.600030000017847e+000	 1.933329999996684e+000	 1.018972311741999e+001
0	 6.600030000017847e+000	 2.000000000000000e+000	 1.019245837824641e+001
0	 6.666700000016665e+000	 1.333299999983334e+000	 1.015389519752927e+001
0	 6.666700000016666e+000	 1.399969999982150e+000	 1.015725478483819e+001
0	 6.666700000016668e+000	 1.466639999981867e+000	 1.016050046543253e+001
0	 6.666700000016665e+000	 1.533309999982383e+000	 1.016364083686796e+001
0	 6.666700000016667e+000	 1.599979999983600e+000	 1.016668449670014e+001
0	 6.666700000016665e+000	 1.666649999985416e+000	 1.016964004248473e+001
0	 6.666700000016666e+000	 1.733319999987733e+000	 1.017251607177739e+001
0	 6.666700000016665e+000	 1.799989999990450e+000	 1.017532118213379e+001
0	 6.666700000016666e+000	 1.866659999993467e+000	 1.017806397110962e+001
0	 6.666700000016666e+000	 1.933329999996684e+000	 1.018075303626050e+001
0	 6.666700000016668e+000	 2.000000000000000e+000	 1.018339697514211e+001
0	 5.999999999999998e+000	 2.000000000000000e+000	 1.027637977353435e+001
0	 6.000000000000001e+000	 2.066670000003318e+000	 1.027997389700303e+001
0	 5.999999999999999e+000	 2.133340000006534e+000	 1.028336494511816e+001
0	 6.000000000000000e+000	 2.200010000009551e+000	 1.028655429183741e+001
0	 5.999999999999999e+000	 2.266680000012268e+000	 1.028954331111848e+001
0	 5.999999999999998e+000	 2.333350000014584e+000	 1.029233337691903e+001
0	 5.999999999999999e+000	 2.400020000016400e+000	 1.029492586319674e+001
0	 5.999999999999998e+000	 2.466690000017618e+000	 1.029732214390927e+001
0	 6.000000000000001e+000	 2.533360000018134e+000	 1.029952359301432e+001
0	 5.999999999999999e+000	 2.600030000017850e+000	 1.030153158446951e+001
0	 6.000000000000001e+000	 2.666700000016667e+000	 1.030334749223254e+001
0	 6.066670000003317e+000	 2.000000000000000e+000	 1.026573179635642e+001
0	 6.066670000003318e+000	 2.066670000003317e+000	 1.026931060387693e+001
0	 6.066670000003318e+000	 2.133340000006534e+000	 1.027266929377516e+001
0	 6.066670000003319e+000	 2.200010000009551e+000	 1.027581669185875e+001
0	 6.066670000003318e+000	 2.266680000012268e+000	 1.027876162393529e+001
0	 6.066670000003315e+000	 2.333350000014584e+000	 1.028151291581241e+001
0	 6.066670000003319e+000	 2.400020000016401e+000	 1.028407939329768e+001
0	 6.066670000003317e+000	 2.466690000017617e+000	 1.028646988219874e+001
0	 6.066670000003315e+000	 2.533360000018134e+000	 1.028869320832316e+001
0	 6.066670000003317e+000	 2.600030000017851e+000	 1.029075819747854e+001
0	 6.066670000003319e+000	 2.666700000016666e+000	 1.029267367547249e+001
0	 6.133340000006534e+000	 2.000000000000000e+000	 1.025563104538793e+001
0	 6.133340000006535e+000	 2.066670000003317e+000	 1.025914805754118e+001
0	 6.133340000006532e+000	 2.133340000006534e+000	 1.026243165851791e+001
0	 6.133340000006534e+000	 2.200010000009551e+000	 1.026549679547509e+001
0	 6.133340000006532e+000	 2.266680000012267e+000	 1.026835841556971e+001
0	 6.133340000006534e+000	 2.333350000014585e+000	 1.027103146595876e+001
0	 6.133340000006531e+000	 2.400020000016401e+000	 1.027353089379920e+001
0	 6.133340000006530e+000	 2.466690000017617e+000	 1.027587164624803e+001
0	 6.133340000006534e+000	 2.533360000018134e+000	 1.027806867046220e+001
0	 6.133340000006534e+000	 2.600030000017851e+000	 1.028013691359869e+001
0	 6.133340000006531e+000	 2.666700000016666e+000	 1.028209132281446e+001
0	 6.200010000009550e+000	 2.000000000000000e+000	 1.024598478557856e+001
0	 6.200010000009549e+000	 2.066670000003317e+000	 1.024940336213456e+001
0	 6.200010000009550e+000	 2.133340000006534e+000	 1.025257920924325e+001
0	 6.200010000009551e+000	 2.200010000009551e+000	 1.025553206491043e+001
0	 6.200010000009550e+000	 2.266680000012268e+000	 1.025828166714192e+001
0	 6.200010000009549e+000	 2.333350000014584e+000	 1.026084775394348e+001
0	 6.200010000009549e+000	 2.400020000016401e+000	 1.026325006332093e+001
0	 6.200010000009551e+000	 2.466690000017618e+000	 1.026550833328004e+001
0	 6.200010000009550e+000	 2.533360000018134e+000	 1.026764230182662e+001
0	 6.200010000009550e+000	 2.600030000017851e+000	 1.026967170696645e+001
0	 6.200010000009550e+000	 2.666700000016666e+000	 1.027161628670529e+001
0	 6.266680000012268e+000	 2.000000000000000e+000	 1.023670028187800e+001
0	 6.266680000012266e+000	 2.066670000003317e+000	 1.023999362179583e+001
0	 6.266680000012266e+000	 2.133340000006534e+000	 1.024303911584810e+001
0	 6.266680000012266e+000	 2.200010000009551e+000	 1.024585996238884e+001
0	 6.266680000012268e+000	 2.266680000012267e+000	 1.024847935977211e+001
0	 6.266680000012265e+000	 2.333350000014584e+000	 1.025092050635198e+001
0	 6.266680000012265e+000	 2.400020000016401e+000	 1.025320660048248e+001
0	 6.266680000012266e+000	 2.466690000017618e+000	 1.025536084051768e+001
0	 6.266680000012268e+000	 2.533360000018134e+000	 1.025740642481161e+001
0	 6.266680000012265e+000	 2.600030000017850e+000	 1.025936655171832e+001
0	 6.266680000012267e+000	 2.666700000016667e+000	 1.026126441959186e+001
0	 6.333350000014583e+000	 2.000000000000000e+000	 1.022768479923594e+001
0	 6.333350000014584e+000	 2.066670000003317e+000	 1.023083594066378e+001
0	 6.333350000014583e+000	 2.133340000006534e+000	 1.023373854822931e+001
0	 6.333350000014584e+000	 2.200010000009552e+000	 1.023641795013430e+001
0	 6.333350000014582e+000	 2.266680000012268e+000	 1.023889947458049e+001
0	 6.333350000014582e+000	 2.333350000014584e+000	 1.024120844976963e+001
0	 6.333350000014582e+000	 2.400020000016401e+000	 1.024337020390350e+001
0	 6.333350000014584e+000	 2.466690000017617e+000	 1.024541006518381e+001
0	 6.333350000014583e+000	 2.533360000018134e+000	 1.024735336181234e+001
0	 6.333350000014583e+000	 2.600030000017850e+000	 1.024922542199084e+001
0	 6.333350000014584e+000	 2.666700000016667e+000	 1.025105157392102e+001
0	 6.400020000016399e+000	 2.000000000000000e+000	 1.021884560260206e+001
0	 6.400020000016399e+000	 2.066670000003317e+000	 1.022184742287716e+001
0	 6.400020000016399e+000	 2.133340000006534e+000	 1.022460467628378e+001
0	 6.400020000016400e+000	 2.200010000009551e+000	 1.022714349037084e+001
0	 6.400020000016398e+000	 2.266680000012267e+000	 1.022948999268724e+001
0	 6.400020000016398e+000	 2.333350000014584e+000	 1.023167031078184e+001
0	 6.400020000016399e+000	 2.400020000016401e+000	 1.023371057220358e+001
0	 6.400020000016399e+000	 2.466690000017618e+000	 1.023563690450134e+001
0	 6.400020000016398e+000	 2.533360000018134e+000	 1.023747543522400e+001
0	 6.400020000016399e+000	 2.600030000017851e+000	 1.023925229192047e+001
0	 6.400020000016399e+000	 2.666700000016666e+000	 1.024099360213963e+001
0	 6.466690000017617e+000	 2.000000000000000e+000	 1.021008995692607e+001
0	 6.466690000017616e+000	 2.066670000003317e+000	 1.021294517257474e+001
0	 6.466690000017615e+000	 2.133340000006533e+000	 1.021556466990838e+001
0	 6.466690000017615e+000	 2.200010000009551e+000	 1.021797404532248e+001
0	 6.466690000017616e+000	 2.266680000012268e+000	 1.022019889521252e+001
0	 6.466690000017614e+000	 2.333350000014584e+000	 1.022226481597399e+001
0	 6.466690000017616e+000	 2.400020000016401e+000	 1.022419740400237e+001
0	 6.466690000017615e+000	 2.466690000017617e+000	 1.022602225569315e+001
0	 6.466690000017614e+000	 2.533360000018134e+000	 1.022776496744177e+001
0	 6.466690000017614e+000	 2.600030000017850e+000	 1.022945113564375e+001
0	 6.466690000017616e+000	 2.666700000016667e+000	 1.023110635669454e+001
0	 6.533360000018132e+000	 2.000000000000000e+000	 1.020132512715762e+001
0	 6.533360000018130e+000	 2.066670000003317e+000	 1.020404629389527e+001
0	 6.533360000018131e+000	 2.133340000006534e+000	 1.020654569899997e+001
0	 6.533360000018130e+000	 2.200010000009550e+000	 1.020884707721323e+001
0	 6.533360000018131e+000	 2.266680000012268e+000	 1.021097416327656e+001
0	 6.533360000018131e+000	 2.333350000014584e+000	 1.021295069193148e+001
0	 6.533360000018133e+000	 2.400020000016401e+000	 1.021480039791949e+001
0	 6.533360000018130e+000	 2.466690000017617e+000	 1.021654701598210e+001
0	 6.533360000018132e+000	 2.533360000018135e+000	 1.021821428086082e+001
0	 6.533360000018131e+000	 2.600030000017850e+000	 1.021982592729716e+001
0	 6.533360000018135e+000	 2.666700000016667e+000	 1.022140569003262e+001
0	 6.600030000017847e+000	 2.000000000000000e+000	 1.019245837824641e+001
0	 6.600030000017849e+000	 2.066670000003317e+000	 1.019506789097753e+001
0	 6.600030000017847e+000	 2.133340000006534e+000	 1.019747493345544e+001
0	 6.600030000017849e+000	 2.200010000009551e+000	 1.019970004826711e+001
0	 6.600030000017849e+000	 2.266680000012268e+000	 1.020176377799953e+001
0	 6.600030000017849e+000	 2.333350000014585e+000	 1.020368666523968e+001
0	 6.600030000017849e+000	 2.400020000016402e+000	 1.020548925257454e+001
0	 6.600030000017848e+000	 2.466690000017617e+000	 1.020719208259110e+001
0	 6.600030000017850e+000	 2.533360000018134e+000	 1.020881569787634e+001
0	 6.600030000017849e+000	 2.600030000017851e+000	 1.021038064101722e+001
0	 6.600030000017848e+000	 2.666700000016666e+000	 1.021190745460072e+001
0	 6.666700000016668e+000	 2.000000000000000e+000	 1.018339697514211e+001
0	 6.666700000016666e+000	 2.066670000003317e+000	 1.018592706796028e+001
0	 6.666700000016667e+000	 2.133340000006534e+000	 1.018827954317164e+001
0	 6.666700000016666e+000	 2.200010000009550e+000	 1.019047042070813e+001
0	 6.666700000016665e+000	 2.266680000012268e+000	 1.019251572050161e+001
0	 6.666700000016666e+000	 2.333350000014584e+000	 1.019443146248399e+001
0	 6.666700000016668e+000	 2.400020000016401e+000	 1.019623366658717e+001
0	 6.666700000016667e+000	 2.466690000017618e+000	 1.019793835274304e+001
0	 6.666700000016665e+000	 2.533360000018134e+000	 1.019956154088349e+001
0	 6.666700000016667e+000	 2.600030000017851e+000	 1.020111925094042e+001
0	 6.666700000016665e+000	 2.666700000016666e+000	 1.020262750284570e+001
0	 6.000000000000001e+000	 2.666700000016667e+000	 1.030334749223254e+001
0	 6.000000000000000e+000	 2.733360000014533e+000	 1.030488059469973e+001
0	 6.000000000000000e+000	 2.800020000011601e+000	 1.030604692771437e+001
0	 6.000000000000002e+000	 2.866680000008067e+000	 1.030685722729750e+001
0	 5.999999999999999e+000	 2.933340000004133e+000	 1.030732222947015e+001
0	 6.000000000000002e+000	 3.000000000000001e+000	 1.030745267025335e+001
0	 6.000000000000001e+000	 3.066659999995867e+000	 1.030725928566817e+001
0	 5.999999999999999e+000	 3.133319999991934e+000	 1.030675281173566e+001
0	 6.000000000000002e+000	 3.199979999988401e+000	 1.030594398447692e+001
0	 6.000000000000000e+000	 3.266639999985469e+000	 1.030484353991301e+001
0	 6.000000000000000e+000	 3.333299999983334e+000	 1.030346221406501e+001
0	 6.066670000003319e+000	 2.666700000016666e+000	 1.029267367547249e+001
0	 6.066670000003316e+000	 2.733360000014533e+000	 1.029433920440334e+001
0	 6.066670000003313e+000	 2.800020000011600e+000	 1.029565294287497e+001
0	 6.066670000003317e+000	 2.866680000008066e+000	 1.029662078184576e+001
0	 6.066670000003319e+000	 2.933340000004133e+000	 1.029724861227411e+001
0	 6.066670000003319e+000	 3.000000000000001e+000	 1.029754232511844e+001
0	 6.066670000003318e+000	 3.066659999995868e+000	 1.029750781133717e+001
0	 6.066670000003319e+000	 3.133319999991934e+000	 1.029715096188872e+001
0	 6.066670000003315e+000	 3.199979999988401e+000	 1.029647766773154e+001
0	 6.066670000003318e+000	 3.266639999985468e+000	 1.029549381982408e+001
0	 6.066670000003317e+000	 3.333299999983333e+000	 1.029420530912480e+001
0	 6.133340000006531e+000	 2.666700000016666e+000	 1.028209132281446e+001
0	 6.133340000006534e+000	 2.733360000014533e+000	 1.028382858367027e+001
0	 6.133340000006533e+000	 2.800020000011600e+000	 1.028523722582133e+001
0	 6.133340000006534e+000	 2.866680000008067e+000	 1.028631910649550e+001
0	 6.133340000006532e+000	 2.933340000004133e+000	 1.028707608292060e+001
0	 6.133340000006533e+000	 3.000000000000001e+000	 1.028751001232454e+001
0	 6.133340000006532e+000	 3.066659999995867e+000	 1.028762275193519e+001
0	 6.133340000006533e+000	 3.133319999991934e+000	 1.028741615898041e+001
0	 6.133340000006533e+000	 3.199979999988401e+000	 1.028689209068813e+001
0	 6.133340000006531e+000	 3.266639999985467e+000	 1.028605240428623e+001
0	 6.133340000006530e+000	 3.333299999983333e+000	 1.028489895700264e+001
0	 6.200010000009550e+000	 2.666700000016666e+000	 1.027161628670529e+001
0	 6.200010000009550e+000	 2.733360000014533e+000	 1.027337545301733e+001
0	 6.200010000009552e+000	 2.800020000011601e+000	 1.027483512168771e+001
0	 6.200010000009550e+000	 2.866680000008066e+000	 1.027599392754585e+001
0	 6.200010000009550e+000	 2.933340000004133e+000	 1.027685050542114e+001
0	 6.200010000009551e+000	 3.000000000000000e+000	 1.027740349014301e+001
0	 6.200010000009550e+000	 3.066659999995867e+000	 1.027765151654088e+001
0	 6.200010000009550e+000	 3.133319999991933e+000	 1.027759321944417e+001
0	 6.200010000009551e+000	 3.199979999988401e+000	 1.027722723368235e+001
0	 6.200010000009550e+000	 3.266639999985468e+000	 1.027655219408483e+001
0	 6.200010000009550e+000	 3.333299999983333e+000	 1.027556673548111e+001
0	 6.266680000012267e+000	 2.666700000016667e+000	 1.026126441959186e+001
0	 6.266680000012266e+000	 2.733360000014533e+000	 1.026300653296131e+001
0	 6.266680000012265e+000	 2.800020000011599e+000	 1.026448197560833e+001
0	 6.266680000012266e+000	 2.866680000008066e+000	 1.026568697129596e+001
0	 6.266680000012266e+000	 2.933340000004134e+000	 1.026661774378720e+001
0	 6.266680000012267e+000	 3.000000000000000e+000	 1.026727051684517e+001
0	 6.266680000012265e+000	 3.066659999995866e+000	 1.026764151423287e+001
0	 6.266680000012265e+000	 3.133319999991933e+000	 1.026772695971341e+001
0	 6.266680000012265e+000	 3.199979999988401e+000	 1.026752307704985e+001
0	 6.266680000012268e+000	 3.266639999985467e+000	 1.026702609000527e+001
0	 6.266680000012267e+000	 3.333299999983334e+000	 1.026623222234277e+001
0	 6.333350000014584e+000	 2.666700000016667e+000	 1.025105157392102e+001
0	 6.333350000014585e+000	 2.733360000014533e+000	 1.025274854401906e+001
0	 6.333350000014584e+000	 2.800020000011600e+000	 1.025421313271745e+001
0	 6.333350000014582e+000	 2.866680000008067e+000	 1.025543996404495e+001
0	 6.333350000014582e+000	 2.933340000004133e+000	 1.025642366203033e+001
0	 6.333350000014583e+000	 3.000000000000000e+000	 1.025715885070237e+001
0	 6.333350000014582e+000	 3.066659999995868e+000	 1.025764015408985e+001
0	 6.333350000014582e+000	 3.133319999991935e+000	 1.025786219622157e+001
0	 6.333350000014583e+000	 3.199979999988401e+000	 1.025781960112634e+001
0	 6.333350000014584e+000	 3.266639999985468e+000	 1.025750699283294e+001
0	 6.333350000014584e+000	 3.333299999983334e+000	 1.025691899537021e+001
0	 6.400020000016399e+000	 2.666700000016666e+000	 1.024099360213963e+001
0	 6.400020000016401e+000	 2.733360000014533e+000	 1.024262820670738e+001
0	 6.400020000016398e+000	 2.800020000011600e+000	 1.024406393814930e+001
0	 6.400020000016401e+000	 2.866680000008067e+000	 1.024529463209197e+001
0	 6.400020000016400e+000	 2.933340000004133e+000	 1.024631412416198e+001
0	 6.400020000016402e+000	 3.000000000000001e+000	 1.024711624998594e+001
0	 6.400020000016400e+000	 3.066659999995868e+000	 1.024769484519042e+001
0	 6.400020000016400e+000	 3.133319999991934e+000	 1.024804374540205e+001
0	 6.400020000016401e+000	 3.199979999988401e+000	 1.024815678624744e+001
0	 6.400020000016402e+000	 3.266639999985468e+000	 1.024802780335321e+001
0	 6.400020000016401e+000	 3.333299999983334e+000	 1.024765063234600e+001
0	 6.466690000017616e+000	 2.666700000016667e+000	 1.023110635669454e+001
0	 6.466690000017617e+000	 2.733360000014534e+000	 1.023267224154307e+001
0	 6.466690000017616e+000	 2.800020000011600e+000	 1.023406973703812e+001
0	 6.466690000017618e+000	 2.866680000008067e+000	 1.023529270173616e+001
0	 6.466690000017614e+000	 2.933340000004133e+000	 1.023633499419370e+001
0	 6.466690000017616e+000	 3.000000000000000e+000	 1.023719047296722e+001
0	 6.466690000017616e+000	 3.066659999995868e+000	 1.023785299661324e+001
0	 6.466690000017618e+000	 3.133319999991934e+000	 1.023831642368829e+001
0	 6.466690000017619e+000	 3.199979999988401e+000	 1.023857461274885e+001
0	 6.466690000017615e+000	 3.266639999985468e+000	 1.023862142235147e+001
0	 6.466690000017616e+000	 3.333299999983334e+000	 1.023845071105268e+001
0	 6.533360000018135e+000	 2.666700000016667e+000	 1.022140569003262e+001
0	 6.533360000018130e+000	 2.733360000014532e+000	 1.022290736904298e+001
0	 6.533360000018134e+000	 2.800020000011600e+000	 1.022426587451816e+001
0	 6.533360000018131e+000	 2.866680000008066e+000	 1.022547589927666e+001
0	 6.533360000018133e+000	 2.933340000004134e+000	 1.022653213613696e+001
0	 6.533360000018133e+000	 3.000000000000000e+000	 1.022742927791756e+001
0	 6.533360000018133e+000	 3.066659999995867e+000	 1.022816201743696e+001
0	 6.533360000018132e+000	 3.133319999991933e+000	 1.022872504751368e+001
0	 6.533360000018132e+000	 3.199979999988400e+000	 1.022911306096621e+001
0	 6.533360000018132e+000	 3.266639999985468e+000	 1.022932075061309e+001
0	 6.533360000018132e+000	 3.333299999983334e+000	 1.022934280927284e+001
0	 6.600030000017848e+000	 2.666700000016666e+000	 1.021190745460072e+001
0	 6.600030000017849e+000	 2.733360000014533e+000	 1.021336030972388e+001
0	 6.600030000017847e+000	 2.800020000011599e+000	 1.021468769572364e+001
0	 6.600030000017847e+000	 2.866680000008066e+000	 1.021588595101257e+001
0	 6.600030000017848e+000	 2.933340000004134e+000	 1.021695141400327e+001
0	 6.600030000017849e+000	 3.000000000000001e+000	 1.021788042310828e+001
0	 6.600030000017847e+000	 3.066659999995867e+000	 1.021866931674022e+001
0	 6.600030000017850e+000	 3.133319999991935e+000	 1.021931443331166e+001
0	 6.600030000017847e+000	 3.199979999988400e+000	 1.021981211123520e+001
0	 6.600030000017849e+000	 3.266639999985468e+000	 1.022015868892346e+001
0	 6.600030000017847e+000	 3.333299999983333e+000	 1.022035050478904e+001
0	 6.666700000016665e+000	 2.666700000016666e+000	 1.020262750284570e+001
0	 6.666700000016668e+000	 2.733360000014533e+000	 1.020405778410262e+001
0	 6.666700000016665e+000	 2.800020000011599e+000	 1.020537054578882e+001
0	 6.666700000016666e+000	 2.866680000008067e+000	 1.020656458324308e+001
0	 6.666700000016667e+000	 2.933340000004133e+000	 1.020763869180413e+001
0	 6.666700000016666e+000	 3.000000000000001e+000	 1.020859166681074e+001
0	 6.666700000016667e+000	 3.066659999995868e+000	 1.020942230360165e+001
0	 6.666700000016666e+000	 3.133319999991934e+000	 1.021012939751565e+001
0	 6.666700000016666e+000	 3.199979999988401e+000	 1.021071174389149e+001
0	 6.666700000016666e+000	 3.266639999985468e+000	 1.021116813806797e+001
0	 6.666700000016665e+000	 3.333299999983333e+000	 1.021149737538384e+001
0	 6.000000000000000e+000	 3.333299999983334e+000	 1.030346221406501e+001
0	 6.000000000000000e+000	 3.399969999982150e+000	 1.030189164896924e+001
0	 6.000000000000000e+000	 3.466639999981866e+000	 1.030021239583030e+001
0	 5.999999999999999e+000	 3.533309999982383e+000	 1.029841787116891e+001
0	 6.000000000000001e+000	 3.599979999983598e+000	 1.029650149150580e+001
0	 6.000000000000000e+000	 3.666649999985415e+000	 1.029445667336166e+001
0	 6.000000000000001e+000	 3.733319999987732e+000	 1.029227683325725e+001
0	 6.000000000000002e+000	 3.799989999990448e+000	 1.028995538771326e+001
0	 6.000000000000000e+000	 3.866659999993465e+000	 1.028748575325040e+001
0	 6.000000000000000e+000	 3.933329999996682e+000	 1.028486134638939e+001
0	 6.000000000000001e+000	 4.000000000000001e+000	 1.028207558365093e+001
0	 6.066670000003317e+000	 3.333299999983333e+000	 1.029420530912479e+001
0	 6.066670000003315e+000	 3.399969999982150e+000	 1.029271891015607e+001
0	 6.066670000003317e+000	 3.466639999981866e+000	 1.029113430694989e+001
0	 6.066670000003319e+000	 3.533309999982383e+000	 1.028944610716910e+001
0	 6.066670000003316e+000	 3.599979999983598e+000	 1.028764891847650e+001
0	 6.066670000003318e+000	 3.666649999985415e+000	 1.028573734853491e+001
0	 6.066670000003318e+000	 3.733319999987733e+000	 1.028370600500719e+001
0	 6.066670000003319e+000	 3.799989999990448e+000	 1.028154949555611e+001
0	 6.066670000003317e+000	 3.866659999993465e+000	 1.027926242784452e+001
0	 6.066670000003319e+000	 3.933329999996683e+000	 1.027683940953521e+001
0	 6.066670000003318e+000	 4.000000000000001e+000	 1.027427504829098e+001
0	 6.133340000006530e+000	 3.333299999983333e+000	 1.028489895700264e+001
0	 6.133340000006534e+000	 3.399969999982150e+000	 1.028354307538899e+001
0	 6.133340000006535e+000	 3.466639999981866e+000	 1.028209235626520e+001
0	 6.133340000006531e+000	 3.533309999982381e+000	 1.028054247283375e+001
0	 6.133340000006532e+000	 3.599979999983598e+000	 1.027888909829711e+001
0	 6.133340000006531e+000	 3.666649999985414e+000	 1.027712790585777e+001
0	 6.133340000006532e+000	 3.733319999987731e+000	 1.027525456871820e+001
0	 6.133340000006532e+000	 3.799989999990449e+000	 1.027326476008087e+001
0	 6.133340000006532e+000	 3.866659999993464e+000	 1.027115415314827e+001
0	 6.133340000006532e+000	 3.933329999996682e+000	 1.026891842112285e+001
0	 6.133340000006534e+000	 4.000000000000000e+000	 1.026655323720708e+001
0	 6.200010000009550e+000	 3.333299999983333e+000	 1.027556673548111e+001
0	 6.200010000009549e+000	 3.399969999982150e+000	 1.027437797118135e+001
0	 6.200010000009550e+000	 3.466639999981866e+000	 1.027309200907372e+001
0	 6.200010000009551e+000	 3.533309999982383e+000	 1.027170546229793e+001
0	 6.200010000009549e+000	 3.599979999983598e+000	 1.027021494399366e+001
0	 6.200010000009549e+000	 3.666649999985415e+000	 1.026861706730062e+001
0	 6.200010000009550e+000	 3.733319999987732e+000	 1.026690844535849e+001
0	 6.200010000009550e+000	 3.799989999990448e+000	 1.026508569130693e+001
0	 6.200010000009550e+000	 3.866659999993464e+000	 1.026314541828566e+001
0	 6.200010000009549e+000	 3.933329999996682e+000	 1.026108423943435e+001
0	 6.200010000009549e+000	 4.000000000000000e+000	 1.025889876789265e+001
0	 6.266680000012267e+000	 3.333299999983334e+000	 1.026623222234277e+001
0	 6.266680000012268e+000	 3.399969999982151e+000	 1.026523742404645e+001
0	 6.266680000012268e+000	 3.466639999981866e+000	 1.026413873067294e+001
0	 6.266680000012267e+000	 3.533309999982382e+000	 1.026293356969671e+001
0	 6.266680000012266e+000	 3.599979999983599e+000	 1.026161936859221e+001
0	 6.266680000012267e+000	 3.666649999985415e+000	 1.026019355483392e+001
0	 6.266680000012267e+000	 3.733319999987732e+000	 1.025865355589627e+001
0	 6.266680000012264e+000	 3.799989999990447e+000	 1.025699679925371e+001
0	 6.266680000012267e+000	 3.866659999993465e+000	 1.025522071238071e+001
0	 6.266680000012265e+000	 3.933329999996681e+000	 1.025332272275170e+001
0	 6.266680000012267e+000	 4.000000000000000e+000	 1.025130025784111e+001
0	 6.333350000014584e+000	 3.333299999983334e+000	 1.025691899537021e+001
0	 6.333350000014583e+000	 3.399969999982150e+000	 1.025613526049765e+001
0	 6.333350000014584e+000	 3.466639999981866e+000	 1.025523798636036e+001
0	 6.333350000014583e+000	 3.533309999982382e+000	 1.025422528916515e+001
0	 6.333350000014582e+000	 3.599979999983598e+000	 1.025309528511880e+001
0	 6.333350000014582e+000	 3.666649999985415e+000	 1.025184609042808e+001
0	 6.333350000014582e+000	 3.733319999987732e+000	 1.025047582129977e+001
0	 6.333350000014581e+000	 3.799989999990447e+000	 1.024898259394061e+001
0	 6.333350000014582e+000	 3.866659999993465e+000	 1.024736452455743e+001
0	 6.333350000014583e+000	 3.933329999996682e+000	 1.024561972935693e+001
0	 6.333350000014584e+000	 4.000000000000001e+000	 1.024374632454590e+001
0	 6.400020000016401e+000	 3.333299999983334e+000	 1.024765063234599e+001
0	 6.400020000016400e+000	 3.399969999982150e+000	 1.024708530704825e+001
0	 6.400020000016399e+000	 3.466639999981866e+000	 1.024639524143347e+001
0	 6.400020000016400e+000	 3.533309999982383e+000	 1.024557911483833e+001
0	 6.400020000016398e+000	 3.599979999983598e+000	 1.024463560659947e+001
0	 6.400020000016396e+000	 3.666649999985414e+000	 1.024356339605354e+001
0	 6.400020000016398e+000	 3.733319999987732e+000	 1.024236116253719e+001
0	 6.400020000016400e+000	 3.799989999990449e+000	 1.024102758538707e+001
0	 6.400020000016401e+000	 3.866659999993465e+000	 1.023956134393982e+001
0	 6.400020000016397e+000	 3.933329999996681e+000	 1.023796111753208e+001
0	 6.400020000016398e+000	 4.000000000000000e+000	 1.023622558550047e+001
0	 6.466690000017616e+000	 3.333299999983334e+000	 1.023845071105268e+001
0	 6.466690000017615e+000	 3.399969999982150e+000	 1.023810139021159e+001
0	 6.466690000017614e+000	 3.466639999981865e+000	 1.023761596118976e+001
0	 6.466690000017615e+000	 3.533309999982382e+000	 1.023699354085128e+001
0	 6.466690000017617e+000	 3.599979999983598e+000	 1.023623324606025e+001
0	 6.466690000017616e+000	 3.666649999985416e+000	 1.023533419368069e+001
0	 6.466690000017616e+000	 3.733319999987732e+000	 1.023429550057675e+001
0	 6.466690000017615e+000	 3.799989999990448e+000	 1.023311628361246e+001
0	 6.466690000017618e+000	 3.866659999993465e+000	 1.023179565965190e+001
0	 6.466690000017615e+000	 3.933329999996681e+000	 1.023033274555911e+001
0	 6.466690000017615e+000	 4.000000000000001e+000	 1.022872665819820e+001
0	 6.533360000018132e+000	 3.333299999983334e+000	 1.022934280927284e+001
0	 6.533360000018132e+000	 3.399969999982150e+000	 1.022919733650099e+001
0	 6.533360000018130e+000	 3.466639999981865e+000	 1.022890561092672e+001
0	 6.533360000018133e+000	 3.533309999982382e+000	 1.022846706133910e+001
0	 6.533360000018131e+000	 3.599979999983598e+000	 1.022788111652717e+001
0	 6.533360000018130e+000	 3.666649999985415e+000	 1.022714720528000e+001
0	 6.533360000018133e+000	 3.733319999987732e+000	 1.022626475638666e+001
0	 6.533360000018131e+000	 3.799989999990448e+000	 1.022523319863619e+001
0	 6.533360000018130e+000	 3.866659999993465e+000	 1.022405196081765e+001
0	 6.533360000018133e+000	 3.933329999996682e+000	 1.022272047172009e+001
0	 6.533360000018132e+000	 4.000000000000000e+000	 1.022123816013255e+001
0	 6.600030000017847e+000	 3.333299999983333e+000	 1.022035050478904e+001
0	 6.600030000017847e+000	 3.399969999982150e+000	 1.022038697242980e+001
0	 6.600030000017847e+000	 3.466639999981866e+000	 1.022026965594185e+001
0	 6.600030000017847e+000	 3.533309999982383e+000	 1.021999817043681e+001
0	 6.600030000017847e+000	 3.599979999983598e+000	 1.021957213102628e+001
0	 6.600030000017849e+000	 3.666649999985416e+000	 1.021899115282185e+001
0	 6.600030000017848e+000	 3.733319999987731e+000	 1.021825485093512e+001
0	 6.600030000017847e+000	 3.799989999990449e+000	 1.021736284047769e+001
0	 6.600030000017849e+000	 3.866659999993466e+000	 1.021631473656110e+001
0	 6.600030000017848e+000	 3.933329999996682e+000	 1.021511015429700e+001
0	 6.600030000017848e+000	 4.000000000000000e+000	 1.021374870879694e+001
0	 6.666700000016665e+000	 3.333299999983333e+000	 1.021149737538384e+001
0	 6.666700000016665e+000	 3.399969999982149e+000	 1.021168412451130e+001
0	 6.666700000016667e+000	 3.466639999981866e+000	 1.021171356153262e+001
0	 6.666700000016668e+000	 3.533309999982382e+000	 1.021158536227950e+001
0	 6.666700000016666e+000	 3.599979999983598e+000	 1.021129920258362e+001
0	 6.666700000016667e+000	 3.666649999985415e+000	 1.021085475827667e+001
0	 6.666700000016665e+000	 3.733319999987732e+000	 1.021025170519034e+001
0	 6.666700000016665e+000	 3.799989999990447e+000	 1.020948971915632e+001
0	 6.666700000016665e+000	 3.866659999993464e+000	 1.020856847600626e+001
0	 6.666700000016665e+000	 3.933329999996681e+000	 1.020748765157186e+001
0	 6.666700000016667e+000	 4.000000000000001e+000	 1.020624692168477e+001
0	 6.000000000000001e+000	 4.000000000000001e+000	 1.028207558365093e+001
0	 6.000000000000000e+000	 4.066670000003317e+000	 1.027916382905566e+001
0	 5.999999999999999e+000	 4.133340000006533e+000	 1.027616161918582e+001
0	 6.000000000000001e+000	 4.200010000009550e+000	 1.027306262940443e+001
0	 6.000000000000002e+000	 4.266680000012267e+000	 1.026986053507447e+001
0	 6.000000000000001e+000	 4.333350000014583e+000	 1.026654901155898e+001
0	 5.999999999999999e+000	 4.400020000016400e+000	 1.026312173422094e+001
0	 6.000000000000001e+000	 4.466690000017617e+000	 1.025957237842336e+001
0	 5.999999999999999e+000	 4.533360000018132e+000	 1.025589461952926e+001
0	 5.999999999999999e+000	 4.600030000017848e+000	 1.025208213290162e+001
0	 5.999999999999999e+000	 4.666700000016665e+000	 1.024812859390344e+001
0	 6.066670000003318e+000	 4.000000000000001e+000	 1.027427504829098e+001
0	 6.066670000003318e+000	 4.066670000003318e+000	 1.027159030160818e+001
0	 6.066670000003317e+000	 4.133340000006533e+000	 1.026880629355355e+001
0	 6.066670000003319e+000	 4.200010000009549e+000	 1.026591788164559e+001
0	 6.066670000003319e+000	 4.266680000012268e+000	 1.026291992340277e+001
0	 6.066670000003319e+000	 4.333350000014584e+000	 1.025980727634353e+001
0	 6.066670000003318e+000	 4.400020000016399e+000	 1.025657479798634e+001
0	 6.066670000003317e+000	 4.466690000017617e+000	 1.025321734584969e+001
0	 6.066670000003318e+000	 4.533360000018134e+000	 1.024972977745202e+001
0	 6.066670000003317e+000	 4.600030000017849e+000	 1.024610695031179e+001
0	 6.066670000003319e+000	 4.666700000016667e+000	 1.024234372194745e+001
0	 6.133340000006534e+000	 4.000000000000000e+000	 1.026655323720708e+001
0	 6.133340000006533e+000	 4.066670000003316e+000	 1.026407046394949e+001
0	 6.133340000006534e+000	 4.133340000006534e+000	 1.026148209072908e+001
0	 6.133340000006533e+000	 4.200010000009550e+000	 1.025878398099409e+001
0	 6.133340000006531e+000	 4.266680000012267e+000	 1.025597199819273e+001
0	 6.133340000006534e+000	 4.333350000014582e+000	 1.025304200577318e+001
0	 6.133340000006532e+000	 4.400020000016400e+000	 1.024998986718367e+001
0	 6.133340000006533e+000	 4.466690000017617e+000	 1.024681144587238e+001
0	 6.133340000006533e+000	 4.533360000018132e+000	 1.024350260528751e+001
0	 6.133340000006533e+000	 4.600030000017848e+000	 1.024005920887729e+001
0	 6.133340000006533e+000	 4.666700000016668e+000	 1.023647712008988e+001
0	 6.200010000009549e+000	 4.000000000000000e+000	 1.025889876789265e+001
0	 6.200010000009549e+000	 4.066670000003317e+000	 1.025659626810828e+001
0	 6.200010000009550e+000	 4.133340000006534e+000	 1.025418405787066e+001
0	 6.200010000009552e+000	 4.200010000009550e+000	 1.025165883033200e+001
0	 6.200010000009550e+000	 4.266680000012268e+000	 1.024901727864457e+001
0	 6.200010000009549e+000	 4.333350000014582e+000	 1.024625609596055e+001
0	 6.200010000009548e+000	 4.400020000016400e+000	 1.024337197543220e+001
0	 6.200010000009552e+000	 4.466690000017617e+000	 1.024036161021171e+001
0	 6.200010000009551e+000	 4.533360000018133e+000	 1.023722169345134e+001
0	 6.200010000009550e+000	 4.600030000017849e+000	 1.023394891830327e+001
0	 6.200010000009550e+000	 4.666700000016667e+000	 1.023053997791974e+001
0	 6.266680000012267e+000	 4.000000000000000e+000	 1.025130025784111e+001
0	 6.266680000012268e+000	 4.066670000003317e+000	 1.024915966611326e+001
0	 6.266680000012268e+000	 4.133340000006534e+000	 1.024690724213652e+001
0	 6.266680000012267e+000	 4.200010000009550e+000	 1.024454033254141e+001
0	 6.266680000012267e+000	 4.266680000012268e+000	 1.024205628395848e+001
0	 6.266680000012268e+000	 4.333350000014583e+000	 1.023945244301824e+001
0	 6.266680000012268e+000	 4.400020000016402e+000	 1.023672615635122e+001
0	 6.266680000012265e+000	 4.466690000017616e+000	 1.023387477058797e+001
0	 6.266680000012267e+000	 4.533360000018133e+000	 1.023089563235899e+001
0	 6.266680000012268e+000	 4.600030000017848e+000	 1.022778608829481e+001
0	 6.266680000012267e+000	 4.666700000016667e+000	 1.022454348502595e+001
0	 6.333350000014584e+000	 4.000000000000001e+000	 1.024374632454590e+001
0	 6.333350000014584e+000	 4.066670000003319e+000	 1.024175260999311e+001
0	 6.333350000014584e+000	 4.133340000006532e+000	 1.023964669068490e+001
0	 6.333350000014583e+000	 4.200010000009550e+000	 1.023742639050437e+001
0	 6.333350000014583e+000	 4.266680000012268e+000	 1.023508953333463e+001
0	 6.333350000014583e+000	 4.333350000014583e+000	 1.023263394305883e+001
0	 6.333350000014582e+000	 4.400020000016400e+000	 1.023005744356006e+001
0	 6.333350000014582e+000	 4.466690000017614e+000	 1.022735785872144e+001
0	 6.333350000014582e+000	 4.533360000018133e+000	 1.022453301242607e+001
0	 6.333350000014582e+000	 4.600030000017849e+000	 1.022158072855705e+001
0	 6.333350000014584e+000	 4.666700000016667e+000	 1.021849883099750e+001
0	 6.400020000016398e+000	 4.000000000000000e+000	 1.023622558550046e+001
0	 6.400020000016399e+000	 4.066670000003316e+000	 1.023436705177654e+001
0	 6.400020000016400e+000	 4.133340000006534e+000	 1.023239745067403e+001
0	 6.400020000016402e+000	 4.200010000009550e+000	 1.023031490710294e+001
0	 6.400020000016399e+000	 4.266680000012268e+000	 1.022811754597325e+001
0	 6.400020000016400e+000	 4.333350000014584e+000	 1.022580349219494e+001
0	 6.400020000016400e+000	 4.400020000016402e+000	 1.022337087067800e+001
0	 6.400020000016402e+000	 4.466690000017616e+000	 1.022081780633238e+001
0	 6.400020000016400e+000	 4.533360000018133e+000	 1.021814242406809e+001
0	 6.400020000016400e+000	 4.600030000017850e+000	 1.021534284879508e+001
0	 6.400020000016400e+000	 4.666700000016667e+000	 1.021241720542332e+001
0	 6.466690000017615e+000	 4.000000000000001e+000	 1.022872665819820e+001
0	 6.466690000017616e+000	 4.066670000003318e+000	 1.022699494349217e+001
0	 6.466690000017614e+000	 4.133340000006534e+000	 1.022515456926212e+001
0	 6.466690000017615e+000	 4.200010000009550e+000	 1.022320378521920e+001
0	 6.466690000017616e+000	 4.266680000012267e+000	 1.022114084107449e+001
0	 6.466690000017617e+000	 4.333350000014582e+000	 1.021896398653917e+001
0	 6.466690000017617e+000	 4.400020000016400e+000	 1.021667147132432e+001
0	 6.466690000017617e+000	 4.466690000017617e+000	 1.021426154514111e+001
0	 6.466690000017615e+000	 4.533360000018132e+000	 1.021173245770063e+001
0	 6.466690000017617e+000	 4.600030000017849e+000	 1.020908245871401e+001
0	 6.466690000017616e+000	 4.666700000016667e+000	 1.020630979789238e+001
0	 6.533360000018132e+000	 4.000000000000000e+000	 1.022123816013255e+001
0	 6.533360000018130e+000	 4.066670000003317e+000	 1.021962823716876e+001
0	 6.533360000018132e+000	 4.133340000006534e+000	 1.021791309360745e+001
0	 6.533360000018131e+000	 4.200010000009550e+000	 1.021609092773519e+001
0	 6.533360000018133e+000	 4.266680000012268e+000	 1.021415993783856e+001
0	 6.533360000018132e+000	 4.333350000014582e+000	 1.021211832220408e+001
0	 6.533360000018133e+000	 4.400020000016402e+000	 1.020996427911833e+001
0	 6.533360000018131e+000	 4.466690000017617e+000	 1.020769600686786e+001
0	 6.533360000018132e+000	 4.533360000018133e+000	 1.020531170373921e+001
0	 6.533360000018132e+000	 4.600030000017848e+000	 1.020280956801897e+001
0	 6.533360000018132e+000	 4.666700000016666e+000	 1.020018779799364e+001
0	 6.600030000017848e+000	 4.000000000000000e+000	 1.021374870879693e+001
0	 6.600030000017848e+000	 4.066670000003318e+000	 1.021225888483494e+001
0	 6.600030000017847e+000	 4.133340000006533e+000	 1.021066807086823e+001
0	 6.600030000017849e+000	 4.200010000009550e+000	 1.020897423753303e+001
0	 6.600030000017849e+000	 4.266680000012267e+000	 1.020717535546564e+001
0	 6.600030000017849e+000	 4.333350000014584e+000	 1.020526939530231e+001
0	 6.600030000017849e+000	 4.400020000016401e+000	 1.020325432767933e+001
0	 6.600030000017849e+000	 4.466690000017616e+000	 1.020112812323294e+001
0	 6.600030000017849e+000	 4.533360000018133e+000	 1.019888875259943e+001
0	 6.600030000017847e+000	 4.600030000017849e+000	 1.019653418641504e+001
0	 6.600030000017848e+000	 4.666700000016665e+000	 1.019406239531604e+001
0	 6.666700000016667e+000	 4.000000000000001e+000	 1.020624692168477e+001
0	 6.666700000016666e+000	 4.066670000003316e+000	 1.020487883851943e+001
0	 6.666700000016665e+000	 4.133340000006533e+000	 1.020341454820268e+001
0	 6.666700000016666e+000	 4.200010000009550e+000	 1.020185161749473e+001
0	 6.666700000016665e+000	 4.266680000012267e+000	 1.020018761315592e+001
0	 6.666700000016665e+000	 4.333350000014582e+000	 1.019842010194645e+001
0	 6.666700000016666e+000	 4.400020000016401e+000	 1.019654665062661e+001
0	 6.666700000016667e+000	 4.466690000017616e+000	 1.019456482595663e+001
0	 6.666700000016665e+000	 4.533360000018131e+000	 1.019247219469680e+001
0	 6.666700000016666e+000	 4.600030000017849e+000	 1.019026632360735e+001
0	 6.666700000016667e+000	 4.666700000016666e+000	 1.018794477944855e+001
0	 5.999999999999999e+000	 4.666700000016665e+000	 1.024812859390345e+001
0	 5.999999999999999e+000	 4.733360000014532e+000	 1.024409107494989e+001
0	 6.000000000000001e+000	 4.800020000011600e+000	 1.024002619155357e+001
0	 6.000000000000002e+000	 4.866680000008067e+000	 1.023592874541108e+001
0	 6.000000000000000e+000	 4.933340000004133e+000	 1.023179353821906e+001
0	 6.000000000000000e+000	 5.000000000000001e+000	 1.022761537167417e+001
0	 6.000000000000000e+000	 5.066659999995867e+000	 1.022338904747303e+001
0	 6.000000000000000e+000	 5.133319999991932e+000	 1.021910936731224e+001
0	 6.000000000000001e+000	 5.199979999988400e+000	 1.021477113288848e+001
0	 6.000000000000000e+000	 5.266639999985466e+000	 1.021036914589836e+001
0	 6.000000000000000e+000	 5.333299999983334e+000	 1.020589820803854e+001
0	 6.066670000003319e+000	 4.666700000016667e+000	 1.024234372194745e+001
0	 6.066670000003315e+000	 4.733360000014533e+000	 1.023849655293437e+001
0	 6.066670000003314e+000	 4.800020000011598e+000	 1.023462036589066e+001
0	 6.066670000003319e+000	 4.866680000008067e+000	 1.023070943712708e+001
0	 6.066670000003319e+000	 4.933340000004133e+000	 1.022675804295428e+001
0	 6.066670000003319e+000	 5.000000000000002e+000	 1.022276045968301e+001
0	 6.066670000003319e+000	 5.066659999995867e+000	 1.021871096362395e+001
0	 6.066670000003317e+000	 5.133319999991932e+000	 1.021460383108788e+001
0	 6.066670000003316e+000	 5.199979999988400e+000	 1.021043333838548e+001
0	 6.066670000003318e+000	 5.266639999985466e+000	 1.020619376182748e+001
0	 6.066670000003317e+000	 5.333299999983334e+000	 1.020187937772462e+001
0	 6.133340000006533e+000	 4.666700000016668e+000	 1.023647712008988e+001
0	 6.133340000006535e+000	 4.733360000014534e+000	 1.023281189833903e+001
0	 6.133340000006533e+000	 4.800020000011599e+000	 1.022911668500107e+001
0	 6.133340000006534e+000	 4.866680000008065e+000	 1.022538536015208e+001
0	 6.133340000006532e+000	 4.933340000004132e+000	 1.022161180386812e+001
0	 6.133340000006533e+000	 5.000000000000002e+000	 1.021778989622532e+001
0	 6.133340000006533e+000	 5.066659999995866e+000	 1.021391351729979e+001
0	 6.133340000006537e+000	 5.133319999991934e+000	 1.020997654716761e+001
0	 6.133340000006534e+000	 5.199979999988400e+000	 1.020597286590489e+001
0	 6.133340000006533e+000	 5.266639999985466e+000	 1.020189635358772e+001
0	 6.133340000006530e+000	 5.333299999983333e+000	 1.019774089029223e+001
0	 6.200010000009550e+000	 4.666700000016667e+000	 1.023053997791974e+001
0	 6.200010000009550e+000	 4.733360000014532e+000	 1.022704925704901e+001
0	 6.200010000009550e+000	 4.800020000011599e+000	 1.022352804361427e+001
0	 6.200010000009550e+000	 4.866680000008066e+000	 1.021996995060832e+001
0	 6.200010000009550e+000	 4.933340000004133e+000	 1.021636859102391e+001
0	 6.200010000009550e+000	 5.000000000000002e+000	 1.021271757785383e+001
0	 6.200010000009551e+000	 5.066659999995867e+000	 1.020901052409082e+001
0	 6.200010000009550e+000	 5.133319999991934e+000	 1.020524104272772e+001
0	 6.200010000009551e+000	 5.199979999988400e+000	 1.020140274675725e+001
0	 6.200010000009549e+000	 5.266639999985464e+000	 1.019748924917224e+001
0	 6.200010000009550e+000	 5.333299999983333e+000	 1.019349416296545e+001
0	 6.266680000012267e+000	 4.666700000016667e+000	 1.022454348502596e+001
0	 6.266680000012268e+000	 4.733360000014534e+000	 1.022122077494933e+001
0	 6.266680000012265e+000	 4.800020000011599e+000	 1.021786733645979e+001
0	 6.266680000012268e+000	 4.866680000008066e+000	 1.021447664461808e+001
0	 6.266680000012267e+000	 4.933340000004133e+000	 1.021104217448495e+001
0	 6.266680000012264e+000	 5.000000000000000e+000	 1.020755740112113e+001
0	 6.266680000012267e+000	 5.066659999995865e+000	 1.020401579958740e+001
0	 6.266680000012267e+000	 5.133319999991933e+000	 1.020041084494448e+001
0	 6.266680000012266e+000	 5.199979999988399e+000	 1.019673601225315e+001
0	 6.266680000012268e+000	 5.266639999985466e+000	 1.019298477657416e+001
0	 6.266680000012265e+000	 5.333299999983334e+000	 1.018915061296826e+001
0	 6.333350000014584e+000	 4.666700000016667e+000	 1.021849883099750e+001
0	 6.333350000014584e+000	 4.733360000014533e+000	 1.021533859792512e+001
0	 6.333350000014582e+000	 4.800020000011600e+000	 1.021214745826714e+001
0	 6.333350000014583e+000	 4.866680000008067e+000	 1.020891887830362e+001
0	 6.333350000014580e+000	 4.933340000004132e+000	 1.020564632431452e+001
0	 6.333350000014583e+000	 5.000000000000001e+000	 1.020232326257991e+001
0	 6.333350000014582e+000	 5.066659999995869e+000	 1.019894315937980e+001
0	 6.333350000014583e+000	 5.133319999991933e+000	 1.019549948099419e+001
0	 6.333350000014582e+000	 5.199979999988399e+000	 1.019198569370311e+001
0	 6.333350000014583e+000	 5.266639999985467e+000	 1.018839526378663e+001
0	 6.333350000014583e+000	 5.333299999983333e+000	 1.018472165752474e+001
0	 6.400020000016400e+000	 4.666700000016667e+000	 1.021241720542332e+001
0	 6.400020000016401e+000	 4.733360000014533e+000	 1.020941487186142e+001
0	 6.400020000016400e+000	 4.800020000011601e+000	 1.020638130376584e+001
0	 6.400020000016401e+000	 4.866680000008067e+000	 1.020331008778716e+001
0	 6.400020000016401e+000	 4.933340000004135e+000	 1.020019481057596e+001
0	 6.400020000016400e+000	 5.000000000000001e+000	 1.019702905878282e+001
0	 6.400020000016400e+000	 5.066659999995868e+000	 1.019380641905836e+001
0	 6.400020000016400e+000	 5.133319999991933e+000	 1.019052047805313e+001
0	 6.400020000016401e+000	 5.199979999988400e+000	 1.018716482241774e+001
0	 6.400020000016401e+000	 5.266639999985465e+000	 1.018373303880280e+001
0	 6.400020000016400e+000	 5.333299999983334e+000	 1.018021871385891e+001
0	 6.466690000017616e+000	 4.666700000016667e+000	 1.020630979789238e+001
0	 6.466690000017617e+000	 4.733360000014533e+000	 1.020346174264336e+001
0	 6.466690000017616e+000	 4.800020000011601e+000	 1.020058176768540e+001
0	 6.466690000017618e+000	 4.866680000008068e+000	 1.019766370919098e+001
0	 6.466690000017615e+000	 4.933340000004134e+000	 1.019470140333254e+001
0	 6.466690000017615e+000	 5.000000000000000e+000	 1.019168868628252e+001
0	 6.466690000017614e+000	 5.066659999995868e+000	 1.018861939421338e+001
0	 6.466690000017618e+000	 5.133319999991935e+000	 1.018548736329759e+001
0	 6.466690000017616e+000	 5.199979999988400e+000	 1.018228642970758e+001
0	 6.466690000017617e+000	 5.266639999985467e+000	 1.017901042961583e+001
0	 6.466690000017616e+000	 5.333299999983335e+000	 1.017565319919481e+001
0	 6.533360000018132e+000	 4.666700000016666e+000	 1.020018779799364e+001
0	 6.533360000018131e+000	 4.733360000014534e+000	 1.019749135615597e+001
0	 6.533360000018134e+000	 4.800020000011601e+000	 1.019476174475533e+001
0	 6.533360000018132e+000	 4.866680000008068e+000	 1.019199317863732e+001
0	 6.533360000018132e+000	 4.933340000004135e+000	 1.018917987264756e+001
0	 6.533360000018132e+000	 5.000000000000001e+000	 1.018631604163164e+001
0	 6.533360000018132e+000	 5.066659999995866e+000	 1.018339590043520e+001
0	 6.533360000018135e+000	 5.133319999991935e+000	 1.018041366390385e+001
0	 6.533360000018131e+000	 5.199979999988397e+000	 1.017736354688317e+001
0	 6.533360000018130e+000	 5.266639999985466e+000	 1.017423976421885e+001
0	 6.533360000018132e+000	 5.333299999983334e+000	 1.017103653075646e+001
0	 6.600030000017848e+000	 4.666700000016665e+000	 1.019406239531604e+001
0	 6.600030000017848e+000	 4.733360000014533e+000	 1.019151585828437e+001
0	 6.600030000017847e+000	 4.800020000011599e+000	 1.018893412970515e+001
0	 6.600030000017847e+000	 4.866680000008065e+000	 1.018631193224846e+001
0	 6.600030000017847e+000	 4.933340000004133e+000	 1.018364398858433e+001
0	 6.600030000017849e+000	 4.999999999999999e+000	 1.018092502138286e+001
0	 6.600030000017847e+000	 5.066659999995866e+000	 1.017814975331412e+001
0	 6.600030000017847e+000	 5.133319999991934e+000	 1.017531290704818e+001
0	 6.600030000017849e+000	 5.199979999988401e+000	 1.017240920525510e+001
0	 6.600030000017848e+000	 5.266639999985466e+000	 1.016943337060500e+001
0	 6.600030000017847e+000	 5.333299999983334e+000	 1.016638012576792e+001
0	 6.666700000016667e+000	 4.666700000016666e+000	 1.018794477944854e+001
0	 6.666700000016669e+000	 4.733360000014534e+000	 1.018554739491361e+001
0	 6.666700000016665e+000	 4.800020000011598e+000	 1.018311181726438e+001
0	 6.666700000016667e+000	 4.866680000008066e+000	 1.018063340614660e+001
0	 6.666700000016668e+000	 4.933340000004135e+000	 1.017810752120615e+001
0	 6.666700000016666e+000	 5.000000000000000e+000	 1.017552952208882e+001
0	 6.666700000016668e+000	 5.066659999995866e+000	 1.017289476844047e+001
0	 6.666700000016666e+000	 5.133319999991932e+000	 1.017019861990689e+001
0	 6.666700000016666e+000	 5.199979999988399e+000	 1.016743643613392e+001
0	 6.666700000016667e+000	 5.266639999985466e+000	 1.016460357676742e+001
0	 6.666700000016665e+000	 5.333299999983333e+000	 1.016169540145321e+001
0	 6.000000000000000e+000	 5.333299999983334e+000	 1.020589820803854e+001
0	 6.000000000000000e+000	 5.399969999982150e+000	 1.020140935863815e+001
0	 6.000000000000000e+000	 5.466639999981867e+000	 1.019695510510055e+001
0	 5.999999999999999e+000	 5.533309999982383e+000	 1.019253042281522e+001
0	 6.000000000000000e+000	 5.599979999983598e+000	 1.018813028717160e+001
0	 6.000000000000001e+000	 5.666649999985416e+000	 1.018374967355921e+001
0	 6.000000000000001e+000	 5.733319999987732e+000	 1.017938355736745e+001
0	 6.000000000000001e+000	 5.799989999990447e+000	 1.017502691398584e+001
0	 5.999999999999999e+000	 5.866659999993464e+000	 1.017067471880382e+001
0	 6.000000000000000e+000	 5.933329999996681e+000	 1.016632194721088e+001
0	 5.999999999999998e+000	 5.999999999999999e+000	 1.016196357459647e+001
0	 6.066670000003317e+000	 5.333299999983334e+000	 1.020187937772462e+001
0	 6.066670000003315e+000	 5.399969999982148e+000	 1.019754143421733e+001
0	 6.066670000003318e+000	 5.466639999981866e+000	 1.019323324556539e+001
0	 6.066670000003318e+000	 5.533309999982382e+000	 1.018895022789951e+001
0	 6.066670000003316e+000	 5.599979999983596e+000	 1.018468779735044e+001
0	 6.066670000003316e+000	 5.666649999985413e+000	 1.018044137004891e+001
0	 6.066670000003318e+000	 5.733319999987733e+000	 1.017620636212563e+001
0	 6.066670000003319e+000	 5.799989999990449e+000	 1.017197818971134e+001
0	 6.066670000003314e+000	 5.866659999993463e+000	 1.016775226893678e+001
0	 6.066670000003318e+000	 5.933329999996682e+000	 1.016352401593264e+001
0	 6.066670000003317e+000	 5.999999999999999e+000	 1.015928884682968e+001
0	 6.133340000006530e+000	 5.333299999983333e+000	 1.019774089029223e+001
0	 6.133340000006534e+000	 5.399969999982149e+000	 1.019355697005245e+001
0	 6.133340000006532e+000	 5.466639999981863e+000	 1.018939762532274e+001
0	 6.133340000006533e+000	 5.533309999982381e+000	 1.018525865498055e+001
0	 6.133340000006533e+000	 5.599979999983599e+000	 1.018113585790326e+001
0	 6.133340000006534e+000	 5.666649999985415e+000	 1.017702503296828e+001
0	 6.133340000006533e+000	 5.733319999987732e+000	 1.017292197905303e+001
0	 6.133340000006533e+000	 5.799989999990447e+000	 1.016882249503486e+001
0	 6.133340000006532e+000	 5.866659999993464e+000	 1.016472237979123e+001
0	 6.133340000006535e+000	 5.933329999996683e+000	 1.016061743219951e+001
0	 6.133340000006534e+000	 5.999999999999999e+000	 1.015650345113711e+001
0	 6.200010000009550e+000	 5.333299999983333e+000	 1.019349416296544e+001
0	 6.200010000009549e+000	 5.399969999982149e+000	 1.018946644076043e+001
0	 6.200010000009550e+000	 5.466639999981865e+000	 1.018545792046255e+001
0	 6.200010000009550e+000	 5.533309999982381e+000	 1.018146472570132e+001
0	 6.200010000009550e+000	 5.599979999983598e+000	 1.017748298010621e+001
0	 6.200010000009550e+000	 5.666649999985415e+000	 1.017350880730670e+001
0	 6.200010000009550e+000	 5.733319999987733e+000	 1.016953833093231e+001
0	 6.200010000009550e+000	 5.799989999990446e+000	 1.016556767461254e+001
0	 6.200010000009550e+000	 5.866659999993463e+000	 1.016159296197685e+001
0	 6.200010000009550e+000	 5.933329999996679e+000	 1.015761031665473e+001
0	 6.200010000009549e+000	 5.999999999999999e+000	 1.015361586227573e+001
0	 6.266680000012265e+000	 5.333299999983334e+000	 1.018915061296826e+001
0	 6.266680000012268e+000	 5.399969999982151e+000	 1.018528032095825e+001
0	 6.266680000012268e+000	 5.466639999981867e+000	 1.018142380707474e+001
0	 6.266680000012266e+000	 5.533309999982382e+000	 1.017757746170481e+001
0	 6.266680000012265e+000	 5.599979999983597e+000	 1.017373767523542e+001
0	 6.266680000012267e+000	 5.666649999985416e+000	 1.016990083805357e+001
0	 6.266680000012266e+000	 5.733319999987732e+000	 1.016606334054626e+001
0	 6.266680000012265e+000	 5.799989999990448e+000	 1.016222157310051e+001
0	 6.266680000012267e+000	 5.866659999993464e+000	 1.015837192610328e+001
0	 6.266680000012266e+000	 5.933329999996682e+000	 1.015451078994162e+001
0	 6.266680000012267e+000	 6.000000000000000e+000	 1.015063455500247e+001
0	 6.333350000014583e+000	 5.333299999983333e+000	 1.018472165752474e+001
0	 6.333350000014584e+000	 5.399969999982149e+000	 1.018100908526278e+001
0	 6.333350000014583e+000	 5.466639999981866e+000	 1.017730496124923e+001
0	 6.333350000014583e+000	 5.533309999982382e+000	 1.017360588463402e+001
0	 6.333350000014583e+000	 5.599979999983598e+000	 1.016990845456706e+001
0	 6.333350000014582e+000	 5.666649999985414e+000	 1.016620927019828e+001
0	 6.333350000014582e+000	 5.733319999987732e+000	 1.016250493067760e+001
0	 6.333350000014584e+000	 5.799989999990448e+000	 1.015879203515493e+001
0	 6.333350000014581e+000	 5.866659999993463e+000	 1.015506718278022e+001
0	 6.333350000014584e+000	 5.933329999996681e+000	 1.015132697270334e+001
0	 6.333350000014582e+000	 5.999999999999999e+000	 1.014756800407425e+001
0	 6.400020000016400e+000	 5.333299999983334e+000	 1.018021871385890e+001
0	 6.400020000016399e+000	 5.399969999982149e+000	 1.017666320829102e+001
0	 6.400020000016399e+000	 5.466639999981866e+000	 1.017311105907594e+001
0	 6.400020000016401e+000	 5.533309999982384e+000	 1.016955901613195e+001
0	 6.400020000016400e+000	 5.599979999983598e+000	 1.016600382937729e+001
0	 6.400020000016400e+000	 5.666649999985413e+000	 1.016244224873026e+001
0	 6.400020000016398e+000	 5.733319999987732e+000	 1.015887102410904e+001
0	 6.400020000016398e+000	 5.799989999990447e+000	 1.015528690543197e+001
0	 6.400020000016399e+000	 5.866659999993464e+000	 1.015168664261727e+001
0	 6.400020000016398e+000	 5.933329999996681e+000	 1.014806698558320e+001
0	 6.400020000016398e+000	 6.000000000000000e+000	 1.014442468424802e+001
0	 6.466690000017616e+000	 5.333299999983335e+000	 1.017565319919481e+001
0	 6.466690000017615e+000	 5.399969999982149e+000	 1.017225316465986e+001
0	 6.466690000017613e+000	 5.466639999981864e+000	 1.016885177664477e+001
0	 6.466690000017615e+000	 5.533309999982383e+000	 1.016544587784158e+001
0	 6.466690000017617e+000	 5.599979999983598e+000	 1.016203231094226e+001
0	 6.466690000017617e+000	 5.666649999985415e+000	 1.015860791863885e+001
0	 6.466690000017617e+000	 5.733319999987732e+000	 1.015516954362337e+001
0	 6.466690000017617e+000	 5.799989999990447e+000	 1.015171402858778e+001
0	 6.466690000017615e+000	 5.866659999993463e+000	 1.014823821622415e+001
0	 6.466690000017617e+000	 5.933329999996682e+000	 1.014473894922443e+001
0	 6.466690000017617e+000	 6.000000000000002e+000	 1.014121307028069e+001
0	 6.533360000018132e+000	 5.333299999983334e+000	 1.017103653075646e+001
0	 6.533360000018131e+000	 5.399969999982149e+000	 1.016778942898625e+001
0	 6.533360000018130e+000	 5.466639999981865e+000	 1.016453679004567e+001
0	 6.533360000018133e+000	 5.533309999982382e+000	 1.016127549140589e+001
0	 6.533360000018131e+000	 5.599979999983598e+000	 1.015800241053812e+001
0	 6.533360000018130e+000	 5.666649999985414e+000	 1.015471442491350e+001
0	 6.533360000018130e+000	 5.733319999987730e+000	 1.015140841200324e+001
0	 6.533360000018132e+000	 5.799989999990449e+000	 1.014808124927850e+001
0	 6.533360000018133e+000	 5.866659999993466e+000	 1.014472981421046e+001
0	 6.533360000018133e+000	 5.933329999996682e+000	 1.014135098427031e+001
0	 6.533360000018132e+000	 6.000000000000000e+000	 1.013794163692922e+001
0	 6.600030000017847e+000	 5.333299999983334e+000	 1.016638012576792e+001
0	 6.600030000017847e+000	 5.399969999982151e+000	 1.016328247588713e+001
0	 6.600030000017847e+000	 5.466639999981867e+000	 1.016017577536854e+001
0	 6.600030000017845e+000	 5.533309999982381e+000	 1.015705687846791e+001
0	 6.600030000017850e+000	 5.599979999983600e+000	 1.015392263944100e+001
0	 6.600030000017849e+000	 5.666649999985416e+000	 1.015076991254360e+001
0	 6.600030000017848e+000	 5.733319999987731e+000	 1.014759555203143e+001
0	 6.600030000017847e+000	 5.799989999990448e+000	 1.014439641216029e+001
0	 6.600030000017848e+000	 5.866659999993463e+000	 1.014116934718591e+001
0	 6.600030000017847e+000	 5.933329999996680e+000	 1.013791121136407e+001
0	 6.600030000017847e+000	 5.999999999999999e+000	 1.013461885895054e+001
0	 6.666700000016665e+000	 5.333299999983333e+000	 1.016169540145321e+001
0	 6.666700000016666e+000	 5.399969999982151e+000	 1.015874277997943e+001
0	 6.666700000016668e+000	 5.466639999981865e+000	 1.015577840870332e+001
0	 6.666700000016666e+000	 5.533309999982381e+000	 1.015279906067062e+001
0	 6.666700000016665e+000	 5.599979999983598e+000	 1.014980150892711e+001
0	 6.666700000016667e+000	 5.666649999985415e+000	 1.014678252651854e+001
0	 6.666700000016666e+000	 5.733319999987731e+000	 1.014373888649067e+001
0	 6.666700000016666e+000	 5.799989999990448e+000	 1.014066736188929e+001
0	 6.666700000016665e+000	 5.866659999993465e+000	 1.013756472576014e+001
0	 6.666700000016666e+000	 5.933329999996682e+000	 1.013442775114898e+001
0	 6.666700000016667e+000	 6.000000000000002e+000	 1.013125321110156e+001
0	 5.999999999999998e+000	 5.999999999999999e+000	 1.016196357459647e+001
0	 6.000000000000000e+000	 6.066670000003318e+000	 1.015762437431602e+001
0	 6.000000000000000e+000	 6.133340000006533e+000	 1.015333036253895e+001
0	 5.999999999999999e+000	 6.200010000009550e+000	 1.014907837887569e+001
0	 6.000000000000000e+000	 6.266680000012266e+000	 1.014486526293676e+001
0	 5.999999999999999e+000	 6.333350000014583e+000	 1.014068785433262e+001
0	 5.999999999999999e+000	 6.400020000016399e+000	 1.013654299267370e+001
0	 6.000000000000001e+000	 6.466690000017615e+000	 1.013242751757051e+001
0	 6.000000000000002e+000	 6.533360000018133e+000	 1.012833826863350e+001
0	 6.000000000000000e+000	 6.600030000017848e+000	 1.012427208547313e+001
0	 6.000000000000001e+000	 6.666700000016666e+000	 1.012022580769989e+001
0	 6.066670000003317e+000	 5.999999999999999e+000	 1.015928884682968e+001
0	 6.066670000003316e+000	 6.066670000003315e+000	 1.015507035717056e+001
0	 6.066670000003316e+000	 6.133340000006533e+000	 1.015089303514409e+001
0	 6.066670000003318e+000	 6.200010000009549e+000	 1.014675363585008e+001
0	 6.066670000003318e+000	 6.266680000012268e+000	 1.014264891438841e+001
0	 6.066670000003318e+000	 6.333350000014583e+000	 1.013857562585888e+001
0	 6.066670000003319e+000	 6.400020000016400e+000	 1.013453052536135e+001
0	 6.066670000003319e+000	 6.466690000017618e+000	 1.013051036799565e+001
0	 6.066670000003316e+000	 6.533360000018130e+000	 1.012651190886164e+001
0	 6.066670000003318e+000	 6.600030000017847e+000	 1.012253190305917e+001
0	 6.066670000003318e+000	 6.666700000016667e+000	 1.011856710568804e+001
0	 6.133340000006534e+000	 5.999999999999999e+000	 1.015650345113711e+001
0	 6.133340000006533e+000	 6.066670000003316e+000	 1.015240350373892e+001
0	 6.133340000006531e+000	 6.133340000006533e+000	 1.014834125193345e+001
0	 6.133340000006533e+000	 6.200010000009551e+000	 1.014431338678862e+001
0	 6.133340000006530e+000	 6.266680000012266e+000	 1.014031659937227e+001
0	 6.133340000006533e+000	 6.333350000014582e+000	 1.013634758075232e+001
0	 6.133340000006531e+000	 6.400020000016398e+000	 1.013240302199660e+001
0	 6.133340000006533e+000	 6.466690000017616e+000	 1.012847961417300e+001
0	 6.133340000006534e+000	 6.533360000018132e+000	 1.012457404834944e+001
0	 6.133340000006533e+000	 6.600030000017847e+000	 1.012068301559371e+001
0	 6.133340000006531e+000	 6.666700000016665e+000	 1.011680320697379e+001
0	 6.200010000009549e+000	 5.999999999999999e+000	 1.015361586227573e+001
0	 6.200010000009549e+000	 6.066670000003317e+000	 1.014963266889381e+001
0	 6.200010000009550e+000	 6.133340000006534e+000	 1.014568415581974e+001
0	 6.200010000009550e+000	 6.200010000009551e+000	 1.014176697056807e+001
0	 6.200010000009550e+000	 6.266680000012268e+000	 1.013787776065340e+001
0	 6.200010000009549e+000	 6.333350000014582e+000	 1.013401317359032e+001
0	 6.200010000009551e+000	 6.400020000016401e+000	 1.013016985689337e+001
0	 6.200010000009550e+000	 6.466690000017616e+000	 1.012634445807715e+001
0	 6.200010000009550e+000	 6.533360000018133e+000	 1.012253362465625e+001
0	 6.200010000009551e+000	 6.600030000017848e+000	 1.011873400414524e+001
0	 6.200010000009550e+000	 6.666700000016666e+000	 1.011494224405869e+001
0	 6.266680000012267e+000	 6.000000000000000e+000	 1.015063455500247e+001
0	 6.266680000012268e+000	 6.066670000003319e+000	 1.014676670750798e+001
0	 6.266680000012268e+000	 6.133340000006534e+000	 1.014293088971559e+001
0	 6.266680000012267e+000	 6.200010000009550e+000	 1.013912372606519e+001
0	 6.266680000012268e+000	 6.266680000012268e+000	 1.013534184099678e+001
0	 6.266680000012266e+000	 6.333350000014583e+000	 1.013158185895026e+001
0	 6.266680000012263e+000	 6.400020000016396e+000	 1.012784040436560e+001
0	 6.266680000012263e+000	 6.466690000017613e+000	 1.012411410168271e+001
0	 6.266680000012267e+000	 6.533360000018134e+000	 1.012039957534156e+001
0	 6.266680000012268e+000	 6.600030000017849e+000	 1.011669344978208e+001
0	 6.266680000012268e+000	 6.666700000016667e+000	 1.011299234944419e+001
0	 6.333350000014582e+000	 5.999999999999999e+000	 1.014756800407425e+001
0	 6.333350000014583e+000	 6.066670000003317e+000	 1.014381447445416e+001
0	 6.333350000014584e+000	 6.133340000006533e+000	 1.014009059653369e+001
0	 6.333350000014582e+000	 6.200010000009550e+000	 1.013639299215678e+001
0	 6.333350000014582e+000	 6.266680000012267e+000	 1.013271828316741e+001
0	 6.333350000014582e+000	 6.333350000014582e+000	 1.012906309140956e+001
0	 6.333350000014582e+000	 6.400020000016398e+000	 1.012542403872720e+001
0	 6.333350000014582e+000	 6.466690000017614e+000	 1.012179774696426e+001
0	 6.333350000014583e+000	 6.533360000018132e+000	 1.011818083796475e+001
0	 6.333350000014584e+000	 6.600030000017849e+000	 1.011456993357262e+001
0	 6.333350000014582e+000	 6.666700000016667e+000	 1.011096165563184e+001
0	 6.400020000016398e+000	 6.000000000000000e+000	 1.014442468424802e+001
0	 6.400020000016399e+000	 6.066670000003317e+000	 1.014078482460508e+001
0	 6.400020000016398e+000	 6.133340000006531e+000	 1.013717241918671e+001
0	 6.400020000016400e+000	 6.200010000009550e+000	 1.013358410771957e+001
0	 6.400020000016396e+000	 6.266680000012265e+000	 1.013001652993031e+001
0	 6.400020000016399e+000	 6.333350000014582e+000	 1.012646632554559e+001
0	 6.400020000016399e+000	 6.400020000016400e+000	 1.012293013429208e+001
0	 6.400020000016400e+000	 6.466690000017616e+000	 1.011940459589641e+001
0	 6.400020000016398e+000	 6.533360000018131e+000	 1.011588635008526e+001
0	 6.400020000016402e+000	 6.600030000017850e+000	 1.011237203658529e+001
0	 6.400020000016401e+000	 6.666700000016666e+000	 1.010885829512314e+001
0	 6.466690000017617e+000	 6.000000000000002e+000	 1.014121307028069e+001
0	 6.466690000017617e+000	 6.066670000003318e+000	 1.013768661283347e+001
0	 6.466690000017616e+000	 6.133340000006534e+000	 1.013418550058735e+001
0	 6.466690000017616e+000	 6.200010000009550e+000	 1.013070641163035e+001
0	 6.466690000017614e+000	 6.266680000012263e+000	 1.012724602405047e+001
0	 6.466690000017616e+000	 6.333350000014582e+000	 1.012380101593574e+001
0	 6.466690000017616e+000	 6.400020000016398e+000	 1.012036806537416e+001
0	 6.466690000017614e+000	 6.466690000017614e+000	 1.011694385045373e+001
0	 6.466690000017617e+000	 6.533360000018133e+000	 1.011352504926250e+001
0	 6.466690000017616e+000	 6.600030000017847e+000	 1.011010833988844e+001
0	 6.466690000017615e+000	 6.666700000016667e+000	 1.010669040041960e+001
0	 6.533360000018132e+000	 6.000000000000000e+000	 1.013794163692922e+001
0	 6.533360000018131e+000	 6.066670000003316e+000	 1.013452869401204e+001
0	 6.533360000018132e+000	 6.133340000006534e+000	 1.013113898364826e+001
0	 6.533360000018132e+000	 6.200010000009550e+000	 1.012776924276586e+001
0	 6.533360000018131e+000	 6.266680000012265e+000	 1.012441620829290e+001
0	 6.533360000018133e+000	 6.333350000014582e+000	 1.012107661715739e+001
0	 6.533360000018131e+000	 6.400020000016398e+000	 1.011774720628737e+001
0	 6.533360000018134e+000	 6.466690000017618e+000	 1.011442471261084e+001
0	 6.533360000018131e+000	 6.533360000018132e+000	 1.011110587305589e+001
0	 6.533360000018133e+000	 6.600030000017848e+000	 1.010778742455052e+001
0	 6.533360000018131e+000	 6.666700000016665e+000	 1.010446610402274e+001
0	 6.600030000017847e+000	 5.999999999999999e+000	 1.013461885895054e+001
0	 6.600030000017848e+000	 6.066670000003318e+000	 1.013131992301359e+001
0	 6.600030000017849e+000	 6.133340000006535e+000	 1.012804201128214e+001
0	 6.600030000017848e+000	 6.200010000009550e+000	 1.012478194000291e+001
0	 6.600030000017848e+000	 6.266680000012268e+000	 1.012153652542261e+001
0	 6.600030000017849e+000	 6.333350000014584e+000	 1.011830258378793e+001
0	 6.600030000017850e+000	 6.400020000016401e+000	 1.011507693134561e+001
0	 6.600030000017849e+000	 6.466690000017616e+000	 1.011185638434235e+001
0	 6.600030000017847e+000	 6.533360000018131e+000	 1.010863775902488e+001
0	 6.600030000017848e+000	 6.600030000017849e+000	 1.010541787163986e+001
0	 6.600030000017847e+000	 6.666700000016665e+000	 1.010219353843405e+001
0	 6.666700000016667e+000	 6.000000000000002e+000	 1.013125321110156e+001
0	 6.666700000016666e+000	 6.066670000003318e+000	 1.012806915471077e+001
0	 6.666700000016665e+000	 6.133340000006531e+000	 1.012490372640163e+001
0	 6.666700000016667e+000	 6.200010000009552e+000	 1.012175384221821e+001
0	 6.666700000016666e+000	 6.266680000012267e+000	 1.011861641820458e+001
0	 6.666700000016667e+000	 6.333350000014582e+000	 1.011548837040477e+001
0	 6.666700000016666e+000	 6.400020000016400e+000	 1.011236661486284e+001
0	 6.666700000016667e+000	 6.466690000017616e+000	 1.010924806762285e+001
0	 6.666700000016665e+000	 6.533360000018131e+000	 1.010612964472886e+001
0	 6.666700000016665e+000	 6.600030000017847e+000	 1.010300826222491e+001
0	 6.666700000016667e+000	 6.666700000016667e+000	 1.009988083615506e+001
0	 6.000000000000001e+000	 6.666700000016666e+000	 1.012022580769989e+001
0	 5.999999999999999e+000	 6.733360000014533e+000	 1.011622081783370e+001
0	 6.000000000000001e+000	 6.800020000011600e+000	 1.011227763910519e+001
0	 5.999999999999999e+000	 6.866680000008066e+000	 1.010839363892047e+001
0	 6.000000000000001e+000	 6.933340000004135e+000	 1.010456618468559e+001
0	 5.999999999999999e+000	 7.000000000000002e+000	 1.010079264380663e+001
0	 5.999999999999998e+000	 7.066659999995869e+000	 1.009707038368963e+001
0	 5.999999999999998e+000	 7.133319999991936e+000	 1.009339677174069e+001
0	 6.000000000000000e+000	 7.199979999988403e+000	 1.008976917536588e+001
0	 5.999999999999999e+000	 7.266639999985472e+000	 1.008618496197124e+001
0	 6.000000000000001e+000	 7.333299999983335e+000	 1.008264149896285e+001
0	 6.066670000003318e+000	 6.666700000016667e+000	 1.011856710568804e+001
0	 6.066670000003317e+000	 6.733360000014533e+000	 1.011464004663662e+001
0	 6.066670000003314e+000	 6.800020000011597e+000	 1.011077246712442e+001
0	 6.066670000003316e+000	 6.866680000008064e+000	 1.010696172038266e+001
0	 6.066670000003317e+000	 6.933340000004134e+000	 1.010320515964259e+001
0	 6.066670000003317e+000	 7.000000000000002e+000	 1.009950013813534e+001
0	 6.066670000003318e+000	 7.066659999995871e+000	 1.009584400909220e+001
0	 6.066670000003318e+000	 7.133319999991937e+000	 1.009223412574439e+001
0	 6.066670000003318e+000	 7.199979999988405e+000	 1.008866784132302e+001
0	 6.066670000003316e+000	 7.266639999985471e+000	 1.008514250905941e+001
0	 6.066670000003316e+000	 7.333299999983333e+000	 1.008165548218472e+001
0	 6.133340000006531e+000	 6.666700000016665e+000	 1.011680320697380e+001
0	 6.133340000006534e+000	 6.733360000014533e+000	 1.011295784428245e+001
0	 6.133340000006533e+000	 6.800020000011599e+000	 1.010916942188229e+001
0	 6.133340000006533e+000	 6.866680000008066e+000	 1.010543528349345e+001
0	 6.133340000006535e+000	 6.933340000004135e+000	 1.010175277283602e+001
0	 6.133340000006536e+000	 7.000000000000002e+000	 1.009811923363014e+001
0	 6.133340000006533e+000	 7.066659999995870e+000	 1.009453200959590e+001
0	 6.133340000006535e+000	 7.133319999991938e+000	 1.009098844445344e+001
0	 6.133340000006535e+000	 7.199979999988404e+000	 1.008748588192286e+001
0	 6.133340000006534e+000	 7.266639999985471e+000	 1.008402166572429e+001
0	 6.133340000006531e+000	 7.333299999983332e+000	 1.008059313957780e+001
0	 6.200010000009550e+000	 6.666700000016666e+000	 1.011494224405869e+001
0	 6.200010000009550e+000	 6.733360000014531e+000	 1.011118186972971e+001
0	 6.200010000009552e+000	 6.800020000011600e+000	 1.010747573076958e+001
0	 6.200010000009550e+000	 6.866680000008067e+000	 1.010382116605103e+001
0	 6.200010000009551e+000	 6.933340000004137e+000	 1.010021551444687e+001
0	 6.200010000009551e+000	 7.000000000000003e+000	 1.009665611482986e+001
0	 6.200010000009550e+000	 7.066659999995869e+000	 1.009314030607279e+001
0	 6.200010000009549e+000	 7.133319999991937e+000	 1.008966542704842e+001
0	 6.200010000009551e+000	 7.199979999988405e+000	 1.008622881662954e+001
0	 6.200010000009548e+000	 7.266639999985469e+000	 1.008282781368890e+001
0	 6.200010000009550e+000	 7.333299999983335e+000	 1.007945975709930e+001
0	 6.266680000012268e+000	 6.666700000016667e+000	 1.011299234944419e+001
0	 6.266680000012268e+000	 6.733360000014534e+000	 1.010931978193689e+001
0	 6.266680000012264e+000	 6.800020000011598e+000	 1.010569862117699e+001
0	 6.266680000012266e+000	 6.866680000008067e+000	 1.010212620585363e+001
0	 6.266680000012268e+000	 6.933340000004133e+000	 1.009859987465603e+001
0	 6.266680000012266e+000	 7.000000000000001e+000	 1.009511696627339e+001
0	 6.266680000012267e+000	 7.066659999995869e+000	 1.009167481939492e+001
0	 6.266680000012267e+000	 7.133319999991936e+000	 1.008827077270978e+001
0	 6.266680000012266e+000	 7.199979999988405e+000	 1.008490216490718e+001
0	 6.266680000012268e+000	 7.266639999985472e+000	 1.008156633467632e+001
0	 6.266680000012268e+000	 7.333299999983335e+000	 1.007826062070638e+001
0	 6.333350000014582e+000	 6.666700000016667e+000	 1.011096165563184e+001
0	 6.333350000014584e+000	 6.733360000014534e+000	 1.010737923986253e+001
0	 6.333350000014583e+000	 6.800020000011600e+000	 1.010384532049526e+001
0	 6.333350000014584e+000	 6.866680000008066e+000	 1.010035724069944e+001
0	 6.333350000014583e+000	 6.933340000004136e+000	 1.009691234364444e+001
0	 6.333350000014583e+000	 7.000000000000001e+000	 1.009350797249962e+001
0	 6.333350000014583e+000	 7.066659999995869e+000	 1.009014147043434e+001
0	 6.333350000014584e+000	 7.133319999991937e+000	 1.008681018061798e+001
0	 6.333350000014584e+000	 7.199979999988404e+000	 1.008351144621994e+001
0	 6.333350000014583e+000	 7.266639999985472e+000	 1.008024261040957e+001
0	 6.333350000014582e+000	 7.333299999983334e+000	 1.007700101635621e+001
0	 6.400020000016401e+000	 6.666700000016666e+000	 1.010885829512314e+001
0	 6.400020000016401e+000	 6.733360000014534e+000	 1.010536790246508e+001
0	 6.400020000016400e+000	 6.800020000011601e+000	 1.010192305611516e+001
0	 6.400020000016399e+000	 6.866680000008067e+000	 1.009852110838670e+001
0	 6.400020000016399e+000	 6.933340000004134e+000	 1.009515941159300e+001
0	 6.400020000016399e+000	 7.000000000000004e+000	 1.009183531804738e+001
0	 6.400020000016399e+000	 7.066659999995870e+000	 1.008854618006314e+001
0	 6.400020000016402e+000	 7.133319999991938e+000	 1.008528934995355e+001
0	 6.400020000016400e+000	 7.199979999988404e+000	 1.008206218003198e+001
0	 6.400020000016400e+000	 7.266639999985474e+000	 1.007886202261171e+001
0	 6.400020000016401e+000	 7.333299999983335e+000	 1.007568623000601e+001
0	 6.466690000017615e+000	 6.666700000016667e+000	 1.010669040041960e+001
0	 6.466690000017615e+000	 6.733360000014532e+000	 1.010329342870309e+001
0	 6.466690000017616e+000	 6.800020000011601e+000	 1.009993905542742e+001
0	 6.466690000017617e+000	 6.866680000008067e+000	 1.009662464671361e+001
0	 6.466690000017614e+000	 6.933340000004134e+000	 1.009334756868266e+001
0	 6.466690000017614e+000	 7.000000000000001e+000	 1.009010518745557e+001
0	 6.466690000017616e+000	 7.066659999995870e+000	 1.008689486915335e+001
0	 6.466690000017617e+000	 7.133319999991938e+000	 1.008371397989696e+001
0	 6.466690000017617e+000	 7.199979999988403e+000	 1.008055988580743e+001
0	 6.466690000017618e+000	 7.266639999985472e+000	 1.007742995300576e+001
0	 6.466690000017614e+000	 7.333299999983335e+000	 1.007432154761292e+001
0	 6.533360000018131e+000	 6.666700000016665e+000	 1.010446610402274e+001
0	 6.533360000018131e+000	 6.733360000014533e+000	 1.010116347753505e+001
0	 6.533360000018134e+000	 6.800020000011601e+000	 1.009790054582279e+001
0	 6.533360000018131e+000	 6.866680000008065e+000	 1.009467469347839e+001
0	 6.533360000018133e+000	 6.933340000004136e+000	 1.009148330509435e+001
0	 6.533360000018132e+000	 7.000000000000003e+000	 1.008832376526306e+001
0	 6.533360000018130e+000	 7.066659999995869e+000	 1.008519345857701e+001
0	 6.533360000018131e+000	 7.133319999991937e+000	 1.008208976962866e+001
0	 6.533360000018131e+000	 7.199979999988401e+000	 1.007901008301043e+001
0	 6.533360000018132e+000	 7.266639999985472e+000	 1.007595178331479e+001
0	 6.533360000018131e+000	 7.333299999983334e+000	 1.007291225513417e+001
0	 6.600030000017847e+000	 6.666700000016665e+000	 1.010219353843405e+001
0	 6.600030000017849e+000	 6.733360000014533e+000	 1.009898570791947e+001
0	 6.600030000017847e+000	 6.800020000011599e+000	 1.009581475469197e+001
0	 6.600030000017847e+000	 6.866680000008065e+000	 1.009267808647925e+001
0	 6.600030000017849e+000	 6.933340000004136e+000	 1.008957311100894e+001
0	 6.600030000017846e+000	 7.000000000000000e+000	 1.008649723600872e+001
0	 6.600030000017848e+000	 7.066659999995870e+000	 1.008344786920623e+001
0	 6.600030000017849e+000	 7.133319999991937e+000	 1.008042241832916e+001
0	 6.600030000017848e+000	 7.199979999988406e+000	 1.007741829110513e+001
0	 6.600030000017848e+000	 7.266639999985471e+000	 1.007443289526182e+001
0	 6.600030000017847e+000	 7.333299999983334e+000	 1.007146363852688e+001
0	 6.666700000016667e+000	 6.666700000016667e+000	 1.009988083615506e+001
0	 6.666700000016666e+000	 6.733360000014530e+000	 1.009676777881485e+001
0	 6.666700000016665e+000	 6.800020000011597e+000	 1.009368890942575e+001
0	 6.666700000016666e+000	 6.866680000008067e+000	 1.009064166351440e+001
0	 6.666700000016667e+000	 6.933340000004135e+000	 1.008762347660741e+001
0	 6.666700000016667e+000	 7.000000000000002e+000	 1.008463178423143e+001
0	 6.666700000016667e+000	 7.066659999995870e+000	 1.008166402191305e+001
0	 6.666700000016667e+000	 7.133319999991937e+000	 1.007871762517893e+001
0	 6.666700000016665e+000	 7.199979999988401e+000	 1.007579002955568e+001
0	 6.666700000016665e+000	 7.266639999985471e+000	 1.007287867056992e+001
0	 6.666700000016665e+000	 7.333299999983333e+000	 1.006998098374829e+001
0	 6.000000000000001e+000	 7.333299999983335e+000	 1.008264149896284e+001
0	 5.999999999999999e+000	 7.399969999982151e+000	 1.007915165971958e+001
0	 6.000000000000001e+000	 7.466639999981866e+000	 1.007572946189251e+001
0	 6.000000000000001e+000	 7.533309999982382e+000	 1.007237240335301e+001
0	 6.000000000000002e+000	 7.599979999983599e+000	 1.006907798197243e+001
0	 6.000000000000000e+000	 7.666649999985416e+000	 1.006584369562214e+001
0	 6.000000000000000e+000	 7.733319999987733e+000	 1.006266704217350e+001
0	 5.999999999999999e+000	 7.799989999990448e+000	 1.005954551949786e+001
0	 6.000000000000000e+000	 7.866659999993465e+000	 1.005647662546662e+001
0	 6.000000000000001e+000	 7.933329999996682e+000	 1.005345785795110e+001
0	 5.999999999999999e+000	 7.999999999999999e+000	 1.005048671482269e+001
0	 6.066670000003316e+000	 7.333299999983333e+000	 1.008165548218471e+001
0	 6.066670000003315e+000	 7.399969999982151e+000	 1.007821981917759e+001
0	 6.066670000003318e+000	 7.466639999981867e+000	 1.007484971019420e+001
0	 6.066670000003319e+000	 7.533309999982386e+000	 1.007154264488539e+001
0	 6.066670000003316e+000	 7.599979999983596e+000	 1.006829611290206e+001
0	 6.066670000003318e+000	 7.666649999985416e+000	 1.006510760389507e+001
0	 6.066670000003316e+000	 7.733319999987732e+000	 1.006197460751536e+001
0	 6.066670000003318e+000	 7.799989999990449e+000	 1.005889461341380e+001
0	 6.066670000003318e+000	 7.866659999993466e+000	 1.005586511124129e+001
0	 6.066670000003319e+000	 7.933329999996682e+000	 1.005288359064872e+001
0	 6.066670000003318e+000	 8.000000000000000e+000	 1.004994754128696e+001
0	 6.133340000006531e+000	 7.333299999983332e+000	 1.008059313957780e+001
0	 6.133340000006534e+000	 7.399969999982149e+000	 1.007721368693482e+001
0	 6.133340000006533e+000	 7.466639999981865e+000	 1.007389780710682e+001
0	 6.133340000006531e+000	 7.533309999982381e+000	 1.007064298224558e+001
0	 6.133340000006532e+000	 7.599979999983598e+000	 1.006744669450279e+001
0	 6.133340000006533e+000	 7.666649999985415e+000	 1.006430642603020e+001
0	 6.133340000006533e+000	 7.733319999987733e+000	 1.006121965897958e+001
0	 6.133340000006532e+000	 7.799989999990446e+000	 1.005818387550269e+001
0	 6.133340000006532e+000	 7.866659999993463e+000	 1.005519655775126e+001
0	 6.133340000006533e+000	 7.933329999996682e+000	 1.005225518787703e+001
0	 6.133340000006534e+000	 7.999999999999999e+000	 1.004935724803176e+001
0	 6.200010000009550e+000	 7.333299999983335e+000	 1.007945975709930e+001
0	 6.200010000009550e+000	 7.399969999982150e+000	 1.007613846621371e+001
0	 6.200010000009551e+000	 7.466639999981868e+000	 1.007287885722758e+001
0	 6.200010000009550e+000	 7.533309999982382e+000	 1.006967840551487e+001
0	 6.200010000009550e+000	 7.599979999983598e+000	 1.006653458644950e+001
0	 6.200010000009549e+000	 7.666649999985412e+000	 1.006344487540540e+001
0	 6.200010000009550e+000	 7.733319999987733e+000	 1.006040674775652e+001
0	 6.200010000009550e+000	 7.799989999990447e+000	 1.005741767887677e+001
0	 6.200010000009550e+000	 7.866659999993463e+000	 1.005447514414011e+001
0	 6.200010000009549e+000	 7.933329999996679e+000	 1.005157661892044e+001
0	 6.200010000009550e+000	 8.000000000000000e+000	 1.004871957859174e+001
0	 6.266680000012268e+000	 7.333299999983335e+000	 1.007826062070638e+001
0	 6.266680000012268e+000	 7.399969999982152e+000	 1.007499936023664e+001
0	 6.266680000012266e+000	 7.466639999981864e+000	 1.007179796515354e+001
0	 6.266680000012266e+000	 7.533309999982382e+000	 1.006865390477454e+001
0	 6.266680000012264e+000	 7.599979999983598e+000	 1.006556464841706e+001
0	 6.266680000012267e+000	 7.666649999985413e+000	 1.006252766539856e+001
0	 6.266680000012267e+000	 7.733319999987732e+000	 1.005954042503649e+001
0	 6.266680000012264e+000	 7.799989999990447e+000	 1.005660039664831e+001
0	 6.266680000012268e+000	 7.866659999993467e+000	 1.005370504955145e+001
0	 6.266680000012266e+000	 7.933329999996682e+000	 1.005085185306336e+001
0	 6.266680000012268e+000	 8.000000000000000e+000	 1.004803827650149e+001
0	 6.333350000014582e+000	 7.333299999983334e+000	 1.007700101635621e+001
0	 6.333350000014582e+000	 7.399969999982148e+000	 1.007380157222610e+001
0	 6.333350000014583e+000	 7.466639999981865e+000	 1.007066023548190e+001
0	 6.333350000014582e+000	 7.533309999982381e+000	 1.006757447010587e+001
0	 6.333350000014583e+000	 7.599979999983598e+000	 1.006454174008034e+001
0	 6.333350000014582e+000	 7.666649999985417e+000	 1.006155950938758e+001
0	 6.333350000014584e+000	 7.733319999987732e+000	 1.005862524200987e+001
0	 6.333350000014583e+000	 7.799989999990447e+000	 1.005573640192953e+001
0	 6.333350000014582e+000	 7.866659999993463e+000	 1.005289045312884e+001
0	 6.333350000014583e+000	 7.933329999996682e+000	 1.005008485959009e+001
0	 6.333350000014583e+000	 8.000000000000000e+000	 1.004731708529560e+001
0	 6.400020000016401e+000	 7.333299999983335e+000	 1.007568623000601e+001
0	 6.400020000016400e+000	 7.399969999982151e+000	 1.007255030540454e+001
0	 6.400020000016398e+000	 7.466639999981864e+000	 1.006947077280975e+001
0	 6.400020000016401e+000	 7.533309999982382e+000	 1.006644509159016e+001
0	 6.400020000016400e+000	 7.599979999983599e+000	 1.006347072111418e+001
0	 6.400020000016399e+000	 7.666649999985416e+000	 1.006054512075032e+001
0	 6.400020000016399e+000	 7.733319999987732e+000	 1.005766574986698e+001
0	 6.400020000016399e+000	 7.799989999990447e+000	 1.005483006783271e+001
0	 6.400020000016400e+000	 7.866659999993465e+000	 1.005203553401591e+001
0	 6.400020000016398e+000	 7.933329999996682e+000	 1.004927960778507e+001
0	 6.400020000016398e+000	 7.999999999999999e+000	 1.004655974850867e+001
0	 6.466690000017614e+000	 7.333299999983335e+000	 1.007432154761292e+001
0	 6.466690000017614e+000	 7.399969999982149e+000	 1.007125076299436e+001
0	 6.466690000017615e+000	 7.466639999981864e+000	 1.006823468173427e+001
0	 6.466690000017615e+000	 7.533309999982381e+000	 1.006527075930865e+001
0	 6.466690000017617e+000	 7.599979999983598e+000	 1.006235645119345e+001
0	 6.466690000017617e+000	 7.666649999985416e+000	 1.005948921286463e+001
0	 6.466690000017616e+000	 7.733319999987733e+000	 1.005666649979819e+001
0	 6.466690000017616e+000	 7.799989999990450e+000	 1.005388576747006e+001
0	 6.466690000017616e+000	 7.866659999993464e+000	 1.005114447135624e+001
0	 6.466690000017616e+000	 7.933329999996682e+000	 1.004844006693266e+001
0	 6.466690000017617e+000	 8.000000000000000e+000	 1.004577000967534e+001
0	 6.533360000018131e+000	 7.333299999983334e+000	 1.007291225513417e+001
0	 6.533360000018130e+000	 7.399969999982149e+000	 1.006990814821802e+001
0	 6.533360000018130e+000	 7.466639999981864e+000	 1.006695706685260e+001
0	 6.533360000018132e+000	 7.533309999982382e+000	 1.006405646334265e+001
0	 6.533360000018131e+000	 7.599979999983598e+000	 1.006120378999300e+001
0	 6.533360000018130e+000	 7.666649999985415e+000	 1.005839649910846e+001
0	 6.533360000018134e+000	 7.733319999987733e+000	 1.005563204299382e+001
0	 6.533360000018133e+000	 7.799989999990450e+000	 1.005290787395385e+001
0	 6.533360000018130e+000	 7.866659999993463e+000	 1.005022144429340e+001
0	 6.533360000018131e+000	 7.933329999996682e+000	 1.004757020631722e+001
0	 6.533360000018133e+000	 8.000000000000002e+000	 1.004495161233016e+001
0	 6.600030000017847e+000	 7.333299999983334e+000	 1.007146363852688e+001
0	 6.600030000017847e+000	 7.399969999982150e+000	 1.006852766429798e+001
0	 6.600030000017847e+000	 7.466639999981864e+000	 1.006564303276182e+001
0	 6.600030000017847e+000	 7.533309999982381e+000	 1.006280719377345e+001
0	 6.600030000017848e+000	 7.599979999983598e+000	 1.006001759718773e+001
0	 6.600030000017849e+000	 7.666649999985417e+000	 1.005727169285966e+001
0	 6.600030000017849e+000	 7.733319999987732e+000	 1.005456693064423e+001
0	 6.600030000017848e+000	 7.799989999990449e+000	 1.005190076039635e+001
0	 6.600030000017850e+000	 7.866659999993465e+000	 1.004927063197102e+001
0	 6.600030000017848e+000	 7.933329999996682e+000	 1.004667399522317e+001
0	 6.600030000017847e+000	 7.999999999999998e+000	 1.004410830000777e+001
0	 6.666700000016665e+000	 7.333299999983333e+000	 1.006998098374829e+001
0	 6.666700000016666e+000	 7.399969999982150e+000	 1.006711451445664e+001
0	 6.666700000016667e+000	 7.466639999981866e+000	 1.006429768405916e+001
0	 6.666700000016668e+000	 7.533309999982382e+000	 1.006152794068227e+001
0	 6.666700000016665e+000	 7.599979999983598e+000	 1.005880273245247e+001
0	 6.666700000016667e+000	 7.666649999985416e+000	 1.005611950749614e+001
0	 6.666700000016665e+000	 7.733319999987731e+000	 1.005347571393977e+001
0	 6.666700000016665e+000	 7.799989999990446e+000	 1.005086879990979e+001
0	 6.666700000016664e+000	 7.866659999993463e+000	 1.004829621353268e+001
0	 6.666700000016666e+000	 7.933329999996682e+000	 1.004575540293484e+001
0	 6.666700000016666e+000	 7.999999999999999e+000	 1.004324381624276e+001
0	 5.999999999999999e+000	 7.999999999999999e+000	 1.005048671482269e+001
0	 6.000000000000000e+000	 8.066670000003319e+000	 1.004758009200235e+001
0	 6.000000000000000e+000	 8.133340000006532e+000	 1.004475447118307e+001
0	 6.000000000000000e+000	 8.200010000009552e+000	 1.004200672889431e+001
0	 6.000000000000002e+000	 8.266680000012268e+000	 1.003933374166556e+001
0	 6.000000000000000e+000	 8.333350000014583e+000	 1.003673238602625e+001
0	 5.999999999999999e+000	 8.400020000016399e+000	 1.003419953850587e+001
0	 6.000000000000001e+000	 8.466690000017616e+000	 1.003173207563388e+001
0	 6.000000000000002e+000	 8.533360000018133e+000	 1.002932687393976e+001
0	 6.000000000000000e+000	 8.600030000017847e+000	 1.002698080995299e+001
0	 5.999999999999999e+000	 8.666700000016666e+000	 1.002469076020300e+001
0	 6.066670000003318e+000	 8.000000000000000e+000	 1.004994754128696e+001
0	 6.066670000003318e+000	 8.066670000003317e+000	 1.004707443077081e+001
0	 6.066670000003318e+000	 8.133340000006534e+000	 1.004428130186900e+001
0	 6.066670000003317e+000	 8.200010000009549e+000	 1.004156500696335e+001
0	 6.066670000003318e+000	 8.266680000012268e+000	 1.003892239843568e+001
0	 6.066670000003316e+000	 8.333350000014582e+000	 1.003635032866783e+001
0	 6.066670000003319e+000	 8.400020000016401e+000	 1.003384565004159e+001
0	 6.066670000003317e+000	 8.466690000017614e+000	 1.003140521493878e+001
0	 6.066670000003315e+000	 8.533360000018131e+000	 1.002902587574124e+001
0	 6.066670000003316e+000	 8.600030000017847e+000	 1.002670448483082e+001
0	 6.066670000003318e+000	 8.666700000016668e+000	 1.002443789458932e+001
0	 6.133340000006534e+000	 7.999999999999999e+000	 1.004935724803176e+001
0	 6.133340000006533e+000	 8.066670000003315e+000	 1.004652065692075e+001
0	 6.133340000006532e+000	 8.133340000006534e+000	 1.004376290221035e+001
0	 6.133340000006532e+000	 8.200010000009550e+000	 1.004108081949399e+001
0	 6.133340000006530e+000	 8.266680000012267e+000	 1.003847124436514e+001
0	 6.133340000006533e+000	 8.333350000014583e+000	 1.003593101241718e+001
0	 6.133340000006532e+000	 8.400020000016397e+000	 1.003345695924356e+001
0	 6.133340000006534e+000	 8.466690000017616e+000	 1.003104592043769e+001
0	 6.133340000006536e+000	 8.533360000018133e+000	 1.002869473159302e+001
0	 6.133340000006533e+000	 8.600030000017846e+000	 1.002640022830298e+001
0	 6.133340000006533e+000	 8.666700000016665e+000	 1.002415924616102e+001
0	 6.200010000009550e+000	 8.000000000000000e+000	 1.004871957859174e+001
0	 6.200010000009550e+000	 8.066670000003319e+000	 1.004592228620211e+001
0	 6.200010000009550e+000	 8.133340000006534e+000	 1.004320257199321e+001
0	 6.200010000009550e+000	 8.200010000009550e+000	 1.004055726212934e+001
0	 6.200010000009550e+000	 8.266680000012267e+000	 1.003798318277481e+001
0	 6.200010000009549e+000	 8.333350000014582e+000	 1.003547716009385e+001
0	 6.200010000009550e+000	 8.400020000016399e+000	 1.003303602025077e+001
0	 6.200010000009550e+000	 8.466690000017618e+000	 1.003065658940986e+001
0	 6.200010000009550e+000	 8.533360000018135e+000	 1.002833569373538e+001
0	 6.200010000009550e+000	 8.600030000017847e+000	 1.002607015939165e+001
0	 6.200010000009551e+000	 8.666700000016668e+000	 1.002385681254296e+001
0	 6.266680000012268e+000	 8.000000000000000e+000	 1.004803827650149e+001
0	 6.266680000012267e+000	 8.066670000003315e+000	 1.004528283436485e+001
0	 6.266680000012266e+000	 8.133340000006532e+000	 1.004260361100374e+001
0	 6.266680000012268e+000	 8.200010000009552e+000	 1.003999743051254e+001
0	 6.266680000012268e+000	 8.266680000012268e+000	 1.003746111698560e+001
0	 6.266680000012265e+000	 8.333350000014582e+000	 1.003499149451737e+001
0	 6.266680000012265e+000	 8.400020000016399e+000	 1.003258538720218e+001
0	 6.266680000012265e+000	 8.466690000017618e+000	 1.003023961913448e+001
0	 6.266680000012267e+000	 8.533360000018133e+000	 1.002795101440860e+001
0	 6.266680000012268e+000	 8.600030000017849e+000	 1.002571639711899e+001
0	 6.266680000012266e+000	 8.666700000016666e+000	 1.002353259136001e+001
0	 6.333350000014583e+000	 8.000000000000000e+000	 1.004731708529560e+001
0	 6.333350000014582e+000	 8.066670000003317e+000	 1.004460581715893e+001
0	 6.333350000014585e+000	 8.133340000006534e+000	 1.004196931902804e+001
0	 6.333350000014583e+000	 8.200010000009550e+000	 1.003940442028662e+001
0	 6.333350000014582e+000	 8.266680000012265e+000	 1.003690795031845e+001
0	 6.333350000014582e+000	 8.333350000014583e+000	 1.003447673850724e+001
0	 6.333350000014582e+000	 8.400020000016399e+000	 1.003210761423678e+001
0	 6.333350000014585e+000	 8.466690000017618e+000	 1.002979740689078e+001
0	 6.333350000014584e+000	 8.533360000018133e+000	 1.002754294585299e+001
0	 6.333350000014583e+000	 8.600030000017851e+000	 1.002534106050716e+001
0	 6.333350000014583e+000	 8.666700000016668e+000	 1.002318858023705e+001
0	 6.400020000016398e+000	 7.999999999999999e+000	 1.004655974850867e+001
0	 6.400020000016399e+000	 8.066670000003317e+000	 1.004389475033434e+001
0	 6.400020000016397e+000	 8.133340000006532e+000	 1.004130299585225e+001
0	 6.400020000016402e+000	 8.200010000009552e+000	 1.003878132709479e+001
0	 6.400020000016398e+000	 8.266680000012267e+000	 1.003632658609427e+001
0	 6.400020000016401e+000	 8.333350000014583e+000	 1.003393561488307e+001
0	 6.400020000016401e+000	 8.400020000016401e+000	 1.003160525549350e+001
0	 6.400020000016400e+000	 8.466690000017614e+000	 1.002933234995796e+001
0	 6.400020000016401e+000	 8.533360000018133e+000	 1.002711374030879e+001
0	 6.400020000016401e+000	 8.600030000017849e+000	 1.002494626857832e+001
0	 6.400020000016399e+000	 8.666700000016666e+000	 1.002282677679892e+001
0	 6.466690000017617e+000	 8.000000000000000e+000	 1.004577000967534e+001
0	 6.466690000017618e+000	 8.066670000003319e+000	 1.004315314964098e+001
0	 6.466690000017616e+000	 8.133340000006532e+000	 1.004060794126249e+001
0	 6.466690000017617e+000	 8.200010000009549e+000	 1.003813124658009e+001
0	 6.466690000017618e+000	 8.266680000012268e+000	 1.003571992763395e+001
0	 6.466690000017618e+000	 8.333350000014585e+000	 1.003337084646430e+001
0	 6.466690000017617e+000	 8.400020000016401e+000	 1.003108086511134e+001
0	 6.466690000017616e+000	 8.466690000017616e+000	 1.002884684561527e+001
0	 6.466690000017615e+000	 8.533360000018131e+000	 1.002666565001630e+001
0	 6.466690000017617e+000	 8.600030000017849e+000	 1.002453414035464e+001
0	 6.466690000017616e+000	 8.666700000016666e+000	 1.002244917867049e+001
0	 6.533360000018133e+000	 8.000000000000002e+000	 1.004495161233016e+001
0	 6.533360000018130e+000	 8.066670000003317e+000	 1.004238453082883e+001
0	 6.533360000018132e+000	 8.133340000006534e+000	 1.003988745504489e+001
0	 6.533360000018132e+000	 8.200010000009552e+000	 1.003745727438567e+001
0	 6.533360000018131e+000	 8.266680000012263e+000	 1.003509087825843e+001
0	 6.533360000018133e+000	 8.333350000014585e+000	 1.003278515607052e+001
0	 6.533360000018133e+000	 8.400020000016399e+000	 1.003053699722925e+001
0	 6.533360000018133e+000	 8.466690000017616e+000	 1.002834329114190e+001
0	 6.533360000018133e+000	 8.533360000018131e+000	 1.002620092721582e+001
0	 6.533360000018132e+000	 8.600030000017847e+000	 1.002410679485829e+001
0	 6.533360000018133e+000	 8.666700000016666e+000	 1.002205778347662e+001
0	 6.600030000017847e+000	 7.999999999999998e+000	 1.004410830000777e+001
0	 6.600030000017848e+000	 8.066670000003317e+000	 1.004159240964786e+001
0	 6.600030000017850e+000	 8.133340000006534e+000	 1.003914483698559e+001
0	 6.600030000017848e+000	 8.200010000009549e+000	 1.003676250615463e+001
0	 6.600030000017849e+000	 8.266680000012267e+000	 1.003444234128863e+001
0	 6.600030000017847e+000	 8.333350000014582e+000	 1.003218126652125e+001
0	 6.600030000017849e+000	 8.400020000016399e+000	 1.002997620598617e+001
0	 6.600030000017849e+000	 8.466690000017616e+000	 1.002782408381708e+001
0	 6.600030000017849e+000	 8.533360000018131e+000	 1.002572182414760e+001
0	 6.600030000017848e+000	 8.600030000017847e+000	 1.002366635111141e+001
0	 6.600030000017847e+000	 8.666700000016666e+000	 1.002165458884220e+001
0	 6.666700000016666e+000	 7.999999999999999e+000	 1.004324381624276e+001
0	 6.666700000016666e+000	 8.066670000003317e+000	 1.004078030184803e+001
0	 6.666700000016665e+000	 8.133340000006532e+000	 1.003838338687070e+001
0	 6.666700000016666e+000	 8.200010000009549e+000	 1.003605003753009e+001
0	 6.666700000016667e+000	 8.266680000012267e+000	 1.003377722004545e+001
0	 6.666700000016666e+000	 8.333350000014583e+000	 1.003156190063605e+001
0	 6.666700000016667e+000	 8.400020000016399e+000	 1.002940104552114e+001
0	 6.666700000016666e+000	 8.466690000017616e+000	 1.002729162092002e+001
0	 6.666700000016665e+000	 8.533360000018131e+000	 1.002523059305196e+001
0	 6.666700000016667e+000	 8.600030000017847e+000	 1.002321492813622e+001
0	 6.666700000016666e+000	 8.666700000016666e+000	 1.002124159239207e+001
0	 5.999999999999999e+000	 8.666700000016666e+000	 1.002469076020300e+001
0	 6.000000000000000e+000	 8.733360002791903e+000	 1.002248312942943e+001
0	 6.000000000000000e+000	 8.800020022230552e+000	 1.002038273880478e+001
0	 6.000000000000001e+000	 8.866680074997042e+000	 1.001838510762154e+001
0	 6.000000000000002e+000	 8.933340177755778e+000	 1.001648575487457e+001
0	 6.000000000000000e+000	 9.000000347171179e+000	 1.001468019926105e+001
0	 5.999999999999998e+000	 9.066660599907664e+000	 1.001296395918053e+001
0	 6.000000000000000e+000	 9.133320952629651e+000	 1.001133255273493e+001
0	 5.999999999999999e+000	 9.199981422001555e+000	 1.000978149772849e+001
0	 6.000000000000000e+000	 9.266642024687791e+000	 1.000830631166784e+001
0	 5.999999999999999e+000	 9.333302777352785e+000	 1.000690251176190e+001
0	 6.066670000003318e+000	 8.666700000016668e+000	 1.002443789458933e+001
0	 6.066670000003316e+000	 8.733360002791903e+000	 1.002225257393563e+001
0	 6.066670000003316e+000	 8.800020022230555e+000	 1.002017346180973e+001
0	 6.066670000003319e+000	 8.866680074997042e+000	 1.001819612346085e+001
0	 6.066670000003316e+000	 8.933340177755774e+000	 1.001631612384322e+001
0	 6.066670000003318e+000	 9.000000347171181e+000	 1.001452902761601e+001
0	 6.066670000003316e+000	 9.066660599907666e+000	 1.001283039914327e+001
0	 6.066670000003316e+000	 9.133320952629651e+000	 1.001121580249397e+001
0	 6.066670000003319e+000	 9.199981422001558e+000	 1.000968080144206e+001
0	 6.066670000003316e+000	 9.266642024687791e+000	 1.000822095946639e+001
0	 6.066670000003316e+000	 9.333302777352783e+000	 1.000683183975073e+001
0	 6.133340000006533e+000	 8.666700000016665e+000	 1.002415924616102e+001
0	 6.133340000006531e+000	 8.733360002791903e+000	 1.002199830309486e+001
0	 6.133340000006531e+000	 8.800020022230553e+000	 1.001994243765906e+001
0	 6.133340000006534e+000	 8.866680074997040e+000	 1.001798726299250e+001
0	 6.133340000006533e+000	 8.933340177755776e+000	 1.001612839194190e+001
0	 6.133340000006533e+000	 9.000000347171179e+000	 1.001436143706173e+001
0	 6.133340000006531e+000	 9.066660599907664e+000	 1.001268201061422e+001
0	 6.133340000006532e+000	 9.133320952629651e+000	 1.001108572456940e+001
0	 6.133340000006534e+000	 9.199981422001557e+000	 1.000956819060503e+001
0	 6.133340000006532e+000	 9.266642024687792e+000	 1.000812502010673e+001
0	 6.133340000006533e+000	 9.333302777352783e+000	 1.000675182416777e+001
0	 6.200010000009551e+000	 8.666700000016668e+000	 1.002385681254296e+001
0	 6.200010000009550e+000	 8.733360002791905e+000	 1.002172220241912e+001
0	 6.200010000009550e+000	 8.800020022230555e+000	 1.001969144646550e+001
0	 6.200010000009550e+000	 8.866680074997040e+000	 1.001776020764357e+001
0	 6.200010000009551e+000	 8.933340177755778e+000	 1.001592414862564e+001
0	 6.200010000009550e+000	 9.000000347171179e+000	 1.001417893179497e+001
0	 6.200010000009550e+000	 9.066660599907667e+000	 1.001252021924568e+001
0	 6.200010000009549e+000	 9.133320952629653e+000	 1.001094367278277e+001
0	 6.200010000009550e+000	 9.199981422001555e+000	 1.000944495392210e+001
0	 6.200010000009550e+000	 9.266642024687792e+000	 1.000801972389044e+001
0	 6.200010000009550e+000	 9.333302777352781e+000	 1.000666364362545e+001
0	 6.266680000012266e+000	 8.666700000016666e+000	 1.002353259136001e+001
0	 6.266680000012268e+000	 8.733360002791901e+000	 1.002142615742045e+001
0	 6.266680000012268e+000	 8.800020022230555e+000	 1.001942226834183e+001
0	 6.266680000012266e+000	 8.866680074997040e+000	 1.001751663884112e+001
0	 6.266680000012268e+000	 8.933340177755776e+000	 1.001570498334952e+001
0	 6.266680000012265e+000	 9.000000347171181e+000	 1.001398301601257e+001
0	 6.266680000012266e+000	 9.066660599907666e+000	 1.001234645068993e+001
0	 6.266680000012268e+000	 9.133320952629653e+000	 1.001079100095564e+001
0	 6.266680000012267e+000	 9.199981422001557e+000	 1.000931238009787e+001
0	 6.266680000012268e+000	 9.266642024687792e+000	 1.000790630111912e+001
0	 6.266680000012267e+000	 9.333302777352783e+000	 1.000656847673605e+001
0	 6.333350000014583e+000	 8.666700000016668e+000	 1.002318858023705e+001
0	 6.333350000014584e+000	 8.733360002791905e+000	 1.002111205361089e+001
0	 6.333350000014582e+000	 8.800020022230553e+000	 1.001913668340078e+001
0	 6.333350000014582e+000	 8.866680074997039e+000	 1.001725823801220e+001
0	 6.333350000014582e+000	 8.933340177755778e+000	 1.001547248556862e+001
0	 6.333350000014583e+000	 9.000000347171179e+000	 1.001377519391125e+001
0	 6.333350000014582e+000	 9.066660599907664e+000	 1.001216213059926e+001
0	 6.333350000014582e+000	 9.133320952629655e+000	 1.001062906290960e+001
0	 6.333350000014583e+000	 9.199981422001557e+000	 1.000917175783706e+001
0	 6.333350000014583e+000	 9.266642024687792e+000	 1.000778598209435e+001
0	 6.333350000014586e+000	 9.333302777352783e+000	 1.000646750211197e+001
0	 6.400020000016399e+000	 8.666700000016666e+000	 1.002282677679892e+001
0	 6.400020000016399e+000	 8.733360002791903e+000	 1.002078177650247e+001
0	 6.400020000016399e+000	 8.800020022230555e+000	 1.001883647175507e+001
0	 6.400020000016400e+000	 8.866680074997040e+000	 1.001698668658390e+001
0	 6.400020000016398e+000	 8.933340177755774e+000	 1.001522824473797e+001
0	 6.400020000016399e+000	 9.000000347171177e+000	 1.001355696968786e+001
0	 6.400020000016399e+000	 9.066660599907666e+000	 1.001196868462592e+001
0	 6.400020000016401e+000	 9.133320952629651e+000	 1.001045921246618e+001
0	 6.400020000016400e+000	 9.199981422001557e+000	 1.000902437584430e+001
0	 6.400020000016400e+000	 9.266642024687792e+000	 1.000765999711773e+001
0	 6.400020000016400e+000	 9.333302777352783e+000	 1.000636189836553e+001
0	 6.466690000017616e+000	 8.666700000016666e+000	 1.002244917867049e+001
0	 6.466690000017616e+000	 8.733360002791901e+000	 1.002043721160724e+001
0	 6.466690000017616e+000	 8.800020022230555e+000	 1.001852341351749e+001
0	 6.466690000017616e+000	 8.866680074997040e+000	 1.001670366598335e+001
0	 6.466690000017615e+000	 8.933340177755776e+000	 1.001497385031268e+001
0	 6.466690000017614e+000	 9.000000347171179e+000	 1.001332984753918e+001
0	 6.466690000017617e+000	 9.066660599907666e+000	 1.001176753842223e+001
0	 6.466690000017616e+000	 9.133320952629649e+000	 1.001028280344695e+001
0	 6.466690000017617e+000	 9.199981422001557e+000	 1.000887152282426e+001
0	 6.466690000017616e+000	 9.266642024687791e+000	 1.000752957649086e+001
0	 6.466690000017615e+000	 9.333302777352783e+000	 1.000625284410910e+001
0	 6.533360000018133e+000	 8.666700000016666e+000	 1.002205778347662e+001
0	 6.533360000018132e+000	 8.733360002791901e+000	 1.002008024443721e+001
0	 6.533360000018132e+000	 8.800020022230557e+000	 1.001819928880075e+001
0	 6.533360000018132e+000	 8.866680074997040e+000	 1.001641085763752e+001
0	 6.533360000018131e+000	 8.933340177755776e+000	 1.001471089174781e+001
0	 6.533360000018133e+000	 9.000000347171181e+000	 1.001309533166198e+001
0	 6.533360000018133e+000	 9.066660599907666e+000	 1.001156011764041e+001
0	 6.533360000018132e+000	 9.133320952629656e+000	 1.001010118967348e+001
0	 6.533360000018132e+000	 9.199981422001555e+000	 1.000871448748162e+001
0	 6.533360000018132e+000	 9.266642024687792e+000	 1.000739595051531e+001
0	 6.533360000018130e+000	 9.333302777352779e+000	 1.000614151795502e+001
0	 6.600030000017847e+000	 8.666700000016666e+000	 1.002165458884220e+001
0	 6.600030000017849e+000	 8.733360002791905e+000	 1.001971276050445e+001
0	 6.600030000017847e+000	 8.800020022230553e+000	 1.001786587771765e+001
0	 6.600030000017848e+000	 8.866680074997040e+000	 1.001610994297355e+001
0	 6.600030000017847e+000	 8.933340177755776e+000	 1.001444095849844e+001
0	 6.600030000017847e+000	 9.000000347171177e+000	 1.001285492625309e+001
0	 6.600030000017848e+000	 9.066660599907666e+000	 1.001134784793278e+001
0	 6.600030000017847e+000	 9.133320952629653e+000	 1.000991572496731e+001
0	 6.600030000017846e+000	 9.199981422001553e+000	 1.000855455852103e+001
0	 6.600030000017849e+000	 9.266642024687794e+000	 1.000726034949272e+001
0	 6.600030000017848e+000	 9.333302777352783e+000	 1.000602909851571e+001
0	 6.666700000016666e+000	 8.666700000016666e+000	 1.002124159239207e+001
0	 6.666700000016665e+000	 8.733360002791899e+000	 1.001933664532096e+001
0	 6.666700000016665e+000	 8.800020022230553e+000	 1.001752496038090e+001
0	 6.666700000016666e+000	 8.866680074997040e+000	 1.001580260341850e+001
0	 6.666700000016666e+000	 8.933340177755776e+000	 1.001416564001962e+001
0	 6.666700000016665e+000	 9.000000347171179e+000	 1.001261013550927e+001
0	 6.666700000016665e+000	 9.066660599907667e+000	 1.001113215495161e+001
0	 6.666700000016665e+000	 9.133320952629649e+000	 1.000972776315007e+001
0	 6.666700000016666e+000	 9.199981422001555e+000	 1.000839302464714e+001
0	 6.666700000016667e+000	 9.266642024687792e+000	 1.000712400372464e+001
0	 6.666700000016667e+000	 9.333302777352781e+000	 1.000591676440346e+001
0	 5.999999999999999e+000	 9.333302777352785e+000	 1.000690251176191e+001
0	 6.000000000000002e+000	 9.399973674588177e+000	 1.000560916156737e+001
0	 5.999999999999999e+000	 9.466644621844619e+000	 1.000446436144317e+001
0	 6.000000000000001e+000	 9.533315502449998e+000	 1.000346156945363e+001
0	 6.000000000000001e+000	 9.599986199732198e+000	 1.000259424667278e+001
0	 6.000000000000002e+000	 9.666656597019093e+000	 1.000185585718434e+001
0	 6.000000000000000e+000	 9.733326577638573e+000	 1.000123986808183e+001
0	 6.000000000000000e+000	 9.799996024918524e+000	 1.000073974946853e+001
0	 6.000000000000001e+000	 9.866664822186820e+000	 1.000034897445765e+001
0	 6.000000000000000e+000	 9.933332852771354e+000	 1.000006101917281e+001
0	 6.000000000000000e+000	 1.000000000000000e+001	 9.999869362748061e+000
0	 6.066670000003316e+000	 9.333302777352783e+000	 1.000683183975073e+001
0	 6.066670000003318e+000	 9.399973674588177e+000	 1.000555201596002e+001
0	 6.066670000003318e+000	 9.466644621844621e+000	 1.000441914966124e+001
0	 6.066670000003317e+000	 9.533315502449998e+000	 1.000342682798744e+001
0	 6.066670000003315e+000	 9.599986199732193e+000	 1.000256864105164e+001
0	 6.066670000003319e+000	 9.666656597019095e+000	 1.000183818194692e+001
0	 6.066670000003318e+000	 9.733326577638573e+000	 1.000122904674677e+001
0	 6.066670000003315e+000	 9.799996024918521e+000	 1.000073483450458e+001
0	 6.066670000003315e+000	 9.866664822186817e+000	 1.000034914725438e+001
0	 6.066670000003319e+000	 9.933332852771352e+000	 1.000006559001072e+001
0	 6.066670000003317e+000	 1.000000000000000e+001	 9.999877770769382e+000
0	 6.133340000006533e+000	 9.333302777352783e+000	 1.000675182416777e+001
0	 6.133340000006533e+000	 9.399973674588178e+000	 1.000548665704052e+001
0	 6.133340000006533e+000	 9.466644621844619e+000	 1.000436671187405e+001
0	 6.133340000006532e+000	 9.533315502450000e+000	 1.000338570718604e+001
0	 6.133340000006533e+000	 9.599986199732195e+000	 1.000253736444225e+001
0	 6.133340000006534e+000	 9.666656597019093e+000	 1.000181540805625e+001
0	 6.133340000006532e+000	 9.733326577638572e+000	 1.000121356538984e+001
0	 6.133340000006532e+000	 9.799996024918523e+000	 1.000072556675248e+001
0	 6.133340000006532e+000	 9.866664822186817e+000	 1.000034514540227e+001
0	 6.133340000006531e+000	 9.933332852771351e+000	 1.000006603754557e+001
0	 6.133340000006534e+000	 1.000000000000000e+001	 9.999881982337719e+000
0	 6.200010000009550e+000	 9.333302777352781e+000	 1.000666364362545e+001
0	 6.200010000009550e+000	 9.399973674588175e+000	 1.000541421995510e+001
0	 6.200010000009550e+000	 9.466644621844621e+000	 1.000430814950775e+001
0	 6.200010000009550e+000	 9.533315502450000e+000	 1.000333928450198e+001
0	 6.200010000009550e+000	 9.599986199732195e+000	 1.000250148006978e+001
0	 6.200010000009550e+000	 9.666656597019092e+000	 1.000178859425630e+001
0	 6.200010000009550e+000	 9.733326577638575e+000	 1.000119448802001e+001
0	 6.200010000009549e+000	 9.799996024918519e+000	 1.000071302523294e+001
0	 6.200010000009550e+000	 9.866664822186822e+000	 1.000033807268065e+001
0	 6.200010000009550e+000	 9.933332852771351e+000	 1.000006350006247e+001
0	 6.200010000009550e+000	 1.000000000000000e+001	 9.999883179992104e+000
0	 6.266680000012267e+000	 9.333302777352783e+000	 1.000656847673606e+001
0	 6.266680000012266e+000	 9.399973674588173e+000	 1.000533583984971e+001
0	 6.266680000012268e+000	 9.466644621844623e+000	 1.000424456398856e+001
0	 6.266680000012268e+000	 9.533315502450002e+000	 1.000328863738789e+001
0	 6.266680000012268e+000	 9.599986199732197e+000	 1.000246205115932e+001
0	 6.266680000012267e+000	 9.666656597019088e+000	 1.000175879929074e+001
0	 6.266680000012264e+000	 9.733326577638573e+000	 1.000117287864631e+001
0	 6.266680000012265e+000	 9.799996024918523e+000	 1.000069828896655e+001
0	 6.266680000012268e+000	 9.866664822186824e+000	 1.000032903286864e+001
0	 6.266680000012268e+000	 9.933332852771352e+000	 1.000005911584652e+001
0	 6.266680000012268e+000	 1.000000000000000e+001	 9.999882546271468e+000
0	 6.333350000014586e+000	 9.333302777352783e+000	 1.000646750211196e+001
0	 6.333350000014582e+000	 9.399973674588175e+000	 1.000525265187046e+001
0	 6.333350000014582e+000	 9.466644621844621e+000	 1.000417705674268e+001
0	 6.333350000014582e+000	 9.533315502449998e+000	 1.000323484329629e+001
0	 6.333350000014582e+000	 9.599986199732191e+000	 1.000242014093604e+001
0	 6.333350000014582e+000	 9.666656597019095e+000	 1.000172708190364e+001
0	 6.333350000014582e+000	 9.733326577638573e+000	 1.000114980127772e+001
0	 6.333350000014581e+000	 9.799996024918521e+000	 1.000068243697398e+001
0	 6.333350000014582e+000	 9.866664822186822e+000	 1.000031912974557e+001
0	 6.333350000014584e+000	 9.933332852771352e+000	 1.000005402318298e+001
0	 6.333350000014583e+000	 1.000000000000000e+001	 9.999881263714924e+000
0	 6.400020000016400e+000	 9.333302777352783e+000	 1.000636189836553e+001
0	 6.400020000016399e+000	 9.399973674588177e+000	 1.000516579116344e+001
0	 6.400020000016398e+000	 9.466644621844621e+000	 1.000410672919632e+001
0	 6.400020000016400e+000	 9.533315502450000e+000	 1.000317897967981e+001
0	 6.400020000016400e+000	 9.599986199732195e+000	 1.000237681262509e+001
0	 6.400020000016401e+000	 9.666656597019092e+000	 1.000169450083882e+001
0	 6.400020000016399e+000	 9.733326577638570e+000	 1.000112631992315e+001
0	 6.400020000016401e+000	 9.799996024918519e+000	 1.000066654827584e+001
0	 6.400020000016398e+000	 9.866664822186820e+000	 1.000030946709063e+001
0	 6.400020000016399e+000	 9.933332852771349e+000	 1.000004936035712e+001
0	 6.400020000016398e+000	 1.000000000000000e+001	 9.999880514861365e+000
0	 6.466690000017615e+000	 9.333302777352783e+000	 1.000625284410910e+001
0	 6.466690000017616e+000	 9.399973674588178e+000	 1.000507639287465e+001
0	 6.466690000017616e+000	 9.466644621844623e+000	 1.000403468277566e+001
0	 6.466690000017616e+000	 9.533315502449998e+000	 1.000312212399100e+001
0	 6.466690000017617e+000	 9.599986199732195e+000	 1.000233312945157e+001
0	 6.466690000017615e+000	 9.666656597019092e+000	 1.000166211484019e+001
0	 6.466690000017615e+000	 9.733326577638573e+000	 1.000110349859167e+001
0	 6.466690000017616e+000	 9.799996024918523e+000	 1.000065170189287e+001
0	 6.466690000017615e+000	 9.866664822186818e+000	 1.000030114868297e+001
0	 6.466690000017617e+000	 9.933332852771351e+000	 1.000004626565379e+001
0	 6.466690000017615e+000	 1.000000000000000e+001	 9.999881482249796e+000
0	 6.533360000018130e+000	 9.333302777352779e+000	 1.000614151795502e+001
0	 6.533360000018130e+000	 9.399973674588175e+000	 1.000498559215023e+001
0	 6.533360000018131e+000	 9.466644621844619e+000	 1.000396201890694e+001
0	 6.533360000018132e+000	 9.533315502450000e+000	 1.000306535368246e+001
0	 6.533360000018132e+000	 9.599986199732197e+000	 1.000229015464063e+001
0	 6.533360000018131e+000	 9.666656597019095e+000	 1.000163098265160e+001
0	 6.533360000018130e+000	 9.733326577638573e+000	 1.000108240129217e+001
0	 6.533360000018132e+000	 9.799996024918521e+000	 1.000063897684564e+001
0	 6.533360000018131e+000	 9.866664822186818e+000	 1.000029527830202e+001
0	 6.533360000018133e+000	 9.933332852771354e+000	 1.000004587735839e+001
0	 6.533360000018133e+000	 1.000000000000000e+001	 9.999885348419287e+000
0	 6.600030000017848e+000	 9.333302777352783e+000	 1.000602909851571e+001
0	 6.600030000017848e+000	 9.399973674588177e+000	 1.000489452413626e+001
0	 6.600030000017849e+000	 9.466644621844623e+000	 1.000388983901637e+001
0	 6.600030000017848e+000	 9.533315502450000e+000	 1.000300974620678e+001
0	 6.600030000017847e+000	 9.599986199732195e+000	 1.000224895141737e+001
0	 6.600030000017847e+000	 9.666656597019093e+000	 1.000160216301700e+001
0	 6.600030000017848e+000	 9.733326577638573e+000	 1.000106409203378e+001
0	 6.600030000017848e+000	 9.799996024918523e+000	 1.000062945215482e+001
0	 6.600030000017848e+000	 9.866664822186818e+000	 1.000029295972684e+001
0	 6.600030000017847e+000	 9.933332852771349e+000	 1.000004933375599e+001
0	 6.600030000017849e+000	 1.000000000000000e+001	 9.999893295908690e+000
0	 6.666700000016667e+000	 9.333302777352781e+000	 1.000591676440346e+001
0	 6.666700000016665e+000	 9.399973674588177e+000	 1.000480432397878e+001
0	 6.666700000016666e+000	 9.466644621844621e+000	 1.000381924453014e+001
0	 6.666700000016665e+000	 9.533315502449998e+000	 1.000295637901654e+001
0	 6.666700000016665e+000	 9.599986199732193e+000	 1.000221058300696e+001
0	 6.666700000016666e+000	 9.666656597019095e+000	 1.000157671468027e+001
0	 6.666700000016665e+000	 9.733326577638573e+000	 1.000104963482534e+001
0	 6.666700000016666e+000	 9.799996024918521e+000	 1.000062420684110e+001
0	 6.666700000016667e+000	 9.866664822186822e+000	 1.000029529673670e+001
0	 6.666700000016665e+000	 9.933332852771351e+000	 1.000005777313191e+001
0	 6.666700000016666e+000	 1.000000000000000e+001	 9.999906507257204e+000
0	 6.666700000016666e+000	 0.000000000000000e+000	 1.012208852317978e+001
0	 6.666700000016668e+000	 6.666714722864757e-002	 1.012172030539558e+001
0	 6.666700000016665e+000	 1.333351778131789e-001	 1.012162012426013e+001
0	 6.666700000016666e+000	 2.000039750814772e-001	 1.012177776732407e+001
0	 6.666700000016666e+000	 2.666734223614256e-001	 1.012218302656437e+001
0	 6.666700000016667e+000	 3.333434029809069e-001	 1.012282569838396e+001
0	 6.666700000016667e+000	 4.000138002678045e-001	 1.012369558361150e+001
0	 6.666700000016666e+000	 4.666844975500011e-001	 1.012478248750107e+001
0	 6.666700000016666e+000	 5.333553781553803e-001	 1.012607621973226e+001
0	 6.666700000016665e+000	 6.000263254118248e-001	 1.012756659441015e+001
0	 6.666700000016666e+000	 6.666972226472177e-001	 1.012924343006551e+001
0	 6.733360000014533e+000	 0.000000000000000e+000	 1.011597931685798e+001
0	 6.733360000014532e+000	 6.666714722864754e-002	 1.011562003668828e+001
0	 6.733360000014532e+000	 1.333351778131789e-001	 1.011548373075528e+001
0	 6.733360000014533e+000	 2.000039750814773e-001	 1.011556536531026e+001
0	 6.733360000014531e+000	 2.666734223614255e-001	 1.011585991085970e+001
0	 6.733360000014531e+000	 3.333434029809069e-001	 1.011636234216496e+001
0	 6.733360000014533e+000	 4.000138002678045e-001	 1.011706763824196e+001
0	 6.733360000014533e+000	 4.666844975500011e-001	 1.011797078236102e+001
0	 6.733360000014532e+000	 5.333553781553803e-001	 1.011906676204681e+001
0	 6.733360000014533e+000	 6.000263254118248e-001	 1.012035056907837e+001
0	 6.733360000014531e+000	 6.666972226472175e-001	 1.012181719948933e+001
0	 6.800020000011601e+000	 0.000000000000000e+000	 1.010943047365838e+001
0	 6.800020000011599e+000	 6.666714722864754e-002	 1.010911615012398e+001
0	 6.800020000011600e+000	 1.333351778131790e-001	 1.010898564663449e+001
0	 6.800020000011601e+000	 2.000039750814773e-001	 1.010903836110365e+001
0	 6.800020000011599e+000	 2.666734223614256e-001	 1.010927369553461e+001
0	 6.800020000011598e+000	 3.333434029809069e-001	 1.010969105601943e+001
0	 6.800020000011601e+000	 4.000138002678044e-001	 1.011028985273887e+001
0	 6.800020000011600e+000	 4.666844975500012e-001	 1.011106949996222e+001
0	 6.800020000011601e+000	 5.333553781553804e-001	 1.011202941604722e+001
0	 6.800020000011599e+000	 6.000263254118248e-001	 1.011316902344011e+001
0	 6.800020000011600e+000	 6.666972226472175e-001	 1.011448774867579e+001
0	 6.866680000008067e+000	 0.000000000000000e+000	 1.010249504433481e+001
0	 6.866680000008065e+000	 6.666714722864756e-002	 1.010225315283974e+001
0	 6.866680000008067e+000	 1.333351778131790e-001	 1.010216185187568e+001
0	 6.866680000008068e+000	 2.000039750814774e-001	 1.010222422393546e+001
0	 6.866680000008068e+000	 2.666734223614256e-001	 1.010244335544068e+001
0	 6.866680000008064e+000	 3.333434029809068e-001	 1.010282233674146e+001
0	 6.866680000008067e+000	 4.000138002678044e-001	 1.010336426211606e+001
0	 6.866680000008067e+000	 4.666844975500010e-001	 1.010407222977077e+001
0	 6.866680000008068e+000	 5.333553781553801e-001	 1.010494934183993e+001
0	 6.866680000008068e+000	 6.000263254118248e-001	 1.010599870438580e+001
0	 6.866680000008067e+000	 6.666972226472177e-001	 1.010722342739886e+001
0	 6.933340000004135e+000	 0.000000000000000e+000	 1.009522607964112e+001
0	 6.933340000004133e+000	 6.666714722864756e-002	 1.009507555197257e+001
0	 6.933340000004134e+000	 1.333351778131789e-001	 1.009504832645682e+001
0	 6.933340000004134e+000	 2.000039750814772e-001	 1.009515042303687e+001
0	 6.933340000004135e+000	 2.666734223614256e-001	 1.009538786542952e+001
0	 6.933340000004134e+000	 3.333434029809069e-001	 1.009576668112514e+001
0	 6.933340000004135e+000	 4.000138002678044e-001	 1.009629290138732e+001
0	 6.933340000004135e+000	 4.666844975500012e-001	 1.009697256125277e+001
0	 6.933340000004134e+000	 5.333553781553803e-001	 1.009781169953133e+001
0	 6.933340000004135e+000	 6.000263254118248e-001	 1.009881635880587e+001
0	 6.933340000004135e+000	 6.666972226472178e-001	 1.009999258543254e+001
0	 7.000000000000002e+000	 0.000000000000000e+000	 1.008767663033115e+001
0	 7.000000000000002e+000	 6.666714722864756e-002	 1.008762785465953e+001
0	 7.000000000000000e+000	 1.333351778131789e-001	 1.008768105035589e+001
0	 7.000000000000002e+000	 2.000039750814773e-001	 1.008784442763912e+001
0	 7.000000000000002e+000	 2.666734223614256e-001	 1.008812620035272e+001
0	 7.000000000000001e+000	 3.333434029809069e-001	 1.008853458596453e+001
0	 7.000000000000000e+000	 4.000138002678044e-001	 1.008907780556644e+001
0	 7.000000000000003e+000	 4.666844975500011e-001	 1.008976408387433e+001
0	 7.000000000000002e+000	 5.333553781553803e-001	 1.009060164922787e+001
0	 7.000000000000003e+000	 6.000263254118249e-001	 1.009159873359077e+001
0	 7.000000000000004e+000	 6.666972226472177e-001	 1.009276357255081e+001
0	 7.066659999995869e+000	 0.000000000000000e+000	 1.007989974715874e+001
0	 7.066659999995869e+000	 6.666714722864757e-002	 1.007995456803768e+001
0	 7.066659999995871e+000	 1.333351778131789e-001	 1.008009600355084e+001
0	 7.066659999995870e+000	 2.000039750814773e-001	 1.008033370697341e+001
0	 7.066659999995868e+000	 2.666734223614256e-001	 1.008067733506188e+001
0	 7.066659999995869e+000	 3.333434029809068e-001	 1.008113654805374e+001
0	 7.066659999995870e+000	 4.000138002678044e-001	 1.008172100966729e+001
0	 7.066659999995871e+000	 4.666844975500012e-001	 1.008244038710149e+001
0	 7.066659999995867e+000	 5.333553781553801e-001	 1.008330435103596e+001
0	 7.066659999995869e+000	 6.000263254118247e-001	 1.008432257563097e+001
0	 7.066659999995871e+000	 6.666972226472178e-001	 1.008550473852765e+001
0	 7.133319999991937e+000	 0.000000000000000e+000	 1.007194848087772e+001
0	 7.133319999991938e+000	 6.666714722864756e-002	 1.007210019924403e+001
0	 7.133319999991938e+000	 1.333351778131789e-001	 1.007232916601963e+001
0	 7.133319999991936e+000	 2.000039750814772e-001	 1.007264573027097e+001
0	 7.133319999991937e+000	 2.666734223614256e-001	 1.007306024440860e+001
0	 7.133319999991937e+000	 3.333434029809069e-001	 1.007358306418685e+001
0	 7.133319999991936e+000	 4.000138002678044e-001	 1.007422454870366e+001
0	 7.133319999991937e+000	 4.666844975500012e-001	 1.007499506040042e+001
0	 7.133319999991936e+000	 5.333553781553804e-001	 1.007590496506202e+001
0	 7.133319999991936e+000	 6.000263254118246e-001	 1.007696463181688e+001
0	 7.133319999991936e+000	 6.666972226472178e-001	 1.007818443313707e+001
0	 7.199979999988404e+000	 0.000000000000000e+000	 1.006387588224196e+001
0	 7.199979999988404e+000	 6.666714722864756e-002	 1.006410925541564e+001
0	 7.199979999988404e+000	 1.333351778131789e-001	 1.006441651774022e+001
0	 7.199979999988404e+000	 2.000039750814773e-001	 1.006480796676302e+001
0	 7.199979999988403e+000	 2.666734223614256e-001	 1.006529390324450e+001
0	 7.199979999988403e+000	 3.333434029809069e-001	 1.006588463115796e+001
0	 7.199979999988404e+000	 4.000138002678045e-001	 1.006659045768934e+001
0	 7.199979999988405e+000	 4.666844975500013e-001	 1.006742169323717e+001
0	 7.199979999988402e+000	 5.333553781553803e-001	 1.006838865141249e+001
0	 7.199979999988405e+000	 6.000263254118248e-001	 1.006950164903896e+001
0	 7.199979999988404e+000	 6.666972226472175e-001	 1.007077100615302e+001
0	 7.266639999985471e+000	 0.000000000000000e+000	 1.005573500200528e+001
0	 7.266639999985471e+000	 6.666714722864756e-002	 1.005602624368958e+001
0	 7.266639999985470e+000	 1.333351778131789e-001	 1.005639403869059e+001
0	 7.266639999985472e+000	 2.000039750814773e-001	 1.005684788568077e+001
0	 7.266639999985470e+000	 2.666734223614256e-001	 1.005739728642117e+001
0	 7.266639999985472e+000	 3.333434029809068e-001	 1.005805174576114e+001
0	 7.266639999985472e+000	 4.000138002678045e-001	 1.005882077163819e+001
0	 7.266639999985472e+000	 4.666844975500011e-001	 1.005971387507785e+001
0	 7.266639999985472e+000	 5.333553781553804e-001	 1.006074057019377e+001
0	 7.266639999985471e+000	 6.000263254118247e-001	 1.006191037418765e+001
0	 7.266639999985471e+000	 6.666972226472175e-001	 1.006323280734953e+001
0	 7.333299999983334e+000	 0.000000000000000e+000	 1.004757889092154e+001
0	 7.333299999983335e+000	 6.666714722864756e-002	 1.004789567120288e+001
0	 7.333299999983333e+000	 1.333351778131789e-001	 1.004829770884870e+001
0	 7.333299999983335e+000	 2.000039750814772e-001	 1.004879295625545e+001
0	 7.333299999983334e+000	 2.666734223614256e-001	 1.004938936879022e+001
0	 7.333299999983336e+000	 3.333434029809069e-001	 1.005009490479050e+001
0	 7.333299999983335e+000	 4.000138002678044e-001	 1.005091752556400e+001
0	 7.333299999983333e+000	 4.666844975500010e-001	 1.005186519538859e+001
0	 7.333299999983335e+000	 5.333553781553804e-001	 1.005294588151230e+001
0	 7.333299999983334e+000	 6.000263254118248e-001	 1.005416755415341e+001
0	 7.333299999983335e+000	 6.666972226472178e-001	 1.005553818650057e+001
0	 6.666700000016666e+000	 6.666972226472177e-001	 1.012924343006551e+001
0	 6.666700000016667e+000	 7.333579753122047e-001	 1.013105676827319e+001
0	 6.666700000016668e+000	 8.000185779984419e-001	 1.013297416537918e+001
0	 6.666700000016666e+000	 8.666790473703453e-001	 1.013501092005141e+001
0	 6.666700000016666e+000	 9.333394000923323e-001	 1.013718233045693e+001
0	 6.666700000016668e+000	 9.999996528288192e-001	 1.013950369426187e+001
0	 6.666700000016665e+000	 1.066659822244222e+000	 1.014199030863145e+001
0	 6.666700000016667e+000	 1.133319925002959e+000	 1.014465747022999e+001
0	 6.666700000016665e+000	 1.199979977769446e+000	 1.014752047522094e+001
0	 6.666700000016666e+000	 1.266639997208098e+000	 1.015059461926681e+001
0	 6.666700000016665e+000	 1.333299999983334e+000	 1.015389519752927e+001
0	 6.733360000014531e+000	 6.666972226472175e-001	 1.012181719948933e+001
0	 6.733360000014534e+000	 7.333579753122052e-001	 1.012343326603265e+001
0	 6.733360000014533e+000	 8.000185779984421e-001	 1.012517813759221e+001
0	 6.733360000014533e+000	 8.666790473703454e-001	 1.012706524686971e+001
0	 6.733360000014532e+000	 9.333394000923322e-001	 1.012910802605276e+001
0	 6.733360000014533e+000	 9.999996528288195e-001	 1.013131990681493e+001
0	 6.733360000014531e+000	 1.066659822244222e+000	 1.013371432031569e+001
0	 6.733360000014531e+000	 1.133319925002959e+000	 1.013630469720045e+001
0	 6.733360000014534e+000	 1.199979977769446e+000	 1.013910446760060e+001
0	 6.733360000014531e+000	 1.266639997208098e+000	 1.014212706113340e+001
0	 6.733360000014534e+000	 1.333299999983334e+000	 1.014538590690210e+001
0	 6.800020000011600e+000	 6.666972226472175e-001	 1.011448774867579e+001
0	 6.800020000011600e+000	 7.333579753122047e-001	 1.011596240189600e+001
0	 6.800020000011601e+000	 8.000185779984418e-001	 1.011757843480928e+001
0	 6.800020000011601e+000	 8.666790473703455e-001	 1.011934760537364e+001
0	 6.800020000011600e+000	 9.333394000923322e-001	 1.012128167103652e+001
0	 6.800020000011599e+000	 9.999996528288191e-001	 1.012339238873462e+001
0	 6.800020000011601e+000	 1.066659822244223e+000	 1.012569151489404e+001
0	 6.800020000011600e+000	 1.133319925002959e+000	 1.012819080543019e+001
0	 6.800020000011601e+000	 1.199979977769446e+000	 1.013090201574782e+001
0	 6.800020000011600e+000	 1.266639997208098e+000	 1.013383690074106e+001
0	 6.800020000011600e+000	 1.333299999983334e+000	 1.013700721479335e+001
0	 6.866680000008067e+000	 6.666972226472177e-001	 1.010722342739886e+001
0	 6.866680000008069e+000	 7.333579753122049e-001	 1.010860511555527e+001
0	 6.866680000008069e+000	 8.000185779984420e-001	 1.011013054213506e+001
0	 6.866680000008067e+000	 8.666790473703455e-001	 1.011180998159187e+001
0	 6.866680000008066e+000	 9.333394000923325e-001	 1.011365370788565e+001
0	 6.866680000008065e+000	 9.999996528288191e-001	 1.011567199448278e+001
0	 6.866680000008067e+000	 1.066659822244222e+000	 1.011787511435602e+001
0	 6.866680000008068e+000	 1.133319925002959e+000	 1.012027333998451e+001
0	 6.866680000008067e+000	 1.199979977769445e+000	 1.012287694335380e+001
0	 6.866680000008066e+000	 1.266639997208098e+000	 1.012569619595580e+001
0	 6.866680000008067e+000	 1.333299999983334e+000	 1.012874136878887e+001
0	 6.933340000004135e+000	 6.666972226472178e-001	 1.009999258543253e+001
0	 6.933340000004135e+000	 7.333579753122047e-001	 1.010132234670241e+001
0	 6.933340000004135e+000	 8.000185779984418e-001	 1.010278994467428e+001
0	 6.933340000004135e+000	 8.666790473703456e-001	 1.010440436155301e+001
0	 6.933340000004133e+000	 9.333394000923324e-001	 1.010617457907761e+001
0	 6.933340000004134e+000	 9.999996528288188e-001	 1.010810957852121e+001
0	 6.933340000004135e+000	 1.066659822244222e+000	 1.011021834069112e+001
0	 6.933340000004133e+000	 1.133319925002959e+000	 1.011250984592877e+001
0	 6.933340000004135e+000	 1.199979977769445e+000	 1.011499307410971e+001
0	 6.933340000004136e+000	 1.266639997208098e+000	 1.011767700464369e+001
0	 6.933340000004134e+000	 1.333299999983334e+000	 1.012057061647459e+001
0	 7.000000000000004e+000	 6.666972226472177e-001	 1.009276357255081e+001
0	 7.000000000000002e+000	 7.333579753122047e-001	 1.009407503502946e+001
0	 7.000000000000001e+000	 8.000185779984418e-001	 1.009551212753162e+001
0	 7.000000000000002e+000	 8.666790473703456e-001	 1.009708273128573e+001
0	 7.000000000000002e+000	 9.333394000923323e-001	 1.009879472708985e+001
0	 7.000000000000001e+000	 9.999996528288190e-001	 1.010065599531176e+001
0	 7.000000000000000e+000	 1.066659822244222e+000	 1.010267441588888e+001
0	 7.000000000000003e+000	 1.133319925002959e+000	 1.010485786832829e+001
0	 7.000000000000001e+000	 1.199979977769445e+000	 1.010721423170677e+001
0	 7.000000000000002e+000	 1.266639997208098e+000	 1.010975138467075e+001
0	 7.000000000000002e+000	 1.333299999983334e+000	 1.011247720543636e+001
0	 7.066659999995871e+000	 6.666972226472178e-001	 1.008550473852765e+001
0	 7.066659999995869e+000	 7.333579753122048e-001	 1.008682412022839e+001
0	 7.066659999995870e+000	 8.000185779984419e-001	 1.008825257581180e+001
0	 7.066659999995869e+000	 8.666790473703455e-001	 1.008979707681865e+001
0	 7.066659999995870e+000	 9.333394000923324e-001	 1.009146459439984e+001
0	 7.066659999995868e+000	 9.999996528288188e-001	 1.009326209931625e+001
0	 7.066659999995871e+000	 1.066659822244222e+000	 1.009519656193879e+001
0	 7.066659999995869e+000	 1.133319925002959e+000	 1.009727495224841e+001
0	 7.066659999995869e+000	 1.199979977769445e+000	 1.009950423983614e+001
0	 7.066659999995869e+000	 1.266639997208098e+000	 1.010189139390298e+001
0	 7.066659999995869e+000	 1.333299999983334e+000	 1.010444338326008e+001
0	 7.133319999991936e+000	 6.666972226472178e-001	 1.007818443313707e+001
0	 7.133319999991937e+000	 7.333579753122049e-001	 1.007953054199123e+001
0	 7.133319999991937e+000	 8.000185779984418e-001	 1.008096677461948e+001
0	 7.133319999991936e+000	 8.666790473703454e-001	 1.008249938418043e+001
0	 7.133319999991937e+000	 9.333394000923326e-001	 1.008413462348503e+001
0	 7.133319999991937e+000	 9.999996528288191e-001	 1.008587874499649e+001
0	 7.133319999991937e+000	 1.066659822244223e+000	 1.008773800083036e+001
0	 7.133319999991935e+000	 1.133319925002959e+000	 1.008971864275447e+001
0	 7.133319999991937e+000	 1.199979977769445e+000	 1.009182692218901e+001
0	 7.133319999991936e+000	 1.266639997208098e+000	 1.009406909020646e+001
0	 7.133319999991936e+000	 1.333299999983334e+000	 1.009645139753163e+001
0	 7.199979999988404e+000	 6.666972226472175e-001	 1.007077100615302e+001
0	 7.199979999988404e+000	 7.333579753122046e-001	 1.007215524000996e+001
0	 7.199979999988405e+000	 8.000185779984420e-001	 1.007361020905938e+001
0	 7.199979999988404e+000	 8.666790473703453e-001	 1.007514163939972e+001
0	 7.199979999988402e+000	 9.333394000923322e-001	 1.007675525682288e+001
0	 7.199979999988406e+000	 9.999996528288192e-001	 1.007845678681432e+001
0	 7.199979999988405e+000	 1.066659822244223e+000	 1.008025195455309e+001
0	 7.199979999988403e+000	 1.133319925002959e+000	 1.008214648491180e+001
0	 7.199979999988405e+000	 1.199979977769445e+000	 1.008414610245658e+001
0	 7.199979999988404e+000	 1.266639997208098e+000	 1.008625653144718e+001
0	 7.199979999988403e+000	 1.333299999983334e+000	 1.008848349583688e+001
0	 7.266639999985471e+000	 6.666972226472175e-001	 1.006323280734953e+001
0	 7.266639999985470e+000	 7.333579753122049e-001	 1.006465915397657e+001
0	 7.266639999985472e+000	 8.000185779984420e-001	 1.006613836423623e+001
0	 7.266639999985472e+000	 8.666790473703459e-001	 1.006767582850516e+001
0	 7.266639999985472e+000	 9.333394000923323e-001	 1.006927693689083e+001
0	 7.266639999985472e+000	 9.999996528288193e-001	 1.007094707923156e+001
0	 7.266639999985471e+000	 1.066659822244222e+000	 1.007269164509652e+001
0	 7.266639999985472e+000	 1.133319925002959e+000	 1.007451602378572e+001
0	 7.266639999985471e+000	 1.199979977769445e+000	 1.007642560433004e+001
0	 7.266639999985471e+000	 1.266639997208098e+000	 1.007842577549119e+001
0	 7.266639999985472e+000	 1.333299999983334e+000	 1.008052192576174e+001
0	 7.333299999983335e+000	 6.666972226472178e-001	 1.005553818650057e+001
0	 7.333299999983334e+000	 7.333579753122048e-001	 1.005700322358308e+001
0	 7.333299999983332e+000	 8.000185779984418e-001	 1.005850672525469e+001
0	 7.333299999983334e+000	 8.666790473703455e-001	 1.006005393752537e+001
0	 7.333299999983334e+000	 9.333394000923322e-001	 1.006165010616634e+001
0	 7.333299999983336e+000	 9.999996528288192e-001	 1.006330047671003e+001
0	 7.333299999983335e+000	 1.066659822244222e+000	 1.006501029445014e+001
0	 7.333299999983334e+000	 1.133319925002959e+000	 1.006678480444159e+001
0	 7.333299999983334e+000	 1.199979977769445e+000	 1.006862925150057e+001
0	 7.333299999983334e+000	 1.266639997208098e+000	 1.007054888020450e+001
0	 7.333299999983335e+000	 1.333299999983334e+000	 1.007254893489208e+001
0	 6.666700000016665e+000	 1.333299999983334e+000	 1.015389519752927e+001
0	 6.666700000016666e+000	 1.399969999982150e+000	 1.015725478483819e+001
0	 6.666700000016668e+000	 1.466639999981867e+000	 1.016050046543253e+001
0	 6.666700000016665e+000	 1.533309999982383e+000	 1.016364083686796e+001
0	 6.666700000016667e+000	 1.599979999983600e+000	 1.016668449670014e+001
0	 6.666700000016665e+000	 1.666649999985416e+000	 1.016964004248473e+001
0	 6.666700000016666e+000	 1.733319999987733e+000	 1.017251607177739e+001
0	 6.666700000016665e+000	 1.799989999990450e+000	 1.017532118213379e+001
0	 6.666700000016666e+000	 1.866659999993467e+000	 1.017806397110962e+001
0	 6.666700000016666e+000	 1.933329999996684e+000	 1.018075303626050e+001
0	 6.666700000016668e+000	 2.000000000000000e+000	 1.018339697514211e+001
0	 6.733360000014534e+000	 1.333299999983334e+000	 1.014538590690210e+001
0	 6.733360000014534e+000	 1.399969999982150e+000	 1.014870183405101e+001
0	 6.733360000014534e+000	 1.466639999981867e+000	 1.015189282292435e+001
0	 6.733360000014532e+000	 1.533309999982383e+000	 1.015496955084367e+001
0	 6.733360000014532e+000	 1.599979999983600e+000	 1.015794269513046e+001
0	 6.733360000014533e+000	 1.666649999985416e+000	 1.016082293310629e+001
0	 6.733360000014533e+000	 1.733319999987733e+000	 1.016362094209266e+001
0	 6.733360000014531e+000	 1.799989999990450e+000	 1.016634739941111e+001
0	 6.733360000014532e+000	 1.866659999993467e+000	 1.016901298238316e+001
0	 6.733360000014533e+000	 1.933329999996684e+000	 1.017162836833032e+001
0	 6.733360000014532e+000	 2.000000000000000e+000	 1.017420423457415e+001
0	 6.800020000011600e+000	 1.333299999983334e+000	 1.013700721479335e+001
0	 6.800020000011598e+000	 1.399969999982150e+000	 1.014023201188289e+001
0	 6.800020000011600e+000	 1.466639999981866e+000	 1.014332973928407e+001
0	 6.800020000011601e+000	 1.533309999982383e+000	 1.014631272246583e+001
0	 6.800020000011600e+000	 1.599979999983600e+000	 1.014919328689713e+001
0	 6.800020000011600e+000	 1.666649999985417e+000	 1.015198375804692e+001
0	 6.800020000011598e+000	 1.733319999987733e+000	 1.015469646138414e+001
0	 6.800020000011600e+000	 1.799989999990450e+000	 1.015734372237774e+001
0	 6.800020000011601e+000	 1.866659999993467e+000	 1.015993786649668e+001
0	 6.800020000011600e+000	 1.933329999996684e+000	 1.016249121920989e+001
0	 6.800020000011601e+000	 2.000000000000000e+000	 1.016501610598634e+001
0	 6.866680000008067e+000	 1.333299999983334e+000	 1.012874136878887e+001
0	 6.866680000008067e+000	 1.399969999982150e+000	 1.013183799918442e+001
0	 6.866680000008067e+000	 1.466639999981866e+000	 1.013481285682521e+001
0	 6.866680000008066e+000	 1.533309999982383e+000	 1.013767948370917e+001
0	 6.866680000008066e+000	 1.599979999983599e+000	 1.014045142183423e+001
0	 6.866680000008068e+000	 1.666649999985416e+000	 1.014314221319834e+001
0	 6.866680000008067e+000	 1.733319999987733e+000	 1.014576539979941e+001
0	 6.866680000008066e+000	 1.799989999990450e+000	 1.014833452363540e+001
0	 6.866680000008066e+000	 1.866659999993467e+000	 1.015086312670420e+001
0	 6.866680000008066e+000	 1.933329999996684e+000	 1.015336475100377e+001
0	 6.866680000008067e+000	 2.000000000000000e+000	 1.015585293853203e+001
0	 6.933340000004134e+000	 1.333299999983334e+000	 1.012057061647459e+001
0	 6.933340000004133e+000	 1.399969999982150e+000	 1.012351247680620e+001
0	 6.933340000004133e+000	 1.466639999981866e+000	 1.012634381786130e+001
0	 6.933340000004133e+000	 1.533309999982383e+000	 1.012907896654837e+001
0	 6.933340000004136e+000	 1.599979999983599e+000	 1.013173224977588e+001
0	 6.933340000004132e+000	 1.666649999985416e+000	 1.013431799445229e+001
0	 6.933340000004134e+000	 1.733319999987733e+000	 1.013685052748609e+001
0	 6.933340000004133e+000	 1.799989999990449e+000	 1.013934417578575e+001
0	 6.933340000004134e+000	 1.866659999993467e+000	 1.014181326625973e+001
0	 6.933340000004135e+000	 1.933329999996684e+000	 1.014427212581652e+001
0	 6.933340000004136e+000	 2.000000000000000e+000	 1.014673508136458e+001
0	 7.000000000000002e+000	 1.333299999983334e+000	 1.011247720543636e+001
0	 7.000000000000004e+000	 1.399969999982150e+000	 1.011524812559883e+001
0	 7.000000000000000e+000	 1.466639999981866e+000	 1.011792426470589e+001
0	 7.000000000000004e+000	 1.533309999982383e+000	 1.012052030295815e+001
0	 7.000000000000004e+000	 1.599979999983600e+000	 1.012305092055616e+001
0	 7.000000000000002e+000	 1.666649999985416e+000	 1.012553079770051e+001
0	 7.000000000000001e+000	 1.733319999987733e+000	 1.012797461459175e+001
0	 7.000000000000001e+000	 1.799989999990450e+000	 1.013039705143049e+001
0	 7.000000000000003e+000	 1.866659999993467e+000	 1.013281278841727e+001
0	 7.000000000000002e+000	 1.933329999996683e+000	 1.013523650575271e+001
0	 7.000000000000004e+000	 2.000000000000001e+000	 1.013768288363733e+001
0	 7.066659999995869e+000	 1.333299999983334e+000	 1.010444338326008e+001
0	 7.066659999995869e+000	 1.399969999982150e+000	 1.010703762641286e+001
0	 7.066659999995868e+000	 1.466639999981866e+000	 1.010955583967250e+001
0	 7.066659999995871e+000	 1.533309999982383e+000	 1.011201262491318e+001
0	 7.066659999995870e+000	 1.599979999983600e+000	 1.011442258400917e+001
0	 7.066659999995871e+000	 1.666649999985416e+000	 1.011680031883471e+001
0	 7.066659999995870e+000	 1.733319999987733e+000	 1.011916043126400e+001
0	 7.066659999995870e+000	 1.799989999990450e+000	 1.012151752317131e+001
0	 7.066659999995870e+000	 1.866659999993467e+000	 1.012388619643087e+001
0	 7.066659999995870e+000	 1.933329999996684e+000	 1.012628105291689e+001
0	 7.066659999995870e+000	 2.000000000000000e+000	 1.012871669450362e+001
0	 7.133319999991936e+000	 1.333299999983334e+000	 1.009645139753163e+001
0	 7.133319999991936e+000	 1.399969999982150e+000	 1.009887366009894e+001
0	 7.133319999991936e+000	 1.466639999981867e+000	 1.010124018507465e+001
0	 7.133319999991937e+000	 1.533309999982383e+000	 1.010356506438820e+001
0	 7.133319999991936e+000	 1.599979999983599e+000	 1.010586238996904e+001
0	 7.133319999991937e+000	 1.666649999985416e+000	 1.010814625374663e+001
0	 7.133319999991936e+000	 1.733319999987733e+000	 1.011043074765043e+001
0	 7.133319999991936e+000	 1.799989999990450e+000	 1.011272996360990e+001
0	 7.133319999991937e+000	 1.866659999993467e+000	 1.011505799355448e+001
0	 7.133319999991937e+000	 1.933329999996684e+000	 1.011742892941364e+001
0	 7.133319999991937e+000	 2.000000000000000e+000	 1.011985686311682e+001
0	 7.199979999988403e+000	 1.333299999983334e+000	 1.008848349583689e+001
0	 7.199979999988402e+000	 1.399969999982150e+000	 1.009074890750764e+001
0	 7.199979999988404e+000	 1.466639999981867e+000	 1.009297894322588e+001
0	 7.199979999988406e+000	 1.533309999982383e+000	 1.009518675335786e+001
0	 7.199979999988405e+000	 1.599979999983600e+000	 1.009738548826983e+001
0	 7.199979999988403e+000	 1.666649999985416e+000	 1.009958829832799e+001
0	 7.199979999988403e+000	 1.733319999987733e+000	 1.010180833389861e+001
0	 7.199979999988403e+000	 1.799989999990450e+000	 1.010405874534791e+001
0	 7.199979999988403e+000	 1.866659999993466e+000	 1.010635268304213e+001
0	 7.199979999988405e+000	 1.933329999996684e+000	 1.010870329734750e+001
0	 7.199979999988403e+000	 2.000000000000000e+000	 1.011112373863026e+001
0	 7.266639999985472e+000	 1.333299999983334e+000	 1.008052192576175e+001
0	 7.266639999985470e+000	 1.399969999982150e+000	 1.008265604948952e+001
0	 7.266639999985470e+000	 1.466639999981866e+000	 1.008477375643973e+001
0	 7.266639999985470e+000	 1.533309999982383e+000	 1.008688682379691e+001
0	 7.266639999985470e+000	 1.599979999983600e+000	 1.008900702874566e+001
0	 7.266639999985472e+000	 1.666649999985417e+000	 1.009114614847054e+001
0	 7.266639999985471e+000	 1.733319999987733e+000	 1.009331596015615e+001
0	 7.266639999985470e+000	 1.799989999990450e+000	 1.009552824098705e+001
0	 7.266639999985473e+000	 1.866659999993467e+000	 1.009779476814783e+001
0	 7.266639999985471e+000	 1.933329999996684e+000	 1.010012731882305e+001
0	 7.266639999985470e+000	 2.000000000000000e+000	 1.010253767019730e+001
0	 7.333299999983335e+000	 1.333299999983334e+000	 1.007254893489208e+001
0	 7.333299999983334e+000	 1.399969999982150e+000	 1.007458776689521e+001
0	 7.333299999983333e+000	 1.466639999981866e+000	 1.007662626702969e+001
0	 7.333299999983333e+000	 1.533309999982383e+000	 1.007867440768000e+001
0	 7.333299999983334e+000	 1.599979999983600e+000	 1.008074216123062e+001
0	 7.333299999983334e+000	 1.666649999985416e+000	 1.008283950006599e+001
0	 7.333299999983335e+000	 1.733319999987733e+000	 1.008497639657064e+001
0	 7.333299999983334e+000	 1.799989999990450e+000	 1.008716282312900e+001
0	 7.333299999983332e+000	 1.866659999993467e+000	 1.008940875212557e+001
0	 7.333299999983334e+000	 1.933329999996684e+000	 1.009172415594484e+001
0	 7.333299999983334e+000	 2.000000000000000e+000	 1.009411900697126e+001
0	 6.666700000016668e+000	 2.000000000000000e+000	 1.018339697514211e+001
0	 6.666700000016666e+000	 2.066670000003317e+000	 1.018592706796028e+001
0	 6.666700000016667e+000	 2.133340000006534e+000	 1.018827954317164e+001
0	 6.666700000016666e+000	 2.200010000009550e+000	 1.019047042070813e+001
0	 6.666700000016665e+000	 2.266680000012268e+000	 1.019251572050161e+001
0	 6.666700000016666e+000	 2.333350000014584e+000	 1.019443146248399e+001
0	 6.666700000016668e+000	 2.400020000016401e+000	 1.019623366658717e+001
0	 6.666700000016667e+000	 2.466690000017618e+000	 1.019793835274304e+001
0	 6.666700000016665e+000	 2.533360000018134e+000	 1.019956154088349e+001
0	 6.666700000016667e+000	 2.600030000017851e+000	 1.020111925094042e+001
0	 6.666700000016665e+000	 2.666700000016666e+000	 1.020262750284570e+001
0	 6.733360000014532e+000	 2.000000000000000e+000	 1.017420423457415e+001
0	 6.733360000014533e+000	 2.066670000003317e+000	 1.017668443162914e+001
0	 6.733360000014532e+000	 2.133340000006534e+000	 1.017901316460664e+001
0	 6.733360000014533e+000	 2.200010000009551e+000	 1.018120164272334e+001
0	 6.733360000014532e+000	 2.266680000012268e+000	 1.018326107519596e+001
0	 6.733360000014531e+000	 2.333350000014585e+000	 1.018520267124122e+001
0	 6.733360000014531e+000	 2.400020000016401e+000	 1.018703764007584e+001
0	 6.733360000014534e+000	 2.466690000017618e+000	 1.018877719091651e+001
0	 6.733360000014531e+000	 2.533360000018134e+000	 1.019043253297996e+001
0	 6.733360000014534e+000	 2.600030000017851e+000	 1.019201487548287e+001
0	 6.733360000014533e+000	 2.666700000016667e+000	 1.019353542764197e+001
0	 6.800020000011601e+000	 2.000000000000000e+000	 1.016501610598634e+001
0	 6.800020000011597e+000	 2.066670000003316e+000	 1.016746426598732e+001
0	 6.800020000011600e+000	 2.133340000006533e+000	 1.016978398894525e+001
0	 6.800020000011601e+000	 2.200010000009551e+000	 1.017198242618573e+001
0	 6.800020000011601e+000	 2.266680000012266e+000	 1.017406672903437e+001
0	 6.800020000011600e+000	 2.333350000014585e+000	 1.017604404881675e+001
0	 6.800020000011599e+000	 2.400020000016400e+000	 1.017792153685849e+001
0	 6.800020000011601e+000	 2.466690000017618e+000	 1.017970634448516e+001
0	 6.800020000011600e+000	 2.533360000018134e+000	 1.018140562302237e+001
0	 6.800020000011601e+000	 2.600030000017851e+000	 1.018302652379571e+001
0	 6.800020000011599e+000	 2.666700000016666e+000	 1.018457619813077e+001
0	 6.866680000008067e+000	 2.000000000000000e+000	 1.015585293853203e+001
0	 6.866680000008066e+000	 2.066670000003316e+000	 1.015828335314100e+001
0	 6.866680000008066e+000	 2.133340000006534e+000	 1.016060519485645e+001
0	 6.866680000008066e+000	 2.200010000009550e+000	 1.016282230993694e+001
0	 6.866680000008066e+000	 2.266680000012267e+000	 1.016493854464101e+001
0	 6.866680000008066e+000	 2.333350000014584e+000	 1.016695774522720e+001
0	 6.866680000008068e+000	 2.400020000016401e+000	 1.016888375795411e+001
0	 6.866680000008068e+000	 2.466690000017618e+000	 1.017072042908024e+001
0	 6.866680000008067e+000	 2.533360000018134e+000	 1.017247160486417e+001
0	 6.866680000008066e+000	 2.600030000017851e+000	 1.017414113156443e+001
0	 6.866680000008067e+000	 2.666700000016667e+000	 1.017573285543956e+001
0	 6.933340000004136e+000	 2.000000000000000e+000	 1.014673508136458e+001
0	 6.933340000004133e+000	 2.066670000003316e+000	 1.014915847519639e+001
0	 6.933340000004132e+000	 2.133340000006534e+000	 1.015148996100919e+001
0	 6.933340000004134e+000	 2.200010000009550e+000	 1.015373083281855e+001
0	 6.933340000004134e+000	 2.266680000012268e+000	 1.015588238464004e+001
0	 6.933340000004136e+000	 2.333350000014585e+000	 1.015794591048923e+001
0	 6.933340000004136e+000	 2.400020000016401e+000	 1.015992270438169e+001
0	 6.933340000004134e+000	 2.466690000017618e+000	 1.016181406033303e+001
0	 6.933340000004135e+000	 2.533360000018134e+000	 1.016362127235878e+001
0	 6.933340000004134e+000	 2.600030000017851e+000	 1.016534563447453e+001
0	 6.933340000004136e+000	 2.666700000016667e+000	 1.016698844069584e+001
0	 7.000000000000004e+000	 2.000000000000001e+000	 1.013768288363733e+001
0	 7.000000000000001e+000	 2.066670000003316e+000	 1.014010641425969e+001
0	 7.000000000000002e+000	 2.133340000006534e+000	 1.014245146607242e+001
0	 7.000000000000002e+000	 2.200010000009551e+000	 1.014471753367218e+001
0	 7.000000000000002e+000	 2.266680000012267e+000	 1.014690411165562e+001
0	 7.000000000000003e+000	 2.333350000014584e+000	 1.014901069461943e+001
0	 7.000000000000004e+000	 2.400020000016401e+000	 1.015103677716025e+001
0	 7.000000000000001e+000	 2.466690000017617e+000	 1.015298185387477e+001
0	 7.000000000000002e+000	 2.533360000018134e+000	 1.015484541935964e+001
0	 7.000000000000000e+000	 2.600030000017850e+000	 1.015662696821151e+001
0	 7.000000000000001e+000	 2.666700000016666e+000	 1.015832599502707e+001
0	 7.066659999995870e+000	 2.000000000000000e+000	 1.012871669450362e+001
0	 7.066659999995869e+000	 2.066670000003317e+000	 1.013114395243711e+001
0	 7.066659999995871e+000	 2.133340000006534e+000	 1.013350288871511e+001
0	 7.066659999995870e+000	 2.200010000009551e+000	 1.013579195133944e+001
0	 7.066659999995868e+000	 2.266680000012267e+000	 1.013800958831197e+001
0	 7.066659999995871e+000	 2.333350000014583e+000	 1.014015424763445e+001
0	 7.066659999995870e+000	 2.400020000016401e+000	 1.014222437730878e+001
0	 7.066659999995867e+000	 2.466690000017617e+000	 1.014421842533675e+001
0	 7.066659999995870e+000	 2.533360000018134e+000	 1.014613483972018e+001
0	 7.066659999995869e+000	 2.600030000017850e+000	 1.014797206846090e+001
0	 7.066659999995868e+000	 2.666700000016666e+000	 1.014972855956073e+001
0	 7.133319999991937e+000	 2.000000000000000e+000	 1.011985686311682e+001
0	 7.133319999991937e+000	 2.066670000003317e+000	 1.012228787183483e+001
0	 7.133319999991937e+000	 2.133340000006534e+000	 1.012465740760619e+001
0	 7.133319999991937e+000	 2.200010000009551e+000	 1.012696362466197e+001
0	 7.133319999991938e+000	 2.266680000012268e+000	 1.012920467723319e+001
0	 7.133319999991937e+000	 2.333350000014584e+000	 1.013137871955095e+001
0	 7.133319999991936e+000	 2.400020000016400e+000	 1.013348390584627e+001
0	 7.133319999991937e+000	 2.466690000017618e+000	 1.013551839035021e+001
0	 7.133319999991937e+000	 2.533360000018133e+000	 1.013748032729384e+001
0	 7.133319999991936e+000	 2.600030000017850e+000	 1.013936787090819e+001
0	 7.133319999991937e+000	 2.666700000016666e+000	 1.014117917542432e+001
0	 7.199979999988403e+000	 2.000000000000000e+000	 1.011112373863026e+001
0	 7.199979999988404e+000	 2.066670000003317e+000	 1.011355495455908e+001
0	 7.199979999988403e+000	 2.133340000006534e+000	 1.011592820141464e+001
0	 7.199979999988404e+000	 2.200010000009551e+000	 1.011824209248134e+001
0	 7.199979999988404e+000	 2.266680000012267e+000	 1.012049524104353e+001
0	 7.199979999988405e+000	 2.333350000014585e+000	 1.012268626038554e+001
0	 7.199979999988404e+000	 2.400020000016401e+000	 1.012481376379173e+001
0	 7.199979999988405e+000	 2.466690000017618e+000	 1.012687636454645e+001
0	 7.199979999988405e+000	 2.533360000018134e+000	 1.012887267593405e+001
0	 7.199979999988405e+000	 2.600030000017851e+000	 1.013080131123890e+001
0	 7.199979999988403e+000	 2.666700000016666e+000	 1.013266088374531e+001
0	 7.266639999985470e+000	 2.000000000000000e+000	 1.010253767019730e+001
0	 7.266639999985472e+000	 2.066670000003317e+000	 1.010496198271601e+001
0	 7.266639999985472e+000	 2.133340000006534e+000	 1.010732844880941e+001
0	 7.266639999985471e+000	 2.200010000009550e+000	 1.010963689363920e+001
0	 7.266639999985471e+000	 2.266680000012268e+000	 1.011188714236712e+001
0	 7.266639999985472e+000	 2.333350000014584e+000	 1.011407902015486e+001
0	 7.266639999985472e+000	 2.400020000016402e+000	 1.011621235216415e+001
0	 7.266639999985472e+000	 2.466690000017618e+000	 1.011828696355672e+001
0	 7.266639999985471e+000	 2.533360000018134e+000	 1.012030267949428e+001
0	 7.266639999985472e+000	 2.600030000017851e+000	 1.012225932513853e+001
0	 7.266639999985472e+000	 2.666700000016667e+000	 1.012415672565119e+001
0	 7.333299999983334e+000	 2.000000000000000e+000	 1.009411900697126e+001
0	 7.333299999983333e+000	 2.066670000003317e+000	 1.009652573841187e+001
0	 7.333299999983334e+000	 2.133340000006534e+000	 1.009887132845944e+001
0	 7.333299999983335e+000	 2.200010000009551e+000	 1.010115756697715e+001
0	 7.333299999983332e+000	 2.266680000012267e+000	 1.010338624382814e+001
0	 7.333299999983334e+000	 2.333350000014584e+000	 1.010555914887555e+001
0	 7.333299999983335e+000	 2.400020000016402e+000	 1.010767807198256e+001
0	 7.333299999983333e+000	 2.466690000017617e+000	 1.010974480301230e+001
0	 7.333299999983333e+000	 2.533360000018134e+000	 1.011176113182794e+001
0	 7.333299999983335e+000	 2.600030000017851e+000	 1.011372884829261e+001
0	 7.333299999983336e+000	 2.666700000016666e+000	 1.011564974226948e+001
0	 6.666700000016665e+000	 2.666700000016666e+000	 1.020262750284570e+001
0	 6.666700000016668e+000	 2.733360000014533e+000	 1.020405778410262e+001
0	 6.666700000016665e+000	 2.800020000011599e+000	 1.020537054578882e+001
0	 6.666700000016666e+000	 2.866680000008067e+000	 1.020656458324307e+001
0	 6.666700000016667e+000	 2.933340000004133e+000	 1.020763869180413e+001
0	 6.666700000016666e+000	 3.000000000000001e+000	 1.020859166681074e+001
0	 6.666700000016667e+000	 3.066659999995868e+000	 1.020942230360165e+001
0	 6.666700000016666e+000	 3.133319999991934e+000	 1.021012939751565e+001
0	 6.666700000016666e+000	 3.199979999988401e+000	 1.021071174389149e+001
0	 6.666700000016666e+000	 3.266639999985468e+000	 1.021116813806797e+001
0	 6.666700000016665e+000	 3.333299999983333e+000	 1.021149737538384e+001
0	 6.733360000014533e+000	 2.666700000016667e+000	 1.019353542764197e+001
0	 6.733360000014534e+000	 2.733360000014533e+000	 1.019496974438609e+001
0	 6.733360000014533e+000	 2.800020000011599e+000	 1.019628731447417e+001
0	 6.733360000014533e+000	 2.866680000008067e+000	 1.019748957587467e+001
0	 6.733360000014532e+000	 2.933340000004133e+000	 1.019857796655606e+001
0	 6.733360000014531e+000	 3.000000000000000e+000	 1.019955392448679e+001
0	 6.733360000014533e+000	 3.066659999995868e+000	 1.020041888763536e+001
0	 6.733360000014533e+000	 3.133319999991934e+000	 1.020117429397023e+001
0	 6.733360000014533e+000	 3.199979999988401e+000	 1.020182158145988e+001
0	 6.733360000014533e+000	 3.266639999985468e+000	 1.020236218807279e+001
0	 6.733360000014533e+000	 3.333299999983334e+000	 1.020279755177747e+001
0	 6.800020000011599e+000	 2.666700000016666e+000	 1.018457619813077e+001
0	 6.800020000011598e+000	 2.733360000014533e+000	 1.018603193942764e+001
0	 6.800020000011597e+000	 2.800020000011599e+000	 1.018736915613464e+001
0	 6.800020000011600e+000	 2.866680000008066e+000	 1.018859148978368e+001
0	 6.800020000011598e+000	 2.933340000004134e+000	 1.018970258190666e+001
0	 6.800020000011600e+000	 3.000000000000000e+000	 1.019070607403546e+001
0	 6.800020000011601e+000	 3.066659999995868e+000	 1.019160560770199e+001
0	 6.800020000011601e+000	 3.133319999991934e+000	 1.019240482443816e+001
0	 6.800020000011602e+000	 3.199979999988402e+000	 1.019310736577589e+001
0	 6.800020000011600e+000	 3.266639999985467e+000	 1.019371687324707e+001
0	 6.800020000011600e+000	 3.333299999983334e+000	 1.019423698838364e+001
0	 6.866680000008067e+000	 2.666700000016667e+000	 1.017573285543957e+001
0	 6.866680000008068e+000	 2.733360000014533e+000	 1.017722391161571e+001
0	 6.866680000008068e+000	 2.800020000011600e+000	 1.017859294127403e+001
0	 6.866680000008064e+000	 2.866680000008066e+000	 1.017984535044358e+001
0	 6.866680000008068e+000	 2.933340000004133e+000	 1.018098654515339e+001
0	 6.866680000008066e+000	 3.000000000000000e+000	 1.018202193143251e+001
0	 6.866680000008067e+000	 3.066659999995867e+000	 1.018295691531001e+001
0	 6.866680000008068e+000	 3.133319999991934e+000	 1.018379690281493e+001
0	 6.866680000008067e+000	 3.199979999988401e+000	 1.018454729997635e+001
0	 6.866680000008068e+000	 3.266639999985468e+000	 1.018521351282332e+001
0	 6.866680000008065e+000	 3.333299999983333e+000	 1.018580094738491e+001
0	 6.933340000004136e+000	 2.666700000016667e+000	 1.016698844069584e+001
0	 6.933340000004134e+000	 2.733360000014533e+000	 1.016852520333877e+001
0	 6.933340000004136e+000	 2.800020000011600e+000	 1.016993554039610e+001
0	 6.933340000004134e+000	 2.866680000008067e+000	 1.017122618332776e+001
0	 6.933340000004133e+000	 2.933340000004133e+000	 1.017240386359366e+001
0	 6.933340000004137e+000	 3.000000000000001e+000	 1.017347531265371e+001
0	 6.933340000004134e+000	 3.066659999995867e+000	 1.017444726196786e+001
0	 6.933340000004136e+000	 3.133319999991935e+000	 1.017532644299600e+001
0	 6.933340000004136e+000	 3.199979999988401e+000	 1.017611958719810e+001
0	 6.933340000004135e+000	 3.266639999985468e+000	 1.017683342603405e+001
0	 6.933340000004135e+000	 3.333299999983334e+000	 1.017747469096383e+001
0	 7.000000000000001e+000	 2.666700000016666e+000	 1.015832599502707e+001
0	 7.000000000000003e+000	 2.733360000014533e+000	 1.015991535698526e+001
0	 7.000000000000000e+000	 2.800020000011599e+000	 1.016137382400463e+001
0	 7.000000000000002e+000	 2.866680000008067e+000	 1.016270901390968e+001
0	 7.000000000000002e+000	 2.933340000004133e+000	 1.016392854452492e+001
0	 7.000000000000003e+000	 3.000000000000000e+000	 1.016504003367484e+001
0	 7.000000000000001e+000	 3.066659999995867e+000	 1.016605109918399e+001
0	 7.000000000000001e+000	 3.133319999991934e+000	 1.016696935887685e+001
0	 7.000000000000000e+000	 3.199979999988400e+000	 1.016780243057794e+001
0	 7.000000000000002e+000	 3.266639999985467e+000	 1.016855793211182e+001
0	 7.000000000000001e+000	 3.333299999983334e+000	 1.016924348130297e+001
0	 7.066659999995868e+000	 2.666700000016666e+000	 1.014972855956073e+001
0	 7.066659999995870e+000	 2.733360000014532e+000	 1.015137391494366e+001
0	 7.066659999995871e+000	 2.800020000011601e+000	 1.015288466260339e+001
0	 7.066659999995868e+000	 2.866680000008066e+000	 1.015426886766277e+001
0	 7.066659999995871e+000	 2.933340000004133e+000	 1.015553459524459e+001
0	 7.066659999995870e+000	 3.000000000000000e+000	 1.015668991047168e+001
0	 7.066659999995868e+000	 3.066659999995868e+000	 1.015774287846685e+001
0	 7.066659999995869e+000	 3.133319999991934e+000	 1.015870156435292e+001
0	 7.066659999995870e+000	 3.199979999988401e+000	 1.015957403325273e+001
0	 7.066659999995870e+000	 3.266639999985468e+000	 1.016036835028910e+001
0	 7.066659999995870e+000	 3.333299999983334e+000	 1.016109258058487e+001
0	 7.133319999991937e+000	 2.666700000016666e+000	 1.014117917542432e+001
0	 7.133319999991937e+000	 2.733360000014533e+000	 1.014288041960241e+001
0	 7.133319999991937e+000	 2.800020000011600e+000	 1.014444492669619e+001
0	 7.133319999991937e+000	 2.866680000008067e+000	 1.014588077006049e+001
0	 7.133319999991935e+000	 2.933340000004133e+000	 1.014719602305013e+001
0	 7.133319999991937e+000	 3.000000000000000e+000	 1.014839875901999e+001
0	 7.133319999991936e+000	 3.066659999995868e+000	 1.014949705132490e+001
0	 7.133319999991937e+000	 3.133319999991934e+000	 1.015049897331969e+001
0	 7.133319999991937e+000	 3.199979999988401e+000	 1.015141259835926e+001
0	 7.133319999991937e+000	 3.266639999985468e+000	 1.015224599979844e+001
0	 7.133319999991937e+000	 3.333299999983334e+000	 1.015300725099210e+001
0	 7.199979999988403e+000	 2.666700000016666e+000	 1.013266088374531e+001
0	 7.199979999988404e+000	 2.733360000014533e+000	 1.013441441335000e+001
0	 7.199979999988403e+000	 2.800020000011599e+000	 1.013603148678678e+001
0	 7.199979999988406e+000	 2.866680000008066e+000	 1.013751974657624e+001
0	 7.199979999988402e+000	 2.933340000004133e+000	 1.013888683523897e+001
0	 7.199979999988405e+000	 3.000000000000001e+000	 1.014014039529555e+001
0	 7.199979999988404e+000	 3.066659999995868e+000	 1.014128806926658e+001
0	 7.199979999988405e+000	 3.133319999991934e+000	 1.014233749967267e+001
0	 7.199979999988405e+000	 3.199979999988401e+000	 1.014329632903440e+001
0	 7.199979999988404e+000	 3.266639999985467e+000	 1.014417219987238e+001
0	 7.199979999988403e+000	 3.333299999983334e+000	 1.014497275470723e+001
0	 7.266639999985472e+000	 2.666700000016667e+000	 1.012415672565119e+001
0	 7.266639999985471e+000	 2.733360000014533e+000	 1.012595543857488e+001
0	 7.266639999985471e+000	 2.800020000011600e+000	 1.012762121337897e+001
0	 7.266639999985472e+000	 2.866680000008066e+000	 1.012916082268353e+001
0	 7.266639999985472e+000	 2.933340000004134e+000	 1.013058103910855e+001
0	 7.266639999985472e+000	 3.000000000000000e+000	 1.013188863527416e+001
0	 7.266639999985471e+000	 3.066659999995867e+000	 1.013309038380037e+001
0	 7.266639999985471e+000	 3.133319999991934e+000	 1.013419305730729e+001
0	 7.266639999985471e+000	 3.199979999988401e+000	 1.013520342841495e+001
0	 7.266639999985472e+000	 3.266639999985468e+000	 1.013612826974344e+001
0	 7.266639999985471e+000	 3.333299999983334e+000	 1.013697435391283e+001
0	 7.333299999983336e+000	 2.666700000016666e+000	 1.011564974226948e+001
0	 7.333299999983331e+000	 2.733360000014532e+000	 1.011748303766554e+001
0	 7.333299999983333e+000	 2.800020000011599e+000	 1.011919097697654e+001
0	 7.333299999983333e+000	 2.866680000008066e+000	 1.012077902385572e+001
0	 7.333299999983334e+000	 2.933340000004133e+000	 1.012225264195632e+001
0	 7.333299999983335e+000	 3.000000000000001e+000	 1.012361729493158e+001
0	 7.333299999983335e+000	 3.066659999995868e+000	 1.012487844643473e+001
0	 7.333299999983334e+000	 3.133319999991934e+000	 1.012604156011904e+001
0	 7.333299999983335e+000	 3.199979999988401e+000	 1.012711209963776e+001
0	 7.333299999983333e+000	 3.266639999985468e+000	 1.012809552864415e+001
0	 7.333299999983335e+000	 3.333299999983335e+000	 1.012899731079145e+001
0	 6.666700000016665e+000	 3.333299999983333e+000	 1.021149737538384e+001
0	 6.666700000016665e+000	 3.399969999982149e+000	 1.021168412451130e+001
0	 6.666700000016667e+000	 3.466639999981866e+000	 1.021171356153262e+001
0	 6.666700000016668e+000	 3.533309999982382e+000	 1.021158536227950e+001
0	 6.666700000016666e+000	 3.599979999983598e+000	 1.021129920258362e+001
0	 6.666700000016667e+000	 3.666649999985415e+000	 1.021085475827667e+001
0	 6.666700000016665e+000	 3.733319999987732e+000	 1.021025170519034e+001
0	 6.666700000016665e+000	 3.799989999990447e+000	 1.020948971915632e+001
0	 6.666700000016665e+000	 3.866659999993464e+000	 1.020856847600626e+001
0	 6.666700000016665e+000	 3.933329999996681e+000	 1.020748765157186e+001
0	 6.666700000016667e+000	 4.000000000000001e+000	 1.020624692168478e+001
0	 6.733360000014533e+000	 3.333299999983334e+000	 1.020279755177747e+001
0	 6.733360000014533e+000	 3.399969999982150e+000	 1.020310243471994e+001
0	 6.733360000014534e+000	 3.466639999981867e+000	 1.020325031132067e+001
0	 6.733360000014533e+000	 3.533309999982382e+000	 1.020324086042686e+001
0	 6.733360000014534e+000	 3.599979999983600e+000	 1.020307376088563e+001
0	 6.733360000014534e+000	 3.666649999985415e+000	 1.020274869154416e+001
0	 6.733360000014533e+000	 3.733319999987732e+000	 1.020226533124959e+001
0	 6.733360000014534e+000	 3.799989999990449e+000	 1.020162335884909e+001
0	 6.733360000014533e+000	 3.866659999993464e+000	 1.020082245318979e+001
0	 6.733360000014534e+000	 3.933329999996683e+000	 1.019986229311884e+001
0	 6.733360000014534e+000	 4.000000000000000e+000	 1.019874255748337e+001
0	 6.800020000011600e+000	 3.333299999983334e+000	 1.019423698838364e+001
0	 6.800020000011601e+000	 3.399969999982150e+000	 1.019463665836313e+001
0	 6.800020000011600e+000	 3.466639999981866e+000	 1.019488205437444e+001
0	 6.800020000011600e+000	 3.533309999982382e+000	 1.019497286847277e+001
0	 6.800020000011601e+000	 3.599979999983599e+000	 1.019490879271335e+001
0	 6.800020000011600e+000	 3.666649999985415e+000	 1.019468951915137e+001
0	 6.800020000011600e+000	 3.733319999987731e+000	 1.019431473984203e+001
0	 6.800020000011601e+000	 3.799989999990449e+000	 1.019378414684055e+001
0	 6.800020000011601e+000	 3.866659999993465e+000	 1.019309743220210e+001
0	 6.800020000011599e+000	 3.933329999996681e+000	 1.019225428798188e+001
0	 6.800020000011600e+000	 4.000000000000001e+000	 1.019125440623509e+001
0	 6.866680000008065e+000	 3.333299999983333e+000	 1.018580094738490e+001
0	 6.866680000008066e+000	 3.399969999982150e+000	 1.018627618177571e+001
0	 6.866680000008067e+000	 3.466639999981866e+000	 1.018660183542408e+001
0	 6.866680000008066e+000	 3.533309999982382e+000	 1.018677762378588e+001
0	 6.866680000008067e+000	 3.599979999983599e+000	 1.018680326231693e+001
0	 6.866680000008067e+000	 3.666649999985415e+000	 1.018667846647307e+001
0	 6.866680000008068e+000	 3.733319999987733e+000	 1.018640295171012e+001
0	 6.866680000008065e+000	 3.799989999990448e+000	 1.018597643348392e+001
0	 6.866680000008066e+000	 3.866659999993465e+000	 1.018539862725029e+001
0	 6.866680000008065e+000	 3.933329999996682e+000	 1.018466924846507e+001
0	 6.866680000008068e+000	 4.000000000000001e+000	 1.018378801258404e+001
0	 6.933340000004135e+000	 3.333299999983334e+000	 1.017747469096383e+001
0	 6.933340000004135e+000	 3.399969999982150e+000	 1.017801039129249e+001
0	 6.933340000004134e+000	 3.466639999981866e+000	 1.017840269919981e+001
0	 6.933340000004134e+000	 3.533309999982381e+000	 1.017865136373481e+001
0	 6.933340000004135e+000	 3.599979999983599e+000	 1.017875613394651e+001
0	 6.933340000004136e+000	 3.666649999985415e+000	 1.017871675888402e+001
0	 6.933340000004135e+000	 3.733319999987732e+000	 1.017853298759633e+001
0	 6.933340000004135e+000	 3.799989999990448e+000	 1.017820456913247e+001
0	 6.933340000004133e+000	 3.866659999993464e+000	 1.017773125254152e+001
0	 6.933340000004136e+000	 3.933329999996681e+000	 1.017711278687248e+001
0	 6.933340000004135e+000	 4.000000000000000e+000	 1.017634892117439e+001
0	 7.000000000000001e+000	 3.333299999983334e+000	 1.016924348130297e+001
0	 7.000000000000001e+000	 3.399969999982149e+000	 1.016982867324834e+001
0	 7.000000000000002e+000	 3.466639999981866e+000	 1.017027769043178e+001
0	 7.000000000000001e+000	 3.533309999982382e+000	 1.017059032568817e+001
0	 7.000000000000002e+000	 3.599979999983599e+000	 1.017076637185229e+001
0	 7.000000000000002e+000	 3.666649999985416e+000	 1.017080562175901e+001
0	 7.000000000000003e+000	 3.733319999987732e+000	 1.017070786824312e+001
0	 7.000000000000000e+000	 3.799989999990447e+000	 1.017047290413948e+001
0	 7.000000000000002e+000	 3.866659999993464e+000	 1.017010052228291e+001
0	 7.000000000000002e+000	 3.933329999996682e+000	 1.016959051550822e+001
0	 7.000000000000002e+000	 4.000000000000000e+000	 1.016894267665024e+001
0	 7.066659999995870e+000	 3.333299999983334e+000	 1.016109258058486e+001
0	 7.066659999995866e+000	 3.399969999982150e+000	 1.016172041397804e+001
0	 7.066659999995869e+000	 3.466639999981866e+000	 1.016221985385023e+001
0	 7.066659999995869e+000	 3.533309999982382e+000	 1.016259074701461e+001
0	 7.066659999995870e+000	 3.599979999983599e+000	 1.016283294028439e+001
0	 7.066659999995870e+000	 3.666649999985415e+000	 1.016294628047278e+001
0	 7.066659999995870e+000	 3.733319999987732e+000	 1.016293061439298e+001
0	 7.066659999995870e+000	 3.799989999990449e+000	 1.016278578885819e+001
0	 7.066659999995869e+000	 3.866659999993464e+000	 1.016251165068159e+001
0	 7.066659999995869e+000	 3.933329999996682e+000	 1.016210804667638e+001
0	 7.066659999995871e+000	 4.000000000000001e+000	 1.016157482365575e+001
0	 7.133319999991937e+000	 3.333299999983334e+000	 1.015300725099210e+001
0	 7.133319999991937e+000	 3.399969999982149e+000	 1.015367499981645e+001
0	 7.133319999991937e+000	 3.466639999981866e+000	 1.015422223418529e+001
0	 7.133319999991935e+000	 3.533309999982381e+000	 1.015464886508274e+001
0	 7.133319999991937e+000	 3.599979999983598e+000	 1.015495480349298e+001
0	 7.133319999991936e+000	 3.666649999985415e+000	 1.015513996040014e+001
0	 7.133319999991937e+000	 3.733319999987732e+000	 1.015520424678839e+001
0	 7.133319999991936e+000	 3.799989999990447e+000	 1.015514757364186e+001
0	 7.133319999991937e+000	 3.866659999993465e+000	 1.015496985194469e+001
0	 7.133319999991937e+000	 3.933329999996682e+000	 1.015467099268103e+001
0	 7.133319999991937e+000	 4.000000000000001e+000	 1.015425090683502e+001
0	 7.199979999988403e+000	 3.333299999983334e+000	 1.014497275470723e+001
0	 7.199979999988403e+000	 3.399969999982149e+000	 1.014568181709841e+001
0	 7.199979999988404e+000	 3.466639999981866e+000	 1.014627787616719e+001
0	 7.199979999988405e+000	 3.533309999982382e+000	 1.014676091726123e+001
0	 7.199979999988404e+000	 3.599979999983599e+000	 1.014713092572822e+001
0	 7.199979999988404e+000	 3.666649999985415e+000	 1.014738788691586e+001
0	 7.199979999988404e+000	 3.733319999987732e+000	 1.014753178617181e+001
0	 7.199979999988405e+000	 3.799989999990449e+000	 1.014756260884374e+001
0	 7.199979999988403e+000	 3.866659999993464e+000	 1.014748034027935e+001
0	 7.199979999988404e+000	 3.933329999996682e+000	 1.014728496582628e+001
0	 7.199979999988403e+000	 4.000000000000000e+000	 1.014697647083222e+001
0	 7.266639999985471e+000	 3.333299999983334e+000	 1.013697435391283e+001
0	 7.266639999985471e+000	 3.399969999982151e+000	 1.013773025215875e+001
0	 7.266639999985470e+000	 3.466639999981866e+000	 1.013837982452610e+001
0	 7.266639999985472e+000	 3.533309999982382e+000	 1.013892314091869e+001
0	 7.266639999985471e+000	 3.599979999983598e+000	 1.013936027124029e+001
0	 7.266639999985472e+000	 3.666649999985415e+000	 1.013969128539472e+001
0	 7.266639999985471e+000	 3.733319999987732e+000	 1.013991625328574e+001
0	 7.266639999985471e+000	 3.799989999990448e+000	 1.014003524481712e+001
0	 7.266639999985470e+000	 3.866659999993465e+000	 1.014004832989270e+001
0	 7.266639999985471e+000	 3.933329999996682e+000	 1.013995557841622e+001
0	 7.266639999985472e+000	 4.000000000000001e+000	 1.013975706029147e+001
0	 7.333299999983335e+000	 3.333299999983335e+000	 1.012899731079145e+001
0	 7.333299999983333e+000	 3.399969999982150e+000	 1.012980969133228e+001
0	 7.333299999983334e+000	 3.466639999981866e+000	 1.013052112399223e+001
0	 7.333299999983335e+000	 3.533309999982382e+000	 1.013113177342376e+001
0	 7.333299999983334e+000	 3.599979999983599e+000	 1.013164180427934e+001
0	 7.333299999983334e+000	 3.666649999985415e+000	 1.013205138121147e+001
0	 7.333299999983333e+000	 3.733319999987732e+000	 1.013236066887262e+001
0	 7.333299999983335e+000	 3.799989999990449e+000	 1.013256983191527e+001
0	 7.333299999983335e+000	 3.866659999993465e+000	 1.013267903499188e+001
0	 7.333299999983332e+000	 3.933329999996681e+000	 1.013268844275494e+001
0	 7.333299999983334e+000	 4.000000000000000e+000	 1.013259821985691e+001
0	 6.666700000016667e+000	 4.000000000000001e+000	 1.020624692168477e+001
0	 6.666700000016666e+000	 4.066670000003316e+000	 1.020487883851943e+001
0	 6.666700000016665e+000	 4.133340000006533e+000	 1.020341454820268e+001
0	 6.666700000016666e+000	 4.200010000009550e+000	 1.020185161749473e+001
0	 6.666700000016665e+000	 4.266680000012267e+000	 1.020018761315592e+001
0	 6.666700000016665e+000	 4.333350000014582e+000	 1.019842010194645e+001
0	 6.666700000016666e+000	 4.400020000016401e+000	 1.019654665062661e+001
0	 6.666700000016667e+000	 4.466690000017616e+000	 1.019456482595663e+001
0	 6.666700000016665e+000	 4.533360000018131e+000	 1.019247219469679e+001
0	 6.666700000016666e+000	 4.600030000017849e+000	 1.019026632360735e+001
0	 6.666700000016667e+000	 4.666700000016666e+000	 1.018794477944855e+001
0	 6.733360000014534e+000	 4.000000000000000e+000	 1.019874255748337e+001
0	 6.733360000014535e+000	 4.066670000003317e+000	 1.019749810059725e+001
0	 6.733360000014531e+000	 4.133340000006532e+000	 1.019616207483669e+001
0	 6.733360000014531e+000	 4.200010000009549e+000	 1.019473160614231e+001
0	 6.733360000014534e+000	 4.266680000012268e+000	 1.019320382045476e+001
0	 6.733360000014532e+000	 4.333350000014582e+000	 1.019157584371472e+001
0	 6.733360000014533e+000	 4.400020000016402e+000	 1.018984480186278e+001
0	 6.733360000014534e+000	 4.466690000017617e+000	 1.018800782083962e+001
0	 6.733360000014532e+000	 4.533360000018131e+000	 1.018606202658584e+001
0	 6.733360000014533e+000	 4.600030000017849e+000	 1.018400454504212e+001
0	 6.733360000014533e+000	 4.666700000016666e+000	 1.018183250214905e+001
0	 6.800020000011600e+000	 4.000000000000001e+000	 1.019125440623509e+001
0	 6.800020000011599e+000	 4.066670000003316e+000	 1.019013332467791e+001
0	 6.800020000011600e+000	 4.133340000006532e+000	 1.018892464453097e+001
0	 6.800020000011600e+000	 4.200010000009550e+000	 1.018762515310625e+001
0	 6.800020000011599e+000	 4.266680000012266e+000	 1.018623163771569e+001
0	 6.800020000011599e+000	 4.333350000014583e+000	 1.018474088567119e+001
0	 6.800020000011601e+000	 4.400020000016400e+000	 1.018314968428469e+001
0	 6.800020000011601e+000	 4.466690000017618e+000	 1.018145482086813e+001
0	 6.800020000011601e+000	 4.533360000018133e+000	 1.017965308273343e+001
0	 6.800020000011601e+000	 4.600030000017848e+000	 1.017774125719253e+001
0	 6.800020000011601e+000	 4.666700000016666e+000	 1.017571613155733e+001
0	 6.866680000008068e+000	 4.000000000000001e+000	 1.018378801258404e+001
0	 6.866680000008068e+000	 4.066670000003318e+000	 1.018278976410969e+001
0	 6.866680000008068e+000	 4.133340000006534e+000	 1.018170723782329e+001
0	 6.866680000008065e+000	 4.200010000009550e+000	 1.018053698459898e+001
0	 6.866680000008067e+000	 4.266680000012268e+000	 1.017927555531088e+001
0	 6.866680000008067e+000	 4.333350000014584e+000	 1.017791950083315e+001
0	 6.866680000008064e+000	 4.400020000016398e+000	 1.017646537203991e+001
0	 6.866680000008066e+000	 4.466690000017615e+000	 1.017490971980527e+001
0	 6.866680000008065e+000	 4.533360000018133e+000	 1.017324909500338e+001
0	 6.866680000008067e+000	 4.600030000017850e+000	 1.017148004850835e+001
0	 6.866680000008068e+000	 4.666700000016666e+000	 1.016959913119430e+001
0	 6.933340000004135e+000	 4.000000000000000e+000	 1.017634892117439e+001
0	 6.933340000004133e+000	 4.066670000003314e+000	 1.017547267224096e+001
0	 6.933340000004135e+000	 4.133340000006535e+000	 1.017451483525134e+001
0	 6.933340000004136e+000	 4.200010000009550e+000	 1.017347182683282e+001
0	 6.933340000004135e+000	 4.266680000012268e+000	 1.017234006361261e+001
0	 6.933340000004132e+000	 4.333350000014582e+000	 1.017111596221792e+001
0	 6.933340000004135e+000	 4.400020000016400e+000	 1.016979593927603e+001
0	 6.933340000004134e+000	 4.466690000017616e+000	 1.016837641141416e+001
0	 6.933340000004135e+000	 4.533360000018133e+000	 1.016685379525952e+001
0	 6.933340000004135e+000	 4.600030000017849e+000	 1.016522450743937e+001
0	 6.933340000004134e+000	 4.666700000016667e+000	 1.016348496458093e+001
0	 7.000000000000002e+000	 4.000000000000000e+000	 1.016894267665024e+001
0	 7.000000000000004e+000	 4.066670000003318e+000	 1.016818730242004e+001
0	 7.000000000000001e+000	 4.133340000006535e+000	 1.016735241735293e+001
0	 7.000000000000002e+000	 4.200010000009550e+000	 1.016643440602020e+001
0	 7.000000000000001e+000	 4.266680000012268e+000	 1.016542965299306e+001
0	 7.000000000000003e+000	 4.333350000014583e+000	 1.016433454284280e+001
0	 7.000000000000001e+000	 4.400020000016400e+000	 1.016314546014065e+001
0	 7.000000000000001e+000	 4.466690000017615e+000	 1.016185878945787e+001
0	 7.000000000000001e+000	 4.533360000018132e+000	 1.016047091536569e+001
0	 7.000000000000001e+000	 4.600030000017847e+000	 1.015897822243537e+001
0	 7.000000000000002e+000	 4.666700000016666e+000	 1.015737709523812e+001
0	 7.066659999995871e+000	 4.000000000000001e+000	 1.016157482365575e+001
0	 7.066659999995870e+000	 4.066670000003318e+000	 1.016093890799525e+001
0	 7.066659999995870e+000	 4.133340000006534e+000	 1.016022496466576e+001
0	 7.066659999995869e+000	 4.200010000009551e+000	 1.015942944837345e+001
0	 7.066659999995870e+000	 4.266680000012266e+000	 1.015854881382451e+001
0	 7.066659999995872e+000	 4.333350000014584e+000	 1.015757951572509e+001
0	 7.066659999995869e+000	 4.400020000016400e+000	 1.015651800878138e+001
0	 7.066659999995868e+000	 4.466690000017616e+000	 1.015536074769953e+001
0	 7.066659999995871e+000	 4.533360000018133e+000	 1.015410418718571e+001
0	 7.066659999995867e+000	 4.600030000017847e+000	 1.015274478194610e+001
0	 7.066659999995868e+000	 4.666700000016665e+000	 1.015127898668685e+001
0	 7.133319999991937e+000	 4.000000000000001e+000	 1.015425090683502e+001
0	 7.133319999991937e+000	 4.066670000003317e+000	 1.015373274231493e+001
0	 7.133319999991937e+000	 4.133340000006533e+000	 1.015313745772759e+001
0	 7.133319999991935e+000	 4.200010000009549e+000	 1.015246168010499e+001
0	 7.133319999991936e+000	 4.266680000012266e+000	 1.015170203647917e+001
0	 7.133319999991937e+000	 4.333350000014584e+000	 1.015085515388209e+001
0	 7.133319999991937e+000	 4.400020000016400e+000	 1.014991765934578e+001
0	 7.133319999991937e+000	 4.466690000017617e+000	 1.014888617990222e+001
0	 7.133319999991934e+000	 4.533360000018130e+000	 1.014775734258342e+001
0	 7.133319999991937e+000	 4.600030000017849e+000	 1.014652777442136e+001
0	 7.133319999991937e+000	 4.666700000016666e+000	 1.014519410244805e+001
0	 7.199979999988403e+000	 4.000000000000000e+000	 1.014697647083222e+001
0	 7.199979999988404e+000	 4.066670000003318e+000	 1.014657405872742e+001
0	 7.199979999988404e+000	 4.133340000006533e+000	 1.014609487707615e+001
0	 7.199979999988405e+000	 4.200010000009550e+000	 1.014553582742719e+001
0	 7.199979999988405e+000	 4.266680000012267e+000	 1.014489381132926e+001
0	 7.199979999988405e+000	 4.333350000014584e+000	 1.014416573033111e+001
0	 7.199979999988404e+000	 4.400020000016400e+000	 1.014334848598146e+001
0	 7.199979999988402e+000	 4.466690000017615e+000	 1.014243897982906e+001
0	 7.199979999988403e+000	 4.533360000018131e+000	 1.014143411342264e+001
0	 7.199979999988405e+000	 4.600030000017849e+000	 1.014033078831094e+001
0	 7.199979999988404e+000	 4.666700000016667e+000	 1.013912590604267e+001
0	 7.266639999985472e+000	 4.000000000000001e+000	 1.013975706029147e+001
0	 7.266639999985472e+000	 4.066670000003318e+000	 1.013946811058102e+001
0	 7.266639999985471e+000	 4.133340000006533e+000	 1.013910220324922e+001
0	 7.266639999985469e+000	 4.200010000009549e+000	 1.013865661655244e+001
0	 7.266639999985471e+000	 4.266680000012268e+000	 1.013812862874705e+001
0	 7.266639999985470e+000	 4.333350000014583e+000	 1.013751551808946e+001
0	 7.266639999985471e+000	 4.400020000016401e+000	 1.013681456283604e+001
0	 7.266639999985470e+000	 4.466690000017616e+000	 1.013602304124317e+001
0	 7.266639999985471e+000	 4.533360000018132e+000	 1.013513823156723e+001
0	 7.266639999985471e+000	 4.600030000017849e+000	 1.013415741206459e+001
0	 7.266639999985472e+000	 4.666700000016665e+000	 1.013307786099165e+001
0	 7.333299999983334e+000	 4.000000000000000e+000	 1.013259821985691e+001
0	 7.333299999983334e+000	 4.066670000003316e+000	 1.013242015122411e+001
0	 7.333299999983334e+000	 4.133340000006534e+000	 1.013216441678453e+001
0	 7.333299999983334e+000	 4.200010000009550e+000	 1.013182877369310e+001
0	 7.333299999983333e+000	 4.266680000012266e+000	 1.013141097910476e+001
0	 7.333299999983335e+000	 4.333350000014584e+000	 1.013090879017445e+001
0	 7.333299999983332e+000	 4.400020000016399e+000	 1.013031996405709e+001
0	 7.333299999983334e+000	 4.466690000017616e+000	 1.012964225790763e+001
0	 7.333299999983334e+000	 4.533360000018133e+000	 1.012887342888100e+001
0	 7.333299999983335e+000	 4.600030000017849e+000	 1.012801123413212e+001
0	 7.333299999983333e+000	 4.666700000016665e+000	 1.012705343081592e+001
0	 6.666700000016667e+000	 4.666700000016666e+000	 1.018794477944854e+001
0	 6.666700000016669e+000	 4.733360000014534e+000	 1.018554739491361e+001
0	 6.666700000016665e+000	 4.800020000011598e+000	 1.018311181726438e+001
0	 6.666700000016667e+000	 4.866680000008066e+000	 1.018063340614660e+001
0	 6.666700000016668e+000	 4.933340000004135e+000	 1.017810752120615e+001
0	 6.666700000016666e+000	 5.000000000000000e+000	 1.017552952208882e+001
0	 6.666700000016668e+000	 5.066659999995866e+000	 1.017289476844047e+001
0	 6.666700000016666e+000	 5.133319999991932e+000	 1.017019861990689e+001
0	 6.666700000016666e+000	 5.199979999988399e+000	 1.016743643613392e+001
0	 6.666700000016667e+000	 5.266639999985466e+000	 1.016460357676742e+001
0	 6.666700000016665e+000	 5.333299999983333e+000	 1.016169540145321e+001
0	 6.733360000014533e+000	 4.666700000016666e+000	 1.018183250214905e+001
0	 6.733360000014534e+000	 4.733360000014534e+000	 1.017958303713256e+001
0	 6.733360000014534e+000	 4.800020000011601e+000	 1.017729188183900e+001
0	 6.733360000014533e+000	 4.866680000008067e+000	 1.017495505471635e+001
0	 6.733360000014532e+000	 4.933340000004134e+000	 1.017256857421257e+001
0	 6.733360000014531e+000	 5.000000000000000e+000	 1.017012845877556e+001
0	 6.733360000014530e+000	 5.066659999995867e+000	 1.016763072685332e+001
0	 6.733360000014533e+000	 5.133319999991936e+000	 1.016507139689380e+001
0	 6.733360000014531e+000	 5.199979999988398e+000	 1.016244648734495e+001
0	 6.733360000014532e+000	 5.266639999985465e+000	 1.015975201665474e+001
0	 6.733360000014532e+000	 5.333299999983335e+000	 1.015698400327112e+001
0	 6.800020000011601e+000	 4.666700000016666e+000	 1.017571613155733e+001
0	 6.800020000011600e+000	 4.733360000014534e+000	 1.017361222361300e+001
0	 6.800020000011600e+000	 4.800020000011601e+000	 1.017146329608863e+001
0	 6.800020000011600e+000	 4.866680000008066e+000	 1.016926594094619e+001
0	 6.800020000011598e+000	 4.933340000004132e+000	 1.016701675014769e+001
0	 6.800020000011600e+000	 5.000000000000001e+000	 1.016471231565513e+001
0	 6.800020000011600e+000	 5.066659999995867e+000	 1.016234922943046e+001
0	 6.800020000011600e+000	 5.133319999991932e+000	 1.015992408343571e+001
0	 6.800020000011600e+000	 5.199979999988400e+000	 1.015743346963282e+001
0	 6.800020000011599e+000	 5.266639999985465e+000	 1.015487397998383e+001
0	 6.800020000011599e+000	 5.333299999983335e+000	 1.015224220645073e+001
0	 6.866680000008068e+000	 4.666700000016666e+000	 1.016959913119430e+001
0	 6.866680000008068e+000	 4.733360000014534e+000	 1.016763833388428e+001
0	 6.866680000008067e+000	 4.800020000011600e+000	 1.016562941890549e+001
0	 6.866680000008068e+000	 4.866680000008067e+000	 1.016356946644586e+001
0	 6.866680000008068e+000	 4.933340000004132e+000	 1.016145555669334e+001
0	 6.866680000008066e+000	 5.000000000000000e+000	 1.015928476983581e+001
0	 6.866680000008067e+000	 5.066659999995868e+000	 1.015705418606125e+001
0	 6.866680000008069e+000	 5.133319999991934e+000	 1.015476088555756e+001
0	 6.866680000008068e+000	 5.199979999988400e+000	 1.015240194851269e+001
0	 6.866680000008066e+000	 5.266639999985466e+000	 1.014997445511457e+001
0	 6.866680000008065e+000	 5.333299999983333e+000	 1.014747548555115e+001
0	 6.933340000004134e+000	 4.666700000016667e+000	 1.016348496458093e+001
0	 6.933340000004136e+000	 4.733360000014534e+000	 1.016166474747574e+001
0	 6.933340000004135e+000	 4.800020000011600e+000	 1.015979360918186e+001
0	 6.933340000004135e+000	 4.866680000008066e+000	 1.015786903282509e+001
0	 6.933340000004134e+000	 4.933340000004132e+000	 1.015588850153118e+001
0	 6.933340000004135e+000	 5.000000000000001e+000	 1.015384949842592e+001
0	 6.933340000004136e+000	 5.066659999995867e+000	 1.015174950663506e+001
0	 6.933340000004134e+000	 5.133319999991934e+000	 1.014958600928441e+001
0	 6.933340000004135e+000	 5.199979999988399e+000	 1.014735648949973e+001
0	 6.933340000004135e+000	 5.266639999985467e+000	 1.014505843040683e+001
0	 6.933340000004137e+000	 5.333299999983333e+000	 1.014268931513148e+001
0	 7.000000000000002e+000	 4.666700000016666e+000	 1.015737709523812e+001
0	 7.000000000000002e+000	 4.733360000014534e+000	 1.015569484391671e+001
0	 7.000000000000003e+000	 4.800020000011601e+000	 1.015395922581003e+001
0	 7.000000000000003e+000	 4.866680000008067e+000	 1.015216804169364e+001
0	 7.000000000000002e+000	 4.933340000004133e+000	 1.015031909234301e+001
0	 7.000000000000003e+000	 5.000000000000000e+000	 1.014841017853373e+001
0	 7.000000000000004e+000	 5.066659999995867e+000	 1.014643910104129e+001
0	 7.000000000000003e+000	 5.133319999991935e+000	 1.014440366064123e+001
0	 7.000000000000002e+000	 5.199979999988399e+000	 1.014230165810913e+001
0	 7.000000000000003e+000	 5.266639999985466e+000	 1.014013089422046e+001
0	 7.000000000000001e+000	 5.333299999983334e+000	 1.013788916975082e+001
0	 7.066659999995868e+000	 4.666700000016665e+000	 1.015127898668685e+001
0	 7.066659999995871e+000	 4.733360000014534e+000	 1.014973200273654e+001
0	 7.066659999995871e+000	 4.800020000011600e+000	 1.014812962768225e+001
0	 7.066659999995870e+000	 4.866680000008066e+000	 1.014646989466121e+001
0	 7.066659999995871e+000	 4.933340000004133e+000	 1.014475083681059e+001
0	 7.066659999995870e+000	 5.000000000000001e+000	 1.014297048726755e+001
0	 7.066659999995870e+000	 5.066659999995867e+000	 1.014112687916932e+001
0	 7.066659999995869e+000	 5.133319999991934e+000	 1.013921804565306e+001
0	 7.066659999995871e+000	 5.199979999988400e+000	 1.013724201985600e+001
0	 7.066659999995870e+000	 5.266639999985465e+000	 1.013519683491534e+001
0	 7.066659999995871e+000	 5.333299999983334e+000	 1.013308052396826e+001
0	 7.133319999991937e+000	 4.666700000016666e+000	 1.014519410244806e+001
0	 7.133319999991938e+000	 4.733360000014534e+000	 1.014377960346457e+001
0	 7.133319999991937e+000	 4.800020000011599e+000	 1.014230817369083e+001
0	 7.133319999991936e+000	 4.866680000008067e+000	 1.014077799333761e+001
0	 7.133319999991937e+000	 4.933340000004133e+000	 1.013918724261563e+001
0	 7.133319999991938e+000	 4.999999999999999e+000	 1.013753410173569e+001
0	 7.133319999991937e+000	 5.066659999995867e+000	 1.013581675090852e+001
0	 7.133319999991937e+000	 5.133319999991933e+000	 1.013403337034489e+001
0	 7.133319999991937e+000	 5.199979999988400e+000	 1.013218214025556e+001
0	 7.133319999991936e+000	 5.266639999985467e+000	 1.013026124085131e+001
0	 7.133319999991937e+000	 5.333299999983334e+000	 1.012826885234291e+001
0	 7.199979999988404e+000	 4.666700000016667e+000	 1.013912590604267e+001
0	 7.199979999988403e+000	 4.733360000014532e+000	 1.013784102563012e+001
0	 7.199979999988404e+000	 4.800020000011600e+000	 1.013649822272800e+001
0	 7.199979999988404e+000	 4.866680000008067e+000	 1.013509573933252e+001
0	 7.199979999988404e+000	 4.933340000004134e+000	 1.013363181743994e+001
0	 7.199979999988405e+000	 5.000000000000002e+000	 1.013210469904644e+001
0	 7.199979999988405e+000	 5.066659999995866e+000	 1.013051262614829e+001
0	 7.199979999988404e+000	 5.133319999991932e+000	 1.012885384074173e+001
0	 7.199979999988404e+000	 5.199979999988400e+000	 1.012712658482297e+001
0	 7.199979999988402e+000	 5.266639999985464e+000	 1.012532910038825e+001
0	 7.199979999988403e+000	 5.333299999983334e+000	 1.012345962943386e+001
0	 7.266639999985472e+000	 4.666700000016665e+000	 1.013307786099165e+001
0	 7.266639999985471e+000	 4.733360000014533e+000	 1.013191964876256e+001
0	 7.266639999985471e+000	 4.800020000011601e+000	 1.013070313368606e+001
0	 7.266639999985471e+000	 4.866680000008066e+000	 1.012942653425575e+001
0	 7.266639999985472e+000	 4.933340000004134e+000	 1.012808806896523e+001
0	 7.266639999985471e+000	 5.000000000000001e+000	 1.012668595630813e+001
0	 7.266639999985472e+000	 5.066659999995866e+000	 1.012521841477803e+001
0	 7.266639999985471e+000	 5.133319999991932e+000	 1.012368366286857e+001
0	 7.266639999985472e+000	 5.199979999988399e+000	 1.012207991907338e+001
0	 7.266639999985470e+000	 5.266639999985465e+000	 1.012040540188603e+001
0	 7.266639999985471e+000	 5.333299999983334e+000	 1.011865832980020e+001
0	 7.333299999983333e+000	 4.666700000016665e+000	 1.012705343081592e+001
0	 7.333299999983334e+000	 4.733360000014534e+000	 1.012601885239122e+001
0	 7.333299999983334e+000	 4.800020000011601e+000	 1.012492626545728e+001
0	 7.333299999983334e+000	 4.866680000008066e+000	 1.012377377971699e+001
0	 7.333299999983334e+000	 4.933340000004134e+000	 1.012255950487328e+001
0	 7.333299999983335e+000	 5.000000000000000e+000	 1.012128155062900e+001
0	 7.333299999983335e+000	 5.066659999995866e+000	 1.011993802668710e+001
0	 7.333299999983334e+000	 5.133319999991932e+000	 1.011852704275045e+001
0	 7.333299999983334e+000	 5.199979999988400e+000	 1.011704670852194e+001
0	 7.333299999983334e+000	 5.266639999985465e+000	 1.011549513370451e+001
0	 7.333299999983334e+000	 5.333299999983333e+000	 1.011387042800106e+001
0	 6.666700000016665e+000	 5.333299999983333e+000	 1.016169540145321e+001
0	 6.666700000016666e+000	 5.399969999982151e+000	 1.015874277997943e+001
0	 6.666700000016668e+000	 5.466639999981865e+000	 1.015577840870332e+001
0	 6.666700000016666e+000	 5.533309999982381e+000	 1.015279906067062e+001
0	 6.666700000016665e+000	 5.599979999983598e+000	 1.014980150892711e+001
0	 6.666700000016667e+000	 5.666649999985415e+000	 1.014678252651854e+001
0	 6.666700000016666e+000	 5.733319999987731e+000	 1.014373888649067e+001
0	 6.666700000016666e+000	 5.799989999990448e+000	 1.014066736188928e+001
0	 6.666700000016665e+000	 5.866659999993465e+000	 1.013756472576014e+001
0	 6.666700000016666e+000	 5.933329999996682e+000	 1.013442775114898e+001
0	 6.666700000016667e+000	 6.000000000000002e+000	 1.013125321110156e+001
0	 6.733360000014532e+000	 5.333299999983335e+000	 1.015698400327111e+001
0	 6.733360000014533e+000	 5.399969999982151e+000	 1.015417167697881e+001
0	 6.733360000014533e+000	 5.466639999981865e+000	 1.015134554987012e+001
0	 6.733360000014533e+000	 5.533309999982382e+000	 1.014850230097771e+001
0	 6.733360000014531e+000	 5.599979999983598e+000	 1.014563860933426e+001
0	 6.733360000014533e+000	 5.666649999985416e+000	 1.014275115397241e+001
0	 6.733360000014531e+000	 5.733319999987731e+000	 1.013983661392486e+001
0	 6.733360000014534e+000	 5.799989999990450e+000	 1.013689166822430e+001
0	 6.733360000014532e+000	 5.866659999993464e+000	 1.013391299590336e+001
0	 6.733360000014533e+000	 5.933329999996682e+000	 1.013089727599473e+001
0	 6.733360000014532e+000	 5.999999999999999e+000	 1.012784118753107e+001
0	 6.800020000011599e+000	 5.333299999983335e+000	 1.015224220645073e+001
0	 6.800020000011600e+000	 5.399969999982150e+000	 1.014956612428526e+001
0	 6.800020000011598e+000	 5.466639999981863e+000	 1.014687452647666e+001
0	 6.800020000011600e+000	 5.533309999982384e+000	 1.014416403039985e+001
0	 6.800020000011599e+000	 5.599979999983598e+000	 1.014143125342975e+001
0	 6.800020000011600e+000	 5.666649999985415e+000	 1.013867281294128e+001
0	 6.800020000011600e+000	 5.733319999987732e+000	 1.013588532630937e+001
0	 6.800020000011600e+000	 5.799989999990449e+000	 1.013306541090894e+001
0	 6.800020000011601e+000	 5.866659999993465e+000	 1.013020968411491e+001
0	 6.800020000011601e+000	 5.933329999996681e+000	 1.012731476330219e+001
0	 6.800020000011601e+000	 6.000000000000002e+000	 1.012437726584571e+001
0	 6.866680000008065e+000	 5.333299999983333e+000	 1.014747548555115e+001
0	 6.866680000008066e+000	 5.399969999982150e+000	 1.014493207759892e+001
0	 6.866680000008065e+000	 5.466639999981865e+000	 1.014237170173775e+001
0	 6.866680000008067e+000	 5.533309999982384e+000	 1.013979094604018e+001
0	 6.866680000008065e+000	 5.599979999983599e+000	 1.013718639857873e+001
0	 6.866680000008068e+000	 5.666649999985415e+000	 1.013455464742589e+001
0	 6.866680000008069e+000	 5.733319999987731e+000	 1.013189228065421e+001
0	 6.866680000008068e+000	 5.799989999990449e+000	 1.012919588633619e+001
0	 6.866680000008066e+000	 5.866659999993466e+000	 1.012646205254436e+001
0	 6.866680000008067e+000	 5.933329999996682e+000	 1.012368736735120e+001
0	 6.866680000008066e+000	 6.000000000000001e+000	 1.012086841882925e+001
0	 6.933340000004137e+000	 5.333299999983333e+000	 1.014268931513148e+001
0	 6.933340000004135e+000	 5.399969999982149e+000	 1.014027549261987e+001
0	 6.933340000004135e+000	 5.466639999981864e+000	 1.013784343886816e+001
0	 6.933340000004131e+000	 5.533309999982379e+000	 1.013538974500178e+001
0	 6.933340000004134e+000	 5.599979999983599e+000	 1.013291100214626e+001
0	 6.933340000004133e+000	 5.666649999985416e+000	 1.013040380142697e+001
0	 6.933340000004134e+000	 5.733319999987732e+000	 1.012786473396942e+001
0	 6.933340000004132e+000	 5.799989999990446e+000	 1.012529039089903e+001
0	 6.933340000004135e+000	 5.866659999993465e+000	 1.012267736334126e+001
0	 6.933340000004135e+000	 5.933329999996682e+000	 1.012002224242157e+001
0	 6.933340000004135e+000	 5.999999999999999e+000	 1.011732161926541e+001
0	 7.000000000000001e+000	 5.333299999983334e+000	 1.013788916975082e+001
0	 7.000000000000003e+000	 5.399969999982150e+000	 1.013560232504825e+001
0	 7.000000000000002e+000	 5.466639999981865e+000	 1.013329610108268e+001
0	 7.000000000000001e+000	 5.533309999982382e+000	 1.013096712438784e+001
0	 7.000000000000001e+000	 5.599979999983598e+000	 1.012861202149747e+001
0	 7.000000000000002e+000	 5.666649999985414e+000	 1.012622741894528e+001
0	 7.000000000000001e+000	 5.733319999987731e+000	 1.012380994326502e+001
0	 7.000000000000000e+000	 5.799989999990448e+000	 1.012135622099042e+001
0	 7.000000000000003e+000	 5.866659999993464e+000	 1.011886287865522e+001
0	 7.000000000000002e+000	 5.933329999996682e+000	 1.011632654279312e+001
0	 7.000000000000004e+000	 6.000000000000001e+000	 1.011374383993789e+001
0	 7.066659999995871e+000	 5.333299999983334e+000	 1.013308052396826e+001
0	 7.066659999995870e+000	 5.399969999982150e+000	 1.013091853058418e+001
0	 7.066659999995870e+000	 5.466639999981865e+000	 1.012873605159614e+001
0	 7.066659999995869e+000	 5.533309999982382e+000	 1.012652978130142e+001
0	 7.066659999995869e+000	 5.599979999983598e+000	 1.012429641399745e+001
0	 7.066659999995871e+000	 5.666649999985415e+000	 1.012203264398154e+001
0	 7.066659999995868e+000	 5.733319999987731e+000	 1.011973516555105e+001
0	 7.066659999995870e+000	 5.799989999990448e+000	 1.011740067300335e+001
0	 7.066659999995869e+000	 5.866659999993465e+000	 1.011502586063577e+001
0	 7.066659999995869e+000	 5.933329999996680e+000	 1.011260742274570e+001
0	 7.066659999995870e+000	 5.999999999999998e+000	 1.011014205363046e+001
0	 7.133319999991937e+000	 5.333299999983334e+000	 1.012826885234290e+001
0	 7.133319999991937e+000	 5.399969999982149e+000	 1.012623006492779e+001
0	 7.133319999991937e+000	 5.466639999981867e+000	 1.012416965362329e+001
0	 7.133319999991937e+000	 5.533309999982382e+000	 1.012208441284570e+001
0	 7.133319999991937e+000	 5.599979999983599e+000	 1.011997113701131e+001
0	 7.133319999991937e+000	 5.666649999985415e+000	 1.011782662053649e+001
0	 7.133319999991937e+000	 5.733319999987732e+000	 1.011564765783754e+001
0	 7.133319999991936e+000	 5.799989999990449e+000	 1.011343104333079e+001
0	 7.133319999991938e+000	 5.866659999993464e+000	 1.011117357143253e+001
0	 7.133319999991937e+000	 5.933329999996681e+000	 1.010887203655911e+001
0	 7.133319999991937e+000	 6.000000000000000e+000	 1.010652323312681e+001
0	 7.199979999988403e+000	 5.333299999983334e+000	 1.012345962943386e+001
0	 7.199979999988402e+000	 5.399969999982148e+000	 1.012154288377920e+001
0	 7.199979999988405e+000	 5.466639999981866e+000	 1.011960327037894e+001
0	 7.199979999988405e+000	 5.533309999982381e+000	 1.011763771612374e+001
0	 7.199979999988405e+000	 5.599979999983598e+000	 1.011564314790417e+001
0	 7.199979999988404e+000	 5.666649999985414e+000	 1.011361649261089e+001
0	 7.199979999988405e+000	 5.733319999987733e+000	 1.011155467713453e+001
0	 7.199979999988404e+000	 5.799989999990448e+000	 1.010945462836571e+001
0	 7.199979999988403e+000	 5.866659999993465e+000	 1.010731327319506e+001
0	 7.199979999988405e+000	 5.933329999996682e+000	 1.010512753851319e+001
0	 7.199979999988403e+000	 6.000000000000001e+000	 1.010289435121074e+001
0	 7.266639999985471e+000	 5.333299999983334e+000	 1.011865832980021e+001
0	 7.266639999985471e+000	 5.399969999982151e+000	 1.011686294283851e+001
0	 7.266639999985471e+000	 5.466639999981866e+000	 1.011504326507792e+001
0	 7.266639999985472e+000	 5.533309999982383e+000	 1.011319638823868e+001
0	 7.266639999985472e+000	 5.599979999983598e+000	 1.011131940404112e+001
0	 7.266639999985471e+000	 5.666649999985416e+000	 1.010940940420548e+001
0	 7.266639999985471e+000	 5.733319999987733e+000	 1.010746348045205e+001
0	 7.266639999985470e+000	 5.799989999990447e+000	 1.010547872450109e+001
0	 7.266639999985472e+000	 5.866659999993464e+000	 1.010345222807291e+001
0	 7.266639999985470e+000	 5.933329999996682e+000	 1.010138108288775e+001
0	 7.266639999985472e+000	 6.000000000000002e+000	 1.009926238066591e+001
0	 7.333299999983334e+000	 5.333299999983333e+000	 1.011387042800106e+001
0	 7.333299999983333e+000	 5.399969999982149e+000	 1.011219619780586e+001
0	 7.333299999983333e+000	 5.466639999981867e+000	 1.011049600093497e+001
0	 7.333299999983334e+000	 5.533309999982382e+000	 1.010876712629370e+001
0	 7.333299999983335e+000	 5.599979999983599e+000	 1.010700686278728e+001
0	 7.333299999983334e+000	 5.666649999985415e+000	 1.010521249932098e+001
0	 7.333299999983335e+000	 5.733319999987731e+000	 1.010338132480010e+001
0	 7.333299999983336e+000	 5.799989999990447e+000	 1.010151062812992e+001
0	 7.333299999983333e+000	 5.866659999993465e+000	 1.009959769821568e+001
0	 7.333299999983334e+000	 5.933329999996682e+000	 1.009763982396264e+001
0	 7.333299999983333e+000	 6.000000000000001e+000	 1.009563429427610e+001
0	 6.666700000016667e+000	 6.000000000000002e+000	 1.013125321110156e+001
0	 6.666700000016666e+000	 6.066670000003318e+000	 1.012806915471077e+001
0	 6.666700000016665e+000	 6.133340000006531e+000	 1.012490372640163e+001
0	 6.666700000016667e+000	 6.200010000009552e+000	 1.012175384221821e+001
0	 6.666700000016666e+000	 6.266680000012267e+000	 1.011861641820458e+001
0	 6.666700000016667e+000	 6.333350000014582e+000	 1.011548837040477e+001
0	 6.666700000016666e+000	 6.400020000016400e+000	 1.011236661486284e+001
0	 6.666700000016667e+000	 6.466690000017616e+000	 1.010924806762285e+001
0	 6.666700000016665e+000	 6.533360000018131e+000	 1.010612964472886e+001
0	 6.666700000016665e+000	 6.600030000017847e+000	 1.010300826222491e+001
0	 6.666700000016667e+000	 6.666700000016667e+000	 1.009988083615506e+001
0	 6.733360000014532e+000	 5.999999999999999e+000	 1.012784118753107e+001
0	 6.733360000014533e+000	 6.066670000003316e+000	 1.012477284528293e+001
0	 6.733360000014533e+000	 6.133340000006534e+000	 1.012172059337419e+001
0	 6.733360000014532e+000	 6.200010000009550e+000	 1.011868145486746e+001
0	 6.733360000014533e+000	 6.266680000012268e+000	 1.011565245282538e+001
0	 6.733360000014533e+000	 6.333350000014582e+000	 1.011263061031056e+001
0	 6.733360000014533e+000	 6.400020000016399e+000	 1.010961295038562e+001
0	 6.733360000014533e+000	 6.466690000017616e+000	 1.010659649611320e+001
0	 6.733360000014533e+000	 6.533360000018130e+000	 1.010357827055593e+001
0	 6.733360000014533e+000	 6.600030000017850e+000	 1.010055529677643e+001
0	 6.733360000014532e+000	 6.666700000016668e+000	 1.009752459783732e+001
0	 6.800020000011601e+000	 6.000000000000002e+000	 1.012437726584571e+001
0	 6.800020000011601e+000	 6.066670000003317e+000	 1.012142507674784e+001
0	 6.800020000011601e+000	 6.133340000006532e+000	 1.011848641881296e+001
0	 6.800020000011602e+000	 6.200010000009551e+000	 1.011555841611910e+001
0	 6.800020000011600e+000	 6.266680000012266e+000	 1.011263819274422e+001
0	 6.800020000011599e+000	 6.333350000014582e+000	 1.010972287276634e+001
0	 6.800020000011601e+000	 6.400020000016400e+000	 1.010680958026343e+001
0	 6.800020000011601e+000	 6.466690000017617e+000	 1.010389543931349e+001
0	 6.800020000011601e+000	 6.533360000018133e+000	 1.010097757399455e+001
0	 6.800020000011597e+000	 6.600030000017845e+000	 1.009805310838454e+001
0	 6.800020000011600e+000	 6.666700000016667e+000	 1.009511916656151e+001
0	 6.866680000008066e+000	 6.000000000000001e+000	 1.012086841882925e+001
0	 6.866680000008065e+000	 6.066670000003315e+000	 1.011803261362924e+001
0	 6.866680000008066e+000	 6.133340000006532e+000	 1.011520777908032e+001
0	 6.866680000008067e+000	 6.200010000009550e+000	 1.011239113427262e+001
0	 6.866680000008066e+000	 6.266680000012266e+000	 1.010957989829637e+001
0	 6.866680000008067e+000	 6.333350000014585e+000	 1.010677129024167e+001
0	 6.866680000008067e+000	 6.400020000016399e+000	 1.010396252919872e+001
0	 6.866680000008065e+000	 6.466690000017616e+000	 1.010115083425765e+001
0	 6.866680000008066e+000	 6.533360000018131e+000	 1.009833342450866e+001
0	 6.866680000008066e+000	 6.600030000017847e+000	 1.009550751904187e+001
0	 6.866680000008066e+000	 6.666700000016667e+000	 1.009267033694747e+001
0	 6.933340000004135e+000	 5.999999999999999e+000	 1.011732161926541e+001
0	 6.933340000004134e+000	 6.066670000003316e+000	 1.011460222045087e+001
0	 6.933340000004134e+000	 6.133340000006533e+000	 1.011189125053855e+001
0	 6.933340000004135e+000	 6.200010000009551e+000	 1.010918601762757e+001
0	 6.933340000004134e+000	 6.266680000012267e+000	 1.010648382981708e+001
0	 6.933340000004137e+000	 6.333350000014583e+000	 1.010378199520616e+001
0	 6.933340000004133e+000	 6.400020000016399e+000	 1.010107782189398e+001
0	 6.933340000004136e+000	 6.466690000017616e+000	 1.009836861797962e+001
0	 6.933340000004135e+000	 6.533360000018132e+000	 1.009565169156226e+001
0	 6.933340000004134e+000	 6.600030000017849e+000	 1.009292435074098e+001
0	 6.933340000004135e+000	 6.666700000016667e+000	 1.009018390361494e+001
0	 7.000000000000004e+000	 6.000000000000001e+000	 1.011374383993789e+001
0	 7.000000000000000e+000	 6.066670000003314e+000	 1.011114066173650e+001
0	 7.000000000000002e+000	 6.133340000006533e+000	 1.010854340955006e+001
0	 7.000000000000002e+000	 6.200010000009550e+000	 1.010594947448347e+001
0	 7.000000000000001e+000	 6.266680000012265e+000	 1.010335624764159e+001
0	 7.000000000000003e+000	 6.333350000014583e+000	 1.010076112012937e+001
0	 7.000000000000003e+000	 6.400020000016400e+000	 1.009816148305164e+001
0	 7.000000000000001e+000	 6.466690000017616e+000	 1.009555472751332e+001
0	 7.000000000000003e+000	 6.533360000018133e+000	 1.009293824461931e+001
0	 7.000000000000001e+000	 6.600030000017847e+000	 1.009030942547447e+001
0	 7.000000000000002e+000	 6.666700000016666e+000	 1.008766566118372e+001
0	 7.066659999995870e+000	 5.999999999999998e+000	 1.011014205363046e+001
0	 7.066659999995870e+000	 6.066670000003317e+000	 1.010765470200987e+001
0	 7.066659999995870e+000	 6.133340000006534e+000	 1.010517083247715e+001
0	 7.066659999995869e+000	 6.200010000009550e+000	 1.010268791313978e+001
0	 7.066659999995869e+000	 6.266680000012266e+000	 1.010020341210521e+001
0	 7.066659999995871e+000	 6.333350000014584e+000	 1.009771479748086e+001
0	 7.066659999995869e+000	 6.400020000016399e+000	 1.009521953737421e+001
0	 7.066659999995870e+000	 6.466690000017616e+000	 1.009271509989269e+001
0	 7.066659999995869e+000	 6.533360000018132e+000	 1.009019895314379e+001
0	 7.066659999995868e+000	 6.600030000017847e+000	 1.008766856523492e+001
0	 7.066659999995869e+000	 6.666700000016667e+000	 1.008512140427356e+001
0	 7.133319999991937e+000	 6.000000000000000e+000	 1.010652323312681e+001
0	 7.133319999991937e+000	 6.066670000003318e+000	 1.010415110579473e+001
0	 7.133319999991937e+000	 6.133340000006534e+000	 1.010178009568222e+001
0	 7.133319999991937e+000	 6.200010000009550e+000	 1.009940774189607e+001
0	 7.133319999991937e+000	 6.266680000012268e+000	 1.009703158354315e+001
0	 7.133319999991937e+000	 6.333350000014583e+000	 1.009464915973023e+001
0	 7.133319999991937e+000	 6.400020000016402e+000	 1.009225800956412e+001
0	 7.133319999991938e+000	 6.466690000017617e+000	 1.008985567215168e+001
0	 7.133319999991937e+000	 6.533360000018132e+000	 1.008743968659966e+001
0	 7.133319999991937e+000	 6.600030000017849e+000	 1.008500759201493e+001
0	 7.133319999991937e+000	 6.666700000016665e+000	 1.008255692750429e+001
0	 7.199979999988403e+000	 6.000000000000001e+000	 1.010289435121074e+001
0	 7.199979999988403e+000	 6.066670000003315e+000	 1.010063663761484e+001
0	 7.199979999988404e+000	 6.133340000006533e+000	 1.009837777552755e+001
0	 7.199979999988404e+000	 6.200010000009550e+000	 1.009611536905182e+001
0	 7.199979999988405e+000	 6.266680000012266e+000	 1.009384702229067e+001
0	 7.199979999988404e+000	 6.333350000014585e+000	 1.009157033934703e+001
0	 7.199979999988404e+000	 6.400020000016397e+000	 1.008928292432388e+001
0	 7.199979999988405e+000	 6.466690000017617e+000	 1.008698238132418e+001
0	 7.199979999988402e+000	 6.533360000018131e+000	 1.008466631445094e+001
0	 7.199979999988406e+000	 6.600030000017848e+000	 1.008233232780709e+001
0	 7.199979999988403e+000	 6.666700000016665e+000	 1.007997802549561e+001
0	 7.266639999985472e+000	 6.000000000000002e+000	 1.009926238066591e+001
0	 7.266639999985470e+000	 6.066670000003316e+000	 1.009711806199395e+001
0	 7.266639999985470e+000	 6.133340000006533e+000	 1.009497044837553e+001
0	 7.266639999985470e+000	 6.200010000009550e+000	 1.009281720290658e+001
0	 7.266639999985471e+000	 6.266680000012267e+000	 1.009065598868305e+001
0	 7.266639999985472e+000	 6.333350000014584e+000	 1.008848446880085e+001
0	 7.266639999985472e+000	 6.400020000016400e+000	 1.008630030635590e+001
0	 7.266639999985473e+000	 6.466690000017617e+000	 1.008410116444416e+001
0	 7.266639999985472e+000	 6.533360000018132e+000	 1.008188470616153e+001
0	 7.266639999985471e+000	 6.600030000017849e+000	 1.007964859460397e+001
0	 7.266639999985470e+000	 6.666700000016665e+000	 1.007739049286736e+001
0	 7.333299999983333e+000	 6.000000000000001e+000	 1.009563429427610e+001
0	 7.333299999983333e+000	 6.066670000003316e+000	 1.009360214345581e+001
0	 7.333299999983332e+000	 6.133340000006531e+000	 1.009156469058850e+001
0	 7.333299999983335e+000	 6.200010000009550e+000	 1.008951965175983e+001
0	 7.333299999983334e+000	 6.266680000012268e+000	 1.008746474305553e+001
0	 7.333299999983332e+000	 6.333350000014582e+000	 1.008539768056125e+001
0	 7.333299999983335e+000	 6.400020000016400e+000	 1.008331618036270e+001
0	 7.333299999983334e+000	 6.466690000017615e+000	 1.008121795854555e+001
0	 7.333299999983334e+000	 6.533360000018131e+000	 1.007910073119547e+001
0	 7.333299999983336e+000	 6.600030000017849e+000	 1.007696221439815e+001
0	 7.333299999983333e+000	 6.666700000016665e+000	 1.007480012423929e+001
0	 6.666700000016667e+000	 6.666700000016667e+000	 1.009988083615506e+001
0	 6.666700000016666e+000	 6.733360000014530e+000	 1.009676777881486e+001
0	 6.666700000016665e+000	 6.800020000011597e+000	 1.009368890942575e+001
0	 6.666700000016666e+000	 6.866680000008067e+000	 1.009064166351440e+001
0	 6.666700000016667e+000	 6.933340000004135e+000	 1.008762347660741e+001
0	 6.666700000016667e+000	 7.000000000000002e+000	 1.008463178423143e+001
0	 6.666700000016667e+000	 7.066659999995870e+000	 1.008166402191305e+001
0	 6.666700000016667e+000	 7.133319999991937e+000	 1.007871762517893e+001
0	 6.666700000016665e+000	 7.199979999988401e+000	 1.007579002955568e+001
0	 6.666700000016665e+000	 7.266639999985471e+000	 1.007287867056992e+001
0	 6.666700000016665e+000	 7.333299999983333e+000	 1.006998098374829e+001
0	 6.733360000014532e+000	 6.666700000016668e+000	 1.009752459783732e+001
0	 6.733360000014532e+000	 6.733360000014532e+000	 1.009450617263051e+001
0	 6.733360000014534e+000	 6.800020000011598e+000	 1.009151940503448e+001
0	 6.733360000014533e+000	 6.866680000008067e+000	 1.008856176152256e+001
0	 6.733360000014533e+000	 6.933340000004136e+000	 1.008563070856808e+001
0	 6.733360000014531e+000	 7.000000000000003e+000	 1.008272371264438e+001
0	 6.733360000014532e+000	 7.066659999995872e+000	 1.007983824022480e+001
0	 6.733360000014533e+000	 7.133319999991938e+000	 1.007697175778265e+001
0	 6.733360000014534e+000	 7.199979999988404e+000	 1.007412173179131e+001
0	 6.733360000014532e+000	 7.266639999985472e+000	 1.007128562872408e+001
0	 6.733360000014532e+000	 7.333299999983334e+000	 1.006846091505429e+001
0	 6.800020000011600e+000	 6.666700000016667e+000	 1.009511916656151e+001
0	 6.800020000011600e+000	 6.733360000014533e+000	 1.009219544079616e+001
0	 6.800020000011600e+000	 6.800020000011601e+000	 1.008930099150027e+001
0	 6.800020000011601e+000	 6.866680000008068e+000	 1.008643331773466e+001
0	 6.800020000011600e+000	 6.933340000004136e+000	 1.008358991856014e+001
0	 6.800020000011599e+000	 7.000000000000004e+000	 1.008076829303750e+001
0	 6.800020000011601e+000	 7.066659999995869e+000	 1.007796594022756e+001
0	 6.800020000011600e+000	 7.133319999991937e+000	 1.007518035919112e+001
0	 6.800020000011599e+000	 7.199979999988404e+000	 1.007240904898900e+001
0	 6.800020000011599e+000	 7.266639999985471e+000	 1.006964950868198e+001
0	 6.800020000011599e+000	 7.333299999983333e+000	 1.006689923733089e+001
0	 6.866680000008066e+000	 6.666700000016667e+000	 1.009267033694747e+001
0	 6.866680000008066e+000	 6.733360000014532e+000	 1.008984135170585e+001
0	 6.866680000008067e+000	 6.800020000011601e+000	 1.008703939318181e+001
0	 6.866680000008065e+000	 6.866680000008066e+000	 1.008426199466438e+001
0	 6.866680000008066e+000	 6.933340000004135e+000	 1.008150668944259e+001
0	 6.866680000008066e+000	 7.000000000000001e+000	 1.007877101080552e+001
0	 6.866680000008067e+000	 7.066659999995870e+000	 1.007605249204218e+001
0	 6.866680000008066e+000	 7.133319999991937e+000	 1.007334866644163e+001
0	 6.866680000008069e+000	 7.199979999988407e+000	 1.007065706729290e+001
0	 6.866680000008067e+000	 7.266639999985473e+000	 1.006797522788503e+001
0	 6.866680000008065e+000	 7.333299999983332e+000	 1.006530068150704e+001
0	 6.933340000004135e+000	 6.666700000016667e+000	 1.009018390361494e+001
0	 6.933340000004136e+000	 6.733360000014534e+000	 1.008744967375362e+001
0	 6.933340000004136e+000	 6.800020000011601e+000	 1.008474033443774e+001
0	 6.933340000004132e+000	 6.866680000008065e+000	 1.008205345482536e+001
0	 6.933340000004133e+000	 6.933340000004134e+000	 1.007938660407452e+001
0	 6.933340000004136e+000	 7.000000000000004e+000	 1.007673735134323e+001
0	 6.933340000004135e+000	 7.066659999995869e+000	 1.007410326578956e+001
0	 6.933340000004136e+000	 7.133319999991937e+000	 1.007148191657153e+001
0	 6.933340000004135e+000	 7.199979999988404e+000	 1.006887087284720e+001
0	 6.933340000004132e+000	 7.266639999985470e+000	 1.006626770377457e+001
0	 6.933340000004136e+000	 7.333299999983336e+000	 1.006366997851172e+001
0	 7.000000000000002e+000	 6.666700000016666e+000	 1.008766566118372e+001
0	 7.000000000000002e+000	 6.733360000014532e+000	 1.008502617533351e+001
0	 7.000000000000002e+000	 6.800020000011600e+000	 1.008240953962676e+001
0	 7.000000000000002e+000	 6.866680000008067e+000	 1.007981336073130e+001
0	 7.000000000000001e+000	 6.933340000004134e+000	 1.007723524531491e+001
0	 7.000000000000004e+000	 7.000000000000003e+000	 1.007467280004537e+001
0	 7.000000000000001e+000	 7.066659999995869e+000	 1.007212363159051e+001
0	 7.000000000000002e+000	 7.133319999991936e+000	 1.006958534661813e+001
0	 7.000000000000003e+000	 7.199979999988405e+000	 1.006705555179604e+001
0	 7.000000000000002e+000	 7.266639999985471e+000	 1.006453185379201e+001
0	 7.000000000000000e+000	 7.333299999983333e+000	 1.006201185927387e+001
0	 7.066659999995869e+000	 6.666700000016667e+000	 1.008512140427356e+001
0	 7.066659999995872e+000	 6.733360000014533e+000	 1.008257662483956e+001
0	 7.066659999995871e+000	 6.800020000011601e+000	 1.008005273310752e+001
0	 7.066659999995870e+000	 6.866680000008067e+000	 1.007754737489583e+001
0	 7.066659999995869e+000	 6.933340000004135e+000	 1.007505819602278e+001
0	 7.066659999995870e+000	 7.000000000000003e+000	 1.007258284230670e+001
0	 7.066659999995868e+000	 7.066659999995869e+000	 1.007011895956594e+001
0	 7.066659999995870e+000	 7.133319999991937e+000	 1.006766419361882e+001
0	 7.066659999995869e+000	 7.199979999988404e+000	 1.006521619028363e+001
0	 7.066659999995869e+000	 7.266639999985472e+000	 1.006277259537873e+001
0	 7.066659999995869e+000	 7.333299999983334e+000	 1.006033105472243e+001
0	 7.133319999991937e+000	 6.666700000016665e+000	 1.008255692750429e+001
0	 7.133319999991938e+000	 6.733360000014534e+000	 1.008010679066576e+001
0	 7.133319999991937e+000	 6.800020000011601e+000	 1.007767563923866e+001
0	 7.133319999991934e+000	 6.866680000008065e+000	 1.007526115983261e+001
0	 7.133319999991936e+000	 6.933340000004134e+000	 1.007286103905717e+001
0	 7.133319999991937e+000	 7.000000000000003e+000	 1.007047296352200e+001
0	 7.133319999991937e+000	 7.066659999995869e+000	 1.006809461983669e+001
0	 7.133319999991937e+000	 7.133319999991937e+000	 1.006572369461087e+001
0	 7.133319999991937e+000	 7.199979999988404e+000	 1.006335787445414e+001
0	 7.133319999991937e+000	 7.266639999985472e+000	 1.006099484597610e+001
0	 7.133319999991935e+000	 7.333299999983332e+000	 1.005863229578639e+001
0	 7.199979999988403e+000	 6.666700000016665e+000	 1.007997802549561e+001
0	 7.199979999988404e+000	 6.733360000014534e+000	 1.007762244120621e+001
0	 7.199979999988403e+000	 6.800020000011600e+000	 1.007528398237890e+001
0	 7.199979999988405e+000	 6.866680000008069e+000	 1.007296037805530e+001
0	 7.199979999988404e+000	 6.933340000004135e+000	 1.007064935727712e+001
0	 7.199979999988403e+000	 7.000000000000002e+000	 1.006834864908601e+001
0	 7.199979999988403e+000	 7.066659999995869e+000	 1.006605598252361e+001
0	 7.199979999988404e+000	 7.133319999991937e+000	 1.006376908663164e+001
0	 7.199979999988403e+000	 7.199979999988404e+000	 1.006148569045170e+001
0	 7.199979999988403e+000	 7.266639999985471e+000	 1.005920352302550e+001
0	 7.199979999988403e+000	 7.333299999983334e+000	 1.005692031339470e+001
0	 7.266639999985470e+000	 6.666700000016665e+000	 1.007739049286736e+001
0	 7.266639999985470e+000	 6.733360000014533e+000	 1.007512934485492e+001
0	 7.266639999985471e+000	 6.800020000011599e+000	 1.007288348688682e+001
0	 7.266639999985471e+000	 6.866680000008066e+000	 1.007065069207758e+001
0	 7.266639999985470e+000	 6.933340000004131e+000	 1.006842873354165e+001
0	 7.266639999985470e+000	 7.000000000000002e+000	 1.006621538439349e+001
0	 7.266639999985472e+000	 7.066659999995870e+000	 1.006400841774759e+001
0	 7.266639999985471e+000	 7.133319999991937e+000	 1.006180560671845e+001
0	 7.266639999985471e+000	 7.199979999988403e+000	 1.005960472442053e+001
0	 7.266639999985470e+000	 7.266639999985471e+000	 1.005740354396830e+001
0	 7.266639999985472e+000	 7.333299999983334e+000	 1.005519983847626e+001
0	 7.333299999983333e+000	 6.666700000016665e+000	 1.007480012423929e+001
0	 7.333299999983335e+000	 6.733360000014532e+000	 1.007263327000593e+001
0	 7.333299999983334e+000	 6.800020000011601e+000	 1.007047987712117e+001
0	 7.333299999983333e+000	 6.866680000008065e+000	 1.006833776441310e+001
0	 7.333299999983335e+000	 6.933340000004135e+000	 1.006620475070974e+001
0	 7.333299999983334e+000	 7.000000000000001e+000	 1.006407865483918e+001
0	 7.333299999983334e+000	 7.066659999995871e+000	 1.006195729562946e+001
0	 7.333299999983333e+000	 7.133319999991936e+000	 1.005983849190863e+001
0	 7.333299999983334e+000	 7.199979999988404e+000	 1.005772006250476e+001
0	 7.333299999983334e+000	 7.266639999985473e+000	 1.005559982624590e+001
0	 7.333299999983334e+000	 7.333299999983334e+000	 1.005347560196010e+001
0	 6.666700000016665e+000	 7.333299999983333e+000	 1.006998098374829e+001
0	 6.666700000016666e+000	 7.399969999982150e+000	 1.006711451445664e+001
0	 6.666700000016667e+000	 7.466639999981866e+000	 1.006429768405916e+001
0	 6.666700000016668e+000	 7.533309999982382e+000	 1.006152794068227e+001
0	 6.666700000016665e+000	 7.599979999983598e+000	 1.005880273245247e+001
0	 6.666700000016667e+000	 7.666649999985416e+000	 1.005611950749614e+001
0	 6.666700000016665e+000	 7.733319999987731e+000	 1.005347571393977e+001
0	 6.666700000016665e+000	 7.799989999990446e+000	 1.005086879990979e+001
0	 6.666700000016664e+000	 7.866659999993463e+000	 1.004829621353268e+001
0	 6.666700000016666e+000	 7.933329999996682e+000	 1.004575540293484e+001
0	 6.666700000016666e+000	 7.999999999999999e+000	 1.004324381624276e+001
0	 6.733360000014532e+000	 7.333299999983334e+000	 1.006846091505429e+001
0	 6.733360000014534e+000	 7.399969999982150e+000	 1.006566542365446e+001
0	 6.733360000014532e+000	 7.466639999981866e+000	 1.006291782227133e+001
0	 6.733360000014534e+000	 7.533309999982384e+000	 1.006021556062419e+001
0	 6.733360000014533e+000	 7.599979999983600e+000	 1.005755608843222e+001
0	 6.733360000014534e+000	 7.666649999985416e+000	 1.005493685541472e+001
0	 6.733360000014534e+000	 7.733319999987733e+000	 1.005235531129091e+001
0	 6.733360000014534e+000	 7.799989999990450e+000	 1.004980890578005e+001
0	 6.733360000014533e+000	 7.866659999993464e+000	 1.004729508860137e+001
0	 6.733360000014531e+000	 7.933329999996677e+000	 1.004481130947414e+001
0	 6.733360000014532e+000	 7.999999999999998e+000	 1.004235501811760e+001
0	 6.800020000011599e+000	 7.333299999983333e+000	 1.006689923733089e+001
0	 6.800020000011598e+000	 7.399969999982149e+000	 1.006417624614136e+001
0	 6.800020000011600e+000	 7.466639999981867e+000	 1.006149934245731e+001
0	 6.800020000011601e+000	 7.533309999982382e+000	 1.005886598351170e+001
0	 6.800020000011600e+000	 7.599979999983598e+000	 1.005627362653742e+001
0	 6.800020000011600e+000	 7.666649999985415e+000	 1.005371972876740e+001
0	 6.800020000011600e+000	 7.733319999987731e+000	 1.005120174743458e+001
0	 6.800020000011600e+000	 7.799989999990447e+000	 1.004871713977185e+001
0	 6.800020000011601e+000	 7.866659999993465e+000	 1.004626336301214e+001
0	 6.800020000011601e+000	 7.933329999996680e+000	 1.004383787438840e+001
0	 6.800020000011601e+000	 8.000000000000004e+000	 1.004143813113351e+001
0	 6.866680000008065e+000	 7.333299999983332e+000	 1.006530068150705e+001
0	 6.866680000008067e+000	 7.399969999982150e+000	 1.006265152152874e+001
0	 6.866680000008066e+000	 7.466639999981864e+000	 1.006004660116892e+001
0	 6.866680000008065e+000	 7.533309999982381e+000	 1.005748339109509e+001
0	 6.866680000008067e+000	 7.599979999983599e+000	 1.005495936197471e+001
0	 6.866680000008067e+000	 7.666649999985415e+000	 1.005247198447525e+001
0	 6.866680000008068e+000	 7.733319999987732e+000	 1.005001872926417e+001
0	 6.866680000008068e+000	 7.799989999990449e+000	 1.004759706700899e+001
0	 6.866680000008066e+000	 7.866659999993464e+000	 1.004520446837714e+001
0	 6.866680000008066e+000	 7.933329999996680e+000	 1.004283840403611e+001
0	 6.866680000008067e+000	 8.000000000000000e+000	 1.004049634465342e+001
0	 6.933340000004136e+000	 7.333299999983336e+000	 1.006366997851172e+001
0	 6.933340000004133e+000	 7.399969999982150e+000	 1.006109578942799e+001
0	 6.933340000004134e+000	 7.466639999981865e+000	 1.005856395495799e+001
0	 6.933340000004132e+000	 7.533309999982381e+000	 1.005607196512459e+001
0	 6.933340000004134e+000	 7.599979999983598e+000	 1.005361730995072e+001
0	 6.933340000004135e+000	 7.666649999985416e+000	 1.005119747945927e+001
0	 6.933340000004133e+000	 7.733319999987729e+000	 1.004880996367317e+001
0	 6.933340000004134e+000	 7.799989999990447e+000	 1.004645225261531e+001
0	 6.933340000004136e+000	 7.866659999993466e+000	 1.004412183630858e+001
0	 6.933340000004136e+000	 7.933329999996682e+000	 1.004181620477592e+001
0	 6.933340000004135e+000	 7.999999999999999e+000	 1.003953284804022e+001
0	 7.000000000000000e+000	 7.333299999983333e+000	 1.006201185927387e+001
0	 7.000000000000002e+000	 7.399969999982150e+000	 1.005951358945053e+001
0	 7.000000000000003e+000	 7.466639999981866e+000	 1.005705576037633e+001
0	 7.000000000000003e+000	 7.533309999982382e+000	 1.005463588735046e+001
0	 7.000000000000000e+000	 7.599979999983596e+000	 1.005225148567214e+001
0	 7.000000000000002e+000	 7.666649999985416e+000	 1.004990007064059e+001
0	 7.000000000000001e+000	 7.733319999987732e+000	 1.004757915755501e+001
0	 7.000000000000002e+000	 7.799989999990448e+000	 1.004528626171463e+001
0	 7.000000000000002e+000	 7.866659999993464e+000	 1.004301889841867e+001
0	 7.000000000000001e+000	 7.933329999996681e+000	 1.004077458296630e+001
0	 7.000000000000004e+000	 8.000000000000002e+000	 1.003855083065680e+001
0	 7.066659999995869e+000	 7.333299999983334e+000	 1.006033105472243e+001
0	 7.066659999995869e+000	 7.399969999982152e+000	 1.005790946120775e+001
0	 7.066659999995870e+000	 7.466639999981867e+000	 1.005552637397580e+001
0	 7.066659999995869e+000	 7.533309999982381e+000	 1.005317933952294e+001
0	 7.066659999995869e+000	 7.599979999983597e+000	 1.005086590434561e+001
0	 7.066659999995870e+000	 7.666649999985414e+000	 1.004858361494020e+001
0	 7.066659999995868e+000	 7.733319999987732e+000	 1.004633001780312e+001
0	 7.066659999995869e+000	 7.799989999990446e+000	 1.004410265943076e+001
0	 7.066659999995869e+000	 7.866659999993464e+000	 1.004189908631955e+001
0	 7.066659999995868e+000	 7.933329999996681e+000	 1.003971684496583e+001
0	 7.066659999995870e+000	 7.999999999999999e+000	 1.003755348186608e+001
0	 7.133319999991935e+000	 7.333299999983332e+000	 1.005863229578639e+001
0	 7.133319999991936e+000	 7.399969999982150e+000	 1.005628794431101e+001
0	 7.133319999991937e+000	 7.466639999981867e+000	 1.005398015230817e+001
0	 7.133319999991936e+000	 7.533309999982381e+000	 1.005170650339225e+001
0	 7.133319999991936e+000	 7.599979999983598e+000	 1.004946458117779e+001
0	 7.133319999991937e+000	 7.666649999985415e+000	 1.004725196927920e+001
0	 7.133319999991937e+000	 7.733319999987733e+000	 1.004506625131097e+001
0	 7.133319999991937e+000	 7.799989999990449e+000	 1.004290501088756e+001
0	 7.133319999991937e+000	 7.866659999993464e+000	 1.004076583162344e+001
0	 7.133319999991937e+000	 7.933329999996682e+000	 1.003864629713307e+001
0	 7.133319999991937e+000	 8.000000000000000e+000	 1.003654399103093e+001
0	 7.199979999988403e+000	 7.333299999983334e+000	 1.005692031339469e+001
0	 7.199979999988403e+000	 7.399969999982149e+000	 1.005465357837177e+001
0	 7.199979999988403e+000	 7.466639999981868e+000	 1.005242145192531e+001
0	 7.199979999988405e+000	 7.533309999982382e+000	 1.005022156070869e+001
0	 7.199979999988405e+000	 7.599979999983598e+000	 1.004805153137531e+001
0	 7.199979999988404e+000	 7.666649999985415e+000	 1.004590899057861e+001
0	 7.199979999988404e+000	 7.733319999987732e+000	 1.004379156497198e+001
0	 7.199979999988404e+000	 7.799989999990448e+000	 1.004169688120881e+001
0	 7.199979999988404e+000	 7.866659999993463e+000	 1.003962256594253e+001
0	 7.199979999988403e+000	 7.933329999996679e+000	 1.003756624582656e+001
0	 7.199979999988404e+000	 8.000000000000002e+000	 1.003552554751427e+001
0	 7.266639999985472e+000	 7.333299999983334e+000	 1.005519983847626e+001
0	 7.266639999985471e+000	 7.399969999982150e+000	 1.005301090300138e+001
0	 7.266639999985472e+000	 7.466639999981866e+000	 1.005085462937903e+001
0	 7.266639999985470e+000	 7.533309999982382e+000	 1.004872869322245e+001
0	 7.266639999985470e+000	 7.599979999983598e+000	 1.004663077014488e+001
0	 7.266639999985473e+000	 7.666649999985415e+000	 1.004455853575952e+001
0	 7.266639999985472e+000	 7.733319999987733e+000	 1.004250966567961e+001
0	 7.266639999985472e+000	 7.799989999990448e+000	 1.004048183551837e+001
0	 7.266639999985471e+000	 7.866659999993464e+000	 1.003847272088904e+001
0	 7.266639999985472e+000	 7.933329999996681e+000	 1.003647999740483e+001
0	 7.266639999985471e+000	 8.000000000000002e+000	 1.003450134067900e+001
0	 7.333299999983334e+000	 7.333299999983334e+000	 1.005347560196010e+001
0	 7.333299999983332e+000	 7.399969999982148e+000	 1.005136445781124e+001
0	 7.333299999983335e+000	 7.466639999981867e+000	 1.004928404122117e+001
0	 7.333299999983335e+000	 7.533309999982381e+000	 1.004723208268381e+001
0	 7.333299999983335e+000	 7.599979999983599e+000	 1.004520631269310e+001
0	 7.333299999983334e+000	 7.666649999985414e+000	 1.004320446174296e+001
0	 7.333299999983336e+000	 7.733319999987733e+000	 1.004122426032729e+001
0	 7.333299999983335e+000	 7.799989999990448e+000	 1.003926343894003e+001
0	 7.333299999983336e+000	 7.866659999993466e+000	 1.003731972807513e+001
0	 7.333299999983334e+000	 7.933329999996680e+000	 1.003539085822647e+001
0	 7.333299999983334e+000	 8.000000000000000e+000	 1.003347455988799e+001
0	 6.666700000016666e+000	 7.999999999999999e+000	 1.004324381624276e+001
0	 6.666700000016666e+000	 8.066670000003317e+000	 1.004078030184803e+001
0	 6.666700000016665e+000	 8.133340000006532e+000	 1.003838338687069e+001
0	 6.666700000016666e+000	 8.200010000009549e+000	 1.003605003753009e+001
0	 6.666700000016667e+000	 8.266680000012267e+000	 1.003377722004545e+001
0	 6.666700000016666e+000	 8.333350000014583e+000	 1.003156190063605e+001
0	 6.666700000016667e+000	 8.400020000016399e+000	 1.002940104552114e+001
0	 6.666700000016666e+000	 8.466690000017616e+000	 1.002729162092002e+001
0	 6.666700000016665e+000	 8.533360000018131e+000	 1.002523059305196e+001
0	 6.666700000016667e+000	 8.600030000017847e+000	 1.002321492813622e+001
0	 6.666700000016666e+000	 8.666700000016666e+000	 1.002124159239207e+001
0	 6.733360000014532e+000	 7.999999999999998e+000	 1.004235501811760e+001
0	 6.733360000014532e+000	 8.066670000003317e+000	 1.003994505066872e+001
0	 6.733360000014531e+000	 8.133340000006530e+000	 1.003759995141323e+001
0	 6.733360000014532e+000	 8.200010000009550e+000	 1.003531673229349e+001
0	 6.733360000014533e+000	 8.266680000012268e+000	 1.003309240525188e+001
0	 6.733360000014533e+000	 8.333350000014583e+000	 1.003092398223077e+001
0	 6.733360000014533e+000	 8.400020000016403e+000	 1.002880847517253e+001
0	 6.733360000014533e+000	 8.466690000017616e+000	 1.002674289601955e+001
0	 6.733360000014533e+000	 8.533360000018131e+000	 1.002472425671414e+001
0	 6.733360000014532e+000	 8.600030000017849e+000	 1.002274956919876e+001
0	 6.733360000014532e+000	 8.666700000016666e+000	 1.002081584541574e+001
0	 6.800020000011601e+000	 8.000000000000004e+000	 1.004143813113351e+001
0	 6.800020000011599e+000	 8.066670000003315e+000	 1.003908296035589e+001
0	 6.800020000011600e+000	 8.133340000006532e+000	 1.003679092273850e+001
0	 6.800020000011601e+000	 8.200010000009552e+000	 1.003455907587638e+001
0	 6.800020000011598e+000	 8.266680000012261e+000	 1.003238447736440e+001
0	 6.800020000011599e+000	 8.333350000014582e+000	 1.003026418479755e+001
0	 6.800020000011599e+000	 8.400020000016395e+000	 1.002819525577074e+001
0	 6.800020000011601e+000	 8.466690000017618e+000	 1.002617474787895e+001
0	 6.800020000011600e+000	 8.533360000018133e+000	 1.002419971871713e+001
0	 6.800020000011598e+000	 8.600030000017846e+000	 1.002226722588023e+001
0	 6.800020000011600e+000	 8.666700000016668e+000	 1.002037432696319e+001
0	 6.866680000008067e+000	 8.000000000000000e+000	 1.004049634465342e+001
0	 6.866680000008068e+000	 8.066670000003317e+000	 1.003819710756888e+001
0	 6.866680000008069e+000	 8.133340000006534e+000	 1.003595926512872e+001
0	 6.866680000008067e+000	 8.200010000009549e+000	 1.003377992050995e+001
0	 6.866680000008067e+000	 8.266680000012267e+000	 1.003165617688951e+001
0	 6.866680000008067e+000	 8.333350000014583e+000	 1.002958513744447e+001
0	 6.866680000008068e+000	 8.400020000016401e+000	 1.002756390535180e+001
0	 6.866680000008065e+000	 8.466690000017614e+000	 1.002558958378850e+001
0	 6.866680000008065e+000	 8.533360000018131e+000	 1.002365927593156e+001
0	 6.866680000008064e+000	 8.600030000017847e+000	 1.002177008495799e+001
0	 6.866680000008068e+000	 8.666700000016668e+000	 1.001991911404481e+001
0	 6.933340000004135e+000	 7.999999999999999e+000	 1.003953284804022e+001
0	 6.933340000004132e+000	 8.066670000003315e+000	 1.003729056896713e+001
0	 6.933340000004132e+000	 8.133340000006532e+000	 1.003510794286598e+001
0	 6.933340000004135e+000	 8.200010000009549e+000	 1.003298211842536e+001
0	 6.933340000004133e+000	 8.266680000012267e+000	 1.003091024433377e+001
0	 6.933340000004133e+000	 8.333350000014583e+000	 1.002888946927972e+001
0	 6.933340000004133e+000	 8.400020000016401e+000	 1.002691694195173e+001
0	 6.933340000004134e+000	 8.466690000017614e+000	 1.002498981103831e+001
0	 6.933340000004132e+000	 8.533360000018131e+000	 1.002310522522804e+001
0	 6.933340000004134e+000	 8.600030000017849e+000	 1.002126033320940e+001
0	 6.933340000004136e+000	 8.666700000016666e+000	 1.001945228367096e+001
0	 7.000000000000004e+000	 8.000000000000002e+000	 1.003855083065680e+001
0	 7.000000000000003e+000	 8.066670000003317e+000	 1.003636642120995e+001
0	 7.000000000000001e+000	 8.133340000006532e+000	 1.003423992023248e+001
0	 7.000000000000002e+000	 8.200010000009550e+000	 1.003216852185385e+001
0	 6.999999999999999e+000	 8.266680000012265e+000	 1.003014942020367e+001
0	 7.000000000000003e+000	 8.333350000014585e+000	 1.002817980941137e+001
0	 7.000000000000003e+000	 8.400020000016401e+000	 1.002625688360652e+001
0	 7.000000000000003e+000	 8.466690000017614e+000	 1.002437783691862e+001
0	 7.000000000000001e+000	 8.533360000018131e+000	 1.002253986347722e+001
0	 7.000000000000002e+000	 8.600030000017846e+000	 1.002074015741184e+001
0	 7.000000000000001e+000	 8.666700000016666e+000	 1.001897591285202e+001
0	 7.066659999995870e+000	 7.999999999999999e+000	 1.003755348186608e+001
0	 7.066659999995868e+000	 8.066670000003317e+000	 1.003542774095682e+001
0	 7.066659999995870e+000	 8.133340000006534e+000	 1.003335816151031e+001
0	 7.066659999995868e+000	 8.200010000009550e+000	 1.003134198302661e+001
0	 7.066659999995868e+000	 8.266680000012265e+000	 1.002937644500571e+001
0	 7.066659999995870e+000	 8.333350000014583e+000	 1.002745878694756e+001
0	 7.066659999995870e+000	 8.400020000016399e+000	 1.002558624835218e+001
0	 7.066659999995871e+000	 8.466690000017616e+000	 1.002375606871958e+001
0	 7.066659999995870e+000	 8.533360000018131e+000	 1.002196548754973e+001
0	 7.066659999995869e+000	 8.600030000017847e+000	 1.002021174434264e+001
0	 7.066659999995868e+000	 8.666700000016666e+000	 1.001849207859832e+001
0	 7.133319999991937e+000	 8.000000000000000e+000	 1.003654399103093e+001
0	 7.133319999991937e+000	 8.066670000003319e+000	 1.003447760486703e+001
0	 7.133319999991937e+000	 8.133340000006534e+000	 1.003246563098167e+001
0	 7.133319999991937e+000	 8.200010000009549e+000	 1.003050535417483e+001
0	 7.133319999991937e+000	 8.266680000012268e+000	 1.002859405924643e+001
0	 7.133319999991937e+000	 8.333350000014583e+000	 1.002672903099643e+001
0	 7.133319999991937e+000	 8.400020000016401e+000	 1.002490755422474e+001
0	 7.133319999991936e+000	 8.466690000017618e+000	 1.002312691373135e+001
0	 7.133319999991937e+000	 8.533360000018133e+000	 1.002138439431618e+001
0	 7.133319999991936e+000	 8.600030000017846e+000	 1.001967728077916e+001
0	 7.133319999991936e+000	 8.666700000016668e+000	 1.001800285792029e+001
0	 7.199979999988404e+000	 8.000000000000002e+000	 1.003552554751427e+001
0	 7.199979999988400e+000	 8.066670000003313e+000	 1.003351908960000e+001
0	 7.199979999988403e+000	 8.133340000006532e+000	 1.003156529292868e+001
0	 7.199979999988404e+000	 8.200010000009550e+000	 1.002966148752969e+001
0	 7.199979999988402e+000	 8.266680000012267e+000	 1.002780500343236e+001
0	 7.199979999988404e+000	 8.333350000014582e+000	 1.002599317066609e+001
0	 7.199979999988405e+000	 8.400020000016401e+000	 1.002422331926023e+001
0	 7.199979999988404e+000	 8.466690000017618e+000	 1.002249277924414e+001
0	 7.199979999988405e+000	 8.533360000018131e+000	 1.002079888064722e+001
0	 7.199979999988405e+000	 8.600030000017847e+000	 1.001913895349878e+001
0	 7.199979999988403e+000	 8.666700000016668e+000	 1.001751032782825e+001
0	 7.266639999985471e+000	 8.000000000000002e+000	 1.003450134067900e+001
0	 7.266639999985472e+000	 8.066670000003319e+000	 1.003255527181510e+001
0	 7.266639999985471e+000	 8.133340000006534e+000	 1.003066011163346e+001
0	 7.266639999985471e+000	 8.200010000009549e+000	 1.002881323532233e+001
0	 7.266639999985472e+000	 8.266680000012267e+000	 1.002701201807000e+001
0	 7.266639999985469e+000	 8.333350000014582e+000	 1.002525383506466e+001
0	 7.266639999985471e+000	 8.400020000016401e+000	 1.002353606149461e+001
0	 7.266639999985470e+000	 8.466690000017614e+000	 1.002185607254813e+001
0	 7.266639999985470e+000	 8.533360000018131e+000	 1.002021124341345e+001
0	 7.266639999985470e+000	 8.600030000017847e+000	 1.001859894927885e+001
0	 7.266639999985471e+000	 8.666700000016668e+000	 1.001701656533260e+001
0	 7.333299999983334e+000	 8.000000000000000e+000	 1.003347455988799e+001
0	 7.333299999983334e+000	 8.066670000003315e+000	 1.003158922817174e+001
0	 7.333299999983332e+000	 8.133340000006532e+000	 1.002975305137821e+001
0	 7.333299999983335e+000	 8.200010000009549e+000	 1.002796344978405e+001
0	 7.333299999983334e+000	 8.266680000012268e+000	 1.002621784366584e+001
0	 7.333299999983335e+000	 8.333350000014583e+000	 1.002451365330026e+001
0	 7.333299999983333e+000	 8.400020000016399e+000	 1.002284829896393e+001
0	 7.333299999983334e+000	 8.466690000017614e+000	 1.002121920093347e+001
0	 7.333299999983333e+000	 8.533360000018131e+000	 1.001962377948552e+001
0	 7.333299999983334e+000	 8.600030000017847e+000	 1.001805945489672e+001
0	 7.333299999983334e+000	 8.666700000016665e+000	 1.001652364744372e+001
0	 6.666700000016666e+000	 8.666700000016666e+000	 1.002124159239207e+001
0	 6.666700000016665e+000	 8.733360002791899e+000	 1.001933664532095e+001
0	 6.666700000016665e+000	 8.800020022230553e+000	 1.001752496038090e+001
0	 6.666700000016666e+000	 8.866680074997040e+000	 1.001580260341850e+001
0	 6.666700000016666e+000	 8.933340177755776e+000	 1.001416564001962e+001
0	 6.666700000016665e+000	 9.000000347171179e+000	 1.001261013550928e+001
0	 6.666700000016665e+000	 9.066660599907667e+000	 1.001113215495161e+001
0	 6.666700000016665e+000	 9.133320952629649e+000	 1.000972776315007e+001
0	 6.666700000016666e+000	 9.199981422001555e+000	 1.000839302464714e+001
0	 6.666700000016667e+000	 9.266642024687792e+000	 1.000712400372464e+001
0	 6.666700000016667e+000	 9.333302777352781e+000	 1.000591676440346e+001
0	 6.733360000014532e+000	 8.666700000016666e+000	 1.002081584541574e+001
0	 6.733360000014534e+000	 8.733360002791903e+000	 1.001894894131373e+001
0	 6.733360000014534e+000	 8.800020022230555e+000	 1.001717355185776e+001
0	 6.733360000014534e+000	 8.866680074997042e+000	 1.001548580868691e+001
0	 6.733360000014534e+000	 8.933340177755774e+000	 1.001388184318432e+001
0	 6.733360000014533e+000	 9.000000347171181e+000	 1.001235778647708e+001
0	 6.733360000014533e+000	 9.066660599907667e+000	 1.001090976943642e+001
0	 6.733360000014534e+000	 9.133320952629653e+000	 1.000953392267752e+001
0	 6.733360000014533e+000	 9.199981422001557e+000	 1.000822637655969e+001
0	 6.733360000014533e+000	 9.266642024687792e+000	 1.000698326118616e+001
0	 6.733360000014532e+000	 9.333302777352783e+000	 1.000580070640429e+001
0	 6.800020000011600e+000	 8.666700000016668e+000	 1.002037432696319e+001
0	 6.800020000011600e+000	 8.733360002791901e+000	 1.001854663438117e+001
0	 6.800020000011600e+000	 8.800020022230555e+000	 1.001680862700975e+001
0	 6.800020000011601e+000	 8.866680074997042e+000	 1.001515650524138e+001
0	 6.800020000011598e+000	 8.933340177755774e+000	 1.001358646921752e+001
0	 6.800020000011600e+000	 9.000000347171181e+000	 1.001209471882880e+001
0	 6.800020000011600e+000	 9.066660599907666e+000	 1.001067745371483e+001
0	 6.800020000011597e+000	 9.133320952629648e+000	 1.000933087326431e+001
0	 6.800020000011601e+000	 9.199981422001553e+000	 1.000805117661499e+001
0	 6.800020000011600e+000	 9.266642024687791e+000	 1.000683456265369e+001
0	 6.800020000011600e+000	 9.333302777352781e+000	 1.000567723001629e+001
0	 6.866680000008068e+000	 8.666700000016668e+000	 1.001991911404481e+001
0	 6.866680000008065e+000	 8.733360002791903e+000	 1.001813169614520e+001
0	 6.866680000008067e+000	 8.800020022230553e+000	 1.001643206046806e+001
0	 6.866680000008067e+000	 8.866680074997040e+000	 1.001481647912022e+001
0	 6.866680000008067e+000	 8.933340177755778e+000	 1.001328122396275e+001
0	 6.866680000008065e+000	 9.000000347171179e+000	 1.001182256661099e+001
0	 6.866680000008066e+000	 9.066660599907666e+000	 1.001043677843453e+001
0	 6.866680000008065e+000	 9.133320952629653e+000	 1.000912013055720e+001
0	 6.866680000008068e+000	 9.199981422001555e+000	 1.000786889385705e+001
0	 6.866680000008067e+000	 9.266642024687792e+000	 1.000667933896640e+001
0	 6.866680000008069e+000	 9.333302777352783e+000	 1.000554773627179e+001
0	 6.933340000004136e+000	 8.666700000016666e+000	 1.001945228367095e+001
0	 6.933340000004134e+000	 8.733360002791901e+000	 1.001770609822767e+001
0	 6.933340000004135e+000	 8.800020022230555e+000	 1.001604572686383e+001
0	 6.933340000004135e+000	 8.866680074997044e+000	 1.001446751636180e+001
0	 6.933340000004134e+000	 8.933340177755774e+000	 1.001296781326346e+001
0	 6.933340000004137e+000	 9.000000347171179e+000	 1.001154296387026e+001
0	 6.933340000004132e+000	 9.066660599907664e+000	 1.001018931424327e+001
0	 6.933340000004133e+000	 9.133320952629649e+000	 1.000890321020308e+001
0	 6.933340000004134e+000	 9.199981422001553e+000	 1.000768099732988e+001
0	 6.933340000004135e+000	 9.266642024687791e+000	 1.000651902096340e+001
0	 6.933340000004135e+000	 9.333302777352785e+000	 1.000541362620300e+001
0	 7.000000000000001e+000	 8.666700000016666e+000	 1.001897591285202e+001
0	 7.000000000000001e+000	 8.733360002791901e+000	 1.001727181225037e+001
0	 7.000000000000002e+000	 8.800020022230555e+000	 1.001565150082823e+001
0	 7.000000000000001e+000	 8.866680074997039e+000	 1.001411140300449e+001
0	 7.000000000000001e+000	 8.933340177755774e+000	 1.001264794296315e+001
0	 7.000000000000002e+000	 9.000000347171175e+000	 1.001125754465319e+001
0	 7.000000000000000e+000	 9.066660599907664e+000	 1.000993663178873e+001
0	 7.000000000000003e+000	 9.133320952629653e+000	 1.000868162784879e+001
0	 7.000000000000003e+000	 9.199981422001555e+000	 1.000748895607747e+001
0	 7.000000000000002e+000	 9.266642024687792e+000	 1.000635503948391e+001
0	 7.000000000000002e+000	 9.333302777352783e+000	 1.000527630084229e+001
0	 7.066659999995868e+000	 8.666700000016666e+000	 1.001849207859832e+001
0	 7.066659999995872e+000	 8.733360002791905e+000	 1.001683080983523e+001
0	 7.066659999995870e+000	 8.800020022230553e+000	 1.001525125699240e+001
0	 7.066659999995869e+000	 8.866680074997042e+000	 1.001374992508663e+001
0	 7.066659999995870e+000	 8.933340177755778e+000	 1.001232331890531e+001
0	 7.066659999995871e+000	 9.000000347171177e+000	 1.001096794300642e+001
0	 7.066659999995869e+000	 9.066660599907666e+000	 1.000968030171866e+001
0	 7.066659999995869e+000	 9.133320952629651e+000	 1.000845689914120e+001
0	 7.066659999995871e+000	 9.199981422001557e+000	 1.000729423914385e+001
0	 7.066659999995870e+000	 9.266642024687789e+000	 1.000618882536708e+001
0	 7.066659999995869e+000	 9.333302777352783e+000	 1.000513716122197e+001
0	 7.133319999991936e+000	 8.666700000016668e+000	 1.001800285792029e+001
0	 7.133319999991937e+000	 8.733360002791903e+000	 1.001638506260403e+001
0	 7.133319999991935e+000	 8.800020022230553e+000	 1.001484686998749e+001
0	 7.133319999991936e+000	 8.866680074997040e+000	 1.001338486864655e+001
0	 7.133319999991937e+000	 8.933340177755778e+000	 1.001199564693342e+001
0	 7.133319999991937e+000	 9.000000347171179e+000	 1.001067579297657e+001
0	 7.133319999991937e+000	 9.066660599907667e+000	 1.000942189468078e+001
0	 7.133319999991937e+000	 9.133320952629653e+000	 1.000823053972714e+001
0	 7.133319999991936e+000	 9.199981422001553e+000	 1.000709831557302e+001
0	 7.133319999991937e+000	 9.266642024687792e+000	 1.000602180945206e+001
0	 7.133319999991937e+000	 9.333302777352783e+000	 1.000499760837425e+001
0	 7.199979999988403e+000	 8.666700000016668e+000	 1.001751032782826e+001
0	 7.199979999988403e+000	 8.733360002791899e+000	 1.001593654217864e+001
0	 7.199979999988404e+000	 8.800020022230553e+000	 1.001444021444467e+001
0	 7.199979999988404e+000	 8.866680074997040e+000	 1.001301801972263e+001
0	 7.199979999988404e+000	 8.933340177755779e+000	 1.001166663289098e+001
0	 7.199979999988406e+000	 9.000000347171181e+000	 1.001038272861017e+001
0	 7.199979999988402e+000	 9.066660599907667e+000	 1.000916298132279e+001
0	 7.199979999988405e+000	 9.133320952629653e+000	 1.000800406525346e+001
0	 7.199979999988403e+000	 9.199981422001553e+000	 1.000690265440896e+001
0	 7.199979999988404e+000	 9.266642024687791e+000	 1.000585542257800e+001
0	 7.199979999988404e+000	 9.333302777352783e+000	 1.000485904333154e+001
0	 7.266639999985471e+000	 8.666700000016668e+000	 1.001701656533260e+001
0	 7.266639999985472e+000	 8.733360002791901e+000	 1.001548722018094e+001
0	 7.266639999985472e+000	 8.800020022230555e+000	 1.001403316499508e+001
0	 7.266639999985472e+000	 8.866680074997040e+000	 1.001265116435322e+001
0	 7.266639999985472e+000	 8.933340177755776e+000	 1.001133798262146e+001
0	 7.266639999985471e+000	 9.000000347171179e+000	 1.001009038395387e+001
0	 7.266639999985472e+000	 9.066660599907669e+000	 1.000890513229241e+001
0	 7.266639999985472e+000	 9.133320952629655e+000	 1.000777899136707e+001
0	 7.266639999985471e+000	 9.199981422001555e+000	 1.000670872469568e+001
0	 7.266639999985470e+000	 9.266642024687791e+000	 1.000569109558408e+001
0	 7.266639999985471e+000	 9.333302777352781e+000	 1.000472286712604e+001
0	 7.333299999983334e+000	 8.666700000016665e+000	 1.001652364744372e+001
0	 7.333299999983335e+000	 8.733360002791903e+000	 1.001503906823273e+001
0	 7.333299999983333e+000	 8.800020022230553e+000	 1.001362759626989e+001
0	 7.333299999983334e+000	 8.866680074997040e+000	 1.001228608857666e+001
0	 7.333299999983332e+000	 8.933340177755776e+000	 1.001101140196837e+001
0	 7.333299999983334e+000	 9.000000347171179e+000	 1.000980039305424e+001
0	 7.333299999983336e+000	 9.066660599907667e+000	 1.000864991823739e+001
0	 7.333299999983333e+000	 9.133320952629651e+000	 1.000755683371476e+001
0	 7.333299999983335e+000	 9.199981422001553e+000	 1.000651799547721e+001
0	 7.333299999983334e+000	 9.266642024687792e+000	 1.000553025930947e+001
0	 7.333299999983333e+000	 9.333302777352781e+000	 1.000459048079013e+001
0	 6.666700000016667e+000	 9.333302777352781e+000	 1.000591676440345e+001
0	 6.666700000016665e+000	 9.399973674588177e+000	 1.000480432397878e+001
0	 6.666700000016666e+000	 9.466644621844621e+000	 1.000381924453014e+001
0	 6.666700000016665e+000	 9.533315502449998e+000	 1.000295637901654e+001
0	 6.666700000016665e+000	 9.599986199732193e+000	 1.000221058300696e+001
0	 6.666700000016666e+000	 9.666656597019095e+000	 1.000157671468027e+001
0	 6.666700000016665e+000	 9.733326577638573e+000	 1.000104963482534e+001
0	 6.666700000016666e+000	 9.799996024918521e+000	 1.000062420684110e+001
0	 6.666700000016667e+000	 9.866664822186822e+000	 1.000029529673670e+001
0	 6.666700000016665e+000	 9.933332852771351e+000	 1.000005777313191e+001
0	 6.666700000016666e+000	 1.000000000000000e+001	 9.999906507257204e+000
0	 6.733360000014532e+000	 9.333302777352783e+000	 1.000580070640429e+001
0	 6.733360000014532e+000	 9.399973674588175e+000	 1.000471101265989e+001
0	 6.733360000014533e+000	 9.466644621844621e+000	 1.000374607480196e+001
0	 6.733360000014534e+000	 9.533315502450002e+000	 1.000290089685439e+001
0	 6.733360000014531e+000	 9.599986199732197e+000	 1.000217048539998e+001
0	 6.733360000014532e+000	 9.666656597019092e+000	 1.000154984958083e+001
0	 6.733360000014532e+000	 9.733326577638573e+000	 1.000103400109820e+001
0	 6.733360000014534e+000	 9.799996024918523e+000	 1.000061795421252e+001
0	 6.733360000014532e+000	 9.866664822186820e+000	 1.000029672574380e+001
0	 6.733360000014534e+000	 9.933332852771352e+000	 1.000006533507177e+001
0	 6.733360000014533e+000	 1.000000000000000e+001	 9.999918804136261e+000
0	 6.800020000011600e+000	 9.333302777352781e+000	 1.000567723001629e+001
0	 6.800020000011597e+000	 9.399973674588173e+000	 1.000461074838967e+001
0	 6.800020000011599e+000	 9.466644621844619e+000	 1.000366632938505e+001
0	 6.800020000011599e+000	 9.533315502450000e+000	 1.000283912813455e+001
0	 6.800020000011600e+000	 9.599986199732195e+000	 1.000212430227695e+001
0	 6.800020000011599e+000	 9.666656597019090e+000	 1.000151701195797e+001
0	 6.800020000011600e+000	 9.733326577638575e+000	 1.000101241983009e+001
0	 6.800020000011598e+000	 9.799996024918521e+000	 1.000060569105281e+001
0	 6.800020000011599e+000	 9.866664822186818e+000	 1.000029199329279e+001
0	 6.800020000011598e+000	 9.933332852771349e+000	 1.000006649672409e+001
0	 6.800020000011601e+000	 1.000000000000000e+001	 9.999924374028401e+000
0	 6.866680000008069e+000	 9.333302777352783e+000	 1.000554773627179e+001
0	 6.866680000008069e+000	 9.399973674588178e+000	 1.000450491237894e+001
0	 6.866680000008067e+000	 9.466644621844617e+000	 1.000358138124887e+001
0	 6.866680000008068e+000	 9.533315502449998e+000	 1.000277244916544e+001
0	 6.866680000008066e+000	 9.599986199732195e+000	 1.000207342486549e+001
0	 6.866680000008067e+000	 9.666656597019092e+000	 1.000147961953898e+001
0	 6.866680000008065e+000	 9.733326577638572e+000	 1.000098634682905e+001
0	 6.866680000008068e+000	 9.799996024918524e+000	 1.000058892283195e+001
0	 6.866680000008066e+000	 9.866664822186820e+000	 1.000028266609737e+001
0	 6.866680000008065e+000	 9.933332852771351e+000	 1.000006289762874e+001
0	 6.866680000008067e+000	 1.000000000000000e+001	 9.999924940883350e+000
0	 6.933340000004135e+000	 9.333302777352785e+000	 1.000541362620300e+001
0	 6.933340000004133e+000	 9.399973674588173e+000	 1.000439488583843e+001
0	 6.933340000004135e+000	 9.466644621844619e+000	 1.000349260336292e+001
0	 6.933340000004133e+000	 9.533315502449996e+000	 1.000270223625551e+001
0	 6.933340000004133e+000	 9.599986199732193e+000	 1.000201924439326e+001
0	 6.933340000004134e+000	 9.666656597019093e+000	 1.000143909005137e+001
0	 6.933340000004133e+000	 9.733326577638570e+000	 1.000095723790303e+001
0	 6.933340000004135e+000	 9.799996024918521e+000	 1.000056915501971e+001
0	 6.933340000004135e+000	 9.866664822186822e+000	 1.000027031087109e+001
0	 6.933340000004134e+000	 9.933332852771351e+000	 1.000005617732561e+001
0	 6.933340000004135e+000	 9.999999999999998e+000	 9.999922228650595e+000
0	 7.000000000000002e+000	 9.333302777352783e+000	 1.000527630084229e+001
0	 7.000000000000003e+000	 9.399973674588178e+000	 1.000428204997890e+001
0	 7.000000000000002e+000	 9.466644621844619e+000	 1.000340136869658e+001
0	 7.000000000000002e+000	 9.533315502450000e+000	 1.000262986571305e+001
0	 7.000000000000003e+000	 9.599986199732197e+000	 1.000196315208790e+001
0	 7.000000000000001e+000	 9.666656597019092e+000	 1.000139684122247e+001
0	 7.000000000000002e+000	 9.733326577638572e+000	 1.000092654886011e+001
0	 7.000000000000002e+000	 9.799996024918524e+000	 1.000054789308600e+001
0	 7.000000000000003e+000	 9.866664822186822e+000	 1.000025649432759e+001
0	 7.000000000000003e+000	 9.933332852771352e+000	 1.000004797535468e+001
0	 7.000000000000002e+000	 1.000000000000000e+001	 9.999917961279703e+000
0	 7.066659999995869e+000	 9.333302777352783e+000	 1.000513716122197e+001
0	 7.066659999995869e+000	 9.399973674588177e+000	 1.000416778601112e+001
0	 7.066659999995871e+000	 9.466644621844623e+000	 1.000330905021937e+001
0	 7.066659999995869e+000	 9.533315502449998e+000	 1.000255671384654e+001
0	 7.066659999995869e+000	 9.599986199732195e+000	 1.000190653917703e+001
0	 7.066659999995869e+000	 9.666656597019092e+000	 1.000135429077969e+001
0	 7.066659999995869e+000	 9.733326577638572e+000	 1.000089573550820e+001
0	 7.066659999995869e+000	 9.799996024918523e+000	 1.000052664250069e+001
0	 7.066659999995869e+000	 9.866664822186818e+000	 1.000024278318040e+001
0	 7.066659999995869e+000	 9.933332852771351e+000	 1.000003993125568e+001
0	 7.066659999995869e+000	 9.999999999999998e+000	 9.999913862720126e+000
0	 7.133319999991937e+000	 9.333302777352783e+000	 1.000499760837425e+001
0	 7.133319999991937e+000	 9.399973674588175e+000	 1.000405347514579e+001
0	 7.133319999991937e+000	 9.466644621844619e+000	 1.000321702090072e+001
0	 7.133319999991934e+000	 9.533315502449998e+000	 1.000248415696433e+001
0	 7.133319999991937e+000	 9.599986199732197e+000	 1.000185079688828e+001
0	 7.133319999991937e+000	 9.666656597019093e+000	 1.000131285645045e+001
0	 7.133319999991936e+000	 9.733326577638573e+000	 1.000086625365527e+001
0	 7.133319999991937e+000	 9.799996024918521e+000	 1.000050690873362e+001
0	 7.133319999991937e+000	 9.866664822186820e+000	 1.000023074414322e+001
0	 7.133319999991937e+000	 9.933332852771351e+000	 1.000003368456840e+001
0	 7.133319999991937e+000	 1.000000000000000e+001	 9.999911656921224e+000
0	 7.199979999988404e+000	 9.333302777352783e+000	 1.000485904333154e+001
0	 7.199979999988402e+000	 9.399973674588175e+000	 1.000394049859363e+001
0	 7.199979999988404e+000	 9.466644621844621e+000	 1.000312665371008e+001
0	 7.199979999988404e+000	 9.533315502449996e+000	 1.000241357137483e+001
0	 7.199979999988404e+000	 9.599986199732197e+000	 1.000179731644928e+001
0	 7.199979999988404e+000	 9.666656597019095e+000	 1.000127395596205e+001
0	 7.199979999988404e+000	 9.733326577638577e+000	 1.000083955910933e+001
0	 7.199979999988403e+000	 9.799996024918521e+000	 1.000049019725470e+001
0	 7.199979999988405e+000	 9.866664822186820e+000	 1.000022194392954e+001
0	 7.199979999988404e+000	 9.933332852771352e+000	 1.000003087483302e+001
0	 7.199979999988404e+000	 1.000000000000000e+001	 9.999913067832715e+000
0	 7.266639999985471e+000	 9.333302777352781e+000	 1.000472286712604e+001
0	 7.266639999985472e+000	 9.399973674588177e+000	 1.000383023756546e+001
0	 7.266639999985471e+000	 9.466644621844621e+000	 1.000303932161693e+001
0	 7.266639999985472e+000	 9.533315502450002e+000	 1.000234633338647e+001
0	 7.266639999985471e+000	 9.599986199732193e+000	 1.000174748908774e+001
0	 7.266639999985472e+000	 9.666656597019092e+000	 1.000123900704199e+001
0	 7.266639999985471e+000	 9.733326577638572e+000	 1.000081710767844e+001
0	 7.266639999985471e+000	 9.799996024918523e+000	 1.000047801353372e+001
0	 7.266639999985470e+000	 9.866664822186818e+000	 1.000021794925298e+001
0	 7.266639999985470e+000	 9.933332852771351e+000	 1.000003314158919e+001
0	 7.266639999985471e+000	 1.000000000000000e+001	 9.999919819404038e+000
0	 7.333299999983333e+000	 9.333302777352781e+000	 1.000459048079013e+001
0	 7.333299999983336e+000	 9.399973674588177e+000	 1.000372407327195e+001
0	 7.333299999983334e+000	 9.466644621844623e+000	 1.000295639759068e+001
0	 7.333299999983332e+000	 9.533315502449998e+000	 1.000228381930757e+001
0	 7.333299999983334e+000	 9.599986199732195e+000	 1.000170270603124e+001
0	 7.333299999983334e+000	 9.666656597019092e+000	 1.000120942741765e+001
0	 7.333299999983332e+000	 9.733326577638575e+000	 1.000080035517045e+001
0	 7.333299999983332e+000	 9.799996024918521e+000	 1.000047186304069e+001
0	 7.333299999983336e+000	 9.866664822186820e+000	 1.000022032682720e+001
0	 7.333299999983335e+000	 9.933332852771351e+000	 1.000004212437684e+001
0	 7.333299999983334e+000	 1.000000000000000e+001	 9.999933635584657e+000
0	 7.333299999983334e+000	 0.000000000000000e+000	 1.004757889092154e+001
0	 7.333299999983335e+000	 6.666714722864756e-002	 1.004789567120288e+001
0	 7.333299999983333e+000	 1.333351778131789e-001	 1.004829770884870e+001
0	 7.333299999983335e+000	 2.000039750814772e-001	 1.004879295625545e+001
0	 7.333299999983334e+000	 2.666734223614256e-001	 1.004938936879022e+001
0	 7.333299999983336e+000	 3.333434029809069e-001	 1.005009490479050e+001
0	 7.333299999983335e+000	 4.000138002678044e-001	 1.005091752556400e+001
0	 7.333299999983333e+000	 4.666844975500010e-001	 1.005186519538859e+001
0	 7.333299999983335e+000	 5.333553781553804e-001	 1.005294588151230e+001
0	 7.333299999983334e+000	 6.000263254118248e-001	 1.005416755415341e+001
0	 7.333299999983335e+000	 6.666972226472178e-001	 1.005553818650057e+001
0	 7.399969999982151e+000	 0.000000000000000e+000	 1.003953598453607e+001
0	 7.399969999982148e+000	 6.666714722864756e-002	 1.003984868788464e+001
0	 7.399969999982150e+000	 1.333351778131789e-001	 1.004025756167025e+001
0	 7.399969999982152e+000	 2.000039750814772e-001	 1.004076874995597e+001
0	 7.399969999982150e+000	 2.666734223614255e-001	 1.004138839966428e+001
0	 7.399969999982149e+000	 3.333434029809069e-001	 1.004212266057678e+001
0	 7.399969999982148e+000	 4.000138002678043e-001	 1.004297768533416e+001
0	 7.399969999982150e+000	 4.666844975500012e-001	 1.004395962943603e+001
0	 7.399969999982150e+000	 5.333553781553801e-001	 1.004507465124099e+001
0	 7.399969999982149e+000	 6.000263254118246e-001	 1.004632891196664e+001
0	 7.399969999982149e+000	 6.666972226472177e-001	 1.004772857568981e+001
0	 7.466639999981866e+000	 0.000000000000000e+000	 1.003167661305171e+001
0	 7.466639999981863e+000	 6.666714722864756e-002	 1.003196688374947e+001
0	 7.466639999981867e+000	 1.333351778131789e-001	 1.003236259115830e+001
0	 7.466639999981866e+000	 2.000039750814772e-001	 1.003286829491587e+001
0	 7.466639999981863e+000	 2.666734223614254e-001	 1.003348855741461e+001
0	 7.466639999981867e+000	 3.333434029809069e-001	 1.003422794380151e+001
0	 7.466639999981866e+000	 4.000138002678044e-001	 1.003509102197806e+001
0	 7.466639999981864e+000	 4.666844975500010e-001	 1.003608236260006e+001
0	 7.466639999981866e+000	 5.333553781553804e-001	 1.003720653907767e+001
0	 7.466639999981865e+000	 6.000263254118248e-001	 1.003846812757554e+001
0	 7.466639999981867e+000	 6.666972226472177e-001	 1.003987170701290e+001
0	 7.533309999982383e+000	 0.000000000000000e+000	 1.002396300312257e+001
0	 7.533309999982384e+000	 6.666714722864756e-002	 1.002421676291366e+001
0	 7.533309999982382e+000	 1.333351778131789e-001	 1.002458356317848e+001
0	 7.533309999982383e+000	 2.000039750814773e-001	 1.002506660306025e+001
0	 7.533309999982383e+000	 2.666734223614257e-001	 1.002566908435880e+001
0	 7.533309999982381e+000	 3.333434029809068e-001	 1.002639421153033e+001
0	 7.533309999982382e+000	 4.000138002678044e-001	 1.002724519168740e+001
0	 7.533309999982382e+000	 4.666844975500011e-001	 1.002822523459874e+001
0	 7.533309999982384e+000	 5.333553781553801e-001	 1.002933755268931e+001
0	 7.533309999982384e+000	 6.000263254118247e-001	 1.003058536104037e+001
0	 7.533309999982382e+000	 6.666972226472178e-001	 1.003197187738964e+001
0	 7.599979999983600e+000	 0.000000000000000e+000	 1.001635738140279e+001
0	 7.599979999983597e+000	 6.666714722864754e-002	 1.001656482949348e+001
0	 7.599979999983597e+000	 1.333351778131789e-001	 1.001689124359643e+001
0	 7.599979999983598e+000	 2.000039750814772e-001	 1.001733868631430e+001
0	 7.599979999983599e+000	 2.666734223614256e-001	 1.001790922281447e+001
0	 7.599979999983598e+000	 3.333434029809069e-001	 1.001860492082888e+001
0	 7.599979999983601e+000	 4.000138002678044e-001	 1.001942785065388e+001
0	 7.599979999983598e+000	 4.666844975500011e-001	 1.002038008515020e+001
0	 7.599979999983600e+000	 5.333553781553803e-001	 1.002146369974287e+001
0	 7.599979999983598e+000	 6.000263254118246e-001	 1.002268077242139e+001
0	 7.599979999983599e+000	 6.666972226472177e-001	 1.002403338373980e+001
0	 7.666649999985414e+000	 0.000000000000000e+000	 1.000882197454650e+001
0	 7.666649999985415e+000	 6.666714722864754e-002	 1.000897758760523e+001
0	 7.666649999985415e+000	 1.333351778131789e-001	 1.000925639827779e+001
0	 7.666649999985417e+000	 2.000039750814773e-001	 1.000965955660313e+001
0	 7.666649999985416e+000	 2.666734223614256e-001	 1.001018821509922e+001
0	 7.666649999985414e+000	 3.333434029809068e-001	 1.001084352876277e+001
0	 7.666649999985413e+000	 4.000138002678043e-001	 1.001162665506920e+001
0	 7.666649999985415e+000	 4.666844975500012e-001	 1.001253875397250e+001
0	 7.666649999985417e+000	 5.333553781553803e-001	 1.001358098790530e+001
0	 7.666649999985415e+000	 6.000263254118248e-001	 1.001475452177883e+001
0	 7.666649999985415e+000	 6.666972226472178e-001	 1.001606052298318e+001
0	 7.733319999987731e+000	 0.000000000000000e+000	 1.000131900920782e+001
0	 7.733319999987732e+000	 6.666714722864754e-002	 1.000142154136519e+001
0	 7.733319999987733e+000	 1.333351778131789e-001	 1.000164979308819e+001
0	 7.733319999987731e+000	 2.000039750814772e-001	 1.000200422585192e+001
0	 7.733319999987730e+000	 2.666734223614256e-001	 1.000248530353065e+001
0	 7.733319999987732e+000	 3.333434029809069e-001	 1.000309349239765e+001
0	 7.733319999987733e+000	 4.000138002678044e-001	 1.000382926112505e+001
0	 7.733319999987730e+000	 4.666844975500011e-001	 1.000469308078377e+001
0	 7.733319999987731e+000	 5.333553781553804e-001	 1.000568542484355e+001
0	 7.733319999987732e+000	 6.000263254118248e-001	 1.000680676917297e+001
0	 7.733319999987732e+000	 6.666972226472177e-001	 1.000805759203957e+001
0	 7.799989999990449e+000	 0.000000000000000e+000	 9.993810712040897e+000
0	 7.799989999990450e+000	 6.666714722864757e-002	 9.993863194889654e+000
0	 7.799989999990449e+000	 1.333351778131790e-001	 9.994042193893291e+000
0	 7.799989999990448e+000	 2.000039750814773e-001	 9.994347705985817e+000
0	 7.799989999990448e+000	 2.666734223614256e-001	 9.994779730426389e+000
0	 7.799989999990450e+000	 3.333434029809070e-001	 9.995338268799165e+000
0	 7.799989999990447e+000	 4.000138002678044e-001	 9.996023325013132e+000
0	 7.799989999990447e+000	 4.666844975500011e-001	 9.996834905302091e+000
0	 7.799989999990449e+000	 5.333553781553804e-001	 9.997773018224589e+000
0	 7.799989999990448e+000	 6.000263254118247e-001	 9.998837674664042e+000
0	 7.799989999990446e+000	 6.666972226472175e-001	 1.000002888782876e+001
0	 7.866659999993465e+000	 0.000000000000000e+000	 9.986259309699861e+000
0	 7.866659999993464e+000	 6.666714722864754e-002	 9.986269052294912e+000
0	 7.866659999993465e+000	 1.333351778131789e-001	 9.986404366558729e+000
0	 7.866659999993464e+000	 2.000039750814773e-001	 9.986665008929958e+000
0	 7.866659999993465e+000	 2.666734223614256e-001	 9.987050738104017e+000
0	 7.866659999993465e+000	 3.333434029809069e-001	 9.987561315032934e+000
0	 7.866659999993464e+000	 4.000138002678044e-001	 9.988196502925147e+000
0	 7.866659999993464e+000	 4.666844975500012e-001	 9.988956067245560e+000
0	 7.866659999993464e+000	 5.333553781553801e-001	 9.989839775715392e+000
0	 7.866659999993464e+000	 6.000263254118248e-001	 9.990847398312312e+000
0	 7.866659999993466e+000	 6.666972226472178e-001	 9.991978707270540e+000
0	 7.933329999996682e+000	 0.000000000000000e+000	 9.978627028838849e+000
0	 7.933329999996681e+000	 6.666714722864757e-002	 9.978605617697252e+000
0	 7.933329999996681e+000	 1.333351778131789e-001	 9.978707076950141e+000
0	 7.933329999996682e+000	 2.000039750814772e-001	 9.978931146609510e+000
0	 7.933329999996683e+000	 2.666734223614256e-001	 9.979277568881162e+000
0	 7.933329999996680e+000	 3.333434029809069e-001	 9.979746088164600e+000
0	 7.933329999996681e+000	 4.000138002678043e-001	 9.980336451052818e+000
0	 7.933329999996681e+000	 4.666844975500012e-001	 9.981048406332278e+000
0	 7.933329999996679e+000	 5.333553781553801e-001	 9.981881704982904e+000
0	 7.933329999996682e+000	 6.000263254118247e-001	 9.982836100178062e+000
0	 7.933329999996682e+000	 6.666972226472177e-001	 9.983911347284714e+000
0	 8.000000000000002e+000	 0.000000000000000e+000	 9.970876096111983e+000
0	 8.000000000000002e+000	 6.666714722864757e-002	 9.970839395212970e+000
0	 8.000000000000000e+000	 1.333351778131789e-001	 9.970921090933189e+000
0	 8.000000000000000e+000	 2.000039750814773e-001	 9.971121130949614e+000
0	 8.000000000000002e+000	 2.666734223614256e-001	 9.971439465075427e+000
0	 7.999999999999998e+000	 3.333434029809069e-001	 9.971876045259808e+000
0	 8.000000000000002e+000	 4.000138002678044e-001	 9.972430825587832e+000
0	 8.000000000000004e+000	 4.666844975500012e-001	 9.973103762280369e+000
0	 8.000000000000000e+000	 5.333553781553803e-001	 9.973894813694091e+000
0	 8.000000000000002e+000	 6.000263254118247e-001	 9.974803940321507e+000
0	 8.000000000000000e+000	 6.666972226472177e-001	 9.975831104791062e+000
0	 7.333299999983335e+000	 6.666972226472178e-001	 1.005553818650057e+001
0	 7.333299999983334e+000	 7.333579753122048e-001	 1.005700322358308e+001
0	 7.333299999983332e+000	 8.000185779984418e-001	 1.005850672525470e+001
0	 7.333299999983334e+000	 8.666790473703455e-001	 1.006005393752537e+001
0	 7.333299999983334e+000	 9.333394000923322e-001	 1.006165010616634e+001
0	 7.333299999983336e+000	 9.999996528288192e-001	 1.006330047671003e+001
0	 7.333299999983335e+000	 1.066659822244222e+000	 1.006501029445014e+001
0	 7.333299999983334e+000	 1.133319925002959e+000	 1.006678480444159e+001
0	 7.333299999983334e+000	 1.199979977769445e+000	 1.006862925150057e+001
0	 7.333299999983334e+000	 1.266639997208098e+000	 1.007054888020450e+001
0	 7.333299999983335e+000	 1.333299999983334e+000	 1.007254893489208e+001
0	 7.399969999982149e+000	 6.666972226472177e-001	 1.004772857568981e+001
0	 7.399969999982150e+000	 7.333579753122047e-001	 1.004921576454152e+001
0	 7.399969999982149e+000	 8.000185779984419e-001	 1.005073239100892e+001
0	 7.399969999982150e+000	 8.666790473703455e-001	 1.005228364322841e+001
0	 7.399969999982149e+000	 9.333394000923321e-001	 1.005387470911888e+001
0	 7.399969999982150e+000	 9.999996528288193e-001	 1.005551077638176e+001
0	 7.399969999982150e+000	 1.066659822244222e+000	 1.005719703250099e+001
0	 7.399969999982149e+000	 1.133319925002958e+000	 1.005893866474307e+001
0	 7.399969999982149e+000	 1.199979977769445e+000	 1.006074086015702e+001
0	 7.399969999982148e+000	 1.266639997208098e+000	 1.006260880557439e+001
0	 7.399969999982150e+000	 1.333299999983334e+000	 1.006454768760933e+001
0	 7.466639999981867e+000	 6.666972226472177e-001	 1.003987170701290e+001
0	 7.466639999981866e+000	 7.333579753122048e-001	 1.004135877187208e+001
0	 7.466639999981868e+000	 8.000185779984418e-001	 1.004287161348407e+001
0	 7.466639999981866e+000	 8.666790473703456e-001	 1.004441534374105e+001
0	 7.466639999981866e+000	 9.333394000923321e-001	 1.004599507433050e+001
0	 7.466639999981864e+000	 9.999996528288190e-001	 1.004761591673534e+001
0	 7.466639999981864e+000	 1.066659822244222e+000	 1.004928298223375e+001
0	 7.466639999981867e+000	 1.133319925002959e+000	 1.005100138189929e+001
0	 7.466639999981866e+000	 1.199979977769445e+000	 1.005277622660091e+001
0	 7.466639999981865e+000	 1.266639997208098e+000	 1.005461262700290e+001
0	 7.466639999981865e+000	 1.333299999983334e+000	 1.005651569356491e+001
0	 7.533309999982382e+000	 6.666972226472178e-001	 1.003197187738964e+001
0	 7.533309999982381e+000	 7.333579753122047e-001	 1.003344021688765e+001
0	 7.533309999982383e+000	 8.000185779984417e-001	 1.003493513020518e+001
0	 7.533309999982384e+000	 8.666790473703457e-001	 1.003646163461174e+001
0	 7.533309999982383e+000	 9.333394000923326e-001	 1.003802474717790e+001
0	 7.533309999982381e+000	 9.999996528288191e-001	 1.003962948477526e+001
0	 7.533309999982382e+000	 1.066659822244223e+000	 1.004128086407651e+001
0	 7.533309999982382e+000	 1.133319925002959e+000	 1.004298390155541e+001
0	 7.533309999982384e+000	 1.199979977769445e+000	 1.004474361348683e+001
0	 7.533309999982383e+000	 1.266639997208098e+000	 1.004656501594666e+001
0	 7.533309999982382e+000	 1.333299999983334e+000	 1.004845312481192e+001
0	 7.599979999983599e+000	 6.666972226472177e-001	 1.002403338373980e+001
0	 7.599979999983599e+000	 7.333579753122048e-001	 1.002546807090106e+001
0	 7.599979999983598e+000	 8.000185779984419e-001	 1.002693367869731e+001
0	 7.599979999983598e+000	 8.666790473703453e-001	 1.002843511138901e+001
0	 7.599979999983598e+000	 9.333394000923321e-001	 1.002997727303773e+001
0	 7.599979999983597e+000	 9.999996528288192e-001	 1.003156506750597e+001
0	 7.599979999983598e+000	 1.066659822244222e+000	 1.003320339845739e+001
0	 7.599979999983597e+000	 1.133319925002959e+000	 1.003489716935660e+001
0	 7.599979999983599e+000	 1.199979977769445e+000	 1.003665128346932e+001
0	 7.599979999983598e+000	 1.266639997208098e+000	 1.003847064386234e+001
0	 7.599979999983598e+000	 1.333299999983333e+000	 1.004036015340346e+001
0	 7.666649999985415e+000	 6.666972226472178e-001	 1.001606052298318e+001
0	 7.666649999985414e+000	 7.333579753122046e-001	 1.001745030522518e+001
0	 7.666649999985415e+000	 8.000185779984419e-001	 1.001887799648548e+001
0	 7.666649999985417e+000	 8.666790473703456e-001	 1.002034836962133e+001
0	 7.666649999985414e+000	 9.333394000923321e-001	 1.002186619728665e+001
0	 7.666649999985415e+000	 9.999996528288192e-001	 1.002343625193196e+001
0	 7.666649999985416e+000	 1.066659822244223e+000	 1.002506330580446e+001
0	 7.666649999985415e+000	 1.133319925002959e+000	 1.002675213094797e+001
0	 7.666649999985414e+000	 1.199979977769445e+000	 1.002850749920297e+001
0	 7.666649999985414e+000	 1.266639997208098e+000	 1.003033418220658e+001
0	 7.666649999985415e+000	 1.333299999983334e+000	 1.003223695139261e+001
0	 7.733319999987732e+000	 6.666972226472177e-001	 1.000805759203957e+001
0	 7.733319999987732e+000	 7.333579753122048e-001	 1.000939489117288e+001
0	 7.733319999987729e+000	 8.000185779984416e-001	 1.001077882109475e+001
0	 7.733319999987729e+000	 8.666790473703453e-001	 1.001221400485716e+001
0	 7.733319999987733e+000	 9.333394000923324e-001	 1.001370506530133e+001
0	 7.733319999987731e+000	 9.999996528288192e-001	 1.001525662505768e+001
0	 7.733319999987732e+000	 1.066659822244222e+000	 1.001687330654585e+001
0	 7.733319999987730e+000	 1.133319925002959e+000	 1.001855973197470e+001
0	 7.733319999987732e+000	 1.199979977769445e+000	 1.002032052334234e+001
0	 7.733319999987732e+000	 1.266639997208098e+000	 1.002216030243607e+001
0	 7.733319999987731e+000	 1.333299999983334e+000	 1.002408369083247e+001
0	 7.799989999990446e+000	 6.666972226472175e-001	 1.000002888782876e+001
0	 7.799989999990448e+000	 7.333579753122047e-001	 1.000130980005700e+001
0	 7.799989999990449e+000	 8.000185779984418e-001	 1.000264689005015e+001
0	 7.799989999990449e+000	 8.666790473703455e-001	 1.000404461264499e+001
0	 7.799989999990447e+000	 9.333394000923323e-001	 1.000550742245845e+001
0	 7.799989999990449e+000	 9.999996528288192e-001	 1.000703977388760e+001
0	 7.799989999990447e+000	 1.066659822244222e+000	 1.000864612110963e+001
0	 7.799989999990448e+000	 1.133319925002959e+000	 1.001033091808193e+001
0	 7.799989999990449e+000	 1.199979977769445e+000	 1.001209861854197e+001
0	 7.799989999990448e+000	 1.266639997208098e+000	 1.001395367600745e+001
0	 7.799989999990449e+000	 1.333299999983334e+000	 1.001590054377616e+001
0	 7.866659999993466e+000	 6.666972226472178e-001	 9.991978707270540e+000
0	 7.866659999993463e+000	 7.333579753122048e-001	 9.993203003190411e+000
0	 7.866659999993463e+000	 8.000185779984418e-001	 9.994492940876745e+000
0	 7.866659999993465e+000	 8.666790473703454e-001	 9.995852788533309e+000
0	 7.866659999993466e+000	 9.333394000923324e-001	 9.997286814134675e+000
0	 7.866659999993463e+000	 9.999996528288189e-001	 9.998799285426191e+000
0	 7.866659999993465e+000	 1.066659822244223e+000	 1.000039446992394e+001
0	 7.866659999993465e+000	 1.133319925002959e+000	 1.000207663491481e+001
0	 7.866659999993465e+000	 1.199979977769445e+000	 1.000385004745647e+001
0	 7.866659999993465e+000	 1.266639997208098e+000	 1.000571897437739e+001
0	 7.866659999993464e+000	 1.333299999983334e+000	 1.000768768227676e+001
0	 7.933329999996682e+000	 6.666972226472177e-001	 9.983911347284714e+000
0	 7.933329999996680e+000	 7.333579753122045e-001	 9.985082471885967e+000
0	 7.933329999996680e+000	 8.000185779984418e-001	 9.986327711099557e+000
0	 7.933329999996681e+000	 8.666790473703456e-001	 9.987651128070592e+000
0	 7.933329999996682e+000	 9.333394000923324e-001	 9.989056785706694e+000
0	 7.933329999996679e+000	 9.999996528288189e-001	 9.990548746677929e+000
0	 7.933329999996682e+000	 1.066659822244223e+000	 9.992131073416855e+000
0	 7.933329999996681e+000	 1.133319925002959e+000	 9.993807828118507e+000
0	 7.933329999996680e+000	 1.199979977769446e+000	 9.995583072740395e+000
0	 7.933329999996681e+000	 1.266639997208098e+000	 9.997460869002516e+000
0	 7.933329999996682e+000	 1.333299999983334e+000	 9.999445278387359e+000
0	 8.000000000000000e+000	 6.666972226472177e-001	 9.975831104791062e+000
0	 8.000000000000000e+000	 7.333579753122048e-001	 9.976956177456550e+000
0	 8.000000000000000e+000	 8.000185779984418e-001	 9.978161938243659e+000
0	 8.000000000000000e+000	 8.666790473703454e-001	 9.979452226805337e+000
0	 8.000000000000000e+000	 9.333394000923324e-001	 9.980830882551157e+000
0	 8.000000000000000e+000	 9.999996528288190e-001	 9.982301744647282e+000
0	 8.000000000000002e+000	 1.066659822244223e+000	 9.983868652016485e+000
0	 8.000000000000000e+000	 1.133319925002959e+000	 9.985535443338156e+000
0	 8.000000000000000e+000	 1.199979977769445e+000	 9.987305957048307e+000
0	 8.000000000000000e+000	 1.266639997208098e+000	 9.989184031339534e+000
0	 8.000000000000000e+000	 1.333299999983334e+000	 9.991173504161059e+000
0	 7.333299999983335e+000	 1.333299999983334e+000	 1.007254893489209e+001
0	 7.333299999983334e+000	 1.399969999982150e+000	 1.007458776689521e+001
0	 7.333299999983333e+000	 1.466639999981866e+000	 1.007662626702969e+001
0	 7.333299999983333e+000	 1.533309999982383e+000	 1.007867440768000e+001
0	 7.333299999983334e+000	 1.599979999983600e+000	 1.008074216123062e+001
0	 7.333299999983334e+000	 1.666649999985416e+000	 1.008283950006599e+001
0	 7.333299999983335e+000	 1.733319999987733e+000	 1.008497639657064e+001
0	 7.333299999983334e+000	 1.799989999990450e+000	 1.008716282312900e+001
0	 7.333299999983332e+000	 1.866659999993467e+000	 1.008940875212557e+001
0	 7.333299999983334e+000	 1.933329999996684e+000	 1.009172415594484e+001
0	 7.333299999983334e+000	 2.000000000000000e+000	 1.009411900697126e+001
0	 7.399969999982150e+000	 1.333299999983334e+000	 1.006454768760933e+001
0	 7.399969999982149e+000	 1.399969999982150e+000	 1.006652716051687e+001
0	 7.399969999982149e+000	 1.466639999981866e+000	 1.006851821727058e+001
0	 7.399969999982150e+000	 1.533309999982383e+000	 1.007052894172377e+001
0	 7.399969999982151e+000	 1.599979999983600e+000	 1.007256741772973e+001
0	 7.399969999982149e+000	 1.666649999985416e+000	 1.007464172914180e+001
0	 7.399969999982151e+000	 1.733319999987733e+000	 1.007675995981328e+001
0	 7.399969999982149e+000	 1.799989999990450e+000	 1.007893019359749e+001
0	 7.399969999982149e+000	 1.866659999993467e+000	 1.008116051434775e+001
0	 7.399969999982151e+000	 1.933329999996684e+000	 1.008345900591735e+001
0	 7.399969999982150e+000	 2.000000000000000e+000	 1.008583375215964e+001
0	 7.466639999981865e+000	 1.333299999983334e+000	 1.005651569356491e+001
0	 7.466639999981866e+000	 1.399969999982150e+000	 1.005846164770165e+001
0	 7.466639999981868e+000	 1.466639999981867e+000	 1.006042702919107e+001
0	 7.466639999981863e+000	 1.533309999982382e+000	 1.006241829811788e+001
0	 7.466639999981866e+000	 1.599979999983599e+000	 1.006444191456678e+001
0	 7.466639999981865e+000	 1.666649999985416e+000	 1.006650433862249e+001
0	 7.466639999981865e+000	 1.733319999987733e+000	 1.006861203036972e+001
0	 7.466639999981867e+000	 1.799989999990450e+000	 1.007077144989316e+001
0	 7.466639999981866e+000	 1.866659999993466e+000	 1.007298905727753e+001
0	 7.466639999981866e+000	 1.933329999996684e+000	 1.007527131260753e+001
0	 7.466639999981867e+000	 2.000000000000000e+000	 1.007762467596790e+001
0	 7.533309999982382e+000	 1.333299999983334e+000	 1.004845312481192e+001
0	 7.533309999982383e+000	 1.399969999982150e+000	 1.005038675747431e+001
0	 7.533309999982381e+000	 1.466639999981866e+000	 1.005234421122819e+001
0	 7.533309999982382e+000	 1.533309999982383e+000	 1.005433058715221e+001
0	 7.533309999982381e+000	 1.599979999983600e+000	 1.005635098632503e+001
0	 7.533309999982381e+000	 1.666649999985416e+000	 1.005841050982533e+001
0	 7.533309999982383e+000	 1.733319999987733e+000	 1.006051425873172e+001
0	 7.533309999982381e+000	 1.799989999990450e+000	 1.006266733412291e+001
0	 7.533309999982383e+000	 1.866659999993467e+000	 1.006487483707752e+001
0	 7.533309999982383e+000	 1.933329999996684e+000	 1.006714186867424e+001
0	 7.533309999982380e+000	 2.000000000000000e+000	 1.006947352999171e+001
0	 7.599979999983598e+000	 1.333299999983333e+000	 1.004036015340346e+001
0	 7.599979999983599e+000	 1.399969999982150e+000	 1.004229801885967e+001
0	 7.599979999983598e+000	 1.466639999981866e+000	 1.004426127181902e+001
0	 7.599979999983599e+000	 1.533309999982383e+000	 1.004625391911668e+001
0	 7.599979999983601e+000	 1.599979999983600e+000	 1.004827996758780e+001
0	 7.599979999983598e+000	 1.666649999985417e+000	 1.005034342406756e+001
0	 7.599979999983598e+000	 1.733319999987733e+000	 1.005244829539113e+001
0	 7.599979999983598e+000	 1.799989999990450e+000	 1.005459858839366e+001
0	 7.599979999983598e+000	 1.866659999993467e+000	 1.005679830991033e+001
0	 7.599979999983598e+000	 1.933329999996684e+000	 1.005905146677631e+001
0	 7.599979999983598e+000	 2.000000000000000e+000	 1.006136206582678e+001
0	 7.666649999985415e+000	 1.333299999983334e+000	 1.003223695139261e+001
0	 7.666649999985412e+000	 1.399969999982150e+000	 1.003419096088250e+001
0	 7.666649999985416e+000	 1.466639999981866e+000	 1.003616971940061e+001
0	 7.666649999985415e+000	 1.533309999982383e+000	 1.003817640430115e+001
0	 7.666649999985416e+000	 1.599979999983600e+000	 1.004021419293836e+001
0	 7.666649999985416e+000	 1.666649999985416e+000	 1.004228626266647e+001
0	 7.666649999985414e+000	 1.733319999987733e+000	 1.004439579083971e+001
0	 7.666649999985414e+000	 1.799989999990450e+000	 1.004654595481233e+001
0	 7.666649999985416e+000	 1.866659999993467e+000	 1.004873993193856e+001
0	 7.666649999985415e+000	 1.933329999996684e+000	 1.005098089957261e+001
0	 7.666649999985416e+000	 2.000000000000000e+000	 1.005327203506874e+001
0	 7.733319999987731e+000	 1.333299999983334e+000	 1.002408369083248e+001
0	 7.733319999987730e+000	 1.399969999982150e+000	 1.002606111256760e+001
0	 7.733319999987730e+000	 1.466639999981866e+000	 1.002806106241000e+001
0	 7.733319999987732e+000	 1.533309999982383e+000	 1.003008615299551e+001
0	 7.733319999987731e+000	 1.599979999983600e+000	 1.003213899695999e+001
0	 7.733319999987732e+000	 1.666649999985417e+000	 1.003422220693931e+001
0	 7.733319999987733e+000	 1.733319999987733e+000	 1.003633839556931e+001
0	 7.733319999987732e+000	 1.799989999990450e+000	 1.003849017548587e+001
0	 7.733319999987731e+000	 1.866659999993467e+000	 1.004068015932479e+001
0	 7.733319999987732e+000	 1.933329999996684e+000	 1.004291095972199e+001
0	 7.733319999987733e+000	 2.000000000000000e+000	 1.004518518931328e+001
0	 7.799989999990449e+000	 1.333299999983334e+000	 1.001590054377616e+001
0	 7.799989999990449e+000	 1.399969999982150e+000	 1.001790400293976e+001
0	 7.799989999990447e+000	 1.466639999981867e+000	 1.001992680928425e+001
0	 7.799989999990447e+000	 1.533309999982383e+000	 1.002197127548965e+001
0	 7.799989999990448e+000	 1.599979999983600e+000	 1.002403971423601e+001
0	 7.799989999990449e+000	 1.666649999985416e+000	 1.002613443820335e+001
0	 7.799989999990449e+000	 1.733319999987733e+000	 1.002825776007172e+001
0	 7.799989999990448e+000	 1.799989999990450e+000	 1.003041199252113e+001
0	 7.799989999990447e+000	 1.866659999993467e+000	 1.003259944823164e+001
0	 7.799989999990448e+000	 1.933329999996684e+000	 1.003482243988328e+001
0	 7.799989999990449e+000	 2.000000000000000e+000	 1.003708328015609e+001
0	 7.866659999993464e+000	 1.333299999983334e+000	 1.000768768227676e+001
0	 7.866659999993464e+000	 1.399969999982150e+000	 1.000971516102377e+001
0	 7.866659999993465e+000	 1.466639999981867e+000	 1.001175846846040e+001
0	 7.866659999993465e+000	 1.533309999982383e+000	 1.001381988207345e+001
0	 7.866659999993462e+000	 1.599979999983599e+000	 1.001590167934967e+001
0	 7.866659999993465e+000	 1.666649999985417e+000	 1.001800613777584e+001
0	 7.866659999993464e+000	 1.733319999987733e+000	 1.002013553483872e+001
0	 7.866659999993466e+000	 1.799989999990450e+000	 1.002229214802508e+001
0	 7.866659999993463e+000	 1.866659999993467e+000	 1.002447825482170e+001
0	 7.866659999993465e+000	 1.933329999996684e+000	 1.002669613271536e+001
0	 7.866659999993465e+000	 2.000000000000000e+000	 1.002894805919281e+001
0	 7.933329999996682e+000	 1.333299999983334e+000	 9.999445278387359e+000
0	 7.933329999996681e+000	 1.399969999982150e+000	 1.000149011584441e+001
0	 7.933329999996682e+000	 1.466639999981867e+000	 1.000354754837554e+001
0	 7.933329999996681e+000	 1.533309999982383e+000	 1.000562008303682e+001
0	 7.933329999996680e+000	 1.599979999983600e+000	 1.000771022688430e+001
0	 7.933329999996682e+000	 1.666649999985417e+000	 1.000982048697405e+001
0	 7.933329999996682e+000	 1.733319999987733e+000	 1.001195337036214e+001
0	 7.933329999996682e+000	 1.799989999990450e+000	 1.001411138410463e+001
0	 7.933329999996681e+000	 1.866659999993467e+000	 1.001629703525758e+001
0	 7.933329999996681e+000	 1.933329999996684e+000	 1.001851283087705e+001
0	 7.933329999996679e+000	 2.000000000000000e+000	 1.002076127801913e+001
0	 8.000000000000000e+000	 1.333299999983334e+000	 9.991173504161063e+000
0	 7.999999999999998e+000	 1.399969999982150e+000	 9.993224396426477e+000
0	 8.000000000000000e+000	 1.466639999981866e+000	 9.995285557466689e+000
0	 8.000000000000000e+000	 1.533309999982383e+000	 9.997359988669611e+000
0	 8.000000000000000e+000	 1.599979999983600e+000	 9.999450691423160e+000
0	 7.999999999999999e+000	 1.666649999985417e+000	 1.000156066711524e+001
0	 8.000000000000000e+000	 1.733319999987733e+000	 1.000369291713378e+001
0	 8.000000000000000e+000	 1.799989999990450e+000	 1.000585044286668e+001
0	 7.999999999999998e+000	 1.866659999993467e+000	 1.000803624570186e+001
0	 8.000000000000000e+000	 1.933329999996684e+000	 1.001025332702723e+001
0	 7.999999999999999e+000	 2.000000000000000e+000	 1.001250468823071e+001
0	 7.333299999983334e+000	 2.000000000000000e+000	 1.009411900697126e+001
0	 7.333299999983333e+000	 2.066670000003317e+000	 1.009652573841187e+001
0	 7.333299999983334e+000	 2.133340000006534e+000	 1.009887132845944e+001
0	 7.333299999983335e+000	 2.200010000009551e+000	 1.010115756697715e+001
0	 7.333299999983332e+000	 2.266680000012267e+000	 1.010338624382814e+001
0	 7.333299999983334e+000	 2.333350000014584e+000	 1.010555914887555e+001
0	 7.333299999983335e+000	 2.400020000016402e+000	 1.010767807198256e+001
0	 7.333299999983333e+000	 2.466690000017617e+000	 1.010974480301230e+001
0	 7.333299999983333e+000	 2.533360000018134e+000	 1.011176113182794e+001
0	 7.333299999983335e+000	 2.600030000017851e+000	 1.011372884829261e+001
0	 7.333299999983336e+000	 2.666700000016666e+000	 1.011564974226948e+001
0	 7.399969999982150e+000	 2.000000000000000e+000	 1.008583375215964e+001
0	 7.399969999982151e+000	 2.066670000003317e+000	 1.008821526252951e+001
0	 7.399969999982150e+000	 2.133340000006534e+000	 1.009053128320739e+001
0	 7.399969999982152e+000	 2.200010000009550e+000	 1.009278575313489e+001
0	 7.399969999982152e+000	 2.266680000012268e+000	 1.009498261125361e+001
0	 7.399969999982149e+000	 2.333350000014585e+000	 1.009712579650513e+001
0	 7.399969999982151e+000	 2.400020000016401e+000	 1.009921924783105e+001
0	 7.399969999982150e+000	 2.466690000017617e+000	 1.010126690417298e+001
0	 7.399969999982149e+000	 2.533360000018134e+000	 1.010327270447251e+001
0	 7.399969999982150e+000	 2.600030000017851e+000	 1.010524058767122e+001
0	 7.399969999982150e+000	 2.666700000016667e+000	 1.010717449271073e+001
0	 7.466639999981867e+000	 2.000000000000000e+000	 1.007762467596790e+001
0	 7.466639999981866e+000	 2.066670000003317e+000	 1.007997960325116e+001
0	 7.466639999981867e+000	 2.133340000006534e+000	 1.008226604579184e+001
0	 7.466639999981867e+000	 2.200010000009550e+000	 1.008448970683750e+001
0	 7.466639999981864e+000	 2.266680000012267e+000	 1.008665628963572e+001
0	 7.466639999981867e+000	 2.333350000014584e+000	 1.008877149743410e+001
0	 7.466639999981867e+000	 2.400020000016401e+000	 1.009084103348020e+001
0	 7.466639999981865e+000	 2.466690000017618e+000	 1.009287060102164e+001
0	 7.466639999981867e+000	 2.533360000018134e+000	 1.009486590330597e+001
0	 7.466639999981867e+000	 2.600030000017850e+000	 1.009683264358081e+001
0	 7.466639999981866e+000	 2.666700000016666e+000	 1.009877652509370e+001
0	 7.533309999982380e+000	 2.000000000000000e+000	 1.006947352999171e+001
0	 7.533309999982384e+000	 2.066670000003317e+000	 1.007180179472733e+001
0	 7.533309999982382e+000	 2.133340000006534e+000	 1.007405995771341e+001
0	 7.533309999982381e+000	 2.200010000009550e+000	 1.007625510173105e+001
0	 7.533309999982382e+000	 2.266680000012267e+000	 1.007839430956143e+001
0	 7.533309999982383e+000	 2.333350000014584e+000	 1.008048466398561e+001
0	 7.533309999982382e+000	 2.400020000016401e+000	 1.008253324778474e+001
0	 7.533309999982381e+000	 2.466690000017617e+000	 1.008454714373992e+001
0	 7.533309999982384e+000	 2.533360000018135e+000	 1.008653343463226e+001
0	 7.533309999982381e+000	 2.600030000017849e+000	 1.008849920324290e+001
0	 7.533309999982381e+000	 2.666700000016667e+000	 1.009045153235293e+001
0	 7.599979999983598e+000	 2.000000000000000e+000	 1.006136206582678e+001
0	 7.599979999983598e+000	 2.066670000003316e+000	 1.006366487110843e+001
0	 7.599979999983597e+000	 2.133340000006534e+000	 1.006589736047267e+001
0	 7.599979999983598e+000	 2.200010000009549e+000	 1.006806761146169e+001
0	 7.599979999983598e+000	 2.266680000012268e+000	 1.007018370161768e+001
0	 7.599979999983599e+000	 2.333350000014585e+000	 1.007225370848283e+001
0	 7.599979999983599e+000	 2.400020000016401e+000	 1.007428570959936e+001
0	 7.599979999983598e+000	 2.466690000017617e+000	 1.007628778250945e+001
0	 7.599979999983598e+000	 2.533360000018134e+000	 1.007826800475528e+001
0	 7.599979999983599e+000	 2.600030000017850e+000	 1.008023445387906e+001
0	 7.599979999983599e+000	 2.666700000016666e+000	 1.008219520742297e+001
0	 7.666649999985416e+000	 2.000000000000000e+000	 1.005327203506874e+001
0	 7.666649999985413e+000	 2.066670000003316e+000	 1.005555186654493e+001
0	 7.666649999985415e+000	 2.133340000006534e+000	 1.005776259557023e+001
0	 7.666649999985416e+000	 2.200010000009551e+000	 1.005991290967545e+001
0	 7.666649999985417e+000	 2.266680000012268e+000	 1.006201149639140e+001
0	 7.666649999985417e+000	 2.333350000014584e+000	 1.006406704324892e+001
0	 7.666649999985413e+000	 2.400020000016400e+000	 1.006608823777880e+001
0	 7.666649999985414e+000	 2.466690000017618e+000	 1.006808376751186e+001
0	 7.666649999985416e+000	 2.533360000018134e+000	 1.007006231997893e+001
0	 7.666649999985414e+000	 2.600030000017850e+000	 1.007203258271082e+001
0	 7.666649999985415e+000	 2.666700000016666e+000	 1.007400324323832e+001
0	 7.733319999987733e+000	 2.000000000000000e+000	 1.004518518931328e+001
0	 7.733319999987733e+000	 2.066670000003317e+000	 1.004744581518731e+001
0	 7.733319999987733e+000	 2.133340000006534e+000	 1.004964000450669e+001
0	 7.733319999987732e+000	 2.200010000009550e+000	 1.005177667001845e+001
0	 7.733319999987732e+000	 2.266680000012267e+000	 1.005386472446957e+001
0	 7.733319999987732e+000	 2.333350000014584e+000	 1.005591308060701e+001
0	 7.733319999987732e+000	 2.400020000016401e+000	 1.005793065117775e+001
0	 7.733319999987732e+000	 2.466690000017618e+000	 1.005992634892881e+001
0	 7.733319999987730e+000	 2.533360000018134e+000	 1.006190908660713e+001
0	 7.733319999987732e+000	 2.600030000017851e+000	 1.006388777695972e+001
0	 7.733319999987732e+000	 2.666700000016667e+000	 1.006587133273354e+001
0	 7.799989999990449e+000	 2.000000000000000e+000	 1.003708328015609e+001
0	 7.799989999990449e+000	 2.066670000003317e+000	 1.003932975118598e+001
0	 7.799989999990448e+000	 2.133340000006533e+000	 1.004151392878265e+001
0	 7.799989999990450e+000	 2.200010000009551e+000	 1.004364456613679e+001
0	 7.799989999990449e+000	 2.266680000012268e+000	 1.004573041643909e+001
0	 7.799989999990448e+000	 2.333350000014584e+000	 1.004778023288026e+001
0	 7.799989999990447e+000	 2.400020000016401e+000	 1.004980276865095e+001
0	 7.799989999990448e+000	 2.466690000017618e+000	 1.005180677694191e+001
0	 7.799989999990449e+000	 2.533360000018134e+000	 1.005380101094380e+001
0	 7.799989999990449e+000	 2.600030000017851e+000	 1.005579422384731e+001
0	 7.799989999990448e+000	 2.666700000016666e+000	 1.005779516884314e+001
0	 7.866659999993465e+000	 2.000000000000000e+000	 1.002894805919281e+001
0	 7.866659999993463e+000	 2.066670000003317e+000	 1.003118670869143e+001
0	 7.866659999993463e+000	 2.133340000006534e+000	 1.003336870989869e+001
0	 7.866659999993465e+000	 2.200010000009550e+000	 1.003550227167654e+001
0	 7.866659999993467e+000	 2.266680000012268e+000	 1.003759560288694e+001
0	 7.866659999993465e+000	 2.333350000014584e+000	 1.003965691239180e+001
0	 7.866659999993464e+000	 2.400020000016401e+000	 1.004169440905311e+001
0	 7.866659999993463e+000	 2.466690000017617e+000	 1.004371630173281e+001
0	 7.866659999993464e+000	 2.533360000018134e+000	 1.004573079929283e+001
0	 7.866659999993463e+000	 2.600030000017850e+000	 1.004774611059513e+001
0	 7.866659999993465e+000	 2.666700000016667e+000	 1.004977044450166e+001
0	 7.933329999996679e+000	 2.000000000000000e+000	 1.002076127801913e+001
0	 7.933329999996680e+000	 2.066670000003317e+000	 1.002299972185410e+001
0	 7.933329999996680e+000	 2.133340000006534e+000	 1.002518868935542e+001
0	 7.933329999996682e+000	 2.200010000009550e+000	 1.002733546028381e+001
0	 7.933329999996682e+000	 2.266680000012267e+000	 1.002944731440003e+001
0	 7.933329999996681e+000	 2.333350000014584e+000	 1.003153153146483e+001
0	 7.933329999996682e+000	 2.400020000016401e+000	 1.003359539123894e+001
0	 7.933329999996682e+000	 2.466690000017617e+000	 1.003564617348313e+001
0	 7.933329999996681e+000	 2.533360000018134e+000	 1.003769115795815e+001
0	 7.933329999996681e+000	 2.600030000017850e+000	 1.003973762442474e+001
0	 7.933329999996681e+000	 2.666700000016666e+000	 1.004179285264364e+001
0	 7.999999999999999e+000	 2.000000000000000e+000	 1.001250468823071e+001
0	 8.000000000000000e+000	 2.066670000003318e+000	 1.001475182482446e+001
0	 8.000000000000000e+000	 2.133340000006534e+000	 1.001695820865342e+001
0	 8.000000000000002e+000	 2.200010000009551e+000	 1.001912980560467e+001
0	 7.999999999999998e+000	 2.266680000012267e+000	 1.002127258156531e+001
0	 8.000000000000000e+000	 2.333350000014584e+000	 1.002339250242244e+001
0	 8.000000000000000e+000	 2.400020000016400e+000	 1.002549553406315e+001
0	 7.999999999999998e+000	 2.466690000017617e+000	 1.002758764237452e+001
0	 8.000000000000000e+000	 2.533360000018133e+000	 1.002967479324367e+001
0	 8.000000000000002e+000	 2.600030000017851e+000	 1.003176295255766e+001
0	 8.000000000000000e+000	 2.666700000016666e+000	 1.003385808620361e+001
0	 7.333299999983336e+000	 2.666700000016666e+000	 1.011564974226948e+001
0	 7.333299999983331e+000	 2.733360000014532e+000	 1.011748303766554e+001
0	 7.333299999983333e+000	 2.800020000011599e+000	 1.011919097697654e+001
0	 7.333299999983333e+000	 2.866680000008066e+000	 1.012077902385572e+001
0	 7.333299999983334e+000	 2.933340000004133e+000	 1.012225264195632e+001
0	 7.333299999983335e+000	 3.000000000000001e+000	 1.012361729493158e+001
0	 7.333299999983335e+000	 3.066659999995868e+000	 1.012487844643473e+001
0	 7.333299999983334e+000	 3.133319999991934e+000	 1.012604156011905e+001
0	 7.333299999983335e+000	 3.199979999988401e+000	 1.012711209963776e+001
0	 7.333299999983333e+000	 3.266639999985468e+000	 1.012809552864415e+001
0	 7.333299999983335e+000	 3.333299999983335e+000	 1.012899731079145e+001
0	 7.399969999982150e+000	 2.666700000016667e+000	 1.010717449271073e+001
0	 7.399969999982150e+000	 2.733360000014533e+000	 1.010903335927157e+001
0	 7.399969999982148e+000	 2.800020000011600e+000	 1.011077677203363e+001
0	 7.399969999982150e+000	 2.866680000008067e+000	 1.011240877427753e+001
0	 7.399969999982150e+000	 2.933340000004134e+000	 1.011393340928393e+001
0	 7.399969999982150e+000	 3.000000000000001e+000	 1.011535472033348e+001
0	 7.399969999982149e+000	 3.066659999995867e+000	 1.011667675070683e+001
0	 7.399969999982151e+000	 3.133319999991934e+000	 1.011790354368463e+001
0	 7.399969999982151e+000	 3.199979999988402e+000	 1.011903914254755e+001
0	 7.399969999982149e+000	 3.266639999985467e+000	 1.012008759057625e+001
0	 7.399969999982150e+000	 3.333299999983333e+000	 1.012105293105140e+001
0	 7.466639999981866e+000	 2.666700000016666e+000	 1.009877652509370e+001
0	 7.466639999981864e+000	 2.733360000014533e+000	 1.010065680639398e+001
0	 7.466639999981867e+000	 2.800020000011600e+000	 1.010243141722379e+001
0	 7.466639999981864e+000	 2.866680000008066e+000	 1.010410319720448e+001
0	 7.466639999981867e+000	 2.933340000004134e+000	 1.010567498595744e+001
0	 7.466639999981864e+000	 3.000000000000000e+000	 1.010714962310406e+001
0	 7.466639999981867e+000	 3.066659999995867e+000	 1.010852994826571e+001
0	 7.466639999981866e+000	 3.133319999991935e+000	 1.010981880106379e+001
0	 7.466639999981865e+000	 3.199979999988401e+000	 1.011101902111969e+001
0	 7.466639999981866e+000	 3.266639999985468e+000	 1.011213344805478e+001
0	 7.466639999981866e+000	 3.333299999983334e+000	 1.011316492149049e+001
0	 7.533309999982381e+000	 2.666700000016667e+000	 1.009045153235293e+001
0	 7.533309999982384e+000	 2.733360000014533e+000	 1.009235048389644e+001
0	 7.533309999982382e+000	 2.800020000011600e+000	 1.009415321743223e+001
0	 7.533309999982385e+000	 2.866680000008067e+000	 1.009586158563571e+001
0	 7.533309999982382e+000	 2.933340000004133e+000	 1.009747744118232e+001
0	 7.533309999982383e+000	 3.000000000000000e+000	 1.009900263674750e+001
0	 7.533309999982381e+000	 3.066659999995868e+000	 1.010043902500668e+001
0	 7.533309999982385e+000	 3.133319999991935e+000	 1.010178845863530e+001
0	 7.533309999982384e+000	 3.199979999988402e+000	 1.010305279030880e+001
0	 7.533309999982383e+000	 3.266639999985468e+000	 1.010423387270262e+001
0	 7.533309999982382e+000	 3.333299999983334e+000	 1.010533355849221e+001
0	 7.599979999983599e+000	 2.666700000016666e+000	 1.008219520742298e+001
0	 7.599979999983598e+000	 2.733360000014533e+000	 1.008411149664264e+001
0	 7.599979999983602e+000	 2.800020000011600e+000	 1.008594047754418e+001
0	 7.599979999983598e+000	 2.866680000008066e+000	 1.008768323257037e+001
0	 7.599979999983598e+000	 2.933340000004133e+000	 1.008934084416404e+001
0	 7.599979999983597e+000	 3.000000000000000e+000	 1.009091439476798e+001
0	 7.599979999983598e+000	 3.066659999995866e+000	 1.009240496682498e+001
0	 7.599979999983597e+000	 3.133319999991935e+000	 1.009381364277789e+001
0	 7.599979999983598e+000	 3.199979999988400e+000	 1.009514150506950e+001
0	 7.599979999983598e+000	 3.266639999985468e+000	 1.009638963614261e+001
0	 7.599979999983598e+000	 3.333299999983333e+000	 1.009755911844007e+001
0	 7.666649999985415e+000	 2.666700000016666e+000	 1.007400324323832e+001
0	 7.666649999985416e+000	 2.733360000014533e+000	 1.007593694949626e+001
0	 7.666649999985415e+000	 2.800020000011600e+000	 1.007779150244488e+001
0	 7.666649999985415e+000	 2.866680000008066e+000	 1.007956743100764e+001
0	 7.666649999985415e+000	 2.933340000004133e+000	 1.008126526410807e+001
0	 7.666649999985415e+000	 3.000000000000001e+000	 1.008288553066966e+001
0	 7.666649999985414e+000	 3.066659999995868e+000	 1.008442875961589e+001
0	 7.666649999985416e+000	 3.133319999991935e+000	 1.008589547987031e+001
0	 7.666649999985416e+000	 3.199979999988402e+000	 1.008728622035637e+001
0	 7.666649999985417e+000	 3.266639999985468e+000	 1.008860150999764e+001
0	 7.666649999985413e+000	 3.333299999983333e+000	 1.008984187771757e+001
0	 7.733319999987732e+000	 2.666700000016667e+000	 1.006587133273354e+001
0	 7.733319999987729e+000	 2.733360000014532e+000	 1.006782394732101e+001
0	 7.733319999987730e+000	 2.800020000011599e+000	 1.006970459701955e+001
0	 7.733319999987731e+000	 2.866680000008066e+000	 1.007151347394668e+001
0	 7.733319999987733e+000	 2.933340000004133e+000	 1.007325077021990e+001
0	 7.733319999987731e+000	 3.000000000000000e+000	 1.007491667795673e+001
0	 7.733319999987733e+000	 3.066659999995868e+000	 1.007651138927468e+001
0	 7.733319999987730e+000	 3.133319999991933e+000	 1.007803509629129e+001
0	 7.733319999987732e+000	 3.199979999988402e+000	 1.007948799112407e+001
0	 7.733319999987732e+000	 3.266639999985468e+000	 1.008087026589053e+001
0	 7.733319999987732e+000	 3.333299999983334e+000	 1.008218211270822e+001
0	 7.799989999990448e+000	 2.666700000016666e+000	 1.005779516884314e+001
0	 7.799989999990447e+000	 2.733360000014533e+000	 1.005976959498055e+001
0	 7.799989999990448e+000	 2.800020000011599e+000	 1.006167806615343e+001
0	 7.799989999990449e+000	 2.866680000008067e+000	 1.006352065438662e+001
0	 7.799989999990447e+000	 2.933340000004134e+000	 1.006529743170499e+001
0	 7.799989999990447e+000	 3.000000000000000e+000	 1.006700847013337e+001
0	 7.799989999990448e+000	 3.066659999995867e+000	 1.006865384169662e+001
0	 7.799989999990447e+000	 3.133319999991934e+000	 1.007023361841960e+001
0	 7.799989999990448e+000	 3.199979999988401e+000	 1.007174787232717e+001
0	 7.799989999990448e+000	 3.266639999985468e+000	 1.007319667544418e+001
0	 7.799989999990448e+000	 3.333299999983334e+000	 1.007458009979552e+001
0	 7.866659999993465e+000	 2.666700000016667e+000	 1.004977044450166e+001
0	 7.866659999993464e+000	 2.733360000014533e+000	 1.005177099733858e+001
0	 7.866659999993466e+000	 2.800020000011601e+000	 1.005371021473175e+001
0	 7.866659999993465e+000	 2.866680000008067e+000	 1.005558826532665e+001
0	 7.866659999993464e+000	 2.933340000004133e+000	 1.005740531776882e+001
0	 7.866659999993465e+000	 3.000000000000000e+000	 1.005916154070375e+001
0	 7.866659999993466e+000	 3.066659999995868e+000	 1.006085710277697e+001
0	 7.866659999993464e+000	 3.133319999991935e+000	 1.006249217263398e+001
0	 7.866659999993463e+000	 3.199979999988400e+000	 1.006406691892030e+001
0	 7.866659999993464e+000	 3.266639999985467e+000	 1.006558151028145e+001
0	 7.866659999993466e+000	 3.333299999983334e+000	 1.006703611536295e+001
0	 7.933329999996681e+000	 2.666700000016666e+000	 1.004179285264364e+001
0	 7.933329999996681e+000	 2.733360000014532e+000	 1.004382525925879e+001
0	 7.933329999996680e+000	 2.800020000011600e+000	 1.004579934763972e+001
0	 7.933329999996681e+000	 2.866680000008067e+000	 1.004771559976592e+001
0	 7.933329999996681e+000	 2.933340000004133e+000	 1.004957449761687e+001
0	 7.933329999996682e+000	 2.999999999999999e+000	 1.005137652317205e+001
0	 7.933329999996680e+000	 3.066659999995867e+000	 1.005312215841099e+001
0	 7.933329999996681e+000	 3.133319999991934e+000	 1.005481188531315e+001
0	 7.933329999996680e+000	 3.199979999988400e+000	 1.005644618585805e+001
0	 7.933329999996682e+000	 3.266639999985469e+000	 1.005802554202517e+001
0	 7.933329999996682e+000	 3.333299999983334e+000	 1.005955043579402e+001
0	 8.000000000000000e+000	 2.666700000016666e+000	 1.003385808620361e+001
0	 8.000000000000000e+000	 2.733360000014533e+000	 1.003592948560487e+001
0	 8.000000000000000e+000	 2.800020000011600e+000	 1.003794376976258e+001
0	 8.000000000000000e+000	 2.866680000008067e+000	 1.003990195070357e+001
0	 8.000000000000000e+000	 2.933340000004133e+000	 1.004180504045459e+001
0	 8.000000000000000e+000	 3.000000000000001e+000	 1.004365405104247e+001
0	 8.000000000000002e+000	 3.066659999995868e+000	 1.004544999449396e+001
0	 7.999999999999999e+000	 3.133319999991934e+000	 1.004719388283589e+001
0	 7.999999999999999e+000	 3.199979999988401e+000	 1.004888672809504e+001
0	 8.000000000000000e+000	 3.266639999985468e+000	 1.005052954229823e+001
0	 7.999999999999998e+000	 3.333299999983333e+000	 1.005212333747224e+001
0	 7.333299999983335e+000	 3.333299999983335e+000	 1.012899731079145e+001
0	 7.333299999983333e+000	 3.399969999982150e+000	 1.012980969133228e+001
0	 7.333299999983334e+000	 3.466639999981866e+000	 1.013052112399223e+001
0	 7.333299999983335e+000	 3.533309999982382e+000	 1.013113177342376e+001
0	 7.333299999983334e+000	 3.599979999983599e+000	 1.013164180427934e+001
0	 7.333299999983334e+000	 3.666649999985415e+000	 1.013205138121147e+001
0	 7.333299999983333e+000	 3.733319999987732e+000	 1.013236066887262e+001
0	 7.333299999983335e+000	 3.799989999990449e+000	 1.013256983191527e+001
0	 7.333299999983335e+000	 3.866659999993465e+000	 1.013267903499188e+001
0	 7.333299999983332e+000	 3.933329999996681e+000	 1.013268844275493e+001
0	 7.333299999983334e+000	 4.000000000000000e+000	 1.013259821985691e+001
0	 7.399969999982150e+000	 3.333299999983333e+000	 1.012105293105140e+001
0	 7.399969999982148e+000	 3.399969999982150e+000	 1.012192976813500e+001
0	 7.399969999982149e+000	 3.466639999981866e+000	 1.012270990570193e+001
0	 7.399969999982148e+000	 3.533309999982383e+000	 1.012339360295428e+001
0	 7.399969999982152e+000	 3.599979999983599e+000	 1.012398111909419e+001
0	 7.399969999982149e+000	 3.666649999985415e+000	 1.012447271332376e+001
0	 7.399969999982151e+000	 3.733319999987733e+000	 1.012486864484512e+001
0	 7.399969999982149e+000	 3.799989999990448e+000	 1.012516917286036e+001
0	 7.399969999982152e+000	 3.866659999993465e+000	 1.012537455657160e+001
0	 7.399969999982152e+000	 3.933329999996682e+000	 1.012548505518094e+001
0	 7.399969999982151e+000	 4.000000000000001e+000	 1.012550092789049e+001
0	 7.466639999981866e+000	 3.333299999983334e+000	 1.011316492149049e+001
0	 7.466639999981867e+000	 3.399969999982150e+000	 1.011410937976197e+001
0	 7.466639999981867e+000	 3.466639999981866e+000	 1.011496079956487e+001
0	 7.466639999981866e+000	 3.533309999982383e+000	 1.011571952403028e+001
0	 7.466639999981864e+000	 3.599979999983598e+000	 1.011638589628931e+001
0	 7.466639999981866e+000	 3.666649999985415e+000	 1.011696025947305e+001
0	 7.466639999981864e+000	 3.733319999987732e+000	 1.011744295671260e+001
0	 7.466639999981866e+000	 3.799989999990449e+000	 1.011783433113906e+001
0	 7.466639999981867e+000	 3.866659999993465e+000	 1.011813472588354e+001
0	 7.466639999981867e+000	 3.933329999996682e+000	 1.011834448407710e+001
0	 7.466639999981866e+000	 4.000000000000002e+000	 1.011846394885086e+001
0	 7.533309999982382e+000	 3.333299999983334e+000	 1.010533355849221e+001
0	 7.533309999982384e+000	 3.399969999982150e+000	 1.010634824884236e+001
0	 7.533309999982382e+000	 3.466639999981866e+000	 1.010727306951388e+001
0	 7.533309999982381e+000	 3.533309999982382e+000	 1.010810843694622e+001
0	 7.533309999982382e+000	 3.599979999983599e+000	 1.010885476757882e+001
0	 7.533309999982383e+000	 3.666649999985415e+000	 1.010951247785112e+001
0	 7.533309999982381e+000	 3.733319999987731e+000	 1.011008198420254e+001
0	 7.533309999982381e+000	 3.799989999990447e+000	 1.011056370307254e+001
0	 7.533309999982382e+000	 3.866659999993465e+000	 1.011095805090054e+001
0	 7.533309999982384e+000	 3.933329999996682e+000	 1.011126544412597e+001
0	 7.533309999982382e+000	 4.000000000000001e+000	 1.011148629918827e+001
0	 7.599979999983598e+000	 3.333299999983333e+000	 1.009755911844007e+001
0	 7.599979999983599e+000	 3.399969999982150e+000	 1.009864609800530e+001
0	 7.599979999983599e+000	 3.466639999981866e+000	 1.009964597948176e+001
0	 7.599979999983598e+000	 3.533309999982382e+000	 1.010055924199657e+001
0	 7.599979999983599e+000	 3.599979999983599e+000	 1.010138636467686e+001
0	 7.599979999983598e+000	 3.666649999985415e+000	 1.010212782664978e+001
0	 7.599979999983597e+000	 3.733319999987731e+000	 1.010278410704242e+001
0	 7.599979999983599e+000	 3.799989999990449e+000	 1.010335568498195e+001
0	 7.599979999983598e+000	 3.866659999993465e+000	 1.010384303959546e+001
0	 7.599979999983598e+000	 3.933329999996681e+000	 1.010424665001010e+001
0	 7.599979999983600e+000	 4.000000000000001e+000	 1.010456699535297e+001
0	 7.666649999985413e+000	 3.333299999983333e+000	 1.008984187771757e+001
0	 7.666649999985415e+000	 3.399969999982150e+000	 1.009100264987996e+001
0	 7.666649999985414e+000	 3.466639999981865e+000	 1.009207879340131e+001
0	 7.666649999985415e+000	 3.533309999982383e+000	 1.009307083947578e+001
0	 7.666649999985416e+000	 3.599979999983600e+000	 1.009397931929756e+001
0	 7.666649999985414e+000	 3.666649999985414e+000	 1.009480476406081e+001
0	 7.666649999985414e+000	 3.733319999987732e+000	 1.009554770495971e+001
0	 7.666649999985414e+000	 3.799989999990448e+000	 1.009620867318843e+001
0	 7.666649999985414e+000	 3.866659999993465e+000	 1.009678819994114e+001
0	 7.666649999985415e+000	 3.933329999996682e+000	 1.009728681641200e+001
0	 7.666649999985417e+000	 4.000000000000001e+000	 1.009770505379519e+001
0	 7.733319999987732e+000	 3.333299999983334e+000	 1.008218211270822e+001
0	 7.733319999987730e+000	 3.399969999982149e+000	 1.008341762709547e+001
0	 7.733319999987731e+000	 3.466639999981866e+000	 1.008457077520531e+001
0	 7.733319999987731e+000	 3.533309999982382e+000	 1.008564212967831e+001
0	 7.733319999987732e+000	 3.599979999983599e+000	 1.008663226315503e+001
0	 7.733319999987732e+000	 3.666649999985416e+000	 1.008754174827602e+001
0	 7.733319999987732e+000	 3.733319999987732e+000	 1.008837115768189e+001
0	 7.733319999987732e+000	 3.799989999990448e+000	 1.008912106401317e+001
0	 7.733319999987732e+000	 3.866659999993465e+000	 1.008979203991043e+001
0	 7.733319999987732e+000	 3.933329999996682e+000	 1.009038465801424e+001
0	 7.733319999987731e+000	 4.000000000000000e+000	 1.009089949096516e+001
0	 7.799989999990448e+000	 3.333299999983334e+000	 1.007458009979552e+001
0	 7.799989999990449e+000	 3.399969999982150e+000	 1.007589075228100e+001
0	 7.799989999990447e+000	 3.466639999981866e+000	 1.007712118882661e+001
0	 7.799989999990447e+000	 3.533309999982382e+000	 1.007827201289863e+001
0	 7.799989999990446e+000	 3.599979999983598e+000	 1.007934382796340e+001
0	 7.799989999990447e+000	 3.666649999985415e+000	 1.008033723748722e+001
0	 7.799989999990450e+000	 3.733319999987731e+000	 1.008125284493642e+001
0	 7.799989999990449e+000	 3.799989999990449e+000	 1.008209125377729e+001
0	 7.799989999990449e+000	 3.866659999993465e+000	 1.008285306747617e+001
0	 7.799989999990448e+000	 3.933329999996682e+000	 1.008353888949935e+001
0	 7.799989999990449e+000	 4.000000000000001e+000	 1.008414932331314e+001
0	 7.866659999993466e+000	 3.333299999983334e+000	 1.006703611536295e+001
0	 7.866659999993466e+000	 3.399969999982150e+000	 1.006842174806569e+001
0	 7.866659999993463e+000	 3.466639999981866e+000	 1.006972929819796e+001
0	 7.866659999993464e+000	 3.533309999982382e+000	 1.007095938943119e+001
0	 7.866659999993465e+000	 3.599979999983600e+000	 1.007211264543680e+001
0	 7.866659999993463e+000	 3.666649999985415e+000	 1.007318968988619e+001
0	 7.866659999993464e+000	 3.733319999987732e+000	 1.007419114645077e+001
0	 7.866659999993463e+000	 3.799989999990448e+000	 1.007511763880199e+001
0	 7.866659999993464e+000	 3.866659999993466e+000	 1.007596979061120e+001
0	 7.866659999993464e+000	 3.933329999996682e+000	 1.007674822554986e+001
0	 7.866659999993466e+000	 4.000000000000001e+000	 1.007745356728937e+001
0	 7.933329999996682e+000	 3.333299999983334e+000	 1.005955043579402e+001
0	 7.933329999996683e+000	 3.399969999982150e+000	 1.006101033707866e+001
0	 7.933329999996681e+000	 3.466639999981866e+000	 1.006239436725220e+001
0	 7.933329999996682e+000	 3.533309999982383e+000	 1.006370315957047e+001
0	 7.933329999996681e+000	 3.599979999983599e+000	 1.006493734728935e+001
0	 7.933329999996681e+000	 3.666649999985415e+000	 1.006609756366472e+001
0	 7.933329999996681e+000	 3.733319999987732e+000	 1.006718444195244e+001
0	 7.933329999996682e+000	 3.799989999990448e+000	 1.006819861540837e+001
0	 7.933329999996681e+000	 3.866659999993465e+000	 1.006914071728838e+001
0	 7.933329999996681e+000	 3.933329999996681e+000	 1.007001138084833e+001
0	 7.933329999996682e+000	 4.000000000000000e+000	 1.007081123934409e+001
0	 7.999999999999998e+000	 3.333299999983333e+000	 1.005212333747223e+001
0	 8.000000000000000e+000	 3.399969999982150e+000	 1.005365624194910e+001
0	 8.000000000000002e+000	 3.466639999981866e+000	 1.005511565992209e+001
0	 7.999999999999998e+000	 3.533309999982382e+000	 1.005650222361090e+001
0	 8.000000000000000e+000	 3.599979999983599e+000	 1.005781656523518e+001
0	 8.000000000000000e+000	 3.666649999985415e+000	 1.005905931701462e+001
0	 8.000000000000000e+000	 3.733319999987732e+000	 1.006023111116888e+001
0	 8.000000000000002e+000	 3.799989999990449e+000	 1.006133257991763e+001
0	 7.999999999999999e+000	 3.866659999993465e+000	 1.006236435548055e+001
0	 7.999999999999999e+000	 3.933329999996682e+000	 1.006332707007729e+001
0	 8.000000000000000e+000	 4.000000000000001e+000	 1.006422135592752e+001
0	 7.333299999983334e+000	 4.000000000000000e+000	 1.013259821985691e+001
0	 7.333299999983334e+000	 4.066670000003316e+000	 1.013242015122411e+001
0	 7.333299999983334e+000	 4.133340000006534e+000	 1.013216441678453e+001
0	 7.333299999983334e+000	 4.200010000009550e+000	 1.013182877369310e+001
0	 7.333299999983333e+000	 4.266680000012266e+000	 1.013141097910476e+001
0	 7.333299999983335e+000	 4.333350000014584e+000	 1.013090879017445e+001
0	 7.333299999983332e+000	 4.400020000016399e+000	 1.013031996405709e+001
0	 7.333299999983334e+000	 4.466690000017616e+000	 1.012964225790763e+001
0	 7.333299999983334e+000	 4.533360000018133e+000	 1.012887342888100e+001
0	 7.333299999983335e+000	 4.600030000017849e+000	 1.012801123413212e+001
0	 7.333299999983333e+000	 4.666700000016665e+000	 1.012705343081592e+001
0	 7.399969999982151e+000	 4.000000000000001e+000	 1.012550092789049e+001
0	 7.399969999982151e+000	 4.066670000003317e+000	 1.012543089938364e+001
0	 7.399969999982151e+000	 4.133340000006534e+000	 1.012528235787869e+001
0	 7.399969999982150e+000	 4.200010000009550e+000	 1.012505355788002e+001
0	 7.399969999982150e+000	 4.266680000012266e+000	 1.012474275389205e+001
0	 7.399969999982149e+000	 4.333350000014583e+000	 1.012434820041917e+001
0	 7.399969999982150e+000	 4.400020000016400e+000	 1.012386815196577e+001
0	 7.399969999982151e+000	 4.466690000017616e+000	 1.012330086303627e+001
0	 7.399969999982150e+000	 4.533360000018132e+000	 1.012264458813506e+001
0	 7.399969999982149e+000	 4.600030000017848e+000	 1.012189758176653e+001
0	 7.399969999982151e+000	 4.666700000016665e+000	 1.012105809843509e+001
0	 7.466639999981866e+000	 4.000000000000002e+000	 1.011846394885086e+001
0	 7.466639999981867e+000	 4.066670000003318e+000	 1.011849925759099e+001
0	 7.466639999981866e+000	 4.133340000006533e+000	 1.011845544320013e+001
0	 7.466639999981867e+000	 4.200010000009550e+000	 1.011833119208405e+001
0	 7.466639999981865e+000	 4.266680000012267e+000	 1.011812519064853e+001
0	 7.466639999981866e+000	 4.333350000014583e+000	 1.011783612529931e+001
0	 7.466639999981866e+000	 4.400020000016400e+000	 1.011746268244218e+001
0	 7.466639999981864e+000	 4.466690000017616e+000	 1.011700354848289e+001
0	 7.466639999981864e+000	 4.533360000018133e+000	 1.011645740982721e+001
0	 7.466639999981867e+000	 4.600030000017849e+000	 1.011582295288092e+001
0	 7.466639999981865e+000	 4.666700000016666e+000	 1.011509886404974e+001
0	 7.533309999982382e+000	 4.000000000000001e+000	 1.011148629918827e+001
0	 7.533309999982384e+000	 4.066670000003318e+000	 1.011162459683903e+001
0	 7.533309999982381e+000	 4.133340000006533e+000	 1.011168340877627e+001
0	 7.533309999982382e+000	 4.200010000009550e+000	 1.011166178785900e+001
0	 7.533309999982383e+000	 4.266680000012267e+000	 1.011155878694630e+001
0	 7.533309999982381e+000	 4.333350000014582e+000	 1.011137345889715e+001
0	 7.533309999982381e+000	 4.400020000016400e+000	 1.011110485657062e+001
0	 7.533309999982381e+000	 4.466690000017614e+000	 1.011075203282574e+001
0	 7.533309999982381e+000	 4.533360000018133e+000	 1.011031404052151e+001
0	 7.533309999982381e+000	 4.600030000017848e+000	 1.010978993251699e+001
0	 7.533309999982381e+000	 4.666700000016666e+000	 1.010917876167121e+001
0	 7.599979999983600e+000	 4.000000000000001e+000	 1.010456699535297e+001
0	 7.599979999983598e+000	 4.066670000003316e+000	 1.010480628812067e+001
0	 7.599979999983598e+000	 4.133340000006532e+000	 1.010496599063451e+001
0	 7.599979999983598e+000	 4.200010000009550e+000	 1.010504545675871e+001
0	 7.599979999983598e+000	 4.266680000012268e+000	 1.010504404035746e+001
0	 7.599979999983598e+000	 4.333350000014583e+000	 1.010496109529495e+001
0	 7.599979999983598e+000	 4.400020000016400e+000	 1.010479597543542e+001
0	 7.599979999983598e+000	 4.466690000017615e+000	 1.010454803464305e+001
0	 7.599979999983598e+000	 4.533360000018132e+000	 1.010421662678200e+001
0	 7.599979999983601e+000	 4.600030000017850e+000	 1.010380110571653e+001
0	 7.599979999983598e+000	 4.666700000016666e+000	 1.010330082531080e+001
0	 7.666649999985417e+000	 4.000000000000001e+000	 1.009770505379519e+001
0	 7.666649999985413e+000	 4.066670000003316e+000	 1.009804370242877e+001
0	 7.666649999985416e+000	 4.133340000006535e+000	 1.009830292480228e+001
0	 7.666649999985415e+000	 4.200010000009550e+000	 1.009848231033698e+001
0	 7.666649999985414e+000	 4.266680000012268e+000	 1.009858144845412e+001
0	 7.666649999985416e+000	 4.333350000014582e+000	 1.009859992857501e+001
0	 7.666649999985417e+000	 4.400020000016400e+000	 1.009853734012088e+001
0	 7.666649999985414e+000	 4.466690000017616e+000	 1.009839327251304e+001
0	 7.666649999985415e+000	 4.533360000018133e+000	 1.009816731517274e+001
0	 7.666649999985416e+000	 4.600030000017848e+000	 1.009785905752125e+001
0	 7.666649999985414e+000	 4.666700000016665e+000	 1.009746808897982e+001
0	 7.733319999987731e+000	 4.000000000000000e+000	 1.009089949096516e+001
0	 7.733319999987733e+000	 4.066670000003318e+000	 1.009133621075624e+001
0	 7.733319999987732e+000	 4.133340000006534e+000	 1.009169394730697e+001
0	 7.733319999987733e+000	 4.200010000009550e+000	 1.009197246014760e+001
0	 7.733319999987732e+000	 4.266680000012268e+000	 1.009217150880838e+001
0	 7.733319999987733e+000	 4.333350000014584e+000	 1.009229085281954e+001
0	 7.733319999987733e+000	 4.400020000016400e+000	 1.009233025171135e+001
0	 7.733319999987733e+000	 4.466690000017617e+000	 1.009228946501400e+001
0	 7.733319999987732e+000	 4.533360000018134e+000	 1.009216825225778e+001
0	 7.733319999987731e+000	 4.600030000017849e+000	 1.009196637297290e+001
0	 7.733319999987731e+000	 4.666700000016666e+000	 1.009168358668961e+001
0	 7.799989999990449e+000	 4.000000000000001e+000	 1.008414932331314e+001
0	 7.799989999990449e+000	 4.066670000003317e+000	 1.008468318409594e+001
0	 7.799989999990446e+000	 4.133340000006533e+000	 1.008513879417599e+001
0	 7.799989999990448e+000	 4.200010000009550e+000	 1.008551601774441e+001
0	 7.799989999990450e+000	 4.266680000012268e+000	 1.008581471899233e+001
0	 7.799989999990448e+000	 4.333350000014582e+000	 1.008603476211086e+001
0	 7.799989999990446e+000	 4.400020000016397e+000	 1.008617601129110e+001
0	 7.799989999990449e+000	 4.466690000017618e+000	 1.008623833072416e+001
0	 7.799989999990449e+000	 4.533360000018133e+000	 1.008622158460117e+001
0	 7.799989999990449e+000	 4.600030000017848e+000	 1.008612563711322e+001
0	 7.799989999990448e+000	 4.666700000016666e+000	 1.008595035245143e+001
0	 7.866659999993466e+000	 4.000000000000001e+000	 1.007745356728937e+001
0	 7.866659999993463e+000	 4.066670000003317e+000	 1.007808399344077e+001
0	 7.866659999993463e+000	 4.133340000006534e+000	 1.007863720143676e+001
0	 7.866659999993465e+000	 4.200010000009550e+000	 1.007911309468123e+001
0	 7.866659999993465e+000	 4.266680000012266e+000	 1.007951157657808e+001
0	 7.866659999993465e+000	 4.333350000014584e+000	 1.007983255053119e+001
0	 7.866659999993465e+000	 4.400020000016399e+000	 1.008007591994445e+001
0	 7.866659999993463e+000	 4.466690000017616e+000	 1.008024158822175e+001
0	 7.866659999993465e+000	 4.533360000018132e+000	 1.008032945876695e+001
0	 7.866659999993465e+000	 4.600030000017849e+000	 1.008033943498395e+001
0	 7.866659999993463e+000	 4.666700000016665e+000	 1.008027142027663e+001
0	 7.933329999996682e+000	 4.000000000000000e+000	 1.007081123934409e+001
0	 7.933329999996682e+000	 4.066670000003317e+000	 1.007153800978361e+001
0	 7.933329999996681e+000	 4.133340000006532e+000	 1.007218890511668e+001
0	 7.933329999996681e+000	 4.200010000009550e+000	 1.007276380251187e+001
0	 7.933329999996683e+000	 4.266680000012268e+000	 1.007326257913774e+001
0	 7.933329999996681e+000	 4.333350000014583e+000	 1.007368511216285e+001
0	 7.933329999996682e+000	 4.400020000016401e+000	 1.007403127875575e+001
0	 7.933329999996681e+000	 4.466690000017615e+000	 1.007430095608501e+001
0	 7.933329999996681e+000	 4.533360000018132e+000	 1.007449402131918e+001
0	 7.933329999996680e+000	 4.600030000017847e+000	 1.007461035162682e+001
0	 7.933329999996681e+000	 4.666700000016666e+000	 1.007464982417650e+001
0	 8.000000000000000e+000	 4.000000000000001e+000	 1.006422135592752e+001
0	 7.999999999999999e+000	 4.066670000003318e+000	 1.006504460411735e+001
0	 7.999999999999999e+000	 4.133340000006533e+000	 1.006579364124317e+001
0	 8.000000000000002e+000	 4.200010000009550e+000	 1.006646825279013e+001
0	 7.999999999999999e+000	 4.266680000012267e+000	 1.006706822424338e+001
0	 8.000000000000002e+000	 4.333350000014583e+000	 1.006759334108806e+001
0	 7.999999999999999e+000	 4.400020000016400e+000	 1.006804338880928e+001
0	 8.000000000000000e+000	 4.466690000017616e+000	 1.006841815289219e+001
0	 8.000000000000000e+000	 4.533360000018132e+000	 1.006871741882191e+001
0	 8.000000000000000e+000	 4.600030000017848e+000	 1.006894097208360e+001
0	 8.000000000000000e+000	 4.666700000016666e+000	 1.006908859816236e+001
0	 7.333299999983333e+000	 4.666700000016665e+000	 1.012705343081592e+001
0	 7.333299999983334e+000	 4.733360000014534e+000	 1.012601885239122e+001
0	 7.333299999983334e+000	 4.800020000011601e+000	 1.012492626545728e+001
0	 7.333299999983334e+000	 4.866680000008066e+000	 1.012377377971699e+001
0	 7.333299999983334e+000	 4.933340000004134e+000	 1.012255950487328e+001
0	 7.333299999983335e+000	 5.000000000000000e+000	 1.012128155062900e+001
0	 7.333299999983335e+000	 5.066659999995866e+000	 1.011993802668710e+001
0	 7.333299999983334e+000	 5.133319999991932e+000	 1.011852704275045e+001
0	 7.333299999983334e+000	 5.199979999988400e+000	 1.011704670852194e+001
0	 7.333299999983334e+000	 5.266639999985465e+000	 1.011549513370451e+001
0	 7.333299999983334e+000	 5.333299999983333e+000	 1.011387042800106e+001
0	 7.399969999982151e+000	 4.666700000016665e+000	 1.012105809843509e+001
0	 7.399969999982150e+000	 4.733360000014534e+000	 1.012014394041351e+001
0	 7.399969999982149e+000	 4.800020000011600e+000	 1.011917245884222e+001
0	 7.399969999982147e+000	 4.866680000008065e+000	 1.011814163034372e+001
0	 7.399969999982148e+000	 4.933340000004133e+000	 1.011704943154058e+001
0	 7.399969999982149e+000	 5.000000000000000e+000	 1.011589383905530e+001
0	 7.399969999982151e+000	 5.066659999995867e+000	 1.011467282951042e+001
0	 7.399969999982149e+000	 5.133319999991934e+000	 1.011338437952850e+001
0	 7.399969999982151e+000	 5.199979999988398e+000	 1.011202646573206e+001
0	 7.399969999982148e+000	 5.266639999985466e+000	 1.011059706474364e+001
0	 7.399969999982150e+000	 5.333299999983334e+000	 1.010909415318580e+001
0	 7.466639999981865e+000	 4.666700000016666e+000	 1.011509886404974e+001
0	 7.466639999981866e+000	 4.733360000014534e+000	 1.011430204036193e+001
0	 7.466639999981867e+000	 4.800020000011600e+000	 1.011344861064819e+001
0	 7.466639999981863e+000	 4.866680000008066e+000	 1.011253645520493e+001
0	 7.466639999981867e+000	 4.933340000004134e+000	 1.011156345432855e+001
0	 7.466639999981864e+000	 4.999999999999999e+000	 1.011052748831541e+001
0	 7.466639999981866e+000	 5.066659999995866e+000	 1.010942643746191e+001
0	 7.466639999981864e+000	 5.133319999991931e+000	 1.010825818206450e+001
0	 7.466639999981866e+000	 5.199979999988400e+000	 1.010702060241951e+001
0	 7.466639999981864e+000	 5.266639999985466e+000	 1.010571157882338e+001
0	 7.466639999981866e+000	 5.333299999983334e+000	 1.010432899157250e+001
0	 7.533309999982381e+000	 4.666700000016666e+000	 1.010917876167121e+001
0	 7.533309999982383e+000	 4.733360000014533e+000	 1.010849661673261e+001
0	 7.533309999982384e+000	 4.800020000011601e+000	 1.010775856853100e+001
0	 7.533309999982384e+000	 4.866680000008067e+000	 1.010696243779089e+001
0	 7.533309999982381e+000	 4.933340000004134e+000	 1.010610604523674e+001
0	 7.533309999982383e+000	 5.000000000000001e+000	 1.010518721159305e+001
0	 7.533309999982382e+000	 5.066659999995867e+000	 1.010420375758427e+001
0	 7.533309999982383e+000	 5.133319999991935e+000	 1.010315350393492e+001
0	 7.533309999982384e+000	 5.199979999988400e+000	 1.010203427136947e+001
0	 7.533309999982383e+000	 5.266639999985467e+000	 1.010084388061241e+001
0	 7.533309999982381e+000	 5.333299999983334e+000	 1.009958015238823e+001
0	 7.599979999983598e+000	 4.666700000016666e+000	 1.010330082531080e+001
0	 7.599979999983598e+000	 4.733360000014534e+000	 1.010273113402163e+001
0	 7.599979999983599e+000	 4.800020000011600e+000	 1.010210618014635e+001
0	 7.599979999983599e+000	 4.866680000008065e+000	 1.010142376159177e+001
0	 7.599979999983598e+000	 4.933340000004134e+000	 1.010068167626468e+001
0	 7.599979999983598e+000	 5.000000000000001e+000	 1.009987772207189e+001
0	 7.599979999983597e+000	 5.066659999995865e+000	 1.009900969692016e+001
0	 7.599979999983598e+000	 5.133319999991934e+000	 1.009807539871629e+001
0	 7.599979999983599e+000	 5.199979999988399e+000	 1.009707262536711e+001
0	 7.599979999983600e+000	 5.266639999985466e+000	 1.009599917477940e+001
0	 7.599979999983598e+000	 5.333299999983333e+000	 1.009485284485996e+001
0	 7.666649999985414e+000	 4.666700000016665e+000	 1.009746808897983e+001
0	 7.666649999985417e+000	 4.733360000014534e+000	 1.009700905672512e+001
0	 7.666649999985416e+000	 4.800020000011601e+000	 1.009649529315001e+001
0	 7.666649999985418e+000	 4.866680000008066e+000	 1.009592461009785e+001
0	 7.666649999985414e+000	 4.933340000004133e+000	 1.009529481941193e+001
0	 7.666649999985414e+000	 5.000000000000001e+000	 1.009460373293563e+001
0	 7.666649999985415e+000	 5.066659999995866e+000	 1.009384916251224e+001
0	 7.666649999985415e+000	 5.133319999991933e+000	 1.009302891998512e+001
0	 7.666649999985419e+000	 5.199979999988400e+000	 1.009214081719761e+001
0	 7.666649999985415e+000	 5.266639999985466e+000	 1.009118266599303e+001
0	 7.666649999985414e+000	 5.333299999983333e+000	 1.009015227821473e+001
0	 7.733319999987731e+000	 4.666700000016666e+000	 1.009168358668961e+001
0	 7.733319999987731e+000	 4.733360000014534e+000	 1.009133384933918e+001
0	 7.733319999987730e+000	 4.800020000011599e+000	 1.009092975519772e+001
0	 7.733319999987730e+000	 4.866680000008065e+000	 1.009046916679930e+001
0	 7.733319999987732e+000	 4.933340000004131e+000	 1.008994994667801e+001
0	 7.733319999987731e+000	 5.000000000000000e+000	 1.008936995736796e+001
0	 7.733319999987732e+000	 5.066659999995868e+000	 1.008872706140323e+001
0	 7.733319999987733e+000	 5.133319999991934e+000	 1.008801912131792e+001
0	 7.733319999987733e+000	 5.199979999988399e+000	 1.008724399964614e+001
0	 7.733319999987733e+000	 5.266639999985466e+000	 1.008639955892198e+001
0	 7.733319999987730e+000	 5.333299999983334e+000	 1.008548366167954e+001
0	 7.799989999990448e+000	 4.666700000016666e+000	 1.008595035245143e+001
0	 7.799989999990450e+000	 4.733360000014533e+000	 1.008570897635995e+001
0	 7.799989999990448e+000	 4.800020000011599e+000	 1.008541341394525e+001
0	 7.799989999990449e+000	 4.866680000008067e+000	 1.008506161518640e+001
0	 7.799989999990446e+000	 4.933340000004134e+000	 1.008465153006248e+001
0	 7.799989999990447e+000	 4.999999999999999e+000	 1.008418110855257e+001
0	 7.799989999990448e+000	 5.066659999995865e+000	 1.008364830063578e+001
0	 7.799989999990450e+000	 5.133319999991934e+000	 1.008305105629118e+001
0	 7.799989999990449e+000	 5.199979999988399e+000	 1.008238732549786e+001
0	 7.799989999990449e+000	 5.266639999985467e+000	 1.008165505823491e+001
0	 7.799989999990448e+000	 5.333299999983333e+000	 1.008085220448144e+001
0	 7.866659999993463e+000	 4.666700000016665e+000	 1.008027142027663e+001
0	 7.866659999993463e+000	 4.733360000014533e+000	 1.008013790228352e+001
0	 7.866659999993464e+000	 4.800020000011601e+000	 1.007995011704831e+001
0	 7.866659999993464e+000	 4.866680000008067e+000	 1.007970613874933e+001
0	 7.866659999993465e+000	 4.933340000004133e+000	 1.007940404156484e+001
0	 7.866659999993466e+000	 5.000000000000001e+000	 1.007904189967317e+001
0	 7.866659999993466e+000	 5.066659999995867e+000	 1.007861778725259e+001
0	 7.866659999993465e+000	 5.133319999991934e+000	 1.007812977848143e+001
0	 7.866659999993463e+000	 5.199979999988400e+000	 1.007757594753796e+001
0	 7.866659999993463e+000	 5.266639999985467e+000	 1.007695436860053e+001
0	 7.866659999993463e+000	 5.333299999983333e+000	 1.007626311584741e+001
0	 7.933329999996681e+000	 4.666700000016666e+000	 1.007464982417650e+001
0	 7.933329999996682e+000	 4.733360000014532e+000	 1.007462409160599e+001
0	 7.933329999996682e+000	 4.800020000011600e+000	 1.007454371216270e+001
0	 7.933329999996681e+000	 4.866680000008068e+000	 1.007440692097835e+001
0	 7.933329999996681e+000	 4.933340000004133e+000	 1.007421195318468e+001
0	 7.933329999996680e+000	 4.999999999999998e+000	 1.007395704391342e+001
0	 7.933329999996682e+000	 5.066659999995868e+000	 1.007364042829632e+001
0	 7.933329999996680e+000	 5.133319999991932e+000	 1.007326034146514e+001
0	 7.933329999996682e+000	 5.199979999988400e+000	 1.007281501855160e+001
0	 7.933329999996682e+000	 5.266639999985467e+000	 1.007230269468747e+001
0	 7.933329999996681e+000	 5.333299999983334e+000	 1.007172160500447e+001
0	 8.000000000000000e+000	 4.666700000016666e+000	 1.006908859816236e+001
0	 8.000000000000000e+000	 4.733360000014532e+000	 1.006917100882350e+001
0	 8.000000000000000e+000	 4.800020000011600e+000	 1.006919804694413e+001
0	 8.000000000000002e+000	 4.866680000008067e+000	 1.006916814536367e+001
0	 8.000000000000000e+000	 4.933340000004133e+000	 1.006907973692149e+001
0	 8.000000000000002e+000	 5.000000000000001e+000	 1.006893125445703e+001
0	 8.000000000000000e+000	 5.066659999995868e+000	 1.006872113080969e+001
0	 8.000000000000000e+000	 5.133319999991932e+000	 1.006844779881886e+001
0	 8.000000000000002e+000	 5.199979999988399e+000	 1.006810969132397e+001
0	 7.999999999999999e+000	 5.266639999985465e+000	 1.006770524116443e+001
0	 7.999999999999998e+000	 5.333299999983333e+000	 1.006723288117966e+001
0	 7.333299999983334e+000	 5.333299999983333e+000	 1.011387042800106e+001
0	 7.333299999983333e+000	 5.399969999982149e+000	 1.011219619780586e+001
0	 7.333299999983333e+000	 5.466639999981867e+000	 1.011049600093497e+001
0	 7.333299999983334e+000	 5.533309999982382e+000	 1.010876712629370e+001
0	 7.333299999983335e+000	 5.599979999983599e+000	 1.010700686278728e+001
0	 7.333299999983334e+000	 5.666649999985415e+000	 1.010521249932098e+001
0	 7.333299999983335e+000	 5.733319999987731e+000	 1.010338132480010e+001
0	 7.333299999983336e+000	 5.799989999990447e+000	 1.010151062812992e+001
0	 7.333299999983333e+000	 5.866659999993465e+000	 1.009959769821568e+001
0	 7.333299999983334e+000	 5.933329999996682e+000	 1.009763982396264e+001
0	 7.333299999983333e+000	 6.000000000000001e+000	 1.009563429427610e+001
0	 7.399969999982150e+000	 5.333299999983334e+000	 1.010909415318580e+001
0	 7.399969999982150e+000	 5.399969999982151e+000	 1.010754053575074e+001
0	 7.399969999982148e+000	 5.466639999981865e+000	 1.010595915711078e+001
0	 7.399969999982151e+000	 5.533309999982381e+000	 1.010434751063563e+001
0	 7.399969999982150e+000	 5.599979999983598e+000	 1.010270308969507e+001
0	 7.399969999982149e+000	 5.666649999985415e+000	 1.010102338765879e+001
0	 7.399969999982149e+000	 5.733319999987731e+000	 1.009930589789655e+001
0	 7.399969999982151e+000	 5.799989999990448e+000	 1.009754811377809e+001
0	 7.399969999982150e+000	 5.866659999993464e+000	 1.009574752867316e+001
0	 7.399969999982152e+000	 5.933329999996682e+000	 1.009390163595143e+001
0	 7.399969999982151e+000	 5.999999999999999e+000	 1.009200792898272e+001
0	 7.466639999981866e+000	 5.333299999983334e+000	 1.010432899157251e+001
0	 7.466639999981867e+000	 5.399969999982149e+000	 1.010289473250756e+001
0	 7.466639999981867e+000	 5.466639999981867e+000	 1.010143098598611e+001
0	 7.466639999981866e+000	 5.533309999982381e+000	 1.009993543198189e+001
0	 7.466639999981866e+000	 5.599979999983599e+000	 1.009840575046877e+001
0	 7.466639999981867e+000	 5.666649999985415e+000	 1.009683962142050e+001
0	 7.466639999981866e+000	 5.733319999987733e+000	 1.009523472481085e+001
0	 7.466639999981866e+000	 5.799989999990448e+000	 1.009358874061368e+001
0	 7.466639999981867e+000	 5.866659999993467e+000	 1.009189934880273e+001
0	 7.466639999981867e+000	 5.933329999996682e+000	 1.009016422935180e+001
0	 7.466639999981867e+000	 6.000000000000001e+000	 1.008838106223467e+001
0	 7.533309999982381e+000	 5.333299999983334e+000	 1.009958015238823e+001
0	 7.533309999982384e+000	 5.399969999982149e+000	 1.009826398054130e+001
0	 7.533309999982382e+000	 5.466639999981864e+000	 1.009691666795401e+001
0	 7.533309999982381e+000	 5.533309999982381e+000	 1.009553606334379e+001
0	 7.533309999982382e+000	 5.599979999983599e+000	 1.009412001542809e+001
0	 7.533309999982382e+000	 5.666649999985414e+000	 1.009266637292431e+001
0	 7.533309999982382e+000	 5.733319999987731e+000	 1.009117298454992e+001
0	 7.533309999982382e+000	 5.799989999990449e+000	 1.008963769902235e+001
0	 7.533309999982382e+000	 5.866659999993464e+000	 1.008805836505902e+001
0	 7.533309999982384e+000	 5.933329999996681e+000	 1.008643283137738e+001
0	 7.533309999982381e+000	 5.999999999999998e+000	 1.008475894669484e+001
0	 7.599979999983598e+000	 5.333299999983333e+000	 1.009485284485996e+001
0	 7.599979999983599e+000	 5.399969999982149e+000	 1.009365347231693e+001
0	 7.599979999983599e+000	 5.466639999981866e+000	 1.009242138340760e+001
0	 7.599979999983600e+000	 5.533309999982382e+000	 1.009115457773262e+001
0	 7.599979999983599e+000	 5.599979999983598e+000	 1.008985105489268e+001
0	 7.599979999983598e+000	 5.666649999985415e+000	 1.008850881448844e+001
0	 7.599979999983598e+000	 5.733319999987732e+000	 1.008712585612056e+001
0	 7.599979999983598e+000	 5.799989999990447e+000	 1.008570017938972e+001
0	 7.599979999983598e+000	 5.866659999993464e+000	 1.008422978389659e+001
0	 7.599979999983599e+000	 5.933329999996682e+000	 1.008271266924181e+001
0	 7.599979999983597e+000	 6.000000000000001e+000	 1.008114683502606e+001
0	 7.666649999985414e+000	 5.333299999983333e+000	 1.009015227821473e+001
0	 7.666649999985414e+000	 5.399969999982151e+000	 1.008906840029943e+001
0	 7.666649999985414e+000	 5.466639999981864e+000	 1.008795031273992e+001
0	 7.666649999985415e+000	 5.533309999982381e+000	 1.008679614815973e+001
0	 7.666649999985416e+000	 5.599979999983598e+000	 1.008560403918226e+001
0	 7.666649999985415e+000	 5.666649999985415e+000	 1.008437211843108e+001
0	 7.666649999985413e+000	 5.733319999987732e+000	 1.008309851852966e+001
0	 7.666649999985414e+000	 5.799989999990446e+000	 1.008178137210147e+001
0	 7.666649999985413e+000	 5.866659999993464e+000	 1.008041881177000e+001
0	 7.666649999985416e+000	 5.933329999996681e+000	 1.007900897015875e+001
0	 7.666649999985416e+000	 6.000000000000000e+000	 1.007754997989119e+001
0	 7.733319999987730e+000	 5.333299999983334e+000	 1.008548366167954e+001
0	 7.733319999987729e+000	 5.399969999982148e+000	 1.008451395695379e+001
0	 7.733319999987732e+000	 5.466639999981866e+000	 1.008350863634410e+001
0	 7.733319999987731e+000	 5.533309999982381e+000	 1.008246594763638e+001
0	 7.733319999987730e+000	 5.599979999983598e+000	 1.008138413861654e+001
0	 7.733319999987732e+000	 5.666649999985415e+000	 1.008026145707047e+001
0	 7.733319999987732e+000	 5.733319999987732e+000	 1.007909615078407e+001
0	 7.733319999987731e+000	 5.799989999990448e+000	 1.007788646754324e+001
0	 7.733319999987732e+000	 5.866659999993464e+000	 1.007663065513386e+001
0	 7.733319999987732e+000	 5.933329999996682e+000	 1.007532696134184e+001
0	 7.733319999987733e+000	 6.000000000000000e+000	 1.007397363395307e+001
0	 7.799989999990448e+000	 5.333299999983333e+000	 1.008085220448144e+001
0	 7.799989999990450e+000	 5.399969999982149e+000	 1.007999533474496e+001
0	 7.799989999990447e+000	 5.466639999981865e+000	 1.007910153461316e+001
0	 7.799989999990448e+000	 5.533309999982382e+000	 1.007816914917395e+001
0	 7.799989999990445e+000	 5.599979999983597e+000	 1.007719652351520e+001
0	 7.799989999990447e+000	 5.666649999985414e+000	 1.007618200272480e+001
0	 7.799989999990450e+000	 5.733319999987732e+000	 1.007512393189067e+001
0	 7.799989999990448e+000	 5.799989999990448e+000	 1.007402065610068e+001
0	 7.799989999990449e+000	 5.866659999993465e+000	 1.007287052044275e+001
0	 7.799989999990449e+000	 5.933329999996680e+000	 1.007167187000473e+001
0	 7.799989999990449e+000	 6.000000000000001e+000	 1.007042304987456e+001
0	 7.866659999993463e+000	 5.333299999983333e+000	 1.007626311584741e+001
0	 7.866659999993466e+000	 5.399969999982150e+000	 1.007551772613796e+001
0	 7.866659999993463e+000	 5.466639999981865e+000	 1.007473418794025e+001
0	 7.866659999993464e+000	 5.533309999982381e+000	 1.007391092578374e+001
0	 7.866659999993464e+000	 5.599979999983598e+000	 1.007304636419793e+001
0	 7.866659999993463e+000	 5.666649999985414e+000	 1.007213892771229e+001
0	 7.866659999993465e+000	 5.733319999987732e+000	 1.007118704085631e+001
0	 7.866659999993462e+000	 5.799989999990447e+000	 1.007018912815947e+001
0	 7.866659999993464e+000	 5.866659999993465e+000	 1.006914361415122e+001
0	 7.866659999993465e+000	 5.933329999996681e+000	 1.006804892336109e+001
0	 7.866659999993463e+000	 5.999999999999999e+000	 1.006690348031851e+001
0	 7.933329999996681e+000	 5.333299999983334e+000	 1.007172160500447e+001
0	 7.933329999996683e+000	 5.399969999982150e+000	 1.007108632359775e+001
0	 7.933329999996681e+000	 5.466639999981868e+000	 1.007041177671839e+001
0	 7.933329999996682e+000	 5.533309999982383e+000	 1.006969645047706e+001
0	 7.933329999996680e+000	 5.599979999983597e+000	 1.006893883098442e+001
0	 7.933329999996680e+000	 5.666649999985415e+000	 1.006813740435113e+001
0	 7.933329999996682e+000	 5.733319999987732e+000	 1.006729065668786e+001
0	 7.933329999996682e+000	 5.799989999990449e+000	 1.006639707410521e+001
0	 7.933329999996681e+000	 5.866659999993464e+000	 1.006545514271390e+001
0	 7.933329999996682e+000	 5.933329999996683e+000	 1.006446334862452e+001
0	 7.933329999996679e+000	 6.000000000000000e+000	 1.006342017794778e+001
0	 7.999999999999998e+000	 5.333299999983333e+000	 1.006723288117966e+001
0	 8.000000000000000e+000	 5.399969999982149e+000	 1.006670631958929e+001
0	 8.000000000000002e+000	 5.466639999981867e+000	 1.006613948134067e+001
0	 8.000000000000000e+000	 5.533309999982383e+000	 1.006553089626523e+001
0	 7.999999999999999e+000	 5.599979999983598e+000	 1.006487909419438e+001
0	 7.999999999999998e+000	 5.666649999985415e+000	 1.006418260495954e+001
0	 8.000000000000000e+000	 5.733319999987731e+000	 1.006343995839215e+001
0	 8.000000000000000e+000	 5.799989999990446e+000	 1.006264968432361e+001
0	 7.999999999999998e+000	 5.866659999993464e+000	 1.006181031258532e+001
0	 8.000000000000000e+000	 5.933329999996680e+000	 1.006092037300871e+001
0	 7.999999999999999e+000	 6.000000000000000e+000	 1.005997839542522e+001
0	 7.333299999983333e+000	 6.000000000000001e+000	 1.009563429427610e+001
0	 7.333299999983333e+000	 6.066670000003316e+000	 1.009360214345581e+001
0	 7.333299999983332e+000	 6.133340000006531e+000	 1.009156469058850e+001
0	 7.333299999983335e+000	 6.200010000009550e+000	 1.008951965175983e+001
0	 7.333299999983334e+000	 6.266680000012268e+000	 1.008746474305553e+001
0	 7.333299999983332e+000	 6.333350000014582e+000	 1.008539768056125e+001
0	 7.333299999983335e+000	 6.400020000016400e+000	 1.008331618036270e+001
0	 7.333299999983334e+000	 6.466690000017615e+000	 1.008121795854555e+001
0	 7.333299999983334e+000	 6.533360000018131e+000	 1.007910073119547e+001
0	 7.333299999983336e+000	 6.600030000017849e+000	 1.007696221439815e+001
0	 7.333299999983333e+000	 6.666700000016665e+000	 1.007480012423929e+001
0	 7.399969999982151e+000	 5.999999999999999e+000	 1.009200792898272e+001
0	 7.399969999982150e+000	 6.066670000003315e+000	 1.009008663244353e+001
0	 7.399969999982150e+000	 6.133340000006533e+000	 1.008815815379752e+001
0	 7.399969999982151e+000	 6.200010000009549e+000	 1.008622026059498e+001
0	 7.399969999982151e+000	 6.266680000012268e+000	 1.008427072038622e+001
0	 7.399969999982149e+000	 6.333350000014582e+000	 1.008230730072155e+001
0	 7.399969999982148e+000	 6.400020000016398e+000	 1.008032776915129e+001
0	 7.399969999982150e+000	 6.466690000017615e+000	 1.007832989322575e+001
0	 7.399969999982151e+000	 6.533360000018132e+000	 1.007631144049523e+001
0	 7.399969999982148e+000	 6.600030000017847e+000	 1.007427017851004e+001
0	 7.399969999982150e+000	 6.666700000016666e+000	 1.007220387482050e+001
0	 7.466639999981867e+000	 6.000000000000001e+000	 1.008838106223467e+001
0	 7.466639999981865e+000	 6.066670000003319e+000	 1.008656933918572e+001
0	 7.466639999981865e+000	 6.133340000006533e+000	 1.008474864659202e+001
0	 7.466639999981869e+000	 6.200010000009552e+000	 1.008291680640645e+001
0	 7.466639999981864e+000	 6.266680000012266e+000	 1.008107164058188e+001
0	 7.466639999981865e+000	 6.333350000014583e+000	 1.007921097107122e+001
0	 7.466639999981866e+000	 6.400020000016400e+000	 1.007733261982732e+001
0	 7.466639999981865e+000	 6.466690000017616e+000	 1.007543440880303e+001
0	 7.466639999981864e+000	 6.533360000018130e+000	 1.007351415995130e+001
0	 7.466639999981866e+000	 6.600030000017847e+000	 1.007156969522493e+001
0	 7.466639999981865e+000	 6.666700000016667e+000	 1.006959883657685e+001
0	 7.533309999982381e+000	 5.999999999999998e+000	 1.008475894669484e+001
0	 7.533309999982382e+000	 6.066670000003316e+000	 1.008305553717547e+001
0	 7.533309999982381e+000	 6.133340000006532e+000	 1.008134144936732e+001
0	 7.533309999982382e+000	 6.200010000009550e+000	 1.007961456256375e+001
0	 7.533309999982382e+000	 6.266680000012266e+000	 1.007787275605818e+001
0	 7.533309999982381e+000	 6.333350000014584e+000	 1.007611390914397e+001
0	 7.533309999982381e+000	 6.400020000016401e+000	 1.007433590111450e+001
0	 7.533309999982381e+000	 6.466690000017614e+000	 1.007253661126318e+001
0	 7.533309999982383e+000	 6.533360000018134e+000	 1.007071391888337e+001
0	 7.533309999982381e+000	 6.600030000017846e+000	 1.006886570326849e+001
0	 7.533309999982381e+000	 6.666700000016666e+000	 1.006698984371190e+001
0	 7.599979999983597e+000	 6.000000000000001e+000	 1.008114683502606e+001
0	 7.599979999983598e+000	 6.066670000003318e+000	 1.007955049990592e+001
0	 7.599979999983597e+000	 6.133340000006534e+000	 1.007794184251876e+001
0	 7.599979999983598e+000	 6.200010000009550e+000	 1.007631880243641e+001
0	 7.599979999983598e+000	 6.266680000012265e+000	 1.007467931923073e+001
0	 7.599979999983598e+000	 6.333350000014583e+000	 1.007302133247351e+001
0	 7.599979999983598e+000	 6.400020000016396e+000	 1.007134278173666e+001
0	 7.599979999983599e+000	 6.466690000017618e+000	 1.006964160659195e+001
0	 7.599979999983598e+000	 6.533360000018131e+000	 1.006791574661124e+001
0	 7.599979999983599e+000	 6.600030000017847e+000	 1.006616314136640e+001
0	 7.599979999983598e+000	 6.666700000016665e+000	 1.006438173042921e+001
0	 7.666649999985416e+000	 6.000000000000000e+000	 1.007754997989119e+001
0	 7.666649999985415e+000	 6.066670000003317e+000	 1.007605950087015e+001
0	 7.666649999985416e+000	 6.133340000006534e+000	 1.007455510644164e+001
0	 7.666649999985414e+000	 6.200010000009550e+000	 1.007303479939389e+001
0	 7.666649999985414e+000	 6.266680000012267e+000	 1.007149658251512e+001
0	 7.666649999985416e+000	 6.333350000014583e+000	 1.006993845859358e+001
0	 7.666649999985416e+000	 6.400020000016400e+000	 1.006835843041752e+001
0	 7.666649999985416e+000	 6.466690000017616e+000	 1.006675450077513e+001
0	 7.666649999985415e+000	 6.533360000018130e+000	 1.006512467245466e+001
0	 7.666649999985415e+000	 6.600030000017849e+000	 1.006346694824433e+001
0	 7.666649999985416e+000	 6.666700000016666e+000	 1.006177933093239e+001
0	 7.733319999987733e+000	 6.000000000000000e+000	 1.007397363395307e+001
0	 7.733319999987732e+000	 6.066670000003316e+000	 1.007258781356126e+001
0	 7.733319999987733e+000	 6.133340000006533e+000	 1.007118652153127e+001
0	 7.733319999987732e+000	 6.200010000009551e+000	 1.006976782680567e+001
0	 7.733319999987732e+000	 6.266680000012267e+000	 1.006832979832703e+001
0	 7.733319999987733e+000	 6.333350000014584e+000	 1.006687050503790e+001
0	 7.733319999987732e+000	 6.400020000016400e+000	 1.006538801588085e+001
0	 7.733319999987732e+000	 6.466690000017615e+000	 1.006388039979849e+001
0	 7.733319999987730e+000	 6.533360000018130e+000	 1.006234572573334e+001
0	 7.733319999987733e+000	 6.600030000017849e+000	 1.006078206262798e+001
0	 7.733319999987732e+000	 6.666700000016666e+000	 1.005918747942498e+001
0	 7.799989999990449e+000	 6.000000000000001e+000	 1.007042304987456e+001
0	 7.799989999990449e+000	 6.066670000003319e+000	 1.006914071147239e+001
0	 7.799989999990447e+000	 6.133340000006532e+000	 1.006784136818300e+001
0	 7.799989999990446e+000	 6.200010000009549e+000	 1.006652315804124e+001
0	 7.799989999990449e+000	 6.266680000012267e+000	 1.006518421908204e+001
0	 7.799989999990448e+000	 6.333350000014583e+000	 1.006382268934014e+001
0	 7.799989999990448e+000	 6.400020000016398e+000	 1.006243670685045e+001
0	 7.799989999990448e+000	 6.466690000017617e+000	 1.006102440964780e+001
0	 7.799989999990450e+000	 6.533360000018132e+000	 1.005958393576705e+001
0	 7.799989999990450e+000	 6.600030000017848e+000	 1.005811342324303e+001
0	 7.799989999990448e+000	 6.666700000016665e+000	 1.005661101011058e+001
0	 7.866659999993463e+000	 5.999999999999999e+000	 1.006690348031851e+001
0	 7.866659999993465e+000	 6.066670000003317e+000	 1.006572346809658e+001
0	 7.866659999993463e+000	 6.133340000006531e+000	 1.006452492679211e+001
0	 7.866659999993463e+000	 6.200010000009550e+000	 1.006330606647015e+001
0	 7.866659999993466e+000	 6.266680000012266e+000	 1.006206509719578e+001
0	 7.866659999993464e+000	 6.333350000014582e+000	 1.006080022903407e+001
0	 7.866659999993464e+000	 6.400020000016399e+000	 1.005950967205006e+001
0	 7.866659999993463e+000	 6.466690000017616e+000	 1.005819163630888e+001
0	 7.866659999993464e+000	 6.533360000018132e+000	 1.005684433187555e+001
0	 7.866659999993465e+000	 6.600030000017849e+000	 1.005546596881517e+001
0	 7.866659999993463e+000	 6.666700000016664e+000	 1.005405475719274e+001
0	 7.933329999996679e+000	 6.000000000000000e+000	 1.006342017794778e+001
0	 7.933329999996681e+000	 6.066670000003316e+000	 1.006234135692700e+001
0	 7.933329999996681e+000	 6.133340000006533e+000	 1.006124247775394e+001
0	 7.933329999996681e+000	 6.200010000009550e+000	 1.006012182546183e+001
0	 7.933329999996682e+000	 6.266680000012266e+000	 1.005897768508388e+001
0	 7.933329999996682e+000	 6.333350000014583e+000	 1.005780834165336e+001
0	 7.933329999996682e+000	 6.400020000016397e+000	 1.005661208020348e+001
0	 7.933329999996682e+000	 6.466690000017616e+000	 1.005538718576749e+001
0	 7.933329999996679e+000	 6.533360000018130e+000	 1.005413194337858e+001
0	 7.933329999996683e+000	 6.600030000017849e+000	 1.005284463807005e+001
0	 7.933329999996681e+000	 6.666700000016666e+000	 1.005152355487505e+001
0	 7.999999999999999e+000	 6.000000000000000e+000	 1.005997839542522e+001
0	 8.000000000000002e+000	 6.066670000003317e+000	 1.005899965145672e+001
0	 8.000000000000002e+000	 6.133340000006534e+000	 1.005799930146380e+001
0	 8.000000000000000e+000	 6.200010000009550e+000	 1.005697570838576e+001
0	 8.000000000000000e+000	 6.266680000012268e+000	 1.005592723516197e+001
0	 8.000000000000000e+000	 6.333350000014583e+000	 1.005485224473174e+001
0	 7.999999999999999e+000	 6.400020000016398e+000	 1.005374910003443e+001
0	 8.000000000000000e+000	 6.466690000017616e+000	 1.005261616400937e+001
0	 7.999999999999997e+000	 6.533360000018131e+000	 1.005145179959590e+001
0	 8.000000000000000e+000	 6.600030000017847e+000	 1.005025436973336e+001
0	 8.000000000000000e+000	 6.666700000016666e+000	 1.004902223736106e+001
0	 7.333299999983333e+000	 6.666700000016665e+000	 1.007480012423929e+001
0	 7.333299999983335e+000	 6.733360000014532e+000	 1.007263327000593e+001
0	 7.333299999983334e+000	 6.800020000011601e+000	 1.007047987712117e+001
0	 7.333299999983333e+000	 6.866680000008065e+000	 1.006833776441310e+001
0	 7.333299999983335e+000	 6.933340000004135e+000	 1.006620475070974e+001
0	 7.333299999983334e+000	 7.000000000000001e+000	 1.006407865483918e+001
0	 7.333299999983334e+000	 7.066659999995871e+000	 1.006195729562946e+001
0	 7.333299999983333e+000	 7.133319999991936e+000	 1.005983849190863e+001
0	 7.333299999983334e+000	 7.199979999988404e+000	 1.005772006250476e+001
0	 7.333299999983334e+000	 7.266639999985473e+000	 1.005559982624590e+001
0	 7.333299999983334e+000	 7.333299999983334e+000	 1.005347560196010e+001
0	 7.399969999982150e+000	 6.666700000016666e+000	 1.007220387482050e+001
0	 7.399969999982151e+000	 6.733360000014534e+000	 1.007013114838363e+001
0	 7.399969999982149e+000	 6.800020000011597e+000	 1.006807006013267e+001
0	 7.399969999982147e+000	 6.866680000008065e+000	 1.006601847634138e+001
0	 7.399969999982151e+000	 6.933340000004133e+000	 1.006397426328351e+001
0	 7.399969999982151e+000	 7.000000000000004e+000	 1.006193528723278e+001
0	 7.399969999982151e+000	 7.066659999995871e+000	 1.005989941446297e+001
0	 7.399969999982149e+000	 7.133319999991935e+000	 1.005786451124782e+001
0	 7.399969999982148e+000	 7.199979999988403e+000	 1.005582844386106e+001
0	 7.399969999982149e+000	 7.266639999985471e+000	 1.005378907857644e+001
0	 7.399969999982148e+000	 7.333299999983332e+000	 1.005174428166773e+001
0	 7.466639999981865e+000	 6.666700000016667e+000	 1.006959883657685e+001
0	 7.466639999981866e+000	 6.733360000014533e+000	 1.006761996353520e+001
0	 7.466639999981867e+000	 6.800020000011600e+000	 1.006565092260747e+001
0	 7.466639999981865e+000	 6.866680000008065e+000	 1.006368962932264e+001
0	 7.466639999981867e+000	 6.933340000004135e+000	 1.006173399920960e+001
0	 7.466639999981864e+000	 7.000000000000002e+000	 1.005978194779734e+001
0	 7.466639999981866e+000	 7.066659999995869e+000	 1.005783139061476e+001
0	 7.466639999981867e+000	 7.133319999991937e+000	 1.005588024319080e+001
0	 7.466639999981867e+000	 7.199979999988405e+000	 1.005392642105443e+001
0	 7.466639999981865e+000	 7.266639999985471e+000	 1.005196783973460e+001
0	 7.466639999981866e+000	 7.333299999983334e+000	 1.005000241476017e+001
0	 7.533309999982381e+000	 6.666700000016666e+000	 1.006698984371190e+001
0	 7.533309999982383e+000	 6.733360000014533e+000	 1.006510443843786e+001
0	 7.533309999982383e+000	 6.800020000011601e+000	 1.006322707678265e+001
0	 7.533309999982383e+000	 6.866680000008066e+000	 1.006135572533991e+001
0	 7.533309999982381e+000	 6.933340000004133e+000	 1.005948835070327e+001
0	 7.533309999982383e+000	 7.000000000000004e+000	 1.005762291946635e+001
0	 7.533309999982381e+000	 7.066659999995869e+000	 1.005575739822280e+001
0	 7.533309999982382e+000	 7.133319999991936e+000	 1.005388975356624e+001
0	 7.533309999982384e+000	 7.199979999988405e+000	 1.005201795209032e+001
0	 7.533309999982384e+000	 7.266639999985473e+000	 1.005013996038869e+001
0	 7.533309999982381e+000	 7.333299999983334e+000	 1.004825374505493e+001
0	 7.599979999983598e+000	 6.666700000016665e+000	 1.006438173042922e+001
0	 7.599979999983599e+000	 6.733360000014532e+000	 1.006258929606888e+001
0	 7.599979999983599e+000	 6.800020000011599e+000	 1.006080313489530e+001
0	 7.599979999983598e+000	 6.866680000008066e+000	 1.005902126637631e+001
0	 7.599979999983599e+000	 6.933340000004134e+000	 1.005724170997971e+001
0	 7.599979999983596e+000	 7.000000000000000e+000	 1.005546248517336e+001
0	 7.599979999983598e+000	 7.066659999995867e+000	 1.005368161142511e+001
0	 7.599979999983598e+000	 7.133319999991937e+000	 1.005189710820275e+001
0	 7.599979999983598e+000	 7.199979999988404e+000	 1.005010699497414e+001
0	 7.599979999983599e+000	 7.266639999985471e+000	 1.004830929120709e+001
0	 7.599979999983598e+000	 7.333299999983333e+000	 1.004650201636943e+001
0	 7.666649999985416e+000	 6.666700000016666e+000	 1.006177933093240e+001
0	 7.666649999985415e+000	 6.733360000014534e+000	 1.006007925940548e+001
0	 7.666649999985416e+000	 6.800020000011600e+000	 1.005838370918246e+001
0	 7.666649999985415e+000	 6.866680000008067e+000	 1.005669075441483e+001
0	 7.666649999985413e+000	 6.933340000004132e+000	 1.005499846925413e+001
0	 7.666649999985416e+000	 7.000000000000003e+000	 1.005330492785190e+001
0	 7.666649999985416e+000	 7.066659999995871e+000	 1.005160820435967e+001
0	 7.666649999985416e+000	 7.133319999991938e+000	 1.004990637292895e+001
0	 7.666649999985415e+000	 7.199979999988405e+000	 1.004819750771126e+001
0	 7.666649999985416e+000	 7.266639999985471e+000	 1.004647968285819e+001
0	 7.666649999985414e+000	 7.333299999983333e+000	 1.004475097252118e+001
0	 7.733319999987732e+000	 6.666700000016666e+000	 1.005918747942498e+001
0	 7.733319999987733e+000	 6.733360000014533e+000	 1.005757905142494e+001
0	 7.733319999987730e+000	 6.800020000011599e+000	 1.005597341188122e+001
0	 7.733319999987732e+000	 6.866680000008069e+000	 1.005436869143861e+001
0	 7.733319999987731e+000	 6.933340000004131e+000	 1.005276302074178e+001
0	 7.733319999987732e+000	 7.000000000000001e+000	 1.005115453043551e+001
0	 7.733319999987732e+000	 7.066659999995868e+000	 1.004954135116449e+001
0	 7.733319999987732e+000	 7.133319999991937e+000	 1.004792161357346e+001
0	 7.733319999987732e+000	 7.199979999988404e+000	 1.004629344830717e+001
0	 7.733319999987732e+000	 7.266639999985470e+000	 1.004465498601031e+001
0	 7.733319999987731e+000	 7.333299999983332e+000	 1.004300435732763e+001
0	 7.799989999990448e+000	 6.666700000016665e+000	 1.005661101011058e+001
0	 7.799989999990448e+000	 6.733360000014533e+000	 1.005509339510446e+001
0	 7.799989999990448e+000	 6.800020000011601e+000	 1.005357685522868e+001
0	 7.799989999990446e+000	 6.866680000008066e+000	 1.005205957943067e+001
0	 7.799989999990448e+000	 6.933340000004135e+000	 1.005053975665785e+001
0	 7.799989999990448e+000	 7.000000000000001e+000	 1.004901557585767e+001
0	 7.799989999990448e+000	 7.066659999995870e+000	 1.004748522597755e+001
0	 7.799989999990449e+000	 7.133319999991937e+000	 1.004594689596492e+001
0	 7.799989999990448e+000	 7.199979999988403e+000	 1.004439877476721e+001
0	 7.799989999990448e+000	 7.266639999985469e+000	 1.004283905133184e+001
0	 7.799989999990448e+000	 7.333299999983335e+000	 1.004126591460626e+001
0	 7.866659999993463e+000	 6.666700000016664e+000	 1.005405475719274e+001
0	 7.866659999993467e+000	 6.733360000014534e+000	 1.005262701342132e+001
0	 7.866659999993465e+000	 6.800020000011600e+000	 1.005119865146188e+001
0	 7.866659999993464e+000	 6.866680000008067e+000	 1.004976792037410e+001
0	 7.866659999993466e+000	 6.933340000004136e+000	 1.004833306921758e+001
0	 7.866659999993464e+000	 7.000000000000002e+000	 1.004689234705196e+001
0	 7.866659999993464e+000	 7.066659999995869e+000	 1.004544400293687e+001
0	 7.866659999993464e+000	 7.133319999991937e+000	 1.004398628593193e+001
0	 7.866659999993464e+000	 7.199979999988404e+000	 1.004251744509683e+001
0	 7.866659999993463e+000	 7.266639999985471e+000	 1.004103572949114e+001
0	 7.866659999993463e+000	 7.333299999983333e+000	 1.003953938817450e+001
0	 7.933329999996681e+000	 6.666700000016666e+000	 1.005152355487505e+001
0	 7.933329999996681e+000	 6.733360000014532e+000	 1.005018462935275e+001
0	 7.933329999996681e+000	 6.800020000011600e+000	 1.004884341281796e+001
0	 7.933329999996682e+000	 6.866680000008067e+000	 1.004749821625198e+001
0	 7.933329999996682e+000	 6.933340000004136e+000	 1.004614735063618e+001
0	 7.933329999996679e+000	 6.999999999999999e+000	 1.004478912695188e+001
0	 7.933329999996680e+000	 7.066659999995867e+000	 1.004342185618044e+001
0	 7.933329999996680e+000	 7.133319999991936e+000	 1.004204384930317e+001
0	 7.933329999996681e+000	 7.199979999988403e+000	 1.004065341730143e+001
0	 7.933329999996681e+000	 7.266639999985472e+000	 1.003924887115654e+001
0	 7.933329999996682e+000	 7.333299999983333e+000	 1.003782852184986e+001
0	 8.000000000000000e+000	 6.666700000016666e+000	 1.004902223736106e+001
0	 8.000000000000000e+000	 6.733360000014533e+000	 1.004777096587601e+001
0	 8.000000000000000e+000	 6.800020000011600e+000	 1.004651575153392e+001
0	 7.999999999999999e+000	 6.866680000008067e+000	 1.004525496904737e+001
0	 8.000000000000002e+000	 6.933340000004136e+000	 1.004398699312886e+001
0	 8.000000000000000e+000	 7.000000000000002e+000	 1.004271019849098e+001
0	 7.999999999999998e+000	 7.066659999995869e+000	 1.004142295984624e+001
0	 7.999999999999999e+000	 7.133319999991936e+000	 1.004012365190722e+001
0	 8.000000000000000e+000	 7.199979999988404e+000	 1.003881064938643e+001
0	 8.000000000000002e+000	 7.266639999985470e+000	 1.003748232699642e+001
0	 8.000000000000000e+000	 7.333299999983336e+000	 1.003613705944977e+001
0	 7.333299999983334e+000	 7.333299999983334e+000	 1.005347560196010e+001
0	 7.333299999983332e+000	 7.399969999982148e+000	 1.005136445781124e+001
0	 7.333299999983335e+000	 7.466639999981867e+000	 1.004928404122117e+001
0	 7.333299999983335e+000	 7.533309999982381e+000	 1.004723208268381e+001
0	 7.333299999983335e+000	 7.599979999983599e+000	 1.004520631269310e+001
0	 7.333299999983334e+000	 7.666649999985414e+000	 1.004320446174296e+001
0	 7.333299999983336e+000	 7.733319999987733e+000	 1.004122426032729e+001
0	 7.333299999983335e+000	 7.799989999990448e+000	 1.003926343894003e+001
0	 7.333299999983336e+000	 7.866659999993466e+000	 1.003731972807513e+001
0	 7.333299999983334e+000	 7.933329999996680e+000	 1.003539085822647e+001
0	 7.333299999983334e+000	 8.000000000000000e+000	 1.003347455988799e+001
0	 7.399969999982148e+000	 7.333299999983332e+000	 1.005174428166773e+001
0	 7.399969999982148e+000	 7.399969999982150e+000	 1.004971089944175e+001
0	 7.399969999982150e+000	 7.466639999981867e+000	 1.004770634056682e+001
0	 7.399969999982148e+000	 7.533309999982383e+000	 1.004572839306594e+001
0	 7.399969999982150e+000	 7.599979999983598e+000	 1.004377484496212e+001
0	 7.399969999982150e+000	 7.666649999985415e+000	 1.004184348427835e+001
0	 7.399969999982149e+000	 7.733319999987732e+000	 1.003993209903761e+001
0	 7.399969999982151e+000	 7.799989999990449e+000	 1.003803847726290e+001
0	 7.399969999982153e+000	 7.866659999993467e+000	 1.003616040697722e+001
0	 7.399969999982152e+000	 7.933329999996683e+000	 1.003429567620357e+001
0	 7.399969999982152e+000	 8.000000000000000e+000	 1.003244207296494e+001
0	 7.466639999981866e+000	 7.333299999983334e+000	 1.005000241476017e+001
0	 7.466639999981866e+000	 7.399969999982150e+000	 1.004804677648141e+001
0	 7.466639999981867e+000	 7.466639999981867e+000	 1.004611809909116e+001
0	 7.466639999981866e+000	 7.533309999982383e+000	 1.004421422750000e+001
0	 7.466639999981866e+000	 7.599979999983598e+000	 1.004233300661853e+001
0	 7.466639999981866e+000	 7.666649999985416e+000	 1.004047228135731e+001
0	 7.466639999981866e+000	 7.733319999987732e+000	 1.003862989662695e+001
0	 7.466639999981866e+000	 7.799989999990449e+000	 1.003680369733802e+001
0	 7.466639999981866e+000	 7.866659999993464e+000	 1.003499152840113e+001
0	 7.466639999981867e+000	 7.933329999996683e+000	 1.003319123472686e+001
0	 7.466639999981867e+000	 8.000000000000000e+000	 1.003140066122576e+001
0	 7.533309999982381e+000	 7.333299999983334e+000	 1.004825374505493e+001
0	 7.533309999982384e+000	 7.399969999982151e+000	 1.004637572532213e+001
0	 7.533309999982382e+000	 7.466639999981866e+000	 1.004452284415699e+001
0	 7.533309999982381e+000	 7.533309999982381e+000	 1.004269300271614e+001
0	 7.533309999982381e+000	 7.599979999983599e+000	 1.004088410215631e+001
0	 7.533309999982383e+000	 7.666649999985415e+000	 1.003909404363419e+001
0	 7.533309999982382e+000	 7.733319999987733e+000	 1.003732072830645e+001
0	 7.533309999982381e+000	 7.799989999990446e+000	 1.003556205732983e+001
0	 7.533309999982383e+000	 7.866659999993464e+000	 1.003381593186100e+001
0	 7.533309999982382e+000	 7.933329999996682e+000	 1.003208025305665e+001
0	 7.533309999982382e+000	 8.000000000000000e+000	 1.003035292207348e+001
0	 7.599979999983598e+000	 7.333299999983333e+000	 1.004650201636943e+001
0	 7.599979999983599e+000	 7.399969999982151e+000	 1.004470138235582e+001
0	 7.599979999983598e+000	 7.466639999981865e+000	 1.004292410312707e+001
0	 7.599979999983598e+000	 7.533309999982381e+000	 1.004116813544453e+001
0	 7.599979999983598e+000	 7.599979999983598e+000	 1.003943143606950e+001
0	 7.599979999983598e+000	 7.666649999985413e+000	 1.003771196176331e+001
0	 7.599979999983598e+000	 7.733319999987731e+000	 1.003600766928726e+001
0	 7.599979999983599e+000	 7.799989999990449e+000	 1.003431651540269e+001
0	 7.599979999983598e+000	 7.866659999993465e+000	 1.003263645687093e+001
0	 7.599979999983598e+000	 7.933329999996681e+000	 1.003096545045328e+001
0	 7.599979999983598e+000	 7.999999999999998e+000	 1.002930145291108e+001
0	 7.666649999985414e+000	 7.333299999983333e+000	 1.004475097252118e+001
0	 7.666649999985414e+000	 7.399969999982152e+000	 1.004302738397436e+001
0	 7.666649999985414e+000	 7.466639999981866e+000	 1.004132540336427e+001
0	 7.666649999985415e+000	 7.533309999982382e+000	 1.003964304241535e+001
0	 7.666649999985414e+000	 7.599979999983597e+000	 1.003797831285210e+001
0	 7.666649999985414e+000	 7.666649999985413e+000	 1.003632922639900e+001
0	 7.666649999985414e+000	 7.733319999987730e+000	 1.003469379478047e+001
0	 7.666649999985415e+000	 7.799989999990448e+000	 1.003307002972099e+001
0	 7.666649999985412e+000	 7.866659999993463e+000	 1.003145594294504e+001
0	 7.666649999985414e+000	 7.933329999996681e+000	 1.002984954617708e+001
0	 7.666649999985416e+000	 8.000000000000000e+000	 1.002824885114157e+001
0	 7.733319999987731e+000	 7.333299999983332e+000	 1.004300435732763e+001
0	 7.733319999987732e+000	 7.399969999982149e+000	 1.004135736656964e+001
0	 7.733319999987731e+000	 7.466639999981865e+000	 1.003973027223131e+001
0	 7.733319999987731e+000	 7.533309999982382e+000	 1.003812114035878e+001
0	 7.733319999987730e+000	 7.599979999983597e+000	 1.003652803699816e+001
0	 7.733319999987730e+000	 7.666649999985415e+000	 1.003494902819560e+001
0	 7.733319999987733e+000	 7.733319999987731e+000	 1.003338217999719e+001
0	 7.733319999987732e+000	 7.799989999990451e+000	 1.003182555844912e+001
0	 7.733319999987732e+000	 7.866659999993463e+000	 1.003027722959746e+001
0	 7.733319999987730e+000	 7.933329999996681e+000	 1.002873525948836e+001
0	 7.733319999987733e+000	 8.000000000000002e+000	 1.002719771416795e+001
0	 7.799989999990448e+000	 7.333299999983335e+000	 1.004126591460626e+001
0	 7.799989999990449e+000	 7.399969999982151e+000	 1.003969496653358e+001
0	 7.799989999990447e+000	 7.466639999981865e+000	 1.003814223709105e+001
0	 7.799989999990447e+000	 7.533309999982381e+000	 1.003660584600497e+001
0	 7.799989999990448e+000	 7.599979999983598e+000	 1.003508391300167e+001
0	 7.799989999990447e+000	 7.666649999985414e+000	 1.003357455780743e+001
0	 7.799989999990450e+000	 7.733319999987732e+000	 1.003207590014860e+001
0	 7.799989999990448e+000	 7.799989999990449e+000	 1.003058605975145e+001
0	 7.799989999990449e+000	 7.866659999993463e+000	 1.002910315634229e+001
0	 7.799989999990449e+000	 7.933329999996682e+000	 1.002762530964744e+001
0	 7.799989999990449e+000	 8.000000000000002e+000	 1.002615063939322e+001
0	 7.866659999993463e+000	 7.333299999983333e+000	 1.003953938817450e+001
0	 7.866659999993465e+000	 7.399969999982150e+000	 1.003804382025804e+001
0	 7.866659999993463e+000	 7.466639999981865e+000	 1.003656482530622e+001
0	 7.866659999993463e+000	 7.533309999982382e+000	 1.003510057608412e+001
0	 7.866659999993463e+000	 7.599979999983598e+000	 1.003364924535665e+001
0	 7.866659999993463e+000	 7.666649999985414e+000	 1.003220900588886e+001
0	 7.866659999993466e+000	 7.733319999987733e+000	 1.003077803044577e+001
0	 7.866659999993463e+000	 7.799989999990448e+000	 1.002935449179235e+001
0	 7.866659999993465e+000	 7.866659999993464e+000	 1.002793656269367e+001
0	 7.866659999993466e+000	 7.933329999996682e+000	 1.002652241591468e+001
0	 7.866659999993464e+000	 7.999999999999999e+000	 1.002511022422040e+001
0	 7.933329999996682e+000	 7.333299999983333e+000	 1.003782852184986e+001
0	 7.933329999996683e+000	 7.399969999982151e+000	 1.003640756413495e+001
0	 7.933329999996682e+000	 7.466639999981867e+000	 1.003500156423971e+001
0	 7.933329999996682e+000	 7.533309999982382e+000	 1.003360874732635e+001
0	 7.933329999996682e+000	 7.599979999983598e+000	 1.003222733855712e+001
0	 7.933329999996681e+000	 7.666649999985414e+000	 1.003085556309420e+001
0	 7.933329999996681e+000	 7.733319999987731e+000	 1.002949164609985e+001
0	 7.933329999996682e+000	 7.799989999990450e+000	 1.002813381273628e+001
0	 7.933329999996680e+000	 7.866659999993463e+000	 1.002678028816569e+001
0	 7.933329999996682e+000	 7.933329999996682e+000	 1.002542929755036e+001
0	 7.933329999996681e+000	 8.000000000000000e+000	 1.002407906605247e+001
0	 8.000000000000000e+000	 7.333299999983336e+000	 1.003613705944977e+001
0	 8.000000000000000e+000	 7.399969999982152e+000	 1.003478983455620e+001
0	 8.000000000000002e+000	 7.466639999981868e+000	 1.003345598125424e+001
0	 7.999999999999999e+000	 7.533309999982382e+000	 1.003213377646188e+001
0	 8.000000000000000e+000	 7.599979999983600e+000	 1.003082149709707e+001
0	 8.000000000000002e+000	 7.666649999985417e+000	 1.002951742007778e+001
0	 8.000000000000002e+000	 7.733319999987733e+000	 1.002821982232194e+001
0	 8.000000000000000e+000	 7.799989999990449e+000	 1.002692698074754e+001
0	 7.999999999999998e+000	 7.866659999993465e+000	 1.002563717227252e+001
0	 8.000000000000000e+000	 7.933329999996682e+000	 1.002434867381484e+001
0	 7.999999999999999e+000	 8.000000000000000e+000	 1.002305976229246e+001
0	 7.333299999983334e+000	 8.000000000000000e+000	 1.003347455988799e+001
0	 7.333299999983334e+000	 8.066670000003315e+000	 1.003158922817174e+001
0	 7.333299999983332e+000	 8.133340000006532e+000	 1.002975305137821e+001
0	 7.333299999983335e+000	 8.200010000009549e+000	 1.002796344978405e+001
0	 7.333299999983334e+000	 8.266680000012268e+000	 1.002621784366584e+001
0	 7.333299999983335e+000	 8.333350000014583e+000	 1.002451365330027e+001
0	 7.333299999983333e+000	 8.400020000016399e+000	 1.002284829896393e+001
0	 7.333299999983334e+000	 8.466690000017614e+000	 1.002121920093347e+001
0	 7.333299999983333e+000	 8.533360000018131e+000	 1.001962377948552e+001
0	 7.333299999983334e+000	 8.600030000017847e+000	 1.001805945489672e+001
0	 7.333299999983334e+000	 8.666700000016665e+000	 1.001652364744372e+001
0	 7.399969999982152e+000	 8.000000000000000e+000	 1.003244207296494e+001
0	 7.399969999982149e+000	 8.066670000003313e+000	 1.003061783279183e+001
0	 7.399969999982152e+000	 8.133340000006532e+000	 1.002884097709320e+001
0	 7.399969999982151e+000	 8.200010000009549e+000	 1.002710897270970e+001
0	 7.399969999982149e+000	 8.266680000012265e+000	 1.002541928648207e+001
0	 7.399969999982149e+000	 8.333350000014582e+000	 1.002376938525108e+001
0	 7.399969999982147e+000	 8.400020000016395e+000	 1.002215673585734e+001
0	 7.399969999982148e+000	 8.466690000017612e+000	 1.002057880514161e+001
0	 7.399969999982149e+000	 8.533360000018130e+000	 1.001903305994460e+001
0	 7.399969999982150e+000	 8.600030000017849e+000	 1.001751696710698e+001
0	 7.399969999982150e+000	 8.666700000016670e+000	 1.001602799346949e+001
0	 7.466639999981867e+000	 8.000000000000000e+000	 1.003140066122576e+001
0	 7.466639999981866e+000	 8.066670000003317e+000	 1.002963785073544e+001
0	 7.466639999981866e+000	 8.133340000006530e+000	 1.002792062709520e+001
0	 7.466639999981868e+000	 8.200010000009552e+000	 1.002624650671822e+001
0	 7.466639999981864e+000	 8.266680000012265e+000	 1.002461300601768e+001
0	 7.466639999981866e+000	 8.333350000014583e+000	 1.002301764140683e+001
0	 7.466639999981866e+000	 8.400020000016397e+000	 1.002145792929885e+001
0	 7.466639999981865e+000	 8.466690000017618e+000	 1.001993138610694e+001
0	 7.466639999981866e+000	 8.533360000018135e+000	 1.001843552824430e+001
0	 7.466639999981864e+000	 8.600030000017846e+000	 1.001696787212413e+001
0	 7.466639999981866e+000	 8.666700000016666e+000	 1.001552593415964e+001
0	 7.533309999982382e+000	 8.000000000000000e+000	 1.003035292207348e+001
0	 7.533309999982384e+000	 8.066670000003313e+000	 1.002865176026680e+001
0	 7.533309999982383e+000	 8.133340000006530e+000	 1.002699436755020e+001
0	 7.533309999982382e+000	 8.200010000009550e+000	 1.002537831291777e+001
0	 7.533309999982383e+000	 8.266680000012265e+000	 1.002380116536362e+001
0	 7.533309999982381e+000	 8.333350000014583e+000	 1.002226049388192e+001
0	 7.533309999982381e+000	 8.400020000016399e+000	 1.002075386746673e+001
0	 7.533309999982381e+000	 8.466690000017612e+000	 1.001927885511218e+001
0	 7.533309999982383e+000	 8.533360000018135e+000	 1.001783302581236e+001
0	 7.533309999982382e+000	 8.600030000017847e+000	 1.001641394856145e+001
0	 7.533309999982382e+000	 8.666700000016668e+000	 1.001501919235351e+001
0	 7.599979999983598e+000	 7.999999999999998e+000	 1.002930145291108e+001
0	 7.599979999983598e+000	 8.066670000003315e+000	 1.002766203965007e+001
0	 7.599979999983598e+000	 8.133340000006532e+000	 1.002606456462408e+001
0	 7.599979999983598e+000	 8.200010000009550e+000	 1.002450665241656e+001
0	 7.599979999983597e+000	 8.266680000012265e+000	 1.002298592761095e+001
0	 7.599979999983600e+000	 8.333350000014583e+000	 1.002150001479070e+001
0	 7.599979999983600e+000	 8.400020000016397e+000	 1.002004653853925e+001
0	 7.599979999983598e+000	 8.466690000017614e+000	 1.001862312344005e+001
0	 7.599979999983599e+000	 8.533360000018131e+000	 1.001722739407655e+001
0	 7.599979999983600e+000	 8.600030000017847e+000	 1.001585697503223e+001
0	 7.599979999983599e+000	 8.666700000016666e+000	 1.001450949089045e+001
0	 7.666649999985416e+000	 8.000000000000000e+000	 1.002824885114157e+001
0	 7.666649999985414e+000	 8.066670000003315e+000	 1.002667116714945e+001
0	 7.666649999985415e+000	 8.133340000006536e+000	 1.002513358448278e+001
0	 7.666649999985414e+000	 8.200010000009549e+000	 1.002363378632278e+001
0	 7.666649999985416e+000	 8.266680000012268e+000	 1.002216945585064e+001
0	 7.666649999985417e+000	 8.333350000014582e+000	 1.002073827624756e+001
0	 7.666649999985416e+000	 8.400020000016399e+000	 1.001933793069471e+001
0	 7.666649999985415e+000	 8.466690000017614e+000	 1.001796610237332e+001
0	 7.666649999985416e+000	 8.533360000018133e+000	 1.001662047446459e+001
0	 7.666649999985415e+000	 8.600030000017849e+000	 1.001529873014970e+001
0	 7.666649999985416e+000	 8.666700000016668e+000	 1.001399855260985e+001
0	 7.733319999987733e+000	 8.000000000000002e+000	 1.002719771416795e+001
0	 7.733319999987732e+000	 8.066670000003317e+000	 1.002568162102911e+001
0	 7.733319999987733e+000	 8.133340000006534e+000	 1.002420379329222e+001
0	 7.733319999987729e+000	 8.200010000009550e+000	 1.002276197574465e+001
0	 7.733319999987732e+000	 8.266680000012265e+000	 1.002135391317373e+001
0	 7.733319999987733e+000	 8.333350000014583e+000	 1.001997735036686e+001
0	 7.733319999987733e+000	 8.400020000016397e+000	 1.001863003211141e+001
0	 7.733319999987733e+000	 8.466690000017616e+000	 1.001730970319474e+001
0	 7.733319999987731e+000	 8.533360000018131e+000	 1.001601410840419e+001
0	 7.733319999987732e+000	 8.600030000017847e+000	 1.001474099252717e+001
0	 7.733319999987731e+000	 8.666700000016668e+000	 1.001348810035104e+001
0	 7.799989999990449e+000	 8.000000000000002e+000	 1.002615063939322e+001
0	 7.799989999990447e+000	 8.066670000003317e+000	 1.002469587955328e+001
0	 7.799989999990447e+000	 8.133340000006534e+000	 1.002327755721831e+001
0	 7.799989999990448e+000	 8.200010000009549e+000	 1.002189348179031e+001
0	 7.799989999990450e+000	 8.266680000012265e+000	 1.002054146267124e+001
0	 7.799989999990446e+000	 8.333350000014580e+000	 1.001921930926300e+001
0	 7.799989999990448e+000	 8.400020000016399e+000	 1.001792483096760e+001
0	 7.799989999990449e+000	 8.466690000017614e+000	 1.001665583718698e+001
0	 7.799989999990449e+000	 8.533360000018133e+000	 1.001541013732311e+001
0	 7.799989999990450e+000	 8.600030000017849e+000	 1.001418554077793e+001
0	 7.799989999990447e+000	 8.666700000016666e+000	 1.001297985695341e+001
0	 7.866659999993464e+000	 7.999999999999999e+000	 1.002511022422040e+001
0	 7.866659999993463e+000	 8.066670000003315e+000	 1.002371642098609e+001
0	 7.866659999993463e+000	 8.133340000006532e+000	 1.002235724242698e+001
0	 7.866659999993463e+000	 8.200010000009550e+000	 1.002103056556801e+001
0	 7.866659999993464e+000	 8.266680000012265e+000	 1.001973426743415e+001
0	 7.866659999993465e+000	 8.333350000014583e+000	 1.001846622505035e+001
0	 7.866659999993465e+000	 8.400020000016399e+000	 1.001722431544161e+001
0	 7.866659999993464e+000	 8.466690000017616e+000	 1.001600641563286e+001
0	 7.866659999993465e+000	 8.533360000018133e+000	 1.001481040264907e+001
0	 7.866659999993466e+000	 8.600030000017849e+000	 1.001363415351524e+001
0	 7.866659999993465e+000	 8.666700000016666e+000	 1.001247554525628e+001
0	 7.933329999996681e+000	 8.000000000000000e+000	 1.002407906605247e+001
0	 7.933329999996682e+000	 8.066670000003317e+000	 1.002274572359179e+001
0	 7.933329999996681e+000	 8.133340000006532e+000	 1.002144521508413e+001
0	 7.933329999996682e+000	 8.200010000009549e+000	 1.002017548818592e+001
0	 7.933329999996683e+000	 8.266680000012267e+000	 1.001893449055349e+001
0	 7.933329999996681e+000	 8.333350000014582e+000	 1.001772016984330e+001
0	 7.933329999996681e+000	 8.400020000016401e+000	 1.001653047371169e+001
0	 7.933329999996679e+000	 8.466690000017614e+000	 1.001536334981507e+001
0	 7.933329999996681e+000	 8.533360000018131e+000	 1.001421674580984e+001
0	 7.933329999996681e+000	 8.600030000017847e+000	 1.001308860935235e+001
0	 7.933329999996682e+000	 8.666700000016666e+000	 1.001197688809906e+001
0	 7.999999999999999e+000	 8.000000000000000e+000	 1.002305976229246e+001
0	 7.999999999999998e+000	 8.066670000003319e+000	 1.002178626563454e+001
0	 7.999999999999999e+000	 8.133340000006534e+000	 1.002054384135570e+001
0	 8.000000000000002e+000	 8.200010000009549e+000	 1.001933051075223e+001
0	 8.000000000000002e+000	 8.266680000012268e+000	 1.001814429512032e+001
0	 8.000000000000000e+000	 8.333350000014583e+000	 1.001698321575619e+001
0	 8.000000000000002e+000	 8.400020000016399e+000	 1.001584529395613e+001
0	 8.000000000000000e+000	 8.466690000017616e+000	 1.001472855101635e+001
0	 8.000000000000000e+000	 8.533360000018131e+000	 1.001363100823308e+001
0	 8.000000000000000e+000	 8.600030000017847e+000	 1.001255068690259e+001
0	 7.999999999999999e+000	 8.666700000016666e+000	 1.001148560832107e+001
0	 7.333299999983334e+000	 8.666700000016665e+000	 1.001652364744372e+001
0	 7.333299999983335e+000	 8.733360002791903e+000	 1.001503906823273e+001
0	 7.333299999983333e+000	 8.800020022230553e+000	 1.001362759626989e+001
0	 7.333299999983334e+000	 8.866680074997040e+000	 1.001228608857666e+001
0	 7.333299999983332e+000	 8.933340177755776e+000	 1.001101140196837e+001
0	 7.333299999983334e+000	 9.000000347171179e+000	 1.000980039305424e+001
0	 7.333299999983336e+000	 9.066660599907667e+000	 1.000864991823739e+001
0	 7.333299999983333e+000	 9.133320952629651e+000	 1.000755683371476e+001
0	 7.333299999983335e+000	 9.199981422001553e+000	 1.000651799547721e+001
0	 7.333299999983334e+000	 9.266642024687792e+000	 1.000553025930947e+001
0	 7.333299999983333e+000	 9.333302777352781e+000	 1.000459048079013e+001
0	 7.399969999982150e+000	 8.666700000016670e+000	 1.001602799346949e+001
0	 7.399969999982153e+000	 8.733360002791907e+000	 1.001458842902823e+001
0	 7.399969999982150e+000	 8.800020022230553e+000	 1.001321977674434e+001
0	 7.399969999982150e+000	 8.866680074997042e+000	 1.001191898703904e+001
0	 7.399969999982150e+000	 8.933340177755776e+000	 1.001068301013348e+001
0	 7.399969999982150e+000	 9.000000347171181e+000	 1.000950879604859e+001
0	 7.399969999982150e+000	 9.066660599907664e+000	 1.000839329460527e+001
0	 7.399969999982149e+000	 9.133320952629653e+000	 1.000733345542423e+001
0	 7.399969999982151e+000	 9.199981422001558e+000	 1.000632622792600e+001
0	 7.399969999982150e+000	 9.266642024687792e+000	 1.000536856133110e+001
0	 7.399969999982151e+000	 9.333302777352783e+000	 1.000445740465980e+001
0	 7.466639999981866e+000	 8.666700000016666e+000	 1.001552593415964e+001
0	 7.466639999981865e+000	 8.733360002791899e+000	 1.001413157978445e+001
0	 7.466639999981868e+000	 8.800020022230552e+000	 1.001280592979943e+001
0	 7.466639999981865e+000	 8.866680074997037e+000	 1.001154602694888e+001
0	 7.466639999981868e+000	 8.933340177755778e+000	 1.001034891378298e+001
0	 7.466639999981866e+000	 9.000000347171179e+000	 1.000921163265791e+001
0	 7.466639999981867e+000	 9.066660599907666e+000	 1.000813122573568e+001
0	 7.466639999981866e+000	 9.133320952629651e+000	 1.000710473498431e+001
0	 7.466639999981867e+000	 9.199981422001557e+000	 1.000612920217754e+001
0	 7.466639999981866e+000	 9.266642024687794e+000	 1.000520166889525e+001
0	 7.466639999981864e+000	 9.333302777352781e+000	 1.000431917652312e+001
0	 7.533309999982382e+000	 8.666700000016668e+000	 1.001501919235351e+001
0	 7.533309999982383e+000	 8.733360002791903e+000	 1.001367019277809e+001
0	 7.533309999982384e+000	 8.800020022230553e+000	 1.001238768051533e+001
0	 7.533309999982383e+000	 8.866680074997042e+000	 1.001116878955597e+001
0	 7.533309999982381e+000	 8.933340177755776e+000	 1.001001065370266e+001
0	 7.533309999982383e+000	 9.000000347171183e+000	 1.000891040657013e+001
0	 7.533309999982383e+000	 9.066660599907667e+000	 1.000786518158507e+001
0	 7.533309999982383e+000	 9.133320952629653e+000	 1.000687211198613e+001
0	 7.533309999982382e+000	 9.199981422001553e+000	 1.000592833082410e+001
0	 7.533309999982383e+000	 9.266642024687792e+000	 1.000503097096163e+001
0	 7.533309999982381e+000	 9.333302777352783e+000	 1.000417716507343e+001
0	 7.599979999983599e+000	 8.666700000016666e+000	 1.001450949089045e+001
0	 7.599979999983598e+000	 8.733360002791903e+000	 1.001320594028572e+001
0	 7.599979999983601e+000	 8.800020022230557e+000	 1.001196665397211e+001
0	 7.599979999983599e+000	 8.866680074997042e+000	 1.001078885611009e+001
0	 7.599979999983598e+000	 8.933340177755778e+000	 1.000966977067824e+001
0	 7.599979999983598e+000	 9.000000347171181e+000	 1.000860662147315e+001
0	 7.599979999983599e+000	 9.066660599907662e+000	 1.000759663210977e+001
0	 7.599979999983599e+000	 9.133320952629653e+000	 1.000663702602103e+001
0	 7.599979999983598e+000	 9.199981422001555e+000	 1.000572502645797e+001
0	 7.599979999983599e+000	 9.266642024687794e+000	 1.000485785648992e+001
0	 7.599979999983599e+000	 9.333302777352785e+000	 1.000403273900418e+001
0	 7.666649999985416e+000	 8.666700000016668e+000	 1.001399855260985e+001
0	 7.666649999985416e+000	 8.733360002791903e+000	 1.001274049458401e+001
0	 7.666649999985417e+000	 8.800020022230555e+000	 1.001154447524988e+001
0	 7.666649999985416e+000	 8.866680074997040e+000	 1.001040780786106e+001
0	 7.666649999985413e+000	 8.933340177755776e+000	 1.000932780549535e+001
0	 7.666649999985414e+000	 9.000000347171179e+000	 1.000830178105495e+001
0	 7.666649999985416e+000	 9.066660599907666e+000	 1.000732704726629e+001
0	 7.666649999985415e+000	 9.133320952629653e+000	 1.000640091668012e+001
0	 7.666649999985412e+000	 9.199981422001555e+000	 1.000552070167150e+001
0	 7.666649999985414e+000	 9.266642024687792e+000	 1.000468371443979e+001
0	 7.666649999985414e+000	 9.333302777352783e+000	 1.000388726700868e+001
0	 7.733319999987731e+000	 8.666700000016668e+000	 1.001348810035104e+001
0	 7.733319999987732e+000	 8.733360002791905e+000	 1.001227552794957e+001
0	 7.733319999987731e+000	 8.800020022230553e+000	 1.001112276942875e+001
0	 7.733319999987732e+000	 8.866680074997040e+000	 1.001002722605865e+001
0	 7.733319999987731e+000	 8.933340177755774e+000	 1.000898629893988e+001
0	 7.733319999987732e+000	 9.000000347171179e+000	 1.000799738900345e+001
0	 7.733319999987733e+000	 9.066660599907667e+000	 1.000705789701100e+001
0	 7.733319999987731e+000	 9.133320952629653e+000	 1.000616522355463e+001
0	 7.733319999987732e+000	 9.199981422001553e+000	 1.000531676905693e+001
0	 7.733319999987733e+000	 9.266642024687791e+000	 1.000450993377096e+001
0	 7.733319999987732e+000	 9.333302777352783e+000	 1.000374211778037e+001
0	 7.799989999990447e+000	 8.666700000016666e+000	 1.001297985695341e+001
0	 7.799989999990449e+000	 8.733360002791903e+000	 1.001181271265907e+001
0	 7.799989999990447e+000	 8.800020022230553e+000	 1.001070316158882e+001
0	 7.799989999990447e+000	 8.866680074997044e+000	 1.000964869195266e+001
0	 7.799989999990448e+000	 8.933340177755776e+000	 1.000864679179743e+001
0	 7.799989999990450e+000	 9.000000347171181e+000	 1.000769494900655e+001
0	 7.799989999990446e+000	 9.066660599907662e+000	 1.000679065130036e+001
0	 7.799989999990447e+000	 9.133320952629653e+000	 1.000593138623580e+001
0	 7.799989999990448e+000	 9.199981422001553e+000	 1.000511464120656e+001
0	 7.799989999990448e+000	 9.266642024687794e+000	 1.000433790344310e+001
0	 7.799989999990448e+000	 9.333302777352783e+000	 1.000359866001261e+001
0	 7.866659999993465e+000	 8.666700000016666e+000	 1.001247554525628e+001
0	 7.866659999993463e+000	 8.733360002791905e+000	 1.001135372098915e+001
0	 7.866659999993463e+000	 8.800020022230553e+000	 1.001028727681020e+001
0	 7.866659999993464e+000	 8.866680074997039e+000	 1.000927378679290e+001
0	 7.866659999993464e+000	 8.933340177755779e+000	 1.000831082485374e+001
0	 7.866659999993463e+000	 9.000000347171179e+000	 1.000739596475223e+001
0	 7.866659999993464e+000	 9.066660599907664e+000	 1.000652678009077e+001
0	 7.866659999993464e+000	 9.133320952629653e+000	 1.000570084431480e+001
0	 7.866659999993464e+000	 9.199981422001553e+000	 1.000491573071274e+001
0	 7.866659999993463e+000	 9.266642024687792e+000	 1.000416901241595e+001
0	 7.866659999993464e+000	 9.333302777352783e+000	 1.000345826239885e+001
0	 7.933329999996682e+000	 8.666700000016666e+000	 1.001197688809906e+001
0	 7.933329999996681e+000	 8.733360002791901e+000	 1.001090022521645e+001
0	 7.933329999996681e+000	 8.800020022230553e+000	 1.000987674017298e+001
0	 7.933329999996680e+000	 8.866680074997039e+000	 1.000890409182914e+001
0	 7.933329999996681e+000	 8.933340177755776e+000	 1.000797993889463e+001
0	 7.933329999996682e+000	 9.000000347171181e+000	 1.000710193992838e+001
0	 7.933329999996682e+000	 9.066660599907667e+000	 1.000626775333866e+001
0	 7.933329999996681e+000	 9.133320952629649e+000	 1.000547503738286e+001
0	 7.933329999996682e+000	 9.199981422001557e+000	 1.000472145016772e+001
0	 7.933329999996678e+000	 9.266642024687791e+000	 1.000400464964915e+001
0	 7.933329999996682e+000	 9.333302777352783e+000	 1.000332229363237e+001
0	 7.999999999999999e+000	 8.666700000016666e+000	 1.001148560832107e+001
0	 8.000000000000000e+000	 8.733360002791905e+000	 1.001045389761757e+001
0	 8.000000000000002e+000	 8.800020022230555e+000	 1.000947317675730e+001
0	 8.000000000000002e+000	 8.866680074997042e+000	 1.000854118831119e+001
0	 8.000000000000000e+000	 8.933340177755774e+000	 1.000765567470575e+001
0	 8.000000000000000e+000	 9.000000347171179e+000	 1.000681437822298e+001
0	 8.000000000000000e+000	 9.066660599907666e+000	 1.000601504100044e+001
0	 8.000000000000000e+000	 9.133320952629653e+000	 1.000525540503119e+001
0	 8.000000000000000e+000	 9.199981422001555e+000	 1.000453321216381e+001
0	 8.000000000000000e+000	 9.266642024687792e+000	 1.000384620410240e+001
0	 8.000000000000000e+000	 9.333302777352783e+000	 1.000319212240663e+001
0	 7.333299999983333e+000	 9.333302777352781e+000	 1.000459048079013e+001
0	 7.333299999983336e+000	 9.399973674588177e+000	 1.000372407327195e+001
0	 7.333299999983334e+000	 9.466644621844623e+000	 1.000295639759068e+001
0	 7.333299999983332e+000	 9.533315502449998e+000	 1.000228381930757e+001
0	 7.333299999983334e+000	 9.599986199732195e+000	 1.000170270603123e+001
0	 7.333299999983334e+000	 9.666656597019092e+000	 1.000120942741765e+001
0	 7.333299999983332e+000	 9.733326577638575e+000	 1.000080035517045e+001
0	 7.333299999983332e+000	 9.799996024918521e+000	 1.000047186304069e+001
0	 7.333299999983336e+000	 9.866664822186820e+000	 1.000022032682720e+001
0	 7.333299999983335e+000	 9.933332852771351e+000	 1.000004212437684e+001
0	 7.333299999983334e+000	 1.000000000000000e+001	 9.999933635584657e+000
0	 7.399969999982151e+000	 9.333302777352783e+000	 1.000445740465980e+001
0	 7.399969999982149e+000	 9.399973674588177e+000	 1.000361738464289e+001
0	 7.399969999982149e+000	 9.466644621844619e+000	 1.000287310400531e+001
0	 7.399969999982149e+000	 9.533315502449996e+000	 1.000222107704538e+001
0	 7.399969999982149e+000	 9.599986199732195e+000	 1.000165782004794e+001
0	 7.399969999982151e+000	 9.666656597019092e+000	 1.000117985128460e+001
0	 7.399969999982150e+000	 9.733326577638573e+000	 1.000078369101384e+001
0	 7.399969999982150e+000	 9.799996024918524e+000	 1.000046586148080e+001
0	 7.399969999982151e+000	 9.866664822186822e+000	 1.000022288691787e+001
0	 7.399969999982150e+000	 9.933332852771351e+000	 1.000005129354457e+001
0	 7.399969999982151e+000	 1.000000000000000e+001	 9.999947609567759e+000
0	 7.466639999981864e+000	 9.333302777352781e+000	 1.000431917652312e+001
0	 7.466639999981863e+000	 9.399973674588175e+000	 1.000350556386603e+001
0	 7.466639999981864e+000	 9.466644621844619e+000	 1.000278467125937e+001
0	 7.466639999981865e+000	 9.533315502449996e+000	 1.000215315621314e+001
0	 7.466639999981866e+000	 9.599986199732197e+000	 1.000160767816307e+001
0	 7.466639999981866e+000	 9.666656597019093e+000	 1.000114489847050e+001
0	 7.466639999981865e+000	 9.733326577638575e+000	 1.000076148042244e+001
0	 7.466639999981865e+000	 9.799996024918521e+000	 1.000045408923174e+001
0	 7.466639999981867e+000	 9.866664822186820e+000	 1.000021939203724e+001
0	 7.466639999981866e+000	 9.933332852771352e+000	 1.000005405790386e+001
0	 7.466639999981866e+000	 1.000000000000000e+001	 9.999954757822966e+000
0	 7.533309999982381e+000	 9.333302777352783e+000	 1.000417716507343e+001
0	 7.533309999982383e+000	 9.399973674588178e+000	 1.000338996538970e+001
0	 7.533309999982384e+000	 9.466644621844623e+000	 1.000269244823756e+001
0	 7.533309999982383e+000	 9.533315502450005e+000	 1.000208140881368e+001
0	 7.533309999982381e+000	 9.599986199732193e+000	 1.000155364417918e+001
0	 7.533309999982382e+000	 9.666656597019090e+000	 1.000110595325931e+001
0	 7.533309999982381e+000	 9.733326577638572e+000	 1.000073513684385e+001
0	 7.533309999982381e+000	 9.799996024918521e+000	 1.000043799758704e+001
0	 7.533309999982384e+000	 9.866664822186824e+000	 1.000021134000763e+001
0	 7.533309999982384e+000	 9.933332852771351e+000	 1.000005197048932e+001
0	 7.533309999982383e+000	 1.000000000000000e+001	 9.999956697280956e+000
0	 7.599979999983599e+000	 9.333302777352785e+000	 1.000403273900418e+001
0	 7.599979999983599e+000	 9.399973674588177e+000	 1.000327194366219e+001
0	 7.599979999983599e+000	 9.466644621844619e+000	 1.000259778382472e+001
0	 7.599979999983598e+000	 9.533315502450000e+000	 1.000200718684990e+001
0	 7.599979999983598e+000	 9.599986199732195e+000	 1.000149708189879e+001
0	 7.599979999983598e+000	 9.666656597019092e+000	 1.000106439993521e+001
0	 7.599979999983599e+000	 9.733326577638575e+000	 1.000070607372578e+001
0	 7.599979999983598e+000	 9.799996024918523e+000	 1.000041903784024e+001
0	 7.599979999983598e+000	 9.866664822186820e+000	 1.000020022865138e+001
0	 7.599979999983599e+000	 9.933332852771349e+000	 1.000004658433542e+001
0	 7.599979999983600e+000	 1.000000000000000e+001	 9.999955044871845e+000
0	 7.666649999985414e+000	 9.333302777352783e+000	 1.000388726700868e+001
0	 7.666649999985414e+000	 9.399973674588175e+000	 1.000315285313173e+001
0	 7.666649999985415e+000	 9.466644621844619e+000	 1.000250202690555e+001
0	 7.666649999985415e+000	 9.533315502449998e+000	 1.000193184232462e+001
0	 7.666649999985418e+000	 9.599986199732198e+000	 1.000143935512451e+001
0	 7.666649999985413e+000	 9.666656597019092e+000	 1.000102162278219e+001
0	 7.666649999985414e+000	 9.733326577638575e+000	 1.000067570451585e+001
0	 7.666649999985413e+000	 9.799996024918521e+000	 1.000039866128503e+001
0	 7.666649999985415e+000	 9.866664822186820e+000	 1.000018755579097e+001
0	 7.666649999985415e+000	 9.933332852771352e+000	 1.000003945247654e+001
0	 7.666649999985414e+000	 1.000000000000000e+001	 9.999951417526477e+000
0	 7.733319999987732e+000	 9.333302777352783e+000	 1.000374211778037e+001
0	 7.733319999987732e+000	 9.399973674588175e+000	 1.000303404824658e+001
0	 7.733319999987732e+000	 9.466644621844623e+000	 1.000240652636489e+001
0	 7.733319999987733e+000	 9.533315502449998e+000	 1.000185672724063e+001
0	 7.733319999987731e+000	 9.599986199732195e+000	 1.000138182765885e+001
0	 7.733319999987733e+000	 9.666656597019095e+000	 1.000097900608434e+001
0	 7.733319999987732e+000	 9.733326577638575e+000	 1.000064544266158e+001
0	 7.733319999987733e+000	 9.799996024918524e+000	 1.000037831921492e+001
0	 7.733319999987732e+000	 9.866664822186818e+000	 1.000017481924859e+001
0	 7.733319999987732e+000	 9.933332852771352e+000	 1.000003212794713e+001
0	 7.733319999987731e+000	 1.000000000000000e+001	 9.999947432175112e+000
0	 7.799989999990448e+000	 9.333302777352783e+000	 1.000359866001261e+001
0	 7.799989999990449e+000	 9.399973674588177e+000	 1.000291688345511e+001
0	 7.799989999990446e+000	 9.466644621844619e+000	 1.000231263108746e+001
0	 7.799989999990448e+000	 9.533315502449998e+000	 1.000178319360078e+001
0	 7.799989999990447e+000	 9.599986199732193e+000	 1.000132586330437e+001
0	 7.799989999990448e+000	 9.666656597019093e+000	 1.000093793412574e+001
0	 7.799989999990448e+000	 9.733326577638575e+000	 1.000061670161070e+001
0	 7.799989999990449e+000	 9.799996024918523e+000	 1.000035946292349e+001
0	 7.799989999990448e+000	 9.866664822186820e+000	 1.000016351684661e+001
0	 7.799989999990448e+000	 9.933332852771351e+000	 1.000002616378149e+001
0	 7.799989999990449e+000	 1.000000000000000e+001	 9.999944705748494e+000
0	 7.866659999993464e+000	 9.333302777352783e+000	 1.000345826239885e+001
0	 7.866659999993464e+000	 9.399973674588177e+000	 1.000280271320547e+001
0	 7.866659999993465e+000	 9.466644621844623e+000	 1.000222168995803e+001
0	 7.866659999993467e+000	 9.533315502450000e+000	 1.000171259340791e+001
0	 7.866659999993463e+000	 9.599986199732195e+000	 1.000127282586363e+001
0	 7.866659999993463e+000	 9.666656597019095e+000	 1.000089979119048e+001
0	 7.866659999993465e+000	 9.733326577638575e+000	 1.000059089481085e+001
0	 7.866659999993464e+000	 9.799996024918523e+000	 1.000034354370430e+001
0	 7.866659999993466e+000	 9.866664822186820e+000	 1.000015514640741e+001
0	 7.866659999993465e+000	 9.933332852771351e+000	 1.000002311301443e+001
0	 7.866659999993465e+000	 1.000000000000000e+001	 9.999944855176855e+000
0	 7.933329999996682e+000	 9.333302777352783e+000	 1.000332229363237e+001
0	 7.933329999996681e+000	 9.399973674588175e+000	 1.000269289194604e+001
0	 7.933329999996679e+000	 9.466644621844619e+000	 1.000213505186137e+001
0	 7.933329999996679e+000	 9.533315502449996e+000	 1.000164627866492e+001
0	 7.933329999996682e+000	 9.599986199732195e+000	 1.000122407913919e+001
0	 7.933329999996681e+000	 9.666656597019092e+000	 1.000086596156259e+001
0	 7.933329999996682e+000	 9.733326577638575e+000	 1.000056943570963e+001
0	 7.933329999996683e+000	 9.799996024918523e+000	 1.000033201285092e+001
0	 7.933329999996683e+000	 9.866664822186820e+000	 1.000015120575332e+001
0	 7.933329999996681e+000	 9.933332852771354e+000	 1.000002452868008e+001
0	 7.933329999996682e+000	 1.000000000000000e+001	 9.999949497391015e+000
0	 8.000000000000000e+000	 9.333302777352783e+000	 1.000319212240663e+001
0	 8.000000000000002e+000	 9.399973674588178e+000	 1.000258877412500e+001
0	 7.999999999999999e+000	 9.466644621844621e+000	 1.000205406568226e+001
0	 7.999999999999998e+000	 9.533315502449996e+000	 1.000158560137459e+001
0	 7.999999999999999e+000	 9.599986199732197e+000	 1.000118098693358e+001
0	 8.000000000000000e+000	 9.666656597019093e+000	 1.000083782952611e+001
0	 7.999999999999999e+000	 9.733326577638575e+000	 1.000055373775467e+001
0	 8.000000000000002e+000	 9.799996024918524e+000	 1.000032632165704e+001
0	 7.999999999999999e+000	 9.866664822186820e+000	 1.000015319270673e+001
0	 8.000000000000000e+000	 9.933332852771352e+000	 1.000003196381298e+001
0	 8.000000000000002e+000	 1.000000000000000e+001	 9.999960249321159e+000
0	 8.000000000000002e+000	 0.000000000000000e+000	 9.970876096111983e+000
0	 8.000000000000002e+000	 6.666714722864757e-002	 9.970839395212970e+000
0	 8.000000000000000e+000	 1.333351778131789e-001	 9.970921090933189e+000
0	 8.000000000000000e+000	 2.000039750814773e-001	 9.971121130949614e+000
0	 8.000000000000002e+000	 2.666734223614256e-001	 9.971439465075427e+000
0	 7.999999999999998e+000	 3.333434029809069e-001	 9.971876045259808e+000
0	 8.000000000000002e+000	 4.000138002678044e-001	 9.972430825587832e+000
0	 8.000000000000004e+000	 4.666844975500012e-001	 9.973103762280369e+000
0	 8.000000000000000e+000	 5.333553781553803e-001	 9.973894813694091e+000
0	 8.000000000000002e+000	 6.000263254118247e-001	 9.974803940321507e+000
0	 8.000000000000000e+000	 6.666972226472177e-001	 9.975831104791062e+000
0	 8.066670000003317e+000	 0.000000000000000e+000	 9.962950578138164e+000
0	 8.066670000003313e+000	 6.666714722864756e-002	 9.962912918496329e+000
0	 8.066670000003317e+000	 1.333351778131789e-001	 9.962988752862799e+000
0	 8.066670000003315e+000	 2.000039750814773e-001	 9.963178328062812e+000
0	 8.066670000003315e+000	 2.666734223614256e-001	 9.963481893005238e+000
0	 8.066670000003319e+000	 3.333434029809069e-001	 9.963899698682486e+000
0	 8.066670000003315e+000	 4.000138002678044e-001	 9.964431998170355e+000
0	 8.066670000003317e+000	 4.666844975500010e-001	 9.965079046627912e+000
0	 8.066670000003320e+000	 5.333553781553803e-001	 9.965841101297535e+000
0	 8.066670000003319e+000	 6.000263254118248e-001	 9.966718421504945e+000
0	 8.066670000003317e+000	 6.666972226472175e-001	 9.967711268659221e+000
0	 8.133340000006534e+000	 0.000000000000000e+000	 9.954824417711500e+000
0	 8.133340000006532e+000	 6.666714722864753e-002	 9.954794422940168e+000
0	 8.133340000006536e+000	 1.333351778131789e-001	 9.954873938853044e+000
0	 8.133340000006534e+000	 2.000039750814772e-001	 9.955063470276365e+000
0	 8.133340000006532e+000	 2.666734223614255e-001	 9.955363524072515e+000
0	 8.133340000006534e+000	 3.333434029809068e-001	 9.955774609139969e+000
0	 8.133340000006532e+000	 4.000138002678044e-001	 9.956297236413088e+000
0	 8.133340000006536e+000	 4.666844975500011e-001	 9.956931918862065e+000
0	 8.133340000006534e+000	 5.333553781553801e-001	 9.957679171492913e+000
0	 8.133340000006534e+000	 6.000263254118246e-001	 9.958539511347485e+000
0	 8.133340000006532e+000	 6.666972226472175e-001	 9.959513457503594e+000
0	 8.200010000009550e+000	 0.000000000000000e+000	 9.946504655749008e+000
0	 8.200010000009552e+000	 6.666714722864757e-002	 9.946488965268646e+000
0	 8.200010000009549e+000	 1.333351778131790e-001	 9.946579712408202e+000
0	 8.200010000009552e+000	 2.000039750814773e-001	 9.946777618837501e+000
0	 8.200010000009549e+000	 2.666734223614256e-001	 9.947083408220088e+000
0	 8.200010000009549e+000	 3.333434029809069e-001	 9.947497806212962e+000
0	 8.200010000009550e+000	 4.000138002678043e-001	 9.948021540466547e+000
0	 8.200010000009549e+000	 4.666844975500010e-001	 9.948655340624491e+000
0	 8.200010000009554e+000	 5.333553781553801e-001	 9.949399938323804e+000
0	 8.200010000009549e+000	 6.000263254118247e-001	 9.950256067194761e+000
0	 8.200010000009550e+000	 6.666972226472175e-001	 9.951224462861051e+000
0	 8.266680000012267e+000	 0.000000000000000e+000	 9.937998333167673e+000
0	 8.266680000012267e+000	 6.666714722864753e-002	 9.938001602205926e+000
0	 8.266680000012268e+000	 1.333351778131789e-001	 9.938109137032532e+000
0	 8.266680000012267e+000	 2.000039750814773e-001	 9.938321834993502e+000
0	 8.266680000012267e+000	 2.666734223614256e-001	 9.938640595390805e+000
0	 8.266680000012263e+000	 3.333434029809068e-001	 9.939066319482221e+000
0	 8.266680000012265e+000	 4.000138002678043e-001	 9.939599910481213e+000
0	 8.266680000012265e+000	 4.666844975500011e-001	 9.940242273556848e+000
0	 8.266680000012268e+000	 5.333553781553804e-001	 9.940994315833802e+000
0	 8.266680000012265e+000	 6.000263254118248e-001	 9.941856946392349e+000
0	 8.266680000012267e+000	 6.666972226472177e-001	 9.942831076268494e+000
0	 8.333350000014585e+000	 0.000000000000000e+000	 9.929312490884513e+000
0	 8.333350000014582e+000	 6.666714722864756e-002	 9.929337390476153e+000
0	 8.333350000014582e+000	 1.333351778131790e-001	 9.929465276230342e+000
0	 8.333350000014583e+000	 2.000039750814773e-001	 9.929697179991599e+000
0	 8.333350000014582e+000	 2.666734223614256e-001	 9.930034135527507e+000
0	 8.333350000014585e+000	 3.333434029809069e-001	 9.930477178528452e+000
0	 8.333350000014582e+000	 4.000138002678044e-001	 9.931027346607619e+000
0	 8.333350000014582e+000	 4.666844975500012e-001	 9.931685679300808e+000
0	 8.333350000014583e+000	 5.333553781553801e-001	 9.932453218066510e+000
0	 8.333350000014583e+000	 6.000263254118248e-001	 9.933331006285858e+000
0	 8.333350000014580e+000	 6.666972226472177e-001	 9.934320089262812e+000
0	 8.400020000016399e+000	 0.000000000000000e+000	 9.920454169816525e+000
0	 8.400020000016397e+000	 6.666714722864754e-002	 9.920501386803512e+000
0	 8.400020000016399e+000	 1.333351778131789e-001	 9.920651193505906e+000
0	 8.400020000016401e+000	 2.000039750814772e-001	 9.920904715079050e+000
0	 8.400020000016399e+000	 2.666734223614256e-001	 9.921263078573002e+000
0	 8.400020000016399e+000	 3.333434029809069e-001	 9.921727412932395e+000
0	 8.400020000016397e+000	 4.000138002678044e-001	 9.922298848996251e+000
0	 8.400020000016401e+000	 4.666844975500012e-001	 9.922978519498022e+000
0	 8.400020000016399e+000	 5.333553781553803e-001	 9.923767559065503e+000
0	 8.400020000016399e+000	 6.000263254118247e-001	 9.924667104220903e+000
0	 8.400020000016401e+000	 6.666972226472177e-001	 9.925678293380909e+000
0	 8.466690000017618e+000	 0.000000000000000e+000	 9.911430410880726e+000
0	 8.466690000017616e+000	 6.666714722864756e-002	 9.911498647912127e+000
0	 8.466690000017618e+000	 1.333351778131790e-001	 9.911669952363516e+000
0	 8.466690000017618e+000	 2.000039750814773e-001	 9.911945501503135e+000
0	 8.466690000017614e+000	 2.666734223614255e-001	 9.912326474470202e+000
0	 8.466690000017616e+000	 3.333434029809069e-001	 9.912814052274785e+000
0	 8.466690000017616e+000	 4.000138002678044e-001	 9.913409417797624e+000
0	 8.466690000017616e+000	 4.666844975500011e-001	 9.914113755790151e+000
0	 8.466690000017616e+000	 5.333553781553803e-001	 9.914928252874397e+000
0	 8.466690000017620e+000	 6.000263254118249e-001	 9.915854097543081e+000
0	 8.466690000017618e+000	 6.666972226472177e-001	 9.916892480159689e+000
0	 8.533360000018131e+000	 0.000000000000000e+000	 9.902248254994102e+000
0	 8.533360000018131e+000	 6.666714722864756e-002	 9.902334230526186e+000
0	 8.533360000018131e+000	 1.333351778131789e-001	 9.902524616307449e+000
0	 8.533360000018131e+000	 2.000039750814772e-001	 9.902820600511062e+000
0	 8.533360000018128e+000	 2.666734223614256e-001	 9.903223373161891e+000
0	 8.533360000018131e+000	 3.333434029809069e-001	 9.903734126136339e+000
0	 8.533360000018133e+000	 4.000138002678044e-001	 9.904354053162255e+000
0	 8.533360000018130e+000	 4.666844975500010e-001	 9.905084349818868e+000
0	 8.533360000018133e+000	 5.333553781553803e-001	 9.905926213536780e+000
0	 8.533360000018133e+000	 6.000263254118247e-001	 9.906880843598000e+000
0	 8.533360000018131e+000	 6.666972226472175e-001	 9.907949441136022e+000
0	 8.600030000017849e+000	 0.000000000000000e+000	 9.892914743073689e+000
0	 8.600030000017847e+000	 6.666714722864754e-002	 9.893013191369832e+000
0	 8.600030000017847e+000	 1.333351778131789e-001	 9.893218248842009e+000
0	 8.600030000017849e+000	 2.000039750814772e-001	 9.893531073350125e+000
0	 8.600030000017851e+000	 2.666734223614256e-001	 9.893952824590937e+000
0	 8.600030000017849e+000	 3.333434029809068e-001	 9.894484664097810e+000
0	 8.600030000017846e+000	 4.000138002678044e-001	 9.895127755240647e+000
0	 8.600030000017851e+000	 4.666844975500011e-001	 9.895883263225837e+000
0	 8.600030000017847e+000	 5.333553781553801e-001	 9.896752355096250e+000
0	 8.600030000017849e+000	 6.000263254118248e-001	 9.897736199731252e+000
0	 8.600030000017846e+000	 6.666972226472177e-001	 9.898835967846832e+000
0	 8.666700000016666e+000	 0.000000000000000e+000	 9.883436916036466e+000
0	 8.666700000016668e+000	 6.666714722864757e-002	 9.883540587167239e+000
0	 8.666700000016665e+000	 1.333351778131789e-001	 9.883753913471463e+000
0	 8.666700000016668e+000	 2.000039750814772e-001	 9.884077981267570e+000
0	 8.666700000016668e+000	 2.666734223614256e-001	 9.884513878700185e+000
0	 8.666700000016666e+000	 3.333434029809069e-001	 9.885062695739913e+000
0	 8.666700000016668e+000	 4.000138002678044e-001	 9.885725524183295e+000
0	 8.666700000016666e+000	 4.666844975500011e-001	 9.886503457652704e+000
0	 8.666700000016668e+000	 5.333553781553803e-001	 9.887397591596388e+000
0	 8.666700000016666e+000	 6.000263254118247e-001	 9.888409023288457e+000
0	 8.666700000016666e+000	 6.666972226472175e-001	 9.889538851828990e+000
0	 8.000000000000000e+000	 6.666972226472177e-001	 9.975831104791062e+000
0	 8.000000000000000e+000	 7.333579753122048e-001	 9.976956177456550e+000
0	 8.000000000000000e+000	 8.000185779984418e-001	 9.978161938243659e+000
0	 8.000000000000000e+000	 8.666790473703454e-001	 9.979452226805337e+000
0	 8.000000000000000e+000	 9.333394000923324e-001	 9.980830882551157e+000
0	 8.000000000000000e+000	 9.999996528288190e-001	 9.982301744647282e+000
0	 8.000000000000002e+000	 1.066659822244223e+000	 9.983868652016485e+000
0	 8.000000000000000e+000	 1.133319925002959e+000	 9.985535443338156e+000
0	 8.000000000000000e+000	 1.199979977769445e+000	 9.987305957048307e+000
0	 8.000000000000000e+000	 1.266639997208098e+000	 9.989184031339534e+000
0	 8.000000000000000e+000	 1.333299999983334e+000	 9.991173504161059e+000
0	 8.066670000003317e+000	 6.666972226472175e-001	 9.967711268659222e+000
0	 8.066670000003317e+000	 7.333579753122047e-001	 9.968803031457679e+000
0	 8.066670000003313e+000	 8.000185779984413e-001	 9.969979645907689e+000
0	 8.066670000003319e+000	 8.666790473703454e-001	 9.971244722971282e+000
0	 8.066670000003317e+000	 9.333394000923323e-001	 9.972601873364685e+000
0	 8.066670000003319e+000	 9.999996528288193e-001	 9.974054707558285e+000
0	 8.066670000003317e+000	 1.066659822244223e+000	 9.975606835776729e+000
0	 8.066670000003317e+000	 1.133319925002959e+000	 9.977261867998816e+000
0	 8.066670000003315e+000	 1.199979977769445e+000	 9.979023413957590e+000
0	 8.066670000003317e+000	 1.266639997208098e+000	 9.980895083140279e+000
0	 8.066670000003313e+000	 1.333299999983334e+000	 9.982880484788357e+000
0	 8.133340000006532e+000	 6.666972226472175e-001	 9.959513457503595e+000
0	 8.133340000006532e+000	 7.333579753122046e-001	 9.960586582259650e+000
0	 8.133340000006534e+000	 8.000185779984419e-001	 9.961746680437930e+000
0	 8.133340000006536e+000	 8.666790473703455e-001	 9.962997142353169e+000
0	 8.133340000006532e+000	 9.333394000923322e-001	 9.964341358075131e+000
0	 8.133340000006534e+000	 9.999996528288191e-001	 9.965782717428510e+000
0	 8.133340000006534e+000	 1.066659822244222e+000	 9.967324609992987e+000
0	 8.133340000006532e+000	 1.133319925002959e+000	 9.968970425103224e+000
0	 8.133340000006532e+000	 1.199979977769445e+000	 9.970723551848849e+000
0	 8.133340000006532e+000	 1.266639997208098e+000	 9.972587379074502e+000
0	 8.133340000006532e+000	 1.333299999983334e+000	 9.974565295379804e+000
0	 8.200010000009550e+000	 6.666972226472175e-001	 9.951224462861051e+000
0	 8.200010000009552e+000	 7.333579753122049e-001	 9.952291756397484e+000
0	 8.200010000009552e+000	 8.000185779984420e-001	 9.953446513480824e+000
0	 8.200010000009550e+000	 8.666790473703455e-001	 9.954691911825952e+000
0	 8.200010000009549e+000	 9.333394000923322e-001	 9.956031128906066e+000
0	 8.200010000009550e+000	 9.999996528288192e-001	 9.957467341952693e+000
0	 8.200010000009552e+000	 1.066659822244223e+000	 9.959003727955661e+000
0	 8.200010000009552e+000	 1.133319925002959e+000	 9.960643463663104e+000
0	 8.200010000009550e+000	 1.199979977769445e+000	 9.962389725581504e+000
0	 8.200010000009549e+000	 1.266639997208098e+000	 9.964245689975623e+000
0	 8.200010000009550e+000	 1.333299999983334e+000	 9.966214532868579e+000
0	 8.266680000012267e+000	 6.666972226472177e-001	 9.942831076268492e+000
0	 8.266680000012270e+000	 7.333579753122048e-001	 9.943903480406215e+000
0	 8.266680000012267e+000	 8.000185779984418e-001	 9.945062616682861e+000
0	 8.266680000012267e+000	 8.666790473703454e-001	 9.946311458264550e+000
0	 8.266680000012267e+000	 9.333394000923324e-001	 9.947652978081017e+000
0	 8.266680000012265e+000	 9.999996528288192e-001	 9.949090148825565e+000
0	 8.266680000012268e+000	 1.066659822244222e+000	 9.950625942955124e+000
0	 8.266680000012267e+000	 1.133319925002959e+000	 9.952263332690208e+000
0	 8.266680000012265e+000	 1.199979977769445e+000	 9.954005290014951e+000
0	 8.266680000012267e+000	 1.266639997208098e+000	 9.955854786677076e+000
0	 8.266680000012263e+000	 1.333299999983333e+000	 9.957814794187915e+000
0	 8.333350000014580e+000	 6.666972226472177e-001	 9.934320089262808e+000
0	 8.333350000014583e+000	 7.333579753122047e-001	 9.935406680820851e+000
0	 8.333350000014580e+000	 8.000185779984419e-001	 9.936578461690495e+000
0	 8.333350000014585e+000	 8.666790473703455e-001	 9.937838208543933e+000
0	 8.333350000014580e+000	 9.333394000923322e-001	 9.939188697823527e+000
0	 8.333350000014583e+000	 9.999996528288191e-001	 9.940632705741866e+000
0	 8.333350000014583e+000	 1.066659822244222e+000	 9.942173008281772e+000
0	 8.333350000014582e+000	 1.133319925002959e+000	 9.943812381196269e+000
0	 8.333350000014583e+000	 1.199979977769445e+000	 9.945553600008614e+000
0	 8.333350000014585e+000	 1.266639997208098e+000	 9.947399440012294e+000
0	 8.333350000014583e+000	 1.333299999983334e+000	 9.949352676270966e+000
0	 8.400020000016401e+000	 6.666972226472177e-001	 9.925678293380910e+000
0	 8.400020000016401e+000	 7.333579753122049e-001	 9.926786284176409e+000
0	 8.400020000016399e+000	 8.000185779984418e-001	 9.927977520150206e+000
0	 8.400020000016399e+000	 8.666790473703456e-001	 9.929254589539037e+000
0	 8.400020000016403e+000	 9.333394000923324e-001	 9.930620080357141e+000
0	 8.400020000016401e+000	 9.999996528288190e-001	 9.932076580396343e+000
0	 8.400020000016401e+000	 1.066659822244223e+000	 9.933626677225991e+000
0	 8.400020000016401e+000	 1.133319925002959e+000	 9.935272958193025e+000
0	 8.400020000016403e+000	 1.199979977769445e+000	 9.937018010421907e+000
0	 8.400020000016397e+000	 1.266639997208098e+000	 9.938864420814692e+000
0	 8.400020000016399e+000	 1.333299999983334e+000	 9.940814776050969e+000
0	 8.466690000017618e+000	 6.666972226472177e-001	 9.916892480159685e+000
0	 8.466690000017616e+000	 7.333579753122047e-001	 9.918027217007911e+000
0	 8.466690000017614e+000	 8.000185779984418e-001	 9.919243263708477e+000
0	 8.466690000017618e+000	 8.666790473703456e-001	 9.920543028124820e+000
0	 8.466690000017614e+000	 9.333394000923323e-001	 9.921928917905415e+000
0	 8.466690000017614e+000	 9.999996528288189e-001	 9.923403340483723e+000
0	 8.466690000017616e+000	 1.066659822244222e+000	 9.924968703078164e+000
0	 8.466690000017618e+000	 1.133319925002959e+000	 9.926627412692195e+000
0	 8.466690000017618e+000	 1.199979977769446e+000	 9.928381876114241e+000
0	 8.466690000017616e+000	 1.266639997208098e+000	 9.930234499917729e+000
0	 8.466690000017616e+000	 1.333299999983334e+000	 9.932187690461117e+000
0	 8.533360000018131e+000	 6.666972226472175e-001	 9.907949441136024e+000
0	 8.533360000018128e+000	 7.333579753122047e-001	 9.909114405850389e+000
0	 8.533360000018131e+000	 8.000185779984418e-001	 9.910359164011743e+000
0	 8.533360000018133e+000	 8.666790473703454e-001	 9.911685951176224e+000
0	 8.533360000018131e+000	 9.333394000923324e-001	 9.913097002691893e+000
0	 8.533360000018133e+000	 9.999996528288192e-001	 9.914594553698754e+000
0	 8.533360000018131e+000	 1.066659822244223e+000	 9.916180839128689e+000
0	 8.533360000018135e+000	 1.133319925002959e+000	 9.917858093705526e+000
0	 8.533360000018131e+000	 1.199979977769445e+000	 9.919628551945021e+000
0	 8.533360000018131e+000	 1.266639997208098e+000	 9.921494448154846e+000
0	 8.533360000018133e+000	 1.333299999983334e+000	 9.923458016434598e+000
0	 8.600030000017846e+000	 6.666972226472177e-001	 9.898835967846829e+000
0	 8.600030000017849e+000	 7.333579753122049e-001	 9.900032777238865e+000
0	 8.600030000017849e+000	 8.000185779984420e-001	 9.901308692706509e+000
0	 8.600030000017847e+000	 8.666790473703453e-001	 9.902665785568200e+000
0	 8.600030000017849e+000	 9.333394000923324e-001	 9.904106126940132e+000
0	 8.600030000017847e+000	 9.999996528288190e-001	 9.905631787736171e+000
0	 8.600030000017847e+000	 1.066659822244222e+000	 9.907244838667932e+000
0	 8.600030000017851e+000	 1.133319925002959e+000	 9.908947350244752e+000
0	 8.600030000017846e+000	 1.199979977769445e+000	 9.910741392773664e+000
0	 8.600030000017847e+000	 1.266639997208098e+000	 9.912629036359448e+000
0	 8.600030000017847e+000	 1.333299999983334e+000	 9.914612350904609e+000
0	 8.666700000016666e+000	 6.666972226472175e-001	 9.889538851828990e+000
0	 8.666700000016666e+000	 7.333579753122048e-001	 9.890767257708355e+000
0	 8.666700000016668e+000	 8.000185779984420e-001	 9.892075321439219e+000
0	 8.666700000016665e+000	 8.666790473703454e-001	 9.893464958175704e+000
0	 8.666700000016663e+000	 9.333394000923321e-001	 9.894938082873658e+000
0	 8.666700000016668e+000	 9.999996528288192e-001	 9.896496610290722e+000
0	 8.666700000016665e+000	 1.066659822244222e+000	 9.898142454986305e+000
0	 8.666700000016666e+000	 1.133319925002959e+000	 9.899877531321600e+000
0	 8.666700000016665e+000	 1.199979977769445e+000	 9.901703753459579e+000
0	 8.666700000016666e+000	 1.266639997208098e+000	 9.903623035364994e+000
0	 8.666700000016666e+000	 1.333299999983334e+000	 9.905637290804364e+000
0	 8.000000000000000e+000	 1.333299999983334e+000	 9.991173504161063e+000
0	 7.999999999999998e+000	 1.399969999982150e+000	 9.993224396426477e+000
0	 8.000000000000000e+000	 1.466639999981866e+000	 9.995285557466689e+000
0	 8.000000000000000e+000	 1.533309999982383e+000	 9.997359988669611e+000
0	 8.000000000000000e+000	 1.599979999983600e+000	 9.999450691423160e+000
0	 7.999999999999999e+000	 1.666649999985417e+000	 1.000156066711524e+001
0	 8.000000000000000e+000	 1.733319999987733e+000	 1.000369291713378e+001
0	 8.000000000000000e+000	 1.799989999990450e+000	 1.000585044286668e+001
0	 7.999999999999998e+000	 1.866659999993467e+000	 1.000803624570186e+001
0	 8.000000000000000e+000	 1.933329999996684e+000	 1.001025332702723e+001
0	 7.999999999999999e+000	 2.000000000000000e+000	 1.001250468823071e+001
0	 8.066670000003313e+000	 1.333299999983334e+000	 9.982880484788357e+000
0	 8.066670000003317e+000	 1.399969999982150e+000	 9.984927791023047e+000
0	 8.066670000003317e+000	 1.466639999981867e+000	 9.986984532837592e+000
0	 8.066670000003313e+000	 1.533309999982383e+000	 9.989054277250956e+000
0	 8.066670000003319e+000	 1.599979999983600e+000	 9.991140591282051e+000
0	 8.066670000003319e+000	 1.666649999985417e+000	 9.993247041949871e+000
0	 8.066670000003317e+000	 1.733319999987733e+000	 9.995377196273374e+000
0	 8.066670000003317e+000	 1.799989999990450e+000	 9.997534621271488e+000
0	 8.066670000003315e+000	 1.866659999993467e+000	 9.999722883963205e+000
0	 8.066670000003319e+000	 1.933329999996684e+000	 1.000194555136746e+001
0	 8.066670000003319e+000	 2.000000000000000e+000	 1.000420619050320e+001
0	 8.133340000006532e+000	 1.333299999983334e+000	 9.974565295379801e+000
0	 8.133340000006534e+000	 1.399969999982151e+000	 9.976605414417374e+000
0	 8.133340000006532e+000	 1.466639999981866e+000	 9.978655653665024e+000
0	 8.133340000006530e+000	 1.533309999982383e+000	 9.980720023608553e+000
0	 8.133340000006532e+000	 1.599979999983600e+000	 9.982802534733807e+000
0	 8.133340000006532e+000	 1.666649999985416e+000	 9.984907197526596e+000
0	 8.133340000006538e+000	 1.733319999987733e+000	 9.987038022472760e+000
0	 8.133340000006534e+000	 1.799989999990450e+000	 9.989199020058109e+000
0	 8.133340000006532e+000	 1.866659999993467e+000	 9.991394200768490e+000
0	 8.133340000006534e+000	 1.933329999996684e+000	 9.993627575089707e+000
0	 8.133340000006532e+000	 1.999999999999999e+000	 9.995903153507609e+000
0	 8.200010000009550e+000	 1.333299999983334e+000	 9.966214532868582e+000
0	 8.200010000009547e+000	 1.399969999982150e+000	 9.968245785429490e+000
0	 8.200010000009552e+000	 1.466639999981866e+000	 9.970289141495563e+000
0	 8.200010000009549e+000	 1.533309999982383e+000	 9.972348932855304e+000
0	 8.200010000009549e+000	 1.599979999983600e+000	 9.974429491297270e+000
0	 8.200010000009549e+000	 1.666649999985416e+000	 9.976535148609951e+000
0	 8.200010000009549e+000	 1.733319999987733e+000	 9.978670236581881e+000
0	 8.200010000009550e+000	 1.799989999990450e+000	 9.980839087001579e+000
0	 8.200010000009552e+000	 1.866659999993467e+000	 9.983046031657592e+000
0	 8.200010000009550e+000	 1.933329999996684e+000	 9.985295402338426e+000
0	 8.200010000009550e+000	 2.000000000000000e+000	 9.987591530832614e+000
0	 8.266680000012263e+000	 1.333299999983333e+000	 9.957814794187916e+000
0	 8.266680000012265e+000	 1.399969999982150e+000	 9.959837422879449e+000
0	 8.266680000012263e+000	 1.466639999981867e+000	 9.961875217875814e+000
0	 8.266680000012268e+000	 1.533309999982383e+000	 9.963932710104082e+000
0	 8.266680000012268e+000	 1.599979999983600e+000	 9.966014430491281e+000
0	 8.266680000012265e+000	 1.666649999985416e+000	 9.968124909964462e+000
0	 8.266680000012267e+000	 1.733319999987733e+000	 9.970268679450680e+000
0	 8.266680000012267e+000	 1.799989999990450e+000	 9.972450269876982e+000
0	 8.266680000012270e+000	 1.866659999993467e+000	 9.974674212170429e+000
0	 8.266680000012265e+000	 1.933329999996684e+000	 9.976945037258055e+000
0	 8.266680000012268e+000	 2.000000000000000e+000	 9.979267276066921e+000
0	 8.333350000014583e+000	 1.333299999983334e+000	 9.949352676270969e+000
0	 8.333350000014580e+000	 1.399969999982150e+000	 9.951368845587268e+000
0	 8.333350000014583e+000	 1.466639999981867e+000	 9.953404104352384e+000
0	 8.333350000014583e+000	 1.533309999982383e+000	 9.955463060467723e+000
0	 8.333350000014582e+000	 1.599979999983599e+000	 9.957550321834692e+000
0	 8.333350000014585e+000	 1.666649999985416e+000	 9.959670496354686e+000
0	 8.333350000014582e+000	 1.733319999987733e+000	 9.961828191929108e+000
0	 8.333350000014582e+000	 1.799989999990450e+000	 9.964028016459377e+000
0	 8.333350000014583e+000	 1.866659999993467e+000	 9.966274577846880e+000
0	 8.333350000014583e+000	 1.933329999996684e+000	 9.968572483993020e+000
0	 8.333350000014580e+000	 1.999999999999999e+000	 9.970926342799224e+000
0	 8.400020000016399e+000	 1.333299999983334e+000	 9.940814776050972e+000
0	 8.400020000016397e+000	 1.399969999982150e+000	 9.942828572373017e+000
0	 8.400020000016397e+000	 1.466639999981866e+000	 9.944866022471871e+000
0	 8.400020000016401e+000	 1.533309999982383e+000	 9.946931689059122e+000
0	 8.400020000016399e+000	 1.599979999983599e+000	 9.949030134846371e+000
0	 8.400020000016397e+000	 1.666649999985416e+000	 9.951165922545169e+000
0	 8.400020000016404e+000	 1.733319999987733e+000	 9.953343614867128e+000
0	 8.400020000016401e+000	 1.799989999990450e+000	 9.955567774523825e+000
0	 8.400020000016401e+000	 1.866659999993467e+000	 9.957842964226849e+000
0	 8.400020000016399e+000	 1.933329999996684e+000	 9.960173746687783e+000
0	 8.400020000016399e+000	 2.000000000000000e+000	 9.962564684618213e+000
0	 8.466690000017616e+000	 1.333299999983334e+000	 9.932187690461117e+000
0	 8.466690000017614e+000	 1.399969999982150e+000	 9.934205122056712e+000
0	 8.466690000017614e+000	 1.466639999981867e+000	 9.936251193780858e+000
0	 8.466690000017618e+000	 1.533309999982383e+000	 9.938330300991130e+000
0	 8.466690000017614e+000	 1.599979999983600e+000	 9.940446839045134e+000
0	 8.466690000017616e+000	 1.666649999985417e+000	 9.942605203300445e+000
0	 8.466690000017616e+000	 1.733319999987733e+000	 9.944809789114677e+000
0	 8.466690000017616e+000	 1.799989999990450e+000	 9.947064991845409e+000
0	 8.466690000017614e+000	 1.866659999993467e+000	 9.949375206850231e+000
0	 8.466690000017614e+000	 1.933329999996683e+000	 9.951744829486771e+000
0	 8.466690000017616e+000	 2.000000000000000e+000	 9.954178255112579e+000
0	 8.533360000018133e+000	 1.333299999983334e+000	 9.923458016434598e+000
0	 8.533360000018128e+000	 1.399969999982150e+000	 9.925487013458437e+000
0	 8.533360000018130e+000	 1.466639999981867e+000	 9.927549839825966e+000
0	 8.533360000018131e+000	 1.533309999982383e+000	 9.929650601376626e+000
0	 8.533360000018133e+000	 1.599979999983599e+000	 9.931793403949852e+000
0	 8.533360000018135e+000	 1.666649999985416e+000	 9.933982353385066e+000
0	 8.533360000018130e+000	 1.733319999987733e+000	 9.936221555521696e+000
0	 8.533360000018131e+000	 1.799989999990449e+000	 9.938515116199181e+000
0	 8.533360000018133e+000	 1.866659999993467e+000	 9.940867141256941e+000
0	 8.533360000018131e+000	 1.933329999996684e+000	 9.943281736534425e+000
0	 8.533360000018131e+000	 2.000000000000000e+000	 9.945763007871047e+000
0	 8.600030000017847e+000	 1.333299999983334e+000	 9.914612350904610e+000
0	 8.600030000017846e+000	 1.399969999982150e+000	 9.916662765398199e+000
0	 8.600030000017846e+000	 1.466639999981866e+000	 9.918752182153780e+000
0	 8.600030000017849e+000	 1.533309999982383e+000	 9.920884295328481e+000
0	 8.600030000017849e+000	 1.599979999983600e+000	 9.923062799079377e+000
0	 8.600030000017849e+000	 1.666649999985416e+000	 9.925291387563561e+000
0	 8.600030000017849e+000	 1.733319999987733e+000	 9.927573754938150e+000
0	 8.600030000017847e+000	 1.799989999990450e+000	 9.929913595360208e+000
0	 8.600030000017847e+000	 1.866659999993467e+000	 9.932314602986855e+000
0	 8.600030000017847e+000	 1.933329999996684e+000	 9.934780471975182e+000
0	 8.600030000017847e+000	 2.000000000000000e+000	 9.937314896482285e+000
0	 8.666700000016666e+000	 1.333299999983334e+000	 9.905637290804366e+000
0	 8.666700000016668e+000	 1.399969999982150e+000	 9.907720896696056e+000
0	 8.666700000016665e+000	 1.466639999981866e+000	 9.909848442310921e+000
0	 8.666700000016666e+000	 1.533309999982383e+000	 9.912023087959550e+000
0	 8.666700000016668e+000	 1.599979999983600e+000	 9.914247993952555e+000
0	 8.666700000016666e+000	 1.666649999985417e+000	 9.916526320600495e+000
0	 8.666700000016666e+000	 1.733319999987733e+000	 9.918861228213977e+000
0	 8.666700000016665e+000	 1.799989999990450e+000	 9.921255877103576e+000
0	 8.666700000016665e+000	 1.866659999993467e+000	 9.923713427579880e+000
0	 8.666700000016666e+000	 1.933329999996684e+000	 9.926237039953502e+000
0	 8.666700000016666e+000	 2.000000000000000e+000	 9.928829874535003e+000
0	 7.999999999999999e+000	 2.000000000000000e+000	 1.001250468823071e+001
0	 8.000000000000000e+000	 2.066670000003318e+000	 1.001475182482446e+001
0	 8.000000000000000e+000	 2.133340000006534e+000	 1.001695820865342e+001
0	 8.000000000000002e+000	 2.200010000009551e+000	 1.001912980560467e+001
0	 7.999999999999998e+000	 2.266680000012267e+000	 1.002127258156531e+001
0	 8.000000000000000e+000	 2.333350000014584e+000	 1.002339250242244e+001
0	 8.000000000000000e+000	 2.400020000016400e+000	 1.002549553406315e+001
0	 7.999999999999998e+000	 2.466690000017617e+000	 1.002758764237452e+001
0	 8.000000000000000e+000	 2.533360000018133e+000	 1.002967479324367e+001
0	 8.000000000000002e+000	 2.600030000017851e+000	 1.003176295255766e+001
0	 8.000000000000000e+000	 2.666700000016666e+000	 1.003385808620361e+001
0	 8.066670000003319e+000	 2.000000000000000e+000	 1.000420619050320e+001
0	 8.066670000003317e+000	 2.066670000003317e+000	 1.000646958624680e+001
0	 8.066670000003319e+000	 2.133340000006535e+000	 1.000870118719922e+001
0	 8.066670000003317e+000	 2.200010000009551e+000	 1.001090555596642e+001
0	 8.066670000003317e+000	 2.266680000012268e+000	 1.001308725515438e+001
0	 8.066670000003315e+000	 2.333350000014583e+000	 1.001525084736902e+001
0	 8.066670000003319e+000	 2.400020000016402e+000	 1.001740089521632e+001
0	 8.066670000003313e+000	 2.466690000017617e+000	 1.001954196130223e+001
0	 8.066670000003315e+000	 2.533360000018134e+000	 1.002167860823270e+001
0	 8.066670000003317e+000	 2.600030000017850e+000	 1.002381539861368e+001
0	 8.066670000003315e+000	 2.666700000016666e+000	 1.002595689505112e+001
0	 8.133340000006532e+000	 1.999999999999999e+000	 9.995903153507609e+000
0	 8.133340000006536e+000	 2.066670000003317e+000	 9.998188089610522e+000
0	 8.133340000006536e+000	 2.133340000006534e+000	 1.000044910685110e+001
0	 8.133340000006534e+000	 2.200010000009551e+000	 1.000268957051166e+001
0	 8.133340000006536e+000	 2.266680000012267e+000	 1.000491284587448e+001
0	 8.133340000006532e+000	 2.333350000014585e+000	 1.000712229822190e+001
0	 8.133340000006530e+000	 2.400020000016401e+000	 1.000932129283619e+001
0	 8.133340000006534e+000	 2.466690000017617e+000	 1.001151319499968e+001
0	 8.133340000006534e+000	 2.533360000018134e+000	 1.001370136999465e+001
0	 8.133340000006534e+000	 2.600030000017850e+000	 1.001588918310342e+001
0	 8.133340000006532e+000	 2.666700000016666e+000	 1.001807999960829e+001
0	 8.200010000009550e+000	 2.000000000000000e+000	 9.987591530832614e+000
0	 8.200010000009550e+000	 2.066670000003317e+000	 9.989903141333794e+000
0	 8.200010000009549e+000	 2.133340000006534e+000	 9.992197652787347e+000
0	 8.200010000009550e+000	 2.200010000009551e+000	 9.994477439109421e+000
0	 8.200010000009550e+000	 2.266680000012268e+000	 9.996744874216148e+000
0	 8.200010000009547e+000	 2.333350000014584e+000	 9.999002332023697e+000
0	 8.200010000009545e+000	 2.400020000016400e+000	 1.000125218644817e+001
0	 8.200010000009547e+000	 2.466690000017617e+000	 1.000349681140575e+001
0	 8.200010000009550e+000	 2.533360000018134e+000	 1.000573858081256e+001
0	 8.200010000009550e+000	 2.600030000017851e+000	 1.000797986858474e+001
0	 8.200010000009550e+000	 2.666700000016667e+000	 1.001022304863844e+001
0	 8.266680000012268e+000	 2.000000000000000e+000	 9.979267276066921e+000
0	 8.266680000012265e+000	 2.066670000003317e+000	 9.981610547834753e+000
0	 8.266680000012267e+000	 2.133340000006534e+000	 9.983942510186200e+000
0	 8.266680000012268e+000	 2.200010000009550e+000	 9.986264751628758e+000
0	 8.266680000012267e+000	 2.266680000012267e+000	 9.988578860669877e+000
0	 8.266680000012265e+000	 2.333350000014584e+000	 9.990886425817031e+000
0	 8.266680000012267e+000	 2.400020000016401e+000	 9.993189035577705e+000
0	 8.266680000012268e+000	 2.466690000017618e+000	 9.995488278459355e+000
0	 8.266680000012265e+000	 2.533360000018134e+000	 9.997785742969448e+000
0	 8.266680000012265e+000	 2.600030000017850e+000	 1.000008301761547e+001
0	 8.266680000012265e+000	 2.666700000016666e+000	 1.000238169090487e+001
0	 8.333350000014580e+000	 1.999999999999999e+000	 9.970926342799224e+000
0	 8.333350000014583e+000	 2.066670000003317e+000	 9.973306115531521e+000
0	 8.333350000014583e+000	 2.133340000006534e+000	 9.975679364225924e+000
0	 8.333350000014583e+000	 2.200010000009551e+000	 9.978047097938701e+000
0	 8.333350000014583e+000	 2.266680000012268e+000	 9.980410325726155e+000
0	 8.333350000014583e+000	 2.333350000014585e+000	 9.982770056644554e+000
0	 8.333350000014583e+000	 2.400020000016402e+000	 9.985127299750200e+000
0	 8.333350000014582e+000	 2.466690000017617e+000	 9.987483064099372e+000
0	 8.333350000014583e+000	 2.533360000018134e+000	 9.989838358748354e+000
0	 8.333350000014582e+000	 2.600030000017850e+000	 9.992194192753432e+000
0	 8.333350000014583e+000	 2.666700000016667e+000	 9.994551575170906e+000
0	 8.400020000016399e+000	 2.000000000000000e+000	 9.962564684618213e+000
0	 8.400020000016397e+000	 2.066670000003317e+000	 9.964985650842273e+000
0	 8.400020000016395e+000	 2.133340000006534e+000	 9.967403900084781e+000
0	 8.400020000016401e+000	 2.200010000009551e+000	 9.969820067908323e+000
0	 8.400020000016401e+000	 2.266680000012267e+000	 9.972234789875495e+000
0	 8.400020000016399e+000	 2.333350000014584e+000	 9.974648701548887e+000
0	 8.400020000016399e+000	 2.400020000016401e+000	 9.977062438491094e+000
0	 8.400020000016401e+000	 2.466690000017618e+000	 9.979476636264703e+000
0	 8.400020000016397e+000	 2.533360000018134e+000	 9.981891930432289e+000
0	 8.400020000016399e+000	 2.600030000017851e+000	 9.984308956556491e+000
0	 8.400020000016397e+000	 2.666700000016666e+000	 9.986728350199854e+000
0	 8.466690000017616e+000	 2.000000000000000e+000	 9.954178255112579e+000
0	 8.466690000017614e+000	 2.066670000003316e+000	 9.956644960185130e+000
0	 8.466690000017614e+000	 2.133340000006533e+000	 9.959111802941031e+000
0	 8.466690000017616e+000	 2.200010000009551e+000	 9.961579251406651e+000
0	 8.466690000017618e+000	 2.266680000012268e+000	 9.964047773608405e+000
0	 8.466690000017618e+000	 2.333350000014584e+000	 9.966517837572663e+000
0	 8.466690000017618e+000	 2.400020000016401e+000	 9.968989911325807e+000
0	 8.466690000017618e+000	 2.466690000017618e+000	 9.971464462894236e+000
0	 8.466690000017616e+000	 2.533360000018134e+000	 9.973941960304327e+000
0	 8.466690000017618e+000	 2.600030000017851e+000	 9.976422871582454e+000
0	 8.466690000017616e+000	 2.666700000016667e+000	 9.978907664755031e+000
0	 8.533360000018131e+000	 2.000000000000000e+000	 9.945763007871047e+000
0	 8.533360000018130e+000	 2.066670000003317e+000	 9.948279849978235e+000
0	 8.533360000018133e+000	 2.133340000006534e+000	 9.950798757972908e+000
0	 8.533360000018133e+000	 2.200010000009550e+000	 9.953320238302728e+000
0	 8.533360000018130e+000	 2.266680000012267e+000	 9.955844797415381e+000
0	 8.533360000018131e+000	 2.333350000014584e+000	 9.958372941758505e+000
0	 8.533360000018130e+000	 2.400020000016401e+000	 9.960905177779784e+000
0	 8.533360000018131e+000	 2.466690000017618e+000	 9.963442011926873e+000
0	 8.533360000018133e+000	 2.533360000018135e+000	 9.965983950647461e+000
0	 8.533360000018133e+000	 2.600030000017850e+000	 9.968531500389187e+000
0	 8.533360000018131e+000	 2.666700000016666e+000	 9.971085167599750e+000
0	 8.600030000017847e+000	 2.000000000000000e+000	 9.937314896482285e+000
0	 8.600030000017847e+000	 2.066670000003317e+000	 9.939886126639758e+000
0	 8.600030000017847e+000	 2.133340000006534e+000	 9.942460450358718e+000
0	 8.600030000017849e+000	 2.200010000009551e+000	 9.945038618465636e+000
0	 8.600030000017849e+000	 2.266680000012268e+000	 9.947621381786924e+000
0	 8.600030000017847e+000	 2.333350000014585e+000	 9.950209491149042e+000
0	 8.600030000017849e+000	 2.400020000016401e+000	 9.952803697378421e+000
0	 8.600030000017847e+000	 2.466690000017617e+000	 9.955404751301501e+000
0	 8.600030000017847e+000	 2.533360000018134e+000	 9.958013403744729e+000
0	 8.600030000017847e+000	 2.600030000017851e+000	 9.960630405534516e+000
0	 8.600030000017847e+000	 2.666700000016666e+000	 9.963256507497333e+000
0	 8.666700000016666e+000	 2.000000000000000e+000	 9.928829874535003e+000
0	 8.666700000016668e+000	 2.066670000003317e+000	 9.931459596587798e+000
0	 8.666700000016665e+000	 2.133340000006534e+000	 9.934092565276698e+000
0	 8.666700000016668e+000	 2.200010000009552e+000	 9.936729981764376e+000
0	 8.666700000016668e+000	 2.266680000012268e+000	 9.939373047213557e+000
0	 8.666700000016666e+000	 2.333350000014585e+000	 9.942022962786918e+000
0	 8.666700000016666e+000	 2.400020000016402e+000	 9.944680929647177e+000
0	 8.666700000016668e+000	 2.466690000017617e+000	 9.947348148957010e+000
0	 8.666700000016668e+000	 2.533360000018134e+000	 9.950025821879155e+000
0	 8.666700000016666e+000	 2.600030000017850e+000	 9.952715149576275e+000
0	 8.666700000016668e+000	 2.666700000016667e+000	 9.955417333211077e+000
0	 8.000000000000000e+000	 2.666700000016666e+000	 1.003385808620361e+001
0	 8.000000000000000e+000	 2.733360000014533e+000	 1.003592948560487e+001
0	 8.000000000000000e+000	 2.800020000011600e+000	 1.003794376976258e+001
0	 8.000000000000000e+000	 2.866680000008067e+000	 1.003990195070357e+001
0	 8.000000000000000e+000	 2.933340000004133e+000	 1.004180504045459e+001
0	 8.000000000000000e+000	 3.000000000000001e+000	 1.004365405104247e+001
0	 8.000000000000002e+000	 3.066659999995868e+000	 1.004544999449396e+001
0	 7.999999999999999e+000	 3.133319999991934e+000	 1.004719388283589e+001
0	 7.999999999999999e+000	 3.199979999988401e+000	 1.004888672809504e+001
0	 8.000000000000000e+000	 3.266639999985468e+000	 1.005052954229823e+001
0	 7.999999999999998e+000	 3.333299999983333e+000	 1.005212333747224e+001
0	 8.066670000003315e+000	 2.666700000016666e+000	 1.002595689505112e+001
0	 8.066670000003319e+000	 2.733360000014534e+000	 1.002807303848132e+001
0	 8.066670000003315e+000	 2.800020000011599e+000	 1.003013243689184e+001
0	 8.066670000003320e+000	 2.866680000008067e+000	 1.003213668809710e+001
0	 8.066670000003317e+000	 2.933340000004133e+000	 1.003408738991159e+001
0	 8.066670000003319e+000	 3.000000000000000e+000	 1.003598614014974e+001
0	 8.066670000003319e+000	 3.066659999995868e+000	 1.003783453662603e+001
0	 8.066670000003320e+000	 3.133319999991935e+000	 1.003963417715489e+001
0	 8.066670000003317e+000	 3.199979999988401e+000	 1.004138665955082e+001
0	 8.066670000003317e+000	 3.266639999985468e+000	 1.004309358162825e+001
0	 8.066670000003313e+000	 3.333299999983333e+000	 1.004475654120167e+001
0	 8.133340000006532e+000	 2.666700000016666e+000	 1.001807999960829e+001
0	 8.133340000006536e+000	 2.733360000014534e+000	 1.002024438199445e+001
0	 8.133340000006532e+000	 2.800020000011601e+000	 1.002235269280426e+001
0	 8.133340000006536e+000	 2.866680000008067e+000	 1.002440701040730e+001
0	 8.133340000006534e+000	 2.933340000004134e+000	 1.002640941317305e+001
0	 8.133340000006534e+000	 3.000000000000000e+000	 1.002836197947107e+001
0	 8.133340000006534e+000	 3.066659999995868e+000	 1.003026678767086e+001
0	 8.133340000006538e+000	 3.133319999991935e+000	 1.003212591614197e+001
0	 8.133340000006530e+000	 3.199979999988401e+000	 1.003394144325393e+001
0	 8.133340000006534e+000	 3.266639999985466e+000	 1.003571544737627e+001
0	 8.133340000006532e+000	 3.333299999983333e+000	 1.003745000687852e+001
0	 8.200010000009550e+000	 2.666700000016667e+000	 1.001022304863844e+001
0	 8.200010000009552e+000	 2.733360000014533e+000	 1.001243927401045e+001
0	 8.200010000009554e+000	 2.800020000011600e+000	 1.001460042436302e+001
0	 8.200010000009550e+000	 2.866680000008067e+000	 1.001670895338817e+001
0	 8.200010000009549e+000	 2.933340000004133e+000	 1.001876731477789e+001
0	 8.200010000009552e+000	 3.000000000000001e+000	 1.002077796222419e+001
0	 8.200010000009549e+000	 3.066659999995868e+000	 1.002274334941905e+001
0	 8.200010000009552e+000	 3.133319999991934e+000	 1.002466593005451e+001
0	 8.200010000009554e+000	 3.199979999988401e+000	 1.002654815782256e+001
0	 8.200010000009550e+000	 3.266639999985468e+000	 1.002839248641521e+001
0	 8.200010000009550e+000	 3.333299999983333e+000	 1.003020136952447e+001
0	 8.266680000012265e+000	 2.666700000016666e+000	 1.000238169090487e+001
0	 8.266680000012270e+000	 2.733360000014534e+000	 1.000465347239559e+001
0	 8.266680000012265e+000	 2.800020000011599e+000	 1.000687151843126e+001
0	 8.266680000012265e+000	 2.866680000008066e+000	 1.000903855279377e+001
0	 8.266680000012265e+000	 2.933340000004133e+000	 1.001115729926500e+001
0	 8.266680000012263e+000	 3.000000000000000e+000	 1.001323048162685e+001
0	 8.266680000012265e+000	 3.066659999995867e+000	 1.001526082366118e+001
0	 8.266680000012265e+000	 3.133319999991934e+000	 1.001725104914989e+001
0	 8.266680000012267e+000	 3.199979999988401e+000	 1.001920388187486e+001
0	 8.266680000012268e+000	 3.266639999985468e+000	 1.002112204561800e+001
0	 8.266680000012263e+000	 3.333299999983333e+000	 1.002300826416118e+001
0	 8.333350000014583e+000	 2.666700000016667e+000	 9.994551575170906e+000
0	 8.333350000014585e+000	 2.733360000014534e+000	 9.996882735016103e+000
0	 8.333350000014580e+000	 2.800020000011600e+000	 9.999161861872114e+000
0	 8.333350000014580e+000	 2.866680000008067e+000	 1.000139184437812e+001
0	 8.333350000014580e+000	 2.933340000004133e+000	 1.000357557117329e+001
0	 8.333350000014582e+000	 3.000000000000000e+000	 1.000571593089680e+001
0	 8.333350000014582e+000	 3.066659999995868e+000	 1.000781581218780e+001
0	 8.333350000014582e+000	 3.133319999991934e+000	 1.000987810368550e+001
0	 8.333350000014582e+000	 3.199979999988400e+000	 1.001190569402903e+001
0	 8.333350000014583e+000	 3.266639999985468e+000	 1.001390147185758e+001
0	 8.333350000014585e+000	 3.333299999983335e+000	 1.001586832581035e+001
0	 8.400020000016397e+000	 2.666700000016666e+000	 9.986728350199854e+000
0	 8.400020000016401e+000	 2.733360000014533e+000	 9.989122819738228e+000
0	 8.400020000016399e+000	 2.800020000011600e+000	 9.991467341548745e+000
0	 8.400020000016399e+000	 2.866680000008067e+000	 9.993764863895263e+000
0	 8.400020000016401e+000	 2.933340000004134e+000	 9.996018335041669e+000
0	 8.400020000016401e+000	 3.000000000000001e+000	 9.998230703251794e+000
0	 8.400020000016401e+000	 3.066659999995868e+000	 1.000040491678952e+001
0	 8.400020000016399e+000	 3.133319999991934e+000	 1.000254392391869e+001
0	 8.400020000016399e+000	 3.199979999988401e+000	 1.000465067290320e+001
0	 8.400020000016399e+000	 3.266639999985468e+000	 1.000672811200689e+001
0	 8.400020000016397e+000	 3.333299999983333e+000	 1.000877918949365e+001
0	 8.466690000017616e+000	 2.666700000016667e+000	 9.978907664755031e+000
0	 8.466690000017616e+000	 2.733360000014533e+000	 9.981369484428200e+000
0	 8.466690000017614e+000	 2.800020000011600e+000	 9.983783844324293e+000
0	 8.466690000017616e+000	 2.866680000008066e+000	 9.986153647099251e+000
0	 8.466690000017616e+000	 2.933340000004134e+000	 9.988481795409014e+000
0	 8.466690000017616e+000	 3.000000000000000e+000	 9.990771191909580e+000
0	 8.466690000017614e+000	 3.066659999995868e+000	 9.993024739256889e+000
0	 8.466690000017616e+000	 3.133319999991934e+000	 9.995245340106891e+000
0	 8.466690000017618e+000	 3.199979999988401e+000	 9.997435897115564e+000
0	 8.466690000017616e+000	 3.266639999985468e+000	 9.999599312938869e+000
0	 8.466690000017614e+000	 3.333299999983334e+000	 1.000173849023276e+001
0	 8.533360000018131e+000	 2.666700000016666e+000	 9.971085167599750e+000
0	 8.533360000018128e+000	 2.733360000014532e+000	 9.973618486952299e+000
0	 8.533360000018131e+000	 2.800020000011600e+000	 9.976107257061909e+000
0	 8.533360000018131e+000	 2.866680000008067e+000	 9.978554229744088e+000
0	 8.533360000018131e+000	 2.933340000004133e+000	 9.980962156814254e+000
0	 8.533360000018131e+000	 3.000000000000001e+000	 9.983333790087904e+000
0	 8.533360000018131e+000	 3.066659999995867e+000	 9.985671881380469e+000
0	 8.533360000018133e+000	 3.133319999991934e+000	 9.987979182507434e+000
0	 8.533360000018130e+000	 3.199979999988400e+000	 9.990258445284271e+000
0	 8.533360000018131e+000	 3.266639999985468e+000	 9.992512421526417e+000
0	 8.533360000018131e+000	 3.333299999983334e+000	 9.994743863049365e+000
0	 8.600030000017847e+000	 2.666700000016666e+000	 9.963256507497333e+000
0	 8.600030000017849e+000	 2.733360000014533e+000	 9.965865585176713e+000
0	 8.600030000017846e+000	 2.800020000011599e+000	 9.968433466624756e+000
0	 8.600030000017849e+000	 2.866680000008066e+000	 9.970962647583823e+000
0	 8.600030000017849e+000	 2.933340000004133e+000	 9.973455623796294e+000
0	 8.600030000017847e+000	 3.000000000000000e+000	 9.975914891004514e+000
0	 8.600030000017846e+000	 3.066659999995868e+000	 9.978342944950875e+000
0	 8.600030000017847e+000	 3.133319999991934e+000	 9.980742281377749e+000
0	 8.600030000017847e+000	 3.199979999988401e+000	 9.983115396027500e+000
0	 8.600030000017847e+000	 3.266639999985468e+000	 9.985464784642495e+000
0	 8.600030000017849e+000	 3.333299999983334e+000	 9.987792942965140e+000
0	 8.666700000016668e+000	 2.666700000016667e+000	 9.955417333211074e+000
0	 8.666700000016665e+000	 2.733360000014533e+000	 9.958106536967723e+000
0	 8.666700000016668e+000	 2.800020000011600e+000	 9.960758359875969e+000
0	 8.666700000016665e+000	 2.866680000008067e+000	 9.963374936372496e+000
0	 8.666700000016665e+000	 2.933340000004133e+000	 9.965958400893999e+000
0	 8.666700000016666e+000	 3.000000000000000e+000	 9.968510887877155e+000
0	 8.666700000016665e+000	 3.066659999995868e+000	 9.971034531758660e+000
0	 8.666700000016666e+000	 3.133319999991934e+000	 9.973531466975175e+000
0	 8.666700000016666e+000	 3.199979999988401e+000	 9.976003827963416e+000
0	 8.666700000016666e+000	 3.266639999985468e+000	 9.978453749160039e+000
0	 8.666700000016668e+000	 3.333299999983334e+000	 9.980883365001750e+000
0	 7.999999999999998e+000	 3.333299999983333e+000	 1.005212333747223e+001
0	 8.000000000000000e+000	 3.399969999982150e+000	 1.005365624194910e+001
0	 8.000000000000002e+000	 3.466639999981866e+000	 1.005511565992209e+001
0	 7.999999999999998e+000	 3.533309999982382e+000	 1.005650222361090e+001
0	 8.000000000000000e+000	 3.599979999983599e+000	 1.005781656523518e+001
0	 8.000000000000000e+000	 3.666649999985415e+000	 1.005905931701462e+001
0	 8.000000000000000e+000	 3.733319999987732e+000	 1.006023111116888e+001
0	 8.000000000000002e+000	 3.799989999990449e+000	 1.006133257991763e+001
0	 7.999999999999999e+000	 3.866659999993465e+000	 1.006236435548055e+001
0	 7.999999999999999e+000	 3.933329999996682e+000	 1.006332707007729e+001
0	 8.000000000000000e+000	 4.000000000000001e+000	 1.006422135592752e+001
0	 8.066670000003313e+000	 3.333299999983333e+000	 1.004475654120167e+001
0	 8.066670000003315e+000	 3.399969999982149e+000	 1.004636252244008e+001
0	 8.066670000003317e+000	 3.466639999981866e+000	 1.004789736992331e+001
0	 8.066670000003315e+000	 3.533309999982383e+000	 1.004936171083582e+001
0	 8.066670000003315e+000	 3.599979999983598e+000	 1.005075617236207e+001
0	 8.066670000003315e+000	 3.666649999985415e+000	 1.005208138168651e+001
0	 8.066670000003319e+000	 3.733319999987733e+000	 1.005333796599361e+001
0	 8.066670000003315e+000	 3.799989999990449e+000	 1.005452655246780e+001
0	 8.066670000003315e+000	 3.866659999993464e+000	 1.005564776829358e+001
0	 8.066670000003319e+000	 3.933329999996682e+000	 1.005670224065537e+001
0	 8.066670000003320e+000	 4.000000000000001e+000	 1.005769059673764e+001
0	 8.133340000006532e+000	 3.333299999983333e+000	 1.003745000687852e+001
0	 8.133340000006532e+000	 3.399969999982149e+000	 1.003913105188815e+001
0	 8.133340000006530e+000	 3.466639999981866e+000	 1.004074302875702e+001
0	 8.133340000006530e+000	 3.533309999982381e+000	 1.004228656225703e+001
0	 8.133340000006530e+000	 3.599979999983599e+000	 1.004376227716003e+001
0	 8.133340000006534e+000	 3.666649999985415e+000	 1.004517079823785e+001
0	 8.133340000006536e+000	 3.733319999987732e+000	 1.004651275026239e+001
0	 8.133340000006532e+000	 3.799989999990448e+000	 1.004778875800547e+001
0	 8.133340000006534e+000	 3.866659999993465e+000	 1.004899944623898e+001
0	 8.133340000006532e+000	 3.933329999996681e+000	 1.005014543973477e+001
0	 8.133340000006534e+000	 4.000000000000001e+000	 1.005122736326469e+001
0	 8.200010000009550e+000	 3.333299999983333e+000	 1.003020136952447e+001
0	 8.200010000009550e+000	 3.399969999982151e+000	 1.003195977328254e+001
0	 8.200010000009552e+000	 3.466639999981867e+000	 1.003365090703433e+001
0	 8.200010000009550e+000	 3.533309999982383e+000	 1.003527539576171e+001
0	 8.200010000009549e+000	 3.599979999983599e+000	 1.003683386444654e+001
0	 8.200010000009549e+000	 3.666649999985415e+000	 1.003832693807072e+001
0	 8.200010000009552e+000	 3.733319999987732e+000	 1.003975524161610e+001
0	 8.200010000009549e+000	 3.799989999990448e+000	 1.004111940006458e+001
0	 8.200010000009550e+000	 3.866659999993465e+000	 1.004242003839804e+001
0	 8.200010000009549e+000	 3.933329999996682e+000	 1.004365778159831e+001
0	 8.200010000009549e+000	 4.000000000000001e+000	 1.004483325464731e+001
0	 8.266680000012263e+000	 3.333299999983333e+000	 1.002300826416118e+001
0	 8.266680000012265e+000	 3.399969999982151e+000	 1.002484662961253e+001
0	 8.266680000012265e+000	 3.466639999981866e+000	 1.002661927536630e+001
0	 8.266680000012267e+000	 3.533309999982382e+000	 1.002832682923698e+001
0	 8.266680000012268e+000	 3.599979999983600e+000	 1.002996991903910e+001
0	 8.266680000012267e+000	 3.666649999985415e+000	 1.003154917258715e+001
0	 8.266680000012268e+000	 3.733319999987733e+000	 1.003306521769565e+001
0	 8.266680000012265e+000	 3.799989999990447e+000	 1.003451868217909e+001
0	 8.266680000012267e+000	 3.866659999993465e+000	 1.003591019385199e+001
0	 8.266680000012265e+000	 3.933329999996681e+000	 1.003724038052884e+001
0	 8.266680000012265e+000	 4.000000000000000e+000	 1.003850987002416e+001
0	 8.333350000014585e+000	 3.333299999983335e+000	 1.001586832581035e+001
0	 8.333350000014580e+000	 3.399969999982150e+000	 1.001778956386737e+001
0	 8.333350000014583e+000	 3.466639999981866e+000	 1.001964640436401e+001
0	 8.333350000014585e+000	 3.533309999982383e+000	 1.002143948057003e+001
0	 8.333350000014582e+000	 3.599979999983599e+000	 1.002316942575519e+001
0	 8.333350000014583e+000	 3.666649999985415e+000	 1.002483687318924e+001
0	 8.333350000014583e+000	 3.733319999987732e+000	 1.002644245614189e+001
0	 8.333350000014582e+000	 3.799989999990448e+000	 1.002798680788294e+001
0	 8.333350000014583e+000	 3.866659999993465e+000	 1.002947056168213e+001
0	 8.333350000014583e+000	 3.933329999996682e+000	 1.003089435080920e+001
0	 8.333350000014583e+000	 4.000000000000000e+000	 1.003225880853389e+001
0	 8.400020000016397e+000	 3.333299999983333e+000	 1.000877918949365e+001
0	 8.400020000016399e+000	 3.399969999982150e+000	 1.001078651903632e+001
0	 8.400020000016397e+000	 3.466639999981866e+000	 1.001273056463859e+001
0	 8.400020000016399e+000	 3.533309999982381e+000	 1.001461196764803e+001
0	 8.400020000016401e+000	 3.599979999983600e+000	 1.001643136941231e+001
0	 8.400020000016397e+000	 3.666649999985414e+000	 1.001818941127899e+001
0	 8.400020000016397e+000	 3.733319999987731e+000	 1.001988673459573e+001
0	 8.400020000016399e+000	 3.799989999990449e+000	 1.002152398071009e+001
0	 8.400020000016399e+000	 3.866659999993465e+000	 1.002310179096972e+001
0	 8.400020000016399e+000	 3.933329999996682e+000	 1.002462080672220e+001
0	 8.400020000016399e+000	 4.000000000000000e+000	 1.002608166931517e+001
0	 8.466690000017614e+000	 3.333299999983334e+000	 1.000173849023276e+001
0	 8.466690000017618e+000	 3.399969999982151e+000	 1.000383543810863e+001
0	 8.466690000017614e+000	 3.466639999981866e+000	 1.000587002680105e+001
0	 8.466690000017614e+000	 3.533309999982382e+000	 1.000784290835811e+001
0	 8.466690000017612e+000	 3.599979999983598e+000	 1.000975473482790e+001
0	 8.466690000017616e+000	 3.666649999985415e+000	 1.001160615825851e+001
0	 8.466690000017616e+000	 3.733319999987732e+000	 1.001339783069800e+001
0	 8.466690000017618e+000	 3.799989999990448e+000	 1.001513040419449e+001
0	 8.466690000017614e+000	 3.866659999993465e+000	 1.001680453079604e+001
0	 8.466690000017618e+000	 3.933329999996681e+000	 1.001842086255074e+001
0	 8.466690000017618e+000	 4.000000000000001e+000	 1.001998005150666e+001
0	 8.533360000018131e+000	 3.333299999983334e+000	 9.994743863049369e+000
0	 8.533360000018131e+000	 3.399969999982150e+000	 9.996934264073559e+000
0	 8.533360000018131e+000	 3.466639999981866e+000	 9.999063061462536e+000
0	 8.533360000018133e+000	 3.533309999982382e+000	 1.000113092058746e+001
0	 8.533360000018131e+000	 3.599979999983598e+000	 1.000313850681950e+001
0	 8.533360000018131e+000	 3.666649999985416e+000	 1.000508648552984e+001
0	 8.533360000018131e+000	 3.733319999987732e+000	 1.000697552208964e+001
0	 8.533360000018130e+000	 3.799989999990447e+000	 1.000880628187009e+001
0	 8.533360000018133e+000	 3.866659999993465e+000	 1.001057943024235e+001
0	 8.533360000018133e+000	 3.933329999996682e+000	 1.001229563257757e+001
0	 8.533360000018131e+000	 4.000000000000001e+000	 1.001395555424696e+001
0	 8.600030000017849e+000	 3.333299999983334e+000	 9.987792942965140e+000
0	 8.600030000017847e+000	 3.399969999982150e+000	 9.990080939920365e+000
0	 8.600030000017847e+000	 3.466639999981866e+000	 9.992307939234108e+000
0	 8.600030000017849e+000	 3.533309999982382e+000	 9.994474622223212e+000
0	 8.600030000017847e+000	 3.599979999983599e+000	 9.996581670204559e+000
0	 8.600030000017847e+000	 3.666649999985415e+000	 9.998629764495036e+000
0	 8.600030000017849e+000	 3.733319999987732e+000	 1.000061958641150e+001
0	 8.600030000017851e+000	 3.799989999990449e+000	 1.000255181727084e+001
0	 8.600030000017847e+000	 3.866659999993465e+000	 1.000442713838992e+001
0	 8.600030000017846e+000	 3.933329999996681e+000	 1.000624623108562e+001
0	 8.600030000017849e+000	 4.000000000000001e+000	 1.000800977667480e+001
0	 8.666700000016668e+000	 3.333299999983334e+000	 9.980883365001747e+000
0	 8.666700000016666e+000	 3.399969999982150e+000	 9.983273408638322e+000
0	 8.666700000016666e+000	 3.466639999981866e+000	 9.985602930726852e+000
0	 8.666700000016666e+000	 3.533309999982382e+000	 9.987872631152538e+000
0	 8.666700000016668e+000	 3.599979999983598e+000	 9.990083209800572e+000
0	 8.666700000016666e+000	 3.666649999985415e+000	 9.992235366556153e+000
0	 8.666700000016666e+000	 3.733319999987732e+000	 9.994329801304456e+000
0	 8.666700000016668e+000	 3.799989999990449e+000	 9.996367213930684e+000
0	 8.666700000016666e+000	 3.866659999993465e+000	 9.998348304320018e+000
0	 8.666700000016665e+000	 3.933329999996682e+000	 1.000027377235765e+001
0	 8.666700000016666e+000	 4.000000000000001e+000	 1.000214431792877e+001
0	 8.000000000000000e+000	 4.000000000000001e+000	 1.006422135592752e+001
0	 7.999999999999999e+000	 4.066670000003318e+000	 1.006504460411735e+001
0	 7.999999999999999e+000	 4.133340000006533e+000	 1.006579364124317e+001
0	 8.000000000000002e+000	 4.200010000009550e+000	 1.006646825279013e+001
0	 7.999999999999999e+000	 4.266680000012267e+000	 1.006706822424338e+001
0	 8.000000000000002e+000	 4.333350000014583e+000	 1.006759334108806e+001
0	 7.999999999999999e+000	 4.400020000016400e+000	 1.006804338880928e+001
0	 8.000000000000000e+000	 4.466690000017616e+000	 1.006841815289219e+001
0	 8.000000000000000e+000	 4.533360000018132e+000	 1.006871741882191e+001
0	 8.000000000000000e+000	 4.600030000017848e+000	 1.006894097208360e+001
0	 8.000000000000000e+000	 4.666700000016666e+000	 1.006908859816236e+001
0	 8.066670000003320e+000	 4.000000000000001e+000	 1.005769059673764e+001
0	 8.066670000003319e+000	 4.066670000003319e+000	 1.005861000893398e+001
0	 8.066670000003319e+000	 4.133340000006534e+000	 1.005945701361754e+001
0	 8.066670000003315e+000	 4.200010000009549e+000	 1.006023128394214e+001
0	 8.066670000003317e+000	 4.266680000012267e+000	 1.006093249306161e+001
0	 8.066670000003317e+000	 4.333350000014584e+000	 1.006156031412977e+001
0	 8.066670000003319e+000	 4.400020000016400e+000	 1.006211442030039e+001
0	 8.066670000003313e+000	 4.466690000017616e+000	 1.006259448472733e+001
0	 8.066670000003315e+000	 4.533360000018133e+000	 1.006300018056436e+001
0	 8.066670000003319e+000	 4.600030000017848e+000	 1.006333118096530e+001
0	 8.066670000003317e+000	 4.666700000016667e+000	 1.006358715908400e+001
0	 8.133340000006534e+000	 4.000000000000001e+000	 1.005122736326469e+001
0	 8.133340000006536e+000	 4.066670000003317e+000	 1.005224225769338e+001
0	 8.133340000006536e+000	 4.133340000006535e+000	 1.005318647068746e+001
0	 8.133340000006534e+000	 4.200010000009550e+000	 1.005405958722174e+001
0	 8.133340000006534e+000	 4.266680000012268e+000	 1.005486119227100e+001
0	 8.133340000006534e+000	 4.333350000014583e+000	 1.005559087081001e+001
0	 8.133340000006532e+000	 4.400020000016400e+000	 1.005624820781358e+001
0	 8.133340000006532e+000	 4.466690000017617e+000	 1.005683278825652e+001
0	 8.133340000006532e+000	 4.533360000018132e+000	 1.005734419711357e+001
0	 8.133340000006532e+000	 4.600030000017848e+000	 1.005778201935956e+001
0	 8.133340000006534e+000	 4.666700000016668e+000	 1.005814583996924e+001
0	 8.200010000009549e+000	 4.000000000000001e+000	 1.004483325464731e+001
0	 8.200010000009549e+000	 4.066670000003316e+000	 1.004594342284027e+001
0	 8.200010000009550e+000	 4.133340000006534e+000	 1.004698451544992e+001
0	 8.200010000009552e+000	 4.200010000009550e+000	 1.004795605342432e+001
0	 8.200010000009552e+000	 4.266680000012268e+000	 1.004885755771158e+001
0	 8.200010000009547e+000	 4.333350000014582e+000	 1.004968854925975e+001
0	 8.200010000009545e+000	 4.400020000016400e+000	 1.005044854901689e+001
0	 8.200010000009550e+000	 4.466690000017616e+000	 1.005113707793107e+001
0	 8.200010000009550e+000	 4.533360000018134e+000	 1.005175365695036e+001
0	 8.200010000009549e+000	 4.600030000017850e+000	 1.005229780702284e+001
0	 8.200010000009550e+000	 4.666700000016667e+000	 1.005276904909656e+001
0	 8.266680000012265e+000	 4.000000000000000e+000	 1.003850987002416e+001
0	 8.266680000012267e+000	 4.066670000003318e+000	 1.003971557681932e+001
0	 8.266680000012270e+000	 4.133340000006534e+000	 1.004085365090182e+001
0	 8.266680000012265e+000	 4.200010000009550e+000	 1.004192357334533e+001
0	 8.266680000012268e+000	 4.266680000012268e+000	 1.004292482522350e+001
0	 8.266680000012270e+000	 4.333350000014583e+000	 1.004385688760994e+001
0	 8.266680000012267e+000	 4.400020000016402e+000	 1.004471924157834e+001
0	 8.266680000012267e+000	 4.466690000017616e+000	 1.004551136820232e+001
0	 8.266680000012265e+000	 4.533360000018133e+000	 1.004623274855557e+001
0	 8.266680000012263e+000	 4.600030000017848e+000	 1.004688286371170e+001
0	 8.266680000012267e+000	 4.666700000016667e+000	 1.004746119474436e+001
0	 8.333350000014583e+000	 4.000000000000000e+000	 1.003225880853389e+001
0	 8.333350000014580e+000	 4.066670000003317e+000	 1.003356079207526e+001
0	 8.333350000014583e+000	 4.133340000006533e+000	 1.003479638004016e+001
0	 8.333350000014582e+000	 4.200010000009550e+000	 1.003596503778014e+001
0	 8.333350000014585e+000	 4.266680000012267e+000	 1.003706623064675e+001
0	 8.333350000014583e+000	 4.333350000014584e+000	 1.003809942399151e+001
0	 8.333350000014582e+000	 4.400020000016399e+000	 1.003906408316595e+001
0	 8.333350000014582e+000	 4.466690000017613e+000	 1.003995967352160e+001
0	 8.333350000014583e+000	 4.533360000018133e+000	 1.004078566040999e+001
0	 8.333350000014583e+000	 4.600030000017849e+000	 1.004154150918263e+001
0	 8.333350000014585e+000	 4.666700000016667e+000	 1.004222668519106e+001
0	 8.400020000016399e+000	 4.000000000000000e+000	 1.002608166931517e+001
0	 8.400020000016399e+000	 4.066670000003316e+000	 1.002748114105274e+001
0	 8.400020000016399e+000	 4.133340000006534e+000	 1.002881520586186e+001
0	 8.400020000016399e+000	 4.200010000009549e+000	 1.003008333752419e+001
0	 8.400020000016399e+000	 4.266680000012268e+000	 1.003128500982147e+001
0	 8.400020000016401e+000	 4.333350000014584e+000	 1.003241969653543e+001
0	 8.400020000016403e+000	 4.400020000016402e+000	 1.003348687144776e+001
0	 8.400020000016403e+000	 4.466690000017616e+000	 1.003448600834019e+001
0	 8.400020000016399e+000	 4.533360000018132e+000	 1.003541658099440e+001
0	 8.400020000016401e+000	 4.600030000017850e+000	 1.003627806319216e+001
0	 8.400020000016399e+000	 4.666700000016666e+000	 1.003706992871511e+001
0	 8.466690000017618e+000	 4.000000000000001e+000	 1.001998005150666e+001
0	 8.466690000017614e+000	 4.066670000003316e+000	 1.002147869619653e+001
0	 8.466690000017614e+000	 4.133340000006532e+000	 1.002291263136387e+001
0	 8.466690000017614e+000	 4.200010000009550e+000	 1.002428136337288e+001
0	 8.466690000017618e+000	 4.266680000012266e+000	 1.002558439858773e+001
0	 8.466690000017616e+000	 4.333350000014583e+000	 1.002682124337264e+001
0	 8.466690000017614e+000	 4.400020000016398e+000	 1.002799140409181e+001
0	 8.466690000017616e+000	 4.466690000017615e+000	 1.002909438710942e+001
0	 8.466690000017612e+000	 4.533360000018131e+000	 1.003012969878968e+001
0	 8.466690000017614e+000	 4.600030000017847e+000	 1.003109684549679e+001
0	 8.466690000017614e+000	 4.666700000016665e+000	 1.003199533359492e+001
0	 8.533360000018131e+000	 4.000000000000001e+000	 1.001395555424696e+001
0	 8.533360000018133e+000	 4.066670000003319e+000	 1.001555552995129e+001
0	 8.533360000018131e+000	 4.133340000006534e+000	 1.001709115954315e+001
0	 8.533360000018133e+000	 4.200010000009550e+000	 1.001856200612160e+001
0	 8.533360000018131e+000	 4.266680000012267e+000	 1.001996763278558e+001
0	 8.533360000018133e+000	 4.333350000014582e+000	 1.002130760263408e+001
0	 8.533360000018133e+000	 4.400020000016401e+000	 1.002258147876612e+001
0	 8.533360000018131e+000	 4.466690000017617e+000	 1.002378882428062e+001
0	 8.533360000018131e+000	 4.533360000018132e+000	 1.002492920227661e+001
0	 8.533360000018131e+000	 4.600030000017849e+000	 1.002600217585304e+001
0	 8.533360000018133e+000	 4.666700000016667e+000	 1.002700730810891e+001
0	 8.600030000017849e+000	 4.000000000000001e+000	 1.000800977667480e+001
0	 8.600030000017849e+000	 4.066670000003318e+000	 1.000971371476169e+001
0	 8.600030000017847e+000	 4.133340000006535e+000	 1.001135329339665e+001
0	 8.600030000017847e+000	 4.200010000009550e+000	 1.001292815656577e+001
0	 8.600030000017847e+000	 4.266680000012267e+000	 1.001443794825509e+001
0	 8.600030000017849e+000	 4.333350000014583e+000	 1.001588231245072e+001
0	 8.600030000017849e+000	 4.400020000016400e+000	 1.001726089313870e+001
0	 8.600030000017847e+000	 4.466690000017616e+000	 1.001857333430510e+001
0	 8.600030000017847e+000	 4.533360000018132e+000	 1.001981927993599e+001
0	 8.600030000017851e+000	 4.600030000017850e+000	 1.002099837401743e+001
0	 8.600030000017847e+000	 4.666700000016666e+000	 1.002211026053551e+001
0	 8.666700000016666e+000	 4.000000000000001e+000	 1.000214431792877e+001
0	 8.666700000016666e+000	 4.066670000003317e+000	 1.000395532307246e+001
0	 8.666700000016666e+000	 4.133340000006533e+000	 1.000570153592132e+001
0	 8.666700000016666e+000	 4.200010000009550e+000	 1.000738270550081e+001
0	 8.666700000016666e+000	 4.266680000012265e+000	 1.000899858083639e+001
0	 8.666700000016668e+000	 4.333350000014584e+000	 1.001054891095349e+001
0	 8.666700000016665e+000	 4.400020000016401e+000	 1.001203344487761e+001
0	 8.666700000016666e+000	 4.466690000017616e+000	 1.001345193163417e+001
0	 8.666700000016665e+000	 4.533360000018131e+000	 1.001480412024865e+001
0	 8.666700000016668e+000	 4.600030000017850e+000	 1.001608975974648e+001
0	 8.666700000016668e+000	 4.666700000016666e+000	 1.001730859915314e+001
0	 8.000000000000000e+000	 4.666700000016666e+000	 1.006908859816236e+001
0	 8.000000000000000e+000	 4.733360000014532e+000	 1.006917100882350e+001
0	 8.000000000000000e+000	 4.800020000011600e+000	 1.006919804694413e+001
0	 8.000000000000002e+000	 4.866680000008067e+000	 1.006916814536367e+001
0	 8.000000000000000e+000	 4.933340000004133e+000	 1.006907973692149e+001
0	 8.000000000000002e+000	 5.000000000000001e+000	 1.006893125445703e+001
0	 8.000000000000000e+000	 5.066659999995868e+000	 1.006872113080969e+001
0	 8.000000000000000e+000	 5.133319999991932e+000	 1.006844779881886e+001
0	 8.000000000000002e+000	 5.199979999988399e+000	 1.006810969132397e+001
0	 7.999999999999999e+000	 5.266639999985465e+000	 1.006770524116443e+001
0	 7.999999999999998e+000	 5.333299999983333e+000	 1.006723288117966e+001
0	 8.066670000003317e+000	 4.666700000016667e+000	 1.006358715908400e+001
0	 8.066670000003319e+000	 4.733360000014533e+000	 1.006377779207758e+001
0	 8.066670000003313e+000	 4.800020000011598e+000	 1.006391213270788e+001
0	 8.066670000003320e+000	 4.866680000008067e+000	 1.006398881927930e+001
0	 8.066670000003319e+000	 4.933340000004134e+000	 1.006400649009630e+001
0	 8.066670000003319e+000	 5.000000000000001e+000	 1.006396378346333e+001
0	 8.066670000003319e+000	 5.066659999995869e+000	 1.006385933768483e+001
0	 8.066670000003319e+000	 5.133319999991933e+000	 1.006369179106529e+001
0	 8.066670000003319e+000	 5.199979999988400e+000	 1.006345978190914e+001
0	 8.066670000003320e+000	 5.266639999985467e+000	 1.006316194852083e+001
0	 8.066670000003315e+000	 5.333299999983334e+000	 1.006279692920483e+001
0	 8.133340000006534e+000	 4.666700000016668e+000	 1.005814583996925e+001
0	 8.133340000006534e+000	 4.733360000014533e+000	 1.005844425402055e+001
0	 8.133340000006532e+000	 4.800020000011599e+000	 1.005868544629443e+001
0	 8.133340000006536e+000	 4.866680000008066e+000	 1.005886823932089e+001
0	 8.133340000006530e+000	 4.933340000004133e+000	 1.005899145562995e+001
0	 8.133340000006536e+000	 5.000000000000003e+000	 1.005905391775166e+001
0	 8.133340000006532e+000	 5.066659999995866e+000	 1.005905444821602e+001
0	 8.133340000006536e+000	 5.133319999991934e+000	 1.005899186955306e+001
0	 8.133340000006532e+000	 5.199979999988400e+000	 1.005886500429284e+001
0	 8.133340000006534e+000	 5.266639999985466e+000	 1.005867267496534e+001
0	 8.133340000006532e+000	 5.333299999983333e+000	 1.005841370410065e+001
0	 8.200010000009550e+000	 4.666700000016667e+000	 1.005276904909656e+001
0	 8.200010000009552e+000	 4.733360000014534e+000	 1.005317487091459e+001
0	 8.200010000009554e+000	 4.800020000011601e+000	 1.005352253364742e+001
0	 8.200010000009552e+000	 4.866680000008066e+000	 1.005381102281111e+001
0	 8.200010000009549e+000	 4.933340000004132e+000	 1.005403932392186e+001
0	 8.200010000009550e+000	 5.000000000000002e+000	 1.005420642249575e+001
0	 8.200010000009549e+000	 5.066659999995865e+000	 1.005431130404894e+001
0	 8.200010000009552e+000	 5.133319999991935e+000	 1.005435295409756e+001
0	 8.200010000009552e+000	 5.199979999988400e+000	 1.005433035815771e+001
0	 8.200010000009550e+000	 5.266639999985466e+000	 1.005424250174560e+001
0	 8.200010000009550e+000	 5.333299999983334e+000	 1.005408837037729e+001
0	 8.266680000012267e+000	 4.666700000016667e+000	 1.004746119474437e+001
0	 8.266680000012268e+000	 4.733360000014533e+000	 1.004797411902190e+001
0	 8.266680000012267e+000	 4.800020000011600e+000	 1.004842794071041e+001
0	 8.266680000012263e+000	 4.866680000008065e+000	 1.004882178707264e+001
0	 8.266680000012267e+000	 4.933340000004134e+000	 1.004915478537135e+001
0	 8.266680000012267e+000	 5.000000000000001e+000	 1.004942606286934e+001
0	 8.266680000012265e+000	 5.066659999995866e+000	 1.004963474682934e+001
0	 8.266680000012267e+000	 5.133319999991934e+000	 1.004977996451412e+001
0	 8.266680000012265e+000	 5.199979999988399e+000	 1.004986084318648e+001
0	 8.266680000012267e+000	 5.266639999985466e+000	 1.004987651010918e+001
0	 8.266680000012263e+000	 5.333299999983334e+000	 1.004982609254497e+001
0	 8.333350000014585e+000	 4.666700000016667e+000	 1.004222668519107e+001
0	 8.333350000014583e+000	 4.733360000014534e+000	 1.004284647460467e+001
0	 8.333350000014580e+000	 4.800020000011601e+000	 1.004340621342703e+001
0	 8.333350000014578e+000	 4.866680000008065e+000	 1.004390514942811e+001
0	 8.333350000014580e+000	 4.933340000004134e+000	 1.004434253037783e+001
0	 8.333350000014582e+000	 5.000000000000000e+000	 1.004471760404612e+001
0	 8.333350000014582e+000	 5.066659999995868e+000	 1.004502961820293e+001
0	 8.333350000014583e+000	 5.133319999991934e+000	 1.004527782061815e+001
0	 8.333350000014582e+000	 5.199979999988400e+000	 1.004546145906177e+001
0	 8.333350000014585e+000	 5.266639999985466e+000	 1.004557978130370e+001
0	 8.333350000014585e+000	 5.333299999983336e+000	 1.004563203511386e+001
0	 8.400020000016399e+000	 4.666700000016666e+000	 1.003706992871511e+001
0	 8.400020000016401e+000	 4.733360000014534e+000	 1.003779641392505e+001
0	 8.400020000016399e+000	 4.800020000011601e+000	 1.003846189774088e+001
0	 8.400020000016397e+000	 4.866680000008065e+000	 1.003906572720020e+001
0	 8.400020000016403e+000	 4.933340000004134e+000	 1.003960724934065e+001
0	 8.400020000016399e+000	 5.000000000000000e+000	 1.004008581119985e+001
0	 8.400020000016404e+000	 5.066659999995868e+000	 1.004050075981544e+001
0	 8.400020000016401e+000	 5.133319999991932e+000	 1.004085144222502e+001
0	 8.400020000016401e+000	 5.199979999988400e+000	 1.004113720546625e+001
0	 8.400020000016399e+000	 5.266639999985465e+000	 1.004135739657676e+001
0	 8.400020000016399e+000	 5.333299999983333e+000	 1.004151136259417e+001
0	 8.466690000017614e+000	 4.666700000016665e+000	 1.003199533359492e+001
0	 8.466690000017618e+000	 4.733360000014533e+000	 1.003282841324530e+001
0	 8.466690000017616e+000	 4.800020000011601e+000	 1.003359953959557e+001
0	 8.466690000017618e+000	 4.866680000008068e+000	 1.003430813771158e+001
0	 8.466690000017614e+000	 4.933340000004134e+000	 1.003495363265918e+001
0	 8.466690000017616e+000	 5.000000000000000e+000	 1.003553544950423e+001
0	 8.466690000017616e+000	 5.066659999995867e+000	 1.003605301331257e+001
0	 8.466690000017616e+000	 5.133319999991933e+000	 1.003650574915007e+001
0	 8.466690000017616e+000	 5.199979999988399e+000	 1.003689308208257e+001
0	 8.466690000017618e+000	 5.266639999985466e+000	 1.003721443717595e+001
0	 8.466690000017616e+000	 5.333299999983333e+000	 1.003746923949605e+001
0	 8.533360000018133e+000	 4.666700000016667e+000	 1.002700730810891e+001
0	 8.533360000018130e+000	 4.733360000014534e+000	 1.002794694882756e+001
0	 8.533360000018133e+000	 4.800020000011600e+000	 1.002882368493469e+001
0	 8.533360000018133e+000	 4.866680000008067e+000	 1.002963699828491e+001
0	 8.533360000018133e+000	 4.933340000004134e+000	 1.003038637073280e+001
0	 8.533360000018130e+000	 4.999999999999999e+000	 1.003107128413298e+001
0	 8.533360000018131e+000	 5.066659999995865e+000	 1.003169122034008e+001
0	 8.533360000018133e+000	 5.133319999991934e+000	 1.003224566120868e+001
0	 8.533360000018131e+000	 5.199979999988399e+000	 1.003273408859342e+001
0	 8.533360000018133e+000	 5.266639999985467e+000	 1.003315598434890e+001
0	 8.533360000018130e+000	 5.333299999983333e+000	 1.003351083032974e+001
0	 8.600030000017847e+000	 4.666700000016666e+000	 1.002211026053551e+001
0	 8.600030000017849e+000	 4.733360000014533e+000	 1.002315649693406e+001
0	 8.600030000017849e+000	 4.800020000011601e+000	 1.002413887970186e+001
0	 8.600030000017847e+000	 4.866680000008066e+000	 1.002505692624284e+001
0	 8.600030000017849e+000	 4.933340000004136e+000	 1.002591015396086e+001
0	 8.600030000017847e+000	 5.000000000000000e+000	 1.002669808025985e+001
0	 8.600030000017847e+000	 5.066659999995866e+000	 1.002742022254366e+001
0	 8.600030000017849e+000	 5.133319999991935e+000	 1.002807609821623e+001
0	 8.600030000017849e+000	 5.199979999988400e+000	 1.002866522468144e+001
0	 8.600030000017847e+000	 5.266639999985466e+000	 1.002918711934319e+001
0	 8.600030000017849e+000	 5.333299999983334e+000	 1.002964129960540e+001
0	 8.666700000016668e+000	 4.666700000016666e+000	 1.001730859915314e+001
0	 8.666700000016666e+000	 4.733360000014534e+000	 1.001846153382694e+001
0	 8.666700000016666e+000	 4.800020000011600e+000	 1.001954966984068e+001
0	 8.666700000016665e+000	 4.866680000008066e+000	 1.002057253890804e+001
0	 8.666700000016663e+000	 4.933340000004132e+000	 1.002152967274276e+001
0	 8.666700000016666e+000	 5.000000000000000e+000	 1.002242060305851e+001
0	 8.666700000016666e+000	 5.066659999995866e+000	 1.002324486156906e+001
0	 8.666700000016666e+000	 5.133319999991932e+000	 1.002400197998807e+001
0	 8.666700000016666e+000	 5.199979999988400e+000	 1.002469149002928e+001
0	 8.666700000016665e+000	 5.266639999985465e+000	 1.002531292340644e+001
0	 8.666700000016668e+000	 5.333299999983334e+000	 1.002586581183321e+001
0	 7.999999999999998e+000	 5.333299999983333e+000	 1.006723288117966e+001
0	 8.000000000000000e+000	 5.399969999982149e+000	 1.006670631958929e+001
0	 8.000000000000002e+000	 5.466639999981867e+000	 1.006613948134067e+001
0	 8.000000000000000e+000	 5.533309999982383e+000	 1.006553089626523e+001
0	 7.999999999999999e+000	 5.599979999983598e+000	 1.006487909419438e+001
0	 7.999999999999998e+000	 5.666649999985415e+000	 1.006418260495954e+001
0	 8.000000000000000e+000	 5.733319999987731e+000	 1.006343995839215e+001
0	 8.000000000000000e+000	 5.799989999990446e+000	 1.006264968432361e+001
0	 7.999999999999998e+000	 5.866659999993464e+000	 1.006181031258532e+001
0	 8.000000000000000e+000	 5.933329999996680e+000	 1.006092037300871e+001
0	 7.999999999999999e+000	 6.000000000000000e+000	 1.005997839542522e+001
0	 8.066670000003315e+000	 5.333299999983334e+000	 1.006279692920483e+001
0	 8.066670000003315e+000	 5.399969999982148e+000	 1.006237766122418e+001
0	 8.066670000003319e+000	 5.466639999981866e+000	 1.006191715379448e+001
0	 8.066670000003315e+000	 5.533309999982384e+000	 1.006141397355131e+001
0	 8.066670000003315e+000	 5.599979999983598e+000	 1.006086668713023e+001
0	 8.066670000003317e+000	 5.666649999985413e+000	 1.006027386116685e+001
0	 8.066670000003319e+000	 5.733319999987732e+000	 1.005963406229675e+001
0	 8.066670000003317e+000	 5.799989999990449e+000	 1.005894585715550e+001
0	 8.066670000003317e+000	 5.866659999993465e+000	 1.005820781237869e+001
0	 8.066670000003319e+000	 5.933329999996682e+000	 1.005741849460189e+001
0	 8.066670000003319e+000	 6.000000000000000e+000	 1.005657647046067e+001
0	 8.133340000006532e+000	 5.333299999983333e+000	 1.005841370410065e+001
0	 8.133340000006532e+000	 5.399969999982149e+000	 1.005810032845981e+001
0	 8.133340000006530e+000	 5.466639999981864e+000	 1.005774472924256e+001
0	 8.133340000006530e+000	 5.533309999982381e+000	 1.005734551391584e+001
0	 8.133340000006532e+000	 5.599979999983598e+000	 1.005690128994661e+001
0	 8.133340000006534e+000	 5.666649999985417e+000	 1.005641066480182e+001
0	 8.133340000006536e+000	 5.733319999987731e+000	 1.005587224594844e+001
0	 8.133340000006532e+000	 5.799989999990446e+000	 1.005528464085341e+001
0	 8.133340000006532e+000	 5.866659999993463e+000	 1.005464645698369e+001
0	 8.133340000006534e+000	 5.933329999996681e+000	 1.005395630180627e+001
0	 8.133340000006534e+000	 6.000000000000000e+000	 1.005321278278804e+001
0	 8.200010000009550e+000	 5.333299999983334e+000	 1.005408837037729e+001
0	 8.200010000009547e+000	 5.399969999982152e+000	 1.005387956302990e+001
0	 8.200010000009552e+000	 5.466639999981866e+000	 1.005362751284110e+001
0	 8.200010000009550e+000	 5.533309999982381e+000	 1.005333087213649e+001
0	 8.200010000009547e+000	 5.599979999983598e+000	 1.005298829324156e+001
0	 8.200010000009550e+000	 5.666649999985416e+000	 1.005259842848188e+001
0	 8.200010000009552e+000	 5.733319999987733e+000	 1.005215993018299e+001
0	 8.200010000009550e+000	 5.799989999990448e+000	 1.005167145067044e+001
0	 8.200010000009549e+000	 5.866659999993463e+000	 1.005113164226974e+001
0	 8.200010000009549e+000	 5.933329999996681e+000	 1.005053915730649e+001
0	 8.200010000009550e+000	 6.000000000000000e+000	 1.004989264810617e+001
0	 8.266680000012263e+000	 5.333299999983334e+000	 1.004982609254497e+001
0	 8.266680000012265e+000	 5.399969999982150e+000	 1.004972060666811e+001
0	 8.266680000012265e+000	 5.466639999981866e+000	 1.004957080974631e+001
0	 8.266680000012268e+000	 5.533309999982382e+000	 1.004937540299086e+001
0	 8.266680000012268e+000	 5.599979999983598e+000	 1.004913308761313e+001
0	 8.266680000012265e+000	 5.666649999985415e+000	 1.004884256482447e+001
0	 8.266680000012267e+000	 5.733319999987732e+000	 1.004850253583620e+001
0	 8.266680000012267e+000	 5.799989999990447e+000	 1.004811170185966e+001
0	 8.266680000012267e+000	 5.866659999993463e+000	 1.004766876410622e+001
0	 8.266680000012265e+000	 5.933329999996681e+000	 1.004717242378720e+001
0	 8.266680000012267e+000	 6.000000000000000e+000	 1.004662138211395e+001
0	 8.333350000014585e+000	 5.333299999983336e+000	 1.004563203511386e+001
0	 8.333350000014580e+000	 5.399969999982148e+000	 1.004562870110821e+001
0	 8.333350000014583e+000	 5.466639999981867e+000	 1.004557992511433e+001
0	 8.333350000014583e+000	 5.533309999982382e+000	 1.004548446125661e+001
0	 8.333350000014583e+000	 5.599979999983599e+000	 1.004534106365937e+001
0	 8.333350000014583e+000	 5.666649999985414e+000	 1.004514848644701e+001
0	 8.333350000014580e+000	 5.733319999987733e+000	 1.004490548374383e+001
0	 8.333350000014582e+000	 5.799989999990449e+000	 1.004461080967421e+001
0	 8.333350000014582e+000	 5.866659999993463e+000	 1.004426321836250e+001
0	 8.333350000014583e+000	 5.933329999996682e+000	 1.004386146393304e+001
0	 8.333350000014582e+000	 6.000000000000001e+000	 1.004340430051019e+001
0	 8.400020000016399e+000	 5.333299999983333e+000	 1.004151136259417e+001
0	 8.400020000016399e+000	 5.399969999982149e+000	 1.004160908808384e+001
0	 8.400020000016399e+000	 5.466639999981867e+000	 1.004166016410138e+001
0	 8.400020000016401e+000	 5.533309999982384e+000	 1.004166340171135e+001
0	 8.400020000016401e+000	 5.599979999983598e+000	 1.004161761197835e+001
0	 8.400020000016399e+000	 5.666649999985413e+000	 1.004152160596692e+001
0	 8.400020000016399e+000	 5.733319999987730e+000	 1.004137419474166e+001
0	 8.400020000016399e+000	 5.799989999990447e+000	 1.004117418936714e+001
0	 8.400020000016399e+000	 5.866659999993465e+000	 1.004092040090795e+001
0	 8.400020000016401e+000	 5.933329999996682e+000	 1.004061164042861e+001
0	 8.400020000016399e+000	 6.000000000000000e+000	 1.004024671899374e+001
0	 8.466690000017616e+000	 5.333299999983333e+000	 1.003746923949606e+001
0	 8.466690000017614e+000	 5.399969999982151e+000	 1.003766700932872e+001
0	 8.466690000017614e+000	 5.466639999981866e+000	 1.003781683186361e+001
0	 8.466690000017616e+000	 5.533309999982383e+000	 1.003791757913272e+001
0	 8.466690000017616e+000	 5.599979999983599e+000	 1.003796812316806e+001
0	 8.466690000017616e+000	 5.666649999985416e+000	 1.003796733600164e+001
0	 8.466690000017614e+000	 5.733319999987730e+000	 1.003791408966548e+001
0	 8.466690000017614e+000	 5.799989999990447e+000	 1.003780725619158e+001
0	 8.466690000017616e+000	 5.866659999993464e+000	 1.003764570761196e+001
0	 8.466690000017618e+000	 5.933329999996682e+000	 1.003742831595859e+001
0	 8.466690000017618e+000	 6.000000000000000e+000	 1.003715395326349e+001
0	 8.533360000018130e+000	 5.333299999983333e+000	 1.003351083032974e+001
0	 8.533360000018131e+000	 5.399969999982149e+000	 1.003380770657656e+001
0	 8.533360000018133e+000	 5.466639999981867e+000	 1.003405523355722e+001
0	 8.533360000018135e+000	 5.533309999982383e+000	 1.003425234829833e+001
0	 8.533360000018131e+000	 5.599979999983598e+000	 1.003439798782658e+001
0	 8.533360000018131e+000	 5.666649999985416e+000	 1.003449108916860e+001
0	 8.533360000018130e+000	 5.733319999987733e+000	 1.003453058935107e+001
0	 8.533360000018133e+000	 5.799989999990449e+000	 1.003451542540061e+001
0	 8.533360000018133e+000	 5.866659999993466e+000	 1.003444453434390e+001
0	 8.533360000018133e+000	 5.933329999996682e+000	 1.003431685320758e+001
0	 8.533360000018131e+000	 6.000000000000001e+000	 1.003413131901828e+001
0	 8.600030000017849e+000	 5.333299999983334e+000	 1.002964129960540e+001
0	 8.600030000017847e+000	 5.399969999982151e+000	 1.003003642156107e+001
0	 8.600030000017849e+000	 5.466639999981866e+000	 1.003038067433838e+001
0	 8.600030000017849e+000	 5.533309999982381e+000	 1.003067306398583e+001
0	 8.600030000017847e+000	 5.599979999983598e+000	 1.003091259655195e+001
0	 8.600030000017847e+000	 5.666649999985415e+000	 1.003109827808523e+001
0	 8.600030000017849e+000	 5.733319999987732e+000	 1.003122911463418e+001
0	 8.600030000017849e+000	 5.799989999990449e+000	 1.003130411224733e+001
0	 8.600030000017847e+000	 5.866659999993465e+000	 1.003132227697316e+001
0	 8.600030000017846e+000	 5.933329999996681e+000	 1.003128261486022e+001
0	 8.600030000017847e+000	 6.000000000000000e+000	 1.003118413195696e+001
0	 8.666700000016668e+000	 5.333299999983334e+000	 1.002586581183321e+001
0	 8.666700000016666e+000	 5.399969999982151e+000	 1.002635839601593e+001
0	 8.666700000016668e+000	 5.466639999981866e+000	 1.002679845936328e+001
0	 8.666700000016665e+000	 5.533309999982382e+000	 1.002718508097285e+001
0	 8.666700000016668e+000	 5.599979999983599e+000	 1.002751733994221e+001
0	 8.666700000016666e+000	 5.666649999985413e+000	 1.002779431536893e+001
0	 8.666700000016666e+000	 5.733319999987732e+000	 1.002801508635060e+001
0	 8.666700000016668e+000	 5.799989999990448e+000	 1.002817873198482e+001
0	 8.666700000016666e+000	 5.866659999993464e+000	 1.002828433136912e+001
0	 8.666700000016666e+000	 5.933329999996681e+000	 1.002833096360113e+001
0	 8.666700000016665e+000	 5.999999999999999e+000	 1.002831770777839e+001
0	 7.999999999999999e+000	 6.000000000000000e+000	 1.005997839542522e+001
0	 8.000000000000002e+000	 6.066670000003317e+000	 1.005899965145672e+001
0	 8.000000000000002e+000	 6.133340000006534e+000	 1.005799930146380e+001
0	 8.000000000000000e+000	 6.200010000009550e+000	 1.005697570838576e+001
0	 8.000000000000000e+000	 6.266680000012268e+000	 1.005592723516197e+001
0	 8.000000000000000e+000	 6.333350000014583e+000	 1.005485224473174e+001
0	 7.999999999999999e+000	 6.400020000016398e+000	 1.005374910003443e+001
0	 8.000000000000000e+000	 6.466690000017616e+000	 1.005261616400937e+001
0	 7.999999999999997e+000	 6.533360000018131e+000	 1.005145179959590e+001
0	 8.000000000000000e+000	 6.600030000017847e+000	 1.005025436973336e+001
0	 8.000000000000000e+000	 6.666700000016666e+000	 1.004902223736106e+001
0	 8.066670000003319e+000	 6.000000000000000e+000	 1.005657647046067e+001
0	 8.066670000003317e+000	 6.066670000003317e+000	 1.005569656048027e+001
0	 8.066670000003317e+000	 6.133340000006535e+000	 1.005479350131668e+001
0	 8.066670000003317e+000	 6.200010000009549e+000	 1.005386573380164e+001
0	 8.066670000003319e+000	 6.266680000012268e+000	 1.005291169876691e+001
0	 8.066670000003317e+000	 6.333350000014582e+000	 1.005192983704426e+001
0	 8.066670000003319e+000	 6.400020000016400e+000	 1.005091858946544e+001
0	 8.066670000003317e+000	 6.466690000017616e+000	 1.004987639686217e+001
0	 8.066670000003315e+000	 6.533360000018130e+000	 1.004880170006623e+001
0	 8.066670000003315e+000	 6.600030000017847e+000	 1.004769293990936e+001
0	 8.066670000003317e+000	 6.666700000016667e+000	 1.004654855722333e+001
0	 8.133340000006534e+000	 6.000000000000000e+000	 1.005321278278804e+001
0	 8.133340000006532e+000	 6.066670000003316e+000	 1.005243028218924e+001
0	 8.133340000006534e+000	 6.133340000006532e+000	 1.005162312113130e+001
0	 8.133340000006534e+000	 6.200010000009550e+000	 1.005078981537304e+001
0	 8.133340000006534e+000	 6.266680000012265e+000	 1.004992888067334e+001
0	 8.133340000006534e+000	 6.333350000014584e+000	 1.004903883279104e+001
0	 8.133340000006532e+000	 6.400020000016400e+000	 1.004811818748495e+001
0	 8.133340000006532e+000	 6.466690000017615e+000	 1.004716546051396e+001
0	 8.133340000006532e+000	 6.533360000018132e+000	 1.004617916763687e+001
0	 8.133340000006534e+000	 6.600030000017847e+000	 1.004515782461256e+001
0	 8.133340000006532e+000	 6.666700000016665e+000	 1.004409994719986e+001
0	 8.200010000009550e+000	 6.000000000000000e+000	 1.004989264810617e+001
0	 8.200010000009550e+000	 6.066670000003317e+000	 1.004920607417235e+001
0	 8.200010000009550e+000	 6.133340000006533e+000	 1.004849335193852e+001
0	 8.200010000009550e+000	 6.200010000009550e+000	 1.004775306912536e+001
0	 8.200010000009554e+000	 6.266680000012268e+000	 1.004698381345343e+001
0	 8.200010000009547e+000	 6.333350000014582e+000	 1.004618417264338e+001
0	 8.200010000009547e+000	 6.400020000016401e+000	 1.004535273441577e+001
0	 8.200010000009552e+000	 6.466690000017618e+000	 1.004448808649130e+001
0	 8.200010000009552e+000	 6.533360000018132e+000	 1.004358881659049e+001
0	 8.200010000009549e+000	 6.600030000017850e+000	 1.004265351243399e+001
0	 8.200010000009550e+000	 6.666700000016666e+000	 1.004168076174241e+001
0	 8.266680000012267e+000	 6.000000000000000e+000	 1.004662138211395e+001
0	 8.266680000012267e+000	 6.066670000003319e+000	 1.004602919401831e+001
0	 8.266680000012267e+000	 6.133340000006534e+000	 1.004540938476930e+001
0	 8.266680000012267e+000	 6.200010000009550e+000	 1.004476061108399e+001
0	 8.266680000012267e+000	 6.266680000012267e+000	 1.004408152967942e+001
0	 8.266680000012268e+000	 6.333350000014583e+000	 1.004337079727267e+001
0	 8.266680000012265e+000	 6.400020000016399e+000	 1.004262707058076e+001
0	 8.266680000012268e+000	 6.466690000017617e+000	 1.004184900632074e+001
0	 8.266680000012267e+000	 6.533360000018133e+000	 1.004103526120970e+001
0	 8.266680000012267e+000	 6.600030000017849e+000	 1.004018449196468e+001
0	 8.266680000012265e+000	 6.666700000016667e+000	 1.003929535530271e+001
0	 8.333350000014582e+000	 6.000000000000001e+000	 1.004340430051019e+001
0	 8.333350000014583e+000	 6.066670000003316e+000	 1.004290489931585e+001
0	 8.333350000014583e+000	 6.133340000006533e+000	 1.004237641065450e+001
0	 8.333350000014582e+000	 6.200010000009549e+000	 1.004181755727434e+001
0	 8.333350000014585e+000	 6.266680000012268e+000	 1.004122706192350e+001
0	 8.333350000014583e+000	 6.333350000014582e+000	 1.004060364735021e+001
0	 8.333350000014582e+000	 6.400020000016400e+000	 1.003994603630259e+001
0	 8.333350000014585e+000	 6.466690000017616e+000	 1.003925295152884e+001
0	 8.333350000014583e+000	 6.533360000018130e+000	 1.003852311577714e+001
0	 8.333350000014582e+000	 6.600030000017847e+000	 1.003775525179565e+001
0	 8.333350000014585e+000	 6.666700000016668e+000	 1.003694808233255e+001
0	 8.400020000016399e+000	 6.000000000000000e+000	 1.004024671899374e+001
0	 8.400020000016399e+000	 6.066670000003318e+000	 1.003983844765368e+001
0	 8.400020000016399e+000	 6.133340000006533e+000	 1.003939962062504e+001
0	 8.400020000016397e+000	 6.200010000009550e+000	 1.003892902372179e+001
0	 8.400020000016401e+000	 6.266680000012268e+000	 1.003842544275791e+001
0	 8.400020000016401e+000	 6.333350000014582e+000	 1.003788766354737e+001
0	 8.400020000016399e+000	 6.400020000016399e+000	 1.003731447190413e+001
0	 8.400020000016403e+000	 6.466690000017616e+000	 1.003670465364218e+001
0	 8.400020000016399e+000	 6.533360000018133e+000	 1.003605699457547e+001
0	 8.400020000016397e+000	 6.600030000017847e+000	 1.003537028051795e+001
0	 8.400020000016399e+000	 6.666700000016667e+000	 1.003464329728363e+001
0	 8.466690000017618e+000	 6.000000000000000e+000	 1.003715395326349e+001
0	 8.466690000017614e+000	 6.066670000003316e+000	 1.003683509662052e+001
0	 8.466690000017616e+000	 6.133340000006535e+000	 1.003648420571177e+001
0	 8.466690000017618e+000	 6.200010000009550e+000	 1.003610012645173e+001
0	 8.466690000017618e+000	 6.266680000012266e+000	 1.003568170475482e+001
0	 8.466690000017620e+000	 6.333350000014584e+000	 1.003522778653546e+001
0	 8.466690000017618e+000	 6.400020000016401e+000	 1.003473721770815e+001
0	 8.466690000017618e+000	 6.466690000017616e+000	 1.003420884418726e+001
0	 8.466690000017614e+000	 6.533360000018130e+000	 1.003364151188726e+001
0	 8.466690000017616e+000	 6.600030000017848e+000	 1.003303406672263e+001
0	 8.466690000017612e+000	 6.666700000016664e+000	 1.003238535460775e+001
0	 8.533360000018131e+000	 6.000000000000001e+000	 1.003413131901828e+001
0	 8.533360000018130e+000	 6.066670000003316e+000	 1.003390010380508e+001
0	 8.533360000018133e+000	 6.133340000006534e+000	 1.003363535694565e+001
0	 8.533360000018133e+000	 6.200010000009550e+000	 1.003333598148959e+001
0	 8.533360000018131e+000	 6.266680000012268e+000	 1.003300088048645e+001
0	 8.533360000018133e+000	 6.333350000014583e+000	 1.003262895698587e+001
0	 8.533360000018133e+000	 6.400020000016400e+000	 1.003221911403741e+001
0	 8.533360000018131e+000	 6.466690000017615e+000	 1.003177025469068e+001
0	 8.533360000018131e+000	 6.533360000018131e+000	 1.003128128199524e+001
0	 8.533360000018131e+000	 6.600030000017848e+000	 1.003075109900070e+001
0	 8.533360000018131e+000	 6.666700000016665e+000	 1.003017860875664e+001
0	 8.600030000017847e+000	 6.000000000000000e+000	 1.003118413195696e+001
0	 8.600030000017847e+000	 6.066670000003317e+000	 1.003103872679608e+001
0	 8.600030000017847e+000	 6.133340000006535e+000	 1.003085826535754e+001
0	 8.600030000017847e+000	 6.200010000009550e+000	 1.003064170486071e+001
0	 8.600030000017847e+000	 6.266680000012267e+000	 1.003038800252502e+001
0	 8.600030000017849e+000	 6.333350000014584e+000	 1.003009611556990e+001
0	 8.600030000017849e+000	 6.400020000016401e+000	 1.002976500121474e+001
0	 8.600030000017847e+000	 6.466690000017616e+000	 1.002939361667897e+001
0	 8.600030000017849e+000	 6.533360000018133e+000	 1.002898091918200e+001
0	 8.600030000017847e+000	 6.600030000017849e+000	 1.002852586594320e+001
0	 8.600030000017847e+000	 6.666700000016666e+000	 1.002802741418205e+001
0	 8.666700000016665e+000	 5.999999999999999e+000	 1.002831770777839e+001
0	 8.666700000016668e+000	 6.066670000003318e+000	 1.002825622318228e+001
0	 8.666700000016668e+000	 6.133340000006532e+000	 1.002815812197834e+001
0	 8.666700000016666e+000	 6.200010000009551e+000	 1.002802241259051e+001
0	 8.666700000016666e+000	 6.266680000012265e+000	 1.002784810344274e+001
0	 8.666700000016665e+000	 6.333350000014584e+000	 1.002763420295888e+001
0	 8.666700000016666e+000	 6.400020000016401e+000	 1.002737971956292e+001
0	 8.666700000016666e+000	 6.466690000017615e+000	 1.002708366167870e+001
0	 8.666700000016665e+000	 6.533360000018131e+000	 1.002674503773015e+001
0	 8.666700000016665e+000	 6.600030000017848e+000	 1.002636285614119e+001
0	 8.666700000016665e+000	 6.666700000016664e+000	 1.002593612533574e+001
0	 8.000000000000000e+000	 6.666700000016666e+000	 1.004902223736106e+001
0	 8.000000000000000e+000	 6.733360000014533e+000	 1.004777096587601e+001
0	 8.000000000000000e+000	 6.800020000011600e+000	 1.004651575153392e+001
0	 7.999999999999999e+000	 6.866680000008067e+000	 1.004525496904737e+001
0	 8.000000000000002e+000	 6.933340000004136e+000	 1.004398699312886e+001
0	 8.000000000000000e+000	 7.000000000000002e+000	 1.004271019849098e+001
0	 7.999999999999998e+000	 7.066659999995869e+000	 1.004142295984624e+001
0	 7.999999999999999e+000	 7.133319999991936e+000	 1.004012365190722e+001
0	 8.000000000000000e+000	 7.199979999988404e+000	 1.003881064938643e+001
0	 8.000000000000002e+000	 7.266639999985470e+000	 1.003748232699642e+001
0	 8.000000000000000e+000	 7.333299999983336e+000	 1.003613705944977e+001
0	 8.066670000003317e+000	 6.666700000016667e+000	 1.004654855722333e+001
0	 8.066670000003319e+000	 6.733360000014532e+000	 1.004538375575455e+001
0	 8.066670000003313e+000	 6.800020000011598e+000	 1.004421338890574e+001
0	 8.066670000003320e+000	 6.866680000008068e+000	 1.004303589518811e+001
0	 8.066670000003319e+000	 6.933340000004136e+000	 1.004184971311284e+001
0	 8.066670000003317e+000	 7.000000000000003e+000	 1.004065328119117e+001
0	 8.066670000003319e+000	 7.066659999995871e+000	 1.003944503793420e+001
0	 8.066670000003319e+000	 7.133319999991937e+000	 1.003822342185324e+001
0	 8.066670000003319e+000	 7.199979999988404e+000	 1.003698687145941e+001
0	 8.066670000003320e+000	 7.266639999985473e+000	 1.003573382526394e+001
0	 8.066670000003315e+000	 7.333299999983334e+000	 1.003446272177802e+001
0	 8.133340000006532e+000	 6.666700000016665e+000	 1.004409994719986e+001
0	 8.133340000006532e+000	 6.733360000014531e+000	 1.004302039327130e+001
0	 8.133340000006532e+000	 6.800020000011600e+000	 1.004193368764130e+001
0	 8.133340000006534e+000	 6.866680000008066e+000	 1.004083833094517e+001
0	 8.133340000006532e+000	 6.933340000004132e+000	 1.003973282381810e+001
0	 8.133340000006532e+000	 7.000000000000001e+000	 1.003861566689532e+001
0	 8.133340000006534e+000	 7.066659999995871e+000	 1.003748536081206e+001
0	 8.133340000006538e+000	 7.133319999991938e+000	 1.003634040620357e+001
0	 8.133340000006532e+000	 7.199979999988405e+000	 1.003517930370509e+001
0	 8.133340000006534e+000	 7.266639999985472e+000	 1.003400055395181e+001
0	 8.133340000006532e+000	 7.333299999983332e+000	 1.003280265757903e+001
0	 8.200010000009550e+000	 6.666700000016666e+000	 1.004168076174241e+001
0	 8.200010000009550e+000	 6.733360000014531e+000	 1.004068509368261e+001
0	 8.200010000009556e+000	 6.800020000011601e+000	 1.003968072209568e+001
0	 8.200010000009552e+000	 6.866680000008068e+000	 1.003866620806623e+001
0	 8.200010000009550e+000	 6.933340000004137e+000	 1.003764011267895e+001
0	 8.200010000009550e+000	 7.000000000000002e+000	 1.003660099701849e+001
0	 8.200010000009550e+000	 7.066659999995871e+000	 1.003554742216949e+001
0	 8.200010000009552e+000	 7.133319999991937e+000	 1.003447794921662e+001
0	 8.200010000009552e+000	 7.199979999988404e+000	 1.003339113924453e+001
0	 8.200010000009550e+000	 7.266639999985469e+000	 1.003228555333790e+001
0	 8.200010000009550e+000	 7.333299999983335e+000	 1.003115975258136e+001
0	 8.266680000012265e+000	 6.666700000016667e+000	 1.003929535530271e+001
0	 8.266680000012268e+000	 6.733360000014534e+000	 1.003838207224491e+001
0	 8.266680000012265e+000	 6.800020000011600e+000	 1.003745856662385e+001
0	 8.266680000012265e+000	 6.866680000008067e+000	 1.003652345829898e+001
0	 8.266680000012265e+000	 6.933340000004134e+000	 1.003557536712976e+001
0	 8.266680000012268e+000	 7.000000000000003e+000	 1.003461291297567e+001
0	 8.266680000012265e+000	 7.066659999995869e+000	 1.003363471569619e+001
0	 8.266680000012265e+000	 7.133319999991936e+000	 1.003263939515075e+001
0	 8.266680000012263e+000	 7.199979999988400e+000	 1.003162557119885e+001
0	 8.266680000012267e+000	 7.266639999985471e+000	 1.003059186369995e+001
0	 8.266680000012265e+000	 7.333299999983333e+000	 1.002953689251349e+001
0	 8.333350000014585e+000	 6.666700000016668e+000	 1.003694808233255e+001
0	 8.333350000014583e+000	 6.733360000014531e+000	 1.003611554421457e+001
0	 8.333350000014580e+000	 6.800020000011598e+000	 1.003527129558087e+001
0	 8.333350000014580e+000	 6.866680000008065e+000	 1.003441401339108e+001
0	 8.333350000014583e+000	 6.933340000004134e+000	 1.003354237460487e+001
0	 8.333350000014583e+000	 7.000000000000001e+000	 1.003265505618191e+001
0	 8.333350000014580e+000	 7.066659999995868e+000	 1.003175073508185e+001
0	 8.333350000014583e+000	 7.133319999991937e+000	 1.003082808826437e+001
0	 8.333350000014583e+000	 7.199979999988405e+000	 1.002988579268912e+001
0	 8.333350000014580e+000	 7.266639999985470e+000	 1.002892252531578e+001
0	 8.333350000014585e+000	 7.333299999983335e+000	 1.002793696310401e+001
0	 8.400020000016399e+000	 6.666700000016667e+000	 1.003464329728363e+001
0	 8.400020000016399e+000	 6.733360000014532e+000	 1.003388972484798e+001
0	 8.400020000016399e+000	 6.800020000011600e+000	 1.003312298332176e+001
0	 8.400020000016399e+000	 6.866680000008065e+000	 1.003234180509021e+001
0	 8.400020000016399e+000	 6.933340000004131e+000	 1.003154492253862e+001
0	 8.400020000016399e+000	 7.000000000000003e+000	 1.003073106805218e+001
0	 8.400020000016399e+000	 7.066659999995870e+000	 1.002989897401619e+001
0	 8.400020000016399e+000	 7.133319999991937e+000	 1.002904737281586e+001
0	 8.400020000016401e+000	 7.199979999988406e+000	 1.002817499683645e+001
0	 8.400020000016401e+000	 7.266639999985473e+000	 1.002728057846321e+001
0	 8.400020000016397e+000	 7.333299999983334e+000	 1.002636285008137e+001
0	 8.466690000017612e+000	 6.666700000016664e+000	 1.003238535460775e+001
0	 8.466690000017618e+000	 6.733360000014533e+000	 1.003170882940150e+001
0	 8.466690000017616e+000	 6.800020000011600e+000	 1.003101770420154e+001
0	 8.466690000017616e+000	 6.866680000008067e+000	 1.003031076514409e+001
0	 8.466690000017614e+000	 6.933340000004135e+000	 1.002958679836535e+001
0	 8.466690000017616e+000	 7.000000000000002e+000	 1.002884459000154e+001
0	 8.466690000017618e+000	 7.066659999995870e+000	 1.002808292618891e+001
0	 8.466690000017616e+000	 7.133319999991937e+000	 1.002730059306362e+001
0	 8.466690000017618e+000	 7.199979999988405e+000	 1.002649637676192e+001
0	 8.466690000017614e+000	 7.266639999985471e+000	 1.002566906342000e+001
0	 8.466690000017614e+000	 7.333299999983334e+000	 1.002481743917411e+001
0	 8.533360000018131e+000	 6.666700000016665e+000	 1.003017860875664e+001
0	 8.533360000018133e+000	 6.733360000014534e+000	 1.002957707313154e+001
0	 8.533360000018131e+000	 6.800020000011600e+000	 1.002895953257524e+001
0	 8.533360000018130e+000	 6.866680000008065e+000	 1.002832482530034e+001
0	 8.533360000018131e+000	 6.933340000004134e+000	 1.002767178951940e+001
0	 8.533360000018131e+000	 7.000000000000001e+000	 1.002699926344500e+001
0	 8.533360000018131e+000	 7.066659999995869e+000	 1.002630608528966e+001
0	 8.533360000018131e+000	 7.133319999991937e+000	 1.002559109326602e+001
0	 8.533360000018133e+000	 7.199979999988405e+000	 1.002485312558660e+001
0	 8.533360000018131e+000	 7.266639999985471e+000	 1.002409102046400e+001
0	 8.533360000018131e+000	 7.333299999983333e+000	 1.002330361611078e+001
0	 8.600030000017847e+000	 6.666700000016666e+000	 1.002802741418205e+001
0	 8.600030000017849e+000	 6.733360000014534e+000	 1.002749867129447e+001
0	 8.600030000017849e+000	 6.800020000011600e+000	 1.002695254279792e+001
0	 8.600030000017846e+000	 6.866680000008065e+000	 1.002638791730670e+001
0	 8.600030000017849e+000	 6.933340000004135e+000	 1.002580368343512e+001
0	 8.600030000017846e+000	 7.000000000000000e+000	 1.002519872979752e+001
0	 8.600030000017847e+000	 7.066659999995868e+000	 1.002457194500818e+001
0	 8.600030000017849e+000	 7.133319999991937e+000	 1.002392221768146e+001
0	 8.600030000017847e+000	 7.199979999988404e+000	 1.002324843643161e+001
0	 8.600030000017851e+000	 7.266639999985472e+000	 1.002254948987297e+001
0	 8.600030000017846e+000	 7.333299999983333e+000	 1.002182426661986e+001
0	 8.666700000016665e+000	 6.666700000016664e+000	 1.002593612533574e+001
0	 8.666700000016666e+000	 6.733360000014532e+000	 1.002547783914670e+001
0	 8.666700000016666e+000	 6.800020000011600e+000	 1.002500080922457e+001
0	 8.666700000016668e+000	 6.866680000008068e+000	 1.002450397291082e+001
0	 8.666700000016666e+000	 6.933340000004135e+000	 1.002398626754687e+001
0	 8.666700000016666e+000	 7.000000000000001e+000	 1.002344663047418e+001
0	 8.666700000016665e+000	 7.066659999995869e+000	 1.002288399903417e+001
0	 8.666700000016668e+000	 7.133319999991936e+000	 1.002229731056829e+001
0	 8.666700000016668e+000	 7.199979999988404e+000	 1.002168550241800e+001
0	 8.666700000016668e+000	 7.266639999985473e+000	 1.002104751192472e+001
0	 8.666700000016666e+000	 7.333299999983335e+000	 1.002038227642990e+001
0	 8.000000000000000e+000	 7.333299999983336e+000	 1.003613705944977e+001
0	 8.000000000000000e+000	 7.399969999982152e+000	 1.003478983455620e+001
0	 8.000000000000002e+000	 7.466639999981868e+000	 1.003345598125424e+001
0	 7.999999999999999e+000	 7.533309999982382e+000	 1.003213377646188e+001
0	 8.000000000000000e+000	 7.599979999983600e+000	 1.003082149709707e+001
0	 8.000000000000002e+000	 7.666649999985417e+000	 1.002951742007778e+001
0	 8.000000000000002e+000	 7.733319999987733e+000	 1.002821982232194e+001
0	 8.000000000000000e+000	 7.799989999990449e+000	 1.002692698074754e+001
0	 7.999999999999998e+000	 7.866659999993465e+000	 1.002563717227252e+001
0	 8.000000000000000e+000	 7.933329999996682e+000	 1.002434867381484e+001
0	 7.999999999999999e+000	 8.000000000000000e+000	 1.002305976229246e+001
0	 8.066670000003315e+000	 7.333299999983334e+000	 1.003446272177801e+001
0	 8.066670000003315e+000	 7.399969999982150e+000	 1.003318833771243e+001
0	 8.066670000003319e+000	 7.466639999981867e+000	 1.003192576094822e+001
0	 8.066670000003315e+000	 7.533309999982386e+000	 1.003067332040050e+001
0	 8.066670000003315e+000	 7.599979999983598e+000	 1.002942934498440e+001
0	 8.066670000003315e+000	 7.666649999985413e+000	 1.002819216361510e+001
0	 8.066670000003319e+000	 7.733319999987733e+000	 1.002696010520769e+001
0	 8.066670000003319e+000	 7.799989999990450e+000	 1.002573149867734e+001
0	 8.066670000003315e+000	 7.866659999993463e+000	 1.002450467293921e+001
0	 8.066670000003317e+000	 7.933329999996682e+000	 1.002327795690841e+001
0	 8.066670000003319e+000	 7.999999999999999e+000	 1.002204967950009e+001
0	 8.133340000006532e+000	 7.333299999983332e+000	 1.003280265757903e+001
0	 8.133340000006534e+000	 7.399969999982152e+000	 1.003160017760339e+001
0	 8.133340000006532e+000	 7.466639999981864e+000	 1.003040796040297e+001
0	 8.133340000006530e+000	 7.533309999982381e+000	 1.002922438801451e+001
0	 8.133340000006530e+000	 7.599979999983596e+000	 1.002804784247465e+001
0	 8.133340000006534e+000	 7.666649999985414e+000	 1.002687670582014e+001
0	 8.133340000006536e+000	 7.733319999987733e+000	 1.002570936008768e+001
0	 8.133340000006532e+000	 7.799989999990446e+000	 1.002454418731394e+001
0	 8.133340000006532e+000	 7.866659999993463e+000	 1.002337956953566e+001
0	 8.133340000006534e+000	 7.933329999996682e+000	 1.002221388878954e+001
0	 8.133340000006532e+000	 7.999999999999997e+000	 1.002104552711225e+001
0	 8.200010000009550e+000	 7.333299999983335e+000	 1.003115975258136e+001
0	 8.200010000009547e+000	 7.399969999982149e+000	 1.003002808733442e+001
0	 8.200010000009552e+000	 7.466639999981867e+000	 1.002890516570568e+001
0	 8.200010000009549e+000	 7.533309999982381e+000	 1.002778942397779e+001
0	 8.200010000009547e+000	 7.599979999983598e+000	 1.002667929843335e+001
0	 8.200010000009550e+000	 7.666649999985414e+000	 1.002557322535505e+001
0	 8.200010000009554e+000	 7.733319999987733e+000	 1.002446964102551e+001
0	 8.200010000009550e+000	 7.799989999990448e+000	 1.002336698172735e+001
0	 8.200010000009550e+000	 7.866659999993464e+000	 1.002226368374322e+001
0	 8.200010000009549e+000	 7.933329999996681e+000	 1.002115818335579e+001
0	 8.200010000009550e+000	 8.000000000000002e+000	 1.002004891684768e+001
0	 8.266680000012265e+000	 7.333299999983333e+000	 1.002953689251349e+001
0	 8.266680000012265e+000	 7.399969999982149e+000	 1.002847480001093e+001
0	 8.266680000012265e+000	 7.466639999981866e+000	 1.002741996294353e+001
0	 8.266680000012267e+000	 7.533309999982383e+000	 1.002637087296426e+001
0	 8.266680000012268e+000	 7.599979999983599e+000	 1.002532602172605e+001
0	 8.266680000012267e+000	 7.666649999985414e+000	 1.002428390088191e+001
0	 8.266680000012265e+000	 7.733319999987731e+000	 1.002324300208475e+001
0	 8.266680000012265e+000	 7.799989999990450e+000	 1.002220181698751e+001
0	 8.266680000012267e+000	 7.866659999993467e+000	 1.002115883724320e+001
0	 8.266680000012267e+000	 7.933329999996682e+000	 1.002011255450474e+001
0	 8.266680000012267e+000	 8.000000000000004e+000	 1.001906146042510e+001
0	 8.333350000014585e+000	 7.333299999983335e+000	 1.002793696310401e+001
0	 8.333350000014580e+000	 7.399969999982147e+000	 1.002694304873832e+001
0	 8.333350000014582e+000	 7.466639999981865e+000	 1.002595493820373e+001
0	 8.333350000014585e+000	 7.533309999982382e+000	 1.002497117964783e+001
0	 8.333350000014582e+000	 7.599979999983598e+000	 1.002399032121830e+001
0	 8.333350000014583e+000	 7.666649999985416e+000	 1.002301091106281e+001
0	 8.333350000014582e+000	 7.733319999987733e+000	 1.002203149732897e+001
0	 8.333350000014582e+000	 7.799989999990447e+000	 1.002105062816444e+001
0	 8.333350000014583e+000	 7.866659999993464e+000	 1.002006685171688e+001
0	 8.333350000014583e+000	 7.933329999996682e+000	 1.001907871613393e+001
0	 8.333350000014582e+000	 8.000000000000000e+000	 1.001808476956322e+001
0	 8.400020000016397e+000	 7.333299999983334e+000	 1.002636285008137e+001
0	 8.400020000016399e+000	 7.399969999982148e+000	 1.002543556662198e+001
0	 8.400020000016399e+000	 7.466639999981865e+000	 1.002451267757344e+001
0	 8.400020000016403e+000	 7.533309999982382e+000	 1.002359278870241e+001
0	 8.400020000016399e+000	 7.599979999983598e+000	 1.002267450577565e+001
0	 8.400020000016397e+000	 7.666649999985414e+000	 1.002175643455988e+001
0	 8.400020000016399e+000	 7.733319999987733e+000	 1.002083718082179e+001
0	 8.400020000016399e+000	 7.799989999990449e+000	 1.001991535032811e+001
0	 8.400020000016401e+000	 7.866659999993466e+000	 1.001898954884558e+001
0	 8.400020000016401e+000	 7.933329999996680e+000	 1.001805838214090e+001
0	 8.400020000016399e+000	 8.000000000000000e+000	 1.001712045598080e+001
0	 8.466690000017614e+000	 7.333299999983334e+000	 1.002481743917411e+001
0	 8.466690000017616e+000	 7.399969999982150e+000	 1.002395508676731e+001
0	 8.466690000017614e+000	 7.466639999981867e+000	 1.002309576713984e+001
0	 8.466690000017616e+000	 7.533309999982381e+000	 1.002223814480190e+001
0	 8.466690000017612e+000	 7.599979999983597e+000	 1.002138088426362e+001
0	 8.466690000017616e+000	 7.666649999985416e+000	 1.002052265003518e+001
0	 8.466690000017618e+000	 7.733319999987733e+000	 1.001966210662677e+001
0	 8.466690000017618e+000	 7.799989999990450e+000	 1.001879791854854e+001
0	 8.466690000017614e+000	 7.866659999993465e+000	 1.001792875031062e+001
0	 8.466690000017616e+000	 7.933329999996682e+000	 1.001705326642322e+001
0	 8.466690000017618e+000	 8.000000000000000e+000	 1.001617013139652e+001
0	 8.533360000018131e+000	 7.333299999983333e+000	 1.002330361611078e+001
0	 8.533360000018131e+000	 7.399969999982149e+000	 1.002250434227970e+001
0	 8.533360000018131e+000	 7.466639999981865e+000	 1.002170679299017e+001
0	 8.533360000018133e+000	 7.533309999982382e+000	 1.002090969262022e+001
0	 8.533360000018131e+000	 7.599979999983598e+000	 1.002011176554779e+001
0	 8.533360000018131e+000	 7.666649999985415e+000	 1.001931173615087e+001
0	 8.533360000018133e+000	 7.733319999987733e+000	 1.001850832880750e+001
0	 8.533360000018133e+000	 7.799989999990450e+000	 1.001770026789568e+001
0	 8.533360000018133e+000	 7.866659999993465e+000	 1.001688627779330e+001
0	 8.533360000018130e+000	 7.933329999996680e+000	 1.001606508287847e+001
0	 8.533360000018130e+000	 8.000000000000000e+000	 1.001523540752911e+001
0	 8.600030000017846e+000	 7.333299999983333e+000	 1.002182426661986e+001
0	 8.600030000017847e+000	 7.399969999982150e+000	 1.002108606626454e+001
0	 8.600030000017849e+000	 7.466639999981865e+000	 1.002034834121161e+001
0	 8.600030000017849e+000	 7.533309999982381e+000	 1.001960987683123e+001
0	 8.600030000017849e+000	 7.599979999983599e+000	 1.001886945849365e+001
0	 8.600030000017847e+000	 7.666649999985415e+000	 1.001812587156904e+001
0	 8.600030000017849e+000	 7.733319999987732e+000	 1.001737790142759e+001
0	 8.600030000017849e+000	 7.799989999990448e+000	 1.001662433343950e+001
0	 8.600030000017847e+000	 7.866659999993464e+000	 1.001586395297496e+001
0	 8.600030000017846e+000	 7.933329999996681e+000	 1.001509554540419e+001
0	 8.600030000017847e+000	 8.000000000000002e+000	 1.001431789609733e+001
0	 8.666700000016666e+000	 7.333299999983335e+000	 1.002038227642990e+001
0	 8.666700000016668e+000	 7.399969999982149e+000	 1.001970299182723e+001
0	 8.666700000016668e+000	 7.466639999981866e+000	 1.001902299789128e+001
0	 8.666700000016668e+000	 7.533309999982383e+000	 1.001834114210888e+001
0	 8.666700000016668e+000	 7.599979999983599e+000	 1.001765627196678e+001
0	 8.666700000016666e+000	 7.666649999985415e+000	 1.001696723495175e+001
0	 8.666700000016666e+000	 7.733319999987732e+000	 1.001627287855058e+001
0	 8.666700000016668e+000	 7.799989999990448e+000	 1.001557205025004e+001
0	 8.666700000016666e+000	 7.866659999993464e+000	 1.001486359753688e+001
0	 8.666700000016668e+000	 7.933329999996682e+000	 1.001414636789792e+001
0	 8.666700000016666e+000	 7.999999999999999e+000	 1.001341920881987e+001
0	 7.999999999999999e+000	 8.000000000000000e+000	 1.002305976229246e+001
0	 7.999999999999998e+000	 8.066670000003319e+000	 1.002178626563454e+001
0	 7.999999999999999e+000	 8.133340000006534e+000	 1.002054384135570e+001
0	 8.000000000000002e+000	 8.200010000009549e+000	 1.001933051075223e+001
0	 8.000000000000002e+000	 8.266680000012268e+000	 1.001814429512032e+001
0	 8.000000000000000e+000	 8.333350000014583e+000	 1.001698321575619e+001
0	 8.000000000000002e+000	 8.400020000016399e+000	 1.001584529395613e+001
0	 8.000000000000000e+000	 8.466690000017616e+000	 1.001472855101635e+001
0	 8.000000000000000e+000	 8.533360000018131e+000	 1.001363100823308e+001
0	 8.000000000000000e+000	 8.600030000017847e+000	 1.001255068690259e+001
0	 7.999999999999999e+000	 8.666700000016666e+000	 1.001148560832107e+001
0	 8.066670000003319e+000	 7.999999999999999e+000	 1.002204967950009e+001
0	 8.066670000003319e+000	 8.066670000003319e+000	 1.002083537195922e+001
0	 8.066670000003313e+000	 8.133340000006532e+000	 1.001965040993852e+001
0	 8.066670000003317e+000	 8.200010000009550e+000	 1.001849288896475e+001
0	 8.066670000003319e+000	 8.266680000012270e+000	 1.001736090456465e+001
0	 8.066670000003319e+000	 8.333350000014582e+000	 1.001625255226503e+001
0	 8.066670000003317e+000	 8.400020000016399e+000	 1.001516592759267e+001
0	 8.066670000003317e+000	 8.466690000017618e+000	 1.001409912607431e+001
0	 8.066670000003319e+000	 8.533360000018131e+000	 1.001305024323674e+001
0	 8.066670000003315e+000	 8.600030000017847e+000	 1.001201737460672e+001
0	 8.066670000003313e+000	 8.666700000016666e+000	 1.001099861571102e+001
0	 8.133340000006532e+000	 7.999999999999997e+000	 1.002104552711225e+001
0	 8.133340000006534e+000	 8.066670000003317e+000	 1.001988972495909e+001
0	 8.133340000006534e+000	 8.133340000006534e+000	 1.001876158004773e+001
0	 8.133340000006534e+000	 8.200010000009549e+000	 1.001765926030840e+001
0	 8.133340000006534e+000	 8.266680000012267e+000	 1.001658093367137e+001
0	 8.133340000006532e+000	 8.333350000014582e+000	 1.001552476806692e+001
0	 8.133340000006532e+000	 8.400020000016401e+000	 1.001448893142528e+001
0	 8.133340000006534e+000	 8.466690000017614e+000	 1.001347159167675e+001
0	 8.133340000006532e+000	 8.533360000018133e+000	 1.001247091675159e+001
0	 8.133340000006534e+000	 8.600030000017847e+000	 1.001148507458003e+001
0	 8.133340000006532e+000	 8.666700000016665e+000	 1.001051223309238e+001
0	 8.200010000009550e+000	 8.000000000000002e+000	 1.002004891684768e+001
0	 8.200010000009549e+000	 8.066670000003317e+000	 1.001895083922088e+001
0	 8.200010000009550e+000	 8.133340000006534e+000	 1.001787877362679e+001
0	 8.200010000009552e+000	 8.200010000009550e+000	 1.001683095857212e+001
0	 8.200010000009552e+000	 8.266680000012268e+000	 1.001580563256354e+001
0	 8.200010000009549e+000	 8.333350000014582e+000	 1.001480103410783e+001
0	 8.200010000009547e+000	 8.400020000016399e+000	 1.001381540171163e+001
0	 8.200010000009550e+000	 8.466690000017616e+000	 1.001284697388172e+001
0	 8.200010000009550e+000	 8.533360000018133e+000	 1.001189398912479e+001
0	 8.200010000009550e+000	 8.600030000017847e+000	 1.001095468594754e+001
0	 8.200010000009550e+000	 8.666700000016666e+000	 1.001002730285669e+001
0	 8.266680000012267e+000	 8.000000000000004e+000	 1.001906146042510e+001
0	 8.266680000012267e+000	 8.066670000003315e+000	 1.001802022933130e+001
0	 8.266680000012267e+000	 8.133340000006532e+000	 1.001700341261915e+001
0	 8.266680000012265e+000	 8.200010000009550e+000	 1.001600931754476e+001
0	 8.266680000012267e+000	 8.266680000012267e+000	 1.001503625136424e+001
0	 8.266680000012265e+000	 8.333350000014582e+000	 1.001408252133374e+001
0	 8.266680000012265e+000	 8.400020000016399e+000	 1.001314643470937e+001
0	 8.266680000012268e+000	 8.466690000017620e+000	 1.001222629874726e+001
0	 8.266680000012267e+000	 8.533360000018133e+000	 1.001132042070347e+001
0	 8.266680000012267e+000	 8.600030000017847e+000	 1.001042710783421e+001
0	 8.266680000012267e+000	 8.666700000016668e+000	 1.000954466739554e+001
0	 8.333350000014582e+000	 8.000000000000000e+000	 1.001808476956322e+001
0	 8.333350000014583e+000	 8.066670000003319e+000	 1.001709940987705e+001
0	 8.333350000014583e+000	 8.133340000006534e+000	 1.001613691896822e+001
0	 8.333350000014582e+000	 8.200010000009549e+000	 1.001519567101525e+001
0	 8.333350000014583e+000	 8.266680000012265e+000	 1.001427404019658e+001
0	 8.333350000014582e+000	 8.333350000014583e+000	 1.001337040069071e+001
0	 8.333350000014582e+000	 8.400020000016401e+000	 1.001248312667615e+001
0	 8.333350000014582e+000	 8.466690000017614e+000	 1.001161059233134e+001
0	 8.333350000014582e+000	 8.533360000018131e+000	 1.001075117183481e+001
0	 8.333350000014582e+000	 8.600030000017847e+000	 1.000990323936505e+001
0	 8.333350000014583e+000	 8.666700000016670e+000	 1.000906516910049e+001
0	 8.400020000016399e+000	 8.000000000000000e+000	 1.001712045598080e+001
0	 8.400020000016397e+000	 8.066670000003317e+000	 1.001618989544488e+001
0	 8.400020000016397e+000	 8.133340000006532e+000	 1.001528071461749e+001
0	 8.400020000016399e+000	 8.200010000009549e+000	 1.001439135277247e+001
0	 8.400020000016399e+000	 8.266680000012267e+000	 1.001352024918361e+001
0	 8.400020000016401e+000	 8.333350000014583e+000	 1.001266584312472e+001
0	 8.400020000016401e+000	 8.400020000016399e+000	 1.001182657386960e+001
0	 8.400020000016401e+000	 8.466690000017614e+000	 1.001100088069207e+001
0	 8.400020000016399e+000	 8.533360000018131e+000	 1.001018720286596e+001
0	 8.400020000016399e+000	 8.600030000017849e+000	 1.000938397966500e+001
0	 8.400020000016399e+000	 8.666700000016666e+000	 1.000858965036311e+001
0	 8.466690000017618e+000	 8.000000000000000e+000	 1.001617013139652e+001
0	 8.466690000017614e+000	 8.066670000003317e+000	 1.001529320062147e+001
0	 8.466690000017616e+000	 8.133340000006536e+000	 1.001443622151038e+001
0	 8.466690000017616e+000	 8.200010000009549e+000	 1.001359769660535e+001
0	 8.466690000017616e+000	 8.266680000012267e+000	 1.001277612844845e+001
0	 8.466690000017616e+000	 8.333350000014585e+000	 1.001197001958176e+001
0	 8.466690000017612e+000	 8.400020000016399e+000	 1.001117787254740e+001
0	 8.466690000017614e+000	 8.466690000017616e+000	 1.001039818988747e+001
0	 8.466690000017614e+000	 8.533360000018128e+000	 1.000962947414402e+001
0	 8.466690000017614e+000	 8.600030000017847e+000	 1.000887022785914e+001
0	 8.466690000017616e+000	 8.666700000016670e+000	 1.000811895357496e+001
0	 8.533360000018130e+000	 8.000000000000000e+000	 1.001523540752911e+001
0	 8.533360000018131e+000	 8.066670000003315e+000	 1.001441083999357e+001
0	 8.533360000018131e+000	 8.133340000006534e+000	 1.001360486159034e+001
0	 8.533360000018133e+000	 8.200010000009552e+000	 1.001281603630276e+001
0	 8.533360000018131e+000	 8.266680000012265e+000	 1.001204292811416e+001
0	 8.533360000018131e+000	 8.333350000014583e+000	 1.001128410100786e+001
0	 8.533360000018133e+000	 8.400020000016399e+000	 1.001053811896722e+001
0	 8.533360000018131e+000	 8.466690000017616e+000	 1.000980354597552e+001
0	 8.533360000018133e+000	 8.533360000018131e+000	 1.000907894601614e+001
0	 8.533360000018131e+000	 8.600030000017847e+000	 1.000836288307237e+001
0	 8.533360000018131e+000	 8.666700000016666e+000	 1.000765392112758e+001
0	 8.600030000017847e+000	 8.000000000000002e+000	 1.001431789609733e+001
0	 8.600030000017847e+000	 8.066670000003315e+000	 1.001354432814788e+001
0	 8.600030000017846e+000	 8.133340000006532e+000	 1.001278805680081e+001
0	 8.600030000017849e+000	 8.200010000009550e+000	 1.001204770565362e+001
0	 8.600030000017849e+000	 8.266680000012268e+000	 1.001132189830386e+001
0	 8.600030000017847e+000	 8.333350000014583e+000	 1.001060925834903e+001
0	 8.600030000017849e+000	 8.400020000016399e+000	 1.000990840938669e+001
0	 8.600030000017847e+000	 8.466690000017616e+000	 1.000921797501434e+001
0	 8.600030000017847e+000	 8.533360000018130e+000	 1.000853657882951e+001
0	 8.600030000017847e+000	 8.600030000017847e+000	 1.000786284442975e+001
0	 8.600030000017847e+000	 8.666700000016668e+000	 1.000719539541255e+001
0	 8.666700000016666e+000	 7.999999999999999e+000	 1.001341920881987e+001
0	 8.666700000016666e+000	 8.066670000003317e+000	 1.001269517967113e+001
0	 8.666700000016666e+000	 8.133340000006532e+000	 1.001198722908521e+001
0	 8.666700000016666e+000	 8.200010000009550e+000	 1.001129403844679e+001
0	 8.666700000016668e+000	 8.266680000012267e+000	 1.001061428914058e+001
0	 8.666700000016668e+000	 8.333350000014583e+000	 1.000994666255125e+001
0	 8.666700000016668e+000	 8.400020000016401e+000	 1.000928984006345e+001
0	 8.666700000016670e+000	 8.466690000017618e+000	 1.000864250306190e+001
0	 8.666700000016666e+000	 8.533360000018133e+000	 1.000800333293126e+001
0	 8.666700000016665e+000	 8.600030000017847e+000	 1.000737101105622e+001
0	 8.666700000016666e+000	 8.666700000016668e+000	 1.000674421882145e+001
0	 7.999999999999999e+000	 8.666700000016666e+000	 1.001148560832107e+001
0	 8.000000000000000e+000	 8.733360002791905e+000	 1.001045389761757e+001
0	 8.000000000000002e+000	 8.800020022230555e+000	 1.000947317675730e+001
0	 8.000000000000002e+000	 8.866680074997042e+000	 1.000854118831119e+001
0	 8.000000000000000e+000	 8.933340177755774e+000	 1.000765567470575e+001
0	 8.000000000000000e+000	 9.000000347171179e+000	 1.000681437822298e+001
0	 8.000000000000000e+000	 9.066660599907666e+000	 1.000601504100044e+001
0	 8.000000000000000e+000	 9.133320952629653e+000	 1.000525540503119e+001
0	 8.000000000000000e+000	 9.199981422001555e+000	 1.000453321216381e+001
0	 8.000000000000000e+000	 9.266642024687792e+000	 1.000384620410240e+001
0	 8.000000000000000e+000	 9.333302777352783e+000	 1.000319212240663e+001
0	 8.066670000003313e+000	 8.666700000016666e+000	 1.001099861571102e+001
0	 8.066670000003319e+000	 8.733360002791903e+000	 1.001001155309336e+001
0	 8.066670000003315e+000	 8.800020022230555e+000	 1.000907329025118e+001
0	 8.066670000003319e+000	 8.866680074997040e+000	 1.000818165356789e+001
0	 8.066670000003317e+000	 8.933340177755778e+000	 1.000733446928880e+001
0	 8.066670000003319e+000	 9.000000347171183e+000	 1.000652956352093e+001
0	 8.066670000003317e+000	 9.066660599907667e+000	 1.000576476223318e+001
0	 8.066670000003319e+000	 9.133320952629653e+000	 1.000503789125620e+001
0	 8.066670000003317e+000	 9.199981422001558e+000	 1.000434677628249e+001
0	 8.066670000003317e+000	 9.266642024687791e+000	 1.000368924286633e+001
0	 8.066670000003317e+000	 9.333302777352783e+000	 1.000306311642384e+001
0	 8.133340000006532e+000	 8.666700000016665e+000	 1.001051223309238e+001
0	 8.133340000006530e+000	 8.733360002791901e+000	 1.000956942195276e+001
0	 8.133340000006532e+000	 8.800020022230555e+000	 1.000867320985103e+001
0	 8.133340000006534e+000	 8.866680074997039e+000	 1.000782150826349e+001
0	 8.133340000006530e+000	 8.933340177755776e+000	 1.000701222853460e+001
0	 8.133340000006532e+000	 9.000000347171177e+000	 1.000624328187686e+001
0	 8.133340000006532e+000	 9.066660599907666e+000	 1.000551257937085e+001
0	 8.133340000006538e+000	 9.133320952629651e+000	 1.000481803196514e+001
0	 8.133340000006532e+000	 9.199981422001557e+000	 1.000415755047653e+001
0	 8.133340000006536e+000	 9.266642024687794e+000	 1.000352904558978e+001
0	 8.133340000006534e+000	 9.333302777352783e+000	 1.000293042785772e+001
0	 8.200010000009550e+000	 8.666700000016666e+000	 1.001002730285669e+001
0	 8.200010000009549e+000	 8.733360002791905e+000	 1.000912829958467e+001
0	 8.200010000009550e+000	 8.800020022230555e+000	 1.000827369889949e+001
0	 8.200010000009552e+000	 8.866680074997042e+000	 1.000746149865084e+001
0	 8.200010000009552e+000	 8.933340177755778e+000	 1.000668969656265e+001
0	 8.200010000009550e+000	 9.000000347171179e+000	 1.000595629023327e+001
0	 8.200010000009549e+000	 9.066660599907664e+000	 1.000525927713527e+001
0	 8.200010000009549e+000	 9.133320952629653e+000	 1.000459665461550e+001
0	 8.200010000009550e+000	 9.199981422001555e+000	 1.000396641989515e+001
0	 8.200010000009552e+000	 9.266642024687794e+000	 1.000336657006969e+001
0	 8.200010000009552e+000	 9.333302777352783e+000	 1.000279510210891e+001
0	 8.266680000012267e+000	 8.666700000016668e+000	 1.000954466739554e+001
0	 8.266680000012267e+000	 8.733360002791901e+000	 1.000868898137796e+001
0	 8.266680000012263e+000	 8.800020022230552e+000	 1.000787552073922e+001
0	 8.266680000012267e+000	 8.866680074997040e+000	 1.000710237098274e+001
0	 8.266680000012267e+000	 8.933340177755776e+000	 1.000636761749244e+001
0	 8.266680000012265e+000	 9.000000347171179e+000	 1.000566934553270e+001
0	 8.266680000012265e+000	 9.066660599907664e+000	 1.000500564024838e+001
0	 8.266680000012265e+000	 9.133320952629651e+000	 1.000437458666473e+001
0	 8.266680000012267e+000	 9.199981422001557e+000	 1.000377426968755e+001
0	 8.266680000012265e+000	 9.266642024687791e+000	 1.000320277410306e+001
0	 8.266680000012265e+000	 9.333302777352781e+000	 1.000265818457796e+001
0	 8.333350000014583e+000	 8.666700000016670e+000	 1.000906516910049e+001
0	 8.333350000014583e+000	 8.733360002791903e+000	 1.000825226272154e+001
0	 8.333350000014583e+000	 8.800020022230557e+000	 1.000747943871286e+001
0	 8.333350000014580e+000	 8.866680074997039e+000	 1.000674487151209e+001
0	 8.333350000014582e+000	 8.933340177755778e+000	 1.000604673544345e+001
0	 8.333350000014585e+000	 9.000000347171179e+000	 1.000538320471762e+001
0	 8.333350000014582e+000	 9.066660599907664e+000	 1.000475245343195e+001
0	 8.333350000014583e+000	 9.133320952629651e+000	 1.000415265557027e+001
0	 8.333350000014585e+000	 9.199981422001560e+000	 1.000358198500291e+001
0	 8.333350000014585e+000	 9.266642024687792e+000	 1.000303861548683e+001
0	 8.333350000014583e+000	 9.333302777352783e+000	 1.000252072066547e+001
0	 8.400020000016399e+000	 8.666700000016666e+000	 1.000858965036311e+001
0	 8.400020000016397e+000	 8.733360002791903e+000	 1.000781893900428e+001
0	 8.400020000016401e+000	 8.800020022230555e+000	 1.000708621616306e+001
0	 8.400020000016399e+000	 8.866680074997040e+000	 1.000638974649172e+001
0	 8.400020000016399e+000	 8.933340177755778e+000	 1.000572779453511e+001
0	 8.400020000016403e+000	 9.000000347171181e+000	 1.000509862473058e+001
0	 8.400020000016399e+000	 9.066660599907667e+000	 1.000450050140793e+001
0	 8.400020000016401e+000	 9.133320952629653e+000	 1.000393168878958e+001
0	 8.400020000016399e+000	 9.199981422001555e+000	 1.000339045099045e+001
0	 8.400020000016399e+000	 9.266642024687791e+000	 1.000287505201796e+001
0	 8.400020000016399e+000	 9.333302777352783e+000	 1.000238375577205e+001
0	 8.466690000017616e+000	 8.666700000016670e+000	 1.000811895357496e+001
0	 8.466690000017614e+000	 8.733360002791901e+000	 1.000738980561506e+001
0	 8.466690000017614e+000	 8.800020022230557e+000	 1.000669661643246e+001
0	 8.466690000017616e+000	 8.866680074997040e+000	 1.000603774217450e+001
0	 8.466690000017614e+000	 8.933340177755778e+000	 1.000541153888699e+001
0	 8.466690000017616e+000	 9.000000347171177e+000	 1.000481636251399e+001
0	 8.466690000017616e+000	 9.066660599907664e+000	 1.000425056889809e+001
0	 8.466690000017612e+000	 9.133320952629651e+000	 1.000371251378016e+001
0	 8.466690000017614e+000	 9.199981422001558e+000	 1.000320055279938e+001
0	 8.466690000017616e+000	 9.266642024687792e+000	 1.000271304149345e+001
0	 8.466690000017618e+000	 9.333302777352785e+000	 1.000224833529833e+001
0	 8.533360000018131e+000	 8.666700000016666e+000	 1.000765392112758e+001
0	 8.533360000018130e+000	 8.733360002791901e+000	 1.000696565794279e+001
0	 8.533360000018131e+000	 8.800020022230555e+000	 1.000631140286371e+001
0	 8.533360000018131e+000	 8.866680074997040e+000	 1.000568960481326e+001
0	 8.533360000018131e+000	 8.933340177755776e+000	 1.000509871261847e+001
0	 8.533360000018133e+000	 9.000000347171179e+000	 1.000453717501047e+001
0	 8.533360000018131e+000	 9.066660599907666e+000	 1.000400344062438e+001
0	 8.533360000018131e+000	 9.133320952629653e+000	 1.000349595799943e+001
0	 8.533360000018131e+000	 9.199981422001553e+000	 1.000301317557894e+001
0	 8.533360000018131e+000	 9.266642024687794e+000	 1.000255354171026e+001
0	 8.533360000018133e+000	 9.333302777352783e+000	 1.000211550464486e+001
0	 8.600030000017847e+000	 8.666700000016668e+000	 1.000719539541256e+001
0	 8.600030000017849e+000	 8.733360002791905e+000	 1.000654729137633e+001
0	 8.600030000017849e+000	 8.800020022230553e+000	 1.000593133879945e+001
0	 8.600030000017849e+000	 8.866680074997040e+000	 1.000534608066083e+001
0	 8.600030000017846e+000	 8.933340177755776e+000	 1.000479005984913e+001
0	 8.600030000017849e+000	 9.000000347171179e+000	 1.000426181916244e+001
0	 8.600030000017849e+000	 9.066660599907666e+000	 1.000375990130857e+001
0	 8.600030000017847e+000	 9.133320952629651e+000	 1.000328284890488e+001
0	 8.600030000017849e+000	 9.199981422001555e+000	 1.000282920447829e+001
0	 8.600030000017849e+000	 9.266642024687794e+000	 1.000239751046537e+001
0	 8.600030000017847e+000	 9.333302777352781e+000	 1.000198630921224e+001
0	 8.666700000016666e+000	 8.666700000016668e+000	 1.000674421882145e+001
0	 8.666700000016668e+000	 8.733360002791903e+000	 1.000613550130460e+001
0	 8.666700000016666e+000	 8.800020022230555e+000	 1.000555718758233e+001
0	 8.666700000016670e+000	 8.866680074997040e+000	 1.000500791597012e+001
0	 8.666700000016665e+000	 8.933340177755774e+000	 1.000448632469839e+001
0	 8.666700000016668e+000	 9.000000347171179e+000	 1.000399105191247e+001
0	 8.666700000016668e+000	 9.066660599907667e+000	 1.000352073567259e+001
0	 8.666700000016665e+000	 9.133320952629653e+000	 1.000307401395399e+001
0	 8.666700000016668e+000	 9.199981422001553e+000	 1.000264952464666e+001
0	 8.666700000016665e+000	 9.266642024687792e+000	 1.000224590555572e+001
0	 8.666700000016668e+000	 9.333302777352785e+000	 1.000186179440111e+001
0	 8.000000000000000e+000	 9.333302777352783e+000	 1.000319212240663e+001
0	 8.000000000000002e+000	 9.399973674588178e+000	 1.000258877412500e+001
0	 7.999999999999999e+000	 9.466644621844621e+000	 1.000205406568226e+001
0	 7.999999999999998e+000	 9.533315502449996e+000	 1.000158560137459e+001
0	 7.999999999999999e+000	 9.599986199732197e+000	 1.000118098693358e+001
0	 8.000000000000000e+000	 9.666656597019093e+000	 1.000083782952611e+001
0	 7.999999999999999e+000	 9.733326577638575e+000	 1.000055373775467e+001
0	 8.000000000000002e+000	 9.799996024918524e+000	 1.000032632165704e+001
0	 7.999999999999999e+000	 9.866664822186820e+000	 1.000015319270673e+001
0	 8.000000000000000e+000	 9.933332852771352e+000	 1.000003196381298e+001
0	 8.000000000000002e+000	 1.000000000000000e+001	 9.999960249321159e+000
0	 8.066670000003317e+000	 9.333302777352783e+000	 1.000306311642383e+001
0	 8.066670000003319e+000	 9.399973674588177e+000	 1.000248552316623e+001
0	 8.066670000003319e+000	 9.466644621844623e+000	 1.000197368988468e+001
0	 8.066670000003319e+000	 9.533315502450002e+000	 1.000152531874886e+001
0	 8.066670000003315e+000	 9.599986199732193e+000	 1.000113811330377e+001
0	 8.066670000003320e+000	 9.666656597019093e+000	 1.000080977846940e+001
0	 8.066670000003315e+000	 9.733326577638572e+000	 1.000053802054115e+001
0	 8.066670000003319e+000	 9.799996024918523e+000	 1.000032054718971e+001
0	 8.066670000003315e+000	 9.866664822186817e+000	 1.000015506746124e+001
0	 8.066670000003315e+000	 9.933332852771351e+000	 1.000003929177747e+001
0	 8.066670000003317e+000	 1.000000000000000e+001	 9.999970931936069e+000
0	 8.133340000006534e+000	 9.333302777352783e+000	 1.000293042785772e+001
0	 8.133340000006536e+000	 9.399973674588178e+000	 1.000237815728912e+001
0	 8.133340000006534e+000	 9.466644621844621e+000	 1.000188879712531e+001
0	 8.133340000006536e+000	 9.533315502450002e+000	 1.000146015066282e+001
0	 8.133340000006536e+000	 9.599986199732197e+000	 1.000109002251349e+001
0	 8.133340000006534e+000	 9.666656597019095e+000	 1.000077621860467e+001
0	 8.133340000006534e+000	 9.733326577638575e+000	 1.000051654617908e+001
0	 8.133340000006534e+000	 9.799996024918524e+000	 1.000030881379508e+001
0	 8.133340000006530e+000	 9.866664822186815e+000	 1.000015083132665e+001
0	 8.133340000006534e+000	 9.933332852771352e+000	 1.000004040996363e+001
0	 8.133340000006534e+000	 1.000000000000000e+001	 9.999975362211689e+000
0	 8.200010000009552e+000	 9.333302777352783e+000	 1.000279510210891e+001
0	 8.200010000009549e+000	 9.399973674588173e+000	 1.000226781313530e+001
0	 8.200010000009552e+000	 9.466644621844623e+000	 1.000180060757796e+001
0	 8.200010000009550e+000	 9.533315502450000e+000	 1.000139139311373e+001
0	 8.200010000009550e+000	 9.599986199732198e+000	 1.000103807867547e+001
0	 8.200010000009549e+000	 9.666656597019093e+000	 1.000073857445207e+001
0	 8.200010000009549e+000	 9.733326577638573e+000	 1.000049079188823e+001
0	 8.200010000009550e+000	 9.799996024918523e+000	 1.000029264368493e+001
0	 8.200010000009550e+000	 9.866664822186822e+000	 1.000014204379921e+001
0	 8.200010000009549e+000	 9.933332852771349e+000	 1.000003690744447e+001
0	 8.200010000009550e+000	 1.000000000000000e+001	 9.999975151090446e+000
0	 8.266680000012265e+000	 9.333302777352781e+000	 1.000265818457797e+001
0	 8.266680000012265e+000	 9.399973674588175e+000	 1.000215562734661e+001
0	 8.266680000012267e+000	 9.466644621844623e+000	 1.000171034141643e+001
0	 8.266680000012267e+000	 9.533315502450000e+000	 1.000132034209899e+001
0	 8.266680000012267e+000	 9.599986199732195e+000	 1.000098364590242e+001
0	 8.266680000012265e+000	 9.666656597019088e+000	 1.000069827053168e+001
0	 8.266680000012265e+000	 9.733326577638575e+000	 1.000046223488848e+001
0	 8.266680000012267e+000	 9.799996024918523e+000	 1.000027355907121e+001
0	 8.266680000012267e+000	 9.866664822186820e+000	 1.000013026437530e+001
0	 8.266680000012265e+000	 9.933332852771352e+000	 1.000003037329323e+001
0	 8.266680000012267e+000	 1.000000000000000e+001	 9.999971909514672e+000
0	 8.333350000014583e+000	 9.333302777352783e+000	 1.000252072066547e+001
0	 8.333350000014583e+000	 9.399973674588177e+000	 1.000204273656465e+001
0	 8.333350000014582e+000	 9.466644621844619e+000	 1.000161921881457e+001
0	 8.333350000014582e+000	 9.533315502449996e+000	 1.000124829361595e+001
0	 8.333350000014582e+000	 9.599986199732195e+000	 1.000092808830702e+001
0	 8.333350000014587e+000	 9.666656597019097e+000	 1.000065673136374e+001
0	 8.333350000014582e+000	 9.733326577638573e+000	 1.000043235239948e+001
0	 8.333350000014582e+000	 9.799996024918523e+000	 1.000025308216566e+001
0	 8.333350000014585e+000	 9.866664822186822e+000	 1.000011705255111e+001
0	 8.333350000014583e+000	 9.933332852771354e+000	 1.000002239658298e+001
0	 8.333350000014585e+000	 1.000000000000000e+001	 9.999967248426128e+000
0	 8.400020000016399e+000	 9.333302777352783e+000	 1.000238375577205e+001
0	 8.400020000016399e+000	 9.399973674588177e+000	 1.000193027743117e+001
0	 8.400020000016397e+000	 9.466644621844623e+000	 1.000152845994620e+001
0	 8.400020000016401e+000	 9.533315502449998e+000	 1.000117654366202e+001
0	 8.400020000016397e+000	 9.599986199732195e+000	 1.000087277000205e+001
0	 8.400020000016401e+000	 9.666656597019093e+000	 1.000061538146830e+001
0	 8.400020000016403e+000	 9.733326577638575e+000	 1.000040262164122e+001
0	 8.400020000016397e+000	 9.799996024918523e+000	 1.000023273518014e+001
0	 8.400020000016399e+000	 9.866664822186822e+000	 1.000010396782298e+001
0	 8.400020000016399e+000	 9.933332852771351e+000	 1.000001456638668e+001
0	 8.400020000016399e+000	 1.000000000000000e+001	 9.999962778767102e+000
0	 8.466690000017618e+000	 9.333302777352785e+000	 1.000224833529833e+001
0	 8.466690000017620e+000	 9.399973674588178e+000	 1.000181938658785e+001
0	 8.466690000017616e+000	 9.466644621844621e+000	 1.000143928498512e+001
0	 8.466690000017616e+000	 9.533315502449996e+000	 1.000110638823453e+001
0	 8.466690000017616e+000	 9.599986199732195e+000	 1.000081905510016e+001
0	 8.466690000017616e+000	 9.666656597019097e+000	 1.000057564536544e+001
0	 8.466690000017616e+000	 9.733326577638572e+000	 1.000037451983341e+001
0	 8.466690000017618e+000	 9.799996024918523e+000	 1.000021404032658e+001
0	 8.466690000017616e+000	 9.866664822186818e+000	 1.000009256968731e+001
0	 8.466690000017616e+000	 9.933332852771351e+000	 1.000000847177769e+001
0	 8.466690000017618e+000	 1.000000000000000e+001	 9.999960111479826e+000
0	 8.533360000018133e+000	 9.333302777352783e+000	 1.000211550464486e+001
0	 8.533360000018131e+000	 9.399973674588175e+000	 1.000171120067642e+001
0	 8.533360000018131e+000	 9.466644621844617e+000	 1.000135291410510e+001
0	 8.533360000018130e+000	 9.533315502450000e+000	 1.000103912333087e+001
0	 8.533360000018131e+000	 9.599986199732195e+000	 1.000076830771413e+001
0	 8.533360000018133e+000	 9.666656597019092e+000	 1.000053894757540e+001
0	 8.533360000018133e+000	 9.733326577638575e+000	 1.000034952419584e+001
0	 8.533360000018133e+000	 9.799996024918521e+000	 1.000019851981681e+001
0	 8.533360000018133e+000	 9.866664822186820e+000	 1.000008441764033e+001
0	 8.533360000018131e+000	 9.933332852771352e+000	 1.000000570182902e+001
0	 8.533360000018131e+000	 9.999999999999998e+000	 9.999960857506295e+000
0	 8.600030000017847e+000	 9.333302777352781e+000	 1.000198630921224e+001
0	 8.600030000017847e+000	 9.399973674588178e+000	 1.000160685633857e+001
0	 8.600030000017849e+000	 9.466644621844619e+000	 1.000127056748000e+001
0	 8.600030000017847e+000	 9.533315502449996e+000	 1.000097604494841e+001
0	 8.600030000017846e+000	 9.599986199732193e+000	 1.000072189195654e+001
0	 8.600030000017846e+000	 9.666656597019093e+000	 1.000050671261825e+001
0	 8.600030000017849e+000	 9.733326577638573e+000	 1.000032911194834e+001
0	 8.600030000017849e+000	 9.799996024918523e+000	 1.000018769586263e+001
0	 8.600030000017847e+000	 9.866664822186818e+000	 1.000008107117837e+001
0	 8.600030000017846e+000	 9.933332852771347e+000	 1.000000784561379e+001
0	 8.600030000017849e+000	 1.000000000000000e+001	 9.999966627788734e+000
0	 8.666700000016668e+000	 9.333302777352785e+000	 1.000186179440110e+001
0	 8.666700000016668e+000	 9.399973674588178e+000	 1.000150749021599e+001
0	 8.666700000016666e+000	 9.466644621844621e+000	 1.000119346528366e+001
0	 8.666700000016663e+000	 9.533315502449998e+000	 1.000091844908449e+001
0	 8.666700000016666e+000	 9.599986199732195e+000	 1.000068117194026e+001
0	 8.666700000016666e+000	 9.666656597019093e+000	 1.000048036501410e+001
0	 8.666700000016665e+000	 9.733326577638575e+000	 1.000031476031066e+001
0	 8.666700000016666e+000	 9.799996024918521e+000	 1.000018309067601e+001
0	 8.666700000016666e+000	 9.866664822186818e+000	 1.000008408979766e+001
0	 8.666700000016665e+000	 9.933332852771349e+000	 1.000001649220509e+001
0	 8.666700000016666e+000	 1.000000000000000e+001	 9.999979033269259e+000
0	 8.666700000016666e+000	 0.000000000000000e+000	 9.883436916036466e+000
0	 8.666700000016668e+000	 6.666714722864757e-002	 9.883540587167239e+000
0	 8.666700000016665e+000	 1.333351778131789e-001	 9.883753913471463e+000
0	 8.666700000016668e+000	 2.000039750814772e-001	 9.884077981267570e+000
0	 8.666700000016668e+000	 2.666734223614256e-001	 9.884513878700185e+000
0	 8.666700000016666e+000	 3.333434029809069e-001	 9.885062695739913e+000
0	 8.666700000016668e+000	 4.000138002678044e-001	 9.885725524183295e+000
0	 8.666700000016666e+000	 4.666844975500011e-001	 9.886503457652704e+000
0	 8.666700000016668e+000	 5.333553781553803e-001	 9.887397591596386e+000
0	 8.666700000016666e+000	 6.000263254118247e-001	 9.888409023288453e+000
0	 8.666700000016666e+000	 6.666972226472175e-001	 9.889538851828990e+000
0	 8.733360002791901e+000	 0.000000000000000e+000	 9.873840733766961e+000
0	 8.733360002791903e+000	 6.666714722864754e-002	 9.873943568986597e+000
0	 8.733360002791907e+000	 1.333351778131790e-001	 9.874159509446002e+000
0	 8.733360002791903e+000	 2.000039750814772e-001	 9.874489551935385e+000
0	 8.733360002791899e+000	 2.666734223614254e-001	 9.874934695064741e+000
0	 8.733360002791901e+000	 3.333434029809069e-001	 9.875495939263749e+000
0	 8.733360002791899e+000	 4.000138002678043e-001	 9.876174286781618e+000
0	 8.733360002791903e+000	 4.666844975500012e-001	 9.876970741687050e+000
0	 8.733360002791903e+000	 5.333553781553801e-001	 9.877886309868257e+000
0	 8.733360002791903e+000	 6.000263254118248e-001	 9.878921999032984e+000
0	 8.733360002791899e+000	 6.666972226472177e-001	 9.880078818708572e+000
0	 8.800020022230555e+000	 0.000000000000000e+000	 9.864128298692275e+000
0	 8.800020022230559e+000	 6.666714722864757e-002	 9.864227338536466e+000
0	 8.800020022230553e+000	 1.333351778131789e-001	 9.864442930779447e+000
0	 8.800020022230555e+000	 2.000039750814773e-001	 9.864775987919220e+000
0	 8.800020022230555e+000	 2.666734223614257e-001	 9.865227424271891e+000
0	 8.800020022230553e+000	 3.333434029809069e-001	 9.865798155971490e+000
0	 8.800020022230555e+000	 4.000138002678044e-001	 9.866489100969858e+000
0	 8.800020022230552e+000	 4.666844975500011e-001	 9.867301179036648e+000
0	 8.800020022230555e+000	 5.333553781553803e-001	 9.868235311759259e+000
0	 8.800020022230553e+000	 6.000263254118246e-001	 9.869292422542898e+000
0	 8.800020022230555e+000	 6.666972226472178e-001	 9.870473436610686e+000
0	 8.866680074997039e+000	 0.000000000000000e+000	 9.854275161630987e+000
0	 8.866680074997042e+000	 6.666714722864757e-002	 9.854368324165694e+000
0	 8.866680074997040e+000	 1.333351778131790e-001	 9.854581526802704e+000
0	 8.866680074997039e+000	 2.000039750814773e-001	 9.854915602987195e+000
0	 8.866680074997042e+000	 2.666734223614256e-001	 9.855371387985768e+000
0	 8.866680074997037e+000	 3.333434029809068e-001	 9.855949718886334e+000
0	 8.866680074997039e+000	 4.000138002678042e-001	 9.856651434598007e+000
0	 8.866680074997039e+000	 4.666844975500011e-001	 9.857477375851032e+000
0	 8.866680074997039e+000	 5.333553781553801e-001	 9.858428385196801e+000
0	 8.866680074997040e+000	 6.000263254118248e-001	 9.859505307007881e+000
0	 8.866680074997039e+000	 6.666972226472177e-001	 9.860708987478107e+000
0	 8.933340177755776e+000	 0.000000000000000e+000	 9.844256873222399e+000
0	 8.933340177755776e+000	 6.666714722864754e-002	 9.844342954040915e+000
0	 8.933340177755774e+000	 1.333351778131789e-001	 9.844552646662285e+000
0	 8.933340177755779e+000	 2.000039750814773e-001	 9.844886710721415e+000
0	 8.933340177755776e+000	 2.666734223614256e-001	 9.845345907683576e+000
0	 8.933340177755776e+000	 3.333434029809069e-001	 9.845931000844288e+000
0	 8.933340177755778e+000	 4.000138002678043e-001	 9.846642755329148e+000
0	 8.933340177755776e+000	 4.666844975500012e-001	 9.847481938093807e+000
0	 8.933340177755776e+000	 5.333553781553803e-001	 9.848449317923977e+000
0	 8.933340177755778e+000	 6.000263254118247e-001	 9.849545665435478e+000
0	 8.933340177755776e+000	 6.666972226472177e-001	 9.850771753074294e+000
0	 9.000000347171179e+000	 0.000000000000000e+000	 9.834048983926573e+000
0	 9.000000347171183e+000	 6.666714722864758e-002	 9.834127656146634e+000
0	 9.000000347171179e+000	 1.333351778131789e-001	 9.834333639320258e+000
0	 9.000000347171179e+000	 2.000039750814773e-001	 9.834667624517975e+000
0	 9.000000347171179e+000	 2.666734223614256e-001	 9.835130304655616e+000
0	 9.000000347171181e+000	 3.333434029809069e-001	 9.835722374494123e+000
0	 9.000000347171177e+000	 4.000138002678042e-001	 9.836444530639486e+000
0	 9.000000347171177e+000	 4.666844975500010e-001	 9.837297471542659e+000
0	 9.000000347171179e+000	 5.333553781553801e-001	 9.838281897499563e+000
0	 9.000000347171177e+000	 6.000263254118247e-001	 9.839398510651124e+000
0	 9.000000347171179e+000	 6.666972226472178e-001	 9.840648014983367e+000
0	 9.066660599907664e+000	 0.000000000000000e+000	 9.823627044024303e+000
0	 9.066660599907667e+000	 6.666714722864754e-002	 9.823698858285180e+000
0	 9.066660599907667e+000	 1.333351778131790e-001	 9.823901853554322e+000
0	 9.066660599907666e+000	 2.000039750814773e-001	 9.824236657587026e+000
0	 9.066660599907664e+000	 2.666734223614255e-001	 9.824703900005233e+000
0	 9.066660599907664e+000	 3.333434029809069e-001	 9.825304212297388e+000
0	 9.066660599907666e+000	 4.000138002678044e-001	 9.826038227818371e+000
0	 9.066660599907666e+000	 4.666844975500011e-001	 9.826906581789391e+000
0	 9.066660599907667e+000	 5.333553781553801e-001	 9.827909911298002e+000
0	 9.066660599907666e+000	 6.000263254118248e-001	 9.829048855298115e+000
0	 9.066660599907666e+000	 6.666972226472178e-001	 9.830324054610127e+000
0	 9.133320952629653e+000	 0.000000000000000e+000	 9.812966603617179e+000
0	 9.133320952629655e+000	 6.666714722864757e-002	 9.813032988076735e+000
0	 9.133320952629653e+000	 1.333351778131789e-001	 9.813234637957766e+000
0	 9.133320952629653e+000	 2.000039750814772e-001	 9.813572122952692e+000
0	 9.133320952629651e+000	 2.666734223614255e-001	 9.814046014648847e+000
0	 9.133320952629651e+000	 3.333434029809069e-001	 9.814656886528431e+000
0	 9.133320952629655e+000	 4.000138002678044e-001	 9.815405313968283e+000
0	 9.133320952629651e+000	 4.666844975500011e-001	 9.816291874239902e+000
0	 9.133320952629651e+000	 5.333553781553800e-001	 9.817317146509424e+000
0	 9.133320952629653e+000	 6.000263254118246e-001	 9.818481711837638e+000
0	 9.133320952629653e+000	 6.666972226472175e-001	 9.819786153180086e+000
0	 9.199981422001555e+000	 0.000000000000000e+000	 9.802043212627494e+000
0	 9.199981422001557e+000	 6.666714722864756e-002	 9.802106472959316e+000
0	 9.199981422001558e+000	 1.333351778131789e-001	 9.802309340939486e+000
0	 9.199981422001557e+000	 2.000039750814773e-001	 9.802652333453125e+000
0	 9.199981422001558e+000	 2.666734223614256e-001	 9.803135969316006e+000
0	 9.199981422001553e+000	 3.333434029809069e-001	 9.803760769274357e+000
0	 9.199981422001555e+000	 4.000138002678044e-001	 9.804527256004784e+000
0	 9.199981422001553e+000	 4.666844975500012e-001	 9.805435954114152e+000
0	 9.199981422001557e+000	 5.333553781553803e-001	 9.806487390139655e+000
0	 9.199981422001555e+000	 6.000263254118247e-001	 9.807682092548767e+000
0	 9.199981422001555e+000	 6.666972226472177e-001	 9.809020591739422e+000
0	 9.266642024687791e+000	 0.000000000000000e+000	 9.790832420798354e+000
0	 9.266642024687791e+000	 6.666714722864756e-002	 9.790895740188800e+000
0	 9.266642024687791e+000	 1.333351778131789e-001	 9.791103310723958e+000
0	 9.266642024687791e+000	 2.000039750814772e-001	 9.791455601740502e+000
0	 9.266642024687792e+000	 2.666734223614256e-001	 9.791953084549299e+000
0	 9.266642024687792e+000	 3.333434029809069e-001	 9.792596232435116e+000
0	 9.266642024687791e+000	 4.000138002678044e-001	 9.793385520656639e+000
0	 9.266642024687794e+000	 4.666844975500012e-001	 9.794321426446267e+000
0	 9.266642024687791e+000	 5.333553781553801e-001	 9.795404429010201e+000
0	 9.266642024687792e+000	 6.000263254118247e-001	 9.796635009528471e+000
0	 9.266642024687791e+000	 6.666972226472178e-001	 9.798013651155005e+000
0	 9.333302777352783e+000	 0.000000000000000e+000	 9.779309777693594e+000
0	 9.333302777352783e+000	 6.666714722864756e-002	 9.779377216838945e+000
0	 9.333302777352783e+000	 1.333351778131789e-001	 9.779593895351304e+000
0	 9.333302777352785e+000	 2.000039750814772e-001	 9.779960240281051e+000
0	 9.333302777352779e+000	 2.666734223614256e-001	 9.780476680704426e+000
0	 9.333302777352783e+000	 3.333434029809069e-001	 9.781143647723440e+000
0	 9.333302777352781e+000	 4.000138002678044e-001	 9.781961574465710e+000
0	 9.333302777352781e+000	 4.666844975500011e-001	 9.782930896084412e+000
0	 9.333302777352783e+000	 5.333553781553801e-001	 9.784052049758277e+000
0	 9.333302777352783e+000	 6.000263254118248e-001	 9.785325474691616e+000
0	 9.333302777352783e+000	 6.666972226472175e-001	 9.786751612114408e+000
0	 8.666700000016666e+000	 6.666972226472175e-001	 9.889538851828990e+000
0	 8.666700000016666e+000	 7.333579753122048e-001	 9.890767257708355e+000
0	 8.666700000016668e+000	 8.000185779984420e-001	 9.892075321439219e+000
0	 8.666700000016665e+000	 8.666790473703454e-001	 9.893464958175704e+000
0	 8.666700000016663e+000	 9.333394000923321e-001	 9.894938082873662e+000
0	 8.666700000016668e+000	 9.999996528288192e-001	 9.896496610290722e+000
0	 8.666700000016665e+000	 1.066659822244222e+000	 9.898142454986305e+000
0	 8.666700000016666e+000	 1.133319925002959e+000	 9.899877531321600e+000
0	 8.666700000016665e+000	 1.199979977769445e+000	 9.901703753459579e+000
0	 8.666700000016666e+000	 1.266639997208098e+000	 9.903623035364994e+000
0	 8.666700000016666e+000	 1.333299999983334e+000	 9.905637290804364e+000
0	 8.733360002791899e+000	 6.666972226472177e-001	 9.880078818708576e+000
0	 8.733360002791903e+000	 7.333579753122048e-001	 9.881336534177940e+000
0	 8.733360002791899e+000	 8.000185779984419e-001	 9.882675782489780e+000
0	 8.733360002791903e+000	 8.666790473703456e-001	 9.884098334090176e+000
0	 8.733360002791903e+000	 9.333394000923324e-001	 9.885605959228863e+000
0	 8.733360002791903e+000	 9.999996528288193e-001	 9.887200427959158e+000
0	 8.733360002791903e+000	 1.066659822244223e+000	 9.888883510138012e+000
0	 8.733360002791899e+000	 1.133319925002958e+000	 9.890656975426005e+000
0	 8.733360002791901e+000	 1.199979977769445e+000	 9.892522593287305e+000
0	 8.733360002791905e+000	 1.266639997208098e+000	 9.894482132989761e+000
0	 8.733360002791903e+000	 1.333299999983334e+000	 9.896537363604796e+000
0	 8.800020022230555e+000	 6.666972226472178e-001	 9.870473436610686e+000
0	 8.800020022230553e+000	 7.333579753122047e-001	 9.871758193523851e+000
0	 8.800020022230555e+000	 8.000185779984421e-001	 9.873127381866759e+000
0	 8.800020022230553e+000	 8.666790473703455e-001	 9.874582642167670e+000
0	 8.800020022230557e+000	 9.333394000923325e-001	 9.876125614758182e+000
0	 8.800020022230553e+000	 9.999996528288190e-001	 9.877757939773254e+000
0	 8.800020022230555e+000	 1.066659822244222e+000	 9.879481257151195e+000
0	 8.800020022230553e+000	 1.133319925002959e+000	 9.881297206633665e+000
0	 8.800020022230553e+000	 1.199979977769446e+000	 9.883207427765676e+000
0	 8.800020022230553e+000	 1.266639997208098e+000	 9.885213559895627e+000
0	 8.800020022230555e+000	 1.333299999983333e+000	 9.887317242175248e+000
0	 8.866680074997039e+000	 6.666972226472177e-001	 9.860708987478109e+000
0	 8.866680074997039e+000	 7.333579753122048e-001	 9.862019724994482e+000
0	 8.866680074997042e+000	 8.000185779984418e-001	 9.863418650119677e+000
0	 8.866680074997039e+000	 8.666790473703451e-001	 9.864907288252516e+000
0	 8.866680074997042e+000	 9.333394000923324e-001	 9.866487164592977e+000
0	 8.866680074997039e+000	 9.999996528288191e-001	 9.868159804142360e+000
0	 8.866680074997042e+000	 1.066659822244223e+000	 9.869926731703115e+000
0	 8.866680074997040e+000	 1.133319925002959e+000	 9.871789471878966e+000
0	 8.866680074997040e+000	 1.199979977769445e+000	 9.873749549074836e+000
0	 8.866680074997039e+000	 1.266639997208098e+000	 9.875808487496915e+000
0	 8.866680074997039e+000	 1.333299999983334e+000	 9.877967811152610e+000
0	 8.933340177755776e+000	 6.666972226472177e-001	 9.850771753074296e+000
0	 8.933340177755776e+000	 7.333579753122048e-001	 9.852108617662275e+000
0	 8.933340177755778e+000	 8.000185779984419e-001	 9.853538117626036e+000
0	 8.933340177755778e+000	 8.666790473703454e-001	 9.855061678021526e+000
0	 8.933340177755778e+000	 9.333394000923324e-001	 9.856680723702189e+000
0	 8.933340177755774e+000	 9.999996528288189e-001	 9.858396679318943e+000
0	 8.933340177755776e+000	 1.066659822244223e+000	 9.860210969320235e+000
0	 8.933340177755776e+000	 1.133319925002959e+000	 9.862125017951971e+000
0	 8.933340177755774e+000	 1.199979977769445e+000	 9.864140249257579e+000
0	 8.933340177755778e+000	 1.266639997208098e+000	 9.866258087077977e+000
0	 8.933340177755776e+000	 1.333299999983334e+000	 9.868479955051567e+000
0	 9.000000347171179e+000	 6.666972226472178e-001	 9.840648014983367e+000
0	 9.000000347171179e+000	 7.333579753122046e-001	 9.842012360423773e+000
0	 9.000000347171181e+000	 8.000185779984418e-001	 9.843474314591409e+000
0	 9.000000347171179e+000	 8.666790473703457e-001	 9.845035216984162e+000
0	 9.000000347171181e+000	 9.333394000923326e-001	 9.846696406892352e+000
0	 9.000000347171179e+000	 9.999996528288192e-001	 9.848459223398665e+000
0	 9.000000347171179e+000	 1.066659822244222e+000	 9.850325005378204e+000
0	 9.000000347171181e+000	 1.133319925002959e+000	 9.852295091498451e+000
0	 9.000000347171177e+000	 1.199979977769445e+000	 9.854370820219307e+000
0	 9.000000347171181e+000	 1.266639997208099e+000	 9.856553529793080e+000
0	 9.000000347171181e+000	 1.333299999983334e+000	 9.858844558264467e+000
0	 9.066660599907666e+000	 6.666972226472178e-001	 9.830324054610127e+000
0	 9.066660599907666e+000	 7.333579753122048e-001	 9.831718441999575e+000
0	 9.066660599907667e+000	 8.000185779984418e-001	 9.833215771049391e+000
0	 9.066660599907669e+000	 8.666790473703456e-001	 9.834817310482396e+000
0	 9.066660599907664e+000	 9.333394000923323e-001	 9.836524328807634e+000
0	 9.066660599907666e+000	 9.999996528288191e-001	 9.838338094320314e+000
0	 9.066660599907667e+000	 1.066659822244222e+000	 9.840259875101848e+000
0	 9.066660599907666e+000	 1.133319925002959e+000	 9.842290939019827e+000
0	 9.066660599907666e+000	 1.199979977769445e+000	 9.844432553728069e+000
0	 9.066660599907666e+000	 1.266639997208098e+000	 9.846685986666534e+000
0	 9.066660599907666e+000	 1.333299999983334e+000	 9.849052505061406e+000
0	 9.133320952629653e+000	 6.666972226472175e-001	 9.819786153180088e+000
0	 9.133320952629653e+000	 7.333579753122048e-001	 9.821214350934378e+000
0	 9.133320952629653e+000	 8.000185779984418e-001	 9.822751016861625e+000
0	 9.133320952629649e+000	 8.666790473703454e-001	 9.824397363690741e+000
0	 9.133320952629653e+000	 9.333394000923326e-001	 9.826154603929766e+000
0	 9.133320952629653e+000	 9.999996528288191e-001	 9.828023949865832e+000
0	 9.133320952629655e+000	 1.066659822244222e+000	 9.830006613565207e+000
0	 9.133320952629651e+000	 1.133319925002959e+000	 9.832103806873269e+000
0	 9.133320952629653e+000	 1.199979977769445e+000	 9.834316741414529e+000
0	 9.133320952629651e+000	 1.266639997208098e+000	 9.836646628592604e+000
0	 9.133320952629651e+000	 1.333299999983334e+000	 9.839094679590270e+000
0	 9.199981422001555e+000	 6.666972226472177e-001	 9.809020591739422e+000
0	 9.199981422001557e+000	 7.333579753122048e-001	 9.810487575596939e+000
0	 9.199981422001555e+000	 8.000185779984417e-001	 9.812068581717817e+000
0	 9.199981422001555e+000	 8.666790473703455e-001	 9.813764781616337e+000
0	 9.199981422001555e+000	 9.333394000923323e-001	 9.815577346578145e+000
0	 9.199981422001557e+000	 9.999996528288192e-001	 9.817507447660347e+000
0	 9.199981422001557e+000	 1.066659822244222e+000	 9.819556255691502e+000
0	 9.199981422001557e+000	 1.133319925002959e+000	 9.821724941271581e+000
0	 9.199981422001555e+000	 1.199979977769446e+000	 9.824014674771977e+000
0	 9.199981422001553e+000	 1.266639997208098e+000	 9.826426626335561e+000
0	 9.199981422001555e+000	 1.333299999983334e+000	 9.828961965876616e+000
0	 9.266642024687791e+000	 6.666972226472178e-001	 9.798013651155003e+000
0	 9.266642024687791e+000	 7.333579753122047e-001	 9.799525604180097e+000
0	 9.266642024687792e+000	 8.000185779984418e-001	 9.801156995135735e+000
0	 9.266642024687792e+000	 8.666790473703455e-001	 9.802908969098839e+000
0	 9.266642024687792e+000	 9.333394000923323e-001	 9.804782670909749e+000
0	 9.266642024687792e+000	 9.999996528288192e-001	 9.806779245172162e+000
0	 9.266642024687791e+000	 1.066659822244223e+000	 9.808899836253193e+000
0	 9.266642024687791e+000	 1.133319925002959e+000	 9.811145588283319e+000
0	 9.266642024687791e+000	 1.199979977769446e+000	 9.813517645156395e+000
0	 9.266642024687794e+000	 1.266639997208098e+000	 9.816017150529685e+000
0	 9.266642024687792e+000	 1.333299999983334e+000	 9.818645247823808e+000
0	 9.333302777352783e+000	 6.666972226472175e-001	 9.786751612114408e+000
0	 9.333302777352783e+000	 7.333579753122046e-001	 9.788315924700829e+000
0	 9.333302777352783e+000	 8.000185779984418e-001	 9.790004786461163e+000
0	 9.333302777352783e+000	 8.666790473703453e-001	 9.791819330810503e+000
0	 9.333302777352781e+000	 9.333394000923322e-001	 9.793760690919172e+000
0	 9.333302777352779e+000	 9.999996528288190e-001	 9.795829999712732e+000
0	 9.333302777352783e+000	 1.066659822244222e+000	 9.798028389871927e+000
0	 9.333302777352781e+000	 1.133319925002959e+000	 9.800356993832740e+000
0	 9.333302777352781e+000	 1.199979977769445e+000	 9.802816943786359e+000
0	 9.333302777352781e+000	 1.266639997208098e+000	 9.805409371679218e+000
0	 9.333302777352783e+000	 1.333299999983334e+000	 9.808135409212925e+000
0	 8.666700000016666e+000	 1.333299999983334e+000	 9.905637290804366e+000
0	 8.666700000016668e+000	 1.399969999982150e+000	 9.907720896696059e+000
0	 8.666700000016665e+000	 1.466639999981866e+000	 9.909848442310921e+000
0	 8.666700000016666e+000	 1.533309999982383e+000	 9.912023087959550e+000
0	 8.666700000016668e+000	 1.599979999983600e+000	 9.914247993952555e+000
0	 8.666700000016666e+000	 1.666649999985417e+000	 9.916526320600497e+000
0	 8.666700000016666e+000	 1.733319999987733e+000	 9.918861228213977e+000
0	 8.666700000016665e+000	 1.799989999990450e+000	 9.921255877103578e+000
0	 8.666700000016665e+000	 1.866659999993467e+000	 9.923713427579880e+000
0	 8.666700000016666e+000	 1.933329999996684e+000	 9.926237039953502e+000
0	 8.666700000016666e+000	 2.000000000000000e+000	 9.928829874535003e+000
0	 8.733360002791903e+000	 1.333299999983334e+000	 9.896537363604798e+000
0	 8.733360002791901e+000	 1.399969999982150e+000	 9.898664664558620e+000
0	 8.733360002791901e+000	 1.466639999981867e+000	 9.900840342644194e+000
0	 8.733360002791901e+000	 1.533309999982383e+000	 9.903067004580034e+000
0	 8.733360002791901e+000	 1.599979999983600e+000	 9.905347257084710e+000
0	 8.733360002791901e+000	 1.666649999985416e+000	 9.907683706876755e+000
0	 8.733360002791901e+000	 1.733319999987733e+000	 9.910078960674714e+000
0	 8.733360002791903e+000	 1.799989999990450e+000	 9.912535625197144e+000
0	 8.733360002791903e+000	 1.866659999993467e+000	 9.915056307162587e+000
0	 8.733360002791903e+000	 1.933329999996684e+000	 9.917643613289604e+000
0	 8.733360002791903e+000	 2.000000000000000e+000	 9.920300150296724e+000
0	 8.800020022230555e+000	 1.333299999983333e+000	 9.887317242175248e+000
0	 8.800020022230555e+000	 1.399969999982150e+000	 9.889495987255494e+000
0	 8.800020022230555e+000	 1.466639999981866e+000	 9.891726992899647e+000
0	 8.800020022230555e+000	 1.533309999982383e+000	 9.894012394729106e+000
0	 8.800020022230559e+000	 1.599979999983600e+000	 9.896354328365245e+000
0	 8.800020022230553e+000	 1.666649999985416e+000	 9.898754929429428e+000
0	 8.800020022230557e+000	 1.733319999987733e+000	 9.901216333543038e+000
0	 8.800020022230553e+000	 1.799989999990450e+000	 9.903740676327434e+000
0	 8.800020022230555e+000	 1.866659999993467e+000	 9.906330093404025e+000
0	 8.800020022230557e+000	 1.933329999996683e+000	 9.908986720394168e+000
0	 8.800020022230555e+000	 2.000000000000000e+000	 9.911712692919233e+000
0	 8.866680074997039e+000	 1.333299999983334e+000	 9.877967811152612e+000
0	 8.866680074997042e+000	 1.399969999982150e+000	 9.880205426940611e+000
0	 8.866680074997039e+000	 1.466639999981866e+000	 9.882498727459975e+000
0	 8.866680074997039e+000	 1.533309999982382e+000	 9.884849459730035e+000
0	 8.866680074997042e+000	 1.599979999983599e+000	 9.887259370770146e+000
0	 8.866680074997042e+000	 1.666649999985417e+000	 9.889730207599619e+000
0	 8.866680074997040e+000	 1.733319999987733e+000	 9.892263717237810e+000
0	 8.866680074997042e+000	 1.799989999990450e+000	 9.894861646704053e+000
0	 8.866680074997040e+000	 1.866659999993467e+000	 9.897525743017670e+000
0	 8.866680074997040e+000	 1.933329999996683e+000	 9.900257753198009e+000
0	 8.866680074997044e+000	 2.000000000000000e+000	 9.903059424264413e+000
0	 8.933340177755776e+000	 1.333299999983334e+000	 9.868479955051567e+000
0	 8.933340177755774e+000	 1.399969999982150e+000	 9.870783545653834e+000
0	 8.933340177755778e+000	 1.466639999981867e+000	 9.873145880602035e+000
0	 8.933340177755774e+000	 1.533309999982383e+000	 9.875568400808744e+000
0	 8.933340177755776e+000	 1.599979999983600e+000	 9.878052547186529e+000
0	 8.933340177755778e+000	 1.666649999985417e+000	 9.880599760647950e+000
0	 8.933340177755778e+000	 1.733319999987733e+000	 9.883211482105565e+000
0	 8.933340177755776e+000	 1.799989999990450e+000	 9.885889152471934e+000
0	 8.933340177755778e+000	 1.866659999993467e+000	 9.888634212659644e+000
0	 8.933340177755774e+000	 1.933329999996684e+000	 9.891448103581256e+000
0	 8.933340177755774e+000	 1.999999999999999e+000	 9.894332266149316e+000
0	 9.000000347171181e+000	 1.333299999983334e+000	 9.858844558264471e+000
0	 9.000000347171179e+000	 1.399969999982150e+000	 9.861220905320797e+000
0	 9.000000347171181e+000	 1.466639999981866e+000	 9.863658786496906e+000
0	 9.000000347171181e+000	 1.533309999982383e+000	 9.866159419093854e+000
0	 9.000000347171177e+000	 1.599979999983600e+000	 9.868724020412728e+000
0	 9.000000347171177e+000	 1.666649999985416e+000	 9.871353807754579e+000
0	 9.000000347171179e+000	 1.733319999987733e+000	 9.874049998420489e+000
0	 9.000000347171177e+000	 1.799989999990449e+000	 9.876813809711539e+000
0	 9.000000347171179e+000	 1.866659999993467e+000	 9.879646458928788e+000
0	 9.000000347171177e+000	 1.933329999996683e+000	 9.882549163373327e+000
0	 9.000000347171181e+000	 2.000000000000000e+000	 9.885523140346217e+000
0	 9.066660599907666e+000	 1.333299999983334e+000	 9.849052505061406e+000
0	 9.066660599907664e+000	 1.399969999982150e+000	 9.851508067753029e+000
0	 9.066660599907667e+000	 1.466639999981866e+000	 9.854027779209865e+000
0	 9.066660599907666e+000	 1.533309999982383e+000	 9.856612715616668e+000
0	 9.066660599907667e+000	 1.599979999983600e+000	 9.859263953158195e+000
0	 9.066660599907664e+000	 1.666649999985416e+000	 9.861982568019187e+000
0	 9.066660599907664e+000	 1.733319999987733e+000	 9.864769636384423e+000
0	 9.066660599907664e+000	 1.799989999990450e+000	 9.867626234438610e+000
0	 9.066660599907666e+000	 1.866659999993467e+000	 9.870553438366528e+000
0	 9.066660599907666e+000	 1.933329999996684e+000	 9.873552324352929e+000
0	 9.066660599907669e+000	 2.000000000000000e+000	 9.876623968582576e+000
0	 9.133320952629651e+000	 1.333299999983334e+000	 9.839094679590271e+000
0	 9.133320952629651e+000	 1.399969999982150e+000	 9.841635594647878e+000
0	 9.133320952629651e+000	 1.466639999981867e+000	 9.844243192700379e+000
0	 9.133320952629651e+000	 1.533309999982383e+000	 9.846918491311168e+000
0	 9.133320952629648e+000	 1.599979999983599e+000	 9.849662508043590e+000
0	 9.133320952629653e+000	 1.666649999985416e+000	 9.852476260461028e+000
0	 9.133320952629651e+000	 1.733319999987733e+000	 9.855360766126832e+000
0	 9.133320952629649e+000	 1.799989999990450e+000	 9.858317042604368e+000
0	 9.133320952629655e+000	 1.866659999993467e+000	 9.861346107457015e+000
0	 9.133320952629651e+000	 1.933329999996684e+000	 9.864448978248120e+000
0	 9.133320952629655e+000	 2.000000000000000e+000	 9.867626672541068e+000
0	 9.199981422001555e+000	 1.333299999983334e+000	 9.828961965876619e+000
0	 9.199981422001557e+000	 1.399969999982150e+000	 9.831594047588535e+000
0	 9.199981422001553e+000	 1.466639999981866e+000	 9.834295360822155e+000
0	 9.199981422001555e+000	 1.533309999982383e+000	 9.837066947014048e+000
0	 9.199981422001553e+000	 1.599979999983600e+000	 9.839909847600769e+000
0	 9.199981422001555e+000	 1.666649999985417e+000	 9.842825104018861e+000
0	 9.199981422001555e+000	 1.733319999987733e+000	 9.845813757704910e+000
0	 9.199981422001557e+000	 1.799989999990450e+000	 9.848876850095437e+000
0	 9.199981422001553e+000	 1.866659999993467e+000	 9.852015422627019e+000
0	 9.199981422001557e+000	 1.933329999996684e+000	 9.855230516736222e+000
0	 9.199981422001555e+000	 2.000000000000000e+000	 9.858523173859600e+000
0	 9.266642024687792e+000	 1.333299999983334e+000	 9.818645247823810e+000
0	 9.266642024687794e+000	 1.399969999982150e+000	 9.821373988044075e+000
0	 9.266642024687791e+000	 1.466639999981866e+000	 9.824174617323083e+000
0	 9.266642024687794e+000	 1.533309999982383e+000	 9.827048283464679e+000
0	 9.266642024687791e+000	 1.599979999983600e+000	 9.829996134272717e+000
0	 9.266642024687792e+000	 1.666649999985416e+000	 9.833019317551006e+000
0	 9.266642024687794e+000	 1.733319999987733e+000	 9.836118981103446e+000
0	 9.266642024687789e+000	 1.799989999990450e+000	 9.839296272733829e+000
0	 9.266642024687792e+000	 1.866659999993467e+000	 9.842552340246019e+000
0	 9.266642024687791e+000	 1.933329999996683e+000	 9.845888331443891e+000
0	 9.266642024687792e+000	 2.000000000000000e+000	 9.849305394131253e+000
0	 9.333302777352783e+000	 1.333299999983334e+000	 9.808135409212927e+000
0	 9.333302777352781e+000	 1.399969999982150e+000	 9.810965977369413e+000
0	 9.333302777352785e+000	 1.466639999981866e+000	 9.813871295845278e+000
0	 9.333302777352785e+000	 1.533309999982383e+000	 9.816852701305155e+000
0	 9.333302777352785e+000	 1.599979999983600e+000	 9.819911530413647e+000
0	 9.333302777352783e+000	 1.666649999985416e+000	 9.823049119835373e+000
0	 9.333302777352783e+000	 1.733319999987733e+000	 9.826266806234955e+000
0	 9.333302777352781e+000	 1.799989999990450e+000	 9.829565926277017e+000
0	 9.333302777352781e+000	 1.866659999993467e+000	 9.832947816626202e+000
0	 9.333302777352783e+000	 1.933329999996684e+000	 9.836413813947111e+000
0	 9.333302777352783e+000	 2.000000000000000e+000	 9.839965254904369e+000
0	 8.666700000016666e+000	 2.000000000000000e+000	 9.928829874535003e+000
0	 8.666700000016668e+000	 2.066670000003317e+000	 9.931459596587800e+000
0	 8.666700000016665e+000	 2.133340000006534e+000	 9.934092565276698e+000
0	 8.666700000016668e+000	 2.200010000009552e+000	 9.936729981764373e+000
0	 8.666700000016668e+000	 2.266680000012268e+000	 9.939373047213557e+000
0	 8.666700000016666e+000	 2.333350000014585e+000	 9.942022962786918e+000
0	 8.666700000016666e+000	 2.400020000016402e+000	 9.944680929647177e+000
0	 8.666700000016668e+000	 2.466690000017617e+000	 9.947348148957014e+000
0	 8.666700000016668e+000	 2.533360000018134e+000	 9.950025821879157e+000
0	 8.666700000016666e+000	 2.600030000017850e+000	 9.952715149576275e+000
0	 8.666700000016668e+000	 2.666700000016667e+000	 9.955417333211077e+000
0	 8.733360002791903e+000	 2.000000000000000e+000	 9.920300150296724e+000
0	 8.733360002791903e+000	 2.066670000003317e+000	 9.922993210816344e+000
0	 8.733360002791903e+000	 2.133340000006534e+000	 9.925689486953790e+000
0	 8.733360002791905e+000	 2.200010000009551e+000	 9.928390684636998e+000
0	 8.733360002791898e+000	 2.266680000012268e+000	 9.931098509793932e+000
0	 8.733360002791903e+000	 2.333350000014584e+000	 9.933814668352524e+000
0	 8.733360002791901e+000	 2.400020000016400e+000	 9.936540866240733e+000
0	 8.733360002791898e+000	 2.466690000017617e+000	 9.939278809386490e+000
0	 8.733360002791898e+000	 2.533360000018134e+000	 9.942030203717774e+000
0	 8.733360002791901e+000	 2.600030000017850e+000	 9.944796755162484e+000
0	 8.733360002791903e+000	 2.666700000016666e+000	 9.947580169648617e+000
0	 8.800020022230555e+000	 2.000000000000000e+000	 9.911712692919233e+000
0	 8.800020022230559e+000	 2.066670000003317e+000	 9.914475175216417e+000
0	 8.800020022230553e+000	 2.133340000006534e+000	 9.917241316948250e+000
0	 8.800020022230555e+000	 2.200010000009551e+000	 9.920013231874217e+000
0	 8.800020022230555e+000	 2.266680000012268e+000	 9.922793033753788e+000
0	 8.800020022230553e+000	 2.333350000014584e+000	 9.925582836346408e+000
0	 8.800020022230557e+000	 2.400020000016401e+000	 9.928384753411578e+000
0	 8.800020022230555e+000	 2.466690000017618e+000	 9.931200898708736e+000
0	 8.800020022230559e+000	 2.533360000018134e+000	 9.934033385997360e+000
0	 8.800020022230553e+000	 2.600030000017851e+000	 9.936884329036914e+000
0	 8.800020022230553e+000	 2.666700000016667e+000	 9.939755841586882e+000
0	 8.866680074997044e+000	 2.000000000000000e+000	 9.903059424264413e+000
0	 8.866680074997040e+000	 2.066670000003317e+000	 9.905897978281040e+000
0	 8.866680074997040e+000	 2.133340000006534e+000	 9.908741089070524e+000
0	 8.866680074997042e+000	 2.200010000009551e+000	 9.911591181289950e+000
0	 8.866680074997044e+000	 2.266680000012268e+000	 9.914450679596335e+000
0	 8.866680074997040e+000	 2.333350000014584e+000	 9.917322008646767e+000
0	 8.866680074997040e+000	 2.400020000016401e+000	 9.920207593098317e+000
0	 8.866680074997037e+000	 2.466690000017618e+000	 9.923109857608043e+000
0	 8.866680074997039e+000	 2.533360000018134e+000	 9.926031226832984e+000
0	 8.866680074997040e+000	 2.600030000017850e+000	 9.928974125430230e+000
0	 8.866680074997039e+000	 2.666700000016666e+000	 9.931940978056829e+000
0	 8.933340177755774e+000	 1.999999999999999e+000	 9.894332266149316e+000
0	 8.933340177755776e+000	 2.066670000003318e+000	 9.897254108463548e+000
0	 8.933340177755776e+000	 2.133340000006534e+000	 9.900181837095719e+000
0	 8.933340177755776e+000	 2.200010000009550e+000	 9.903118090666508e+000
0	 8.933340177755776e+000	 2.266680000012268e+000	 9.906065507796605e+000
0	 8.933340177755778e+000	 2.333350000014585e+000	 9.909026727106685e+000
0	 8.933340177755774e+000	 2.400020000016400e+000	 9.912004387217422e+000
0	 8.933340177755774e+000	 2.466690000017617e+000	 9.915001126749488e+000
0	 8.933340177755776e+000	 2.533360000018134e+000	 9.918019584323577e+000
0	 8.933340177755776e+000	 2.600030000017850e+000	 9.921062398560352e+000
0	 8.933340177755776e+000	 2.666700000016665e+000	 9.924132208080515e+000
0	 9.000000347171181e+000	 2.000000000000000e+000	 9.885523140346217e+000
0	 9.000000347171177e+000	 2.066670000003316e+000	 9.888536054177530e+000
0	 9.000000347171177e+000	 2.133340000006534e+000	 9.891556594763555e+000
0	 9.000000347171177e+000	 2.200010000009550e+000	 9.894587517754729e+000
0	 9.000000347171181e+000	 2.266680000012268e+000	 9.897631578801423e+000
0	 9.000000347171179e+000	 2.333350000014585e+000	 9.900691533554088e+000
0	 9.000000347171177e+000	 2.400020000016401e+000	 9.903770137663109e+000
0	 9.000000347171177e+000	 2.466690000017617e+000	 9.906870146778898e+000
0	 9.000000347171179e+000	 2.533360000018134e+000	 9.909994316551902e+000
0	 9.000000347171181e+000	 2.600030000017850e+000	 9.913145402632502e+000
0	 9.000000347171183e+000	 2.666700000016666e+000	 9.916326160671130e+000
0	 9.066660599907669e+000	 2.000000000000000e+000	 9.876623968582576e+000
0	 9.066660599907664e+000	 2.066670000003317e+000	 9.879736303796879e+000
0	 9.066660599907666e+000	 2.133340000006534e+000	 9.882858395778449e+000
0	 9.066660599907666e+000	 2.200010000009551e+000	 9.885993020273798e+000
0	 9.066660599907664e+000	 2.266680000012267e+000	 9.889142953029413e+000
0	 9.066660599907666e+000	 2.333350000014584e+000	 9.892310969791797e+000
0	 9.066660599907666e+000	 2.400020000016401e+000	 9.895499846307459e+000
0	 9.066660599907666e+000	 2.466690000017618e+000	 9.898712358322909e+000
0	 9.066660599907667e+000	 2.533360000018134e+000	 9.901951281584640e+000
0	 9.066660599907666e+000	 2.600030000017851e+000	 9.905219391839149e+000
0	 9.066660599907666e+000	 2.666700000016666e+000	 9.908519464832978e+000
0	 9.133320952629655e+000	 2.000000000000000e+000	 9.867626672541068e+000
0	 9.133320952629653e+000	 2.066670000003317e+000	 9.870847345655770e+000
0	 9.133320952629653e+000	 2.133340000006534e+000	 9.874080273809437e+000
0	 9.133320952629651e+000	 2.200010000009550e+000	 9.877328155911394e+000
0	 9.133320952629651e+000	 2.266680000012268e+000	 9.880593690870983e+000
0	 9.133320952629649e+000	 2.333350000014584e+000	 9.883879577597529e+000
0	 9.133320952629653e+000	 2.400020000016401e+000	 9.887188515000386e+000
0	 9.133320952629651e+000	 2.466690000017617e+000	 9.890523201988874e+000
0	 9.133320952629653e+000	 2.533360000018135e+000	 9.893886337472328e+000
0	 9.133320952629649e+000	 2.600030000017850e+000	 9.897280620360085e+000
0	 9.133320952629649e+000	 2.666700000016666e+000	 9.900708749561487e+000
0	 9.199981422001555e+000	 2.000000000000000e+000	 9.858523173859600e+000
0	 9.199981422001555e+000	 2.066670000003317e+000	 9.861861668048675e+000
0	 9.199981422001557e+000	 2.133340000006534e+000	 9.865215262490194e+000
0	 9.199981422001555e+000	 2.200010000009550e+000	 9.868586482323600e+000
0	 9.199981422001555e+000	 2.266680000012267e+000	 9.871977852688364e+000
0	 9.199981422001555e+000	 2.333350000014584e+000	 9.875391898723876e+000
0	 9.199981422001555e+000	 2.400020000016401e+000	 9.878831145569588e+000
0	 9.199981422001557e+000	 2.466690000017617e+000	 9.882298118364950e+000
0	 9.199981422001555e+000	 2.533360000018135e+000	 9.885795342249383e+000
0	 9.199981422001558e+000	 2.600030000017851e+000	 9.889325342362341e+000
0	 9.199981422001555e+000	 2.666700000016667e+000	 9.892890643843252e+000
0	 9.266642024687792e+000	 2.000000000000000e+000	 9.849305394131253e+000
0	 9.266642024687791e+000	 2.066670000003317e+000	 9.852771759230340e+000
0	 9.266642024687789e+000	 2.133340000006534e+000	 9.856256395419088e+000
0	 9.266642024687791e+000	 2.200010000009550e+000	 9.859761557135021e+000
0	 9.266642024687789e+000	 2.266680000012268e+000	 9.863289498815581e+000
0	 9.266642024687789e+000	 2.333350000014584e+000	 9.866842474898297e+000
0	 9.266642024687791e+000	 2.400020000016401e+000	 9.870422739820640e+000
0	 9.266642024687792e+000	 2.466690000017618e+000	 9.874032548020082e+000
0	 9.266642024687792e+000	 2.533360000018134e+000	 9.877674153934123e+000
0	 9.266642024687792e+000	 2.600030000017851e+000	 9.881349812000252e+000
0	 9.266642024687791e+000	 2.666700000016666e+000	 9.885061776655965e+000
0	 9.333302777352783e+000	 2.000000000000000e+000	 9.839965254904369e+000
0	 9.333302777352781e+000	 2.066670000003317e+000	 9.843570107415836e+000
0	 9.333302777352783e+000	 2.133340000006534e+000	 9.847196706159142e+000
0	 9.333302777352785e+000	 2.200010000009551e+000	 9.850846937938613e+000
0	 9.333302777352783e+000	 2.266680000012268e+000	 9.854522689558518e+000
0	 9.333302777352785e+000	 2.333350000014585e+000	 9.858225847823192e+000
0	 9.333302777352783e+000	 2.400020000016401e+000	 9.861958299536909e+000
0	 9.333302777352783e+000	 2.466690000017617e+000	 9.865721931503991e+000
0	 9.333302777352785e+000	 2.533360000018134e+000	 9.869518630528750e+000
0	 9.333302777352781e+000	 2.600030000017850e+000	 9.873350283415464e+000
0	 9.333302777352785e+000	 2.666700000016667e+000	 9.877218776968459e+000
0	 8.666700000016668e+000	 2.666700000016667e+000	 9.955417333211074e+000
0	 8.666700000016665e+000	 2.733360000014533e+000	 9.958106536967723e+000
0	 8.666700000016668e+000	 2.800020000011600e+000	 9.960758359875969e+000
0	 8.666700000016665e+000	 2.866680000008067e+000	 9.963374936372498e+000
0	 8.666700000016665e+000	 2.933340000004133e+000	 9.965958400893999e+000
0	 8.666700000016666e+000	 3.000000000000000e+000	 9.968510887877152e+000
0	 8.666700000016665e+000	 3.066659999995868e+000	 9.971034531758660e+000
0	 8.666700000016666e+000	 3.133319999991934e+000	 9.973531466975175e+000
0	 8.666700000016666e+000	 3.199979999988401e+000	 9.976003827963416e+000
0	 8.666700000016666e+000	 3.266639999985468e+000	 9.978453749160039e+000
0	 8.666700000016668e+000	 3.333299999983334e+000	 9.980883365001748e+000
0	 8.733360002791903e+000	 2.666700000016666e+000	 9.947580169648619e+000
0	 8.733360002791901e+000	 2.733360000014533e+000	 9.950354737963849e+000
0	 8.733360002791905e+000	 2.800020000011600e+000	 9.953095618817198e+000
0	 8.733360002791903e+000	 2.866680000008066e+000	 9.955804563494819e+000
0	 8.733360002791899e+000	 2.933340000004133e+000	 9.958483323282849e+000
0	 8.733360002791907e+000	 3.000000000000000e+000	 9.961133649467444e+000
0	 8.733360002791901e+000	 3.066659999995868e+000	 9.963757293334755e+000
0	 8.733360002791903e+000	 3.133319999991935e+000	 9.966356006170923e+000
0	 8.733360002791903e+000	 3.199979999988401e+000	 9.968931539262094e+000
0	 8.733360002791903e+000	 3.266639999985467e+000	 9.971485643894438e+000
0	 8.733360002791903e+000	 3.333299999983334e+000	 9.974020071354079e+000
0	 8.800020022230553e+000	 2.666700000016667e+000	 9.939755841586884e+000
0	 8.800020022230552e+000	 2.733360000014534e+000	 9.942622091697604e+000
0	 8.800020022230555e+000	 2.800020000011599e+000	 9.945457655990127e+000
0	 8.800020022230553e+000	 2.866680000008067e+000	 9.948263964018931e+000
0	 8.800020022230557e+000	 2.933340000004134e+000	 9.951042445338530e+000
0	 8.800020022230559e+000	 3.000000000000001e+000	 9.953794529503426e+000
0	 8.800020022230557e+000	 3.066659999995868e+000	 9.956521646068104e+000
0	 8.800020022230553e+000	 3.133319999991934e+000	 9.959225224587062e+000
0	 8.800020022230555e+000	 3.199979999988401e+000	 9.961906694614804e+000
0	 8.800020022230553e+000	 3.266639999985467e+000	 9.964567485705834e+000
0	 8.800020022230555e+000	 3.333299999983334e+000	 9.967209027414642e+000
0	 8.866680074997039e+000	 2.666700000016666e+000	 9.931940978056829e+000
0	 8.866680074997040e+000	 2.733360000014533e+000	 9.934905611289114e+000
0	 8.866680074997042e+000	 2.800020000011600e+000	 9.937841908606645e+000
0	 8.866680074997040e+000	 2.866680000008066e+000	 9.940751039251325e+000
0	 8.866680074997042e+000	 2.933340000004133e+000	 9.943634172465060e+000
0	 8.866680074997039e+000	 3.000000000000001e+000	 9.946492477489748e+000
0	 8.866680074997044e+000	 3.066659999995868e+000	 9.949327123567304e+000
0	 8.866680074997042e+000	 3.133319999991935e+000	 9.952139279939626e+000
0	 8.866680074997039e+000	 3.199979999988401e+000	 9.954930115848617e+000
0	 8.866680074997042e+000	 3.266639999985468e+000	 9.957700800536216e+000
0	 8.866680074997042e+000	 3.333299999983334e+000	 9.960452503244284e+000
0	 8.933340177755776e+000	 2.666700000016665e+000	 9.924132208080517e+000
0	 8.933340177755778e+000	 2.733360000014533e+000	 9.927202309854021e+000
0	 8.933340177755778e+000	 2.800020000011599e+000	 9.930245813879084e+000
0	 8.933340177755778e+000	 2.866680000008067e+000	 9.933263690504182e+000
0	 8.933340177755776e+000	 2.933340000004134e+000	 9.936256910077747e+000
0	 8.933340177755776e+000	 3.000000000000000e+000	 9.939226442948232e+000
0	 8.933340177755778e+000	 3.066659999995868e+000	 9.942173259464077e+000
0	 8.933340177755778e+000	 3.133319999991934e+000	 9.945098329973749e+000
0	 8.933340177755776e+000	 3.199979999988401e+000	 9.948002624825698e+000
0	 8.933340177755778e+000	 3.266639999985468e+000	 9.950887114368381e+000
0	 8.933340177755778e+000	 3.333299999983334e+000	 9.953752768950245e+000
0	 9.000000347171183e+000	 2.666700000016666e+000	 9.916326160671126e+000
0	 9.000000347171179e+000	 2.733360000014533e+000	 9.919509200503464e+000
0	 9.000000347171177e+000	 2.800020000011600e+000	 9.922666809020196e+000
0	 9.000000347171177e+000	 2.866680000008067e+000	 9.925799819095408e+000
0	 9.000000347171177e+000	 2.933340000004133e+000	 9.928909063603252e+000
0	 9.000000347171179e+000	 3.000000000000001e+000	 9.931995375417840e+000
0	 9.000000347171179e+000	 3.066659999995868e+000	 9.935059587413281e+000
0	 9.000000347171181e+000	 3.133319999991934e+000	 9.938102532463716e+000
0	 9.000000347171179e+000	 3.199979999988400e+000	 9.941125043443270e+000
0	 9.000000347171183e+000	 3.266639999985468e+000	 9.944127953226058e+000
0	 9.000000347171179e+000	 3.333299999983333e+000	 9.947112094686210e+000
0	 9.066660599907666e+000	 2.666700000016666e+000	 9.908519464832978e+000
0	 9.066660599907666e+000	 2.733360000014533e+000	 9.911823296344149e+000
0	 9.066660599907667e+000	 2.800020000011601e+000	 9.915102331243103e+000
0	 9.066660599907667e+000	 2.866680000008067e+000	 9.918357326348643e+000
0	 9.066660599907666e+000	 2.933340000004134e+000	 9.921589038479572e+000
0	 9.066660599907666e+000	 3.000000000000000e+000	 9.924798224454724e+000
0	 9.066660599907667e+000	 3.066659999995868e+000	 9.927985641092903e+000
0	 9.066660599907664e+000	 3.133319999991933e+000	 9.931152045212947e+000
0	 9.066660599907667e+000	 3.199979999988400e+000	 9.934298193633635e+000
0	 9.066660599907664e+000	 3.266639999985467e+000	 9.937424843173822e+000
0	 9.066660599907666e+000	 3.333299999983334e+000	 9.940532750652309e+000
0	 9.133320952629649e+000	 2.666700000016666e+000	 9.900708749561488e+000
0	 9.133320952629651e+000	 2.733360000014533e+000	 9.904141610478272e+000
0	 9.133320952629651e+000	 2.800020000011600e+000	 9.907549817761403e+000
0	 9.133320952629653e+000	 2.866680000008067e+000	 9.910934113593203e+000
0	 9.133320952629653e+000	 2.933340000004133e+000	 9.914295240156033e+000
0	 9.133320952629653e+000	 3.000000000000000e+000	 9.917633939632214e+000
0	 9.133320952629656e+000	 3.066659999995868e+000	 9.920950954204072e+000
0	 9.133320952629653e+000	 3.133319999991934e+000	 9.924247026053958e+000
0	 9.133320952629651e+000	 3.199979999988402e+000	 9.927522897364202e+000
0	 9.133320952629651e+000	 3.266639999985468e+000	 9.930779310317139e+000
0	 9.133320952629651e+000	 3.333299999983334e+000	 9.934017007095111e+000
0	 9.199981422001555e+000	 2.666700000016667e+000	 9.892890643843256e+000
0	 9.199981422001560e+000	 2.733360000014533e+000	 9.896461156003573e+000
0	 9.199981422001555e+000	 2.800020000011599e+000	 9.900006705789075e+000
0	 9.199981422001553e+000	 2.866680000008066e+000	 9.903528082164190e+000
0	 9.199981422001553e+000	 2.933340000004133e+000	 9.907026074093301e+000
0	 9.199981422001555e+000	 3.000000000000000e+000	 9.910501470540797e+000
0	 9.199981422001555e+000	 3.066659999995866e+000	 9.913955060471041e+000
0	 9.199981422001555e+000	 3.133319999991934e+000	 9.917387632848456e+000
0	 9.199981422001555e+000	 3.199979999988401e+000	 9.920799976637420e+000
0	 9.199981422001555e+000	 3.266639999985468e+000	 9.924192880802343e+000
0	 9.199981422001555e+000	 3.333299999983334e+000	 9.927567134307608e+000
0	 9.266642024687791e+000	 2.666700000016666e+000	 9.885061776655967e+000
0	 9.266642024687791e+000	 2.733360000014533e+000	 9.888778946013296e+000
0	 9.266642024687791e+000	 2.800020000011600e+000	 9.892470432540566e+000
0	 9.266642024687791e+000	 2.866680000008067e+000	 9.896137133402394e+000
0	 9.266642024687792e+000	 2.933340000004134e+000	 9.899779945763378e+000
0	 9.266642024687792e+000	 3.000000000000000e+000	 9.903399766788118e+000
0	 9.266642024687792e+000	 3.066659999995868e+000	 9.906997493641198e+000
0	 9.266642024687791e+000	 3.133319999991935e+000	 9.910574023487261e+000
0	 9.266642024687791e+000	 3.199979999988402e+000	 9.914130253490882e+000
0	 9.266642024687792e+000	 3.266639999985468e+000	 9.917667080816678e+000
0	 9.266642024687794e+000	 3.333299999983335e+000	 9.921185402629265e+000
0	 9.333302777352785e+000	 2.666700000016667e+000	 9.877218776968459e+000
0	 9.333302777352783e+000	 2.733360000014533e+000	 9.881091993596264e+000
0	 9.333302777352783e+000	 2.800020000011600e+000	 9.884938435230726e+000
0	 9.333302777352781e+000	 2.866680000008066e+000	 9.888759168654334e+000
0	 9.333302777352779e+000	 2.933340000004133e+000	 9.892555260649617e+000
0	 9.333302777352781e+000	 3.000000000000001e+000	 9.896327777999034e+000
0	 9.333302777352783e+000	 3.066659999995868e+000	 9.900077787485104e+000
0	 9.333302777352783e+000	 3.133319999991934e+000	 9.903806355890346e+000
0	 9.333302777352785e+000	 3.199979999988401e+000	 9.907514549997224e+000
0	 9.333302777352783e+000	 3.266639999985467e+000	 9.911203436588263e+000
0	 9.333302777352783e+000	 3.333299999983335e+000	 9.914874082445980e+000
0	 8.666700000016668e+000	 3.333299999983334e+000	 9.980883365001748e+000
0	 8.666700000016666e+000	 3.399969999982150e+000	 9.983273408638322e+000
0	 8.666700000016666e+000	 3.466639999981866e+000	 9.985602930726852e+000
0	 8.666700000016666e+000	 3.533309999982382e+000	 9.987872631152538e+000
0	 8.666700000016668e+000	 3.599979999983598e+000	 9.990083209800572e+000
0	 8.666700000016666e+000	 3.666649999985415e+000	 9.992235366556153e+000
0	 8.666700000016666e+000	 3.733319999987732e+000	 9.994329801304456e+000
0	 8.666700000016668e+000	 3.799989999990449e+000	 9.996367213930684e+000
0	 8.666700000016666e+000	 3.866659999993465e+000	 9.998348304320018e+000
0	 8.666700000016665e+000	 3.933329999996682e+000	 1.000027377235765e+001
0	 8.666700000016666e+000	 4.000000000000001e+000	 1.000214431792877e+001
0	 8.733360002791903e+000	 3.333299999983334e+000	 9.974020071354079e+000
0	 8.733360002791899e+000	 3.399969999982150e+000	 9.976515367924835e+000
0	 8.733360002791899e+000	 3.466639999981866e+000	 9.978950633530150e+000
0	 8.733360002791899e+000	 3.533309999982382e+000	 9.981326586356875e+000
0	 8.733360002791901e+000	 3.599979999983598e+000	 9.983643944591909e+000
0	 8.733360002791905e+000	 3.666649999985415e+000	 9.985903426422148e+000
0	 8.733360002791903e+000	 3.733319999987732e+000	 9.988105750034423e+000
0	 8.733360002791905e+000	 3.799989999990448e+000	 9.990251633615669e+000
0	 8.733360002791905e+000	 3.866659999993465e+000	 9.992341795352761e+000
0	 8.733360002791901e+000	 3.933329999996682e+000	 9.994376953432550e+000
0	 8.733360002791903e+000	 4.000000000000000e+000	 9.996357826041926e+000
0	 8.800020022230555e+000	 3.333299999983334e+000	 9.967209027414642e+000
0	 8.800020022230555e+000	 3.399969999982150e+000	 9.969811850250416e+000
0	 8.800020022230555e+000	 3.466639999981866e+000	 9.972355230781398e+000
0	 8.800020022230553e+000	 3.533309999982382e+000	 9.974839902346263e+000
0	 8.800020022230555e+000	 3.599979999983599e+000	 9.977266598283681e+000
0	 8.800020022230553e+000	 3.666649999985415e+000	 9.979636051932289e+000
0	 8.800020022230553e+000	 3.733319999987732e+000	 9.981948996630759e+000
0	 8.800020022230553e+000	 3.799989999990447e+000	 9.984206165717783e+000
0	 8.800020022230552e+000	 3.866659999993465e+000	 9.986408292532003e+000
0	 8.800020022230557e+000	 3.933329999996682e+000	 9.988556110412072e+000
0	 8.800020022230553e+000	 4.000000000000000e+000	 9.990650352696655e+000
0	 8.866680074997042e+000	 3.333299999983334e+000	 9.960452503244284e+000
0	 8.866680074997046e+000	 3.399969999982150e+000	 9.963165854044162e+000
0	 8.866680074997040e+000	 3.466639999981866e+000	 9.965820377543510e+000
0	 8.866680074997042e+000	 3.533309999982383e+000	 9.968416819082876e+000
0	 8.866680074997042e+000	 3.599979999983598e+000	 9.970955924002777e+000
0	 8.866680074997042e+000	 3.666649999985415e+000	 9.973438437643733e+000
0	 8.866680074997042e+000	 3.733319999987732e+000	 9.975865105346291e+000
0	 8.866680074997042e+000	 3.799989999990448e+000	 9.978236672450949e+000
0	 8.866680074997042e+000	 3.866659999993465e+000	 9.980553884298281e+000
0	 8.866680074997040e+000	 3.933329999996682e+000	 9.982817486228763e+000
0	 8.866680074997042e+000	 4.000000000000001e+000	 9.985028223582958e+000
0	 8.933340177755778e+000	 3.333299999983334e+000	 9.953752768950245e+000
0	 8.933340177755772e+000	 3.399969999982150e+000	 9.956580377786864e+000
0	 8.933340177755781e+000	 3.466639999981866e+000	 9.959349728935989e+000
0	 8.933340177755774e+000	 3.533309999982381e+000	 9.962061576590079e+000
0	 8.933340177755774e+000	 3.599979999983598e+000	 9.964716674941617e+000
0	 8.933340177755778e+000	 3.666649999985415e+000	 9.967315778183066e+000
0	 8.933340177755776e+000	 3.733319999987732e+000	 9.969859640506906e+000
0	 8.933340177755776e+000	 3.799989999990448e+000	 9.972349016105607e+000
0	 8.933340177755776e+000	 3.866659999993464e+000	 9.974784659171645e+000
0	 8.933340177755776e+000	 3.933329999996681e+000	 9.977167323897483e+000
0	 8.933340177755774e+000	 4.000000000000000e+000	 9.979497764475585e+000
0	 9.000000347171179e+000	 3.333299999983333e+000	 9.947112094686210e+000
0	 9.000000347171181e+000	 3.399969999982150e+000	 9.950058420011004e+000
0	 9.000000347171179e+000	 3.466639999981866e+000	 9.952946940134918e+000
0	 9.000000347171179e+000	 3.533309999982382e+000	 9.955778414952432e+000
0	 9.000000347171179e+000	 3.599979999983600e+000	 9.958553604358055e+000
0	 9.000000347171179e+000	 3.666649999985415e+000	 9.961273268246305e+000
0	 9.000000347171179e+000	 3.733319999987731e+000	 9.963938166511637e+000
0	 9.000000347171181e+000	 3.799989999990449e+000	 9.966549059048589e+000
0	 9.000000347171179e+000	 3.866659999993464e+000	 9.969106705751640e+000
0	 9.000000347171181e+000	 3.933329999996682e+000	 9.971611866515303e+000
0	 9.000000347171177e+000	 4.000000000000000e+000	 9.974065301234045e+000
0	 9.066660599907666e+000	 3.333299999983334e+000	 9.940532750652311e+000
0	 9.066660599907662e+000	 3.399969999982149e+000	 9.943602979300728e+000
0	 9.066660599907667e+000	 3.466639999981865e+000	 9.946615666372981e+000
0	 9.066660599907666e+000	 3.533309999982381e+000	 9.949571574315687e+000
0	 9.066660599907664e+000	 3.599979999983598e+000	 9.952471465575453e+000
0	 9.066660599907666e+000	 3.666649999985415e+000	 9.955316102598879e+000
0	 9.066660599907667e+000	 3.733319999987732e+000	 9.958106247832596e+000
0	 9.066660599907667e+000	 3.799989999990448e+000	 9.960842663723224e+000
0	 9.066660599907666e+000	 3.866659999993465e+000	 9.963526112717339e+000
0	 9.066660599907666e+000	 3.933329999996681e+000	 9.966157357261576e+000
0	 9.066660599907666e+000	 4.000000000000000e+000	 9.968737159802526e+000
0	 9.133320952629651e+000	 3.333299999983334e+000	 9.934017007095111e+000
0	 9.133320952629649e+000	 3.399969999982150e+000	 9.937217054291860e+000
0	 9.133320952629651e+000	 3.466639999981866e+000	 9.940359562939495e+000
0	 9.133320952629653e+000	 3.533309999982382e+000	 9.943445294886782e+000
0	 9.133320952629651e+000	 3.599979999983599e+000	 9.946475011982574e+000
0	 9.133320952629653e+000	 3.666649999985415e+000	 9.949449476075708e+000
0	 9.133320952629653e+000	 3.733319999987732e+000	 9.952369449014983e+000
0	 9.133320952629655e+000	 3.799989999990449e+000	 9.955235692649239e+000
0	 9.133320952629651e+000	 3.866659999993465e+000	 9.958048968827278e+000
0	 9.133320952629649e+000	 3.933329999996680e+000	 9.960810039397941e+000
0	 9.133320952629655e+000	 4.000000000000000e+000	 9.963519666210043e+000
0	 9.199981422001555e+000	 3.333299999983334e+000	 9.927567134307608e+000
0	 9.199981422001557e+000	 3.399969999982150e+000	 9.930903643671948e+000
0	 9.199981422001555e+000	 3.466639999981866e+000	 9.934182285180340e+000
0	 9.199981422001557e+000	 3.533309999982384e+000	 9.937403816933877e+000
0	 9.199981422001553e+000	 3.599979999983598e+000	 9.940568997033752e+000
0	 9.199981422001555e+000	 3.666649999985416e+000	 9.943678583581116e+000
0	 9.199981422001553e+000	 3.733319999987732e+000	 9.946733334677106e+000
0	 9.199981422001555e+000	 3.799989999990449e+000	 9.949734008422864e+000
0	 9.199981422001557e+000	 3.866659999993465e+000	 9.952681362919552e+000
0	 9.199981422001555e+000	 3.933329999996682e+000	 9.955576156268311e+000
0	 9.199981422001557e+000	 4.000000000000001e+000	 9.958419146570289e+000
0	 9.266642024687794e+000	 3.333299999983335e+000	 9.921185402629261e+000
0	 9.266642024687792e+000	 3.399969999982150e+000	 9.924665746180198e+000
0	 9.266642024687792e+000	 3.466639999981866e+000	 9.928087488498019e+000
0	 9.266642024687789e+000	 3.533309999982382e+000	 9.931451380786324e+000
0	 9.266642024687791e+000	 3.599979999983598e+000	 9.934758174248746e+000
0	 9.266642024687791e+000	 3.666649999985415e+000	 9.938008620088887e+000
0	 9.266642024687792e+000	 3.733319999987733e+000	 9.941203469510358e+000
0	 9.266642024687794e+000	 3.799989999990448e+000	 9.944343473716776e+000
0	 9.266642024687791e+000	 3.866659999993464e+000	 9.947429383911736e+000
0	 9.266642024687792e+000	 3.933329999996682e+000	 9.950461951298838e+000
0	 9.266642024687792e+000	 4.000000000000001e+000	 9.953441927081736e+000
0	 9.333302777352783e+000	 3.333299999983335e+000	 9.914874082445980e+000
0	 9.333302777352783e+000	 3.399969999982150e+000	 9.918506360607506e+000
0	 9.333302777352785e+000	 3.466639999981866e+000	 9.922078828351676e+000
0	 9.333302777352781e+000	 3.533309999982383e+000	 9.925592226834683e+000
0	 9.333302777352783e+000	 3.599979999983599e+000	 9.929047297212808e+000
0	 9.333302777352783e+000	 3.666649999985416e+000	 9.932444780642262e+000
0	 9.333302777352783e+000	 3.733319999987732e+000	 9.935785418279274e+000
0	 9.333302777352783e+000	 3.799989999990448e+000	 9.939069951280086e+000
0	 9.333302777352783e+000	 3.866659999993465e+000	 9.942299120800920e+000
0	 9.333302777352783e+000	 3.933329999996682e+000	 9.945473667998009e+000
0	 9.333302777352783e+000	 4.000000000000001e+000	 9.948594334027604e+000
0	 8.666700000016666e+000	 4.000000000000001e+000	 1.000214431792877e+001
0	 8.666700000016666e+000	 4.066670000003317e+000	 1.000395532307246e+001
0	 8.666700000016666e+000	 4.133340000006533e+000	 1.000570153592132e+001
0	 8.666700000016666e+000	 4.200010000009550e+000	 1.000738270550081e+001
0	 8.666700000016666e+000	 4.266680000012265e+000	 1.000899858083639e+001
0	 8.666700000016668e+000	 4.333350000014584e+000	 1.001054891095349e+001
0	 8.666700000016665e+000	 4.400020000016401e+000	 1.001203344487761e+001
0	 8.666700000016666e+000	 4.466690000017616e+000	 1.001345193163417e+001
0	 8.666700000016665e+000	 4.533360000018131e+000	 1.001480412024865e+001
0	 8.666700000016668e+000	 4.600030000017850e+000	 1.001608975974648e+001
0	 8.666700000016668e+000	 4.666700000016666e+000	 1.001730859915314e+001
0	 8.733360002791903e+000	 4.000000000000000e+000	 9.996357826041928e+000
0	 8.733360002791903e+000	 4.066670000003317e+000	 9.998279051160246e+000
0	 8.733360002791907e+000	 4.133340000006534e+000	 1.000013469466362e+001
0	 8.733360002791903e+000	 4.200010000009550e+000	 1.000192461658410e+001
0	 8.733360002791903e+000	 4.266680000012267e+000	 1.000364867695367e+001
0	 8.733360002791905e+000	 4.333350000014583e+000	 1.000530673580444e+001
0	 8.733360002791899e+000	 4.400020000016399e+000	 1.000689865316841e+001
0	 8.733360002791899e+000	 4.466690000017615e+000	 1.000842428907762e+001
0	 8.733360002791898e+000	 4.533360000018131e+000	 1.000988350356410e+001
0	 8.733360002791901e+000	 4.600030000017848e+000	 1.001127615665990e+001
0	 8.733360002791903e+000	 4.666700000016666e+000	 1.001260210839704e+001
0	 8.800020022230553e+000	 4.000000000000000e+000	 9.990650352696655e+000
0	 8.800020022230557e+000	 4.066670000003318e+000	 9.992684752525239e+000
0	 8.800020022230555e+000	 4.133340000006535e+000	 9.994652526715370e+000
0	 8.800020022230555e+000	 4.200010000009550e+000	 9.996553634122849e+000
0	 8.800020022230557e+000	 4.266680000012268e+000	 9.998388033603442e+000
0	 8.800020022230555e+000	 4.333350000014583e+000	 1.000015568401297e+001
0	 8.800020022230555e+000	 4.400020000016399e+000	 1.000185654420719e+001
0	 8.800020022230557e+000	 4.466690000017616e+000	 1.000349057304188e+001
0	 8.800020022230553e+000	 4.533360000018134e+000	 1.000505772937287e+001
0	 8.800020022230555e+000	 4.600030000017847e+000	 1.000655797205588e+001
0	 8.800020022230555e+000	 4.666700000016666e+000	 1.000799125994676e+001
0	 8.866680074997042e+000	 4.000000000000001e+000	 9.985028223582956e+000
0	 8.866680074997042e+000	 4.066670000003318e+000	 9.987178807579127e+000
0	 8.866680074997040e+000	 4.133340000006534e+000	 9.989261482872976e+000
0	 8.866680074997042e+000	 4.200010000009551e+000	 9.991276294961127e+000
0	 8.866680074997044e+000	 4.266680000012268e+000	 9.993223289340278e+000
0	 8.866680074997040e+000	 4.333350000014582e+000	 9.995102511507009e+000
0	 8.866680074997042e+000	 4.400020000016401e+000	 9.996914006958013e+000
0	 8.866680074997040e+000	 4.466690000017617e+000	 9.998657821189905e+000
0	 8.866680074997040e+000	 4.533360000018133e+000	 1.000033399969933e+001
0	 8.866680074997042e+000	 4.600030000017847e+000	 1.000194258798294e+001
0	 8.866680074997042e+000	 4.666700000016667e+000	 1.000348363153737e+001
0	 8.933340177755774e+000	 4.000000000000000e+000	 9.979497764475585e+000
0	 8.933340177755776e+000	 4.066670000003317e+000	 9.981767596820541e+000
0	 8.933340177755774e+000	 4.133340000006533e+000	 9.983968014021688e+000
0	 8.933340177755778e+000	 4.200010000009551e+000	 9.986099136033538e+000
0	 8.933340177755774e+000	 4.266680000012267e+000	 9.988161082810708e+000
0	 8.933340177755776e+000	 4.333350000014584e+000	 9.990153974307736e+000
0	 8.933340177755772e+000	 4.400020000016398e+000	 9.992077930479224e+000
0	 8.933340177755776e+000	 4.466690000017616e+000	 9.993933071279702e+000
0	 8.933340177755776e+000	 4.533360000018131e+000	 9.995719516663753e+000
0	 8.933340177755776e+000	 4.600030000017850e+000	 9.997437386585922e+000
0	 8.933340177755776e+000	 4.666700000016665e+000	 9.999086801000809e+000
0	 9.000000347171177e+000	 4.000000000000000e+000	 9.974065301234045e+000
0	 9.000000347171181e+000	 4.066670000003318e+000	 9.976457500835066e+000
0	 9.000000347171177e+000	 4.133340000006533e+000	 9.978778571135592e+000
0	 9.000000347171179e+000	 4.200010000009549e+000	 9.981028694365167e+000
0	 9.000000347171179e+000	 4.266680000012266e+000	 9.983208052753296e+000
0	 9.000000347171177e+000	 4.333350000014584e+000	 9.985316828529541e+000
0	 9.000000347171179e+000	 4.400020000016400e+000	 9.987355203923414e+000
0	 9.000000347171177e+000	 4.466690000017616e+000	 9.989323361164455e+000
0	 9.000000347171181e+000	 4.533360000018133e+000	 9.991221482482203e+000
0	 9.000000347171179e+000	 4.600030000017848e+000	 9.993049750106177e+000
0	 9.000000347171183e+000	 4.666700000016666e+000	 9.994808346265902e+000
0	 9.066660599907666e+000	 4.000000000000000e+000	 9.968737159802524e+000
0	 9.066660599907666e+000	 4.066670000003317e+000	 9.971254900295161e+000
0	 9.066660599907666e+000	 4.133340000006533e+000	 9.973699605277679e+000
0	 9.066660599907666e+000	 4.200010000009550e+000	 9.976071507071616e+000
0	 9.066660599907664e+000	 4.266680000012268e+000	 9.978370837998542e+000
0	 9.066660599907664e+000	 4.333350000014582e+000	 9.980597830379979e+000
0	 9.066660599907666e+000	 4.400020000016400e+000	 9.982752716537442e+000
0	 9.066660599907666e+000	 4.466690000017617e+000	 9.984835728792472e+000
0	 9.066660599907666e+000	 4.533360000018131e+000	 9.986847099466610e+000
0	 9.066660599907667e+000	 4.600030000017848e+000	 9.988787060881384e+000
0	 9.066660599907662e+000	 4.666700000016665e+000	 9.990655845358326e+000
0	 9.133320952629655e+000	 4.000000000000000e+000	 9.963519666210043e+000
0	 9.133320952629651e+000	 4.066670000003317e+000	 9.966166175960247e+000
0	 9.133320952629653e+000	 4.133340000006533e+000	 9.968737567599746e+000
0	 9.133320952629649e+000	 4.200010000009550e+000	 9.971234111359136e+000
0	 9.133320952629651e+000	 4.266680000012267e+000	 9.973656077468966e+000
0	 9.133320952629653e+000	 4.333350000014583e+000	 9.976003736159875e+000
0	 9.133320952629651e+000	 4.400020000016401e+000	 9.978277357662410e+000
0	 9.133320952629653e+000	 4.466690000017617e+000	 9.980477212207177e+000
0	 9.133320952629651e+000	 4.533360000018131e+000	 9.982603570024747e+000
0	 9.133320952629649e+000	 4.600030000017847e+000	 9.984656701345688e+000
0	 9.133320952629651e+000	 4.666700000016667e+000	 9.986636876400612e+000
0	 9.199981422001557e+000	 4.000000000000001e+000	 9.958419146570289e+000
0	 9.199981422001555e+000	 4.066670000003317e+000	 9.961197708676696e+000
0	 9.199981422001555e+000	 4.133340000006533e+000	 9.963898909342499e+000
0	 9.199981422001555e+000	 4.200010000009550e+000	 9.966523044524367e+000
0	 9.199981422001555e+000	 4.266680000012267e+000	 9.969070410179045e+000
0	 9.199981422001555e+000	 4.333350000014583e+000	 9.971541302263240e+000
0	 9.199981422001557e+000	 4.400020000016401e+000	 9.973936016733701e+000
0	 9.199981422001557e+000	 4.466690000017616e+000	 9.976254849547111e+000
0	 9.199981422001555e+000	 4.533360000018133e+000	 9.978498096660177e+000
0	 9.199981422001555e+000	 4.600030000017848e+000	 9.980666054029635e+000
0	 9.199981422001555e+000	 4.666700000016666e+000	 9.982759017612198e+000
0	 9.266642024687792e+000	 4.000000000000001e+000	 9.953441927081734e+000
0	 9.266642024687791e+000	 4.066670000003317e+000	 9.956355879377821e+000
0	 9.266642024687792e+000	 4.133340000006534e+000	 9.959190081835445e+000
0	 9.266642024687792e+000	 4.200010000009550e+000	 9.961944843954598e+000
0	 9.266642024687791e+000	 4.266680000012267e+000	 9.964620475235243e+000
0	 9.266642024687792e+000	 4.333350000014583e+000	 9.967217285177380e+000
0	 9.266642024687792e+000	 4.400020000016400e+000	 9.969735583280968e+000
0	 9.266642024687792e+000	 4.466690000017615e+000	 9.972175679045975e+000
0	 9.266642024687792e+000	 4.533360000018133e+000	 9.974537881972402e+000
0	 9.266642024687792e+000	 4.600030000017849e+000	 9.976822501560211e+000
0	 9.266642024687791e+000	 4.666700000016666e+000	 9.979029847309375e+000
0	 9.333302777352783e+000	 4.000000000000001e+000	 9.948594334027604e+000
0	 9.333302777352781e+000	 4.066670000003317e+000	 9.951647069083830e+000
0	 9.333302777352783e+000	 4.133340000006535e+000	 9.954617536497036e+000
0	 9.333302777352783e+000	 4.200010000009551e+000	 9.957506047127616e+000
0	 9.333302777352785e+000	 4.266680000012268e+000	 9.960312911836040e+000
0	 9.333302777352783e+000	 4.333350000014584e+000	 9.963038441482727e+000
0	 9.333302777352783e+000	 4.400020000016400e+000	 9.965682946928109e+000
0	 9.333302777352783e+000	 4.466690000017616e+000	 9.968246739032622e+000
0	 9.333302777352781e+000	 4.533360000018132e+000	 9.970730128656701e+000
0	 9.333302777352783e+000	 4.600030000017848e+000	 9.973133426660787e+000
0	 9.333302777352783e+000	 4.666700000016666e+000	 9.975456943905297e+000
0	 8.666700000016668e+000	 4.666700000016666e+000	 1.001730859915314e+001
0	 8.666700000016666e+000	 4.733360000014534e+000	 1.001846153382694e+001
0	 8.666700000016666e+000	 4.800020000011600e+000	 1.001954966984068e+001
0	 8.666700000016665e+000	 4.866680000008066e+000	 1.002057253890804e+001
0	 8.666700000016663e+000	 4.933340000004132e+000	 1.002152967274276e+001
0	 8.666700000016666e+000	 5.000000000000000e+000	 1.002242060305851e+001
0	 8.666700000016666e+000	 5.066659999995866e+000	 1.002324486156906e+001
0	 8.666700000016666e+000	 5.133319999991932e+000	 1.002400197998807e+001
0	 8.666700000016666e+000	 5.199979999988400e+000	 1.002469149002928e+001
0	 8.666700000016665e+000	 5.266639999985465e+000	 1.002531292340644e+001
0	 8.666700000016668e+000	 5.333299999983334e+000	 1.002586581183321e+001
0	 8.733360002791903e+000	 4.666700000016666e+000	 1.001260210839705e+001
0	 8.733360002791903e+000	 4.733360000014533e+000	 1.001386172438544e+001
0	 8.733360002791903e+000	 4.800020000011601e+000	 1.001505554294836e+001
0	 8.733360002791903e+000	 4.866680000008066e+000	 1.001618310156751e+001
0	 8.733360002791901e+000	 4.933340000004134e+000	 1.001724393772451e+001
0	 8.733360002791905e+000	 5.000000000000000e+000	 1.001823758890104e+001
0	 8.733360002791901e+000	 5.066659999995866e+000	 1.001916359257883e+001
0	 8.733360002791905e+000	 5.133319999991935e+000	 1.002002148623949e+001
0	 8.733360002791905e+000	 5.199979999988399e+000	 1.002081080736477e+001
0	 8.733360002791901e+000	 5.266639999985467e+000	 1.002153109343630e+001
0	 8.733360002791903e+000	 5.333299999983334e+000	 1.002218188193579e+001
0	 8.800020022230555e+000	 4.666700000016666e+000	 1.000799125994676e+001
0	 8.800020022230553e+000	 4.733360000014534e+000	 1.000935753430421e+001
0	 8.800020022230555e+000	 4.800020000011601e+000	 1.001065688200549e+001
0	 8.800020022230553e+000	 4.866680000008068e+000	 1.001188885045711e+001
0	 8.800020022230557e+000	 4.933340000004133e+000	 1.001305298706557e+001
0	 8.800020022230557e+000	 5.000000000000001e+000	 1.001414883923738e+001
0	 8.800020022230557e+000	 5.066659999995867e+000	 1.001517595437906e+001
0	 8.800020022230553e+000	 5.133319999991933e+000	 1.001613387989708e+001
0	 8.800020022230555e+000	 5.199979999988399e+000	 1.001702216319798e+001
0	 8.800020022230553e+000	 5.266639999985466e+000	 1.001784035168827e+001
0	 8.800020022230553e+000	 5.333299999983332e+000	 1.001858799277446e+001
0	 8.866680074997042e+000	 4.666700000016667e+000	 1.000348363153737e+001
0	 8.866680074997042e+000	 4.733360000014534e+000	 1.000495673161397e+001
0	 8.866680074997042e+000	 4.800020000011601e+000	 1.000636161895510e+001
0	 8.866680074997042e+000	 4.866680000008066e+000	 1.000769785504895e+001
0	 8.866680074997044e+000	 4.933340000004133e+000	 1.000896500138370e+001
0	 8.866680074997039e+000	 5.000000000000001e+000	 1.001016261944754e+001
0	 8.866680074997042e+000	 5.066659999995868e+000	 1.001129027072865e+001
0	 8.866680074997042e+000	 5.133319999991934e+000	 1.001234751671526e+001
0	 8.866680074997039e+000	 5.199979999988398e+000	 1.001333391889551e+001
0	 8.866680074997040e+000	 5.266639999985466e+000	 1.001424903875764e+001
0	 8.866680074997039e+000	 5.333299999983333e+000	 1.001509243778982e+001
0	 8.933340177755776e+000	 4.666700000016665e+000	 9.999086801000811e+000
0	 8.933340177755779e+000	 4.733360000014534e+000	 1.000066708444269e+001
0	 8.933340177755776e+000	 4.800020000011600e+000	 1.000217768583775e+001
0	 8.933340177755778e+000	 4.866680000008067e+000	 1.000361818491267e+001
0	 8.933340177755776e+000	 4.933340000004135e+000	 1.000498816139418e+001
0	 8.933340177755774e+000	 5.000000000000001e+000	 1.000628719500898e+001
0	 8.933340177755778e+000	 5.066659999995866e+000	 1.000751486548377e+001
0	 8.933340177755778e+000	 5.133319999991934e+000	 1.000867075254529e+001
0	 8.933340177755776e+000	 5.199979999988400e+000	 1.000975443592022e+001
0	 8.933340177755778e+000	 5.266639999985466e+000	 1.001076549533530e+001
0	 8.933340177755778e+000	 5.333299999983335e+000	 1.001170351051723e+001
0	 9.000000347171183e+000	 4.666700000016666e+000	 9.994808346265907e+000
0	 9.000000347171181e+000	 4.733360000014534e+000	 9.996496361015538e+000
0	 9.000000347171179e+000	 4.800020000011600e+000	 9.998113014791406e+000
0	 9.000000347171179e+000	 4.866680000008067e+000	 9.999657909715497e+000
0	 9.000000347171177e+000	 4.933340000004134e+000	 1.000113064790992e+001
0	 9.000000347171179e+000	 5.000000000000001e+000	 1.000253083149666e+001
0	 9.000000347171181e+000	 5.066659999995868e+000	 1.000385806259776e+001
0	 9.000000347171177e+000	 5.133319999991933e+000	 1.000511194333528e+001
0	 9.000000347171179e+000	 5.199979999988400e+000	 1.000629207583125e+001
0	 9.000000347171179e+000	 5.266639999985466e+000	 1.000739806220773e+001
0	 9.000000347171179e+000	 5.333299999983334e+000	 1.000842950458678e+001
0	 9.066660599907662e+000	 4.666700000016665e+000	 9.990655845358329e+000
0	 9.066660599907666e+000	 4.733360000014534e+000	 9.992452329654878e+000
0	 9.066660599907667e+000	 4.800020000011599e+000	 9.994175538051493e+000
0	 9.066660599907664e+000	 4.866680000008068e+000	 9.995825099222270e+000
0	 9.066660599907664e+000	 4.933340000004132e+000	 9.997400641841372e+000
0	 9.066660599907666e+000	 5.000000000000001e+000	 9.998901794582952e+000
0	 9.066660599907666e+000	 5.066659999995866e+000	 1.000032818612117e+001
0	 9.066660599907667e+000	 5.133319999991934e+000	 1.000167944513015e+001
0	 9.066660599907662e+000	 5.199979999988400e+000	 1.000295520028406e+001
0	 9.066660599907662e+000	 5.266639999985464e+000	 1.000415508025707e+001
0	 9.066660599907666e+000	 5.333299999983335e+000	 1.000527871372333e+001
0	 9.133320952629651e+000	 4.666700000016667e+000	 9.986636876400613e+000
0	 9.133320952629648e+000	 4.733360000014530e+000	 9.988542758780337e+000
0	 9.133320952629649e+000	 4.800020000011599e+000	 9.990373187950912e+000
0	 9.133320952629653e+000	 4.866680000008066e+000	 9.992127823295354e+000
0	 9.133320952629651e+000	 4.933340000004134e+000	 9.993806324196635e+000
0	 9.133320952629653e+000	 4.999999999999999e+000	 9.995408350037771e+000
0	 9.133320952629651e+000	 5.066659999995868e+000	 9.996933560201764e+000
0	 9.133320952629653e+000	 5.133319999991933e+000	 9.998381614071622e+000
0	 9.133320952629653e+000	 5.199979999988400e+000	 9.999752171030357e+000
0	 9.133320952629653e+000	 5.266639999985467e+000	 1.000104489046097e+001
0	 9.133320952629651e+000	 5.333299999983334e+000	 1.000225943174647e+001
0	 9.199981422001555e+000	 4.666700000016666e+000	 9.982759017612199e+000
0	 9.199981422001558e+000	 4.733360000014534e+000	 9.984775416908720e+000
0	 9.199981422001553e+000	 4.800020000011600e+000	 9.986713896920044e+000
0	 9.199981422001557e+000	 4.866680000008065e+000	 9.988574151894742e+000
0	 9.199981422001553e+000	 4.933340000004134e+000	 9.990355876081354e+000
0	 9.199981422001555e+000	 5.000000000000001e+000	 9.992058763728451e+000
0	 9.199981422001555e+000	 5.066659999995866e+000	 9.993682509084572e+000
0	 9.199981422001553e+000	 5.133319999991931e+000	 9.995226806398279e+000
0	 9.199981422001557e+000	 5.199979999988399e+000	 9.996691349918130e+000
0	 9.199981422001555e+000	 5.266639999985465e+000	 9.998075833892710e+000
0	 9.199981422001555e+000	 5.333299999983333e+000	 9.999379952570553e+000
0	 9.266642024687791e+000	 4.666700000016666e+000	 9.979029847309377e+000
0	 9.266642024687792e+000	 4.733360000014534e+000	 9.981158072654056e+000
0	 9.266642024687791e+000	 4.800020000011601e+000	 9.983205597486695e+000
0	 9.266642024687791e+000	 4.866680000008066e+000	 9.985172155078017e+000
0	 9.266642024687794e+000	 4.933340000004134e+000	 9.987057478698791e+000
0	 9.266642024687792e+000	 5.000000000000001e+000	 9.988861301619792e+000
0	 9.266642024687792e+000	 5.066659999995867e+000	 9.990583357111770e+000
0	 9.266642024687791e+000	 5.133319999991932e+000	 9.992223378445482e+000
0	 9.266642024687792e+000	 5.199979999988401e+000	 9.993781098891688e+000
0	 9.266642024687792e+000	 5.266639999985466e+000	 9.995256251721177e+000
0	 9.266642024687794e+000	 5.333299999983335e+000	 9.996648570204707e+000
0	 9.333302777352783e+000	 4.666700000016666e+000	 9.975456943905297e+000
0	 9.333302777352783e+000	 4.733360000014532e+000	 9.977698494727619e+000
0	 9.333302777352781e+000	 4.800020000011600e+000	 9.979856222276091e+000
0	 9.333302777352783e+000	 4.866680000008067e+000	 9.981929903000314e+000
0	 9.333302777352783e+000	 4.933340000004133e+000	 9.983919313349803e+000
0	 9.333302777352781e+000	 4.999999999999999e+000	 9.985824229774114e+000
0	 9.333302777352783e+000	 5.066659999995867e+000	 9.987644428722804e+000
0	 9.333302777352783e+000	 5.133319999991932e+000	 9.989379686645451e+000
0	 9.333302777352783e+000	 5.199979999988399e+000	 9.991029779991624e+000
0	 9.333302777352783e+000	 5.266639999985466e+000	 9.992594485210844e+000
0	 9.333302777352785e+000	 5.333299999983335e+000	 9.994073578752722e+000
0	 8.666700000016668e+000	 5.333299999983334e+000	 1.002586581183321e+001
0	 8.666700000016666e+000	 5.399969999982151e+000	 1.002635839601593e+001
0	 8.666700000016668e+000	 5.466639999981866e+000	 1.002679845936328e+001
0	 8.666700000016665e+000	 5.533309999982382e+000	 1.002718508097285e+001
0	 8.666700000016668e+000	 5.599979999983599e+000	 1.002751733994221e+001
0	 8.666700000016666e+000	 5.666649999985413e+000	 1.002779431536893e+001
0	 8.666700000016666e+000	 5.733319999987732e+000	 1.002801508635060e+001
0	 8.666700000016668e+000	 5.799989999990448e+000	 1.002817873198482e+001
0	 8.666700000016666e+000	 5.866659999993464e+000	 1.002828433136912e+001
0	 8.666700000016666e+000	 5.933329999996681e+000	 1.002833096360113e+001
0	 8.666700000016665e+000	 5.999999999999999e+000	 1.002831770777839e+001
0	 8.733360002791903e+000	 5.333299999983334e+000	 1.002218188193579e+001
0	 8.733360002791899e+000	 5.399969999982149e+000	 1.002277101101245e+001
0	 8.733360002791898e+000	 5.466639999981865e+000	 1.002330587644164e+001
0	 8.733360002791899e+000	 5.533309999982382e+000	 1.002378562932060e+001
0	 8.733360002791901e+000	 5.599979999983599e+000	 1.002420942074646e+001
0	 8.733360002791903e+000	 5.666649999985416e+000	 1.002457640181640e+001
0	 8.733360002791903e+000	 5.733319999987731e+000	 1.002488572362763e+001
0	 8.733360002791905e+000	 5.799989999990449e+000	 1.002513653727733e+001
0	 8.733360002791903e+000	 5.866659999993465e+000	 1.002532799386265e+001
0	 8.733360002791903e+000	 5.933329999996682e+000	 1.002545924448078e+001
0	 8.733360002791903e+000	 6.000000000000001e+000	 1.002552944022890e+001
0	 8.800020022230553e+000	 5.333299999983332e+000	 1.001858799277446e+001
0	 8.800020022230555e+000	 5.399969999982151e+000	 1.001927254794220e+001
0	 8.800020022230555e+000	 5.466639999981866e+000	 1.001990104471524e+001
0	 8.800020022230553e+000	 5.533309999982381e+000	 1.002047270008663e+001
0	 8.800020022230557e+000	 5.599979999983598e+000	 1.002098673104959e+001
0	 8.800020022230555e+000	 5.666649999985416e+000	 1.002144235459716e+001
0	 8.800020022230553e+000	 5.733319999987732e+000	 1.002183878772248e+001
0	 8.800020022230555e+000	 5.799989999990448e+000	 1.002217524741869e+001
0	 8.800020022230553e+000	 5.866659999993464e+000	 1.002245095067885e+001
0	 8.800020022230555e+000	 5.933329999996680e+000	 1.002266511449610e+001
0	 8.800020022230553e+000	 6.000000000000000e+000	 1.002281695586356e+001
0	 8.866680074997039e+000	 5.333299999983333e+000	 1.001509243778982e+001
0	 8.866680074997046e+000	 5.399969999982153e+000	 1.001587123234986e+001
0	 8.866680074997039e+000	 5.466639999981866e+000	 1.001659210675167e+001
0	 8.866680074997040e+000	 5.533309999982381e+000	 1.001725433778061e+001
0	 8.866680074997040e+000	 5.599979999983597e+000	 1.001785720222201e+001
0	 8.866680074997042e+000	 5.666649999985415e+000	 1.001839997686123e+001
0	 8.866680074997039e+000	 5.733319999987732e+000	 1.001888193848362e+001
0	 8.866680074997044e+000	 5.799989999990450e+000	 1.001930236387453e+001
0	 8.866680074997042e+000	 5.866659999993464e+000	 1.001966052981928e+001
0	 8.866680074997042e+000	 5.933329999996683e+000	 1.001995571310324e+001
0	 8.866680074997042e+000	 6.000000000000002e+000	 1.002018719051174e+001
0	 8.933340177755778e+000	 5.333299999983335e+000	 1.001170351051723e+001
0	 8.933340177755772e+000	 5.399969999982150e+000	 1.001257528987376e+001
0	 8.933340177755778e+000	 5.466639999981867e+000	 1.001338720521117e+001
0	 8.933340177755774e+000	 5.533309999982382e+000	 1.001413858700325e+001
0	 8.933340177755774e+000	 5.599979999983598e+000	 1.001482876572388e+001
0	 8.933340177755779e+000	 5.666649999985416e+000	 1.001545707184687e+001
0	 8.933340177755778e+000	 5.733319999987733e+000	 1.001602283584607e+001
0	 8.933340177755779e+000	 5.799989999990450e+000	 1.001652538819531e+001
0	 8.933340177755776e+000	 5.866659999993464e+000	 1.001696405936841e+001
0	 8.933340177755778e+000	 5.933329999996682e+000	 1.001733817983923e+001
0	 8.933340177755774e+000	 6.000000000000001e+000	 1.001764708008159e+001
0	 9.000000347171179e+000	 5.333299999983334e+000	 1.000842950458678e+001
0	 9.000000347171177e+000	 5.399969999982150e+000	 1.000939294624607e+001
0	 9.000000347171177e+000	 5.466639999981865e+000	 1.001029448284654e+001
0	 9.000000347171179e+000	 5.533309999982382e+000	 1.001113349244674e+001
0	 9.000000347171177e+000	 5.599979999983598e+000	 1.001190935310523e+001
0	 9.000000347171179e+000	 5.666649999985414e+000	 1.001262144288060e+001
0	 9.000000347171181e+000	 5.733319999987733e+000	 1.001326913983139e+001
0	 9.000000347171181e+000	 5.799989999990449e+000	 1.001385182201619e+001
0	 9.000000347171179e+000	 5.866659999993465e+000	 1.001436886749351e+001
0	 9.000000347171181e+000	 5.933329999996682e+000	 1.001481965432198e+001
0	 9.000000347171181e+000	 6.000000000000002e+000	 1.001520356056008e+001
0	 9.066660599907666e+000	 5.333299999983335e+000	 1.000527871372333e+001
0	 9.066660599907664e+000	 5.399969999982150e+000	 1.000633242729261e+001
0	 9.066660599907669e+000	 5.466639999981866e+000	 1.000732208250313e+001
0	 9.066660599907667e+000	 5.533309999982384e+000	 1.000824709889439e+001
0	 9.066660599907666e+000	 5.599979999983599e+000	 1.000910689600591e+001
0	 9.066660599907664e+000	 5.666649999985415e+000	 1.000990089337718e+001
0	 9.066660599907664e+000	 5.733319999987733e+000	 1.001062851054773e+001
0	 9.066660599907664e+000	 5.799989999990447e+000	 1.001128916705709e+001
0	 9.066660599907664e+000	 5.866659999993464e+000	 1.001188228244472e+001
0	 9.066660599907666e+000	 5.933329999996681e+000	 1.001240727625018e+001
0	 9.066660599907669e+000	 6.000000000000000e+000	 1.001286356801295e+001
0	 9.133320952629651e+000	 5.333299999983334e+000	 1.000225943174647e+001
0	 9.133320952629649e+000	 5.399969999982149e+000	 1.000340195893299e+001
0	 9.133320952629651e+000	 5.466639999981864e+000	 1.000447814711889e+001
0	 9.133320952629653e+000	 5.533309999982382e+000	 1.000548745122084e+001
0	 9.133320952629651e+000	 5.599979999983598e+000	 1.000642932615554e+001
0	 9.133320952629651e+000	 5.666649999985414e+000	 1.000730322683961e+001
0	 9.133320952629653e+000	 5.733319999987731e+000	 1.000810860818979e+001
0	 9.133320952629653e+000	 5.799989999990446e+000	 1.000884492512272e+001
0	 9.133320952629653e+000	 5.866659999993466e+000	 1.000951163255507e+001
0	 9.133320952629651e+000	 5.933329999996682e+000	 1.001010818540351e+001
0	 9.133320952629655e+000	 6.000000000000000e+000	 1.001063403858473e+001
0	 9.199981422001555e+000	 5.333299999983333e+000	 9.999379952570552e+000
0	 9.199981422001557e+000	 5.399969999982150e+000	 1.000060976718053e+001
0	 9.199981422001555e+000	 5.466639999981865e+000	 1.000177081972434e+001
0	 9.199981422001557e+000	 5.533309999982382e+000	 1.000286259439200e+001
0	 9.199981422001553e+000	 5.599979999983599e+000	 1.000388457537360e+001
0	 9.199981422001555e+000	 5.666649999985415e+000	 1.000483624685918e+001
0	 9.199981422001555e+000	 5.733319999987732e+000	 1.000571709303880e+001
0	 9.199981422001555e+000	 5.799989999990447e+000	 1.000652659810253e+001
0	 9.199981422001557e+000	 5.866659999993464e+000	 1.000726424624039e+001
0	 9.199981422001555e+000	 5.933329999996682e+000	 1.000792952164247e+001
0	 9.199981422001557e+000	 6.000000000000000e+000	 1.000852190849878e+001
0	 9.266642024687794e+000	 5.333299999983335e+000	 9.996648570204703e+000
0	 9.266642024687791e+000	 5.399969999982149e+000	 9.997964078142337e+000
0	 9.266642024687794e+000	 5.466639999981867e+000	 9.999208243442558e+000
0	 9.266642024687791e+000	 5.533309999982382e+000	 1.000038057346504e+001
0	 9.266642024687792e+000	 5.599979999983599e+000	 1.000148057556943e+001
0	 9.266642024687794e+000	 5.666649999985415e+000	 1.000250775711539e+001
0	 9.266642024687792e+000	 5.733319999987732e+000	 1.000346162546262e+001
0	 9.266642024687792e+000	 5.799989999990448e+000	 1.000434168797074e+001
0	 9.266642024687791e+000	 5.866659999993464e+000	 1.000514745199943e+001
0	 9.266642024687791e+000	 5.933329999996681e+000	 1.000587842490837e+001
0	 9.266642024687792e+000	 6.000000000000001e+000	 1.000653411405722e+001
0	 9.333302777352785e+000	 5.333299999983335e+000	 9.994073578752721e+000
0	 9.333302777352783e+000	 5.399969999982150e+000	 9.995473118019230e+000
0	 9.333302777352785e+000	 5.466639999981866e+000	 9.996798561489282e+000
0	 9.333302777352783e+000	 5.533309999982382e+000	 9.998049433588399e+000
0	 9.333302777352786e+000	 5.599979999983599e+000	 9.999225258742138e+000
0	 9.333302777352783e+000	 5.666649999985415e+000	 1.000032556137600e+001
0	 9.333302777352785e+000	 5.733319999987733e+000	 1.000134986591555e+001
0	 9.333302777352781e+000	 5.799989999990447e+000	 1.000229769678631e+001
0	 9.333302777352783e+000	 5.866659999993466e+000	 1.000316857841377e+001
0	 9.333302777352783e+000	 5.933329999996681e+000	 1.000396203522352e+001
0	 9.333302777352785e+000	 6.000000000000001e+000	 1.000467759164102e+001
0	 8.666700000016665e+000	 5.999999999999999e+000	 1.002831770777839e+001
0	 8.666700000016668e+000	 6.066670000003318e+000	 1.002825622318228e+001
0	 8.666700000016668e+000	 6.133340000006532e+000	 1.002815812197834e+001
0	 8.666700000016666e+000	 6.200010000009551e+000	 1.002802241259051e+001
0	 8.666700000016666e+000	 6.266680000012265e+000	 1.002784810344274e+001
0	 8.666700000016665e+000	 6.333350000014584e+000	 1.002763420295888e+001
0	 8.666700000016666e+000	 6.400020000016401e+000	 1.002737971956291e+001
0	 8.666700000016666e+000	 6.466690000017615e+000	 1.002708366167870e+001
0	 8.666700000016665e+000	 6.533360000018131e+000	 1.002674503773015e+001
0	 8.666700000016665e+000	 6.600030000017848e+000	 1.002636285614119e+001
0	 8.666700000016665e+000	 6.666700000016664e+000	 1.002593612533574e+001
0	 8.733360002791903e+000	 6.000000000000001e+000	 1.002552944022890e+001
0	 8.733360002791903e+000	 6.066670000003317e+000	 1.002555003418759e+001
0	 8.733360002791905e+000	 6.133340000006533e+000	 1.002553241630990e+001
0	 8.733360002791905e+000	 6.200010000009550e+000	 1.002547564300173e+001
0	 8.733360002791899e+000	 6.266680000012265e+000	 1.002537877066890e+001
0	 8.733360002791907e+000	 6.333350000014583e+000	 1.002524085571729e+001
0	 8.733360002791901e+000	 6.400020000016399e+000	 1.002506095455279e+001
0	 8.733360002791901e+000	 6.466690000017616e+000	 1.002483812358124e+001
0	 8.733360002791903e+000	 6.533360000018132e+000	 1.002457141920852e+001
0	 8.733360002791903e+000	 6.600030000017850e+000	 1.002425989784050e+001
0	 8.733360002791901e+000	 6.666700000016666e+000	 1.002390261588304e+001
0	 8.800020022230553e+000	 6.000000000000000e+000	 1.002281695586356e+001
0	 8.800020022230557e+000	 6.066670000003316e+000	 1.002291775490475e+001
0	 8.800020022230553e+000	 6.133340000006533e+000	 1.002297871436310e+001
0	 8.800020022230555e+000	 6.200010000009549e+000	 1.002299893516149e+001
0	 8.800020022230555e+000	 6.266680000012266e+000	 1.002297751822294e+001
0	 8.800020022230553e+000	 6.333350000014582e+000	 1.002291356447035e+001
0	 8.800020022230555e+000	 6.400020000016397e+000	 1.002280617482669e+001
0	 8.800020022230555e+000	 6.466690000017616e+000	 1.002265445021490e+001
0	 8.800020022230555e+000	 6.533360000018132e+000	 1.002245749155792e+001
0	 8.800020022230553e+000	 6.600030000017847e+000	 1.002221439977870e+001
0	 8.800020022230557e+000	 6.666700000016667e+000	 1.002192427580018e+001
0	 8.866680074997042e+000	 6.000000000000002e+000	 1.002018719051174e+001
0	 8.866680074997040e+000	 6.066670000003319e+000	 1.002036610731274e+001
0	 8.866680074997040e+000	 6.133340000006533e+000	 1.002050351890065e+001
0	 8.866680074997042e+000	 6.200010000009550e+000	 1.002059856725061e+001
0	 8.866680074997042e+000	 6.266680000012268e+000	 1.002065039433778e+001
0	 8.866680074997040e+000	 6.333350000014582e+000	 1.002065814213723e+001
0	 8.866680074997042e+000	 6.400020000016400e+000	 1.002062095262414e+001
0	 8.866680074997040e+000	 6.466690000017616e+000	 1.002053796777356e+001
0	 8.866680074997040e+000	 6.533360000018133e+000	 1.002040832956063e+001
0	 8.866680074997042e+000	 6.600030000017848e+000	 1.002023117996047e+001
0	 8.866680074997042e+000	 6.666700000016668e+000	 1.002000566094822e+001
0	 8.933340177755774e+000	 6.000000000000001e+000	 1.001764708008159e+001
0	 8.933340177755776e+000	 6.066670000003316e+000	 1.001790181346713e+001
0	 8.933340177755774e+000	 6.133340000006532e+000	 1.001811333275984e+001
0	 8.933340177755776e+000	 6.200010000009550e+000	 1.001828081752207e+001
0	 8.933340177755774e+000	 6.266680000012267e+000	 1.001840344731621e+001
0	 8.933340177755778e+000	 6.333350000014583e+000	 1.001848040170459e+001
0	 8.933340177755774e+000	 6.400020000016398e+000	 1.001851086024962e+001
0	 8.933340177755779e+000	 6.466690000017615e+000	 1.001849400251360e+001
0	 8.933340177755778e+000	 6.533360000018131e+000	 1.001842900805896e+001
0	 8.933340177755774e+000	 6.600030000017847e+000	 1.001831505644802e+001
0	 8.933340177755774e+000	 6.666700000016665e+000	 1.001815132724316e+001
0	 9.000000347171181e+000	 6.000000000000002e+000	 1.001520356056008e+001
0	 9.000000347171183e+000	 6.066670000003319e+000	 1.001553159550027e+001
0	 9.000000347171181e+000	 6.133340000006535e+000	 1.001581465885234e+001
0	 9.000000347171179e+000	 6.200010000009550e+000	 1.001605196430095e+001
0	 9.000000347171183e+000	 6.266680000012267e+000	 1.001624272553077e+001
0	 9.000000347171177e+000	 6.333350000014582e+000	 1.001638615622645e+001
0	 9.000000347171175e+000	 6.400020000016398e+000	 1.001648147007267e+001
0	 9.000000347171179e+000	 6.466690000017614e+000	 1.001652788075406e+001
0	 9.000000347171181e+000	 6.533360000018133e+000	 1.001652460195526e+001
0	 9.000000347171179e+000	 6.600030000017847e+000	 1.001647084736101e+001
0	 9.000000347171179e+000	 6.666700000016665e+000	 1.001636583065589e+001
0	 9.066660599907669e+000	 6.000000000000000e+000	 1.001286356801295e+001
0	 9.066660599907664e+000	 6.066670000003314e+000	 1.001326217562109e+001
0	 9.066660599907666e+000	 6.133340000006533e+000	 1.001361400016430e+001
0	 9.066660599907667e+000	 6.200010000009550e+000	 1.001391828598458e+001
0	 9.066660599907664e+000	 6.266680000012265e+000	 1.001417427742394e+001
0	 9.066660599907664e+000	 6.333350000014583e+000	 1.001438121882435e+001
0	 9.066660599907666e+000	 6.400020000016399e+000	 1.001453835452786e+001
0	 9.066660599907667e+000	 6.466690000017617e+000	 1.001464492887641e+001
0	 9.066660599907667e+000	 6.533360000018133e+000	 1.001470018621199e+001
0	 9.066660599907667e+000	 6.600030000017848e+000	 1.001470337087664e+001
0	 9.066660599907666e+000	 6.666700000016665e+000	 1.001465372721230e+001
0	 9.133320952629655e+000	 6.000000000000000e+000	 1.001063403858473e+001
0	 9.133320952629653e+000	 6.066670000003315e+000	 1.001110027611511e+001
0	 9.133320952629651e+000	 6.133340000006531e+000	 1.001151785975619e+001
0	 9.133320952629649e+000	 6.200010000009549e+000	 1.001188606104235e+001
0	 9.133320952629653e+000	 6.266680000012267e+000	 1.001220415150790e+001
0	 9.133320952629651e+000	 6.333350000014582e+000	 1.001247140268724e+001
0	 9.133320952629653e+000	 6.400020000016400e+000	 1.001268708611472e+001
0	 9.133320952629653e+000	 6.466690000017616e+000	 1.001285047332469e+001
0	 9.133320952629656e+000	 6.533360000018135e+000	 1.001296083585153e+001
0	 9.133320952629651e+000	 6.600030000017847e+000	 1.001301744522959e+001
0	 9.133320952629651e+000	 6.666700000016665e+000	 1.001301957299319e+001
0	 9.199981422001557e+000	 6.000000000000000e+000	 1.000852190849878e+001
0	 9.199981422001555e+000	 6.066670000003317e+000	 1.000905261934463e+001
0	 9.199981422001555e+000	 6.133340000006534e+000	 1.000953274076308e+001
0	 9.199981422001555e+000	 6.200010000009550e+000	 1.000996156801586e+001
0	 9.199981422001557e+000	 6.266680000012266e+000	 1.001033839636477e+001
0	 9.199981422001555e+000	 6.333350000014583e+000	 1.001066252107152e+001
0	 9.199981422001555e+000	 6.400020000016400e+000	 1.001093323739788e+001
0	 9.199981422001555e+000	 6.466690000017616e+000	 1.001114984060558e+001
0	 9.199981422001553e+000	 6.533360000018132e+000	 1.001131162595639e+001
0	 9.199981422001557e+000	 6.600030000017847e+000	 1.001141788871204e+001
0	 9.199981422001555e+000	 6.666700000016665e+000	 1.001146792413428e+001
0	 9.266642024687792e+000	 6.000000000000001e+000	 1.000653411405722e+001
0	 9.266642024687792e+000	 6.066670000003316e+000	 1.000712592774849e+001
0	 9.266642024687794e+000	 6.133340000006534e+000	 1.000766514639433e+001
0	 9.266642024687794e+000	 6.200010000009550e+000	 1.000815108551893e+001
0	 9.266642024687792e+000	 6.266680000012268e+000	 1.000858306064646e+001
0	 9.266642024687792e+000	 6.333350000014582e+000	 1.000896038730106e+001
0	 9.266642024687792e+000	 6.400020000016399e+000	 1.000928238100692e+001
0	 9.266642024687791e+000	 6.466690000017615e+000	 1.000954835728821e+001
0	 9.266642024687792e+000	 6.533360000018132e+000	 1.000975763166910e+001
0	 9.266642024687791e+000	 6.600030000017848e+000	 1.000990951967372e+001
0	 9.266642024687791e+000	 6.666700000016667e+000	 1.001000333682626e+001
0	 9.333302777352785e+000	 6.000000000000001e+000	 1.000467759164102e+001
0	 9.333302777352783e+000	 6.066670000003317e+000	 1.000532692384225e+001
0	 9.333302777352783e+000	 6.133340000006533e+000	 1.000592157993387e+001
0	 9.333302777352783e+000	 6.200010000009550e+000	 1.000646089223748e+001
0	 9.333302777352785e+000	 6.266680000012267e+000	 1.000694419307471e+001
0	 9.333302777352785e+000	 6.333350000014584e+000	 1.000737081476716e+001
0	 9.333302777352783e+000	 6.400020000016399e+000	 1.000774008963650e+001
0	 9.333302777352781e+000	 6.466690000017615e+000	 1.000805135000431e+001
0	 9.333302777352783e+000	 6.533360000018132e+000	 1.000830392819222e+001
0	 9.333302777352783e+000	 6.600030000017848e+000	 1.000849715652182e+001
0	 9.333302777352783e+000	 6.666700000016666e+000	 1.000863036731475e+001
0	 8.666700000016665e+000	 6.666700000016664e+000	 1.002593612533574e+001
0	 8.666700000016666e+000	 6.733360000014532e+000	 1.002547783914670e+001
0	 8.666700000016666e+000	 6.800020000011600e+000	 1.002500080922457e+001
0	 8.666700000016668e+000	 6.866680000008068e+000	 1.002450397291082e+001
0	 8.666700000016666e+000	 6.933340000004135e+000	 1.002398626754687e+001
0	 8.666700000016666e+000	 7.000000000000001e+000	 1.002344663047418e+001
0	 8.666700000016665e+000	 7.066659999995869e+000	 1.002288399903416e+001
0	 8.666700000016668e+000	 7.133319999991936e+000	 1.002229731056829e+001
0	 8.666700000016668e+000	 7.199979999988404e+000	 1.002168550241800e+001
0	 8.666700000016668e+000	 7.266639999985473e+000	 1.002104751192472e+001
0	 8.666700000016666e+000	 7.333299999983335e+000	 1.002038227642990e+001
0	 8.733360002791901e+000	 6.666700000016666e+000	 1.002390261588304e+001
0	 8.733360002791903e+000	 6.733360000014534e+000	 1.002351249731495e+001
0	 8.733360002791905e+000	 6.800020000011599e+000	 1.002310230346659e+001
0	 8.733360002791905e+000	 6.866680000008066e+000	 1.002267101797718e+001
0	 8.733360002791899e+000	 6.933340000004134e+000	 1.002221762448586e+001
0	 8.733360002791905e+000	 7.000000000000003e+000	 1.002174110663188e+001
0	 8.733360002791899e+000	 7.066659999995868e+000	 1.002124044805439e+001
0	 8.733360002791903e+000	 7.133319999991937e+000	 1.002071463239255e+001
0	 8.733360002791903e+000	 7.199979999988403e+000	 1.002016264328560e+001
0	 8.733360002791901e+000	 7.266639999985474e+000	 1.001958346437266e+001
0	 8.733360002791903e+000	 7.333299999983335e+000	 1.001897607929301e+001
0	 8.800020022230557e+000	 6.666700000016667e+000	 1.002192427580018e+001
0	 8.800020022230555e+000	 6.733360000014534e+000	 1.002160001929606e+001
0	 8.800020022230555e+000	 6.800020000011601e+000	 1.002125438632563e+001
0	 8.800020022230553e+000	 6.866680000008068e+000	 1.002088640365602e+001
0	 8.800020022230557e+000	 6.933340000004134e+000	 1.002049509805434e+001
0	 8.800020022230557e+000	 7.000000000000002e+000	 1.002007949628773e+001
0	 8.800020022230555e+000	 7.066659999995870e+000	 1.001963862512332e+001
0	 8.800020022230552e+000	 7.133319999991935e+000	 1.001917151132820e+001
0	 8.800020022230553e+000	 7.199979999988403e+000	 1.001867718166953e+001
0	 8.800020022230553e+000	 7.266639999985472e+000	 1.001815466291440e+001
0	 8.800020022230555e+000	 7.333299999983333e+000	 1.001760298183003e+001
0	 8.866680074997042e+000	 6.666700000016668e+000	 1.002000566094822e+001
0	 8.866680074997040e+000	 6.733360000014532e+000	 1.001974469543507e+001
0	 8.866680074997042e+000	 6.800020000011600e+000	 1.001946108117247e+001
0	 8.866680074997040e+000	 6.866680000008067e+000	 1.001915388488566e+001
0	 8.866680074997042e+000	 6.933340000004135e+000	 1.001882217329987e+001
0	 8.866680074997040e+000	 7.000000000000003e+000	 1.001846501314034e+001
0	 8.866680074997037e+000	 7.066659999995866e+000	 1.001808147113224e+001
0	 8.866680074997040e+000	 7.133319999991936e+000	 1.001767061400086e+001
0	 8.866680074997039e+000	 7.199979999988402e+000	 1.001723150847138e+001
0	 8.866680074997040e+000	 7.266639999985475e+000	 1.001676322126907e+001
0	 8.866680074997040e+000	 7.333299999983335e+000	 1.001626481911916e+001
0	 8.933340177755774e+000	 6.666700000016665e+000	 1.001815132724316e+001
0	 8.933340177755778e+000	 6.733360000014534e+000	 1.001795081612932e+001
0	 8.933340177755774e+000	 6.800020000011598e+000	 1.001772641142765e+001
0	 8.933340177755778e+000	 6.866680000008067e+000	 1.001747721665159e+001
0	 8.933340177755776e+000	 6.933340000004135e+000	 1.001720233531458e+001
0	 8.933340177755776e+000	 7.000000000000002e+000	 1.001690087093014e+001
0	 8.933340177755776e+000	 7.066659999995871e+000	 1.001657192701171e+001
0	 8.933340177755776e+000	 7.133319999991936e+000	 1.001621460707279e+001
0	 8.933340177755779e+000	 7.199979999988404e+000	 1.001582801462680e+001
0	 8.933340177755776e+000	 7.266639999985471e+000	 1.001541125318727e+001
0	 8.933340177755776e+000	 7.333299999983334e+000	 1.001496342626764e+001
0	 9.000000347171179e+000	 6.666700000016665e+000	 1.001636583065589e+001
0	 9.000000347171181e+000	 6.733360000014532e+000	 1.001622267182857e+001
0	 9.000000347171179e+000	 6.800020000011600e+000	 1.001605440056145e+001
0	 9.000000347171177e+000	 6.866680000008066e+000	 1.001586015398636e+001
0	 9.000000347171181e+000	 6.933340000004137e+000	 1.001563906923513e+001
0	 9.000000347171181e+000	 7.000000000000003e+000	 1.001539028343962e+001
0	 9.000000347171175e+000	 7.066659999995870e+000	 1.001511293373160e+001
0	 9.000000347171177e+000	 7.133319999991936e+000	 1.001480615724296e+001
0	 9.000000347171179e+000	 7.199979999988404e+000	 1.001446909110553e+001
0	 9.000000347171179e+000	 7.266639999985468e+000	 1.001410087245113e+001
0	 9.000000347171181e+000	 7.333299999983333e+000	 1.001370063841161e+001
0	 9.066660599907666e+000	 6.666700000016665e+000	 1.001465372721231e+001
0	 9.066660599907664e+000	 6.733360000014532e+000	 1.001456455303487e+001
0	 9.066660599907667e+000	 6.800020000011599e+000	 1.001444907209393e+001
0	 9.066660599907666e+000	 6.866680000008066e+000	 1.001430645196976e+001
0	 9.066660599907666e+000	 6.933340000004136e+000	 1.001413586024268e+001
0	 9.066660599907666e+000	 7.000000000000002e+000	 1.001393646449301e+001
0	 9.066660599907666e+000	 7.066659999995870e+000	 1.001370743230102e+001
0	 9.066660599907669e+000	 7.133319999991937e+000	 1.001344793124705e+001
0	 9.066660599907666e+000	 7.199979999988403e+000	 1.001315712891138e+001
0	 9.066660599907664e+000	 7.266639999985469e+000	 1.001283419287432e+001
0	 9.066660599907664e+000	 7.333299999983334e+000	 1.001247829071617e+001
0	 9.133320952629651e+000	 6.666700000016665e+000	 1.001301957299319e+001
0	 9.133320952629655e+000	 6.733360000014532e+000	 1.001298075030266e+001
0	 9.133320952629649e+000	 6.800020000011599e+000	 1.001291444959486e+001
0	 9.133320952629655e+000	 6.866680000008066e+000	 1.001281986572868e+001
0	 9.133320952629651e+000	 6.933340000004135e+000	 1.001269619356297e+001
0	 9.133320952629648e+000	 6.999999999999999e+000	 1.001254262795659e+001
0	 9.133320952629651e+000	 7.066659999995869e+000	 1.001235836376845e+001
0	 9.133320952629653e+000	 7.133319999991937e+000	 1.001214259585739e+001
0	 9.133320952629656e+000	 7.199979999988404e+000	 1.001189451908230e+001
0	 9.133320952629651e+000	 7.266639999985470e+000	 1.001161332830203e+001
0	 9.133320952629651e+000	 7.333299999983333e+000	 1.001129821837546e+001
0	 9.199981422001555e+000	 6.666700000016665e+000	 1.001146792413428e+001
0	 9.199981422001557e+000	 6.733360000014533e+000	 1.001147555423872e+001
0	 9.199981422001555e+000	 6.800020000011600e+000	 1.001145455668382e+001
0	 9.199981422001555e+000	 6.866680000008067e+000	 1.001140415043714e+001
0	 9.199981422001553e+000	 6.933340000004134e+000	 1.001132355446620e+001
0	 9.199981422001555e+000	 7.000000000000003e+000	 1.001121198773851e+001
0	 9.199981422001553e+000	 7.066659999995867e+000	 1.001106866922161e+001
0	 9.199981422001557e+000	 7.133319999991937e+000	 1.001089281788304e+001
0	 9.199981422001555e+000	 7.199979999988404e+000	 1.001068365269029e+001
0	 9.199981422001557e+000	 7.266639999985472e+000	 1.001044039261093e+001
0	 9.199981422001555e+000	 7.333299999983335e+000	 1.001016225661249e+001
0	 9.266642024687791e+000	 6.666700000016667e+000	 1.001000333682627e+001
0	 9.266642024687792e+000	 6.733360000014532e+000	 1.001005325550220e+001
0	 9.266642024687791e+000	 6.800020000011600e+000	 1.001007341703014e+001
0	 9.266642024687792e+000	 6.866680000008066e+000	 1.001006306131637e+001
0	 9.266642024687792e+000	 6.933340000004136e+000	 1.001002142826715e+001
0	 9.266642024687792e+000	 7.000000000000001e+000	 1.000994775778879e+001
0	 9.266642024687789e+000	 7.066659999995869e+000	 1.000984128978755e+001
0	 9.266642024687792e+000	 7.133319999991937e+000	 1.000970126416970e+001
0	 9.266642024687792e+000	 7.199979999988404e+000	 1.000952692084151e+001
0	 9.266642024687791e+000	 7.266639999985471e+000	 1.000931749970930e+001
0	 9.266642024687791e+000	 7.333299999983333e+000	 1.000907224067931e+001
0	 9.333302777352783e+000	 6.666700000016666e+000	 1.000863036731476e+001
0	 9.333302777352781e+000	 6.733360000014530e+000	 1.000871814480460e+001
0	 9.333302777352781e+000	 6.800020000011599e+000	 1.000877505435286e+001
0	 9.333302777352785e+000	 6.866680000008069e+000	 1.000880035363467e+001
0	 9.333302777352785e+000	 6.933340000004134e+000	 1.000879330032513e+001
0	 9.333302777352783e+000	 7.000000000000002e+000	 1.000875315209939e+001
0	 9.333302777352783e+000	 7.066659999995869e+000	 1.000867916663258e+001
0	 9.333302777352783e+000	 7.133319999991937e+000	 1.000857060159980e+001
0	 9.333302777352783e+000	 7.199979999988405e+000	 1.000842671467617e+001
0	 9.333302777352781e+000	 7.266639999985471e+000	 1.000824676353684e+001
0	 9.333302777352783e+000	 7.333299999983333e+000	 1.000803000585689e+001
0	 8.666700000016666e+000	 7.333299999983335e+000	 1.002038227642990e+001
0	 8.666700000016668e+000	 7.399969999982149e+000	 1.001970299182723e+001
0	 8.666700000016668e+000	 7.466639999981866e+000	 1.001902299789128e+001
0	 8.666700000016668e+000	 7.533309999982383e+000	 1.001834114210888e+001
0	 8.666700000016668e+000	 7.599979999983599e+000	 1.001765627196678e+001
0	 8.666700000016666e+000	 7.666649999985415e+000	 1.001696723495175e+001
0	 8.666700000016666e+000	 7.733319999987732e+000	 1.001627287855058e+001
0	 8.666700000016668e+000	 7.799989999990448e+000	 1.001557205025004e+001
0	 8.666700000016666e+000	 7.866659999993464e+000	 1.001486359753688e+001
0	 8.666700000016668e+000	 7.933329999996682e+000	 1.001414636789792e+001
0	 8.666700000016666e+000	 7.999999999999999e+000	 1.001341920881987e+001
0	 8.733360002791903e+000	 7.333299999983335e+000	 1.001897607929301e+001
0	 8.733360002791901e+000	 7.399969999982150e+000	 1.001835360965882e+001
0	 8.733360002791898e+000	 7.466639999981867e+000	 1.001772931332770e+001
0	 8.733360002791899e+000	 7.533309999982382e+000	 1.001710209845670e+001
0	 8.733360002791901e+000	 7.599979999983598e+000	 1.001647087320291e+001
0	 8.733360002791905e+000	 7.666649999985415e+000	 1.001583454572339e+001
0	 8.733360002791903e+000	 7.733319999987733e+000	 1.001519202417518e+001
0	 8.733360002791905e+000	 7.799989999990450e+000	 1.001454221671541e+001
0	 8.733360002791905e+000	 7.866659999993465e+000	 1.001388403150109e+001
0	 8.733360002791899e+000	 7.933329999996680e+000	 1.001321637668934e+001
0	 8.733360002791903e+000	 8.000000000000000e+000	 1.001253816043718e+001
0	 8.800020022230555e+000	 7.333299999983333e+000	 1.001760298183003e+001
0	 8.800020022230555e+000	 7.399969999982151e+000	 1.001703521940668e+001
0	 8.800020022230555e+000	 7.466639999981867e+000	 1.001646458533580e+001
0	 8.800020022230552e+000	 7.533309999982383e+000	 1.001589004444662e+001
0	 8.800020022230555e+000	 7.599979999983599e+000	 1.001531056156828e+001
0	 8.800020022230555e+000	 7.666649999985417e+000	 1.001472510152999e+001
0	 8.800020022230555e+000	 7.733319999987733e+000	 1.001413262916092e+001
0	 8.800020022230552e+000	 7.799989999990447e+000	 1.001353210929027e+001
0	 8.800020022230553e+000	 7.866659999993466e+000	 1.001292250674723e+001
0	 8.800020022230555e+000	 7.933329999996681e+000	 1.001230278636097e+001
0	 8.800020022230557e+000	 8.000000000000004e+000	 1.001167191296068e+001
0	 8.866680074997040e+000	 7.333299999983335e+000	 1.001626481911916e+001
0	 8.866680074997040e+000	 7.399969999982150e+000	 1.001574938165288e+001
0	 8.866680074997039e+000	 7.466639999981866e+000	 1.001523010983339e+001
0	 8.866680074997042e+000	 7.533309999982381e+000	 1.001470602116377e+001
0	 8.866680074997042e+000	 7.599979999983599e+000	 1.001417613314710e+001
0	 8.866680074997044e+000	 7.666649999985415e+000	 1.001363946328646e+001
0	 8.866680074997044e+000	 7.733319999987732e+000	 1.001309502908499e+001
0	 8.866680074997044e+000	 7.799989999990447e+000	 1.001254184804573e+001
0	 8.866680074997040e+000	 7.866659999993465e+000	 1.001197893767180e+001
0	 8.866680074997040e+000	 7.933329999996682e+000	 1.001140531546629e+001
0	 8.866680074997044e+000	 8.000000000000002e+000	 1.001081999893228e+001
0	 8.933340177755776e+000	 7.333299999983334e+000	 1.001496342626764e+001
0	 8.933340177755774e+000	 7.399969999982150e+000	 1.001449765700601e+001
0	 8.933340177755778e+000	 7.466639999981866e+000	 1.001402718276212e+001
0	 8.933340177755776e+000	 7.533309999982382e+000	 1.001355106971474e+001
0	 8.933340177755776e+000	 7.599979999983598e+000	 1.001306838404259e+001
0	 8.933340177755778e+000	 7.666649999985416e+000	 1.001257819192444e+001
0	 8.933340177755776e+000	 7.733319999987731e+000	 1.001207955953902e+001
0	 8.933340177755778e+000	 7.799989999990447e+000	 1.001157155306509e+001
0	 8.933340177755774e+000	 7.866659999993463e+000	 1.001105323868140e+001
0	 8.933340177755778e+000	 7.933329999996682e+000	 1.001052368256668e+001
0	 8.933340177755776e+000	 8.000000000000000e+000	 1.000998195089970e+001
0	 9.000000347171181e+000	 7.333299999983333e+000	 1.001370063841160e+001
0	 9.000000347171179e+000	 7.399969999982150e+000	 1.001328160610104e+001
0	 9.000000347171179e+000	 7.466639999981866e+000	 1.001285710008769e+001
0	 9.000000347171181e+000	 7.533309999982382e+000	 1.001242623122768e+001
0	 9.000000347171175e+000	 7.599979999983598e+000	 1.001198811037717e+001
0	 9.000000347171179e+000	 7.666649999985415e+000	 1.001154184839227e+001
0	 9.000000347171179e+000	 7.733319999987733e+000	 1.001108655612911e+001
0	 9.000000347171183e+000	 7.799989999990450e+000	 1.001062134444383e+001
0	 9.000000347171181e+000	 7.866659999993465e+000	 1.001014532419257e+001
0	 9.000000347171179e+000	 7.933329999996680e+000	 1.000965760623146e+001
0	 9.000000347171179e+000	 8.000000000000000e+000	 1.000915730141662e+001
0	 9.066660599907664e+000	 7.333299999983334e+000	 1.001247829071617e+001
0	 9.066660599907666e+000	 7.399969999982150e+000	 1.001210278959938e+001
0	 9.066660599907669e+000	 7.466639999981868e+000	 1.001172115779966e+001
0	 9.066660599907666e+000	 7.533309999982381e+000	 1.001133254685217e+001
0	 9.066660599907666e+000	 7.599979999983600e+000	 1.001093610829221e+001
0	 9.066660599907666e+000	 7.666649999985416e+000	 1.001053099365495e+001
0	 9.066660599907667e+000	 7.733319999987733e+000	 1.001011635447570e+001
0	 9.066660599907664e+000	 7.799989999990449e+000	 1.000969134228958e+001
0	 9.066660599907666e+000	 7.866659999993464e+000	 1.000925510863189e+001
0	 9.066660599907666e+000	 7.933329999996680e+000	 1.000880680503783e+001
0	 9.066660599907669e+000	 8.000000000000000e+000	 1.000834558304262e+001
0	 9.133320952629651e+000	 7.333299999983333e+000	 1.001129821837546e+001
0	 9.133320952629651e+000	 7.399969999982150e+000	 1.001096276818895e+001
0	 9.133320952629651e+000	 7.466639999981867e+000	 1.001062065191156e+001
0	 9.133320952629653e+000	 7.533309999982383e+000	 1.001027105775933e+001
0	 9.133320952629653e+000	 7.599979999983598e+000	 1.000991317394827e+001
0	 9.133320952629653e+000	 7.666649999985417e+000	 1.000954618869439e+001
0	 9.133320952629651e+000	 7.733319999987732e+000	 1.000916929021371e+001
0	 9.133320952629653e+000	 7.799989999990447e+000	 1.000878166672223e+001
0	 9.133320952629651e+000	 7.866659999993465e+000	 1.000838250643597e+001
0	 9.133320952629649e+000	 7.933329999996681e+000	 1.000797099757094e+001
0	 9.133320952629655e+000	 8.000000000000000e+000	 1.000754632834316e+001
0	 9.199981422001555e+000	 7.333299999983335e+000	 1.001016225661249e+001
0	 9.199981422001557e+000	 7.399969999982151e+000	 1.000986310258398e+001
0	 9.199981422001557e+000	 7.466639999981866e+000	 1.000955687846090e+001
0	 9.199981422001557e+000	 7.533309999982383e+000	 1.000924280514170e+001
0	 9.199981422001553e+000	 7.599979999983598e+000	 1.000892010352491e+001
0	 9.199981422001555e+000	 7.666649999985416e+000	 1.000858799450899e+001
0	 9.199981422001553e+000	 7.733319999987731e+000	 1.000824569899245e+001
0	 9.199981422001555e+000	 7.799989999990448e+000	 1.000789243787377e+001
0	 9.199981422001558e+000	 7.866659999993465e+000	 1.000752743205140e+001
0	 9.199981422001557e+000	 7.933329999996682e+000	 1.000714990242386e+001
0	 9.199981422001555e+000	 8.000000000000000e+000	 1.000675906988964e+001
0	 9.266642024687791e+000	 7.333299999983333e+000	 1.000907224067931e+001
0	 9.266642024687792e+000	 7.399969999982149e+000	 1.000880535352527e+001
0	 9.266642024687792e+000	 7.466639999981866e+000	 1.000853113350908e+001
0	 9.266642024687789e+000	 7.533309999982382e+000	 1.000824883021337e+001
0	 9.266642024687792e+000	 7.599979999983598e+000	 1.000795769322082e+001
0	 9.266642024687791e+000	 7.666649999985414e+000	 1.000765697211404e+001
0	 9.266642024687792e+000	 7.733319999987732e+000	 1.000734591647568e+001
0	 9.266642024687792e+000	 7.799989999990448e+000	 1.000702377588840e+001
0	 9.266642024687791e+000	 7.866659999993463e+000	 1.000668979993480e+001
0	 9.266642024687789e+000	 7.933329999996679e+000	 1.000634323819756e+001
0	 9.266642024687791e+000	 8.000000000000002e+000	 1.000598334025932e+001
0	 9.333302777352783e+000	 7.333299999983333e+000	 1.000803000585689e+001
0	 9.333302777352783e+000	 7.399969999982150e+000	 1.000779108177996e+001
0	 9.333302777352783e+000	 7.466639999981865e+000	 1.000754471314150e+001
0	 9.333302777352781e+000	 7.533309999982383e+000	 1.000729017420991e+001
0	 9.333302777352785e+000	 7.599979999983599e+000	 1.000702673925375e+001
0	 9.333302777352781e+000	 7.666649999985415e+000	 1.000675368254145e+001
0	 9.333302777352781e+000	 7.733319999987732e+000	 1.000647027834156e+001
0	 9.333302777352781e+000	 7.799989999990446e+000	 1.000617580092253e+001
0	 9.333302777352781e+000	 7.866659999993463e+000	 1.000586952455282e+001
0	 9.333302777352783e+000	 7.933329999996682e+000	 1.000555072350095e+001
0	 9.333302777352783e+000	 8.000000000000000e+000	 1.000521867203539e+001
0	 8.666700000016666e+000	 7.999999999999999e+000	 1.001341920881987e+001
0	 8.666700000016666e+000	 8.066670000003317e+000	 1.001269517967114e+001
0	 8.666700000016666e+000	 8.133340000006532e+000	 1.001198722908521e+001
0	 8.666700000016666e+000	 8.200010000009550e+000	 1.001129403844679e+001
0	 8.666700000016668e+000	 8.266680000012267e+000	 1.001061428914058e+001
0	 8.666700000016668e+000	 8.333350000014583e+000	 1.000994666255125e+001
0	 8.666700000016668e+000	 8.400020000016401e+000	 1.000928984006345e+001
0	 8.666700000016670e+000	 8.466690000017618e+000	 1.000864250306190e+001
0	 8.666700000016666e+000	 8.533360000018133e+000	 1.000800333293126e+001
0	 8.666700000016665e+000	 8.600030000017847e+000	 1.000737101105622e+001
0	 8.666700000016666e+000	 8.666700000016668e+000	 1.000674421882145e+001
0	 8.733360002791903e+000	 8.000000000000000e+000	 1.001253816043718e+001
0	 8.733360002791903e+000	 8.066670000003319e+000	 1.001186217865046e+001
0	 8.733360002791905e+000	 8.133340000006532e+000	 1.001120111469652e+001
0	 8.733360002791905e+000	 8.200010000009552e+000	 1.001055370792466e+001
0	 8.733360002791901e+000	 8.266680000012265e+000	 1.000991869768432e+001
0	 8.733360002791905e+000	 8.333350000014582e+000	 1.000929482332478e+001
0	 8.733360002791899e+000	 8.400020000016397e+000	 1.000868082419540e+001
0	 8.733360002791901e+000	 8.466690000017618e+000	 1.000807543964553e+001
0	 8.733360002791899e+000	 8.533360000018130e+000	 1.000747740902451e+001
0	 8.733360002791901e+000	 8.600030000017847e+000	 1.000688547168173e+001
0	 8.733360002791901e+000	 8.666700000016666e+000	 1.000629836696650e+001
0	 8.800020022230557e+000	 8.000000000000004e+000	 1.001167191296068e+001
0	 8.800020022230557e+000	 8.066670000003315e+000	 1.001104242260801e+001
0	 8.800020022230555e+000	 8.133340000006534e+000	 1.001042674115384e+001
0	 8.800020022230553e+000	 8.200010000009547e+000	 1.000982366811128e+001
0	 8.800020022230555e+000	 8.266680000012267e+000	 1.000923200299347e+001
0	 8.800020022230555e+000	 8.333350000014582e+000	 1.000865054531351e+001
0	 8.800020022230557e+000	 8.400020000016401e+000	 1.000807809458454e+001
0	 8.800020022230555e+000	 8.466690000017616e+000	 1.000751345031968e+001
0	 8.800020022230553e+000	 8.533360000018131e+000	 1.000695541203204e+001
0	 8.800020022230553e+000	 8.600030000017846e+000	 1.000640277923475e+001
0	 8.800020022230555e+000	 8.666700000016666e+000	 1.000585435144095e+001
0	 8.866680074997044e+000	 8.000000000000002e+000	 1.001081999893228e+001
0	 8.866680074997040e+000	 8.066670000003317e+000	 1.001023527424992e+001
0	 8.866680074997040e+000	 8.133340000006532e+000	 1.000966332384798e+001
0	 8.866680074997040e+000	 8.200010000009549e+000	 1.000910300960231e+001
0	 8.866680074997042e+000	 8.266680000012268e+000	 1.000855319338894e+001
0	 8.866680074997040e+000	 8.333350000014582e+000	 1.000801273708381e+001
0	 8.866680074997042e+000	 8.400020000016401e+000	 1.000748050256287e+001
0	 8.866680074997040e+000	 8.466690000017618e+000	 1.000695535170202e+001
0	 8.866680074997040e+000	 8.533360000018133e+000	 1.000643614637726e+001
0	 8.866680074997042e+000	 8.600030000017847e+000	 1.000592174846450e+001
0	 8.866680074997042e+000	 8.666700000016670e+000	 1.000541101983973e+001
0	 8.933340177755776e+000	 8.000000000000000e+000	 1.000998195089970e+001
0	 8.933340177755779e+000	 8.066670000003319e+000	 1.000944009628633e+001
0	 8.933340177755776e+000	 8.133340000006532e+000	 1.000891007817181e+001
0	 8.933340177755776e+000	 8.200010000009550e+000	 1.000839082299392e+001
0	 8.933340177755774e+000	 8.266680000012265e+000	 1.000788125719044e+001
0	 8.933340177755778e+000	 8.333350000014583e+000	 1.000738030719916e+001
0	 8.933340177755774e+000	 8.400020000016397e+000	 1.000688689945784e+001
0	 8.933340177755778e+000	 8.466690000017616e+000	 1.000639996040428e+001
0	 8.933340177755774e+000	 8.533360000018131e+000	 1.000591841647622e+001
0	 8.933340177755774e+000	 8.600030000017847e+000	 1.000544119411149e+001
0	 8.933340177755776e+000	 8.666700000016665e+000	 1.000496721974785e+001
0	 9.000000347171179e+000	 8.000000000000000e+000	 1.000915730141662e+001
0	 9.000000347171181e+000	 8.066670000003319e+000	 1.000865625143134e+001
0	 9.000000347171179e+000	 8.133340000006534e+000	 1.000816621952047e+001
0	 9.000000347171179e+000	 8.200010000009549e+000	 1.000768619888261e+001
0	 9.000000347171183e+000	 8.266680000012267e+000	 1.000721518271629e+001
0	 9.000000347171177e+000	 8.333350000014583e+000	 1.000675216422007e+001
0	 9.000000347171177e+000	 8.400020000016399e+000	 1.000629613659252e+001
0	 9.000000347171179e+000	 8.466690000017616e+000	 1.000584609303221e+001
0	 9.000000347171179e+000	 8.533360000018133e+000	 1.000540102673770e+001
0	 9.000000347171179e+000	 8.600030000017847e+000	 1.000495993090755e+001
0	 9.000000347171181e+000	 8.666700000016666e+000	 1.000452179874032e+001
0	 9.066660599907669e+000	 8.000000000000000e+000	 1.000834558304262e+001
0	 9.066660599907664e+000	 8.066670000003315e+000	 1.000788310240303e+001
0	 9.066660599907666e+000	 8.133340000006534e+000	 1.000743096329115e+001
0	 9.066660599907666e+000	 8.200010000009554e+000	 1.000698822786523e+001
0	 9.066660599907664e+000	 8.266680000012265e+000	 1.000655395828346e+001
0	 9.066660599907664e+000	 8.333350000014582e+000	 1.000612721670413e+001
0	 9.066660599907666e+000	 8.400020000016397e+000	 1.000570706528547e+001
0	 9.066660599907664e+000	 8.466690000017616e+000	 1.000529256618568e+001
0	 9.066660599907667e+000	 8.533360000018133e+000	 1.000488278156305e+001
0	 9.066660599907669e+000	 8.600030000017851e+000	 1.000447677357576e+001
0	 9.066660599907667e+000	 8.666700000016670e+000	 1.000407360438207e+001
0	 9.133320952629655e+000	 8.000000000000000e+000	 1.000754632834316e+001
0	 9.133320952629651e+000	 8.066670000003315e+000	 1.000712001192345e+001
0	 9.133320952629653e+000	 8.133340000006532e+000	 1.000670352488314e+001
0	 9.133320952629651e+000	 8.200010000009550e+000	 1.000629600053899e+001
0	 9.133320952629653e+000	 8.266680000012265e+000	 1.000589657220771e+001
0	 9.133320952629653e+000	 8.333350000014582e+000	 1.000550437320605e+001
0	 9.133320952629651e+000	 8.400020000016399e+000	 1.000511853685074e+001
0	 9.133320952629649e+000	 8.466690000017614e+000	 1.000473819645858e+001
0	 9.133320952629653e+000	 8.533360000018131e+000	 1.000436248534624e+001
0	 9.133320952629649e+000	 8.600030000017847e+000	 1.000399053683051e+001
0	 9.133320952629651e+000	 8.666700000016665e+000	 1.000362148422813e+001
0	 9.199981422001555e+000	 8.000000000000000e+000	 1.000675906988964e+001
0	 9.199981422001557e+000	 8.066670000003317e+000	 1.000636634271867e+001
0	 9.199981422001555e+000	 8.133340000006534e+000	 1.000598311969796e+001
0	 9.199981422001555e+000	 8.200010000009549e+000	 1.000560860750151e+001
0	 9.199981422001558e+000	 8.266680000012268e+000	 1.000524201280337e+001
0	 9.199981422001555e+000	 8.333350000014583e+000	 1.000488254227752e+001
0	 9.199981422001555e+000	 8.400020000016397e+000	 1.000452940259800e+001
0	 9.199981422001557e+000	 8.466690000017616e+000	 1.000418180043883e+001
0	 9.199981422001553e+000	 8.533360000018133e+000	 1.000383894247400e+001
0	 9.199981422001555e+000	 8.600030000017847e+000	 1.000350003537754e+001
0	 9.199981422001557e+000	 8.666700000016668e+000	 1.000316428582347e+001
0	 9.266642024687791e+000	 8.000000000000002e+000	 1.000598334025932e+001
0	 9.266642024687792e+000	 8.066670000003317e+000	 1.000562145751868e+001
0	 9.266642024687794e+000	 8.133340000006534e+000	 1.000526896313918e+001
0	 9.266642024687791e+000	 8.200010000009550e+000	 1.000492513935079e+001
0	 9.266642024687789e+000	 8.266680000012267e+000	 1.000458926838354e+001
0	 9.266642024687794e+000	 8.333350000014585e+000	 1.000426063246742e+001
0	 9.266642024687792e+000	 8.400020000016401e+000	 1.000393851383238e+001
0	 9.266642024687789e+000	 8.466690000017614e+000	 1.000362219470842e+001
0	 9.266642024687792e+000	 8.533360000018131e+000	 1.000331095732559e+001
0	 9.266642024687792e+000	 8.600030000017849e+000	 1.000300408391380e+001
0	 9.266642024687794e+000	 8.666700000016666e+000	 1.000270085670309e+001
0	 9.333302777352783e+000	 8.000000000000000e+000	 1.000521867203539e+001
0	 9.333302777352783e+000	 8.066670000003317e+000	 1.000488471905747e+001
0	 9.333302777352783e+000	 8.133340000006532e+000	 1.000456027061254e+001
0	 9.333302777352781e+000	 8.200010000009550e+000	 1.000424468668516e+001
0	 9.333302777352781e+000	 8.266680000012267e+000	 1.000393732725998e+001
0	 9.333302777352783e+000	 8.333350000014585e+000	 1.000363755232157e+001
0	 9.333302777352783e+000	 8.400020000016399e+000	 1.000334472185454e+001
0	 9.333302777352783e+000	 8.466690000017616e+000	 1.000305819584346e+001
0	 9.333302777352781e+000	 8.533360000018131e+000	 1.000277733427296e+001
0	 9.333302777352783e+000	 8.600030000017847e+000	 1.000250149712760e+001
0	 9.333302777352785e+000	 8.666700000016666e+000	 1.000223004439202e+001
0	 8.666700000016666e+000	 8.666700000016668e+000	 1.000674421882145e+001
0	 8.666700000016668e+000	 8.733360002791903e+000	 1.000613550130460e+001
0	 8.666700000016666e+000	 8.800020022230555e+000	 1.000555718758233e+001
0	 8.666700000016670e+000	 8.866680074997040e+000	 1.000500791597012e+001
0	 8.666700000016665e+000	 8.933340177755774e+000	 1.000448632469839e+001
0	 8.666700000016668e+000	 9.000000347171179e+000	 1.000399105191247e+001
0	 8.666700000016668e+000	 9.066660599907667e+000	 1.000352073567259e+001
0	 8.666700000016665e+000	 9.133320952629653e+000	 1.000307401395399e+001
0	 8.666700000016668e+000	 9.199981422001553e+000	 1.000264952464666e+001
0	 8.666700000016665e+000	 9.266642024687792e+000	 1.000224590555572e+001
0	 8.666700000016668e+000	 9.333302777352785e+000	 1.000186179440111e+001
0	 8.733360002791901e+000	 8.666700000016666e+000	 1.000629836696650e+001
0	 8.733360002791903e+000	 8.733360002791903e+000	 1.000572815314196e+001
0	 8.733360002791903e+000	 8.800020022230555e+000	 1.000518670784935e+001
0	 8.733360002791898e+000	 8.866680074997040e+000	 1.000467276273108e+001
0	 8.733360002791903e+000	 8.933340177755774e+000	 1.000418504934965e+001
0	 8.733360002791901e+000	 9.000000347171179e+000	 1.000372229918746e+001
0	 8.733360002791899e+000	 9.066660599907664e+000	 1.000328324364701e+001
0	 8.733360002791903e+000	 9.133320952629653e+000	 1.000286661405091e+001
0	 8.733360002791901e+000	 9.199981422001555e+000	 1.000247114164169e+001
0	 8.733360002791901e+000	 9.266642024687791e+000	 1.000209555758194e+001
0	 8.733360002791901e+000	 9.333302777352783e+000	 1.000173859295442e+001
0	 8.800020022230555e+000	 8.666700000016666e+000	 1.000585435144095e+001
0	 8.800020022230555e+000	 8.733360002791905e+000	 1.000532172215404e+001
0	 8.800020022230553e+000	 8.800020022230552e+000	 1.000481633436245e+001
0	 8.800020022230552e+000	 8.866680074997040e+000	 1.000433700776453e+001
0	 8.800020022230555e+000	 8.933340177755776e+000	 1.000388256198355e+001
0	 8.800020022230555e+000	 9.000000347171179e+000	 1.000345181656775e+001
0	 8.800020022230555e+000	 9.066660599907664e+000	 1.000304359099028e+001
0	 8.800020022230553e+000	 9.133320952629653e+000	 1.000265670464919e+001
0	 8.800020022230555e+000	 9.199981422001557e+000	 1.000228997686748e+001
0	 8.800020022230555e+000	 9.266642024687791e+000	 1.000194222689311e+001
0	 8.800020022230553e+000	 9.333302777352781e+000	 1.000161227389891e+001
0	 8.866680074997042e+000	 8.666700000016670e+000	 1.000541101983973e+001
0	 8.866680074997040e+000	 8.733360002791899e+000	 1.000491510219562e+001
0	 8.866680074997040e+000	 8.800020022230552e+000	 1.000444501155726e+001
0	 8.866680074997042e+000	 8.866680074997042e+000	 1.000399965040798e+001
0	 8.866680074997040e+000	 8.933340177755778e+000	 1.000357792116061e+001
0	 8.866680074997040e+000	 9.000000347171177e+000	 1.000317872615763e+001
0	 8.866680074997039e+000	 9.066660599907662e+000	 1.000280096767108e+001
0	 8.866680074997044e+000	 9.133320952629653e+000	 1.000244354790260e+001
0	 8.866680074997040e+000	 9.199981422001555e+000	 1.000210536898341e+001
0	 8.866680074997042e+000	 9.266642024687792e+000	 1.000178533297430e+001
0	 8.866680074997042e+000	 9.333302777352785e+000	 1.000148234186567e+001
0	 8.933340177755776e+000	 8.666700000016665e+000	 1.000496721974785e+001
0	 8.933340177755778e+000	 8.733360002791901e+000	 1.000450718711015e+001
0	 8.933340177755776e+000	 8.800020022230555e+000	 1.000407168385701e+001
0	 8.933340177755776e+000	 8.866680074997040e+000	 1.000365968998551e+001
0	 8.933340177755774e+000	 8.933340177755774e+000	 1.000327018542677e+001
0	 8.933340177755776e+000	 9.000000347171181e+000	 1.000290215004585e+001
0	 8.933340177755778e+000	 9.066660599907666e+000	 1.000255456364185e+001
0	 8.933340177755778e+000	 9.133320952629651e+000	 1.000222640594789e+001
0	 8.933340177755778e+000	 9.199981422001555e+000	 1.000191665663108e+001
0	 8.933340177755778e+000	 9.266642024687792e+000	 1.000162429529252e+001
0	 8.933340177755776e+000	 9.333302777352785e+000	 1.000134830146734e+001
0	 9.000000347171181e+000	 8.666700000016666e+000	 1.000452179874032e+001
0	 9.000000347171181e+000	 8.733360002791899e+000	 1.000409687072986e+001
0	 9.000000347171177e+000	 8.800020022230553e+000	 1.000369529567243e+001
0	 9.000000347171181e+000	 8.866680074997042e+000	 1.000331612580768e+001
0	 9.000000347171183e+000	 8.933340177755778e+000	 1.000295841331345e+001
0	 9.000000347171181e+000	 9.000000347171181e+000	 1.000262121030573e+001
0	 9.000000347171179e+000	 9.066660599907667e+000	 1.000230356883871e+001
0	 9.000000347171179e+000	 9.133320952629653e+000	 1.000200454090475e+001
0	 9.000000347171181e+000	 9.199981422001558e+000	 1.000172317843444e+001
0	 9.000000347171179e+000	 9.266642024687789e+000	 1.000145853329647e+001
0	 9.000000347171181e+000	 9.333302777352783e+000	 1.000120965729784e+001
0	 9.066660599907667e+000	 8.666700000016670e+000	 1.000407360438207e+001
0	 9.066660599907664e+000	 8.733360002791901e+000	 1.000368304687576e+001
0	 9.066660599907664e+000	 8.800020022230553e+000	 1.000331479140195e+001
0	 9.066660599907664e+000	 8.866680074997039e+000	 1.000296795717156e+001
0	 9.066660599907666e+000	 8.933340177755776e+000	 1.000264166333756e+001
0	 9.066660599907666e+000	 9.000000347171179e+000	 1.000233502899509e+001
0	 9.066660599907667e+000	 9.066660599907667e+000	 1.000204717318136e+001
0	 9.066660599907666e+000	 9.133320952629653e+000	 1.000177721487575e+001
0	 9.066660599907664e+000	 9.199981422001555e+000	 1.000152427299965e+001
0	 9.066660599907664e+000	 9.266642024687789e+000	 1.000128746641668e+001
0	 9.066660599907667e+000	 9.333302777352786e+000	 1.000106591393245e+001
0	 9.133320952629651e+000	 8.666700000016665e+000	 1.000362148422813e+001
0	 9.133320952629651e+000	 8.733360002791901e+000	 1.000326460935764e+001
0	 9.133320952629651e+000	 8.800020022230553e+000	 1.000292911543155e+001
0	 9.133320952629655e+000	 8.866680074997042e+000	 1.000261418336061e+001
0	 9.133320952629651e+000	 8.933340177755778e+000	 1.000231899400139e+001
0	 9.133320952629655e+000	 9.000000347171177e+000	 1.000204272815626e+001
0	 9.133320952629651e+000	 9.066660599907667e+000	 1.000178456657329e+001
0	 9.133320952629651e+000	 9.133320952629651e+000	 1.000154368994639e+001
0	 9.133320952629651e+000	 9.199981422001553e+000	 1.000131927891525e+001
0	 9.133320952629653e+000	 9.266642024687794e+000	 1.000111051406534e+001
0	 9.133320952629651e+000	 9.333302777352783e+000	 1.000091657592787e+001
0	 9.199981422001557e+000	 8.666700000016668e+000	 1.000316428582347e+001
0	 9.199981422001553e+000	 8.733360002791901e+000	 1.000284045197401e+001
0	 9.199981422001557e+000	 8.800020022230555e+000	 1.000253721213476e+001
0	 9.199981422001557e+000	 8.866680074997042e+000	 1.000225380364488e+001
0	 9.199981422001555e+000	 8.933340177755776e+000	 1.000198946379281e+001
0	 9.199981422001557e+000	 9.000000347171181e+000	 1.000174342981610e+001
0	 9.199981422001555e+000	 9.066660599907664e+000	 1.000151493890156e+001
0	 9.199981422001551e+000	 9.133320952629649e+000	 1.000130322818515e+001
0	 9.199981422001557e+000	 9.199981422001557e+000	 1.000110753475201e+001
0	 9.199981422001555e+000	 9.266642024687794e+000	 1.000092709563652e+001
0	 9.199981422001553e+000	 9.333302777352779e+000	 1.000076114782217e+001
0	 9.266642024687794e+000	 8.666700000016666e+000	 1.000270085670309e+001
0	 9.266642024687792e+000	 8.733360002791901e+000	 1.000240946851224e+001
0	 9.266642024687791e+000	 8.800020022230555e+000	 1.000213802587277e+001
0	 9.266642024687792e+000	 8.866680074997040e+000	 1.000188581728087e+001
0	 9.266642024687792e+000	 8.933340177755779e+000	 1.000165213118500e+001
0	 9.266642024687791e+000	 9.000000347171179e+000	 1.000143625598599e+001
0	 9.266642024687791e+000	 9.066660599907664e+000	 1.000123748003697e+001
0	 9.266642024687792e+000	 9.133320952629655e+000	 1.000105509164338e+001
0	 9.266642024687792e+000	 9.199981422001557e+000	 1.000088837906302e+001
0	 9.266642024687794e+000	 9.266642024687794e+000	 1.000073663050601e+001
0	 9.266642024687792e+000	 9.333302777352785e+000	 1.000059913413479e+001
0	 9.333302777352785e+000	 8.666700000016666e+000	 1.000223004439202e+001
0	 9.333302777352781e+000	 8.733360002791901e+000	 1.000197055274835e+001
0	 9.333302777352783e+000	 8.800020022230553e+000	 1.000173050099434e+001
0	 9.333302777352781e+000	 8.866680074997040e+000	 1.000150922351156e+001
0	 9.333302777352783e+000	 8.933340177755778e+000	 1.000130605463674e+001
0	 9.333302777352785e+000	 9.000000347171183e+000	 1.000112032866185e+001
0	 9.333302777352783e+000	 9.066660599907666e+000	 1.000095137983396e+001
0	 9.333302777352783e+000	 9.133320952629653e+000	 1.000079854235539e+001
0	 9.333302777352781e+000	 9.199981422001553e+000	 1.000066115038363e+001
0	 9.333302777352783e+000	 9.266642024687792e+000	 1.000053853803139e+001
0	 9.333302777352783e+000	 9.333302777352781e+000	 1.000043003936651e+001
0	 8.666700000016668e+000	 9.333302777352785e+000	 1.000186179440110e+001
0	 8.666700000016668e+000	 9.399973674588178e+000	 1.000150749021599e+001
0	 8.666700000016666e+000	 9.466644621844621e+000	 1.000119346528366e+001
0	 8.666700000016663e+000	 9.533315502449998e+000	 1.000091844908449e+001
0	 8.666700000016666e+000	 9.599986199732195e+000	 1.000068117194025e+001
0	 8.666700000016666e+000	 9.666656597019093e+000	 1.000048036501410e+001
0	 8.666700000016665e+000	 9.733326577638575e+000	 1.000031476031066e+001
0	 8.666700000016666e+000	 9.799996024918521e+000	 1.000018309067601e+001
0	 8.666700000016666e+000	 9.866664822186818e+000	 1.000008408979766e+001
0	 8.666700000016665e+000	 9.933332852771349e+000	 1.000001649220509e+001
0	 8.666700000016666e+000	 1.000000000000000e+001	 9.999979033269259e+000
0	 8.733360002791901e+000	 9.333302777352783e+000	 1.000173859295442e+001
0	 8.733360002791903e+000	 9.399973674588178e+000	 1.000140950547161e+001
0	 8.733360002791905e+000	 9.466644621844623e+000	 1.000111774922209e+001
0	 8.733360002791901e+000	 9.533315502449996e+000	 1.000086219372802e+001
0	 8.733360002791901e+000	 9.599986199732193e+000	 1.000064170929311e+001
0	 8.733360002791905e+000	 9.666656597019093e+000	 1.000045516700252e+001
0	 8.733360002791901e+000	 9.733326577638573e+000	 1.000030143872307e+001
0	 8.733360002791901e+000	 9.799996024918521e+000	 1.000017939710305e+001
0	 8.733360002791901e+000	 9.866664822186820e+000	 1.000008791557246e+001
0	 8.733360002791901e+000	 9.933332852771352e+000	 1.000002586834316e+001
0	 8.733360002791901e+000	 1.000000000000000e+001	 9.999992130408712e+000
0	 8.800020022230553e+000	 9.333302777352781e+000	 1.000161227389891e+001
0	 8.800020022230553e+000	 9.399973674588175e+000	 1.000130825445408e+001
0	 8.800020022230553e+000	 9.466644621844623e+000	 1.000103854319514e+001
0	 8.800020022230555e+000	 9.533315502450000e+000	 1.000080217221435e+001
0	 8.800020022230553e+000	 9.599986199732193e+000	 1.000059817432569e+001
0	 8.800020022230557e+000	 9.666656597019097e+000	 1.000042558306450e+001
0	 8.800020022230553e+000	 9.733326577638577e+000	 1.000028343268783e+001
0	 8.800020022230555e+000	 9.799996024918524e+000	 1.000017075817433e+001
0	 8.800020022230555e+000	 9.866664822186822e+000	 1.000008659522437e+001
0	 8.800020022230555e+000	 9.933332852771352e+000	 1.000002998025997e+001
0	 8.800020022230555e+000	 1.000000000000000e+001	 9.999999950425123e+000
0	 8.866680074997042e+000	 9.333302777352785e+000	 1.000148234186567e+001
0	 8.866680074997039e+000	 9.399973674588173e+000	 1.000120334099177e+001
0	 8.866680074997039e+000	 9.466644621844619e+000	 1.000095557398454e+001
0	 8.866680074997037e+000	 9.533315502449996e+000	 1.000073825803534e+001
0	 8.866680074997037e+000	 9.599986199732195e+000	 1.000055061099738e+001
0	 8.866680074997040e+000	 9.666656597019093e+000	 1.000039185138544e+001
0	 8.866680074997040e+000	 9.733326577638573e+000	 1.000026119837624e+001
0	 8.866680074997039e+000	 9.799996024918521e+000	 1.000015787180823e+001
0	 8.866680074997040e+000	 9.866664822186820e+000	 1.000008109218174e+001
0	 8.866680074997042e+000	 9.933332852771352e+000	 1.000003008065897e+001
0	 8.866680074997039e+000	 1.000000000000000e+001	 1.000000405906448e+001
0	 8.933340177755776e+000	 9.333302777352785e+000	 1.000134830146734e+001
0	 8.933340177755776e+000	 9.399973674588175e+000	 1.000109436889414e+001
0	 8.933340177755778e+000	 9.466644621844619e+000	 1.000086856835291e+001
0	 8.933340177755776e+000	 9.533315502449998e+000	 1.000067032466355e+001
0	 8.933340177755778e+000	 9.599986199732195e+000	 1.000049906324823e+001
0	 8.933340177755776e+000	 9.666656597019090e+000	 1.000035421013147e+001
0	 8.933340177755778e+000	 9.733326577638572e+000	 1.000023519194006e+001
0	 8.933340177755778e+000	 9.799996024918521e+000	 1.000014143590351e+001
0	 8.933340177755776e+000	 9.866664822186822e+000	 1.000007236985323e+001
0	 8.933340177755776e+000	 9.933332852771351e+000	 1.000002742222363e+001
0	 8.933340177755776e+000	 1.000000000000000e+001	 1.000000602205160e+001
0	 9.000000347171181e+000	 9.333302777352783e+000	 1.000120965729784e+001
0	 9.000000347171177e+000	 9.399973674588178e+000	 1.000098094195164e+001
0	 9.000000347171179e+000	 9.466644621844619e+000	 1.000077725304379e+001
0	 9.000000347171177e+000	 9.533315502449998e+000	 1.000059824555245e+001
0	 9.000000347171177e+000	 9.599986199732195e+000	 1.000044357499922e+001
0	 9.000000347171175e+000	 9.666656597019095e+000	 1.000031289744936e+001
0	 9.000000347171177e+000	 9.733326577638573e+000	 1.000020586951184e+001
0	 9.000000347171179e+000	 9.799996024918523e+000	 1.000012214833911e+001
0	 9.000000347171177e+000	 9.866664822186820e+000	 1.000006139162741e+001
0	 9.000000347171183e+000	 9.933332852771351e+000	 1.000002325761669e+001
0	 9.000000347171179e+000	 1.000000000000000e+001	 1.000000740509078e+001
0	 9.066660599907667e+000	 9.333302777352786e+000	 1.000106591393245e+001
0	 9.066660599907666e+000	 9.399973674588175e+000	 1.000086266393597e+001
0	 9.066660599907666e+000	 9.466644621844619e+000	 1.000068135478171e+001
0	 9.066660599907667e+000	 9.533315502450000e+000	 1.000052189413623e+001
0	 9.066660599907667e+000	 9.599986199732198e+000	 1.000038419015188e+001
0	 9.066660599907664e+000	 9.666656597019093e+000	 1.000026815146669e+001
0	 9.066660599907666e+000	 9.733326577638572e+000	 1.000017368720448e+001
0	 9.066660599907666e+000	 9.799996024918523e+000	 1.000010070697479e+001
0	 9.066660599907666e+000	 9.866664822186820e+000	 1.000004912087313e+001
0	 9.066660599907666e+000	 9.933332852771354e+000	 1.000001883948080e+001
0	 9.066660599907664e+000	 1.000000000000000e+001	 1.000000977386520e+001
0	 9.133320952629651e+000	 9.333302777352783e+000	 1.000091657592787e+001
0	 9.133320952629649e+000	 9.399973674588173e+000	 1.000073913859987e+001
0	 9.133320952629655e+000	 9.466644621844623e+000	 1.000058060027205e+001
0	 9.133320952629651e+000	 9.533315502450000e+000	 1.000044114383012e+001
0	 9.133320952629651e+000	 9.599986199732197e+000	 1.000032095258872e+001
0	 9.133320952629653e+000	 9.666656597019092e+000	 1.000022021029160e+001
0	 9.133320952629649e+000	 9.733326577638573e+000	 1.000013910111154e+001
0	 9.133320952629651e+000	 9.799996024918521e+000	 1.000007780965044e+001
0	 9.133320952629651e+000	 9.866664822186818e+000	 1.000003652093930e+001
0	 9.133320952629649e+000	 9.933332852771351e+000	 1.000001542043852e+001
0	 9.133320952629653e+000	 1.000000000000000e+001	 1.000001469403734e+001
0	 9.199981422001553e+000	 9.333302777352779e+000	 1.000076114782217e+001
0	 9.199981422001557e+000	 9.399973674588175e+000	 1.000060996967716e+001
0	 9.199981422001553e+000	 9.466644621844619e+000	 1.000047471620123e+001
0	 9.199981422001555e+000	 9.533315502449996e+000	 1.000035586803002e+001
0	 9.199981422001557e+000	 9.599986199732198e+000	 1.000025390617291e+001
0	 9.199981422001557e+000	 9.666656597019093e+000	 1.000016931201301e+001
0	 9.199981422001555e+000	 9.733326577638575e+000	 1.000010256730726e+001
0	 9.199981422001555e+000	 9.799996024918523e+000	 1.000005415418640e+001
0	 9.199981422001555e+000	 9.866664822186820e+000	 1.000002455515503e+001
0	 9.199981422001555e+000	 9.933332852771351e+000	 1.000001425309166e+001
0	 9.199981422001555e+000	 9.999999999999998e+000	 1.000002373124863e+001
0	 9.266642024687792e+000	 9.333302777352785e+000	 1.000059913413479e+001
0	 9.266642024687794e+000	 9.399973674588177e+000	 1.000047476088285e+001
0	 9.266642024687792e+000	 9.466644621844623e+000	 1.000036342923654e+001
0	 9.266642024687794e+000	 9.533315502450002e+000	 1.000026594011273e+001
0	 9.266642024687792e+000	 9.599986199732195e+000	 1.000018309474835e+001
0	 9.266642024687792e+000	 9.666656597019093e+000	 1.000011569470049e+001
0	 9.266642024687791e+000	 9.733326577638572e+000	 1.000006454184640e+001
0	 9.266642024687791e+000	 9.799996024918523e+000	 1.000003043838350e+001
0	 9.266642024687792e+000	 9.866664822186820e+000	 1.000001418682938e+001
0	 9.266642024687791e+000	 9.933332852771351e+000	 1.000001659002211e+001
0	 9.266642024687791e+000	 9.999999999999998e+000	 1.000003845111962e+001
0	 9.333302777352783e+000	 9.333302777352781e+000	 1.000043003936652e+001
0	 9.333302777352783e+000	 9.399973674588177e+000	 1.000033311591298e+001
0	 9.333302777352785e+000	 9.466644621844621e+000	 1.000024646602628e+001
0	 9.333302777352783e+000	 9.533315502450000e+000	 1.000017123343590e+001
0	 9.333302777352783e+000	 9.599986199732197e+000	 1.000010856213981e+001
0	 9.333302777352783e+000	 9.666656597019093e+000	 1.000005959640432e+001
0	 9.333302777352783e+000	 9.733326577638575e+000	 1.000002548076427e+001
0	 9.333302777352781e+000	 9.799996024918523e+000	 1.000000736002286e+001
0	 9.333302777352783e+000	 9.866664822186818e+000	 1.000000637925180e+001
0	 9.333302777352785e+000	 9.933332852771351e+000	 1.000002368379128e+001
0	 9.333302777352783e+000	 1.000000000000000e+001	 1.000006041925010e+001
0	 9.333302777352783e+000	 0.000000000000000e+000	 9.779309777693594e+000
0	 9.333302777352783e+000	 6.666714722864756e-002	 9.779377216838945e+000
0	 9.333302777352783e+000	 1.333351778131789e-001	 9.779593895351304e+000
0	 9.333302777352785e+000	 2.000039750814772e-001	 9.779960240281051e+000
0	 9.333302777352779e+000	 2.666734223614256e-001	 9.780476680704426e+000
0	 9.333302777352783e+000	 3.333434029809069e-001	 9.781143647723438e+000
0	 9.333302777352781e+000	 4.000138002678044e-001	 9.781961574465710e+000
0	 9.333302777352781e+000	 4.666844975500011e-001	 9.782930896084412e+000
0	 9.333302777352783e+000	 5.333553781553801e-001	 9.784052049758273e+000
0	 9.333302777352783e+000	 6.000263254118248e-001	 9.785325474691616e+000
0	 9.333302777352783e+000	 6.666972226472175e-001	 9.786751612114408e+000
0	 9.399973674588177e+000	 0.000000000000000e+000	 9.767480231485550e+000
0	 9.399973674588173e+000	 6.666714722864754e-002	 9.767554475297594e+000
0	 9.399973674588175e+000	 1.333351778131789e-001	 9.767783475675676e+000
0	 9.399973674588175e+000	 2.000039750814772e-001	 9.768167625293380e+000
0	 9.399973674588175e+000	 2.666734223614256e-001	 9.768707318910584e+000
0	 9.399973674588175e+000	 3.333434029809069e-001	 9.769402953373374e+000
0	 9.399973674588177e+000	 4.000138002678044e-001	 9.770254927613911e+000
0	 9.399973674588175e+000	 4.666844975500012e-001	 9.771263642650290e+000
0	 9.399973674588177e+000	 5.333553781553803e-001	 9.772429501586656e+000
0	 9.399973674588175e+000	 6.000263254118246e-001	 9.773752909613126e+000
0	 9.399973674588180e+000	 6.666972226472177e-001	 9.775234274005989e+000
0	 9.466644621844621e+000	 0.000000000000000e+000	 9.755354755968980e+000
0	 9.466644621844619e+000	 6.666714722864756e-002	 9.755436289397514e+000
0	 9.466644621844623e+000	 1.333351778131789e-001	 9.755678775968917e+000
0	 9.466644621844621e+000	 2.000039750814773e-001	 9.756082584545460e+000
0	 9.466644621844621e+000	 2.666734223614255e-001	 9.756648086144839e+000
0	 9.466644621844619e+000	 3.333434029809069e-001	 9.757375653940120e+000
0	 9.466644621844619e+000	 4.000138002678044e-001	 9.758265663259531e+000
0	 9.466644621844619e+000	 4.666844975500011e-001	 9.759318491586416e+000
0	 9.466644621844624e+000	 5.333553781553805e-001	 9.760534518559267e+000
0	 9.466644621844621e+000	 6.000263254118248e-001	 9.761914125971673e+000
0	 9.466644621844619e+000	 6.666972226472175e-001	 9.763457697772502e+000
0	 9.533315502450000e+000	 0.000000000000000e+000	 9.742912680880357e+000
0	 9.533315502449998e+000	 6.666714722864757e-002	 9.743001632999082e+000
0	 9.533315502450002e+000	 1.333351778131789e-001	 9.743258409225620e+000
0	 9.533315502449998e+000	 2.000039750814773e-001	 9.743683365174590e+000
0	 9.533315502450003e+000	 2.666734223614256e-001	 9.744276858693825e+000
0	 9.533315502449996e+000	 3.333434029809069e-001	 9.745039249864329e+000
0	 9.533315502449998e+000	 4.000138002678044e-001	 9.745970900999980e+000
0	 9.533315502450000e+000	 4.666844975500012e-001	 9.747072176647603e+000
0	 9.533315502449996e+000	 5.333553781553801e-001	 9.748343443586855e+000
0	 9.533315502449998e+000	 6.000263254118248e-001	 9.749785070830356e+000
0	 9.533315502449998e+000	 6.666972226472177e-001	 9.751397429623680e+000
0	 9.599986199732195e+000	 0.000000000000000e+000	 9.730133337853477e+000
0	 9.599986199732195e+000	 6.666714722864756e-002	 9.730229481837338e+000
0	 9.599986199732193e+000	 1.333351778131789e-001	 9.730500990290839e+000
0	 9.599986199732195e+000	 2.000039750814773e-001	 9.730948216142888e+000
0	 9.599986199732198e+000	 2.666734223614257e-001	 9.731571514642038e+000
0	 9.599986199732195e+000	 3.333434029809068e-001	 9.732371243356267e+000
0	 9.599986199732197e+000	 4.000138002678044e-001	 9.733347762172917e+000
0	 9.599986199732195e+000	 4.666844975500012e-001	 9.734501433298524e+000
0	 9.599986199732195e+000	 5.333553781553804e-001	 9.735832621258860e+000
0	 9.599986199732198e+000	 6.000263254118248e-001	 9.737341692898966e+000
0	 9.599986199732197e+000	 6.666972226472175e-001	 9.739029017383251e+000
0	 9.666656597019093e+000	 0.000000000000000e+000	 9.716996060419685e+000
0	 9.666656597019093e+000	 6.666714722864756e-002	 9.717098813522224e+000
0	 9.666656597019093e+000	 1.333351778131789e-001	 9.717385135860276e+000
0	 9.666656597019092e+000	 2.000039750814772e-001	 9.717855388237473e+000
0	 9.666656597019093e+000	 2.666734223614255e-001	 9.718509933871903e+000
0	 9.666656597019092e+000	 3.333434029809068e-001	 9.719349138396026e+000
0	 9.666656597019093e+000	 4.000138002678045e-001	 9.720373369856487e+000
0	 9.666656597019092e+000	 4.666844975500011e-001	 9.721582998714053e+000
0	 9.666656597019092e+000	 5.333553781553803e-001	 9.722978397843621e+000
0	 9.666656597019093e+000	 6.000263254118248e-001	 9.724559942534226e+000
0	 9.666656597019092e+000	 6.666972226472175e-001	 9.726328010489169e+000
0	 9.733326577638575e+000	 0.000000000000000e+000	 9.703480184008191e+000
0	 9.733326577638575e+000	 6.666714722864754e-002	 9.703588607538814e+000
0	 9.733326577638575e+000	 1.333351778131789e-001	 9.703889464480657e+000
0	 9.733326577638575e+000	 2.000039750814773e-001	 9.704383134070810e+000
0	 9.733326577638573e+000	 2.666734223614256e-001	 9.705069998064252e+000
0	 9.733326577638575e+000	 3.333434029809070e-001	 9.705950440733719e+000
0	 9.733326577638573e+000	 4.000138002678044e-001	 9.707024848869526e+000
0	 9.733326577638572e+000	 4.666844975500010e-001	 9.708293611779421e+000
0	 9.733326577638572e+000	 5.333553781553803e-001	 9.709757121288654e+000
0	 9.733326577638572e+000	 6.000263254118248e-001	 9.711415771740008e+000
0	 9.733326577638573e+000	 6.666972226472177e-001	 9.713269959993898e+000
0	 9.799996024918521e+000	 0.000000000000000e+000	 9.689565045946324e+000
0	 9.799996024918521e+000	 6.666714722864757e-002	 9.689677845247758e+000
0	 9.799996024918523e+000	 1.333351778131789e-001	 9.689992596549937e+000
0	 9.799996024918523e+000	 2.000039750814773e-001	 9.690509708080892e+000
0	 9.799996024918523e+000	 2.666734223614256e-001	 9.691229590698455e+000
0	 9.799996024918521e+000	 3.333434029809068e-001	 9.692152657889928e+000
0	 9.799996024918523e+000	 4.000138002678044e-001	 9.693279325771988e+000
0	 9.799996024918523e+000	 4.666844975500011e-001	 9.694610013090616e+000
0	 9.799996024918521e+000	 5.333553781553801e-001	 9.696145141220995e+000
0	 9.799996024918521e+000	 6.000263254118247e-001	 9.697885134167699e+000
0	 9.799996024918523e+000	 6.666972226472177e-001	 9.699830418564698e+000
0	 9.866664822186820e+000	 0.000000000000000e+000	 9.675229985459932e+000
0	 9.866664822186818e+000	 6.666714722864756e-002	 9.675345509885471e+000
0	 9.866664822186820e+000	 1.333351778131789e-001	 9.675673154317670e+000
0	 9.866664822186818e+000	 2.000039750814772e-001	 9.676213366531766e+000
0	 9.866664822186820e+000	 2.666734223614256e-001	 9.676966597052891e+000
0	 9.866664822186822e+000	 3.333434029809069e-001	 9.677933299155916e+000
0	 9.866664822186818e+000	 4.000138002678044e-001	 9.679113928865206e+000
0	 9.866664822186820e+000	 4.666844975500012e-001	 9.680508944954632e+000
0	 9.866664822186820e+000	 5.333553781553803e-001	 9.682118808947450e+000
0	 9.866664822186822e+000	 6.000263254118249e-001	 9.683943985116411e+000
0	 9.866664822186820e+000	 6.666972226472177e-001	 9.685984940483925e+000
0	 9.933332852771352e+000	 0.000000000000000e+000	 9.660454343673813e+000
0	 9.933332852771352e+000	 6.666714722864756e-002	 9.660570586564708e+000
0	 9.933332852771352e+000	 1.333351778131789e-001	 9.660909761885574e+000
0	 9.933332852771351e+000	 2.000039750814772e-001	 9.661472367513795e+000
0	 9.933332852771352e+000	 2.666734223614256e-001	 9.662258904205311e+000
0	 9.933332852771351e+000	 3.333434029809068e-001	 9.663269875594104e+000
0	 9.933332852771352e+000	 4.000138002678044e-001	 9.664505788192331e+000
0	 9.933332852771352e+000	 4.666844975500012e-001	 9.665967151390001e+000
0	 9.933332852771351e+000	 5.333553781553803e-001	 9.667654477455113e+000
0	 9.933332852771351e+000	 6.000263254118247e-001	 9.669568281533620e+000
0	 9.933332852771351e+000	 6.666972226472177e-001	 9.671709081649521e+000
0	 1.000000000000000e+001	 0.000000000000000e+000	 9.645217463612120e+000
0	 1.000000000000000e+001	 6.666714722864756e-002	 9.645332062274921e+000
0	 9.999999999999998e+000	 1.333351778131789e-001	 9.645681045207745e+000
0	 1.000000000000000e+001	 2.000039750814772e-001	 9.646264970944262e+000
0	 1.000000000000000e+001	 2.666734223614256e-001	 9.647084401033300e+000
0	 1.000000000000000e+001	 3.333434029809069e-001	 9.648139900038544e+000
0	 1.000000000000000e+001	 4.000138002678044e-001	 9.649432035538741e+000
0	 1.000000000000000e+001	 4.666844975500011e-001	 9.650961378127104e+000
0	 1.000000000000000e+001	 5.333553781553803e-001	 9.652728501411698e+000
0	 1.000000000000000e+001	 6.000263254118248e-001	 9.654733982015202e+000
0	 1.000000000000000e+001	 6.666972226472177e-001	 9.656978399575340e+000
0	 9.333302777352783e+000	 6.666972226472175e-001	 9.786751612114408e+000
0	 9.333302777352783e+000	 7.333579753122046e-001	 9.788315924700829e+000
0	 9.333302777352783e+000	 8.000185779984418e-001	 9.790004786461163e+000
0	 9.333302777352783e+000	 8.666790473703453e-001	 9.791819330810503e+000
0	 9.333302777352781e+000	 9.333394000923322e-001	 9.793760690919172e+000
0	 9.333302777352779e+000	 9.999996528288190e-001	 9.795829999712733e+000
0	 9.333302777352783e+000	 1.066659822244222e+000	 9.798028389871927e+000
0	 9.333302777352781e+000	 1.133319925002959e+000	 9.800356993832740e+000
0	 9.333302777352781e+000	 1.199979977769445e+000	 9.802816943786358e+000
0	 9.333302777352781e+000	 1.266639997208098e+000	 9.805409371679218e+000
0	 9.333302777352783e+000	 1.333299999983334e+000	 9.808135409212925e+000
0	 9.399973674588180e+000	 6.666972226472177e-001	 9.775234274005989e+000
0	 9.399973674588173e+000	 7.333579753122048e-001	 9.776858847400559e+000
0	 9.399973674588177e+000	 8.000185779984419e-001	 9.778612831538746e+000
0	 9.399973674588180e+000	 8.666790473703454e-001	 9.780497356551265e+000
0	 9.399973674588178e+000	 9.333394000923326e-001	 9.782513552315930e+000
0	 9.399973674588177e+000	 9.999996528288190e-001	 9.784662548457670e+000
0	 9.399973674588177e+000	 1.066659822244223e+000	 9.786945474348482e+000
0	 9.399973674588177e+000	 1.133319925002959e+000	 9.789363459107491e+000
0	 9.399973674588175e+000	 1.199979977769445e+000	 9.791917631600917e+000
0	 9.399973674588177e+000	 1.266639997208098e+000	 9.794609120442058e+000
0	 9.399973674588177e+000	 1.333299999983334e+000	 9.797439053991369e+000
0	 9.466644621844619e+000	 6.666972226472175e-001	 9.763457697772502e+000
0	 9.466644621844617e+000	 7.333579753122045e-001	 9.765149907364780e+000
0	 9.466644621844619e+000	 8.000185779984417e-001	 9.766976411471530e+000
0	 9.466644621844619e+000	 8.666790473703454e-001	 9.768938338921849e+000
0	 9.466644621844619e+000	 9.333394000923323e-001	 9.771036818283712e+000
0	 9.466644621844619e+000	 9.999996528288190e-001	 9.773272977863877e+000
0	 9.466644621844621e+000	 1.066659822244223e+000	 9.775647945708077e+000
0	 9.466644621844619e+000	 1.133319925002959e+000	 9.778162849600841e+000
0	 9.466644621844621e+000	 1.199979977769446e+000	 9.780818817065654e+000
0	 9.466644621844619e+000	 1.266639997208098e+000	 9.783616975364785e+000
0	 9.466644621844621e+000	 1.333299999983334e+000	 9.786558451499442e+000
0	 9.533315502449998e+000	 6.666972226472177e-001	 9.751397429623681e+000
0	 9.533315502450002e+000	 7.333579753122049e-001	 9.753164328452957e+000
0	 9.533315502450002e+000	 8.000185779984420e-001	 9.755070589662219e+000
0	 9.533315502449998e+000	 8.666790473703454e-001	 9.757117342762800e+000
0	 9.533315502450000e+000	 9.333394000923322e-001	 9.759305716996295e+000
0	 9.533315502449998e+000	 9.999996528288191e-001	 9.761636841334660e+000
0	 9.533315502449996e+000	 1.066659822244222e+000	 9.764111844480041e+000
0	 9.533315502450002e+000	 1.133319925002959e+000	 9.766731854864977e+000
0	 9.533315502449996e+000	 1.199979977769445e+000	 9.769498000652220e+000
0	 9.533315502450000e+000	 1.266639997208098e+000	 9.772411409734886e+000
0	 9.533315502449998e+000	 1.333299999983333e+000	 9.775473209736360e+000
0	 9.599986199732197e+000	 6.666972226472175e-001	 9.739029017383251e+000
0	 9.599986199732197e+000	 7.333579753122048e-001	 9.740877336105358e+000
0	 9.599986199732198e+000	 8.000185779984420e-001	 9.742870431060474e+000
0	 9.599986199732193e+000	 8.666790473703454e-001	 9.745009434427249e+000
0	 9.599986199732195e+000	 9.333394000923321e-001	 9.747295478105428e+000
0	 9.599986199732197e+000	 9.999996528288191e-001	 9.749729693715898e+000
0	 9.599986199732193e+000	 1.066659822244222e+000	 9.752313212600624e+000
0	 9.599986199732193e+000	 1.133319925002959e+000	 9.755047165822756e+000
0	 9.599986199732195e+000	 1.199979977769445e+000	 9.757932684166484e+000
0	 9.599986199732193e+000	 1.266639997208098e+000	 9.760970898137165e+000
0	 9.599986199732197e+000	 1.333299999983334e+000	 9.764162937961288e+000
0	 9.666656597019092e+000	 6.666972226472175e-001	 9.726328010489167e+000
0	 9.666656597019093e+000	 7.333579753122047e-001	 9.728264157343197e+000
0	 9.666656597019092e+000	 8.000185779984418e-001	 9.730351002163179e+000
0	 9.666656597019092e+000	 8.666790473703455e-001	 9.732589681781320e+000
0	 9.666656597019093e+000	 9.333394000923325e-001	 9.734981332740940e+000
0	 9.666656597019090e+000	 9.999996528288192e-001	 9.737527091296402e+000
0	 9.666656597019095e+000	 1.066659822244223e+000	 9.740228093413260e+000
0	 9.666656597019088e+000	 1.133319925002959e+000	 9.743085474768128e+000
0	 9.666656597019095e+000	 1.199979977769445e+000	 9.746100370748719e+000
0	 9.666656597019093e+000	 1.266639997208098e+000	 9.749273916453880e+000
0	 9.666656597019093e+000	 1.333299999983334e+000	 9.752607246693538e+000
0	 9.733326577638573e+000	 6.666972226472177e-001	 9.713269959993898e+000
0	 9.733326577638575e+000	 7.333579753122047e-001	 9.715300020768993e+000
0	 9.733326577638573e+000	 8.000185779984417e-001	 9.717487371014705e+000
0	 9.733326577638573e+000	 8.666790473703454e-001	 9.719833154204292e+000
0	 9.733326577638575e+000	 9.333394000923324e-001	 9.722338513510987e+000
0	 9.733326577638573e+000	 9.999996528288191e-001	 9.725004591808036e+000
0	 9.733326577638575e+000	 1.066659822244222e+000	 9.727832531668698e+000
0	 9.733326577638573e+000	 1.133319925002959e+000	 9.730823475366222e+000
0	 9.733326577638573e+000	 1.199979977769445e+000	 9.733978564873890e+000
0	 9.733326577638575e+000	 1.266639997208098e+000	 9.737298941865010e+000
0	 9.733326577638575e+000	 1.333299999983334e+000	 9.740785747712828e+000
0	 9.799996024918523e+000	 6.666972226472177e-001	 9.699830418564698e+000
0	 9.799996024918521e+000	 7.333579753122046e-001	 9.701960156566745e+000
0	 9.799996024918521e+000	 8.000185779984418e-001	 9.704254607207158e+000
0	 9.799996024918523e+000	 8.666790473703454e-001	 9.706714922588898e+000
0	 9.799996024918523e+000	 9.333394000923325e-001	 9.709342254502507e+000
0	 9.799996024918524e+000	 9.999996528288192e-001	 9.712137754426102e+000
0	 9.799996024918521e+000	 1.066659822244222e+000	 9.715102573525417e+000
0	 9.799996024918521e+000	 1.133319925002959e+000	 9.718237862653705e+000
0	 9.799996024918523e+000	 1.199979977769445e+000	 9.721544772351885e+000
0	 9.799996024918523e+000	 1.266639997208098e+000	 9.725024452848478e+000
0	 9.799996024918521e+000	 1.333299999983334e+000	 9.728678054059547e+000
0	 9.866664822186820e+000	 6.666972226472177e-001	 9.685984940483925e+000
0	 9.866664822186818e+000	 7.333579753122047e-001	 9.688219796502363e+000
0	 9.866664822186820e+000	 8.000185779984418e-001	 9.690627781880723e+000
0	 9.866664822186818e+000	 8.666790473703454e-001	 9.693210059341656e+000
0	 9.866664822186820e+000	 9.333394000923323e-001	 9.695967791281330e+000
0	 9.866664822186818e+000	 9.999996528288190e-001	 9.698902139769597e+000
0	 9.866664822186820e+000	 1.066659822244222e+000	 9.702014266549817e+000
0	 9.866664822186820e+000	 1.133319925002959e+000	 9.705305333039089e+000
0	 9.866664822186818e+000	 1.199979977769445e+000	 9.708776500327934e+000
0	 9.866664822186820e+000	 1.266639997208098e+000	 9.712428929180623e+000
0	 9.866664822186818e+000	 1.333299999983334e+000	 9.716263780035030e+000
0	 9.933332852771351e+000	 6.666972226472177e-001	 9.671709081649523e+000
0	 9.933332852771352e+000	 7.333579753122048e-001	 9.674054173924059e+000
0	 9.933332852771352e+000	 8.000185779984419e-001	 9.676581967724117e+000
0	 9.933332852771351e+000	 8.666790473703454e-001	 9.679293638383253e+000
0	 9.933332852771352e+000	 9.333394000923326e-001	 9.682190360892708e+000
0	 9.933332852771352e+000	 9.999996528288192e-001	 9.685273309901604e+000
0	 9.933332852771351e+000	 1.066659822244222e+000	 9.688543659716801e+000
0	 9.933332852771351e+000	 1.133319925002959e+000	 9.692002584303008e+000
0	 9.933332852771352e+000	 1.199979977769445e+000	 9.695651257282751e+000
0	 9.933332852771354e+000	 1.266639997208098e+000	 9.699490851936330e+000
0	 9.933332852771352e+000	 1.333299999983334e+000	 9.703522541201910e+000
0	 1.000000000000000e+001	 6.666972226472177e-001	 9.656978399575340e+000
0	 1.000000000000000e+001	 7.333579753122048e-001	 9.659438523762669e+000
0	 1.000000000000000e+001	 8.000185779984418e-001	 9.662092238974942e+000
0	 1.000000000000000e+001	 8.666790473703455e-001	 9.664940735148955e+000
0	 1.000000000000000e+001	 9.333394000923322e-001	 9.667985201861647e+000
0	 1.000000000000000e+001	 9.999996528288190e-001	 9.671226828329676e+000
0	 1.000000000000000e+001	 1.066659822244222e+000	 9.674666803409821e+000
0	 9.999999999999998e+000	 1.133319925002959e+000	 9.678306315598750e+000
0	 1.000000000000000e+001	 1.199979977769445e+000	 9.682146553033125e+000
0	 1.000000000000000e+001	 1.266639997208098e+000	 9.686188703489504e+000
0	 1.000000000000000e+001	 1.333299999983334e+000	 9.690433954384520e+000
0	 9.333302777352783e+000	 1.333299999983334e+000	 9.808135409212927e+000
0	 9.333302777352781e+000	 1.399969999982150e+000	 9.810965977369413e+000
0	 9.333302777352785e+000	 1.466639999981866e+000	 9.813871295845280e+000
0	 9.333302777352785e+000	 1.533309999982383e+000	 9.816852701305155e+000
0	 9.333302777352785e+000	 1.599979999983600e+000	 9.819911530413645e+000
0	 9.333302777352783e+000	 1.666649999985416e+000	 9.823049119835373e+000
0	 9.333302777352783e+000	 1.733319999987733e+000	 9.826266806234955e+000
0	 9.333302777352781e+000	 1.799989999990450e+000	 9.829565926277017e+000
0	 9.333302777352781e+000	 1.866659999993467e+000	 9.832947816626202e+000
0	 9.333302777352783e+000	 1.933329999996684e+000	 9.836413813947111e+000
0	 9.333302777352783e+000	 2.000000000000000e+000	 9.839965254904366e+000
0	 9.399973674588177e+000	 1.333299999983334e+000	 9.797439053991369e+000
0	 9.399973674588178e+000	 1.399969999982150e+000	 9.800377473194317e+000
0	 9.399973674588178e+000	 1.466639999981867e+000	 9.803393825641681e+000
0	 9.399973674588177e+000	 1.533309999982383e+000	 9.806489654392077e+000
0	 9.399973674588173e+000	 1.599979999983600e+000	 9.809666502504122e+000
0	 9.399973674588177e+000	 1.666649999985416e+000	 9.812925913036414e+000
0	 9.399973674588177e+000	 1.733319999987733e+000	 9.816269429047575e+000
0	 9.399973674588178e+000	 1.799989999990450e+000	 9.819698593596209e+000
0	 9.399973674588175e+000	 1.866659999993467e+000	 9.823214949740954e+000
0	 9.399973674588180e+000	 1.933329999996684e+000	 9.826820040540401e+000
0	 9.399973674588177e+000	 2.000000000000000e+000	 9.830515409053179e+000
0	 9.466644621844621e+000	 1.333299999983334e+000	 9.786558451499442e+000
0	 9.466644621844624e+000	 1.399969999982150e+000	 9.789612584054389e+000
0	 9.466644621844619e+000	 1.466639999981866e+000	 9.792748190905657e+000
0	 9.466644621844621e+000	 1.533309999982383e+000	 9.795966974011035e+000
0	 9.466644621844619e+000	 1.599979999983599e+000	 9.799270635328281e+000
0	 9.466644621844617e+000	 1.666649999985416e+000	 9.802660876815146e+000
0	 9.466644621844623e+000	 1.733319999987733e+000	 9.806139400429391e+000
0	 9.466644621844621e+000	 1.799989999990450e+000	 9.809707908128809e+000
0	 9.466644621844621e+000	 1.866659999993467e+000	 9.813368101871129e+000
0	 9.466644621844617e+000	 1.933329999996684e+000	 9.817121683614165e+000
0	 9.466644621844623e+000	 2.000000000000000e+000	 9.820970355315636e+000
0	 9.533315502449998e+000	 1.333299999983333e+000	 9.775473209736362e+000
0	 9.533315502450000e+000	 1.399969999982150e+000	 9.778652120711872e+000
0	 9.533315502449998e+000	 1.466639999981866e+000	 9.781916379005669e+000
0	 9.533315502450002e+000	 1.533309999982383e+000	 9.785267797980664e+000
0	 9.533315502450002e+000	 1.599979999983600e+000	 9.788708190999742e+000
0	 9.533315502450000e+000	 1.666649999985416e+000	 9.792239371425767e+000
0	 9.533315502450000e+000	 1.733319999987733e+000	 9.795863152621642e+000
0	 9.533315502449996e+000	 1.799989999990450e+000	 9.799581347950277e+000
0	 9.533315502449998e+000	 1.866659999993467e+000	 9.803395770774557e+000
0	 9.533315502449998e+000	 1.933329999996684e+000	 9.807308234457363e+000
0	 9.533315502449998e+000	 2.000000000000000e+000	 9.811320552361631e+000
0	 9.599986199732197e+000	 1.333299999983334e+000	 9.764162937961288e+000
0	 9.599986199732193e+000	 1.399969999982150e+000	 9.767476895151241e+000
0	 9.599986199732197e+000	 1.466639999981867e+000	 9.770880378493773e+000
0	 9.599986199732198e+000	 1.533309999982383e+000	 9.774375265263251e+000
0	 9.599986199732191e+000	 1.599979999983599e+000	 9.777963432733934e+000
0	 9.599986199732195e+000	 1.666649999985416e+000	 9.781646758180170e+000
0	 9.599986199732197e+000	 1.733319999987734e+000	 9.785427118876253e+000
0	 9.599986199732197e+000	 1.799989999990449e+000	 9.789306392096515e+000
0	 9.599986199732195e+000	 1.866659999993467e+000	 9.793286455115222e+000
0	 9.599986199732195e+000	 1.933329999996683e+000	 9.797369185206758e+000
0	 9.599986199732198e+000	 2.000000000000000e+000	 9.801556459645404e+000
0	 9.666656597019093e+000	 1.333299999983334e+000	 9.752607246693540e+000
0	 9.666656597019092e+000	 1.399969999982150e+000	 9.756067720579297e+000
0	 9.666656597019093e+000	 1.466639999981867e+000	 9.759622179105801e+000
0	 9.666656597019090e+000	 1.533309999982383e+000	 9.763272515964880e+000
0	 9.666656597019095e+000	 1.599979999983600e+000	 9.767020624848383e+000
0	 9.666656597019092e+000	 1.666649999985416e+000	 9.770868399448155e+000
0	 9.666656597019090e+000	 1.733319999987733e+000	 9.774817733456064e+000
0	 9.666656597019093e+000	 1.799989999990450e+000	 9.778870520563899e+000
0	 9.666656597019097e+000	 1.866659999993467e+000	 9.783028654463587e+000
0	 9.666656597019092e+000	 1.933329999996684e+000	 9.787294028846930e+000
0	 9.666656597019090e+000	 2.000000000000000e+000	 9.791668537405785e+000
0	 9.733326577638575e+000	 1.333299999983334e+000	 9.740785747712831e+000
0	 9.733326577638573e+000	 1.399969999982150e+000	 9.744405411425539e+000
0	 9.733326577638575e+000	 1.466639999981867e+000	 9.748123771761572e+000
0	 9.733326577638573e+000	 1.533309999982383e+000	 9.751942691335703e+000
0	 9.733326577638572e+000	 1.599979999983600e+000	 9.755864032762775e+000
0	 9.733326577638575e+000	 1.666649999985417e+000	 9.759889658657597e+000
0	 9.733326577638573e+000	 1.733319999987733e+000	 9.764021431634962e+000
0	 9.733326577638577e+000	 1.799989999990450e+000	 9.768261214309696e+000
0	 9.733326577638573e+000	 1.866659999993467e+000	 9.772610869296628e+000
0	 9.733326577638573e+000	 1.933329999996684e+000	 9.777072259210563e+000
0	 9.733326577638575e+000	 2.000000000000000e+000	 9.781647246666331e+000
0	 9.799996024918521e+000	 1.333299999983334e+000	 9.728678054059547e+000
0	 9.799996024918523e+000	 1.399969999982150e+000	 9.732470783342340e+000
0	 9.799996024918521e+000	 1.466639999981866e+000	 9.736367148565194e+000
0	 9.799996024918523e+000	 1.533309999982383e+000	 9.740368933770194e+000
0	 9.799996024918523e+000	 1.599979999983600e+000	 9.744477922999355e+000
0	 9.799996024918521e+000	 1.666649999985417e+000	 9.748695900294688e+000
0	 9.799996024918526e+000	 1.733319999987733e+000	 9.753024649698265e+000
0	 9.799996024918523e+000	 1.799989999990450e+000	 9.757465955252105e+000
0	 9.799996024918524e+000	 1.866659999993467e+000	 9.762021600998239e+000
0	 9.799996024918521e+000	 1.933329999996683e+000	 9.766693370978725e+000
0	 9.799996024918521e+000	 2.000000000000000e+000	 9.771483049235581e+000
0	 9.866664822186818e+000	 1.333299999983334e+000	 9.716263780035034e+000
0	 9.866664822186820e+000	 1.399969999982150e+000	 9.720244653205192e+000
0	 9.866664822186820e+000	 1.466639999981866e+000	 9.724334302805417e+000
0	 9.866664822186820e+000	 1.533309999982383e+000	 9.728534386807425e+000
0	 9.866664822186822e+000	 1.599979999983600e+000	 9.732846563183136e+000
0	 9.866664822186820e+000	 1.666649999985417e+000	 9.737272489904354e+000
0	 9.866664822186820e+000	 1.733319999987733e+000	 9.741813824942957e+000
0	 9.866664822186820e+000	 1.799989999990450e+000	 9.746472226270642e+000
0	 9.866664822186818e+000	 1.866659999993467e+000	 9.751249351859421e+000
0	 9.866664822186818e+000	 1.933329999996684e+000	 9.756146859681023e+000
0	 9.866664822186818e+000	 2.000000000000000e+000	 9.761166407707343e+000
0	 9.933332852771352e+000	 1.333299999983334e+000	 9.703522541201913e+000
0	 9.933332852771352e+000	 1.399969999982150e+000	 9.707707839113276e+000
0	 9.933332852771351e+000	 1.466639999981866e+000	 9.712007228955756e+000
0	 9.933332852771352e+000	 1.533309999982383e+000	 9.716422195131420e+000
0	 9.933332852771351e+000	 1.599979999983600e+000	 9.720954222042291e+000
0	 9.933332852771351e+000	 1.666649999985417e+000	 9.725604794090394e+000
0	 9.933332852771352e+000	 1.733319999987733e+000	 9.730375395677768e+000
0	 9.933332852771354e+000	 1.799989999990450e+000	 9.735267511206466e+000
0	 9.933332852771352e+000	 1.866659999993467e+000	 9.740282625078535e+000
0	 9.933332852771354e+000	 1.933329999996684e+000	 9.745422221695979e+000
0	 9.933332852771352e+000	 2.000000000000000e+000	 9.750687785460876e+000
0	 1.000000000000000e+001	 1.333299999983334e+000	 9.690433954384520e+000
0	 1.000000000000000e+001	 1.399969999982150e+000	 9.694841160389458e+000
0	 1.000000000000000e+001	 1.466639999981867e+000	 9.699367922675105e+000
0	 1.000000000000000e+001	 1.533309999982383e+000	 9.704015504571421e+000
0	 1.000000000000000e+001	 1.599979999983600e+000	 9.708785169408358e+000
0	 1.000000000000000e+001	 1.666649999985416e+000	 9.713678180515879e+000
0	 1.000000000000000e+001	 1.733319999987733e+000	 9.718695801223957e+000
0	 1.000000000000000e+001	 1.799989999990450e+000	 9.723839294862582e+000
0	 1.000000000000000e+001	 1.866659999993467e+000	 9.729109924761673e+000
0	 1.000000000000000e+001	 1.933329999996684e+000	 9.734508954251275e+000
0	 1.000000000000000e+001	 2.000000000000000e+000	 9.740037646661239e+000
0	 9.333302777352783e+000	 2.000000000000000e+000	 9.839965254904366e+000
0	 9.333302777352781e+000	 2.066670000003317e+000	 9.843570107415834e+000
0	 9.333302777352783e+000	 2.133340000006534e+000	 9.847196706159142e+000
0	 9.333302777352785e+000	 2.200010000009551e+000	 9.850846937938613e+000
0	 9.333302777352783e+000	 2.266680000012268e+000	 9.854522689558518e+000
0	 9.333302777352785e+000	 2.333350000014585e+000	 9.858225847823192e+000
0	 9.333302777352783e+000	 2.400020000016401e+000	 9.861958299536909e+000
0	 9.333302777352783e+000	 2.466690000017617e+000	 9.865721931503991e+000
0	 9.333302777352785e+000	 2.533360000018134e+000	 9.869518630528752e+000
0	 9.333302777352781e+000	 2.600030000017850e+000	 9.873350283415464e+000
0	 9.333302777352785e+000	 2.666700000016667e+000	 9.877218776968459e+000
0	 9.399973674588177e+000	 2.000000000000000e+000	 9.830515409053179e+000
0	 9.399973674588180e+000	 2.066670000003318e+000	 9.834268458584981e+000
0	 9.399973674588178e+000	 2.133340000006534e+000	 9.838046576303441e+000
0	 9.399973674588175e+000	 2.200010000009550e+000	 9.841851281060203e+000
0	 9.399973674588175e+000	 2.266680000012267e+000	 9.845684091706822e+000
0	 9.399973674588175e+000	 2.333350000014584e+000	 9.849546527094910e+000
0	 9.399973674588175e+000	 2.400020000016400e+000	 9.853440106076064e+000
0	 9.399973674588178e+000	 2.466690000017618e+000	 9.857366347501881e+000
0	 9.399973674588178e+000	 2.533360000018134e+000	 9.861326770223943e+000
0	 9.399973674588177e+000	 2.600030000017851e+000	 9.865322893093852e+000
0	 9.399973674588178e+000	 2.666700000016666e+000	 9.869356234963242e+000
0	 9.466644621844623e+000	 2.000000000000000e+000	 9.820970355315636e+000
0	 9.466644621844621e+000	 2.066670000003317e+000	 9.824880630204506e+000
0	 9.466644621844621e+000	 2.133340000006534e+000	 9.828818718413769e+000
0	 9.466644621844621e+000	 2.200010000009550e+000	 9.832785867257293e+000
0	 9.466644621844621e+000	 2.266680000012268e+000	 9.836783324048906e+000
0	 9.466644621844619e+000	 2.333350000014584e+000	 9.840812336102511e+000
0	 9.466644621844623e+000	 2.400020000016401e+000	 9.844874150731926e+000
0	 9.466644621844621e+000	 2.466690000017617e+000	 9.848970015251032e+000
0	 9.466644621844621e+000	 2.533360000018134e+000	 9.853101176973681e+000
0	 9.466644621844623e+000	 2.600030000017851e+000	 9.857268883213758e+000
0	 9.466644621844619e+000	 2.666700000016666e+000	 9.861474381285108e+000
0	 9.533315502449998e+000	 2.000000000000000e+000	 9.811320552361631e+000
0	 9.533315502450000e+000	 2.066670000003317e+000	 9.815398050798004e+000
0	 9.533315502450000e+000	 2.133340000006534e+000	 9.819505561961734e+000
0	 9.533315502449998e+000	 2.200010000009550e+000	 9.823644158042530e+000
0	 9.533315502450000e+000	 2.266680000012268e+000	 9.827814911230117e+000
0	 9.533315502449998e+000	 2.333350000014584e+000	 9.832018893714176e+000
0	 9.533315502450000e+000	 2.400020000016401e+000	 9.836257177684416e+000
0	 9.533315502450000e+000	 2.466690000017618e+000	 9.840530835330547e+000
0	 9.533315502450000e+000	 2.533360000018134e+000	 9.844840938842282e+000
0	 9.533315502449998e+000	 2.600030000017850e+000	 9.849188560409328e+000
0	 9.533315502450000e+000	 2.666700000016667e+000	 9.853574772221380e+000
0	 9.599986199732198e+000	 2.000000000000000e+000	 9.801556459645404e+000
0	 9.599986199732197e+000	 2.066670000003317e+000	 9.805812149604943e+000
0	 9.599986199732195e+000	 2.133340000006534e+000	 9.810099537062152e+000
0	 9.599986199732197e+000	 2.200010000009551e+000	 9.814419615495755e+000
0	 9.599986199732195e+000	 2.266680000012268e+000	 9.818773378384545e+000
0	 9.599986199732197e+000	 2.333350000014585e+000	 9.823161819207275e+000
0	 9.599986199732198e+000	 2.400020000016401e+000	 9.827585931442680e+000
0	 9.599986199732195e+000	 2.466690000017617e+000	 9.832046708569546e+000
0	 9.599986199732198e+000	 2.533360000018134e+000	 9.836545144066603e+000
0	 9.599986199732197e+000	 2.600030000017851e+000	 9.841082231412633e+000
0	 9.599986199732197e+000	 2.666700000016666e+000	 9.845658964086395e+000
0	 9.666656597019090e+000	 2.000000000000000e+000	 9.791668537405785e+000
0	 9.666656597019095e+000	 2.066670000003318e+000	 9.796114356580979e+000
0	 9.666656597019093e+000	 2.133340000006534e+000	 9.800593074473198e+000
0	 9.666656597019092e+000	 2.200010000009551e+000	 9.805105702264076e+000
0	 9.666656597019093e+000	 2.266680000012268e+000	 9.809653251135272e+000
0	 9.666656597019090e+000	 2.333350000014584e+000	 9.814236732268451e+000
0	 9.666656597019093e+000	 2.400020000016402e+000	 9.818857156845244e+000
0	 9.666656597019093e+000	 2.466690000017619e+000	 9.823515536047324e+000
0	 9.666656597019095e+000	 2.533360000018134e+000	 9.828212881056327e+000
0	 9.666656597019092e+000	 2.600030000017851e+000	 9.832950203053899e+000
0	 9.666656597019092e+000	 2.666700000016666e+000	 9.837728513221705e+000
0	 9.733326577638575e+000	 2.000000000000000e+000	 9.781647246666331e+000
0	 9.733326577638575e+000	 2.066670000003317e+000	 9.786296102398046e+000
0	 9.733326577638575e+000	 2.133340000006534e+000	 9.790978605596610e+000
0	 9.733326577638575e+000	 2.200010000009551e+000	 9.795695881562082e+000
0	 9.733326577638575e+000	 2.266680000012268e+000	 9.800449055594495e+000
0	 9.733326577638575e+000	 2.333350000014585e+000	 9.805239252993879e+000
0	 9.733326577638573e+000	 2.400020000016400e+000	 9.810067599060234e+000
0	 9.733326577638573e+000	 2.466690000017618e+000	 9.814935219093627e+000
0	 9.733326577638573e+000	 2.533360000018134e+000	 9.819843238394066e+000
0	 9.733326577638575e+000	 2.600030000017851e+000	 9.824792782261607e+000
0	 9.733326577638575e+000	 2.666700000016667e+000	 9.829784975996271e+000
0	 9.799996024918521e+000	 2.000000000000000e+000	 9.771483049235581e+000
0	 9.799996024918521e+000	 2.066670000003318e+000	 9.776348818444612e+000
0	 9.799996024918523e+000	 2.133340000006534e+000	 9.781248562477956e+000
0	 9.799996024918523e+000	 2.200010000009550e+000	 9.786183617172139e+000
0	 9.799996024918523e+000	 2.266680000012268e+000	 9.791155318363760e+000
0	 9.799996024918524e+000	 2.333350000014585e+000	 9.796165001889348e+000
0	 9.799996024918523e+000	 2.400020000016401e+000	 9.801214003585486e+000
0	 9.799996024918521e+000	 2.466690000017617e+000	 9.806303659288686e+000
0	 9.799996024918523e+000	 2.533360000018134e+000	 9.811435304835580e+000
0	 9.799996024918523e+000	 2.600030000017850e+000	 9.816610276062677e+000
0	 9.799996024918523e+000	 2.666700000016666e+000	 9.821829908806556e+000
0	 9.866664822186818e+000	 2.000000000000000e+000	 9.761166407707343e+000
0	 9.866664822186820e+000	 2.066670000003317e+000	 9.766263936826027e+000
0	 9.866664822186818e+000	 2.133340000006534e+000	 9.771395377806792e+000
0	 9.866664822186818e+000	 2.200010000009550e+000	 9.776562373444531e+000
0	 9.866664822186820e+000	 2.266680000012267e+000	 9.781766566534181e+000
0	 9.866664822186820e+000	 2.333350000014584e+000	 9.787009599870643e+000
0	 9.866664822186820e+000	 2.400020000016401e+000	 9.792293116248798e+000
0	 9.866664822186817e+000	 2.466690000017617e+000	 9.797618758463601e+000
0	 9.866664822186820e+000	 2.533360000018134e+000	 9.802988169309909e+000
0	 9.866664822186820e+000	 2.600030000017851e+000	 9.808402991582675e+000
0	 9.866664822186818e+000	 2.666700000016667e+000	 9.813864868076792e+000
0	 9.933332852771352e+000	 2.000000000000000e+000	 9.750687785460876e+000
0	 9.933332852771352e+000	 2.066670000003317e+000	 9.756032890364580e+000
0	 9.933332852771352e+000	 2.133340000006534e+000	 9.761411484916907e+000
0	 9.933332852771351e+000	 2.200010000009551e+000	 9.766825615297696e+000
0	 9.933332852771352e+000	 2.266680000012268e+000	 9.772277327686680e+000
0	 9.933332852771352e+000	 2.333350000014584e+000	 9.777768668263601e+000
0	 9.933332852771352e+000	 2.400020000016401e+000	 9.783301683208205e+000
0	 9.933332852771351e+000	 2.466690000017618e+000	 9.788878418700282e+000
0	 9.933332852771351e+000	 2.533360000018134e+000	 9.794500920919623e+000
0	 9.933332852771351e+000	 2.600030000017850e+000	 9.800171236045923e+000
0	 9.933332852771352e+000	 2.666700000016666e+000	 9.805891410259026e+000
0	 1.000000000000000e+001	 2.000000000000000e+000	 9.740037646661239e+000
0	 1.000000000000000e+001	 2.066670000003317e+000	 9.745647112599913e+000
0	 1.000000000000000e+001	 2.133340000006534e+000	 9.751289317786796e+000
0	 1.000000000000000e+001	 2.200010000009551e+000	 9.756966808218586e+000
0	 1.000000000000000e+001	 2.266680000012268e+000	 9.762682129892177e+000
0	 1.000000000000000e+001	 2.333350000014584e+000	 9.768437828804402e+000
0	 1.000000000000000e+001	 2.400020000016401e+000	 9.774236450952028e+000
0	 1.000000000000000e+001	 2.466690000017618e+000	 9.780080542331916e+000
0	 1.000000000000000e+001	 2.533360000018134e+000	 9.785972648940906e+000
0	 1.000000000000000e+001	 2.600030000017851e+000	 9.791915316775802e+000
0	 1.000000000000000e+001	 2.666700000016666e+000	 9.797911091833381e+000
0	 9.333302777352785e+000	 2.666700000016667e+000	 9.877218776968460e+000
0	 9.333302777352783e+000	 2.733360000014533e+000	 9.881091993596264e+000
0	 9.333302777352783e+000	 2.800020000011600e+000	 9.884938435230726e+000
0	 9.333302777352781e+000	 2.866680000008066e+000	 9.888759168654334e+000
0	 9.333302777352779e+000	 2.933340000004133e+000	 9.892555260649617e+000
0	 9.333302777352781e+000	 3.000000000000001e+000	 9.896327777999034e+000
0	 9.333302777352783e+000	 3.066659999995868e+000	 9.900077787485104e+000
0	 9.333302777352783e+000	 3.133319999991934e+000	 9.903806355890346e+000
0	 9.333302777352785e+000	 3.199979999988401e+000	 9.907514549997224e+000
0	 9.333302777352783e+000	 3.266639999985467e+000	 9.911203436588265e+000
0	 9.333302777352783e+000	 3.333299999983335e+000	 9.914874082445980e+000
0	 9.399973674588178e+000	 2.666700000016666e+000	 9.869356234963242e+000
0	 9.399973674588175e+000	 2.733360000014531e+000	 9.873393743024716e+000
0	 9.399973674588177e+000	 2.800020000011600e+000	 9.877403399675126e+000
0	 9.399973674588177e+000	 2.866680000008067e+000	 9.881386453057516e+000
0	 9.399973674588178e+000	 2.933340000004134e+000	 9.885344151314955e+000
0	 9.399973674588180e+000	 3.000000000000001e+000	 9.889277742590483e+000
0	 9.399973674588178e+000	 3.066659999995868e+000	 9.893188475027175e+000
0	 9.399973674588178e+000	 3.133319999991934e+000	 9.897077596768098e+000
0	 9.399973674588173e+000	 3.199979999988400e+000	 9.900946355956275e+000
0	 9.399973674588177e+000	 3.266639999985468e+000	 9.904796000734798e+000
0	 9.399973674588178e+000	 3.333299999983335e+000	 9.908627779246721e+000
0	 9.466644621844619e+000	 2.666700000016666e+000	 9.861474381285110e+000
0	 9.466644621844617e+000	 2.733360000014533e+000	 9.865683777047824e+000
0	 9.466644621844617e+000	 2.800020000011599e+000	 9.869864539873820e+000
0	 9.466644621844619e+000	 2.866680000008067e+000	 9.874018061275294e+000
0	 9.466644621844617e+000	 2.933340000004133e+000	 9.878145732764452e+000
0	 9.466644621844621e+000	 3.000000000000001e+000	 9.882248945853492e+000
0	 9.466644621844619e+000	 3.066659999995868e+000	 9.886329092054627e+000
0	 9.466644621844621e+000	 3.133319999991934e+000	 9.890387562880084e+000
0	 9.466644621844621e+000	 3.199979999988401e+000	 9.894425749842021e+000
0	 9.466644621844621e+000	 3.266639999985468e+000	 9.898445044452711e+000
0	 9.466644621844619e+000	 3.333299999983334e+000	 9.902446838224320e+000
0	 9.533315502450000e+000	 2.666700000016667e+000	 9.853574772221379e+000
0	 9.533315502450002e+000	 2.733360000014533e+000	 9.857964855447191e+000
0	 9.533315502449998e+000	 2.800020000011599e+000	 9.862325696082671e+000
0	 9.533315502450000e+000	 2.866680000008067e+000	 9.866658791018498e+000
0	 9.533315502449996e+000	 2.933340000004133e+000	 9.870965637145389e+000
0	 9.533315502449996e+000	 3.000000000000000e+000	 9.875247731353998e+000
0	 9.533315502449998e+000	 3.066659999995866e+000	 9.879506570535009e+000
0	 9.533315502450002e+000	 3.133319999991934e+000	 9.883743651579117e+000
0	 9.533315502450000e+000	 3.199979999988402e+000	 9.887960471376999e+000
0	 9.533315502450002e+000	 3.266639999985468e+000	 9.892158526819351e+000
0	 9.533315502450000e+000	 3.333299999983334e+000	 9.896339314796851e+000
0	 9.599986199732197e+000	 2.666700000016666e+000	 9.845658964086400e+000
0	 9.599986199732197e+000	 2.733360000014533e+000	 9.850239737965094e+000
0	 9.599986199732197e+000	 2.800020000011600e+000	 9.854790708456278e+000
0	 9.599986199732195e+000	 2.866680000008066e+000	 9.859313439838825e+000
0	 9.599986199732195e+000	 2.933340000004133e+000	 9.863809496391543e+000
0	 9.599986199732195e+000	 3.000000000000000e+000	 9.868280442393239e+000
0	 9.599986199732195e+000	 3.066659999995867e+000	 9.872727842122764e+000
0	 9.599986199732195e+000	 3.133319999991934e+000	 9.877153259858936e+000
0	 9.599986199732197e+000	 3.199979999988401e+000	 9.881558259880602e+000
0	 9.599986199732197e+000	 3.266639999985468e+000	 9.885944406466585e+000
0	 9.599986199732197e+000	 3.333299999983334e+000	 9.890313263895706e+000
0	 9.666656597019092e+000	 2.666700000016666e+000	 9.837728513221707e+000
0	 9.666656597019090e+000	 2.733360000014533e+000	 9.842511184304708e+000
0	 9.666656597019090e+000	 2.800020000011600e+000	 9.847263417048273e+000
0	 9.666656597019093e+000	 2.866680000008066e+000	 9.851986805128931e+000
0	 9.666656597019092e+000	 2.933340000004133e+000	 9.856682942223298e+000
0	 9.666656597019092e+000	 3.000000000000000e+000	 9.861353422007948e+000
0	 9.666656597019093e+000	 3.066659999995867e+000	 9.865999838159466e+000
0	 9.666656597019093e+000	 3.133319999991934e+000	 9.870623784354425e+000
0	 9.666656597019092e+000	 3.199979999988400e+000	 9.875226854269421e+000
0	 9.666656597019092e+000	 3.266639999985467e+000	 9.879810641581029e+000
0	 9.666656597019092e+000	 3.333299999983333e+000	 9.884376739965813e+000
0	 9.733326577638575e+000	 2.666700000016667e+000	 9.829784975996272e+000
0	 9.733326577638575e+000	 2.733360000014533e+000	 9.834781954130328e+000
0	 9.733326577638572e+000	 2.800020000011600e+000	 9.839747661811288e+000
0	 9.733326577638573e+000	 2.866680000008067e+000	 9.844683684122645e+000
0	 9.733326577638575e+000	 2.933340000004134e+000	 9.849591606147866e+000
0	 9.733326577638577e+000	 3.000000000000001e+000	 9.854473012970441e+000
0	 9.733326577638575e+000	 3.066659999995867e+000	 9.859329489673865e+000
0	 9.733326577638573e+000	 3.133319999991933e+000	 9.864162621341588e+000
0	 9.733326577638573e+000	 3.199979999988400e+000	 9.868973993057162e+000
0	 9.733326577638575e+000	 3.266639999985468e+000	 9.873765189904002e+000
0	 9.733326577638575e+000	 3.333299999983334e+000	 9.878537796965649e+000
0	 9.799996024918523e+000	 2.666700000016666e+000	 9.821829908806560e+000
0	 9.799996024918521e+000	 2.733360000014533e+000	 9.827054807067345e+000
0	 9.799996024918523e+000	 2.800020000011600e+000	 9.832247282597312e+000
0	 9.799996024918523e+000	 2.866680000008067e+000	 9.837408873895059e+000
0	 9.799996024918521e+000	 2.933340000004133e+000	 9.842541119459305e+000
0	 9.799996024918523e+000	 3.000000000000000e+000	 9.847645557788720e+000
0	 9.799996024918523e+000	 3.066659999995868e+000	 9.852723727382019e+000
0	 9.799996024918521e+000	 3.133319999991934e+000	 9.857777166737847e+000
0	 9.799996024918521e+000	 3.199979999988402e+000	 9.862807414354920e+000
0	 9.799996024918523e+000	 3.266639999985467e+000	 9.867816008731905e+000
0	 9.799996024918521e+000	 3.333299999983334e+000	 9.872804488367454e+000
0	 9.866664822186818e+000	 2.666700000016667e+000	 9.813864868076793e+000
0	 9.866664822186818e+000	 2.733360000014533e+000	 9.819332502702615e+000
0	 9.866664822186820e+000	 2.800020000011600e+000	 9.824766119157598e+000
0	 9.866664822186820e+000	 2.866680000008067e+000	 9.830167171362687e+000
0	 9.866664822186818e+000	 2.933340000004133e+000	 9.835537113238750e+000
0	 9.866664822186818e+000	 3.000000000000000e+000	 9.840877398706736e+000
0	 9.866664822186820e+000	 3.066659999995867e+000	 9.846189481687517e+000
0	 9.866664822186820e+000	 3.133319999991933e+000	 9.851474816102044e+000
0	 9.866664822186822e+000	 3.199979999988401e+000	 9.856734855871242e+000
0	 9.866664822186820e+000	 3.266639999985468e+000	 9.861971054916033e+000
0	 9.866664822186818e+000	 3.333299999983334e+000	 9.867184867157270e+000
0	 9.933332852771352e+000	 2.666700000016666e+000	 9.805891410259022e+000
0	 9.933332852771352e+000	 2.733360000014533e+000	 9.811617800584426e+000
0	 9.933332852771349e+000	 2.800020000011600e+000	 9.817308011143130e+000
0	 9.933332852771351e+000	 2.866680000008067e+000	 9.822963373283688e+000
0	 9.933332852771351e+000	 2.933340000004133e+000	 9.828585218354551e+000
0	 9.933332852771351e+000	 3.000000000000000e+000	 9.834174877704335e+000
0	 9.933332852771351e+000	 3.066659999995867e+000	 9.839733682681512e+000
0	 9.933332852771352e+000	 3.133319999991935e+000	 9.845262964634639e+000
0	 9.933332852771352e+000	 3.199979999988401e+000	 9.850764054912235e+000
0	 9.933332852771352e+000	 3.266639999985468e+000	 9.856238284862840e+000
0	 9.933332852771349e+000	 3.333299999983333e+000	 9.861686985835021e+000
0	 1.000000000000000e+001	 2.666700000016666e+000	 9.797911091833381e+000
0	 1.000000000000000e+001	 2.733360000014533e+000	 9.803913460222784e+000
0	 1.000000000000000e+001	 2.800020000011600e+000	 9.809876798104456e+000
0	 1.000000000000000e+001	 2.866680000008067e+000	 9.815802276257770e+000
0	 1.000000000000000e+001	 2.933340000004133e+000	 9.821691065462311e+000
0	 1.000000000000000e+001	 3.000000000000000e+000	 9.827544336497486e+000
0	 9.999999999999998e+000	 3.066659999995868e+000	 9.833363260142795e+000
0	 1.000000000000000e+001	 3.133319999991934e+000	 9.839149007177671e+000
0	 1.000000000000000e+001	 3.199979999988401e+000	 9.844902748381603e+000
0	 1.000000000000000e+001	 3.266639999985467e+000	 9.850625654534111e+000
0	 1.000000000000000e+001	 3.333299999983334e+000	 9.856318896414651e+000
0	 9.333302777352783e+000	 3.333299999983335e+000	 9.914874082445980e+000
0	 9.333302777352783e+000	 3.399969999982150e+000	 9.918506360607506e+000
0	 9.333302777352785e+000	 3.466639999981866e+000	 9.922078828351676e+000
0	 9.333302777352781e+000	 3.533309999982383e+000	 9.925592226834683e+000
0	 9.333302777352783e+000	 3.599979999983599e+000	 9.929047297212808e+000
0	 9.333302777352783e+000	 3.666649999985416e+000	 9.932444780642262e+000
0	 9.333302777352783e+000	 3.733319999987732e+000	 9.935785418279274e+000
0	 9.333302777352783e+000	 3.799989999990448e+000	 9.939069951280088e+000
0	 9.333302777352783e+000	 3.866659999993465e+000	 9.942299120800920e+000
0	 9.333302777352783e+000	 3.933329999996682e+000	 9.945473667998009e+000
0	 9.333302777352783e+000	 4.000000000000001e+000	 9.948594334027606e+000
0	 9.399973674588178e+000	 3.333299999983335e+000	 9.908627779246723e+000
0	 9.399973674588177e+000	 3.399969999982150e+000	 9.912420564391384e+000
0	 9.399973674588177e+000	 3.466639999981866e+000	 9.916151739657019e+000
0	 9.399973674588178e+000	 3.533309999982383e+000	 9.919822039709640e+000
0	 9.399973674588175e+000	 3.599979999983598e+000	 9.923432199215297e+000
0	 9.399973674588177e+000	 3.666649999985415e+000	 9.926982952839998e+000
0	 9.399973674588175e+000	 3.733319999987732e+000	 9.930475035249808e+000
0	 9.399973674588178e+000	 3.799989999990449e+000	 9.933909181110717e+000
0	 9.399973674588175e+000	 3.866659999993465e+000	 9.937286125088791e+000
0	 9.399973674588178e+000	 3.933329999996682e+000	 9.940606601850039e+000
0	 9.399973674588177e+000	 4.000000000000000e+000	 9.943871346060501e+000
0	 9.466644621844619e+000	 3.333299999983334e+000	 9.902446838224318e+000
0	 9.466644621844623e+000	 3.399969999982150e+000	 9.906408688428321e+000
0	 9.466644621844621e+000	 3.466639999981866e+000	 9.910306518785049e+000
0	 9.466644621844623e+000	 3.533309999982382e+000	 9.914141067737962e+000
0	 9.466644621844619e+000	 3.599979999983599e+000	 9.917913073730519e+000
0	 9.466644621844621e+000	 3.666649999985415e+000	 9.921623275206168e+000
0	 9.466644621844624e+000	 3.733319999987733e+000	 9.925272410608356e+000
0	 9.466644621844621e+000	 3.799989999990447e+000	 9.928861218380535e+000
0	 9.466644621844619e+000	 3.866659999993464e+000	 9.932390436966173e+000
0	 9.466644621844619e+000	 3.933329999996682e+000	 9.935860804808741e+000
0	 9.466644621844619e+000	 4.000000000000000e+000	 9.939273060351647e+000
0	 9.533315502450000e+000	 3.333299999983334e+000	 9.896339314796855e+000
0	 9.533315502449996e+000	 3.399969999982149e+000	 9.900478857457198e+000
0	 9.533315502449996e+000	 3.466639999981865e+000	 9.904551428758833e+000
0	 9.533315502450003e+000	 3.533309999982383e+000	 9.908557781190270e+000
0	 9.533315502450002e+000	 3.599979999983598e+000	 9.912498667240069e+000
0	 9.533315502449996e+000	 3.666649999985415e+000	 9.916374839396720e+000
0	 9.533315502449998e+000	 3.733319999987733e+000	 9.920187050148773e+000
0	 9.533315502450000e+000	 3.799989999990449e+000	 9.923936051984740e+000
0	 9.533315502449998e+000	 3.866659999993464e+000	 9.927622597393134e+000
0	 9.533315502449998e+000	 3.933329999996680e+000	 9.931247438862496e+000
0	 9.533315502450002e+000	 4.000000000000001e+000	 9.934811328881342e+000
0	 9.599986199732197e+000	 3.333299999983334e+000	 9.890313263895703e+000
0	 9.599986199732197e+000	 3.399969999982150e+000	 9.894639195689903e+000
0	 9.599986199732197e+000	 3.466639999981866e+000	 9.898894732034995e+000
0	 9.599986199732197e+000	 3.533309999982383e+000	 9.903080649732408e+000
0	 9.599986199732198e+000	 3.599979999983598e+000	 9.907197725583455e+000
0	 9.599986199732197e+000	 3.666649999985415e+000	 9.911246736389554e+000
0	 9.599986199732193e+000	 3.733319999987731e+000	 9.915228458952061e+000
0	 9.599986199732193e+000	 3.799989999990448e+000	 9.919143670072353e+000
0	 9.599986199732197e+000	 3.866659999993465e+000	 9.922993146551800e+000
0	 9.599986199732197e+000	 3.933329999996682e+000	 9.926777665191766e+000
0	 9.599986199732198e+000	 4.000000000000001e+000	 9.930498002793659e+000
0	 9.666656597019092e+000	 3.333299999983333e+000	 9.884376739965809e+000
0	 9.666656597019092e+000	 3.399969999982150e+000	 9.888897826811512e+000
0	 9.666656597019095e+000	 3.466639999981866e+000	 9.893344690503996e+000
0	 9.666656597019092e+000	 3.533309999982382e+000	 9.897718142425484e+000
0	 9.666656597019092e+000	 3.599979999983598e+000	 9.902018993958228e+000
0	 9.666656597019095e+000	 3.666649999985415e+000	 9.906248056484463e+000
0	 9.666656597019095e+000	 3.733319999987731e+000	 9.910406141386439e+000
0	 9.666656597019090e+000	 3.799989999990447e+000	 9.914494060046408e+000
0	 9.666656597019090e+000	 3.866659999993464e+000	 9.918512623846580e+000
0	 9.666656597019093e+000	 3.933329999996682e+000	 9.922462644169219e+000
0	 9.666656597019092e+000	 4.000000000000000e+000	 9.926344932396569e+000
0	 9.733326577638575e+000	 3.333299999983334e+000	 9.878537796965647e+000
0	 9.733326577638575e+000	 3.399969999982149e+000	 9.883262873980367e+000
0	 9.733326577638575e+000	 3.466639999981866e+000	 9.887909565490032e+000
0	 9.733326577638573e+000	 3.533309999982383e+000	 9.892478727726108e+000
0	 9.733326577638575e+000	 3.599979999983598e+000	 9.896971216920063e+000
0	 9.733326577638575e+000	 3.666649999985415e+000	 9.901387889303390e+000
0	 9.733326577638573e+000	 3.733319999987731e+000	 9.905729601107540e+000
0	 9.733326577638572e+000	 3.799989999990448e+000	 9.909997208564011e+000
0	 9.733326577638572e+000	 3.866659999993464e+000	 9.914191567904279e+000
0	 9.733326577638577e+000	 3.933329999996682e+000	 9.918313535359783e+000
0	 9.733326577638573e+000	 4.000000000000000e+000	 9.922363967162015e+000
0	 9.799996024918521e+000	 3.333299999983334e+000	 9.872804488367454e+000
0	 9.799996024918523e+000	 3.399969999982150e+000	 9.877742459828195e+000
0	 9.799996024918521e+000	 3.466639999981866e+000	 9.882597617751340e+000
0	 9.799996024918521e+000	 3.533309999982382e+000	 9.887370873486388e+000
0	 9.799996024918521e+000	 3.599979999983598e+000	 9.892063138382889e+000
0	 9.799996024918521e+000	 3.666649999985415e+000	 9.896675323790390e+000
0	 9.799996024918524e+000	 3.733319999987732e+000	 9.901208341058380e+000
0	 9.799996024918521e+000	 3.799989999990447e+000	 9.905663101536394e+000
0	 9.799996024918523e+000	 3.866659999993465e+000	 9.910040516573993e+000
0	 9.799996024918523e+000	 3.933329999996682e+000	 9.914341497520683e+000
0	 9.799996024918521e+000	 4.000000000000001e+000	 9.918566955725956e+000
0	 9.866664822186818e+000	 3.333299999983334e+000	 9.867184867157272e+000
0	 9.866664822186820e+000	 3.399969999982149e+000	 9.872344706460183e+000
0	 9.866664822186820e+000	 3.466639999981866e+000	 9.877417107480131e+000
0	 9.866664822186818e+000	 3.533309999982382e+000	 9.882403046954062e+000
0	 9.866664822186822e+000	 3.599979999983598e+000	 9.887303501618979e+000
0	 9.866664822186820e+000	 3.666649999985416e+000	 9.892119448211783e+000
0	 9.866664822186822e+000	 3.733319999987733e+000	 9.896851863469504e+000
0	 9.866664822186822e+000	 3.799989999990448e+000	 9.901501724129073e+000
0	 9.866664822186820e+000	 3.866659999993465e+000	 9.906070006927454e+000
0	 9.866664822186820e+000	 3.933329999996682e+000	 9.910557688601585e+000
0	 9.866664822186818e+000	 4.000000000000000e+000	 9.914965745888463e+000
0	 9.933332852771349e+000	 3.333299999983333e+000	 9.861686985835021e+000
0	 9.933332852771352e+000	 3.399969999982150e+000	 9.867077735455071e+000
0	 9.933332852771351e+000	 3.466639999981866e+000	 9.872376294302756e+000
0	 9.933332852771349e+000	 3.533309999982381e+000	 9.877583714772545e+000
0	 9.933332852771351e+000	 3.599979999983598e+000	 9.882701049258865e+000
0	 9.933332852771352e+000	 3.666649999985415e+000	 9.887729350156191e+000
0	 9.933332852771351e+000	 3.733319999987732e+000	 9.892669669858986e+000
0	 9.933332852771351e+000	 3.799989999990448e+000	 9.897523060761673e+000
0	 9.933332852771351e+000	 3.866659999993465e+000	 9.902290575258720e+000
0	 9.933332852771351e+000	 3.933329999996681e+000	 9.906973265744552e+000
0	 9.933332852771351e+000	 4.000000000000000e+000	 9.911572184613704e+000
0	 1.000000000000000e+001	 3.333299999983334e+000	 9.856318896414651e+000
0	 1.000000000000000e+001	 3.399969999982150e+000	 9.861949667865241e+000
0	 1.000000000000000e+001	 3.466639999981866e+000	 9.867483437279740e+000
0	 1.000000000000000e+001	 3.533309999982383e+000	 9.872921342980920e+000
0	 1.000000000000000e+001	 3.599979999983599e+000	 9.878264523291623e+000
0	 1.000000000000000e+001	 3.666649999985415e+000	 9.883514116534554e+000
0	 1.000000000000000e+001	 3.733319999987731e+000	 9.888671261032469e+000
0	 9.999999999999998e+000	 3.799989999990448e+000	 9.893737095108204e+000
0	 1.000000000000000e+001	 3.866659999993465e+000	 9.898712757084528e+000
0	 1.000000000000000e+001	 3.933329999996682e+000	 9.903599385284128e+000
0	 1.000000000000000e+001	 4.000000000000001e+000	 9.908398118029870e+000
0	 9.333302777352783e+000	 4.000000000000001e+000	 9.948594334027604e+000
0	 9.333302777352781e+000	 4.066670000003317e+000	 9.951647069083830e+000
0	 9.333302777352783e+000	 4.133340000006535e+000	 9.954617536497036e+000
0	 9.333302777352783e+000	 4.200010000009551e+000	 9.957506047127616e+000
0	 9.333302777352785e+000	 4.266680000012268e+000	 9.960312911836040e+000
0	 9.333302777352783e+000	 4.333350000014584e+000	 9.963038441482727e+000
0	 9.333302777352783e+000	 4.400020000016400e+000	 9.965682946928109e+000
0	 9.333302777352783e+000	 4.466690000017616e+000	 9.968246739032622e+000
0	 9.333302777352781e+000	 4.533360000018132e+000	 9.970730128656701e+000
0	 9.333302777352783e+000	 4.600030000017848e+000	 9.973133426660789e+000
0	 9.333302777352783e+000	 4.666700000016666e+000	 9.975456943905297e+000
0	 9.399973674588177e+000	 4.000000000000000e+000	 9.943871346060501e+000
0	 9.399973674588178e+000	 4.066670000003318e+000	 9.947065909266101e+000
0	 9.399973674588173e+000	 4.133340000006533e+000	 9.950175558229322e+000
0	 9.399973674588175e+000	 4.200010000009550e+000	 9.953200600441058e+000
0	 9.399973674588177e+000	 4.266680000012268e+000	 9.956141343392186e+000
0	 9.399973674588177e+000	 4.333350000014584e+000	 9.958998094573545e+000
0	 9.399973674588178e+000	 4.400020000016401e+000	 9.961771161476019e+000
0	 9.399973674588175e+000	 4.466690000017616e+000	 9.964460851590484e+000
0	 9.399973674588175e+000	 4.533360000018131e+000	 9.967067472407827e+000
0	 9.399973674588177e+000	 4.600030000017848e+000	 9.969591331418872e+000
0	 9.399973674588175e+000	 4.666700000016666e+000	 9.972032736114517e+000
0	 9.466644621844619e+000	 4.000000000000000e+000	 9.939273060351647e+000
0	 9.466644621844621e+000	 4.066670000003317e+000	 9.942612526279071e+000
0	 9.466644621844621e+000	 4.133340000006534e+000	 9.945864237543121e+000
0	 9.466644621844621e+000	 4.200010000009550e+000	 9.949028500989240e+000
0	 9.466644621844623e+000	 4.266680000012268e+000	 9.952105623462829e+000
0	 9.466644621844619e+000	 4.333350000014582e+000	 9.955095911809316e+000
0	 9.466644621844623e+000	 4.400020000016400e+000	 9.957999672874134e+000
0	 9.466644621844623e+000	 4.466690000017617e+000	 9.960817213502644e+000
0	 9.466644621844621e+000	 4.533360000018134e+000	 9.963548840540334e+000
0	 9.466644621844621e+000	 4.600030000017849e+000	 9.966194860832559e+000
0	 9.466644621844619e+000	 4.666700000016666e+000	 9.968755581224766e+000
0	 9.533315502450002e+000	 4.000000000000001e+000	 9.934811328881342e+000
0	 9.533315502449998e+000	 4.066670000003318e+000	 9.938299454598750e+000
0	 9.533315502450000e+000	 4.133340000006533e+000	 9.941696707454227e+000
0	 9.533315502449996e+000	 4.200010000009550e+000	 9.945003396371797e+000
0	 9.533315502449996e+000	 4.266680000012266e+000	 9.948219830275555e+000
0	 9.533315502450000e+000	 4.333350000014584e+000	 9.951346318089602e+000
0	 9.533315502449998e+000	 4.400020000016400e+000	 9.954383168737957e+000
0	 9.533315502450003e+000	 4.466690000017617e+000	 9.957330691144703e+000
0	 9.533315502449996e+000	 4.533360000018130e+000	 9.960189194233911e+000
0	 9.533315502449998e+000	 4.600030000017849e+000	 9.962958986929655e+000
0	 9.533315502449998e+000	 4.666700000016667e+000	 9.965640378156010e+000
0	 9.599986199732198e+000	 4.000000000000001e+000	 9.930498002793659e+000
0	 9.599986199732197e+000	 4.066670000003318e+000	 9.934139227838555e+000
0	 9.599986199732197e+000	 4.133340000006535e+000	 9.937686100091273e+000
0	 9.599986199732197e+000	 4.200010000009550e+000	 9.941138933278634e+000
0	 9.599986199732197e+000	 4.266680000012267e+000	 9.944498041127540e+000
0	 9.599986199732197e+000	 4.333350000014583e+000	 9.947763737364809e+000
0	 9.599986199732197e+000	 4.400020000016399e+000	 9.950936335717314e+000
0	 9.599986199732197e+000	 4.466690000017616e+000	 9.954016149911936e+000
0	 9.599986199732197e+000	 4.533360000018133e+000	 9.957003493675490e+000
0	 9.599986199732193e+000	 4.600030000017848e+000	 9.959898680734863e+000
0	 9.599986199732197e+000	 4.666700000016667e+000	 9.962702024816906e+000
0	 9.666656597019092e+000	 4.000000000000000e+000	 9.926344932396569e+000
0	 9.666656597019092e+000	 4.066670000003318e+000	 9.930144378749294e+000
0	 9.666656597019093e+000	 4.133340000006533e+000	 9.933845546695805e+000
0	 9.666656597019092e+000	 4.200010000009550e+000	 9.937448757489941e+000
0	 9.666656597019088e+000	 4.266680000012267e+000	 9.940954332385534e+000
0	 9.666656597019095e+000	 4.333350000014584e+000	 9.944362592636454e+000
0	 9.666656597019092e+000	 4.400020000016399e+000	 9.947673859496494e+000
0	 9.666656597019093e+000	 4.466690000017616e+000	 9.950888454219504e+000
0	 9.666656597019092e+000	 4.533360000018131e+000	 9.954006698059326e+000
0	 9.666656597019093e+000	 4.600030000017850e+000	 9.957028912269758e+000
0	 9.666656597019095e+000	 4.666700000016667e+000	 9.959955418104645e+000
0	 9.733326577638573e+000	 4.000000000000000e+000	 9.922363967162015e+000
0	 9.733326577638575e+000	 4.066670000003318e+000	 9.926327439219305e+000
0	 9.733326577638575e+000	 4.133340000006534e+000	 9.930188177622370e+000
0	 9.733326577638573e+000	 4.200010000009550e+000	 9.933946513876307e+000
0	 9.733326577638577e+000	 4.266680000012268e+000	 9.937602779486216e+000
0	 9.733326577638573e+000	 4.333350000014583e+000	 9.941157305957153e+000
0	 9.733326577638575e+000	 4.400020000016399e+000	 9.944610424794201e+000
0	 9.733326577638573e+000	 4.466690000017617e+000	 9.947962467502467e+000
0	 9.733326577638573e+000	 4.533360000018132e+000	 9.951213765587001e+000
0	 9.733326577638575e+000	 4.600030000017849e+000	 9.954364650552884e+000
0	 9.733326577638575e+000	 4.666700000016667e+000	 9.957415453905226e+000
0	 9.799996024918521e+000	 4.000000000000001e+000	 9.918566955725956e+000
0	 9.799996024918519e+000	 4.066670000003318e+000	 9.922700940274533e+000
0	 9.799996024918524e+000	 4.133340000006534e+000	 9.926727122338576e+000
0	 9.799996024918523e+000	 4.200010000009550e+000	 9.930645846398797e+000
0	 9.799996024918521e+000	 4.266680000012267e+000	 9.934457456935929e+000
0	 9.799996024918523e+000	 4.333350000014582e+000	 9.938162298430655e+000
0	 9.799996024918521e+000	 4.400020000016400e+000	 9.941760715363683e+000
0	 9.799996024918523e+000	 4.466690000017616e+000	 9.945253052215760e+000
0	 9.799996024918521e+000	 4.533360000018132e+000	 9.948639653467609e+000
0	 9.799996024918523e+000	 4.600030000017849e+000	 9.951920863599895e+000
0	 9.799996024918524e+000	 4.666700000016667e+000	 9.955097027093336e+000
0	 9.866664822186818e+000	 4.000000000000000e+000	 9.914965745888463e+000
0	 9.866664822186820e+000	 4.066670000003318e+000	 9.919277412078607e+000
0	 9.866664822186818e+000	 4.133340000006532e+000	 9.923475509425145e+000
0	 9.866664822186822e+000	 4.200010000009550e+000	 9.927560398108959e+000
0	 9.866664822186820e+000	 4.266680000012268e+000	 9.931532438310917e+000
0	 9.866664822186820e+000	 4.333350000014583e+000	 9.935391990211915e+000
0	 9.866664822186820e+000	 4.400020000016401e+000	 9.939139413992749e+000
0	 9.866664822186820e+000	 4.466690000017617e+000	 9.942775069834340e+000
0	 9.866664822186822e+000	 4.533360000018132e+000	 9.946299317917624e+000
0	 9.866664822186818e+000	 4.600030000017847e+000	 9.949712518423329e+000
0	 9.866664822186822e+000	 4.666700000016667e+000	 9.953015031532418e+000
0	 9.933332852771351e+000	 4.000000000000000e+000	 9.911572184613702e+000
0	 9.933332852771352e+000	 4.066670000003317e+000	 9.916069383932742e+000
0	 9.933332852771351e+000	 4.133340000006533e+000	 9.920446466575818e+000
0	 9.933332852771351e+000	 4.200010000009550e+000	 9.924703811148753e+000
0	 9.933332852771349e+000	 4.266680000012266e+000	 9.928841796257236e+000
0	 9.933332852771352e+000	 4.333350000014584e+000	 9.932860800506973e+000
0	 9.933332852771351e+000	 4.400020000016400e+000	 9.936761202503657e+000
0	 9.933332852771352e+000	 4.466690000017616e+000	 9.940543380853089e+000
0	 9.933332852771352e+000	 4.533360000018132e+000	 9.944207714160903e+000
0	 9.933332852771351e+000	 4.600030000017848e+000	 9.947754581032879e+000
0	 9.933332852771351e+000	 4.666700000016665e+000	 9.951184360074691e+000
0	 1.000000000000000e+001	 4.000000000000001e+000	 9.908398118029870e+000
0	 1.000000000000000e+001	 4.066670000003318e+000	 9.913089384275752e+000
0	 1.000000000000000e+001	 4.133340000006534e+000	 9.917653120597525e+000
0	 9.999999999999998e+000	 4.200010000009550e+000	 9.922089726750746e+000
0	 9.999999999999998e+000	 4.266680000012267e+000	 9.926399602490772e+000
0	 9.999999999999998e+000	 4.333350000014583e+000	 9.930583147573131e+000
0	 1.000000000000000e+001	 4.400020000016400e+000	 9.934640761753279e+000
0	 1.000000000000000e+001	 4.466690000017617e+000	 9.938572844786693e+000
0	 1.000000000000000e+001	 4.533360000018132e+000	 9.942379796428785e+000
0	 1.000000000000000e+001	 4.600030000017848e+000	 9.946062016435075e+000
0	 1.000000000000000e+001	 4.666700000016666e+000	 9.949619904560997e+000
0	 9.333302777352783e+000	 4.666700000016666e+000	 9.975456943905297e+000
0	 9.333302777352783e+000	 4.733360000014532e+000	 9.977698494727619e+000
0	 9.333302777352781e+000	 4.800020000011600e+000	 9.979856222276091e+000
0	 9.333302777352783e+000	 4.866680000008067e+000	 9.981929903000317e+000
0	 9.333302777352783e+000	 4.933340000004133e+000	 9.983919313349801e+000
0	 9.333302777352781e+000	 4.999999999999999e+000	 9.985824229774114e+000
0	 9.333302777352783e+000	 5.066659999995867e+000	 9.987644428722803e+000
0	 9.333302777352783e+000	 5.133319999991932e+000	 9.989379686645451e+000
0	 9.333302777352783e+000	 5.199979999988399e+000	 9.991029779991623e+000
0	 9.333302777352783e+000	 5.266639999985466e+000	 9.992594485210848e+000
0	 9.333302777352785e+000	 5.333299999983335e+000	 9.994073578752721e+000
0	 9.399973674588175e+000	 4.666700000016666e+000	 9.972032736114521e+000
0	 9.399973674588173e+000	 4.733360000014533e+000	 9.974389092543763e+000
0	 9.399973674588178e+000	 4.800020000011602e+000	 9.976658200750576e+000
0	 9.399973674588178e+000	 4.866680000008066e+000	 9.978839879146364e+000
0	 9.399973674588180e+000	 4.933340000004134e+000	 9.980933946142461e+000
0	 9.399973674588180e+000	 5.000000000000002e+000	 9.982940220150280e+000
0	 9.399973674588178e+000	 5.066659999995867e+000	 9.984858519581159e+000
0	 9.399973674588178e+000	 5.133319999991932e+000	 9.986688662846468e+000
0	 9.399973674588177e+000	 5.199979999988400e+000	 9.988430468357645e+000
0	 9.399973674588177e+000	 5.266639999985466e+000	 9.990083754526031e+000
0	 9.399973674588177e+000	 5.333299999983334e+000	 9.991648339762991e+000
0	 9.466644621844619e+000	 4.666700000016666e+000	 9.968755581224768e+000
0	 9.466644621844621e+000	 4.733360000014534e+000	 9.971227962734739e+000
0	 9.466644621844619e+000	 4.800020000011599e+000	 9.973609419743561e+000
0	 9.466644621844619e+000	 4.866680000008067e+000	 9.975899806020498e+000
0	 9.466644621844617e+000	 4.933340000004131e+000	 9.978098975334792e+000
0	 9.466644621844621e+000	 5.000000000000001e+000	 9.980206781455676e+000
0	 9.466644621844619e+000	 5.066659999995866e+000	 9.982223078152396e+000
0	 9.466644621844623e+000	 5.133319999991934e+000	 9.984147719194233e+000
0	 9.466644621844617e+000	 5.199979999988399e+000	 9.985980558350454e+000
0	 9.466644621844619e+000	 5.266639999985466e+000	 9.987721449390271e+000
0	 9.466644621844619e+000	 5.333299999983333e+000	 9.989370246082979e+000
0	 9.533315502449998e+000	 4.666700000016667e+000	 9.965640378156010e+000
0	 9.533315502449998e+000	 4.733360000014534e+000	 9.968229883849000e+000
0	 9.533315502449998e+000	 4.800020000011600e+000	 9.970724526825947e+000
0	 9.533315502450002e+000	 4.866680000008066e+000	 9.973124189610266e+000
0	 9.533315502449996e+000	 4.933340000004133e+000	 9.975428754725309e+000
0	 9.533315502449998e+000	 5.000000000000002e+000	 9.977638104694469e+000
0	 9.533315502449996e+000	 5.066659999995865e+000	 9.979752122041068e+000
0	 9.533315502450000e+000	 5.133319999991933e+000	 9.981770689288549e+000
0	 9.533315502449998e+000	 5.199979999988400e+000	 9.983693688960239e+000
0	 9.533315502449998e+000	 5.266639999985465e+000	 9.985521003579553e+000
0	 9.533315502450000e+000	 5.333299999983334e+000	 9.987252515669853e+000
0	 9.599986199732197e+000	 4.666700000016667e+000	 9.962702024816904e+000
0	 9.599986199732195e+000	 4.733360000014532e+000	 9.965409633417433e+000
0	 9.599986199732197e+000	 4.800020000011600e+000	 9.968018168547042e+000
0	 9.599986199732195e+000	 4.866680000008067e+000	 9.970527534879613e+000
0	 9.599986199732193e+000	 4.933340000004134e+000	 9.972937637088972e+000
0	 9.599986199732195e+000	 4.999999999999999e+000	 9.975248379849013e+000
0	 9.599986199732195e+000	 5.066659999995866e+000	 9.977459667833543e+000
0	 9.599986199732193e+000	 5.133319999991931e+000	 9.979571405716433e+000
0	 9.599986199732197e+000	 5.199979999988400e+000	 9.981583498171556e+000
0	 9.599986199732197e+000	 5.266639999985466e+000	 9.983495849872767e+000
0	 9.599986199732197e+000	 5.333299999983336e+000	 9.985308365493944e+000
0	 9.666656597019095e+000	 4.666700000016667e+000	 9.959955418104649e+000
0	 9.666656597019092e+000	 4.733360000014533e+000	 9.962781987953452e+000
0	 9.666656597019092e+000	 4.800020000011600e+000	 9.965504990434646e+000
0	 9.666656597019093e+000	 4.866680000008065e+000	 9.968124345768992e+000
0	 9.666656597019093e+000	 4.933340000004134e+000	 9.970639974177164e+000
0	 9.666656597019092e+000	 5.000000000000002e+000	 9.973051795879965e+000
0	 9.666656597019095e+000	 5.066659999995867e+000	 9.975359731098092e+000
0	 9.666656597019092e+000	 5.133319999991934e+000	 9.977563700052311e+000
0	 9.666656597019092e+000	 5.199979999988398e+000	 9.979663622963342e+000
0	 9.666656597019093e+000	 5.266639999985465e+000	 9.981659420051928e+000
0	 9.666656597019093e+000	 5.333299999983335e+000	 9.983551011538847e+000
0	 9.733326577638575e+000	 4.666700000016667e+000	 9.957415453905227e+000
0	 9.733326577638572e+000	 4.733360000014533e+000	 9.960361722953104e+000
0	 9.733326577638573e+000	 4.800020000011599e+000	 9.963199636995148e+000
0	 9.733326577638575e+000	 4.866680000008065e+000	 9.965929125195377e+000
0	 9.733326577638575e+000	 4.933340000004135e+000	 9.968550116717754e+000
0	 9.733326577638575e+000	 5.000000000000001e+000	 9.971062540726301e+000
0	 9.733326577638573e+000	 5.066659999995867e+000	 9.973466326384976e+000
0	 9.733326577638575e+000	 5.133319999991934e+000	 9.975761402857822e+000
0	 9.733326577638575e+000	 5.199979999988400e+000	 9.977947699308871e+000
0	 9.733326577638575e+000	 5.266639999985467e+000	 9.980025144902060e+000
0	 9.733326577638575e+000	 5.333299999983334e+000	 9.981993668801430e+000
0	 9.799996024918524e+000	 4.666700000016667e+000	 9.955097027093339e+000
0	 9.799996024918521e+000	 4.733360000014533e+000	 9.958163612895016e+000
0	 9.799996024918521e+000	 4.800020000011601e+000	 9.961116751713508e+000
0	 9.799996024918523e+000	 4.866680000008067e+000	 9.963956375052353e+000
0	 9.799996024918523e+000	 4.933340000004133e+000	 9.966682414415104e+000
0	 9.799996024918521e+000	 4.999999999999999e+000	 9.969294801305285e+000
0	 9.799996024918521e+000	 5.066659999995866e+000	 9.971793467226457e+000
0	 9.799996024918524e+000	 5.133319999991933e+000	 9.974178343682123e+000
0	 9.799996024918521e+000	 5.199979999988400e+000	 9.976449362175909e+000
0	 9.799996024918521e+000	 5.266639999985465e+000	 9.978606454211320e+000
0	 9.799996024918523e+000	 5.333299999983334e+000	 9.980649551291926e+000
0	 9.866664822186822e+000	 4.666700000016667e+000	 9.953015031532415e+000
0	 9.866664822186822e+000	 4.733360000014534e+000	 9.956202431240431e+000
0	 9.866664822186820e+000	 4.800020000011599e+000	 9.959270977053244e+000
0	 9.866664822186820e+000	 4.866680000008067e+000	 9.962220596210075e+000
0	 9.866664822186818e+000	 4.933340000004133e+000	 9.965051215950119e+000
0	 9.866664822186820e+000	 5.000000000000001e+000	 9.967762763512578e+000
0	 9.866664822186822e+000	 5.066659999995866e+000	 9.970355166136688e+000
0	 9.866664822186818e+000	 5.133319999991933e+000	 9.972828351061635e+000
0	 9.866664822186822e+000	 5.199979999988400e+000	 9.975182245526652e+000
0	 9.866664822186820e+000	 5.266639999985465e+000	 9.977416776770971e+000
0	 9.866664822186818e+000	 5.333299999983334e+000	 9.979531872033791e+000
0	 9.933332852771351e+000	 4.666700000016665e+000	 9.951184360074693e+000
0	 9.933332852771351e+000	 4.733360000014534e+000	 9.954492950433197e+000
0	 9.933332852771349e+000	 4.800020000011599e+000	 9.957676954456442e+000
0	 9.933332852771352e+000	 4.866680000008067e+000	 9.960736288515179e+000
0	 9.933332852771352e+000	 4.933340000004134e+000	 9.963670868980151e+000
0	 9.933332852771351e+000	 5.000000000000000e+000	 9.966480612222100e+000
0	 9.933332852771351e+000	 5.066659999995867e+000	 9.969165434611840e+000
0	 9.933332852771351e+000	 5.133319999991932e+000	 9.971725252520072e+000
0	 9.933332852771352e+000	 5.199979999988400e+000	 9.974159982317636e+000
0	 9.933332852771351e+000	 5.266639999985465e+000	 9.976469540375241e+000
0	 9.933332852771349e+000	 5.333299999983333e+000	 9.978653843063704e+000
0	 1.000000000000000e+001	 4.666700000016666e+000	 9.949619904560999e+000
0	 1.000000000000000e+001	 4.733360000014533e+000	 9.953049941899762e+000
0	 1.000000000000000e+001	 4.800020000011600e+000	 9.956349324343753e+000
0	 1.000000000000000e+001	 4.866680000008066e+000	 9.959517950790882e+000
0	 1.000000000000000e+001	 4.933340000004134e+000	 9.962555720139001e+000
0	 1.000000000000000e+001	 5.000000000000000e+000	 9.965462531286033e+000
0	 1.000000000000000e+001	 5.066659999995866e+000	 9.968238283129905e+000
0	 1.000000000000000e+001	 5.133319999991933e+000	 9.970882874568435e+000
0	 1.000000000000000e+001	 5.199979999988399e+000	 9.973396204499696e+000
0	 9.999999999999998e+000	 5.266639999985466e+000	 9.975778171821435e+000
0	 1.000000000000000e+001	 5.333299999983335e+000	 9.978028675431622e+000
0	 9.333302777352785e+000	 5.333299999983335e+000	 9.994073578752721e+000
0	 9.333302777352783e+000	 5.399969999982150e+000	 9.995473118019230e+000
0	 9.333302777352785e+000	 5.466639999981866e+000	 9.996798561489282e+000
0	 9.333302777352783e+000	 5.533309999982382e+000	 9.998049433588399e+000
0	 9.333302777352786e+000	 5.599979999983599e+000	 9.999225258742138e+000
0	 9.333302777352783e+000	 5.666649999985415e+000	 1.000032556137600e+001
0	 9.333302777352785e+000	 5.733319999987733e+000	 1.000134986591555e+001
0	 9.333302777352781e+000	 5.799989999990447e+000	 1.000229769678631e+001
0	 9.333302777352783e+000	 5.866659999993466e+000	 1.000316857841377e+001
0	 9.333302777352783e+000	 5.933329999996681e+000	 1.000396203522352e+001
0	 9.333302777352785e+000	 6.000000000000001e+000	 1.000467759164102e+001
0	 9.399973674588177e+000	 5.333299999983334e+000	 9.991648339762989e+000
0	 9.399973674588177e+000	 5.399969999982148e+000	 9.993130385969025e+000
0	 9.399973674588178e+000	 5.466639999981865e+000	 9.994535410685746e+000
0	 9.399973674588178e+000	 5.533309999982384e+000	 9.995862949932988e+000
0	 9.399973674588178e+000	 5.599979999983598e+000	 9.997112539730622e+000
0	 9.399973674588178e+000	 5.666649999985416e+000	 9.998283716098490e+000
0	 9.399973674588173e+000	 5.733319999987731e+000	 9.999376015056486e+000
0	 9.399973674588177e+000	 5.799989999990448e+000	 1.000038897262444e+001
0	 9.399973674588173e+000	 5.866659999993463e+000	 1.000132212482221e+001
0	 9.399973674588180e+000	 5.933329999996683e+000	 1.000217500766964e+001
0	 9.399973674588177e+000	 6.000000000000001e+000	 1.000294715718662e+001
0	 9.466644621844619e+000	 5.333299999983333e+000	 9.989370246082977e+000
0	 9.466644621844623e+000	 5.399969999982151e+000	 9.990933279754847e+000
0	 9.466644621844621e+000	 5.466639999981867e+000	 9.992416193541459e+000
0	 9.466644621844621e+000	 5.533309999982383e+000	 9.993818530213545e+000
0	 9.466644621844619e+000	 5.599979999983598e+000	 9.995139832541721e+000
0	 9.466644621844621e+000	 5.666649999985415e+000	 9.996379643296718e+000
0	 9.466644621844621e+000	 5.733319999987732e+000	 9.997537505249236e+000
0	 9.466644621844624e+000	 5.799989999990449e+000	 9.998612961169954e+000
0	 9.466644621844623e+000	 5.866659999993466e+000	 9.999605553829532e+000
0	 9.466644621844619e+000	 5.933329999996681e+000	 1.000051482599868e+001
0	 9.466644621844619e+000	 5.999999999999999e+000	 1.000134032044807e+001
0	 9.533315502450000e+000	 5.333299999983334e+000	 9.987252515669852e+000
0	 9.533315502449998e+000	 5.399969999982150e+000	 9.988894787831640e+000
0	 9.533315502450000e+000	 5.466639999981866e+000	 9.990453652313201e+000
0	 9.533315502450003e+000	 5.533309999982384e+000	 9.991928653792586e+000
0	 9.533315502450003e+000	 5.599979999983599e+000	 9.993319336947838e+000
0	 9.533315502450000e+000	 5.666649999985416e+000	 9.994625246457009e+000
0	 9.533315502450000e+000	 5.733319999987733e+000	 9.995845926998177e+000
0	 9.533315502449998e+000	 5.799989999990447e+000	 9.996980923249385e+000
0	 9.533315502450002e+000	 5.866659999993466e+000	 9.998029779888654e+000
0	 9.533315502449998e+000	 5.933329999996682e+000	 9.998992041594086e+000
0	 9.533315502449998e+000	 6.000000000000000e+000	 9.999867253043686e+000
0	 9.599986199732197e+000	 5.333299999983336e+000	 9.985308365493943e+000
0	 9.599986199732197e+000	 5.399969999982152e+000	 9.987027897679255e+000
0	 9.599986199732197e+000	 5.466639999981864e+000	 9.988660528295661e+000
0	 9.599986199732195e+000	 5.533309999982382e+000	 9.990205799085150e+000
0	 9.599986199732197e+000	 5.599979999983598e+000	 9.991663251789582e+000
0	 9.599986199732197e+000	 5.666649999985415e+000	 9.993032428150974e+000
0	 9.599986199732195e+000	 5.733319999987732e+000	 9.994312869911191e+000
0	 9.599986199732193e+000	 5.799989999990447e+000	 9.995504118812221e+000
0	 9.599986199732198e+000	 5.866659999993464e+000	 9.996605716595976e+000
0	 9.599986199732195e+000	 5.933329999996682e+000	 9.997617205004408e+000
0	 9.599986199732198e+000	 6.000000000000001e+000	 9.998538125779417e+000
0	 9.666656597019093e+000	 5.333299999983335e+000	 9.983551011538845e+000
0	 9.666656597019092e+000	 5.399969999982150e+000	 9.985345595802434e+000
0	 9.666656597019093e+000	 5.466639999981865e+000	 9.987049561821625e+000
0	 9.666656597019092e+000	 5.533309999982381e+000	 9.988662443558681e+000
0	 9.666656597019090e+000	 5.599979999983598e+000	 9.990183774975872e+000
0	 9.666656597019095e+000	 5.666649999985416e+000	 9.991613090035472e+000
0	 9.666656597019095e+000	 5.733319999987731e+000	 9.992949922699740e+000
0	 9.666656597019090e+000	 5.799989999990446e+000	 9.994193806930962e+000
0	 9.666656597019093e+000	 5.866659999993463e+000	 9.995344276691412e+000
0	 9.666656597019093e+000	 5.933329999996682e+000	 9.996400865943313e+000
0	 9.666656597019092e+000	 6.000000000000002e+000	 9.997363108648974e+000
0	 9.733326577638575e+000	 5.333299999983334e+000	 9.981993668801430e+000
0	 9.733326577638575e+000	 5.399969999982149e+000	 9.983860867730945e+000
0	 9.733326577638573e+000	 5.466639999981867e+000	 9.985633492261911e+000
0	 9.733326577638573e+000	 5.533309999982381e+000	 9.987311063733262e+000
0	 9.733326577638575e+000	 5.599979999983600e+000	 9.988893103483932e+000
0	 9.733326577638575e+000	 5.666649999985415e+000	 9.990379132852844e+000
0	 9.733326577638572e+000	 5.733319999987732e+000	 9.991768673178942e+000
0	 9.733326577638573e+000	 5.799989999990447e+000	 9.993061245801153e+000
0	 9.733326577638573e+000	 5.866659999993464e+000	 9.994256372058437e+000
0	 9.733326577638575e+000	 5.933329999996682e+000	 9.995353573289687e+000
0	 9.733326577638575e+000	 6.000000000000000e+000	 9.996352370833847e+000
0	 9.799996024918523e+000	 5.333299999983334e+000	 9.980649551291924e+000
0	 9.799996024918523e+000	 5.399969999982150e+000	 9.982586698019524e+000
0	 9.799996024918519e+000	 5.466639999981865e+000	 9.984425058025433e+000
0	 9.799996024918523e+000	 5.533309999982383e+000	 9.986164135181415e+000
0	 9.799996024918521e+000	 5.599979999983598e+000	 9.987803433359238e+000
0	 9.799996024918523e+000	 5.666649999985415e+000	 9.989342456430656e+000
0	 9.799996024918523e+000	 5.733319999987733e+000	 9.990780708267430e+000
0	 9.799996024918523e+000	 5.799989999990448e+000	 9.992117692741351e+000
0	 9.799996024918523e+000	 5.866659999993465e+000	 9.993352913724110e+000
0	 9.799996024918521e+000	 5.933329999996681e+000	 9.994485875087491e+000
0	 9.799996024918521e+000	 6.000000000000001e+000	 9.995516080703270e+000
0	 9.866664822186818e+000	 5.333299999983334e+000	 9.979531872033789e+000
0	 9.866664822186820e+000	 5.399969999982151e+000	 9.981536070247818e+000
0	 9.866664822186822e+000	 5.466639999981866e+000	 9.983436996559142e+000
0	 9.866664822186820e+000	 5.533309999982381e+000	 9.985234132528241e+000
0	 9.866664822186820e+000	 5.599979999983598e+000	 9.986926959715685e+000
0	 9.866664822186820e+000	 5.666649999985417e+000	 9.988514959681938e+000
0	 9.866664822186820e+000	 5.733319999987732e+000	 9.989997613987594e+000
0	 9.866664822186818e+000	 5.799989999990447e+000	 9.991374404193095e+000
0	 9.866664822186818e+000	 5.866659999993464e+000	 9.992644811859057e+000
0	 9.866664822186820e+000	 5.933329999996682e+000	 9.993808318545934e+000
0	 9.866664822186822e+000	 6.000000000000001e+000	 9.994864405814267e+000
0	 9.933332852771349e+000	 5.333299999983333e+000	 9.978653843063704e+000
0	 9.933332852771352e+000	 5.399969999982150e+000	 9.980721967020465e+000
0	 9.933332852771351e+000	 5.466639999981866e+000	 9.982682044348028e+000
0	 9.933332852771352e+000	 5.533309999982382e+000	 9.984533529451294e+000
0	 9.933332852771352e+000	 5.599979999983599e+000	 9.986275876735295e+000
0	 9.933332852771352e+000	 5.666649999985415e+000	 9.987908540604947e+000
0	 9.933332852771351e+000	 5.733319999987732e+000	 9.989430975465172e+000
0	 9.933332852771352e+000	 5.799989999990448e+000	 9.990842635721025e+000
0	 9.933332852771351e+000	 5.866659999993464e+000	 9.992142975777398e+000
0	 9.933332852771351e+000	 5.933329999996682e+000	 9.993331450039237e+000
0	 9.933332852771351e+000	 6.000000000000000e+000	 9.994407512911538e+000
0	 1.000000000000000e+001	 5.333299999983335e+000	 9.978028675431622e+000
0	 1.000000000000000e+001	 5.399969999982150e+000	 9.980157369966950e+000
0	 1.000000000000000e+001	 5.466639999981866e+000	 9.982172936914989e+000
0	 1.000000000000000e+001	 5.533309999982383e+000	 9.984074798680574e+000
0	 1.000000000000000e+001	 5.599979999983598e+000	 9.985862377668376e+000
0	 1.000000000000000e+001	 5.666649999985415e+000	 9.987535096283155e+000
0	 1.000000000000000e+001	 5.733319999987732e+000	 9.989092376929623e+000
0	 1.000000000000000e+001	 5.799989999990449e+000	 9.990533642012547e+000
0	 1.000000000000000e+001	 5.866659999993465e+000	 9.991858313936669e+000
0	 9.999999999999998e+000	 5.933329999996681e+000	 9.993065815106727e+000
0	 1.000000000000000e+001	 6.000000000000000e+000	 9.994155567927432e+000
0	 9.333302777352785e+000	 6.000000000000001e+000	 1.000467759164102e+001
0	 9.333302777352783e+000	 6.066670000003317e+000	 1.000532692384225e+001
0	 9.333302777352783e+000	 6.133340000006533e+000	 1.000592157993387e+001
0	 9.333302777352783e+000	 6.200010000009550e+000	 1.000646089223748e+001
0	 9.333302777352785e+000	 6.266680000012267e+000	 1.000694419307471e+001
0	 9.333302777352785e+000	 6.333350000014584e+000	 1.000737081476717e+001
0	 9.333302777352783e+000	 6.400020000016399e+000	 1.000774008963650e+001
0	 9.333302777352781e+000	 6.466690000017615e+000	 1.000805135000431e+001
0	 9.333302777352783e+000	 6.533360000018132e+000	 1.000830392819222e+001
0	 9.333302777352783e+000	 6.600030000017848e+000	 1.000849715652183e+001
0	 9.333302777352783e+000	 6.666700000016666e+000	 1.000863036731475e+001
0	 9.399973674588177e+000	 6.000000000000001e+000	 1.000294715718662e+001
0	 9.399973674588177e+000	 6.066670000003317e+000	 1.000365059405096e+001
0	 9.399973674588177e+000	 6.133340000006534e+000	 1.000429721115494e+001
0	 9.399973674588175e+000	 6.200010000009550e+000	 1.000488635284005e+001
0	 9.399973674588175e+000	 6.266680000012266e+000	 1.000541736344786e+001
0	 9.399973674588177e+000	 6.333350000014584e+000	 1.000588958731983e+001
0	 9.399973674588178e+000	 6.400020000016401e+000	 1.000630236879747e+001
0	 9.399973674588177e+000	 6.466690000017618e+000	 1.000665505222232e+001
0	 9.399973674588177e+000	 6.533360000018130e+000	 1.000694698193585e+001
0	 9.399973674588177e+000	 6.600030000017847e+000	 1.000717750227959e+001
0	 9.399973674588177e+000	 6.666700000016665e+000	 1.000734595759506e+001
0	 9.466644621844619e+000	 5.999999999999999e+000	 1.000134032044807e+001
0	 9.466644621844621e+000	 6.066670000003319e+000	 1.000209448061763e+001
0	 9.466644621844624e+000	 6.133340000006535e+000	 1.000278962161136e+001
0	 9.466644621844621e+000	 6.200010000009550e+000	 1.000342509369595e+001
0	 9.466644621844621e+000	 6.266680000012266e+000	 1.000400024713827e+001
0	 9.466644621844615e+000	 6.333350000014580e+000	 1.000451443220501e+001
0	 9.466644621844623e+000	 6.400020000016399e+000	 1.000496699916298e+001
0	 9.466644621844623e+000	 6.466690000017618e+000	 1.000535729827893e+001
0	 9.466644621844617e+000	 6.533360000018131e+000	 1.000568467981962e+001
0	 9.466644621844621e+000	 6.600030000017848e+000	 1.000594849405183e+001
0	 9.466644621844619e+000	 6.666700000016666e+000	 1.000614809124232e+001
0	 9.533315502449998e+000	 6.000000000000000e+000	 9.999867253043686e+000
0	 9.533315502450000e+000	 6.066670000003317e+000	 1.000066835935913e+001
0	 9.533315502450003e+000	 6.133340000006533e+000	 1.000140817594160e+001
0	 9.533315502449998e+000	 6.200010000009549e+000	 1.000208605288860e+001
0	 9.533315502449998e+000	 6.266680000012266e+000	 1.000270134029751e+001
0	 9.533315502450000e+000	 6.333350000014583e+000	 1.000325338826576e+001
0	 9.533315502450002e+000	 6.400020000016400e+000	 1.000374154689073e+001
0	 9.533315502449998e+000	 6.466690000017615e+000	 1.000416516626989e+001
0	 9.533315502449998e+000	 6.533360000018132e+000	 1.000452359650063e+001
0	 9.533315502449998e+000	 6.600030000017849e+000	 1.000481618768043e+001
0	 9.533315502449998e+000	 6.666700000016665e+000	 1.000504228990662e+001
0	 9.599986199732198e+000	 6.000000000000001e+000	 9.998538125779417e+000
0	 9.599986199732197e+000	 6.066670000003316e+000	 9.999382005303461e+000
0	 9.599986199732195e+000	 6.133340000006534e+000	 1.000016223801999e+001
0	 9.599986199732197e+000	 6.200010000009548e+000	 1.000087816776243e+001
0	 9.599986199732197e+000	 6.266680000012268e+000	 1.000152913836423e+001
0	 9.599986199732197e+000	 6.333350000014582e+000	 1.000211449365883e+001
0	 9.599986199732197e+000	 6.400020000016401e+000	 1.000263357747967e+001
0	 9.599986199732197e+000	 6.466690000017616e+000	 1.000308573366016e+001
0	 9.599986199732197e+000	 6.533360000018132e+000	 1.000347030603377e+001
0	 9.599986199732197e+000	 6.600030000017848e+000	 1.000378663843391e+001
0	 9.599986199732197e+000	 6.666700000016666e+000	 1.000403407469402e+001
0	 9.666656597019092e+000	 6.000000000000002e+000	 9.997363108648974e+000
0	 9.666656597019093e+000	 6.066670000003318e+000	 9.998245192690028e+000
0	 9.666656597019095e+000	 6.133340000006534e+000	 9.999061170956438e+000
0	 9.666656597019093e+000	 6.200010000009550e+000	 9.999810374922943e+000
0	 9.666656597019088e+000	 6.266680000012267e+000	 1.000049213606421e+001
0	 9.666656597019093e+000	 6.333350000014583e+000	 1.000110578585500e+001
0	 9.666656597019095e+000	 6.400020000016400e+000	 1.000165065577002e+001
0	 9.666656597019092e+000	 6.466690000017615e+000	 1.000212607728395e+001
0	 9.666656597019093e+000	 6.533360000018131e+000	 1.000253138187155e+001
0	 9.666656597019092e+000	 6.600030000017847e+000	 1.000286590100752e+001
0	 9.666656597019092e+000	 6.666700000016665e+000	 1.000312896616655e+001
0	 9.733326577638575e+000	 6.000000000000000e+000	 9.996352370833847e+000
0	 9.733326577638572e+000	 6.066670000003315e+000	 9.997267694969535e+000
0	 9.733326577638573e+000	 6.133340000006532e+000	 9.998114337096769e+000
0	 9.733326577638575e+000	 6.200010000009550e+000	 9.998891610236665e+000
0	 9.733326577638572e+000	 6.266680000012265e+000	 9.999598827410342e+000
0	 9.733326577638575e+000	 6.333350000014582e+000	 1.000023530163885e+001
0	 9.733326577638573e+000	 6.400020000016401e+000	 1.000080034594328e+001
0	 9.733326577638573e+000	 6.466690000017615e+000	 1.000129327334477e+001
0	 9.733326577638572e+000	 6.533360000018131e+000	 1.000171339686435e+001
0	 9.733326577638575e+000	 6.600030000017848e+000	 1.000206002952315e+001
0	 9.733326577638573e+000	 6.666700000016665e+000	 1.000233248434224e+001
0	 9.799996024918521e+000	 6.000000000000001e+000	 9.995516080703270e+000
0	 9.799996024918524e+000	 6.066670000003317e+000	 9.996459284803988e+000
0	 9.799996024918523e+000	 6.133340000006533e+000	 9.997331098022540e+000
0	 9.799996024918521e+000	 6.200010000009549e+000	 9.998130808831336e+000
0	 9.799996024918524e+000	 6.266680000012266e+000	 9.998857705702672e+000
0	 9.799996024918521e+000	 6.333350000014582e+000	 9.999511077108886e+000
0	 9.799996024918521e+000	 6.400020000016399e+000	 1.000009021152235e+001
0	 9.799996024918523e+000	 6.466690000017616e+000	 1.000059439741536e+001
0	 9.799996024918521e+000	 6.533360000018131e+000	 1.000102292326028e+001
0	 9.799996024918523e+000	 6.600030000017850e+000	 1.000137507752944e+001
0	 9.799996024918519e+000	 6.666700000016665e+000	 1.000165014869519e+001
0	 9.866664822186822e+000	 6.000000000000001e+000	 9.994864405814267e+000
0	 9.866664822186818e+000	 6.066670000003316e+000	 9.995829734066735e+000
0	 9.866664822186820e+000	 6.133340000006533e+000	 9.996720814551127e+000
0	 9.866664822186820e+000	 6.200010000009551e+000	 9.997536905095581e+000
0	 9.866664822186820e+000	 6.266680000012268e+000	 9.998277263528335e+000
0	 9.866664822186820e+000	 6.333350000014582e+000	 9.998941147677499e+000
0	 9.866664822186822e+000	 6.400020000016400e+000	 9.999527815371250e+000
0	 9.866664822186818e+000	 6.466690000017615e+000	 1.000003652443775e+001
0	 9.866664822186818e+000	 6.533360000018132e+000	 1.000046653270519e+001
0	 9.866664822186820e+000	 6.600030000017849e+000	 1.000081709800173e+001
0	 9.866664822186822e+000	 6.666700000016668e+000	 1.000108747815551e+001
0	 9.933332852771351e+000	 6.000000000000000e+000	 9.994407512911538e+000
0	 9.933332852771352e+000	 6.066670000003318e+000	 9.995388813842411e+000
0	 9.933332852771352e+000	 6.133340000006532e+000	 9.996292846735560e+000
0	 9.933332852771351e+000	 6.200010000009550e+000	 9.997118832679226e+000
0	 9.933332852771352e+000	 6.266680000012268e+000	 9.997865992761616e+000
0	 9.933332852771349e+000	 6.333350000014583e+000	 9.998533548070885e+000
0	 9.933332852771351e+000	 6.400020000016400e+000	 9.999120719695402e+000
0	 9.933332852771351e+000	 6.466690000017617e+000	 9.999626728723241e+000
0	 9.933332852771351e+000	 6.533360000018131e+000	 1.000005079624265e+001
0	 9.933332852771352e+000	 6.600030000017849e+000	 1.000039214334194e+001
0	 9.933332852771351e+000	 6.666700000016665e+000	 1.000064999110926e+001
0	 1.000000000000000e+001	 6.000000000000000e+000	 9.994155567927432e+000
0	 1.000000000000000e+001	 6.066670000003317e+000	 9.995146294426860e+000
0	 1.000000000000000e+001	 6.133340000006534e+000	 9.996056553864664e+000
0	 1.000000000000000e+001	 6.200010000009550e+000	 9.996885524492933e+000
0	 1.000000000000000e+001	 6.266680000012268e+000	 9.997632384563765e+000
0	 1.000000000000000e+001	 6.333350000014583e+000	 9.998296312329201e+000
0	 1.000000000000000e+001	 6.400020000016398e+000	 9.998876486041306e+000
0	 1.000000000000000e+001	 6.466690000017615e+000	 9.999372083952208e+000
0	 1.000000000000000e+001	 6.533360000018133e+000	 9.999782284313989e+000
0	 1.000000000000000e+001	 6.600030000017849e+000	 1.000010626537872e+001
0	 1.000000000000000e+001	 6.666700000016666e+000	 1.000034320539845e+001
0	 9.333302777352783e+000	 6.666700000016666e+000	 1.000863036731476e+001
0	 9.333302777352781e+000	 6.733360000014530e+000	 1.000871814480460e+001
0	 9.333302777352781e+000	 6.800020000011599e+000	 1.000877505435286e+001
0	 9.333302777352785e+000	 6.866680000008069e+000	 1.000880035363467e+001
0	 9.333302777352785e+000	 6.933340000004134e+000	 1.000879330032513e+001
0	 9.333302777352783e+000	 7.000000000000002e+000	 1.000875315209939e+001
0	 9.333302777352783e+000	 7.066659999995869e+000	 1.000867916663258e+001
0	 9.333302777352783e+000	 7.133319999991937e+000	 1.000857060159980e+001
0	 9.333302777352783e+000	 7.199979999988405e+000	 1.000842671467617e+001
0	 9.333302777352781e+000	 7.266639999985471e+000	 1.000824676353684e+001
0	 9.333302777352783e+000	 7.333299999983333e+000	 1.000803000585689e+001
0	 9.399973674588177e+000	 6.666700000016665e+000	 1.000734595759506e+001
0	 9.399973674588175e+000	 6.733360000014531e+000	 1.000746740731611e+001
0	 9.399973674588178e+000	 6.800020000011600e+000	 1.000755690278434e+001
0	 9.399973674588178e+000	 6.866680000008067e+000	 1.000761371446393e+001
0	 9.399973674588175e+000	 6.933340000004134e+000	 1.000763711281908e+001
0	 9.399973674588177e+000	 7.000000000000004e+000	 1.000762636831400e+001
0	 9.399973674588178e+000	 7.066659999995869e+000	 1.000758075141292e+001
0	 9.399973674588177e+000	 7.133319999991938e+000	 1.000749953257998e+001
0	 9.399973674588175e+000	 7.199979999988403e+000	 1.000738198227943e+001
0	 9.399973674588175e+000	 7.266639999985471e+000	 1.000722737097545e+001
0	 9.399973674588175e+000	 7.333299999983336e+000	 1.000703496913226e+001
0	 9.466644621844619e+000	 6.666700000016666e+000	 1.000614809124232e+001
0	 9.466644621844619e+000	 6.733360000014532e+000	 1.000629907609729e+001
0	 9.466644621844617e+000	 6.800020000011598e+000	 1.000641705429682e+001
0	 9.466644621844619e+000	 6.866680000008066e+000	 1.000650130229976e+001
0	 9.466644621844617e+000	 6.933340000004133e+000	 1.000655109656491e+001
0	 9.466644621844621e+000	 7.000000000000004e+000	 1.000656571355117e+001
0	 9.466644621844621e+000	 7.066659999995870e+000	 1.000654442971734e+001
0	 9.466644621844623e+000	 7.133319999991937e+000	 1.000648652152230e+001
0	 9.466644621844619e+000	 7.199979999988404e+000	 1.000639126542489e+001
0	 9.466644621844619e+000	 7.266639999985471e+000	 1.000625793788392e+001
0	 9.466644621844619e+000	 7.333299999983334e+000	 1.000608581535830e+001
0	 9.533315502449998e+000	 6.666700000016665e+000	 1.000504228990663e+001
0	 9.533315502450002e+000	 6.733360000014534e+000	 1.000521813275166e+001
0	 9.533315502449998e+000	 6.800020000011599e+000	 1.000535995395181e+001
0	 9.533315502450000e+000	 6.866680000008069e+000	 1.000546702916618e+001
0	 9.533315502449995e+000	 6.933340000004132e+000	 1.000553863405380e+001
0	 9.533315502449998e+000	 6.999999999999999e+000	 1.000557404427381e+001
0	 9.533315502450002e+000	 7.066659999995870e+000	 1.000557253548527e+001
0	 9.533315502450002e+000	 7.133319999991938e+000	 1.000553338334725e+001
0	 9.533315502450000e+000	 7.199979999988406e+000	 1.000545586351888e+001
0	 9.533315502450000e+000	 7.266639999985471e+000	 1.000533925165922e+001
0	 9.533315502449998e+000	 7.333299999983332e+000	 1.000518282342736e+001
0	 9.599986199732197e+000	 6.666700000016666e+000	 1.000403407469402e+001
0	 9.599986199732197e+000	 6.733360000014532e+000	 1.000422955836831e+001
0	 9.599986199732197e+000	 6.800020000011600e+000	 1.000439004632625e+001
0	 9.599986199732195e+000	 6.866680000008066e+000	 1.000451480663275e+001
0	 9.599986199732193e+000	 6.933340000004132e+000	 1.000460310735264e+001
0	 9.599986199732198e+000	 7.000000000000002e+000	 1.000465421655081e+001
0	 9.599986199732195e+000	 7.066659999995868e+000	 1.000466740229215e+001
0	 9.599986199732195e+000	 7.133319999991937e+000	 1.000464193264152e+001
0	 9.599986199732198e+000	 7.199979999988404e+000	 1.000457707566384e+001
0	 9.599986199732195e+000	 7.266639999985471e+000	 1.000447209942393e+001
0	 9.599986199732197e+000	 7.333299999983335e+000	 1.000432627198669e+001
0	 9.666656597019092e+000	 6.666700000016665e+000	 1.000312896616655e+001
0	 9.666656597019092e+000	 6.733360000014531e+000	 1.000333833352199e+001
0	 9.666656597019090e+000	 6.800020000011599e+000	 1.000351177551264e+001
0	 9.666656597019092e+000	 6.866680000008067e+000	 1.000364854581463e+001
0	 9.666656597019093e+000	 6.933340000004134e+000	 1.000374789810404e+001
0	 9.666656597019092e+000	 7.000000000000001e+000	 1.000380908605699e+001
0	 9.666656597019093e+000	 7.066659999995871e+000	 1.000383136334957e+001
0	 9.666656597019093e+000	 7.133319999991937e+000	 1.000381398365792e+001
0	 9.666656597019093e+000	 7.199979999988404e+000	 1.000375620065811e+001
0	 9.666656597019093e+000	 7.266639999985471e+000	 1.000365726802627e+001
0	 9.666656597019092e+000	 7.333299999983334e+000	 1.000351643943852e+001
0	 9.733326577638573e+000	 6.666700000016665e+000	 1.000233248434224e+001
0	 9.733326577638575e+000	 6.733360000014534e+000	 1.000254943827308e+001
0	 9.733326577638575e+000	 6.800020000011601e+000	 1.000272958511900e+001
0	 9.733326577638573e+000	 6.866680000008065e+000	 1.000287215737256e+001
0	 9.733326577638572e+000	 6.933340000004134e+000	 1.000297638752639e+001
0	 9.733326577638573e+000	 7.000000000000002e+000	 1.000304150807308e+001
0	 9.733326577638575e+000	 7.066659999995869e+000	 1.000306675150521e+001
0	 9.733326577638572e+000	 7.133319999991937e+000	 1.000305135031537e+001
0	 9.733326577638575e+000	 7.199979999988405e+000	 1.000299453699616e+001
0	 9.733326577638575e+000	 7.266639999985471e+000	 1.000289554404017e+001
0	 9.733326577638577e+000	 7.333299999983336e+000	 1.000275360393999e+001
0	 9.799996024918519e+000	 6.666700000016665e+000	 1.000165014869519e+001
0	 9.799996024918524e+000	 6.733360000014533e+000	 1.000186785216762e+001
0	 9.799996024918523e+000	 6.800020000011601e+000	 1.000204791826883e+001
0	 9.799996024918523e+000	 6.866680000008066e+000	 1.000218955151286e+001
0	 9.799996024918523e+000	 6.933340000004135e+000	 1.000229195641385e+001
0	 9.799996024918521e+000	 7.000000000000003e+000	 1.000235433748584e+001
0	 9.799996024918521e+000	 7.066659999995869e+000	 1.000237589924289e+001
0	 9.799996024918523e+000	 7.133319999991937e+000	 1.000235584619909e+001
0	 9.799996024918523e+000	 7.199979999988403e+000	 1.000229338286852e+001
0	 9.799996024918523e+000	 7.266639999985471e+000	 1.000218771376522e+001
0	 9.799996024918521e+000	 7.333299999983332e+000	 1.000203804340329e+001
0	 9.866664822186822e+000	 6.666700000016668e+000	 1.000108747815551e+001
0	 9.866664822186822e+000	 6.733360000014532e+000	 1.000129855423730e+001
0	 9.866664822186820e+000	 6.800020000011600e+000	 1.000147121760124e+001
0	 9.866664822186818e+000	 6.866680000008066e+000	 1.000160463798751e+001
0	 9.866664822186820e+000	 6.933340000004135e+000	 1.000169798513634e+001
0	 9.866664822186820e+000	 7.000000000000002e+000	 1.000175042878792e+001
0	 9.866664822186822e+000	 7.066659999995870e+000	 1.000176113868255e+001
0	 9.866664822186820e+000	 7.133319999991937e+000	 1.000172928456039e+001
0	 9.866664822186820e+000	 7.199979999988404e+000	 1.000165403616168e+001
0	 9.866664822186822e+000	 7.266639999985472e+000	 1.000153456322666e+001
0	 9.866664822186820e+000	 7.333299999983333e+000	 1.000137003549554e+001
0	 9.933332852771351e+000	 6.666700000016665e+000	 1.000064999110925e+001
0	 9.933332852771352e+000	 6.733360000014533e+000	 1.000084652299951e+001
0	 9.933332852771349e+000	 6.800020000011599e+000	 1.000100392527086e+001
0	 9.933332852771351e+000	 6.866680000008066e+000	 1.000112132609397e+001
0	 9.933332852771349e+000	 6.933340000004133e+000	 1.000119785363949e+001
0	 9.933332852771351e+000	 7.000000000000001e+000	 1.000123263607800e+001
0	 9.933332852771349e+000	 7.066659999995869e+000	 1.000122480158022e+001
0	 9.933332852771351e+000	 7.133319999991937e+000	 1.000117347831678e+001
0	 9.933332852771354e+000	 7.199979999988404e+000	 1.000107779445828e+001
0	 9.933332852771351e+000	 7.266639999985472e+000	 1.000093687817544e+001
0	 9.933332852771351e+000	 7.333299999983332e+000	 1.000074985763882e+001
0	 1.000000000000000e+001	 6.666700000016666e+000	 1.000034320539845e+001
0	 1.000000000000000e+001	 6.733360000014533e+000	 1.000051673645704e+001
0	 1.000000000000000e+001	 6.800020000011601e+000	 1.000065048294773e+001
0	 1.000000000000000e+001	 6.866680000008067e+000	 1.000074352467533e+001
0	 9.999999999999998e+000	 6.933340000004135e+000	 1.000079494144465e+001
0	 1.000000000000000e+001	 7.000000000000002e+000	 1.000080381306061e+001
0	 9.999999999999998e+000	 7.066659999995869e+000	 1.000076921932806e+001
0	 1.000000000000000e+001	 7.133319999991937e+000	 1.000069024005190e+001
0	 1.000000000000000e+001	 7.199979999988404e+000	 1.000056595503697e+001
0	 1.000000000000000e+001	 7.266639999985471e+000	 1.000039544408816e+001
0	 1.000000000000000e+001	 7.333299999983334e+000	 1.000017778701026e+001
0	 9.333302777352783e+000	 7.333299999983333e+000	 1.000803000585689e+001
0	 9.333302777352783e+000	 7.399969999982150e+000	 1.000779108177996e+001
0	 9.333302777352783e+000	 7.466639999981865e+000	 1.000754471314150e+001
0	 9.333302777352781e+000	 7.533309999982383e+000	 1.000729017420991e+001
0	 9.333302777352785e+000	 7.599979999983599e+000	 1.000702673925375e+001
0	 9.333302777352781e+000	 7.666649999985415e+000	 1.000675368254145e+001
0	 9.333302777352781e+000	 7.733319999987732e+000	 1.000647027834156e+001
0	 9.333302777352781e+000	 7.799989999990446e+000	 1.000617580092253e+001
0	 9.333302777352781e+000	 7.866659999993463e+000	 1.000586952455282e+001
0	 9.333302777352783e+000	 7.933329999996682e+000	 1.000555072350095e+001
0	 9.333302777352783e+000	 8.000000000000000e+000	 1.000521867203539e+001
0	 9.399973674588175e+000	 7.333299999983336e+000	 1.000703496913226e+001
0	 9.399973674588175e+000	 7.399969999982148e+000	 1.000681992874098e+001
0	 9.399973674588175e+000	 7.466639999981864e+000	 1.000659748055156e+001
0	 9.399973674588178e+000	 7.533309999982383e+000	 1.000636691796374e+001
0	 9.399973674588177e+000	 7.599979999983599e+000	 1.000612753437728e+001
0	 9.399973674588178e+000	 7.666649999985417e+000	 1.000587862319194e+001
0	 9.399973674588173e+000	 7.733319999987729e+000	 1.000561947780748e+001
0	 9.399973674588178e+000	 7.799989999990450e+000	 1.000534939162363e+001
0	 9.399973674588173e+000	 7.866659999993463e+000	 1.000506765804015e+001
0	 9.399973674588177e+000	 7.933329999996681e+000	 1.000477357045682e+001
0	 9.399973674588175e+000	 8.000000000000000e+000	 1.000446642227335e+001
0	 9.466644621844619e+000	 7.333299999983334e+000	 1.000608581535830e+001
0	 9.466644621844621e+000	 7.399969999982149e+000	 1.000589064199972e+001
0	 9.466644621844619e+000	 7.466639999981866e+000	 1.000568823879713e+001
0	 9.466644621844623e+000	 7.533309999982382e+000	 1.000547791116397e+001
0	 9.466644621844619e+000	 7.599979999983598e+000	 1.000525896451366e+001
0	 9.466644621844619e+000	 7.666649999985415e+000	 1.000503070425970e+001
0	 9.466644621844621e+000	 7.733319999987731e+000	 1.000479243581548e+001
0	 9.466644621844623e+000	 7.799989999990448e+000	 1.000454346459447e+001
0	 9.466644621844621e+000	 7.866659999993464e+000	 1.000428309601012e+001
0	 9.466644621844619e+000	 7.933329999996681e+000	 1.000401063547590e+001
0	 9.466644621844623e+000	 7.999999999999999e+000	 1.000372538840521e+001
0	 9.533315502449998e+000	 7.333299999983332e+000	 1.000518282342736e+001
0	 9.533315502449996e+000	 7.399969999982149e+000	 1.000500299502858e+001
0	 9.533315502449996e+000	 7.466639999981865e+000	 1.000481625874722e+001
0	 9.533315502450003e+000	 7.533309999982382e+000	 1.000462192489286e+001
0	 9.533315502450002e+000	 7.599979999983598e+000	 1.000441930377516e+001
0	 9.533315502449996e+000	 7.666649999985414e+000	 1.000420770570376e+001
0	 9.533315502449998e+000	 7.733319999987731e+000	 1.000398644098825e+001
0	 9.533315502450002e+000	 7.799989999990449e+000	 1.000375481993826e+001
0	 9.533315502450000e+000	 7.866659999993464e+000	 1.000351215286346e+001
0	 9.533315502449998e+000	 7.933329999996681e+000	 1.000325775007342e+001
0	 9.533315502450000e+000	 8.000000000000004e+000	 1.000299092187781e+001
0	 9.599986199732197e+000	 7.333299999983335e+000	 1.000432627198669e+001
0	 9.599986199732195e+000	 7.399969999982150e+000	 1.000415676108374e+001
0	 9.599986199732197e+000	 7.466639999981867e+000	 1.000398081108304e+001
0	 9.599986199732197e+000	 7.533309999982383e+000	 1.000379773007288e+001
0	 9.599986199732197e+000	 7.599979999983598e+000	 1.000360682614153e+001
0	 9.599986199732195e+000	 7.666649999985415e+000	 1.000340740737728e+001
0	 9.599986199732195e+000	 7.733319999987733e+000	 1.000319878186836e+001
0	 9.599986199732195e+000	 7.799989999990447e+000	 1.000298025770307e+001
0	 9.599986199732197e+000	 7.866659999993466e+000	 1.000275114296976e+001
0	 9.599986199732195e+000	 7.933329999996681e+000	 1.000251074575657e+001
0	 9.599986199732198e+000	 7.999999999999998e+000	 1.000225837415191e+001
0	 9.666656597019092e+000	 7.333299999983334e+000	 1.000351643943852e+001
0	 9.666656597019092e+000	 7.399969999982151e+000	 1.000335171320526e+001
0	 9.666656597019093e+000	 7.466639999981865e+000	 1.000318116629823e+001
0	 9.666656597019093e+000	 7.533309999982383e+000	 1.000300409746668e+001
0	 9.666656597019090e+000	 7.599979999983598e+000	 1.000281980545995e+001
0	 9.666656597019095e+000	 7.666649999985416e+000	 1.000262758902736e+001
0	 9.666656597019095e+000	 7.733319999987732e+000	 1.000242674691824e+001
0	 9.666656597019092e+000	 7.799989999990446e+000	 1.000221657788182e+001
0	 9.666656597019093e+000	 7.866659999993465e+000	 1.000199638066751e+001
0	 9.666656597019092e+000	 7.933329999996681e+000	 1.000176545402455e+001
0	 9.666656597019090e+000	 7.999999999999999e+000	 1.000152309670231e+001
0	 9.733326577638577e+000	 7.333299999983336e+000	 1.000275360393999e+001
0	 9.733326577638575e+000	 7.399969999982150e+000	 1.000258762421706e+001
0	 9.733326577638575e+000	 7.466639999981866e+000	 1.000241659469860e+001
0	 9.733326577638572e+000	 7.533309999982382e+000	 1.000223979767710e+001
0	 9.733326577638575e+000	 7.599979999983600e+000	 1.000205651544514e+001
0	 9.733326577638573e+000	 7.666649999985415e+000	 1.000186603029531e+001
0	 9.733326577638573e+000	 7.733319999987733e+000	 1.000166762452019e+001
0	 9.733326577638572e+000	 7.799989999990445e+000	 1.000146058041230e+001
0	 9.733326577638573e+000	 7.866659999993464e+000	 1.000124418026423e+001
0	 9.733326577638573e+000	 7.933329999996682e+000	 1.000101770636854e+001
0	 9.733326577638575e+000	 8.000000000000000e+000	 1.000078044101780e+001
0	 9.799996024918521e+000	 7.333299999983332e+000	 1.000203804340329e+001
0	 9.799996024918524e+000	 7.399969999982150e+000	 1.000186426672699e+001
0	 9.799996024918523e+000	 7.466639999981868e+000	 1.000168636640235e+001
0	 9.799996024918521e+000	 7.533309999982383e+000	 1.000150360114717e+001
0	 9.799996024918521e+000	 7.599979999983598e+000	 1.000131522967931e+001
0	 9.799996024918521e+000	 7.666649999985412e+000	 1.000112051071645e+001
0	 9.799996024918523e+000	 7.733319999987733e+000	 1.000091870297648e+001
0	 9.799996024918524e+000	 7.799989999990450e+000	 1.000070906517717e+001
0	 9.799996024918521e+000	 7.866659999993463e+000	 1.000049085603629e+001
0	 9.799996024918523e+000	 7.933329999996682e+000	 1.000026333427171e+001
0	 9.799996024918523e+000	 8.000000000000002e+000	 1.000002575860114e+001
0	 9.866664822186820e+000	 7.333299999983333e+000	 1.000137003549554e+001
0	 9.866664822186820e+000	 7.399969999982150e+000	 1.000118141312671e+001
0	 9.866664822186820e+000	 7.466639999981866e+000	 1.000098975134006e+001
0	 9.866664822186818e+000	 7.533309999982382e+000	 1.000079427816031e+001
0	 9.866664822186820e+000	 7.599979999983598e+000	 1.000059422161217e+001
0	 9.866664822186820e+000	 7.666649999985416e+000	 1.000038880972025e+001
0	 9.866664822186822e+000	 7.733319999987732e+000	 1.000017727050929e+001
0	 9.866664822186820e+000	 7.799989999990447e+000	 9.999958832004028e+000
0	 9.866664822186822e+000	 7.866659999993466e+000	 9.999732722229096e+000
0	 9.866664822186820e+000	 7.933329999996682e+000	 9.999498169209279e+000
0	 9.866664822186818e+000	 7.999999999999998e+000	 9.999254400969218e+000
0	 9.933332852771351e+000	 7.333299999983332e+000	 1.000074985763882e+001
0	 9.933332852771352e+000	 7.399969999982149e+000	 1.000053883559186e+001
0	 9.933332852771351e+000	 7.466639999981866e+000	 1.000032601925460e+001
0	 9.933332852771349e+000	 7.533309999982381e+000	 1.000011059884001e+001
0	 9.933332852771352e+000	 7.599979999983600e+000	 9.999891764560900e+000
0	 9.933332852771352e+000	 7.666649999985414e+000	 9.999668706630159e+000
0	 9.933332852771351e+000	 7.733319999987731e+000	 9.999440615260699e+000
0	 9.933332852771352e+000	 7.799989999990448e+000	 9.999206680665338e+000
0	 9.933332852771351e+000	 7.866659999993465e+000	 9.998966093056993e+000
0	 9.933332852771352e+000	 7.933329999996681e+000	 9.998718042648568e+000
0	 9.933332852771352e+000	 8.000000000000000e+000	 9.998461719652838e+000
0	 1.000000000000000e+001	 7.333299999983334e+000	 1.000017778701026e+001
0	 1.000000000000000e+001	 7.399969999982151e+000	 9.999936306081901e+000
0	 1.000000000000000e+001	 7.466639999981866e+000	 9.999694439701187e+000
0	 1.000000000000000e+001	 7.533309999982383e+000	 9.999451333150038e+000
0	 1.000000000000000e+001	 7.599979999983600e+000	 9.999206131710357e+000
0	 1.000000000000000e+001	 7.666649999985414e+000	 9.998957980663954e+000
0	 1.000000000000000e+001	 7.733319999987731e+000	 9.998706025292750e+000
0	 1.000000000000000e+001	 7.799989999990449e+000	 9.998449410878546e+000
0	 1.000000000000000e+001	 7.866659999993465e+000	 9.998187282703306e+000
0	 1.000000000000000e+001	 7.933329999996682e+000	 9.997918786048816e+000
0	 1.000000000000000e+001	 8.000000000000002e+000	 9.997643066197018e+000
0	 9.333302777352783e+000	 8.000000000000000e+000	 1.000521867203539e+001
0	 9.333302777352783e+000	 8.066670000003317e+000	 1.000488471905747e+001
0	 9.333302777352783e+000	 8.133340000006532e+000	 1.000456027061254e+001
0	 9.333302777352781e+000	 8.200010000009550e+000	 1.000424468668516e+001
0	 9.333302777352781e+000	 8.266680000012267e+000	 1.000393732725998e+001
0	 9.333302777352783e+000	 8.333350000014585e+000	 1.000363755232157e+001
0	 9.333302777352783e+000	 8.400020000016399e+000	 1.000334472185454e+001
0	 9.333302777352783e+000	 8.466690000017616e+000	 1.000305819584346e+001
0	 9.333302777352781e+000	 8.533360000018131e+000	 1.000277733427296e+001
0	 9.333302777352783e+000	 8.600030000017847e+000	 1.000250149712760e+001
0	 9.333302777352785e+000	 8.666700000016666e+000	 1.000223004439202e+001
0	 9.399973674588175e+000	 8.000000000000000e+000	 1.000446642227335e+001
0	 9.399973674588178e+000	 8.066670000003320e+000	 1.000415762154986e+001
0	 9.399973674588177e+000	 8.133340000006538e+000	 1.000385866942040e+001
0	 9.399973674588177e+000	 8.200010000009550e+000	 1.000356899889581e+001
0	 9.399973674588173e+000	 8.266680000012263e+000	 1.000328804298685e+001
0	 9.399973674588177e+000	 8.333350000014582e+000	 1.000301523470432e+001
0	 9.399973674588177e+000	 8.400020000016399e+000	 1.000275000705900e+001
0	 9.399973674588177e+000	 8.466690000017618e+000	 1.000249179306168e+001
0	 9.399973674588177e+000	 8.533360000018133e+000	 1.000224002572317e+001
0	 9.399973674588178e+000	 8.600030000017849e+000	 1.000199413805424e+001
0	 9.399973674588175e+000	 8.666700000016666e+000	 1.000175356306569e+001
0	 9.466644621844623e+000	 7.999999999999999e+000	 1.000372538840521e+001
0	 9.466644621844619e+000	 8.066670000003317e+000	 1.000343890446812e+001
0	 9.466644621844621e+000	 8.133340000006532e+000	 1.000316285929774e+001
0	 9.466644621844621e+000	 8.200010000009550e+000	 1.000289674725235e+001
0	 9.466644621844623e+000	 8.266680000012265e+000	 1.000264006269008e+001
0	 9.466644621844619e+000	 8.333350000014583e+000	 1.000239229996920e+001
0	 9.466644621844623e+000	 8.400020000016399e+000	 1.000215295344781e+001
0	 9.466644621844623e+000	 8.466690000017620e+000	 1.000192151748419e+001
0	 9.466644621844617e+000	 8.533360000018133e+000	 1.000169748643651e+001
0	 9.466644621844621e+000	 8.600030000017847e+000	 1.000148035466297e+001
0	 9.466644621844621e+000	 8.666700000016666e+000	 1.000126961652178e+001
0	 9.533315502450000e+000	 8.000000000000004e+000	 1.000299092187781e+001
0	 9.533315502450002e+000	 8.066670000003320e+000	 1.000272346863367e+001
0	 9.533315502450000e+000	 8.133340000006532e+000	 1.000246734650975e+001
0	 9.533315502449995e+000	 8.200010000009549e+000	 1.000222209953321e+001
0	 9.533315502449998e+000	 8.266680000012265e+000	 1.000198727173118e+001
0	 9.533315502449996e+000	 8.333350000014580e+000	 1.000176240713079e+001
0	 9.533315502450000e+000	 8.400020000016399e+000	 1.000154704975915e+001
0	 9.533315502449998e+000	 8.466690000017616e+000	 1.000134074364347e+001
0	 9.533315502450000e+000	 8.533360000018133e+000	 1.000114303281078e+001
0	 9.533315502449996e+000	 8.600030000017847e+000	 1.000095346128832e+001
0	 9.533315502450000e+000	 8.666700000016666e+000	 1.000077157310318e+001
0	 9.599986199732198e+000	 7.999999999999998e+000	 1.000225837415191e+001
0	 9.599986199732197e+000	 8.066670000003319e+000	 1.000200621490281e+001
0	 9.599986199732195e+000	 8.133340000006532e+000	 1.000176663737608e+001
0	 9.599986199732197e+000	 8.200010000009549e+000	 1.000153922358952e+001
0	 9.599986199732195e+000	 8.266680000012267e+000	 1.000132355556095e+001
0	 9.599986199732195e+000	 8.333350000014583e+000	 1.000111921530814e+001
0	 9.599986199732197e+000	 8.400020000016399e+000	 1.000092578484892e+001
0	 9.599986199732195e+000	 8.466690000017614e+000	 1.000074284620107e+001
0	 9.599986199732197e+000	 8.533360000018133e+000	 1.000056998138240e+001
0	 9.599986199732195e+000	 8.600030000017847e+000	 1.000040677241069e+001
0	 9.599986199732195e+000	 8.666700000016665e+000	 1.000025280130380e+001
0	 9.666656597019090e+000	 7.999999999999999e+000	 1.000152309670231e+001
0	 9.666656597019093e+000	 8.066670000003317e+000	 1.000128204416663e+001
0	 9.666656597019092e+000	 8.133340000006532e+000	 1.000105523827077e+001
0	 9.666656597019093e+000	 8.200010000009550e+000	 1.000084228734497e+001
0	 9.666656597019092e+000	 8.266680000012267e+000	 1.000064279971950e+001
0	 9.666656597019095e+000	 8.333350000014585e+000	 1.000045638372461e+001
0	 9.666656597019092e+000	 8.400020000016397e+000	 1.000028264769059e+001
0	 9.666656597019092e+000	 8.466690000017614e+000	 1.000012119994767e+001
0	 9.666656597019092e+000	 8.533360000018131e+000	 9.999971648826136e+000
0	 9.666656597019092e+000	 8.600030000017847e+000	 9.999833602656274e+000
0	 9.666656597019093e+000	 8.666700000016666e+000	 9.999706669768337e+000
0	 9.733326577638575e+000	 8.000000000000000e+000	 1.000078044101780e+001
0	 9.733326577638575e+000	 8.066670000003317e+000	 1.000054585735114e+001
0	 9.733326577638575e+000	 8.133340000006532e+000	 1.000032765562239e+001
0	 9.733326577638575e+000	 8.200010000009549e+000	 1.000012545879592e+001
0	 9.733326577638575e+000	 8.266680000012268e+000	 9.999938889836287e+000
0	 9.733326577638572e+000	 8.333350000014582e+000	 9.999767571707968e+000
0	 9.733326577638573e+000	 8.400020000016401e+000	 9.999611127375429e+000
0	 9.733326577638573e+000	 8.466690000017616e+000	 9.999469179803130e+000
0	 9.733326577638573e+000	 8.533360000018131e+000	 9.999341351955545e+000
0	 9.733326577638575e+000	 8.600030000017849e+000	 9.999227266797185e+000
0	 9.733326577638573e+000	 8.666700000016666e+000	 9.999126547292473e+000
0	 9.799996024918523e+000	 8.000000000000002e+000	 1.000002575860114e+001
0	 9.799996024918523e+000	 8.066670000003319e+000	 9.999792555417130e+000
0	 9.799996024918524e+000	 8.133340000006534e+000	 9.999578395913790e+000
0	 9.799996024918523e+000	 8.200010000009550e+000	 9.999382906011375e+000
0	 9.799996024918521e+000	 8.266680000012267e+000	 9.999205711630168e+000
0	 9.799996024918523e+000	 8.333350000014582e+000	 9.999046438690414e+000
0	 9.799996024918521e+000	 8.400020000016399e+000	 9.998904713112387e+000
0	 9.799996024918521e+000	 8.466690000017614e+000	 9.998780160816358e+000
0	 9.799996024918521e+000	 8.533360000018133e+000	 9.998672407722586e+000
0	 9.799996024918521e+000	 8.600030000017847e+000	 9.998581079751334e+000
0	 9.799996024918521e+000	 8.666700000016668e+000	 9.998505802822855e+000
0	 9.866664822186818e+000	 7.999999999999998e+000	 9.999254400969218e+000
0	 9.866664822186820e+000	 8.066670000003317e+000	 9.999017039360339e+000
0	 9.866664822186820e+000	 8.133340000006534e+000	 9.998801965682475e+000
0	 9.866664822186822e+000	 8.200010000009550e+000	 9.998608797132992e+000
0	 9.866664822186820e+000	 8.266680000012267e+000	 9.998437150909249e+000
0	 9.866664822186820e+000	 8.333350000014582e+000	 9.998286644208525e+000
0	 9.866664822186820e+000	 8.400020000016399e+000	 9.998156894228131e+000
0	 9.866664822186818e+000	 8.466690000017618e+000	 9.998047518165503e+000
0	 9.866664822186822e+000	 8.533360000018133e+000	 9.997958133217869e+000
0	 9.866664822186822e+000	 8.600030000017847e+000	 9.997888356582584e+000
0	 9.866664822186818e+000	 8.666700000016666e+000	 9.997837805457024e+000
0	 9.933332852771352e+000	 8.000000000000000e+000	 9.998461719652838e+000
0	 9.933332852771352e+000	 8.066670000003317e+000	 9.998214210211376e+000
0	 9.933332852771351e+000	 8.133340000006534e+000	 9.997992871520371e+000
0	 9.933332852771351e+000	 8.200010000009549e+000	 9.997797300375197e+000
0	 9.933332852771351e+000	 8.266680000012267e+000	 9.997627093571094e+000
0	 9.933332852771351e+000	 8.333350000014583e+000	 9.997481847903337e+000
0	 9.933332852771351e+000	 8.400020000016399e+000	 9.997361160167154e+000
0	 9.933332852771351e+000	 8.466690000017614e+000	 9.997264627157827e+000
0	 9.933332852771351e+000	 8.533360000018131e+000	 9.997191845670598e+000
0	 9.933332852771351e+000	 8.600030000017846e+000	 9.997142412500711e+000
0	 9.933332852771352e+000	 8.666700000016668e+000	 9.997115924443495e+000
0	 1.000000000000000e+001	 8.000000000000002e+000	 9.997643066197018e+000
0	 1.000000000000000e+001	 8.066670000003317e+000	 9.997378969035720e+000
0	 1.000000000000000e+001	 8.133340000006534e+000	 9.997145620073896e+000
0	 1.000000000000000e+001	 8.200010000009550e+000	 9.996942584025078e+000
0	 1.000000000000000e+001	 8.266680000012267e+000	 9.996769425602711e+000
0	 1.000000000000000e+001	 8.333350000014585e+000	 9.996625709520398e+000
0	 1.000000000000000e+001	 8.400020000016399e+000	 9.996511000491609e+000
0	 1.000000000000000e+001	 8.466690000017618e+000	 9.996424863229825e+000
0	 9.999999999999998e+000	 8.533360000018131e+000	 9.996366862448610e+000
0	 1.000000000000000e+001	 8.600030000017849e+000	 9.996336562861469e+000
0	 1.000000000000000e+001	 8.666700000016666e+000	 9.996333529181930e+000
0	 9.333302777352785e+000	 8.666700000016666e+000	 1.000223004439202e+001
0	 9.333302777352781e+000	 8.733360002791901e+000	 1.000197055274835e+001
0	 9.333302777352783e+000	 8.800020022230553e+000	 1.000173050099434e+001
0	 9.333302777352781e+000	 8.866680074997040e+000	 1.000150922351156e+001
0	 9.333302777352783e+000	 8.933340177755778e+000	 1.000130605463674e+001
0	 9.333302777352785e+000	 9.000000347171183e+000	 1.000112032866184e+001
0	 9.333302777352783e+000	 9.066660599907666e+000	 1.000095137983396e+001
0	 9.333302777352783e+000	 9.133320952629653e+000	 1.000079854235539e+001
0	 9.333302777352781e+000	 9.199981422001553e+000	 1.000066115038363e+001
0	 9.333302777352783e+000	 9.266642024687792e+000	 1.000053853803139e+001
0	 9.333302777352783e+000	 9.333302777352781e+000	 1.000043003936651e+001
0	 9.399973674588175e+000	 8.666700000016666e+000	 1.000175356306569e+001
0	 9.399973674588178e+000	 8.733360002791903e+000	 1.000152520303456e+001
0	 9.399973674588175e+000	 8.800020022230553e+000	 1.000131585579564e+001
0	 9.399973674588173e+000	 8.866680074997039e+000	 1.000112490480775e+001
0	 9.399973674588175e+000	 8.933340177755778e+000	 1.000095173348746e+001
0	 9.399973674588178e+000	 9.000000347171181e+000	 1.000079572520905e+001
0	 9.399973674588177e+000	 9.066660599907667e+000	 1.000065626330454e+001
0	 9.399973674588177e+000	 9.133320952629651e+000	 1.000053273106374e+001
0	 9.399973674588175e+000	 9.199981422001557e+000	 1.000042451173415e+001
0	 9.399973674588178e+000	 9.266642024687792e+000	 1.000033098852102e+001
0	 9.399973674588175e+000	 9.333302777352781e+000	 1.000025154458734e+001
0	 9.466644621844621e+000	 8.666700000016666e+000	 1.000126961652178e+001
0	 9.466644621844621e+000	 8.733360002791905e+000	 1.000107145857338e+001
0	 9.466644621844621e+000	 8.800020022230555e+000	 1.000089197163524e+001
0	 9.466644621844621e+000	 8.866680074997042e+000	 1.000073059988570e+001
0	 9.466644621844621e+000	 8.933340177755776e+000	 1.000058678746296e+001
0	 9.466644621844621e+000	 9.000000347171179e+000	 1.000045997846503e+001
0	 9.466644621844619e+000	 9.066660599907666e+000	 1.000034961694975e+001
0	 9.466644621844619e+000	 9.133320952629651e+000	 1.000025514693487e+001
0	 9.466644621844619e+000	 9.199981422001557e+000	 1.000017601239795e+001
0	 9.466644621844619e+000	 9.266642024687792e+000	 1.000011165727635e+001
0	 9.466644621844617e+000	 9.333302777352781e+000	 1.000006152546734e+001
0	 9.533315502450000e+000	 8.666700000016666e+000	 1.000077157310318e+001
0	 9.533315502449996e+000	 8.733360002791903e+000	 1.000060282504030e+001
0	 9.533315502449998e+000	 8.800020022230555e+000	 1.000045260212239e+001
0	 9.533315502450000e+000	 8.866680074997042e+000	 1.000032042088961e+001
0	 9.533315502450000e+000	 8.933340177755776e+000	 1.000020579784342e+001
0	 9.533315502450000e+000	 9.000000347171181e+000	 1.000010824944660e+001
0	 9.533315502450002e+000	 9.066660599907669e+000	 1.000002729212329e+001
0	 9.533315502450000e+000	 9.133320952629651e+000	 9.999962442258950e+000
0	 9.533315502449998e+000	 9.199981422001557e+000	 9.999913216200399e+000
0	 9.533315502449998e+000	 9.266642024687789e+000	 9.999879130255755e+000
0	 9.533315502449998e+000	 9.333302777352783e+000	 9.999859700694483e+000
0	 9.599986199732195e+000	 8.666700000016665e+000	 1.000025280130380e+001
0	 9.599986199732193e+000	 8.733360002791901e+000	 1.000011280826452e+001
0	 9.599986199732193e+000	 8.800020022230553e+000	 9.999991501020539e+000
0	 9.599986199732197e+000	 8.866680074997039e+000	 9.999888480116207e+000
0	 9.599986199732195e+000	 8.933340177755776e+000	 9.999803346057878e+000
0	 9.599986199732197e+000	 9.000000347171183e+000	 9.999735699313979e+000
0	 9.599986199732195e+000	 9.066660599907667e+000	 9.999685140314968e+000
0	 9.599986199732195e+000	 9.133320952629649e+000	 9.999651269453384e+000
0	 9.599986199732198e+000	 9.199981422001560e+000	 9.999633687083742e+000
0	 9.599986199732195e+000	 9.266642024687792e+000	 9.999631993522620e+000
0	 9.599986199732197e+000	 9.333302777352783e+000	 9.999645789048705e+000
0	 9.666656597019093e+000	 8.666700000016666e+000	 9.999706669768337e+000
0	 9.666656597019092e+000	 8.733360002791903e+000	 9.999594914228855e+000
0	 9.666656597019093e+000	 8.800020022230557e+000	 9.999502422247236e+000
0	 9.666656597019093e+000	 8.866680074997040e+000	 9.999428890014714e+000
0	 9.666656597019088e+000	 8.933340177755778e+000	 9.999374013684282e+000
0	 9.666656597019093e+000	 9.000000347171177e+000	 9.999337489370745e+000
0	 9.666656597019090e+000	 9.066660599907666e+000	 9.999319013150764e+000
0	 9.666656597019090e+000	 9.133320952629653e+000	 9.999318281062751e+000
0	 9.666656597019092e+000	 9.199981422001555e+000	 9.999334989106922e+000
0	 9.666656597019093e+000	 9.266642024687791e+000	 9.999368833245340e+000
0	 9.666656597019092e+000	 9.333302777352783e+000	 9.999419509401827e+000
0	 9.733326577638573e+000	 8.666700000016666e+000	 9.999126547292473e+000
0	 9.733326577638573e+000	 8.733360002791903e+000	 9.999042649069750e+000
0	 9.733326577638577e+000	 8.800020022230557e+000	 9.998979119874146e+000
0	 9.733326577638575e+000	 8.866680074997040e+000	 9.998935763186843e+000
0	 9.733326577638572e+000	 8.933340177755776e+000	 9.998912382449365e+000
0	 9.733326577638573e+000	 9.000000347171179e+000	 9.998908781063818e+000
0	 9.733326577638572e+000	 9.066660599907664e+000	 9.998924762392656e+000
0	 9.733326577638573e+000	 9.133320952629653e+000	 9.998960129758821e+000
0	 9.733326577638573e+000	 9.199981422001553e+000	 9.999014686445721e+000
0	 9.733326577638573e+000	 9.266642024687791e+000	 9.999088235697254e+000
0	 9.733326577638575e+000	 9.333302777352783e+000	 9.999180580717709e+000
0	 9.799996024918521e+000	 8.666700000016668e+000	 9.998505802822855e+000
0	 9.799996024918521e+000	 8.733360002791903e+000	 9.998449519077351e+000
0	 9.799996024918523e+000	 8.800020022230553e+000	 9.998415348127168e+000
0	 9.799996024918521e+000	 8.866680074997039e+000	 9.998403212386860e+000
0	 9.799996024918519e+000	 8.933340177755774e+000	 9.998413034228920e+000
0	 9.799996024918521e+000	 9.000000347171179e+000	 9.998444735983535e+000
0	 9.799996024918523e+000	 9.066660599907666e+000	 9.998498239938794e+000
0	 9.799996024918523e+000	 9.133320952629653e+000	 9.998573468340609e+000
0	 9.799996024918521e+000	 9.199981422001555e+000	 9.998670343392762e+000
0	 9.799996024918523e+000	 9.266642024687791e+000	 9.998788787256750e+000
0	 9.799996024918523e+000	 9.333302777352781e+000	 9.998928722051982e+000
0	 9.866664822186818e+000	 8.666700000016666e+000	 9.997837805457021e+000
0	 9.866664822186818e+000	 8.733360002791901e+000	 9.997809030695521e+000
0	 9.866664822186820e+000	 8.800020022230555e+000	 9.997804861386294e+000
0	 9.866664822186820e+000	 8.866680074997039e+000	 9.997825350521602e+000
0	 9.866664822186820e+000	 8.933340177755776e+000	 9.997870551047452e+000
0	 9.866664822186820e+000	 9.000000347171179e+000	 9.997940515863585e+000
0	 9.866664822186820e+000	 9.066660599907664e+000	 9.998035297823456e+000
0	 9.866664822186818e+000	 9.133320952629653e+000	 9.998154949734410e+000
0	 9.866664822186822e+000	 9.199981422001555e+000	 9.998299524357407e+000
0	 9.866664822186820e+000	 9.266642024687791e+000	 9.998469074407229e+000
0	 9.866664822186818e+000	 9.333302777352783e+000	 9.998663652552391e+000
0	 9.933332852771352e+000	 8.666700000016668e+000	 9.997115924443495e+000
0	 9.933332852771349e+000	 8.733360002791901e+000	 9.997114690521734e+000
0	 9.933332852771352e+000	 8.800020022230555e+000	 9.997141414185785e+000
0	 9.933332852771352e+000	 8.866680074997040e+000	 9.997196290650445e+000
0	 9.933332852771352e+000	 8.933340177755778e+000	 9.997279515078549e+000
0	 9.933332852771352e+000	 9.000000347171181e+000	 9.997391282581118e+000
0	 9.933332852771352e+000	 9.066660599907666e+000	 9.997531788217124e+000
0	 9.933332852771351e+000	 9.133320952629649e+000	 9.997701226993627e+000
0	 9.933332852771351e+000	 9.199981422001555e+000	 9.997899793865866e+000
0	 9.933332852771351e+000	 9.266642024687791e+000	 9.998127683737058e+000
0	 9.933332852771351e+000	 9.333302777352783e+000	 9.998385091458527e+000
0	 1.000000000000000e+001	 8.666700000016666e+000	 9.996333529181932e+000
0	 1.000000000000000e+001	 8.733360002791901e+000	 9.996360005307338e+000
0	 1.000000000000000e+001	 8.800020022230555e+000	 9.996418761214096e+000
0	 1.000000000000000e+001	 8.866680074997039e+000	 9.996510145985237e+000
0	 1.000000000000000e+001	 8.933340177755776e+000	 9.996634508644688e+000
0	 1.000000000000000e+001	 9.000000347171179e+000	 9.996792198156699e+000
0	 1.000000000000000e+001	 9.066660599907664e+000	 9.996983563426287e+000
0	 1.000000000000000e+001	 9.133320952629653e+000	 9.997208953299067e+000
0	 9.999999999999998e+000	 9.199981422001555e+000	 9.997468716561265e+000
0	 9.999999999999998e+000	 9.266642024687791e+000	 9.997763201939771e+000
0	 1.000000000000000e+001	 9.333302777352783e+000	 9.998092758102073e+000
0	 9.333302777352783e+000	 9.333302777352781e+000	 1.000043003936651e+001
0	 9.333302777352783e+000	 9.399973674588177e+000	 1.000033311591298e+001
0	 9.333302777352785e+000	 9.466644621844621e+000	 1.000024646602628e+001
0	 9.333302777352783e+000	 9.533315502450000e+000	 1.000017123343590e+001
0	 9.333302777352783e+000	 9.599986199732197e+000	 1.000010856213981e+001
0	 9.333302777352783e+000	 9.666656597019093e+000	 1.000005959640432e+001
0	 9.333302777352783e+000	 9.733326577638575e+000	 1.000002548076427e+001
0	 9.333302777352781e+000	 9.799996024918523e+000	 1.000000736002286e+001
0	 9.333302777352783e+000	 9.866664822186818e+000	 1.000000637925180e+001
0	 9.333302777352785e+000	 9.933332852771351e+000	 1.000002368379128e+001
0	 9.333302777352783e+000	 1.000000000000000e+001	 1.000006041925010e+001
0	 9.399973674588175e+000	 9.333302777352781e+000	 1.000025154458733e+001
0	 9.399973674588175e+000	 9.399973674588173e+000	 1.000018222174218e+001
0	 9.399973674588175e+000	 9.466644621844619e+000	 1.000012048045096e+001
0	 9.399973674588173e+000	 9.533315502449998e+000	 1.000006779931569e+001
0	 9.399973674588175e+000	 9.599986199732195e+000	 1.000002565715696e+001
0	 9.399973674588175e+000	 9.666656597019093e+000	 9.999995533014086e+000
0	 9.399973674588177e+000	 9.733326577638573e+000	 9.999978906144870e+000
0	 9.399973674588177e+000	 9.799996024918523e+000	 9.999977256025819e+000
0	 9.399973674588175e+000	 9.866664822186818e+000	 9.999992062352089e+000
0	 9.399973674588175e+000	 9.933332852771351e+000	 1.000002480503751e+001
0	 9.399973674588177e+000	 1.000000000000000e+001	 1.000007696421483e+001
0	 9.466644621844617e+000	 9.333302777352781e+000	 1.000006152546733e+001
0	 9.466644621844623e+000	 9.399973674588173e+000	 1.000002014206768e+001
0	 9.466644621844623e+000	 9.466644621844623e+000	 9.999983599114842e+000
0	 9.466644621844619e+000	 9.533315502449998e+000	 9.999953671569809e+000
0	 9.466644621844623e+000	 9.599986199732195e+000	 9.999932134563416e+000
0	 9.466644621844621e+000	 9.666656597019092e+000	 9.999920763396389e+000
0	 9.466644621844623e+000	 9.733326577638577e+000	 9.999921333539193e+000
0	 9.466644621844621e+000	 9.799996024918523e+000	 9.999935620632293e+000
0	 9.466644621844617e+000	 9.866664822186815e+000	 9.999965400485888e+000
0	 9.466644621844617e+000	 9.933332852771349e+000	 1.000001244908023e+001
0	 9.466644621844621e+000	 1.000000000000000e+001	 1.000007854256538e+001
0	 9.533315502449998e+000	 9.333302777352783e+000	 9.999859700694479e+000
0	 9.533315502449996e+000	 9.399973674588175e+000	 9.999847730459242e+000
0	 9.533315502450000e+000	 9.466644621844619e+000	 9.999837703826717e+000
0	 9.533315502449998e+000	 9.533315502449998e+000	 9.999831653610290e+000
0	 9.533315502450002e+000	 9.599986199732195e+000	 9.999831612744281e+000
0	 9.533315502449996e+000	 9.666656597019093e+000	 9.999839614284143e+000
0	 9.533315502449998e+000	 9.733326577638570e+000	 9.999857691406099e+000
0	 9.533315502450000e+000	 9.799996024918523e+000	 9.999887877407591e+000
0	 9.533315502450000e+000	 9.866664822186820e+000	 9.999932205706870e+000
0	 9.533315502449998e+000	 9.933332852771351e+000	 9.999992709843449e+000
0	 9.533315502450000e+000	 1.000000000000000e+001	 1.000007142347758e+001
0	 9.599986199732197e+000	 9.333302777352783e+000	 9.999645789048701e+000
0	 9.599986199732197e+000	 9.399973674588175e+000	 9.999665840564280e+000
0	 9.599986199732197e+000	 9.466644621844623e+000	 9.999684676457171e+000
0	 9.599986199732198e+000	 9.533315502450002e+000	 9.999704548893119e+000
0	 9.599986199732195e+000	 9.599986199732197e+000	 9.999727710108639e+000
0	 9.599986199732195e+000	 9.666656597019092e+000	 9.999756412411230e+000
0	 9.599986199732198e+000	 9.733326577638575e+000	 9.999792908179291e+000
0	 9.599986199732195e+000	 9.799996024918523e+000	 9.999839449862197e+000
0	 9.599986199732195e+000	 9.866664822186820e+000	 9.999898289980221e+000
0	 9.599986199732197e+000	 9.933332852771349e+000	 9.999971681124526e+000
0	 9.599986199732195e+000	 1.000000000000000e+001	 1.000006187595751e+001
0	 9.666656597019092e+000	 9.333302777352783e+000	 9.999419509401829e+000
0	 9.666656597019092e+000	 9.399973674588175e+000	 9.999475326107746e+000
0	 9.666656597019093e+000	 9.466644621844621e+000	 9.999526398938595e+000
0	 9.666656597019093e+000	 9.533315502449998e+000	 9.999575160918282e+000
0	 9.666656597019092e+000	 9.599986199732195e+000	 9.999624045089197e+000
0	 9.666656597019093e+000	 9.666656597019092e+000	 9.999675484512329e+000
0	 9.666656597019093e+000	 9.733326577638572e+000	 9.999731912267148e+000
0	 9.666656597019092e+000	 9.799996024918521e+000	 9.999795761451589e+000
0	 9.666656597019088e+000	 9.866664822186817e+000	 9.999869465182398e+000
0	 9.666656597019093e+000	 9.933332852771352e+000	 9.999955456594565e+000
0	 9.666656597019093e+000	 1.000000000000000e+001	 1.000005616884195e+001
0	 9.733326577638575e+000	 9.333302777352783e+000	 9.999180580717706e+000
0	 9.733326577638575e+000	 9.399973674588177e+000	 9.999277040892375e+000
0	 9.733326577638573e+000	 9.466644621844621e+000	 9.999364753265123e+000
0	 9.733326577638572e+000	 9.533315502449996e+000	 9.999446293229688e+000
0	 9.733326577638575e+000	 9.599986199732197e+000	 9.999524236142605e+000
0	 9.733326577638573e+000	 9.666656597019093e+000	 9.999601157323088e+000
0	 9.733326577638573e+000	 9.733326577638572e+000	 9.999679632052910e+000
0	 9.733326577638573e+000	 9.799996024918521e+000	 9.999762235576679e+000
0	 9.733326577638573e+000	 9.866664822186820e+000	 9.999851543101777e+000
0	 9.733326577638572e+000	 9.933332852771351e+000	 9.999950129798188e+000
0	 9.733326577638575e+000	 1.000000000000000e+001	 1.000006057079859e+001
0	 9.799996024918523e+000	 9.333302777352781e+000	 9.998928722051982e+000
0	 9.799996024918523e+000	 9.399973674588178e+000	 9.999071838798464e+000
0	 9.799996024918521e+000	 9.466644621844619e+000	 9.999201621492679e+000
0	 9.799996024918523e+000	 9.533315502450000e+000	 9.999320749415343e+000
0	 9.799996024918523e+000	 9.599986199732197e+000	 9.999431901749379e+000
0	 9.799996024918524e+000	 9.666656597019093e+000	 9.999537757580002e+000
0	 9.799996024918523e+000	 9.733326577638575e+000	 9.999640995894666e+000
0	 9.799996024918521e+000	 9.799996024918521e+000	 9.999744295583257e+000
0	 9.799996024918521e+000	 9.866664822186820e+000	 9.999850335437937e+000
0	 9.799996024918519e+000	 9.933332852771349e+000	 9.999961794153137e+000
0	 9.799996024918521e+000	 1.000000000000000e+001	 1.000008135032573e+001
0	 9.866664822186818e+000	 9.333302777352783e+000	 9.998663652552390e+000
0	 9.866664822186822e+000	 9.399973674588178e+000	 9.998860573783876e+000
0	 9.866664822186820e+000	 9.466644621844619e+000	 9.999038885739035e+000
0	 9.866664822186822e+000	 9.533315502450002e+000	 9.999201333107164e+000
0	 9.866664822186822e+000	 9.599986199732197e+000	 9.999350660413764e+000
0	 9.866664822186818e+000	 9.666656597019093e+000	 9.999489612020506e+000
0	 9.866664822186822e+000	 9.733326577638575e+000	 9.999620932125328e+000
0	 9.866664822186818e+000	 9.799996024918521e+000	 9.999747364762342e+000
0	 9.866664822186822e+000	 9.866664822186820e+000	 9.999871653802090e+000
0	 9.866664822186820e+000	 9.933332852771352e+000	 9.999996542951102e+000
0	 9.866664822186820e+000	 1.000000000000000e+001	 1.000012477575220e+001
0	 9.933332852771351e+000	 9.333302777352783e+000	 9.998385091458527e+000
0	 9.933332852771351e+000	 9.399973674588175e+000	 9.998644099884373e+000
0	 9.933332852771351e+000	 9.466644621844617e+000	 9.998878428183792e+000
0	 9.933332852771351e+000	 9.533315502449998e+000	 9.999090847981139e+000
0	 9.933332852771352e+000	 9.599986199732197e+000	 9.999284130663908e+000
0	 9.933332852771351e+000	 9.666656597019092e+000	 9.999461047382997e+000
0	 9.933332852771351e+000	 9.733326577638572e+000	 9.999624369052601e+000
0	 9.933332852771351e+000	 9.799996024918523e+000	 9.999776866350324e+000
0	 9.933332852771352e+000	 9.866664822186820e+000	 9.999921309716989e+000
0	 9.933332852771351e+000	 9.933332852771349e+000	 1.000006046935701e+001
0	 9.933332852771352e+000	 1.000000000000000e+001	 1.000019711523769e+001
0	 1.000000000000000e+001	 9.333302777352783e+000	 9.998092758102072e+000
0	 1.000000000000000e+001	 9.399973674588177e+000	 9.998423271213106e+000
0	 1.000000000000000e+001	 9.466644621844621e+000	 9.998722131068313e+000
0	 1.000000000000000e+001	 9.533315502450000e+000	 9.998992097757126e+000
0	 1.000000000000000e+001	 9.599986199732195e+000	 9.999235931051738e+000
0	 1.000000000000000e+001	 9.666656597019093e+000	 9.999456390406692e+000
0	 1.000000000000000e+001	 9.733326577638575e+000	 9.999656234959049e+000
0	 1.000000000000000e+001	 9.799996024918521e+000	 9.999838223528389e+000
0	 1.000000000000000e+001	 9.866664822186820e+000	 1.000000511461691e+001
0	 1.000000000000000e+001	 9.933332852771352e+000	 1.000015966640945e+001
0	 1.000000000000000e+001	 1.000000000000000e+001	 1.000030463677299e+001
1	 1.000000000000000e+000	 0.000000000000000e+000	 3.110325345650793e+001
1	 9.999553790721549e-001	 9.446392261750538e-003	 3.109642233132575e+001
1	 9.998208276644109e-001	 1.892867080636967e-002	 3.107690731758400e+001
1	 9.995953221430520e-001	 2.844573836262591e-002	 3.104471513722199e+001
1	 9.992778519071311e-001	 3.799646941872217e-002	 3.099985039810649e+001
1	 9.988674201817244e-001	 4.757971027342478e-002	 3.094231543072934e+001
1	 9.983630448185402e-001	 5.719427911104237e-002	 3.087211012520168e+001
1	 9.977637591031844e-001	 6.683896610081598e-002	 3.078923176892553e+001
1	 9.970686125683426e-001	 7.651253352126188e-002	 3.069367488533765e+001
1	 9.962766718121099e-001	 8.621371590998765e-002	 3.058543107413229e+001
1	 9.953870213206724e-001	 9.594122023947824e-002	 3.046448885338205e+001
1	 1.026666858896872e+000	 0.000000000000000e+000	 2.930690233187942e+001
1	 1.026621048068823e+000	 9.698297869740000e-003	 2.930805977440519e+001
1	 1.026482908597069e+000	 1.943343899728709e-002	 2.929743403615957e+001
1	 1.026251389550869e+000	 2.920429685057105e-002	 2.927496796252089e+001
1	 1.025925453379797e+000	 3.900971590386780e-002	 2.924060332722620e+001
1	 1.025504076728145e+000	 4.884851169029192e-002	 2.919428078855488e+001
1	 1.024986251256887e+000	 5.871947087877485e-002	 2.913593984736447e+001
1	 1.024370984472468e+000	 6.862135137610564e-002	 2.906551880718645e+001
1	 1.023657300561674e+000	 7.855288245458952e-002	 2.898295473659369e+001
1	 1.022844241231782e+000	 8.851276490585899e-002	 2.888818343405401e+001
1	 1.021930866555178e+000	 9.849967122134781e-002	 2.878113939548714e+001
1	 1.053334071134978e+000	 0.000000000000000e+000	 2.780245592464442e+001
1	 1.053287070390996e+000	 9.950206815530271e-003	 2.780704208616046e+001
1	 1.053145342807795e+000	 1.993821387648614e-002	 2.780093748339201e+001
1	 1.052907810157237e+000	 2.996286538957084e-002	 2.778402880202547e+001
1	 1.052573407939045e+000	 4.002297581473555e-002	 2.775620194400531e+001
1	 1.052141086216367e+000	 5.011732991903531e-002	 2.771734207449366e+001
1	 1.051609810459080e+000	 6.024468285560675e-002	 2.766733367258244e+001
1	 1.050978562394118e+000	 7.040376026835926e-002	 2.760606058585435e+001
1	 1.050246340862016e+000	 8.059325842294961e-002	 2.753340608888493e+001
1	 1.049412162678889e+000	 9.081184436458799e-002	 2.744925294577345e+001
1	 1.048475063502991e+000	 1.010581561031999e-001	 2.735348347678491e+001
1	 1.080001590045551e+000	 0.000000000000000e+000	 2.655988683786235e+001
1	 1.079953399371986e+000	 1.020211865827080e-002	 2.656384454236815e+001
1	 1.079808083636172e+000	 2.044299456059085e-002	 2.655833462532986e+001
1	 1.079564537312246e+000	 3.072144265210019e-002	 2.654319463842390e+001
1	 1.079221668949764e+000	 4.103624737807987e-002	 2.651826091872912e+001
1	 1.078778402030408e+000	 5.138616273917134e-002	 2.648336869912106e+001
1	 1.078233675832652e+000	 6.176991237235382e-002	 2.643835222465557e+001
1	 1.077586446303606e+000	 7.218618965828590e-002	 2.638304487498689e+001
1	 1.076835686937253e+000	 8.263365785559591e-002	 2.631727929285501e+001
1	 1.075980389658249e+000	 9.311095026268368e-002	 2.624088751866603e+001
1	 1.075019565710423e+000	 1.036166704075697e-001	 2.615370113117606e+001
1	 1.106669368959824e+000	 0.000000000000000e+000	 2.555206093734563e+001
1	 1.106619988345106e+000	 1.045403295711104e-002	 2.555178723606558e+001
1	 1.106471084421780e+000	 2.094778016622530e-002	 2.554334467863869e+001
1	 1.106221524365987e+000	 3.148002731063399e-002	 2.552652808383754e+001
1	 1.105870189776840e+000	 4.204952882065515e-002	 2.550112993855065e+001
1	 1.105415977554288e+000	 5.265500793021637e-002	 2.546694054550601e+001
1	 1.104857800785134e+000	 6.329515675983194e-002	 2.542374817955053e+001
1	 1.104194589636403e+000	 7.396863642659465e-002	 2.537133925253844e+001
1	 1.103425292255272e+000	 8.467407718178245e-002	 2.530949848686501e+001
1	 1.102548875674684e+000	 9.541007857665526e-002	 2.523800909766536e+001
1	 1.101564326723789e+000	 1.061752096569921e-001	 2.515665298367968e+001
1	 1.133337361209029e+000	 0.000000000000000e+000	 2.475439707690813e+001
1	 1.133286790643667e+000	 1.070594927120045e-002	 2.474670049962608e+001
1	 1.133134298504202e+000	 2.145256981001351e-002	 2.473215953808154e+001
1	 1.132878724668551e+000	 3.223861803764715e-002	 2.471053211345540e+001
1	 1.132518923785160e+000	 4.306281836921582e-002	 2.468157204060336e+001
1	 1.132053766172025e+000	 5.392386327168684e-002	 2.464502918812239e+001
1	 1.131482138724057e+000	 6.482041334885690e-002	 2.460064964986448e+001
1	 1.130802945827984e+000	 7.575109745399461e-002	 2.454817592801430e+001
1	 1.130015110283960e+000	 8.671451283076302e-002	 2.448734712782630e+001
1	 1.129117574233009e+000	 9.770922528301185e-002	 2.441789916409576e+001
1	 1.128109300089399e+000	 1.087337693740023e-001	 2.433956497941561e+001
1	 1.160005520124402e+000	 0.000000000000000e+000	 2.414457373006179e+001
1	 1.159953759600982e+000	 1.095786715968847e-002	 2.412663644798170e+001
1	 1.159797679223019e+000	 2.195736260857955e-002	 2.410315963515798e+001
1	 1.159536091570028e+000	 3.299721350561456e-002	 2.407386963672932e+001
1	 1.159167824339611e+000	 4.407611425051634e-002	 2.403848628649096e+001
1	 1.158691721267636e+000	 5.519272654309910e-002	 2.399672305533430e+001
1	 1.158106643056953e+000	 6.634567947024450e-002	 2.394828721434433e+001
1	 1.157411468313821e+000	 7.753356962119486e-002	 2.389288001278942e+001
1	 1.156605094491205e+000	 8.875496123179154e-002	 2.383019687121423e+001
1	 1.155686438838045e+000	 1.000083863582625e-001	 2.375992758982157e+001
1	 1.154654439353568e+000	 1.112923450811353e-001	 2.368175657230287e+001
1	 1.186673799037174e+000	 0.000000000000000e+000	 2.370227515392011e+001
1	 1.186620848550362e+000	 1.120978618172457e-002	 2.367161939221093e+001
1	 1.186461179917815e+000	 2.246215767854746e-002	 2.363666808559356e+001
1	 1.186193578420509e+000	 3.375581238701112e-002	 2.359712085714187e+001
1	 1.185816844805080e+000	 4.508941469131111e-002	 2.355266780717247e+001
1	 1.185329796225141e+000	 5.646159552396951e-002	 2.350298962701220e+001
1	 1.184731267191354e+000	 6.787095245481059e-002	 2.344775773094874e+001
1	 1.184020110529385e+000	 7.931604980890453e-002	 2.338663440676914e+001
1	 1.183195198344893e+000	 9.079541881412187e-002	 2.331927298526636e+001
1	 1.182255422994611e+000	 1.023075577789164e-001	 2.324531802906644e+001
1	 1.181199698062608e+000	 1.138509323009261e-001	 2.316440554109946e+001
1	 1.213342151278578e+000	 0.000000000000000e+000	 2.340897100689809e+001
1	 1.213288010825121e+000	 1.146170589645821e-002	 2.336342914684426e+001
1	 1.213124753928168e+000	 2.296695413654130e-002	 2.331473723844522e+001
1	 1.212851138570086e+000	 3.451441335431171e-002	 2.326257261023493e+001
1	 1.212465938546455e+000	 4.610271791835456e-002	 2.320659947222833e+001
1	 1.211967944428558e+000	 5.773046799381450e-002	 2.314646897281540e+001
1	 1.211355964534790e+000	 6.939622963337104e-002	 2.308181927767255e+001
1	 1.210628825910150e+000	 8.109853489783273e-002	 2.301227567131983e+001
1	 1.209785375312910e+000	 9.283588200700786e-002	 2.293745068192482e+001
1	 1.208824480207525e+000	 1.046067355214826e-001	 2.285694422992658e+001
1	 1.207745029762830e+000	 1.164095265559097e-001	 2.277034380102038e+001
1	 1.240010530179849e+000	 0.000000000000000e+000	 2.324772438696159e+001
1	 1.239955199758569e+000	 1.171362586303883e-002	 2.318541228190681e+001
1	 1.239788354593661e+000	 2.347175109918510e-002	 2.312096275188043e+001
1	 1.239508725368846e+000	 3.527301507999124e-002	 2.305403486865144e+001
1	 1.239115058928623e+000	 4.711602215840111e-002	 2.298427042550328e+001
1	 1.238606119261905e+000	 5.899934173215044e-002	 2.291129391582268e+001
1	 1.237980688494794e+000	 7.092150833674159e-002	 2.283471253784707e+001
1	 1.237237567891588e+000	 8.288102176868853e-002	 2.275411622647085e+001
1	 1.236375578863144e+000	 9.487634723970344e-002	 2.266907771298517e+001
1	 1.235393563981607e+000	 1.069059155624702e-001	 2.257915261359617e+001
1	 1.234290388000549e+000	 1.189681233686213e-001	 2.248387954753460e+001
1	 1.266678889072220e+000	 0.000000000000000e+000	 2.320302410442157e+001
1	 1.266622368684020e+000	 1.196554564061589e-002	 2.312231720377437e+001
1	 1.266451935253877e+000	 2.397654768310291e-002	 2.304032114128200e+001
1	 1.266166292166884e+000	 3.603161623652462e-002	 2.295668041281667e+001
1	 1.265764159316469e+000	 4.812932563820523e-002	 2.287101753003115e+001
1	 1.265244274109201e+000	 6.026821451849370e-002	 2.278293289991678e+001
1	 1.264605392478897e+000	 7.244678589573808e-002	 2.269200473496270e+001
1	 1.263846289909172e+000	 8.466350730218104e-002	 2.259778899513923e+001
1	 1.262965762463481e+000	 9.691681094146247e-002	 2.249981936290215e+001
1	 1.261962627821675e+000	 1.092050938783884e-001	 2.239760725238686e+001
1	 1.260835726322077e+000	 1.215267182615958e-001	 2.229064185392802e+001
1	 9.953870213206724e-001	 9.594122023947824e-002	 3.046448885338204e+001
1	 9.943989199946590e-001	 1.056922649420928e-001	 3.033055141934747e+001
1	 9.933113650226918e-001	 1.154669775827054e-001	 3.018320532847814e+001
1	 9.921235000424146e-001	 1.252640057452699e-001	 3.002233138907544e+001
1	 9.908344898374509e-001	 1.350819710464206e-001	 2.984782734392621e+001
1	 9.894435211587170e-001	 1.449194694473044e-001	 2.965960840577526e+001
1	 9.879498035443917e-001	 1.547750715930050e-001	 2.945760778134152e+001
1	 9.863525701375676e-001	 1.646473231798204e-001	 2.924177718259345e+001
1	 9.846510785005697e-001	 1.745347453506194e-001	 2.901208732398785e+001
1	 9.828446114249161e-001	 1.844358351184653e-001	 2.876852840436501e+001
1	 9.809324777358749e-001	 1.943490658186562e-001	 2.851111057218866e+001
1	 1.021930866555178e+000	 9.849967122134781e-002	 2.878113939548714e+001
1	 1.020916415669762e+000	 1.085107456576842e-001	 2.866209724555843e+001
1	 1.019799859022319e+000	 1.185461191814805e-001	 2.853124311323797e+001
1	 1.018580317413973e+000	 1.286044033119972e-001	 2.838843876379949e+001
1	 1.017256933355725e+000	 1.386841829087085e-001	 2.823355978691181e+001
1	 1.015828871911665e+000	 1.487840164914495e-001	 2.806649608931721e+001
1	 1.014295321540812e+000	 1.589024365888926e-001	 2.788715237963049e+001
1	 1.012655494936566e+000	 1.690379501156183e-001	 2.769544864414840e+001
1	 1.010908629862745e+000	 1.791890387780154e-001	 2.749132061254491e+001
1	 1.009053989985139e+000	 1.893541595092008e-001	 2.727472021231384e+001
1	 1.007090865697531e+000	 1.995317449331146e-001	 2.704561601081049e+001
1	 1.048475063502991e+000	 1.010581561031999e-001	 2.735348347678491e+001
1	 1.047434262709218e+000	 1.113292637187003e-001	 2.724677632531888e+001
1	 1.046288704002161e+000	 1.216253015794872e-001	 2.712974429634200e+001
1	 1.045037485346122e+000	 1.319448451396527e-001	 2.700222421254514e+001
1	 1.043679726979181e+000	 1.422864425010265e-001	 2.686406370088948e+001
1	 1.042214572278316e+000	 1.526486147416389e-001	 2.671512165257573e+001
1	 1.040641188623105e+000	 1.630298562732486e-001	 2.655526867883804e+001
1	 1.038958768256984e+000	 1.734286352282083e-001	 2.638438756161363e+001
1	 1.037166529144998e+000	 1.838433938759065e-001	 2.620237369811778e+001
1	 1.035263715826961e+000	 1.942725490689864e-001	 2.600913553833821e+001
1	 1.033249600264920e+000	 2.047144927194936e-001	 2.580459501444714e+001
1	 1.075019565710423e+000	 1.036166704075697e-001	 2.615370113117606e+001
1	 1.073952414705430e+000	 1.141478141926027e-001	 2.605667537839188e+001
1	 1.072777853605359e+000	 1.247045193880078e-001	 2.595071727889408e+001
1	 1.071494957537422e+000	 1.352853253822968e-001	 2.583563313130930e+001
1	 1.070102824466526e+000	 1.458887435192349e-001	 2.571123709942272e+001
1	 1.068600576082287e+000	 1.565132574346201e-001	 2.557735164906016e+001
1	 1.066987358684599e+000	 1.671573234228619e-001	 2.543380798462977e+001
1	 1.065262344066698e+000	 1.778193708336415e-001	 2.528044648451807e+001
1	 1.063424730394631e+000	 1.884978024988977e-001	 2.511711713451225e+001
1	 1.061473743082011e+000	 1.991909951903410e-001	 2.494367995839748e+001
1	 1.059408635658941e+000	 2.098973001076576e-001	 2.476000544485889e+001
1	 1.101564326723789e+000	 1.061752096569921e-001	 2.515665298367967e+001
1	 1.100470825250804e+000	 1.169663921468526e-001	 2.506657072408112e+001
1	 1.099267261475050e+000	 1.277837672183244e-001	 2.496886762568571e+001
1	 1.097952687686433e+000	 1.386258381939897e-001	 2.486331416892767e+001
1	 1.096526179576468e+000	 1.494910796591940e-001	 2.474968583320763e+001
1	 1.094986837147195e+000	 1.603779378071404e-001	 2.462776351989437e+001
1	 1.093333785618622e+000	 1.712848308145206e-001	 2.449733397894990e+001
1	 1.091566176333587e+000	 1.822101492479694e-001	 2.435819023850526e+001
1	 1.089683187658944e+000	 1.931522565015935e-001	 2.421013203668417e+001
1	 1.087684025881921e+000	 2.041094892657835e-001	 2.405296625494567e+001
1	 1.085567926100498e+000	 2.150801580274720e-001	 2.388650735218880e+001
1	 1.128109300089399e+000	 1.087337693740023e-001	 2.433956497941561e+001
1	 1.126989447937741e+000	 1.197849926489115e-001	 2.425361194989972e+001
1	 1.125756881254374e+000	 1.308630396817190e-001	 2.416128084344464e+001
1	 1.124410629491716e+000	 1.419663777287918e-001	 2.406230128840078e+001
1	 1.122949746067712e+000	 1.530934446167641e-001	 2.395640511147997e+001
1	 1.121373309296657e+000	 1.642426490959475e-001	 2.384332675570555e+001
1	 1.119680423318503e+000	 1.754123712250134e-001	 2.372280370608077e+001
1	 1.117870219025528e+000	 1.866009627872431e-001	 2.359457692242086e+001
1	 1.115941854985237e+000	 1.978067477385986e-001	 2.345839127875987e+001
1	 1.113894518358322e+000	 2.090280226878326e-001	 2.331399600870932e+001
1	 1.111727425810493e+000	 2.202630574088016e-001	 2.316114515611197e+001
1	 1.154654439353568e+000	 1.112923450811353e-001	 2.368175657230287e+001
1	 1.153508236358646e+000	 1.226036107662409e-001	 2.359704918611882e+001
1	 1.152246666586472e+000	 1.339423313894738e-001	 2.350714888770611e+001
1	 1.150868736651832e+000	 1.453069381407635e-001	 2.341173965567018e+001
1	 1.149373477698966e+000	 1.566958320878054e-001	 2.331050492529958e+001
1	 1.147759946354290e+000	 1.681073845377886e-001	 2.320312800995087e+001
1	 1.146027225677570e+000	 1.795399374311290e-001	 2.308929253437763e+001
1	 1.144174426110399e+000	 1.909918037675141e-001	 2.296868287955535e+001
1	 1.142200686420812e+000	 2.024612680645178e-001	 2.284098463851353e+001
1	 1.140105174642845e+000	 2.139465868490073e-001	 2.270588508264470e+001
1	 1.137887089009828e+000	 2.254459891815114e-001	 2.256307363791991e+001
1	 1.181199698062608e+000	 1.138509323009261e-001	 2.316440554109947e+001
1	 1.180027144105923e+000	 1.254222415663019e-001	 2.307799713084205e+001
1	 1.178736571114481e+000	 1.370216369528710e-001	 2.298753352365738e+001
1	 1.177326962865341e+000	 1.486475135839651e-001	 2.289264846565821e+001
1	 1.175797328228936e+000	 1.602982357681785e-001	 2.279297247082534e+001
1	 1.174146702143711e+000	 1.719721373694114e-001	 2.268813325400202e+001
1	 1.172374146589152e+000	 1.836675222096558e-001	 2.257775618018972e+001
1	 1.170478751556079e+000	 1.953826645048334e-001	 2.246146472979219e+001
1	 1.168459636012969e+000	 2.071158093339556e-001	 2.233888097940652e+001
1	 1.166315948867122e+000	 2.188651731418264e-001	 2.220962609771070e+001
1	 1.164046869919403e+000	 2.306289442754662e-001	 2.207332085594953e+001
1	 1.207745029762830e+000	 1.164095265559097e-001	 2.277034380102039e+001
1	 1.206546124771974e+000	 1.282408801165561e-001	 2.267923017490207e+001
1	 1.205226548481543e+000	 1.401009509831927e-001	 2.258516087434546e+001
1	 1.203785261830803e+000	 1.519880982124569e-001	 2.248771502615488e+001
1	 1.202221251416331e+000	 1.639006493537434e-001	 2.238646588351909e+001
1	 1.200533530488537e+000	 1.758369008275634e-001	 2.228098127850497e+001
1	 1.198721139946578e+000	 1.877951183373823e-001	 2.217082409534298e+001
1	 1.196783149330445e+000	 1.997735373152526e-001	 2.205555276423372e+001
1	 1.194718657809009e+000	 2.117703634015168e-001	 2.193472177535039e+001
1	 1.192526795162782e+000	 2.237837729588087e-001	 2.180788221265398e+001
1	 1.190206722760122e+000	 2.358119136205311e-001	 2.167458230708122e+001
1	 1.234290388000549e+000	 1.189681233686213e-001	 2.248387954753460e+001
1	 1.233065131949204e+000	 1.310595214844649e-001	 2.238500394749655e+001
1	 1.231716552330795e+000	 1.431802680917210e-001	 2.228424246399447e+001
1	 1.230243587246780e+000	 1.553286861802993e-001	 2.218111539669388e+001
1	 1.228645201019855e+000	 1.675030665403606e-001	 2.207513457243407e+001
1	 1.226920385212384e+000	 1.797016681489920e-001	 2.196580382485226e+001
1	 1.225068159643175e+000	 1.919227185910969e-001	 2.185261949942141e+001
1	 1.223087573401376e+000	 2.041644145148226e-001	 2.173507098370487e+001
1	 1.220977705856232e+000	 2.164249221218061e-001	 2.161264126256546e+001
1	 1.218737667661458e+000	 2.287023776924730e-001	 2.148480749800220e+001
1	 1.216366601752886e+000	 2.409948881465711e-001	 2.135104163321946e+001
1	 1.260835726322077e+000	 1.215267182615958e-001	 2.229064185392802e+001
1	 1.259584119230016e+000	 1.338781607374896e-001	 2.218089939110607e+001
1	 1.258206536305378e+000	 1.462595828897382e-001	 2.207031885402162e+001
1	 1.256701892811832e+000	 1.586692716415527e-001	 2.195835767118648e+001
1	 1.255069130798217e+000	 1.711054810238902e-001	 2.184446223671533e+001
1	 1.253307220138871e+000	 1.835664325704447e-001	 2.172806842447250e+001
1	 1.251415159572273e+000	 1.960503157475885e-001	 2.160860213238865e+001
1	 1.249391977736748e+000	 2.085552884195950e-001	 2.148547985681188e+001
1	 1.247236734201940e+000	 2.210794773494282e-001	 2.135810929668408e+001
1	 1.244948520494780e+000	 2.336209787353383e-001	 2.122588998725883e+001
1	 1.242526461118596e+000	 2.461778587834510e-001	 2.108821396299991e+001
1	 9.809324777358749e-001	 1.943490658186562e-001	 2.851111057218866e+001
1	 9.789137024229727e-001	 2.042743766435053e-001	 2.824080761192096e+001
1	 9.767879280981019e-001	 2.142087061355222e-001	 2.795866103075080e+001
1	 9.745545470450377e-001	 2.241504565049763e-001	 2.766469232303906e+001
1	 9.722129807570793e-001	 2.340980083161346e-001	 2.735894129349877e+001
1	 9.697626806991598e-001	 2.440497210832210e-001	 2.704146644068110e+001
1	 9.672031290579124e-001	 2.540039338948809e-001	 2.671234532151240e+001
1	 9.645338394785437e-001	 2.639589660669880e-001	 2.637167489570731e+001
1	 9.617543577873685e-001	 2.739131178235836e-001	 2.601957184889242e+001
1	 9.588642626988490e-001	 2.838646710056857e-001	 2.565617289329604e+001
1	 9.558631665059839e-001	 2.938118898076575e-001	 2.528163504487546e+001
1	 1.007090865697531e+000	 1.995317449331146e-001	 2.704561601081050e+001
1	 1.005018255988954e+000	 2.097217326205241e-001	 2.680491604267132e+001
1	 1.002835793940866e+000	 2.199209794745262e-001	 2.655359829987851e+001
1	 1.000542855631143e+000	 2.301278450974099e-001	 2.629165583257517e+001
1	 9.981388471261151e-001	 2.403406668682316e-001	 2.601909899556600e+001
1	 9.956232052629930e-001	 2.505577605546664e-001	 2.573595584541475e+001
1	 9.929953984199387e-001	 2.607774209541257e-001	 2.544227252002838e+001
1	 9.902549272725891e-001	 2.709979225639719e-001	 2.513811359955539e+001
1	 9.874013255358587e-001	 2.812175202806164e-001	 2.482356244743526e+001
1	 9.844341606898325e-001	 2.914344501272310e-001	 2.449872153045181e+001
1	 9.813530346885656e-001	 3.016469300097510e-001	 2.416371271665680e+001
1	 1.033249600264920e+000	 2.047144927194936e-001	 2.580459501444714e+001
1	 1.031123155447073e+000	 2.151691607766280e-001	 2.558965191477549e+001
1	 1.028884004924326e+000	 2.256333285029850e-001	 2.536527819538257e+001
1	 1.026531508568457e+000	 2.361053128922975e-001	 2.513143176698844e+001
1	 1.024065057018631e+000	 2.465834081378283e-001	 2.488808684406300e+001
1	 1.021484072484157e+000	 2.570658862601133e-001	 2.463523436542078e+001
1	 1.018788009534555e+000	 2.675509977647321e-001	 2.437288239894537e+001
1	 1.015976355875734e+000	 2.780369723299312e-001	 2.410105652926082e+001
1	 1.013048633111059e+000	 2.885220195238800e-001	 2.381980022717406e+001
1	 1.010004397486102e+000	 2.990043295512848e-001	 2.352917519972094e+001
1	 1.006843240615852e+000	 3.094820740290298e-001	 2.322926171966300e+001
1	 1.059408635658941e+000	 2.098973001076576e-001	 2.476000544485889e+001
1	 1.057228355112487e+000	 2.206166515784633e-001	 2.456703636698493e+001
1	 1.054932515462900e+000	 2.313457432239042e-001	 2.436578991204396e+001
1	 1.052520460375683e+000	 2.420828494286583e-001	 2.415618251018590e+001
1	 1.049991565062670e+000	 2.528262211996881e-001	 2.393814589812237e+001
1	 1.047345237105108e+000	 2.635740868098780e-001	 2.371162757275324e+001
1	 1.044580917263728e+000	 2.743246524724556e-001	 2.347659123076909e+001
1	 1.041698080274572e+000	 2.850761030460262e-001	 2.323301719302362e+001
1	 1.038696235629327e+000	 2.958266027699861e-001	 2.298090281246954e+001
1	 1.035574928338933e+000	 3.065742960300392e-001	 2.272026286445927e+001
1	 1.032333739679205e+000	 3.173173081534753e-001	 2.245112991821825e+001
1	 1.085567926100498e+000	 2.150801580274720e-001	 2.388650735218880e+001
1	 1.083333809300356e+000	 2.260641954926755e-001	 2.371178664929909e+001
1	 1.080981279971006e+000	 2.370582136402891e-001	 2.352991221834936e+001
1	 1.078509665571524e+000	 2.480604442455113e-001	 2.334075298762910e+001
1	 1.075918325886272e+000	 2.590690951285748e-001	 2.314419219756955e+001
1	 1.073206653868300e+000	 2.700823508142762e-001	 2.294012789662098e+001
1	 1.070374076469423e+000	 2.810983732230515e-001	 2.272847342515012e+001
1	 1.067420055455696e+000	 2.921153023934179e-001	 2.250915788611367e+001
1	 1.064344088207020e+000	 3.031312572355476e-001	 2.228212660126055e+001
1	 1.061145708499603e+000	 3.141443363156864e-001	 2.204734155161457e+001
1	 1.057824487269989e+000	 3.251526186710685e-001	 2.180478180099235e+001
1	 1.111727425810493e+000	 2.202630574088016e-001	 2.316114515611197e+001
1	 1.109439472325839e+000	 2.315117829859109e-001	 2.300099901801564e+001
1	 1.107030252863060e+000	 2.427707297551454e-001	 2.283479711957244e+001
1	 1.104499078674684e+000	 2.540380868818759e-001	 2.266235515558939e+001
1	 1.101845294117478e+000	 2.653120189992517e-001	 2.248350214049872e+001
1	 1.099068277516187e+000	 2.765906668836241e-001	 2.229808095541763e+001
1	 1.096167442013604e+000	 2.878721481622747e-001	 2.210594888546575e+001
1	 1.093142236405699e+000	 2.991545580532665e-001	 2.190697814604676e+001
1	 1.089992145960496e+000	 3.104359701371767e-001	 2.170105639678972e+001
1	 1.086716693219385e+000	 3.217144371604182e-001	 2.148808724183991e+001
1	 1.083315438779566e+000	 3.329879918697909e-001	 2.126799071518447e+001
1	 1.137887089009828e+000	 2.254459891815114e-001	 2.256307363791991e+001
1	 1.135545298504095e+000	 2.369594045248153e-001	 2.241387534330546e+001
1	 1.133079388553482e+000	 2.484832815714788e-001	 2.225969712750738e+001
1	 1.130488654203866e+000	 2.600157668767711e-001	 2.210029598316973e+001
1	 1.127772424384332e+000	 2.715549818864824e-001	 2.193544123116226e+001
1	 1.124930062791226e+000	 2.830990236282377e-001	 2.176491512749410e+001
1	 1.121960968758238e+000	 2.946459654358807e-001	 2.158851346291289e+001
1	 1.118864578111176e+000	 3.061938577067328e-001	 2.140604615383255e+001
1	 1.115640364006115e+000	 3.177407286914862e-001	 2.121733782321639e+001
1	 1.112287837749557e+000	 3.292845853164265e-001	 2.102222837002764e+001
1	 1.108806549599299e+000	 3.408234140376239e-001	 2.082057352585058e+001
1	 1.164046869919403e+000	 2.306289442754662e-001	 2.207332085594953e+001
1	 1.161651242150283e+000	 2.424070505760348e-001	 2.193148655719381e+001
1	 1.159128641456689e+000	 2.541958590922946e-001	 2.178572928138172e+001
1	 1.156478346677774e+000	 2.659934737692166e-001	 2.163574208952290e+001
1	 1.153699671314873e+000	 2.777979728650303e-001	 2.148122937985388e+001
1	 1.150791964435870e+000	 2.896074096584330e-001	 2.132190756304075e+001
1	 1.147754611565289e+000	 3.014198131896247e-001	 2.115750573268065e+001
1	 1.144587035558720e+000	 3.132331890349775e-001	 2.098776632967103e+001
1	 1.141288697460231e+000	 3.250455201150881e-001	 2.081244579898981e+001
1	 1.137859097341395e+000	 3.368547675359033e-001	 2.063131523740903e+001
1	 1.134297775120553e+000	 3.486588714625484e-001	 2.044416103064655e+001
1	 1.190206722760122e+000	 2.358119136205311e-001	 2.167458230708123e+001
1	 1.187757257579563e+000	 2.478547116062154e-001	 2.153656727742393e+001
1	 1.185177965987098e+000	 2.599084523205984e-001	 2.139567026914343e+001
1	 1.182468110615113e+000	 2.719711970982311e-001	 2.125151540021985e+001
1	 1.179626989537143e+000	 2.840409810096591e-001	 2.110373713460822e+001
1	 1.176653937192574e+000	 2.961158135845261e-001	 2.095198103394934e+001
1	 1.173548325296723e+000	 3.081936795692618e-001	 2.079590450737581e+001
1	 1.170309563734924e+000	 3.202725397191609e-001	 2.063517755789512e+001
1	 1.166937101439205e+000	 3.323503316245949e-001	 2.046948352379833e+001
1	 1.163430427246173e+000	 3.444249705710407e-001	 2.029851981351254e+001
1	 1.159789070734689e+000	 3.564943504325457e-001	 2.012199863228963e+001
1	 1.216366601752886e+000	 2.409948881465711e-001	 2.135104163321946e+001
1	 1.213863299107094e+000	 2.533023780820028e-001	 2.121333691667708e+001
1	 1.211227316559127e+000	 2.656210512593958e-001	 2.107377796995725e+001
1	 1.208457900534583e+000	 2.779489264028339e-001	 2.093191515582359e+001
1	 1.205554333679185e+000	 2.902839953951322e-001	 2.078730819091152e+001
1	 1.202515935803794e+000	 3.026242240168329e-001	 2.063952698196900e+001
1	 1.199342064814506e+000	 3.149675527205472e-001	 2.048815246316908e+001
1	 1.196032117626381e+000	 3.273118974404439e-001	 2.033277743287724e+001
1	 1.192585531059394e+000	 3.396551504366194e-001	 2.017300738821409e+001
1	 1.189001782715169e+000	 3.519951811740305e-001	 2.000846135571498e+001
1	 1.185280391833070e+000	 3.643298372355971e-001	 1.983877271635315e+001
1	 1.242526461118596e+000	 2.461778587834510e-001	 2.108821396299991e+001
1	 1.239969321048035e+000	 2.587500404700431e-001	 2.094734337617488e+001
1	 1.237276647587192e+000	 2.713336459116922e-001	 2.080563552638371e+001
1	 1.234447670954891e+000	 2.839266512220444e-001	 2.066256239130559e+001
1	 1.231481658369039e+000	 2.965270050962133e-001	 2.051760430898826e+001
1	 1.228377915011984e+000	 3.091326295656696e-001	 2.037025090646088e+001
1	 1.225135784980602e+000	 3.217414207892365e-001	 2.022000203257182e+001
1	 1.221754652219686e+000	 3.343512498799868e-001	 2.006636869332456e+001
1	 1.218233941437156e+000	 3.469599637677736e-001	 1.990887398793250e+001
1	 1.214573118999658e+000	 3.595653860970648e-001	 1.974705404376448e+001
1	 1.210771693807061e+000	 3.721653181596841e-001	 1.958045894830794e+001
1	 9.558631665059839e-001	 2.938118898076575e-001	 2.528163504487546e+001
1	 9.527507155138414e-001	 3.037530213952426e-001	 2.489638798325501e+001
1	 9.495265899749485e-001	 3.136862962449285e-001	 2.450091290501525e+001
1	 9.461905054388915e-001	 3.236099293720238e-001	 2.409548504078967e+001
1	 9.427422136050960e-001	 3.335221213151299e-001	 2.368041395001904e+001
1	 9.391815029145867e-001	 3.434210590039753e-001	 2.325604379527035e+001
1	 9.355081991183115e-001	 3.533049166519174e-001	 2.282275356597942e+001
1	 9.317221658209342e-001	 3.631718566724364e-001	 2.238095725006130e+001
1	 9.278233049990162e-001	 3.730200306188906e-001	 2.193110395192138e+001
1	 9.238115574925391e-001	 3.828475801467559e-001	 2.147367795549342e+001
1	 9.196869034687286e-001	 3.926526379975132e-001	 2.100919873103423e+001
1	 9.813530346885656e-001	 3.016469300097510e-001	 2.416371271665680e+001
1	 9.781575844051823e-001	 3.118531603513708e-001	 2.381925835309049e+001
1	 9.748474815655582e-001	 3.220513244408870e-001	 2.346612109017287e+001
1	 9.714224341338948e-001	 3.322395896935918e-001	 2.310451994892903e+001
1	 9.678821871882342e-001	 3.424161086620216e-001	 2.273470349601274e+001
1	 9.642265235280021e-001	 3.525790199269324e-001	 2.235695010785967e+001
1	 9.604552642574866e-001	 3.627264490136036e-001	 2.197156819161556e+001
1	 9.565682693441295e-001	 3.728565093327700e-001	 2.157889636144719e+001
1	 9.525654381505306e-001	 3.829673031454391e-001	 2.117930356891947e+001
1	 9.484467099390737e-001	 3.930569225507893e-001	 2.077318918620020e+001
1	 9.442120643481214e-001	 4.031234504962961e-001	 2.036098304094180e+001
1	 1.006843240615852e+000	 3.094820740290298e-001	 2.322926171966300e+001
1	 1.003564789941372e+000	 3.199534066371334e-001	 2.292096845453894e+001
1	 1.000168708661770e+000	 3.304164634760867e-001	 2.260523783050786e+001
1	 9.966546971557494e-001	 3.408693643605512e-001	 2.228223397362547e+001
1	 9.930224938798730e-001	 3.513102138563777e-001	 2.195214671953919e+001
1	 9.892718759918837e-001	 3.617371021947266e-001	 2.161519188020043e+001
1	 9.854026599493356e-001	 3.721481062121692e-001	 2.127161147337414e+001
1	 9.814147020823929e-001	 3.825412903160631e-001	 2.092167391366730e+001
1	 9.773078991396467e-001	 3.929147074744282e-001	 2.056567416386108e+001
1	 9.730821888058525e-001	 4.032664002295056e-001	 2.020393384539959e+001
1	 9.687375501904937e-001	 4.135944017341220e-001	 1.983680130695905e+001
1	 1.032333739679205e+000	 3.173173081534753e-001	 2.245112991821825e+001
1	 1.028972287659046e+000	 3.280537460765929e-001	 2.217451714787417e+001
1	 1.025490226950689e+000	 3.387816987110449e-001	 2.189146933244346e+001
1	 1.021887250347247e+000	 3.494992382703296e-001	 2.160209689958075e+001
1	 1.018163089683721e+000	 3.602044213330747e-001	 2.130653304663290e+001
1	 1.014317516476093e+000	 3.708952897803031e-001	 2.100493402206279e+001
1	 1.010350342535127e+000	 3.815698717593336e-001	 2.069747937442106e+001
1	 1.006261420553655e+000	 3.922261826735971e-001	 2.038437216765403e+001
1	 1.002050644666225e+000	 4.028622261975743e-001	 2.006583916158774e+001
1	 9.977179509799359e-001	 4.134759953160150e-001	 1.974213095648737e+001
1	 9.932633180753756e-001	 4.240654733865391e-001	 1.941352210065110e+001
1	 1.057824487269989e+000	 3.251526186710685e-001	 2.180478180099235e+001
1	 1.054380033094837e+000	 3.361541644938118e-001	 2.155550538461218e+001
1	 1.050811992119419e+000	 3.471470155062801e-001	 2.130060392889212e+001
1	 1.047120049551180e+000	 3.581291963203556e-001	 2.104013525292999e+001
1	 1.043303930603482e+000	 3.690987155269894e-001	 2.077417785566966e+001
1	 1.039363401150492e+000	 3.800535666566079e-001	 2.050283122367108e+001
1	 1.035298268356127e+000	 3.909917291668159e-001	 2.022621610996026e+001
1	 1.031108381275849e+000	 4.019111694566533e-001	 1.994447478276710e+001
1	 1.026793631430127e+000	 4.128098419065948e-001	 1.965777124300303e+001
1	 1.022353953348383e+000	 4.236856899434282e-001	 1.936629140938038e+001
1	 1.017789325082299e+000	 4.345366471290956e-001	 1.907024327012999e+001
1	 1.083315438779566e+000	 3.329879918697909e-001	 2.126799071518447e+001
1	 1.079787981785380e+000	 3.442546477128530e-001	 2.104183014955511e+001
1	 1.076133959855069e+000	 3.555123992223093e-001	 2.081070836790679e+001
1	 1.072353050610340e+000	 3.667592234080574e-001	 2.057463157391328e+001
1	 1.068444972642865e+000	 3.779930808729982e-001	 2.033362536955909e+001
1	 1.064409486184943e+000	 3.892119167965865e-001	 2.008773510042150e+001
1	 1.060246393753604e+000	 4.004136619463353e-001	 1.983702617439376e+001
1	 1.055955540766905e+000	 4.115962337165134e-001	 1.958158435263112e+001
1	 1.051536816131212e+000	 4.227575371932062e-001	 1.932151601154189e+001
1	 1.046990152798254e+000	 4.338954662448556e-001	 1.905694837468737e+001
1	 1.042315528290796e+000	 4.450079046373393e-001	 1.878802971350459e+001
1	 1.108806549599299e+000	 3.408234140376239e-001	 2.082057352585058e+001
1	 1.105196089267309e+000	 3.523551815577791e-001	 2.061342059255303e+001
1	 1.101456085844741e+000	 3.638778352196507e-001	 2.040186596757405e+001
1	 1.097586209367518e+000	 3.753893044308633e-001	 2.018586514444651e+001
1	 1.093586171805575e+000	 3.868875018059776e-001	 1.996539250389044e+001
1	 1.089455727749307e+000	 3.983703241731845e-001	 1.974044170734791e+001
1	 1.085194675068824e+000	 4.098356536096109e-001	 1.951102606519134e+001
1	 1.080802855544754e+000	 4.212813585044586e-001	 1.927717887831892e+001
1	 1.076280155469341e+000	 4.327052946491254e-001	 1.903895375188623e+001
1	 1.071626506216607e+000	 4.441053063534079e-001	 1.879642487996271e+001
1	 1.066841884780396e+000	 4.554792275868185e-001	 1.854968729994615e+001
1	 1.134297775120553e+000	 3.486588714625484e-001	 2.044416103064655e+001
1	 1.130604311077258e+000	 3.604557518526529e-001	 2.025200971726764e+001
1	 1.126778325775542e+000	 3.722433088588220e-001	 2.005595005528745e+001
1	 1.122819481665506e+000	 3.840194242862013e-001	 1.985588765339725e+001
1	 1.118727484095319e+000	 3.957819627608041e-001	 1.965174723227779e+001
1	 1.114502082013446e+000	 4.075287727593477e-001	 1.944347307674029e+001
1	 1.110143068643055e+000	 4.192576876683622e-001	 1.923102946268418e+001
1	 1.105650282127328e+000	 4.309665268717703e-001	 1.901440105747506e+001
1	 1.101023606144375e+000	 4.426530968660690e-001	 1.879359329237934e+001
1	 1.096262970490503e+000	 4.543151924021956e-001	 1.856863270573015e+001
1	 1.091368351630633e+000	 4.659505976530814e-001	 1.833956725554146e+001
1	 1.159789070734689e+000	 3.564943504325457e-001	 2.012199863228963e+001
1	 1.156012602751863e+000	 3.685563444215371e-001	 1.994093615974847e+001
1	 1.152100635334577e+000	 3.806088055003410e-001	 1.975642726612896e+001
1	 1.148052823347096e+000	 3.926495678714999e-001	 1.956832842759809e+001
1	 1.143868865515805e+000	 4.046764481723542e-001	 1.937651616159293e+001
1	 1.139548505147221e+000	 4.166872465280218e-001	 1.918088754756812e+001
1	 1.135091530817564e+000	 4.286797476343089e-001	 1.898136072165011e+001
1	 1.130497777032559e+000	 4.406517218697301e-001	 1.877787534365078e+001
1	 1.125767124856174e+000	 4.526009264357542e-001	 1.857039303492493e+001
1	 1.120899502507002e+000	 4.645251065243293e-001	 1.835889778559588e+001
1	 1.115894885921037e+000	 4.764219965116759e-001	 1.814339632971471e+001
1	 1.185280391833070e+000	 3.643298372355971e-001	 1.983877271635315e+001
1	 1.181420919827755e+000	 3.766569450884943e-001	 1.966497152969805e+001
1	 1.177422970208952e+000	 3.889743105047255e-001	 1.948818620794572e+001
1	 1.173286190255079e+000	 4.012797200841873e-001	 1.930822478032294e+001
1	 1.169010272070738e+000	 4.135709424755045e-001	 1.912491692235043e+001
1	 1.164594953320496e+000	 4.258457294521522e-001	 1.893811455487501e+001
1	 1.160040017933619e+000	 4.381018170191692e-001	 1.874769241507770e+001
1	 1.155345296778377e+000	 4.503369265496190e-001	 1.855354859771957e+001
1	 1.150510668304600e+000	 4.625487659498976e-001	 1.835560506492135e+001
1	 1.145536059153163e+000	 4.747350308529196e-001	 1.815380812281317e+001
1	 1.140421444731140e+000	 4.868934058381502e-001	 1.794812886343621e+001
1	 1.210771693807061e+000	 3.721653181596841e-001	 1.958045894830794e+001
1	 1.206829217841571e+000	 3.847575396775873e-001	 1.941016954934938e+001
1	 1.202745286085772e+000	 3.973398092324930e-001	 1.923738775691269e+001
1	 1.198519538232249e+000	 4.099098658216919e-001	 1.906187377772590e+001
1	 1.194151659763825e+000	 4.224654301051316e-001	 1.888341171927127e+001
1	 1.189641382703130e+000	 4.350042055046846e-001	 1.870181027648505e+001
1	 1.184988486332486e+000	 4.475238793346629e-001	 1.851690338751133e+001
1	 1.180192797882715e+000	 4.600221239627187e-001	 1.832855085654290e+001
1	 1.175254193189512e+000	 4.724965980002162e-001	 1.813663894181911e+001
1	 1.170172597316046e+000	 4.849449475210771e-001	 1.794108090689522e+001
1	 1.164947985140473e+000	 4.973648073080525e-001	 1.774181753334703e+001
1	 9.196869034687286e-001	 3.926526379975132e-001	 2.100919873103423e+001
1	 9.154500070382964e-001	 4.024318639757797e-001	 2.053939789631150e+001
1	 9.111003186645378e-001	 4.121848497096857e-001	 2.006568715217732e+001
1	 9.066379396471509e-001	 4.219097086716465e-001	 1.958834792126650e+001
1	 9.020630121438827e-001	 4.316045495771123e-001	 1.910766816554700e+001
1	 8.973757194803050e-001	 4.412674774614075e-001	 1.862394229873300e+001
1	 8.925762864264073e-001	 4.508965947721493e-001	 1.813747108919241e+001
1	 8.876649794392211e-001	 4.604900024760816e-001	 1.764856155328865e+001
1	 8.826421068707412e-001	 4.700458011791233e-001	 1.715752683911162e+001
1	 8.775080191404551e-001	 4.795620922583881e-001	 1.666468610057724e+001
1	 8.722631088718382e-001	 4.890369790048946e-001	 1.617036436189085e+001
1	 9.442120643481214e-001	 4.031234504962961e-001	 2.036098304094180e+001
1	 9.398621831981485e-001	 4.131634577139968e-001	 1.994372403106214e+001
1	 9.353965022980482e-001	 4.231765249420751e-001	 1.952223861412774e+001
1	 9.308151256488801e-001	 4.331607153452563e-001	 1.909685567546302e+001
1	 9.261181991993086e-001	 4.431140872044484e-001	 1.866791477713273e+001
1	 9.213059111636406e-001	 4.530346950222970e-001	 1.823576599862381e+001
1	 9.163784923057911e-001	 4.629205906447352e-001	 1.780076975939879e+001
1	 9.113362161883819e-001	 4.727698243973321e-001	 1.736329662329535e+001
1	 9.061793993862045e-001	 4.825804462352118e-001	 1.692372708479336e+001
1	 9.009084016633494e-001	 4.923505069052576e-001	 1.648245133721003e+001
1	 8.955236261133459e-001	 5.020780591192977e-001	 1.603986902292706e+001
1	 9.687375501904937e-001	 4.135944017341220e-001	 1.983680130695905e+001
1	 9.642746828240307e-001	 4.238951936465678e-001	 1.946483397776875e+001
1	 9.596930078607578e-001	 4.341683458149260e-001	 1.908846495328503e+001
1	 9.549926320031292e-001	 4.444118710955527e-001	 1.870805344408739e+001
1	 9.501737049907747e-001	 4.546237773341319e-001	 1.832397309545830e+001
1	 9.452364199267954e-001	 4.648020684999468e-001	 1.793661177915570e+001
1	 9.401810135691120e-001	 4.749447458365615e-001	 1.754637135935194e+001
1	 9.350077665860249e-001	 4.850498090276872e-001	 1.715366743272243e+001
1	 9.297170037752289e-001	 4.951152573769662e-001	 1.675892904272754e+001
1	 9.243090942455403e-001	 5.051390910003677e-001	 1.636259836819587e+001
1	 9.187844515606749e-001	 5.151193120298433e-001	 1.596513038637798e+001
1	 9.932633180753756e-001	 4.240654733865391e-001	 1.941352210065109e+001
1	 9.886874631931890e-001	 4.346270529926760e-001	 1.908026104922457e+001
1	 9.839897928328978e-001	 4.451602930922763e-001	 1.874254208145302e+001
1	 9.791704163983789e-001	 4.556631562327355e-001	 1.840073891892086e+001
1	 9.742294874202678e-001	 4.661335998239209e-001	 1.805524312352275e+001
1	 9.691672038905160e-001	 4.765695773011601e-001	 1.770646386211693e+001
1	 9.639838085611114e-001	 4.869690393050531e-001	 1.735482763851400e+001
1	 9.586795892061151e-001	 4.973299348768571e-001	 1.700077799275721e+001
1	 9.532548788462153e-001	 5.076502126681390e-001	 1.664477516772931e+001
1	 9.477100559350588e-001	 5.179278221633580e-001	 1.628729574319909e+001
1	 9.420455445066669e-001	 5.281607149139946e-001	 1.592883223750553e+001
1	 1.017789325082299e+000	 4.345366471290956e-001	 1.907024327012999e+001
1	 1.013100481582870e+000	 4.453590169715063e-001	 1.876970377967231e+001
1	 1.008286814694700e+000	 4.561523475381652e-001	 1.846474920995167e+001
1	 1.003348436523111e+000	 4.669145510670051e-001	 1.815575317489510e+001
1	 9.982855043897772e-001	 4.776435345315740e-001	 1.784311020647094e+001
1	 9.930982211755461e-001	 4.883372008327393e-001	 1.752723551308262e+001
1	 9.877868356265307e-001	 4.989934500076331e-001	 1.720856469929671e+001
1	 9.823516426226164e-001	 5.096101804545526e-001	 1.688755344680192e+001
1	 9.767929834075639e-001	 5.201852901724831e-001	 1.656467715659026e+001
1	 9.711112457799382e-001	 5.307166780138688e-001	 1.624043055244584e+001
1	 9.653068642441640e-001	 5.412022449492142e-001	 1.591532724592363e+001
1	 1.042315528290796e+000	 4.450079046373393e-001	 1.878802971350459e+001
1	 1.037513695270321e+000	 4.560910668022424e-001	 1.851477122980500e+001
1	 1.032584030926394e+000	 4.671444899166304e-001	 1.823722143523358e+001
1	 1.027526650065803e+000	 4.781660359085613e-001	 1.795574030038263e+001
1	 1.022341713801290e+000	 4.891535613148496e-001	 1.767071148591611e+001
1	 1.017029429902632e+000	 5.001049185014880e-001	 1.738254211472140e+001
1	 1.011590053110111e+000	 5.110179569017253e-001	 1.709166250018295e+001
1	 1.006023885409494e+000	 5.218905242704838e-001	 1.679852583038602e+001
1	 1.000331276267675e+000	 5.327204679537509e-001	 1.650360780816396e+001
1	 9.945126228282093e-001	 5.435056361715400e-001	 1.620740624701114e+001
1	 9.885683700660078e-001	 5.542438793129652e-001	 1.591044062299251e+001
1	 1.066841884780396e+000	 4.554792275868185e-001	 1.854968729994614e+001
1	 1.061927061532788e+000	 4.668231837040688e-001	 1.829876340116664e+001
1	 1.056881399008212e+000	 4.781367009917107e-001	 1.804373643027650e+001
1	 1.051705014714938e+000	 4.894175910676043e-001	 1.778494016216374e+001
1	 1.046398073556794e+000	 5.006636600315062e-001	 1.752273454825452e+001
1	 1.040960788192517e+000	 5.118727097142094e-001	 1.725750552167541e+001
1	 1.035393419356594e+000	 5.230425389447539e-001	 1.698966475407841e+001
1	 1.029696276140712e+000	 5.341709448343608e-001	 1.671964936381863e+001
1	 1.023869716234950e+000	 5.452557240756947e-001	 1.644792157528942e+001
1	 1.017914146127906e+000	 5.562946742560117e-001	 1.617496832933816e+001
1	 1.011830021265041e+000	 5.672855951827098e-001	 1.590130084480649e+001
1	 1.091368351630633e+000	 4.659505976530814e-001	 1.833956725554146e+001
1	 1.086340537647517e+000	 4.775553488961694e-001	 1.810648124034464e+001
1	 1.081178876420386e+000	 4.891289615274445e-001	 1.786952987992504e+001
1	 1.075883488158995e+000	 5.006691968543336e-001	 1.762900909591091e+001
1	 1.070454541558279e+000	 5.121738105393019e-001	 1.738524320569904e+001
1	 1.064892254165948e+000	 5.236405538777060e-001	 1.713858477918337e+001
1	 1.059196892710721e+000	 5.350671750941421e-001	 1.688941444340802e+001
1	 1.053368773390236e+000	 5.464514206558940e-001	 1.663814063468780e+001
1	 1.047408262117787e+000	 5.577910366020672e-001	 1.638519929786045e+001
1	 1.041315774727058e+000	 5.690837698869242e-001	 1.613105353246214e+001
1	 1.035091777134104e+000	 5.803273697359110e-001	 1.587619318574724e+001
1	 1.115894885921037e+000	 4.764219965116759e-001	 1.814339632971471e+001
1	 1.110754080891756e+000	 4.882875435977283e-001	 1.792406168327379e+001
1	 1.105476420643145e+000	 5.001212522878700e-001	 1.770113524055595e+001
1	 1.100062028086456e+000	 5.119208335789501e-001	 1.747486422840581e+001
1	 1.094511075707730e+000	 5.236839926959950e-001	 1.724552623814707e+001
1	 1.088823785943670e+000	 5.354084303987814e-001	 1.701342915179805e+001
1	 1.083000431517234e+000	 5.470918443073142e-001	 1.677891101316538e+001
1	 1.077041335732030e+000	 5.587319302447943e-001	 1.654233984318189e+001
1	 1.070946872724587e+000	 5.703263835966208e-001	 1.630411339898334e+001
1	 1.064717467673700e+000	 5.818729006839173e-001	 1.606465887635095e+001
1	 1.058353596966040e+000	 5.933691801500317e-001	 1.582443255528344e+001
1	 1.140421444731140e+000	 4.868934058381502e-001	 1.794812886343621e+001
1	 1.135167648542750e+000	 4.990197490279299e-001	 1.773883397227331e+001
1	 1.129773989156722e+000	 5.111135540370256e-001	 1.752624416438221e+001
1	 1.124240592185799e+000	 5.231724815516530e-001	 1.731054787600719e+001
1	 1.118567633907137e+000	 5.351941863593440e-001	 1.709196564133951e+001
1	 1.112755341646426e+000	 5.471763186842384e-001	 1.687075010556162e+001
1	 1.106803994120874e+000	 5.591165255416939e-001	 1.664718598038620e+001
1	 1.100713921740057e+000	 5.710124521107712e-001	 1.642158994125256e+001
1	 1.094485506863751e+000	 5.828617431231078e-001	 1.619431046547515e+001
1	 1.088119184015863e+000	 5.946620442666315e-001	 1.596572761077580e+001
1	 1.081615440053690e+000	 6.064110036025343e-001	 1.573625273377131e+001
1	 1.164947985140473e+000	 4.973648073080525e-001	 1.774181753334703e+001
1	 1.159581197877747e+000	 5.097519464059583e-001	 1.753919411259880e+001
1	 1.154071539441348e+000	 5.221058475389500e-001	 1.733358454474283e+001
1	 1.148419138145507e+000	 5.344241210826426e-001	 1.712510906237836e+001
1	 1.142624174058487e+000	 5.467043713871075e-001	 1.691392150826805e+001
1	 1.136686879394963e+000	 5.589441981408801e-001	 1.670020945202120e+001
1	 1.130607538866382e+000	 5.711411977547047e-001	 1.648419424752722e+001
1	 1.124386489988285e+000	 5.832929647635358e-001	 1.626613103007111e+001
1	 1.118024123343679e+000	 5.953970932452811e-001	 1.604630865219767e+001
1	 1.111520882801578e+000	 6.074511782547065e-001	 1.582504955752836e+001
1	 1.104877265689896e+000	 6.194528172708821e-001	 1.560270959187931e+001
1	 8.722631088718382e-001	 4.890369790048946e-001	 1.617036436189085e+001
1	 8.669069994773565e-001	 4.984699794031351e-001	 1.567387583519187e+001
1	 8.614409475685221e-001	 5.078577791162044e-001	 1.517517526285010e+001
1	 8.558654737743155e-001	 5.171984938406529e-001	 1.467535714929949e+001
1	 8.501811411206635e-001	 5.264902458615940e-001	 1.417555120764676e+001
1	 8.443885549780591e-001	 5.357311652289506e-001	 1.367692111031846e+001
1	 8.384883629704417e-001	 5.449193909360230e-001	 1.318066316723194e+001
1	 8.324812548450978e-001	 5.540530720989080e-001	 1.268800493328377e+001
1	 8.263679623034138e-001	 5.631303691352766e-001	 1.220020374715357e+001
1	 8.201492587923702e-001	 5.721494549410067e-001	 1.171854520361144e+001
1	 8.138259592567365e-001	 5.811085160631598e-001	 1.124434156171221e+001
1	 8.955236261133459e-001	 5.020780591192977e-001	 1.603986902292706e+001
1	 8.900246861062577e-001	 5.117626080080405e-001	 1.559592035921619e+001
1	 8.844128717634381e-001	 5.214007508515943e-001	 1.515092820673578e+001
1	 8.786887175973519e-001	 5.309905530979978e-001	 1.470569387797885e+001
1	 8.728528016480036e-001	 5.405300869595504e-001	 1.426104495340361e+001
1	 8.669057454291613e-001	 5.500174326204224e-001	 1.381783441766178e+001
1	 8.608482138348056e-001	 5.594506794466538e-001	 1.337693974224303e+001
1	 8.546809150055601e-001	 5.688279271970236e-001	 1.293926191571736e+001
1	 8.484046001549337e-001	 5.781472872332617e-001	 1.250572442290516e+001
1	 8.420200633552519e-001	 5.874068837280611e-001	 1.207727217444375e+001
1	 8.355281412832460e-001	 5.966048548693305e-001	 1.165487038836433e+001
1	 9.187844515606749e-001	 5.151193120298433e-001	 1.596513038637797e+001
1	 9.131426790481645e-001	 5.250554127421397e-001	 1.556680780564934e+001
1	 9.073851003396593e-001	 5.349439020332115e-001	 1.516808832289347e+001
1	 9.015122638313119e-001	 5.447827951019327e-001	 1.476953448554881e+001
1	 8.955247625774230e-001	 5.545701140871349e-001	 1.437172812256864e+001
1	 8.894232342352666e-001	 5.643038893065864e-001	 1.397526980013019e+001
1	 8.832083609691112e-001	 5.739821604984203e-001	 1.358077823878086e+001
1	 8.768808693131817e-001	 5.836029780634550e-001	 1.318888969268896e+001
1	 8.704415299933852e-001	 5.931644043068413e-001	 1.280025729176755e+001
1	 8.638911577076854e-001	 6.026645146774504e-001	 1.241555034754439e+001
1	 8.572306108650805e-001	 6.121013990034108e-001	 1.203545362374743e+001
1	 9.420455445066669e-001	 5.281607149139946e-001	 1.592883223750553e+001
1	 9.362609378459221e-001	 5.383483703426760e-001	 1.556978232048421e+001
1	 9.303575930951711e-001	 5.484872089601937e-001	 1.521055759141599e+001
1	 9.243360725344287e-001	 5.585751957156877e-001	 1.485153245706232e+001
1	 9.181969842324798e-001	 5.686103026739565e-001	 1.449309546671925e+001
1	 9.119409819903063e-001	 5.785905102858032e-001	 1.413564902439125e+001
1	 9.055687652426797e-001	 5.885138086608933e-001	 1.377960907371999e+001
1	 8.990810789176524e-001	 5.983781988415262e-001	 1.342540475591481e+001
1	 8.924787132537716e-001	 6.081816940757199e-001	 1.307347804099871e+001
1	 8.857625035748910e-001	 6.179223210879751e-001	 1.272428333275669e+001
1	 8.789333300225430e-001	 6.275981213460914e-001	 1.237828704784235e+001
1	 9.653068642441640e-001	 5.412022449492142e-001	 1.591532724592363e+001
1	 9.593794220423779e-001	 5.516414575468932e-001	 1.558970292723786e+001
1	 9.533303098279593e-001	 5.620306479316777e-001	 1.526378946723993e+001
1	 9.471601037649345e-001	 5.723677308024930e-001	 1.493782032052332e+001
1	 9.408694269367317e-001	 5.826506281496251e-001	 1.461203969621832e+001
1	 9.344589492882119e-001	 5.928772705564342e-001	 1.428670246640170e+001
1	 9.279293875248309e-001	 6.030455985036433e-001	 1.396207405502827e+001
1	 9.212815049686624e-001	 6.131535636745612e-001	 1.363843030730010e+001
1	 9.145161113710949e-001	 6.231991302596033e-001	 1.331605733943460e+001
1	 9.076340626820889e-001	 6.331802762584338e-001	 1.299525136884321e+001
1	 9.006362607759364e-001	 6.430949947780622e-001	 1.267631852477867e+001
1	 9.885683700660078e-001	 5.542438793129652e-001	 1.591044062299251e+001
1	 9.824980911803787e-001	 5.649346510920354e-001	 1.561285353296363e+001
1	 9.763032103360100e-001	 5.755741952468013e-001	 1.531460633969913e+001
1	 9.699843175810624e-001	 5.861603762255793e-001	 1.501583562182851e+001
1	 9.635420510137376e-001	 5.966910659437500e-001	 1.471668698810642e+001
1	 9.569770967229159e-001	 6.071641451168404e-001	 1.441731512435258e+001
1	 9.502901886848862e-001	 6.175775045962407e-001	 1.411788382526833e+001
1	 9.434821086159001e-001	 6.279290467058833e-001	 1.381856601080142e+001
1	 9.365536857803578e-001	 6.382166865781969e-001	 1.351954372676533e+001
1	 9.295057967545006e-001	 6.484383534876271e-001	 1.322100812945380e+001
1	 9.223393651455635e-001	 6.585919921800143e-001	 1.292315945402956e+001
1	 1.011830021265041e+000	 5.672855951827098e-001	 1.590130084480649e+001
1	 1.005616904802770e+000	 5.782279277153465e-001	 1.562677912470772e+001
1	 9.992762544173092e-001	 5.891178272047017e-001	 1.535104215506084e+001
1	 9.928086740410453e-001	 5.999531078481772e-001	 1.507417088885655e+001
1	 9.862148167870558e-001	 6.107315914859410e-001	 1.479625516903566e+001
1	 9.794953848883494e-001	 6.214511089653820e-001	 1.451739385854575e+001
1	 9.726511295921653e-001	 6.321095015082564e-001	 1.423769495634142e+001
1	 9.656828510090560e-001	 6.427046220788174e-001	 1.395727569884133e+001
1	 9.585913979165626e-001	 6.532343367512064e-001	 1.367626264638587e+001
1	 9.513776675173452e-001	 6.636965260743543e-001	 1.339479175426928e+001
1	 9.440426051517268e-001	 6.740890864326372e-001	 1.311300842795527e+001
1	 1.035091777134104e+000	 5.803273697359110e-001	 1.587619318574725e+001
1	 1.028735822452400e+000	 5.915212641540698e-001	 1.562014403896493e+001
1	 1.022249401869843e+000	 6.026615201045171e-001	 1.536220624612831e+001
1	 1.015633133203115e+000	 6.137459015335168e-001	 1.510244381332780e+001
1	 1.008887684580244e+000	 6.247721802058076e-001	 1.484093100846162e+001
1	 1.002013774378445e+000	 6.357381371004210e-001	 1.457775252108046e+001
1	 9.950121711159892e-001	 6.466415638092609e-001	 1.431300360606965e+001
1	 9.878836932978200e-001	 6.574802639366862e-001	 1.404679021060601e+001
1	 9.806292092147128e-001	 6.682520544983372e-001	 1.377922908386059e+001
1	 9.732496366958436e-001	 6.789547673174149e-001	 1.351044786895416e+001
1	 9.657459428147288e-001	 6.895862504166216e-001	 1.324058517671186e+001
1	 1.058353596966040e+000	 5.933691801500317e-001	 1.582443255528344e+001
1	 1.051854803672116e+000	 6.048146371454501e-001	 1.558260891022258e+001
1	 1.045222612491598e+000	 6.162052502453843e-001	 1.533816510814323e+001
1	 1.038457655125506e+000	 6.275387331448289e-001	 1.509118454178095e+001
1	 1.031560614716862e+000	 6.388128075329589e-001	 1.484176368372783e+001
1	 1.024532225787134e+000	 6.500252045203178e-001	 1.459001222463670e+001
1	 1.017373274125678e+000	 6.611736660688244e-001	 1.433605319008989e+001
1	 1.010084596631881e+000	 6.722559464228141e-001	 1.408002303557004e+001
1	 1.002667081109809e+000	 6.832698135392941e-001	 1.382207171902123e+001
1	 9.951216660152166e-001	 6.942130505156092e-001	 1.356236275053538e+001
1	 9.874493401548725e-001	 7.050834570126574e-001	 1.330107321875338e+001
1	 1.081615440053690e+000	 6.064110036025343e-001	 1.573625273377131e+001
1	 1.074973808004762e+000	 6.181080234267304e-001	 1.550472348825309e+001
1	 1.068195846080558e+000	 6.297489939264408e-001	 1.526983942089878e+001
1	 1.061282199866449e+000	 6.413315785453436e-001	 1.503173750153484e+001
1	 1.054233567520466e+000	 6.528534488970049e-001	 1.479057198392034e+001
1	 1.047050699708348e+000	 6.643122862234331e-001	 1.454651447262161e+001
1	 1.039734399490552e+000	 6.757057828565186e-001	 1.429975396040281e+001
1	 1.032285522160929e+000	 6.870316436805244e-001	 1.405049683565146e+001
1	 1.024704975036855e+000	 6.982875875937833e-001	 1.379896685942643e+001
1	 1.016993717200684e+000	 7.094713489677366e-001	 1.354540511178705e+001
1	 1.009152759192461e+000	 7.205806791014352e-001	 1.329006990713516e+001
1	 1.104877265689896e+000	 6.194528172708821e-001	 1.560270959187931e+001
1	 1.098092794993187e+000	 6.314013997351550e-001	 1.537783298687846e+001
1	 1.091169062434711e+000	 6.432927274468238e-001	 1.514891407147925e+001
1	 1.084106727484177e+000	 6.551244135982917e-001	 1.491617562080468e+001
1	 1.076906503314615e+000	 6.668940797275551e-001	 1.467986322893487e+001
1	 1.069569156736019e+000	 6.785993572081285e-001	 1.444024525635205e+001
1	 1.062095508079932e+000	 6.902378887419129e-001	 1.419761273686741e+001
1	 1.054486431034654e+000	 7.018073298531411e-001	 1.395227924370371e+001
1	 1.046742852430854e+000	 7.133053503815096e-001	 1.370458071450458e+001
1	 1.038865751977465e+000	 7.247296359725967e-001	 1.345487523514314e+001
1	 1.030856161947795e+000	 7.360778895636447e-001	 1.320354278230366e+001
1	 8.138259592567365e-001	 5.811085160631598e-001	 1.124434156171221e+001
1	 8.073989196223579e-001	 5.900057536711100e-001	 1.077861380165330e+001
1	 8.008690357874089e-001	 5.988393841156297e-001	 1.032157842932592e+001
1	 7.942372439580682e-001	 6.076076406512597e-001	 9.873346943918039e+000
1	 7.875045204774031e-001	 6.163087747742401e-001	 9.434013639210543e+000
1	 7.806718813845673e-001	 6.249410573556357e-001	 9.003655890920880e+000
1	 7.737403819358268e-001	 6.335027797617578e-001	 8.582334475268311e+000
1	 7.667111160878266e-001	 6.419922549603808e-001	 8.170093918034612e+000
1	 7.595852159436008e-001	 6.504078186112838e-001	 7.766962873311209e+000
1	 7.523638511618767e-001	 6.587478301396492e-001	 7.372954531044829e+000
1	 7.450482283302943e-001	 6.670106737908847e-001	 6.988067052415525e+000
1	 8.355281412832460e-001	 5.966048548693305e-001	 1.165487038836434e+001
1	 8.289297126895775e-001	 6.057393538572367e-001	 1.123843380131805e+001
1	 8.222256973632529e-001	 6.148085494782432e-001	 1.082737348499321e+001
1	 8.154170564761909e-001	 6.238106278733666e-001	 1.042190757406917e+001
1	 8.085047924075216e-001	 6.327437939117713e-001	 1.002224611270735e+001
1	 8.014899482910345e-001	 6.416062723541127e-001	 9.628591157557910e+000
1	 7.943736075234260e-001	 6.503963090028353e-001	 9.241136895558151e+000
1	 7.871568932337913e-001	 6.591121718378921e-001	 8.860069776136026e+000
1	 7.798409677148595e-001	 6.677521521363642e-001	 8.485568657390825e+000
1	 7.724270318165430e-001	 6.763145655744851e-001	 8.117804965787741e+000
1	 7.649163243024477e-001	 6.847977533105903e-001	 7.756942868861217e+000
1	 8.572306108650805e-001	 6.121013990034108e-001	 1.203545362374743e+001
1	 8.504607910413642e-001	 6.214731625150546e-001	 1.165915072863117e+001
1	 8.435826419166747e-001	 6.307779264339032e-001	 1.128556700649539e+001
1	 8.365971496289767e-001	 6.400138297868190e-001	 1.091501059007022e+001
1	 8.295053425937875e-001	 6.491790308152674e-001	 1.054778907184719e+001
1	 8.223082910398661e-001	 6.582717081688777e-001	 1.018420944536356e+001
1	 8.150071065046909e-001	 6.672900620856197e-001	 9.824578047561424e+000
1	 8.076029412901700e-001	 6.762323155570231e-001	 9.469200502134187e+000
1	 8.000969878791007e-001	 6.850967154768758e-001	 9.118381663772357e+000
1	 7.924904783129741e-001	 6.938815337718780e-001	 8.772425563215375e+000
1	 7.847846835317628e-001	 7.025850685127174e-001	 8.431635353013720e+000
1	 8.789333300225430e-001	 6.275981213460914e-001	 1.237828704784234e+001
1	 8.719921169979255e-001	 6.372071521100242e-001	 1.203423756527612e+001
1	 8.649398320725700e-001	 6.467474870358030e-001	 1.169081903102118e+001
1	 8.577774863507548e-001	 6.562172180355883e-001	 1.134841451830638e+001
1	 8.505061342846645e-001	 6.656144567226070e-001	 1.100741263017633e+001
1	 8.431268731983186e-001	 6.749373356349260e-001	 1.066820730035927e+001
1	 8.356408427702821e-001	 6.841840094455124e-001	 1.033119758407961e+001
1	 8.280492244755900e-001	 6.933526561569471e-001	 9.996787438997856e+000
1	 8.203532409874397e-001	 7.024414782792142e-001	 9.665385496484465e+000
1	 8.125541555392347e-001	 7.114487039889692e-001	 9.337404823457561e+000
1	 8.046532712476672e-001	 7.203725882687514e-001	 9.013262675043187e+000
1	 9.006362607759364e-001	 6.430949947780622e-001	 1.267631852477867e+001
1	 8.935236528794698e-001	 6.529412951076056e-001	 1.235779627532250e+001
1	 8.862972304558358e-001	 6.627172033371348e-001	 1.203830416516614e+001
1	 8.789580295758552e-001	 6.724207642636471e-001	 1.171828657809608e+001
1	 8.715071307286161e-001	 6.820500428716690e-001	 1.139819809379475e+001
1	 8.639456583336481e-001	 6.916031255872528e-001	 1.107850316840812e+001
1	 8.562747802108593e-001	 7.010781215179122e-001	 1.075967579641374e+001
1	 8.484957070086825e-001	 7.104731636768400e-001	 1.044219915420135e+001
1	 8.406096915909900e-001	 7.197864101897747e-001	 1.012656522583120e+001
1	 8.326180283833889e-001	 7.290160454828976e-001	 9.813274411477710e+000
1	 8.245220526795862e-001	 7.381602814501764e-001	 9.502835119115781e+000
1	 9.223393651455635e-001	 6.585919921800143e-001	 1.292315945402956e+001
1	 9.150553610062054e-001	 6.686755639732591e-001	 1.262448373222748e+001
1	 9.076547996913686e-001	 6.786870473910929e-001	 1.232365096611209e+001
1	 9.001387422386069e-001	 6.886244401149670e-001	 1.202115451332257e+001
1	 8.925082951741049e-001	 6.984857605003323e-001	 1.171750125856541e+001
1	 8.847646100131095e-001	 7.082690488608529e-001	 1.141321119292759e+001
1	 8.769088827170833e-001	 7.179723687382210e-001	 1.110881696822598e+001
1	 8.689423531080763e-001	 7.275938081558757e-001	 1.080486342700877e+001
1	 8.608663042408665e-001	 7.371314808549518e-001	 1.050190710888925e+001
1	 8.526820617335017e-001	 7.465835275108045e-001	 1.020051573395678e+001
1	 8.443909930569483e-001	 7.559481169284779e-001	 9.901267664068826e+000
1	 9.440426051517268e-001	 6.740890864326372e-001	 1.311300842795527e+001
1	 9.365872036983388e-001	 6.844099311724452e-001	 1.282944785671289e+001
1	 9.290125024040666e-001	 6.946569912508703e-001	 1.254288967904087e+001
1	 9.213195872733394e-001	 7.048282172335207e-001	 1.225386506401786e+001
1	 9.135095908695963e-001	 7.149215808464764e-001	 1.196292076676187e+001
1	 9.055836918039589e-001	 7.249350762907215e-001	 1.167061862455832e+001
1	 8.975431141796131e-001	 7.348667215418381e-001	 1.137753502405371e+001
1	 8.893891269924001e-001	 7.447145596332280e-001	 1.108426034030366e+001
1	 8.811230434881838e-001	 7.544766599211417e-001	 1.079139834853533e+001
1	 8.727462204776373e-001	 7.641511193298294e-001	 1.049956560956228e+001
1	 8.642600576091788e-001	 7.737360635751405e-001	 1.020939082985637e+001
1	 9.657459428147288e-001	 6.895862504166216e-001	 1.324058517671186e+001
1	 9.581191432760789e-001	 7.001443691706240e-001	 1.296827236024726e+001
1	 9.503703012188258e-001	 7.106270069696603e-001	 1.269240701708119e+001
1	 9.425005276143820e-001	 7.210320672632804e-001	 1.241354803402023e+001
1	 9.345109810635534e-001	 7.313574751479800e-001	 1.213227072774687e+001
1	 9.264028672734521e-001	 7.416011787118534e-001	 1.184916627494350e+001
1	 9.181774384891098e-001	 7.517611503641648e-001	 1.156484111172567e+001
1	 9.098359928802851e-001	 7.618353881480726e-001	 1.127991630331258e+001
1	 9.013798738840572e-001	 7.718219170347400e-001	 1.099502688494419e+001
1	 8.928104695038605e-001	 7.817187901971131e-001	 1.071082117513162e+001
1	 8.841292115657057e-001	 7.915240902616486e-001	 1.042796006240293e+001
1	 9.874493401548725e-001	 7.050834570126574e-001	 1.330107321875338e+001
1	 9.796511420596338e-001	 7.158788504332554e-001	 1.303692877094390e+001
1	 9.717281587605431e-001	 7.265970666006559e-001	 1.276890690093623e+001
1	 9.636815261960642e-001	 7.372359618482175e-001	 1.249758509425755e+001
1	 9.555124290044386e-001	 7.477934146427220e-001	 1.222355694704888e+001
1	 9.472220999888441e-001	 7.582673269592433e-001	 1.194743154655834e+001
1	 9.388118195362332e-001	 7.686556256406011e-001	 1.166983282132366e+001
1	 9.302829149903596e-001	 7.789562637395832e-001	 1.139139886208648e+001
1	 9.216367599796004e-001	 7.891672218421419e-001	 1.111278121455976e+001
1	 9.128747737002358e-001	 7.992865093697952e-001	 1.083464414524815e+001
1	 9.039984201559549e-001	 8.093121658594878e-001	 1.055766388159398e+001
1	 1.009152759192461e+000	 7.205806791014352e-001	 1.329006990713517e+001
1	 1.001183162369211e+000	 7.316133474258008e-001	 1.303173464620702e+001
1	 9.930860376541151e-001	 7.425671421970507e-001	 1.276937626153348e+001
1	 9.848625459527153e-001	 7.534398726323049e-001	 1.250358260915999e+001
1	 9.765138979407166e-001	 7.642293705685814e-001	 1.223495622093566e+001
1	 9.680413535173916e-001	 7.749334918678869e-001	 1.196411365100866e+001
1	 9.594462212116429e-001	 7.855501178065477e-001	 1.169168479446157e+001
1	 9.507298575412535e-001	 7.960771564469347e-001	 1.141831217921506e+001
1	 9.418936663259288e-001	 8.065125439897426e-001	 1.114465023240305e+001
1	 9.329390979548282e-001	 8.168542461050163e-001	 1.087136452249252e+001
1	 9.238676486093539e-001	 8.271002592401421e-001	 1.059913097848960e+001
1	 1.030856161947795e+000	 7.360778895636447e-001	 1.320354278230366e+001
1	 1.022715166525019e+000	 7.473478326137196e-001	 1.294931706088816e+001
1	 1.014443900524439e+000	 7.585372058120381e-001	 1.269105515997078e+001
1	 1.006043549818665e+000	 7.696437712595143e-001	 1.242934789364186e+001
1	 9.975153511208504e-001	 7.806653141634370e-001	 1.216479824497116e+001
1	 9.888605914263497e-001	 7.915996442727784e-001	 1.189802069346162e+001
1	 9.800806074060005e-001	 8.024445972974047e-001	 1.162964051910087e+001
1	 9.711767847515959e-001	 8.131980363093013e-001	 1.136029308420073e+001
1	 9.621505574741560e-001	 8.238578531239378e-001	 1.109062309427577e+001
1	 9.530034071557011e-001	 8.344219696599163e-001	 1.082128383927386e+001
1	 9.437368621553290e-001	 8.448883392750972e-001	 1.055293641652483e+001
1	 7.450482283302943e-001	 6.670106737908847e-001	 6.988067052415527e+000
1	 7.376407085647759e-001	 6.751935382033577e-001	 6.611312127570870e+000
1	 7.301414800067997e-001	 6.832961067697868e-001	 6.241865858396833e+000
1	 7.225518559652614e-001	 6.913168456532407e-001	 5.880124564152026e+000
1	 7.148731837902085e-001	 6.992542498395045e-001	 5.526472984360876e+000
1	 7.071068440770071e-001	 7.071068440770071e-001	 5.181284158671398e+000
1	 6.992542498395046e-001	 7.148731837902086e-001	 4.844919325769582e+000
1	 6.913168456532408e-001	 7.225518559652612e-001	 4.517727841333472e+000
1	 6.832961067697870e-001	 7.301414800067997e-001	 4.200047114953478e+000
1	 6.751935382033580e-001	 7.376407085647758e-001	 3.892202565907746e+000
1	 6.670106737908847e-001	 7.450482283302944e-001	 3.594507597631641e+000
1	 7.649163243024477e-001	 6.847977533105903e-001	 7.756942868861217e+000
1	 7.573112692520885e-001	 6.931988290128908e-001	 7.402120775254212e+000
1	 7.496120598240783e-001	 7.015174676312073e-001	 7.052596860990283e+000
1	 7.418200443491130e-001	 7.097520944260171e-001	 6.708863650651790e+000
1	 7.339366061068124e-001	 7.179011642491269e-001	 6.371404399306847e+000
1	 7.259631625086617e-001	 7.259631625086618e-001	 6.040692789906880e+000
1	 7.179011642491266e-001	 7.339366061068127e-001	 5.717192646295006e+000
1	 7.097520944260169e-001	 7.418200443491128e-001	 5.401357662196296e+000
1	 7.015174676312073e-001	 7.496120598240782e-001	 5.093631146527925e+000
1	 6.931988290128912e-001	 7.573112692520884e-001	 4.794445785320711e+000
1	 6.847977533105903e-001	 7.649163243024478e-001	 4.504223420510366e+000
1	 7.847846835317628e-001	 7.025850685127174e-001	 8.431635353013721e+000
1	 7.769820905793918e-001	 7.112043583964480e-001	 8.095147131465025e+000
1	 7.690828976316781e-001	 7.197390699298709e-001	 7.762179883859264e+000
1	 7.610884880415944e-001	 7.281875874703213e-001	 7.433307497381506e+000
1	 7.530002810188171e-001	 7.365483257350832e-001	 7.109096754610758e+000
1	 7.448197307914483e-001	 7.448197307914484e-001	 6.790106871299584e+000
1	 7.365483257350832e-001	 7.530002810188172e-001	 6.476889046486291e+000
1	 7.281875874703214e-001	 7.610884880415941e-001	 6.169986025663192e+000
1	 7.197390699298710e-001	 7.690828976316781e-001	 5.869931677691068e+000
1	 7.112043583964485e-001	 7.769820905793915e-001	 5.577250586117633e+000
1	 7.025850685127175e-001	 7.847846835317629e-001	 5.292457655521346e+000
1	 8.046532712476672e-001	 7.203725882687514e-001	 9.013262675043189e+000
1	 7.966531381217792e-001	 7.292100948435913e-001	 8.691996290288627e+000
1	 7.885539593546564e-001	 7.379608817771645e-001	 8.372696162426971e+000
1	 7.803571533219558e-001	 7.466232925231846e-001	 8.056003902412273e+000
1	 7.720641751638339e-001	 7.551957016639451e-001	 7.742556043806636e+000
1	 7.636765159254420e-001	 7.636765159254416e-001	 7.432983442555063e+000
1	 7.551957016639452e-001	 7.720641751638339e-001	 7.127910685980626e+000
1	 7.466232925231849e-001	 7.803571533219557e-001	 6.827955512025369e+000
1	 7.379608817771645e-001	 7.885539593546562e-001	 6.533728239739808e+000
1	 7.292100948435915e-001	 7.966531381217792e-001	 6.245831211993699e+000
1	 7.203725882687513e-001	 8.046532712476670e-001	 5.964858251352155e+000
1	 8.245220526795862e-001	 7.381602814501764e-001	 9.502835119115781e+000
1	 8.163243774543455e-001	 7.472160068438807e-001	 9.194118528979873e+000
1	 8.080252109180682e-001	 7.561828712844725e-001	 8.886026223667813e+000
1	 7.996260064694475e-001	 7.650591773216392e-001	 8.579254986917382e+000
1	 7.911282551794757e-001	 7.738432594022845e-001	 8.274498421476729e+000
1	 7.825334849107181e-001	 7.825334849107182e-001	 7.972446231382238e+000
1	 7.738432594022844e-001	 7.911282551794754e-001	 7.673783510497430e+000
1	 7.650591773216393e-001	 7.996260064694476e-001	 7.379190038600228e+000
1	 7.561828712844726e-001	 8.080252109180681e-001	 7.089339586288038e+000
1	 7.472160068438808e-001	 8.163243774543449e-001	 6.804899229947285e+000
1	 7.381602814501764e-001	 8.245220526795863e-001	 6.526528678010052e+000
1	 8.443909930569483e-001	 7.559481169284779e-001	 9.901267664068820e+000
1	 8.359957741521835e-001	 7.652220628868780e-001	 9.602827408030306e+000
1	 8.274966182469705e-001	 7.744050065631815e-001	 9.303873383513817e+000
1	 8.188950137633202e-001	 7.834952096027161e-001	 9.005145981502473e+000
1	 8.101924877033535e-001	 7.924909663166712e-001	 8.707384183816336e+000
1	 8.013906047473507e-001	 8.013906047473510e-001	 8.411324747397325e+000
1	 7.924909663166713e-001	 8.101924877033535e-001	 8.117701392042584e+000
1	 7.834952096027161e-001	 8.188950137633202e-001	 7.827243993093542e+000
1	 7.744050065631813e-001	 8.274966182469703e-001	 7.540677780575750e+000
1	 7.652220628868783e-001	 8.359957741521831e-001	 7.258722546269562e+000
1	 7.559481169284781e-001	 8.443909930569482e-001	 6.982091860170070e+000
1	 8.642600576091788e-001	 7.737360635751405e-001	 1.020939082985637e+001
1	 8.556672937903875e-001	 7.832282314621444e-001	 9.919315376164278e+000
1	 8.469681472664187e-001	 7.926272557246766e-001	 9.627784005173359e+000
1	 8.381641414828235e-001	 8.019313571034475e-001	 9.335570044377414e+000
1	 8.292568393730802e-001	 8.111387897736770e-001	 9.043447065020352e+000
1	 8.202478424354155e-001	 8.202478424354155e-001	 8.752187986982333e+000
1	 8.111387897736770e-001	 8.292568393730800e-001	 8.462564184439906e+000
1	 8.019313571034479e-001	 8.381641414828236e-001	 8.175344593988440e+000
1	 7.926272557246769e-001	 8.469681472664183e-001	 7.891294826908831e+000
1	 7.832282314621447e-001	 8.556672937903873e-001	 7.611176287250703e+000
1	 7.737360635751405e-001	 8.642600576091787e-001	 7.335745297388306e+000
1	 8.841292115657057e-001	 7.915240902616486e-001	 1.042796006240293e+001
1	 8.753389019440515e-001	 8.012344810592408e-001	 1.014466727251471e+001
1	 8.664397639014686e-001	 8.108495868803437e-001	 9.859165027581302e+000
1	 8.574333559072087e-001	 8.203675875608650e-001	 9.572249735205245e+000
1	 8.483212768262676e-001	 8.297866971398731e-001	 9.284719585894580e+000
1	 8.391051649749868e-001	 8.391051649749867e-001	 8.997373596313672e+000
1	 8.297866971398730e-001	 8.483212768262672e-001	 8.711010650767239e+000
1	 8.203675875608651e-001	 8.574333559072086e-001	 8.426428542747431e+000
1	 8.108495868803439e-001	 8.664397639014684e-001	 8.144423018375438e+000
1	 8.012344810592409e-001	 8.753389019440512e-001	 7.865786823562113e+000
1	 7.915240902616487e-001	 8.841292115657057e-001	 7.591308756705088e+000
1	 9.039984201559549e-001	 8.093121658594878e-001	 1.055766388159398e+001
1	 8.950105641882687e-001	 8.192407801677287e-001	 1.027987204930141e+001
1	 8.859114340771767e-001	 8.290719681415686e-001	 9.999299183715747e+000
1	 8.767026233157254e-001	 8.388038687119999e-001	 9.716755658843081e+000
1	 8.673857667005270e-001	 8.484346557818304e-001	 9.433055061693004e+000
1	 8.579625393661390e-001	 8.579625393661393e-001	 9.149013190903037e+000
1	 8.484346557818305e-001	 8.673857667005271e-001	 8.865447051181789e+000
1	 8.388038687120001e-001	 8.767026233157250e-001	 8.583173845505311e+000
1	 8.290719681415687e-001	 8.859114340771764e-001	 8.303009967010475e+000
1	 8.192407801677292e-001	 8.950105641882690e-001	 8.025769992527618e+000
1	 8.093121658594876e-001	 9.039984201559549e-001	 7.752265679691282e+000
1	 9.238676486093539e-001	 8.271002592401421e-001	 1.059913097848960e+001
1	 9.146822460981339e-001	 8.372470972771691e-001	 1.032583298273964e+001
1	 9.053831237185988e-001	 8.472943676197366e-001	 1.004935825634784e+001
1	 8.959719099876237e-001	 8.572401682938836e-001	 9.770522704770986e+000
1	 8.864502756334713e-001	 8.670826330661203e-001	 9.490146771807217e+000
1	 8.768199326089480e-001	 8.768199326089482e-001	 9.209054409912680e+000
1	 8.670826330661202e-001	 8.864502756334713e-001	 8.928072044041780e+000
1	 8.572401682938839e-001	 8.959719099876233e-001	 8.648027531017332e+000
1	 8.472943676197369e-001	 9.053831237185986e-001	 8.369749116449750e+000
1	 8.372470972771693e-001	 9.146822460981338e-001	 8.094064391229688e+000
1	 8.271002592401420e-001	 9.238676486093538e-001	 7.821799249619570e+000
1	 9.437368621553290e-001	 8.448883392750972e-001	 1.055293641652483e+001
1	 9.343539132487400e-001	 8.552534008771232e-001	 1.028337659484123e+001
1	 9.248547987507909e-001	 8.655167534262337e-001	 1.001041466028148e+001
1	 9.152411822021542e-001	 8.756764540435483e-001	 9.734864236331278e+000
1	 9.055147702627121e-001	 8.857305963593138e-001	 9.457544709331071e+000
1	 8.956773117034877e-001	 8.956773117034877e-001	 9.179280186170441e+000
1	 8.857305963593136e-001	 9.055147702627120e-001	 8.900898443326625e+000
1	 8.756764540435487e-001	 9.152411822021543e-001	 8.623229869291297e+000
1	 8.655167534262338e-001	 9.248547987507906e-001	 8.347106402445069e+000
1	 8.552534008771235e-001	 9.343539132487400e-001	 8.073360466452822e+000
1	 8.448883392750972e-001	 9.437368621553290e-001	 7.802823905256679e+000
1	 6.670106737908847e-001	 7.450482283302944e-001	 3.594507597631640e+000
1	 6.587478301396494e-001	 7.523638511618765e-001	 3.307682697207925e+000
1	 6.504078186112842e-001	 7.595852159436007e-001	 3.032108313427712e+000
1	 6.419922549603810e-001	 7.667111160878263e-001	 2.767421378710940e+000
1	 6.335027797617580e-001	 7.737403819358265e-001	 2.513225439011585e+000
1	 6.249410573556360e-001	 7.806718813845671e-001	 2.269091879312446e+000
1	 6.163087747742402e-001	 7.875045204774027e-001	 2.034561198746065e+000
1	 6.076076406512598e-001	 7.942372439580681e-001	 1.809144332264189e+000
1	 5.988393841156301e-001	 8.008690357874087e-001	 1.592324015674152e+000
1	 5.900057536711104e-001	 8.073989196223578e-001	 1.383556190776716e+000
1	 5.811085160631598e-001	 8.138259592567365e-001	 1.182271447260057e+000
1	 6.847977533105903e-001	 7.649163243024478e-001	 4.504223420510362e+000
1	 6.763145655744853e-001	 7.724270318165426e-001	 4.223213329333652e+000
1	 6.677521521363645e-001	 7.798409677148592e-001	 3.951413035271493e+000
1	 6.591121718378926e-001	 7.871568932337911e-001	 3.688706925408854e+000
1	 6.503963090028355e-001	 7.943736075234259e-001	 3.434949282682565e+000
1	 6.416062723541131e-001	 8.014899482910342e-001	 3.189965083986794e+000
1	 6.327437939117715e-001	 8.085047924075213e-001	 2.953550844965455e+000
1	 6.238106278733671e-001	 8.154170564761908e-001	 2.725475509317347e+000
1	 6.148085494782434e-001	 8.222256973632528e-001	 2.505481380342266e+000
1	 6.057393538572370e-001	 8.289297126895775e-001	 2.293285092369107e+000
1	 5.966048548693304e-001	 8.355281412832460e-001	 2.088578619617766e+000
1	 7.025850685127175e-001	 7.847846835317629e-001	 5.292457655521343e+000
1	 6.938815337718786e-001	 7.924904783129740e-001	 5.015400891100028e+000
1	 6.850967154768765e-001	 8.000969878791008e-001	 4.745750901477543e+000
1	 6.762323155570231e-001	 8.076029412901695e-001	 4.483602242250555e+000
1	 6.672900620856203e-001	 8.150071065046908e-001	 4.229022516868845e+000
1	 6.582717081688780e-001	 8.223082910398658e-001	 3.982052803646031e+000
1	 6.491790308152676e-001	 8.295053425937874e-001	 3.742708126374201e+000
1	 6.400138297868191e-001	 8.365971496289765e-001	 3.510977967163747e+000
1	 6.307779264339035e-001	 8.435826419166743e-001	 3.286826820033925e+000
1	 6.214731625150548e-001	 8.504607910413637e-001	 3.070194783688047e+000
1	 6.121013990034109e-001	 8.572306108650806e-001	 2.860998191818335e+000
1	 7.203725882687513e-001	 8.046532712476670e-001	 5.964858251352155e+000
1	 7.114487039889693e-001	 8.125541555392345e-001	 5.690317613348187e+000
1	 7.024414782792147e-001	 8.203532409874392e-001	 5.421601533682926e+000
1	 6.933526561569474e-001	 8.280492244755900e-001	 5.158980305399364e+000
1	 6.841840094455123e-001	 8.356408427702818e-001	 4.902700300739941e+000
1	 6.749373356349262e-001	 8.431268731983188e-001	 4.652984080423705e+000
1	 6.656144567226074e-001	 8.505061342846644e-001	 4.410030543306050e+000
1	 6.562172180355886e-001	 8.577774863507547e-001	 4.174015115728372e+000
1	 6.467474870358031e-001	 8.649398320725696e-001	 3.945089979774138e+000
1	 6.372071521100248e-001	 8.719921169979257e-001	 3.723384339552416e+000
1	 6.275981213460915e-001	 8.789333300225429e-001	 3.509004724545042e+000
1	 7.381602814501764e-001	 8.245220526795863e-001	 6.526528678010053e+000
1	 7.290160454828980e-001	 8.326180283833888e-001	 6.253450354221226e+000
1	 7.197864101897744e-001	 8.406096915909894e-001	 5.984819914418148e+000
1	 7.104731636768402e-001	 8.484957070086824e-001	 5.721051537894653e+000
1	 7.010781215179124e-001	 8.562747802108592e-001	 5.462538402565960e+000
1	 6.916031255872530e-001	 8.639456583336479e-001	 5.209652527225507e+000
1	 6.820500428716690e-001	 8.715071307286154e-001	 4.962744650825270e+000
1	 6.724207642636474e-001	 8.789580295758552e-001	 4.722144148668732e+000
1	 6.627172033371352e-001	 8.862972304558352e-001	 4.488158985321217e+000
1	 6.529412951076060e-001	 8.935236528794697e-001	 4.261075703947039e+000
1	 6.430949947780622e-001	 9.006362607759364e-001	 4.041159451699361e+000
1	 7.559481169284781e-001	 8.443909930569482e-001	 6.982091860170071e+000
1	 7.465835275108047e-001	 8.526820617335017e-001	 6.709769343178417e+000
1	 7.371314808549522e-001	 8.608663042408662e-001	 6.440709750449406e+000
1	 7.275938081558757e-001	 8.689423531080758e-001	 6.175441633326040e+000
1	 7.179723687382216e-001	 8.769088827170832e-001	 5.914475357179684e+000
1	 7.082690488608532e-001	 8.847646100131092e-001	 5.658302724963098e+000
1	 6.984857605003324e-001	 8.925082951741050e-001	 5.407396634286881e+000
1	 6.886244401149675e-001	 9.001387422386066e-001	 5.162210768397763e+000
1	 6.786870473910933e-001	 9.076547996913686e-001	 4.923179321346920e+000
1	 6.686755639732595e-001	 9.150553610062049e-001	 4.690716757555835e+000
1	 6.585919921800143e-001	 9.223393651455637e-001	 4.465217605896050e+000
1	 7.737360635751405e-001	 8.642600576091787e-001	 7.335745297388306e+000
1	 7.641511193298295e-001	 8.727462204776371e-001	 7.063787448730537e+000
1	 7.544766599211421e-001	 8.811230434881837e-001	 6.794086723073005e+000
1	 7.447145596332283e-001	 8.893891269924001e-001	 6.527258651607625e+000
1	 7.348667215418387e-001	 8.975431141796131e-001	 6.263903298131410e+000
1	 7.249350762907217e-001	 9.055836918039589e-001	 6.004604710032581e+000
1	 7.149215808464768e-001	 9.135095908695964e-001	 5.749930399164939e+000
1	 7.048282172335210e-001	 9.213195872733390e-001	 5.500430853376398e+000
1	 6.946569912508708e-001	 9.290125024040664e-001	 5.256639079378183e+000
1	 6.844099311724454e-001	 9.365872036983384e-001	 5.019070177559075e+000
1	 6.740890864326372e-001	 9.440426051517270e-001	 4.788220949266938e+000
1	 7.915240902616487e-001	 8.841292115657057e-001	 7.591308756705088e+000
1	 7.817187901971132e-001	 8.928104695038602e-001	 7.319611459673751e+000
1	 7.718219170347405e-001	 9.013798738840568e-001	 7.049333215246506e+000
1	 7.618353881480727e-001	 9.098359928802848e-001	 6.781151073399936e+000
1	 7.517611503641654e-001	 9.181774384891095e-001	 6.515729245001980e+000
1	 7.416011787118534e-001	 9.264028672734516e-001	 6.253718424387197e+000
1	 7.313574751479802e-001	 9.345109810635529e-001	 5.995755138046788e+000
1	 7.210320672632804e-001	 9.425005276143819e-001	 5.742461120498806e+000
1	 7.106270069696605e-001	 9.503703012188257e-001	 5.494442718327820e+000
1	 7.001443691706240e-001	 9.581191432760788e-001	 5.252290323311030e+000
1	 6.895862504166215e-001	 9.657459428147290e-001	 5.016577835467590e+000
1	 8.093121658594876e-001	 9.039984201559549e-001	 7.752265679691281e+000
1	 7.992865093697955e-001	 9.128747737002357e-001	 7.480986607810594e+000
1	 7.891672218421421e-001	 9.216367599796004e-001	 7.210445826061877e+000
1	 7.789562637395836e-001	 9.302829149903595e-001	 6.941358203359807e+000
1	 7.686556256406014e-001	 9.388118195362329e-001	 6.674428313472774e+000
1	 7.582673269592435e-001	 9.472220999888438e-001	 6.410349671535009e+000
1	 7.477934146427224e-001	 9.555124290044385e-001	 6.149803992765123e+000
1	 7.372359618482179e-001	 9.636815261960636e-001	 5.893460474663799e+000
1	 7.265970666006564e-001	 9.717281587605428e-001	 5.641975103898967e+000
1	 7.158788504332557e-001	 9.796511420596336e-001	 5.395989989019437e+000
1	 7.050834570126574e-001	 9.874493401548724e-001	 5.156132720066023e+000
1	 8.271002592401420e-001	 9.238676486093538e-001	 7.821799249619568e+000
1	 8.168542461050161e-001	 9.329390979548274e-001	 7.551335348997687e+000
1	 8.065125439897432e-001	 9.418936663259284e-001	 7.281076757727989e+000
1	 7.960771564469352e-001	 9.507298575412534e-001	 7.011754073362164e+000
1	 7.855501178065478e-001	 9.594462212116428e-001	 6.744090063397872e+000
1	 7.749334918678871e-001	 9.680413535173916e-001	 6.478798856425189e+000
1	 7.642293705685818e-001	 9.765138979407163e-001	 6.216585151433721e+000
1	 7.534398726323054e-001	 9.848625459527151e-001	 5.958143446677260e+000
1	 7.425671421970511e-001	 9.930860376541149e-001	 5.704157289437202e+000
1	 7.316133474258009e-001	 1.001183162369211e+000	 5.455298547967415e+000
1	 7.205806791014350e-001	 1.009152759192461e+000	 5.212226706840410e+000
1	 8.448883392750972e-001	 9.437368621553290e-001	 7.802823905256675e+000
1	 8.344219696599168e-001	 9.530034071557009e-001	 7.533791248195373e+000
1	 8.238578531239379e-001	 9.621505574741556e-001	 7.264569977564091e+000
1	 8.131980363093018e-001	 9.711767847515958e-001	 6.995885803065347e+000
1	 8.024445972974047e-001	 9.800806074060000e-001	 6.728458995566158e+000
1	 7.915996442727787e-001	 9.888605914263492e-001	 6.463003572063748e+000
1	 7.806653141634378e-001	 9.975153511208502e-001	 6.200226494630272e+000
1	 7.696437712595147e-001	 1.006043549818664e+000	 5.940826884774543e+000
1	 7.585372058120381e-001	 1.014443900524439e+000	 5.685495254613679e+000
1	 7.473478326137197e-001	 1.022715166525019e+000	 5.434912756198607e+000
1	 7.360778895636447e-001	 1.030856161947795e+000	 5.189750450284095e+000
1	 5.811085160631598e-001	 8.138259592567365e-001	 1.182271447260057e+000
1	 5.721494549410069e-001	 8.201492587923698e-001	 9.882979486409087e-001
1	 5.631303691352768e-001	 8.263679623034138e-001	 8.022532141267342e-001
1	 5.540530720989083e-001	 8.324812548450976e-001	 6.247177079084358e-001
1	 5.449193909360234e-001	 8.384883629704416e-001	 4.562499688752775e-001
1	 5.357311652289509e-001	 8.443885549780589e-001	 2.973859505740370e-001
1	 5.264902458615942e-001	 8.501811411206631e-001	 1.486384038616638e-001
1	 5.171984938406531e-001	 8.558654737743153e-001	 1.049630309382523e-002
1	 5.078577791162047e-001	 8.614409475685217e-001	-1.165756834308352e-001
1	 4.984699794031354e-001	 8.669069994773562e-001	-2.321376781626895e-001
1	 4.890369790048947e-001	 8.722631088718383e-001	-3.357750336387338e-001
1	 5.966048548693304e-001	 8.355281412832460e-001	 2.088578619617766e+000
1	 5.874068837280612e-001	 8.420200633552516e-001	 1.891506152901878e+000
1	 5.781472872332619e-001	 8.484046001549332e-001	 1.702648294292154e+000
1	 5.688279271970237e-001	 8.546809150055598e-001	 1.522317337549615e+000
1	 5.594506794466541e-001	 8.608482138348051e-001	 1.350803496584856e+000
1	 5.500174326204226e-001	 8.669057454291612e-001	 1.188374712967363e+000
1	 5.405300869595507e-001	 8.728528016480033e-001	 1.035276501767314e+000
1	 5.309905530979981e-001	 8.786887175973517e-001	 8.917318356446615e-001
1	 5.214007508515948e-001	 8.844128717634381e-001	 7.579410670046193e-001
1	 5.117626080080410e-001	 8.900246861062577e-001	 6.340818879491862e-001
1	 5.020780591192976e-001	 8.955236261133455e-001	 5.203093276678191e-001
1	 6.121013990034109e-001	 8.572306108650806e-001	 2.860998191818335e+000
1	 6.026645146774509e-001	 8.638911577076851e-001	 2.659605998790542e+000
1	 5.931644043068415e-001	 8.704415299933851e-001	 2.466540367021405e+000
1	 5.836029780634553e-001	 8.768808693131818e-001	 2.281913267254298e+000
1	 5.739821604984207e-001	 8.832083609691109e-001	 2.105814451872890e+000
1	 5.643038893065868e-001	 8.894232342352664e-001	 1.938311624107900e+000
1	 5.545701140871353e-001	 8.955247625774229e-001	 1.779450642242691e+000
1	 5.447827951019332e-001	 9.015122638313121e-001	 1.629255758007133e+000
1	 5.349439020332119e-001	 9.073851003396590e-001	 1.487729888276966e+000
1	 5.250554127421402e-001	 9.131426790481642e-001	 1.354854919123867e+000
1	 5.151193120298433e-001	 9.187844515606747e-001	 1.230592041195237e+000
1	 6.275981213460915e-001	 8.789333300225429e-001	 3.509004724545042e+000
1	 6.179223210879753e-001	 8.857625035748910e-001	 3.302464028730310e+000
1	 6.081816940757198e-001	 8.924787132537713e-001	 3.104209728120932e+000
1	 5.983781988415264e-001	 8.990810789176518e-001	 2.914216424677349e+000
1	 5.885138086608939e-001	 9.055687652426796e-001	 2.732436382228692e+000
1	 5.785905102858037e-001	 9.119409819903060e-001	 2.558799956419273e+000
1	 5.686103026739570e-001	 9.181969842324798e-001	 2.393216057296886e+000
1	 5.585751957156880e-001	 9.243360725344285e-001	 2.235572643208137e+000
1	 5.484872089601939e-001	 9.303575930951707e-001	 2.085737244602516e+000
1	 5.383483703426764e-001	 9.362609378459221e-001	 1.943557516292972e+000
1	 5.281607149139947e-001	 9.420455445066668e-001	 1.808861816668246e+000
1	 6.430949947780622e-001	 9.006362607759364e-001	 4.041159451699361e+000
1	 6.331802762584340e-001	 9.076340626820887e-001	 3.828995671902962e+000
1	 6.231991302596035e-001	 9.145161113710948e-001	 3.624945674958666e+000
1	 6.131535636745616e-001	 9.212815049686619e-001	 3.428905226967646e+000
1	 6.030455985036436e-001	 9.279293875248307e-001	 3.240747657305247e+000
1	 5.928772705564347e-001	 9.344589492882119e-001	 3.060324452768954e+000
1	 5.826506281496253e-001	 9.408694269367315e-001	 2.887465882948844e+000
1	 5.723677308024934e-001	 9.471601037649344e-001	 2.721981655148385e+000
1	 5.620306479316780e-001	 9.533303098279592e-001	 2.563661597127545e+000
1	 5.516414575468935e-001	 9.593794220423777e-001	 2.412276365894750e+000
1	 5.412022449492144e-001	 9.653068642441641e-001	 2.267578180731236e+000
1	 6.585919921800143e-001	 9.223393651455637e-001	 4.465217605896050e+000
1	 6.484383534876271e-001	 9.295057967545003e-001	 4.247277014625444e+000
1	 6.382166865781973e-001	 9.365536857803576e-001	 4.037162968449922e+000
1	 6.279290467058840e-001	 9.434821086159000e-001	 3.834746925651994e+000
1	 6.175775045962408e-001	 9.502901886848859e-001	 3.639877832581390e+000
1	 6.071641451168407e-001	 9.569770967229156e-001	 3.452382789469067e+000
1	 5.966910659437505e-001	 9.635420510137374e-001	 3.272067746945383e+000
1	 5.861603762255798e-001	 9.699843175810626e-001	 3.098718231431726e+000
1	 5.755741952468018e-001	 9.763032103360100e-001	 2.932100097526923e+000
1	 5.649346510920359e-001	 9.824980911803786e-001	 2.771960305462509e+000
1	 5.542438793129652e-001	 9.885683700660078e-001	 2.618027721668463e+000
1	 6.740890864326372e-001	 9.440426051517270e-001	 4.788220949266938e+000
1	 6.636965260743544e-001	 9.513776675173451e-001	 4.564641163314650e+000
1	 6.532343367512071e-001	 9.585913979165629e-001	 4.348502240897346e+000
1	 6.427046220788177e-001	 9.656828510090559e-001	 4.139702224270902e+000
1	 6.321095015082566e-001	 9.726511295921647e-001	 3.938116593943751e+000
1	 6.214511089653827e-001	 9.794953848883492e-001	 3.743598917258832e+000
1	 6.107315914859414e-001	 9.862148167870553e-001	 3.555981528024787e+000
1	 5.999531078481777e-001	 9.928086740410449e-001	 3.375076235385282e+000
1	 5.891178272047025e-001	 9.992762544173094e-001	 3.200675060063793e+000
1	 5.782279277153468e-001	 1.005616904802770e+000	 3.032550996077375e+000
1	 5.672855951827097e-001	 1.011830021265040e+000	 2.870458795974624e+000
1	 6.895862504166215e-001	 9.657459428147290e-001	 5.016577835467590e+000
1	 6.789547673174154e-001	 9.732496366958434e-001	 4.787761622258520e+000
1	 6.682520544983374e-001	 9.806292092147124e-001	 4.565916873580232e+000
1	 6.574802639366865e-001	 9.878836932978199e-001	 4.351015798481394e+000
1	 6.466415638092613e-001	 9.950121711159888e-001	 4.143008021666741e+000
1	 6.357381371004214e-001	 1.002013774378445e+000	 3.941821129257088e+000
1	 6.247721802058078e-001	 1.008887684580244e+000	 3.747361246774924e+000
1	 6.137459015335173e-001	 1.015633133203115e+000	 3.559513647736590e+000
1	 6.026615201045177e-001	 1.022249401869843e+000	 3.378143391169089e+000
1	 5.915212641540704e-001	 1.028735822452400e+000	 3.203095986325235e+000
1	 5.803273697359112e-001	 1.035091777134104e+000	 3.034198082821483e+000
1	 7.050834570126574e-001	 9.874493401548724e-001	 5.156132720066023e+000
1	 6.942130505156093e-001	 9.951216660152162e-001	 4.922724682776202e+000
1	 6.832698135392946e-001	 1.002667081109809e+000	 4.695748424480094e+000
1	 6.722559464228145e-001	 1.010084596631881e+000	 4.475294886237887e+000
1	 6.611736660688248e-001	 1.017373274125677e+000	 4.261432431054273e+000
1	 6.500252045203179e-001	 1.024532225787134e+000	 4.054207204240035e+000
1	 6.388128075329591e-001	 1.031560614716861e+000	 3.853643527983406e+000
1	 6.275387331448294e-001	 1.038457655125506e+000	 3.659744328862240e+000
1	 6.162052502453845e-001	 1.045222612491597e+000	 3.472491596962896e+000
1	 6.048146371454503e-001	 1.051854803672115e+000	 3.291846875209961e+000
1	 5.933691801500318e-001	 1.058353596966040e+000	 3.117751777455866e+000
1	 7.205806791014350e-001	 1.009152759192461e+000	 5.212226706840410e+000
1	 7.094713489677368e-001	 1.016993717200683e+000	 4.975092477038727e+000
1	 6.982875875937836e-001	 1.024704975036855e+000	 4.743792328812296e+000
1	 6.870316436805245e-001	 1.032285522160929e+000	 4.518577742949088e+000
1	 6.757057828565191e-001	 1.039734399490552e+000	 4.299677658876008e+000
1	 6.643122862234336e-001	 1.047050699708348e+000	 4.087298569804210e+000
1	 6.528534488970054e-001	 1.054233567520466e+000	 3.881624654844396e+000
1	 6.413315785453441e-001	 1.061282199866449e+000	 3.682817947337306e+000
1	 6.297489939264409e-001	 1.068195846080558e+000	 3.491018538565397e+000
1	 6.181080234267309e-001	 1.074973808004762e+000	 3.306344815936343e+000
1	 6.064110036025345e-001	 1.081615440053690e+000	 3.128893734654886e+000
1	 7.360778895636447e-001	 1.030856161947795e+000	 5.189750450284095e+000
1	 7.247296359725969e-001	 1.038865751977465e+000	 4.949958071531048e+000
1	 7.133053503815100e-001	 1.046742852430853e+000	 4.715355305060581e+000
1	 7.018073298531414e-001	 1.054486431034653e+000	 4.486393454373092e+000
1	 6.902378887419133e-001	 1.062095508079932e+000	 4.263501350102759e+000
1	 6.785993572081289e-001	 1.069569156736019e+000	 4.047085102650705e+000
1	 6.668940797275554e-001	 1.076906503314615e+000	 3.837527895302287e+000
1	 6.551244135982921e-001	 1.084106727484178e+000	 3.635189817743680e+000
1	 6.432927274468241e-001	 1.091169062434711e+000	 3.440407739796878e+000
1	 6.314013997351553e-001	 1.098092794993187e+000	 3.253495225096167e+000
1	 6.194528172708823e-001	 1.104877265689896e+000	 3.074742484334973e+000
1	 4.890369790048947e-001	 8.722631088718383e-001	-3.357750336387338e-001
1	 4.795620922583881e-001	 8.775080191404552e-001	-4.279681231326721e-001
1	 4.700458011791232e-001	 8.826421068707412e-001	-5.097065400974327e-001
1	 4.604900024760815e-001	 8.876649794392211e-001	-5.813273533233303e-001
1	 4.508965947721492e-001	 8.925762864264074e-001	-6.431837735224699e-001
1	 4.412674774614073e-001	 8.973757194803052e-001	-6.956442940186254e-001
1	 4.316045495771119e-001	 9.020630121438829e-001	-7.390918188927190e-001
1	 4.219097086716460e-001	 9.066379396471510e-001	-7.739227805539560e-001
1	 4.121848497096852e-001	 9.111003186645381e-001	-8.005462486964036e-001
1	 4.024318639757791e-001	 9.154500070382969e-001	-8.193830325886267e-001
1	 3.926526379975132e-001	 9.196869034687287e-001	-8.308647786248022e-001
1	 5.020780591192976e-001	 8.955236261133455e-001	 5.203093276678180e-001
1	 4.923505069052577e-001	 9.009084016633493e-001	 4.160610765507830e-001
1	 4.825804462352116e-001	 9.061793993862045e-001	 3.205432193977036e-001
1	 4.727698243973318e-001	 9.113362161883819e-001	 2.335835888106868e-001
1	 4.629205906447349e-001	 9.163784923057911e-001	 1.549948509818244e-001
1	 4.530346950222969e-001	 9.213059111636408e-001	 8.457508320316287e-002
1	 4.431140872044481e-001	 9.261181991993089e-001	 2.210836679176942e-002
1	 4.331607153452558e-001	 9.308151256488803e-001	-3.263460602298562e-002
1	 4.231765249420745e-001	 9.353965022980481e-001	-7.989591270534913e-002
1	 4.131634577139962e-001	 9.398621831981489e-001	-1.199297699748156e-001
1	 4.031234504962961e-001	 9.442120643481218e-001	-1.530018937839706e-001
1	 5.151193120298433e-001	 9.187844515606747e-001	 1.230592041195238e+000
1	 5.051390910003677e-001	 9.243090942455400e-001	 1.114358850456220e+000
1	 4.951152573769660e-001	 9.297170037752285e-001	 1.005558632774380e+000
1	 4.850498090276870e-001	 9.350077665860250e-001	 9.041585493502673e-001
1	 4.749447458365616e-001	 9.401810135691123e-001	 8.101110264846925e-001
1	 4.648020684999465e-001	 9.452364199267954e-001	 7.233540950224306e-001
1	 4.546237773341315e-001	 9.501737049907748e-001	 6.438117483113948e-001
1	 4.444118710955522e-001	 9.549926320031291e-001	 5.713943176593550e-001
1	 4.341683458149254e-001	 9.596930078607580e-001	 5.059988642463300e-001
1	 4.238951936465673e-001	 9.642746828240313e-001	 4.475095864283463e-001
1	 4.135944017341220e-001	 9.687375501904937e-001	 3.957982413529275e-001
1	 5.281607149139947e-001	 9.420455445066668e-001	 1.808861816668247e+000
1	 5.179278221633580e-001	 9.477100559350588e-001	 1.681096425682386e+000
1	 5.076502126681390e-001	 9.532548788462153e-001	 1.559854874727430e+000
1	 4.973299348768570e-001	 9.586795892061150e-001	 1.445220046570819e+000
1	 4.869690393050530e-001	 9.639838085611113e-001	 1.337259996909048e+000
1	 4.765695773011597e-001	 9.691672038905159e-001	 1.236028097318324e+000
1	 4.661335998239204e-001	 9.742294874202678e-001	 1.141563200059979e+000
1	 4.556631562327351e-001	 9.791704163983791e-001	 1.053889824066745e+000
1	 4.451602930922758e-001	 9.839897928328980e-001	 9.730183613988017e-001
1	 4.346270529926753e-001	 9.886874631931896e-001	 8.989453034194193e-001
1	 4.240654733865390e-001	 9.932633180753757e-001	 8.316534859094138e-001
1	 5.412022449492144e-001	 9.653068642441641e-001	 2.267578180731236e+000
1	 5.307166780138688e-001	 9.711112457799382e-001	 2.129078979851270e+000
1	 5.201852901724831e-001	 9.767929834075640e-001	 1.996547923515778e+000
1	 5.096101804545525e-001	 9.823516426226165e-001	 1.870161785298910e+000
1	 4.989934500076327e-001	 9.877868356265305e-001	 1.750081914204040e+000
1	 4.883372008327390e-001	 9.930982211755463e-001	 1.636454220750220e+000
1	 4.776435345315737e-001	 9.982855043897770e-001	 1.529409188487631e+000
1	 4.669145510670048e-001	 1.003348436523111e+000	 1.429061910531787e+000
1	 4.561523475381646e-001	 1.008286814694700e+000	 1.335512150652644e+000
1	 4.453590169715055e-001	 1.013100481582870e+000	 1.248844428403841e+000
1	 4.345366471290956e-001	 1.017789325082299e+000	 1.169128127728292e+000
1	 5.542438793129652e-001	 9.885683700660078e-001	 2.618027721668464e+000
1	 5.435056361715400e-001	 9.945126228282095e-001	 2.469906224013447e+000
1	 5.327204679537507e-001	 1.000331276267676e+000	 2.327519044972666e+000
1	 5.218905242704836e-001	 1.006023885409494e+000	 2.191116627211513e+000
1	 5.110179569017250e-001	 1.011590053110111e+000	 2.060932902619165e+000
1	 5.001049185014878e-001	 1.017029429902632e+000	 1.937185159395240e+000
1	 4.891535613148492e-001	 1.022341713801290e+000	 1.820073938376745e+000
1	 4.781660359085608e-001	 1.027526650065803e+000	 1.709782958378219e+000
1	 4.671444899166298e-001	 1.032584030926394e+000	 1.606479070250524e+000
1	 4.560910668022418e-001	 1.037513695270322e+000	 1.510312239300271e+000
1	 4.450079046373392e-001	 1.042315528290796e+000	 1.421415555649543e+000
1	 5.672855951827097e-001	 1.011830021265040e+000	 2.870458795974625e+000
1	 5.562946742560117e-001	 1.017914146127906e+000	 2.714110849391581e+000
1	 5.452557240756947e-001	 1.023869716234950e+000	 2.563556602590205e+000
1	 5.341709448343607e-001	 1.029696276140713e+000	 2.419101406629932e+000
1	 5.230425389447536e-001	 1.035393419356594e+000	 2.281032541971755e+000
1	 5.118727097142090e-001	 1.040960788192517e+000	 2.149619002829184e+000
1	 5.006636600315058e-001	 1.046398073556794e+000	 2.025111314806701e+000
1	 4.894175910676038e-001	 1.051705014714938e+000	 1.907741385706072e+000
1	 4.781367009917101e-001	 1.056881399008212e+000	 1.797722389299696e+000
1	 4.668231837040680e-001	 1.061927061532788e+000	 1.695248681793782e+000
1	 4.554792275868185e-001	 1.066841884780397e+000	 1.600495750631983e+000
1	 5.803273697359112e-001	 1.035091777134104e+000	 3.034198082821483e+000
1	 5.690837698869242e-001	 1.041315774727058e+000	 2.871278318020303e+000
1	 5.577910366020672e-001	 1.047408262117787e+000	 2.714478758280854e+000
1	 5.464514206558941e-001	 1.053368773390236e+000	 2.564142231961930e+000
1	 5.350671750941417e-001	 1.059196892710721e+000	 2.420591477113641e+000
1	 5.236405538777058e-001	 1.064892254165949e+000	 2.284128877897540e+000
1	 5.121738105393013e-001	 1.070454541558279e+000	 2.155036238581154e+000
1	 5.006691968543333e-001	 1.075883488158995e+000	 2.033574595016655e+000
1	 4.891289615274439e-001	 1.081178876420386e+000	 1.919984063424371e+000
1	 4.775553488961686e-001	 1.086340537647518e+000	 1.814483726213639e+000
1	 4.659505976530813e-001	 1.091368351630633e+000	 1.717271554488494e+000
1	 5.933691801500318e-001	 1.058353596966040e+000	 3.117751777455866e+000
1	 5.818729006839174e-001	 1.064717467673700e+000	 2.950150865813000e+000
1	 5.703263835966207e-001	 1.070946872724587e+000	 2.789240002031748e+000
1	 5.587319302447942e-001	 1.077041335732030e+000	 2.635383273286516e+000
1	 5.470918443073141e-001	 1.083000431517234e+000	 2.488922209358692e+000
1	 5.354084303987811e-001	 1.088823785943670e+000	 2.350175504603983e+000
1	 5.236839926959944e-001	 1.094511075707730e+000	 2.219438782017742e+000
1	 5.119208335789496e-001	 1.100062028086456e+000	 2.096984399266908e+000
1	 5.001212522878693e-001	 1.105476420643145e+000	 1.983061296458999e+000
1	 4.882875435977276e-001	 1.110754080891756e+000	 1.877894885319142e+000
1	 4.764219965116759e-001	 1.115894885921038e+000	 1.781686979353025e+000
1	 6.064110036025345e-001	 1.081615440053690e+000	 3.128893734654888e+000
1	 5.946620442666315e-001	 1.088119184015863e+000	 2.958718093350051e+000
1	 5.828617431231077e-001	 1.094485506863751e+000	 2.796023943452123e+000
1	 5.710124521107710e-001	 1.100713921740058e+000	 2.641181520647721e+000
1	 5.591165255416936e-001	 1.106803994120874e+000	 2.494535600204021e+000
1	 5.471763186842381e-001	 1.112755341646426e+000	 2.356405236747484e+000
1	 5.351941863593436e-001	 1.118567633907137e+000	 2.227083550900515e+000
1	 5.231724815516523e-001	 1.124240592185799e+000	 2.106837562536429e+000
1	 5.111135540370250e-001	 1.129773989156722e+000	 1.995908070301732e+000
1	 4.990197490279291e-001	 1.135167648542751e+000	 1.894509576948215e+000
1	 4.868934058381502e-001	 1.140421444731140e+000	 1.802830259915431e+000
1	 6.194528172708823e-001	 1.104877265689896e+000	 3.074742484334973e+000
1	 6.074511782547066e-001	 1.111520882801578e+000	 2.904296119853079e+000
1	 5.953970932452811e-001	 1.118024123343679e+000	 2.742324388667611e+000
1	 5.832929647635355e-001	 1.124386489988285e+000	 2.589189579400462e+000
1	 5.711411977547046e-001	 1.130607538866383e+000	 2.445225191748874e+000
1	 5.589441981408800e-001	 1.136686879394964e+000	 2.310735725226842e+000
1	 5.467043713871070e-001	 1.142624174058487e+000	 2.185996519763686e+000
1	 5.344241210826420e-001	 1.148419138145508e+000	 2.071253647741688e+000
1	 5.221058475389493e-001	 1.154071539441348e+000	 1.966723856934813e+000
1	 5.097519464059575e-001	 1.159581197877748e+000	 1.872594563695790e+000
1	 4.973648073080526e-001	 1.164947985140473e+000	 1.789023895628920e+000
1	 3.926526379975132e-001	 9.196869034687287e-001	-8.308647786248031e-001
1	 3.828475801467558e-001	 9.238115574925391e-001	-8.349836849535177e-001
1	 3.730200306188907e-001	 9.278233049990164e-001	-8.317240581821184e-001
1	 3.631718566724364e-001	 9.317221658209343e-001	-8.215328811797851e-001
1	 3.533049166519175e-001	 9.355081991183116e-001	-8.048776089419671e-001
1	 3.434210590039754e-001	 9.391815029145867e-001	-7.822450617689640e-001
1	 3.335221213151300e-001	 9.427422136050959e-001	-7.541403058452794e-001
1	 3.236099293720240e-001	 9.461905054388913e-001	-7.210855236950402e-001
1	 3.136862962449287e-001	 9.495265899749483e-001	-6.836188769527554e-001
1	 3.037530213952429e-001	 9.527507155138412e-001	-6.422933638592765e-001
1	 2.938118898076575e-001	 9.558631665059839e-001	-5.976756738492934e-001
1	 4.031234504962961e-001	 9.442120643481218e-001	-1.530018937839694e-001
1	 3.930569225507893e-001	 9.484467099390737e-001	-1.792909549815782e-001
1	 3.829673031454391e-001	 9.525654381505309e-001	-1.990110646595733e-001
1	 3.728565093327700e-001	 9.565682693441295e-001	-2.125170120292910e-001
1	 3.627264490136037e-001	 9.604552642574863e-001	-2.201819365638964e-001
1	 3.525790199269326e-001	 9.642265235280024e-001	-2.223963904747706e-001
1	 3.424161086620218e-001	 9.678821871882342e-001	-2.195673889239687e-001
1	 3.322395896935921e-001	 9.714224341338947e-001	-2.121174501038960e-001
1	 3.220513244408873e-001	 9.748474815655582e-001	-2.004836273033575e-001
1	 3.118531603513711e-001	 9.781575844051820e-001	-1.851165350394131e-001
1	 3.016469300097510e-001	 9.813530346885655e-001	-1.664793713137645e-001
1	 4.135944017341220e-001	 9.687375501904937e-001	 3.957982413529271e-001
1	 4.032664002295056e-001	 9.730821888058526e-001	 3.505521179588387e-001
1	 3.929147074744283e-001	 9.773078991396467e-001	 3.113866593414545e-001
1	 3.825412903160630e-001	 9.814147020823927e-001	 2.780218216190096e-001
1	 3.721481062121692e-001	 9.854026599493356e-001	 2.501606039278470e-001
1	 3.617371021947266e-001	 9.892718759918833e-001	 2.274898525476394e-001
1	 3.513102138563779e-001	 9.930224938798733e-001	 2.096810774865614e-001
1	 3.408693643605514e-001	 9.966546971557493e-001	 1.963912796505460e-001
1	 3.304164634760869e-001	 1.000168708661770e+000	 1.872637867310045e-001
1	 3.199534066371336e-001	 1.003564789941372e+000	 1.819290959674071e-001
1	 3.094820740290298e-001	 1.006843240615851e+000	 1.800057219690161e-001
1	 4.240654733865390e-001	 9.932633180753757e-001	 8.316534859094138e-001
1	 4.134759953160149e-001	 9.977179509799359e-001	 7.707347208665443e-001
1	 4.028622261975744e-001	 1.002050644666225e+000	 7.156788961558855e-001
1	 3.922261826735969e-001	 1.006261420553655e+000	 6.662645047072169e-001
1	 3.815698717593336e-001	 1.010350342535127e+000	 6.222537821203651e-001
1	 3.708952897803033e-001	 1.014317516476093e+000	 5.833934116156834e-001
1	 3.602044213330748e-001	 1.018163089683720e+000	 5.494152421518450e-001
1	 3.494992382703299e-001	 1.021887250347247e+000	 5.200370180124585e-001
1	 3.387816987110452e-001	 1.025490226950689e+000	 4.949631181697569e-001
1	 3.280537460765931e-001	 1.028972287659046e+000	 4.738853037486419e-001
1	 3.173173081534752e-001	 1.032333739679205e+000	 4.564834719363931e-001
1	 4.345366471290956e-001	 1.017789325082299e+000	 1.169128127728292e+000
1	 4.236856899434281e-001	 1.022353953348383e+000	 1.095885614379622e+000
1	 4.128098419065946e-001	 1.026793631430127e+000	 1.028513037847082e+000
1	 4.019111694566534e-001	 1.031108381275849e+000	 9.668323396180893e-001
1	 3.909917291668159e-001	 1.035298268356127e+000	 9.106492414570004e-001
1	 3.800535666566081e-001	 1.039363401150492e+000	 8.597538838910110e-001
1	 3.690987155269897e-001	 1.043303930603482e+000	 8.139214790643172e-001
1	 3.581291963203557e-001	 1.047120049551180e+000	 7.729129763652360e-001
1	 3.471470155062802e-001	 1.050811992119420e+000	 7.364757392358210e-001
1	 3.361541644938120e-001	 1.054380033094837e+000	 7.043442315810755e-001
1	 3.251526186710684e-001	 1.057824487269989e+000	 6.762407122100864e-001
1	 4.450079046373392e-001	 1.042315528290796e+000	 1.421415555649543e+000
1	 4.338954662448555e-001	 1.046990152798254e+000	 1.339256616345544e+000
1	 4.227575371932061e-001	 1.051536816131212e+000	 1.263157805981201e+000
1	 4.115962337165135e-001	 1.055955540766905e+000	 1.192970441110964e+000
1	 4.004136619463353e-001	 1.060246393753604e+000	 1.128529022734875e+000
1	 3.892119167965866e-001	 1.064409486184943e+000	 1.069651839657437e+000
1	 3.779930808729985e-001	 1.068444972642865e+000	 1.016141587895250e+000
1	 3.667592234080577e-001	 1.072353050610340e+000	 9.677860045699274e-001
1	 3.555123992223095e-001	 1.076133959855069e+000	 9.243585147253204e-001
1	 3.442546477128533e-001	 1.079787981785380e+000	 8.856188895099217e-001
1	 3.329879918697909e-001	 1.083315438779566e+000	 8.513139141752837e-001
1	 4.554792275868185e-001	 1.066841884780397e+000	 1.600495750631982e+000
1	 4.441053063534079e-001	 1.071626506216606e+000	 1.512880792399782e+000
1	 4.327052946491252e-001	 1.076280155469341e+000	 1.431661645849017e+000
1	 4.212813585044587e-001	 1.080802855544754e+000	 1.356705850484164e+000
1	 4.098356536096111e-001	 1.085194675068824e+000	 1.287862926955494e+000
1	 3.983703241731847e-001	 1.089455727749307e+000	 1.224964975383951e+000
1	 3.868875018059778e-001	 1.093586171805575e+000	 1.167827291879810e+000
1	 3.753893044308635e-001	 1.097586209367517e+000	 1.116249001657137e+000
1	 3.638778352196510e-001	 1.101456085844740e+000	 1.070013707142504e+000
1	 3.523551815577795e-001	 1.105196089267309e+000	 1.028890149473599e+000
1	 3.408234140376239e-001	 1.108806549599300e+000	 9.926328817924341e-001
1	 4.659505976530813e-001	 1.091368351630633e+000	 1.717271554488494e+000
1	 4.543151924021957e-001	 1.096262970490503e+000	 1.627709329903465e+000
1	 4.426530968660691e-001	 1.101023606144375e+000	 1.544989776606486e+000
1	 4.309665268717704e-001	 1.105650282127328e+000	 1.468984343395230e+000
1	 4.192576876683626e-001	 1.110143068643055e+000	 1.399544673075651e+000
1	 4.075287727593479e-001	 1.114502082013446e+000	 1.336503224711189e+000
1	 3.957819627608042e-001	 1.118727484095319e+000	 1.279673916665368e+000
1	 3.840194242862014e-001	 1.122819481665505e+000	 1.228852788738369e+000
1	 3.722433088588223e-001	 1.126778325775542e+000	 1.183818681686465e+000
1	 3.604557518526532e-001	 1.130604311077258e+000	 1.144333932413572e+000
1	 3.486588714625483e-001	 1.134297775120553e+000	 1.110145083122460e+000
1	 4.764219965116759e-001	 1.115894885921038e+000	 1.781686979353026e+000
1	 4.645251065243293e-001	 1.120899502507002e+000	 1.693730372852702e+000
1	 4.526009264357542e-001	 1.125767124856174e+000	 1.613143179164300e+000
1	 4.406517218697301e-001	 1.130497777032559e+000	 1.539789207367305e+000
1	 4.286797476343089e-001	 1.135091530817564e+000	 1.473510111119496e+000
1	 4.166872465280219e-001	 1.139548505147221e+000	 1.414126062756248e+000
1	 4.046764481723544e-001	 1.143868865515805e+000	 1.361436451225655e+000
1	 3.926495678715002e-001	 1.148052823347096e+000	 1.315220601993055e+000
1	 3.806088055003413e-001	 1.152100635334577e+000	 1.275238517032327e+000
1	 3.685563444215374e-001	 1.156012602751863e+000	 1.241231633018175e+000
1	 3.564943504325456e-001	 1.159789070734689e+000	 1.212923595832513e+000
1	 4.868934058381502e-001	 1.140421444731140e+000	 1.802830259915430e+000
1	 4.747350308529196e-001	 1.145536059153163e+000	 1.720072531794743e+000
1	 4.625487659498976e-001	 1.150510668304600e+000	 1.645262239357727e+000
1	 4.503369265496191e-001	 1.155345296778377e+000	 1.578244701707017e+000
1	 4.381018170191693e-001	 1.160040017933618e+000	 1.518840190487523e+000
1	 4.258457294521523e-001	 1.164594953320496e+000	 1.466844682815421e+000
1	 4.135709424755047e-001	 1.169010272070738e+000	 1.422030641521154e+000
1	 4.012797200841876e-001	 1.173286190255079e+000	 1.384147820605279e+000
1	 3.889743105047258e-001	 1.177422970208952e+000	 1.352924093792254e+000
1	 3.766569450884946e-001	 1.181420919827755e+000	 1.328066304060096e+000
1	 3.643298372355972e-001	 1.185280391833071e+000	 1.309261132019684e+000
1	 4.973648073080526e-001	 1.164947985140473e+000	 1.789023895628921e+000
1	 4.849449475210769e-001	 1.170172597316046e+000	 1.715095325937043e+000
1	 4.724965980002162e-001	 1.175254193189512e+000	 1.649717306486162e+000
1	 4.600221239627189e-001	 1.180192797882715e+000	 1.592706455929124e+000
1	 4.475238793346630e-001	 1.184988486332486e+000	 1.543850928837473e+000
1	 4.350042055046848e-001	 1.189641382703130e+000	 1.502911273578074e+000
1	 4.224654301051317e-001	 1.194151659763825e+000	 1.469621321403349e+000
1	 4.099098658216921e-001	 1.198519538232249e+000	 1.443689104361966e+000
1	 3.973398092324932e-001	 1.202745286085772e+000	 1.424797799619019e+000
1	 3.847575396775875e-001	 1.206829217841571e+000	 1.412606697766815e+000
1	 3.721653181596841e-001	 1.210771693807061e+000	 1.406752192702351e+000
1	 2.938118898076575e-001	 9.558631665059839e-001	-5.976756738492934e-001
1	 2.838646710056856e-001	 9.588642626988490e-001	-5.502439597597975e-001
1	 2.739131178235836e-001	 9.617543577873684e-001	-5.004120739327163e-001
1	 2.639589660669881e-001	 9.645338394785437e-001	-4.486621760571139e-001
1	 2.540039338948810e-001	 9.672031290579124e-001	-3.954789008815567e-001
1	 2.440497210832211e-001	 9.697626806991601e-001	-3.413485622493813e-001
1	 2.340980083161347e-001	 9.722129807570793e-001	-2.867583710646078e-001
1	 2.241504565049765e-001	 9.745545470450377e-001	-2.321956683729232e-001
1	 2.142087061355225e-001	 9.767879280981020e-001	-1.781471746790535e-001
1	 2.042743766435056e-001	 9.789137024229728e-001	-1.250982565492746e-001
1	 1.943490658186562e-001	 9.809324777358748e-001	-7.353221148280209e-002
1	 3.016469300097510e-001	 9.813530346885655e-001	-1.664793713137645e-001
1	 2.914344501272309e-001	 9.844341606898325e-001	-1.447398746641793e-001
1	 2.812175202806164e-001	 9.874013255358586e-001	-1.200371744765940e-001
1	 2.709979225639719e-001	 9.902549272725891e-001	-9.280397800691187e-002
1	 2.607774209541259e-001	 9.929953984199388e-001	-6.347713370357688e-002
1	 2.505577605546664e-001	 9.956232052629930e-001	-3.249686068236279e-002
1	 2.403406668682317e-001	 9.981388471261151e-001	-3.059890517951303e-004
1	 2.301278450974101e-001	 1.000542855631143e+000	 3.265078769725083e-002
1	 2.199209794745265e-001	 1.002835793940866e+000	 6.592764707527099e-002
1	 2.097217326205244e-001	 1.005018255988954e+000	 9.907835766096529e-002
1	 1.995317449331146e-001	 1.007090865697531e+000	 1.316569838117605e-001
1	 3.094820740290298e-001	 1.006843240615851e+000	 1.800057219690161e-001
1	 2.990043295512846e-001	 1.010004397486102e+000	 1.815349445846159e-001
1	 2.885220195238800e-001	 1.013048633111059e+000	 1.865514107623691e-001
1	 2.780369723299312e-001	 1.015976355875734e+000	 1.946505116297237e-001
1	 2.675509977647322e-001	 1.018788009534555e+000	 2.054219980186707e-001
1	 2.570658862601135e-001	 1.021484072484157e+000	 2.184507532141198e-001
1	 2.465834081378283e-001	 1.024065057018631e+000	 2.333175570795714e-001
1	 2.361053128922978e-001	 1.026531508568457e+000	 2.495998402797284e-001
1	 2.256333285029852e-001	 1.028884004924326e+000	 2.668724273734151e-001
1	 2.151691607766283e-001	 1.031123155447072e+000	 2.847082676104873e-001
1	 2.047144927194935e-001	 1.033249600264920e+000	 3.026791523264527e-001
1	 3.173173081534752e-001	 1.032333739679205e+000	 4.564834719363931e-001
1	 3.065742960300393e-001	 1.035574928338934e+000	 4.429253657112975e-001
1	 2.958266027699861e-001	 1.038696235629327e+000	 4.333372240811237e-001
1	 2.850761030460263e-001	 1.041698080274572e+000	 4.273225241918062e-001
1	 2.743246524724559e-001	 1.044580917263729e+000	 4.244777604271794e-001
1	 2.635740868098781e-001	 1.047345237105108e+000	 4.243932459564532e-001
1	 2.528262211996883e-001	 1.049991565062670e+000	 4.266539070669833e-001
1	 2.420828494286584e-001	 1.052520460375683e+000	 4.308400689037155e-001
1	 2.313457432239043e-001	 1.054932515462900e+000	 4.365282312949983e-001
1	 2.206166515784635e-001	 1.057228355112487e+000	 4.432918334020122e-001
1	 2.098973001076576e-001	 1.059408635658941e+000	 4.507020059906521e-001
1	 3.251526186710684e-001	 1.057824487269989e+000	 6.762407122100864e-001
1	 3.141443363156863e-001	 1.061145708499603e+000	 6.523938566581697e-001
1	 3.031312572355475e-001	 1.064344088207020e+000	 6.329562656072452e-001
1	 2.921153023934180e-001	 1.067420055455696e+000	 6.175207020918405e-001
1	 2.810983732230516e-001	 1.070374076469423e+000	 6.056717511617076e-001
1	 2.700823508142763e-001	 1.073206653868300e+000	 5.969866758230586e-001
1	 2.590690951285749e-001	 1.075918325886272e+000	 5.910362663810838e-001
1	 2.480604442455114e-001	 1.078509665571523e+000	 5.873856816815808e-001
1	 2.370582136402893e-001	 1.080981279971006e+000	 5.855952808083345e-001
1	 2.260641954926758e-001	 1.083333809300356e+000	 5.852214438543539e-001
1	 2.150801580274720e-001	 1.085567926100499e+000	 5.858173804465392e-001
1	 3.329879918697909e-001	 1.083315438779566e+000	 8.513139141752837e-001
1	 3.217144371604180e-001	 1.086716693219385e+000	 8.216830885205422e-001
1	 3.104359701371767e-001	 1.089992145960496e+000	 7.968555026232411e-001
1	 2.991545580532665e-001	 1.093142236405699e+000	 7.763955032637924e-001
1	 2.878721481622749e-001	 1.096167442013604e+000	 7.598582027528882e-001
1	 2.765906668836243e-001	 1.099068277516188e+000	 7.467904139682355e-001
1	 2.653120189992519e-001	 1.101845294117478e+000	 7.367315786490094e-001
1	 2.540380868818761e-001	 1.104499078674683e+000	 7.292146872921554e-001
1	 2.427707297551457e-001	 1.107030252863060e+000	 7.237671890579458e-001
1	 2.315117829859112e-001	 1.109439472325838e+000	 7.199118901586235e-001
1	 2.202630574088015e-001	 1.111727425810493e+000	 7.171678392726086e-001
1	 3.408234140376239e-001	 1.108806549599300e+000	 9.926328817924341e-001
1	 3.292845853164264e-001	 1.112287837749558e+000	 9.614561238664341e-001
1	 3.177407286914863e-001	 1.115640364006114e+000	 9.354295285744829e-001
1	 3.061938577067329e-001	 1.118864578111176e+000	 9.140723211489581e-001
1	 2.946459654358808e-001	 1.121960968758238e+000	 8.968935668789198e-001
1	 2.830990236282379e-001	 1.124930062791226e+000	 8.833932091375307e-001
1	 2.715549818864825e-001	 1.127772424384331e+000	 8.730630997880535e-001
1	 2.600157668767714e-001	 1.130488654203866e+000	 8.653880201309754e-001
1	 2.484832815714790e-001	 1.133079388553482e+000	 8.598466906252766e-001
1	 2.369594045248157e-001	 1.135545298504095e+000	 8.559127676913039e-001
1	 2.254459891815114e-001	 1.137887089009828e+000	 8.530558259778025e-001
1	 3.486588714625483e-001	 1.134297775120553e+000	 1.110145083122460e+000
1	 3.368547675359032e-001	 1.137859097341395e+000	 1.081417714280012e+000
1	 3.250455201150881e-001	 1.141288697460231e+000	 1.058138806888014e+000
1	 3.132331890349774e-001	 1.144587035558720e+000	 1.039766666385442e+000
1	 3.014198131896247e-001	 1.147754611565289e+000	 1.025748636776600e+000
1	 2.896074096584332e-001	 1.150791964435870e+000	 1.015522264807198e+000
1	 2.777979728650305e-001	 1.153699671314873e+000	 1.008516454929944e+000
1	 2.659934737692167e-001	 1.156478346677774e+000	 1.004152613011172e+000
1	 2.541958590922948e-001	 1.159128641456689e+000	 1.001845776813657e+000
1	 2.424070505760352e-001	 1.161651242150283e+000	 1.001005731371294e+000
1	 2.306289442754662e-001	 1.164046869919403e+000	 1.001038107461084e+000
1	 3.564943504325456e-001	 1.159789070734689e+000	 1.212923595832513e+000
1	 3.444249705710406e-001	 1.163430427246173e+000	 1.190419611745162e+000
1	 3.323503316245950e-001	 1.166937101439205e+000	 1.173612331090752e+000
1	 3.202725397191609e-001	 1.170309563734924e+000	 1.161884168367025e+000
1	 3.081936795692620e-001	 1.173548325296723e+000	 1.154605892714744e+000
1	 2.961158135845262e-001	 1.176653937192574e+000	 1.151137940732038e+000
1	 2.840409810096594e-001	 1.179626989537143e+000	 1.150831717797501e+000
1	 2.719711970982313e-001	 1.182468110615112e+000	 1.153030885619225e+000
1	 2.599084523205987e-001	 1.185177965987098e+000	 1.157072633818757e+000
1	 2.478547116062156e-001	 1.187757257579563e+000	 1.162288933456123e+000
1	 2.358119136205311e-001	 1.190206722760122e+000	 1.168007770501108e+000
1	 3.643298372355972e-001	 1.185280391833071e+000	 1.309261132019684e+000
1	 3.519951811740304e-001	 1.189001782715169e+000	 1.296552299045388e+000
1	 3.396551504366194e-001	 1.192585531059394e+000	 1.289737045854981e+000
1	 3.273118974404439e-001	 1.196032117626382e+000	 1.288107680577908e+000
1	 3.149675527205474e-001	 1.199342064814506e+000	 1.290944293774183e+000
1	 3.026242240168331e-001	 1.202515935803794e+000	 1.297516241762886e+000
1	 2.902839953951324e-001	 1.205554333679185e+000	 1.307083615509018e+000
1	 2.779489264028342e-001	 1.208457900534584e+000	 1.318898692523799e+000
1	 2.656210512593961e-001	 1.211227316559126e+000	 1.332207369339359e+000
1	 2.533023780820031e-001	 1.213863299107094e+000	 1.346250572230530e+000
1	 2.409948881465711e-001	 1.216366601752886e+000	 1.360265643970169e+000
1	 3.721653181596841e-001	 1.210771693807061e+000	 1.406752192702351e+000
1	 3.595653860970648e-001	 1.214573118999657e+000	 1.407225139496307e+000
1	 3.469599637677736e-001	 1.218233941437156e+000	 1.413735978925380e+000
1	 3.343512498799868e-001	 1.221754652219686e+000	 1.425473389162689e+000
1	 3.217414207892365e-001	 1.225135784980602e+000	 1.441613364943506e+000
1	 3.091326295656697e-001	 1.228377915011984e+000	 1.461320892723176e+000
1	 2.965270050962135e-001	 1.231481658369039e+000	 1.483751607791517e+000
1	 2.839266512220445e-001	 1.234447670954891e+000	 1.508053430509847e+000
1	 2.713336459116925e-001	 1.237276647587193e+000	 1.533368178959687e+000
1	 2.587500404700435e-001	 1.239969321048035e+000	 1.558833155422436e+000
1	 2.461778587834510e-001	 1.242526461118597e+000	 1.583582704237790e+000
1	 1.943490658186562e-001	 9.809324777358748e-001	-7.353221148280209e-002
1	 1.844358351184654e-001	 9.828446114249162e-001	-2.330109604427477e-002
1	 1.745347453506195e-001	 9.846510785005695e-001	 2.579958214820621e-002
1	 1.646473231798206e-001	 9.863525701375677e-001	 7.335292555718453e-002
1	 1.547750715930052e-001	 9.879498035443918e-001	 1.189456788055407e-001
1	 1.449194694473046e-001	 9.894435211587168e-001	 1.621687609353737e-001
1	 1.350819710464209e-001	 9.908344898374509e-001	 2.026177785658438e-001
1	 1.252640057452703e-001	 9.921235000424145e-001	 2.398935195038208e-001
1	 1.154669775827059e-001	 9.933113650226917e-001	 2.736024264183037e-001
1	 1.056922649420934e-001	 9.943989199946589e-001	 3.033570502438217e-001
1	 9.594122023947826e-002	 9.953870213206724e-001	 3.287764830349964e-001
1	 1.995317449331146e-001	 1.007090865697531e+000	 1.316569838117605e-001
1	 1.893541595092008e-001	 1.009053989985139e+000	 1.638718772471686e-001
1	 1.791890387780154e-001	 1.010908629862745e+000	 1.959646471000154e-001
1	 1.690379501156185e-001	 1.012655494936566e+000	 2.275273918294349e-001
1	 1.589024365888928e-001	 1.014295321540812e+000	 2.581552884762983e-001
1	 1.487840164914498e-001	 1.015828871911665e+000	 2.874471330805717e-001
1	 1.386841829087089e-001	 1.017256933355725e+000	 3.150058623956449e-001
1	 1.286044033119977e-001	 1.018580317413973e+000	 3.404390564309603e-001
1	 1.185461191814810e-001	 1.019799859022319e+000	 3.633594214039970e-001
1	 1.085107456576848e-001	 1.020916415669762e+000	 3.833852527448061e-001
1	 9.849967122134784e-002	 1.021930866555178e+000	 4.001408778507409e-001
1	 2.047144927194935e-001	 1.033249600264920e+000	 3.026791523264518e-001
1	 1.942725490689864e-001	 1.035263715826961e+000	 3.210622591728800e-001
1	 1.838433938759067e-001	 1.037166529144998e+000	 3.401472633143499e-001
1	 1.734286352282084e-001	 1.038958768256984e+000	 3.595179937284465e-001
1	 1.630298562732489e-001	 1.040641188623105e+000	 3.787611309039187e-001
1	 1.526486147416392e-001	 1.042214572278316e+000	 3.974667737183966e-001
1	 1.422864425010269e-001	 1.043679726979181e+000	 4.152289870440642e-001
1	 1.319448451396532e-001	 1.045037485346122e+000	 4.316463295716835e-001
1	 1.216253015794878e-001	 1.046288704002162e+000	 4.463223614108411e-001
1	 1.113292637187009e-001	 1.047434262709218e+000	 4.588661310792412e-001
1	 1.010581561032000e-001	 1.048475063502991e+000	 4.688926415546373e-001
1	 2.098973001076576e-001	 1.059408635658941e+000	 4.507020059906521e-001
1	 1.991909951903410e-001	 1.061473743082011e+000	 4.591121895827621e-001
1	 1.884978024988978e-001	 1.063424730394631e+000	 4.688699124624627e-001
1	 1.778193708336417e-001	 1.065262344066698e+000	 4.795345679477596e-001
1	 1.671573234228622e-001	 1.066987358684599e+000	 4.906684954614500e-001
1	 1.565132574346204e-001	 1.068600576082287e+000	 5.018375914625306e-001
1	 1.458887435192353e-001	 1.070102824466526e+000	 5.126118995898450e-001
1	 1.352853253822973e-001	 1.071494957537422e+000	 5.225661794776499e-001
1	 1.247045193880084e-001	 1.072777853605358e+000	 5.312804537614362e-001
1	 1.141478141926033e-001	 1.073952414705431e+000	 5.383405328601816e-001
1	 1.036166704075698e-001	 1.075019565710424e+000	 5.433385171841438e-001
1	 2.150801580274720e-001	 1.085567926100499e+000	 5.858173804465401e-001
1	 2.041094892657835e-001	 1.087684025881921e+000	 5.878193445710682e-001
1	 1.931522565015936e-001	 1.089683187658944e+000	 5.916414543875872e-001
1	 1.822101492479695e-001	 1.091566176333587e+000	 5.968034945799445e-001
1	 1.712848308145208e-001	 1.093333785618622e+000	 6.028285987894648e-001
1	 1.603779378071407e-001	 1.094986837147195e+000	 6.092439215400001e-001
1	 1.494910796591944e-001	 1.096526179576467e+000	 6.155812869589403e-001
1	 1.386258381939902e-001	 1.097952687686432e+000	 6.213778137060113e-001
1	 1.277837672183250e-001	 1.099267261475050e+000	 6.261765155926216e-001
1	 1.169663921468533e-001	 1.100470825250804e+000	 6.295268774462270e-001
1	 1.061752096569922e-001	 1.101564326723789e+000	 6.309854058429565e-001
1	 2.202630574088015e-001	 1.111727425810493e+000	 7.171678392726086e-001
1	 2.090280226878327e-001	 1.113894518358322e+000	 7.160598513550061e-001
1	 1.978067477385987e-001	 1.115941854985237e+000	 7.170764195564816e-001
1	 1.866009627872433e-001	 1.117870219025528e+000	 7.196834465214343e-001
1	 1.754123712250137e-001	 1.119680423318503e+000	 7.233508828186817e-001
1	 1.642426490959477e-001	 1.121373309296657e+000	 7.275534762178064e-001
1	 1.530934446167645e-001	 1.122949746067712e+000	 7.317714944668552e-001
1	 1.419663777287924e-001	 1.124410629491716e+000	 7.354914209304013e-001
1	 1.308630396817196e-001	 1.125756881254374e+000	 7.382066225303299e-001
1	 1.197849926489122e-001	 1.126989447937741e+000	 7.394179895093758e-001
1	 1.087337693740024e-001	 1.128109300089399e+000	 7.386345466182740e-001
1	 2.254459891815114e-001	 1.137887089009828e+000	 8.530558259778012e-001
1	 2.139465868490073e-001	 1.140105174642845e+000	 8.518942594957442e-001
1	 2.024612680645179e-001	 1.142200686420811e+000	 8.529978572018235e-001
1	 1.909918037675143e-001	 1.144174426110399e+000	 8.557651829706687e-001
1	 1.795399374311293e-001	 1.146027225677570e+000	 8.595998326583132e-001
1	 1.681073845377889e-001	 1.147759946354290e+000	 8.639112765564119e-001
1	 1.566958320878059e-001	 1.149373477698966e+000	 8.681156712007310e-001
1	 1.453069381407641e-001	 1.150868736651832e+000	 8.716366398353119e-001
1	 1.339423313894744e-001	 1.152246666586471e+000	 8.739060209286529e-001
1	 1.226036107662416e-001	 1.153508236358646e+000	 8.743645842276768e-001
1	 1.112923450811353e-001	 1.154654439353569e+000	 8.724627139256533e-001
1	 2.306289442754662e-001	 1.164046869919403e+000	 1.001038107461083e+000
1	 2.188651731418264e-001	 1.166315948867122e+000	 1.002659232204268e+000
1	 2.071158093339557e-001	 1.168459636012969e+000	 1.006526324394242e+000
1	 1.953826645048336e-001	 1.170478751556079e+000	 1.011957895480038e+000
1	 1.836675222096561e-001	 1.172374146589152e+000	 1.018278748009437e+000
1	 1.719721373694118e-001	 1.174146702143711e+000	 1.024820926604258e+000
1	 1.602982357681789e-001	 1.175797328228936e+000	 1.030924633314203e+000
1	 1.486475135839656e-001	 1.177326962865341e+000	 1.035939106587649e+000
1	 1.370216369528716e-001	 1.178736571114481e+000	 1.039223463205011e+000
1	 1.254222415663026e-001	 1.180027144105923e+000	 1.040147502625022e+000
1	 1.138509323009261e-001	 1.181199698062607e+000	 1.038092473296420e+000
1	 2.358119136205311e-001	 1.190206722760122e+000	 1.168007770501108e+000
1	 2.237837729588087e-001	 1.192526795162782e+000	 1.175047153392634e+000
1	 2.117703634015170e-001	 1.194718657809009e+000	 1.184157146995677e+000
1	 1.997735373152527e-001	 1.196783149330445e+000	 1.194564174221476e+000
1	 1.877951183373826e-001	 1.198721139946578e+000	 1.205502474112855e+000
1	 1.758369008275638e-001	 1.200533530488537e+000	 1.216215176243901e+000
1	 1.639006493537439e-001	 1.202221251416331e+000	 1.225955333714730e+000
1	 1.519880982124574e-001	 1.203785261830803e+000	 1.233986913911129e+000
1	 1.401009509831934e-001	 1.205226548481542e+000	 1.239585746321503e+000
1	 1.282408801165569e-001	 1.206546124771974e+000	 1.242040426823498e+000
1	 1.164095265559098e-001	 1.207745029762830e+000	 1.240653177968524e+000
1	 2.409948881465711e-001	 1.216366601752886e+000	 1.360265643970168e+000
1	 2.287023776924731e-001	 1.218737667661458e+000	 1.375175468593380e+000
1	 2.164249221218062e-001	 1.220977705856232e+000	 1.391827717035870e+000
1	 2.041644145148228e-001	 1.223087573401375e+000	 1.409345306599457e+000
1	 1.919227185910973e-001	 1.225068159643175e+000	 1.426860753312361e+000
1	 1.797016681489924e-001	 1.226920385212384e+000	 1.443517384253679e+000
1	 1.675030665403610e-001	 1.228645201019855e+000	 1.458470501901485e+000
1	 1.553286861802999e-001	 1.230243587246780e+000	 1.470888499601275e+000
1	 1.431802680917217e-001	 1.231716552330795e+000	 1.479953927389287e+000
1	 1.310595214844657e-001	 1.233065131949204e+000	 1.484864507543096e+000
1	 1.189681233686213e-001	 1.234290388000549e+000	 1.484834099365035e+000
1	 2.461778587834510e-001	 1.242526461118597e+000	 1.583582704237790e+000
1	 2.336209787353383e-001	 1.244948520494780e+000	 1.608647271826833e+000
1	 2.210794773494283e-001	 1.247236734201940e+000	 1.634976294028740e+000
1	 2.085552884195952e-001	 1.249391977736748e+000	 1.661578332143423e+000
1	 1.960503157475887e-001	 1.251415159572273e+000	 1.687473578707939e+000
1	 1.835664325704451e-001	 1.253307220138870e+000	 1.711695221877217e+000
1	 1.711054810238907e-001	 1.255069130798217e+000	 1.733290754488623e+000
1	 1.586692716415533e-001	 1.256701892811832e+000	 1.751323226826218e+000
1	 1.462595828897389e-001	 1.258206536305377e+000	 1.764872442258515e+000
1	 1.338781607374904e-001	 1.259584119230016e+000	 1.773036095081445e+000
1	 1.215267182615959e-001	 1.260835726322077e+000	 1.774930850048140e+000
1	 9.594122023947826e-002	 9.953870213206724e-001	 3.287764830349973e-001
1	 8.621371590998771e-002	 9.962766718121100e-001	 3.494059173046580e-001
1	 7.651253352126197e-002	 9.970686125683425e-001	 3.652015841970773e-001
1	 6.683896610081609e-002	 9.977637591031845e-001	 3.764257828659501e-001
1	 5.719427911104252e-002	 9.983630448185402e-001	 3.833549408856793e-001
1	 4.757971027342495e-002	 9.988674201817245e-001	 3.862788003558686e-001
1	 3.799646941872237e-002	 9.992778519071311e-001	 3.854996078163566e-001
1	 2.844573836262614e-002	 9.995953221430520e-001	 3.813313092962725e-001
1	 1.892867080636993e-002	 9.998208276644112e-001	 3.740987517667502e-001
1	 9.446392261750820e-003	 9.999553790721549e-001	 3.641368922058259e-001
1	 0.000000000000000e+000	 1.000000000000000e+000	 3.517900154253759e-001
1	 9.849967122134784e-002	 1.021930866555178e+000	 4.001408778507427e-001
1	 8.851276490585905e-002	 1.022844241231782e+000	 4.136462948172230e-001
1	 7.855288245458961e-002	 1.023657300561674e+000	 4.242186889447996e-001
1	 6.862135137610577e-002	 1.024370984472468e+000	 4.319490267028128e-001
1	 5.871947087877501e-002	 1.024986251256887e+000	 4.369403056620902e-001
1	 4.884851169029209e-002	 1.025504076728145e+000	 4.393070415385383e-001
1	 3.900971590386801e-002	 1.025925453379797e+000	 4.391747531037984e-001
1	 2.920429685057127e-002	 1.026251389550869e+000	 4.366794459521106e-001
1	 1.943343899728735e-002	 1.026482908597069e+000	 4.319670960831736e-001
1	 9.698297869740295e-003	 1.026621048068823e+000	 4.251931342239574e-001
1	 0.000000000000000e+000	 1.026666858896872e+000	 4.165219317809816e-001
1	 1.010581561032000e-001	 1.048475063502991e+000	 4.688926415546373e-001
1	 9.081184436458804e-002	 1.049412162678889e+000	 4.767496211727957e-001
1	 8.059325842294966e-002	 1.050246340862016e+000	 4.829893974166053e-001
1	 7.040376026835941e-002	 1.050978562394118e+000	 4.875507283933134e-001
1	 6.024468285560691e-002	 1.051609810459080e+000	 4.903831499838356e-001
1	 5.011732991903549e-002	 1.052141086216367e+000	 4.914467197997441e-001
1	 4.002297581473577e-002	 1.052573407939045e+000	 4.907117531107081e-001
1	 2.996286538957108e-002	 1.052907810157237e+000	 4.881585514706286e-001
1	 1.993821387648640e-002	 1.053145342807795e+000	 4.837771247656342e-001
1	 9.950206815530570e-003	 1.053287070390996e+000	 4.775669073889386e-001
1	 0.000000000000000e+000	 1.053334071134978e+000	 4.695364692398245e-001
1	 1.036166704075698e-001	 1.075019565710424e+000	 5.433385171841438e-001
1	 9.311095026268376e-002	 1.075980389658250e+000	 5.468354557364501e-001
1	 8.263365785559604e-002	 1.076835686937252e+000	 5.495240422649061e-001
1	 7.218618965828602e-002	 1.077586446303606e+000	 5.512083437056905e-001
1	 6.176991237235399e-002	 1.078233675832652e+000	 5.517027599607722e-001
1	 5.138616273917152e-002	 1.078778402030408e+000	 5.508319829024231e-001
1	 4.103624737808009e-002	 1.079221668949764e+000	 5.484309414833142e-001
1	 3.072144265210044e-002	 1.079564537312246e+000	 5.443447334930305e-001
1	 2.044299456059113e-002	 1.079808083636172e+000	 5.384285445119224e-001
1	 1.020211865827111e-002	 1.079953399371987e+000	 5.305475546189378e-001
1	 0.000000000000000e+000	 1.080001590045551e+000	 5.205768334180885e-001
1	 1.061752096569922e-001	 1.101564326723789e+000	 6.309854058429565e-001
1	 9.541007857665536e-002	 1.102548875674684e+000	 6.312415781980771e-001
1	 8.467407718178255e-002	 1.103425292255272e+000	 6.310617233340485e-001
1	 7.396863642659476e-002	 1.104194589636403e+000	 6.301312819416918e-001
1	 6.329515675983211e-002	 1.104857800785134e+000	 6.281463593404517e-001
1	 5.265500793021657e-002	 1.105415977554288e+000	 6.248138596175679e-001
1	 4.204952882065536e-002	 1.105870189776840e+000	 6.198516000266805e-001
1	 3.148002731063426e-002	 1.106221524365987e+000	 6.129884060667141e-001
1	 2.094778016622558e-002	 1.106471084421780e+000	 6.039641876875068e-001
1	 1.045403295711135e-002	 1.106619988345106e+000	 5.925299970925337e-001
1	 0.000000000000000e+000	 1.106669368959824e+000	 5.784480686333762e-001
1	 1.087337693740024e-001	 1.128109300089399e+000	 7.386345466182740e-001
1	 9.770922528301189e-002	 1.129117574233009e+000	 7.366160465871454e-001
1	 8.671451283076313e-002	 1.130015110283961e+000	 7.341611273512809e-001
1	 7.575109745399473e-002	 1.130802945827984e+000	 7.308513526765834e-001
1	 6.482041334885706e-002	 1.131482138724057e+000	 7.262800300653058e-001
1	 5.392386327168702e-002	 1.132053766172024e+000	 7.200524818851077e-001
1	 4.306281836921606e-002	 1.132518923785159e+000	 7.117862909185364e-001
1	 3.223861803764742e-002	 1.132878724668551e+000	 7.011115206977561e-001
1	 2.145256981001380e-002	 1.133134298504202e+000	 6.876709110318062e-001
1	 1.070594927120077e-002	 1.133286790643667e+000	 6.711200491727372e-001
1	 0.000000000000000e+000	 1.133337361209029e+000	 6.511275171014317e-001
1	 1.112923450811353e-001	 1.154654439353569e+000	 8.724627139256524e-001
1	 1.000083863582626e-001	 1.155686438838045e+000	 8.689965652179508e-001
1	 8.875496123179164e-002	 1.156605094491205e+000	 8.647788282486202e-001
1	 7.753356962119498e-002	 1.157411468313821e+000	 8.593007445412910e-001
1	 6.634567947024467e-002	 1.158106643056953e+000	 8.520670995572566e-001
1	 5.519272654309929e-002	 1.158691721267636e+000	 8.425965942773575e-001
1	 4.407611425051655e-002	 1.159167824339610e+000	 8.304221853579348e-001
1	 3.299721350561483e-002	 1.159536091570028e+000	 8.150913942364326e-001
1	 2.195736260857985e-002	 1.159797679223020e+000	 7.961665856165014e-001
1	 1.095786715968880e-002	 1.159953759600982e+000	 7.732252158130120e-001
1	 0.000000000000000e+000	 1.160005520124402e+000	 7.458600514834535e-001
1	 1.138509323009261e-001	 1.181199698062607e+000	 1.038092473296421e+000
1	 1.023075577789164e-001	 1.182255422994611e+000	 1.033879157593920e+000
1	 9.079541881412195e-002	 1.183195198344892e+000	 1.028337036310728e+000
1	 7.931604980890467e-002	 1.184020110529385e+000	 1.020879496159194e+000
1	 6.787095245481080e-002	 1.184731267191354e+000	 1.010935965110998e+000
1	 5.646159552396973e-002	 1.185329796225141e+000	 9.979523493547946e-001
1	 4.508941469131135e-002	 1.185816844805080e+000	 9.813914329658058e-001
1	 3.375581238701138e-002	 1.186193578420509e+000	 9.607332407361486e-001
1	 2.246215767854776e-002	 1.186461179917814e+000	 9.354753646782212e-001
1	 1.120978618172491e-002	 1.186620848550362e+000	 9.051332547737099e-001
1	 0.000000000000000e+000	 1.186673799037174e+000	 8.692404745957854e-001
1	 1.164095265559098e-001	 1.207745029762830e+000	 1.240653177968525e+000
1	 1.046067355214827e-001	 1.208824480207525e+000	 1.236277788730010e+000
1	 9.283588200700799e-002	 1.209785375312910e+000	 1.229782418485040e+000
1	 8.109853489783288e-002	 1.210628825910150e+000	 1.220514074912246e+000
1	 6.939622963337121e-002	 1.211355964534790e+000	 1.207838979533440e+000
1	 5.773046799381471e-002	 1.211967944428558e+000	 1.191143036302442e+000
1	 4.610271791835479e-002	 1.212465938546455e+000	 1.169832257018811e+000
1	 3.451441335431199e-002	 1.212851138570085e+000	 1.143333144148653e+000
1	 2.296695413654160e-002	 1.213124753928167e+000	 1.111093031706291e+000
1	 1.146170589645856e-002	 1.213288010825121e+000	 1.072580384916800e+000
1	 0.000000000000000e+000	 1.213342151278578e+000	 1.027285059443444e+000
1	 1.189681233686213e-001	 1.234290388000549e+000	 1.484834099365035e+000
1	 1.069059155624703e-001	 1.235393563981607e+000	 1.480776298588541e+000
1	 9.487634723970356e-002	 1.236375578863143e+000	 1.473637333234392e+000
1	 8.288102176868868e-002	 1.237237567891589e+000	 1.462708401399841e+000
1	 7.092150833674175e-002	 1.237980688494794e+000	 1.447303742902380e+000
1	 5.899934173215066e-002	 1.238606119261905e+000	 1.426761106972841e+000
1	 4.711602215840136e-002	 1.239115058928622e+000	 1.400442170853050e+000
1	 3.527301507999153e-002	 1.239508725368846e+000	 1.367732910071934e+000
1	 2.347175109918541e-002	 1.239788354593661e+000	 1.328043921251821e+000
1	 1.171362586303918e-002	 1.239955199758569e+000	 1.280810698369142e+000
1	 0.000000000000000e+000	 1.240010530179849e+000	 1.225493863460292e+000
1	 1.215267182615959e-001	 1.260835726322077e+000	 1.774930850048141e+000
1	 1.092050938783885e-001	 1.261962627821675e+000	 1.771573779114647e+000
1	 9.691681094146259e-002	 1.262965762463481e+000	 1.764044597183758e+000
1	 8.466350730218121e-002	 1.263846289909173e+000	 1.751588432253956e+000
1	 7.244678589573828e-002	 1.264605392478897e+000	 1.733477918935910e+000
1	 6.026821451849391e-002	 1.265244274109201e+000	 1.709013633839052e+000
1	 4.812932563820546e-002	 1.265764159316469e+000	 1.677524475899242e+000
1	 3.603161623652491e-002	 1.266166292166884e+000	 1.638367992672320e+000
1	 2.397654768310324e-002	 1.266451935253877e+000	 1.590930653699036e+000
1	 1.196554564061625e-002	 1.266622368684020e+000	 1.534628072122486e+000
1	 0.000000000000000e+000	 1.266678889072220e+000	 1.468905175808063e+000
1	 1.266678889072220e+000	 0.000000000000000e+000	 2.320302410442157e+001
1	 1.266622368684020e+000	 1.196554564061589e-002	 2.312231720377437e+001
1	 1.266451935253877e+000	 2.397654768310291e-002	 2.304032114128200e+001
1	 1.266166292166884e+000	 3.603161623652462e-002	 2.295668041281666e+001
1	 1.265764159316469e+000	 4.812932563820523e-002	 2.287101753003115e+001
1	 1.265244274109201e+000	 6.026821451849370e-002	 2.278293289991678e+001
1	 1.264605392478897e+000	 7.244678589573808e-002	 2.269200473496270e+001
1	 1.263846289909172e+000	 8.466350730218104e-002	 2.259778899513923e+001
1	 1.262965762463481e+000	 9.691681094146247e-002	 2.249981936290215e+001
1	 1.261962627821675e+000	 1.092050938783884e-001	 2.239760725238686e+001
1	 1.260835726322077e+000	 1.215267182615958e-001	 2.229064185392802e+001
1	 1.293343190136032e+000	 0.000000000000000e+000	 2.328475300372336e+001
1	 1.293285479961983e+000	 1.221742708636594e-002	 2.318472430843454e+001
1	 1.293111458812611e+000	 2.448126745774412e-002	 2.308405975860504e+001
1	 1.292819802778529e+000	 3.679010196516097e-002	 2.298238455978528e+001
1	 1.292409204806197e+000	 4.914247493488750e-002	 2.287929738033655e+001
1	 1.291878375723875e+000	 6.153689423456663e-002	 2.277437014125891e+001
1	 1.291226045277082e+000	 7.397183137018699e-002	 2.266714784112205e+001
1	 1.290450963172669e+000	 8.644572161462837e-002	 2.255714841762859e+001
1	 1.289551900130541e+000	 9.895696416848014e-002	 2.244386264731530e+001
1	 1.288527648942039e+000	 1.115039223538046e-001	 2.232675408486955e+001
1	 1.287377025533950e+000	 1.240849238414894e-001	 2.220525904350359e+001
1	 1.320007431208043e+000	 0.000000000000000e+000	 2.350705169125200e+001
1	 1.319948531250828e+000	 1.246930796544279e-002	 2.338690776615087e+001
1	 1.319770922390312e+000	 2.498598609687760e-002	 2.326661757657854e+001
1	 1.319473253422687e+000	 3.754858598735979e-002	 2.314577461557093e+001
1	 1.319054190347506e+000	 5.015562195217481e-002	 2.302394209983445e+001
1	 1.318512417414775e+000	 6.280557109632907e-002	 2.290065270776864e+001
1	 1.317846638181773e+000	 7.549687341352278e-002	 2.277540835691460e+001
1	 1.317055576578641e+000	 8.822793191734575e-002	 2.264768002259185e+001
1	 1.316137977981791e+000	 1.009971128054112e-001	 2.251690759946128e+001
1	 1.315092610294107e+000	 1.138027456571139e-001	 2.238249980771987e+001
1	 1.313918265030891e+000	 1.266431236656700e-001	 2.224383414559745e+001
1	 1.346671618954121e+000	 0.000000000000000e+000	 2.386225503428626e+001
1	 1.346611529216121e+000	 1.272118834083840e-002	 2.372064355919731e+001
1	 1.346430332651642e+000	 2.549070372671896e-002	 2.357927086883195e+001
1	 1.346126650762511e+000	 3.830706849278583e-002	 2.343768698250982e+001
1	 1.345699122601420e+000	 5.116876694340033e-002	 2.329540868339539e+001
1	 1.345146405840179e+000	 6.407424542099520e-002	 2.315191924132536e+001
1	 1.344467177847875e+000	 7.702191240704667e-002	 2.300666817921387e+001
1	 1.343660136777989e+000	 9.001013865592053e-002	 2.285907108495899e+001
1	 1.342724002663489e+000	 1.030372573623213e-001	 2.270850947074512e+001
1	 1.341657518518851e+000	 1.161015643630453e-001	 2.255433068160032e+001
1	 1.340459451447940e+000	 1.292013183737076e-001	 2.239584785502668e+001
1	 1.373335760040133e+000	 0.000000000000000e+000	 2.434329323957264e+001
1	 1.373274480523431e+000	 1.297306827554474e-002	 2.417834641252964e+001
1	 1.373089696261268e+000	 2.599542047348385e-002	 2.401397345896935e+001
1	 1.372780001461154e+000	 3.906554967110389e-002	 2.384966977296571e+001
1	 1.372344008228968e+000	 5.218191016189717e-002	 2.368489530009193e+001
1	 1.371780347658369e+000	 6.534291752577912e-002	 2.351907428045037e+001
1	 1.371087670930295e+000	 7.854694873205982e-002	 2.335159503926825e+001
1	 1.370264650421613e+000	 9.179234227594005e-002	 2.318180982707242e+001
1	 1.369309980821894e+000	 1.050773983492762e-001	 2.300903471142284e+001
1	 1.368222380257244e+000	 1.184003790463279e-001	 2.283254952214289e+001
1	 1.367000591420135e+000	 1.317595086051721e-001	 2.265159785193607e+001
1	 1.399999861131944e+000	 0.000000000000000e+000	 2.494363515246184e+001
1	 1.399937391838324e+000	 1.322494783255377e-002	 2.475300895945451e+001
1	 1.399749019883856e+000	 2.650013646338787e-002	 2.456329219045794e+001
1	 1.399433312181770e+000	 3.982402971197879e-002	 2.437391502601426e+001
1	 1.398988853891177e+000	 5.319505186099846e-002	 2.418427070388898e+001
1	 1.398414249527623e+000	 6.661158772789502e-002	 2.399371531658198e+001
1	 1.397708124083939e+000	 8.007198276986338e-002	 2.380156766023318e+001
1	 1.396869124160417e+000	 9.357454322299173e-002	 2.360710913695851e+001
1	 1.395895919103263e+000	 1.071175362763417e-001	 2.340958371261005e+001
1	 1.394787202150259e+000	 1.206991902816907e-001	 2.320819793190521e+001
1	 1.393541691582514e+000	 1.343176949996336e-001	 2.300212099281222e+001
1	 1.426663928895423e+000	 0.000000000000000e+000	 2.565723791533793e+001
1	 1.426600269826366e+000	 1.347682707485748e-002	 2.543814773018049e+001
1	 1.426408310184067e+000	 2.700485182264664e-002	 2.522034963389982e+001
1	 1.426086589587512e+000	 4.058250880507529e-002	 2.500319852637419e+001
1	 1.425633666249075e+000	 5.420819229403738e-002	 2.478601156128756e+001
1	 1.425048118106222e+000	 6.788025634455708e-002	 2.456806803136347e+001
1	 1.424328543963713e+000	 8.159701490175865e-002	 2.434860930867001e+001
1	 1.423473564645299e+000	 9.535674194266298e-002	 2.412683884198626e+001
1	 1.422481824153855e+000	 1.091576716535834e-001	 2.390192221317074e+001
1	 1.421351990838867e+000	 1.229979986438629e-001	 2.367298725441183e+001
1	 1.420082758570117e+000	 1.368758781966621e-001	 2.343912422817442e+001
1	 1.453327969996434e+000	 0.000000000000000e+000	 2.647850216851049e+001
1	 1.453263121153126e+000	 1.372870606544782e-002	 2.622775508687545e+001
1	 1.453067573826569e+000	 2.750956667747578e-002	 2.597877310206896e+001
1	 1.452739840341533e+000	 4.134098714005817e-002	 2.573082624910187e+001
1	 1.452278451963687e+000	 5.522133171434703e-002	 2.548314667901548e+001
1	 1.451681960052446e+000	 6.914892369297943e-002	 2.523492866412038e+001
1	 1.450948937224526e+000	 8.312204550904671e-002	 2.498532866183466e+001
1	 1.450077978527162e+000	 9.713893888054118e-002	 2.473346543900225e+001
1	 1.449067702619928e+000	 1.111978049910672e-001	 2.447842025851105e+001
1	 1.447916752964040e+000	 1.252968047075733e-001	 2.421923712995790e+001
1	 1.446623799017982e+000	 1.394340588358277e-001	 2.395492312603022e+001
1	 1.479991991100845e+000	 0.000000000000000e+000	 2.740223209448670e+001
1	 1.479925952484172e+000	 1.398058486731675e-002	 2.711625635518373e+001
1	 1.479726817476025e+000	 2.801428115409090e-002	 2.683264917710134e+001
1	 1.479393071106986e+000	 4.209946490659224e-002	 2.655058659432705e+001
1	 1.478923217696040e+000	 5.623447037526055e-002	 2.626920726144692e+001
1	 1.478315782024575e+000	 7.041759009037626e-002	 2.598761261018036e+001
1	 1.477569310521282e+000	 8.464707497302881e-002	 2.570486706799932e+001
1	 1.476682372456905e+000	 9.892113448221360e-002	 2.541999834044007e+001
1	 1.475653561147740e+000	 1.132379367988586e-001	 2.513199775874015e+001
1	 1.474481495166753e+000	 1.275956090475512e-001	 2.483982069434827e+001
1	 1.473164819561149e+000	 1.419922375567004e-001	 2.454238704176362e+001
1	 1.506655998874523e+000	 0.000000000000000e+000	 2.842359970552998e+001
1	 1.506588770485068e+000	 1.423246354345626e-002	 2.809847150836389e+001
1	 1.506386047797100e+000	 2.851899537870764e-002	 2.777648306688432e+001
1	 1.506046288547026e+000	 4.285794229434227e-002	 2.745670769464596e+001
1	 1.505567970107163e+000	 5.724760853011109e-002	 2.713818245066964e+001
1	 1.504949590680887e+000	 7.168625585396171e-002	 2.681990847803660e+001
1	 1.504189670508888e+000	 8.617210367500612e-002	 2.650085140771278e+001
1	 1.503286753085432e+000	 1.007033291932677e-001	 2.617994182907748e+001
1	 1.502239406383549e+000	 1.152780675870235e-001	 2.585607582853833e+001
1	 1.501046224087976e+000	 1.298944122385254e-001	 2.552811559751468e+001
1	 1.499705826834654e+000	 1.445504149988501e-001	 2.519489011096545e+001
1	 1.533319999983334e+000	 0.000000000000000e+000	 2.953811285790753e+001
1	 1.533251581821384e+000	 1.448434215685830e-002	 2.916958084978904e+001
1	 1.533045271454459e+000	 2.902370947754161e-002	 2.880516220271547e+001
1	 1.532699499324805e+000	 4.361641949297307e-002	 2.844381917760184e+001
1	 1.532212715858080e+000	 5.826074643223177e-002	 2.808447950606489e+001
1	 1.531583392679665e+000	 7.295492130094992e-002	 2.772603694076900e+001
1	 1.530810023842251e+000	 8.769713199627982e-002	 2.736735187411389e+001
1	 1.529891127063640e+000	 1.024855234592909e-001	 2.700725202644284e+001
1	 1.528825244973612e+000	 1.173181978656276e-001	 2.664453320484020e+001
1	 1.527610946368683e+000	 1.321932148552252e-001	 2.627796013347104e+001
1	 1.526246827473539e+000	 1.471085918018469e-001	 2.590626735629250e+001
1	 1.260835726322077e+000	 1.215267182615958e-001	 2.229064185392802e+001
1	 1.259584119230016e+000	 1.338781607374896e-001	 2.218089939110607e+001
1	 1.258206536305378e+000	 1.462595828897382e-001	 2.207031885402162e+001
1	 1.256701892811832e+000	 1.586692716415527e-001	 2.195835767118648e+001
1	 1.255069130798217e+000	 1.711054810238902e-001	 2.184446223671533e+001
1	 1.253307220138871e+000	 1.835664325704447e-001	 2.172806842447250e+001
1	 1.251415159572273e+000	 1.960503157475885e-001	 2.160860213238865e+001
1	 1.249391977736748e+000	 2.085552884195950e-001	 2.148547985681188e+001
1	 1.247236734201940e+000	 2.210794773494282e-001	 2.135810929668408e+001
1	 1.244948520494780e+000	 2.336209787353383e-001	 2.122588998725884e+001
1	 1.242526461118596e+000	 2.461778587834510e-001	 2.108821396299991e+001
1	 1.287377025533950e+000	 1.240849238414894e-001	 2.220525904350359e+001
1	 1.286099071410704e+000	 1.366963711093230e-001	 2.208166210640088e+001
1	 1.284692489592918e+000	 1.493384291424061e-001	 2.195820237798254e+001
1	 1.283156172509960e+000	 1.620093488027418e-001	 2.183427299797977e+001
1	 1.281489039940200e+000	 1.747073473676788e-001	 2.170925382566918e+001
1	 1.279690040073258e+000	 1.874306089332176e-001	 2.158251199846183e+001
1	 1.277758150570499e+000	 2.001772848530020e-001	 2.145340252516871e+001
1	 1.275692379622538e+000	 2.129454942133352e-001	 2.132126891384254e+001
1	 1.273491767002438e+000	 2.257333243445114e-001	 2.118544383401423e+001
1	 1.271155385113263e+000	 2.385388313687072e-001	 2.104524981305726e+001
1	 1.268682340028648e+000	 2.513600407846233e-001	 2.089999996632588e+001
1	 1.313918265030891e+000	 1.266431236656700e-001	 2.224383414559745e+001
1	 1.312613963935719e+000	 1.395145751404187e-001	 2.210356768012819e+001
1	 1.311178383290003e+000	 1.524172684678870e-001	 2.196430675967504e+001
1	 1.309610392688861e+000	 1.653494184489529e-001	 2.182538127400439e+001
1	 1.307908889640256e+000	 1.783092056074409e-001	 2.168610616529652e+001
1	 1.306072800649137e+000	 1.912947766017441e-001	 2.154578204351028e+001
1	 1.304101082299809e+000	 2.043042446728651e-001	 2.140369584031376e+001
1	 1.301992722335231e+000	 2.173356901292265e-001	 2.125912150147595e+001
1	 1.299746740731929e+000	 2.303871608685431e-001	 2.111132071752446e+001
1	 1.297362190769154e+000	 2.434566729370095e-001	 2.095954369237882e+001
1	 1.294838160090887e+000	 2.565422111259950e-001	 2.080302994957329e+001
1	 1.340459451447940e+000	 1.292013183737076e-001	 2.239584785502668e+001
1	 1.339128803433513e+000	 1.423327735353478e-001	 2.223613765626220e+001
1	 1.337664224017838e+000	 1.554961016359137e-001	 2.207822353161135e+001
1	 1.336064559961831e+000	 1.686894814152311e-001	 2.192137309164668e+001
1	 1.334328686503093e+000	 1.819110566436752e-001	 2.176483788773750e+001
1	 1.332455508461953e+000	 1.951589365421073e-001	 2.160785409613852e+001
1	 1.330443961345699e+000	 2.084311962389668e-001	 2.144964324393741e+001
1	 1.328293012449679e+000	 2.217258772648735e-001	 2.128941297671272e+001
1	 1.326001661953930e+000	 2.350409880850432e-001	 2.112635786765330e+001
1	 1.323568944013922e+000	 2.483745046697697e-001	 2.095966026778710e+001
1	 1.320993927844035e+000	 2.617243711031739e-001	 2.078849119686173e+001
1	 1.367000591420135e+000	 1.317595086051721e-001	 2.265159785193606e+001
1	 1.365643596532541e+000	 1.451509669986814e-001	 2.246970738975086e+001
1	 1.364150018397633e+000	 1.585749294162189e-001	 2.229035259989247e+001
1	 1.362518680942165e+000	 1.720295385366216e-001	 2.211273972175737e+001
1	 1.360748437133422e+000	 1.855129013768805e-001	 2.193605835784243e+001
1	 1.358838170107152e+000	 1.990230897203908e-001	 2.175948223815024e+001
1	 1.356786794293665e+000	 2.125581405830955e-001	 2.158217002916954e+001
1	 1.354593256540739e+000	 2.261160567178805e-001	 2.140326618719882e+001
1	 1.352256537231954e+000	 2.396948071575316e-001	 2.122190185567308e+001
1	 1.349775651399042e+000	 2.532923277965125e-001	 2.103719580604079e+001
1	 1.347149649826810e+000	 2.669065220117670e-001	 2.084825542162506e+001
1	 1.393541691582514e+000	 1.343176949996336e-001	 2.300212099281222e+001
1	 1.392158349861254e+000	 1.479691562349905e-001	 2.279534853988872e+001
1	 1.390635773050591e+000	 1.616537525785351e-001	 2.259182525546607e+001
1	 1.388972762243157e+000	 1.753695906481698e-001	 2.239069685781719e+001
1	 1.387168148135953e+000	 1.891147407075555e-001	 2.219109236459030e+001
1	 1.385220792180180e+000	 2.028872371026779e-001	 2.199212494879617e+001
1	 1.383129587729205e+000	 2.166850787370402e-001	 2.179289284152618e+001
1	 1.380893461183264e+000	 2.305062295858521e-001	 2.159248028104910e+001
1	 1.378511373129517e+000	 2.443486192495283e-001	 2.138995850781745e+001
1	 1.375982319475984e+000	 2.582101435467624e-001	 2.118438680479336e+001
1	 1.373305332577932e+000	 2.720886651473819e-001	 2.097481358238131e+001
1	 1.420082758570117e+000	 1.368758781966621e-001	 2.343912422817442e+001
1	 1.418673070048106e+000	 1.507873419488461e-001	 2.320480025645565e+001
1	 1.417121494597921e+000	 1.647325718925951e-001	 2.297443582006711e+001
1	 1.415426810478103e+000	 1.787096385849205e-001	 2.274711691258562e+001
1	 1.413587826115395e+000	 1.927165755361990e-001	 2.252191325875143e+001
1	 1.411603381276482e+000	 2.067513796550518e-001	 2.229787927299851e+001
1	 1.409472348237812e+000	 2.208120117325894e-001	 2.207405506632776e+001
1	 1.407193632952109e+000	 2.348963969663925e-001	 2.184946750101408e+001
1	 1.404766176210132e+000	 2.490024255245532e-001	 2.162313129251211e+001
1	 1.402188954796221e+000	 2.631279531500440e-001	 2.139405015779736e+001
1	 1.399460982636122e+000	 2.772708018056259e-001	 2.116121800924848e+001
1	 1.446623799017982e+000	 1.394340588358277e-001	 2.395492312603022e+001
1	 1.445187763721549e+000	 1.536055248448193e-001	 2.369040794206486e+001
1	 1.443607189660832e+000	 1.678113881281315e-001	 2.343058081774456e+001
1	 1.441880832260298e+000	 1.820496831819194e-001	 2.317446876869494e+001
1	 1.440007477676461e+000	 1.963184067633098e-001	 2.292108345190205e+001
1	 1.437985943991504e+000	 2.106155183435961e-001	 2.266942223746542e+001
1	 1.435815082404984e+000	 2.249389406015318e-001	 2.241846932977785e+001
1	 1.433493778422127e+000	 2.392865599571063e-001	 2.216719693742872e+001
1	 1.431020953037317e+000	 2.536562271461265e-001	 2.191456649099522e+001
1	 1.428395563911225e+000	 2.680457578358820e-001	 2.165952990774866e+001
1	 1.425616606540098e+000	 2.824529332821062e-001	 2.140103090216529e+001
1	 1.473164819561149e+000	 1.419922375567004e-001	 2.454238704176362e+001
1	 1.471702437510035e+000	 1.564237056274812e-001	 2.424506863511619e+001
1	 1.470092864860527e+000	 1.708902020548769e-001	 2.395320472275598e+001
1	 1.468334834203037e+000	 1.853897252742113e-001	 2.366576404300717e+001
1	 1.466427109423857e+000	 1.999202352893868e-001	 2.338170134828750e+001
1	 1.464368486920693e+000	 2.144796541343938e-001	 2.309995860050360e+001
1	 1.462157796816215e+000	 2.290658663756561e-001	 2.281946621644061e+001
1	 1.459793904168173e+000	 2.436767196555978e-001	 2.253914436221574e+001
1	 1.457275710174584e+000	 2.583100252777680e-001	 2.225790429572361e+001
1	 1.454602153372468e+000	 2.729635588338008e-001	 2.197464975585684e+001
1	 1.451772210828581e+000	 2.876350608724305e-001	 2.168827839713999e+001
1	 1.499705826834654e+000	 1.445504149988501e-001	 2.519489011096545e+001
1	 1.498217098042018e+000	 1.592418850014028e-001	 2.486218219306402e+001
1	 1.496578526818216e+000	 1.739690144425642e-001	 2.453575146902009e+001
1	 1.494788822919614e+000	 1.887297656968416e-001	 2.421450905768061e+001
1	 1.492846727962296e+000	 2.035220620149285e-001	 2.389735391250639e+001
1	 1.490751016659494e+000	 2.183437879935286e-001	 2.358317415078563e+001
1	 1.488500498057003e+000	 2.331927900867511e-001	 2.327084843290746e+001
1	 1.486094016765102e+000	 2.480668771594715e-001	 2.295924739050357e+001
1	 1.483530454185451e+000	 2.629638210829977e-001	 2.264723510211432e+001
1	 1.480808729731421e+000	 2.778813573733252e-001	 2.233367061488565e+001
1	 1.477927802040291e+000	 2.928171858722059e-001	 2.201740951065031e+001
1	 1.526246827473539e+000	 1.471085918018469e-001	 2.590626735629250e+001
1	 1.524731751945950e+000	 1.620600636711551e-001	 2.553560756984165e+001
1	 1.523064182155104e+000	 1.770478260609258e-001	 2.517212101968742e+001
1	 1.521242805023325e+000	 1.920698052848554e-001	 2.481466182318432e+001
1	 1.519266339896488e+000	 2.071238878404338e-001	 2.446207418688369e+001
1	 1.517133539803352e+000	 2.222079208870836e-001	 2.411319387951578e+001
1	 1.514843192712843e+000	 2.373197127666055e-001	 2.376684975460777e+001
1	 1.512394122787768e+000	 2.524570335663319e-001	 2.342186532124951e+001
1	 1.509785191633430e+000	 2.676176157253355e-001	 2.307706036135964e+001
1	 1.507015299539558e+000	 2.827991546839796e-001	 2.273125259164729e+001
1	 1.504083386713946e+000	 2.979993095770398e-001	 2.238325936830494e+001
1	 1.242526461118596e+000	 2.461778587834510e-001	 2.108821396299991e+001
1	 1.239969321048035e+000	 2.587500404700431e-001	 2.094734337617488e+001
1	 1.237276647587192e+000	 2.713336459116922e-001	 2.080563552638371e+001
1	 1.234447670954891e+000	 2.839266512220444e-001	 2.066256239130559e+001
1	 1.231481658369039e+000	 2.965270050962133e-001	 2.051760430898826e+001
1	 1.228377915011984e+000	 3.091326295656696e-001	 2.037025090646088e+001
1	 1.225135784980602e+000	 3.217414207892365e-001	 2.022000203257182e+001
1	 1.221754652219686e+000	 3.343512498799868e-001	 2.006636869332457e+001
1	 1.218233941437156e+000	 3.469599637677736e-001	 1.990887398793250e+001
1	 1.214573118999658e+000	 3.595653860970648e-001	 1.974705404376448e+001
1	 1.210771693807061e+000	 3.721653181596841e-001	 1.958045894830794e+001
1	 1.268682340028648e+000	 2.513600407846233e-001	 2.089999996632588e+001
1	 1.266071370725263e+000	 2.641968739471592e-001	 2.075224714530251e+001
1	 1.263322014977708e+000	 2.770453713412647e-001	 2.060464412477696e+001
1	 1.260433486800481e+000	 2.899034664766289e-001	 2.045658574507681e+001
1	 1.257405037986019e+000	 3.027690648672338e-001	 2.030747439993071e+001
1	 1.254235959090374e+000	 3.156400448021337e-001	 2.015672106059445e+001
1	 1.250925580403296e+000	 3.285142581531009e-001	 2.000374630712667e+001
1	 1.247473272901273e+000	 3.413895312189305e-001	 1.984798136496556e+001
1	 1.243878449182008e+000	 3.542636656061270e-001	 1.968886914489569e+001
1	 1.240140564378871e+000	 3.671344391456397e-001	 1.952586528443575e+001
1	 1.236259117053800e+000	 3.799996068452375e-001	 1.935843918862308e+001
1	 1.294838160090887e+000	 2.565422111259950e-001	 2.080302994957329e+001
1	 1.292173361675890e+000	 2.696436951690278e-001	 2.064464250757570e+001
1	 1.289367323769279e+000	 2.827570839196107e-001	 2.048735064517171e+001
1	 1.286419244181258e+000	 2.958802682835723e-001	 2.033047881702345e+001
1	 1.283328359278823e+000	 3.090111105938582e-001	 2.017335858891024e+001
1	 1.280093944991751e+000	 3.221474453972029e-001	 2.001532975601041e+001
1	 1.276715317802694e+000	 3.352870802784265e-001	 1.985574147063979e+001
1	 1.273191835719854e+000	 3.484277967221452e-001	 1.969395337746373e+001
1	 1.269522899230740e+000	 3.615673510116166e-001	 1.952933675412922e+001
1	 1.265707952235458e+000	 3.747034751643716e-001	 1.936127565519601e+001
1	 1.261746482958037e+000	 3.878338779042281e-001	 1.918916805718309e+001
1	 1.320993927844035e+000	 2.617243711031739e-001	 2.078849119686174e+001
1	 1.318275300425168e+000	 2.750905054974155e-001	 2.061603575149133e+001
1	 1.315412580472970e+000	 2.884687850747151e-001	 2.044559305050660e+001
1	 1.312404949593379e+000	 3.018570581371237e-001	 2.027642358211842e+001
1	 1.309251628727975e+000	 3.152531438366365e-001	 2.010779485418230e+001
1	 1.305951879180282e+000	 3.286548329777549e-001	 1.993898260536379e+001
1	 1.302505003625874e+000	 3.420598888584344e-001	 1.976927202746920e+001
1	 1.298910347104691e+000	 3.554660481492021e-001	 1.959795899681213e+001
1	 1.295167297994062e+000	 3.688710218101570e-001	 1.942435131240793e+001
1	 1.291275288960849e+000	 3.822724960455041e-001	 1.924776993871380e+001
1	 1.287233797891179e+000	 3.956681332952001e-001	 1.906755025056254e+001
1	 1.347149649826810e+000	 2.669065220117670e-001	 2.084825542162506e+001
1	 1.344377193498346e+000	 2.805373062940901e-001	 2.065859281860076e+001
1	 1.341457791599845e+000	 2.941804762345625e-001	 2.047184319657167e+001
1	 1.338390609533002e+000	 3.078338375315319e-001	 2.028720918986229e+001
1	 1.335174852813998e+000	 3.214951661561189e-001	 2.010390069898519e+001
1	 1.331809768120133e+000	 3.351622091706677e-001	 1.992113619349646e+001
1	 1.328294644319918e+000	 3.488326855863471e-001	 1.973814402714492e+001
1	 1.324628813485048e+000	 3.625042872596723e-001	 1.955416376302670e+001
1	 1.320811651882687e+000	 3.761746798276636e-001	 1.936844750637235e+001
1	 1.316842580946470e+000	 3.898415036812798e-001	 1.918026124251311e+001
1	 1.312721068224635e+000	 4.035023749766974e-001	 1.898888617749702e+001
1	 1.373305332577932e+000	 2.720886651473819e-001	 2.097481358238131e+001
1	 1.370479047420677e+000	 2.859840989208191e-001	 2.076507647895774e+001
1	 1.367502963660969e+000	 2.998921588271373e-001	 2.055914646084576e+001
1	 1.364376230496282e+000	 3.138106079610460e-001	 2.035617413776173e+001
1	 1.361098038017419e+000	 3.277371791128552e-001	 2.015531795834851e+001
1	 1.357667618275472e+000	 3.416695756028192e-001	 1.995574560360030e+001
1	 1.354084246331904e+000	 3.556054721553857e-001	 1.975663539314563e+001
1	 1.350347241290185e+000	 3.695425158131267e-001	 1.955717770192958e+001
1	 1.346455967307327e+000	 3.834783268900517e-001	 1.935657638474677e+001
1	 1.342409834583748e+000	 3.974104999639416e-001	 1.915405020599057e+001
1	 1.338208300329813e+000	 4.113366049072643e-001	 1.894883427190441e+001
1	 1.399460982636122e+000	 2.772708018056259e-001	 2.116121800924848e+001
1	 1.396580868717411e+000	 2.914308847393696e-001	 2.092879055266239e+001
1	 1.393548103167406e+000	 3.056038342804243e-001	 2.070106814226969e+001
1	 1.390361818979375e+000	 3.197873709199146e-001	 2.047715493034905e+001
1	 1.387021190818762e+000	 3.339791842673958e-001	 2.025616379610131e+001
1	 1.383525436110463e+000	 3.481769339010872e-001	 2.003721782859041e+001
1	 1.379873816108914e+000	 3.623782502587724e-001	 1.981945182255812e+001
1	 1.376065636949366e+000	 3.765807355691361e-001	 1.960201378447135e+001
1	 1.372100250678695e+000	 3.907819648232359e-001	 1.938406644606788e+001
1	 1.367977056264114e+000	 4.049794867857331e-001	 1.916478878257517e+001
1	 1.363695500578122e+000	 4.191708250454448e-001	 1.894337753269440e+001
1	 1.425616606540098e+000	 2.824529332821062e-001	 2.140103090216529e+001
1	 1.422682663913800e+000	 2.968776651115094e-001	 2.114353027245332e+001
1	 1.419593216630219e+000	 3.113155040224080e-001	 2.089164576225095e+001
1	 1.416347381478437e+000	 3.257641279023868e-001	 2.064444039069681e+001
1	 1.412944317698551e+000	 3.402211831802909e-001	 2.040098709696936e+001
1	 1.409383228089274e+000	 3.546842856923495e-001	 2.016037031175287e+001
1	 1.405663360098025e+000	 3.691510215897282e-001	 1.992168754105793e+001
1	 1.401784006891851e+000	 3.836189482872719e-001	 1.968405095956278e+001
1	 1.397744508407502e+000	 3.980855954531315e-001	 1.944658901054334e+001
1	 1.393544252378994e+000	 4.125484660388973e-001	 1.920844800936845e+001
1	 1.389182675340970e+000	 4.270050373497830e-001	 1.896879374744926e+001
1	 1.451772210828581e+000	 2.876350608724305e-001	 2.168827839713999e+001
1	 1.448784439535093e+000	 3.023244413990054e-001	 2.140353801276475e+001
1	 1.445638310560474e+000	 3.170271694810729e-001	 2.112534652256482e+001
1	 1.442332924489626e+000	 3.317408804027115e-001	 2.085273091146588e+001
1	 1.438867425137311e+000	 3.464631774120902e-001	 2.058472957326733e+001
1	 1.435241000676072e+000	 3.611916326034841e-001	 2.032039396970027e+001
1	 1.431452884746320e+000	 3.759237878414756e-001	 2.005879030079922e+001
1	 1.427502357546905e+000	 3.906571557271050e-001	 1.979900118354975e+001
1	 1.423388746904462e+000	 4.053892206056537e-001	 1.954012733567322e+001
1	 1.419111429319816e+000	 4.201174396156771e-001	 1.928128926131578e+001
1	 1.414669830989763e+000	 4.348392437788227e-001	 1.902162893532106e+001
1	 1.477927802040291e+000	 2.928171858722059e-001	 2.201740951065031e+001
1	 1.474886202106542e+000	 3.077712149636254e-001	 2.170346372034451e+001
1	 1.471683391469234e+000	 3.227388320844039e-001	 2.139702928121411e+001
1	 1.468318454509097e+000	 3.377176299151375e-001	 2.109710203348051e+001
1	 1.464790519615566e+000	 3.527051685233442e-001	 2.080269100204900e+001
1	 1.461098760335022e+000	 3.676989762613687e-001	 2.051282014227898e+001
1	 1.457242396500876e+000	 3.826965507072359e-001	 2.022653009551836e+001
1	 1.453220695343790e+000	 3.976953596482064e-001	 1.994287995114843e+001
1	 1.449032972580286e+000	 4.126928421067177e-001	 1.966094901178373e+001
1	 1.444678593478009e+000	 4.276864094083156e-001	 1.937983855817637e+001
1	 1.440156973895912e+000	 4.426734462911082e-001	 1.909867361028559e+001
1	 1.504083386713946e+000	 2.979993095770398e-001	 2.238325936830494e+001
1	 1.500987958153400e+000	 3.132179871671365e-001	 2.203832947404332e+001
1	 1.497728465867564e+000	 3.284504932603852e-001	 2.170191049620961e+001
1	 1.494303978033006e+000	 3.436943779339138e-001	 2.137297182497647e+001
1	 1.490713607613841e+000	 3.589471580746028e-001	 2.105049808985371e+001
1	 1.486956513530291e+000	 3.742063182928813e-001	 2.073349099134162e+001
1	 1.483031901808773e+000	 3.894693118802305e-001	 2.042097114030040e+001
1	 1.478939026711766e+000	 4.047335618101468e-001	 2.011197990155607e+001
1	 1.474677191845686e+000	 4.199964617822380e-001	 1.980558123816077e+001
1	 1.470245751245001e+000	 4.352553773090561e-001	 1.950086355262961e+001
1	 1.465644110430824e+000	 4.505076468451836e-001	 1.919694152138939e+001
1	 1.210771693807061e+000	 3.721653181596841e-001	 1.958045894830794e+001
1	 1.206829217841571e+000	 3.847575396775873e-001	 1.941016954934938e+001
1	 1.202745286085772e+000	 3.973398092324930e-001	 1.923738775691269e+001
1	 1.198519538232249e+000	 4.099098658216919e-001	 1.906187377772591e+001
1	 1.194151659763825e+000	 4.224654301051316e-001	 1.888341171927126e+001
1	 1.189641382703130e+000	 4.350042055046846e-001	 1.870181027648505e+001
1	 1.184988486332486e+000	 4.475238793346629e-001	 1.851690338751133e+001
1	 1.180192797882715e+000	 4.600221239627187e-001	 1.832855085654290e+001
1	 1.175254193189512e+000	 4.724965980002162e-001	 1.813663894181911e+001
1	 1.170172597316046e+000	 4.849449475210771e-001	 1.794108090689522e+001
1	 1.164947985140473e+000	 4.973648073080525e-001	 1.774181753334703e+001
1	 1.236259117053800e+000	 3.799996068452375e-001	 1.935843918862308e+001
1	 1.232233649757977e+000	 3.928569016887678e-001	 1.918777251139582e+001
1	 1.228063748948146e+000	 4.057040350748470e-001	 1.901518945196363e+001
1	 1.223749046732216e+000	 4.185386984054039e-001	 1.884040340975182e+001
1	 1.219289221972249e+000	 4.313585643590141e-001	 1.866315406306708e+001
1	 1.214684001049801e+000	 4.441612880133067e-001	 1.848320814496163e+001
1	 1.209933158600961e+000	 4.569445079992763e-001	 1.830036018501575e+001
1	 1.205036518219666e+000	 4.697058476866245e-001	 1.811443321483520e+001
1	 1.199993953127882e+000	 4.824429163991849e-001	 1.792527943509997e+001
1	 1.194805386811314e+000	 4.951533106594303e-001	 1.773278084204925e+001
1	 1.189470793619292e+000	 5.078346154609773e-001	 1.753684981134243e+001
1	 1.261746482958037e+000	 3.878338779042281e-001	 1.918916805718309e+001
1	 1.257638024518648e+000	 4.009562454770290e-001	 1.901434088483141e+001
1	 1.253382154848216e+000	 4.140682420983951e-001	 1.883827987661308e+001
1	 1.248978498470000e+000	 4.271675115750018e-001	 1.866065303829170e+001
1	 1.244426727625320e+000	 4.402516786041620e-001	 1.848115665997986e+001
1	 1.239726563054677e+000	 4.533183499193709e-001	 1.829951617517033e+001
1	 1.234877774747946e+000	 4.663651154684180e-001	 1.811548698308126e+001
1	 1.229880182662189e+000	 4.793895496231639e-001	 1.792885523189624e+001
1	 1.224733657405657e+000	 4.923892124200255e-001	 1.773943856052253e+001
1	 1.219438120886602e+000	 5.053616508301388e-001	 1.754708679654273e+001
1	 1.213993546925534e+000	 5.183044000580986e-001	 1.735168260809311e+001
1	 1.287233797891179e+000	 3.956681332952001e-001	 1.906755025056254e+001
1	 1.283042348474234e+000	 4.090555730671777e-001	 1.888519370968336e+001
1	 1.278700510115136e+000	 4.224324323941557e-001	 1.870237191278990e+001
1	 1.274207899752516e+000	 4.357963074876532e-001	 1.851870886269578e+001
1	 1.269564183006969e+000	 4.491447750638161e-001	 1.833385849664919e+001
1	 1.264769074977958e+000	 4.624753935121033e-001	 1.814750562278885e+001
1	 1.259822341009157e+000	 4.757857040971967e-001	 1.795936681782185e+001
1	 1.254723797420769e+000	 4.890732321932150e-001	 1.776919128330924e+001
1	 1.249473312207338e+000	 5.023354885492571e-001	 1.757676165798924e+001
1	 1.244070805699674e+000	 5.155699705852225e-001	 1.738189478362178e+001
1	 1.238516251189468e+000	 5.287741637167839e-001	 1.718444242189978e+001
1	 1.312721068224635e+000	 4.035023749766974e-001	 1.898888617749702e+001
1	 1.308446627975386e+000	 4.171548864840204e-001	 1.879601355811499e+001
1	 1.304018821078061e+000	 4.307966080531482e-001	 1.860351138679548e+001
1	 1.299437256886679e+000	 4.444250883005267e-001	 1.841096103296826e+001
1	 1.294701594401127e+000	 4.580378559612178e-001	 1.821797511113722e+001
1	 1.289811543079844e+000	 4.716324210807298e-001	 1.802419848925360e+001
1	 1.284766863620316e+000	 4.852062762407214e-001	 1.782930925671468e+001
1	 1.279567368705894e+000	 4.987568978176555e-001	 1.763301964919743e+001
1	 1.274212923717429e+000	 5.122817472733993e-001	 1.743507692758340e+001
1	 1.268703447408290e+000	 5.257782724767012e-001	 1.723526420828483e+001
1	 1.263038912541362e+000	 5.392439090544005e-001	 1.703340124234649e+001
1	 1.338208300329813e+000	 4.113366049072643e-001	 1.894883427190441e+001
1	 1.333850869372756e+000	 4.252541877523638e-001	 1.874281191224524e+001
1	 1.329337094066146e+000	 4.391607711663915e-001	 1.853804536028230e+001
1	 1.324666576179405e+000	 4.530538561707893e-001	 1.833407470209611e+001
1	 1.319838968091726e+000	 4.669309235196080e-001	 1.813047225475643e+001
1	 1.314853973620533e+000	 4.807894349144760e-001	 1.792684364132312e+001
1	 1.309711348817138e+000	 4.946268342541014e-001	 1.772282882435439e+001
1	 1.304410902728050e+000	 5.084405489173637e-001	 1.751810309497654e+001
1	 1.298952498120429e+000	 5.222279910789712e-001	 1.731237801461426e+001
1	 1.293336052170214e+000	 5.359865590565953e-001	 1.710540230653684e+001
1	 1.287561537111484e+000	 5.497136386883156e-001	 1.689696269443925e+001
1	 1.363695500578122e+000	 4.191708250454448e-001	 1.894337753269440e+001
1	 1.359255079016994e+000	 4.333534788970149e-001	 1.872189842502333e+001
1	 1.354655335408544e+000	 4.475249238249044e-001	 1.850259397756220e+001
1	 1.349895863937609e+000	 4.616826132556096e-001	 1.828496432500784e+001
1	 1.344976310362696e+000	 4.758239799622283e-001	 1.806854250785885e+001
1	 1.339896372860226e+000	 4.899464373025679e-001	 1.785289560895484e+001
1	 1.334655802835345e+000	 5.040473804924457e-001	 1.763762584786974e+001
1	 1.329254405697723e+000	 5.181241879132171e-001	 1.742237163007580e+001
1	 1.323692041600839e+000	 5.321742224524919e-001	 1.720680854783877e+001
1	 1.317968626143207e+000	 5.461948328769253e-001	 1.699065032986069e+001
1	 1.312084131030102e+000	 5.601833552358968e-001	 1.677364973675095e+001
1	 1.389182675340970e+000	 4.270050373497830e-001	 1.896879374744926e+001
1	 1.384659263258752e+000	 4.414527619427805e-001	 1.872985356539341e+001
1	 1.379973551434412e+000	 4.558890681197056e-001	 1.849402541244527e+001
1	 1.375125126468206e+000	 4.703113617121552e-001	 1.826077078714331e+001
1	 1.370113627497968e+000	 4.847170275123195e-001	 1.802958447015974e+001
1	 1.364938747059123e+000	 4.991034305342313e-001	 1.779999571747520e+001
1	 1.359600231910653e+000	 5.134679173108632e-001	 1.757156941120507e+001
1	 1.354097883825400e+000	 5.278078172260936e-001	 1.734390716487442e+001
1	 1.348431560343163e+000	 5.421204438804808e-001	 1.711664837998084e+001
1	 1.342601175485032e+000	 5.564030964897109e-001	 1.688947125073917e+001
1	 1.336606700427484e+000	 5.706530613145109e-001	 1.666209371396512e+001
1	 1.414669830989763e+000	 4.348392437788227e-001	 1.902162893532106e+001
1	 1.410063428448682e+000	 4.495520389144668e-001	 1.876350422088091e+001
1	 1.405291748472902e+000	 4.642532061418142e-001	 1.850943352365919e+001
1	 1.400354370078112e+000	 4.789401036975940e-001	 1.825884100572979e+001
1	 1.395250925781474e+000	 4.936100683931231e-001	 1.801118420086460e+001
1	 1.389981102477423e+000	 5.082604168986921e-001	 1.776595525961330e+001
1	 1.384544642278781e+000	 5.228884470644629e-001	 1.752268215227097e+001
1	 1.378941343321566e+000	 5.374914392768713e-001	 1.728092982642738e+001
1	 1.373171060531899e+000	 5.520666578494574e-001	 1.704030131583375e+001
1	 1.367233706353451e+000	 5.666113524469723e-001	 1.680043879737337e+001
1	 1.361129251433898e+000	 5.811227595415255e-001	 1.656102459298561e+001
1	 1.440156973895912e+000	 4.426734462911082e-001	 1.909867361028559e+001
1	 1.435467580937434e+000	 4.576513118368814e-001	 1.881990189117736e+001
1	 1.430609932853171e+000	 4.726173399822493e-001	 1.854611788325656e+001
1	 1.425583601074242e+000	 4.875688413690944e-001	 1.827670969739657e+001
1	 1.420388211497145e+000	 5.025031048278797e-001	 1.801109862984917e+001
1	 1.415023445375325e+000	 5.174173986851760e-001	 1.774874045465979e+001
1	 1.409489040175448e+000	 5.323089721083542e-001	 1.748912667463320e+001
1	 1.403784790396708e+000	 5.471750564864277e-001	 1.723178572745751e+001
1	 1.397910548351551e+000	 5.620128668459403e-001	 1.697628414363451e+001
1	 1.391866224906226e+000	 5.768196033007297e-001	 1.672222765291117e+001
1	 1.385651790179613e+000	 5.915924525343079e-001	 1.646926223596869e+001
1	 1.465644110430824e+000	 4.505076468451836e-001	 1.919694152138939e+001
1	 1.460871727075660e+000	 4.657505827348306e-001	 1.889630315728295e+001
1	 1.455928110904371e+000	 4.809814717320294e-001	 1.860156588911138e+001
1	 1.450812825763512e+000	 4.961975768838239e-001	 1.831208304838783e+001
1	 1.445525490928912e+000	 5.113961390398314e-001	 1.802724069992733e+001
1	 1.440065782013028e+000	 5.265743781829090e-001	 1.774645897717774e+001
1	 1.434433431836372e+000	 5.417294947976460e-001	 1.746919337717824e+001
1	 1.428628231261313e+000	 5.568586712756412e-001	 1.719493601168578e+001
1	 1.422650029986620e+000	 5.719590733564496e-001	 1.692321681104370e+001
1	 1.416498737301121e+000	 5.870278516030030e-001	 1.665360467741230e+001
1	 1.410174322794896e+000	 6.020621429102251e-001	 1.638570858403743e+001
1	 1.164947985140473e+000	 4.973648073080525e-001	 1.774181753334703e+001
1	 1.159581197877747e+000	 5.097519464059583e-001	 1.753919411259879e+001
1	 1.154071539441348e+000	 5.221058475389500e-001	 1.733358454474283e+001
1	 1.148419138145507e+000	 5.344241210826426e-001	 1.712510906237836e+001
1	 1.142624174058487e+000	 5.467043713871075e-001	 1.691392150826805e+001
1	 1.136686879394963e+000	 5.589441981408801e-001	 1.670020945202120e+001
1	 1.130607538866382e+000	 5.711411977547047e-001	 1.648419424752722e+001
1	 1.124386489988285e+000	 5.832929647635358e-001	 1.626613103007111e+001
1	 1.118024123343679e+000	 5.953970932452811e-001	 1.604630865219767e+001
1	 1.111520882801578e+000	 6.074511782547065e-001	 1.582504955752836e+001
1	 1.104877265689896e+000	 6.194528172708821e-001	 1.560270959187931e+001
1	 1.189470793619292e+000	 5.078346154609773e-001	 1.753684981134243e+001
1	 1.183991032474813e+000	 5.204825107846713e-001	 1.733787875298413e+001
1	 1.178365392638336e+000	 5.330964684657114e-001	 1.713626114580677e+001
1	 1.172594005125169e+000	 5.456740485767644e-001	 1.693204904743159e+001
1	 1.166677053794102e+000	 5.582128050381116e-001	 1.672532942427498e+001
1	 1.160614775748049e+000	 5.707102870103700e-001	 1.651622437218173e+001
1	 1.154407461691780e+000	 5.831640403073668e-001	 1.630489127645579e+001
1	 1.148055456245717e+000	 5.955716088276524e-001	 1.609152290999595e+001
1	 1.141559158214848e+000	 6.079305360031093e-001	 1.587634746837540e+001
1	 1.134919020811867e+000	 6.202383662630420e-001	 1.565962854084567e+001
1	 1.128135551833708e+000	 6.324926465120909e-001	 1.544166501638887e+001
1	 1.213993546925534e+000	 5.183044000580986e-001	 1.735168260809311e+001
1	 1.208400812153459e+000	 5.312130510209822e-001	 1.715363277043992e+001
1	 1.202659191177847e+000	 5.440870646650542e-001	 1.695332370969812e+001
1	 1.196768817715076e+000	 5.569239507601439e-001	 1.675074797975442e+001
1	 1.190729879414451e+000	 5.697212127968530e-001	 1.654593413387140e+001
1	 1.184542618267112e+000	 5.824763494079928e-001	 1.633894703385590e+001
1	 1.178207330971136e+000	 5.951868558105830e-001	 1.612988809743301e+001
1	 1.171724369251810e+000	 6.078502252668822e-001	 1.591889548233901e+001
1	 1.165094140136081e+000	 6.204639505628592e-001	 1.570614420578032e+001
1	 1.158317106180301e+000	 6.330255255024672e-001	 1.549184619804717e+001
1	 1.151393785650396e+000	 6.455324464160297e-001	 1.527625028921648e+001
1	 1.238516251189468e+000	 5.287741637167839e-001	 1.718444242189978e+001
1	 1.232810543015708e+000	 5.419435697974288e-001	 1.698479668128942e+001
1	 1.226952941132905e+000	 5.550776388845086e-001	 1.678331367909509e+001
1	 1.220943581958496e+000	 5.681738304451133e-001	 1.657993464153089e+001
1	 1.214782656932294e+000	 5.812295975402649e-001	 1.637463768543872e+001
1	 1.208470412933653e+000	 5.942423882750676e-001	 1.616743820115675e+001
1	 1.202007152653947e+000	 6.072096472698344e-001	 1.595838917255555e+001
1	 1.195393234923308e+000	 6.201288171506311e-001	 1.574758143259393e+001
1	 1.188629074990625e+000	 6.329973400576119e-001	 1.553514385288209e+001
1	 1.181715144755887e+000	 6.458126591694799e-001	 1.532124346588081e+001
1	 1.174651972953994e+000	 6.585722202423398e-001	 1.510608551851457e+001
1	 1.263038912541362e+000	 5.392439090544005e-001	 1.703340124234649e+001
1	 1.257220231163583e+000	 5.526740697965494e-001	 1.682983987162157e+001
1	 1.251246648576530e+000	 5.660681938716050e-001	 1.662488576172668e+001
1	 1.245118303898696e+000	 5.794236904440049e-001	 1.641843653053773e+001
1	 1.238835392360393e+000	 5.927379621452801e-001	 1.621042738652718e+001
1	 1.232398165729178e+000	 6.060084065529143e-001	 1.600083157103108e+001
1	 1.225806932689711e+000	 6.192324176906023e-001	 1.578966073679554e+001
1	 1.219062059176956e+000	 6.324073875483052e-001	 1.557696526102523e+001
1	 1.212163968661729e+000	 6.455307076204507e-001	 1.536283449129265e+001
1	 1.205113142387636e+000	 6.585997704605783e-001	 1.514739692280906e+001
1	 1.197910119558531e+000	 6.716119712506630e-001	 1.493082030570861e+001
1	 1.287561537111484e+000	 5.497136386883156e-001	 1.689696269443925e+001
1	 1.281629882699106e+000	 5.634045537008822e-001	 1.668734832451505e+001
1	 1.275540319581745e+000	 5.770587323738733e-001	 1.647679714384805e+001
1	 1.269292989578943e+000	 5.906735335691515e-001	 1.626517045937451e+001
1	 1.262888091711506e+000	 6.042463094888311e-001	 1.605236768474533e+001
1	 1.256325882635189e+000	 6.177744071828526e-001	 1.583832682818322e+001
1	 1.249606677027924e+000	 6.312551700783683e-001	 1.562302491587685e+001
1	 1.242730847929497e+000	 6.446859395293101e-001	 1.540647834903575e+001
1	 1.235698827032636e+000	 6.580640563844561e-001	 1.518874319286568e+001
1	 1.228511104924556e+000	 6.713868625722596e-001	 1.496991539586856e+001
1	 1.221168231278044e+000	 6.846517027006408e-001	 1.475013093802194e+001
1	 1.312084131030102e+000	 5.601833552358968e-001	 1.677364973675095e+001
1	 1.306039503724299e+000	 5.741350241929649e-001	 1.655601372371703e+001
1	 1.299833960221569e+000	 5.880492571388442e-001	 1.633789791348012e+001
1	 1.293467645042504e+000	 6.019233626328855e-001	 1.611913420903856e+001
1	 1.286940760998396e+000	 6.157546424478505e-001	 1.589959295924969e+001
1	 1.280253569633189e+000	 6.295403931062018e-001	 1.567918347892497e+001
1	 1.273406391618082e+000	 6.432779074386129e-001	 1.545785450386191e+001
1	 1.266399607097675e+000	 6.569644761630518e-001	 1.523559457886654e+001
1	 1.259233655986598e+000	 6.705973894827112e-001	 1.501243237695758e+001
1	 1.251909038215656e+000	 6.841739387010217e-001	 1.478843694808803e+001
1	 1.244426313926563e+000	 6.976914178519142e-001	 1.456371789587352e+001
1	 1.336606700427484e+000	 5.706530613145109e-001	 1.666209371396512e+001
1	 1.330449100341185e+000	 5.848654839553356e-001	 1.643462375697574e+001
1	 1.324127576569028e+000	 5.990397709140478e-001	 1.620712253802306e+001
1	 1.317642276332648e+000	 6.131731804475387e-001	 1.597939910141730e+001
1	 1.310993406233823e+000	 6.272629638992716e-001	 1.575130110587058e+001
1	 1.304181232704681e+000	 6.413063672642814e-001	 1.552271536390098e+001
1	 1.297206082409683e+000	 6.553006327768174e-001	 1.529356831571125e+001
1	 1.290068342598234e+000	 6.692430005189354e-001	 1.506382643555534e+001
1	 1.282768461406858e+000	 6.831307100482970e-001	 1.483349656874343e+001
1	 1.275306948109945e+000	 6.969610020433622e-001	 1.460262619758263e+001
1	 1.267684373318120e+000	 7.107311199641255e-001	 1.437130363470412e+001
1	 1.361129251433898e+000	 5.811227595415255e-001	 1.656102459298561e+001
1	 1.354858678651786e+000	 5.955959356705324e-001	 1.632205346771201e+001
1	 1.348421174697141e+000	 6.100302764470145e-001	 1.608348226325338e+001
1	 1.341816889492642e+000	 6.244229898254443e-001	 1.584510337479312e+001
1	 1.335046033430547e+000	 6.387712767200264e-001	 1.560674781577156e+001
1	 1.328108877831169e+000	 6.530723325984111e-001	 1.536828576406173e+001
1	 1.321005755352223e+000	 6.673233490984626e-001	 1.512962704229345e+001
1	 1.313737060347918e+000	 6.815215156663677e-001	 1.489072153032517e+001
1	 1.306303249176666e+000	 6.956640212142951e-001	 1.465155950800263e+001
1	 1.298704840456433e+000	 7.097480557957788e-001	 1.441217192649027e+001
1	 1.290942415266750e+000	 7.237708122969156e-001	 1.417263060661657e+001
1	 1.385651790179613e+000	 5.915924525343079e-001	 1.646926223596869e+001
1	 1.379268244758125e+000	 6.063263820210936e-001	 1.621725752514076e+001
1	 1.372714760678931e+000	 6.210207764852744e-001	 1.596605831954517e+001
1	 1.365991490565752e+000	 6.356727935789341e-001	 1.571544626286784e+001
1	 1.359098648601329e+000	 6.502795837870479e-001	 1.546524146171341e+001
1	 1.352036510994155e+000	 6.648382920499100e-001	 1.521530302638072e+001
1	 1.344805416395201e+000	 6.793460594090302e-001	 1.496552954559173e+001
1	 1.337405766263471e+000	 6.938000246747539e-001	 1.471585949318828e+001
1	 1.329838025179267e+000	 7.081973261137888e-001	 1.446627156495028e+001
1	 1.322102721104127e+000	 7.225351031547690e-001	 1.421678494383807e+001
1	 1.314200445586484e+000	 7.368104981099264e-001	 1.396745949211750e+001
1	 1.410174322794896e+000	 6.020621429102251e-001	 1.638570858403743e+001
1	 1.403677804762223e+000	 6.170568256895567e-001	 1.611926330102602e+001
1	 1.397008340587419e+000	 6.320112737763580e-001	 1.585399583704059e+001
1	 1.390166085595247e+000	 6.469225945203410e-001	 1.558968269165674e+001
1	 1.383151257758930e+000	 6.617878879772692e-001	 1.532613851795042e+001
1	 1.375964138175143e+000	 6.766042485600980e-001	 1.506321664603983e+001
1	 1.368605071488112e+000	 6.913687667140009e-001	 1.480080954051573e+001
1	 1.361074466261638e+000	 7.060785306134998e-001	 1.453884918981510e+001
1	 1.353372795297909e+000	 7.207306278798588e-001	 1.427730742573383e+001
1	 1.345500595902037e+000	 7.353221473168309e-001	 1.401619617142456e+001
1	 1.337458470091355e+000	 7.498501806627992e-001	 1.375556761638145e+001
1	 1.104877265689896e+000	 6.194528172708821e-001	 1.560270959187931e+001
1	 1.098092794993187e+000	 6.314013997351550e-001	 1.537783298687846e+001
1	 1.091169062434711e+000	 6.432927274468238e-001	 1.514891407147926e+001
1	 1.084106727484177e+000	 6.551244135982917e-001	 1.491617562080468e+001
1	 1.076906503314615e+000	 6.668940797275551e-001	 1.467986322893487e+001
1	 1.069569156736019e+000	 6.785993572081285e-001	 1.444024525635204e+001
1	 1.062095508079932e+000	 6.902378887419129e-001	 1.419761273686741e+001
1	 1.054486431034654e+000	 7.018073298531411e-001	 1.395227924370371e+001
1	 1.046742852430854e+000	 7.133053503815096e-001	 1.370458071450458e+001
1	 1.038865751977465e+000	 7.247296359725967e-001	 1.345487523514314e+001
1	 1.030856161947795e+000	 7.360778895636447e-001	 1.320354278230367e+001
1	 1.128135551833708e+000	 6.324926465120909e-001	 1.544166501638887e+001
1	 1.121208264223476e+000	 6.446927533389899e-001	 1.522077502815071e+001
1	 1.114138783211110e+000	 6.568344001685657e-001	 1.499532113567594e+001
1	 1.106927782148541e+000	 6.689151499495938e-001	 1.476561844335421e+001
1	 1.099575989221505e+000	 6.809325741521234e-001	 1.453201062813086e+001
1	 1.092084187381794e+000	 6.928842542887641e-001	 1.429486975386326e+001
1	 1.084453214229405e+000	 7.047677834389821e-001	 1.405459603351799e+001
1	 1.076683961844282e+000	 7.165807677744920e-001	 1.381161753906073e+001
1	 1.068777376567416e+000	 7.283208280838208e-001	 1.356638985902109e+001
1	 1.060734458731179e+000	 7.399856012941005e-001	 1.331939570384495e+001
1	 1.052556262338825e+000	 7.515727419881261e-001	 1.307114445928104e+001
1	 1.151393785650396e+000	 6.455324464160297e-001	 1.527625028921648e+001
1	 1.144323681448046e+000	 6.579840770396938e-001	 1.505751444587471e+001
1	 1.137108452309784e+000	 6.703760424240128e-001	 1.483392046040701e+001
1	 1.129748785469733e+000	 6.827058552742499e-001	 1.460585852601755e+001
1	 1.122245424126297e+000	 6.949710369926210e-001	 1.437375233088358e+001
1	 1.114599167373023e+000	 7.071691192309456e-001	 1.413805875866366e+001
1	 1.106810870078322e+000	 7.192976454463668e-001	 1.389926752677961e+001
1	 1.098881442713736e+000	 7.313541724581942e-001	 1.365790076247783e+001
1	 1.090811851130529e+000	 7.433362720038974e-001	 1.341451251683357e+001
1	 1.082603116284461e+000	 7.552415322922722e-001	 1.316968821701972e+001
1	 1.074256313908682e+000	 7.670675595517768e-001	 1.292404405732099e+001
1	 1.174651972953994e+000	 6.585722202423398e-001	 1.510608551851457e+001
1	 1.167439052445210e+000	 6.712753741597766e-001	 1.488772361144962e+001
1	 1.160078075472602e+000	 6.839176575982480e-001	 1.466440051945552e+001
1	 1.152569743152447e+000	 6.964965330196065e-001	 1.443656524928936e+001
1	 1.144914813695786e+000	 7.090094717583350e-001	 1.420470443112586e+001
1	 1.137114102337886e+000	 7.214539556055630e-001	 1.396934192374618e+001
1	 1.129168481215533e+000	 7.338274783962132e-001	 1.373103834895006e+001
1	 1.121078879191826e+000	 7.461275475972875e-001	 1.349039055532866e+001
1	 1.112846281628262e+000	 7.583516858952979e-001	 1.324803101171447e+001
1	 1.104471730103942e+000	 7.704974327808035e-001	 1.300462713080655e+001
1	 1.095956322081866e+000	 7.825623461280228e-001	 1.276088052365226e+001
1	 1.197910119558531e+000	 6.716119712506630e-001	 1.493082030570862e+001
1	 1.190554382993286e+000	 6.845666480217497e-001	 1.471110033092781e+001
1	 1.183047658441432e+000	 6.974592490763550e-001	 1.448647397106833e+001
1	 1.175390660901376e+000	 7.102871866330096e-001	 1.425743366141485e+001
1	 1.167584163596768e+000	 7.230478819585513e-001	 1.402451282946156e+001
1	 1.159628997904562e+000	 7.357387669835079e-001	 1.378828542265161e+001
1	 1.151526053229886e+000	 7.483572859206669e-001	 1.354936535825675e+001
1	 1.143276276827363e+000	 7.609008968848121e-001	 1.330840589564139e+001
1	 1.134880673568683e+000	 7.733670735115830e-001	 1.306609893135385e+001
1	 1.126340305656253e+000	 7.857533065733874e-001	 1.282317421768980e+001
1	 1.117656292282877e+000	 7.980571055902893e-001	 1.258039850557312e+001
1	 1.221168231278044e+000	 6.846517027006408e-001	 1.475013093802194e+001
1	 1.213669678870590e+000	 6.978579019481237e-001	 1.452736542417469e+001
1	 1.206017206958141e+000	 7.110008202434177e-001	 1.429987535628299e+001
1	 1.198211544421214e+000	 7.240778195618054e-001	 1.406818203555730e+001
1	 1.190253479496037e+000	 7.370862711025561e-001	 1.383285039626132e+001
1	 1.182143859701230e+000	 7.500235569356700e-001	 1.359448847326603e+001
1	 1.173883591710230e+000	 7.628870716518742e-001	 1.335374678607860e+001
1	 1.165473641169157e+000	 7.756742240138076e-001	 1.311131763967505e+001
1	 1.156915032459862e+000	 7.883824386063116e-001	 1.286793434268079e+001
1	 1.148208848408023e+000	 8.010091574837152e-001	 1.262437034365952e+001
1	 1.139356229936217e+000	 8.135518418120014e-001	 1.238143828648709e+001
1	 1.244426313926563e+000	 6.976914178519142e-001	 1.456371789587352e+001
1	 1.236784945855437e+000	 7.111491392614101e-001	 1.433626057553799e+001
1	 1.228986726764600e+000	 7.245423744845195e-001	 1.410435905539972e+001
1	 1.221032399416653e+000	 7.378684352533406e-001	 1.386854970094185e+001
1	 1.212922767060388e+000	 7.511246426996359e-001	 1.362941445293198e+001
1	 1.204658693356066e+000	 7.643083290329398e-001	 1.338758025149244e+001
1	 1.196241102245413e+000	 7.774168392219805e-001	 1.314371837235423e+001
1	 1.187670977766017e+000	 7.904475326773138e-001	 1.289854367568650e+001
1	 1.178949363809866e+000	 8.033977849330432e-001	 1.265281376812141e+001
1	 1.170077363825882e+000	 8.162649893254796e-001	 1.240732807882117e+001
1	 1.161056140466386e+000	 8.290465586665842e-001	 1.216292685066356e+001
1	 1.267684373318120e+000	 7.107311199641255e-001	 1.437130363470412e+001
1	 1.259900189726144e+000	 7.244403632841191e-001	 1.413754642115221e+001
1	 1.251956223602675e+000	 7.380839151847439e-001	 1.389969746943951e+001
1	 1.243853231592387e+000	 7.516590371549612e-001	 1.365829511278423e+001
1	 1.235592031956617e+000	 7.651630002590768e-001	 1.341392453049095e+001
1	 1.227173504497251e+000	 7.785930868462078e-001	 1.316721714471809e+001
1	 1.218598590424284e+000	 7.919465922631325e-001	 1.291884992647081e+001
1	 1.209868292166755e+000	 8.052208265683710e-001	 1.266954461125383e+001
1	 1.200983673126766e+000	 8.184131162453372e-001	 1.242006682505356e+001
1	 1.191945857376462e+000	 8.315208059123728e-001	 1.217122512155599e+001
1	 1.182756029297884e+000	 8.445412600274632e-001	 1.192386993174317e+001
1	 1.290942415266750e+000	 7.237708122969156e-001	 1.417263060661657e+001
1	 1.283015416261027e+000	 7.377315773387621e-001	 1.393100084303133e+001
1	 1.274925703214235e+000	 7.516254457291738e-001	 1.368567939821121e+001
1	 1.266674046653109e+000	 7.654496287140141e-001	 1.343719413088593e+001
1	 1.258261279851520e+000	 7.792013472901654e-001	 1.318612037046869e+001
1	 1.249688298752963e+000	 7.928778339463644e-001	 1.293308030221880e+001
1	 1.240956061835691e+000	 8.064763344074751e-001	 1.267874225996671e+001
1	 1.232065589920180e+000	 8.199941093800185e-001	 1.242381992685744e+001
1	 1.223017965918630e+000	 8.334284362967538e-001	 1.216907144480807e+001
1	 1.213814334526393e+000	 8.467766110580863e-001	 1.191529843361723e+001
1	 1.204455901855211e+000	 8.600359497680635e-001	 1.166334492090516e+001
1	 1.314200445586484e+000	 7.368104981099264e-001	 1.396745949211751e+001
1	 1.306130631238402e+000	 7.510227847478493e-001	 1.371641744432806e+001
1	 1.297895171341149e+000	 7.651669695028935e-001	 1.346210859062739e+001
1	 1.289494850303512e+000	 7.792402133778447e-001	 1.320503848104216e+001
1	 1.280930516411890e+000	 7.932396873021873e-001	 1.294576013811472e+001
1	 1.272203081751380e+000	 8.071625739043001e-001	 1.268487344570972e+001
1	 1.263313522068484e+000	 8.210060692871556e-001	 1.242302444498021e+001
1	 1.254262876575102e+000	 8.347673848052971e-001	 1.216090453794982e+001
1	 1.245052247693527e+000	 8.484437488408518e-001	 1.189924959941058e+001
1	 1.235682800742303e+000	 8.620324085763131e-001	 1.163883899807760e+001
1	 1.226155763562868e+000	 8.755306317618105e-001	 1.138049452818570e+001
1	 1.337458470091355e+000	 7.498501806627992e-001	 1.375556761638145e+001
1	 1.329245840436585e+000	 7.643139888338925e-001	 1.349360418370413e+001
1	 1.320864633725284e+000	 7.787084898909863e-001	 1.322880244629860e+001
1	 1.312315648248289e+000	 7.930307945938002e-001	 1.296163437700603e+001
1	 1.303599747304523e+000	 8.072780238044294e-001	 1.269261882206048e+001
1	 1.294717859120681e+000	 8.214473102909055e-001	 1.242232090837092e+001
1	 1.285670976711511e+000	 8.355358005343190e-001	 1.215135135878638e+001
1	 1.276460157680332e+000	 8.495406565372456e-001	 1.188036571578255e+001
1	 1.267086523959526e+000	 8.634590576311911e-001	 1.161006347424938e+001
1	 1.257551261490825e+000	 8.772882022807448e-001	 1.134118712429882e+001
1	 1.247855619845356e+000	 8.910253098821287e-001	 1.107452110525448e+001
1	 1.030856161947795e+000	 7.360778895636447e-001	 1.320354278230366e+001
1	 1.022715166525019e+000	 7.473478326137196e-001	 1.294931706088816e+001
1	 1.014443900524439e+000	 7.585372058120381e-001	 1.269105515997078e+001
1	 1.006043549818665e+000	 7.696437712595143e-001	 1.242934789364186e+001
1	 9.975153511208504e-001	 7.806653141634370e-001	 1.216479824497116e+001
1	 9.888605914263497e-001	 7.915996442727784e-001	 1.189802069346161e+001
1	 9.800806074060005e-001	 8.024445972974047e-001	 1.162964051910087e+001
1	 9.711767847515959e-001	 8.131980363093013e-001	 1.136029308420073e+001
1	 9.621505574741560e-001	 8.238578531239378e-001	 1.109062309427577e+001
1	 9.530034071557011e-001	 8.344219696599163e-001	 1.082128383927386e+001
1	 9.437368621553290e-001	 8.448883392750972e-001	 1.055293641652483e+001
1	 1.052556262338825e+000	 7.515727419881261e-001	 1.307114445928104e+001
1	 1.044243894396206e+000	 7.630799236604067e-001	 1.282019311025184e+001
1	 1.035798513607119e+000	 7.745048394403975e-001	 1.256513703761720e+001
1	 1.027221330807447e+000	 7.858452043199751e-001	 1.230657068634628e+001
1	 1.018513608743844e+000	 7.970987568837921e-001	 1.204509829979177e+001
1	 1.009676661503626e+000	 8.082632607748009e-001	 1.178133322980496e+001
1	 1.000711853895297e+000	 8.193365061433412e-001	 1.151589722770409e+001
1	 9.916206007802295e-001	 8.303163110778576e-001	 1.124941971734039e+001
1	 9.824043663561702e-001	 8.412005230153462e-001	 1.098253705155895e+001
1	 9.730646633932651e-001	 8.519870201296235e-001	 1.071589175339899e+001
1	 9.636030524234190e-001	 8.626737126955778e-001	 1.045013174342461e+001
1	 1.074256313908682e+000	 7.670675595517768e-001	 1.292404405732099e+001
1	 1.065772573831665e+000	 7.788119793124740e-001	 1.267582812613385e+001
1	 1.057153078645655e+000	 7.904724371441632e-001	 1.242326193302654e+001
1	 1.048399064149761e+000	 8.020466009297865e-001	 1.216695143613918e+001
1	 1.039511819124085e+000	 8.135321626314672e-001	 1.190751130134900e+001
1	 1.030492684747856e+000	 8.249268397862397e-001	 1.164556418416220e+001
1	 1.021343053967183e+000	 8.362283769850172e-001	 1.138173999439187e+001
1	 1.012064370812964e+000	 8.474345473328053e-001	 1.111667514493482e+001
1	 1.002658129669613e+000	 8.585431538882244e-001	 1.085101178601011e+001
1	 9.931258744953389e-001	 8.695520310804034e-001	 1.058539702626353e+001
1	 9.834691979947898e-001	 8.804590461013547e-001	 1.032048214218394e+001
1	 1.095956322081866e+000	 7.825623461280228e-001	 1.276088052365227e+001
1	 1.087301210213081e+000	 7.945440035026686e-001	 1.251463898290174e+001
1	 1.078507600978236e+000	 8.064400029149780e-001	 1.226367762090370e+001
1	 1.069576755139626e+000	 8.182479651390544e-001	 1.200862127449677e+001
1	 1.060509987510751e+000	 8.299655355145807e-001	 1.175010362616042e+001
1	 1.051308666362708e+000	 8.415903854727677e-001	 1.148876644714693e+001
1	 1.041974212779163e+000	 8.531202140451907e-001	 1.122525882307954e+001
1	 1.032508099960486e+000	 8.645527493535051e-001	 1.096023636341458e+001
1	 1.022911852477707e+000	 8.758857500780442e-001	 1.069436039621394e+001
1	 1.013187045477039e+000	 8.871170069033344e-001	 1.042829714971851e+001
1	 1.003335303835817e+000	 8.982443439385989e-001	 1.016271692225409e+001
1	 1.117656292282877e+000	 7.980571055902893e-001	 1.258039850557312e+001
1	 1.108829808922140e+000	 8.102760001637359e-001	 1.233516550313564e+001
1	 1.099862085943054e+000	 8.224075407444853e-001	 1.208476795838814e+001
1	 1.090754409071060e+000	 8.344493009978824e-001	 1.182985647575400e+001
1	 1.081508119153021e+000	 8.463988796412524e-001	 1.157109182434343e+001
1	 1.072124611551856e+000	 8.582539020000585e-001	 1.130914413210806e+001
1	 1.062605335488745e+000	 8.700120215466195e-001	 1.104469205995710e+001
1	 1.052951793333486e+000	 8.816709214193181e-001	 1.077842195733029e+001
1	 1.043165539843674e+000	 8.932283159202764e-001	 1.051102700077829e+001
1	 1.033248181353481e+000	 9.046819519894954e-001	 1.024320631715155e+001
1	 1.023201374912877e+000	 9.160296106534807e-001	 9.975664093046035e+000
1	 1.139356229936217e+000	 8.135518418120014e-001	 1.238143828648709e+001
1	 1.130358375340527e+000	 8.260079732284228e-001	 1.213605875117255e+001
1	 1.121216538878297e+000	 8.383750546243286e-001	 1.188503992790371e+001
1	 1.111932031238083e+000	 8.506506125563762e-001	 1.162906463723507e+001
1	 1.102506219300071e+000	 8.628321991195993e-001	 1.136882832079839e+001
1	 1.092940525518970e+000	 8.749173935337856e-001	 1.110503817655827e+001
1	 1.083236427253435e+000	 8.869038037120623e-001	 1.083841226940030e+001
1	 1.073395456042650e+000	 8.987890678096054e-001	 1.056967861865842e+001
1	 1.063419196830736e+000	 9.105708557503932e-001	 1.029957426425455e+001
1	 1.053309287139781e+000	 9.222468707299638e-001	 1.002884431318742e+001
1	 1.043067416192346e+000	 9.338148506921710e-001	 9.758240968164429e+000
1	 1.161056140466386e+000	 8.290465586665842e-001	 1.216292685066356e+001
1	 1.151886914849926e+000	 8.417399266294754e-001	 1.191607063958971e+001
1	 1.142570965122156e+000	 8.543425485461511e-001	 1.166311213321952e+001
1	 1.133109626934713e+000	 8.668519038646393e-001	 1.140477240935318e+001
1	 1.123504293201081e+000	 8.792654980577410e-001	 1.114178872007784e+001
1	 1.113756413467723e+000	 8.915808642396222e-001	 1.087491355847614e+001
1	 1.103867493230739e+000	 9.037955647642769e-001	 1.060491369397090e+001
1	 1.093839093198666e+000	 9.159071928037286e-001	 1.033256917803611e+001
1	 1.083672828502116e+000	 9.279133739038652e-001	 1.005867232209008e+001
1	 1.073370367851056e+000	 9.398117675158184e-001	 9.784026649465043e+000
1	 1.062933432640599e+000	 9.516000685008399e-001	 9.509445823424692e+000
1	 1.182756029297884e+000	 8.445412600274632e-001	 1.192386993174317e+001
1	 1.173415432832025e+000	 8.574718642996398e-001	 1.167404467998432e+001
1	 1.163925370012821e+000	 8.703100265015967e-001	 1.141770456206167e+001
1	 1.154287201454969e+000	 8.830531789727771e-001	 1.115561457659120e+001
1	 1.144502346105226e+000	 8.956987805637955e-001	 1.088856050895278e+001
1	 1.134572280601786e+000	 9.082443182832423e-001	 1.061734792005668e+001
1	 1.124498538578164e+000	 9.206873089260209e-001	 1.034280109503470e+001
1	 1.114282709912222e+000	 9.330253006810482e-001	 1.006576195372302e+001
1	 1.103926439921036e+000	 9.452558747161647e-001	 9.787088924911524e+000
1	 1.093431428502421e+000	 9.573766467381368e-001	 9.507655786437573e+000
1	 1.082799429224013e+000	 9.693852685256589e-001	 9.228350473298846e+000
1	 1.204455901855211e+000	 8.600359497680635e-001	 1.166334492090516e+001
1	 1.194943934668507e+000	 8.732037901716622e-001	 1.140890773371739e+001
1	 1.185279758888481e+000	 8.862774924823081e-001	 1.114762945552270e+001
1	 1.175464760092871e+000	 8.992544419308941e-001	 1.088032431897369e+001
1	 1.165500383261687e+000	 9.121320507458817e-001	 1.060783298038245e+001
1	 1.155388132124831e+000	 9.249077598303189e-001	 1.033102142138595e+001
1	 1.145129568453216e+000	 9.375790404200531e-001	 1.005077979985766e+001
1	 1.134726311294007e+000	 9.501433957209261e-001	 9.768021252081748e+000
1	 1.124180036150719e+000	 9.625983625227633e-001	 9.483680648342538e+000
1	 1.113492474108992e+000	 9.749415127879978e-001	 9.198713304212607e+000
1	 1.102665410908964e+000	 9.871704552127986e-001	 8.914093649946040e+000
1	 1.226155763562868e+000	 8.755306317618105e-001	 1.138049452818570e+001
1	 1.216472425741059e+000	 8.889357081782893e-001	 1.111966263872594e+001
1	 1.206634137087326e+000	 9.022449504799287e-001	 1.085178314713747e+001
1	 1.196642308142437e+000	 9.154556967890946e-001	 1.057772450776774e+001
1	 1.186498409919639e+000	 9.285653127121180e-001	 1.029838822755508e+001
1	 1.176203973240529e+000	 9.415711930465256e-001	 1.001470767165247e+001
1	 1.165760588013401e+000	 9.544707634691312e-001	 9.727646805697146e+000
1	 1.155169902454707e+000	 9.672614822027223e-001	 9.438198876904735e+000
1	 1.144433622254387e+000	 9.799408416591322e-001	 9.147385036336004e+000
1	 1.133553509685888e+000	 9.925063700564799e-001	 8.856252904846784e+000
1	 1.122531382661828e+000	 1.004955633008429e+000	 8.565875085388264e+000
1	 1.247855619845356e+000	 8.910253098821287e-001	 1.107452110525448e+001
1	 1.238000911431365e+000	 9.046676222522668e-001	 1.080538160574722e+001
1	 1.227988509947546e+000	 9.182124044861021e-001	 1.052913875357296e+001
1	 1.217819850897685e+000	 9.316569475974836e-001	 1.024671990950063e+001
1	 1.207496431328260e+000	 9.449985705706222e-001	 9.959093077724891e+000
1	 1.197019809152552e+000	 9.582346220975362e-001	 9.667265606710931e+000
1	 1.186391602416226e+000	 9.713624822960131e-001	 9.372282812205219e+000
1	 1.175613488505012e+000	 9.843795644057990e-001	 9.075226524765546e+000
1	 1.164687203295262e+000	 9.972833164607426e-001	 8.777213564370598e+000
1	 1.153614540248222e+000	 1.010071222934661e+000	 8.479394144869707e+000
1	 1.142397349448981e+000	 1.022740806358721e+000	 8.182950211226645e+000
1	 9.437368621553290e-001	 8.448883392750972e-001	 1.055293641652483e+001
1	 9.343539132487400e-001	 8.552534008771232e-001	 1.028337659484122e+001
1	 9.248547987507909e-001	 8.655167534262337e-001	 1.001041466028148e+001
1	 9.152411822021542e-001	 8.756764540435483e-001	 9.734864236331278e+000
1	 9.055147702627121e-001	 8.857305963593138e-001	 9.457544709331073e+000
1	 8.956773117034877e-001	 8.956773117034877e-001	 9.179280186170445e+000
1	 8.857305963593136e-001	 9.055147702627120e-001	 8.900898443326625e+000
1	 8.756764540435487e-001	 9.152411822021543e-001	 8.623229869291299e+000
1	 8.655167534262338e-001	 9.248547987507906e-001	 8.347106402445069e+000
1	 8.552534008771235e-001	 9.343539132487400e-001	 8.073360466452821e+000
1	 8.448883392750972e-001	 9.437368621553290e-001	 7.802823905256679e+000
1	 9.636030524234190e-001	 8.626737126955778e-001	 1.045013174342461e+001
1	 9.540225871798311e-001	 8.732569646578550e-001	 1.018304695247139e+001
1	 9.443235109940165e-001	 8.837363665345823e-001	 9.912446308945221e+000
1	 9.345075224251110e-001	 8.941099345481915e-001	 9.639134793812165e+000
1	 9.245763640591428e-001	 9.043757221987769e-001	 9.363924158989136e+000
1	 9.145318214797459e-001	 9.145318214797459e-001	 9.087631886343317e+000
1	 9.043757221987768e-001	 9.245763640591429e-001	 8.811080136206224e+000
1	 8.941099345481920e-001	 9.345075224251107e-001	 8.535094687449059e+000
1	 8.837363665345825e-001	 9.443235109940161e-001	 8.260503871191464e+000
1	 8.732569646578551e-001	 9.540225871798307e-001	 7.988137500229511e+000
1	 8.626737126955777e-001	 9.636030524234188e-001	 7.718825796279889e+000
1	 9.834691979947898e-001	 8.804590461013547e-001	 1.032048214218394e+001
1	 9.736912168585270e-001	 8.912604879328960e-001	 1.005412148914961e+001
1	 9.637921794347112e-001	 9.019559386510658e-001	 9.784177598162117e+000
1	 9.537738193008560e-001	 9.125433735797033e-001	 9.511441806229399e+000
1	 9.436379149690517e-001	 9.230208060888488e-001	 9.236712904818404e+000
1	 9.333862888354511e-001	 9.333862888354512e-001	 8.960796112422829e+000
1	 9.230208060888488e-001	 9.436379149690516e-001	 8.684502035383154e+000
1	 9.125433735797036e-001	 9.537738193008563e-001	 8.408645618985677e+000
1	 9.019559386510659e-001	 9.637921794347110e-001	 8.134045090890522e+000
1	 8.912604879328965e-001	 9.736912168585268e-001	 7.861520898959914e+000
1	 8.804590461013545e-001	 9.834691979947897e-001	 7.591894645570609e+000
1	 1.003335303835817e+000	 8.982443439385989e-001	 1.016271692225409e+001
1	 9.933598072018449e-001	 9.092639752029754e-001	 9.895577480267706e+000
1	 9.832608089399151e-001	 9.201754743304357e-001	 9.624819591557666e+000
1	 9.730400776458450e-001	 9.309767757463132e-001	 9.351216365624561e+000
1	 9.626994277577082e-001	 9.416658526906770e-001	 9.075548738793405e+000
1	 9.522407184841030e-001	 9.522407184841031e-001	 8.798604472184604e+000
1	 9.416658526906768e-001	 9.626994277577082e-001	 8.521177137228287e+000
1	 9.309767757463132e-001	 9.730400776458450e-001	 8.244065090697355e+000
1	 9.201754743304358e-001	 9.832608089399147e-001	 7.968070441262636e+000
1	 9.092639752029760e-001	 9.933598072018447e-001	 7.693998009594276e+000
1	 8.982443439385988e-001	 1.003335303835817e+000	 7.422654284049482e+000
1	 1.023201374912877e+000	 9.160296106534807e-001	 9.975664093046035e+000
1	 1.013028363126802e+000	 9.272674309688243e-001	 9.706471645475183e+000
1	 1.002729404376668e+000	 9.383949781274457e-001	 9.433644642394311e+000
1	 9.923063022765318e-001	 9.494101456562506e-001	 9.157933767688419e+000
1	 9.817609071903853e-001	 9.603108666654102e-001	 8.880097605689780e+000
1	 9.710951151391997e-001	 9.710951151391997e-001	 8.600901675994646e+000
1	 9.603108666654104e-001	 9.817609071903853e-001	 8.321117455648400e+000
1	 9.494101456562508e-001	 9.923063022765317e-001	 8.041521390598710e+000
1	 9.383949781274458e-001	 1.002729404376667e+000	 7.762893898342727e+000
1	 9.272674309688246e-001	 1.013028363126802e+000	 7.486018363718642e+000
1	 9.160296106534807e-001	 1.023201374912877e+000	 7.211680129806569e+000
1	 1.043067416192346e+000	 9.338148506921710e-001	 9.758240968164433e+000
1	 1.032696889550413e+000	 9.452708597311709e-001	 9.485932586879258e+000
1	 1.022197970612008e+000	 9.566144545968489e-001	 9.209980560875527e+000
1	 1.011572498009371e+000	 9.678434879177447e-001	 8.931109306397257e+000
1	 1.000822358032352e+000	 9.789558526741966e-001	 8.650050926472391e+000
1	 9.899494835142403e-001	 9.899494835142405e-001	 8.367544293653685e+000
1	 9.789558526741966e-001	 1.000822358032352e+000	 8.084334120473388e+000
1	 9.678434879177446e-001	 1.011572498009371e+000	 7.801170019407105e+000
1	 9.566144545968491e-001	 1.022197970612008e+000	 7.518805554171737e+000
1	 9.452708597311715e-001	 1.032696889550413e+000	 7.237997284201862e+000
1	 9.338148506921709e-001	 1.043067416192346e+000	 6.959503804167556e+000
1	 1.062933432640599e+000	 9.516000685008399e-001	 9.509445823424697e+000
1	 1.052365391389697e+000	 9.632742659907464e-001	 9.233154075339680e+000
1	 1.041666512512977e+000	 9.748339082933980e-001	 8.953205435616432e+000
1	 1.030838669660818e+000	 9.862768071390249e-001	 8.670294540302317e+000
1	 1.019883785048881e+000	 9.976008153781840e-001	 8.385123221878637e+000
1	 1.008803828322724e+000	 1.008803828322724e+000	 8.098399650668581e+000
1	 9.976008153781842e-001	 1.019883785048881e+000	 7.810837464808722e+000
1	 9.862768071390250e-001	 1.030838669660818e+000	 7.523154890451243e+000
1	 9.748339082933983e-001	 1.041666512512977e+000	 7.236073853892059e+000
1	 9.632742659907464e-001	 1.052365391389697e+000	 6.950319087338137e+000
1	 9.516000685008399e-001	 1.062933432640599e+000	 6.666617230043974e+000
1	 1.082799429224013e+000	 9.693852685256589e-001	 9.228350473298846e+000
1	 1.072033873561670e+000	 9.812776542482794e-001	 8.947389075923132e+000
1	 1.061135034946615e+000	 9.930533437718467e-001	 8.662743025255942e+000
1	 1.050104822047327e+000	 1.004710107928321e+000	 8.375073969890144e+000
1	 1.038945193005243e+000	 1.016245759438521e+000	 8.085049997638574e+000
1	 1.027658154278149e+000	 1.027658154278149e+000	 7.793344846040281e+000
1	 1.016245759438521e+000	 1.038945193005243e+000	 7.500637102770838e+000
1	 1.004710107928321e+000	 1.050104822047326e+000	 7.207609397472929e+000
1	 9.930533437718470e-001	 1.061135034946614e+000	 6.914947586544846e+000
1	 9.812776542482800e-001	 1.072033873561670e+000	 6.623339932443027e+000
1	 9.693852685256591e-001	 1.082799429224013e+000	 6.333476279067135e+000
1	 1.102665410908964e+000	 9.871704552127986e-001	 8.914093649946038e+000
1	 1.091702340983347e+000	 9.992810290045006e-001	 8.627944419285617e+000
1	 1.080603542779960e+000	 1.011272765586948e+000	 8.338058648296526e+000
1	 1.069370959985351e+000	 1.023143394893862e+000	 8.045062074164234e+000
1	 1.058006586666708e+000	 1.034890689516355e+000	 7.749585858331064e+000
1	 1.046512466094015e+000	 1.046512466094015e+000	 7.452265876242555e+000
1	 1.034890689516356e+000	 1.058006586666708e+000	 7.153741998818056e+000
1	 1.023143394893862e+000	 1.069370959985351e+000	 6.854657366985299e+000
1	 1.011272765586948e+000	 1.080603542779959e+000	 6.555657660635573e+000
1	 9.992810290045008e-001	 1.091702340983347e+000	 6.257390363369995e+000
1	 9.871704552127986e-001	 1.102665410908964e+000	 5.960504024417995e+000
1	 1.122531382661828e+000	 1.004955633008429e+000	 8.565875085388267e+000
1	 1.111370798571747e+000	 1.017284394760140e+000	 8.274176038952376e+000
1	 1.100072040880052e+000	 1.029492178293454e+000	 7.978655509442207e+000
1	 1.088637088291348e+000	 1.041576672643878e+000	 7.679900661941033e+000
1	 1.077067970798548e+000	 1.053535610272836e+000	 7.378502821547244e+000
1	 1.065366768483820e+000	 1.065366768483820e+000	 7.075056852233370e+000
1	 1.053535610272836e+000	 1.077067970798548e+000	 6.770160529718339e+000
1	 1.041576672643878e+000	 1.088637088291348e+000	 6.464413909490796e+000
1	 1.029492178293453e+000	 1.100072040880052e+000	 6.158418691135019e+000
1	 1.017284394760140e+000	 1.111370798571747e+000	 5.852777580118509e+000
1	 1.004955633008429e+000	 1.122531382661828e+000	 5.548093648207290e+000
1	 1.142397349448981e+000	 1.022740806358721e+000	 8.182950211226643e+000
1	 1.131039251243886e+000	 1.035287756015926e+000	 7.885484705600296e+000
1	 1.119540534113932e+000	 1.047711586446118e+000	 7.584071409292440e+000
1	 1.107903211781769e+000	 1.060009945786597e+000	 7.279256499545038e+000
1	 1.096129350166033e+000	 1.072180526369110e+000	 6.971588807975811e+000
1	 1.084221066161063e+000	 1.084221066161063e+000	 6.661619298173356e+000
1	 1.072180526369110e+000	 1.096129350166033e+000	 6.349900540050697e+000
1	 1.060009945786597e+000	 1.107903211781769e+000	 6.036986181871948e+000
1	 1.047711586446118e+000	 1.119540534113931e+000	 5.723430420872056e+000
1	 1.035287756015926e+000	 1.131039251243886e+000	 5.409787473393370e+000
1	 1.022740806358721e+000	 1.142397349448981e+000	 5.096611045462541e+000
1	 8.448883392750972e-001	 9.437368621553290e-001	 7.802823905256679e+000
1	 8.344219696599168e-001	 9.530034071557009e-001	 7.533791248195371e+000
1	 8.238578531239379e-001	 9.621505574741556e-001	 7.264569977564091e+000
1	 8.131980363093018e-001	 9.711767847515958e-001	 6.995885803065349e+000
1	 8.024445972974047e-001	 9.800806074060000e-001	 6.728458995566156e+000
1	 7.915996442727787e-001	 9.888605914263492e-001	 6.463003572063748e+000
1	 7.806653141634378e-001	 9.975153511208502e-001	 6.200226494630270e+000
1	 7.696437712595147e-001	 1.006043549818664e+000	 5.940826884774541e+000
1	 7.585372058120381e-001	 1.014443900524439e+000	 5.685495254613677e+000
1	 7.473478326137197e-001	 1.022715166525019e+000	 5.434912756198607e+000
1	 7.360778895636447e-001	 1.030856161947795e+000	 5.189750450284093e+000
1	 8.626737126955777e-001	 9.636030524234188e-001	 7.718825796279891e+000
1	 8.519870201296236e-001	 9.730646633932646e-001	 7.450795684476213e+000
1	 8.412005230153467e-001	 9.824043663561700e-001	 7.182282798042238e+000
1	 8.303163110778581e-001	 9.916206007802294e-001	 6.914007663502634e+000
1	 8.193365061433415e-001	 1.000711853895297e+000	 6.646687441395275e+000
1	 8.082632607748014e-001	 1.009676661503626e+000	 6.381035109058916e+000
1	 7.970987568837925e-001	 1.018513608743844e+000	 6.117758653729995e+000
1	 7.858452043199755e-001	 1.027221330807447e+000	 5.857560277414889e+000
1	 7.745048394403979e-001	 1.035798513607119e+000	 5.601135614968235e+000
1	 7.630799236604069e-001	 1.044243894396206e+000	 5.349172966768332e+000
1	 7.515727419881260e-001	 1.052556262338825e+000	 5.102352547334977e+000
1	 8.804590461013545e-001	 9.834691979947897e-001	 7.591894645570610e+000
1	 8.695520310804036e-001	 9.931258744953386e-001	 7.323343020694978e+000
1	 8.585431538882248e-001	 1.002658129669613e+000	 7.054064935100998e+000
1	 8.474345473328058e-001	 1.012064370812964e+000	 6.784794110680084e+000
1	 8.362283769850175e-001	 1.021343053967182e+000	 6.516262427577946e+000
1	 8.249268397862399e-001	 1.030492684747855e+000	 6.249199075243942e+000
1	 8.135321626314674e-001	 1.039511819124084e+000	 5.984329711251077e+000
1	 8.020466009297871e-001	 1.048399064149761e+000	 5.722375629435614e+000
1	 7.904724371441636e-001	 1.057153078645655e+000	 5.464052938878231e+000
1	 7.788119793124746e-001	 1.065772573831665e+000	 5.210071755210509e+000
1	 7.670675595517765e-001	 1.074256313908682e+000	 4.961135405694551e+000
1	 8.982443439385988e-001	 1.003335303835817e+000	 7.422654284049481e+000
1	 8.871170069033353e-001	 1.013187045477039e+000	 7.152178042898123e+000
1	 8.758857500780445e-001	 1.022911852477707e+000	 6.880760485046492e+000
1	 8.645527493535054e-001	 1.032508099960486e+000	 6.609165886937491e+000
1	 8.531202140451909e-001	 1.041974212779163e+000	 6.338157682425876e+000
1	 8.415903854727680e-001	 1.051308666362708e+000	 6.068497553475583e+000
1	 8.299655355145812e-001	 1.060509987510751e+000	 5.800944527182656e+000
1	 8.182479651390546e-001	 1.069576755139626e+000	 5.536254080811640e+000
1	 8.064400029149782e-001	 1.078507600978236e+000	 5.275177256505925e+000
1	 7.945440035026691e-001	 1.087301210213081e+000	 5.018459787298932e+000
1	 7.825623461280228e-001	 1.095956322081866e+000	 4.766841236017561e+000
1	 9.160296106534807e-001	 1.023201374912877e+000	 7.211680129806569e+000
1	 9.046819519894960e-001	 1.033248181353480e+000	 6.937987732907351e+000
1	 8.932283159202767e-001	 1.043165539843673e+000	 6.663148029613054e+000
1	 8.816709214193184e-001	 1.052951793333485e+000	 6.387972269888535e+000
1	 8.700120215466198e-001	 1.062605335488745e+000	 6.113271356882747e+000
1	 8.582539020000588e-001	 1.072124611551855e+000	 5.839854849532240e+000
1	 8.463988796412525e-001	 1.081508119153021e+000	 5.568529971106061e+000
1	 8.344493009978828e-001	 1.090754409071060e+000	 5.300100625571433e+000
1	 8.224075407444860e-001	 1.099862085943054e+000	 5.035366423627457e+000
1	 8.102760001637366e-001	 1.108829808922140e+000	 4.775121720224086e+000
1	 7.980571055902892e-001	 1.117656292282877e+000	 4.520154665341764e+000
1	 9.338148506921709e-001	 1.043067416192346e+000	 6.959503804167559e+000
1	 9.222468707299643e-001	 1.053309287139781e+000	 6.681406778951237e+000
1	 9.105708557503933e-001	 1.063419196830736e+000	 6.401946881069475e+000
1	 8.987890678096059e-001	 1.073395456042649e+000	 6.121997884371804e+000
1	 8.869038037120627e-001	 1.083236427253435e+000	 5.842433228323955e+000
1	 8.749173935337860e-001	 1.092940525518970e+000	 5.564124905581537e+000
1	 8.628321991195997e-001	 1.102506219300071e+000	 5.287942356151980e+000
1	 8.506506125563766e-001	 1.111932031238083e+000	 5.014751370263115e+000
1	 8.383750546243289e-001	 1.121216538878297e+000	 4.745413002024552e+000
1	 8.260079732284232e-001	 1.130358375340526e+000	 4.480782495930110e+000
1	 8.135518418120015e-001	 1.139356229936217e+000	 4.221708228206001e+000
1	 9.516000685008399e-001	 1.062933432640599e+000	 6.666617230043973e+000
1	 9.398117675158185e-001	 1.073370367851056e+000	 6.383022468250360e+000
1	 9.279133739038658e-001	 1.083672828502116e+000	 6.097822626904172e+000
1	 9.159071928037289e-001	 1.093839093198666e+000	 5.811968750406262e+000
1	 9.037955647642769e-001	 1.103867493230738e+000	 5.526411096412701e+000
1	 8.915808642396224e-001	 1.113756413467723e+000	 5.242097882189175e+000
1	 8.792654980577414e-001	 1.123504293201080e+000	 4.959974039200924e+000
1	 8.668519038646394e-001	 1.133109626934712e+000	 4.680979978346359e+000
1	 8.543425485461514e-001	 1.142570965122156e+000	 4.406050368204538e+000
1	 8.417399266294757e-001	 1.151886914849926e+000	 4.136112928622049e+000
1	 8.290465586665842e-001	 1.161056140466386e+000	 3.872087241911226e+000
1	 9.693852685256591e-001	 1.082799429224013e+000	 6.333476279067137e+000
1	 9.573766467381373e-001	 1.093431428502421e+000	 6.043379040943442e+000
1	 9.452558747161654e-001	 1.103926439921037e+000	 5.751392064056546e+000
1	 9.330253006810485e-001	 1.114282709912221e+000	 5.458557665283984e+000
1	 9.206873089260215e-001	 1.124498538578164e+000	 5.165916474790979e+000
1	 9.082443182832427e-001	 1.134572280601786e+000	 4.874506015667402e+000
1	 8.956987805637960e-001	 1.144502346105226e+000	 4.585359294421046e+000
1	 8.830531789727775e-001	 1.154287201454969e+000	 4.299503405074963e+000
1	 8.703100265015971e-001	 1.163925370012821e+000	 4.017958149568013e+000
1	 8.574718642996403e-001	 1.173415432832024e+000	 3.741734677103764e+000
1	 8.445412600274633e-001	 1.182756029297883e+000	 3.471834145028879e+000
1	 9.871704552127986e-001	 1.102665410908964e+000	 5.960504024417995e+000
1	 9.749415127879985e-001	 1.113492474108992e+000	 5.662981573295506e+000
1	 9.625983625227639e-001	 1.124180036150719e+000	 5.363227599691962e+000
1	 9.501433957209263e-001	 1.134726311294006e+000	 5.062389003787077e+000
1	 9.375790404200534e-001	 1.145129568453216e+000	 4.761609667422695e+000
1	 9.249077598303194e-001	 1.155388132124830e+000	 4.462028842165729e+000
1	 9.121320507458818e-001	 1.165500383261686e+000	 4.164779551797274e+000
1	 8.992544419308945e-001	 1.175464760092871e+000	 3.870987012362185e+000
1	 8.862774924823086e-001	 1.185279758888481e+000	 3.581767072853924e+000
1	 8.732037901716627e-001	 1.194943934668507e+000	 3.298224679540247e+000
1	 8.600359497680638e-001	 1.204455901855211e+000	 3.021452366858534e+000
1	 1.004955633008429e+000	 1.122531382661828e+000	 5.548093648207290e+000
1	 9.925063700564805e-001	 1.133553509685888e+000	 5.242299448510384e+000
1	 9.799408416591325e-001	 1.144433622254387e+000	 4.933861184615519e+000
1	 9.672614822027228e-001	 1.155169902454707e+000	 4.624043008622468e+000
1	 9.544707634691313e-001	 1.165760588013400e+000	 4.314104305830254e+000
1	 9.415711930465260e-001	 1.176203973240529e+000	 4.005297866965083e+000
1	 9.285653127121184e-001	 1.186498409919638e+000	 3.698868079330678e+000
1	 9.154556967890953e-001	 1.196642308142436e+000	 3.396049140448422e+000
1	 9.022449504799290e-001	 1.206634137087326e+000	 3.098063297681182e+000
1	 8.889357081782896e-001	 1.216472425741058e+000	 2.806119117248931e+000
1	 8.755306317618107e-001	 1.226155763562868e+000	 2.521409785950258e+000
1	 1.022740806358721e+000	 1.142397349448981e+000	 5.096611045462539e+000
1	 1.010071222934662e+000	 1.153614540248221e+000	 4.781769465354671e+000
1	 9.972833164607429e-001	 1.164687203295261e+000	 4.463787836223402e+000
1	 9.843795644057994e-001	 1.175613488505011e+000	 4.144059633138453e+000
1	 9.713624822960135e-001	 1.186391602416225e+000	 3.823971412858369e+000
1	 9.582346220975369e-001	 1.197019809152552e+000	 3.504900746517721e+000
1	 9.449985705706228e-001	 1.207496431328259e+000	 3.188214176637154e+000
1	 9.316569475974843e-001	 1.217819850897686e+000	 2.875265202503022e+000
1	 9.182124044861028e-001	 1.227988509947546e+000	 2.567392297873078e+000
1	 9.046676222522672e-001	 1.238000911431364e+000	 2.265916964858425e+000
1	 8.910253098821287e-001	 1.247855619845356e+000	 1.972141827720225e+000
1	 7.360778895636447e-001	 1.030856161947795e+000	 5.189750450284093e+000
1	 7.247296359725969e-001	 1.038865751977465e+000	 4.949958071531047e+000
1	 7.133053503815100e-001	 1.046742852430853e+000	 4.715355305060584e+000
1	 7.018073298531414e-001	 1.054486431034653e+000	 4.486393454373093e+000
1	 6.902378887419133e-001	 1.062095508079932e+000	 4.263501350102759e+000
1	 6.785993572081289e-001	 1.069569156736019e+000	 4.047085102650703e+000
1	 6.668940797275554e-001	 1.076906503314615e+000	 3.837527895302284e+000
1	 6.551244135982921e-001	 1.084106727484178e+000	 3.635189817743682e+000
1	 6.432927274468241e-001	 1.091169062434711e+000	 3.440407739796879e+000
1	 6.314013997351553e-001	 1.098092794993187e+000	 3.253495225096167e+000
1	 6.194528172708823e-001	 1.104877265689896e+000	 3.074742484334973e+000
1	 7.515727419881260e-001	 1.052556262338825e+000	 5.102352547334977e+000
1	 7.399856012941007e-001	 1.060734458731179e+000	 4.860406744157945e+000
1	 7.283208280838213e-001	 1.068777376567416e+000	 4.623066299033268e+000
1	 7.165807677744923e-001	 1.076683961844282e+000	 4.390986012907218e+000
1	 7.047677834389824e-001	 1.084453214229405e+000	 4.164798255496428e+000
1	 6.928842542887644e-001	 1.092084187381793e+000	 3.945112359815206e+000
1	 6.809325741521237e-001	 1.099575989221505e+000	 3.732514060916123e+000
1	 6.689151499495941e-001	 1.106927782148541e+000	 3.527564979465112e+000
1	 6.568344001685663e-001	 1.114138783211110e+000	 3.330802150655368e+000
1	 6.446927533389905e-001	 1.121208264223476e+000	 3.142737598847742e+000
1	 6.324926465120910e-001	 1.128135551833708e+000	 2.963857958210054e+000
1	 7.670675595517765e-001	 1.074256313908682e+000	 4.961135405694551e+000
1	 7.552415322922723e-001	 1.082603116284461e+000	 4.716759177821811e+000
1	 7.433362720038976e-001	 1.090811851130529e+000	 4.476556832658294e+000
1	 7.313541724581945e-001	 1.098881442713736e+000	 4.241357566494775e+000
1	 7.192976454463670e-001	 1.106810870078322e+000	 4.011968100882383e+000
1	 7.071691192309461e-001	 1.114599167373023e+000	 3.789171762268611e+000
1	 6.949710369926215e-001	 1.122245424126297e+000	 3.573727609281859e+000
1	 6.827058552742503e-001	 1.129748785469733e+000	 3.366369608904939e+000
1	 6.703760424240131e-001	 1.137108452309784e+000	 3.167805862648019e+000
1	 6.579840770396941e-001	 1.144323681448046e+000	 2.978717883693780e+000
1	 6.455324464160297e-001	 1.151393785650396e+000	 2.799759925852441e+000
1	 7.825623461280228e-001	 1.095956322081866e+000	 4.766841236017561e+000
1	 7.704974327808040e-001	 1.104471730103942e+000	 4.519628670444508e+000
1	 7.583516858952984e-001	 1.112846281628262e+000	 4.276301126554944e+000
1	 7.461275475972879e-001	 1.121078879191826e+000	 4.037834771822070e+000
1	 7.338274783962137e-001	 1.129168481215533e+000	 3.805183172035415e+000
1	 7.214539556055638e-001	 1.137114102337886e+000	 3.579276097566118e+000
1	 7.090094717583356e-001	 1.144914813695786e+000	 3.361018380431205e+000
1	 6.964965330196069e-001	 1.152569743152447e+000	 3.151288823939000e+000
1	 6.839176575982484e-001	 1.160078075472602e+000	 2.950939166551291e+000
1	 6.712753741597768e-001	 1.167439052445210e+000	 2.760793101445550e+000
1	 6.585722202423398e-001	 1.174651972953994e+000	 2.581645353104830e+000
1	 7.980571055902892e-001	 1.117656292282877e+000	 4.520154665341764e+000
1	 7.857533065733877e-001	 1.126340305656253e+000	 4.269580949983405e+000
1	 7.733670735115834e-001	 1.134880673568682e+000	 4.022736634339198e+000
1	 7.609008968848126e-001	 1.143276276827363e+000	 3.780718980533246e+000
1	 7.483572859206674e-001	 1.151526053229886e+000	 3.544602440208688e+000
1	 7.357387669835084e-001	 1.159628997904562e+000	 3.315437227378150e+000
1	 7.230478819585519e-001	 1.167584163596768e+000	 3.094247944951564e+000
1	 7.102871866330098e-001	 1.175390660901376e+000	 2.882032267188255e+000
1	 6.974592490763556e-001	 1.183047658441432e+000	 2.679759680158334e+000
1	 6.845666480217502e-001	 1.190554382993286e+000	 2.488370282131303e+000
1	 6.716119712506630e-001	 1.197910119558532e+000	 2.308773645640272e+000
1	 8.135518418120015e-001	 1.139356229936217e+000	 4.221708228206001e+000
1	 8.010091574837156e-001	 1.148208848408022e+000	 3.967138712016624e+000
1	 7.883824386063120e-001	 1.156915032459861e+000	 3.716267551491044e+000
1	 7.756742240138079e-001	 1.165473641169156e+000	 3.470288656608088e+000
1	 7.628870716518744e-001	 1.173883591710230e+000	 3.230372837675005e+000
1	 7.500235569356704e-001	 1.182143859701229e+000	 2.997666183273969e+000
1	 7.370862711025564e-001	 1.190253479496036e+000	 2.773288494503636e+000
1	 7.240778195618058e-001	 1.198211544421213e+000	 2.558331778151804e+000
1	 7.110008202434185e-001	 1.206017206958142e+000	 2.353858801259486e+000
1	 6.978579019481243e-001	 1.213669678870590e+000	 2.160901709359064e+000
1	 6.846517027006408e-001	 1.221168231278044e+000	 1.980460710483927e+000
1	 8.290465586665842e-001	 1.161056140466386e+000	 3.872087241911226e+000
1	 8.162649893254802e-001	 1.170077363825882e+000	 3.612785648414263e+000
1	 8.033977849330436e-001	 1.178949363809866e+000	 3.357267930684075e+000
1	 7.904475326773145e-001	 1.187670977766017e+000	 3.106801522617975e+000
1	 7.774168392219808e-001	 1.196241102245413e+000	 2.862630390209024e+000
1	 7.643083290329402e-001	 1.204658693356066e+000	 2.625973251762371e+000
1	 7.511246426996361e-001	 1.212922767060388e+000	 2.398021856773969e+000
1	 7.378684352533408e-001	 1.221032399416653e+000	 2.179939326422288e+000
1	 7.245423744845199e-001	 1.228986726764600e+000	 1.972858558439178e+000
1	 7.111491392614106e-001	 1.236784945855437e+000	 1.777880698936126e+000
1	 6.976914178519144e-001	 1.244426313926563e+000	 1.596073683565689e+000
1	 8.445412600274633e-001	 1.182756029297883e+000	 3.471834145028879e+000
1	 8.315208059123729e-001	 1.191945857376462e+000	 3.206970032464612e+000
1	 8.184131162453380e-001	 1.200983673126766e+000	 2.946084454126037e+000
1	 8.052208265683716e-001	 1.209868292166754e+000	 2.690496469685098e+000
1	 7.919465922631327e-001	 1.218598590424284e+000	 2.441501224886572e+000
1	 7.785930868462083e-001	 1.227173504497251e+000	 2.200368049969635e+000
1	 7.651630002590772e-001	 1.235592031956618e+000	 1.968338618877311e+000
1	 7.516590371549621e-001	 1.243853231592387e+000	 1.746625172447698e+000
1	 7.380839151847441e-001	 1.251956223602676e+000	 1.536408808590364e+000
1	 7.244403632841193e-001	 1.259900189726144e+000	 1.338837842250077e+000
1	 7.107311199641255e-001	 1.267684373318120e+000	 1.155026237753825e+000
1	 8.600359497680638e-001	 1.204455901855211e+000	 3.021452366858534e+000
1	 8.467766110580869e-001	 1.213814334526392e+000	 2.750107916400165e+000
1	 8.334284362967545e-001	 1.223017965918630e+000	 2.483038906172402e+000
1	 8.199941093800194e-001	 1.232065589920179e+000	 2.221595260949422e+000
1	 8.064763344074760e-001	 1.240956061835691e+000	 1.967102468926948e+000
1	 7.928778339463648e-001	 1.249688298752962e+000	 1.720859593135240e+000
1	 7.792013472901654e-001	 1.258261279851519e+000	 1.484137345531110e+000
1	 7.654496287140145e-001	 1.266674046653108e+000	 1.258176227139412e+000
1	 7.516254457291746e-001	 1.274925703214235e+000	 1.044184737415347e+000
1	 7.377315773387621e-001	 1.283015416261027e+000	 8.433376557905294e-001
1	 7.237708122969158e-001	 1.290942415266750e+000	 6.567743981520442e-001
1	 8.755306317618107e-001	 1.226155763562868e+000	 2.521409785950258e+000
1	 8.620324085763138e-001	 1.235682800742303e+000	 2.242585989346831e+000
1	 8.484437488408523e-001	 1.245052247693527e+000	 1.968430383348454e+000
1	 8.347673848052972e-001	 1.254262876575102e+000	 1.700304054127495e+000
1	 8.210060692871560e-001	 1.263313522068484e+000	 1.439543053078272e+000
1	 8.071625739043004e-001	 1.272203081751379e+000	 1.187456354939126e+000
1	 7.932396873021876e-001	 1.280930516411889e+000	 9.453238802589827e-001
1	 7.792402133778453e-001	 1.289494850303511e+000	 7.143945856889173e-001
1	 7.651669695028938e-001	 1.297895171341149e+000	 4.958846253716382e-001
1	 7.510227847478501e-001	 1.306130631238402e+000	 2.909755864896870e-001
1	 7.368104981099265e-001	 1.314200445586484e+000	 1.008128018111596e-001
1	 8.910253098821287e-001	 1.247855619845356e+000	 1.972141827720225e+000
1	 8.772882022807453e-001	 1.257551261490825e+000	 1.684764137038514e+000
1	 8.634590576311916e-001	 1.267086523959525e+000	 1.402537273749701e+000
1	 8.495406565372461e-001	 1.276460157680332e+000	 1.126814765188096e+000
1	 8.355358005343189e-001	 1.285670976711510e+000	 8.589244311671149e-001
1	 8.214473102909058e-001	 1.294717859120680e+000	 6.001663215336759e-001
1	 8.072780238044298e-001	 1.303599747304522e+000	 3.518107195155191e-001
1	 7.930307945938007e-001	 1.312315648248289e+000	 1.150962143843235e-001
1	 7.787084898909866e-001	 1.320864633725284e+000	-1.087721532523198e-001
1	 7.643139888338930e-001	 1.329245840436585e+000	-3.186246704362601e-001
1	 7.498501806627992e-001	 1.337458470091355e+000	-5.133286522512486e-001
1	 6.194528172708823e-001	 1.104877265689896e+000	 3.074742484334973e+000
1	 6.074511782547066e-001	 1.111520882801578e+000	 2.904296119853076e+000
1	 5.953970932452811e-001	 1.118024123343679e+000	 2.742324388667612e+000
1	 5.832929647635355e-001	 1.124386489988285e+000	 2.589189579400460e+000
1	 5.711411977547046e-001	 1.130607538866383e+000	 2.445225191748872e+000
1	 5.589441981408800e-001	 1.136686879394964e+000	 2.310735725226842e+000
1	 5.467043713871070e-001	 1.142624174058487e+000	 2.185996519763684e+000
1	 5.344241210826420e-001	 1.148419138145508e+000	 2.071253647741688e+000
1	 5.221058475389493e-001	 1.154071539441348e+000	 1.966723856934813e+000
1	 5.097519464059575e-001	 1.159581197877748e+000	 1.872594563695790e+000
1	 4.973648073080526e-001	 1.164947985140473e+000	 1.789023895628920e+000
1	 6.324926465120910e-001	 1.128135551833708e+000	 2.963857958210056e+000
1	 6.202383662630421e-001	 1.134919020811867e+000	 2.794361482622460e+000
1	 6.079305360031093e-001	 1.141559158214848e+000	 2.634334474731528e+000
1	 5.955716088276521e-001	 1.148055456245717e+000	 2.484130840287661e+000
1	 5.831640403073666e-001	 1.154407461691780e+000	 2.344072438017777e+000
1	 5.707102870103699e-001	 1.160614775748050e+000	 2.214448917773008e+000
1	 5.582128050381109e-001	 1.166677053794103e+000	 2.095517615404165e+000
1	 5.456740485767638e-001	 1.172594005125170e+000	 1.987503503768487e+000
1	 5.330964684657109e-001	 1.178365392638336e+000	 1.890599199144858e+000
1	 5.204825107846706e-001	 1.183991032474813e+000	 1.804965022210538e+000
1	 5.078346154609772e-001	 1.189470793619292e+000	 1.730729112614936e+000
1	 6.455324464160297e-001	 1.151393785650396e+000	 2.799759925852441e+000
1	 6.330255255024672e-001	 1.158317106180301e+000	 2.631126261989330e+000
1	 6.204639505628591e-001	 1.165094140136081e+000	 2.472792448059249e+000
1	 6.078502252668818e-001	 1.171724369251810e+000	 2.325116038695763e+000
1	 5.951868558105826e-001	 1.178207330971136e+000	 2.188419826729647e+000
1	 5.824763494079923e-001	 1.184542618267112e+000	 2.062991701900731e+000
1	 5.697212127968526e-001	 1.190729879414452e+000	 1.949084570683682e+000
1	 5.569239507601435e-001	 1.196768817715077e+000	 1.846916336522097e+000
1	 5.440870646650536e-001	 1.202659191177848e+000	 1.756669939628994e+000
1	 5.312130510209814e-001	 1.208400812153459e+000	 1.678493455379335e+000
1	 5.183044000580988e-001	 1.213993546925534e+000	 1.612500250195983e+000
1	 6.585722202423398e-001	 1.174651972953994e+000	 2.581645353104831e+000
1	 6.458126591694801e-001	 1.181715144755887e+000	 2.413644691891488e+000
1	 6.329973400576118e-001	 1.188629074990625e+000	 2.256639589980047e+000
1	 6.201288171506310e-001	 1.195393234923309e+000	 2.111002500826720e+000
1	 6.072096472698340e-001	 1.202007152653948e+000	 1.977068922926577e+000
1	 5.942423882750675e-001	 1.208470412933654e+000	 1.855137251245207e+000
1	 5.812295975402645e-001	 1.214782656932295e+000	 1.745468693685094e+000
1	 5.681738304451127e-001	 1.220943581958496e+000	 1.648287251834844e+000
1	 5.550776388845079e-001	 1.226952941132905e+000	 1.563779765105070e+000
1	 5.419435697974281e-001	 1.232810543015708e+000	 1.492096017216019e+000
1	 5.287741637167839e-001	 1.238516251189468e+000	 1.433348903866204e+000
1	 6.716119712506630e-001	 1.197910119558532e+000	 2.308773645640271e+000
1	 6.585997704605784e-001	 1.205113142387635e+000	 2.141044532221247e+000
1	 6.455307076204505e-001	 1.212163968661728e+000	 1.984899481094959e+000
1	 6.324073875483049e-001	 1.219062059176956e+000	 1.840736373370477e+000
1	 6.192324176906022e-001	 1.225806932689712e+000	 1.708914443642647e+000
1	 6.060084065529138e-001	 1.232398165729178e+000	 1.589754097223405e+000
1	 5.927379621452797e-001	 1.238835392360393e+000	 1.483536795874524e+000
1	 5.794236904440044e-001	 1.245118303898696e+000	 1.390505011309394e+000
1	 5.660681938716041e-001	 1.251246648576530e+000	 1.310862245576859e+000
1	 5.526740697965488e-001	 1.257220231163583e+000	 1.244773117292090e+000
1	 5.392439090544005e-001	 1.263038912541362e+000	 1.192363512537519e+000
1	 6.846517027006408e-001	 1.221168231278044e+000	 1.980460710483927e+000
1	 6.713868625722597e-001	 1.228511104924556e+000	 1.812520074652688e+000
1	 6.580640563844560e-001	 1.235698827032637e+000	 1.656670171677531e+000
1	 6.446859395293098e-001	 1.242730847929497e+000	 1.513344172962587e+000
1	 6.312551700783680e-001	 1.249606677027924e+000	 1.382935394960513e+000
1	 6.177744071828525e-001	 1.256325882635189e+000	 1.265797056134019e+000
1	 6.042463094888306e-001	 1.262888091711506e+000	 1.162242105446946e+000
1	 5.906735335691511e-001	 1.269292989578943e+000	 1.072543121733472e+000
1	 5.770587323738726e-001	 1.275540319581745e+000	 9.969322831293064e-001
1	 5.634045537008813e-001	 1.281629882699106e+000	 9.356014055922439e-001
1	 5.497136386883156e-001	 1.287561537111484e+000	 8.887020493869282e-001
1	 6.976914178519144e-001	 1.244426313926563e+000	 1.596073683565687e+000
1	 6.841739387010217e-001	 1.251909038215656e+000	 1.427325932901464e+000
1	 6.705973894827110e-001	 1.259233655986597e+000	 1.271117230203646e+000
1	 6.569644761630513e-001	 1.266399607097675e+000	 1.127925283413588e+000
1	 6.432779074386126e-001	 1.273406391618082e+000	 9.981872030922165e-001
1	 6.295403931062016e-001	 1.280253569633189e+000	 8.822991738295820e-001
1	 6.157546424478501e-001	 1.286940760998396e+000	 7.806161997873016e-001
1	 6.019233626328847e-001	 1.293467645042504e+000	 6.934519238620553e-001
1	 5.880492571388435e-001	 1.299833960221570e+000	 6.210785197854492e-001
1	 5.741350241929639e-001	 1.306039503724299e+000	 5.637266563091048e-001
1	 5.601833552358968e-001	 1.312084131030102e+000	 5.215855324623266e-001
1	 7.107311199641255e-001	 1.267684373318120e+000	 1.155026237753824e+000
1	 6.969610020433621e-001	 1.275306948109945e+000	 9.847715166587583e-001
1	 6.831307100482968e-001	 1.282768461406859e+000	 8.274675572179073e-001
1	 6.692430005189352e-001	 1.290068342598234e+000	 6.836452789715222e-001
1	 6.553006327768169e-001	 1.297206082409684e+000	 5.537947118052191e-001
1	 6.413063672642810e-001	 1.304181232704681e+000	 4.383645572564516e-001
1	 6.272629638992708e-001	 1.310993406233823e+000	 3.377618261434945e-001
1	 6.131731804475384e-001	 1.317642276332649e+000	 2.523515522018824e-001
1	 5.990397709140469e-001	 1.324127576569029e+000	 1.824565812358796e-001
1	 5.848654839553346e-001	 1.330449100341185e+000	 1.283574351117860e-001
1	 5.706530613145108e-001	 1.336606700427484e+000	 9.029224975182615e-002
1	 7.237708122969158e-001	 1.290942415266750e+000	 6.567743981520455e-001
1	 7.097480557957788e-001	 1.298704840456433e+000	 4.842161029661982e-001
1	 6.956640212142951e-001	 1.306303249176666e+000	 3.250038680037295e-001
1	 6.815215156663675e-001	 1.313737060347918e+000	 1.797299694285419e-001
1	 6.673233490984624e-001	 1.321005755352224e+000	 4.894593691953508e-002
1	 6.530723325984107e-001	 1.328108877831169e+000	-6.683801899906472e-002
1	 6.387712767200260e-001	 1.335046033430547e+000	-1.671535015196772e-001
1	 6.244229898254435e-001	 1.341816889492642e+000	-2.515743440634686e-001
1	 6.100302764470138e-001	 1.348421174697142e+000	-3.197169489891918e-001
1	 5.955959356705315e-001	 1.354858678651787e+000	-3.712405489335908e-001
1	 5.811227595415253e-001	 1.361129251433898e+000	-4.058473914001359e-001
1	 7.368104981099265e-001	 1.314200445586484e+000	 1.008128018111600e-001
1	 7.225351031547691e-001	 1.322102721104127e+000	-7.493556899091924e-002
1	 7.081973261137888e-001	 1.329838025179267e+000	-2.369402388087849e-001
1	 6.938000246747534e-001	 1.337405766263471e+000	-3.845399223652533e-001
1	 6.793460594090298e-001	 1.344805416395202e+000	-5.171135159246685e-001
1	 6.648382920499097e-001	 1.352036510994155e+000	-6.340808271824119e-001
1	 6.502795837870475e-001	 1.359098648601329e+000	-7.349032256547297e-001
1	 6.356727935789335e-001	 1.365991490565752e+000	-8.190842133128533e-001
1	 6.210207764852739e-001	 1.372714760678932e+000	-8.861699154067662e-001
1	 6.063263820210925e-001	 1.379268244758125e+000	-9.357494916194122e-001
1	 5.915924525343078e-001	 1.385651790179614e+000	-9.674554678870102e-001
1	 7.498501806627992e-001	 1.337458470091355e+000	-5.133286522512477e-001
1	 7.353221473168310e-001	 1.345500595902037e+000	-6.932372433956853e-001
1	 7.207306278798588e-001	 1.353372795297909e+000	-8.589846980309361e-001
1	 7.060785306134999e-001	 1.361074466261638e+000	-1.009833527572348e+000
1	 6.913687667140007e-001	 1.368605071488112e+000	-1.145085450979305e+000
1	 6.766042485600977e-001	 1.375964138175143e+000	-1.264082304522372e+000
1	 6.617878879772685e-001	 1.383151257758930e+000	-1.366206871042063e+000
1	 6.469225945203403e-001	 1.390166085595247e+000	-1.450883628075262e+000
1	 6.320112737763574e-001	 1.397008340587420e+000	-1.517579414437242e+000
1	 6.170568256895559e-001	 1.403677804762224e+000	-1.565804015052965e+000
1	 6.020621429102250e-001	 1.410174322794896e+000	-1.595110664037105e+000
1	 4.973648073080526e-001	 1.164947985140473e+000	 1.789023895628920e+000
1	 4.849449475210769e-001	 1.170172597316046e+000	 1.715095325937042e+000
1	 4.724965980002162e-001	 1.175254193189512e+000	 1.649717306486162e+000
1	 4.600221239627189e-001	 1.180192797882715e+000	 1.592706455929121e+000
1	 4.475238793346630e-001	 1.184988486332486e+000	 1.543850928837474e+000
1	 4.350042055046848e-001	 1.189641382703130e+000	 1.502911273578074e+000
1	 4.224654301051317e-001	 1.194151659763825e+000	 1.469621321403347e+000
1	 4.099098658216921e-001	 1.198519538232249e+000	 1.443689104361967e+000
1	 3.973398092324932e-001	 1.202745286085772e+000	 1.424797799619019e+000
1	 3.847575396775875e-001	 1.206829217841571e+000	 1.412606697766815e+000
1	 3.721653181596841e-001	 1.210771693807061e+000	 1.406752192702351e+000
1	 5.078346154609772e-001	 1.189470793619292e+000	 1.730729112614937e+000
1	 4.951533106594304e-001	 1.194805386811314e+000	 1.666835819090549e+000
1	 4.824429163991849e-001	 1.199993953127882e+000	 1.612054169960934e+000
1	 4.697058476866244e-001	 1.205036518219666e+000	 1.566169912139824e+000
1	 4.569445079992765e-001	 1.209933158600961e+000	 1.528936819649908e+000
1	 4.441612880133068e-001	 1.214684001049801e+000	 1.500077662762871e+000
1	 4.313585643590144e-001	 1.219289221972249e+000	 1.479285212308712e+000
1	 4.185386984054041e-001	 1.223749046732216e+000	 1.466223276452356e+000
1	 4.057040350748474e-001	 1.228063748948146e+000	 1.460527767218667e+000
1	 3.928569016887681e-001	 1.232233649757978e+000	 1.461807794033990e+000
1	 3.799996068452374e-001	 1.236259117053800e+000	 1.469646781550456e+000
1	 5.183044000580988e-001	 1.213993546925534e+000	 1.612500250195983e+000
1	 5.053616508301387e-001	 1.219438120886603e+000	 1.557487091916872e+000
1	 4.923892124200254e-001	 1.224733657405657e+000	 1.512068484570754e+000
1	 4.793895496231639e-001	 1.229880182662189e+000	 1.476004549923939e+000
1	 4.663651154684182e-001	 1.234877774747946e+000	 1.449020244840647e+000
1	 4.533183499193711e-001	 1.239726563054677e+000	 1.430806429133879e+000
1	 4.402516786041620e-001	 1.244426727625320e+000	 1.421020972241436e+000
1	 4.271675115750021e-001	 1.248978498470000e+000	 1.419289895749919e+000
1	 4.140682420983953e-001	 1.253382154848215e+000	 1.425208548767435e+000
1	 4.009562454770295e-001	 1.257638024518648e+000	 1.438342813133526e+000
1	 3.878338779042280e-001	 1.261746482958037e+000	 1.458230335451413e+000
1	 5.287741637167839e-001	 1.238516251189468e+000	 1.433348903866202e+000
1	 5.155699705852225e-001	 1.244070805699674e+000	 1.386177635545892e+000
1	 5.023354885492571e-001	 1.249473312207339e+000	 1.349025963563863e+000
1	 4.890732321932150e-001	 1.254723797420769e+000	 1.321633332435972e+000
1	 4.757857040971968e-001	 1.259822341009157e+000	 1.303701130955459e+000
1	 4.624753935121034e-001	 1.264769074977957e+000	 1.294893846703473e+000
1	 4.491447750638163e-001	 1.269564183006969e+000	 1.294840262754424e+000
1	 4.357963074876537e-001	 1.274207899752515e+000	 1.303134693352973e+000
1	 4.224324323941561e-001	 1.278700510115135e+000	 1.319338255312674e+000
1	 4.090555730671781e-001	 1.283042348474234e+000	 1.342980171875675e+000
1	 3.956681332952000e-001	 1.287233797891179e+000	 1.373559105765011e+000
1	 5.392439090544005e-001	 1.263038912541362e+000	 1.192363512537518e+000
1	 5.257782724767011e-001	 1.268703447408291e+000	 1.152103706008673e+000
1	 5.122817472733994e-001	 1.274212923717429e+000	 1.122249427768139e+000
1	 4.987568978176556e-001	 1.279567368705894e+000	 1.102524117479824e+000
1	 4.852062762407216e-001	 1.284766863620316e+000	 1.092610555058984e+000
1	 4.716324210807298e-001	 1.289811543079843e+000	 1.092152090253936e+000
1	 4.580378559612178e-001	 1.294701594401127e+000	 1.100753917518018e+000
1	 4.444250883005269e-001	 1.299437256886679e+000	 1.117984392728753e+000
1	 4.307966080531486e-001	 1.304018821078061e+000	 1.143376388285263e+000
1	 4.171548864840208e-001	 1.308446627975386e+000	 1.176428683098634e+000
1	 4.035023749766975e-001	 1.312721068224635e+000	 1.216607383986759e+000
1	 5.497136386883156e-001	 1.287561537111484e+000	 8.887020493869309e-001
1	 5.359865590565952e-001	 1.293336052170214e+000	 8.545228797664564e-001
1	 5.222279910789712e-001	 1.298952498120429e+000	 8.311133761524130e-001
1	 5.084405489173638e-001	 1.304410902728051e+000	 8.181853912433770e-001
1	 4.946268342541015e-001	 1.309711348817138e+000	 8.154077874583048e-001
1	 4.807894349144761e-001	 1.314853973620533e+000	 8.224077304291462e-001
1	 4.669309235196083e-001	 1.319838968091726e+000	 8.387720306137831e-001
1	 4.530538561707894e-001	 1.324666576179405e+000	 8.640485293951170e-001
1	 4.391607711663919e-001	 1.329337094066145e+000	 8.977475260040499e-001
1	 4.252541877523642e-001	 1.333850869372755e+000	 9.393432415875349e-001
1	 4.113366049072642e-001	 1.338208300329813e+000	 9.882753167354066e-001
1	 5.601833552358968e-001	 1.312084131030102e+000	 5.215855324623271e-001
1	 5.461948328769252e-001	 1.317968626143206e+000	 4.927483320196404e-001
1	 5.321742224524917e-001	 1.323692041600839e+000	 4.750391653266037e-001
1	 5.181241879132171e-001	 1.329254405697723e+000	 4.681624805161841e-001
1	 5.040473804924458e-001	 1.334655802835344e+000	 4.717776661002704e-001
1	 4.899464373025680e-001	 1.339896372860226e+000	 4.855003976092323e-001
1	 4.758239799622284e-001	 1.344976310362696e+000	 5.089040349256049e-001
1	 4.616826132556098e-001	 1.349895863937609e+000	 5.415210665141474e-001
1	 4.475249238249047e-001	 1.354655335408544e+000	 5.828445967200917e-001
1	 4.333534788970153e-001	 1.359255079016994e+000	 6.323298722884321e-001
1	 4.191708250454448e-001	 1.363695500578122e+000	 6.893958442491384e-001
1	 5.706530613145108e-001	 1.336606700427484e+000	 9.029224975182615e-002
1	 5.564030964897108e-001	 1.342601175485032e+000	 6.614374495862974e-002
1	 5.421204438804809e-001	 1.348431560343163e+000	 5.349071976542019e-002
1	 5.278078172260936e-001	 1.354097883825400e+000	 5.203418193099108e-002
1	 5.134679173108633e-001	 1.359600231910652e+000	 6.142826003940005e-002
1	 4.991034305342315e-001	 1.364938747059123e+000	 8.128159288842163e-002
1	 4.847170275123198e-001	 1.370113627497968e+000	 1.111587718996860e-001
1	 4.703113617121555e-001	 1.375125126468206e+000	 1.505818326144564e-001
1	 4.558890681197059e-001	 1.379973551434411e+000	 1.990317913073456e-001
1	 4.414527619427808e-001	 1.384659263258752e+000	 2.559502227278685e-001
1	 4.270050373497830e-001	 1.389182675340970e+000	 3.207408749729623e-001
1	 5.811227595415253e-001	 1.361129251433898e+000	-4.058473914001350e-001
1	 5.666113524469721e-001	 1.367233706353450e+000	-4.258812335001179e-001
1	 5.520666578494572e-001	 1.373171060531899e+000	-4.340292941870811e-001
1	 5.374914392768714e-001	 1.378941343321566e+000	-4.305902443710750e-001
1	 5.228884470644631e-001	 1.384544642278781e+000	-4.159112144838710e-001
1	 5.082604168986923e-001	 1.389981102477423e+000	-3.903863723981749e-001
1	 4.936100683931233e-001	 1.395250925781474e+000	-3.544554462376022e-001
1	 4.789401036975943e-001	 1.400354370078112e+000	-3.086021961242764e-001
1	 4.642532061418146e-001	 1.405291748472902e+000	-2.533528389471815e-001
1	 4.495520389144674e-001	 1.410063428448682e+000	-1.892744302578793e-001
1	 4.348392437788227e-001	 1.414669830989763e+000	-1.169732074092202e-001
1	 5.915924525343078e-001	 1.385651790179614e+000	-9.674554678870084e-001
1	 5.768196033007295e-001	 1.391866224906227e+000	-9.838750486971928e-001
1	 5.620128668459404e-001	 1.397910548351552e+000	-9.879828879929216e-001
1	 5.471750564864280e-001	 1.403784790396708e+000	-9.800737618040927e-001
1	 5.323089721083543e-001	 1.409489040175447e+000	-9.604922566536147e-001
1	 5.174173986851760e-001	 1.415023445375325e+000	-9.296313245262140e-001
1	 5.025031048278800e-001	 1.420388211497145e+000	-8.879307808698327e-001
1	 4.875688413690947e-001	 1.425583601074242e+000	-8.358757497655689e-001
1	 4.726173399822494e-001	 1.430609932853170e+000	-7.739950604383497e-001
1	 4.576513118368819e-001	 1.435467580937434e+000	-7.028595993077671e-001
1	 4.426734462911082e-001	 1.440156973895912e+000	-6.230806217879890e-001
1	 6.020621429102250e-001	 1.410174322794896e+000	-1.595110664037108e+000
1	 5.870278516030029e-001	 1.416498737301121e+000	-1.608347874648303e+000
1	 5.719590733564497e-001	 1.422650029986620e+000	-1.608799813744446e+000
1	 5.568586712756412e-001	 1.428628231261313e+000	-1.596753963998685e+000
1	 5.417294947976461e-001	 1.434433431836372e+000	-1.572548749321009e+000
1	 5.265743781829092e-001	 1.440065782013029e+000	-1.536572076323439e+000
1	 5.113961390398314e-001	 1.445525490928912e+000	-1.489259817184037e+000
1	 4.961975768838243e-001	 1.450812825763512e+000	-1.431094238109480e+000
1	 4.809814717320298e-001	 1.455928110904371e+000	-1.362602377635236e+000
1	 4.657505827348308e-001	 1.460871727075660e+000	-1.284354379030336e+000
1	 4.505076468451836e-001	 1.465644110430823e+000	-1.196961781085904e+000
1	 3.721653181596841e-001	 1.210771693807061e+000	 1.406752192702351e+000
1	 3.595653860970648e-001	 1.214573118999657e+000	 1.407225139496308e+000
1	 3.469599637677736e-001	 1.218233941437156e+000	 1.413735978925380e+000
1	 3.343512498799868e-001	 1.221754652219686e+000	 1.425473389162690e+000
1	 3.217414207892365e-001	 1.225135784980602e+000	 1.441613364943506e+000
1	 3.091326295656697e-001	 1.228377915011984e+000	 1.461320892723177e+000
1	 2.965270050962135e-001	 1.231481658369039e+000	 1.483751607791517e+000
1	 2.839266512220445e-001	 1.234447670954891e+000	 1.508053430509847e+000
1	 2.713336459116925e-001	 1.237276647587193e+000	 1.533368178959687e+000
1	 2.587500404700435e-001	 1.239969321048035e+000	 1.558833155422436e+000
1	 2.461778587834510e-001	 1.242526461118597e+000	 1.583582704237788e+000
1	 3.799996068452374e-001	 1.236259117053800e+000	 1.469646781550456e+000
1	 3.671344391456395e-001	 1.240140564378870e+000	 1.484007684878919e+000
1	 3.542636656061269e-001	 1.243878449182008e+000	 1.504541151538883e+000
1	 3.413895312189305e-001	 1.247473272901273e+000	 1.530332480609874e+000
1	 3.285142581531010e-001	 1.250925580403296e+000	 1.560453705010721e+000
1	 3.156400448021338e-001	 1.254235959090374e+000	 1.593965463586057e+000
1	 3.027690648672340e-001	 1.257405037986018e+000	 1.629918851606851e+000
1	 2.899034664766291e-001	 1.260433486800480e+000	 1.667357246550639e+000
1	 2.770453713412650e-001	 1.263322014977708e+000	 1.705318106166128e+000
1	 2.641968739471597e-001	 1.266071370725263e+000	 1.742834735975024e+000
1	 2.513600407846233e-001	 1.268682340028648e+000	 1.778938023510883e+000
1	 3.878338779042280e-001	 1.261746482958037e+000	 1.458230335451413e+000
1	 3.747034751643716e-001	 1.265707952235458e+000	 1.484833368656739e+000
1	 3.615673510116165e-001	 1.269522899230741e+000	 1.517773924406104e+000
1	 3.484277967221452e-001	 1.273191835719854e+000	 1.556046983191804e+000
1	 3.352870802784265e-001	 1.276715317802694e+000	 1.598633347833561e+000
1	 3.221474453972031e-001	 1.280093944991751e+000	 1.644501702122860e+000
1	 3.090111105938585e-001	 1.283328359278823e+000	 1.692610645081548e+000
1	 2.958802682835726e-001	 1.286419244181258e+000	 1.741910697399775e+000
1	 2.827570839196108e-001	 1.289367323769278e+000	 1.791346276773451e+000
1	 2.696436951690280e-001	 1.292173361675890e+000	 1.839857639023851e+000
1	 2.565422111259951e-001	 1.294838160090887e+000	 1.886382782045597e+000
1	 3.956681332952000e-001	 1.287233797891179e+000	 1.373559105765011e+000
1	 3.822724960455041e-001	 1.291275288960849e+000	 1.411052481312366e+000
1	 3.688710218101570e-001	 1.295167297994062e+000	 1.455073302600343e+000
1	 3.554660481492022e-001	 1.298910347104691e+000	 1.504538586890335e+000
1	 3.420598888584346e-001	 1.302505003625874e+000	 1.558349944810406e+000
1	 3.286548329777552e-001	 1.305951879180282e+000	 1.615395815660749e+000
1	 3.152531438366367e-001	 1.309251628727974e+000	 1.674553676252348e+000
1	 3.018570581371238e-001	 1.312404949593379e+000	 1.734692219544461e+000
1	 2.884687850747155e-001	 1.315412580472970e+000	 1.794673499513623e+000
1	 2.750905054974158e-001	 1.318275300425168e+000	 1.853355038863959e+000
1	 2.617243711031738e-001	 1.320993927844034e+000	 1.909591896367639e+000
1	 4.035023749766975e-001	 1.312721068224635e+000	 1.216607383986759e+000
1	 3.898415036812796e-001	 1.316842580946469e+000	 1.263910515504109e+000
1	 3.761746798276636e-001	 1.320811651882687e+000	 1.317951068725389e+000
1	 3.625042872596724e-001	 1.324628813485048e+000	 1.377579802652493e+000
1	 3.488326855863472e-001	 1.328294644319918e+000	 1.441630533703942e+000
1	 3.351622091706679e-001	 1.331809768120134e+000	 1.508922538222156e+000
1	 3.214951661561190e-001	 1.335174852813998e+000	 1.578262927130516e+000
1	 3.078338375315322e-001	 1.338390609533002e+000	 1.648448988704137e+000
1	 2.941804762345628e-001	 1.341457791599845e+000	 1.718270495600617e+000
1	 2.805373062940905e-001	 1.344377193498346e+000	 1.786511972482792e+000
1	 2.669065220117669e-001	 1.347149649826810e+000	 1.851954920760276e+000
1	 4.113366049072642e-001	 1.338208300329813e+000	 9.882753167354066e-001
1	 3.974104999639416e-001	 1.342409834583748e+000	 1.044558156019757e+000
1	 3.834783268900517e-001	 1.346455967307327e+000	 1.107803908461554e+000
1	 3.695425158131268e-001	 1.350347241290185e+000	 1.176808178937595e+000
1	 3.556054721553859e-001	 1.354084246331905e+000	 1.250347796466032e+000
1	 3.416695756028194e-001	 1.357667618275472e+000	 1.327183374859419e+000
1	 3.277371791128553e-001	 1.361098038017419e+000	 1.406061844821577e+000
1	 3.138106079610462e-001	 1.364376230496282e+000	 1.485718953150489e+000
1	 2.998921588271375e-001	 1.367502963660969e+000	 1.564881724902115e+000
1	 2.859840989208193e-001	 1.370479047420677e+000	 1.642270884569832e+000
1	 2.720886651473818e-001	 1.373305332577932e+000	 1.716603232537064e+000
1	 4.191708250454448e-001	 1.363695500578122e+000	 6.893958442491384e-001
1	 4.049794867857331e-001	 1.367977056264114e+000	 7.540601493055164e-001
1	 3.907819648232359e-001	 1.372100250678695e+000	 8.259241761688649e-001
1	 3.765807355691362e-001	 1.376065636949365e+000	 9.037389238060740e-001
1	 3.623782502587724e-001	 1.379873816108914e+000	 9.862344936649352e-001
1	 3.481769339010872e-001	 1.383525436110463e+000	 1.072122799792901e+000
1	 3.339791842673960e-001	 1.387021190818762e+000	 1.160100250350027e+000
1	 3.197873709199149e-001	 1.390361818979375e+000	 1.248850395877073e+000
1	 3.056038342804245e-001	 1.393548103167406e+000	 1.337046539883170e+000
1	 2.914308847393700e-001	 1.396580868717411e+000	 1.423354307522690e+000
1	 2.772708018056259e-001	 1.399460982636122e+000	 1.506434168347322e+000
1	 4.270050373497830e-001	 1.389182675340970e+000	 3.207408749729623e-001
1	 4.125484660388973e-001	 1.393544252378993e+000	 3.934031964846954e-001
1	 3.980855954531315e-001	 1.397744508407502e+000	 4.735094752286635e-001
1	 3.836189482872719e-001	 1.401784006891851e+000	 5.597761373515438e-001
1	 3.691510215897286e-001	 1.405663360098026e+000	 6.508963097223282e-001
1	 3.546842856923496e-001	 1.409383228089274e+000	 7.455426711810063e-001
1	 3.402211831802909e-001	 1.412944317698551e+000	 8.423702757732512e-001
1	 3.257641279023871e-001	 1.416347381478438e+000	 9.400193430300421e-001
1	 3.113155040224082e-001	 1.419593216630219e+000	 1.037118010561556e+000
1	 2.968776651115097e-001	 1.422682663913799e+000	 1.132285044448828e+000
1	 2.824529332821061e-001	 1.425616606540098e+000	 1.224132503142769e+000
1	 4.348392437788227e-001	 1.414669830989763e+000	-1.169732074092202e-001
1	 4.201174396156771e-001	 1.419111429319817e+000	-3.649700696410907e-002
1	 4.053892206056537e-001	 1.423388746904462e+000	 5.167120262148384e-002
1	 3.906571557271051e-001	 1.427502357546905e+000	 1.462228297579316e-001
1	 3.759237878414757e-001	 1.431452884746320e+000	 2.458233094096007e-001
1	 3.611916326034843e-001	 1.435241000676071e+000	 3.491150874606070e-001
1	 3.464631774120904e-001	 1.438867425137311e+000	 4.547205782816510e-001
1	 3.317408804027118e-001	 1.442332924489626e+000	 5.612450902558672e-001
1	 3.170271694810733e-001	 1.445638310560474e+000	 6.672797142340885e-001
1	 3.023244413990058e-001	 1.448784439535092e+000	 7.714041701162069e-001
1	 2.876350608724304e-001	 1.451772210828581e+000	 8.721896069819080e-001
1	 4.426734462911082e-001	 1.440156973895912e+000	-6.230806217879890e-001
1	 4.276864094083155e-001	 1.444678593478009e+000	-5.347894791408354e-001
1	 4.126928421067176e-001	 1.449032972580286e+000	-4.385578139261517e-001
1	 3.976953596482064e-001	 1.453220695343790e+000	-3.357101245592364e-001
1	 3.826965507072359e-001	 1.457242396500875e+000	-2.275998223332207e-001
1	 3.676989762613688e-001	 1.461098760335022e+000	-1.156061216518554e-001
1	 3.527051685233444e-001	 1.464790519615566e+000	-1.130955235359998e-003
1	 3.377176299151378e-001	 1.468318454509096e+000	 1.144040801540847e-001
1	 3.227388320844041e-001	 1.471683391469234e+000	 2.295607421390251e-001
1	 3.077712149636258e-001	 1.474886202106543e+000	 3.428871202078305e-001
1	 2.928171858722059e-001	 1.477927802040291e+000	 4.529205673872641e-001
1	 4.505076468451836e-001	 1.465644110430823e+000	-1.196961781085904e+000
1	 4.352553773090558e-001	 1.470245751245001e+000	-1.100682316252367e+000
1	 4.199964617822380e-001	 1.474677191845686e+000	-9.962164757527301e-001
1	 4.047335618101469e-001	 1.478939026711766e+000	-8.848959671998289e-001
1	 3.894693118802307e-001	 1.483031901808773e+000	-7.680846091310460e-001
1	 3.742063182928815e-001	 1.486956513530291e+000	-6.471751032764548e-001
1	 3.589471580746030e-001	 1.490713607613841e+000	-5.235858293788915e-001
1	 3.436943779339141e-001	 1.494303978033005e+000	-3.987576684180221e-001
1	 3.284504932603855e-001	 1.497728465867564e+000	-2.741508598673974e-001
1	 3.132179871671370e-001	 1.500987958153400e+000	-1.512418983807864e-001
1	 2.979993095770398e-001	 1.504083386713946e+000	-3.152047506184186e-002
1	 2.461778587834510e-001	 1.242526461118597e+000	 1.583582704237790e+000
1	 2.336209787353383e-001	 1.244948520494780e+000	 1.608647271826833e+000
1	 2.210794773494283e-001	 1.247236734201940e+000	 1.634976294028741e+000
1	 2.085552884195952e-001	 1.249391977736748e+000	 1.661578332143423e+000
1	 1.960503157475887e-001	 1.251415159572273e+000	 1.687473578707940e+000
1	 1.835664325704451e-001	 1.253307220138870e+000	 1.711695221877219e+000
1	 1.711054810238907e-001	 1.255069130798217e+000	 1.733290754488621e+000
1	 1.586692716415533e-001	 1.256701892811832e+000	 1.751323226826218e+000
1	 1.462595828897389e-001	 1.258206536305377e+000	 1.764872442258515e+000
1	 1.338781607374904e-001	 1.259584119230016e+000	 1.773036095081444e+000
1	 1.215267182615959e-001	 1.260835726322077e+000	 1.774930850048140e+000
1	 2.513600407846233e-001	 1.268682340028648e+000	 1.778938023510883e+000
1	 2.385388313687072e-001	 1.271155385113263e+000	 1.814778500673679e+000
1	 2.257333243445115e-001	 1.273491767002438e+000	 1.851419863235493e+000
1	 2.129454942133354e-001	 1.275692379622538e+000	 1.887755347768440e+000
1	 2.001772848530022e-001	 1.277758150570499e+000	 1.922691686804567e+000
1	 1.874306089332180e-001	 1.279690040073258e+000	 1.955150633947174e+000
1	 1.747073473676793e-001	 1.281489039940200e+000	 1.984070426338286e+000
1	 1.620093488027424e-001	 1.283156172509960e+000	 2.008407183399338e+000
1	 1.493384291424067e-001	 1.284692489592918e+000	 2.027136240943072e+000
1	 1.366963711093238e-001	 1.286099071410704e+000	 2.039253419928381e+000
1	 1.240849238414895e-001	 1.287377025533950e+000	 2.043776229302792e+000
1	 2.565422111259951e-001	 1.294838160090887e+000	 1.886382782045599e+000
1	 2.434566729370095e-001	 1.297362190769154e+000	 1.932211176407638e+000
1	 2.303871608685432e-001	 1.299746740731929e+000	 1.978538257732551e+000
1	 2.173356901292267e-001	 1.301992722335230e+000	 2.024150121021179e+000
1	 2.043042446728653e-001	 1.304101082299808e+000	 2.067847657306106e+000
1	 1.912947766017444e-001	 1.306072800649138e+000	 2.108448243000195e+000
1	 1.783092056074414e-001	 1.307908889640256e+000	 2.144787360034327e+000
1	 1.653494184489535e-001	 1.309610392688861e+000	 2.175720145574901e+000
1	 1.524172684678878e-001	 1.311178383290003e+000	 2.200122870311616e+000
1	 1.395145751404195e-001	 1.312613963935718e+000	 2.216894344499300e+000
1	 1.266431236656700e-001	 1.313918265030891e+000	 2.224957251128120e+000
1	 2.617243711031738e-001	 1.320993927844034e+000	 1.909591896367639e+000
1	 2.483745046697696e-001	 1.323568944013922e+000	 1.964825894174823e+000
1	 2.350409880850433e-001	 1.326001661953930e+000	 2.020396385562391e+000
1	 2.217258772648737e-001	 1.328293012449679e+000	 2.074990027274705e+000
1	 2.084311962389671e-001	 1.330443961345699e+000	 2.127309029266183e+000
1	 1.951589365421077e-001	 1.332455508461953e+000	 2.176073011811363e+000
1	 1.819110566436757e-001	 1.334328686503093e+000	 2.220020787570720e+000
1	 1.686894814152317e-001	 1.336064559961831e+000	 2.257912067248743e+000
1	 1.554961016359145e-001	 1.337664224017839e+000	 2.288529087698437e+000
1	 1.423327735353486e-001	 1.339128803433513e+000	 2.310678161537767e+000
1	 1.292013183737076e-001	 1.340459451447940e+000	 2.323191147552683e+000
1	 2.669065220117669e-001	 1.347149649826810e+000	 1.851954920760274e+000
1	 2.532923277965125e-001	 1.349775651399042e+000	 1.916201909306886e+000
1	 2.396948071575316e-001	 1.352256537231954e+000	 1.980743496523092e+000
1	 2.261160567178808e-001	 1.354593256540740e+000	 2.044174161644315e+000
1	 2.125581405830959e-001	 1.356786794293665e+000	 2.105104171469547e+000
1	 1.990230897203912e-001	 1.358838170107152e+000	 2.162161608772355e+000
1	 1.855129013768810e-001	 1.360748437133422e+000	 2.213994320543999e+000
1	 1.720295385366222e-001	 1.362518680942165e+000	 2.259271784523391e+000
1	 1.585749294162197e-001	 1.364150018397633e+000	 2.296686892701345e+000
1	 1.451509669986822e-001	 1.365643596532541e+000	 2.324957650719819e+000
1	 1.317595086051721e-001	 1.367000591420134e+000	 2.342828792309515e+000
1	 2.720886651473818e-001	 1.373305332577932e+000	 1.716603232537064e+000
1	 2.582101435467624e-001	 1.375982319475984e+000	 1.789645844043973e+000
1	 2.443486192495284e-001	 1.378511373129517e+000	 1.863043252312554e+000
1	 2.305062295858523e-001	 1.380893461183264e+000	 1.935304610974294e+000
1	 2.166850787370405e-001	 1.383129587729204e+000	 2.004954591291991e+000
1	 2.028872371026783e-001	 1.385220792180180e+000	 2.070535585427171e+000
1	 1.891147407075560e-001	 1.387168148135952e+000	 2.130609825101465e+000
1	 1.753695906481704e-001	 1.388972762243157e+000	 2.183761413897712e+000
1	 1.616537525785359e-001	 1.390635773050591e+000	 2.228598271696047e+000
1	 1.479691562349914e-001	 1.392158349861255e+000	 2.263753989988866e+000
1	 1.343176949996336e-001	 1.393541691582514e+000	 2.287889597061747e+000
1	 2.772708018056259e-001	 1.399460982636122e+000	 1.506434168347321e+000
1	 2.631279531500440e-001	 1.402188954796221e+000	 1.588217174651749e+000
1	 2.490024255245534e-001	 1.404766176210133e+000	 1.670500424152122e+000
1	 2.348963969663926e-001	 1.407193632952108e+000	 1.751714218509928e+000
1	 2.208120117325897e-001	 1.409472348237812e+000	 1.830303619955127e+000
1	 2.067513796550523e-001	 1.411603381276482e+000	 1.904730832977151e+000
1	 1.927165755361996e-001	 1.413587826115395e+000	 1.973477497639447e+000
1	 1.787096385849213e-001	 1.415426810478103e+000	 2.035046892522645e+000
1	 1.647325718925958e-001	 1.417121494597922e+000	 2.087966045574450e+000
1	 1.507873419488469e-001	 1.418673070048106e+000	 2.130787751406116e+000
1	 1.368758781966622e-001	 1.420082758570117e+000	 2.162092493837172e+000
1	 2.824529332821061e-001	 1.425616606540098e+000	 1.224132503142768e+000
1	 2.680457578358820e-001	 1.428395563911225e+000	 1.314750912479394e+000
1	 2.536562271461266e-001	 1.431020953037317e+000	 1.406084651077481e+000
1	 2.392865599571065e-001	 1.433493778422127e+000	 1.496491291759315e+000
1	 2.249389406015321e-001	 1.435815082404983e+000	 1.584341939616635e+000
1	 2.106155183435965e-001	 1.437985943991504e+000	 1.668023795708661e+000
1	 1.963184067633104e-001	 1.440007477676461e+000	 1.745942629254068e+000
1	 1.820496831819201e-001	 1.441880832260299e+000	 1.816525156062583e+000
1	 1.678113881281323e-001	 1.443607189660831e+000	 1.878221321235432e+000
1	 1.536055248448202e-001	 1.445187763721549e+000	 1.929506484445660e+000
1	 1.394340588358278e-001	 1.446623799017982e+000	 1.968883506385568e+000
1	 2.876350608724304e-001	 1.451772210828581e+000	 8.721896069819080e-001
1	 2.729635588338008e-001	 1.454602153372468e+000	 9.718778328931244e-001
1	 2.583100252777681e-001	 1.457275710174584e+000	 1.072551629642566e+000
1	 2.436767196555980e-001	 1.459793904168173e+000	 1.172501639105377e+000
1	 2.290658663756565e-001	 1.462157796816215e+000	 1.270030350642915e+000
1	 2.144796541343943e-001	 1.464368486920693e+000	 1.363454850400410e+000
1	 1.999202352893873e-001	 1.466427109423857e+000	 1.451109476597464e+000
1	 1.853897252742120e-001	 1.468334834203037e+000	 1.531348378267385e+000
1	 1.708902020548777e-001	 1.470092864860527e+000	 1.602547975204004e+000
1	 1.564237056274821e-001	 1.471702437510035e+000	 1.663109317168880e+000
1	 1.419922375567005e-001	 1.473164819561149e+000	 1.711460340705340e+000
1	 2.928171858722059e-001	 1.477927802040291e+000	 4.529205673872632e-001
1	 2.778813573733251e-001	 1.480808729731422e+000	 5.620425559024822e-001
1	 2.629638210829978e-001	 1.483530454185450e+000	 6.724620532820822e-001
1	 2.480668771594718e-001	 1.486094016765102e+000	 7.824082661364384e-001
1	 2.331927900867515e-001	 1.488500498057003e+000	 8.901201210023038e-001
1	 2.183437879935291e-001	 1.490751016659494e+000	 9.938492028442703e-001
1	 2.035220620149291e-001	 1.492846727962296e+000	 1.091862597656679e+000
1	 1.887297656968423e-001	 1.494788822919614e+000	 1.182445636309579e+000
1	 1.739690144425650e-001	 1.496578526818215e+000	 1.263904537097204e+000
1	 1.592418850014037e-001	 1.498217098042018e+000	 1.334568944760576e+000
1	 1.445504149988502e-001	 1.499705826834654e+000	 1.392794364063130e+000
1	 2.979993095770398e-001	 1.504083386713946e+000	-3.152047506183830e-002
1	 2.827991546839796e-001	 1.507015299539558e+000	 8.751974002526541e-002
1	 2.676176157253357e-001	 1.509785191633430e+000	 2.081985753012585e-001
1	 2.524570335663321e-001	 1.512394122787768e+000	 3.286890166117082e-001
1	 2.373197127666058e-001	 1.514843192712843e+000	 4.471712121460527e-001
1	 2.222079208870840e-001	 1.517133539803352e+000	 5.618356037578618e-001
1	 2.071238878404344e-001	 1.519266339896487e+000	 6.708859610864515e-001
1	 1.920698052848561e-001	 1.521242805023325e+000	 7.725423152849249e-001
1	 1.770478260609266e-001	 1.523064182155104e+000	 8.650437894911285e-001
1	 1.620600636711561e-001	 1.524731751945950e+000	 9.466513235029499e-001
1	 1.471085918018470e-001	 1.526246827473539e+000	 1.015650290444057e+000
1	 1.215267182615959e-001	 1.260835726322077e+000	 1.774930850048141e+000
1	 1.092050938783885e-001	 1.261962627821675e+000	 1.771573779114648e+000
1	 9.691681094146259e-002	 1.262965762463481e+000	 1.764044597183758e+000
1	 8.466350730218121e-002	 1.263846289909173e+000	 1.751588432253957e+000
1	 7.244678589573828e-002	 1.264605392478897e+000	 1.733477918935908e+000
1	 6.026821451849391e-002	 1.265244274109201e+000	 1.709013633839052e+000
1	 4.812932563820546e-002	 1.265764159316469e+000	 1.677524475899241e+000
1	 3.603161623652491e-002	 1.266166292166884e+000	 1.638367992672322e+000
1	 2.397654768310324e-002	 1.266451935253877e+000	 1.590930653699036e+000
1	 1.196554564061625e-002	 1.266622368684020e+000	 1.534628072122487e+000
1	 0.000000000000000e+000	 1.266678889072220e+000	 1.468905175808063e+000
1	 1.240849238414895e-001	 1.287377025533950e+000	 2.043776229302792e+000
1	 1.115039223538047e-001	 1.288527648942039e+000	 2.041882178697605e+000
1	 9.895696416848025e-002	 1.289551900130540e+000	 2.034838717065365e+000
1	 8.644572161462852e-002	 1.290450963172669e+000	 2.021839099023381e+000
1	 7.397183137018719e-002	 1.291226045277082e+000	 2.002108550724055e+000
1	 6.153689423456685e-002	 1.291878375723875e+000	 1.974904681659797e+000
1	 4.914247493488775e-002	 1.292409204806197e+000	 1.939517835156481e+000
1	 3.679010196516126e-002	 1.292819802778529e+000	 1.895271378825485e+000
1	 2.448126745774445e-002	 1.293111458812612e+000	 1.841521936328618e+000
1	 1.221742708636630e-002	 1.293285479961983e+000	 1.777659561889953e+000
1	 0.000000000000000e+000	 1.293343190136032e+000	 1.703107859061397e+000
1	 1.266431236656700e-001	 1.313918265030891e+000	 2.224957251128119e+000
1	 1.138027456571140e-001	 1.315092610294107e+000	 2.225699419717074e+000
1	 1.009971128054113e-001	 1.316137977981790e+000	 2.220609962766024e+000
1	 8.822793191734592e-002	 1.317055576578641e+000	 2.208810241294693e+000
1	 7.549687341352300e-002	 1.317846638181773e+000	 2.189457444750238e+000
1	 6.280557109632934e-002	 1.318512417414775e+000	 2.161745026324331e+000
1	 5.015562195217507e-002	 1.319054190347506e+000	 2.124903070181634e+000
1	 3.754858598736009e-002	 1.319473253422687e+000	 2.078198592047871e+000
1	 2.498598609687794e-002	 1.319770922390312e+000	 2.020935774698882e+000
1	 1.246930796544316e-002	 1.319948531250828e+000	 1.952456139977495e+000
1	 0.000000000000000e+000	 1.320007431208043e+000	 1.872138659046164e+000
1	 1.292013183737076e-001	 1.340459451447940e+000	 2.323191147552679e+000
1	 1.161015643630454e-001	 1.341657518518851e+000	 2.327702145320864e+000
1	 1.030372573623214e-001	 1.342724002663488e+000	 2.325942900019392e+000
1	 9.001013865592067e-002	 1.343660136777988e+000	 2.316944015700560e+000
1	 7.702191240704687e-002	 1.344467177847874e+000	 2.299775196393037e+000
1	 6.407424542099544e-002	 1.345146405840179e+000	 2.273545750532279e+000
1	 5.116876694340058e-002	 1.345699122601420e+000	 2.237405020013557e+000
1	 3.830706849278613e-002	 1.346126650762511e+000	 2.190542735428967e+000
1	 2.549070372671932e-002	 1.346430332651643e+000	 2.132189299154634e+000
1	 1.272118834083878e-002	 1.346611529216121e+000	 2.061615998052625e+000
1	 0.000000000000000e+000	 1.346671618954121e+000	 1.978135147641549e+000
1	 1.317595086051721e-001	 1.367000591420134e+000	 2.342828792309515e+000
1	 1.184003790463280e-001	 1.368222380257244e+000	 2.352203787252235e+000
1	 1.050773983492763e-001	 1.369309980821893e+000	 2.355066028730802e+000
1	 9.179234227594020e-002	 1.370264650421613e+000	 2.350337567493720e+000
1	 7.854694873205999e-002	 1.371087670930294e+000	 2.336982261396345e+000
1	 6.534291752577937e-002	 1.371780347658369e+000	 2.314006393169957e+000
1	 5.218191016189744e-002	 1.372344008228968e+000	 2.280459205023553e+000
1	 3.906554967110422e-002	 1.372780001461154e+000	 2.235433351690545e+000
1	 2.599542047348421e-002	 1.373089696261269e+000	 2.178065273653120e+000
1	 1.297306827554513e-002	 1.373274480523431e+000	 2.107535492388536e+000
1	 0.000000000000000e+000	 1.373335760040133e+000	 2.023068829586025e+000
1	 1.343176949996336e-001	 1.393541691582514e+000	 2.287889597061748e+000
1	 1.206991902816909e-001	 1.394787202150259e+000	 2.303189161989440e+000
1	 1.071175362763418e-001	 1.395895919103263e+000	 2.311885698197127e+000
1	 9.357454322299191e-002	 1.396869124160417e+000	 2.312775892569475e+000
1	 8.007198276986362e-002	 1.397708124083939e+000	 2.304700401141388e+000
1	 6.661158772789529e-002	 1.398414249527623e+000	 2.286544623159396e+000
1	 5.319505186099875e-002	 1.398988853891178e+000	 2.257239383695201e+000
1	 3.982402971197911e-002	 1.399433312181770e+000	 2.215761526414989e+000
1	 2.650013646338823e-002	 1.399749019883856e+000	 2.161134418243637e+000
1	 1.322494783255417e-002	 1.399937391838323e+000	 2.092428367796638e+000
1	 0.000000000000000e+000	 1.399999861131944e+000	 2.008760959569189e+000
1	 1.368758781966622e-001	 1.420082758570117e+000	 2.162092493837172e+000
1	 1.229979986438630e-001	 1.421351990838866e+000	 2.184345186750378e+000
1	 1.091576716535836e-001	 1.422481824153855e+000	 2.200016218560174e+000
1	 9.535674194266319e-002	 1.423473564645299e+000	 2.207761013843214e+000
1	 8.159701490175887e-002	 1.424328543963714e+000	 2.206280601169608e+000
1	 6.788025634455734e-002	 1.425048118106222e+000	 2.194322585232595e+000
1	 5.420819229403766e-002	 1.425633666249075e+000	 2.170682018771146e+000
1	 4.058250880507560e-002	 1.426086589587512e+000	 2.134202175818034e+000
1	 2.700485182264700e-002	 1.426408310184067e+000	 2.083775227966108e+000
1	 1.347682707485788e-002	 1.426600269826367e+000	 2.018342825496962e+000
1	 0.000000000000000e+000	 1.426663928895423e+000	 1.936896585355870e+000
1	 1.394340588358278e-001	 1.446623799017982e+000	 1.968883506385568e+000
1	 1.252968047075734e-001	 1.447916752964040e+000	 1.999088213753495e+000
1	 1.111978049910673e-001	 1.449067702619928e+000	 2.022806657075726e+000
1	 9.713893888054130e-002	 1.450077978527162e+000	 2.038537945392946e+000
1	 8.312204550904696e-002	 1.450948937224526e+000	 2.044827915956443e+000
1	 6.914892369297968e-002	 1.451681960052446e+000	 2.040270345111869e+000
1	 5.522133171434732e-002	 1.452278451963687e+000	 2.023508049746299e+000
1	 4.134098714005852e-002	 1.452739840341534e+000	 1.993233880701999e+000
1	 2.750956667747615e-002	 1.453067573826569e+000	 1.948191609746374e+000
1	 1.372870606544823e-002	 1.453263121153127e+000	 1.887176711864656e+000
1	 0.000000000000000e+000	 1.453327969996434e+000	 1.809037044802530e+000
1	 1.419922375567005e-001	 1.473164819561149e+000	 1.711460340705342e+000
1	 1.275956090475513e-001	 1.474481495166753e+000	 1.750588409281022e+000
1	 1.132379367988588e-001	 1.475653561147740e+000	 1.783364737349135e+000
1	 9.892113448221382e-002	 1.476682372456906e+000	 1.808117849532318e+000
1	 8.464707497302905e-002	 1.477569310521282e+000	 1.823223627634553e+000
1	 7.041759009037650e-002	 1.478315782024574e+000	 1.827106799953990e+000
1	 5.623447037526085e-002	 1.478923217696040e+000	 1.818242311465575e+000
1	 4.209946490659258e-002	 1.479393071106987e+000	 1.795156576094161e+000
1	 2.801428115409128e-002	 1.479726817476025e+000	 1.756428612508088e+000
1	 1.398058486731718e-002	 1.479925952484172e+000	 1.700691065071450e+000
1	 0.000000000000000e+000	 1.479991991100845e+000	 1.626631111780293e+000
1	 1.445504149988502e-001	 1.499705826834654e+000	 1.392794364063128e+000
1	 1.298944122385256e-001	 1.501046224087976e+000	 1.441791543692601e+000
1	 1.152780675870237e-001	 1.502239406383549e+000	 1.484578200479007e+000
1	 1.007033291932679e-001	 1.503286753085431e+000	 1.519298734608871e+000
1	 8.617210367500633e-002	 1.504189670508888e+000	 1.544145051466961e+000
1	 7.168625585396195e-002	 1.504949590680887e+000	 1.557358368111208e+000
1	 5.724760853011137e-002	 1.505567970107163e+000	 1.557230890471736e+000
1	 4.285794229434262e-002	 1.506046288547027e+000	 1.542107362251503e+000
1	 2.851899537870802e-002	 1.506386047797100e+000	 1.510386486751472e+000
1	 1.423246354345669e-002	 1.506588770485069e+000	 1.460522223077271e+000
1	 0.000000000000000e+000	 1.506655998874523e+000	 1.391024958403772e+000
1	 1.471085918018470e-001	 1.526246827473539e+000	 1.015650290444055e+000
1	 1.321932148552253e-001	 1.527610946368682e+000	 1.075438507593116e+000
1	 1.173181978656277e-001	 1.528825244973612e+000	 1.129133937108444e+000
1	 1.024855234592911e-001	 1.529891127063641e+000	 1.174683992932321e+000
1	 8.769713199628007e-002	 1.530810023842251e+000	 1.210083274566085e+000
1	 7.295492130095019e-002	 1.531583392679664e+000	 1.233375728566498e+000
1	 5.826074643223207e-002	 1.532212715858080e+000	 1.242656670172405e+000
1	 4.361641949297341e-002	 1.532699499324805e+000	 1.236074665744289e+000
1	 2.902370947754199e-002	 1.533045271454459e+000	 1.211833276978002e+000
1	 1.448434215685874e-002	 1.533251581821384e+000	 1.168192668121245e+000
1	 0.000000000000000e+000	 1.533319999983334e+000	 1.103471077675614e+000
1	 1.533319999983334e+000	 0.000000000000000e+000	 2.953811285790753e+001
1	 1.533251581821384e+000	 1.448434215685830e-002	 2.916958084978904e+001
1	 1.533045271454459e+000	 2.902370947754161e-002	 2.880516220271547e+001
1	 1.532699499324805e+000	 4.361641949297307e-002	 2.844381917760184e+001
1	 1.532212715858080e+000	 5.826074643223177e-002	 2.808447950606488e+001
1	 1.531583392679665e+000	 7.295492130094992e-002	 2.772603694076900e+001
1	 1.530810023842251e+000	 8.769713199627982e-002	 2.736735187411389e+001
1	 1.529891127063640e+000	 1.024855234592909e-001	 2.700725202644283e+001
1	 1.528825244973612e+000	 1.173181978656276e-001	 2.664453320484019e+001
1	 1.527610946368683e+000	 1.321932148552252e-001	 2.627796013347104e+001
1	 1.526246827473539e+000	 1.471085918018469e-001	 2.590626735629250e+001
1	 1.559987999982150e+000	 0.000000000000000e+000	 3.073832459521738e+001
1	 1.559918391869258e+000	 1.473625854557676e-002	 3.032333075213642e+001
1	 1.559708493285285e+000	 2.952849927044131e-002	 2.991349020196404e+001
1	 1.559356707374226e+000	 4.437501044347396e-002	 2.950765482702132e+001
1	 1.558861457611046e+000	 5.927403627859133e-002	 2.910464387886847e+001
1	 1.558221189039145e+000	 7.422377701450698e-002	 2.870324474547263e+001
1	 1.557434369519299e+000	 8.922238903169806e-002	 2.830221378968971e+001
1	 1.556499490988984e+000	 1.042679850074529e-001	 2.790027725992785e+001
1	 1.555415070730929e+000	 1.193586341098443e-001	 2.749613227373393e+001
1	 1.554179652649704e+000	 1.344923622314418e-001	 2.708844787491060e+001
1	 1.552791808555088e+000	 1.496671522635356e-001	 2.667586616463252e+001
1	 1.586655999981867e+000	 0.000000000000000e+000	 3.201223250428793e+001
1	 1.586585201918022e+000	 1.498817493449890e-002	 3.154944856345824e+001
1	 1.586371715116970e+000	 3.003328906368752e-002	 3.109275074592604e+001
1	 1.586013915424461e+000	 4.513360139441185e-002	 3.064088964220645e+001
1	 1.585510199364770e+000	 6.028732612543463e-002	 3.019258487642954e+001
1	 1.584858985399322e+000	 7.549263272855973e-002	 2.974652607158636e+001
1	 1.584058715196979e+000	 9.074764606759800e-002	 2.930137388891511e+001
1	 1.583107854914894e+000	 1.060504465560655e-001	 2.885576114201490e+001
1	 1.582004896488756e+000	 1.213990703544733e-001	 2.840829398613233e+001
1	 1.580748358931190e+000	 1.367915096080339e-001	 2.795755318291612e+001
1	 1.579336789637071e+000	 1.522257127255743e-001	 2.750209544078055e+001
1	 1.613323999982383e+000	 0.000000000000000e+000	 3.334979163404773e+001
1	 1.613252011967578e+000	 1.524009132357382e-002	 3.283833949043582e+001
1	 1.613034936949425e+000	 3.053807885719377e-002	 3.233377766722474e+001
1	 1.612671123475431e+000	 4.589219234567800e-002	 3.183476400379681e+001
1	 1.612158941119187e+000	 6.130061597264209e-002	 3.133992681380659e+001
1	 1.611496781760144e+000	 7.676148844298673e-002	 3.084786603045585e+001
1	 1.610683060875255e+000	 9.227290310386339e-002	 3.035715442859556e+001
1	 1.609716218841356e+000	 1.078329081050231e-001	 2.986633892399077e+001
1	 1.608594722247091e+000	 1.234395065994216e-001	 2.937394194992762e+001
1	 1.607317065213149e+000	 1.390906569849222e-001	 2.887846291117760e+001
1	 1.605881770719505e+000	 1.547842731878955e-001	 2.837837971516412e+001
1	 1.639991999983600e+000	 0.000000000000000e+000	 3.474161039944792e+001
1	 1.639918822017828e+000	 1.549200771275063e-002	 3.418103282560808e+001
1	 1.639698158782560e+000	 3.104286865087362e-002	 3.362800100469613e+001
1	 1.639328331527060e+000	 4.665078329716375e-002	 3.308108805504239e+001
1	 1.638807682874235e+000	 6.231390582009395e-002	 3.253883879595075e+001
1	 1.638134578121566e+000	 7.803034415766653e-002	 3.199977105560402e+001
1	 1.637307406554097e+000	 9.379816014037826e-002	 3.146237705834875e+001
1	 1.636324582768351e+000	 1.096153696542197e-001	 3.092512489147171e+001
1	 1.635184548005932e+000	 1.254799428445966e-001	 3.038646005141094e+001
1	 1.633885771495591e+000	 1.413898043620275e-001	 2.984480706916679e+001
1	 1.632426751802406e+000	 1.573428336504319e-001	 2.929857121449543e+001
1	 1.666659999985416e+000	 0.000000000000000e+000	 3.617889830936154e+001
1	 1.666585632068674e+000	 1.574392410197842e-002	 3.556913201780911e+001
1	 1.666361380616284e+000	 3.154765844464056e-002	 3.496739930431815e+001
1	 1.665985539579266e+000	 4.740937424876036e-002	 3.437219611833462e+001
1	 1.665456424629847e+000	 6.332719566767057e-002	 3.378199113216155e+001
1	 1.664772374483535e+000	 7.929919987247770e-002	 3.319522719470511e+001
1	 1.663931752233472e+000	 9.532341717702640e-002	 3.261032286702239e+001
1	 1.662932946695862e+000	 1.113978312035495e-001	 3.202567403958766e+001
1	 1.661774373765276e+000	 1.275203790899053e-001	 3.143965563101171e+001
1	 1.660454477778524e+000	 1.436889517392706e-001	 3.085062336776018e+001
1	 1.658971732885789e+000	 1.599013941131163e-001	 3.025691564422125e+001
1	 1.693327999987733e+000	 0.000000000000000e+000	 3.765341863384089e+001
1	 1.693252442120022e+000	 1.599584049120630e-002	 3.699476946061059e+001
1	 1.693024602450509e+000	 3.205244823840813e-002	 3.634445642737791e+001
1	 1.692642747631973e+000	 4.816796520035907e-002	 3.570090541906539e+001
1	 1.692105166385958e+000	 6.434048551525225e-002	 3.506251586908065e+001
1	 1.691410170846005e+000	 8.056805558729877e-002	 3.442766234268395e+001
1	 1.690556097913347e+000	 9.684867421369171e-002	 3.379469620445415e+001
1	 1.689541310623875e+000	 1.131802927529067e-001	 3.316194736960129e+001
1	 1.688364199525119e+000	 1.295608153352551e-001	 3.252772613868009e+001
1	 1.687023184061957e+000	 1.459880991165722e-001	 3.189032511505972e+001
1	 1.685516713969673e+000	 1.624599545758813e-001	 3.124802120429840e+001
1	 1.719995999990450e+000	 0.000000000000000e+000	 3.915744547465034e+001
1	 1.719919252171772e+000	 1.624775688038337e-002	 3.845056548670979e+001
1	 1.719687824285143e+000	 3.255723803208991e-002	 3.775212237669386e+001
1	 1.719299955685101e+000	 4.892655615185123e-002	 3.706047864932790e+001
1	 1.718753908142505e+000	 6.535377536271933e-002	 3.637397099522681e+001
1	 1.718047967208927e+000	 8.183691130200829e-002	 3.569091198819905e+001
1	 1.717180443593690e+000	 9.837393125025809e-002	 3.500959186882558e+001
1	 1.716149674552369e+000	 1.149627543021854e-001	 3.432828041391765e+001
1	 1.714954025285460e+000	 1.316012515805530e-001	 3.364522889125643e+001
1	 1.713591890345899e+000	 1.482872464938531e-001	 3.295867209880549e+001
1	 1.712061695054074e+000	 1.650185150386595e-001	 3.226683048737387e+001
1	 1.746663999993467e+000	 0.000000000000000e+000	 4.068372476847149e+001
1	 1.746586062223828e+000	 1.649967326945873e-002	 3.992959111875013e+001
1	 1.746351046120097e+000	 3.306202782559937e-002	 3.918377771145994e+001
1	 1.745957163738572e+000	 4.968514710312811e-002	 3.844458996107346e+001
1	 1.745402649899424e+000	 6.636706520995209e-002	 3.771030792467408e+001
1	 1.744685763572250e+000	 8.310576701648488e-002	 3.697918809801455e+001
1	 1.743804789274466e+000	 9.989918828660942e-002	 3.624946529990943e+001
1	 1.742758038481331e+000	 1.167452158512797e-001	 3.551935464444766e+001
1	 1.741543851046296e+000	 1.336416878257062e-001	 3.478705360030097e+001
1	 1.740160596630359e+000	 1.505863938710342e-001	 3.405074413618564e+001
1	 1.738606676139007e+000	 1.675770755013836e-001	 3.330859495131014e+001
1	 1.773331999996684e+000	 0.000000000000000e+000	 4.222543880879432e+001
1	 1.773252872276091e+000	 1.675158965838148e-002	 4.142533418114002e+001
1	 1.773014267955283e+000	 3.356681761885007e-002	 4.063320117294375e+001
1	 1.772614371792308e+000	 5.044373805408099e-002	 3.984729402771058e+001
1	 1.772051391656649e+000	 6.738035505683089e-002	 3.906584191468193e+001
1	 1.771323559935927e+000	 8.437462273060700e-002	 3.828705080893893e+001
1	 1.770429134955646e+000	 1.014244453226296e-001	 3.750910546178464e+001
1	 1.769366402410742e+000	 1.185276774000839e-001	 3.673017146079895e+001
1	 1.768133676807623e+000	 1.356821240706220e-001	 3.594839737874144e+001
1	 1.766729302915345e+000	 1.528855412480361e-001	 3.516191701025073e+001
1	 1.765151657224491e+000	 1.701356359639863e-001	 3.436885169505815e+001
1	 1.800000000000000e+000	 0.000000000000000e+000	 4.377617392157512e+001
1	 1.799919682328466e+000	 1.700350604710072e-002	 4.293166842430500e+001
1	 1.799677489790610e+000	 3.407160741175556e-002	 4.209454018804367e+001
1	 1.799271579846229e+000	 5.120232900460113e-002	 4.126299785592113e+001
1	 1.798700133414114e+000	 6.839364490323606e-002	 4.043522511300101e+001
1	 1.797961356299907e+000	 8.564347844425327e-002	 3.960938263616258e+001
1	 1.797053480637195e+000	 1.029497023582024e-001	 3.878361013609708e+001
1	 1.795974766340585e+000	 1.203101389484920e-001	 3.795602849074346e+001
1	 1.794723502569440e+000	 1.377225603152076e-001	 3.712474196926313e+001
1	 1.793298009200866e+000	 1.551846886247796e-001	 3.628784054542079e+001
1	 1.791696638310540e+000	 1.726941964264003e-001	 3.544340229900040e+001
1	 1.526246827473539e+000	 1.471085918018469e-001	 2.590626735629250e+001
1	 1.524731751945950e+000	 1.620600636711551e-001	 2.553560756984165e+001
1	 1.523064182155104e+000	 1.770478260609258e-001	 2.517212101968742e+001
1	 1.521242805023325e+000	 1.920698052848554e-001	 2.481466182318432e+001
1	 1.519266339896488e+000	 2.071238878404338e-001	 2.446207418688370e+001
1	 1.517133539803352e+000	 2.222079208870836e-001	 2.411319387951578e+001
1	 1.514843192712843e+000	 2.373197127666055e-001	 2.376684975460777e+001
1	 1.512394122787768e+000	 2.524570335663319e-001	 2.342186532124951e+001
1	 1.509785191633430e+000	 2.676176157253355e-001	 2.307706036135964e+001
1	 1.507015299539558e+000	 2.827991546839796e-001	 2.273125259164729e+001
1	 1.504083386713946e+000	 2.979993095770398e-001	 2.238325936830494e+001
1	 1.552791808555088e+000	 1.496671522635356e-001	 2.667586616463251e+001
1	 1.551250382341223e+000	 1.648786649929308e-001	 2.626486782818578e+001
1	 1.549553809634328e+000	 1.801270994193072e-001	 2.586193387116640e+001
1	 1.547700754519252e+000	 1.954103457901382e-001	 2.546586787136830e+001
1	 1.545689914068317e+000	 2.107262538441940e-001	 2.507546603243216e+001
1	 1.543520019622557e+000	 2.260726332979972e-001	 2.468951879723153e+001
1	 1.541189838070859e+000	 2.414472543753199e-001	 2.430681250990927e+001
1	 1.538698173125490e+000	 2.568478483801319e-001	 2.392613112476953e+001
1	 1.536043866592425e+000	 2.722721083133523e-001	 2.354625796006638e+001
1	 1.533225799634873e+000	 2.877176895336973e-001	 2.316597749456531e+001
1	 1.530242894028381e+000	 3.031822104628574e-001	 2.278407720458969e+001
1	 1.579336789637071e+000	 1.522257127255743e-001	 2.750209544078056e+001
1	 1.577769012736920e+000	 1.676972663150494e-001	 2.704870027766015e+001
1	 1.576043437113977e+000	 1.832063727780418e-001	 2.660416304501592e+001
1	 1.574158704015620e+000	 1.987508862957980e-001	 2.616724868589036e+001
1	 1.572113488240613e+000	 2.143286198483647e-001	 2.573671744251378e+001
1	 1.569906499442260e+000	 2.299373457093609e-001	 2.531132659389275e+001
1	 1.567536483429407e+000	 2.455747959845261e-001	 2.488983224043180e+001
1	 1.565002223463775e+000	 2.612386631944634e-001	 2.447099113350187e+001
1	 1.562302541552006e+000	 2.769266009019344e-001	 2.405356254770047e+001
1	 1.559436299730789e+000	 2.926362243840046e-001	 2.363631019337912e+001
1	 1.556402401343417e+000	 3.083651113492743e-001	 2.321800416684590e+001
1	 1.605881770719505e+000	 1.547842731878955e-001	 2.837837971516413e+001
1	 1.604287643133057e+000	 1.705158676374521e-001	 2.788075196061481e+001
1	 1.602533064594071e+000	 1.862856461370760e-001	 2.739267328010985e+001
1	 1.600616653512443e+000	 2.020914268017832e-001	 2.691288125483982e+001
1	 1.598537062413383e+000	 2.179309858528943e-001	 2.644011157334476e+001
1	 1.596292979262458e+000	 2.338020581211212e-001	 2.597309987764335e+001
1	 1.593883128788471e+000	 2.497023375941676e-001	 2.551058365416168e+001
1	 1.591306273802593e+000	 2.656294780092665e-001	 2.505130416709744e+001
1	 1.588561216512131e+000	 2.815810934910187e-001	 2.459400843168267e+001
1	 1.585646799827250e+000	 2.975547592348355e-001	 2.413745122463788e+001
1	 1.582561908658987e+000	 3.135480122362239e-001	 2.368039712894007e+001
1	 1.632426751802406e+000	 1.573428336504319e-001	 2.929857121449544e+001
1	 1.630806273529654e+000	 1.733344689600800e-001	 2.875508314257185e+001
1	 1.629022692074626e+000	 1.893649194963555e-001	 2.822172837859457e+001
1	 1.627074603009736e+000	 2.054319673080420e-001	 2.769722782399491e+001
1	 1.624960636586633e+000	 2.215333518577309e-001	 2.718030342878607e+001
1	 1.622679459083146e+000	 2.376667705332243e-001	 2.666968013107751e+001
1	 1.620229774148032e+000	 2.538298792041877e-001	 2.616408783855165e+001
1	 1.617610324141914e+000	 2.700202928244812e-001	 2.566226344927436e+001
1	 1.614819891472758e+000	 2.862355860805423e-001	 2.516295290903591e+001
1	 1.611857299924204e+000	 3.024732940861247e-001	 2.466491330224855e+001
1	 1.608721415975027e+000	 3.187309131236401e-001	 2.416691497325717e+001
1	 1.658971732885789e+000	 1.599013941131163e-001	 3.025691564422125e+001
1	 1.657324903926732e+000	 1.761530702828741e-001	 2.966613425258604e+001
1	 1.655512319555662e+000	 1.924441928558265e-001	 2.908595927910322e+001
1	 1.653532552507511e+000	 2.087725078145226e-001	 2.851510507454333e+001
1	 1.651384210760366e+000	 2.251357178628225e-001	 2.795229011092553e+001
1	 1.649065938904318e+000	 2.415314829456167e-001	 2.739623899973355e+001
1	 1.646576419508076e+000	 2.579574208145299e-001	 2.684568454866730e+001
1	 1.643914374481710e+000	 2.744111076400480e-001	 2.629936985404777e+001
1	 1.641078566433845e+000	 2.908900786704421e-001	 2.575605042582138e+001
1	 1.638067800021593e+000	 3.073918289378070e-001	 2.521449634193847e+001
1	 1.634880923291471e+000	 3.239138140114559e-001	 2.467349442871415e+001
1	 1.685516713969673e+000	 1.624599545758813e-001	 3.124802120429839e+001
1	 1.683843534324310e+000	 1.789716716057755e-001	 3.060869594751785e+001
1	 1.682001947037197e+000	 1.955234662154352e-001	 2.998033514683433e+001
1	 1.679990502005782e+000	 2.121130483211732e-001	 2.936165621329895e+001
1	 1.677807784934589e+000	 2.287380838681174e-001	 2.875138388177771e+001
1	 1.675452418725970e+000	 2.453961953582447e-001	 2.814825229362975e+001
1	 1.672923064868585e+000	 2.620849624251380e-001	 2.755100711391509e+001
1	 1.670218424821950e+000	 2.788019224559066e-001	 2.695840768000917e+001
1	 1.667337241395349e+000	 2.955445712606549e-001	 2.636922917833275e+001
1	 1.664278300119365e+000	 3.123103637898164e-001	 2.578226484573638e+001
1	 1.661040430608252e+000	 3.290967148996046e-001	 2.519632819191724e+001
1	 1.712061695054074e+000	 1.650185150386595e-001	 3.226683048737387e+001
1	 1.710362164722407e+000	 1.817902729287253e-001	 3.157788196117025e+001
1	 1.708491574519249e+000	 1.986027395751275e-001	 3.090013715306645e+001
1	 1.706448451504562e+000	 2.154535888279422e-001	 3.023232565931325e+001
1	 1.704231359109308e+000	 2.323404498735636e-001	 2.957318773100344e+001
1	 1.701838898548099e+000	 2.492609077710547e-001	 2.892147640738846e+001
1	 1.699269710229543e+000	 2.662125040359552e-001	 2.827595967915046e+001
1	 1.696522475162607e+000	 2.831927372719977e-001	 2.763542267827925e+001
1	 1.693595916357230e+000	 3.001990638511180e-001	 2.699866989103730e+001
1	 1.690488800217466e+000	 3.172288986420876e-001	 2.636452739033319e+001
1	 1.687199937925307e+000	 3.342796157880201e-001	 2.573184508366675e+001
1	 1.738606676139007e+000	 1.675770755013836e-001	 3.330859495131013e+001
1	 1.736880795121043e+000	 1.846088742516645e-001	 3.256910444065615e+001
1	 1.734981202001836e+000	 2.016820129348496e-001	 3.184093465667282e+001
1	 1.732906401003865e+000	 2.187941293347777e-001	 3.112283604938992e+001
1	 1.730654933284528e+000	 2.359428158791092e-001	 3.041357318181613e+001
1	 1.728225378370697e+000	 2.531256201839929e-001	 2.971192690046037e+001
1	 1.725616355590934e+000	 2.703400456469254e-001	 2.901669653067754e+001
1	 1.722826525503649e+000	 2.875835520882610e-001	 2.832670209327083e+001
1	 1.719854591319443e+000	 3.048535564417679e-001	 2.764078653862236e+001
1	 1.716699300315840e+000	 3.221474334945552e-001	 2.695781799446785e+001
1	 1.713359445242568e+000	 3.394625166766351e-001	 2.627669202328052e+001
1	 1.765151657224491e+000	 1.701356359639863e-001	 3.436885169505815e+001
1	 1.763399425520238e+000	 1.874274755745343e-001	 3.357805150816877e+001
1	 1.761470829484977e+000	 2.047612862945476e-001	 3.279856353478157e+001
1	 1.759364350503703e+000	 2.221346698416280e-001	 3.202916731839529e+001
1	 1.757078507460254e+000	 2.395451818847026e-001	 3.126866009946426e+001
1	 1.754611858193761e+000	 2.569903325970060e-001	 3.051585901005811e+001
1	 1.751963000952741e+000	 2.744675872579917e-001	 2.976960328766658e+001
1	 1.749130575845050e+000	 2.919743669046371e-001	 2.902875650437673e+001
1	 1.746113266281949e+000	 3.095080490325419e-001	 2.829220880749458e+001
1	 1.742909800414433e+000	 3.270659683471535e-001	 2.755887916753698e+001
1	 1.739518952559971e+000	 3.446454175653835e-001	 2.682771762937668e+001
1	 1.791696638310540e+000	 1.726941964264003e-001	 3.544340229900040e+001
1	 1.789918055920011e+000	 1.902460768972756e-001	 3.460066681736107e+001
1	 1.787960456968690e+000	 2.078405596541674e-001	 3.376910643969570e+001
1	 1.785822300004091e+000	 2.254752103484413e-001	 3.294753763918938e+001
1	 1.783502081636491e+000	 2.431475478902917e-001	 3.213479829460518e+001
1	 1.780998338017288e+000	 2.608550450100401e-001	 3.132974989635996e+001
1	 1.778309646314947e+000	 2.785951288690978e-001	 3.053127976552916e+001
1	 1.775434626186778e+000	 2.963651817210659e-001	 2.973830328181060e+001
1	 1.772371941244702e+000	 3.141625416233767e-001	 2.894976611633491e+001
1	 1.769120300513189e+000	 3.319845031998169e-001	 2.816464646506995e+001
1	 1.765678459877450e+000	 3.498283184541984e-001	 2.738195727843729e+001
1	 1.504083386713946e+000	 2.979993095770398e-001	 2.238325936830494e+001
1	 1.500987958153400e+000	 3.132179871671365e-001	 2.203832947404332e+001
1	 1.497728465867564e+000	 3.284504932603852e-001	 2.170191049620961e+001
1	 1.494303978033006e+000	 3.436943779339138e-001	 2.137297182497647e+001
1	 1.490713607613841e+000	 3.589471580746028e-001	 2.105049808985371e+001
1	 1.486956513530291e+000	 3.742063182928813e-001	 2.073349099134162e+001
1	 1.483031901808773e+000	 3.894693118802305e-001	 2.042097114030039e+001
1	 1.478939026711766e+000	 4.047335618101468e-001	 2.011197990155607e+001
1	 1.474677191845686e+000	 4.199964617822380e-001	 1.980558123816077e+001
1	 1.470245751245001e+000	 4.352553773090561e-001	 1.950086355262961e+001
1	 1.465644110430824e+000	 4.505076468451836e-001	 1.919694152138939e+001
1	 1.530242894028381e+000	 3.031822104628574e-001	 2.278407720458969e+001
1	 1.527093628768171e+000	 3.186655762418404e-001	 2.240601734107771e+001
1	 1.523777446333049e+000	 3.341630110338180e-001	 2.203747138533323e+001
1	 1.520293398692991e+000	 3.496720223060635e-001	 2.167738964024948e+001
1	 1.516640583384481e+000	 3.651900837583482e-001	 2.132473997207110e+001
1	 1.512818144699393e+000	 3.807146362526288e-001	 2.097850972201284e+001
1	 1.508825274855079e+000	 3.962430887872052e-001	 2.063770762295708e+001
1	 1.504661215143897e+000	 4.117728195150921e-001	 2.030136571752177e+001
1	 1.500325257060339e+000	 4.273011768062747e-001	 1.996854127368863e+001
1	 1.495816743404018e+000	 4.428254803534436e-001	 1.963831869408730e+001
1	 1.491135069356658e+000	 4.583430223207198e-001	 1.930981141494570e+001
1	 1.556402401343417e+000	 3.083651113492743e-001	 2.321800416684590e+001
1	 1.553199299383525e+000	 3.241131653171373e-001	 2.280429996948435e+001
1	 1.549826426799085e+000	 3.398755288078222e-001	 2.240107959507380e+001
1	 1.546282819353483e+000	 3.556496666787523e-001	 2.200728410304780e+001
1	 1.542567559155575e+000	 3.714330094425919e-001	 2.162187470009896e+001
1	 1.538679775868886e+000	 3.872229542128295e-001	 2.124383472092575e+001
1	 1.534618647901714e+000	 4.030168656945872e-001	 2.087217161074286e+001
1	 1.530383403576289e+000	 4.188120772204010e-001	 2.050591890562459e+001
1	 1.525973322275190e+000	 4.346058918306376e-001	 2.014413820664915e+001
1	 1.521387735563173e+000	 4.503955833981298e-001	 1.978592114372258e+001
1	 1.516626028282579e+000	 4.661783977965402e-001	 1.943039132487828e+001
1	 1.582561908658987e+000	 3.135480122362239e-001	 2.368039712894007e+001
1	 1.579304969999389e+000	 3.295607543929612e-001	 2.322868713871372e+001
1	 1.575875407265591e+000	 3.455880465823347e-001	 2.278840091613806e+001
1	 1.572272240014395e+000	 3.616273110519196e-001	 2.235847966845922e+001
1	 1.568494534927030e+000	 3.776759351272775e-001	 2.193788758761566e+001
1	 1.564541407038679e+000	 3.937312721734312e-001	 2.152561388959629e+001
1	 1.560412020948581e+000	 4.097906426023273e-001	 2.112067485158486e+001
1	 1.556105592008849e+000	 4.258513349260273e-001	 2.072211584274136e+001
1	 1.551621387490147e+000	 4.419106068552816e-001	 2.032901334437420e+001
1	 1.546958727722380e+000	 4.579656864430685e-001	 1.994047695517331e+001
1	 1.542116987208505e+000	 4.740137732725954e-001	 1.955565137709614e+001
1	 1.608721415975027e+000	 3.187309131236401e-001	 2.416691497325717e+001
1	 1.605410640615688e+000	 3.350083434692463e-001	 2.367498069110953e+001
1	 1.601924387732485e+000	 3.513005643572913e-001	 2.319538305449488e+001
1	 1.598261660675640e+000	 3.676049554255054e-001	 2.272707238663244e+001
1	 1.594421510698755e+000	 3.839188608123486e-001	 2.226902508043839e+001
1	 1.590403038208677e+000	 4.002395901343810e-001	 2.182024568627975e+001
1	 1.586205393995587e+000	 4.165644195103767e-001	 2.137976899288724e+001
1	 1.581827780441484e+000	 4.328905926319245e-001	 2.094666209706401e+001
1	 1.577269452705120e+000	 4.492153218801611e-001	 2.052002645773781e+001
1	 1.572529719881547e+000	 4.655357894882131e-001	 2.009899992982436e+001
1	 1.567607946134350e+000	 4.818491487488354e-001	 1.968275877330249e+001
1	 1.634880923291471e+000	 3.239138140114559e-001	 2.467349442871416e+001
1	 1.631516311232345e+000	 3.404559325459265e-001	 2.413925116561543e+001
1	 1.627973368199684e+000	 3.570130821326286e-001	 2.361823307693642e+001
1	 1.624251081337129e+000	 3.735825997994487e-001	 2.310940817399860e+001
1	 1.620348486470660e+000	 3.901617864977486e-001	 2.261177386482380e+001
1	 1.616264669378785e+000	 4.067479080956264e-001	 2.212435908034918e+001
1	 1.611998767042638e+000	 4.233381964186860e-001	 2.164622638853651e+001
1	 1.607549968874100e+000	 4.399298503380457e-001	 2.117647409180437e+001
1	 1.602917517920015e+000	 4.565200369052304e-001	 2.071423830312907e+001
1	 1.598100712040590e+000	 4.731058925335175e-001	 2.025869499609071e+001
1	 1.593098905060033e+000	 4.896845242252110e-001	 1.980906202408005e+001
1	 1.661040430608252e+000	 3.290967148996046e-001	 2.519632819191723e+001
1	 1.657621981849286e+000	 3.459035216229360e-001	 2.461781663943761e+001
1	 1.654022348667108e+000	 3.627255999082828e-001	 2.405339698788022e+001
1	 1.650240501998774e+000	 3.795602441736898e-001	 2.350206313771495e+001
1	 1.646275462242652e+000	 3.964047121834209e-001	 2.296284194989240e+001
1	 1.642126300548911e+000	 4.132562260571145e-001	 2.243479540084870e+001
1	 1.637792140089639e+000	 4.301119733272061e-001	 2.191702271951485e+001
1	 1.633272157306603e+000	 4.469691080443442e-001	 2.140866250155414e+001
1	 1.628565583134742e+000	 4.638247519304444e-001	 2.090889479598010e+001
1	 1.623671704199418e+000	 4.806759955789353e-001	 2.041694315924509e+001
1	 1.618589863985467e+000	 4.975198997016721e-001	 1.993207667184252e+001
1	 1.687199937925307e+000	 3.342796157880201e-001	 2.573184508366675e+001
1	 1.683727652466438e+000	 3.513511107002089e-001	 2.510722353802784e+001
1	 1.680071329134671e+000	 3.684381176841903e-001	 2.449754120610336e+001
1	 1.676229922660488e+000	 3.855378885481678e-001	 2.390182573048874e+001
1	 1.672202438014639e+000	 4.026476378693090e-001	 2.331914150991957e+001
1	 1.667987931718962e+000	 4.197645440187933e-001	 2.274859187364232e+001
1	 1.663585513136496e+000	 4.368857502358879e-001	 2.218932123128474e+001
1	 1.658994345738899e+000	 4.540083657507737e-001	 2.164051719325057e+001
1	 1.654213648349210e+000	 4.711294669557574e-001	 2.110141265660055e+001
1	 1.649242696357945e+000	 4.882460986244201e-001	 2.057128785133489e+001
1	 1.644080822910571e+000	 5.053552751781694e-001	 2.004947234195333e+001
1	 1.713359445242568e+000	 3.394625166766351e-001	 2.627669202328053e+001
1	 1.709833323083724e+000	 3.567986997776795e-001	 2.560422920302139e+001
1	 1.706120309602293e+000	 3.741506354602879e-001	 2.494753573835160e+001
1	 1.702219343322185e+000	 3.915155329228229e-001	 2.430568054015777e+001
1	 1.698129413786532e+000	 4.088905635553565e-001	 2.367777329840611e+001
1	 1.693849562888844e+000	 4.262728619806099e-001	 2.306296666668732e+001
1	 1.689378886183114e+000	 4.436595271446824e-001	 2.246045841515221e+001
1	 1.684716534170896e+000	 4.610476234572878e-001	 2.186949354666661e+001
1	 1.679861713563326e+000	 4.784341819811238e-001	 2.128936637096595e+001
1	 1.674813688516081e+000	 4.958162016699259e-001	 2.071942253155323e+001
1	 1.669571781835260e+000	 5.131906506546526e-001	 2.015906098006234e+001
1	 1.739518952559971e+000	 3.446454175653835e-001	 2.682771762937667e+001
1	 1.735938993701071e+000	 3.622462888552817e-001	 2.610578603307223e+001
1	 1.732169290069892e+000	 3.798631532365111e-001	 2.540043887119646e+001
1	 1.728208763983774e+000	 3.974931772975942e-001	 2.471079354193965e+001
1	 1.724056389558236e+000	 4.151334892415067e-001	 2.403601246846931e+001
1	 1.719711194058461e+000	 4.327811799425113e-001	 2.337530528467534e+001
1	 1.715172259229400e+000	 4.504333040535404e-001	 2.272793098160215e+001
1	 1.710438722602501e+000	 4.680868811638396e-001	 2.209320000920526e+001
1	 1.705509778777000e+000	 4.857388970064985e-001	 2.147047632803524e+001
1	 1.700384680673739e+000	 5.033863047154058e-001	 2.085917940542979e+001
1	 1.695062740759449e+000	 5.210260261310729e-001	 2.025878615078944e+001
1	 1.765678459877450e+000	 3.498283184541984e-001	 2.738195727843729e+001
1	 1.762044664318403e+000	 3.676938779329496e-001	 2.660902703446229e+001
1	 1.758218270537386e+000	 3.855756710127969e-001	 2.585348322368366e+001
1	 1.754198184645169e+000	 4.034708216724217e-001	 2.511449866165757e+001
1	 1.749983365329664e+000	 4.213764149277032e-001	 2.439129565370704e+001
1	 1.745572825227723e+000	 4.392894979044454e-001	 2.368314817309880e+001
1	 1.740965632275259e+000	 4.572070809624127e-001	 2.298938399161781e+001
1	 1.736160911033618e+000	 4.751261388703826e-001	 2.230938675698972e+001
1	 1.731157843990141e+000	 4.930436120318358e-001	 2.164259801158226e+001
1	 1.725955672830830e+000	 5.109564077608136e-001	 2.098851914681053e+001
1	 1.720553699683057e+000	 5.288614016073797e-001	 2.034671328768378e+001
1	 1.465644110430824e+000	 4.505076468451836e-001	 1.919694152138939e+001
1	 1.460871727075660e+000	 4.657505827348306e-001	 1.889630315728295e+001
1	 1.455928110904371e+000	 4.809814717320294e-001	 1.860156588911139e+001
1	 1.450812825763512e+000	 4.961975768838239e-001	 1.831208304838783e+001
1	 1.445525490928912e+000	 5.113961390398314e-001	 1.802724069992733e+001
1	 1.440065782013028e+000	 5.265743781829090e-001	 1.774645897717774e+001
1	 1.434433431836372e+000	 5.417294947976460e-001	 1.746919337717824e+001
1	 1.428628231261313e+000	 5.568586712756412e-001	 1.719493601168578e+001
1	 1.422650029986620e+000	 5.719590733564496e-001	 1.692321681104369e+001
1	 1.416498737301121e+000	 5.870278516030030e-001	 1.665360467741230e+001
1	 1.410174322794896e+000	 6.020621429102251e-001	 1.638570858403743e+001
1	 1.491135069356658e+000	 4.583430223207198e-001	 1.930981141494570e+001
1	 1.486279683158419e+000	 4.738510683077295e-001	 1.898549579050652e+001
1	 1.481250086007147e+000	 4.893468578788445e-001	 1.866796024412859e+001
1	 1.476045834163695e+000	 5.048276064791277e-001	 1.835653266905516e+001
1	 1.470666540282229e+000	 5.202905069701496e-001	 1.805057333659739e+001
1	 1.465111874333371e+000	 5.357327309837993e-001	 1.774947626206640e+001
1	 1.459381564490777e+000	 5.511514303145783e-001	 1.745267053105070e+001
1	 1.453475397979445e+000	 5.665437383493176e-001	 1.715962158252857e+001
1	 1.447393221884075e+000	 5.819067715331876e-001	 1.686983244533570e+001
1	 1.441134943915833e+000	 5.972376308707769e-001	 1.658284492455220e+001
1	 1.434700533135920e+000	 6.125334034609496e-001	 1.629824073442632e+001
1	 1.516626028282579e+000	 4.661783977965402e-001	 1.943039132487828e+001
1	 1.511687639241224e+000	 4.819515538809138e-001	 1.907996875137449e+001
1	 1.506572061109939e+000	 4.977122440259599e-001	 1.873717150243807e+001
1	 1.501278842563869e+000	 5.134576360747548e-001	 1.840131895173641e+001
1	 1.495807589635517e+000	 5.291848749008191e-001	 1.807176293831379e+001
1	 1.490157966653669e+000	 5.448910837850699e-001	 1.774788914315916e+001
1	 1.484329697145122e+000	 5.605733658319159e-001	 1.742911842572844e+001
1	 1.478322564697502e+000	 5.762288054234170e-001	 1.711490811687814e+001
1	 1.472136413781435e+000	 5.918544697103532e-001	 1.680475326469940e+001
1	 1.465771150530428e+000	 6.074474101389680e-001	 1.649818782978505e+001
1	 1.459226743476797e+000	 6.230046640120600e-001	 1.619478582651805e+001
1	 1.542116987208505e+000	 4.740137732725954e-001	 1.955565137709614e+001
1	 1.537095595323997e+000	 4.900520394543282e-001	 1.917686127734629e+001
1	 1.531894036212673e+000	 5.060776301733110e-001	 1.880651861692281e+001
1	 1.526511850963968e+000	 5.220876656706313e-001	 1.844395044101480e+001
1	 1.520948638988720e+000	 5.380792428317555e-001	 1.808851677482377e+001
1	 1.515204058973874e+000	 5.540494365866256e-001	 1.773961199130063e+001
1	 1.509277829799371e+000	 5.699953013495548e-001	 1.739666613736472e+001
1	 1.503169731415457e+000	 5.859138724978269e-001	 1.705914621504788e+001
1	 1.496879605678688e+000	 6.018021678878300e-001	 1.672655741404255e+001
1	 1.490407357144906e+000	 6.176571894074571e-001	 1.639844429218062e+001
1	 1.483752953817541e+000	 6.334759245634387e-001	 1.607439190042778e+001
1	 1.567607946134350e+000	 4.818491487488354e-001	 1.968275877330249e+001
1	 1.562503551406660e+000	 4.981525250279170e-001	 1.927349868194668e+001
1	 1.557216011315279e+000	 5.144430163208341e-001	 1.887349492708147e+001
1	 1.551744859363929e+000	 5.307176952666832e-001	 1.848209773624484e+001
1	 1.546089688341782e+000	 5.469736107628744e-001	 1.809869124472254e+001
1	 1.540250151293942e+000	 5.632077893883719e-001	 1.772269483545391e+001
1	 1.534225962453487e+000	 5.794172368673899e-001	 1.735356443489164e+001
1	 1.528016898133288e+000	 5.955989395724355e-001	 1.699079376126334e+001
1	 1.521622797575824e+000	 6.117498660655004e-001	 1.663391552172439e+001
1	 1.515043563759269e+000	 6.278669686761254e-001	 1.628250255494699e+001
1	 1.508279164158169e+000	 6.439471851149696e-001	 1.593616891575432e+001
1	 1.593098905060033e+000	 4.896845242252110e-001	 1.980906202408005e+001
1	 1.587911507489136e+000	 5.062530106016240e-001	 1.936737746787686e+001
1	 1.582537986417684e+000	 5.228084024684645e-001	 1.893575420734607e+001
1	 1.576977867763687e+000	 5.393477248628364e-001	 1.851358052647085e+001
1	 1.571230737694648e+000	 5.558679786940914e-001	 1.810027994450138e+001
1	 1.565296243613825e+000	 5.723661421902139e-001	 1.769531250946512e+001
1	 1.559174095107435e+000	 5.888391723853176e-001	 1.729817604407240e+001
1	 1.552864064850969e+000	 6.052840066471303e-001	 1.690840734048648e+001
1	 1.546365989472827e+000	 6.216975642432470e-001	 1.652558330048039e+001
1	 1.539679770373518e+000	 6.380767479448531e-001	 1.614932201756569e+001
1	 1.532805374498695e+000	 6.544184456665353e-001	 1.577928379775469e+001
1	 1.618589863985467e+000	 4.975198997016721e-001	 1.993207667184252e+001
1	 1.613319463571345e+000	 5.143534961753935e-001	 1.945615184683544e+001
1	 1.607859961519817e+000	 5.311737886161386e-001	 1.899109803373871e+001
1	 1.602210876163178e+000	 5.479777544590173e-001	 1.853635585045750e+001
1	 1.596371787047260e+000	 5.647623466253222e-001	 1.809140286498964e+001
1	 1.590342335933477e+000	 5.815244949920566e-001	 1.765575482438532e+001
1	 1.584122227761179e+000	 5.982611079032337e-001	 1.722896683153449e+001
1	 1.577711231568476e+000	 6.149690737218002e-001	 1.681063446629124e+001
1	 1.571109181369688e+000	 6.316452624209527e-001	 1.640039484750928e+001
1	 1.564315976987654e+000	 6.482865272135218e-001	 1.599792763263846e+001
1	 1.557331584839137e+000	 6.648897062180198e-001	 1.560295595162117e+001
1	 1.644080822910571e+000	 5.053552751781694e-001	 2.004947234195333e+001
1	 1.638727419653209e+000	 5.224539817491696e-001	 1.953762151337510e+001
1	 1.633181936621605e+000	 5.395391747637920e-001	 1.903746432578457e+001
1	 1.627443884562336e+000	 5.566077840551514e-001	 1.854850744886767e+001
1	 1.621512836399563e+000	 5.736567145564817e-001	 1.807029659283165e+001
1	 1.615388428252849e+000	 5.906828477938050e-001	 1.760241765504258e+001
1	 1.609070360414681e+000	 6.076830434210332e-001	 1.714449780893570e+001
1	 1.602558398285783e+000	 6.246541407963321e-001	 1.669620653176534e+001
1	 1.595852373266394e+000	 6.415929605985002e-001	 1.625725656784062e+001
1	 1.588952183601679e+000	 6.584963064820119e-001	 1.582740482398438e+001
1	 1.581857795179509e+000	 6.753609667693055e-001	 1.540645319405712e+001
1	 1.669571781835260e+000	 5.131906506546526e-001	 2.015906098006234e+001
1	 1.664135375734650e+000	 5.305544673228968e-001	 1.960972053876922e+001
1	 1.658503911722976e+000	 5.479045609113603e-001	 1.907291693807484e+001
1	 1.652676892961098e+000	 5.652378136511652e-001	 1.854823609186357e+001
1	 1.646653885751501e+000	 5.825510824874858e-001	 1.803530540958423e+001
1	 1.640434520571898e+000	 5.998412005953646e-001	 1.753379484315354e+001
1	 1.634018493067906e+000	 6.171049789386122e-001	 1.704341786961079e+001
1	 1.627405565002866e+000	 6.343392078706148e-001	 1.656393240616442e+001
1	 1.620595565162932e+000	 6.515406587757721e-001	 1.609514165436888e+001
1	 1.613588390215593e+000	 6.687060857502041e-001	 1.563689487027899e+001
1	 1.606384005519828e+000	 6.858322273202755e-001	 1.518908805755177e+001
1	 1.695062740759449e+000	 5.210260261310729e-001	 2.025878615078944e+001
1	 1.689543331815590e+000	 5.386549528965190e-001	 1.967050726698615e+001
1	 1.683825886823860e+000	 5.562699470587798e-001	 1.909563619098406e+001
1	 1.677909901359400e+000	 5.738678432469844e-001	 1.853385077944975e+001
1	 1.671794935103018e+000	 5.914454504182503e-001	 1.798487319394408e+001
1	 1.665480612890576e+000	 6.089995533966403e-001	 1.744847083101823e+001
1	 1.658966625720819e+000	 6.265269144558662e-001	 1.692445718059133e+001
1	 1.652252731719700e+000	 6.440242749445355e-001	 1.641269260934078e+001
1	 1.645338757059289e+000	 6.614883569526510e-001	 1.591308506595499e+001
1	 1.638224596829399e+000	 6.789158650179792e-001	 1.542559070522835e+001
1	 1.630910215860108e+000	 6.963034878708131e-001	 1.495021442812098e+001
1	 1.720553699683057e+000	 5.288614016073797e-001	 2.034671328768378e+001
1	 1.714951287895949e+000	 5.467554384699807e-001	 1.971815510884425e+001
1	 1.709147861924183e+000	 5.646353332059860e-001	 1.910391024314396e+001
1	 1.703142909757176e+000	 5.824978728425351e-001	 1.850376072404708e+001
1	 1.696935984454056e+000	 6.003398183486901e-001	 1.791753604381302e+001
1	 1.690526705208834e+000	 6.181579061975373e-001	 1.734511395003023e+001
1	 1.683914758373382e+000	 6.359488499726911e-001	 1.678642116203110e+001
1	 1.677099898436262e+000	 6.537093420179825e-001	 1.624143400402668e+001
1	 1.670081948955454e+000	 6.714360551290196e-001	 1.571017895194109e+001
1	 1.662860803443095e+000	 6.891256442852184e-001	 1.519273309107961e+001
1	 1.655436426200365e+000	 7.067747484208015e-001	 1.468922448193050e+001
1	 1.410174322794896e+000	 6.020621429102251e-001	 1.638570858403743e+001
1	 1.403677804762223e+000	 6.170568256895567e-001	 1.611926330102602e+001
1	 1.397008340587419e+000	 6.320112737763580e-001	 1.585399583704058e+001
1	 1.390166085595247e+000	 6.469225945203410e-001	 1.558968269165674e+001
1	 1.383151257758930e+000	 6.617878879772692e-001	 1.532613851795042e+001
1	 1.375964138175143e+000	 6.766042485600980e-001	 1.506321664603983e+001
1	 1.368605071488112e+000	 6.913687667140009e-001	 1.480080954051573e+001
1	 1.361074466261638e+000	 7.060785306134998e-001	 1.453884918981510e+001
1	 1.353372795297909e+000	 7.207306278798588e-001	 1.427730742573383e+001
1	 1.345500595902037e+000	 7.353221473168309e-001	 1.401619617142457e+001
1	 1.337458470091355e+000	 7.498501806627992e-001	 1.375556761638145e+001
1	 1.434700533135920e+000	 6.125334034609496e-001	 1.629824073442632e+001
1	 1.428091025549134e+000	 6.277888786388085e-001	 1.601562010959942e+001
1	 1.421305563884740e+000	 6.430034193492565e-001	 1.573458879914041e+001
1	 1.414344306168952e+000	 6.581740826320960e-001	 1.545492294666701e+001
1	 1.407207474166046e+000	 6.732979181063208e-001	 1.517643645290933e+001
1	 1.399895353861612e+000	 6.883719696499762e-001	 1.489898147368436e+001
1	 1.392408295894034e+000	 7.033932771043161e-001	 1.462244885173745e+001
1	 1.384746715932977e+000	 7.183588780004510e-001	 1.434676848056354e+001
1	 1.376911095003750e+000	 7.332658093066117e-001	 1.407190959846455e+001
1	 1.368901979756440e+000	 7.481111091940828e-001	 1.379788101124827e+001
1	 1.360719982678854e+000	 7.628918188198210e-001	 1.352473124213417e+001
1	 1.459226743476797e+000	 6.230046640120600e-001	 1.619478582651806e+001
1	 1.452504246335858e+000	 6.385209315883907e-001	 1.589401983801058e+001
1	 1.445602787181828e+000	 6.539955649224103e-001	 1.559537019463470e+001
1	 1.438522526742372e+000	 6.694255707440152e-001	 1.529861679017247e+001
1	 1.431263690572821e+000	 6.848079482354360e-001	 1.500357685560744e+001
1	 1.423826569547684e+000	 7.001396907398114e-001	 1.471010542653015e+001
1	 1.416211520299499e+000	 7.154177874944817e-001	 1.441809574435005e+001
1	 1.408418965603801e+000	 7.306392253871504e-001	 1.412747958949397e+001
1	 1.400449394709020e+000	 7.458009907330198e-001	 1.383822754491528e+001
1	 1.392303363610223e+000	 7.609000710709126e-001	 1.355034918839007e+001
1	 1.383981495265687e+000	 7.759334569763623e-001	 1.326389321223578e+001
1	 1.483752953817541e+000	 6.334759245634387e-001	 1.607439190042778e+001
1	 1.476917467122426e+000	 6.492529845381935e-001	 1.575374897108570e+001
1	 1.469900010478730e+000	 6.649877104957207e-001	 1.543586375513690e+001
1	 1.462700747315571e+000	 6.806770588560148e-001	 1.512052393574673e+001
1	 1.455319906979337e+000	 6.963179783645462e-001	 1.480755408906563e+001
1	 1.447757785233454e+000	 7.119074118295532e-001	 1.449681611612214e+001
1	 1.440014744704620e+000	 7.274422978844638e-001	 1.418820960842471e+001
1	 1.432091215274238e+000	 7.429195727735805e-001	 1.388167214552766e+001
1	 1.423987694413863e+000	 7.583361721590805e-001	 1.357717952296343e+001
1	 1.415704747463540e+000	 7.736890329473285e-001	 1.327474590909549e+001
1	 1.407243007852022e+000	 7.889750951324395e-001	 1.297442392960863e+001
1	 1.508279164158169e+000	 6.439471851149696e-001	 1.593616891575432e+001
1	 1.501330687908871e+000	 6.599850374881072e-001	 1.559414040368422e+001
1	 1.494197233775495e+000	 6.759798560690888e-001	 1.525562419076147e+001
1	 1.486878967888614e+000	 6.919285469680094e-001	 1.492041972620198e+001
1	 1.479376123385674e+000	 7.078280084935837e-001	 1.458836288295320e+001
1	 1.471689000919019e+000	 7.236751329191495e-001	 1.425932634918572e+001
1	 1.463817969109509e+000	 7.394668082742286e-001	 1.393321995335975e+001
1	 1.455763464944417e+000	 7.551999201597244e-001	 1.360999092120710e+001
1	 1.447525994118420e+000	 7.708713535847911e-001	 1.328962406311576e+001
1	 1.439106131316547e+000	 7.864779948233396e-001	 1.297214189056037e+001
1	 1.430504520438026e+000	 8.020167332880692e-001	 1.265760466038358e+001
1	 1.532805374498695e+000	 6.544184456665353e-001	 1.577928379775469e+001
1	 1.525743908695221e+000	 6.707170904380221e-001	 1.541456972769646e+001
1	 1.518494457072168e+000	 6.869720016424158e-001	 1.505423471171079e+001
1	 1.511057188461564e+000	 7.031800350799156e-001	 1.469809388318310e+001
1	 1.503432339791911e+000	 7.193380386224789e-001	 1.434599830425530e+001
1	 1.495620216604477e+000	 7.354428540085495e-001	 1.399783531207695e+001
1	 1.487621193514280e+000	 7.514913186637426e-001	 1.365352879846451e+001
1	 1.479435714614465e+000	 7.674802675455639e-001	 1.331303942140079e+001
1	 1.471064293822835e+000	 7.834065350101487e-001	 1.297636474695702e+001
1	 1.462507515169399e+000	 7.992669566989543e-001	 1.264353932037733e+001
1	 1.453766033023863e+000	 8.150583714432671e-001	 1.231463466522905e+001
1	 1.557331584839137e+000	 6.648897062180198e-001	 1.560295595162117e+001
1	 1.550157129481510e+000	 6.814491433878281e-001	 1.521445186989462e+001
1	 1.542791680368797e+000	 6.979641472156026e-001	 1.483130478405513e+001
1	 1.535235409034484e+000	 7.144315231916467e-001	 1.445334937491689e+001
1	 1.527488556198130e+000	 7.308480687511643e-001	 1.408045573071198e+001
1	 1.519551432289924e+000	 7.472105750977021e-001	 1.371252964331053e+001
1	 1.511424417919046e+000	 7.635158290529713e-001	 1.334951283764913e+001
1	 1.503107964284511e+000	 7.797606149310815e-001	 1.299138313290000e+001
1	 1.494602593527250e+000	 7.959417164351503e-001	 1.263815453406727e+001
1	 1.485908899022251e+000	 8.120559185741814e-001	 1.228987725285489e+001
1	 1.477027545609700e+000	 8.281000095980498e-001	 1.194663765681762e+001
1	 1.581857795179509e+000	 6.753609667693055e-001	 1.540645319405712e+001
1	 1.574570350267767e+000	 6.921811963374154e-001	 1.499323804255812e+001
1	 1.567088903665430e+000	 7.089562927885510e-001	 1.458646809428828e+001
1	 1.559413629607439e+000	 7.256830113031196e-001	 1.418600138929214e+001
1	 1.551544772604411e+000	 7.423580988795706e-001	 1.379173082672831e+001
1	 1.543482647975457e+000	 7.589782961865557e-001	 1.340358440631244e+001
1	 1.535227642323919e+000	 7.755403394418811e-001	 1.302152540273733e+001
1	 1.526780213954683e+000	 7.920409623162606e-001	 1.264555247171148e+001
1	 1.518140893231805e+000	 8.084768978597926e-001	 1.227569968641438e+001
1	 1.509310282875257e+000	 8.248448804490293e-001	 1.191203650332727e+001
1	 1.500289058195704e+000	 8.411416477524337e-001	 1.155466765656702e+001
1	 1.606384005519828e+000	 6.858322273202755e-001	 1.518908805755177e+001
1	 1.598983571054024e+000	 7.029132492866742e-001	 1.475041297344558e+001
1	 1.591386126962114e+000	 7.199484383611616e-001	 1.431938070034577e+001
1	 1.583591850180492e+000	 7.369344994142485e-001	 1.389587640101385e+001
1	 1.575600989010834e+000	 7.538681290076297e-001	 1.347981952149116e+001
1	 1.567413863661173e+000	 7.707460172750592e-001	 1.307116397306075e+001
1	 1.559030866729011e+000	 7.875648498304384e-001	 1.266989824692451e+001
1	 1.550452463625109e+000	 8.043213097010835e-001	 1.227604546035532e+001
1	 1.541679192936645e+000	 8.210120792840735e-001	 1.188966333324169e+001
1	 1.532711666728574e+000	 8.376338423235071e-001	 1.151084409410732e+001
1	 1.523550570782039e+000	 8.541832859064347e-001	 1.113971431485765e+001
1	 1.630910215860108e+000	 6.963034878708131e-001	 1.495021442812098e+001
1	 1.623396791840312e+000	 7.136453022354945e-001	 1.448549238570671e+001
1	 1.615683350258895e+000	 7.309405839333362e-001	 1.402971934945690e+001
1	 1.607770070753706e+000	 7.481859875249499e-001	 1.358281132292798e+001
1	 1.599657205417479e+000	 7.653781591352729e-001	 1.314471798906063e+001
1	 1.591345079347169e+000	 7.825137383631615e-001	 1.271542282799550e+001
1	 1.582834091134438e+000	 7.995893602186089e-001	 1.229494316731408e+001
1	 1.574124713295916e+000	 8.166016570855325e-001	 1.188333016358976e+001
1	 1.565217492641910e+000	 8.335472607079892e-001	 1.148066871429524e+001
1	 1.556113050582355e+000	 8.504228041976233e-001	 1.108707729928046e+001
1	 1.546812083368873e+000	 8.672249240600691e-001	 1.070270775120646e+001
1	 1.655436426200365e+000	 7.067747484208015e-001	 1.468922448193050e+001
1	 1.647810012626662e+000	 7.243773551837666e-001	 1.419802070181314e+001
1	 1.639980573555821e+000	 7.419327295049750e-001	 1.371717994552844e+001
1	 1.631948291327146e+000	 7.594374756351381e-001	 1.324665273278806e+001
1	 1.623713421824428e+000	 7.768881892624318e-001	 1.278642263023111e+001
1	 1.615276295033541e+000	 7.942814594508108e-001	 1.233650630046645e+001
1	 1.606637315540310e+000	 8.116138706063588e-001	 1.189695348322134e+001
1	 1.597796962967233e+000	 8.288820044695900e-001	 1.146784690761645e+001
1	 1.588755792347744e+000	 8.460824421315374e-001	 1.104930213474976e+001
1	 1.579514434436757e+000	 8.632117660713863e-001	 1.064146732994340e+001
1	 1.570073595956371e+000	 8.802665622133531e-001	 1.024452296418153e+001
1	 1.337458470091355e+000	 7.498501806627992e-001	 1.375556761638145e+001
1	 1.329245840436585e+000	 7.643139888338925e-001	 1.349360418370413e+001
1	 1.320864633725284e+000	 7.787084898909863e-001	 1.322880244629860e+001
1	 1.312315648248289e+000	 7.930307945938002e-001	 1.296163437700603e+001
1	 1.303599747304523e+000	 8.072780238044294e-001	 1.269261882206047e+001
1	 1.294717859120681e+000	 8.214473102909055e-001	 1.242232090837092e+001
1	 1.285670976711511e+000	 8.355358005343190e-001	 1.215135135878638e+001
1	 1.276460157680332e+000	 8.495406565372456e-001	 1.188036571578255e+001
1	 1.267086523959526e+000	 8.634590576311911e-001	 1.161006347424938e+001
1	 1.257551261490825e+000	 8.772882022807448e-001	 1.134118712429881e+001
1	 1.247855619845356e+000	 8.910253098821287e-001	 1.107452110525448e+001
1	 1.360719982678854e+000	 7.628918188198210e-001	 1.352473124213417e+001
1	 1.352364516298867e+000	 7.776071862455712e-001	 1.325070141830922e+001
1	 1.343837540915351e+000	 7.922520411454743e-001	 1.297432561817553e+001
1	 1.335139868703277e+000	 8.068234440286459e-001	 1.269603359391218e+001
1	 1.326272377976344e+000	 8.213184656822810e-001	 1.241630095122910e+001
1	 1.317236013105266e+000	 8.357341890065820e-001	 1.213564858877284e+001
1	 1.308031784375627e+000	 8.500677108533137e-001	 1.185464204721979e+001
1	 1.298660767784929e+000	 8.643161438656802e-001	 1.157389076845563e+001
1	 1.289124104778561e+000	 8.784766183172061e-001	 1.129404726547650e+001
1	 1.279423001924546e+000	 8.925462839472680e-001	 1.101580620388340e+001
1	 1.269558730526953e+000	 9.065223117909244e-001	 1.073990339607879e+001
1	 1.383981495265687e+000	 7.759334569763623e-001	 1.326389321223579e+001
1	 1.375483192160448e+000	 7.909003836567355e-001	 1.297715520919973e+001
1	 1.366810448104690e+000	 8.057955923994365e-001	 1.268869628253626e+001
1	 1.357964089157520e+000	 8.206160934629744e-001	 1.239889787840431e+001
1	 1.348945008647412e+000	 8.353589075596423e-001	 1.210818602689374e+001
1	 1.339754167089103e+000	 8.500210677218105e-001	 1.181703082602635e+001
1	 1.330392592039014e+000	 8.645996211719168e-001	 1.152594583769541e+001
1	 1.320861377888824e+000	 8.790916311937895e-001	 1.123548739588060e+001
1	 1.311161685596942e+000	 8.934941790029700e-001	 1.094625382770444e+001
1	 1.301294742357672e+000	 9.078043656136202e-001	 1.065888458812864e+001
1	 1.291261841208033e+000	 9.220193136996339e-001	 1.037405930931902e+001
1	 1.407243007852022e+000	 7.889750951324395e-001	 1.297442392960862e+001
1	 1.398601868021504e+000	 8.041935810674046e-001	 1.267455690256635e+001
1	 1.389783355293484e+000	 8.193391436528903e-001	 1.237372021585388e+001
1	 1.380788309611204e+000	 8.344087428967988e-001	 1.207224132183985e+001
1	 1.371617639317917e+000	 8.493993494365163e-001	 1.177049074361622e+001
1	 1.362272321072382e+000	 8.643079464365843e-001	 1.146888161570896e+001
1	 1.352753399701856e+000	 8.791315314901060e-001	 1.116786913951443e+001
1	 1.343061987992202e+000	 8.938671185215372e-001	 1.086794995371294e+001
1	 1.333199266414842e+000	 9.085117396884315e-001	 1.056966142013440e+001
1	 1.323166482790366e+000	 9.230624472797352e-001	 1.027358082577347e+001
1	 1.312964951888743e+000	 9.375163156081745e-001	 9.980324501877453e+000
1	 1.430504520438026e+000	 8.020167332880692e-001	 1.265760466038358e+001
1	 1.421720543882209e+000	 8.174867784775972e-001	 1.234439433672630e+001
1	 1.412756262481913e+000	 8.328826949058532e-001	 1.203108573927798e+001
1	 1.403612530064516e+000	 8.482013923301295e-001	 1.171794701057400e+001
1	 1.394290269988049e+000	 8.634397913129076e-001	 1.140528761278919e+001
1	 1.384790475055293e+000	 8.785948251508936e-001	 1.109345793693898e+001
1	 1.375114207364341e+000	 8.936634418078612e-001	 1.078284883011856e+001
1	 1.365262598095244e+000	 9.086426058488870e-001	 1.047389104092517e+001
1	 1.355236847232436e+000	 9.235293003735394e-001	 1.016705458342245e+001
1	 1.345038223222794e+000	 9.383205289455455e-001	 9.862848020219872e+000
1	 1.334668062569236e+000	 9.530133175164640e-001	 9.561817665457664e+000
1	 1.453766033023863e+000	 8.150583714432671e-001	 1.231463466522905e+001
1	 1.444839219742738e+000	 8.307799758873322e-001	 1.198806012320073e+001
1	 1.435729169670161e+000	 8.464262461583426e-001	 1.166237311556821e+001
1	 1.426436750517643e+000	 8.619940417629793e-001	 1.133777750692602e+001
1	 1.416962900657996e+000	 8.774802331888183e-001	 1.101451649791262e+001
1	 1.407308629038024e+000	 8.928817038647321e-001	 1.069287231437027e+001
1	 1.397475015026658e+000	 9.081953521251606e-001	 1.037316581837112e+001
1	 1.387463208198132e+000	 9.234180931758035e-001	 1.005575604112650e+001
1	 1.377274428049897e+000	 9.385468610582414e-001	 9.741039637999755e+000
1	 1.366909963655117e+000	 9.535786106109834e-001	 9.429450266047066e+000
1	 1.356371173249662e+000	 9.685103194244188e-001	 9.121457884717232e+000
1	 1.477027545609700e+000	 8.281000095980498e-001	 1.194663765681763e+001
1	 1.467957895603269e+000	 8.440731732966297e-001	 1.160685914528651e+001
1	 1.458702076858409e+000	 8.599697974103759e-001	 1.126906305808137e+001
1	 1.449260970970774e+000	 8.757866911953607e-001	 1.093338433976535e+001
1	 1.439635531327948e+000	 8.915206750642531e-001	 1.059999505986494e+001
1	 1.429826783020764e+000	 9.071685825780912e-001	 1.026910419316421e+001
1	 1.419835822688992e+000	 9.227272624419833e-001	 9.940957326200065e+000
1	 1.409663818301048e+000	 9.381935805022503e-001	 9.615836289826454e+000
1	 1.399312008867401e+000	 9.535644217424862e-001	 9.294058717906793e+000
1	 1.388781704087501e+000	 9.688366922759818e-001	 8.975977532386652e+000
1	 1.378074283930169e+000	 9.840073213319565e-001	 8.661980355193157e+000
1	 1.500289058195704e+000	 8.411416477524337e-001	 1.155466765656703e+001
1	 1.491076571463974e+000	 8.573663707055079e-001	 1.120201535905009e+001
1	 1.481674984046840e+000	 8.735133486619710e-001	 1.085254444818357e+001
1	 1.472085191424092e+000	 8.895793406272853e-001	 1.050631661220641e+001
1	 1.462308161998096e+000	 9.055611169392152e-001	 1.016342823047028e+001
1	 1.452344937003705e+000	 9.214554612909638e-001	 9.824010255769174e+000
1	 1.442196630351531e+000	 9.372591727583075e-001	 9.488228027702871e+000
1	 1.431864428404175e+000	 9.529690678281921e-001	 9.156281016772777e+000
1	 1.421349589685121e+000	 9.685819824262228e-001	 8.828402499086302e+000
1	 1.410653444520109e+000	 9.840947739404726e-001	 8.504859161725484e+000
1	 1.399777394610910e+000	 9.995043232389941e-001	 8.185950639018078e+000
1	 1.523550570782039e+000	 8.541832859064347e-001	 1.113971431485765e+001
1	 1.514195247325030e+000	 8.706595681139867e-001	 1.077467797129742e+001
1	 1.504647891235637e+000	 8.870568999131453e-001	 1.041412134568726e+001
1	 1.494909411877786e+000	 9.033719900587658e-001	 1.005802882077148e+001
1	 1.484980792668627e+000	 9.196015588137074e-001	 9.706416818213254e+000
1	 1.474863090987035e+000	 9.357423400033413e-001	 9.359333793602863e+000
1	 1.464557438014463e+000	 9.517910830741133e-001	 9.016860167822806e+000
1	 1.454065038507695e+000	 9.677445551535925e-001	 8.679108194278415e+000
1	 1.443387170503232e+000	 9.835995431093989e-001	 8.346221761665682e+000
1	 1.432525184953105e+000	 9.993528556043894e-001	 8.018376132113092e+000
1	 1.421480505292035e+000	 1.015001325145448e+000	 7.695777614702044e+000
1	 1.546812083368873e+000	 8.672249240600691e-001	 1.070270775120646e+001
1	 1.537313923186611e+000	 8.839527655220844e-001	 1.032592706010460e+001
1	 1.527620798424980e+000	 9.006004511639166e-001	 9.955019366735717e+000
1	 1.517733632332045e+000	 9.171646394898142e-001	 9.589887969029695e+000
1	 1.507653423339732e+000	 9.336420006877338e-001	 9.230465337459007e+000
1	 1.497381244970945e+000	 9.500292187152165e-001	 8.876713233126537e+000
1	 1.486918245677973e+000	 9.663229933893789e-001	 8.528622768015710e+000
1	 1.476265648611788e+000	 9.825200424784152e-001	 8.186214406702209e+000
1	 1.465424751321909e+000	 9.986171037919636e-001	 7.849537908973097e+000
1	 1.454396925386652e+000	 1.014610937267664e+000	 7.518672212948580e+000
1	 1.443183615973692e+000	 1.030498327051237e+000	 7.193725258453691e+000
1	 1.570073595956371e+000	 8.802665622133531e-001	 1.024452296418153e+001
1	 1.560432599048893e+000	 8.972459629298201e-001	 9.856778695721205e+000
1	 1.550593705615053e+000	 9.141440024143018e-001	 9.476391494736003e+000
1	 1.540557852787053e+000	 9.309572889204422e-001	 9.103180048880654e+000
1	 1.530326054011600e+000	 9.476824425612982e-001	 8.736989141707662e+000
1	 1.519899398955622e+000	 9.643160974265813e-001	 8.377689904007902e+000
1	 1.509279053342250e+000	 9.808549037040832e-001	 8.025180013594248e+000
1	 1.498466258716638e+000	 9.972955298026253e-001	 7.679383842598806e+000
1	 1.487462332141325e+000	 1.013634664473865e+000	 7.340252551483080e+000
1	 1.476268665820915e+000	 1.029869018930230e+000	 7.007764129092282e+000
1	 1.464886726656035e+000	 1.045995328956277e+000	 6.681923378220480e+000
1	 1.247855619845356e+000	 8.910253098821287e-001	 1.107452110525448e+001
1	 1.238000911431365e+000	 9.046676222522668e-001	 1.080538160574722e+001
1	 1.227988509947546e+000	 9.182124044861021e-001	 1.052913875357296e+001
1	 1.217819850897685e+000	 9.316569475974836e-001	 1.024671990950063e+001
1	 1.207496431328260e+000	 9.449985705706222e-001	 9.959093077724891e+000
1	 1.197019809152552e+000	 9.582346220975362e-001	 9.667265606710931e+000
1	 1.186391602416226e+000	 9.713624822960131e-001	 9.372282812205221e+000
1	 1.175613488505012e+000	 9.843795644057990e-001	 9.075226524765546e+000
1	 1.164687203295262e+000	 9.972833164607426e-001	 8.777213564370594e+000
1	 1.153614540248222e+000	 1.010071222934661e+000	 8.479394144869708e+000
1	 1.142397349448981e+000	 1.022740806358721e+000	 8.182950211226647e+000
1	 1.269558730526953e+000	 9.065223117909244e-001	 1.073990339607879e+001
1	 1.259532625819865e+000	 9.204018956938826e-001	 1.046165796587584e+001
1	 1.249346085393796e+000	 9.341822531847159e-001	 1.017650267703148e+001
1	 1.239000569719292e+000	 9.478606281616909e-001	 9.885410598895399e+000
1	 1.228497601879960e+000	 9.614342929799052e-001	 9.589402532756880e+000
1	 1.217838766884827e+000	 9.749005502189512e-001	 9.289545626456025e+000
1	 1.207025710921144e+000	 9.882567344307589e-001	 8.986951897565611e+000
1	 1.196060140548291e+000	 1.001500213865284e+000	 8.682776667636494e+000
1	 1.184943821833556e+000	 1.014628392171736e+000	 8.378216910241955e+000
1	 1.173678579430655e+000	 1.027638710073067e+000	 8.074509515792435e+000
1	 1.162266295601971e+000	 1.040528647011485e+000	 7.772929476320316e+000
1	 1.291261841208033e+000	 9.220193136996339e-001	 1.037405930931902e+001
1	 1.281064340207937e+000	 9.361361691354979e-001	 1.008720884276755e+001
1	 1.270703660839725e+000	 9.501521018834153e-001	 9.793923531808110e+000
1	 1.260181288540694e+000	 9.640643087260686e-001	 9.495192258824018e+000
1	 1.249498772431579e+000	 9.778700153894411e-001	 9.192056823187517e+000
1	 1.238657724617147e+000	 9.915664783406997e-001	 8.885610514504682e+000
1	 1.227659819426233e+000	 1.005150986565915e+000	 8.576996584394578e+000
1	 1.216506792591863e+000	 1.018620863325253e+000	 8.267406619355235e+000
1	 1.205200440372256e+000	 1.031973467883280e+000	 7.958078817537344e+000
1	 1.193742618613598e+000	 1.045206197212084e+000	 7.650296172509314e+000
1	 1.182135241755561e+000	 1.058316487664915e+000	 7.345384567351032e+000
1	 1.312964951888743e+000	 9.375163156081745e-001	 9.980324501877457e+000
1	 1.302596054595719e+000	 9.518704425770157e-001	 9.685511888360788e+000
1	 1.292061236285450e+000	 9.661219505820891e-001	 9.384954557854297e+000
1	 1.281362007361988e+000	 9.802679892904926e-001	 9.079628752640174e+000
1	 1.270499942983189e+000	 9.943057377990964e-001	 8.770566979807073e+000
1	 1.259476682349561e+000	 1.008232406462639e+000	 8.458856586761364e+000
1	 1.248293927931518e+000	 1.022045238701331e+000	 8.145638228700541e+000
1	 1.236953444635727e+000	 1.035741512785547e+000	 7.832104230581891e+000
1	 1.225457058911340e+000	 1.049318543595212e+000	 7.519496846406067e+000
1	 1.213806657797006e+000	 1.062773684351548e+000	 7.209106418914237e+000
1	 1.202004187909683e+000	 1.076104328318845e+000	 6.902269443068889e+000
1	 1.334668062569236e+000	 9.530133175164640e-001	 9.561817665457665e+000
1	 1.324127768983342e+000	 9.676047160183384e-001	 9.259818553439208e+000
1	 1.313418811731085e+000	 9.820917992806264e-001	 8.952917877403674e+000
1	 1.302542726183266e+000	 9.964716698548412e-001	 8.642052134989102e+000
1	 1.291501113534862e+000	 1.010741460208736e+000	 8.328215661150313e+000
1	 1.280295640082116e+000	 1.024898334584624e+000	 8.012459248415336e+000
1	 1.268928036437022e+000	 1.038939490836855e+000	 7.695888655906579e+000
1	 1.257400096679886e+000	 1.052862162246009e+000	 7.379663009564365e+000
1	 1.245713677450784e+000	 1.066663619307370e+000	 7.064993096304900e+000
1	 1.233870696980834e+000	 1.080341171491293e+000	 6.753139555132048e+000
1	 1.221873134064270e+000	 1.093892168973107e+000	 6.445410968503783e+000
1	 1.356371173249662e+000	 9.685103194244188e-001	 9.121457884717232e+000
1	 1.345659483370942e+000	 9.833389894593683e-001	 8.813172184701058e+000
1	 1.334776387176746e+000	 9.980616479789166e-001	 8.500922985387716e+000
1	 1.323723445004623e+000	 1.012675350418990e+000	 8.185581197505396e+000
1	 1.312502284086669e+000	 1.027177182618228e+000	 7.868075424263379e+000
1	 1.301114597814863e+000	 1.041564262706513e+000	 7.549390667751988e+000
1	 1.289562144942771e+000	 1.055833742972335e+000	 7.230566924202262e+000
1	 1.277846748724338e+000	 1.069982811706480e+000	 6.912697670370799e+000
1	 1.265970295990567e+000	 1.084008695019590e+000	 6.596928243611263e+000
1	 1.253934736165034e+000	 1.097908658631153e+000	 6.284454118480998e+000
1	 1.241742080219257e+000	 1.111680009627535e+000	 5.976519083012056e+000
1	 1.378074283930169e+000	 9.840073213319565e-001	 8.661980355193157e+000
1	 1.367191197758651e+000	 9.990732629000088e-001	 8.348424411778234e+000
1	 1.356133962622547e+000	 1.014031496676848e+000	 8.031883492632522e+000
1	 1.344904163826153e+000	 1.028879030982817e+000	 7.713138262068322e+000
1	 1.333503454638684e+000	 1.043612905027437e+000	 7.393025269006850e+000
1	 1.321933555547847e+000	 1.058230190828161e+000	 7.072435779908951e+000
1	 1.310196253448788e+000	 1.072727995107619e+000	 6.752314503872568e+000
1	 1.298293400769084e+000	 1.087103461166803e+000	 6.433658211919338e+000
1	 1.286226914530665e+000	 1.101353770731710e+000	 6.117514252777382e+000
1	 1.273998775349563e+000	 1.115476145770962e+000	 5.804978967747219e+000
1	 1.261611026374577e+000	 1.129467850281964e+000	 5.497196007511541e+000
1	 1.399777394610910e+000	 9.995043232389941e-001	 8.185950639018079e+000
1	 1.388722912146604e+000	 1.014807536340161e+000	 7.868250009801711e+000
1	 1.377491538068603e+000	 1.030001345374311e+000	 7.548532311467451e+000
1	 1.366084882647951e+000	 1.045082711546199e+000	 7.227464411811923e+000
1	 1.354504625190976e+000	 1.060048627436228e+000	 6.905765643273864e+000
1	 1.342752513281119e+000	 1.074896118949426e+000	 6.584206801832750e+000
1	 1.330830361955098e+000	 1.089622247242557e+000	 6.263609044521976e+000
1	 1.318740052814125e+000	 1.104224110626819e+000	 5.944842687262408e+000
1	 1.306483533071053e+000	 1.118698846443567e+000	 5.628825904989339e+000
1	 1.294062814534374e+000	 1.133043632910555e+000	 5.316523336309834e+000
1	 1.281479972530163e+000	 1.147255690936225e+000	 5.008944595184869e+000
1	 1.421480505292035e+000	 1.015001325145448e+000	 7.695777614702044e+000
1	 1.410254626534935e+000	 1.030541809779729e+000	 7.375160400440504e+000
1	 1.398849113515031e+000	 1.045971194071194e+000	 7.053435450213986e+000
1	 1.387265601470110e+000	 1.061286392109012e+000	 6.731133326856442e+000
1	 1.375505795743619e+000	 1.076484349844469e+000	 6.408832073613012e+000
1	 1.363571471014728e+000	 1.091562047070162e+000	 6.087156417552635e+000
1	 1.351464470461726e+000	 1.106516499376995e+000	 5.766776881114201e+000
1	 1.339186704859462e+000	 1.121344760086371e+000	 5.448408803105062e+000
1	 1.326740151611712e+000	 1.136043922155000e+000	 5.132811270711606e+000
1	 1.314126853719423e+000	 1.150611120049767e+000	 4.820785964321836e+000
1	 1.301348918685950e+000	 1.165043531590152e+000	 4.513175917193459e+000
1	 1.443183615973692e+000	 1.030498327051237e+000	 7.193725258453691e+000
1	 1.431786340923777e+000	 1.046276083218614e+000	 6.871515934739864e+000
1	 1.420206688961944e+000	 1.061941042767387e+000	 6.549004562995759e+000
1	 1.408446320292726e+000	 1.077490072671134e+000	 6.226563871639453e+000
1	 1.396506966296683e+000	 1.092920072252025e+000	 5.904607565958609e+000
1	 1.384390428748719e+000	 1.108227975190228e+000	 5.583589773745201e+000
1	 1.372098578968696e+000	 1.123410751510783e+000	 5.264004411589850e+000
1	 1.359633356905096e+000	 1.138465409545300e+000	 4.946384472697218e+000
1	 1.346996770152616e+000	 1.153388997865844e+000	 4.631301237292095e+000
1	 1.334190892904664e+000	 1.168178607188431e+000	 4.319363406892716e+000
1	 1.321217864841871e+000	 1.182831372243579e+000	 4.011216163931394e+000
1	 1.464886726656035e+000	 1.045995328956277e+000	 6.681923378220480e+000
1	 1.453318055313267e+000	 1.062010356656721e+000	 6.359537084097186e+000
1	 1.441564264409459e+000	 1.077910891462778e+000	 6.037508383954319e+000
1	 1.429627039115892e+000	 1.093693753232441e+000	 5.716031563317417e+000
1	 1.417508136850241e+000	 1.109355794658762e+000	 5.395333904018544e+000
1	 1.405209386483143e+000	 1.124893903309479e+000	 5.075675408973363e+000
1	 1.392732687476031e+000	 1.140305003643769e+000	 4.757348463089846e+000
1	 1.380080008951025e+000	 1.155586059003449e+000	 4.440677430644149e+000
1	 1.367253388693743e+000	 1.170734073575937e+000	 4.126018189626892e+000
1	 1.354254932090051e+000	 1.185746094326382e+000	 3.813757603729243e+000
1	 1.341086810997859e+000	 1.200619212896339e+000	 3.504312932803798e+000
1	 1.142397349448981e+000	 1.022740806358721e+000	 8.182950211226643e+000
1	 1.131039251243886e+000	 1.035287756015926e+000	 7.885484705600296e+000
1	 1.119540534113932e+000	 1.047711586446118e+000	 7.584071409292440e+000
1	 1.107903211781769e+000	 1.060009945786597e+000	 7.279256499545038e+000
1	 1.096129350166033e+000	 1.072180526369110e+000	 6.971588807975811e+000
1	 1.084221066161063e+000	 1.084221066161063e+000	 6.661619298173356e+000
1	 1.072180526369110e+000	 1.096129350166033e+000	 6.349900540050697e+000
1	 1.060009945786597e+000	 1.107903211781769e+000	 6.036986181871949e+000
1	 1.047711586446118e+000	 1.119540534113931e+000	 5.723430420872056e+000
1	 1.035287756015926e+000	 1.131039251243886e+000	 5.409787473393370e+000
1	 1.022740806358721e+000	 1.142397349448981e+000	 5.096611045462542e+000
1	 1.162266295601971e+000	 1.040528647011485e+000	 7.772929476320316e+000
1	 1.150710653660097e+000	 1.053293817296594e+000	 7.470609273304516e+000
1	 1.139011947103368e+000	 1.065933727024969e+000	 7.164073451355730e+000
1	 1.127172224677734e+000	 1.078445983429568e+000	 6.853849063614068e+000
1	 1.115193588232937e+000	 1.090828238706443e+000	 6.540464778072884e+000
1	 1.103078191481013e+000	 1.103078191481013e+000	 6.224450415133370e+000
1	 1.090828238706443e+000	 1.115193588232937e+000	 5.906336483881530e+000
1	 1.078445983429568e+000	 1.127172224677734e+000	 5.586653717862719e+000
1	 1.065933727024969e+000	 1.139011947103367e+000	 5.265932611127037e+000
1	 1.053293817296594e+000	 1.150710653660097e+000	 4.944702955320063e+000
1	 1.040528647011485e+000	 1.162266295601971e+000	 4.623493378588208e+000
1	 1.182135241755561e+000	 1.058316487664915e+000	 7.345384567351033e+000
1	 1.170382056076979e+000	 1.071299878577974e+000	 7.039876706820319e+000
1	 1.158483360093529e+000	 1.084155867604568e+000	 6.729676936289838e+000
1	 1.146441237574461e+000	 1.096882021073315e+000	 6.415337514638203e+000
1	 1.134257826300627e+000	 1.109475951044568e+000	 6.097412419414397e+000
1	 1.121935316801759e+000	 1.121935316801759e+000	 5.776456859003384e+000
1	 1.109475951044568e+000	 1.134257826300627e+000	 5.453026783501102e+000
1	 1.096882021073315e+000	 1.146441237574461e+000	 5.127678395117760e+000
1	 1.084155867604569e+000	 1.158483360093528e+000	 4.800967658929626e+000
1	 1.071299878577974e+000	 1.170382056076979e+000	 4.473449814797149e+000
1	 1.058316487664915e+000	 1.182135241755561e+000	 4.145678891264332e+000
1	 1.202004187909683e+000	 1.076104328318845e+000	 6.902269443068889e+000
1	 1.190053458494446e+000	 1.089305939859901e+000	 6.594837463434768e+000
1	 1.177954773084311e+000	 1.102378008184754e+000	 6.282068620640480e+000
1	 1.165710250471834e+000	 1.115318058717681e+000	 5.964582326618730e+000
1	 1.153322064368973e+000	 1.128123663383335e+000	 5.643000922349791e+000
1	 1.140792442123158e+000	 1.140792442123159e+000	 5.317949081716932e+000
1	 1.128123663383335e+000	 1.153322064368974e+000	 4.990053212128590e+000
1	 1.115318058717681e+000	 1.165710250471834e+000	 4.659940852953135e+000
1	 1.102378008184755e+000	 1.177954773084311e+000	 4.328240072817788e+000
1	 1.089305939859901e+000	 1.190053458494445e+000	 3.995578866824539e+000
1	 1.076104328318845e+000	 1.202004187909682e+000	 3.662584554735840e+000
1	 1.221873134064270e+000	 1.093892168973107e+000	 6.445410968503783e+000
1	 1.209724860912411e+000	 1.107312001142208e+000	 6.136941152152398e+000
1	 1.197426186075614e+000	 1.120600148765364e+000	 5.822358069301483e+000
1	 1.184979263369735e+000	 1.133754096362508e+000	 5.502388004698300e+000
1	 1.172386302437845e+000	 1.146771375722591e+000	 5.177762454687612e+000
1	 1.159649567445070e+000	 1.159649567445070e+000	 4.849217342104629e+000
1	 1.146771375722591e+000	 1.172386302437845e+000	 4.517492224108549e+000
1	 1.133754096362508e+000	 1.184979263369735e+000	 4.183329494407860e+000
1	 1.120600148765365e+000	 1.197426186075614e+000	 3.847473581341432e+000
1	 1.107312001142208e+000	 1.209724860912411e+000	 3.510670143290062e+000
1	 1.093892168973107e+000	 1.221873134064270e+000	 3.173665262898213e+000
1	 1.241742080219257e+000	 1.111680009627535e+000	 5.976519083012056e+000
1	 1.229396263330790e+000	 1.125318062424731e+000	 5.667544601993340e+000
1	 1.216897599067334e+000	 1.138822289346235e+000	 5.351583831180310e+000
1	 1.204248276268046e+000	 1.152190134007636e+000	 5.029507562911297e+000
1	 1.191450540507111e+000	 1.165419088062188e+000	 4.702195123658555e+000
1	 1.178506692767354e+000	 1.178506692767354e+000	 4.370533321429757e+000
1	 1.165419088062188e+000	 1.191450540507110e+000	 4.035415380444212e+000
1	 1.152190134007636e+000	 1.204248276268045e+000	 3.697739865112894e+000
1	 1.138822289346235e+000	 1.216897599067333e+000	 3.358409595378569e+000
1	 1.125318062424731e+000	 1.229396263330790e+000	 3.018330555492619e+000
1	 1.111680009627535e+000	 1.241742080219257e+000	 2.678410798321743e+000
1	 1.261611026374577e+000	 1.129467850281964e+000	 5.497196007511541e+000
1	 1.249067665749498e+000	 1.143324123707302e+000	 5.187919167891977e+000
1	 1.236369012059368e+000	 1.157044429927205e+000	 4.870719031305142e+000
1	 1.223517289166650e+000	 1.170626171652911e+000	 4.546646578817338e+000
1	 1.210514778576640e+000	 1.184066800401974e+000	 4.216765657993196e+000
1	 1.197363818089865e+000	 1.197363818089866e+000	 3.882151586266504e+000
1	 1.184066800401974e+000	 1.210514778576640e+000	 3.543889734120063e+000
1	 1.170626171652911e+000	 1.223517289166649e+000	 3.203074090852254e+000
1	 1.157044429927205e+000	 1.236369012059368e+000	 2.860805815752025e+000
1	 1.143324123707303e+000	 1.249067665749498e+000	 2.518191777540568e+000
1	 1.129467850281964e+000	 1.261611026374577e+000	 2.176343084966050e+000
1	 1.281479972530163e+000	 1.147255690936225e+000	 5.008944595184870e+000
1	 1.268739068168449e+000	 1.161330184989758e+000	 4.699257356941723e+000
1	 1.255840425051614e+000	 1.175266570508109e+000	 4.380676442708653e+000
1	 1.242786302065429e+000	 1.189062209298173e+000	 4.054466870939665e+000
1	 1.229579016646303e+000	 1.202714512741798e+000	 3.721911840491241e+000
1	 1.216220943412465e+000	 1.216220943412465e+000	 3.384310915289520e+000
1	 1.202714512741798e+000	 1.229579016646304e+000	 3.042978179579311e+000
1	 1.189062209298173e+000	 1.242786302065428e+000	 2.699240367447150e+000
1	 1.175266570508110e+000	 1.255840425051614e+000	 2.354434970377201e+000
1	 1.161330184989758e+000	 1.268739068168448e+000	 2.009908326653884e+000
1	 1.147255690936225e+000	 1.281479972530163e+000	 1.667013696469037e+000
1	 1.301348918685950e+000	 1.165043531590152e+000	 4.513175917193459e+000
1	 1.288410470587557e+000	 1.179336246271932e+000	 4.202678847624121e+000
1	 1.275311838043971e+000	 1.193488711088788e+000	 3.882313093687782e+000
1	 1.262055314964265e+000	 1.207498246943265e+000	 3.553589839321630e+000
1	 1.248643254715970e+000	 1.221362225081510e+000	 3.218044717748333e+000
1	 1.235078068735010e+000	 1.235078068735010e+000	 2.877235504519256e+000
1	 1.221362225081511e+000	 1.248643254715969e+000	 2.532739770186053e+000
1	 1.207498246943265e+000	 1.262055314964265e+000	 2.186152497370459e+000
1	 1.193488711088788e+000	 1.275311838043970e+000	 1.839083667096590e+000
1	 1.179336246271932e+000	 1.288410470587556e+000	 1.493155819325432e+000
1	 1.165043531590152e+000	 1.301348918685950e+000	 1.150001592696474e+000
1	 1.321217864841871e+000	 1.182831372243579e+000	 4.011216163931394e+000
1	 1.308081873006736e+000	 1.197342307553658e+000	 3.699235965922017e+000
1	 1.294783251036333e+000	 1.211710851669076e+000	 3.376434459349942e+000
1	 1.281324327863042e+000	 1.225934284588029e+000	 3.044599504664372e+000
1	 1.267707492785507e+000	 1.240009937420960e+000	 2.705550610498850e+000
1	 1.253935194057359e+000	 1.253935194057360e+000	 2.361136063817614e+000
1	 1.240009937420960e+000	 1.267707492785507e+000	 2.013230007042812e+000
1	 1.225934284588029e+000	 1.281324327863042e+000	 1.663729468172797e+000
1	 1.211710851669076e+000	 1.294783251036333e+000	 1.314551350023482e+000
1	 1.197342307553659e+000	 1.308081873006736e+000	 9.676293848290412e-001
1	 1.182831372243579e+000	 1.321217864841871e+000	 6.249110605225963e-001
1	 1.341086810997859e+000	 1.200619212896339e+000	 3.504312932803800e+000
1	 1.327753275425902e+000	 1.215348368834772e+000	 3.189918674642943e+000
1	 1.314254664028600e+000	 1.229932992248813e+000	 2.863798280558628e+000
1	 1.300593340761641e+000	 1.244370322232309e+000	 2.528045277305204e+000
1	 1.286771730854787e+000	 1.258657649759996e+000	 2.184792945252849e+000
1	 1.272792319379371e+000	 1.272792319379371e+000	 1.836210815912676e+000
1	 1.258657649759996e+000	 1.286771730854787e+000	 1.484501102134423e+000
1	 1.244370322232309e+000	 1.300593340761641e+000	 1.131895068383354e+000
1	 1.229932992248813e+000	 1.314254664028600e+000	 7.806493486596249e-001
1	 1.215348368834772e+000	 1.327753275425902e+000	 4.330422197562163e-001
1	 1.200619212896338e+000	 1.341086810997858e+000	 9.136983766183193e-002
1	 1.022740806358721e+000	 1.142397349448981e+000	 5.096611045462541e+000
1	 1.010071222934662e+000	 1.153614540248221e+000	 4.781769465354671e+000
1	 9.972833164607429e-001	 1.164687203295261e+000	 4.463787836223403e+000
1	 9.843795644057994e-001	 1.175613488505011e+000	 4.144059633138451e+000
1	 9.713624822960135e-001	 1.186391602416225e+000	 3.823971412858369e+000
1	 9.582346220975369e-001	 1.197019809152552e+000	 3.504900746517718e+000
1	 9.449985705706228e-001	 1.207496431328259e+000	 3.188214176637154e+000
1	 9.316569475974843e-001	 1.217819850897686e+000	 2.875265202503022e+000
1	 9.182124044861028e-001	 1.227988509947546e+000	 2.567392297873078e+000
1	 9.046676222522672e-001	 1.238000911431364e+000	 2.265916964858424e+000
1	 8.910253098821287e-001	 1.247855619845356e+000	 1.972141827720221e+000
1	 1.040528647011485e+000	 1.162266295601971e+000	 4.623493378588204e+000
1	 1.027638710073067e+000	 1.173678579430655e+000	 4.300109566282142e+000
1	 1.014628392171736e+000	 1.184943821833555e+000	 3.973110101023456e+000
1	 1.001500213865284e+000	 1.196060140548290e+000	 3.644001850196168e+000
1	 9.882567344307597e-001	 1.207025710921144e+000	 3.314282526459080e+000
1	 9.749005502189513e-001	 1.217838766884826e+000	 2.985438405056865e+000
1	 9.614342929799056e-001	 1.228497601879959e+000	 2.658942070891910e+000
1	 9.478606281616917e-001	 1.239000569719292e+000	 2.336250199834690e+000
1	 9.341822531847164e-001	 1.249346085393795e+000	 2.018801378640932e+000
1	 9.204018956938831e-001	 1.259532625819864e+000	 1.708013967721037e+000
1	 9.065223117909240e-001	 1.269558730526953e+000	 1.405284010874028e+000
1	 1.058316487664915e+000	 1.182135241755561e+000	 4.145678891264332e+000
1	 1.045206197212085e+000	 1.193742618613598e+000	 3.815410404617162e+000
1	 1.031973467883280e+000	 1.205200440372255e+000	 3.481186301116186e+000
1	 1.018620863325253e+000	 1.216506792591862e+000	 3.144584661412413e+000
1	 1.005150986565916e+000	 1.227659819426233e+000	 2.807172392684977e+000
1	 9.915664783407003e-001	 1.238657724617147e+000	 2.470502800928835e+000
1	 9.778700153894414e-001	 1.249498772431579e+000	 2.136113197641578e+000
1	 9.640643087260689e-001	 1.260181288540694e+000	 1.805522545674695e+000
1	 9.501521018834158e-001	 1.270703660839725e+000	 1.480229148892394e+000
1	 9.361361691354984e-001	 1.281064340207937e+000	 1.161708390141999e+000
1	 9.220193136996339e-001	 1.291261841208033e+000	 8.514105218914940e-001
1	 1.076104328318845e+000	 1.202004187909682e+000	 3.662584554735840e+000
1	 1.062773684351549e+000	 1.213806657797006e+000	 3.326965793032841e+000
1	 1.049318543595212e+000	 1.225457058911340e+000	 2.987191733927912e+000
1	 1.035741512785547e+000	 1.236953444635727e+000	 2.644871511327871e+000
1	 1.022045238701332e+000	 1.248293927931517e+000	 2.301601273806867e+000
1	 1.008232406462639e+000	 1.259476682349561e+000	 1.958961680217203e+000
1	 9.943057377990963e-001	 1.270499942983188e+000	 1.618515433561512e+000
1	 9.802679892904933e-001	 1.281362007361987e+000	 1.281804858042002e+000
1	 9.661219505820897e-001	 1.292061236285450e+000	 9.503495240668789e-001
1	 9.518704425770163e-001	 1.302596054595719e+000	 6.256439258469100e-001
1	 9.375163156081746e-001	 1.312964951888744e+000	 3.091552160517095e-001
1	 1.093892168973107e+000	 1.221873134064270e+000	 3.173665262898211e+000
1	 1.080341171491294e+000	 1.233870696980833e+000	 2.834115477605986e+000
1	 1.066663619307370e+000	 1.245713677450784e+000	 2.490355339020274e+000
1	 1.052862162246010e+000	 1.257400096679885e+000	 2.143986762002256e+000
1	 1.038939490836856e+000	 1.268928036437022e+000	 1.796597061024865e+000
1	 1.024898334584625e+000	 1.280295640082116e+000	 1.449756435577840e+000
1	 1.010741460208737e+000	 1.291501113534861e+000	 1.105015496942828e+000
1	 9.964716698548414e-001	 1.302542726183265e+000	 7.639028412696205e-001
1	 9.820917992806268e-001	 1.313418811731085e+000	 4.279226737391917e-001
1	 9.676047160183386e-001	 1.324127768983342e+000	 9.855248844477327e-002
1	 9.530133175164638e-001	 1.334668062569236e+000	-2.227591915489189e-001
1	 1.111680009627535e+000	 1.241742080219257e+000	 2.678410798321742e+000
1	 1.097908658631153e+000	 1.253934736165034e+000	 2.336241462946484e+000
1	 1.084008695019591e+000	 1.265970295990567e+000	 1.989955406487910e+000
1	 1.069982811706480e+000	 1.277846748724337e+000	 1.641110819349709e+000
1	 1.055833742972336e+000	 1.289562144942771e+000	 1.291249863861921e+000
1	 1.041564262706513e+000	 1.301114597814862e+000	 9.418962141952552e-001
1	 1.027177182618229e+000	 1.312502284086669e+000	 5.945526400226311e-001
1	 1.012675350418991e+000	 1.323723445004622e+000	 2.506986387408943e-001
1	 9.980616479789167e-001	 1.334776387176745e+000	-8.821187908370076e-002
1	 9.833389894593687e-001	 1.345659483370942e+000	-4.207528465437629e-001
1	 9.685103194244187e-001	 1.356371173249661e+000	-7.455282351655490e-001
1	 1.129467850281964e+000	 1.261611026374577e+000	 2.176343084966051e+000
1	 1.115476145770963e+000	 1.273998775349562e+000	 1.832764684577127e+000
1	 1.101353770731710e+000	 1.286226914530664e+000	 1.485315690883358e+000
1	 1.087103461166803e+000	 1.298293400769083e+000	 1.135475720002575e+000
1	 1.072727995107619e+000	 1.310196253448787e+000	 7.847071108231405e-001
1	 1.058230190828162e+000	 1.321933555547847e+000	 4.344525824971144e-001
1	 1.043612905027437e+000	 1.333503454638683e+000	 8.613293734642369e-002
1	 1.028879030982818e+000	 1.344904163826153e+000	-2.588551862532751e-001
1	 1.014031496676848e+000	 1.356133962622546e+000	-5.991415065962225e-001
1	 9.990732629000086e-001	 1.367191197758651e+000	-9.333842327276150e-001
1	 9.840073213319562e-001	 1.378074283930169e+000	-1.260272135805973e+000
1	 1.147255690936225e+000	 1.281479972530163e+000	 1.667013696469038e+000
1	 1.133043632910556e+000	 1.294062814534374e+000	 1.323141990875573e+000
1	 1.118698846443568e+000	 1.306483533071053e+000	 9.758018866561204e-001
1	 1.104224110626819e+000	 1.318740052814126e+000	 6.263611287208752e-001
1	 1.089622247242557e+000	 1.330830361955098e+000	 2.761691058314493e-001
1	 1.074896118949426e+000	 1.342752513281120e+000	-7.344531280002986e-002
1	 1.060048627436229e+000	 1.354504625190975e+000	-4.211758945267381e-001
1	 1.045082711546199e+000	 1.366084882647951e+000	-7.657411097071938e-001
1	 1.030001345374311e+000	 1.377491538068603e+000	-1.105886143529430e+000
1	 1.014807536340162e+000	 1.388722912146604e+000	-1.440384849339807e+000
1	 9.995043232389939e-001	 1.399777394610910e+000	-1.768041639772001e+000
1	 1.165043531590152e+000	 1.301348918685950e+000	 1.150001592696475e+000
1	 1.150611120049768e+000	 1.314126853719422e+000	 8.068634014939573e-001
1	 1.136043922155001e+000	 1.326740151611712e+000	 4.608184264691497e-001
1	 1.121344760086371e+000	 1.339186704859462e+000	 1.130907024703396e-001
1	 1.106516499376995e+000	 1.351464470461725e+000	-2.351150082715177e-001
1	 1.091562047070163e+000	 1.363571471014727e+000	-5.826151403588684e-001
1	 1.076484349844470e+000	 1.375505795743619e+000	-9.282492027636794e-001
1	 1.061286392109012e+000	 1.387265601470110e+000	-1.270881605989180e+000
1	 1.045971194071194e+000	 1.398849113515030e+000	-1.609403435313794e+000
1	 1.030541809779729e+000	 1.410254626534935e+000	-1.942734166728244e+000
1	 1.015001325145448e+000	 1.421480505292034e+000	-2.269823322345489e+000
1	 1.182831372243579e+000	 1.321217864841871e+000	 6.249110605225947e-001
1	 1.168178607188432e+000	 1.334190892904663e+000	 2.834496131517652e-001
1	 1.153388997865845e+000	 1.346996770152616e+000	-6.019443159638205e-002
1	 1.138465409545300e+000	 1.359633356905096e+000	-4.049712174302380e-001
1	 1.123410751510784e+000	 1.372098578968695e+000	-7.498509220108294e-001
1	 1.108227975190229e+000	 1.384390428748719e+000	-1.093825383267661e+000
1	 1.092920072252026e+000	 1.396506966296683e+000	-1.435909679397045e+000
1	 1.077490072671134e+000	 1.408446320292725e+000	-1.775143659470526e+000
1	 1.061941042767387e+000	 1.420206688961944e+000	-2.110593421723030e+000
1	 1.046276083218616e+000	 1.431786340923777e+000	-2.441352736740263e+000
1	 1.030498327051237e+000	 1.443183615973693e+000	-2.766544412921584e+000
1	 1.200619212896338e+000	 1.341086810997858e+000	 9.136983766183127e-002
1	 1.185746094326383e+000	 1.354254932090050e+000	-2.475502728529901e-001
1	 1.170734073575938e+000	 1.367253388693743e+000	-5.877632579084341e-001
1	 1.155586059003449e+000	 1.380080008951025e+000	-9.284226191148375e-001
1	 1.140305003643770e+000	 1.392732687476031e+000	-1.268702505121813e+000
1	 1.124893903309479e+000	 1.405209386483143e+000	-1.607798982598065e+000
1	 1.109355794658762e+000	 1.417508136850241e+000	-1.944931261900512e+000
1	 1.093693753232441e+000	 1.429627039115891e+000	-2.279342875101127e+000
1	 1.077910891462778e+000	 1.441564264409459e+000	-2.610302804172815e+000
1	 1.062010356656721e+000	 1.453318055313266e+000	-2.937106557274174e+000
1	 1.045995328956277e+000	 1.464886726656035e+000	-3.259077191220122e+000
1	 8.910253098821287e-001	 1.247855619845356e+000	 1.972141827720221e+000
1	 8.772882022807453e-001	 1.257551261490825e+000	 1.684764137038511e+000
1	 8.634590576311916e-001	 1.267086523959525e+000	 1.402537273749703e+000
1	 8.495406565372461e-001	 1.276460157680332e+000	 1.126814765188095e+000
1	 8.355358005343189e-001	 1.285670976711510e+000	 8.589244311671140e-001
1	 8.214473102909058e-001	 1.294717859120680e+000	 6.001663215336759e-001
1	 8.072780238044298e-001	 1.303599747304522e+000	 3.518107195155182e-001
1	 7.930307945938007e-001	 1.312315648248289e+000	 1.150962143843275e-001
1	 7.787084898909866e-001	 1.320864633725284e+000	-1.087721532523212e-001
1	 7.643139888338930e-001	 1.329245840436585e+000	-3.186246704362605e-001
1	 7.498501806627992e-001	 1.337458470091355e+000	-5.133286522512495e-001
1	 9.065223117909240e-001	 1.269558730526953e+000	 1.405284010874028e+000
1	 8.925462839472683e-001	 1.279423001924546e+000	 1.109391342997916e+000
1	 8.784766183172067e-001	 1.289124104778561e+000	 8.190956884445599e-001
1	 8.643161438656810e-001	 1.298660767784928e+000	 5.357264667747899e-001
1	 8.500677108533142e-001	 1.308031784375627e+000	 2.605867559514135e-001
1	 8.357341890065824e-001	 1.317236013105266e+000	-5.048761567651994e-003
1	 8.213184656822814e-001	 1.326272377976344e+000	-2.599357858457503e-001
1	 8.068234440286464e-001	 1.335139868703277e+000	-5.028623160832142e-001
1	 7.922520411454750e-001	 1.343837540915351e+000	-7.326504935371876e-001
1	 7.776071862455719e-001	 1.352364516298867e+000	-9.481583676695231e-001
1	 7.628918188198209e-001	 1.360719982678853e+000	-1.148281582675819e+000
1	 9.220193136996339e-001	 1.291261841208033e+000	 8.514105218914940e-001
1	 9.078043656136208e-001	 1.301294742357671e+000	 5.482069161215066e-001
1	 8.934941790029705e-001	 1.311161685596942e+000	 2.508886686890230e-001
1	 8.790916311937905e-001	 1.320861377888824e+000	-3.925340339941918e-002
1	 8.645996211719172e-001	 1.330392592039013e+000	-3.209553098758633e-001
1	 8.500210677218113e-001	 1.339754167089103e+000	-5.929819069444866e-001
1	 8.353589075596425e-001	 1.348945008647412e+000	-8.541288495059725e-001
1	 8.206160934629750e-001	 1.357964089157520e+000	-1.103224472425311e+000
1	 8.057955923994371e-001	 1.366810448104690e+000	-1.339131597611582e+000
1	 7.909003836567361e-001	 1.375483192160448e+000	-1.560749263898436e+000
1	 7.759334569763623e-001	 1.383981495265687e+000	-1.767014376942792e+000
1	 9.375163156081746e-001	 1.312964951888744e+000	 3.091552160517095e-001
1	 9.230624472797356e-001	 1.323166482790366e+000	-1.535897640358996e-004
1	 9.085117396884320e-001	 1.333199266414842e+000	-3.034446226906331e-001
1	 8.938671185215377e-001	 1.343061987992203e+000	-5.994794512136212e-001
1	 8.791315314901066e-001	 1.352753399701856e+000	-8.870468103490241e-001
1	 8.643079464365846e-001	 1.362272321072382e+000	-1.164964562257089e+000
1	 8.493993494365167e-001	 1.371617639317917e+000	-1.432081589196829e+000
1	 8.344087428967991e-001	 1.380788309611204e+000	-1.687279615485060e+000
1	 8.193391436528907e-001	 1.389783355293483e+000	-1.929474955337134e+000
1	 8.041935810674049e-001	 1.398601868021503e+000	-2.157620183688246e+000
1	 7.889750951324397e-001	 1.407243007852023e+000	-2.370705727318677e+000
1	 9.530133175164638e-001	 1.334668062569236e+000	-2.227591915489189e-001
1	 9.383205289455459e-001	 1.345038223222794e+000	-5.369658714952208e-001
1	 9.235293003735395e-001	 1.355236847232435e+000	-8.451765082754752e-001
1	 9.086426058488875e-001	 1.365262598095243e+000	-1.146218173263981e+000
1	 8.936634418078617e-001	 1.375114207364341e+000	-1.438945302162152e+000
1	 8.785948251508940e-001	 1.384790475055292e+000	-1.722241572190787e+000
1	 8.634397913129082e-001	 1.394290269988049e+000	-1.995021711930794e+000
1	 8.482013923301295e-001	 1.403612530064516e+000	-2.256233240634384e+000
1	 8.328826949058539e-001	 1.412756262481913e+000	-2.504858134038687e+000
1	 8.174867784775973e-001	 1.421720543882209e+000	-2.739914413932640e+000
1	 8.020167332880692e-001	 1.430504520438026e+000	-2.960457658949097e+000
1	 9.685103194244187e-001	 1.356371173249661e+000	-7.455282351655490e-001
1	 9.535786106109838e-001	 1.366909963655117e+000	-1.063423976901713e+000
1	 9.385468610582418e-001	 1.377274428049897e+000	-1.375497877604047e+000
1	 9.234180931758040e-001	 1.387463208198132e+000	-1.680655005987054e+000
1	 9.081953521251608e-001	 1.397475015026658e+000	-1.977827854034136e+000
1	 8.928817038647327e-001	 1.407308629038023e+000	-2.265978107068099e+000
1	 8.774802331888189e-001	 1.416962900657996e+000	-2.544098347227554e+000
1	 8.619940417629799e-001	 1.426436750517644e+000	-2.811213687374073e+000
1	 8.464262461583428e-001	 1.435729169670160e+000	-3.066383332661264e+000
1	 8.307799758873329e-001	 1.444839219742738e+000	-3.308702067211433e+000
1	 8.150583714432673e-001	 1.453766033023863e+000	-3.537301663560033e+000
1	 9.840073213319562e-001	 1.378074283930169e+000	-1.260272135805973e+000
1	 9.688366922759821e-001	 1.388781704087501e+000	-1.580646734203913e+000
1	 9.535644217424869e-001	 1.399312008867401e+000	-1.895524599563193e+000
1	 9.381935805022509e-001	 1.409663818301048e+000	-2.203900708688450e+000
1	 9.227272624419834e-001	 1.419835822688992e+000	-2.504797384681111e+000
1	 9.071685825780916e-001	 1.429826783020764e+000	-2.797265936753817e+000
1	 8.915206750642536e-001	 1.439635531327949e+000	-3.080388234647042e+000
1	 8.757866911953608e-001	 1.449260970970772e+000	-3.353278214922054e+000
1	 8.599697974103766e-001	 1.458702076858409e+000	-3.615083316603681e+000
1	 8.440731732966302e-001	 1.467957895603268e+000	-3.864985843853813e+000
1	 8.281000095980500e-001	 1.477027545609700e+000	-4.102204253565889e+000
1	 9.995043232389939e-001	 1.399777394610910e+000	-1.768041639772001e+000
1	 9.840947739404728e-001	 1.410653444520108e+000	-2.089683583295181e+000
1	 9.685819824262234e-001	 1.421349589685121e+000	-2.406303338246999e+000
1	 9.529690678281927e-001	 1.431864428404175e+000	-2.716997152770769e+000
1	 9.372591727583081e-001	 1.442196630351531e+000	-3.020888411179812e+000
1	 9.214554612909642e-001	 1.452344937003705e+000	-3.317129120911088e+000
1	 9.055611169392157e-001	 1.462308161998095e+000	-3.604901335708070e+000
1	 8.895793406272859e-001	 1.472085191424091e+000	-3.883418512601562e+000
1	 8.735133486619716e-001	 1.481674984046840e+000	-4.151926800445885e+000
1	 8.573663707055088e-001	 1.491076571463974e+000	-4.409706257968196e+000
1	 8.411416477524335e-001	 1.500289058195703e+000	-4.656071999489166e+000
1	 1.015001325145448e+000	 1.421480505292034e+000	-2.269823322345489e+000
1	 9.993528556043898e-001	 1.432525184953104e+000	-2.591519872833468e+000
1	 9.835995431093998e-001	 1.443387170503232e+000	-2.908816836037433e+000
1	 9.677445551535930e-001	 1.454065038507694e+000	-3.220922580622831e+000
1	 9.517910830741141e-001	 1.464557438014462e+000	-3.527072270735454e+000
1	 9.357423400033420e-001	 1.474863090987035e+000	-3.826529177985012e+000
1	 9.196015588137082e-001	 1.484980792668627e+000	-4.118585931711276e+000
1	 9.033719900587665e-001	 1.494909411877786e+000	-4.402565705434471e+000
1	 8.870568999131462e-001	 1.504647891235636e+000	-4.677823337576660e+000
1	 8.706595681139869e-001	 1.514195247325030e+000	-4.943746384726644e+000
1	 8.541832859064349e-001	 1.523550570782039e+000	-5.199756105913734e+000
1	 1.030498327051237e+000	 1.443183615973693e+000	-2.766544412921584e+000
1	 1.014610937267664e+000	 1.454396925386652e+000	-3.087081679375809e+000
1	 9.986171037919642e-001	 1.465424751321909e+000	-3.403988719991759e+000
1	 9.825200424784160e-001	 1.476265648611788e+000	-3.716596389999174e+000
1	 9.663229933893793e-001	 1.486918245677973e+000	-4.024261871289272e+000
1	 9.500292187152172e-001	 1.497381244970944e+000	-4.326369787788944e+000
1	 9.336420006877347e-001	 1.507653423339732e+000	-4.622333261585031e+000
1	 9.171646394898149e-001	 1.517733632332045e+000	-4.911594908079398e+000
1	 9.006004511639174e-001	 1.527620798424980e+000	-5.193627768629163e+000
1	 8.839527655220847e-001	 1.537313923186611e+000	-5.467936179301264e+000
1	 8.672249240600692e-001	 1.546812083368872e+000	-5.734056574548697e+000
1	 1.045995328956277e+000	 1.464886726656035e+000	-3.259077191220122e+000
1	 1.029869018930230e+000	 1.476268665820915e+000	-3.577240198123696e+000
1	 1.013634664473865e+000	 1.487462332141325e+000	-3.892687880974612e+000
1	 9.972955298026257e-001	 1.498466258716638e+000	-4.204883493099256e+000
1	 9.808549037040834e-001	 1.509279053342249e+000	-4.513316019828417e+000
1	 9.643160974265820e-001	 1.519899398955622e+000	-4.817501076061628e+000
1	 9.476824425612986e-001	 1.530326054011600e+000	-5.116981747457814e+000
1	 9.309572889204426e-001	 1.540557852787052e+000	-5.411329373955087e+000
1	 9.141440024143027e-001	 1.550593705615053e+000	-5.700144274480669e+000
1	 8.972459629298207e-001	 1.560432599048893e+000	-5.983056411876110e+000
1	 8.802665622133532e-001	 1.570073595956371e+000	-6.259725997224164e+000
1	 7.498501806627992e-001	 1.337458470091355e+000	-5.133286522512477e-001
1	 7.353221473168310e-001	 1.345500595902037e+000	-6.932372433956853e-001
1	 7.207306278798588e-001	 1.353372795297909e+000	-8.589846980309375e-001
1	 7.060785306134999e-001	 1.361074466261638e+000	-1.009833527572348e+000
1	 6.913687667140007e-001	 1.368605071488112e+000	-1.145085450979305e+000
1	 6.766042485600977e-001	 1.375964138175143e+000	-1.264082304522371e+000
1	 6.617878879772685e-001	 1.383151257758930e+000	-1.366206871042059e+000
1	 6.469225945203403e-001	 1.390166085595247e+000	-1.450883628075263e+000
1	 6.320112737763574e-001	 1.397008340587420e+000	-1.517579414437244e+000
1	 6.170568256895559e-001	 1.403677804762224e+000	-1.565804015052965e+000
1	 6.020621429102250e-001	 1.410174322794896e+000	-1.595110664037105e+000
1	 7.628918188198209e-001	 1.360719982678853e+000	-1.148281582675817e+000
1	 7.481111091940828e-001	 1.368901979756440e+000	-1.333356916697112e+000
1	 7.332658093066115e-001	 1.376911095003749e+000	-1.503934935958800e+000
1	 7.183588780004510e-001	 1.384746715932977e+000	-1.659202529040446e+000
1	 7.033932771043155e-001	 1.392408295894034e+000	-1.798384611892251e+000
1	 6.883719696499757e-001	 1.399895353861612e+000	-1.920745222633473e+000
1	 6.732979181063200e-001	 1.407207474166047e+000	-2.025588535089197e+000
1	 6.581740826320951e-001	 1.414344306168952e+000	-2.112259790058641e+000
1	 6.430034193492556e-001	 1.421305563884740e+000	-2.180146143528884e+000
1	 6.277888786388074e-001	 1.428091025549134e+000	-2.228677431264263e+000
1	 6.125334034609494e-001	 1.434700533135920e+000	-2.257326849417217e+000
1	 7.759334569763623e-001	 1.383981495265687e+000	-1.767014376942794e+000
1	 7.609000710709125e-001	 1.392303363610223e+000	-1.958212888348963e+000
1	 7.458009907330195e-001	 1.400449394709020e+000	-2.134774195554137e+000
1	 7.306392253871503e-001	 1.408418965603801e+000	-2.295817340758302e+000
1	 7.154177874944813e-001	 1.416211520299499e+000	-2.440498200069855e+000
1	 7.001396907398110e-001	 1.423826569547684e+000	-2.568010751630089e+000
1	 6.848079482354356e-001	 1.431263690572821e+000	-2.677588261856516e+000
1	 6.694255707440147e-001	 1.438522526742372e+000	-2.768504388437937e+000
1	 6.539955649224094e-001	 1.445602787181828e+000	-2.840074198940303e+000
1	 6.385209315883896e-001	 1.452504246335858e+000	-2.891655104112045e+000
1	 6.230046640120597e-001	 1.459226743476797e+000	-2.922647705200512e+000
1	 7.889750951324397e-001	 1.407243007852023e+000	-2.370705727318677e+000
1	 7.736890329473286e-001	 1.415704747463540e+000	-2.568937928855971e+000
1	 7.583361721590803e-001	 1.423987694413863e+000	-2.752593348033564e+000
1	 7.429195727735806e-001	 1.432091215274239e+000	-2.920730510940699e+000
1	 7.274422978844634e-001	 1.440014744704620e+000	-3.072443567536628e+000
1	 7.119074118295528e-001	 1.447757785233454e+000	-3.206863721871001e+000
1	 6.963179783645457e-001	 1.455319906979338e+000	-3.323160579935991e+000
1	 6.806770588560139e-001	 1.462700747315572e+000	-3.420543413442408e+000
1	 6.649877104957201e-001	 1.469900010478731e+000	-3.498262338047228e+000
1	 6.492529845381927e-001	 1.476917467122427e+000	-3.555609404795209e+000
1	 6.334759245634387e-001	 1.483752953817541e+000	-3.591919603774640e+000
1	 8.020167332880692e-001	 1.430504520438026e+000	-2.960457658949100e+000
1	 7.864779948233398e-001	 1.439106131316547e+000	-3.166591128547152e+000
1	 7.708713535847911e-001	 1.447525994118421e+000	-3.358412309744082e+000
1	 7.551999201597240e-001	 1.455763464944417e+000	-3.534926125622229e+000
1	 7.394668082742282e-001	 1.463817969109509e+000	-3.695171893445500e+000
1	 7.236751329191491e-001	 1.471689000919020e+000	-3.838224906189915e+000
1	 7.078280084935829e-001	 1.479376123385674e+000	-3.963197931349071e+000
1	 6.919285469680090e-001	 1.486878967888615e+000	-4.069242624986696e+000
1	 6.759798560690880e-001	 1.494197233775494e+000	-4.155550859250596e+000
1	 6.599850374881062e-001	 1.501330687908871e+000	-4.221355961806431e+000
1	 6.439471851149695e-001	 1.508279164158169e+000	-4.265933865893890e+000
1	 8.150583714432673e-001	 1.453766033023863e+000	-3.537301663560033e+000
1	 7.992669566989545e-001	 1.462507515169399e+000	-3.752163792308055e+000
1	 7.834065350101485e-001	 1.471064293822835e+000	-3.953185718859473e+000
1	 7.674802675455636e-001	 1.479435714614465e+000	-4.139325285927937e+000
1	 7.514913186637424e-001	 1.487621193514281e+000	-4.309573478193948e+000
1	 7.354428540085490e-001	 1.495620216604477e+000	-4.462956144774553e+000
1	 7.193380386224785e-001	 1.503432339791911e+000	-4.598535638741431e+000
1	 7.031800350799145e-001	 1.511057188461564e+000	-4.715412371356457e+000
1	 6.869720016424146e-001	 1.518494457072168e+000	-4.812726278947653e+000
1	 6.707170904380211e-001	 1.525743908695221e+000	-4.889658200594312e+000
1	 6.544184456665355e-001	 1.532805374498695e+000	-4.945431165047900e+000
1	 8.281000095980500e-001	 1.477027545609700e+000	-4.102204253565890e+000
1	 8.120559185741817e-001	 1.485908899022251e+000	-4.326584777301665e+000
1	 7.959417164351504e-001	 1.494602593527250e+000	-4.537808075667616e+000
1	 7.797606149310817e-001	 1.503107964284512e+000	-4.734791067779298e+000
1	 7.635158290529709e-001	 1.511424417919046e+000	-4.916482537282162e+000
1	 7.472105750977016e-001	 1.519551432289924e+000	-5.081864985779825e+000
1	 7.308480687511636e-001	 1.527488556198130e+000	-5.229956403210794e+000
1	 7.144315231916457e-001	 1.535235409034485e+000	-5.359811952561456e+000
1	 6.979641472156017e-001	 1.542791680368798e+000	-5.470525566560675e+000
1	 6.814491433878270e-001	 1.550157129481510e+000	-5.561231454257882e+000
1	 6.648897062180199e-001	 1.557331584839138e+000	-5.631105515647598e+000
1	 8.411416477524335e-001	 1.500289058195703e+000	-4.656071999489165e+000
1	 8.248448804490297e-001	 1.509310282875258e+000	-4.890725334130744e+000
1	 8.084768978597926e-001	 1.518140893231805e+000	-5.113118404666588e+000
1	 7.920409623162602e-001	 1.526780213954683e+000	-5.322133020207758e+000
1	 7.755403394418807e-001	 1.535227642323919e+000	-5.516681549207481e+000
1	 7.589782961865552e-001	 1.543482647975457e+000	-5.695708894232970e+000
1	 7.423580988795697e-001	 1.551544772604411e+000	-5.858194383710848e+000
1	 7.256830113031185e-001	 1.559413629607439e+000	-6.003153577773404e+000
1	 7.089562927885500e-001	 1.567088903665431e+000	-6.129639985589286e+000
1	 6.921811963374144e-001	 1.574570350267767e+000	-6.236746691831378e+000
1	 6.753609667693054e-001	 1.581857795179509e+000	-6.323607890197382e+000
1	 8.541832859064349e-001	 1.523550570782039e+000	-5.199756105913735e+000
1	 8.376338423235071e-001	 1.532711666728574e+000	-5.445403504512143e+000
1	 8.210120792840734e-001	 1.541679192936644e+000	-5.679904489576269e+000
1	 8.043213097010830e-001	 1.550452463625109e+000	-5.902111251587657e+000
1	 7.875648498304381e-001	 1.559030866729012e+000	-6.110905205058003e+000
1	 7.707460172750587e-001	 1.567413863661173e+000	-6.305199075370775e+000
1	 7.538681290076289e-001	 1.575600989010834e+000	-6.483938902749851e+000
1	 7.369344994142478e-001	 1.583591850180492e+000	-6.646105960232392e+000
1	 7.199484383611606e-001	 1.591386126962114e+000	-6.790718582792306e+000
1	 7.029132492866731e-001	 1.598983571054024e+000	-6.916833905028730e+000
1	 6.858322273202754e-001	 1.606384005519828e+000	-7.023549505106725e+000
1	 8.672249240600692e-001	 1.546812083368872e+000	-5.734056574548699e+000
1	 8.504228041976235e-001	 1.556113050582356e+000	-5.991388122148118e+000
1	 8.335472607079891e-001	 1.565217492641910e+000	-6.238906726224384e+000
1	 8.166016570855323e-001	 1.574124713295916e+000	-6.475440147168451e+000
1	 7.995893602186083e-001	 1.582834091134438e+000	-6.699844001733277e+000
1	 7.825137383631609e-001	 1.591345079347169e+000	-6.911003952996330e+000
1	 7.653781591352722e-001	 1.599657205417480e+000	-7.107837817723241e+000
1	 7.481859875249490e-001	 1.607770070753707e+000	-7.289297587783901e+000
1	 7.309405839333351e-001	 1.615683350258895e+000	-7.454371362540307e+000
1	 7.136453022354934e-001	 1.623396791840312e+000	-7.602085189401901e+000
1	 6.963034878708130e-001	 1.630910215860108e+000	-7.731504810021921e+000
1	 8.802665622133532e-001	 1.570073595956371e+000	-6.259725997224166e+000
1	 8.632117660713862e-001	 1.579514434436757e+000	-6.529402457947455e+000
1	 8.460824421315376e-001	 1.588755792347744e+000	-6.790821632936768e+000
1	 8.288820044695899e-001	 1.597796962967234e+000	-7.042791756142075e+000
1	 8.116138706063586e-001	 1.606637315540310e+000	-7.284147515752608e+000
1	 7.942814594508104e-001	 1.615276295033541e+000	-7.513752338632763e+000
1	 7.768881892624312e-001	 1.623713421824428e+000	-7.730500592557696e+000
1	 7.594374756351371e-001	 1.631948291327147e+000	-7.933319702687122e+000
1	 7.419327295049742e-001	 1.639980573555821e+000	-8.121172178989148e+000
1	 7.243773551837657e-001	 1.647810012626663e+000	-8.293057551604706e+000
1	 7.067747484208015e-001	 1.655436426200365e+000	-8.448014211426617e+000
1	 6.020621429102250e-001	 1.410174322794896e+000	-1.595110664037108e+000
1	 5.870278516030029e-001	 1.416498737301121e+000	-1.608347874648303e+000
1	 5.719590733564497e-001	 1.422650029986620e+000	-1.608799813744446e+000
1	 5.568586712756412e-001	 1.428628231261313e+000	-1.596753963998683e+000
1	 5.417294947976461e-001	 1.434433431836372e+000	-1.572548749321009e+000
1	 5.265743781829092e-001	 1.440065782013029e+000	-1.536572076323439e+000
1	 5.113961390398314e-001	 1.445525490928912e+000	-1.489259817184037e+000
1	 4.961975768838243e-001	 1.450812825763512e+000	-1.431094238109480e+000
1	 4.809814717320298e-001	 1.455928110904371e+000	-1.362602377635238e+000
1	 4.657505827348308e-001	 1.460871727075660e+000	-1.284354379030338e+000
1	 4.505076468451836e-001	 1.465644110430823e+000	-1.196961781085904e+000
1	 6.125334034609494e-001	 1.434700533135920e+000	-2.257326849417217e+000
1	 5.972376308707766e-001	 1.441134943915833e+000	-2.269225035367304e+000
1	 5.819067715331874e-001	 1.447393221884075e+000	-2.267971972736868e+000
1	 5.665437383493176e-001	 1.453475397979446e+000	-2.253825848800833e+000
1	 5.511514303145785e-001	 1.459381564490778e+000	-2.227096734580800e+000
1	 5.357327309837995e-001	 1.465111874333371e+000	-2.188145153328877e+000
1	 5.202905069701497e-001	 1.470666540282229e+000	-2.137380588315188e+000
1	 5.048276064791279e-001	 1.476045834163695e+000	-2.075259934111827e+000
1	 4.893468578788449e-001	 1.481250086007147e+000	-2.002285895608769e+000
1	 4.738510683077299e-001	 1.486279683158419e+000	-1.919005339031371e+000
1	 4.583430223207198e-001	 1.491135069356658e+000	-1.826007599246549e+000
1	 6.230046640120597e-001	 1.459226743476797e+000	-2.922647705200514e+000
1	 6.074474101389680e-001	 1.465771150530427e+000	-2.936480224467377e+000
1	 5.918544697103532e-001	 1.472136413781435e+000	-2.937051914222957e+000
1	 5.762288054234169e-001	 1.478322564697502e+000	-2.924552274000448e+000
1	 5.605733658319160e-001	 1.484329697145122e+000	-2.899223467583578e+000
1	 5.448910837850700e-001	 1.490157966653668e+000	-2.861358989015346e+000
1	 5.291848749008193e-001	 1.495807589635517e+000	-2.811302264694899e+000
1	 5.134576360747550e-001	 1.501278842563868e+000	-2.749445195628286e+000
1	 4.977122440259603e-001	 1.506572061109939e+000	-2.676226643955523e+000
1	 4.819515538809144e-001	 1.511687639241224e+000	-2.592130867918323e+000
1	 4.661783977965402e-001	 1.516626028282579e+000	-2.497685909463548e+000
1	 6.334759245634387e-001	 1.483752953817541e+000	-3.591919603774639e+000
1	 6.176571894074571e-001	 1.490407357144906e+000	-3.610923276399869e+000
1	 6.018021678878301e-001	 1.496879605678689e+000	-3.616793037876674e+000
1	 5.859138724978268e-001	 1.503169731415457e+000	-3.609612191189870e+000
1	 5.699953013495547e-001	 1.509277829799371e+000	-3.589517322533042e+000
1	 5.540494365866259e-001	 1.515204058973874e+000	-3.556697133522962e+000
1	 5.380792428317558e-001	 1.520948638988720e+000	-3.511391205195096e+000
1	 5.220876656706316e-001	 1.526511850963968e+000	-3.453888697603520e+000
1	 5.060776301733113e-001	 1.531894036212673e+000	-3.384526988924343e+000
1	 4.900520394543289e-001	 1.537095595323997e+000	-3.303690258019397e+000
1	 4.740137732725954e-001	 1.542116987208505e+000	-3.211808014461964e+000
1	 6.439471851149695e-001	 1.508279164158169e+000	-4.265933865893891e+000
1	 6.278669686761252e-001	 1.515043563759269e+000	-4.293311350564482e+000
1	 6.117498660655004e-001	 1.521622797575824e+000	-4.307899739076833e+000
1	 5.955989395724356e-001	 1.528016898133288e+000	-4.309640390084170e+000
1	 5.794172368673902e-001	 1.534225962453488e+000	-4.298528403291564e+000
1	 5.632077893883721e-001	 1.540250151293942e+000	-4.274611684850278e+000
1	 5.469736107628749e-001	 1.546089688341783e+000	-4.237989939160967e+000
1	 5.307176952666834e-001	 1.551744859363929e+000	-4.188813590556728e+000
1	 5.144430163208345e-001	 1.557216011315279e+000	-4.127282638431646e+000
1	 4.981525250279175e-001	 1.562503551406661e+000	-4.053645449461801e+000
1	 4.818491487488354e-001	 1.567607946134350e+000	-3.968197490634202e+000
1	 6.544184456665355e-001	 1.532805374498695e+000	-4.945431165047900e+000
1	 6.380767479448530e-001	 1.539679770373518e+000	-4.984353145541693e+000
1	 6.216975642432467e-001	 1.546365989472827e+000	-5.011031329462771e+000
1	 6.052840066471303e-001	 1.552864064850969e+000	-5.025231031662257e+000
1	 5.888391723853179e-001	 1.559174095107435e+000	-5.026771605172971e+000
1	 5.723661421902142e-001	 1.565296243613825e+000	-5.015525805161203e+000
1	 5.558679786940919e-001	 1.571230737694648e+000	-4.991419072875753e+000
1	 5.393477248628368e-001	 1.576977867763687e+000	-4.954428742603252e+000
1	 5.228084024684649e-001	 1.582537986417684e+000	-4.904583174756882e+000
1	 5.062530106016245e-001	 1.587911507489136e+000	-4.841960818336803e+000
1	 4.896845242252110e-001	 1.593098905060033e+000	-4.766689206093786e+000
1	 6.648897062180199e-001	 1.557331584839138e+000	-5.631105515647598e+000
1	 6.482865272135218e-001	 1.564315976987654e+000	-5.684712715107729e+000
1	 6.316452624209525e-001	 1.571109181369688e+000	-5.726805587023976e+000
1	 6.149690737218001e-001	 1.577711231568475e+000	-5.756940847449966e+000
1	 5.982611079032337e-001	 1.584122227761178e+000	-5.774729387416509e+000
1	 5.815244949920566e-001	 1.590342335933476e+000	-5.779835999318866e+000
1	 5.647623466253223e-001	 1.596371787047259e+000	-5.771979015878457e+000
1	 5.479777544590176e-001	 1.602210876163178e+000	-5.750929864112683e+000
1	 5.311737886161390e-001	 1.607859961519817e+000	-5.716512536901859e+000
1	 5.143534961753938e-001	 1.613319463571345e+000	-5.668602984881121e+000
1	 4.975198997016721e-001	 1.618589863985467e+000	-5.607128431516244e+000
1	 6.753609667693054e-001	 1.581857795179509e+000	-6.323607890197380e+000
1	 6.584963064820117e-001	 1.588952183601679e+000	-6.395012929253810e+000
1	 6.415929605985000e-001	 1.595852373266394e+000	-6.455801975931379e+000
1	 6.246541407963323e-001	 1.602558398285783e+000	-6.505292041180455e+000
1	 6.076830434210333e-001	 1.609070360414681e+000	-6.542854287742872e+000
1	 5.906828477938051e-001	 1.615388428252850e+000	-6.567914181450840e+000
1	 5.736567145564819e-001	 1.621512836399563e+000	-6.579951546684445e+000
1	 5.566077840551518e-001	 1.627443884562336e+000	-6.578500527743077e+000
1	 5.395391747637924e-001	 1.633181936621604e+000	-6.563149458077120e+000
1	 5.224539817491701e-001	 1.638727419653209e+000	-6.533540639503515e+000
1	 5.053552751781694e-001	 1.644080822910571e+000	-6.489370033697077e+000
1	 6.858322273202754e-001	 1.606384005519828e+000	-7.023549505106725e+000
1	 6.687060857502041e-001	 1.613588390215593e+000	-7.115838618148741e+000
1	 6.515406587757719e-001	 1.620595565162932e+000	-7.198564571407052e+000
1	 6.343392078706148e-001	 1.627405565002866e+000	-7.270774924638734e+000
1	 6.171049789386122e-001	 1.634018493067906e+000	-7.331571206557464e+000
1	 5.998412005953647e-001	 1.640434520571898e+000	-7.380109552201605e+000
1	 5.825510824874861e-001	 1.646653885751501e+000	-7.415601235074616e+000
1	 5.652378136511655e-001	 1.652676892961098e+000	-7.437313095031226e+000
1	 5.479045609113608e-001	 1.658503911722976e+000	-7.444567863111314e+000
1	 5.305544673228975e-001	 1.664135375734650e+000	-7.436744384747962e+000
1	 5.131906506546529e-001	 1.669571781835260e+000	-7.413277742985602e+000
1	 6.963034878708130e-001	 1.630910215860108e+000	-7.731504810021923e+000
1	 6.789158650179793e-001	 1.638224596829399e+000	-7.847739432420787e+000
1	 6.614883569526510e-001	 1.645338757059289e+000	-7.955604720683100e+000
1	 6.440242749445355e-001	 1.652252731719700e+000	-8.053850315675176e+000
1	 6.265269144558663e-001	 1.658966625720819e+000	-8.141279485049665e+000
1	 6.089995533966404e-001	 1.665480612890575e+000	-8.216750306599717e+000
1	 5.914454504182505e-001	 1.671794935103018e+000	-8.279176736050962e+000
1	 5.738678432469847e-001	 1.677909901359400e+000	-8.327529559377302e+000
1	 5.562699470587803e-001	 1.683825886823860e+000	-8.360837230001804e+000
1	 5.386549528965197e-001	 1.689543331815590e+000	-8.378186591517201e+000
1	 5.210260261310729e-001	 1.695062740759449e+000	-8.378723486818856e+000
1	 7.067747484208015e-001	 1.655436426200365e+000	-8.448014211426617e+000
1	 6.891256442852184e-001	 1.662860803443095e+000	-8.591232449180950e+000
1	 6.714360551290196e-001	 1.670081948955455e+000	-8.727403467418046e+000
1	 6.537093420179823e-001	 1.677099898436262e+000	-8.854951723050181e+000
1	 6.359488499726912e-001	 1.683914758373382e+000	-8.972354798562746e+000
1	 6.181579061975373e-001	 1.690526705208834e+000	-9.078145190107536e+000
1	 6.003398183486904e-001	 1.696935984454057e+000	-9.170911968768031e+000
1	 5.824978728425354e-001	 1.703142909757176e+000	-9.249302314093253e+000
1	 5.646353332059865e-001	 1.709147861924183e+000	-9.312022919326360e+000
1	 5.467554384699812e-001	 1.714951287895949e+000	-9.357841268076726e+000
1	 5.288614016073798e-001	 1.720553699683057e+000	-9.385586782499505e+000
1	 4.505076468451836e-001	 1.465644110430823e+000	-1.196961781085904e+000
1	 4.352553773090558e-001	 1.470245751245001e+000	-1.100682316252366e+000
1	 4.199964617822380e-001	 1.474677191845686e+000	-9.962164757527292e-001
1	 4.047335618101469e-001	 1.478939026711766e+000	-8.848959671998289e-001
1	 3.894693118802307e-001	 1.483031901808773e+000	-7.680846091310460e-001
1	 3.742063182928815e-001	 1.486956513530291e+000	-6.471751032764557e-001
1	 3.589471580746030e-001	 1.490713607613841e+000	-5.235858293788924e-001
1	 3.436943779339141e-001	 1.494303978033005e+000	-3.987576684180221e-001
1	 3.284504932603855e-001	 1.497728465867564e+000	-2.741508598673956e-001
1	 3.132179871671370e-001	 1.500987958153400e+000	-1.512418983807864e-001
1	 2.979993095770398e-001	 1.504083386713946e+000	-3.152047506183830e-002
1	 4.583430223207198e-001	 1.491135069356658e+000	-1.826007599246549e+000
1	 4.428254803534434e-001	 1.495816743404018e+000	-1.723706691392630e+000
1	 4.273011768062747e-001	 1.500325257060340e+000	-1.612961271571479e+000
1	 4.117728195150922e-001	 1.504661215143897e+000	-1.495087110487366e+000
1	 3.962430887872053e-001	 1.508825274855080e+000	-1.371435530489568e+000
1	 3.807146362526289e-001	 1.512818144699393e+000	-1.243390092213445e+000
1	 3.651900837583483e-001	 1.516640583384481e+000	-1.112363300216012e+000
1	 3.496720223060638e-001	 1.520293398692991e+000	-9.797933337295630e-001
1	 3.341630110338184e-001	 1.523777446333049e+000	-8.471408084324610e-001
1	 3.186655762418409e-001	 1.527093628768171e+000	-7.158855749042408e-001
1	 3.031822104628573e-001	 1.530242894028381e+000	-5.875235591882166e-001
1	 4.661783977965402e-001	 1.516626028282579e+000	-2.497685909463548e+000
1	 4.503955833981298e-001	 1.521387735563173e+000	-2.393472328609549e+000
1	 4.346058918306375e-001	 1.525973322275190e+000	-2.280518614170076e+000
1	 4.188120772204012e-001	 1.530383403576289e+000	-2.160087972738321e+000
1	 4.030168656945874e-001	 1.534618647901714e+000	-2.033482828665528e+000
1	 3.872229542128297e-001	 1.538679775868886e+000	-1.902041481444199e+000
1	 3.714330094425922e-001	 1.542567559155575e+000	-1.767134776870326e+000
1	 3.556496666787526e-001	 1.546282819353483e+000	-1.630162798310971e+000
1	 3.398755288078227e-001	 1.549826426799085e+000	-1.492551584184049e+000
1	 3.241131653171377e-001	 1.553199299383525e+000	-1.355749877531572e+000
1	 3.083651113492742e-001	 1.556402401343417e+000	-1.221225913327285e+000
1	 4.740137732725954e-001	 1.542116987208505e+000	-3.211808014461964e+000
1	 4.579656864430685e-001	 1.546958727722380e+000	-3.109634153071391e+000
1	 4.419106068552816e-001	 1.551621387490147e+000	-2.998375134628995e+000
1	 4.258513349260275e-001	 1.556105592008849e+000	-2.879206727108624e+000
1	 4.097906426023275e-001	 1.560412020948581e+000	-2.753347801270713e+000
1	 3.937312721734315e-001	 1.564541407038679e+000	-2.622057013617609e+000
1	 3.776759351272779e-001	 1.568494534927029e+000	-2.486629496293666e+000
1	 3.616273110519200e-001	 1.572272240014396e+000	-2.348393560391211e+000
1	 3.455880465823349e-001	 1.575875407265591e+000	-2.208707418917386e+000
1	 3.295607543929616e-001	 1.579304969999389e+000	-2.068955935460310e+000
1	 3.135480122362239e-001	 1.582561908658987e+000	-1.930547404364863e+000
1	 4.818491487488354e-001	 1.567607946134350e+000	-3.968197490634202e+000
1	 4.655357894882130e-001	 1.572529719881547e+000	-3.871869535070049e+000
1	 4.492153218801609e-001	 1.577269452705119e+000	-3.766050855709904e+000
1	 4.328905926319245e-001	 1.581827780441484e+000	-3.651796546091968e+000
1	 4.165644195103768e-001	 1.586205393995587e+000	-3.530208900428855e+000
1	 4.002395901343813e-001	 1.590403038208676e+000	-3.402434175526402e+000
1	 3.839188608123488e-001	 1.594421510698755e+000	-3.269659351230137e+000
1	 3.676049554255054e-001	 1.598261660675640e+000	-3.133108895929653e+000
1	 3.513005643572916e-001	 1.601924387732485e+000	-2.994041543465021e+000
1	 3.350083434692466e-001	 1.605410640615687e+000	-2.853747087575926e+000
1	 3.187309131236399e-001	 1.608721415975027e+000	-2.713543199824965e+000
1	 4.896845242252110e-001	 1.593098905060033e+000	-4.766689206093786e+000
1	 4.731058925335175e-001	 1.598100712040590e+000	-4.679876494314113e+000
1	 4.565200369052303e-001	 1.602917517920015e+000	-4.583096520377152e+000
1	 4.399298503380457e-001	 1.607549968874100e+000	-4.477252001378629e+000
1	 4.233381964186860e-001	 1.611998767042637e+000	-4.363297160167813e+000
1	 4.067479080956264e-001	 1.616264669378785e+000	-4.242234618274273e+000
1	 3.901617864977489e-001	 1.620348486470660e+000	-4.115112277395569e+000
1	 3.735825997994490e-001	 1.624251081337129e+000	-3.983020195983920e+000
1	 3.570130821326290e-001	 1.627973368199685e+000	-3.847087467303060e+000
1	 3.404559325459268e-001	 1.631516311232344e+000	-3.708479105148381e+000
1	 3.239138140114559e-001	 1.634880923291471e+000	-3.568392943234340e+000
1	 4.975198997016721e-001	 1.618589863985467e+000	-5.607128431516244e+000
1	 4.806759955789353e-001	 1.623671704199418e+000	-5.533372073904528e+000
1	 4.638247519304444e-001	 1.628565583134742e+000	-5.449091172755539e+000
1	 4.469691080443443e-001	 1.633272157306603e+000	-5.355005803902804e+000
1	 4.301119733272062e-001	 1.637792140089639e+000	-5.251892055892363e+000
1	 4.132562260571148e-001	 1.642126300548912e+000	-5.140579104699429e+000
1	 3.964047121834211e-001	 1.646275462242651e+000	-5.021946265523846e+000
1	 3.795602441736900e-001	 1.650240501998774e+000	-4.896920028144259e+000
1	 3.627255999082832e-001	 1.654022348667107e+000	-4.766471082174982e+000
1	 3.459035216229365e-001	 1.657621981849286e+000	-4.631611338418200e+000
1	 3.290967148996046e-001	 1.661040430608252e+000	-4.493390952341121e+000
1	 5.053552751781694e-001	 1.644080822910571e+000	-6.489370033697077e+000
1	 4.882460986244200e-001	 1.649242696357945e+000	-6.432090865575721e+000
1	 4.711294669557573e-001	 1.654213648349210e+000	-6.363639964127268e+000
1	 4.540083657507739e-001	 1.658994345738899e+000	-6.284525847157756e+000
1	 4.368857502358880e-001	 1.663585513136495e+000	-6.195317749041875e+000
1	 4.197645440187935e-001	 1.667987931718962e+000	-6.096642926829859e+000
1	 4.026476378693092e-001	 1.672202438014639e+000	-5.989183930461015e+000
1	 3.855378885481680e-001	 1.676229922660488e+000	-5.873675843449767e+000
1	 3.684381176841907e-001	 1.680071329134670e+000	-5.750903500300955e+000
1	 3.513511107002095e-001	 1.683727652466438e+000	-5.621698686798550e+000
1	 3.342796157880199e-001	 1.687199937925307e+000	-5.486937329175039e+000
1	 5.131906506546529e-001	 1.669571781835260e+000	-7.413277742985602e+000
1	 4.958162016699257e-001	 1.674813688516081e+000	-7.375783670036355e+000
1	 4.784341819811238e-001	 1.679861713563326e+000	-7.326372159916841e+000
1	 4.610476234572878e-001	 1.684716534170896e+000	-7.265312521365706e+000
1	 4.436595271446825e-001	 1.689378886183114e+000	-7.192939675767478e+000
1	 4.262728619806099e-001	 1.693849562888844e+000	-7.109651743135349e+000
1	 4.088905635553568e-001	 1.698129413786532e+000	-7.015907577772991e+000
1	 3.915155329228231e-001	 1.702219343322184e+000	-6.912224259800015e+000
1	 3.741506354602882e-001	 1.706120309602293e+000	-6.799174548662707e+000
1	 3.567986997776799e-001	 1.709833323083724e+000	-6.677384304669039e+000
1	 3.394625166766351e-001	 1.713359445242568e+000	-6.547529884495243e+000
1	 5.210260261310729e-001	 1.695062740759449e+000	-8.378723486818856e+000
1	 5.033863047154056e-001	 1.700384680673739e+000	-8.364216278188149e+000
1	 4.857388970064985e-001	 1.705509778777000e+000	-8.336939326505460e+000
1	 4.680868811638396e-001	 1.710438722602501e+000	-8.296896269991279e+000
1	 4.504333040535406e-001	 1.715172259229400e+000	-8.244161443412487e+000
1	 4.327811799425116e-001	 1.719711194058461e+000	-8.178877791385048e+000
1	 4.151334892415070e-001	 1.724056389558237e+000	-8.101254715493472e+000
1	 3.974931772975945e-001	 1.728208763983774e+000	-8.011565861175509e+000
1	 3.798631532365116e-001	 1.732169290069893e+000	-7.910146850299753e+000
1	 3.622462888552822e-001	 1.735938993701071e+000	-7.797392965327508e+000
1	 3.446454175653835e-001	 1.739518952559971e+000	-7.673756790896193e+000
1	 5.288614016073798e-001	 1.720553699683057e+000	-9.385586782499505e+000
1	 5.109564077608136e-001	 1.725955672830829e+000	-9.397168360685130e+000
1	 4.930436120318358e-001	 1.731157843990140e+000	-9.395013679225933e+000
1	 4.751261388703825e-001	 1.736160911033618e+000	-9.378835363463670e+000
1	 4.572070809624128e-001	 1.740965632275259e+000	-9.348422002875404e+000
1	 4.392894979044457e-001	 1.745572825227722e+000	-9.303636438156111e+000
1	 4.213764149277033e-001	 1.749983365329663e+000	-9.244413964848228e+000
1	 4.034708216724219e-001	 1.754198184645169e+000	-9.170760459172129e+000
1	 3.855756710127974e-001	 1.758218270537387e+000	-9.082750431739390e+000
1	 3.676938779329501e-001	 1.762044664318403e+000	-8.980525014841611e+000
1	 3.498283184541984e-001	 1.765678459877450e+000	-8.864289889003723e+000
1	 2.979993095770398e-001	 1.504083386713946e+000	-3.152047506183919e-002
1	 2.827991546839796e-001	 1.507015299539558e+000	 8.751974002526719e-002
1	 2.676176157253357e-001	 1.509785191633430e+000	 2.081985753012567e-001
1	 2.524570335663321e-001	 1.512394122787768e+000	 3.286890166117047e-001
1	 2.373197127666058e-001	 1.514843192712843e+000	 4.471712121460509e-001
1	 2.222079208870840e-001	 1.517133539803352e+000	 5.618356037578636e-001
1	 2.071238878404344e-001	 1.519266339896487e+000	 6.708859610864497e-001
1	 1.920698052848561e-001	 1.521242805023325e+000	 7.725423152849267e-001
1	 1.770478260609266e-001	 1.523064182155104e+000	 8.650437894911267e-001
1	 1.620600636711561e-001	 1.524731751945950e+000	 9.466513235029499e-001
1	 1.471085918018470e-001	 1.526246827473539e+000	 1.015650290444055e+000
1	 3.031822104628573e-001	 1.530242894028381e+000	-5.875235591882175e-001
1	 2.877176895336974e-001	 1.533225799634873e+000	-4.594243669589408e-001
1	 2.722721083133524e-001	 1.536043866592424e+000	-3.291548687820143e-001
1	 2.568478483801321e-001	 1.538698173125490e+000	-1.985729250775474e-001
1	 2.414472543753203e-001	 1.541189838070859e+000	-6.953232311220248e-002
1	 2.260726332979977e-001	 1.543520019622557e+000	 5.612051914796545e-002
1	 2.107262538441946e-001	 1.545689914068317e+000	 1.765497522567987e-001
1	 1.954103457901389e-001	 1.547700754519251e+000	 2.899331940553083e-001
1	 1.801270994193081e-001	 1.549553809634327e+000	 3.944653248024341e-001
1	 1.648786649929317e-001	 1.551250382341223e+000	 4.883601758236527e-001
1	 1.496671522635358e-001	 1.552791808555088e+000	 5.698541091655187e-001
1	 3.083651113492742e-001	 1.556402401343417e+000	-1.221225913327285e+000
1	 2.926362243840045e-001	 1.559436299730789e+000	-1.086207300856156e+000
1	 2.769266009019345e-001	 1.562302541552006e+000	-9.481229767437380e-001
1	 2.612386631944636e-001	 1.565002223463775e+000	-8.088174972969870e-001
1	 2.455747959845265e-001	 1.567536483429407e+000	-6.701350625926494e-001
1	 2.299373457093614e-001	 1.569906499442260e+000	-5.339161139743176e-001
1	 2.143286198483654e-001	 1.572113488240613e+000	-4.019940256915948e-001
1	 1.987508862957987e-001	 1.574158704015619e+000	-2.761918944969892e-001
1	 1.832063727780428e-001	 1.576043437113978e+000	-1.583194306721776e-001
1	 1.676972663150504e-001	 1.577769012736920e+000	-5.016995361254750e-002
1	 1.522257127255744e-001	 1.579336789637072e+000	 4.648250524040165e-002
1	 3.135480122362239e-001	 1.582561908658987e+000	-1.930547404364862e+000
1	 2.975547592348356e-001	 1.585646799827251e+000	-1.790545611142603e+000
1	 2.815810934910189e-001	 1.588561216512131e+000	-1.646213368672729e+000
1	 2.656294780092666e-001	 1.591306273802593e+000	-1.499340028257796e+000
1	 2.497023375941679e-001	 1.593883128788470e+000	-1.351718911534764e+000
1	 2.338020581211217e-001	 1.596292979262458e+000	-1.205143858387473e+000
1	 2.179309858528950e-001	 1.598537062413384e+000	-1.061405863762833e+000
1	 2.020914268017839e-001	 1.600616653512443e+000	-9.222898074593875e-001
1	 1.862856461370769e-001	 1.602533064594071e+000	-7.895712806162614e-001
1	 1.705158676374531e-001	 1.604287643133056e+000	-6.650135122884269e-001
1	 1.547842731878955e-001	 1.605881770719505e+000	-5.503643991595517e-001
1	 3.187309131236399e-001	 1.608721415975027e+000	-2.713543199824965e+000
1	 3.024732940861249e-001	 1.611857299924204e+000	-2.570304372555485e+000
1	 2.862355860805425e-001	 1.614819891472758e+000	-2.421095779567794e+000
1	 2.700202928244815e-001	 1.617610324141914e+000	-2.267611769440514e+000
1	 2.538298792041880e-001	 1.620229774148032e+000	-2.111555580377694e+000
1	 2.376667705332248e-001	 1.622679459083146e+000	-1.954635893718846e+000
1	 2.215333518577315e-001	 1.624960636586632e+000	-1.798563468719564e+000
1	 2.054319673080427e-001	 1.627074603009736e+000	-1.645047862886592e+000
1	 1.893649194963564e-001	 1.629022692074626e+000	-1.495794241820445e+000
1	 1.733344689600810e-001	 1.630806273529654e+000	-1.352500282186655e+000
1	 1.573428336504320e-001	 1.632426751802405e+000	-1.216853171108571e+000
1	 3.239138140114559e-001	 1.634880923291471e+000	-3.568392943234338e+000
1	 3.073918289378070e-001	 1.638067800021594e+000	-3.423485302430200e+000
1	 2.908900786704422e-001	 1.641078566433845e+000	-3.270589089444328e+000
1	 2.744111076400481e-001	 1.643914374481710e+000	-3.111265820973406e+000
1	 2.579574208145303e-001	 1.646576419508075e+000	-2.947091399524293e+000
1	 2.415314829456173e-001	 1.649065938904318e+000	-2.779652726217188e+000
1	 2.251357178628232e-001	 1.651384210760366e+000	-2.610544384884330e+000
1	 2.087725078145234e-001	 1.653532552507511e+000	-2.441365401927593e+000
1	 1.924441928558274e-001	 1.655512319555662e+000	-2.273716086083320e+000
1	 1.761530702828751e-001	 1.657324903926732e+000	-2.109194951926876e+000
1	 1.599013941131164e-001	 1.658971732885789e+000	-1.949395730635201e+000
1	 3.290967148996046e-001	 1.661040430608252e+000	-4.493390952341121e+000
1	 3.123103637898164e-001	 1.664278300119366e+000	-4.348216000868694e+000
1	 2.955445712606551e-001	 1.667337241395350e+000	-4.192649579007995e+000
1	 2.788019224559070e-001	 1.670218424821950e+000	-4.028084386966952e+000
1	 2.620849624251384e-001	 1.672923064868585e+000	-3.855933569006815e+000
1	 2.453961953582452e-001	 1.675452418725970e+000	-3.677627437840853e+000
1	 2.287380838681181e-001	 1.677807784934590e+000	-3.494610258061977e+000
1	 2.121130483211740e-001	 1.679990502005782e+000	-3.308337093206617e+000
1	 1.955234662154361e-001	 1.682001947037197e+000	-3.120270720770611e+000
1	 1.789716716057765e-001	 1.683843534324309e+000	-2.931878619197326e+000
1	 1.624599545758813e-001	 1.685516713969673e+000	-2.744630030565547e+000
1	 3.342796157880199e-001	 1.687199937925307e+000	-5.486937329175039e+000
1	 3.172288986420876e-001	 1.690488800217466e+000	-5.342740191874506e+000
1	 3.001990638511181e-001	 1.693595916357230e+000	-5.185360277880994e+000
1	 2.831927372719980e-001	 1.696522475162607e+000	-5.015987216460641e+000
1	 2.662125040359557e-001	 1.699269710229544e+000	-4.835837687320238e+000
1	 2.492609077710551e-001	 1.701838898548098e+000	-4.646152307595804e+000
1	 2.323404498735643e-001	 1.704231359109308e+000	-4.448192563360198e+000
1	 2.154535888279430e-001	 1.706448451504562e+000	-4.243237790366043e+000
1	 1.986027395751284e-001	 1.708491574519248e+000	-4.032582208477699e+000
1	 1.817902729287263e-001	 1.710362164722407e+000	-3.817532013980239e+000
1	 1.650185150386595e-001	 1.712061695054074e+000	-3.599402533684350e+000
1	 3.394625166766351e-001	 1.713359445242568e+000	-6.547529884495241e+000
1	 3.221474334945552e-001	 1.716699300315839e+000	-6.405408858476104e+000
1	 3.048535564417679e-001	 1.719854591319443e+000	-6.246921288613193e+000
1	 2.875835520882613e-001	 1.722826525503650e+000	-6.073021103268799e+000
1	 2.703400456469258e-001	 1.725616355590934e+000	-5.884696422711505e+000
1	 2.531256201839935e-001	 1.728225378370697e+000	-5.682966658462847e+000
1	 2.359428158791100e-001	 1.730654933284528e+000	-5.468879640452759e+000
1	 2.187941293347785e-001	 1.732906401003864e+000	-5.243508776776251e+000
1	 2.016820129348505e-001	 1.734981202001836e+000	-5.007950250615554e+000
1	 1.846088742516656e-001	 1.736880795121043e+000	-4.763320258660690e+000
1	 1.675770755013836e-001	 1.738606676139007e+000	-4.510752295124574e+000
1	 3.446454175653835e-001	 1.739518952559971e+000	-7.673756790896195e+000
1	 3.270659683471535e-001	 1.742909800414432e+000	-7.534672177728923e+000
1	 3.095080490325420e-001	 1.746113266281949e+000	-7.375640983759884e+000
1	 2.919743669046374e-001	 1.749130575845050e+000	-7.197350333257181e+000
1	 2.744675872579921e-001	 1.751963000952741e+000	-7.000529206660199e+000
1	 2.569903325970065e-001	 1.754611858193761e+000	-6.785945800898649e+000
1	 2.395451818847033e-001	 1.757078507460254e+000	-6.554404898652376e+000
1	 2.221346698416288e-001	 1.759364350503704e+000	-6.306745251387198e+000
1	 2.047612862945485e-001	 1.761470829484977e+000	-6.043836980814611e+000
1	 1.874274755745354e-001	 1.763399425520238e+000	-5.766579003232510e+000
1	 1.701356359639864e-001	 1.765151657224491e+000	-5.475896481004980e+000
1	 3.498283184541984e-001	 1.765678459877450e+000	-8.864289889003723e+000
1	 3.319845031998168e-001	 1.769120300513189e+000	-8.729072172642059e+000
1	 3.141625416233768e-001	 1.772371941244702e+000	-8.569927985479804e+000
1	 2.963651817210660e-001	 1.775434626186778e+000	-8.387247980792338e+000
1	 2.785951288690982e-001	 1.778309646314946e+000	-8.181472843539439e+000
1	 2.608550450100406e-001	 1.780998338017287e+000	-7.953090959185429e+000
1	 2.431475478902924e-001	 1.783502081636491e+000	-7.702636070474414e+000
1	 2.254752103484421e-001	 1.785822300004091e+000	-7.430684927004380e+000
1	 2.078405596541684e-001	 1.787960456968690e+000	-7.137854932307004e+000
1	 1.902460768972767e-001	 1.789918055920011e+000	-6.824801792992263e+000
1	 1.726941964264004e-001	 1.791696638310540e+000	-6.492217174364525e+000
1	 1.471085918018470e-001	 1.526246827473539e+000	 1.015650290444055e+000
1	 1.321932148552253e-001	 1.527610946368682e+000	 1.075438507593114e+000
1	 1.173181978656277e-001	 1.528825244973612e+000	 1.129133937108444e+000
1	 1.024855234592911e-001	 1.529891127063641e+000	 1.174683992932319e+000
1	 8.769713199628007e-002	 1.530810023842251e+000	 1.210083274566085e+000
1	 7.295492130095019e-002	 1.531583392679664e+000	 1.233375728566495e+000
1	 5.826074643223207e-002	 1.532212715858080e+000	 1.242656670172401e+000
1	 4.361641949297341e-002	 1.532699499324805e+000	 1.236074665744290e+000
1	 2.902370947754199e-002	 1.533045271454459e+000	 1.211833276978002e+000
1	 1.448434215685874e-002	 1.533251581821384e+000	 1.168192668121245e+000
1	 0.000000000000000e+000	 1.533319999983334e+000	 1.103471077675614e+000
1	 1.496671522635358e-001	 1.552791808555088e+000	 5.698541091655169e-001
1	 1.344923622314420e-001	 1.554179652649704e+000	 6.425094271062672e-001
1	 1.193586341098445e-001	 1.555415070730929e+000	 7.095111739434863e-001
1	 1.042679850074530e-001	 1.556499490988984e+000	 7.686149969315643e-001
1	 8.922238903169831e-002	 1.557434369519299e+000	 8.176229137924178e-001
1	 7.422377701450725e-002	 1.558221189039145e+000	 8.543858371379027e-001
1	 5.927403627859163e-002	 1.558861457611046e+000	 8.768059488794133e-001
1	 4.437501044347431e-002	 1.559356707374226e+000	 8.828389249820869e-001
1	 2.952849927044171e-002	 1.559708493285285e+000	 8.704960112353284e-001
1	 1.473625854557721e-002	 1.559918391869259e+000	 8.378459510127119e-001
1	 0.000000000000000e+000	 1.559987999982150e+000	 7.830167662803920e-001
1	 1.522257127255744e-001	 1.579336789637072e+000	 4.648250524040165e-002
1	 1.367915096080340e-001	 1.580748358931190e+000	 1.353649966208064e-001
1	 1.213990703544734e-001	 1.582004896488756e+000	 2.197186527436994e-001
1	 1.060504465560657e-001	 1.583107854914894e+000	 2.971293361799603e-001
1	 9.074764606759822e-002	 1.584058715196977e+000	 3.652279418898452e-001
1	 7.549263272855999e-002	 1.584858985399321e+000	 4.216932635996731e-001
1	 6.028732612543496e-002	 1.585510199364770e+000	 4.642547013402947e-001
1	 4.513360139441219e-002	 1.586013915424461e+000	 4.906948101766755e-001
1	 3.003328906368792e-002	 1.586371715116970e+000	 4.988516905053739e-001
1	 1.498817493449935e-002	 1.586585201918022e+000	 4.866212206278977e-001
1	 0.000000000000000e+000	 1.586655999981867e+000	 4.519591326262908e-001
1	 1.547842731878955e-001	 1.605881770719505e+000	-5.503643991595517e-001
1	 1.390906569849224e-001	 1.607317065213150e+000	-4.417261696936095e-001
1	 1.234395065994218e-001	 1.608594722247091e+000	-3.358064706198256e-001
1	 1.078329081050233e-001	 1.609716218841356e+000	-2.351685982472080e-001
1	 9.227290310386363e-002	 1.610683060875255e+000	-1.423326654398096e-001
1	 7.676148844298700e-002	 1.611496781760145e+000	-5.977241335208205e-002
1	 6.130061597264240e-002	 1.612158941119188e+000	 1.008781045250373e-002
1	 4.589219234567837e-002	 1.612671123475431e+000	 6.487590719732239e-002
1	 3.053807885719418e-002	 1.613034936949425e+000	 1.022747154788188e-001
1	 1.524009132357428e-002	 1.613252011967578e+000	 1.200245336775616e-001
1	 0.000000000000000e+000	 1.613323999982383e+000	 1.159254769760914e-001
1	 1.573428336504320e-001	 1.632426751802405e+000	-1.216853171108570e+000
1	 1.413898043620276e-001	 1.633885771495591e+000	-1.084773106343089e+000
1	 1.254799428445967e-001	 1.635184548005932e+000	-9.529156516152781e-001
1	 1.096153696542199e-001	 1.636324582768351e+000	-8.239739042976648e-001
1	 9.379816014037852e-002	 1.637307406554097e+000	-7.006001267973741e-001
1	 7.803034415766681e-002	 1.638134578121566e+000	-5.854022556219416e-001
1	 6.231390582009428e-002	 1.638807682874235e+000	-4.809405831297919e-001
1	 4.665078329716412e-002	 1.639328331527060e+000	-3.897246126010643e-001
1	 3.104286865087403e-002	 1.639698158782559e+000	-3.142100868608431e-001
1	 1.549200771275109e-002	 1.639918822017827e+000	-2.567961903012552e-001
1	 0.000000000000000e+000	 1.639991999983600e+000	-2.198229237768956e-001
1	 1.599013941131164e-001	 1.658971732885789e+000	-1.949395730635198e+000
1	 1.436889517392708e-001	 1.660454477778524e+000	-1.790040283416383e+000
1	 1.275203790899055e-001	 1.661774373765276e+000	-1.627725866896427e+000
1	 1.113978312035497e-001	 1.662932946695862e+000	-1.465257208527294e+000
1	 9.532341717702664e-002	 1.663931752233472e+000	-1.305401038202955e+000
1	 7.929919987247795e-002	 1.664772374483535e+000	-1.150882313082700e+000
1	 6.332719566767089e-002	 1.665456424629846e+000	-1.004380620188254e+000
1	 4.740937424876072e-002	 1.665985539579266e+000	-8.685267577475564e-001
1	 3.154765844464098e-002	 1.666361380616284e+000	-7.458994958323295e-001
1	 1.574392410197889e-002	 1.666585632068675e+000	-6.390225164257544e-001
1	 0.000000000000000e+000	 1.666659999985416e+000	-5.503615326600340e-001
1	 1.624599545758813e-001	 1.685516713969673e+000	-2.744630030565549e+000
1	 1.459880991165724e-001	 1.687023184061957e+000	-2.554027492478060e+000
1	 1.295608153352552e-001	 1.688364199525119e+000	-2.356598706012020e+000
1	 1.131802927529069e-001	 1.689541310623874e+000	-2.155242969781238e+000
1	 9.684867421369196e-002	 1.690556097913347e+000	-1.952824901239053e+000
1	 8.056805558729903e-002	 1.691410170846006e+000	-1.752170394942802e+000
1	 6.434048551525259e-002	 1.692105166385958e+000	-1.556062762500172e+000
1	 4.816796520035946e-002	 1.692642747631973e+000	-1.367239055512098e+000
1	 3.205244823840858e-002	 1.693024602450508e+000	-1.188386572380981e+000
1	 1.599584049120678e-002	 1.693252442120022e+000	-1.022139549416700e+000
1	 0.000000000000000e+000	 1.693327999987733e+000	-8.710760362597583e-001
1	 1.650185150386595e-001	 1.712061695054074e+000	-3.599402533684346e+000
1	 1.482872464938533e-001	 1.713591890345899e+000	-3.373451603639726e+000
1	 1.316012515805531e-001	 1.714954025285460e+000	-3.136121408174054e+000
1	 1.149627543021856e-001	 1.716149674552369e+000	-2.890389801243412e+000
1	 9.837393125025834e-002	 1.717180443593689e+000	-2.639203741708956e+000
1	 8.183691130200858e-002	 1.718047967208927e+000	-2.385475002029509e+000
1	 6.535377536271966e-002	 1.718753908142506e+000	-2.132076061392080e+000
1	 4.892655615185163e-002	 1.719299955685101e+000	-1.881836184942710e+000
1	 3.255723803209034e-002	 1.719687824285143e+000	-1.637537690310264e+000
1	 1.624775688038386e-002	 1.719919252171772e+000	-1.401912402166460e+000
1	 0.000000000000000e+000	 1.719995999990450e+000	-1.177638295126197e+000
1	 1.675770755013836e-001	 1.738606676139007e+000	-4.510752295124574e+000
1	 1.505863938710343e-001	 1.740160596630358e+000	-4.245229993824811e+000
1	 1.336416878257064e-001	 1.741543851046296e+000	-3.963089636205480e+000
1	 1.167452158512799e-001	 1.742758038481331e+000	-3.667372595138923e+000
1	 9.989918828660967e-002	 1.743804789274467e+000	-3.361093595384030e+000
1	 8.310576701648516e-002	 1.744685763572250e+000	-3.047236189038653e+000
1	 6.636706520995245e-002	 1.745402649899424e+000	-2.728748417063887e+000
1	 4.968514710312848e-002	 1.745957163738571e+000	-2.408538658889807e+000
1	 3.306202782559982e-002	 1.746351046120098e+000	-2.089471671630989e+000
1	 1.649967326945923e-002	 1.746586062223827e+000	-1.774364819969225e+000
1	 0.000000000000000e+000	 1.746663999993467e+000	-1.465984497308053e+000
1	 1.701356359639864e-001	 1.765151657224491e+000	-5.475896481004982e+000
1	 1.528855412480362e-001	 1.766729302915346e+000	-5.166465470304065e+000
1	 1.356821240706222e-001	 1.768133676807624e+000	-4.834491804797318e+000
1	 1.185276774000841e-001	 1.769366402410742e+000	-4.483066260327696e+000
1	 1.014244453226298e-001	 1.770429134955645e+000	-4.115257664294933e+000
1	 8.437462273060729e-002	 1.771323559935926e+000	-3.734108153586963e+000
1	 6.738035505683125e-002	 1.772051391656649e+000	-3.342628619115899e+000
1	 5.044373805408137e-002	 1.772614371792307e+000	-2.943794339324469e+000
1	 3.356681761885053e-002	 1.773014267955283e+000	-2.540540804530235e+000
1	 1.675158965838199e-002	 1.773252872276091e+000	-2.135759733489497e+000
1	 0.000000000000000e+000	 1.773331999996684e+000	-1.732295283096445e+000
1	 1.726941964264004e-001	 1.791696638310540e+000	-6.492217174364525e+000
1	 1.551846886247798e-001	 1.793298009200867e+000	-6.134432534427790e+000
1	 1.377225603152077e-001	 1.794723502569440e+000	-5.747494801879272e+000
1	 1.203101389484923e-001	 1.795974766340584e+000	-5.334530905516861e+000
1	 1.029497023582027e-001	 1.797053480637195e+000	-4.898650970316432e+000
1	 8.564347844425359e-002	 1.797961356299908e+000	-4.442943372980935e+000
1	 6.839364490323641e-002	 1.798700133414115e+000	-3.970469983553972e+000
1	 5.120232900460153e-002	 1.799271579846228e+000	-3.484261595821678e+000
1	 3.407160741175602e-002	 1.799677489790610e+000	-2.987313548716884e+000
1	 1.700350604710123e-002	 1.799919682328466e+000	-2.482581540442119e+000
1	 0.000000000000000e+000	 1.800000000000000e+000	-1.972977636546482e+000
1	 1.800000000000000e+000	 0.000000000000000e+000	 4.377617392157512e+001
1	 1.799919682328466e+000	 1.700350604710072e-002	 4.293166842430500e+001
1	 1.799677489790610e+000	 3.407160741175556e-002	 4.209454018804367e+001
1	 1.799271579846229e+000	 5.120232900460113e-002	 4.126299785592113e+001
1	 1.798700133414114e+000	 6.839364490323606e-002	 4.043522511300101e+001
1	 1.797961356299907e+000	 8.564347844425327e-002	 3.960938263616258e+001
1	 1.797053480637195e+000	 1.029497023582024e-001	 3.878361013609708e+001
1	 1.795974766340585e+000	 1.203101389484920e-001	 3.795602849074346e+001
1	 1.794723502569440e+000	 1.377225603152076e-001	 3.712474196926313e+001
1	 1.793298009200866e+000	 1.551846886247796e-001	 3.628784054542079e+001
1	 1.791696638310540e+000	 1.726941964264003e-001	 3.544340229900040e+001
1	 1.826668000003317e+000	 0.000000000000000e+000	 4.534849386224565e+001
1	 1.826586492380854e+000	 1.725542243558252e-002	 4.446027284738656e+001
1	 1.826340711625984e+000	 3.457639720425813e-002	 4.357854827868999e+001
1	 1.825928787900252e+000	 5.196091995461603e-002	 4.270149387359022e+001
1	 1.825348875171750e+000	 6.940693474908762e-002	 4.182725920484387e+001
1	 1.824599152664132e+000	 8.691233415734243e-002	 4.095397171894891e+001
1	 1.823677826319064e+000	 1.044749593932499e-001	 4.007973884739135e+001
1	 1.822583130270824e+000	 1.220926004964327e-001	 3.920265020994394e+001
1	 1.821313328331721e+000	 1.397629965593995e-001	 3.832077990901026e+001
1	 1.819866715486908e+000	 1.574838360012100e-001	 3.743218891377013e+001
1	 1.818241619397147e+000	 1.752527568885780e-001	 3.653492753263999e+001
1	 1.853336000006534e+000	 0.000000000000000e+000	 4.695704729833740e+001
1	 1.853253302433154e+000	 1.750733882386080e-002	 4.602450918360198e+001
1	 1.853003933461306e+000	 3.508118699641537e-002	 4.509730154903128e+001
1	 1.852585995954273e+000	 5.271951090419779e-002	 4.417357868095893e+001
1	 1.851997616929445e+000	 7.042022459446448e-002	 4.325147306201963e+001
1	 1.851236949028488e+000	 8.818118986995369e-002	 4.232909746940762e+001
1	 1.850302172001139e+000	 1.060002164278468e-001	 4.140454716457008e+001
1	 1.849191494201343e+000	 1.238750620439719e-001	 4.047590217337109e+001
1	 1.847903154094349e+000	 1.418034328032531e-001	 3.954122965552885e+001
1	 1.846435421773350e+000	 1.597829833773704e-001	 3.859858636188824e+001
1	 1.844786600484193e+000	 1.778113173505509e-001	 3.764602117784448e+001
1	 1.880004000009551e+000	 0.000000000000000e+000	 4.859896070882243e+001
1	 1.879920112485265e+000	 1.775925521198643e-002	 4.762118927869458e+001
1	 1.879667155296469e+000	 3.558597678831360e-002	 4.664734499028409e+001
1	 1.879243204008180e+000	 5.347810185345472e-002	 4.567557746628642e+001
1	 1.878646358687084e+000	 7.143351443948540e-002	 4.470401835193684e+001
1	 1.877874745392853e+000	 8.945004558220661e-002	 4.373078350412876e+001
1	 1.876926517683291e+000	 1.075254734621056e-001	 4.275397526850964e+001
1	 1.875799858132006e+000	 1.256575235912099e-001	 4.177168484331667e+001
1	 1.874492979857182e+000	 1.438438690468528e-001	 4.078199472848115e+001
1	 1.873004128060052e+000	 1.620821307533283e-001	 3.978298125828719e+001
1	 1.871331581571538e+000	 1.803698778123701e-001	 3.877271721562556e+001
1	 1.906672000012267e+000	 0.000000000000000e+000	 5.027152133665761e+001
1	 1.906586922537085e+000	 1.801117160001032e-002	 4.924730334508927e+001
1	 1.906330377131368e+000	 3.609076658003917e-002	 4.822541688998180e+001
1	 1.905900412061863e+000	 5.423669280249505e-002	 4.720402101140293e+001
1	 1.905295100444551e+000	 7.244680428426897e-002	 4.618126204349748e+001
1	 1.904512541757102e+000	 9.071890129422063e-002	 4.515527590521925e+001
1	 1.903550863365390e+000	 1.090507304961391e-001	 4.412419047355797e+001
1	 1.902408222062676e+000	 1.274399851382472e-001	 4.308612803766908e+001
1	 1.901082805620080e+000	 1.458843052902832e-001	 4.203920783207668e+001
1	 1.899572834346870e+000	 1.643812781291510e-001	 4.098154864688144e+001
1	 1.897876562659040e+000	 1.829284382740870e-001	 3.991127151265980e+001
1	 1.933340000014584e+000	 0.000000000000000e+000	 5.197216610109656e+001
1	 1.933253732588514e+000	 1.826308798798332e-002	 5.090000766016902e+001
1	 1.932993598965897e+000	 3.659555637167840e-002	 4.982843550057311e+001
1	 1.932557620115213e+000	 5.499528375142715e-002	 4.875563151218243e+001
1	 1.931943842201727e+000	 7.346009412893390e-002	 4.767977155802689e+001
1	 1.931150338121113e+000	 9.198775700611517e-002	 4.659902787713909e+001
1	 1.930175209047304e+000	 1.105759875300598e-001	 4.551157156242815e+001
1	 1.929016585993217e+000	 1.292224466851841e-001	 4.441557511154954e+001
1	 1.927672631382903e+000	 1.479247415336291e-001	 4.330921504850573e+001
1	 1.926141540633660e+000	 1.666804255049064e-001	 4.219067461347355e+001
1	 1.924421543746556e+000	 1.854869987357526e-001	 4.105814651811694e+001
1	 1.960008000016401e+000	 0.000000000000000e+000	 5.369847141516036e+001
1	 1.959920542639449e+000	 1.851500437595633e-002	 5.257661326881964e+001
1	 1.959656820799952e+000	 3.710034616331763e-002	 5.145348679634863e+001
1	 1.959214828168119e+000	 5.575387470035926e-002	 5.032730955658138e+001
1	 1.958592583958498e+000	 7.447338397359885e-002	 4.919630113242812e+001
1	 1.957788134484761e+000	 9.325661271800977e-002	 4.805868565609843e+001
1	 1.956799554728904e+000	 1.121012445639806e-001	 4.691269439993445e+001
1	 1.955624949923494e+000	 1.310049082321211e-001	 4.575656843030290e+001
1	 1.954262457145510e+000	 1.499651777769750e-001	 4.458856132176405e+001
1	 1.952710246920282e+000	 1.689795728806617e-001	 4.340694192850423e+001
1	 1.950966524833943e+000	 1.880455591974182e-001	 4.220999720978362e+001
1	 1.986676000017618e+000	 0.000000000000000e+000	 5.544814382321546e+001
1	 1.986587352689790e+000	 1.876692076398024e-002	 5.427457559587868e+001
1	 1.986320042633430e+000	 3.760513595504324e-002	 5.309781321643111e+001
1	 1.985872036220470e+000	 5.651246564939969e-002	 5.191612215147308e+001
1	 1.985241325714745e+000	 7.548667381838249e-002	 5.072777928065588e+001
1	 1.984425930847923e+000	 9.452546843002384e-002	 4.953107555431964e+001
1	 1.983423900410059e+000	 1.136265015980141e-001	 4.832431870540688e+001
1	 1.982233313853369e+000	 1.327873697791584e-001	 4.710583601250136e+001
1	 1.980852282907762e+000	 1.520056140204055e-001	 4.587397711061814e+001
1	 1.979278953206592e+000	 1.712787202564845e-001	 4.462711684614268e+001
1	 1.977511505921061e+000	 1.906041196591351e-001	 4.336365817209444e+001
1	 2.013344000018134e+000	 0.000000000000000e+000	 5.721901138261811e+001
1	 2.013254162739435e+000	 1.901883715210593e-002	 5.599148488412121e+001
1	 2.012983264466222e+000	 3.810992574694156e-002	 5.475880330240302e+001
1	 2.012529244272157e+000	 5.727105659865671e-002	 5.351929170103470e+001
1	 2.011890067470353e+000	 7.649996366340350e-002	 5.227129725167377e+001
1	 2.011063727210475e+000	 9.579432414227686e-002	 5.101319203394044e+001
1	 2.010048246090639e+000	 1.151517586322730e-001	 4.974337587635070e+001
1	 2.008841677782708e+000	 1.345698313263965e-001	 4.846027923447944e+001
1	 2.007442108669516e+000	 1.540460502640053e-001	 4.716236610230957e+001
1	 2.005847659492447e+000	 1.735778676324424e-001	 4.584813695250339e+001
1	 2.004056487007766e+000	 1.931626801209544e-001	 4.451613170112010e+001
1	 2.040012000017851e+000	 0.000000000000000e+000	 5.900901572133866e+001
1	 2.039920972788282e+000	 1.927075354038426e-002	 5.772505738224152e+001
1	 2.039646486298226e+000	 3.861471553909890e-002	 5.643398214870479e+001
1	 2.039186452323067e+000	 5.802964754823859e-002	 5.513418584961269e+001
1	 2.038538809225204e+000	 7.751325350878056e-002	 5.382409839271001e+001
1	 2.037701523572295e+000	 9.706317985488829e-002	 5.250218671633839e+001
1	 2.036672591770513e+000	 1.166770156668700e-001	 5.116695776715572e+001
1	 2.035450041711373e+000	 1.363522928739357e-001	 4.981696149926093e+001
1	 2.034031934430634e+000	 1.560864865078590e-001	 4.845079388993284e+001
1	 2.032416365777704e+000	 1.758770150086029e-001	 4.706709996698509e+001
1	 2.030601468093916e+000	 1.957212405829273e-001	 4.566457684253876e+001
1	 2.066680000016667e+000	 0.000000000000000e+000	 6.081620471050593e+001
1	 2.066587782836232e+000	 1.952266992886615e-002	 5.947312721508492e+001
1	 2.066309708129337e+000	 3.911950533160163e-002	 5.812100259238946e+001
1	 2.065843660373092e+000	 5.878823849825369e-002	 5.675830811098125e+001
1	 2.065187550979180e+000	 7.852654335463229e-002	 5.538356833603909e+001
1	 2.064339319933259e+000	 9.833203556797764e-002	 5.399535824238358e+001
1	 2.063296937449552e+000	 1.182022727019178e-001	 5.259230633658822e+001
1	 2.062058405639229e+000	 1.381347544218766e-001	 5.117309778276891e+001
1	 2.060621760190973e+000	 1.581269227520511e-001	 4.973647752644126e+001
1	 2.058985072062221e+000	 1.781761623850334e-001	 4.828125341064146e+001
1	 2.057146449179369e+000	 1.982798010451050e-001	 4.680629927831798e+001
1	 1.791696638310540e+000	 1.726941964264003e-001	 3.544340229900040e+001
1	 1.789918055920011e+000	 1.902460768972756e-001	 3.460066681736107e+001
1	 1.787960456968690e+000	 2.078405596541674e-001	 3.376910643969570e+001
1	 1.785822300004091e+000	 2.254752103484413e-001	 3.294753763918938e+001
1	 1.783502081636491e+000	 2.431475478902917e-001	 3.213479829460518e+001
1	 1.780998338017288e+000	 2.608550450100401e-001	 3.132974989635996e+001
1	 1.778309646314947e+000	 2.785951288690978e-001	 3.053127976552916e+001
1	 1.775434626186778e+000	 2.963651817210659e-001	 2.973830328181060e+001
1	 1.772371941244702e+000	 3.141625416233767e-001	 2.894976611633491e+001
1	 1.769120300513189e+000	 3.319845031998169e-001	 2.816464646506995e+001
1	 1.765678459877450e+000	 3.498283184541984e-001	 2.738195727843729e+001
1	 1.818241619397147e+000	 1.752527568885780e-001	 3.653492753263999e+001
1	 1.816436686320356e+000	 1.930646782198457e-001	 3.563867608368175e+001
1	 1.814450084452968e+000	 2.109198330136686e-001	 3.475337714953956e+001
1	 1.812280249505019e+000	 2.288157508551775e-001	 3.387789173450737e+001
1	 1.809925655813227e+000	 2.467499138958355e-001	 3.301110630682596e+001
1	 1.807384817841254e+000	 2.647197574230519e-001	 3.215193500965167e+001
1	 1.804656291677525e+000	 2.827226704801977e-001	 3.129932187797790e+001
1	 1.801738676528800e+000	 3.007559965374987e-001	 3.045224305733825e+001
1	 1.798630616207664e+000	 3.188170342142214e-001	 2.960970901998376e+001
1	 1.795330800612062e+000	 3.369030380524930e-001	 2.877076677410300e+001
1	 1.791837967194950e+000	 3.550112193430273e-001	 2.793450206153252e+001
1	 1.844786600484193e+000	 1.778113173505509e-001	 3.764602117784448e+001
1	 1.842955316721160e+000	 1.958832795422661e-001	 3.669370579295239e+001
1	 1.840939711937706e+000	 2.139991063730644e-001	 3.575208924937508e+001
1	 1.838738199006388e+000	 2.321562913618431e-001	 3.482008452725823e+001
1	 1.836349229990371e+000	 2.503522799013354e-001	 3.389663469532444e+001
1	 1.833771297665584e+000	 2.685844698360398e-001	 3.298071512617277e+001
1	 1.831002937040409e+000	 2.868502120912876e-001	 3.207133570958293e+001
1	 1.828042726871060e+000	 3.051468113539313e-001	 3.116754305942339e+001
1	 1.824889291170791e+000	 3.234715268050728e-001	 3.026842270964037e+001
1	 1.821541300711023e+000	 3.418215729051807e-001	 2.937310129469125e+001
1	 1.817997474512458e+000	 3.601941202318724e-001	 2.848074870968203e+001
1	 1.871331581571538e+000	 1.803698778123701e-001	 3.877271721562556e+001
1	 1.869473947122285e+000	 1.987018808645739e-001	 3.776190232598823e+001
1	 1.867429339422771e+000	 2.170783797323812e-001	 3.676151490477422e+001
1	 1.865196148508078e+000	 2.354968318684564e-001	 3.577052709577892e+001
1	 1.862772804167815e+000	 2.539546459068037e-001	 3.478794630883989e+001
1	 1.860157777490180e+000	 2.724491822490121e-001	 3.381281743888364e+001
1	 1.857349582403518e+000	 2.909777537023744e-001	 3.284422507407169e+001
1	 1.854346777213499e+000	 3.095376261703707e-001	 3.188129568839115e+001
1	 1.851147966134041e+000	 3.281260193959392e-001	 3.092319981392668e+001
1	 1.847751800810049e+000	 3.467401077578918e-001	 2.996915418795150e+001
1	 1.844156981829972e+000	 3.653770211207496e-001	 2.901842386988638e+001
1	 1.897876562659040e+000	 1.829284382740870e-001	 3.991127151265980e+001
1	 1.895992577523594e+000	 2.015204821868070e-001	 3.883962766087071e+001
1	 1.893918966908032e+000	 2.201576530916455e-001	 3.777813484133259e+001
1	 1.891654098009965e+000	 2.388373723750355e-001	 3.672583130671885e+001
1	 1.889196378345448e+000	 2.575570119122527e-001	 3.568179629337065e+001
1	 1.886544257314950e+000	 2.763138946619772e-001	 3.464515224348666e+001
1	 1.883696227766777e+000	 2.951052953134650e-001	 3.361506700656460e+001
1	 1.880650827556055e+000	 3.139284409868239e-001	 3.259075601516180e+001
1	 1.877406641097374e+000	 3.327805119868297e-001	 3.157148442994783e+001
1	 1.873962300909120e+000	 3.516586426106381e-001	 3.055656924893896e+001
1	 1.870316489147490e+000	 3.705599220096755e-001	 2.954538137573431e+001
1	 1.924421543746556e+000	 1.854869987357526e-001	 4.105814651811694e+001
1	 1.922511207924948e+000	 2.043390835090027e-001	 3.992344450347841e+001
1	 1.920408594393359e+000	 2.232369264508840e-001	 3.879862396055020e+001
1	 1.918112047511930e+000	 2.421779128815985e-001	 3.768279596692558e+001
1	 1.915619952523161e+000	 2.611593779176944e-001	 3.657511882967697e+001
1	 1.912930737139797e+000	 2.801786070749440e-001	 3.547480031006337e+001
1	 1.910042873130104e+000	 2.992328369245659e-001	 3.438109981671629e+001
1	 1.906954877898667e+000	 3.183192558032974e-001	 3.329333056206745e+001
1	 1.903665316060748e+000	 3.374350045777526e-001	 3.221086167670386e+001
1	 1.900172801008212e+000	 3.565771774634313e-001	 3.113312027627290e+001
1	 1.896475996465010e+000	 3.757428228986662e-001	 3.005959347550608e+001
1	 1.950966524833943e+000	 1.880455591974182e-001	 4.220999720978364e+001
1	 1.949029838326206e+000	 2.071576848311983e-001	 4.101010263190810e+001
1	 1.946898221878620e+000	 2.263161998101231e-001	 3.981983812997967e+001
1	 1.944569997013850e+000	 2.455184533881637e-001	 3.863839410584098e+001
1	 1.942043526700847e+000	 2.647617439231413e-001	 3.746501495348660e+001
1	 1.939317216964628e+000	 2.840433194879207e-001	 3.629900128564565e+001
1	 1.936389518493423e+000	 3.033603785356842e-001	 3.513971211715551e+001
1	 1.933258928241277e+000	 3.227100706197986e-001	 3.398656699956204e+001
1	 1.929923991024120e+000	 3.420894971687167e-001	 3.283904810132371e+001
1	 1.926383301107304e+000	 3.614957123162833e-001	 3.169670222795112e+001
1	 1.922635503782531e+000	 3.809257237877377e-001	 3.055914277638301e+001
1	 1.977511505921061e+000	 1.906041196591351e-001	 4.336365817209444e+001
1	 1.975548468727234e+000	 2.099762861534317e-001	 4.209652634072340e+001
1	 1.973387849363683e+000	 2.293954731693894e-001	 4.083880203730362e+001
1	 1.971027946515604e+000	 2.488589938947492e-001	 3.958976128217984e+001
1	 1.968467100878397e+000	 2.683641099286054e-001	 3.834874135666762e+001
1	 1.965703696789349e+000	 2.879080319009158e-001	 3.711514303085058e+001
1	 1.962736163856656e+000	 3.074879201468266e-001	 3.588843273558044e+001
1	 1.959562978583822e+000	 3.271008854363341e-001	 3.466814467276443e+001
1	 1.956182665987450e+000	 3.467439897597305e-001	 3.345388285798611e+001
1	 1.952593801206374e+000	 3.664142471692060e-001	 3.224532308948017e+001
1	 1.948795011100049e+000	 3.861086246769065e-001	 3.104221483747475e+001
1	 2.004056487007766e+000	 1.931626801209544e-001	 4.451613170112011e+001
1	 2.002067099127891e+000	 2.127948874757400e-001	 4.317980288305637e+001
1	 1.999877476848419e+000	 2.324747465287094e-001	 4.185269800969380e+001
1	 1.997485896017071e+000	 2.521995344013732e-001	 4.053418481992100e+001
1	 1.994890675055700e+000	 2.719664759340992e-001	 3.922370007841428e+001
1	 1.992090176613864e+000	 2.917727443139379e-001	 3.792075180397256e+001
1	 1.989082809219724e+000	 3.116154617579998e-001	 3.662492142857787e+001
1	 1.985867028926243e+000	 3.314917002529111e-001	 3.533586588089249e+001
1	 1.982441340950695e+000	 3.513984823508028e-001	 3.405331958788507e+001
1	 1.978804301305400e+000	 3.713327820222112e-001	 3.277709638827574e+001
1	 1.974954518417563e+000	 3.912915255661884e-001	 3.150709135150660e+001
1	 2.030601468093916e+000	 1.957212405829273e-001	 4.566457684253877e+001
1	 2.028585729528039e+000	 2.156134887981609e-001	 4.425717181925057e+001
1	 2.026367104332694e+000	 2.355540198881095e-001	 4.285885571012212e+001
1	 2.023943845518130e+000	 2.555400749080539e-001	 4.146909388857154e+001
1	 2.021314249232647e+000	 2.755688419396346e-001	 4.008742900500275e+001
1	 2.018476656438079e+000	 2.956374567269953e-001	 3.871348321498472e+001
1	 2.015429454582549e+000	 3.157430033692105e-001	 3.734696032380225e+001
1	 2.012171079268478e+000	 3.358825150695361e-001	 3.598764784069321e+001
1	 2.008700015913814e+000	 3.560529749419424e-001	 3.463541893608868e+001
1	 2.005014801404359e+000	 3.762513168753106e-001	 3.329023429519504e+001
1	 2.001114025735070e+000	 3.964744264555998e-001	 3.195214386129999e+001
1	 2.057146449179369e+000	 1.982798010451050e-001	 4.680629927831797e+001
1	 2.055104359927541e+000	 2.184320901207318e-001	 4.532601519016155e+001
1	 2.052856731816378e+000	 2.386332932476165e-001	 4.385474263141101e+001
1	 2.050401795018658e+000	 2.588806154148093e-001	 4.239205035144386e+001
1	 2.047737823409130e+000	 2.791712079452241e-001	 4.093759310508191e+001
1	 2.044863136261900e+000	 2.995021691400969e-001	 3.949111387990616e+001
1	 2.041776099945052e+000	 3.198705449804656e-001	 3.805244602472462e+001
1	 2.038475129610468e+000	 3.402733298862165e-001	 3.662151527208626e+001
1	 2.034958690876767e+000	 3.607074675331577e-001	 3.519834164776305e+001
1	 2.031225301503231e+000	 3.811698517285160e-001	 3.378304126016683e+001
1	 2.027273533052570e+000	 4.016573273451569e-001	 3.237582796274017e+001
1	 1.765678459877450e+000	 3.498283184541984e-001	 2.738195727843729e+001
1	 1.762044664318403e+000	 3.676938779329496e-001	 2.660902703446229e+001
1	 1.758218270537386e+000	 3.855756710127969e-001	 2.585348322368366e+001
1	 1.754198184645169e+000	 4.034708216724217e-001	 2.511449866165757e+001
1	 1.749983365329664e+000	 4.213764149277032e-001	 2.439129565370704e+001
1	 1.745572825227723e+000	 4.392894979044454e-001	 2.368314817309880e+001
1	 1.740965632275259e+000	 4.572070809624127e-001	 2.298938399161781e+001
1	 1.736160911033618e+000	 4.751261388703826e-001	 2.230938675698972e+001
1	 1.731157843990141e+000	 4.930436120318358e-001	 2.164259801158226e+001
1	 1.725955672830830e+000	 5.109564077608136e-001	 2.098851914681053e+001
1	 1.720553699683057e+000	 5.288614016073797e-001	 2.034671328768378e+001
1	 1.791837967194950e+000	 3.550112193430273e-001	 2.793450206153252e+001
1	 1.788150334935661e+000	 3.731414670106319e-001	 2.710853890848789e+001
1	 1.784267251004714e+000	 3.912881887890967e-001	 2.630080745414944e+001
1	 1.780187605306307e+000	 4.094484660472605e-001	 2.551054626683241e+001
1	 1.775910341100747e+000	 4.276193406139059e-001	 2.473704791562115e+001
1	 1.771434456396564e+000	 4.457978158663766e-001	 2.397966112381765e+001
1	 1.766759005320630e+000	 4.639808578712684e-001	 2.323779286601728e+001
1	 1.761883099464190e+000	 4.821653965768895e-001	 2.251091040309804e+001
1	 1.756805909202691e+000	 5.003483270571110e-001	 2.179854324940603e+001
1	 1.751526664987303e+000	 5.185265108061259e-001	 2.110028506643320e+001
1	 1.746044658606036e+000	 5.366967770835491e-001	 2.041579547731449e+001
1	 1.817997474512458e+000	 3.601941202318724e-001	 2.848074870968203e+001
1	 1.814256005552847e+000	 3.785890560883355e-001	 2.759930649706949e+001
1	 1.810316231471889e+000	 3.970007065654228e-001	 2.673703141681576e+001
1	 1.806177025967220e+000	 4.154261104221303e-001	 2.589324137050559e+001
1	 1.801837316871536e+000	 4.338622663001414e-001	 2.506731265094251e+001
1	 1.797296087565045e+000	 4.523061338283392e-001	 2.425868204556468e+001
1	 1.792552378365584e+000	 4.707546347801497e-001	 2.346684887433918e+001
1	 1.787605287894298e+000	 4.892046542834107e-001	 2.269137695629604e+001
1	 1.782453974414742e+000	 5.076530420823825e-001	 2.193189649888130e+001
1	 1.777097657143252e+000	 5.260966138514089e-001	 2.118810590434011e+001
1	 1.771535617528480e+000	 5.445321525596548e-001	 2.045977348739268e+001
1	 1.844156981829972e+000	 3.653770211207496e-001	 2.901842386988638e+001
1	 1.840361676169980e+000	 3.840366451660824e-001	 2.807927861412134e+001
1	 1.836365211938954e+000	 4.027132243418037e-001	 2.716031434151124e+001
1	 1.832166446627964e+000	 4.214037547970657e-001	 2.626094137297010e+001
1	 1.827764292642103e+000	 4.401051919864520e-001	 2.538063269530063e+001
1	 1.823157718733256e+000	 4.588144517903843e-001	 2.451892598981724e+001
1	 1.818345751410225e+000	 4.775284116891164e-001	 2.367542558592298e+001
1	 1.813327476324059e+000	 4.962439119900156e-001	 2.284980433371830e+001
1	 1.808102039626417e+000	 5.149577571077297e-001	 2.204180538975841e+001
1	 1.802668649298809e+000	 5.336667168967523e-001	 2.125124391012928e+001
1	 1.797026576450526e+000	 5.523675280357958e-001	 2.047800864508866e+001
1	 1.870316489147490e+000	 3.705599220096755e-001	 2.954538137573431e+001
1	 1.866467346787076e+000	 3.894842342438937e-001	 2.854651883064076e+001
1	 1.862414192405942e+000	 4.084257421182669e-001	 2.756891844307254e+001
1	 1.858155867288595e+000	 4.273813991721016e-001	 2.661209557254421e+001
1	 1.853691268412522e+000	 4.463481176728810e-001	 2.567563240785598e+001
1	 1.849019349901286e+000	 4.653227697525628e-001	 2.475917989667600e+001
1	 1.844139124454658e+000	 4.843021885982291e-001	 2.386245959018124e+001
1	 1.839049664753587e+000	 5.032831696967739e-001	 2.298526539679082e+001
1	 1.833750104837843e+000	 5.222624721332320e-001	 2.212746523908693e+001
1	 1.828239641454104e+000	 5.412368199422444e-001	 2.128900260809683e+001
1	 1.822517535372304e+000	 5.602029035120718e-001	 2.046989800920844e+001
1	 1.896475996465010e+000	 3.757428228986662e-001	 3.005959347550608e+001
1	 1.892573017404154e+000	 3.949318233217910e-001	 2.899919756005901e+001
1	 1.888463172872894e+000	 4.141382598948403e-001	 2.796120181859974e+001
1	 1.884145287949170e+000	 4.333590435472733e-001	 2.694523882748205e+001
1	 1.879618244182866e+000	 4.525910433594709e-001	 2.595101204872637e+001
1	 1.874880981069227e+000	 4.718310877149264e-001	 2.497829763679885e+001
1	 1.869932497498986e+000	 4.910759655075478e-001	 2.402694615018585e+001
1	 1.864771853182998e+000	 5.103224274037552e-001	 2.309688416179318e+001
1	 1.859398170049142e+000	 5.295671871589683e-001	 2.218811576228389e+001
1	 1.853810633609267e+000	 5.488069229879748e-001	 2.130072395057382e+001
1	 1.848008494293951e+000	 5.680382789885818e-001	 2.043487190582860e+001
1	 1.922635503782531e+000	 3.809257237877377e-001	 3.055914277638301e+001
1	 1.918678688021233e+000	 4.003794123997962e-001	 2.943558478971493e+001
1	 1.914512153339845e+000	 4.198507776715515e-001	 2.833561192455479e+001
1	 1.910134708609745e+000	 4.393366879226154e-001	 2.725898573530332e+001
1	 1.905545219953211e+000	 4.588339690462645e-001	 2.620554261541997e+001
1	 1.900742612237168e+000	 4.783394056775261e-001	 2.517519545809309e+001
1	 1.895725870543314e+000	 4.978497424171325e-001	 2.416793521107994e+001
1	 1.890494041612410e+000	 5.173616851110289e-001	 2.318383231977760e+001
1	 1.885046235260443e+000	 5.368719021850179e-001	 2.222303805269829e+001
1	 1.879381625764431e+000	 5.563770260340331e-001	 2.128578570365442e+001
1	 1.873499453215596e+000	 5.758736544654248e-001	 2.037239166511280e+001
1	 1.948795011100049e+000	 3.861086246769065e-001	 3.104221483747475e+001
1	 1.944784358638330e+000	 4.058270014779306e-001	 2.985404339774068e+001
1	 1.940561133806835e+000	 4.255632954484290e-001	 2.869067957921740e+001
1	 1.936124129270376e+000	 4.453143322981632e-001	 2.755202528092272e+001
1	 1.931472195723630e+000	 4.650768947333048e-001	 2.643806109514498e+001
1	 1.926604243405198e+000	 4.848477236404133e-001	 2.534884779913387e+001
1	 1.921519243587748e+000	 5.046235193270440e-001	 2.428452772997435e+001
1	 1.916216230041939e+000	 5.244009428186647e-001	 2.324532603677508e+001
1	 1.910694300471868e+000	 5.441766172114603e-001	 2.223155180444331e+001
1	 1.904952617919725e+000	 5.639471290805077e-001	 2.124359904347923e+001
1	 1.898990412137376e+000	 5.837090299427001e-001	 2.028194754040664e+001
1	 1.974954518417563e+000	 3.912915255661884e-001	 3.150709135150661e+001
1	 1.970890029255462e+000	 4.112745905562161e-001	 3.025302300107869e+001
1	 1.966610114273898e+000	 4.312758132255002e-001	 2.902501344178910e+001
1	 1.962113549931120e+000	 4.512919766739514e-001	 2.782311591011289e+001
1	 1.957399171494197e+000	 4.713198204206343e-001	 2.664746609443603e+001
1	 1.952465874573409e+000	 4.913560416036388e-001	 2.549828343530579e+001
1	 1.947312616632389e+000	 5.113972962373420e-001	 2.437587229752117e+001
1	 1.941938418471699e+000	 5.314402005267321e-001	 2.328062300830136e+001
1	 1.936342365683543e+000	 5.514813322383745e-001	 2.221301275594039e+001
1	 1.930523610075283e+000	 5.715172321274878e-001	 2.117360634355061e+001
1	 1.924481371059421e+000	 5.915444054205067e-001	 2.016305679270966e+001
1	 2.001114025735070e+000	 3.964744264555998e-001	 3.195214386130001e+001
1	 1.996995699872648e+000	 4.167221796346737e-001	 3.063105428602914e+001
1	 1.992659094741075e+000	 4.369883310027932e-001	 2.933729492452697e+001
1	 1.988102970592032e+000	 4.572696210500152e-001	 2.807108098937919e+001
1	 1.983326147264985e+000	 4.775627461082961e-001	 2.683271381157009e+001
1	 1.978327505741890e+000	 4.978643595672545e-001	 2.562258192722130e+001
1	 1.973105989677342e+000	 5.181710731480865e-001	 2.444116202447367e+001
1	 1.967660606901807e+000	 5.384794582353006e-001	 2.328901974489215e+001
1	 1.961990430895594e+000	 5.587860472658399e-001	 2.216681033397850e+001
1	 1.956094602231231e+000	 5.790873351750632e-001	 2.107527913559999e+001
1	 1.949972329981867e+000	 5.993797808989436e-001	 2.001526192539159e+001
1	 2.027273533052570e+000	 4.016573273451569e-001	 3.237582796274018e+001
1	 2.023101370489906e+000	 4.221697687133256e-001	 3.098674377774149e+001
1	 2.018708075208402e+000	 4.427008487803357e-001	 2.962627349879467e+001
1	 2.014092391253171e+000	 4.632472654263896e-001	 2.829480461734367e+001
1	 2.009253123036070e+000	 4.838056717963330e-001	 2.699281432080893e+001
1	 2.004189136910732e+000	 5.043726775313111e-001	 2.572087034411231e+001
1	 1.998899362722714e+000	 5.249448500593382e-001	 2.447963166929683e+001
1	 1.993382795332379e+000	 5.455187159444399e-001	 2.326984906779994e+001
1	 1.987638496108145e+000	 5.660907622939359e-001	 2.209236548017692e+001
1	 1.981665594387705e+000	 5.866574382233225e-001	 2.094811622833002e+001
1	 1.975463288904845e+000	 6.072151563781102e-001	 1.983812905558152e+001
1	 1.720553699683057e+000	 5.288614016073797e-001	 2.034671328768378e+001
1	 1.714951287895949e+000	 5.467554384699807e-001	 1.971815510884425e+001
1	 1.709147861924183e+000	 5.646353332059860e-001	 1.910391024314396e+001
1	 1.703142909757176e+000	 5.824978728425351e-001	 1.850376072404708e+001
1	 1.696935984454056e+000	 6.003398183486901e-001	 1.791753604381302e+001
1	 1.690526705208834e+000	 6.181579061975373e-001	 1.734511395003023e+001
1	 1.683914758373382e+000	 6.359488499726911e-001	 1.678642116203110e+001
1	 1.677099898436262e+000	 6.537093420179825e-001	 1.624143400402668e+001
1	 1.670081948955454e+000	 6.714360551290196e-001	 1.571017895194109e+001
1	 1.662860803443095e+000	 6.891256442852184e-001	 1.519273309107961e+001
1	 1.655436426200365e+000	 7.067747484208015e-001	 1.468922448193050e+001
1	 1.746044658606036e+000	 5.366967770835491e-001	 2.041579547731449e+001
1	 1.740359243975686e+000	 5.548559240432534e-001	 1.974580849974198e+001
1	 1.734469837023907e+000	 5.730007193529455e-001	 1.909115209457973e+001
1	 1.728375918154393e+000	 5.911279024377770e-001	 1.845171478796085e+001
1	 1.722077033804591e+000	 6.092341862787585e-001	 1.782743564879706e+001
1	 1.715572797526654e+000	 6.273162589980009e-001	 1.721830494519627e+001
1	 1.708862891025580e+000	 6.453707854890253e-001	 1.662436471231978e+001
1	 1.701947065152540e+000	 6.633944090908885e-001	 1.604570922863764e+001
1	 1.694825140851424e+000	 6.813837533048077e-001	 1.548248539770602e+001
1	 1.687497010056690e+000	 6.993354235518501e-001	 1.493489303276757e+001
1	 1.679962636540613e+000	 7.172460089701712e-001	 1.440318504166626e+001
1	 1.771535617528480e+000	 5.445321525596548e-001	 2.045977348739268e+001
1	 1.765767200054896e+000	 5.629564096164186e-001	 1.974738935444615e+001
1	 1.759791812123126e+000	 5.813661054997465e-001	 1.905152809026333e+001
1	 1.753608926551138e+000	 5.997579320328053e-001	 1.837217765542935e+001
1	 1.747218083154697e+000	 6.181285542085545e-001	 1.770937916881335e+001
1	 1.740618889844100e+000	 6.364746117981363e-001	 1.706322742720460e+001
1	 1.733811023677468e+000	 6.547927210049779e-001	 1.643387132877014e+001
1	 1.726794231868579e+000	 6.730794761633668e-001	 1.582151419742046e+001
1	 1.719568332747231e+000	 6.913314514801312e-001	 1.522641400535781e+001
1	 1.712133216670199e+000	 7.095452028179919e-001	 1.464888349128054e+001
1	 1.704488846880856e+000	 7.277172695190417e-001	 1.408929017193010e+001
1	 1.797026576450526e+000	 5.523675280357958e-001	 2.047800864508866e+001
1	 1.791175156133711e+000	 5.710568951895859e-001	 1.972234313594985e+001
1	 1.785113787221967e+000	 5.897314916465080e-001	 1.898455401369886e+001
1	 1.778841934947530e+000	 6.083879616277473e-001	 1.826472197148295e+001
1	 1.772359132504484e+000	 6.270229221382165e-001	 1.756298302174666e+001
1	 1.765664982161268e+000	 6.456329645980882e-001	 1.687952888226597e+001
1	 1.758759156329125e+000	 6.642146565207018e-001	 1.621460725918708e+001
1	 1.751641398584439e+000	 6.827645432355755e-001	 1.556852202429429e+001
1	 1.744311524642915e+000	 7.012791496551520e-001	 1.494163328393853e+001
1	 1.736769423283643e+000	 7.197549820838095e-001	 1.433435733727799e+001
1	 1.729015057221095e+000	 7.381885300675788e-001	 1.374716652171532e+001
1	 1.822517535372304e+000	 5.602029035120718e-001	 2.046989800920844e+001
1	 1.816583112212264e+000	 5.791573807628642e-001	 1.967014633176119e+001
1	 1.810435762320554e+000	 5.980968777933492e-001	 1.888977273870579e+001
1	 1.804074943343686e+000	 6.170179912227320e-001	 1.812894429025311e+001
1	 1.797500181854058e+000	 6.359172900678810e-001	 1.738788508563664e+001
1	 1.790711074478250e+000	 6.547913173980026e-001	 1.666687651857605e+001
1	 1.783707288980629e+000	 6.736365920363490e-001	 1.596625742371145e+001
1	 1.776488565300180e+000	 6.924496103076728e-001	 1.528642411137802e+001
1	 1.769054716538517e+000	 7.112268478300333e-001	 1.462783028831775e+001
1	 1.761405629897046e+000	 7.299647613494685e-001	 1.399098686216272e+001
1	 1.753541267561331e+000	 7.486597906159503e-001	 1.337646162777411e+001
1	 1.848008494293951e+000	 5.680382789885818e-001	 2.043487190582860e+001
1	 1.841991068290684e+000	 5.872578663363623e-001	 1.959030431418202e+001
1	 1.835757737419014e+000	 6.064622639403885e-001	 1.876675236103410e+001
1	 1.829307951739723e+000	 6.256480208178876e-001	 1.796446342599204e+001
1	 1.822641231203526e+000	 6.448116579976858e-001	 1.718374321859806e+001
1	 1.815757166795141e+000	 6.639496701980238e-001	 1.642495590611519e+001
1	 1.808655421632055e+000	 6.830585275520713e-001	 1.568852412701263e+001
1	 1.801335732015862e+000	 7.021346773798167e-001	 1.497492888767593e+001
1	 1.793797908434079e+000	 7.211745460049378e-001	 1.428470934010999e+001
1	 1.786041836510427e+000	 7.401745406151347e-001	 1.361846243865638e+001
1	 1.778067477901566e+000	 7.591310511643220e-001	 1.297684247401486e+001
1	 1.873499453215596e+000	 5.758736544654248e-001	 2.037239166511280e+001
1	 1.867399024369105e+000	 5.953583519101900e-001	 1.948234937526582e+001
1	 1.861079712517474e+000	 6.148276500877451e-001	 1.861508448250801e+001
1	 1.854540960135760e+000	 6.342780504133425e-001	 1.777091893870900e+001
1	 1.847782280552992e+000	 6.537060259277667e-001	 1.695023389956944e+001
1	 1.840803259112029e+000	 6.731080229982976e-001	 1.615346972748961e+001
1	 1.833603554283482e+000	 6.924804630680211e-001	 1.538112587561278e+001
1	 1.826182898731543e+000	 7.118197444521655e-001	 1.463376065073295e+001
1	 1.818541100329640e+000	 7.311222441800279e-001	 1.391199085301189e+001
1	 1.810678043123808e+000	 7.503843198809728e-001	 1.321649129072095e+001
1	 1.802593688241800e+000	 7.696023117128608e-001	 1.254799416850496e+001
1	 1.898990412137376e+000	 5.837090299427001e-001	 2.028194754040664e+001
1	 1.892806980447657e+000	 6.034588374844558e-001	 1.934583892004126e+001
1	 1.886401687616062e+000	 6.231930362355383e-001	 1.843438263336567e+001
1	 1.879773968531916e+000	 6.429080800092252e-001	 1.754796974177464e+001
1	 1.872923329902566e+000	 6.626003938582621e-001	 1.668705097853660e+001
1	 1.865849351429012e+000	 6.822663757989691e-001	 1.585213662938077e+001
1	 1.858551686934985e+000	 7.019023985843516e-001	 1.504379629046466e+001
1	 1.851030065447284e+000	 7.215048115248770e-001	 1.426265850158297e+001
1	 1.843284292225242e+000	 7.410699423554663e-001	 1.350941025274726e+001
1	 1.835314249737209e+000	 7.605940991471489e-001	 1.278479636255121e+001
1	 1.827119898582037e+000	 7.800735722617331e-001	 1.208961872702897e+001
1	 1.924481371059421e+000	 5.915444054205067e-001	 2.016305679270966e+001
1	 1.918214936526472e+000	 6.115593230592692e-001	 1.918035380332692e+001
1	 1.911723662714902e+000	 6.315584223838865e-001	 1.822428081998139e+001
1	 1.905006976928307e+000	 6.515381096056635e-001	 1.729529282018402e+001
1	 1.898064379252353e+000	 6.714947617893090e-001	 1.639390452608049e+001
1	 1.890895443746181e+000	 6.914247286001836e-001	 1.552069016527438e+001
1	 1.883499819586643e+000	 7.113243341012142e-001	 1.467628310595099e+001
1	 1.875877232163145e+000	 7.311898785981097e-001	 1.386137536434127e+001
1	 1.868027484120926e+000	 7.510176405314154e-001	 1.307671698284830e+001
1	 1.859950456350654e+000	 7.708038784138284e-001	 1.232311527745283e+001
1	 1.851646108922276e+000	 7.905448328111059e-001	 1.160143395332152e+001
1	 1.949972329981867e+000	 5.993797808989436e-001	 2.001526192539159e+001
1	 1.943622892605683e+000	 6.196598086347391e-001	 1.898549679699803e+001
1	 1.937045637814119e+000	 6.399238085329084e-001	 1.798443218649701e+001
1	 1.930239985325053e+000	 6.601681392027863e-001	 1.701258204935251e+001
1	 1.923205428602460e+000	 6.803891297210443e-001	 1.607051977316077e+001
1	 1.915941536063627e+000	 7.005830814020863e-001	 1.515887782111637e+001
1	 1.908447952238531e+000	 7.207462696187609e-001	 1.427834724739689e+001
1	 1.900724398879184e+000	 7.408749456720213e-001	 1.342967708269508e+001
1	 1.892770676016732e+000	 7.609653387080381e-001	 1.261367358841822e+001
1	 1.884586662964163e+000	 7.810136576811767e-001	 1.183119937838048e+001
1	 1.876172319262519e+000	 8.010160933611452e-001	 1.108317240712916e+001
1	 1.975463288904845e+000	 6.072151563781102e-001	 1.983812905558152e+001
1	 1.969030848685419e+000	 6.277602942109748e-001	 1.876089117592105e+001
1	 1.962367612913844e+000	 6.482891946827238e-001	 1.771450778007358e+001
1	 1.955472993722270e+000	 6.687981688007212e-001	 1.669954710536358e+001
1	 1.948346477952994e+000	 6.892834976536052e-001	 1.571663613298411e+001
1	 1.940987628381446e+000	 7.097414342048216e-001	 1.476646011640497e+001
1	 1.933396084890728e+000	 7.301682051371443e-001	 1.384976198000416e+001
1	 1.925571565595462e+000	 7.505600127467704e-001	 1.296734158634591e+001
1	 1.917513867912702e+000	 7.709130368854967e-001	 1.212005487083132e+001
1	 1.909222869577757e+000	 7.912234369493597e-001	 1.130881284276030e+001
1	 1.900698529602766e+000	 8.114873539120181e-001	 1.053458045216772e+001
1	 1.655436426200365e+000	 7.067747484208015e-001	 1.468922448193050e+001
1	 1.647810012626662e+000	 7.243773551837666e-001	 1.419802070181314e+001
1	 1.639980573555821e+000	 7.419327295049750e-001	 1.371717994552844e+001
1	 1.631948291327146e+000	 7.594374756351381e-001	 1.324665273278806e+001
1	 1.623713421824428e+000	 7.768881892624318e-001	 1.278642263023111e+001
1	 1.615276295033541e+000	 7.942814594508108e-001	 1.233650630046645e+001
1	 1.606637315540310e+000	 8.116138706063588e-001	 1.189695348322134e+001
1	 1.597796962967233e+000	 8.288820044695900e-001	 1.146784690761645e+001
1	 1.588755792347744e+000	 8.460824421315374e-001	 1.104930213474976e+001
1	 1.579514434436757e+000	 8.632117660713863e-001	 1.064146732994340e+001
1	 1.570073595956371e+000	 8.802665622133531e-001	 1.024452296418153e+001
1	 1.679962636540613e+000	 7.172460089701712e-001	 1.440318504166626e+001
1	 1.672223233413097e+000	 7.351094081314266e-001	 1.388553591902332e+001
1	 1.664277796852925e+000	 7.529248750760244e-001	 1.337974052716334e+001
1	 1.656126511900855e+000	 7.706889637447697e-001	 1.288578215692783e+001
1	 1.647769638231734e+000	 7.883982193890754e-001	 1.240367654722072e+001
1	 1.639207510720356e+000	 8.060491805379907e-001	 1.193347186982548e+001
1	 1.630440539946704e+000	 8.236383809936848e-001	 1.147524864599889e+001
1	 1.621469212639146e+000	 8.411623518532656e-001	 1.102911959398371e+001
1	 1.612294092054241e+000	 8.586176235547387e-001	 1.059522940675100e+001
1	 1.602915818291883e+000	 8.760007279448259e-001	 1.017375445945427e+001
1	 1.593335108544644e+000	 8.933082003663226e-001	 9.764902446256338e+000
1	 1.704488846880856e+000	 7.277172695190417e-001	 1.408929017193010e+001
1	 1.696636454199607e+000	 7.458414610785946e-001	 1.354558616343187e+001
1	 1.688575020150183e+000	 7.639170206466032e-001	 1.301527620117802e+001
1	 1.680304732474796e+000	 7.819404518539631e-001	 1.249836943750207e+001
1	 1.671825854639347e+000	 7.999082495153214e-001	 1.199490696783928e+001
1	 1.663138726407550e+000	 8.178169016248166e-001	 1.150496176477274e+001
1	 1.654243764353546e+000	 8.356628913807015e-001	 1.102863854352804e+001
1	 1.645141462311570e+000	 8.534426992366738e-001	 1.056607355815551e+001
1	 1.635832391761306e+000	 8.711528049777060e-001	 1.011743432780751e+001
1	 1.626317202147628e+000	 8.887896898180560e-001	 9.682919292694923e+000
1	 1.616596621133582e+000	 9.063498385190917e-001	 9.262757399485396e+000
1	 1.729015057221095e+000	 7.381885300675788e-001	 1.374716652171532e+001
1	 1.721049674986173e+000	 7.565735140254362e-001	 1.317776917862680e+001
1	 1.712872243447557e+000	 7.749091662168747e-001	 1.262336092598870e+001
1	 1.704482953048910e+000	 7.931919399628793e-001	 1.208397019623930e+001
1	 1.695882071047189e+000	 8.114182796413250e-001	 1.155965695076366e+001
1	 1.687069942095027e+000	 8.295846227114402e-001	 1.105051257626558e+001
1	 1.678046988760721e+000	 8.476874017675549e-001	 1.055665971226412e+001
1	 1.668813711984377e+000	 8.657230466199545e-001	 1.007825200902024e+001
1	 1.659370691468799e+000	 8.836879864005772e-001	 9.615473815372591e+000
1	 1.649718586003838e+000	 9.015786516912102e-001	 9.168539796137807e+000
1	 1.639858133723017e+000	 9.193914766717938e-001	 8.737694478912665e+000
1	 1.753541267561331e+000	 7.486597906159503e-001	 1.337646162777412e+001
1	 1.745462895772776e+000	 7.673055669721172e-001	 1.278170521311673e+001
1	 1.737169466745007e+000	 7.859013117870024e-001	 1.220359249563369e+001
1	 1.728661173623140e+000	 8.044434280716766e-001	 1.164216491636719e+001
1	 1.719938287455186e+000	 8.229283097672419e-001	 1.109749511903076e+001
1	 1.711001157782694e+000	 8.413523437980106e-001	 1.056968682146886e+001
1	 1.701850213168121e+000	 8.597119121543899e-001	 1.005887461791877e+001
1	 1.692485961657440e+000	 8.780033940032498e-001	 9.565223711421913e+000
1	 1.682908991176575e+000	 8.962231678234887e-001	 9.088929575906038e+000
1	 1.673119969860359e+000	 9.143676135644239e-001	 8.630217547638480e+000
1	 1.663119646312786e+000	 9.324331148245618e-001	 8.189342345934326e+000
1	 1.778067477901566e+000	 7.591310511643220e-001	 1.297684247401486e+001
1	 1.769876116559398e+000	 7.780376199188032e-001	 1.235703546819462e+001
1	 1.761466690042496e+000	 7.968934573571499e-001	 1.175559089586055e+001
1	 1.752839394197428e+000	 8.156949161805158e-001	 1.117255722794598e+001
1	 1.743994503863259e+000	 8.344383398932270e-001	 1.060801389689572e+001
1	 1.734932373470456e+000	 8.531200648846793e-001	 1.006207115565673e+001
1	 1.725653437575633e+000	 8.717364225413528e-001	 9.534869867151743e+000
1	 1.716158211330630e+000	 8.902837413866996e-001	 9.026581223597900e+000
1	 1.706447290884493e+000	 9.087583492465786e-001	 8.537406395207393e+000
1	 1.696521353717033e+000	 9.271565754378304e-001	 8.067576107988240e+000
1	 1.686381158902719e+000	 9.454747529775296e-001	 7.617350150548232e+000
1	 1.802593688241800e+000	 7.696023117128608e-001	 1.254799416850496e+001
1	 1.794289337346019e+000	 7.887696728656601e-001	 1.190342067251233e+001
1	 1.785763913339985e+000	 8.078856029274806e-001	 1.127899679441597e+001
1	 1.777017614771715e+000	 8.269464042895565e-001	 1.067477233318121e+001
1	 1.768050720271332e+000	 8.459483700194359e-001	 1.009082789062647e+001
1	 1.758863589158218e+000	 8.648877859715961e-001	 9.527274730088466e+000
1	 1.749456661983145e+000	 8.837609329285886e-001	 8.984254565253522e+000
1	 1.739830461003820e+000	 9.025640887704456e-001	 8.461939278505900e+000
1	 1.729985590592412e+000	 9.212935306699827e-001	 7.960530568320250e+000
1	 1.719922737573709e+000	 9.399455373115654e-001	 7.480259525407242e+000
1	 1.709642671492654e+000	 9.585163911308307e-001	 7.021386137507254e+000
1	 1.827119898582037e+000	 7.800735722617331e-001	 1.208961872702897e+001
1	 1.818702558132622e+000	 7.995017258128541e-001	 1.142053977145969e+001
1	 1.810061136637434e+000	 8.188777484981575e-001	 1.077347015292880e+001
1	 1.801195835345945e+000	 8.381978923989577e-001	 1.014845555856250e+001
1	 1.792106936679328e+000	 8.574584001460237e-001	 9.545572399709988e+000
1	 1.782794804845885e+000	 8.766555070589114e-001	 8.964927682141960e+000
1	 1.773259886390545e+000	 8.957854433162428e-001	 8.406658806101255e+000
1	 1.763502710676882e+000	 9.148444361546282e-001	 7.870933295519775e+000
1	 1.753523890300187e+000	 9.338287120938387e-001	 7.357948455893085e+000
1	 1.743324121430230e+000	 9.527344991857626e-001	 6.867930960486483e+000
1	 1.732904184082422e+000	 9.715580292845978e-001	 6.401136364733526e+000
1	 1.851646108922276e+000	 7.905448328111059e-001	 1.160143395332152e+001
1	 1.843115778919188e+000	 8.102337787605507e-001	 1.090808872070368e+001
1	 1.834358359934808e+000	 8.298698940693451e-001	 1.023868894911183e+001
1	 1.825374055920060e+000	 8.494493805088804e-001	 9.593271022069507e+000
1	 1.816163153087171e+000	 8.689684302731457e-001	 8.971902046378757e+000
1	 1.806726020533363e+000	 8.884232281467758e-001	 8.374679745441760e+000
1	 1.797063110797722e+000	 9.078099537044607e-001	 7.801732282123401e+000
1	 1.787174960349689e+000	 9.271247835393882e-001	 7.253218010406559e+000
1	 1.777062190007680e+000	 9.463638935182838e-001	 6.729325155271353e+000
1	 1.766725505286439e+000	 9.655234610605561e-001	 6.230271420411000e+000
1	 1.756165696671858e+000	 9.845996674389649e-001	 5.756303523585461e+000
1	 1.876172319262519e+000	 8.010160933611452e-001	 1.108317240712916e+001
1	 1.867528999705698e+000	 8.209658317089158e-001	 1.036577937435587e+001
1	 1.858655583232066e+000	 8.408620396412050e-001	 9.674347999187486e+000
1	 1.849552276494000e+000	 8.607008686194831e-001	 9.008900404915259e+000
1	 1.840219369494784e+000	 8.804784604009575e-001	 8.369489512629944e+000
1	 1.830657236220555e+000	 9.001909492353390e-001	 7.756198969001819e+000
1	 1.820866335204562e+000	 9.198344640933878e-001	 7.169143003291765e+000
1	 1.810847210022113e+000	 9.394051309248663e-001	 6.608466212760885e+000
1	 1.800600489714745e+000	 9.588990749434548e-001	 6.074343275822313e+000
1	 1.790126889142184e+000	 9.783124229360813e-001	 5.566978592463943e+000
1	 1.779427209260796e+000	 9.976413055940653e-001	 5.086605851656600e+000
1	 1.900698529602766e+000	 8.114873539120181e-001	 1.053458045216772e+001
1	 1.891942220492133e+000	 8.316978846581151e-001	 9.793338459221271e+000
1	 1.882952806529170e+000	 8.518541852139021e-001	 9.080157871484639e+000
1	 1.873730497067709e+000	 8.719523567309263e-001	 8.395041818384341e+000
1	 1.864275585902089e+000	 8.919884905296139e-001	 7.738024375028011e+000
1	 1.854588451907370e+000	 9.119586703247526e-001	 7.109170535535192e+000
1	 1.844669559610956e+000	 9.318589744831696e-001	 6.508576115292492e+000
1	 1.834519459694026e+000	 9.516854783112039e-001	 5.936367581190687e+000
1	 1.824138789421242e+000	 9.714342563694890e-001	 5.392701809077535e+000
1	 1.813528272997310e+000	 9.911013848124720e-001	 4.877765767843972e+000
1	 1.802688721849068e+000	 1.010682943750032e+000	 4.391776129748800e+000
1	 1.570073595956371e+000	 8.802665622133531e-001	 1.024452296418153e+001
1	 1.560432599048893e+000	 8.972459629298201e-001	 9.856778695721205e+000
1	 1.550593705615053e+000	 9.141440024143018e-001	 9.476391494736003e+000
1	 1.540557852787053e+000	 9.309572889204422e-001	 9.103180048880654e+000
1	 1.530326054011600e+000	 9.476824425612982e-001	 8.736989141707662e+000
1	 1.519899398955622e+000	 9.643160974265813e-001	 8.377689904007902e+000
1	 1.509279053342250e+000	 9.808549037040832e-001	 8.025180013594248e+000
1	 1.498466258716638e+000	 9.972955298026253e-001	 7.679383842598806e+000
1	 1.487462332141325e+000	 1.013634664473865e+000	 7.340252551483080e+000
1	 1.476268665820915e+000	 1.029869018930230e+000	 7.007764129092282e+000
1	 1.464886726656035e+000	 1.045995328956277e+000	 6.681923378220480e+000
1	 1.593335108544644e+000	 8.933082003663226e-001	 9.764902446256340e+000
1	 1.583551274911993e+000	 9.105391603372327e-001	 9.366900946907158e+000
1	 1.573566612805977e+000	 9.276875536643390e-001	 8.977758777057662e+000
1	 1.563382073242935e+000	 9.447499383506840e-001	 8.597214551339867e+000
1	 1.552998684684357e+000	 9.617228844344270e-001	 8.225029828127658e+000
1	 1.542417552941194e+000	 9.786029761374546e-001	 7.860989490182032e+000
1	 1.531639861007417e+000	 9.953868140182340e-001	 7.504902080142154e+000
1	 1.520666868822365e+000	 1.012071017126219e+000	 7.156600089711683e+000
1	 1.509499912961595e+000	 1.028652225155088e+000	 6.815940201500419e+000
1	 1.498140406255999e+000	 1.045127100592058e+000	 6.482803482595296e+000
1	 1.486589837339156e+000	 1.061492330860527e+000	 6.157095529053977e+000
1	 1.616596621133582e+000	 9.063498385190917e-001	 9.262757399485395e+000
1	 1.606669950775794e+000	 9.238323577444372e-001	 8.855064169916897e+000
1	 1.596539519997630e+000	 9.412311049141446e-001	 8.457682030760832e+000
1	 1.586206293699569e+000	 9.585425877806582e-001	 8.070281627893966e+000
1	 1.575671315357876e+000	 9.757633263072421e-001	 7.692553453088815e+000
1	 1.564935706927531e+000	 9.928898548479596e-001	 7.324208336357980e+000
1	 1.554000668673343e+000	 1.009918724331957e+000	 6.964977899326047e+000
1	 1.542867478928838e+000	 1.026846504449323e+000	 6.614614968291334e+000
1	 1.531537493782587e+000	 1.043669785835758e+000	 6.272893945732349e+000
1	 1.520012146691774e+000	 1.060385182253274e+000	 5.939611139111856e+000
1	 1.508292948022928e+000	 1.076989332764112e+000	 5.614585045933758e+000
1	 1.639858133723017e+000	 9.193914766717938e-001	 8.737694478912665e+000
1	 1.629788626640121e+000	 9.371255551515676e-001	 8.320908691580986e+000
1	 1.619512427189830e+000	 9.547746561638559e-001	 7.915837057075126e+000
1	 1.609030514156762e+000	 9.723352372105050e-001	 7.522093877131410e+000
1	 1.598343946031964e+000	 9.898037681798876e-001	 7.139310252336951e+000
1	 1.587453860914438e+000	 1.007176733558246e+000	 6.767134669025042e+000
1	 1.576361476339833e+000	 1.024450634645407e+000	 6.405233553167236e+000
1	 1.565068089035862e+000	 1.041621991772096e+000	 6.053291789769756e+000
1	 1.553575074604111e+000	 1.058687346516040e+000	 5.711013206358535e+000
1	 1.541883887128053e+000	 1.075643263914046e+000	 5.378121019218742e+000
1	 1.529996058707168e+000	 1.092486334667199e+000	 5.054358241141403e+000
1	 1.663119646312786e+000	 9.324331148245618e-001	 8.189342345934323e+000
1	 1.652907302504798e+000	 9.504187525587584e-001	 7.764094961256685e+000
1	 1.642485334382394e+000	 9.683182074136086e-001	 7.351917795081294e+000
1	 1.631854734614329e+000	 9.861278866403652e-001	 6.952379976800928e+000
1	 1.621016576706430e+000	 1.003844210052509e+000	 6.565064435103329e+000
1	 1.609972014901722e+000	 1.021463612268463e+000	 6.189568562701280e+000
1	 1.598722284006695e+000	 1.038982544958739e+000	 5.825504853823587e+000
1	 1.587268699143245e+000	 1.056397479094698e+000	 5.472501512852629e+000
1	 1.575612655425975e+000	 1.073704907196096e+000	 5.130203032554999e+000
1	 1.563755627564647e+000	 1.090901345574538e+000	 4.798270740417607e+000
1	 1.551699169391692e+000	 1.107983336569954e+000	 4.476383311674183e+000
1	 1.686381158902719e+000	 9.454747529775296e-001	 7.617350150548230e+000
1	 1.676025978369649e+000	 9.637119499661432e-001	 7.184302163002767e+000
1	 1.665458241575140e+000	 9.818617586635403e-001	 6.765635070766494e+000
1	 1.654678955072082e+000	 9.999205360703788e-001	 6.360883574852155e+000
1	 1.643689207381082e+000	 1.017884651925251e+000	 5.969593220371114e+000
1	 1.632490168889190e+000	 1.035750490978762e+000	 5.591321122789843e+000
1	 1.621083091673733e+000	 1.053514455272107e+000	 5.225636672514202e+000
1	 1.609469309250792e+000	 1.071172966417288e+000	 4.872122216096668e+000
1	 1.597650236247988e+000	 1.088722467876090e+000	 4.530373712407488e+000
1	 1.585627368001368e+000	 1.106159427234915e+000	 4.200001362162617e+000
1	 1.573402280076317e+000	 1.123480338472544e+000	 3.880630209258626e+000
1	 1.709642671492654e+000	 9.585163911308307e-001	 7.021386137507255e+000
1	 1.699144654234502e+000	 9.770051473738574e-001	 6.581226941051098e+000
1	 1.688431148767885e+000	 9.954053099137868e-001	 6.156715448202185e+000
1	 1.677503175529833e+000	 1.013713185500686e+000	 5.747362271007678e+000
1	 1.666361838055729e+000	 1.031925093798258e+000	 5.352685951817359e+000
1	 1.655008322876648e+000	 1.050037369689291e+000	 4.972213735144047e+000
1	 1.643443899340753e+000	 1.068046365585666e+000	 4.605482323228460e+000
1	 1.631669919358312e+000	 1.085948453740025e+000	 4.252038613543551e+000
1	 1.619687817069959e+000	 1.103740028556184e+000	 3.911440416506497e+000
1	 1.607499108438030e+000	 1.121417508895344e+000	 3.583257151703446e+000
1	 1.595105390760859e+000	 1.138977340375136e+000	 3.267070520975579e+000
1	 1.732904184082422e+000	 9.715580292845978e-001	 6.401136364733526e+000
1	 1.722263330099179e+000	 9.902983447820343e-001	 5.954582227929571e+000
1	 1.711404055960447e+000	 1.008948861164486e+000	 5.524900173248716e+000
1	 1.700327395987394e+000	 1.027505834931428e+000	 5.111586680359790e+000
1	 1.689034468730179e+000	 1.045965535671675e+000	 4.714143284038109e+000
1	 1.677526476863901e+000	 1.064324248400201e+000	 4.332077376072973e+000
1	 1.665804707007561e+000	 1.082578275899571e+000	 3.964902996071330e+000
1	 1.653870529465609e+000	 1.100723941063069e+000	 3.612141609365200e+000
1	 1.641725397891696e+000	 1.118757589236541e+000	 3.273322870247560e+000
1	 1.629370848874443e+000	 1.136675590555990e+000	 2.947985368786960e+000
1	 1.616808501445135e+000	 1.154474342277896e+000	 2.635677359499955e+000
1	 1.756165696671858e+000	 9.845996674389649e-001	 5.756303523585462e+000
1	 1.745382005963505e+000	 1.003591542190808e+000	 5.304096165718517e+000
1	 1.734376963152643e+000	 1.022492412415773e+000	 4.869944201207796e+000
1	 1.723151616444576e+000	 1.041298484362744e+000	 4.453339571386686e+000
1	 1.711707099404240e+000	 1.060005977545647e+000	 4.053776433447403e+000
1	 1.700044630850756e+000	 1.078611127111641e+000	 3.670751977183326e+000
1	 1.688165514673963e+000	 1.097110186213977e+000	 3.303767235642899e+000
1	 1.676071139572492e+000	 1.115499428386579e+000	 2.952327887902940e+000
1	 1.663762978713008e+000	 1.133775149917325e+000	 2.615945052174949e+000
1	 1.651242589310421e+000	 1.151933672217020e+000	 2.294136067469860e+000
1	 1.638511612128961e+000	 1.169971344180991e+000	 1.986425262063405e+000
1	 1.779427209260796e+000	 9.976413055940653e-001	 5.086605851656599e+000
1	 1.768500681827304e+000	 1.016884739600314e+000	 4.629511111918192e+000
1	 1.757349870344292e+000	 1.036035963667787e+000	 4.191615300740750e+000
1	 1.745975836901192e+000	 1.055091133794776e+000	 3.772415071578473e+000
1	 1.734379730077722e+000	 1.074046419420320e+000	 3.371406487931647e+000
1	 1.722562784837020e+000	 1.092898005823761e+000	 2.988085840040012e+000
1	 1.710526322339764e+000	 1.111642096529037e+000	 2.621950460331117e+000
1	 1.698271749678766e+000	 1.130274915710713e+000	 2.272499535861965e+000
1	 1.685800559533704e+000	 1.148792710598698e+000	 1.939234915985830e+000
1	 1.673114329745773e+000	 1.167191753878597e+000	 1.621661913475885e+000
1	 1.660214722812154e+000	 1.185468346084587e+000	 1.319290097341952e+000
1	 1.802688721849068e+000	 1.010682943750032e+000	 4.391776129748801e+000
1	 1.791619357690404e+000	 1.030177937010685e+000	 3.930582722284677e+000
1	 1.780322777535210e+000	 1.049579514920662e+000	 3.489693227163921e+000
1	 1.768800057357055e+000	 1.068883783227662e+000	 3.068617934565368e+000
1	 1.757052360750432e+000	 1.088086861295837e+000	 2.666863769952621e+000
1	 1.745080938822499e+000	 1.107184884536710e+000	 2.283935096145175e+000
1	 1.732887130004770e+000	 1.126174006844907e+000	 1.919334518822268e+000
1	 1.720472359784237e+000	 1.145050403035631e+000	 1.572563693756462e+000
1	 1.707838140353593e+000	 1.163810271280824e+000	 1.243124134057527e+000
1	 1.694986070180315e+000	 1.182449835540888e+000	 9.305180156937741e-001
1	 1.681917833494530e+000	 1.200965347988850e+000	 6.342489795525086e-001
1	 1.464886726656035e+000	 1.045995328956277e+000	 6.681923378220480e+000
1	 1.453318055313267e+000	 1.062010356656721e+000	 6.359537084097186e+000
1	 1.441564264409459e+000	 1.077910891462778e+000	 6.037508383954319e+000
1	 1.429627039115892e+000	 1.093693753232441e+000	 5.716031563317417e+000
1	 1.417508136850241e+000	 1.109355794658762e+000	 5.395333904018544e+000
1	 1.405209386483143e+000	 1.124893903309479e+000	 5.075675408973363e+000
1	 1.392732687476031e+000	 1.140305003643769e+000	 4.757348463089846e+000
1	 1.380080008951025e+000	 1.155586059003449e+000	 4.440677430644149e+000
1	 1.367253388693743e+000	 1.170734073575937e+000	 4.126018189626892e+000
1	 1.354254932090051e+000	 1.185746094326382e+000	 3.813757603729243e+000
1	 1.341086810997859e+000	 1.200619212896339e+000	 3.504312932803798e+000
1	 1.486589837339156e+000	 1.061492330860527e+000	 6.157095529053978e+000
1	 1.474849769703483e+000	 1.077744630093994e+000	 5.835513836630171e+000
1	 1.462921839857642e+000	 1.093880740157302e+000	 5.514813425777479e+000
1	 1.450807757939659e+000	 1.109897433792857e+000	 5.195023265169607e+000
1	 1.438509307404328e+000	 1.125791517064594e+000	 4.876197180030785e+000
1	 1.426028344218016e+000	 1.141559831427820e+000	 4.558413837958917e+000
1	 1.413366795983732e+000	 1.157199255775851e+000	 4.241776686648933e+000
1	 1.400526660997231e+000	 1.172706708460706e+000	 3.926413843364286e+000
1	 1.387510007235056e+000	 1.188079149285162e+000	 3.612477936129237e+000
1	 1.374318971275530e+000	 1.203313581463499e+000	 3.300145896740475e+000
1	 1.360955757153845e+000	 1.218407053548307e+000	 2.989618705822553e+000
1	 1.508292948022928e+000	 1.076989332764112e+000	 5.614585045933759e+000
1	 1.496381484094301e+000	 1.093478903530557e+000	 5.294332184731596e+000
1	 1.484279415306369e+000	 1.109850588851077e+000	 4.975409141914750e+000
1	 1.471988476763907e+000	 1.126101114352494e+000	 4.657724552611011e+000
1	 1.459510477958825e+000	 1.142227239469625e+000	 4.341204874438120e+000
1	 1.446847301953224e+000	 1.158225759545347e+000	 4.025794562980321e+000
1	 1.434000904491688e+000	 1.174093507907113e+000	 3.711456212661152e+000
1	 1.420973313043610e+000	 1.189827357917149e+000	 3.398170662512370e+000
1	 1.407766625776456e+000	 1.205424224993586e+000	 3.085937066428247e+000
1	 1.394383010461012e+000	 1.220881068599836e+000	 2.774772927584950e+000
1	 1.380824703309748e+000	 1.236194894199525e+000	 2.464714096797293e+000
1	 1.529996058707168e+000	 1.092486334667199e+000	 5.054358241141405e+000
1	 1.517913198485543e+000	 1.109213176966573e+000	 4.736007241913304e+000
1	 1.505636990755471e+000	 1.125820437544266e+000	 4.419393486255246e+000
1	 1.493169195588471e+000	 1.142304794911510e+000	 4.104348405599009e+000
1	 1.480511648513576e+000	 1.158662961874006e+000	 3.790715288159830e+000
1	 1.467666259688621e+000	 1.174891687662203e+000	 3.478349574424360e+000
1	 1.454635012999764e+000	 1.190987760037690e+000	 3.167119129315267e+000
1	 1.441419965090038e+000	 1.206948007372900e+000	 2.856904490322294e+000
1	 1.428023244317835e+000	 1.222769300701319e+000	 2.547599090948696e+000
1	 1.414447049646400e+000	 1.238448555735489e+000	 2.239109458883411e+000
1	 1.400693649465486e+000	 1.253982734850077e+000	 1.931355388373464e+000
1	 1.551699169391692e+000	 1.107983336569954e+000	 4.476383311674182e+000
1	 1.539444912877032e+000	 1.124947450402209e+000	 4.160553276134937e+000
1	 1.526994566204774e+000	 1.141790286237030e+000	 3.846858932490282e+000
1	 1.514349914413188e+000	 1.158508475470063e+000	 3.535095888564366e+000
1	 1.501512819068427e+000	 1.175098684277891e+000	 3.225066676360702e+000
1	 1.488485217424060e+000	 1.191557615778533e+000	 2.916581099571269e+000
1	 1.475269121507825e+000	 1.207882012167718e+000	 2.609456566882376e+000
1	 1.461866617136391e+000	 1.224068656828083e+000	 2.303518410291063e+000
1	 1.448279862859078e+000	 1.240114376408472e+000	 1.998600187680766e+000
1	 1.434511088831594e+000	 1.256016042870558e+000	 1.694543968944333e+000
1	 1.420562595620974e+000	 1.271770575500046e+000	 1.391200604982137e+000
1	 1.573402280076317e+000	 1.123480338472544e+000	 3.880630209258627e+000
1	 1.560976627268588e+000	 1.140681723837632e+000	 3.567983768120638e+000
1	 1.548352141654106e+000	 1.157760134929534e+000	 3.257892852075440e+000
1	 1.535530633237893e+000	 1.174712156028311e+000	 2.950156972209912e+000
1	 1.522513989623221e+000	 1.191534406681430e+000	 2.644578630981123e+000
1	 1.509304175159396e+000	 1.208223543894480e+000	 2.340963655318157e+000
1	 1.495903230015734e+000	 1.224776264297331e+000	 2.039121522531270e+000
1	 1.482313269182545e+000	 1.241189306282822e+000	 1.738865678297823e+000
1	 1.468536481400075e+000	 1.257459452115157e+000	 1.440013846012236e+000
1	 1.454575128016497e+000	 1.273583530005140e+000	 1.142388326808265e+000
1	 1.440431541776130e+000	 1.289558416149514e+000	 8.458162895838652e-001
1	 1.595105390760859e+000	 1.138977340375136e+000	 3.267070520975578e+000
1	 1.582508341660034e+000	 1.156415997273006e+000	 2.958311464914787e+000
1	 1.569709717103297e+000	 1.173729983621940e+000	 2.652577861337512e+000
1	 1.556711352062423e+000	 1.190915836586413e+000	 2.349711288220542e+000
1	 1.543515160177803e+000	 1.207970129084775e+000	 2.049553350402419e+000
1	 1.530123132894483e+000	 1.224889472010189e+000	 1.751945933325663e+000
1	 1.516537338523357e+000	 1.241670516426661e+000	 1.456731454535997e+000
1	 1.502759921228375e+000	 1.258309955737241e+000	 1.163753112393252e+000
1	 1.488793099940716e+000	 1.274804527821486e+000	 8.728551314549504e-001
1	 1.474639167201013e+000	 1.291151017139334e+000	 5.838830040017736e-001
1	 1.460300487930869e+000	 1.307346256798566e+000	 2.966837271836487e-001
1	 1.616808501445135e+000	 1.154474342277896e+000	 2.635677359499954e+000
1	 1.604040056051193e+000	 1.172150270708497e+000	 2.331548429124549e+000
1	 1.591067292552176e+000	 1.189699832314410e+000	 2.030992140624979e+000
1	 1.577892070886612e+000	 1.207119517144526e+000	 1.733928823188401e+000
1	 1.564516330732018e+000	 1.224405851488079e+000	 1.440276806852680e+000
1	 1.550942090629174e+000	 1.241555400125803e+000	 1.149952533333774e+000
1	 1.537171447030557e+000	 1.258564768555846e+000	 8.628706675447170e-001
1	 1.523206573273759e+000	 1.275430605191462e+000	 5.789442095736067e-001
1	 1.509049718480887e+000	 1.292149603527568e+000	 2.980846068879369e-001
1	 1.494703206385041e+000	 1.308718504273236e+000	 2.020186653391043e-002
1	 1.480169434085108e+000	 1.325134097447286e+000	-2.547953328994893e-001
1	 1.638511612128961e+000	 1.169971344180991e+000	 1.986425262063404e+000
1	 1.625571770441885e+000	 1.187884544144271e+000	 1.687706084248758e+000
1	 1.612424868000571e+000	 1.205669681007109e+000	 1.393209728094534e+000
1	 1.599072789710299e+000	 1.223323197702809e+000	 1.102970557389269e+000
1	 1.585517501285710e+000	 1.240841573891493e+000	 8.170198210344211e-001
1	 1.571761048363324e+000	 1.258221328241467e+000	 5.353855587244585e-001
1	 1.557805555537200e+000	 1.275459020685017e+000	 2.580925082820081e-001
1	 1.543653225318572e+000	 1.292551254645609e+000	-1.483798514727874e-002
1	 1.529306337020478e+000	 1.309494679233517e+000	-2.833880578354285e-001
1	 1.514767245568484e+000	 1.326285991406947e+000	-5.475434139451801e-001
1	 1.500038380238764e+000	 1.342921938095756e+000	-8.072934095331241e-001
1	 1.660214722812154e+000	 1.185468346084587e+000	 1.319290097341951e+000
1	 1.647103484831933e+000	 1.203618817580494e+000	 1.026795256451604e+000
1	 1.633782443448310e+000	 1.221639529700197e+000	 7.393007904544829e-001
1	 1.620253508533318e+000	 1.239526878261420e+000	 4.569890534566288e-001
1	 1.606518671838723e+000	 1.257277296295168e+000	 1.800390524640120e-001
1	 1.592580006096787e+000	 1.274887256357323e+000	-9.137391306322540e-002
1	 1.578439664043150e+000	 1.292353272814311e+000	-3.570786109681172e-001
1	 1.564099877362689e+000	 1.309671904099807e+000	-6.169082347008312e-001
1	 1.549562955559376e+000	 1.326839754939444e+000	-8.707007593992786e-001
1	 1.534831284751244e+000	 1.343853478540561e+000	-1.118299294974296e+000
1	 1.519907326391754e+000	 1.360709778744060e+000	-1.359552435427470e+000
1	 1.681917833494530e+000	 1.200965347988850e+000	 6.342489795525091e-001
1	 1.668635199221159e+000	 1.219353091017331e+000	 3.488262131018778e-001
1	 1.655140018895221e+000	 1.237609378393840e+000	 6.933187274644670e-002
1	 1.641434227355505e+000	 1.255730558820518e+000	-2.038710005210149e-001
1	 1.627519842390902e+000	 1.273713018699258e+000	-4.704220868636726e-001
1	 1.613398963829417e+000	 1.291553184473516e+000	-7.299644739617563e-001
1	 1.599073772548271e+000	 1.309247524943862e+000	-9.821453455429072e-001
1	 1.584546529405988e+000	 1.326792553554178e+000	-1.226616670635345e+000
1	 1.569819574097472e+000	 1.344184830645459e+000	-1.463035892082587e+000
1	 1.554895323933223e+000	 1.361420965674179e+000	-1.691066612847521e+000
1	 1.539776272543993e+000	 1.378497619392282e+000	-1.910379278627908e+000
1	 1.341086810997859e+000	 1.200619212896339e+000	 3.504312932803800e+000
1	 1.327753275425902e+000	 1.215348368834772e+000	 3.189918674642943e+000
1	 1.314254664028600e+000	 1.229932992248813e+000	 2.863798280558628e+000
1	 1.300593340761641e+000	 1.244370322232309e+000	 2.528045277305204e+000
1	 1.286771730854787e+000	 1.258657649759996e+000	 2.184792945252849e+000
1	 1.272792319379371e+000	 1.272792319379371e+000	 1.836210815912676e+000
1	 1.258657649759996e+000	 1.286771730854787e+000	 1.484501102134423e+000
1	 1.244370322232309e+000	 1.300593340761641e+000	 1.131895068383354e+000
1	 1.229932992248813e+000	 1.314254664028600e+000	 7.806493486596249e-001
1	 1.215348368834772e+000	 1.327753275425902e+000	 4.330422197562163e-001
1	 1.200619212896338e+000	 1.341086810997858e+000	 9.136983766183193e-002
1	 1.360955757153845e+000	 1.218407053548307e+000	 2.989618705822553e+000
1	 1.347424677844972e+000	 1.233354430115146e+000	 2.673207283014125e+000
1	 1.333726077020677e+000	 1.248155132827870e+000	 2.344530786347583e+000
1	 1.319862353659959e+000	 1.262806359875976e+000	 2.005947424663832e+000
1	 1.305835968923696e+000	 1.277305362098496e+000	 1.659862498724800e+000
1	 1.291649444700928e+000	 1.291649444700928e+000	 1.308724327291055e+000
1	 1.277305362098496e+000	 1.305835968923696e+000	 9.550200927936492e-001
1	 1.262806359875977e+000	 1.319862353659958e+000	 6.012716152778648e-001
1	 1.248155132827871e+000	 1.333726077020677e+000	 2.500310634834768e-001
1	 1.233354430115146e+000	 1.347424677844972e+000	-9.612338791244268e-002
1	 1.218407053548307e+000	 1.360955757153844e+000	-4.345919457320526e-001
1	 1.380824703309748e+000	 1.236194894199525e+000	 2.464714096797293e+000
1	 1.367096080263875e+000	 1.251360491394809e+000	 2.148352605512216e+000
1	 1.353197490012505e+000	 1.266377273406264e+000	 1.819804191879981e+000
1	 1.339131366557947e+000	 1.281242397519038e+000	 1.481584935805647e+000
1	 1.324900206992199e+000	 1.295953074436450e+000	 1.136262968155547e+000
1	 1.310506570022005e+000	 1.310506570022005e+000	 7.864540132351521e-001
1	 1.295953074436450e+000	 1.324900206992199e+000	 4.348168418225183e-001
1	 1.281242397519037e+000	 1.339131366557946e+000	 8.404864430357517e-002
1	 1.266377273406264e+000	 1.353197490012505e+000	-2.631196663353071e-001
1	 1.251360491394809e+000	 1.367096080263874e+000	-6.039282117222791e-001
1	 1.236194894199525e+000	 1.380824703309748e+000	-9.355929554381813e-001
1	 1.400693649465486e+000	 1.253982734850077e+000	 1.931355388373464e+000
1	 1.386767482682543e+000	 1.269366552673829e+000	 1.617366923090105e+000
1	 1.372668903004032e+000	 1.284599413984047e+000	 1.291813957272633e+000
1	 1.358400379455570e+000	 1.299678435161524e+000	 9.572681951894198e-001
1	 1.343964445060277e+000	 1.314600786773875e+000	 6.163560387132646e-001
1	 1.329363695342603e+000	 1.329363695342603e+000	 2.717539293994276e-001
1	 1.314600786773875e+000	 1.343964445060277e+000	-7.381640396987704e-002
1	 1.299678435161524e+000	 1.358400379455569e+000	-4.175927823520810e-001
1	 1.284599413984047e+000	 1.372668903004031e+000	-7.567774876792399e-001
1	 1.269366552673829e+000	 1.386767482682543e+000	-1.088542237926971e+000
1	 1.253982734850077e+000	 1.400693649465486e+000	-1.410033215425874e+000
1	 1.420562595620974e+000	 1.271770575500046e+000	 1.391200604982137e+000
1	 1.406438885100908e+000	 1.287372613952274e+000	 1.082149936226672e+000
1	 1.392140315995205e+000	 1.302821554561270e+000	 7.626327138993662e-001
1	 1.377669392352793e+000	 1.318114472803472e+000	 4.351783288934814e-001
1	 1.363028683127914e+000	 1.333248499110788e+000	 1.023712670804505e-001
1	 1.348220820662722e+000	 1.348220820662722e+000	-2.331535702012907e-001
1	 1.333248499110788e+000	 1.363028683127914e+000	-5.687156414133078e-001
1	 1.318114472803473e+000	 1.377669392352793e+000	-9.015936257282922e-001
1	 1.302821554561270e+000	 1.392140315995205e+000	-1.229030359249152e+000
1	 1.287372613952274e+000	 1.406438885100908e+000	-1.548237836005995e+000
1	 1.271770575500046e+000	 1.420562595620974e+000	-1.856402263039710e+000
1	 1.440431541776130e+000	 1.289558416149514e+000	 8.458162895838655e-001
1	 1.426110287518902e+000	 1.305378675230213e+000	 5.444965294586288e-001
1	 1.411611728985974e+000	 1.321043695137985e+000	 2.342187357326558e-001
1	 1.396938405249583e+000	 1.336550510444917e+000	-8.262388059838188e-002
1	 1.382092921195092e+000	 1.351896211447207e+000	-4.035848058126563e-001
1	 1.367077945982363e+000	 1.367077945982363e+000	-7.261687498973186e-001
1	 1.351896211447207e+000	 1.382092921195092e+000	-1.047836266175835e+000
1	 1.336550510444917e+000	 1.396938405249583e+000	-1.366008454304002e+000
1	 1.321043695137985e+000	 1.411611728985973e+000	-1.678071736592430e+000
1	 1.305378675230213e+000	 1.426110287518902e+000	-1.981382697423668e+000
1	 1.289558416149514e+000	 1.440431541776130e+000	-2.273272975376002e+000
1	 1.460300487930869e+000	 1.307346256798566e+000	 2.966837271836483e-001
1	 1.445781689936458e+000	 1.323384736507713e+000	 6.103902044200582e-003
1	 1.431083141976286e+000	 1.339265835714243e+000	-2.915762808838464e-001
1	 1.416207418145903e+000	 1.354986548085892e+000	-5.941898073819469e-001
1	 1.401157159261793e+000	 1.370543923783149e+000	-8.995202859852327e-001
1	 1.385935071301524e+000	 1.385935071301524e+000	-1.205306150596998e+000
1	 1.370543923783149e+000	 1.401157159261793e+000	-1.509244950020806e+000
1	 1.354986548085892e+000	 1.416207418145903e+000	-1.808997715245783e+000
1	 1.339265835714243e+000	 1.431083141976285e+000	-2.102193395116670e+000
1	 1.323384736507713e+000	 1.445781689936457e+000	-2.386433350842378e+000
1	 1.307346256798566e+000	 1.460300487930869e+000	-2.659295899651162e+000
1	 1.480169434085108e+000	 1.325134097447286e+000	-2.547953328994889e-001
1	 1.465453092353505e+000	 1.341390797784841e+000	-5.314218756812568e-001
1	 1.450554554966089e+000	 1.357487976290097e+000	-8.130000640505511e-001
1	 1.435476431041720e+000	 1.373422585726433e+000	-1.097675454504383e+000
1	 1.420221397328001e+000	 1.389191636118633e+000	-1.383550231631196e+000
1	 1.404792196620205e+000	 1.404792196620205e+000	-1.668686919870229e+000
1	 1.389191636118633e+000	 1.420221397328000e+000	-1.951112172274024e+000
1	 1.373422585726434e+000	 1.435476431041720e+000	-2.228820628133476e+000
1	 1.357487976290097e+000	 1.450554554966089e+000	-2.499778831142667e+000
1	 1.341390797784841e+000	 1.465453092353505e+000	-2.761929199624299e+000
1	 1.325134097447286e+000	 1.480169434085108e+000	-3.013194040205715e+000
1	 1.500038380238764e+000	 1.342921938095756e+000	-8.072934095331239e-001
1	 1.485124494769979e+000	 1.359396859061667e+000	-1.066559827007264e+000
1	 1.470025967955333e+000	 1.375710116865597e+000	-1.328393181617187e+000
1	 1.454745443936998e+000	 1.391858623366575e+000	-1.591334524584775e+000
1	 1.439285635393696e+000	 1.407839348453674e+000	-1.853889569876950e+000
1	 1.423649321938408e+000	 1.423649321938408e+000	-2.114531751588862e+000
1	 1.407839348453675e+000	 1.439285635393696e+000	-2.371705344843401e+000
1	 1.391858623366576e+000	 1.454745443936998e+000	-2.623828643448164e+000
1	 1.375710116865597e+000	 1.470025967955333e+000	-2.869297187399616e+000
1	 1.359396859061668e+000	 1.485124494769979e+000	-3.106487033195052e+000
1	 1.342921938095756e+000	 1.500038380238764e+000	-3.333758059804468e+000
1	 1.519907326391754e+000	 1.360709778744060e+000	-1.359552435427470e+000
1	 1.504795897185810e+000	 1.377402920338258e+000	-1.597868506928107e+000
1	 1.489497380943965e+000	 1.393932257440796e+000	-1.836182972957624e+000
1	 1.474014456831702e+000	 1.410294661006352e+000	-2.073512033939450e+000
1	 1.458349873458863e+000	 1.426487060788292e+000	-2.308846569112224e+000
1	 1.442506447256132e+000	 1.442506447256132e+000	-2.541154379345401e+000
1	 1.426487060788292e+000	 1.458349873458863e+000	-2.769382476476253e+000
1	 1.410294661006352e+000	 1.474014456831702e+000	-2.992459414142572e+000
1	 1.393932257440796e+000	 1.489497380943965e+000	-3.209297654973707e+000
1	 1.377402920338258e+000	 1.504795897185809e+000	-3.418795968907578e+000
1	 1.360709778744060e+000	 1.519907326391754e+000	-3.619841857321976e+000
1	 1.539776272543993e+000	 1.378497619392282e+000	-1.910379278627908e+000
1	 1.524467299600929e+000	 1.395408981614681e+000	-2.123980870841648e+000
1	 1.508968793931934e+000	 1.412154398015745e+000	-2.334877950563248e+000
1	 1.493283469725799e+000	 1.428730698645799e+000	-2.542638421119034e+000
1	 1.477414111523483e+000	 1.445134773122503e+000	-2.746816816710498e+000
1	 1.461363572573377e+000	 1.461363572573377e+000	-2.946955573628601e+000
1	 1.445134773122503e+000	 1.477414111523483e+000	-3.142586327547209e+000
1	 1.428730698645799e+000	 1.493283469725798e+000	-3.333231233948830e+000
1	 1.412154398015745e+000	 1.508968793931934e+000	-3.518404308672643e+000
1	 1.395408981614682e+000	 1.524467299600929e+000	-3.697612785520924e+000
1	 1.378497619392282e+000	 1.539776272543993e+000	-3.870358487815470e+000
1	 1.200619212896338e+000	 1.341086810997858e+000	 9.136983766183127e-002
1	 1.185746094326383e+000	 1.354254932090050e+000	-2.475502728529901e-001
1	 1.170734073575938e+000	 1.367253388693743e+000	-5.877632579084341e-001
1	 1.155586059003449e+000	 1.380080008951025e+000	-9.284226191148375e-001
1	 1.140305003643770e+000	 1.392732687476031e+000	-1.268702505121813e+000
1	 1.124893903309479e+000	 1.405209386483143e+000	-1.607798982598065e+000
1	 1.109355794658762e+000	 1.417508136850241e+000	-1.944931261900512e+000
1	 1.093693753232441e+000	 1.429627039115891e+000	-2.279342875101127e+000
1	 1.077910891462778e+000	 1.441564264409459e+000	-2.610302804172815e+000
1	 1.062010356656721e+000	 1.453318055313266e+000	-2.937106557274174e+000
1	 1.045995328956277e+000	 1.464886726656035e+000	-3.259077191220122e+000
1	 1.218407053548307e+000	 1.360955757153844e+000	-4.345919457320531e-001
1	 1.203313581463500e+000	 1.374318971275530e+000	-7.688975668924429e-001
1	 1.188079149285163e+000	 1.387510007235055e+000	-1.103762210139422e+000
1	 1.172706708460706e+000	 1.400526660997230e+000	-1.438536156006456e+000
1	 1.157199255775852e+000	 1.413366795983732e+000	-1.772590359580473e+000
1	 1.141559831427821e+000	 1.426028344218016e+000	-2.105317376370368e+000
1	 1.125791517064595e+000	 1.438509307404328e+000	-2.436132244843207e+000
1	 1.109897433792857e+000	 1.450807757939658e+000	-2.764473324009672e+000
1	 1.093880740157302e+000	 1.462921839857642e+000	-3.089803084564094e+000
1	 1.077744630093995e+000	 1.474849769703482e+000	-3.411608852210713e+000
1	 1.061492330860527e+000	 1.486589837339156e+000	-3.729403501938023e+000
1	 1.236194894199525e+000	 1.380824703309748e+000	-9.355929554381818e-001
1	 1.220881068599836e+000	 1.394383010461012e+000	-1.262111929759881e+000
1	 1.205424224993587e+000	 1.407766625776456e+000	-1.588913131791511e+000
1	 1.189827357917149e+000	 1.420973313043610e+000	-1.915503400326598e+000
1	 1.174093507907113e+000	 1.434000904491688e+000	-2.241409265150801e+000
1	 1.158225759545347e+000	 1.446847301953223e+000	-2.566177603496189e+000
1	 1.142227239469625e+000	 1.459510477958824e+000	-2.889376256433107e+000
1	 1.126101114352495e+000	 1.471988476763907e+000	-3.210594604126444e+000
1	 1.109850588851078e+000	 1.484279415306369e+000	-3.529444098997411e+000
1	 1.093478903530557e+000	 1.496381484094300e+000	-3.845558755940649e+000
1	 1.076989332764113e+000	 1.508292948022929e+000	-4.158595598864839e+000
1	 1.253982734850077e+000	 1.400693649465486e+000	-1.410033215425874e+000
1	 1.238448555735489e+000	 1.414447049646400e+000	-1.725822667617537e+000
1	 1.222769300701319e+000	 1.428023244317834e+000	-2.042042860822063e+000
1	 1.206948007372900e+000	 1.441419965090038e+000	-2.358318831850131e+000
1	 1.190987760037691e+000	 1.454635012999764e+000	-2.674293337141728e+000
1	 1.174891687662203e+000	 1.467666259688620e+000	-2.989627313532924e+000
1	 1.158662961874007e+000	 1.480511648513576e+000	-3.304000303497461e+000
1	 1.142304794911510e+000	 1.493169195588471e+000	-3.617110844174595e+000
1	 1.125820437544266e+000	 1.505636990755470e+000	-3.928676819591074e+000
1	 1.109213176966573e+000	 1.517913198485543e+000	-4.238435775580992e+000
1	 1.092486334667199e+000	 1.529996058707168e+000	-4.546145197006854e+000
1	 1.271770575500046e+000	 1.420562595620974e+000	-1.856402263039710e+000
1	 1.256016042870559e+000	 1.434511088831594e+000	-2.158735772421470e+000
1	 1.240114376408472e+000	 1.448279862859078e+000	-2.462043869730983e+000
1	 1.224068656828083e+000	 1.461866617136390e+000	-2.766033185888141e+000
1	 1.207882012167719e+000	 1.475269121507824e+000	-3.070425134251407e+000
1	 1.191557615778533e+000	 1.488485217424059e+000	-3.374956247560764e+000
1	 1.175098684277891e+000	 1.501512819068426e+000	-3.679378485142230e+000
1	 1.158508475470063e+000	 1.514349914413187e+000	-3.983459509907418e+000
1	 1.141790286237030e+000	 1.526994566204773e+000	-4.286982934760436e+000
1	 1.124947450402210e+000	 1.539444912877031e+000	-4.589748538106668e+000
1	 1.107983336569954e+000	 1.551699169391692e+000	-4.891572448237100e+000
1	 1.289558416149514e+000	 1.440431541776130e+000	-2.273272975376002e+000
1	 1.273583530005141e+000	 1.454575128016497e+000	-2.559628632999941e+000
1	 1.257459452115157e+000	 1.468536481400075e+000	-2.847869738829165e+000
1	 1.241189306282823e+000	 1.482313269182544e+000	-3.137749573415134e+000
1	 1.224776264297331e+000	 1.495903230015734e+000	-3.429032317488230e+000
1	 1.208223543894480e+000	 1.509304175159395e+000	-3.721493335183922e+000
1	 1.191534406681430e+000	 1.522513989623221e+000	-4.014919434544775e+000
1	 1.174712156028311e+000	 1.535530633237893e+000	-4.309109104895812e+000
1	 1.157760134929534e+000	 1.548352141654106e+000	-4.603872730753717e+000
1	 1.140681723837633e+000	 1.560976627268587e+000	-4.899032781991007e+000
1	 1.123480338472545e+000	 1.573402280076317e+000	-5.194423980040995e+000
1	 1.307346256798566e+000	 1.460300487930869e+000	-2.659295899651161e+000
1	 1.291151017139334e+000	 1.474639167201012e+000	-2.927345177899968e+000
1	 1.274804527821486e+000	 1.488793099940715e+000	-3.198530999053980e+000
1	 1.258309955737241e+000	 1.502759921228375e+000	-3.472619917934772e+000
1	 1.241670516426661e+000	 1.516537338523356e+000	-3.749384581845168e+000
1	 1.224889472010190e+000	 1.530123132894482e+000	-4.028604028522156e+000
1	 1.207970129084775e+000	 1.543515160177803e+000	-4.310063969589093e+000
1	 1.190915836586413e+000	 1.556711352062423e+000	-4.593557059015104e+000
1	 1.173729983621940e+000	 1.569709717103297e+000	-4.878883146131748e+000
1	 1.156415997273006e+000	 1.582508341660034e+000	-5.165849512801169e+000
1	 1.138977340375136e+000	 1.595105390760859e+000	-5.454271094371157e+000
1	 1.325134097447286e+000	 1.480169434085108e+000	-3.013194040205714e+000
1	 1.308718504273237e+000	 1.494703206385040e+000	-3.260791409431826e+000
1	 1.292149603527568e+000	 1.509049718480886e+000	-3.513091309605731e+000
1	 1.275430605191462e+000	 1.523206573273759e+000	-3.769841679322634e+000
1	 1.258564768555845e+000	 1.537171447030556e+000	-4.030790835099099e+000
1	 1.241555400125804e+000	 1.550942090629174e+000	-4.295687850923677e+000
1	 1.224405851488079e+000	 1.564516330732017e+000	-4.564282932720431e+000
1	 1.207119517144526e+000	 1.577892070886612e+000	-4.836327786993881e+000
1	 1.189699832314410e+000	 1.591067292552176e+000	-5.111575982941091e+000
1	 1.172150270708498e+000	 1.604040056051193e+000	-5.389783307343079e+000
1	 1.154474342277895e+000	 1.616808501445135e+000	-5.670708111567935e+000
1	 1.342921938095756e+000	 1.500038380238764e+000	-3.333758059804469e+000
1	 1.326285991406947e+000	 1.514767245568483e+000	-3.558931292639988e+000
1	 1.309494679233518e+000	 1.529306337020477e+000	-3.790663939362492e+000
1	 1.292551254645610e+000	 1.543653225318572e+000	-4.028654838037485e+000
1	 1.275459020685018e+000	 1.557805555537200e+000	-4.272596600821617e+000
1	 1.258221328241467e+000	 1.571761048363324e+000	-4.522176140491717e+000
1	 1.240841573891493e+000	 1.585517501285710e+000	-4.777075202474912e+000
1	 1.223323197702809e+000	 1.599072789710298e+000	-5.036970901258081e+000
1	 1.205669681007109e+000	 1.612424868000571e+000	-5.301536260051706e+000
1	 1.187884544144272e+000	 1.625571770441884e+000	-5.570440752582524e+000
1	 1.169971344180990e+000	 1.638511612128961e+000	-5.843350845894628e+000
1	 1.360709778744060e+000	 1.519907326391754e+000	-3.619841857321976e+000
1	 1.343853478540562e+000	 1.534831284751244e+000	-3.820782966721438e+000
1	 1.326839754939444e+000	 1.549562955559376e+000	-4.030408524274099e+000
1	 1.309671904099808e+000	 1.564099877362689e+000	-4.248339115875257e+000
1	 1.292353272814312e+000	 1.578439664043149e+000	-4.474181625083564e+000
1	 1.274887256357323e+000	 1.592580006096787e+000	-4.707529970596635e+000
1	 1.257277296295168e+000	 1.606518671838722e+000	-4.947965860973815e+000
1	 1.239526878261421e+000	 1.620253508533317e+000	-5.195059564949512e+000
1	 1.221639529700198e+000	 1.633782443448310e+000	-5.448370695650488e+000
1	 1.203618817580494e+000	 1.647103484831933e+000	-5.707449007008759e+000
1	 1.185468346084586e+000	 1.660214722812153e+000	-5.971835200643694e+000
1	 1.378497619392282e+000	 1.539776272543993e+000	-3.870358487815470e+000
1	 1.361420965674179e+000	 1.554895323933223e+000	-4.045415249766879e+000
1	 1.344184830645459e+000	 1.569819574097472e+000	-4.231528075807558e+000
1	 1.326792553554179e+000	 1.584546529405988e+000	-4.428211411900057e+000
1	 1.309247524943862e+000	 1.599073772548270e+000	-4.634957668456084e+000
1	 1.291553184473516e+000	 1.613398963829416e+000	-4.851238231387986e+000
1	 1.273713018699259e+000	 1.627519842390902e+000	-5.076504503296503e+000
1	 1.255730558820518e+000	 1.641434227355505e+000	-5.310188972458630e+000
1	 1.237609378393840e+000	 1.655140018895221e+000	-5.551706307224288e+000
1	 1.219353091017331e+000	 1.668635199221159e+000	-5.800454473381812e+000
1	 1.200965347988850e+000	 1.681917833494530e+000	-6.055815872014002e+000
1	 1.045995328956277e+000	 1.464886726656035e+000	-3.259077191220122e+000
1	 1.029869018930230e+000	 1.476268665820915e+000	-3.577240198123696e+000
1	 1.013634664473865e+000	 1.487462332141325e+000	-3.892687880974612e+000
1	 9.972955298026257e-001	 1.498466258716638e+000	-4.204883493099256e+000
1	 9.808549037040834e-001	 1.509279053342249e+000	-4.513316019828417e+000
1	 9.643160974265820e-001	 1.519899398955622e+000	-4.817501076061628e+000
1	 9.476824425612986e-001	 1.530326054011600e+000	-5.116981747457814e+000
1	 9.309572889204426e-001	 1.540557852787052e+000	-5.411329373955087e+000
1	 9.141440024143027e-001	 1.550593705615053e+000	-5.700144274480669e+000
1	 8.972459629298207e-001	 1.560432599048893e+000	-5.983056411876110e+000
1	 8.802665622133532e-001	 1.570073595956371e+000	-6.259725997224164e+000
1	 1.061492330860527e+000	 1.486589837339156e+000	-3.729403501938023e+000
1	 1.045127100592058e+000	 1.498140406255998e+000	-4.044346027639568e+000
1	 1.028652225155088e+000	 1.509499912961594e+000	-4.357624031506701e+000
1	 1.012071017126220e+000	 1.520666868822365e+000	-4.668831214887221e+000
1	 9.953868140182343e-001	 1.531639861007416e+000	-4.977586338132623e+000
1	 9.786029761374552e-001	 1.542417552941194e+000	-5.283533899933383e+000
1	 9.617228844344277e-001	 1.552998684684357e+000	-5.586344763277006e+000
1	 9.447499383506843e-001	 1.563382073242935e+000	-5.885716727150806e+000
1	 9.276875536643400e-001	 1.573566612805977e+000	-6.181375043262186e+000
1	 9.105391603372334e-001	 1.583551274911993e+000	-6.473072877196024e+000
1	 8.933082003663225e-001	 1.593335108544644e+000	-6.760591713576631e+000
1	 1.076989332764113e+000	 1.508292948022929e+000	-4.158595598864839e+000
1	 1.060385182253275e+000	 1.520012146691773e+000	-4.469843228740761e+000
1	 1.043669785835759e+000	 1.531537493782587e+000	-4.780602607996229e+000
1	 1.026846504449323e+000	 1.542867478928838e+000	-5.090584756643869e+000
1	 1.009918724331958e+000	 1.554000668673342e+000	-5.399525047814398e+000
1	 9.928898548479602e-001	 1.564935706927530e+000	-5.707183688558676e+000
1	 9.757633263072429e-001	 1.575671315357876e+000	-6.013346150101826e+000
1	 9.585425877806589e-001	 1.586206293699568e+000	-6.317823547056713e+000
1	 9.412311049141454e-001	 1.596539519997630e+000	-6.620452965242547e+000
1	 9.238323577444381e-001	 1.606669950775794e+000	-6.921097737887553e+000
1	 9.063498385190916e-001	 1.616596621133581e+000	-7.219647670130376e+000
1	 1.092486334667199e+000	 1.529996058707168e+000	-4.546145197006854e+000
1	 1.075643263914047e+000	 1.541883887128052e+000	-4.853226909070205e+000
1	 1.058687346516041e+000	 1.553575074604111e+000	-5.161119857955399e+000
1	 1.041621991772097e+000	 1.565068089035861e+000	-5.469639817090041e+000
1	 1.024450634645408e+000	 1.576361476339833e+000	-5.778626173424484e+000
1	 1.007176733558246e+000	 1.587453860914437e+000	-6.087942228835314e+000
1	 9.898037681798884e-001	 1.598343946031964e+000	-6.397475453651017e+000
1	 9.723352372105056e-001	 1.609030514156761e+000	-6.707137692156440e+000
1	 9.547746561638566e-001	 1.619512427189830e+000	-7.016865320058228e+000
1	 9.371255551515684e-001	 1.629788626640121e+000	-7.326619354015645e+000
1	 9.193914766717938e-001	 1.639858133723017e+000	-7.636385513464719e+000
1	 1.107983336569954e+000	 1.551699169391692e+000	-4.891572448237100e+000
1	 1.090901345574538e+000	 1.563755627564647e+000	-5.194020423330644e+000
1	 1.073704907196097e+000	 1.575612655425975e+000	-5.498700212184449e+000
1	 1.056397479094699e+000	 1.587268699143244e+000	-5.805520308937863e+000
1	 1.038982544958740e+000	 1.598722284006695e+000	-6.114412047169179e+000
1	 1.021463612268464e+000	 1.609972014901722e+000	-6.425329740505919e+000
1	 1.003844210052510e+000	 1.621016576706430e+000	-6.738250777874681e+000
1	 9.861278866403658e-001	 1.631854734614328e+000	-7.053175673560257e+000
1	 9.683182074136094e-001	 1.642485334382393e+000	-7.370128072356870e+000
1	 9.504187525587590e-001	 1.652907302504798e+000	-7.689154710210130e+000
1	 9.324331148245620e-001	 1.663119646312786e+000	-8.010325330854602e+000
1	 1.123480338472545e+000	 1.573402280076317e+000	-5.194423980040995e+000
1	 1.106159427234916e+000	 1.585627368001368e+000	-5.491773425121159e+000
1	 1.088722467876090e+000	 1.597650236247987e+000	-5.792894341006083e+000
1	 1.071172966417289e+000	 1.609469309250792e+000	-6.097776413007304e+000
1	 1.053514455272108e+000	 1.621083091673732e+000	-6.406431356566934e+000
1	 1.035750490978762e+000	 1.632490168889190e+000	-6.718892915180507e+000
1	 1.017884651925251e+000	 1.643689207381081e+000	-7.035216815329471e+000
1	 9.999205360703791e-001	 1.654678955072082e+000	-7.355480678869685e+000
1	 9.818617586635410e-001	 1.665458241575139e+000	-7.679783893428677e+000
1	 9.637119499661438e-001	 1.676025978369649e+000	-8.008247441465894e+000
1	 9.454747529775296e-001	 1.686381158902720e+000	-8.341013688751435e+000
1	 1.138977340375136e+000	 1.595105390760859e+000	-5.454271094371157e+000
1	 1.121417508895345e+000	 1.607499108438029e+000	-5.746060077814179e+000
1	 1.103740028556184e+000	 1.619687817069959e+000	-6.043277369181888e+000
1	 1.085948453740026e+000	 1.631669919358312e+000	-6.345982791198154e+000
1	 1.068046365585667e+000	 1.643443899340752e+000	-6.654257351487962e+000
1	 1.050037369689292e+000	 1.655008322876647e+000	-6.968203115446745e+000
1	 1.031925093798258e+000	 1.666361838055729e+000	-7.287943038346227e+000
1	 1.013713185500687e+000	 1.677503175529833e+000	-7.613620757367017e+000
1	 9.954053099137876e-001	 1.688431148767885e+000	-7.945400344344302e+000
1	 9.770051473738578e-001	 1.699144654234502e+000	-8.283466020109447e+000
1	 9.585163911308305e-001	 1.709642671492654e+000	-8.628021831395964e+000
1	 1.154474342277895e+000	 1.616808501445135e+000	-5.670708111567935e+000
1	 1.136675590555991e+000	 1.629370848874443e+000	-5.956477409529390e+000
1	 1.118757589236542e+000	 1.641725397891696e+000	-6.249447234600244e+000
1	 1.100723941063070e+000	 1.653870529465609e+000	-6.549736943389708e+000
1	 1.082578275899572e+000	 1.665804707007561e+000	-6.857486195599075e+000
1	 1.064324248400201e+000	 1.677526476863900e+000	-7.172854719024021e+000
1	 1.045965535671676e+000	 1.689034468730178e+000	-7.496022035882887e+000
1	 1.027505834931429e+000	 1.700327395987393e+000	-7.827187151369853e+000
1	 1.008948861164487e+000	 1.711404055960447e+000	-8.166568205423854e+000
1	 9.902983447820346e-001	 1.722263330099178e+000	-8.514402088787938e+000
1	 9.715580292845978e-001	 1.732904184082422e+000	-8.870944024515362e+000
1	 1.169971344180990e+000	 1.638511612128961e+000	-5.843350845894628e+000
1	 1.151933672217020e+000	 1.651242589310421e+000	-6.122643798844566e+000
1	 1.133775149917325e+000	 1.663762978713008e+000	-6.411023177405835e+000
1	 1.115499428386579e+000	 1.676071139572492e+000	-6.708657694924373e+000
1	 1.097110186213977e+000	 1.688165514673963e+000	-7.015735448825889e+000
1	 1.078611127111641e+000	 1.700044630850756e+000	-7.332463594514586e+000
1	 1.060005977545648e+000	 1.711707099404241e+000	-7.659067982552907e+000
1	 1.041298484362745e+000	 1.723151616444576e+000	-7.995792760200173e+000
1	 1.022492412415774e+000	 1.734376963152643e+000	-8.342899938469394e+000
1	 1.003591542190809e+000	 1.745382005963504e+000	-8.700668925942354e+000
1	 9.845996674389650e-001	 1.756165696671858e+000	-9.069396030653300e+000
1	 1.185468346084586e+000	 1.660214722812153e+000	-5.971835200643694e+000
1	 1.167191753878597e+000	 1.673114329745773e+000	-6.244197579278989e+000
1	 1.148792710598699e+000	 1.685800559533704e+000	-6.527644347633484e+000
1	 1.130274915710714e+000	 1.698271749678765e+000	-6.822383802724681e+000
1	 1.111642096529037e+000	 1.710526322339764e+000	-7.128642668842895e+000
1	 1.092898005823761e+000	 1.722562784837019e+000	-7.446665696708550e+000
1	 1.074046419420320e+000	 1.734379730077722e+000	-7.776715227736391e+000
1	 1.055091133794776e+000	 1.745975836901193e+000	-8.119070724631042e+000
1	 1.036035963667787e+000	 1.757349870344292e+000	-8.474028269612001e+000
1	 1.016884739600314e+000	 1.768500681827305e+000	-8.841900031640753e+000
1	 9.976413055940656e-001	 1.779427209260796e+000	-9.223013704086807e+000
1	 1.200965347988850e+000	 1.681917833494530e+000	-6.055815872014002e+000
1	 1.182449835540888e+000	 1.694986070180314e+000	-6.320795751821670e+000
1	 1.163810271280825e+000	 1.707838140353592e+000	-6.598968520643293e+000
1	 1.145050403035632e+000	 1.720472359784237e+000	-6.890572669328847e+000
1	 1.126174006844908e+000	 1.732887130004770e+000	-7.195864120839527e+000
1	 1.107184884536711e+000	 1.745080938822499e+000	-7.515115770644100e+000
1	 1.088086861295837e+000	 1.757052360750431e+000	-7.848616993924814e+000
1	 1.068883783227663e+000	 1.768800057357055e+000	-8.196673120929511e+000
1	 1.049579514920662e+000	 1.780322777535209e+000	-8.559604881878592e+000
1	 1.030177937010685e+000	 1.791619357690403e+000	-8.937747822900013e+000
1	 1.010682943750033e+000	 1.802688721849068e+000	-9.331451694529157e+000
1	 8.802665622133532e-001	 1.570073595956371e+000	-6.259725997224166e+000
1	 8.632117660713862e-001	 1.579514434436757e+000	-6.529402457947455e+000
1	 8.460824421315376e-001	 1.588755792347744e+000	-6.790821632936768e+000
1	 8.288820044695899e-001	 1.597796962967234e+000	-7.042791756142075e+000
1	 8.116138706063586e-001	 1.606637315540310e+000	-7.284147515752608e+000
1	 7.942814594508104e-001	 1.615276295033541e+000	-7.513752338632763e+000
1	 7.768881892624312e-001	 1.623713421824428e+000	-7.730500592557696e+000
1	 7.594374756351371e-001	 1.631948291327147e+000	-7.933319702687122e+000
1	 7.419327295049742e-001	 1.639980573555821e+000	-8.121172178989148e+000
1	 7.243773551837657e-001	 1.647810012626663e+000	-8.293057551604706e+000
1	 7.067747484208015e-001	 1.655436426200365e+000	-8.448014211426617e+000
1	 8.933082003663225e-001	 1.593335108544644e+000	-6.760591713576628e+000
1	 8.760007279448259e-001	 1.602915818291883e+000	-7.043029136992287e+000
1	 8.586176235547385e-001	 1.612294092054240e+000	-7.318888005114626e+000
1	 8.411623518532653e-001	 1.621469212639146e+000	-7.586968133542808e+000
1	 8.236383809936840e-001	 1.630440539946704e+000	-7.846094442659055e+000
1	 8.060491805379901e-001	 1.639207510720356e+000	-8.095119316209203e+000
1	 7.883982193890746e-001	 1.647769638231734e+000	-8.332924878248443e+000
1	 7.706889637447689e-001	 1.656126511900856e+000	-8.558425184716896e+000
1	 7.529248750760235e-001	 1.664277796852926e+000	-8.770568326187084e+000
1	 7.351094081314255e-001	 1.672223233413098e+000	-8.968338438607042e+000
1	 7.172460089701713e-001	 1.679962636540613e+000	-9.150757619149353e+000
1	 9.063498385190916e-001	 1.616596621133581e+000	-7.219647670130376e+000
1	 8.887896898180561e-001	 1.626317202147628e+000	-7.515042779488249e+000
1	 8.711528049777061e-001	 1.635832391761306e+000	-7.805567100854615e+000
1	 8.534426992366737e-001	 1.645141462311571e+000	-8.090029013045673e+000
1	 8.356628913807008e-001	 1.654243764353545e+000	-8.367260788263350e+000
1	 8.178169016248160e-001	 1.663138726407550e+000	-8.636120993156718e+000
1	 7.999082495153207e-001	 1.671825854639347e+000	-8.895496809020532e+000
1	 7.819404518539626e-001	 1.680304732474796e+000	-9.144306267284234e+000
1	 7.639170206466022e-001	 1.688575020150184e+000	-9.381500396725768e+000
1	 7.458414610785937e-001	 1.696636454199608e+000	-9.606065279122689e+000
1	 7.277172695190416e-001	 1.704488846880856e+000	-9.817024010346549e+000
1	 9.193914766717938e-001	 1.639858133723017e+000	-7.636385513464720e+000
1	 9.015786516912102e-001	 1.649718586003838e+000	-7.944944668360852e+000
1	 8.836879864005771e-001	 1.659370691468799e+000	-8.250379483950683e+000
1	 8.657230466199544e-001	 1.668813711984378e+000	-8.551523147873994e+000
1	 8.476874017675544e-001	 1.678046988760722e+000	-8.847231663416398e+000
1	 8.295846227114393e-001	 1.687069942095027e+000	-9.136386262160453e+000
1	 8.114182796413247e-001	 1.695882071047191e+000	-9.417895736747358e+000
1	 7.931919399628782e-001	 1.704482953048911e+000	-9.690698689856600e+000
1	 7.749091662168737e-001	 1.712872243447557e+000	-9.953765695782909e+000
1	 7.565735140254351e-001	 1.721049674986174e+000	-1.020610137127639e+001
1	 7.381885300675789e-001	 1.729015057221095e+000	-1.044674635259634e+001
1	 9.324331148245620e-001	 1.663119646312786e+000	-8.010325330854602e+000
1	 9.143676135644239e-001	 1.673119969860359e+000	-8.332263988109535e+000
1	 8.962231678234889e-001	 1.682908991176575e+000	-8.652872541069767e+000
1	 8.780033940032497e-001	 1.692485961657440e+000	-8.971024537018627e+000
1	 8.597119121543897e-001	 1.701850213168122e+000	-9.285615390647873e+000
1	 8.413523437980102e-001	 1.711001157782694e+000	-9.595564778135231e+000
1	 8.229283097672413e-001	 1.719938287455187e+000	-9.899818952507745e+000
1	 8.044434280716759e-001	 1.728661173623140e+000	-1.019735297640704e+001
1	 7.859013117870016e-001	 1.737169466745008e+000	-1.048717286864412e+001
1	 7.673055669721157e-001	 1.745462895772777e+000	-1.076831766121357e+001
1	 7.486597906159502e-001	 1.753541267561331e+000	-1.103986136372166e+001
1	 9.454747529775296e-001	 1.686381158902720e+000	-8.341013688751437e+000
1	 9.271565754378306e-001	 1.696521353717034e+000	-8.676555900471154e+000
1	 9.087583492465781e-001	 1.706447290884493e+000	-9.012618631812131e+000
1	 8.902837413866999e-001	 1.716158211330630e+000	-9.348130684069556e+000
1	 8.717364225413525e-001	 1.725653437575633e+000	-9.682041903285878e+000
1	 8.531200648846790e-001	 1.734932373470457e+000	-1.001332552628101e+001
1	 8.344383398932261e-001	 1.743994503863259e+000	-1.034098044934097e+001
1	 8.156949161805148e-001	 1.752839394197428e+000	-1.066403341574551e+001
1	 7.968934573571489e-001	 1.761466690042496e+000	-1.098154111858939e+001
1	 7.780376199188019e-001	 1.769876116559399e+000	-1.129259221562546e+001
1	 7.591310511643218e-001	 1.778067477901566e+000	-1.159630925314038e+001
1	 9.585163911308305e-001	 1.709642671492654e+000	-8.628021831395964e+000
1	 9.399455373115652e-001	 1.719922737573709e+000	-8.977399777179800e+000
1	 9.212935306699824e-001	 1.729985590592412e+000	-9.329213389794177e+000
1	 9.025640887704451e-001	 1.739830461003820e+000	-9.682460998189910e+000
1	 8.837609329285883e-001	 1.749456661983145e+000	-1.003616127526690e+001
1	 8.648877859715952e-001	 1.758863589158218e+000	-1.038935550703678e+001
1	 8.459483700194352e-001	 1.768050720271332e+000	-1.074110978600682e+001
1	 8.269464042895555e-001	 1.777017614771716e+000	-1.109051712509215e+001
1	 8.078856029274796e-001	 1.785763913339984e+000	-1.143669948862948e+001
1	 7.887696728656590e-001	 1.794289337346020e+000	-1.177880973733584e+001
1	 7.696023117128606e-001	 1.802593688241801e+000	-1.211603348433063e+001
1	 9.715580292845978e-001	 1.732904184082422e+000	-8.870944024515364e+000
1	 9.527344991857626e-001	 1.743324121430229e+000	-9.234397575060791e+000
1	 9.338287120938386e-001	 1.753523890300187e+000	-9.602274160562898e+000
1	 9.148444361546280e-001	 1.763502710676882e+000	-9.973655323876098e+000
1	 8.957854433162423e-001	 1.773259886390545e+000	-1.034764236935570e+001
1	 8.766555070589108e-001	 1.782794804845885e+000	-1.072335852694902e+001
1	 8.574584001460229e-001	 1.792106936679328e+000	-1.109995104225888e+001
1	 8.381978923989570e-001	 1.801195835345946e+000	-1.147659318907094e+001
1	 8.188777484981569e-001	 1.810061136637435e+000	-1.185248620109084e+001
1	 7.995017258128530e-001	 1.818702558132623e+000	-1.222686111990290e+001
1	 7.800735722617330e-001	 1.827119898582037e+000	-1.259898055642780e+001
1	 9.845996674389650e-001	 1.756165696671858e+000	-9.069396030653298e+000
1	 9.655234610605561e-001	 1.766725505286440e+000	-9.447172340262398e+000
1	 9.463638935182835e-001	 1.777062190007680e+000	-9.831438563655450e+000
1	 9.271247835393878e-001	 1.787174960349689e+000	-1.022137258756403e+001
1	 9.078099537044604e-001	 1.797063110797722e+000	-1.061617159279627e+001
1	 8.884232281467753e-001	 1.806726020533363e+000	-1.101505408563465e+001
1	 8.689684302731453e-001	 1.816163153087172e+000	-1.141726185714605e+001
1	 8.494493805088794e-001	 1.825374055920060e+000	-1.182206186713068e+001
1	 8.298698940693434e-001	 1.834358359934808e+000	-1.222874804968647e+001
1	 8.102337787605497e-001	 1.843115778919189e+000	-1.263664303761795e+001
1	 7.905448328111057e-001	 1.851646108922276e+000	-1.304509980317790e+001
1	 9.976413055940656e-001	 1.779427209260796e+000	-9.223013704086807e+000
1	 9.783124229360812e-001	 1.790126889142184e+000	-9.615366829807515e+000
1	 9.588990749434545e-001	 1.800600489714745e+000	-1.001636316744247e+001
1	 9.394051309248661e-001	 1.810847210022113e+000	-1.042528955038809e+001
1	 9.198344640933873e-001	 1.820866335204562e+000	-1.084145175056275e+001
1	 9.001909492353385e-001	 1.830657236220556e+000	-1.126417635004463e+001
1	 8.804784604009567e-001	 1.840219369494784e+000	-1.169281254274456e+001
1	 8.607008686194825e-001	 1.849552276494001e+000	-1.212673386313190e+001
1	 8.408620396412040e-001	 1.858655583232066e+000	-1.256533983927011e+001
1	 8.209658317089144e-001	 1.867528999705698e+000	-1.300805756766314e+001
1	 8.010160933611451e-001	 1.876172319262518e+000	-1.345434320766102e+001
1	 1.010682943750033e+000	 1.802688721849068e+000	-9.331451694529159e+000
1	 9.911013848124723e-001	 1.813528272997310e+000	-9.738642239868669e+000
1	 9.714342563694890e-001	 1.824138789421242e+000	-1.015672226656995e+001
1	 9.516854783112038e-001	 1.834519459694026e+000	-1.058509965750556e+001
1	 9.318589744831690e-001	 1.844669559610956e+000	-1.102320098739537e+001
1	 9.119586703247522e-001	 1.854588451907371e+000	-1.147047320814257e+001
1	 8.919884905296130e-001	 1.864275585902090e+000	-1.192638526650779e+001
1	 8.719523567309254e-001	 1.873730497067709e+000	-1.239042965148446e+001
1	 8.518541852139012e-001	 1.882952806529171e+000	-1.286212386896519e+001
1	 8.316978846581138e-001	 1.891942220492133e+000	-1.334101184152245e+001
1	 8.114873539120180e-001	 1.900698529602766e+000	-1.382666523135883e+001
1	 7.067747484208015e-001	 1.655436426200365e+000	-8.448014211426617e+000
1	 6.891256442852184e-001	 1.662860803443095e+000	-8.591232449180950e+000
1	 6.714360551290196e-001	 1.670081948955455e+000	-8.727403467418046e+000
1	 6.537093420179823e-001	 1.677099898436262e+000	-8.854951723050181e+000
1	 6.359488499726912e-001	 1.683914758373382e+000	-8.972354798562746e+000
1	 6.181579061975373e-001	 1.690526705208834e+000	-9.078145190107536e+000
1	 6.003398183486904e-001	 1.696935984454057e+000	-9.170911968768031e+000
1	 5.824978728425354e-001	 1.703142909757176e+000	-9.249302314093253e+000
1	 5.646353332059865e-001	 1.709147861924183e+000	-9.312022919326360e+000
1	 5.467554384699812e-001	 1.714951287895949e+000	-9.357841268076726e+000
1	 5.288614016073798e-001	 1.720553699683057e+000	-9.385586782499505e+000
1	 7.172460089701713e-001	 1.679962636540613e+000	-9.150757619149353e+000
1	 6.993354235518501e-001	 1.687497010056690e+000	-9.323047536617548e+000
1	 6.813837533048077e-001	 1.694825140851425e+000	-9.489720034797944e+000
1	 6.633944090908883e-001	 1.701947065152540e+000	-9.648878323477494e+000
1	 6.453707854890254e-001	 1.708862891025579e+000	-9.798677993886290e+000
1	 6.273162589980010e-001	 1.715572797526653e+000	-9.937329418823161e+000
1	 6.092341862787586e-001	 1.722077033804590e+000	-1.006310001487568e+001
1	 5.911279024377774e-001	 1.728375918154393e+000	-1.017431636482093e+001
1	 5.730007193529461e-001	 1.734469837023908e+000	-1.026936619867534e+001
1	 5.548559240432539e-001	 1.740359243975685e+000	-1.034670023223682e+001
1	 5.366967770835490e-001	 1.746044658606035e+000	-1.040483386233186e+001
1	 7.277172695190416e-001	 1.704488846880856e+000	-9.817024010346549e+000
1	 7.095452028179918e-001	 1.712133216670198e+000	-1.001958946305842e+001
1	 6.913314514801309e-001	 1.719568332747231e+000	-1.021806449597408e+001
1	 6.730794761633672e-001	 1.726794231868579e+000	-1.041026444239010e+001
1	 6.547927210049782e-001	 1.733811023677468e+000	-1.059405595133180e+001
1	 6.364746117981363e-001	 1.740618889844100e+000	-1.076735995718157e+001
1	 6.181285542085550e-001	 1.747218083154697e+000	-1.092815450159801e+001
1	 5.997579320328055e-001	 1.753608926551138e+000	-1.107447740485873e+001
1	 5.813661054997471e-001	 1.759791812123127e+000	-1.120442878418769e+001
1	 5.629564096164194e-001	 1.765767200054896e+000	-1.131617341705212e+001
1	 5.445321525596547e-001	 1.771535617528480e+000	-1.140794294783681e+001
1	 7.381885300675789e-001	 1.729015057221095e+000	-1.044674635259634e+001
1	 7.197549820838096e-001	 1.736769423283644e+000	-1.068086439920409e+001
1	 7.012791496551518e-001	 1.744311524642915e+000	-1.091251913166403e+001
1	 6.827645432355755e-001	 1.751641398584439e+000	-1.113926993842636e+001
1	 6.642146565207019e-001	 1.758759156329126e+000	-1.135872614411742e+001
1	 6.456329645980884e-001	 1.765664982161268e+000	-1.156855050742621e+001
1	 6.270229221382166e-001	 1.772359132504483e+000	-1.176646256271935e+001
1	 6.083879616277478e-001	 1.778841934947530e+000	-1.195024180162016e+001
1	 5.897314916465086e-001	 1.785113787221967e+000	-1.211773069125448e+001
1	 5.710568951895864e-001	 1.791175156133711e+000	-1.226683752633930e+001
1	 5.523675280357959e-001	 1.797026576450526e+000	-1.239553911275321e+001
1	 7.486597906159502e-001	 1.753541267561331e+000	-1.103986136372166e+001
1	 7.299647613494685e-001	 1.761405629897045e+000	-1.130687817052711e+001
1	 7.112268478300332e-001	 1.769054716538517e+000	-1.157316161925347e+001
1	 6.924496103076728e-001	 1.776488565300180e+000	-1.183604572666386e+001
1	 6.736365920363492e-001	 1.783707288980630e+000	-1.209291275962110e+001
1	 6.547913173980026e-001	 1.790711074478250e+000	-1.234119722119825e+001
1	 6.359172900678812e-001	 1.797500181854058e+000	-1.257838967316959e+001
1	 6.170179912227325e-001	 1.804074943343685e+000	-1.280204039027056e+001
1	 5.980968777933496e-001	 1.810435762320553e+000	-1.300976284212440e+001
1	 5.791573807628647e-001	 1.816583112212264e+000	-1.319923699924190e+001
1	 5.602029035120719e-001	 1.822517535372305e+000	-1.336821246000924e+001
1	 7.591310511643218e-001	 1.778067477901566e+000	-1.159630925314038e+001
1	 7.401745406151347e-001	 1.786041836510427e+000	-1.189763628108160e+001
1	 7.211745460049378e-001	 1.793797908434078e+000	-1.220006535028147e+001
1	 7.021346773798168e-001	 1.801335732015862e+000	-1.250073439544541e+001
1	 6.830585275520714e-001	 1.808655421632055e+000	-1.279682761568804e+001
1	 6.639496701980239e-001	 1.815757166795140e+000	-1.308557990997910e+001
1	 6.448116579976858e-001	 1.822641231203525e+000	-1.336428114280685e+001
1	 6.256480208178878e-001	 1.829307951739722e+000	-1.363028023465390e+001
1	 6.064622639403892e-001	 1.835757737419013e+000	-1.388098907242086e+001
1	 5.872578663363629e-001	 1.841991068290684e+000	-1.411388623548413e+001
1	 5.680382789885817e-001	 1.848008494293951e+000	-1.432652053361473e+001
1	 7.696023117128606e-001	 1.802593688241801e+000	-1.211603348433063e+001
1	 7.503843198809727e-001	 1.810678043123807e+000	-1.245314393536947e+001
1	 7.311222441800276e-001	 1.818541100329639e+000	-1.279329972200832e+001
1	 7.118197444521652e-001	 1.826182898731543e+000	-1.313347077284965e+001
1	 6.924804630680216e-001	 1.833603554283482e+000	-1.347067100213424e+001
1	 6.731080229982979e-001	 1.840803259112029e+000	-1.380196315671665e+001
1	 6.537060259277673e-001	 1.847782280552992e+000	-1.412446348825498e+001
1	 6.342780504133431e-001	 1.854540960135760e+000	-1.443534624446389e+001
1	 6.148276500877458e-001	 1.861079712517475e+000	-1.473184797385407e+001
1	 5.953583519101905e-001	 1.867399024369104e+000	-1.501127163896268e+001
1	 5.758736544654247e-001	 1.873499453215596e+000	-1.527099053365563e+001
1	 7.800735722617330e-001	 1.827119898582037e+000	-1.259898055642780e+001
1	 7.605940991471489e-001	 1.835314249737210e+000	-1.297340605844522e+001
1	 7.410699423554661e-001	 1.843284292225242e+000	-1.335293040549976e+001
1	 7.215048115248770e-001	 1.851030065447284e+000	-1.373438244753750e+001
1	 7.019023985843517e-001	 1.858551686934985e+000	-1.411463245447444e+001
1	 6.822663757989695e-001	 1.865849351429012e+000	-1.449059733792107e+001
1	 6.626003938582628e-001	 1.872923329902566e+000	-1.485924569425105e+001
1	 6.429080800092255e-001	 1.879773968531916e+000	-1.521760266216717e+001
1	 6.231930362355387e-001	 1.886401687616061e+000	-1.556275458852046e+001
1	 6.034588374844565e-001	 1.892806980447657e+000	-1.589185349674667e+001
1	 5.837090299427000e-001	 1.898990412137376e+000	-1.620212135289159e+001
1	 7.905448328111057e-001	 1.851646108922276e+000	-1.304509980317791e+001
1	 7.708038784138284e-001	 1.859950456350654e+000	-1.345842731442312e+001
1	 7.510176405314154e-001	 1.868027484120926e+000	-1.387901959240580e+001
1	 7.311898785981098e-001	 1.875877232163145e+000	-1.430359024820510e+001
1	 7.113243341012142e-001	 1.883499819586642e+000	-1.472889146615946e+001
1	 6.914247286001837e-001	 1.890895443746180e+000	-1.515171956453040e+001
1	 6.714947617893095e-001	 1.898064379252353e+000	-1.556892037474947e+001
1	 6.515381096056641e-001	 1.905006976928307e+000	-1.597739443175469e+001
1	 6.315584223838869e-001	 1.911723662714901e+000	-1.637410196854934e+001
1	 6.115593230592696e-001	 1.918214936526472e+000	-1.675606770874625e+001
1	 5.915444054205067e-001	 1.924481371059422e+000	-1.712038545149692e+001
1	 8.010160933611451e-001	 1.876172319262518e+000	-1.345434320766102e+001
1	 7.810136576811767e-001	 1.884586662964163e+000	-1.390821212353263e+001
1	 7.609653387080381e-001	 1.892770676016732e+000	-1.437162622238349e+001
1	 7.408749456720214e-001	 1.900724398879184e+000	-1.484120868543103e+001
1	 7.207462696187614e-001	 1.908447952238532e+000	-1.531361814494912e+001
1	 7.005830814020861e-001	 1.915941536063627e+000	-1.578555454897979e+001
1	 6.803891297210447e-001	 1.923205428602461e+000	-1.625376484295506e+001
1	 6.601681392027867e-001	 1.930239985325053e+000	-1.671504846013615e+001
1	 6.399238085329092e-001	 1.937045637814120e+000	-1.716626261341943e+001
1	 6.196598086347398e-001	 1.943622892605683e+000	-1.760432738171501e+001
1	 5.993797808989435e-001	 1.949972329981867e+000	-1.802623058475735e+001
1	 8.114873539120180e-001	 1.900698529602766e+000	-1.382666523135882e+001
1	 7.912234369493597e-001	 1.909222869577757e+000	-1.432276467785370e+001
1	 7.709130368854967e-001	 1.917513867912702e+000	-1.483080619291174e+001
1	 7.505600127467705e-001	 1.925571565595462e+000	-1.534734635931431e+001
1	 7.301682051371446e-001	 1.933396084890728e+000	-1.586897381846684e+001
1	 7.097414342048221e-001	 1.940987628381446e+000	-1.639231540513923e+001
1	 6.892834976536054e-001	 1.948346477952994e+000	-1.691404209851114e+001
1	 6.687981688007219e-001	 1.955472993722270e+000	-1.743087478087299e+001
1	 6.482891946827245e-001	 1.962367612913845e+000	-1.793958979599391e+001
1	 6.277602942109755e-001	 1.969030848685419e+000	-1.843702429984050e+001
1	 6.072151563781103e-001	 1.975463288904845e+000	-1.892008139700318e+001
1	 5.288614016073798e-001	 1.720553699683057e+000	-9.385586782499505e+000
1	 5.109564077608136e-001	 1.725955672830829e+000	-9.397168360685130e+000
1	 4.930436120318358e-001	 1.731157843990140e+000	-9.395013679225933e+000
1	 4.751261388703825e-001	 1.736160911033618e+000	-9.378835363463670e+000
1	 4.572070809624128e-001	 1.740965632275259e+000	-9.348422002875404e+000
1	 4.392894979044457e-001	 1.745572825227722e+000	-9.303636438156111e+000
1	 4.213764149277033e-001	 1.749983365329663e+000	-9.244413964848228e+000
1	 4.034708216724219e-001	 1.754198184645169e+000	-9.170760459172129e+000
1	 3.855756710127974e-001	 1.758218270537387e+000	-9.082750431739390e+000
1	 3.676938779329501e-001	 1.762044664318403e+000	-8.980525014841611e+000
1	 3.498283184541984e-001	 1.765678459877450e+000	-8.864289889003723e+000
1	 5.366967770835490e-001	 1.746044658606035e+000	-1.040483386233186e+001
1	 5.185265108061257e-001	 1.751526664987303e+000	-1.044582342157941e+001
1	 5.003483270571110e-001	 1.756805909202691e+000	-1.047223510130933e+001
1	 4.821653965768894e-001	 1.761883099464191e+000	-1.048346007481684e+001
1	 4.639808578712685e-001	 1.766759005320630e+000	-1.047897060748394e+001
1	 4.457978158663768e-001	 1.771434456396563e+000	-1.045831877930709e+001
1	 4.276193406139063e-001	 1.775910341100748e+000	-1.042113510542966e+001
1	 4.094484660472609e-001	 1.780187605306307e+000	-1.036712705994743e+001
1	 3.912881887890969e-001	 1.784267251004713e+000	-1.029607750833806e+001
1	 3.731414670106324e-001	 1.788150334935661e+000	-1.020784305393194e+001
1	 3.550112193430273e-001	 1.791837967194950e+000	-1.010235230388904e+001
1	 5.445321525596547e-001	 1.771535617528480e+000	-1.140794294783681e+001
1	 5.260966138514088e-001	 1.777097657143252e+000	-1.148196043648974e+001
1	 5.076530420823825e-001	 1.782453974414742e+000	-1.154090675769615e+001
1	 4.892046542834107e-001	 1.787605287894298e+000	-1.158381639416365e+001
1	 4.707546347801497e-001	 1.792552378365584e+000	-1.160980959438270e+001
1	 4.523061338283396e-001	 1.797296087565045e+000	-1.161809160704745e+001
1	 4.338622663001416e-001	 1.801837316871536e+000	-1.160795179379675e+001
1	 4.154261104221306e-001	 1.806177025967219e+000	-1.157876262503772e+001
1	 3.970007065654232e-001	 1.810316231471889e+000	-1.152997856375718e+001
1	 3.785890560883361e-001	 1.814256005552847e+000	-1.146113484235146e+001
1	 3.601941202318722e-001	 1.817997474512457e+000	-1.137184613761452e+001
1	 5.523675280357959e-001	 1.797026576450526e+000	-1.239553911275321e+001
1	 5.336667168967522e-001	 1.802668649298810e+000	-1.250623302510929e+001
1	 5.149577571077297e-001	 1.808102039626417e+000	-1.260168134502955e+001
1	 4.962439119900157e-001	 1.813327476324059e+000	-1.268052807710157e+001
1	 4.775284116891168e-001	 1.818345751410225e+000	-1.274150721986035e+001
1	 4.588144517903844e-001	 1.823157718733256e+000	-1.278344258704119e+001
1	 4.401051919864523e-001	 1.827764292642103e+000	-1.280524748634745e+001
1	 4.214037547970659e-001	 1.832166446627964e+000	-1.280592425986816e+001
1	 4.027132243418041e-001	 1.836365211938953e+000	-1.278456369049060e+001
1	 3.840366451660828e-001	 1.840361676169979e+000	-1.274034427884820e+001
1	 3.653770211207495e-001	 1.844156981829972e+000	-1.267253139551270e+001
1	 5.602029035120719e-001	 1.822517535372305e+000	-1.336821246000924e+001
1	 5.412368199422444e-001	 1.828239641454104e+000	-1.351925823926822e+001
1	 5.222624721332321e-001	 1.833750104837843e+000	-1.365517504373083e+001
1	 5.032831696967740e-001	 1.839049664753586e+000	-1.377418398216201e+001
1	 4.843021885982292e-001	 1.844139124454657e+000	-1.387459994814186e+001
1	 4.653227697525632e-001	 1.849019349901286e+000	-1.395483210166758e+001
1	 4.463481176728812e-001	 1.853691268412522e+000	-1.401338418635948e+001
1	 4.273813991721018e-001	 1.858155867288595e+000	-1.404885468566290e+001
1	 4.084257421182673e-001	 1.862414192405942e+000	-1.405993682171939e+001
1	 3.894842342438941e-001	 1.866467346787076e+000	-1.404541840084827e+001
1	 3.705599220096754e-001	 1.870316489147490e+000	-1.400418150982356e+001
1	 5.680382789885817e-001	 1.848008494293951e+000	-1.432652053361473e+001
1	 5.488069229879748e-001	 1.853810633609268e+000	-1.452161908497306e+001
1	 5.295671871589682e-001	 1.859398170049142e+000	-1.470197003647743e+001
1	 5.103224274037552e-001	 1.864771853182999e+000	-1.486534047761669e+001
1	 4.910759655075479e-001	 1.869932497498986e+000	-1.500959464404748e+001
1	 4.718310877149266e-001	 1.874880981069227e+000	-1.513269513171546e+001
1	 4.525910433594712e-001	 1.879618244182867e+000	-1.523270392358495e+001
1	 4.333590435472736e-001	 1.884145287949170e+000	-1.530778323150589e+001
1	 4.141382598948407e-001	 1.888463172872894e+000	-1.535619615611174e+001
1	 3.949318233217916e-001	 1.892573017404154e+000	-1.537630716798576e+001
1	 3.757428228986661e-001	 1.896475996465010e+000	-1.536658241365837e+001
1	 5.758736544654247e-001	 1.873499453215596e+000	-1.527099053365563e+001
1	 5.563770260340329e-001	 1.879381625764431e+000	-1.551386683855549e+001
1	 5.368719021850179e-001	 1.885046235260443e+000	-1.574261682108063e+001
1	 5.173616851110289e-001	 1.890494041612410e+000	-1.595452365180157e+001
1	 4.978497424171328e-001	 1.895725870543314e+000	-1.614697058665034e+001
1	 4.783394056775263e-001	 1.900742612237168e+000	-1.631744298446206e+001
1	 4.588339690462648e-001	 1.905545219953211e+000	-1.646353011305632e+001
1	 4.393366879226158e-001	 1.910134708609745e+000	-1.658292674541280e+001
1	 4.198507776715522e-001	 1.914512153339845e+000	-1.667343454794477e+001
1	 4.003794123997967e-001	 1.918678688021233e+000	-1.673296326330447e+001
1	 3.809257237877377e-001	 1.922635503782530e+000	-1.675953169056155e+001
1	 5.837090299427000e-001	 1.898990412137376e+000	-1.620212135289159e+001
1	 5.639471290805076e-001	 1.904952617919726e+000	-1.649652317627792e+001
1	 5.441766172114603e-001	 1.910694300471868e+000	-1.677763633708401e+001
1	 5.244009428186647e-001	 1.916216230041939e+000	-1.704223134541937e+001
1	 5.046235193270441e-001	 1.921519243587747e+000	-1.728718132075318e+001
1	 4.848477236404135e-001	 1.926604243405199e+000	-1.750946488257207e+001
1	 4.650768947333050e-001	 1.931472195723629e+000	-1.770616880445405e+001
1	 4.453143322981636e-001	 1.936124129270376e+000	-1.787449043202497e+001
1	 4.255632954484296e-001	 1.940561133806834e+000	-1.801173986580488e+001
1	 4.058270014779313e-001	 1.944784358638330e+000	-1.811534191047093e+001
1	 3.861086246769064e-001	 1.948795011100049e+000	-1.818283779256759e+001
1	 5.915444054205067e-001	 1.924481371059422e+000	-1.712038545149692e+001
1	 5.715172321274880e-001	 1.930523610075283e+000	-1.747008213469019e+001
1	 5.514813322383747e-001	 1.936342365683543e+000	-1.780752192335154e+001
1	 5.314402005267321e-001	 1.941938418471699e+000	-1.812893502232798e+001
1	 5.113972962373421e-001	 1.947312616632389e+000	-1.843065636122133e+001
1	 4.913560416036390e-001	 1.952465874573409e+000	-1.870912942672005e+001
1	 4.713198204206348e-001	 1.957399171494197e+000	-1.896090983218103e+001
1	 4.512919766739519e-001	 1.962113549931120e+000	-1.918266862372921e+001
1	 4.312758132255009e-001	 1.966610114273898e+000	-1.937119532278121e+001
1	 4.112745905562165e-001	 1.970890029255463e+000	-1.952340070551403e+001
1	 3.912915255661882e-001	 1.974954518417563e+000	-1.963631932040167e+001
1	 5.993797808989435e-001	 1.949972329981867e+000	-1.802623058475735e+001
1	 5.790873351750632e-001	 1.956094602231232e+000	-1.843501191722724e+001
1	 5.587860472658401e-001	 1.961990430895594e+000	-1.883274112211414e+001
1	 5.384794582353008e-001	 1.967660606901807e+000	-1.921508149359331e+001
1	 5.181710731480868e-001	 1.973105989677343e+000	-1.957780276363619e+001
1	 4.978643595672547e-001	 1.978327505741889e+000	-1.991678594349315e+001
1	 4.775627461082964e-001	 1.983326147264985e+000	-2.022802787523219e+001
1	 4.572696210500157e-001	 1.988102970592032e+000	-2.050764549129381e+001
1	 4.369883310027936e-001	 1.992659094741075e+000	-2.075187978076057e+001
1	 4.167221796346742e-001	 1.996995699872648e+000	-2.095709946176233e+001
1	 3.964744264555998e-001	 2.001114025735070e+000	-2.111980436013787e+001
1	 6.072151563781103e-001	 1.975463288904845e+000	-1.892008139700318e+001
1	 5.866574382233225e-001	 1.981665594387706e+000	-1.939175656093434e+001
1	 5.660907622939357e-001	 1.987638496108145e+000	-1.985373734334113e+001
1	 5.455187159444398e-001	 1.993382795332379e+000	-2.030109450806206e+001
1	 5.249448500593383e-001	 1.998899362722713e+000	-2.072900657334510e+001
1	 5.043726775313114e-001	 2.004189136910732e+000	-2.113276572893489e+001
1	 4.838056717963333e-001	 2.009253123036070e+000	-2.150778343500587e+001
1	 4.632472654263901e-001	 2.014092391253171e+000	-2.184959569948614e+001
1	 4.427008487803362e-001	 2.018708075208402e+000	-2.215386803116261e+001
1	 4.221697687133261e-001	 2.023101370489906e+000	-2.241640006678710e+001
1	 4.016573273451569e-001	 2.027273533052570e+000	-2.263312987121477e+001
1	 3.498283184541984e-001	 1.765678459877450e+000	-8.864289889003723e+000
1	 3.319845031998168e-001	 1.769120300513189e+000	-8.729072172642059e+000
1	 3.141625416233768e-001	 1.772371941244702e+000	-8.569927985479804e+000
1	 2.963651817210660e-001	 1.775434626186778e+000	-8.387247980792338e+000
1	 2.785951288690982e-001	 1.778309646314946e+000	-8.181472843539439e+000
1	 2.608550450100406e-001	 1.780998338017287e+000	-7.953090959185429e+000
1	 2.431475478902924e-001	 1.783502081636491e+000	-7.702636070474414e+000
1	 2.254752103484421e-001	 1.785822300004091e+000	-7.430684927004380e+000
1	 2.078405596541684e-001	 1.787960456968690e+000	-7.137854932307004e+000
1	 1.902460768972767e-001	 1.789918055920011e+000	-6.824801792992263e+000
1	 1.726941964264004e-001	 1.791696638310540e+000	-6.492217174364525e+000
1	 3.550112193430273e-001	 1.791837967194950e+000	-1.010235230388904e+001
1	 3.369030380524930e-001	 1.795330800612062e+000	-9.974175339922056e+000
1	 3.188170342142217e-001	 1.798630616207664e+000	-9.817874523049790e+000
1	 3.007559965374989e-001	 1.801738676528800e+000	-9.633516398492235e+000
1	 2.827226704801982e-001	 1.804656291677526e+000	-9.421226274046482e+000
1	 2.647197574230525e-001	 1.807384817841254e+000	-9.181186239178359e+000
1	 2.467499138958362e-001	 1.809925655813227e+000	-8.913633149016059e+000
1	 2.288157508551784e-001	 1.812280249505019e+000	-8.618856578077743e+000
1	 2.109198330136696e-001	 1.814450084452968e+000	-8.297196748479541e+000
1	 1.930646782198468e-001	 1.816436686320355e+000	-7.949042437277944e+000
1	 1.752527568885781e-001	 1.818241619397146e+000	-7.574828867493102e+000
1	 3.601941202318722e-001	 1.817997474512457e+000	-1.137184613761453e+001
1	 3.418215729051807e-001	 1.821541300711023e+000	-1.125617684666917e+001
1	 3.234715268050729e-001	 1.824889291170791e+000	-1.110815560621906e+001
1	 3.051468113539315e-001	 1.828042726871060e+000	-1.092749901107841e+001
1	 2.868502120912881e-001	 1.831002937040409e+000	-1.071399174645251e+001
1	 2.685844698360403e-001	 1.833771297665583e+000	-1.046748499357691e+001
1	 2.503522799013362e-001	 1.836349229990371e+000	-1.018789477518632e+001
1	 2.321562913618440e-001	 1.838738199006388e+000	-9.875200245622214e+000
1	 2.139991063730654e-001	 1.840939711937705e+000	-9.529441930360722e+000
1	 1.958832795422672e-001	 1.842955316721160e+000	-9.150719919704798e+000
1	 1.778113173505510e-001	 1.844786600484193e+000	-8.739192021332194e+000
1	 3.653770211207495e-001	 1.844156981829972e+000	-1.267253139551270e+001
1	 3.467401077578918e-001	 1.847751800810049e+000	-1.257464568075322e+001
1	 3.281260193959395e-001	 1.851147966134042e+000	-1.244015227021702e+001
1	 3.095376261703710e-001	 1.854346777213499e+000	-1.226839294233338e+001
1	 2.909777537023749e-001	 1.857349582403519e+000	-1.205878747637126e+001
1	 2.724491822490127e-001	 1.860157777490180e+000	-1.181083248028699e+001
1	 2.539546459068044e-001	 1.862772804167814e+000	-1.152410013134368e+001
1	 2.354968318684573e-001	 1.865196148508078e+000	-1.119823683427648e+001
1	 2.170783797323821e-001	 1.867429339422770e+000	-1.083296180181326e+001
1	 1.987018808645751e-001	 1.869473947122285e+000	-1.042806556238214e+001
1	 1.803698778123702e-001	 1.871331581571538e+000	-9.983408399847814e+000
1	 3.705599220096754e-001	 1.870316489147490e+000	-1.400418150982356e+001
1	 3.516586426106382e-001	 1.873962300909120e+000	-1.392917494374781e+001
1	 3.327805119868297e-001	 1.877406641097374e+000	-1.381328017930625e+001
1	 3.139284409868242e-001	 1.880650827556055e+000	-1.365544023431156e+001
1	 2.951052953134654e-001	 1.883696227766776e+000	-1.345468660701011e+001
1	 2.763138946619778e-001	 1.886544257314950e+000	-1.321013856122090e+001
1	 2.575570119122533e-001	 1.889196378345448e+000	-1.292100229523190e+001
1	 2.388373723750364e-001	 1.891654098009965e+000	-1.258656999918095e+001
1	 2.201576530916466e-001	 1.893918966908033e+000	-1.220621880575216e+001
1	 2.015204821868082e-001	 1.895992577523594e+000	-1.177940963910758e+001
1	 1.829284382740870e-001	 1.897876562659040e+000	-1.130568596704511e+001
1	 3.757428228986661e-001	 1.896475996465010e+000	-1.536658241365837e+001
1	 3.565771774634313e-001	 1.900172801008212e+000	-1.531938018783929e+001
1	 3.374350045777528e-001	 1.903665316060748e+000	-1.522698723846327e+001
1	 3.183192558032977e-001	 1.906954877898667e+000	-1.508792474938382e+001
1	 2.992328369245663e-001	 1.910042873130104e+000	-1.490081342088411e+001
1	 2.801786070749446e-001	 1.912930737139797e+000	-1.466437324664176e+001
1	 2.611593779176952e-001	 1.915619952523161e+000	-1.437742314350999e+001
1	 2.421779128815995e-001	 1.918112047511930e+000	-1.403888043878096e+001
1	 2.232369264508850e-001	 1.920408594393359e+000	-1.364776021978025e+001
1	 2.043390835090038e-001	 1.922511207924947e+000	-1.320317455079579e+001
1	 1.854869987357526e-001	 1.924421543746556e+000	-1.270433156248688e+001
1	 3.809257237877377e-001	 1.922635503782530e+000	-1.675953169056155e+001
1	 3.614957123162834e-001	 1.926383301107304e+000	-1.674489788850464e+001
1	 3.420894971687168e-001	 1.929923991024120e+000	-1.668075140003198e+001
1	 3.227100706197988e-001	 1.933258928241276e+000	-1.656516932518755e+001
1	 3.033603785356847e-001	 1.936389518493423e+000	-1.639633986079201e+001
1	 2.840433194879213e-001	 1.939317216964628e+000	-1.617256260325143e+001
1	 2.647617439231420e-001	 1.942043526700847e+000	-1.589224867133898e+001
1	 2.455184533881646e-001	 1.944569997013849e+000	-1.555392065354543e+001
1	 2.263161998101241e-001	 1.946898221878620e+000	-1.515621238485586e+001
1	 2.071576848311996e-001	 1.949029838326206e+000	-1.469786855803961e+001
1	 1.880455591974183e-001	 1.950966524833943e+000	-1.417774417475656e+001
1	 3.861086246769064e-001	 1.948795011100049e+000	-1.818283779256759e+001
1	 3.664142471692060e-001	 1.952593801206374e+000	-1.820538404020052e+001
1	 3.467439897597306e-001	 1.956182665987449e+000	-1.817407864703101e+001
1	 3.271008854363345e-001	 1.959562978583822e+000	-1.808653315871908e+001
1	 3.074879201468268e-001	 1.962736163856656e+000	-1.794048233099533e+001
1	 2.879080319009163e-001	 1.965703696789349e+000	-1.773378499184325e+001
1	 2.683641099286062e-001	 1.968467100878397e+000	-1.746442468893230e+001
1	 2.488589938947501e-001	 1.971027946515604e+000	-1.713051012682123e+001
1	 2.293954731693904e-001	 1.973387849363683e+000	-1.673027539878751e+001
1	 2.099762861534330e-001	 1.975548468727234e+000	-1.626208001845505e+001
1	 1.906041196591351e-001	 1.977511505921061e+000	-1.572440875668015e+001
1	 3.912915255661882e-001	 1.974954518417563e+000	-1.963631932040167e+001
1	 3.713327820222113e-001	 1.978804301305400e+000	-1.970051286365835e+001
1	 3.513984823508031e-001	 1.982441340950695e+000	-1.970650113673527e+001
1	 3.314917002529113e-001	 1.985867028926242e+000	-1.965140939832159e+001
1	 3.116154617580002e-001	 1.989082809219724e+000	-1.953249875261933e+001
1	 2.917727443139384e-001	 1.992090176613864e+000	-1.934716760396287e+001
1	 2.719664759341000e-001	 1.994890675055699e+000	-1.909295286011745e+001
1	 2.521995344013741e-001	 1.997485896017071e+000	-1.876753088868277e+001
1	 2.324747465287104e-001	 1.999877476848419e+000	-1.836871823145607e+001
1	 2.127948874757412e-001	 2.002067099127891e+000	-1.789447208200550e+001
1	 1.931626801209544e-001	 2.004056487007766e+000	-1.734289053207580e+001
1	 3.964744264555998e-001	 2.001114025735070e+000	-2.111980436013787e+001
1	 3.762513168753105e-001	 2.005014801404359e+000	-2.122997561457230e+001
1	 3.560529749419426e-001	 2.008700015913814e+000	-2.127757548986504e+001
1	 3.358825150695364e-001	 2.012171079268478e+000	-2.125922292454572e+001
1	 3.157430033692109e-001	 2.015429454582549e+000	-2.117168585001281e+001
1	 2.956374567269959e-001	 2.018476656438079e+000	-2.101188327021536e+001
1	 2.755688419396354e-001	 2.021314249232647e+000	-2.077688705161181e+001
1	 2.555400749080548e-001	 2.023943845518130e+000	-2.046392342773050e+001
1	 2.355540198881107e-001	 2.026367104332694e+000	-2.007037422317387e+001
1	 2.156134887981621e-001	 2.028585729528039e+000	-1.959377780239781e+001
1	 1.957212405829274e-001	 2.030601468093916e+000	-1.903182974905224e+001
1	 4.016573273451569e-001	 2.027273533052570e+000	-2.263312987121478e+001
1	 3.811698517285161e-001	 2.031225301503231e+000	-2.279347948452203e+001
1	 3.607074675331579e-001	 2.034958690876766e+000	-2.288688121223079e+001
1	 3.402733298862168e-001	 2.038475129610468e+000	-2.290942830282140e+001
1	 3.198705449804661e-001	 2.041776099945051e+000	-2.285737664720613e+001
1	 2.995021691400975e-001	 2.044863136261900e+000	-2.272714751568154e+001
1	 2.791712079452250e-001	 2.047737823409130e+000	-2.251532996494831e+001
1	 2.588806154148102e-001	 2.050401795018658e+000	-2.221868291940928e+001
1	 2.386332932476176e-001	 2.052856731816378e+000	-2.183413693157273e+001
1	 2.184320901207331e-001	 2.055104359927541e+000	-2.135879562696695e+001
1	 1.982798010451051e-001	 2.057146449179369e+000	-2.078993683952148e+001
1	 1.726941964264004e-001	 1.791696638310540e+000	-6.492217174364525e+000
1	 1.551846886247798e-001	 1.793298009200867e+000	-6.134432534427790e+000
1	 1.377225603152077e-001	 1.794723502569440e+000	-5.747494801879272e+000
1	 1.203101389484923e-001	 1.795974766340584e+000	-5.334530905516861e+000
1	 1.029497023582027e-001	 1.797053480637195e+000	-4.898650970316432e+000
1	 8.564347844425359e-002	 1.797961356299908e+000	-4.442943372980935e+000
1	 6.839364490323641e-002	 1.798700133414115e+000	-3.970469983553972e+000
1	 5.120232900460153e-002	 1.799271579846228e+000	-3.484261595821678e+000
1	 3.407160741175602e-002	 1.799677489790610e+000	-2.987313548716884e+000
1	 1.700350604710123e-002	 1.799919682328466e+000	-2.482581540442119e+000
1	 0.000000000000000e+000	 1.800000000000000e+000	-1.972977636546482e+000
1	 1.752527568885781e-001	 1.818241619397146e+000	-7.574828867493105e+000
1	 1.574838360012102e-001	 1.819866715486908e+000	-7.168498478866660e+000
1	 1.397629965593997e-001	 1.821313328331721e+000	-6.725872761479661e+000
1	 1.220926004964329e-001	 1.822583130270824e+000	-6.250060349544210e+000
1	 1.044749593932502e-001	 1.823677826319064e+000	-5.744159654888119e+000
1	 8.691233415734273e-002	 1.824599152664132e+000	-5.211253772231498e+000
1	 6.940693474908796e-002	 1.825348875171750e+000	-4.654405566216241e+000
1	 5.196091995461644e-002	 1.825928787900252e+000	-4.076652943300175e+000
1	 3.457639720425861e-002	 1.826340711625985e+000	-3.481004311111324e+000
1	 1.725542243558303e-002	 1.826586492380854e+000	-2.870434227355357e+000
1	 0.000000000000000e+000	 1.826668000003317e+000	-2.247879239879886e+000
1	 1.778113173505510e-001	 1.844786600484193e+000	-8.739192021332194e+000
1	 1.597829833773705e-001	 1.846435421773350e+000	-8.288367055516520e+000
1	 1.418034328032532e-001	 1.847903154094349e+000	-7.793745354665960e+000
1	 1.238750620439721e-001	 1.849191494201343e+000	-7.258323833816032e+000
1	 1.060002164278471e-001	 1.850302172001139e+000	-6.685098152497965e+000
1	 8.818118986995402e-002	 1.851236949028488e+000	-6.077057557841936e+000
1	 7.042022459446486e-002	 1.851997616929445e+000	-5.437179898730928e+000
1	 5.271951090419822e-002	 1.852585995954273e+000	-4.768426814556396e+000
1	 3.508118699641585e-002	 1.853003933461306e+000	-4.073739101616070e+000
1	 1.750733882386133e-002	 1.853253302433154e+000	-3.356032259697763e+000
1	 0.000000000000000e+000	 1.853336000006534e+000	-2.618192220906508e+000
1	 1.803698778123702e-001	 1.871331581571538e+000	-9.983408399847818e+000
1	 1.620821307533284e-001	 1.873004128060052e+000	-9.492027945855664e+000
1	 1.438438690468529e-001	 1.874492979857181e+000	-8.949016845781340e+000
1	 1.256575235912101e-001	 1.875799858132006e+000	-8.357170852097173e+000
1	 1.075254734621059e-001	 1.876926517683291e+000	-7.719295744912941e+000
1	 8.945004558220693e-002	 1.877874745392852e+000	-7.038202199067879e+000
1	 7.143351443948577e-002	 1.878646358687085e+000	-6.316700805312330e+000
1	 5.347810185345516e-002	 1.879243204008180e+000	-5.557597249618517e+000
1	 3.558597678831408e-002	 1.879667155296468e+000	-4.763687654168493e+000
1	 1.775925521198696e-002	 1.879920112485265e+000	-3.937754083086237e+000
1	 0.000000000000000e+000	 1.880004000009551e+000	-3.082560215510796e+000
1	 1.829284382740870e-001	 1.897876562659040e+000	-1.130568596704511e+001
1	 1.643812781291512e-001	 1.899572834346869e+000	-1.077758330204634e+001
1	 1.458843052902834e-001	 1.901082805620080e+000	-1.018970874865891e+001
1	 1.274399851382474e-001	 1.902408222062676e+000	-9.544571211874116e+000
1	 1.090507304961393e-001	 1.903550863365390e+000	-8.844703158414170e+000
1	 9.071890129422096e-002	 1.904512541757102e+000	-8.092655592146794e+000
1	 7.244680428426935e-002	 1.905295100444550e+000	-7.290993160493368e+000
1	 5.423669280249552e-002	 1.905900412061864e+000	-6.442289396406437e+000
1	 3.609076658003966e-002	 1.906330377131367e+000	-5.549122100034325e+000
1	 1.801117160001086e-002	 1.906586922537085e+000	-4.614068863734204e+000
1	 0.000000000000000e+000	 1.906672000012267e+000	-3.639702743651228e+000
1	 1.854869987357526e-001	 1.924421543746556e+000	-1.270433156248688e+001
1	 1.666804255049065e-001	 1.926141540633660e+000	-1.214323998997496e+001
1	 1.479247415336293e-001	 1.927672631382903e+000	-1.151395174007356e+001
1	 1.292224466851843e-001	 1.929016585993217e+000	-1.081860673647065e+001
1	 1.105759875300601e-001	 1.930175209047304e+000	-1.005938418792339e+001
1	 9.198775700611550e-002	 1.931150338121112e+000	-9.238497754602520e+000
1	 7.346009412893430e-002	 1.931943842201728e+000	-8.358190816313982e+000
1	 5.499528375142760e-002	 1.932557620115214e+000	-7.420731847761651e+000
1	 3.659555637167889e-002	 1.932993598965897e+000	-6.428409905594467e+000
1	 1.826308798798386e-002	 1.933253732588514e+000	-5.383530231567065e+000
1	 0.000000000000000e+000	 1.933340000014584e+000	-4.288409975731714e+000
1	 1.880455591974183e-001	 1.950966524833943e+000	-1.417774417475656e+001
1	 1.689795728806618e-001	 1.952710246920282e+000	-1.358730246554257e+001
1	 1.499651777769752e-001	 1.954262457145510e+000	-1.291997823335091e+001
1	 1.310049082321213e-001	 1.955624949923494e+000	-1.217746364457326e+001
1	 1.121012445639809e-001	 1.956799554728904e+000	-1.136150800490594e+001
1	 9.325661271801010e-002	 1.957788134484761e+000	-1.047391319759669e+001
1	 7.447338397359922e-002	 1.958592583958498e+000	-9.516529188545199e+000
1	 5.575387470035970e-002	 1.959214828168119e+000	-8.491249604054751e+000
1	 3.710034616331815e-002	 1.959656820799953e+000	-7.400007386664761e+000
1	 1.851500437595689e-002	 1.959920542639449e+000	-6.244770534127323e+000
1	 0.000000000000000e+000	 1.960008000016401e+000	-5.027537926227904e+000
1	 1.906041196591351e-001	 1.977511505921061e+000	-1.572440875668015e+001
1	 1.712787202564847e-001	 1.979278953206592e+000	-1.510816622470312e+001
1	 1.520056140204057e-001	 1.980852282907762e+000	-1.440611555010144e+001
1	 1.327873697791586e-001	 1.982233313853370e+000	-1.361942554351347e+001
1	 1.136265015980144e-001	 1.983423900410059e+000	-1.274934208479883e+001
1	 9.452546843002420e-002	 1.984425930847923e+000	-1.179718391261521e+001
1	 7.548667381838288e-002	 1.985241325714745e+000	-1.076433844002219e+001
1	 5.651246564940013e-002	 1.985872036220470e+000	-9.652257602588353e+000
1	 3.760513595504375e-002	 1.986320042633429e+000	-8.462453745176607e+000
1	 1.876692076398080e-002	 1.986587352689790e+000	-7.196495553273724e+000
1	 0.000000000000000e+000	 1.986676000017618e+000	-5.856004034421634e+000
1	 1.931626801209544e-001	 2.004056487007766e+000	-1.734289053207579e+001
1	 1.735778676324425e-001	 2.005847659492447e+000	-1.670431177405105e+001
1	 1.540460502640055e-001	 2.007442108669516e+000	-1.597077963462297e+001
1	 1.345698313263967e-001	 2.008841677782708e+000	-1.514286697940076e+001
1	 1.151517586322734e-001	 2.010048246090639e+000	-1.422124569652323e+001
1	 9.579432414227719e-002	 2.011063727210475e+000	-1.320668291552936e+001
1	 7.649996366340392e-002	 2.011890067470353e+000	-1.210003720572415e+001
1	 5.727105659865717e-002	 2.012529244272157e+000	-1.090225476124237e+001
1	 3.810992574694207e-002	 2.012983264466222e+000	-9.614365579784863e+000
1	 1.901883715210650e-002	 2.013254162739435e+000	-8.237479641763915e+000
1	 0.000000000000000e+000	 2.013344000018134e+000	-6.772783096350903e+000
1	 1.957212405829274e-001	 2.030601468093916e+000	-1.903182974905224e+001
1	 1.758770150086030e-001	 2.032416365777704e+000	-1.837429907432550e+001
1	 1.560864865078591e-001	 2.034031934430634e+000	-1.761246926131256e+001
1	 1.363522928739360e-001	 2.035450041711373e+000	-1.674624749314923e+001
1	 1.166770156668703e-001	 2.036672591770513e+000	-1.577566390264570e+001
1	 9.706317985488869e-002	 2.037701523572295e+000	-1.470086829702679e+001
1	 7.751325350878094e-002	 2.038538809225204e+000	-1.352212681002598e+001
1	 5.802964754823907e-002	 2.039186452323067e+000	-1.223981848930567e+001
1	 3.861471553909942e-002	 2.039646486298226e+000	-1.085443182703508e+001
1	 1.927075354038485e-002	 2.039920972788282e+000	-9.366561241298509e+000
1	 0.000000000000000e+000	 2.040012000017851e+000	-7.776903515836921e+000
1	 1.982798010451051e-001	 2.057146449179369e+000	-2.078993683952148e+001
1	 1.781761623850336e-001	 2.058985072062221e+000	-2.011676241411331e+001
1	 1.581269227520513e-001	 2.060621760190974e+000	-1.932976069055647e+001
1	 1.381347544218768e-001	 2.062058405639228e+000	-1.842810613670309e+001
1	 1.182022727019181e-001	 2.063296937449552e+000	-1.741112202406323e+001
1	 9.833203556797798e-002	 2.064339319933257e+000	-1.627827773367509e+001
1	 7.852654335463272e-002	 2.065187550979181e+000	-1.502918593166643e+001
1	 5.878823849825416e-002	 2.065843660373092e+000	-1.366359962329338e+001
1	 3.911950533160215e-002	 2.066309708129336e+000	-1.218140909419986e+001
1	 1.952266992886674e-002	 2.066587782836232e+000	-1.058263874757083e+001
1	 0.000000000000000e+000	 2.066680000016667e+000	-8.867443845766829e+000
1	 2.066680000016667e+000	 0.000000000000000e+000	 6.081620471050593e+001
1	 2.066587782836232e+000	 1.952266992886615e-002	 5.947312721508492e+001
1	 2.066309708129337e+000	 3.911950533160163e-002	 5.812100259238946e+001
1	 2.065843660373092e+000	 5.878823849825369e-002	 5.675830811098125e+001
1	 2.065187550979180e+000	 7.852654335463229e-002	 5.538356833603908e+001
1	 2.064339319933259e+000	 9.833203556797764e-002	 5.399535824238358e+001
1	 2.063296937449552e+000	 1.182022727019178e-001	 5.259230633658822e+001
1	 2.062058405639229e+000	 1.381347544218766e-001	 5.117309778276891e+001
1	 2.060621760190973e+000	 1.581269227520511e-001	 4.973647752644126e+001
1	 2.058985072062221e+000	 1.781761623850334e-001	 4.828125341064146e+001
1	 2.057146449179369e+000	 1.982798010451050e-001	 4.680629927831798e+001
1	 2.093344000014533e+000	 0.000000000000000e+000	 6.267173531896936e+001
1	 2.093250593061714e+000	 1.977454853201645e-002	 6.126210248351245e+001
1	 2.092968930676188e+000	 3.962421940982406e-002	 5.984181515889247e+001
1	 2.092496870040883e+000	 5.954671566582059e-002	 5.840944208223458e+001
1	 2.091832295620812e+000	 7.953968121516000e-002	 5.696361259129038e+001
1	 2.090973120823608e+000	 9.960070096278299e-002	 5.550301988517427e+001
1	 2.089917289675494e+000	 1.197273009603743e-001	 5.402642427666623e+001
1	 2.088662778511150e+000	 1.399169486144204e-001	 5.253265642984732e+001
1	 2.087207597675990e+000	 1.601670529465026e-001	 5.102062057664263e+001
1	 2.085549793239211e+000	 1.804749649069133e-001	 4.948929770566650e+001
1	 2.083687448715941e+000	 2.008379777426381e-001	 4.793774871659314e+001
1	 2.120008000011600e+000	 0.000000000000000e+000	 6.460185440176663e+001
1	 2.119913403286397e+000	 2.002642713537022e-002	 6.311424870026266e+001
1	 2.119628153222234e+000	 4.012893348839165e-002	 6.161494120853941e+001
1	 2.119150079707867e+000	 6.030519283382015e-002	 6.010260179109729e+001
1	 2.118477040261631e+000	 8.055281907616123e-002	 5.857597318619047e+001
1	 2.117606921713149e+000	 1.008693663580642e-001	 5.703387437837563e+001
1	 2.116537641900631e+000	 1.212523292192781e-001	 5.547520394565015e+001
1	 2.115267151382275e+000	 1.416991428073603e-001	 5.389894337420185e+001
1	 2.113793435160225e+000	 1.622071831412843e-001	 5.230416033361257e+001
1	 2.112114514415441e+000	 1.827737674290515e-001	 5.069001190519266e+001
1	 2.110228448251783e+000	 2.033961544403597e-001	 4.905574775597057e+001
1	 2.146672000008066e+000	 0.000000000000000e+000	 6.659687826246996e+001
1	 2.146576213510476e+000	 2.027830573887656e-002	 6.502081896411377e+001
1	 2.146287375767672e+000	 4.063364756721792e-002	 6.343252336950458e+001
1	 2.145803289374231e+000	 6.106367000214361e-002	 6.183077203235727e+001
1	 2.145121784901822e+000	 8.156595693751639e-002	 6.021442965273641e+001
1	 2.144240722602053e+000	 1.021380317536997e-001	 5.858244852625383e+001
1	 2.143157994125120e+000	 1.227773574785130e-001	 5.693387195140672e+001
1	 2.141871524252748e+000	 1.434813370005902e-001	 5.526783758741107e+001
1	 2.140379272643811e+000	 1.642473133363034e-001	 5.358358075472278e+001
1	 2.138679235591034e+000	 1.850725699513688e-001	 5.188043767028574e+001
1	 2.136769447787005e+000	 2.059543311382028e-001	 5.015784860941599e+001
1	 2.173336000004133e+000	 0.000000000000000e+000	 6.864759843000709e+001
1	 2.173239023734152e+000	 2.053018434248459e-002	 6.697349562616822e+001
1	 2.172946598312694e+000	 4.113836164621647e-002	 6.528708986881571e+001
1	 2.172456499040166e+000	 6.182214717068232e-002	 6.358728187050479e+001
1	 2.171766529541564e+000	 8.257909479910575e-002	 6.187306679106544e+001
1	 2.170874523490486e+000	 1.034066971495681e-001	 6.014353772898589e+001
1	 2.169778346349123e+000	 1.243023857379629e-001	 5.839788915499956e+001
1	 2.168475897122718e+000	 1.452635311940044e-001	 5.663542027964005e+001
1	 2.166965110126884e+000	 1.662874435314671e-001	 5.485553834638282e+001
1	 2.165243956766108e+000	 1.873713724737860e-001	 5.305776184185995e+001
1	 2.163310447321717e+000	 2.085125078360998e-001	 5.124172361451912e+001
1	 2.200000000000000e+000	 0.000000000000000e+000	 7.074525286000439e+001
1	 2.199901833957622e+000	 2.078206294614344e-002	 6.896436427716095e+001
1	 2.199605820857499e+000	 4.164307572530086e-002	 6.717153116506248e+001
1	 2.199109708705858e+000	 6.258062433932761e-002	 6.536578377698785e+001
1	 2.198411274181037e+000	 8.359223266080977e-002	 6.354625617020500e+001
1	 2.197508324378621e+000	 1.046753625455480e-001	 6.171218970574666e+001
1	 2.196398698572797e+000	 1.258274139975116e-001	 5.986293647494526e+001
1	 2.195080269992334e+000	 1.470457253874971e-001	 5.799796264398138e+001
1	 2.193550947609579e+000	 1.683275737266827e-001	 5.611685170756783e+001
1	 2.191808677940790e+000	 1.896701749962238e-001	 5.421930764277882e+001
1	 2.189851446856028e+000	 2.110706845339837e-001	 5.230515795394088e+001
1	 2.226663999995867e+000	 0.000000000000000e+000	 7.288149920528929e+001
1	 2.226564644181085e+000	 2.103394154980220e-002	 7.098588960375852e+001
1	 2.226265043402275e+000	 4.214778980438459e-002	 6.907907826002654e+001
1	 2.225762918371497e+000	 6.333910150797079e-002	 6.716023426643815e+001
1	 2.225056018820421e+000	 8.460537052250870e-002	 6.522863895797855e+001
1	 2.224142125266628e+000	 1.059440279415181e-001	 6.328368938727898e+001
1	 2.223019050796304e+000	 1.273524422570433e-001	 6.132490171142123e+001
1	 2.221684642861741e+000	 1.488279195809625e-001	 5.935191448135558e+001
1	 2.220136785092030e+000	 1.703677039218573e-001	 5.736449182463542e+001
1	 2.218373399115199e+000	 1.919689775186033e-001	 5.536252651207784e+001
1	 2.216392446390048e+000	 2.136288612317870e-001	 5.334604289889104e+001
1	 2.253327999991934e+000	 0.000000000000000e+000	 7.504838998415987e+001
1	 2.253227454404741e+000	 2.128582015341000e-002	 7.303089295903590e+001
1	 2.252924265947221e+000	 4.265250388338127e-002	 7.100328255016230e+001
1	 2.252416128037270e+000	 6.409757867650313e-002	 6.896487590770641e+001
1	 2.251700763459898e+000	 8.561850838408298e-002	 6.691510996997116e+001
1	 2.250775926154679e+000	 1.072126933373569e-001	 6.485354488107616e+001
1	 2.249639403019801e+000	 1.288774705164418e-001	 6.277986730594235e+001
1	 2.248289015731089e+000	 1.506101137742947e-001	 6.069389363303209e+001
1	 2.246722622574373e+000	 1.724078341168982e-001	 5.859557305520102e+001
1	 2.244938120289457e+000	 1.942677800408448e-001	 5.648499051894923e+001
1	 2.242933445923886e+000	 2.161870379294425e-001	 5.436236953231155e+001
1	 2.279991999988401e+000	 0.000000000000000e+000	 7.723834949106333e+001
1	 2.279890264628787e+000	 2.153769875691595e-002	 7.509253150680307e+001
1	 2.279583488492532e+000	 4.315721796220443e-002	 7.293799709187378e+001
1	 2.279069337703367e+000	 6.485605584481598e-002	 7.077422059715792e+001
1	 2.278345508099645e+000	 8.663164624541292e-002	 6.860080283775720e+001
1	 2.277409727042942e+000	 1.084813587329429e-001	 6.641747442136858e+001
1	 2.276259755243448e+000	 1.304024987755909e-001	 6.422409895992452e+001
1	 2.274893388600523e+000	 1.523923079673880e-001	 6.202067615465600e+001
1	 2.273308460056743e+000	 1.744479643117125e-001	 5.980734474466235e+001
1	 2.271502841463688e+000	 1.965665825628696e-001	 5.758438530902726e+001
1	 2.269474445457651e+000	 2.187452146268828e-001	 5.535222291249636e+001
1	 2.306655999985467e+000	 0.000000000000000e+000	 7.944415230869237e+001
1	 2.306553074853420e+000	 2.178957736026917e-002	 7.716427881242933e+001
1	 2.306242711038399e+000	 4.366193204076763e-002	 7.487735916618441e+001
1	 2.305722547369975e+000	 6.561453301280071e-002	 7.258303399209238e+001
1	 2.304990252739845e+000	 8.764478410637885e-002	 7.028107620582406e+001
1	 2.304043527931590e+000	 1.097500241281549e-001	 6.797139422422747e+001
1	 2.302880107467407e+000	 1.319275270343746e-001	 6.565403504263647e+001
1	 2.301497761470193e+000	 1.541745021601365e-001	 6.332918717178047e+001
1	 2.299894297539273e+000	 1.764880945062075e-001	 6.099718342418154e+001
1	 2.298067562638014e+000	 1.988653850845982e-001	 5.865850353990182e+001
1	 2.296015444991455e+000	 2.213033913240405e-001	 5.631377664150779e+001
1	 2.333319999983334e+000	 0.000000000000000e+000	 8.165890329339891e+001
1	 2.333215885078843e+000	 2.204145596341877e-002	 7.923990676445686e+001
1	 2.332901933585021e+000	 4.416664611898442e-002	 7.681577403886033e+001
1	 2.332375757037283e+000	 6.637301018034854e-002	 7.438632101148495e+001
1	 2.331634997380677e+000	 8.865792196686113e-002	 7.195150087490255e+001
1	 2.330677328820791e+000	 1.110186895228712e-001	 6.951140717538300e+001
1	 2.329500459691833e+000	 1.334525552926768e-001	 6.706627672539538e+001
1	 2.328102134340243e+000	 1.559566963524343e-001	 6.461649236238915e+001
1	 2.326480135022100e+000	 1.785282247002905e-001	 6.216258554361207e+001
1	 2.324632283812555e+000	 2.011641876059514e-001	 5.970523876672599e+001
1	 2.322556444525402e+000	 2.238615680208485e-001	 5.724528780600952e+001
1	 2.057146449179369e+000	 1.982798010451050e-001	 4.680629927831798e+001
1	 2.055104359927541e+000	 2.184320901207318e-001	 4.532601519016155e+001
1	 2.052856731816378e+000	 2.386332932476165e-001	 4.385474263141100e+001
1	 2.050401795018658e+000	 2.588806154148093e-001	 4.239205035144386e+001
1	 2.047737823409130e+000	 2.791712079452241e-001	 4.093759310508191e+001
1	 2.044863136261900e+000	 2.995021691400969e-001	 3.949111387990616e+001
1	 2.041776099945052e+000	 3.198705449804656e-001	 3.805244602472462e+001
1	 2.038475129610468e+000	 3.402733298862165e-001	 3.662151527208626e+001
1	 2.034958690876767e+000	 3.607074675331577e-001	 3.519834164776305e+001
1	 2.031225301503231e+000	 3.811698517285160e-001	 3.378304126016683e+001
1	 2.027273533052570e+000	 4.016573273451569e-001	 3.237582796274018e+001
1	 2.083687448715941e+000	 2.008379777426381e-001	 4.793774871659315e+001
1	 2.081619012730616e+000	 2.212502686744141e-001	 4.638076949931507e+001
1	 2.079342386053915e+000	 2.417121047393328e-001	 4.483300953545000e+001
1	 2.076855776024567e+000	 2.622206548656228e-001	 4.329414417856088e+001
1	 2.074157434247109e+000	 2.827730336229843e-001	 4.176394317999512e+001
1	 2.071245658311171e+000	 3.033663018753617e-001	 4.024227290289435e+001
1	 2.068118793507961e+000	 3.239974674914739e-001	 3.872909842231029e+001
1	 2.064775234541886e+000	 3.446634861136527e-001	 3.722448550392931e+001
1	 2.061213427235205e+000	 3.653612619854610e-001	 3.572860245395729e+001
1	 2.057431870223551e+000	 3.860876488384815e-001	 3.424172183279127e+001
1	 2.053429116640150e+000	 4.068394508385930e-001	 3.276422202520051e+001
1	 2.110228448251783e+000	 2.033961544403597e-001	 4.905574775597057e+001
1	 2.108133665533004e+000	 2.240684472282250e-001	 4.741649681960791e+001
1	 2.105828040290816e+000	 2.447909162311280e-001	 4.578715271777622e+001
1	 2.103309757029900e+000	 2.655606943164766e-001	 4.416749835823641e+001
1	 2.100577045084578e+000	 2.863748593007570e-001	 4.255741831851886e+001
1	 2.097628180360005e+000	 3.072304346106214e-001	 4.095690102277193e+001
1	 2.094461487070513e+000	 3.281243900024697e-001	 3.936604079085313e+001
1	 2.091075339473031e+000	 3.490536423410803e-001	 3.778503975184989e+001
1	 2.087468163593456e+000	 3.700150564377694e-001	 3.621420961428892e+001
1	 2.083638438943773e+000	 3.910054459484762e-001	 3.465397328539320e+001
1	 2.079584700227718e+000	 4.120215743320920e-001	 3.310486633186940e+001
1	 2.136769447787005e+000	 2.059543311382028e-001	 5.015784860941599e+001
1	 2.134648318334801e+000	 2.268866257821053e-001	 4.843121687843502e+001
1	 2.132313694527165e+000	 2.478697277229482e-001	 4.671562061198526e+001
1	 2.129763738034728e+000	 2.689007337673182e-001	 4.501095135384202e+001
1	 2.126996655921599e+000	 2.899766849784879e-001	 4.331720849893655e+001
1	 2.124010702408456e+000	 3.110945673458185e-001	 4.163450140963614e+001
1	 2.120804180632748e+000	 3.322513125133903e-001	 3.996305139155931e+001
1	 2.117375444403932e+000	 3.534437985684283e-001	 3.830319352087111e+001
1	 2.113722899951540e+000	 3.746688508900030e-001	 3.665537831510098e+001
1	 2.109845007663906e+000	 3.959232430584104e-001	 3.502017323964901e+001
1	 2.105740283815280e+000	 4.172036978255547e-001	 3.339826404229485e+001
1	 2.163310447321717e+000	 2.085125078360998e-001	 5.124172361451911e+001
1	 2.161162971136105e+000	 2.297048043359963e-001	 4.942304658464521e+001
1	 2.158799348763049e+000	 2.509485392147393e-001	 4.761693779446244e+001
1	 2.156217719039128e+000	 2.722407732180951e-001	 4.582339863091153e+001
1	 2.153416266758237e+000	 2.935785106561238e-001	 4.404254345117481e+001
1	 2.150393224456572e+000	 3.149587000808950e-001	 4.227460161540663e+001
1	 2.147146874194708e+000	 3.363782350241718e-001	 4.051991936742032e+001
1	 2.143675549334621e+000	 3.578339547956262e-001	 3.877896155511153e+001
1	 2.139977636309479e+000	 3.793226453420827e-001	 3.705231318251381e+001
1	 2.136051576383963e+000	 4.008410401681958e-001	 3.534068078553298e+001
1	 2.131895867402834e+000	 4.223858213188826e-001	 3.364489362357833e+001
1	 2.189851446856028e+000	 2.110706845339837e-001	 5.230515795394089e+001
1	 2.187677623937013e+000	 2.325229828898390e-001	 5.039019413934504e+001
1	 2.185285002998553e+000	 2.540273507064469e-001	 4.848970037012912e+001
1	 2.182671700043172e+000	 2.755808126687546e-001	 4.660378920280945e+001
1	 2.179835877594552e+000	 2.971803363336101e-001	 4.473269024785400e+001
1	 2.176775746504410e+000	 3.188228328157938e-001	 4.287675209628639e+001
1	 2.173489567756436e+000	 3.405051575347510e-001	 4.103644408377591e+001
1	 2.169975654265129e+000	 3.622241110226026e-001	 3.921235788389551e+001
1	 2.166232372667292e+000	 3.839764397939289e-001	 3.740520892237409e+001
1	 2.162258145103953e+000	 4.057588372777427e-001	 3.561583760433808e+001
1	 2.158051450990382e+000	 4.275679448119764e-001	 3.384521034673671e+001
1	 2.216392446390048e+000	 2.136288612317870e-001	 5.334604289889103e+001
1	 2.214192276737621e+000	 2.353411614435744e-001	 5.133095356983606e+001
1	 2.211770657233760e+000	 2.571061621980169e-001	 4.933257168971971e+001
1	 2.209125681046935e+000	 2.789208521192439e-001	 4.735112242459069e+001
1	 2.206255488430609e+000	 3.007821620108933e-001	 4.538695106841864e+001
1	 2.203158268552019e+000	 3.226869655504570e-001	 4.344052484138300e+001
1	 2.199832261317972e+000	 3.446320800450647e-001	 4.151243451625756e+001
1	 2.196275759195487e+000	 3.666142672492871e-001	 3.960339586455055e+001
1	 2.192487109025003e+000	 3.886302342454621e-001	 3.771425091422401e+001
1	 2.188464713823888e+000	 4.106766343869625e-001	 3.584596901100835e+001
1	 2.184207034577925e+000	 4.327500683047373e-001	 3.399964767555152e+001
1	 2.242933445923886e+000	 2.161870379294425e-001	 5.436236953231155e+001
1	 2.240706929538030e+000	 2.381593399971436e-001	 5.224369965163734e+001
1	 2.238256311468759e+000	 2.601849736893953e-001	 5.014427837112763e+001
1	 2.235579662050491e+000	 2.822608915695107e-001	 4.806444501449231e+001
1	 2.232675099266471e+000	 3.043839876879195e-001	 4.600466112201328e+001
1	 2.229540790599451e+000	 3.265510982848271e-001	 4.396551209869601e+001
1	 2.226174954879359e+000	 3.487590025550493e-001	 4.194770868218723e+001
1	 2.222575864125728e+000	 3.710044234756087e-001	 3.995208822216605e+001
1	 2.218741845382630e+000	 3.932840286966025e-001	 3.797961576309911e+001
1	 2.214671282543780e+000	 4.155944314957661e-001	 3.603138492246685e+001
1	 2.210362618165462e+000	 4.379321917970660e-001	 3.410861855681149e+001
1	 2.269474445457651e+000	 2.187452146268828e-001	 5.535222291249635e+001
1	 2.267221582338333e+000	 2.409775185504876e-001	 5.312688318682268e+001
1	 2.264741965703633e+000	 2.632637851805277e-001	 5.092360659992802e+001
1	 2.262033643053913e+000	 2.856009310195024e-001	 4.874284828442402e+001
1	 2.259094710102200e+000	 3.079858133646347e-001	 4.658518671610698e+001
1	 2.255923312646759e+000	 3.304152310188464e-001	 4.445132519050036e+001
1	 2.252517648440637e+000	 3.528859250646414e-001	 4.234209311187402e+001
1	 2.248875969055882e+000	 3.753945797014967e-001	 4.025844708656209e+001
1	 2.244996581740196e+000	 3.979378231472711e-001	 3.820147181260749e+001
1	 2.240877851263638e+000	 4.205122286040643e-001	 3.617238075799737e+001
1	 2.236518201752999e+000	 4.431143152888641e-001	 3.417251662002027e+001
1	 2.296015444991455e+000	 2.213033913240405e-001	 5.631377664150779e+001
1	 2.293736235138630e+000	 2.437956971035477e-001	 5.397902660984098e+001
1	 2.291227619938468e+000	 2.663425966713601e-001	 5.166939868648714e+001
1	 2.288487624057277e+000	 2.889409704691662e-001	 4.938546556254451e+001
1	 2.285514320937858e+000	 3.115876390409852e-001	 4.712792345907317e+001
1	 2.282305834693997e+000	 3.342793637524572e-001	 4.489759341089184e+001
1	 2.278860342001849e+000	 3.570128475737778e-001	 4.269542235658041e+001
1	 2.275176073985980e+000	 3.797847359268806e-001	 4.052248402669447e+001
1	 2.271251318097723e+000	 4.025916175973884e-001	 3.837997962242274e+001
1	 2.267084419983474e+000	 4.254300257117684e-001	 3.626923827717773e+001
1	 2.262673785340533e+000	 4.482964387800322e-001	 3.419171729389575e+001
1	 2.322556444525402e+000	 2.238615680208485e-001	 5.724528780600954e+001
1	 2.320250887939015e+000	 2.466138756562646e-001	 5.479871989462334e+001
1	 2.317713274173350e+000	 2.694214081618383e-001	 5.238054985913362e+001
1	 2.314941605060655e+000	 2.922810099184496e-001	 4.999146979255885e+001
1	 2.311933931773510e+000	 3.151894647169171e-001	 4.763229458600979e+001
1	 2.308688356741215e+000	 3.381434964856024e-001	 4.530396299892214e+001
1	 2.305203035563035e+000	 3.611397700823951e-001	 4.300753853022492e+001
1	 2.301476178916054e+000	 3.841748921516889e-001	 4.074421008270046e+001
1	 2.297506054455230e+000	 4.072454120468744e-001	 3.851529241303784e+001
1	 2.293290988703300e+000	 4.303478228187894e-001	 3.632222636036052e+001
1	 2.288829368928065e+000	 4.534785622704717e-001	 3.416657884631608e+001
1	 2.027273533052570e+000	 4.016573273451569e-001	 3.237582796274018e+001
1	 2.023101370489906e+000	 4.221697687133256e-001	 3.098674377774149e+001
1	 2.018708075208402e+000	 4.427008487803357e-001	 2.962627349879468e+001
1	 2.014092391253171e+000	 4.632472654263896e-001	 2.829480461734366e+001
1	 2.009253123036070e+000	 4.838056717963330e-001	 2.699281432080893e+001
1	 2.004189136910732e+000	 5.043726775313111e-001	 2.572087034411230e+001
1	 1.998899362722714e+000	 5.249448500593382e-001	 2.447963166929683e+001
1	 1.993382795332379e+000	 5.455187159444399e-001	 2.326984906779994e+001
1	 1.987638496108145e+000	 5.660907622939359e-001	 2.209236548017692e+001
1	 1.981665594387705e+000	 5.866574382233225e-001	 2.094811622833002e+001
1	 1.975463288904845e+000	 6.072151563781102e-001	 1.983812905558152e+001
1	 2.053429116640150e+000	 4.068394508385930e-001	 3.276422202520051e+001
1	 2.049203125452439e+000	 4.276165406946643e-001	 3.130621304877099e+001
1	 2.044753148524194e+000	 4.484125097233064e-001	 2.987826435940559e+001
1	 2.040077913696388e+000	 4.692240132012560e-001	 2.848093011130614e+001
1	 2.035176209955582e+000	 4.900476610927236e-001	 2.711485723963956e+001
1	 2.030046889029278e+000	 5.108800192969425e-001	 2.578078607445763e+001
1	 2.024688866956064e+000	 5.317176109553854e-001	 2.447955079139782e+001
1	 2.019101125628145e+000	 5.525569178183161e-001	 2.321207969392531e+001
1	 2.013282714303859e+000	 5.733943816702277e-001	 2.197939532214545e+001
1	 2.007232751087750e+000	 5.942264058136262e-001	 2.078261438350909e+001
1	 2.000950424375790e+000	 6.150493566104989e-001	 1.962294750104950e+001
1	 2.079584700227718e+000	 4.120215743320920e-001	 3.310486633186940e+001
1	 2.075304880415053e+000	 4.330633126761095e-001	 3.157699568947912e+001
1	 2.070798221840154e+000	 4.541241706664352e-001	 3.008093691481475e+001
1	 2.066063436139859e+000	 4.752007609763389e-001	 2.861739014260142e+001
1	 2.061099296875428e+000	 4.962896503893942e-001	 2.718715049172968e+001
1	 2.055904641148230e+000	 5.173873610629188e-001	 2.579110845788323e+001
1	 2.050478371189882e+000	 5.384903718518439e-001	 2.443025013342423e+001
1	 2.044819455924433e+000	 5.595951196926687e-001	 2.310565724950588e+001
1	 2.038926932500136e+000	 5.806980010470587e-001	 2.181850703567943e+001
1	 2.032799907788383e+000	 6.017953734045255e-001	 2.057007189258616e+001
1	 2.026437559847335e+000	 6.228835568435335e-001	 1.936171887366963e+001
1	 2.105740283815280e+000	 4.172036978255547e-001	 3.339826404229486e+001
1	 2.101406635377738e+000	 4.385100846575524e-001	 3.179969213034451e+001
1	 2.096843295156265e+000	 4.598358316096043e-001	 3.023496950050964e+001
1	 2.092048958583554e+000	 4.811775087515102e-001	 2.870492242952433e+001
1	 2.087022383795569e+000	 5.025316396862063e-001	 2.721047352208121e+001
1	 2.081762393267542e+000	 5.238947028290935e-001	 2.575264189805390e+001
1	 2.076267875424119e+000	 5.452631327485583e-001	 2.433254319920664e+001
1	 2.070537786221185e+000	 5.666333215673345e-001	 2.295138941057803e+001
1	 2.064571150696912e+000	 5.880016204242573e-001	 2.161048849205145e+001
1	 2.058367064489540e+000	 6.093643409958434e-001	 2.031124381596995e+001
1	 2.051924695319411e+000	 6.307177570770307e-001	 1.905515340702501e+001
1	 2.131895867402834e+000	 4.223858213188826e-001	 3.364489362357833e+001
1	 2.127508390340486e+000	 4.439568566388839e-001	 3.197487333584914e+001
1	 2.122888368472507e+000	 4.655474925526938e-001	 3.034100716280931e+001
1	 2.118034481027448e+000	 4.871542565266413e-001	 2.874422848700223e+001
1	 2.112945470715970e+000	 5.087736289830221e-001	 2.718556752459903e+001
1	 2.107620145387170e+000	 5.304020445953191e-001	 2.566615132269632e+001
1	 2.102057379658719e+000	 5.520358936453730e-001	 2.418720357004836e+001
1	 2.096256116518343e+000	 5.736715234421500e-001	 2.275004421664824e+001
1	 2.090215368894127e+000	 5.953052398016533e-001	 2.135608889791852e+001
1	 2.083934221191156e+000	 6.169333085874019e-001	 2.000684815963945e+001
1	 2.077411830791954e+000	 6.385519573108083e-001	 1.870392648013563e+001
1	 2.158051450990382e+000	 4.275679448119764e-001	 3.384521034673671e+001
1	 2.153610145303287e+000	 4.494036286199952e-001	 3.210308259011705e+001
1	 2.148933441788862e+000	 4.712591534955853e-001	 3.039966367618715e+001
1	 2.144020003471509e+000	 4.931310043016032e-001	 2.873597582051866e+001
1	 2.138868557636592e+000	 5.150156182797037e-001	 2.711313776010717e+001
1	 2.133477897507068e+000	 5.369093863614493e-001	 2.553236457584008e+001
1	 2.127846883893632e+000	 5.588086545421322e-001	 2.399496732403021e+001
1	 2.121974446815848e+000	 5.807097253169515e-001	 2.250235247266672e+001
1	 2.115859587091717e+000	 6.026088591790755e-001	 2.105602113839745e+001
1	 2.109501377893163e+000	 6.245022761790250e-001	 1.965756812064235e+001
1	 2.102898966264897e+000	 6.463861575446830e-001	 1.830868072964490e+001
1	 2.184207034577925e+000	 4.327500683047373e-001	 3.399964767555152e+001
1	 2.179711900266134e+000	 4.548504006007772e-001	 3.218483715425680e+001
1	 2.174978515105310e+000	 4.769708144381600e-001	 3.041152341565129e+001
1	 2.170005525915712e+000	 4.991077520762681e-001	 2.868079996240515e+001
1	 2.164791644557399e+000	 5.212576075761127e-001	 2.699385570781715e+001
1	 2.159335649627190e+000	 5.434167281273361e-001	 2.535197463817896e+001
1	 2.153636388128806e+000	 5.655814154386811e-001	 2.375653528149022e+001
1	 2.147692777113644e+000	 5.877479271915754e-001	 2.220900997842059e+001
1	 2.141503805289619e+000	 6.099124785563529e-001	 2.071096395179249e+001
1	 2.135068534595499e+000	 6.320712437705343e-001	 1.926405417125579e+001
1	 2.128386101738173e+000	 6.542203577784719e-001	 1.787002801024718e+001
1	 2.210362618165462e+000	 4.379321917970660e-001	 3.410861855681149e+001
1	 2.205813655229016e+000	 4.602971725811211e-001	 3.222062980603370e+001
1	 2.201023588421832e+000	 4.826824753802987e-001	 3.037714309618737e+001
1	 2.195991048360027e+000	 5.050844998505065e-001	 2.857930636355881e+001
1	 2.190714731478355e+000	 5.274995968721120e-001	 2.682836106404446e+001
1	 2.185193401747493e+000	 5.499240698928332e-001	 2.512564168978820e+001
1	 2.179425892364188e+000	 5.723541763348635e-001	 2.347257509107659e+001
1	 2.173411107411672e+000	 5.947861290658583e-001	 2.187067959964320e+001
1	 2.167148023487772e+000	 6.172160979333154e-001	 2.032156394991903e+001
1	 2.160635691298097e+000	 6.396402113617533e-001	 1.882692599517434e+001
1	 2.153873237211714e+000	 6.620545580119924e-001	 1.738855121592682e+001
1	 2.236518201752999e+000	 4.431143152888641e-001	 3.417251662002027e+001
1	 2.231915410191926e+000	 4.657439445609179e-001	 3.221093027150587e+001
1	 2.227068661738411e+000	 4.883941363218830e-001	 3.029705339014729e+001
1	 2.221976570804427e+000	 5.110612476241908e-001	 2.843207215242013e+001
1	 2.216637818399420e+000	 5.337415861675627e-001	 2.661726360067767e+001
1	 2.211051153867931e+000	 5.564314116577935e-001	 2.485399502810385e+001
1	 2.205215396599726e+000	 5.791269372305239e-001	 2.314372316942506e+001
1	 2.199129437709875e+000	 6.018243309396371e-001	 2.148799319379578e+001
1	 2.192792241686111e+000	 6.245197173097915e-001	 1.988843749666425e+001
1	 2.186202848000889e+000	 6.472091789525045e-001	 1.834677428783787e+001
1	 2.179360372685457e+000	 6.698887582450618e-001	 1.686480597340357e+001
1	 2.262673785340533e+000	 4.482964387800322e-001	 3.419171729389576e+001
1	 2.258017165154852e+000	 4.711907165400584e-001	 3.215618655736520e+001
1	 2.253113735055029e+000	 4.941057972627938e-001	 3.017176043245974e+001
1	 2.247962093248884e+000	 5.170379953971918e-001	 2.823964777195260e+001
1	 2.242560905320560e+000	 5.399835754623272e-001	 2.636114489474860e+001
1	 2.236908905988459e+000	 5.629387534220698e-001	 2.453763485287591e+001
1	 2.231004900835369e+000	 5.858996981255068e-001	 2.277058650630504e+001
1	 2.224847768008192e+000	 6.088625328127472e-001	 2.106155340228207e+001
1	 2.218436459884577e+000	 6.318233366856112e-001	 1.941217245625537e+001
1	 2.211770004703814e+000	 6.547781465426102e-001	 1.782416243189335e+001
1	 2.204847508159331e+000	 6.777229584774966e-001	 1.629932221812454e+001
1	 2.288829368928065e+000	 4.534785622704717e-001	 3.416657884631609e+001
1	 2.284118920117788e+000	 4.766374885184339e-001	 3.205682619192656e+001
1	 2.279158808371665e+000	 4.998174582029122e-001	 3.000174722263590e+001
1	 2.273947615693367e+000	 5.230147431693809e-001	 2.800255850438314e+001
1	 2.268483992241738e+000	 5.462255647562676e-001	 2.606055993941494e+001
1	 2.262766658109032e+000	 5.694460951855148e-001	 2.417713392873601e+001
1	 2.256794405071064e+000	 5.926724590196568e-001	 2.235374434599606e+001
1	 2.250566098306568e+000	 6.159007346850260e-001	 2.059193531977951e+001
1	 2.244080678083104e+000	 6.391269560606029e-001	 1.889332982165777e+001
1	 2.237337161406804e+000	 6.623471141318938e-001	 1.725962805777834e+001
1	 2.230334643633272e+000	 6.855571587091147e-001	 1.569260566219842e+001
1	 1.975463288904845e+000	 6.072151563781102e-001	 1.983812905558152e+001
1	 1.969030848685419e+000	 6.277602942109748e-001	 1.876089117592105e+001
1	 1.962367612913844e+000	 6.482891946827238e-001	 1.771450778007358e+001
1	 1.955472993722270e+000	 6.687981688007212e-001	 1.669954710536358e+001
1	 1.948346477952994e+000	 6.892834976536052e-001	 1.571663613298411e+001
1	 1.940987628381446e+000	 7.097414342048216e-001	 1.476646011640497e+001
1	 1.933396084890728e+000	 7.301682051371443e-001	 1.384976198000416e+001
1	 1.925571565595462e+000	 7.505600127467704e-001	 1.296734158634590e+001
1	 1.917513867912702e+000	 7.709130368854967e-001	 1.212005487083132e+001
1	 1.909222869577757e+000	 7.912234369493597e-001	 1.130881284276030e+001
1	 1.900698529602766e+000	 8.114873539120181e-001	 1.053458045216772e+001
1	 2.000950424375790e+000	 6.150493566104989e-001	 1.962294750104950e+001
1	 1.994434993762919e+000	 6.358595647759501e-001	 1.849861707052200e+001
1	 1.987685789907810e+000	 6.566533260882139e-001	 1.740737036692299e+001
1	 1.980702217358025e+000	 6.774269039598260e-001	 1.634981918610765e+001
1	 1.973483756335180e+000	 6.981765314985874e-001	 1.532663316804731e+001
1	 1.966029963973694e+000	 7.188984133242425e-001	 1.433853922527312e+001
1	 1.958340475510495e+000	 7.395887274367917e-001	 1.338632084047352e+001
1	 1.950415005423359e+000	 7.602436271350282e-001	 1.247081723184681e+001
1	 1.942253348515646e+000	 7.808592429837710e-001	 1.159292238511872e+001
1	 1.933855380945223e+000	 8.014316848281606e-001	 1.075358395145432e+001
1	 1.925221061195408e+000	 8.219570438532781e-001	 9.953802010824196e+000
1	 2.026437559847335e+000	 6.228835568435335e-001	 1.936171887366963e+001
1	 2.019839138841012e+000	 6.439588353416125e-001	 1.819138210776080e+001
1	 2.013003966902344e+000	 6.650174574944247e-001	 1.705643457829842e+001
1	 2.005931440994312e+000	 6.860556391196770e-001	 1.595751519232230e+001
1	 1.998621034717845e+000	 7.070695653443359e-001	 1.489531974854675e+001
1	 1.991072299566360e+000	 7.280553924444433e-001	 1.387060029334251e+001
1	 1.983284866130609e+000	 7.490092497372287e-001	 1.288416434537387e+001
1	 1.975258445251525e+000	 7.699272415240815e-001	 1.193687398762424e+001
1	 1.966992829118775e+000	 7.908054490828438e-001	 1.102964482585632e+001
1	 1.958487892312784e+000	 8.116399327077611e-001	 1.016344481287730e+001
1	 1.949743592788055e+000	 8.324267337953375e-001	 9.339292938313864e+000
1	 2.051924695319411e+000	 6.307177570770307e-001	 1.905515340702501e+001
1	 2.045243283919630e+000	 6.520581059077748e-001	 1.783984760893743e+001
1	 2.038322143897384e+000	 6.733815889011648e-001	 1.666231642417701e+001
1	 2.031160664631070e+000	 6.946843742800807e-001	 1.552321006300257e+001
1	 2.023758313100938e+000	 7.159625991906543e-001	 1.442323462348311e+001
1	 2.016114635159398e+000	 7.372123715652267e-001	 1.336315140192013e+001
1	 2.008229256751030e+000	 7.584297720382566e-001	 1.234377607198534e+001
1	 2.000101885079929e+000	 7.796108559137314e-001	 1.136597773139559e+001
1	 1.991732309722067e+000	 8.007516551825158e-001	 1.043067781525951e+001
1	 1.983120403680432e+000	 8.218481805879621e-001	 9.538848875559149e+000
1	 1.974266124380708e+000	 8.428964237379969e-001	 8.691513226564323e+000
1	 2.077411830791954e+000	 6.385519573108083e-001	 1.870392648013563e+001
1	 2.070647428998710e+000	 6.601573764742491e-001	 1.744464244114839e+001
1	 2.063640320892865e+000	 6.817457203082432e-001	 1.622560168397589e+001
1	 2.056389888268241e+000	 7.033131094408428e-001	 1.504745052213301e+001
1	 2.048895591484403e+000	 7.248556330373465e-001	 1.391089010286278e+001
1	 2.041156970752760e+000	 7.463693506863949e-001	 1.281667569832899e+001
1	 2.033173647371723e+000	 7.678502943396769e-001	 1.176561586613402e+001
1	 2.024945324908542e+000	 7.892944703037774e-001	 1.075857147802657e+001
1	 2.016471790325502e+000	 8.106978612825864e-001	 9.796454615978689e+000
1	 2.007752915048153e+000	 8.320564284685622e-001	 8.880227335137823e+000
1	 1.998788655973365e+000	 8.533661136810563e-001	 8.010900293495597e+000
1	 2.102898966264897e+000	 6.463861575446830e-001	 1.830868072964490e+001
1	 2.096051574078183e+000	 6.682566470408484e-001	 1.700636498401151e+001
1	 2.088958497888727e+000	 6.901098517154685e-001	 1.574684773852403e+001
1	 2.081619111905766e+000	 7.119418446017694e-001	 1.453075678851735e+001
1	 2.074032869868188e+000	 7.337486668842164e-001	 1.335877365990097e+001
1	 2.066199306346401e+000	 7.555263298077504e-001	 1.223163290690806e+001
1	 2.058118037992645e+000	 7.772708166412901e-001	 1.115012128031839e+001
1	 2.049788764737333e+000	 7.989780846940210e-001	 1.011507676502023e+001
1	 2.041211270929059e+000	 8.206440673828560e-001	 9.127387486089035e+000
1	 2.032385426415939e+000	 8.422646763493621e-001	 8.187990482884922e+000
1	 2.023311187566027e+000	 8.638358036243158e-001	 7.297870351005205e+000
1	 2.128386101738173e+000	 6.542203577784719e-001	 1.787002801024718e+001
1	 2.121455719157986e+000	 6.763559176073851e-001	 1.652558495508307e+001
1	 2.114276674884903e+000	 6.984739831226499e-001	 1.522658527040862e+001
1	 2.106848335543585e+000	 7.205705797626664e-001	 1.397362416275844e+001
1	 2.099170148252240e+000	 7.426417007310677e-001	 1.276734941810789e+001
1	 2.091241641940274e+000	 7.646833089290946e-001	 1.160846073144730e+001
1	 2.083062428613760e+000	 7.866913389428978e-001	 1.049770890850733e+001
1	 2.074632204566274e+000	 8.086616990842620e-001	 9.435894938459809e+000
1	 2.065950751532719e+000	 8.305902734831252e-001	 8.423868936725487e+000
1	 2.057017937783777e+000	 8.524729242301622e-001	 7.462528957340757e+000
1	 2.047833719158692e+000	 8.743054935675751e-001	 6.552819674664658e+000
1	 2.153873237211714e+000	 6.620545580119924e-001	 1.738855121592682e+001
1	 2.146859864238053e+000	 6.844551881736721e-001	 1.600284510567203e+001
1	 2.139594851881332e+000	 7.068381145295958e-001	 1.466531984359840e+001
1	 2.132077559181640e+000	 7.291993149233397e-001	 1.337652450156395e+001
1	 2.124307426636504e+000	 7.515347345777037e-001	 1.213705953279347e+001
1	 2.116283977534333e+000	 7.738402880502304e-001	 1.094757615805208e+001
1	 2.108006819235030e+000	 7.961118612443012e-001	 9.808775626168997e+000
1	 2.099475644395333e+000	 8.183453134743008e-001	 8.721408347650701e+000
1	 2.090690232136461e+000	 8.405364795831938e-001	 7.686272900426899e+000
1	 2.081650449151659e+000	 8.626811721107621e-001	 6.704214907084495e+000
1	 2.072356250751360e+000	 8.847751835106346e-001	 5.776125783268761e+000
1	 2.179360372685457e+000	 6.698887582450618e-001	 1.686480597340357e+001
1	 2.172264009318315e+000	 6.925544587395213e-001	 1.543866279766148e+001
1	 2.164913028877952e+000	 7.152022459361156e-001	 1.406353337222694e+001
1	 2.157306782819872e+000	 7.378280500835952e-001	 1.273990758860240e+001
1	 2.149444705020930e+000	 7.604277684239289e-001	 1.146832547563336e+001
1	 2.141326313128531e+000	 7.829972671709595e-001	 1.024937666658672e+001
1	 2.132951209856414e+000	 8.055323835453015e-001	 9.083699743288406e+000
1	 2.124319084224482e+000	 8.280289278639391e-001	 7.971981455936319e+000
1	 2.115429712740264e+000	 8.504826856828616e-001	 6.914955817499070e+000
1	 2.106282960519573e+000	 8.728894199909626e-001	 5.913403071914444e+000
1	 2.096878782344030e+000	 8.952448734532941e-001	 4.968148535617563e+000
1	 2.204847508159331e+000	 6.777229584774966e-001	 1.629932221812454e+001
1	 2.197668154398710e+000	 7.006537293047456e-001	 1.483353147096551e+001
1	 2.190231205874698e+000	 7.235663773420178e-001	 1.342168548750504e+001
1	 2.182536006458223e+000	 7.464567852432392e-001	 1.206420241027958e+001
1	 2.174581983405461e+000	 7.693208022695466e-001	 1.076154923014100e+001
1	 2.166368648722823e+000	 7.921542462910846e-001	 9.514241358095504e+000
1	 2.157895600477876e+000	 8.149529058456994e-001	 8.322842077414482e+000
1	 2.149162524053690e+000	 8.377125422529761e-001	 7.187961874470258e+000
1	 2.140169193344107e+000	 8.604288917819297e-001	 6.110257647030241e+000
1	 2.130915471887508e+000	 8.830976678705622e-001	 5.090431789040053e+000
1	 2.121401313936701e+000	 9.057145633953536e-001	 4.129231151228169e+000
1	 2.230334643633272e+000	 6.855571587091147e-001	 1.569260566219842e+001
1	 2.223072299479171e+000	 7.087529998691572e-001	 1.418792201036985e+001
1	 2.215549382871506e+000	 7.319305087471115e-001	 1.274021481091021e+001
1	 2.207765230096631e+000	 7.550855204020774e-001	 1.134981834404166e+001
1	 2.199719261790046e+000	 7.782138361143610e-001	 1.001711440517203e+001
1	 2.191410984317160e+000	 8.013112254104077e-001	 8.742532004922122e+000
1	 2.182839991099376e+000	 8.243734281452966e-001	 7.526546953133978e+000
1	 2.174005963882928e+000	 8.473961566412125e-001	 6.369681325107913e+000
1	 2.164908673947970e+000	 8.703750978801975e-001	 5.272502808586371e+000
1	 2.155547983255453e+000	 8.933059157493626e-001	 4.235623930284714e+000
1	 2.145923845529373e+000	 9.161842533366132e-001	 3.259701161061516e+000
1	 1.900698529602766e+000	 8.114873539120181e-001	 1.053458045216772e+001
1	 1.891942220492133e+000	 8.316978846581151e-001	 9.793338459221271e+000
1	 1.882952806529170e+000	 8.518541852139021e-001	 9.080157871484641e+000
1	 1.873730497067709e+000	 8.719523567309263e-001	 8.395041818384339e+000
1	 1.864275585902089e+000	 8.919884905296139e-001	 7.738024375028011e+000
1	 1.854588451907370e+000	 9.119586703247526e-001	 7.109170535535193e+000
1	 1.844669559610956e+000	 9.318589744831696e-001	 6.508576115292494e+000
1	 1.834519459694026e+000	 9.516854783112039e-001	 5.936367581190687e+000
1	 1.824138789421242e+000	 9.714342563694890e-001	 5.392701809077535e+000
1	 1.813528272997310e+000	 9.911013848124720e-001	 4.877765767843975e+000
1	 1.802688721849068e+000	 1.010682943750032e+000	 4.391776129748802e+000
1	 1.925221061195408e+000	 8.219570438532781e-001	 9.953802010824198e+000
1	 1.916351779478452e+000	 8.424283278807976e-001	 9.189375698112098e+000
1	 1.907246385424817e+000	 8.628446820481397e-001	 8.455154723651976e+000
1	 1.897905091089386e+000	 8.832021572044754e-001	 7.751127732363685e+000
1	 1.888328194056983e+000	 9.034967942410130e-001	 7.077314575709932e+000
1	 1.878516078090857e+000	 9.237246263451979e-001	 6.433766325761831e+000
1	 1.868469213711673e+000	 9.438816812875150e-001	 5.820565217606156e+000
1	 1.858188158705415e+000	 9.639639837384754e-001	 5.237824519047659e+000
1	 1.847673558558638e+000	 9.839675576132634e-001	 4.685688326736050e+000
1	 1.836926146819623e+000	 1.003888428441440e+000	 4.164331288031367e+000
1	 1.825946745384119e+000	 1.023722625759031e+000	 3.673958248110595e+000
1	 1.949743592788055e+000	 8.324267337953375e-001	 9.339292938313864e+000
1	 1.940761338464687e+000	 8.531587711042797e-001	 8.552826667487636e+000
1	 1.931539964320292e+000	 8.738351788831774e-001	 7.798714224344787e+000
1	 1.922079685110801e+000	 8.944519576788236e-001	 7.076943049026448e+000
1	 1.912380802211533e+000	 9.150050979532125e-001	 6.387532200238240e+000
1	 1.902443704273920e+000	 9.354905823664448e-001	 5.730532389785774e+000
1	 1.892268867811892e+000	 9.559043880926640e-001	 5.106025944322612e+000
1	 1.881856857716237e+000	 9.762424891665529e-001	 4.514126693193727e+000
1	 1.871208327695403e+000	 9.965008588578460e-001	 3.954979781435079e+000
1	 1.860324020641252e+000	 1.016675472071220e+000	 3.428761407177308e+000
1	 1.849204768918440e+000	 1.036762307768846e+000	 2.935678482892434e+000
1	 1.974266124380708e+000	 8.428964237379969e-001	 8.691513226564323e+000
1	 1.965170897450847e+000	 8.638892143283619e-001	 7.884163580331913e+000
1	 1.955833543215612e+000	 8.848256757188150e-001	 7.111322718107784e+000
1	 1.946254279131986e+000	 9.057017581537732e-001	 6.372989688068952e+000
1	 1.936433410365777e+000	 9.265134016660142e-001	 5.669195716030238e+000
1	 1.926371330456608e+000	 9.472565383882964e-001	 5.000004240603484e+000
1	 1.916068521911670e+000	 9.679270948984198e-001	 4.365510873905067e+000
1	 1.905525556726559e+000	 9.885209945952410e-001	 3.765843286655279e+000
1	 1.894743096831615e+000	 1.009034160103046e+000	 3.201161016698108e+000
1	 1.883721894462284e+000	 1.029462515701623e+000	 2.671655200158984e+000
1	 1.872462792452129e+000	 1.049801989779293e+000	 2.177548224655330e+000
1	 1.998788655973365e+000	 8.533661136810563e-001	 8.010900293495597e+000
1	 1.989580456436942e+000	 8.746196575528440e-001	 7.183835475875766e+000
1	 1.980127122110799e+000	 8.958161725548528e-001	 6.393442682229203e+000
1	 1.970428873152970e+000	 9.169515586291241e-001	 5.639744937584111e+000
1	 1.960486018519757e+000	 9.380217053792194e-001	 4.922798146823977e+000
1	 1.950298956638970e+000	 9.590224944105533e-001	 4.242691111024291e+000
1	 1.939868176011067e+000	 9.799498017045861e-001	 3.599545467145592e+000
1	 1.929194255736451e+000	 1.000799500024346e+000	 2.993515549922493e+000
1	 1.918277865967356e+000	 1.021567461348670e+000	 2.424788174977021e+000
1	 1.907119768282810e+000	 1.042249559332463e+000	 1.893582342381728e+000
1	 1.895720815985286e+000	 1.062841671790190e+000	 1.400148860099268e+000
1	 2.023311187566027e+000	 8.638358036243158e-001	 7.297870351005205e+000
1	 2.013990015422981e+000	 8.853501007775261e-001	 6.452269623926375e+000
1	 2.004420701005870e+000	 9.068066693910913e-001	 5.645514173096888e+000
1	 1.994603467173783e+000	 9.282013591046769e-001	 4.877662946736603e+000
1	 1.984538626673510e+000	 9.495300090926282e-001	 4.148808614565493e+000
1	 1.974226582821057e+000	 9.707884504330185e-001	 3.459077546249871e+000
1	 1.963667830110143e+000	 9.919725085109671e-001	 2.808629710496368e+000
1	 1.952862954745983e+000	 1.013078005453674e+000	 2.197658493661272e+000
1	 1.941812635102705e+000	 1.034100762594528e+000	 1.626390436937536e+000
1	 1.930517642102919e+000	 1.055036602963550e+000	 1.095084891387378e+000
1	 1.918978839518011e+000	 1.075881353801352e+000	 6.040335902974536e-001
1	 2.047833719158692e+000	 8.743054935675751e-001	 6.552819674664658e+000
1	 2.038399574408974e+000	 8.960805440022084e-001	 5.689872828297144e+000
1	 2.028714279900847e+000	 9.177971662273304e-001	 4.867956168634617e+000
1	 2.018778061194453e+000	 9.394511595802317e-001	 4.087176111190892e+000
1	 2.008591234827077e+000	 9.610383128060427e-001	 3.347673770512738e+000
1	 1.998154209002917e+000	 9.825544064554942e-001	 2.649624882028423e+000
1	 1.987467484208959e+000	 1.003995215317365e+000	 1.993239641328697e+000
1	 1.976531653755224e+000	 1.025356510883029e+000	 1.378762459805324e+000
1	 1.965347404237740e+000	 1.046634063840428e+000	 8.064716357780666e-001
1	 1.953915515922700e+000	 1.067823646594697e+000	 2.766789404552916e-001
1	 1.942236863050402e+000	 1.088921035812596e+000	-2.102708817080692e-001
1	 2.072356250751360e+000	 8.847751835106346e-001	 5.776125783268759e+000
1	 2.062809133394929e+000	 9.068109872266907e-001	 4.897032637695249e+000
1	 2.053007858795747e+000	 9.287876630633707e-001	 4.061167815427114e+000
1	 2.042952655215010e+000	 9.507009600555889e-001	 3.268696360175264e+000
1	 2.032643842980497e+000	 9.725466165192631e-001	 2.519819124732395e+000
1	 2.022081835184600e+000	 9.943203624777819e-001	 1.814772617861216e+000
1	 2.011267138307571e+000	 1.016017922123585e+000	 1.153828764900372e+000
1	 2.000200352764243e+000	 1.037635016312219e+000	 5.372945811020728e-001
1	 1.988882173372540e+000	 1.059167365086178e+000	-3.448824306629694e-002
1	 1.977313389742243e+000	 1.080610690225716e+000	-5.611438452001969e-001
1	 1.965494886582561e+000	 1.101960717823740e+000	-1.042262783128313e+000
1	 2.096878782344030e+000	 8.952448734532941e-001	 4.968148535617564e+000
1	 2.087218692380857e+000	 9.175414304507733e-001	 4.074118471642805e+000
1	 2.077301437690591e+000	 9.397781598990114e-001	 3.225529588335762e+000
1	 2.067127249235484e+000	 9.619507605305497e-001	 2.422616353234094e+000
1	 2.056696451133809e+000	 9.840549202320911e-001	 1.665650282307933e+000
1	 2.046009461366155e+000	 1.006086318499684e+000	 9.549396938531809e-001
1	 2.035066792406040e+000	 1.028040628929428e+000	 2.908293718961894e-001
1	 2.023869051773109e+000	 1.049913521741047e+000	-3.262998617555537e-001
1	 2.012416942507187e+000	 1.071700666331588e+000	-8.960316674520610e-001
1	 2.000711263561638e+000	 1.093397733856419e+000	-1.417914800025748e+000
1	 1.988752910114586e+000	 1.115000399834599e+000	-1.891463813658240e+000
1	 2.121401313936701e+000	 9.057145633953536e-001	 4.129231151228168e+000
1	 2.111628251366767e+000	 9.282718736742561e-001	 3.221482668306897e+000
1	 2.101595016585397e+000	 9.507686567340533e-001	 2.361404369686218e+000
1	 2.091301843255902e+000	 9.732005610049138e-001	 1.549310593976391e+000
1	 2.080749059287054e+000	 9.955632239443272e-001	 7.855540938071322e-001
1	 2.069937087547631e+000	 1.017852274521003e+000	 7.052567900418261e-002
1	 2.058866446504426e+000	 1.040063335734701e+000	-5.953462354127517e-001
1	 2.047537750781894e+000	 1.062192027169321e+000	-1.211596177124878e+000
1	 2.035951711641759e+000	 1.084233967576465e+000	-1.777722260772523e+000
1	 2.024109137380973e+000	 1.106184777486618e+000	-2.293186928795279e+000
1	 2.012010933646574e+000	 1.128040081844988e+000	-2.757417788814804e+000
1	 2.145923845529373e+000	 9.161842533366132e-001	 3.259701161061515e+000
1	 2.136037810352666e+000	 9.390023168969391e-001	 2.339461460485294e+000
1	 2.125888595480185e+000	 9.617591535682969e-001	 1.469138454461815e+000
1	 2.115476437276295e+000	 9.844503614784821e-001	 6.491364674602766e-001
1	 2.104801667440269e+000	 1.007071527655773e+000	-1.201002731320946e-001
1	 2.093864713729078e+000	 1.029618230541540e+000	-8.380881219747836e-001
1	 2.082666100602788e+000	 1.052086042539205e+000	-1.504304601081565e+000
1	 2.071206449790665e+000	 1.074470532596845e+000	-2.118189086006809e+000
1	 2.059486480776334e+000	 1.096767268820616e+000	-2.679143593183905e+000
1	 2.047507011200338e+000	 1.118971821116124e+000	-3.186533668421926e+000
1	 2.035268957178629e+000	 1.141079763854727e+000	-3.639689376294693e+000
1	 1.802688721849068e+000	 1.010682943750032e+000	 4.391776129748801e+000
1	 1.791619357690404e+000	 1.030177937010685e+000	 3.930582722284677e+000
1	 1.780322777535210e+000	 1.049579514920662e+000	 3.489693227163921e+000
1	 1.768800057357055e+000	 1.068883783227662e+000	 3.068617934565368e+000
1	 1.757052360750432e+000	 1.088086861295837e+000	 2.666863769952621e+000
1	 1.745080938822499e+000	 1.107184884536710e+000	 2.283935096145175e+000
1	 1.732887130004770e+000	 1.126174006844907e+000	 1.919334518822268e+000
1	 1.720472359784237e+000	 1.145050403035631e+000	 1.572563693756463e+000
1	 1.707838140353593e+000	 1.163810271280824e+000	 1.243124134057526e+000
1	 1.694986070180315e+000	 1.182449835540888e+000	 9.305180156937748e-001
1	 1.681917833494530e+000	 1.200965347988850e+000	 6.342489795525088e-001
1	 1.825946745384119e+000	 1.023722625759031e+000	 3.673958248110595e+000
1	 1.814734565924676e+000	 1.043469140542086e+000	 3.209941127951362e+000
1	 1.803292238961474e+000	 1.063121034743368e+000	 2.767333977180744e+000
1	 1.791620854350135e+000	 1.082674363867519e+000	 2.345668425085948e+000
1	 1.779721590697669e+000	 1.102125197211310e+000	 1.944469881340846e+000
1	 1.767595715252836e+000	 1.121469620325929e+000	 1.563258309773117e+000
1	 1.755244583715393e+000	 1.140703737484129e+000	 1.201549010271003e+000
1	 1.742669639963754e+000	 1.159823674149157e+000	 8.588534072150755e-001
1	 1.729872415700694e+000	 1.178825579442342e+000	 5.346798427918605e-001
1	 1.716854530016881e+000	 1.197705628606193e+000	 2.285343735227399e-001
1	 1.703617688872130e+000	 1.216460025459840e+000	-6.007843167686633e-002
1	 1.849204768918440e+000	 1.036762307768846e+000	 2.935678482892436e+000
1	 1.837849774158181e+000	 1.056760344074309e+000	 2.470589499937731e+000
1	 1.826261700386946e+000	 1.076662554566900e+000	 2.028054014429575e+000
1	 1.814441651342400e+000	 1.096464944508205e+000	 1.607631531467539e+000
1	 1.802390820644081e+000	 1.116163533127615e+000	 1.208872292789235e+000
1	 1.790110491682343e+000	 1.135754356115979e+000	 8.313180094083212e-001
1	 1.777602037425184e+000	 1.155233468124176e+000	 4.745026073201881e-001
1	 1.764866920142439e+000	 1.174596945263496e+000	 1.379529847777858e-001
1	 1.751906691046968e+000	 1.193840887604655e+000	-1.788102203999364e-001
1	 1.738722989852626e+000	 1.212961421672267e+000	-4.762718550598457e-001
1	 1.725317544248913e+000	 1.231954702931564e+000	-7.549214680898464e-001
1	 1.872462792452129e+000	 1.049801989779293e+000	 2.177548224655330e+000
1	 1.860964982391030e+000	 1.070051547607175e+000	 1.713148503780129e+000
1	 1.849231161811743e+000	 1.090204074391088e+000	 1.272479282212600e+000
1	 1.837262448333983e+000	 1.110255525149558e+000	 8.551342498568924e-001
1	 1.825060050589807e+000	 1.130201869044597e+000	 4.606946032200050e-001
1	 1.812625268111165e+000	 1.150039091906711e+000	 8.872972434137783e-002
1	 1.799959491134298e+000	 1.169763198764909e+000	-2.612021220616305e-001
1	 1.787064200320457e+000	 1.189370216378519e+000	-5.895530745851190e-001
1	 1.773940966392586e+000	 1.208856195767642e+000	-8.967849456704296e-001
1	 1.760591449687726e+000	 1.228217214739000e+000	-1.183368478127220e+000
1	 1.747017399625063e+000	 1.247449380403922e+000	-1.449782589142617e+000
1	 1.895720815985286e+000	 1.062841671790190e+000	 1.400148860099270e+000
1	 1.884080190623330e+000	 1.083342751140507e+000	 9.382083459867070e-001
1	 1.872200623235985e+000	 1.103745594215759e+000	 5.012050057987161e-001
1	 1.860083245325013e+000	 1.124046105791413e+000	 8.877280669967247e-002
1	 1.847729280534986e+000	 1.144240204962097e+000	-2.994701914274505e-001
1	 1.835140044539452e+000	 1.164323827697978e+000	-6.639212231042728e-001
1	 1.822316944842891e+000	 1.184292929406188e+000	-1.004992180798720e+000
1	 1.809261480497971e+000	 1.204143487494095e+000	-1.323108956063906e+000
1	 1.795975241737718e+000	 1.223871503931185e+000	-1.618710759516427e+000
1	 1.782459909522359e+000	 1.243473007806281e+000	-1.892249420956129e+000
1	 1.768717255000763e+000	 1.262944057876814e+000	-2.144188670985702e+000
1	 1.918978839518011e+000	 1.075881353801352e+000	 6.040335902974550e-001
1	 1.907195398855194e+000	 1.096633954674126e+000	 1.463306198548944e-001
1	 1.895170084659793e+000	 1.117287114040742e+000	-2.852024460630225e-001
1	 1.882904042315616e+000	 1.137836686433605e+000	-6.908854766152064e-001
1	 1.870398510479757e+000	 1.158278540879960e+000	-1.071057843655283e+000
1	 1.857654820967351e+000	 1.178608563489632e+000	-1.426077887029763e+000
1	 1.844674398551119e+000	 1.198822660047874e+000	-1.756322350711892e+000
1	 1.831458760675146e+000	 1.218916758610095e+000	-2.062185790748977e+000
1	 1.818009517082537e+000	 1.238886812095162e+000	-2.344079956076342e+000
1	 1.804328369356704e+000	 1.258728800874001e+000	-2.602433143323978e+000
1	 1.790417110376195e+000	 1.278438735350138e+000	-2.837689526811957e+000
1	 1.942236863050402e+000	 1.088921035812596e+000	-2.102708817080687e-001
1	 1.930310607086727e+000	 1.109925158207855e+000	-6.619499813317193e-001
1	 1.918139546083284e+000	 1.130828633865864e+000	-1.086203833378689e+000
1	 1.905724839305924e+000	 1.151627267075969e+000	-1.483300453084601e+000
1	 1.893067740424256e+000	 1.172316876798029e+000	-1.853531133113553e+000
1	 1.880169597395008e+000	 1.192893299281523e+000	-2.197209998941252e+000
1	 1.867031852259139e+000	 1.213352390689829e+000	-2.514673529275375e+000
1	 1.853656040852146e+000	 1.233690029726389e+000	-2.806280042262969e+000
1	 1.840043792427213e+000	 1.253902120259453e+000	-3.072409148322227e+000
1	 1.826196829190936e+000	 1.273984593942048e+000	-3.313461170521960e+000
1	 1.812116965751543e+000	 1.293933412823796e+000	-3.529856533516381e+000
1	 1.965494886582561e+000	 1.101960717823740e+000	-1.042262783128315e+000
1	 1.953425815318042e+000	 1.123216361741514e+000	-1.486124072741584e+000
1	 1.941109007506579e+000	 1.144370153690956e+000	-1.901285439814060e+000
1	 1.928545636296065e+000	 1.165417847718341e+000	-2.287957542295935e+000
1	 1.915736970368623e+000	 1.186355212716146e+000	-2.646378267516369e+000
1	 1.902684373822572e+000	 1.207178035073504e+000	-2.976812389359038e+000
1	 1.889389305967106e+000	 1.227882121331912e+000	-3.279551184462495e+000
1	 1.875853321029135e+000	 1.248463300842846e+000	-3.554912007940394e+000
1	 1.862078067771918e+000	 1.268917428423939e+000	-3.803237829215735e+000
1	 1.848065289025235e+000	 1.289240387010314e+000	-4.024896728664590e+000
1	 1.833816821126989e+000	 1.309428090297686e+000	-4.220281355861729e+000
1	 1.988752910114586e+000	 1.115000399834599e+000	-1.891463813658239e+000
1	 1.976541023549247e+000	 1.136507565274927e+000	-2.325706098111383e+000
1	 1.964078468929797e+000	 1.157911673515842e+000	-2.729957580226597e+000
1	 1.951366433286168e+000	 1.179208428360557e+000	-3.104366235448938e+000
1	 1.938406200312997e+000	 1.200393548634156e+000	-3.449111395763878e+000
1	 1.925199150250191e+000	 1.221462770865427e+000	-3.764403520180254e+000
1	 1.911746759675175e+000	 1.242411851973984e+000	-4.050483918012767e+000
1	 1.898050601206274e+000	 1.263236571959338e+000	-4.307624425177458e+000
1	 1.884112343116822e+000	 1.283932736588498e+000	-4.536127033825832e+000
1	 1.869933748859776e+000	 1.304496180078685e+000	-4.736323475757956e+000
1	 1.855516676502718e+000	 1.324922767771708e+000	-4.908574760167678e+000
1	 2.012010933646574e+000	 1.128040081844988e+000	-2.757417788814804e+000
1	 1.999656231780452e+000	 1.149798768807915e+000	-3.180232952503121e+000
1	 1.987047930353057e+000	 1.171453193340354e+000	-3.571753211711426e+000
1	 1.974187230276362e+000	 1.192999009002452e+000	-3.932058704065311e+000
1	 1.961075430257516e+000	 1.214431884551902e+000	-4.261265224190289e+000
1	 1.947713926678011e+000	 1.235747506657142e+000	-4.559524118833327e+000
1	 1.934104213383505e+000	 1.256941582615906e+000	-4.827022128347092e+000
1	 1.920247881383732e+000	 1.278009843075734e+000	-5.063981174442153e+000
1	 1.906146618462098e+000	 1.298948044753011e+000	-5.270658094238767e+000
1	 1.891802208694739e+000	 1.319751973147054e+000	-5.447344320777830e+000
1	 1.877216531878911e+000	 1.340417445245763e+000	-5.594365510279529e+000
1	 2.035268957178629e+000	 1.141079763854727e+000	-3.639689376294693e+000
1	 2.022771440011766e+000	 1.163089972340299e+000	-4.049262699491923e+000
1	 2.010017391776478e+000	 1.184994713164319e+000	-4.426226639880899e+000
1	 1.997008027266777e+000	 1.206789589643860e+000	-4.770588504092292e+000
1	 1.983744660202318e+000	 1.228470220469227e+000	-5.082395727688882e+000
1	 1.970228703106179e+000	 1.250032242448504e+000	-5.361735906081517e+000
1	 1.956461667092250e+000	 1.271471313257539e+000	-5.608736765160279e+000
1	 1.942445161561669e+000	 1.292783114191904e+000	-5.823566071212275e+000
1	 1.928180893807916e+000	 1.313963352917358e+000	-6.006431479837580e+000
1	 1.913670668530300e+000	 1.335007766215310e+000	-6.157580323717676e+000
1	 1.898916387255753e+000	 1.355912122719749e+000	-6.277299339234981e+000
1	 1.681917833494530e+000	 1.200965347988850e+000	 6.342489795525097e-001
1	 1.668635199221159e+000	 1.219353091017331e+000	 3.488262131018783e-001
1	 1.655140018895221e+000	 1.237609378393840e+000	 6.933187274644737e-002
1	 1.641434227355505e+000	 1.255730558820518e+000	-2.038710005210156e-001
1	 1.627519842390902e+000	 1.273713018699258e+000	-4.704220868636724e-001
1	 1.613398963829417e+000	 1.291553184473516e+000	-7.299644739617566e-001
1	 1.599073772548271e+000	 1.309247524943862e+000	-9.821453455429072e-001
1	 1.584546529405988e+000	 1.326792553554178e+000	-1.226616670635345e+000
1	 1.569819574097472e+000	 1.344184830645459e+000	-1.463035892082587e+000
1	 1.554895323933223e+000	 1.361420965674179e+000	-1.691066612847521e+000
1	 1.539776272543993e+000	 1.378497619392282e+000	-1.910379278627908e+000
1	 1.703617688872130e+000	 1.216460025459840e+000	-6.007843167686633e-002
1	 1.690163684013768e+000	 1.235085004431891e+000	-3.367654280372743e-001
1	 1.676494390865052e+000	 1.253576831730622e+000	-6.064498175637627e-001
1	 1.662611769227780e+000	 1.271931808949659e+000	-8.686031932864560e-001
1	 1.648517862924069e+000	 1.290146275868779e+000	-1.122699275762304e+000
1	 1.634214798873598e+000	 1.308216612825929e+000	-1.368214903144302e+000
1	 1.619704786090955e+000	 1.326139243062656e+000	-1.604631026184995e+000
1	 1.604990114603931e+000	 1.343910635039802e+000	-1.831433706091343e+000
1	 1.590073154293838e+000	 1.361527304720379e+000	-2.048115113122933e+000
1	 1.574956353658965e+000	 1.378985817816562e+000	-2.254174523807216e+000
1	 1.559642238502527e+000	 1.396282791997798e+000	-2.449119314632400e+000
1	 1.725317544248913e+000	 1.231954702931564e+000	-7.549214680898493e-001
1	 1.711692168805565e+000	 1.250816917847140e+000	-1.020445364583473e+000
1	 1.697848762834074e+000	 1.269544285068040e+000	-1.277778821451205e+000
1	 1.683789311099254e+000	 1.288133059079376e+000	-1.526289006533166e+000
1	 1.669515883456440e+000	 1.306579533038807e+000	-1.765345512022260e+000
1	 1.655030633916995e+000	 1.324880041178775e+000	-1.994321546404880e+000
1	 1.640335799632866e+000	 1.343030961181805e+000	-2.212595132078209e+000
1	 1.625433699801120e+000	 1.361028716525698e+000	-2.419550306130430e+000
1	 1.610326734489472e+000	 1.378869778795487e+000	-2.614578321742240e+000
1	 1.595017383384004e+000	 1.396550669959047e+000	-2.797078847645861e+000
1	 1.579508204460395e+000	 1.414067964603332e+000	-2.966461163064226e+000
1	 1.747017399625063e+000	 1.247449380403922e+000	-1.449782589142616e+000
1	 1.733220653596737e+000	 1.266548831262988e+000	-1.701764187102812e+000
1	 1.719203134802480e+000	 1.285511738406013e+000	-1.944273489864604e+000
1	 1.704966852970117e+000	 1.304334309209597e+000	-2.176631968958843e+000
1	 1.690513903988211e+000	 1.323012790209282e+000	-2.398164684790605e+000
1	 1.675846468959799e+000	 1.341543469532005e+000	-2.608201580778749e+000
1	 1.660966813174197e+000	 1.359922679301271e+000	-2.806078781930171e+000
1	 1.645877284997743e+000	 1.378146798011843e+000	-2.991139895107968e+000
1	 1.630580314684557e+000	 1.396212252870773e+000	-3.162737308225743e+000
1	 1.615078413108517e+000	 1.414115522101637e+000	-3.320233485581062e+000
1	 1.599374170417763e+000	 1.431853137208900e+000	-3.463002256531107e+000
1	 1.768717255000763e+000	 1.262944057876814e+000	-2.144188670985701e+000
1	 1.754749138387472e+000	 1.282280744679345e+000	-2.380294540831812e+000
1	 1.740557506770461e+000	 1.301479191744462e+000	-2.605570903096760e+000
1	 1.726144394840567e+000	 1.320535559340253e+000	-2.819350158525401e+000
1	 1.711511924519575e+000	 1.339446047380145e+000	-3.020970307311068e+000
1	 1.696662304002206e+000	 1.358206897885572e+000	-3.209776247818823e+000
1	 1.681597826715140e+000	 1.376814397421018e+000	-3.385121076555011e+000
1	 1.666320870193986e+000	 1.395264879498210e+000	-3.546367386614373e+000
1	 1.650833894879277e+000	 1.413554726946223e+000	-3.692888561815249e+000
1	 1.635139442832677e+000	 1.431680374244335e+000	-3.824070063723326e+000
1	 1.619240136374797e+000	 1.449638309814519e+000	-3.939310708761206e+000
1	 1.790417110376195e+000	 1.278438735350138e+000	-2.837689526811956e+000
1	 1.776277623177960e+000	 1.298012658096122e+000	-3.055629789164156e+000
1	 1.761911878738207e+000	 1.317446645083307e+000	-3.261325735786148e+000
1	 1.747321936710794e+000	 1.336736809471274e+000	-3.454175320773413e+000
1	 1.732509945050727e+000	 1.355879304551337e+000	-3.633584933703547e+000
1	 1.717478139044409e+000	 1.374870326239427e+000	-3.798970607285771e+000
1	 1.702228840255885e+000	 1.393706115541010e+000	-3.949759221157698e+000
1	 1.686764455390040e+000	 1.412382960984778e+000	-4.085389699227445e+000
1	 1.671087475073812e+000	 1.430897201021827e+000	-4.205314197952353e+000
1	 1.655200472556663e+000	 1.449245226387142e+000	-4.308999282947550e+000
1	 1.639106102331665e+000	 1.467423482420205e+000	-4.395927091327433e+000
1	 1.812116965751543e+000	 1.293933412823796e+000	-3.529856533516384e+000
1	 1.797806107968385e+000	 1.313744571513226e+000	-3.727382773164648e+000
1	 1.783266250705911e+000	 1.333414098422468e+000	-3.911209203466993e+000
1	 1.768499478580992e+000	 1.352938059602590e+000	-4.080852050484842e+000
1	 1.753507965581860e+000	 1.372312561722800e+000	-4.235839617647570e+000
1	 1.738293974086600e+000	 1.391533754593522e+000	-4.375713308535277e+000
1	 1.722859853796625e+000	 1.410597833661210e+000	-4.500028638832106e+000
1	 1.707208040586092e+000	 1.429501042471520e+000	-4.608356235208295e+000
1	 1.691341055268346e+000	 1.448239675097573e+000	-4.700282818900016e+000
1	 1.675261502280647e+000	 1.466810078530060e+000	-4.775412171777315e+000
1	 1.658972068288533e+000	 1.485208655025974e+000	-4.833366082715330e+000
1	 1.833816821126989e+000	 1.309428090297686e+000	-4.220281355861729e+000
1	 1.819334592758936e+000	 1.329476484930569e+000	-4.395184659156632e+000
1	 1.804620622673762e+000	 1.349381551761864e+000	-4.554908083913458e+000
1	 1.789677020451354e+000	 1.369139309734133e+000	-4.699137031446844e+000
1	 1.774505986113169e+000	 1.388745818894472e+000	-4.827573409498720e+000
1	 1.759109809128975e+000	 1.408197182947809e+000	-4.939936378136505e+000
1	 1.743490867337551e+000	 1.427489551781582e+000	-5.035963076001062e+000
1	 1.727651625782328e+000	 1.446619123958412e+000	-5.115409325210171e+000
1	 1.711594635463064e+000	 1.465582149173449e+000	-5.178050313260771e+000
1	 1.695322532004808e+000	 1.484374930673091e+000	-5.223681250315842e+000
1	 1.678838034245567e+000	 1.502993827631844e+000	-5.252118000309013e+000
1	 1.855516676502718e+000	 1.324922767771708e+000	-4.908574760167680e+000
1	 1.840863077549801e+000	 1.345208398348059e+000	-5.058683867172501e+000
1	 1.825974994641953e+000	 1.365349005101414e+000	-5.192123807154520e+000
1	 1.810854562322073e+000	 1.385340559865831e+000	-5.308798329560482e+000
1	 1.795504006644849e+000	 1.405179076066297e+000	-5.408632888691590e+000
1	 1.779925644171727e+000	 1.424860611302241e+000	-5.491575022393111e+000
1	 1.764121880878856e+000	 1.444381269902088e+000	-5.557594700457626e+000
1	 1.748095210978939e+000	 1.463737205445430e+000	-5.606684641782989e+000
1	 1.731848215658145e+000	 1.482924623249444e+000	-5.638860599393855e+000
1	 1.715383561729319e+000	 1.501939782816237e+000	-5.654161612505178e+000
1	 1.698704000202935e+000	 1.520779000237831e+000	-5.652650224879372e+000
1	 1.877216531878911e+000	 1.340417445245763e+000	-5.594365510279529e+000
1	 1.862391562341168e+000	 1.360940311765608e+000	-5.717545073724429e+000
1	 1.847329366610672e+000	 1.381316458441041e+000	-5.822571608603566e+000
1	 1.832032104193344e+000	 1.401541809997616e+000	-5.909614734977447e+000
1	 1.816502027177093e+000	 1.421612333238213e+000	-5.978871728574257e+000
1	 1.800741479215049e+000	 1.441524039656767e+000	-6.030567443560988e+000
1	 1.784752894420729e+000	 1.461272988022692e+000	-6.064954192606587e+000
1	 1.768538796176112e+000	 1.480855286932549e+000	-6.082311584197877e+000
1	 1.752101795853775e+000	 1.500267097325546e+000	-6.082946317270814e+000
1	 1.735444591454358e+000	 1.519504634959499e+000	-6.067191933322798e+000
1	 1.718569966160802e+000	 1.538564172843951e+000	-6.035408526273677e+000
1	 1.898916387255753e+000	 1.355912122719749e+000	-6.277299339234981e+000
1	 1.883920047133223e+000	 1.376672225183124e+000	-6.371448282949809e+000
1	 1.868683738580113e+000	 1.397283911780662e+000	-6.445979740253236e+000
1	 1.853209646065358e+000	 1.417743060129417e+000	-6.501375149343414e+000
1	 1.837500047710095e+000	 1.438045590410163e+000	-6.538150291079916e+000
1	 1.821557314259136e+000	 1.458187468011342e+000	-6.556854668666936e+000
1	 1.805383907963363e+000	 1.478164706143358e+000	-6.558070830449933e+000
1	 1.788982381374034e+000	 1.497973368419746e+000	-6.542413636886368e+000
1	 1.772355376050135e+000	 1.517609571401743e+000	-6.510529472893975e+000
1	 1.755505621180099e+000	 1.537069487102881e+000	-6.463095406919621e+000
1	 1.738435932119337e+000	 1.556349345450221e+000	-6.400818298208960e+000
1	 1.539776272543993e+000	 1.378497619392282e+000	-1.910379278627908e+000
1	 1.524467299600929e+000	 1.395408981614681e+000	-2.123980870841648e+000
1	 1.508968793931934e+000	 1.412154398015745e+000	-2.334877950563248e+000
1	 1.493283469725799e+000	 1.428730698645799e+000	-2.542638421119035e+000
1	 1.477414111523483e+000	 1.445134773122503e+000	-2.746816816710498e+000
1	 1.461363572573377e+000	 1.461363572573377e+000	-2.946955573628600e+000
1	 1.445134773122503e+000	 1.477414111523483e+000	-3.142586327547209e+000
1	 1.428730698645799e+000	 1.493283469725798e+000	-3.333231233948832e+000
1	 1.412154398015745e+000	 1.508968793931934e+000	-3.518404308672642e+000
1	 1.395408981614682e+000	 1.524467299600929e+000	-3.697612785520925e+000
1	 1.378497619392282e+000	 1.539776272543993e+000	-3.870358487815470e+000
1	 1.559642238502527e+000	 1.396282791997798e+000	-2.449119314632400e+000
1	 1.544135751452474e+000	 1.413412342116847e+000	-2.635715701292949e+000
1	 1.528437286353301e+000	 1.430373805406068e+000	-2.817181571376611e+000
1	 1.512549592411856e+000	 1.447163971017574e+000	-2.993621929775375e+000
1	 1.496475490094825e+000	 1.463779688439336e+000	-3.165140156936951e+000
1	 1.480217869462783e+000	 1.480217869462783e+000	-3.331838318379294e+000
1	 1.463779688439336e+000	 1.496475490094825e+000	-3.493817480094605e+000
1	 1.447163971017574e+000	 1.512549592411856e+000	-3.651178028961090e+000
1	 1.430373805406068e+000	 1.528437286353301e+000	-3.804019997264588e+000
1	 1.413412342116848e+000	 1.544135751452473e+000	-3.952443390419484e+000
1	 1.396282791997798e+000	 1.559642238502527e+000	-4.096548516968501e+000
1	 1.579508204460395e+000	 1.414067964603332e+000	-2.966461163064226e+000
1	 1.563804203303395e+000	 1.431415702618946e+000	-3.125415240179756e+000
1	 1.547905778774097e+000	 1.448593212796242e+000	-3.277425021383184e+000
1	 1.531815715097399e+000	 1.465597243389118e+000	-3.423031647903633e+000
1	 1.515536868665719e+000	 1.482424603755863e+000	-3.562784103559112e+000
1	 1.499072166351807e+000	 1.499072166351807e+000	-3.697238734393869e+000
1	 1.482424603755863e+000	 1.515536868665718e+000	-3.826958757869221e+000
1	 1.465597243389118e+000	 1.531815715097399e+000	-3.952513762425872e+000
1	 1.448593212796243e+000	 1.547905778774097e+000	-4.074479198258453e+000
1	 1.431415702618947e+000	 1.563804203303395e+000	-4.193435860162377e+000
1	 1.414067964603332e+000	 1.579508204460395e+000	-4.309969363331089e+000
1	 1.599374170417763e+000	 1.431853137208900e+000	-3.463002256531107e+000
1	 1.583472655153850e+000	 1.449419063121011e+000	-3.593787765297249e+000
1	 1.567374271194464e+000	 1.466812620186314e+000	-3.716364726047241e+000
1	 1.551081837782558e+000	 1.484030515760497e+000	-3.831613245216278e+000
1	 1.534598247236275e+000	 1.501069519072162e+000	-3.940428519148639e+000
1	 1.517926463240549e+000	 1.517926463240549e+000	-4.043719731815786e+000
1	 1.501069519072162e+000	 1.534598247236275e+000	-4.142408929528562e+000
1	 1.484030515760497e+000	 1.551081837782557e+000	-4.237429874803151e+000
1	 1.466812620186314e+000	 1.567374271194463e+000	-4.329726881591929e+000
1	 1.449419063121011e+000	 1.583472655153850e+000	-4.420253634136036e+000
1	 1.431853137208901e+000	 1.599374170417763e+000	-4.509971991735112e+000
1	 1.619240136374797e+000	 1.449638309814519e+000	-3.939310708761206e+000
1	 1.603141107003993e+000	 1.467422423623072e+000	-4.041506795857176e+000
1	 1.586842763614545e+000	 1.485032027576332e+000	-4.134719989413126e+000
1	 1.570347960467460e+000	 1.502463788131774e+000	-4.220075797842252e+000
1	 1.553659625806610e+000	 1.519714434388317e+000	-4.298719902165093e+000
1	 1.536780760129105e+000	 1.536780760129105e+000	-4.371816596091882e+000
1	 1.519714434388317e+000	 1.553659625806610e+000	-4.440547194242270e+000
1	 1.502463788131775e+000	 1.570347960467460e+000	-4.506108411652313e+000
1	 1.485032027576333e+000	 1.586842763614545e+000	-4.569710717790303e+000
1	 1.467422423623072e+000	 1.603141107003993e+000	-4.632576668366482e+000
1	 1.449638309814519e+000	 1.619240136374797e+000	-4.695939218274491e+000
1	 1.639106102331665e+000	 1.467423482420205e+000	-4.395927091327432e+000
1	 1.622809558853981e+000	 1.485425784125162e+000	-4.469213198858219e+000
1	 1.606311256034485e+000	 1.503251434966346e+000	-4.533175243663430e+000
1	 1.589614083152236e+000	 1.520897060503016e+000	-4.589094005898210e+000
1	 1.572721004376836e+000	 1.538359349704408e+000	-4.638273408821446e+000
1	 1.555635057017574e+000	 1.555635057017574e+000	-4.682038662029479e+000
1	 1.538359349704408e+000	 1.572721004376835e+000	-4.721734367603153e+000
1	 1.520897060503017e+000	 1.589614083152237e+000	-4.758722592963142e+000
1	 1.503251434966347e+000	 1.606311256034484e+000	-4.794380914311397e+000
1	 1.485425784125162e+000	 1.622809558853980e+000	-4.830100434611238e+000
1	 1.467423482420205e+000	 1.639106102331665e+000	-4.867283780118477e+000
1	 1.658972068288533e+000	 1.485208655025974e+000	-4.833366082715330e+000
1	 1.642478010703969e+000	 1.503429144627313e+000	-4.877517144115141e+000
1	 1.625779748454424e+000	 1.521470842356402e+000	-4.912382137048283e+000
1	 1.608880205837015e+000	 1.539330332874287e+000	-4.939310251729104e+000
1	 1.591782382947067e+000	 1.557004265020518e+000	-4.959674729679829e+000
1	 1.574489353906053e+000	 1.574489353906053e+000	-4.974870867573279e+000
1	 1.557004265020518e+000	 1.591782382947067e+000	-4.986313982331746e+000
1	 1.539330332874287e+000	 1.608880205837015e+000	-4.995437341581118e+000
1	 1.521470842356402e+000	 1.625779748454424e+000	-5.003690063648298e+000
1	 1.503429144627313e+000	 1.642478010703968e+000	-5.012534991365448e+000
1	 1.485208655025974e+000	 1.658972068288533e+000	-5.023446544008015e+000
1	 1.678838034245567e+000	 1.502993827631844e+000	-5.252118000309011e+000
1	 1.662146462554112e+000	 1.521432505129557e+000	-5.266999920483119e+000
1	 1.645248240874508e+000	 1.539690249746549e+000	-5.272961473573764e+000
1	 1.628146328521925e+000	 1.557763605245652e+000	-5.271336512015978e+000
1	 1.610843761517417e+000	 1.575649180336727e+000	-5.263481833011217e+000
1	 1.593343650794640e+000	 1.593343650794640e+000	-5.250775197266057e+000
1	 1.575649180336727e+000	 1.610843761517417e+000	-5.234613310831580e+000
1	 1.557763605245651e+000	 1.628146328521925e+000	-5.216409774114781e+000
1	 1.539690249746549e+000	 1.645248240874507e+000	-5.197593002216952e+000
1	 1.521432505129557e+000	 1.662146462554112e+000	-5.179604120825742e+000
1	 1.502993827631845e+000	 1.678838034245567e+000	-5.163894841946530e+000
1	 1.698704000202935e+000	 1.520779000237831e+000	-5.652650224879372e+000
1	 1.681814914404567e+000	 1.539435865631927e+000	-5.638215624639720e+000
1	 1.664716733294878e+000	 1.557909657136836e+000	-5.615505016584871e+000
1	 1.647412451207094e+000	 1.576196877617174e+000	-5.585756135713345e+000
1	 1.629905140088000e+000	 1.594294095653117e+000	-5.550226585825755e+000
1	 1.612197947683435e+000	 1.612197947683435e+000	-5.510192024423344e+000
1	 1.594294095653117e+000	 1.629905140088000e+000	-5.466944315993372e+000
1	 1.576196877617174e+000	 1.647412451207094e+000	-5.421789657396959e+000
1	 1.557909657136836e+000	 1.664716733294877e+000	-5.376046679145518e+000
1	 1.539435865631927e+000	 1.681814914404566e+000	-5.331044526412260e+000
1	 1.520779000237831e+000	 1.698704000202935e+000	-5.288120923673241e+000
1	 1.718569966160802e+000	 1.538564172843951e+000	-6.035408526273676e+000
1	 1.701483366255489e+000	 1.557439226134453e+000	-5.991692732737299e+000
1	 1.684185225715678e+000	 1.576129064527309e+000	-5.940577167256567e+000
1	 1.666678573892653e+000	 1.594630149988919e+000	-5.883125498673421e+000
1	 1.648966518658931e+000	 1.612939010969770e+000	-5.820416262472316e+000
1	 1.631052244572532e+000	 1.631052244572532e+000	-5.753541360218433e+000
1	 1.612939010969770e+000	 1.648966518658931e+000	-5.683604536053715e+000
1	 1.594630149988919e+000	 1.666678573892654e+000	-5.611719833286828e+000
1	 1.576129064527310e+000	 1.684185225715678e+000	-5.539010034163936e+000
1	 1.557439226134453e+000	 1.701483366255489e+000	-5.466605085948348e+000
1	 1.538564172843951e+000	 1.718569966160803e+000	-5.395640516469304e+000
1	 1.738435932119337e+000	 1.556349345450221e+000	-6.400818298208961e+000
1	 1.721151818107034e+000	 1.575442586637168e+000	-6.327935564295108e+000
1	 1.703653718137051e+000	 1.594348471918019e+000	-6.248716527998811e+000
1	 1.685944696578731e+000	 1.613063422360952e+000	-6.163975544821027e+000
1	 1.668027897230322e+000	 1.631583926286766e+000	-6.074534949801009e+000
1	 1.649906541462033e+000	 1.649906541462033e+000	-5.981224017123596e+000
1	 1.631583926286766e+000	 1.668027897230322e+000	-5.884877908783324e+000
1	 1.613063422360952e+000	 1.685944696578731e+000	-5.786336614345655e+000
1	 1.594348471918019e+000	 1.703653718137050e+000	-5.686443883866255e+000
1	 1.575442586637168e+000	 1.721151818107033e+000	-5.586046156046310e+000
1	 1.556349345450221e+000	 1.738435932119337e+000	-5.485991483710441e+000
1	 1.378497619392282e+000	 1.539776272543993e+000	-3.870358487815470e+000
1	 1.361420965674179e+000	 1.554895323933223e+000	-4.045415249766879e+000
1	 1.344184830645459e+000	 1.569819574097472e+000	-4.231528075807559e+000
1	 1.326792553554179e+000	 1.584546529405988e+000	-4.428211411900057e+000
1	 1.309247524943862e+000	 1.599073772548270e+000	-4.634957668456082e+000
1	 1.291553184473516e+000	 1.613398963829416e+000	-4.851238231387986e+000
1	 1.273713018699259e+000	 1.627519842390902e+000	-5.076504503296503e+000
1	 1.255730558820518e+000	 1.641434227355505e+000	-5.310188972458630e+000
1	 1.237609378393840e+000	 1.655140018895221e+000	-5.551706307224290e+000
1	 1.219353091017331e+000	 1.668635199221159e+000	-5.800454473381812e+000
1	 1.200965347988850e+000	 1.681917833494530e+000	-6.055815872014002e+000
1	 1.396282791997798e+000	 1.559642238502527e+000	-4.096548516968502e+000
1	 1.378985817816562e+000	 1.574956353658965e+000	-4.245346395838268e+000
1	 1.361527304720379e+000	 1.590073154293837e+000	-4.407368612430497e+000
1	 1.343910635039803e+000	 1.604990114603931e+000	-4.582037616753549e+000
1	 1.326139243062656e+000	 1.619704786090954e+000	-4.768746129275383e+000
1	 1.308216612825930e+000	 1.634214798873598e+000	-4.966858401994932e+000
1	 1.290146275868780e+000	 1.648517862924068e+000	-5.175711521573331e+000
1	 1.271931808949660e+000	 1.662611769227780e+000	-5.394616751563772e+000
1	 1.253576831730622e+000	 1.676494390865051e+000	-5.622860910697895e+000
1	 1.235085004431891e+000	 1.690163684013768e+000	-5.859707784117076e+000
1	 1.216460025459841e+000	 1.703617688872130e+000	-6.104399564376001e+000
1	 1.414067964603332e+000	 1.579508204460395e+000	-4.309969363331090e+000
1	 1.396550669959047e+000	 1.595017383384004e+000	-4.433098412537725e+000
1	 1.378869778795488e+000	 1.610326734489471e+000	-4.571022210141782e+000
1	 1.361028716525699e+000	 1.625433699801120e+000	-4.723125086723124e+000
1	 1.343030961181805e+000	 1.640335799632865e+000	-4.888756037446155e+000
1	 1.324880041178775e+000	 1.655030633916994e+000	-5.067230125959659e+000
1	 1.306579533038807e+000	 1.669515883456440e+000	-5.257829939259008e+000
1	 1.288133059079376e+000	 1.683789311099253e+000	-5.459807090170980e+000
1	 1.269544285068040e+000	 1.697848762834073e+000	-5.672383764021227e+000
1	 1.250816917847141e+000	 1.711692168805565e+000	-5.894754305955832e+000
1	 1.231954702931564e+000	 1.725317544248913e+000	-6.126086845312512e+000
1	 1.431853137208901e+000	 1.599374170417763e+000	-4.509971991735110e+000
1	 1.414115522101638e+000	 1.615078413108516e+000	-4.607725819658908e+000
1	 1.396212252870773e+000	 1.630580314684557e+000	-4.721305912061600e+000
1	 1.378146798011843e+000	 1.645877284997743e+000	-4.850110257866373e+000
1	 1.359922679301271e+000	 1.660966813174196e+000	-4.993497943199853e+000
1	 1.341543469532006e+000	 1.675846468959799e+000	-5.150790593238610e+000
1	 1.323012790209283e+000	 1.690513903988210e+000	-5.321273870956816e+000
1	 1.304334309209598e+000	 1.704966852970117e+000	-5.504199029299222e+000
1	 1.285511738406013e+000	 1.719203134802479e+000	-5.698784513186611e+000
1	 1.266548831262988e+000	 1.733220653596737e+000	-5.904217607663945e+000
1	 1.247449380403922e+000	 1.747017399625063e+000	-6.119656128407624e+000
1	 1.449638309814519e+000	 1.619240136374797e+000	-4.695939218274491e+000
1	 1.431680374244336e+000	 1.635139442832677e+000	-4.768329536234587e+000
1	 1.413554726946223e+000	 1.650833894879276e+000	-4.857094814666398e+000
1	 1.395264879498211e+000	 1.666320870193986e+000	-4.961696482850213e+000
1	 1.376814397421019e+000	 1.681597826715139e+000	-5.081555491197310e+000
1	 1.358206897885572e+000	 1.696662304002205e+000	-5.216053688357475e+000
1	 1.339446047380146e+000	 1.711511924519574e+000	-5.364535258257813e+000
1	 1.320535559340253e+000	 1.726144394840566e+000	-5.526308213696472e+000
1	 1.301479191744463e+000	 1.740557506770461e+000	-5.700645942991375e+000
1	 1.282280744679346e+000	 1.754749138387473e+000	-5.886788806076579e+000
1	 1.262944057876814e+000	 1.768717255000763e+000	-6.083945776338325e+000
1	 1.467423482420205e+000	 1.639106102331665e+000	-4.867283780118478e+000
1	 1.449245226387142e+000	 1.655200472556662e+000	-4.914054068742622e+000
1	 1.430897201021828e+000	 1.671087475073811e+000	-4.977318549755353e+000
1	 1.412382960984778e+000	 1.686764455390040e+000	-5.056649975804558e+000
1	 1.393706115541010e+000	 1.702228840255884e+000	-5.151580991006717e+000
1	 1.374870326239427e+000	 1.717478139044408e+000	-5.261605342720813e+000
1	 1.355879304551338e+000	 1.732509945050726e+000	-5.386179153425089e+000
1	 1.336736809471275e+000	 1.747321936710794e+000	-5.524722249654124e+000
1	 1.317446645083308e+000	 1.761911878738207e+000	-5.676619544826871e+000
1	 1.298012658096122e+000	 1.776277623177959e+000	-5.841222472685588e+000
1	 1.278438735350138e+000	 1.790417110376195e+000	-6.017850467959915e+000
1	 1.485208655025974e+000	 1.658972068288533e+000	-5.023446544008017e+000
1	 1.466810078530060e+000	 1.675261502280647e+000	-5.044084901337621e+000
1	 1.448239675097573e+000	 1.691341055268346e+000	-5.080958019185374e+000
1	 1.429501042471520e+000	 1.707208040586090e+000	-5.133796048534868e+000
1	 1.410597833661210e+000	 1.722859853796624e+000	-5.202291305838814e+000
1	 1.391533754593522e+000	 1.738293974086600e+000	-5.286099220853973e+000
1	 1.372312561722800e+000	 1.753507965581860e+000	-5.384839341942484e+000
1	 1.352938059602591e+000	 1.768499478580991e+000	-5.498096396358420e+000
1	 1.333414098422468e+000	 1.783266250705910e+000	-5.625421402917501e+000
1	 1.313744571513226e+000	 1.797806107968384e+000	-5.766332834335182e+000
1	 1.293933412823795e+000	 1.812116965751542e+000	-5.920317826413180e+000
1	 1.502993827631845e+000	 1.678838034245567e+000	-5.163894841946530e+000
1	 1.484374930673091e+000	 1.695322532004807e+000	-5.157646071373097e+000
1	 1.465582149173450e+000	 1.711594635463063e+000	-5.167042361436053e+000
1	 1.446619123958413e+000	 1.727651625782327e+000	-5.192015613960169e+000
1	 1.427489551781582e+000	 1.743490867337550e+000	-5.232464033178010e+000
1	 1.408197182947810e+000	 1.759109809128975e+000	-5.288252712917815e+000
1	 1.388745818894473e+000	 1.774505986113169e+000	-5.359214275857180e+000
1	 1.369139309734134e+000	 1.789677020451354e+000	-5.445149563151835e+000
1	 1.349381551761864e+000	 1.804620622673761e+000	-5.545828372633571e+000
1	 1.329476484930569e+000	 1.819334592758935e+000	-5.660990243664419e+000
1	 1.309428090297686e+000	 1.833816821126989e+000	-5.790345286632831e+000
1	 1.520779000237831e+000	 1.698704000202935e+000	-5.288120923673241e+000
1	 1.501939782816236e+000	 1.715383561729319e+000	-5.253997915046125e+000
1	 1.482924623249445e+000	 1.731848215658145e+000	-5.234646131027072e+000
1	 1.463737205445431e+000	 1.748095210978939e+000	-5.230241934899579e+000
1	 1.444381269902088e+000	 1.764121880878854e+000	-5.240933953413442e+000
1	 1.424860611302241e+000	 1.779925644171726e+000	-5.266843208423125e+000
1	 1.405179076066297e+000	 1.795504006644848e+000	-5.308063292474655e+000
1	 1.385340559865832e+000	 1.810854562322073e+000	-5.364660587661192e+000
1	 1.365349005101415e+000	 1.825974994641952e+000	-5.436674526965928e+000
1	 1.345208398348060e+000	 1.840863077549801e+000	-5.524117897214005e+000
1	 1.324922767771708e+000	 1.855516676502718e+000	-5.626977182658233e+000
1	 1.538564172843951e+000	 1.718569966160803e+000	-5.395640516469306e+000
1	 1.519504634959500e+000	 1.735444591454357e+000	-5.332434969398767e+000
1	 1.500267097325547e+000	 1.752101795853774e+000	-5.282886673563968e+000
1	 1.480855286932550e+000	 1.768538796176111e+000	-5.247457598355608e+000
1	 1.461272988022692e+000	 1.784752894420728e+000	-5.226589724784181e+000
1	 1.441524039656768e+000	 1.800741479215049e+000	-5.220704628391278e+000
1	 1.421612333238214e+000	 1.816502027177092e+000	-5.230203095315651e+000
1	 1.401541809997617e+000	 1.832032104193343e+000	-5.255464772065595e+000
1	 1.381316458441041e+000	 1.847329366610672e+000	-5.296847849465157e+000
1	 1.360940311765609e+000	 1.862391562341167e+000	-5.354688781157103e+000
1	 1.340417445245763e+000	 1.877216531878911e+000	-5.429302036961675e+000
1	 1.556349345450221e+000	 1.738435932119337e+000	-5.485991483710442e+000
1	 1.537069487102882e+000	 1.755505621180099e+000	-5.392284018168337e+000
1	 1.517609571401743e+000	 1.772355376050134e+000	-5.310921680764193e+000
1	 1.497973368419745e+000	 1.788982381374034e+000	-5.242691697255267e+000
1	 1.478164706143359e+000	 1.805383907963363e+000	-5.188370804935623e+000
1	 1.458187468011342e+000	 1.821557314259135e+000	-5.148724195287004e+000
1	 1.438045590410164e+000	 1.837500047710094e+000	-5.124504476355790e+000
1	 1.417743060129417e+000	 1.853209646065358e+000	-5.116450656855241e+000
1	 1.397283911780662e+000	 1.868683738580113e+000	-5.125287153928677e+000
1	 1.376672225183125e+000	 1.883920047133223e+000	-5.151722826446169e+000
1	 1.355912122719749e+000	 1.898916387255753e+000	-5.196450035633202e+000
1	 1.200965347988850e+000	 1.681917833494530e+000	-6.055815872014002e+000
1	 1.182449835540888e+000	 1.694986070180314e+000	-6.320795751821672e+000
1	 1.163810271280825e+000	 1.707838140353592e+000	-6.598968520643294e+000
1	 1.145050403035632e+000	 1.720472359784237e+000	-6.890572669328850e+000
1	 1.126174006844908e+000	 1.732887130004770e+000	-7.195864120839525e+000
1	 1.107184884536711e+000	 1.745080938822499e+000	-7.515115770644104e+000
1	 1.088086861295837e+000	 1.757052360750431e+000	-7.848616993924814e+000
1	 1.068883783227663e+000	 1.768800057357055e+000	-8.196673120929511e+000
1	 1.049579514920662e+000	 1.780322777535209e+000	-8.559604881878594e+000
1	 1.030177937010685e+000	 1.791619357690403e+000	-8.937747822900011e+000
1	 1.010682943750033e+000	 1.802688721849068e+000	-9.331451694529156e+000
1	 1.216460025459841e+000	 1.703617688872130e+000	-6.104399564376001e+000
1	 1.197705628606193e+000	 1.716854530016880e+000	-6.360366890612598e+000
1	 1.178825579442343e+000	 1.729872415700694e+000	-6.631726128649593e+000
1	 1.159823674149158e+000	 1.742669639963754e+000	-6.918745092248550e+000
1	 1.140703737484130e+000	 1.755244583715393e+000	-7.221707669603704e+000
1	 1.121469620325930e+000	 1.767595715252836e+000	-7.540913310449390e+000
1	 1.102125197211310e+000	 1.779721590697669e+000	-7.876676482242280e+000
1	 1.082674363867519e+000	 1.791620854350133e+000	-8.229326096851349e+000
1	 1.063121034743368e+000	 1.803292238961473e+000	-8.599204909253698e+000
1	 1.043469140542087e+000	 1.814734565924676e+000	-8.986668889792153e+000
1	 1.023722625759031e+000	 1.825946745384120e+000	-9.392086571607479e+000
1	 1.231954702931564e+000	 1.725317544248913e+000	-6.126086845312512e+000
1	 1.212961421672267e+000	 1.738722989852625e+000	-6.370345190976865e+000
1	 1.193840887604656e+000	 1.751906691046967e+000	-6.632255902008211e+000
1	 1.174596945263497e+000	 1.764866920142439e+000	-6.912123421512838e+000
1	 1.155233468124177e+000	 1.777602037425183e+000	-7.210266233330588e+000
1	 1.135754356115979e+000	 1.790110491682342e+000	-7.527016291070950e+000
1	 1.116163533127616e+000	 1.802390820644082e+000	-7.862718419725884e+000
1	 1.096464944508206e+000	 1.814441651342400e+000	-8.217729691382669e+000
1	 1.076662554566901e+000	 1.826261700386945e+000	-8.592418776616189e+000
1	 1.056760344074309e+000	 1.837849774158181e+000	-8.987165273189433e+000
1	 1.036762307768846e+000	 1.849204768918440e+000	-9.402359013735097e+000
1	 1.247449380403922e+000	 1.747017399625063e+000	-6.119656128407624e+000
1	 1.228217214739001e+000	 1.760591449687726e+000	-6.349675885507745e+000
1	 1.208856195767643e+000	 1.773940966392586e+000	-6.599654424872493e+000
1	 1.189370216378519e+000	 1.787064200320456e+000	-6.869939975696758e+000
1	 1.169763198764910e+000	 1.799959491134298e+000	-7.160892113499742e+000
1	 1.150039091906712e+000	 1.812625268111165e+000	-7.472881126348709e+000
1	 1.130201869044597e+000	 1.825060050589808e+000	-7.806287358376155e+000
1	 1.110255525149559e+000	 1.837262448333983e+000	-8.161500532199550e+000
1	 1.090204074391089e+000	 1.849231161811743e+000	-8.538919051896439e+000
1	 1.070051547607176e+000	 1.860964982391030e+000	-8.938949288224581e+000
1	 1.049801989779293e+000	 1.872462792452129e+000	-9.362004847810045e+000
1	 1.262944057876814e+000	 1.768717255000763e+000	-6.083945776338325e+000
1	 1.243473007806282e+000	 1.782459909522359e+000	-6.297355969284174e+000
1	 1.223871503931185e+000	 1.795975241737717e+000	-6.533062616335865e+000
1	 1.204143487494096e+000	 1.809261480497970e+000	-6.791464747177773e+000
1	 1.184292929406189e+000	 1.822316944842891e+000	-7.072969397257753e+000
1	 1.164323827697979e+000	 1.835140044539452e+000	-7.377990906497569e+000
1	 1.144240204962098e+000	 1.847729280534987e+000	-7.706950201206910e+000
1	 1.124046105791414e+000	 1.860083245325012e+000	-8.060274060892780e+000
1	 1.103745594215760e+000	 1.872200623235985e+000	-8.438394371682785e+000
1	 1.083342751140508e+000	 1.884080190623330e+000	-8.841747368103121e+000
1	 1.062841671790190e+000	 1.895720815985286e+000	-9.270772864968148e+000
1	 1.278438735350138e+000	 1.790417110376195e+000	-6.017850467959915e+000
1	 1.258728800874001e+000	 1.804328369356703e+000	-6.212431063064495e+000
1	 1.238886812095163e+000	 1.818009517082537e+000	-6.431663043735127e+000
1	 1.218916758610096e+000	 1.831458760675146e+000	-6.676003119103521e+000
1	 1.198822660047875e+000	 1.844674398551119e+000	-6.945912031206848e+000
1	 1.178608563489632e+000	 1.857654820967351e+000	-7.241853781519405e+000
1	 1.158278540879961e+000	 1.870398510479756e+000	-7.564294847774256e+000
1	 1.137836686433606e+000	 1.882904042315616e+000	-7.913703392845029e+000
1	 1.117287114040743e+000	 1.895170084659793e+000	-8.290548467462203e+000
1	 1.096633954674127e+000	 1.907195398855193e+000	-8.695299208548653e+000
1	 1.075881353801352e+000	 1.918978839518011e+000	-9.128424034950502e+000
1	 1.293933412823795e+000	 1.812116965751542e+000	-5.920317826413180e+000
1	 1.273984593942049e+000	 1.826196829190936e+000	-6.093992501857258e+000
1	 1.253902120259454e+000	 1.840043792427212e+000	-6.294677428990065e+000
1	 1.233690029726390e+000	 1.853656040852146e+000	-6.522893746393909e+000
1	 1.213352390689830e+000	 1.867031852259138e+000	-6.779162033590731e+000
1	 1.192893299281523e+000	 1.880169597395009e+000	-7.064001460765361e+000
1	 1.172316876798030e+000	 1.893067740424256e+000	-7.377928937023238e+000
1	 1.151627267075970e+000	 1.905724839305924e+000	-7.721458259024733e+000
1	 1.130828633865865e+000	 1.918139546083283e+000	-8.095099261823027e+000
1	 1.109925158207856e+000	 1.930310607086727e+000	-8.499356973718498e+000
1	 1.088921035812597e+000	 1.942236863050402e+000	-8.934730776917672e+000
1	 1.309428090297686e+000	 1.833816821126989e+000	-5.790345286632831e+000
1	 1.289240387010314e+000	 1.848065289025234e+000	-5.941174630200290e+000
1	 1.268917428423940e+000	 1.862078067771918e+000	-6.121364331990966e+000
1	 1.248463300842847e+000	 1.875853321029134e+000	-6.331506587189709e+000
1	 1.227882121331912e+000	 1.889389305967105e+000	-6.572187833413185e+000
1	 1.207178035073505e+000	 1.902684373822572e+000	-6.843987819028233e+000
1	 1.186355212716147e+000	 1.915736970368623e+000	-7.147478679390574e+000
1	 1.165417847718343e+000	 1.928545636296065e+000	-7.483224022911738e+000
1	 1.144370153690956e+000	 1.941109007506578e+000	-7.851778028827390e+000
1	 1.123216361741515e+000	 1.953425815318042e+000	-8.253684558499273e+000
1	 1.101960717823740e+000	 1.965494886582560e+000	-8.689476282036303e+000
1	 1.324922767771708e+000	 1.855516676502718e+000	-5.626977182658233e+000
1	 1.304496180078686e+000	 1.869933748859776e+000	-5.753152287226680e+000
1	 1.283932736588499e+000	 1.884112343116822e+000	-5.911016996539415e+000
1	 1.263236571959339e+000	 1.898050601206274e+000	-6.101241072431851e+000
1	 1.242411851973985e+000	 1.911746759675176e+000	-6.324482726098415e+000
1	 1.221462770865427e+000	 1.925199150250190e+000	-6.581387600443083e+000
1	 1.200393548634157e+000	 1.938406200312997e+000	-6.872587770858195e+000
1	 1.179208428360558e+000	 1.951366433286168e+000	-7.198700766403830e+000
1	 1.157911673515844e+000	 1.964078468929797e+000	-7.560328613298919e+000
1	 1.136507565274928e+000	 1.976541023549246e+000	-7.958056902565289e+000
1	 1.115000399834598e+000	 1.988752910114585e+000	-8.392453883597542e+000
1	 1.340417445245763e+000	 1.877216531878911e+000	-5.429302036961675e+000
1	 1.319751973147055e+000	 1.891802208694739e+000	-5.529138466160214e+000
1	 1.298948044753012e+000	 1.906146618462098e+000	-5.662961345689572e+000
1	 1.278009843075735e+000	 1.920247881383731e+000	-5.831524402393941e+000
1	 1.256941582615907e+000	 1.934104213383505e+000	-6.035563436263248e+000
1	 1.235747506657144e+000	 1.947713926678010e+000	-6.275795212282182e+000
1	 1.214431884551903e+000	 1.961075430257515e+000	-6.552916382324254e+000
1	 1.192999009002452e+000	 1.974187230276362e+000	-6.867602439122455e+000
1	 1.171453193340355e+000	 1.987047930353056e+000	-7.220506704258408e+000
1	 1.149798768807916e+000	 1.999656231780451e+000	-7.612259352013159e+000
1	 1.128040081844989e+000	 2.012010933646574e+000	-8.043466470823642e+000
1	 1.355912122719749e+000	 1.898916387255753e+000	-5.196450035633202e+000
1	 1.335007766215311e+000	 1.913670668530300e+000	-5.268382134287587e+000
1	 1.313963352917359e+000	 1.928180893807916e+000	-5.376554114538597e+000
1	 1.292783114191905e+000	 1.942445161561669e+000	-5.521809960013449e+000
1	 1.271471313257540e+000	 1.956461667092249e+000	-5.704968779032504e+000
1	 1.250032242448504e+000	 1.970228703106179e+000	-5.926823601453409e+000
1	 1.228470220469227e+000	 1.983744660202318e+000	-6.188140218268777e+000
1	 1.206789589643861e+000	 1.997008027266777e+000	-6.489656066046448e+000
1	 1.184994713164320e+000	 2.010017391776478e+000	-6.832079158177039e+000
1	 1.163089972340300e+000	 2.022771440011765e+000	-7.216087064764921e+000
1	 1.141079763854727e+000	 2.035268957178629e+000	-7.642325942866382e+000
1	 1.010682943750033e+000	 1.802688721849068e+000	-9.331451694529157e+000
1	 9.911013848124723e-001	 1.813528272997310e+000	-9.738642239868668e+000
1	 9.714342563694890e-001	 1.824138789421242e+000	-1.015672226656995e+001
1	 9.516854783112038e-001	 1.834519459694026e+000	-1.058509965750555e+001
1	 9.318589744831690e-001	 1.844669559610956e+000	-1.102320098739537e+001
1	 9.119586703247522e-001	 1.854588451907371e+000	-1.147047320814257e+001
1	 8.919884905296130e-001	 1.864275585902090e+000	-1.192638526650780e+001
1	 8.719523567309254e-001	 1.873730497067709e+000	-1.239042965148446e+001
1	 8.518541852139012e-001	 1.882952806529171e+000	-1.286212386896519e+001
1	 8.316978846581138e-001	 1.891942220492133e+000	-1.334101184152245e+001
1	 8.114873539120180e-001	 1.900698529602766e+000	-1.382666523135883e+001
1	 1.023722625759031e+000	 1.825946745384120e+000	-9.392086571607482e+000
1	 1.003888428441440e+000	 1.836926146819623e+000	-9.813337324393119e+000
1	 9.839675576132634e-001	 1.847673558558638e+000	-1.024784417342742e+001
1	 9.639639837384755e-001	 1.858188158705415e+000	-1.069512646789506e+001
1	 9.438816812875144e-001	 1.868469213711674e+000	-1.115472192812513e+001
1	 9.237246263451973e-001	 1.878516078090857e+000	-1.162618815899372e+001
1	 9.034967942410123e-001	 1.888328194056984e+000	-1.210910409786343e+001
1	 8.832021572044743e-001	 1.897905091089386e+000	-1.260307139474332e+001
1	 8.628446820481386e-001	 1.907246385424818e+000	-1.310771572256630e+001
1	 8.424283278807965e-001	 1.916351779478452e+000	-1.362268801570363e+001
1	 8.219570438532781e-001	 1.925221061195408e+000	-1.414766563505573e+001
1	 1.036762307768846e+000	 1.849204768918440e+000	-9.402359013735097e+000
1	 1.016675472071220e+000	 1.860324020641252e+000	-9.835861361042888e+000
1	 9.965008588578461e-001	 1.871208327695403e+000	-1.028512209049382e+001
1	 9.762424891665523e-001	 1.881856857716237e+000	-1.074974189738684e+001
1	 9.559043880926635e-001	 1.892268867811892e+000	-1.122933927536776e+001
1	 9.354905823664447e-001	 1.902443704273920e+000	-1.172355191196787e+001
1	 9.150050979532121e-001	 1.912380802211533e+000	-1.223203802050142e+001
1	 8.944519576788230e-001	 1.922079685110801e+000	-1.275447760621859e+001
1	 8.738351788831761e-001	 1.931539964320292e+000	-1.329057366481849e+001
1	 8.531587711042783e-001	 1.940761338464687e+000	-1.384005331164055e+001
1	 8.324267337953374e-001	 1.949743592788055e+000	-1.440266884006239e+001
1	 1.049801989779293e+000	 1.872462792452129e+000	-9.362004847810045e+000
1	 1.029462515701623e+000	 1.883721894462284e+000	-9.805959014011098e+000
1	 1.009034160103046e+000	 1.894743096831615e+000	-1.026829718940424e+001
1	 9.885209945952409e-001	 1.905525556726559e+000	-1.074867243669357e+001
1	 9.679270948984191e-001	 1.916068521911670e+000	-1.124675479634541e+001
1	 9.472565383882956e-001	 1.926371330456608e+000	-1.176223261716105e+001
1	 9.265134016660136e-001	 1.936433410365777e+000	-1.229481382466063e+001
1	 9.057017581537727e-001	 1.946254279131987e+000	-1.284422712528648e+001
1	 8.848256757188137e-001	 1.955833543215612e+000	-1.341022314463791e+001
1	 8.638892143283603e-001	 1.965170897450847e+000	-1.399257549815809e+001
1	 8.428964237379970e-001	 1.974266124380708e+000	-1.459108179289859e+001
1	 1.062841671790190e+000	 1.895720815985286e+000	-9.270772864968148e+000
1	 1.042249559332463e+000	 1.907119768282810e+000	-9.723387478040307e+000
1	 1.021567461348670e+000	 1.918277865967356e+000	-1.019712334373914e+001
1	 1.000799500024346e+000	 1.929194255736451e+000	-1.069165799893604e+001
1	 9.799498017045858e-001	 1.939868176011068e+000	-1.120668489398823e+001
1	 9.590224944105529e-001	 1.950298956638971e+000	-1.174191471013027e+001
1	 9.380217053792186e-001	 1.960486018519757e+000	-1.229707661576693e+001
1	 9.169515586291235e-001	 1.970428873152972e+000	-1.287191945968847e+001
1	 8.958161725548517e-001	 1.980127122110799e+000	-1.346621289943127e+001
1	 8.746196575528428e-001	 1.989580456436942e+000	-1.407974846320998e+001
1	 8.533661136810562e-001	 1.998788655973365e+000	-1.471234054405408e+001
1	 1.075881353801352e+000	 1.918978839518011e+000	-9.128424034950495e+000
1	 1.055036602963550e+000	 1.930517642102919e+000	-9.587915719071035e+000
1	 1.034100762594528e+000	 1.941812635102705e+000	-1.007136635928701e+001
1	 1.013078005453673e+000	 1.952862954745983e+000	-1.057845110624572e+001
1	 9.919725085109663e-001	 1.963667830110143e+000	-1.110885972001098e+001
1	 9.707884504330184e-001	 1.974226582821057e+000	-1.166229792499536e+001
1	 9.495300090926275e-001	 1.984538626673511e+000	-1.223848870453324e+001
1	 9.282013591046762e-001	 1.994603467173784e+000	-1.283717353302866e+001
1	 9.068066693910906e-001	 2.004420701005871e+000	-1.345811354381354e+001
1	 8.853501007775249e-001	 2.013990015422982e+000	-1.410109063105921e+001
1	 8.638358036243158e-001	 2.023311187566027e+000	-1.476590848428817e+001
1	 1.088921035812597e+000	 1.942236863050402e+000	-8.934730776917672e+000
1	 1.067823646594697e+000	 1.953915515922700e+000	-9.399323769449588e+000
1	 1.046634063840428e+000	 1.965347404237740e+000	-9.890803259611168e+000
1	 1.025356510883029e+000	 1.976531653755224e+000	-1.040881613480908e+001
1	 1.003995215317365e+000	 1.987467484208959e+000	-1.095302235171387e+001
1	 9.825544064554935e-001	 1.998154209002917e+000	-1.152309637844733e+001
1	 9.610383128060417e-001	 2.008591234827078e+000	-1.211872857680470e+001
1	 9.394511595802305e-001	 2.018778061194453e+000	-1.273962652226212e+001
1	 9.177971662273293e-001	 2.028714279900847e+000	-1.338551625972502e+001
1	 8.960805440022071e-001	 2.038399574408975e+000	-1.405614349318358e+001
1	 8.743054935675749e-001	 2.047833719158692e+000	-1.475127470764983e+001
1	 1.101960717823740e+000	 1.965494886582560e+000	-8.689476282036303e+000
1	 1.080610690225716e+000	 1.977313389742243e+000	-9.157402073175437e+000
1	 1.059167365086179e+000	 1.988882173372540e+000	-9.655221622341703e+000
1	 1.037635016312218e+000	 2.000200352764243e+000	-1.018252861351253e+001
1	 1.016017922123584e+000	 2.011267138307571e+000	-1.073892802722976e+001
1	 9.943203624777813e-001	 2.022081835184600e+000	-1.132403771879267e+001
1	 9.725466165192622e-001	 2.032643842980497e+000	-1.193748993654418e+001
1	 9.507009600555882e-001	 2.042952655215010e+000	-1.257893277772076e+001
1	 9.287876630633694e-001	 2.053007858795747e+000	-1.324803157954865e+001
1	 9.068109872266894e-001	 2.062809133394930e+000	-1.394447024348508e+001
1	 8.847751835106344e-001	 2.072356250751360e+000	-1.466795249072136e+001
1	 1.115000399834598e+000	 1.988752910114585e+000	-8.392453883597542e+000
1	 1.093397733856419e+000	 2.000711263561638e+000	-8.861950877091630e+000
1	 1.071700666331588e+000	 2.012416942507187e+000	-9.364418962037941e+000
1	 1.049913521741047e+000	 2.023869051773110e+000	-9.899374571801360e+000
1	 1.028040628929428e+000	 2.035066792406040e+000	-1.046634343443355e+001
1	 1.006086318499683e+000	 2.046009461366154e+000	-1.106486233470676e+001
1	 9.840549202320902e-001	 2.056696451133810e+000	-1.169448081596931e+001
1	 9.619507605305486e-001	 2.067127249235484e+000	-1.235476281891936e+001
1	 9.397781598990102e-001	 2.077301437690591e+000	-1.304528825461498e+001
1	 9.175414304507720e-001	 2.087218692380858e+000	-1.376565450926503e+001
1	 8.952448734532941e-001	 2.096878782344030e+000	-1.451547787857210e+001
1	 1.128040081844989e+000	 2.012010933646574e+000	-8.043466470823644e+000
1	 1.106184777486618e+000	 2.024109137380973e+000	-8.512779664300286e+000
1	 1.084233967576464e+000	 2.035951711641759e+000	-9.018202155854588e+000
1	 1.062192027169321e+000	 2.047537750781894e+000	-9.559149932768769e+000
1	 1.040063335734700e+000	 2.058866446504426e+000	-1.013504604917022e+001
1	 1.017852274521002e+000	 2.069937087547631e+000	-1.074532261886704e+001
1	 9.955632239443263e-001	 2.080749059287053e+000	-1.138942274740954e+001
1	 9.732005610049128e-001	 2.091301843255902e+000	-1.206680240000989e+001
1	 9.507686567340523e-001	 2.101595016585398e+000	-1.277693220218389e+001
1	 9.282718736742549e-001	 2.111628251366767e+000	-1.351929917021528e+001
1	 9.057145633953535e-001	 2.121401313936701e+000	-1.429340836878654e+001
1	 1.141079763854727e+000	 2.035268957178629e+000	-7.642325942866382e+000
1	 1.118971821116124e+000	 2.047507011200338e+000	-8.109706626426902e+000
1	 1.096767268820617e+000	 2.059486480776334e+000	-8.616386908587092e+000
1	 1.074470532596845e+000	 2.071206449790665e+000	-9.161659947858066e+000
1	 1.052086042539205e+000	 2.082666100602788e+000	-9.744823518858084e+000
1	 1.029618230541539e+000	 2.093864713729078e+000	-1.036518228207497e+001
1	 1.007071527655772e+000	 2.104801667440269e+000	-1.102204999194350e+001
1	 9.844503614784809e-001	 2.115476437276296e+000	-1.171475163931320e+001
1	 9.617591535682959e-001	 2.125888595480185e+000	-1.244262552462738e+001
1	 9.390023168969377e-001	 2.136037810352668e+000	-1.320502525838576e+001
1	 9.161842533366134e-001	 2.145923845529373e+000	-1.400132168572193e+001
1	 8.114873539120180e-001	 1.900698529602766e+000	-1.382666523135882e+001
1	 7.912234369493597e-001	 1.909222869577757e+000	-1.432276467785370e+001
1	 7.709130368854967e-001	 1.917513867912702e+000	-1.483080619291174e+001
1	 7.505600127467705e-001	 1.925571565595462e+000	-1.534734635931431e+001
1	 7.301682051371446e-001	 1.933396084890728e+000	-1.586897381846684e+001
1	 7.097414342048221e-001	 1.940987628381446e+000	-1.639231540513922e+001
1	 6.892834976536054e-001	 1.948346477952994e+000	-1.691404209851115e+001
1	 6.687981688007219e-001	 1.955472993722270e+000	-1.743087478087299e+001
1	 6.482891946827245e-001	 1.962367612913845e+000	-1.793958979599391e+001
1	 6.277602942109755e-001	 1.969030848685419e+000	-1.843702429984050e+001
1	 6.072151563781103e-001	 1.975463288904845e+000	-1.892008139700318e+001
1	 8.219570438532781e-001	 1.925221061195408e+000	-1.414766563505573e+001
1	 8.014316848281606e-001	 1.933855380945223e+000	-1.468594088623594e+001
1	 7.808592429837710e-001	 1.942253348515646e+000	-1.523852398093730e+001
1	 7.602436271350285e-001	 1.950415005423360e+000	-1.580194576090786e+001
1	 7.395887274367917e-001	 1.958340475510495e+000	-1.637276581283818e+001
1	 7.188984133242427e-001	 1.966029963973694e+000	-1.694757880307778e+001
1	 6.981765314985878e-001	 1.973483756335180e+000	-1.752302062924205e+001
1	 6.774269039598263e-001	 1.980702217358025e+000	-1.809577437961764e+001
1	 6.566533260882145e-001	 1.987685789907810e+000	-1.866257609195282e+001
1	 6.358595647759505e-001	 1.994434993762919e+000	-1.922022030389486e+001
1	 6.150493566104990e-001	 2.000950424375790e+000	-1.976556538802995e+001
1	 8.324267337953374e-001	 1.949743592788055e+000	-1.440266884006239e+001
1	 8.116399327077610e-001	 1.958487892312784e+000	-1.498126994121035e+001
1	 7.908054490828439e-001	 1.966992829118775e+000	-1.557638547242063e+001
1	 7.699272415240815e-001	 1.975258445251525e+000	-1.618457752565873e+001
1	 7.490092497372287e-001	 1.983284866130609e+000	-1.680243404202864e+001
1	 7.280553924444433e-001	 1.991072299566360e+000	-1.742657524142127e+001
1	 7.070695653443361e-001	 1.998621034717845e+000	-1.805365987094651e+001
1	 6.860556391196774e-001	 2.005931440994312e+000	-1.868039126280372e+001
1	 6.650174574944252e-001	 2.013003966902344e+000	-1.930352319292038e+001
1	 6.439588353416129e-001	 2.019839138841011e+000	-1.991986553237631e+001
1	 6.228835568435334e-001	 2.026437559847334e+000	-2.052628968431888e+001
1	 8.428964237379970e-001	 1.974266124380708e+000	-1.459108179289859e+001
1	 8.218481805879621e-001	 1.983120403680432e+000	-1.520811195234543e+001
1	 8.007516551825158e-001	 1.991732309722067e+000	-1.584373286693045e+001
1	 7.796108559137314e-001	 2.000101885079929e+000	-1.649459270086603e+001
1	 7.584297720382566e-001	 2.008229256751030e+000	-1.715736298174452e+001
1	 7.372123715652270e-001	 2.016114635159397e+000	-1.782874502227531e+001
1	 7.159625991906549e-001	 2.023758313100938e+000	-1.850547616398469e+001
1	 6.946843742800810e-001	 2.031160664631069e+000	-1.918433583345541e+001
1	 6.733815889011652e-001	 2.038322143897383e+000	-1.986215140235749e+001
1	 6.520581059077751e-001	 2.045243283919630e+000	-2.053580384320239e+001
1	 6.307177570770309e-001	 2.051924695319411e+000	-2.120223317343912e+001
1	 8.533661136810562e-001	 1.998788655973365e+000	-1.471234054405408e+001
1	 8.320564284685620e-001	 2.007752915048153e+000	-1.536585843169274e+001
1	 8.106978612825858e-001	 2.016471790325502e+000	-1.603994064544775e+001
1	 7.892944703037776e-001	 2.024945324908542e+000	-1.673137418104080e+001
1	 7.678502943396770e-001	 2.033173647371723e+000	-1.743696731441141e+001
1	 7.463693506863952e-001	 2.041156970752759e+000	-1.815355591479634e+001
1	 7.248556330373467e-001	 2.048895591484402e+000	-1.887800958420610e+001
1	 7.033131094408430e-001	 2.056389888268241e+000	-1.960723761398135e+001
1	 6.817457203082435e-001	 2.063640320892865e+000	-2.033819474976870e+001
1	 6.601573764742498e-001	 2.070647428998710e+000	-2.106788675692608e+001
1	 6.385519573108083e-001	 2.077411830791955e+000	-2.179337577904400e+001
1	 8.638358036243158e-001	 2.023311187566027e+000	-1.476590848428818e+001
1	 8.422646763493623e-001	 2.032385426415939e+000	-1.545393039079669e+001
1	 8.206440673828562e-001	 2.041211270929060e+000	-1.616441361411273e+001
1	 7.989780846940209e-001	 2.049788764737333e+000	-1.689433477796474e+001
1	 7.772708166412904e-001	 2.058118037992645e+000	-1.764069009864792e+001
1	 7.555263298077506e-001	 2.066199306346401e+000	-1.840050149068873e+001
1	 7.337486668842169e-001	 2.074032869868188e+000	-1.917082250457946e+001
1	 7.119418446017698e-001	 2.081619111905765e+000	-1.994874408754018e+001
1	 6.901098517154690e-001	 2.088958497888726e+000	-2.073140015890452e+001
1	 6.682566470408493e-001	 2.096051574078183e+000	-2.151597299237989e+001
1	 6.463861575446830e-001	 2.102898966264897e+000	-2.229969839808403e+001
1	 8.743054935675749e-001	 2.047833719158692e+000	-1.475127470764983e+001
1	 8.524729242301623e-001	 2.057017937783777e+000	-1.547177657443256e+001
1	 8.305902734831251e-001	 2.065950751532719e+000	-1.621658508852614e+001
1	 8.086616990842620e-001	 2.074632204566274e+000	-1.698291542941446e+001
1	 7.866913389428980e-001	 2.083062428613760e+000	-1.776800107025973e+001
1	 7.646833089290949e-001	 2.091241641940274e+000	-1.856909957929438e+001
1	 7.426417007310679e-001	 2.099170148252239e+000	-1.938349826016788e+001
1	 7.205705797626669e-001	 2.106848335543585e+000	-2.020851962265234e+001
1	 6.984739831226503e-001	 2.114276674884903e+000	-2.104152667572673e+001
1	 6.763559176073858e-001	 2.121455719157986e+000	-2.187992803568396e+001
1	 6.542203577784720e-001	 2.128386101738172e+000	-2.272118284253162e+001
1	 8.847751835106344e-001	 2.072356250751360e+000	-1.466795249072136e+001
1	 8.626811721107622e-001	 2.081650449151659e+000	-1.541887181974742e+001
1	 8.405364795831934e-001	 2.090690232136461e+000	-1.619591520696403e+001
1	 8.183453134743010e-001	 2.099475644395333e+000	-1.699658353506367e+001
1	 7.961118612443016e-001	 2.108006819235029e+000	-1.781839506386243e+001
1	 7.738402880502304e-001	 2.116283977534333e+000	-1.865889083237014e+001
1	 7.515347345777040e-001	 2.124307426636504e+000	-1.951563990788911e+001
1	 7.291993149233402e-001	 2.132077559181640e+000	-2.038624447416422e+001
1	 7.068381145295966e-001	 2.139594851881333e+000	-2.126834475118799e+001
1	 6.844551881736725e-001	 2.146859864238052e+000	-2.215962373985344e+001
1	 6.620545580119924e-001	 2.153873237211714e+000	-2.305781178524265e+001
1	 8.952448734532941e-001	 2.096878782344030e+000	-1.451547787857211e+001
1	 8.728894199909625e-001	 2.106282960519573e+000	-1.529471553053746e+001
1	 8.504826856828617e-001	 2.115429712740264e+000	-1.610188936195189e+001
1	 8.280289278639390e-001	 2.124319084224482e+000	-1.693483140915328e+001
1	 8.055323835453019e-001	 2.132951209856414e+000	-1.779139054525642e+001
1	 7.829972671709595e-001	 2.141326313128531e+000	-1.866943738957228e+001
1	 7.604277684239292e-001	 2.149444705020930e+000	-1.956686907330230e+001
1	 7.378280500835959e-001	 2.157306782819872e+000	-2.048161385431294e+001
1	 7.152022459361164e-001	 2.164913028877952e+000	-2.141163557433767e+001
1	 6.925544587395217e-001	 2.172264009318315e+000	-2.235493795250178e+001
1	 6.698887582450617e-001	 2.179360372685456e+000	-2.330956870961713e+001
1	 9.057145633953535e-001	 2.121401313936701e+000	-1.429340836878654e+001
1	 8.830976678705625e-001	 2.130915471887508e+000	-1.509883025734641e+001
1	 8.604288917819299e-001	 2.140169193344108e+000	-1.593401674062052e+001
1	 8.377125422529761e-001	 2.149162524053690e+000	-1.679717484048106e+001
1	 8.149529058456997e-001	 2.157895600477876e+000	-1.768652824559326e+001
1	 7.921542462910848e-001	 2.166368648722822e+000	-1.860032163650005e+001
1	 7.693208022695469e-001	 2.174581983405461e+000	-1.953682487737827e+001
1	 7.464567852432398e-001	 2.182536006458222e+000	-2.049433706821926e+001
1	 7.235663773420185e-001	 2.190231205874697e+000	-2.147119045168180e+001
1	 7.006537293047462e-001	 2.197668154398710e+000	-2.246575416936496e+001
1	 6.777229584774968e-001	 2.204847508159331e+000	-2.347643786275159e+001
1	 9.161842533366134e-001	 2.145923845529373e+000	-1.400132168572193e+001
1	 8.933059157493626e-001	 2.155547983255453e+000	-1.483076037491921e+001
1	 8.703750978801976e-001	 2.164908673947971e+000	-1.569182896514300e+001
1	 8.473961566412127e-001	 2.174005963882928e+000	-1.658315175112418e+001
1	 8.243734281452965e-001	 2.182839991099376e+000	-1.750336988918924e+001
1	 8.013112254104079e-001	 2.191410984317160e+000	-1.845114504789382e+001
1	 7.782138361143611e-001	 2.199719261790046e+000	-1.942516293685655e+001
1	 7.550855204020780e-001	 2.207765230096631e+000	-2.042413670865666e+001
1	 7.319305087471120e-001	 2.215549382871506e+000	-2.144681022909693e+001
1	 7.087529998691580e-001	 2.223072299479171e+000	-2.249196121158187e+001
1	 6.855571587091147e-001	 2.230334643633273e+000	-2.355840421180307e+001
1	 6.072151563781103e-001	 1.975463288904845e+000	-1.892008139700318e+001
1	 5.866574382233225e-001	 1.981665594387706e+000	-1.939175656093433e+001
1	 5.660907622939357e-001	 1.987638496108145e+000	-1.985373734334112e+001
1	 5.455187159444398e-001	 1.993382795332379e+000	-2.030109450806206e+001
1	 5.249448500593383e-001	 1.998899362722713e+000	-2.072900657334510e+001
1	 5.043726775313114e-001	 2.004189136910732e+000	-2.113276572893488e+001
1	 4.838056717963333e-001	 2.009253123036070e+000	-2.150778343500587e+001
1	 4.632472654263901e-001	 2.014092391253171e+000	-2.184959569948614e+001
1	 4.427008487803362e-001	 2.018708075208402e+000	-2.215386803116261e+001
1	 4.221697687133261e-001	 2.023101370489906e+000	-2.241640006678710e+001
1	 4.016573273451569e-001	 2.027273533052570e+000	-2.263312987121477e+001
1	 6.150493566104990e-001	 2.000950424375790e+000	-1.976556538802995e+001
1	 5.942264058136261e-001	 2.007232751087749e+000	-2.030152617688149e+001
1	 5.733943816702278e-001	 2.013282714303859e+000	-2.082936938640321e+001
1	 5.525569178183160e-001	 2.019101125628145e+000	-2.134360913780065e+001
1	 5.317176109553854e-001	 2.024688866956064e+000	-2.183886795691560e+001
1	 5.108800192969427e-001	 2.030046889029278e+000	-2.230988373566036e+001
1	 4.900476610927239e-001	 2.035176209955582e+000	-2.275151634874895e+001
1	 4.692240132012564e-001	 2.040077913696388e+000	-2.315875392086831e+001
1	 4.484125097233069e-001	 2.044753148524193e+000	-2.352671874038449e+001
1	 4.276165406946649e-001	 2.049203125452439e+000	-2.385067281661076e+001
1	 4.068394508385930e-001	 2.053429116640149e+000	-2.412602307858253e+001
1	 6.228835568435334e-001	 2.026437559847334e+000	-2.052628968431888e+001
1	 6.017953734045253e-001	 2.032799907788383e+000	-2.112561867314364e+001
1	 5.806980010470584e-001	 2.038926932500135e+000	-2.171871199581648e+001
1	 5.595951196926690e-001	 2.044819455924433e+000	-2.229962125563373e+001
1	 5.384903718518440e-001	 2.050478371189883e+000	-2.286250618735233e+001
1	 5.173873610629191e-001	 2.055904641148231e+000	-2.340164253702982e+001
1	 4.962896503893944e-001	 2.061099296875428e+000	-2.391142957486744e+001
1	 4.752007609763393e-001	 2.066063436139859e+000	-2.438639723493785e+001
1	 4.541241706664357e-001	 2.070798221840153e+000	-2.482121287671626e+001
1	 4.330633126761100e-001	 2.075304880415053e+000	-2.521068766435985e+001
1	 4.120215743320918e-001	 2.079584700227718e+000	-2.554978256068916e+001
1	 6.307177570770309e-001	 2.051924695319411e+000	-2.120223317343912e+001
1	 6.093643409958431e-001	 2.058367064489540e+000	-2.186415901992733e+001
1	 5.880016204242573e-001	 2.064571150696912e+000	-2.252204592827889e+001
1	 5.666333215673345e-001	 2.070537786221185e+000	-2.316957356025407e+001
1	 5.452631327485583e-001	 2.076267875424119e+000	-2.380052853618644e+001
1	 5.238947028290937e-001	 2.081762393267542e+000	-2.440881311022599e+001
1	 5.025316396862065e-001	 2.087022383795570e+000	-2.498845346046212e+001
1	 4.811775087515106e-001	 2.092048958583554e+000	-2.553360758667520e+001
1	 4.598358316096048e-001	 2.096843295156265e+000	-2.603857280958349e+001
1	 4.385100846575530e-001	 2.101406635377738e+000	-2.649779286655405e+001
1	 4.172036978255547e-001	 2.105740283815280e+000	-2.690586459983349e+001
1	 6.385519573108083e-001	 2.077411830791955e+000	-2.179337577904400e+001
1	 6.169333085874019e-001	 2.083934221191155e+000	-2.251726605454912e+001
1	 5.953052398016533e-001	 2.090215368894127e+000	-2.323963816240954e+001
1	 5.736715234421499e-001	 2.096256116518342e+000	-2.395388702500729e+001
1	 5.520358936453731e-001	 2.102057379658719e+000	-2.465351247322506e+001
1	 5.304020445953196e-001	 2.107620145387170e+000	-2.533212859688852e+001
1	 5.087736289830225e-001	 2.112945470715970e+000	-2.598347269604632e+001
1	 4.871542565266416e-001	 2.118034481027447e+000	-2.660141382483986e+001
1	 4.655474925526943e-001	 2.122888368472507e+000	-2.717996092089173e+001
1	 4.439568566388844e-001	 2.127508390340486e+000	-2.771327051431190e+001
1	 4.223858213188826e-001	 2.131895867402835e+000	-2.819565401157029e+001
1	 6.463861575446830e-001	 2.102898966264897e+000	-2.229969839808403e+001
1	 6.245022761790249e-001	 2.109501377893163e+000	-2.308505285308839e+001
1	 6.026088591790755e-001	 2.115859587091717e+000	-2.387174273370068e+001
1	 5.807097253169515e-001	 2.121974446815848e+000	-2.465296221444773e+001
1	 5.588086545421325e-001	 2.127846883893632e+000	-2.542200747253609e+001
1	 5.369093863614495e-001	 2.133477897507067e+000	-2.617228659594723e+001
1	 5.150156182797039e-001	 2.138868557636592e+000	-2.689732908233466e+001
1	 4.931310043016037e-001	 2.144020003471509e+000	-2.759079491960146e+001
1	 4.712591534955858e-001	 2.148933441788861e+000	-2.824648324026994e+001
1	 4.494036286199957e-001	 2.153610145303288e+000	-2.885834054297241e+001
1	 4.275679448119762e-001	 2.158051450990381e+000	-2.942046847559549e+001
1	 6.542203577784720e-001	 2.128386101738172e+000	-2.272118284253162e+001
1	 6.320712437705344e-001	 2.135068534595500e+000	-2.356762707533774e+001
1	 6.099124785563529e-001	 2.141503805289619e+000	-2.441860150947790e+001
1	 5.877479271915754e-001	 2.147692777113644e+000	-2.526718050630072e+001
1	 5.655814154386812e-001	 2.153636388128805e+000	-2.610653668867327e+001
1	 5.434167281273363e-001	 2.159335649627190e+000	-2.692995129171783e+001
1	 5.212576075761132e-001	 2.164791644557400e+000	-2.773082409824029e+001
1	 4.991077520762683e-001	 2.170005525915712e+000	-2.850268294898569e+001
1	 4.769708144381604e-001	 2.174978515105309e+000	-2.923919281912426e+001
1	 4.548504006007778e-001	 2.179711900266134e+000	-2.993416445363067e+001
1	 4.327500683047371e-001	 2.184207034577925e+000	-3.058156255545913e+001
1	 6.620545580119924e-001	 2.153873237211714e+000	-2.305781178524265e+001
1	 6.396402113617533e-001	 2.160635691298096e+000	-2.396509128526150e+001
1	 6.172160979333152e-001	 2.167148023487771e+000	-2.488044490883956e+001
1	 5.947861290658585e-001	 2.173411107411672e+000	-2.579690522666643e+001
1	 5.723541763348636e-001	 2.179425892364188e+000	-2.670759851389186e+001
1	 5.499240698928335e-001	 2.185193401747493e+000	-2.760575543090408e+001
1	 5.274995968721122e-001	 2.190714731478354e+000	-2.848472128654695e+001
1	 5.050844998505071e-001	 2.195991048360028e+000	-2.933796587328630e+001
1	 4.826824753802992e-001	 2.201023588421832e+000	-3.015909286513787e+001
1	 4.602971725811216e-001	 2.205813655229016e+000	-3.094184877044666e+001
1	 4.379321917970660e-001	 2.210362618165464e+000	-3.168013143288354e+001
1	 6.698887582450617e-001	 2.179360372685456e+000	-2.330956870961713e+001
1	 6.472091789525045e-001	 2.186202848000890e+000	-2.427754324896878e+001
1	 6.245197173097914e-001	 2.192792241686111e+000	-2.525749257207926e+001
1	 6.018243309396367e-001	 2.199129437709874e+000	-2.624248270556911e+001
1	 5.791269372305241e-001	 2.205215396599726e+000	-2.722566802609607e+001
1	 5.564314116577939e-001	 2.211051153867932e+000	-2.820030216087736e+001
1	 5.337415861675631e-001	 2.216637818399421e+000	-2.915974847218154e+001
1	 5.110612476241913e-001	 2.221976570804428e+000	-3.009749011479978e+001
1	 4.883941363218835e-001	 2.227068661738412e+000	-3.100713965682597e+001
1	 4.657439445609183e-001	 2.231915410191925e+000	-3.188244825536063e+001
1	 4.431143152888640e-001	 2.236518201752999e+000	-3.271731438004895e+001
1	 6.777229584774968e-001	 2.204847508159331e+000	-2.347643786275159e+001
1	 6.547781465426104e-001	 2.211770004703815e+000	-2.450507621201926e+001
1	 6.318233366856110e-001	 2.218436459884577e+000	-2.554995398367802e+001
1	 6.088625328127472e-001	 2.224847768008192e+000	-2.660424325929447e+001
1	 5.858996981255070e-001	 2.231004900835369e+000	-2.766119833636056e+001
1	 5.629387534220700e-001	 2.236908905988460e+000	-2.871416674045713e+001
1	 5.399835754623277e-001	 2.242560905320560e+000	-2.975659982663282e+001
1	 5.170379953971922e-001	 2.247962093248883e+000	-3.078206295863647e+001
1	 4.941057972627942e-001	 2.253113735055029e+000	-3.178424525594645e+001
1	 4.711907165400591e-001	 2.258017165154852e+000	-3.275696889984238e+001
1	 4.482964387800323e-001	 2.262673785340532e+000	-3.369419799105079e+001
1	 6.855571587091147e-001	 2.230334643633273e+000	-2.355840421180307e+001
1	 6.623471141318938e-001	 2.237337161406804e+000	-2.464777915771590e+001
1	 6.391269560606027e-001	 2.244080678083104e+000	-2.575802905258214e+001
1	 6.159007346850260e-001	 2.250566098306567e+000	-2.688250210537429e+001
1	 5.926724590196570e-001	 2.256794405071063e+000	-2.801462184405947e+001
1	 5.694460951855153e-001	 2.262766658109032e+000	-2.914789813339132e+001
1	 5.462255647562679e-001	 2.268483992241738e+000	-3.027593779082349e+001
1	 5.230147431693814e-001	 2.273947615693367e+000	-3.139245478891962e+001
1	 4.998174582029127e-001	 2.279158808371665e+000	-3.249128003393219e+001
1	 4.766374885184346e-001	 2.284118920117788e+000	-3.356637071151231e+001
1	 4.534785622704715e-001	 2.288829368928064e+000	-3.461181919179103e+001
1	 4.016573273451569e-001	 2.027273533052570e+000	-2.263312987121477e+001
1	 3.811698517285161e-001	 2.031225301503231e+000	-2.279347948452202e+001
1	 3.607074675331579e-001	 2.034958690876766e+000	-2.288688121223078e+001
1	 3.402733298862168e-001	 2.038475129610468e+000	-2.290942830282140e+001
1	 3.198705449804661e-001	 2.041776099945051e+000	-2.285737664720613e+001
1	 2.995021691400975e-001	 2.044863136261900e+000	-2.272714751568154e+001
1	 2.791712079452250e-001	 2.047737823409130e+000	-2.251532996494831e+001
1	 2.588806154148102e-001	 2.050401795018658e+000	-2.221868291940928e+001
1	 2.386332932476176e-001	 2.052856731816378e+000	-2.183413693157273e+001
1	 2.184320901207331e-001	 2.055104359927541e+000	-2.135879562696695e+001
1	 1.982798010451051e-001	 2.057146449179369e+000	-2.078993683952148e+001
1	 4.068394508385930e-001	 2.053429116640149e+000	-2.412602307858252e+001
1	 3.860876488384815e-001	 2.057431870223552e+000	-2.434170917374431e+001
1	 3.653612619854612e-001	 2.061213427235205e+000	-2.448669807507096e+001
1	 3.446634861136531e-001	 2.064775234541887e+000	-2.455656645652660e+001
1	 3.239974674914743e-001	 2.068118793507961e+000	-2.454706652744470e+001
1	 3.033663018753622e-001	 2.071245658311171e+000	-2.445412943924503e+001
1	 2.827730336229852e-001	 2.074157434247109e+000	-2.427386832267281e+001
1	 2.622206548656237e-001	 2.076855776024567e+000	-2.400258095961522e+001
1	 2.417121047393339e-001	 2.079342386053915e+000	-2.363675209426305e+001
1	 2.212502686744154e-001	 2.081619012730616e+000	-2.317305538905795e+001
1	 2.008379777426382e-001	 2.083687448715941e+000	-2.260835503150594e+001
1	 4.120215743320918e-001	 2.079584700227718e+000	-2.554978256068916e+001
1	 3.910054459484763e-001	 2.083638438943773e+000	-2.582707236824233e+001
1	 3.700150564377695e-001	 2.087468163593456e+000	-2.603114700513109e+001
1	 3.490536423410806e-001	 2.091075339473031e+000	-2.615710254295120e+001
1	 3.281243900024702e-001	 2.094461487070512e+000	-2.620022150884693e+001
1	 3.072304346106221e-001	 2.097628180360005e+000	-2.615597695556830e+001
1	 2.863748593007578e-001	 2.100577045084578e+000	-2.602003612556882e+001
1	 2.655606943164776e-001	 2.103309757029900e+000	-2.578826371297053e+001
1	 2.447909162311291e-001	 2.105828040290816e+000	-2.545672472802447e+001
1	 2.240684472282262e-001	 2.108133665533003e+000	-2.502168696946252e+001
1	 2.033961544403598e-001	 2.110228448251783e+000	-2.447962311085789e+001
1	 4.172036978255547e-001	 2.105740283815280e+000	-2.690586459983349e+001
1	 3.959232430584104e-001	 2.109845007663906e+000	-2.725110159763369e+001
1	 3.746688508900032e-001	 2.113722899951540e+000	-2.752179228075703e+001
1	 3.534437985684286e-001	 2.117375444403931e+000	-2.771258658410780e+001
1	 3.322513125133907e-001	 2.120804180632748e+000	-2.781832989221986e+001
1	 3.110945673458191e-001	 2.124010702408454e+000	-2.783406776670221e+001
1	 2.899766849784888e-001	 2.126996655921599e+000	-2.775505023423936e+001
1	 2.689007337673192e-001	 2.129763738034728e+000	-2.757673563867085e+001
1	 2.478697277229493e-001	 2.132313694527165e+000	-2.729479406156400e+001
1	 2.268866257821066e-001	 2.134648318334801e+000	-2.690511031654707e+001
1	 2.059543311382028e-001	 2.136769447787005e+000	-2.640378652347489e+001
1	 4.223858213188826e-001	 2.131895867402835e+000	-2.819565401157029e+001
1	 4.008410401681958e-001	 2.136051576383963e+000	-2.861525418297217e+001
1	 3.793226453420828e-001	 2.139977636309479e+000	-2.896012141366904e+001
1	 3.578339547956265e-001	 2.143675549334621e+000	-2.922449253501002e+001
1	 3.363782350241723e-001	 2.147146874194708e+000	-2.940280694032657e+001
1	 3.149587000808957e-001	 2.150393224456572e+000	-2.948971196426396e+001
1	 2.935785106561246e-001	 2.153416266758236e+000	-2.948006779211315e+001
1	 2.722407732180960e-001	 2.156217719039128e+000	-2.936895190229122e+001
1	 2.509485392147405e-001	 2.158799348763050e+000	-2.915166304609724e+001
1	 2.297048043359976e-001	 2.161162971136105e+000	-2.882372476980033e+001
1	 2.085125078360999e-001	 2.163310447321718e+000	-2.838088848500485e+001
1	 4.275679448119762e-001	 2.158051450990381e+000	-2.942046847559549e+001
1	 4.057588372777427e-001	 2.162258145103953e+000	-2.992091679438585e+001
1	 3.839764397939290e-001	 2.166232372667292e+000	-3.034754980101830e+001
1	 3.622241110226030e-001	 2.169975654265129e+000	-3.069422289333165e+001
1	 3.405051575347515e-001	 2.173489567756435e+000	-3.095499930399060e+001
1	 3.188228328157944e-001	 2.176775746504409e+000	-3.112415612662864e+001
1	 2.971803363336108e-001	 2.179835877594552e+000	-3.119618984430482e+001
1	 2.755808126687556e-001	 2.182671700043172e+000	-3.116582136297848e+001
1	 2.540273507064481e-001	 2.185285002998552e+000	-3.102800055376330e+001
1	 2.325229828898403e-001	 2.187677623937013e+000	-3.077791030873051e+001
1	 2.110706845339838e-001	 2.189851446856028e+000	-3.041097011599808e+001
1	 4.327500683047371e-001	 2.184207034577925e+000	-3.058156255545913e+001
1	 4.106766343869625e-001	 2.188464713823888e+000	-3.116940968125311e+001
1	 3.886302342454621e-001	 2.192487109025002e+000	-3.168542504319777e+001
1	 3.666142672492873e-001	 2.196275759195487e+000	-3.212311297786651e+001
1	 3.446320800450651e-001	 2.199832261317972e+000	-3.247618913018945e+001
1	 3.226869655504576e-001	 2.203158268552018e+000	-3.273858712174086e+001
1	 3.007821620108941e-001	 2.206255488430610e+000	-3.290446469646287e+001
1	 2.789208521192450e-001	 2.209125681046936e+000	-3.296820934601707e+001
1	 2.571061621980182e-001	 2.211770657233760e+000	-3.292444341808572e+001
1	 2.353411614435758e-001	 2.214192276737622e+000	-3.276802871203037e+001
1	 2.136288612317870e-001	 2.216392446390048e+000	-3.249407056734910e+001
1	 4.379321917970660e-001	 2.210362618165464e+000	-3.168013143288353e+001
1	 4.155944314957661e-001	 2.214671282543780e+000	-3.236199060203993e+001
1	 3.932840286966027e-001	 2.218741845382630e+000	-3.297503095509210e+001
1	 3.710044234756090e-001	 2.222575864125728e+000	-3.351243490322078e+001
1	 3.487590025550497e-001	 2.226174954879359e+000	-3.396759787847654e+001
1	 3.265510982848278e-001	 2.229540790599451e+000	-3.433413563993116e+001
1	 3.043839876879204e-001	 2.232675099266471e+000	-3.460589103514282e+001
1	 2.822608915695119e-001	 2.235579662050491e+000	-3.477694021854416e+001
1	 2.601849736893965e-001	 2.238256311468759e+000	-3.484159832956311e+001
1	 2.381593399971450e-001	 2.240706929538030e+000	-3.479442463444243e+001
1	 2.161870379294426e-001	 2.242933445923886e+000	-3.463022713683210e+001
1	 4.431143152888640e-001	 2.236518201752999e+000	-3.271731438004895e+001
1	 4.205122286040643e-001	 2.240877851263638e+000	-3.349985847838638e+001
1	 3.979378231472714e-001	 2.244996581740196e+000	-3.421759129586382e+001
1	 3.753945797014971e-001	 2.248875969055882e+000	-3.486340127560749e+001
1	 3.528859250646419e-001	 2.252517648440637e+000	-3.543038986961042e+001
1	 3.304152310188470e-001	 2.255923312646759e+000	-3.591187947883853e+001
1	 3.079858133646356e-001	 2.259094710102200e+000	-3.630142082922792e+001
1	 2.856009310195035e-001	 2.262033643053913e+000	-3.659279978453257e+001
1	 2.632637851805289e-001	 2.264741965703633e+000	-3.678004359824789e+001
1	 2.409775185504891e-001	 2.267221582338333e+000	-3.685742660806233e+001
1	 2.187452146268828e-001	 2.269474445457651e+000	-3.681947537745904e+001
1	 4.482964387800323e-001	 2.262673785340532e+000	-3.369419799105080e+001
1	 4.254300257117686e-001	 2.267084419983475e+000	-3.458415679575379e+001
1	 4.025916175973884e-001	 2.271251318097723e+000	-3.541427324005102e+001
1	 3.797847359268809e-001	 2.275176073985980e+000	-3.617716863230936e+001
1	 3.570128475737784e-001	 2.278860342001848e+000	-3.686567558805974e+001
1	 3.342793637524580e-001	 2.282305834693997e+000	-3.747284660049951e+001
1	 3.115876390409861e-001	 2.285514320937859e+000	-3.799196203011454e+001
1	 2.889409704691673e-001	 2.288487624057277e+000	-3.841653751366086e+001
1	 2.663425966713613e-001	 2.291227619938467e+000	-3.874033079407765e+001
1	 2.437956971035491e-001	 2.293736235138629e+000	-3.895734797419389e+001
1	 2.213033913240406e-001	 2.296015444991454e+000	-3.906184919832251e+001
1	 4.534785622704715e-001	 2.288829368928064e+000	-3.461181919179103e+001
1	 4.303478228187894e-001	 2.293290988703301e+000	-3.561597677090803e+001
1	 4.072454120468746e-001	 2.297506054455230e+000	-3.656619061066871e+001
1	 3.841748921516892e-001	 2.301476178916054e+000	-3.745484064531486e+001
1	 3.611397700823956e-001	 2.305203035563035e+000	-3.827451475807198e+001
1	 3.381434964856029e-001	 2.308688356741213e+000	-3.901801797882782e+001
1	 3.151894647169179e-001	 2.311933931773510e+000	-3.967838108675932e+001
1	 2.922810099184507e-001	 2.314941605060654e+000	-4.024886861736297e+001
1	 2.694214081618395e-001	 2.317713274173349e+000	-4.072298627473678e+001
1	 2.466138756562661e-001	 2.320250887939015e+000	-4.109448775131197e+001
1	 2.238615680208486e-001	 2.322556444525402e+000	-4.135738095852426e+001
1	 1.982798010451051e-001	 2.057146449179369e+000	-2.078993683952148e+001
1	 1.781761623850336e-001	 2.058985072062221e+000	-2.011676241411331e+001
1	 1.581269227520513e-001	 2.060621760190974e+000	-1.932976069055647e+001
1	 1.381347544218768e-001	 2.062058405639228e+000	-1.842810613670310e+001
1	 1.182022727019181e-001	 2.063296937449552e+000	-1.741112202406323e+001
1	 9.833203556797798e-002	 2.064339319933257e+000	-1.627827773367509e+001
1	 7.852654335463272e-002	 2.065187550979181e+000	-1.502918593166643e+001
1	 5.878823849825416e-002	 2.065843660373092e+000	-1.366359962329337e+001
1	 3.911950533160215e-002	 2.066309708129336e+000	-1.218140909419986e+001
1	 1.952266992886674e-002	 2.066587782836232e+000	-1.058263874757084e+001
1	 0.000000000000000e+000	 2.066680000016667e+000	-8.867443845766829e+000
1	 2.008379777426382e-001	 2.083687448715941e+000	-2.260835503150594e+001
1	 1.804749649069134e-001	 2.085549793239212e+000	-2.193131512983546e+001
1	 1.601670529465027e-001	 2.087207597675990e+000	-2.113163896596556e+001
1	 1.399169486144207e-001	 2.088662778511150e+000	-2.020774790587658e+001
1	 1.197273009603746e-001	 2.089917289675494e+000	-1.915823786145124e+001
1	 9.960070096278338e-002	 2.090973120823609e+000	-1.798187722588791e+001
1	 7.953968121516040e-002	 2.091832295620811e+000	-1.667760461954159e+001
1	 5.954671566582108e-002	 2.092496870040883e+000	-1.524452645576287e+001
1	 3.962421940982459e-002	 2.092968930676188e+000	-1.368191433635961e+001
1	 1.977454853201704e-002	 2.093250593061715e+000	-1.198920228633247e+001
1	 0.000000000000000e+000	 2.093344000014533e+000	-1.016598383753792e+001
1	 2.033961544403598e-001	 2.110228448251783e+000	-2.447962311085789e+001
1	 1.827737674290517e-001	 2.112114514415441e+000	-2.381871091096515e+001
1	 1.622071831412845e-001	 2.113793435160225e+000	-2.302791708884609e+001
1	 1.416991428073605e-001	 2.115267151382275e+000	-2.210493331407851e+001
1	 1.212523292192784e-001	 2.116537641900631e+000	-2.104764946984097e+001
1	 1.008693663580645e-001	 2.117606921713151e+000	-1.985415224041125e+001
1	 8.055281907616166e-002	 2.118477040261631e+000	-1.852272345203682e+001
1	 6.030519283382063e-002	 2.119150079707867e+000	-1.705183817742059e+001
1	 4.012893348839219e-002	 2.119628153222234e+000	-1.544016261422075e+001
1	 2.002642713537082e-002	 2.119913403286397e+000	-1.368655174808326e+001
1	 0.000000000000000e+000	 2.120008000011600e+000	-1.179004681081887e+001
1	 2.059543311382028e-001	 2.136769447787005e+000	-2.640378652347489e+001
1	 1.850725699513690e-001	 2.138679235591034e+000	-2.577856226370669e+001
1	 1.642473133363036e-001	 2.140379272643812e+000	-2.501771296615418e+001
1	 1.434813370005905e-001	 2.141871524252747e+000	-2.411822272236555e+001
1	 1.227773574785133e-001	 2.143157994125120e+000	-2.307729548495339e+001
1	 1.021380317537000e-001	 2.144240722602052e+000	-2.189235432965161e+001
1	 8.156595693751680e-002	 2.145121784901822e+000	-2.056104041583260e+001
1	 6.106367000214408e-002	 2.145803289374231e+000	-1.908121165629658e+001
1	 4.063364756721848e-002	 2.146287375767672e+000	-1.745094110739612e+001
1	 2.027830573887717e-002	 2.146576213510476e+000	-1.566851509077841e+001
1	 0.000000000000000e+000	 2.146672000008066e+000	-1.373243105820311e+001
1	 2.085125078360999e-001	 2.163310447321718e+000	-2.838088848500485e+001
1	 1.873713724737861e-001	 2.165243956766109e+000	-2.781050071043700e+001
1	 1.662874435314673e-001	 2.166965110126885e+000	-2.710018779337066e+001
1	 1.452635311940046e-001	 2.168475897122717e+000	-2.624624714176491e+001
1	 1.243023857379632e-001	 2.169778346349123e+000	-2.524521570351871e+001
1	 1.034066971495685e-001	 2.170874523490486e+000	-2.409386992549232e+001
1	 8.257909479910620e-002	 2.171766529541564e+000	-2.278922535816461e+001
1	 6.182214717068282e-002	 2.172456499040166e+000	-2.132853591719950e+001
1	 4.113836164621705e-002	 2.172946598312695e+000	-1.970929281354801e+001
1	 2.053018434248521e-002	 2.173239023734152e+000	-1.792922316402204e+001
1	 0.000000000000000e+000	 2.173336000004133e+000	-1.598628829454287e+001
1	 2.110706845339838e-001	 2.189851446856028e+000	-3.041097011599808e+001
1	 1.896701749962240e-001	 2.191808677940790e+000	-2.991417563732440e+001
1	 1.683275737266829e-001	 2.193550947609579e+000	-2.927454343121529e+001
1	 1.470457253874974e-001	 2.195080269992333e+000	-2.848770395188492e+001
1	 1.258274139975120e-001	 2.196398698572798e+000	-2.754954495291728e+001
1	 1.046753625455484e-001	 2.197508324378622e+000	-2.645621216559535e+001
1	 8.359223266081020e-002	 2.198411274181037e+000	-2.520410957207157e+001
1	 6.258062433932812e-002	 2.199109708705859e+000	-2.378989928501409e+001
1	 4.164307572530141e-002	 2.199605820857498e+000	-2.221050104581255e+001
1	 2.078206294614406e-002	 2.199901833957623e+000	-2.046309135383212e+001
1	 0.000000000000000e+000	 2.200000000000000e+000	-1.854510223955908e+001
1	 2.136288612317870e-001	 2.216392446390048e+000	-3.249407056734911e+001
1	 1.919689775186034e-001	 2.218373399115199e+000	-3.208925322474543e+001
1	 1.703677039218575e-001	 2.220136785092031e+000	-3.154001997084186e+001
1	 1.488279195809628e-001	 2.221684642861741e+000	-3.084135292713937e+001
1	 1.273524422570437e-001	 2.223019050796304e+000	-2.998850740128209e+001
1	 1.059440279415185e-001	 2.224142125266629e+000	-2.897701330697634e+001
1	 8.460537052250917e-002	 2.225056018820422e+000	-2.780267612993513e+001
1	 6.333910150797127e-002	 2.225762918371497e+000	-2.646157745174136e+001
1	 4.214778980438517e-002	 2.226265043402275e+000	-2.495007504407079e+001
1	 2.103394154980284e-002	 2.226564644181086e+000	-2.326480254621310e+001
1	 0.000000000000000e+000	 2.226663999995867e+000	-2.140266873927344e+001
1	 2.161870379294426e-001	 2.242933445923886e+000	-3.463022713683212e+001
1	 1.942677800408450e-001	 2.244938120289457e+000	-3.433541545364032e+001
1	 1.724078341168983e-001	 2.246722622574373e+000	-3.389589347190175e+001
1	 1.506101137742950e-001	 2.248289015731089e+000	-3.330601254510624e+001
1	 1.288774705164421e-001	 2.249639403019801e+000	-3.256041127157794e+001
1	 1.072126933373572e-001	 2.250775926154679e+000	-3.165401767820838e+001
1	 8.561850838408341e-002	 2.251700763459897e+000	-3.058205090332804e+001
1	 6.409757867650366e-002	 2.252416128037271e+000	-2.934002239076713e+001
1	 4.265250388338186e-002	 2.252924265947222e+000	-2.792373660780539e+001
1	 2.128582015341064e-002	 2.253227454404740e+000	-2.632929130029774e+001
1	 0.000000000000000e+000	 2.253327999991934e+000	-2.455307729879799e+001
1	 2.187452146268828e-001	 2.269474445457651e+000	-3.681947537745904e+001
1	 1.965665825628697e-001	 2.271502841463688e+000	-3.665235918159183e+001
1	 1.744479643117127e-001	 2.273308460056742e+000	-3.634147385932482e+001
1	 1.523923079673883e-001	 2.274893388600523e+000	-3.588055655392390e+001
1	 1.304024987755913e-001	 2.276259755243449e+000	-3.526364392658660e+001
1	 1.084813587329433e-001	 2.277409727042943e+000	-3.448507512615992e+001
1	 8.663164624541336e-002	 2.278345508099645e+000	-3.353949421298778e+001
1	 6.485605584481653e-002	 2.279069337703367e+000	-3.242185204900157e+001
1	 4.315721796220502e-002	 2.279583488492531e+000	-3.112740766691160e+001
1	 2.153769875691660e-002	 2.279890264628787e+000	-2.965172913203815e+001
1	 0.000000000000000e+000	 2.279991999988401e+000	-2.799069391094447e+001
1	 2.213033913240406e-001	 2.296015444991454e+000	-3.906184919832251e+001
1	 1.988653850845983e-001	 2.298067562638014e+000	-3.903979528298453e+001
1	 1.764880945062078e-001	 2.299894297539273e+000	-3.887610296597430e+001
1	 1.541745021601368e-001	 2.301497761470192e+000	-3.856391077776411e+001
1	 1.319275270343750e-001	 2.302880107467407e+000	-3.809666729478590e+001
1	 1.097500241281552e-001	 2.304043527931590e+000	-3.746813491725153e+001
1	 8.764478410637930e-002	 2.304990252739845e+000	-3.667239305792782e+001
1	 6.561453301280122e-002	 2.305722547369975e+000	-3.570384075394642e+001
1	 4.366193204076821e-002	 2.306242711038399e+000	-3.455719871456611e+001
1	 2.178957736026983e-002	 2.306553074853421e+000	-3.322751081858380e+001
1	 0.000000000000000e+000	 2.306655999985467e+000	-3.171014507579785e+001
1	 2.238615680208486e-001	 2.322556444525402e+000	-4.135738095852426e+001
1	 2.011641876059516e-001	 2.324632283812556e+000	-4.149744784811915e+001
1	 1.785282247002906e-001	 2.326480135022100e+000	-4.149915270950712e+001
1	 1.559566963524346e-001	 2.328102134340242e+000	-4.135505014133801e+001
1	 1.334525552926772e-001	 2.329500459691833e+000	-4.105801360985247e+001
1	 1.110186895228716e-001	 2.330677328820790e+000	-4.060124005687182e+001
1	 8.865792196686158e-002	 2.331634997380677e+000	-3.997825387735917e+001
1	 6.637301018034907e-002	 2.332375757037283e+000	-3.918291027850128e+001
1	 4.416664611898502e-002	 2.332901933585020e+000	-3.820939803319581e+001
1	 2.204145596341943e-002	 2.333215885078842e+000	-3.705224164169922e+001
1	 0.000000000000000e+000	 2.333319999983334e+000	-3.570630291598810e+001
1	 2.333319999983334e+000	 0.000000000000000e+000	 8.165890329339891e+001
1	 2.333215885078843e+000	 2.204145596341877e-002	 7.923990676445686e+001
1	 2.332901933585021e+000	 4.416664611898442e-002	 7.681577403886031e+001
1	 2.332375757037283e+000	 6.637301018034854e-002	 7.438632101148495e+001
1	 2.331634997380677e+000	 8.865792196686113e-002	 7.195150087490255e+001
1	 2.330677328820791e+000	 1.110186895228712e-001	 6.951140717538300e+001
1	 2.329500459691833e+000	 1.334525552926768e-001	 6.706627672539540e+001
1	 2.328102134340243e+000	 1.559566963524343e-001	 6.461649236238915e+001
1	 2.326480135022100e+000	 1.785282247002905e-001	 6.216258554361207e+001
1	 2.324632283812555e+000	 2.011641876059514e-001	 5.970523876672598e+001
1	 2.322556444525402e+000	 2.238615680208485e-001	 5.724528780600954e+001
1	 2.359987999982150e+000	 0.000000000000000e+000	 8.388579982424223e+001
1	 2.359882695126717e+000	 2.229337235189980e-002	 8.132032817487495e+001
1	 2.359565155415852e+000	 4.467143591148032e-002	 7.875213644164109e+001
1	 2.359032965086723e+000	 6.713160113034043e-002	 7.618121239537631e+001
1	 2.358283739133689e+000	 8.967121181265773e-002	 7.360768554359807e+001
1	 2.357315125180360e+000	 1.122875452358524e-001	 7.103183003189382e+001
1	 2.356124805369035e+000	 1.349778123275370e-001	 6.845406738943628e+001
1	 2.354710498265832e+000	 1.577391579000762e-001	 6.587496910828361e+001
1	 2.353069960779785e+000	 1.805686609440348e-001	 6.329525904611998e+001
1	 2.351200990094103e+000	 2.034633349817420e-001	 6.071581564211991e+001
1	 2.349101425607677e+000	 2.264201284821454e-001	 5.813767393567613e+001
1	 2.386655999981866e+000	 0.000000000000000e+000	 8.612804163941925e+001
1	 2.386549505175482e+000	 2.254528874017717e-002	 8.340626272329351e+001
1	 2.386228377247541e+000	 4.517622570362981e-002	 8.068497203982797e+001
1	 2.385690173136972e+000	 6.789019207989577e-002	 7.796431403298624e+001
1	 2.384932480887448e+000	 9.068450165797151e-002	 7.524457900758638e+001
1	 2.383952921540606e+000	 1.135564009483399e-001	 7.252620590034294e+001
1	 2.382749151046835e+000	 1.365030693619190e-001	 6.980978488382579e+001
1	 2.381318862191934e+000	 1.595216194472728e-001	 6.709605979285632e+001
1	 2.379659786537899e+000	 1.826090971873751e-001	 6.438593036288052e+001
1	 2.377769696375999e+000	 2.057624823571690e-001	 6.168045426990729e+001
1	 2.375646406690223e+000	 2.289786889431086e-001	 5.898084896167973e+001
1	 2.413323999982383e+000	 0.000000000000000e+000	 8.838015881940494e+001
1	 2.413216315225037e+000	 2.279720512830178e-002	 8.549251823894264e+001
1	 2.412891599079998e+000	 4.568101549551951e-002	 8.260936422982366e+001
1	 2.412347381187954e+000	 6.864878302912363e-002	 7.973098357893169e+001
1	 2.411581222641890e+000	 9.169779150292325e-002	 7.685781275158659e+001
1	 2.410590717901479e+000	 1.148252566604571e-001	 7.399044055593305e+001
1	 2.409373496725197e+000	 1.380283263959423e-001	 7.112961063017104e+001
1	 2.407927226118532e+000	 1.613040809941355e-001	 6.827622374200048e+001
1	 2.406249612296439e+000	 1.846495334304124e-001	 6.543133988968744e+001
1	 2.404338402658252e+000	 2.080616297323231e-001	 6.259618019422928e+001
1	 2.402191387773060e+000	 2.315372494038214e-001	 5.977212857219212e+001
1	 2.439991999983599e+000	 0.000000000000000e+000	 9.063692057956315e+001
1	 2.439883125275287e+000	 2.304912151632456e-002	 8.757412954327812e+001
1	 2.439554820913136e+000	 4.618580528723602e-002	 8.452061135296725e+001
1	 2.439004589239588e+000	 6.940737397813325e-002	 8.147678164270050e+001
1	 2.438229964396952e+000	 9.271108134763356e-002	 7.844320924383845e+001
1	 2.437228514262930e+000	 1.160941123723274e-001	 7.542061876590921e+001
1	 2.435997842404090e+000	 1.395535834297265e-001	 7.240989299136446e+001
1	 2.434535590045608e+000	 1.630865425407755e-001	 6.941207507342612e+001
1	 2.432839438055403e+000	 1.866899696732476e-001	 6.642837052628750e+001
1	 2.430907108940868e+000	 2.103607771072954e-001	 6.346014899701365e+001
1	 2.428736368856203e+000	 2.340958098643674e-001	 6.050894580860297e+001
1	 2.466659999985416e+000	 0.000000000000000e+000	 9.289332234325693e+001
1	 2.466549935326134e+000	 2.330103790429640e-002	 8.964634617948671e+001
1	 2.466218042746860e+000	 4.669059507886593e-002	 8.641421507627824e+001
1	 2.465661797291797e+000	 7.016596492703370e-002	 8.319746081754082e+001
1	 2.464878706152569e+000	 9.372437119222318e-002	 7.999677161212554e+001
1	 2.463866310624908e+000	 1.173629680840743e-001	 7.681299461380438e+001
1	 2.462622188083482e+000	 1.410788404633911e-001	 7.364713824725520e+001
1	 2.461143953973147e+000	 1.648690040873041e-001	 7.050037432909437e+001
1	 2.459429263814787e+000	 1.887304059159818e-001	 6.737403997305853e+001
1	 2.457475815223860e+000	 2.126599244821766e-001	 6.426963926853512e+001
1	 2.455281349939666e+000	 2.366543703248298e-001	 6.118884472176853e+001
1	 2.493327999987732e+000	 0.000000000000000e+000	 9.514457364453619e+001
1	 2.493216745377482e+000	 2.355295429226825e-002	 9.170462092944412e+001
1	 2.492881264581083e+000	 4.719538487049581e-002	 8.828586951886015e+001
1	 2.492319005344500e+000	 7.092455587593409e-002	 8.488895541341600e+001
1	 2.491527447908675e+000	 9.473766103681276e-002	 8.151467398233476e+001
1	 2.490504106987368e+000	 1.186318237958211e-001	 7.816398244462077e+001
1	 2.489246533763340e+000	 1.426040974970557e-001	 7.483800214945258e+001
1	 2.487752317901132e+000	 1.666514656338327e-001	 7.153802064463542e+001
1	 2.486019089574589e+000	 1.907708421587161e-001	 6.826549352204370e+001
1	 2.484044521507234e+000	 2.149590718570579e-001	 6.502204602908613e+001
1	 2.481826331023469e+000	 2.392129307852923e-001	 6.180947443536720e+001
1	 2.519995999990449e+000	 0.000000000000000e+000	 9.738608679894831e+001
1	 2.519883555429231e+000	 2.380487068029100e-002	 9.374459905979258e+001
1	 2.519544486415716e+000	 4.770017466221226e-002	 9.013145106872693e+001
1	 2.518976213397623e+000	 7.168314682494364e-002	 8.654737184186885e+001
1	 2.518176189665208e+000	 9.575095088152301e-002	 8.299325243047146e+001
1	 2.517141903350260e+000	 1.199006795076914e-001	 7.947014838495075e+001
1	 2.515870879443631e+000	 1.441293545308398e-001	 7.597928201235963e+001
1	 2.514360681829545e+000	 1.684339271804727e-001	 7.252204441597257e+001
1	 2.512608915334808e+000	 1.928112784015512e-001	 6.909999730572223e+001
1	 2.510613227791001e+000	 2.172582192320301e-001	 6.571487456834080e+001
1	 2.508371312107629e+000	 2.417714912458381e-001	 6.236858358620435e+001
1	 2.546663999993466e+000	 0.000000000000000e+000	 9.961346628616649e+001
1	 2.546550365481286e+000	 2.405678706841556e-002	 9.576210824369228e+001
1	 2.546207708250667e+000	 4.820496445410189e-002	 9.194700883944294e+001
1	 2.545633421451083e+000	 7.244173777417143e-002	 8.816897960500907e+001
1	 2.544824931422100e+000	 9.676424072647460e-002	 8.442899650316409e+001
1	 2.543779699713533e+000	 1.211695352198085e-001	 8.072820239589143e+001
1	 2.542495225124322e+000	 1.456546115648631e-001	 7.706790930113097e+001
1	 2.540969045758369e+000	 1.702163887273352e-001	 7.344960042670485e+001
1	 2.539198741095438e+000	 1.948517146445884e-001	 6.987493196996174e+001
1	 2.537181934075167e+000	 2.195573666071841e-001	 6.634573467179436e+001
1	 2.534916293192159e+000	 2.443300517065508e-001	 6.286401511383533e+001
1	 2.573331999996682e+000	 0.000000000000000e+000	 1.018224987927997e+002
1	 2.573217175533550e+000	 2.430870345669286e-002	 9.775314910923163e+001
1	 2.572870930085850e+000	 4.870975424625129e-002	 9.372875572016230e+001
1	 2.572290629504803e+000	 7.320032872372663e-002	 8.975020284479946e+001
1	 2.571473673179289e+000	 9.777753057178830e-002	 8.581854126541765e+001
1	 2.570417496077141e+000	 1.224383909322958e-001	 8.193499082010389e+001
1	 2.569119570805381e+000	 1.471798685992448e-001	 7.810094268050557e+001
1	 2.567577409687589e+000	 1.719988502745317e-001	 7.431796140282455e+001
1	 2.565788566856480e+000	 1.968921508879286e-001	 7.058778674038290e+001
1	 2.563750640359744e+000	 2.218565139826109e-001	 6.691233520619855e+001
1	 2.561461274277079e+000	 2.468886121675139e-001	 6.329370137416555e+001
1	 2.600000000000000e+000	 0.000000000000000e+000	 1.040091438679832e+002
1	 2.599883985585925e+000	 2.456061984517381e-002	 9.971388636950253e+001
1	 2.599534151921171e+000	 4.921454403874705e-002	 9.547305997646271e+001
1	 2.598947837558707e+000	 7.395891967371836e-002	 9.128761241241192e+001
1	 2.598122414936712e+000	 9.879082041758469e-002	 8.715865983776077e+001
1	 2.597055292441034e+000	 1.237072466452768e-001	 8.308748938753809e+001
1	 2.595743916486777e+000	 1.487051256341050e-001	 7.907556149142563e+001
1	 2.594185773617187e+000	 1.737813118221734e-001	 7.512451196408713e+001
1	 2.592378392617928e+000	 1.989325871316728e-001	 7.123615385388831e+001
1	 2.590319346644739e+000	 2.241556613584015e-001	 6.741247903821763e+001
1	 2.588006255362404e+000	 2.494471726288108e-001	 6.365565955376795e+001
1	 2.322556444525402e+000	 2.238615680208485e-001	 5.724528780600954e+001
1	 2.320250887939015e+000	 2.466138756562646e-001	 5.479871989462334e+001
1	 2.317713274173350e+000	 2.694214081618383e-001	 5.238054985913362e+001
1	 2.314941605060655e+000	 2.922810099184496e-001	 4.999146979255885e+001
1	 2.311933931773510e+000	 3.151894647169171e-001	 4.763229458600979e+001
1	 2.308688356741215e+000	 3.381434964856024e-001	 4.530396299892214e+001
1	 2.305203035563035e+000	 3.611397700823951e-001	 4.300753853022492e+001
1	 2.301476178916054e+000	 3.841748921516889e-001	 4.074421008270045e+001
1	 2.297506054455230e+000	 4.072454120468744e-001	 3.851529241303784e+001
1	 2.293290988703300e+000	 4.303478228187894e-001	 3.632222636036052e+001
1	 2.288829368928065e+000	 4.534785622704717e-001	 3.416657884631608e+001
1	 2.349101425607677e+000	 2.264201284821454e-001	 5.813767393567613e+001
1	 2.346769518335254e+000	 2.494324769776625e-001	 5.557674031464175e+001
1	 2.344202901653812e+000	 2.725006815198410e-001	 5.304785016497176e+001
1	 2.341399554558111e+000	 2.956215504233460e-001	 5.055180060747942e+001
1	 2.338357505947168e+000	 3.187918307202851e-001	 4.808951010357428e+001
1	 2.335074836562539e+000	 3.420082088961281e-001	 4.566201932425593e+001
1	 2.331549680923442e+000	 3.652673116907453e-001	 4.327049181629511e+001
1	 2.327780229256405e+000	 3.885657069651762e-001	 4.091621445812349e+001
1	 2.323764729417043e+000	 4.118999046346668e-001	 3.860059769821805e+001
1	 2.319501488801561e+000	 4.352663576684167e-001	 3.632517556906173e+001
1	 2.314988876245497e+000	 4.586614631563876e-001	 3.409160547008487e+001
1	 2.375646406690223e+000	 2.289786889431086e-001	 5.898084896167973e+001
1	 2.373288148731701e+000	 2.522510782987388e-001	 5.630288199144014e+001
1	 2.370692529134423e+000	 2.755799548775168e-001	 5.366114215370662e+001
1	 2.367857504055670e+000	 2.989620909278955e-001	 5.105650179980152e+001
1	 2.364781080120887e+000	 3.223941967232737e-001	 4.848995262691863e+001
1	 2.361461316383892e+000	 3.458729213062329e-001	 4.596260639056202e+001
1	 2.357896326283851e+000	 3.693948532986260e-001	 4.347569541245431e+001
1	 2.354084279596735e+000	 3.929565217781409e-001	 4.103057287666896e+001
1	 2.350023404378815e+000	 4.165543972218822e-001	 3.862871290701716e+001
1	 2.345711988899768e+000	 4.401848925174143e-001	 3.627171041902506e+001
1	 2.341148383562865e+000	 4.638443640416252e-001	 3.396128074017314e+001
1	 2.402191387773060e+000	 2.315372494038214e-001	 5.977212857219212e+001
1	 2.399806779128375e+000	 2.550696796195738e-001	 5.697475195218456e+001
1	 2.397182156615205e+000	 2.786592282349473e-001	 5.421832191496538e+001
1	 2.394315453553344e+000	 3.023026314321842e-001	 5.150375753717116e+001
1	 2.391204654294674e+000	 3.259965627259769e-001	 4.883209472192151e+001
1	 2.387847796205268e+000	 3.497376337160197e-001	 4.620448679844722e+001
1	 2.384242971644243e+000	 3.735223949061501e-001	 4.362220491746636e+001
1	 2.380388329937012e+000	 3.973473365907070e-001	 4.108663823526096e+001
1	 2.376282079340507e+000	 4.212088898086550e-001	 3.859929387969140e+001
1	 2.371922488997865e+000	 4.451034273659249e-001	 3.616179669169453e+001
1	 2.367307890880100e+000	 4.690272649263335e-001	 3.377588873615270e+001
1	 2.428736368856203e+000	 2.340958098643674e-001	 6.050894580860296e+001
1	 2.426325409525294e+000	 2.578882809402480e-001	 5.759006184044868e+001
1	 2.423671784096173e+000	 2.817385015922140e-001	 5.471737751749841e+001
1	 2.420773403051146e+000	 3.056431719362983e-001	 5.189183137211180e+001
1	 2.417628228468532e+000	 3.295989287284878e-001	 4.911447573109394e+001
1	 2.414234276026662e+000	 3.536023461255909e-001	 4.638647724536133e+001
1	 2.410589617004602e+000	 3.776499365134309e-001	 4.370911721759311e+001
1	 2.406692380277210e+000	 4.017381514029982e-001	 4.108379172098813e+001
1	 2.402540754302073e+000	 4.258633823951186e-001	 3.851201150253188e+001
1	 2.398132989095801e+000	 4.500219622140912e-001	 3.599540166448585e+001
1	 2.393467398197138e+000	 4.742101658106621e-001	 3.353570111815355e+001
1	 2.455281349939666e+000	 2.366543703248298e-001	 6.118884472176853e+001
1	 2.452844039922479e+000	 2.607068822608415e-001	 5.814662226097491e+001
1	 2.450161411577347e+000	 2.848177749493984e-001	 5.515638403707312e+001
1	 2.447231352549092e+000	 3.089837124403242e-001	 5.221906195072372e+001
1	 2.444051802642469e+000	 3.332012947309001e-001	 4.933569816384156e+001
1	 2.440620755848069e+000	 3.574670585350495e-001	 4.650744560128933e+001
1	 2.436936262364911e+000	 3.817774781205811e-001	 4.373556825472002e+001
1	 2.432996430617297e+000	 4.061289662151379e-001	 4.102144128182519e+001
1	 2.428799429263472e+000	 4.305178749814070e-001	 3.836655089452236e+001
1	 2.424343489193518e+000	 4.549404970620560e-001	 3.577249402991853e+001
1	 2.419626905513916e+000	 4.793930666947602e-001	 3.324097779822019e+001
1	 2.481826331023469e+000	 2.392129307852923e-001	 6.180947443536719e+001
1	 2.479362670319949e+000	 2.635254835814350e-001	 5.864233748735745e+001
1	 2.476651039058744e+000	 2.878970483065823e-001	 5.553349890344973e+001
1	 2.473689302047192e+000	 3.123242529443479e-001	 5.248385899677541e+001
1	 2.470475376816489e+000	 3.368036607333074e-001	 4.949442431837952e+001
1	 2.467007235669487e+000	 3.613317709444981e-001	 4.656630817210948e+001
1	 2.463282907725154e+000	 3.859050197277141e-001	 4.370073093771121e+001
1	 2.459300480957246e+000	 4.105197810272502e-001	 4.089902019549449e+001
1	 2.455058104224664e+000	 4.351723675676544e-001	 3.816261064619299e+001
1	 2.450553989290962e+000	 4.598590319099618e-001	 3.549304381993787e+001
1	 2.445786412830364e+000	 4.845759675787775e-001	 3.289196756858415e+001
1	 2.508371312107629e+000	 2.417714912458381e-001	 6.236858358620435e+001
1	 2.505881300717724e+000	 2.663440849021089e-001	 5.907520050576304e+001
1	 2.503140666540383e+000	 2.909763216638469e-001	 5.584695754280253e+001
1	 2.500147251545462e+000	 3.156647934484556e-001	 5.268469955078665e+001
1	 2.496898950990597e+000	 3.404060267358030e-001	 4.958937311814056e+001
1	 2.493393715490908e+000	 3.651964833540393e-001	 4.656202713671549e+001
1	 2.489629553085316e+000	 3.900325613349430e-001	 4.360381318638373e+001
1	 2.485604531297027e+000	 4.149105958394588e-001	 4.071598572919871e+001
1	 2.481316779185606e+000	 4.398268601539945e-001	 3.789990210680303e+001
1	 2.476764489388081e+000	 4.647775667579516e-001	 3.515702233504189e+001
1	 2.471945920146419e+000	 4.897588684628632e-001	 3.248890869004400e+001
1	 2.534916293192159e+000	 2.443300517065508e-001	 6.286401511383533e+001
1	 2.532399931115824e+000	 2.691626862229434e-001	 5.944328837005682e+001
1	 2.529630294022282e+000	 2.940555950212741e-001	 5.609506929392979e+001
1	 2.526605201043914e+000	 3.190053339527336e-001	 5.282012444541134e+001
1	 2.523322525164801e+000	 3.440083927384808e-001	 4.961931714695242e+001
1	 2.519780195312328e+000	 3.690611957637762e-001	 4.649360814516538e+001
1	 2.515976198445377e+000	 3.941601029423807e-001	 4.344405609837974e+001
1	 2.511908581636609e+000	 4.193014106518873e-001	 4.047181788356295e+001
1	 2.507575454146253e+000	 4.444813527405612e-001	 3.757814871631040e+001
1	 2.502974989484819e+000	 4.696961016061681e-001	 3.476440207786154e+001
1	 2.498105427462015e+000	 4.949417693471666e-001	 3.203202944337721e+001
1	 2.561461274277079e+000	 2.468886121675139e-001	 6.329370137416557e+001
1	 2.558918561514267e+000	 2.719812875440190e-001	 5.974475784574272e+001
1	 2.556119921504460e+000	 2.971348683789455e-001	 5.627621357839063e+001
1	 2.553063150542562e+000	 3.223458744572680e-001	 5.288873499997883e+001
1	 2.549746099339105e+000	 3.476107587414337e-001	 4.958307986856623e+001
1	 2.546166675133744e+000	 3.729259081738114e-001	 4.636009806617572e+001
1	 2.542322843805324e+000	 3.982876445501404e-001	 4.322073223002133e+001
1	 2.538212631975964e+000	 4.236922254646595e-001	 4.016601821467724e+001
1	 2.533834129106567e+000	 4.491358453274884e-001	 3.719708537887882e+001
1	 2.529185489581119e+000	 4.746146364547537e-001	 3.431515669087060e+001
1	 2.524264934777087e+000	 5.001246702318374e-001	 3.152154864646557e+001
1	 2.588006255362404e+000	 2.494471726288108e-001	 6.365565955376795e+001
1	 2.585437191913076e+000	 2.747998888654161e-001	 5.997784132198346e+001
1	 2.582609548986935e+000	 3.002141417369426e-001	 5.638883630633786e+001
1	 2.579521100041420e+000	 3.256864149621452e-001	 5.288918991845814e+001
1	 2.576169673513514e+000	 3.512131247447560e-001	 4.947953301729936e+001
1	 2.572553154955150e+000	 3.767906205842477e-001	 4.616058287323869e+001
1	 2.568669489165140e+000	 4.024151861583354e-001	 4.293314398296430e+001
1	 2.564516682315065e+000	 4.280830402778992e-001	 3.979810872863323e+001
1	 2.560092804066503e+000	 4.537903379149099e-001	 3.675645787494025e+001
1	 2.555395989676932e+000	 4.795331713038519e-001	 3.380926089792910e+001
1	 2.550424442091569e+000	 5.053075711170252e-001	 3.095767613959603e+001
1	 2.288829368928065e+000	 4.534785622704717e-001	 3.416657884631608e+001
1	 2.284118920117788e+000	 4.766374885184339e-001	 3.205682619192656e+001
1	 2.279158808371665e+000	 4.998174582029122e-001	 3.000174722263590e+001
1	 2.273947615693367e+000	 5.230147431693809e-001	 2.800255850438315e+001
1	 2.268483992241738e+000	 5.462255647562676e-001	 2.606055993941494e+001
1	 2.262766658109032e+000	 5.694460951855148e-001	 2.417713392873601e+001
1	 2.256794405071064e+000	 5.926724590196568e-001	 2.235374434599606e+001
1	 2.250566098306568e+000	 6.159007346850260e-001	 2.059193531977952e+001
1	 2.244080678083104e+000	 6.391269560606029e-001	 1.889332982165777e+001
1	 2.237337161406804e+000	 6.623471141318938e-001	 1.725962805777834e+001
1	 2.230334643633272e+000	 6.855571587091147e-001	 1.569260566219842e+001
1	 2.314988876245497e+000	 4.586614631563876e-001	 3.409160547008487e+001
1	 2.310224590735523e+000	 4.820850775934856e-001	 3.190804699175802e+001
1	 2.305207788840002e+000	 5.055299759769891e-001	 2.978292029961968e+001
1	 2.299937036356030e+000	 5.289923875425029e-001	 2.771742952942111e+001
1	 2.294410968014828e+000	 5.524684904413270e-001	 2.571285703046015e+001
1	 2.288628289280320e+000	 5.759544131469158e-001	 2.377056244254670e+001
1	 2.282587778119268e+000	 5.994462359286034e-001	 2.189198159015136e+001
1	 2.276288286740297e+000	 6.229399923922245e-001	 2.007862519099423e+001
1	 2.269728743299058e+000	 6.464316710871187e-001	 1.833207737672029e+001
1	 2.262908153566841e+000	 6.699172171789138e-001	 1.665399402371342e+001
1	 2.255825602559877e+000	 6.933925341873449e-001	 1.504610089252836e+001
1	 2.341148383562865e+000	 4.638443640416252e-001	 3.396128074017314e+001
1	 2.336330261353183e+000	 4.875326666678163e-001	 3.170521829087637e+001
1	 2.331256769308257e+000	 5.112424937503096e-001	 2.951154151747879e+001
1	 2.325926457018605e+000	 5.349700319148382e-001	 2.738141709040749e+001
1	 2.320337943787829e+000	 5.587114161255758e-001	 2.531608352490373e+001
1	 2.314489920451515e+000	 5.824627311074864e-001	 2.331685019709302e+001
1	 2.308381151167378e+000	 6.062200128367060e-001	 2.138509618570453e+001
1	 2.302010475173931e+000	 6.299792500985685e-001	 1.952226893700260e+001
1	 2.295376808514920e+000	 6.537363861127733e-001	 1.772988275086847e+001
1	 2.288479145726790e+000	 6.774873202250679e-001	 1.600951708636400e+001
1	 2.281316561486398e+000	 7.012279096647085e-001	 1.436281468552188e+001
1	 2.367307890880100e+000	 4.690272649263335e-001	 3.377588873615271e+001
1	 2.362435931970693e+000	 4.929802557415793e-001	 3.144893513971967e+001
1	 2.357305749776348e+000	 5.169550115230278e-001	 2.918849351955643e+001
1	 2.351915877681004e+000	 5.409476762865410e-001	 2.699566902506059e+001
1	 2.346264919560645e+000	 5.649543418091654e-001	 2.487163106291539e+001
1	 2.340351551622521e+000	 5.889710490673757e-001	 2.281761227637711e+001
1	 2.334174524215299e+000	 6.129937897441083e-001	 2.083490736135557e+001
1	 2.327732663607379e+000	 6.370185078041980e-001	 1.892487171716750e+001
1	 2.321024873730600e+000	 6.610411011377030e-001	 1.708891993020047e+001
1	 2.314050137886562e+000	 6.850574232704917e-001	 1.532852408909945e+001
1	 2.306807520412753e+000	 7.090632851413388e-001	 1.364521193047893e+001
1	 2.393467398197138e+000	 4.742101658106621e-001	 3.353570111815355e+001
1	 2.388541602587979e+000	 4.984278448149280e-001	 3.113976657420518e+001
1	 2.383354730244194e+000	 5.226675292952987e-001	 2.881462036163787e+001
1	 2.377905298343142e+000	 5.469253206577651e-001	 2.656128298972665e+001
1	 2.372191895333188e+000	 5.711972674922479e-001	 2.438083044469415e+001
1	 2.366213182793248e+000	 5.954793670267321e-001	 2.227439315587370e+001
1	 2.359967897262937e+000	 6.197675666509558e-001	 2.024315481244337e+001
1	 2.353454852040546e+000	 6.440577655092541e-001	 1.828835102894144e+001
1	 2.346672938946007e+000	 6.683458161620451e-001	 1.641126785810745e+001
1	 2.339621130046071e+000	 6.926275263153184e-001	 1.461324014994118e+001
1	 2.332298479338855e+000	 7.168986606173690e-001	 1.289564975623569e+001
1	 2.419626905513916e+000	 4.793930666947602e-001	 3.324097779822019e+001
1	 2.414647273204966e+000	 5.038754338880156e-001	 3.077825702199370e+001
1	 2.409403710711709e+000	 5.283800470672767e-001	 2.839072959787419e+001
1	 2.403894719004927e+000	 5.529029650286648e-001	 2.607930917202901e+001
1	 2.398118871105364e+000	 5.774401931749748e-001	 2.384495491928871e+001
1	 2.392074813963600e+000	 6.019876849857039e-001	 2.168867051940849e+001
1	 2.385761270310199e+000	 6.265413435573923e-001	 1.961150300027295e+001
1	 2.379177040473338e+000	 6.510970232138770e-001	 1.761454144659806e+001
1	 2.372321004161045e+000	 6.756505311859367e-001	 1.569891557298801e+001
1	 2.365192122205227e+000	 7.001976293596836e-001	 1.386579416052006e+001
1	 2.357789438264623e+000	 7.247340360929330e-001	 1.211638335636154e+001
1	 2.445786412830364e+000	 4.845759675787775e-001	 3.289196756858414e+001
1	 2.440752943821578e+000	 5.093230229609955e-001	 3.036492761850740e+001
1	 2.435452691178815e+000	 5.340925648391165e-001	 2.791759423284290e+001
1	 2.429884139666275e+000	 5.588806093993937e-001	 2.555075282943473e+001
1	 2.424045846877084e+000	 5.836831188574980e-001	 2.326522326235924e+001
1	 2.417936445133483e+000	 6.084960029444395e-001	 2.106185883109004e+001
1	 2.411554643356989e+000	 6.333151204635623e-001	 1.894154517553538e+001
1	 2.404899228905665e+000	 6.581362809182073e-001	 1.690519905585766e+001
1	 2.397969069375628e+000	 6.829552462095149e-001	 1.495376701625216e+001
1	 2.390763114363942e+000	 7.077677324037213e-001	 1.308822393214110e+001
1	 2.383280397189971e+000	 7.325694115681636e-001	 1.130957144052712e+001
1	 2.471945920146419e+000	 4.897588684628632e-001	 3.248890869004400e+001
1	 2.466858614437743e+000	 5.147706120340211e-001	 2.990027743938694e+001
1	 2.461501671645428e+000	 5.398050826109728e-001	 2.739595454966166e+001
1	 2.455873560327098e+000	 5.648582537701060e-001	 2.497657666663402e+001
1	 2.449972822648255e+000	 5.899260445399691e-001	 2.264280265851589e+001
1	 2.443798076302805e+000	 6.150043209030874e-001	 2.039531268044075e+001
1	 2.437348016403214e+000	 6.400888973696108e-001	 1.823480714625941e+001
1	 2.430621417337429e+000	 6.651755386223859e-001	 1.616200560693489e+001
1	 2.423617134589662e+000	 6.902599612329169e-001	 1.417764553504004e+001
1	 2.416334106522128e+000	 7.153378354475658e-001	 1.228248101509666e+001
1	 2.408771356114817e+000	 7.404047870431946e-001	 1.047728133973580e+001
1	 2.498105427462015e+000	 4.949417693471666e-001	 3.203202944337721e+001
1	 2.492964285053382e+000	 5.202182011072452e-001	 2.938478465551233e+001
1	 2.487550652111465e+000	 5.455176003830005e-001	 2.682651982324115e+001
1	 2.481862980987305e+000	 5.708358981409558e-001	 2.435770306354779e+001
1	 2.475899798418785e+000	 5.961689702225395e-001	 2.197881140255856e+001
1	 2.469659707471471e+000	 6.215126388617959e-001	 1.969032991735196e+001
1	 2.463141389448778e+000	 6.468626742756823e-001	 1.749275080902111e+001
1	 2.456343605768538e+000	 6.722147963265529e-001	 1.538657240664876e+001
1	 2.449265199803056e+000	 6.975646762562799e-001	 1.337229810203238e+001
1	 2.441905098679698e+000	 7.229079384913520e-001	 1.145043521518051e+001
1	 2.434262315039078e+000	 7.482401625181597e-001	 9.621493790791465e+000
1	 2.524264934777087e+000	 5.001246702318374e-001	 3.152154864646557e+001
1	 2.519069955668423e+000	 5.256657901808216e-001	 2.881890761620601e+001
1	 2.513599632576846e+000	 5.512301181553541e-001	 2.620996992700886e+001
1	 2.507852401646812e+000	 5.768135425120967e-001	 2.369501616479933e+001
1	 2.501826774188583e+000	 6.024118959053616e-001	 2.127432143275539e+001
1	 2.495521338639389e+000	 6.280209568207137e-001	 1.894815459210943e+001
1	 2.488934762493588e+000	 6.536364511819212e-001	 1.671677746058522e+001
1	 2.482065794198899e+000	 6.792540540308494e-001	 1.458044396852380e+001
1	 2.474913265015719e+000	 7.048693912797398e-001	 1.253939927287627e+001
1	 2.467476090836561e+000	 7.304780415352142e-001	 1.059387882936805e+001
1	 2.459753273962669e+000	 7.560755379931917e-001	 8.744107423271094e+000
1	 2.550424442091569e+000	 5.053075711170252e-001	 3.095767613959603e+001
1	 2.545175626282793e+000	 5.311133792549040e-001	 2.820308586577323e+001
1	 2.539648613041488e+000	 5.569426359281883e-001	 2.554695684075248e+001
1	 2.533841822305532e+000	 5.827911868836831e-001	 2.298936384059670e+001
1	 2.527753749957560e+000	 6.086548215885872e-001	 2.053036070821973e+001
1	 2.521382969806464e+000	 6.345292747799888e-001	 1.816997971448549e+001
1	 2.514728135537550e+000	 6.604102280884721e-001	 1.590823090574311e+001
1	 2.507787982628420e+000	 6.862933117354155e-001	 1.374510143825831e+001
1	 2.500561330227559e+000	 7.121741063034354e-001	 1.168055490006491e+001
1	 2.493047082992633e+000	 7.380481445792874e-001	 9.714530620826190e+000
1	 2.485244232885506e+000	 7.639109134684247e-001	 7.846942970362549e+000
1	 2.230334643633272e+000	 6.855571587091147e-001	 1.569260566219842e+001
1	 2.223072299479171e+000	 7.087529998691572e-001	 1.418792201036985e+001
1	 2.215549382871506e+000	 7.319305087471115e-001	 1.274021481091021e+001
1	 2.207765230096631e+000	 7.550855204020774e-001	 1.134981834404166e+001
1	 2.199719261790046e+000	 7.782138361143610e-001	 1.001711440517204e+001
1	 2.191410984317160e+000	 8.013112254104077e-001	 8.742532004922122e+000
1	 2.182839991099376e+000	 8.243734281452966e-001	 7.526546953133978e+000
1	 2.174005963882928e+000	 8.473961566412125e-001	 6.369681325107916e+000
1	 2.164908673947970e+000	 8.703750978801975e-001	 5.272502808586371e+000
1	 2.155547983255453e+000	 8.933059157493626e-001	 4.235623930284714e+000
1	 2.145923845529373e+000	 9.161842533366132e-001	 3.259701161061515e+000
1	 2.255825602559877e+000	 6.933925341873449e-001	 1.504610089252836e+001
1	 2.248480255562493e+000	 7.168534854447087e-001	 1.350386608407599e+001
1	 2.240871357974674e+000	 7.402958948964447e-001	 1.202171509656349e+001
1	 2.232998238497061e+000	 7.637155499996888e-001	 1.059989527856255e+001
1	 2.224860311143484e+000	 7.871082040467174e-001	 9.238699636528333e+000
1	 2.216457076637509e+000	 8.104695782130247e-001	 7.938466663442299e+000
1	 2.207788123753673e+000	 8.337953636636193e-001	 6.699580056079622e+000
1	 2.198853130600829e+000	 8.570812237159360e-001	 5.522468318961318e+000
1	 2.189651865845055e+000	 8.803227960576492e-001	 4.407604253305465e+000
1	 2.180184189869629e+000	 9.035156950175444e-001	 3.355504329560669e+000
1	 2.170450055869658e+000	 9.266555138874860e-001	 2.366727942382191e+000
1	 2.281316561486398e+000	 7.012279096647085e-001	 1.436281468552188e+001
1	 2.273888211645735e+000	 7.249539710193940e-001	 1.278507329043342e+001
1	 2.266193333077769e+000	 7.486612810449149e-001	 1.127055392254204e+001
1	 2.258231246897426e+000	 7.723455795964407e-001	 9.819422583183787e+000
1	 2.250001360496865e+000	 7.960025719782180e-001	 8.431888084218594e+000
1	 2.241503168957809e+000	 8.196279310147914e-001	 7.108201983261145e+000
1	 2.232736256407930e+000	 8.432172991810967e-001	 5.848658413545540e+000
1	 2.223700297318700e+000	 8.667662907898182e-001	 4.653593806365405e+000
1	 2.214395057742118e+000	 8.902704942342629e-001	 3.523386504269217e+000
1	 2.204820396483794e+000	 9.137254742848919e-001	 2.458456263441800e+000
1	 2.194976266209943e+000	 9.371267744375258e-001	 1.459263643964457e+000
1	 2.306807520412753e+000	 7.090632851413388e-001	 1.364521193047893e+001
1	 2.299296167728820e+000	 7.330544565933477e-001	 1.203412709197176e+001
1	 2.291515308180721e+000	 7.570266671926574e-001	 1.048940827672039e+001
1	 2.283464255297661e+000	 7.809756091924724e-001	 9.011145543271868e+000
1	 2.275142409850134e+000	 8.048969399090081e-001	 7.599467944105060e+000
1	 2.266549261278011e+000	 8.287862838158568e-001	 6.254543545877063e+000
1	 2.257684389062107e+000	 8.526392346978824e-001	 4.976579351657018e+000
1	 2.248547464036511e+000	 8.764513578630185e-001	 3.765821123040440e+000
1	 2.239138249639141e+000	 9.002181924102024e-001	 2.622553100255487e+000
1	 2.229456603097937e+000	 9.239352535515704e-001	 1.547097618605133e+000
1	 2.219502476550225e+000	 9.475980349868983e-001	 5.398146198318359e-001
1	 2.332298479338855e+000	 7.168986606173690e-001	 1.289564975623569e+001
1	 2.324704123811673e+000	 7.411549421667039e-001	 1.125349800695189e+001
1	 2.316837283283455e+000	 7.653920533398099e-001	 9.680838113947218e+000
1	 2.308697263697702e+000	 7.896056387879249e-001	 8.177689425325870e+000
1	 2.300283459203230e+000	 8.137913078392322e-001	 6.744105517214306e+000
1	 2.291595353598070e+000	 8.379446366163708e-001	 5.380174277884623e+000
1	 2.282632521716166e+000	 8.620611702141320e-001	 4.086017902545450e+000
1	 2.273394630754230e+000	 8.861364249356958e-001	 2.861792796711274e+000
1	 2.263881441536101e+000	 9.101658905856307e-001	 1.707689386259907e+000
1	 2.254092809712047e+000	 9.341450328177451e-001	 6.239318324989704e-001
1	 2.244028686890507e+000	 9.580692955357705e-001	-3.892223492169222e-001
1	 2.357789438264623e+000	 7.247340360929330e-001	 1.211638335636154e+001
1	 2.350112079894209e+000	 7.492554277395963e-001	 1.044554971478349e+001
1	 2.342159258385902e+000	 7.737574394865082e-001	 8.847292682488339e+000
1	 2.333930272097482e+000	 7.982356683829376e-001	 7.321565964825950e+000
1	 2.325424508556098e+000	 8.226856757690344e-001	 5.868351798994501e+000
1	 2.316641445917932e+000	 8.471029894164830e-001	 4.487661081318832e+000
1	 2.307580654370066e+000	 8.714831057299990e-001	 3.179533415182983e+000
1	 2.298241797471829e+000	 8.958214920080095e-001	 1.944037077613543e+000
1	 2.288624633432979e+000	 9.201135887607103e-001	 7.812689026858024e-001
1	 2.278729016326116e+000	 9.443548120835820e-001	-3.086459198861116e-001
1	 2.268554897230786e+000	 9.685405560843093e-001	-1.325554132418521e+000
1	 2.383280397189971e+000	 7.325694115681636e-001	 1.130957144052712e+001
1	 2.375520035976356e+000	 7.573559133121596e-001	 9.612544769630354e+000
1	 2.367481233487989e+000	 7.821228256328895e-001	 7.991116444473531e+000
1	 2.359163280496939e+000	 8.068656979776511e-001	 6.445179437727277e+000
1	 2.350565557908681e+000	 8.315800436985599e-001	 4.974648645710744e+000
1	 2.341687538237552e+000	 8.562613422163423e-001	 3.579461038500523e+000
1	 2.332528787023769e+000	 8.809050412456383e-001	 2.259575741970197e+000
1	 2.323088964189277e+000	 9.055065590801181e-001	 1.014974049907877e+000
1	 2.313367825329755e+000	 9.300612869356042e-001	-1.543406354888970e-001
1	 2.303365222940131e+000	 9.545645913492465e-001	-1.248342936279267e+000
1	 2.293081107571060e+000	 9.790118166326810e-001	-2.266985705973541e+000
1	 2.408771356114817e+000	 7.404047870431946e-001	 1.047728133973580e+001
1	 2.400927992058032e+000	 7.654563988845280e-001	 8.756649951228683e+000
1	 2.392803208589645e+000	 7.904882117790898e-001	 7.114554620422636e+000
1	 2.384396288896005e+000	 8.154957275722058e-001	 5.550832346442629e+000
1	 2.375706607260921e+000	 8.404744116279527e-001	 4.065334549302937e+000
1	 2.366733630556880e+000	 8.654196950160991e-001	 2.657927222903194e+000
1	 2.357476919677233e+000	 8.903269767612045e-001	 1.328491032504537e+000
1	 2.347936130906543e+000	 9.151916261521812e-001	 7.692135504821085e-002
1	 2.338111017226407e+000	 9.400089851104755e-001	-1.096871739193817e+000
1	 2.328001429554081e+000	 9.647743706149040e-001	-2.192963565012610e+000
1	 2.317607317911332e+000	 9.894830771810523e-001	-3.211414961933893e+000
1	 2.434262315039078e+000	 7.482401625181597e-001	 9.621493790791465e+000
1	 2.426335948139160e+000	 7.735568844568356e-001	 7.879941279510990e+000
1	 2.418125183690795e+000	 7.988535979252459e-001	 6.219758385406498e+000
1	 2.409629297294619e+000	 8.241257571667413e-001	 4.640730748572160e+000
1	 2.400847656612763e+000	 8.493687795573581e-001	 3.142650049406882e+000
1	 2.391779722875869e+000	 8.745780478159023e-001	 1.725314144920324e+000
1	 2.382425052330419e+000	 8.997489122768516e-001	 3.885271633235918e-001
1	 2.372783297623597e+000	 9.248766932243575e-001	-8.679004444521166e-001
1	 2.362854209122914e+000	 9.499566832854869e-001	-2.044151897568475e+000
1	 2.352637636167958e+000	 9.749841498807207e-001	-3.140404123578140e+000
1	 2.342133528251598e+000	 9.999543377295894e-001	-4.156827843250123e+000
1	 2.459753273962669e+000	 7.560755379931917e-001	 8.744107423271094e+000
1	 2.451743904219661e+000	 7.816573700292161e-001	 6.984408717424159e+000
1	 2.443447158791370e+000	 8.072189840714945e-001	 5.308789742114664e+000
1	 2.434862305692712e+000	 8.327557867613982e-001	 3.716989254296414e+000
1	 2.425988705964147e+000	 8.582631474869203e-001	 2.208742808859664e+000
1	 2.416825815194466e+000	 8.837364006159014e-001	 7.837828590187619e-001
1	 2.407373184983289e+000	 9.091708477927348e-001	-5.581611699691620e-001
1	 2.397630464340407e+000	 9.345617602968064e-001	-1.817362834769159e+000
1	 2.387597401019257e+000	 9.599043814608012e-001	-2.994098656562998e+000
1	 2.377273842781749e+000	 9.851939291468614e-001	-4.088648133145838e+000
1	 2.366659738591860e+000	 1.010425598278460e+000	-5.101293781318292e+000
1	 2.485244232885506e+000	 7.639109134684247e-001	 7.846942970362549e+000
1	 2.477151860299458e+000	 7.897578556018046e-001	 6.071960584328912e+000
1	 2.468769133891297e+000	 8.155843702179723e-001	 4.383626094026362e+000
1	 2.460095314090222e+000	 8.413858163563169e-001	 2.781635716222168e+000
1	 2.451129755315018e+000	 8.671575154167842e-001	 1.265672376850547e+000
1	 2.441871907512629e+000	 8.928947534162471e-001	-1.645942434099177e-001
1	 2.432321317635802e+000	 9.185927833090085e-001	-1.509507673956030e+000
1	 2.422477631056948e+000	 9.442468273696874e-001	-2.769424630086743e+000
1	 2.412340592915415e+000	 9.698520796365818e-001	-3.944715000409045e+000
1	 2.401910049395445e+000	 9.954037084134924e-001	-5.035761846356241e+000
1	 2.391185948932115e+000	 1.020896858827830e+000	-6.042961414306960e+000
1	 2.145923845529373e+000	 9.161842533366132e-001	 3.259701161061514e+000
1	 2.136037810352666e+000	 9.390023168969391e-001	 2.339461460485294e+000
1	 2.125888595480185e+000	 9.617591535682969e-001	 1.469138454461816e+000
1	 2.115476437276295e+000	 9.844503614784821e-001	 6.491364674602766e-001
1	 2.104801667440269e+000	 1.007071527655773e+000	-1.201002731320955e-001
1	 2.093864713729078e+000	 1.029618230541540e+000	-8.380881219747836e-001
1	 2.082666100602788e+000	 1.052086042539205e+000	-1.504304601081566e+000
1	 2.071206449790665e+000	 1.074470532596845e+000	-2.118189086006809e+000
1	 2.059486480776334e+000	 1.096767268820616e+000	-2.679143593183905e+000
1	 2.047507011200338e+000	 1.118971821116124e+000	-3.186533668421925e+000
1	 2.035268957178629e+000	 1.141079763854727e+000	-3.639689376294693e+000
1	 2.170450055869658e+000	 9.266555138874860e-001	 2.366727942382189e+000
1	 2.160451031138595e+000	 9.497343698461394e-001	 1.435901957973322e+000
1	 2.150185818776248e+000	 9.727512991410006e-001	 5.572786199491087e-001
1	 2.139654657848452e+000	 9.957018495899495e-001	-2.686512179231002e-001
1	 2.128857883845541e+000	 1.018581557784487e+000	-1.041355637163085e+000
1	 2.117795929413422e+000	 1.041385951631064e+000	-1.760262268454600e+000
1	 2.106469325006327e+000	 1.064110552929180e+000	-2.424759010489867e+000
1	 2.094878699459405e+000	 1.086750879983490e+000	-3.034194854126249e+000
1	 2.083024780479415e+000	 1.109302450247110e+000	-3.587880811924119e+000
1	 2.070908395051891e+000	 1.131760782993169e+000	-4.085090952851388e+000
1	 2.058530469763272e+000	 1.154121402011592e+000	-4.525063541654284e+000
1	 2.194976266209943e+000	 9.371267744375258e-001	 1.459263643964455e+000
1	 2.184864251924533e+000	 9.604664227945056e-001	 5.203407897489050e-001
1	 2.174483042072331e+000	 9.837434447128693e-001	-3.640442330482658e-001
1	 2.163832878420640e+000	 1.006953337700580e+000	-1.193330570949200e+000
1	 2.152914100250860e+000	 1.030091587912363e+000	-1.966915908332168e+000
1	 2.141727145097828e+000	 1.053153672719756e+000	-2.684157194679678e+000
1	 2.130272549409948e+000	 1.076135063318328e+000	-3.344371479881916e+000
1	 2.118550949128249e+000	 1.099031227369320e+000	-3.946836857759109e+000
1	 2.106563080182626e+000	 1.121837631672807e+000	-4.490793517678497e+000
1	 2.094309778903607e+000	 1.144549744869445e+000	-4.975444903848455e+000
1	 2.081791982348114e+000	 1.167163040167724e+000	-5.399958981575747e+000
1	 2.219502476550225e+000	 9.475980349868983e-001	 5.398146198318354e-001
1	 2.209277472710488e+000	 9.711984757422031e-001	-4.048479736538106e-001
1	 2.198780265368454e+000	 9.947355902840657e-001	-1.292603676973323e+000
1	 2.188011098992888e+000	 1.018204825810532e+000	-2.122837712933726e+000
1	 2.176970316656258e+000	 1.041601618039557e+000	-2.894894192111031e+000
1	 2.165658360782337e+000	 1.064921393807760e+000	-3.608076938202028e+000
1	 2.154075773813694e+000	 1.088159573706789e+000	-4.261650423008708e+000
1	 2.142223198797244e+000	 1.111311574754465e+000	-4.854840811046343e+000
1	 2.130101379886014e+000	 1.134372813097828e+000	-5.386837113469989e+000
1	 2.117711162755524e+000	 1.157338706745061e+000	-5.856792450717106e+000
1	 2.105053494933187e+000	 1.180204678323221e+000	-6.263825422956208e+000
1	 2.244028686890507e+000	 9.580692955357705e-001	-3.892223492169213e-001
1	 2.233690693496472e+000	 9.819305286893985e-001	-1.337394051732830e+000
1	 2.223077488664635e+000	 1.005727735854752e+000	-2.226270619619893e+000
1	 2.212189319565222e+000	 1.029456313919966e+000	-3.055198994203169e+000
1	 2.201026533061774e+000	 1.053111648166220e+000	-3.823486085557836e+000
1	 2.189589576466989e+000	 1.076689114895224e+000	-4.530399680958252e+000
1	 2.177878998217611e+000	 1.100184084094699e+000	-5.175169463051695e+000
1	 2.165895448466434e+000	 1.123591922139056e+000	-5.756988137582811e+000
1	 2.153639679589622e+000	 1.146907994522294e+000	-6.275012670197057e+000
1	 2.141112546607686e+000	 1.170127668620128e+000	-6.728365631548511e+000
1	 2.128315007518526e+000	 1.193246316478183e+000	-7.116136649630798e+000
1	 2.268554897230786e+000	 9.685405560843093e-001	-1.325554132418522e+000
1	 2.258103914282494e+000	 9.926625816362567e-001	-2.275125343450518e+000
1	 2.247374711960891e+000	 1.016719881425092e+000	-3.163008042484745e+000
1	 2.236367540137673e+000	 1.040707802029039e+000	-3.988526116593889e+000
1	 2.225082749467440e+000	 1.064621678292507e+000	-4.750965218077726e+000
1	 2.213520792151827e+000	 1.088456835982293e+000	-5.449573741253891e+000
1	 2.201682222621745e+000	 1.112208594482199e+000	-6.083563907602692e+000
1	 2.189567698135869e+000	 1.135872269523221e+000	-6.652112958936980e+000
1	 2.177177979293498e+000	 1.159443175946325e+000	-7.154364457969568e+000
1	 2.164513930460135e+000	 1.182916630494757e+000	-7.589429695348983e+000
1	 2.151576520104164e+000	 1.206287954632712e+000	-7.956389201929185e+000
1	 2.293081107571060e+000	 9.790118166326810e-001	-2.266985705973541e+000
1	 2.282517135068562e+000	 1.003394634582944e+000	-3.215962676721093e+000
1	 2.271671935257244e+000	 1.027712026995250e+000	-4.100866076783634e+000
1	 2.260545760710264e+000	 1.051959290137911e+000	-4.921011568962234e+000
1	 2.249138965873294e+000	 1.076131708418570e+000	-5.675679078352397e+000
1	 2.237452007836891e+000	 1.100224557069113e+000	-6.364113822959752e+000
1	 2.225485447026141e+000	 1.124233104869425e+000	-6.985527449860566e+000
1	 2.213239947805594e+000	 1.148152616907090e+000	-7.539099276430406e+000
1	 2.200716278997688e+000	 1.171978357370042e+000	-8.023977635870329e+000
1	 2.187915314312910e+000	 1.195705592369057e+000	-8.439281325962574e+000
1	 2.174838032690134e+000	 1.219329592786908e+000	-8.784101159687344e+000
1	 2.317607317911332e+000	 9.894830771810523e-001	-3.211414961933893e+000
1	 2.306930355854685e+000	 1.014126687529626e+000	-4.157914891281138e+000
1	 2.295969158553711e+000	 1.038704172565387e+000	-5.037977392117007e+000
1	 2.284723981283028e+000	 1.063210778246740e+000	-5.850924352518530e+000
1	 2.273195182279369e+000	 1.087641738544563e+000	-6.596045106240167e+000
1	 2.261383223522224e+000	 1.111992278155832e+000	-7.272597502866950e+000
1	 2.249288671430844e+000	 1.136257615256517e+000	-7.879809079286160e+000
1	 2.236912197475659e+000	 1.160432964290793e+000	-8.416878331861183e+000
1	 2.224254578702236e+000	 1.184513538793564e+000	-8.882976088405611e+000
1	 2.211316698166055e+000	 1.208494554243141e+000	-9.277246978766341e+000
1	 2.198099545276473e+000	 1.232371230940871e+000	-9.598811002532401e+000
1	 2.342133528251598e+000	 9.999543377295894e-001	-4.156827843250123e+000
1	 2.331343576640874e+000	 1.024858740476468e+000	-5.099074230505570e+000
1	 2.320266381850311e+000	 1.049696318135667e+000	-5.972552874867971e+000
1	 2.308902201855987e+000	 1.074462266355686e+000	-6.776605974740124e+000
1	 2.297251398685701e+000	 1.099151768670638e+000	-7.510547030223798e+000
1	 2.285314439207866e+000	 1.123759999242596e+000	-8.173661938742896e+000
1	 2.273091895835899e+000	 1.148282125643612e+000	-8.765210186362186e+000
1	 2.260584447146108e+000	 1.172713311674460e+000	-9.284426134054336e+000
1	 2.247792878407190e+000	 1.197048720217011e+000	-9.730520397892720e+000
1	 2.234718082019610e+000	 1.221283516117117e+000	-1.010268132187186e+001
1	 2.221361057863212e+000	 1.245412869094703e+000	-1.040007654177620e+001
1	 2.366659738591860e+000	 1.010425598278460e+000	-5.101293781318292e+000
1	 2.355756797427138e+000	 1.035590793423637e+000	-6.037612019757148e+000
1	 2.344563605147063e+000	 1.060688463706254e+000	-6.902877575314414e+000
1	 2.333080422429172e+000	 1.085713754464907e+000	-7.696466692380056e+000
1	 2.321307615092325e+000	 1.110661798796949e+000	-8.417731432593106e+000
1	 2.309245654893858e+000	 1.135527720329550e+000	-9.066000782078083e+000
1	 2.296895120241353e+000	 1.160306636030850e+000	-9.640581847377442e+000
1	 2.284256696816989e+000	 1.184993659058219e+000	-1.014076113920968e+001
1	 2.271331178112595e+000	 1.209583901640505e+000	-1.056580594292284e+001
1	 2.258119465873619e+000	 1.234072477991097e+000	-1.091496577425169e+001
1	 2.244622570450384e+000	 1.258454507248502e+000	-1.118747391872328e+001
1	 2.391185948932115e+000	 1.020896858827830e+000	-6.042961414306960e+000
1	 2.380170018213485e+000	 1.046322846371298e+000	-6.971774610697093e+000
1	 2.368860828443987e+000	 1.071680609277310e+000	-7.827306904162218e+000
1	 2.357258643002612e+000	 1.096965242574563e+000	-8.608981985686913e+000
1	 2.345363831499276e+000	 1.122171828923650e+000	-9.316204526011642e+000
1	 2.333176870580243e+000	 1.147295441416841e+000	-9.948361280827223e+000
1	 2.320698344647250e+000	 1.172331146418369e+000	-1.050482227630896e+001
1	 2.307928946488350e+000	 1.197274006442202e+000	-1.098494207400431e+001
1	 2.294869477818498e+000	 1.222119083064165e+000	-1.138806111384763e+001
1	 2.281520849728122e+000	 1.246861439865191e+000	-1.171350713383174e+001
1	 2.267884083038025e+000	 1.271496145402371e+000	-1.196059666462403e+001
1	 2.035268957178629e+000	 1.141079763854727e+000	-3.639689376294693e+000
1	 2.022771440011766e+000	 1.163089972340299e+000	-4.049262699491923e+000
1	 2.010017391776478e+000	 1.184994713164319e+000	-4.426226639880900e+000
1	 1.997008027266777e+000	 1.206789589643860e+000	-4.770588504092292e+000
1	 1.983744660202318e+000	 1.228470220469227e+000	-5.082395727688883e+000
1	 1.970228703106179e+000	 1.250032242448504e+000	-5.361735906081517e+000
1	 1.956461667092250e+000	 1.271471313257539e+000	-5.608736765160280e+000
1	 1.942445161561669e+000	 1.292783114191904e+000	-5.823566071212273e+000
1	 1.928180893807916e+000	 1.313963352917358e+000	-6.006431479837582e+000
1	 1.913670668530300e+000	 1.335007766215310e+000	-6.157580323717677e+000
1	 1.898916387255753e+000	 1.355912122719749e+000	-6.277299339234981e+000
1	 2.058530469763272e+000	 1.154121402011592e+000	-4.525063541654284e+000
1	 2.045890115871281e+000	 1.176383169751865e+000	-4.919341139092454e+000
1	 2.032990298963952e+000	 1.198538264418723e+000	-5.279806321070993e+000
1	 2.019832247719414e+000	 1.220582239078633e+000	-5.606399366943238e+000
1	 2.006417290872078e+000	 1.242510662346993e+000	-5.899104858680969e+000
1	 1.992746857089031e+000	 1.264319121164055e+000	-6.157951837870733e+000
1	 1.978822474754980e+000	 1.286003223576338e+000	-6.383013896201344e+000
1	 1.964645771665228e+000	 1.307558601520036e+000	-6.574409198703336e+000
1	 1.950218474626250e+000	 1.328980913602921e+000	-6.732300439153955e+000
1	 1.935542408963624e+000	 1.350265847881186e+000	-6.856894727217683e+000
1	 1.920619497937210e+000	 1.371409124627651e+000	-6.948443407051370e+000
1	 2.081791982348114e+000	 1.167163040167724e+000	-5.399958981575748e+000
1	 2.069008791731038e+000	 1.189676367162741e+000	-5.776827508730213e+000
1	 2.055963206151714e+000	 1.212081815672490e+000	-6.118898449425469e+000
1	 2.042656468172388e+000	 1.234374888512826e+000	-6.426061273957402e+000
1	 2.029089921542232e+000	 1.256551104224243e+000	-6.698253172098394e+000
1	 2.015265011072331e+000	 1.278605999879157e+000	-6.935459306039961e+000
1	 2.001183282418213e+000	 1.300535133894753e+000	-7.137712991649463e+000
1	 1.986846381769343e+000	 1.322334088847847e+000	-7.305095807061970e+000
1	 1.972256055445192e+000	 1.343998474288224e+000	-7.437737627791531e+000
1	 1.957414149397603e+000	 1.365523929546858e+000	-7.535816587714246e+000
1	 1.942322608619368e+000	 1.386906126535401e+000	-7.599558965447370e+000
1	 2.105053494933187e+000	 1.180204678323221e+000	-6.263825422956209e+000
1	 2.092127467591057e+000	 1.202969564573016e+000	-6.621419834684507e+000
1	 2.078936113339772e+000	 1.225625366925698e+000	-6.943429091498409e+000
1	 2.065480688625693e+000	 1.248167537946511e+000	-7.229707636920915e+000
1	 2.051762552212749e+000	 1.270591546101038e+000	-7.480160310409508e+000
1	 2.037783165056030e+000	 1.292892878593860e+000	-7.694742666662144e+000
1	 2.023544090081880e+000	 1.315067044212827e+000	-7.873461219088881e+000
1	 2.009046991873926e+000	 1.337109576175374e+000	-8.016373606300531e+000
1	 1.994293636264635e+000	 1.359016034973299e+000	-8.123588680636777e+000
1	 1.979285889832116e+000	 1.380782011212352e+000	-8.195266517934703e+000
1	 1.964025719302089e+000	 1.402403128443016e+000	-8.231618347919444e+000
1	 2.128315007518526e+000	 1.193246316478183e+000	-7.116136649630799e+000
1	 2.115246143451361e+000	 1.216262761982781e+000	-7.452829344976876e+000
1	 2.101909020528132e+000	 1.239168918178429e+000	-7.753327546081616e+000
1	 2.088304909079316e+000	 1.261960187379758e+000	-8.017466035102437e+000
1	 2.074435182883600e+000	 1.284631987977439e+000	-8.245131941899571e+000
1	 2.060301319040078e+000	 1.307179757308217e+000	-8.436265100648793e+000
1	 2.045904897745910e+000	 1.329598954530604e+000	-8.590858327483561e+000
1	 2.031247601978889e+000	 1.351885063502655e+000	-8.708957617915811e+000
1	 2.016331217084475e+000	 1.374033595658173e+000	-8.790662262963654e+000
1	 2.001157630267044e+000	 1.396040092877691e+000	-8.836124883099139e+000
1	 1.985728829985245e+000	 1.417900130350514e+000	-8.845551379318902e+000
1	 2.151576520104164e+000	 1.206287954632712e+000	-7.956389201929184e+000
1	 2.138364819311972e+000	 1.229555959392127e+000	-8.270779755725968e+000
1	 2.124881927716801e+000	 1.252712469430764e+000	-8.548526169479910e+000
1	 2.111129129533246e+000	 1.275752836812637e+000	-8.789458530541092e+000
1	 2.097107813554758e+000	 1.298672429853509e+000	-8.993460516071815e+000
1	 2.082819473024427e+000	 1.321466636022280e+000	-9.160469758413687e+000
1	 2.068265705410237e+000	 1.344130864848129e+000	-9.290478129342951e+000
1	 2.053448212084144e+000	 1.366660550829723e+000	-9.383531941929181e+000
1	 2.038368797904606e+000	 1.389051156342877e+000	-9.439732068896319e+000
1	 2.023029370702263e+000	 1.411298174542894e+000	-9.459233976576019e+000
1	 2.007431940668699e+000	 1.433397132257910e+000	-9.442247673737535e+000
1	 2.174838032690134e+000	 1.219329592786908e+000	-8.784101159687344e+000
1	 2.161483495172912e+000	 1.242849156801144e+000	-9.075006603300038e+000
1	 2.147854834905787e+000	 1.266256020682782e+000	-9.328960211999227e+000
1	 2.133953349987477e+000	 1.289545486245221e+000	-9.545801963100903e+000
1	 2.119780444226190e+000	 1.312712871729307e+000	-9.725425970571234e+000
1	 2.105337627009027e+000	 1.335753514736103e+000	-9.867780831078408e+000
1	 2.090626513074791e+000	 1.358662775165444e+000	-9.972869887770555e+000
1	 2.075648822189604e+000	 1.381436038156617e+000	-1.004075141052757e+001
1	 2.060406378724921e+000	 1.404068717027437e+000	-1.007153869162173e+001
1	 2.044901111137656e+000	 1.426556256207987e+000	-1.006540005591629e+001
1	 2.029135051352320e+000	 1.448894134165222e+000	-1.002255878492776e+001
1	 2.198099545276473e+000	 1.232371230940871e+000	-9.598811002532399e+000
1	 2.184602171034203e+000	 1.256142354209923e+000	-9.865256618874781e+000
1	 2.170827742095097e+000	 1.279799571934565e+000	-1.009456766481725e+001
1	 2.156777570441994e+000	 1.303338135677579e+000	-1.028660822679074e+001
1	 2.142453074897868e+000	 1.326753313604897e+000	-1.044129639322189e+001
1	 2.127855780993829e+000	 1.350040393449737e+000	-1.055860455366147e+001
1	 2.112987320739502e+000	 1.373194685482595e+000	-1.063855961544146e+001
1	 2.097849432295178e+000	 1.396211525483370e+000	-1.068124313670614e+001
1	 2.082443959545317e+000	 1.419086277711883e+000	-1.068679137485243e+001
1	 2.066772851573099e+000	 1.441814337872989e+000	-1.065539524960880e+001
1	 2.050838162035976e+000	 1.464391136072466e+000	-1.058730022018119e+001
1	 2.221361057863212e+000	 1.245412869094703e+000	-1.040007654177621e+001
1	 2.207720846895866e+000	 1.269435551618554e+000	-1.064128714228792e+001
1	 2.193800649284738e+000	 1.293343123186194e+000	-1.084528911647487e+001
1	 2.179601790896790e+000	 1.317130785109783e+000	-1.101198452872294e+001
1	 2.165125705569765e+000	 1.340793755480339e+000	-1.114132864246805e+001
1	 2.150373934978784e+000	 1.364327272163235e+000	-1.123333014523627e+001
1	 2.135348128404301e+000	 1.387726595799624e+000	-1.128805129196434e+001
1	 2.120050042400782e+000	 1.410987012810020e+000	-1.130560796560911e+001
1	 2.104481540365685e+000	 1.434103838396245e+000	-1.128616965424409e+001
1	 2.088644592008473e+000	 1.457072419537925e+000	-1.122995934403359e+001
1	 2.072541272719534e+000	 1.479888137979660e+000	-1.113725332767416e+001
1	 2.244622570450384e+000	 1.258454507248502e+000	-1.118747391872329e+001
1	 2.230839522757925e+000	 1.282728749027128e+000	-1.140286557233983e+001
1	 2.216773556474716e+000	 1.306886674437748e+000	-1.158106761829114e+001
1	 2.202426011351853e+000	 1.330923434541903e+000	-1.172203363197001e+001
1	 2.187798336241849e+000	 1.354834197355694e+000	-1.182576892923700e+001
1	 2.172892088963843e+000	 1.378614150876649e+000	-1.189233069063121e+001
1	 2.157708936069120e+000	 1.402258506116577e+000	-1.192182800554904e+001
1	 2.142250652506323e+000	 1.425762500136603e+000	-1.191442183562705e+001
1	 2.126519121185921e+000	 1.449121399080551e+000	-1.187032489675082e+001
1	 2.110516332443656e+000	 1.472330501202816e+000	-1.178980145930322e+001
1	 2.094244383402860e+000	 1.495385139886820e+000	-1.167316706645955e+001
1	 2.267884083038025e+000	 1.271496145402371e+000	-1.196059666462403e+001
1	 2.253958198620401e+000	 1.296021946435735e+000	-1.214976885092368e+001
1	 2.239746463665040e+000	 1.320430225689309e+000	-1.230184855806073e+001
1	 2.225250231807174e+000	 1.344716083974012e+000	-1.241685408347562e+001
1	 2.210470966914093e+000	 1.368874639231026e+000	-1.249485336299284e+001
1	 2.195410242948958e+000	 1.392901029590033e+000	-1.253596396786803e+001
1	 2.180069743733891e+000	 1.416790416433498e+000	-1.254035302441393e+001
1	 2.164451262611717e+000	 1.440537987463154e+000	-1.250823705573030e+001
1	 2.148556702005920e+000	 1.464138959764829e+000	-1.243988174524650e+001
1	 2.132388072878527e+000	 1.487588582867685e+000	-1.233560162197088e+001
1	 2.115947494085821e+000	 1.510882141793964e+000	-1.219575966753058e+001
1	 1.898916387255753e+000	 1.355912122719749e+000	-6.277299339234982e+000
1	 1.883920047133223e+000	 1.376672225183124e+000	-6.371448282949805e+000
1	 1.868683738580113e+000	 1.397283911780662e+000	-6.445979740253234e+000
1	 1.853209646065358e+000	 1.417743060129417e+000	-6.501375149343410e+000
1	 1.837500047710095e+000	 1.438045590410163e+000	-6.538150291079917e+000
1	 1.821557314259136e+000	 1.458187468011342e+000	-6.556854668666936e+000
1	 1.805383907963363e+000	 1.478164706143358e+000	-6.558070830449933e+000
1	 1.788982381374034e+000	 1.497973368419746e+000	-6.542413636886369e+000
1	 1.772355376050135e+000	 1.517609571401743e+000	-6.510529472893975e+000
1	 1.755505621180099e+000	 1.537069487102881e+000	-6.463095406919617e+000
1	 1.738435932119337e+000	 1.556349345450221e+000	-6.400818298208960e+000
1	 1.920619497937210e+000	 1.371409124627651e+000	-6.948443407051370e+000
1	 1.905451761521779e+000	 1.392406498623549e+000	-7.012857606235316e+000
1	 1.890041314026554e+000	 1.413253760477749e+000	-7.056357093742207e+000
1	 1.874390364887229e+000	 1.433946740691739e+000	-7.079720323700251e+000
1	 1.858501218262075e+000	 1.454481312817197e+000	-7.083766368357866e+000
1	 1.842376271991649e+000	 1.474853396130154e+000	-7.069353772107984e+000
1	 1.826018016468425e+000	 1.495058958275174e+000	-7.037379335194902e+000
1	 1.809429033417307e+000	 1.515094017876017e+000	-6.988776829233517e+000
1	 1.792611994588222e+000	 1.534954647109299e+000	-6.924515646852129e+000
1	 1.775569660362075e+000	 1.554636974237703e+000	-6.845599387944819e+000
1	 1.758304878271573e+000	 1.574137186099347e+000	-6.753064385188758e+000
1	 1.942322608619368e+000	 1.386906126535401e+000	-7.599558965447374e+000
1	 1.926983475911071e+000	 1.408140772063863e+000	-7.634933832389669e+000
1	 1.911398889473761e+000	 1.429223609174760e+000	-7.648380452717648e+000
1	 1.895571083709891e+000	 1.450150421254014e+000	-7.640901312110843e+000
1	 1.879502388814862e+000	 1.470917035224207e+000	-7.613544263188886e+000
1	 1.863195229724979e+000	 1.491519324248965e+000	-7.567400973495445e+000
1	 1.846652124974303e+000	 1.511953210407012e+000	-7.503605292933884e+000
1	 1.829875685461390e+000	 1.532214667332336e+000	-7.423331543615163e+000
1	 1.812868613127101e+000	 1.552299722816931e+000	-7.327792735288473e+000
1	 1.795633699544820e+000	 1.572204461372634e+000	-7.218238709728339e+000
1	 1.778173824424543e+000	 1.591925026748623e+000	-7.095954217643842e+000
1	 1.964025719302089e+000	 1.402403128443016e+000	-8.231618347919444e+000
1	 1.948515190300958e+000	 1.423875045504080e+000	-8.238671959661412e+000
1	 1.932756464921588e+000	 1.445193457871702e+000	-8.223034402549011e+000
1	 1.916751802533197e+000	 1.466354101816245e+000	-8.185861608012253e+000
1	 1.900503559368311e+000	 1.487352757631197e+000	-8.128358131834357e+000
1	 1.884014187458984e+000	 1.508185252367777e+000	-8.051775313403619e+000
1	 1.867286233480864e+000	 1.528847462538871e+000	-7.957409347329632e+000
1	 1.850322337506155e+000	 1.549335316788697e+000	-7.846599270979906e+000
1	 1.833125231666657e+000	 1.569644798524629e+000	-7.720724871723743e+000
1	 1.815697738728224e+000	 1.589771948507661e+000	-7.581204517891221e+000
1	 1.798042770578147e+000	 1.609712867398032e+000	-7.429492917665683e+000
1	 1.985728829985245e+000	 1.417900130350514e+000	-8.845551379318902e+000
1	 1.970046904691298e+000	 1.439609318944210e+000	-8.825023486791960e+000
1	 1.954114040369892e+000	 1.461163306568586e+000	-8.781260484330414e+000
1	 1.937932521356999e+000	 1.482557782378440e+000	-8.715503457030357e+000
1	 1.921504729922277e+000	 1.503788480038169e+000	-8.629043914039206e+000
1	 1.904833145193523e+000	 1.524851180486588e+000	-8.523221774174594e+000
1	 1.887920341987971e+000	 1.545741714670747e+000	-8.399423259909518e+000
1	 1.870768989551473e+000	 1.566455966245095e+000	-8.259078703643940e+000
1	 1.853381850206766e+000	 1.586989874232387e+000	-8.103660270425934e+000
1	 1.835761777912176e+000	 1.607339435642774e+000	-7.934679601517316e+000
1	 1.817911716732283e+000	 1.627500708047558e+000	-7.753685383417853e+000
1	 2.007431940668699e+000	 1.433397132257910e+000	-9.442247673737532e+000
1	 1.991578619081951e+000	 1.455343592384267e+000	-9.394898764464312e+000
1	 1.975471615818525e+000	 1.477133155265418e+000	-9.323959521720987e+000
1	 1.959113240181150e+000	 1.498761462940601e+000	-9.230690086708901e+000
1	 1.942505900476613e+000	 1.520224202445125e+000	-9.116401398898478e+000
1	 1.925652102928453e+000	 1.541517108605399e+000	-8.982453121000891e+000
1	 1.908554450495487e+000	 1.562635966802638e+000	-8.830251471344601e+000
1	 1.891215641597216e+000	 1.583576615701524e+000	-8.661246967714453e+000
1	 1.873638468747310e+000	 1.604334949940195e+000	-8.476932086955785e+000
1	 1.855825817096565e+000	 1.624906922777959e+000	-8.278838844881566e+000
1	 1.837780662886853e+000	 1.645288548697183e+000	-8.068536301240961e+000
1	 2.029135051352320e+000	 1.448894134165222e+000	-1.002255878492776e+001
1	 2.013110333472775e+000	 1.471077865824263e+000	-9.949169195848597e+000
1	 1.996829191267341e+000	 1.493103003962208e+000	-9.851993798461241e+000
1	 1.980293959005503e+000	 1.514965143502737e+000	-9.732247793146618e+000
1	 1.963507071031173e+000	 1.536659924852067e+000	-9.591196158147909e+000
1	 1.946471060663631e+000	 1.558183036724210e+000	-9.430151624857274e+000
1	 1.929188559003277e+000	 1.579530218934542e+000	-9.250472562533794e+000
1	 1.911662293643256e+000	 1.600697265157979e+000	-9.053560776422884e+000
1	 1.893895087288171e+000	 1.621680025648045e+000	-8.840859223487213e+000
1	 1.875889856281285e+000	 1.642474409913205e+000	-8.613849650189133e+000
1	 1.857649609041755e+000	 1.663076389346893e+000	-8.374050156980463e+000
1	 2.050838162035976e+000	 1.464391136072466e+000	-1.058730022018119e+001
1	 2.034642047863630e+000	 1.486812139264209e+000	-1.048866929742338e+001
1	 2.018186766716196e+000	 1.509072852658963e+000	-1.036618909762733e+001
1	 2.001474677829912e+000	 1.531168824064851e+000	-1.022096789514266e+001
1	 1.984508241585813e+000	 1.553095647259000e+000	-1.005416135669944e+001
1	 1.967290018398918e+000	 1.574848964843020e+000	-9.866970676034715e+000
1	 1.949822667511206e+000	 1.596424471066456e+000	-9.660640622916532e+000
1	 1.932108945689465e+000	 1.617817914614456e+000	-9.436457510226930e+000
1	 1.914151705829227e+000	 1.639025101355928e+000	-9.195747082993449e+000
1	 1.895953895466221e+000	 1.660041897048499e+000	-8.939872333472589e+000
1	 1.877518555196891e+000	 1.680864229996669e+000	-8.670231246595479e+000
1	 2.072541272719534e+000	 1.479888137979660e+000	-1.113725332767416e+001
1	 2.056173762254374e+000	 1.502546412704118e+000	-1.101419863031476e+001
1	 2.039544342164942e+000	 1.525042701355693e+000	-1.086733661275823e+001
1	 2.022655396654228e+000	 1.547372504626949e+000	-1.069760856556239e+001
1	 2.005509412140386e+000	 1.569531369665925e+000	-1.050599944942033e+001
1	 1.988108976134170e+000	 1.591514892961830e+000	-1.029353629629536e+001
1	 1.970456776019137e+000	 1.613318723198377e+000	-1.006128653281340e+001
1	 1.952555597735713e+000	 1.634938564070948e+000	-9.810356229049281e+000
1	 1.934408324370359e+000	 1.656370177063836e+000	-9.541888276047647e+000
1	 1.916017934651266e+000	 1.677609384183830e+000	-9.257060495614411e+000
1	 1.897387501352160e+000	 1.698652070646494e+000	-8.957083686100859e+000
1	 2.094244383402860e+000	 1.495385139886820e+000	-1.167316706645955e+001
1	 2.077705476644865e+000	 1.518280686144003e+000	-1.152652361154594e+001
1	 2.060901917613437e+000	 1.541012550052406e+000	-1.135619474015027e+001
1	 2.043836115478307e+000	 1.563576185189036e+000	-1.116289654882998e+001
1	 2.026510582694749e+000	 1.585967092072844e+000	-1.094738377240741e+001
1	 2.008927933869246e+000	 1.608180821080641e+000	-1.071044855700226e+001
1	 1.991090884526934e+000	 1.630212975330303e+000	-1.045291916603192e+001
1	 1.973002249781873e+000	 1.652059213527451e+000	-1.017565862157598e+001
1	 1.954664942911449e+000	 1.673715252771761e+000	-9.879563283674894e+000
1	 1.936081973836309e+000	 1.695176871319185e+000	-9.565561370299824e+000
1	 1.917256447507461e+000	 1.716439911296353e+000	-9.234611420891197e+000
1	 2.115947494085821e+000	 1.510882141793964e+000	-1.219575966753058e+001
1	 2.099237191034965e+000	 1.534014959583876e+000	-1.202637921381973e+001
1	 2.082259493061533e+000	 1.556982398749111e+000	-1.183349076085102e+001
1	 2.065016834301999e+000	 1.579779865751119e+000	-1.161752877272387e+001
1	 2.047511753248752e+000	 1.602402814479762e+000	-1.137896003633199e+001
1	 2.029746891604005e+000	 1.624846749199452e+000	-1.111828290997584e+001
1	 2.011724993034463e+000	 1.647107227462233e+000	-1.083602651846199e+001
1	 1.993448901827818e+000	 1.669179862983960e+000	-1.053274989613364e+001
1	 1.974921561452376e+000	 1.691060328479695e+000	-1.020904107941138e+001
1	 1.956146013021241e+000	 1.712744358454552e+000	-9.865516150556058e+000
1	 1.937125393662695e+000	 1.734227751946229e+000	-9.502818234490990e+000
1	 1.738435932119337e+000	 1.556349345450221e+000	-6.400818298208959e+000
1	 1.721151818107034e+000	 1.575442586637168e+000	-6.327935564295108e+000
1	 1.703653718137051e+000	 1.594348471918019e+000	-6.248716527998810e+000
1	 1.685944696578731e+000	 1.613063422360952e+000	-6.163975544821025e+000
1	 1.668027897230322e+000	 1.631583926286766e+000	-6.074534949801008e+000
1	 1.649906541462033e+000	 1.649906541462033e+000	-5.981224017123596e+000
1	 1.631583926286766e+000	 1.668027897230322e+000	-5.884877908783323e+000
1	 1.613063422360952e+000	 1.685944696578731e+000	-5.786336614345649e+000
1	 1.594348471918019e+000	 1.703653718137050e+000	-5.686443883866255e+000
1	 1.575442586637168e+000	 1.721151818107033e+000	-5.586046156046310e+000
1	 1.556349345450221e+000	 1.738435932119337e+000	-5.485991483710443e+000
1	 1.758304878271573e+000	 1.574137186099347e+000	-6.753064385188758e+000
1	 1.740823220522151e+000	 1.593448647914248e+000	-6.651167224469767e+000
1	 1.723125131125022e+000	 1.612570612493426e+000	-6.543809991400283e+000
1	 1.705213709472846e+000	 1.631499460000704e+000	-6.431566781460038e+000
1	 1.687092135294994e+000	 1.650231638621166e+000	-6.315012996964939e+000
1	 1.668763666779383e+000	 1.668763666779383e+000	-6.194724757579529e+000
1	 1.650231638621165e+000	 1.687092135294993e+000	-6.071278311576801e+000
1	 1.631499460000704e+000	 1.705213709472846e+000	-5.945249448905416e+000
1	 1.612570612493427e+000	 1.723125131125022e+000	-5.817212917118344e+000
1	 1.593448647914249e+000	 1.740823220522151e+000	-5.687741841208033e+000
1	 1.574137186099347e+000	 1.758304878271573e+000	-5.557407148380264e+000
1	 1.778173824424543e+000	 1.591925026748623e+000	-7.095954217643843e+000
1	 1.760494622937957e+000	 1.611454709191528e+000	-6.965078217490210e+000
1	 1.742596544113631e+000	 1.630792753069090e+000	-6.829121782724307e+000
1	 1.724482722367538e+000	 1.649935497640772e+000	-6.688508376065718e+000
1	 1.706156373360179e+000	 1.668879350955947e+000	-6.543658349929753e+000
1	 1.687620792097182e+000	 1.687620792097182e+000	-6.394988647412801e+000
1	 1.668879350955947e+000	 1.706156373360179e+000	-6.242912511844986e+000
1	 1.649935497640772e+000	 1.724482722367539e+000	-6.087839205335256e+000
1	 1.630792753069090e+000	 1.742596544113630e+000	-5.930173736710332e+000
1	 1.611454709191528e+000	 1.760494622937957e+000	-5.770316599220705e+000
1	 1.591925026748623e+000	 1.778173824424543e+000	-5.608663518362954e+000
1	 1.798042770578147e+000	 1.609712867398032e+000	-7.429492917665683e+000
1	 1.780166025354362e+000	 1.629460770468984e+000	-7.269509639947906e+000
1	 1.762067957102794e+000	 1.649014893644980e+000	-7.104382229542289e+000
1	 1.743751735262737e+000	 1.668371535281121e+000	-6.934470137089679e+000
1	 1.725220611425817e+000	 1.687527063291067e+000	-6.760127492077110e+000
1	 1.706477917415378e+000	 1.706477917415378e+000	-6.581702936926249e+000
1	 1.687527063291067e+000	 1.725220611425817e+000	-6.399539473664743e+000
1	 1.668371535281121e+000	 1.743751735262737e+000	-6.213974323310189e+000
1	 1.649014893644980e+000	 1.762067957102794e+000	-6.025338798063240e+000
1	 1.629460770468985e+000	 1.780166025354361e+000	-5.833958186369322e+000
1	 1.609712867398033e+000	 1.798042770578147e+000	-5.640151650876551e+000
1	 1.817911716732283e+000	 1.627500708047558e+000	-7.753685383417853e+000
1	 1.799837427771275e+000	 1.647466831746596e+000	-7.564309535402076e+000
1	 1.781539370092433e+000	 1.667237034221068e+000	-7.369333449012900e+000
1	 1.763020748158372e+000	 1.686807572921716e+000	-7.169136308356328e+000
1	 1.744284849491846e+000	 1.706174775626481e+000	-6.964091924709154e+000
1	 1.725335042733916e+000	 1.725335042733916e+000	-6.754568549269603e+000
1	 1.706174775626481e+000	 1.744284849491846e+000	-6.540928698764456e+000
1	 1.686807572921716e+000	 1.763020748158372e+000	-6.323528994082997e+000
1	 1.667237034221068e+000	 1.781539370092433e+000	-6.102720012070104e+000
1	 1.647466831746596e+000	 1.799837427771274e+000	-5.878846150576903e+000
1	 1.627500708047558e+000	 1.817911716732282e+000	-5.652245506830963e+000
1	 1.837780662886853e+000	 1.645288548697183e+000	-8.068536301240961e+000
1	 1.819508830188606e+000	 1.665472893024340e+000	-7.849332518848287e+000
1	 1.801010783082467e+000	 1.685459174797326e+000	-7.623728710573670e+000
1	 1.782289761054373e+000	 1.705243610562521e+000	-7.392204788731431e+000
1	 1.763349087558206e+000	 1.724822487962146e+000	-7.155237355226485e+000
1	 1.744192168052746e+000	 1.744192168052746e+000	-6.913299341327569e+000
1	 1.724822487962147e+000	 1.763349087558206e+000	-6.666859656891027e+000
1	 1.705243610562521e+000	 1.782289761054372e+000	-6.416382849571849e+000
1	 1.685459174797326e+000	 1.801010783082467e+000	-6.162328774531533e+000
1	 1.665472893024340e+000	 1.819508830188606e+000	-5.905152275122716e+000
1	 1.645288548697183e+000	 1.837780662886853e+000	-5.645302875001148e+000
1	 1.857649609041755e+000	 1.663076389346893e+000	-8.374050156980465e+000
1	 1.839180232606266e+000	 1.683478954302194e+000	-8.124439425286212e+000
1	 1.820482196072817e+000	 1.703681315373725e+000	-7.867331839531052e+000
1	 1.801558773950668e+000	 1.723679648203500e+000	-7.603386401867763e+000
1	 1.782413325624836e+000	 1.743470200298019e+000	-7.333262937403746e+000
1	 1.763049293371817e+000	 1.763049293371817e+000	-7.057621412040389e+000
1	 1.743470200298020e+000	 1.782413325624836e+000	-6.777121252732950e+000
1	 1.723679648203500e+000	 1.801558773950668e+000	-6.492420671400287e+000
1	 1.703681315373725e+000	 1.820482196072817e+000	-6.204175993701854e+000
1	 1.683478954302194e+000	 1.839180232606266e+000	-5.913040993885721e+000
1	 1.663076389346893e+000	 1.857649609041755e+000	-5.619666236892284e+000
1	 1.877518555196891e+000	 1.680864229996669e+000	-8.670231246595478e+000
1	 1.858851635024165e+000	 1.701485015580137e+000	-8.389496980601937e+000
1	 1.839953609063402e+000	 1.721903455950237e+000	-8.099916658520250e+000
1	 1.820827786847187e+000	 1.742115685844617e+000	-7.802404212318721e+000
1	 1.801477563691672e+000	 1.762117912634055e+000	-7.497880559904802e+000
1	 1.781906418691073e+000	 1.781906418691073e+000	-7.187272454642281e+000
1	 1.762117912634056e+000	 1.801477563691673e+000	-6.871511326691259e+000
1	 1.742115685844617e+000	 1.820827786847188e+000	-6.551532118411953e+000
1	 1.721903455950237e+000	 1.839953609063402e+000	-6.228272116086671e+000
1	 1.701485015580137e+000	 1.858851635024164e+000	-5.902669780221615e+000
1	 1.680864229996668e+000	 1.877518555196891e+000	-5.575663576689993e+000
1	 1.897387501352160e+000	 1.698652070646494e+000	-8.957083686100859e+000
1	 1.878523037442211e+000	 1.719491076858146e+000	-8.644377493128747e+000
1	 1.859425022054142e+000	 1.740125596526833e+000	-8.321266464057860e+000
1	 1.840096799743862e+000	 1.760551723485837e+000	-7.988992884620568e+000
1	 1.820541801758657e+000	 1.780765624970212e+000	-7.648814179500355e+000
1	 1.800763544010466e+000	 1.800763544010466e+000	-7.302001149599462e+000
1	 1.780765624970212e+000	 1.820541801758657e+000	-6.949836187017113e+000
1	 1.760551723485837e+000	 1.840096799743862e+000	-6.593611471305641e+000
1	 1.740125596526834e+000	 1.859425022054142e+000	-6.234627150619340e+000
1	 1.719491076858146e+000	 1.878523037442210e+000	-5.874189511406622e+000
1	 1.698652070646494e+000	 1.897387501352160e+000	-5.513609140320908e+000
1	 1.917256447507461e+000	 1.716439911296353e+000	-9.234611420891195e+000
1	 1.898194439860316e+000	 1.737497138136199e+000	-8.888958564386567e+000
1	 1.878896435044957e+000	 1.758347737103486e+000	-8.531173535642569e+000
1	 1.859365812640619e+000	 1.778987761127123e+000	-8.162898082226825e+000
1	 1.839606039825727e+000	 1.799413337306444e+000	-7.785799195745857e+000
1	 1.819620669329943e+000	 1.819620669329942e+000	-7.401566595294677e+000
1	 1.799413337306445e+000	 1.839606039825728e+000	-7.011910171041012e+000
1	 1.778987761127124e+000	 1.859365812640618e+000	-6.618557393148786e+000
1	 1.758347737103486e+000	 1.878896435044956e+000	-6.223250691334138e+000
1	 1.737497138136199e+000	 1.898194439860315e+000	-5.827744810420510e+000
1	 1.716439911296353e+000	 1.917256447507461e+000	-5.433804147315472e+000
1	 1.937125393662695e+000	 1.734227751946229e+000	-9.502818234490988e+000
1	 1.917865842278389e+000	 1.755503199414275e+000	-9.123122817622878e+000
1	 1.898367848035766e+000	 1.776569877680165e+000	-8.729438675066071e+000
1	 1.878634825537390e+000	 1.797423798768442e+000	-8.323875903432819e+000
1	 1.858670277892823e+000	 1.818061049642710e+000	-7.908581864142617e+000
1	 1.838477794649450e+000	 1.838477794649450e+000	-7.485737773748178e+000
1	 1.818061049642710e+000	 1.858670277892823e+000	-7.057555233404405e+000
1	 1.797423798768442e+000	 1.878634825537389e+000	-6.626272704629315e+000
1	 1.776569877680165e+000	 1.898367848035765e+000	-6.194151938644094e+000
1	 1.755503199414276e+000	 1.917865842278388e+000	-5.763474366695826e+000
1	 1.734227751946229e+000	 1.937125393662695e+000	-5.336537458861608e+000
1	 1.556349345450221e+000	 1.738435932119337e+000	-5.485991483710442e+000
1	 1.537069487102882e+000	 1.755505621180099e+000	-5.392284018168337e+000
1	 1.517609571401743e+000	 1.772355376050134e+000	-5.310921680764193e+000
1	 1.497973368419745e+000	 1.788982381374034e+000	-5.242691697255267e+000
1	 1.478164706143359e+000	 1.805383907963363e+000	-5.188370804935623e+000
1	 1.458187468011342e+000	 1.821557314259135e+000	-5.148724195287004e+000
1	 1.438045590410164e+000	 1.837500047710094e+000	-5.124504476355789e+000
1	 1.417743060129417e+000	 1.853209646065358e+000	-5.116450656855241e+000
1	 1.397283911780662e+000	 1.868683738580113e+000	-5.125287153928678e+000
1	 1.376672225183125e+000	 1.883920047133223e+000	-5.151722826446169e+000
1	 1.355912122719749e+000	 1.898916387255753e+000	-5.196450035633202e+000
1	 1.574137186099347e+000	 1.758304878271573e+000	-5.557407148380264e+000
1	 1.554636974237704e+000	 1.775569660362075e+000	-5.432075855604034e+000
1	 1.534954647109300e+000	 1.792611994588221e+000	-5.318002159505010e+000
1	 1.515094017876017e+000	 1.809429033417307e+000	-5.216277096966585e+000
1	 1.495058958275175e+000	 1.826018016468425e+000	-5.127990497497993e+000
1	 1.474853396130154e+000	 1.842376271991649e+000	-5.054229316587601e+000
1	 1.454481312817197e+000	 1.858501218262074e+000	-4.996075975506336e+000
1	 1.433946740691740e+000	 1.874390364887229e+000	-4.954606710943752e+000
1	 1.413253760477749e+000	 1.890041314026553e+000	-4.930889937820228e+000
1	 1.392406498623550e+000	 1.905451761521779e+000	-4.925984628572564e+000
1	 1.371409124627651e+000	 1.920619497937211e+000	-4.940938712151890e+000
1	 1.591925026748623e+000	 1.778173824424543e+000	-5.608663518362953e+000
1	 1.572204461372635e+000	 1.795633699544820e+000	-5.451158488350709e+000
1	 1.552299722816932e+000	 1.812868613127101e+000	-5.304405783680629e+000
1	 1.532214667332337e+000	 1.829875685461390e+000	-5.169720454954109e+000
1	 1.511953210407012e+000	 1.846652124974303e+000	-5.048423488428853e+000
1	 1.491519324248966e+000	 1.863195229724979e+000	-4.941839680653906e+000
1	 1.470917035224208e+000	 1.879502388814862e+000	-4.851295509162743e+000
1	 1.450150421254014e+000	 1.895571083709891e+000	-4.778117003653572e+000
1	 1.429223609174760e+000	 1.911398889473760e+000	-4.723627622068494e+000
1	 1.408140772063864e+000	 1.926983475911070e+000	-4.689146135948889e+000
1	 1.386906126535400e+000	 1.942322608619367e+000	-4.675984529400863e+000
1	 1.609712867398033e+000	 1.798042770578147e+000	-5.640151650876550e+000
1	 1.589771948507662e+000	 1.815697738728223e+000	-5.450110417356327e+000
1	 1.569644798524630e+000	 1.833125231666656e+000	-5.270842720300964e+000
1	 1.549335316788698e+000	 1.850322337506155e+000	-5.103810559832574e+000
1	 1.528847462538872e+000	 1.867286233480864e+000	-4.950486922709279e+000
1	 1.508185252367777e+000	 1.884014187458984e+000	-4.812353345882450e+000
1	 1.487352757631197e+000	 1.900503559368311e+000	-4.690897468553402e+000
1	 1.466354101816246e+000	 1.916751802533196e+000	-4.587610577876760e+000
1	 1.445193457871703e+000	 1.932756464921588e+000	-4.503985153454189e+000
1	 1.423875045504081e+000	 1.948515190300957e+000	-4.441512415739275e+000
1	 1.402403128443016e+000	 1.964025719302089e+000	-4.401679883439428e+000
1	 1.627500708047558e+000	 1.817911716732282e+000	-5.652245506830963e+000
1	 1.607339435642774e+000	 1.835761777912175e+000	-5.429484852562554e+000
1	 1.586989874232388e+000	 1.853381850206765e+000	-5.217992089169386e+000
1	 1.566455966245095e+000	 1.870768989551472e+000	-5.019301715816601e+000
1	 1.545741714670747e+000	 1.887920341987970e+000	-4.834962221231451e+000
1	 1.524851180486589e+000	 1.904833145193523e+000	-4.666533481011459e+000
1	 1.503788480038169e+000	 1.921504729922276e+000	-4.515584138660845e+000
1	 1.482557782378440e+000	 1.937932521356998e+000	-4.383688975896404e+000
1	 1.461163306568586e+000	 1.954114040369891e+000	-4.272426277768138e+000
1	 1.439609318944211e+000	 1.970046904691297e+000	-4.183375198126504e+000
1	 1.417900130350513e+000	 1.985728829985244e+000	-4.118113130938358e+000
1	 1.645288548697183e+000	 1.837780662886853e+000	-5.645302875001146e+000
1	 1.624906922777959e+000	 1.855825817096565e+000	-5.389811080058016e+000
1	 1.604334949940195e+000	 1.873638468747310e+000	-5.146503641198323e+000
1	 1.583576615701524e+000	 1.891215641597215e+000	-4.916915606840738e+000
1	 1.562635966802639e+000	 1.908554450495486e+000	-4.702597011932503e+000
1	 1.541517108605399e+000	 1.925652102928452e+000	-4.505110251147774e+000
1	 1.520224202445125e+000	 1.942505900476612e+000	-4.326027433785774e+000
1	 1.498761462940602e+000	 1.959113240181149e+000	-4.166927725984321e+000
1	 1.477133155265419e+000	 1.975471615818524e+000	-4.029394685871143e+000
1	 1.455343592384268e+000	 1.991578619081950e+000	-3.915013597267917e+000
1	 1.433397132257910e+000	 2.007431940668699e+000	-3.825368807536474e+000
1	 1.663076389346893e+000	 1.857649609041755e+000	-5.619666236892284e+000
1	 1.642474409913206e+000	 1.875889856281284e+000	-5.331595741495420e+000
1	 1.621680025648045e+000	 1.893895087288170e+000	-5.056999329020124e+000
1	 1.600697265157980e+000	 1.911662293643256e+000	-4.797343041050288e+000
1	 1.579530218934543e+000	 1.929188559003277e+000	-4.554106936998506e+000
1	 1.558183036724210e+000	 1.946471060663631e+000	-4.328782582758919e+000
1	 1.536659924852068e+000	 1.963507071031173e+000	-4.122870521732509e+000
1	 1.514965143502738e+000	 1.980293959005503e+000	-3.937877733597325e+000
1	 1.493103003962208e+000	 1.996829191267340e+000	-3.775315086205886e+000
1	 1.471077865824264e+000	 2.013110333472775e+000	-3.636694785984389e+000
1	 1.448894134165222e+000	 2.029135051352321e+000	-3.523527832184756e+000
1	 1.680864229996668e+000	 1.877518555196891e+000	-5.575663576689992e+000
1	 1.660041897048500e+000	 1.895953895466221e+000	-5.255324032271616e+000
1	 1.639025101355928e+000	 1.914151705829226e+000	-4.950074777871382e+000
1	 1.617817914614457e+000	 1.932108945689464e+000	-4.661245584525290e+000
1	 1.596424471066456e+000	 1.949822667511205e+000	-4.390177345319392e+000
1	 1.574848964843021e+000	 1.967290018398917e+000	-4.138219816596479e+000
1	 1.553095647259001e+000	 1.984508241585813e+000	-3.906729344866196e+000
1	 1.531168824064851e+000	 2.001474677829911e+000	-3.697066584238822e+000
1	 1.509072852658964e+000	 2.018186766716196e+000	-3.510594209209693e+000
1	 1.486812139264209e+000	 2.034642047863629e+000	-3.348674627609640e+000
1	 1.464391136072466e+000	 2.050838162035976e+000	-3.212667698515164e+000
1	 1.698652070646494e+000	 1.897387501352160e+000	-5.513609140320907e+000
1	 1.677609384183830e+000	 1.916017934651265e+000	-5.161460824425562e+000
1	 1.656370177063837e+000	 1.934408324370359e+000	-4.826300664060870e+000
1	 1.634938564070949e+000	 1.952555597735713e+000	-4.509257092356659e+000
1	 1.613318723198378e+000	 1.970456776019136e+000	-4.211464878606567e+000
1	 1.591514892961831e+000	 1.988108976134169e+000	-3.934063256765494e+000
1	 1.569531369665925e+000	 2.005509412140386e+000	-3.678194045600895e+000
1	 1.547372504626949e+000	 2.022655396654229e+000	-3.444999764461016e+000
1	 1.525042701355693e+000	 2.039544342164942e+000	-3.235621748619298e+000
1	 1.502546412704118e+000	 2.056173762254373e+000	-3.051198268140219e+000
1	 1.479888137979660e+000	 2.072541272719535e+000	-2.892862654185882e+000
1	 1.716439911296353e+000	 1.917256447507461e+000	-5.433804147315474e+000
1	 1.695176871319185e+000	 1.936081973836309e+000	-5.050451719715026e+000
1	 1.673715252771762e+000	 1.954664942911448e+000	-4.686224007725409e+000
1	 1.652059213527451e+000	 1.973002249781873e+000	-4.341985144521493e+000
1	 1.630212975330304e+000	 1.991090884526934e+000	-4.018598958886631e+000
1	 1.608180821080641e+000	 2.008927933869245e+000	-3.716927623473758e+000
1	 1.585967092072845e+000	 2.026510582694747e+000	-3.437830303252557e+000
1	 1.563576185189036e+000	 2.043836115478306e+000	-3.182161806946334e+000
1	 1.541012550052406e+000	 2.060901917613436e+000	-2.950771244245921e+000
1	 1.518280686144003e+000	 2.077705476644865e+000	-2.744500691565902e+000
1	 1.495385139886820e+000	 2.094244383402860e+000	-2.564183869075103e+000
1	 1.734227751946229e+000	 1.937125393662695e+000	-5.336537458861614e+000
1	 1.712744358454553e+000	 1.956146013021240e+000	-4.922724037885651e+000
1	 1.691060328479696e+000	 1.974921561452375e+000	-4.530369386027640e+000
1	 1.669179862983960e+000	 1.993448901827817e+000	-4.160012393391963e+000
1	 1.647107227462233e+000	 2.011724993034462e+000	-3.812183184452204e+000
1	 1.624846749199453e+000	 2.029746891604005e+000	-3.487402416376916e+000
1	 1.602402814479763e+000	 2.047511753248752e+000	-3.186180588619283e+000
1	 1.579779865751119e+000	 2.065016834301999e+000	-2.909017365118210e+000
1	 1.556982398749112e+000	 2.082259493061532e+000	-2.656400910423336e+000
1	 1.534014959583876e+000	 2.099237191034965e+000	-2.428807241024247e+000
1	 1.510882141793964e+000	 2.115947494085821e+000	-2.226699593123438e+000
1	 1.355912122719749e+000	 1.898916387255753e+000	-5.196450035633202e+000
1	 1.335007766215311e+000	 1.913670668530300e+000	-5.268382134287589e+000
1	 1.313963352917359e+000	 1.928180893807916e+000	-5.376554114538598e+000
1	 1.292783114191905e+000	 1.942445161561669e+000	-5.521809960013448e+000
1	 1.271471313257540e+000	 1.956461667092249e+000	-5.704968779032506e+000
1	 1.250032242448504e+000	 1.970228703106179e+000	-5.926823601453409e+000
1	 1.228470220469227e+000	 1.983744660202318e+000	-6.188140218268775e+000
1	 1.206789589643861e+000	 1.997008027266777e+000	-6.489656066046446e+000
1	 1.184994713164320e+000	 2.010017391776478e+000	-6.832079158177042e+000
1	 1.163089972340300e+000	 2.022771440011765e+000	-7.216087064764922e+000
1	 1.141079763854727e+000	 2.035268957178629e+000	-7.642325942866382e+000
1	 1.371409124627651e+000	 1.920619497937211e+000	-4.940938712151890e+000
1	 1.350265847881186e+000	 1.935542408963624e+000	-4.984968263192346e+000
1	 1.328980913602921e+000	 1.950218474626249e+000	-5.067237108488832e+000
1	 1.307558601520036e+000	 1.964645771665227e+000	-5.188682862492252e+000
1	 1.286003223576339e+000	 1.978822474754979e+000	-5.350211775923198e+000
1	 1.264319121164056e+000	 1.992746857089031e+000	-5.552697426406840e+000
1	 1.242510662346994e+000	 2.006417290872078e+000	-5.796979463950733e+000
1	 1.220582239078634e+000	 2.019832247719413e+000	-6.083862413439445e+000
1	 1.198538264418724e+000	 2.032990298963953e+000	-6.414114536167066e+000
1	 1.176383169751866e+000	 2.045890115871281e+000	-6.788466752268197e+000
1	 1.154121402011592e+000	 2.058530469763272e+000	-7.207611625745191e+000
1	 1.386906126535400e+000	 1.942322608619367e+000	-4.675984529400863e+000
1	 1.365523929546859e+000	 1.957414149397602e+000	-4.693467555964078e+000
1	 1.343998474288225e+000	 1.972256055445191e+000	-4.750754925032309e+000
1	 1.322334088847848e+000	 1.986846381769343e+000	-4.848878313669737e+000
1	 1.300535133894754e+000	 2.001183282418213e+000	-4.988833012985089e+000
1	 1.278605999879158e+000	 2.015265011072331e+000	-5.171576494882928e+000
1	 1.256551104224243e+000	 2.029089921542231e+000	-5.398027043442722e+000
1	 1.234374888512827e+000	 2.042656468172388e+000	-5.669062453252420e+000
1	 1.212081815672490e+000	 2.055963206151714e+000	-5.985518796840911e+000
1	 1.189676367162742e+000	 2.069008791731038e+000	-6.348189263168132e+000
1	 1.167163040167724e+000	 2.081791982348114e+000	-6.757823068942833e+000
1	 1.402403128443016e+000	 1.964025719302089e+000	-4.401679883439428e+000
1	 1.380782011212353e+000	 1.979285889832116e+000	-4.393761653873901e+000
1	 1.359016034973300e+000	 1.994293636264635e+000	-4.426813020034177e+000
1	 1.337109576175376e+000	 2.009046991873926e+000	-4.501960058937570e+000
1	 1.315067044212828e+000	 2.023544090081880e+000	-4.620288874804059e+000
1	 1.292892878593861e+000	 2.037783165056029e+000	-4.782844024562199e+000
1	 1.270591546101038e+000	 2.051762552212749e+000	-4.990627015506153e+000
1	 1.248167537946512e+000	 2.065480688625692e+000	-5.244594877643247e+000
1	 1.225625366925699e+000	 2.078936113339772e+000	-5.545658813069516e+000
1	 1.202969564573017e+000	 2.092127467591057e+000	-5.894682924502514e+000
1	 1.180204678323221e+000	 2.105053494933187e+000	-6.292483024890064e+000
1	 1.417900130350513e+000	 1.985728829985244e+000	-4.118113130938358e+000
1	 1.396040092877691e+000	 2.001157630267043e+000	-4.085737372619352e+000
1	 1.374033595658174e+000	 2.016331217084475e+000	-4.095129726290359e+000
1	 1.351885063502655e+000	 2.031247601978889e+000	-4.147510915941782e+000
1	 1.329598954530604e+000	 2.045904897745909e+000	-4.244059511838620e+000
1	 1.307179757308218e+000	 2.060301319040077e+000	-4.385910197721740e+000
1	 1.284631987977440e+000	 2.074435182883600e+000	-4.574152115455940e+000
1	 1.261960187379759e+000	 2.088304909079316e+000	-4.809827289941557e+000
1	 1.239168918178430e+000	 2.101909020528132e+000	-5.093929136886240e+000
1	 1.216262761982782e+000	 2.115246143451361e+000	-5.427401055807584e+000
1	 1.193246316478183e+000	 2.128315007518526e+000	-5.811135110410705e+000
1	 1.433397132257910e+000	 2.007431940668699e+000	-3.825368807536474e+000
1	 1.411298174542895e+000	 2.023029370702264e+000	-3.769286422610392e+000
1	 1.389051156342877e+000	 2.038368797904605e+000	-3.755435557440412e+000
1	 1.366660550829724e+000	 2.053448212084144e+000	-3.785131743595283e+000
1	 1.344130864848129e+000	 2.068265705410236e+000	-3.859647555710630e+000
1	 1.321466636022281e+000	 2.082819473024427e+000	-3.980210703612546e+000
1	 1.298672429853509e+000	 2.097107813554756e+000	-4.148002204994226e+000
1	 1.275752836812638e+000	 2.111129129533246e+000	-4.364154641799818e+000
1	 1.252712469430765e+000	 2.124881927716801e+000	-4.629750503236867e+000
1	 1.229555959392128e+000	 2.138364819311972e+000	-4.945820618101507e+000
1	 1.206287954632712e+000	 2.151576520104164e+000	-5.313342678857385e+000
1	 1.448894134165222e+000	 2.029135051352321e+000	-3.523527832184756e+000
1	 1.426556256207987e+000	 2.044901111137655e+000	-3.444305147206842e+000
1	 1.404068717027438e+000	 2.060406378724920e+000	-3.407472556551527e+000
1	 1.381436038156617e+000	 2.075648822189603e+000	-3.414440477254212e+000
1	 1.358662775165444e+000	 2.090626513074789e+000	-3.466576916941229e+000
1	 1.335753514736104e+000	 2.105337627009026e+000	-3.565205374378939e+000
1	 1.312712871729308e+000	 2.119780444226189e+000	-3.711602821526139e+000
1	 1.289545486245221e+000	 2.133953349987476e+000	-3.906997770640263e+000
1	 1.266256020682782e+000	 2.147854834905786e+000	-4.152568429751176e+000
1	 1.242849156801144e+000	 2.161483495172911e+000	-4.449440949567297e+000
1	 1.219329592786908e+000	 2.174838032690135e+000	-4.798687764626644e+000
1	 1.464391136072466e+000	 2.050838162035976e+000	-3.212667698515164e+000
1	 1.441814337872990e+000	 2.066772851573099e+000	-3.110694277575806e+000
1	 1.419086277711884e+000	 2.082443959545315e+000	-3.050993686064444e+000
1	 1.396211525483371e+000	 2.097849432295178e+000	-3.035071225155575e+000
1	 1.373194685482595e+000	 2.112987320739501e+000	-3.064391659024848e+000
1	 1.350040393449737e+000	 2.127855780993828e+000	-3.140376907590984e+000
1	 1.326753313604897e+000	 2.142453074897867e+000	-3.264403819586528e+000
1	 1.303338135677580e+000	 2.156777570441994e+000	-3.437802029966424e+000
1	 1.279799571934566e+000	 2.170827742095096e+000	-3.661851905421852e+000
1	 1.256142354209923e+000	 2.184602171034202e+000	-3.937782581515291e+000
1	 1.232371230940871e+000	 2.198099545276473e+000	-4.266770094693490e+000
1	 1.479888137979660e+000	 2.072541272719535e+000	-2.892862654185882e+000
1	 1.457072419537926e+000	 2.088644592008472e+000	-2.768358702951961e+000
1	 1.434103838396246e+000	 2.104481540365685e+000	-2.685762256069182e+000
1	 1.410987012810021e+000	 2.120050042400781e+000	-2.646673421626305e+000
1	 1.387726595799625e+000	 2.135348128404301e+000	-2.652654943246027e+000
1	 1.364327272163235e+000	 2.150373934978783e+000	-2.705229669040485e+000
1	 1.340793755480340e+000	 2.165125705569764e+000	-2.805878097627064e+000
1	 1.317130785109784e+000	 2.179601790896790e+000	-2.956036005733223e+000
1	 1.293343123186195e+000	 2.193800649284737e+000	-3.157092161674317e+000
1	 1.269435551618554e+000	 2.207720846895865e+000	-3.410386128738384e+000
1	 1.245412869094703e+000	 2.221361057863212e+000	-3.717206162250195e+000
1	 1.495385139886820e+000	 2.094244383402860e+000	-2.564183869075103e+000
1	 1.472330501202817e+000	 2.110516332443655e+000	-2.417207255182326e+000
1	 1.449121399080551e+000	 2.126519121185921e+000	-2.311551388130285e+000
1	 1.425762500136603e+000	 2.142250652506323e+000	-2.248911032945024e+000
1	 1.402258506116578e+000	 2.157708936069120e+000	-2.230948039106512e+000
1	 1.378614150876650e+000	 2.172892088963843e+000	-2.259288569978445e+000
1	 1.354834197355695e+000	 2.187798336241848e+000	-2.335520403970200e+000
1	 1.330923434541904e+000	 2.202426011351852e+000	-2.461190312532148e+000
1	 1.306886674437749e+000	 2.216773556474716e+000	-2.637801519851267e+000
1	 1.282728749027128e+000	 2.230839522757924e+000	-2.866811248864300e+000
1	 1.258454507248502e+000	 2.244622570450384e+000	-3.149628357947256e+000
1	 1.510882141793964e+000	 2.115947494085821e+000	-2.226699593123438e+000
1	 1.487588582867686e+000	 2.132388072878527e+000	-2.057152506531347e+000
1	 1.464138959764830e+000	 2.148556702005919e+000	-1.928143512109076e+000
1	 1.440537987463155e+000	 2.164451262611716e+000	-1.841461812076732e+000
1	 1.416790416433498e+000	 2.180069743733891e+000	-1.798869395651888e+000
1	 1.392901029590033e+000	 2.195410242948957e+000	-1.802098013449047e+000
1	 1.368874639231027e+000	 2.210470966914092e+000	-1.852846216247096e+000
1	 1.344716083974014e+000	 2.225250231807174e+000	-1.952776463860886e+000
1	 1.320430225689310e+000	 2.239746463665040e+000	-2.103512309623893e+000
1	 1.296021946435735e+000	 2.253958198620400e+000	-2.306635665751360e+000
1	 1.271496145402372e+000	 2.267884083038025e+000	-2.563684154597738e+000
1	 1.141079763854727e+000	 2.035268957178629e+000	-7.642325942866382e+000
1	 1.118971821116124e+000	 2.047507011200338e+000	-8.109706626426904e+000
1	 1.096767268820617e+000	 2.059486480776334e+000	-8.616386908587092e+000
1	 1.074470532596845e+000	 2.071206449790665e+000	-9.161659947858066e+000
1	 1.052086042539205e+000	 2.082666100602788e+000	-9.744823518858084e+000
1	 1.029618230541539e+000	 2.093864713729078e+000	-1.036518228207497e+001
1	 1.007071527655772e+000	 2.104801667440269e+000	-1.102204999194350e+001
1	 9.844503614784809e-001	 2.115476437276296e+000	-1.171475163931320e+001
1	 9.617591535682959e-001	 2.125888595480185e+000	-1.244262552462739e+001
1	 9.390023168969377e-001	 2.136037810352668e+000	-1.320502525838576e+001
1	 9.161842533366134e-001	 2.145923845529373e+000	-1.400132168572192e+001
1	 1.154121402011592e+000	 2.058530469763272e+000	-7.207611625745190e+000
1	 1.131760782993169e+000	 2.070908395051891e+000	-7.670766298813660e+000
1	 1.109302450247109e+000	 2.083024780479415e+000	-8.176291700666496e+000
1	 1.086750879983489e+000	 2.094878699459406e+000	-8.723367905626468e+000
1	 1.064110552929180e+000	 2.106469325006327e+000	-9.311176999190938e+000
1	 1.041385951631064e+000	 2.117795929413423e+000	-9.938905615105902e+000
1	 1.018581557784485e+000	 2.128857883845541e+000	-1.060574741026442e+001
1	 9.957018495899485e-001	 2.139654657848452e+000	-1.131090547295628e+001
1	 9.727512991409993e-001	 2.150185818776249e+000	-1.205359466025789e+001
1	 9.497343698461379e-001	 2.160451031138595e+000	-1.283304386061384e+001
1	 9.266555138874860e-001	 2.170450055869658e+000	-1.364849817793541e+001
1	 1.167163040167724e+000	 2.081791982348114e+000	-6.757823068942831e+000
1	 1.144549744869445e+000	 2.094309778903607e+000	-7.213988978036107e+000
1	 1.121837631672807e+000	 2.106563080182627e+000	-7.715315140563056e+000
1	 1.099031227369319e+000	 2.118550949128249e+000	-8.260909076526463e+000
1	 1.076135063318328e+000	 2.130272549409948e+000	-8.849877627967834e+000
1	 1.053153672719755e+000	 2.141727145097828e+000	-9.481329699267974e+000
1	 1.030091587912362e+000	 2.152914100250859e+000	-1.015437893591631e+001
1	 1.006953337700579e+000	 2.163832878420640e+000	-1.086814633684121e+001
1	 9.837434447128681e-001	 2.174483042072332e+000	-1.162176279566105e+001
1	 9.604664227945042e-001	 2.184864251924533e+000	-1.241437156648776e+001
1	 9.371267744375258e-001	 2.194976266209943e+000	-1.324513065020015e+001
1	 1.180204678323221e+000	 2.105053494933187e+000	-6.292483024890063e+000
1	 1.157338706745061e+000	 2.117711162755524e+000	-6.739011621800790e+000
1	 1.134372813097828e+000	 2.130101379886014e+000	-7.233214396799302e+000
1	 1.111311574754465e+000	 2.142223198797244e+000	-7.774165599884479e+000
1	 1.088159573706788e+000	 2.154075773813694e+000	-8.360936033376319e+000
1	 1.064921393807760e+000	 2.165658360782337e+000	-8.992595932547049e+000
1	 1.041601618039556e+000	 2.176970316656258e+000	-9.668217786484693e+000
1	 1.018204825810531e+000	 2.188011098992889e+000	-1.038687909395124e+001
1	 9.947355902840641e-001	 2.198780265368455e+000	-1.114766504927176e+001
1	 9.711984757422018e-001	 2.209277472710489e+000	-1.194967115356556e+001
1	 9.475980349868981e-001	 2.219502476550226e+000	-1.279200574691932e+001
1	 1.193246316478183e+000	 2.128315007518526e+000	-5.811135110410705e+000
1	 1.170127668620127e+000	 2.141112546607686e+000	-6.245487059361435e+000
1	 1.146907994522294e+000	 2.153639679589622e+000	-6.729757254047320e+000
1	 1.123591922139056e+000	 2.165895448466434e+000	-7.263024767681886e+000
1	 1.100184084094699e+000	 2.177878998217612e+000	-7.844362378960288e+000
1	 1.076689114895223e+000	 2.189589576466989e+000	-8.472839531268669e+000
1	 1.053111648166220e+000	 2.201026533061774e+000	-9.147525234982496e+000
1	 1.029456313919965e+000	 2.212189319565223e+000	-9.867490907400530e+000
1	 1.005727735854751e+000	 2.223077488664635e+000	-1.063181314512570e+001
1	 9.819305286893969e-001	 2.233690693496473e+000	-1.143957642398154e+001
1	 9.580692955357706e-001	 2.244028686890507e+000	-1.228987572184004e+001
1	 1.206287954632712e+000	 2.151576520104164e+000	-5.313342678857383e+000
1	 1.182916630494756e+000	 2.164513930460135e+000	-5.733083133552281e+000
1	 1.159443175946325e+000	 2.177177979293498e+000	-6.204721539253351e+000
1	 1.135872269523221e+000	 2.189567698135869e+000	-6.727378746017783e+000
1	 1.112208594482198e+000	 2.201682222621746e+000	-7.300166388737292e+000
1	 1.088456835982292e+000	 2.213520792151827e+000	-7.922189864259360e+000
1	 1.064621678292506e+000	 2.225082749467441e+000	-8.592551255536591e+000
1	 1.040707802029038e+000	 2.236367540137673e+000	-9.310352197234192e+000
1	 1.016719881425091e+000	 2.247374711960892e+000	-1.007469667748747e+001
1	 9.926625816362552e-001	 2.258103914282495e+000	-1.088469377076844e+001
1	 9.685405560843093e-001	 2.268554897230786e+000	-1.173946029710569e+001
1	 1.219329592786908e+000	 2.174838032690135e+000	-4.798687764626644e+000
1	 1.195705592369057e+000	 2.187915314312910e+000	-5.201481897880662e+000
1	 1.171978357370042e+000	 2.200716278997688e+000	-5.657894584589045e+000
1	 1.148152616907090e+000	 2.213239947805595e+000	-6.167124314448005e+000
1	 1.124233104869424e+000	 2.225485447026141e+000	-6.728357370703494e+000
1	 1.100224557069113e+000	 2.237452007836892e+000	-7.340770765563433e+000
1	 1.076131708418569e+000	 2.249138965873294e+000	-8.003535127637800e+000
1	 1.051959290137910e+000	 2.260545760710265e+000	-8.715817535826304e+000
1	 1.027712026995248e+000	 2.271671935257245e+000	-9.476784294322323e+000
1	 1.003394634582942e+000	 2.282517135068563e+000	-1.028560364366019e+001
1	 9.790118166326809e-001	 2.293081107571061e+000	-1.114144840300443e+001
1	 1.232371230940871e+000	 2.198099545276473e+000	-4.266770094693486e+000
1	 1.208494554243141e+000	 2.211316698166055e+000	-4.650378864601112e+000
1	 1.184513538793564e+000	 2.224254578702237e+000	-5.089072724503909e+000
1	 1.160432964290793e+000	 2.236912197475659e+000	-5.582162621873868e+000
1	 1.136257615256516e+000	 2.249288671430845e+000	-6.128944238846815e+000
1	 1.111992278155832e+000	 2.261383223522225e+000	-6.728700827303451e+000
1	 1.087641738544562e+000	 2.273195182279369e+000	-7.380706002023620e+000
1	 1.063210778246739e+000	 2.284723981283027e+000	-8.084226486424029e+000
1	 1.038704172565385e+000	 2.295969158553711e+000	-8.838524805623610e+000
1	 1.014126687529624e+000	 2.306930355854687e+000	-9.642861921824649e+000
1	 9.894830771810519e-001	 2.317607317911332e+000	-1.049649980725161e+001
1	 1.245412869094703e+000	 2.221361057863212e+000	-3.717206162250195e+000
1	 1.221283516117117e+000	 2.234718082019610e+000	-4.079482300032437e+000
1	 1.197048720217011e+000	 2.247792878407190e+000	-4.498060824377458e+000
1	 1.172713311674460e+000	 2.260584447146108e+000	-4.972398957768959e+000
1	 1.148282125643612e+000	 2.273091895835899e+000	-5.501935533776225e+000
1	 1.123759999242594e+000	 2.285314439207866e+000	-6.086093674140441e+000
1	 1.099151768670637e+000	 2.297251398685701e+000	-6.724283431006654e+000
1	 1.074462266355685e+000	 2.308902201855987e+000	-7.415904389005773e+000
1	 1.049696318135666e+000	 2.320266381850312e+000	-8.160348222102265e+000
1	 1.024858740476467e+000	 2.331343576640875e+000	-8.957001200346211e+000
1	 9.999543377295896e-001	 2.342133528251599e+000	-9.805246641904336e+000
1	 1.258454507248502e+000	 2.244622570450384e+000	-3.149628357947259e+000
1	 1.234072477991097e+000	 2.258119465873619e+000	-3.488512563692201e+000
1	 1.209583901640505e+000	 2.271331178112595e+000	-3.884671838479878e+000
1	 1.184993659058219e+000	 2.284256696816990e+000	-4.337742537630557e+000
1	 1.160306636030850e+000	 2.296895120241353e+000	-4.847339442069028e+000
1	 1.135527720329549e+000	 2.309245654893858e+000	-5.413058220668169e+000
1	 1.110661798796948e+000	 2.321307615092325e+000	-6.034477865826924e+000
1	 1.085713754464906e+000	 2.333080422429173e+000	-6.711163097275502e+000
1	 1.060688463706252e+000	 2.344563605147064e+000	-7.442666729292586e+000
1	 1.035590793423636e+000	 2.355756797427139e+000	-8.228531996715319e+000
1	 1.010425598278460e+000	 2.366659738591860e+000	-9.068294835332575e+000
1	 1.271496145402372e+000	 2.267884083038025e+000	-2.563684154597738e+000
1	 1.246861439865192e+000	 2.281520849728123e+000	-2.877201488101367e+000
1	 1.222119083064165e+000	 2.294869477818498e+000	-3.248726395136195e+000
1	 1.197274006442202e+000	 2.307928946488350e+000	-3.678106301635600e+000
1	 1.172331146418369e+000	 2.320698344647250e+000	-4.165163814426890e+000
1	 1.147295441416840e+000	 2.333176870580243e+000	-4.709698912967125e+000
1	 1.122171828923649e+000	 2.345363831499277e+000	-5.311491123397286e+000
1	 1.096965242574562e+000	 2.357258643002612e+000	-5.970301670300724e+000
1	 1.071680609277309e+000	 2.368860828443987e+000	-6.685875601709077e+000
1	 1.046322846371297e+000	 2.380170018213486e+000	-7.457943883069689e+000
1	 1.020896858827830e+000	 2.391185948932115e+000	-8.286225456065374e+000
1	 9.161842533366134e-001	 2.145923845529373e+000	-1.400132168572193e+001
1	 8.933059157493626e-001	 2.155547983255453e+000	-1.483076037491921e+001
1	 8.703750978801976e-001	 2.164908673947971e+000	-1.569182896514300e+001
1	 8.473961566412127e-001	 2.174005963882928e+000	-1.658315175112418e+001
1	 8.243734281452965e-001	 2.182839991099376e+000	-1.750336988918923e+001
1	 8.013112254104079e-001	 2.191410984317160e+000	-1.845114504789382e+001
1	 7.782138361143611e-001	 2.199719261790046e+000	-1.942516293685656e+001
1	 7.550855204020780e-001	 2.207765230096631e+000	-2.042413670865666e+001
1	 7.319305087471120e-001	 2.215549382871506e+000	-2.144681022909693e+001
1	 7.087529998691580e-001	 2.223072299479171e+000	-2.249196121158187e+001
1	 6.855571587091147e-001	 2.230334643633273e+000	-2.355840421180307e+001
1	 9.266555138874860e-001	 2.170450055869658e+000	-1.364849817793541e+001
1	 9.035156950175444e-001	 2.180184189869629e+000	-1.449896768863960e+001
1	 8.803227960576490e-001	 2.189651865845055e+000	-1.538306574104303e+001
1	 8.570812237159361e-001	 2.198853130600829e+000	-1.629984152414959e+001
1	 8.337953636636195e-001	 2.207788123753673e+000	-1.724836101532959e+001
1	 8.104695782130249e-001	 2.216457076637509e+000	-1.822770993765528e+001
1	 7.871082040467177e-001	 2.224860311143484e+000	-1.923699660781303e+001
1	 7.637155499996894e-001	 2.232998238497061e+000	-2.027535467058759e+001
1	 7.402958948964453e-001	 2.240871357974673e+000	-2.134194571629846e+001
1	 7.168534854447094e-001	 2.248480255562493e+000	-2.243596177795532e+001
1	 6.933925341873450e-001	 2.255825602559877e+000	-2.355662770528695e+001
1	 9.371267744375258e-001	 2.194976266209943e+000	-1.324513065020015e+001
1	 9.137254742848916e-001	 2.204820396483794e+000	-1.411291507841464e+001
1	 8.902704942342627e-001	 2.214395057742118e+000	-1.501652343296546e+001
1	 8.667662907898183e-001	 2.223700297318700e+000	-1.595540426635310e+001
1	 8.432172991810968e-001	 2.232736256407929e+000	-1.692902196096497e+001
1	 8.196279310147917e-001	 2.241503168957810e+000	-1.793685904394724e+001
1	 7.960025719782189e-001	 2.250001360496865e+000	-1.897841840559672e+001
1	 7.723455795964411e-001	 2.258231246897426e+000	-2.005322541828843e+001
1	 7.486612810449153e-001	 2.266193333077768e+000	-2.116082995328704e+001
1	 7.249539710193947e-001	 2.273888211645735e+000	-2.230080829311978e+001
1	 7.012279096647085e-001	 2.281316561486399e+000	-2.347276493751699e+001
1	 9.475980349868981e-001	 2.219502476550226e+000	-1.279200574691932e+001
1	 9.239352535515700e-001	 2.229456603097936e+000	-1.367349654490023e+001
1	 9.002181924102023e-001	 2.239138249639140e+000	-1.459317554397688e+001
1	 8.764513578630185e-001	 2.248547464036511e+000	-1.555086607306268e+001
1	 8.526392346978826e-001	 2.257684389062107e+000	-1.654640546480719e+001
1	 8.287862838158571e-001	 2.266549261278012e+000	-1.757964677768757e+001
1	 8.048969399090087e-001	 2.275142409850132e+000	-1.865046043512393e+001
1	 7.809756091924727e-001	 2.283464255297661e+000	-1.975873577954972e+001
1	 7.570266671926580e-001	 2.291515308180720e+000	-2.090438253964327e+001
1	 7.330544565933482e-001	 2.299296167728820e+000	-2.208733220920171e+001
1	 7.090632851413388e-001	 2.306807520412753e+000	-2.330753933641102e+001
1	 9.580692955357706e-001	 2.244028686890507e+000	-1.228987572184004e+001
1	 9.341450328177451e-001	 2.254092809712047e+000	-1.318156700467670e+001
1	 9.101658905856305e-001	 2.263881441536101e+000	-1.411395301736770e+001
1	 8.861364249356958e-001	 2.273394630754231e+000	-1.508720818059210e+001
1	 8.620611702141321e-001	 2.282632521716166e+000	-1.610151824175428e+001
1	 8.379446366163711e-001	 2.291595353598069e+000	-1.715708145287430e+001
1	 8.137913078392326e-001	 2.300283459203229e+000	-1.825410967956819e+001
1	 7.896056387879253e-001	 2.308697263697702e+000	-1.939282943985257e+001
1	 7.653920533398104e-001	 2.316837283283455e+000	-2.057348287173321e+001
1	 7.411549421667044e-001	 2.324704123811672e+000	-2.179632862875895e+001
1	 7.168986606173690e-001	 2.332298479338855e+000	-2.306164270293913e+001
1	 9.685405560843093e-001	 2.268554897230786e+000	-1.173946029710569e+001
1	 9.443548120835819e-001	 2.278729016326116e+000	-1.263794440301280e+001
1	 9.201135887607101e-001	 2.288624633432979e+000	-1.357974653730206e+001
1	 8.958214920080094e-001	 2.298241797471829e+000	-1.456536939118095e+001
1	 8.714831057299992e-001	 2.307580654370066e+000	-1.559532347079459e+001
1	 8.471029894164832e-001	 2.316641445917932e+000	-1.667012777844187e+001
1	 8.226856757690347e-001	 2.325424508556097e+000	-1.779031043950248e+001
1	 7.982356683829381e-001	 2.333930272097482e+000	-1.895640927450863e+001
1	 7.737574394865089e-001	 2.342159258385902e+000	-2.016897231596912e+001
1	 7.492554277395968e-001	 2.350112079894209e+000	-2.142855826972512e+001
1	 7.247340360929326e-001	 2.357789438264623e+000	-2.273573692077842e+001
1	 9.790118166326809e-001	 2.293081107571061e+000	-1.114144840300443e+001
1	 9.545645913492467e-001	 2.303365222940131e+000	-1.204341169104401e+001
1	 9.300612869356041e-001	 2.313367825329754e+000	-1.299140868182400e+001
1	 9.055065590801182e-001	 2.323088964189277e+000	-1.398624834231412e+001
1	 8.809050412456384e-001	 2.332528787023768e+000	-1.502874312325213e+001
1	 8.562613422163428e-001	 2.341687538237551e+000	-1.611970919020451e+001
1	 8.315800436985603e-001	 2.350565557908680e+000	-1.725996661550983e+001
1	 8.068656979776517e-001	 2.359163280496938e+000	-1.845033953113534e+001
1	 7.821228256328900e-001	 2.367481233487988e+000	-1.969165624260321e+001
1	 7.573559133121605e-001	 2.375520035976356e+000	-2.098474930425580e+001
1	 7.325694115681635e-001	 2.383280397189972e+000	-2.233045555625146e+001
1	 9.894830771810519e-001	 2.317607317911332e+000	-1.049649980725161e+001
1	 9.647743706149041e-001	 2.328001429554082e+000	-1.139871867740965e+001
1	 9.400089851104753e-001	 2.338111017226407e+000	-1.234975593915876e+001
1	 9.151916261521811e-001	 2.347936130906542e+000	-1.335070563195078e+001
1	 8.903269767612049e-001	 2.357476919677233e+000	-1.440266014319831e+001
1	 8.654196950160994e-001	 2.366733630556880e+000	-1.550671003473163e+001
1	 8.404744116279532e-001	 2.375706607260921e+000	-1.666394384585846e+001
1	 8.154957275722060e-001	 2.384396288896005e+000	-1.787544787355472e+001
1	 7.904882117790903e-001	 2.392803208589643e+000	-1.914230593038382e+001
1	 7.654563988845287e-001	 2.400927992058032e+000	-2.046559908081558e+001
1	 7.404047870431948e-001	 2.408771356114817e+000	-2.184640535667587e+001
1	 9.999543377295896e-001	 2.342133528251599e+000	-9.805246641904333e+000
1	 9.749841498807205e-001	 2.352637636167958e+000	-1.070458376355007e+001
1	 9.499566832854868e-001	 2.362854209122914e+000	-1.165557059732786e+001
1	 9.248766932243575e-001	 2.372783297623597e+000	-1.265956581022403e+001
1	 8.997489122768522e-001	 2.382425052330420e+000	-1.371792049086784e+001
1	 8.745780478159025e-001	 2.391779722875868e+000	-1.483197761600928e+001
1	 8.493687795573582e-001	 2.400847656612762e+000	-1.600307150986779e+001
1	 8.241257571667416e-001	 2.409629297294619e+000	-1.723252729727292e+001
1	 7.988535979252465e-001	 2.418125183690795e+000	-1.852166035154288e+001
1	 7.735568844568362e-001	 2.426335948139160e+000	-1.987177573806623e+001
1	 7.482401625181595e-001	 2.434262315039077e+000	-2.128416765457278e+001
1	 1.010425598278460e+000	 2.366659738591860e+000	-9.068294835332573e+000
1	 9.851939291468613e-001	 2.377273842781749e+000	-9.961695571105357e+000
1	 9.599043814608010e-001	 2.387597401019256e+000	-1.090960251627002e+001
1	 9.345617602968063e-001	 2.397630464340408e+000	-1.191361924729828e+001
1	 9.091708477927351e-001	 2.407373184983289e+000	-1.297533505901641e+001
1	 8.837364006159019e-001	 2.416825815194467e+000	-1.409632411484226e+001
1	 8.582631474869207e-001	 2.425988705964147e+000	-1.527814460670387e+001
1	 8.327557867613987e-001	 2.434862305692712e+000	-1.652233792585678e+001
1	 8.072189840714952e-001	 2.443447158791370e+000	-1.783042784579192e+001
1	 7.816573700292170e-001	 2.451743904219661e+000	-1.920391971840465e+001
1	 7.560755379931917e-001	 2.459753273962669e+000	-2.064429968456148e+001
1	 1.020896858827830e+000	 2.391185948932115e+000	-8.286225456065374e+000
1	 9.954037084134922e-001	 2.401910049395445e+000	-9.170714469160522e+000
1	 9.698520796365818e-001	 2.412340592915415e+000	-1.011257079090284e+001
1	 9.442468273696871e-001	 2.422477631056948e+000	-1.111362388627567e+001
1	 9.185927833090086e-001	 2.432321317635802e+000	-1.217568147134277e+001
1	 8.928947534162472e-001	 2.441871907512629e+000	-1.330052839013223e+001
1	 8.671575154167848e-001	 2.451129755315018e+000	-1.448992551855305e+001
1	 8.413858163563172e-001	 2.460095314090222e+000	-1.574560869675800e+001
1	 8.155843702179730e-001	 2.468769133891297e+000	-1.706928769129984e+001
1	 7.897578556018055e-001	 2.477151860299458e+000	-1.846264518835432e+001
1	 7.639109134684246e-001	 2.485244232885506e+000	-1.992733581921110e+001
1	 6.855571587091147e-001	 2.230334643633273e+000	-2.355840421180307e+001
1	 6.623471141318938e-001	 2.237337161406804e+000	-2.464777915771590e+001
1	 6.391269560606027e-001	 2.244080678083104e+000	-2.575802905258214e+001
1	 6.159007346850260e-001	 2.250566098306567e+000	-2.688250210537429e+001
1	 5.926724590196570e-001	 2.256794405071063e+000	-2.801462184405948e+001
1	 5.694460951855153e-001	 2.262766658109032e+000	-2.914789813339132e+001
1	 5.462255647562679e-001	 2.268483992241738e+000	-3.027593779082349e+001
1	 5.230147431693814e-001	 2.273947615693367e+000	-3.139245478891962e+001
1	 4.998174582029127e-001	 2.279158808371665e+000	-3.249128003393219e+001
1	 4.766374885184346e-001	 2.284118920117788e+000	-3.356637071151231e+001
1	 4.534785622704715e-001	 2.288829368928064e+000	-3.461181919179103e+001
1	 6.933925341873450e-001	 2.255825602559877e+000	-2.355662770528695e+001
1	 6.699172171789138e-001	 2.262908153566841e+000	-2.470535271731178e+001
1	 6.464316710871190e-001	 2.269728743299059e+000	-2.587976419228028e+001
1	 6.229399923922249e-001	 2.276288286740297e+000	-2.707348420966014e+001
1	 5.994462359286037e-001	 2.282587778119268e+000	-2.828020248436479e+001
1	 5.759544131469156e-001	 2.288628289280319e+000	-2.949368723584927e+001
1	 5.524684904413275e-001	 2.294410968014829e+000	-3.070779566911236e+001
1	 5.289923875425033e-001	 2.299937036356029e+000	-3.191648405590057e+001
1	 5.055299759769898e-001	 2.305207788840002e+000	-3.311381740567565e+001
1	 4.820850775934862e-001	 2.310224590735523e+000	-3.429397871717477e+001
1	 4.586614631563876e-001	 2.314988876245497e+000	-3.545127780264414e+001
1	 7.012279096647085e-001	 2.281316561486399e+000	-2.347276493751699e+001
1	 6.774873202250681e-001	 2.288479145726790e+000	-2.467783607793034e+001
1	 6.537363861127733e-001	 2.295376808514920e+000	-2.591339488153346e+001
1	 6.299792500985685e-001	 2.302010475173930e+000	-2.717346137551182e+001
1	 6.062200128367062e-001	 2.308381151167378e+000	-2.845211473558754e+001
1	 5.824627311074866e-001	 2.314489920451514e+000	-2.974350380491102e+001
1	 5.587114161255761e-001	 2.320337943787828e+000	-3.104185724471493e+001
1	 5.349700319148388e-001	 2.325926457018605e+000	-3.234149330518745e+001
1	 5.112424937503103e-001	 2.331256769308257e+000	-3.363682920624181e+001
1	 4.875326666678168e-001	 2.336330261353183e+000	-3.492239011907776e+001
1	 4.638443640416251e-001	 2.341148383562865e+000	-3.619281774063131e+001
1	 7.090632851413388e-001	 2.306807520412753e+000	-2.330753933641102e+001
1	 6.850574232704915e-001	 2.314050137886563e+000	-2.456584697249095e+001
1	 6.610411011377029e-001	 2.321024873730600e+000	-2.585945417975851e+001
1	 6.370185078041982e-001	 2.327732663607379e+000	-2.718289880453090e+001
1	 6.129937897441083e-001	 2.334174524215299e+000	-2.853076857421259e+001
1	 5.889710490673759e-001	 2.340351551622521e+000	-2.989771106804805e+001
1	 5.649543418091657e-001	 2.346264919560645e+000	-3.127844334546169e+001
1	 5.409476762865415e-001	 2.351915877681004e+000	-3.266776122084570e+001
1	 5.169550115230284e-001	 2.357305749776349e+000	-3.406054817480577e+001
1	 4.929802557415800e-001	 2.362435931970693e+000	-3.545178389302448e+001
1	 4.690272649263335e-001	 2.367307890880099e+000	-3.683655242503467e+001
1	 7.168986606173690e-001	 2.332298479338855e+000	-2.306164270293913e+001
1	 6.926275263153183e-001	 2.339621130046071e+000	-2.436997612775777e+001
1	 6.683458161620449e-001	 2.346672938946006e+000	-2.571845184198831e+001
1	 6.440577655092540e-001	 2.353454852040546e+000	-2.710224136055444e+001
1	 6.197675666509559e-001	 2.359967897262937e+000	-2.851655605330167e+001
1	 5.954793670267322e-001	 2.366213182793248e+000	-2.995665637309029e+001
1	 5.711972674922483e-001	 2.372191895333189e+000	-3.141786077317696e+001
1	 5.469253206577656e-001	 2.377905298343142e+000	-3.289555430338324e+001
1	 5.226675292952993e-001	 2.383354730244194e+000	-3.438519687561124e+001
1	 4.984278448149286e-001	 2.388541602587979e+000	-3.588233119032373e+001
1	 4.742101658106620e-001	 2.393467398197139e+000	-3.738259031665390e+001
1	 7.247340360929326e-001	 2.357789438264623e+000	-2.273573692077842e+001
1	 7.001976293596833e-001	 2.365192122205226e+000	-2.409078872420869e+001
1	 6.756505311859368e-001	 2.372321004161045e+000	-2.549087557863378e+001
1	 6.510970232138771e-001	 2.379177040473339e+000	-2.693191466905170e+001
1	 6.265413435573926e-001	 2.385761270310200e+000	-2.840985227137820e+001
1	 6.019876849857041e-001	 2.392074813963599e+000	-2.992067204663047e+001
1	 5.774401931749751e-001	 2.398118871105364e+000	-3.146040306188106e+001
1	 5.529029650286652e-001	 2.403894719004927e+000	-3.302512752835576e+001
1	 5.283800470672773e-001	 2.409403710711709e+000	-3.461098824799651e+001
1	 5.038754338880163e-001	 2.414647273204965e+000	-3.621419576075816e+001
1	 4.793930666947601e-001	 2.419626905513915e+000	-3.783103518584623e+001
1	 7.325694115681635e-001	 2.383280397189972e+000	-2.233045555625146e+001
1	 7.077677324037212e-001	 2.390763114363942e+000	-2.372882576221784e+001
1	 6.829552462095149e-001	 2.397969069375628e+000	-2.517719223440270e+001
1	 6.581362809182074e-001	 2.404899228905665e+000	-2.667232614596687e+001
1	 6.333151204635628e-001	 2.411554643356989e+000	-2.821101627913408e+001
1	 6.084960029444397e-001	 2.417936445133482e+000	-2.979007619734050e+001
1	 5.836831188574984e-001	 2.424045846877084e+000	-3.140635118733538e+001
1	 5.588806093993941e-001	 2.429884139666275e+000	-3.305672496270586e+001
1	 5.340925648391171e-001	 2.435452691178815e+000	-3.473812612112175e+001
1	 5.093230229609961e-001	 2.440752943821578e+000	-3.644753434840797e+001
1	 4.845759675787774e-001	 2.445786412830364e+000	-3.818198636336510e+001
1	 7.404047870431948e-001	 2.408771356114817e+000	-2.184640535667587e+001
1	 7.153378354475658e-001	 2.416334106522128e+000	-2.328460534149191e+001
1	 6.902599612329171e-001	 2.423617134589662e+000	-2.477784889236105e+001
1	 6.651755386223859e-001	 2.430621417337429e+000	-2.632386596123600e+001
1	 6.400888973696112e-001	 2.437348016403214e+000	-2.792039192856472e+001
1	 6.150043209030875e-001	 2.443798076302805e+000	-2.956517346828092e+001
1	 5.899260445399693e-001	 2.449972822648254e+000	-3.125597423153442e+001
1	 5.648582537701065e-001	 2.455873560327098e+000	-3.299058034196836e+001
1	 5.398050826109734e-001	 2.461501671645428e+000	-3.476680569601391e+001
1	 5.147706120340215e-001	 2.466858614437742e+000	-3.658249706234252e+001
1	 4.897588684628631e-001	 2.471945920146419e+000	-3.843553897527193e+001
1	 7.482401625181595e-001	 2.434262315039077e+000	-2.128416765457278e+001
1	 7.229079384913520e-001	 2.441905098679697e+000	-2.275862386011928e+001
1	 6.975646762562796e-001	 2.449265199803056e+000	-2.429327390862725e+001
1	 6.722147963265529e-001	 2.456343605768538e+000	-2.588690794176449e+001
1	 6.468626742756826e-001	 2.463141389448778e+000	-2.753830866875288e+001
1	 6.215126388617959e-001	 2.469659707471470e+000	-2.924625574194243e+001
1	 5.961689702225401e-001	 2.475899798418785e+000	-3.100953000544799e+001
1	 5.708358981409564e-001	 2.481862980987306e+000	-3.282691761120873e+001
1	 5.455176003830011e-001	 2.487550652111465e+000	-3.469721399732404e+001
1	 5.202182011072458e-001	 2.492964285053381e+000	-3.661922772402021e+001
1	 4.949417693471666e-001	 2.498105427462015e+000	-3.859178416308878e+001
1	 7.560755379931917e-001	 2.459753273962669e+000	-2.064429968456148e+001
1	 7.304780415352139e-001	 2.467476090836561e+000	-2.215135713906245e+001
1	 7.048693912797398e-001	 2.474913265015718e+000	-2.372387788272861e+001
1	 6.792540540308492e-001	 2.482065794198900e+000	-2.536181041825971e+001
1	 6.536364511819212e-001	 2.488934762493587e+000	-2.706508229217104e+001
1	 6.280209568207137e-001	 2.495521338639388e+000	-2.883360280144850e+001
1	 6.024118959053623e-001	 2.501826774188584e+000	-3.066726563304117e+001
1	 5.768135425120972e-001	 2.507852401646812e+000	-3.256595143232709e+001
1	 5.512301181553546e-001	 2.513599632576846e+000	-3.452953029699517e+001
1	 5.256657901808223e-001	 2.519069955668423e+000	-3.655786419308835e+001
1	 5.001246702318376e-001	 2.524264934777088e+000	-3.865080929026092e+001
1	 7.639109134684246e-001	 2.485244232885506e+000	-1.992733581921110e+001
1	 7.380481445792873e-001	 2.493047082992633e+000	-2.146326147744771e+001
1	 7.121741063034351e-001	 2.500561330227558e+000	-2.307005456824157e+001
1	 6.862933117354158e-001	 2.507787982628420e+000	-2.474891701994662e+001
1	 6.604102280884719e-001	 2.514728135537550e+000	-2.650101563505496e+001
1	 6.345292747799891e-001	 2.521382969806464e+000	-2.832748295106695e+001
1	 6.086548215885876e-001	 2.527753749957560e+000	-3.022941809935308e+001
1	 5.827911868836837e-001	 2.533841822305531e+000	-3.220788766014172e+001
1	 5.569426359281889e-001	 2.539648613041487e+000	-3.426392651185703e+001
1	 5.311133792549045e-001	 2.545175626282792e+000	-3.639853867313164e+001
1	 5.053075711170252e-001	 2.550424442091569e+000	-3.861269813591437e+001
1	 4.534785622704715e-001	 2.288829368928064e+000	-3.461181919179103e+001
1	 4.303478228187894e-001	 2.293290988703301e+000	-3.561597677090803e+001
1	 4.072454120468746e-001	 2.297506054455230e+000	-3.656619061066871e+001
1	 3.841748921516892e-001	 2.301476178916054e+000	-3.745484064531486e+001
1	 3.611397700823956e-001	 2.305203035563035e+000	-3.827451475807198e+001
1	 3.381434964856029e-001	 2.308688356741213e+000	-3.901801797882783e+001
1	 3.151894647169179e-001	 2.311933931773510e+000	-3.967838108675932e+001
1	 2.922810099184507e-001	 2.314941605060654e+000	-4.024886861736298e+001
1	 2.694214081618395e-001	 2.317713274173349e+000	-4.072298627473678e+001
1	 2.466138756562661e-001	 2.320250887939015e+000	-4.109448775131197e+001
1	 2.238615680208486e-001	 2.322556444525402e+000	-4.135738095852426e+001
1	 4.586614631563876e-001	 2.314988876245497e+000	-3.545127780264416e+001
1	 4.352663576684167e-001	 2.319501488801562e+000	-3.657424747280501e+001
1	 4.118999046346669e-001	 2.323764729417042e+000	-3.765021714635812e+001
1	 3.885657069651765e-001	 2.327780229256406e+000	-3.867142289224444e+001
1	 3.652673116907459e-001	 2.331549680923443e+000	-3.963030352202924e+001
1	 3.420082088961288e-001	 2.335074836562539e+000	-4.051951029567326e+001
1	 3.187918307202859e-001	 2.338357505947168e+000	-4.133191602408382e+001
1	 2.956215504233471e-001	 2.341399554558111e+000	-4.206062356716844e+001
1	 2.725006815198423e-001	 2.344202901653812e+000	-4.269897372755864e+001
1	 2.494324769776639e-001	 2.346769518335254e+000	-4.324055254156055e+001
1	 2.264201284821455e-001	 2.349101425607677e+000	-4.367919797023132e+001
1	 4.638443640416251e-001	 2.341148383562865e+000	-3.619281774063130e+001
1	 4.401848925174144e-001	 2.345711988899768e+000	-3.743692852756526e+001
1	 4.165543972218823e-001	 2.350023404378815e+000	-3.864217312322791e+001
1	 3.929565217781413e-001	 2.354084279596735e+000	-3.980080971076981e+001
1	 3.693948532986267e-001	 2.357896326283852e+000	-4.090529198201316e+001
1	 3.458729213062337e-001	 2.361461316383891e+000	-4.194827911901750e+001
1	 3.223941967232746e-001	 2.364781080120887e+000	-4.292264517358086e+001
1	 2.989620909278965e-001	 2.367857504055669e+000	-4.382148784284766e+001
1	 2.755799548775181e-001	 2.370692529134424e+000	-4.463813664065332e+001
1	 2.522510782987403e-001	 2.373288148731701e+000	-4.536616046564596e+001
1	 2.289786889431087e-001	 2.375646406690224e+000	-4.599937456858706e+001
1	 4.690272649263335e-001	 2.367307890880099e+000	-3.683655242503467e+001
1	 4.451034273659250e-001	 2.371922488997866e+000	-3.820407055708031e+001
1	 4.212088898086550e-001	 2.376282079340506e+000	-3.954206235799295e+001
1	 3.973473365907073e-001	 2.380388329937012e+000	-4.084296825024364e+001
1	 3.735223949061507e-001	 2.384242971644243e+000	-4.209941495045523e+001
1	 3.497376337160204e-001	 2.387847796205268e+000	-4.330422549888671e+001
1	 3.259965627259777e-001	 2.391204654294674e+000	-4.445042869717697e+001
1	 3.023026314321853e-001	 2.394315453553344e+000	-4.553126795213692e+001
1	 2.786592282349486e-001	 2.397182156615205e+000	-4.654020952483027e+001
1	 2.550696796195753e-001	 2.399806779128376e+000	-4.747095018558800e+001
1	 2.315372494038215e-001	 2.402191387773061e+000	-4.831742427695256e+001
1	 4.742101658106620e-001	 2.393467398197139e+000	-3.738259031665390e+001
1	 4.500219622140912e-001	 2.398132989095800e+000	-3.887572197014636e+001
1	 4.258633823951188e-001	 2.402540754302073e+000	-4.034988850050996e+001
1	 4.017381514029985e-001	 2.406692380277211e+000	-4.179786709619067e+001
1	 3.776499365134314e-001	 2.410589617004602e+000	-4.321261008966922e+001
1	 3.536023461255918e-001	 2.414234276026662e+000	-4.458725481121999e+001
1	 3.295989287284887e-001	 2.417628228468531e+000	-4.591513287026495e+001
1	 3.056431719362996e-001	 2.420773403051147e+000	-4.718977886190196e+001
1	 2.817385015922153e-001	 2.423671784096174e+000	-4.840493849760283e+001
1	 2.578882809402495e-001	 2.426325409525294e+000	-4.955457616044471e+001
1	 2.340958098643674e-001	 2.428736368856202e+000	-5.063288188656226e+001
1	 4.793930666947601e-001	 2.419626905513915e+000	-3.783103518584623e+001
1	 4.549404970620559e-001	 2.424343489193518e+000	-3.945192908209733e+001
1	 4.305178749814073e-001	 2.428799429263473e+000	-4.106565504279691e+001
1	 4.061289662151383e-001	 2.432996430617298e+000	-4.266547619267180e+001
1	 3.817774781205817e-001	 2.436936262364911e+000	-4.424481775779613e+001
1	 3.574670585350503e-001	 2.440620755848071e+000	-4.579727652402494e+001
1	 3.332012947309012e-001	 2.444051802642469e+000	-4.731662975122907e+001
1	 3.089837124403254e-001	 2.447231352549091e+000	-4.879684354086417e+001
1	 2.848177749493996e-001	 2.450161411577347e+000	-5.023208065576630e+001
1	 2.607068822608430e-001	 2.452844039922479e+000	-5.161670779237482e+001
1	 2.366543703248299e-001	 2.455281349939667e+000	-5.294530230684911e+001
1	 4.845759675787774e-001	 2.445786412830364e+000	-3.818198636336510e+001
1	 4.598590319099619e-001	 2.450553989290963e+000	-3.993273622676070e+001
1	 4.351723675676546e-001	 2.455058104224663e+000	-4.168936532747425e+001
1	 4.105197810272506e-001	 2.459300480957246e+000	-4.344576676963241e+001
1	 3.859050197277146e-001	 2.463282907725155e+000	-4.519598086463476e+001
1	 3.613317709444988e-001	 2.467007235669486e+000	-4.693420397853896e+001
1	 3.368036607333084e-001	 2.470475376816489e+000	-4.865479687217896e+001
1	 3.123242529443491e-001	 2.473689302047193e+000	-5.035229253167226e+001
1	 2.878970483065836e-001	 2.476651039058744e+000	-5.202140348824099e+001
1	 2.635254835814365e-001	 2.479362670319949e+000	-5.365702862749984e+001
1	 2.392129307852923e-001	 2.481826331023470e+000	-5.525425948955009e+001
1	 4.897588684628631e-001	 2.471945920146419e+000	-3.843553897527194e+001
1	 4.647775667579517e-001	 2.476764489388081e+000	-4.031818586130438e+001
1	 4.398268601539946e-001	 2.481316779185606e+000	-4.222102255567003e+001
1	 4.149105958394592e-001	 2.485604531297026e+000	-4.413871127486225e+001
1	 3.900325613349436e-001	 2.489629553085316e+000	-4.606604473662682e+001
1	 3.651964833540400e-001	 2.493393715490908e+000	-4.799795418428595e+001
1	 3.404060267358042e-001	 2.496898950990599e+000	-4.992951694931945e+001
1	 3.156647934484567e-001	 2.500147251545462e+000	-5.185596355014525e+001
1	 2.909763216638482e-001	 2.503140666540383e+000	-5.377268432619604e+001
1	 2.663440849021104e-001	 2.505881300717724e+000	-5.567523560750881e+001
1	 2.417714912458383e-001	 2.508371312107629e+000	-5.755934542112510e+001
1	 4.949417693471666e-001	 2.498105427462015e+000	-3.859178416308878e+001
1	 4.696961016061681e-001	 2.502974989484819e+000	-4.060831866449637e+001
1	 4.444813527405613e-001	 2.507575454146253e+000	-4.266062979442862e+001
1	 4.193014106518875e-001	 2.511908581636608e+000	-4.474428331023090e+001
1	 3.941601029423813e-001	 2.515976198445378e+000	-4.685495699032483e+001
1	 3.690611957637768e-001	 2.519780195312327e+000	-4.898844762701043e+001
1	 3.440083927384817e-001	 2.523322525164801e+000	-5.114067761151848e+001
1	 3.190053339527348e-001	 2.526605201043914e+000	-5.330770110969426e+001
1	 2.940555950212755e-001	 2.529630294022282e+000	-5.548570982772276e+001
1	 2.691626862229449e-001	 2.532399931115824e+000	-5.767103836828393e+001
1	 2.443300517065510e-001	 2.534916293192159e+000	-5.986016917848431e+001
1	 5.001246702318376e-001	 2.524264934777088e+000	-3.865080929026092e+001
1	 4.746146364547538e-001	 2.529185489581120e+000	-4.080317362885404e+001
1	 4.491358453274885e-001	 2.533834129106568e+000	-4.300818998365819e+001
1	 4.236922254646598e-001	 2.538212631975964e+000	-4.526245757188864e+001
1	 3.982876445501410e-001	 2.542322843805324e+000	-4.756266741372745e+001
1	 3.729259081738120e-001	 2.546166675133744e+000	-4.990560808855337e+001
1	 3.476107587414348e-001	 2.549746099339105e+000	-5.228817114575290e+001
1	 3.223458744572691e-001	 2.553063150542561e+000	-5.470735616909936e+001
1	 2.971348683789469e-001	 2.556119921504461e+000	-5.716027549455046e+001
1	 2.719812875440206e-001	 2.558918561514268e+000	-5.964415858213828e+001
1	 2.468886121675140e-001	 2.561461274277079e+000	-6.215635604342734e+001
1	 5.053075711170252e-001	 2.550424442091569e+000	-3.861269813591437e+001
1	 4.795331713038518e-001	 2.555395989676932e+000	-4.090278814712367e+001
1	 4.537903379149101e-001	 2.560092804066504e+000	-4.326370594265099e+001
1	 4.280830402778995e-001	 2.564516682315065e+000	-4.569320979414563e+001
1	 4.024151861583359e-001	 2.568669489165139e+000	-4.818912785491844e+001
1	 3.767906205842483e-001	 2.572553154955150e+000	-5.074936247781365e+001
1	 3.512131247447570e-001	 2.576169673513515e+000	-5.337189425821914e+001
1	 3.256864149621464e-001	 2.579521100041420e+000	-5.605478580196101e+001
1	 3.002141417369439e-001	 2.582609548986935e+000	-5.879618521850507e+001
1	 2.747998888654178e-001	 2.585437191913076e+000	-6.159432934053251e+001
1	 2.494471726288109e-001	 2.588006255362403e+000	-6.444754667158352e+001
1	 2.238615680208486e-001	 2.322556444525402e+000	-4.135738095852427e+001
1	 2.011641876059516e-001	 2.324632283812556e+000	-4.149744784811914e+001
1	 1.785282247002906e-001	 2.326480135022100e+000	-4.149915270950713e+001
1	 1.559566963524346e-001	 2.328102134340242e+000	-4.135505014133801e+001
1	 1.334525552926772e-001	 2.329500459691833e+000	-4.105801360985248e+001
1	 1.110186895228716e-001	 2.330677328820790e+000	-4.060124005687182e+001
1	 8.865792196686158e-002	 2.331634997380677e+000	-3.997825387735917e+001
1	 6.637301018034907e-002	 2.332375757037283e+000	-3.918291027850128e+001
1	 4.416664611898502e-002	 2.332901933585020e+000	-3.820939803319580e+001
1	 2.204145596341943e-002	 2.333215885078842e+000	-3.705224164169921e+001
1	 0.000000000000000e+000	 2.333319999983334e+000	-3.570630291598810e+001
1	 2.264201284821455e-001	 2.349101425607677e+000	-4.367919797023132e+001
1	 2.034633349817422e-001	 2.351200990094103e+000	-4.400060508929819e+001
1	 1.805686609440350e-001	 2.353069960779786e+000	-4.418885677628109e+001
1	 1.577391579000765e-001	 2.354710498265832e+000	-4.423597907836528e+001
1	 1.349778123275373e-001	 2.356124805369036e+000	-4.413432331528635e+001
1	 1.122875452358528e-001	 2.357315125180361e+000	-4.387657148765676e+001
1	 8.967121181265819e-002	 2.358283739133688e+000	-4.345574101785893e+001
1	 6.713160113034097e-002	 2.359032965086723e+000	-4.286518883524288e+001
1	 4.467143591148092e-002	 2.359565155415852e+000	-4.209861481838931e+001
1	 2.229337235190048e-002	 2.359882695126717e+000	-4.115006460815777e+001
1	 0.000000000000000e+000	 2.359987999982150e+000	-4.001393180612095e+001
1	 2.289786889431087e-001	 2.375646406690224e+000	-4.599937456858706e+001
1	 2.057624823571691e-001	 2.377769696375999e+000	-4.652353992475562e+001
1	 1.826090971873753e-001	 2.379659786537899e+000	-4.692247263025134e+001
1	 1.595216194472731e-001	 2.381318862191934e+000	-4.718776439924776e+001
1	 1.365030693619193e-001	 2.382749151046835e+000	-4.731133551341137e+001
1	 1.135564009483403e-001	 2.383952921540606e+000	-4.728544094991337e+001
1	 9.068450165797200e-002	 2.384932480887447e+000	-4.710267581192807e+001
1	 6.789019207989630e-002	 2.385690173136972e+000	-4.675598007307200e+001
1	 4.517622570363043e-002	 2.386228377247541e+000	-4.623864264833934e+001
1	 2.254528874017785e-002	 2.386549505175481e+000	-4.554430480512041e+001
1	 0.000000000000000e+000	 2.386655999981866e+000	-4.466696292884603e+001
1	 2.315372494038215e-001	 2.402191387773061e+000	-4.831742427695256e+001
1	 2.080616297323233e-001	 2.404338402658252e+000	-4.906560690795423e+001
1	 1.846495334304126e-001	 2.406249612296439e+000	-4.969915854457484e+001
1	 1.613040809941358e-001	 2.407927226118532e+000	-5.020932698032871e+001
1	 1.380283263959427e-001	 2.409373496725197e+000	-5.058768882528182e+001
1	 1.148252566604575e-001	 2.410590717901479e+000	-5.082615627498601e+001
1	 9.169779150292372e-002	 2.411581222641890e+000	-5.091698315862378e+001
1	 6.864878302912419e-002	 2.412347381187954e+000	-5.085277027745822e+001
1	 4.568101549552014e-002	 2.412891599079999e+000	-5.062647004585749e+001
1	 2.279720512830247e-002	 2.413216315225037e+000	-5.023139044825503e+001
1	 0.000000000000000e+000	 2.413323999982383e+000	-4.966119832642370e+001
1	 2.340958098643674e-001	 2.428736368856202e+000	-5.063288188656225e+001
1	 2.103607771072955e-001	 2.430907108940867e+000	-5.162618881010516e+001
1	 1.866899696732478e-001	 2.432839438055403e+000	-5.251810959117408e+001
1	 1.630865425407757e-001	 2.434535590045608e+000	-5.329963487527386e+001
1	 1.395535834297269e-001	 2.435997842404090e+000	-5.396208138896128e+001
1	 1.160941123723278e-001	 2.437228514262929e+000	-5.449709927275161e+001
1	 9.271108134763406e-002	 2.438229964396952e+000	-5.489667867663704e+001
1	 6.940737397813380e-002	 2.439004589239588e+000	-5.515315562888975e+001
1	 4.618580528723665e-002	 2.439554820913136e+000	-5.525921719004732e+001
1	 2.304912151632525e-002	 2.439883125275288e+000	-5.520790590512501e+001
1	 0.000000000000000e+000	 2.439991999983599e+000	-5.499262356816401e+001
1	 2.366543703248299e-001	 2.455281349939667e+000	-5.294530230684911e+001
1	 2.126599244821769e-001	 2.457475815223860e+000	-5.420469509480415e+001
1	 1.887304059159821e-001	 2.459429263814787e+000	-5.537855565151185e+001
1	 1.648690040873043e-001	 2.461143953973147e+000	-5.645770076481280e+001
1	 1.410788404633915e-001	 2.462622188083484e+000	-5.743326764221935e+001
1	 1.173629680840747e-001	 2.463866310624908e+000	-5.829672173257104e+001
1	 9.372437119222367e-002	 2.464878706152569e+000	-5.903986380027192e+001
1	 7.016596492703424e-002	 2.465661797291797e+000	-5.965483626229134e+001
1	 4.669059507886657e-002	 2.466218042746860e+000	-6.013412879937587e+001
1	 2.330103790429711e-002	 2.466549935326135e+000	-6.047058325410364e+001
1	 0.000000000000000e+000	 2.466659999985416e+000	-6.065739782952502e+001
1	 2.392129307852923e-001	 2.481826331023470e+000	-5.525425948955008e+001
1	 2.149590718570580e-001	 2.484044521507234e+000	-5.680056049055847e+001
1	 1.907708421587163e-001	 2.486019089574589e+000	-5.827975955502205e+001
1	 1.666514656338330e-001	 2.487752317901132e+000	-5.968257957014244e+001
1	 1.426040974970561e-001	 2.489246533763339e+000	-6.100005531169759e+001
1	 1.186318237958215e-001	 2.490504106987369e+000	-6.222354168087867e+001
1	 9.473766103681326e-002	 2.491527447908676e+000	-6.334472119013899e+001
1	 7.092455587593467e-002	 2.492319005344501e+000	-6.435561070767719e+001
1	 4.719538487049645e-002	 2.492881264581084e+000	-6.524856747147030e+001
1	 2.355295429226896e-002	 2.493216745377481e+000	-6.601629438499127e+001
1	 0.000000000000000e+000	 2.493327999987732e+000	-6.665184460787961e+001
1	 2.417714912458383e-001	 2.508371312107629e+000	-5.755934542112511e+001
1	 2.172582192320303e-001	 2.510613227791001e+000	-5.941324365395091e+001
1	 1.928112784015514e-001	 2.512608915334807e+000	-6.122101533574231e+001
1	 1.684339271804729e-001	 2.514360681829545e+000	-6.297336621786757e+001
1	 1.441293545308402e-001	 2.515870879443631e+000	-6.466130259324832e+001
1	 1.199006795076918e-001	 2.517141903350259e+000	-6.627613987639633e+001
1	 9.575095088152352e-002	 2.518176189665208e+000	-6.780951043524868e+001
1	 7.168314682494421e-002	 2.518976213397623e+000	-6.925337068379513e+001
1	 4.770017466221291e-002	 2.519544486415716e+000	-7.060000744580658e+001
1	 2.380487068029171e-002	 2.519883555429231e+000	-7.184204360120650e+001
1	 0.000000000000000e+000	 2.519995999990449e+000	-7.297244302778790e+001
1	 2.443300517065510e-001	 2.534916293192159e+000	-5.986016917848430e+001
1	 2.195573666071843e-001	 2.537181934075167e+000	-6.204222591679795e+001
1	 1.948517146445886e-001	 2.539198741095438e+000	-6.420164659848297e+001
1	 1.702163887273356e-001	 2.540969045758370e+000	-6.632919354537188e+001
1	 1.456546115648634e-001	 2.542495225124322e+000	-6.841591550943473e+001
1	 1.211695352198089e-001	 2.543779699713533e+000	-7.045315652555469e+001
1	 9.676424072647513e-002	 2.544824931422101e+000	-7.243256402514206e+001
1	 7.244173777417201e-002	 2.545633421451083e+000	-7.434609621888950e+001
1	 4.820496445410255e-002	 2.546207708250667e+000	-7.618602875829068e+001
1	 2.405678706841629e-002	 2.546550365481287e+000	-7.794496068678487e+001
1	 0.000000000000000e+000	 2.546663999993466e+000	-7.961581969256372e+001
1	 2.468886121675140e-001	 2.561461274277079e+000	-6.215635604342733e+001
1	 2.218565139826111e-001	 2.563750640359744e+000	-6.468701011120882e+001
1	 1.968921508879288e-001	 2.565788566856479e+000	-6.722100498658666e+001
1	 1.719988502745320e-001	 2.567577409687589e+000	-6.974923033643084e+001
1	 1.471798685992452e-001	 2.569119570805382e+000	-7.226284543134001e+001
1	 1.224383909322962e-001	 2.570417496077141e+000	-7.475328820214834e+001
1	 9.777753057178877e-002	 2.571473673179288e+000	-7.721228357247378e+001
1	 7.320032872372721e-002	 2.572290629504803e+000	-7.963185107485090e+001
1	 4.870975424625194e-002	 2.572870930085849e+000	-8.200431175930454e+001
1	 2.430870345669359e-002	 2.573217175533550e+000	-8.432229440446719e+001
1	 0.000000000000000e+000	 2.573331999996682e+000	-8.657874104250485e+001
1	 2.494471726288109e-001	 2.588006255362403e+000	-6.444754667158351e+001
1	 2.241556613584017e-001	 2.590319346644739e+000	-6.734711946695234e+001
1	 1.989325871316730e-001	 2.592378392617929e+000	-7.027846874398364e+001
1	 1.737813118221737e-001	 2.594185773617187e+000	-7.323267947771655e+001
1	 1.487051256341053e-001	 2.595743916486776e+000	-7.620108675288707e+001
1	 1.237072466452772e-001	 2.597055292441033e+000	-7.917528495655859e+001
1	 9.879082041758520e-002	 2.598122414936711e+000	-8.214713626806262e+001
1	 7.395891967371894e-002	 2.598947837558706e+000	-8.510877845297168e+001
1	 4.921454403874771e-002	 2.599534151921171e+000	-8.805263196912011e+001
1	 2.456061984517455e-002	 2.599883985585925e+000	-9.097140639392514e+001
1	 0.000000000000000e+000	 2.600000000000000e+000	-9.385810618341024e+001
1	 2.600000000000000e+000	 0.000000000000000e+000	 1.040091438679832e+002
1	 2.599883985585925e+000	 2.456061984517381e-002	 9.971388636950253e+001
1	 2.599534151921171e+000	 4.921454403874705e-002	 9.547305997646271e+001
1	 2.598947837558707e+000	 7.395891967371836e-002	 9.128761241241192e+001
1	 2.598122414936712e+000	 9.879082041758469e-002	 8.715865983776077e+001
1	 2.597055292441034e+000	 1.237072466452768e-001	 8.308748938753809e+001
1	 2.595743916486777e+000	 1.487051256341050e-001	 7.907556149142563e+001
1	 2.594185773617187e+000	 1.737813118221734e-001	 7.512451196408713e+001
1	 2.592378392617928e+000	 1.989325871316728e-001	 7.123615385388831e+001
1	 2.590319346644739e+000	 2.241556613584015e-001	 6.741247903821763e+001
1	 2.588006255362404e+000	 2.494471726288108e-001	 6.365565955376795e+001
1	 2.626668000003317e+000	 0.000000000000000e+000	 1.060812175294121e+002
1	 2.626550795638311e+000	 2.481253623389235e-002	 1.015601215959491e+002
1	 2.626197373756539e+000	 4.971933383164689e-002	 9.710346962904958e+001
1	 2.625605045612707e+000	 7.471751062421944e-002	 9.271225187174468e+001
1	 2.624771156694291e+000	 9.980411026394442e-002	 8.838762760263320e+001
1	 2.623693088805150e+000	 1.249761023588341e-001	 8.413092772792869e+001
1	 2.622368262168458e+000	 1.502303826695234e-001	 7.994365715537082e+001
1	 2.620794137547127e+000	 1.755637733703355e-001	 7.582749693784476e+001
1	 2.618968218379761e+000	 2.009730233758896e-001	 7.178430617462598e+001
1	 2.616888052930141e+000	 2.264548087346183e-001	 6.781612365827611e+001
1	 2.614551236448130e+000	 2.520057330904997e-001	 6.392516925536119e+001
1	 2.653336000006534e+000	 0.000000000000000e+000	 1.079493663666427e+002
1	 2.653217605690610e+000	 2.506445262281456e-002	 1.032105764231500e+002
1	 2.652860595591853e+000	 5.022412362489322e-002	 9.854651055470087e+001
1	 2.652262253666700e+000	 7.547610157515748e-002	 9.395816902103587e+001
1	 2.651419898451922e+000	 1.008174001107879e-001	 8.944671945232707e+001
1	 2.650330885169382e+000	 1.262449580728870e-001	 8.501349949414544e+001
1	 2.648992607850319e+000	 1.517556397054234e-001	 8.066001923748254e+001
1	 2.647402501477304e+000	 1.773462349189483e-001	 7.638796342161875e+001
1	 2.645558044141876e+000	 2.030134596205187e-001	 7.219919339768410e+001
1	 2.643456759215848e+000	 2.287539561112104e-001	 6.809574884086437e+001
1	 2.641096217534166e+000	 2.545642935525384e-001	 6.407984919933601e+001
1	 2.680004000009550e+000	 0.000000000000000e+000	 1.096139102710877e+002
1	 2.679884415742721e+000	 2.531636901188952e-002	 1.046658938869275e+002
1	 2.679523817427006e+000	 5.072891341839955e-002	 9.980310129028341e+001
1	 2.678919461720578e+000	 7.623469252642373e-002	 9.502651127372337e+001
1	 2.678068640209494e+000	 1.018306899579955e-001	 9.033726611809068e+001
1	 2.676968681533610e+000	 1.275138137873141e-001	 8.573667428914355e+001
1	 2.675616953532234e+000	 1.532808967416889e-001	 8.122621292599911e+001
1	 2.674010865407590e+000	 1.791286964679060e-001	 7.680753010922648e+001
1	 2.672147869904145e+000	 2.050538958654672e-001	 7.248244689648371e+001
1	 2.670025465501747e+000	 2.310531034880989e-001	 6.825295911367748e+001
1	 2.667641198620404e+000	 2.571228540148596e-001	 6.412123888974504e+001
1	 2.706672000012267e+000	 0.000000000000000e+000	 1.110751565270027e+002
1	 2.706551225794540e+000	 2.556828540106636e-002	 1.059266916805755e+002
1	 2.706187039261895e+000	 5.123370321207942e-002	 1.008741241724264e+002
1	 2.705576669774231e+000	 7.699328347790953e-002	 9.591838082280651e+001
1	 2.704717381966886e+000	 1.028439798054474e-001	 9.106054588603811e+001
1	 2.703606477897716e+000	 1.287826695019939e-001	 8.630186379770466e+001
1	 2.702241299214084e+000	 1.548061537782039e-001	 8.164374172389644e+001
1	 2.700619229337863e+000	 1.809111580171026e-001	 7.708775190052825e+001
1	 2.698737695666449e+000	 2.070943321106422e-001	 7.263563375077733e+001
1	 2.696594171787714e+000	 2.333522508652042e-001	 6.828929576875365e+001
1	 2.694186179706736e+000	 2.596814144773962e-001	 6.405081715761683e+001
1	 2.733340000014584e+000	 0.000000000000000e+000	 1.123334004264954e+002
1	 2.733218035845967e+000	 2.582020179029416e-002	 1.069935633911371e+002
1	 2.732850261096416e+000	 5.173849300584638e-002	 1.017604271034706e+002
1	 2.732233877827549e+000	 7.775187442950615e-002	 9.663483684682507e+001
1	 2.731366123723988e+000	 1.038572696530241e-001	 9.161778715557011e+001
1	 2.730244274261579e+000	 1.300515252168051e-001	 8.671042461184774e+001
1	 2.728865644895743e+000	 1.563314108148520e-001	 8.191405045806920e+001
1	 2.727227593267996e+000	 1.826936195664325e-001	 7.723012301347657e+001
1	 2.725327521428660e+000	 2.091347683559510e-001	 7.266025988307509e+001
1	 2.723162878073631e+000	 2.356513982424474e-001	 6.820623994728757e+001
1	 2.720731160793048e+000	 2.622399749400806e-001	 6.387000512075623e+001
1	 2.760008000016400e+000	 0.000000000000000e+000	 1.133889258488808e+002
1	 2.759884845896900e+000	 2.607211817952203e-002	 1.078670796640105e+002
1	 2.759513482930462e+000	 5.224328279961396e-002	 1.024628252150363e+002
1	 2.758891085880423e+000	 7.851046538110484e-002	 9.717689758794991e+001
1	 2.758014865480682e+000	 1.048705595006057e-001	 9.201017084947395e+001
1	 2.756882070625079e+000	 1.313203809316262e-001	 8.696366089244083e+001
1	 2.755489990577085e+000	 1.578566678515173e-001	 8.203852811405758e+001
1	 2.753835957197865e+000	 1.844760811157896e-001	 7.723607991574727e+001
1	 2.751917347190656e+000	 2.111752046013007e-001	 7.255777301324031e+001
1	 2.749731584359379e+000	 2.379505456197490e-001	 6.800521554560554e+001
1	 2.747276141879233e+000	 2.647985354028455e-001	 6.358016897195487e+001
1	 2.786676000017617e+000	 0.000000000000000e+000	 1.142420058067706e+002
1	 2.786551655947240e+000	 2.632403456869907e-002	 1.085477893006845e+002
1	 2.786176704763929e+000	 5.274807259329567e-002	 1.029821024360730e+002
1	 2.785548293932743e+000	 7.926905633259694e-002	 9.754554231075149e+001
1	 2.784663607236856e+000	 1.058838493480727e-001	 9.223883268563678e+001
1	 2.783519866988097e+000	 1.325892366463356e-001	 8.706282687798579e+001
1	 2.782114336257991e+000	 1.593819248880836e-001	 8.201851050800769e+001
1	 2.780444321127343e+000	 1.862585426650683e-001	 7.710700408804031e+001
1	 2.778507172952311e+000	 2.132156408465986e-001	 7.232956544343561e+001
1	 2.776300290644838e+000	 2.402496929970298e-001	 6.768759195428255e+001
1	 2.773821122965178e+000	 2.673570958656237e-001	 6.318262260710490e+001
1	 2.813344000018133e+000	 0.000000000000000e+000	 1.148929029611030e+002
1	 2.813218465996884e+000	 2.657595095777439e-002	 1.090362202940409e+002
1	 2.812839926596714e+000	 5.325286238680507e-002	 1.033190129717261e+002
1	 2.812205501984400e+000	 8.002764728387372e-002	 9.774171314956439e+001
1	 2.811312348992394e+000	 1.068971391953054e-001	 9.230486531955729e+001
1	 2.810157663350514e+000	 1.338580923608121e-001	 8.700912925071650e+001
1	 2.808738681938336e+000	 1.609071819244348e-001	 8.185528280666439e+001
1	 2.807052685056304e+000	 1.880410042141626e-001	 7.684422463021804e+001
1	 2.805096998713505e+000	 2.152560770917518e-001	 7.197697668467603e+001
1	 2.802868996929888e+000	 2.425488403742108e-001	 6.725468664147286e+001
1	 2.800366104050777e+000	 2.699156563283477e-001	 6.267863010383969e+001
1	 2.840012000017850e+000	 0.000000000000000e+000	 1.153418701071570e+002
1	 2.839885276045730e+000	 2.682786734669707e-002	 1.093328808053271e+002
1	 2.839503148428710e+000	 5.375765218005565e-002	 1.034742826988831e+002
1	 2.838862710035284e+000	 8.078623823482645e-002	 9.776631685177013e+001
1	 2.837961090747182e+000	 1.079104290421840e-001	 9.220932036614640e+001
1	 2.836795459712210e+000	 1.351269480749341e-001	 8.680372936938994e+001
1	 2.835363027617995e+000	 1.624324389604548e-001	 8.155008190538698e+001
1	 2.833661048984628e+000	 1.898234657629666e-001	 7.644902072061296e+001
1	 2.831686824474109e+000	 2.172965133366674e-001	 7.150129593540039e+001
1	 2.829437703214413e+000	 2.448479877512126e-001	 6.670776759069449e+001
1	 2.826911085135917e+000	 2.724742167909504e-001	 6.206940806052680e+001
1	 2.866680000016666e+000	 0.000000000000000e+000	 1.155891506334375e+002
1	 2.866552086093679e+000	 2.707978373541622e-002	 1.094382600865978e+002
1	 2.866166370259814e+000	 5.426244197296102e-002	 1.034486104838258e+002
1	 2.865519918085287e+000	 8.154482918534642e-002	 9.762022642377569e+001
1	 2.864609832501105e+000	 1.089237188885890e-001	 9.195321030867802e+001
1	 2.863433256073065e+000	 1.363958037885802e-001	 8.644774537745056e+001
1	 2.861987373296846e+000	 1.639576959960275e-001	 8.110409867343202e+001
1	 2.860269412912185e+000	 1.916059273113747e-001	 7.592262393806448e+001
1	 2.858276650234000e+000	 2.193369495812528e-001	 7.090376442169757e+001
1	 2.856006409498289e+000	 2.471471351279560e-001	 6.604805560254454e+001
1	 2.853456066220490e+000	 2.750327772533643e-001	 6.135612780470608e+001
1	 2.588006255362404e+000	 2.494471726288108e-001	 6.365565955376795e+001
1	 2.585437191913076e+000	 2.747998888654161e-001	 5.997784132198346e+001
1	 2.582609548986935e+000	 3.002141417369426e-001	 5.638883630633786e+001
1	 2.579521100041420e+000	 3.256864149621452e-001	 5.288918991845814e+001
1	 2.576169673513514e+000	 3.512131247447560e-001	 4.947953301729935e+001
1	 2.572553154955150e+000	 3.767906205842477e-001	 4.616058287323869e+001
1	 2.568669489165140e+000	 4.024151861583354e-001	 4.293314398296429e+001
1	 2.564516682315065e+000	 4.280830402778992e-001	 3.979810872863323e+001
1	 2.560092804066503e+000	 4.537903379149099e-001	 3.675645787494025e+001
1	 2.555395989676932e+000	 4.795331713038519e-001	 3.380926089792910e+001
1	 2.550424442091569e+000	 5.053075711170252e-001	 3.095767613959603e+001
1	 2.614551236448130e+000	 2.520057330904997e-001	 6.392516925536118e+001
1	 2.611955822312248e+000	 2.776184901871919e-001	 6.012276172469507e+001
1	 2.609099176469710e+000	 3.032934150953240e-001	 5.641772955961149e+001
1	 2.605979049540490e+000	 3.290269554674279e-001	 5.281048540421283e+001
1	 2.602593247688027e+000	 3.548154907485162e-001	 4.930152099933830e+001
1	 2.598939634776541e+000	 3.806553329951614e-001	 4.589140833465348e+001
1	 2.595016134524813e+000	 4.065427277670500e-001	 4.258080066618582e+001
1	 2.590820732653894e+000	 4.324738550916994e-001	 3.937043339276235e+001
1	 2.586351479026042e+000	 4.584448305029271e-001	 3.626112478493958e+001
1	 2.581606489772227e+000	 4.844517061535697e-001	 3.325377656016860e+001
1	 2.576583949405428e+000	 5.104904720028427e-001	 3.034937429811873e+001
1	 2.641096217534166e+000	 2.545642935525384e-001	 6.407984919933602e+001
1	 2.638474452711707e+000	 2.804370915093107e-001	 6.016188136673273e+001
1	 2.635588803952722e+000	 3.063726884540589e-001	 5.634961977907628e+001
1	 2.632436999039727e+000	 3.323674959730879e-001	 5.264334111207357e+001
1	 2.629016821862626e+000	 3.584178567526871e-001	 4.904339430310693e+001
1	 2.625326114597918e+000	 3.845200454065252e-001	 4.555020188900284e+001
1	 2.621362779884366e+000	 4.106702693762563e-001	 4.216426122474229e+001
1	 2.617124782992493e+000	 4.368646699060309e-001	 3.888614557658121e+001
1	 2.612610153985245e+000	 4.630993230915094e-001	 3.571650508314471e+001
1	 2.607816989867085e+000	 4.893702410038772e-001	 3.265606757817619e+001
1	 2.602743456718762e+000	 5.156733728892599e-001	 2.970563926876256e+001
1	 2.667641198620404e+000	 2.571228540148596e-001	 6.412123888974503e+001
1	 2.664993083111359e+000	 2.832556928317135e-001	 6.009665145370154e+001
1	 2.662078431435898e+000	 3.094519618130930e-001	 5.618586058211645e+001
1	 2.658894948539081e+000	 3.357080364790732e-001	 5.238900383125941e+001
1	 2.655440396037277e+000	 3.620202227572169e-001	 4.870628370890446e+001
1	 2.651712594419278e+000	 3.883847578182854e-001	 4.513796919559518e+001
1	 2.647709425243826e+000	 4.147978109858977e-001	 4.168439716318306e+001
1	 2.643428833330921e+000	 4.412554847208340e-001	 3.834597368414858e+001
1	 2.638868828944194e+000	 4.677538156805937e-001	 3.512317522526998e+001
1	 2.634027489961616e+000	 4.942887758547082e-001	 3.201654971928276e+001
1	 2.628902964031701e+000	 5.208562737762097e-001	 2.902671750827333e+001
1	 2.694186179706736e+000	 2.596814144773962e-001	 6.405081715761682e+001
1	 2.691511713511108e+000	 2.860742941543416e-001	 5.992846599809265e+001
1	 2.688568058919159e+000	 3.125312351723725e-001	 5.592775223902937e+001
1	 2.685352898038498e+000	 3.390485769853321e-001	 5.204867121408237e+001
1	 2.681863970211957e+000	 3.656225887620535e-001	 4.829127543212351e+001
1	 2.678099074240624e+000	 3.922494702303886e-001	 4.465567627994615e+001
1	 2.674056070603223e+000	 4.189253525959180e-001	 4.114204563940569e+001
1	 2.669732883669232e+000	 4.456462995360490e-001	 3.775061741257053e+001
1	 2.665127503902977e+000	 4.724083082701174e-001	 3.448168894847678e+001
1	 2.660237990055931e+000	 4.992073107059977e-001	 3.133562236511723e+001
1	 2.655062471344379e+000	 5.260391746636258e-001	 2.831284576035329e+001
1	 2.720731160793048e+000	 2.622399749400806e-001	 6.387000512075623e+001
1	 2.718030343910860e+000	 2.888928954771355e-001	 5.965866460932410e+001
1	 2.715057686402431e+000	 3.156105085318435e-001	 5.557654427544610e+001
1	 2.711810847537922e+000	 3.423891174918127e-001	 5.162349417298401e+001
1	 2.708287544386637e+000	 3.692249547671451e-001	 4.779941329725131e+001
1	 2.704485554061953e+000	 3.961141826427812e-001	 4.410425146722617e+001
1	 2.700402715962583e+000	 4.230528942062604e-001	 4.053801114018240e+001
1	 2.696036934007483e+000	 4.500371143516156e-001	 3.710074915240656e+001
1	 2.691386178861675e+000	 4.770628008600171e-001	 3.379257837964844e+001
1	 2.686448490150135e+000	 5.041258455576797e-001	 3.061366931094717e+001
1	 2.681221978656926e+000	 5.312220755514417e-001	 2.756425152949059e+001
1	 2.747276141879233e+000	 2.647985354028455e-001	 6.358016897195488e+001
1	 2.744548974310516e+000	 2.917114968000369e-001	 5.928853512203262e+001
1	 2.741547313885638e+000	 3.186897818914523e-001	 5.513343792388039e+001
1	 2.738268797037303e+000	 3.457296579984635e-001	 5.111457913860659e+001
1	 2.734711118561289e+000	 3.728273207724400e-001	 4.723170078583635e+001
1	 2.730872033883266e+000	 3.999788950554092e-001	 4.348458720361923e+001
1	 2.726749361321934e+000	 4.271804358168685e-001	 3.987306705954954e+001
1	 2.722340984345731e+000	 4.544279291674743e-001	 3.639701530688848e+001
1	 2.717644853820372e+000	 4.817172934502301e-001	 3.305635507941429e+001
1	 2.712658990244341e+000	 5.090443804096893e-001	 2.985105951867883e+001
1	 2.707381485969473e+000	 5.364049764395905e-001	 2.678115352731961e+001
1	 2.773821122965178e+000	 2.673570958656237e-001	 6.318262260710489e+001
1	 2.771067604709985e+000	 2.945300981229868e-001	 5.881931607345157e+001
1	 2.768036941368701e+000	 3.217690552511446e-001	 5.459958843451194e+001
1	 2.764726746536586e+000	 3.490701985052323e-001	 5.052299018820796e+001
1	 2.761134692735884e+000	 3.764296867778862e-001	 4.658910296686226e+001
1	 2.757258513704563e+000	 4.038436074682191e-001	 4.279754177310073e+001
1	 2.753096006681305e+000	 4.313079774276858e-001	 3.914795718656784e+001
1	 2.748645034684032e+000	 4.588187439835656e-001	 3.564003753539138e+001
1	 2.743903528779151e+000	 4.863717860406930e-001	 3.227351102622696e+001
1	 2.738869490338654e+000	 5.139629152619605e-001	 2.904814782662043e+001
1	 2.733540993282151e+000	 5.415878773280061e-001	 2.596376209335114e+001
1	 2.800366104050777e+000	 2.699156563283477e-001	 6.267863010383971e+001
1	 2.797586235109169e+000	 2.973486994459259e-001	 5.825219903988890e+001
1	 2.794526568851548e+000	 3.248483286108667e-001	 5.397610725454481e+001
1	 2.791184696035717e+000	 3.524107390120679e-001	 4.984975105302397e+001
1	 2.787558266910396e+000	 3.800320527834319e-001	 4.587254831733284e+001
1	 2.783644993525843e+000	 4.077083198811574e-001	 4.204394091657442e+001
1	 2.779442652040723e+000	 4.354355190386557e-001	 3.836339710846662e+001
1	 2.774949085022443e+000	 4.632095587998290e-001	 3.483041392618245e+001
1	 2.770162203738096e+000	 4.910262786313431e-001	 3.144451954447061e+001
1	 2.765079990433185e+000	 5.188814501144281e-001	 2.820527561887813e+001
1	 2.759700500595091e+000	 5.467707782166211e-001	 2.511227959177402e+001
1	 2.826911085135917e+000	 2.724742167909504e-001	 6.206940806052680e+001
1	 2.824104865507972e+000	 3.001673007687956e-001	 5.758833084156653e+001
1	 2.821016196334098e+000	 3.279276019705644e-001	 5.326406408477912e+001
1	 2.817642645534646e+000	 3.557512795189181e-001	 4.909584701253463e+001
1	 2.813981841084797e+000	 3.836344187890252e-001	 4.508293044028430e+001
1	 2.810031473347106e+000	 4.115730322941704e-001	 4.122457935978634e+001
1	 2.805789297400219e+000	 4.395630606497222e-001	 3.752007553473428e+001
1	 2.801253135361017e+000	 4.676003736162051e-001	 3.396872010309667e+001
1	 2.796420878697292e+000	 4.956807712221170e-001	 3.056983618027905e+001
1	 2.791290490528043e+000	 5.237999849670263e-001	 2.732277145703775e+001
1	 2.785860007908426e+000	 5.519536791053696e-001	 2.422690078590084e+001
1	 2.853456066220490e+000	 2.750327772533643e-001	 6.135612780470608e+001
1	 2.850623495906302e+000	 3.029859020915370e-001	 5.682881562439338e+001
1	 2.847505823816279e+000	 3.310068753301844e-001	 5.246448882139279e+001
1	 2.844100595033315e+000	 3.590918200257314e-001	 4.826222668299902e+001
1	 2.840405415259059e+000	 3.872367847946144e-001	 4.422110968690343e+001
1	 2.836417953168351e+000	 4.154377447072045e-001	 4.034022225595530e+001
1	 2.832135942759817e+000	 4.436906022608282e-001	 3.661865554730235e+001
1	 2.827557185699814e+000	 4.719911884326339e-001	 3.305551027044130e+001
1	 2.822679553656821e+000	 5.003352638129520e-001	 2.964989952846855e+001
1	 2.817500990623337e+000	 5.287185198196900e-001	 2.640095167658817e+001
1	 2.812019515222285e+000	 5.571365799941845e-001	 2.330781319171298e+001
1	 2.550424442091569e+000	 5.053075711170252e-001	 3.095767613959603e+001
1	 2.545175626282793e+000	 5.311133792549040e-001	 2.820308586577324e+001
1	 2.539648613041488e+000	 5.569426359281883e-001	 2.554695684075248e+001
1	 2.533841822305532e+000	 5.827911868836831e-001	 2.298936384059670e+001
1	 2.527753749957560e+000	 6.086548215885872e-001	 2.053036070821973e+001
1	 2.521382969806464e+000	 6.345292747799888e-001	 1.816997971448549e+001
1	 2.514728135537550e+000	 6.604102280884721e-001	 1.590823090574311e+001
1	 2.507787982628420e+000	 6.862933117354155e-001	 1.374510143825831e+001
1	 2.500561330227559e+000	 7.121741063034354e-001	 1.168055490006491e+001
1	 2.493047082992633e+000	 7.380481445792874e-001	 9.714530620826192e+000
1	 2.485244232885506e+000	 7.639109134684247e-001	 7.846942970362548e+000
1	 2.576583949405428e+000	 5.104904720028427e-001	 3.034937429811873e+001
1	 2.571281296896449e+000	 5.365609683296078e-001	 2.754788269400357e+001
1	 2.565697593505350e+000	 5.626551537016216e-001	 2.484935669222878e+001
1	 2.559831242963415e+000	 5.887688312558330e-001	 2.225366951978770e+001
1	 2.553680725725668e+000	 6.148977472723328e-001	 1.976065797790580e+001
1	 2.547244600972648e+000	 6.410375927397362e-001	 1.737012192312135e+001
1	 2.540521508580616e+000	 6.671840049954468e-001	 1.508182376383135e+001
1	 2.533510171057051e+000	 6.933325694403610e-001	 1.289548797317487e+001
1	 2.526209395438530e+000	 7.194788213274721e-001	 1.081080061912878e+001
1	 2.518618075147866e+000	 7.456182476236748e-001	 8.827408912694697e+000
1	 2.510735191807548e+000	 7.717462889439610e-001	 6.944920775056760e+000
1	 2.602743456718762e+000	 5.156733728892599e-001	 2.970563926876256e+001
1	 2.597386967509508e+000	 5.420085574049049e-001	 2.686363425325740e+001
1	 2.591746573968552e+000	 5.683676714756260e-001	 2.412858199758585e+001
1	 2.585820663620601e+000	 5.947464756285220e-001	 2.150017997479108e+001
1	 2.579607701493043e+000	 6.211406729565767e-001	 1.897807468553755e+001
1	 2.573106232138084e+000	 6.475459106999375e-001	 1.656186123772102e+001
1	 2.566314881622927e+000	 6.739577819028287e-001	 1.425108296865763e+001
1	 2.559232359484935e+000	 7.003718271456700e-001	 1.204523111113370e+001
1	 2.551857460648769e+000	 7.267835363518351e-001	 9.943744504546817e+000
1	 2.544189067302395e+000	 7.531883506683611e-001	 7.946009352312513e+000
1	 2.536226150728920e+000	 7.795816644197813e-001	 6.051359026653088e+000
1	 2.628902964031701e+000	 5.208562737762097e-001	 2.902671750827334e+001
1	 2.623492638122118e+000	 5.474561464807289e-001	 2.615042330979920e+001
1	 2.617795554431263e+000	 5.740801892501383e-001	 2.338457115288021e+001
1	 2.611810084277257e+000	 6.007241200016895e-001	 2.072870776911817e+001
1	 2.605534677259869e+000	 6.273835986412625e-001	 1.818231529515916e+001
1	 2.598967863302959e+000	 6.540542286605392e-001	 1.574481092975704e+001
1	 2.592108254664673e+000	 6.807315588105692e-001	 1.341554665864885e+001
1	 2.584954547912257e+000	 7.074110848512966e-001	 1.119380904893295e+001
1	 2.577505525858459e+000	 7.340882513764789e-001	 9.078819114538060e+000
1	 2.569760059456395e+000	 7.607584537133000e-001	 7.069732254262067e+000
1	 2.561717109649788e+000	 7.874170398958365e-001	 5.165638263744665e+000
1	 2.655062471344379e+000	 5.260391746636258e-001	 2.831284576035329e+001
1	 2.649598308734429e+000	 5.529037355570139e-001	 2.540832936801571e+001
1	 2.643844534893646e+000	 5.797927070250948e-001	 2.261726498202972e+001
1	 2.637799504933566e+000	 6.067017643752752e-001	 1.993907285329723e+001
1	 2.631461653026330e+000	 6.336265243263337e-001	 1.737309591811337e+001
1	 2.624829494467459e+000	 6.605625466214887e-001	 1.491859951196845e+001
1	 2.617901627706040e+000	 6.875053357186184e-001	 1.257477117454833e+001
1	 2.610676736339206e+000	 7.144503425571936e-001	 1.034072054803172e+001
1	 2.603153591067784e+000	 7.413929664013585e-001	 8.215479370633087e+000
1	 2.595331051610041e+000	 7.683285567584447e-001	 6.198001567182738e+000
1	 2.587208068570322e+000	 7.952524153720764e-001	 4.287163438367808e+000
1	 2.681221978656926e+000	 5.312220755514417e-001	 2.756425152949059e+001
1	 2.675703979346590e+000	 5.583513246336944e-001	 2.463742882953940e+001
1	 2.669893515355863e+000	 5.855052248004322e-001	 2.182660661837559e+001
1	 2.663788925589697e+000	 6.126794087492186e-001	 1.913110220451413e+001
1	 2.657388628792607e+000	 6.398694500117333e-001	 1.655014374485363e+001
1	 2.650691125631771e+000	 6.670708645827342e-001	 1.408286999484911e+001
1	 2.643695000747222e+000	 6.942791126269278e-001	 1.172833017145580e+001
1	 2.636398924765966e+000	 7.214896002633148e-001	 9.485483931348252e+000
1	 2.628801656276926e+000	 7.486976814264280e-001	 7.353201466728786e+000
1	 2.620902043763512e+000	 7.758986598037490e-001	 5.330263720835299e+000
1	 2.612699027490689e+000	 8.030877908484521e-001	 3.415362725045639e+000
1	 2.707381485969473e+000	 5.364049764395905e-001	 2.678115352731961e+001
1	 2.701809649958752e+000	 5.637989137107040e-001	 2.383779514314724e+001
1	 2.695942495818080e+000	 5.912177425760866e-001	 2.101254139311094e+001
1	 2.689778346245830e+000	 6.186570531234595e-001	 1.830462948714437e+001
1	 2.683315604558885e+000	 6.461123756974059e-001	 1.571319650969618e+001
1	 2.676552756796084e+000	 6.735791825442226e-001	 1.323727918624019e+001
1	 2.669488373788401e+000	 7.010528895354479e-001	 1.087581378234552e+001
1	 2.662121113192727e+000	 7.285288579696133e-001	 8.627636138217335e+000
1	 2.654449721486068e+000	 7.560023964516419e-001	 6.491481841389419e+000
1	 2.646473035916982e+000	 7.834687628491669e-001	 4.465986540006303e+000
1	 2.638189986411056e+000	 8.109231663249130e-001	 2.549686398875986e+000
1	 2.733540993282151e+000	 5.415878773280061e-001	 2.596376209335114e+001
1	 2.727915320571063e+000	 5.692465027879771e-001	 2.300949894605240e+001
1	 2.721991476280464e+000	 5.969302603519943e-001	 2.017501673011578e+001
1	 2.715767766902138e+000	 6.246346974979379e-001	 1.745949473277707e+001
1	 2.709242580325346e+000	 6.523553013832940e-001	 1.486200198630565e+001
1	 2.702414387960585e+000	 6.800875005059015e-001	 1.238149703113925e+001
1	 2.695281746829769e+000	 7.078266664441295e-001	 1.001682782961476e+001
1	 2.687843301619675e+000	 7.355681156760430e-001	 7.766731833611191e+000
1	 2.680097786695394e+000	 7.633071114769551e-001	 5.629836209157130e+000
1	 2.672044028070630e+000	 7.910388658946514e-001	 3.604658220774665e+000
1	 2.663680945331589e+000	 8.187585418014099e-001	 1.689605778038332e+000
1	 2.759700500595091e+000	 5.467707782166211e-001	 2.511227959177402e+001
1	 2.754020991183671e+000	 5.746940918654474e-001	 2.215260819715995e+001
1	 2.748040456743174e+000	 6.026427781280915e-001	 1.931398204677287e+001
1	 2.741757187558796e+000	 6.306123418725929e-001	 1.659554403843735e+001
1	 2.735169556092173e+000	 6.585982270693415e-001	 1.399631751187454e+001
1	 2.728276019125458e+000	 6.865958184677176e-001	 1.151520598905745e+001
1	 2.721075119871516e+000	 7.146004433529242e-001	 9.150993081474676e+000
1	 2.713565490046998e+000	 7.426073733825570e-001	 6.902342568023069e+000
1	 2.705745851905084e+000	 7.706118265023213e-001	 4.767798646956185e+000
1	 2.697615020224630e+000	 7.986089689401572e-001	 2.745786365003293e+000
1	 2.689171904252460e+000	 8.265939172778937e-001	 8.346122264452327e-001
1	 2.785860007908426e+000	 5.519536791053696e-001	 2.422690078590084e+001
1	 2.780126661796730e+000	 5.801416809430495e-001	 2.126718830281498e+001
1	 2.774089437206378e+000	 6.083552959043149e-001	 1.842938866037212e+001
1	 2.767746608215980e+000	 6.365899862473642e-001	 1.571262928181136e+001
1	 2.761096531859548e+000	 6.648411527554914e-001	 1.311590953811091e+001
1	 2.754137650290895e+000	 6.931041364296192e-001	 1.063810044645693e+001
1	 2.746868492913828e+000	 7.213742202617821e-001	 8.277944550237004e+000
1	 2.739287678474881e+000	 7.496466310891085e-001	 6.034055984683469e+000
1	 2.731393917115324e+000	 7.779165415276960e-001	 3.904920731969957e+000
1	 2.723186012379157e+000	 8.061790719856370e-001	 1.888897069227408e+000
1	 2.714662863173830e+000	 8.344292927543136e-001	-1.578378741498243e-002
1	 2.812019515222285e+000	 5.571365799941845e-001	 2.330781319171299e+001
1	 2.806232332410389e+000	 5.855892700207176e-001	 2.035330223553178e+001
1	 2.800138417670240e+000	 6.140678136806007e-001	 1.752118969973857e+001
1	 2.793736028873866e+000	 6.425676306221917e-001	 1.481060785236597e+001
1	 2.787023507627656e+000	 6.710840784416882e-001	 1.222055320728829e+001
1	 2.779999281457080e+000	 6.996124543915534e-001	 9.749886161983682e+000
1	 2.772661865956894e+000	 7.281479971706543e-001	 7.397330829767684e+000
1	 2.765009866903513e+000	 7.566858887956514e-001	 5.161475071026874e+000
1	 2.757041982326296e+000	 7.852212565530334e-001	 3.040770727638431e+000
1	 2.748757004534393e+000	 8.137491750310453e-001	 1.033534064398388e+000
1	 2.740153822095873e+000	 8.422646682306209e-001	-8.620535791034381e-001
1	 2.485244232885506e+000	 7.639109134684247e-001	 7.846942970362548e+000
1	 2.477151860299458e+000	 7.897578556018046e-001	 6.071960584328911e+000
1	 2.468769133891297e+000	 8.155843702179723e-001	 4.383626094026364e+000
1	 2.460095314090222e+000	 8.413858163563169e-001	 2.781635716222168e+000
1	 2.451129755315018e+000	 8.671575154167842e-001	 1.265672376850546e+000
1	 2.441871907512629e+000	 8.928947534162471e-001	-1.645942434099190e-001
1	 2.432321317635802e+000	 9.185927833090085e-001	-1.509507673956030e+000
1	 2.422477631056948e+000	 9.442468273696874e-001	-2.769424630086744e+000
1	 2.412340592915415e+000	 9.698520796365818e-001	-3.944715000409045e+000
1	 2.401910049395445e+000	 9.954037084134924e-001	-5.035761846356241e+000
1	 2.391185948932115e+000	 1.020896858827830e+000	-6.042961414306960e+000
1	 2.510735191807548e+000	 7.717462889439610e-001	 6.944920775056760e+000
1	 2.502559816378509e+000	 7.978583411747027e-001	 5.157362041108690e+000
1	 2.494091108990538e+000	 8.239497563647819e-001	 3.458827170472257e+000
1	 2.485328322487116e+000	 8.500158459516010e-001	 1.848979904670915e+000
1	 2.476270804665348e+000	 8.760518833470561e-001	 3.274607648716694e-001
1	 2.466917999830329e+000	 9.020531062170464e-001	-1.106112969622733e+000
1	 2.457269450287938e+000	 9.280147188257834e-001	-2.452147277414554e+000
1	 2.447324797773200e+000	 9.539318944431132e-001	-3.711071405771649e+000
1	 2.437083784811378e+000	 9.797997778129445e-001	-4.883337876289114e+000
1	 2.426546256009037e+000	 1.005613487680731e+000	-5.969422485624225e+000
1	 2.415712159272363e+000	 1.031368119377818e+000	-6.969824301468707e+000
1	 2.536226150728920e+000	 7.795816644197813e-001	 6.051359026653088e+000
1	 2.527967772456935e+000	 8.059588267478868e-001	 4.253718593220873e+000
1	 2.519413084089206e+000	 8.323151425118927e-001	 2.547264559153898e+000
1	 2.510561330883490e+000	 8.586458755472131e-001	 9.316437998300016e-001
1	 2.501411854015220e+000	 8.849462512776898e-001	-5.935288212744014e-001
1	 2.491964092147639e+000	 9.112114590182461e-001	-2.028670547025997e+000
1	 2.482217582939757e+000	 9.374366543429985e-001	-3.374230801752888e+000
1	 2.472171964489209e+000	 9.636169615170170e-001	-4.630691246831095e+000
1	 2.461826976707176e+000	 9.897474759898184e-001	-5.798565816550481e+000
1	 2.451182462622545e+000	 1.015823266948505e+000	-6.878400734090993e+000
1	 2.440238369612606e+000	 1.041839379928356e+000	-7.870774507460046e+000
1	 2.561717109649788e+000	 7.874170398958365e-001	 5.165638263744665e+000
1	 2.553375728534892e+000	 8.140593123213009e-001	 3.360409458380595e+000
1	 2.544735059187440e+000	 8.406805286592409e-001	 1.648340983538588e+000
1	 2.535794339279474e+000	 8.672759051430787e-001	 2.907807376273786e-002
1	 2.526552903364752e+000	 8.938406192086005e-001	-1.497773726574057e+000
1	 2.517010184464659e+000	 9.203698118197516e-001	-2.932648736455395e+000
1	 2.507165715591337e+000	 9.468585898605495e-001	-4.276021280202979e+000
1	 2.497019131205037e+000	 9.733020285912876e-001	-5.528405797675513e+000
1	 2.486570168602849e+000	 9.996951741670866e-001	-6.690356922149477e+000
1	 2.475818669235987e+000	 1.026033046216697e+000	-7.762469525387179e+000
1	 2.464764579952845e+000	 1.052310640479326e+000	-8.745378729444258e+000
1	 2.587208068570322e+000	 7.952524153720764e-001	 4.287163438367808e+000
1	 2.578783684612534e+000	 8.221597978948894e-001	 2.476838319802161e+000
1	 2.570057034285386e+000	 8.490459148067618e-001	 7.614827062129104e-001
1	 2.561027347675200e+000	 8.759059347391242e-001	-8.592449520392793e-001
1	 2.551693952714053e+000	 9.027349871397039e-001	-2.385732483488337e+000
1	 2.542056276781485e+000	 9.295281646214674e-001	-3.818414253265503e+000
1	 2.532113848242760e+000	 9.562805253783323e-001	-5.157771379660630e+000
1	 2.521866297920744e+000	 9.829870956658127e-001	-6.404331908620079e+000
1	 2.511313360498440e+000	 1.009642872344632e+000	-7.558670945318614e+000
1	 2.500454875849389e+000	 1.036242825485187e+000	-8.621410742004265e+000
1	 2.489290790293080e+000	 1.062781901030612e+000	-9.593220741380808e+000
1	 2.612699027490689e+000	 8.030877908484521e-001	 3.415362725045639e+000
1	 2.604191640690019e+000	 8.302602834685963e-001	 1.602432132703594e+000
1	 2.595379009383188e+000	 8.574113009543917e-001	-1.138616194216637e-001
1	 2.586260356070796e+000	 8.845359643352754e-001	-1.733832362776044e+000
1	 2.576835002063240e+000	 9.116293550709153e-001	-3.257845729680853e+000
1	 2.567102369098211e+000	 9.386865174232991e-001	-4.686319501290517e+000
1	 2.557061980894104e+000	 9.657024608962426e-001	-6.019723906384575e+000
1	 2.546713464636390e+000	 9.926721627404798e-001	-7.258581869753948e+000
1	 2.536056552393992e+000	 1.019590570522337e+000	-8.403469209012608e+000
1	 2.525091082462769e+000	 1.046452604753855e+000	-9.455014778743925e+000
1	 2.513817000633314e+000	 1.073253161582096e+000	-1.041390056097124e+001
1	 2.638189986411056e+000	 8.109231663249130e-001	 2.549686398875986e+000
1	 2.629599596767505e+000	 8.383607690423659e-001	 7.366400000020512e-001
1	 2.620700984480991e+000	 8.657766871020663e-001	-9.782220308815175e-001
1	 2.611493364466391e+000	 8.931659939314581e-001	-2.595171645231845e+000
1	 2.601976051412429e+000	 9.205237230021514e-001	-4.114537072541455e+000
1	 2.592148461414938e+000	 9.478448702251519e-001	-5.536703264254618e+000
1	 2.582010113545446e+000	 9.751243964141759e-001	-6.862112282378151e+000
1	 2.571560631352037e+000	 1.002357229815177e+000	-8.091263631251596e+000
1	 2.560799744289542e+000	 1.029538268700084e+000	-9.224714531024702e+000
1	 2.549727289076148e+000	 1.056662384022583e+000	-1.026308013147605e+001
1	 2.538343210973550e+000	 1.083724422133662e+000	-1.120703366490056e+001
1	 2.663680945331589e+000	 8.187585418014099e-001	 1.689605778038332e+000
1	 2.655007552845147e+000	 8.464612546161423e-001	-1.210678874339930e-001
1	 2.646022959578937e+000	 8.741420732497217e-001	-1.832108276221808e+000
1	 2.636726372862116e+000	 9.017960235275987e-001	-3.443731625542258e+000
1	 2.627117100761730e+000	 9.294180909333261e-001	-4.956213904069767e+000
1	 2.617194553731764e+000	 9.570032230269306e-001	-6.369891357482414e+000
1	 2.606958246196869e+000	 9.845463319320279e-001	-7.685160994417691e+000
1	 2.596407798067744e+000	 1.012042296889793e+000	-8.902481011033901e+000
1	 2.585542936185134e+000	 1.039485966877756e+000	-1.002237115245993e+001
1	 2.574363495689549e+000	 1.066872163291252e+000	-1.104541300950986e+001
1	 2.562869421313786e+000	 1.094195682685193e+000	-1.197225024913854e+001
1	 2.689171904252460e+000	 8.265939172778937e-001	 8.346122264452327e-001
1	 2.680415508923102e+000	 8.545617401898695e-001	-9.712012502599534e-001
1	 2.671344934677172e+000	 8.825074593972930e-001	-2.676010775666755e+000
1	 2.661959381258101e+000	 9.104260531236234e-001	-4.279963353625890e+000
1	 2.652258150111261e+000	 9.383124588643562e-001	-5.783268169412800e+000
1	 2.642240646048782e+000	 9.661615758285406e-001	-7.186197242543301e+000
1	 2.631906378848451e+000	 9.939682674496946e-001	-8.489086017542629e+000
1	 2.621254964783572e+000	 1.021727363964215e+000	-9.692333890618583e+000
1	 2.610286128080809e+000	 1.049433665055237e+000	-1.079640467027656e+001
1	 2.598999702302993e+000	 1.077081942559741e+000	-1.180182697001129e+001
1	 2.587395631654025e+000	 1.104666943236572e+000	-1.270919453131115e+001
1	 2.714662863173830e+000	 8.344292927543136e-001	-1.578378741498243e-002
1	 2.705823465001528e+000	 8.626622257634927e-001	-1.814250663819228e+000
1	 2.696666909775838e+000	 8.908728455447167e-001	-3.510401529061029e+000
1	 2.687192389654475e+000	 9.190560827194576e-001	-5.104300937786801e+000
1	 2.677399199461133e+000	 9.472068267951563e-001	-6.596077092102332e+000
1	 2.667286738366094e+000	 9.753199286298870e-001	-7.985922607266533e+000
1	 2.656854511500269e+000	 1.003390202967071e+000	-9.274095214685854e+000
1	 2.646102131499582e+000	 1.031412431038330e+000	-1.046091839993641e+001
1	 2.635029319976606e+000	 1.059381363232407e+000	-1.154678197362810e+001
1	 2.623635908916501e+000	 1.087291721827933e+000	-1.253214257301736e+001
1	 2.611921841994268e+000	 1.115138203787682e+000	-1.341752409237693e+001
1	 2.740153822095873e+000	 8.422646682306209e-001	-8.620535791034381e-001
1	 2.731231421080581e+000	 8.707627113369550e-001	-2.650688448663279e+000
1	 2.721988884875083e+000	 8.992382316919291e-001	-4.335734972670481e+000
1	 2.712425398051369e+000	 9.276861123150281e-001	-5.917162332732355e+000
1	 2.702540248811464e+000	 9.561011947256430e-001	-7.395003858812335e+000
1	 2.692332830683794e+000	 9.844782814308750e-001	-8.769357913382052e+000
1	 2.681802644152405e+000	 1.012812138484053e+000	-1.004038871399808e+001
1	 2.670949298215834e+000	 1.041097498112028e+000	-1.120832709183160e+001
1	 2.659772511872570e+000	 1.069329061409152e+000	-1.227347118375859e+001
1	 2.648272115530094e+000	 1.097501501095708e+000	-1.323618705570667e+001
1	 2.636448052334516e+000	 1.125609464338406e+000	-1.409690925504840e+001
1	 2.391185948932115e+000	 1.020896858827830e+000	-6.042961414306960e+000
1	 2.380170018213485e+000	 1.046322846371298e+000	-6.971774610697093e+000
1	 2.368860828443987e+000	 1.071680609277310e+000	-7.827306904162214e+000
1	 2.357258643002612e+000	 1.096965242574563e+000	-8.608981985686915e+000
1	 2.345363831499276e+000	 1.122171828923650e+000	-9.316204526011642e+000
1	 2.333176870580243e+000	 1.147295441416841e+000	-9.948361280827225e+000
1	 2.320698344647250e+000	 1.172331146418369e+000	-1.050482227630896e+001
1	 2.307928946488350e+000	 1.197274006442202e+000	-1.098494207400431e+001
1	 2.294869477818498e+000	 1.222119083064165e+000	-1.138806111384763e+001
1	 2.281520849728122e+000	 1.246861439865191e+000	-1.171350713383174e+001
1	 2.267884083038025e+000	 1.271496145402371e+000	-1.196059666462403e+001
1	 2.415712159272363e+000	 1.031368119377818e+000	-6.969824301468703e+000
1	 2.404583238999920e+000	 1.057054899319571e+000	-7.889839830488368e+000
1	 2.393158051741089e+000	 1.082672754848956e+000	-8.734376344262307e+000
1	 2.381436863576317e+000	 1.108216730684771e+000	-9.502925561237783e+000
1	 2.369420047906573e+000	 1.133681859050856e+000	-1.019496670351868e+001
1	 2.357108086267037e+000	 1.159063162504583e+000	-1.080996757985664e+001
1	 2.344501569053611e+000	 1.184355656806279e+000	-1.134738573788594e+001
1	 2.331601196160210e+000	 1.209554353826513e+000	-1.180666968450422e+001
1	 2.318407777524915e+000	 1.234654264488093e+000	-1.218726017308374e+001
1	 2.304922233583134e+000	 1.259650401739495e+000	-1.248859155598303e+001
1	 2.291145595626142e+000	 1.284537783556398e+000	-1.271009320061109e+001
1	 2.440238369612606e+000	 1.041839379928356e+000	-7.870774507460046e+000
1	 2.428996459786430e+000	 1.067786952268393e+000	-8.780785625987649e+000
1	 2.417455275038343e+000	 1.093664900421135e+000	-9.613142539220865e+000
1	 2.405615084150245e+000	 1.119468218795488e+000	-1.036743240798297e+001
1	 2.393476264314158e+000	 1.145191889178536e+000	-1.104323847704172e+001
1	 2.381039301954177e+000	 1.170830883592759e+000	-1.164014110937138e+001
1	 2.368304793460359e+000	 1.196380167194577e+000	-1.215771887447002e+001
1	 2.355273445832486e+000	 1.221834701211166e+000	-1.259554968951779e+001
1	 2.341946077231757e+000	 1.247189445912312e+000	-1.295321201198219e+001
1	 2.328323617438561e+000	 1.272439363614045e+000	-1.323028608209579e+001
1	 2.314407108214645e+000	 1.297579421710628e+000	-1.342635521345324e+001
1	 2.464764579952845e+000	 1.052310640479326e+000	-8.745378729444258e+000
1	 2.453409680572995e+000	 1.078519005217651e+000	-9.643981878734111e+000
1	 2.441752498335712e+000	 1.104657045993749e+000	-1.046281749338582e+001
1	 2.429793304724341e+000	 1.130719706906630e+000	-1.120159477264224e+001
1	 2.417532480721959e+000	 1.156701919306625e+000	-1.186002959624870e+001
1	 2.404970517641572e+000	 1.182598604681320e+000	-1.243784548385741e+001
1	 2.392108017867391e+000	 1.208404677583233e+000	-1.293477458926374e+001
1	 2.378945695505065e+000	 1.234115048596146e+000	-1.335055872814165e+001
1	 2.365484376938909e+000	 1.259724627336829e+000	-1.368495043781171e+001
1	 2.351725001294286e+000	 1.285228325488860e+000	-1.393771406744193e+001
1	 2.337668620803413e+000	 1.310621059865092e+000	-1.410862689695010e+001
1	 2.489290790293080e+000	 1.062781901030612e+000	-9.593220741380808e+000
1	 2.477822901359597e+000	 1.089251058167239e+000	-1.047882330371577e+001
1	 2.466049721633156e+000	 1.115649191566700e+000	-1.128264426661348e+001
1	 2.453971525298549e+000	 1.141971195018112e+000	-1.200454067718243e+001
1	 2.441588697129901e+000	 1.168211949435054e+000	-1.264438883732570e+001
1	 2.428901733329135e+000	 1.194366325770216e+000	-1.320208516254092e+001
1	 2.415911242274608e+000	 1.220429187972218e+000	-1.367754705234956e+001
1	 2.402617945177838e+000	 1.246395395981444e+000	-1.407071377090257e+001
1	 2.389022676646254e+000	 1.272259808761649e+000	-1.438154733623000e+001
1	 2.375126385150190e+000	 1.298017287363961e+000	-1.461003341652723e+001
1	 2.360930133392335e+000	 1.323662698019823e+000	-1.475618223179679e+001
1	 2.513817000633314e+000	 1.073253161582096e+000	-1.041390056097124e+001
1	 2.502236122146217e+000	 1.099983111117045e+000	-1.128472823792430e+001
1	 2.490346944930636e+000	 1.126641337139889e+000	-1.207189545929387e+001
1	 2.478149745872811e+000	 1.153222683129850e+000	-1.277543217360061e+001
1	 2.465644913537911e+000	 1.179721979563755e+000	-1.339540209915411e+001
1	 2.452832949016774e+000	 1.206134046859400e+000	-1.393190345686768e+001
1	 2.439714466681911e+000	 1.232453698361500e+000	-1.438506968757591e+001
1	 2.426290194850694e+000	 1.258675743367048e+000	-1.475507015227729e+001
1	 2.412560976353672e+000	 1.284794990186778e+000	-1.504211081371300e+001
1	 2.398527769006153e+000	 1.310806249239370e+000	-1.524643489768284e+001
1	 2.384191645981290e+000	 1.336704336174856e+000	-1.536832353249573e+001
1	 2.538343210973550e+000	 1.083724422133662e+000	-1.120703366490056e+001
1	 2.526649342932837e+000	 1.110715164066960e+000	-1.206113749914170e+001
1	 2.514644168228117e+000	 1.137633482713217e+000	-1.282987178520465e+001
1	 2.502327966447069e+000	 1.164474171241760e+000	-1.351346369988411e+001
1	 2.489701129945918e+000	 1.191232009692661e+000	-1.411219060985934e+001
1	 2.476764164704404e+000	 1.217901767948820e+000	-1.462638065349605e+001
1	 2.463517691089194e+000	 1.244478208751050e+000	-1.505641327615075e+001
1	 2.449962444523521e+000	 1.270956090752944e+000	-1.540271971727443e+001
1	 2.436099276061050e+000	 1.297330171612221e+000	-1.566578344767479e+001
1	 2.421929152862056e+000	 1.323595211115106e+000	-1.584614055536628e+001
1	 2.407453158570164e+000	 1.349745974330222e+000	-1.594438007850941e+001
1	 2.562869421313786e+000	 1.094195682685193e+000	-1.197225024913854e+001
1	 2.551062563719439e+000	 1.121447217016874e+000	-1.280751331025456e+001
1	 2.538941391525559e+000	 1.148625628286586e+000	-1.355590072631047e+001
1	 2.526506187021270e+000	 1.175725659353757e+000	-1.421786053036941e+001
1	 2.513757346353844e+000	 1.202742039821704e+000	-1.479390923633779e+001
1	 2.500695380391936e+000	 1.229669489038429e+000	-1.528463224506554e+001
1	 2.487320915496360e+000	 1.256502719140836e+000	-1.569068416912514e+001
1	 2.473634694196211e+000	 1.283236438139122e+000	-1.601278907443785e+001
1	 2.459637575768267e+000	 1.309865353037983e+000	-1.625174063706358e+001
1	 2.445330536717781e+000	 1.336384172991191e+000	-1.640840221362643e+001
1	 2.430714671158838e+000	 1.362787612485952e+000	-1.648370682401068e+001
1	 2.587395631654025e+000	 1.104666943236572e+000	-1.270919453131115e+001
1	 2.575475784506004e+000	 1.132179269966677e+000	-1.352333828474718e+001
1	 2.563238614822923e+000	 1.159617773859897e+000	-1.424933526407006e+001
1	 2.550684407595356e+000	 1.186977147465758e+000	-1.488787731423654e+001
1	 2.537813562761619e+000	 1.214252069950818e+000	-1.543974488992884e+001
1	 2.524626596079281e+000	 1.241437210128177e+000	-1.590580726159026e+001
1	 2.511124139903305e+000	 1.268527229530830e+000	-1.628702260154079e+001
1	 2.497306943868649e+000	 1.295516785525570e+000	-1.658443794820984e+001
1	 2.483175875475209e+000	 1.322400534464070e+000	-1.679918904676709e+001
1	 2.468731920573207e+000	 1.349173134867645e+000	-1.693250006468328e+001
1	 2.453976183747196e+000	 1.375829250642081e+000	-1.698568318101571e+001
1	 2.611921841994268e+000	 1.115138203787682e+000	-1.341752409237693e+001
1	 2.599889005292511e+000	 1.142911322916259e+000	-1.420811446935305e+001
1	 2.587535838120173e+000	 1.170609919433050e+000	-1.490955268222230e+001
1	 2.574862628169269e+000	 1.198228635577678e+000	-1.552279669634560e+001
1	 2.561869779169168e+000	 1.225762100079935e+000	-1.604891502191237e+001
1	 2.548557811766347e+000	 1.253204931218015e+000	-1.648908669586239e+001
1	 2.534927364309928e+000	 1.280551739920999e+000	-1.684460110155996e+001
1	 2.520979193540728e+000	 1.307797132912276e+000	-1.711685762412316e+001
1	 2.506714175181758e+000	 1.334935715890489e+000	-1.730736513966113e+001
1	 2.492133304428216e+000	 1.361962096744488e+000	-1.741774133702837e+001
1	 2.477237696335122e+000	 1.388870888798642e+000	-1.744971187107619e+001
1	 2.636448052334516e+000	 1.125609464338406e+000	-1.409690925504840e+001
1	 2.624302226078947e+000	 1.153643375865511e+000	-1.486136244014191e+001
1	 2.611833061417270e+000	 1.181602065005949e+000	-1.553595343639660e+001
1	 2.599040848742956e+000	 1.209480123689433e+000	-1.612192801505326e+001
1	 2.585925995576417e+000	 1.237272130208986e+000	-1.662066620298210e+001
1	 2.572489027453052e+000	 1.264972652307894e+000	-1.703368201674418e+001
1	 2.558730588716131e+000	 1.292576250311315e+000	-1.736262298839196e+001
1	 2.544651443212336e+000	 1.320077480299228e+000	-1.760926948077694e+001
1	 2.530252474887798e+000	 1.347470897317243e+000	-1.777553379059390e+001
1	 2.515534688282688e+000	 1.374751058621742e+000	-1.786345903786664e+001
1	 2.500499208922499e+000	 1.401912526955667e+000	-1.787521784106565e+001
1	 2.267884083038025e+000	 1.271496145402371e+000	-1.196059666462403e+001
1	 2.253958198620401e+000	 1.296021946435735e+000	-1.214976885092368e+001
1	 2.239746463665040e+000	 1.320430225689309e+000	-1.230184855806073e+001
1	 2.225250231807174e+000	 1.344716083974012e+000	-1.241685408347562e+001
1	 2.210470966914093e+000	 1.368874639231026e+000	-1.249485336299284e+001
1	 2.195410242948958e+000	 1.392901029590033e+000	-1.253596396786803e+001
1	 2.180069743733891e+000	 1.416790416433498e+000	-1.254035302441393e+001
1	 2.164451262611717e+000	 1.440537987463154e+000	-1.250823705573030e+001
1	 2.148556702005920e+000	 1.464138959764829e+000	-1.243988174524650e+001
1	 2.132388072878527e+000	 1.487588582867685e+000	-1.233560162197088e+001
1	 2.115947494085821e+000	 1.510882141793964e+000	-1.219575966753058e+001
1	 2.291145595626142e+000	 1.284537783556398e+000	-1.271009320061109e+001
1	 2.277076874483293e+000	 1.309315143844457e+000	-1.287305242445069e+001
1	 2.262719370855698e+000	 1.333973776940951e+000	-1.299911256919625e+001
1	 2.248074452262729e+000	 1.358508733406175e+000	-1.308835095803782e+001
1	 2.233143597586459e+000	 1.382915081106391e+000	-1.314089171934982e+001
1	 2.217928396934078e+000	 1.407187908303436e+000	-1.315690566321597e+001
1	 2.202430551398550e+000	 1.431322326750428e+000	-1.313661008451980e+001
1	 2.186651872716887e+000	 1.455313474789710e+000	-1.308026849241327e+001
1	 2.170594282825594e+000	 1.479156520449108e+000	-1.298819026615244e+001
1	 2.154259813312990e+000	 1.502846664532554e+000	-1.286073023746632e+001
1	 2.137650604768312e+000	 1.526379143701107e+000	-1.269828819980511e+001
1	 2.314407108214645e+000	 1.297579421710628e+000	-1.342635521345324e+001
1	 2.300195550346515e+000	 1.322608341253345e+000	-1.356348503284899e+001
1	 2.285692278046610e+000	 1.347517328192726e+000	-1.366402361394911e+001
1	 2.270898672718448e+000	 1.372301382838444e+000	-1.372808344948572e+001
1	 2.255816228258888e+000	 1.396955522981840e+000	-1.375582018812907e+001
1	 2.240446550919155e+000	 1.421474787016904e+000	-1.374743242937509e+001
1	 2.224791359063059e+000	 1.445854237067408e+000	-1.370316145080583e+001
1	 2.208852482821807e+000	 1.470088962116304e+000	-1.362329086775608e+001
1	 2.192631863644929e+000	 1.494174081133417e+000	-1.350814622558390e+001
1	 2.176131553747041e+000	 1.518104746197446e+000	-1.335809452490607e+001
1	 2.159353715450340e+000	 1.541876145608267e+000	-1.317354368032638e+001
1	 2.337668620803413e+000	 1.310621059865092e+000	-1.410862689695010e+001
1	 2.323314226209956e+000	 1.335901538662437e+000	-1.422043971406233e+001
1	 2.308665185237677e+000	 1.361060879444679e+000	-1.429606951395504e+001
1	 2.293722893174246e+000	 1.386094032270866e+000	-1.433564088758460e+001
1	 2.278488858931313e+000	 1.410995964857420e+000	-1.433931713186850e+001
1	 2.262964704904140e+000	 1.435761665730482e+000	-1.430730000113819e+001
1	 2.247152166727390e+000	 1.460386147384478e+000	-1.423982939856574e+001
1	 2.231053092926469e+000	 1.484864449442971e+000	-1.413718300775429e+001
1	 2.214669444463933e+000	 1.509191641817783e+000	-1.399967586482713e+001
1	 2.198003294180702e+000	 1.533362827862383e+000	-1.382765987149665e+001
1	 2.181056826131934e+000	 1.557373147515462e+000	-1.362152324974076e+001
1	 2.360930133392335e+000	 1.323662698019823e+000	-1.475618223179679e+001
1	 2.346432902073507e+000	 1.349194736071776e+000	-1.484331421508426e+001
1	 2.331638092428801e+000	 1.374604430696857e+000	-1.489475827618706e+001
1	 2.316547113630038e+000	 1.399886681703488e+000	-1.491062878692445e+001
1	 2.301161489603666e+000	 1.425036406733176e+000	-1.489107358908161e+001
1	 2.285482858888985e+000	 1.450048544444212e+000	-1.483627373997430e+001
1	 2.269512974391513e+000	 1.474918057701679e+000	-1.474644320735788e+001
1	 2.253253703030859e+000	 1.499639936769746e+000	-1.462182851396204e+001
1	 2.236707025282611e+000	 1.524209202502237e+000	-1.446270833205455e+001
1	 2.219875034613993e+000	 1.548620909527386e+000	-1.426939302856022e+001
1	 2.202759936813131e+000	 1.572870149422706e+000	-1.404222416138362e+001
1	 2.384191645981290e+000	 1.336704336174856e+000	-1.536832353249573e+001
1	 2.369551577937059e+000	 1.362487933481405e+000	-1.543152978658149e+001
1	 2.354610999619883e+000	 1.388147981949305e+000	-1.545961710825814e+001
1	 2.339371334085742e+000	 1.413679331136361e+000	-1.545266805737886e+001
1	 2.323834120275880e+000	 1.439076848609156e+000	-1.541079265588772e+001
1	 2.308001012873640e+000	 1.464335423158141e+000	-1.533412816441234e+001
1	 2.291873782055399e+000	 1.489449968019049e+000	-1.522283881931743e+001
1	 2.275454313134967e+000	 1.514415424096662e+000	-1.507711553052681e+001
1	 2.258744606100969e+000	 1.539226763186804e+000	-1.489717554051858e+001
1	 2.241746775046934e+000	 1.563878991192479e+000	-1.468326204498957e+001
1	 2.224463047493960e+000	 1.588367151330018e+000	-1.443564377578170e+001
1	 2.407453158570164e+000	 1.349745974330222e+000	-1.594438007850940e+001
1	 2.392670253800501e+000	 1.375781130891361e+000	-1.598453004739736e+001
1	 2.377583906810826e+000	 1.401691533202069e+000	-1.599019149081033e+001
1	 2.362195554541274e+000	 1.427471980569528e+000	-1.596139426033655e+001
1	 2.346506750947889e+000	 1.453117290485407e+000	-1.589818890349155e+001
1	 2.330519166858057e+000	 1.478622301872309e+000	-1.580064650765035e+001
1	 2.314234589719017e+000	 1.503981878336627e+000	-1.566885851727765e+001
1	 2.297654923238782e+000	 1.529190911423753e+000	-1.550293652473019e+001
1	 2.280782186919012e+000	 1.554244323871513e+000	-1.530301203496640e+001
1	 2.263618515479548e+000	 1.579137072857684e+000	-1.506923620456010e+001
1	 2.246166158174458e+000	 1.603864153237413e+000	-1.480177955547473e+001
1	 2.430714671158838e+000	 1.362787612485952e+000	-1.648370682401068e+001
1	 2.415788929663723e+000	 1.389074328301687e+000	-1.650177991425415e+001
1	 2.400556814001530e+000	 1.415235084455194e+000	-1.648604430316651e+001
1	 2.385019774996549e+000	 1.441264630003039e+000	-1.643645690763913e+001
1	 2.369179381619624e+000	 1.467157732361975e+000	-1.635298782911052e+001
1	 2.353037320842188e+000	 1.492909180586763e+000	-1.623562030056605e+001
1	 2.336595397382337e+000	 1.518513788654453e+000	-1.608435062137314e+001
1	 2.319855533342289e+000	 1.543966398751055e+000	-1.589918808012967e+001
1	 2.302819767736745e+000	 1.569261884556394e+000	-1.568015486572558e+001
1	 2.285490255911855e+000	 1.594395154523022e+000	-1.542728596684203e+001
1	 2.267869268854655e+000	 1.619361155144911e+000	-1.514062906013416e+001
1	 2.453976183747196e+000	 1.375829250642081e+000	-1.698568318101571e+001
1	 2.438907605526618e+000	 1.402367525712424e+000	-1.698276459232855e+001
1	 2.423529721191898e+000	 1.428778635708728e+000	-1.694675499871022e+001
1	 2.407843995451483e+000	 1.455057279436941e+000	-1.687751880039181e+001
1	 2.391852012291019e+000	 1.481198174238908e+000	-1.677492533813028e+001
1	 2.375555474825982e+000	 1.507196059301545e+000	-1.663884897844383e+001
1	 2.358956205045328e+000	 1.533045698972569e+000	-1.646916920289846e+001
1	 2.342056143445481e+000	 1.558741886078599e+000	-1.626577070146553e+001
1	 2.324857348554177e+000	 1.584279445241474e+000	-1.602854346995047e+001
1	 2.307361996343876e+000	 1.609653236188517e+000	-1.575738291147304e+001
1	 2.289572379534584e+000	 1.634858157052526e+000	-1.545218994195945e+001
1	 2.477237696335122e+000	 1.388870888798642e+000	-1.744971187107620e+001
1	 2.462026281389075e+000	 1.415660723123613e+000	-1.742698862269830e+001
1	 2.446502628381830e+000	 1.442322186962715e+000	-1.737191882672515e+001
1	 2.430668215905993e+000	 1.468849928871283e+000	-1.728425540502562e+001
1	 2.414524642962007e+000	 1.495238616116251e+000	-1.716374725543587e+001
1	 2.398073628809393e+000	 1.521482938016700e+000	-1.701013950985887e+001
1	 2.381317012707963e+000	 1.547577609291011e+000	-1.682317381428826e+001
1	 2.364256753548344e+000	 1.573517373406422e+000	-1.660258863055917e+001
1	 2.346894929371313e+000	 1.599297005926782e+000	-1.634811955955954e+001
1	 2.329233736775630e+000	 1.624911317854190e+000	-1.605949968557034e+001
1	 2.311275490214281e+000	 1.650355158960276e+000	-1.573645994133391e+001
1	 2.500499208922499e+000	 1.401912526955667e+000	-1.787521784106564e+001
1	 2.485144957250983e+000	 1.428953920535294e+000	-1.783397498295748e+001
1	 2.469475535571230e+000	 1.455865738217200e+000	-1.776114609766894e+001
1	 2.453492436359996e+000	 1.482642578306111e+000	-1.765635426418591e+001
1	 2.437197273632522e+000	 1.509279057994052e+000	-1.751920886401888e+001
1	 2.420591782792370e+000	 1.535769816732273e+000	-1.734930604627552e+001
1	 2.403677820370209e+000	 1.562109519609820e+000	-1.714622923416913e+001
1	 2.386457363650869e+000	 1.588292860734558e+000	-1.690954967248769e+001
1	 2.368932510188158e+000	 1.614314566612345e+000	-1.663882701542759e+001
1	 2.351105477207142e+000	 1.640169399520066e+000	-1.633360995407825e+001
1	 2.332978600893775e+000	 1.665852160868178e+000	-1.599343688272294e+001
1	 2.115947494085821e+000	 1.510882141793964e+000	-1.219575966753058e+001
1	 2.099237191034965e+000	 1.534014959583876e+000	-1.202637921381973e+001
1	 2.082259493061533e+000	 1.556982398749111e+000	-1.183349076085102e+001
1	 2.065016834301999e+000	 1.579779865751119e+000	-1.161752877272387e+001
1	 2.047511753248752e+000	 1.602402814479762e+000	-1.137896003633199e+001
1	 2.029746891604005e+000	 1.624846749199452e+000	-1.111828290997584e+001
1	 2.011724993034463e+000	 1.647107227462233e+000	-1.083602651846199e+001
1	 1.993448901827818e+000	 1.669179862983960e+000	-1.053274989613364e+001
1	 1.974921561452376e+000	 1.691060328479695e+000	-1.020904107941138e+001
1	 1.956146013021241e+000	 1.712744358454552e+000	-9.865516150556061e+000
1	 1.937125393662695e+000	 1.734227751946229e+000	-9.502818234490990e+000
1	 2.137650604768312e+000	 1.526379143701107e+000	-1.269828819980511e+001
1	 2.120768905424560e+000	 1.549749233023748e+000	-1.250676679333568e+001
1	 2.103617068509114e+000	 1.572952247445816e+000	-1.229186492560412e+001
1	 2.086197553125190e+000	 1.595983546313200e+000	-1.205372967592196e+001
1	 2.068512923802284e+000	 1.618838536886679e+000	-1.179253393590485e+001
1	 2.050565849338336e+000	 1.641512677318262e+000	-1.150847615116560e+001
1	 2.032359101541615e+000	 1.664001479594162e+000	-1.120178002349297e+001
1	 2.013895553873444e+000	 1.686300512440468e+000	-1.087269417396970e+001
1	 1.995178179993044e+000	 1.708405404187630e+000	-1.052149176757895e+001
1	 1.976210052205971e+000	 1.730311845589921e+000	-1.014847009994303e+001
1	 1.956994339817781e+000	 1.752015592596107e+000	-9.753950146931235e+000
1	 2.159353715450340e+000	 1.541876145608267e+000	-1.317354368032637e+001
1	 2.142300619813663e+000	 1.565483506463633e+000	-1.296023659380895e+001
1	 2.124974643956197e+000	 1.588922096142528e+000	-1.272354908865826e+001
1	 2.107378271947896e+000	 1.612187226875288e+000	-1.246338379903293e+001
1	 2.089514094355360e+000	 1.635274259293600e+000	-1.217966352449368e+001
1	 2.071384807072251e+000	 1.658178605437074e+000	-1.187233139801334e+001
1	 2.052993210048401e+000	 1.680895731726092e+000	-1.154135102667098e+001
1	 2.034342205918759e+000	 1.703421161896978e+000	-1.118670660462461e+001
1	 2.015434798533458e+000	 1.725750479895565e+000	-1.080840299801769e+001
1	 1.996274091390503e+000	 1.747879332725290e+000	-1.040646580153752e+001
1	 1.976863285972716e+000	 1.769803433245986e+000	-9.980941366406633e+000
1	 2.181056826131934e+000	 1.557373147515462e+000	-1.362152324974076e+001
1	 2.163832334202312e+000	 1.581217779903542e+000	-1.338682323816727e+001
1	 2.146332219402828e+000	 1.604891944839259e+000	-1.312863280174619e+001
1	 2.128558990770164e+000	 1.628390907437387e+000	-1.284665183313975e+001
1	 2.110515264908026e+000	 1.651709981700528e+000	-1.254059558795107e+001
1	 2.092203764805794e+000	 1.674844533555892e+000	-1.221019521347450e+001
1	 2.073627318554861e+000	 1.697789983858025e+000	-1.185519826055898e+001
1	 2.054788857963796e+000	 1.720541811353488e+000	-1.147536917744833e+001
1	 2.035691417073646e+000	 1.743095555603501e+000	-1.107048978449537e+001
1	 2.016338130574856e+000	 1.765446819860659e+000	-1.064035972868063e+001
1	 1.996732232127518e+000	 1.787591273895864e+000	-1.018479691690451e+001
1	 2.202759936813131e+000	 1.572870149422706e+000	-1.404222416138362e+001
1	 2.185364048590552e+000	 1.596952053343489e+000	-1.378655998482218e+001
1	 2.167689794849051e+000	 1.620861793536015e+000	-1.350720208729880e+001
1	 2.149739709592040e+000	 1.644594587999504e+000	-1.320368813636798e+001
1	 2.131516435460329e+000	 1.668145704107467e+000	-1.287556718611195e+001
1	 2.113022722539009e+000	 1.691510461674715e+000	-1.252240050219555e+001
1	 2.094261427061033e+000	 1.714684235989961e+000	-1.214376237872142e+001
1	 2.075235510008592e+000	 1.737662460809999e+000	-1.173924094514863e+001
1	 2.055948035613635e+000	 1.760440631311437e+000	-1.130843896154416e+001
1	 2.036402169759054e+000	 1.783014306996028e+000	-1.085097460044860e+001
1	 2.016601178282201e+000	 1.805379114545742e+000	-1.036648221365344e+001
1	 2.224463047493960e+000	 1.588367151330018e+000	-1.443564377578170e+001
1	 2.206895762978422e+000	 1.612686326783483e+000	-1.415947879423403e+001
1	 2.189047370294912e+000	 1.636831642232806e+000	-1.385933961061429e+001
1	 2.170920428413575e+000	 1.660798268561644e+000	-1.353464104282487e+001
1	 2.152517606012314e+000	 1.684581426514422e+000	-1.318480612725586e+001
1	 2.133841680271940e+000	 1.708176389793547e+000	-1.280926717680432e+001
1	 2.114895535566959e+000	 1.731578488121901e+000	-1.240746683766844e+001
1	 2.095682162053179e+000	 1.754783110266513e+000	-1.197885914270493e+001
1	 2.076204654153454e+000	 1.777785707019372e+000	-1.152291055912307e+001
1	 2.056466208943119e+000	 1.800581794131398e+000	-1.103910102828072e+001
1	 2.036470124436785e+000	 1.823166955195621e+000	-1.052692499534979e+001
1	 2.246166158174458e+000	 1.603864153237413e+000	-1.480177955547473e+001
1	 2.228427477365963e+000	 1.628420600223541e+000	-1.450561039161773e+001
1	 2.210404945740458e+000	 1.652801490929640e+000	-1.418512484204622e+001
1	 2.192101147234814e+000	 1.677001949123813e+000	-1.383965315362852e+001
1	 2.173518776564031e+000	 1.701017148921394e+000	-1.346853141506307e+001
1	 2.154660638004632e+000	 1.724842317912389e+000	-1.307110278557360e+001
1	 2.135529644072677e+000	 1.748472740253847e+000	-1.264671872767068e+001
1	 2.116128814097591e+000	 1.771903759723029e+000	-1.219474024141462e+001
1	 2.096461272693132e+000	 1.795130782727310e+000	-1.171453909758558e+001
1	 2.076530248127073e+000	 1.818149281266767e+000	-1.120549906714583e+001
1	 2.056339070591284e+000	 1.840954795845499e+000	-1.066701714436565e+001
1	 2.267869268854655e+000	 1.619361155144911e+000	-1.514062906013416e+001
1	 2.249959191753217e+000	 1.644154873663671e+000	-1.482498432604837e+001
1	 2.231762521185734e+000	 1.668771339626527e+000	-1.448463420987855e+001
1	 2.213281866055804e+000	 1.693205629686016e+000	-1.411886161122659e+001
1	 2.194519947115524e+000	 1.717452871328388e+000	-1.372695366990699e+001
1	 2.175479595737126e+000	 1.741508246031244e+000	-1.330820310404442e+001
1	 2.156163752578226e+000	 1.765366992385799e+000	-1.286190955586944e+001
1	 2.136575466141862e+000	 1.789024409179548e+000	-1.238738094241669e+001
1	 2.116717891232695e+000	 1.812475858435248e+000	-1.188393480829208e+001
1	 2.096594287310937e+000	 1.835716768402136e+000	-1.135089967764270e+001
1	 2.076208016745717e+000	 1.858742636495377e+000	-1.078761640244261e+001
1	 2.289572379534584e+000	 1.634858157052526e+000	-1.545218994195944e+001
1	 2.271490906140224e+000	 1.659889147103888e+000	-1.511762902620481e+001
1	 2.253120096630787e+000	 1.684741188323473e+000	-1.475794124450652e+001
1	 2.234462584876594e+000	 1.709409310248261e+000	-1.437239835811269e+001
1	 2.215521117666840e+000	 1.733888593735407e+000	-1.396027552618548e+001
1	 2.196298553469467e+000	 1.758174174150114e+000	-1.352085269300139e+001
1	 2.176797861083646e+000	 1.782261244517759e+000	-1.305341598484767e+001
1	 2.157022118186025e+000	 1.806145058636069e+000	-1.255725911370968e+001
1	 2.136974509772173e+000	 1.829820934143186e+000	-1.203168478480007e+001
1	 2.116658326494735e+000	 1.853284255537506e+000	-1.147600610494386e+001
1	 2.096076962900100e+000	 1.876530477145256e+000	-1.088954798880589e+001
1	 2.311275490214281e+000	 1.650355158960276e+000	-1.573645994133391e+001
1	 2.293022620527026e+000	 1.675623420544203e+000	-1.538357185297298e+001
1	 2.274477672075661e+000	 1.700711037020488e+000	-1.500511671449376e+001
1	 2.255643303697231e+000	 1.725612990810551e+000	-1.460039038096710e+001
1	 2.236522288218026e+000	 1.750324316142456e+000	-1.416869200726665e+001
1	 2.217117511201701e+000	 1.774840102269001e+000	-1.370932542501103e+001
1	 2.197431969588975e+000	 1.799155496649727e+000	-1.322160052958961e+001
1	 2.177468770230117e+000	 1.823265708092594e+000	-1.270483467437693e+001
1	 2.157231128311593e+000	 1.847166009851126e+000	-1.215835406919573e+001
1	 2.136722365678489e+000	 1.870851742672875e+000	-1.158149518004868e+001
1	 2.115945909054448e+000	 1.894318317795134e+000	-1.097360612711268e+001
1	 2.332978600893775e+000	 1.665852160868178e+000	-1.599343688272294e+001
1	 2.314554334913665e+000	 1.691357693984630e+000	-1.562283914911282e+001
1	 2.295835247520404e+000	 1.716680885717582e+000	-1.522622875503557e+001
1	 2.276824022517764e+000	 1.741816671372895e+000	-1.480295994116993e+001
1	 2.257523458769129e+000	 1.766760038549538e+000	-1.435239087950613e+001
1	 2.237936468933870e+000	 1.791506030387907e+000	-1.387388498157091e+001
1	 2.218066078094256e+000	 1.816049748781705e+000	-1.336681221553827e+001
1	 2.197915422274171e+000	 1.840386357549124e+000	-1.283055042945781e+001
1	 2.177487746850985e+000	 1.864511085559068e+000	-1.226448667779025e+001
1	 2.156786404862220e+000	 1.888419229808245e+000	-1.166801854840563e+001
1	 2.135814855208781e+000	 1.912106158445013e+000	-1.104055548717223e+001
1	 1.937125393662695e+000	 1.734227751946229e+000	-9.502818234490988e+000
1	 1.917865842278389e+000	 1.755503199414275e+000	-9.123122817622878e+000
1	 1.898367848035766e+000	 1.776569877680165e+000	-8.729438675066071e+000
1	 1.878634825537390e+000	 1.797423798768442e+000	-8.323875903432818e+000
1	 1.858670277892823e+000	 1.818061049642710e+000	-7.908581864142619e+000
1	 1.838477794649450e+000	 1.838477794649450e+000	-7.485737773748176e+000
1	 1.818061049642710e+000	 1.858670277892823e+000	-7.057555233404406e+000
1	 1.797423798768442e+000	 1.878634825537389e+000	-6.626272704629318e+000
1	 1.776569877680165e+000	 1.898367848035765e+000	-6.194151938644094e+000
1	 1.755503199414276e+000	 1.917865842278388e+000	-5.763474366695823e+000
1	 1.734227751946229e+000	 1.937125393662695e+000	-5.336537458861612e+000
1	 1.956994339817781e+000	 1.752015592596107e+000	-9.753950146931233e+000
1	 1.937537244696356e+000	 1.773509260692353e+000	-9.340193066306529e+000
1	 1.917839261026503e+000	 1.794792018256848e+000	-8.910801040091172e+000
1	 1.897903838434116e+000	 1.815859836409762e+000	-8.468345857088263e+000
1	 1.877734515959893e+000	 1.836708761978973e+000	-8.015448581604669e+000
1	 1.857334919968946e+000	 1.857334919968946e+000	-7.554775250529604e+000
1	 1.836708761978973e+000	 1.877734515959893e+000	-7.089032488489459e+000
1	 1.815859836409762e+000	 1.897903838434115e+000	-6.620963050177740e+000
1	 1.794792018256848e+000	 1.917839261026502e+000	-6.153341299147041e+000
1	 1.773509260692354e+000	 1.937537244696356e+000	-5.688968632510129e+000
1	 1.752015592596107e+000	 1.956994339817781e+000	-5.230668861129923e+000
1	 1.976863285972716e+000	 1.769803433245986e+000	-9.980941366406640e+000
1	 1.957208647114214e+000	 1.791515321970432e+000	-9.534347990336201e+000
1	 1.937310674017164e+000	 1.813014158833530e+000	-9.070969393666395e+000
1	 1.917172851330789e+000	 1.834295874051076e+000	-8.593759937383702e+000
1	 1.896798754026930e+000	 1.855356474315226e+000	-8.105733382794451e+000
1	 1.876192045288422e+000	 1.876192045288422e+000	-7.609957831275891e+000
1	 1.855356474315226e+000	 1.896798754026930e+000	-7.109550564235707e+000
1	 1.834295874051077e+000	 1.917172851330789e+000	-6.607672794037269e+000
1	 1.813014158833530e+000	 1.937310674017163e+000	-6.107524336881246e+000
1	 1.791515321970433e+000	 1.957208647114214e+000	-5.612338218830063e+000
1	 1.769803433245986e+000	 1.976863285972716e+000	-5.125375226326232e+000
1	 1.996732232127518e+000	 1.787591273895864e+000	-1.018479691690451e+001
1	 1.976880049531974e+000	 1.809521383248511e+000	-9.706722696275154e+000
1	 1.956782087007755e+000	 1.831236299410209e+000	-9.211167421106012e+000
1	 1.936441864227417e+000	 1.852731911692388e+000	-8.701391299698720e+000
1	 1.915862992093939e+000	 1.874004186651469e+000	-8.180722218067716e+000
1	 1.895049170607881e+000	 1.895049170607881e+000	-7.652550055845168e+000
1	 1.874004186651470e+000	 1.915862992093939e+000	-7.120320887671675e+000
1	 1.852731911692388e+000	 1.936441864227417e+000	-6.587531082205940e+000
1	 1.831236299410210e+000	 1.956782087007755e+000	-6.057721311152626e+000
1	 1.809521383248511e+000	 1.976880049531973e+000	-5.534470480936307e+000
1	 1.787591273895864e+000	 1.996732232127518e+000	-5.021389599839635e+000
1	 2.016601178282201e+000	 1.805379114545742e+000	-1.036648221365344e+001
1	 1.996551451949648e+000	 1.827527444526589e+000	-9.858407555274580e+000
1	 1.976253499998287e+000	 1.849458439986889e+000	-9.332570581356427e+000
1	 1.955710877124004e+000	 1.871167949333697e+000	-8.792462923391948e+000
1	 1.934927230160922e+000	 1.892651898987706e+000	-8.241650357499584e+000
1	 1.913906295927326e+000	 1.913906295927326e+000	-7.683766627618720e+000
1	 1.892651898987707e+000	 1.934927230160922e+000	-7.122507142566107e+000
1	 1.871167949333698e+000	 1.955710877124005e+000	-6.561622560180007e+000
1	 1.849458439986889e+000	 1.976253499998286e+000	-6.004912272072369e+000
1	 1.827527444526590e+000	 1.996551451949647e+000	-5.456217802763575e+000
1	 1.805379114545742e+000	 2.016601178282202e+000	-4.919416137183308e+000
1	 2.036470124436785e+000	 1.823166955195621e+000	-1.052692499534979e+001
1	 2.016222854367249e+000	 1.845533505804667e+000	-9.990450385392867e+000
1	 1.995724912988767e+000	 1.867680580563567e+000	-9.436308459613759e+000
1	 1.974979890020558e+000	 1.889603986975002e+000	-8.868150059528521e+000
1	 1.953991468227883e+000	 1.911299611323937e+000	-8.289704863211103e+000
1	 1.932763421246759e+000	 1.932763421246759e+000	-7.704774844664605e+000
1	 1.911299611323937e+000	 1.953991468227883e+000	-7.117227598478319e+000
1	 1.889603986975002e+000	 1.974979890020558e+000	-6.530989543813220e+000
1	 1.867680580563567e+000	 1.995724912988767e+000	-5.950039022074629e+000
1	 1.845533505804667e+000	 2.016222854367248e+000	-5.378399302900952e+000
1	 1.823166955195621e+000	 2.036470124436785e+000	-4.820131513323661e+000
1	 2.056339070591284e+000	 1.840954795845499e+000	-1.066701714436565e+001
1	 2.035894256784788e+000	 1.863539567082745e+000	-1.010385850739718e+001
1	 2.015196325979204e+000	 1.885902721140245e+000	-9.523466983551472e+000
1	 1.994248902917082e+000	 1.908040024616306e+000	-8.929582536703137e+000
1	 1.973055706294826e+000	 1.929947323660161e+000	-8.326026918365308e+000
1	 1.951620546566181e+000	 1.951620546566181e+000	-7.716696889957097e+000
1	 1.929947323660161e+000	 1.973055706294827e+000	-7.105557304784721e+000
1	 1.908040024616306e+000	 1.994248902917082e+000	-6.496634064323615e+000
1	 1.885902721140246e+000	 2.015196325979204e+000	-5.894006963717223e+000
1	 1.863539567082746e+000	 2.035894256784788e+000	-5.301802441689217e+000
1	 1.840954795845499e+000	 2.056339070591284e+000	-4.724186250305591e+000
1	 2.076208016745717e+000	 1.858742636495377e+000	-1.078761640244261e+001
1	 2.055565659202280e+000	 1.881545628360823e+000	-1.019960068252337e+001
1	 2.034667738969606e+000	 1.904124861716922e+000	-9.595090512294533e+000
1	 2.013517915813583e+000	 1.926476062257607e+000	-8.977846934465541e+000
1	 1.992119944361755e+000	 1.948595035996382e+000	-8.351714022435495e+000
1	 1.970477671885594e+000	 1.970477671885594e+000	-7.720611990094316e+000
1	 1.948595035996381e+000	 1.992119944361754e+000	-7.088530158726398e+000
1	 1.926476062257608e+000	 2.013517915813583e+000	-6.459519795877894e+000
1	 1.904124861716923e+000	 2.034667738969607e+000	-5.837686841383835e+000
1	 1.881545628360824e+000	 2.055565659202279e+000	-5.227184536040323e+000
1	 1.858742636495377e+000	 2.076208016745717e+000	-4.632205968646955e+000
1	 2.096076962900100e+000	 1.876530477145256e+000	-1.088954798880589e+001
1	 2.075237061619734e+000	 1.899551689638900e+000	-1.027860894002641e+001
1	 2.054139151959984e+000	 1.922347002293599e+000	-9.652183806583743e+000
1	 2.032786928710067e+000	 1.944912099898908e+000	-9.013988633132922e+000
1	 2.011184182428673e+000	 1.967242748332599e+000	-8.367822061617517e+000
1	 1.989334797205001e+000	 1.989334797205001e+000	-7.717558451239556e+000
1	 1.967242748332599e+000	 2.011184182428673e+000	-7.067140855837888e+000
1	 1.944912099898909e+000	 2.032786928710067e+000	-6.420573873545077e+000
1	 1.922347002293600e+000	 2.054139151959984e+000	-5.781916383927495e+000
1	 1.899551689638902e+000	 2.075237061619734e+000	-5.155274188101785e+000
1	 1.876530477145256e+000	 2.096076962900100e+000	-4.544792567560037e+000
1	 2.115945909054448e+000	 1.894318317795134e+000	-1.097360612711268e+001
1	 2.094908464037164e+000	 1.917557750916978e+000	-1.034178030176543e+001
1	 2.073610564950345e+000	 1.940569142870276e+000	-9.695713887940027e+000
1	 2.052055941606541e+000	 1.963348137540208e+000	-9.039013748114776e+000
1	 2.030248420495583e+000	 1.985890460668814e+000	-8.375367262594532e+000
1	 2.008191922524404e+000	 2.008191922524404e+000	-7.708535580356442e+000
1	 1.985890460668814e+000	 2.030248420495583e+000	-7.042346730486695e+000
1	 1.963348137540208e+000	 2.052055941606541e+000	-6.380688608825823e+000
1	 1.940569142870277e+000	 2.073610564950344e+000	-5.727501854766437e+000
1	 1.917557750916979e+000	 2.094908464037164e+000	-5.086772633429391e+000
1	 1.894318317795134e+000	 2.115945909054448e+000	-4.462525338679042e+000
1	 2.135814855208781e+000	 1.912106158445013e+000	-1.104055548717223e+001
1	 2.114579866454582e+000	 1.935563812195057e+000	-1.038997841052853e+001
1	 2.093081977940697e+000	 1.958791283446953e+000	-9.726611794056494e+000
1	 2.071324954503008e+000	 1.981784175181508e+000	-9.053890956270450e+000
1	 2.049312658562491e+000	 2.004538173005029e+000	-8.375328037249076e+000
1	 2.027049047843805e+000	 2.027049047843805e+000	-7.694505499207445e+000
1	 2.004538173005028e+000	 2.049312658562491e+000	-7.015069493681015e+000
1	 1.981784175181507e+000	 2.071324954503007e+000	-6.340723109426605e+000
1	 1.958791283446953e+000	 2.093081977940696e+000	-5.675219515458917e+000
1	 1.935563812195057e+000	 2.114579866454581e+000	-5.022355013909985e+000
1	 1.912106158445013e+000	 2.135814855208781e+000	-4.385962017622971e+000
1	 1.734227751946229e+000	 1.937125393662695e+000	-5.336537458861610e+000
1	 1.712744358454553e+000	 1.956146013021240e+000	-4.922724037885651e+000
1	 1.691060328479696e+000	 1.974921561452375e+000	-4.530369386027640e+000
1	 1.669179862983960e+000	 1.993448901827817e+000	-4.160012393391966e+000
1	 1.647107227462233e+000	 2.011724993034462e+000	-3.812183184452207e+000
1	 1.624846749199453e+000	 2.029746891604005e+000	-3.487402416376918e+000
1	 1.602402814479763e+000	 2.047511753248752e+000	-3.186180588619283e+000
1	 1.579779865751119e+000	 2.065016834301999e+000	-2.909017365118208e+000
1	 1.556982398749112e+000	 2.082259493061532e+000	-2.656400910423338e+000
1	 1.534014959583876e+000	 2.099237191034965e+000	-2.428807241024247e+000
1	 1.510882141793964e+000	 2.115947494085821e+000	-2.226699593123437e+000
1	 1.752015592596107e+000	 1.956994339817781e+000	-5.230668861129923e+000
1	 1.730311845589922e+000	 1.976210052205971e+000	-4.788014411973990e+000
1	 1.708405404187631e+000	 1.995178179993043e+000	-4.368974779518878e+000
1	 1.686300512440469e+000	 2.013895553873443e+000	-3.973765948008763e+000
1	 1.664001479594162e+000	 2.032359101541614e+000	-3.602586536791900e+000
1	 1.641512677318263e+000	 2.050565849338336e+000	-3.255617754664304e+000
1	 1.618838536886681e+000	 2.068512923802284e+000	-2.933023376833317e+000
1	 1.595983546313201e+000	 2.086197553125190e+000	-2.634949744370708e+000
1	 1.572952247445816e+000	 2.103617068509113e+000	-2.361525785976641e+000
1	 1.549749233023748e+000	 2.120768905424560e+000	-2.112863061828351e+000
1	 1.526379143701107e+000	 2.137650604768312e+000	-1.889055829240364e+000
1	 1.769803433245986e+000	 1.976863285972716e+000	-5.125375226326232e+000
1	 1.747879332725290e+000	 1.996274091390503e+000	-4.656187086464934e+000
1	 1.725750479895566e+000	 2.015434798533457e+000	-4.212267651860755e+000
1	 1.703421161896979e+000	 2.034342205918758e+000	-3.793572985630487e+000
1	 1.680895731726093e+000	 2.052993210048400e+000	-3.400034689586507e+000
1	 1.658178605437075e+000	 2.071384807072250e+000	-3.031560399027422e+000
1	 1.635274259293601e+000	 2.089514094355359e+000	-2.688034309555395e+000
1	 1.612187226875290e+000	 2.107378271947896e+000	-2.369317734568014e+000
1	 1.588922096142530e+000	 2.124974643956197e+000	-2.075249692011822e+000
1	 1.565483506463634e+000	 2.142300619813662e+000	-1.805647518924948e+000
1	 1.541876145608267e+000	 2.159353715450339e+000	-1.560307512245213e+000
1	 1.787591273895864e+000	 1.996732232127518e+000	-5.021389599839637e+000
1	 1.765446819860660e+000	 2.016338130574856e+000	-4.527829571189427e+000
1	 1.743095555603502e+000	 2.035691417073645e+000	-4.060725956250325e+000
1	 1.720541811353489e+000	 2.054788857963796e+000	-3.619835948826214e+000
1	 1.697789983858026e+000	 2.073627318554860e+000	-3.204886659028285e+000
1	 1.674844533555893e+000	 2.092203764805793e+000	-2.815576035006568e+000
1	 1.651709981700529e+000	 2.110515264908026e+000	-2.451573824195776e+000
1	 1.628390907437388e+000	 2.128558990770163e+000	-2.112522571753653e+000
1	 1.604891944839260e+000	 2.146332219402827e+000	-1.798038653796770e+000
1	 1.581217779903543e+000	 2.163832334202311e+000	-1.507713342972672e+000
1	 1.557373147515461e+000	 2.181056826131934e+000	-1.241113903849579e+000
1	 1.805379114545742e+000	 2.016601178282202e+000	-4.919416137183308e+000
1	 1.783014306996029e+000	 2.036402169759053e+000	-4.403506221769341e+000
1	 1.760440631311438e+000	 2.055948035613634e+000	-3.914808809385779e+000
1	 1.737662460810001e+000	 2.075235510008592e+000	-3.452941419597471e+000
1	 1.714684235989961e+000	 2.094261427061033e+000	-3.017487312208525e+000
1	 1.691510461674716e+000	 2.113022722539008e+000	-2.607996724412091e+000
1	 1.668145704107468e+000	 2.131516435460328e+000	-2.223988153052526e+000
1	 1.644594587999505e+000	 2.149739709592041e+000	-1.864949678953879e+000
1	 1.620861793536016e+000	 2.167689794849050e+000	-1.530340330189729e+000
1	 1.596952053343489e+000	 2.185364048590552e+000	-1.219591481095053e+000
1	 1.572870149422706e+000	 2.202759936813131e+000	-9.321082837606358e-001
1	 1.823166955195621e+000	 2.036470124436785e+000	-4.820131513323661e+000
1	 1.800581794131398e+000	 2.056466208943119e+000	-4.283759369144832e+000
1	 1.777785707019373e+000	 2.076204654153453e+000	-3.774957410363665e+000
1	 1.754783110266514e+000	 2.095682162053178e+000	-3.293260893101232e+000
1	 1.731578488121902e+000	 2.114895535566959e+000	-2.838168057350224e+000
1	 1.708176389793547e+000	 2.133841680271940e+000	-2.409141569928250e+000
1	 1.684581426514422e+000	 2.152517606012314e+000	-2.005610016276577e+000
1	 1.660798268561645e+000	 2.170920428413575e+000	-1.626969437580922e+000
1	 1.636831642232806e+000	 2.189047370294912e+000	-1.272584909604248e+000
1	 1.612686326783484e+000	 2.206895762978422e+000	-9.417921595429046e-001
1	 1.588367151330017e+000	 2.224463047493961e+000	-6.338992171561539e-001
1	 1.840954795845499e+000	 2.056339070591284e+000	-4.724186250305589e+000
1	 1.818149281266767e+000	 2.076530248127072e+000	-4.169110383618719e+000
1	 1.795130782727311e+000	 2.096461272693131e+000	-3.641595906304401e+000
1	 1.771903759723030e+000	 2.116128814097590e+000	-3.141151506516948e+000
1	 1.748472740253848e+000	 2.135529644072676e+000	-2.667247494025625e+000
1	 1.724842317912390e+000	 2.154660638004630e+000	-2.219317341187406e+000
1	 1.701017148921395e+000	 2.173518776564031e+000	-1.796759274663387e+000
1	 1.677001949123814e+000	 2.192101147234814e+000	-1.398937914115457e+000
1	 1.652801490929641e+000	 2.210404945740458e+000	-1.025185954031688e+000
1	 1.628420600223542e+000	 2.228427477365962e+000	-6.748058847494480e-001
1	 1.603864153237414e+000	 2.246166158174459e+000	-3.470717486794062e-001
1	 1.858742636495377e+000	 2.076208016745717e+000	-4.632205968646961e+000
1	 1.835716768402136e+000	 2.096594287310937e+000	-4.060060677804623e+000
1	 1.812475858435248e+000	 2.116717891232695e+000	-3.515132208274274e+000
1	 1.789024409179548e+000	 2.136575466141861e+000	-2.996956726063791e+000
1	 1.765366992385800e+000	 2.156163752578225e+000	-2.505032026038894e+000
1	 1.741508246031245e+000	 2.175479595737125e+000	-2.038819064895682e+000
1	 1.717452871328389e+000	 2.194519947115523e+000	-1.597743544961862e+000
1	 1.693205629686018e+000	 2.213281866055804e+000	-1.181197545063323e+000
1	 1.668771339626527e+000	 2.231762521185734e+000	-7.885411946010841e-001
1	 1.644154873663672e+000	 2.249959191753216e+000	-4.191043869064508e-001
1	 1.619361155144911e+000	 2.267869268854655e+000	-7.218852787593022e-002
1	 1.876530477145256e+000	 2.096076962900100e+000	-4.544792567560036e+000
1	 1.853284255537506e+000	 2.116658326494735e+000	-3.957092652532754e+000
1	 1.829820934143187e+000	 2.136974509772172e+000	-3.395958760802378e+000
1	 1.806145058636070e+000	 2.157022118186025e+000	-2.861006994942988e+000
1	 1.782261244517760e+000	 2.176797861083645e+000	-2.351816439451548e+000
1	 1.758174174150114e+000	 2.196298553469467e+000	-1.867930581395536e+000
1	 1.733888593735408e+000	 2.215521117666839e+000	-1.408858780187536e+000
1	 1.709409310248262e+000	 2.234462584876594e+000	-9.740777829558578e-001
1	 1.684741188323473e+000	 2.253120096630786e+000	-5.630332818914337e-001
1	 1.659889147103889e+000	 2.271490906140223e+000	-1.751415098746829e-001
1	 1.634858157052526e+000	 2.289572379534584e+000	 1.902091293781290e-001
1	 1.894318317795134e+000	 2.115945909054448e+000	-4.462525338679042e+000
1	 1.870851742672875e+000	 2.136722365678488e+000	-3.860670589462698e+000
1	 1.847166009851127e+000	 2.157231128311593e+000	-3.284453268042288e+000
1	 1.823265708092596e+000	 2.177468770230116e+000	-2.733620344775222e+000
1	 1.799155496649727e+000	 2.197431969588975e+000	-2.207884448041041e+000
1	 1.774840102269001e+000	 2.217117511201700e+000	-1.706925069871257e+000
1	 1.750324316142457e+000	 2.236522288218025e+000	-1.230389817240914e+000
1	 1.725612990810552e+000	 2.255643303697231e+000	-7.778957059540268e-001
1	 1.700711037020489e+000	 2.274477672075661e+000	-3.490304939713784e-001
1	 1.675623420544204e+000	 2.293022620527026e+000	 5.664594904402520e-002
1	 1.650355158960276e+000	 2.311275490214281e+000	 4.396002392498559e-001
1	 1.912106158445013e+000	 2.135814855208781e+000	-4.385962017622971e+000
1	 1.888419229808246e+000	 2.156786404862220e+000	-3.771241493873925e+000
1	 1.864511085559069e+000	 2.177487746850984e+000	-3.180979379401997e+000
1	 1.840386357549125e+000	 2.197915422274170e+000	-2.615102972909629e+000
1	 1.816049748781706e+000	 2.218066078094255e+000	-2.073509208314285e+000
1	 1.791506030387907e+000	 2.237936468933869e+000	-1.556065544239162e+000
1	 1.766760038549539e+000	 2.257523458769130e+000	-1.062610893959448e+000
1	 1.741816671372895e+000	 2.276824022517763e+000	-5.929565934266154e-001
1	 1.716680885717583e+000	 2.295835247520403e+000	-1.468874049181448e-001
1	 1.691357693984631e+000	 2.314554334913665e+000	 2.758374462075288e-001
1	 1.665852160868178e+000	 2.332978600893775e+000	 6.754832042298329e-001
1	 1.510882141793964e+000	 2.115947494085821e+000	-2.226699593123437e+000
1	 1.487588582867686e+000	 2.132388072878527e+000	-2.057152506531352e+000
1	 1.464138959764830e+000	 2.148556702005919e+000	-1.928143512109076e+000
1	 1.440537987463155e+000	 2.164451262611716e+000	-1.841461812076734e+000
1	 1.416790416433498e+000	 2.180069743733891e+000	-1.798869395651886e+000
1	 1.392901029590033e+000	 2.195410242948957e+000	-1.802098013449045e+000
1	 1.368874639231027e+000	 2.210470966914092e+000	-1.852846216247091e+000
1	 1.344716083974014e+000	 2.225250231807174e+000	-1.952776463860888e+000
1	 1.320430225689310e+000	 2.239746463665040e+000	-2.103512309623893e+000
1	 1.296021946435735e+000	 2.253958198620400e+000	-2.306635665751363e+000
1	 1.271496145402372e+000	 2.267884083038025e+000	-2.563684154597738e+000
1	 1.526379143701107e+000	 2.137650604768312e+000	-1.889055829240364e+000
1	 1.502846664532555e+000	 2.154259813312990e+000	-1.696982752748463e+000
1	 1.479156520449109e+000	 2.170594282825593e+000	-1.544711276473167e+000
1	 1.455313474789711e+000	 2.186651872716886e+000	-1.434091859122114e+000
1	 1.431322326750428e+000	 2.202430551398549e+000	-1.366953624289875e+000
1	 1.407187908303437e+000	 2.217928396934077e+000	-1.345101135406425e+000
1	 1.382915081106392e+000	 2.233143597586459e+000	-1.370311226797996e+000
1	 1.358508733406176e+000	 2.248074452262729e+000	-1.444329897122938e+000
1	 1.333973776940952e+000	 2.262719370855698e+000	-1.568869271230662e+000
1	 1.309315143844458e+000	 2.277076874483292e+000	-1.745604636266407e+000
1	 1.284537783556399e+000	 2.291145595626142e+000	-1.976171557596583e+000
1	 1.541876145608267e+000	 2.159353715450339e+000	-1.560307512245213e+000
1	 1.518104746197447e+000	 2.176131553747041e+000	-1.346065698646600e+000
1	 1.494174081133418e+000	 2.192631863644929e+000	-1.171142319289357e+000
1	 1.470088962116305e+000	 2.208852482821806e+000	-1.037384359994301e+000
1	 1.445854237067409e+000	 2.224791359063059e+000	-9.466224725042345e-001
1	 1.421474787016905e+000	 2.240446550919154e+000	-9.006676750439127e-001
1	 1.396955522981841e+000	 2.255816228258888e+000	-9.013081009627033e-001
1	 1.372301382838444e+000	 2.270898672718448e+000	-9.503058019854134e-001
1	 1.347517328192727e+000	 2.285692278046609e+000	-1.049393612398701e+000
1	 1.322608341253345e+000	 2.300195550346514e+000	-1.200272080288583e+000
1	 1.297579421710628e+000	 2.314407108214644e+000	-1.404606471713750e+000
1	 1.557373147515461e+000	 2.181056826131934e+000	-1.241113903849579e+000
1	 1.533362827862384e+000	 2.198003294180702e+000	-1.005162304956293e+000
1	 1.509191641817784e+000	 2.214669444463932e+000	-8.082725286964418e-001
1	 1.484864449442972e+000	 2.231053092926468e+000	-6.522253482313438e-001
1	 1.460386147384479e+000	 2.247152166727390e+000	-5.387893433708015e-001
1	 1.435761665730482e+000	 2.262964704904139e+000	-4.697176496913897e-001
1	 1.410995964857420e+000	 2.278488858931313e+000	-4.467447479323941e-001
1	 1.386094032270866e+000	 2.293722893174245e+000	-4.715833001937977e-001
1	 1.361060879444680e+000	 2.308665185237676e+000	-5.459210392859557e-001
1	 1.335901538662438e+000	 2.323314226209955e+000	-6.714177173848270e-001
1	 1.310621059865092e+000	 2.337668620803413e+000	-8.497021199372572e-001
1	 1.572870149422706e+000	 2.202759936813131e+000	-9.321082837606358e-001
1	 1.548620909527387e+000	 2.219875034613993e+000	-6.750035423681595e-001
1	 1.524209202502237e+000	 2.236707025282611e+000	-4.569048498471311e-001
1	 1.499639936769747e+000	 2.253253703030859e+000	-2.794659381171698e-001
1	 1.474918057701680e+000	 2.269512974391513e+000	-1.443316420567573e-001
1	 1.450048544444213e+000	 2.285482858888984e+000	-5.313481809745291e-002
1	 1.425036406733177e+000	 2.301161489603666e+000	-7.493295507972064e-003
1	 1.399886681703489e+000	 2.316547113630037e+000	-9.006866638131328e-003
1	 1.374604430696858e+000	 2.331638092428800e+000	-5.925432223595095e-002
1	 1.349194736071777e+000	 2.346432902073506e+000	-1.597905377816993e-001
1	 1.323662698019824e+000	 2.360930133392334e+000	-3.121436165950797e-001
1	 1.588367151330017e+000	 2.224463047493961e+000	-6.338992171561539e-001
1	 1.563878991192479e+000	 2.241746775046933e+000	-3.562918545311042e-001
1	 1.539226763186804e+000	 2.258744606100968e+000	-1.178108919597030e-001
1	 1.514415424096663e+000	 2.275454313134966e+000	 8.007597185931203e-002
1	 1.489449968019049e+000	 2.291873782055399e+000	 2.359074681000806e-001
1	 1.464335423158141e+000	 2.308001012873640e+000	 3.482315507754947e-001
1	 1.439076848609157e+000	 2.323834120275880e+000	 4.156081643835883e-001
1	 1.413679331136361e+000	 2.339371334085741e+000	 4.366119804761990e-001
1	 1.388147981949306e+000	 2.354610999619883e+000	 4.098350975207090e-001
1	 1.362487933481406e+000	 2.369551577937059e+000	 3.338896985712463e-001
1	 1.336704336174856e+000	 2.384191645981290e+000	 2.074106614252784e-001
1	 1.603864153237414e+000	 2.246166158174459e+000	-3.470717486794062e-001
1	 1.579137072857684e+000	 2.263618515479547e+000	-4.970253623537246e-002
1	 1.554244323871514e+000	 2.280782186919011e+000	 2.082675577978694e-001
1	 1.529190911423754e+000	 2.297654923238780e+000	 4.256140943008830e-001
1	 1.503981878336627e+000	 2.314234589719016e+000	 6.011174113188815e-001
1	 1.478622301872310e+000	 2.330519166858057e+000	 7.335650114990191e-001
1	 1.453117290485408e+000	 2.346506750947888e+000	 8.217539313666595e-001
1	 1.427471980569528e+000	 2.362195554541273e+000	 8.644930874431918e-001
1	 1.401691533202070e+000	 2.377583906810825e+000	 8.606055943110782e-001
1	 1.375781130891362e+000	 2.392670253800501e+000	 8.089310498441993e-001
1	 1.349745974330221e+000	 2.407453158570164e+000	 7.083277829523649e-001
1	 1.619361155144911e+000	 2.267869268854655e+000	-7.218852787593022e-002
1	 1.594395154523023e+000	 2.285490255911854e+000	 2.441149675386392e-001
1	 1.569261884556395e+000	 2.302819767736746e+000	 5.206171073486754e-001
1	 1.543966398751055e+000	 2.319855533342288e+000	 7.563922403389203e-001
1	 1.518513788654454e+000	 2.336595397382336e+000	 9.505186400897117e-001
1	 1.492909180586763e+000	 2.353037320842187e+000	 1.102080371601833e+000
1	 1.467157732361977e+000	 2.369179381619624e+000	 1.210169146709266e+000
1	 1.441264630003040e+000	 2.385019774996548e+000	 1.273886164292133e+000
1	 1.415235084455196e+000	 2.400556814001530e+000	 1.292343931371971e+000
1	 1.389074328301688e+000	 2.415788929663723e+000	 1.264668061254506e+000
1	 1.362787612485953e+000	 2.430714671158838e+000	 1.189999044975602e+000
1	 1.634858157052526e+000	 2.289572379534584e+000	 1.902091293781290e-001
1	 1.609653236188518e+000	 2.307361996343875e+000	 5.245358364541364e-001
1	 1.584279445241475e+000	 2.324857348554177e+000	 8.185514139058654e-001
1	 1.558741886078601e+000	 2.342056143445480e+000	 1.071682893097050e+000
1	 1.533045698972569e+000	 2.358956205045328e+000	 1.283361164571481e+000
1	 1.507196059301546e+000	 2.375555474825982e+000	 1.453022210318187e+000
1	 1.481198174238909e+000	 2.391852012291019e+000	 1.580108331566876e+000
1	 1.455057279436943e+000	 2.407843995451483e+000	 1.664069369379533e+000
1	 1.428778635708728e+000	 2.423529721191897e+000	 1.704363915341590e+000
1	 1.402367525712425e+000	 2.438907605526618e+000	 1.700460509698381e+000
1	 1.375829250642081e+000	 2.453976183747196e+000	 1.651838824338084e+000
1	 1.650355158960276e+000	 2.311275490214281e+000	 4.396002392498559e-001
1	 1.624911317854191e+000	 2.329233736775629e+000	 7.909587186786595e-001
1	 1.599297005926782e+000	 2.346894929371312e+000	 1.101409913994983e+000
1	 1.573517373406423e+000	 2.364256753548344e+000	 1.370785861526480e+000
1	 1.547577609291011e+000	 2.381317012707962e+000	 1.598923164844349e+000
1	 1.521482938016701e+000	 2.398073628809393e+000	 1.785663480791547e+000
1	 1.495238616116251e+000	 2.414524642962007e+000	 1.930854007581246e+000
1	 1.468849928871284e+000	 2.430668215905993e+000	 2.034347973725817e+000
1	 1.442322186962715e+000	 2.446502628381830e+000	 2.096005126558222e+000
1	 1.415660723123614e+000	 2.462026281389074e+000	 2.115692219110931e+000
1	 1.388870888798642e+000	 2.477237696335122e+000	 2.093283494125933e+000
1	 1.665852160868178e+000	 2.332978600893775e+000	 6.754832042298329e-001
1	 1.640169399520067e+000	 2.351105477207142e+000	 1.042804639275971e+000
1	 1.614314566612346e+000	 2.368932510188156e+000	 1.368556624361565e+000
1	 1.588292860734559e+000	 2.386457363650868e+000	 1.653027009379862e+000
1	 1.562109519609821e+000	 2.403677820370209e+000	 1.896509680621465e+000
1	 1.535769816732273e+000	 2.420591782792370e+000	 2.099304190297717e+000
1	 1.509279057994053e+000	 2.437197273632522e+000	 2.261715394473539e+000
1	 1.482642578306112e+000	 2.453492436359996e+000	 2.384053099903754e+000
1	 1.455865738217201e+000	 2.469475535571229e+000	 2.466631720229138e+000
1	 1.428953920535296e+000	 2.485144957250983e+000	 2.509769941948283e+000
1	 1.401912526955667e+000	 2.500499208922499e+000	 2.513790400540826e+000
1	 1.271496145402372e+000	 2.267884083038025e+000	-2.563684154597738e+000
1	 1.246861439865192e+000	 2.281520849728123e+000	-2.877201488101367e+000
1	 1.222119083064165e+000	 2.294869477818498e+000	-3.248726395136194e+000
1	 1.197274006442202e+000	 2.307928946488350e+000	-3.678106301635598e+000
1	 1.172331146418369e+000	 2.320698344647250e+000	-4.165163814426888e+000
1	 1.147295441416840e+000	 2.333176870580243e+000	-4.709698912967129e+000
1	 1.122171828923649e+000	 2.345363831499277e+000	-5.311491123397291e+000
1	 1.096965242574562e+000	 2.357258643002612e+000	-5.970301670300724e+000
1	 1.071680609277309e+000	 2.368860828443987e+000	-6.685875601709075e+000
1	 1.046322846371297e+000	 2.380170018213486e+000	-7.457943883069691e+000
1	 1.020896858827830e+000	 2.391185948932115e+000	-8.286225456065370e+000
1	 1.284537783556399e+000	 2.291145595626142e+000	-1.976171557596581e+000
1	 1.259650401739495e+000	 2.304922233583134e+000	-2.263314138896121e+000
1	 1.234654264488092e+000	 2.318407777524915e+000	-2.608866964463438e+000
1	 1.209554353826513e+000	 2.331601196160211e+000	-3.012931390162057e+000
1	 1.184355656806278e+000	 2.344501569053611e+000	-3.475580452693292e+000
1	 1.159063162504582e+000	 2.357108086267036e+000	-3.996860715936750e+000
1	 1.133681859050855e+000	 2.369420047906573e+000	-4.576794110362895e+000
1	 1.108216730684770e+000	 2.381436863576317e+000	-5.215379761417877e+000
1	 1.082672754848954e+000	 2.393158051741090e+000	-5.912595802907125e+000
1	 1.057054899319570e+000	 2.404583238999920e+000	-6.668401171535457e+000
1	 1.031368119377818e+000	 2.415712159272363e+000	-7.482737378902691e+000
1	 1.297579421710628e+000	 2.314407108214644e+000	-1.404606471713752e+000
1	 1.272439363614045e+000	 2.328323617438562e+000	-1.665230168324898e+000
1	 1.247189445912312e+000	 2.341946077231757e+000	-1.984243746363266e+000
1	 1.221834701211165e+000	 2.355273445832486e+000	-2.362055787284939e+000
1	 1.196380167194576e+000	 2.368304793460358e+000	-2.799042608618652e+000
1	 1.170830883592758e+000	 2.381039301954177e+000	-3.295549671613440e+000
1	 1.145191889178536e+000	 2.393476264314159e+000	-3.851892995031475e+000
1	 1.119468218795487e+000	 2.405615084150246e+000	-4.468360571659421e+000
1	 1.093664900421133e+000	 2.417455275038344e+000	-5.145213784190021e+000
1	 1.067786952268391e+000	 2.428996459786431e+000	-5.882688817215373e+000
1	 1.041839379928356e+000	 2.440238369612607e+000	-6.680998062165624e+000
1	 1.310621059865092e+000	 2.337668620803413e+000	-8.497021199372536e-001
1	 1.285228325488860e+000	 2.351725001294287e+000	-1.083591779463909e+000
1	 1.259724627336829e+000	 2.365484376938910e+000	-1.375426937841535e+000
1	 1.234115048596146e+000	 2.378945695505064e+000	-1.725975126596891e+000
1	 1.208404677583233e+000	 2.392108017867392e+000	-2.135967236198527e+000
1	 1.182598604681319e+000	 2.404970517641572e+000	-2.606098393134928e+000
1	 1.156701919306624e+000	 2.417532480721960e+000	-3.137028858497686e+000
1	 1.130719706906628e+000	 2.429793304724342e+000	-3.729384945467858e+000
1	 1.104657045993748e+000	 2.441752498335712e+000	-4.383759953129298e+000
1	 1.078519005217650e+000	 2.453409680572996e+000	-5.100715114066974e+000
1	 1.052310640479326e+000	 2.464764579952845e+000	-5.880780553245572e+000
1	 1.323662698019824e+000	 2.360930133392334e+000	-3.121436165950815e-001
1	 1.298017287363961e+000	 2.375126385150191e+000	-5.190158656780124e-001
1	 1.272259808761649e+000	 2.389022676646254e+000	-7.829642640065906e-001
1	 1.246395395981444e+000	 2.402617945177838e+000	-1.105165508393467e+000
1	 1.220429187972217e+000	 2.415911242274610e+000	-1.486754856953779e+000
1	 1.194366325770215e+000	 2.428901733329134e+000	-1.928826385101717e+000
1	 1.168211949435053e+000	 2.441588697129902e+000	-2.432433280666039e+000
1	 1.141971195018111e+000	 2.453971525298551e+000	-2.998588176498025e+000
1	 1.115649191566698e+000	 2.466049721633156e+000	-3.628263518909819e+000
1	 1.089251058167237e+000	 2.477822901359597e+000	-4.322391970250999e+000
1	 1.062781901030611e+000	 2.489290790293080e+000	-5.081866843907200e+000
1	 1.336704336174856e+000	 2.384191645981290e+000	 2.074106614252802e-001
1	 1.310806249239370e+000	 2.398527769006153e+000	 2.790475470062503e-002
1	 1.284794990186778e+000	 2.412560976353672e+000	-2.073820743111305e-001
1	 1.258675743367048e+000	 2.426290194850694e+000	-5.000844525621933e-001
1	 1.232453698361500e+000	 2.439714466681911e+000	-8.517903615530802e-001
1	 1.206134046859399e+000	 2.452832949016774e+000	-1.264040683048124e+000
1	 1.179721979563753e+000	 2.465644913537913e+000	-1.738328803745640e+000
1	 1.153222683129848e+000	 2.478149745872810e+000	-2.276100278400143e+000
1	 1.126641337139887e+000	 2.490346944930637e+000	-2.878752550790082e+000
1	 1.099983111117044e+000	 2.502236122146218e+000	-3.547634731820869e+000
1	 1.073253161582096e+000	 2.513817000633316e+000	-4.284047433956761e+000
1	 1.349745974330221e+000	 2.407453158570164e+000	 7.083277829523667e-001
1	 1.323595211115106e+000	 2.421929152862056e+000	 5.566001752728038e-001
1	 1.297330171612221e+000	 2.436099276061050e+000	 3.508136247586133e-001
1	 1.270956090752943e+000	 2.449962444523522e+000	 8.882820377089118e-002
1	 1.244478208751050e+000	 2.463517691089195e+000	-2.314437649619165e-001
1	 1.217901767948820e+000	 2.476764164704405e+000	-6.120364558409577e-001
1	 1.191232009692659e+000	 2.489701129945918e+000	-1.054929368874241e+000
1	 1.164474171241759e+000	 2.502327966447071e+000	-1.562046239904468e+000
1	 1.137633482713216e+000	 2.514644168228118e+000	-2.135254033174194e+000
1	 1.110715164066959e+000	 2.526649342932838e+000	-2.776362016632472e+000
1	 1.083724422133662e+000	 2.538343210973550e+000	-3.487120920206328e+000
1	 1.362787612485953e+000	 2.430714671158838e+000	 1.189999044975604e+000
1	 1.336384172991191e+000	 2.445330536717781e+000	 1.066522305256243e+000
1	 1.309865353037983e+000	 2.459637575768267e+000	 8.911361962897928e-001
1	 1.283236438139122e+000	 2.473634694196211e+000	 6.611494601368388e-001
1	 1.256502719140836e+000	 2.487320915496360e+000	 3.739290817681411e-001
1	 1.229669489038429e+000	 2.500695380391937e+000	 2.690242651081221e-002
1	 1.202742039821703e+000	 2.513757346353846e+000	-3.824407276722006e-001
1	 1.175725659353756e+000	 2.526506187021270e+000	-8.565462652591798e-001
1	 1.148625628286584e+000	 2.538941391525559e+000	-1.397793917520799e+000
1	 1.121447217016872e+000	 2.551062563719440e+000	-2.008495557792013e+000
1	 1.094195682685192e+000	 2.562869421313785e+000	-2.690893609038943e+000
1	 1.375829250642081e+000	 2.453976183747196e+000	 1.651838824338087e+000
1	 1.349173134867645e+000	 2.468731920573207e+000	 1.557143835522682e+000
1	 1.322400534464071e+000	 2.483175875475209e+000	 1.413117454911433e+000
1	 1.295516785525570e+000	 2.497306943868649e+000	 1.216472354741088e+000
1	 1.268527229530829e+000	 2.511124139903306e+000	 9.639858201928835e-001
1	 1.241437210128176e+000	 2.524626596079280e+000	 6.525028573406360e-001
1	 1.214252069950817e+000	 2.537813562761620e+000	 2.789391696113039e-001
1	 1.186977147465757e+000	 2.550684407595356e+000	-1.597160009935319e-001
1	 1.159617773859895e+000	 2.563238614822923e+000	-6.663971713002557e-001
1	 1.132179269966676e+000	 2.575475784506005e+000	-1.243960056006467e+000
1	 1.104666943236571e+000	 2.587395631654025e+000	-1.895179151009623e+000
1	 1.388870888798642e+000	 2.477237696335122e+000	 2.093283494125931e+000
1	 1.361962096744488e+000	 2.492133304428215e+000	 2.027957262888485e+000
1	 1.334935715890488e+000	 2.506714175181759e+000	 1.916306800485383e+000
1	 1.307797132912276e+000	 2.520979193540728e+000	 1.754405211439577e+000
1	 1.280551739920999e+000	 2.534927364309929e+000	 1.538396950990890e+000
1	 1.253204931218014e+000	 2.548557811766348e+000	 1.264501987980065e+000
1	 1.225762100079933e+000	 2.561869779169168e+000	 9.290198078196319e-001
1	 1.198228635577677e+000	 2.574862628169269e+000	 5.283332500947591e-001
1	 1.170609919433049e+000	 2.587535838120174e+000	 5.891217580665931e-002
1	 1.142911322916257e+000	 2.599889005292513e+000	-4.826830402533027e-001
1	 1.115138203787682e+000	 2.611921841994268e+000	-1.099798196032392e+000
1	 1.401912526955667e+000	 2.500499208922499e+000	 2.513790400540826e+000
1	 1.374751058621742e+000	 2.515534688282687e+000	 2.478473968866359e+000
1	 1.347470897317242e+000	 2.530252474887798e+000	 2.400270400151303e+000
1	 1.320077480299228e+000	 2.544651443212335e+000	 2.274570928746341e+000
1	 1.292576250311315e+000	 2.558730588716131e+000	 2.096845235837707e+000
1	 1.264972652307893e+000	 2.572489027453052e+000	 1.862646750620876e+000
1	 1.237272130208985e+000	 2.585925995576417e+000	 1.567617761055075e+000
1	 1.209480123689432e+000	 2.599040848742956e+000	 1.207494326896695e+000
1	 1.181602065005947e+000	 2.611833061417271e+000	 7.781109882888480e-001
1	 1.153643375865509e+000	 2.624302226078948e+000	 2.754052637727895e-001
1	 1.125609464338406e+000	 2.636448052334516e+000	-3.045780678142673e-001
1	 1.020896858827830e+000	 2.391185948932115e+000	-8.286225456065374e+000
1	 9.954037084134922e-001	 2.401910049395445e+000	-9.170714469160526e+000
1	 9.698520796365818e-001	 2.412340592915415e+000	-1.011257079090284e+001
1	 9.442468273696871e-001	 2.422477631056948e+000	-1.111362388627567e+001
1	 9.185927833090086e-001	 2.432321317635802e+000	-1.217568147134277e+001
1	 8.928947534162472e-001	 2.441871907512629e+000	-1.330052839013223e+001
1	 8.671575154167848e-001	 2.451129755315018e+000	-1.448992551855305e+001
1	 8.413858163563172e-001	 2.460095314090222e+000	-1.574560869675800e+001
1	 8.155843702179730e-001	 2.468769133891297e+000	-1.706928769129985e+001
1	 7.897578556018055e-001	 2.477151860299458e+000	-1.846264518835432e+001
1	 7.639109134684246e-001	 2.485244232885506e+000	-1.992733581921111e+001
1	 1.031368119377818e+000	 2.415712159272363e+000	-7.482737378902693e+000
1	 1.005613487680730e+000	 2.426546256009036e+000	-8.355866648683147e+000
1	 9.797997778129446e-001	 2.437083784811378e+000	-9.289213408490166e+000
1	 9.539318944431131e-001	 2.447324797773199e+000	-1.028480899932270e+001
1	 9.280147188257832e-001	 2.457269450287939e+000	-1.134465550524634e+001
1	 9.020531062170464e-001	 2.466917999830329e+000	-1.247072439453445e+001
1	 8.760518833470565e-001	 2.476270804665347e+000	-1.366495520459398e+001
1	 8.500158459516015e-001	 2.485328322487115e+000	-1.492925427222666e+001
1	 8.239497563647825e-001	 2.494091108990538e+000	-1.626549351066518e+001
1	 7.978583411747033e-001	 2.502559816378509e+000	-1.767550923470878e+001
1	 7.717462889439609e-001	 2.510735191807548e+000	-1.916110103516727e+001
1	 1.041839379928356e+000	 2.440238369612607e+000	-6.680998062165624e+000
1	 1.015823266948505e+000	 2.451182462622546e+000	-7.540701118049670e+000
1	 9.897474759898183e-001	 2.461826976707175e+000	-8.463465609520537e+000
1	 9.636169615170176e-001	 2.472171964489210e+000	-9.451495842919243e+000
1	 9.374366543429985e-001	 2.482217582939756e+000	-1.050696002302597e+001
1	 9.112114590182464e-001	 2.491964092147640e+000	-1.163198869096176e+001
1	 8.849462512776901e-001	 2.501411854015220e+000	-1.282867322091318e+001
1	 8.586458755472136e-001	 2.510561330883490e+000	-1.409906437734050e+001
1	 8.323151425118932e-001	 2.519413084089206e+000	-1.544517093417788e+001
1	 8.059588267478876e-001	 2.527967772456936e+000	-1.686895835738290e+001
1	 7.795816644197812e-001	 2.536226150728920e+000	-1.837234755204073e+001
1	 1.052310640479326e+000	 2.464764579952845e+000	-5.880780553245570e+000
1	 1.026033046216697e+000	 2.475818669235988e+000	-6.724853368605729e+000
1	 9.996951741670866e-001	 2.486570168602849e+000	-7.634835381255316e+000
1	 9.733020285912878e-001	 2.497019131205037e+000	-8.613075743498881e+000
1	 9.468585898605497e-001	 2.507165715591338e+000	-9.661881309223418e+000
1	 9.203698118197518e-001	 2.517010184464658e+000	-1.078351490051367e+001
1	 8.938406192086009e-001	 2.526552903364751e+000	-1.198019364644462e+001
1	 8.672759051430792e-001	 2.535794339279474e+000	-1.325408739579287e+001
1	 8.406805286592414e-001	 2.544735059187440e+000	-1.460731720522404e+001
1	 8.140593123213016e-001	 2.553375728534891e+000	-1.604195390432816e+001
1	 7.874170398958366e-001	 2.561717109649789e+000	-1.756001673868786e+001
1	 1.062781901030611e+000	 2.489290790293080e+000	-5.081866843907202e+000
1	 1.036242825485187e+000	 2.500454875849389e+000	-5.907973257258286e+000
1	 1.009642872344632e+000	 2.511313360498442e+000	-6.802850101550018e+000
1	 9.829870956658127e-001	 2.521866297920743e+000	-7.768964015781191e+000
1	 9.562805253783326e-001	 2.532113848242760e+000	-8.808733776447223e+000
1	 9.295281646214676e-001	 2.542056276781484e+000	-9.924528424293552e+000
1	 9.027349871397041e-001	 2.551693952714053e+000	-1.111866547494321e+001
1	 8.759059347391248e-001	 2.561027347675200e+000	-1.239340921519738e+001
1	 8.490459148067625e-001	 2.570057034285387e+000	-1.375096908658933e+001
1	 8.221597978948902e-001	 2.578783684612534e+000	-1.519349815756196e+001
1	 7.952524153720766e-001	 2.587208068570322e+000	-1.672309168542256e+001
1	 1.073253161582096e+000	 2.513817000633316e+000	-4.284047433956761e+000
1	 1.046452604753855e+000	 2.525091082462769e+000	-5.089724305683081e+000
1	 1.019590570522337e+000	 2.536056552393992e+000	-5.967055592926702e+000
1	 9.926721627404802e-001	 2.546713464636390e+000	-6.918598792555972e+000
1	 9.657024608962430e-001	 2.557061980894104e+000	-7.946858593206952e+000
1	 9.386865174232998e-001	 2.567102369098211e+000	-9.054284893090374e+000
1	 9.116293550709157e-001	 2.576835002063240e+000	-1.024327091174189e+001
1	 8.845359643352759e-001	 2.586260356070796e+000	-1.151615139754200e+001
1	 8.574113009543926e-001	 2.595379009383189e+000	-1.287520093259122e+001
1	 8.302602834685973e-001	 2.604191640690019e+000	-1.432263233628922e+001
1	 8.030877908484519e-001	 2.612699027490689e+000	-1.586059516872668e+001
1	 1.083724422133662e+000	 2.538343210973550e+000	-3.487120920206328e+000
1	 1.056662384022583e+000	 2.549727289076148e+000	-4.269783040160318e+000
1	 1.029538268700084e+000	 2.560799744289542e+000	-5.127015231485375e+000
1	 1.002357229815178e+000	 2.571560631352037e+000	-6.061439922308868e+000
1	 9.751243964141759e-001	 2.582010113545447e+000	-7.075622391296314e+000
1	 9.478448702251523e-001	 2.592148461414938e+000	-8.172068706939239e+000
1	 9.205237230021517e-001	 2.601976051412428e+000	-9.353223769252161e+000
1	 8.931659939314588e-001	 2.611493364466391e+000	-1.062146945570777e+001
1	 8.657766871020670e-001	 2.620700984480991e+000	-1.197912287297778e+001
1	 8.383607690423666e-001	 2.629599596767504e+000	-1.342843471578996e+001
1	 8.109231663249131e-001	 2.638189986411055e+000	-1.497158773395358e+001
1	 1.094195682685192e+000	 2.562869421313785e+000	-2.690893609038943e+000
1	 1.066872163291252e+000	 2.574363495689550e+000	-3.447838369315290e+000
1	 1.039485966877756e+000	 2.585542936185134e+000	-4.282309106980890e+000
1	 1.012042296889793e+000	 2.596407798067743e+000	-5.196967930144853e+000
1	 9.845463319320281e-001	 2.606958246196869e+000	-6.194416047397963e+000
1	 9.570032230269311e-001	 2.617194553731764e+000	-7.277191658537894e+000
1	 9.294180909333266e-001	 2.627117100761730e+000	-8.447767954593116e+000
1	 9.017960235275994e-001	 2.636726372862116e+000	-9.708551228948949e+000
1	 8.741420732497224e-001	 2.646022959578937e+000	-1.106187910110486e+001
1	 8.464612546161431e-001	 2.655007552845147e+000	-1.251001885431909e+001
1	 8.187585418014102e-001	 2.663680945331589e+000	-1.405516588812090e+001
1	 1.104666943236571e+000	 2.587395631654025e+000	-1.895179151009623e+000
1	 1.077081942559741e+000	 2.598999702302993e+000	-2.623590997250751e+000
1	 1.049433665055237e+000	 2.610286128080809e+000	-3.432533230669757e+000
1	 1.021727363964215e+000	 2.621254964783572e+000	-4.324683037808184e+000
1	 9.939682674496946e-001	 2.631906378848449e+000	-5.302653533983209e+000
1	 9.661615758285410e-001	 2.642240646048783e+000	-6.368991634956599e+000
1	 9.383124588643566e-001	 2.652258150111261e+000	-7.526176043236314e+000
1	 9.104260531236239e-001	 2.661959381258101e+000	-8.776615350766296e+000
1	 8.825074593972937e-001	 2.671344934677172e+000	-1.012264625947267e+001
1	 8.545617401898706e-001	 2.680415508923102e+000	-1.156653192085016e+001
1	 8.265939172778936e-001	 2.689171904252459e+000	-1.311046039548771e+001
1	 1.115138203787682e+000	 2.611921841994268e+000	-1.099798196032392e+000
1	 1.087291721827933e+000	 2.623635908916500e+000	-1.796752869742919e+000
1	 1.059381363232407e+000	 2.635029319976607e+000	-2.577298787787958e+000
1	 1.031412431038331e+000	 2.646102131499581e+000	-3.444104238915326e+000
1	 1.003390202967071e+000	 2.656854511500269e+000	-4.399770834953365e+000
1	 9.753199286298875e-001	 2.667286738366094e+000	-5.446831392494158e+000
1	 9.472068267951570e-001	 2.677399199461134e+000	-6.587747933012058e+000
1	 9.190560827194581e-001	 2.687192389654475e+000	-7.824909803101989e+000
1	 8.908728455447177e-001	 2.696666909775838e+000	-9.160631916221810e+000
1	 8.626622257634934e-001	 2.705823465001528e+000	-1.059715311703529e+001
1	 8.344292927543136e-001	 2.714662863173831e+000	-1.213663466915969e+001
1	 1.125609464338406e+000	 2.636448052334516e+000	-3.045780678142673e-001
1	 1.097501501095708e+000	 2.648272115530094e+000	-9.670466513495146e-001
1	 1.069329061409152e+000	 2.659772511872570e+000	-1.716231431752338e+000
1	 1.041097498112029e+000	 2.670949298215834e+000	-2.554768425805058e+000
1	 1.012812138484054e+000	 2.681802644152406e+000	-3.485224921805944e+000
1	 9.844782814308756e-001	 2.692332830683795e+000	-4.510097399917077e+000
1	 9.561011947256434e-001	 2.702540248811463e+000	-5.631809573244595e+000
1	 9.276861123150287e-001	 2.712425398051370e+000	-6.852710551233975e+000
1	 8.992382316919299e-001	 2.721988884875082e+000	-8.175073126666696e+000
1	 8.707627113369557e-001	 2.731231421080581e+000	-9.601092187245740e+000
1	 8.422646682306209e-001	 2.740153822095873e+000	-1.113288325246949e+001
1	 7.639109134684246e-001	 2.485244232885506e+000	-1.992733581921111e+001
1	 7.380481445792873e-001	 2.493047082992633e+000	-2.146326147744771e+001
1	 7.121741063034351e-001	 2.500561330227558e+000	-2.307005456824157e+001
1	 6.862933117354158e-001	 2.507787982628420e+000	-2.474891701994662e+001
1	 6.604102280884719e-001	 2.514728135537550e+000	-2.650101563505497e+001
1	 6.345292747799891e-001	 2.521382969806464e+000	-2.832748295106694e+001
1	 6.086548215885876e-001	 2.527753749957560e+000	-3.022941809935308e+001
1	 5.827911868836837e-001	 2.533841822305531e+000	-3.220788766014172e+001
1	 5.569426359281889e-001	 2.539648613041487e+000	-3.426392651185703e+001
1	 5.311133792549045e-001	 2.545175626282792e+000	-3.639853867313164e+001
1	 5.053075711170252e-001	 2.550424442091569e+000	-3.861269813591437e+001
1	 7.717462889439609e-001	 2.510735191807548e+000	-1.916110103516727e+001
1	 7.456182476236747e-001	 2.518618075147866e+000	-2.072238633703951e+001
1	 7.194788213274721e-001	 2.526209395438530e+000	-2.235995314940053e+001
1	 6.933325694403610e-001	 2.533510171057051e+000	-2.407624246067356e+001
1	 6.671840049954467e-001	 2.540521508580615e+000	-2.587364604353157e+001
1	 6.410375927397366e-001	 2.547244600972647e+000	-2.775450546339029e+001
1	 6.148977472723330e-001	 2.553680725725666e+000	-2.972111115031852e+001
1	 5.887688312558336e-001	 2.559831242963417e+000	-3.177570153450613e+001
1	 5.626551537016219e-001	 2.565697593505348e+000	-3.392046224531388e+001
1	 5.365609683296085e-001	 2.571281296896449e+000	-3.615752537381657e+001
1	 5.104904720028426e-001	 2.576583949405427e+000	-3.848896879863826e+001
1	 7.795816644197812e-001	 2.536226150728920e+000	-1.837234755204073e+001
1	 7.531883506683610e-001	 2.544189067302395e+000	-1.995574520246676e+001
1	 7.267835363518351e-001	 2.551857460648768e+000	-2.162070412383815e+001
1	 7.003718271456701e-001	 2.559232359484935e+000	-2.337078505499401e+001
1	 6.739577819028289e-001	 2.566314881622927e+000	-2.520948620894600e+001
1	 6.475459106999378e-001	 2.573106232138085e+000	-2.714024058889022e+001
1	 6.211406729565770e-001	 2.579607701493042e+000	-2.916641342832502e+001
1	 5.947464756285226e-001	 2.585820663620601e+000	-3.129129975723855e+001
1	 5.683676714756264e-001	 2.591746573968552e+000	-3.351812209601561e+001
1	 5.420085574049056e-001	 2.597386967509507e+000	-3.585002827840773e+001
1	 5.156733728892596e-001	 2.602743456718761e+000	-3.829008940460472e+001
1	 7.874170398958366e-001	 2.561717109649789e+000	-1.756001673868786e+001
1	 7.607584537132996e-001	 2.569760059456394e+000	-1.916225955337892e+001
1	 7.340882513764792e-001	 2.577505525858459e+000	-2.085119532145751e+001
1	 7.074110848512967e-001	 2.584954547912258e+000	-2.263138882964213e+001
1	 6.807315588105692e-001	 2.592108254664673e+000	-2.450732978700114e+001
1	 6.540542286605395e-001	 2.598967863302959e+000	-2.648342860534694e+001
1	 6.273835986412626e-001	 2.605534677259868e+000	-2.856401235977887e+001
1	 6.007241200016900e-001	 2.611810084277257e+000	-3.075332093297644e+001
1	 5.740801892501388e-001	 2.617795554431263e+000	-3.305550334634901e+001
1	 5.474561464807296e-001	 2.623492638122117e+000	-3.547461428066522e+001
1	 5.208562737762096e-001	 2.628902964031701e+000	-3.801461078830592e+001
1	 7.952524153720766e-001	 2.587208068570322e+000	-1.672309168542256e+001
1	 7.683285567584446e-001	 2.595331051610042e+000	-1.834089337473226e+001
1	 7.413929664013587e-001	 2.603153591067784e+000	-2.005035840363078e+001
1	 7.144503425571936e-001	 2.610676736339205e+000	-2.185694336913786e+001
1	 6.875053357186185e-001	 2.617901627706041e+000	-2.376601797634641e+001
1	 6.605625466214891e-001	 2.624829494467459e+000	-2.578285943715187e+001
1	 6.336265243263339e-001	 2.631461653026329e+000	-2.791264710061083e+001
1	 6.067017643752756e-001	 2.637799504933566e+000	-3.016045731998512e+001
1	 5.797927070250956e-001	 2.643844534893646e+000	-3.253125856086955e+001
1	 5.529037355570147e-001	 2.649598308734429e+000	-3.502990675415694e+001
1	 5.260391746636258e-001	 2.655062471344380e+000	-3.766114089694984e+001
1	 8.030877908484519e-001	 2.612699027490689e+000	-1.586059516872668e+001
1	 7.758986598037487e-001	 2.620902043763512e+000	-1.749065108326149e+001
1	 7.486976814264280e-001	 2.628801656276926e+000	-1.921716672497729e+001
1	 7.214896002633148e-001	 2.636398924765965e+000	-2.104638159335015e+001
1	 6.942791126269278e-001	 2.643695000747221e+000	-2.298443719929954e+001
1	 6.670708645827346e-001	 2.650691125631772e+000	-2.503737023340699e+001
1	 6.398694500117338e-001	 2.657388628792607e+000	-2.721110601276491e+001
1	 6.126794087492191e-001	 2.663788925589697e+000	-2.951145221278281e+001
1	 5.855052248004329e-001	 2.669893515355862e+000	-3.194409288948285e+001
1	 5.583513246336950e-001	 2.675703979346590e+000	-3.451458279701542e+001
1	 5.312220755514417e-001	 2.681221978656927e+000	-3.722834200434223e+001
1	 8.109231663249131e-001	 2.638189986411055e+000	-1.497158773395358e+001
1	 7.834687628491668e-001	 2.646473035916982e+000	-1.661057557416231e+001
1	 7.560023964516420e-001	 2.654449721486068e+000	-1.835063331910236e+001
1	 7.285288579696134e-001	 2.662121113192726e+000	-2.019867766390365e+001
1	 7.010528895354480e-001	 2.669488373788401e+000	-2.216151691702538e+001
1	 6.735791825442229e-001	 2.676552756796084e+000	-2.424584308643053e+001
1	 6.461123756974063e-001	 2.683315604558885e+000	-2.645822428698420e+001
1	 6.186570531234603e-001	 2.689778346245830e+000	-2.880509747650568e+001
1	 5.912177425760872e-001	 2.695942495818081e+000	-3.129276152696971e+001
1	 5.637989137107048e-001	 2.701809649958750e+000	-3.392737063642635e+001
1	 5.364049764395906e-001	 2.707381485969473e+000	-3.671492808629010e+001
1	 8.187585418014102e-001	 2.663680945331589e+000	-1.405516588812090e+001
1	 7.910388658946517e-001	 2.672044028070630e+000	-1.569974637993086e+001
1	 7.633071114769552e-001	 2.680097786695394e+000	-1.744980899999293e+001
1	 7.355681156760432e-001	 2.687843301619675e+000	-1.931284501079700e+001
1	 7.078266664441298e-001	 2.695281746829769e+000	-2.129622757016566e+001
1	 6.800875005059015e-001	 2.702414387960583e+000	-2.340720288126340e+001
1	 6.523553013832943e-001	 2.709242580325347e+000	-2.565288170209451e+001
1	 6.246346974979384e-001	 2.715767766902138e+000	-2.804023122284646e+001
1	 5.969302603519949e-001	 2.721991476280463e+000	-3.057606731838330e+001
1	 5.692465027879776e-001	 2.727915320571062e+000	-3.326704718214882e+001
1	 5.415878773280060e-001	 2.733540993282150e+000	-3.611966234670646e+001
1	 8.265939172778936e-001	 2.689171904252459e+000	-1.311046039548771e+001
1	 7.986089689401570e-001	 2.697615020224629e+000	-1.475727793391831e+001
1	 7.706118265023213e-001	 2.705745851905084e+000	-1.651378057139511e+001
1	 7.426073733825570e-001	 2.713565490046998e+000	-1.838793447125627e+001
1	 7.146004433529242e-001	 2.721075119871516e+000	-2.038757863659338e+001
1	 6.865958184677182e-001	 2.728276019125458e+000	-2.252041526748515e+001
1	 6.585982270693417e-001	 2.735169556092171e+000	-2.479400051172754e+001
1	 6.306123418725933e-001	 2.741757187558795e+000	-2.721573561817370e+001
1	 6.026427781280923e-001	 2.748040456743174e+000	-2.979285850063838e+001
1	 5.746940918654483e-001	 2.754020991183672e+000	-3.253243571917720e+001
1	 5.467707782166210e-001	 2.759700500595091e+000	-3.544135488441722e+001
1	 8.344292927543136e-001	 2.714662863173831e+000	-1.213663466915969e+001
1	 8.061790719856368e-001	 2.723186012379158e+000	-1.378231793171848e+001
1	 7.779165415276961e-001	 2.731393917115324e+000	-1.554166913707724e+001
1	 7.496466310891087e-001	 2.739287678474881e+000	-1.742303253344736e+001
1	 7.213742202617822e-001	 2.746868492913827e+000	-1.943461679859580e+001
1	 6.931041364296195e-001	 2.754137650290895e+000	-2.158448474529792e+001
1	 6.648411527554921e-001	 2.761096531859548e+000	-2.388054345010747e+001
1	 6.365899862473645e-001	 2.767746608215981e+000	-2.633053481514255e+001
1	 6.083552959043156e-001	 2.774089437206378e+000	-2.894202657134060e+001
1	 5.801416809430503e-001	 2.780126661796731e+000	-3.172240373040174e+001
1	 5.519536791053694e-001	 2.785860007908426e+000	-3.467886049142184e+001
1	 8.422646682306209e-001	 2.740153822095873e+000	-1.113288325246949e+001
1	 8.137491750310451e-001	 2.748757004534392e+000	-1.277404578401697e+001
1	 7.852212565530335e-001	 2.757041982326296e+000	-1.453262850540793e+001
1	 7.566858887956517e-001	 2.765009866903513e+000	-1.641725967821745e+001
1	 7.281479971706545e-001	 2.772661865956894e+000	-1.843642421235793e+001
1	 6.996124543915537e-001	 2.779999281457080e+000	-2.059845285843954e+001
1	 6.710840784416888e-001	 2.787023507627656e+000	-2.291151184914779e+001
1	 6.425676306221921e-001	 2.793736028873866e+000	-2.538359299975604e+001
1	 6.140678136806015e-001	 2.800138417670239e+000	-2.802250427657027e+001
1	 5.855892700207185e-001	 2.806232332410390e+000	-3.083586084079879e+001
1	 5.571365799941844e-001	 2.812019515222284e+000	-3.383107657404668e+001
1	 5.053075711170252e-001	 2.550424442091569e+000	-3.861269813591437e+001
1	 4.795331713038518e-001	 2.555395989676932e+000	-4.090278814712367e+001
1	 4.537903379149101e-001	 2.560092804066504e+000	-4.326370594265099e+001
1	 4.280830402778995e-001	 2.564516682315065e+000	-4.569320979414562e+001
1	 4.024151861583359e-001	 2.568669489165139e+000	-4.818912785491844e+001
1	 3.767906205842483e-001	 2.572553154955150e+000	-5.074936247781365e+001
1	 3.512131247447570e-001	 2.576169673513515e+000	-5.337189425821914e+001
1	 3.256864149621464e-001	 2.579521100041420e+000	-5.605478580196102e+001
1	 3.002141417369439e-001	 2.582609548986935e+000	-5.879618521850507e+001
1	 2.747998888654178e-001	 2.585437191913076e+000	-6.159432934053251e+001
1	 2.494471726288109e-001	 2.588006255362403e+000	-6.444754667158352e+001
1	 5.104904720028426e-001	 2.576583949405427e+000	-3.848896879863825e+001
1	 4.844517061535697e-001	 2.581606489772226e+000	-4.091287200412007e+001
1	 4.584448305029271e-001	 2.586351479026043e+000	-4.342596894124306e+001
1	 4.324738550916998e-001	 2.590820732653894e+000	-4.602724124532475e+001
1	 4.065427277670505e-001	 2.595016134524813e+000	-4.871571786116390e+001
1	 3.806553329951620e-001	 2.598939634776541e+000	-5.149047780300049e+001
1	 3.548154907485173e-001	 2.602593247688028e+000	-5.435065271467256e+001
1	 3.290269554674292e-001	 2.605979049540489e+000	-5.729542923057645e+001
1	 3.032934150953255e-001	 2.609099176469709e+000	-6.032405113851438e+001
1	 2.776184901871935e-001	 2.611955822312247e+000	-6.343582134596620e+001
1	 2.520057330904998e-001	 2.614551236448129e+000	-6.663010365175560e+001
1	 5.156733728892596e-001	 2.602743456718761e+000	-3.829008940460471e+001
1	 4.893702410038773e-001	 2.607816989867086e+000	-4.083811443088538e+001
1	 4.630993230915094e-001	 2.612610153985245e+000	-4.349278102802974e+001
1	 4.368646699060313e-001	 2.617124782992494e+000	-4.625429997139962e+001
1	 4.106702693762570e-001	 2.621362779884366e+000	-4.912290714912555e+001
1	 3.845200454065259e-001	 2.625326114597916e+000	-5.209886472482823e+001
1	 3.584178567526882e-001	 2.629016821862626e+000	-5.518246217644819e+001
1	 3.323674959730891e-001	 2.632436999039726e+000	-5.837401721270459e+001
1	 3.063726884540602e-001	 2.635588803952722e+000	-6.167387656897513e+001
1	 2.804370915093123e-001	 2.638474452711707e+000	-6.508241668464299e+001
1	 2.545642935525384e-001	 2.641096217534166e+000	-6.860004426420008e+001
1	 5.208562737762096e-001	 2.628902964031701e+000	-3.801461078830592e+001
1	 4.942887758547083e-001	 2.634027489961617e+000	-4.067706545565176e+001
1	 4.677538156805939e-001	 2.638868828944195e+000	-4.346270531775801e+001
1	 4.412554847208345e-001	 2.643428833330921e+000	-4.637297600559623e+001
1	 4.147978109858984e-001	 2.647709425243826e+000	-4.940932643652441e+001
1	 3.883847578182862e-001	 2.651712594419278e+000	-5.257320834059324e+001
1	 3.620202227572178e-001	 2.655440396037277e+000	-5.586607573973353e+001
1	 3.357080364790744e-001	 2.658894948539081e+000	-5.928938438230574e+001
1	 3.094519618130944e-001	 2.662078431435897e+000	-6.284459113555830e+001
1	 2.832556928317151e-001	 2.664993083111359e+000	-6.653315333859399e+001
1	 2.571228540148598e-001	 2.667641198620404e+000	-7.035652811848873e+001
1	 5.260391746636258e-001	 2.655062471344380e+000	-3.766114089694985e+001
1	 4.992073107059976e-001	 2.660237990055931e+000	-4.042833225114367e+001
1	 4.724083082701174e-001	 2.665127503902977e+000	-4.333436155391652e+001
1	 4.456462995360493e-001	 2.669732883669232e+000	-4.638191494900458e+001
1	 4.189253525959185e-001	 2.674056070603222e+000	-4.957366040553819e+001
1	 3.922494702303895e-001	 2.678099074240624e+000	-5.291224556890761e+001
1	 3.656225887620544e-001	 2.681863970211957e+000	-5.640029564214330e+001
1	 3.390485769853334e-001	 2.685352898038498e+000	-6.004041130130027e+001
1	 3.125312351723739e-001	 2.688568058919160e+000	-6.383516664819790e+001
1	 2.860742941543431e-001	 2.691511713511108e+000	-6.778710720370540e+001
1	 2.596814144773962e-001	 2.694186179706736e+000	-7.189874794461237e+001
1	 5.312220755514417e-001	 2.681221978656927e+000	-3.722834200434224e+001
1	 5.041258455576798e-001	 2.686448490150135e+000	-4.009057634690778e+001
1	 4.770628008600173e-001	 2.691386178861675e+000	-4.310642334622720e+001
1	 4.500371143516162e-001	 2.696036934007483e+000	-4.627981525982277e+001
1	 4.230528942062610e-001	 2.700402715962583e+000	-4.961464507026393e+001
1	 3.961141826427819e-001	 2.704485554061952e+000	-5.311476262171041e+001
1	 3.692249547671461e-001	 2.708287544386637e+000	-5.678397086546238e+001
1	 3.423891174918139e-001	 2.711810847537923e+000	-6.062602221907423e+001
1	 3.156105085318450e-001	 2.715057686402431e+000	-6.464461504322470e+001
1	 2.888928954771373e-001	 2.718030343910859e+000	-6.884339024017399e+001
1	 2.622399749400806e-001	 2.720731160793047e+000	-7.322592797727317e+001
1	 5.364049764395906e-001	 2.707381485969473e+000	-3.671492808629010e+001
1	 5.090443804096894e-001	 2.712658990244341e+000	-3.966251100325744e+001
1	 4.817172934502302e-001	 2.717644853820372e+000	-4.277761556828982e+001
1	 4.544279291674749e-001	 2.722340984345732e+000	-4.606542569975287e+001
1	 4.271804358168690e-001	 2.726749361321935e+000	-4.953106529679842e+001
1	 3.999788950554100e-001	 2.730872033883267e+000	-5.317959262283494e+001
1	 3.728273207724410e-001	 2.734711118561288e+000	-5.701599487736745e+001
1	 3.457296579984646e-001	 2.738268797037303e+000	-6.104518296187401e+001
1	 3.186897818914537e-001	 2.741547313885638e+000	-6.527198644480146e+001
1	 2.917114968000386e-001	 2.744548974310515e+000	-6.970114873018750e+001
1	 2.647985354028455e-001	 2.747276141879232e+000	-7.433732243384711e+001
1	 5.415878773280060e-001	 2.733540993282150e+000	-3.611966234670646e+001
1	 5.139629152619605e-001	 2.738869490338653e+000	-3.914289873600052e+001
1	 4.863717860406932e-001	 2.743903528779152e+000	-4.234671190464970e+001
1	 4.588187439835659e-001	 2.748645034684032e+000	-4.573754292702350e+001
1	 4.313079774276863e-001	 2.753096006681306e+000	-4.932175246571355e+001
1	 4.038436074682200e-001	 2.757258513704563e+000	-5.310561336331622e+001
1	 3.764296867778873e-001	 2.761134692735884e+000	-5.709530350281557e+001
1	 3.490701985052336e-001	 2.764726746536586e+000	-6.129689894339055e+001
1	 3.217690552511462e-001	 2.768036941368701e+000	-6.571636733766860e+001
1	 2.945300981229885e-001	 2.771067604709984e+000	-7.035956163564879e+001
1	 2.673570958656237e-001	 2.773821122965178e+000	-7.523221407973912e+001
1	 5.467707782166210e-001	 2.759700500595091e+000	-3.544135488441722e+001
1	 5.188814501144281e-001	 2.765079990433186e+000	-3.853054898194858e+001
1	 4.910262786313433e-001	 2.770162203738096e+000	-4.181253253737712e+001
1	 4.632095587998294e-001	 2.774949085022442e+000	-4.529500922630676e+001
1	 4.354355190386564e-001	 2.779442652040724e+000	-4.898558226747620e+001
1	 4.077083198811582e-001	 2.783644993525842e+000	-5.289174518436455e+001
1	 3.800320527834329e-001	 2.787558266910395e+000	-5.702087291649819e+001
1	 3.524107390120691e-001	 2.791184696035718e+000	-6.138021328849020e+001
1	 3.248483286108681e-001	 2.794526568851548e+000	-6.597687884381473e+001
1	 2.973486994459276e-001	 2.797586235109168e+000	-7.081783904930137e+001
1	 2.699156563283478e-001	 2.800366104050777e+000	-7.590991287533350e+001
1	 5.519536791053694e-001	 2.785860007908426e+000	-3.467886049142184e+001
1	 5.237999849670263e-001	 2.791290490528044e+000	-3.782431589595201e+001
1	 4.956807712221172e-001	 2.796420878697292e+000	-4.117394196298486e+001
1	 4.676003736162054e-001	 2.801253135361017e+000	-4.473671036653447e+001
1	 4.395630606497227e-001	 2.805789297400218e+000	-4.852147262207709e+001
1	 4.115730322941712e-001	 2.810031473347105e+000	-5.253694897961277e+001
1	 3.836344187890263e-001	 2.813981841084797e+000	-5.679171774840057e+001
1	 3.557512795189195e-001	 2.817642645534645e+000	-6.129420506265609e+001
1	 3.279276019705660e-001	 2.821016196334098e+000	-6.605267509624026e+001
1	 3.001673007687973e-001	 2.824104865507972e+000	-7.107522073312126e+001
1	 2.724742167909505e-001	 2.826911085135918e+000	-7.636975469917599e+001
1	 5.571365799941844e-001	 2.812019515222284e+000	-3.383107657404668e+001
1	 5.287185198196899e-001	 2.817500990623336e+000	-3.702309627089734e+001
1	 5.003352638129522e-001	 2.822679553656823e+000	-4.042984693119803e+001
1	 4.719911884326343e-001	 2.827557185699815e+000	-4.406157357828252e+001
1	 4.436906022608289e-001	 2.832135942759817e+000	-4.792838171477810e+001
1	 4.154377447072054e-001	 2.836417953168350e+000	-5.204022430887240e+001
1	 3.872367847946154e-001	 2.840405415259060e+000	-5.640688929510205e+001
1	 3.590918200257328e-001	 2.844100595033315e+000	-6.103798760025589e+001
1	 3.310068753301859e-001	 2.847505823816278e+000	-6.594294170349198e+001
1	 3.029859020915387e-001	 2.850623495906301e+000	-7.113097473829068e+001
1	 2.750327772533645e-001	 2.853456066220490e+000	-7.661110014242399e+001
1	 2.494471726288109e-001	 2.588006255362403e+000	-6.444754667158351e+001
1	 2.241556613584017e-001	 2.590319346644739e+000	-6.734711946695234e+001
1	 1.989325871316730e-001	 2.592378392617929e+000	-7.027846874398364e+001
1	 1.737813118221737e-001	 2.594185773617187e+000	-7.323267947771655e+001
1	 1.487051256341053e-001	 2.595743916486776e+000	-7.620108675288705e+001
1	 1.237072466452772e-001	 2.597055292441033e+000	-7.917528495655859e+001
1	 9.879082041758520e-002	 2.598122414936711e+000	-8.214713626806262e+001
1	 7.395891967371894e-002	 2.598947837558706e+000	-8.510877845297168e+001
1	 4.921454403874771e-002	 2.599534151921171e+000	-8.805263196912011e+001
1	 2.456061984517455e-002	 2.599883985585925e+000	-9.097140639392514e+001
1	 0.000000000000000e+000	 2.600000000000000e+000	-9.385810618341024e+001
1	 2.520057330904998e-001	 2.614551236448129e+000	-6.663010365175560e+001
1	 2.264548087346185e-001	 2.616888052930142e+000	-6.989940667608788e+001
1	 2.009730233758899e-001	 2.618968218379761e+000	-7.322982492966472e+001
1	 1.755637733703358e-001	 2.620794137547127e+000	-7.661276868332671e+001
1	 1.502303826695238e-001	 2.622368262168459e+000	-8.003987594090494e+001
1	 1.249761023588345e-001	 2.623693088805149e+000	-8.350302162230221e+001
1	 9.980411026394495e-002	 2.624771156694291e+000	-8.699432607409672e+001
1	 7.471751062422004e-002	 2.625605045612707e+000	-9.050616291353410e+001
1	 4.971933383164757e-002	 2.626197373756539e+000	-9.403116621304471e+001
1	 2.481253623389310e-002	 2.626550795638312e+000	-9.756223703361516e+001
1	 0.000000000000000e+000	 2.626668000003317e+000	-1.010925493164804e+002
1	 2.545642935525384e-001	 2.641096217534166e+000	-6.860004426420008e+001
1	 2.287539561112106e-001	 2.643456759215849e+000	-7.222054593036923e+001
1	 2.030134596205190e-001	 2.645558044141875e+000	-7.593086975349458e+001
1	 1.773462349189486e-001	 2.647402501477304e+000	-7.972294131005711e+001
1	 1.517556397054239e-001	 2.648992607850319e+000	-8.358888845311196e+001
1	 1.262449580728874e-001	 2.650330885169381e+000	-8.752105026343000e+001
1	 1.008174001107885e-001	 2.651419898451923e+000	-9.151198537012652e+001
1	 7.547610157515808e-002	 2.652262253666700e+000	-9.555447964580533e+001
1	 5.022412362489390e-002	 2.652860595591853e+000	-9.964155328244375e+001
1	 2.506445262281531e-002	 2.653217605690610e+000	-1.037664672554008e+002
1	 0.000000000000000e+000	 2.653336000006534e+000	-1.079227291839997e+002
1	 2.571228540148598e-001	 2.667641198620404e+000	-7.035652811848873e+001
1	 2.310531034880990e-001	 2.670025465501747e+000	-7.430982916731952e+001
1	 2.050538958654674e-001	 2.672147869904146e+000	-7.838103189751848e+001
1	 1.791286964679063e-001	 2.674010865407590e+000	-8.256276164367705e+001
1	 1.532808967416893e-001	 2.675616953532236e+000	-8.684781755159820e+001
1	 1.275138137873145e-001	 2.676968681533610e+000	-9.122918107837489e+001
1	 1.018306899579960e-001	 2.678068640209494e+000	-9.570002391550781e+001
1	 7.623469252642436e-002	 2.678919461720579e+000	-1.002537153392573e+002
1	 5.072891341840023e-002	 2.679523817427006e+000	-1.048838289935407e+002
1	 2.531636901189029e-002	 2.679884415742719e+000	-1.095841491117544e+002
1	 0.000000000000000e+000	 2.680004000009550e+000	-1.143486761849035e+002
1	 2.596814144773962e-001	 2.694186179706736e+000	-7.189874794461238e+001
1	 2.333522508652044e-001	 2.696594171787714e+000	-7.616657622973278e+001
1	 2.070943321106424e-001	 2.698737695666449e+000	-8.057976255984478e+001
1	 1.809111580171030e-001	 2.700619229337862e+000	-8.513181114177004e+001
1	 1.548061537782043e-001	 2.702241299214085e+000	-8.981636858721078e+001
1	 1.287826695019944e-001	 2.703606477897716e+000	-9.462723174577650e+001
1	 1.028439798054480e-001	 2.704717381966887e+000	-9.955835502603003e+001
1	 7.699328347791012e-002	 2.705576669774231e+000	-1.046038572079233e+002
1	 5.123370321208013e-002	 2.706187039261895e+000	-1.097580277510011e+002
1	 2.556828540106713e-002	 2.706551225794539e+000	-1.150153326037139e+002
1	 0.000000000000000e+000	 2.706672000012267e+000	-1.203704195200854e+002
1	 2.622399749400806e-001	 2.720731160793047e+000	-7.322592797727317e+001
1	 2.356513982424475e-001	 2.723162878073631e+000	-7.779013350437663e+001
1	 2.091347683559512e-001	 2.725327521428659e+000	-8.252653435624760e+001
1	 1.826936195664328e-001	 2.727227593267995e+000	-8.742968759604489e+001
1	 1.563314108148525e-001	 2.728865644895743e+000	-9.249425840983133e+001
1	 1.300515252168056e-001	 2.730244274261579e+000	-9.771502705957509e+001
1	 1.038572696530246e-001	 2.731366123723988e+000	-1.030868954004243e+002
1	 7.775187442950676e-002	 2.732233877827549e+000	-1.086048929648078e+002
1	 5.173849300584709e-002	 2.732850261096416e+000	-1.142641826167921e+002
1	 2.582020179029493e-002	 2.733218035845966e+000	-1.200600657809567e+002
1	 0.000000000000000e+000	 2.733340000014584e+000	-1.259879872508372e+002
1	 2.647985354028455e-001	 2.747276141879232e+000	-7.433732243384708e+001
1	 2.379505456197491e-001	 2.749731584359379e+000	-7.917987263961439e+001
1	 2.111752046013009e-001	 2.751917347190656e+000	-8.422084028544879e+001
1	 1.844760811157900e-001	 2.753835957197864e+000	-8.945600434321088e+001
1	 1.578566678515178e-001	 2.755489990577086e+000	-9.488121481284067e+001
1	 1.313203809316266e-001	 2.756882070625080e+000	-1.004923985852608e+002
1	 1.048705595006062e-001	 2.758014865480682e+000	-1.062855649569280e+002
1	 7.851046538110545e-002	 2.758891085880423e+000	-1.122568107977809e+002
1	 5.224328279961468e-002	 2.759513482930462e+000	-1.184023253750490e+002
1	 2.607211817952282e-002	 2.759884845896901e+000	-1.247183948360697e+002
1	 0.000000000000000e+000	 2.760008000016400e+000	-1.312014063539033e+002
1	 2.673570958656237e-001	 2.773821122965178e+000	-7.523221407973909e+001
1	 2.402496929970300e-001	 2.776300290644838e+000	-8.033518933666048e+001
1	 2.132156408465988e-001	 2.778507172952312e+000	-8.566219275381209e+001
1	 1.862585426650686e-001	 2.780444321127342e+000	-9.121038952116305e+001
1	 1.593819248880840e-001	 2.782114336257990e+000	-9.697697600948260e+001
1	 1.325892366463361e-001	 2.783519866988097e+000	-1.029591843358622e+002
1	 1.058838493480732e-001	 2.784663607236856e+000	-1.091542866792353e+002
1	 7.926905633259757e-002	 2.785548293932743e+000	-1.155595993468556e+002
1	 5.274807259329640e-002	 2.786176704763930e+000	-1.221724865932172e+002
1	 2.632403456869986e-002	 2.786551655947241e+000	-1.289903641934091e+002
1	 0.000000000000000e+000	 2.786676000017617e+000	-1.360107027733722e+002
1	 2.699156563283478e-001	 2.800366104050777e+000	-7.590991287533350e+001
1	 2.425488403742109e-001	 2.802868996929889e+000	-8.125550220958223e+001
1	 2.152560770917519e-001	 2.805096998713503e+000	-8.685012265550837e+001
1	 1.880410042141629e-001	 2.807052685056306e+000	-9.269248536747227e+001
1	 1.609071819244353e-001	 2.808738681938335e+000	-9.878129013900896e+001
1	 1.338580923608126e-001	 2.810157663350513e+000	-1.051152284663612e+002
1	 1.068971391953059e-001	 2.811312348992395e+000	-1.116929864712068e+002
1	 8.002764728387436e-002	 2.812205501984400e+000	-1.185132476827577e+002
1	 5.325286238680579e-002	 2.812839926596714e+000	-1.255746956797183e+002
1	 2.657595095777518e-002	 2.813218465996883e+000	-1.328760165929056e+002
1	 0.000000000000000e+000	 2.813344000018133e+000	-1.404159014696179e+002
1	 2.724742167909505e-001	 2.826911085135918e+000	-7.636975469917600e+001
1	 2.448479877512128e-001	 2.829437703214413e+000	-8.194025170952986e+001
1	 2.172965133366676e-001	 2.831686824474107e+000	-8.778417850450239e+001
1	 1.898234657629669e-001	 2.833661048984627e+000	-9.390194755739921e+001
1	 1.624324389604553e-001	 2.835363027617995e+000	-1.002939148006497e+002
1	 1.351269480749346e-001	 2.836795459712210e+000	-1.069603809853261e+002
1	 1.079104290421845e-001	 2.837961090747181e+000	-1.139015930197678e+002
1	 8.078623823482709e-002	 2.838862710035285e+000	-1.211177452867041e+002
1	 5.375765218005640e-002	 2.839503148428710e+000	-1.286089809383646e+002
1	 2.682786734669787e-002	 2.839885276045730e+000	-1.363753931691462e+002
1	 0.000000000000000e+000	 2.840012000017850e+000	-1.444170264654833e+002
1	 2.750327772533645e-001	 2.853456066220490e+000	-7.661110014242402e+001
1	 2.471471351279563e-001	 2.856006409498289e+000	-8.238889910901312e+001
1	 2.193369495812531e-001	 2.858276650234000e+000	-8.846392561499198e+001
1	 1.916059273113750e-001	 2.860269412912185e+000	-9.483844457885715e+001
1	 1.639576959960280e-001	 2.861987373296847e+000	-1.015146166135927e+002
1	 1.363958037885807e-001	 2.863433256073065e+000	-1.084944974826393e+002
1	 1.089237188885895e-001	 2.864609832501104e+000	-1.157800376654564e+002
1	 8.154482918534708e-002	 2.865519918085287e+000	-1.233730820313081e+002
1	 5.426244197296173e-002	 2.866166370259814e+000	-1.312753696197390e+002
1	 2.707978373541704e-002	 2.866552086093679e+000	-1.394885335260441e+002
1	 0.000000000000000e+000	 2.866680000016666e+000	-1.480141008898858e+002
1	 2.866680000016666e+000	 0.000000000000000e+000	 1.155891506334375e+002
1	 2.866552086093679e+000	 2.707978373541622e-002	 1.094382600865978e+002
1	 2.866166370259814e+000	 5.426244197296102e-002	 1.034486104838258e+002
1	 2.865519918085287e+000	 8.154482918534642e-002	 9.762022642377571e+001
1	 2.864609832501105e+000	 1.089237188885890e-001	 9.195321030867802e+001
1	 2.863433256073065e+000	 1.363958037885802e-001	 8.644774537745056e+001
1	 2.861987373296846e+000	 1.639576959960275e-001	 8.110409867343202e+001
1	 2.860269412912185e+000	 1.916059273113747e-001	 7.592262393806448e+001
1	 2.858276650234000e+000	 2.193369495812528e-001	 7.090376442169756e+001
1	 2.856006409498289e+000	 2.471471351279560e-001	 6.604805560254454e+001
1	 2.853456066220490e+000	 2.750327772533643e-001	 6.135612780470608e+001
1	 2.893344000014533e+000	 0.000000000000000e+000	 1.155985612126042e+002
1	 2.893214896319162e+000	 2.733166233832871e-002	 1.093225361920430e+002
1	 2.892825592806659e+000	 5.476715605077942e-002	 1.032179283706900e+002
1	 2.892173127753058e+000	 8.230330635240593e-002	 9.728455153017714e+001
1	 2.891254577142689e+000	 1.099368567485596e-001	 9.152227856922706e+001
1	 2.890067056963325e+000	 1.376644691828235e-001	 8.593104456663524e+001
1	 2.888607725522634e+000	 1.654827242539523e-001	 8.051084980967724e+001
1	 2.886873785783860e+000	 1.933881215034429e-001	 7.526176278013425e+001
1	 2.884862487718648e+000	 2.213770797753011e-001	 7.018392308993079e+001
1	 2.882571130674752e+000	 2.494459376495116e-001	 6.527754435819857e+001
1	 2.879997065756335e+000	 2.775909539506485e-001	 6.054291702141157e+001
1	 2.920008000011599e+000	 0.000000000000000e+000	 1.153372224115351e+002
1	 2.919877706543843e+000	 2.758354094103634e-002	 1.089588912836703e+002
1	 2.919484815352702e+000	 5.527187012824735e-002	 1.027609093070540e+002
1	 2.918826337420028e+000	 8.306178351902124e-002	 9.674291478993743e+001
1	 2.917899321783473e+000	 1.109499946080370e-001	 9.090458746115795e+001
1	 2.916700857852797e+000	 1.389331345765616e-001	 8.524565153132097e+001
1	 2.915228077747646e+000	 1.670077525113894e-001	 7.976587874795320e+001
1	 2.913478158654786e+000	 1.951703156950627e-001	 7.446509143767536e+001
1	 2.911448325202586e+000	 2.234172099689541e-001	 6.934316552821117e+001
1	 2.909135851850560e+000	 2.517447401707311e-001	 6.440003354282676e+001
1	 2.906538065291593e+000	 2.801491306476535e-001	 5.963568755958571e+001
1	 2.946672000008066e+000	 0.000000000000000e+000	 1.148101215715211e+002
1	 2.946540516767923e+000	 2.783541954358862e-002	 1.083521675508502e+002
1	 2.946144037898135e+000	 5.577658420544583e-002	 1.020822647027091e+002
1	 2.945479547086380e+000	 8.382026068528943e-002	 9.599991010287469e+001
1	 2.944544066423636e+000	 1.119631324671210e-001	 9.010462552114836e+001
1	 2.943334658741643e+000	 1.402017999698862e-001	 8.439596044958643e+001
1	 2.941848429972041e+000	 1.685327807684142e-001	 7.887349515102817e+001
1	 2.940082531525106e+000	 1.969525098862873e-001	 7.353684372181569e+001
1	 2.938034162685941e+000	 2.254573401622396e-001	 6.838565716234290e+001
1	 2.935700573025822e+000	 2.540435426916158e-001	 6.341962644880880e+001
1	 2.933079064826362e+000	 2.827073073443561e-001	 5.863848559930685e+001
1	 2.973336000004133e+000	 0.000000000000000e+000	 1.140220671338425e+002
1	 2.973203326991598e+000	 2.808729814603502e-002	 1.075070334896607e+002
1	 2.972803260443157e+000	 5.628129828245598e-002	 1.011865369653229e+002
1	 2.972132756752305e+000	 8.457873785130764e-002	 9.505996658186042e+001
1	 2.971188811063355e+000	 1.129762703259114e-001	 8.912672027838946e+001
1	 2.969968459630034e+000	 1.414704653628895e-001	 8.338620787674188e+001
1	 2.968468782195969e+000	 1.700578090251025e-001	 7.783785409053330e+001
1	 2.966686904394960e+000	 1.987347040771702e-001	 7.248110157340479e+001
1	 2.964620000168840e+000	 2.274974703551854e-001	 6.731541400088837e+001
1	 2.962265294200649e+000	 2.563423452121671e-001	 6.234027918005843e+001
1	 2.959620064360734e+000	 2.852654840407332e-001	 5.755521218085180e+001
1	 3.000000000000000e+000	 0.000000000000000e+000	 1.129776965900881e+002
1	 2.999866137215068e+000	 2.833917674842505e-002	 1.064279916218177e+002
1	 2.999462482987958e+000	 5.678601235935887e-002	 1.000781070108937e+002
1	 2.998785966417991e+000	 8.533721501717294e-002	 9.392735587595102e+001
1	 2.997833555702814e+000	 1.139894081845084e-001	 8.797504540975807e+001
1	 2.996602260518140e+000	 1.427391307556632e-001	 8.222047975008431e+001
1	 2.995089134419591e+000	 1.715828372815295e-001	 7.666296291699248e+001
1	 2.993291277264494e+000	 2.005168982677646e-001	 7.130180181212873e+001
1	 2.991205837651411e+000	 2.295376005478190e-001	 6.613630927526972e+001
1	 2.988830015375152e+000	 2.586411477323864e-001	 6.116580719307847e+001
1	 2.986161063894800e+000	 2.878236607367614e-001	 5.638962965470858e+001
1	 3.026663999995867e+000	 0.000000000000000e+000	 1.116814840122354e+002
1	 3.026528947438530e+000	 2.859105535080819e-002	 1.051193858055986e+002
1	 3.026121705532732e+000	 5.729072643623560e-002	 9.876120137721759e+001
1	 3.025439176083625e+000	 8.609569218298241e-002	 9.260619910643298e+001
1	 3.024478300342187e+000	 1.150025460430116e-001	 8.665362751678009e+001
1	 3.023236061406126e+000	 1.440077961482992e-001	 8.090271802339463e+001
1	 3.021709486643062e+000	 1.731078655377712e-001	 7.535268776671481e+001
1	 3.019895650133845e+000	 2.022990924581237e-001	 7.000274252887895e+001
1	 3.017791675133779e+000	 2.315777307401684e-001	 6.485207972888735e+001
1	 3.015394736549441e+000	 2.609399502522749e-001	 5.989989149226786e+001
1	 3.012702063428655e+000	 2.903818374324177e-001	 5.514536779065313e+001
1	 3.053327999991934e+000	 0.000000000000000e+000	 1.101377471881793e+002
1	 3.053191757662186e+000	 2.884293395323395e-002	 1.035854081636968e+002
1	 3.052780928077679e+000	 5.779544051316722e-002	 9.723989896463176e+001
1	 3.052092385749396e+000	 8.685416934883318e-002	 9.110047343944174e+001
1	 3.051123044981657e+000	 1.160156839015211e-001	 8.516635254750311e+001
1	 3.049869862294164e+000	 1.452764615408896e-001	 7.943672695380879e+001
1	 3.048329838866539e+000	 1.746328937939028e-001	 7.391075972774735e+001
1	 3.046500023003158e+000	 2.040812866483011e-001	 6.858758914318270e+001
1	 3.044377512616072e+000	 2.336178609322613e-001	 6.346633157670952e+001
1	 3.041959457723628e+000	 2.632387527718344e-001	 5.854608450061567e+001
1	 3.039243062962393e+000	 2.929400141276791e-001	 5.382592956673143e+001
1	 3.079991999988400e+000	 0.000000000000000e+000	 1.083506543866197e+002
1	 3.079854567886232e+000	 2.909481255575181e-002	 1.018301056512239e+002
1	 3.079440150622987e+000	 5.830015459023484e-002	 9.551813742662570e+001
1	 3.078745595415491e+000	 8.761264651482241e-002	 8.941401831718005e+001
1	 3.077767789621402e+000	 1.170288217601367e-001	 8.351697188479906e+001
1	 3.076503663182422e+000	 1.465451269335260e-001	 7.782617906213123e+001
1	 3.074950191090176e+000	 1.761579220499999e-001	 7.234078068555112e+001
1	 3.073104395872575e+000	 2.058634808383498e-001	 6.705988014599207e+001
1	 3.070963350098415e+000	 2.356579911241252e-001	 6.198254615530320e+001
1	 3.068524178897822e+000	 2.655375552910658e-001	 5.710781562545361e+001
1	 3.065784062496108e+000	 2.954981908225222e-001	 5.243469665754438e+001
1	 3.106655999985466e+000	 0.000000000000000e+000	 1.063242307735774e+002
1	 3.106517378110865e+000	 2.934669115841126e-002	 9.985738628547648e+001
1	 3.106099373168855e+000	 5.880486866751957e-002	 9.359971923135193e+001
1	 3.105398805082099e+000	 8.837112368104710e-002	 8.755054136824502e+001
1	 3.104412534261600e+000	 1.180419596189584e-001	 8.170910812113498e+001
1	 3.103137464071066e+000	 1.478137923263007e-001	 7.607462078620799e+001
1	 3.101570543314130e+000	 1.776829503061382e-001	 7.064622886764045e+001
1	 3.099708768742238e+000	 2.076456750283234e-001	 6.542303254673675e+001
1	 3.097549187580935e+000	 2.376981213157881e-001	 6.040408528190479e+001
1	 3.095088900072133e+000	 2.678363578099707e-001	 5.558839653758814e+001
1	 3.092325062029891e+000	 2.980563675169237e-001	 5.097493463990151e+001
1	 3.133319999983334e+000	 0.000000000000000e+000	 1.040623645012883e+002
1	 3.133180188336288e+000	 2.959856976126182e-002	 9.767102505761960e+001
1	 3.132758595715477e+000	 5.930958274510247e-002	 9.148831741364370e+001
1	 3.132052014749406e+000	 8.912960084760445e-002	 8.551362401618130e+001
1	 3.131057278902433e+000	 1.190550974780861e-001	 7.974626053849163e+001
1	 3.129771264960267e+000	 1.490824577193053e-001	 7.418547784564522e+001
1	 3.128190895538556e+000	 1.792079785623932e-001	 6.883046410511911e+001
1	 3.126313141612288e+000	 2.094278692182752e-001	 6.368034704225471e+001
1	 3.124135025063761e+000	 2.397382515072778e-001	 5.873419633986172e+001
1	 3.121653621246674e+000	 2.701351603285505e-001	 5.399102618088578e+001
1	 3.118866061563838e+000	 3.006145442108607e-001	 4.944979793268004e+001
1	 2.853456066220490e+000	 2.750327772533643e-001	 6.135612780470608e+001
1	 2.850623495906302e+000	 3.029859020915370e-001	 5.682881562439338e+001
1	 2.847505823816279e+000	 3.310068753301844e-001	 5.246448882139281e+001
1	 2.844100595033315e+000	 3.590918200257314e-001	 4.826222668299903e+001
1	 2.840405415259059e+000	 3.872367847946144e-001	 4.422110968690343e+001
1	 2.836417953168351e+000	 4.154377447072045e-001	 4.034022225595530e+001
1	 2.832135942759817e+000	 4.436906022608282e-001	 3.661865554730235e+001
1	 2.827557185699814e+000	 4.719911884326339e-001	 3.305551027044131e+001
1	 2.822679553656821e+000	 5.003352638129520e-001	 2.964989952846855e+001
1	 2.817500990623337e+000	 5.287185198196900e-001	 2.640095167658817e+001
1	 2.812019515222285e+000	 5.571365799941845e-001	 2.330781319171299e+001
1	 2.879997065756335e+000	 2.775909539506485e-001	 6.054291702141157e+001
1	 2.877138148708409e+000	 3.058040806450336e-001	 5.597964178736972e+001
1	 2.873991478052573e+000	 3.340856868217607e-001	 5.158499055480188e+001
1	 2.870554576037689e+000	 3.624318594764292e-001	 4.735790271794073e+001
1	 2.866825026095203e+000	 3.908386104722579e-001	 4.329730811104892e+001
1	 2.862800475215495e+000	 4.193018774423224e-001	 3.940212989505129e+001
1	 2.858478636320325e+000	 4.478175247716250e-001	 3.567128750023009e+001
1	 2.853857290628595e+000	 4.763813446597571e-001	 3.210369961980808e+001
1	 2.848934290012431e+000	 5.049890582647983e-001	 2.869828724896205e+001
1	 2.843707559340700e+000	 5.336363169290087e-001	 2.545397676352797e+001
1	 2.838175098806853e+000	 5.623187034867333e-001	 2.236970303239244e+001
1	 2.906538065291593e+000	 2.801491306476535e-001	 5.963568755958570e+001
1	 2.903652801510020e+000	 3.086222591982991e-001	 5.504856943128998e+001
1	 2.900477132288478e+000	 3.371644983131445e-001	 5.063493202486096e+001
1	 2.897008557041791e+000	 3.657718989269654e-001	 4.639361680886237e+001
1	 2.893244636931202e+000	 3.944404361497634e-001	 4.232344465909202e+001
1	 2.889182997262623e+000	 4.231660101773191e-001	 3.842321879997407e+001
1	 2.884821329880952e+000	 4.519444472823137e-001	 3.469172782235599e+001
1	 2.880157395557621e+000	 4.807715008867808e-001	 3.112774877294794e+001
1	 2.875189026368407e+000	 5.096428527165516e-001	 2.773005031031661e+001
1	 2.869914128058542e+000	 5.385541140382392e-001	 2.449739592203279e+001
1	 2.864330682391994e+000	 5.675008269791979e-001	 2.142854719725820e+001
1	 2.933079064826362e+000	 2.827073073443561e-001	 5.863848559930685e+001
1	 2.930167454311211e+000	 3.114404377512897e-001	 5.403958142505400e+001
1	 2.926962786524053e+000	 3.402433098042760e-001	 4.961821530994696e+001
1	 2.923462538045661e+000	 3.691119383772669e-001	 4.537317145691863e+001
1	 2.919664247767075e+000	 3.980422618270484e-001	 4.130320216347411e+001
1	 2.915565519309739e+000	 4.270301429121071e-001	 3.740703074197321e+001
1	 2.911164023441680e+000	 4.560713697928027e-001	 3.368335453534395e+001
1	 2.906457500486859e+000	 4.851616571136130e-001	 3.013084802398719e+001
1	 2.901443762724703e+000	 5.142966471681205e-001	 2.674816601928141e+001
1	 2.896120696776793e+000	 5.434719111472927e-001	 2.353394693874709e+001
1	 2.890486265977629e+000	 5.726829504714954e-001	 2.048681615758338e+001
1	 2.959620064360734e+000	 2.852654840407332e-001	 5.755521218085180e+001
1	 2.956682107112062e+000	 3.142586163039617e-001	 5.295651776878370e+001
1	 2.953448440759354e+000	 3.433221212950947e-001	 4.853860251768121e+001
1	 2.949916519049338e+000	 3.724519778272609e-001	 4.430023276442503e+001
1	 2.946083858602846e+000	 4.016440875040308e-001	 4.024013135041198e+001
1	 2.941948041356846e+000	 4.308942756465978e-001	 3.635698044605507e+001
1	 2.937506717002495e+000	 4.601982923030002e-001	 3.264942448844651e+001
1	 2.932757605416278e+000	 4.895518133401609e-001	 2.911607322858174e+001
1	 2.927698499081265e+000	 5.189504416194138e-001	 2.575550488416742e+001
1	 2.922327265495393e+000	 5.483897082560818e-001	 2.256626939366018e+001
1	 2.916641849563674e+000	 5.778650739635411e-001	 1.954689176680799e+001
1	 2.986161063894800e+000	 2.878236607367614e-001	 5.638962965470858e+001
1	 2.983196759912645e+000	 3.170767948562714e-001	 5.180308194291165e+001
1	 2.979934094994437e+000	 3.464009327855402e-001	 4.739972200522981e+001
1	 2.976370500052862e+000	 3.757920172768745e-001	 4.317833649642267e+001
1	 2.972503469438535e+000	 4.052459131806287e-001	 3.913765671069945e+001
1	 2.968330563403948e+000	 4.347584083807031e-001	 3.527636123691792e+001
1	 2.963849410563381e+000	 4.643252148128151e-001	 3.159307874340726e+001
1	 2.959057710345845e+000	 4.939419695663322e-001	 2.808639088956332e+001
1	 2.953953235438046e+000	 5.236042360703408e-001	 2.475483536097064e+001
1	 2.948533834214270e+000	 5.533075053645181e-001	 2.159690902441055e+001
1	 2.942797433150047e+000	 5.830471974552515e-001	 1.861107119871581e+001
1	 3.012702063428655e+000	 2.903818374324177e-001	 5.514536779065313e+001
1	 3.009711412713035e+000	 3.198949734081748e-001	 5.058284692166851e+001
1	 3.006419749229364e+000	 3.494797442755526e-001	 4.620507427081058e+001
1	 3.002824481056273e+000	 3.791320567260344e-001	 4.201089382183958e+001
1	 2.998923080274163e+000	 4.088477388567597e-001	 3.799908206018813e+001
1	 2.994713085451048e+000	 4.386225411143346e-001	 3.416835038645360e+001
1	 2.990192104124325e+000	 4.684521373221556e-001	 3.051734767472710e+001
1	 2.985357815275526e+000	 4.983321257920346e-001	 2.704466297376734e+001
1	 2.980207971794994e+000	 5.282580305208099e-001	 2.374882834862345e+001
1	 2.974740402933362e+000	 5.582253024725133e-001	 2.062832185990050e+001
1	 2.968953016736667e+000	 5.882293209465431e-001	 1.768157067744644e+001
1	 3.039243062962393e+000	 2.929400141276791e-001	 5.382592956673143e+001
1	 3.036226065513310e+000	 3.227131519596284e-001	 4.929926087148377e+001
1	 3.032905403464191e+000	 3.525585557650715e-001	 4.495803753650493e+001
1	 3.029278462059609e+000	 3.824720961746683e-001	 4.080119675383477e+001
1	 3.025342691109753e+000	 4.124495645323417e-001	 3.682759580891801e+001
1	 3.021095607498148e+000	 4.424866738474042e-001	 3.303601418105802e+001
1	 3.016534797685310e+000	 4.725790598309303e-001	 2.942515580269367e+001
1	 3.011657920205290e+000	 5.027222820171756e-001	 2.599365147647550e+001
1	 3.006462708152062e+000	 5.329118249707302e-001	 2.274006144871024e+001
1	 3.000946971652602e+000	 5.631430995799797e-001	 1.966287813732385e+001
1	 2.995108600323453e+000	 5.934114444373317e-001	 1.676052901206707e+001
1	 3.065784062496108e+000	 2.954981908225222e-001	 5.243469665754436e+001
1	 3.062740718313544e+000	 3.255313305105879e-001	 4.795565255339523e+001
1	 3.059391057698973e+000	 3.556373672540363e-001	 4.366187304108157e+001
1	 3.055732443062912e+000	 3.858121356227027e-001	 3.955242330755469e+001
1	 3.051762301945324e+000	 4.160513902072927e-001	 3.562627595655420e+001
1	 3.047478129545252e+000	 4.463508065798237e-001	 3.188231272573067e+001
1	 3.042877491246323e+000	 4.767059823390477e-001	 2.831932637536898e+001
1	 3.037958025135104e+000	 5.071124382416633e-001	 2.493602274876750e+001
1	 3.032717444509198e+000	 5.375656194200105e-001	 2.173102300392065e+001
1	 3.027153540371921e+000	 5.680608966868284e-001	 1.870286601573123e+001
1	 3.021264183910321e+000	 5.985935679275342e-001	 1.585001094754840e+001
1	 3.092325062029891e+000	 2.980563675169237e-001	 5.097493463990151e+001
1	 3.089255371113814e+000	 3.283495090610100e-001	 4.655523644724903e+001
1	 3.085876711933771e+000	 3.587161787423873e-001	 4.231973006025548e+001
1	 3.082186424066219e+000	 3.891521750700649e-001	 3.826764239227950e+001
1	 3.078181912780898e+000	 4.196532158815305e-001	 3.439809483057218e+001
1	 3.073860651592361e+000	 4.502149393115046e-001	 3.071010450077639e+001
1	 3.069220184807346e+000	 4.808329048464161e-001	 2.720258571461750e+001
1	 3.064258130064934e+000	 5.115025944654050e-001	 2.387435160202649e+001
1	 3.058972180866353e+000	 5.422194138685599e-001	 2.072411592853389e+001
1	 3.053360109091256e+000	 5.729786937929716e-001	 1.775049509835731e+001
1	 3.047419767497191e+000	 6.037756914170658e-001	 1.495201034317443e+001
1	 3.118866061563838e+000	 3.006145442108607e-001	 4.944979793268004e+001
1	 3.115770023914197e+000	 3.311676876108510e-001	 4.510111761426376e+001
1	 3.112362366168644e+000	 3.617949902300639e-001	 4.093465067061705e+001
1	 3.108640405069573e+000	 3.924922145166821e-001	 3.694981845378194e+001
1	 3.104601523616499e+000	 4.232550415549728e-001	 3.314592358251667e+001
1	 3.100243173639482e+000	 4.540790720423594e-001	 2.952215068584671e+001
1	 3.095562878368370e+000	 4.849598273529444e-001	 2.607756734023071e+001
1	 3.090558234994751e+000	 5.158927506883084e-001	 2.281112520287255e+001
1	 3.085226917223479e+000	 5.468732083162872e-001	 1.972166134332236e+001
1	 3.079566677810540e+000	 5.778964908983217e-001	 1.680789977510190e+001
1	 3.073575351083984e+000	 6.089578149058433e-001	 1.406845318866626e+001
1	 2.812019515222285e+000	 5.571365799941845e-001	 2.330781319171298e+001
1	 2.806232332410389e+000	 5.855892700207176e-001	 2.035330223553178e+001
1	 2.800138417670240e+000	 6.140678136806007e-001	 1.752118969973857e+001
1	 2.793736028873866e+000	 6.425676306221917e-001	 1.481060785236597e+001
1	 2.787023507627656e+000	 6.710840784416882e-001	 1.222055320728829e+001
1	 2.779999281457080e+000	 6.996124543915534e-001	 9.749886161983682e+000
1	 2.772661865956894e+000	 7.281479971706543e-001	 7.397330829767684e+000
1	 2.765009866903513e+000	 7.566858887956514e-001	 5.161475071026873e+000
1	 2.757041982326296e+000	 7.852212565530334e-001	 3.040770727638431e+000
1	 2.748757004534393e+000	 8.137491750310453e-001	 1.033534064398387e+000
1	 2.740153822095873e+000	 8.422646682306209e-001	-8.620535791034381e-001
1	 2.838175098806853e+000	 5.623187034867333e-001	 2.236970303239243e+001
1	 2.832334087369945e+000	 5.910360420008766e-001	 1.942613604296455e+001
1	 2.826183490983165e+000	 6.197794746220591e-001	 1.660506067408458e+001
1	 2.819721551314391e+000	 6.485443783951879e-001	 1.390563348098349e+001
1	 2.812946594544702e+000	 6.773260677358410e-001	 1.132686827126221e+001
1	 2.805857033573426e+000	 7.061197961545843e-001	 8.867635660683842e+000
1	 2.798451370188331e+000	 7.349207580637588e-001	 6.526662834782766e+000
1	 2.790728197197666e+000	 7.637240906662788e-001	 4.302533521229132e+000
1	 2.782686200520694e+000	 7.925248759258222e-001	 2.193688177526902e+000
1	 2.774324161233401e+000	 8.213181426176587e-001	 1.984243982401202e-001
1	 2.765640957566034e+000	 8.500988684592173e-001	-1.685102454463034e+000
1	 2.864330682391994e+000	 5.675008269791979e-001	 2.142854719725820e+001
1	 2.858435842330152e+000	 5.964828139809569e-001	 1.850206025547028e+001
1	 2.852228564296801e+000	 6.254911355634443e-001	 1.569775326442984e+001
1	 2.845707073755670e+000	 6.545211261681153e-001	 1.301482560250196e+001
1	 2.838869681462531e+000	 6.835680570299278e-001	 1.045232753119791e+001
1	 2.831714785690565e+000	 7.126271379175481e-001	 8.009159645333721e+000
1	 2.824240874420563e+000	 7.416935189567916e-001	 5.684072538819237e+000
1	 2.816446527492603e+000	 7.707622925368258e-001	 3.475666691439625e+000
1	 2.808330418715852e+000	 7.998284952985157e-001	 1.382392581617594e+000
1	 2.799891317933139e+000	 8.288871102041548e-001	-5.974489702548582e-001
1	 2.791128093036881e+000	 8.579330686876660e-001	-2.465706223749192e+000
1	 2.890486265977629e+000	 5.726829504714954e-001	 2.048681615758338e+001
1	 2.884537597290914e+000	 6.019295859608803e-001	 1.758326920496085e+001
1	 2.878273637611039e+000	 6.312027965046843e-001	 1.480119632934734e+001
1	 2.871692596197583e+000	 6.604978739409093e-001	 1.213985765553583e+001
1	 2.864792768381012e+000	 6.898100463238919e-001	 9.598358433379378e+000
1	 2.857572537808360e+000	 7.191344796803985e-001	 7.175648359013751e+000
1	 2.850030378653443e+000	 7.484662798497173e-001	 4.870521120015651e+000
1	 2.842164857788168e+000	 7.778004944072672e-001	 2.681614170296354e+000
1	 2.833974636911617e+000	 8.071321146711011e-001	 6.074087401458228e-001
1	 2.825458474633450e+000	 8.364560777905351e-001	-1.353769913567632e+000
1	 2.816615228508264e+000	 8.657672689159828e-001	-3.203752012474142e+000
1	 2.916641849563674e+000	 5.778650739635411e-001	 1.954689176680799e+001
1	 2.910639352252135e+000	 6.073763579405681e-001	 1.667187851086096e+001
1	 2.904318710925770e+000	 6.369144574457070e-001	 1.391724953766965e+001
1	 2.897678118640007e+000	 6.664746217135052e-001	 1.128234305108304e+001
1	 2.890715855300007e+000	 6.960520356176772e-001	 8.766337220421383e+000
1	 2.883430289926667e+000	 7.256418214430883e-001	 6.368249349809131e+000
1	 2.875819882886823e+000	 7.552390407424989e-001	 4.086935278263232e+000
1	 2.867883188084214e+000	 7.848386962775792e-001	 1.921089016787665e+000
1	 2.859618855107834e+000	 8.144357340435665e-001	-1.307573716660637e-001
1	 2.851025631334182e+000	 8.440250453767997e-001	-2.070233643930147e+000
1	 2.842102363980035e+000	 8.736014691441836e-001	-3.899130995047531e+000
1	 2.942797433150047e+000	 5.830471974552515e-001	 1.861107119871581e+001
1	 2.936741107213719e+000	 6.128231299199426e-001	 1.576992857809126e+001
1	 2.930363784240882e+000	 6.426261183864405e-001	 1.304770644328142e+001
1	 2.923663641082820e+000	 6.724513694858385e-001	 1.044383784015273e+001
1	 2.916638942219389e+000	 7.022940249112275e-001	 7.957591206760664e+000
1	 2.909288042045349e+000	 7.321491632055713e-001	 5.588069368175525e+000
1	 2.901609387120555e+000	 7.620118016351007e-001	 3.334208767419209e+000
1	 2.893601518380587e+000	 7.918768981477353e-001	 1.194778939229864e+000
1	 2.885263073304349e+000	 8.217393534158994e-001	-8.316177670251279e-001
1	 2.876592788035181e+000	 8.515940129629500e-001	-2.746546209386840e+000
1	 2.867589499452040e+000	 8.814356693722831e-001	-4.551738214843674e+000
1	 2.968953016736667e+000	 5.882293209465431e-001	 1.768157067744644e+001
1	 2.962842862175569e+000	 6.182699018989247e-001	 1.487938791015463e+001
1	 2.956408857556268e+000	 6.483377793268124e-001	 1.219429739738365e+001
1	 2.949649163525900e+000	 6.784281172578444e-001	 9.625843240386502e+000
1	 2.942562029139024e+000	 7.085360142044866e-001	 7.173400933868865e+000
1	 2.935145794164261e+000	 7.386565049678004e-001	 4.836176164013349e+000
1	 2.927398891354494e+000	 7.687845625274864e-001	 2.613203846530134e+000
1	 2.919319848677136e+000	 7.989151000177125e-001	 5.033474119262500e-001
1	 2.910907291501007e+000	 8.290429727880866e-001	-1.494701655204715e+000
1	 2.902159944736293e+000	 8.591629805489869e-001	-3.382424016493667e+000
1	 2.893076634924131e+000	 8.892698696002970e-001	-5.161472413779723e+000
1	 2.995108600323453e+000	 5.934114444373317e-001	 1.676052901206707e+001
1	 2.988944617137590e+000	 6.237166738774361e-001	 1.400215624862778e+001
1	 2.982453930871814e+000	 6.540494402667512e-001	 1.135869230816515e+001
1	 2.975634685969126e+000	 6.844048650294585e-001	 8.829808030293783e+000
1	 2.968485116058780e+000	 7.147780034973987e-001	 6.415002212539422e+000
1	 2.961003546283265e+000	 7.451638467297290e-001	 4.113600189581764e+000
1	 2.953188395588489e+000	 7.755573234196193e-001	 1.924752655016045e+000
1	 2.945038178973706e+000	 8.059533018874843e-001	-1.525652666831738e-001
1	 2.936551509697654e+000	 8.363465921601164e-001	-2.119554690698302e+000
1	 2.927727101437364e+000	 8.667319481349112e-001	-3.977593378025823e+000
1	 2.918563770396158e+000	 8.971040698282407e-001	-5.728235870823239e+000
1	 3.021264183910321e+000	 5.985935679275342e-001	 1.585001094754841e+001
1	 3.015046372099683e+000	 6.291634458553987e-001	 1.314006754957849e+001
1	 3.008499004187415e+000	 6.597611012061847e-001	 1.054250325712886e+001
1	 3.001620208412377e+000	 6.903816128006164e-001	 8.057130819123081e+000
1	 2.994408202978527e+000	 7.210199927899073e-001	 5.683588059092330e+000
1	 2.986861298402219e+000	 7.516711884913102e-001	 3.421336213957883e+000
1	 2.978977899822394e+000	 7.823300843114626e-001	 1.269658516423603e+000
1	 2.970756509270149e+000	 8.129915037570267e-001	-7.723409708351037e-001
1	 2.962195727894136e+000	 8.436502115319760e-001	-2.705738261374700e+000
1	 2.953294258138241e+000	 8.743009157207239e-001	-4.531790084178965e+000
1	 2.944050905867969e+000	 9.049382700561295e-001	-6.251934248888432e+000
1	 3.047419767497191e+000	 6.037756914170658e-001	 1.495201034317443e+001
1	 3.041148127061754e+000	 6.346102178327341e-001	 1.229489280670543e+001
1	 3.034544077502960e+000	 6.654727621450414e-001	 9.747286980684088e+000
1	 3.027605730855529e+000	 6.963583605712532e-001	 7.309162199841497e+000
1	 3.020331289898130e+000	 7.272619820819565e-001	 4.980310531869400e+000
1	 3.012719050520982e+000	 7.581785302524974e-001	 2.760344854355959e+000
1	 3.004767404056062e+000	 7.891028452029807e-001	 6.486971750392307e-001
1	 2.996474839566310e+000	 8.200297056263145e-001	-1.355382795918040e+000
1	 2.987839946090303e+000	 8.509538309036534e-001	-3.252828813291159e+000
1	 2.978861414838772e+000	 8.818698833064264e-001	-5.044758995852527e+000
1	 2.969538041339417e+000	 9.127724702839788e-001	-6.732476449616517e+000
1	 3.073575351083984e+000	 6.089578149058433e-001	 1.406845318866626e+001
1	 3.067249882023707e+000	 6.400569898093638e-001	 1.146834273033184e+001
1	 3.060589150818339e+000	 6.711844230832489e-001	 8.974547225031825e+000
1	 3.053591253298464e+000	 7.023351083413048e-001	 6.587206792185212e+000
1	 3.046254376817459e+000	 7.335039713734899e-001	 4.306282473960353e+000
1	 3.038576802639414e+000	 7.646858720132438e-001	 2.131554029259269e+000
1	 3.030556908289345e+000	 7.958756060941374e-001	 6.261796936245245e-002
1	 3.022193169862040e+000	 8.270679074953231e-001	-1.901114155530840e+000
1	 3.013484164285995e+000	 8.582574502751357e-001	-3.760417209980855e+000
1	 3.004428571538802e+000	 8.894388508920191e-001	-5.516253658699473e+000
1	 2.995025176810348e+000	 9.206066705118043e-001	-7.169774475571105e+000
1	 2.740153822095873e+000	 8.422646682306209e-001	-8.620535791034381e-001
1	 2.731231421080581e+000	 8.707627113369550e-001	-2.650688448663279e+000
1	 2.721988884875083e+000	 8.992382316919291e-001	-4.335734972670480e+000
1	 2.712425398051369e+000	 9.276861123150281e-001	-5.917162332732354e+000
1	 2.702540248811464e+000	 9.561011947256430e-001	-7.395003858812334e+000
1	 2.692332830683794e+000	 9.844782814308750e-001	-8.769357913382052e+000
1	 2.681802644152405e+000	 1.012812138484053e+000	-1.004038871399808e+001
1	 2.670949298215834e+000	 1.041097498112028e+000	-1.120832709183160e+001
1	 2.659772511872570e+000	 1.069329061409152e+000	-1.227347118375859e+001
1	 2.648272115530094e+000	 1.097501501095708e+000	-1.323618705570667e+001
1	 2.636448052334516e+000	 1.125609464338406e+000	-1.409690925504840e+001
1	 2.765640957566034e+000	 8.500988684592173e-001	-1.685102454463034e+000
1	 2.756635566157504e+000	 8.788619818981298e-001	-3.461073516172640e+000
1	 2.747307061868638e+000	 9.076023630936982e-001	-5.132256804070318e+000
1	 2.737654621686848e+000	 9.363148474705654e-001	-6.698531236853397e+000
1	 2.727677527193472e+000	 9.649942285672725e-001	-8.159840268176692e+000
1	 2.717375166275937e+000	 9.936352605472049e-001	-9.516192880899377e+000
1	 2.706747034772115e+000	 1.022232660780904e+000	-1.076766452092910e+001
1	 2.695792738043704e+000	 1.050781112497806e+000	-1.191439796801040e+001
1	 2.684511992475503e+000	 1.079275267505267e+000	-1.295660414087630e+001
1	 2.672904626897554e+000	 1.107709748972663e+000	-1.389456283426469e+001
1	 2.660970583927155e+000	 1.136079154278113e+000	-1.472862338538974e+001
1	 2.791128093036881e+000	 8.579330686876660e-001	-2.465706223749192e+000
1	 2.782039711235067e+000	 8.869612524591194e-001	-4.225972537789009e+000
1	 2.772625238862780e+000	 9.159664944952385e-001	-5.880376668038092e+000
1	 2.762883845322852e+000	 9.449435826258268e-001	-7.428729862203185e+000
1	 2.752814805575939e+000	 9.738872624085796e-001	-8.870909004596451e+000
1	 2.742417501868467e+000	 1.002792239663169e+000	-1.020685769841997e+001
1	 2.731691425392141e+000	 1.031653183077356e+000	-1.143658728717369e+001
1	 2.720636177871811e+000	 1.060464726883158e+000	-1.256017781236318e+001
1	 2.709251473078592e+000	 1.089221473600947e+000	-1.357777890475244e+001
1	 2.697537138265090e+000	 1.117917996849190e+000	-1.448961060648914e+001
1	 2.685493115519781e+000	 1.146548844217417e+000	-1.529596412151698e+001
1	 2.816615228508264e+000	 8.657672689159828e-001	-3.203752012474142e+000
1	 2.807443856313125e+000	 8.950605230199542e-001	-4.945478731838732e+000
1	 2.797943415857370e+000	 9.243306258965953e-001	-6.580404189388478e+000
1	 2.788113068959254e+000	 9.535723177808729e-001	-8.108294068669485e+000
1	 2.777952083958754e+000	 9.827802962496399e-001	-9.528981492915232e+000
1	 2.767459837461291e+000	 1.011949218778858e+000	-1.084236817359770e+001
1	 2.756635816012397e+000	 1.041073705373506e+000	-1.204842549600369e+001
1	 2.745479617700092e+000	 1.070148341268192e+000	-1.314719553885212e+001
1	 2.733990953681790e+000	 1.099167679696300e+000	-1.413879202504079e+001
1	 2.722169649632665e+000	 1.128126244725395e+000	-1.502340120069382e+001
1	 2.710015647112380e+000	 1.157018534156420e+000	-1.580128263977327e+001
1	 2.842102363980035e+000	 8.736014691441836e-001	-3.899130995047531e+000
1	 2.832848001391534e+000	 9.031597935806651e-001	-5.619681972826883e+000
1	 2.823261592852274e+000	 9.326947572978149e-001	-7.232637886436393e+000
1	 2.813342292595933e+000	 9.622010529357666e-001	-8.737740494402470e+000
1	 2.803089362341805e+000	 9.916733300905302e-001	-1.013480148633094e+001
1	 2.792502173054309e+000	 1.021106197894358e+000	-1.142370367622926e+001
1	 2.781580206632806e+000	 1.050494227669453e+000	-1.260440212915233e+001
1	 2.770323057528475e+000	 1.079831955653013e+000	-1.367692521803883e+001
1	 2.758730434285044e+000	 1.109113885791435e+000	-1.464137560768347e+001
1	 2.746802161000247e+000	 1.138334492601385e+000	-1.549793116288101e+001
1	 2.734538178704933e+000	 1.167488224095222e+000	-1.624684577787745e+001
1	 2.867589499452040e+000	 8.814356693722831e-001	-4.551738214843674e+000
1	 2.858252146470149e+000	 9.112590641412821e-001	-6.248668940036975e+000
1	 2.848579769847359e+000	 9.410588886989445e-001	-7.837365664570099e+000
1	 2.838571516232765e+000	 9.708297880905690e-001	-9.317567410029238e+000
1	 2.828226640724981e+000	 1.000566363931325e+000	-1.068908629612430e+001
1	 2.817544508647425e+000	 1.030263177009759e+000	-1.195180875755283e+001
1	 2.806524597253284e+000	 1.059914749965296e+000	-1.310569668890315e+001
1	 2.795166497356900e+000	 1.089515570037725e+000	-1.415078851432554e+001
1	 2.783469914888307e+000	 1.119060091886462e+000	-1.508720017878972e+001
1	 2.771434672367803e+000	 1.148542740477269e+000	-1.591512605784776e+001
1	 2.759060710297422e+000	 1.177957914033923e+000	-1.663483978293233e+001
1	 2.893076634924131e+000	 8.892698696002970e-001	-5.161472413779723e+000
1	 2.883656291548826e+000	 9.193583347018371e-001	-6.832523258275847e+000
1	 2.873897946842486e+000	 9.494230201000301e-001	-8.394865283735260e+000
1	 2.863800739869623e+000	 9.794585232453416e-001	-9.848255527715963e+000
1	 2.853363919108170e+000	 1.009459397772102e+000	-1.119252795638576e+001
1	 2.842586844240540e+000	 1.039420156125150e+000	-1.242759468395376e+001
1	 2.831468987873751e+000	 1.069335272261134e+000	-1.355344711329470e+001
1	 2.820009937185299e+000	 1.099199184422435e+000	-1.457015699436787e+001
1	 2.808209395491530e+000	 1.129006297981487e+000	-1.547787739713535e+001
1	 2.796067183735300e+000	 1.158750988353152e+000	-1.627684359580112e+001
1	 2.783583241889828e+000	 1.188427603972625e+000	-1.696737386132035e+001
1	 2.918563770396158e+000	 8.971040698282407e-001	-5.728235870823239e+000
1	 2.909060436627422e+000	 9.274576052623601e-001	-7.371325631244383e+000
1	 2.899216123837521e+000	 9.577871515011175e-001	-8.905404801423861e+000
1	 2.889029963506384e+000	 9.880872584001461e-001	-1.033026876783800e+001
1	 2.878501197491262e+000	 1.018352431612936e+000	-1.164579432771520e+001
1	 2.867629179833561e+000	 1.048577135240618e+000	-1.285194089030914e+001
1	 2.856413378494124e+000	 1.078755794557065e+000	-1.394875159097516e+001
1	 2.844853377013606e+000	 1.108882798807248e+000	-1.493635431453494e+001
1	 2.832948876094660e+000	 1.138952504076619e+000	-1.581496262453613e+001
1	 2.820699695102703e+000	 1.168959236229142e+000	-1.658487659515012e+001
1	 2.808105773482135e+000	 1.198897293911427e+000	-1.724648354259668e+001
1	 2.944050905867969e+000	 9.049382700561295e-001	-6.251934248888432e+000
1	 2.934464581705791e+000	 9.355568758228818e-001	-7.865153967980069e+000
1	 2.924534300832328e+000	 9.661512829022541e-001	-9.369242992653525e+000
1	 2.914259187142925e+000	 9.967159935550446e-001	-1.076405498582673e+001
1	 2.903638475874143e+000	 1.027245465453903e+000	-1.204953014359157e+001
1	 2.892671515426388e+000	 1.057734114356252e+000	-1.322569635784134e+001
1	 2.881357769114321e+000	 1.088176316853187e+000	-1.429267028178781e+001
1	 2.869696816841759e+000	 1.118566413192270e+000	-1.525065829474568e+001
1	 2.857688356697652e+000	 1.148898710171969e+000	-1.609995736270884e+001
1	 2.845332206469981e+000	 1.179167484105347e+000	-1.684095579140067e+001
1	 2.832628305074325e+000	 1.209366983850430e+000	-1.747413386865163e+001
1	 2.969538041339417e+000	 9.127724702839788e-001	-6.732476449616517e+000
1	 2.959868726783792e+000	 9.436561463834331e-001	-8.314083502788375e+000
1	 2.949852477826773e+000	 9.745154143034852e-001	-9.786629748318891e+000
1	 2.939488410779118e+000	 1.005344728710098e+000	-1.115004666158612e+001
1	 2.928775754256705e+000	 1.036138499295079e+000	-1.240435800285778e+001
1	 2.917713851018923e+000	 1.066891093472141e+000	-1.354968092101605e+001
1	 2.906302159734262e+000	 1.097596839149599e+000	-1.458622694875161e+001
1	 2.894540256669687e+000	 1.128250027577606e+000	-1.551430288550928e+001
1	 2.882427837300455e+000	 1.158844916267644e+000	-1.633431156464020e+001
1	 2.869964717837100e+000	 1.189375731981873e+000	-1.704675250140103e+001
1	 2.857150836666380e+000	 1.219836673789734e+000	-1.765222241864023e+001
1	 2.995025176810348e+000	 9.206066705118043e-001	-7.169774475571105e+000
1	 2.985272871861279e+000	 9.517554169440451e-001	-8.718186909050777e+000
1	 2.975170654820722e+000	 9.828795457048585e-001	-1.015780645320334e+001
1	 2.964717634414845e+000	 1.013973463865370e+000	-1.148866155370804e+001
1	 2.953913032638836e+000	 1.045031533136541e+000	-1.271087931153057e+001
1	 2.942756186611072e+000	 1.076048072588373e+000	-1.382468650771140e+001
1	 2.931246550353865e+000	 1.107017361446401e+000	-1.483041050671403e+001
1	 2.919383696497328e+000	 1.137933641963363e+000	-1.572848003452985e+001
1	 2.907167317903019e+000	 1.168791122363753e+000	-1.651942582794027e+001
1	 2.894597229204027e+000	 1.199583979858828e+000	-1.720388115155324e+001
1	 2.881673368258283e+000	 1.230306363729441e+000	-1.778258217946245e+001
1	 2.636448052334516e+000	 1.125609464338406e+000	-1.409690925504839e+001
1	 2.624302226078947e+000	 1.153643375865511e+000	-1.486136244014191e+001
1	 2.611833061417270e+000	 1.181602065005949e+000	-1.553595343639659e+001
1	 2.599040848742956e+000	 1.209480123689433e+000	-1.612192801505326e+001
1	 2.585925995576417e+000	 1.237272130208986e+000	-1.662066620298210e+001
1	 2.572489027453052e+000	 1.264972652307894e+000	-1.703368201674418e+001
1	 2.558730588716131e+000	 1.292576250311315e+000	-1.736262298839196e+001
1	 2.544651443212336e+000	 1.320077480299228e+000	-1.760926948077694e+001
1	 2.530252474887798e+000	 1.347470897317243e+000	-1.777553379059390e+001
1	 2.515534688282688e+000	 1.374751058621742e+000	-1.786345903786664e+001
1	 2.500499208922499e+000	 1.401912526955667e+000	-1.787521784106564e+001
1	 2.660970583927155e+000	 1.136079154278113e+000	-1.472862338538974e+001
1	 2.648711785065264e+000	 1.164373819086900e+000	-1.546525339307312e+001
1	 2.636126640312910e+000	 1.192592561839123e+000	-1.611182122322142e+001
1	 2.623215442764610e+000	 1.220729924162126e+000	-1.666984584832742e+001
1	 2.609978603731262e+000	 1.248780433919723e+000	-1.714100328013367e+001
1	 2.596416653636446e+000	 1.276738608327862e+000	-1.752712606509569e+001
1	 2.582530242816689e+000	 1.304598957115369e+000	-1.783020252713128e+001
1	 2.568320142223471e+000	 1.332355985726399e+000	-1.805237575529222e+001
1	 2.553787244024815e+000	 1.360004198561121e+000	-1.819594233456546e+001
1	 2.538932562104462e+000	 1.387538102251040e+000	-1.826335081859804e+001
1	 2.523757232456807e+000	 1.414952208965249e+000	-1.825719994374111e+001
1	 2.685493115519781e+000	 1.146548844217417e+000	-1.529596412151698e+001
1	 2.673121344051483e+000	 1.175104262307936e+000	-1.600424241919980e+001
1	 2.660420219208369e+000	 1.203583058672013e+000	-1.662291805704652e+001
1	 2.647390036786002e+000	 1.231979724634620e+000	-1.715373372155269e+001
1	 2.634031211885770e+000	 1.260288737630354e+000	-1.759860836579567e+001
1	 2.620344279819432e+000	 1.288504564347824e+000	-1.795963650787157e+001
1	 2.606329896916777e+000	 1.316621663919515e+000	-1.823908723886110e+001
1	 2.591988841234089e+000	 1.344634491153757e+000	-1.843940293783658e+001
1	 2.577322013161276e+000	 1.372537499805272e+000	-1.856319769208743e+001
1	 2.562330435925657e+000	 1.400325145880683e+000	-1.861325542142319e+001
1	 2.547015255990533e+000	 1.427991890975229e+000	-1.859252770611194e+001
1	 2.710015647112380e+000	 1.157018534156420e+000	-1.580128263977328e+001
1	 2.697530903037604e+000	 1.185834705528708e+000	-1.648092997046257e+001
1	 2.684713798103658e+000	 1.214573555504691e+000	-1.707202677929096e+001
1	 2.671564630807157e+000	 1.243229525106964e+000	-1.757649131356446e+001
1	 2.658083820039974e+000	 1.271797041340906e+000	-1.799643382623622e+001
1	 2.644271906002056e+000	 1.300270520367781e+000	-1.833415571826966e+001
1	 2.630129551016453e+000	 1.328644370723730e+000	-1.859214835937052e+001
1	 2.615657540244251e+000	 1.356912996581255e+000	-1.877309158448401e+001
1	 2.600856782297251e+000	 1.385070801049628e+000	-1.887985186419698e+001
1	 2.585728309746352e+000	 1.413112189510584e+000	-1.891548014794447e+001
1	 2.570273279523760e+000	 1.441031572985507e+000	-1.888320937969966e+001
1	 2.734538178704933e+000	 1.167488224095222e+000	-1.624684577787746e+001
1	 2.721940462023622e+000	 1.196565148749303e+000	-1.689782321845824e+001
1	 2.709007376998788e+000	 1.225564052337229e+000	-1.746183040857023e+001
1	 2.695739224828096e+000	 1.254479325579208e+000	-1.794091428934087e+001
1	 2.682136428193910e+000	 1.283305345051404e+000	-1.833732612392491e+001
1	 2.668199532184362e+000	 1.312036476387733e+000	-1.865352052414908e+001
1	 2.653929205115769e+000	 1.340667077527991e+000	-1.889215413086710e+001
1	 2.639326239254022e+000	 1.369191502008848e+000	-1.905608394531534e+001
1	 2.624391551432814e+000	 1.397604102294122e+000	-1.914836530956155e+001
1	 2.609126183566626e+000	 1.425899233140657e+000	-1.917224953496362e+001
1	 2.593531303056567e+000	 1.454071254995983e+000	-1.913118117839688e+001
1	 2.759060710297422e+000	 1.177957914033923e+000	-1.663483978293233e+001
1	 2.746350021009535e+000	 1.207295591969811e+000	-1.725734019981799e+001
1	 2.733300955893769e+000	 1.236554549169694e+000	-1.779491657682139e+001
1	 2.719913818848843e+000	 1.265729126051403e+000	-1.824969892237843e+001
1	 2.706189036347608e+000	 1.294813648761876e+000	-1.862403052389760e+001
1	 2.692127158366396e+000	 1.323802432407685e+000	-1.892046689846468e+001
1	 2.677728859214781e+000	 1.352689784332276e+000	-1.914177437901112e+001
1	 2.662994938263464e+000	 1.381470007436487e+000	-1.929092833313615e+001
1	 2.647926320568034e+000	 1.410137403538684e+000	-1.937111101262170e+001
1	 2.632524057386552e+000	 1.438686276770816e+000	-1.938570903254966e+001
1	 2.616789326589043e+000	 1.467110937006559e+000	-1.933831047981921e+001
1	 2.783583241889828e+000	 1.188427603972625e+000	-1.696737386132035e+001
1	 2.770759579995339e+000	 1.218026035190319e+000	-1.756181374246877e+001
1	 2.757594534788612e+000	 1.247545046002160e+000	-1.807378173094287e+001
1	 2.744088412869419e+000	 1.276978926523597e+000	-1.850544647273718e+001
1	 2.730241644501108e+000	 1.306321952472349e+000	-1.885919555135052e+001
1	 2.716054784548201e+000	 1.335568388427636e+000	-1.913763440177369e+001
1	 2.701528513313543e+000	 1.364712491136561e+000	-1.934358484801647e+001
1	 2.686663637272641e+000	 1.393748512864127e+000	-1.948008326127253e+001
1	 2.671461089702981e+000	 1.422670704783245e+000	-1.955037833669924e+001
1	 2.655921931206212e+000	 1.451473320400976e+000	-1.955792848769039e+001
1	 2.640047350121267e+000	 1.480150619017134e+000	-1.950639885744000e+001
1	 2.808105773482135e+000	 1.198897293911427e+000	-1.724648354259668e+001
1	 2.795169138981030e+000	 1.228756478410914e+000	-1.781349518617168e+001
1	 2.781888113683326e+000	 1.258535542834697e+000	-1.830083511428229e+001
1	 2.768263006889848e+000	 1.288228726995841e+000	-1.871066733569120e+001
1	 2.754294252654443e+000	 1.317830256182848e+000	-1.904537721567268e+001
1	 2.739982410729826e+000	 1.347334344447589e+000	-1.930757039197037e+001
1	 2.725328167412110e+000	 1.376735197940823e+000	-1.950007130860682e+001
1	 2.710332336281615e+000	 1.406027018291720e+000	-1.962592136456019e+001
1	 2.694995858837728e+000	 1.435204006027737e+000	-1.968837667521526e+001
1	 2.679319805025680e+000	 1.464260364031049e+000	-1.969090544541237e+001
1	 2.663305373653324e+000	 1.493190301027610e+000	-1.963718495385112e+001
1	 2.832628305074325e+000	 1.209366983850430e+000	-1.747413386865163e+001
1	 2.819578697966607e+000	 1.239486921631686e+000	-1.801455790980455e+001
1	 2.806181692577922e+000	 1.269526039667375e+000	-1.847840254131449e+001
1	 2.792437600910154e+000	 1.299478527468185e+000	-1.886778497488579e+001
1	 2.778346860807648e+000	 1.329338559893400e+000	-1.918504301506853e+001
1	 2.763910036911314e+000	 1.359100300467545e+000	-1.943273401535426e+001
1	 2.749127821510536e+000	 1.388757904745038e+000	-1.961363345259252e+001
1	 2.734001035290450e+000	 1.418305523719218e+000	-1.973073311666575e+001
1	 2.718530627972343e+000	 1.447737307272093e+000	-1.978723891325380e+001
1	 2.702717678845036e+000	 1.477047407660950e+000	-1.978656827843150e+001
1	 2.686563397185296e+000	 1.506229983037888e+000	-1.973234720477841e+001
1	 2.857150836666380e+000	 1.219836673789734e+000	-1.765222241864023e+001
1	 2.843988256952065e+000	 1.250217364852722e+000	-1.816710067699957e+001
1	 2.830475271472411e+000	 1.280516536500265e+000	-1.860872997793364e+001
1	 2.816612194930360e+000	 1.310728327940679e+000	-1.897913965294841e+001
1	 2.802399468960757e+000	 1.340846863604030e+000	-1.928057573495445e+001
1	 2.787837663092710e+000	 1.370866256487507e+000	-1.951549999216985e+001
1	 2.772927475608878e+000	 1.400780611549183e+000	-1.968658858688746e+001
1	 2.757669734299211e+000	 1.430584029146576e+000	-1.979673035597669e+001
1	 2.742065397106899e+000	 1.460270608516245e+000	-1.984902471086389e+001
1	 2.726115552664356e+000	 1.489834451290593e+000	-1.984677915563453e+001
1	 2.709821420717266e+000	 1.519269665047867e+000	-1.979350642281771e+001
1	 2.881673368258283e+000	 1.230306363729441e+000	-1.778258217946245e+001
1	 2.868397815937404e+000	 1.260947808074110e+000	-1.827315081095610e+001
1	 2.854768850366805e+000	 1.291507033333439e+000	-1.869398693894022e+001
1	 2.840786788950489e+000	 1.321978128413373e+000	-1.904699197161838e+001
1	 2.826452077113804e+000	 1.352355167314767e+000	-1.933427705241303e+001
1	 2.811765289274061e+000	 1.382632212507476e+000	-1.955816220886046e+001
1	 2.796727129707190e+000	 1.412803318353237e+000	-1.972117513891389e+001
1	 2.781338433307961e+000	 1.442862534573747e+000	-1.982604963146296e+001
1	 2.765600166241468e+000	 1.472803909760124e+000	-1.987572361872032e+001
1	 2.749513426483719e+000	 1.502621494919892e+000	-1.987333685899383e+001
1	 2.733079444249319e+000	 1.532309347057451e+000	-1.982222824924837e+001
1	 2.500499208922499e+000	 1.401912526955667e+000	-1.787521784106564e+001
1	 2.485144957250983e+000	 1.428953920535294e+000	-1.783397498295748e+001
1	 2.469475535571230e+000	 1.455865738217200e+000	-1.776114609766894e+001
1	 2.453492436359996e+000	 1.482642578306111e+000	-1.765635426418591e+001
1	 2.437197273632522e+000	 1.509279057994052e+000	-1.751920886401888e+001
1	 2.420591782792370e+000	 1.535769816732273e+000	-1.734930604627552e+001
1	 2.403677820370209e+000	 1.562109519609820e+000	-1.714622923416913e+001
1	 2.386457363650869e+000	 1.588292860734558e+000	-1.690954967248769e+001
1	 2.368932510188158e+000	 1.614314566612345e+000	-1.663882701542759e+001
1	 2.351105477207142e+000	 1.640169399520066e+000	-1.633360995407825e+001
1	 2.332978600893775e+000	 1.665852160868178e+000	-1.599343688272295e+001
1	 2.523757232456807e+000	 1.414952208965249e+000	-1.825719994374111e+001
1	 2.508260165484269e+000	 1.442245124067567e+000	-1.819982398420574e+001
1	 2.492444996996237e+000	 1.469407258041088e+000	-1.811143585959126e+001
1	 2.476313233351541e+000	 1.496433158947471e+000	-1.799152721999157e+001
1	 2.459866503577959e+000	 1.523317393911349e+000	-1.783956678472134e+001
1	 2.443106559220670e+000	 1.550054552523622e+000	-1.765500102340297e+001
1	 2.426035274078607e+000	 1.576639250251452e+000	-1.743725489736811e+001
1	 2.408654643828039e+000	 1.603066131850734e+000	-1.718573266059632e+001
1	 2.390966785532879e+000	 1.629329874776700e+000	-1.689981871924162e+001
1	 2.372973937041403e+000	 1.655425192588332e+000	-1.657887854862624e+001
1	 2.354678456269270e+000	 1.681346838342176e+000	-1.622225966641413e+001
1	 2.547015255990533e+000	 1.427991890975229e+000	-1.859252770611193e+001
1	 2.531375373716986e+000	 1.455536327600267e+000	-1.852222497289259e+001
1	 2.515414458420706e+000	 1.482948777865413e+000	-1.842112232218475e+001
1	 2.499134030342586e+000	 1.510223739589257e+000	-1.828859439893637e+001
1	 2.482535733522948e+000	 1.537355729829049e+000	-1.812398524264452e+001
1	 2.465621335648581e+000	 1.564339288315339e+000	-1.792660916903541e+001
1	 2.448392727786679e+000	 1.591168980893409e+000	-1.769575172808564e+001
1	 2.430851924004947e+000	 1.617839402967187e+000	-1.743067073731029e+001
1	 2.413001060877399e+000	 1.644345182941284e+000	-1.713059738903046e+001
1	 2.394842396875519e+000	 1.670680985656779e+000	-1.679473743011694e+001
1	 2.376378311644662e+000	 1.696841515816308e+000	-1.642227241249610e+001
1	 2.570273279523760e+000	 1.441031572985507e+000	-1.888320937969966e+001
1	 2.554490581949220e+000	 1.468827531133287e+000	-1.880287573040968e+001
1	 2.538383919844723e+000	 1.496490297690063e+000	-1.869162286199081e+001
1	 2.521954827333227e+000	 1.524014320231364e+000	-1.854872234169223e+001
1	 2.505204963467584e+000	 1.551394065747052e+000	-1.837340898612707e+001
1	 2.488136112076197e+000	 1.578624024107332e+000	-1.816488192842351e+001
1	 2.470750181494517e+000	 1.605698711535610e+000	-1.792230577493012e+001
1	 2.453049204181680e+000	 1.632612674083847e+000	-1.764481185011534e+001
1	 2.435035336221800e+000	 1.659360491106038e+000	-1.733149952804692e+001
1	 2.416710856709561e+000	 1.685936778725358e+000	-1.698143764858906e+001
1	 2.398078167020021e+000	 1.712336193290541e+000	-1.659366601620556e+001
1	 2.593531303056567e+000	 1.454071254995983e+000	-1.913118117839688e+001
1	 2.577605790181060e+000	 1.482118734666520e+000	-1.904341313733745e+001
1	 2.561353381268382e+000	 1.510031817514932e+000	-1.892430401309162e+001
1	 2.544775624323556e+000	 1.537804900873685e+000	-1.877303574415995e+001
1	 2.527874193411962e+000	 1.565432401665256e+000	-1.858874887460960e+001
1	 2.510650888503613e+000	 1.592908759899510e+000	-1.837054379185989e+001
1	 2.493107635202212e+000	 1.620228442177974e+000	-1.811748206446520e+001
1	 2.475246484358327e+000	 1.647385945200646e+000	-1.782858787825317e+001
1	 2.457069611566165e+000	 1.674375799270904e+000	-1.750284956889588e+001
1	 2.438579316543608e+000	 1.701192571794026e+000	-1.713922124871046e+001
1	 2.419778022395412e+000	 1.727830870764843e+000	-1.673662452521062e+001
1	 2.616789326589043e+000	 1.467110937006559e+000	-1.933831047981921e+001
1	 2.600720998412591e+000	 1.495409938199861e+000	-1.924541587987740e+001
1	 2.584322842691774e+000	 1.523573337339909e+000	-1.912048372654889e+001
1	 2.567596421313664e+000	 1.551595481516111e+000	-1.896261931705098e+001
1	 2.550543423356176e+000	 1.579470737583562e+000	-1.877088338465705e+001
1	 2.533165664930923e+000	 1.607193495691781e+000	-1.854429349255791e+001
1	 2.515465088909857e+000	 1.634758172820419e+000	-1.828182553542965e+001
1	 2.497443764534976e+000	 1.662159216317515e+000	-1.798241534679437e+001
1	 2.479103886910575e+000	 1.689391107435828e+000	-1.764496040995406e+001
1	 2.460447776377735e+000	 1.716448364862739e+000	-1.726832166997697e+001
1	 2.441477877770901e+000	 1.743325548239177e+000	-1.685132544391669e+001
1	 2.640047350121267e+000	 1.480150619017134e+000	-1.950639885744000e+001
1	 2.623836206643904e+000	 1.508701141733201e+000	-1.941040701322687e+001
1	 2.607292304114989e+000	 1.537114857164886e+000	-1.928143351041311e+001
1	 2.590417218303647e+000	 1.565386062158538e+000	-1.911851954717498e+001
1	 2.573212653300320e+000	 1.593509073501868e+000	-1.892066003637621e+001
1	 2.555680441358219e+000	 1.621478231484052e+000	-1.868680514121213e+001
1	 2.537822542617545e+000	 1.649287903462864e+000	-1.841586192357602e+001
1	 2.519641044711714e+000	 1.676932487434383e+000	-1.810669610296658e+001
1	 2.501138162255115e+000	 1.704406415600752e+000	-1.775813392343555e+001
1	 2.482316236212018e+000	 1.731704157931452e+000	-1.736896412575710e+001
1	 2.463177733146556e+000	 1.758820225713512e+000	-1.693794002168755e+001
1	 2.663305373653324e+000	 1.493190301027610e+000	-1.963718495385112e+001
1	 2.646951414875085e+000	 1.521992345266434e+000	-1.953985639064198e+001
1	 2.630261765538118e+000	 1.550656376989755e+000	-1.940838045760348e+001
1	 2.613238015293599e+000	 1.579176642800859e+000	-1.924174636644217e+001
1	 2.595881883244487e+000	 1.607547409420072e+000	-1.903889674509312e+001
1	 2.578195217785595e+000	 1.635762967276229e+000	-1.879872930111219e+001
1	 2.560179996325364e+000	 1.663817634105228e+000	-1.852009860014682e+001
1	 2.541838324888632e+000	 1.691705758551183e+000	-1.820181795704564e+001
1	 2.523172437599868e+000	 1.719421723765619e+000	-1.784266143683627e+001
1	 2.504184696046532e+000	 1.746959951000121e+000	-1.744136596247668e+001
1	 2.484877588522444e+000	 1.774314903187811e+000	-1.699663352596429e+001
1	 2.686563397185296e+000	 1.506229983037888e+000	-1.973234720477841e+001
1	 2.670066623106221e+000	 1.535283548799453e+000	-1.963518296632777e+001
1	 2.653231226961252e+000	 1.564197896814406e+000	-1.950250916845357e+001
1	 2.636058812283610e+000	 1.592967223442966e+000	-1.933327473417221e+001
1	 2.618551113188773e+000	 1.621585745338075e+000	-1.912638310282082e+001
1	 2.600709994213145e+000	 1.650047703068222e+000	-1.888069400741157e+001
1	 2.582537450033407e+000	 1.678347364747428e+000	-1.859502536679745e+001
1	 2.564035605065815e+000	 1.706479029667843e+000	-1.826815528995669e+001
1	 2.545206712944916e+000	 1.734437031930372e+000	-1.789882418937103e+001
1	 2.526053155881353e+000	 1.762215744068700e+000	-1.748573700014586e+001
1	 2.506577443898632e+000	 1.789809580662045e+000	-1.702756550119801e+001
1	 2.709821420717266e+000	 1.519269665047867e+000	-1.979350642281771e+001
1	 2.693181831337400e+000	 1.548574752332153e+000	-1.969775697973583e+001
1	 2.676200688384483e+000	 1.577739416638730e+000	-1.956496357425154e+001
1	 2.658879609273775e+000	 1.606757804084752e+000	-1.939404613791904e+001
1	 2.641220343133272e+000	 1.635624081255775e+000	-1.918388159373476e+001
1	 2.623224770640964e+000	 1.664332438859940e+000	-1.893330573390741e+001
1	 2.604894903741768e+000	 1.692877095389385e+000	-1.864111520958302e+001
1	 2.586232885243354e+000	 1.721252300784295e+000	-1.830606962958537e+001
1	 2.567240988290342e+000	 1.749452340094955e+000	-1.792689376490527e+001
1	 2.547921615716560e+000	 1.777471537137145e+000	-1.750227985535005e+001
1	 2.528277299275187e+000	 1.805304258136177e+000	-1.703089001444789e+001
1	 2.733079444249319e+000	 1.532309347057451e+000	-1.982222824924837e+001
1	 2.716297039568712e+000	 1.561865955864427e+000	-1.972890202833420e+001
1	 2.699170149807902e+000	 1.591280936462618e+000	-1.959684866767213e+001
1	 2.681700406264190e+000	 1.620548384726113e+000	-1.942497001766514e+001
1	 2.663889573078078e+000	 1.649662417173072e+000	-1.921212874758757e+001
1	 2.645739547069145e+000	 1.678617174651289e+000	-1.895715031045715e+001
1	 2.627252357450539e+000	 1.707406826031018e+000	-1.865882501444773e+001
1	 2.608430165421336e+000	 1.736025571900472e+000	-1.831591019766388e+001
1	 2.589275263636230e+000	 1.764467648259312e+000	-1.792713250278166e+001
1	 2.569790075552225e+000	 1.792727330205412e+000	-1.749119024774952e+001
1	 2.549977154652176e+000	 1.820798935610175e+000	-1.700675588843950e+001
1	 2.332978600893775e+000	 1.665852160868178e+000	-1.599343688272294e+001
1	 2.314554334913665e+000	 1.691357693984630e+000	-1.562283914911282e+001
1	 2.295835247520404e+000	 1.716680885717582e+000	-1.522622875503557e+001
1	 2.276824022517764e+000	 1.741816671372895e+000	-1.480295994116994e+001
1	 2.257523458769129e+000	 1.766760038549538e+000	-1.435239087950613e+001
1	 2.237936468933870e+000	 1.791506030387907e+000	-1.387388498157091e+001
1	 2.218066078094256e+000	 1.816049748781705e+000	-1.336681221553827e+001
1	 2.197915422274171e+000	 1.840386357549124e+000	-1.283055042945781e+001
1	 2.177487746850985e+000	 1.864511085559068e+000	-1.226448667779025e+001
1	 2.156786404862220e+000	 1.888419229808245e+000	-1.166801854840563e+001
1	 2.135814855208781e+000	 1.912106158445013e+000	-1.104055548717223e+001
1	 2.354678456269270e+000	 1.681346838342176e+000	-1.622225966641413e+001
1	 2.336082819704505e+000	 1.707089607402158e+000	-1.583453373193111e+001
1	 2.317189619488917e+000	 1.732648339057221e+000	-1.542034450282714e+001
1	 2.298001564389259e+000	 1.758017921504729e+000	-1.497913813031639e+001
1	 2.278521479302110e+000	 1.783193295721556e+000	-1.451036616262098e+001
1	 2.258752303978484e+000	 1.808169458742603e+000	-1.401348672637983e+001
1	 2.238697091637988e+000	 1.832941466902574e+000	-1.348796571396312e+001
1	 2.218359007473746e+000	 1.857504439036638e+000	-1.293327797416963e+001
1	 2.197741327049500e+000	 1.881853559635735e+000	-1.234890850374774e+001
1	 2.176847434590536e+000	 1.905984081952292e+000	-1.173435363715551e+001
1	 2.155680821170189e+000	 1.929891331052193e+000	-1.108912223195465e+001
1	 2.376378311644662e+000	 1.696841515816308e+000	-1.642227241249611e+001
1	 2.357611304495277e+000	 1.722821520819784e+000	-1.601791297380843e+001
1	 2.338543991457386e+000	 1.748615792396929e+000	-1.558663735577209e+001
1	 2.319179106260727e+000	 1.774219171636610e+000	-1.512801640798871e+001
1	 2.299519499835070e+000	 1.799626552893600e+000	-1.464162877950705e+001
1	 2.279568139023080e+000	 1.824832887097313e+000	-1.412706191562883e+001
1	 2.259328105181699e+000	 1.849833185023448e+000	-1.358391305566938e+001
1	 2.238802592673292e+000	 1.874622520524149e+000	-1.301179022950766e+001
1	 2.217994907247979e+000	 1.899196033712393e+000	-1.241031325074151e+001
1	 2.196908464318808e+000	 1.923548934096328e+000	-1.177911470424853e+001
1	 2.175546787131546e+000	 1.947676503659357e+000	-1.111784092594605e+001
1	 2.398078167020021e+000	 1.712336193290541e+000	-1.659366601620557e+001
1	 2.379139789286040e+000	 1.738553434237484e+000	-1.617312841918405e+001
1	 2.359898363425856e+000	 1.764583245736689e+000	-1.572523571503199e+001
1	 2.340356648132196e+000	 1.790420421768526e+000	-1.524971536078988e+001
1	 2.320517520368025e+000	 1.816059810065664e+000	-1.474630593497609e+001
1	 2.300383974067659e+000	 1.841496315452033e+000	-1.421475789283613e+001
1	 2.279959118725378e+000	 1.866724903144321e+000	-1.365483431564827e+001
1	 2.259246177872786e+000	 1.891740602011650e+000	-1.306631165239508e+001
1	 2.238248487446389e+000	 1.916538507789036e+000	-1.244898045210804e+001
1	 2.216969494046992e+000	 1.941113786240339e+000	-1.180264608519841e+001
1	 2.195412753092804e+000	 1.965461676266487e+000	-1.112712945209337e+001
1	 2.419778022395412e+000	 1.727830870764843e+000	-1.673662452521062e+001
1	 2.400668274076846e+000	 1.754285347655232e+000	-1.630032617647412e+001
1	 2.381252735394372e+000	 1.780550699076483e+000	-1.583626337591364e+001
1	 2.361534190003699e+000	 1.806621671900461e+000	-1.534435124978267e+001
1	 2.341515540900994e+000	 1.832493067237741e+000	-1.482452027089947e+001
1	 2.321199809112225e+000	 1.858159743806755e+000	-1.427671671618749e+001
1	 2.300590132269012e+000	 1.883616621265188e+000	-1.370090310945384e+001
1	 2.279689763072207e+000	 1.908858683499138e+000	-1.309705864830145e+001
1	 2.258502067644694e+000	 1.933880981865654e+000	-1.246517961409426e+001
1	 2.237030523775047e+000	 1.958678638384313e+000	-1.180527976392182e+001
1	 2.215278719053913e+000	 1.983246848873568e+000	-1.111739070353976e+001
1	 2.441477877770901e+000	 1.743325548239177e+000	-1.685132544391668e+001
1	 2.422196758867754e+000	 1.770017261073006e+000	-1.639964715964851e+001
1	 2.402607107362975e+000	 1.796518152416293e+000	-1.591983973255347e+001
1	 2.382711731875265e+000	 1.822822922032409e+000	-1.541203620271707e+001
1	 2.362513561433991e+000	 1.848926324409820e+000	-1.487639006898508e+001
1	 2.342015644156779e+000	 1.874823172161472e+000	-1.431307539341650e+001
1	 2.321221145812591e+000	 1.900508339386042e+000	-1.372228688026018e+001
1	 2.300133348271529e+000	 1.925976764986603e+000	-1.310423992904936e+001
1	 2.278755647842859e+000	 1.951223455942237e+000	-1.245917066146098e+001
1	 2.257091553502928e+000	 1.976243490528240e+000	-1.178733592164348e+001
1	 2.235144685014823e+000	 2.001032021480581e+000	-1.108901324977135e+001
1	 2.463177733146556e+000	 1.758820225713512e+000	-1.693794002168755e+001
1	 2.443725243658818e+000	 1.785749174490779e+000	-1.647122731703842e+001
1	 2.423961479331709e+000	 1.812485605756102e+000	-1.597607997178225e+001
1	 2.403889273746924e+000	 1.839024172164353e+000	-1.545287839609616e+001
1	 2.383511581967032e+000	 1.865359581581894e+000	-1.490202944283589e+001
1	 2.362831479201324e+000	 1.891486600516179e+000	-1.432396610426910e+001
1	 2.341852159356105e+000	 1.917400057506879e+000	-1.371914717074560e+001
1	 2.320576933470729e+000	 1.943094846474039e+000	-1.308805685170792e+001
1	 2.299009228040851e+000	 1.968565930018779e+000	-1.243120435953324e+001
1	 2.277152583230591e+000	 1.993808342672106e+000	-1.174912345678670e+001
1	 2.255010650975482e+000	 2.018817194087512e+000	-1.104237196755277e+001
1	 2.484877588522444e+000	 1.774314903187811e+000	-1.699663352596429e+001
1	 2.465253728450097e+000	 1.801481087908528e+000	-1.651519784815526e+001
1	 2.445315851300619e+000	 1.828453059095895e+000	-1.600509525683240e+001
1	 2.425066815618707e+000	 1.855225422296282e+000	-1.546698222770271e+001
1	 2.404509602500137e+000	 1.881792838753955e+000	-1.490154851994534e+001
1	 2.383647314245862e+000	 1.908150028870869e+000	-1.430951641131210e+001
1	 2.362483172899540e+000	 1.934291775627691e+000	-1.369163988073060e+001
1	 2.341020518669782e+000	 1.960212927961440e+000	-1.304870373972939e+001
1	 2.319262808238635e+000	 1.985908404095268e+000	-1.238152271413607e+001
1	 2.297213612957994e+000	 2.011373194815898e+000	-1.169094047762359e+001
1	 2.274876616935843e+000	 2.036602366694342e+000	-1.097782863880378e+001
1	 2.506577443898632e+000	 1.789809580662045e+000	-1.702756550119801e+001
1	 2.486782213241643e+000	 1.817213001326227e+000	-1.653168540924717e+001
1	 2.466670223269747e+000	 1.844420512435650e+000	-1.600699290150248e+001
1	 2.446244357490642e+000	 1.871426672428185e+000	-1.545444848016433e+001
1	 2.425507623033318e+000	 1.898226095925992e+000	-1.487505361423931e+001
1	 2.404463149290396e+000	 1.924813457225537e+000	-1.426984945979154e+001
1	 2.383114186442888e+000	 1.951183493748474e+000	-1.363991551143367e+001
1	 2.361464103868668e+000	 1.977331009448800e+000	-1.298636818740498e+001
1	 2.339516388436177e+000	 2.003250878171698e+000	-1.231035935075669e+001
1	 2.317274642685094e+000	 2.028938046959605e+000	-1.161307476933590e+001
1	 2.294742582895855e+000	 2.054387539301056e+000	-1.089573251742030e+001
1	 2.528277299275187e+000	 1.805304258136177e+000	-1.703089001444789e+001
1	 2.508310698033515e+000	 1.832944914743853e+000	-1.652081230826998e+001
1	 2.488024595239139e+000	 1.860387965775354e+000	-1.598187653535315e+001
1	 2.467421899362762e+000	 1.887627922560051e+000	-1.541537447609513e+001
1	 2.446505643566593e+000	 1.914659353098000e+000	-1.482264738973298e+001
1	 2.425278984334928e+000	 1.941476885580175e+000	-1.420508416719876e+001
1	 2.403745199986137e+000	 1.968075211869223e+000	-1.356411939714843e+001
1	 2.381907689067360e+000	 1.994449090936111e+000	-1.290123134864200e+001
1	 2.359769968633442e+000	 2.020593352248059e+000	-1.221793987418072e+001
1	 2.337335672411846e+000	 2.046502899103216e+000	-1.151580423702292e+001
1	 2.314608548855468e+000	 2.072172711907637e+000	-1.079642086690589e+001
1	 2.549977154652176e+000	 1.820798935610175e+000	-1.700675588843950e+001
1	 2.529839182825770e+000	 1.848676828161380e+000	-1.648269668990344e+001
1	 2.509378967208838e+000	 1.876355419114987e+000	-1.592984626046819e+001
1	 2.488599441235097e+000	 1.903829172691866e+000	-1.534985422531628e+001
1	 2.467503664099979e+000	 1.931092610269970e+000	-1.474442901583066e+001
1	 2.446094819379461e+000	 1.958140313934778e+000	-1.411533540315775e+001
1	 2.424376213529278e+000	 1.984966929989930e+000	-1.346439192509173e+001
1	 2.402351274265838e+000	 2.011567172423368e+000	-1.279346821099653e+001
1	 2.380023548830396e+000	 2.037935826324343e+000	-1.210448220976596e+001
1	 2.357396702138208e+000	 2.064067751246718e+000	-1.139939732609028e+001
1	 2.334474514814633e+000	 2.089957884514068e+000	-1.068021947055226e+001
1	 2.135814855208781e+000	 1.912106158445013e+000	-1.104055548717223e+001
1	 2.114579866454582e+000	 1.935563812195057e+000	-1.038997841052852e+001
1	 2.093081977940697e+000	 1.958791283446953e+000	-9.726611794056494e+000
1	 2.071324954503008e+000	 1.981784175181508e+000	-9.053890956270450e+000
1	 2.049312658562491e+000	 2.004538173005029e+000	-8.375328037249075e+000
1	 2.027049047843805e+000	 2.027049047843805e+000	-7.694505499207443e+000
1	 2.004538173005028e+000	 2.049312658562491e+000	-7.015069493681011e+000
1	 1.981784175181507e+000	 2.071324954503007e+000	-6.340723109426603e+000
1	 1.958791283446953e+000	 2.093081977940696e+000	-5.675219515458917e+000
1	 1.935563812195057e+000	 2.114579866454581e+000	-5.022355013909978e+000
1	 1.912106158445013e+000	 2.135814855208781e+000	-4.385962017622971e+000
1	 2.155680821170189e+000	 1.929891331052193e+000	-1.108912223195465e+001
1	 2.134248318309155e+000	 1.953567172698978e+000	-1.042185927957376e+001
1	 2.112550470365117e+000	 1.977010690839198e+000	-9.743433429835591e+000
1	 2.090591077192041e+000	 2.000217447555418e+000	-9.057053997166843e+000
1	 2.068374037136653e+000	 2.023183088324237e+000	-8.366002212234196e+000
1	 2.045903344735822e+000	 2.045903344735822e+000	-7.673625077911488e+000
1	 2.023183088324236e+000	 2.068374037136653e+000	-6.983329099989836e+000
1	 2.000217447555418e+000	 2.090591077192041e+000	-6.298573905994521e+000
1	 1.977010690839198e+000	 2.112550470365117e+000	-5.622865765765042e+000
1	 1.953567172698979e+000	 2.134248318309154e+000	-4.959751027708343e+000
1	 1.929891331052193e+000	 2.155680821170189e+000	-4.312809484843990e+000
1	 2.175546787131546e+000	 1.947676503659357e+000	-1.111784092594606e+001
1	 2.153916770163674e+000	 1.971570533202878e+000	-1.043586585000206e+001
1	 2.132018962789484e+000	 1.995230098231414e+000	-9.744511272959663e+000
1	 2.109857199881020e+000	 2.018650719929293e+000	-9.046713599762722e+000
1	 2.087435415710766e+000	 2.041828003643404e+000	-8.345475433302413e+000
1	 2.064757641627792e+000	 2.064757641627792e+000	-7.643859878650739e+000
1	 2.041828003643404e+000	 2.087435415710766e+000	-6.944984731568859e+000
1	 2.018650719929294e+000	 2.109857199881020e+000	-6.252016563708178e+000
1	 1.995230098231415e+000	 2.132018962789484e+000	-5.568164717193966e+000
1	 1.971570533202879e+000	 2.153916770163673e+000	-4.896675221515112e+000
1	 1.947676503659357e+000	 2.175546787131546e+000	-4.240824645835808e+000
1	 2.195412753092804e+000	 1.965461676266487e+000	-1.112712945209337e+001
1	 2.173585222018086e+000	 1.989573893706733e+000	-1.043248599480253e+001
1	 2.151487455213741e+000	 2.013449505623575e+000	-9.730388872427930e+000
1	 2.129123322569894e+000	 2.037083992303101e+000	-9.023455980633445e+000
1	 2.106496794284778e+000	 2.060472918962490e+000	-8.314364894416707e+000
1	 2.083611938519672e+000	 2.083611938519672e+000	-7.605847712151949e+000
1	 2.060472918962490e+000	 2.106496794284777e+000	-6.900685794822717e+000
1	 2.037083992303101e+000	 2.129123322569893e+000	-6.201704411715571e+000
1	 2.013449505623575e+000	 2.151487455213741e+000	-5.511767304096555e+000
1	 1.989573893706733e+000	 2.173585222018086e+000	-4.833771178598280e+000
1	 1.965461676266487e+000	 2.195412753092803e+000	-4.170640142226452e+000
1	 2.215278719053913e+000	 1.983246848873568e+000	-1.111739070353976e+001
1	 2.193253673872338e+000	 2.007577254210522e+000	-1.041219008656020e+001
1	 2.170955947637836e+000	 2.031668913015651e+000	-9.701590279691352e+000
1	 2.148389445258608e+000	 2.055517264676805e+000	-8.987846328285018e+000
1	 2.125558172858639e+000	 2.079117834281456e+000	-8.273265650286389e+000
1	 2.102466235411413e+000	 2.102466235411414e+000	-7.560203510348098e+000
1	 2.079117834281456e+000	 2.125558172858639e+000	-6.851058401415576e+000
1	 2.055517264676805e+000	 2.148389445258607e+000	-6.148267343712510e+000
1	 2.031668913015651e+000	 2.170955947637836e+000	-5.454301111274596e+000
1	 2.007577254210522e+000	 2.193253673872338e+000	-4.771659396366250e+000
1	 1.983246848873568e+000	 2.215278719053913e+000	-4.102865922269832e+000
1	 2.235144685014823e+000	 2.001032021480581e+000	-1.108901324977135e+001
1	 2.212922125726377e+000	 2.025580614714222e+000	-1.037543177517397e+001
1	 2.190424440061712e+000	 2.049888320407614e+000	-9.658620915123668e+000
1	 2.167655567947108e+000	 2.073950537050372e+000	-8.940429737641587e+000
1	 2.144619551432299e+000	 2.097762749600260e+000	-8.222751600235689e+000
1	 2.121320532302971e+000	 2.121320532302971e+000	-7.507520343111882e+000
1	 2.097762749600260e+000	 2.144619551432299e+000	-6.796706403489838e+000
1	 2.073950537050373e+000	 2.167655567947108e+000	-6.092312859413775e+000
1	 2.049888320407615e+000	 2.190424440061711e+000	-5.396371411634965e+000
1	 2.025580614714222e+000	 2.212922125726375e+000	-4.710938312303343e+000
1	 2.001032021480582e+000	 2.235144685014823e+000	-4.038090249339447e+000
1	 2.255010650975482e+000	 2.018817194087512e+000	-1.104237196755277e+001
1	 2.232590577580147e+000	 2.043583975217812e+000	-1.032264872446566e+001
1	 2.209892932485317e+000	 2.068107727799437e+000	-9.601968388692118e+000
1	 2.186921690635343e+000	 2.092383809423767e+000	-8.881732095137437e+000
1	 2.163680930005709e+000	 2.116407664918862e+000	-8.163376420066548e+000
1	 2.140174829194301e+000	 2.140174829194301e+000	-7.448370381246575e+000
1	 2.116407664918862e+000	 2.163680930005708e+000	-6.738212374164130e+000
1	 2.092383809423768e+000	 2.186921690635342e+000	-6.034427050974804e+000
1	 2.068107727799437e+000	 2.209892932485315e+000	-5.338562148994942e+000
1	 2.043583975217813e+000	 2.232590577580146e+000	-4.652185275676473e+000
1	 2.018817194087512e+000	 2.255010650975482e+000	-3.976880657114734e+000
1	 2.274876616935843e+000	 2.036602366694342e+000	-1.097782863880379e+001
1	 2.252259029433597e+000	 2.061587335721269e+000	-1.025426331019331e+001
1	 2.229361424908593e+000	 2.086327135191091e+000	-9.532103277628220e+000
1	 2.206187813323257e+000	 2.110817081796956e+000	-8.812260917433239e+000
1	 2.182742308578817e+000	 2.135052580237221e+000	-8.095674445095103e+000
1	 2.159029126085356e+000	 2.159029126085355e+000	-7.383305809019801e+000
1	 2.135052580237221e+000	 2.182742308578817e+000	-6.676138536657428e+000
1	 2.110817081796957e+000	 2.206187813323257e+000	-5.975175537727381e+000
1	 2.086327135191092e+000	 2.229361424908593e+000	-5.281436869392225e+000
1	 2.061587335721270e+000	 2.252259029433597e+000	-4.595957468327493e+000
1	 2.036602366694342e+000	 2.274876616935842e+000	-3.919784854719074e+000
1	 2.294742582895855e+000	 2.054387539301056e+000	-1.089573251742030e+001
1	 2.271927481286673e+000	 2.079590696224573e+000	-1.017068328180758e+001
1	 2.248829917331490e+000	 2.104546542582549e+000	-9.449479863703573e+000
1	 2.225453936010799e+000	 2.129250354169906e+000	-8.732506146566891e+000
1	 2.201803687151573e+000	 2.153697495555298e+000	-8.020161507320527e+000
1	 2.177883422976089e+000	 2.177883422976089e+000	-7.312859689296809e+000
1	 2.153697495555298e+000	 2.201803687151573e+000	-6.611027645151090e+000
1	 2.129250354169905e+000	 2.225453936010799e+000	-5.915104352363080e+000
1	 2.104546542582549e+000	 2.248829917331490e+000	-5.225539604019449e+000
1	 2.079590696224573e+000	 2.271927481286672e+000	-4.542792777637100e+000
1	 2.054387539301056e+000	 2.294742582895855e+000	-3.867331584842065e+000
1	 2.314608548855468e+000	 2.072172711907637e+000	-1.079642086690589e+001
1	 2.291595933139321e+000	 2.097594056727699e+000	-1.007230239012977e+001
1	 2.268298409753951e+000	 2.122765949973781e+000	-9.354536832538292e+000
1	 2.244720058697916e+000	 2.147683626542580e+000	-8.642940904156195e+000
1	 2.220865065723928e+000	 2.172342410873053e+000	-7.937335729482217e+000
1	 2.196737719866457e+000	 2.196737719866457e+000	-7.237546784122616e+000
1	 2.172342410873053e+000	 2.220865065723928e+000	-6.543403820289308e+000
1	 2.147683626542579e+000	 2.244720058697916e+000	-5.854740781480201e+000
1	 2.122765949973781e+000	 2.268298409753950e+000	-5.171395706690593e+000
1	 2.097594056727699e+000	 2.291595933139320e+000	-4.493210624533056e+000
1	 2.072172711907637e+000	 2.314608548855468e+000	-3.820031437671176e+000
1	 2.334474514814633e+000	 2.089957884514068e+000	-1.068021947055226e+001
1	 2.311264384991489e+000	 2.115597417230627e+000	-9.959500982980773e+000
1	 2.287766902175921e+000	 2.140985357364761e+000	-9.247697937203485e+000
1	 2.263986181384555e+000	 2.166116898914945e+000	-8.544022207092969e+000
1	 2.239926444295831e+000	 2.190987326190443e+000	-7.847678278573013e+000
1	 2.215592016756413e+000	 2.215592016756413e+000	-7.157864333405536e+000
1	 2.190987326190443e+000	 2.239926444295830e+000	-6.473773342019557e+000
1	 2.166116898914944e+000	 2.263986181384554e+000	-5.794594163213787e+000
1	 2.140985357364761e+000	 2.287766902175921e+000	-5.119512648546953e+000
1	 2.115597417230628e+000	 2.311264384991487e+000	-4.447712749221854e+000
1	 2.089957884514069e+000	 2.334474514814633e+000	-3.778377623264564e+000
1	 1.912106158445013e+000	 2.135814855208781e+000	-4.385962017622971e+000
1	 1.888419229808246e+000	 2.156786404862220e+000	-3.771241493873925e+000
1	 1.864511085559069e+000	 2.177487746850984e+000	-3.180979379401997e+000
1	 1.840386357549125e+000	 2.197915422274170e+000	-2.615102972909631e+000
1	 1.816049748781706e+000	 2.218066078094255e+000	-2.073509208314286e+000
1	 1.791506030387907e+000	 2.237936468933869e+000	-1.556065544239162e+000
1	 1.766760038549539e+000	 2.257523458769130e+000	-1.062610893959450e+000
1	 1.741816671372895e+000	 2.276824022517763e+000	-5.929565934266154e-001
1	 1.716680885717583e+000	 2.295835247520403e+000	-1.468874049181448e-001
1	 1.691357693984631e+000	 2.314554334913665e+000	 2.758374462075288e-001
1	 1.665852160868178e+000	 2.332978600893775e+000	 6.754832042298311e-001
1	 1.929891331052193e+000	 2.155680821170189e+000	-4.312809484843990e+000
1	 1.905984081952293e+000	 2.176847434590535e+000	-3.686557219714416e+000
1	 1.881853559635735e+000	 2.197741327049500e+000	-3.083408398710855e+000
1	 1.857504439036639e+000	 2.218359007473745e+000	-2.503504387296212e+000
1	 1.832941466902575e+000	 2.238697091637989e+000	-1.946960724694725e+000
1	 1.808169458742604e+000	 2.258752303978483e+000	-1.413867627918403e+000
1	 1.783193295721556e+000	 2.278521479302110e+000	-9.042905304526823e-001
1	 1.758017921504731e+000	 2.298001564389258e+000	-4.182706540679035e-001
1	 1.732648339057222e+000	 2.317189619488916e+000	 4.417438784390448e-002
1	 1.707089607402158e+000	 2.336082819704504e+000	 4.830499570698503e-001
1	 1.681346838342176e+000	 2.354678456269269e+000	 8.983837292328492e-001
1	 1.947676503659357e+000	 2.175546787131546e+000	-4.240824645835806e+000
1	 1.923548934096328e+000	 2.196908464318807e+000	-3.604478345819279e+000
1	 1.899196033712394e+000	 2.217994907247979e+000	-2.989758756219825e+000
1	 1.874622520524149e+000	 2.238802592673291e+000	-2.397039987150519e+000
1	 1.849833185023449e+000	 2.259328105181699e+000	-1.826674701712891e+000
1	 1.824832887097314e+000	 2.279568139023079e+000	-1.278994196246309e+000
1	 1.799626552893600e+000	 2.299519499835069e+000	-7.543085099792481e-001
1	 1.774219171636611e+000	 2.319179106260726e+000	-2.529065634729459e-001
1	 1.748615792396930e+000	 2.338543991457385e+000	 2.249436748129607e-001
1	 1.722821520819785e+000	 2.357611304495277e+000	 6.789949945625171e-001
1	 1.696841515816308e+000	 2.376378311644662e+000	 1.109020723038434e+000
1	 1.965461676266487e+000	 2.195412753092803e+000	-4.170640142226450e+000
1	 1.941113786240340e+000	 2.216969494046992e+000	-3.525623821048253e+000
1	 1.916538507789037e+000	 2.238248487446389e+000	-2.900632542269250e+000
1	 1.891740602011652e+000	 2.259246177872787e+000	-2.296291323670138e+000
1	 1.866724903144322e+000	 2.279959118725377e+000	-1.713207960981439e+000
1	 1.841496315452034e+000	 2.300383974067659e+000	-1.151972646546149e+000
1	 1.816059810065666e+000	 2.320517520368024e+000	-6.131576126563552e-001
1	 1.790420421768526e+000	 2.340356648132196e+000	-9.731679995811682e-002
1	 1.764583245736690e+000	 2.359898363425856e+000	 3.950144487396337e-001
1	 1.738553434237484e+000	 2.379139789286038e+000	 8.633196689733751e-001
1	 1.712336193290541e+000	 2.398078167020021e+000	 1.307101529229556e+000
1	 1.983246848873568e+000	 2.215278719053913e+000	-4.102865922269833e+000
1	 1.958678638384314e+000	 2.237030523775047e+000	-3.450590392057871e+000
1	 1.933880981865654e+000	 2.258502067644693e+000	-2.816610249725123e+000
1	 1.908858683499138e+000	 2.279689763072207e+000	-2.201819087334130e+000
1	 1.883616621265188e+000	 2.300590132269011e+000	-1.607097350465054e+000
1	 1.858159743806755e+000	 2.321199809112224e+000	-1.033311457966496e+000
1	 1.832493067237742e+000	 2.341515540900993e+000	-4.813129421741120e-001
1	 1.806621671900462e+000	 2.361534190003698e+000	 4.806238892854786e-002
1	 1.780550699076483e+000	 2.381252735394371e+000	 5.539952661876431e-001
1	 1.754285347655233e+000	 2.400668274076845e+000	 1.035683749033577e+000
1	 1.727830870764843e+000	 2.419778022395412e+000	 1.492343989214634e+000
1	 2.001032021480582e+000	 2.235144685014823e+000	-4.038090249339447e+000
1	 1.976243490528240e+000	 2.257091553502927e+000	-3.379953589967323e+000
1	 1.951223455942238e+000	 2.278755647842859e+000	-2.738251733770790e+000
1	 1.925976764986604e+000	 2.300133348271528e+000	-2.114164034953538e+000
1	 1.900508339386043e+000	 2.321221145812590e+000	-1.508860632109295e+000
1	 1.874823172161473e+000	 2.342015644156779e+000	-9.235010322049764e-001
1	 1.848926324409821e+000	 2.362513561433990e+000	-3.592327113360536e-001
1	 1.822822922032409e+000	 2.382711731875265e+000	 1.828102651120300e-001
1	 1.796518152416294e+000	 2.402607107362975e+000	 7.015086003178599e-001
1	 1.770017261073007e+000	 2.422196758867753e+000	 1.195759099376449e+000
1	 1.743325548239177e+000	 2.441477877770901e+000	 1.664475975704333e+000
1	 2.018817194087512e+000	 2.255010650975482e+000	-3.976880657114734e+000
1	 1.993808342672107e+000	 2.277152583230591e+000	-3.314268664871044e+000
1	 1.968565930018780e+000	 2.299009228040850e+000	-2.666097120966150e+000
1	 1.943094846474039e+000	 2.320576933470727e+000	-2.033847867719329e+000
1	 1.917400057506880e+000	 2.341852159356104e+000	-1.418997322551187e+000
1	 1.891486600516180e+000	 2.362831479201323e+000	-8.230144897930884e-001
1	 1.865359581581895e+000	 2.383511581967032e+000	-2.473589860774546e-001
1	 1.839024172164353e+000	 2.403889273746923e+000	 3.065209168213023e-001
1	 1.812485605756104e+000	 2.423961479331708e+000	 8.371902278830401e-001
1	 1.785749174490780e+000	 2.443725243658819e+000	 1.343229147731080e+000
1	 1.758820225713511e+000	 2.463177733146556e+000	 1.823234950847864e+000
1	 2.036602366694342e+000	 2.274876616935842e+000	-3.919784854719072e+000
1	 2.011373194815899e+000	 2.297213612957994e+000	-3.254071471386215e+000
1	 1.985908404095269e+000	 2.319262808238634e+000	-2.600667670674783e+000
1	 1.960212927961441e+000	 2.341020518669782e+000	-1.961374063244094e+000
1	 1.934291775627692e+000	 2.362483172899539e+000	-1.337989489779478e+000
1	 1.908150028870870e+000	 2.383647314245862e+000	-7.323084246579139e-001
1	 1.881792838753955e+000	 2.404509602500136e+000	-1.461183904992591e-001
1	 1.855225422296283e+000	 2.425066815618706e+000	 4.188026112159076e-001
1	 1.828453059095895e+000	 2.445315851300618e+000	 9.606886483421189e-001
1	 1.801481087908530e+000	 2.465253728450096e+000	 1.477788380033243e+000
1	 1.774314903187812e+000	 2.484877588522445e+000	 1.968367547521108e+000
1	 2.054387539301056e+000	 2.294742582895855e+000	-3.867331584842065e+000
1	 2.028938046959606e+000	 2.317274642685093e+000	-3.199879308201869e+000
1	 2.003250878171699e+000	 2.339516388436176e+000	-2.542466591746321e+000
1	 1.977331009448801e+000	 2.361464103868666e+000	-1.897228664384709e+000
1	 1.951183493748475e+000	 2.383114186442887e+000	-1.266302508413707e+000
1	 1.924813457225538e+000	 2.404463149290395e+000	-6.518236194900382e-001
1	 1.898226095925993e+000	 2.425507623033318e+000	-5.592277528094414e-002
1	 1.871426672428186e+000	 2.446244357490642e+000	 5.192771806394845e-001
1	 1.844420512435651e+000	 2.466670223269747e+000	 1.071664533147226e+000
1	 1.817213001326228e+000	 2.486782213241643e+000	 1.599141861761872e+000
1	 1.789809580662045e+000	 2.506577443898633e+000	 2.099629172364429e+000
1	 2.072172711907637e+000	 2.314608548855468e+000	-3.820031437671174e+000
1	 2.046502899103217e+000	 2.337335672411845e+000	-3.152191714393991e+000
1	 2.020593352248060e+000	 2.359769968633441e+000	-2.491979817141878e+000
1	 1.994449090936112e+000	 2.381907689067360e+000	-1.841881027442822e+000
1	 1.968075211869223e+000	 2.403745199986136e+000	-1.204385776088751e+000
1	 1.941476885580175e+000	 2.425278984334927e+000	-5.819857242719113e-001
1	 1.914659353098002e+000	 2.446505643566593e+000	 2.283014832827668e-002
1	 1.887627922560052e+000	 2.467421899362762e+000	 6.075794404788155e-001
1	 1.860387965775354e+000	 2.488024595239138e+000	 1.169790203391074e+000
1	 1.832944914743854e+000	 2.508310698033516e+000	 1.707004783925168e+000
1	 1.805304258136177e+000	 2.528277299275187e+000	 2.216783629262437e+000
1	 2.089957884514069e+000	 2.334474514814633e+000	-3.778377623264564e+000
1	 2.064067751246719e+000	 2.357396702138207e+000	-3.111491225081320e+000
1	 2.037935826324343e+000	 2.380023548830395e+000	-2.449676739007947e+000
1	 2.011567172423368e+000	 2.402351274265837e+000	-1.795784532163209e+000
1	 1.984966929989931e+000	 2.424376213529276e+000	-1.152673393261459e+000
1	 1.958140313934778e+000	 2.446094819379460e+000	-5.232059001613187e-001
1	 1.931092610269971e+000	 2.467503664099978e+000	 8.975620688933361e-002
1	 1.903829172691867e+000	 2.488599441235097e+000	 6.833566367472450e-001
1	 1.876355419114987e+000	 2.509378967208837e+000	 1.254749134124952e+000
1	 1.848676828161382e+000	 2.529839182825770e+000	 1.801102032228348e+000
1	 1.820798935610175e+000	 2.549977154652175e+000	 2.319602762048747e+000
1	 1.665852160868178e+000	 2.332978600893775e+000	 6.754832042298311e-001
1	 1.640169399520067e+000	 2.351105477207142e+000	 1.042804639275966e+000
1	 1.614314566612346e+000	 2.368932510188156e+000	 1.368556624361569e+000
1	 1.588292860734559e+000	 2.386457363650868e+000	 1.653027009379869e+000
1	 1.562109519609821e+000	 2.403677820370209e+000	 1.896509680621465e+000
1	 1.535769816732273e+000	 2.420591782792370e+000	 2.099304190297717e+000
1	 1.509279057994053e+000	 2.437197273632522e+000	 2.261715394473542e+000
1	 1.482642578306112e+000	 2.453492436359996e+000	 2.384053099903754e+000
1	 1.455865738217201e+000	 2.469475535571229e+000	 2.466631720229142e+000
1	 1.428953920535296e+000	 2.485144957250983e+000	 2.509769941948283e+000
1	 1.401912526955667e+000	 2.500499208922499e+000	 2.513790400540826e+000
1	 1.681346838342176e+000	 2.354678456269269e+000	 8.983837292328492e-001
1	 1.655425192588333e+000	 2.372973937041403e+000	 1.280599452917738e+000
1	 1.629329874776701e+000	 2.390966785532879e+000	 1.620579204379425e+000
1	 1.603066131850734e+000	 2.408654643828038e+000	 1.919061246174485e+000
1	 1.576639250251452e+000	 2.426035274078606e+000	 2.176791873412350e+000
1	 1.550054552523623e+000	 2.443106559220669e+000	 2.394524180745339e+000
1	 1.523317393911351e+000	 2.459866503577958e+000	 2.573016843252889e+000
1	 1.496433158947471e+000	 2.476313233351541e+000	 2.713032913475811e+000
1	 1.469407258041089e+000	 2.492444996996237e+000	 2.815338636779638e+000
1	 1.442245124067568e+000	 2.508260165484270e+000	 2.880702287143910e+000
1	 1.414952208965249e+000	 2.523757232456807e+000	 2.909893025388012e+000
1	 1.696841515816308e+000	 2.376378311644662e+000	 1.109020723038434e+000
1	 1.670680985656779e+000	 2.394842396875518e+000	 1.505159993724405e+000
1	 1.644345182941285e+000	 2.413001060877398e+000	 1.858439790256854e+000
1	 1.617839402967188e+000	 2.430851924004946e+000	 2.169989425051714e+000
1	 1.591168980893410e+000	 2.448392727786679e+000	 2.440948537077290e+000
1	 1.564339288315340e+000	 2.465621335648580e+000	 2.672465092105178e+000
1	 1.537355729829050e+000	 2.482535733522947e+000	 2.865693400848379e+000
1	 1.510223739589258e+000	 2.499134030342586e+000	 3.021792158823365e+000
1	 1.482948777865413e+000	 2.515414458420705e+000	 3.141922511663609e+000
1	 1.455536327600268e+000	 2.531375373716985e+000	 3.227246149493929e+000
1	 1.427991890975229e+000	 2.547015255990533e+000	 3.278923433850620e+000
1	 1.712336193290541e+000	 2.398078167020021e+000	 1.307101529229556e+000
1	 1.685936778725359e+000	 2.416710856709561e+000	 1.716256368140979e+000
1	 1.659360491106039e+000	 2.435035336221800e+000	 2.081969979962125e+000
1	 1.632612674083848e+000	 2.453049204181680e+000	 2.405705002013779e+000
1	 1.605698711535611e+000	 2.470750181494515e+000	 2.688936984493489e+000
1	 1.578624024107333e+000	 2.488136112076196e+000	 2.933151718177461e+000
1	 1.551394065747053e+000	 2.505204963467584e+000	 3.139842582532943e+000
1	 1.524014320231365e+000	 2.521954827333227e+000	 3.310507919479768e+000
1	 1.496490297690064e+000	 2.538383919844723e+000	 3.446648437904434e+000
1	 1.468827531133288e+000	 2.554490581949219e+000	 3.549764653885944e+000
1	 1.441031572985507e+000	 2.570273279523759e+000	 3.621354371429769e+000
1	 1.727830870764843e+000	 2.419778022395412e+000	 1.492343989214634e+000
1	 1.701192571794027e+000	 2.438579316543608e+000	 1.913666929082471e+000
1	 1.674375799270905e+000	 2.457069611566164e+000	 2.291007412182147e+000
1	 1.647385945200647e+000	 2.475246484358327e+000	 2.626105254883125e+000
1	 1.620228442177975e+000	 2.493107635202212e+000	 2.920716059759672e+000
1	 1.592908759899512e+000	 2.510650888503613e+000	 3.176607963387790e+000
1	 1.565432401665258e+000	 2.527874193411962e+000	 3.395558405626254e+000
1	 1.537804900873685e+000	 2.544775624323554e+000	 3.579350926846001e+000
1	 1.510031817514933e+000	 2.561353381268382e+000	 3.729771999420626e+000
1	 1.482118734666521e+000	 2.577605790181059e+000	 3.848607899619108e+000
1	 1.454071254995983e+000	 2.593531303056567e+000	 3.937641625856770e+000
1	 1.743325548239177e+000	 2.441477877770901e+000	 1.664475975704333e+000
1	 1.716448364862740e+000	 2.460447776377734e+000	 2.097177909460958e+000
1	 1.689391107435829e+000	 2.479103886910575e+000	 2.485395497873036e+000
1	 1.662159216317516e+000	 2.497443764534975e+000	 2.831091113460671e+000
1	 1.634758172820420e+000	 2.515465088909858e+000	 3.136246070148712e+000
1	 1.607193495691781e+000	 2.533165664930923e+000	 3.402856882311161e+000
1	 1.579470737583563e+000	 2.550543423356175e+000	 3.632931544943228e+000
1	 1.551595481516112e+000	 2.567596421313664e+000	 3.828485842479537e+000
1	 1.523573337339911e+000	 2.584322842691774e+000	 3.991539693610363e+000
1	 1.495409938199862e+000	 2.600720998412591e+000	 4.124113539261352e+000
1	 1.467110937006559e+000	 2.616789326589043e+000	 4.228224780696603e+000
1	 1.758820225713511e+000	 2.463177733146556e+000	 1.823234950847864e+000
1	 1.731704157931453e+000	 2.482316236212017e+000	 2.266583075083540e+000
1	 1.704406415600752e+000	 2.501138162255115e+000	 2.664983166000345e+000
1	 1.676932487434384e+000	 2.519641044711714e+000	 3.020566998661819e+000
1	 1.649287903462865e+000	 2.537822542617543e+000	 3.335488721657203e+000
1	 1.621478231484052e+000	 2.555680441358218e+000	 3.611920717106628e+000
1	 1.593509073501869e+000	 2.573212653300319e+000	 3.852049480027139e+000
1	 1.565386062158539e+000	 2.590417218303646e+000	 4.058071525462013e+000
1	 1.537114857164888e+000	 2.607292304114988e+000	 4.232189331599132e+000
1	 1.508701141733201e+000	 2.623836206643903e+000	 4.376607326909413e+000
1	 1.480150619017134e+000	 2.640047350121267e+000	 4.493527929117104e+000
1	 1.774314903187812e+000	 2.484877588522445e+000	 1.968367547521108e+000
1	 1.746959951000122e+000	 2.504184696046532e+000	 2.421683395737418e+000
1	 1.719421723765620e+000	 2.523172437599867e+000	 2.829624622601715e+000
1	 1.691705758551183e+000	 2.541838324888631e+000	 3.194440670081002e+000
1	 1.663817634105229e+000	 2.560179996325363e+000	 3.518407057931857e+000
1	 1.635762967276230e+000	 2.578195217785594e+000	 3.803820932990595e+000
1	 1.607547409420073e+000	 2.595881883244487e+000	 4.052996634667032e+000
1	 1.579176642800860e+000	 2.613238015293599e+000	 4.268261285757482e+000
1	 1.550656376989756e+000	 2.630261765538116e+000	 4.451950417515796e+000
1	 1.521992345266435e+000	 2.646951414875085e+000	 4.606403637721577e+000
1	 1.493190301027610e+000	 2.663305373653324e+000	 4.733960350259091e+000
1	 1.789809580662045e+000	 2.506577443898633e+000	 2.099629172364429e+000
1	 1.762215744068701e+000	 2.526053155881353e+000	 2.562286733359503e+000
1	 1.734437031930373e+000	 2.545206712944916e+000	 2.979179122364396e+000
1	 1.706479029667843e+000	 2.564035605065814e+000	 3.352623081474318e+000
1	 1.678347364747429e+000	 2.582537450033406e+000	 3.684965402368043e+000
1	 1.650047703068223e+000	 2.600709994213144e+000	 3.978578251867385e+000
1	 1.621585745338076e+000	 2.618551113188772e+000	 4.235854509168851e+000
1	 1.592967223442967e+000	 2.636058812283610e+000	 4.459203124410832e+000
1	 1.564197896814408e+000	 2.653231226961252e+000	 4.651044508068047e+000
1	 1.535283548799454e+000	 2.670066623106220e+000	 4.813805960464602e+000
1	 1.506229983037888e+000	 2.686563397185296e+000	 4.949917150473969e+000
1	 1.805304258136177e+000	 2.528277299275187e+000	 2.216783629262437e+000
1	 1.777471537137146e+000	 2.547921615716559e+000	 2.688207546264799e+000
1	 1.749452340094956e+000	 2.567240988290342e+000	 3.113510751966157e+000
1	 1.721252300784297e+000	 2.586232885243353e+000	 3.495028243684299e+000
1	 1.692877095389386e+000	 2.604894903741769e+000	 3.835129303190685e+000
1	 1.664332438859940e+000	 2.623224770640964e+000	 4.136212684228340e+000
1	 1.635624081255776e+000	 2.641220343133271e+000	 4.400701805814681e+000
1	 1.606757804084753e+000	 2.658879609273775e+000	 4.631039961376292e+000
1	 1.577739416638731e+000	 2.676200688384482e+000	 4.829685553600408e+000
1	 1.548574752332155e+000	 2.693181831337400e+000	 4.999107364695888e+000
1	 1.519269665047868e+000	 2.709821420717267e+000	 5.141779871539214e+000
1	 1.820798935610175e+000	 2.549977154652175e+000	 2.319602762048747e+000
1	 1.792727330205413e+000	 2.569790075552225e+000	 2.799266608476190e+000
1	 1.764467648259312e+000	 2.589275263636230e+000	 3.232488224478216e+000
1	 1.736025571900473e+000	 2.608430165421336e+000	 3.621573094563733e+000
1	 1.707406826031019e+000	 2.627252357450538e+000	 3.968865481338728e+000
1	 1.678617174651290e+000	 2.645739547069145e+000	 4.276743559421592e+000
1	 1.649662417173073e+000	 2.663889573078076e+000	 4.547614547916410e+000
1	 1.620548384726113e+000	 2.681700406264189e+000	 4.783909851713583e+000
1	 1.591280936462619e+000	 2.699170149807901e+000	 4.988080221738505e+000
1	 1.561865955864427e+000	 2.716297039568711e+000	 5.162590944091626e+000
1	 1.532309347057451e+000	 2.733079444249319e+000	 5.309917067819187e+000
1	 1.401912526955667e+000	 2.500499208922499e+000	 2.513790400540824e+000
1	 1.374751058621742e+000	 2.515534688282687e+000	 2.478473968866359e+000
1	 1.347470897317242e+000	 2.530252474887798e+000	 2.400270400151303e+000
1	 1.320077480299228e+000	 2.544651443212335e+000	 2.274570928746343e+000
1	 1.292576250311315e+000	 2.558730588716131e+000	 2.096845235837707e+000
1	 1.264972652307893e+000	 2.572489027453052e+000	 1.862646750620876e+000
1	 1.237272130208985e+000	 2.585925995576417e+000	 1.567617761055075e+000
1	 1.209480123689432e+000	 2.599040848742956e+000	 1.207494326896697e+000
1	 1.181602065005947e+000	 2.611833061417271e+000	 7.781109882888462e-001
1	 1.153643375865509e+000	 2.624302226078948e+000	 2.754052637727877e-001
1	 1.125609464338406e+000	 2.636448052334516e+000	-3.045780678142709e-001
1	 1.414952208965249e+000	 2.523757232456807e+000	 2.909893025388010e+000
1	 1.387538102251040e+000	 2.538932562104461e+000	 2.903328122249231e+000
1	 1.360004198561121e+000	 2.553787244024815e+000	 2.857377397762409e+000
1	 1.332355985726399e+000	 2.568320142223471e+000	 2.766793635316658e+000
1	 1.304598957115368e+000	 2.582530242816688e+000	 2.626414757384362e+000
1	 1.276738608327861e+000	 2.596416653636446e+000	 2.431170209081820e+000
1	 1.248780433919722e+000	 2.609978603731263e+000	 2.176087122218956e+000
1	 1.220729924162125e+000	 2.623215442764610e+000	 1.856296250776435e+000
1	 1.192592561839121e+000	 2.636126640312911e+000	 1.467037669433834e+000
1	 1.164373819086897e+000	 2.648711785065264e+000	 1.003666227471284e+000
1	 1.136079154278112e+000	 2.660970583927155e+000	 4.616567510743455e-001
1	 1.427991890975229e+000	 2.547015255990533e+000	 3.278923433850622e+000
1	 1.400325145880683e+000	 2.562330435925657e+000	 3.298005362742716e+000
1	 1.372537499805272e+000	 2.577322013161275e+000	 3.280899115372128e+000
1	 1.344634491153756e+000	 2.591988841234090e+000	 3.221844902301699e+000
1	 1.316621663919514e+000	 2.606329896916779e+000	 3.115173625491552e+000
1	 1.288504564347823e+000	 2.620344279819432e+000	 2.955314152204489e+000
1	 1.260288737630353e+000	 2.634031211885771e+000	 2.736800345137716e+000
1	 1.231979724634619e+000	 2.647390036786004e+000	 2.454277838270038e+000
1	 1.203583058672012e+000	 2.660420219208370e+000	 2.102510548687533e+000
1	 1.175104262307934e+000	 2.673121344051484e+000	 1.676386915440666e+000
1	 1.146548844217417e+000	 2.685493115519782e+000	 1.170925857285500e+000
1	 1.441031572985507e+000	 2.570273279523759e+000	 3.621354371429769e+000
1	 1.413112189510585e+000	 2.585728309746352e+000	 3.663093429792953e+000
1	 1.385070801049629e+000	 2.600856782297251e+000	 3.671534215515450e+000
1	 1.356912996581255e+000	 2.615657540244251e+000	 3.640526921319575e+000
1	 1.328644370723729e+000	 2.630129551016453e+000	 3.564016869808391e+000
1	 1.300270520367780e+000	 2.644271906002057e+000	 3.436052488680383e+000
1	 1.271797041340905e+000	 2.658083820039973e+000	 3.250793022663334e+000
1	 1.243229525106963e+000	 2.671564630807157e+000	 3.002515970513626e+000
1	 1.214573555504690e+000	 2.684713798103660e+000	 2.685624236273435e+000
1	 1.185834705528706e+000	 2.697530903037604e+000	 2.294652984838843e+000
1	 1.157018534156420e+000	 2.710015647112380e+000	 1.824276192768279e+000
1	 1.454071254995983e+000	 2.593531303056567e+000	 3.937641625856770e+000
1	 1.425899233140657e+000	 2.609126183566624e+000	 3.999158980149108e+000
1	 1.397604102294122e+000	 2.624391551432814e+000	 4.029956299128463e+000
1	 1.369191502008848e+000	 2.639326239254022e+000	 4.023613108716491e+000
1	 1.340667077527991e+000	 2.653929205115770e+000	 3.973807414536047e+000
1	 1.312036476387732e+000	 2.668199532184362e+000	 3.874324192297486e+000
1	 1.283305345051404e+000	 2.682136428193909e+000	 3.719063600082858e+000
1	 1.254479325579207e+000	 2.695739224828097e+000	 3.502048900033822e+000
1	 1.225564052337227e+000	 2.709007376998789e+000	 3.217434077848624e+000
1	 1.196565148749301e+000	 2.721940462023623e+000	 2.859511149411130e+000
1	 1.167488224095222e+000	 2.734538178704933e+000	 2.422717144805343e+000
1	 1.467110937006559e+000	 2.616789326589043e+000	 4.228224780696605e+000
1	 1.438686276770817e+000	 2.632524057386552e+000	 4.306748524778666e+000
1	 1.410137403538683e+000	 2.647926320568034e+000	 4.356815019285786e+000
1	 1.381470007436487e+000	 2.662994938263464e+000	 4.371849384340004e+000
1	 1.352689784332275e+000	 2.677728859214780e+000	 4.345377505193776e+000
1	 1.323802432407685e+000	 2.692127158366397e+000	 4.271034854446823e+000
1	 1.294813648761876e+000	 2.706189036347609e+000	 4.142575025955985e+000
1	 1.265729126051402e+000	 2.719913818848843e+000	 3.953877967402995e+000
1	 1.236554549169692e+000	 2.733300955893771e+000	 3.698957899421082e+000
1	 1.207295591969809e+000	 2.746350021009535e+000	 3.371970910135328e+000
1	 1.177957914033923e+000	 2.759060710297422e+000	 2.967222214942000e+000
1	 1.480150619017134e+000	 2.640047350121267e+000	 4.493527929117104e+000
1	 1.451473320400976e+000	 2.655921931206211e+000	 4.586389316258856e+000
1	 1.422670704783245e+000	 2.671461089702981e+000	 4.652737136068009e+000
1	 1.393748512864127e+000	 2.686663637272641e+000	 4.685955382718131e+000
1	 1.364712491136561e+000	 2.701528513313543e+000	 4.679530059968714e+000
1	 1.335568388427635e+000	 2.716054784548203e+000	 4.627058154567308e+000
1	 1.306321952472348e+000	 2.730241644501109e+000	 4.522256315692509e+000
1	 1.276978926523595e+000	 2.744088412869419e+000	 4.358969227155374e+000
1	 1.247545046002159e+000	 2.757594534788612e+000	 4.131177660033737e+000
1	 1.218026035190317e+000	 2.770759579995340e+000	 3.833006194388217e+000
1	 1.188427603972625e+000	 2.783583241889828e+000	 3.458730599699248e+000
1	 1.493190301027610e+000	 2.663305373653324e+000	 4.733960350259089e+000
1	 1.464260364031049e+000	 2.679319805025680e+000	 4.838590189671796e+000
1	 1.435204006027737e+000	 2.694995858837727e+000	 4.918327516157460e+000
1	 1.406027018291719e+000	 2.710332336281614e+000	 4.966625600777473e+000
1	 1.376735197940822e+000	 2.725328167412109e+000	 4.977039950259476e+000
1	 1.347334344447588e+000	 2.739982410729827e+000	 4.943237253543405e+000
1	 1.317830256182846e+000	 2.754294252654443e+000	 4.859004033203688e+000
1	 1.288228726995840e+000	 2.768263006889849e+000	 4.718254988510630e+000
1	 1.258535542834695e+000	 2.781888113683326e+000	 4.515041017853550e+000
1	 1.228756478410912e+000	 2.795169138981031e+000	 4.243556909225360e+000
1	 1.198897293911427e+000	 2.808105773482135e+000	 3.898148688462534e+000
1	 1.506229983037888e+000	 2.686563397185296e+000	 4.949917150473969e+000
1	 1.477047407660951e+000	 2.702717678845036e+000	 5.063842359821123e+000
1	 1.447737307272093e+000	 2.718530627972343e+000	 5.154170080512266e+000
1	 1.418305523719217e+000	 2.734001035290450e+000	 5.214530485944872e+000
1	 1.388757904745037e+000	 2.749127821510536e+000	 5.238655214704735e+000
1	 1.359100300467544e+000	 2.763910036911315e+000	 5.220386114726269e+000
1	 1.329338559893398e+000	 2.778346860807647e+000	 5.153683695592040e+000
1	 1.299478527468184e+000	 2.792437600910155e+000	 5.032635276067619e+000
1	 1.269526039667373e+000	 2.806181692577923e+000	 4.851462814913280e+000
1	 1.239486921631684e+000	 2.819578697966608e+000	 4.604530413978724e+000
1	 1.209366983850430e+000	 2.832628305074325e+000	 4.286351483565861e+000
1	 1.519269665047868e+000	 2.709821420717267e+000	 5.141779871539216e+000
1	 1.489834451290593e+000	 2.726115552664357e+000	 5.262620177394147e+000
1	 1.460270608516245e+000	 2.742065397106899e+000	 5.360828703237525e+000
1	 1.430584029146576e+000	 2.757669734299212e+000	 5.430317468215282e+000
1	 1.400780611549183e+000	 2.772927475608879e+000	 5.465098210692574e+000
1	 1.370866256487506e+000	 2.787837663092711e+000	 5.459290756925533e+000
1	 1.340846863604029e+000	 2.802399468960756e+000	 5.407131105503764e+000
1	 1.310728327940677e+000	 2.816612194930360e+000	 5.302979215276606e+000
1	 1.280516536500264e+000	 2.830475271472411e+000	 5.141326485393215e+000
1	 1.250217364852721e+000	 2.843988256952067e+000	 4.916802917019746e+000
1	 1.219836673789734e+000	 2.857150836666380e+000	 4.624183947245323e+000
1	 1.532309347057451e+000	 2.733079444249319e+000	 5.309917067819184e+000
1	 1.502621494919891e+000	 2.749513426483719e+000	 5.435381846515195e+000
1	 1.472803909760124e+000	 2.765600166241468e+000	 5.538848064561387e+000
1	 1.442862534573747e+000	 2.781338433307961e+000	 5.614611939523130e+000
1	 1.412803318353236e+000	 2.796727129707190e+000	 5.657066707074975e+000
1	 1.382632212507474e+000	 2.811765289274061e+000	 5.660710443425078e+000
1	 1.352355167314766e+000	 2.826452077113804e+000	 5.620153615452676e+000
1	 1.321978128413371e+000	 2.840786788950488e+000	 5.530126347170809e+000
1	 1.291507033333438e+000	 2.854768850366805e+000	 5.385485391997541e+000
1	 1.260947808074109e+000	 2.868397815937405e+000	 5.181220801205466e+000
1	 1.230306363729441e+000	 2.881673368258284e+000	 4.912462279818925e+000
1	 1.125609464338406e+000	 2.636448052334516e+000	-3.045780678142673e-001
1	 1.097501501095708e+000	 2.648272115530094e+000	-9.670466513495128e-001
1	 1.069329061409152e+000	 2.659772511872570e+000	-1.716231431752338e+000
1	 1.041097498112029e+000	 2.670949298215834e+000	-2.554768425805058e+000
1	 1.012812138484054e+000	 2.681802644152406e+000	-3.485224921805946e+000
1	 9.844782814308756e-001	 2.692332830683795e+000	-4.510097399917077e+000
1	 9.561011947256434e-001	 2.702540248811463e+000	-5.631809573244595e+000
1	 9.276861123150287e-001	 2.712425398051370e+000	-6.852710551233974e+000
1	 8.992382316919299e-001	 2.721988884875082e+000	-8.175073126666696e+000
1	 8.707627113369557e-001	 2.731231421080581e+000	-9.601092187245737e+000
1	 8.422646682306209e-001	 2.740153822095873e+000	-1.113288325246949e+001
1	 1.136079154278112e+000	 2.660970583927155e+000	 4.616567510743455e-001
1	 1.107709748972663e+000	 2.672904626897555e+000	-1.651388489743031e-001
1	 1.079275267505267e+000	 2.684511992475503e+000	-8.815149250265382e-001
1	 1.050781112497805e+000	 2.695792738043704e+000	-1.690083810828345e+000
1	 1.022232660780905e+000	 2.706747034772116e+000	-2.593387379998642e+000
1	 9.936352605472046e-001	 2.717375166275937e+000	-3.593894985527944e+000
1	 9.649942285672728e-001	 2.727677527193472e+000	-4.694001522188730e+000
1	 9.363148474705658e-001	 2.737654621686848e+000	-5.896025613381601e+000
1	 9.076023630936992e-001	 2.747307061868638e+000	-7.202207923641120e+000
1	 8.788619818981305e-001	 2.756635566157504e+000	-8.614709597723604e+000
1	 8.500988684592171e-001	 2.765640957566033e+000	-1.013561082690649e+001
1	 1.146548844217417e+000	 2.685493115519782e+000	 1.170925857285502e+000
1	 1.117917996849190e+000	 2.697537138265089e+000	 5.790504004269099e-001
1	 1.089221473600947e+000	 2.709251473078592e+000	-1.046864271346966e-001
1	 1.060464726883158e+000	 2.720636177871812e+000	-8.829127326217723e-001
1	 1.031653183077356e+000	 2.731691425392141e+000	-1.758184526113967e+000
1	 1.002792239663169e+000	 2.742417501868467e+000	-2.732983612451911e+000
1	 9.738872624085800e-001	 2.752814805575940e+000	-3.809715609477090e+000
1	 9.449435826258272e-001	 2.762883845322850e+000	-4.990708094181282e+000
1	 9.159664944952393e-001	 2.772625238862780e+000	-6.278208878024408e+000
1	 8.869612524591201e-001	 2.782039711235067e+000	-7.674384412374489e+000
1	 8.579330686876658e-001	 2.791128093036881e+000	-9.181318324714169e+000
1	 1.157018534156420e+000	 2.710015647112380e+000	 1.824276192768277e+000
1	 1.128126244725395e+000	 2.722169649632666e+000	 1.266508655524792e+000
1	 1.099167679696300e+000	 2.733990953681790e+000	 6.151733848618424e-001
1	 1.070148341268192e+000	 2.745479617700091e+000	-1.324119462874016e-001
1	 1.041073705373506e+000	 2.756635816012397e+000	-9.788560280123573e-001
1	 1.011949218778858e+000	 2.767459837461290e+000	-1.926691691927234e+000
1	 9.827802962496406e-001	 2.777952083958754e+000	-2.978373820663496e+000
1	 9.535723177808737e-001	 2.788113068959254e+000	-4.136277390075007e+000
1	 9.243306258965960e-001	 2.797943415857370e+000	-5.402695645553114e+000
1	 8.950605230199553e-001	 2.807443856313126e+000	-6.779838413524356e+000
1	 8.657672689159827e-001	 2.816615228508264e+000	-8.269830548883903e+000
1	 1.167488224095222e+000	 2.734538178704933e+000	 2.422717144805343e+000
1	 1.138334492601385e+000	 2.746802161000247e+000	 1.898188050450131e+000
1	 1.109113885791436e+000	 2.758730434285046e+000	 1.278950857033312e+000
1	 1.079831955653013e+000	 2.770323057528476e+000	 5.622315451853357e-001
1	 1.050494227669454e+000	 2.781580206632807e+000	-2.546688272930542e-001
1	 1.021106197894358e+000	 2.792502173054309e+000	-1.174371725633748e+000
1	 9.916733300905301e-001	 2.803089362341804e+000	-2.199418875155885e+000
1	 9.622010529357671e-001	 2.813342292595933e+000	-3.332270137150632e+000
1	 9.326947572978160e-001	 2.823261592852276e+000	-4.575301525225951e+000
1	 9.031597935806659e-001	 2.832848001391533e+000	-5.930803363397277e+000
1	 8.736014691441837e-001	 2.842102363980035e+000	-7.400978586869208e+000
1	 1.177957914033923e+000	 2.759060710297422e+000	 2.967222214941995e+000
1	 1.148542740477269e+000	 2.771434672367803e+000	 2.475006869060300e+000
1	 1.119060091886461e+000	 2.783469914888308e+000	 1.887500824073351e+000
1	 1.089515570037725e+000	 2.795166497356900e+000	 1.201801835136198e+000
1	 1.059914749965297e+000	 2.806524597253284e+000	 4.150840727508225e-001
1	 1.030263177009760e+000	 2.817544508647425e+000	-4.753992351131515e-001
1	 1.000566363931326e+000	 2.828226640724981e+000	-1.472313304803610e+000
1	 9.708297880905691e-001	 2.838571516232764e+000	-2.578239445011636e+000
1	 9.410588886989455e-001	 2.848579769847359e+000	-3.795672852997837e+000
1	 9.112590641412834e-001	 2.858252146470149e+000	-5.127020560608363e+000
1	 8.814356693722830e-001	 2.867589499452040e+000	-6.574599531303800e+000
1	 1.188427603972625e+000	 2.783583241889828e+000	 3.458730599699248e+000
1	 1.158750988353152e+000	 2.796067183735300e+000	 2.997851035993111e+000
1	 1.129006297981487e+000	 2.808209395491530e+000	 2.441647997328087e+000
1	 1.099199184422435e+000	 2.820009937185298e+000	 1.787055386397350e+000
1	 1.069335272261134e+000	 2.831468987873751e+000	 1.031084755111113e+000
1	 1.039420156125150e+000	 2.842586844240540e+000	 1.708282522214262e-001
1	 1.009459397772102e+000	 2.853363919108170e+000	-7.965385811888677e-001
1	 9.794585232453421e-001	 2.863800739869622e+000	-1.873754171143331e+000
1	 9.494230201000308e-001	 2.873897946842486e+000	-3.063468427520865e+000
1	 9.193583347018381e-001	 2.883656291548825e+000	-4.368240420100076e+000
1	 8.892698696002969e-001	 2.893076634924131e+000	-5.790536215482551e+000
1	 1.198897293911427e+000	 2.808105773482135e+000	 3.898148688462536e+000
1	 1.168959236229142e+000	 2.820699695102703e+000	 3.467575529594338e+000
1	 1.138952504076620e+000	 2.832948876094660e+000	 2.942188280097005e+000
1	 1.108882798807248e+000	 2.844853377013607e+000	 2.318722237747419e+000
1	 1.078755794557065e+000	 2.856413378494124e+000	 1.593991476893091e+000
1	 1.048577135240618e+000	 2.867629179833560e+000	 7.648921639463691e-001
1	 1.018352431612936e+000	 2.878501197491262e+000	-1.715942886454585e-001
1	 9.880872584001468e-001	 2.889029963506384e+000	-1.218398233299888e+000
1	 9.577871515011182e-001	 2.899216123837521e+000	-2.378358965975220e+000
1	 9.274576052623611e-001	 2.909060436627422e+000	-3.654222075088197e+000
1	 8.971040698282407e-001	 2.918563770396158e+000	-5.048636962702032e+000
1	 1.209366983850430e+000	 2.832628305074325e+000	 4.286351483565861e+000
1	 1.179167484105347e+000	 2.845332206469981e+000	 3.885005721453663e+000
1	 1.148898710171969e+000	 2.857688356697653e+000	 3.389890014613084e+000
1	 1.118566413192270e+000	 2.869696816841759e+000	 2.797507147698669e+000
1	 1.088176316853187e+000	 2.881357769114321e+000	 2.104439700638704e+000
1	 1.057734114356252e+000	 2.892671515426386e+000	 1.307353793578304e+000
1	 1.027245465453903e+000	 2.903638475874145e+000	 4.030026597672514e-001
1	 9.967159935550449e-001	 2.914259187142923e+000	-6.117699576077662e-001
1	 9.661512829022545e-001	 2.924534300832328e+000	-1.740026588165579e+000
1	 9.355568758228824e-001	 2.934464581705791e+000	-2.984732999684038e+000
1	 9.049382700561295e-001	 2.944050905867970e+000	-4.348755348621097e+000
1	 1.219836673789734e+000	 2.857150836666380e+000	 4.624183947245324e+000
1	 1.189375731981873e+000	 2.869964717837100e+000	 4.250938646958323e+000
1	 1.158844916267644e+000	 2.882427837300455e+000	 3.785495164807351e+000
1	 1.128250027577606e+000	 2.894540256669686e+000	 3.224090679382366e+000
1	 1.097596839149600e+000	 2.906302159734262e+000	 2.563043072539832e+000
1	 1.066891093472141e+000	 2.917713851018923e+000	 1.798755164613841e+000
1	 1.036138499295079e+000	 2.928775754256705e+000	 9.277187659144968e-001
1	 1.005344728710099e+000	 2.939488410779119e+000	-5.348146024042677e-002
1	 9.745154143034860e-001	 2.949852477826773e+000	-1.148164327185153e+000
1	 9.436561463834339e-001	 2.959868726783791e+000	-2.359548650950525e+000
1	 9.127724702839787e-001	 2.969538041339417e+000	-3.690749975859365e+000
1	 1.230306363729441e+000	 2.881673368258284e+000	 4.912462279818922e+000
1	 1.199583979858828e+000	 2.894597229204026e+000	 4.566144210973530e+000
1	 1.168791122363753e+000	 2.907167317903020e+000	 4.129720438682073e+000
1	 1.137933641963363e+000	 2.919383696497329e+000	 3.599130230041101e+000
1	 1.107017361446401e+000	 2.931246550353864e+000	 2.970394350704904e+000
1	 1.076048072588373e+000	 2.942756186611072e+000	 2.239619850451849e+000
1	 1.045031533136541e+000	 2.953913032638837e+000	 1.403004652266878e+000
1	 1.013973463865370e+000	 2.964717634414846e+000	 4.568419393364920e-001
1	 9.828795457048595e-001	 2.975170654820722e+000	-6.024756650647909e-001
1	 9.517554169440460e-001	 2.985272871861278e+000	-1.778452129234550e+000
1	 9.206066705118043e-001	 2.995025176810349e+000	-3.074484260104378e+000
1	 8.422646682306209e-001	 2.740153822095873e+000	-1.113288325246949e+001
1	 8.137491750310451e-001	 2.748757004534392e+000	-1.277404578401697e+001
1	 7.852212565530335e-001	 2.757041982326296e+000	-1.453262850540793e+001
1	 7.566858887956517e-001	 2.765009866903513e+000	-1.641725967821745e+001
1	 7.281479971706545e-001	 2.772661865956894e+000	-1.843642421235793e+001
1	 6.996124543915537e-001	 2.779999281457080e+000	-2.059845285843954e+001
1	 6.710840784416888e-001	 2.787023507627656e+000	-2.291151184914779e+001
1	 6.425676306221921e-001	 2.793736028873866e+000	-2.538359299975604e+001
1	 6.140678136806015e-001	 2.800138417670239e+000	-2.802250427657027e+001
1	 5.855892700207185e-001	 2.806232332410390e+000	-3.083586084079880e+001
1	 5.571365799941844e-001	 2.812019515222284e+000	-3.383107657404668e+001
1	 8.500988684592171e-001	 2.765640957566033e+000	-1.013561082690649e+001
1	 8.213181426176586e-001	 2.774324161233402e+000	-1.176884412850649e+001
1	 7.925248759258222e-001	 2.782686200520694e+000	-1.352294427176524e+001
1	 7.637240906662787e-001	 2.790728197197665e+000	-1.540672735500638e+001
1	 7.349207580637589e-001	 2.798451370188331e+000	-1.742885895088353e+001
1	 7.061197961545845e-001	 2.805857033573426e+000	-1.959784293186045e+001
1	 6.773260677358415e-001	 2.812946594544703e+000	-2.192201076613808e+001
1	 6.485443783951885e-001	 2.819721551314391e+000	-2.440951129438691e+001
1	 6.197794746220598e-001	 2.826183490983164e+000	-2.706830099626411e+001
1	 5.910360420008772e-001	 2.832334087369945e+000	-2.990613475432989e+001
1	 5.623187034867332e-001	 2.838175098806853e+000	-3.293055712162970e+001
1	 8.579330686876658e-001	 2.791128093036881e+000	-9.181318324714169e+000
1	 8.288871102041548e-001	 2.799891317933140e+000	-1.080326562443676e+001
1	 7.998284952985154e-001	 2.808330418715852e+000	-1.254914526819137e+001
1	 7.707622925368256e-001	 2.816446527492603e+000	-1.442786310826793e+001
1	 7.416935189567918e-001	 2.824240874420563e+000	-1.644816788104982e+001
1	 7.126271379175484e-001	 2.831714785690566e+000	-1.861863981908422e+001
1	 6.835680570299285e-001	 2.838869681462533e+000	-2.094767975062157e+001
1	 6.545211261681161e-001	 2.845707073755671e+000	-2.344349869703123e+001
1	 6.254911355634447e-001	 2.852228564296800e+000	-2.611410797707962e+001
1	 5.964828139809575e-001	 2.858435842330151e+000	-2.896730982564805e+001
1	 5.675008269791978e-001	 2.864330682391994e+000	-3.201068853308083e+001
1	 8.657672689159827e-001	 2.816615228508264e+000	-8.269830548883903e+000
1	 8.364560777905350e-001	 2.825458474633451e+000	-9.877231138464003e+000
1	 8.071321146711011e-001	 2.833974636911617e+000	-1.161123612226164e+001
1	 7.778004944072673e-001	 2.842164857788169e+000	-1.348074580537859e+001
1	 7.484662798497171e-001	 2.850030378653444e+000	-1.549449735586181e+001
1	 7.191344796803986e-001	 2.857572537808360e+000	-1.766105335446652e+001
1	 6.898100463238922e-001	 2.864792768381011e+000	-1.998879084456650e+001
1	 6.604978739409099e-001	 2.871692596197582e+000	-2.248589089248181e+001
1	 6.312027965046850e-001	 2.878273637611040e+000	-2.516032866704049e+001
1	 6.019295859608810e-001	 2.884537597290914e+000	-2.801986404576055e+001
1	 5.726829504714952e-001	 2.890486265977629e+000	-3.107203275362324e+001
1	 8.736014691441837e-001	 2.842102363980035e+000	-7.400978586869208e+000
1	 8.440250453767997e-001	 2.851025631334183e+000	-8.990664375823489e+000
1	 8.144357340435665e-001	 2.859618855107834e+000	-1.070922129555744e+001
1	 7.848386962775791e-001	 2.867883188084215e+000	-1.256545148467781e+001
1	 7.552390407424993e-001	 2.875819882886823e+000	-1.456798847852232e+001
1	 7.256418214430889e-001	 2.883430289926668e+000	-1.672528584543213e+001
1	 6.960520356176774e-001	 2.890715855300006e+000	-1.904560633157205e+001
1	 6.664746217135059e-001	 2.897678118640007e+000	-2.153701152424157e+001
1	 6.369144574457076e-001	 2.904318710925769e+000	-2.420735204215718e+001
1	 6.073763579405690e-001	 2.910639352252135e+000	-2.706425825974298e+001
1	 5.778650739635411e-001	 2.916641849563674e+000	-3.011513157104117e+001
1	 8.814356693722830e-001	 2.867589499452040e+000	-6.574599531303800e+000
1	 8.515940129629500e-001	 2.876592788035181e+000	-8.143491754183227e+000
1	 8.217393534158995e-001	 2.885263073304349e+000	-9.843105091042858e+000
1	 7.918768981477354e-001	 2.893601518380587e+000	-1.168205348119061e+001
1	 7.620118016351013e-001	 2.901609387120555e+000	-1.366877733573303e+001
1	 7.321491632055717e-001	 2.909288042045349e+000	-1.581153240697201e+001
1	 7.022940249112279e-001	 2.916638942219389e+000	-1.811837917052986e+001
1	 6.724513694858390e-001	 2.923663641082820e+000	-2.059717272963802e+001
1	 6.426261183864409e-001	 2.930363784240881e+000	-2.325555324956330e+001
1	 6.128231299199433e-001	 2.936741107213719e+000	-2.610093692870470e+001
1	 5.830471974552514e-001	 2.942797433150047e+000	-2.914050751147707e+001
1	 8.892698696002969e-001	 2.893076634924131e+000	-5.790536215482551e+000
1	 8.591629805489868e-001	 2.902159944736294e+000	-7.335642284165242e+000
1	 8.290429727880866e-001	 2.910907291501007e+000	-9.012891660051563e+000
1	 7.989151000177124e-001	 2.919319848677136e+000	-1.083062254570432e+001
1	 7.687845625274865e-001	 2.927398891354493e+000	-1.279699521866430e+001
1	 7.386565049678009e-001	 2.935145794164261e+000	-1.491998127845925e+001
1	 7.085360142044870e-001	 2.942562029139024e+000	-1.720735340636382e+001
1	 6.784281172578449e-001	 2.949649163525900e+000	-1.966667564665398e+001
1	 6.483377793268129e-001	 2.956408857556267e+000	-2.230529421665727e+001
1	 6.182699018989252e-001	 2.962842862175569e+000	-2.513032885147806e+001
1	 5.882293209465431e-001	 2.968953016736668e+000	-2.814866468787854e+001
1	 8.971040698282407e-001	 2.918563770396158e+000	-5.048636962702032e+000
1	 8.667319481349111e-001	 2.927727101437364e+000	-6.567047456127203e+000
1	 8.363465921601164e-001	 2.936551509697654e+000	-8.218585008907507e+000
1	 8.059533018874843e-001	 2.945038178973706e+000	-1.001122695760640e+001
1	 7.755573234196194e-001	 2.953188395588488e+000	-1.195276883234597e+001
1	 7.451638467297292e-001	 2.961003546283265e+000	-1.405081412386495e+001
1	 7.147780034973991e-001	 2.968485116058781e+000	-1.631276455924828e+001
1	 6.844048650294591e-001	 2.975634685969126e+000	-1.874581089420057e+001
1	 6.540494402667517e-001	 2.982453930871814e+000	-2.135692422832674e+001
1	 6.237166738774370e-001	 2.988944617137590e+000	-2.415284784849402e+001
1	 5.934114444373317e-001	 2.995108600323453e+000	-2.714008960398851e+001
1	 9.049382700561295e-001	 2.944050905867970e+000	-4.348755348621097e+000
1	 8.743009157207238e-001	 2.953294258138242e+000	-5.837641132825056e+000
1	 8.436502115319761e-001	 2.962195727894137e+000	-7.460189005201790e+000
1	 8.129915037570266e-001	 2.970756509270149e+000	-9.223932631861253e+000
1	 7.823300843114628e-001	 2.978977899822394e+000	-1.113622049418292e+001
1	 7.516711884913107e-001	 2.986861298402219e+000	-1.320420631638019e+001
1	 7.210199927899075e-001	 2.994408202978526e+000	-1.543483999360896e+001
1	 6.903816128006169e-001	 3.001620208412377e+000	-1.783485902744486e+001
1	 6.597611012061855e-001	 3.008499004187415e+000	-2.041078047419042e+001
1	 6.291634458553995e-001	 3.015046372099683e+000	-2.316889341013505e+001
1	 5.985935679275339e-001	 3.021264183910321e+000	-2.611525191657599e+001
1	 9.127724702839787e-001	 2.969538041339417e+000	-3.690749975859365e+000
1	 8.818698833064260e-001	 2.978861414838772e+000	-5.147359447602931e+000
1	 8.509538309036533e-001	 2.987839946090301e+000	-6.737707383746299e+000
1	 8.200297056263145e-001	 2.996474839566310e+000	-8.468803220477515e+000
1	 7.891028452029811e-001	 3.004767404056063e+000	-1.034746832224654e+001
1	 7.581785302524977e-001	 3.012719050520983e+000	-1.238032720838049e+001
1	 7.272619820819567e-001	 3.020331289898129e+000	-1.457379926812149e+001
1	 6.963583605712537e-001	 3.027605730855529e+000	-1.693409096968808e+001
1	 6.654727621450420e-001	 3.034544077502959e+000	-1.946718856765857e+001
1	 6.346102178327349e-001	 3.041148127061754e+000	-2.217885131169915e+001
1	 6.037756914170657e-001	 3.047419767497192e+000	-2.507460515841136e+001
1	 9.206066705118043e-001	 2.995025176810349e+000	-3.074484260104378e+000
1	 8.894388508920192e-001	 3.004428571538802e+000	-4.496140707781734e+000
1	 8.582574502751355e-001	 3.013484164285996e+000	-6.051143752223332e+000
1	 8.270679074953231e-001	 3.022193169862039e+000	-7.745900208795071e+000
1	 7.958756060941378e-001	 3.030556908289345e+000	-9.586626413953079e+000
1	 7.646858720132442e-001	 3.038576802639415e+000	-1.157934038760644e+001
1	 7.335039713734900e-001	 3.046254376817458e+000	-1.372985446783930e+001
1	 7.023351083413053e-001	 3.053591253298464e+000	-1.604376842219376e+001
1	 6.711844230832494e-001	 3.060589150818339e+000	-1.852646303849053e+001
1	 6.400569898093645e-001	 3.067249882023707e+000	-2.118309419696545e+001
1	 6.089578149058431e-001	 3.073575351083983e+000	-2.401858742432952e+001
1	 5.571365799941844e-001	 2.812019515222284e+000	-3.383107657404668e+001
1	 5.287185198196899e-001	 2.817500990623336e+000	-3.702309627089734e+001
1	 5.003352638129522e-001	 2.822679553656823e+000	-4.042984693119804e+001
1	 4.719911884326343e-001	 2.827557185699815e+000	-4.406157357828253e+001
1	 4.436906022608289e-001	 2.832135942759817e+000	-4.792838171477810e+001
1	 4.154377447072054e-001	 2.836417953168350e+000	-5.204022430887239e+001
1	 3.872367847946154e-001	 2.840405415259060e+000	-5.640688929510203e+001
1	 3.590918200257328e-001	 2.844100595033315e+000	-6.103798760025590e+001
1	 3.310068753301859e-001	 2.847505823816278e+000	-6.594294170349197e+001
1	 3.029859020915387e-001	 2.850623495906301e+000	-7.113097473829068e+001
1	 2.750327772533645e-001	 2.853456066220490e+000	-7.661110014242402e+001
1	 5.623187034867332e-001	 2.838175098806853e+000	-3.293055712162970e+001
1	 5.336363169290086e-001	 2.843707559340699e+000	-3.615855360647321e+001
1	 5.049890582647986e-001	 2.848934290012430e+000	-3.961081009642287e+001
1	 4.763813446597575e-001	 2.853857290628595e+000	-4.329874567062398e+001
1	 4.478175247716257e-001	 2.858478636320324e+000	-4.723362144785482e+001
1	 4.193018774423231e-001	 2.862800475215494e+000	-5.142652578847788e+001
1	 3.908386104722592e-001	 2.866825026095203e+000	-5.588836008941718e+001
1	 3.624318594764306e-001	 2.870554576037688e+000	-6.062982518395420e+001
1	 3.340856868217622e-001	 2.873991478052573e+000	-6.566140835641460e+001
1	 3.058040806450353e-001	 2.877138148708409e+000	-7.099337098013136e+001
1	 2.775909539506486e-001	 2.879997065756335e+000	-7.663573678541005e+001
1	 5.675008269791978e-001	 2.864330682391994e+000	-3.201068853308083e+001
1	 5.385541140382392e-001	 2.869914128058542e+000	-3.526324636626117e+001
1	 5.096428527165519e-001	 2.875189026368407e+000	-3.874832705869324e+001
1	 4.807715008867813e-001	 2.880157395557621e+000	-4.247832415229345e+001
1	 4.519444472823143e-001	 2.884821329880952e+000	-4.646545626799184e+001
1	 4.231660101773201e-001	 2.889182997262623e+000	-5.072175080279050e+001
1	 3.944404361497644e-001	 2.893244636931202e+000	-5.525902828891576e+001
1	 3.657718989269668e-001	 2.897008557041791e+000	-6.008888742779630e+001
1	 3.371644983131461e-001	 2.900477132288478e+000	-6.522269080968732e+001
1	 3.086222591983008e-001	 2.903652801510019e+000	-7.067155132788646e+001
1	 2.801491306476536e-001	 2.906538065291592e+000	-7.644631929464637e+001
1	 5.726829504714952e-001	 2.890486265977629e+000	-3.107203275362324e+001
1	 5.434719111472928e-001	 2.896120696776793e+000	-3.433780893812624e+001
1	 5.142966471681206e-001	 2.901443762724703e+000	-3.784307434185135e+001
1	 4.851616571136134e-001	 2.906457500486859e+000	-4.160100311450797e+001
1	 4.560713697928033e-001	 2.911164023441680e+000	-4.562457896931525e+001
1	 4.270301429121079e-001	 2.915565519309738e+000	-4.992657765002065e+001
1	 3.980422618270493e-001	 2.919664247767075e+000	-5.451955011978980e+001
1	 3.691119383772682e-001	 2.923462538045660e+000	-5.941580648538451e+001
1	 3.402433098042775e-001	 2.926962786524053e+000	-6.462740066797157e+001
1	 3.114404377512914e-001	 2.930167454311212e+000	-7.016611582987318e+001
1	 2.827073073443561e-001	 2.933079064826362e+000	-7.604345056457075e+001
1	 5.778650739635411e-001	 2.916641849563674e+000	-3.011513157104117e+001
1	 5.483897082560818e-001	 2.922327265495393e+000	-3.338285295391735e+001
1	 5.189504416194141e-001	 2.927698499081264e+000	-3.689570420227069e+001
1	 4.895518133401612e-001	 2.932757605416279e+000	-4.066745175085926e+001
1	 4.601982923030009e-001	 2.937506717002494e+000	-4.471165749485344e+001
1	 4.308942756465988e-001	 2.941948041356847e+000	-4.904166029726139e+001
1	 4.016440875040318e-001	 2.946083858602846e+000	-5.367055826885596e+001
1	 3.724519778272623e-001	 2.949916519049337e+000	-5.861119183444956e+001
1	 3.433221212950962e-001	 2.953448440759353e+000	-6.387612759716592e+001
1	 3.142586163039636e-001	 2.956682107112062e+000	-6.947764301018169e+001
1	 2.852654840407332e-001	 2.959620064360733e+000	-7.542771186330232e+001
1	 5.830471974552514e-001	 2.942797433150047e+000	-2.914050751147707e+001
1	 5.533075053645180e-001	 2.948533834214270e+000	-3.239896830074493e+001
1	 5.236042360703409e-001	 2.953953235438045e+000	-3.590684570730308e+001
1	 4.939419695663327e-001	 2.959057710345845e+000	-3.967831546376515e+001
1	 4.643252148128158e-001	 2.963849410563380e+000	-4.372733604092052e+001
1	 4.347584083807039e-001	 2.968330563403949e+000	-4.806762946176443e+001
1	 4.052459131806299e-001	 2.972503469438535e+000	-5.271266292964562e+001
1	 3.757920172768758e-001	 2.976370500052862e+000	-5.767563128456735e+001
1	 3.464009327855420e-001	 2.979934094994438e+000	-6.296944029936433e+001
1	 3.170767948562732e-001	 2.983196759912644e+000	-6.860669082521324e+001
1	 2.878236607367615e-001	 2.986161063894799e+000	-7.459966379371775e+001
1	 5.882293209465431e-001	 2.968953016736668e+000	-2.814866468787854e+001
1	 5.582253024725135e-001	 2.974740402933362e+000	-3.138672407880460e+001
1	 5.282580305208100e-001	 2.980207971794994e+000	-3.487710575672048e+001
1	 4.983321257920351e-001	 2.985357815275526e+000	-3.863421691243556e+001
1	 4.684521373221561e-001	 2.990192104124324e+000	-4.267223610312469e+001
1	 4.386225411143355e-001	 2.994713085451048e+000	-4.700509363506076e+001
1	 4.088477388567609e-001	 2.998923080274164e+000	-5.164645279320170e+001
1	 3.791320567260359e-001	 3.002824481056272e+000	-5.660969193160908e+001
1	 3.494797442755541e-001	 3.006419749229364e+000	-6.190788743628195e+001
1	 3.198949734081767e-001	 3.009711412713035e+000	-6.755379756965584e+001
1	 2.903818374324179e-001	 3.012702063428655e+000	-7.355984720372285e+001
1	 5.934114444373317e-001	 2.995108600323453e+000	-2.714008960398852e+001
1	 5.631430995799795e-001	 3.000946971652601e+000	-3.034666950901352e+001
1	 5.329118249707303e-001	 3.006462708152061e+000	-3.380707005063719e+001
1	 5.027222820171762e-001	 3.011657920205289e+000	-3.753575700592848e+001
1	 4.725790598309308e-001	 3.016534797685310e+000	-4.154695746756791e+001
1	 4.424866738474051e-001	 3.021095607498149e+000	-4.585464005342206e+001
1	 4.124495645323429e-001	 3.025342691109753e+000	-5.047249598695967e+001
1	 3.824720961746697e-001	 3.029278462059609e+000	-5.541392106218125e+001
1	 3.525585557650730e-001	 3.032905403464191e+000	-6.069199850429486e+001
1	 3.227131519596302e-001	 3.036226065513310e+000	-6.631948273499130e+001
1	 2.929400141276792e-001	 3.039243062962394e+000	-7.230878404883198e+001
1	 5.985935679275339e-001	 3.021264183910321e+000	-2.611525191657599e+001
1	 5.680608966868284e-001	 3.027153540371921e+000	-2.927933479350266e+001
1	 5.375656194200106e-001	 3.032717444509198e+000	-3.269730400715484e+001
1	 5.071124382416637e-001	 3.037958025135103e+000	-3.638351584462408e+001
1	 4.767059823390482e-001	 3.042877491246322e+000	-4.035207915056071e+001
1	 4.463508065798245e-001	 3.047478129545251e+000	-4.461683561791267e+001
1	 4.160513902072938e-001	 3.051762301945324e+000	-4.919134096486168e+001
1	 3.858121356227041e-001	 3.055732443062913e+000	-5.408884701108747e+001
1	 3.556373672540380e-001	 3.059391057698973e+000	-5.932228466402845e+001
1	 3.255313305105898e-001	 3.062740718313544e+000	-6.490424782340752e+001
1	 2.954981908225222e-001	 3.065784062496107e+000	-7.084697820994052e+001
1	 6.037756914170657e-001	 3.047419767497192e+000	-2.507460515841136e+001
1	 5.729786937929718e-001	 3.053360109091256e+000	-2.818523193179468e+001
1	 5.422194138685600e-001	 3.058972180866353e+000	-3.154835363275173e+001
1	 5.115025944654054e-001	 3.064258130064935e+000	-3.517805361321517e+001
1	 4.808329048464169e-001	 3.069220184807348e+000	-3.908816028994433e+001
1	 4.502149393115056e-001	 3.073860651592362e+000	-4.329222776706146e+001
1	 4.196532158815317e-001	 3.078181912780899e+000	-4.780351735163112e+001
1	 3.891521750700663e-001	 3.082186424066220e+000	-5.263497997463297e+001
1	 3.587161787423889e-001	 3.085876711933771e+000	-5.779923952722479e+001
1	 3.283495090610120e-001	 3.089255371113814e+000	-6.330857711979755e+001
1	 2.980563675169238e-001	 3.092325062029891e+000	-6.917491626898580e+001
1	 6.089578149058431e-001	 3.073575351083983e+000	-2.401858742432951e+001
1	 5.778964908983216e-001	 3.079566677810540e+000	-2.706485549530927e+001
1	 5.468732083162874e-001	 3.085226917223479e+000	-3.036074634823053e+001
1	 5.158927506883088e-001	 3.090558234994751e+000	-3.391991142810260e+001
1	 4.849598273529451e-001	 3.095562878368370e+000	-3.775574099090221e+001
1	 4.540790720423602e-001	 3.100243173639481e+000	-4.188134530497664e+001
1	 4.232550415549740e-001	 3.104601523616499e+000	-4.630953674394053e+001
1	 3.924922145166835e-001	 3.108640405069573e+000	-5.105281278240148e+001
1	 3.617949902300655e-001	 3.112362366168643e+000	-5.612333990343178e+001
1	 3.311676876108530e-001	 3.115770023914197e+000	-6.153293842434090e+001
1	 3.006145442108607e-001	 3.118866061563838e+000	-6.729306824500212e+001
1	 2.750327772533645e-001	 2.853456066220490e+000	-7.661110014242399e+001
1	 2.471471351279563e-001	 2.856006409498289e+000	-8.238889910901312e+001
1	 2.193369495812531e-001	 2.858276650234000e+000	-8.846392561499198e+001
1	 1.916059273113750e-001	 2.860269412912185e+000	-9.483844457885715e+001
1	 1.639576959960280e-001	 2.861987373296847e+000	-1.015146166135927e+002
1	 1.363958037885807e-001	 2.863433256073065e+000	-1.084944974826392e+002
1	 1.089237188885895e-001	 2.864609832501104e+000	-1.157800376654564e+002
1	 8.154482918534708e-002	 2.865519918085287e+000	-1.233730820313081e+002
1	 5.426244197296173e-002	 2.866166370259814e+000	-1.312753696197390e+002
1	 2.707978373541704e-002	 2.866552086093679e+000	-1.394885335260441e+002
1	 0.000000000000000e+000	 2.866680000016666e+000	-1.480141008898858e+002
1	 2.775909539506486e-001	 2.879997065756335e+000	-7.663573678541005e+001
1	 2.494459376495118e-001	 2.882571130674752e+000	-8.259561890601384e+001
1	 2.213770797753014e-001	 2.884862487718648e+000	-8.887464460446935e+001
1	 1.933881215034432e-001	 2.886873785783860e+000	-9.547692268847649e+001
1	 1.654827242539528e-001	 2.888607725522634e+000	-1.024064107491400e+002
1	 1.376644691828240e-001	 2.890067056963325e+000	-1.096669126813211e+002
1	 1.099368567485602e-001	 2.891254577142688e+000	-1.172620764443660e+002
1	 8.230330635240660e-002	 2.892173127753059e+000	-1.251953920611270e+002
1	 5.476715605078016e-002	 2.892825592806660e+000	-1.334701898527580e+002
1	 2.733166233832954e-002	 2.893214896319162e+000	-1.420896389063640e+002
1	 0.000000000000000e+000	 2.893344000014533e+000	-1.510567457721921e+002
1	 2.801491306476536e-001	 2.906538065291592e+000	-7.644631929464637e+001
1	 2.517447401707313e-001	 2.909135851850559e+000	-8.255546782793013e+001
1	 2.234172099689544e-001	 2.911448325202586e+000	-8.900254601725511e+001
1	 1.951703156950631e-001	 2.913478158654786e+000	-9.579334495507081e+001
1	 1.670077525113898e-001	 2.915228077747647e+000	-1.029334617937878e+002
1	 1.389331345765621e-001	 2.916700857852797e+000	-1.104282954620200e+002
1	 1.109499946080376e-001	 2.917899321783473e+000	-1.182830427422395e+002
1	 8.306178351902192e-002	 2.918826337420026e+000	-1.265026947071094e+002
1	 5.527187012824809e-002	 2.919484815352702e+000	-1.350920335110917e+002
1	 2.758354094103718e-002	 2.919877706543843e+000	-1.440556295332930e+002
1	 0.000000000000000e+000	 2.920008000011599e+000	-1.533978388669001e+002
1	 2.827073073443561e-001	 2.933079064826362e+000	-7.604345056457075e+001
1	 2.540435426916160e-001	 2.935700573025820e+000	-8.226907917238697e+001
1	 2.254573401622399e-001	 2.938034162685941e+000	-8.884833395100227e+001
1	 1.969525098862877e-001	 2.940082531525106e+000	-9.578853151155221e+001
1	 1.685327807684147e-001	 2.941848429972040e+000	-1.030967559098694e+002
1	 1.402017999698867e-001	 2.943334658741642e+000	-1.107798526876778e+002
1	 1.119631324671215e-001	 2.944544066423635e+000	-1.188444233866370e+002
1	 8.382026068529008e-002	 2.945479547086379e+000	-1.272968205319269e+002
1	 5.577658420544659e-002	 2.946144037898136e+000	-1.361431430811783e+002
1	 2.783541954358946e-002	 2.946540516767923e+000	-1.453892323337011e+002
1	 0.000000000000000e+000	 2.946672000008066e+000	-1.550406682941530e+002
1	 2.852654840407332e-001	 2.959620064360733e+000	-7.542771186330232e+001
1	 2.563423452121673e-001	 2.962265294200649e+000	-8.173706352010726e+001
1	 2.274974703551856e-001	 2.964620000168840e+000	-8.841268724680906e+001
1	 1.987347040771705e-001	 2.966686904394960e+000	-9.546327307200089e+001
1	 1.700578090251029e-001	 2.968468782195969e+000	-1.028972438852794e+002
1	 1.414704653628900e-001	 2.969968459630035e+000	-1.107227479300904e+002
1	 1.129762703259120e-001	 2.971188811063356e+000	-1.189476518714159e+002
1	 8.457873785130830e-002	 2.972132756752306e+000	-1.275795344344911e+002
1	 5.628129828245675e-002	 2.972803260443157e+000	-1.366256806096556e+002
1	 2.808729814603587e-002	 2.973203326991597e+000	-1.460930764173832e+002
1	 0.000000000000000e+000	 2.973336000004133e+000	-1.559884042265549e+002
1	 2.878236607367615e-001	 2.986161063894799e+000	-7.459966379371777e+001
1	 2.586411477323866e-001	 2.988830015375153e+000	-8.096000974445065e+001
1	 2.295376005478192e-001	 2.991205837651411e+000	-8.769626061162035e+001
1	 2.005168982677649e-001	 2.993291277264493e+000	-9.481833223903939e+001
1	 1.715828372815301e-001	 2.995089134419593e+000	-1.023358427055140e+002
1	 1.427391307556637e-001	 2.996602260518140e+000	-1.102581033937655e+002
1	 1.139894081845090e-001	 2.997833555702814e+000	-1.185941107268801e+002
1	 8.533721501717360e-002	 2.998785966417991e+000	-1.273525385680518e+002
1	 5.678601235935964e-002	 2.999462482987958e+000	-1.365417312781053e+002
1	 2.833917674842591e-002	 2.999866137215067e+000	-1.461696974240498e+002
1	 0.000000000000000e+000	 3.000000000000000e+000	-1.562441041307608e+002
1	 2.903818374324179e-001	 3.012702063428655e+000	-7.355984720372285e+001
1	 2.609399502522751e-001	 3.015394736549441e+000	-7.993848596759062e+001
1	 2.315777307401687e-001	 3.017791675133779e+000	-8.669968568130145e+001
1	 2.022990924581241e-001	 3.019895650133845e+000	-9.385444474209925e+001
1	 1.731078655377716e-001	 3.021709486643063e+000	-1.014134370426147e+002
1	 1.440077961482997e-001	 3.023236061406127e+000	-1.093870017380889e+002
1	 1.150025460430122e-001	 3.024478300342187e+000	-1.177851337646472e+002
1	 8.609569218298309e-002	 3.025439176083625e+000	-1.266174751040474e+002
1	 5.729072643623636e-002	 3.026121705532733e+000	-1.358933067888447e+002
1	 2.859105535080906e-002	 3.026528947438531e+000	-1.456215416405477e+002
1	 0.000000000000000e+000	 3.026663999995867e+000	-1.558107177320088e+002
1	 2.929400141276792e-001	 3.039243062962394e+000	-7.230878404883198e+001
1	 2.632387527718346e-001	 3.041959457723628e+000	-7.867304046659129e+001
1	 2.336178609322615e-001	 3.044377512616071e+000	-8.542357202800940e+001
1	 2.040812866483013e-001	 3.046500023003158e+000	-9.257232061080666e+001
1	 1.746328937939032e-001	 3.048329838866539e+000	-1.001308806660975e+002
1	 1.452764615408901e-001	 3.049869862294165e+000	-1.081104878040142e+002
1	 1.160156839015217e-001	 3.051123044981656e+000	-1.165220082048929e+002
1	 8.685416934883392e-002	 3.052092385749397e+000	-1.253759288511415e+002
1	 5.779544051316801e-002	 3.052780928077678e+000	-1.346823485733122e+002
1	 2.884293395323481e-002	 3.053191757662185e+000	-1.444509699023474e+002
1	 0.000000000000000e+000	 3.053327999991934e+000	-1.546910917185256e+002
1	 2.954981908225222e-001	 3.065784062496107e+000	-7.084697820994052e+001
1	 2.655375552910660e-001	 3.068524178897822e+000	-7.716420253241957e+001
1	 2.356579911241255e-001	 3.070963350098415e+000	-8.386850811523803e+001
1	 2.058634808383502e-001	 3.073104395872575e+000	-9.097264528742053e+001
1	 1.761579220500004e-001	 3.074950191090176e+000	-9.848899778059266e+001
1	 1.465451269335266e-001	 3.076503663182421e+000	-1.064295702510666e+002
1	 1.170288217601373e-001	 3.077767789621401e+000	-1.148059766930977e+002
1	 8.761264651482312e-002	 3.078745595415491e+000	-1.236294297382164e+002
1	 5.830015459023565e-002	 3.079440150622988e+000	-1.329107308338004e+002
1	 2.909481255575269e-002	 3.079854567886232e+000	-1.426602612923787e+002
1	 0.000000000000000e+000	 3.079991999988400e+000	-1.528879742015706e+002
1	 2.980563675169238e-001	 3.092325062029891e+000	-6.917491626898580e+001
1	 2.678363578099709e-001	 3.095088900072134e+000	-7.541248328472025e+001
1	 2.376981213157884e-001	 3.097549187580936e+000	-8.203506220368314e+001
1	 2.076456750283239e-001	 3.099708768742237e+000	-8.905608068198143e+001
1	 1.776829503061387e-001	 3.101570543314129e+000	-9.648858429460221e+001
1	 1.478137923263012e-001	 3.103137464071066e+000	-1.043452231100414e+002
1	 1.180419596189590e-001	 3.104412534261600e+000	-1.126382392129410e+002
1	 8.837112368104780e-002	 3.105398805082098e+000	-1.213794551695006e+002
1	 5.880486866752038e-002	 3.106099373168855e+000	-1.305802634285485e+002
1	 2.934669115841214e-002	 3.106517378110866e+000	-1.402516166493844e+002
1	 0.000000000000000e+000	 3.106655999985466e+000	-1.504040189458023e+002
1	 3.006145442108607e-001	 3.118866061563838e+000	-6.729306824500213e+001
1	 2.701351603285507e-001	 3.121653621246674e+000	-7.341837644499057e+001
1	 2.397382515072781e-001	 3.124135025063762e+000	-7.992378321085276e+001
1	 2.094278692182756e-001	 3.126313141612288e+000	-8.682326617358618e+001
1	 1.792079785623936e-001	 3.128190895538556e+000	-9.413040902447389e+001
1	 1.490824577193058e-001	 3.129771264960267e+000	-1.018583872564248e+002
1	 1.190550974780867e-001	 3.131057278902433e+000	-1.100199549015202e+002
1	 8.912960084760516e-002	 3.132052014749407e+000	-1.186274322594475e+002
1	 5.930958274510327e-002	 3.132758595715477e+000	-1.276926946095260e+002
1	 2.959856976126271e-002	 3.133180188336288e+000	-1.372271618971447e+002
1	 0.000000000000000e+000	 3.133319999983334e+000	-1.472417893836441e+002
1	 3.133319999983334e+000	 0.000000000000000e+000	 1.040623645012883e+002
1	 3.133180188336288e+000	 2.959856976126182e-002	 9.767102505761960e+001
1	 3.132758595715477e+000	 5.930958274510247e-002	 9.148831741364370e+001
1	 3.132052014749406e+000	 8.912960084760445e-002	 8.551362401618130e+001
1	 3.131057278902433e+000	 1.190550974780861e-001	 7.974626053849164e+001
1	 3.129771264960267e+000	 1.490824577193053e-001	 7.418547784564522e+001
1	 3.128190895538556e+000	 1.792079785623932e-001	 6.883046410511912e+001
1	 3.126313141612288e+000	 2.094278692182752e-001	 6.368034704225470e+001
1	 3.124135025063761e+000	 2.397382515072778e-001	 5.873419633986171e+001
1	 3.121653621246674e+000	 2.701351603285505e-001	 5.399102618088578e+001
1	 3.118866061563838e+000	 3.006145442108607e-001	 4.944979793268004e+001
1	 3.159987999982151e+000	 0.000000000000000e+000	 1.016037123683650e+002
1	 3.159846998384162e+000	 2.985048614990571e-002	 9.530767753494740e+001
1	 3.159421817546309e+000	 5.981437253772166e-002	 8.921858269483801e+001
1	 3.158709222798846e+000	 8.988819179751431e-002	 8.333591599413614e+001
1	 3.157706020655442e+000	 1.200683873234670e-001	 7.765908957307413e+001
1	 3.156409061319833e+000	 1.503513134314466e-001	 7.218744126081786e+001
1	 3.154815241215752e+000	 1.807332355959375e-001	 6.692023642444929e+001
1	 3.152921505537872e+000	 2.112103307641125e-001	 6.185666997255245e+001
1	 3.150724850821440e+000	 2.417786877487557e-001	 5.699586851346913e+001
1	 3.148222327528214e+000	 2.724343077016802e-001	 5.233689266793118e+001
1	 3.145411042646106e+000	 3.031731046692103e-001	 4.787873953539805e+001
1	 3.186655999981866e+000	 0.000000000000000e+000	 9.898916765741487e+001
1	 3.186513808432925e+000	 3.010240253874214e-002	 9.280599914874108e+001
1	 3.186085039377991e+000	 6.031916233064432e-002	 8.682693731795656e+001
1	 3.185366430849083e+000	 9.064678274776807e-002	 8.105161816918863e+001
1	 3.184354762409180e+000	 1.210816771691726e-001	 7.547959403244606e+001
1	 3.183046857680051e+000	 1.516201691438457e-001	 7.011033495061162e+001
1	 3.181439586893518e+000	 1.822584926296357e-001	 6.494323022609189e+001
1	 3.179529869463929e+000	 2.129927923099748e-001	 5.997759012828355e+001
1	 3.177314676579507e+000	 2.438191239901172e-001	 5.521264776268126e+001
1	 3.174791033810061e+000	 2.747334550745509e-001	 5.064756110209614e+001
1	 3.171956023728604e+000	 3.057316651271695e-001	 4.628141518008811e+001
1	 3.213323999982383e+000	 0.000000000000000e+000	 9.622465242152597e+001
1	 3.213180618482476e+000	 3.035431892772296e-002	 9.017149623438696e+001
1	 3.212748261210434e+000	 6.082395212379460e-002	 8.431849416638968e+001
1	 3.212023638900031e+000	 9.140537369827974e-002	 7.866547098582633e+001
1	 3.211003504163570e+000	 1.220949670151219e-001	 7.321216165433637e+001
1	 3.209684654040850e+000	 1.528890248564378e-001	 6.795821236933031e+001
1	 3.208063932571784e+000	 1.837837496634492e-001	 6.290318176810139e+001
1	 3.206138233390415e+000	 2.147752538558561e-001	 5.804654229549125e+001
1	 3.203904502337919e+000	 2.458595602313912e-001	 5.338768173665883e+001
1	 3.201359740092178e+000	 2.770326024472272e-001	 4.892590491616482e+001
1	 3.198501004811306e+000	 3.082902255848360e-001	 4.466043556423238e+001
1	 3.239991999983598e+000	 0.000000000000000e+000	 9.331589373883051e+001
1	 3.239847428532719e+000	 3.060623531680005e-002	 8.740949383921944e+001
1	 3.239411483043539e+000	 6.132874191709668e-002	 8.169819778931216e+001
1	 3.238680846951602e+000	 9.216396464896336e-002	 7.618205881633136e+001
1	 3.237652245918530e+000	 1.231082568612335e-001	 7.086103571662649e+001
1	 3.236322450402156e+000	 1.541578805691588e-001	 6.573499351722525e+001
1	 3.234688278250491e+000	 1.853090066973396e-001	 6.080370429770422e+001
1	 3.232746597317267e+000	 2.165577154017499e-001	 5.606684817491659e+001
1	 3.230494328096634e+000	 2.478999964726069e-001	 5.152401445282257e+001
1	 3.227928446374532e+000	 2.793317498197739e-001	 4.717470293935438e+001
1	 3.225045985894188e+000	 3.108487860423074e-001	 4.301832543192012e+001
1	 3.266659999985416e+000	 0.000000000000000e+000	 9.026843167107921e+001
1	 3.266514238583552e+000	 3.085815170592527e-002	 8.452514312241686e+001
1	 3.266074704877213e+000	 6.183353171047463e-002	 7.897083127282491e+001
1	 3.265338055003707e+000	 9.292255559973296e-002	 7.360581633140639e+001
1	 3.264300987673976e+000	 1.241215467074265e-001	 6.843032093397738e+001
1	 3.262960246763895e+000	 1.554267362819441e-001	 6.344447038788330e+001
1	 3.261312623929575e+000	 1.868342637312685e-001	 5.864829307241020e+001
1	 3.259354961244441e+000	 2.183401769476501e-001	 5.404172099796554e+001
1	 3.257084153855605e+000	 2.499404327137935e-001	 4.962459052694043e+001
1	 3.254497152657088e+000	 2.816308971922558e-001	 4.539664325888566e+001
1	 3.251590966977224e+000	 3.134073464996811e-001	 4.135752708233252e+001
1	 3.293327999987732e+000	 0.000000000000000e+000	 8.708762683554413e+001
1	 3.293181048634879e+000	 3.111006809505051e-002	 8.152342839537137e+001
1	 3.292737926711361e+000	 6.233832150385259e-002	 7.614102277725850e+001
1	 3.291995263056254e+000	 9.368114655050251e-002	 7.094103456128016e+001
1	 3.290949729429830e+000	 1.251348365536193e-001	 6.592398906796640e+001
1	 3.289598043125996e+000	 1.566955919947295e-001	 6.109031215095060e+001
1	 3.287936969608975e+000	 1.883595207651975e-001	 5.644033013717132e+001
1	 3.285963325171878e+000	 2.201226384935503e-001	 5.197426991840686e+001
1	 3.283673979614794e+000	 2.519808689549801e-001	 4.769225919769374e+001
1	 3.281065858939814e+000	 2.839300445647379e-001	 4.359432689393814e+001
1	 3.278135948060388e+000	 3.159659069570547e-001	 3.968040370776510e+001
1	 3.319995999990449e+000	 0.000000000000000e+000	 8.377866761199206e+001
1	 3.319847858686600e+000	 3.136198448412762e-002	 7.840917382274527e+001
1	 3.319401148545888e+000	 6.284311129715468e-002	 7.321325175941054e+001
1	 3.318652471109157e+000	 9.443973750118619e-002	 6.819186666469668e+001
1	 3.317598471186008e+000	 1.261481263997311e-001	 6.334588426684235e+001
1	 3.316235839488389e+000	 1.579644477074505e-001	 5.867607008507406e+001
1	 3.314561315288624e+000	 1.898847777990878e-001	 5.418308887130350e+001
1	 3.312571689099526e+000	 2.219051000394441e-001	 4.986750419241099e+001
1	 3.310263805374154e+000	 2.540213051961958e-001	 4.572977815727866e+001
1	 3.307634565222676e+000	 2.862291919372846e-001	 4.177027129253732e+001
1	 3.304680929143654e+000	 3.185244674145260e-001	 3.798924257077389e+001
1	 3.346663999993466e+000	 0.000000000000000e+000	 8.034657700508413e+001
1	 3.346514668738617e+000	 3.161390087310849e-002	 7.518704980314264e+001
1	 3.346064370380700e+000	 6.334790109030505e-002	 7.019185489728935e+001
1	 3.345309679162327e+000	 9.519832845169793e-002	 6.536233342208212e+001
1	 3.344247212942430e+000	 1.271614162456804e-001	 6.069972814998005e+001
1	 3.342873635850998e+000	 1.592333034200426e-001	 5.620518227499231e+001
1	 3.341185660968463e+000	 1.914100348329014e-001	 5.187973831801499e+001
1	 3.339180053027333e+000	 2.236875615853254e-001	 4.772433715873650e+001
1	 3.336853631133645e+000	 2.560617414374699e-001	 4.373981719886137e+001
1	 3.334203271505640e+000	 2.885283393099608e-001	 3.992691366125163e+001
1	 3.331225910226997e+000	 3.210830278721923e-001	 3.628625802941781e+001
1	 3.373331999996682e+000	 0.000000000000000e+000	 7.679621918126985e+001
1	 3.373181478790831e+000	 3.186581726194498e-002	 7.186157904712525e+001
1	 3.372727592215700e+000	 6.385269088322783e-002	 6.708103173382962e+001
1	 3.371966887215675e+000	 9.595691940195179e-002	 6.245632846815359e+001
1	 3.370895954699014e+000	 1.281747060913862e-001	 5.798912465116328e+001
1	 3.369511432213754e+000	 1.605021591324417e-001	 5.368097808582918e+001
1	 3.367810006648429e+000	 1.929352918665996e-001	 4.953334730857112e+001
1	 3.365788416955247e+000	 2.254700231311878e-001	 4.554759003012279e+001
1	 3.363443456893223e+000	 2.581021776788313e-001	 4.172496169102352e+001
1	 3.360771977788672e+000	 2.908274866828314e-001	 3.806661413695145e+001
1	 3.357770891310391e+000	 3.236415883301516e-001	 3.457359441900456e+001
1	 3.400000000000000e+000	 0.000000000000000e+000	 7.313230569804729e+001
1	 3.399848288843145e+000	 3.211773365058895e-002	 6.843714236918963e+001
1	 3.399390814050797e+000	 6.435748067584715e-002	 6.388485005500671e+001
1	 3.398624095269111e+000	 9.671551035186185e-002	 5.947762327827431e+001
1	 3.397544696455680e+000	 1.291879959367673e-001	 5.521756463393672e+001
1	 3.396149228576582e+000	 1.617710148445832e-001	 5.110668242682097e+001
1	 3.394434352328458e+000	 1.944605489001441e-001	 4.714688839237093e+001
1	 3.392396780883214e+000	 2.272524846770251e-001	 4.333999550625623e+001
1	 3.390033282652842e+000	 2.601426139203092e-001	 3.968771588869498e+001
1	 3.387340684071737e+000	 2.931266340559610e-001	 3.619165880930070e+001
1	 3.384315872393812e+000	 3.262001487885012e-001	 3.285332879821782e+001
1	 3.118866061563838e+000	 3.006145442108607e-001	 4.944979793268004e+001
1	 3.115770023914197e+000	 3.311676876108510e-001	 4.510111761426376e+001
1	 3.112362366168644e+000	 3.617949902300639e-001	 4.093465067061704e+001
1	 3.108640405069573e+000	 3.924922145166821e-001	 3.694981845378194e+001
1	 3.104601523616499e+000	 4.232550415549728e-001	 3.314592358251667e+001
1	 3.100243173639482e+000	 4.540790720423594e-001	 2.952215068584671e+001
1	 3.095562878368370e+000	 4.849598273529444e-001	 2.607756734023071e+001
1	 3.090558234994751e+000	 5.158927506883084e-001	 2.281112520287255e+001
1	 3.085226917223479e+000	 5.468732083162872e-001	 1.972166134332236e+001
1	 3.079566677810540e+000	 5.778964908983217e-001	 1.680789977510190e+001
1	 3.073575351083984e+000	 6.089578149058433e-001	 1.406845318866626e+001
1	 3.145411042646106e+000	 3.031731046692103e-001	 4.787873953539806e+001
1	 3.142288654310429e+000	 3.339862889291541e-001	 4.361108222789981e+001
1	 3.138851993649093e+000	 3.648742635849503e-001	 3.952281592885178e+001
1	 3.135098354567003e+000	 3.958327550185429e-001	 3.561358712604969e+001
1	 3.131025097790099e+000	 4.268574075554641e-001	 3.188291074285606e+001
1	 3.126629653460698e+000	 4.579437844502214e-001	 2.833017031003662e+001
1	 3.121909523728590e+000	 4.890873689588727e-001	 2.495461833982532e+001
1	 3.116862285334807e+000	 5.202835654996194e-001	 2.175537690609441e+001
1	 3.111485592184848e+000	 5.515277009021273e-001	 1.873143843413553e+001
1	 3.105777177908166e+000	 5.828150257461739e-001	 1.588166670316622e+001
1	 3.099734858400541e+000	 6.141407157900873e-001	 1.320479806426484e+001
1	 3.171956023728604e+000	 3.057316651271695e-001	 4.628141518008810e+001
1	 3.168807284706830e+000	 3.368048902469568e-001	 4.210295766349481e+001
1	 3.165341621129662e+000	 3.679535369392487e-001	 3.810030671559309e+001
1	 3.161556304064507e+000	 3.991732955197489e-001	 3.427336267983790e+001
1	 3.157448671963742e+000	 4.304597735552531e-001	 3.062188250975442e+001
1	 3.153016133281929e+000	 4.618084968573516e-001	 2.714547933564487e+001
1	 3.148256169088800e+000	 4.932149105640556e-001	 2.384362223969463e+001
1	 3.143166335674825e+000	 5.246743803101858e-001	 2.071563624470101e+001
1	 3.137744267146154e+000	 5.561821934872369e-001	 1.776070252130061e+001
1	 3.131987678005701e+000	 5.877335605933206e-001	 1.497785881820484e+001
1	 3.125894365716972e+000	 6.193236166736611e-001	 1.236600011955659e+001
1	 3.198501004811306e+000	 3.082902255848360e-001	 4.466043556423237e+001
1	 3.195325915103382e+000	 3.396234915643845e-001	 4.057910517459549e+001
1	 3.191831248610335e+000	 3.710328102931062e-001	 3.666925029954741e+001
1	 3.188014253562083e+000	 4.025138360204640e-001	 3.293105303763669e+001
1	 3.183872246137423e+000	 4.340621395545157e-001	 2.936454125806080e+001
1	 3.179402613103172e+000	 4.656732092639325e-001	 2.596958752920316e+001
1	 3.174602814449002e+000	 4.973424521686788e-001	 2.274590825932893e+001
1	 3.169470386014815e+000	 5.290651951201935e-001	 1.969306305601172e+001
1	 3.164002942107413e+000	 5.608366860717982e-001	 1.681045431054786e+001
1	 3.158198178103163e+000	 5.926520954399379e-001	 1.409732701327369e+001
1	 3.152053873033303e+000	 6.245065175567316e-001	 1.155276880533150e+001
1	 3.225045985894188e+000	 3.108487860423074e-001	 4.301832543192012e+001
1	 3.221844545500062e+000	 3.424420928815619e-001	 3.904180827393177e+001
1	 3.218320876091100e+000	 3.741120836466698e-001	 3.523170391221207e+001
1	 3.214472203059717e+000	 4.058543765208516e-001	 3.158850330637956e+001
1	 3.210295820311139e+000	 4.376645055534269e-001	 2.811253331442265e+001
1	 3.205789092924430e+000	 4.695379216701472e-001	 2.480395495038840e+001
1	 3.200949459809202e+000	 5.014699937729293e-001	 2.166276185561022e+001
1	 3.195774436354789e+000	 5.334560099298289e-001	 1.868877899139766e+001
1	 3.190261617068638e+000	 5.654911786559940e-001	 1.588166156083416e+001
1	 3.184408678200579e+000	 5.975706302862024e-001	 1.324089416701865e+001
1	 3.178213380349571e+000	 6.296894184394667e-001	 1.076579021474932e+001
1	 3.251590966977224e+000	 3.134073464996811e-001	 4.135752708233252e+001
1	 3.248363175896857e+000	 3.452606941986143e-001	 3.749327590667632e+001
1	 3.244810503571943e+000	 3.771913570000863e-001	 3.378965760668552e+001
1	 3.240930152557405e+000	 4.091949170210757e-001	 3.024749834147699e+001
1	 3.236719394484886e+000	 4.412668715521623e-001	 2.686745124508602e+001
1	 3.232175572745704e+000	 4.734026340761792e-001	 2.364999398097885e+001
1	 3.227296105169404e+000	 5.055975353769934e-001	 2.059542650913416e+001
1	 3.222078486694756e+000	 5.378468247392781e-001	 1.770386907497312e+001
1	 3.216520292029851e+000	 5.701456712400070e-001	 1.497526042917917e+001
1	 3.210619178297971e+000	 6.024891651322906e-001	 1.240935628718003e+001
1	 3.204372887665805e+000	 6.348723193220343e-001	 1.000572803676163e+001
1	 3.278135948060388e+000	 3.159659069570547e-001	 3.968040370776510e+001
1	 3.274881806293744e+000	 3.480792955156667e-001	 3.593564546952939e+001
1	 3.271300131052852e+000	 3.802706303535030e-001	 3.234503697758058e+001
1	 3.267388102055135e+000	 4.125354575212996e-001	 2.890976518627496e+001
1	 3.263142968658664e+000	 4.448692375508980e-001	 2.563083603254264e+001
1	 3.258562052566994e+000	 4.772673464822110e-001	 2.250907125523313e+001
1	 3.253642750529616e+000	 5.097250769810575e-001	 1.954510542374228e+001
1	 3.248382537034726e+000	 5.422376395487271e-001	 1.673938318655645e+001
1	 3.242778966991063e+000	 5.748001638240203e-001	 1.409215675016184e+001
1	 3.236829678395365e+000	 6.074076999783787e-001	 1.160348359853970e+001
1	 3.230532394982041e+000	 6.400552202046016e-001	 9.273224463211703e+000
1	 3.304680929143654e+000	 3.185244674145260e-001	 3.798924257077389e+001
1	 3.301400436690707e+000	 3.508978968328440e-001	 3.437098568429894e+001
1	 3.297789758533815e+000	 3.833499037070663e-001	 3.089970574985118e+001
1	 3.293846051552902e+000	 4.158759980216871e-001	 2.757697539394352e+001
1	 3.289566542832464e+000	 4.484716035498092e-001	 2.440417914727216e+001
1	 3.284948532388303e+000	 4.811320588884258e-001	 2.138250949723383e+001
1	 3.279989395889841e+000	 5.138526185853078e-001	 1.851296314414490e+001
1	 3.274686587374712e+000	 5.466284543583627e-001	 1.579633747316005e+001
1	 3.269037641952293e+000	 5.794546564082165e-001	 1.323322725375125e+001
1	 3.263040178492781e+000	 6.123262348246432e-001	 1.082402157843397e+001
1	 3.256691902298308e+000	 6.452381210873366e-001	 8.568901052215887e+000
1	 3.331225910226997e+000	 3.210830278721923e-001	 3.628625802941781e+001
1	 3.327919067087727e+000	 3.537164981502717e-001	 3.280129933409037e+001
1	 3.324279386014818e+000	 3.864291770609238e-001	 2.945546824384385e+001
1	 3.320304001050699e+000	 4.192165385224021e-001	 2.625074723835253e+001
1	 3.315990117006285e+000	 4.520739695490714e-001	 2.318892452043244e+001
1	 3.311335012209629e+000	 4.849967712950067e-001	 2.027158927038563e+001
1	 3.306336041250085e+000	 5.179801601899310e-001	 1.750012709620389e+001
1	 3.300990637714719e+000	 5.510192691683702e-001	 1.487571569299467e+001
1	 3.295296316913556e+000	 5.841091489927772e-001	 1.239932072491174e+001
1	 3.289250678590244e+000	 6.172447696712605e-001	 1.007169194275770e+001
1	 3.282851409614641e+000	 6.504210219704072e-001	 7.893359550266476e+000
1	 3.357770891310391e+000	 3.236415883301516e-001	 3.457359441900456e+001
1	 3.354437697484784e+000	 3.565350994680742e-001	 3.122852586971075e+001
1	 3.350769013495849e+000	 3.895084504152221e-001	 2.801407172342417e+001
1	 3.346761950548516e+000	 4.225570790236081e-001	 2.493264782007906e+001
1	 3.342413691180124e+000	 4.556763355488603e-001	 2.198647042297858e+001
1	 3.337721492030972e+000	 4.888614837021365e-001	 1.917755064392894e+001
1	 3.332682686610352e+000	 5.221077017951135e-001	 1.650768905415435e+001
1	 3.327294688054762e+000	 5.554100839789363e-001	 1.397847049572384e+001
1	 3.321554991874868e+000	 5.887636415778865e-001	 1.159125910820400e+001
1	 3.315461178687778e+000	 6.221633045184069e-001	 9.347193585198923e+000
1	 3.309010916931069e+000	 6.556039228539805e-001	 7.247182675338838e+000
1	 3.384315872393812e+000	 3.262001487885012e-001	 3.285332879821782e+001
1	 3.380956327881861e+000	 3.593537007863771e-001	 2.965454389341216e+001
1	 3.377258640976894e+000	 3.925877237701082e-001	 2.657720863359731e+001
1	 3.373219900046344e+000	 4.258976195254685e-001	 2.362419507330308e+001
1	 3.368837265353977e+000	 4.592787015493514e-001	 2.079817125634843e+001
1	 3.364107971852335e+000	 4.927261961099984e-001	 1.810159478102571e+001
1	 3.359029331970650e+000	 5.262352434010417e-001	 1.553670653877753e+001
1	 3.353598738394850e+000	 5.598008987902472e-001	 1.310552464246763e+001
1	 3.347813666836248e+000	 5.934181341637268e-001	 1.080983856040247e+001
1	 3.341671678785408e+000	 6.270818393662589e-001	 8.651203472271828e+000
1	 3.335170424247629e+000	 6.607868237382244e-001	 6.630934863145119e+000
1	 3.073575351083984e+000	 6.089578149058433e-001	 1.406845318866626e+001
1	 3.067249882023707e+000	 6.400569898093638e-001	 1.146834273033184e+001
1	 3.060589150818339e+000	 6.711844230832489e-001	 8.974547225031825e+000
1	 3.053591253298464e+000	 7.023351083413048e-001	 6.587206792185212e+000
1	 3.046254376817459e+000	 7.335039713734899e-001	 4.306282473960353e+000
1	 3.038576802639414e+000	 7.646858720132438e-001	 2.131554029259269e+000
1	 3.030556908289345e+000	 7.958756060941374e-001	 6.261796936245245e-002
1	 3.022193169862040e+000	 8.270679074953231e-001	-1.901114155530841e+000
1	 3.013484164285995e+000	 8.582574502751357e-001	-3.760417209980854e+000
1	 3.004428571538802e+000	 8.894388508920191e-001	-5.516253658699473e+000
1	 2.995025176810348e+000	 9.206066705118043e-001	-7.169774475571103e+000
1	 3.099734858400541e+000	 6.141407157900873e-001	 1.320479806426484e+001
1	 3.093355552640277e+000	 6.455045788827545e-001	 1.066482679352357e+001
1	 3.086638131285180e+000	 6.768969408555949e-001	 8.227730390317458e+000
1	 3.079580673959275e+000	 7.083127527125638e-001	 5.893825710684185e+000
1	 3.072181352588336e+000	 7.397468970565122e-001	 3.663249342309454e+000
1	 3.064438433808138e+000	 7.711941899724109e-001	 1.535955111458075e+000
1	 3.056350281334656e+000	 8.026493830006506e-001	-4.882881712380327e-001
1	 3.047915358292587e+000	 8.341071651999055e-001	-2.409898716386543e+000
1	 3.039132229498540e+000	 8.655621652988902e-001	-4.229483503417741e+000
1	 3.029999563695273e+000	 8.970089539361905e-001	-5.947839761088625e+000
1	 3.020516135733326e+000	 9.284420459871777e-001	-7.565956172256295e+000
1	 3.125894365716972e+000	 6.193236166736611e-001	 1.236600011955659e+001
1	 3.119461223256675e+000	 6.509521679555175e-001	 9.888284130822289e+000
1	 3.112687111751801e+000	 6.826094586273640e-001	 7.509851295351909e+000
1	 3.105570094619816e+000	 7.142903970833030e-001	 5.231193188401335e+000
1	 3.098108328358891e+000	 7.459898227390771e-001	 3.052620631647311e+000
1	 3.090300064976482e+000	 7.777025079311877e-001	 9.742609257218722e-001
1	 3.082143654379539e+000	 8.094231599068449e-001	-1.003944682133874e+000
1	 3.073637546722665e+000	 8.411464229042441e-001	-2.882243285080119e+000
1	 3.064780294710580e+000	 8.728668803224784e-001	-4.661072348445988e+000
1	 3.055570555851221e+000	 9.045790569802751e-001	-6.341061476693247e+000
1	 3.046007094655772e+000	 9.362774214625445e-001	-7.923033906396828e+000
1	 3.152053873033303e+000	 6.245065175567316e-001	 1.155276880533149e+001
1	 3.145566893872943e+000	 6.563997570278103e-001	 9.139293938754202e+000
1	 3.138736092218255e+000	 6.883219763987003e-001	 6.821373595715125e+000
1	 3.131559515280150e+000	 7.202680414536518e-001	 4.599672083504553e+000
1	 3.124035304129198e+000	 7.522327484212987e-001	 2.474673164759226e+000
1	 3.116161696144542e+000	 7.842108258896714e-001	 4.466770280359911e-001
1	 3.107937027424103e+000	 8.161969368128007e-001	-1.484202511155528e+000
1	 3.099359735152392e+000	 8.481856806084001e-001	-3.318040568221996e+000
1	 3.090428359922246e+000	 8.801715953459426e-001	-5.055103495905645e+000
1	 3.081141548006778e+000	 9.121491600242943e-001	-6.695850929227595e+000
1	 3.071498053577817e+000	 9.441127969379057e-001	-8.240937559292430e+000
1	 3.178213380349571e+000	 6.296894184394667e-001	 1.076579021474932e+001
1	 3.171672564489124e+000	 6.618473460997887e-001	 8.418416344646515e+000
1	 3.164785072684600e+000	 6.940344941697479e-001	 6.162745681804887e+000
1	 3.157548935940349e+000	 7.262456858237403e-001	 3.999613307587042e+000
1	 3.149962279899342e+000	 7.584756741032915e-001	 1.929674650444919e+000
1	 3.142023327312415e+000	 7.907191438479604e-001	-4.659779324467706e-002
1	 3.133730400468455e+000	 8.229707137185971e-001	-1.928917513458454e+000
1	 3.125081923581886e+000	 8.552249383124342e-001	-3.717186804901250e+000
1	 3.116076425133662e+000	 8.874763103693232e-001	-5.411499338723654e+000
1	 3.106712540162071e+000	 9.197192630682699e-001	-7.012142477134384e+000
1	 3.096989012499596e+000	 9.519481724132636e-001	-8.519599320799847e+000
1	 3.204372887665805e+000	 6.348723193220343e-001	 1.000572803676163e+001
1	 3.197778235105262e+000	 6.672949351716108e-001	 7.726193185002593e+000
1	 3.190834053150890e+000	 6.997470119406514e-001	 5.534401301937827e+000
1	 3.183538356600478e+000	 7.322233301936988e-001	 3.431356313307807e+000
1	 3.175889255669407e+000	 7.647185997851700e-001	 1.417884055537156e+000
1	 3.167884958480192e+000	 7.972274618061515e-001	-5.053712411515985e-001
1	 3.159523773512701e+000	 8.297444906243138e-001	-2.337950251213870e+000
1	 3.150804112011262e+000	 8.622641960164075e-001	-4.079581622494983e+000
1	 3.141724490344950e+000	 8.947810253926624e-001	-5.730184804068080e+000
1	 3.132283532317233e+000	 9.272893661122241e-001	-7.289872622366588e+000
1	 3.122479971421242e+000	 9.597835478886196e-001	-8.758953595100994e+000
1	 3.230532394982041e+000	 6.400552202046016e-001	 9.273224463211703e+000
1	 3.223883905721402e+000	 6.727425242434326e-001	 7.063148746059200e+000
1	 3.216883033617179e+000	 7.054595297115547e-001	 4.936760155176551e+000
1	 3.209527777260609e+000	 7.382009745636574e-001	 2.895229558340008e+000
1	 3.201816231439471e+000	 7.709615254670484e-001	 9.395519588459691e-001
1	 3.193746589647969e+000	 8.037357797643431e-001	-9.294572472799167e-001
1	 3.185317146556945e+000	 8.365182675300307e-001	-2.711165803031385e+000
1	 3.176526300440638e+000	 8.693034537203810e-001	-4.405127899483894e+000
1	 3.167372555556241e+000	 9.020857404160018e-001	-6.011087250741873e+000
1	 3.157854524472395e+000	 9.348594691561779e-001	-7.528979923600947e+000
1	 3.147970930342888e+000	 9.676189233639759e-001	-8.958936911049323e+000
1	 3.256691902298308e+000	 6.452381210873366e-001	 8.568901052215887e+000
1	 3.249989576337585e+000	 6.781901133154114e-001	 6.429790468652222e+000
1	 3.242932014083523e+000	 7.111720474826023e-001	 4.370228455585638e+000
1	 3.235517197920807e+000	 7.441786189337460e-001	 2.391550946959091e+000
1	 3.227743207209616e+000	 7.772044511490410e-001	 4.949208880436309e-001
1	 3.219608220815843e+000	 8.102440977226321e-001	-1.318675721632640e+000
1	 3.211110519601296e+000	 8.432920444358268e-001	-3.048433582566951e+000
1	 3.202248488870132e+000	 8.763427114244151e-001	-4.693731634878962e+000
1	 3.193020620767654e+000	 9.093904554393825e-001	-6.254136371521777e+000
1	 3.183425516627689e+000	 9.424295722001537e-001	-7.729404913634536e+000
1	 3.173461889264666e+000	 9.754542988393339e-001	-9.119487836837088e+000
1	 3.282851409614641e+000	 6.504210219704072e-001	 7.893359550266475e+000
1	 3.276095246953852e+000	 6.836377023877038e-001	 5.826609619382301e+000
1	 3.268980994549979e+000	 7.168845652539384e-001	 3.835199469509615e+000
1	 3.261506618581141e+000	 7.501562633040946e-001	 1.920628250517998e+000
1	 3.253670182979923e+000	 7.834473768312624e-001	 8.422564044390701e-002
1	 3.245469851983901e+000	 8.167524156811157e-001	-1.672852314425108e+000
1	 3.236903892645860e+000	 8.500658213417824e-001	-3.349627165802874e+000
1	 3.227970677299859e+000	 8.833819691285713e-001	-4.945301823891420e+000
1	 3.218668685979320e+000	 9.166951704628462e-001	-6.459264100166571e+000
1	 3.208996508783244e+000	 9.499996752441732e-001	-7.891090020730280e+000
1	 3.198952848186712e+000	 9.832896743146951e-001	-9.240546898742656e+000
1	 3.309010916931069e+000	 6.556039228539805e-001	 7.247182675338840e+000
1	 3.302200917570249e+000	 6.890852914604667e-001	 5.254081929944877e+000
1	 3.295029975016600e+000	 7.225970830257075e-001	 3.332054027366157e+000
1	 3.287496039241681e+000	 7.561339076748334e-001	 1.482759507978275e+000
1	 3.279597158750476e+000	 7.896903025138271e-001	-2.923064114353280e-001
1	 3.271331483152246e+000	 8.232607336398923e-001	-1.991818189187644e+000
1	 3.262697265690745e+000	 8.568395982479768e-001	-3.614624126520914e+000
1	 3.253692865729938e+000	 8.904212268329098e-001	-5.159750339499819e+000
1	 3.244316751191363e+000	 9.239998854864348e-001	-6.626404522836364e+000
1	 3.234567500939193e+000	 9.575697782882574e-001	-8.013979493693567e+000
1	 3.224443807109157e+000	 9.911250497900617e-001	-9.322056503731671e+000
1	 3.335170424247629e+000	 6.607868237382244e-001	 6.630934863145118e+000
1	 3.328306588186819e+000	 6.945328805338575e-001	 4.712668206372135e+000
1	 3.321078955483442e+000	 7.283096007980533e-001	 2.861161011353810e+000
1	 3.313485459902494e+000	 7.621115520460927e-001	 1.078233407591086e+000
1	 3.305524134521356e+000	 7.959332281968501e-001	-6.344550286890522e-001
1	 3.297193114320970e+000	 8.297690515990595e-001	-2.275409806546574e+000
1	 3.288490638736054e+000	 8.636133751544902e-001	-3.843305879517986e+000
1	 3.279415054160485e+000	 8.974604845374923e-001	-5.336991819590761e+000
1	 3.269964816403907e+000	 9.313046005101893e-001	-6.755493793680225e+000
1	 3.260138493095665e+000	 9.651398813324289e-001	-8.098019330474784e+000
1	 3.249934766032135e+000	 9.989604252654352e-001	-9.363960865700761e+000
1	 2.995025176810348e+000	 9.206066705118043e-001	-7.169774475571103e+000
1	 2.985272871861279e+000	 9.517554169440451e-001	-8.718186909050779e+000
1	 2.975170654820722e+000	 9.828795457048585e-001	-1.015780645320334e+001
1	 2.964717634414845e+000	 1.013973463865370e+000	-1.148866155370804e+001
1	 2.953913032638836e+000	 1.045031533136541e+000	-1.271087931153056e+001
1	 2.942756186611072e+000	 1.076048072588373e+000	-1.382468650771140e+001
1	 2.931246550353865e+000	 1.107017361446401e+000	-1.483041050671403e+001
1	 2.919383696497328e+000	 1.137933641963363e+000	-1.572848003452985e+001
1	 2.907167317903019e+000	 1.168791122363753e+000	-1.651942582794027e+001
1	 2.894597229204027e+000	 1.199583979858828e+000	-1.720388115155323e+001
1	 2.881673368258283e+000	 1.230306363729441e+000	-1.778258217946245e+001
1	 3.020516135733326e+000	 9.284420459871777e-001	-7.565956172256295e+000
1	 3.010680827941015e+000	 9.598559025168253e-001	-9.080141587581544e+000
1	 3.000492629920439e+000	 9.912449318515900e-001	-1.048598550733282e+001
1	 2.989950642812039e+000	 1.022603493460617e+000	-1.178362035345677e+001
1	 2.979054081989313e+000	 1.053925901066823e+000	-1.297328418193594e+001
1	 2.967802278928780e+000	 1.085206425389242e+000	-1.405532162760323e+001
1	 2.956194683005870e+000	 1.116439296963322e+000	-1.503018471346623e+001
1	 2.944230863213301e+000	 1.147618709037035e+000	-1.589843352063233e+001
1	 2.931910509798535e+000	 1.178738820540490e+000	-1.666073671516240e+001
1	 2.919233435816972e+000	 1.209793759126602e+000	-1.731787192842974e+001
1	 2.906199578597639e+000	 1.240777624280165e+000	-1.787072598782895e+001
1	 3.046007094655772e+000	 9.362774214625445e-001	-7.923033906396828e+000
1	 3.036088784020225e+000	 9.679563880896780e-001	-9.402412497605551e+000
1	 3.025814605019650e+000	 9.996103179984717e-001	-1.077407214946772e+001
1	 3.015183651208758e+000	 1.031233523056087e+000	-1.203824444074538e+001
1	 3.004195131339357e+000	 1.062820268997393e+000	-1.319527415987702e+001
1	 2.992848371246103e+000	 1.094364778190455e+000	-1.424562018746793e+001
1	 2.981142815657544e+000	 1.125861232480630e+000	-1.518985622844769e+001
1	 2.969078029928998e+000	 1.157303776111121e+000	-1.602867138982715e+001
1	 2.956653701693830e+000	 1.188686518717652e+000	-1.676287060025828e+001
1	 2.943869642429749e+000	 1.220003538394793e+000	-1.739337486788495e+001
1	 2.930725788936877e+000	 1.251248884831276e+000	-1.792122137327436e+001
1	 3.071498053577817e+000	 9.441127969379057e-001	-8.240937559292430e+000
1	 3.061496740099038e+000	 9.760568736625853e-001	-9.684925476869832e+000
1	 3.051136580118481e+000	 1.007975704145466e+000	-1.102199925713350e+001
1	 3.040416659605120e+000	 1.039863552651724e+000	-1.225248498105871e+001
1	 3.029336180689076e+000	 1.071714636928179e+000	-1.337683010301616e+001
1	 3.017894463563139e+000	 1.103523130991923e+000	-1.439560428831091e+001
1	 3.006090948308972e+000	 1.135283167998225e+000	-1.530950008475871e+001
1	 2.993925196644493e+000	 1.166988843185512e+000	-1.611933342402338e+001
1	 2.981396893588967e+000	 1.198634216895123e+000	-1.682604394874353e+001
1	 2.968505849042415e+000	 1.230213317663281e+000	-1.743069516179759e+001
1	 2.955251999276042e+000	 1.261720145382654e+000	-1.793447439439628e+001
1	 3.096989012499596e+000	 9.519481724132636e-001	-8.519599320799847e+000
1	 3.086904696177589e+000	 9.841573592355289e-001	-9.927608804806662e+000
1	 3.076458555217061e+000	 1.016341090292535e+000	-1.122970191776671e+001
1	 3.065649668001246e+000	 1.048493582247471e+000	-1.242629474768832e+001
1	 3.054477230038581e+000	 1.080609004859105e+000	-1.351793349925095e+001
1	 3.042940555879986e+000	 1.112681483793558e+000	-1.450529530349583e+001
1	 3.031039080960242e+000	 1.144705103516002e+000	-1.538918884514575e+001
1	 3.018772363359863e+000	 1.176673910260097e+000	-1.617055480301628e+001
1	 3.006140085484014e+000	 1.208581915072786e+000	-1.685046609932390e+001
1	 2.993142055655025e+000	 1.240423096931948e+000	-1.743012795405051e+001
1	 2.979778209615192e+000	 1.272191405934185e+000	-1.791087774090673e+001
1	 3.122479971421242e+000	 9.597835478886196e-001	-8.758953595100994e+000
1	 3.112312652256008e+000	 9.922578448084909e-001	-1.013039310286757e+001
1	 3.101780530315511e+000	 1.024706476439641e+000	-1.139711733850955e+001
1	 3.090882676397256e+000	 1.057123611843272e+000	-1.255962805610412e+001
1	 3.079618279387981e+000	 1.089503372790100e+000	-1.361856644098846e+001
1	 3.067986648196746e+000	 1.121839836595271e+000	-1.457471390844558e+001
1	 3.055987213611443e+000	 1.154127039033864e+000	-1.542899270283724e+001
1	 3.043619530075185e+000	 1.186358977334763e+000	-1.618246629233819e+001
1	 3.030883277379037e+000	 1.218529613250524e+000	-1.683633955480044e+001
1	 3.017778262267638e+000	 1.250632876200675e+000	-1.739195875067429e+001
1	 3.004304419954371e+000	 1.282662666485751e+000	-1.785081127932956e+001
1	 3.147970930342888e+000	 9.676189233639759e-001	-8.958936911049323e+000
1	 3.137720608334429e+000	 1.000358330381453e+000	-1.029321123969982e+001
1	 3.127102505413966e+000	 1.033071862586746e+000	-1.152418476038719e+001
1	 3.116115684793268e+000	 1.065753641439071e+000	-1.265244070151439e+001
1	 3.104759328737387e+000	 1.098397740721089e+000	-1.367871160067001e+001
1	 3.093032740513514e+000	 1.130998189396973e+000	-1.460388010890005e+001
1	 3.080935346262660e+000	 1.163548974551708e+000	-1.542897957748028e+001
1	 3.068466696790536e+000	 1.196044044409403e+000	-1.615519442198246e+001
1	 3.055626469274102e+000	 1.228477311428221e+000	-1.678386025884108e+001
1	 3.042414468880311e+000	 1.260842655469342e+000	-1.731646381006333e+001
1	 3.028830630293633e+000	 1.293133927037235e+000	-1.775464257218436e+001
1	 3.173461889264666e+000	 9.754542988393339e-001	-9.119487836837088e+000
1	 3.163128564412980e+000	 1.008458815954396e+000	-1.041599824089252e+001
1	 3.152424480512545e+000	 1.041437248733813e+000	-1.161084537662109e+001
1	 3.141348693189400e+000	 1.074383671034812e+000	-1.270468989943535e+001
1	 3.129900378086907e+000	 1.107292108652000e+000	-1.369835220747481e+001
1	 3.118078832830392e+000	 1.140156542198577e+000	-1.459281326781229e+001
1	 3.105883478913983e+000	 1.172970910069433e+000	-1.538921520645340e+001
1	 3.093313863505989e+000	 1.205729111483904e+000	-1.608886165651418e+001
1	 3.080369661169275e+000	 1.238425009605759e+000	-1.669321785941275e+001
1	 3.067050675493100e+000	 1.271052434737831e+000	-1.720391051438641e+001
1	 3.053356840633026e+000	 1.303605187588521e+000	-1.762272737214875e+001
1	 3.198952848186712e+000	 9.832896743146951e-001	-9.240546898742656e+000
1	 3.188536520491794e+000	 1.016559301527303e+000	-1.049869120303829e+001
1	 3.177746455611379e+000	 1.049802634880804e+000	-1.165704225484843e+001
1	 3.166581701585774e+000	 1.083013700630437e+000	-1.271633422910191e+001
1	 3.155041427436653e+000	 1.116186476582760e+000	-1.367747202513797e+001
1	 3.143124925147480e+000	 1.149314894999995e+000	-1.454153213095848e+001
1	 3.130831611565500e+000	 1.182392845586940e+000	-1.530976323181374e+001
1	 3.118161030221623e+000	 1.215414178558155e+000	-1.598358655704732e+001
1	 3.105112853064622e+000	 1.248372707783021e+000	-1.656459595961880e+001
1	 3.091686882106063e+000	 1.281262214006022e+000	-1.705455772323851e+001
1	 3.077883050972602e+000	 1.314076448139490e+000	-1.745541009259376e+001
1	 3.224443807109157e+000	 9.911250497900617e-001	-9.322056503731671e+000
1	 3.213944476571004e+000	 1.024659787100156e+000	-1.054122921187097e+001
1	 3.203068430710595e+000	 1.058168021027681e+000	-1.166272026303026e+001
1	 3.191814709982508e+000	 1.091643730225892e+000	-1.268733357956297e+001
1	 3.180182476786732e+000	 1.125080844513294e+000	-1.361605533082022e+001
1	 3.168171017464872e+000	 1.158473247801138e+000	-1.445005485133332e+001
1	 3.155779744217294e+000	 1.191814781104125e+000	-1.519068528312008e+001
1	 3.143008196937514e+000	 1.225099245632047e+000	-1.583948393553882e+001
1	 3.129856044960207e+000	 1.258320405959892e+000	-1.639817235663837e+001
1	 3.116323088719257e+000	 1.291471993273796e+000	-1.686865611051859e+001
1	 3.102409261312411e+000	 1.324547708690029e+000	-1.725302425580037e+001
1	 3.249934766032135e+000	 9.989604252654352e-001	-9.363960865700761e+000
1	 3.239352432650741e+000	 1.032760272672935e+000	-1.054355326425616e+001
1	 3.228390405810319e+000	 1.066533407174408e+000	-1.162782599884687e+001
1	 3.217047718379722e+000	 1.100273759821121e+000	-1.261764909831300e+001
1	 3.205323526137257e+000	 1.133975212443531e+000	-1.351408689497276e+001
1	 3.193217109782673e+000	 1.167631600601917e+000	-1.431839901239698e+001
1	 3.180727876869459e+000	 1.201236716620890e+000	-1.503204105635803e+001
1	 3.167855363653739e+000	 1.234784312705469e+000	-1.565666500182167e+001
1	 3.154599236856098e+000	 1.268268104136253e+000	-1.619411926942079e+001
1	 3.140959295332737e+000	 1.301681772541034e+000	-1.664644848545330e+001
1	 3.126935471652506e+000	 1.335018969240017e+000	-1.701589292008243e+001
1	 2.881673368258283e+000	 1.230306363729441e+000	-1.778258217946245e+001
1	 2.868397815937404e+000	 1.260947808074110e+000	-1.827315081095610e+001
1	 2.854768850366805e+000	 1.291507033333439e+000	-1.869398693894023e+001
1	 2.840786788950489e+000	 1.321978128413373e+000	-1.904699197161838e+001
1	 2.826452077113804e+000	 1.352355167314767e+000	-1.933427705241303e+001
1	 2.811765289274061e+000	 1.382632212507476e+000	-1.955816220886045e+001
1	 2.796727129707190e+000	 1.412803318353237e+000	-1.972117513891389e+001
1	 2.781338433307961e+000	 1.442862534573747e+000	-1.982604963146296e+001
1	 2.765600166241468e+000	 1.472803909760124e+000	-1.987572361872032e+001
1	 2.749513426483719e+000	 1.502621494919892e+000	-1.987333685899384e+001
1	 2.733079444249319e+000	 1.532309347057451e+000	-1.982222824924837e+001
1	 2.906199578597639e+000	 1.240777624280165e+000	-1.787072598782894e+001
1	 2.892811036722655e+000	 1.271679861023362e+000	-1.833806076460332e+001
1	 2.879066073662389e+000	 1.302499178906337e+000	-1.873921023330671e+001
1	 2.864965009522325e+000	 1.333229616525127e+000	-1.907592677573996e+001
1	 2.850508293518876e+000	 1.363865197443819e+000	-1.935016362158530e+001
1	 2.835696504958288e+000	 1.394399933597354e+000	-1.956407413048318e+001
1	 2.820530354110669e+000	 1.424827828743552e+000	-1.972001072778637e+001
1	 2.805010682976676e+000	 1.455142881960698e+000	-1.982052349075091e+001
1	 2.789138465944542e+000	 1.485339091186877e+000	-1.986835838272699e+001
1	 2.772914810335271e+000	 1.515410456797143e+000	-1.986645513373824e+001
1	 2.756340956833962e+000	 1.545350985214472e+000	-1.981794476668440e+001
1	 2.930725788936877e+000	 1.251248884831276e+000	-1.792122137327436e+001
1	 2.917224257507826e+000	 1.282411913972944e+000	-1.836618732872139e+001
1	 2.903363296957933e+000	 1.313491324479491e+000	-1.874841485842716e+001
1	 2.889143230094151e+000	 1.344481104637046e+000	-1.906950458682006e+001
1	 2.874564509923965e+000	 1.375375227572934e+000	-1.933124830758561e+001
1	 2.859627720642561e+000	 1.406167654687189e+000	-1.953562839841601e+001
1	 2.844333578514223e+000	 1.436852339133718e+000	-1.968481690718933e+001
1	 2.828682932645491e+000	 1.467423229347398e+000	-1.978117430631249e+001
1	 2.812676765647745e+000	 1.497874272613285e+000	-1.982724791271980e+001
1	 2.796316194186985e+000	 1.528199418673973e+000	-1.982576997180196e+001
1	 2.779602469418804e+000	 1.558392623371014e+000	-1.977965540433878e+001
1	 2.955251999276042e+000	 1.261720145382654e+000	-1.793447439439628e+001
1	 2.941637478292967e+000	 1.293143966922747e+000	-1.835803720094428e+001
1	 2.927660520253484e+000	 1.324483470052802e+000	-1.872219558349858e+001
1	 2.913321450666013e+000	 1.355732592749046e+000	-1.902839577101912e+001
1	 2.898620726329122e+000	 1.386885257702044e+000	-1.927826470377307e+001
1	 2.883558936326929e+000	 1.417935375776931e+000	-1.947360958027764e+001
1	 2.868136802917897e+000	 1.448876849523700e+000	-1.961641709489484e+001
1	 2.852355182314455e+000	 1.479703576733828e+000	-1.970885236280602e+001
1	 2.836215065351122e+000	 1.510409454039345e+000	-1.975325752980585e+001
1	 2.819717578038901e+000	 1.540988380550389e+000	-1.975215006508891e+001
1	 2.802863982003877e+000	 1.571434261527091e+000	-1.970822073595400e+001
1	 2.979778209615192e+000	 1.272191405934185e+000	-1.791087774090673e+001
1	 2.966050699078124e+000	 1.303876019872661e+000	-1.831410039662709e+001
1	 2.951957743549080e+000	 1.335475615626169e+000	-1.866112759581137e+001
1	 2.937499671237958e+000	 1.366984080861041e+000	-1.895324862367164e+001
1	 2.922676942734390e+000	 1.398395287831081e+000	-1.919192225101768e+001
1	 2.907490152011438e+000	 1.429703096866527e+000	-1.937877641294467e+001
1	 2.891940027321740e+000	 1.460901359913464e+000	-1.951560759884850e+001
1	 2.876027431983615e+000	 1.491983924119971e+000	-1.960437995051086e+001
1	 2.859753365054722e+000	 1.522944635465056e+000	-1.964722406566006e+001
1	 2.843118961891063e+000	 1.553777342426400e+000	-1.964643550509253e+001
1	 2.826125494589216e+000	 1.584475899682720e+000	-1.960447300214085e+001
1	 3.004304419954371e+000	 1.282662666485751e+000	-1.785081127932956e+001
1	 2.990463919863343e+000	 1.314608072822576e+000	-1.823485092979074e+001
1	 2.976254966844774e+000	 1.346467761199496e+000	-1.856576730005274e+001
1	 2.961677891810028e+000	 1.378235568972947e+000	-1.884469027018316e+001
1	 2.946733159139816e+000	 1.409905317959976e+000	-1.907290722356764e+001
1	 2.931421367696138e+000	 1.441470817955927e+000	-1.925186285692285e+001
1	 2.915743251725804e+000	 1.472925870302979e+000	-1.938315872375072e+001
1	 2.899699681653019e+000	 1.504264271505810e+000	-1.946855250801427e+001
1	 2.883291664758588e+000	 1.535479816890413e+000	-1.950995702541984e+001
1	 2.866520345743509e+000	 1.566566304302014e+000	-1.950943895032025e+001
1	 2.849387007174854e+000	 1.597517537837919e+000	-1.946921726689293e+001
1	 3.028830630293633e+000	 1.293133927037235e+000	-1.775464257218436e+001
1	 3.014877140648669e+000	 1.325340125772381e+000	-1.812074746098298e+001
1	 3.000552190140604e+000	 1.357459906772683e+000	-1.843665307877518e+001
1	 2.985856112382270e+000	 1.389487057084677e+000	-1.870332752315660e+001
1	 2.970789375545449e+000	 1.421415348088662e+000	-1.892188366701791e+001
1	 2.955352583381074e+000	 1.453238539045079e+000	-1.909357909949058e+001
1	 2.939546476130134e+000	 1.484950380692208e+000	-1.921981582387429e+001
1	 2.923371931322718e+000	 1.516544618891328e+000	-1.930213970938081e+001
1	 2.906829964462770e+000	 1.548014998315415e+000	-1.934223969407973e+001
1	 2.889921729596284e+000	 1.579355266177241e+000	-1.934194673699793e+001
1	 2.872648519760825e+000	 1.610559175992701e+000	-1.930323251791140e+001
1	 3.053356840633026e+000	 1.303605187588521e+000	-1.762272737214875e+001
1	 3.039290361434153e+000	 1.336072178721969e+000	-1.797223391391540e+001
1	 3.024849413436621e+000	 1.368452052345632e+000	-1.827430601621422e+001
1	 3.010034332954730e+000	 1.400738545196150e+000	-1.852974769820980e+001
1	 2.994845591951333e+000	 1.432925378217068e+000	-1.873949429107311e+001
1	 2.979283799066296e+000	 1.465006260133933e+000	-1.890461250949663e+001
1	 2.963349700534780e+000	 1.496974891081117e+000	-1.902630030514106e+001
1	 2.947044180992757e+000	 1.528824966276507e+000	-1.910588649892573e+001
1	 2.930368264167312e+000	 1.560550179740057e+000	-1.914483018956325e+001
1	 2.913323113449429e+000	 1.592144228052089e+000	-1.914471993624406e+001
1	 2.895910032347164e+000	 1.623600814147085e+000	-1.910727271389887e+001
1	 3.077883050972602e+000	 1.314076448139490e+000	-1.745541009259376e+001
1	 3.063703582219838e+000	 1.346804231671227e+000	-1.778974006261800e+001
1	 3.049146636732866e+000	 1.379444197918242e+000	-1.807923058749973e+001
1	 3.034212553527452e+000	 1.411990033307279e+000	-1.832451939078715e+001
1	 3.018901808357516e+000	 1.444435408345127e+000	-1.852636131962635e+001
1	 3.003215014751850e+000	 1.476773981222436e+000	-1.868562854650687e+001
1	 2.987152924939790e+000	 1.508999401469674e+000	-1.880331057928806e+001
1	 2.970716430663188e+000	 1.541105313661330e+000	-1.888051407651334e+001
1	 2.953906563872260e+000	 1.573085361164339e+000	-1.891846246544613e+001
1	 2.936724497302985e+000	 1.604933189926567e+000	-1.891849536069859e+001
1	 2.919171544933902e+000	 1.636642452301086e+000	-1.888206778178174e+001
1	 3.102409261312411e+000	 1.324547708690029e+000	-1.725302425580037e+001
1	 3.088116803005770e+000	 1.357536284620048e+000	-1.757368209074373e+001
1	 3.073443860029386e+000	 1.390436343490417e+000	-1.785191531517528e+001
1	 3.058390774100482e+000	 1.423241521417980e+000	-1.808819321612504e+001
1	 3.042958024764041e+000	 1.455945438472770e+000	-1.828308730051608e+001
1	 3.027146230437786e+000	 1.488541702310539e+000	-1.843727162682788e+001
1	 3.010956149345214e+000	 1.521023911857844e+000	-1.855152297277458e+001
1	 2.994388680334057e+000	 1.553385661045779e+000	-1.862672083612093e+001
1	 2.977444863577661e+000	 1.585620542588254e+000	-1.866384726611709e+001
1	 2.960125881156992e+000	 1.617722151800683e+000	-1.866398652340454e+001
1	 2.942433057521075e+000	 1.649684090454720e+000	-1.862832456663015e+001
1	 3.126935471652506e+000	 1.335018969240017e+000	-1.701589292008243e+001
1	 3.112530023792000e+000	 1.368268337568320e+000	-1.732446312455103e+001
1	 3.097741083326226e+000	 1.401428489062056e+000	-1.759283339482127e+001
1	 3.082568994673866e+000	 1.434493009528169e+000	-1.782130251439338e+001
1	 3.067014241170958e+000	 1.467455468599930e+000	-1.801025587717483e+001
1	 3.051077446124149e+000	 1.500309423398188e+000	-1.816016594877404e+001
1	 3.034759373751101e+000	 1.533048422245595e+000	-1.827159259291508e+001
1	 3.018060930005413e+000	 1.565666008429837e+000	-1.834518326023183e+001
1	 3.000983163283563e+000	 1.598155724011803e+000	-1.838167303698743e+001
1	 2.983527265011495e+000	 1.630511113674446e+000	-1.838188455156340e+001
1	 2.965694570108715e+000	 1.662725728608005e+000	-1.834672773687429e+001
1	 2.733079444249319e+000	 1.532309347057451e+000	-1.982222824924837e+001
1	 2.716297039568712e+000	 1.561865955864427e+000	-1.972890202833420e+001
1	 2.699170149807902e+000	 1.591280936462618e+000	-1.959684866767213e+001
1	 2.681700406264190e+000	 1.620548384726113e+000	-1.942497001766514e+001
1	 2.663889573078078e+000	 1.649662417173072e+000	-1.921212874758757e+001
1	 2.645739547069145e+000	 1.678617174651289e+000	-1.895715031045715e+001
1	 2.627252357450539e+000	 1.707406826031018e+000	-1.865882501444773e+001
1	 2.608430165421336e+000	 1.736025571900472e+000	-1.831591019766388e+001
1	 2.589275263636230e+000	 1.764467648259312e+000	-1.792713250278166e+001
1	 2.569790075552225e+000	 1.792727330205412e+000	-1.749119024774952e+001
1	 2.549977154652176e+000	 1.820798935610175e+000	-1.700675588843950e+001
1	 2.756340956833962e+000	 1.545350985214472e+000	-1.981794476668440e+001
1	 2.739415715428227e+000	 1.575159153276105e+000	-1.972734784167237e+001
1	 2.722143056995375e+000	 1.604824487717099e+000	-1.959631023009100e+001
1	 2.704524626716821e+000	 1.634341034160934e+000	-1.942373403065303e+001
1	 2.686562203747828e+000	 1.663702859050866e+000	-1.920848706712357e+001
1	 2.668257701051978e+000	 1.692904053366853e+000	-1.894940491390765e+001
1	 2.649613165113236e+000	 1.721938736349818e+000	-1.864529302055682e+001
1	 2.630630775524841e+000	 1.750801059228598e+000	-1.829492893181182e+001
1	 2.611312844454485e+000	 1.779485208944865e+000	-1.789706459949987e+001
1	 2.591661815985435e+000	 1.807985411871277e+000	-1.745042878230995e+001
1	 2.571680265333476e+000	 1.836295937518066e+000	-1.695372952918662e+001
1	 2.779602469418804e+000	 1.558392623371014e+000	-1.977965540433878e+001
1	 2.762534391287984e+000	 1.588452350687268e+000	-1.969154255333625e+001
1	 2.745115964183133e+000	 1.618368038971052e+000	-1.956135673556360e+001
1	 2.727348847169785e+000	 1.648133683595235e+000	-1.938802587670999e+001
1	 2.709234834417954e+000	 1.677743300928162e+000	-1.917044934315946e+001
1	 2.690775855035223e+000	 1.707190932081952e+000	-1.890749998902424e+001
1	 2.671973972776374e+000	 1.736470646668198e+000	-1.859802629261278e+001
1	 2.652831385628806e+000	 1.765576546556352e+000	-1.824085457881220e+001
1	 2.633350425273202e+000	 1.794502769630098e+000	-1.783479132358680e+001
1	 2.613533556419094e+000	 1.823243493536873e+000	-1.737862553652373e+001
1	 2.593383376015194e+000	 1.851792939425738e+000	-1.687113121709508e+001
1	 2.802863982003877e+000	 1.571434261527091e+000	-1.970822073595400e+001
1	 2.785653067148001e+000	 1.601745548097935e+000	-1.962233893984751e+001
1	 2.768088871371186e+000	 1.631911590224498e+000	-1.949284476699647e+001
1	 2.750173067623071e+000	 1.661926333029028e+000	-1.931871692691579e+001
1	 2.731907465088428e+000	 1.691783742804963e+000	-1.909891208154138e+001
1	 2.713294009018838e+000	 1.721477810796585e+000	-1.883236687497060e+001
1	 2.694334780439896e+000	 1.751002556986143e+000	-1.851800004131454e+001
1	 2.675031995733160e+000	 1.780352033883711e+000	-1.815471458706732e+001
1	 2.655388006092303e+000	 1.809520330314979e+000	-1.774140004414828e+001
1	 2.635405296853119e+000	 1.838501575202161e+000	-1.727693478952936e+001
1	 2.615086486697246e+000	 1.867289941333142e+000	-1.676018842712745e+001
1	 2.826125494589216e+000	 1.584475899682720e+000	-1.960447300214085e+001
1	 2.808771743008305e+000	 1.615038745508126e+000	-1.952056170130846e+001
1	 2.791061778559539e+000	 1.645455141477451e+000	-1.939160270555700e+001
1	 2.772997288076671e+000	 1.675718982462326e+000	-1.921664986373233e+001
1	 2.754580095759225e+000	 1.705824184681277e+000	-1.899474227197206e+001
1	 2.735812163002780e+000	 1.735764689510745e+000	-1.872490624793078e+001
1	 2.716695588103744e+000	 1.765534467303638e+000	-1.840615736997494e+001
1	 2.697232605837831e+000	 1.795127521210649e+000	-1.803750257774335e+001
1	 2.677425586911707e+000	 1.824537890999472e+000	-1.761794233025212e+001
1	 2.657277037287426e+000	 1.853759656867095e+000	-1.714647281751191e+001
1	 2.636789597379548e+000	 1.882786943240229e+000	-1.662208822142731e+001
1	 2.849387007174854e+000	 1.597517537837919e+000	-1.946921726689293e+001
1	 2.831890418868915e+000	 1.628331942917860e+000	-1.938700860743762e+001
1	 2.814034685748200e+000	 1.658998692729930e+000	-1.925843188182484e+001
1	 2.795821508530576e+000	 1.689511631895143e+000	-1.908263985202807e+001
1	 2.777252726430319e+000	 1.719864626557111e+000	-1.885877859281357e+001
1	 2.758330316987008e+000	 1.750051568224429e+000	-1.858598937272410e+001
1	 2.739056395767859e+000	 1.780066377620672e+000	-1.826341058509419e+001
1	 2.719433215942750e+000	 1.809903008537142e+000	-1.789017972554520e+001
1	 2.699463167731333e+000	 1.839555451683542e+000	-1.746543541222986e+001
1	 2.679148777721929e+000	 1.869017738531632e+000	-1.698831944492478e+001
1	 2.658492708062018e+000	 1.898283945146948e+000	-1.645797889890768e+001
1	 2.872648519760825e+000	 1.610559175992701e+000	-1.930323251791140e+001
1	 2.855009094729853e+000	 1.641625140327157e+000	-1.922245158792523e+001
1	 2.837007592937177e+000	 1.672542243981954e+000	-1.909410767101347e+001
1	 2.818645728984778e+000	 1.703304281327492e+000	-1.891747565320821e+001
1	 2.799925357101684e+000	 1.733905068432467e+000	-1.869183255735454e+001
1	 2.780848470971474e+000	 1.764338446937635e+000	-1.841645929360990e+001
1	 2.761417203432183e+000	 1.794598287937230e+000	-1.809064244325874e+001
1	 2.741633826047843e+000	 1.824678495863167e+000	-1.771367607240625e+001
1	 2.721500748551104e+000	 1.854573012367156e+000	-1.728486357198077e+001
1	 2.701020518156544e+000	 1.884275820195731e+000	-1.680351952034420e+001
1	 2.680195818744572e+000	 1.913780947053250e+000	-1.626897156469377e+001
1	 2.895910032347164e+000	 1.623600814147085e+000	-1.910727271389887e+001
1	 2.878127770591143e+000	 1.654918337736034e+000	-1.902763777023793e+001
1	 2.859980500126479e+000	 1.686085795233540e+000	-1.889938053540779e+001
1	 2.841469949439266e+000	 1.717096930759384e+000	-1.872192068564857e+001
1	 2.822597987773293e+000	 1.747945510307352e+000	-1.849468960483253e+001
1	 2.803366624956139e+000	 1.778625325650358e+000	-1.821713196770139e+001
1	 2.783778011096657e+000	 1.809130198253295e+000	-1.788870733794511e+001
1	 2.763834436153042e+000	 1.839453983188697e+000	-1.750889177786414e+001
1	 2.743538329370936e+000	 1.869590573050278e+000	-1.707717946626951e+001
1	 2.722892258591186e+000	 1.899533901859346e+000	-1.659308432119493e+001
1	 2.701898929427128e+000	 1.929277948959084e+000	-1.605614162392573e+001
1	 2.919171544933902e+000	 1.636642452301086e+000	-1.888206778178174e+001
1	 2.901246446452805e+000	 1.668211535144511e+000	-1.880329046780565e+001
1	 2.882953407316110e+000	 1.699629346484705e+000	-1.867497701696110e+001
1	 2.864294169894033e+000	 1.730889580190834e+000	-1.849671403442913e+001
1	 2.845270618445120e+000	 1.761985952181772e+000	-1.826811013929335e+001
1	 2.825884778940959e+000	 1.792912204362594e+000	-1.798879734418896e+001
1	 2.806138818761224e+000	 1.823662108568856e+000	-1.765843242958142e+001
1	 2.786035046258275e+000	 1.854229470513709e+000	-1.727669830965470e+001
1	 2.765575910190752e+000	 1.884608133732874e+000	-1.684330538675561e+001
1	 2.744763999025769e+000	 1.914791983522435e+000	-1.635799289131395e+001
1	 2.723602040109601e+000	 1.944774950864403e+000	-1.582053020414096e+001
1	 2.942433057521075e+000	 1.649684090454720e+000	-1.862832456663015e+001
1	 2.924365122314864e+000	 1.681504732552608e+000	-1.855011012133480e+001
1	 2.905926314506080e+000	 1.713172897735468e+000	-1.842160068281034e+001
1	 2.887118390349068e+000	 1.744682229621855e+000	-1.824257141317278e+001
1	 2.867943249117140e+000	 1.776026394055732e+000	-1.801283051917392e+001
1	 2.848402932925892e+000	 1.807199083074340e+000	-1.773222039237320e+001
1	 2.828499626425823e+000	 1.838194018883898e+000	-1.740061872200662e+001
1	 2.808235656363468e+000	 1.869004957838178e+000	-1.701793957783228e+001
1	 2.787613491010468e+000	 1.899625694414908e+000	-1.658413446025544e+001
1	 2.766635739460211e+000	 1.930050065184955e+000	-1.609919331506953e+001
1	 2.745305150791909e+000	 1.960271952769154e+000	-1.556314551018848e+001
1	 2.965694570108715e+000	 1.662725728608005e+000	-1.834672773687429e+001
1	 2.947483798177339e+000	 1.694797929960343e+000	-1.826877519582283e+001
1	 2.928899221696399e+000	 1.726716448985847e+000	-1.813993302629407e+001
1	 2.909942610804364e+000	 1.758474879052459e+000	-1.796018608061856e+001
1	 2.890615879789325e+000	 1.790066835929240e+000	-1.772956400031435e+001
1	 2.870921086910895e+000	 1.821485961785593e+000	-1.744814208131697e+001
1	 2.850860434090400e+000	 1.852725929198409e+000	-1.711604208827001e+001
1	 2.830436266468554e+000	 1.883780445162079e+000	-1.673343301551697e+001
1	 2.809651071830005e+000	 1.914643255096347e+000	-1.630053179251872e+001
1	 2.788507479894427e+000	 1.945308146846861e+000	-1.581760393151876e+001
1	 2.767008261473969e+000	 1.975768954673289e+000	-1.528496411537915e+001
1	 2.549977154652176e+000	 1.820798935610175e+000	-1.700675588843949e+001
1	 2.529839182825770e+000	 1.848676828161380e+000	-1.648269668990344e+001
1	 2.509378967208838e+000	 1.876355419114987e+000	-1.592984626046818e+001
1	 2.488599441235097e+000	 1.903829172691866e+000	-1.534985422531628e+001
1	 2.467503664099979e+000	 1.931092610269970e+000	-1.474442901583066e+001
1	 2.446094819379461e+000	 1.958140313934778e+000	-1.411533540315775e+001
1	 2.424376213529278e+000	 1.984966929989930e+000	-1.346439192509173e+001
1	 2.402351274265838e+000	 2.011567172423368e+000	-1.279346821099653e+001
1	 2.380023548830396e+000	 2.037935826324343e+000	-1.210448220976596e+001
1	 2.357396702138208e+000	 2.064067751246718e+000	-1.139939732609028e+001
1	 2.334474514814633e+000	 2.089957884514068e+000	-1.068021947055226e+001
1	 2.571680265333476e+000	 1.836295937518066e+000	-1.695372952918663e+001
1	 2.551370897214118e+000	 1.864411101601794e+000	-1.641667028488881e+001
1	 2.530736542655011e+000	 1.892325267812062e+000	-1.585111272525351e+001
1	 2.509780160056639e+000	 1.920032853254174e+000	-1.525904060680903e+001
1	 2.488504834651567e+000	 1.947528332676984e+000	-1.464250514901309e+001
1	 2.466913777111522e+000	 1.974806242053562e+000	-1.400362198227544e+001
1	 2.445010322033828e+000	 2.001861182121705e+000	-1.334456797071947e+001
1	 2.422797926308551e+000	 2.028687821879579e+000	-1.266757791557462e+001
1	 2.400280167367885e+000	 2.055280902031814e+000	-1.197494114542648e+001
1	 2.377460741319561e+000	 2.081635238381420e+000	-1.126899799986935e+001
1	 2.354343460966237e+000	 2.107745725163034e+000	-1.055213621340644e+001
1	 2.593383376015194e+000	 1.851792939425738e+000	-1.687113121709508e+001
1	 2.572902611602827e+000	 1.880145375042032e+000	-1.632288245513103e+001
1	 2.552094118101472e+000	 1.908295116508996e+000	-1.574673578786338e+001
1	 2.530960878878383e+000	 1.936236533816367e+000	-1.514493667141606e+001
1	 2.509506005203260e+000	 1.963964055083904e+000	-1.451980455568847e+001
1	 2.487732734843586e+000	 1.991472170172263e+000	-1.387372936485203e+001
1	 2.465644430538283e+000	 2.018755434253400e+000	-1.320916783828287e+001
1	 2.443244578351073e+000	 2.045808471335706e+000	-1.252863973876701e+001
1	 2.420536785905097e+000	 2.072625977739186e+000	-1.183472393518644e+001
1	 2.397524780500567e+000	 2.099202725516004e+000	-1.113005436725404e+001
1	 2.374212407117443e+000	 2.125533565811849e+000	-1.041731590019839e+001
1	 2.615086486697246e+000	 1.867289941333142e+000	-1.676018842712744e+001
1	 2.594434325991823e+000	 1.895879648482040e+000	-1.620261868653435e+001
1	 2.573451693548162e+000	 1.924264965205733e+000	-1.561802394172803e+001
1	 2.552141597700285e+000	 1.952440214378395e+000	-1.500884071269103e+001
1	 2.530507175755037e+000	 1.980399777490679e+000	-1.437758395462632e+001
1	 2.508551692575658e+000	 2.008138098290837e+000	-1.372684318724683e+001
1	 2.486278539042669e+000	 2.035649686384982e+000	-1.305927847442267e+001
1	 2.463691230393453e+000	 2.062929120791726e+000	-1.237761626173526e+001
1	 2.440793404442102e+000	 2.089971053446450e+000	-1.168464507989160e+001
1	 2.417588819681313e+000	 2.116770212650470e+000	-1.098321112233468e+001
1	 2.394081353268350e+000	 2.143321406460531e+000	-1.027621370574731e+001
1	 2.636789597379548e+000	 1.882786943240229e+000	-1.662208822142731e+001
1	 2.615966040381032e+000	 1.911613921921763e+000	-1.605712214225834e+001
1	 2.594809268995017e+000	 1.940234813902221e+000	-1.546624260004367e+001
1	 2.573322316522302e+000	 1.968643894940201e+000	-1.485200827976960e+001
1	 2.551508346306874e+000	 1.996835499897263e+000	-1.421705868896711e+001
1	 2.529370650307737e+000	 2.024804026409246e+000	-1.356411005047489e+001
1	 2.506912647547008e+000	 2.052543938516415e+000	-1.289595103964981e+001
1	 2.484137882435739e+000	 2.080049770247615e+000	-1.221543837406281e+001
1	 2.461050022978969e+000	 2.107316129153593e+000	-1.152549226413764e+001
1	 2.437652858861884e+000	 2.134337699784819e+000	-1.082909173359097e+001
1	 2.413950299419056e+000	 2.161109247109096e+000	-1.012926981890679e+001
1	 2.658492708062018e+000	 1.898283945146948e+000	-1.645797889890768e+001
1	 2.637497754770377e+000	 1.927348195361151e+000	-1.588759539026670e+001
1	 2.616166844441978e+000	 1.956204662598404e+000	-1.529261585424123e+001
1	 2.594503035344391e+000	 1.984847575501736e+000	-1.467565392213062e+001
1	 2.572509516858753e+000	 2.013271222303607e+000	-1.403940441511168e+001
1	 2.550189608039823e+000	 2.041469954527444e+000	-1.338663911356898e+001
1	 2.527546756051328e+000	 2.069438190647670e+000	-1.272020236908020e+001
1	 2.504584534477978e+000	 2.097170419703349e+000	-1.204300656735654e+001
1	 2.481306641515769e+000	 2.124661204860606e+000	-1.135802745086834e+001
1	 2.457716898042370e+000	 2.151905186919057e+000	-1.066829931028861e+001
1	 2.433819245569663e+000	 2.178897087757560e+000	-9.976910054268917e+000
1	 2.680195818744572e+000	 1.913780947053250e+000	-1.626897156469377e+001
1	 2.659029469159782e+000	 1.943082468800149e+000	-1.569520204694249e+001
1	 2.637524419888981e+000	 1.972174511294227e+000	-1.509832814701835e+001
1	 2.615683754166509e+000	 2.001051256062946e+000	-1.448095284958684e+001
1	 2.593510687410650e+000	 2.029706944709663e+000	-1.384575870955471e+001
1	 2.571008565771922e+000	 2.058135882645392e+000	-1.319550360952835e+001
1	 2.548180864555652e+000	 2.086332442778711e+000	-1.253301636219872e+001
1	 2.525031186520220e+000	 2.114291069158906e+000	-1.186119216599766e+001
1	 2.501563260052568e+000	 2.142006280567475e+000	-1.118298792279175e+001
1	 2.477780937222855e+000	 2.169472674053183e+000	-1.050141742678175e+001
1	 2.453688191720270e+000	 2.196684928405941e+000	-9.819546434148215e+000
1	 2.701898929427128e+000	 1.929277948959084e+000	-1.605614162392573e+001
1	 2.680561183549176e+000	 1.958816742238703e+000	-1.548106834148864e+001
1	 2.658881995335965e+000	 1.988144359989638e+000	-1.488452586474014e+001
1	 2.636864472988612e+000	 2.017254936623779e+000	-1.426904251227257e+001
1	 2.614511857962542e+000	 2.046142667115382e+000	-1.363722259827707e+001
1	 2.591827523504031e+000	 2.074801810763048e+000	-1.299174228820481e+001
1	 2.568814973060009e+000	 2.103226694909506e+000	-1.233534530564322e+001
1	 2.545477838562512e+000	 2.131411718614264e+000	-1.167083849857647e+001
1	 2.521819878589436e+000	 2.159351356274191e+000	-1.100108727360545e+001
1	 2.497844976403427e+000	 2.187040161187200e+000	-1.032901090708794e+001
1	 2.473557137870976e+000	 2.214472769054255e+000	-9.657577742517088e+000
1	 2.723602040109601e+000	 1.944774950864403e+000	-1.582053020414096e+001
1	 2.702092897938480e+000	 1.974551015676761e+000	-1.524628460553281e+001
1	 2.680239570782871e+000	 2.004114208684583e+000	-1.465231885370430e+001
1	 2.658045191810659e+000	 2.033458617184183e+000	-1.404102410508951e+001
1	 2.635513028514410e+000	 2.062578389520717e+000	-1.341486201301542e+001
1	 2.612646481236155e+000	 2.091467738880369e+000	-1.277636079020377e+001
1	 2.589449081564420e+000	 2.120120947040020e+000	-1.212811113274467e+001
1	 2.565924490604902e+000	 2.148532368069397e+000	-1.147276201331927e+001
1	 2.542076497126445e+000	 2.176696431980742e+000	-1.081301635182980e+001
1	 2.517909015584173e+000	 2.204607648321110e+000	-1.015162657195156e+001
1	 2.493426084021882e+000	 2.232260609702518e+000	-9.491390052456524e+000
1	 2.745305150791909e+000	 1.960271952769154e+000	-1.556314551018848e+001
1	 2.723624612327620e+000	 1.990285289114268e+000	-1.499190669207541e+001
1	 2.701597146229636e+000	 2.020084057379004e+000	-1.440278186448602e+001
1	 2.679225910632606e+000	 2.049662297744105e+000	-1.379796400079264e+001
1	 2.656514199066231e+000	 2.079014111925619e+000	-1.317970917845667e+001
1	 2.633465438968294e+000	 2.108133666997313e+000	-1.255033295561602e+001
1	 2.610083190068913e+000	 2.137015199170220e+000	-1.191220662332333e+001
1	 2.586371142647441e+000	 2.165653017524285e+000	-1.126775334060739e+001
1	 2.562333115663662e+000	 2.194041507687117e+000	-1.061944415987249e+001
1	 2.537973054765180e+000	 2.222175135454915e+000	-9.969793950471711e+000
1	 2.513295030173088e+000	 2.250048450350747e+000	-9.321357228588497e+000
1	 2.767008261473969e+000	 1.975768954673289e+000	-1.528496411537915e+001
1	 2.745156326716522e+000	 2.006019562551172e+000	-1.471895732766030e+001
1	 2.722954721676199e+000	 2.036053906072851e+000	-1.413695592830927e+001
1	 2.700406629454409e+000	 2.065865978303493e+000	-1.354089511563276e+001
1	 2.677515369617984e+000	 2.095449834330040e+000	-1.293276393414939e+001
1	 2.654284396700450e+000	 2.124799595113840e+000	-1.231460207115928e+001
1	 2.630717298573514e+000	 2.153909451300074e+000	-1.168849654702103e+001
1	 2.606817794690176e+000	 2.182773666978905e+000	-1.105657830549207e+001
1	 2.582589734201158e+000	 2.211386583393304e+000	-1.042101871078161e+001
1	 2.558037093946535e+000	 2.239742622588618e+000	-9.784025958240006e+000
1	 2.533163976324692e+000	 2.267836290998959e+000	-9.147841405862952e+000
1	 2.334474514814633e+000	 2.089957884514068e+000	-1.068021947055226e+001
1	 2.311264384991489e+000	 2.115597417230627e+000	-9.959500982980774e+000
1	 2.287766902175921e+000	 2.140985357364761e+000	-9.247697937203489e+000
1	 2.263986181384555e+000	 2.166116898914945e+000	-8.544022207092969e+000
1	 2.239926444295831e+000	 2.190987326190443e+000	-7.847678278573011e+000
1	 2.215592016756413e+000	 2.215592016756413e+000	-7.157864333405538e+000
1	 2.190987326190443e+000	 2.239926444295830e+000	-6.473773342019555e+000
1	 2.166116898914944e+000	 2.263986181384554e+000	-5.794594163213786e+000
1	 2.140985357364761e+000	 2.287766902175921e+000	-5.119512648546953e+000
1	 2.115597417230628e+000	 2.311264384991487e+000	-4.447712749221855e+000
1	 2.089957884514069e+000	 2.334474514814633e+000	-3.778377623264564e+000
1	 2.354343460966237e+000	 2.107745725163034e+000	-1.055213621340644e+001
1	 2.330935787405982e+000	 2.133603478507495e+000	-9.836785159134003e+000
1	 2.307238315163294e+000	 2.159207497939899e+000	-9.132648656700237e+000
1	 2.283255194278109e+000	 2.184552936554364e+000	-8.438368830695108e+000
1	 2.258990682359991e+000	 2.209635038524450e+000	-7.752569161244871e+000
1	 2.234449142073308e+000	 2.234449142073308e+000	-7.073856662816375e+000
1	 2.209635038524449e+000	 2.258990682359990e+000	-6.400824091373821e+000
1	 2.184552936554365e+000	 2.283255194278108e+000	-5.732052175339243e+000
1	 2.159207497939899e+000	 2.307238315163294e+000	-5.066111865746292e+000
1	 2.133603478507496e+000	 2.330935787405981e+000	-4.401566600931147e+000
1	 2.107745725163034e+000	 2.354343460966237e+000	-3.736974581070950e+000
1	 2.374212407117443e+000	 2.125533565811849e+000	-1.041731590019839e+001
1	 2.350607189820048e+000	 2.151609539784174e+000	-9.708637109165366e+000
1	 2.326709728150233e+000	 2.177429638514803e+000	-9.012918677527377e+000
1	 2.302524207171238e+000	 2.202988974193504e+000	-8.328338502415139e+000
1	 2.278054920423748e+000	 2.228282750858128e+000	-7.653046372130862e+000
1	 2.253306267389836e+000	 2.253306267389836e+000	-6.985167054423894e+000
1	 2.228282750858128e+000	 2.278054920423747e+000	-6.322803429440912e+000
1	 2.202988974193504e+000	 2.302524207171237e+000	-5.664039660817208e+000
1	 2.177429638514803e+000	 2.326709728150231e+000	-5.006944398277325e+000
1	 2.151609539784175e+000	 2.350607189820047e+000	-4.349574005035013e+000
1	 2.125533565811849e+000	 2.374212407117443e+000	-3.689975803224039e+000
1	 2.394081353268350e+000	 2.143321406460531e+000	-1.027621370574732e+001
1	 2.370278592233794e+000	 2.169615601060698e+000	-9.575330661722871e+000
1	 2.346181141136843e+000	 2.195651779089522e+000	-8.888633348051808e+000
1	 2.321793220064046e+000	 2.221425011832426e+000	-8.213938264345542e+000
1	 2.297119158487202e+000	 2.246930463191558e+000	-7.549026099420694e+000
1	 2.272163392706084e+000	 2.272163392706084e+000	-6.891645546240733e+000
1	 2.246930463191557e+000	 2.297119158487202e+000	-6.239517174904536e+000
1	 2.221425011832426e+000	 2.321793220064046e+000	-5.590337355555599e+000
1	 2.195651779089522e+000	 2.346181141136842e+000	-4.941782222956386e+000
1	 2.169615601060698e+000	 2.370278592233792e+000	-4.291511674366616e+000
1	 2.143321406460531e+000	 2.394081353268350e+000	-3.637173392286904e+000
1	 2.413950299419056e+000	 2.161109247109096e+000	-1.012926981890680e+001
1	 2.389949994647324e+000	 2.187621662337095e+000	-9.437130630046351e+000
1	 2.365652554123235e+000	 2.213873919664102e+000	-8.759913889728768e+000
1	 2.341062232956640e+000	 2.239861049471193e+000	-8.095174926728259e+000
1	 2.316183396550451e+000	 2.265578175524814e+000	-7.440427290685571e+000
1	 2.291020518022143e+000	 2.291020518022144e+000	-6.793147113558997e+000
1	 2.265578175524815e+000	 2.316183396550451e+000	-6.150777539584709e+000
1	 2.239861049471193e+000	 2.341062232956639e+000	-5.510733214412507e+000
1	 2.213873919664102e+000	 2.365652554123234e+000	-4.870404823930125e+000
1	 2.187621662337096e+000	 2.389949994647323e+000	-4.227163673163087e+000
1	 2.161109247109096e+000	 2.413950299419056e+000	-3.578366295542304e+000
1	 2.433819245569663e+000	 2.178897087757560e+000	-9.976910054268917e+000
1	 2.409621397060749e+000	 2.205627723613400e+000	-9.294293179963116e+000
1	 2.385123967109518e+000	 2.232096060238591e+000	-8.626877565556104e+000
1	 2.360331245849126e+000	 2.258297087109868e+000	-7.972055077418834e+000
1	 2.335247634613596e+000	 2.284225887857976e+000	-7.327171540244699e+000
1	 2.309877643338102e+000	 2.309877643338102e+000	-6.689531467418129e+000
1	 2.284225887857976e+000	 2.335247634613596e+000	-6.056402867479710e+000
1	 2.258297087109868e+000	 2.360331245849125e+000	-5.425022116529577e+000
1	 2.232096060238593e+000	 2.385123967109518e+000	-4.792598886237949e+000
1	 2.205627723613401e+000	 2.409621397060748e+000	-4.156321116992343e+000
1	 2.178897087757561e+000	 2.433819245569663e+000	-3.513360025601649e+000
1	 2.453688191720270e+000	 2.196684928405941e+000	-9.819546434148219e+000
1	 2.429292799474173e+000	 2.223633784889643e+000	-9.147066180003368e+000
1	 2.404595380095800e+000	 2.250318200813038e+000	-8.489637840344059e+000
1	 2.379600258741609e+000	 2.276733124748515e+000	-7.844585090890067e+000
1	 2.354311872676735e+000	 2.302873600191121e+000	-7.209182982003868e+000
1	 2.328734768654050e+000	 2.328734768654050e+000	-6.580662862864427e+000
1	 2.302873600191121e+000	 2.354311872676736e+000	-5.956217386487041e+000
1	 2.276733124748516e+000	 2.379600258741609e+000	-5.333005584982097e+000
1	 2.250318200813039e+000	 2.404595380095799e+000	-4.708158004262575e+000
1	 2.223633784889644e+000	 2.429292799474172e+000	-4.078781887259565e+000
1	 2.196684928405942e+000	 2.453688191720270e+000	-3.441966394588258e+000
1	 2.473557137870976e+000	 2.214472769054255e+000	-9.657577742517084e+000
1	 2.448964201887704e+000	 2.241639846165858e+000	-8.995689534642345e+000
1	 2.424066793082190e+000	 2.268540341387491e+000	-8.348304533260748e+000
1	 2.398869271634196e+000	 2.295169162387196e+000	-7.712771136802381e+000
1	 2.373376110739968e+000	 2.321521312524323e+000	-7.086388187458871e+000
1	 2.347591893970078e+000	 2.347591893970077e+000	-6.466409916451434e+000
1	 2.321521312524323e+000	 2.373376110739969e+000	-5.850050972090044e+000
1	 2.295169162387197e+000	 2.398869271634195e+000	-5.234491519940826e+000
1	 2.268540341387491e+000	 2.424066793082190e+000	-4.616882404232243e+000
1	 2.241639846165859e+000	 2.448964201887702e+000	-3.994350359472524e+000
1	 2.214472769054255e+000	 2.473557137870976e+000	-3.364003261131961e+000
1	 2.493426084021882e+000	 2.232260609702518e+000	-9.491390052456524e+000
1	 2.468635604301448e+000	 2.259645907442075e+000	-8.840395501609564e+000
1	 2.443538206068797e+000	 2.286762481961994e+000	-8.202983963084463e+000
1	 2.418138284526992e+000	 2.313605200025974e+000	-7.576619188163955e+000
1	 2.392440348803395e+000	 2.340169024857662e+000	-6.958716068575367e+000
1	 2.366449019286273e+000	 2.366449019286273e+000	-6.346645432465912e+000
1	 2.340169024857661e+000	 2.392440348803395e+000	-5.737738922343009e+000
1	 2.313605200025974e+000	 2.418138284526991e+000	-5.129293944591389e+000
1	 2.286762481961994e+000	 2.443538206068797e+000	-4.518578679990284e+000
1	 2.259645907442076e+000	 2.468635604301448e+000	-3.902837144499260e+000
1	 2.232260609702518e+000	 2.493426084021882e+000	-3.279294289459964e+000
1	 2.513295030173088e+000	 2.250048450350747e+000	-9.321357228588500e+000
1	 2.488307006715512e+000	 2.277651968718327e+000	-8.681408994146995e+000
1	 2.463009619055729e+000	 2.304984622536598e+000	-8.053779086565857e+000
1	 2.437407297420105e+000	 2.332041237664912e+000	-7.436135029103969e+000
1	 2.411504586867115e+000	 2.358816737191213e+000	-6.826097785275728e+000
1	 2.385306144602726e+000	 2.385306144602728e+000	-6.221246237396356e+000
1	 2.358816737191214e+000	 2.411504586867116e+000	-5.619121743529592e+000
1	 2.332041237664913e+000	 2.437407297420105e+000	-5.017232763105596e+000
1	 2.304984622536598e+000	 2.463009619055729e+000	-4.413059541297852e+000
1	 2.277651968718328e+000	 2.488307006715512e+000	-3.804058842098742e+000
1	 2.250048450350747e+000	 2.513295030173088e+000	-3.187668719915004e+000
1	 2.533163976324692e+000	 2.267836290998959e+000	-9.147841405862952e+000
1	 2.507978409130006e+000	 2.295658029994647e+000	-8.518947869042794e+000
1	 2.482481032043097e+000	 2.323206763111350e+000	-7.900789630278940e+000
1	 2.456676310313640e+000	 2.350477275304074e+000	-7.291324262280273e+000
1	 2.430568824931227e+000	 2.377464449525057e+000	-6.688466657279292e+000
1	 2.404163269919529e+000	 2.404163269919529e+000	-6.090093022191791e+000
1	 2.377464449525057e+000	 2.430568824931227e+000	-5.494044945908307e+000
1	 2.350477275304074e+000	 2.456676310313640e+000	-4.898133530003103e+000
1	 2.323206763111351e+000	 2.482481032043097e+000	-4.300143573982052e+000
1	 2.295658029994647e+000	 2.507978409130006e+000	-3.697837806050456e+000
1	 2.267836290998959e+000	 2.533163976324692e+000	-3.088961150272944e+000
1	 2.089957884514069e+000	 2.334474514814633e+000	-3.778377623264566e+000
1	 2.064067751246719e+000	 2.357396702138207e+000	-3.111491225081322e+000
1	 2.037935826324343e+000	 2.380023548830395e+000	-2.449676739007948e+000
1	 2.011567172423368e+000	 2.402351274265837e+000	-1.795784532163207e+000
1	 1.984966929989931e+000	 2.424376213529276e+000	-1.152673393261457e+000
1	 1.958140313934778e+000	 2.446094819379460e+000	-5.232059001613152e-001
1	 1.931092610269971e+000	 2.467503664099978e+000	 8.975620688933361e-002
1	 1.903829172691867e+000	 2.488599441235097e+000	 6.833566367472450e-001
1	 1.876355419114987e+000	 2.509378967208837e+000	 1.254749134124957e+000
1	 1.848676828161382e+000	 2.529839182825770e+000	 1.801102032228350e+000
1	 1.820798935610175e+000	 2.549977154652175e+000	 2.319602762048751e+000
1	 2.107745725163034e+000	 2.354343460966237e+000	-3.736974581070953e+000
1	 2.081635238381421e+000	 2.377460741319560e+000	-3.072065546874489e+000
1	 2.055280902031814e+000	 2.400280167367884e+000	-2.409843940759618e+000
1	 2.028687821879580e+000	 2.422797926308551e+000	-1.753489816748193e+000
1	 2.001861182121705e+000	 2.445010322033828e+000	-1.106194582676325e+000
1	 1.974806242053562e+000	 2.466913777111520e+000	-4.711557121945678e-001
1	 1.947528332676985e+000	 2.488504834651566e+000	 1.484285385236763e-001
1	 1.920032853254175e+000	 2.509780160056640e+000	 7.493643983879288e-001
1	 1.892325267812063e+000	 2.530736542655010e+000	 1.328467822422772e+000
1	 1.864411101601795e+000	 2.551370897214117e+000	 1.882569695464790e+000
1	 1.836295937518066e+000	 2.571680265333477e+000	 2.408520987917406e+000
1	 2.125533565811849e+000	 2.374212407117443e+000	-3.689975803224041e+000
1	 2.099202725516005e+000	 2.397524780500567e+000	-3.027766193519828e+000
1	 2.072625977739186e+000	 2.420536785905096e+000	-2.366339488050922e+000
1	 2.045808471335707e+000	 2.443244578351072e+000	-1.709121175942126e+000
1	 2.018755434253400e+000	 2.465644430538283e+000	-1.059550476823679e+000
1	 1.991472170172263e+000	 2.487732734843585e+000	-4.210745466116013e-001
1	 1.963964055083905e+000	 2.509506005203260e+000	 2.028573129291829e-001
1	 1.936236533816369e+000	 2.530960878878383e+000	 8.087994287606612e-001
1	 1.908295116508996e+000	 2.552094118101472e+000	 1.393315503307509e+000
1	 1.880145375042032e+000	 2.572902611602826e+000	 1.952984321506051e+000
1	 1.851792939425738e+000	 2.593383376015193e+000	 2.484405406491588e+000
1	 2.143321406460531e+000	 2.394081353268350e+000	-3.637173392286906e+000
1	 2.116770212650471e+000	 2.417588819681312e+000	-2.978397415840389e+000
1	 2.089971053446451e+000	 2.440793404442101e+000	-2.318965926560114e+000
1	 2.062929120791727e+000	 2.463691230393453e+000	-1.662467687787407e+000
1	 2.035649686384982e+000	 2.486278539042668e+000	-1.012507021372464e+000
1	 2.008138098290838e+000	 2.508551692575657e+000	-3.726976544191718e-001
1	 1.980399777490680e+000	 2.530507175755036e+000	 2.533434310480089e-001
1	 1.952440214378395e+000	 2.552141597700284e+000	 8.620021326287048e-001
1	 1.924264965205735e+000	 2.573451693548162e+000	 1.449673333536579e+000
1	 1.895879648482041e+000	 2.594434325991823e+000	 2.012766967412746e+000
1	 1.867289941333142e+000	 2.615086486697246e+000	 2.547714029516660e+000
1	 2.161109247109096e+000	 2.413950299419056e+000	-3.578366295542304e+000
1	 2.134337699784820e+000	 2.437652858861883e+000	-2.923769909415118e+000
1	 2.107316129153594e+000	 2.461050022978969e+000	-2.267532302860779e+000
1	 2.080049770247615e+000	 2.484137882435737e+000	-1.613325374623971e+000
1	 2.052543938516416e+000	 2.506912647547006e+000	-9.648378678886367e-001
1	 2.024804026409246e+000	 2.529370650307735e+000	-3.257690030982641e-001
1	 1.996835499897264e+000	 2.551508346306873e+000	 3.001778870984762e-001
1	 1.968643894940201e+000	 2.573322316522301e+000	 9.093017074257439e-001
1	 1.940234813902221e+000	 2.594809268995017e+000	 1.497909920838106e+000
1	 1.911613921921765e+000	 2.615966040381030e+000	 2.062324827557132e+000
1	 1.882786943240229e+000	 2.636789597379548e+000	 2.598889789370714e+000
1	 2.178897087757561e+000	 2.433819245569663e+000	-3.513360025601648e+000
1	 2.151905186919057e+000	 2.457716898042369e+000	-2.863700551513720e+000
1	 2.124661204860606e+000	 2.481306641515768e+000	-2.211853899065160e+000
1	 2.097170419703349e+000	 2.504584534477977e+000	-1.561496919633649e+000
1	 2.069438190647670e+000	 2.527546756051327e+000	-9.163240592924424e-001
1	 2.041469954527445e+000	 2.550189608039823e+000	-2.800409208104728e-001
1	 2.013271222303608e+000	 2.572509516858752e+000	 3.436421729519825e-001
1	 1.984847575501736e+000	 2.594503035344390e+000	 9.510166007218128e-001
1	 1.956204662598404e+000	 2.616166844441976e+000	 1.538381836142747e+000
1	 1.927348195361152e+000	 2.637497754770376e+000	 2.102051799476469e+000
1	 1.898283945146948e+000	 2.658492708062018e+000	 2.638361154581043e+000
1	 2.196684928405942e+000	 2.453688191720270e+000	-3.441966394588260e+000
1	 2.169472674053183e+000	 2.477780937222854e+000	-2.798012150812836e+000
1	 2.142006280567476e+000	 2.501563260052567e+000	-2.151751980360068e+000
1	 2.114291069158908e+000	 2.525031186520219e+000	-1.506791397156425e+000
1	 2.086332442778712e+000	 2.548180864555651e+000	-8.667537305974946e-001
1	 2.058135882645392e+000	 2.571008565771920e+000	-2.352737578915978e-001
1	 2.029706944709664e+000	 2.593510687410649e+000	 3.840086628636854e-001
1	 2.001051256062947e+000	 2.615683754166509e+000	 9.874549454631971e-001
1	 1.972174511294228e+000	 2.637524419888980e+000	 1.571434100929009e+000
1	 1.943082468800150e+000	 2.659029469159782e+000	 2.132329022234409e+000
1	 1.913780947053249e+000	 2.680195818744572e+000	 2.666542715435257e+000
1	 2.214472769054255e+000	 2.473557137870976e+000	-3.364003261131961e+000
1	 2.187040161187201e+000	 2.497844976403427e+000	-2.726533209174487e+000
1	 2.159351356274192e+000	 2.521819878589436e+000	-2.087053554710142e+000
1	 2.131411718614265e+000	 2.545477838562511e+000	-1.449024016003950e+000
1	 2.103226694909506e+000	 2.568814973060007e+000	-8.159218240729818e-001
1	 2.074801810763049e+000	 2.591827523504031e+000	-1.912355646591433e-001
1	 2.046142667115383e+000	 2.614511857962541e+000	 4.215409796606018e-001
1	 2.017254936623779e+000	 2.636864472988612e+000	 1.018914974235493e+000
1	 1.988144359989639e+000	 2.658881995335964e+000	 1.597400651080244e+000
1	 1.958816742238704e+000	 2.680561183549175e+000	 2.153525388835712e+000
1	 1.929277948959085e+000	 2.701898929427129e+000	 2.683835741368890e+000
1	 2.232260609702518e+000	 2.493426084021882e+000	-3.279294289459966e+000
1	 2.204607648321111e+000	 2.517909015584173e+000	-2.649097694814218e+000
1	 2.176696431980743e+000	 2.542076497126445e+000	-2.017591144050314e+000
1	 2.148532368069398e+000	 2.565924490604902e+000	-1.388015875045793e+000
1	 2.120120947040020e+000	 2.589449081564419e+000	-7.636298180243628e-001
1	 2.091467738880369e+000	 2.612646481236155e+000	-1.477017846244859e-001
1	 2.062578389520717e+000	 2.635513028514409e+000	 4.564943434220137e-001
1	 2.033458617184183e+000	 2.658045191810659e+000	 1.045685413720605e+000
1	 2.004114208684583e+000	 2.680239570782870e+000	 1.616604778564428e+000
1	 1.974551015676762e+000	 2.702092897938480e+000	 2.165998034141843e+000
1	 1.944774950864403e+000	 2.723602040109602e+000	 2.690628711703530e+000
1	 2.250048450350747e+000	 2.513295030173088e+000	-3.187668719915004e+000
1	 2.222175135454915e+000	 2.537973054765179e+000	-2.565544826228786e+000
1	 2.194041507687117e+000	 2.562333115663662e+000	-1.943202566330964e+000
1	 2.165653017524286e+000	 2.586371142647440e+000	-1.323593730388790e+000
1	 2.137015199170221e+000	 2.610083190068913e+000	-7.096854684387761e-001
1	 2.108133666997314e+000	 2.633465438968294e+000	-1.044549622567388e-001
1	 2.079014111925620e+000	 2.656514199066230e+000	 4.891159036207284e-001
1	 2.049662297744106e+000	 2.679225910632604e+000	 1.068045860443183e+000
1	 2.020084057379005e+000	 2.701597146229635e+000	 1.629359552163614e+000
1	 1.990285289114269e+000	 2.723624612327619e+000	 2.170092799643205e+000
1	 1.960271952769154e+000	 2.745305150791909e+000	 2.687297821210441e+000
1	 2.267836290998959e+000	 2.533163976324692e+000	-3.088961150272944e+000
1	 2.239742622588619e+000	 2.558037093946534e+000	-2.475718866292112e+000
1	 2.211386583393305e+000	 2.582589734201158e+000	-1.863730727820542e+000
1	 2.182773666978906e+000	 2.606817794690176e+000	-1.255589773513448e+000
1	 2.153909451300075e+000	 2.630717298573513e+000	-6.539025627889519e-001
1	 2.124799595113841e+000	 2.654284396700450e+000	-6.128446449973524e-002
1	 2.095449834330041e+000	 2.677515369617983e+000	 5.196450556335464e-001
1	 2.065865978303494e+000	 2.700406629454408e+000	 1.086267138834014e+000
1	 2.036053906072853e+000	 2.722954721676199e+000	 1.635968218403239e+000
1	 2.006019562551173e+000	 2.745156326716521e+000	 2.166144676358631e+000
1	 1.975768954673289e+000	 2.767008261473969e+000	 2.674207461881727e+000
1	 1.820798935610175e+000	 2.549977154652175e+000	 2.319602762048751e+000
1	 1.792727330205413e+000	 2.569790075552225e+000	 2.799266608476193e+000
1	 1.764467648259312e+000	 2.589275263636230e+000	 3.232488224478214e+000
1	 1.736025571900473e+000	 2.608430165421336e+000	 3.621573094563729e+000
1	 1.707406826031019e+000	 2.627252357450538e+000	 3.968865481338728e+000
1	 1.678617174651290e+000	 2.645739547069145e+000	 4.276743559421592e+000
1	 1.649662417173073e+000	 2.663889573078076e+000	 4.547614547916409e+000
1	 1.620548384726113e+000	 2.681700406264189e+000	 4.783909851713583e+000
1	 1.591280936462619e+000	 2.699170149807901e+000	 4.988080221738505e+000
1	 1.561865955864427e+000	 2.716297039568711e+000	 5.162590944091622e+000
1	 1.532309347057451e+000	 2.733079444249319e+000	 5.309917067819187e+000
1	 1.836295937518066e+000	 2.571680265333477e+000	 2.408520987917406e+000
1	 1.807985411871278e+000	 2.591661815985435e+000	 2.895323972367946e+000
1	 1.779485208944865e+000	 2.611312844454483e+000	 3.335534379312920e+000
1	 1.750801059228598e+000	 2.630630775524840e+000	 3.731386755743344e+000
1	 1.721938736349819e+000	 2.649613165113234e+000	 4.085158800493321e+000
1	 1.692904053366854e+000	 2.668257701051977e+000	 4.399166521279676e+000
1	 1.663702859050867e+000	 2.686562203747827e+000	 4.675759382449652e+000
1	 1.634341034160935e+000	 2.704524626716821e+000	 4.917315453773421e+000
1	 1.604824487717100e+000	 2.722143056995374e+000	 5.126236570488418e+000
1	 1.575159153276106e+000	 2.739415715428226e+000	 5.304943514642798e+000
1	 1.545350985214472e+000	 2.756340956833962e+000	 5.455871227598580e+000
1	 1.851792939425738e+000	 2.593383376015193e+000	 2.484405406491588e+000
1	 1.823243493536874e+000	 2.613533556419093e+000	 2.976657651601256e+000
1	 1.794502769630099e+000	 2.633350425273201e+000	 3.422467798256966e+000
1	 1.765576546556353e+000	 2.652831385628806e+000	 3.823964170436490e+000
1	 1.736470646668198e+000	 2.671973972776374e+000	 4.183322125226127e+000
1	 1.707190932081953e+000	 2.690775855035223e+000	 4.502759302171739e+000
1	 1.677743300928163e+000	 2.709234834417953e+000	 4.784530855570049e+000
1	 1.648133683595235e+000	 2.727348847169784e+000	 5.030924679959876e+000
1	 1.618368038971054e+000	 2.745115964183132e+000	 5.244256638961145e+000
1	 1.588452350687269e+000	 2.762534391287983e+000	 5.426865807471831e+000
1	 1.558392623371014e+000	 2.779602469418803e+000	 5.581109737064491e+000
1	 1.867289941333142e+000	 2.615086486697246e+000	 2.547714029516660e+000
1	 1.838501575202161e+000	 2.635405296853118e+000	 3.043754127351610e+000
1	 1.809520330314980e+000	 2.655388006092302e+000	 3.493791389712275e+000
1	 1.780352033883712e+000	 2.675031995733158e+000	 3.899813523572890e+000
1	 1.751002556986144e+000	 2.694334780439897e+000	 4.263858664646589e+000
1	 1.721477810796586e+000	 2.713294009018838e+000	 4.588010787289811e+000
1	 1.691783742804965e+000	 2.731907465088428e+000	 4.874395089663405e+000
1	 1.661926333029029e+000	 2.750173067623070e+000	 5.125173364184976e+000
1	 1.631911590224499e+000	 2.768088871371185e+000	 5.342539363221121e+000
1	 1.601745548097937e+000	 2.785653067148000e+000	 5.528714169849984e+000
1	 1.571434261527091e+000	 2.802863982003876e+000	 5.685941583380664e+000
1	 1.882786943240229e+000	 2.636789597379548e+000	 2.598889789370714e+000
1	 1.853759656867096e+000	 2.657277037287425e+000	 3.097083864113086e+000
1	 1.824537890999473e+000	 2.677425586911706e+000	 3.549991504556864e+000
1	 1.795127521210650e+000	 2.697232605837831e+000	 3.959426268836809e+000
1	 1.765534467303640e+000	 2.716695588103743e+000	 4.327255060440203e+000
1	 1.735764689510746e+000	 2.735812163002780e+000	 4.655393765996184e+000
1	 1.705824184681279e+000	 2.754580095759225e+000	 4.945802860717917e+000
1	 1.675718982462328e+000	 2.772997288076670e+000	 5.200482991167050e+000
1	 1.645455141477452e+000	 2.791061778559537e+000	 5.421470544946750e+000
1	 1.615038745508127e+000	 2.808771743008304e+000	 5.610833216836131e+000
1	 1.584475899682720e+000	 2.826125494589215e+000	 5.770665580760829e+000
1	 1.898283945146948e+000	 2.658492708062018e+000	 2.638361154581043e+000
1	 1.869017738531634e+000	 2.679148777721928e+000	 3.137101963474311e+000
1	 1.839555451683543e+000	 2.699463167731333e+000	 3.591538611997459e+000
1	 1.809903008537143e+000	 2.719433215942749e+000	 4.003277811610241e+000
1	 1.780066377620673e+000	 2.739056395767858e+000	 4.373982063125169e+000
1	 1.750051568224431e+000	 2.758330316987006e+000	 4.705365588830109e+000
1	 1.719864626557111e+000	 2.777252726430318e+000	 4.999190224740268e+000
1	 1.689511631895144e+000	 2.795821508530576e+000	 5.257261282142379e+000
1	 1.658998692729931e+000	 2.814034685748199e+000	 5.481423387555582e+000
1	 1.628331942917862e+000	 2.831890418868914e+000	 5.673556310167495e+000
1	 1.597517537837919e+000	 2.849387007174854e+000	 5.835570785712559e+000
1	 1.913780947053249e+000	 2.680195818744572e+000	 2.666542715435257e+000
1	 1.884275820195731e+000	 2.701020518156542e+000	 3.164248786130486e+000
1	 1.854573012367157e+000	 2.721500748551104e+000	 3.618887942585126e+000
1	 1.824678495863168e+000	 2.741633826047843e+000	 4.031828158735184e+000
1	 1.794598287937230e+000	 2.761417203432182e+000	 4.404495175452290e+000
1	 1.764338446937636e+000	 2.780848470971474e+000	 4.738368792593509e+000
1	 1.733905068432467e+000	 2.799925357101683e+000	 5.034979113737027e+000
1	 1.703304281327493e+000	 2.818645728984777e+000	 5.295902752119797e+000
1	 1.672542243981955e+000	 2.837007592937177e+000	 5.522759006281468e+000
1	 1.641625140327158e+000	 2.855009094729853e+000	 5.717206013883082e+000
1	 1.610559175992702e+000	 2.872648519760826e+000	 5.880936892106497e+000
1	 1.929277948959085e+000	 2.701898929427129e+000	 2.683835741368890e+000
1	 1.899533901859347e+000	 2.722892258591184e+000	 3.178950543917379e+000
1	 1.869590573050279e+000	 2.743538329370936e+000	 3.632480100240596e+000
1	 1.839453983188698e+000	 2.763834436153041e+000	 4.045522536960501e+000
1	 1.809130198253296e+000	 2.783778011096656e+000	 4.419235264796487e+000
1	 1.778625325650359e+000	 2.803366624956138e+000	 4.754831695310310e+000
1	 1.747945510307353e+000	 2.822597987773292e+000	 5.053577902972192e+000
1	 1.717096930759385e+000	 2.841469949439266e+000	 5.316789240278297e+000
1	 1.686085795233541e+000	 2.859980500126478e+000	 5.545826913668682e+000
1	 1.654918337736035e+000	 2.878127770591143e+000	 5.742094527988321e+000
1	 1.623600814147086e+000	 2.895910032347163e+000	 5.907034607205114e+000
1	 1.944774950864403e+000	 2.723602040109602e+000	 2.690628711703530e+000
1	 1.914791983522436e+000	 2.744763999025769e+000	 3.181619863539494e+000
1	 1.884608133732874e+000	 2.765575910190750e+000	 3.632741645018157e+000
1	 1.854229470513710e+000	 2.786035046258275e+000	 4.044791981819907e+000
1	 1.823662108568857e+000	 2.806138818761222e+000	 4.418629146268778e+000
1	 1.792912204362594e+000	 2.825884778940959e+000	 4.755168962740434e+000
1	 1.761985952181773e+000	 2.845270618445118e+000	 5.055381951103916e+000
1	 1.730889580190835e+000	 2.864294169894031e+000	 5.320290415005660e+000
1	 1.699629346484706e+000	 2.882953407316109e+000	 5.550965481853599e+000
1	 1.668211535144512e+000	 2.901246446452805e+000	 5.748524101385627e+000
1	 1.636642452301086e+000	 2.919171544933902e+000	 5.914126009713053e+000
1	 1.960271952769154e+000	 2.745305150791909e+000	 2.687297821210441e+000
1	 1.930050065184955e+000	 2.766635739460210e+000	 3.172656323558824e+000
1	 1.899625694414909e+000	 2.787613491010467e+000	 3.620085648227079e+000
1	 1.869004957838178e+000	 2.808235656363467e+000	 4.030053898577732e+000
1	 1.838194018883899e+000	 2.828499626425824e+000	 4.403090138169670e+000
1	 1.807199083074341e+000	 2.848402932925892e+000	 4.739782148021805e+000
1	 1.776026394055734e+000	 2.867943249117138e+000	 5.040774114700440e+000
1	 1.744682229621856e+000	 2.887118390349067e+000	 5.306764254981399e+000
1	 1.713172897735469e+000	 2.905926314506080e+000	 5.538502382919250e+000
1	 1.681504732552609e+000	 2.924365122314862e+000	 5.736787425218415e+000
1	 1.649684090454720e+000	 2.942433057521075e+000	 5.902464890843891e+000
1	 1.975768954673289e+000	 2.767008261473969e+000	 2.674207461881727e+000
1	 1.945308146846863e+000	 2.788507479894426e+000	 3.152446966112082e+000
1	 1.914643255096348e+000	 2.809651071830004e+000	 3.594912221428197e+000
1	 1.883780445162080e+000	 2.830436266468553e+000	 4.001712596775933e+000
1	 1.852725929198409e+000	 2.850860434090399e+000	 4.373018591302182e+000
1	 1.821485961785594e+000	 2.870921086910894e+000	 4.709060205916479e+000
1	 1.790066835929240e+000	 2.890615879789326e+000	 5.010125238542633e+000
1	 1.758474879052460e+000	 2.909942610804364e+000	 5.276557507619550e+000
1	 1.726716448985848e+000	 2.928899221696398e+000	 5.508755008526025e+000
1	 1.694797929960344e+000	 2.947483798177338e+000	 5.707168007703674e+000
1	 1.662725728608005e+000	 2.965694570108715e+000	 5.872297079336130e+000
1	 1.532309347057451e+000	 2.733079444249319e+000	 5.309917067819185e+000
1	 1.502621494919891e+000	 2.749513426483719e+000	 5.435381846515194e+000
1	 1.472803909760124e+000	 2.765600166241468e+000	 5.538848064561387e+000
1	 1.442862534573747e+000	 2.781338433307961e+000	 5.614611939523124e+000
1	 1.412803318353236e+000	 2.796727129707190e+000	 5.657066707074973e+000
1	 1.382632212507474e+000	 2.811765289274061e+000	 5.660710443425080e+000
1	 1.352355167314766e+000	 2.826452077113804e+000	 5.620153615452676e+000
1	 1.321978128413371e+000	 2.840786788950488e+000	 5.530126347170809e+000
1	 1.291507033333438e+000	 2.854768850366805e+000	 5.385485391997541e+000
1	 1.260947808074109e+000	 2.868397815937405e+000	 5.181220801205468e+000
1	 1.230306363729441e+000	 2.881673368258284e+000	 4.912462279818925e+000
1	 1.545350985214472e+000	 2.756340956833962e+000	 5.455871227598585e+000
1	 1.515410456797143e+000	 2.772914810335271e+000	 5.584691466244275e+000
1	 1.485339091186876e+000	 2.789138465944542e+000	 5.691931006457393e+000
1	 1.455142881960698e+000	 2.805010682976676e+000	 5.772318892557669e+000
1	 1.424827828743551e+000	 2.820530354110670e+000	 5.820677872720719e+000
1	 1.394399933597353e+000	 2.835696504958288e+000	 5.831931591408230e+000
1	 1.363865197443817e+000	 2.850508293518875e+000	 5.801111523870794e+000
1	 1.333229616525126e+000	 2.864965009522325e+000	 5.723363642367991e+000
1	 1.302499178906336e+000	 2.879066073662391e+000	 5.593954804568224e+000
1	 1.271679861023361e+000	 2.892811036722655e+000	 5.408278855421923e+000
1	 1.240777624280165e+000	 2.906199578597639e+000	 5.161862434643567e+000
1	 1.558392623371014e+000	 2.779602469418803e+000	 5.581109737064493e+000
1	 1.528199418673973e+000	 2.796316194186986e+000	 5.712943090434786e+000
1	 1.497874272613284e+000	 2.812676765647745e+000	 5.823513631614768e+000
1	 1.467423229347397e+000	 2.828682932645490e+000	 5.907979743290655e+000
1	 1.436852339133717e+000	 2.844333578514223e+000	 5.961589917647327e+000
1	 1.406167654687188e+000	 2.859627720642560e+000	 5.979689320649460e+000
1	 1.375375227572933e+000	 2.874564509923965e+000	 5.957726113304425e+000
1	 1.344481104637045e+000	 2.889143230094152e+000	 5.891257520575390e+000
1	 1.313491324479490e+000	 2.903363296957935e+000	 5.775955639374105e+000
1	 1.282411913972942e+000	 2.917224257507827e+000	 5.607612977838416e+000
1	 1.251248884831276e+000	 2.930725788936877e+000	 5.382147718881138e+000
1	 1.571434261527091e+000	 2.802863982003876e+000	 5.685941583380663e+000
1	 1.540988380550389e+000	 2.819717578038901e+000	 5.820393562911722e+000
1	 1.510409454039345e+000	 2.836215065351122e+000	 5.933795268299225e+000
1	 1.479703576733828e+000	 2.852355182314455e+000	 6.021731012533596e+000
1	 1.448876849523699e+000	 2.868136802917897e+000	 6.079871348487798e+000
1	 1.417935375776930e+000	 2.883558936326929e+000	 6.103979006763193e+000
1	 1.386885257702043e+000	 2.898620726329122e+000	 6.089914605973167e+000
1	 1.355732592749045e+000	 2.913321450666015e+000	 6.033642127145015e+000
1	 1.324483470052800e+000	 2.927660520253484e+000	 5.931234144626867e+000
1	 1.293143966922745e+000	 2.941637478292968e+000	 5.778876806601828e+000
1	 1.261720145382654e+000	 2.955251999276042e+000	 5.572874559035578e+000
1	 1.584475899682720e+000	 2.826125494589215e+000	 5.770665580760825e+000
1	 1.553777342426400e+000	 2.843118961891062e+000	 5.907291271292978e+000
1	 1.522944635465056e+000	 2.859753365054722e+000	 6.022968682184894e+000
1	 1.491983924119971e+000	 2.876027431983614e+000	 6.113704726350072e+000
1	 1.460901359913464e+000	 2.891940027321740e+000	 6.175588416394430e+000
1	 1.429703096866526e+000	 2.907490152011439e+000	 6.204796177615007e+000
1	 1.398395287831080e+000	 2.922676942734391e+000	 6.197596949433914e+000
1	 1.366984080861039e+000	 2.937499671237958e+000	 6.150357067950656e+000
1	 1.335475615626168e+000	 2.951957743549083e+000	 6.059544922944582e+000
1	 1.303876019872659e+000	 2.966050699078124e+000	 5.921735383316483e+000
1	 1.272191405934185e+000	 2.979778209615192e+000	 5.733613985619600e+000
1	 1.597517537837919e+000	 2.849387007174854e+000	 5.835570785712559e+000
1	 1.566566304302015e+000	 2.866520345743510e+000	 5.973876492158720e+000
1	 1.535479816890413e+000	 2.883291664758588e+000	 6.091220344229265e+000
1	 1.504264271505810e+000	 2.899699681653020e+000	 6.184028599524433e+000
1	 1.472925870302978e+000	 2.915743251725804e+000	 6.248805209104223e+000
1	 1.441470817955926e+000	 2.931421367696138e+000	 6.282136507106987e+000
1	 1.409905317959975e+000	 2.946733159139817e+000	 6.280695705336923e+000
1	 1.378235568972945e+000	 2.961677891810029e+000	 6.241247186497695e+000
1	 1.346467761199495e+000	 2.976254966844774e+000	 6.160650590338047e+000
1	 1.314608072822574e+000	 2.990463919863343e+000	 6.035864687572850e+000
1	 1.282662666485751e+000	 3.004304419954371e+000	 5.863951037041710e+000
1	 1.610559175992702e+000	 2.872648519760826e+000	 5.880936892106501e+000
1	 1.579355266177241e+000	 2.889921729596284e+000	 6.020381719450434e+000
1	 1.548014998315415e+000	 2.906829964462771e+000	 6.138730685533389e+000
1	 1.516544618891328e+000	 2.923371931322718e+000	 6.232826210116549e+000
1	 1.484950380692206e+000	 2.939546476130134e+000	 6.299583738531119e+000
1	 1.453238539045078e+000	 2.955352583381076e+000	 6.335995809265224e+000
1	 1.421415348088661e+000	 2.970789375545451e+000	 6.339135943586829e+000
1	 1.389487057084676e+000	 2.985856112382271e+000	 6.306162351862678e+000
1	 1.357459906772682e+000	 3.000552190140606e+000	 6.234321451765171e+000
1	 1.325340125772379e+000	 3.014877140648670e+000	 6.120951194091238e+000
1	 1.293133927037235e+000	 3.028830630293632e+000	 5.963484192455770e+000
1	 1.623600814147086e+000	 2.895910032347163e+000	 5.907034607205114e+000
1	 1.592144228052090e+000	 2.913323113449429e+000	 6.047031977042597e+000
1	 1.560550179740058e+000	 2.930368264167313e+000	 6.165674339918688e+000
1	 1.528824966276507e+000	 2.947044180992758e+000	 6.260217165604086e+000
1	 1.496974891081117e+000	 2.963349700534780e+000	 6.327984024136750e+000
1	 1.465006260133932e+000	 2.979283799066296e+000	 6.366370032612215e+000
1	 1.432925378217067e+000	 2.994845591951334e+000	 6.372845141604350e+000
1	 1.400738545196149e+000	 3.010034332954731e+000	 6.344957256852799e+000
1	 1.368452052345630e+000	 3.024849413436622e+000	 6.280335192322331e+000
1	 1.336072178721967e+000	 3.039290361434153e+000	 6.176691451209194e+000
1	 1.303605187588521e+000	 3.053356840633026e+000	 6.031824831944286e+000
1	 1.636642452301086e+000	 2.919171544933902e+000	 5.914126009713051e+000
1	 1.604933189926567e+000	 2.936724497302984e+000	 6.054045116370199e+000
1	 1.573085361164338e+000	 2.953906563872260e+000	 6.172220374906146e+000
1	 1.541105313661329e+000	 2.970716430663188e+000	 6.266317261080950e+000
1	 1.508999401469673e+000	 2.987152924939791e+000	 6.334064172315246e+000
1	 1.476773981222435e+000	 3.003215014751851e+000	 6.373255254808174e+000
1	 1.444435408345126e+000	 3.018901808357516e+000	 6.381753088404704e+000
1	 1.411990033307278e+000	 3.034212553527452e+000	 6.357491225815806e+000
1	 1.379444197918240e+000	 3.049146636732867e+000	 6.298476583199956e+000
1	 1.346804231671225e+000	 3.063703582219838e+000	 6.202791679521783e+000
1	 1.314076448139491e+000	 3.077883050972602e+000	 6.068596722511223e+000
1	 1.649684090454720e+000	 2.942433057521075e+000	 5.902464890843890e+000
1	 1.617722151800683e+000	 2.960125881156992e+000	 6.041632099938582e+000
1	 1.585620542588254e+000	 2.977444863577661e+000	 6.158532511739310e+000
1	 1.553385661045778e+000	 2.994388680334057e+000	 6.251238629952248e+000
1	 1.521023911857844e+000	 3.010956149345215e+000	 6.317880452012455e+000
1	 1.488541702310537e+000	 3.027146230437785e+000	 6.356647677546782e+000
1	 1.455945438472769e+000	 3.042958024764041e+000	 6.365791793225757e+000
1	 1.423241521417979e+000	 3.058390774100482e+000	 6.343628031566015e+000
1	 1.390436343490415e+000	 3.073443860029387e+000	 6.288537201585935e+000
1	 1.357536284620046e+000	 3.088116803005771e+000	 6.198967389559812e+000
1	 1.324547708690028e+000	 3.102409261312412e+000	 6.073435528455687e+000
1	 1.662725728608005e+000	 2.965694570108715e+000	 5.872297079336127e+000
1	 1.630511113674446e+000	 2.983527265011495e+000	 6.009997271491085e+000
1	 1.598155724011803e+000	 3.000983163283563e+000	 6.124769335052783e+000
1	 1.565666008429837e+000	 3.018060930005414e+000	 6.215089887537118e+000
1	 1.533048422245594e+000	 3.034759373751102e+000	 6.279487366786374e+000
1	 1.500309423398187e+000	 3.051077446124149e+000	 6.316543621690923e+000
1	 1.467455468599929e+000	 3.067014241170959e+000	 6.324895398456197e+000
1	 1.434493009528168e+000	 3.082568994673865e+000	 6.303235720926047e+000
1	 1.401428489062055e+000	 3.097741083326227e+000	 6.250315163750380e+000
1	 1.368268337568318e+000	 3.112530023792001e+000	 6.164943017460448e+000
1	 1.335018969240017e+000	 3.126935471652506e+000	 6.045988344788058e+000
1	 1.230306363729441e+000	 2.881673368258284e+000	 4.912462279818923e+000
1	 1.199583979858828e+000	 2.894597229204026e+000	 4.566144210973530e+000
1	 1.168791122363753e+000	 2.907167317903020e+000	 4.129720438682075e+000
1	 1.137933641963363e+000	 2.919383696497329e+000	 3.599130230041101e+000
1	 1.107017361446401e+000	 2.931246550353864e+000	 2.970394350704906e+000
1	 1.076048072588373e+000	 2.942756186611072e+000	 2.239619850451849e+000
1	 1.045031533136541e+000	 2.953913032638837e+000	 1.403004652266880e+000
1	 1.013973463865370e+000	 2.964717634414846e+000	 4.568419393364920e-001
1	 9.828795457048595e-001	 2.975170654820722e+000	-6.024756650647927e-001
1	 9.517554169440460e-001	 2.985272871861278e+000	-1.778452129234546e+000
1	 9.206066705118043e-001	 2.995025176810349e+000	-3.074484260104380e+000
1	 1.240777624280165e+000	 2.906199578597639e+000	 5.161862434643567e+000
1	 1.209793759126601e+000	 2.919233435816973e+000	 4.841155771530250e+000
1	 1.178738820540490e+000	 2.931910509798535e+000	 4.432663193748047e+000
1	 1.147618709037035e+000	 2.944230863213301e+000	 3.932028898816125e+000
1	 1.116439296963323e+000	 2.956194683005870e+000	 3.334979751929323e+000
1	 1.085206425389243e+000	 2.967802278928780e+000	 2.637330613962989e+000
1	 1.053925901066824e+000	 2.979054081989313e+000	 1.834989459631213e+000
1	 1.022603493460618e+000	 2.989950642812039e+000	 9.239622793737219e-001
1	 9.912449318515909e-001	 3.000492629920439e+000	-9.964224081706519e-002
1	 9.598559025168262e-001	 3.010680827941015e+000	-1.239608266781444e+000
1	 9.284420459871779e-001	 3.020516135733326e+000	-2.499608595304900e+000
1	 1.251248884831276e+000	 2.930725788936877e+000	 5.382147718881138e+000
1	 1.220003538394792e+000	 2.943869642429749e+000	 5.085556206717021e+000
1	 1.188686518717652e+000	 2.956653701693829e+000	 4.703451821970337e+000
1	 1.157303776111121e+000	 2.969078029928998e+000	 4.231220586297367e+000
1	 1.125861232480631e+000	 2.981142815657544e+000	 3.664333211119876e+000
1	 1.094364778190455e+000	 2.992848371246103e+000	 2.998350893221961e+000
1	 1.062820268997394e+000	 3.004195131339357e+000	 2.228930887059276e+000
1	 1.031233523056088e+000	 3.015183651208757e+000	 1.351831846687659e+000
1	 9.996103179984724e-001	 3.025814605019650e+000	 3.629189309026764e-001
1	 9.679563880896785e-001	 3.036088784020224e+000	-7.418313341320690e-001
1	 9.362774214625445e-001	 3.046007094655772e+000	-1.966326439801502e+000
1	 1.261720145382654e+000	 2.955251999276042e+000	 5.572874559035578e+000
1	 1.230213317663281e+000	 2.968505849042415e+000	 5.298814167750150e+000
1	 1.198634216895123e+000	 2.981396893588968e+000	 4.941489972666817e+000
1	 1.166988843185512e+000	 2.993925196644493e+000	 4.496065721477811e+000
1	 1.135283167998225e+000	 3.006090948308973e+000	 3.957792714337934e+000
1	 1.103523130991924e+000	 3.017894463563139e+000	 3.322015993333412e+000
1	 1.071714636928179e+000	 3.029336180689076e+000	 2.584180295142373e+000
1	 1.039863552651725e+000	 3.040416659605120e+000	 1.739835759275298e+000
1	 1.007975704145467e+000	 3.051136580118482e+000	 7.846433850130428e-001
1	 9.760568736625863e-001	 3.061496740099038e+000	-2.856197691061126e-001
1	 9.441127969379057e-001	 3.071498053577817e+000	-1.475055648664489e+000
1	 1.272191405934185e+000	 2.979778209615192e+000	 5.733613985619600e+000
1	 1.240423096931948e+000	 2.993142055655026e+000	 5.480415799727808e+000
1	 1.208581915072786e+000	 3.006140085484014e+000	 5.146200929129803e+000
1	 1.176673910260096e+000	 3.018772363359863e+000	 4.725945790291128e+000
1	 1.144705103516003e+000	 3.031039080960242e+000	 4.214718043486425e+000
1	 1.112681483793558e+000	 3.042940555879987e+000	 3.607683103510185e+000
1	 1.080609004859106e+000	 3.054477230038580e+000	 2.900110399976700e+000
1	 1.048493582247472e+000	 3.065649668001247e+000	 2.087379379225409e+000
1	 1.016341090292536e+000	 3.076458555217060e+000	 1.164985240621029e+000
1	 9.841573592355299e-001	 3.086904696177589e+000	 1.285444008139631e-001
1	 9.519481724132636e-001	 3.096989012499596e+000	-1.026200319696090e+000
1	 1.282662666485751e+000	 3.004304419954371e+000	 5.863951037041708e+000
1	 1.250632876200675e+000	 3.017778262267639e+000	 5.629864027556960e+000
1	 1.218529613250524e+000	 3.030883277379037e+000	 5.317026807197684e+000
1	 1.186358977334763e+000	 3.043619530075185e+000	 4.920262476099935e+000
1	 1.154127039033864e+000	 3.055987213611442e+000	 4.434489886637159e+000
1	 1.121839836595271e+000	 3.067986648196746e+000	 3.854730403797879e+000
1	 1.089503372790100e+000	 3.079618279387981e+000	 3.176114401464655e+000
1	 1.057123611843273e+000	 3.090882676397256e+000	 2.393887486386027e+000
1	 1.024706476439642e+000	 3.101780530315512e+000	 1.503416442444185e+000
1	 9.922578448084918e-001	 3.112312652256008e+000	 5.001948886384824e-001
1	 9.597835478886195e-001	 3.122479971421242e+000	-6.201513549809841e-001
1	 1.293133927037235e+000	 3.028830630293632e+000	 5.963484192455770e+000
1	 1.260842655469342e+000	 3.042414468880310e+000	 5.746677876573771e+000
1	 1.228477311428221e+000	 3.055626469274102e+000	 5.453427792764261e+000
1	 1.196044044409403e+000	 3.068466696790536e+000	 5.078436841943717e+000
1	 1.163548974551708e+000	 3.080935346262660e+000	 4.616508991583575e+000
1	 1.130998189396974e+000	 3.093032740513514e+000	 4.062556215199527e+000
1	 1.098397740721090e+000	 3.104759328737387e+000	 3.411605153968014e+000
1	 1.065753641439072e+000	 3.116115684793268e+000	 2.658803492179524e+000
1	 1.033071862586747e+000	 3.127102505413964e+000	 1.799426039088547e+000
1	 1.000358330381454e+000	 3.137720608334427e+000	 8.288805105705137e-001
1	 9.676189233639760e-001	 3.147970930342888e+000	-2.572869951533283e-001
1	 1.303605187588521e+000	 3.053356840633026e+000	 6.031824831944284e+000
1	 1.271052434737831e+000	 3.067050675493101e+000	 5.830391825906960e+000
1	 1.238425009605759e+000	 3.080369661169275e+000	 5.554881416036534e+000
1	 1.205729111483904e+000	 3.093313863505990e+000	 5.199908552198813e+000
1	 1.172970910069433e+000	 3.105883478913982e+000	 4.760195360187964e+000
1	 1.140156542198578e+000	 3.118078832830394e+000	 4.230578190760433e+000
1	 1.107292108652001e+000	 3.129900378086907e+000	 3.606014376931680e+000
1	 1.074383671034812e+000	 3.141348693189401e+000	 2.881588691308416e+000
1	 1.041437248733814e+000	 3.152424480512546e+000	 2.052519496110434e+000
1	 1.008458815954398e+000	 3.163128564412979e+000	 1.114164579421090e+000
1	 9.754542988393340e-001	 3.173461889264668e+000	 6.202667208503865e-002
1	 1.314076448139491e+000	 3.077883050972602e+000	 6.068596722511224e+000
1	 1.281262214006022e+000	 3.091686882106064e+000	 5.880555192757459e+000
1	 1.248372707783021e+000	 3.105112853064621e+000	 5.620881860491056e+000
1	 1.215414178558155e+000	 3.118161030221623e+000	 5.284135131451459e+000
1	 1.182392845586940e+000	 3.130831611565498e+000	 4.864987481248249e+000
1	 1.149314894999996e+000	 3.143124925147479e+000	 4.358232545327940e+000
1	 1.116186476582760e+000	 3.155041427436653e+000	 3.758791903248642e+000
1	 1.083013700630438e+000	 3.166581701585775e+000	 3.061721549237705e+000
1	 1.049802634880805e+000	 3.177746455611379e+000	 2.262218041921190e+000
1	 1.016559301527304e+000	 3.188536520491794e+000	 1.355624327025454e+000
1	 9.832896743146951e-001	 3.198952848186712e+000	 3.374352277596060e-001
1	 1.324547708690028e+000	 3.102409261312412e+000	 6.073435528455687e+000
1	 1.291471993273796e+000	 3.116323088719256e+000	 5.896731545883892e+000
1	 1.258320405959892e+000	 3.129856044960207e+000	 5.650939304608666e+000
1	 1.225099245632047e+000	 3.143008196937514e+000	 5.330591258525106e+000
1	 1.191814781104126e+000	 3.155779744217295e+000	 4.930341599751958e+000
1	 1.158473247801138e+000	 3.168171017464872e+000	 4.444973321846467e+000
1	 1.125080844513294e+000	 3.180182476786731e+000	 3.869404963277073e+000
1	 1.091643730225893e+000	 3.191814709982508e+000	 3.198697023474429e+000
1	 1.058168021027682e+000	 3.203068430710595e+000	 2.428058044718185e+000
1	 1.024659787100157e+000	 3.213944476571004e+000	 1.552850354056479e+000
1	 9.911250497900616e-001	 3.224443807109157e+000	 5.685954603852252e-001
1	 1.335018969240017e+000	 3.126935471652506e+000	 6.045988344788060e+000
1	 1.301681772541035e+000	 3.140959295332738e+000	 5.878498146689990e+000
1	 1.268268104136253e+000	 3.154599236856098e+000	 5.644579294588203e+000
1	 1.234784312705468e+000	 3.167855363653739e+000	 5.338768093731372e+000
1	 1.201236716620890e+000	 3.180727876869459e+000	 4.955731020520355e+000
1	 1.167631600601917e+000	 3.193217109782672e+000	 4.490271692181193e+000
1	 1.133975212443532e+000	 3.205323526137256e+000	 3.937337502552661e+000
1	 1.100273759821122e+000	 3.217047718379722e+000	 3.292025916788306e+000
1	 1.066533407174409e+000	 3.228390405810319e+000	 2.549590418737732e+000
1	 1.032760272672936e+000	 3.239352432650740e+000	 1.705446105730070e+000
1	 9.989604252654353e-001	 3.249934766032136e+000	 7.551749264349095e-001
1	 9.206066705118043e-001	 2.995025176810349e+000	-3.074484260104380e+000
1	 8.894388508920192e-001	 3.004428571538802e+000	-4.496140707781734e+000
1	 8.582574502751355e-001	 3.013484164285996e+000	-6.051143752223331e+000
1	 8.270679074953231e-001	 3.022193169862039e+000	-7.745900208795071e+000
1	 7.958756060941378e-001	 3.030556908289345e+000	-9.586626413953081e+000
1	 7.646858720132442e-001	 3.038576802639415e+000	-1.157934038760644e+001
1	 7.335039713734900e-001	 3.046254376817458e+000	-1.372985446783930e+001
1	 7.023351083413053e-001	 3.053591253298464e+000	-1.604376842219376e+001
1	 6.711844230832494e-001	 3.060589150818339e+000	-1.852646303849053e+001
1	 6.400569898093645e-001	 3.067249882023707e+000	-2.118309419696545e+001
1	 6.089578149058431e-001	 3.073575351083983e+000	-2.401858742432952e+001
1	 9.284420459871779e-001	 3.020516135733326e+000	-2.499608595304900e+000
1	 8.970089539361904e-001	 3.029999563695274e+000	-3.885096802230287e+000
1	 8.655621652988901e-001	 3.039132229498540e+000	-5.403072741668173e+000
1	 8.341071651999054e-001	 3.047915358292587e+000	-7.059302843085109e+000
1	 8.026493830006508e-001	 3.056350281334655e+000	-8.859361307609909e+000
1	 7.711941899724110e-001	 3.064438433808137e+000	-1.080862326964368e+001
1	 7.397468970565126e-001	 3.072181352588336e+000	-1.291225841221214e+001
1	 7.083127527125644e-001	 3.079580673959275e+000	-1.517522503880007e+001
1	 6.768969408555957e-001	 3.086638131285180e+000	-1.760226460326349e+001
1	 6.455045788827553e-001	 3.093355552640277e+000	-2.019789669830430e+001
1	 6.141407157900873e-001	 3.099734858400542e+000	-2.296641450190703e+001
1	 9.362774214625445e-001	 3.046007094655772e+000	-1.966326439801502e+000
1	 9.045790569802749e-001	 3.055570555851222e+000	-3.315800723399510e+000
1	 8.728668803224783e-001	 3.064780294710580e+000	-4.796455794147494e+000
1	 8.411464229042441e-001	 3.073637546722666e+000	-6.413419288788722e+000
1	 8.094231599068452e-001	 3.082143654379539e+000	-8.171625701437105e+000
1	 7.777025079311879e-001	 3.090300064976482e+000	-1.007581053582448e+001
1	 7.459898227390776e-001	 3.098108328358890e+000	-1.213050489149218e+001
1	 7.142903970833037e-001	 3.105570094619816e+000	-1.434003048524447e+001
1	 6.826094586273647e-001	 3.112687111751801e+000	-1.670849510812344e+001
1	 6.509521679555183e-001	 3.119461223256674e+000	-1.923978851714150e+001
1	 6.193236166736610e-001	 3.125894365716972e+000	-2.193757876000908e+001
1	 9.441127969379057e-001	 3.071498053577817e+000	-1.475055648664489e+000
1	 9.121491600242940e-001	 3.081141548006778e+000	-2.788591066787213e+000
1	 8.801715953459426e-001	 3.090428359922247e+000	-4.231568698344240e+000
1	 8.481856806084002e-001	 3.099359735152393e+000	-5.808478905763342e+000
1	 8.161969368128007e-001	 3.107937027424103e+000	-7.523618817103460e+000
1	 7.842108258896717e-001	 3.116161696144542e+000	-9.381087460609326e+000
1	 7.522327484212994e-001	 3.124035304129198e+000	-1.138478131223980e+001
1	 7.202680414536522e-001	 3.131559515280149e+000	-1.353839025610677e+001
1	 6.883219763987010e-001	 3.138736092218256e+000	-1.584539395679218e+001
1	 6.563997570278108e-001	 3.145566893872942e+000	-1.830905864157358e+001
1	 6.245065175567315e-001	 3.152053873033303e+000	-2.093243428968208e+001
1	 9.519481724132636e-001	 3.096989012499596e+000	-1.026200319696090e+000
1	 9.197192630682696e-001	 3.106712540162070e+000	-2.303795280128799e+000
1	 8.874763103693233e-001	 3.116076425133662e+000	-3.708678163001722e+000
1	 8.552249383124342e-001	 3.125081923581885e+000	-5.244703502527880e+000
1	 8.229707137185971e-001	 3.133730400468454e+000	-6.915533317195219e+000
1	 7.907191438479608e-001	 3.142023327312415e+000	-8.724633218567790e+000
1	 7.584756741032922e-001	 3.149962279899343e+000	-1.067526891092817e+001
1	 7.262456858237411e-001	 3.157548935940349e+000	-1.277050308035781e+001
1	 6.940344941697487e-001	 3.164785072684600e+000	-1.501319267097310e+001
1	 6.618473460997897e-001	 3.171672564489124e+000	-1.740598654518573e+001
1	 6.296894184394666e-001	 3.178213380349571e+000	-1.995132352404177e+001
1	 9.597835478886195e-001	 3.122479971421242e+000	-6.201513549809841e-001
1	 9.272893661122240e-001	 3.132283532317234e+000	-1.861730118431805e+000
1	 8.947810253926622e-001	 3.141724490344950e+000	-3.228042187552632e+000
1	 8.622641960164077e-001	 3.150804112011262e+000	-4.722307644496874e+000
1	 8.297444906243141e-001	 3.159523773512700e+000	-6.347555572947737e+000
1	 7.972274618061520e-001	 3.167884958480193e+000	-8.106621133366373e+000
1	 7.647185997851704e-001	 3.175889255669407e+000	-1.000214300579630e+001
1	 7.322233301936993e-001	 3.183538356600479e+000	-1.203656119752103e+001
1	 6.997470119406520e-001	 3.190834053150889e+000	-1.421211521208353e+001
1	 6.672949351716115e-001	 3.197778235105262e+000	-1.653084257541943e+001
1	 6.348723193220341e-001	 3.204372887665806e+000	-1.899457771413154e+001
1	 9.676189233639760e-001	 3.147970930342888e+000	-2.572869951533283e-001
1	 9.348594691561779e-001	 3.157854524472396e+000	-1.462702076901985e+000
1	 9.020857404160018e-001	 3.167372555556240e+000	-2.789910414740820e+000
1	 8.693034537203810e-001	 3.176526300440638e+000	-4.241498947238505e+000
1	 8.365182675300309e-001	 3.185317146556945e+000	-5.819865918968940e+000
1	 8.037357797643435e-001	 3.193746589647970e+000	-7.527218914659350e+000
1	 7.709615254670487e-001	 3.201816231439470e+000	-9.365573236466219e+000
1	 7.382009745636579e-001	 3.209527777260607e+000	-1.133675062041647e+001
1	 7.054595297115553e-001	 3.216883033617179e+000	-1.344237828735441e+001
1	 6.727425242434337e-001	 3.223883905721403e+000	-1.568388832307084e+001
1	 6.400552202046016e-001	 3.230532394982041e+000	-1.806251738166094e+001
1	 9.754542988393340e-001	 3.173461889264668e+000	 6.202667208503865e-002
1	 9.424295722001534e-001	 3.183425516627689e+000	-1.107007803004867e+000
1	 9.093904554393824e-001	 3.193020620767655e+000	-2.394524466248497e+000
1	 8.763427114244151e-001	 3.202248488870132e+000	-3.802478355599053e+000
1	 8.432920444358270e-001	 3.211110519601296e+000	-5.332638895686525e+000
1	 8.102440977226320e-001	 3.219608220815841e+000	-6.986588883562432e+000
1	 7.772044511490414e-001	 3.227743207209614e+000	-8.765723792011039e+000
1	 7.441786189337465e-001	 3.235517197920807e+000	-1.067125138524194e+001
1	 7.111720474826030e-001	 3.242932014083523e+000	-1.270419164117788e+001
1	 6.781901133154120e-001	 3.249989576337584e+000	-1.486537697398092e+001
1	 6.452381210873366e-001	 3.256691902298308e+000	-1.715545274992445e+001
1	 9.832896743146951e-001	 3.198952848186712e+000	 3.374352277596060e-001
1	 9.499996752441727e-001	 3.208996508783244e+000	-7.949344888256773e-001
1	 9.166951704628461e-001	 3.218668685979320e+000	-2.042118262276531e+000
1	 8.833819691285711e-001	 3.227970677299859e+000	-3.405440409482297e+000
1	 8.500658213417826e-001	 3.236903892645860e+000	-4.886043480203364e+000
1	 8.167524156811161e-001	 3.245469851983902e+000	-6.484888187346492e+000
1	 7.834473768312631e-001	 3.253670182979924e+000	-8.202753628119430e+000
1	 7.501562633040952e-001	 3.261506618581141e+000	-1.004023778969714e+001
1	 7.168845652539393e-001	 3.268980994549978e+000	-1.199775833252506e+001
1	 6.836377023877046e-001	 3.276095246953851e+000	-1.407555364391107e+001
1	 6.504210219704072e-001	 3.282851409614640e+000	-1.627368415411774e+001
1	 9.911250497900616e-001	 3.224443807109157e+000	 5.685954603852252e-001
1	 9.575697782882572e-001	 3.234567500939192e+000	-5.267602448187434e-001
1	 9.239998854864345e-001	 3.244316751191363e+000	-1.732918325966176e+000
1	 8.904212268329097e-001	 3.253692865729938e+000	-3.050573497021810e+000
1	 8.568395982479770e-001	 3.262697265690743e+000	-4.480243306202847e+000
1	 8.232607336398928e-001	 3.271331483152246e+000	-6.022269003947377e+000
1	 7.896903025138280e-001	 3.279597158750476e+000	-7.676816673958933e+000
1	 7.561339076748339e-001	 3.287496039241681e+000	-9.443878619813340e+000
1	 7.225970830257082e-001	 3.295029975016599e+000	-1.132327499920528e+001
1	 6.890852914604676e-001	 3.302200917570249e+000	-1.331465569753464e+001
1	 6.556039228539802e-001	 3.309010916931069e+000	-1.541750243219086e+001
1	 9.989604252654353e-001	 3.249934766032136e+000	 7.551749264349095e-001
1	 9.651398813324285e-001	 3.260138493095665e+000	-3.027544559676967e-001
1	 9.313046005101890e-001	 3.269964816403907e+000	-1.467144073494342e+000
1	 8.974604845374922e-001	 3.279415054160483e+000	-2.738060095839004e+000
1	 8.636133751544901e-001	 3.288490638736054e+000	-4.115396873504998e+000
1	 8.297690515990598e-001	 3.297193114320969e+000	-5.598878736851520e+000
1	 7.959332281968503e-001	 3.305524134521356e+000	-7.188062029304069e+000
1	 7.621115520460930e-001	 3.313485459902494e+000	-8.882337366107539e+000
1	 7.283096007980544e-001	 3.321078955483442e+000	-1.068093210968833e+001
1	 6.945328805338581e-001	 3.328306588186819e+000	-1.258291305241582e+001
1	 6.607868237382244e-001	 3.335170424247629e+000	-1.458718929730772e+001
1	 6.089578149058431e-001	 3.073575351083983e+000	-2.401858742432952e+001
1	 5.778964908983216e-001	 3.079566677810540e+000	-2.706485549530927e+001
1	 5.468732083162874e-001	 3.085226917223479e+000	-3.036074634823052e+001
1	 5.158927506883088e-001	 3.090558234994751e+000	-3.391991142810260e+001
1	 4.849598273529451e-001	 3.095562878368370e+000	-3.775574099090222e+001
1	 4.540790720423602e-001	 3.100243173639481e+000	-4.188134530497664e+001
1	 4.232550415549740e-001	 3.104601523616499e+000	-4.630953674394053e+001
1	 3.924922145166835e-001	 3.108640405069573e+000	-5.105281278240147e+001
1	 3.617949902300655e-001	 3.112362366168643e+000	-5.612333990343180e+001
1	 3.311676876108530e-001	 3.115770023914197e+000	-6.153293842434089e+001
1	 3.006145442108607e-001	 3.118866061563838e+000	-6.729306824500212e+001
1	 6.141407157900873e-001	 3.099734858400542e+000	-2.296641450190703e+001
1	 5.828150257461739e-001	 3.105777177908167e+000	-2.594070587702446e+001
1	 5.515277009021277e-001	 3.111485592184849e+000	-2.916060360350838e+001
1	 5.202835654996199e-001	 3.116862285334806e+000	-3.263917238979281e+001
1	 4.890873689588735e-001	 3.121909523728591e+000	-3.638921098344150e+001
1	 4.579437844502223e-001	 3.126629653460697e+000	-4.042323418565524e+001
1	 4.268574075554653e-001	 3.131025097790099e+000	-4.475345574718880e+001
1	 3.958327550185444e-001	 3.135098354567003e+000	-4.939177215579403e+001
1	 3.648742635849520e-001	 3.138851993649094e+000	-5.434974732294619e+001
1	 3.339862889291559e-001	 3.142288654310430e+000	-5.963859817531348e+001
1	 3.031731046692104e-001	 3.145411042646106e+000	-6.526918115418323e+001
1	 6.193236166736610e-001	 3.125894365716972e+000	-2.193757876000908e+001
1	 5.877335605933206e-001	 3.131987678005702e+000	-2.483559028096718e+001
1	 5.561821934872371e-001	 3.137744267146154e+000	-2.797439453318653e+001
1	 5.246743803101861e-001	 3.143166335674824e+000	-3.136631871390015e+001
1	 4.932149105640563e-001	 3.148256169088801e+000	-3.502342100758234e+001
1	 4.618084968573527e-001	 3.153016133281928e+000	-3.895747363510631e+001
1	 4.304597735552543e-001	 3.157448671963741e+000	-4.317994676555522e+001
1	 3.991732955197504e-001	 3.161556304064509e+000	-4.770199329941153e+001
1	 3.679535369392503e-001	 3.165341621129662e+000	-5.253443452957576e+001
1	 3.368048902469586e-001	 3.168807284706829e+000	-5.768774668444858e+001
1	 3.057316651271696e-001	 3.171956023728603e+000	-6.317204835515916e+001
1	 6.245065175567315e-001	 3.152053873033303e+000	-2.093243428968208e+001
1	 5.926520954399379e-001	 3.158198178103163e+000	-2.374993005101955e+001
1	 5.608366860717985e-001	 3.164002942107412e+000	-2.680259926283011e+001
1	 5.290651951201939e-001	 3.169470386014814e+000	-3.010188473604269e+001
1	 4.973424521686796e-001	 3.174602814449003e+000	-3.365895890164233e+001
1	 4.656732092639334e-001	 3.179402613103171e+000	-3.748470811315204e+001
1	 4.340621395545168e-001	 3.183872246137423e+000	-4.158971778445218e+001
1	 4.025138360204654e-001	 3.188014253562082e+000	-4.598425837009633e+001
1	 3.710328102931078e-001	 3.191831248610334e+000	-5.067827219311855e+001
1	 3.396234915643864e-001	 3.195325915103381e+000	-5.568136112322446e+001
1	 3.082902255848362e-001	 3.198501004811306e+000	-6.100277510621228e+001
1	 6.296894184394666e-001	 3.178213380349571e+000	-1.995132352404177e+001
1	 5.975706302862025e-001	 3.184408678200579e+000	-2.268413265893115e+001
1	 5.654911786559941e-001	 3.190261617068638e+000	-2.564568211057085e+001
1	 5.334560099298297e-001	 3.195774436354790e+000	-2.884638719961872e+001
1	 5.014699937729301e-001	 3.200949459809202e+000	-3.229639315022061e+001
1	 4.695379216701484e-001	 3.205789092924430e+000	-3.600556086171550e+001
1	 4.376645055534281e-001	 3.210295820311139e+000	-3.998345347990644e+001
1	 4.058543765208531e-001	 3.214472203059716e+000	-4.423932377331894e+001
1	 3.741120836466716e-001	 3.218320876091099e+000	-4.878210231784200e+001
1	 3.424420928815639e-001	 3.221844545500062e+000	-5.362038649117729e+001
1	 3.108487860423075e-001	 3.225045985894189e+000	-5.876243027661271e+001
1	 6.348723193220341e-001	 3.204372887665806e+000	-1.899457771413154e+001
1	 6.024891651322908e-001	 3.210619178297971e+000	-2.163859227055809e+001
1	 5.701456712400073e-001	 3.216520292029851e+000	-2.450409223234154e+001
1	 5.378468247392786e-001	 3.222078486694756e+000	-2.760032597389260e+001
1	 5.055975353769941e-001	 3.227296105169404e+000	-3.093627367418598e+001
1	 4.734026340761802e-001	 3.232175572745704e+000	-3.452063477090257e+001
1	 4.412668715521637e-001	 3.236719394484888e+000	-3.836181617001148e+001
1	 4.091949170210772e-001	 3.240930152557405e+000	-4.246792121430934e+001
1	 3.771913570000880e-001	 3.244810503571942e+000	-4.684673941256492e+001
1	 3.452606941986163e-001	 3.248363175896857e+000	-5.150573692910928e+001
1	 3.134073464996812e-001	 3.251590966977224e+000	-5.645204783196118e+001
1	 6.400552202046016e-001	 3.230532394982041e+000	-1.806251738166094e+001
1	 6.074076999783789e-001	 3.236829678395365e+000	-2.061369028459026e+001
1	 5.748001638240206e-001	 3.242778966991064e+000	-2.337826423576198e+001
1	 5.422376395487277e-001	 3.248382537034726e+000	-2.636418473719370e+001
1	 5.097250769810583e-001	 3.253642750529616e+000	-2.957913258228386e+001
1	 4.772673464822119e-001	 3.258562052566994e+000	-3.303051320300411e+001
1	 4.448692375508993e-001	 3.263142968658664e+000	-3.672544672015376e+001
1	 4.125354575213012e-001	 3.267388102055136e+000	-4.067075869811798e+001
1	 3.802706303535047e-001	 3.271300131052852e+000	-4.487297160389090e+001
1	 3.480792955156687e-001	 3.274881806293744e+000	-4.933829696849506e+001
1	 3.159659069570550e-001	 3.278135948060387e+000	-5.407262824736559e+001
1	 6.452381210873366e-001	 3.256691902298308e+000	-1.715545274992445e+001
1	 6.123262348246433e-001	 3.263040178492781e+000	-1.960979584531548e+001
1	 5.794546564082166e-001	 3.269037641952292e+000	-2.226861876443759e+001
1	 5.466284543583631e-001	 3.274686587374711e+000	-2.513843162718728e+001
1	 5.138526185853086e-001	 3.279989395889841e+000	-2.822548488651862e+001
1	 4.811320588884268e-001	 3.284948532388302e+000	-3.153576077678539e+001
1	 4.484716035498104e-001	 3.289566542832464e+000	-3.507496540461008e+001
1	 4.158759980216887e-001	 3.293846051552902e+000	-3.884852148147799e+001
1	 3.833499037070682e-001	 3.297789758533814e+000	-4.286156169578874e+001
1	 3.508978968328461e-001	 3.301400436690707e+000	-4.711892272067044e+001
1	 3.185244674145261e-001	 3.304680929143654e+000	-5.162513985250938e+001
1	 6.504210219704072e-001	 3.282851409614640e+000	-1.627368415411774e+001
1	 6.172447696712605e-001	 3.289250678590245e+000	-1.862726633086687e+001
1	 5.841091489927774e-001	 3.295296316913556e+000	-2.117556305432340e+001
1	 5.510192691683705e-001	 3.300990637714719e+000	-2.392351986005605e+001
1	 5.179801601899318e-001	 3.306336041250084e+000	-2.687582918333276e+001
1	 4.849967712950075e-001	 3.311335012209627e+000	-3.003692411427759e+001
1	 4.520739695490727e-001	 3.315990117006285e+000	-3.341097272695248e+001
1	 4.192165385224037e-001	 3.320304001050699e+000	-3.700187297915858e+001
1	 3.864291770609256e-001	 3.324279386014817e+000	-4.081324817851267e+001
1	 3.537164981502737e-001	 3.327919067087727e+000	-4.484844300916708e+001
1	 3.210830278721926e-001	 3.331225910226997e+000	-4.911052011241035e+001
1	 6.556039228539802e-001	 3.309010916931069e+000	-1.541750243219086e+001
1	 6.221633045184069e-001	 3.315461178687778e+000	-1.766644781831160e+001
1	 5.887636415778867e-001	 3.321554991874868e+000	-2.009949146369670e+001
1	 5.554100839789369e-001	 3.327294688054762e+000	-2.271988832031124e+001
1	 5.221077017951142e-001	 3.332682686610351e+000	-2.553064830247615e+001
1	 4.888614837021374e-001	 3.337721492030971e+000	-2.853453255214646e+001
1	 4.556763355488615e-001	 3.342413691180124e+000	-3.173405020153787e+001
1	 4.225570790236095e-001	 3.346761950548516e+000	-3.513145562732680e+001
1	 3.895084504152238e-001	 3.350769013495848e+000	-3.872874618966753e+001
1	 3.565350994680763e-001	 3.354437697484784e+000	-4.252766044833540e+001
1	 3.236415883301517e-001	 3.357770891310391e+000	-4.652967684742932e+001
1	 6.607868237382244e-001	 3.335170424247629e+000	-1.458718929730772e+001
1	 6.270818393662588e-001	 3.341671678785408e+000	-1.672767552685172e+001
1	 5.934181341637269e-001	 3.347813666836248e+000	-1.904078597818894e+001
1	 5.598008987902480e-001	 3.353598738394851e+000	-2.152796212284649e+001
1	 5.262352434010424e-001	 3.359029331970650e+000	-2.419040992533775e+001
1	 4.927261961099995e-001	 3.364107971852335e+000	-2.702909881958366e+001
1	 4.592787015493526e-001	 3.368837265353978e+000	-3.004476109821945e+001
1	 4.258976195254701e-001	 3.373219900046345e+000	-3.323789170627832e+001
1	 3.925877237701100e-001	 3.377258640976892e+000	-3.660874843004356e+001
1	 3.593537007863792e-001	 3.380956327881860e+000	-4.015735247120639e+001
1	 3.262001487885013e-001	 3.384315872393811e+000	-4.388348939586275e+001
1	 3.006145442108607e-001	 3.118866061563838e+000	-6.729306824500213e+001
1	 2.701351603285507e-001	 3.121653621246674e+000	-7.341837644499057e+001
1	 2.397382515072781e-001	 3.124135025063762e+000	-7.992378321085278e+001
1	 2.094278692182756e-001	 3.126313141612288e+000	-8.682326617358618e+001
1	 1.792079785623936e-001	 3.128190895538556e+000	-9.413040902447389e+001
1	 1.490824577193058e-001	 3.129771264960267e+000	-1.018583872564248e+002
1	 1.190550974780867e-001	 3.131057278902433e+000	-1.100199549015202e+002
1	 8.912960084760516e-002	 3.132052014749407e+000	-1.186274322594475e+002
1	 5.930958274510327e-002	 3.132758595715477e+000	-1.276926946095260e+002
1	 2.959856976126271e-002	 3.133180188336288e+000	-1.372271618971448e+002
1	 0.000000000000000e+000	 3.133319999983334e+000	-1.472417893836440e+002
1	 3.031731046692104e-001	 3.145411042646106e+000	-6.526918115418323e+001
1	 2.724343077016804e-001	 3.148222327528215e+000	-7.125648546509338e+001
1	 2.417786877487560e-001	 3.150724850821440e+000	-7.761646306778354e+001
1	 2.112103307641128e-001	 3.152921505537871e+000	-8.436345731838424e+001
1	 1.807332355959380e-001	 3.154815241215753e+000	-9.151141001703493e+001
1	 1.503513134314472e-001	 3.156409061319833e+000	-9.907384650361946e+001
1	 1.200683873234675e-001	 3.157706020655441e+000	-1.070638617859856e+002
1	 8.988819179751505e-002	 3.158709222798846e+000	-1.154941076952947e+002
1	 5.981437253772246e-002	 3.159421817546308e+000	-1.243767810610895e+002
1	 2.985048614990661e-002	 3.159846998384163e+000	-1.337236128967076e+002
1	 0.000000000000000e+000	 3.159987999982151e+000	-1.435458585838017e+002
1	 3.057316651271696e-001	 3.171956023728603e+000	-6.317204835515916e+001
1	 2.747334550745511e-001	 3.174791033810060e+000	-6.900258403442912e+001
1	 2.438191239901174e-001	 3.177314676579507e+000	-7.519618208554168e+001
1	 2.129927923099753e-001	 3.179529869463932e+000	-8.176731217062890e+001
1	 1.822584926296362e-001	 3.181439586893517e+000	-8.873003962279755e+001
1	 1.516201691438462e-001	 3.183046857680052e+000	-9.609801015648569e+001
1	 1.210816771691732e-001	 3.184354762409180e+000	-1.038844356314289e+002
1	 9.064678274776877e-002	 3.185366430849082e+000	-1.121020808648786e+002
1	 6.031916233064513e-002	 3.186085039377992e+000	-1.207632514845934e+002
1	 3.010240253874304e-002	 3.186513808432925e+000	-1.298797828131205e+002
1	 0.000000000000000e+000	 3.186655999981866e+000	-1.394630297719816e+002
1	 3.082902255848362e-001	 3.198501004811306e+000	-6.100277510621230e+001
1	 2.770326024472274e-001	 3.201359740092178e+000	-6.665792473548491e+001
1	 2.458595602313914e-001	 3.203904502337920e+000	-7.266435890647568e+001
1	 2.147752538558565e-001	 3.206138233390415e+000	-7.903644049409593e+001
1	 1.837837496634497e-001	 3.208063932571784e+000	-8.578813002736473e+001
1	 1.528890248564384e-001	 3.209684654040850e+000	-9.293297027103250e+001
1	 1.220949670151225e-001	 3.211003504163571e+000	-1.004840718670012e+002
1	 9.140537369828046e-002	 3.212023638900031e+000	-1.084541000301755e+002
1	 6.082395212379545e-002	 3.212748261210433e+000	-1.168552622912682e+002
1	 3.035431892772387e-002	 3.213180618482476e+000	-1.256992972770504e+002
1	 0.000000000000000e+000	 3.213323999982383e+000	-1.349974645166187e+002
1	 3.108487860423075e-001	 3.225045985894189e+000	-5.876243027661271e+001
1	 2.793317498197742e-001	 3.227928446374532e+000	-6.422371891130206e+001
1	 2.478999964726072e-001	 3.230494328096634e+000	-7.002236546620986e+001
1	 2.165577154017504e-001	 3.232746597317268e+000	-7.617239905344516e+001
1	 1.853090066973401e-001	 3.234688278250491e+000	-8.268745309430761e+001
1	 1.541578805691593e-001	 3.236322450402155e+000	-8.958075002538385e+001
1	 1.231082568612342e-001	 3.237652245918530e+000	-9.686508705584987e+001
1	 9.216396464896409e-002	 3.238680846951602e+000	-1.045528229706493e+002
1	 6.132874191709752e-002	 3.239411483043539e+000	-1.126558659721117e+002
1	 3.060623531680096e-002	 3.239847428532718e+000	-1.211856625505643e+002
1	 0.000000000000000e+000	 3.239991999983598e+000	-1.301531873725750e+002
1	 3.134073464996812e-001	 3.251590966977224e+000	-5.645204783196120e+001
1	 2.816308971922561e-001	 3.254497152657088e+000	-6.170113834880625e+001
1	 2.499404327137938e-001	 3.257084153855605e+000	-6.727152890014257e+001
1	 2.183401769476505e-001	 3.259354961244440e+000	-7.317669377756110e+001
1	 1.868342637312690e-001	 3.261312623929576e+000	-7.942972282741954e+001
1	 1.554267362819446e-001	 3.262960246763894e+000	-8.604330653126789e+001
1	 1.241215467074271e-001	 3.264300987673977e+000	-9.302972211430793e+001
1	 9.292255559973367e-002	 3.265338055003705e+000	-1.004008206766106e+002
1	 6.183353171047546e-002	 3.266074704877213e+000	-1.081680153397545e+002
1	 3.085815170592619e-002	 3.266514238583551e+000	-1.163422703995697e+002
1	 0.000000000000000e+000	 3.266659999985416e+000	-1.249340914738200e+002
1	 3.159659069570550e-001	 3.278135948060387e+000	-5.407262824736557e+001
1	 2.839300445647380e-001	 3.281065858939814e+000	-5.909131688035264e+001
1	 2.519808689549805e-001	 3.283673979614793e+000	-6.441313335731226e+001
1	 2.201226384935507e-001	 3.285963325171877e+000	-7.005078181778870e+001
1	 1.883595207651979e-001	 3.287936969608973e+000	-7.601659771333866e+001
1	 1.566955919947300e-001	 3.289598043125997e+000	-8.232253350890974e+001
1	 1.251348365536200e-001	 3.290949729429830e+000	-8.898014537467603e+001
1	 9.368114655050329e-002	 3.291995263056253e+000	-9.600058086312890e+001
1	 6.233832150385341e-002	 3.292737926711361e+000	-1.033945675642280e+002
1	 3.111006809505144e-002	 3.293181048634878e+000	-1.111724027295268e+002
1	 0.000000000000000e+000	 3.293327999987732e+000	-1.193439438543883e+002
1	 3.185244674145261e-001	 3.304680929143654e+000	-5.162513985250937e+001
1	 2.862291919372848e-001	 3.307634565222676e+000	-5.639535190808320e+001
1	 2.540213051961962e-001	 3.310263805374154e+000	-6.144842172684649e+001
1	 2.219051000394445e-001	 3.312571689099526e+000	-6.679607350697113e+001
1	 1.898847777990883e-001	 3.314561315288625e+000	-7.244968295126594e+001
1	 1.579644477074510e-001	 3.316235839488388e+000	-7.842026383300400e+001
1	 1.261481263997318e-001	 3.317598471186007e+000	-8.471845550039504e+001
1	 9.443973750118694e-002	 3.318652471109157e+000	-9.135451131459132e+001
1	 6.284311129715553e-002	 3.319401148545888e+000	-9.833828801423138e+001
1	 3.136198448412856e-002	 3.319847858686600e+000	-1.056792359977406e+002
1	 0.000000000000000e+000	 3.319995999990449e+000	-1.133863905128914e+002
1	 3.210830278721926e-001	 3.331225910226997e+000	-4.911052011241034e+001
1	 2.885283393099610e-001	 3.334203271505640e+000	-5.361430585540343e+001
1	 2.560617414374702e-001	 3.336853631133645e+000	-5.837859728186666e+001
1	 2.236875615853258e-001	 3.339180053027334e+000	-6.341393422482358e+001
1	 1.914100348329019e-001	 3.341185660968463e+000	-6.873053257607961e+001
1	 1.592333034200432e-001	 3.342873635850999e+000	-7.433827195696503e+001
1	 1.271614162456811e-001	 3.344247212942430e+000	-8.024668426183887e+001
1	 9.519832845169869e-002	 3.345309679162327e+000	-8.646494306935423e+001
1	 6.334790109030591e-002	 3.346064370380699e+000	-9.300185391474061e+001
1	 3.161390087310945e-002	 3.346514668738617e+000	-9.986584541469378e+001
1	 0.000000000000000e+000	 3.346663999993466e+000	-1.070649612348911e+002
1	 3.236415883301517e-001	 3.357770891310391e+000	-4.652967684742932e+001
1	 2.908274866828316e-001	 3.360771977788671e+000	-5.074920754961062e+001
1	 2.581021776788315e-001	 3.363443456893222e+000	-5.520482524541677e+001
1	 2.254700231311882e-001	 3.365788416955247e+000	-5.990568617482646e+001
1	 1.929352918666001e-001	 3.367810006648428e+000	-6.486065148074290e+001
1	 1.605021591324423e-001	 3.369511432213753e+000	-7.007827622218423e+001
1	 1.281747060913868e-001	 3.370895954699013e+000	-7.556679918044227e+001
1	 9.595691940195257e-002	 3.371966887215674e+000	-8.133413345333770e+001
1	 6.385269088322870e-002	 3.372727592215701e+000	-8.738785783112570e+001
1	 3.186581726194594e-002	 3.373181478790831e+000	-9.373520894610184e+001
1	 0.000000000000000e+000	 3.373331999996682e+000	-1.003830741865300e+002
1	 3.262001487885013e-001	 3.384315872393811e+000	-4.388348939586275e+001
1	 2.931266340559613e-001	 3.387340684071737e+000	-4.780105353945344e+001
1	 2.601426139203095e-001	 3.390033282652842e+000	-5.192823428269752e+001
1	 2.272524846770256e-001	 3.392396780883214e+000	-5.627261007749586e+001
1	 1.944605489001446e-001	 3.394434352328458e+000	-6.084149734353365e+001
1	 1.617710148445838e-001	 3.396149228576582e+000	-6.564194105861213e+001
1	 1.291879959367679e-001	 3.397544696455681e+000	-7.068070604839514e+001
1	 9.671551035186263e-002	 3.398624095269111e+000	-7.596426897085327e+001
1	 6.435748067584801e-002	 3.399390814050797e+000	-8.149881098930256e+001
1	 3.211773365058992e-002	 3.399848288843146e+000	-8.729021112662136e+001
1	 0.000000000000000e+000	 3.400000000000000e+000	-9.334404029198245e+001
1	 3.400000000000000e+000	 0.000000000000000e+000	 7.313230569804729e+001
1	 3.399848288843145e+000	 3.211773365058895e-002	 6.843714236918963e+001
1	 3.399390814050797e+000	 6.435748067584715e-002	 6.388485005500671e+001
1	 3.398624095269111e+000	 9.671551035186185e-002	 5.947762327827431e+001
1	 3.397544696455680e+000	 1.291879959367673e-001	 5.521756463393672e+001
1	 3.396149228576582e+000	 1.617710148445832e-001	 5.110668242682097e+001
1	 3.394434352328458e+000	 1.944605489001441e-001	 4.714688839237093e+001
1	 3.392396780883214e+000	 2.272524846770251e-001	 4.333999550625623e+001
1	 3.390033282652842e+000	 2.601426139203092e-001	 3.968771588869498e+001
1	 3.387340684071737e+000	 2.931266340559610e-001	 3.619165880930070e+001
1	 3.384315872393812e+000	 3.262001487885012e-001	 3.285332879821782e+001
1	 3.426668000003317e+000	 0.000000000000000e+000	 6.943553302684740e+001
1	 3.426515098895459e+000	 3.236965003900857e-002	 6.498573617898228e+001
1	 3.426054035885893e+000	 6.486227046811326e-002	 6.066725355309704e+001
1	 3.425281303322550e+000	 9.747410130137260e-002	 5.648273607517722e+001
1	 3.424193438212349e+000	 1.302012857817725e-001	 5.243474650045968e+001
1	 3.422787024939412e+000	 1.630398705564287e-001	 4.852575642441230e+001
1	 3.421058698008491e+000	 1.959858059335152e-001	 4.475814335488678e+001
1	 3.419005144811186e+000	 2.290349462228409e-001	 4.113418785181045e+001
1	 3.416623108412468e+000	 2.621830501619325e-001	 3.765607074083359e+001
1	 3.413909390354809e+000	 2.954257814294041e-001	 3.432587040738714e+001
1	 3.410860853477238e+000	 3.287587092473184e-001	 3.114556017762608e+001
1	 3.453336000006534e+000	 0.000000000000000e+000	 6.578736100513088e+001
1	 3.453181908947674e+000	 3.262156642723706e-002	 6.158023797750942e+001
1	 3.452717257720900e+000	 6.536706026008117e-002	 5.749315223878796e+001
1	 3.451938511375909e+000	 9.823269225055065e-002	 5.352920481761639e+001
1	 3.450842179968952e+000	 1.312145756264717e-001	 4.969141071558740e+001
1	 3.449424821302195e+000	 1.643087262680443e-001	 4.598269525170122e+001
1	 3.447683043688490e+000	 1.975110629667697e-001	 4.240589044742460e+001
1	 3.445613508739142e+000	 2.308174077686786e-001	 3.896373145933282e+001
1	 3.443212934172093e+000	 2.642234864037291e-001	 3.565885306644590e+001
1	 3.440478096637889e+000	 2.977249288031721e-001	 3.249378621947295e+001
1	 3.437405834560681e+000	 3.313172697066004e-001	 2.947095465927018e+001
1	 3.480004000009550e+000	 0.000000000000000e+000	 6.219340328127151e+001
1	 3.479848718999697e+000	 3.287348281532392e-002	 5.822611840576452e+001
1	 3.479380479555727e+000	 6.587185005183192e-002	 5.436784301894080e+001
1	 3.478595719429112e+000	 9.899128319949314e-002	 5.062212201032228e+001
1	 3.477490921725427e+000	 1.322278654709649e-001	 4.699241479464462e+001
1	 3.476062617664880e+000	 1.655775819795217e-001	 4.348209095045112e+001
1	 3.474307389368425e+000	 1.990363199999830e-001	 4.009442587995192e+001
1	 3.472221872667066e+000	 2.325998693145916e-001	 3.683259649787729e+001
1	 3.469802759931711e+000	 2.662639226457270e-001	 3.369967695724105e+001
1	 3.467046802920989e+000	 3.000240761772669e-001	 3.069863442010487e+001
1	 3.463950815644159e+000	 3.338758301663241e-001	 2.783232488159374e+001
1	 3.506672000012267e+000	 0.000000000000000e+000	 5.865910273801817e+001
1	 3.506515529051426e+000	 3.312539920331866e-002	 5.492868168935436e+001
1	 3.506043701390284e+000	 6.637663984344665e-002	 5.129646166996935e+001
1	 3.505252927482078e+000	 9.974987414829721e-002	 4.776642524543033e+001
1	 3.504139663481709e+000	 1.332411553153518e-001	 4.434246848867157e+001
1	 3.502700414027417e+000	 1.668464376909529e-001	 4.102839587377149e+001
1	 3.500931735048262e+000	 2.005615770332309e-001	 3.782791517290335e+001
1	 3.498830236594935e+000	 2.343823308606331e-001	 3.474463236503964e+001
1	 3.496392585691322e+000	 2.683043588879536e-001	 3.178204656524538e+001
1	 3.493615509204113e+000	 3.023232235516897e-001	 2.894354498364149e+001
1	 3.490495796727685e+000	 3.364343906264661e-001	 2.623239792334737e+001
1	 3.533340000014583e+000	 0.000000000000000e+000	 5.518973793679143e+001
1	 3.533182339102767e+000	 3.337731559127077e-002	 5.169307191862737e+001
1	 3.532706923224484e+000	 6.688142963500651e-002	 4.828398891852652e+001
1	 3.531910135534732e+000	 1.005084650970601e-001	 4.496690304852031e+001
1	 3.530788405237733e+000	 1.342544451597326e-001	 4.174613936070244e+001
1	 3.529338210389759e+000	 1.681152934024298e-001	 3.862592795764142e+001
1	 3.527556080727968e+000	 2.020868340665887e-001	 3.561039808909816e+001
1	 3.525438600522739e+000	 2.361647924068565e-001	 3.270357224459001e+001
1	 3.522982411450922e+000	 2.703447951304370e-001	 2.990936025166911e+001
1	 3.520184215487275e+000	 3.046223709264418e-001	 2.723155339009891e+001
1	 3.517040777811276e+000	 3.389929510870033e-001	 2.467381853241172e+001
1	 3.560008000016400e+000	 0.000000000000000e+000	 5.179042927233463e+001
1	 3.559849149153620e+000	 3.362923197922979e-002	 4.852427904653546e+001
1	 3.559370145058233e+000	 6.738621942659251e-002	 4.533525624888947e+001
1	 3.558567343586992e+000	 1.012670560458787e-001	 4.222820046190047e+001
1	 3.557437146993432e+000	 1.352677350042070e-001	 3.920785811141342e+001
1	 3.555976006751857e+000	 1.693841491140445e-001	 3.627887575549947e+001
1	 3.554180426407512e+000	 2.036120911001322e-001	 3.344579334398837e+001
1	 3.552046964450459e+000	 2.379472539533151e-001	 3.071303745925858e+001
1	 3.549572237210508e+000	 2.723852313732046e-001	 2.808491454929811e+001
1	 3.546752921770479e+000	 3.069215183015246e-001	 2.556560416443368e+001
1	 3.543585758894952e+000	 3.415515115479126e-001	 2.315915220949777e+001
1	 3.586676000017616e+000	 0.000000000000000e+000	 4.846614485279481e+001
1	 3.586515959203891e+000	 3.388114836724521e-002	 4.542714461892084e+001
1	 3.586033366891443e+000	 6.789100921828582e-002	 4.245495145126593e+001
1	 3.585224551638781e+000	 1.020256469948503e-001	 3.955482437881090e+001
1	 3.584085888748746e+000	 1.362810248488752e-001	 3.673192366718386e+001
1	 3.582613803113660e+000	 1.706530048258888e-001	 3.399130324823143e+001
1	 3.580804772086859e+000	 2.051373481339368e-001	 3.133790310577372e+001
1	 3.578655328378078e+000	 2.397297155000623e-001	 2.877654162933528e+001
1	 3.576162062970080e+000	 2.744256676162844e-001	 2.631190794811669e+001
1	 3.573321628053737e+000	 3.092206656769396e-001	 2.394855425793189e+001
1	 3.570130739978727e+000	 3.441100720091706e-001	 2.169088815427795e+001
1	 3.613344000018133e+000	 0.000000000000000e+000	 4.522170611941878e+001
1	 3.613182769253481e+000	 3.413306475536655e-002	 4.240636725105043e+001
1	 3.612696588724027e+000	 6.839579901016755e-002	 3.964762392440819e+001
1	 3.611881759690020e+000	 1.027842379440719e-001	 3.695114864141490e+001
1	 3.610734630503606e+000	 1.372943146938367e-001	 3.432250804284538e+001
1	 3.609251599475123e+000	 1.719218605380546e-001	 3.176715444115973e+001
1	 3.607429117765978e+000	 2.066626051680781e-001	 2.929041729624099e+001
1	 3.605263692305578e+000	 2.415121770471514e-001	 2.689749464711681e+001
1	 3.602751888729632e+000	 2.764661038597041e-001	 2.459344451329339e+001
1	 3.599890334337058e+000	 3.115198130526880e-001	 2.238317627986202e+001
1	 3.596675721062617e+000	 3.466686324707543e-001	 2.027144208105516e+001
1	 3.640012000017849e+000	 0.000000000000000e+000	 4.206179321921781e+001
1	 3.639849579302291e+000	 3.438498114364327e-002	 3.946650786341277e+001
1	 3.639359810555890e+000	 6.890058880231878e-002	 3.691768974513388e+001
1	 3.638538967740630e+000	 1.035428288936408e-001	 3.442141891469264e+001
1	 3.637383372257951e+000	 1.383076045391919e-001	 3.198366099067345e+001
1	 3.635889395836193e+000	 1.731907162506340e-001	 2.961025775895822e+001
1	 3.634053463444836e+000	 2.081878622026318e-001	 2.730691770254613e+001
1	 3.631872056232943e+000	 2.432946385946359e-001	 2.507920647664423e+001
1	 3.629341714489163e+000	 2.785065401034913e-001	 2.293253734412680e+001
1	 3.626459040620449e+000	 3.138189604287712e-001	 2.087216158707044e+001
1	 3.623220702146640e+000	 3.492271929326404e-001	 1.890315891066020e+001
1	 3.666680000016666e+000	 0.000000000000000e+000	 3.899095014317748e+001
1	 3.666516389350228e+000	 3.463689753212493e-002	 3.661199468903267e+001
1	 3.666023032386948e+000	 6.940537859482067e-002	 3.426943651662084e+001
1	 3.665196175790535e+000	 1.043014198436540e-001	 3.196975734764547e+001
1	 3.664032114011716e+000	 1.393208943850406e-001	 2.971931444650481e+001
1	 3.662527192196825e+000	 1.744595719637187e-001	 2.752433024877945e+001
1	 3.660677809123401e+000	 2.097131192376734e-001	 2.539088190956507e+001
1	 3.658480420160159e+000	 2.450771001425689e-001	 2.332489078762628e+001
1	 3.655931540248671e+000	 2.805469763476741e-001	 2.133211188204914e+001
1	 3.653027746903921e+000	 3.161181078051908e-001	 1.941812323875208e+001
1	 3.649765683230814e+000	 3.517857533948059e-001	 1.758831534487931e+001
1	 3.384315872393812e+000	 3.262001487885012e-001	 3.285332879821782e+001
1	 3.380956327881861e+000	 3.593537007863771e-001	 2.965454389341216e+001
1	 3.377258640976894e+000	 3.925877237701082e-001	 2.657720863359731e+001
1	 3.373219900046344e+000	 4.258976195254685e-001	 2.362419507330308e+001
1	 3.368837265353977e+000	 4.592787015493514e-001	 2.079817125634843e+001
1	 3.364107971852335e+000	 4.927261961099984e-001	 1.810159478102571e+001
1	 3.359029331970650e+000	 5.262352434010417e-001	 1.553670653877753e+001
1	 3.353598738394850e+000	 5.598008987902472e-001	 1.310552464246763e+001
1	 3.347813666836248e+000	 5.934181341637268e-001	 1.080983856040247e+001
1	 3.341671678785408e+000	 6.270818393662589e-001	 8.651203472271828e+000
1	 3.335170424247629e+000	 6.607868237382244e-001	 6.630934863145119e+000
1	 3.410860853477238e+000	 3.287587092473184e-001	 3.114556017762608e+001
1	 3.407474958278943e+000	 3.621723021052771e-001	 2.809614870826671e+001
1	 3.403748268457944e+000	 3.956669971256946e-001	 2.515876516986609e+001
1	 3.399677849544183e+000	 4.292381600281081e-001	 2.233672911731048e+001
1	 3.395260839527841e+000	 4.628810675506773e-001	 1.963315247910502e+001
1	 3.390494451673717e+000	 4.965909085187304e-001	 1.705093228381418e+001
1	 3.385375977330978e+000	 5.303627850078559e-001	 1.459274354683099e+001
1	 3.379902788734987e+000	 5.641917136024436e-001	 1.226103233488653e+001
1	 3.374072341797700e+000	 5.980726267504359e-001	 1.005800902583634e+001
1	 3.367882178883140e+000	 6.320003742149504e-001	 7.985641781339568e+000
1	 3.361329931564332e+000	 6.659697246232670e-001	 6.045650250081110e+000
1	 3.437405834560681e+000	 3.313172697066004e-001	 2.947095465927018e+001
1	 3.433993588676044e+000	 3.649909034247585e-001	 2.657054738160521e+001
1	 3.430237895939014e+000	 3.987462704819554e-001	 2.377289442482202e+001
1	 3.426135799042035e+000	 4.325787005314931e-001	 2.108172358651801e+001
1	 3.421684413701722e+000	 4.664834335528000e-001	 1.850055219469284e+001
1	 3.416880931495113e+000	 5.004556209282912e-001	 1.603267906768616e+001
1	 3.411722622691324e+000	 5.344903266155147e-001	 1.368117662171910e+001
1	 3.406206839075147e+000	 5.685825284154835e-001	 1.144888314463529e+001
1	 3.400331016759192e+000	 6.027271193379757e-001	 9.338395254625707e+000
1	 3.394092678980937e+000	 6.369189090644477e-001	 7.352060562866408e+000
1	 3.387489438881134e+000	 6.711526255090805e-001	 5.491970559092806e+000
1	 3.463950815644159e+000	 3.338758301663241e-001	 2.783232488159374e+001
1	 3.460512219073185e+000	 3.678095047447778e-001	 2.508013558587009e+001
1	 3.456727523420122e+000	 4.018255438388306e-001	 2.242160216794097e+001
1	 3.452593748539921e+000	 4.359192410355516e-001	 1.986082229012075e+001
1	 3.448107987875622e+000	 4.700857995556378e-001	 1.740168106144786e+001
1	 3.443267411316521e+000	 5.043203333385943e-001	 1.504784230231313e+001
1	 3.438069268051671e+000	 5.386178682239288e-001	 1.280273994439706e+001
1	 3.432510889415307e+000	 5.729733432292812e-001	 1.066956958557229e+001
1	 3.426589691720682e+000	 6.073816119262635e-001	 8.651280219674977e+000
1	 3.420303179078740e+000	 6.418374439146738e-001	 6.750566161251423e+000
1	 3.413648946197964e+000	 6.763355263955971e-001	 4.969859185541341e+000
1	 3.490495796727685e+000	 3.364343906264661e-001	 2.623239792334737e+001
1	 3.487030849470385e+000	 3.706281060652908e-001	 2.362723611780329e+001
1	 3.483217150901287e+000	 4.049048171962604e-001	 2.110683315374047e+001
1	 3.479051698037852e+000	 4.392597815402110e-001	 1.867561903308799e+001
1	 3.474531562049550e+000	 4.736881655591103e-001	 1.633780986783851e+001
1	 3.469653891137934e+000	 5.081850457495538e-001	 1.409739851954155e+001
1	 3.464415913412003e+000	 5.427454098330111e-001	 1.195814536223711e+001
1	 3.458814939755432e+000	 5.773641580437487e-001	 9.923569189419997e+000
1	 3.452848366682128e+000	 6.120361045152160e-001	 7.996938285930908e+000
1	 3.446513679176500e+000	 6.467559787655530e-001	 6.181261685926780e+000
1	 3.439808453514761e+000	 6.815184272827488e-001	 4.479280638291662e+000
1	 3.517040777811276e+000	 3.389929510870033e-001	 2.467381853241172e+001
1	 3.513549479867664e+000	 3.734467073862540e-001	 2.221410164860485e+001
1	 3.509706778382525e+000	 4.079840905541843e-001	 1.983047342434137e+001
1	 3.505509647535839e+000	 4.426003220453982e-001	 1.752765950320660e+001
1	 3.500955136223510e+000	 4.772905315631356e-001	 1.531017103706185e+001
1	 3.496040370959348e+000	 5.120497581610831e-001	 1.318229476959295e+001
1	 3.490762558772304e+000	 5.468729514426732e-001	 1.114808323184604e+001
1	 3.485118990095495e+000	 5.817549728588000e-001	 9.211345071155872e+000
1	 3.479107041643488e+000	 6.166905971047498e-001	 7.375635535227048e+000
1	 3.472724179274159e+000	 6.516745136170080e-001	 5.644247133437961e+000
1	 3.465967960831456e+000	 6.867013281704680e-001	 4.020200497691184e+000
1	 3.543585758894952e+000	 3.415515115479126e-001	 2.315915220949777e+001
1	 3.540068110265041e+000	 3.762653087076237e-001	 2.084291735048310e+001
1	 3.536196405863857e+000	 4.110633639125423e-001	 1.859435250853939e+001
1	 3.531967597033896e+000	 4.459408625510411e-001	 1.641844307330834e+001
1	 3.527378710397507e+000	 4.808928975676332e-001	 1.431996006401374e+001
1	 3.522426850780760e+000	 5.159144705730966e-001	 1.230344972529758e+001
1	 3.517109204132556e+000	 5.510004930528267e-001	 1.037322322400136e+001
1	 3.511423040435468e+000	 5.861457876743474e-001	 8.533346468991152e+000
1	 3.505365716604721e+000	 6.213450896947831e-001	 6.787630076527741e+000
1	 3.498934679371662e+000	 6.565930484689633e-001	 5.139619504036973e+000
1	 3.492127468147987e+000	 6.918842290586874e-001	 3.592585375437781e+000
1	 3.570130739978727e+000	 3.441100720091706e-001	 2.169088815427796e+001
1	 3.566586740662536e+000	 3.790839100293559e-001	 1.951580340602990e+001
1	 3.562686033345300e+000	 4.141426372712739e-001	 1.740024552277177e+001
1	 3.558425546532041e+000	 4.492814030570673e-001	 1.534942452309751e+001
1	 3.553802284571547e+000	 4.844952635725216e-001	 1.336833688815336e+001
1	 3.548813330602161e+000	 5.197791829855073e-001	 1.146175473706612e+001
1	 3.543455849492744e+000	 5.551280346633838e-001	 9.634215092677778e+000
1	 3.537727090775321e+000	 5.905366024903045e-001	 7.890009260260841e+000
1	 3.531624391565782e+000	 6.259995822852327e-001	 6.233172342331410e+000
1	 3.525145179468955e+000	 6.615115833213419e-001	 4.667472913074326e+000
1	 3.518286975464284e+000	 6.970671299473390e-001	 3.196402876237857e+000
1	 3.596675721062617e+000	 3.466686324707543e-001	 2.027144208105517e+001
1	 3.593105371060168e+000	 3.819025113514069e-001	 1.823481740647437e+001
1	 3.589175660826872e+000	 4.172219106303193e-001	 1.624987517904784e+001
1	 3.584883496030280e+000	 4.526219435634040e-001	 1.432201568473108e+001
1	 3.580225858745636e+000	 4.880976295777196e-001	 1.245642720557396e+001
1	 3.575199810423550e+000	 5.236438953982293e-001	 1.065807484114466e+001
1	 3.569802494852850e+000	 5.592555762742566e-001	 8.931689410019390e+000
1	 3.564031141115021e+000	 5.949274173065843e-001	 7.281756454467947e+000
1	 3.557883066526630e+000	 6.306540748760149e-001	 5.712505371948597e+000
1	 3.551355679565987e+000	 6.664301181740678e-001	 4.227898697457775e+000
1	 3.544446482780285e+000	 7.022500308363557e-001	 2.831621561162355e+000
1	 3.623220702146640e+000	 3.492271929326404e-001	 1.890315891066020e+001
1	 3.619624001457956e+000	 3.847211126737330e-001	 1.700195664451383e+001
1	 3.615665288308593e+000	 4.203011839896185e-001	 1.514491370461508e+001
1	 3.611341445528634e+000	 4.559624840699788e-001	 1.333758701606267e+001
1	 3.606649432919779e+000	 4.916999955831461e-001	 1.158532372339707e+001
1	 3.601586290244920e+000	 5.275086078111761e-001	 9.893249723548838e+000
1	 3.596149140212859e+000	 5.633831178853567e-001	 8.266258269003886e+000
1	 3.590335191454545e+000	 5.993182321231000e-001	 6.708998664654945e+000
1	 3.584141741487224e+000	 6.353085674670476e-001	 5.225865082327397e+000
1	 3.577566179662699e+000	 6.713486530270642e-001	 3.820985517431968e+000
1	 3.570605990095922e+000	 7.074329317256695e-001	 2.498210912613435e+000
1	 3.649765683230814e+000	 3.517857533948059e-001	 1.758831534487931e+001
1	 3.646142631855922e+000	 3.875397139962904e-001	 1.581916030708958e+001
1	 3.642154915790480e+000	 4.233804573491111e-001	 1.408698467785360e+001
1	 3.637799395027111e+000	 4.593030245767192e-001	 1.239746910523248e+001
1	 3.633073007093982e+000	 4.953023615887202e-001	 1.075608735942741e+001
1	 3.627972770066270e+000	 5.313733202242622e-001	 9.168094641933060e+000
1	 3.622495785572755e+000	 5.675106594965962e-001	 7.638515955443496e+000
1	 3.616639241793861e+000	 6.037090469397648e-001	 6.172134558205311e+000
1	 3.610400416447523e+000	 6.399630600582478e-001	 4.773480527060690e+000
1	 3.603776679759039e+000	 6.762671878802551e-001	 3.446819453916137e+000
1	 3.596765497411132e+000	 7.126158326152126e-001	 2.196141300820243e+000
1	 3.335170424247629e+000	 6.607868237382244e-001	 6.630934863145118e+000
1	 3.328306588186819e+000	 6.945328805338575e-001	 4.712668206372135e+000
1	 3.321078955483442e+000	 7.283096007980533e-001	 2.861161011353810e+000
1	 3.313485459902494e+000	 7.621115520460927e-001	 1.078233407591086e+000
1	 3.305524134521356e+000	 7.959332281968501e-001	-6.344550286890522e-001
1	 3.297193114320970e+000	 8.297690515990595e-001	-2.275409806546574e+000
1	 3.288490638736054e+000	 8.636133751544902e-001	-3.843305879517986e+000
1	 3.279415054160485e+000	 8.974604845374923e-001	-5.336991819590761e+000
1	 3.269964816403907e+000	 9.313046005101893e-001	-6.755493793680225e+000
1	 3.260138493095665e+000	 9.651398813324289e-001	-8.098019330474784e+000
1	 3.249934766032135e+000	 9.989604252654352e-001	-9.363960865700761e+000
1	 3.361329931564332e+000	 6.659697246232670e-001	 6.045650250081111e+000
1	 3.354412258803585e+000	 6.999804696079965e-001	 4.202632286865095e+000
1	 3.347127935950536e+000	 7.340221185710896e-001	 2.422115331029715e+000
1	 3.339474880563622e+000	 7.680891964179749e-001	 7.060664760564445e-001
1	 3.331451110292612e+000	 8.021761538804225e-001	-9.437028067536781e-001
1	 3.323054745490132e+000	 8.362773695586973e-001	-2.525541360680848e+000
1	 3.314284011781863e+000	 8.703871520613908e-001	-4.037962873905657e+000
1	 3.305137242591580e+000	 9.044997422423740e-001	-5.479650235266917e+000
1	 3.295612881617041e+000	 9.386093155341526e-001	-6.849459703060986e+000
1	 3.285709485252757e+000	 9.727099843767160e-001	-8.146424874604509e+000
1	 3.275425724955747e+000	 1.006795800740831e+000	-9.369760444441610e+000
1	 3.387489438881134e+000	 6.711526255090805e-001	 5.491970559092803e+000
1	 3.380517929420490e+000	 7.054280586828631e-001	 3.723826704212415e+000
1	 3.373176916417826e+000	 7.397346363448024e-001	 2.014073375522639e+000
1	 3.365464301225002e+000	 7.740668407904775e-001	 3.648014937622686e-001
1	 3.357378086064188e+000	 8.084190795645522e-001	-1.222049002409026e+000
1	 3.348916376659676e+000	 8.427856875188236e-001	-2.744693980175564e+000
1	 3.340077384828113e+000	 8.771609289687062e-001	-4.201509783935179e+000
1	 3.330859431023176e+000	 9.115389999475942e-001	-5.591037741737608e+000
1	 3.321260946830720e+000	 9.459140305583739e-001	-6.911988494315295e+000
1	 3.311280477410428e+000	 9.802800874211788e-001	-8.163246134324409e+000
1	 3.300916683879955e+000	 1.014631176216317e+000	-9.343872143547028e+000
1	 3.413648946197964e+000	 6.763355263955971e-001	 4.969859185541342e+000
1	 3.406623600037462e+000	 7.108756477584002e-001	 3.276088302446456e+000
1	 3.399225896885227e+000	 7.454471541191478e-001	 1.636744407591549e+000
1	 3.391453721886552e+000	 7.800444851635690e-001	 5.401959269782686e-002
1	 3.383305061835989e+000	 8.146620052492227e-001	-1.470040678407898e+000
1	 3.374778007829509e+000	 8.492940054794383e-001	-2.933542496268133e+000
1	 3.365870757874715e+000	 8.839347058764536e-001	-4.334748288516582e+000
1	 3.356581619455177e+000	 9.185782576531858e-001	-5.672081446290386e+000
1	 3.346909012044857e+000	 9.532187455829029e-001	-6.944130781809680e+000
1	 3.336851469568601e+000	 9.878501904658825e-001	-8.149654804677716e+000
1	 3.326407642804695e+000	 1.022466551691976e+000	-9.287585804564598e+000
1	 3.439808453514761e+000	 6.815184272827488e-001	 4.479280638291662e+000
1	 3.432729270654426e+000	 7.163232368345509e-001	 2.859258888759768e+000
1	 3.425274877352659e+000	 7.511596718940813e-001	 1.289846534142825e+000
1	 3.417443142548178e+000	 7.860221295372194e-001	-2.266853532971862e-001
1	 3.409232037607927e+000	 8.209049309344192e-001	-1.688208256004187e+000
1	 3.400639638999539e+000	 8.558023234405423e-001	-3.092741212014736e+000
1	 3.391664130921576e+000	 8.907084827846502e-001	-4.438455679707413e+000
1	 3.382303807887502e+000	 9.256175153591826e-001	-5.723680253863619e+000
1	 3.372557077259375e+000	 9.605234606077903e-001	-6.946905220509866e+000
1	 3.362422461727200e+000	 9.954202935108946e-001	-8.106786938065907e+000
1	 3.351898601729900e+000	 1.030301927167889e+000	-9.202152032415940e+000
1	 3.465967960831456e+000	 6.867013281704680e-001	 4.020200497691183e+000
1	 3.458834941271304e+000	 7.217708259112586e-001	 2.473185046207013e+000
1	 3.451323857820038e+000	 7.568721896695586e-001	 9.731063724727861e-001
1	 3.443432563209798e+000	 7.919997739113980e-001	-4.777072093808092e-001
1	 3.435159013379911e+000	 8.271478566201259e-001	-1.877066142963902e+000
1	 3.426501270169675e+000	 8.623106414021358e-001	-3.222924676976176e+000
1	 3.417457503968607e+000	 8.974822596933121e-001	-4.513385783015673e+000
1	 3.408025996320058e+000	 9.326567730656181e-001	-5.746705931337090e+000
1	 3.398205142474186e+000	 9.678281756330862e-001	-6.921299712053980e+000
1	 3.387993453886149e+000	 1.002990396556281e+000	-8.035744289318965e+000
1	 3.377389560655499e+000	 1.038137302644139e+000	-9.088783676095307e+000
1	 3.492127468147987e+000	 6.918842290586874e-001	 3.592585375437780e+000
1	 3.484940611888026e+000	 7.272184149884663e-001	 2.117717954825400e+000
1	 3.477372838287284e+000	 7.625847074455354e-001	 6.862587315113865e-001
1	 3.469421983871323e+000	 7.979774182860748e-001	-6.994280389439156e-001
1	 3.461085989151848e+000	 8.333907823063274e-001	-2.037113333350395e+000
1	 3.452362901339824e+000	 8.688189593642194e-001	-3.324708427084252e+000
1	 3.443250877015715e+000	 9.042560366024567e-001	-4.560269836338721e+000
1	 3.433748184752760e+000	 9.396960307725260e-001	-5.742004123987746e+000
1	 3.423853207689207e+000	 9.751328906588407e-001	-6.868272556617872e+000
1	 3.413564446045371e+000	 1.010560499602109e+000	-7.937595600309964e+000
1	 3.402880519581428e+000	 1.045972678120808e+000	-8.948657242817234e+000
1	 3.518286975464284e+000	 6.970671299473390e-001	 3.196402876237857e+000
1	 3.511046282504512e+000	 7.326660040661170e-001	 1.792713220735024e+000
1	 3.503421818754313e+000	 7.682972252219672e-001	 4.290463072861195e-001
1	 3.495411404532665e+000	 8.039550626612190e-001	-8.922185423587026e-001
1	 3.487012964923652e+000	 8.396337079930087e-001	-2.168833980551361e+000
1	 3.478224532509897e+000	 8.753272773267931e-001	-3.398689691502250e+000
1	 3.469044250062811e+000	 9.110298135121010e-001	-4.579817329691730e+000
1	 3.459470373185520e+000	 9.467352884799399e-001	-5.710395326598813e+000
1	 3.449501272904356e+000	 9.824376056851037e-001	-6.788753553393813e+000
1	 3.439135438204790e+000	 1.018130602648443e+000	-7.813377827261341e+000
1	 3.428371478507617e+000	 1.053808053597977e+000	-8.782914249076278e+000
1	 3.544446482780285e+000	 7.022500308363557e-001	 2.831621561162356e+000
1	 3.537151953120691e+000	 7.381135931441538e-001	 1.498030712806968e+000
1	 3.529470799221044e+000	 7.740097429988098e-001	 2.012193918712799e-001
1	 3.521400825193739e+000	 8.099327070367999e-001	-1.056438476297864e+000
1	 3.512939940695230e+000	 8.458766336801538e-001	-2.272697944931320e+000
1	 3.504086163679801e+000	 8.818355952898581e-001	-3.445448068182826e+000
1	 3.494837623109805e+000	 9.178035904222622e-001	-4.572716807750033e+000
1	 3.485192561618247e+000	 9.537745461878934e-001	-5.652675811566491e+000
1	 3.475149338119551e+000	 9.897423207119260e-001	-6.683645052336500e+000
1	 3.464706430364328e+000	 1.025700705695351e+000	-7.664097313702063e+000
1	 3.453862437434002e+000	 1.061643429075730e+000	-8.592662511878466e+000
1	 3.570605990095922e+000	 7.074329317256695e-001	 2.498210912613435e+000
1	 3.563257623736486e+000	 7.435611822225200e-001	 1.233534406511715e+000
1	 3.555519779687395e+000	 7.797222607760183e-001	 2.535595131916368e-003
1	 3.547390245854455e+000	 8.159103514127872e-001	-1.192437054621530e+000
1	 3.538866916466493e+000	 8.521195593677479e-001	-2.349161317409942e+000
1	 3.529947794849444e+000	 8.883439132534148e-001	-3.465546169730374e+000
1	 3.520630996156604e+000	 9.245773673329562e-001	-4.539636637113970e+000
1	 3.510914750050856e+000	 9.608138038964199e-001	-5.569618516208202e+000
1	 3.500797403334707e+000	 9.970470357393574e-001	-6.553822959677131e+000
1	 3.490277422523914e+000	 1.033270808742900e+000	-7.490730911864678e+000
1	 3.479353396360511e+000	 1.069478804554146e+000	-8.378977383212533e+000
1	 3.596765497411132e+000	 7.126158326152126e-001	 2.196141300820243e+000
1	 3.589363294351825e+000	 7.490087713011586e-001	 9.990922345810199e-001
1	 3.581568760153286e+000	 7.854347785535488e-001	-1.672404213903294e-001
1	 3.573379666514728e+000	 8.218879957891511e-001	-1.300553331770089e+000
1	 3.564793892237348e+000	 8.583624850557750e-001	-2.398666920192326e+000
1	 3.555809426018734e+000	 8.948522312174626e-001	-3.459530241078868e+000
1	 3.546424369203119e+000	 9.313511442442010e-001	-4.481225740090912e+000
1	 3.536636938483258e+000	 9.678530616055534e-001	-5.461973891350391e+000
1	 3.526445468549741e+000	 1.004351750767449e+000	-6.400137699557932e+000
1	 3.515848414683465e+000	 1.040840911791156e+000	-7.294227055145643e+000
1	 3.504844355287081e+000	 1.077314180033311e+000	-8.142902930651268e+000
1	 3.249934766032135e+000	 9.989604252654352e-001	-9.363960865700761e+000
1	 3.239352432650741e+000	 1.032760272672935e+000	-1.054355326425616e+001
1	 3.228390405810319e+000	 1.066533407174408e+000	-1.162782599884687e+001
1	 3.217047718379722e+000	 1.100273759821121e+000	-1.261764909831300e+001
1	 3.205323526137257e+000	 1.133975212443531e+000	-1.351408689497276e+001
1	 3.193217109782673e+000	 1.167631600601917e+000	-1.431839901239698e+001
1	 3.180727876869459e+000	 1.201236716620890e+000	-1.503204105635803e+001
1	 3.167855363653739e+000	 1.234784312705469e+000	-1.565666500182167e+001
1	 3.154599236856098e+000	 1.268268104136253e+000	-1.619411926942079e+001
1	 3.140959295332737e+000	 1.301681772541034e+000	-1.664644848545330e+001
1	 3.126935471652506e+000	 1.335018969240017e+000	-1.701589292008243e+001
1	 3.275425724955747e+000	 1.006795800740831e+000	-9.369760444441610e+000
1	 3.264760388731104e+000	 1.040860758245642e+000	-1.050946350638592e+001
1	 3.253712380910648e+000	 1.074898793320969e+000	-1.155647797644478e+001
1	 3.242280726777507e+000	 1.108903789416095e+000	-1.251173027167985e+001
1	 3.230464575488313e+000	 1.142869580373430e+000	-1.337635256382447e+001
1	 3.218263202100959e+000	 1.176789953402282e+000	-1.415168384428146e+001
1	 3.205676009522063e+000	 1.210658652137174e+000	-1.483927067245911e+001
1	 3.192702530370364e+000	 1.244469379778354e+000	-1.544086759976285e+001
1	 3.179342428752352e+000	 1.278215802312036e+000	-1.595843726217248e+001
1	 3.165595501946557e+000	 1.311891551807665e+000	-1.639415013497658e+001
1	 3.151461681992927e+000	 1.345490229789387e+000	-1.675038394391603e+001
1	 3.300916683879955e+000	 1.014631176216317e+000	-9.343872143547028e+000
1	 3.290168344812070e+000	 1.048961243818355e+000	-1.044374822681152e+001
1	 3.279034356011567e+000	 1.083264179467451e+000	-1.145382916447059e+001
1	 3.267513735175859e+000	 1.117533819010909e+000	-1.237508211503605e+001
1	 3.255605624839903e+000	 1.151763948303092e+000	-1.320868972199465e+001
1	 3.243309294419742e+000	 1.185948306202339e+000	-1.395605125580515e+001
1	 3.230624142175128e+000	 1.220080587653086e+000	-1.461878342233441e+001
1	 3.217549697087407e+000	 1.254154446850815e+000	-1.519872082955838e+001
1	 3.204085620648993e+000	 1.288163500487354e+000	-1.569791610499507e+001
1	 3.190231708560742e+000	 1.322101331073807e+000	-1.611863965701648e+001
1	 3.175987892333699e+000	 1.355961490338257e+000	-1.646337907390102e+001
1	 3.326407642804695e+000	 1.022466551691976e+000	-9.287585804564598e+000
1	 3.315576300893580e+000	 1.057061729391170e+000	-1.034779927331805e+001
1	 3.304356331113032e+000	 1.091629565613964e+000	-1.132134462516624e+001
1	 3.292746743574746e+000	 1.126163848605684e+000	-1.220921445652086e+001
1	 3.280746674192009e+000	 1.160658316232648e+000	-1.301262488604700e+001
1	 3.268355386739017e+000	 1.195106659002230e+000	-1.373301677347829e+001
1	 3.255572274828652e+000	 1.229502523168778e+000	-1.437205659087442e+001
1	 3.242396863804885e+000	 1.263839513923010e+000	-1.493163693771100e+001
1	 3.228828812546042e+000	 1.298111198662370e+000	-1.541387669185548e+001
1	 3.214867915175308e+000	 1.332311110339624e+000	-1.582112078919288e+001
1	 3.200514102674839e+000	 1.366432750886794e+000	-1.615593962541029e+001
1	 3.351898601729900e+000	 1.030301927167889e+000	-9.202152032415940e+000
1	 3.340984256975579e+000	 1.065162214964183e+000	-1.022296615406270e+001
1	 3.329678306214997e+000	 1.099994951760619e+000	-1.116044485398199e+001
1	 3.317979751974136e+000	 1.134793878200544e+000	-1.201559119571554e+001
1	 3.305887723544613e+000	 1.169552684162234e+000	-1.278963813633016e+001
1	 3.293401479058773e+000	 1.204265011802099e+000	-1.348404982191051e+001
1	 3.280520407482642e+000	 1.238924458684402e+000	-1.410052252436860e+001
1	 3.267244030522805e+000	 1.273524580995097e+000	-1.464098521057262e+001
1	 3.253572004443512e+000	 1.308058896837249e+000	-1.510759973548883e+001
1	 3.239504121790274e+000	 1.342520889605283e+000	-1.550276065175761e+001
1	 3.225040313016363e+000	 1.376904011435166e+000	-1.582909462889476e+001
1	 3.377389560655499e+000	 1.038137302644139e+000	-9.088783676095307e+000
1	 3.366392213058008e+000	 1.073262700537491e+000	-1.007055763537370e+001
1	 3.355000281317417e+000	 1.108360337907524e+000	-1.097250746142354e+001
1	 3.343212760373997e+000	 1.143423907795610e+000	-1.179563203688072e+001
1	 3.331028772897688e+000	 1.178447052091981e+000	-1.254116486937215e+001
1	 3.318447571379005e+000	 1.213423364602087e+000	-1.321057546358932e+001
1	 3.305468540137102e+000	 1.248346394200108e+000	-1.380557032638363e+001
1	 3.292091197241182e+000	 1.283209648067234e+000	-1.432809359556006e+001
1	 3.278315196341421e+000	 1.318006595012151e+000	-1.478032728374459e+001
1	 3.264140328405664e+000	 1.352730668870948e+000	-1.516469112944901e+001
1	 3.249566523358289e+000	 1.387375271983538e+000	-1.548384204824080e+001
1	 3.402880519581428e+000	 1.045972678120808e+000	-8.948657242817234e+000
1	 3.391800169140812e+000	 1.081363186111191e+000	-9.891843267734753e+000
1	 3.380322256420250e+000	 1.116725724054791e+000	-1.075886877930654e+001
1	 3.368445768774295e+000	 1.152053937391005e+000	-1.155071414429010e+001
1	 3.356169822251225e+000	 1.187341420022024e+000	-1.226859747151201e+001
1	 3.343493663699706e+000	 1.222581717402339e+000	-1.291397606046193e+001
1	 3.330416672792030e+000	 1.257768329716046e+000	-1.348854747741843e+001
1	 3.316938363960027e+000	 1.292894715139578e+000	-1.399425024950387e+001
1	 3.303058388239788e+000	 1.327954293187239e+000	-1.443326416777852e+001
1	 3.288776535021494e+000	 1.362940448136786e+000	-1.480801019123669e+001
1	 3.274092733700633e+000	 1.397846532532076e+000	-1.512114994436749e+001
1	 3.428371478507617e+000	 1.053808053597977e+000	-8.782914249076278e+000
1	 3.417208125223934e+000	 1.089463671685380e+000	-9.688054843692179e+000
1	 3.405644231523449e+000	 1.125091110202530e+000	-1.052082539535331e+001
1	 3.393678777175000e+000	 1.160683966986851e+000	-1.128217372371886e+001
1	 3.381310871605199e+000	 1.196235787952496e+000	-1.197328691786752e+001
1	 3.368539756020867e+000	 1.231740070202997e+000	-1.259559286139178e+001
1	 3.355364805447437e+000	 1.267190265232370e+000	-1.315076138230338e+001
1	 3.341785530679350e+000	 1.302579782212287e+000	-1.364070501792251e+001
1	 3.327801580138631e+000	 1.337901991362677e+000	-1.406757938563859e+001
1	 3.313412741637784e+000	 1.373150227402962e+000	-1.443378315119061e+001
1	 3.298618944043411e+000	 1.408317793080948e+000	-1.474195758691387e+001
1	 3.453862437434002e+000	 1.061643429075730e+000	-8.592662511878466e+000
1	 3.442616081307318e+000	 1.097564157260153e+000	-9.460387791202818e+000
1	 3.430966206626969e+000	 1.133456496350850e+000	-1.025963561983389e+001
1	 3.418911785576080e+000	 1.169313996583270e+000	-1.099130753389798e+001
1	 3.406451920959594e+000	 1.205130155883532e+000	-1.165654430049643e+001
1	 3.393585848342482e+000	 1.240898423004204e+000	-1.225672751931754e+001
1	 3.380312938103319e+000	 1.276612200749228e+000	-1.279348084907744e+001
1	 3.366632697399165e+000	 1.312264849285518e+000	-1.326867084879042e+001
1	 3.352544772037962e+000	 1.347849689538625e+000	-1.368440742458228e+001
1	 3.338048948254552e+000	 1.383360006669641e+000	-1.404304387351571e+001
1	 3.323145154386643e+000	 1.418789053630321e+000	-1.434717651669745e+001
1	 3.479353396360511e+000	 1.069478804554146e+000	-8.378977383212533e+000
1	 3.468024037390906e+000	 1.105664642835609e+000	-9.210002505732524e+000
1	 3.456288181730765e+000	 1.141821882499862e+000	-9.976520887736186e+000
1	 3.444144793977503e+000	 1.177944026180386e+000	-1.067937433152882e+001
1	 3.431592970314386e+000	 1.214024523815263e+000	-1.131964228938313e+001
1	 3.418631940664544e+000	 1.250056775806104e+000	-1.189864354172161e+001
1	 3.405261070759681e+000	 1.286034136266774e+000	-1.241793750285560e+001
1	 3.391479864119481e+000	 1.321949916359429e+000	-1.287932514415980e+001
1	 3.377287963937803e+000	 1.357797387715248e+000	-1.328484952526708e+001
1	 3.362685154871817e+000	 1.393569785936990e+000	-1.363679592461526e+001
1	 3.347671364730342e+000	 1.429260314180361e+000	-1.393769156146961e+001
1	 3.504844355287081e+000	 1.077314180033311e+000	-8.142902930651268e+000
1	 3.493431993474644e+000	 1.113765128411843e+000	-8.938025624224244e+000
1	 3.481610156834797e+000	 1.150187268649676e+000	-9.672667099747647e+000
1	 3.469377802379239e+000	 1.186574055778320e+000	-1.034759625323946e+001
1	 3.456734019669561e+000	 1.222918891747823e+000	-1.096381652966975e+001
1	 3.443678032987045e+000	 1.259215128608840e+000	-1.152256767780198e+001
1	 3.430209203416530e+000	 1.295456071785157e+000	-1.202532713799851e+001
1	 3.416327030840313e+000	 1.331634983434178e+000	-1.247381105279926e+001
1	 3.402031155838170e+000	 1.367745085892707e+000	-1.286997489077372e+001
1	 3.387321361489601e+000	 1.403779565205173e+000	-1.321601367488035e+001
1	 3.372197575074528e+000	 1.439731574731234e+000	-1.351436180734462e+001
1	 3.126935471652506e+000	 1.335018969240017e+000	-1.701589292008243e+001
1	 3.112530023792000e+000	 1.368268337568320e+000	-1.732446312455103e+001
1	 3.097741083326226e+000	 1.401428489062056e+000	-1.759283339482127e+001
1	 3.082568994673866e+000	 1.434493009528169e+000	-1.782130251439338e+001
1	 3.067014241170958e+000	 1.467455468599930e+000	-1.801025587717483e+001
1	 3.051077446124149e+000	 1.500309423398188e+000	-1.816016594877404e+001
1	 3.034759373751101e+000	 1.533048422245595e+000	-1.827159259291508e+001
1	 3.018060930005413e+000	 1.565666008429837e+000	-1.834518326023183e+001
1	 3.000983163283563e+000	 1.598155724011803e+000	-1.838167303698743e+001
1	 2.983527265011495e+000	 1.630511113674446e+000	-1.838188455156340e+001
1	 2.965694570108715e+000	 1.662725728608005e+000	-1.834672773687429e+001
1	 3.151461681992927e+000	 1.345490229789387e+000	-1.675038394391603e+001
1	 3.136943244578563e+000	 1.379000390515980e+000	-1.704852658219866e+001
1	 3.122038306623422e+000	 1.412420634633105e+000	-1.730842889509246e+001
1	 3.106747215247637e+000	 1.445744497637801e+000	-1.753022826008397e+001
1	 3.091070457578299e+000	 1.478965498726574e+000	-1.771413340049340e+001
1	 3.075008661810974e+000	 1.512077144485368e+000	-1.786042496724855e+001
1	 3.058562598157480e+000	 1.545072932632921e+000	-1.796945601426167e+001
1	 3.041733179677284e+000	 1.577946355813512e+000	-1.804165236481519e+001
1	 3.024521462989988e+000	 1.610690905435004e+000	-1.807751286657670e+001
1	 3.006928648866512e+000	 1.643300075547886e+000	-1.807760953309389e+001
1	 2.988956082696837e+000	 1.675767366760974e+000	-1.804258756985938e+001
1	 3.175987892333699e+000	 1.355961490338257e+000	-1.646337907390102e+001
1	 3.161356465365481e+000	 1.389732443463149e+000	-1.675267983414280e+001
1	 3.146335529920982e+000	 1.423412780203684e+000	-1.700538189372641e+001
1	 3.130925435821790e+000	 1.456995985746994e+000	-1.722148111256612e+001
1	 3.115126673986046e+000	 1.490475528852819e+000	-1.740103080547134e+001
1	 3.098939877498228e+000	 1.523844865572194e+000	-1.754414242653017e+001
1	 3.082365822564310e+000	 1.557097443019937e+000	-1.765098617299197e+001
1	 3.065405429349620e+000	 1.590226703196920e+000	-1.772179150619839e+001
1	 3.048059762696876e+000	 1.623226086857971e+000	-1.775684758726856e+001
1	 3.030330032721980e+000	 1.656089037421116e+000	-1.775650362540793e+001
1	 3.012217595285377e+000	 1.688809004913743e+000	-1.772116913688444e+001
1	 3.200514102674839e+000	 1.366432750886794e+000	-1.615593962541029e+001
1	 3.185769686152757e+000	 1.400464496409990e+000	-1.643784084895026e+001
1	 3.170632753218908e+000	 1.434404925773956e+000	-1.668448970410536e+001
1	 3.155103656396314e+000	 1.468247473855910e+000	-1.689575994463160e+001
1	 3.139182890394172e+000	 1.501985558978823e+000	-1.707157023875565e+001
1	 3.122871093185870e+000	 1.535612586658818e+000	-1.721188493853303e+001
1	 3.106169046971532e+000	 1.569121953406790e+000	-1.731671479204557e+001
1	 3.089077679022347e+000	 1.602507050580201e+000	-1.738611759613430e+001
1	 3.071598062404152e+000	 1.635761268280842e+000	-1.742019878746396e+001
1	 3.053731416577815e+000	 1.668877999294270e+000	-1.741911196982188e+001
1	 3.035479107874253e+000	 1.701850643066445e+000	-1.738305937566964e+001
1	 3.225040313016363e+000	 1.376904011435166e+000	-1.582909462889476e+001
1	 3.210182906940405e+000	 1.411196549356671e+000	-1.610489967083641e+001
1	 3.194929976517193e+000	 1.445397071344083e+000	-1.634652538555755e+001
1	 3.179281876971192e+000	 1.479498961964708e+000	-1.655374236955373e+001
1	 3.163239106802647e+000	 1.513495589104740e+000	-1.672635492146335e+001
1	 3.146802308873854e+000	 1.547380307745388e+000	-1.686420187899249e+001
1	 3.129972271379087e+000	 1.581146463793626e+000	-1.696715741949642e+001
1	 3.112749928695398e+000	 1.614787397963497e+000	-1.703513182206238e+001
1	 3.095136362111732e+000	 1.648296449703754e+000	-1.706807218898770e+001
1	 3.077132800433932e+000	 1.681666961167484e+000	-1.706596312460274e+001
1	 3.058740620463381e+000	 1.714892281219213e+000	-1.702882736945071e+001
1	 3.249566523358289e+000	 1.387375271983538e+000	-1.548384204824080e+001
1	 3.234596127728435e+000	 1.421928602303356e+000	-1.575471947346478e+001
1	 3.219227199815838e+000	 1.456389216914231e+000	-1.599223865864870e+001
1	 3.203460097546412e+000	 1.490750450073547e+000	-1.619608554337207e+001
1	 3.187295323211441e+000	 1.525005619230725e+000	-1.636596986338649e+001
1	 3.170733524562135e+000	 1.559148028832057e+000	-1.650162603791814e+001
1	 3.153775495786915e+000	 1.593170974180589e+000	-1.660281403895412e+001
1	 3.136422178368695e+000	 1.627067745346946e+000	-1.666932024050709e+001
1	 3.118674661819535e+000	 1.660831631126844e+000	-1.670095824585610e+001
1	 3.100534184290246e+000	 1.694455923040890e+000	-1.669756969077368e+001
1	 3.082002133052676e+000	 1.727933919372181e+000	-1.665902502076541e+001
1	 3.274092733700633e+000	 1.397846532532076e+000	-1.512114994436749e+001
1	 3.259009348516857e+000	 1.432660655250214e+000	-1.538813756638275e+001
1	 3.243524423114846e+000	 1.467381362484561e+000	-1.562235677933430e+001
1	 3.227638318121957e+000	 1.502001938182588e+000	-1.582342693111753e+001
1	 3.211351539620524e+000	 1.536515649356933e+000	-1.599098254509703e+001
1	 3.194664740250667e+000	 1.570915749918973e+000	-1.612467424081146e+001
1	 3.177578720194959e+000	 1.605195484567825e+000	-1.622416965253026e+001
1	 3.160094428042174e+000	 1.639348092730692e+000	-1.628915434380582e+001
1	 3.142212961527483e+000	 1.673366812550247e+000	-1.631933271613206e+001
1	 3.123935568146673e+000	 1.707244884914626e+000	-1.631442890979229e+001
1	 3.105263645642056e+000	 1.740975557525482e+000	-1.627418769495627e+001
1	 3.298618944043411e+000	 1.408317793080948e+000	-1.474195758691387e+001
1	 3.283422569305680e+000	 1.443392708197407e+000	-1.500596635655848e+001
1	 3.267821646414211e+000	 1.478373508055238e+000	-1.523758537411488e+001
1	 3.251816538697812e+000	 1.513253426291989e+000	-1.543638503885425e+001
1	 3.235407756029868e+000	 1.548025679483521e+000	-1.560194356962089e+001
1	 3.218595955939409e+000	 1.582683471006289e+000	-1.573384794217019e+001
1	 3.201381944603159e+000	 1.617219994955479e+000	-1.583169483779813e+001
1	 3.183766677715758e+000	 1.651628440114875e+000	-1.589509160155420e+001
1	 3.165751261235495e+000	 1.685901993974104e+000	-1.592365720826891e+001
1	 3.147336952003127e+000	 1.720033846788822e+000	-1.591702323456483e+001
1	 3.128525158231438e+000	 1.754017195679249e+000	-1.587483483496507e+001
1	 3.323145154386643e+000	 1.418789053630321e+000	-1.434717651669745e+001
1	 3.307835790094914e+000	 1.454124761145104e+000	-1.460899426733818e+001
1	 3.292118869713935e+000	 1.489365653626425e+000	-1.483860923820801e+001
1	 3.275994759273966e+000	 1.524504914401911e+000	-1.503556011330576e+001
1	 3.259463972439442e+000	 1.559535709610644e+000	-1.519938728525512e+001
1	 3.242527171628312e+000	 1.594451192094152e+000	-1.532963379271019e+001
1	 3.225185169011457e+000	 1.629244505343697e+000	-1.542584628008788e+001
1	 3.207438927389378e+000	 1.663908787499635e+000	-1.548757597807458e+001
1	 3.189289560943489e+000	 1.698437175398549e+000	-1.551437970326071e+001
1	 3.170738335859523e+000	 1.732822808663616e+000	-1.550582087517510e+001
1	 3.151786670820737e+000	 1.767058833833616e+000	-1.546147054890320e+001
1	 3.347671364730342e+000	 1.429260314180361e+000	-1.393769156146962e+001
1	 3.332249010884568e+000	 1.464856814093469e+000	-1.419798661700810e+001
1	 3.316416093014018e+000	 1.500357799198286e+000	-1.442609309863481e+001
1	 3.300172979850403e+000	 1.535756402512514e+000	-1.462153481072575e+001
1	 3.283520188849218e+000	 1.571045739738455e+000	-1.478383238100694e+001
1	 3.266458387317334e+000	 1.606218913182716e+000	-1.491250418165395e+001
1	 3.248988393419791e+000	 1.641269015732624e+000	-1.500706728138398e+001
1	 3.231111177062962e+000	 1.676189134885113e+000	-1.506703842713753e+001
1	 3.212827860651387e+000	 1.710972356823719e+000	-1.509193505383983e+001
1	 3.194139719715779e+000	 1.745611770539141e+000	-1.508127632062396e+001
1	 3.175048183409871e+000	 1.780100471988716e+000	-1.503458417179324e+001
1	 3.372197575074528e+000	 1.439731574731234e+000	-1.351436180734461e+001
1	 3.356662231674654e+000	 1.475588867042669e+000	-1.377368645901732e+001
1	 3.340713316314456e+000	 1.511349944770983e+000	-1.400068234400607e+001
1	 3.324351200427107e+000	 1.547007890623957e+000	-1.419487483658174e+001
1	 3.307576405259167e+000	 1.582555769867112e+000	-1.435578245604829e+001
1	 3.290389603006430e+000	 1.617986634272130e+000	-1.448291775535419e+001
1	 3.272791617828105e+000	 1.653293526122405e+000	-1.457578824701438e+001
1	 3.254783426736442e+000	 1.688469482271451e+000	-1.463389736509491e+001
1	 3.236366160359109e+000	 1.723507538249754e+000	-1.465674546189033e+001
1	 3.217541103571808e+000	 1.758400732415532e+000	-1.464383083780062e+001
1	 3.198309695998757e+000	 1.793142110144684e+000	-1.459465080279704e+001
1	 2.965694570108715e+000	 1.662725728608005e+000	-1.834672773687429e+001
1	 2.947483798177339e+000	 1.694797929960343e+000	-1.826877519582283e+001
1	 2.928899221696399e+000	 1.726716448985847e+000	-1.813993302629407e+001
1	 2.909942610804364e+000	 1.758474879052459e+000	-1.796018608061856e+001
1	 2.890615879789325e+000	 1.790066835929240e+000	-1.772956400031435e+001
1	 2.870921086910895e+000	 1.821485961785593e+000	-1.744814208131697e+001
1	 2.850860434090400e+000	 1.852725929198409e+000	-1.711604208827001e+001
1	 2.830436266468554e+000	 1.883780445162079e+000	-1.673343301551697e+001
1	 2.809651071830005e+000	 1.914643255096347e+000	-1.630053179251872e+001
1	 2.788507479894427e+000	 1.945308146846861e+000	-1.581760393151876e+001
1	 2.767008261473969e+000	 1.975768954673289e+000	-1.528496411537915e+001
1	 2.988956082696837e+000	 1.675767366760974e+000	-1.804258756985939e+001
1	 2.970602474040236e+000	 1.708091127367755e+000	-1.796454714015633e+001
1	 2.951872128887056e+000	 1.740260000235878e+000	-1.783524076850125e+001
1	 2.932766831259907e+000	 1.772267528482681e+000	-1.765486545571755e+001
1	 2.913288510461652e+000	 1.804107277802320e+000	-1.742367466507699e+001
1	 2.893439240895929e+000	 1.835772840496373e+000	-1.714197890427202e+001
1	 2.873221241754906e+000	 1.867257839512399e+000	-1.681014623276649e+001
1	 2.852636876573476e+000	 1.898555932485416e+000	-1.642860269254118e+001
1	 2.831688652649308e+000	 1.929660815777188e+000	-1.599783266039974e+001
1	 2.810379220328355e+000	 1.960566228508145e+000	-1.551837912016138e+001
1	 2.788711372155724e+000	 1.991265956576792e+000	-1.499084385322925e+001
1	 3.012217595285377e+000	 1.688809004913743e+000	-1.772116913688444e+001
1	 2.993721149903498e+000	 1.721384324774959e+000	-1.764267608271585e+001
1	 2.974845036078005e+000	 1.753803551485679e+000	-1.751279783612471e+001
1	 2.955591051715656e+000	 1.786060177912640e+000	-1.733192789842920e+001
1	 2.935961141134096e+000	 1.818147719675097e+000	-1.710052706677503e+001
1	 2.915957394880991e+000	 1.850059719206804e+000	-1.681912375122885e+001
1	 2.895582049419352e+000	 1.881789749825994e+000	-1.648831419514943e+001
1	 2.874837486678263e+000	 1.913331419808315e+000	-1.610876259720424e+001
1	 2.853726233468412e+000	 1.944678376457553e+000	-1.568120113361181e+001
1	 2.832250960762048e+000	 1.975824310168926e+000	-1.520642987940661e+001
1	 2.810414482837230e+000	 2.006762958479779e+000	-1.468531662774802e+001
1	 3.035479107874253e+000	 1.701850643066445e+000	-1.738305937566964e+001
1	 3.016839825767046e+000	 1.734677522182089e+000	-1.730379270280402e+001
1	 2.997817943269185e+000	 1.767347102735385e+000	-1.717326494786947e+001
1	 2.978415272171570e+000	 1.799852827342473e+000	-1.699205082618765e+001
1	 2.958633771806632e+000	 1.832188161547714e+000	-1.676080235645985e+001
1	 2.938475548866076e+000	 1.864346597917032e+000	-1.648024893109607e+001
1	 2.917942857083756e+000	 1.896321660139343e+000	-1.615119726927831e+001
1	 2.897038096782952e+000	 1.928106907130929e+000	-1.577453125145851e+001
1	 2.875763814287377e+000	 1.959695937137596e+000	-1.535121163425536e+001
1	 2.854122701195576e+000	 1.991082391829357e+000	-1.488227564498867e+001
1	 2.832117593518569e+000	 2.022259960382399e+000	-1.436883645536745e+001
1	 3.058740620463381e+000	 1.714892281219213e+000	-1.702882736945071e+001
1	 3.039958501630808e+000	 1.747970719589279e+000	-1.694850849463190e+001
1	 3.020790850460533e+000	 1.780890653985136e+000	-1.681728272355906e+001
1	 3.001239492627601e+000	 1.813645476772323e+000	-1.663589104957445e+001
1	 2.981306402479240e+000	 1.846228603420313e+000	-1.640516096475485e+001
1	 2.960993702851183e+000	 1.878633476627205e+000	-1.612600630132988e+001
1	 2.940303664748142e+000	 1.910853570452599e+000	-1.579942693683251e+001
1	 2.919238706887589e+000	 1.942882394453411e+000	-1.542650836198856e+001
1	 2.897801395106264e+000	 1.974713497817473e+000	-1.500842111066850e+001
1	 2.875994441629016e+000	 2.006340473489594e+000	-1.454642005154951e+001
1	 2.853820704199826e+000	 2.037756962284804e+000	-1.404184354146457e+001
1	 3.082002133052676e+000	 1.727933919372181e+000	-1.665902502076541e+001
1	 3.063077177494706e+000	 1.761263916996664e+000	-1.657741649131984e+001
1	 3.043763757651986e+000	 1.794434205235065e+000	-1.644547244261992e+001
1	 3.024063713083709e+000	 1.827438126202330e+000	-1.626408554997345e+001
1	 3.003979033151893e+000	 1.860269045293038e+000	-1.603424338379621e+001
1	 2.983511856836314e+000	 1.892920355337473e+000	-1.575702803972440e+001
1	 2.962664472412528e+000	 1.925385480765913e+000	-1.543361561497660e+001
1	 2.941439316992212e+000	 1.957657881775915e+000	-1.506527553025559e+001
1	 2.919838975925134e+000	 1.989731058497338e+000	-1.465336969684614e+001
1	 2.897866182062441e+000	 2.021598555149789e+000	-1.419935152893544e+001
1	 2.875523814881082e+000	 2.053253964187143e+000	-1.370476480155843e+001
1	 3.105263645642056e+000	 1.740975557525482e+000	-1.627418769495627e+001
1	 3.086195853358668e+000	 1.774557114404377e+000	-1.619109195635714e+001
1	 3.066736664843483e+000	 1.807977756485311e+000	-1.605843676847600e+001
1	 3.046887933539848e+000	 1.841230775632634e+000	-1.587725222227280e+001
1	 3.026651663824572e+000	 1.874309487166034e+000	-1.564867091402828e+001
1	 3.006030010821464e+000	 1.907207234047981e+000	-1.537392738151286e+001
1	 2.985025280076940e+000	 1.939917391079436e+000	-1.505435737042145e+001
1	 2.963639927096867e+000	 1.972433369098595e+000	-1.469139693062804e+001
1	 2.941876556744047e+000	 2.004748619177347e+000	-1.428658134222060e+001
1	 2.919737922495929e+000	 2.036856636810096e+000	-1.384154387169208e+001
1	 2.897226925562421e+000	 2.068750966089566e+000	-1.335801435908119e+001
1	 3.128525158231438e+000	 1.754017195679249e+000	-1.587483483496507e+001
1	 3.109314529222616e+000	 1.787850311812554e+000	-1.579009304421434e+001
1	 3.089709572034963e+000	 1.821521307736009e+000	-1.565676044062609e+001
1	 3.069712153995974e+000	 1.855023425063373e+000	-1.547599058443378e+001
1	 3.049324294497250e+000	 1.888349929039445e+000	-1.524904637768361e+001
1	 3.028548164806635e+000	 1.921494112758878e+000	-1.497729932358556e+001
1	 3.007386087741395e+000	 1.954449301393319e+000	-1.466222860162964e+001
1	 2.985840537201595e+000	 1.987208856421604e+000	-1.430541995825994e+001
1	 2.963914137563063e+000	 2.019766179857652e+000	-1.390856441334707e+001
1	 2.941609662929548e+000	 2.052114718470667e+000	-1.347345678315353e+001
1	 2.918930036243926e+000	 2.084247967992224e+000	-1.300199402094326e+001
1	 3.151786670820737e+000	 1.767058833833616e+000	-1.546147054890320e+001
1	 3.132433205086475e+000	 1.801143509221328e+000	-1.537496143170224e+001
1	 3.112682479226365e+000	 1.835064858987297e+000	-1.524101093607460e+001
1	 3.092536374452044e+000	 1.868816074494688e+000	-1.506088245563846e+001
1	 3.071996925169905e+000	 1.902390370913414e+000	-1.483595480066779e+001
1	 3.051066318791825e+000	 1.935780991470311e+000	-1.456772129752331e+001
1	 3.029746895405916e+000	 1.968981211707713e+000	-1.425778869081116e+001
1	 3.008041147306437e+000	 2.001984343745095e+000	-1.390787584827912e+001
1	 2.985951718382242e+000	 2.034783740538408e+000	-1.351981226894444e+001
1	 2.963481403363380e+000	 2.067372800131658e+000	-1.309553639543792e+001
1	 2.940633146925679e+000	 2.099744969895266e+000	-1.263709373203856e+001
1	 3.175048183409871e+000	 1.780100471988716e+000	-1.503458417179324e+001
1	 3.155551880950168e+000	 1.814436706630833e+000	-1.494622292157736e+001
1	 3.135655386417624e+000	 1.848608410239309e+000	-1.481173910168686e+001
1	 3.115360594908013e+000	 1.882608723926718e+000	-1.463249260462673e+001
1	 3.094669555842514e+000	 1.916430812788085e+000	-1.440996406447014e+001
1	 3.073584472777032e+000	 1.950067870182429e+000	-1.414575381304541e+001
1	 3.052107703070523e+000	 1.983513122022769e+000	-1.384158062725863e+001
1	 3.030241757411437e+000	 2.016759831069223e+000	-1.349928026775740e+001
1	 3.007989299201647e+000	 2.049801301219771e+000	-1.312080380965880e+001
1	 2.985353143797493e+000	 2.082630881793220e+000	-1.270821576658462e+001
1	 2.962336257607765e+000	 2.115241971798842e+000	-1.226369200977120e+001
1	 3.198309695998757e+000	 1.793142110144684e+000	-1.459465080279704e+001
1	 3.178670556813624e+000	 1.827729904041205e+000	-1.450438801980705e+001
1	 3.158628293608680e+000	 1.862151961492184e+000	-1.436947975894970e+001
1	 3.138184815363838e+000	 1.896401373359605e+000	-1.419136936974139e+001
1	 3.117342186515054e+000	 1.930471254663603e+000	-1.397162552962607e+001
1	 3.096102626762257e+000	 1.964354748895379e+000	-1.371194107337877e+001
1	 3.074468510735241e+000	 1.998045032338639e+000	-1.341413160348097e+001
1	 3.052442367516637e+000	 2.031535318394141e+000	-1.308013388184820e+001
1	 3.030026880021337e+000	 2.064818861901896e+000	-1.271200400383589e+001
1	 3.007224884231967e+000	 2.097888963455510e+000	-1.231191535599741e+001
1	 2.984039368290266e+000	 2.130738973703104e+000	-1.188215635961959e+001
1	 2.767008261473969e+000	 1.975768954673289e+000	-1.528496411537915e+001
1	 2.745156326716522e+000	 2.006019562551172e+000	-1.471895732766030e+001
1	 2.722954721676199e+000	 2.036053906072851e+000	-1.413695592830927e+001
1	 2.700406629454409e+000	 2.065865978303493e+000	-1.354089511563276e+001
1	 2.677515369617984e+000	 2.095449834330040e+000	-1.293276393414939e+001
1	 2.654284396700450e+000	 2.124799595113840e+000	-1.231460207115928e+001
1	 2.630717298573514e+000	 2.153909451300074e+000	-1.168849654702103e+001
1	 2.606817794690176e+000	 2.182773666978905e+000	-1.105657830549207e+001
1	 2.582589734201158e+000	 2.211386583393304e+000	-1.042101871078161e+001
1	 2.558037093946535e+000	 2.239742622588618e+000	-9.784025958240006e+000
1	 2.533163976324692e+000	 2.267836290998959e+000	-9.147841405862952e+000
1	 2.788711372155724e+000	 1.991265956576792e+000	-1.499084385322925e+001
1	 2.766688041105135e+000	 2.021753835987452e+000	-1.443185580795649e+001
1	 2.744312297122520e+000	 2.052023754766099e+000	-1.385869306201663e+001
1	 2.721587348276044e+000	 2.082069658862324e+000	-1.327300976690903e+001
1	 2.698516540169660e+000	 2.111885556733959e+000	-1.267650395025084e+001
1	 2.675103354432630e+000	 2.141465523229930e+000	-1.207091477664462e+001
1	 2.651351407078247e+000	 2.170803703429568e+000	-1.145801972185338e+001
1	 2.627264446733148e+000	 2.199894316433245e+000	-1.083963166573287e+001
1	 2.602846352738987e+000	 2.228731659099303e+000	-1.021759590961085e+001
1	 2.578101133128304e+000	 2.257310109722224e+000	-9.593787124026253e+000
1	 2.553032922476773e+000	 2.285624131647170e+000	-8.970106232948815e+000
1	 2.810414482837230e+000	 2.006762958479779e+000	-1.468531662774802e+001
1	 2.788219755493518e+000	 2.037488109423218e+000	-1.413461998865053e+001
1	 2.765669872568660e+000	 2.067993603458853e+000	-1.357139158372078e+001
1	 2.742768067097567e+000	 2.098273339420691e+000	-1.299701643315249e+001
1	 2.719517710721304e+000	 2.128321279137458e+000	-1.241291387976176e+001
1	 2.695922312164874e+000	 2.158131451345657e+000	-1.182053529795283e+001
1	 2.671985515583139e+000	 2.187697955558761e+000	-1.122136173483875e+001
1	 2.647711098776373e+000	 2.217014965887358e+000	-1.061690148808915e+001
1	 2.623102971277156e+000	 2.246076734805150e+000	-1.000868762526794e+001
1	 2.598165172310488e+000	 2.274877596855760e+000	-9.398275449597019e+000
1	 2.572901868629317e+000	 2.303411972295396e+000	-8.787239917243884e+000
1	 2.832117593518569e+000	 2.022259960382399e+000	-1.436883645536745e+001
1	 2.809751469881756e+000	 2.053222382858615e+000	-1.382763725553989e+001
1	 2.787027448014699e+000	 2.083963452151246e+000	-1.327537975625639e+001
1	 2.763948785919044e+000	 2.114477019978720e+000	-1.271319146465042e+001
1	 2.740518881272978e+000	 2.144757001540649e+000	-1.214222506603838e+001
1	 2.716741269897224e+000	 2.174797379461116e+000	-1.156365656505965e+001
1	 2.692619624088216e+000	 2.204592207687735e+000	-1.097868337707636e+001
1	 2.668157750819863e+000	 2.234135615341307e+000	-1.038852237355824e+001
1	 2.643359589815661e+000	 2.263421810510896e+000	-9.794407885318890e+000
1	 2.618229211493063e+000	 2.292445083989263e+000	-9.197589667596713e+000
1	 2.592770814782297e+000	 2.321199812943655e+000	-8.599330831090374e+000
1	 2.853820704199826e+000	 2.037756962284804e+000	-1.404184354146457e+001
1	 2.831283184269937e+000	 2.068956656293786e+000	-1.351128321025259e+001
1	 2.808385023460716e+000	 2.099933300843413e+000	-1.297097585679289e+001
1	 2.785129504740552e+000	 2.130680700536532e+000	-1.242180280519024e+001
1	 2.761520051824739e+000	 2.161192723943644e+000	-1.186466181503556e+001
1	 2.737560227629726e+000	 2.191463307576404e+000	-1.130046563906377e+001
1	 2.713253732593509e+000	 2.221486459816572e+000	-1.073014054844407e+001
1	 2.688604402863629e+000	 2.251256264795159e+000	-1.015462482861178e+001
1	 2.663616208354492e+000	 2.280766886216589e+000	-9.574867248642200e+000
1	 2.638293250676009e+000	 2.310012571122760e+000	-8.991825507249544e+000
1	 2.612639760935674e+000	 2.338987653591964e+000	-8.406464658567817e+000
1	 2.875523814881082e+000	 2.053253964187143e+000	-1.370476480155843e+001
1	 2.852814898658141e+000	 2.084690929728875e+000	-1.318592211495426e+001
1	 2.829742598906793e+000	 2.115903149535489e+000	-1.265848855367023e+001
1	 2.806310223562162e+000	 2.146884381094253e+000	-1.212311030930104e+001
1	 2.782521222376647e+000	 2.177628446346551e+000	-1.158044166088175e+001
1	 2.758379185362422e+000	 2.208129235691617e+000	-1.103114393366456e+001
1	 2.733887841099043e+000	 2.238380711945351e+000	-1.047588444218163e+001
1	 2.709051054907678e+000	 2.268376914248976e+000	-9.915335419713447e+000
1	 2.683872826893646e+000	 2.298111961922277e+000	-9.350172936328772e+000
1	 2.658357289859305e+000	 2.327580058256286e+000	-8.781075807701448e+000
1	 2.632508707089417e+000	 2.356775494240340e+000	-8.208724496941766e+000
1	 2.897226925562421e+000	 2.068750966089566e+000	-1.335801435908119e+001
1	 2.874346613046456e+000	 2.100425203164026e+000	-1.285190731706722e+001
1	 2.851100174353011e+000	 2.131872998227611e+000	-1.233821726629703e+001
1	 2.827490942383947e+000	 2.163088061652005e+000	-1.181736604523663e+001
1	 2.803522392928763e+000	 2.194064168749482e+000	-1.128977561951736e+001
1	 2.779198143095355e+000	 2.224795163806850e+000	-1.075586742668494e+001
1	 2.754521949604845e+000	 2.255274964074153e+000	-1.021606172117755e+001
1	 2.729497706952019e+000	 2.285497563702824e+000	-9.670776920891836e+000
1	 2.704129445433114e+000	 2.315457037628007e+000	-9.120428956698770e+000
1	 2.678421329042929e+000	 2.345147545389873e+000	-8.565430626267776e+000
1	 2.652377653243494e+000	 2.374563334888798e+000	-8.006190953552675e+000
1	 2.918930036243926e+000	 2.084247967992224e+000	-1.300199402094326e+001
1	 2.895878327434965e+000	 2.116159476599381e+000	-1.250958165504244e+001
1	 2.872457749799449e+000	 2.147842846919910e+000	-1.201045250899351e+001
1	 2.848671661205972e+000	 2.179291742209910e+000	-1.150481458444161e+001
1	 2.824523563481143e+000	 2.210499891152546e+000	-1.099286843101808e+001
1	 2.800017100828572e+000	 2.241461091922200e+000	-1.047480686215825e+001
1	 2.775156058110943e+000	 2.272169216203060e+000	-9.950814686391533e+000
1	 2.749944358996667e+000	 2.302618213156767e+000	-9.421068454729774e+000
1	 2.724386063972890e+000	 2.332802113333829e+000	-8.885736224740892e+000
1	 2.698485368226858e+000	 2.362715032523553e+000	-8.344977341851921e+000
1	 2.672246599397870e+000	 2.392351175537356e+000	-7.798942238382531e+000
1	 2.940633146925679e+000	 2.099744969895266e+000	-1.263709373203856e+001
1	 2.917410041823754e+000	 2.131893750035086e+000	-1.215927784616255e+001
1	 2.893815325246190e+000	 2.163812695612523e+000	-1.167547621960778e+001
1	 2.869852380028318e+000	 2.195495422768095e+000	-1.118569327819946e+001
1	 2.845524734033849e+000	 2.226935613555856e+000	-1.068991879118739e+001
1	 2.820836058562116e+000	 2.258127020037764e+000	-1.018812794346587e+001
1	 2.795790166617366e+000	 2.289063468332152e+000	-9.680281437818689e+000
1	 2.770391011041630e+000	 2.319738862610872e+000	-9.166325627110082e+000
1	 2.744642682512967e+000	 2.350147189039792e+000	-8.646192676262803e+000
1	 2.718549407411075e+000	 2.380282519657358e+000	-8.119800753784203e+000
1	 2.692115545552514e+000	 2.410139016186032e+000	-7.587054252522378e+000
1	 2.962336257607765e+000	 2.115241971798842e+000	-1.226369200977120e+001
1	 2.938941756212907e+000	 2.147628023471283e+000	-1.180131885729785e+001
1	 2.915172900693314e+000	 2.179782544305583e+000	-1.133356207368703e+001
1	 2.891033098851052e+000	 2.211699103326681e+000	-1.086023252211955e+001
1	 2.866525904586939e+000	 2.243371335959520e+000	-1.038111957296872e+001
1	 2.841655016296032e+000	 2.274792948153638e+000	-9.895991517985006e+000
1	 2.816424275124137e+000	 2.305957720461509e+000	-9.404596028378139e+000
1	 2.790837663086917e+000	 2.336859512065200e+000	-8.906660656038492e+000
1	 2.764899301053342e+000	 2.367492264745943e+000	-8.401893377023498e+000
1	 2.738613446595555e+000	 2.397850006791321e+000	-7.889983176316144e+000
1	 2.711984491707391e+000	 2.427926856834841e+000	-7.370600672750872e+000
1	 2.984039368290266e+000	 2.130738973703104e+000	-1.188215635961960e+001
1	 2.960473470602511e+000	 2.163362296908118e+000	-1.143601825948334e+001
1	 2.936530476140904e+000	 2.195752392999227e+000	-1.098497578493872e+001
1	 2.912213817674249e+000	 2.227902783885794e+000	-1.052865600908240e+001
1	 2.887527075140474e+000	 2.259807058363651e+000	-1.006665803819553e+001
1	 2.862473974030364e+000	 2.291458876269917e+000	-9.598553753678994e+000
1	 2.837058383631288e+000	 2.322851972591213e+000	-9.123888611086143e+000
1	 2.811284315132539e+000	 2.353980161519818e+000	-8.642182494844729e+000
1	 2.785155919594005e+000	 2.384837340452331e+000	-8.152930627103668e+000
1	 2.758677485780280e+000	 2.415417493925475e+000	-7.655604528990978e+000
1	 2.731853437862469e+000	 2.445714697483801e+000	-7.149653032422107e+000
1	 2.533163976324692e+000	 2.267836290998959e+000	-9.147841405862952e+000
1	 2.507978409130006e+000	 2.295658029994647e+000	-8.518947869042794e+000
1	 2.482481032043097e+000	 2.323206763111350e+000	-7.900789630278940e+000
1	 2.456676310313640e+000	 2.350477275304074e+000	-7.291324262280273e+000
1	 2.430568824931227e+000	 2.377464449525057e+000	-6.688466657279292e+000
1	 2.404163269919529e+000	 2.404163269919529e+000	-6.090093022191791e+000
1	 2.377464449525057e+000	 2.430568824931227e+000	-5.494044945908307e+000
1	 2.350477275304074e+000	 2.456676310313640e+000	-4.898133530003103e+000
1	 2.323206763111351e+000	 2.482481032043097e+000	-4.300143573982052e+000
1	 2.295658029994647e+000	 2.507978409130006e+000	-3.697837806050456e+000
1	 2.267836290998959e+000	 2.533163976324692e+000	-3.088961150272944e+000
1	 2.553032922476773e+000	 2.285624131647170e+000	-8.970106232948815e+000
1	 2.527649811545008e+000	 2.313664091271059e+000	-8.352310162596329e+000
1	 2.501952445030982e+000	 2.341428903686288e+000	-7.743566342890418e+000
1	 2.475945323207677e+000	 2.368913312943507e+000	-7.142158987669790e+000
1	 2.449633062995807e+000	 2.396112161859250e+000	-6.546334235683606e+000
1	 2.423020395236746e+000	 2.423020395236746e+000	-5.954303587546437e+000
1	 2.396112161859249e+000	 2.449633062995806e+000	-5.364247407288992e+000
1	 2.368913312943507e+000	 2.475945323207676e+000	-4.774318480974086e+000
1	 2.341428903686289e+000	 2.501952445030982e+000	-4.182645624697582e+000
1	 2.313664091271060e+000	 2.527649811545008e+000	-3.587337334168446e+000
1	 2.285624131647170e+000	 2.553032922476773e+000	-2.986485467960701e+000
1	 2.572901868629317e+000	 2.303411972295396e+000	-8.787239917243882e+000
1	 2.547321213960504e+000	 2.331670152547573e+000	-8.180706055074888e+000
1	 2.521423858019364e+000	 2.359651044261409e+000	-7.581641049589995e+000
1	 2.495214336102197e+000	 2.387349350583204e+000	-6.988644228915706e+000
1	 2.468697301060834e+000	 2.414759874193778e+000	-6.400281341097506e+000
1	 2.441877520554361e+000	 2.441877520554361e+000	-5.815087447571430e+000
1	 2.414759874193777e+000	 2.468697301060833e+000	-5.231569873851724e+000
1	 2.387349350583203e+000	 2.495214336102196e+000	-4.648211211057495e+000
1	 2.359651044261410e+000	 2.521423858019363e+000	-4.063472361767953e+000
1	 2.331670152547574e+000	 2.547321213960503e+000	-3.475795623583279e+000
1	 2.303411972295396e+000	 2.572901868629317e+000	-2.883607803676267e+000
1	 2.592770814782297e+000	 2.321199812943655e+000	-8.599330831090374e+000
1	 2.566992616376451e+000	 2.349676213824190e+000	-8.004214631991736e+000
1	 2.540895271008198e+000	 2.377873184836706e+000	-7.415081158948055e+000
1	 2.514483348997150e+000	 2.405785388223142e+000	-6.830833581215154e+000
1	 2.487761539126263e+000	 2.433407586528607e+000	-6.250345874696812e+000
1	 2.460734645872333e+000	 2.460734645872333e+000	-5.672465186396789e+000
1	 2.433407586528608e+000	 2.487761539126262e+000	-5.096014248859779e+000
1	 2.405785388223143e+000	 2.514483348997149e+000	-4.519793839349299e+000
1	 2.377873184836706e+000	 2.540895271008197e+000	-3.942585278393372e+000
1	 2.349676213824191e+000	 2.566992616376450e+000	-3.363152962229005e+000
1	 2.321199812943656e+000	 2.592770814782297e+000	-2.780246923593523e+000
1	 2.612639760935674e+000	 2.338987653591964e+000	-8.406464658567817e+000
1	 2.586664018792810e+000	 2.367682275100913e+000	-7.822912573100239e+000
1	 2.560366683997438e+000	 2.396095325412165e+000	-7.243952028984508e+000
1	 2.533752361892491e+000	 2.424221425863298e+000	-6.668779009413854e+000
1	 2.506825777192050e+000	 2.452055298863711e+000	-6.096564584713929e+000
1	 2.479591771190626e+000	 2.479591771190626e+000	-5.526456761988975e+000
1	 2.452055298863710e+000	 2.506825777192050e+000	-4.957582377679724e+000
1	 2.424221425863299e+000	 2.533752361892490e+000	-4.389049028877611e+000
1	 2.396095325412165e+000	 2.560366683997438e+000	-3.819947039140391e+000
1	 2.367682275100914e+000	 2.586664018792809e+000	-3.249351454464470e+000
1	 2.338987653591964e+000	 2.612639760935674e+000	-2.676324064997203e+000
1	 2.632508707089417e+000	 2.356775494240340e+000	-8.208724496941766e+000
1	 2.606335421209538e+000	 2.385688336377744e+000	-7.636874243181555e+000
1	 2.579838096987040e+000	 2.414317465987774e+000	-7.068317044551806e+000
1	 2.553021374788173e+000	 2.442657463503651e+000	-6.502530909531710e+000
1	 2.525890015258151e+000	 2.470703011199052e+000	-5.938973109946963e+000
1	 2.498448896509196e+000	 2.498448896509196e+000	-5.377081529780660e+000
1	 2.470703011199053e+000	 2.525890015258151e+000	-4.816276049966153e+000
1	 2.442657463503652e+000	 2.553021374788172e+000	-4.255959966076097e+000
1	 2.414317465987775e+000	 2.579838096987039e+000	-3.695521435737367e+000
1	 2.385688336377745e+000	 2.606335421209538e+000	-3.134334952525818e+000
1	 2.356775494240340e+000	 2.632508707089417e+000	-2.571762843029133e+000
1	 2.652377653243494e+000	 2.374563334888798e+000	-8.006190953552679e+000
1	 2.626006823626594e+000	 2.403694397654686e+000	-7.446171778751830e+000
1	 2.599309509976957e+000	 2.432539606563527e+000	-6.888237691239735e+000
1	 2.572290387684151e+000	 2.461093501144179e+000	-6.332138167523245e+000
1	 2.544954253324522e+000	 2.489350723534602e+000	-5.777606021313798e+000
1	 2.517306021828006e+000	 2.517306021828006e+000	-5.224358265238615e+000
1	 2.489350723534601e+000	 2.544954253324521e+000	-4.672097001748571e+000
1	 2.461093501144179e+000	 2.572290387684151e+000	-4.120510341179770e+000
1	 2.432539606563527e+000	 2.599309509976957e+000	-3.569273344856647e+000
1	 2.403694397654687e+000	 2.626006823626593e+000	-3.018048991059760e+000
1	 2.374563334888798e+000	 2.652377653243494e+000	-2.466489161625611e+000
1	 2.672246599397870e+000	 2.392351175537356e+000	-7.798942238382532e+000
1	 2.645678226043938e+000	 2.421700458931741e+000	-7.250875170901153e+000
1	 2.618780922967142e+000	 2.450761747139410e+000	-6.703773625983284e+000
1	 2.591559400580377e+000	 2.479529538784858e+000	-6.157648215416311e+000
1	 2.564018491391117e+000	 2.507998435870327e+000	-5.612496861551931e+000
1	 2.536163147147016e+000	 2.536163147147017e+000	-5.068305185424908e+000
1	 2.507998435870327e+000	 2.564018491391118e+000	-4.525046917424822e+000
1	 2.479529538784858e+000	 2.591559400580378e+000	-3.982684329495603e+000
1	 2.450761747139410e+000	 2.618780922967142e+000	-3.441168687780279e+000
1	 2.421700458931741e+000	 2.645678226043937e+000	-2.900440724577520e+000
1	 2.392351175537357e+000	 2.672246599397870e+000	-2.360431128428284e+000
1	 2.692115545552514e+000	 2.410139016186032e+000	-7.587054252522378e+000
1	 2.665349628461526e+000	 2.439706520208910e+000	-7.051052344464230e+000
1	 2.638252335957553e+000	 2.468983887715412e+000	-6.514982744543884e+000
1	 2.610828413476806e+000	 2.497965576425667e+000	-5.979107084965096e+000
1	 2.583082729457892e+000	 2.526646148206194e+000	-5.443678183160642e+000
1	 2.555020272466186e+000	 2.555020272466186e+000	-4.908939969603137e+000
1	 2.526646148206194e+000	 2.583082729457892e+000	-4.375127431666562e+000
1	 2.497965576425666e+000	 2.610828413476805e+000	-3.842466573502225e+000
1	 2.468983887715412e+000	 2.638252335957553e+000	-3.311174391851673e+000
1	 2.439706520208912e+000	 2.665349628461526e+000	-2.781458867678650e+000
1	 2.410139016186032e+000	 2.692115545552514e+000	-2.253518973462724e+000
1	 2.711984491707391e+000	 2.427926856834841e+000	-7.370600672750872e+000
1	 2.685021030879321e+000	 2.457712581486198e+000	-6.846769233710941e+000
1	 2.657723748948141e+000	 2.487206028291523e+000	-6.321921246024152e+000
1	 2.630097426373389e+000	 2.516401614066581e+000	-5.796559458944632e+000
1	 2.602146967524804e+000	 2.545293860542173e+000	-5.271181584674937e+000
1	 2.573877397785479e+000	 2.573877397785479e+000	-4.746279778938960e+000
1	 2.545293860542174e+000	 2.602146967524804e+000	-4.222340131240776e+000
1	 2.516401614066582e+000	 2.630097426373389e+000	-3.699842165736760e+000
1	 2.487206028291523e+000	 2.657723748948142e+000	-3.179258353621933e+000
1	 2.457712581486199e+000	 2.685021030879320e+000	-2.661053637902079e+000
1	 2.427926856834841e+000	 2.711984491707391e+000	-2.145684971392024e+000
1	 2.731853437862469e+000	 2.445714697483801e+000	-7.149653032422107e+000
1	 2.704692433297279e+000	 2.475718642763605e+000	-6.638089854733737e+000
1	 2.677195161938863e+000	 2.505428168867732e+000	-6.124643694567397e+000
1	 2.649366439270083e+000	 2.534837651707582e+000	-5.610048720206710e+000
1	 2.621211205591807e+000	 2.563941572878231e+000	-5.095037745356894e+000
1	 2.592734523104852e+000	 2.592734523104852e+000	-4.580341275340853e+000
1	 2.563941572878232e+000	 2.621211205591807e+000	-4.066686556751826e+000
1	 2.534837651707582e+000	 2.649366439270082e+000	-3.554796632428209e+000
1	 2.505428168867733e+000	 2.677195161938863e+000	-3.045389403604307e+000
1	 2.475718642763607e+000	 2.704692433297279e+000	-2.539176701071520e+000
1	 2.445714697483802e+000	 2.731853437862469e+000	-2.036863367162840e+000
1	 2.267836290998959e+000	 2.533163976324692e+000	-3.088961150272944e+000
1	 2.239742622588619e+000	 2.558037093946534e+000	-2.475718866292112e+000
1	 2.211386583393305e+000	 2.582589734201158e+000	-1.863730727820542e+000
1	 2.182773666978906e+000	 2.606817794690176e+000	-1.255589773513448e+000
1	 2.153909451300075e+000	 2.630717298573513e+000	-6.539025627889519e-001
1	 2.124799595113841e+000	 2.654284396700450e+000	-6.128446449973524e-002
1	 2.095449834330041e+000	 2.677515369617983e+000	 5.196450556335464e-001
1	 2.065865978303494e+000	 2.700406629454408e+000	 1.086267138834014e+000
1	 2.036053906072853e+000	 2.722954721676199e+000	 1.635968218403239e+000
1	 2.006019562551173e+000	 2.745156326716521e+000	 2.166144676358631e+000
1	 1.975768954673289e+000	 2.767008261473969e+000	 2.674207461881727e+000
1	 2.285624131647170e+000	 2.553032922476773e+000	-2.986485467960700e+000
1	 2.257310109722225e+000	 2.578101133128303e+000	-2.382840908095872e+000
1	 2.228731659099303e+000	 2.602846352738986e+000	-1.782078342473325e+000
1	 2.199894316433246e+000	 2.627264446733147e+000	-1.186404166122495e+000
1	 2.170803703429568e+000	 2.651351407078246e+000	-5.980362546071643e-001
1	 2.141465523229931e+000	 2.675103354432630e+000	-1.919992764817735e-002
1	 2.111885556733960e+000	 2.698516540169660e+000	 5.478760888881205e-001
1	 2.082069658862324e+000	 2.721587348276044e+000	 1.100963694056379e+000
1	 2.052023754766100e+000	 2.744312297122520e+000	 1.637839427432732e+000
1	 2.021753835987453e+000	 2.766688041105134e+000	 2.156288460813462e+000
1	 1.991265956576792e+000	 2.788711372155724e+000	 2.654108557685804e+000
1	 2.303411972295396e+000	 2.572901868629317e+000	-2.883607803676267e+000
1	 2.274877596855761e+000	 2.598165172310488e+000	-2.290164177901328e+000
1	 2.246076734805151e+000	 2.623102971277155e+000	-1.701169024508333e+000
1	 2.217014965887359e+000	 2.647711098776374e+000	-1.118454331600022e+000
1	 2.187697955558762e+000	 2.671985515583138e+000	-5.438616273214958e-001
1	 2.158131451345657e+000	 2.695922312164873e+000	 2.076139794941412e-002
1	 2.128321279137460e+000	 2.719517710721304e+000	 5.735642715248925e-001
1	 2.098273339420693e+000	 2.742768067097567e+000	 1.112697113245092e+000
1	 2.067993603458854e+000	 2.765669872568660e+000	 1.636313998078874e+000
1	 2.037488109423219e+000	 2.788219755493518e+000	 2.142576299404116e+000
1	 2.006762958479779e+000	 2.810414482837230e+000	 2.629656005974105e+000
1	 2.321199812943656e+000	 2.592770814782297e+000	-2.780246923593519e+000
1	 2.292445083989264e+000	 2.618229211493063e+000	-2.197587190919766e+000
1	 2.263421810510898e+000	 2.643359589815660e+000	-1.620883532909863e+000
1	 2.234135615341309e+000	 2.668157750819863e+000	-1.051605474399569e+000
1	 2.204592207687737e+000	 2.692619624088216e+000	-4.912302378902833e-001
1	 2.174797379461117e+000	 2.716741269897224e+000	 5.875999177246172e-002
1	 2.144757001540650e+000	 2.740518881272977e+000	 5.968808053958234e-001
1	 2.114477019978721e+000	 2.763948785919044e+000	 1.121648304261779e+000
1	 2.083963452151247e+000	 2.787027448014698e+000	 1.631581825958811e+000
1	 2.053222382858616e+000	 2.809751469881757e+000	 2.125206655461531e+000
1	 2.022259960382399e+000	 2.832117593518569e+000	 2.601056715764219e+000
1	 2.338987653591964e+000	 2.612639760935674e+000	-2.676324064997205e+000
1	 2.310012571122760e+000	 2.638293250676008e+000	-2.105011549502057e+000
1	 2.280766886216590e+000	 2.663616208354492e+000	-1.541106253941566e+000
1	 2.251256264795160e+000	 2.688604402863628e+000	-9.857268994184363e-001
1	 2.221486459816573e+000	 2.713253732593509e+000	-4.399981588687147e-001
1	 2.191463307576404e+000	 2.737560227629725e+000	 9.495145155840312e-002
1	 2.161192723943644e+000	 2.761520051824737e+000	 6.179916844393798e-001
1	 2.130680700536533e+000	 2.785129504740552e+000	 1.127992671800380e+000
1	 2.099933300843414e+000	 2.808385023460714e+000	 1.623827030117013e+000
1	 2.068956656293786e+000	 2.831283184269936e+000	 2.104371955116443e+000
1	 2.037756962284804e+000	 2.853820704199826e+000	 2.568511301958194e+000
1	 2.356775494240340e+000	 2.632508707089417e+000	-2.571762843029134e+000
1	 2.327580058256288e+000	 2.658357289859304e+000	-2.012341826637425e+000
1	 2.298111961922277e+000	 2.683872826893644e+000	-1.461725064261352e+000
1	 2.268376914248977e+000	 2.709051054907676e+000	-9.206918572567808e-001
1	 2.238380711945352e+000	 2.733887841099042e+000	-3.900258080009476e-001
1	 2.208129235691617e+000	 2.758379185362419e+000	 1.294866775281847e-001
1	 2.177628446346552e+000	 2.782521222376647e+000	 6.370578912147433e-001
1	 2.146884381094254e+000	 2.806310223562162e+000	 1.131900325063773e+000
1	 2.115903149535491e+000	 2.829742598906793e+000	 1.613228171019564e+000
1	 2.084690929728876e+000	 2.852814898658141e+000	 2.080258815129357e+000
1	 2.053253964187143e+000	 2.875523814881082e+000	 2.532214322867745e+000
1	 2.374563334888798e+000	 2.652377653243494e+000	-2.466489161625613e+000
1	 2.345147545389875e+000	 2.678421329042928e+000	-1.919485454688378e+000
1	 2.315457037628008e+000	 2.704129445433113e+000	-1.382631200188935e+000
1	 2.285497563702825e+000	 2.729497706952019e+000	-8.563773964313937e-001
1	 2.255274964074154e+000	 2.754521949604844e+000	-3.411777854711495e-001
1	 2.224795163806851e+000	 2.779198143095355e+000	 1.625120483313260e-001
1	 2.194064168749482e+000	 2.803522392928761e+000	 6.542355846029402e-001
1	 2.163088061652005e+000	 2.827490942383943e+000	 1.133536276106216e+000
1	 2.131872998227612e+000	 2.851100174353009e+000	 1.599958458750485e+000
1	 2.100425203164026e+000	 2.874346613046456e+000	 2.053048260480107e+000
1	 2.068750966089566e+000	 2.897226925562421e+000	 2.492354507063675e+000
1	 2.392351175537357e+000	 2.672246599397870e+000	-2.360431128428284e+000
1	 2.362715032523554e+000	 2.698485368226857e+000	-1.826352619089274e+000
1	 2.332802113333830e+000	 2.724386063972889e+000	-1.303719132805531e+000
1	 2.302618213156769e+000	 2.749944358996666e+000	-7.926642221826885e-001
1	 2.272169216203061e+000	 2.775156058110943e+000	-2.933227184152791e-001
1	 2.241461091922202e+000	 2.800017100828572e+000	 1.941695891421720e-001
1	 2.210499891152547e+000	 2.824523563481143e+000	 6.696762791341149e-001
1	 2.179291742209912e+000	 2.848671661205973e+000	 1.133060629327201e+000
1	 2.147842846919911e+000	 2.872457749799448e+000	 1.584185951920129e+000
1	 2.116159476599382e+000	 2.895878327434965e+000	 2.022915932250800e+000
1	 2.084247967992224e+000	 2.918930036243927e+000	 2.449114970105216e+000
1	 2.410139016186032e+000	 2.692115545552514e+000	-2.253518973462724e+000
1	 2.380282519657359e+000	 2.718549407411073e+000	-1.732856156752372e+000
1	 2.350147189039793e+000	 2.744642682512967e+000	-1.224886448584409e+000
1	 2.319738862610873e+000	 2.770391011041629e+000	-7.294365615339506e-001
1	 2.289063468332153e+000	 2.795790166617365e+000	-2.463331123182249e-001
1	 2.258127020037765e+000	 2.820836058562115e+000	 2.245971323120815e-001
1	 2.226935613555857e+000	 2.845524734033849e+000	 6.835270163736960e-001
1	 2.195495422768096e+000	 2.869852380028318e+000	 1.130628762574331e+000
1	 2.163812695612523e+000	 2.893815325246189e+000	 1.566073747765277e+000
1	 2.131893750035087e+000	 2.917410041823753e+000	 1.990032286302752e+000
1	 2.099744969895266e+000	 2.940633146925679e+000	 2.402673421671814e+000
1	 2.427926856834841e+000	 2.711984491707391e+000	-2.145684971392023e+000
1	 2.397850006791322e+000	 2.738613446595553e+000	-1.638911458939530e+000
1	 2.367492264745944e+000	 2.764899301053341e+000	-1.146033735268777e+000
1	 2.336859512065201e+000	 2.790837663086916e+000	-6.665820342824409e-001
1	 2.305957720461510e+000	 2.816424275124136e+000	-2.000852089430936e-001
1	 2.274792948153638e+000	 2.841655016296031e+000	 2.539284709597958e-001
1	 2.243371335959521e+000	 2.866525904586939e+000	 6.959305287749436e-001
1	 2.211699103326682e+000	 2.891033098851052e+000	 1.126391500284960e+000
1	 2.179782544305584e+000	 2.915172900693313e+000	 1.545780163892914e+000
1	 2.147628023471285e+000	 2.938941756212907e+000	 1.954562783220214e+000
1	 2.115241971798842e+000	 2.962336257607765e+000	 2.353202363590140e+000
1	 2.445714697483802e+000	 2.731853437862469e+000	-2.036863367162838e+000
1	 2.415417493925476e+000	 2.758677485780278e+000	-1.544436378372623e+000
1	 2.384837340452332e+000	 2.785155919594005e+000	-1.067064472729659e+000
1	 2.353980161519819e+000	 2.811284315132539e+000	-6.039915296201235e-001
1	 2.322851972591214e+000	 2.837058383631288e+000	-1.544588504603972e-001
1	 2.291458876269918e+000	 2.862473974030362e+000	 2.822935058592089e-001
1	 2.259807058363653e+000	 2.887527075140475e+000	 7.070253963809972e-001
1	 2.227902783885795e+000	 2.912213817674248e+000	 1.120495279072461e+000
1	 2.195752392999228e+000	 2.936530476140902e+000	 1.523458912092965e+000
1	 2.163362296908118e+000	 2.960473470602509e+000	 1.916668069965262e+000
1	 2.130738973703104e+000	 2.984039368290266e+000	 2.300869279219159e+000
1	 1.975768954673289e+000	 2.767008261473969e+000	 2.674207461881727e+000
1	 1.945308146846863e+000	 2.788507479894426e+000	 3.152446966112082e+000
1	 1.914643255096348e+000	 2.809651071830004e+000	 3.594912221428197e+000
1	 1.883780445162080e+000	 2.830436266468553e+000	 4.001712596775933e+000
1	 1.852725929198409e+000	 2.850860434090399e+000	 4.373018591302182e+000
1	 1.821485961785594e+000	 2.870921086910894e+000	 4.709060205916479e+000
1	 1.790066835929240e+000	 2.890615879789326e+000	 5.010125238542633e+000
1	 1.758474879052460e+000	 2.909942610804364e+000	 5.276557507619550e+000
1	 1.726716448985848e+000	 2.928899221696398e+000	 5.508755008526025e+000
1	 1.694797929960344e+000	 2.947483798177338e+000	 5.707168007703674e+000
1	 1.662725728608005e+000	 2.965694570108715e+000	 5.872297079336130e+000
1	 1.991265956576792e+000	 2.788711372155724e+000	 2.654108557685804e+000
1	 1.960566228508146e+000	 2.810379220328354e+000	 3.124216042986909e+000
1	 1.929660815777188e+000	 2.831688652649307e+000	 3.560788788615032e+000
1	 1.898555932485417e+000	 2.852636876573476e+000	 3.963575043905763e+000
1	 1.867257839512399e+000	 2.873221241754905e+000	 4.332384135488368e+000
1	 1.835772840496374e+000	 2.893439240895928e+000	 4.667085466282623e+000
1	 1.804107277802322e+000	 2.913288510461652e+000	 4.967607431266638e+000
1	 1.772267528482682e+000	 2.932766831259906e+000	 5.233936253351669e+000
1	 1.740260000235879e+000	 2.951872128887056e+000	 5.466114742847793e+000
1	 1.708091127367756e+000	 2.970602474040235e+000	 5.664240984142095e+000
1	 1.675767366760974e+000	 2.988956082696838e+000	 5.828466953333686e+000
1	 2.006762958479779e+000	 2.810414482837230e+000	 2.629656005974105e+000
1	 1.975824310168927e+000	 2.832250960762047e+000	 3.091083687426027e+000
1	 1.944678376457554e+000	 2.853726233468411e+000	 3.521178287229368e+000
1	 1.913331419808316e+000	 2.874837486678262e+000	 3.919350254151716e+000
1	 1.881789749825994e+000	 2.895582049419351e+000	 4.285071055754555e+000
1	 1.850059719206805e+000	 2.915957394880991e+000	 4.617872769504901e+000
1	 1.818147719675099e+000	 2.935961141134096e+000	 4.917347584091878e+000
1	 1.786060177912640e+000	 2.955591051715656e+000	 5.183147213126614e+000
1	 1.753803551485680e+000	 2.974845036078005e+000	 5.414982223585353e+000
1	 1.721384324774960e+000	 2.993721149903495e+000	 5.612621281527487e+000
1	 1.688809004913743e+000	 3.012217595285379e+000	 5.775890317782918e+000
1	 2.022259960382399e+000	 2.832117593518569e+000	 2.601056715764219e+000
1	 1.991082391829359e+000	 2.854122701195575e+000	 3.053266558308689e+000
1	 1.959695937137597e+000	 2.875763814287376e+000	 3.476309305331924e+000
1	 1.928106907130930e+000	 2.897038096782950e+000	 3.869280395107804e+000
1	 1.896321660139343e+000	 2.917942857083755e+000	 4.231336220944598e+000
1	 1.864346597917033e+000	 2.938475548866074e+000	 4.561694279620321e+000
1	 1.832188161547714e+000	 2.958633771806632e+000	 4.859633223803456e+000
1	 1.799852827342475e+000	 2.978415272171568e+000	 5.124492819546514e+000
1	 1.767347102735387e+000	 2.997817943269185e+000	 5.355673810153296e+000
1	 1.734677522182090e+000	 3.016839825767044e+000	 5.552637687925108e+000
1	 1.701850643066445e+000	 3.035479107874253e+000	 5.714906375489802e+000
1	 2.037756962284804e+000	 2.853820704199826e+000	 2.568511301958194e+000
1	 2.006340473489595e+000	 2.875994441629015e+000	 3.010974723810467e+000
1	 1.974713497817474e+000	 2.897801395106262e+000	 3.426403477397486e+000
1	 1.942882394453412e+000	 2.919238706887588e+000	 3.813600267696380e+000
1	 1.910853570452600e+000	 2.940303664748141e+000	 4.171428686022662e+000
1	 1.878633476627207e+000	 2.960993702851183e+000	 4.498813881510636e+000
1	 1.846228603420314e+000	 2.981306402479240e+000	 4.794743130700581e+000
1	 1.813645476772325e+000	 3.001239492627600e+000	 5.058266305296626e+000
1	 1.780890653985137e+000	 3.020790850460532e+000	 5.288496238399690e+000
1	 1.747970719589280e+000	 3.039958501630807e+000	 5.484608989757388e+000
1	 1.714892281219213e+000	 3.058740620463381e+000	 5.645844010804026e+000
1	 2.053253964187143e+000	 2.875523814881082e+000	 2.532214322867745e+000
1	 2.021598555149789e+000	 2.897866182062439e+000	 2.964411910121118e+000
1	 1.989731058497339e+000	 2.919838975925133e+000	 3.371675746727032e+000
1	 1.957657881775917e+000	 2.941439316992212e+000	 3.752537584169191e+000
1	 1.925385480765914e+000	 2.962664472412528e+000	 4.105589986951014e+000
1	 1.892920355337474e+000	 2.983511856836312e+000	 4.429487493338435e+000
1	 1.860269045293040e+000	 3.003979033151893e+000	 4.722947668668720e+000
1	 1.827438126202332e+000	 3.024063713083708e+000	 4.984752050328995e+000
1	 1.794434205235066e+000	 3.043763757651986e+000	 5.213746983777054e+000
1	 1.761263916996666e+000	 3.063077177494706e+000	 5.408844349242712e+000
1	 1.727933919372181e+000	 3.082002133052675e+000	 5.569022179013329e+000
1	 2.068750966089566e+000	 2.897226925562421e+000	 2.492354507063675e+000
1	 2.036856636810096e+000	 2.919737922495926e+000	 2.913775738983585e+000
1	 2.004748619177347e+000	 2.941876556744047e+000	 3.312334616065366e+000
1	 1.972433369098597e+000	 2.963639927096867e+000	 3.686313233613391e+000
1	 1.939917391079437e+000	 2.985025280076939e+000	 4.034054422313941e+000
1	 1.907207234047982e+000	 3.006030010821464e+000	 4.353963364940519e+000
1	 1.874309487166035e+000	 3.026651663824571e+000	 4.644509100416101e+000
1	 1.841230775632635e+000	 3.046887933539847e+000	 4.904225913441340e+000
1	 1.807977756485312e+000	 3.066736664843483e+000	 5.131714608190113e+000
1	 1.774557114404378e+000	 3.086195853358667e+000	 5.325643664869710e+000
1	 1.740975557525482e+000	 3.105263645642056e+000	 5.484750278236364e+000
1	 2.084247967992224e+000	 2.918930036243927e+000	 2.449114970105216e+000
1	 2.052114718470668e+000	 2.941609662929547e+000	 2.859257954635774e+000
1	 2.019766179857653e+000	 2.963914137563063e+000	 3.248582387038566e+000
1	 1.987208856421605e+000	 2.985840537201594e+000	 3.615141535612916e+000
1	 1.954449301393320e+000	 3.007386087741394e+000	 3.957049322378234e+000
1	 1.921494112758879e+000	 3.028548164806634e+000	 4.272482362909217e+000
1	 1.888349929039447e+000	 3.049324294497249e+000	 4.559681888647136e+000
1	 1.855023425063374e+000	 3.069712153995972e+000	 4.816955549063614e+000
1	 1.821521307736010e+000	 3.089709572034963e+000	 5.042679091370403e+000
1	 1.787850311812555e+000	 3.109314529222615e+000	 5.235297915790175e+000
1	 1.754017195679249e+000	 3.128525158231437e+000	 5.393328504724575e+000
1	 2.099744969895266e+000	 2.940633146925679e+000	 2.402673421671814e+000
1	 2.067372800131659e+000	 2.963481403363379e+000	 2.801044640702906e+000
1	 2.034783740538409e+000	 2.985951718382242e+000	 3.180615388988293e+000
1	 2.001984343745096e+000	 3.008041147306437e+000	 3.539230482677014e+000
1	 1.968981211707714e+000	 3.029746895405914e+000	 3.874795306238693e+000
1	 1.935780991470313e+000	 3.051066318791824e+000	 4.185278243049913e+000
1	 1.902390370913415e+000	 3.071996925169905e+000	 4.468712983899104e+000
1	 1.868816074494689e+000	 3.092536374452043e+000	 4.723200710016641e+000
1	 1.835064858987297e+000	 3.112682479226363e+000	 4.946912147576561e+000
1	 1.801143509221329e+000	 3.132433205086474e+000	 5.138089490961491e+000
1	 1.767058833833616e+000	 3.151786670820736e+000	 5.295048192430496e+000
1	 2.115241971798842e+000	 2.962336257607765e+000	 2.353202363590140e+000
1	 2.082630881793222e+000	 2.985353143797493e+000	 2.739316427555804e+000
1	 2.049801301219773e+000	 3.007989299201647e+000	 3.108624197747063e+000
1	 2.016759831069224e+000	 3.030241757411436e+000	 3.458781972012107e+000
1	 1.983513122022770e+000	 3.052107703070523e+000	 3.787506527660333e+000
1	 1.950067870182430e+000	 3.073584472777032e+000	 4.092577910861638e+000
1	 1.916430812788087e+000	 3.094669555842513e+000	 4.371842099726025e+000
1	 1.882608723926719e+000	 3.115360594908012e+000	 4.623213536961881e+000
1	 1.848608410239310e+000	 3.135655386417622e+000	 4.844677528373000e+000
1	 1.814436706630835e+000	 3.155551880950169e+000	 5.034292503820410e+000
1	 1.780100471988717e+000	 3.175048183409870e+000	 5.190192137649263e+000
1	 2.130738973703104e+000	 2.984039368290266e+000	 2.300869279219159e+000
1	 2.097888963455511e+000	 3.007224884231966e+000	 2.674248690620070e+000
1	 2.064818861901898e+000	 3.030026880021336e+000	 3.032793844866519e+000
1	 2.031535318394141e+000	 3.052442367516635e+000	 3.373992027179582e+000
1	 1.998045032338640e+000	 3.074468510735239e+000	 3.695390910192153e+000
1	 1.964354748895380e+000	 3.096102626762256e+000	 3.994601670650686e+000
1	 1.930471254663603e+000	 3.117342186515053e+000	 4.269301975873868e+000
1	 1.896401373359606e+000	 3.138184815363837e+000	 4.517238835220137e+000
1	 1.862151961492186e+000	 3.158628293608679e+000	 4.736231312196005e+000
1	 1.827729904041206e+000	 3.178670556813624e+000	 4.924173093225120e+000
1	 1.793142110144684e+000	 3.198309695998757e+000	 5.079034909493301e+000
1	 1.662725728608005e+000	 2.965694570108715e+000	 5.872297079336127e+000
1	 1.630511113674446e+000	 2.983527265011495e+000	 6.009997271491085e+000
1	 1.598155724011803e+000	 3.000983163283563e+000	 6.124769335052783e+000
1	 1.565666008429837e+000	 3.018060930005414e+000	 6.215089887537118e+000
1	 1.533048422245594e+000	 3.034759373751102e+000	 6.279487366786374e+000
1	 1.500309423398187e+000	 3.051077446124149e+000	 6.316543621690923e+000
1	 1.467455468599929e+000	 3.067014241170959e+000	 6.324895398456197e+000
1	 1.434493009528168e+000	 3.082568994673865e+000	 6.303235720926047e+000
1	 1.401428489062055e+000	 3.097741083326227e+000	 6.250315163750380e+000
1	 1.368268337568318e+000	 3.112530023792001e+000	 6.164943017460448e+000
1	 1.335018969240017e+000	 3.126935471652506e+000	 6.045988344788058e+000
1	 1.675767366760974e+000	 2.988956082696838e+000	 5.828466953333686e+000
1	 1.643300075547886e+000	 3.006928648866512e+000	 5.964358197735256e+000
1	 1.610690905435004e+000	 3.024521462989987e+000	 6.076611083184384e+000
1	 1.577946355813512e+000	 3.041733179677284e+000	 6.164081129028152e+000
1	 1.545072932632920e+000	 3.058562598157479e+000	 6.225670129997811e+000
1	 1.512077144485367e+000	 3.075008661810974e+000	 6.260327165160383e+000
1	 1.478965498726572e+000	 3.091070457578300e+000	 6.267049520878903e+000
1	 1.445744497637799e+000	 3.106747215247637e+000	 6.244883527182155e+000
1	 1.412420634633104e+000	 3.122038306623424e+000	 6.192925307158279e+000
1	 1.379000390515979e+000	 3.136943244578565e+000	 6.110321439199677e+000
1	 1.345490229789387e+000	 3.151461681992926e+000	 5.996269532133609e+000
1	 1.688809004913743e+000	 3.012217595285379e+000	 5.775890317782918e+000
1	 1.656089037421116e+000	 3.030330032721980e+000	 5.910037871843923e+000
1	 1.623226086857971e+000	 3.048059762696878e+000	 6.019882078556853e+000
1	 1.590226703196920e+000	 3.065405429349620e+000	 6.104610540763225e+000
1	 1.557097443019937e+000	 3.082365822564310e+000	 6.163452085123669e+000
1	 1.523844865572193e+000	 3.098939877498230e+000	 6.195677259740139e+000
1	 1.490475528852818e+000	 3.115126673986048e+000	 6.200598762367540e+000
1	 1.456995985746993e+000	 3.130925435821791e+000	 6.177571799392907e+000
1	 1.423412780203682e+000	 3.146335529920983e+000	 6.125994375918757e+000
1	 1.389732443463146e+000	 3.161356465365481e+000	 6.045307517441787e+000
1	 1.355961490338257e+000	 3.175987892333698e+000	 5.934995423769840e+000
1	 1.701850643066445e+000	 3.035479107874253e+000	 5.714906375489801e+000
1	 1.668877999294270e+000	 3.053731416577814e+000	 5.847385746111882e+000
1	 1.635761268280842e+000	 3.071598062404153e+000	 5.954944771669577e+000
1	 1.602507050580201e+000	 3.089077679022347e+000	 6.037057394509887e+000
1	 1.569121953406790e+000	 3.106169046971532e+000	 6.093234213079037e+000
1	 1.535612586658817e+000	 3.122871093185872e+000	 6.123022537694519e+000
1	 1.501985558978821e+000	 3.139182890394173e+000	 6.126006391630763e+000
1	 1.468247473855908e+000	 3.155103656396314e+000	 6.101806458362145e+000
1	 1.434404925773954e+000	 3.170632753218907e+000	 6.050079975917116e+000
1	 1.400464496409988e+000	 3.185769686152758e+000	 5.970520579402941e+000
1	 1.366432750886794e+000	 3.200514102674838e+000	 5.862858092859233e+000
1	 1.714892281219213e+000	 3.058740620463381e+000	 5.645844010804024e+000
1	 1.681666961167484e+000	 3.077132800433932e+000	 5.776740642591117e+000
1	 1.648296449703754e+000	 3.095136362111732e+000	 5.882150587377074e+000
1	 1.614787397963496e+000	 3.112749928695397e+000	 5.961789424692665e+000
1	 1.581146463793626e+000	 3.129972271379086e+000	 6.015405297049730e+000
1	 1.547380307745387e+000	 3.146802308873856e+000	 6.042778592412089e+000
1	 1.513495589104738e+000	 3.163239106802647e+000	 6.043721584870442e+000
1	 1.479498961964707e+000	 3.179281876971194e+000	 6.018078034921686e+000
1	 1.445397071344081e+000	 3.194929976517194e+000	 5.965722750820894e+000
1	 1.411196549356669e+000	 3.210182906940407e+000	 5.886561112535564e+000
1	 1.376904011435166e+000	 3.225040313016362e+000	 5.780528559888726e+000
1	 1.727933919372181e+000	 3.082002133052675e+000	 5.569022179013329e+000
1	 1.694455923040891e+000	 3.100534184290246e+000	 5.698431154251065e+000
1	 1.660831631126843e+000	 3.118674661819535e+000	 5.801840340971204e+000
1	 1.627067745346946e+000	 3.136422178368696e+000	 5.879163263785260e+000
1	 1.593170974180588e+000	 3.153775495786916e+000	 5.930342382805889e+000
1	 1.559148028832055e+000	 3.170733524562135e+000	 5.955348470462217e+000
1	 1.525005619230723e+000	 3.187295323211440e+000	 5.954179957599640e+000
1	 1.490750450073545e+000	 3.203460097546412e+000	 5.926862250713112e+000
1	 1.456389216914229e+000	 3.219227199815840e+000	 5.873447022194172e+000
1	 1.421928602303354e+000	 3.234596127728437e+000	 5.794011475496949e+000
1	 1.387375271983538e+000	 3.249566523358289e+000	 5.688657587148634e+000
1	 1.740975557525482e+000	 3.105263645642056e+000	 5.484750278236364e+000
1	 1.707244884914625e+000	 3.123935568146673e+000	 5.612776028108703e+000
1	 1.673366812550247e+000	 3.142212961527484e+000	 5.714344635561850e+000
1	 1.639348092730692e+000	 3.160094428042173e+000	 5.789524858133690e+000
1	 1.605195484567823e+000	 3.177578720194959e+000	 5.838411218326471e+000
1	 1.570915749918973e+000	 3.194664740250668e+000	 5.861123141535757e+000
1	 1.536515649356933e+000	 3.211351539620525e+000	 5.857804072557875e+000
1	 1.502001938182586e+000	 3.227638318121956e+000	 5.828620572865247e+000
1	 1.467381362484560e+000	 3.243524423114846e+000	 5.773761400841392e+000
1	 1.432660655250212e+000	 3.259009348516859e+000	 5.693436577162647e+000
1	 1.397846532532076e+000	 3.274092733700633e+000	 5.587876437502619e+000
1	 1.754017195679249e+000	 3.128525158231437e+000	 5.393328504724575e+000
1	 1.720033846788822e+000	 3.147336952003127e+000	 5.520084531266416e+000
1	 1.685901993974103e+000	 3.165751261235494e+000	 5.619984241729963e+000
1	 1.651628440114874e+000	 3.183766677715757e+000	 5.693209865229004e+000
1	 1.617219994955478e+000	 3.201381944603159e+000	 5.739966673811280e+000
1	 1.582683471006287e+000	 3.218595955939410e+000	 5.760481947420810e+000
1	 1.548025679483520e+000	 3.235407756029868e+000	 5.755003924967253e+000
1	 1.513253426291987e+000	 3.251816538697813e+000	 5.723800743926769e+000
1	 1.478373508055237e+000	 3.267821646414213e+000	 5.667159370878070e+000
1	 1.443392708197405e+000	 3.283422569305681e+000	 5.585384525347936e+000
1	 1.408317793080948e+000	 3.298618944043410e+000	 5.478797599307827e+000
1	 1.767058833833616e+000	 3.151786670820736e+000	 5.295048192430496e+000
1	 1.732822808663616e+000	 3.170738335859523e+000	 5.420656800740683e+000
1	 1.698437175398548e+000	 3.189289560943490e+000	 5.519070460368529e+000
1	 1.663908787499634e+000	 3.207438927389378e+000	 5.590544033387504e+000
1	 1.629244505343696e+000	 3.225185169011456e+000	 5.635353143093901e+000
1	 1.594451192094151e+000	 3.242527171628312e+000	 5.653793031096726e+000
1	 1.559535709610642e+000	 3.259463972439443e+000	 5.646177406300001e+000
1	 1.524504914401909e+000	 3.275994759273966e+000	 5.612837288332077e+000
1	 1.489365653626424e+000	 3.292118869713937e+000	 5.554119847937408e+000
1	 1.454124761145102e+000	 3.307835790094915e+000	 5.470387246802222e+000
1	 1.418789053630321e+000	 3.323145154386642e+000	 5.362015479233595e+000
1	 1.780100471988717e+000	 3.175048183409870e+000	 5.190192137649263e+000
1	 1.745611770539141e+000	 3.194139719715779e+000	 5.314784177913221e+000
1	 1.710972356823719e+000	 3.212827860651387e+000	 5.411905469573654e+000
1	 1.676189134885112e+000	 3.231111177062963e+000	 5.481843564741070e+000
1	 1.641269015732623e+000	 3.248988393419791e+000	 5.524904927409137e+000
1	 1.606218913182716e+000	 3.266458387317336e+000	 5.541413746965832e+000
1	 1.571045739738453e+000	 3.283520188849218e+000	 5.531710747660100e+000
1	 1.535756402512512e+000	 3.300172979850403e+000	 5.496151996603627e+000
1	 1.500357799198284e+000	 3.316416093014017e+000	 5.435107712839015e+000
1	 1.464856814093468e+000	 3.332249010884569e+000	 5.348961079949603e+000
1	 1.429260314180360e+000	 3.347671364730342e+000	 5.238107064625288e+000
1	 1.793142110144684e+000	 3.198309695998757e+000	 5.079034909493303e+000
1	 1.758400732415532e+000	 3.217541103571807e+000	 5.202749528386852e+000
1	 1.723507538249754e+000	 3.236366160359109e+000	 5.298782656398032e+000
1	 1.688469482271451e+000	 3.254783426736442e+000	 5.367415462387210e+000
1	 1.653293526122405e+000	 3.272791617828106e+000	 5.408946602413516e+000
1	 1.617986634272129e+000	 3.290389603006431e+000	 5.423691053183544e+000
1	 1.582555769867111e+000	 3.307576405259168e+000	 5.411978943816020e+000
1	 1.547007890623956e+000	 3.324351200427108e+000	 5.374154388424801e+000
1	 1.511349944770981e+000	 3.340713316314456e+000	 5.310574321969415e+000
1	 1.475588867042667e+000	 3.356662231674654e+000	 5.221607341763345e+000
1	 1.439731574731234e+000	 3.372197575074529e+000	 5.107632556963428e+000
1	 1.335018969240017e+000	 3.126935471652506e+000	 6.045988344788060e+000
1	 1.301681772541035e+000	 3.140959295332738e+000	 5.878498146689990e+000
1	 1.268268104136253e+000	 3.154599236856098e+000	 5.644579294588203e+000
1	 1.234784312705468e+000	 3.167855363653739e+000	 5.338768093731372e+000
1	 1.201236716620890e+000	 3.180727876869459e+000	 4.955731020520355e+000
1	 1.167631600601917e+000	 3.193217109782672e+000	 4.490271692181193e+000
1	 1.133975212443532e+000	 3.205323526137256e+000	 3.937337502552661e+000
1	 1.100273759821122e+000	 3.217047718379722e+000	 3.292025916788306e+000
1	 1.066533407174409e+000	 3.228390405810319e+000	 2.549590418737732e+000
1	 1.032760272672936e+000	 3.239352432650740e+000	 1.705446105730070e+000
1	 9.989604252654353e-001	 3.249934766032136e+000	 7.551749264349095e-001
1	 1.345490229789387e+000	 3.151461681992926e+000	 5.996269532133606e+000
1	 1.311891551807665e+000	 3.165595501946557e+000	 5.836197022907192e+000
1	 1.278215802312036e+000	 3.179342428752352e+000	 5.612396831210770e+000
1	 1.244469379778354e+000	 3.192702530370363e+000	 5.319444396805427e+000
1	 1.210658652137174e+000	 3.205676009522062e+000	 4.952053576363248e+000
1	 1.176789953402283e+000	 3.218263202100958e+000	 4.505083461155298e+000
1	 1.142869580373431e+000	 3.230464575488313e+000	 3.973544848118866e+000
1	 1.108903789416096e+000	 3.242280726777507e+000	 3.352606357675082e+000
1	 1.074898793320970e+000	 3.253712380910649e+000	 2.637600192650285e+000
1	 1.040860758245643e+000	 3.264760388731104e+000	 1.824027533628742e+000
1	 1.006795800740831e+000	 3.275425724955747e+000	 9.075635670311559e-001
1	 1.355961490338257e+000	 3.175987892333698e+000	 5.934995423769838e+000
1	 1.322101331073807e+000	 3.190231708560741e+000	 5.780966892610822e+000
1	 1.288163500487353e+000	 3.204085620648994e+000	 5.565857380321730e+000
1	 1.254154446850814e+000	 3.217549697087407e+000	 5.284322143262386e+000
1	 1.220080587653086e+000	 3.230624142175128e+000	 4.931161981566985e+000
1	 1.185948306202340e+000	 3.243309294419742e+000	 4.501329854551178e+000
1	 1.151763948303092e+000	 3.255605624839903e+000	 3.989937139656383e+000
1	 1.117533819010910e+000	 3.267513735175860e+000	 3.392259528912192e+000
1	 1.083264179467452e+000	 3.279034356011566e+000	 2.703742557890806e+000
1	 1.048961243818356e+000	 3.290168344812069e+000	 1.920006763110576e+000
1	 1.014631176216317e+000	 3.300916683879955e+000	 1.036852464818380e+000
1	 1.366432750886794e+000	 3.200514102674838e+000	 5.862858092859234e+000
1	 1.332311110339624e+000	 3.214867915175308e+000	 5.713572016504715e+000
1	 1.298111198662370e+000	 3.228828812546041e+000	 5.505783983246551e+000
1	 1.263839513923010e+000	 3.242396863804884e+000	 5.234268876573202e+000
1	 1.229502523168778e+000	 3.255572274828652e+000	 4.893953151664856e+000
1	 1.195106659002230e+000	 3.268355386739016e+000	 4.479921198793793e+000
1	 1.160658316232649e+000	 3.280746674192009e+000	 3.987421343275876e+000
1	 1.126163848605685e+000	 3.292746743574746e+000	 3.411871476604691e+000
1	 1.091629565613965e+000	 3.304356331113032e+000	 2.748864314394222e+000
1	 1.057061729391170e+000	 3.315576300893579e+000	 1.994172277740637e+000
1	 1.022466551691976e+000	 3.326407642804695e+000	 1.143751995584532e+000
1	 1.376904011435166e+000	 3.225040313016362e+000	 5.780528559888726e+000
1	 1.342520889605282e+000	 3.239504121790274e+000	 5.634753406692036e+000
1	 1.308058896837248e+000	 3.253572004443512e+000	 5.432974644619733e+000
1	 1.273524580995097e+000	 3.267244030522805e+000	 5.170125749774591e+000
1	 1.238924458684402e+000	 3.280520407482642e+000	 4.841296718265923e+000
1	 1.204265011802099e+000	 3.293401479058773e+000	 4.441740128428238e+000
1	 1.169552684162234e+000	 3.305887723544610e+000	 3.966876835427894e+000
1	 1.134793878200545e+000	 3.317979751974136e+000	 3.412301293578317e+000
1	 1.099994951760620e+000	 3.329678306214997e+000	 2.773786502673941e+000
1	 1.065162214964184e+000	 3.340984256975577e+000	 2.047288575630442e+000
1	 1.030301927167889e+000	 3.351898601729899e+000	 1.228950925681178e+000
1	 1.387375271983538e+000	 3.249566523358289e+000	 5.688657587148630e+000
1	 1.352730668870948e+000	 3.264140328405664e+000	 5.545229704023094e+000
1	 1.318006595012151e+000	 3.278315196341421e+000	 5.348203277210917e+000
1	 1.283209648067234e+000	 3.292091197241182e+000	 5.092708521382601e+000
1	 1.248346394200107e+000	 3.305468540137102e+000	 4.774036058686643e+000
1	 1.213423364602087e+000	 3.318447571379005e+000	 4.387642631146666e+000
1	 1.178447052091982e+000	 3.331028772897689e+000	 3.929156444072447e+000
1	 1.143423907795611e+000	 3.343212760373996e+000	 3.394382136533669e+000
1	 1.108360337907525e+000	 3.355000281317417e+000	 2.779305375922454e+000
1	 1.073262700537492e+000	 3.366392213058007e+000	 2.080097074593142e+000
1	 1.038137302644139e+000	 3.377389560655499e+000	 1.293117227513386e+000
1	 1.397846532532076e+000	 3.274092733700633e+000	 5.587876437502618e+000
1	 1.362940448136786e+000	 3.288776535021494e+000	 5.445698016010065e+000
1	 1.327954293187240e+000	 3.303058388239788e+000	 5.252220604285129e+000
1	 1.292894715139578e+000	 3.316938363960027e+000	 5.002808506543599e+000
1	 1.257768329716046e+000	 3.330416672792031e+000	 4.692989279304772e+000
1	 1.222581717402339e+000	 3.343493663699706e+000	 4.318459045845612e+000
1	 1.187341420022025e+000	 3.356169822251225e+000	 3.875087443052031e+000
1	 1.152053937391006e+000	 3.368445768774295e+000	 3.358922197482914e+000
1	 1.116725724054792e+000	 3.380322256420250e+000	 2.766193328419872e+000
1	 1.081363186111192e+000	 3.391800169140812e+000	 2.093316976615642e+000
1	 1.045972678120808e+000	 3.402880519581427e+000	 1.336898858376560e+000
1	 1.408317793080948e+000	 3.298618944043410e+000	 5.478797599307827e+000
1	 1.373150227402963e+000	 3.313412741637784e+000	 5.336834717360667e+000
1	 1.337901991362677e+000	 3.327801580138630e+000	 5.145755021706824e+000
1	 1.302579782212287e+000	 3.341785530679350e+000	 4.901193485752907e+000
1	 1.267190265232370e+000	 3.355364805447437e+000	 4.598950155044047e+000
1	 1.231740070202997e+000	 3.368539756020867e+000	 4.234995016157946e+000
1	 1.196235787952497e+000	 3.381310871605200e+000	 3.805472502103885e+000
1	 1.160683966986851e+000	 3.393678777174999e+000	 3.306705631849414e+000
1	 1.125091110202531e+000	 3.405644231523447e+000	 2.735199782524425e+000
1	 1.089463671685381e+000	 3.417208125223934e+000	 2.087646093764933e+000
1	 1.053808053597977e+000	 3.428371478507618e+000	 1.360924504547839e+000
1	 1.418789053630321e+000	 3.323145154386642e+000	 5.362015479233594e+000
1	 1.383360006669641e+000	 3.338048948254552e+000	 5.219296215062359e+000
1	 1.347849689538626e+000	 3.352544772037962e+000	 5.029513421868256e+000
1	 1.312264849285518e+000	 3.366632697399165e+000	 4.788608573332946e+000
1	 1.276612200749229e+000	 3.380312938103318e+000	 4.492689027256139e+000
1	 1.240898423004205e+000	 3.393585848342482e+000	 4.138032401760242e+000
1	 1.205130155883532e+000	 3.406451920959592e+000	 3.721090594803465e+000
1	 1.169313996583271e+000	 3.418911785576080e+000	 3.238493445468380e+000
1	 1.133456496350851e+000	 3.430966206626968e+000	 2.687052036384965e+000
1	 1.097564157260154e+000	 3.442616081307317e+000	 2.063761637521313e+000
1	 1.061643429075730e+000	 3.453862437434002e+000	 1.365804292427514e+000
1	 1.429260314180360e+000	 3.347671364730342e+000	 5.238107064625289e+000
1	 1.393569785936990e+000	 3.362685154871817e+000	 5.093719679834598e+000
1	 1.357797387715248e+000	 3.377287963937802e+000	 4.904181981398935e+000
1	 1.321949916359430e+000	 3.391479864119481e+000	 4.665777047734712e+000
1	 1.286034136266774e+000	 3.405261070759681e+000	 4.374953662133271e+000
1	 1.250056775806105e+000	 3.418631940664544e+000	 4.028330149620741e+000
1	 1.214024523815263e+000	 3.431592970314386e+000	 3.622697866596243e+000
1	 1.177944026180386e+000	 3.444144793977503e+000	 3.155024342597044e+000
1	 1.141821882499863e+000	 3.456288181730765e+000	 2.622456074389457e+000
1	 1.105664642835610e+000	 3.468024037390906e+000	 2.022320973413978e+000
1	 1.069478804554147e+000	 3.479353396360511e+000	 1.352130468419629e+000
1	 1.439731574731234e+000	 3.372197575074529e+000	 5.107632556963430e+000
1	 1.403779565205173e+000	 3.387321361489601e+000	 4.960723745662128e+000
1	 1.367745085892707e+000	 3.402031155838170e+000	 4.770426914501162e+000
1	 1.331634983434178e+000	 3.416327030840313e+000	 4.533401145606481e+000
1	 1.295456071785158e+000	 3.430209203416529e+000	 4.246470071661323e+000
1	 1.259215128608840e+000	 3.443678032987045e+000	 3.906625127227401e+000
1	 1.222918891747824e+000	 3.456734019669560e+000	 3.511028464950234e+000
1	 1.186574055778321e+000	 3.469377802379238e+000	 3.057015536918666e+000
1	 1.150187268649677e+000	 3.481610156834796e+000	 2.542097342246827e+000
1	 1.113765128411844e+000	 3.493431993474642e+000	 1.963962342725568e+000
1	 1.077314180033310e+000	 3.504844355287081e+000	 1.320478049144120e+000
1	 9.989604252654353e-001	 3.249934766032136e+000	 7.551749264349095e-001
1	 9.651398813324285e-001	 3.260138493095665e+000	-3.027544559676967e-001
1	 9.313046005101890e-001	 3.269964816403907e+000	-1.467144073494342e+000
1	 8.974604845374922e-001	 3.279415054160483e+000	-2.738060095839004e+000
1	 8.636133751544901e-001	 3.288490638736054e+000	-4.115396873504998e+000
1	 8.297690515990598e-001	 3.297193114320969e+000	-5.598878736851520e+000
1	 7.959332281968503e-001	 3.305524134521356e+000	-7.188062029304069e+000
1	 7.621115520460930e-001	 3.313485459902494e+000	-8.882337366107539e+000
1	 7.283096007980544e-001	 3.321078955483442e+000	-1.068093210968833e+001
1	 6.945328805338581e-001	 3.328306588186819e+000	-1.258291305241582e+001
1	 6.607868237382244e-001	 3.335170424247629e+000	-1.458718929730772e+001
1	 1.006795800740831e+000	 3.275425724955747e+000	 9.075635670311559e-001
1	 9.727099843767157e-001	 3.285709485252757e+000	-1.128276830669224e-001
1	 9.386093155341527e-001	 3.295612881617041e+000	-1.235124920375699e+000
1	 9.044997422423741e-001	 3.305137242591581e+000	-2.458807577608695e+000
1	 8.703871520613907e-001	 3.314284011781862e+000	-3.783188894906712e+000
1	 8.362773695586976e-001	 3.323054745490131e+000	-5.207418584691569e+000
1	 8.021761538804231e-001	 3.331451110292613e+000	-6.730485702757346e+000
1	 7.680891964179754e-001	 3.339474880563620e+000	-8.351221715969157e+000
1	 7.340221185710903e-001	 3.347127935950536e+000	-1.006830375672043e+001
1	 6.999804696079973e-001	 3.354412258803584e+000	-1.188025805411666e+001
1	 6.659697246232672e-001	 3.361329931564333e+000	-1.378546353170200e+001
1	 1.014631176216317e+000	 3.300916683879955e+000	 1.036852464818380e+000
1	 9.802800874211785e-001	 3.311280477410428e+000	 5.370423508832900e-002
1	 9.459140305583738e-001	 3.321260946830719e+000	-1.026702932772801e+000
1	 9.115389999475945e-001	 3.330859431023176e+000	-2.203343062654086e+000
1	 8.771609289687062e-001	 3.340077384828113e+000	-3.475029438048042e+000
1	 8.427856875188240e-001	 3.348916376659676e+000	-4.840418009762107e+000
1	 8.084190795645526e-001	 3.357378086064187e+000	-6.298010984988646e+000
1	 7.740668407904781e-001	 3.365464301225002e+000	-7.846160587254415e+000
1	 7.397346363448031e-001	 3.373176916417825e+000	-9.483072976634444e+000
1	 7.054280586828639e-001	 3.380517929420491e+000	-1.120681231951417e+001
1	 6.711526255090805e-001	 3.387489438881134e+000	-1.301530499711305e+001
1	 1.022466551691976e+000	 3.326407642804695e+000	 1.143751995584532e+000
1	 9.878501904658824e-001	 3.336851469568601e+000	 1.974558739782699e-001
1	 9.532187455829027e-001	 3.346909012044858e+000	-8.413732202117856e-001
1	 9.185782576531859e-001	 3.356581619455178e+000	-1.971283374139006e+000
1	 8.839347058764540e-001	 3.365870757874714e+000	-3.190667218294346e+000
1	 8.492940054794389e-001	 3.374778007829510e+000	-4.497765955770873e+000
1	 8.146620052492231e-001	 3.383305061835989e+000	-5.890673551013639e+000
1	 7.800444851635694e-001	 3.391453721886551e+000	-7.367341066886425e+000
1	 7.454471541191485e-001	 3.399225896885227e+000	-8.925581138821681e+000
1	 7.108756477584011e-001	 3.406623600037463e+000	-1.056307257478933e+001
1	 6.763355263955970e-001	 3.413648946197964e+000	-1.227736506981927e+001
1	 1.030301927167889e+000	 3.351898601729899e+000	 1.228950925681178e+000
1	 9.954202935108943e-001	 3.362422461727201e+000	 3.190231138660229e-001
1	 9.605234606077902e-001	 3.372557077259375e+000	-6.786462508481703e-001
1	 9.256175153591825e-001	 3.382303807887502e+000	-1.762256991361205e+000
1	 8.907084827846501e-001	 3.391664130921575e+000	-2.929858595020399e+000
1	 8.558023234405426e-001	 3.400639638999539e+000	-4.179354744727410e+000
1	 8.209049309344197e-001	 3.409232037607928e+000	-5.508507990623789e+000
1	 7.860221295372198e-001	 3.417443142548178e+000	-6.914944550655566e+000
1	 7.511596718940822e-001	 3.425274877352659e+000	-8.396159228310607e+000
1	 7.163232368345518e-001	 3.432729270654425e+000	-9.949520435849774e+000
1	 6.815184272827487e-001	 3.439808453514761e+000	-1.157227531141228e+001
1	 1.038137302644139e+000	 3.377389560655499e+000	 1.293117227513386e+000
1	 1.002990396556281e+000	 3.387993453886148e+000	 4.189838453113701e-001
1	 9.678281756330860e-001	 3.398205142474185e+000	-5.380472718679581e-001
1	 9.326567730656182e-001	 3.408025996320059e+000	-1.575903609876939e+000
1	 8.974822596933122e-001	 3.417457503968606e+000	-2.692367283143284e+000
1	 8.623106414021362e-001	 3.426501270169675e+000	-3.885079949453831e+000
1	 8.271478566201265e-001	 3.435159013379910e+000	-5.151547849340146e+000
1	 7.919997739113986e-001	 3.443432563209798e+000	-6.489146957989742e+000
1	 7.568721896695594e-001	 3.451323857820039e+000	-7.895128237648680e+000
1	 7.217708259112595e-001	 3.458834941271304e+000	-9.366622978556162e+000
1	 6.867013281704679e-001	 3.465967960831456e+000	-1.090064821655709e+001
1	 1.045972678120808e+000	 3.402880519581427e+000	 1.336898858376560e+000
1	 1.010560499602108e+000	 3.413564446045371e+000	 4.978986429748789e-001
1	 9.751328906588404e-001	 3.423853207689207e+000	-4.191157559393579e-001
1	 9.396960307725261e-001	 3.433748184752760e+000	-1.411873721396401e+000
1	 9.042560366024574e-001	 3.443250877015715e+000	-2.477964077620681e+000
1	 8.688189593642196e-001	 3.452362901339824e+000	-3.614840271825734e+000
1	 8.333907823063280e-001	 3.461085989151849e+000	-4.819825667526677e+000
1	 7.979774182860755e-001	 3.469421983871322e+000	-6.090118937071242e+000
1	 7.625847074455362e-001	 3.477372838287283e+000	-7.422799541170368e+000
1	 7.272184149884671e-001	 3.484940611888025e+000	-8.814833283319446e+000
1	 6.918842290586874e-001	 3.492127468147986e+000	-1.026307792714361e+001
1	 1.053808053597977e+000	 3.428371478507618e+000	 1.360924504547839e+000
1	 1.018130602648443e+000	 3.439135438204789e+000	 5.563114093621326e-001
1	 9.824376056851037e-001	 3.449501272904357e+000	-3.214048723592589e-001
1	 9.467352884799400e-001	 3.459470373185520e+000	-1.269828212420566e+000
1	 9.110298135121014e-001	 3.469044250062811e+000	-2.286426590239826e+000
1	 8.753272773267937e-001	 3.478224532509898e+000	-3.368537426444900e+000
1	 8.396337079930092e-001	 3.487012964923653e+000	-4.513373017758229e+000
1	 8.039550626612197e-001	 3.495411404532665e+000	-5.718026060803263e+000
1	 7.682972252219681e-001	 3.503421818754312e+000	-6.979475252568490e+000
1	 7.326660040661178e-001	 3.511046282504512e+000	-8.294590955402297e+000
1	 6.970671299473389e-001	 3.518286975464283e+000	-9.660140914577998e+000
1	 1.061643429075730e+000	 3.453862437434002e+000	 1.365804292427514e+000
1	 1.025700705695351e+000	 3.464706430364329e+000	 5.947499900615014e-001
1	 9.897423207119260e-001	 3.475149338119550e+000	-2.444809816188789e-001
1	 9.537745461878935e-001	 3.485192561618247e+000	-1.149437980651385e+000
1	 9.178035904222623e-001	 3.494837623109804e+000	-2.117538998062191e+000
1	 8.818355952898583e-001	 3.504086163679800e+000	-3.146076029463354e+000
1	 8.458766336801542e-001	 3.512939940695230e+000	-4.232220540534140e+000
1	 8.099327070368005e-001	 3.521400825193738e+000	-5.373029014098347e+000
1	 7.740097429988104e-001	 3.529470799221044e+000	-6.565448566631483e+000
1	 7.381135931441546e-001	 3.537151953120690e+000	-7.806322622180756e+000
1	 7.022500308363556e-001	 3.544446482780284e+000	-9.092396631861039e+000
1	 1.069478804554147e+000	 3.479353396360511e+000	 1.352130468419629e+000
1	 1.033270808742900e+000	 3.490277422523913e+000	 6.137267619370803e-001
1	 9.970470357393576e-001	 3.500797403334707e+000	-1.879231521868912e-001
1	 9.608138038964201e-001	 3.510914750050857e+000	-1.050383568264065e+000
1	 9.245773673329565e-001	 3.520630996156604e+000	-1.971091802925805e+000
1	 8.883439132534150e-001	 3.529947794849444e+000	-2.947363492294659e+000
1	 8.521195593677482e-001	 3.538866916466492e+000	-3.976397978421785e+000
1	 8.159103514127881e-001	 3.547390245854454e+000	-5.055283772934104e+000
1	 7.797222607760189e-001	 3.555519779687395e+000	-6.181004085958606e+000
1	 7.435611822225210e-001	 3.563257623736486e+000	-7.350442408546817e+000
1	 7.074329317256694e-001	 3.570605990095922e+000	-8.560388137001947e+000
1	 1.077314180033310e+000	 3.504844355287081e+000	 1.320478049144120e+000
1	 1.040840911791156e+000	 3.515848414683465e+000	 6.137391956540412e-001
1	 1.004351750767449e+000	 3.526445468549742e+000	-1.513226983799791e-001
1	 9.678530616055535e-001	 3.536636938483259e+000	-9.723548111825435e-001
1	 9.313511442442012e-001	 3.546424369203119e+000	-1.846881601442857e+000
1	 8.948522312174633e-001	 3.555809426018735e+000	-2.772309919962987e+000
1	 8.583624850557755e-001	 3.564793892237349e+000	-3.745934208710118e+000
1	 8.218879957891516e-001	 3.573379666514728e+000	-4.764941775595029e+000
1	 7.854347785535496e-001	 3.581568760153285e+000	-5.826418133417418e+000
1	 7.490087713011601e-001	 3.589363294351825e+000	-6.927352391565252e+000
1	 7.126158326152124e-001	 3.596765497411133e+000	-8.064642689227709e+000
1	 6.607868237382244e-001	 3.335170424247629e+000	-1.458718929730772e+001
1	 6.270818393662588e-001	 3.341671678785408e+000	-1.672767552685172e+001
1	 5.934181341637269e-001	 3.347813666836248e+000	-1.904078597818894e+001
1	 5.598008987902480e-001	 3.353598738394851e+000	-2.152796212284649e+001
1	 5.262352434010424e-001	 3.359029331970650e+000	-2.419040992533775e+001
1	 4.927261961099995e-001	 3.364107971852335e+000	-2.702909881958366e+001
1	 4.592787015493526e-001	 3.368837265353978e+000	-3.004476109821945e+001
1	 4.258976195254701e-001	 3.373219900046345e+000	-3.323789170627832e+001
1	 3.925877237701100e-001	 3.377258640976892e+000	-3.660874843004356e+001
1	 3.593537007863792e-001	 3.380956327881860e+000	-4.015735247120639e+001
1	 3.262001487885013e-001	 3.384315872393811e+000	-4.388348939586275e+001
1	 6.659697246232672e-001	 3.361329931564333e+000	-1.378546353170200e+001
1	 6.320003742149506e-001	 3.367882178883140e+000	-1.581692760953570e+001
1	 5.980726267504363e-001	 3.374072341797701e+000	-1.800926470107510e+001
1	 5.641917136024439e-001	 3.379902788734986e+000	-2.036210804312453e+001
1	 5.303627850078568e-001	 3.385375977330978e+000	-2.287486545403014e+001
1	 4.965909085187313e-001	 3.390494451673716e+000	-2.554672103162973e+001
1	 4.628810675506787e-001	 3.395260839527842e+000	-2.837663717818609e+001
1	 4.292381600281096e-001	 3.399677849544181e+000	-3.136335694107853e+001
1	 3.956669971256964e-001	 3.403748268457943e+000	-3.450540665760828e+001
1	 3.621723021052792e-001	 3.407474958278942e+000	-3.780109889190382e+001
1	 3.287587092473186e-001	 3.410860853477239e+000	-4.124853565158371e+001
1	 6.711526255090805e-001	 3.387489438881134e+000	-1.301530499711305e+001
1	 6.369189090644476e-001	 3.394092678980937e+000	-1.494052405593532e+001
1	 6.027271193379761e-001	 3.400331016759192e+000	-1.701519276929108e+001
1	 5.685825284154842e-001	 3.406206839075148e+000	-1.923726542558205e+001
1	 5.344903266155154e-001	 3.411722622691324e+000	-2.160448065467366e+001
1	 5.004556209282921e-001	 3.416880931495113e+000	-2.411436567040144e+001
1	 4.664834335528012e-001	 3.421684413701721e+000	-2.676424075906794e+001
1	 4.325787005314946e-001	 3.426135799042036e+000	-2.955122400017496e+001
1	 3.987462704819571e-001	 3.430237895939013e+000	-3.247223620548505e+001
1	 3.649909034247608e-001	 3.433993588676044e+000	-3.552400606239964e+001
1	 3.313172697066006e-001	 3.437405834560681e+000	-3.870307546757471e+001
1	 6.763355263955970e-001	 3.413648946197964e+000	-1.227736506981927e+001
1	 6.418374439146738e-001	 3.420303179078740e+000	-1.409928563886496e+001
1	 6.073816119262636e-001	 3.426589691720684e+000	-1.605958973983645e+001
1	 5.729733432292817e-001	 3.432510889415306e+000	-1.815467894738410e+001
1	 5.386178682239295e-001	 3.438069268051670e+000	-2.038074861658047e+001
1	 5.043203333385952e-001	 3.443267411316521e+000	-2.273379449564163e+001
1	 4.700857995556393e-001	 3.448107987875623e+000	-2.520961950848496e+001
1	 4.359192410355531e-001	 3.452593748539921e+000	-2.780384069102344e+001
1	 4.018255438388325e-001	 3.456727523420121e+000	-3.051189626519884e+001
1	 3.678095047447799e-001	 3.460512219073185e+000	-3.332905283489465e+001
1	 3.338758301663242e-001	 3.463950815644158e+000	-3.625041268805110e+001
1	 6.815184272827487e-001	 3.439808453514761e+000	-1.157227531141228e+001
1	 6.467559787655528e-001	 3.446513679176499e+000	-1.329400816345646e+001
1	 6.120361045152160e-001	 3.452848366682128e+000	-1.514344415506812e+001
1	 5.773641580437493e-001	 3.458814939755432e+000	-1.711555542295966e+001
1	 5.427454098330120e-001	 3.464415913412003e+000	-1.920511700969723e+001
1	 5.081850457495547e-001	 3.469653891137934e+000	-2.140671567484687e+001
1	 4.736881655591116e-001	 3.474531562049550e+000	-2.371475880457178e+001
1	 4.392597815402124e-001	 3.479051698037851e+000	-2.612348340142306e+001
1	 4.049048171962623e-001	 3.483217150901286e+000	-2.862696513639921e+001
1	 3.706281060652929e-001	 3.487030849470385e+000	-3.121912744572360e+001
1	 3.364343906264664e-001	 3.490495796727684e+000	-3.389375065519300e+001
1	 6.867013281704679e-001	 3.465967960831456e+000	-1.090064821655709e+001
1	 6.516745136170081e-001	 3.472724179274158e+000	-1.252546340938130e+001
1	 6.166905971047501e-001	 3.479107041643489e+000	-1.426771471312078e+001
1	 5.817549728588004e-001	 3.485118990095495e+000	-1.612106523285296e+001
1	 5.468729514426739e-001	 3.490762558772303e+000	-1.807898979862649e+001
1	 5.120497581610842e-001	 3.496040370959349e+000	-2.013478580571425e+001
1	 4.772905315631372e-001	 3.500955136223509e+000	-2.228158408663781e+001
1	 4.426003220453997e-001	 3.505509647535838e+000	-2.451235979472691e+001
1	 4.079840905541861e-001	 3.509706778382524e+000	-2.681994327953100e+001
1	 3.734467073862562e-001	 3.513549479867665e+000	-2.919703093498596e+001
1	 3.389929510870036e-001	 3.517040777811276e+000	-3.163619600185731e+001
1	 6.918842290586874e-001	 3.492127468147986e+000	-1.026307792714361e+001
1	 6.565930484689633e-001	 3.498934679371662e+000	-1.179440003072364e+001
1	 6.213450896947831e-001	 3.505365716604719e+000	-1.343333138572129e+001
1	 5.861457876743477e-001	 3.511423040435467e+000	-1.517234368835375e+001
1	 5.510004930528274e-001	 3.517109204132556e+000	-1.700372887960860e+001
1	 5.159144705730977e-001	 3.522426850780759e+000	-1.891961184768633e+001
1	 4.808928975676346e-001	 3.527378710397507e+000	-2.091196310017352e+001
1	 4.459408625510428e-001	 3.531967597033897e+000	-2.297261138391416e+001
1	 4.110633639125439e-001	 3.536196405863857e+000	-2.509325623129885e+001
1	 3.762653087076259e-001	 3.540068110265041e+000	-2.726548041247852e+001
1	 3.415515115479128e-001	 3.543585758894952e+000	-2.948076227382238e+001
1	 6.970671299473389e-001	 3.518286975464283e+000	-9.660140914577996e+000
1	 6.615115833213420e-001	 3.525145179468955e+000	-1.110154441570824e+001
1	 6.259995822852327e-001	 3.531624391565782e+000	-1.264119648613560e+001
1	 5.905366024903049e-001	 3.537727090775319e+000	-1.427049233524865e+001
1	 5.551280346633847e-001	 3.543455849492743e+000	-1.598065564447583e+001
1	 5.197791829855083e-001	 3.548813330602161e+000	-1.776275296732702e+001
1	 4.844952635725229e-001	 3.553802284571548e+000	-1.960770804170423e+001
1	 4.492814030570689e-001	 3.558425546532039e+000	-2.150631599082823e+001
1	 4.141426372712758e-001	 3.562686033345299e+000	-2.344925739006841e+001
1	 3.790839100293581e-001	 3.566586740662535e+000	-2.542711217792842e+001
1	 3.441100720091707e-001	 3.570130739978726e+000	-2.743037339043805e+001
1	 7.022500308363556e-001	 3.544446482780284e+000	-9.092396631861035e+000
1	 6.664301181740677e-001	 3.551355679565986e+000	-1.044760150835782e+001
1	 6.306540748760150e-001	 3.557883066526630e+000	-1.189218568982436e+001
1	 5.949274173065848e-001	 3.564031141115022e+000	-1.341658019983961e+001
1	 5.592555762742574e-001	 3.569802494852850e+000	-1.501105247535007e+001
1	 5.236438953982304e-001	 3.575199810423550e+000	-1.666572230197929e+001
1	 4.880976295777210e-001	 3.580225858745636e+000	-1.837057760866327e+001
1	 4.526219435634056e-001	 3.584883496030281e+000	-2.011549009651375e+001
1	 4.172219106303214e-001	 3.589175660826872e+000	-2.189023067792298e+001
1	 3.819025113514091e-001	 3.593105371060167e+000	-2.368448470305489e+001
1	 3.466686324707544e-001	 3.596675721062617e+000	-2.548786695202952e+001
1	 7.074329317256694e-001	 3.570605990095922e+000	-8.560388137001947e+000
1	 6.713486530270640e-001	 3.577566179662699e+000	-9.833255594031597e+000
1	 6.353085674670476e-001	 3.584141741487224e+000	-1.118714901023205e+001
1	 5.993182321231005e-001	 3.590335191454546e+000	-1.261164498018922e+001
1	 5.633831178853574e-001	 3.596149140212859e+000	-1.409616417363678e+001
1	 5.275086078111774e-001	 3.601586290244922e+000	-1.562998864589607e+001
1	 4.916999955831475e-001	 3.606649432919779e+000	-1.720227895915759e+001
1	 4.559624840699805e-001	 3.611341445528634e+000	-1.880209108823679e+001
1	 4.203011839896205e-001	 3.615665288308593e+000	-2.041839308570051e+001
1	 3.847211126737353e-001	 3.619624001457956e+000	-2.204008148254471e+001
1	 3.492271929326405e-001	 3.623220702146640e+000	-2.365599740191374e+001
1	 7.126158326152124e-001	 3.596765497411133e+000	-8.064642689227707e+000
1	 6.762671878802552e-001	 3.603776679759038e+000	-9.259171050684252e+000
1	 6.399630600582480e-001	 3.610400416447522e+000	-1.052691173199472e+001
1	 6.037090469397654e-001	 3.616639241793862e+000	-1.185669418538247e+001
1	 5.675106594965970e-001	 3.622495785572755e+000	-1.323719932665989e+001
1	 5.313733202242633e-001	 3.627972770066270e+000	-1.465697806279066e+001
1	 4.953023615887215e-001	 3.633073007093982e+000	-1.610446958621147e+001
1	 4.593030245767208e-001	 3.637799395027111e+000	-1.756801940844935e+001
1	 4.233804573491130e-001	 3.642154915790480e+000	-1.903589710697035e+001
1	 3.875397139962927e-001	 3.646142631855923e+000	-2.049631376061637e+001
1	 3.517857533948060e-001	 3.649765683230813e+000	-2.193743905043072e+001
1	 3.262001487885013e-001	 3.384315872393811e+000	-4.388348939586275e+001
1	 2.931266340559613e-001	 3.387340684071737e+000	-4.780105353945344e+001
1	 2.601426139203095e-001	 3.390033282652842e+000	-5.192823428269752e+001
1	 2.272524846770256e-001	 3.392396780883214e+000	-5.627261007749586e+001
1	 1.944605489001446e-001	 3.394434352328458e+000	-6.084149734353365e+001
1	 1.617710148445838e-001	 3.396149228576582e+000	-6.564194105861213e+001
1	 1.291879959367679e-001	 3.397544696455681e+000	-7.068070604839514e+001
1	 9.671551035186263e-002	 3.398624095269111e+000	-7.596426897085327e+001
1	 6.435748067584801e-002	 3.399390814050797e+000	-8.149881098930256e+001
1	 3.211773365058992e-002	 3.399848288843146e+000	-8.729021112662136e+001
1	 0.000000000000000e+000	 3.400000000000000e+000	-9.334404029198245e+001
1	 3.287587092473186e-001	 3.410860853477239e+000	-4.124853565158371e+001
1	 2.954257814294042e-001	 3.413909390354809e+000	-4.486109983517281e+001
1	 2.621830501619328e-001	 3.416623108412469e+000	-4.865654238374137e+001
1	 2.290349462228413e-001	 3.419005144811187e+000	-5.264078061804042e+001
1	 1.959858059335157e-001	 3.421058698008488e+000	-5.681950365505306e+001
1	 1.630398705564293e-001	 3.422787024939412e+000	-6.119816471804461e+001
1	 1.302012857817732e-001	 3.424193438212349e+000	-6.578197404667131e+001
1	 9.747410130137338e-002	 3.425281303322550e+000	-7.057589240250887e+001
1	 6.486227046811413e-002	 3.426054035885894e+000	-7.558462516418965e+001
1	 3.236965003900954e-002	 3.426515098895459e+000	-8.081261700522528e+001
1	 0.000000000000000e+000	 3.426668000003317e+000	-8.626404714653916e+001
1	 3.313172697066006e-001	 3.437405834560681e+000	-3.870307546757471e+001
1	 2.977249288031724e-001	 3.440478096637889e+000	-4.202241522191803e+001
1	 2.642234864037296e-001	 3.443212934172093e+000	-4.549936951367526e+001
1	 2.308174077686790e-001	 3.445613508739141e+000	-4.913821840174383e+001
1	 1.975110629667702e-001	 3.447683043688490e+000	-5.294304494619705e+001
1	 1.643087262680449e-001	 3.449424821302194e+000	-5.691772929014088e+001
1	 1.312145756264724e-001	 3.450842179968952e+000	-6.106594324429072e+001
1	 9.823269225055142e-002	 3.451938511375908e+000	-6.539114536955250e+001
1	 6.536706026008206e-002	 3.452717257720900e+000	-6.989657655193183e+001
1	 3.262156642723804e-002	 3.453181908947675e+000	-7.458525606318685e+001
1	 0.000000000000000e+000	 3.453336000006534e+000	-7.945997809978543e+001
1	 3.338758301663242e-001	 3.463950815644158e+000	-3.625041268805110e+001
1	 3.000240761772671e-001	 3.467046802920988e+000	-3.928860707769526e+001
1	 2.662639226457272e-001	 3.469802759931711e+000	-4.246057981660179e+001
1	 2.325998693145919e-001	 3.472221872667063e+000	-4.576899703868426e+001
1	 1.990363199999835e-001	 3.474307389368425e+000	-4.921635649702613e+001
1	 1.655775819795223e-001	 3.476062617664880e+000	-5.280498346929252e+001
1	 1.322278654709655e-001	 3.477490921725428e+000	-5.653702707051310e+001
1	 9.899128319949395e-002	 3.478595719429112e+000	-6.041445696828075e+001
1	 6.587185005183281e-002	 3.479380479555727e+000	-6.443906049467250e+001
1	 3.287348281532490e-002	 3.479848718999696e+000	-6.861244014849500e+001
1	 0.000000000000000e+000	 3.480004000009550e+000	-7.293601148080062e+001
1	 3.364343906264664e-001	 3.490495796727684e+000	-3.389375065519300e+001
1	 3.023232235516898e-001	 3.493615509204113e+000	-3.666317304505954e+001
1	 2.683043588879539e-001	 3.496392585691322e+000	-3.954391989041711e+001
1	 2.343823308606334e-001	 3.498830236594935e+000	-4.253706622083519e+001
1	 2.005615770332314e-001	 3.500931735048263e+000	-4.564354475153790e+001
1	 1.668464376909535e-001	 3.502700414027417e+000	-4.886414366379503e+001
1	 1.332411553153525e-001	 3.504139663481709e+000	-5.219950469928631e+001
1	 9.974987414829804e-002	 3.505252927482079e+000	-5.565012156309376e+001
1	 6.637663984344758e-002	 3.506043701390285e+000	-5.921633862945497e+001
1	 3.312539920331965e-002	 3.506515529051426e+000	-6.289834994391440e+001
1	 0.000000000000000e+000	 3.506672000012267e+000	-6.669619851505625e+001
1	 3.389929510870036e-001	 3.517040777811276e+000	-3.163619600185731e+001
1	 3.046223709264421e-001	 3.520184215487275e+000	-3.414950517227418e+001
1	 2.703447951304372e-001	 3.522982411450922e+000	-3.675302322272944e+001
1	 2.361647924068568e-001	 3.525438600522739e+000	-3.944625639844416e+001
1	 2.020868340665892e-001	 3.527556080727968e+000	-4.222859217963999e+001
1	 1.681152934024304e-001	 3.529338210389758e+000	-4.509929898801714e+001
1	 1.342544451597333e-001	 3.530788405237732e+000	-4.805752611572855e+001
1	 1.005084650970608e-001	 3.531910135534731e+000	-5.110230387096258e+001
1	 6.688142963500743e-002	 3.532706923224484e+000	-5.423254393394058e+001
1	 3.337731559127178e-002	 3.533182339102767e+000	-5.744703991685358e+001
1	 0.000000000000000e+000	 3.533340000014583e+000	-6.074446812101089e+001
1	 3.415515115479128e-001	 3.543585758894952e+000	-2.948076227382238e+001
1	 3.069215183015248e-001	 3.546752921770477e+000	-3.175089386834195e+001
1	 2.723852313732049e-001	 3.549572237210508e+000	-3.409141442740236e+001
1	 2.379472539533155e-001	 3.552046964450460e+000	-3.650028324622875e+001
1	 2.036120911001327e-001	 3.554180426407511e+000	-3.897536192059542e+001
1	 1.693841491140451e-001	 3.555976006751856e+000	-4.151441603019123e+001
1	 1.352677350042077e-001	 3.557437146993432e+000	-4.411511695489348e+001
1	 1.012670560458795e-001	 3.558567343586992e+000	-4.677504381737103e+001
1	 6.738621942659344e-002	 3.559370145058234e+000	-4.949168554534343e+001
1	 3.362923197923080e-002	 3.559849149153621e+000	-5.226244304676034e+001
1	 0.000000000000000e+000	 3.560008000016400e+000	-5.508463149111588e+001
1	 3.441100720091707e-001	 3.570130739978726e+000	-2.743037339043804e+001
1	 3.092206656769397e-001	 3.573321628053737e+000	-2.947053168159491e+001
1	 2.744256676162847e-001	 3.576162062970079e+000	-3.156251329209734e+001
1	 2.397297155000628e-001	 3.578655328378078e+000	-3.370275193032723e+001
1	 2.051373481339373e-001	 3.580804772086860e+000	-3.588760221931732e+001
1	 1.706530048258894e-001	 3.582613803113661e+000	-3.811334340750467e+001
1	 1.362810248488758e-001	 3.584085888748746e+000	-4.037618312466850e+001
1	 1.020256469948511e-001	 3.585224551638781e+000	-4.267226117562512e+001
1	 6.789100921828675e-002	 3.586033366891444e+000	-4.499765336438369e+001
1	 3.388114836724623e-002	 3.586515959203891e+000	-4.734837534161615e+001
1	 0.000000000000000e+000	 3.586676000017616e+000	-4.972038646845476e+001
1	 3.466686324707544e-001	 3.596675721062617e+000	-2.548786695202952e+001
1	 3.115198130526881e-001	 3.599890334337057e+000	-2.731151691095941e+001
1	 2.764661038597043e-001	 3.602751888729631e+000	-2.916963864658119e+001
1	 2.415121770471519e-001	 3.605263692305579e+000	-3.105716118629788e+001
1	 2.066626051680787e-001	 3.607429117765979e+000	-3.296895066621208e+001
1	 1.719218605380552e-001	 3.609251599475122e+000	-3.489981611948043e+001
1	 1.372943146938375e-001	 3.610734630503607e+000	-3.684451522395987e+001
1	 1.027842379440727e-001	 3.611881759690019e+000	-3.879776000072173e+001
1	 6.839579901016848e-002	 3.612696588724027e+000	-4.075422245536544e+001
1	 3.413306475536757e-002	 3.613182769253480e+000	-4.270854015443045e+001
1	 0.000000000000000e+000	 3.613344000018133e+000	-4.465532172957389e+001
1	 3.492271929326405e-001	 3.623220702146640e+000	-2.365599740191374e+001
1	 3.138189604287714e-001	 3.626459040620449e+000	-2.527685705847635e+001
1	 2.785065401034917e-001	 3.629341714489163e+000	-2.691601206099059e+001
1	 2.432946385946362e-001	 3.631872056232944e+000	-2.856690721785741e+001
1	 2.081878622026324e-001	 3.634053463444836e+000	-3.022293825064806e+001
1	 1.731907162506346e-001	 3.635889395836193e+000	-3.187745970999112e+001
1	 1.383076045391927e-001	 3.637383372257950e+000	-3.352379276666316e+001
1	 1.035428288936416e-001	 3.638538967740630e+000	-3.515523286831346e+001
1	 6.890058880231974e-002	 3.639359810555891e+000	-3.676505725283644e+001
1	 3.438498114364431e-002	 3.639849579302291e+000	-3.834653230999023e+001
1	 0.000000000000000e+000	 3.640012000017849e+000	-3.989292078344383e+001
1	 3.517857533948060e-001	 3.649765683230813e+000	-2.193743905043071e+001
1	 3.161181078051911e-001	 3.653027746903922e+000	-2.336947213115890e+001
1	 2.805469763476744e-001	 3.655931540248671e+000	-2.480476138270955e+001
1	 2.450771001425693e-001	 3.658480420160160e+000	-2.623528742548452e+001
1	 2.097131192376740e-001	 3.660677809123401e+000	-2.765299323753677e+001
1	 1.744595719637193e-001	 3.662527192196825e+000	-2.904979424764924e+001
1	 1.393208943850413e-001	 3.664032114011715e+000	-3.041758822130563e+001
1	 1.043014198436549e-001	 3.665196175790535e+000	-3.174826492869148e+001
1	 6.940537859482161e-002	 3.666023032386947e+000	-3.303371558467481e+001
1	 3.463689753212598e-002	 3.666516389350227e+000	-3.426584205152328e+001
1	 0.000000000000000e+000	 3.666680000016666e+000	-3.543656579591163e+001
1	 3.666680000016666e+000	 0.000000000000000e+000	 3.899095014317748e+001
1	 3.666516389350228e+000	 3.463689753212493e-002	 3.661199468903268e+001
1	 3.666023032386948e+000	 6.940537859482067e-002	 3.426943651662083e+001
1	 3.665196175790535e+000	 1.043014198436540e-001	 3.196975734764547e+001
1	 3.664032114011716e+000	 1.393208943850406e-001	 2.971931444650481e+001
1	 3.662527192196825e+000	 1.744595719637187e-001	 2.752433024877945e+001
1	 3.660677809123401e+000	 2.097131192376734e-001	 2.539088190956507e+001
1	 3.658480420160159e+000	 2.450771001425689e-001	 2.332489078762628e+001
1	 3.655931540248671e+000	 2.805469763476741e-001	 2.133211188204914e+001
1	 3.653027746903921e+000	 3.161181078051908e-001	 1.941812323875208e+001
1	 3.649765683230814e+000	 3.517857533948059e-001	 1.758831534487931e+001
1	 3.693344000014533e+000	 0.000000000000000e+000	 3.600697773043468e+001
1	 3.693179199575722e+000	 3.488877613527523e-002	 3.383978892178440e+001
1	 3.692682254933839e+000	 6.991009267304311e-002	 3.169924251675045e+001
1	 3.691849385458404e+000	 1.050598970112210e-001	 2.959217858633662e+001
1	 3.690676858653458e+000	 1.403340322455685e-001	 2.752530292294282e+001
1	 3.689160993087310e+000	 1.757282373585244e-001	 2.550517576041875e+001
1	 3.687298161349476e+000	 2.112381474961305e-001	 2.353820040431904e+001
1	 3.685084793032176e+000	 2.468592943351136e-001	 2.163061178976481e+001
1	 3.682517377733704e+000	 2.825871065421270e-001	 1.978846498509012e+001
1	 3.679592468080790e+000	 3.184169103270726e-001	 1.801762366020336e+001
1	 3.676306682767058e+000	 3.543439300923416e-001	 1.632374853932792e+001
1	 3.720008000011599e+000	 0.000000000000000e+000	 3.311088042992352e+001
1	 3.719842009800440e+000	 3.514065473862902e-002	 3.114938295699292e+001
1	 3.719341477480015e+000	 7.041480675161087e-002	 2.920540174637966e+001
1	 3.718502595125647e+000	 1.058183741792211e-001	 2.728605563679780e+001
1	 3.717321603294685e+000	 1.413471701065709e-001	 2.539832119643182e+001
1	 3.715794793977405e+000	 1.769969027538079e-001	 2.354902069360677e+001
1	 3.713918513575290e+000	 2.127631757550383e-001	 2.174480996946348e+001
1	 3.711689165904061e+000	 2.486414885280598e-001	 1.999216623122619e+001
1	 3.709103215218714e+000	 2.846272367369182e-001	 1.829737578548034e+001
1	 3.706157189257729e+000	 3.207157128492246e-001	 1.666652173169043e+001
1	 3.702847682303435e+000	 3.569021067900821e-001	 1.510547163698008e+001
1	 3.746672000008066e+000	 0.000000000000000e+000	 3.031304305082491e+001
1	 3.746504820024574e+000	 3.539253334213541e-002	 2.854996928187143e+001
1	 3.746000700025651e+000	 7.091952083043755e-002	 2.679597855783392e+001
1	 3.745155804792419e+000	 1.065768513475459e-001	 2.505839051390150e+001
1	 3.743966347935525e+000	 1.423603079679293e-001	 2.334437632375634e+001
1	 3.742428594867207e+000	 1.782655681494497e-001	 2.166094607790787e+001
1	 3.740538865800909e+000	 2.142882040142841e-001	 2.001493605726720e+001
1	 3.738293538775842e+000	 2.504236827213071e-001	 1.841299592148373e+001
1	 3.735689052703710e+000	 2.866673669319633e-001	 1.686157583244481e+001
1	 3.732721910434723e+000	 3.230145153715789e-001	 1.536691353419986e+001
1	 3.729388681839912e+000	 3.594602834879762e-001	 1.393502141140759e+001
1	 3.773336000004134e+000	 0.000000000000000e+000	 2.762355686835359e+001
1	 3.773167630248318e+000	 3.564441194574354e-002	 2.605048055149362e+001
1	 3.772659922570928e+000	 7.142423490943685e-002	 2.447880935883152e+001
1	 3.771809014458875e+000	 1.073353285160872e-001	 2.291598731563354e+001
1	 3.770611092576107e+000	 1.433734458295249e-001	 2.136930556800824e+001
1	 3.769062395756812e+000	 1.795342335453302e-001	 1.984588932400750e+001
1	 3.767159218026396e+000	 2.158132322737550e-001	 1.835268468461626e+001
1	 3.764897911647557e+000	 2.522058769147550e-001	 1.689644538484412e+001
1	 3.762274890188694e+000	 2.887074971271775e-001	 1.548371946604851e+001
1	 3.759286631611750e+000	 3.253133178940683e-001	 1.412083590151531e+001
1	 3.755929681376454e+000	 3.620184601859726e-001	 1.281389119819699e+001
1	 3.800000000000000e+000	 0.000000000000000e+000	 2.505222992216586e+001
1	 3.799830440471870e+000	 3.589629054940255e-002	 2.365959870479954e+001
1	 3.799319145116026e+000	 7.192894898852251e-002	 2.226151060974044e+001
1	 3.798462224125176e+000	 1.080938056847368e-001	 2.086545916685085e+001
1	 3.797255837216560e+000	 1.443865836912391e-001	 1.947878235566463e+001
1	 3.795696196646321e+000	 1.808028989413303e-001	 1.810864926246738e+001
1	 3.793779570251819e+000	 2.173382605333389e-001	 1.676204662331034e+001
1	 3.791502284519237e+000	 2.539880711083034e-001	 1.544576527362123e+001
1	 3.788860727673674e+000	 2.907476273224764e-001	 1.416638652601899e+001
1	 3.785851352788797e+000	 3.276121204166252e-001	 1.293026849885912e+001
1	 3.782470680913030e+000	 3.645766368840201e-001	 1.174353241893699e+001
1	 3.826663999995867e+000	 0.000000000000000e+000	 2.260859688421499e+001
1	 3.826493250695418e+000	 3.614816915306154e-002	 2.138576369948201e+001
1	 3.825978367661123e+000	 7.243366306760815e-002	 2.015148648648836e+001
1	 3.825115433791474e+000	 1.088522828533864e-001	 1.891323487273704e+001
1	 3.823900581857012e+000	 1.453997215529534e-001	 1.767832198461407e+001
1	 3.822329997535829e+000	 1.820715643373304e-001	 1.645389097182202e+001
1	 3.820399922477242e+000	 2.188632887929226e-001	 1.524690141517244e+001
1	 3.818106657390919e+000	 2.557702653018517e-001	 1.406411563861261e+001
1	 3.815446565158653e+000	 2.927877575177752e-001	 1.291208494731958e+001
1	 3.812416073965843e+000	 3.299109229391820e-001	 1.179713581463063e+001
1	 3.809011680449606e+000	 3.671348135820680e-001	 1.072535604149152e+001
1	 3.853327999991934e+000	 0.000000000000000e+000	 2.030192851690947e+001
1	 3.853156060919163e+000	 3.640004775666968e-002	 1.923718188421530e+001
1	 3.852637590206401e+000	 7.293837714660749e-002	 1.815593622532093e+001
1	 3.851768643457932e+000	 1.096107600219278e-001	 1.706556529601691e+001
1	 3.850545326497594e+000	 1.464128594145490e-001	 1.597328709519464e+001
1	 3.848963798425435e+000	 1.833402297332110e-001	 1.488615040622043e+001
1	 3.847020274702730e+000	 2.203883170523936e-001	 1.381102122045809e+001
1	 3.844711030262634e+000	 2.575524594952997e-001	 1.275456906379123e+001
1	 3.842032402643639e+000	 2.948278877129895e-001	 1.172325324795815e+001
1	 3.838980795142870e+000	 3.322097254616713e-001	 1.072330906945058e+001
1	 3.835552679986149e+000	 3.696929902800644e-001	 9.760733979644664e+000
1	 3.879991999988402e+000	 0.000000000000000e+000	 1.814124074128254e+001
1	 3.879818871143298e+000	 3.665192636017606e-002	 1.722183402567080e+001
1	 3.879296812752037e+000	 7.344309122543419e-002	 1.628186116471333e+001
1	 3.878421853124702e+000	 1.103692371902526e-001	 1.532852947121922e+001
1	 3.877190071138433e+000	 1.474259972759073e-001	 1.436889291564446e+001
1	 3.875597599315237e+000	 1.846088951288528e-001	 1.340983883225582e+001
1	 3.873640626928348e+000	 2.219133453116393e-001	 1.245807450758180e+001
1	 3.871315403134415e+000	 2.593346536885469e-001	 1.152011367174401e+001
1	 3.868618240128635e+000	 2.968680179080345e-001	 1.060226291421632e+001
1	 3.865545516319863e+000	 3.345085279840257e-001	 9.710608046489879e+000
1	 3.862093679522626e+000	 3.722511669779586e-001	 8.851000435033779e+000
1	 3.906655999985469e+000	 0.000000000000000e+000	 1.613530333380555e+001
1	 3.906481681368015e+000	 3.690380496352987e-002	 1.534748300681362e+001
1	 3.905956035298213e+000	 7.394780530400191e-002	 1.453607149890399e+001
1	 3.905075062791944e+000	 1.111277143582526e-001	 1.370804046855007e+001
1	 3.903834815779661e+000	 1.484391351369098e-001	 1.287021229274217e+001
1	 3.902231400205331e+000	 1.858775605241363e-001	 1.202924708409991e+001
1	 3.900260979154164e+000	 2.234383735705472e-001	 1.119162959174418e+001
1	 3.897919776006299e+000	 2.611168478814931e-001	 1.036365600603295e+001
1	 3.895204077613645e+000	 2.989081481028257e-001	 9.551420688199016e+000
1	 3.892110237496803e+000	 3.368073305061777e-001	 8.760802846843319e+000
1	 3.888634679059003e+000	 3.748093436756990e-001	 7.997453184128312e+000
1	 3.933319999983334e+000	 0.000000000000000e+000	 1.429264826946722e+001
1	 3.933144491593509e+000	 3.715568356668014e-002	 1.362168121207868e+001
1	 3.932615257845103e+000	 7.445251938222434e-002	 1.292519275673507e+001
1	 3.931728272459813e+000	 1.118861915258195e-001	 1.220985101925916e+001
1	 3.930479560421401e+000	 1.494522729974376e-001	 1.148218051783117e+001
1	 3.928865201095816e+000	 1.871462259189419e-001	 1.074854964556374e+001
1	 3.926881331380237e+000	 2.249634018290041e-001	 1.001515802962828e+001
1	 3.924524148878315e+000	 2.628990420740378e-001	 9.288023796318658e+000
1	 3.921789915098675e+000	 3.009482782972785e-001	 8.572970762340805e+000
1	 3.918674958673671e+000	 3.391061330280594e-001	 7.875615573505218e+000
1	 3.915175678595246e+000	 3.773675203732345e-001	 7.201354812862014e+000
1	 3.649765683230814e+000	 3.517857533948059e-001	 1.758831534487931e+001
1	 3.646142631855922e+000	 3.875397139962904e-001	 1.581916030708958e+001
1	 3.642154915790480e+000	 4.233804573491111e-001	 1.408698467785360e+001
1	 3.637799395027111e+000	 4.593030245767192e-001	 1.239746910523248e+001
1	 3.633073007093982e+000	 4.953023615887202e-001	 1.075608735942741e+001
1	 3.627972770066270e+000	 5.313733202242622e-001	 9.168094641933061e+000
1	 3.622495785572755e+000	 5.675106594965962e-001	 7.638515955443497e+000
1	 3.616639241793861e+000	 6.037090469397648e-001	 6.172134558205310e+000
1	 3.610400416447523e+000	 6.399630600582478e-001	 4.773480527060690e+000
1	 3.603776679759039e+000	 6.762671878802551e-001	 3.446819453916136e+000
1	 3.596765497411132e+000	 7.126158326152126e-001	 2.196141300820243e+000
1	 3.676306682767058e+000	 3.543439300923416e-001	 1.632374853932792e+001
1	 3.672657284658395e+000	 3.903578925499764e-001	 1.468354428158170e+001
1	 3.668640570027082e+000	 4.264592688408319e-001	 1.307349022584156e+001
1	 3.664253376031719e+000	 4.626430640275383e-001	 1.149934891354593e+001
1	 3.659492617930285e+000	 4.989041872664871e-001	 9.966679895375570e+000
1	 3.654355292113508e+000	 5.352374529595348e-001	 8.480827902038282e+000
1	 3.648838479133310e+000	 5.716375820076131e-001	 7.046911066734312e+000
1	 3.642939346722671e+000	 6.080992031672106e-001	 5.669809223068413e+000
1	 3.636655152803183e+000	 6.446168545105615e-001	 4.354152302743925e+000
1	 3.629983248476528e+000	 6.811849849902318e-001	 3.104308857893370e+000
1	 3.622921080995962e+000	 7.177979561086599e-001	 1.924374733370547e+000
1	 3.702847682303435e+000	 3.569021067900821e-001	 1.510547163698008e+001
1	 3.699171937461023e+000	 3.931760711038121e-001	 1.359131689520012e+001
1	 3.695126224263829e+000	 4.295380803326592e-001	 1.210084942764285e+001
1	 3.690707357036439e+000	 4.659831034784319e-001	 1.063986319044748e+001
1	 3.685912228766642e+000	 5.025060129443073e-001	 9.213954321162337e+000
1	 3.680737814160723e+000	 5.391015856948496e-001	 7.828509276960814e+000
1	 3.675181172693760e+000	 5.757645045186709e-001	 6.488693015864414e+000
1	 3.669239451651285e+000	 6.124893593947066e-001	 5.199437244614901e+000
1	 3.662909889158565e+000	 6.492706489629427e-001	 3.965428757421992e+000
1	 3.656189817193663e+000	 6.861027821003027e-001	 2.791097890352665e+000
1	 3.649076664580380e+000	 7.229800796022363e-001	 1.680607116615488e+000
1	 3.729388681839912e+000	 3.594602834879762e-001	 1.393502141140759e+001
1	 3.725686590263769e+000	 3.959942496577604e-001	 1.254351181600650e+001
1	 3.721611878500689e+000	 4.326168918245666e-001	 1.116962873114123e+001
1	 3.717161338041240e+000	 4.693231429293813e-001	 9.819148071271965e+000
1	 3.712331839603034e+000	 5.061078386221669e-001	 8.497654371617532e+000
1	 3.707120336207918e+000	 5.429657184301958e-001	 7.210528998328646e+000
1	 3.701523866254123e+000	 5.798914270297598e-001	 5.962938393387263e+000
1	 3.695539556579746e+000	 6.168795156222396e-001	 4.759822377554739e+000
1	 3.689164625513728e+000	 6.539244434153748e-001	 3.605882535289496e+000
1	 3.682396385910518e+000	 6.910205792104441e-001	 2.505570706105103e+000
1	 3.675232248164469e+000	 7.281622030959102e-001	 1.463077607339077e+000
1	 3.755929681376454e+000	 3.620184601859726e-001	 1.281389119819699e+001
1	 3.752201243066594e+000	 3.988124282117838e-001	 1.154113349470835e+001
1	 3.748097532737622e+000	 4.356957033165273e-001	 1.028037857317319e+001
1	 3.743615319046093e+000	 4.726631823803678e-001	 9.037335843393883e+000
1	 3.738751450439450e+000	 5.097096643000532e-001	 7.817531025086810e+000
1	 3.733502858255095e+000	 5.468298511655628e-001	 6.626294533302588e+000
1	 3.727866559814423e+000	 5.840183495408691e-001	 5.468749890674830e+000
1	 3.721839661508096e+000	 6.212696718497973e-001	 4.349802189313411e+000
1	 3.715419361868731e+000	 6.585782378678405e-001	 3.274126625758055e+000
1	 3.708602954627166e+000	 6.959383763206331e-001	 2.246157132963931e+000
1	 3.701387831748314e+000	 7.333443265896488e-001	 1.270075133799006e+000
1	 3.782470680913030e+000	 3.645766368840201e-001	 1.174353241893699e+001
1	 3.778715895869458e+000	 4.016306067658446e-001	 1.058515818972654e+001
1	 3.774583186974591e+000	 4.387745148085147e-001	 9.433633941262663e+000
1	 3.770069300050975e+000	 4.760032218313730e-001	 8.294555081229571e+000
1	 3.765171061275876e+000	 5.133114899779527e-001	 7.173342249298591e+000
1	 3.759885380302258e+000	 5.506939839009404e-001	 6.075229979880669e+000
1	 3.754209253374685e+000	 5.881452720519884e-001	 5.005255384190369e+000
1	 3.748139766436377e+000	 6.256598280773676e-001	 3.968246873739246e+000
1	 3.741674098223633e+000	 6.632320323203234e-001	 2.968812947975911e+000
1	 3.734809523343684e+000	 7.008561734308453e-001	 2.011331069343272e+000
1	 3.727543415331994e+000	 7.385264500834197e-001	 1.099936649533700e+000
1	 3.809011680449606e+000	 3.671348135820680e-001	 1.072535604149152e+001
1	 3.805230548672322e+000	 4.044487853199054e-001	 9.676534949407529e+000
1	 3.801068841211559e+000	 4.418533263005020e-001	 8.629914911871028e+000
1	 3.796523281055853e+000	 4.793432612823781e-001	 7.590930775595627e+000
1	 3.791590672112294e+000	 5.169133156558521e-001	 6.564852757854919e+000
1	 3.786267902349411e+000	 5.545581166363182e-001	 5.556775487483590e+000
1	 3.780551946934928e+000	 5.922721945631081e-001	 4.571607058045978e+000
1	 3.774439871364630e+000	 6.300499843049380e-001	 3.614058114406653e+000
1	 3.767928834578494e+000	 6.678858267728060e-001	 2.688630994525552e+000
1	 3.761016092060141e+000	 7.057739705410575e-001	 1.799608948849306e+000
1	 3.753698998915594e+000	 7.437085735771905e-001	 9.510454601737229e-001
1	 3.835552679986149e+000	 3.696929902800644e-001	 9.760733979644662e+000
1	 3.831745201475147e+000	 4.072669638739287e-001	 8.816186553455335e+000
1	 3.827554495448491e+000	 4.449321377924627e-001	 7.869727166299560e+000
1	 3.822977262060702e+000	 4.826833007333646e-001	 6.926584457696260e+000
1	 3.818010282948695e+000	 5.205151413337386e-001	 5.991833776833360e+000
1	 3.812650424396558e+000	 5.584222493716853e-001	 5.070386701596530e+000
1	 3.806894640495176e+000	 5.963991170742170e-001	 4.166980562989953e+000
1	 3.800739976292896e+000	 6.344401405324956e-001	 3.286167995113333e+000
1	 3.794183570933372e+000	 6.725396212252716e-001	 2.432306531432811e+000
1	 3.787222660776614e+000	 7.106917676512462e-001	 1.609548268619256e+000
1	 3.779854582499195e+000	 7.488906970709290e-001	 8.218296197211492e-001
1	 3.862093679522626e+000	 3.722511669779586e-001	 8.851000435033779e+000
1	 3.858259854277894e+000	 4.100851424278770e-001	 8.005010415545570e+000
1	 3.854040149685347e+000	 4.480109492843700e-001	 7.153562485319984e+000
1	 3.849431243065491e+000	 4.860233401843139e-001	 6.301634317998341e+000
1	 3.844429893785062e+000	 5.241169670115982e-001	 5.454062821011659e+000
1	 3.839032946443703e+000	 5.622863821070315e-001	 4.615534231310157e+000
1	 3.833237334055453e+000	 6.005260395853057e-001	 3.790574210071925e+000
1	 3.827040081221220e+000	 6.388302967600287e-001	 2.983537955301156e+000
1	 3.820438307288330e+000	 6.771934156777039e-001	 2.198600351778354e+000
1	 3.813429229493174e+000	 7.156095647613880e-001	 1.439746178341540e+000
1	 3.806010166082879e+000	 7.540728205646027e-001	 7.107603929555419e-001
1	 3.888634679059003e+000	 3.748093436756990e-001	 7.997453184128312e+000
1	 3.884774507080522e+000	 4.129033209817128e-001	 7.243879448975942e+000
1	 3.880525803922091e+000	 4.510897607761976e-001	 6.481899223548819e+000
1	 3.875885224070195e+000	 4.893633796352076e-001	 5.716195320238422e+000
1	 3.870849504621382e+000	 5.277187926894181e-001	 4.951323479257237e+000
1	 3.865415468490847e+000	 5.661505148423462e-001	 4.191703138666574e+000
1	 3.859580027615782e+000	 6.046529620963639e-001	 3.441608197328223e+000
1	 3.853340186149641e+000	 6.432204529875244e-001	 2.705157788253869e+000
1	 3.846693043643425e+000	 6.818472101300850e-001	 1.986307080351377e+000
1	 3.839635798209899e+000	 7.205273618714591e-001	 1.288838127057733e+000
1	 3.832165749666732e+000	 7.592549440581793e-001	 6.163507808065201e-001
1	 3.915175678595246e+000	 3.773675203732345e-001	 7.201354812862013e+000
1	 3.911289159882991e+000	 4.157214995353988e-001	 6.533642897107047e+000
1	 3.907011458158685e+000	 4.541685722679181e-001	 5.855202764527154e+000
1	 3.902339205074782e+000	 4.927034190860265e-001	 5.170379310792542e+000
1	 3.897269115457639e+000	 5.313206183671850e-001	 4.483405208645171e+000
1	 3.891797990537994e+000	 5.700146475776190e-001	 3.798392448775813e+000
1	 3.885922721176182e+000	 6.087798846073808e-001	 3.119323867921774e+000
1	 3.879640291078203e+000	 6.476106092149703e-001	 2.450044680042693e+000
1	 3.872947779998714e+000	 6.865010045823986e-001	 1.794254026922225e+000
1	 3.865842366926856e+000	 7.254451589814353e-001	 1.155496565004730e+000
1	 3.858321333250832e+000	 7.644370675516263e-001	 5.371541057059045e-001
1	 3.596765497411132e+000	 7.126158326152126e-001	 2.196141300820244e+000
1	 3.589363294351825e+000	 7.490087713011586e-001	 9.990922345810199e-001
1	 3.581568760153286e+000	 7.854347785535488e-001	-1.672404213903294e-001
1	 3.573379666514728e+000	 8.218879957891511e-001	-1.300553331770089e+000
1	 3.564793892237348e+000	 8.583624850557750e-001	-2.398666920192326e+000
1	 3.555809426018734e+000	 8.948522312174626e-001	-3.459530241078869e+000
1	 3.546424369203119e+000	 9.313511442442010e-001	-4.481225740090912e+000
1	 3.536636938483258e+000	 9.678530616055534e-001	-5.461973891350390e+000
1	 3.526445468549741e+000	 1.004351750767449e+000	-6.400137699557932e+000
1	 3.515848414683465e+000	 1.040840911791156e+000	-7.294227055145644e+000
1	 3.504844355287081e+000	 1.077314180033311e+000	-8.142902930651269e+000
1	 3.622921080995962e+000	 7.177979561086599e-001	 1.924374733370547e+000
1	 3.615465049311848e+000	 7.544555432825083e-001	 7.936481925476447e-001
1	 3.607613833466946e+000	 7.911464394965302e-001	-3.092612062281384e-001
1	 3.599365188956309e+000	 8.278647435640271e-001	-1.382104322289862e+000
1	 3.590716979155809e+000	 8.646044743521746e-001	-2.422752817374518e+000
1	 3.581667178136879e+000	 9.013595729831022e-001	-3.429203915734481e+000
1	 3.572213873436759e+000	 9.381239051402550e-001	-4.399585054902057e+000
1	 3.562355268780022e+000	 9.748912634794354e-001	-5.332158415501583e+000
1	 3.552089686747149e+000	 1.011655370143746e+000	-6.225325318484412e+000
1	 3.541415571385863e+000	 1.048409879381463e+000	-7.077630478173412e+000
1	 3.530331490760975e+000	 1.085148380265702e+000	-7.887766099552984e+000
1	 3.649076664580380e+000	 7.229800796022363e-001	 1.680607116615487e+000
1	 3.641566804271423e+000	 7.599023152640307e-001	 6.148899040542487e-001
1	 3.633658906780144e+000	 7.968581004397330e-001	-4.259130351152942e-001
1	 3.625350711397429e+000	 8.338414913391794e-001	-1.439605499407169e+000
1	 3.616640066073833e+000	 8.708464636489086e-001	-2.424107944100663e+000
1	 3.607524930254624e+000	 9.078669147491354e-001	-3.377462109380768e+000
1	 3.598003377670048e+000	 9.448966660367630e-001	-4.297835542778584e+000
1	 3.588073599076492e+000	 9.819294653538296e-001	-5.183526004632893e+000
1	 3.577733904944332e+000	 1.018958989520610e+000	-6.032965745271242e+000
1	 3.566982728088108e+000	 1.055978846972389e+000	-6.844725642623057e+000
1	 3.555818626234796e+000	 1.092982580498757e+000	-7.617519189018445e+000
1	 3.675232248164469e+000	 7.281622030959102e-001	 1.463077607339077e+000
1	 3.667668559230637e+000	 7.653490872456819e-001	 4.609432622042283e-001
1	 3.659703980092960e+000	 8.025697613831025e-001	-5.191638440884765e-001
1	 3.651336233838165e+000	 8.398182391145393e-001	-1.475099225243522e+000
1	 3.642563152991476e+000	 8.770884529458933e-001	-2.404829733506731e+000
1	 3.633382682372006e+000	 9.143742565154636e-001	-3.306438035821424e+000
1	 3.623792881903002e+000	 9.516694269336106e-001	-4.178126989533453e+000
1	 3.613791929372667e+000	 9.889676672286080e-001	-5.018223906766581e+000
1	 3.603378123141264e+000	 1.026262608897900e+000	-5.825184696569725e+000
1	 3.592549884790161e+000	 1.063547814563779e+000	-6.597597873943229e+000
1	 3.581305761708479e+000	 1.100816780732308e+000	-7.334188424892457e+000
1	 3.701387831748314e+000	 7.333443265896488e-001	 1.270075133799008e+000
1	 3.693770314189572e+000	 7.707958592274198e-001	 3.299871330524341e-001
1	 3.685749053405477e+000	 8.082814223265832e-001	-5.909259440859616e-001
1	 3.677321756278585e+000	 8.457949868900374e-001	-1.490570133116364e+000
1	 3.668486239908798e+000	 8.833304422430450e-001	-2.366956333303027e+000
1	 3.659240434489071e+000	 9.208815982819895e-001	-3.218204612068602e+000
1	 3.649582386135648e+000	 9.584421878306852e-001	-4.042548415768207e+000
1	 3.639510259668551e+000	 9.960058691036423e-001	-4.838338676446357e+000
1	 3.629022341337930e+000	 1.033566228275475e+000	-5.604047804151572e+000
1	 3.618117041491970e+000	 1.071116782155478e+000	-6.338273554388759e+000
1	 3.606792897181959e+000	 1.108650980966191e+000	-7.039742760318135e+000
1	 3.727543415331994e+000	 7.385264500834197e-001	 1.099936649533702e+000
1	 3.719872069148313e+000	 7.762426312092003e-001	 2.202514970911640e-001
1	 3.711794126717773e+000	 8.139930832701190e-001	-6.430579725100774e-001
1	 3.703307278718762e+000	 8.517717346656040e-001	-1.487947152907929e+000
1	 3.694409326825859e+000	 8.895724315402805e-001	-2.312468685756629e+000
1	 3.685098186605857e+000	 9.273889400486132e-001	-3.114776573808023e+000
1	 3.675371890368007e+000	 9.652149487278735e-001	-3.893130208772773e+000
1	 3.665228589964140e+000	 1.003044070978804e+000	-4.645898304119490e+000
1	 3.654666559534302e+000	 1.040869847653191e+000	-5.371562722939325e+000
1	 3.643684198193496e+000	 1.078685749747331e+000	-6.068722190995851e+000
1	 3.632280032655170e+000	 1.116485181200241e+000	-6.736095885104035e+000
1	 3.753698998915594e+000	 7.437085735771905e-001	 9.510454601737229e-001
1	 3.745973824106949e+000	 7.816894031909811e-001	 1.300156684360907e-001
1	 3.737839200029932e+000	 8.197047442136548e-001	-6.773667631994349e-001
1	 3.729292801158767e+000	 8.577484824411710e-001	-1.469105451758727e+000
1	 3.720332413742716e+000	 8.958144208375155e-001	-2.243292520713739e+000
1	 3.710955938722407e+000	 9.338962818152372e-001	-2.998112502421312e+000
1	 3.701161394600098e+000	 9.719877096250620e-001	-3.731846165294055e+000
1	 3.690946920259437e+000	 1.010082272853967e+000	-4.442874256494748e+000
1	 3.680310777730362e+000	 1.048173467030907e+000	-5.129681150904544e+000
1	 3.669251354894697e+000	 1.086254717339184e+000	-5.790858397100033e+000
1	 3.657767168128049e+000	 1.124319381434289e+000	-6.425108151084587e+000
1	 3.779854582499195e+000	 7.488906970709290e-001	 8.218296197211503e-001
1	 3.772075579065561e+000	 7.871361751727187e-001	 5.760658794899809e-002
1	 3.763884273342034e+000	 8.254164051571354e-001	-6.956091387628484e-001
1	 3.755278323598676e+000	 8.637252302166688e-001	-1.435868294186241e+000
1	 3.746255500659427e+000	 9.020564101346673e-001	-2.161300265875687e+000
1	 3.736813690838762e+000	 9.404036235817624e-001	-2.870116767849346e+000
1	 3.726950898831945e+000	 9.787604705221366e-001	-3.560615449493313e+000
1	 3.716665250554442e+000	 1.017120474729001e+000	-4.231183432187990e+000
1	 3.705954995926086e+000	 1.055477086408480e+000	-4.880300765103407e+000
1	 3.694818511595526e+000	 1.093823684930883e+000	-5.506543791584527e+000
1	 3.683254303600528e+000	 1.132153581668172e+000	-6.108588417542285e+000
1	 3.806010166082879e+000	 7.540728205646027e-001	 7.107603929555419e-001
1	 3.798177334024236e+000	 7.925829471543703e-001	 1.397186740196732e-003
1	 3.789929346654160e+000	 8.311280661005048e-001	-6.994936290097605e-001
1	 3.781263846038558e+000	 8.697019779920285e-001	-1.390008825505406e+000
1	 3.772178587576051e+000	 9.082983994316517e-001	-2.068312878308029e+000
1	 3.762671442954965e+000	 9.469109653480909e-001	-2.732641391345860e+000
1	 3.752740403063570e+000	 9.855332314189843e-001	-3.381304470170307e+000
1	 3.742383580849157e+000	 1.024158676603780e+000	-4.012690036730356e+000
1	 3.731599214121452e+000	 1.062780705785771e+000	-4.625267077883298e+000
1	 3.720385668295939e+000	 1.101392652522273e+000	-5.217588819816783e+000
1	 3.708741439072548e+000	 1.139987781901724e+000	-5.788295820537911e+000
1	 3.832165749666732e+000	 7.592549440581793e-001	 6.163507808065201e-001
1	 3.824279088983057e+000	 7.980297191358922e-001	-4.019518331193028e-002
1	 3.815974419966392e+000	 8.368397270437079e-001	-6.906821190082106e-001
1	 3.807249368478485e+000	 8.756787257671811e-001	-1.333251782215013e+000
1	 3.798101674492648e+000	 9.145403887283862e-001	-1.966101600946381e+000
1	 3.788529195071055e+000	 9.534183071141239e-001	-2.587487831947822e+000
1	 3.778529907294995e+000	 9.923059923154918e-001	-3.195728681111793e+000
1	 3.768101911143579e+000	 1.031196878478174e+000	-3.789207380791698e+000
1	 3.757243432316441e+000	 1.070084325162635e+000	-4.366375217074950e+000
1	 3.745952824995893e+000	 1.108961620113198e+000	-4.925754500014667e+000
1	 3.734228574544038e+000	 1.147821982134778e+000	-5.465941469783273e+000
1	 3.858321333250832e+000	 7.644370675516263e-001	 5.371541057059051e-001
1	 3.850380843942109e+000	 8.034764911172418e-001	-6.871025520409457e-002
1	 3.842019493278809e+000	 8.425513879866891e-001	-6.707914301097299e-001
1	 3.833234890918529e+000	 8.816554735420568e-001	-1.267275132815652e+000
1	 3.824024761409275e+000	 9.207823780247854e-001	-1.856389647658012e+000
1	 3.814386947187074e+000	 9.599256488797628e-001	-2.436408700283118e+000
1	 3.804319411526238e+000	 9.990787532115455e-001	-3.005654308213424e+000
1	 3.793820241437709e+000	 1.038235080352056e+000	-3.562499605263414e+000
1	 3.782887650511029e+000	 1.077387944538932e+000	-4.105371633776787e+000
1	 3.771519981695345e+000	 1.116530587703505e+000	-4.632754098581188e+000
1	 3.759715710014934e+000	 1.155656182367169e+000	-5.143190076495770e+000
1	 3.504844355287081e+000	 1.077314180033311e+000	-8.142902930651269e+000
1	 3.493431993474644e+000	 1.113765128411843e+000	-8.938025624224242e+000
1	 3.481610156834797e+000	 1.150187268649676e+000	-9.672667099747647e+000
1	 3.469377802379239e+000	 1.186574055778320e+000	-1.034759625323946e+001
1	 3.456734019669561e+000	 1.222918891747823e+000	-1.096381652966975e+001
1	 3.443678032987045e+000	 1.259215128608840e+000	-1.152256767780198e+001
1	 3.430209203416530e+000	 1.295456071785157e+000	-1.202532713799851e+001
1	 3.416327030840313e+000	 1.331634983434178e+000	-1.247381105279926e+001
1	 3.402031155838170e+000	 1.367745085892707e+000	-1.286997489077372e+001
1	 3.387321361489601e+000	 1.403779565205173e+000	-1.321601367488035e+001
1	 3.372197575074528e+000	 1.439731574731234e+000	-1.351436180734461e+001
1	 3.530331490760975e+000	 1.085148380265702e+000	-7.887766099552984e+000
1	 3.518836138555602e+000	 1.121864398976820e+000	-8.648018962119281e+000
1	 3.506928333832646e+000	 1.158551400055168e+000	-9.351815042303448e+000
1	 3.494607026019215e+000	 1.195202790937426e+000	-9.999839811847366e+000
1	 3.481871298056221e+000	 1.231811925592805e+000	-1.059300907885864e+001
1	 3.468720368583944e+000	 1.268372107728261e+000	-1.113247081993592e+001
1	 3.455153594041044e+000	 1.304876594084805e+000	-1.161960665264012e+001
1	 3.441170470672978e+000	 1.341318597822436e+000	-1.205603293808771e+001
1	 3.426770636445833e+000	 1.377691291990982e+000	-1.244360150411468e+001
1	 3.411953872861664e+000	 1.413987813083974e+000	-1.278439998017528e+001
1	 3.396720106671581e+000	 1.450201264672494e+000	-1.308075173589883e+001
1	 3.555818626234796e+000	 1.092982580498757e+000	-7.617519189018445e+000
1	 3.544240283636571e+000	 1.129963669542497e+000	-8.344055314232010e+000
1	 3.532246510830581e+000	 1.166915531461389e+000	-9.018111979810859e+000
1	 3.519836249659356e+000	 1.203831526097284e+000	-9.640283239663770e+000
1	 3.507008576443118e+000	 1.240704959438559e+000	-1.021138855899133e+001
1	 3.493762704181139e+000	 1.277529086848464e+000	-1.073247472487116e+001
1	 3.480097984665906e+000	 1.314297116385243e+000	-1.120481740585278e+001
1	 3.466013910506030e+000	 1.351002212211490e+000	-1.162992235032828e+001
1	 3.451510117053901e+000	 1.387637498090054e+000	-1.200952621409521e+001
1	 3.436586384234133e+000	 1.424196060963575e+000	-1.234559700822410e+001
1	 3.421242638269016e+000	 1.460670954614553e+000	-1.264033415907918e+001
1	 3.581305761708479e+000	 1.100816780732308e+000	-7.334188424892457e+000
1	 3.569644428717461e+000	 1.138062940108699e+000	-8.028087673951536e+000
1	 3.557564687828503e+000	 1.175279662868157e+000	-8.673428074633252e+000
1	 3.545065473299544e+000	 1.212460261257706e+000	-9.270704379478016e+000
1	 3.532145854830123e+000	 1.249597993284890e+000	-9.820631124314035e+000
1	 3.518805039778498e+000	 1.286686065969255e+000	-1.032414461850092e+001
1	 3.505042375290975e+000	 1.323717638686275e+000	-1.078240459411641e+001
1	 3.490857350339327e+000	 1.360685826601141e+000	-1.119679550386489e+001
1	 3.476249597662238e+000	 1.397583704189727e+000	-1.156892745811150e+001
1	 3.461218895606880e+000	 1.434404308843775e+000	-1.190063679211932e+001
1	 3.445765169866720e+000	 1.471140644557213e+000	-1.219398625527928e+001
1	 3.606792897181959e+000	 1.108650980966191e+000	-7.039742760318135e+000
1	 3.595048573798191e+000	 1.146162210675251e+000	-7.702013831931958e+000
1	 3.582882864826309e+000	 1.183643794275290e+000	-8.319580627676572e+000
1	 3.570294696939667e+000	 1.221088996418505e+000	-8.892830822100033e+000
1	 3.557283133217109e+000	 1.258491027131605e+000	-9.422365551391954e+000
1	 3.543847375375882e+000	 1.295843045090437e+000	-9.909001484505238e+000
1	 3.529986765916116e+000	 1.333138160987702e+000	-1.035377256441374e+001
1	 3.515700790172727e+000	 1.370369440991191e+000	-1.075793140931553e+001
1	 3.500989078270704e+000	 1.407529910289798e+000	-1.112295036419630e+001
1	 3.485851406979773e+000	 1.444612556724376e+000	-1.145052219381097e+001
1	 3.470287701464574e+000	 1.481610334500272e+000	-1.174256040882746e+001
1	 3.632280032655170e+000	 1.116485181200241e+000	-6.736095885104035e+000
1	 3.620452718878675e+000	 1.154261481241977e+000	-7.367678312837036e+000
1	 3.608201041823901e+000	 1.192007925682604e+000	-7.958335932991727e+000
1	 3.595523920579608e+000	 1.229717731579492e+000	-8.508341669411140e+000
1	 3.582420411603948e+000	 1.267384060978512e+000	-9.018174901317307e+000
1	 3.568889710973159e+000	 1.305000024211814e+000	-9.488523616554401e+000
1	 3.554931156541184e+000	 1.342558683289327e+000	-9.920286247403057e+000
1	 3.540544230006093e+000	 1.380053055381439e+000	-1.031457317883546e+001
1	 3.525728558879164e+000	 1.417476116390070e+000	-1.067270791965161e+001
1	 3.510483918352682e+000	 1.454820804605176e+000	-1.099622792755310e+001
1	 3.494810233062459e+000	 1.492080024443532e+000	-1.128688507986702e+001
1	 3.657767168128049e+000	 1.124319381434289e+000	-6.425108151084587e+000
1	 3.645856863958831e+000	 1.162360751808704e+000	-7.026874231113061e+000
1	 3.633519218821176e+000	 1.200372057089920e+000	-7.591411054840343e+000
1	 3.620753144219252e+000	 1.238346466740479e+000	-8.118869223705689e+000
1	 3.607557689990518e+000	 1.276277094825420e+000	-8.609598112425385e+000
1	 3.593932046570195e+000	 1.314157003333191e+000	-9.064148105617711e+000
1	 3.579875547166044e+000	 1.351979205590952e+000	-9.483272530672439e+000
1	 3.565387669839278e+000	 1.389736669771687e+000	-9.867929276810688e+000
1	 3.550468039487480e+000	 1.427422322490341e+000	-1.021928209082387e+001
1	 3.535116429725480e+000	 1.465029052485976e+000	-1.053870154056231e+001
1	 3.519332764660260e+000	 1.502549714386791e+000	-1.082776563786881e+001
1	 3.683254303600528e+000	 1.132153581668172e+000	-6.108588417542285e+000
1	 3.671261009038573e+000	 1.170460022375256e+000	-6.681345069713879e+000
1	 3.658837395818034e+000	 1.208736188497052e+000	-7.220475530979370e+000
1	 3.645982367858484e+000	 1.246975201901278e+000	-7.726000606894472e+000
1	 3.632694968376690e+000	 1.285170128672136e+000	-8.198131526882168e+000
1	 3.618974382166853e+000	 1.323313982454373e+000	-8.637272265521945e+000
1	 3.604819937790552e+000	 1.361399727892379e+000	-9.044021574979574e+000
1	 3.590231109672149e+000	 1.399420284161736e+000	-9.419174718624454e+000
1	 3.575207520095516e+000	 1.437368528590413e+000	-9.763724896387194e+000
1	 3.559748941098035e+000	 1.475237300366578e+000	-1.007886435296118e+001
1	 3.543855296257858e+000	 1.513019404329851e+000	-1.036598516053776e+001
1	 3.708741439072548e+000	 1.139987781901724e+000	-5.788295820537911e+000
1	 3.696665154117818e+000	 1.178559292941458e+000	-6.332786385483119e+000
1	 3.684155572814372e+000	 1.217100319903821e+000	-6.847153005714339e+000
1	 3.671211591497186e+000	 1.255603937061700e+000	-7.331279312942822e+000
1	 3.657832246762336e+000	 1.294063162518466e+000	-7.785230354327391e+000
1	 3.644016717762999e+000	 1.332470961575163e+000	-8.209254999729424e+000
1	 3.629764328414573e+000	 1.370820250193410e+000	-8.603788076218333e+000
1	 3.615074549504561e+000	 1.409103898551388e+000	-8.969452219994976e+000
1	 3.599947000703134e+000	 1.447314734690085e+000	-9.307059436372652e+000
1	 3.584381452470215e+000	 1.485445548246777e+000	-9.617612358964639e+000
1	 3.568377827855136e+000	 1.523489094272510e+000	-9.902305199777967e+000
1	 3.734228574544038e+000	 1.147821982134778e+000	-5.465941469783273e+000
1	 3.722069299196483e+000	 1.186658563507134e+000	-5.982847444698190e+000
1	 3.709473749810091e+000	 1.225464451310041e+000	-6.473022796076291e+000
1	 3.696440815135249e+000	 1.264232672221558e+000	-6.936206696734097e+000
1	 3.682969525147330e+000	 1.302956196364219e+000	-7.372310075577986e+000
1	 3.669059053358498e+000	 1.341627940695367e+000	-7.781418112144698e+000
1	 3.654708719037965e+000	 1.380240772493848e+000	-8.163792475705817e+000
1	 3.639917989336375e+000	 1.418787512940442e+000	-8.519873299245802e+000
1	 3.624686481310194e+000	 1.457260940789158e+000	-8.850280879056591e+000
1	 3.609013963841895e+000	 1.495653796126378e+000	-9.155817091161540e+000
1	 3.592900359451976e+000	 1.533958784214570e+000	-9.437466516290403e+000
1	 3.759715710014934e+000	 1.155656182367169e+000	-5.143190076495770e+000
1	 3.747473444274481e+000	 1.194757834072112e+000	-5.633132792090451e+000
1	 3.734791926805089e+000	 1.233828582715533e+000	-6.099621394295732e+000
1	 3.721670038772552e+000	 1.272861407380663e+000	-6.542243402375097e+000
1	 3.708106803531544e+000	 1.311849230209202e+000	-6.960747789237931e+000
1	 3.694101388953216e+000	 1.350784919814787e+000	-7.355047564604827e+000
1	 3.679653109660585e+000	 1.389661294793495e+000	-7.725222121242528e+000
1	 3.664761429167448e+000	 1.428471127328699e+000	-8.071519334742552e+000
1	 3.649425961916560e+000	 1.467207146887431e+000	-8.394357407708213e+000
1	 3.633646475212944e+000	 1.505862044005179e+000	-8.694326449642086e+000
1	 3.617422891048259e+000	 1.544428474155829e+000	-8.972189784291311e+000
1	 3.372197575074528e+000	 1.439731574731234e+000	-1.351436180734461e+001
1	 3.356662231674654e+000	 1.475588867042669e+000	-1.377368645901732e+001
1	 3.340713316314456e+000	 1.511349944770983e+000	-1.400068234400607e+001
1	 3.324351200427107e+000	 1.547007890623957e+000	-1.419487483658174e+001
1	 3.307576405259167e+000	 1.582555769867112e+000	-1.435578245604829e+001
1	 3.290389603006430e+000	 1.617986634272130e+000	-1.448291775535419e+001
1	 3.272791617828105e+000	 1.653293526122405e+000	-1.457578824701438e+001
1	 3.254783426736442e+000	 1.688469482271451e+000	-1.463389736509491e+001
1	 3.236366160359109e+000	 1.723507538249754e+000	-1.465674546189033e+001
1	 3.217541103571808e+000	 1.758400732415532e+000	-1.464383083780062e+001
1	 3.198309695998757e+000	 1.793142110144684e+000	-1.459465080279703e+001
1	 3.396720106671581e+000	 1.450201264672494e+000	-1.308075173589883e+001
1	 3.381071790665132e+000	 1.486319310265351e+000	-1.333952064098936e+001
1	 3.365006895213961e+000	 1.522340441605221e+000	-1.356568747166098e+001
1	 3.348525794452300e+000	 1.558257691097505e+000	-1.375879654152519e+001
1	 3.331629013417209e+000	 1.594064073578511e+000	-1.391838313484287e+001
1	 3.314317229192684e+000	 1.629752590292576e+000	-1.404397434806615e+001
1	 3.296591271931205e+000	 1.665316232926751e+000	-1.413508997214312e+001
1	 3.278452125749841e+000	 1.700747987698722e+000	-1.419124341448130e+001
1	 3.259900929498167e+000	 1.736040839493528e+000	-1.421194265933652e+001
1	 3.240938977395473e+000	 1.771187776044501e+000	-1.419669126526600e+001
1	 3.221567719534899e+000	 1.806181792153682e+000	-1.414498939815541e+001
1	 3.421242638269016e+000	 1.460670954614553e+000	-1.264033415907918e+001
1	 3.405481349655952e+000	 1.497049753488834e+000	-1.289880049354867e+001
1	 3.389300474113742e+000	 1.533330938440259e+000	-1.312428542581295e+001
1	 3.372700388477688e+000	 1.569507491571855e+000	-1.331637047707972e+001
1	 3.355681621575359e+000	 1.605572377290710e+000	-1.347462775924514e+001
1	 3.338244855378957e+000	 1.641518546313823e+000	-1.359862075634253e+001
1	 3.320390926034239e+000	 1.677338939731900e+000	-1.368790514682602e+001
1	 3.302120824763098e+000	 1.713026493126800e+000	-1.374202966570863e+001
1	 3.283435698637017e+000	 1.748574140738111e+000	-1.376053700544767e+001
1	 3.264336851218890e+000	 1.783974819674280e+000	-1.374296475434056e+001
1	 3.244825743070775e+000	 1.819221474163497e+000	-1.368884637107101e+001
1	 3.445765169866720e+000	 1.471140644557213e+000	-1.219398625527928e+001
1	 3.429890908647009e+000	 1.507780196712915e+000	-1.245225743247883e+001
1	 3.413594053013717e+000	 1.544321435275896e+000	-1.267708806694554e+001
1	 3.396874982503220e+000	 1.580757292046804e+000	-1.286811475083687e+001
1	 3.379734229733591e+000	 1.617080681003512e+000	-1.302496605538254e+001
1	 3.362172481565243e+000	 1.653284502335674e+000	-1.314726323934820e+001
1	 3.344190580137223e+000	 1.689361646537656e+000	-1.323462099506344e+001
1	 3.325789523776246e+000	 1.725304998555488e+000	-1.328664823113619e+001
1	 3.306970467775713e+000	 1.761107441983310e+000	-1.330294889086004e+001
1	 3.287734725042118e+000	 1.796761863304683e+000	-1.328312280520129e+001
1	 3.268083766606453e+000	 1.832261156173944e+000	-1.322676657913607e+001
1	 3.470287701464574e+000	 1.481610334500272e+000	-1.174256040882746e+001
1	 3.454300467638206e+000	 1.518510639937398e+000	-1.200060219958101e+001
1	 3.437887631913811e+000	 1.555311932111934e+000	-1.222468996087468e+001
1	 3.421049576528833e+000	 1.592007092522155e+000	-1.241453282571226e+001
1	 3.403786837891867e+000	 1.628588984716717e+000	-1.256983503755673e+001
1	 3.386100107751534e+000	 1.665050458357930e+000	-1.269029657304669e+001
1	 3.367990234240172e+000	 1.701384353343823e+000	-1.277561379569701e+001
1	 3.349458222789323e+000	 1.737583503984593e+000	-1.282548013979126e+001
1	 3.330505236914307e+000	 1.773640743228935e+000	-1.283958682357265e+001
1	 3.311132598865223e+000	 1.809548906935523e+000	-1.281762359074061e+001
1	 3.291341790142000e+000	 1.845300838184841e+000	-1.275927947915934e+001
1	 3.494810233062459e+000	 1.492080024443532e+000	-1.128688507986702e+001
1	 3.478710026629443e+000	 1.529241083162080e+000	-1.154452558800442e+001
1	 3.462181210813938e+000	 1.566302428948173e+000	-1.176766898551874e+001
1	 3.445224170554475e+000	 1.603256892997709e+000	-1.195611403374262e+001
1	 3.427839446050156e+000	 1.640097288430127e+000	-1.210965945422845e+001
1	 3.410027733937825e+000	 1.676816414380396e+000	-1.222810445307952e+001
1	 3.391789888343100e+000	 1.713407060150203e+000	-1.231124926641183e+001
1	 3.373126921802363e+000	 1.749862009413921e+000	-1.235889572621952e+001
1	 3.354040006052848e+000	 1.786174044474793e+000	-1.237084784584042e+001
1	 3.334530472688269e+000	 1.822335950566611e+000	-1.234691242414399e+001
1	 3.314599813677478e+000	 1.858340520196004e+000	-1.228689966749052e+001
1	 3.519332764660260e+000	 1.502549714386791e+000	-1.082776563786881e+001
1	 3.503119585620614e+000	 1.539971526386762e+000	-1.108469913725240e+001
1	 3.486474789714023e+000	 1.577292925784412e+000	-1.130658691230068e+001
1	 3.469398764580085e+000	 1.614506693473263e+000	-1.149333406840204e+001
1	 3.451892054208428e+000	 1.651605592143541e+000	-1.164485221535607e+001
1	 3.433955360124103e+000	 1.688582370402872e+000	-1.176105988080177e+001
1	 3.415589542446021e+000	 1.725429766956601e+000	-1.184188293168451e+001
1	 3.396795620815399e+000	 1.762140514843276e+000	-1.188725500307804e+001
1	 3.377574775191389e+000	 1.798707345720694e+000	-1.189711793363772e+001
1	 3.357928346511310e+000	 1.835122994197757e+000	-1.187142220691867e+001
1	 3.337857837212957e+000	 1.871380202207249e+000	-1.181012739775472e+001
1	 3.543855296257858e+000	 1.513019404329851e+000	-1.036598516053776e+001
1	 3.527529144611624e+000	 1.550701969611245e+000	-1.062177579933298e+001
1	 3.510768368613983e+000	 1.588283422620452e+000	-1.084198996341113e+001
1	 3.493573358605612e+000	 1.625756493948621e+000	-1.102665545647828e+001
1	 3.475944662366649e+000	 1.663113895856761e+000	-1.117581480199225e+001
1	 3.457882986310363e+000	 1.700348326425160e+000	-1.128952553329039e+001
1	 3.439389196548954e+000	 1.737452473762821e+000	-1.136786047545476e+001
1	 3.420464319828467e+000	 1.774419020272465e+000	-1.141090801825880e+001
1	 3.401109544329980e+000	 1.811240646966445e+000	-1.141877237953695e+001
1	 3.381326220334416e+000	 1.847910037828777e+000	-1.139157385832126e+001
1	 3.361115860748502e+000	 1.884419884218392e+000	-1.132944907709176e+001
1	 3.568377827855136e+000	 1.523489094272510e+000	-9.902305199777967e+000
1	 3.551938703602373e+000	 1.561432412835328e+000	-1.015639057744194e+001
1	 3.535061947513740e+000	 1.599273919456093e+000	-1.037440934609450e+001
1	 3.517747952630995e+000	 1.637006294423581e+000	-1.055652801049182e+001
1	 3.499997270524786e+000	 1.674622199569590e+000	-1.070293765899146e+001
1	 3.481810612496596e+000	 1.712114282447062e+000	-1.081385411809540e+001
1	 3.463188850651910e+000	 1.749475180568665e+000	-1.088951807925504e+001
1	 3.444133018841605e+000	 1.786697525701295e+000	-1.093019519728708e+001
1	 3.424644313468674e+000	 1.823773948211854e+000	-1.093617615979989e+001
1	 3.404724094157646e+000	 1.860697081459480e+000	-1.090777672707876e+001
1	 3.384373884284179e+000	 1.897459566229250e+000	-1.084533774193377e+001
1	 3.592900359451976e+000	 1.533958784214570e+000	-9.437466516290403e+000
1	 3.576348262592756e+000	 1.572162856058811e+000	-9.689161138490656e+000
1	 3.559355526413215e+000	 1.610264416291135e+000	-9.904361765054372e+000
1	 3.541922546656179e+000	 1.648256094897946e+000	-1.008338926258796e+001
1	 3.524049878682809e+000	 1.686130503281826e+000	-1.022660057163531e+001
1	 3.505738238682795e+000	 1.723880238468381e+000	-1.033438871346417e+001
1	 3.486988504754906e+000	 1.761497887373938e+000	-1.040718274649343e+001
1	 3.467801717854845e+000	 1.798976031129568e+000	-1.044544767169806e+001
1	 3.448179082607520e+000	 1.836307249456731e+000	-1.044968428643600e+001
1	 3.428121967981061e+000	 1.873484125089678e+000	-1.042042898624862e+001
1	 3.407631907820056e+000	 1.910499248239641e+000	-1.035825351429880e+001
1	 3.617422891048259e+000	 1.544428474155829e+000	-8.972189784291309e+000
1	 3.600757821582672e+000	 1.582893299281493e+000	-9.220688400720338e+000
1	 3.583649105312324e+000	 1.621254913125378e+000	-9.432349914017882e+000
1	 3.566097140681105e+000	 1.659505895371513e+000	-9.607664880780646e+000
1	 3.548102486840681e+000	 1.697638806993271e+000	-9.747173026939599e+000
1	 3.529665864868949e+000	 1.735646194488917e+000	-9.851463094726849e+000
1	 3.510788158857955e+000	 1.773520594178442e+000	-9.921172613546545e+000
1	 3.491470416868222e+000	 1.811254536557092e+000	-9.956987594056971e+000
1	 3.471713851746570e+000	 1.848840550700882e+000	-9.959642144941185e+000
1	 3.451519841804724e+000	 1.886271168719184e+000	-9.929918012018455e+000
1	 3.430889931356198e+000	 1.923538930249378e+000	-9.868644039525668e+000
1	 3.198309695998757e+000	 1.793142110144684e+000	-1.459465080279704e+001
1	 3.178670556813624e+000	 1.827729904041205e+000	-1.450438801980705e+001
1	 3.158628293608680e+000	 1.862151961492184e+000	-1.436947975894969e+001
1	 3.138184815363838e+000	 1.896401373359605e+000	-1.419136936974139e+001
1	 3.117342186515054e+000	 1.930471254663603e+000	-1.397162552962606e+001
1	 3.096102626762257e+000	 1.964354748895379e+000	-1.371194107337877e+001
1	 3.074468510735241e+000	 1.998045032338639e+000	-1.341413160348097e+001
1	 3.052442367516637e+000	 2.031535318394141e+000	-1.308013388184820e+001
1	 3.030026880021337e+000	 2.064818861901896e+000	-1.271200400383589e+001
1	 3.007224884231967e+000	 2.097888963455510e+000	-1.231191535599741e+001
1	 2.984039368290266e+000	 2.130738973703104e+000	-1.188215635961960e+001
1	 3.221567719534899e+000	 1.806181792153682e+000	-1.414498939815541e+001
1	 3.201785765048789e+000	 1.841021107572606e+000	-1.405291210631757e+001
1	 3.181597755035698e+000	 1.875693481314890e+000	-1.391783009405883e+001
1	 3.161005612357592e+000	 1.910191953999461e+000	-1.374125073932431e+001
1	 3.140011416462943e+000	 1.944509590579075e+000	-1.352481012809044e+001
1	 3.118617403193275e+000	 1.978639484684597e+000	-1.327027178156880e+001
1	 3.096825964446623e+000	 2.012574762977861e+000	-1.297952515657091e+001
1	 3.074639647697042e+000	 2.046308589507667e+000	-1.265458391955951e+001
1	 3.052061155369498e+000	 2.079834170063414e+000	-1.229758399547875e+001
1	 3.029093344069807e+000	 2.113144756520816e+000	-1.191078139302505e+001
1	 3.005739223669392e+000	 2.146233651174094e+000	-1.149654980859446e+001
1	 3.244825743070775e+000	 1.819221474163497e+000	-1.368884637107101e+001
1	 3.224900973283702e+000	 1.854312311104829e+000	-1.359520367602952e+001
1	 3.204567216462507e+000	 1.889235001138424e+000	-1.346035780471540e+001
1	 3.183826409351195e+000	 1.923982534640148e+000	-1.328585455164000e+001
1	 3.162680646410757e+000	 1.958547926495381e+000	-1.307337013565915e+001
1	 3.141132179624305e+000	 1.992924220474647e+000	-1.282470985752875e+001
1	 3.119183418158109e+000	 2.027104493617908e+000	-1.254180652607221e+001
1	 3.096836927877634e+000	 2.061081860622006e+000	-1.222671865359223e+001
1	 3.074095430717927e+000	 2.094849478225727e+000	-1.188162842173698e+001
1	 3.050961803907982e+000	 2.128400549586890e+000	-1.150883941961669e+001
1	 3.027439079048901e+000	 2.161728328645818e+000	-1.111077415654955e+001
1	 3.268083766606453e+000	 1.832261156173944e+000	-1.322676657913607e+001
1	 3.248016181518426e+000	 1.867603514637696e+000	-1.313187998986318e+001
1	 3.227536677889154e+000	 1.902776520962611e+000	-1.299772912608641e+001
1	 3.206647206344685e+000	 1.937773115281502e+000	-1.282587313185181e+001
1	 3.185349876358512e+000	 1.972586262412363e+000	-1.261800165203095e+001
1	 3.163646956055338e+000	 2.007208956265380e+000	-1.237593345239750e+001
1	 3.141540871869665e+000	 2.041634224258641e+000	-1.210161480699351e+001
1	 3.119034208058361e+000	 2.075855131737029e+000	-1.179711765348494e+001
1	 3.096129706066547e+000	 2.109864786388715e+000	-1.146463751778956e+001
1	 3.072830263746393e+000	 2.143656342653622e+000	-1.110649120984932e+001
1	 3.049138934428674e+000	 2.177223006118176e+000	-1.072511429300826e+001
1	 3.291341790142000e+000	 1.845300838184841e+000	-1.275927947915934e+001
1	 3.271131389753024e+000	 1.880894718171027e+000	-1.266354086142422e+001
1	 3.250506139315696e+000	 1.916318040787283e+000	-1.253059146173257e+001
1	 3.229468003338096e+000	 1.951563695923356e+000	-1.236197923606464e+001
1	 3.208019106306229e+000	 1.986624598329863e+000	-1.215938110115618e+001
1	 3.186161732486373e+000	 2.021493692056647e+000	-1.192460154889433e+001
1	 3.163898325581261e+000	 2.056163954899921e+000	-1.165957102987268e+001
1	 3.141231488239165e+000	 2.090628402852605e+000	-1.136634410683479e+001
1	 3.118163981415278e+000	 2.124880094552258e+000	-1.104709737931539e+001
1	 3.094698723584940e+000	 2.158912135720904e+000	-1.070412718137253e+001
1	 3.070838789808596e+000	 2.192717683591067e+000	-1.033984705489081e+001
1	 3.314599813677478e+000	 1.858340520196004e+000	-1.228689966749052e+001
1	 3.294246597987558e+000	 1.894185921704647e+000	-1.219076926912895e+001
1	 3.273475600742184e+000	 1.929859560612265e+000	-1.205957404430034e+001
1	 3.252288800331470e+000	 1.965354276565548e+000	-1.189482673788980e+001
1	 3.230688336253921e+000	 2.000662934247726e+000	-1.169816592154480e+001
1	 3.208676508917402e+000	 2.035778427848300e+000	-1.147135463382743e+001
1	 3.186255779292867e+000	 2.070693685541607e+000	-1.121627879455435e+001
1	 3.163428768419997e+000	 2.105401673968605e+000	-1.093494539404494e+001
1	 3.140198256764045e+000	 2.139895402716234e+000	-1.062948045856677e+001
1	 3.116567183423526e+000	 2.174167928788624e+000	-1.030212679383980e+001
1	 3.092538645188554e+000	 2.208212361064393e+000	-9.955241509033501e+000
1	 3.337857837212957e+000	 1.871380202207249e+000	-1.181012739775472e+001
1	 3.317361806222093e+000	 1.907477125238375e+000	-1.171413194273806e+001
1	 3.296445062168671e+000	 1.943401080437387e+000	-1.158528856859195e+001
1	 3.275109597324840e+000	 1.979144857207913e+000	-1.142505128630646e+001
1	 3.253357566201610e+000	 2.014701270165795e+000	-1.123499522771438e+001
1	 3.231191285348421e+000	 2.050063163640192e+000	-1.101681534248697e+001
1	 3.208613233004458e+000	 2.085223416183561e+000	-1.077232487747111e+001
1	 3.185626048600801e+000	 2.120174945084898e+000	-1.050345363904317e+001
1	 3.162232532112769e+000	 2.154910710880526e+000	-1.021224603970284e+001
1	 3.138435643262051e+000	 2.189423721856671e+000	-9.900858930682087e+000
1	 3.114238500568427e+000	 2.223707038538050e+000	-9.571559222896457e+000
1	 3.361115860748502e+000	 1.884419884218392e+000	-1.132944907709176e+001
1	 3.340477014456691e+000	 1.920768328772035e+000	-1.123417992553836e+001
1	 3.319414523595213e+000	 1.956942600262478e+000	-1.110832979835142e+001
1	 3.297930394318246e+000	 1.992935437850285e+000	-1.095327093620936e+001
1	 3.276026796149311e+000	 2.028739606083913e+000	-1.077049044417566e+001
1	 3.253706061779425e+000	 2.064347899432173e+000	-1.056158907628361e+001
1	 3.230970686716002e+000	 2.099753146825644e+000	-1.032827981371078e+001
1	 3.207823328781522e+000	 2.134948216201356e+000	-1.007238623713544e+001
1	 3.184266807461373e+000	 2.169926019045012e+000	-9.795840694387849e+000
1	 3.160304103100418e+000	 2.204679514924936e+000	-9.500682265031191e+000
1	 3.135938355948102e+000	 2.239201716011940e+000	-9.189054524031874e+000
1	 3.384373884284179e+000	 1.897459566229250e+000	-1.084533774193377e+001
1	 3.363592222691414e+000	 1.934059532305448e+000	-1.075144911334406e+001
1	 3.342383985021856e+000	 1.970484120087366e+000	-1.062927614803076e+001
1	 3.320751191311724e+000	 2.006726018492501e+000	-1.048008675295741e+001
1	 3.298696026097039e+000	 2.042777942001923e+000	-1.030525591327692e+001
1	 3.276220838210408e+000	 2.078632635224095e+000	-1.010626459491999e+001
1	 3.253328140427467e+000	 2.114282877467717e+000	-9.884698455083633e+000
1	 3.230020608962106e+000	 2.149721487317849e+000	-9.642246361094664e+000
1	 3.206301082809782e+000	 2.184941327209572e+000	-9.380698718603908e+000
1	 3.182172562938527e+000	 2.219935307993308e+000	-9.101945610554587e+000
1	 3.157638211327462e+000	 2.254696393485963e+000	-8.807974748853910e+000
1	 3.407631907820056e+000	 1.910499248239641e+000	-1.035825351429881e+001
1	 3.386707430926325e+000	 1.947350735838435e+000	-1.026646077142512e+001
1	 3.365353446448660e+000	 1.984025639911877e+000	-1.014869024073214e+001
1	 3.343571988305312e+000	 2.020516599134395e+000	-1.000608339216475e+001
1	 3.321365256044817e+000	 2.056816277919669e+000	-9.839879478156377e+000
1	 3.298735614641366e+000	 2.092917371015813e+000	-9.651414584311890e+000
1	 3.275685594138827e+000	 2.128812608109639e+000	-9.442120505335765e+000
1	 3.252217889142500e+000	 2.164494758434245e+000	-9.213523446523839e+000
1	 3.228335358157915e+000	 2.199956635374084e+000	-8.967242551575463e+000
1	 3.204041022776280e+000	 2.235191101061678e+000	-8.704988257923249e+000
1	 3.179338066706392e+000	 2.270191070960018e+000	-8.428560481220643e+000
1	 3.430889931356198e+000	 1.923538930249378e+000	-9.868644039525664e+000
1	 3.409822639161488e+000	 1.960641939370820e+000	-9.779722030410053e+000
1	 3.388322907875673e+000	 1.997567159735842e+000	-9.667119443455993e+000
1	 3.366392785299045e+000	 2.034307179775804e+000	-9.531829655909696e+000
1	 3.344034485992657e+000	 2.070854613836993e+000	-9.374933041983145e+000
1	 3.321250391072291e+000	 2.107202106807173e+000	-9.197596201409672e+000
1	 3.298043047850051e+000	 2.143342338751271e+000	-9.001071033593060e+000
1	 3.274415169322649e+000	 2.179268029550414e+000	-8.786693657478120e+000
1	 3.250369633505694e+000	 2.214971943538431e+000	-8.555883177654398e+000
1	 3.225909482613577e+000	 2.250446894129933e+000	-8.310140297593783e+000
1	 3.201037922084772e+000	 2.285685748434004e+000	-8.051045781312325e+000
1	 2.984039368290266e+000	 2.130738973703104e+000	-1.188215635961960e+001
1	 2.960473470602511e+000	 2.163362296908118e+000	-1.143601825948334e+001
1	 2.936530476140904e+000	 2.195752392999227e+000	-1.098497578493872e+001
1	 2.912213817674249e+000	 2.227902783885794e+000	-1.052865600908240e+001
1	 2.887527075140474e+000	 2.259807058363651e+000	-1.006665803819553e+001
1	 2.862473974030364e+000	 2.291458876269917e+000	-9.598553753678992e+000
1	 2.837058383631288e+000	 2.322851972591213e+000	-9.123888611086144e+000
1	 2.811284315132539e+000	 2.353980161519818e+000	-8.642182494844729e+000
1	 2.785155919594005e+000	 2.384837340452331e+000	-8.152930627103670e+000
1	 2.758677485780280e+000	 2.415417493925475e+000	-7.655604528990976e+000
1	 2.731853437862469e+000	 2.445714697483801e+000	-7.149653032422107e+000
1	 3.005739223669392e+000	 2.146233651174094e+000	-1.149654980859446e+001
1	 2.982001955396933e+000	 2.179094210322679e+000	-1.106730019502959e+001
1	 2.957884848112856e+000	 2.211719846336016e+000	-1.063346228986314e+001
1	 2.933391359548965e+000	 2.244104034014959e+000	-1.019449890725223e+001
1	 2.908525095676398e+000	 2.276240315533231e+000	-9.749839274886538e+000
1	 2.883289809077597e+000	 2.308122304622442e+000	-9.298880072645808e+000
1	 2.857689397177289e+000	 2.339743690710203e+000	-8.840986539921092e+000
1	 2.831727900334018e+000	 2.371098243005753e+000	-8.375493649597578e+000
1	 2.805409499794068e+000	 2.402179814527716e+000	-7.901707346511269e+000
1	 2.778738515509806e+000	 2.432982346068519e+000	-7.418905848009835e+000
1	 2.751719403824789e+000	 2.463499870090225e+000	-6.926341004073905e+000
1	 3.027439079048901e+000	 2.161728328645818e+000	-1.111077415654955e+001
1	 3.003530440191761e+000	 2.194826123737929e+000	-1.069888873478897e+001
1	 2.979239220085217e+000	 2.227687299673442e+000	-1.028253694949812e+001
1	 2.954568901424074e+000	 2.260305284144703e+000	-9.861046299730411e+000
1	 2.929523116212681e+000	 2.292673572703324e+000	-9.433706413787467e+000
1	 2.904105644125149e+000	 2.324785732975416e+000	-8.999770337118704e+000
1	 2.878320410723559e+000	 2.356635408829572e+000	-8.558455897868740e+000
1	 2.852171485535715e+000	 2.388216324492001e+000	-8.108947147570333e+000
1	 2.825663079994293e+000	 2.419522288603348e+000	-7.650395874266156e+000
1	 2.798799545239444e+000	 2.450547198211751e+000	-7.181923185140608e+000
1	 2.771585369787177e+000	 2.481285042696783e+000	-6.702621155543758e+000
1	 3.049138934428674e+000	 2.177223006118176e+000	-1.072511429300826e+001
1	 3.025058924986865e+000	 2.210558037153778e+000	-1.033095279842658e+001
1	 3.000593592057848e+000	 2.243654753011424e+000	-9.932272057700409e+000
1	 2.975746443299435e+000	 2.276506534274954e+000	-9.528292539330373e+000
1	 2.950521136749184e+000	 2.309106829873869e+000	-9.118193872753073e+000
1	 2.924921479172884e+000	 2.341449161328782e+000	-8.701116338602530e+000
1	 2.898951424269965e+000	 2.373527126949274e+000	-8.276162443053662e+000
1	 2.872615070737501e+000	 2.405334405978518e+000	-7.842398573330847e+000
1	 2.845916660194563e+000	 2.436864762679191e+000	-7.398856731236319e+000
1	 2.818860574969084e+000	 2.468112050355137e+000	-6.944536341330672e+000
1	 2.791451335749533e+000	 2.499070215303443e+000	-6.478406130185128e+000
1	 3.070838789808596e+000	 2.192717683591067e+000	-1.033984705489081e+001
1	 3.046587409782116e+000	 2.226289950570137e+000	-9.963656530974282e+000
1	 3.021947964030613e+000	 2.259622206349883e+000	-9.582737864889936e+000
1	 2.996923985174903e+000	 2.292707784405640e+000	-9.196232138487448e+000
1	 2.971519157285764e+000	 2.325540087044802e+000	-8.803237923363529e+000
1	 2.945737314220657e+000	 2.358112589682488e+000	-8.402812927191611e+000
1	 2.919582437816374e+000	 2.390418845069260e+000	-7.993975728041647e+000
1	 2.893058655939248e+000	 2.422452487465267e+000	-7.575707593451027e+000
1	 2.866170240394756e+000	 2.454207236755209e+000	-7.146954380765719e+000
1	 2.838921604698617e+000	 2.485676902498641e+000	-6.706628515038473e+000
1	 2.811317301711756e+000	 2.516855387910169e+000	-6.253611040548639e+000
1	 3.092538645188554e+000	 2.208212361064393e+000	-9.955241509033501e+000
1	 3.068115894577388e+000	 2.242021863986914e+000	-9.597159470344778e+000
1	 3.043302336003375e+000	 2.275589659688736e+000	-9.234002649742299e+000
1	 3.018101527050339e+000	 2.308909034536690e+000	-8.864859763658398e+000
1	 2.992517177822280e+000	 2.341973344216063e+000	-8.488776625888370e+000
1	 2.966553149268331e+000	 2.374776018036476e+000	-8.104757904261623e+000
1	 2.940213451362647e+000	 2.407310563189484e+000	-7.711768966714866e+000
1	 2.913502241140829e+000	 2.439570568952201e+000	-7.308737813292898e+000
1	 2.886423820594753e+000	 2.471549710831364e+000	-6.894557090355749e+000
1	 2.858982634427930e+000	 2.503241754642230e+000	-6.468086183034396e+000
1	 2.831183267673744e+000	 2.534640560516928e+000	-6.028153381752347e+000
1	 3.114238500568427e+000	 2.223707038538050e+000	-9.571559222896454e+000
1	 3.089644379372549e+000	 2.257753777404020e+000	-9.231616707842402e+000
1	 3.064656707975995e+000	 2.291557113027905e+000	-8.886132787883735e+000
1	 3.039279068925603e+000	 2.325110284668033e+000	-8.534170229955524e+000
1	 3.013515198358590e+000	 2.358406601387589e+000	-8.174749766968592e+000
1	 2.987368984315767e+000	 2.391439446390696e+000	-7.806851919647462e+000
1	 2.960844464908652e+000	 2.424202281309897e+000	-7.429418906712439e+000
1	 2.933945826342114e+000	 2.456688650439283e+000	-7.041356639782244e+000
1	 2.906677400794436e+000	 2.488892184907615e+000	-6.641536799129213e+000
1	 2.879043664156916e+000	 2.520806606785869e+000	-6.228798986185289e+000
1	 2.851049233635401e+000	 2.552425733123689e+000	-5.801952948473651e+000
1	 3.135938355948102e+000	 2.239201716011940e+000	-9.189054524031874e+000
1	 3.111172864167472e+000	 2.273485690821364e+000	-8.867179042010108e+000
1	 3.086011079948338e+000	 2.307524566367307e+000	-8.539192817734067e+000
1	 3.060456610800551e+000	 2.341311534799600e+000	-8.204158496003318e+000
1	 3.034513218894551e+000	 2.374839858559316e+000	-7.861098799886760e+000
1	 3.008184819362826e+000	 2.408102874745090e+000	-7.508998373090574e+000
1	 2.981475478454255e+000	 2.441093999430454e+000	-7.146805707167265e+000
1	 2.954389411542977e+000	 2.473806731926468e+000	-6.773435149879470e+000
1	 2.926930980993686e+000	 2.506234658983931e+000	-6.387768990797315e+000
1	 2.899104693885463e+000	 2.538371458929526e+000	-5.988659619980922e+000
1	 2.870915199596624e+000	 2.570210905730416e+000	-5.574931755387599e+000
1	 3.157638211327462e+000	 2.254696393485963e+000	-8.807974748853910e+000
1	 3.132701348962026e+000	 2.289217604238856e+000	-8.503993126132112e+000
1	 3.107365451920267e+000	 2.323492019706864e+000	-8.193245503634742e+000
1	 3.081634152675045e+000	 2.357512784931316e+000	-7.874819659007216e+000
1	 3.055511239430021e+000	 2.391273115731184e+000	-7.547766787299592e+000
1	 3.029000654409365e+000	 2.424766303099605e+000	-7.211103319749610e+000
1	 3.002106491999317e+000	 2.457985717551105e+000	-6.863812821483812e+000
1	 2.974832996743293e+000	 2.490924813413718e+000	-6.504847964474001e+000
1	 2.947184561192380e+000	 2.523577133060271e+000	-6.133132571864262e+000
1	 2.919165723613464e+000	 2.555936311073163e+000	-5.747563729574428e+000
1	 2.890781165557315e+000	 2.587996078337078e+000	-5.347013960885778e+000
1	 3.179338066706392e+000	 2.270191070960018e+000	-8.428560481220643e+000
1	 3.154229833756086e+000	 2.304949517656405e+000	-8.142201609696929e+000
1	 3.128719823891644e+000	 2.339459473046493e+000	-7.848351896391797e+000
1	 3.102811694548941e+000	 2.373714035063113e+000	-7.546148950024350e+000
1	 3.076509259964860e+000	 2.407706372903130e+000	-7.234698346315890e+000
1	 3.049816489455247e+000	 2.441429731454188e+000	-6.913075379580622e+000
1	 3.022737505543709e+000	 2.474877435671805e+000	-6.580326884916945e+000
1	 2.995276581942928e+000	 2.508042894900989e+000	-6.235473127442825e+000
1	 2.967438141390403e+000	 2.540919607136598e+000	-5.877509754819862e+000
1	 2.939226753340806e+000	 2.573501163216748e+000	-5.505409809120986e+000
1	 2.910647131517372e+000	 2.605781250943639e+000	-5.118125793919106e+000
1	 3.201037922084772e+000	 2.285685748434004e+000	-8.051045781312325e+000
1	 3.175758318549517e+000	 2.320681431073920e+000	-7.781943274105950e+000
1	 3.150074195862330e+000	 2.355426926386115e+000	-7.504571391355971e+000
1	 3.123989236422098e+000	 2.389915285194917e+000	-7.218141729426684e+000
1	 3.097507280498922e+000	 2.424139630075088e+000	-6.921839595808340e+000
1	 3.070632324500331e+000	 2.458093159808781e+000	-6.614825650403298e+000
1	 3.043368519087290e+000	 2.491769153792503e+000	-6.296237606722661e+000
1	 3.015720167141756e+000	 2.525160976388238e+000	-5.965191989628268e+000
1	 2.987691721587632e+000	 2.558262081212876e+000	-5.620785946083009e+000
1	 2.959287783067378e+000	 2.591066015360244e+000	-5.262099105210794e+000
1	 2.930513097476696e+000	 2.623566423550066e+000	-4.888195483816052e+000
1	 2.731853437862469e+000	 2.445714697483801e+000	-7.149653032422107e+000
1	 2.704692433297279e+000	 2.475718642763605e+000	-6.638089854733737e+000
1	 2.677195161938863e+000	 2.505428168867732e+000	-6.124643694567399e+000
1	 2.649366439270083e+000	 2.534837651707582e+000	-5.610048720206709e+000
1	 2.621211205591807e+000	 2.563941572878231e+000	-5.095037745356896e+000
1	 2.592734523104852e+000	 2.592734523104852e+000	-4.580341275340853e+000
1	 2.563941572878232e+000	 2.621211205591807e+000	-4.066686556751827e+000
1	 2.534837651707582e+000	 2.649366439270082e+000	-3.554796632428209e+000
1	 2.505428168867733e+000	 2.677195161938863e+000	-3.045389403604307e+000
1	 2.475718642763607e+000	 2.704692433297279e+000	-2.539176701071520e+000
1	 2.445714697483802e+000	 2.731853437862469e+000	-2.036863367162840e+000
1	 2.751719403824789e+000	 2.463499870090225e+000	-6.926341004073905e+000
1	 2.724360885152517e+000	 2.493722003266977e+000	-6.427087646960620e+000
1	 2.696663654363745e+000	 2.523647576259597e+000	-5.925209842995199e+000
1	 2.668632561959408e+000	 2.553270924081257e+000	-5.421650653173674e+000
1	 2.640272584166119e+000	 2.582586488197334e+000	-4.917355175404466e+000
1	 2.611588819996889e+000	 2.611588819996889e+000	-4.413269193548031e+000
1	 2.582586488197334e+000	 2.640272584166120e+000	-3.910337824151689e+000
1	 2.553270924081257e+000	 2.668632561959408e+000	-3.409504163605284e+000
1	 2.523647576259597e+000	 2.696663654363744e+000	-2.911707938444299e+000
1	 2.493722003266977e+000	 2.724360885152516e+000	-2.417884161519376e+000
1	 2.463499870090225e+000	 2.751719403824789e+000	-1.928961796735038e+000
1	 2.771585369787177e+000	 2.481285042696783e+000	-6.702621155543758e+000
1	 2.744029337007786e+000	 2.511725363770436e+000	-6.215695587648392e+000
1	 2.716132146788636e+000	 2.541866983651510e+000	-5.725567454815336e+000
1	 2.687898684648724e+000	 2.571704196454952e+000	-5.233353804262893e+000
1	 2.659333962740415e+000	 2.601231403516437e+000	-4.740176629519127e+000
1	 2.630443116888912e+000	 2.630443116888913e+000	-4.247161183369911e+000
1	 2.601231403516436e+000	 2.659333962740416e+000	-3.755434283534212e+000
1	 2.571704196454953e+000	 2.687898684648724e+000	-3.266122614522640e+000
1	 2.541866983651512e+000	 2.716132146788635e+000	-2.780351029147345e+000
1	 2.511725363770436e+000	 2.744029337007785e+000	-2.299240853152363e+000
1	 2.481285042696784e+000	 2.771585369787176e+000	-1.823908196424783e+000
1	 2.791451335749533e+000	 2.499070215303443e+000	-6.478406130185128e+000
1	 2.763697788862998e+000	 2.529728724273947e+000	-6.003861619279213e+000
1	 2.735600639213450e+000	 2.560086391043439e+000	-5.525692162277799e+000
1	 2.707164807337962e+000	 2.590137468828628e+000	-5.045154640736318e+000
1	 2.678395341314634e+000	 2.619876318835491e+000	-4.563513316639633e+000
1	 2.649297413780869e+000	 2.649297413780869e+000	-4.082037869555105e+000
1	 2.619876318835491e+000	 2.678395341314634e+000	-3.602001422329887e+000
1	 2.590137468828628e+000	 2.707164807337961e+000	-3.124678559389970e+000
1	 2.560086391043440e+000	 2.735600639213450e+000	-2.651343341720241e+000
1	 2.529728724273948e+000	 2.763697788862997e+000	-2.183267322613443e+000
1	 2.499070215303442e+000	 2.791451335749532e+000	-1.721717568272771e+000
1	 2.811317301711756e+000	 2.516855387910169e+000	-6.253611040548641e+000
1	 2.783366240718062e+000	 2.547732084777479e+000	-5.791535155777788e+000
1	 2.755069131638113e+000	 2.578305798435343e+000	-5.325560286404190e+000
1	 2.726430930027048e+000	 2.608570741202241e+000	-4.857049729711167e+000
1	 2.697456719888714e+000	 2.638521234154452e+000	-4.387376128876094e+000
1	 2.668151710672706e+000	 2.668151710672706e+000	-3.917919293879127e+000
1	 2.638521234154452e+000	 2.697456719888714e+000	-3.450064007548982e+000
1	 2.608570741202241e+000	 2.726430930027048e+000	-2.985197821278066e+000
1	 2.578305798435342e+000	 2.755069131638112e+000	-2.524708844967588e+000
1	 2.547732084777480e+000	 2.783366240718061e+000	-2.069983535780040e+000
1	 2.516855387910169e+000	 2.811317301711755e+000	-1.622404490276319e+000
1	 2.831183267673744e+000	 2.534640560516928e+000	-6.028153381752347e+000
1	 2.803034692572887e+000	 2.565735445280995e+000	-5.578667030886791e+000
1	 2.774537624062541e+000	 2.596525205827185e+000	-5.125148812822766e+000
1	 2.745697052715913e+000	 2.627004013575750e+000	-4.669035734656680e+000
1	 2.716518098462591e+000	 2.657166149473270e+000	-4.211775652625747e+000
1	 2.687006007564368e+000	 2.687006007564369e+000	-3.754824935597450e+000
1	 2.657166149473270e+000	 2.716518098462590e+000	-3.299646111056916e+000
1	 2.627004013575751e+000	 2.745697052715912e+000	-2.847705498472005e+000
1	 2.596525205827186e+000	 2.774537624062540e+000	-2.400470834952609e+000
1	 2.565735445280997e+000	 2.803034692572887e+000	-1.959408898139849e+000
1	 2.534640560516928e+000	 2.831183267673744e+000	-1.525983131266592e+000
1	 2.851049233635401e+000	 2.552425733123689e+000	-5.801952948473651e+000
1	 2.822703144427385e+000	 2.583738805784463e+000	-5.365209448700881e+000
1	 2.794006116486654e+000	 2.614744613218929e+000	-4.924435368613651e+000
1	 2.764963175404485e+000	 2.645437285949114e+000	-4.481109412037192e+000
1	 2.735579477036205e+000	 2.675811064791899e+000	-4.036722179223878e+000
1	 2.705860304455802e+000	 2.705860304455802e+000	-3.592773731043800e+000
1	 2.675811064791898e+000	 2.735579477036205e+000	-3.150771133792831e+000
1	 2.645437285949114e+000	 2.764963175404485e+000	-2.712225989722452e+000
1	 2.614744613218929e+000	 2.794006116486654e+000	-2.278651958435301e+000
1	 2.583738805784464e+000	 2.822703144427384e+000	-1.851562274314625e+000
1	 2.552425733123689e+000	 2.851049233635401e+000	-1.432467265163781e+000
1	 2.870915199596624e+000	 2.570210905730416e+000	-5.574931755387597e+000
1	 2.842371596281463e+000	 2.601742166287846e+000	-5.151115936254355e+000
1	 2.813474608910373e+000	 2.632964020610537e+000	-4.723398200115534e+000
1	 2.784229298092693e+000	 2.663870558322291e+000	-4.293267608094583e+000
1	 2.754640855609494e+000	 2.694455980110292e+000	-3.862225715152588e+000
1	 2.724714601346951e+000	 2.724714601346951e+000	-3.431784092414265e+000
1	 2.694455980110292e+000	 2.754640855609494e+000	-3.003461828982922e+000
1	 2.663870558322292e+000	 2.784229298092693e+000	-2.578783018448700e+000
1	 2.632964020610537e+000	 2.813474608910372e+000	-2.159274235337427e+000
1	 2.601742166287847e+000	 2.842371596281464e+000	-1.746462006773423e+000
1	 2.570210905730416e+000	 2.870915199596624e+000	-1.341870284640570e+000
1	 2.890781165557315e+000	 2.587996078337078e+000	-5.347013960885779e+000
1	 2.862040048135035e+000	 2.619745526791112e+000	-4.936341298063667e+000
1	 2.832943101333616e+000	 2.651183428001972e+000	-4.522016151647309e+000
1	 2.803495420780469e+000	 2.682303830695240e+000	-4.105507255763568e+000
1	 2.773702234182394e+000	 2.713100895428402e+000	-3.688295991828626e+000
1	 2.743568898237763e+000	 2.743568898237764e+000	-3.271873925777288e+000
1	 2.713100895428401e+000	 2.773702234182393e+000	-2.857740324396269e+000
1	 2.682303830695241e+000	 2.803495420780466e+000	-2.447399655943608e+000
1	 2.651183428001974e+000	 2.832943101333616e+000	-2.042359080281283e+000
1	 2.619745526791113e+000	 2.862040048135034e+000	-1.644125933774286e+000
1	 2.587996078337078e+000	 2.890781165557315e+000	-1.254205214222140e+000
1	 2.910647131517372e+000	 2.605781250943639e+000	-5.118125793919106e+000
1	 2.881708499988007e+000	 2.637748887294224e+000	-4.720841572531684e+000
1	 2.852411593756304e+000	 2.669402835393198e+000	-4.320268645101201e+000
1	 2.822761543467736e+000	 2.700737103067920e+000	-3.917825371713028e+000
1	 2.792763612754842e+000	 2.731745810746180e+000	-3.514942474990310e+000
1	 2.762423195128184e+000	 2.762423195128184e+000	-3.113060648345968e+000
1	 2.731745810746180e+000	 2.792763612754842e+000	-2.713628143689512e+000
1	 2.700737103067920e+000	 2.822761543467736e+000	-2.318098343628297e+000
1	 2.669402835393199e+000	 2.852411593756304e+000	-1.927927323246399e+000
1	 2.637748887294225e+000	 2.881708499988006e+000	-1.544571406571069e+000
1	 2.605781250943640e+000	 2.910647131517373e+000	-1.169484722849663e+000
1	 2.930513097476696e+000	 2.623566423550066e+000	-4.888195483816052e+000
1	 2.901376951840289e+000	 2.655752247797149e+000	-4.504573990125065e+000
1	 2.871880086178356e+000	 2.687622242784177e+000	-4.118135660365973e+000
1	 2.842027666154426e+000	 2.719170375440287e+000	-3.730219053507972e+000
1	 2.811824991326779e+000	 2.750390726063579e+000	-3.342174373702791e+000
1	 2.781277492018158e+000	 2.781277492018158e+000	-2.955361205047761e+000
1	 2.750390726063579e+000	 2.811824991326779e+000	-2.571146226883274e+000
1	 2.719170375440287e+000	 2.842027666154426e+000	-2.190900914401757e+000
1	 2.687622242784177e+000	 2.871880086178355e+000	-1.815999229385944e+000
1	 2.655752247797150e+000	 2.901376951840288e+000	-1.447815305920545e+000
1	 2.623566423550066e+000	 2.930513097476695e+000	-1.087721135932857e+000
1	 2.445714697483802e+000	 2.731853437862469e+000	-2.036863367162839e+000
1	 2.415417493925476e+000	 2.758677485780278e+000	-1.544436378372620e+000
1	 2.384837340452332e+000	 2.785155919594005e+000	-1.067064472729657e+000
1	 2.353980161519819e+000	 2.811284315132539e+000	-6.039915296201253e-001
1	 2.322851972591214e+000	 2.837058383631288e+000	-1.544588504603972e-001
1	 2.291458876269918e+000	 2.862473974030362e+000	 2.822935058592089e-001
1	 2.259807058363653e+000	 2.887527075140475e+000	 7.070253963809980e-001
1	 2.227902783885795e+000	 2.912213817674248e+000	 1.120495279072459e+000
1	 2.195752392999228e+000	 2.936530476140902e+000	 1.523458912092966e+000
1	 2.163362296908118e+000	 2.960473470602509e+000	 1.916668069965262e+000
1	 2.130738973703104e+000	 2.984039368290266e+000	 2.300869279219159e+000
1	 2.463499870090225e+000	 2.751719403824789e+000	-1.928961796735037e+000
1	 2.432982346068520e+000	 2.778738515509805e+000	-1.451118274628402e+000
1	 2.402179814527717e+000	 2.805409499794067e+000	-9.893867910527128e-001
1	 2.371098243005753e+000	 2.831727900334017e+000	-5.427518557617352e-001
1	 2.339743690710203e+000	 2.857689397177289e+000	-1.101941469451431e-001
1	 2.308122304622443e+000	 2.883289809077596e+000	 3.093076599726761e-001
1	 2.276240315533232e+000	 2.908525095676396e+000	 7.167750731342313e-001
1	 2.244104034014960e+000	 2.933391359548965e+000	 1.113227978435712e+000
1	 2.211719846336016e+000	 2.957884848112855e+000	 1.499682850824808e+000
1	 2.179094210322679e+000	 2.982001955396932e+000	 1.877150986365552e+000
1	 2.146233651174095e+000	 3.005739223669392e+000	 2.246636758646092e+000
1	 2.481285042696784e+000	 2.771585369787176e+000	-1.823908196424783e+000
1	 2.450547198211751e+000	 2.798799545239443e+000	-1.360675694253794e+000
1	 2.419522288603349e+000	 2.825663079994292e+000	-9.144493178025845e-001
1	 2.388216324492002e+000	 2.852171485535715e+000	-4.839974916894700e-001
1	 2.356635408829573e+000	 2.878320410723559e+000	-6.808335705282431e-002
1	 2.324785732975417e+000	 2.904105644125148e+000	 3.345329801083912e-001
1	 2.292673572703325e+000	 2.929523116212681e+000	 7.250922101394828e-001
1	 2.260305284144705e+000	 2.954568901424073e+000	 1.104833595163536e+000
1	 2.227687299673443e+000	 2.979239220085216e+000	 1.474992763361322e+000
1	 2.194826123737930e+000	 3.003530440191760e+000	 1.836799526635887e+000
1	 2.161728328645818e+000	 3.027439079048901e+000	 2.191475726107141e+000
1	 2.499070215303442e+000	 2.791451335749532e+000	-1.721717568272775e+000
1	 2.468112050355138e+000	 2.818860574969083e+000	-1.273117512241180e+000
1	 2.436864762679192e+000	 2.845916660194561e+000	-8.422539191241851e-001
1	 2.405334405978520e+000	 2.872615070737500e+000	-4.277214860328771e-001
1	 2.373527126949274e+000	 2.898951424269965e+000	-2.810797981177782e-002
1	 2.341449161328784e+000	 2.924921479172883e+000	 3.580031679659994e-001
1	 2.309106829873870e+000	 2.950521136749184e+000	 7.320302746972223e-001
1	 2.276506534274954e+000	 2.975746443299433e+000	 1.095390834574837e+000
1	 2.243654753011425e+000	 3.000593592057847e+000	 1.449498965906605e+000
1	 2.210558037153779e+000	 3.025058924986865e+000	 1.795762883204970e+000
1	 2.177223006118176e+000	 3.049138934428673e+000	 2.135582399226093e+000
1	 2.516855387910169e+000	 2.811317301711755e+000	-1.622404490276319e+000
1	 2.485676902498642e+000	 2.838921604698615e+000	-1.188452352724832e+000
1	 2.454207236755210e+000	 2.866170240394754e+000	-7.728024084143028e-001
1	 2.422452487465268e+000	 2.893058655939248e+000	-3.739170839067185e-001
1	 2.390418845069261e+000	 2.919582437816373e+000	 9.749962806857582e-003
1	 2.358112589682489e+000	 2.945737314220656e+000	 3.797509726430066e-001
1	 2.325540087044803e+000	 2.971519157285764e+000	 7.376412228171123e-001
1	 2.292707784405641e+000	 2.996923985174902e+000	 1.084976177327384e+000
1	 2.259622206349885e+000	 3.021947964030613e+000	 1.423308656499640e+000
1	 2.226289950570138e+000	 3.046587409782116e+000	 1.754186031472481e+000
1	 2.192717683591067e+000	 3.070838789808597e+000	 2.079147449397349e+000
1	 2.534640560516928e+000	 2.831183267673744e+000	-1.525983131266592e+000
1	 2.503241754642231e+000	 2.858982634427929e+000	-1.106688597782079e+000
1	 2.471549710831363e+000	 2.886423820594751e+000	-7.060965481722725e-001
1	 2.439570568952202e+000	 2.913502241140827e+000	-3.225777200174349e-001
1	 2.407310563189485e+000	 2.940213451362646e+000	 4.550794423615745e-002
1	 2.374776018036478e+000	 2.966553149268330e+000	 3.998082240561365e-001
1	 2.341973344216064e+000	 2.992517177822279e+000	 7.419755522405360e-001
1	 2.308909034536692e+000	 3.018101527050338e+000	 1.073663957468295e+000
1	 2.275589659688737e+000	 3.043302336003374e+000	 1.396526024412688e+000
1	 2.242021863986916e+000	 3.068115894577388e+000	 1.712209877760185e+000
1	 2.208212361064392e+000	 3.092538645188554e+000	 2.022356196371066e+000
1	 2.552425733123689e+000	 2.851049233635401e+000	-1.432467265163780e+000
1	 2.520806606785871e+000	 2.879043664156915e+000	-1.027834395866563e+000
1	 2.488892184907617e+000	 2.906677400794436e+000	-6.421380517732773e-001
1	 2.456688650439284e+000	 2.933945826342113e+000	-2.736970120577604e-001
1	 2.424202281309898e+000	 2.960844464908652e+000	 7.918295089347627e-002
1	 2.391439446390697e+000	 2.987368984315766e+000	 4.182058649653211e-001
1	 2.358406601387590e+000	 3.013515198358589e+000	 7.450823532462758e-001
1	 2.325110284668035e+000	 3.039279068925602e+000	 1.061526437221382e+000
1	 2.291557113027905e+000	 3.064656707975995e+000	 1.369252354975879e+000
1	 2.257753777404021e+000	 3.089644379372548e+000	 1.669971401077565e+000
1	 2.223707038538050e+000	 3.114238500568427e+000	 1.965388794703007e+000
1	 2.570210905730416e+000	 2.870915199596624e+000	-1.341870284640569e+000
1	 2.538371458929527e+000	 2.899104693885465e+000	-9.518976698912285e-001
1	 2.506234658983931e+000	 2.926930980993684e+000	-5.809285851678281e-001
1	 2.473806731926470e+000	 2.954389411542977e+000	-2.272687543757126e-001
1	 2.441093999430454e+000	 2.981475478454253e+000	 1.107914990303804e-001
1	 2.408102874745091e+000	 3.008184819362824e+000	 4.349739816681293e-001
1	 2.374839858559317e+000	 3.034513218894550e+000	 7.470093573468342e-001
1	 2.341311534799601e+000	 3.060456610800551e+000	 1.048633878669476e+000
1	 2.307524566367309e+000	 3.086011079948338e+000	 1.341586130049809e+000
1	 2.273485690821365e+000	 3.111172864167470e+000	 1.627603789001640e+000
1	 2.239201716011941e+000	 3.135938355948102e+000	 1.908420412463393e+000
1	 2.587996078337078e+000	 2.890781165557315e+000	-1.254205214222140e+000
1	 2.555936311073165e+000	 2.919165723613464e+000	-8.788861249781634e-001
1	 2.523577133060271e+000	 2.947184561192379e+000	-5.224697685114830e-001
1	 2.490924813413718e+000	 2.974832996743291e+000	-1.832869119045029e-001
1	 2.457985717551106e+000	 3.002106491999317e+000	 1.403496508881768e-001
1	 2.424766303099606e+000	 3.029000654409364e+000	 4.501418334286820e-001
1	 2.391273115731185e+000	 3.055511239430020e+000	 7.478029839768547e-001
1	 2.357512784931317e+000	 3.081634152675044e+000	 1.035054612481093e+000
1	 2.323492019706865e+000	 3.107365451920266e+000	 1.313623124355163e+000
1	 2.289217604238857e+000	 3.132701348962026e+000	 1.585236567953881e+000
1	 2.254696393485963e+000	 3.157638211327462e+000	 1.851621402576985e+000
1	 2.605781250943640e+000	 2.910647131517373e+000	-1.169484722849663e+000
1	 2.573501163216749e+000	 2.939226753340805e+000	-8.088072558910122e-001
1	 2.540919607136599e+000	 2.967438141390402e+000	-4.667631777275769e-001
1	 2.508042894900989e+000	 2.995276581942926e+000	-1.417456143411311e-001
1	 2.474877435671806e+000	 3.022737505543709e+000	 1.678730301914513e-001
1	 2.441429731454189e+000	 3.049816489455246e+000	 4.637378807011485e-001
1	 2.407706372903130e+000	 3.076509259964858e+000	 7.475083852695681e-001
1	 2.373714035063113e+000	 3.102811694548940e+000	 1.020855103822525e+000
1	 2.339459473046495e+000	 3.128719823891644e+000	 1.285456497857689e+000
1	 2.304949517656405e+000	 3.154229833756084e+000	 1.542995728142167e+000
1	 2.270191070960018e+000	 3.179338066706392e+000	 1.795157467146511e+000
1	 2.623566423550066e+000	 2.930513097476695e+000	-1.087721135932858e+000
1	 2.591066015360247e+000	 2.959287783067377e+000	-7.416683541650304e-001
1	 2.558262081212877e+000	 2.987691721587632e+000	-4.138103460064606e-001
1	 2.525160976388239e+000	 3.015720167141756e+000	-1.026391505616511e-001
1	 2.491769153792506e+000	 3.043368519087290e+000	 1.933768370117441e-001
1	 2.458093159808782e+000	 3.070632324500329e+000	 4.757898122055488e-001
1	 2.424139630075089e+000	 3.097507280498922e+000	 7.461694890120798e-001
1	 2.389915285194918e+000	 3.123989236422097e+000	 1.006100015589169e+000
1	 2.355426926386116e+000	 3.150074195862330e+000	 1.257176884395300e+000
1	 2.320681431073921e+000	 3.175758318549516e+000	 1.501003843420928e+000
1	 2.285685748434003e+000	 3.201037922084772e+000	 1.739189815092434e+000
1	 2.130738973703104e+000	 2.984039368290266e+000	 2.300869279219159e+000
1	 2.097888963455511e+000	 3.007224884231966e+000	 2.674248690620069e+000
1	 2.064818861901898e+000	 3.030026880021336e+000	 3.032793844866521e+000
1	 2.031535318394141e+000	 3.052442367516635e+000	 3.373992027179581e+000
1	 1.998045032338640e+000	 3.074468510735239e+000	 3.695390910192153e+000
1	 1.964354748895380e+000	 3.096102626762256e+000	 3.994601670650686e+000
1	 1.930471254663603e+000	 3.117342186515053e+000	 4.269301975873868e+000
1	 1.896401373359606e+000	 3.138184815363837e+000	 4.517238835220138e+000
1	 1.862151961492186e+000	 3.158628293608679e+000	 4.736231312196005e+000
1	 1.827729904041206e+000	 3.178670556813624e+000	 4.924173093225120e+000
1	 1.793142110144684e+000	 3.198309695998757e+000	 5.079034909493299e+000
1	 2.146233651174095e+000	 3.005739223669392e+000	 2.246636758646092e+000
1	 2.113144756520816e+000	 3.029093344069806e+000	 2.606882750107388e+000
1	 2.079834170063415e+000	 3.052061155369497e+000	 2.954170101470165e+000
1	 2.046308589507668e+000	 3.074639647697040e+000	 3.285847742089636e+000
1	 2.012574762977862e+000	 3.096825964446623e+000	 3.599324659751374e+000
1	 1.978639484684599e+000	 3.118617403193275e+000	 3.892073295564694e+000
1	 1.944509590579077e+000	 3.140011416462942e+000	 4.161632805625847e+000
1	 1.910191953999462e+000	 3.161005612357592e+000	 4.405612184146831e+000
1	 1.875693481314891e+000	 3.181597755035698e+000	 4.621693243141328e+000
1	 1.841021107572608e+000	 3.201785765048789e+000	 4.807633444164437e+000
1	 1.806181792153683e+000	 3.221567719534900e+000	 4.961268578015890e+000
1	 2.161728328645818e+000	 3.027439079048901e+000	 2.191475726107141e+000
1	 2.128400549586890e+000	 3.050961803907981e+000	 2.538293201763697e+000
1	 2.094849478225728e+000	 3.074095430717927e+000	 2.873853947096558e+000
1	 2.061081860622007e+000	 3.096836927877634e+000	 3.195409997556078e+000
1	 2.027104493617909e+000	 3.119183418158109e+000	 3.500272652394497e+000
1	 1.992924220474649e+000	 3.141132179624305e+000	 3.785816081396158e+000
1	 1.958547926495383e+000	 3.162680646410756e+000	 4.049480796937602e+000
1	 1.923982534640149e+000	 3.183826409351194e+000	 4.288776985636860e+000
1	 1.889235001138425e+000	 3.204567216462506e+000	 4.501287694256988e+000
1	 1.854312311104831e+000	 3.224900973283702e+000	 4.684671864945590e+000
1	 1.819221474163497e+000	 3.244825743070775e+000	 4.836667215317022e+000
1	 2.177223006118176e+000	 3.049138934428673e+000	 2.135582399226093e+000
1	 2.143656342653623e+000	 3.072830263746392e+000	 2.468726143554340e+000
1	 2.109864786388716e+000	 3.096129706066546e+000	 2.792137768566443e+000
1	 2.075855131737030e+000	 3.119034208058360e+000	 3.103013030318643e+000
1	 2.041634224258642e+000	 3.141540871869664e+000	 3.398605696072200e+000
1	 2.007208956265381e+000	 3.163646956055338e+000	 3.676231297301353e+000
1	 1.972586262412364e+000	 3.185349876358512e+000	 3.933270748120783e+000
1	 1.937773115281503e+000	 3.206647206344684e+000	 4.167173823074148e+000
1	 1.902776520962613e+000	 3.227536677889154e+000	 4.375462488635118e+000
1	 1.867603514637697e+000	 3.248016181518425e+000	 4.555734083194502e+000
1	 1.832261156173944e+000	 3.268083766606453e+000	 4.705664340739381e+000
1	 2.192717683591067e+000	 3.070838789808597e+000	 2.079147449397349e+000
1	 2.158912135720905e+000	 3.094698723584939e+000	 2.398420717312188e+000
1	 2.124880094552259e+000	 3.118163981415277e+000	 2.709305688180977e+000
1	 2.090628402852606e+000	 3.141231488239165e+000	 3.008981629680037e+000
1	 2.056163954899922e+000	 3.163898325581261e+000	 3.294684117587147e+000
1	 2.021493692056648e+000	 3.186161732486373e+000	 3.563708870281097e+000
1	 1.986624598329865e+000	 3.208019106306229e+000	 3.813415450263435e+000
1	 1.951563695923357e+000	 3.229468003338096e+000	 4.041230826442903e+000
1	 1.916318040787283e+000	 3.250506139315696e+000	 4.244652791332651e+000
1	 1.880894718171029e+000	 3.271131389753024e+000	 4.421253227731820e+000
1	 1.845300838184841e+000	 3.291341790141999e+000	 4.568681219896100e+000
1	 2.208212361064392e+000	 3.092538645188554e+000	 2.022356196371066e+000
1	 2.174167928788625e+000	 3.116567183423526e+000	 2.327609352788163e+000
1	 2.139895402716236e+000	 3.140198256764044e+000	 2.625633853675969e+000
1	 2.105401673968606e+000	 3.163428768419998e+000	 2.913631468961859e+000
1	 2.070693685541608e+000	 3.186255779292868e+000	 3.188858130316716e+000
1	 2.035778427848301e+000	 3.208676508917402e+000	 3.448627783111297e+000
1	 2.000662934247727e+000	 3.230688336253922e+000	 3.690316108493941e+000
1	 1.965354276565550e+000	 3.252288800331470e+000	 3.911364109245238e+000
1	 1.929859560612266e+000	 3.273475600742183e+000	 4.109281553468606e+000
1	 1.894185921704648e+000	 3.294246597987558e+000	 4.281650270592011e+000
1	 1.858340520196004e+000	 3.314599813677478e+000	 4.426127294583316e+000
1	 2.223707038538050e+000	 3.114238500568427e+000	 1.965388794703007e+000
1	 2.189423721856672e+000	 3.138435643262051e+000	 2.256518001498386e+000
1	 2.154910710880527e+000	 3.162232532112769e+000	 2.541390716053562e+000
1	 2.120174945084900e+000	 3.185626048600799e+000	 2.817269423102973e+000
1	 2.085223416183562e+000	 3.208613233004458e+000	 3.081468186562184e+000
1	 2.050063163640193e+000	 3.231191285348421e+000	 3.331356455636941e+000
1	 2.014701270165797e+000	 3.253357566201609e+000	 3.564362745632979e+000
1	 1.979144857207914e+000	 3.275109597324839e+000	 3.777978187152431e+000
1	 1.943401080437389e+000	 3.296445062168672e+000	 3.969759937754475e+000
1	 1.907477125238377e+000	 3.317361806222092e+000	 4.137334450562846e+000
1	 1.871380202207249e+000	 3.337857837212958e+000	 4.278400594718911e+000
1	 2.239201716011941e+000	 3.135938355948102e+000	 1.908420412463393e+000
1	 2.204679514924937e+000	 3.160304103100417e+000	 2.185366360862452e+000
1	 2.169926019045013e+000	 3.184266807461372e+000	 2.456837295879035e+000
1	 2.134948216201358e+000	 3.207823328781521e+000	 2.720193873071808e+000
1	 2.099753146825645e+000	 3.230970686716001e+000	 2.972845315268883e+000
1	 2.064347899432174e+000	 3.253706061779425e+000	 3.212253110235378e+000
1	 2.028739606083914e+000	 3.276026796149308e+000	 3.435934589086271e+000
1	 1.992935437850286e+000	 3.297930394318245e+000	 3.641466379274262e+000
1	 1.956942600262480e+000	 3.319414523595211e+000	 3.826487726357415e+000
1	 1.920768328772037e+000	 3.340477014456690e+000	 3.988703679139948e+000
1	 1.884419884218392e+000	 3.361115860748503e+000	 4.125888133178311e+000
1	 2.254696393485963e+000	 3.157638211327462e+000	 1.851621402576985e+000
1	 2.219935307993310e+000	 3.182172562938526e+000	 2.114368089099785e+000
1	 2.184941327209573e+000	 3.206301082809782e+000	 2.372227438597175e+000
1	 2.149721487317850e+000	 3.230020608962105e+000	 2.622694997726794e+000
1	 2.114282877467717e+000	 3.253328140427468e+000	 2.863311445821155e+000
1	 2.078632635224096e+000	 3.276220838210407e+000	 3.091666122210434e+000
1	 2.042777942001925e+000	 3.298696026097039e+000	 3.305400441784846e+000
1	 2.006726018492503e+000	 3.320751191311725e+000	 3.502211192883019e+000
1	 1.970484120087367e+000	 3.342383985021857e+000	 3.679853711945980e+000
1	 1.934059532305449e+000	 3.363592222691413e+000	 3.836144929742775e+000
1	 1.897459566229250e+000	 3.384373884284180e+000	 3.968966284349905e+000
1	 2.270191070960018e+000	 3.179338066706392e+000	 1.795157467146511e+000
1	 2.235191101061679e+000	 3.204041022776280e+000	 2.043731011325593e+000
1	 2.199956635374086e+000	 3.228335358157914e+000	 2.287808059393130e+000
1	 2.164494758434246e+000	 3.252217889142499e+000	 2.525055053724570e+000
1	 2.128812608109640e+000	 3.275685594138827e+000	 2.753179718577334e+000
1	 2.092917371015813e+000	 3.298735614641365e+000	 2.969934355837300e+000
1	 2.056816277919670e+000	 3.321365256044816e+000	 3.173119037934439e+000
1	 2.020516599134397e+000	 3.343571988305312e+000	 3.360584692382166e+000
1	 1.984025639911879e+000	 3.365353446448660e+000	 3.530236072721766e+000
1	 1.947350735838437e+000	 3.386707430926325e+000	 3.680034610991435e+000
1	 1.910499248239641e+000	 3.407631907820057e+000	 3.808001147188088e+000
1	 2.285685748434003e+000	 3.201037922084772e+000	 1.739189815092434e+000
1	 2.250446894129934e+000	 3.225909482613577e+000	 1.973657317264083e+000
1	 2.214971943538432e+000	 3.250369633505693e+000	 2.203819378093717e+000
1	 2.179268029550415e+000	 3.274415169322649e+000	 2.427548644043236e+000
1	 2.143342338751272e+000	 3.298043047850050e+000	 2.642754782773967e+000
1	 2.107202106807173e+000	 3.321250391072290e+000	 2.847387486739075e+000
1	 2.070854613836993e+000	 3.344034485992656e+000	 3.039439384295258e+000
1	 2.034307179775805e+000	 3.366392785299044e+000	 3.216948853267793e+000
1	 1.997567159735843e+000	 3.388322907875672e+000	 3.378002732197174e+000
1	 1.960641939370821e+000	 3.409822639161488e+000	 3.520738924800985e+000
1	 1.923538930249378e+000	 3.430889931356199e+000	 3.643348893499414e+000
1	 1.793142110144684e+000	 3.198309695998757e+000	 5.079034909493299e+000
1	 1.758400732415532e+000	 3.217541103571807e+000	 5.202749528386851e+000
1	 1.723507538249754e+000	 3.236366160359109e+000	 5.298782656398030e+000
1	 1.688469482271451e+000	 3.254783426736442e+000	 5.367415462387211e+000
1	 1.653293526122405e+000	 3.272791617828106e+000	 5.408946602413516e+000
1	 1.617986634272129e+000	 3.290389603006431e+000	 5.423691053183541e+000
1	 1.582555769867111e+000	 3.307576405259168e+000	 5.411978943816020e+000
1	 1.547007890623956e+000	 3.324351200427108e+000	 5.374154388424801e+000
1	 1.511349944770981e+000	 3.340713316314456e+000	 5.310574321969411e+000
1	 1.475588867042667e+000	 3.356662231674654e+000	 5.221607341763344e+000
1	 1.439731574731234e+000	 3.372197575074529e+000	 5.107632556963430e+000
1	 1.806181792153683e+000	 3.221567719534900e+000	 4.961268578015893e+000
1	 1.771187776044500e+000	 3.240938977395473e+000	 5.084053887801302e+000
1	 1.736040839493528e+000	 3.259900929498167e+000	 5.179041477723459e+000
1	 1.700747987698722e+000	 3.278452125749842e+000	 5.246474288356584e+000
1	 1.665316232926750e+000	 3.296591271931206e+000	 5.286611890263685e+000
1	 1.629752590292574e+000	 3.314317229192684e+000	 5.299729386391491e+000
1	 1.594064073578509e+000	 3.331629013417209e+000	 5.286116313387264e+000
1	 1.558257691097504e+000	 3.348525794452300e+000	 5.246075544191358e+000
1	 1.522340441605219e+000	 3.365006895213962e+000	 5.179922194206491e+000
1	 1.486319310265349e+000	 3.381071790665132e+000	 5.087982533287121e+000
1	 1.450201264672494e+000	 3.396720106671581e+000	 4.970592905728427e+000
1	 1.819221474163497e+000	 3.244825743070775e+000	 4.836667215317022e+000
1	 1.783974819674280e+000	 3.264336851218890e+000	 4.958265384171592e+000
1	 1.748574140738111e+000	 3.283435698637017e+000	 5.052077655006277e+000
1	 1.713026493126800e+000	 3.302120824763098e+000	 5.118283894976140e+000
1	 1.677338939731899e+000	 3.320390926034241e+000	 5.157080451328366e+000
1	 1.641518546313822e+000	 3.338244855378957e+000	 5.168679157504210e+000
1	 1.605572377290709e+000	 3.355681621575362e+000	 5.153306336964566e+000
1	 1.569507491571853e+000	 3.372700388477690e+000	 5.111201806902210e+000
1	 1.533330938440257e+000	 3.389300474113742e+000	 5.042617883957043e+000
1	 1.497049753488832e+000	 3.405481349655953e+000	 4.947818394000445e+000
1	 1.460670954614553e+000	 3.421242638269016e+000	 4.827077687997804e+000
1	 1.832261156173944e+000	 3.268083766606453e+000	 4.705664340739379e+000
1	 1.796761863304683e+000	 3.287734725042119e+000	 4.825803946581096e+000
1	 1.761107441983310e+000	 3.306970467775714e+000	 4.918305727259863e+000
1	 1.725304998555488e+000	 3.325789523776247e+000	 4.983262139958283e+000
1	 1.689361646537655e+000	 3.344190580137223e+000	 5.020782668139978e+000
1	 1.653284502335673e+000	 3.362172481565245e+000	 5.030992965735440e+000
1	 1.617080681003511e+000	 3.379734229733591e+000	 5.014033996068450e+000
1	 1.580757292046803e+000	 3.396874982503220e+000	 4.970061167453908e+000
1	 1.544321435275894e+000	 3.413594053013718e+000	 4.899243467363023e+000
1	 1.507780196712913e+000	 3.429890908647009e+000	 4.801762597013576e+000
1	 1.471140644557212e+000	 3.445765169866720e+000	 4.677812108198131e+000
1	 1.845300838184841e+000	 3.291341790141999e+000	 4.568681219896098e+000
1	 1.809548906935523e+000	 3.311132598865223e+000	 4.687077634522017e+000
1	 1.773640743228935e+000	 3.330505236914307e+000	 4.778128516260547e+000
1	 1.737583503984593e+000	 3.349458222789323e+000	 4.841815069972944e+000
1	 1.701384353343822e+000	 3.367990234240172e+000	 4.878136758165658e+000
1	 1.665050458357930e+000	 3.386100107751536e+000	 4.887110617263532e+000
1	 1.628588984716716e+000	 3.403786837891867e+000	 4.868770563875249e+000
1	 1.592007092522154e+000	 3.421049576528835e+000	 4.823166692708451e+000
1	 1.555311932111932e+000	 3.437887631913811e+000	 4.750364567774259e+000
1	 1.518510639937396e+000	 3.454300467638207e+000	 4.650444508500057e+000
1	 1.481610334500272e+000	 3.470287701464573e+000	 4.523500872342015e+000
1	 1.858340520196004e+000	 3.314599813677478e+000	 4.426127294583316e+000
1	 1.822335950566611e+000	 3.334530472688268e+000	 4.542483054330645e+000
1	 1.786174044474793e+000	 3.354040006052849e+000	 4.631937537637711e+000
1	 1.749862009413920e+000	 3.373126921802362e+000	 4.694337335028918e+000
1	 1.713407060150202e+000	 3.391789888343099e+000	 4.729549200609069e+000
1	 1.676816414380395e+000	 3.410027733937826e+000	 4.737459574064967e+000
1	 1.640097288430125e+000	 3.427839446050158e+000	 4.717974086163645e+000
1	 1.603256892997707e+000	 3.445224170554475e+000	 4.671017049091405e+000
1	 1.566302428948170e+000	 3.462181210813938e+000	 4.596530932981752e+000
1	 1.529241083162078e+000	 3.478710026629442e+000	 4.494475829981230e+000
1	 1.492080024443532e+000	 3.494810233062460e+000	 4.364828907198787e+000
1	 1.871380202207249e+000	 3.337857837212958e+000	 4.278400594718913e+000
1	 1.835122994197758e+000	 3.357928346511310e+000	 4.392405758212397e+000
1	 1.798707345720694e+000	 3.377574775191389e+000	 4.480113394777082e+000
1	 1.762140514843276e+000	 3.396795620815399e+000	 4.541212585530478e+000
1	 1.725429766956601e+000	 3.415589542446022e+000	 4.575415145368548e+000
1	 1.688582370402871e+000	 3.433955360124104e+000	 4.582455383983367e+000
1	 1.651605592143539e+000	 3.451892054208428e+000	 4.562089842153828e+000
1	 1.614506693473261e+000	 3.469398764580087e+000	 4.514097004299432e+000
1	 1.577292925784410e+000	 3.486474789714023e+000	 4.438276988318159e+000
1	 1.539971526386760e+000	 3.503119585620616e+000	 4.334451213758289e+000
1	 1.502549714386791e+000	 3.519332764660260e+000	 4.202462049398388e+000
1	 1.884419884218392e+000	 3.361115860748503e+000	 4.125888133178313e+000
1	 1.847910037828777e+000	 3.381326220334415e+000	 4.237220626700083e+000
1	 1.811240646966444e+000	 3.401109544329981e+000	 4.323026156369811e+000
1	 1.774419020272465e+000	 3.420464319828467e+000	 4.382813852849250e+000
1	 1.737452473762821e+000	 3.439389196548955e+000	 4.416118805016044e+000
1	 1.700348326425159e+000	 3.457882986310363e+000	 4.422502092942581e+000
1	 1.663113895856760e+000	 3.475944662366650e+000	 4.401550786213589e+000
1	 1.625756493948619e+000	 3.493573358605613e+000	 4.352877908177910e+000
1	 1.588283422620450e+000	 3.510768368613983e+000	 4.276122366794498e+000
1	 1.550701969611243e+000	 3.527529144611627e+000	 4.170948852792650e+000
1	 1.513019404329850e+000	 3.543855296257858e+000	 4.037047705924742e+000
1	 1.897459566229250e+000	 3.384373884284180e+000	 3.968966284349906e+000
1	 1.860697081459480e+000	 3.404724094157645e+000	 4.077292235342063e+000
1	 1.823773948211853e+000	 3.424644313468674e+000	 4.161035718394089e+000
1	 1.786697525701294e+000	 3.444133018841604e+000	 4.219503914203608e+000
1	 1.749475180568665e+000	 3.463188850651911e+000	 4.252033830613426e+000
1	 1.712114282447061e+000	 3.481810612496597e+000	 4.257992640163112e+000
1	 1.674622199569588e+000	 3.499997270524788e+000	 4.236777971351248e+000
1	 1.637006294423580e+000	 3.517747952630996e+000	 4.187818153770309e+000
1	 1.599273919456091e+000	 3.535061947513742e+000	 4.110572417377608e+000
1	 1.561432412835325e+000	 3.551938703602373e+000	 4.004531046263592e+000
1	 1.523489094272510e+000	 3.568377827855136e+000	 3.869215487374931e+000
1	 1.910499248239641e+000	 3.407631907820057e+000	 3.808001147188089e+000
1	 1.873484125089678e+000	 3.428121967981061e+000	 3.912975206374143e+000
1	 1.836307249456730e+000	 3.448179082607521e+000	 3.994492151272986e+000
1	 1.798976031129568e+000	 3.467801717854844e+000	 4.051635642595874e+000
1	 1.761497887373937e+000	 3.486988504754908e+000	 4.083523672138690e+000
1	 1.723880238468380e+000	 3.505738238682796e+000	 4.089309237193567e+000
1	 1.686130503281824e+000	 3.524049878682809e+000	 4.068180955365994e+000
1	 1.648256094897944e+000	 3.541922546656179e+000	 4.019363619487035e+000
1	 1.610264416291134e+000	 3.559355526413216e+000	 3.942118692452921e+000
1	 1.572162856058808e+000	 3.576348262592756e+000	 3.835744741965526e+000
1	 1.533958784214570e+000	 3.592900359451976e+000	 3.699577815285414e+000
1	 1.923538930249378e+000	 3.430889931356199e+000	 3.643348893499414e+000
1	 1.886271168719184e+000	 3.451519841804724e+000	 3.744614546087361e+000
1	 1.848840550700881e+000	 3.471713851746570e+000	 3.823736032911997e+000
1	 1.811254536557091e+000	 3.491470416868222e+000	 3.879552342516007e+000
1	 1.773520594178441e+000	 3.510788158857956e+000	 3.910941924252012e+000
1	 1.735646194488916e+000	 3.529665864868949e+000	 3.916823731525617e+000
1	 1.697638806993269e+000	 3.548102486840681e+000	 3.896158190478498e+000
1	 1.659505895371511e+000	 3.566097140681106e+000	 3.847948093289290e+000
1	 1.621254913125376e+000	 3.583649105312325e+000	 3.771239415460020e+000
1	 1.582893299281490e+000	 3.600757821582674e+000	 3.665122056643728e+000
1	 1.544428474155829e+000	 3.617422891048259e+000	 3.528730504755874e+000
1	 1.439731574731234e+000	 3.372197575074529e+000	 5.107632556963432e+000
1	 1.403779565205173e+000	 3.387321361489601e+000	 4.960723745662127e+000
1	 1.367745085892707e+000	 3.402031155838170e+000	 4.770426914501168e+000
1	 1.331634983434178e+000	 3.416327030840313e+000	 4.533401145606481e+000
1	 1.295456071785158e+000	 3.430209203416529e+000	 4.246470071661324e+000
1	 1.259215128608840e+000	 3.443678032987045e+000	 3.906625127227403e+000
1	 1.222918891747824e+000	 3.456734019669560e+000	 3.511028464950233e+000
1	 1.186574055778321e+000	 3.469377802379238e+000	 3.057015536918666e+000
1	 1.150187268649677e+000	 3.481610156834796e+000	 2.542097342246827e+000
1	 1.113765128411844e+000	 3.493431993474642e+000	 1.963962342725566e+000
1	 1.077314180033310e+000	 3.504844355287081e+000	 1.320478049144120e+000
1	 1.450201264672494e+000	 3.396720106671581e+000	 4.970592905728429e+000
1	 1.413987813083974e+000	 3.411953872861663e+000	 4.820737479482853e+000
1	 1.377691291990982e+000	 3.426770636445832e+000	 4.629162366732858e+000
1	 1.341318597822436e+000	 3.441170470672978e+000	 4.392915540786401e+000
1	 1.304876594084805e+000	 3.455153594041044e+000	 4.109207718247123e+000
1	 1.268372107728261e+000	 3.468720368583944e+000	 3.775415010022345e+000
1	 1.231811925592806e+000	 3.481871298056221e+000	 3.389081250787886e+000
1	 1.195202790937426e+000	 3.494607026019214e+000	 2.947920008099368e+000
1	 1.158551400055168e+000	 3.506928333832644e+000	 2.449816273084482e+000
1	 1.121864398976821e+000	 3.518836138555602e+000	 1.892827835374622e+000
1	 1.085148380265702e+000	 3.530331490760975e+000	 1.275186345630685e+000
1	 1.460670954614553e+000	 3.421242638269016e+000	 4.827077687997804e+000
1	 1.424196060963574e+000	 3.436586384234133e+000	 4.674294269132887e+000
1	 1.387637498090055e+000	 3.451510117053900e+000	 4.481425568988177e+000
1	 1.351002212211490e+000	 3.466013910506030e+000	 4.245900557988795e+000
1	 1.314297116385243e+000	 3.480097984665906e+000	 3.965308803828205e+000
1	 1.277529086848464e+000	 3.493762704181139e+000	 3.637402538137518e+000
1	 1.240704959438560e+000	 3.507008576443119e+000	 3.260098415500975e+000
1	 1.203831526097285e+000	 3.519836249659356e+000	 2.831478966889670e+000
1	 1.166915531461390e+000	 3.532246510830581e+000	 2.349793750276070e+000
1	 1.129963669542498e+000	 3.544240283636570e+000	 1.813460201860797e+000
1	 1.092982580498757e+000	 3.555818626234796e+000	 1.221064191984361e+000
1	 1.471140644557212e+000	 3.445765169866720e+000	 4.677812108198131e+000
1	 1.434404308843775e+000	 3.461218895606880e+000	 4.522199583498016e+000
1	 1.397583704189727e+000	 3.476249597662238e+000	 4.328095632834423e+000
1	 1.360685826601141e+000	 3.490857350339327e+000	 4.093302552842712e+000
1	 1.323717638686275e+000	 3.505042375290975e+000	 3.815780757140218e+000
1	 1.286686065969255e+000	 3.518805039778496e+000	 3.493650274353622e+000
1	 1.249597993284890e+000	 3.532145854830123e+000	 3.125191952698353e+000
1	 1.212460261257707e+000	 3.545065473299543e+000	 2.708848374025807e+000
1	 1.175279662868157e+000	 3.557564687828503e+000	 2.243224480892239e+000
1	 1.138062940108700e+000	 3.569644428717461e+000	 1.727087920816793e+000
1	 1.100816780732308e+000	 3.581305761708479e+000	 1.159369112481526e+000
1	 1.481610334500272e+000	 3.470287701464573e+000	 4.523500872342016e+000
1	 1.444612556724376e+000	 3.485851406979773e+000	 4.365236124318543e+000
1	 1.407529910289798e+000	 3.500989078270704e+000	 4.170026821131006e+000
1	 1.370369440991190e+000	 3.515700790172727e+000	 3.936041131568547e+000
1	 1.333138160987702e+000	 3.529986765916117e+000	 3.661602531235609e+000
1	 1.295843045090437e+000	 3.543847375375882e+000	 3.345190747365517e+000
1	 1.258491027131605e+000	 3.557283133217108e+000	 2.985442424705827e+000
1	 1.221088996418506e+000	 3.570294696939667e+000	 2.581151516198979e+000
1	 1.183643794275290e+000	 3.582882864826309e+000	 2.131269402766166e+000
1	 1.146162210675252e+000	 3.595048573798191e+000	 1.634904747060705e+000
1	 1.108650980966192e+000	 3.606792897181959e+000	 1.091323086588385e+000
1	 1.492080024443532e+000	 3.494810233062460e+000	 4.364828907198787e+000
1	 1.454820804605176e+000	 3.510483918352682e+000	 4.204164624956571e+000
1	 1.417476116390070e+000	 3.525728558879165e+000	 4.008049419826912e+000
1	 1.380053055381439e+000	 3.540544230006091e+000	 3.775010089459983e+000
1	 1.342558683289327e+000	 3.554931156541184e+000	 3.503725602530754e+000
1	 1.305000024211814e+000	 3.568889710973159e+000	 3.193027505504600e+000
1	 1.267384060978513e+000	 3.582420411603949e+000	 2.841900065307943e+000
1	 1.229717731579493e+000	 3.595523920579608e+000	 2.449480152398538e+000
1	 1.192007925682606e+000	 3.608201041823900e+000	 2.015056869260477e+000
1	 1.154261481241978e+000	 3.620452718878675e+000	 1.538070929853561e+000
1	 1.116485181200240e+000	 3.632280032655170e+000	 1.018113796022242e+000
1	 1.502549714386791e+000	 3.519332764660260e+000	 4.202462049398386e+000
1	 1.465029052485976e+000	 3.535116429725479e+000	 4.039724615768868e+000
1	 1.427422322490341e+000	 3.550468039487481e+000	 3.842970573310087e+000
1	 1.389736669771687e+000	 3.565387669839278e+000	 3.611078310130049e+000
1	 1.351979205590952e+000	 3.579875547166044e+000	 3.343074928084664e+000
1	 1.314157003333191e+000	 3.593932046570194e+000	 3.038136126406943e+000
1	 1.276277094825421e+000	 3.607557689990518e+000	 2.695585836386459e+000
1	 1.238346466740479e+000	 3.620753144219250e+000	 2.314895612328872e+000
1	 1.200372057089921e+000	 3.633519218821174e+000	 1.895683784501833e+000
1	 1.162360751808705e+000	 3.645856863958830e+000	 1.437714380224283e+000
1	 1.124319381434289e+000	 3.657767168128049e+000	 9.408958196763955e-001
1	 1.513019404329850e+000	 3.543855296257858e+000	 4.037047705924742e+000
1	 1.475237300366577e+000	 3.559748941098035e+000	 3.872635157702458e+000
1	 1.437368528590412e+000	 3.575207520095515e+000	 3.675575085074589e+000
1	 1.399420284161736e+000	 3.590231109672148e+000	 3.445090627422042e+000
1	 1.361399727892379e+000	 3.604819937790551e+000	 3.180549863133527e+000
1	 1.323313982454373e+000	 3.618974382166853e+000	 2.881465184762241e+000
1	 1.285170128672137e+000	 3.632694968376689e+000	 2.547492440689155e+000
1	 1.246975201901279e+000	 3.645982367858483e+000	 2.178429849222003e+000
1	 1.208736188497053e+000	 3.658837395818033e+000	 1.774216691482371e+000
1	 1.170460022375257e+000	 3.671261009038572e+000	 1.334931789829118e+000
1	 1.132153581668172e+000	 3.683254303600529e+000	 8.607917789331854e-001
1	 1.523489094272510e+000	 3.568377827855136e+000	 3.869215487374931e+000
1	 1.485445548246778e+000	 3.584381452470217e+000	 3.703595545641973e+000
1	 1.447314734690085e+000	 3.599947000703133e+000	 3.506626185373715e+000
1	 1.409103898551388e+000	 3.615074549504560e+000	 3.277868651781108e+000
1	 1.370820250193411e+000	 3.629764328414573e+000	 3.017025040792130e+000
1	 1.332470961575163e+000	 3.644016717762999e+000	 2.723937180159027e+000
1	 1.294063162518467e+000	 3.657832246762335e+000	 2.398585292838769e+000
1	 1.255603937061701e+000	 3.671211591497187e+000	 2.041086449239315e+000
1	 1.217100319903821e+000	 3.684155572814372e+000	 1.651692815295236e+000
1	 1.178559292941459e+000	 3.696665154117818e+000	 1.230789703677136e+000
1	 1.139987781901724e+000	 3.708741439072548e+000	 7.788934357527575e-001
1	 1.533958784214570e+000	 3.592900359451976e+000	 3.699577815285414e+000
1	 1.495653796126378e+000	 3.609013963841896e+000	 3.533285982953782e+000
1	 1.457260940789158e+000	 3.624686481310194e+000	 3.336866267436497e+000
1	 1.418787512940441e+000	 3.639917989336373e+000	 3.110211562784655e+000
1	 1.380240772493849e+000	 3.654708719037964e+000	 2.853351215730192e+000
1	 1.341627940695367e+000	 3.669059053358498e+000	 2.566449426933279e+000
1	 1.302956196364220e+000	 3.682969525147330e+000	 2.249803450577742e+000
1	 1.264232672221559e+000	 3.696440815135248e+000	 1.903841599536798e+000
1	 1.225464451310042e+000	 3.709473749810091e+000	 1.529121063648218e+000
1	 1.186658563507136e+000	 3.722069299196482e+000	 1.126325548925807e+000
1	 1.147821982134778e+000	 3.734228574544038e+000	 6.962627457928443e-001
1	 1.544428474155829e+000	 3.617422891048259e+000	 3.528730504755874e+000
1	 1.505862044005179e+000	 3.633646475212943e+000	 3.362368228593457e+000
1	 1.467207146887431e+000	 3.649425961916561e+000	 3.167017593739374e+000
1	 1.428471127328699e+000	 3.664761429167447e+000	 2.942896869437275e+000
1	 1.389661294793495e+000	 3.679653109660585e+000	 2.690356073533042e+000
1	 1.350784919814788e+000	 3.694101388953216e+000	 2.409874907823314e+000
1	 1.311849230209202e+000	 3.708106803531544e+000	 2.102060508135448e+000
1	 1.272861407380664e+000	 3.721670038772552e+000	 1.767645016955011e+000
1	 1.233828582715533e+000	 3.734791926805089e+000	 1.407482986682130e+000
1	 1.194757834072113e+000	 3.747473444274481e+000	 1.022548621831311e+000
1	 1.155656182367169e+000	 3.759715710014934e+000	 6.139328686943566e-001
1	 1.077314180033310e+000	 3.504844355287081e+000	 1.320478049144120e+000
1	 1.040840911791156e+000	 3.515848414683465e+000	 6.137391956540403e-001
1	 1.004351750767449e+000	 3.526445468549742e+000	-1.513226983799800e-001
1	 9.678530616055535e-001	 3.536636938483259e+000	-9.723548111825453e-001
1	 9.313511442442012e-001	 3.546424369203119e+000	-1.846881601442857e+000
1	 8.948522312174633e-001	 3.555809426018735e+000	-2.772309919962986e+000
1	 8.583624850557755e-001	 3.564793892237349e+000	-3.745934208710118e+000
1	 8.218879957891516e-001	 3.573379666514728e+000	-4.764941775595029e+000
1	 7.854347785535496e-001	 3.581568760153285e+000	-5.826418133417418e+000
1	 7.490087713011601e-001	 3.589363294351825e+000	-6.927352391565251e+000
1	 7.126158326152124e-001	 3.596765497411133e+000	-8.064642689227711e+000
1	 1.085148380265702e+000	 3.530331490760975e+000	 1.275186345630685e+000
1	 1.048409879381463e+000	 3.541415571385863e+000	 5.992125935624557e-001
1	 1.011655370143745e+000	 3.552089686747149e+000	-1.302452803016152e-001
1	 9.748912634794358e-001	 3.562355268780022e+000	-9.109422702517334e-001
1	 9.381239051402550e-001	 3.572213873436759e+000	-1.740515273471652e+000
1	 9.013595729831024e-001	 3.581667178136879e+000	-2.616487965186711e+000
1	 8.646044743521751e-001	 3.590716979155809e+000	-3.536275759889026e+000
1	 8.278647435640277e-001	 3.599365188956309e+000	-4.497190847429718e+000
1	 7.911464394965310e-001	 3.607613833466946e+000	-5.496447292874205e+000
1	 7.544555432825092e-001	 3.615465049311848e+000	-6.531166189152119e+000
1	 7.177979561086599e-001	 3.622921080995963e+000	-7.598380851694216e+000
1	 1.092982580498757e+000	 3.555818626234796e+000	 1.221064191984361e+000
1	 1.055978846972389e+000	 3.566982728088109e+000	 5.751165680734873e-001
1	 1.018958989520610e+000	 3.577733904944332e+000	-1.196355242156182e-001
1	 9.819294653538297e-001	 3.588073599076492e+000	-8.610380429652018e-001
1	 9.448966660367629e-001	 3.598003377670048e+000	-1.646824321108001e+000
1	 9.078669147491362e-001	 3.607524930254625e+000	-2.474619713211481e+000
1	 8.708464636489093e-001	 3.616640066073833e+000	-3.341946325363223e+000
1	 8.338414913391804e-001	 3.625350711397429e+000	-4.246227817440178e+000
1	 7.968581004397339e-001	 3.633658906780143e+000	-5.184794267144975e+000
1	 7.599023152640315e-001	 3.641566804271422e+000	-6.154887085318758e+000
1	 7.229800796022363e-001	 3.649076664580380e+000	-7.153663972192073e+000
1	 1.100816780732308e+000	 3.581305761708479e+000	 1.159369112481526e+000
1	 1.063547814563778e+000	 3.592549884790160e+000	 5.427304783172877e-001
1	 1.026262608897900e+000	 3.603378123141265e+000	-1.182023168533828e-001
1	 9.889676672286080e-001	 3.613791929372667e+000	-8.213496603077823e-001
1	 9.516694269336109e-001	 3.623792881903003e+000	-1.564525623447873e+000
1	 9.143742565154642e-001	 3.633382682372006e+000	-2.345442388262279e+000
1	 8.770884529458937e-001	 3.642563152991475e+000	-3.161714752279566e+000
1	 8.398182391145398e-001	 3.651336233838164e+000	-4.010864701816901e+000
1	 8.025697613831035e-001	 3.659703980092960e+000	-4.890326043423936e+000
1	 7.653490872456831e-001	 3.667668559230636e+000	-5.797449083542935e+000
1	 7.281622030959102e-001	 3.675232248164470e+000	-6.729505346551217e+000
1	 1.108650980966192e+000	 3.606792897181959e+000	 1.091323086588385e+000
1	 1.071116782155477e+000	 3.618117041491970e+000	 5.032975214361519e-001
1	 1.033566228275475e+000	 3.629022341337930e+000	-1.246910391732898e-001
1	 9.960058691036424e-001	 3.639510259668551e+000	-7.906211858123520e-001
1	 9.584421878306856e-001	 3.649582386135649e+000	-1.492372327904382e+000
1	 9.208815982819899e-001	 3.659240434489071e+000	-2.227728907811632e+000
1	 8.833304422430456e-001	 3.668486239908799e+000	-2.994384687188140e+000
1	 8.457949868900379e-001	 3.677321756278584e+000	-3.789947095950132e+000
1	 8.082814223265840e-001	 3.685749053405477e+000	-4.611941634310881e+000
1	 7.707958592274207e-001	 3.693770314189572e+000	-5.457816318445249e+000
1	 7.333443265896487e-001	 3.701387831748314e+000	-6.324946160490046e+000
1	 1.116485181200240e+000	 3.632280032655170e+000	 1.018113796022242e+000
1	 1.078685749747331e+000	 3.643684198193496e+000	 4.580260012991149e-001
1	 1.040869847653190e+000	 3.654666559534302e+000	-1.378822859896882e-001
1	 1.003044070978805e+000	 3.665228589964140e+000	-7.676319338443882e-001
1	 9.652149487278739e-001	 3.675371890368007e+000	-1.429152577762605e+000
1	 9.273889400486137e-001	 3.685098186605857e+000	-2.120286630310500e+000
1	 8.895724315402811e-001	 3.694409326825858e+000	-2.838793355132973e+000
1	 8.517717346656049e-001	 3.703307278718762e+000	-3.582352996330272e+000
1	 8.139930832701200e-001	 3.711794126717774e+000	-4.348570954225044e+000
1	 7.762426312092013e-001	 3.719872069148313e+000	-5.134981998661716e+000
1	 7.385264500834193e-001	 3.727543415331995e+000	-5.939054511120684e+000
1	 1.124319381434289e+000	 3.657767168128049e+000	 9.408958196763955e-001
1	 1.086254717339184e+000	 3.669251354894697e+000	 4.080905441745060e-001
1	 1.048173467030906e+000	 3.680310777730361e+000	-1.565906391313563e-001
1	 1.010082272853967e+000	 3.690946920259437e+000	-7.511952414722973e-001
1	 9.719877096250622e-001	 3.701161394600098e+000	-1.373688292932633e+000
1	 9.338962818152375e-001	 3.710955938722406e+000	-2.021956155273525e+000
1	 8.958144208375163e-001	 3.720332413742716e+000	-2.693810389786056e+000
1	 8.577484824411717e-001	 3.729292801158769e+000	-3.386991671702047e+000
1	 8.197047442136559e-001	 3.737839200029932e+000	-4.099173742793647e+000
1	 7.816894031909821e-001	 3.745973824106948e+000	-4.827967393912663e+000
1	 7.437085735771903e-001	 3.753698998915593e+000	-5.570924469362769e+000
1	 1.132153581668172e+000	 3.683254303600529e+000	 8.607917789331854e-001
1	 1.093823684930883e+000	 3.694818511595525e+000	 3.546332639298120e-001
1	 1.055477086408480e+000	 3.705954995926085e+000	-1.796634915363624e-001
1	 1.017120474729001e+000	 3.716665250554442e+000	-7.401572913274483e-001
1	 9.787604705221366e-001	 3.726950898831944e+000	-1.324834001323556e+000
1	 9.404036235817628e-001	 3.736813690838762e+000	-1.931610173182756e+000
1	 9.020564101346680e-001	 3.746255500659427e+000	-2.558336712152107e+000
1	 8.637252302166697e-001	 3.755278323598676e+000	-3.202802581086250e+000
1	 8.254164051571362e-001	 3.763884273342034e+000	-3.862738532939736e+000
1	 7.871361751727196e-001	 3.772075579065561e+000	-4.535820864126544e+000
1	 7.488906970709288e-001	 3.779854582499195e+000	-5.219675181284384e+000
1	 1.139987781901724e+000	 3.708741439072548e+000	 7.788934357527575e-001
1	 1.101392652522272e+000	 3.720385668295939e+000	 2.987648791865629e-001
1	 1.062780705785770e+000	 3.731599214121452e+000	-2.059799198332861e-001
1	 1.024158676603780e+000	 3.742383580849156e+000	-7.333959830015076e-001
1	 9.855332314189849e-001	 3.752740403063570e+000	-1.281475718403761e+000
1	 9.469109653480912e-001	 3.762671442954964e+000	-1.848152362813591e+000
1	 9.082983994316525e-001	 3.772178587576051e+000	-2.431303455508254e+000
1	 8.697019779920292e-001	 3.781263846038558e+000	-3.028754336415095e+000
1	 8.311280661005058e-001	 3.789929346654160e+000	-3.638281661518775e+000
1	 7.925829471543713e-001	 3.798177334024236e+000	-4.257616928596282e+000
1	 7.540728205646026e-001	 3.806010166082880e+000	-4.884450006497328e+000
1	 1.147821982134778e+000	 3.734228574544038e+000	 6.962627457928443e-001
1	 1.108961620113198e+000	 3.745952824995893e+000	 2.415657847261539e-001
1	 1.070084325162635e+000	 3.757243432316443e+000	-2.344496030918646e-001
1	 1.031196878478174e+000	 3.768101911143579e+000	-7.298198506617388e-001
1	 9.923059923154926e-001	 3.778529907294996e+000	-1.242529872644959e+000
1	 9.534183071141243e-001	 3.788529195071055e+000	-1.770516333716919e+000
1	 9.145403887283864e-001	 3.798101674492648e+000	-2.311670934368687e+000
1	 8.756787257671816e-001	 3.807249368478485e+000	-2.863843707649181e+000
1	 8.368397270437089e-001	 3.815974419966391e+000	-3.424846320471365e+000
1	 7.980297191358932e-001	 3.824279088983057e+000	-3.992455373254896e+000
1	 7.592549440581792e-001	 3.832165749666733e+000	-4.564415691836704e+000
1	 1.155656182367169e+000	 3.759715710014934e+000	 6.139328686943566e-001
1	 1.116530587703505e+000	 3.771519981695345e+000	 1.840870793169964e-001
1	 1.077387944538932e+000	 3.782887650511029e+000	-2.640117855525785e-001
1	 1.038235080352056e+000	 3.793820241437709e+000	-7.283670246914440e-001
1	 9.990787532115458e-001	 3.804319411526238e+000	-1.206942274672556e+000
1	 9.599256488797634e-001	 3.814386947187075e+000	-1.697664611714619e+000
1	 9.207823780247855e-001	 3.824024761409273e+000	-2.198427655386036e+000
1	 8.816554735420574e-001	 3.833234890918528e+000	-2.707094668360329e+000
1	 8.425513879866898e-001	 3.842019493278807e+000	-3.221501646569287e+000
1	 8.034764911172426e-001	 3.850380843942109e+000	-3.739460394262112e+000
1	 7.644370675516261e-001	 3.858321333250832e+000	-4.258761578650171e+000
1	 7.126158326152124e-001	 3.596765497411133e+000	-8.064642689227709e+000
1	 6.762671878802552e-001	 3.603776679759038e+000	-9.259171050684254e+000
1	 6.399630600582480e-001	 3.610400416447522e+000	-1.052691173199472e+001
1	 6.037090469397654e-001	 3.616639241793862e+000	-1.185669418538247e+001
1	 5.675106594965970e-001	 3.622495785572755e+000	-1.323719932665989e+001
1	 5.313733202242633e-001	 3.627972770066270e+000	-1.465697806279066e+001
1	 4.953023615887215e-001	 3.633073007093982e+000	-1.610446958621148e+001
1	 4.593030245767208e-001	 3.637799395027111e+000	-1.756801940844935e+001
1	 4.233804573491130e-001	 3.642154915790480e+000	-1.903589710697034e+001
1	 3.875397139962927e-001	 3.646142631855923e+000	-2.049631376061637e+001
1	 3.517857533948060e-001	 3.649765683230813e+000	-2.193743905043071e+001
1	 7.177979561086599e-001	 3.622921080995963e+000	-7.598380851694216e+000
1	 6.811849849902317e-001	 3.629983248476528e+000	-8.717414163816754e+000
1	 6.446168545105617e-001	 3.636655152803183e+000	-9.902158457480052e+000
1	 6.080992031672113e-001	 3.642939346722671e+000	-1.114083376537625e+001
1	 5.716375820076141e-001	 3.648838479133310e+000	-1.242151900598873e+001
1	 5.352374529595360e-001	 3.654355292113508e+000	-1.373217151280265e+001
1	 4.989041872664885e-001	 3.659492617930284e+000	-1.506064629167528e+001
1	 4.626430640275401e-001	 3.664253376031720e+000	-1.639471497805249e+001
1	 4.264592688408337e-001	 3.668640570027080e+000	-1.772208446723587e+001
1	 3.903578925499786e-001	 3.672657284658394e+000	-1.903041519244197e+001
1	 3.543439300923417e-001	 3.676306682767058e+000	-2.030733902695014e+001
1	 7.229800796022363e-001	 3.649076664580380e+000	-7.153663972192073e+000
1	 6.861027821003027e-001	 3.656189817193663e+000	-8.198854797338742e+000
1	 6.492706489629431e-001	 3.662909889158565e+000	-9.302354453707185e+000
1	 6.124893593947072e-001	 3.669239451651285e+000	-1.045194062982288e+001
1	 5.757645045186717e-001	 3.675181172693759e+000	-1.163525766252421e+001
1	 5.391015856948508e-001	 3.680737814160723e+000	-1.283983679607417e+001
1	 5.025060129443084e-001	 3.685912228766641e+000	-1.405311613736216e+001
1	 4.659831034784336e-001	 3.690707357036437e+000	-1.526246027835819e+001
1	 4.295380803326613e-001	 3.695126224263828e+000	-1.645517955859149e+001
1	 3.931760711038144e-001	 3.699171937461022e+000	-1.761854894205354e+001
1	 3.569021067900821e-001	 3.702847682303435e+000	-1.873982648456728e+001
1	 7.281622030959102e-001	 3.675232248164470e+000	-6.729505346551215e+000
1	 6.910205792104441e-001	 3.682396385910518e+000	-7.702616490717045e+000
1	 6.539244434153749e-001	 3.689164625513728e+000	-8.726780575532922e+000
1	 6.168795156222401e-001	 3.695539556579747e+000	-9.789496370975712e+000
1	 5.798914270297606e-001	 3.701523866254123e+000	-1.087813740013231e+001
1	 5.429657184301966e-001	 3.707120336207916e+000	-1.197997265974992e+001
1	 5.061078386221682e-001	 3.712331839603034e+000	-1.308218701125896e+001
1	 4.693231429293828e-001	 3.717161338041239e+000	-1.417190121322932e+001
1	 4.326168918245687e-001	 3.721611878500688e+000	-1.523619156789455e+001
1	 3.959942496577627e-001	 3.725686590263768e+000	-1.626210915607432e+001
1	 3.594602834879763e-001	 3.729388681839912e+000	-1.723669863652904e+001
1	 7.333443265896487e-001	 3.701387831748314e+000	-6.324946160490047e+000
1	 6.959383763206329e-001	 3.708602954627166e+000	-7.227847557192916e+000
1	 6.585782378678406e-001	 3.715419361868731e+000	-8.174738004958016e+000
1	 6.212696718497978e-001	 3.721839661508096e+000	-9.152997234248199e+000
1	 5.840183495408700e-001	 3.727866559814423e+000	-1.014988817760902e+001
1	 5.468298511655639e-001	 3.733502858255095e+000	-1.115257788638733e+001
1	 5.097096643000546e-001	 3.738751450439449e+000	-1.214815809868183e+001
1	 4.726631823803694e-001	 3.743615319046093e+000	-1.312366542960158e+001
1	 4.356957033165294e-001	 3.748097532737622e+000	-1.406610115662594e+001
1	 3.988124282117861e-001	 3.752201243066593e+000	-1.496245057459272e+001
1	 3.620184601859728e-001	 3.755929681376453e+000	-1.579970189658605e+001
1	 7.385264500834193e-001	 3.727543415331995e+000	-5.939054511120683e+000
1	 7.008561734308453e-001	 3.734809523343684e+000	-6.773720214613420e+000
1	 6.632320323203235e-001	 3.741674098223632e+000	-7.645547537965268e+000
1	 6.256598280773683e-001	 3.748139766436377e+000	-8.541953604119035e+000
1	 5.881452720519894e-001	 3.754209253374684e+000	-9.450247533095869e+000
1	 5.506939839009415e-001	 3.759885380302257e+000	-1.035765129271423e+001
1	 5.133114899779541e-001	 3.765171061275875e+000	-1.125132018760264e+001
1	 4.760032218313748e-001	 3.770069300050974e+000	-1.211836295801351e+001
1	 4.387745148085166e-001	 3.774583186974591e+000	-1.294586146168052e+001
1	 4.016306067658471e-001	 3.778715895869457e+000	-1.372088991370949e+001
1	 3.645766368840204e-001	 3.782470680913031e+000	-1.443053366125324e+001
1	 7.437085735771903e-001	 3.753698998915593e+000	-5.570924469362768e+000
1	 7.057739705410576e-001	 3.761016092060142e+000	-6.339429752600901e+000
1	 6.678858267728063e-001	 3.767928834578493e+000	-7.138548901172934e+000
1	 6.300499843049385e-001	 3.774439871364630e+000	-7.955889511530386e+000
1	 5.922721945631088e-001	 3.780551946934928e+000	-8.778960320017356e+000
1	 5.545581166363193e-001	 3.786267902349412e+000	-9.595191728437813e+000
1	 5.169133156558536e-001	 3.791590672112294e+000	-1.039195596120974e+001
1	 4.793432612823798e-001	 3.796523281055853e+000	-1.115658682635669e+001
1	 4.418533263005041e-001	 3.801068841211559e+000	-1.187639905431630e+001
1	 4.044487853199077e-001	 3.805230548672321e+000	-1.253870719028384e+001
1	 3.671348135820682e-001	 3.809011680449607e+000	-1.313084401755758e+001
1	 7.488906970709288e-001	 3.779854582499195e+000	-5.219675181284384e+000
1	 7.106917676512462e-001	 3.787222660776614e+000	-5.924193734300266e+000
1	 6.725396212252720e-001	 3.794183570933372e+000	-6.653100096859962e+000
1	 6.344401405324963e-001	 3.800739976292897e+000	-7.394342161738278e+000
1	 5.963991170742183e-001	 3.806894640495175e+000	-8.135778453981429e+000
1	 5.584222493716865e-001	 3.812650424396558e+000	-8.865198075103383e+000
1	 5.205151413337398e-001	 3.818010282948693e+000	-9.570340278322664e+000
1	 4.826833007333665e-001	 3.822977262060701e+000	-1.023891364814465e+001
1	 4.449321377924647e-001	 3.827554495448490e+000	-1.085861485929003e+001
1	 4.072669638739311e-001	 3.831745201475147e+000	-1.141714699167783e+001
1	 3.696929902800645e-001	 3.835552679986149e+000	-1.190223737988328e+001
1	 7.540728205646026e-001	 3.806010166082880e+000	-4.884450006497328e+000
1	 7.156095647613882e-001	 3.813429229493175e+000	-5.527251231040662e+000
1	 6.771934156777041e-001	 3.820438307288329e+000	-6.188576774997584e+000
1	 6.388302967600293e-001	 3.827040081221221e+000	-6.856861481630962e+000
1	 6.005260395853068e-001	 3.833237334055454e+000	-7.520460670116403e+000
1	 5.622863821070326e-001	 3.839032946443702e+000	-8.167669245000013e+000
1	 5.241169670115997e-001	 3.844429893785062e+000	-8.786740442243939e+000
1	 4.860233401843158e-001	 3.849431243065491e+000	-9.365904186525205e+000
1	 4.480109492843720e-001	 3.854040149685346e+000	-9.893385036093621e+000
1	 4.100851424278794e-001	 3.858259854277893e+000	-1.035741969314573e+001
1	 3.722511669779587e-001	 3.862093679522626e+000	-1.074627405932458e+001
1	 7.592549440581792e-001	 3.832165749666733e+000	-4.564415691836704e+000
1	 7.205273618714591e-001	 3.839635798209898e+000	-5.147862088338888e+000
1	 6.818472101300854e-001	 3.846693043643425e+000	-5.744371630997401e+000
1	 6.432204529875250e-001	 3.853340186149642e+000	-6.343009685585653e+000
1	 6.046529620963648e-001	 3.859580027615781e+000	-6.932772290345090e+000
1	 5.661505148423475e-001	 3.865415468490848e+000	-7.502604180111154e+000
1	 5.277187926894196e-001	 3.870849504621382e+000	-8.041416458601365e+000
1	 4.893633796352094e-001	 3.875885224070195e+000	-8.538103895195913e+000
1	 4.510897607761997e-001	 3.880525803922092e+000	-8.981561824102750e+000
1	 4.129033209817154e-001	 3.884774507080522e+000	-9.360702625368996e+000
1	 3.748093436756992e-001	 3.888634679059003e+000	-9.664471768771023e+000
1	 7.644370675516261e-001	 3.858321333250832e+000	-4.258761578650172e+000
1	 7.254451589814354e-001	 3.865842366926856e+000	-4.785306221757534e+000
1	 6.865010045823988e-001	 3.872947779998714e+000	-5.319893827955456e+000
1	 6.476106092149710e-001	 3.879640291078204e+000	-5.852360858983317e+000
1	 6.087798846073815e-001	 3.885922721176182e+000	-6.372485000124926e+000
1	 5.700146475776197e-001	 3.891797990537994e+000	-6.870001851107892e+000
1	 5.313206183671867e-001	 3.897269115457639e+000	-7.334621282702647e+000
1	 4.927034190860284e-001	 3.902339205074783e+000	-7.756043437317983e+000
1	 4.541685722679201e-001	 3.907011458158685e+000	-8.123974353349739e+000
1	 4.157214995354012e-001	 3.911289159882991e+000	-8.428141194502858e+000
1	 3.773675203732346e-001	 3.915175678595245e+000	-8.658307066774865e+000
1	 3.517857533948060e-001	 3.649765683230813e+000	-2.193743905043072e+001
1	 3.161181078051911e-001	 3.653027746903922e+000	-2.336947213115890e+001
1	 2.805469763476744e-001	 3.655931540248671e+000	-2.480476138270955e+001
1	 2.450771001425693e-001	 3.658480420160160e+000	-2.623528742548452e+001
1	 2.097131192376740e-001	 3.660677809123401e+000	-2.765299323753676e+001
1	 1.744595719637193e-001	 3.662527192196825e+000	-2.904979424764924e+001
1	 1.393208943850413e-001	 3.664032114011715e+000	-3.041758822130563e+001
1	 1.043014198436549e-001	 3.665196175790535e+000	-3.174826492869148e+001
1	 6.940537859482161e-002	 3.666023032386947e+000	-3.303371558467482e+001
1	 3.463689753212598e-002	 3.666516389350227e+000	-3.426584205152328e+001
1	 0.000000000000000e+000	 3.666680000016666e+000	-3.543656579591163e+001
1	 3.543439300923417e-001	 3.676306682767058e+000	-2.030733902695013e+001
1	 3.184169103270729e-001	 3.679592468080790e+000	-2.156247181666209e+001
1	 2.825871065421272e-001	 3.682517377733703e+000	-2.280707397516282e+001
1	 2.468592943351140e-001	 3.685084793032176e+000	-2.403177081864375e+001
1	 2.112381474961312e-001	 3.687298161349476e+000	-2.522715986363382e+001
1	 1.757282373585250e-001	 3.689160993087310e+000	-2.638382298560977e+001
1	 1.403340322455692e-001	 3.690676858653458e+000	-2.749233829362003e+001
1	 1.050598970112219e-001	 3.691849385458404e+000	-2.854329170879368e+001
1	 6.991009267304407e-002	 3.692682254933840e+000	-2.952728823563064e+001
1	 3.488877613527627e-002	 3.693179199575721e+000	-3.043496291598693e+001
1	 0.000000000000000e+000	 3.693344000014533e+000	-3.125699145667156e+001
1	 3.569021067900821e-001	 3.702847682303435e+000	-1.873982648456728e+001
1	 3.207157128492248e-001	 3.706157189257728e+000	-1.982802965606111e+001
1	 2.846272367369186e-001	 3.709103215218715e+000	-2.089333446525087e+001
1	 2.486414885280603e-001	 3.711689165904061e+000	-2.192520555584491e+001
1	 2.127631757550389e-001	 3.713918513575291e+000	-2.291308876519473e+001
1	 1.769969027538086e-001	 3.715794793977405e+000	-2.384642507861336e+001
1	 1.413471701065716e-001	 3.717321603294685e+000	-2.471466423184165e+001
1	 1.058183741792219e-001	 3.718502595125647e+000	-2.550727794845832e+001
1	 7.041480675161180e-002	 3.719341477480014e+000	-2.621377280024424e+001
1	 3.514065473863007e-002	 3.719842009800440e+000	-2.682370267971197e+001
1	 0.000000000000000e+000	 3.720008000011599e+000	-2.732668087519235e+001
1	 3.594602834879763e-001	 3.729388681839912e+000	-1.723669863652904e+001
1	 3.230145153715792e-001	 3.732721910434723e+000	-1.816837823484907e+001
1	 2.866673669319635e-001	 3.735689052703710e+000	-1.906625666751233e+001
1	 2.504236827213076e-001	 3.738293538775841e+000	-1.991882820750185e+001
1	 2.142882040142847e-001	 3.740538865800909e+000	-2.071457648068031e+001
1	 1.782655681494503e-001	 3.742428594867207e+000	-2.144198994939799e+001
1	 1.423603079679300e-001	 3.743966347935524e+000	-2.208957698528852e+001
1	 1.065768513475467e-001	 3.745155804792417e+000	-2.264588051716307e+001
1	 7.091952083043850e-002	 3.746000700025651e+000	-2.309949224129218e+001
1	 3.539253334213648e-002	 3.746504820024574e+000	-2.343906638272181e+001
1	 0.000000000000000e+000	 3.746672000008066e+000	-2.365333299760584e+001
1	 3.620184601859728e-001	 3.755929681376453e+000	-1.579970189658605e+001
1	 3.253133178940685e-001	 3.759286631611750e+000	-1.658568703292045e+001
1	 2.887074971271778e-001	 3.762274890188694e+000	-1.732847768860968e+001
1	 2.522058769147554e-001	 3.764897911647556e+000	-1.801578386008947e+001
1	 2.158132322737557e-001	 3.767159218026396e+000	-1.863531223672077e+001
1	 1.795342335453309e-001	 3.769062395756812e+000	-1.917478295057807e+001
1	 1.433734458295256e-001	 3.770611092576106e+000	-1.962194586526641e+001
1	 1.073353285160881e-001	 3.771809014458875e+000	-1.996459638898203e+001
1	 7.142423490943783e-002	 3.772659922570928e+000	-2.019059079854666e+001
1	 3.564441194574462e-002	 3.773167630248318e+000	-2.028786106263608e+001
1	 0.000000000000000e+000	 3.773336000004134e+000	-2.024442915388756e+001
1	 3.645766368840204e-001	 3.782470680913031e+000	-1.443053366125324e+001
1	 3.276121204166254e-001	 3.785851352788797e+000	-1.508206463858117e+001
1	 2.907476273224767e-001	 3.788860727673674e+000	-1.568256061856455e+001
1	 2.539880711083038e-001	 3.791502284519238e+000	-1.621912932578524e+001
1	 2.173382605333394e-001	 3.793779570251819e+000	-1.667888171306610e+001
1	 1.808028989413310e-001	 3.795696196646321e+000	-1.704894971754632e+001
1	 1.443865836912399e-001	 3.797255837216559e+000	-1.731650351432631e+001
1	 1.080938056847377e-001	 3.798462224125173e+000	-1.746876825238917e+001
1	 7.192894898852349e-002	 3.799319145116026e+000	-1.749304025913062e+001
1	 3.589629054940362e-002	 3.799830440471868e+000	-1.737670270142800e+001
1	 0.000000000000000e+000	 3.800000000000000e+000	-1.710724069274770e+001
1	 3.671348135820682e-001	 3.809011680449607e+000	-1.313084401755758e+001
1	 3.299109229391822e-001	 3.812416073965843e+000	-1.365956086999615e+001
1	 2.927877575177755e-001	 3.815446565158654e+000	-1.413099710947865e+001
1	 2.557702653018521e-001	 3.818106657390918e+000	-1.453183621792313e+001
1	 2.188632887929231e-001	 3.820399922477242e+000	-1.484877065013285e+001
1	 1.820715643373311e-001	 3.822329997535830e+000	-1.506852033939097e+001
1	 1.453997215529541e-001	 3.823900581857012e+000	-1.517785066776839e+001
1	 1.088522828533873e-001	 3.825115433791475e+000	-1.516358988552869e+001
1	 7.243366306760912e-002	 3.825978367661124e+000	-1.501264596572350e+001
1	 3.614816915306263e-002	 3.826493250695418e+000	-1.471202288175431e+001
1	 0.000000000000000e+000	 3.826663999995867e+000	-1.424883629732509e+001
1	 3.696929902800645e-001	 3.835552679986149e+000	-1.190223737988328e+001
1	 3.322097254616717e-001	 3.838980795142871e+000	-1.232016880855765e+001
1	 2.948278877129898e-001	 3.842032402643638e+000	-1.267620984719027e+001
1	 2.575524594953000e-001	 3.844711030262634e+000	-1.295679389875973e+001
1	 2.203883170523942e-001	 3.847020274702730e+000	-1.314836830677130e+001
1	 1.833402297332117e-001	 3.848963798425436e+000	-1.323741335664303e+001
1	 1.464128594145498e-001	 3.850545326497594e+000	-1.321046071745620e+001
1	 1.096107600219286e-001	 3.851768643457931e+000	-1.305411130831297e+001
1	 7.293837714660847e-002	 3.852637590206400e+000	-1.275505257531614e+001
1	 3.640004775667077e-002	 3.853156060919164e+000	-1.230007516692480e+001
1	 0.000000000000000e+000	 3.853327999991934e+000	-1.167608899714550e+001
1	 3.722511669779587e-001	 3.862093679522626e+000	-1.074627405932458e+001
1	 3.345085279840260e-001	 3.865545516319864e+000	-1.106582674841150e+001
1	 2.968680179080348e-001	 3.868618240128634e+000	-1.132055492101675e+001
1	 2.593346536885474e-001	 3.871315403134416e+000	-1.149681230569467e+001
1	 2.219133453116400e-001	 3.873640626928349e+000	-1.158097077545810e+001
1	 1.846088951288535e-001	 3.875597599315236e+000	-1.155943959418434e+001
1	 1.474259972759081e-001	 3.877190071138433e+000	-1.141868408745063e+001
1	 1.103692371902535e-001	 3.878421853124701e+000	-1.114524372208356e+001
1	 7.344309122543517e-002	 3.879296812752037e+000	-1.072574958051455e+001
1	 3.665192636017719e-002	 3.879818871143298e+000	-1.014694121780664e+001
1	 0.000000000000000e+000	 3.879991999988402e+000	-9.395682890955531e+000
1	 3.748093436756992e-001	 3.888634679059003e+000	-9.664471768771026e+000
1	 3.368073305061779e-001	 3.892110237496804e+000	-9.898420066147121e+000
1	 2.989081481028261e-001	 3.895204077613644e+000	-1.006632409645204e+001
1	 2.611168478814935e-001	 3.897919776006299e+000	-1.015462466175269e+001
1	 2.234383735705477e-001	 3.900260979154163e+000	-1.014978416172645e+001
1	 1.858775605241369e-001	 3.902231400205332e+000	-1.003830583719143e+001
1	 1.484391351369106e-001	 3.903834815779660e+000	-9.806752430454585e+000
1	 1.111277143582535e-001	 3.905075062791944e+000	-9.441764246985075e+000
1	 7.394780530400290e-002	 3.905956035298211e+000	-8.930076604737227e+000
1	 3.690380496353097e-002	 3.906481681368015e+000	-8.258536659231176e+000
1	 0.000000000000000e+000	 3.906655999985469e+000	-7.414119594245725e+000
1	 3.773675203732346e-001	 3.915175678595245e+000	-8.658307066774864e+000
1	 3.391061330280596e-001	 3.918674958673670e+000	-8.819783014439448e+000
1	 3.009482782972789e-001	 3.921789915098675e+000	-8.915746995424698e+000
1	 2.628990420740383e-001	 3.924524148878315e+000	-8.932890075819575e+000
1	 2.249634018290048e-001	 3.926881331380237e+000	-8.857927634275971e+000
1	 1.871462259189425e-001	 3.928865201095816e+000	-8.677618357564130e+000
1	 1.494522729974383e-001	 3.930479560421401e+000	-8.378782653571291e+000
1	 1.118861915258204e-001	 3.931728272459813e+000	-7.948320466651135e+000
1	 7.445251938222533e-002	 3.932615257845103e+000	-7.373228482035769e+000
1	 3.715568356668126e-002	 3.933144491593509e+000	-6.640616707790889e+000
1	 0.000000000000000e+000	 3.933319999983334e+000	-5.737724424527047e+000
1	 3.933319999983334e+000	 0.000000000000000e+000	 1.429264826946722e+001
1	 3.933144491593509e+000	 3.715568356668014e-002	 1.362168121207868e+001
1	 3.932615257845103e+000	 7.445251938222434e-002	 1.292519275673507e+001
1	 3.931728272459813e+000	 1.118861915258195e-001	 1.220985101925916e+001
1	 3.930479560421401e+000	 1.494522729974376e-001	 1.148218051783117e+001
1	 3.928865201095816e+000	 1.871462259189419e-001	 1.074854964556374e+001
1	 3.926881331380237e+000	 2.249634018290041e-001	 1.001515802962828e+001
1	 3.924524148878315e+000	 2.628990420740378e-001	 9.288023796318658e+000
1	 3.921789915098675e+000	 3.009482782972785e-001	 8.572970762340805e+000
1	 3.918674958673671e+000	 3.391061330280594e-001	 7.875615573505218e+000
1	 3.915175678595246e+000	 3.773675203732345e-001	 7.201354812862014e+000
1	 3.959987999982151e+000	 0.000000000000000e+000	 1.259855586893276e+001
1	 3.959811301641444e+000	 3.740759995516202e-002	 1.203174542228523e+001
1	 3.959278479676159e+000	 7.495730917472704e-002	 1.143826412496806e+001
1	 3.958385480509716e+000	 1.126447824758345e-001	 1.082443671121293e+001
1	 3.957128302175165e+000	 1.504655628432892e-001	 1.019645048637274e+001
1	 3.955502997456446e+000	 1.884150816320309e-001	 9.560343332635116e+000
1	 3.953505677058800e+000	 2.264886588640514e-001	 8.921991605423695e+000
1	 3.951132512805530e+000	 2.646815036219777e-001	 8.287097939048655e+000
1	 3.948379740858182e+000	 3.029887145414693e-001	 7.661178981035711e+000
1	 3.945243664957141e+000	 3.414052804044879e-001	 7.049553075415260e+000
1	 3.941720659679418e+000	 3.799260808354097e-001	 6.457327916082876e+000
1	 3.986655999981866e+000	 0.000000000000000e+000	 1.103091323449251e+001
1	 3.986478111690256e+000	 3.765951634344035e-002	 1.055845048421881e+001
1	 3.985941701508023e+000	 7.546209896688423e-002	 1.005859352111470e+001
1	 3.985042688560328e+000	 1.134033734254160e-001	 9.537311372121209e+000
1	 3.983777043929510e+000	 1.514788526886650e-001	 9.000441171254074e+000
1	 3.982140793817519e+000	 1.896839373446401e-001	 8.453676710165013e+000
1	 3.980130022737659e+000	 2.280139158986443e-001	 7.902556884894137e+000
1	 3.977740876732896e+000	 2.664639651695106e-001	 7.352454056569579e+000
1	 3.974969566617713e+000	 3.050291507853133e-001	 6.808562344641533e+000
1	 3.971812371240533e+000	 3.437044277806347e-001	 6.275885872050139e+000
1	 3.968265640763441e+000	 3.824846412973636e-001	 5.759226982521869e+000
1	 4.013323999982383e+000	 0.000000000000000e+000	 9.586267939627815e+000
1	 4.013144921739844e+000	 3.791143273156598e-002	 9.198703055455207e+000
1	 4.012604923340605e+000	 7.596688875878213e-002	 8.783437002405869e+000
1	 4.011699896611567e+000	 1.141619643746716e-001	 8.346071107889980e+000
1	 4.010425785684370e+000	 1.524921425336828e-001	 7.892079719838649e+000
1	 4.008778590178979e+000	 1.909527930568868e-001	 7.426799313755319e+000
1	 4.006754368416778e+000	 2.295391729328923e-001	 6.955417502814296e+000
1	 4.004349240660396e+000	 2.682464267167314e-001	 6.482961967977609e+000
1	 4.001559392377266e+000	 3.070695870288871e-001	 6.014289325889352e+000
1	 3.998381077523854e+000	 3.460035751565555e-001	 5.554073953081377e+000
1	 3.994810621847331e+000	 3.850432017591319e-001	 5.106796785777059e+000
1	 4.039991999983600e+000	 0.000000000000000e+000	 8.261258715746013e+000
1	 4.039811731790116e+000	 3.816334911958979e-002	 7.949491470231174e+000
1	 4.039268145173816e+000	 7.647167855050698e-002	 7.610123077177079e+000
1	 4.038357104663356e+000	 1.149205553237095e-001	 7.248375496877525e+000
1	 4.037074527439684e+000	 1.535054323784602e-001	 6.869348011117356e+000
1	 4.035416386540783e+000	 1.922216487688887e-001	 6.478006898290562e+000
1	 4.033378714096125e+000	 2.310644299669047e-001	 6.079175019762115e+000
1	 4.030957604588013e+000	 2.700288882637349e-001	 5.677521333676783e+000
1	 4.028149218136838e+000	 3.091100232722672e-001	 5.277550353163761e+000
1	 4.024949783807111e+000	 3.483027225323062e-001	 4.883591566617456e+000
1	 4.021355602931107e+000	 3.876017622207494e-001	 4.499788838445657e+000
1	 4.066659999985416e+000	 0.000000000000000e+000	 7.052612463239893e+000
1	 4.066478541840969e+000	 3.841526550756264e-002	 6.807883061381705e+000
1	 4.065931367007566e+000	 7.697646834214493e-002	 6.536050329299061e+000
1	 4.065014312715617e+000	 1.156791462726372e-001	 6.241945508722680e+000
1	 4.063723269195385e+000	 1.545187222231149e-001	 5.930280861135969e+000
1	 4.062054182902881e+000	 1.934905044807631e-001	 5.605639922473382e+000
1	 4.060003059775668e+000	 2.325896870007906e-001	 5.272467678585573e+000
1	 4.057565968515734e+000	 2.718113498106163e-001	 4.935060676925255e+000
1	 4.054739043896424e+000	 3.111504595155297e-001	 4.597557090608402e+000
1	 4.051518490090317e+000	 3.506018699079425e-001	 4.263926751690050e+000
1	 4.047900584014783e+000	 3.901603226822512e-001	 3.937961171161999e+000
1	 4.093327999987732e+000	 0.000000000000000e+000	 5.957141379384775e+000
1	 4.093145351892311e+000	 3.866718189553543e-002	 5.771021586962636e+000
1	 4.092594588841765e+000	 7.748125813378229e-002	 5.558685135469289e+000
1	 4.091671520768268e+000	 1.164377372215629e-001	 5.324561504525903e+000
1	 4.090372010951407e+000	 1.555320120677645e-001	 5.072964298572794e+000
1	 4.088691979265224e+000	 1.947593601926277e-001	 4.808082092599643e+000
1	 4.086627405455375e+000	 2.341149440346594e-001	 4.533969209479485e+000
1	 4.084174332443538e+000	 2.735938113574702e-001	 4.254536443629260e+000
1	 4.081328869656024e+000	 3.131908957587514e-001	 3.973541746372343e+000
1	 4.078087196373478e+000	 3.529010172835201e-001	 3.694580889015560e+000
1	 4.074445565098374e+000	 3.927188831436725e-001	 3.421078120273026e+000
1	 4.119995999990450e+000	 0.000000000000000e+000	 4.971740197779365e+000
1	 4.119812161944039e+000	 3.891909828355897e-002	 4.836124756815489e+000
1	 4.119257810676322e+000	 7.798604792550518e-002	 4.675559471156986e+000
1	 4.118328728821235e+000	 1.171963281705943e-001	 4.494061314697322e+000
1	 4.117020752707688e+000	 1.565453019125268e-001	 4.295533907287334e+000
1	 4.115329775627761e+000	 1.960282159045998e-001	 4.083758962888703e+000
1	 4.113251751135212e+000	 2.356402010686202e-001	 3.862387681469486e+000
1	 4.110782696371410e+000	 2.753762729043919e-001	 3.634932098651706e+000
1	 4.107918695415634e+000	 3.152313320020084e-001	 3.404756407721873e+000
1	 4.104655902656602e+000	 3.552001646590953e-001	 3.175068269203663e+000
1	 4.100990546181900e+000	 3.952774436050482e-001	 2.948910123759675e+000
1	 4.146663999993466e+000	 0.000000000000000e+000	 4.093383534308858e+000
1	 4.146478971996062e+000	 3.917101467168416e-002	 4.000481854575214e+000
1	 4.145921032511149e+000	 7.849083771739988e-002	 3.884268801210525e+000
1	 4.144985936874439e+000	 1.179549191198392e-001	 3.748338390975148e+000
1	 4.143669494464162e+000	 1.575585917575192e-001	 3.596173232825449e+000
1	 4.141967571990445e+000	 1.972970716167970e-001	 3.431136589822958e+000
1	 4.139876096815145e+000	 2.371654581027823e-001	 3.256464398213745e+000
1	 4.137391060299332e+000	 2.771587344514758e-001	 3.075257256991686e+000
1	 4.134508521175254e+000	 3.172717682453773e-001	 2.890472401808524e+000
1	 4.131224608939702e+000	 3.574993120347234e-001	 2.704915677627375e+000
1	 4.127535527265377e+000	 3.978360040664135e-001	 2.521233525033114e+000
1	 4.173331999996684e+000	 0.000000000000000e+000	 3.319123334865449e+000
1	 4.173145782048277e+000	 3.942293105996188e-002	 3.261451450851565e+000
1	 4.172584254346157e+000	 7.899562750955257e-002	 3.182470051340089e+000
1	 4.171643144927796e+000	 1.187135100694056e-001	 3.085340029296738e+000
1	 4.170318236220767e+000	 1.585718816028596e-001	 2.973112250019911e+000
1	 4.168605368353228e+000	 1.985659273293367e-001	 2.848720238080956e+000
1	 4.166500442495146e+000	 2.386907151372550e-001	 2.714972836140435e+000
1	 4.163999424227286e+000	 2.789411959988172e-001	 2.574546848275237e+000
1	 4.161098346934876e+000	 3.193122044889346e-001	 2.429979680945551e+000
1	 4.157793315222783e+000	 3.597984594104604e-001	 2.283661995209468e+000
1	 4.154080508348820e+000	 4.003945645278036e-001	 2.137830384253638e+000
1	 4.200000000000000e+000	 0.000000000000000e+000	 2.646086420303454e+000
1	 4.199812592100592e+000	 3.967484744844299e-002	 2.616459203531787e+000
1	 4.199247476181255e+000	 7.950041730204953e-002	 2.567879656881270e+000
1	 4.198300352981238e+000	 1.194721010194014e-001	 2.503065660373350e+000
1	 4.196966977977437e+000	 1.595851714486656e-001	 2.424625888971132e+000
1	 4.195243164716059e+000	 1.998347830423365e-001	 2.335053135770523e+000
1	 4.193124788175180e+000	 2.402159721721477e-001	 2.236717623039141e+000
1	 4.190607788155259e+000	 2.807236575465109e-001	 2.131860313076268e+000
1	 4.187688172694503e+000	 3.213526407327566e-001	 2.022586231303691e+000
1	 4.184362021505857e+000	 3.620976067863623e-001	 1.910857814417926e+000
1	 4.180625489432248e+000	 4.029531249892535e-001	 1.798488296837526e+000
1	 3.915175678595246e+000	 3.773675203732345e-001	 7.201354812862013e+000
1	 3.911289159882991e+000	 4.157214995353988e-001	 6.533642897107047e+000
1	 3.907011458158685e+000	 4.541685722679181e-001	 5.855202764527154e+000
1	 3.902339205074782e+000	 4.927034190860265e-001	 5.170379310792541e+000
1	 3.897269115457639e+000	 5.313206183671850e-001	 4.483405208645172e+000
1	 3.891797990537994e+000	 5.700146475776190e-001	 3.798392448775813e+000
1	 3.885922721176182e+000	 6.087798846073808e-001	 3.119323867921774e+000
1	 3.879640291078203e+000	 6.476106092149703e-001	 2.450044680042693e+000
1	 3.872947779998714e+000	 6.865010045823986e-001	 1.794254026922225e+000
1	 3.865842366926856e+000	 7.254451589814353e-001	 1.155496565004729e+000
1	 3.858321333250832e+000	 7.644370675516263e-001	 5.371541057059045e-001
1	 3.941720659679418e+000	 3.799260808354097e-001	 6.457327916082876e+000
1	 3.937807790280955e+000	 4.185401008579659e-001	 5.868917567075271e+000
1	 3.933501085640564e+000	 4.572478456274203e-001	 5.267973948844950e+000
1	 3.928797154573237e+000	 4.960439595927764e-001	 4.658489055290470e+000
1	 3.923692689631786e+000	 5.349229843727676e-001	 4.044357484477230e+000
1	 3.918184470359234e+000	 5.738793599907123e-001	 3.429368777716667e+000
1	 3.912269366535886e+000	 6.129074262186266e-001	 2.817199740780739e+000
1	 3.905944341417220e+000	 6.520014240316409e-001	 2.211406761453125e+000
1	 3.899206454958563e+000	 6.911554971736034e-001	 1.615418138072533e+000
1	 3.892052867022555e+000	 7.303636938346297e-001	 1.032526434151290e+000
1	 3.884480840565159e+000	 7.696199684411721e-001	 4.658808745527158e-001
1	 3.968265640763441e+000	 3.824846412973636e-001	 5.759226982521867e+000
1	 3.964326420678744e+000	 4.213587021803618e-001	 5.243980468981154e+000
1	 3.959990713122277e+000	 4.603271189867886e-001	 4.714766550158177e+000
1	 3.955255104071564e+000	 4.993845000994173e-001	 4.175236796094834e+000
1	 3.950116263805866e+000	 5.385253503782557e-001	 3.628959024996495e+000
1	 3.944570950180483e+000	 5.777440724037151e-001	 3.079410399476293e+000
1	 3.938616011895685e+000	 6.170349678297760e-001	 2.529970500732137e+000
1	 3.932248391756404e+000	 6.563922388481978e-001	 1.983914393302651e+000
1	 3.925465129918650e+000	 6.958099897646699e-001	 1.444405693466587e+000
1	 3.918263367118545e+000	 7.352822286876528e-001	 9.144896547452819e-001
1	 3.910640347879802e+000	 7.748028693305064e-001	 3.970862843402375e-001
1	 3.994810621847331e+000	 3.850432017591319e-001	 5.106796785777059e+000
1	 3.990845051076375e+000	 4.241773035026022e-001	 4.658845534957830e+000
1	 3.986480340603841e+000	 4.634063923460214e-001	 4.195838780371031e+000
1	 3.981713053569775e+000	 5.027250406059335e-001	 3.721099901095138e+000
1	 3.976539837979889e+000	 5.421277163836208e-001	 3.237881002122847e+000
1	 3.970957430001742e+000	 5.816087848165880e-001	 2.749356727278875e+000
1	 3.964962657255565e+000	 6.211625094407808e-001	 2.258618046741857e+000
1	 3.958552442095746e+000	 6.607830536645897e-001	 1.768666030361031e+000
1	 3.951723804878960e+000	 7.004644823555442e-001	 1.282405618341963e+000
1	 3.944473867214804e+000	 7.402007635404506e-001	 8.026394012391241e-001
1	 3.936799855194743e+000	 7.799857702195772e-001	 3.320614215361316e-001
1	 4.021355602931107e+000	 3.876017622207494e-001	 4.499788838445657e+000
1	 4.017363681473869e+000	 4.269959048247032e-001	 4.113526329272975e+000
1	 4.012969968085275e+000	 4.664856657051181e-001	 3.711442033556766e+000
1	 4.008171003067891e+000	 5.060655811123093e-001	 3.296543133753110e+000
1	 4.002963412153861e+000	 5.457300823888341e-001	 2.871776866144703e+000
1	 3.997343909823011e+000	 5.854734972292921e-001	 2.440025010471822e+000
1	 3.991309302615524e+000	 6.252900510515953e-001	 2.004098351703752e+000
1	 3.984856492435232e+000	 6.651738684807651e-001	 1.566731123784976e+000
1	 3.977982479839473e+000	 7.051189749461718e-001	 1.130575445539762e+000
1	 3.970684367311317e+000	 7.451192983929696e-001	 6.981957592510263e-001
1	 3.962959362509964e+000	 7.851686711083351e-001	 2.720632827441525e-001
1	 4.047900584014783e+000	 3.901603226822512e-001	 3.937961171162000e+000
1	 4.043882311871244e+000	 4.298145061466808e-001	 3.608036060390787e+000
1	 4.039459595566599e+000	 4.695649390640773e-001	 3.261821109504898e+000
1	 4.034628952565923e+000	 5.094061216185285e-001	 2.902019066383957e+000
1	 4.029386986327793e+000	 5.493324483938679e-001	 2.531282926786085e+000
1	 4.023730389644294e+000	 5.893382096417901e-001	 2.152211061247783e+000
1	 4.017655947975553e+000	 6.294175926621730e-001	 1.767342312518608e+000
1	 4.011160542774849e+000	 6.695646832966722e-001	 1.379151072105275e+000
1	 4.004241154800172e+000	 7.097734675364991e-001	 9.900423448163266e-001
1	 3.996894867408061e+000	 7.500378332451562e-001	 6.023468105009997e-001
1	 3.989118869825450e+000	 7.903515719967293e-001	 2.183158924624364e-001
1	 4.074445565098374e+000	 3.927188831436725e-001	 3.421078120273026e+000
1	 4.070400942268520e+000	 4.326331074685509e-001	 3.142387592562443e+000
1	 4.065949223047831e+000	 4.726442124228986e-001	 2.847214428529650e+000
1	 4.061086902063884e+000	 5.127466621245760e-001	 2.537968477282743e+000
1	 4.055810560501692e+000	 5.529348143986932e-001	 2.217018911559994e+000
1	 4.050116869465589e+000	 5.932029220540420e-001	 1.886689952959127e+000
1	 4.044002593335649e+000	 6.335451342724680e-001	 1.549256566943807e+000
1	 4.037464593114586e+000	 6.739554981122601e-001	 1.206940135040293e+000
1	 4.030499829761044e+000	 7.144279601264723e-001	 8.619041119198174e-001
1	 4.023105367505020e+000	 7.549563680969567e-001	 5.162496753365532e-001
1	 4.015278377141183e+000	 7.955344728847096e-001	 1.720113771483802e-001
1	 4.100990546181900e+000	 3.952774436050482e-001	 2.948910123759675e+000
1	 4.096919572665721e+000	 4.354517087903298e-001	 2.716593456966317e+000
1	 4.092438850528989e+000	 4.757234857815804e-001	 2.467854237936287e+000
1	 4.087544851561791e+000	 5.160872026304352e-001	 2.204820732427173e+000
1	 4.082234134675567e+000	 5.565371804032820e-001	 1.929588502436874e+000
1	 4.076503349286900e+000	 5.970676344660099e-001	 1.644216691312140e+000
1	 4.070349238695804e+000	 6.376726758824340e-001	 1.350724278718822e+000
1	 4.063768643454430e+000	 6.783463129274768e-001	 1.051086311819129e+000
1	 4.056758504722065e+000	 7.190824527160371e-001	 7.472301192536437e-001
1	 4.049315867602173e+000	 7.598749029483173e-001	 4.410315147698740e-001
1	 4.041437884457146e+000	 8.007173737722259e-001	 1.343109975704508e-001
1	 4.127535527265377e+000	 3.978360040664135e-001	 2.521233525033114e+000
1	 4.123438203062861e+000	 4.382703101120333e-001	 2.330665862418566e+000
1	 4.118928478010091e+000	 4.788027591401219e-001	 2.123966810520189e+000
1	 4.114002801059660e+000	 5.194277431360904e-001	 1.902994152452005e+000
1	 4.108657708849428e+000	 5.601395464076057e-001	 1.669579851804663e+000
1	 4.102889829108227e+000	 6.009323468776550e-001	 1.425526859661638e+000
1	 4.096695884056011e+000	 6.418002174920238e-001	 1.172605892395054e+000
1	 4.090072693794365e+000	 6.827371277422708e-001	 9.125521856134092e-001
1	 4.083017179683222e+000	 7.237369453051399e-001	 6.470622298568124e-001
1	 4.075526367699502e+000	 7.647934377991849e-001	 3.777904938494096e-001
1	 4.067597391773321e+000	 8.059002746592268e-001	 1.063461413242909e-001
1	 4.154080508348820e+000	 4.003945645278036e-001	 2.137830384253638e+000
1	 4.149956833459963e+000	 4.410889114336775e-001	 1.984616705672740e+000
1	 4.145418105491159e+000	 4.818820324985225e-001	 1.815772635455572e+000
1	 4.140460750557502e+000	 5.227682836415261e-001	 1.632896365553202e+000
1	 4.135081283023280e+000	 5.637419124116356e-001	 1.437566078646648e+000
1	 4.129276308929571e+000	 6.047970592889388e-001	 1.231337239564694e+000
1	 4.123042529416265e+000	 6.459277591011917e-001	 1.015739859225077e+000
1	 4.116376744134381e+000	 6.871279425565912e-001	 7.922757355926370e-001
1	 4.109275854644496e+000	 7.283914378937264e-001	 5.624156763415648e-001
1	 4.101736867796985e+000	 7.697119726495050e-001	 3.275967080950462e-001
1	 4.093756899089692e+000	 8.110831755456629e-001	 8.921927729506901e-002
1	 4.180625489432248e+000	 4.029531249892535e-001	 1.798488296837526e+000
1	 4.176475463857045e+000	 4.439075127552786e-001	 1.678457581327315e+000
1	 4.171907732972210e+000	 4.849613058567810e-001	 1.543486601911755e+000
1	 4.166918700055335e+000	 5.261088241467262e-001	 1.394924646947428e+000
1	 4.161504857197135e+000	 5.673442784153437e-001	 1.234105745816313e+000
1	 4.155662788750933e+000	 6.086617716998225e-001	 1.062346407692938e+000
1	 4.149389174776560e+000	 6.500553007098915e-001	 8.809433353975672e-001
1	 4.142680794474464e+000	 6.915187573703857e-001	 6.911711180427930e-001
1	 4.135534529605870e+000	 7.330459304817428e-001	 4.942799063459976e-001
1	 4.127947367894609e+000	 7.746305074992251e-001	 2.914930746387803e-001
1	 4.119916406406244e+000	 8.162660764314833e-001	 8.400487375792104e-002
1	 3.858321333250832e+000	 7.644370675516263e-001	 5.371541057059045e-001
1	 3.850380843942109e+000	 8.034764911172418e-001	-6.871025520409335e-002
1	 3.842019493278809e+000	 8.425513879866891e-001	-6.707914301097295e-001
1	 3.833234890918529e+000	 8.816554735420568e-001	-1.267275132815652e+000
1	 3.824024761409275e+000	 9.207823780247854e-001	-1.856389647658012e+000
1	 3.814386947187074e+000	 9.599256488797628e-001	-2.436408700283119e+000
1	 3.804319411526238e+000	 9.990787532115455e-001	-3.005654308213424e+000
1	 3.793820241437709e+000	 1.038235080352056e+000	-3.562499605263415e+000
1	 3.782887650511029e+000	 1.077387944538932e+000	-4.105371633776787e+000
1	 3.771519981695345e+000	 1.116530587703505e+000	-4.632754098581188e+000
1	 3.759715710014934e+000	 1.155656182367169e+000	-5.143190076495773e+000
1	 3.884480840565159e+000	 7.696199684411721e-001	 4.658808745527159e-001
1	 3.876486514556273e+000	 8.089240801958822e-001	-9.144849750773809e-002
1	 3.868068473743193e+000	 8.482639057642208e-001	-6.470567478456085e-001
1	 3.859224311576942e+000	 8.876331179184215e-001	-1.199175982912228e+000
1	 3.849951737177908e+000	 9.270253037128130e-001	-1.746068011177974e+000
1	 3.840248578353792e+000	 9.664339668438119e-001	-2.286026929764971e+000
1	 3.830112784569850e+000	 1.005852530122790e+000	-2.817381706618195e+000
1	 3.819542429866924e+000	 1.045274338061189e+000	-3.338498753196566e+000
1	 3.808535715722647e+000	 1.084692659567023e+000	-3.847784482559742e+000
1	 3.797090973851328e+000	 1.124100690751761e+000	-4.343687847632661e+000
1	 3.785206668937873e+000	 1.163491557846334e+000	-4.824702854349557e+000
1	 3.910640347879802e+000	 7.748028693305064e-001	 3.970862843402382e-001
1	 3.902592185170744e+000	 8.143716692742633e-001	-1.138112315414466e-001
1	 3.894117454207846e+000	 8.539764235414399e-001	-6.247859159644172e-001
1	 3.885213732235561e+000	 8.936107622944156e-001	-1.134122109208464e+000
1	 3.875878712946665e+000	 9.332682294004115e-001	-1.640122501583412e+000
1	 3.866110209520529e+000	 9.729422848073704e-001	-2.141110457624835e+000
1	 3.855906157613378e+000	 1.012626307033486e+000	-2.635432349557723e+000
1	 3.845264618295935e+000	 1.052313595769716e+000	-3.121459895838064e+000
1	 3.834183780933948e+000	 1.091997374594454e+000	-3.597592500464078e+000
1	 3.822661966006883e+000	 1.131670793799310e+000	-4.062259588641820e+000
1	 3.810697627860287e+000	 1.171326933324751e+000	-4.513922934289018e+000
1	 3.936799855194743e+000	 7.799857702195772e-001	 3.320614215361317e-001
1	 3.928697855785512e+000	 8.198192583523399e-001	-1.344947892092625e-001
1	 3.920166434672769e+000	 8.596889413183101e-001	-6.026869340415285e-001
1	 3.911203152894398e+000	 8.995884066700156e-001	-1.070857391078372e+000
1	 3.901805688715573e+000	 9.395111550875681e-001	-1.537357032319028e+000
1	 3.891971840687339e+000	 9.794506027704423e-001	-2.000547306808282e+000
1	 3.881699530656882e+000	 1.019400083943650e+000	-2.458802344796361e+000
1	 3.870986806724832e+000	 1.059352853477671e+000	-2.910511079444818e+000
1	 3.859831846145037e+000	 1.099302089621277e+000	-3.354079382498179e+000
1	 3.848232958162134e+000	 1.139240896846218e+000	-3.787932210225150e+000
1	 3.836188586782309e+000	 1.179162308802503e+000	-4.210515755814366e+000
1	 3.962959362509964e+000	 7.851686711083351e-001	 2.720632827441519e-001
1	 3.954803526400566e+000	 8.252668474300684e-001	-1.522299244849830e-001
1	 3.946215415137962e+000	 8.654014590947966e-001	-5.795019156491588e-001
1	 3.937192573553473e+000	 9.055660510451962e-001	-1.008158874522433e+000
1	 3.927732664484667e+000	 9.457540807742726e-001	-1.436607098315910e+000
1	 3.917833471854273e+000	 9.859589207330298e-001	-1.863254860918812e+000
1	 3.907492903700438e+000	 1.026173860853302e+000	-2.286514306883541e+000
1	 3.896708995153701e+000	 1.066392111185088e+000	-2.704803373353208e+000
1	 3.885479911356020e+000	 1.106606804647542e+000	-3.116547736998196e+000
1	 3.873803950317198e+000	 1.146810999892553e+000	-3.520182782896196e+000
1	 3.861679545704070e+000	 1.186997684279673e+000	-3.914155592166738e+000
1	 3.989118869825450e+000	 7.903515719967293e-001	 2.183158924624364e-001
1	 3.980909197015897e+000	 8.307144365074040e-001	-1.657806847615125e-001
1	 3.972264395603426e+000	 8.711139768708635e-001	-5.540059698068396e-001
1	 3.963181994212798e+000	 9.115436954199335e-001	-9.448356846810669e-001
1	 3.953659640253977e+000	 9.519970064605126e-001	-1.336738740479262e+000
1	 3.943695103021376e+000	 9.924672386951354e-001	-1.728178901523966e+000
1	 3.933286276744113e+000	 1.032947637762458e+000	-2.117616488034015e+000
1	 3.922431183582631e+000	 1.073431368892000e+000	-2.503510115085143e+000
1	 3.911127976566998e+000	 1.113911519673297e+000	-2.884318465486869e+000
1	 3.899374942472197e+000	 1.154381102938380e+000	-3.258502094061788e+000
1	 3.887170504625702e+000	 1.194833059756341e+000	-3.624525260682475e+000
1	 4.015278377141183e+000	 7.955344728847096e-001	 1.720113771483814e-001
1	 4.007014867631494e+000	 8.361620255843024e-001	-1.739433263190158e-001
1	 3.998313376069161e+000	 8.768264946464752e-001	-5.250061261562048e-001
1	 3.989171414872387e+000	 9.175213397942028e-001	-8.797279808578860e-001
1	 3.979586616023536e+000	 9.582399321462762e-001	-1.236647550654805e+000
1	 3.969556734188702e+000	 9.989755566567617e-001	-1.594292683092534e+000
1	 3.959079649787976e+000	 1.039721414671137e+000	-1.951181942982199e+000
1	 3.948153372011707e+000	 1.080470626598443e+000	-2.305826184962875e+000
1	 3.936776041778080e+000	 1.121216234698595e+000	-2.656730166773921e+000
1	 3.924945934627249e+000	 1.161951205983767e+000	-3.002394201194485e+000
1	 3.912661463547339e+000	 1.202668435232591e+000	-3.341315844469510e+000
1	 4.041437884457146e+000	 8.007173737722259e-001	 1.343109975704513e-001
1	 4.033120538247349e+000	 8.416096146607199e-001	-1.755452719130086e-001
1	 4.024362356535171e+000	 8.825390124215965e-001	-4.913403018783848e-001
1	 4.015160835532258e+000	 9.234989841679794e-001	-8.117059521268638e-001
1	 4.005513591793375e+000	 9.644828578315524e-001	-1.135257715238893e+000
1	 3.995418365356301e+000	 1.005483874617912e+000	-1.460596043858804e+000
1	 3.984873022832094e+000	 1.046495191579357e+000	-1.786307726270628e+000
1	 3.973875560441019e+000	 1.087509884304450e+000	-2.110967308895377e+000
1	 3.962424106989367e+000	 1.128520949723485e+000	-2.433138564199161e+000
1	 3.950516926782475e+000	 1.169521309028779e+000	-2.751376002359049e+000
1	 3.938152422469113e+000	 1.210503810708504e+000	-3.064226424893213e+000
1	 4.067597391773321e+000	 8.059002746592268e-001	 1.063461413242909e-001
1	 4.059226208863447e+000	 8.470572037366112e-001	-1.694441085861847e-001
1	 4.050411337001454e+000	 8.882515301961919e-001	-4.518763084753145e-001
1	 4.041150256192424e+000	 9.294766285412386e-001	-7.396688516958980e-001
1	 4.031440567563525e+000	 9.707257835163287e-001	-1.031521095693080e+000
1	 4.021279996524220e+000	 1.011992192578588e+000	-1.326114550995963e+000
1	 4.010666395876541e+000	 1.053268968487136e+000	-1.622114120513077e+000
1	 3.999597748870653e+000	 1.094549142010055e+000	-1.918169388068601e+000
1	 3.988072172200969e+000	 1.135825664748019e+000	-2.212915954976651e+000
1	 3.976087918937997e+000	 1.177091412073483e+000	-2.504976823310660e+000
1	 3.963643381391157e+000	 1.218339186184163e+000	-2.792963824384557e+000
1	 4.093756899089692e+000	 8.110831755456629e-001	 8.921927729506929e-002
1	 4.085331879479782e+000	 8.525047928119330e-001	-1.545266239046238e-001
1	 4.076460317468012e+000	 8.939640479702253e-001	-4.055108966317469e-001
1	 4.067139676852902e+000	 9.354542729139563e-001	-6.625440682936676e-001
1	 4.057367543334020e+000	 9.769687092005942e-001	-9.244163443123463e-001
1	 4.047141627692513e+000	 1.018500510538794e+000	-1.189898678563834e+000
1	 4.036459768921380e+000	 1.060042745394492e+000	-1.457743894246294e+000
1	 4.025319937300696e+000	 1.101588399715292e+000	-1.726687854335499e+000
1	 4.013720237412986e+000	 1.143130379772245e+000	-1.995450680651497e+000
1	 4.001658911093933e+000	 1.184661515117947e+000	-2.262738020424302e+000
1	 3.989134340313600e+000	 1.226174561659649e+000	-2.527242359109510e+000
1	 4.119916406406244e+000	 8.162660764314833e-001	 8.400487375792071e-002
1	 4.111437550096344e+000	 8.579523818866410e-001	-1.297078789108815e-001
1	 4.102509297934843e+000	 8.996765657436617e-001	-3.511688374649456e-001
1	 4.093129097513706e+000	 9.414319172861084e-001	-5.792862329337851e-001
1	 4.083294519104891e+000	 9.832116348843376e-001	-8.129480536799729e-001
1	 4.073003258861228e+000	 1.025008828498531e+000	-1.051023016774726e+000
1	 4.062253141966685e+000	 1.066816522301444e+000	-1.292361588055656e+000
1	 4.051042125731239e+000	 1.108627657420195e+000	-1.535797050163933e+000
1	 4.039368302625527e+000	 1.150435094796215e+000	-1.780146617730546e+000
1	 4.027229903250404e+000	 1.192231618162235e+000	-2.024212598751233e+000
1	 4.014625299236578e+000	 1.234009937135045e+000	-2.266783601060713e+000
1	 3.759715710014934e+000	 1.155656182367169e+000	-5.143190076495773e+000
1	 3.747473444274481e+000	 1.194757834072112e+000	-5.633132792090450e+000
1	 3.734791926805089e+000	 1.233828582715533e+000	-6.099621394295734e+000
1	 3.721670038772552e+000	 1.272861407380663e+000	-6.542243402375097e+000
1	 3.708106803531544e+000	 1.311849230209202e+000	-6.960747789237931e+000
1	 3.694101388953216e+000	 1.350784919814787e+000	-7.355047564604827e+000
1	 3.679653109660585e+000	 1.389661294793495e+000	-7.725222121242526e+000
1	 3.664761429167448e+000	 1.428471127328699e+000	-8.071519334742552e+000
1	 3.649425961916560e+000	 1.467207146887431e+000	-8.394357407708213e+000
1	 3.633646475212944e+000	 1.505862044005179e+000	-8.694326449642086e+000
1	 3.617422891048259e+000	 1.544428474155829e+000	-8.972189784291311e+000
1	 3.785206668937873e+000	 1.163491557846334e+000	-4.824702854349557e+000
1	 3.772881400354629e+000	 1.202858319648345e+000	-5.287866714256005e+000
1	 3.760113901905668e+000	 1.242193968865346e+000	-5.730749682129996e+000
1	 3.746903047171049e+000	 1.281491436978597e+000	-6.152791601270637e+000
1	 3.733247852883757e+000	 1.320743598141762e+000	-6.553582562763081e+000
1	 3.719147481273075e+000	 1.359943272617523e+000	-6.932865558238892e+000
1	 3.704601242315141e+000	 1.399083230311879e+000	-7.290538915522369e+000
1	 3.689608595886351e+000	 1.438156194403447e+000	-7.626658507863341e+000
1	 3.674169153815358e+000	 1.477154845064890e+000	-7.941439727805555e+000
1	 3.658282681829495e+000	 1.516071823273362e+000	-8.235259217121659e+000
1	 3.641949101391516e+000	 1.554899734706702e+000	-8.508656344664329e+000
1	 3.810697627860287e+000	 1.171326933324751e+000	-4.513922934289018e+000
1	 3.798289356434168e+000	 1.210958805223801e+000	-4.950242183962943e+000
1	 3.785435877005571e+000	 1.250559355014358e+000	-5.369355648543380e+000
1	 3.772136055568818e+000	 1.290121466575713e+000	-5.770570460862460e+000
1	 3.758388902235207e+000	 1.329637966073493e+000	-6.153331639576740e+000
1	 3.744193573592156e+000	 1.369101625419423e+000	-6.517224772383087e+000
1	 3.729549374968920e+000	 1.408505165829424e+000	-6.861978503354616e+000
1	 3.714455762604492e+000	 1.447841261477360e+000	-7.187466815431184e+000
1	 3.698912345713430e+000	 1.487102543241513e+000	-7.493711099401420e+000
1	 3.682918888445374e+000	 1.526281602540710e+000	-7.780882001050298e+000
1	 3.666475311734168e+000	 1.565370995256741e+000	-8.049301038514292e+000
1	 3.836188586782309e+000	 1.179162308802503e+000	-4.210515755814366e+000
1	 3.823697312513241e+000	 1.219059290798574e+000	-4.620129677023137e+000
1	 3.810757852104945e+000	 1.258924741162679e+000	-5.015496380132519e+000
1	 3.797369063966007e+000	 1.298751496172133e+000	-5.395805000332485e+000
1	 3.783529951586039e+000	 1.338532334004527e+000	-5.760369054668371e+000
1	 3.769239665910597e+000	 1.378259978220630e+000	-6.108629117006436e+000
1	 3.754497507622048e+000	 1.417927101346283e+000	-6.440155319760623e+000
1	 3.739302929321989e+000	 1.457526328550590e+000	-6.754649673853431e+000
1	 3.723655537610877e+000	 1.497050241417462e+000	-7.051948198640832e+000
1	 3.707555095060664e+000	 1.536491381807390e+000	-7.332022853818761e+000
1	 3.691001522076282e+000	 1.575842255806114e+000	-7.594983265646629e+000
1	 3.861679545704070e+000	 1.186997684279673e+000	-3.914155592166738e+000
1	 3.849105268591986e+000	 1.227159776372763e+000	-4.297403089207735e+000
1	 3.836079827203931e+000	 1.267290127310418e+000	-4.669227456179657e+000
1	 3.822602072362762e+000	 1.307381525767978e+000	-5.028714297454051e+000
1	 3.808671000936399e+000	 1.347426701934999e+000	-5.375058967003418e+000
1	 3.794285758228536e+000	 1.387418331021288e+000	-5.707569196833195e+000
1	 3.779445640274659e+000	 1.427349036862607e+000	-6.025667576211719e+000
1	 3.764150096038960e+000	 1.467211395623299e+000	-6.328893873713607e+000
1	 3.748398729507803e+000	 1.506997939592899e+000	-6.616907194301893e+000
1	 3.732191301675452e+000	 1.546701161073566e+000	-6.889487963911592e+000
1	 3.715527732417928e+000	 1.586313516354986e+000	-7.146539734262832e+000
1	 3.887170504625702e+000	 1.194833059756341e+000	-3.624525260682475e+000
1	 3.874513224670545e+000	 1.235260261946463e+000	-3.981939624111690e+000
1	 3.861401802302680e+000	 1.275655513457685e+000	-4.330602998075262e+000
1	 3.847835080759229e+000	 1.316011555363373e+000	-4.669511683402014e+000
1	 3.833812050286428e+000	 1.356321069865043e+000	-4.997755983343726e+000
1	 3.819331850546111e+000	 1.396576683821540e+000	-5.314522747602448e+000
1	 3.804393772926876e+000	 1.436770972378545e+000	-5.619097792576206e+000
1	 3.788997262755524e+000	 1.476896462695643e+000	-5.910868190485565e+000
1	 3.773141921404313e+000	 1.516945637767987e+000	-6.189324420202889e+000
1	 3.756827508289828e+000	 1.556910940339404e+000	-6.454062372793412e+000
1	 3.740053942759174e+000	 1.596784776903525e+000	-6.704785204985801e+000
1	 3.912661463547339e+000	 1.202668435232591e+000	-3.341315844469510e+000
1	 3.899921180749060e+000	 1.243360747519771e+000	-3.673619685401413e+000
1	 3.886723777401332e+000	 1.284020899604590e+000	-3.999675716808875e+000
1	 3.873068089155554e+000	 1.324641584958439e+000	-4.318404929947979e+000
1	 3.858953099636274e+000	 1.365215437794790e+000	-4.628805469410368e+000
1	 3.844377942863459e+000	 1.405735036621528e+000	-4.929955055275041e+000
1	 3.829341905578835e+000	 1.446192907894250e+000	-5.221013308272841e+000
1	 3.813844429471796e+000	 1.486581529767779e+000	-5.501223971374873e+000
1	 3.797885113300514e+000	 1.526893335942891e+000	-5.769917021325331e+000
1	 3.781463714903873e+000	 1.567120719605069e+000	-6.026510663772124e+000
1	 3.764580153100086e+000	 1.607256037451897e+000	-6.270513205801354e+000
1	 3.938152422469113e+000	 1.210503810708504e+000	-3.064226424893213e+000
1	 3.925329136827668e+000	 1.251461233092785e+000	-3.372326773247488e+000
1	 3.912045752500035e+000	 1.292386285751245e+000	-3.676496958615410e+000
1	 3.898301097551884e+000	 1.333271614553298e+000	-3.975596429385452e+000
1	 3.884094148986077e+000	 1.374109805724376e+000	-4.268543848961636e+000
1	 3.869424035180720e+000	 1.414893389421396e+000	-4.554319358959383e+000
1	 3.854290038230660e+000	 1.455614843409874e+000	-4.831966773572257e+000
1	 3.838691596187895e+000	 1.496266596839867e+000	-5.100595699369230e+000
1	 3.822628305196501e+000	 1.536841034117769e+000	-5.359383574843662e+000
1	 3.806099921517680e+000	 1.577330498870728e+000	-5.607577624108981e+000
1	 3.789106363440732e+000	 1.617727298000268e+000	-5.844496719233415e+000
1	 3.963643381391157e+000	 1.218339186184163e+000	-2.792963824384557e+000
1	 3.950737092906511e+000	 1.259561718665599e+000	-3.077947384753432e+000
1	 3.937367727598935e+000	 1.300751671897758e+000	-3.361116748860217e+000
1	 3.923534105948365e+000	 1.341901644148074e+000	-3.641283367512268e+000
1	 3.909235198335982e+000	 1.383004173653933e+000	-3.917298891330369e+000
1	 3.894470127498032e+000	 1.424051742221288e+000	-4.188057238289688e+000
1	 3.879238170882482e+000	 1.465036778925567e+000	-4.452496621940876e+000
1	 3.863538762903941e+000	 1.505951663912063e+000	-4.709601535523579e+000
1	 3.847371497092382e+000	 1.546788732292786e+000	-4.958404687190603e+000
1	 3.830736128131333e+000	 1.587540278136545e+000	-5.197988881579483e+000
1	 3.813632573781182e+000	 1.628198558548805e+000	-5.427488843003221e+000
1	 3.989134340313600e+000	 1.226174561659649e+000	-2.527242359109510e+000
1	 3.976145048985731e+000	 1.267662204238311e+000	-2.790370918202391e+000
1	 3.962689702698176e+000	 1.309117058044240e+000	-3.053583834241521e+000
1	 3.948767114345144e+000	 1.350531673742887e+000	-3.315657889980344e+000
1	 3.934376247686132e+000	 1.391898541583594e+000	-3.575389987937176e+000
1	 3.919516219815531e+000	 1.433210095021344e+000	-3.831598985951694e+000
1	 3.904186303534432e+000	 1.474458714441479e+000	-4.083127524274566e+000
1	 3.888385929620046e+000	 1.515636730984523e+000	-4.328843840453765e+000
1	 3.872114688988262e+000	 1.556736430468104e+000	-4.567643568231566e+000
1	 3.855372334744916e+000	 1.597750057402686e+000	-4.798451516628195e+000
1	 3.838158784121502e+000	 1.638669819097675e+000	-5.020223425358411e+000
1	 4.014625299236578e+000	 1.234009937135045e+000	-2.266783601060713e+000
1	 4.001553005065471e+000	 1.275762689811019e+000	-2.509489580951564e+000
1	 3.988011677797905e+000	 1.317482444190801e+000	-2.753945723384929e+000
1	 3.974000122742366e+000	 1.359161703337862e+000	-2.998907262308563e+000
1	 3.959517297036672e+000	 1.400792909513493e+000	-3.243128418269068e+000
1	 3.944562312133357e+000	 1.442368447821711e+000	-3.485363966016396e+000
1	 3.929134436186639e+000	 1.483880649957763e+000	-3.724370825827520e+000
1	 3.913233096336334e+000	 1.525321798057408e+000	-3.958909675962739e+000
1	 3.896857880884243e+000	 1.566684128643885e+000	-4.187746583563682e+000
1	 3.880008541358522e+000	 1.607959836669317e+000	-4.409654651202353e+000
1	 3.862684994461762e+000	 1.649141079647046e+000	-4.623415676197912e+000
1	 3.617422891048259e+000	 1.544428474155829e+000	-8.972189784291311e+000
1	 3.600757821582672e+000	 1.582893299281493e+000	-9.220688400720341e+000
1	 3.583649105312324e+000	 1.621254913125378e+000	-9.432349914017882e+000
1	 3.566097140681105e+000	 1.659505895371513e+000	-9.607664880780646e+000
1	 3.548102486840681e+000	 1.697638806993271e+000	-9.747173026939599e+000
1	 3.529665864868949e+000	 1.735646194488917e+000	-9.851463094726849e+000
1	 3.510788158857955e+000	 1.773520594178442e+000	-9.921172613546547e+000
1	 3.491470416868222e+000	 1.811254536557092e+000	-9.956987594056971e+000
1	 3.471713851746570e+000	 1.848840550700882e+000	-9.959642144941181e+000
1	 3.451519841804724e+000	 1.886271168719184e+000	-9.929918012018455e+000
1	 3.430889931356198e+000	 1.923538930249378e+000	-9.868644039525668e+000
1	 3.641949101391516e+000	 1.554899734706702e+000	-8.508656344664329e+000
1	 3.625171042372079e+000	 1.593625352230694e+000	-8.753326186024799e+000
1	 3.607946328612285e+000	 1.632247058698082e+000	-8.961005140140719e+000
1	 3.590275361257489e+000	 1.670757383482981e+000	-9.132345795710547e+000
1	 3.572158703250427e+000	 1.709148837121984e+000	-9.268063180331170e+000
1	 3.553597080557927e+000	 1.747413915578442e+000	-9.368934459312333e+000
1	 3.534591383266208e+000	 1.785545104568417e+000	-9.435798532404686e+000
1	 3.515142666541674e+000	 1.823534883943736e+000	-9.469555527691771e+000
1	 3.495252151454283e+000	 1.861375732127375e+000	-9.471166192130585e+000
1	 3.474921225660749e+000	 1.899060130596229e+000	-9.441651178465062e+000
1	 3.454151443945081e+000	 1.936580568406244e+000	-9.382090228483238e+000
1	 3.666475311734168e+000	 1.565370995256741e+000	-8.049301038514292e+000
1	 3.649584263160969e+000	 1.604357405179059e+000	-8.289770024550084e+000
1	 3.632243551911827e+000	 1.643239204269950e+000	-8.493363832365120e+000
1	 3.614453581833564e+000	 1.682008871593611e+000	-8.660866989889255e+000
1	 3.596214919659974e+000	 1.720658867249862e+000	-8.793138498708112e+000
1	 3.577528296246816e+000	 1.759181636667134e+000	-8.891111419842382e+000
1	 3.558394607674472e+000	 1.797569614957565e+000	-8.955792334028587e+000
1	 3.538814916215225e+000	 1.835815231329567e+000	-8.988260675658768e+000
1	 3.518790451162161e+000	 1.873910913553071e+000	-8.989667939827509e+000
1	 3.498322609516990e+000	 1.911849092472505e+000	-8.961236762235039e+000
1	 3.477412956534197e+000	 1.949622206562376e+000	-8.904259871999194e+000
1	 3.691001522076282e+000	 1.575842255806114e+000	-7.594983265646629e+000
1	 3.673997483949385e+000	 1.615089458126757e+000	-7.830892404292152e+000
1	 3.656540775210977e+000	 1.654231349841147e+000	-8.030295542362739e+000
1	 3.638631802409330e+000	 1.693260359703563e+000	-8.194079623022201e+000
1	 3.620271136069302e+000	 1.732168897377055e+000	-8.323216880819057e+000
1	 3.601459511935571e+000	 1.770949357755138e+000	-8.418764349168816e+000
1	 3.582197832082684e+000	 1.809594125346025e+000	-8.481863221475352e+000
1	 3.562487165888796e+000	 1.848095578714712e+000	-8.513738064919737e+000
1	 3.542328750870120e+000	 1.886446094978093e+000	-8.515695886287947e+000
1	 3.521723993373348e+000	 1.924638054348121e+000	-8.489125049559277e+000
1	 3.500674469123442e+000	 1.962663844717872e+000	-8.435494045336425e+000
1	 3.715527732417928e+000	 1.586313516354986e+000	-7.146539734262831e+000
1	 3.698410704737381e+000	 1.625821511073953e+000	-7.377542776062062e+000
1	 3.680837998509758e+000	 1.665223495411832e+000	-7.572646862151081e+000
1	 3.662810022984793e+000	 1.704511847812997e+000	-7.732812380782193e+000
1	 3.644327352478393e+000	 1.743678927503718e+000	-7.859094629602653e+000
1	 3.625390727624157e+000	 1.782717078842601e+000	-7.952643279207929e+000
1	 3.606001056490789e+000	 1.821618635733935e+000	-8.014701671994493e+000
1	 3.586159415562315e+000	 1.860375926099302e+000	-8.046605955175615e+000
1	 3.565867050578072e+000	 1.898981276402560e+000	-8.049784047212034e+000
1	 3.545125377229727e+000	 1.937427016223188e+000	-8.025754437304633e+000
1	 3.523935981712723e+000	 1.975705482872834e+000	-7.976124818001635e+000
1	 3.740053942759174e+000	 1.596784776903525e+000	-6.704785204985799e+000
1	 3.722823925524999e+000	 1.636553564020810e+000	-6.930548308842657e+000
1	 3.705135221808199e+000	 1.676215640982174e+000	-7.121242176907752e+000
1	 3.686988243559954e+000	 1.715763335922071e+000	-7.277872211701111e+000
1	 3.668383568887226e+000	 1.755188957630005e+000	-7.401547160283633e+000
1	 3.649321943312530e+000	 1.794484799929671e+000	-7.493478567890875e+000
1	 3.629804280898727e+000	 1.833643146121435e+000	-7.554980051020760e+000
1	 3.609831665235705e+000	 1.872656273483468e+000	-7.587466388641109e+000
1	 3.589405350285924e+000	 1.911516457826590e+000	-7.592452430606618e+000
1	 3.568526761086030e+000	 1.950215978097816e+000	-7.571551822809258e+000
1	 3.547197494301936e+000	 1.988747121027364e+000	-7.526475549031335e+000
1	 3.764580153100086e+000	 1.607256037451897e+000	-6.270513205801355e+000
1	 3.747237146312288e+000	 1.647285616967497e+000	-6.490714615617912e+000
1	 3.729432445106324e+000	 1.687207786552331e+000	-6.676884388357481e+000
1	 3.711166464134817e+000	 1.727014824030942e+000	-6.830045035256067e+000
1	 3.692439785295785e+000	 1.766698987756068e+000	-6.951329680789032e+000
1	 3.673253159000651e+000	 1.806252521016490e+000	-7.041981540042754e+000
1	 3.653607505306437e+000	 1.845667656508661e+000	-7.103353202165526e+000
1	 3.633503914908892e+000	 1.884936620867337e+000	-7.136905718328661e+000
1	 3.612943649993593e+000	 1.924051639250307e+000	-7.144207493085274e+000
1	 3.591928144942161e+000	 1.963004939972117e+000	-7.126932978479167e+000
1	 3.570459006890980e+000	 2.001788759181559e+000	-7.086861170735114e+000
1	 3.789106363440732e+000	 1.617727298000268e+000	-5.844496719233415e+000
1	 3.771650367099297e+000	 1.658017669914180e+000	-6.058826451013728e+000
1	 3.753729668404155e+000	 1.698199932122468e+000	-6.240355610064588e+000
1	 3.735344684709383e+000	 1.738266312139771e+000	-6.390096422456247e+000
1	 3.716496001704045e+000	 1.778209017882060e+000	-6.509177845739401e+000
1	 3.697184374688481e+000	 1.818020242103209e+000	-6.598845103372269e+000
1	 3.677410729713861e+000	 1.857692166895753e+000	-6.660459014295142e+000
1	 3.657176164581796e+000	 1.897216968251040e+000	-6.695495115815500e+000
1	 3.636481949700989e+000	 1.936586820673828e+000	-6.705542578447123e+000
1	 3.615329528798024e+000	 1.975793901846201e+000	-6.692302911837037e+000
1	 3.593720519479760e+000	 2.014830397335523e+000	-6.657588461419119e+000
1	 3.813632573781182e+000	 1.628198558548805e+000	-5.427488843003221e+000
1	 3.796063587886068e+000	 1.668749722861022e+000	-5.635648382018531e+000
1	 3.778026891701721e+000	 1.709192077692748e+000	-5.812417835896779e+000
1	 3.759522905283656e+000	 1.749517800248717e+000	-5.958772250167454e+000
1	 3.740552218111992e+000	 1.789719048008136e+000	-6.075808385204280e+000
1	 3.721115590375979e+000	 1.829787963189973e+000	-6.164744340691777e+000
1	 3.701213954120938e+000	 1.869716677282848e+000	-6.226918966727059e+000
1	 3.680848414254348e+000	 1.909497315634706e+000	-6.263791059417304e+000
1	 3.660020249408020e+000	 1.949122002097276e+000	-6.276938339331918e+000
1	 3.638730912653521e+000	 1.988582863720177e+000	-6.268056211677193e+000
1	 3.616982032068171e+000	 2.027872035489355e+000	-6.238956307585983e+000
1	 3.838158784121502e+000	 1.638669819097675e+000	-5.020223425358412e+000
1	 3.820476808672654e+000	 1.679481775808191e+000	-5.221925432987992e+000
1	 3.802324114999044e+000	 1.720184223263335e+000	-5.393813582858753e+000
1	 3.783701125857639e+000	 1.760769288357938e+000	-5.536799330349505e+000
1	 3.764608434519603e+000	 1.801229078134447e+000	-5.651919709350803e+000
1	 3.745046806063102e+000	 1.841555684276927e+000	-5.740337079431551e+000
1	 3.725017178527611e+000	 1.881741187670087e+000	-5.803338653523010e+000
1	 3.704520663926468e+000	 1.921777663018466e+000	-5.842335803645186e+000
1	 3.683558549114603e+000	 1.961657183520769e+000	-5.858863142709018e+000
1	 3.662132296508555e+000	 2.001371825594157e+000	-5.854577380949300e+000
1	 3.640243544656117e+000	 2.040913673643154e+000	-5.831255956081739e+000
1	 3.862684994461762e+000	 1.649141079647046e+000	-4.623415676197912e+000
1	 3.844890029459101e+000	 1.690213828755853e+000	-4.818383706077192e+000
1	 3.826621338296151e+000	 1.731176368834391e+000	-4.985266509436571e+000
1	 3.807879346431334e+000	 1.772020776467594e+000	-5.124886015321645e+000
1	 3.788664650926863e+000	 1.812739108261148e+000	-5.238192490056956e+000
1	 3.768978021749813e+000	 1.853323405364218e+000	-5.326264439456876e+000
1	 3.748820402933820e+000	 1.893765698057605e+000	-5.390308287807896e+000
1	 3.728192913598082e+000	 1.934058010402449e+000	-5.431657830777594e+000
1	 3.707096848820648e+000	 1.974192364944430e+000	-5.451773459917981e+000
1	 3.685533680363033e+000	 2.014160787468252e+000	-5.452241156959680e+000
1	 3.663505057243498e+000	 2.053955311797023e+000	-5.434771256636825e+000
1	 3.430889931356198e+000	 1.923538930249378e+000	-9.868644039525668e+000
1	 3.409822639161488e+000	 1.960641939370820e+000	-9.779722030410053e+000
1	 3.388322907875673e+000	 1.997567159735842e+000	-9.667119443455993e+000
1	 3.366392785299045e+000	 2.034307179775804e+000	-9.531829655909698e+000
1	 3.344034485992657e+000	 2.070854613836993e+000	-9.374933041983148e+000
1	 3.321250391072291e+000	 2.107202106807173e+000	-9.197596201409672e+000
1	 3.298043047850051e+000	 2.143342338751271e+000	-9.001071033593060e+000
1	 3.274415169322649e+000	 2.179268029550414e+000	-8.786693657478120e+000
1	 3.250369633505694e+000	 2.214971943538431e+000	-8.555883177654396e+000
1	 3.225909482613577e+000	 2.250446894129933e+000	-8.310140297593783e+000
1	 3.201037922084772e+000	 2.285685748434004e+000	-8.051045781312325e+000
1	 3.454151443945081e+000	 1.936580568406244e+000	-9.382090228483236e+000
1	 3.432941315024939e+000	 1.973935136782386e+000	-9.296833047988358e+000
1	 3.411295815066717e+000	 2.011110710990246e+000	-9.190029648413928e+000
1	 3.389217005754839e+000	 2.048099829210576e+000	-9.062527989130031e+000
1	 3.366707116665132e+000	 2.084895055714759e+000	-8.915252149285044e+000
1	 3.343768545057394e+000	 2.121488985522725e+000	-8.749201730017445e+000
1	 3.320403855514565e+000	 2.157874249070070e+000	-8.565451122809053e+000
1	 3.296615779427530e+000	 2.194043516878545e+000	-8.365148643926322e+000
1	 3.272407214324913e+000	 2.229989504223993e+000	-8.149515535228330e+000
1	 3.247781223047381e+000	 2.265704975795808e+000	-7.919844831953730e+000
1	 3.222741032766358e+000	 2.301182750341904e+000	-7.677500098437147e+000
1	 3.477412956534197e+000	 1.949622206562376e+000	-8.904259871999196e+000
1	 3.456059990888607e+000	 1.987228334193262e+000	-8.823369158900897e+000
1	 3.434268722257934e+000	 2.024654262244012e+000	-8.722773888972224e+000
1	 3.412041226210741e+000	 2.061892478644769e+000	-8.603202985153647e+000
1	 3.389379747337629e+000	 2.098935497592009e+000	-8.465451897859454e+000
1	 3.366286699042419e+000	 2.135775864237826e+000	-8.310382143079558e+000
1	 3.342764663178891e+000	 2.172406159388485e+000	-8.138920724595426e+000
1	 3.318816389532113e+000	 2.208819004206356e+000	-7.952059440133427e+000
1	 3.294444795143724e+000	 2.245007064909296e+000	-7.750854071563519e+000
1	 3.269652963480679e+000	 2.280963057461481e+000	-7.536423459538872e+000
1	 3.244444143447348e+000	 2.316679752249655e+000	-7.309948463264073e+000
1	 3.500674469123442e+000	 1.962663844717872e+000	-8.435494045336426e+000
1	 3.479178666752396e+000	 2.000521531603536e+000	-8.359565783670030e+000
1	 3.457241629449239e+000	 2.038197813497221e+000	-8.265499250610697e+000
1	 3.434865446666673e+000	 2.075685128078454e+000	-8.153930156699921e+000
1	 3.412052378010084e+000	 2.112975939468804e+000	-8.025552414580277e+000
1	 3.388804853027323e+000	 2.150062742952528e+000	-7.881117775656738e+000
1	 3.365125470843008e+000	 2.186938069706559e+000	-7.721435366298246e+000
1	 3.341016999636398e+000	 2.223594491533884e+000	-7.547371123334798e+000
1	 3.316482375962151e+000	 2.260024625594372e+000	-7.359847128851023e+000
1	 3.291524703913511e+000	 2.296221139126975e+000	-7.159840844525726e+000
1	 3.266147254127807e+000	 2.332176754157270e+000	-6.948384246017415e+000
1	 3.523935981712723e+000	 1.975705482872834e+000	-7.976124818001635e+000
1	 3.502297342616207e+000	 2.013814729013301e+000	-7.905652126771277e+000
1	 3.480214536640537e+000	 2.051741364749952e+000	-7.818348935162129e+000
1	 3.457689667122557e+000	 2.089477777511701e+000	-7.714783022649376e+000
1	 3.434725008682439e+000	 2.127016381345205e+000	-7.595573294891106e+000
1	 3.411323007012064e+000	 2.164349621666885e+000	-7.461389482043123e+000
1	 3.387486278506896e+000	 2.201469980024335e+000	-7.312951749520272e+000
1	 3.363217609740387e+000	 2.238369978861164e+000	-7.151030220947241e+000
1	 3.338519956780216e+000	 2.275042186279246e+000	-6.976444413255587e+000
1	 3.313396444345928e+000	 2.311479220792313e+000	-6.790062584098629e+000
1	 3.287850364807802e+000	 2.347673756064768e+000	-6.592800991974444e+000
1	 3.547197494301936e+000	 1.988747121027364e+000	-7.526475549031335e+000
1	 3.525416018479945e+000	 2.027107926422647e+000	-7.461851380448636e+000
1	 3.503187443831742e+000	 2.065284916002286e+000	-7.381462388151286e+000
1	 3.480513887578316e+000	 2.103270426944580e+000	-7.285833173418630e+000
1	 3.457397639354630e+000	 2.141056823221275e+000	-7.175533620230062e+000
1	 3.433841160996597e+000	 2.178636500380949e+000	-7.051178618741168e+000
1	 3.409847086170532e+000	 2.216001890341860e+000	-6.913427711618549e+000
1	 3.385418219844079e+000	 2.253145466188233e+000	-6.762984663019772e+000
1	 3.360557537597944e+000	 2.290059746963949e+000	-6.600596950192828e+000
1	 3.335268184777969e+000	 2.326737302457517e+000	-6.427055177857680e+000
1	 3.309553475487395e+000	 2.363170757972164e+000	-6.243192415725773e+000
1	 3.570459006890980e+000	 2.001788759181559e+000	-7.086861170735114e+000
1	 3.548534694343513e+000	 2.040401123831665e+000	-7.028380920562720e+000
1	 3.526160351022762e+000	 2.078828467254305e+000	-6.954975421156750e+000
1	 3.503338108033874e+000	 2.117063076377164e+000	-6.867150333780114e+000
1	 3.480070270026597e+000	 2.155097265097072e+000	-6.765451974773484e+000
1	 3.456359314980883e+000	 2.192923379094772e+000	-6.650467028102325e+000
1	 3.432207893833896e+000	 2.230533800659176e+000	-6.522822188707412e+000
1	 3.407618829947475e+000	 2.267920953515126e+000	-6.383183736542894e+000
1	 3.382595118415356e+000	 2.305077307648509e+000	-6.232257041354768e+000
1	 3.357139925209684e+000	 2.341995384122610e+000	-6.070785998422644e+000
1	 3.331256586166657e+000	 2.378667759879476e+000	-5.899552395659751e+000
1	 3.593720519479760e+000	 2.014830397335523e+000	-6.657588461419119e+000
1	 3.571653370206811e+000	 2.053694321240443e+000	-6.605452494833046e+000
1	 3.549133258213510e+000	 2.092372018506087e+000	-6.539020329420171e+000
1	 3.526162328489153e+000	 2.130855725809522e+000	-6.458802423242080e+000
1	 3.502742900698279e+000	 2.169137706972662e+000	-6.365346461529538e+000
1	 3.478877468964877e+000	 2.207210257808405e+000	-6.259237022603092e+000
1	 3.454568701496963e+000	 2.245065710976327e+000	-6.141095180098315e+000
1	 3.429819440050576e+000	 2.282696440841879e+000	-6.011578041532377e+000
1	 3.404632699232478e+000	 2.320094868332957e+000	-5.871378223404227e+000
1	 3.379011665641113e+000	 2.357253465787612e+000	-5.721223263178444e+000
1	 3.352959696845650e+000	 2.394164761786720e+000	-5.561874968661497e+000
1	 3.616982032068171e+000	 2.027872035489355e+000	-6.238956307585984e+000
1	 3.594772046069743e+000	 2.066987518649075e+000	-6.193272403816113e+000
1	 3.572106165403896e+000	 2.105915569757716e+000	-6.133726004917655e+000
1	 3.548986548944075e+000	 2.144648375241726e+000	-6.060855614098527e+000
1	 3.525415531369615e+000	 2.183178148848104e+000	-5.975234717810496e+000
1	 3.501395622948538e+000	 2.221497136521903e+000	-5.877471369727492e+000
1	 3.476929509159712e+000	 2.259597621293356e+000	-5.768207714111409e+000
1	 3.452020050153380e+000	 2.297471928168530e+000	-5.648119448807668e+000
1	 3.426670280049331e+000	 2.335112429017318e+000	-5.517915228263178e+000
1	 3.400883406072306e+000	 2.372511547452548e+000	-5.378336007110884e+000
1	 3.374662807524445e+000	 2.409661763693914e+000	-5.230154325016182e+000
1	 3.640243544656117e+000	 2.040913673643154e+000	-5.831255956081739e+000
1	 3.617890721932214e+000	 2.080280716057648e+000	-5.792041674945152e+000
1	 3.595079072593831e+000	 2.119459121009271e+000	-5.739218045095747e+000
1	 3.571810769398565e+000	 2.158441024673847e+000	-5.673374387253680e+000
1	 3.548088162040541e+000	 2.197218590723459e+000	-5.595133930112059e+000
1	 3.523913776931821e+000	 2.235784015235317e+000	-5.505153277429600e+000
1	 3.499290316822126e+000	 2.274129531610309e+000	-5.404121815198524e+000
1	 3.474220660255889e+000	 2.312247415495112e+000	-5.292761059389137e+000
1	 3.448707860865935e+000	 2.350129989701623e+000	-5.171823944923641e+000
1	 3.422755146503306e+000	 2.387769629117438e+000	-5.042094056683899e+000
1	 3.396365918203103e+000	 2.425158765601074e+000	-4.904384803507829e+000
1	 3.663505057243498e+000	 2.053955311797023e+000	-5.434771256636824e+000
1	 3.641009397794123e+000	 2.093573913466255e+000	-5.401956229939175e+000
1	 3.618051979783224e+000	 2.133002672260831e+000	-5.355618857464902e+000
1	 3.594634989852545e+000	 2.172233674105955e+000	-5.296421585919541e+000
1	 3.570760792711000e+000	 2.211259032598791e+000	-5.225060848425707e+000
1	 3.546431930914687e+000	 2.250070893948701e+000	-5.142266380149510e+000
1	 3.521651124484179e+000	 2.288661441927229e+000	-5.048800472318177e+000
1	 3.496421270358105e+000	 2.327022902821664e+000	-4.945457165442083e+000
1	 3.470745441682317e+000	 2.365147550385902e+000	-4.833061382713464e+000
1	 3.444626886934159e+000	 2.403027710782308e+000	-4.712468004712039e+000
1	 3.418069028881694e+000	 2.440655767508218e+000	-4.584560886704842e+000
1	 3.201037922084772e+000	 2.285685748434004e+000	-8.051045781312325e+000
1	 3.175758318549517e+000	 2.320681431073920e+000	-7.781943274105950e+000
1	 3.150074195862330e+000	 2.355426926386115e+000	-7.504571391355971e+000
1	 3.123989236422098e+000	 2.389915285194917e+000	-7.218141729426682e+000
1	 3.097507280498922e+000	 2.424139630075088e+000	-6.921839595808340e+000
1	 3.070632324500331e+000	 2.458093159808781e+000	-6.614825650403298e+000
1	 3.043368519087290e+000	 2.491769153792503e+000	-6.296237606722660e+000
1	 3.015720167141756e+000	 2.525160976388238e+000	-5.965191989628268e+000
1	 2.987691721587632e+000	 2.558262081212876e+000	-5.620785946083011e+000
1	 2.959287783067378e+000	 2.591066015360244e+000	-5.262099105210793e+000
1	 2.930513097476696e+000	 2.623566423550066e+000	-4.888195483816053e+000
1	 3.222741032766358e+000	 2.301182750341904e+000	-7.677500098437145e+000
1	 3.197290032937911e+000	 2.336415704514344e+000	-7.425028602234159e+000
1	 3.171431771308376e+000	 2.371396775083201e+000	-7.163571655345574e+000
1	 3.145169955243393e+000	 2.406118965757234e+000	-6.892419944780547e+000
1	 3.118508451050198e+000	 2.440575352482112e+000	-6.610843984354498e+000
1	 3.091451282232050e+000	 2.474759087927573e+000	-6.318095635314801e+000
1	 3.064002627591507e+000	 2.508663405924286e+000	-6.013409675427537e+000
1	 3.036166819184163e+000	 2.542281625844455e+000	-5.696005413371222e+000
1	 3.007948340124859e+000	 2.575607156920352e+000	-5.365088345140811e+000
1	 2.979351822248521e+000	 2.608633502494951e+000	-5.019851849033339e+000
1	 2.950382043628141e+000	 2.641354264199035e+000	-4.659478915664428e+000
1	 3.244444143447348e+000	 2.316679752249655e+000	-7.309948463264073e+000
1	 3.218821747325635e+000	 2.352149977954658e+000	-7.073302204789783e+000
1	 3.192789346753697e+000	 2.387366623780209e+000	-6.827118708675369e+000
1	 3.166350674063929e+000	 2.422322646319497e+000	-6.570754315466552e+000
1	 3.139509621600685e+000	 2.457011074889094e+000	-6.303550869473394e+000
1	 3.112270239962971e+000	 2.491425016046330e+000	-6.024837140679368e+000
1	 3.084636736094925e+000	 2.525557658056028e+000	-5.733930284497236e+000
1	 3.056613471225788e+000	 2.559402275300624e+000	-5.430137336384243e+000
1	 3.028204958661327e+000	 2.592952232627757e+000	-5.112756738215870e+000
1	 2.999415861428941e+000	 2.626200989629561e+000	-4.781079893211626e+000
1	 2.970250989778902e+000	 2.659142104847869e+000	-4.434392746111389e+000
1	 3.266147254127807e+000	 2.332176754157270e+000	-6.948384246017417e+000
1	 3.240353461712776e+000	 2.367884251394873e+000	-6.726788959442610e+000
1	 3.214146922198396e+000	 2.403336472477146e+000	-6.495262789668790e+000
1	 3.187531392883817e+000	 2.438526326881711e+000	-6.253214566333102e+000
1	 3.160510792150514e+000	 2.473446797296040e+000	-6.000043867223965e+000
1	 3.133089197693235e+000	 2.508090944165057e+000	-5.735142363162753e+000
1	 3.105270844597697e+000	 2.542451910187743e+000	-5.457895190942692e+000
1	 3.077060123266782e+000	 2.576522924756755e+000	-5.167682351462160e+000
1	 3.048461577197192e+000	 2.610297308335110e+000	-4.863880130101931e+000
1	 3.019479900608788e+000	 2.643768476764096e+000	-4.545862536315482e+000
1	 2.990119935929130e+000	 2.676929945496604e+000	-4.213002759330804e+000
1	 3.287850364807802e+000	 2.347673756064768e+000	-6.592800991974444e+000
1	 3.261885176099420e+000	 2.383618524835003e+000	-6.385513086992444e+000
1	 3.235504497642578e+000	 2.419306321174022e+000	-6.168052810156357e+000
1	 3.208712111703175e+000	 2.454730007443882e+000	-5.939868581213200e+000
1	 3.181511962699814e+000	 2.489882519702956e+000	-5.700404385866058e+000
1	 3.153908155422980e+000	 2.524756872283761e+000	-5.449101065069114e+000
1	 3.125904953099967e+000	 2.559346162319434e+000	-5.185397623405827e+000
1	 3.097506775307299e+000	 2.593643574212858e+000	-4.908732553770709e+000
1	 3.068718195732605e+000	 2.627642384042429e+000	-4.618545175509283e+000
1	 3.039543939788216e+000	 2.661335963898584e+000	-4.314276983114656e+000
1	 3.009988882078974e+000	 2.694717786145271e+000	-3.995373002530613e+000
1	 3.309553475487395e+000	 2.363170757972164e+000	-6.243192415725773e+000
1	 3.283416890485646e+000	 2.399352798275059e+000	-6.049498172906887e+000
1	 3.256862073086341e+000	 2.435276169870847e+000	-5.845536398969353e+000
1	 3.229892830522121e+000	 2.470933688006018e+000	-5.630782463288576e+000
1	 3.202513133248717e+000	 2.506318242109850e+000	-5.404711698250910e+000
1	 3.174727113152346e+000	 2.541422800402450e+000	-5.166800654160195e+000
1	 3.146539061601881e+000	 2.576240414451111e+000	-4.916528365061184e+000
1	 3.117953427347487e+000	 2.610764223668947e+000	-4.653377622740377e+000
1	 3.088974814267724e+000	 2.644987459749730e+000	-4.376836256120722e+000
1	 3.059607978967380e+000	 2.678903451033047e+000	-4.086398413231361e+000
1	 3.029857828228584e+000	 2.712505626793908e+000	-3.781565842905474e+000
1	 3.331256586166657e+000	 2.378667759879476e+000	-5.899552395659751e+000
1	 3.304948604871548e+000	 2.415087071715054e+000	-5.718767188017330e+000
1	 3.278219648529785e+000	 2.451246018567627e+000	-5.527759943733499e+000
1	 3.251073549340771e+000	 2.487137368568123e+000	-5.326020593094517e+000
1	 3.223514303797348e+000	 2.522753964516724e+000	-5.113043011382063e+000
1	 3.195546070881470e+000	 2.558088728521125e+000	-4.888326260354551e+000
1	 3.167173170103586e+000	 2.593134666582784e+000	-4.651375833276912e+000
1	 3.138400079387502e+000	 2.627884873125035e+000	-4.401704900758704e+000
1	 3.109231432802701e+000	 2.662332535457031e+000	-4.138835554635291e+000
1	 3.079672018146434e+000	 2.696470938167511e+000	-3.862300047109460e+000
1	 3.049726774378111e+000	 2.730293467442543e+000	-3.571642022363072e+000
1	 3.352959696845650e+000	 2.394164761786720e+000	-5.561874968661495e+000
1	 3.326480319257204e+000	 2.430821345154999e+000	-5.393342508411045e+000
1	 3.299577223973020e+000	 2.467215867264375e+000	-5.214768631039553e+000
1	 3.272254268159244e+000	 2.503341049130208e+000	-5.025645684271613e+000
1	 3.244515474345840e+000	 2.539189686923587e+000	-4.825473533274641e+000
1	 3.216365028610494e+000	 2.574754656639798e+000	-4.613760809447882e+000
1	 3.187807278605231e+000	 2.610028918714458e+000	-4.390026156181944e+000
1	 3.158846731427494e+000	 2.645005522581132e+000	-4.153799468806684e+000
1	 3.129488051337688e+000	 2.679677611164347e+000	-3.904623125936409e+000
1	 3.099736057325529e+000	 2.714038425301998e+000	-3.642053209421538e+000
1	 3.069595720527703e+000	 2.748081308091211e+000	-3.365660710125192e+000
1	 3.374662807524445e+000	 2.409661763693914e+000	-5.230154325016181e+000
1	 3.348012033642701e+000	 2.446555618594906e+000	-5.073245934555785e+000
1	 3.320934799416141e+000	 2.483185715961096e+000	-4.906606485063538e+000
1	 3.293434986977653e+000	 2.519544729692277e+000	-4.729718837166464e+000
1	 3.265516644894320e+000	 2.555625409330442e+000	-4.542076537234816e+000
1	 3.237183986339555e+000	 2.591420584758472e+000	-4.343185093988653e+000
1	 3.208441387106963e+000	 2.626923170846145e+000	-4.132563246278740e+000
1	 3.179293383467614e+000	 2.662126172037250e+000	-3.909744219176448e+000
1	 3.149744669872843e+000	 2.697022686871697e+000	-3.674276965513825e+000
1	 3.119800096504820e+000	 2.731605912436533e+000	-3.425727390029203e+000
1	 3.089464666677513e+000	 2.765869148739946e+000	-3.163679553298826e+000
1	 3.396365918203103e+000	 2.425158765601074e+000	-4.904384803507829e+000
1	 3.369543748028127e+000	 2.462289892034791e+000	-4.758498709691089e+000
1	 3.342292374859254e+000	 2.499155564657801e+000	-4.603316404706725e+000
1	 3.314615705796120e+000	 2.535748410254336e+000	-4.438299590377191e+000
1	 3.286517815442918e+000	 2.572061131737296e+000	-4.262923423674590e+000
1	 3.258002944068796e+000	 2.608086512877155e+000	-4.076677841436466e+000
1	 3.229075495608925e+000	 2.643817422977850e+000	-3.879068871233591e+000
1	 3.199740035508014e+000	 2.679246821493402e+000	-3.669619925400956e+000
1	 3.170001288408318e+000	 2.714367762579099e+000	-3.447873075262332e+000
1	 3.139864135684460e+000	 2.749173399571141e+000	-3.213390302606198e+000
1	 3.109333612827688e+000	 2.783656989388780e+000	-2.965754725508544e+000
1	 3.418069028881694e+000	 2.440655767508218e+000	-4.584560886704843e+000
1	 3.391075462413564e+000	 2.478024165474663e+000	-4.449121537518932e+000
1	 3.363649950302459e+000	 2.515125413354498e+000	-4.304940199320186e+000
1	 3.335796424614757e+000	 2.551952090816394e+000	-4.151445970335162e+000
1	 3.307518985991763e+000	 2.588496854144156e+000	-3.988083779571779e+000
1	 3.278821901798353e+000	 2.624752440995853e+000	-3.814315779723658e+000
1	 3.249709604111268e+000	 2.660711675109583e+000	-3.629622721970092e+000
1	 3.220186687548850e+000	 2.696367470949601e+000	-3.433505309519467e+000
1	 3.190257906944268e+000	 2.731712838286568e+000	-3.225485526773510e+000
1	 3.159928174864604e+000	 2.766740886705848e+000	-3.005107941028144e+000
1	 3.129202558978380e+000	 2.801444830037749e+000	-2.771940973675997e+000
1	 2.930513097476696e+000	 2.623566423550066e+000	-4.888195483816053e+000
1	 2.901376951840289e+000	 2.655752247797149e+000	-4.504573990125066e+000
1	 2.871880086178356e+000	 2.687622242784177e+000	-4.118135660365975e+000
1	 2.842027666154426e+000	 2.719170375440287e+000	-3.730219053507972e+000
1	 2.811824991326779e+000	 2.750390726063579e+000	-3.342174373702791e+000
1	 2.781277492018158e+000	 2.781277492018158e+000	-2.955361205047761e+000
1	 2.750390726063579e+000	 2.811824991326779e+000	-2.571146226883274e+000
1	 2.719170375440287e+000	 2.842027666154426e+000	-2.190900914401755e+000
1	 2.687622242784177e+000	 2.871880086178355e+000	-1.815999229385944e+000
1	 2.655752247797150e+000	 2.901376951840288e+000	-1.447815305920546e+000
1	 2.623566423550066e+000	 2.930513097476695e+000	-1.087721135932857e+000
1	 2.950382043628141e+000	 2.641354264199035e+000	-4.659478915664427e+000
1	 2.921048354254666e+000	 2.673758309074019e+000	-4.289748550148286e+000
1	 2.891351499165647e+000	 2.705844383359314e+000	-3.917704028973721e+000
1	 2.861296679047928e+000	 2.737606413079703e+000	-3.544592996611896e+000
1	 2.830889229390904e+000	 2.769038438397574e+000	-3.171673811523311e+000
1	 2.800134617335033e+000	 2.800134617335034e+000	-2.800213429142259e+000
1	 2.769038438397574e+000	 2.830889229390904e+000	-2.431485266846567e+000
1	 2.737606413079703e+000	 2.861296679047927e+000	-2.066767055379541e+000
1	 2.705844383359316e+000	 2.891351499165647e+000	-1.707338681228669e+000
1	 2.673758309074020e+000	 2.921048354254666e+000	-1.354480024490241e+000
1	 2.641354264199035e+000	 2.950382043628141e+000	-1.009468796758643e+000
1	 2.970250989778902e+000	 2.659142104847869e+000	-4.434392746111389e+000
1	 2.940719756668409e+000	 2.691764370350713e+000	-4.078702608723426e+000
1	 2.910822912152359e+000	 2.724066523934227e+000	-3.721158554741028e+000
1	 2.880565691940904e+000	 2.756042450718837e+000	-3.362924039744173e+000
1	 2.849953467454566e+000	 2.787686150731230e+000	-3.005172303660486e+000
1	 2.818991742651509e+000	 2.818991742651509e+000	-2.649084390369244e+000
1	 2.787686150731230e+000	 2.849953467454566e+000	-2.295847150759202e+000
1	 2.756042450718837e+000	 2.880565691940903e+000	-1.946651233421684e+000
1	 2.724066523934227e+000	 2.910822912152358e+000	-1.602689067194642e+000
1	 2.691764370350713e+000	 2.940719756668408e+000	-1.265152839795596e+000
1	 2.659142104847869e+000	 2.970250989778902e+000	-9.352324767900564e-001
1	 2.990119935929130e+000	 2.676929945496604e+000	-4.213002759330801e+000
1	 2.960391159081659e+000	 2.709770431627273e+000	-3.871486762983572e+000
1	 2.930294325138621e+000	 2.742288664508966e+000	-3.528534801145772e+000
1	 2.899834704833481e+000	 2.774478488357760e+000	-3.185232721906921e+000
1	 2.869017705517879e+000	 2.806333863064627e+000	-2.842675229616249e+000
1	 2.837848867967679e+000	 2.837848867967678e+000	-2.501964029650724e+000
1	 2.806333863064627e+000	 2.869017705517878e+000	-2.164205958123524e+000
1	 2.774478488357761e+000	 2.899834704833481e+000	-1.830511100452494e+000
1	 2.742288664508967e+000	 2.930294325138620e+000	-1.501990902740010e+000
1	 2.709770431627275e+000	 2.960391159081658e+000	-1.179756279934494e+000
1	 2.676929945496605e+000	 2.990119935929129e+000	-8.649157247518278e-001
1	 3.009988882078974e+000	 2.694717786145271e+000	-3.995373002530612e+000
1	 2.980062561494562e+000	 2.727776492903745e+000	-3.668150274094583e+000
1	 2.949765738124573e+000	 2.760510805083593e+000	-3.339867392647342e+000
1	 2.919103717725783e+000	 2.792914525996539e+000	-3.011539039790251e+000
1	 2.888081943580947e+000	 2.824981575397851e+000	-2.684187826852118e+000
1	 2.856705993283642e+000	 2.856705993283642e+000	-2.358842553508752e+000
1	 2.824981575397851e+000	 2.888081943580947e+000	-2.036536452846966e+000
1	 2.792914525996539e+000	 2.919103717725782e+000	-1.718305426555288e+000
1	 2.760510805083593e+000	 2.949765738124572e+000	-1.405186273951419e+000
1	 2.727776492903746e+000	 2.980062561494561e+000	-1.098214918573708e+000
1	 2.694717786145272e+000	 3.009988882078973e+000	-7.984246360690936e-001
1	 3.029857828228584e+000	 2.712505626793908e+000	-3.781565842905474e+000
1	 2.999733963907259e+000	 2.745782554180174e+000	-3.468741111059705e+000
1	 2.969237151110345e+000	 2.778732945658162e+000	-3.155190045475990e+000
1	 2.938372730617929e+000	 2.811350563635246e+000	-2.841862465554038e+000
1	 2.907146181643887e+000	 2.843629287730986e+000	-2.529715195446596e+000
1	 2.875563118599498e+000	 2.875563118599498e+000	-2.219710425356728e+000
1	 2.843629287730986e+000	 2.907146181643888e+000	-1.912814060801409e+000
1	 2.811350563635245e+000	 2.938372730617929e+000	-1.609994063309525e+000
1	 2.778732945658162e+000	 2.969237151110346e+000	-1.312218786047233e+000
1	 2.745782554180174e+000	 2.999733963907259e+000	-1.020455307877560e+000
1	 2.712505626793907e+000	 3.029857828228584e+000	-7.356677693647655e-001
1	 3.049726774378111e+000	 2.730293467442543e+000	-3.571642022363072e+000
1	 3.019405366319895e+000	 2.763788615456600e+000	-3.273305992811634e+000
1	 2.988708564096077e+000	 2.796955086232730e+000	-2.974535597218097e+000
1	 2.957641743510049e+000	 2.829786601273951e+000	-2.676221963914282e+000
1	 2.926210419706810e+000	 2.862277000064116e+000	-2.379262302570276e+000
1	 2.894420243915342e+000	 2.894420243915343e+000	-2.084558357131215e+000
1	 2.862277000064116e+000	 2.926210419706810e+000	-1.793014848259658e+000
1	 2.829786601273952e+000	 2.957641743510049e+000	-1.505537908561157e+000
1	 2.796955086232730e+000	 2.988708564096076e+000	-1.223033513891902e+000
1	 2.763788615456601e+000	 3.019405366319894e+000	-9.464059140584844e-001
1	 2.730293467442543e+000	 3.049726774378111e+000	-6.765560662209227e-001
1	 3.069595720527703e+000	 2.748081308091211e+000	-3.365660710125191e+000
1	 3.039076768732614e+000	 2.781794676733072e+000	-3.081890428669889e+000
1	 3.008179977081899e+000	 2.815177226807353e+000	-2.797936035252834e+000
1	 2.976910756402264e+000	 2.848222638912723e+000	-2.514636008566219e+000
1	 2.945274657769825e+000	 2.880924712397324e+000	-2.232833986787381e+000
1	 2.913277369231274e+000	 2.913277369231275e+000	-1.953377301248651e+000
1	 2.880924712397323e+000	 2.945274657769825e+000	-1.677115501169441e+000
1	 2.848222638912723e+000	 2.976910756402262e+000	-1.404898872561081e+000
1	 2.815177226807355e+000	 3.008179977081898e+000	-1.137576954432146e+000
1	 2.781794676733074e+000	 3.039076768732615e+000	-8.759970554305103e-001
1	 2.748081308091210e+000	 3.069595720527704e+000	-6.210027740564557e-001
1	 3.089464666677513e+000	 2.765869148739946e+000	-3.163679553298827e+000
1	 3.058748171145559e+000	 2.799800738009632e+000	-2.894538757237199e+000
1	 3.027651390067949e+000	 2.833399367382091e+000	-2.625422524091365e+000
1	 2.996179769294696e+000	 2.866658676551633e+000	-2.357122597973477e+000
1	 2.964338895833045e+000	 2.899572424730694e+000	-2.090434962191176e+000
1	 2.932134494547392e+000	 2.932134494547392e+000	-1.826158442872503e+000
1	 2.899572424730694e+000	 2.964338895833045e+000	-1.565093305227176e+000
1	 2.866658676551633e+000	 2.996179769294696e+000	-1.308039845410313e+000
1	 2.833399367382091e+000	 3.027651390067947e+000	-1.055796980968550e+000
1	 2.799800738009633e+000	 3.058748171145558e+000	-8.091608428531831e-001
1	 2.765869148739946e+000	 3.089464666677513e+000	-5.689233719806874e-001
1	 3.109333612827688e+000	 2.783656989388780e+000	-2.965754725508544e+000
1	 3.078419573558874e+000	 2.817806799286326e+000	-2.711294183804338e+000
1	 3.047122803054358e+000	 2.851621507956997e+000	-2.457025431667830e+000
1	 3.015448782187471e+000	 2.885094714190752e+000	-2.203699270551959e+000
1	 2.983403133896581e+000	 2.918220137064311e+000	-1.952069822380862e+000
1	 2.950991619863794e+000	 2.950991619863794e+000	-1.702893192476895e+000
1	 2.918220137064311e+000	 2.983403133896581e+000	-1.456926126715677e+000
1	 2.885094714190752e+000	 3.015448782187471e+000	-1.214924665753274e+000
1	 2.851621507956998e+000	 3.047122803054358e+000	-9.776427991803607e-001
1	 2.817806799286327e+000	 3.078419573558873e+000	-7.458311224588443e-001
1	 2.783656989388780e+000	 3.109333612827689e+000	-5.202354994897571e-001
1	 3.129202558978380e+000	 2.801444830037749e+000	-2.771940973675997e+000
1	 3.098090975972703e+000	 2.835812860563197e+000	-2.532198816330168e+000
1	 3.066594216041264e+000	 2.869843648532129e+000	-2.292774354628794e+000
1	 3.034717795080714e+000	 2.903530751830148e+000	-2.054383119275300e+000
1	 3.002467371960544e+000	 2.936867849398260e+000	-1.817743044286975e+000
1	 2.969848745180576e+000	 2.969848745180576e+000	-1.583573178693484e+000
1	 2.936867849398261e+000	 3.002467371960544e+000	-1.352592394071924e+000
1	 2.903530751830149e+000	 3.034717795080714e+000	-1.125518090663831e+000
1	 2.869843648532130e+000	 3.066594216041263e+000	-9.030649048256436e-001
1	 2.835812860563197e+000	 3.098090975972703e+000	-6.859434205618511e-001
1	 2.801444830037748e+000	 3.129202558978380e+000	-4.748588878794515e-001
1	 2.623566423550066e+000	 2.930513097476695e+000	-1.087721135932858e+000
1	 2.591066015360247e+000	 2.959287783067377e+000	-7.416683541650322e-001
1	 2.558262081212877e+000	 2.987691721587632e+000	-4.138103460064606e-001
1	 2.525160976388239e+000	 3.015720167141756e+000	-1.026391505616511e-001
1	 2.491769153792506e+000	 3.043368519087290e+000	 1.933768370117441e-001
1	 2.458093159808782e+000	 3.070632324500329e+000	 4.757898122055480e-001
1	 2.424139630075089e+000	 3.097507280498922e+000	 7.461694890120798e-001
1	 2.389915285194918e+000	 3.123989236422097e+000	 1.006100015589168e+000
1	 2.355426926386116e+000	 3.150074195862330e+000	 1.257176884395300e+000
1	 2.320681431073921e+000	 3.175758318549516e+000	 1.501003843420928e+000
1	 2.285685748434003e+000	 3.201037922084772e+000	 1.739189815092432e+000
1	 2.641354264199035e+000	 2.950382043628141e+000	-1.009468796758642e+000
1	 2.608633502494952e+000	 2.979351822248521e+000	-6.780417734977369e-001
1	 2.575607156920352e+000	 3.007948340124857e+000	-3.642719752760248e-001
1	 2.542281625844456e+000	 3.036166819184162e+000	-6.676364559591264e-002
1	 2.508663405924287e+000	 3.064002627591505e+000	 2.159054834724392e-001
1	 2.474759087927575e+000	 3.091451282232050e+000	 4.851813041638078e-001
1	 2.440575352482113e+000	 3.118508451050197e+000	 7.425304207633774e-001
1	 2.406118965757235e+000	 3.145169955243393e+000	 9.894372185889058e-001
1	 2.371396775083202e+000	 3.171431771308376e+000	 1.227400920582436e+000
1	 2.336415704514345e+000	 3.197290032937910e+000	 1.457932637873552e+000
1	 2.301182750341904e+000	 3.222741032766359e+000	 1.682552420645960e+000
1	 2.659142104847869e+000	 2.970250989778902e+000	-9.352324767900564e-001
1	 2.626200989629562e+000	 2.999415861428939e+000	-6.184371136018978e-001
1	 2.592952232627758e+000	 3.028204958661326e+000	-3.187359354560706e-001
1	 2.559402275300625e+000	 3.056613471225786e+000	-3.483600030918144e-002
1	 2.525557658056029e+000	 3.084636736094924e+000	 2.345847340817540e-001
1	 2.491425016046331e+000	 3.112270239962971e+000	 4.908746756136342e-001
1	 2.457011074889095e+000	 3.139509621600685e+000	 7.354058324523605e-001
1	 2.422322646319499e+000	 3.166350674063928e+000	 9.695710228955976e-001
1	 2.387366623780210e+000	 3.192789346753697e+000	 1.194781066595177e+000
1	 2.352149977954659e+000	 3.218821747325634e+000	 1.412461963258371e+000
1	 2.316679752249655e+000	 3.244444143447348e+000	 1.624052064934618e+000
1	 2.676929945496605e+000	 2.990119935929129e+000	-8.649157247518269e-001
1	 2.643768476764097e+000	 3.019479900608787e+000	-5.627401570408108e-001
1	 2.610297308335112e+000	 3.048461577197192e+000	-2.770738798502812e-001
1	 2.576522924756755e+000	 3.077060123266782e+000	-6.717551285366330e-003
1	 2.542451910187744e+000	 3.105270844597697e+000	 2.495595847827170e-001
1	 2.508090944165058e+000	 3.133089197693233e+000	 4.930171033274595e-001
1	 2.473446797296041e+000	 3.160510792150513e+000	 7.249407667842513e-001
1	 2.438526326881712e+000	 3.187531392883815e+000	 9.466398635074911e-001
1	 2.403336472477147e+000	 3.214146922198395e+000	 1.159444521941840e+000
1	 2.367884251394875e+000	 3.240353461712775e+000	 1.364703006404416e+000
1	 2.332176754157270e+000	 3.266147254127807e+000	 1.563779000378911e+000
1	 2.694717786145272e+000	 3.009988882078973e+000	-7.984246360690941e-001
1	 2.661335963898585e+000	 3.039543939788214e+000	-5.108397021761908e-001
1	 2.627642384042430e+000	 3.068718195732605e+000	-2.391608506297911e-001
1	 2.593643574212859e+000	 3.097506775307298e+000	 1.772670362141815e-002
1	 2.559346162319434e+000	 3.125904953099965e+000	 2.609712030439755e-001
1	 2.524756872283763e+000	 3.153908155422979e+000	 4.917518780207031e-001
1	 2.489882519702958e+000	 3.181511962699814e+000	 7.112764367551865e-001
1	 2.454730007443883e+000	 3.208712111703174e+000	 9.207785201837702e-001
1	 2.419306321174023e+000	 3.235504497642577e+000	 1.121515127553705e+000
1	 2.383618524835004e+000	 3.261885176099417e+000	 1.314764018362625e+000
1	 2.347673756064768e+000	 3.287850364807801e+000	 1.501821096373582e+000
1	 2.712505626793907e+000	 3.029857828228584e+000	-7.356677693647655e-001
1	 2.678903451033047e+000	 3.059607978967379e+000	-4.626274642843202e-001
1	 2.644987459749731e+000	 3.088974814267722e+000	-2.048751677170828e-001
1	 2.610764223668948e+000	 3.117953427347486e+000	 3.862822533461419e-002
1	 2.576240414451112e+000	 3.146539061601880e+000	 2.689570533900318e-001
1	 2.541422800402450e+000	 3.174727113152345e+000	 4.872185317700537e-001
1	 2.506318242109851e+000	 3.202513133248715e+000	 6.945503512229463e-001
1	 2.470933688006018e+000	 3.229892830522120e+000	 8.921182372945795e-001
1	 2.435276169870849e+000	 3.256862073086340e+000	 1.081113475907888e+000
1	 2.399352798275060e+000	 3.283416890485646e+000	 1.262750410665785e+000
1	 2.363170757972164e+000	 3.309553475487395e+000	 1.438263917423653e+000
1	 2.730293467442543e+000	 3.049726774378111e+000	-6.765560662209218e-001
1	 2.696470938167511e+000	 3.079672018146433e+000	-4.179979805377267e-001
1	 2.662332535457031e+000	 3.109231432802699e+000	-1.740983220133536e-001
1	 2.627884873125036e+000	 3.138400079387501e+000	 5.611504891040164e-002
1	 2.593134666582784e+000	 3.167173170103585e+000	 2.736510180245166e-001
1	 2.558088728521127e+000	 3.195546070881469e+000	 4.795529604509814e-001
1	 2.522753964516725e+000	 3.223514303797348e+000	 6.748964355691158e-001
1	 2.487137368568124e+000	 3.251073549340771e+000	 8.607868389862192e-001
1	 2.451246018567628e+000	 3.278219648529785e+000	 1.038357016845653e+000
1	 2.415087071715055e+000	 3.304948604871547e+000	 1.208764847825753e+000
1	 2.378667759879475e+000	 3.331256586166656e+000	 1.373190798226096e+000
1	 2.748081308091210e+000	 3.069595720527704e+000	-6.210027740564557e-001
1	 2.714038425301998e+000	 3.099736057325528e+000	-3.768485186770341e-001
1	 2.679677611164348e+000	 3.129488051337687e+000	-1.467148727726357e-001
1	 2.645005522581134e+000	 3.158846731427494e+000	 7.031189441287600e-002
1	 2.610028918714458e+000	 3.187807278605230e+000	 2.751835127687690e-001
1	 2.574754656639799e+000	 3.216365028610493e+000	 4.688875414201221e-001
1	 2.539189686923588e+000	 3.244515474345839e+000	 6.524451476750710e-001
1	 2.503341049130208e+000	 3.272254268159243e+000	 8.269088398736075e-001
1	 2.467215867264376e+000	 3.299577223973019e+000	 9.933601592810022e-001
1	 2.430821345155000e+000	 3.326480319257202e+000	 1.152907336238301e+000
1	 2.394164761786720e+000	 3.352959696845651e+000	 1.306682915835606e+000
1	 2.765869148739946e+000	 3.089464666677513e+000	-5.689233719806870e-001
1	 2.731605912436534e+000	 3.119800096504819e+000	-3.390789892068802e-001
1	 2.697022686871698e+000	 3.149744669872842e+000	-1.226123489358981e-001
1	 2.662126172037251e+000	 3.179293383467612e+000	 8.134027351082329e-002
1	 2.626923170846145e+000	 3.208441387106961e+000	 2.736815985267387e-001
1	 2.591420584758473e+000	 3.237183986339554e+000	 4.553512466566563e-001
1	 2.555625409330443e+000	 3.265516644894317e+000	 6.273235894228058e-001
1	 2.519544729692278e+000	 3.293434986977654e+000	 7.906055514614936e-001
1	 2.483185715961097e+000	 3.320934799416141e+000	 9.462343689846069e-001
1	 2.446555618594908e+000	 3.348012033642701e+000	 1.095275309657425e+000
1	 2.409661763693915e+000	 3.374662807524445e+000	 1.238819359045626e+000
1	 2.783656989388780e+000	 3.109333612827689e+000	-5.202354994897571e-001
1	 2.749173399571144e+000	 3.139864135684459e+000	-3.045918609583076e-001
1	 2.714367762579100e+000	 3.170001288408317e+000	-1.016811542481722e-001
1	 2.679246821493403e+000	 3.199740035508014e+000	 8.931859198743908e-002
1	 2.643817422977850e+000	 3.229075495608923e+000	 2.692690884762357e-001
1	 2.608086512877156e+000	 3.258002944068794e+000	 4.390697515658140e-001
1	 2.572061131737296e+000	 3.286517815442917e+000	 5.996556139207496e-001
1	 2.535748410254337e+000	 3.314615705796117e+000	 7.519951844853448e-001
1	 2.499155564657801e+000	 3.342292374859252e+000	 8.970882626187149e-001
1	 2.462289892034792e+000	 3.369543748028125e+000	 1.035963711392514e+000
1	 2.425158765601073e+000	 3.396365918203102e+000	 1.169677195109367e+000
1	 2.801444830037748e+000	 3.129202558978380e+000	-4.748588878794513e-001
1	 2.766740886705849e+000	 3.159928174864604e+000	-2.732920798680425e-001
1	 2.731712838286569e+000	 3.190257906944266e+000	-8.381447599027991e-002
1	 2.696367470949602e+000	 3.220186687548848e+000	 9.436224834491114e-002
1	 2.660711675109584e+000	 3.249709604111267e+000	 2.620666511764793e-001
1	 2.624752440995853e+000	 3.278821901798352e+000	 4.201655396371899e-001
1	 2.588496854144156e+000	 3.307518985991762e+000	 5.695619286446112e-001
1	 2.551952090816395e+000	 3.335796424614756e+000	 7.111929473534331e-001
1	 2.515125413354500e+000	 3.363649950302459e+000	 8.460276981895150e-001
1	 2.478024165474664e+000	 3.391075462413564e+000	 9.750650733740116e-001
1	 2.440655767508217e+000	 3.418069028881693e+000	 1.099331533918847e+000
1	 2.285685748434003e+000	 3.201037922084772e+000	 1.739189815092432e+000
1	 2.250446894129934e+000	 3.225909482613577e+000	 1.973657317264083e+000
1	 2.214971943538432e+000	 3.250369633505693e+000	 2.203819378093716e+000
1	 2.179268029550415e+000	 3.274415169322649e+000	 2.427548644043235e+000
1	 2.143342338751272e+000	 3.298043047850050e+000	 2.642754782773968e+000
1	 2.107202106807173e+000	 3.321250391072290e+000	 2.847387486739075e+000
1	 2.070854613836993e+000	 3.344034485992656e+000	 3.039439384295258e+000
1	 2.034307179775805e+000	 3.366392785299044e+000	 3.216948853267790e+000
1	 1.997567159735843e+000	 3.388322907875672e+000	 3.378002732197173e+000
1	 1.960641939370821e+000	 3.409822639161488e+000	 3.520738924800985e+000
1	 1.923538930249378e+000	 3.430889931356199e+000	 3.643348893499414e+000
1	 2.301182750341904e+000	 3.222741032766359e+000	 1.682552420645960e+000
1	 2.265704975795809e+000	 3.247781223047380e+000	 1.903259236294505e+000
1	 2.229989504223994e+000	 3.272407214324913e+000	 2.119742554735334e+000
1	 2.194043516878546e+000	 3.296615779427529e+000	 2.330086082122580e+000
1	 2.157874249070071e+000	 3.320403855514563e+000	 2.532406355934718e+000
1	 2.121488985522726e+000	 3.343768545057394e+000	 2.724855444918242e+000
1	 2.084895055714761e+000	 3.366707116665132e+000	 2.905623566937852e+000
1	 2.048099829210577e+000	 3.389217005754838e+000	 3.072941620169942e+000
1	 2.011110710990248e+000	 3.411295815066716e+000	 3.225083623339001e+000
1	 1.973935136782387e+000	 3.432941315024938e+000	 3.360369060967949e+000
1	 1.936580568406245e+000	 3.454151443945082e+000	 3.477165129893589e+000
1	 2.316679752249655e+000	 3.244444143447348e+000	 1.624052064934618e+000
1	 2.280963057461482e+000	 3.269652963480678e+000	 1.831585231568454e+000
1	 2.245007064909297e+000	 3.294444795143722e+000	 2.034964372759686e+000
1	 2.208819004206358e+000	 3.318816389532112e+000	 2.232459376051641e+000
1	 2.172406159388486e+000	 3.342764663178890e+000	 2.422369313798542e+000
1	 2.135775864237826e+000	 3.366286699042417e+000	 2.603024876425489e+000
1	 2.098935497592009e+000	 3.389379747337627e+000	 2.772790732649622e+000
1	 2.061892478644771e+000	 3.412041226210740e+000	 2.930067812541728e+000
1	 2.024654262244014e+000	 3.434268722257934e+000	 3.073295509541712e+000
1	 1.987228334193262e+000	 3.456059990888607e+000	 3.200953797783387e+000
1	 1.949622206562376e+000	 3.477412956534196e+000	 3.311565261334756e+000
1	 2.332176754157270e+000	 3.266147254127807e+000	 1.563779000378911e+000
1	 2.296221139126976e+000	 3.291524703913511e+000	 1.758704935379744e+000
1	 2.260024625594372e+000	 3.316482375962150e+000	 1.949539816887576e+000
1	 2.223594491533885e+000	 3.341016999636398e+000	 2.134715322462192e+000
1	 2.186938069706560e+000	 3.365125470843009e+000	 2.312689203440493e+000
1	 2.150062742952530e+000	 3.388804853027323e+000	 2.481947488045207e+000
1	 2.112975939468805e+000	 3.412052378010083e+000	 2.641006619191884e+000
1	 2.075685128078455e+000	 3.434865446666672e+000	 2.788415523255414e+000
1	 2.038197813497222e+000	 3.457241629449238e+000	 2.922757606266547e+000
1	 2.000521531603537e+000	 3.479178666752395e+000	 3.042652674226454e+000
1	 1.962663844717872e+000	 3.500674469123442e+000	 3.146758774451983e+000
1	 2.347673756064768e+000	 3.287850364807801e+000	 1.501821096373582e+000
1	 2.311479220792314e+000	 3.313396444345925e+000	 1.684686141450467e+000
1	 2.275042186279247e+000	 3.338519956780215e+000	 1.863522420022772e+000
1	 2.238369978861166e+000	 3.363217609740386e+000	 2.036899482367337e+000
1	 2.201469980024337e+000	 3.387486278506895e+000	 2.203410369310155e+000
1	 2.164349621666887e+000	 3.411323007012063e+000	 2.361673621295165e+000
1	 2.127016381345207e+000	 3.434725008682439e+000	 2.510335228585175e+000
1	 2.089477777511702e+000	 3.457689667122557e+000	 2.648070519177745e+000
1	 2.051741364749953e+000	 3.480214536640535e+000	 2.773585981207949e+000
1	 2.013814729013303e+000	 3.502297342616207e+000	 2.885621016806688e+000
1	 1.975705482872835e+000	 3.523935981712723e+000	 2.982949624586272e+000
1	 2.363170757972164e+000	 3.309553475487395e+000	 1.438263917423653e+000
1	 2.326737302457518e+000	 3.335268184777969e+000	 1.609594865215180e+000
1	 2.290059746963951e+000	 3.360557537597944e+000	 1.776964310854981e+000
1	 2.253145466188234e+000	 3.385418219844079e+000	 1.939056221675638e+000
1	 2.216001890341861e+000	 3.409847086170532e+000	 2.094575992664025e+000
1	 2.178636500380950e+000	 3.433841160996597e+000	 2.242252297191729e+000
1	 2.141056823221275e+000	 3.457397639354630e+000	 2.380838884021759e+000
1	 2.103270426944582e+000	 3.480513887578315e+000	 2.509116317436408e+000
1	 2.065284916002288e+000	 3.503187443831740e+000	 2.625893657504349e+000
1	 2.027107926422649e+000	 3.525416018479944e+000	 2.730010077684954e+000
1	 1.988747121027364e+000	 3.547197494301935e+000	 2.820336417153597e+000
1	 2.378667759879475e+000	 3.331256586166656e+000	 1.373190798226096e+000
1	 2.341995384122610e+000	 3.357139925209682e+000	 1.533495401748511e+000
1	 2.305077307648510e+000	 3.382595118415356e+000	 1.689916259602124e+000
1	 2.267920953515127e+000	 3.407618829947475e+000	 1.841228750121656e+000
1	 2.230533800659177e+000	 3.432207893833895e+000	 1.986228129456493e+000
1	 2.192923379094773e+000	 3.456359314980883e+000	 2.123731259265116e+000
1	 2.155097265097074e+000	 3.480070270026596e+000	 2.252578284553382e+000
1	 2.117063076377165e+000	 3.503338108033874e+000	 2.371634258705200e+000
1	 2.078828467254306e+000	 3.526160351022761e+000	 2.479790712914455e+000
1	 2.040401123831666e+000	 3.548534694343512e+000	 2.575967167395131e+000
1	 2.001788759181560e+000	 3.570459006890981e+000	 2.659112581918556e+000
1	 2.394164761786720e+000	 3.352959696845651e+000	 1.306682915835606e+000
1	 2.357253465787613e+000	 3.379011665641112e+000	 1.456450381443124e+000
1	 2.320094868332958e+000	 3.404632699232478e+000	 1.602427721976020e+000
1	 2.282696440841880e+000	 3.429819440050575e+000	 1.743459158684415e+000
1	 2.245065710976328e+000	 3.454568701496963e+000	 1.878407746759248e+000
1	 2.207210257808407e+000	 3.478877468964876e+000	 2.006157014904085e+000
1	 2.169137706972663e+000	 3.502742900698279e+000	 2.125612557655146e+000
1	 2.130855725809523e+000	 3.526162328489152e+000	 2.235703577642996e+000
1	 2.092372018506089e+000	 3.549133258213509e+000	 2.335384375141873e+000
1	 2.053694321240444e+000	 3.571653370206809e+000	 2.423635782411403e+000
1	 2.014830397335522e+000	 3.593720519479759e+000	 2.499466540499634e+000
1	 2.409661763693915e+000	 3.374662807524445e+000	 1.238819359045626e+000
1	 2.372511547452549e+000	 3.400883406072305e+000	 1.378520823539136e+000
1	 2.335112429017319e+000	 3.426670280049330e+000	 1.514546881451631e+000
1	 2.297471928168531e+000	 3.452020050153380e+000	 1.645788455562146e+000
1	 2.259597621293357e+000	 3.476929509159713e+000	 1.771154757775365e+000
1	 2.221497136521905e+000	 3.501395622948536e+000	 1.889574875105335e+000
1	 2.183178148848106e+000	 3.525415531369613e+000	 1.999999309761082e+000
1	 2.144648375241727e+000	 3.548986548944075e+000	 2.101401470614758e+000
1	 2.105915569757717e+000	 3.572106165403896e+000	 2.192779113481351e+000
1	 2.066987518649075e+000	 3.594772046069743e+000	 2.273155727793073e+000
1	 2.027872035489355e+000	 3.616982032068172e+000	 2.341581867411087e+000
1	 2.425158765601073e+000	 3.396365918203102e+000	 1.169677195109367e+000
1	 2.387769629117440e+000	 3.422755146503306e+000	 1.299766187601235e+000
1	 2.350129989701624e+000	 3.448707860865933e+000	 1.426320689915634e+000
1	 2.312247415495113e+000	 3.474220660255889e+000	 1.548256600767636e+000
1	 2.274129531610310e+000	 3.499290316822125e+000	 1.664508055510929e+000
1	 2.235784015235319e+000	 3.523913776931821e+000	 1.774028992698769e+000
1	 2.197218590723462e+000	 3.548088162040541e+000	 1.875794674862189e+000
1	 2.158441024673848e+000	 3.571810769398564e+000	 1.968803160816001e+000
1	 2.119459121009272e+000	 3.595079072593830e+000	 2.052076726951379e+000
1	 2.080280716057648e+000	 3.617890721932212e+000	 2.124663235127041e+000
1	 2.040913673643154e+000	 3.640243544656117e+000	 2.185637444930225e+000
1	 2.440655767508217e+000	 3.418069028881693e+000	 1.099331533918847e+000
1	 2.403027710782309e+000	 3.444626886934158e+000	 1.220244423034671e+000
1	 2.365147550385903e+000	 3.470745441682316e+000	 1.337794906766435e+000
1	 2.327022902821665e+000	 3.496421270358104e+000	 1.450902539405636e+000
1	 2.288661441927231e+000	 3.521651124484178e+000	 1.558505545163858e+000
1	 2.250070893948702e+000	 3.546431930914686e+000	 1.659562399116566e+000
1	 2.211259032598793e+000	 3.570760792710999e+000	 1.753053361252978e+000
1	 2.172233674105956e+000	 3.594634989852544e+000	 1.837981960916249e+000
1	 2.133002672260833e+000	 3.618051979783224e+000	 1.913376429069061e+000
1	 2.093573913466256e+000	 3.641009397794123e+000	 1.978291075977071e+000
1	 2.053955311797024e+000	 3.663505057243499e+000	 2.031807612064805e+000
1	 1.923538930249378e+000	 3.430889931356199e+000	 3.643348893499414e+000
1	 1.886271168719184e+000	 3.451519841804724e+000	 3.744614546087361e+000
1	 1.848840550700881e+000	 3.471713851746570e+000	 3.823736032911997e+000
1	 1.811254536557091e+000	 3.491470416868222e+000	 3.879552342516007e+000
1	 1.773520594178441e+000	 3.510788158857956e+000	 3.910941924252012e+000
1	 1.735646194488916e+000	 3.529665864868949e+000	 3.916823731525618e+000
1	 1.697638806993269e+000	 3.548102486840681e+000	 3.896158190478499e+000
1	 1.659505895371511e+000	 3.566097140681106e+000	 3.847948093289290e+000
1	 1.621254913125376e+000	 3.583649105312325e+000	 3.771239415460020e+000
1	 1.582893299281490e+000	 3.600757821582674e+000	 3.665122056643728e+000
1	 1.544428474155829e+000	 3.617422891048259e+000	 3.528730504755874e+000
1	 1.936580568406245e+000	 3.454151443945082e+000	 3.477165129893590e+000
1	 1.899060130596229e+000	 3.474921225660749e+000	 3.574262806058265e+000
1	 1.861375732127374e+000	 3.495252151454282e+000	 3.650596515012710e+000
1	 1.823534883943736e+000	 3.515142666541675e+000	 3.704770215277428e+000
1	 1.785545104568416e+000	 3.534591383266208e+000	 3.735432592043527e+000
1	 1.747413915578441e+000	 3.553597080557928e+000	 3.741278454668791e+000
1	 1.709148837121983e+000	 3.572158703250429e+000	 3.721050044566885e+000
1	 1.670757383482979e+000	 3.590275361257490e+000	 3.673538252185632e+000
1	 1.632247058698080e+000	 3.607946328612285e+000	 3.597583742007079e+000
1	 1.593625352230691e+000	 3.625171042372081e+000	 3.492077984737544e+000
1	 1.554899734706702e+000	 3.641949101391516e+000	 3.355964196089276e+000
1	 1.949622206562376e+000	 3.477412956534196e+000	 3.311565261334756e+000
1	 1.911849092472505e+000	 3.498322609516991e+000	 3.403977973942283e+000
1	 1.873910913553071e+000	 3.518790451162159e+000	 3.476948337054369e+000
1	 1.835815231329566e+000	 3.538814916215224e+000	 3.528885005348411e+000
1	 1.797569614957564e+000	 3.558394607674472e+000	 3.558246280998282e+000
1	 1.759181636667133e+000	 3.577528296246815e+000	 3.563541804850519e+000
1	 1.720658867249860e+000	 3.596214919659975e+000	 3.543334144426614e+000
1	 1.682008871593609e+000	 3.614453581833564e+000	 3.496240277064239e+000
1	 1.643239204269948e+000	 3.632243551911828e+000	 3.420932966788548e+000
1	 1.604357405179057e+000	 3.649584263160969e+000	 3.316142033781519e+000
1	 1.565370995256741e+000	 3.666475311734168e+000	 3.180655515592164e+000
1	 1.962663844717872e+000	 3.500674469123442e+000	 3.146758774451982e+000
1	 1.924638054348121e+000	 3.521723993373346e+000	 3.234024191999062e+000
1	 1.886446094978092e+000	 3.542328750870120e+000	 3.303109321926169e+000
1	 1.848095578714712e+000	 3.562487165888798e+000	 3.352266485701349e+000
1	 1.809594125346024e+000	 3.582197832082685e+000	 3.379802234089739e+000
1	 1.770949357755137e+000	 3.601459511935572e+000	 3.384079272119869e+000
1	 1.732168897377053e+000	 3.620271136069302e+000	 3.363518268771752e+000
1	 1.693260359703562e+000	 3.638631802409332e+000	 3.316599549415298e+000
1	 1.654231349841144e+000	 3.656540775210979e+000	 3.241864669340097e+000
1	 1.615089458126755e+000	 3.673997483949387e+000	 3.137917867031473e+000
1	 1.575842255806114e+000	 3.691001522076282e+000	 3.003427396158018e+000
1	 1.975705482872835e+000	 3.523935981712723e+000	 2.982949624586273e+000
1	 1.937427016223188e+000	 3.545125377229727e+000	 3.064658628072139e+000
1	 1.898981276402559e+000	 3.565867050578070e+000	 3.129388900717084e+000
1	 1.860375926099302e+000	 3.586159415562315e+000	 3.175274665817695e+000
1	 1.821618635733935e+000	 3.606001056490789e+000	 3.200508624593941e+000
1	 1.782717078842599e+000	 3.625390727624156e+000	 3.203344055720026e+000
1	 1.743678927503717e+000	 3.644327352478394e+000	 3.182096788920112e+000
1	 1.704511847812995e+000	 3.662810022984794e+000	 3.135147050468624e+000
1	 1.665223495411831e+000	 3.680837998509761e+000	 3.060941178779468e+000
1	 1.625821511073950e+000	 3.698410704737382e+000	 2.957993208610532e+000
1	 1.586313516354986e+000	 3.715527732417928e+000	 2.824886322751906e+000
1	 1.988747121027364e+000	 3.547197494301935e+000	 2.820336417153595e+000
1	 1.950215978097817e+000	 3.568526761086031e+000	 2.896131704270053e+000
1	 1.911516457826590e+000	 3.589405350285925e+000	 2.956088387871038e+000
1	 1.872656273483467e+000	 3.609831665235706e+000	 2.998260111818936e+000
1	 1.833643146121434e+000	 3.629804280898727e+000	 3.020762919048975e+000
1	 1.794484799929669e+000	 3.649321943312531e+000	 3.021777467086425e+000
1	 1.755188957630003e+000	 3.668383568887227e+000	 2.999551108402633e+000
1	 1.715763335922068e+000	 3.686988243559954e+000	 2.952399833357645e+000
1	 1.676215640982171e+000	 3.705135221808201e+000	 2.878710073846007e+000
1	 1.636553564020808e+000	 3.722823925525001e+000	 2.776940366130596e+000
1	 1.596784776903525e+000	 3.740053942759174e+000	 2.645622871714781e+000
1	 2.001788759181560e+000	 3.570459006890981e+000	 2.659112581918556e+000
1	 1.963004939972117e+000	 3.591928144942162e+000	 2.728687316708474e+000
1	 1.924051639250306e+000	 3.612943649993593e+000	 2.783501245586309e+000
1	 1.884936620867336e+000	 3.633503914908891e+000	 2.821564254083695e+000
1	 1.845667656508661e+000	 3.653607505306437e+000	 2.840952226026668e+000
1	 1.806252521016490e+000	 3.673253159000652e+000	 2.839809317091418e+000
1	 1.766698987756067e+000	 3.692439785295785e+000	 2.816350085388594e+000
1	 1.727014824030940e+000	 3.711166464134817e+000	 2.768861476826590e+000
1	 1.687207786552328e+000	 3.729432445106324e+000	 2.695704663393530e+000
1	 1.647285616967495e+000	 3.747237146312289e+000	 2.595316732884565e+000
1	 1.607256037451896e+000	 3.764580153100085e+000	 2.466212228986117e+000
1	 2.014830397335522e+000	 3.593720519479759e+000	 2.499466540499634e+000
1	 1.975793901846201e+000	 3.615329528798024e+000	 2.562563046718096e+000
1	 1.936586820673828e+000	 3.636481949700988e+000	 2.611913337946402e+000
1	 1.897216968251039e+000	 3.657176164581797e+000	 2.645519682917821e+000
1	 1.857692166895752e+000	 3.677410729713860e+000	 2.661453631358838e+000
1	 1.818020242103208e+000	 3.697184374688481e+000	 2.657858288249900e+000
1	 1.778209017882059e+000	 3.716496001704046e+000	 2.632950438704927e+000
1	 1.738266312139770e+000	 3.735344684709384e+000	 2.585022521317082e+000
1	 1.698199932122465e+000	 3.753729668404156e+000	 2.512444448222535e+000
1	 1.658017669914177e+000	 3.771650367099298e+000	 2.413665270534885e+000
1	 1.617727298000268e+000	 3.789106363440732e+000	 2.287214688200590e+000
1	 2.027872035489355e+000	 3.616982032068172e+000	 2.341581867411088e+000
1	 1.988582863720177e+000	 3.638730912653521e+000	 2.397990363902639e+000
1	 1.949122002097276e+000	 3.660020249408020e+000	 2.441603175244858e+000
1	 1.909497315634706e+000	 3.680848414254348e+000	 2.470450432815545e+000
1	 1.869716677282848e+000	 3.701213954120938e+000	 2.482634520428169e+000
1	 1.829787963189971e+000	 3.721115590375978e+000	 2.476332292562265e+000
1	 1.789719048008134e+000	 3.740552218111992e+000	 2.449797138188543e+000
1	 1.749517800248716e+000	 3.759522905283657e+000	 2.401360888227236e+000
1	 1.709192077692746e+000	 3.778026891701722e+000	 2.329435565091393e+000
1	 1.668749722861019e+000	 3.796063587886070e+000	 2.232514973176571e+000
1	 1.628198558548805e+000	 3.813632573781182e+000	 2.109176129564440e+000
1	 2.040913673643154e+000	 3.640243544656117e+000	 2.185637444930225e+000
1	 2.001371825594157e+000	 3.662132296508555e+000	 2.235194821411604e+000
1	 1.961657183520769e+000	 3.683558549114603e+000	 2.272842148942381e+000
1	 1.921777663018466e+000	 3.704520663926468e+000	 2.296672255821759e+000
1	 1.881741187670086e+000	 3.725017178527611e+000	 2.304852888102332e+000
1	 1.841555684276925e+000	 3.745046806063103e+000	 2.295628815637640e+000
1	 1.801229078134445e+000	 3.764608434519604e+000	 2.267323780072277e+000
1	 1.760769288357937e+000	 3.783701125857640e+000	 2.218342283096394e+000
1	 1.720184223263332e+000	 3.802324114999045e+000	 2.147171213703997e+000
1	 1.679481775808188e+000	 3.820476808672655e+000	 2.052381313607837e+000
1	 1.638669819097675e+000	 3.838158784121502e+000	 1.932628480371567e+000
1	 2.053955311797024e+000	 3.663505057243499e+000	 2.031807612064805e+000
1	 2.014160787468252e+000	 3.685533680363033e+000	 2.074396243773490e+000
1	 1.974192364944430e+000	 3.707096848820648e+000	 2.105894757672792e+000
1	 1.934058010402448e+000	 3.728192913598082e+000	 2.124492884480105e+000
1	 1.893765698057604e+000	 3.748820402933820e+000	 2.128457636860426e+000
1	 1.853323405364218e+000	 3.768978021749816e+000	 2.116135247706956e+000
1	 1.812739108261146e+000	 3.788664650926863e+000	 2.085952948069690e+000
1	 1.772020776467593e+000	 3.807879346431335e+000	 2.036420583429341e+000
1	 1.731176368834389e+000	 3.826621338296154e+000	 1.966132067430439e+000
1	 1.690213828755850e+000	 3.844890029459103e+000	 1.873766672598916e+000
1	 1.649141079647045e+000	 3.862684994461762e+000	 1.758090157975186e+000
1	 1.544428474155829e+000	 3.617422891048259e+000	 3.528730504755874e+000
1	 1.505862044005179e+000	 3.633646475212943e+000	 3.362368228593458e+000
1	 1.467207146887431e+000	 3.649425961916561e+000	 3.167017593739375e+000
1	 1.428471127328699e+000	 3.664761429167447e+000	 2.942896869437275e+000
1	 1.389661294793495e+000	 3.679653109660585e+000	 2.690356073533041e+000
1	 1.350784919814788e+000	 3.694101388953216e+000	 2.409874907823313e+000
1	 1.311849230209202e+000	 3.708106803531544e+000	 2.102060508135448e+000
1	 1.272861407380664e+000	 3.721670038772552e+000	 1.767645016955010e+000
1	 1.233828582715533e+000	 3.734791926805089e+000	 1.407482986682129e+000
1	 1.194757834072113e+000	 3.747473444274481e+000	 1.022548621831312e+000
1	 1.155656182367169e+000	 3.759715710014934e+000	 6.139328686943566e-001
1	 1.554899734706702e+000	 3.641949101391516e+000	 3.355964196089277e+000
1	 1.516071823273362e+000	 3.658282681829496e+000	 3.190130178899044e+000
1	 1.477154845064890e+000	 3.674169153815358e+000	 2.996473518882817e+000
1	 1.438156194403448e+000	 3.689608595886352e+000	 2.775519208050088e+000
1	 1.399083230311879e+000	 3.704601242315141e+000	 2.527918464297746e+000
1	 1.359943272617523e+000	 3.719147481273075e+000	 2.254446243946568e+000
1	 1.320743598141762e+000	 3.733247852883756e+000	 1.955998586017309e+000
1	 1.281491436978598e+000	 3.746903047171049e+000	 1.633589796558997e+000
1	 1.242193968865348e+000	 3.760113901905669e+000	 1.288349481553161e+000
1	 1.202858319648347e+000	 3.772881400354629e+000	 9.215194370995175e-001
1	 1.163491557846334e+000	 3.785206668937873e+000	 5.344504057403472e-001
1	 1.565370995256741e+000	 3.666475311734168e+000	 3.180655515592165e+000
1	 1.526281602540710e+000	 3.682918888445373e+000	 3.015905086222789e+000
1	 1.487102543241513e+000	 3.698912345713430e+000	 2.824619395084427e+000
1	 1.447841261477360e+000	 3.714455762604492e+000	 2.607599351141598e+000
1	 1.408505165829424e+000	 3.729549374968920e+000	 2.365765244857004e+000
1	 1.369101625419423e+000	 3.744193573592155e+000	 2.100153909842642e+000
1	 1.329637966073493e+000	 3.758388902235207e+000	 1.811915734194626e+000
1	 1.290121466575714e+000	 3.772136055568818e+000	 1.502311530156483e+000
1	 1.250559355014359e+000	 3.785435877005571e+000	 1.172709270915392e+000
1	 1.210958805223802e+000	 3.798289356434168e+000	 8.245807034673884e-001
1	 1.171326933324751e+000	 3.810697627860287e+000	 4.594978465898820e-001
1	 1.575842255806114e+000	 3.691001522076282e+000	 3.003427396158015e+000
1	 1.536491381807389e+000	 3.707555095060664e+000	 2.840319579380966e+000
1	 1.497050241417462e+000	 3.723655537610877e+000	 2.652062095369526e+000
1	 1.457526328550590e+000	 3.739302929321990e+000	 2.439701613776327e+000
1	 1.417927101346284e+000	 3.754497507622050e+000	 2.204396035148111e+000
1	 1.378259978220630e+000	 3.769239665910597e+000	 1.947411372779471e+000
1	 1.338532334004528e+000	 3.783529951586039e+000	 1.670118503123625e+000
1	 1.298751496172134e+000	 3.797369063966006e+000	 1.373989793574806e+000
1	 1.258924741162680e+000	 3.810757852104944e+000	 1.060595616547607e+000
1	 1.219059290798575e+000	 3.823697312513240e+000	 7.316007588609881e-001
1	 1.179162308802503e+000	 3.836188586782309e+000	 3.887607354896936e-001
1	 1.586313516354986e+000	 3.715527732417928e+000	 2.824886322751906e+000
1	 1.546701161073566e+000	 3.732191301675452e+000	 2.663983741674429e+000
1	 1.506997939592899e+000	 3.748398729507805e+000	 2.479392468880277e+000
1	 1.467211395623299e+000	 3.764150096038960e+000	 2.272375410836641e+000
1	 1.427349036862607e+000	 3.779445640274658e+000	 2.044297263137324e+000
1	 1.387418331021288e+000	 3.794285758228535e+000	 1.796621182830321e+000
1	 1.347426701935000e+000	 3.808671000936399e+000	 1.530905349098736e+000
1	 1.307381525767980e+000	 3.822602072362762e+000	 1.248799421119269e+000
1	 1.267290127310419e+000	 3.836079827203932e+000	 9.520409019848097e-001
1	 1.227159776372764e+000	 3.849105268591986e+000	 6.424514176141831e-001
1	 1.186997684279672e+000	 3.861679545704069e+000	 3.219329195811529e-001
1	 1.596784776903525e+000	 3.740053942759174e+000	 2.645622871714780e+000
1	 1.556910940339404e+000	 3.756827508289827e+000	 2.487491653392516e+000
1	 1.516945637767987e+000	 3.773141921404314e+000	 2.307185866276021e+000
1	 1.476896462695643e+000	 3.788997262755523e+000	 2.106155745578584e+000
1	 1.436770972378545e+000	 3.804393772926877e+000	 1.885942597365848e+000
1	 1.396576683821540e+000	 3.819331850546111e+000	 1.648175330832950e+000
1	 1.356321069865043e+000	 3.833812050286428e+000	 1.394566899648695e+000
1	 1.316011555363374e+000	 3.847835080759229e+000	 1.126910661041023e+000
1	 1.275655513457686e+000	 3.861401802302680e+000	 8.470766613145790e-001
1	 1.235260261946464e+000	 3.874513224670544e+000	 5.570078564822425e-001
1	 1.194833059756341e+000	 3.887170504625702e+000	 2.587162766601563e-001
1	 1.607256037451896e+000	 3.764580153100085e+000	 2.466212228986117e+000
1	 1.567120719605069e+000	 3.781463714903874e+000	 2.311421913110450e+000
1	 1.526893335942890e+000	 3.797885113300513e+000	 2.136002644595657e+000
1	 1.486581529767779e+000	 3.813844429471796e+000	 1.941563679089973e+000
1	 1.446192907894251e+000	 3.829341905578835e+000	 1.729793362587522e+000
1	 1.405735036621529e+000	 3.844377942863459e+000	 1.502455592356304e+000
1	 1.365215437794791e+000	 3.858953099636275e+000	 1.261386208558200e+000
1	 1.324641584958440e+000	 3.873068089155554e+000	 1.008489324927604e+000
1	 1.284020899604591e+000	 3.886723777401332e+000	 7.457336068476907e-001
1	 1.243360747519773e+000	 3.899921180749059e+000	 4.751485051110889e-001
1	 1.202668435232591e+000	 3.912661463547339e+000	 1.988204535789442e-001
1	 1.617727298000268e+000	 3.789106363440732e+000	 2.287214688200590e+000
1	 1.577330498870728e+000	 3.806099921517680e+000	 2.136338138741234e+000
1	 1.536841034117769e+000	 3.822628305196501e+000	 1.966388652512855e+000
1	 1.496266596839867e+000	 3.838691596187895e+000	 1.779106781516229e+000
1	 1.455614843409874e+000	 3.854290038230659e+000	 1.576298939264502e+000
1	 1.414893389421397e+000	 3.869424035180720e+000	 1.359833858308581e+000
1	 1.374109805724377e+000	 3.884094148986077e+000	 1.131639000985375e+000
1	 1.333271614553299e+000	 3.898301097551884e+000	 8.936969312914829e-001
1	 1.292386285751246e+000	 3.912045752500036e+000	 6.480416557143669e-001
1	 1.251461233092786e+000	 3.925329136827667e+000	 3.967549407604190e-001
1	 1.210503810708504e+000	 3.938152422469113e+000	 1.419626148075373e-001
1	 1.628198558548805e+000	 3.813632573781182e+000	 2.109176129564440e+000
1	 1.587540278136545e+000	 3.830736128131332e+000	 1.962789449253249e+000
1	 1.546788732292785e+000	 3.847371497092383e+000	 1.798875696866455e+000
1	 1.505951663912062e+000	 3.863538762903940e+000	 1.619279565874654e+000
1	 1.465036778925567e+000	 3.879238170882483e+000	 1.425897147647439e+000
1	 1.424051742221288e+000	 3.894470127498032e+000	 1.220672452787984e+000
1	 1.383004173653933e+000	 3.909235198335981e+000	 1.005593909120902e+000
1	 1.341901644148075e+000	 3.923534105948364e+000	 7.826908436181586e-001
1	 1.300751671897759e+000	 3.937367727598935e+000	 5.540299554339576e-001
1	 1.259561718665601e+000	 3.950737092906512e+000	 3.217117870891464e-001
1	 1.218339186184163e+000	 3.963643381391156e+000	 8.786720069752274e-002
1	 1.638669819097675e+000	 3.838158784121502e+000	 1.932628480371566e+000
1	 1.597750057402686e+000	 3.855372334744916e+000	 1.791310927918596e+000
1	 1.556736430468104e+000	 3.872114688988261e+000	 1.633981991303995e+000
1	 1.515636730984523e+000	 3.888385929620046e+000	 1.462563905235995e+000
1	 1.474458714441479e+000	 3.904186303534432e+000	 1.279014617129970e+000
1	 1.433210095021345e+000	 3.919516219815532e+000	 1.085324438746989e+000
1	 1.391898541583594e+000	 3.934376247686132e+000	 8.835126988116986e-001
1	 1.350531673742888e+000	 3.948767114345142e+000	 6.756244031212559e-001
1	 1.309117058044241e+000	 3.962689702698176e+000	 4.637269085044429e-001
1	 1.267662204238312e+000	 3.976145048985731e+000	 2.499066168214916e-001
1	 1.226174561659649e+000	 3.989134340313600e+000	 3.626569501407939e-002
1	 1.649141079647045e+000	 3.862684994461762e+000	 1.758090157975186e+000
1	 1.607959836669317e+000	 3.880008541358522e+000	 1.622424067913002e+000
1	 1.566684128643885e+000	 3.896857880884244e+000	 1.472212587833017e+000
1	 1.525321798057408e+000	 3.913233096336334e+000	 1.309429434012633e+000
1	 1.483880649957764e+000	 3.929134436186639e+000	 1.136067141531578e+000
1	 1.442368447821711e+000	 3.944562312133357e+000	 9.541339120116901e-001
1	 1.400792909513494e+000	 3.959517297036672e+000	 7.656504875510224e-001
1	 1.359161703337863e+000	 3.974000122742365e+000	 5.726470564400548e-001
1	 1.317482444190802e+000	 3.988011677797904e+000	 3.771601960550797e-001
1	 1.275762689811020e+000	 4.001553005065472e+000	 1.812298581212497e-001
1	 1.234009937135045e+000	 4.014625299236578e+000	-1.310359867557520e-002
1	 1.155656182367169e+000	 3.759715710014934e+000	 6.139328686943566e-001
1	 1.116530587703505e+000	 3.771519981695345e+000	 1.840870793169960e-001
1	 1.077387944538932e+000	 3.782887650511029e+000	-2.640117855525799e-001
1	 1.038235080352056e+000	 3.793820241437709e+000	-7.283670246914431e-001
1	 9.990787532115458e-001	 3.804319411526238e+000	-1.206942274672557e+000
1	 9.599256488797634e-001	 3.814386947187075e+000	-1.697664611714619e+000
1	 9.207823780247855e-001	 3.824024761409273e+000	-2.198427655386034e+000
1	 8.816554735420574e-001	 3.833234890918528e+000	-2.707094668360328e+000
1	 8.425513879866898e-001	 3.842019493278807e+000	-3.221501646569289e+000
1	 8.034764911172426e-001	 3.850380843942109e+000	-3.739460394262113e+000
1	 7.644370675516261e-001	 3.858321333250832e+000	-4.258761578650171e+000
1	 1.163491557846334e+000	 3.785206668937873e+000	 5.344504057403472e-001
1	 1.124100690751761e+000	 3.797090973851327e+000	 1.293439307836879e-001
1	 1.084692659567022e+000	 3.808535715722648e+000	-2.912128933360330e-001
1	 1.045274338061189e+000	 3.819542429866924e+000	-7.251884348320048e-001
1	 1.005852530122790e+000	 3.830112784569852e+000	-1.170522942294565e+000
1	 9.664339668438120e-001	 3.840248578353792e+000	-1.625131490977514e+000
1	 9.270253037128136e-001	 3.849951737177908e+000	-2.086906915523115e+000
1	 8.876331179184220e-001	 3.859224311576942e+000	-2.553722724003659e+000
1	 8.482639057642215e-001	 3.868068473743192e+000	-3.023435988323419e+000
1	 8.089240801958836e-001	 3.876486514556274e+000	-3.493890206201253e+000
1	 7.696199684411721e-001	 3.884480840565159e+000	-3.962918130137611e+000
1	 1.171326933324751e+000	 3.810697627860287e+000	 4.594978465898820e-001
1	 1.131670793799310e+000	 3.822661966006884e+000	 7.934490734593425e-002
1	 1.091997374594454e+000	 3.834183780933947e+000	-3.137301676355184e-001
1	 1.052313595769716e+000	 3.845264618295935e+000	-7.176715441678603e-001
1	 1.012626307033486e+000	 3.855906157613377e+000	-1.130405438252748e+000
1	 9.729422848073708e-001	 3.866110209520530e+000	-1.549842921200280e+000
1	 9.332682294004119e-001	 3.875878712946665e+000	-1.973882697637457e+000
1	 8.936107622944163e-001	 3.885213732235560e+000	-2.400413851888152e+000
1	 8.539764235414411e-001	 3.894117454207846e+000	-2.827318558388337e+000
1	 8.143716692742643e-001	 3.902592185170742e+000	-3.252474751989240e+000
1	 7.748028693305061e-001	 3.910640347879801e+000	-3.673758754194732e+000
1	 1.179162308802503e+000	 3.836188586782309e+000	 3.887607354896936e-001
1	 1.139240896846218e+000	 3.848232958162134e+000	 3.359414167602415e-002
1	 1.099302089621277e+000	 3.859831846145037e+000	-3.322206773404215e-001
1	 1.059352853477671e+000	 3.870986806724833e+000	-7.066143156359201e-001
1	 1.019400083943650e+000	 3.881699530656881e+000	-1.087508232629947e+000
1	 9.794506027704428e-001	 3.891971840687341e+000	-1.472817431227112e+000
1	 9.395111550875688e-001	 3.901805688715573e+000	-1.860453097144183e+000
1	 8.995884066700163e-001	 3.911203152894399e+000	-2.248325195435241e+000
1	 8.596889413183112e-001	 3.920166434672770e+000	-2.634345020421714e+000
1	 8.198192583523409e-001	 3.928697855785511e+000	-3.016427695433890e+000
1	 7.799857702195771e-001	 3.936799855194742e+000	-3.392494618972598e+000
1	 1.186997684279672e+000	 3.861679545704069e+000	 3.219329195811529e-001
1	 1.146810999892553e+000	 3.873803950317199e+000	-8.391140665452657e-003
1	 1.106606804647541e+000	 3.885479911356019e+000	-3.473241420834339e-001
1	 1.066392111185088e+000	 3.896708995153701e+000	-6.927936427482697e-001
1	 1.026173860853302e+000	 3.907492903700438e+000	-1.042725544211945e+000
1	 9.859589207330300e-001	 3.917833471854272e+000	-1.395046656652328e+000
1	 9.457540807742733e-001	 3.927732664484668e+000	-1.747687215331899e+000
1	 9.055660510451968e-001	 3.937192573553473e+000	-2.098583344835642e+000
1	 8.654014590947976e-001	 3.946215415137963e+000	-2.445679467761845e+000
1	 8.252668474300694e-001	 3.954803526400566e+000	-2.786930654747885e+000
1	 7.851686711083348e-001	 3.962959362509965e+000	-3.120304912922854e+000
1	 1.194833059756341e+000	 3.887170504625702e+000	 2.587162766601563e-001
1	 1.154381102938380e+000	 3.899374942472197e+000	-4.708105052672584e-002
1	 1.113911519673297e+000	 3.911127976566998e+000	-3.596635010983218e-001
1	 1.073431368892000e+000	 3.922431183582631e+000	-6.769660404286193e-001
1	 1.032947637762458e+000	 3.933286276744113e+000	-9.969281356529622e-001
1	 9.924672386951359e-001	 3.943695103021377e+000	-1.317496221611791e+000
1	 9.519970064605130e-001	 3.953659640253977e+000	-1.636626110038808e+000
1	 9.115436954199343e-001	 3.963181994212797e+000	-1.952285338846367e+000
1	 8.711139768708643e-001	 3.972264395603425e+000	-2.262455458573693e+000
1	 8.307144365074048e-001	 3.980909197015896e+000	-2.565134253278201e+000
1	 7.903515719967292e-001	 3.989118869825450e+000	-2.858337893366508e+000
1	 1.202668435232591e+000	 3.912661463547339e+000	 1.988204535789442e-001
1	 1.161951205983767e+000	 3.924945934627249e+000	-8.293344768083433e-002
1	 1.121216234698595e+000	 3.936776041778080e+000	-3.698454598404286e-001
1	 1.080470626598443e+000	 3.948153372011707e+000	-6.598683088439423e-001
1	 1.039721414671137e+000	 3.959079649787976e+000	-9.509640775581314e-001
1	 9.989755566567625e-001	 3.969556734188702e+000	-1.241106586105086e+000
1	 9.582399321462770e-001	 3.979586616023536e+000	-1.528283709167025e+000
1	 9.175213397942035e-001	 3.989171414872388e+000	-1.810499627427493e+000
1	 8.768264946464762e-001	 3.998313376069161e+000	-2.085777010530801e+000
1	 8.361620255843035e-001	 4.007014867631494e+000	-2.352159129162636e+000
1	 7.955344728847096e-001	 4.015278377141184e+000	-2.607711894074374e+000
1	 1.210503810708504e+000	 3.938152422469113e+000	 1.419626148075373e-001
1	 1.169521309028779e+000	 3.950516926782475e+000	-1.163943373206493e-001
1	 1.128520949723485e+000	 3.962424106989368e+000	-3.784610153785271e-001
1	 1.087509884304450e+000	 3.973875560441018e+000	-6.422181714549273e-001
1	 1.046495191579357e+000	 3.984873022832094e+000	-9.056594828914826e-001
1	 1.005483874617913e+000	 3.995418365356300e+000	-1.166793860410284e+000
1	 9.644828578315530e-001	 4.005513591793374e+000	-1.423647688718690e+000
1	 9.234989841679803e-001	 4.015160835532258e+000	-1.674266996993003e+000
1	 8.825390124215976e-001	 4.024362356535170e+000	-1.916719556867065e+000
1	 8.416096146607207e-001	 4.033120538247347e+000	-2.149096905774428e+000
1	 8.007173737722256e-001	 4.041437884457146e+000	-2.369516293716047e+000
1	 1.218339186184163e+000	 3.963643381391156e+000	 8.786720069752274e-002
1	 1.177091412073484e+000	 3.976087918937997e+000	-1.478982512543583e-001
1	 1.135825664748019e+000	 3.988072172200969e+000	-3.860859615130232e-001
1	 1.094549142010055e+000	 3.999597748870652e+000	-6.247148884459541e-001
1	 1.053268968487136e+000	 4.010666395876540e+000	-8.618192130449218e-001
1	 1.011992192578589e+000	 4.021279996524219e+000	-1.095450588072785e+000
1	 9.707257835163295e-001	 4.031440567563525e+000	-1.323680316951149e+000
1	 9.294766285412396e-001	 4.041150256192426e+000	-1.544601459958916e+000
1	 8.882515301961927e-001	 4.050411337001454e+000	-1.756330865536990e+000
1	 8.470572037366123e-001	 4.059226208863447e+000	-1.957011124720034e+000
1	 8.059002746592268e-001	 4.067597391773321e+000	-2.144812446939268e+000
1	 1.226174561659649e+000	 3.989134340313600e+000	 3.626569501407939e-002
1	 1.184661515117947e+000	 4.001658911093932e+000	-1.778686144856529e-001
1	 1.143130379772245e+000	 4.013720237412986e+000	-3.932813745278976e-001
1	 1.101588399715292e+000	 4.025319937300696e+000	-6.080398466356456e-001
1	 1.060042745394492e+000	 4.036459768921380e+000	-8.202275568364814e-001
1	 1.018500510538794e+000	 4.047141627692512e+000	-1.027946498873910e+000
1	 9.769687092005952e-001	 4.057367543334021e+000	-1.229319266166931e+000
1	 9.354542729139569e-001	 4.067139676852901e+000	-1.422491110185551e+000
1	 8.939640479702261e-001	 4.076460317468011e+000	-1.605631923134856e+000
1	 8.525047928119343e-001	 4.085331879479782e+000	-1.776938143065338e+000
1	 8.110831755456628e-001	 4.093756899089693e+000	-1.934634579751095e+000
1	 1.234009937135045e+000	 4.014625299236578e+000	-1.310359867557520e-002
1	 1.192231618162235e+000	 4.027229903250403e+000	-2.067180978282661e-001
1	 1.150435094796215e+000	 4.039368302625527e+000	-4.005940804366550e-001
1	 1.108627657420196e+000	 4.051042125731239e+000	-5.928571269136223e-001
1	 1.066816522301444e+000	 4.062253141966684e+000	-7.816488836403415e-001
1	 1.025008828498531e+000	 4.073003258861228e+000	-9.651292331134631e-001
1	 9.832116348843378e-001	 4.083294519104889e+000	-1.141478393576490e+000
1	 9.414319172861090e-001	 4.093129097513706e+000	-1.308898945829986e+000
1	 8.996765657436628e-001	 4.102509297934844e+000	-1.465617785139150e+000
1	 8.579523818866420e-001	 4.111437550096343e+000	-1.609887996380031e+000
1	 8.162660764314833e-001	 4.119916406406246e+000	-1.739990650787691e+000
1	 7.644370675516261e-001	 3.858321333250832e+000	-4.258761578650172e+000
1	 7.254451589814354e-001	 3.865842366926856e+000	-4.785306221757533e+000
1	 6.865010045823988e-001	 3.872947779998714e+000	-5.319893827955458e+000
1	 6.476106092149710e-001	 3.879640291078204e+000	-5.852360858983318e+000
1	 6.087798846073815e-001	 3.885922721176182e+000	-6.372485000124926e+000
1	 5.700146475776197e-001	 3.891797990537994e+000	-6.870001851107893e+000
1	 5.313206183671867e-001	 3.897269115457639e+000	-7.334621282702647e+000
1	 4.927034190860284e-001	 3.902339205074783e+000	-7.756043437317984e+000
1	 4.541685722679201e-001	 3.907011458158685e+000	-8.123974353349741e+000
1	 4.157214995354012e-001	 3.911289159882991e+000	-8.428141194502857e+000
1	 3.773675203732346e-001	 3.915175678595245e+000	-8.658307066774865e+000
1	 7.696199684411721e-001	 3.884480840565159e+000	-3.962918130137611e+000
1	 7.303636938346297e-001	 3.892052867022554e+000	-4.435290507614305e+000
1	 6.911554971736034e-001	 3.899206454958561e+000	-4.911172459871239e+000
1	 6.520014240316413e-001	 3.905944341417219e+000	-5.381225830419397e+000
1	 6.129074262186277e-001	 3.912269366535888e+000	-5.836063958473027e+000
1	 5.738793599907134e-001	 3.918184470359234e+000	-6.266266942910264e+000
1	 5.349229843727692e-001	 3.923692689631786e+000	-6.662396592393515e+000
1	 4.960439595927782e-001	 3.928797154573237e+000	-7.015011042011341e+000
1	 4.572478456274227e-001	 3.933501085640565e+000	-7.314679018149346e+000
1	 4.185401008579682e-001	 3.937807790280954e+000	-7.551993734648738e+000
1	 3.799260808354098e-001	 3.941720659679419e+000	-7.717586404661557e+000
1	 7.748028693305061e-001	 3.910640347879801e+000	-3.673758754194732e+000
1	 7.352822286876529e-001	 3.918263367118545e+000	-4.094905602131046e+000
1	 6.958099897646701e-001	 3.925465129918650e+000	-4.515521600489387e+000
1	 6.563922388481983e-001	 3.932248391756403e+000	-4.927064103801518e+000
1	 6.170349678297767e-001	 3.938616011895685e+000	-5.320951325677410e+000
1	 5.777440724037162e-001	 3.944570950180483e+000	-5.688576234433824e+000
1	 5.385253503782572e-001	 3.950116263805866e+000	-6.021320155263728e+000
1	 4.993845000994192e-001	 3.955255104071563e+000	-6.310566061268748e+000
1	 4.603271189867908e-001	 3.959990713122277e+000	-6.547711536912185e+000
1	 4.213587021803643e-001	 3.964326420678744e+000	-6.724181398691510e+000
1	 3.824846412973639e-001	 3.968265640763441e+000	-6.831439959068332e+000
1	 7.799857702195771e-001	 3.936799855194742e+000	-3.392494618972597e+000
1	 7.402007635404505e-001	 3.944473867214804e+000	-3.765338114956640e+000
1	 7.004644823555445e-001	 3.951723804878960e+000	-4.134080053192990e+000
1	 6.607830536645900e-001	 3.958552442095745e+000	-4.490944053054384e+000
1	 6.211625094407817e-001	 3.964962657255565e+000	-4.828123059109066e+000
1	 5.816087848165891e-001	 3.970957430001741e+000	-5.137791926233309e+000
1	 5.421277163836221e-001	 3.976539837979887e+000	-5.412119731571289e+000
1	 5.027250406059354e-001	 3.981713053569776e+000	-5.643281797520593e+000
1	 4.634063923460235e-001	 3.986480340603840e+000	-5.823471411052109e+000
1	 4.241773035026046e-001	 3.990845051076375e+000	-5.944911225806826e+000
1	 3.850432017591321e-001	 3.994810621847332e+000	-5.999864334543308e+000
1	 7.851686711083348e-001	 3.962959362509965e+000	-3.120304912922854e+000
1	 7.451192983929696e-001	 3.970684367311316e+000	-3.447743324483838e+000
1	 7.051189749461719e-001	 3.977982479839472e+000	-3.767956552386582e+000
1	 6.651738684807658e-001	 3.984856492435232e+000	-4.073905842744571e+000
1	 6.252900510515963e-001	 3.991309302615523e+000	-4.358529346948645e+000
1	 5.854734972292937e-001	 3.997343909823011e+000	-4.614753453309572e+000
1	 5.457300823888359e-001	 4.002963412153861e+000	-4.835503865783481e+000
1	 5.060655811123113e-001	 4.008171003067892e+000	-5.013716415712630e+000
1	 4.664856657051201e-001	 4.012969968085276e+000	-5.142347593542231e+000
1	 4.269959048247057e-001	 4.017363681473868e+000	-5.214384788504326e+000
1	 3.876017622207494e-001	 4.021355602931106e+000	-5.222856225286670e+000
1	 7.903515719967292e-001	 3.989118869825450e+000	-2.858337893366507e+000
1	 7.500378332451563e-001	 3.996894867408061e+000	-3.143246205156673e+000
1	 7.097734675364993e-001	 4.004241154800173e+000	-3.418230749415170e+000
1	 6.695646832966730e-001	 4.011160542774849e+000	-3.676962353025325e+000
1	 6.294175926621741e-001	 4.017655947975554e+000	-3.913095453121851e+000
1	 5.893382096417913e-001	 4.023730389644293e+000	-4.120278231559826e+000
1	 5.493324483938694e-001	 4.029386986327793e+000	-4.292162516635292e+000
1	 5.094061216185306e-001	 4.034628952565923e+000	-4.422413439642582e+000
1	 4.695649390640794e-001	 4.039459595566599e+000	-4.504718834783272e+000
1	 4.298145061466832e-001	 4.043882311871244e+000	-4.532798371872030e+000
1	 3.901603226822514e-001	 4.047900584014784e+000	-4.500412412211148e+000
1	 7.955344728847096e-001	 4.015278377141184e+000	-2.607711894074374e+000
1	 7.549563680969570e-001	 4.023105367505021e+000	-2.852942414620302e+000
1	 7.144279601264725e-001	 4.030499829761043e+000	-3.085954159943707e+000
1	 6.739554981122607e-001	 4.037464593114586e+000	-3.301100068425246e+000
1	 6.335451342724690e-001	 4.044002593335649e+000	-3.492722529205881e+000
1	 5.932029220540432e-001	 4.050116869465589e+000	-3.655162375048953e+000
1	 5.529348143986951e-001	 4.055810560501691e+000	-3.782767662558976e+000
1	 5.127466621245780e-001	 4.061086902063885e+000	-3.869902228895100e+000
1	 4.726442124229007e-001	 4.065949223047831e+000	-3.910954014952030e+000
1	 4.326331074685535e-001	 4.070400942268521e+000	-3.900343145813874e+000
1	 3.927188831436725e-001	 4.074445565098374e+000	-3.832529760117569e+000
1	 8.007173737722256e-001	 4.041437884457146e+000	-2.369516293716047e+000
1	 7.598749029483174e-001	 4.049315867602174e+000	-2.577899242533187e+000
1	 7.190824527160377e-001	 4.056758504722066e+000	-2.772151074543405e+000
1	 6.783463129274774e-001	 4.063768643454428e+000	-2.947279932119092e+000
1	 6.376726758824347e-001	 4.070349238695803e+000	-3.098288394804153e+000
1	 5.970676344660112e-001	 4.076503349286900e+000	-3.220181385424510e+000
1	 5.565371804032837e-001	 4.082234134675567e+000	-3.307973883600522e+000
1	 5.160872026304370e-001	 4.087544851561791e+000	-3.356698437253840e+000
1	 4.757234857815826e-001	 4.092438850528988e+000	-3.361412463442425e+000
1	 4.354517087903323e-001	 4.096919572665721e+000	-3.317205330598315e+000
1	 3.952774436050484e-001	 4.100990546181900e+000	-3.219205214980036e+000
1	 8.059002746592268e-001	 4.067597391773321e+000	-2.144812446939268e+000
1	 7.647934377991847e-001	 4.075526367699501e+000	-2.319156522767104e+000
1	 7.237369453051401e-001	 4.083017179683221e+000	-2.477819434140956e+000
1	 6.827371277422712e-001	 4.090072693794363e+000	-2.616438167234855e+000
1	 6.418002174920245e-001	 4.096695884056009e+000	-2.730648287808609e+000
1	 6.009323468776562e-001	 4.102889829108227e+000	-2.816090814728839e+000
1	 5.601395464076071e-001	 4.108657708849427e+000	-2.868418920881675e+000
1	 5.194277431360924e-001	 4.114002801059660e+000	-2.883304453424869e+000
1	 4.788027591401242e-001	 4.118928478010091e+000	-2.856444265980314e+000
1	 4.382703101120360e-001	 4.123438203062862e+000	-2.783566356018711e+000
1	 3.978360040664137e-001	 4.127535527265376e+000	-2.660435801335896e+000
1	 8.110831755456628e-001	 4.093756899089693e+000	-1.934634579751095e+000
1	 7.697119726495052e-001	 4.101736867796985e+000	-2.077727510633026e+000
1	 7.283914378937266e-001	 4.109275854644497e+000	-2.203931671902584e+000
1	 6.871279425565917e-001	 4.116376744134381e+000	-2.309487066671372e+000
1	 6.459277591011925e-001	 4.123042529416264e+000	-2.390635585896357e+000
1	 6.047970592889399e-001	 4.129276308929571e+000	-2.443626902798874e+000
1	 5.637419124116373e-001	 4.135081283023280e+000	-2.464724214611873e+000
1	 5.227682836415281e-001	 4.140460750557502e+000	-2.450209824862469e+000
1	 4.818820324985248e-001	 4.145418105491159e+000	-2.396390559963271e+000
1	 4.410889114336800e-001	 4.149956833459962e+000	-2.299603014451476e+000
1	 4.003945645278038e-001	 4.154080508348820e+000	-2.156218619775707e+000
1	 8.162660764314833e-001	 4.119916406406246e+000	-1.739990650787691e+000
1	 7.746305074992252e-001	 4.127947367894609e+000	-1.854599726687103e+000
1	 7.330459304817431e-001	 4.135534529605870e+000	-1.951435523044694e+000
1	 6.915187573703863e-001	 4.142680794474464e+000	-2.027315752826021e+000
1	 6.500553007098926e-001	 4.149389174776561e+000	-2.079062500539540e+000
1	 6.086617716998241e-001	 4.155662788750935e+000	-2.103507190382602e+000
1	 5.673442784153456e-001	 4.161504857197135e+000	-2.097495421603356e+000
1	 5.261088241467282e-001	 4.166918700055335e+000	-2.057891665448268e+000
1	 4.849613058567833e-001	 4.171907732972208e+000	-1.981583818548718e+000
1	 4.439075127552812e-001	 4.176475463857043e+000	-1.865487608083095e+000
1	 4.029531249892537e-001	 4.180625489432248e+000	-1.706550844528935e+000
1	 3.773675203732346e-001	 3.915175678595245e+000	-8.658307066774867e+000
1	 3.391061330280596e-001	 3.918674958673670e+000	-8.819783014439448e+000
1	 3.009482782972789e-001	 3.921789915098675e+000	-8.915746995424700e+000
1	 2.628990420740383e-001	 3.924524148878315e+000	-8.932890075819575e+000
1	 2.249634018290048e-001	 3.926881331380237e+000	-8.857927634275971e+000
1	 1.871462259189425e-001	 3.928865201095816e+000	-8.677618357564130e+000
1	 1.494522729974383e-001	 3.930479560421401e+000	-8.378782653571289e+000
1	 1.118861915258204e-001	 3.931728272459813e+000	-7.948320466651137e+000
1	 7.445251938222533e-002	 3.932615257845103e+000	-7.373228482035765e+000
1	 3.715568356668126e-002	 3.933144491593509e+000	-6.640616707790889e+000
1	 0.000000000000000e+000	 3.933319999983334e+000	-5.737724424527048e+000
1	 3.799260808354098e-001	 3.941720659679419e+000	-7.717586404661557e+000
1	 3.414052804044881e-001	 3.945243664957141e+000	-7.816551646493958e+000
1	 3.029887145414698e-001	 3.948379740858184e+000	-7.851545431292416e+000
1	 2.646815036219781e-001	 3.951132512805529e+000	-7.809642375656037e+000
1	 2.264886588640519e-001	 3.953505677058799e+000	-7.677942959490254e+000
1	 1.884150816320316e-001	 3.955502997456446e+000	-7.443592086467470e+000
1	 1.504655628432900e-001	 3.957128302175165e+000	-7.093797069896033e+000
1	 1.126447824758355e-001	 3.958385480509717e+000	-6.615845029405890e+000
1	 7.495730917472805e-002	 3.959278479676159e+000	-5.997119685630064e+000
1	 3.740759995516315e-002	 3.959811301641444e+000	-5.225117541796796e+000
1	 0.000000000000000e+000	 3.959987999982151e+000	-4.287463442845906e+000
1	 3.824846412973639e-001	 3.968265640763441e+000	-6.831439959068332e+000
1	 3.437044277806349e-001	 3.971812371240532e+000	-6.874323340471188e+000
1	 3.050291507853137e-001	 3.974969566617713e+000	-6.855015310763530e+000
1	 2.664639651695110e-001	 3.977740876732895e+000	-6.761078173241931e+000
1	 2.280139158986450e-001	 3.980130022737658e+000	-6.580100064212437e+000
1	 1.896839373446407e-001	 3.982140793817517e+000	-6.299712948376004e+000
1	 1.514788526886658e-001	 3.983777043929511e+000	-5.907610054043428e+000
1	 1.134033734254169e-001	 3.985042688560327e+000	-5.391562734111195e+000
1	 7.546209896688526e-002	 3.985941701508022e+000	-4.739436740451703e+000
1	 3.765951634344149e-002	 3.986478111690256e+000	-3.939207901060752e+000
1	 0.000000000000000e+000	 3.986655999981866e+000	-2.978977190955290e+000
1	 3.850432017591321e-001	 3.994810621847332e+000	-5.999864334543308e+000
1	 3.460035751565559e-001	 3.998381077523854e+000	-5.992876353040629e+000
1	 3.070695870288875e-001	 4.001559392377267e+000	-5.925716838026121e+000
1	 2.682464267167318e-001	 4.004349240660396e+000	-5.786537753981236e+000
1	 2.295391729328930e-001	 4.006754368416779e+000	-5.563515313666403e+000
1	 1.909527930568875e-001	 4.008778590178979e+000	-5.244867279741262e+000
1	 1.524921425336836e-001	 4.010425785684371e+000	-4.818869727026466e+000
1	 1.141619643746725e-001	 4.011699896611567e+000	-4.273873251884108e+000
1	 7.596688875878316e-002	 4.012604923340605e+000	-3.598318616852860e+000
1	 3.791143273156714e-002	 4.013144921739845e+000	-2.780751820300721e+000
1	 0.000000000000000e+000	 4.013323999982383e+000	-1.809838582448553e+000
1	 3.876017622207494e-001	 4.021355602931106e+000	-5.222856225286670e+000
1	 3.483027225323065e-001	 4.024949783807112e+000	-5.171994795783484e+000
1	 3.091100232722676e-001	 4.028149218136837e+000	-5.063221829640216e+000
1	 2.700288882637353e-001	 4.030957604588013e+000	-4.885378822388272e+000
1	 2.310644299669053e-001	 4.033378714096125e+000	-4.627328404578214e+000
1	 1.922216487688894e-001	 4.035416386540783e+000	-4.277970822200569e+000
1	 1.535054323784610e-001	 4.037074527439684e+000	-3.826259904888628e+000
1	 1.149205553237103e-001	 4.038357104663356e+000	-3.261218508948185e+000
1	 7.647167855050803e-002	 4.039268145173817e+000	-2.571953423840670e+000
1	 3.816334911959094e-002	 4.039811731790116e+000	-1.747669732296017e+000
1	 0.000000000000000e+000	 4.039991999983600e+000	-7.776846157490862e-001
1	 3.901603226822514e-001	 4.047900584014784e+000	-4.500412412211148e+000
1	 3.506018699079427e-001	 4.051518490090317e+000	-4.411468443218537e+000
1	 3.111504595155301e-001	 4.054739043896424e+000	-4.267113333784860e+000
1	 2.718113498106167e-001	 4.057565968515733e+000	-4.056975930940249e+000
1	 2.325896870007913e-001	 4.060003059775668e+000	-3.770701600169668e+000
1	 1.934905044807638e-001	 4.062054182902881e+000	-3.397967758422988e+000
1	 1.545187222231158e-001	 4.063723269195385e+000	-2.928498928314768e+000
1	 1.156791462726381e-001	 4.065014312715615e+000	-2.352081301148565e+000
1	 7.697646834214598e-002	 4.065931367007567e+000	-1.658576797890214e+000
1	 3.841526550756381e-002	 4.066478541840970e+000	-8.379366186744539e-001
1	 0.000000000000000e+000	 4.066659999985416e+000	 1.197857271414087e-001
1	 3.927188831436725e-001	 4.074445565098374e+000	-3.832529760117569e+000
1	 3.529010172835205e-001	 4.078087196373478e+000	-3.711092548332480e+000
1	 3.131908957587518e-001	 4.081328869656024e+000	-3.536985264388814e+000
1	 2.735938113574707e-001	 4.084174332443536e+000	-3.300719931255763e+000
1	 2.341149440346599e-001	 4.086627405455374e+000	-2.992818995055765e+000
1	 1.947593601926284e-001	 4.088691979265223e+000	-2.603829785643978e+000
1	 1.555320120677654e-001	 4.090372010951407e+000	-2.124338537992333e+000
1	 1.164377372215638e-001	 4.091671520768268e+000	-1.544983962625465e+000
1	 7.748125813378330e-002	 4.092594588841763e+000	-8.564703547388057e-001
1	 3.866718189553659e-002	 4.093145351892310e+000	-4.958023298496705e-002
1	 0.000000000000000e+000	 4.093327999987732e+000	 8.848134997565849e-001
1	 3.952774436050484e-001	 4.100990546181900e+000	-3.219205214980034e+000
1	 3.552001646590956e-001	 4.104655902656603e+000	-3.070667665274329e+000
1	 3.152313320020088e-001	 4.107918695415633e+000	-2.872442049470470e+000
1	 2.753762729043923e-001	 4.110782696371409e+000	-2.616017446587841e+000
1	 2.356402010686208e-001	 4.113251751135212e+000	-2.292885808691408e+000
1	 1.960282159046005e-001	 4.115329775627760e+000	-1.894555225181187e+000
1	 1.565453019125276e-001	 4.117020752707689e+000	-1.412562793650112e+000
1	 1.171963281705952e-001	 4.118328728821235e+000	-8.384870861925542e-001
1	 7.798604792550624e-002	 4.119257810676323e+000	-1.639602013078001e-001
1	 3.891909828356013e-002	 4.119812161944039e+000	 6.193206072191826e-001
1	 0.000000000000000e+000	 4.119995999990450e+000	 1.519581731863082e+000
1	 3.978360040664137e-001	 4.127535527265376e+000	-2.660435801335896e+000
1	 3.574993120347236e-001	 4.131224608939701e+000	-2.489999478891652e+000
1	 3.172717682453777e-001	 4.134508521175254e+000	-2.273098293047386e+000
1	 2.771587344514764e-001	 4.137391060299331e+000	-2.002290364671983e+000
1	 2.371654581027829e-001	 4.139876096815146e+000	-1.670127706081896e+000
1	 1.972970716167977e-001	 4.141967571990445e+000	-1.269168166311516e+000
1	 1.575585917575201e-001	 4.143669494464163e+000	-7.919870348082760e-001
1	 1.179549191198401e-001	 4.144985936874438e+000	-2.311882930920644e-001
1	 7.849083771740094e-002	 4.145921032511149e+000	 4.205844949547370e-001
1	 3.917101467168534e-002	 4.146478971996061e+000	 1.170637662393426e+000
1	 0.000000000000000e+000	 4.146663999993466e+000	 2.026217295271838e+000
1	 4.003945645278038e-001	 4.154080508348820e+000	-2.156218619775707e+000
1	 3.597984594104606e-001	 4.157793315222783e+000	-1.968898640802378e+000
1	 3.193122044889351e-001	 4.161098346934877e+000	-1.738578450008317e+000
1	 2.789411959988177e-001	 4.163999424227287e+000	-1.458975350018771e+000
1	 2.386907151372557e-001	 4.166500442495147e+000	-1.123790144537807e+000
1	 1.985659273293375e-001	 4.168605368353228e+000	-7.267176429722786e-001
1	 1.585718816028605e-001	 4.170318236220767e+000	-2.614568813737765e-001
1	 1.187135100694066e-001	 4.171643144927797e+000	 2.782789500815617e-001
1	 7.899562750955365e-002	 4.172584254346156e+000	 8.987528818792052e-001
1	 3.942293105996306e-002	 4.173145782048277e+000	 1.606194850059409e+000
1	 0.000000000000000e+000	 4.173331999996684e+000	 2.406792698113248e+000
1	 4.029531249892537e-001	 4.180625489432248e+000	-1.706550844528935e+000
1	 3.620976067863625e-001	 4.184362021505856e+000	-1.507180611711939e+000
1	 3.213526407327570e-001	 4.187688172694504e+000	-1.268516513371746e+000
1	 2.807236575465114e-001	 4.190607788155260e+000	-9.855233747865883e-001
1	 2.402159721721483e-001	 4.193124788175179e+000	-6.531377453166933e-001
1	 1.998347830423373e-001	 4.195243164716059e+000	-2.662768418279229e-001
1	 1.595851714486665e-001	 4.196966977977437e+000	 1.801527276896642e-001
1	 1.194721010194024e-001	 4.198300352981236e+000	 6.912464693863809e-001
1	 7.950041730205061e-002	 4.199247476181253e+000	 1.272093745965433e+000
1	 3.967484744844418e-002	 4.199812592100591e+000	 1.927769763704541e+000
1	 0.000000000000000e+000	 4.200000000000000e+000	 2.663327810755467e+000
1	 4.200000000000000e+000	 0.000000000000000e+000	 2.646086420303454e+000
1	 4.199812592100592e+000	 3.967484744844299e-002	 2.616459203531787e+000
1	 4.199247476181255e+000	 7.950041730204953e-002	 2.567879656881270e+000
1	 4.198300352981238e+000	 1.194721010194014e-001	 2.503065660373350e+000
1	 4.196966977977437e+000	 1.595851714486656e-001	 2.424625888971132e+000
1	 4.195243164716059e+000	 1.998347830423365e-001	 2.335053135770523e+000
1	 4.193124788175180e+000	 2.402159721721477e-001	 2.236717623039141e+000
1	 4.190607788155259e+000	 2.807236575465109e-001	 2.131860313076268e+000
1	 4.187688172694503e+000	 3.213526407327566e-001	 2.022586231303691e+000
1	 4.184362021505857e+000	 3.620976067863623e-001	 1.910857814417926e+000
1	 4.180625489432248e+000	 4.029531249892535e-001	 1.798488296837526e+000
1	 4.226668000003317e+000	 0.000000000000000e+000	 2.060943001148405e+000
1	 4.226479402152904e+000	 3.992676383716136e-002	 2.054114433155379e+000
1	 4.225910698016349e+000	 8.000520709494820e-002	 2.030762643603019e+000
1	 4.224957561034674e+000	 1.202306919698985e-001	 1.993173378896218e+000
1	 4.223615719734106e+000	 1.605984612950158e-001	 1.943524317058548e+000
1	 4.221880961078892e+000	 2.011036387558750e-001	 1.883879026638589e+000
1	 4.219749133855214e+000	 2.417412292075336e-001	 1.816180928997897e+000
1	 4.217216152083234e+000	 2.825061190946210e-001	 1.742247275277786e+000
1	 4.214277998454134e+000	 3.233930769768958e-001	 1.663763149721356e+000
1	 4.210930727788930e+000	 3.643967541624678e-001	 1.582275511390523e+000
1	 4.207170470515677e+000	 4.055116854507894e-001	 1.499187286663277e+000
1	 4.253336000006534e+000	 0.000000000000000e+000	 1.548648909945375e+000
1	 4.253146212205121e+000	 4.017868022608315e-002	 1.561268423216167e+000
1	 4.252573919851357e+000	 8.050999688819120e-002	 1.559594773628288e+000
1	 4.251614769088035e+000	 1.209892829208252e-001	 1.545512686408229e+000
1	 4.250264461490710e+000	 1.616117511418326e-001	 1.520801125905250e+000
1	 4.248518757441675e+000	 2.023724944698755e-001	 1.487127878064985e+000
1	 4.246373479535218e+000	 2.432664862433427e-001	 1.446044149697887e+000
1	 4.243824516011195e+000	 2.842885806430889e-001	 1.398979195117628e+000
1	 4.240867824213765e+000	 3.254335132213078e-001	 1.347234981050030e+000
1	 4.237499434072024e+000	 3.666959015387497e-001	 1.291980901022117e+000
1	 4.233715451599139e+000	 4.080702459124009e-001	 1.234248550732235e+000
1	 4.280004000009551e+000	 0.000000000000000e+000	 1.103914883442146e+000
1	 4.279813022257144e+000	 4.043059661515751e-002	 1.132855311017963e+000
1	 4.279237141686184e+000	 8.101478668169247e-002	 1.149544126646115e+000
1	 4.278271977141238e+000	 1.217478738720743e-001	 1.155495625910747e+000
1	 4.276913203247188e+000	 1.626250409889992e-001	 1.152121808264493e+000
1	 4.275156553804367e+000	 2.036413501842226e-001	 1.140727571078758e+000
1	 4.272997825215164e+000	 2.447917432794693e-001	 1.122505931801191e+000
1	 4.270432879939134e+000	 2.860710421918251e-001	 1.098533288028187e+000
1	 4.267457649973411e+000	 3.274739494659244e-001	 1.069764725574536e+000
1	 4.264068140355160e+000	 3.689950489151641e-001	 1.037029384880795e+000
1	 4.260260432682667e+000	 4.106288063740698e-001	 1.001025896339578e+000
1	 4.306672000012267e+000	 0.000000000000000e+000	 7.215826681935758e-001
1	 4.306479832308872e+000	 4.068251300433352e-002	 7.639347102626155e-001
1	 4.305900363520742e+000	 8.151957647536588e-002	 7.958984642235490e-001
1	 4.304929185194207e+000	 1.225064648235383e-001	 8.186478795544369e-001
1	 4.303561945003476e+000	 1.636383308363992e-001	 8.332592183401719e-001
1	 4.301794350166915e+000	 2.049102058988004e-001	 8.407068490623094e-001
1	 4.299622170895022e+000	 2.463170003158075e-001	 8.418590777270053e-001
1	 4.297041243867040e+000	 2.878535037407402e-001	 8.374740253265938e-001
1	 4.294047475733071e+000	 3.295143857106775e-001	 8.281955608567282e-001
1	 4.290636846638357e+000	 3.712941962916666e-001	 8.145492993215732e-001
1	 4.286805413766293e+000	 4.131873668357763e-001	 7.969386743531456e-001
1	 4.333340000014585e+000	 0.000000000000000e+000	 3.966209892964956e-001
1	 4.333146642360213e+000	 4.093442939356041e-002	 4.496878500515185e-001
1	 4.332563585354944e+000	 8.202436626912542e-002	 4.940615471084837e-001
1	 4.331586393246863e+000	 1.232650557751097e-001	 5.306052718809683e-001
1	 4.330210686759509e+000	 1.646516206839158e-001	 5.600902681976732e-001
1	 4.328432146529278e+000	 2.061790616134939e-001	 5.831922141440979e-001
1	 4.326246516574763e+000	 2.478422573522515e-001	 6.004876484109967e-001
1	 4.323649607794899e+000	 2.896359652897448e-001	 6.124504492880720e-001
1	 4.320637301492754e+000	 3.315548219554990e-001	 6.194483746227704e-001
1	 4.317205552921638e+000	 3.735933436682132e-001	 6.217396712302248e-001
1	 4.313350394850049e+000	 4.157459272975019e-001	 6.194697623902497e-001
1	 4.360008000016401e+000	 0.000000000000000e+000	 1.241216670678114e-001
1	 4.359813452411068e+000	 4.118634578278727e-002	 1.854138555818324e-001
1	 4.359226807188694e+000	 8.252915606288493e-002	 2.395495876836467e-001
1	 4.358243601299130e+000	 1.240236467266810e-001	 2.871104013922134e-001
1	 4.356859428515224e+000	 1.656649105314323e-001	 3.285927454131237e-001
1	 4.355069942891406e+000	 2.074479173281874e-001	 3.644049374905251e-001
1	 4.352870862254360e+000	 2.493675143886956e-001	 3.948641723905721e-001
1	 4.350257971722702e+000	 2.914184268387492e-001	 4.201935867535278e-001
1	 4.347227127252466e+000	 3.335952582003203e-001	 4.405193881909734e-001
1	 4.343774259205019e+000	 3.758924910447597e-001	 4.558680561292178e-001
1	 4.339895375933970e+000	 4.183044877592276e-001	 4.661636220100698e-001
1	 4.386676000017618e+000	 0.000000000000000e+000	-1.007041246297088e-001
1	 4.386480262461337e+000	 4.143826217196327e-002	-3.347383549242788e-002
1	 4.385890029021907e+000	 8.303394585655827e-002	 2.798783182061382e-002
1	 4.384900809350929e+000	 1.247822376781449e-001	 8.400939498603299e-002
1	 4.383508170270559e+000	 1.666782003788322e-001	 1.348422468018460e-001
1	 4.381707739253251e+000	 2.087167730427653e-001	 1.806581786503037e-001
1	 4.379495207933779e+000	 2.508927714250337e-001	 2.215469566913206e-001
1	 4.376866335650435e+000	 2.932008883876641e-001	 2.575139570781911e-001
1	 4.373816953012211e+000	 3.356356944450734e-001	 2.884778665873529e-001
1	 4.370342965488527e+000	 3.781916384212623e-001	 3.142684551406879e-001
1	 4.366440357018083e+000	 4.208630482209341e-001	 3.346244267716187e-001
1	 4.413344000018133e+000	 0.000000000000000e+000	-2.825294644056103e-001
1	 4.413147072510929e+000	 4.169017856103757e-002	-2.114509267727120e-001
1	 4.412553250854495e+000	 8.353873565005948e-002	-1.448927353397184e-001
1	 4.411558017402181e+000	 1.255408286293939e-001	-8.275121993845069e-002
1	 4.410156912025449e+000	 1.676914902259989e-001	-2.499077668405647e-002
1	 4.408345535614769e+000	 2.099856287571122e-001	 2.835420933834909e-002
1	 4.406119553612994e+000	 2.524180284611601e-001	 7.717749520864381e-002
1	 4.403474699578092e+000	 2.949833499364003e-001	 1.212991704307854e-001
1	 4.400406778771992e+000	 3.376761306896899e-001	 1.604639116821205e-001
1	 4.396911671772176e+000	 3.804907857976765e-001	 1.943393074710247e-001
1	 4.392985338102427e+000	 4.234216086826028e-001	 2.225142581600504e-001
1	 4.440012000017850e+000	 0.000000000000000e+000	-4.259151594072700e-001
1	 4.439813882559739e+000	 4.194209494995930e-002	-3.528855923644192e-001
1	 4.439216472686362e+000	 8.404352544330236e-002	-2.832585648904735e-001
1	 4.438215225452806e+000	 1.262994195803206e-001	-2.171275306533247e-001
1	 4.436805653779830e+000	 1.687047800728155e-001	-1.546438685628437e-001
1	 4.434983331975912e+000	 2.112544844711125e-001	-9.601826273171937e-002
1	 4.432743899291976e+000	 2.539432854969692e-001	-4.152202951452899e-002
1	 4.430083063505655e+000	 2.967658114848681e-001	 8.511612644697797e-003
1	 4.426996604531821e+000	 3.397165669341018e-001	 5.368633485652502e-002
1	 4.423480378055990e+000	 3.827899331739585e-001	 9.354155524176105e-002
1	 4.419530319187035e+000	 4.259801691442144e-001	 1.275513665276731e-001
1	 4.466680000016666e+000	 0.000000000000000e+000	-5.353130968639037e-001
1	 4.466480692607676e+000	 4.219401133867760e-002	-4.620416868631635e-001
1	 4.465879694517425e+000	 8.454831523620093e-002	-3.911766059074112e-001
1	 4.464872433502732e+000	 1.270580105308175e-001	-3.229811462631305e-001
1	 4.463454395533638e+000	 1.697180699191654e-001	-2.577653133858947e-001
1	 4.461621128336632e+000	 2.125233401846509e-001	-1.958866741478449e-001
1	 4.459368244970697e+000	 2.554685425323549e-001	-1.377511550172468e-001
1	 4.456691427433116e+000	 2.985482730329781e-001	-8.381378699630743e-002
1	 4.453586430291699e+000	 3.417570031782409e-001	-3.457939412363875e-002
1	 4.450049084339993e+000	 3.850890805500640e-001	 9.396777643283394e-003
1	 4.446075300271936e+000	 4.285387296057502e-001	 4.750849433254234e-002
1	 4.180625489432248e+000	 4.029531249892535e-001	 1.798488296837526e+000
1	 4.176475463857045e+000	 4.439075127552786e-001	 1.678457581327315e+000
1	 4.171907732972210e+000	 4.849613058567810e-001	 1.543486601911755e+000
1	 4.166918700055335e+000	 5.261088241467262e-001	 1.394924646947428e+000
1	 4.161504857197135e+000	 5.673442784153437e-001	 1.234105745816313e+000
1	 4.155662788750933e+000	 6.086617716998225e-001	 1.062346407692938e+000
1	 4.149389174776560e+000	 6.500553007098915e-001	 8.809433353975672e-001
1	 4.142680794474464e+000	 6.915187573703857e-001	 6.911711180427930e-001
1	 4.135534529605870e+000	 7.330459304817428e-001	 4.942799063459976e-001
1	 4.127947367894609e+000	 7.746305074992251e-001	 2.914930746387803e-001
1	 4.119916406406244e+000	 8.162660764314833e-001	 8.400487375792104e-002
1	 4.207170470515677e+000	 4.055116854507894e-001	 1.499187286663277e+000
1	 4.202994094254131e+000	 4.467261140768506e-001	 1.408298213006217e+000
1	 4.198397360453264e+000	 4.880405792149010e-001	 1.303270487734424e+000
1	 4.193376649553178e+000	 5.294493646516860e-001	 1.185219420341608e+000
1	 4.187928431371007e+000	 5.709466444187181e-001	 1.055249093724185e+000
1	 4.182049268572324e+000	 6.125264841102888e-001	 9.144505150436446e-001
1	 4.175735820136896e+000	 6.541828423181011e-001	 7.638997445622693e-001
1	 4.168984844814609e+000	 6.959095721836308e-001	 6.046560054501818e-001
1	 4.161793204567331e+000	 7.377004230691653e-001	 4.377597776974976e-001
1	 4.154157867992348e+000	 7.795490423483210e-001	 2.642308793998523e-001
1	 4.146075913722957e+000	 8.214489773166681e-001	 8.506653881268494e-002
1	 4.233715451599139e+000	 4.080702459124009e-001	 1.234248550732235e+000
1	 4.229512724651257e+000	 4.495447153984008e-001	 1.168643867990263e+000
1	 4.224886987934366e+000	 4.911198525729065e-001	 1.089741916663478e+000
1	 4.219834599051070e+000	 5.327899051564446e-001	 9.984431210510552e-001
1	 4.214352005544932e+000	 5.745490104218120e-001	 8.956403299247436e-001
1	 4.208435748393774e+000	 6.163911965204039e-001	 7.822173459884642e-001
1	 4.202082465497298e+000	 6.583103839258993e-001	 6.590474360365070e-001
1	 4.195288895154834e+000	 7.003003869964147e-001	 5.269918241562017e-001
1	 4.188051879528887e+000	 7.423549156560879e-001	 3.868981704330604e-001
1	 4.180368368090208e+000	 7.844675771968939e-001	 2.395990377249840e-001
1	 4.172235421039816e+000	 8.266318782013202e-001	 8.591034917781823e-002
1	 4.260260432682667e+000	 4.106288063740698e-001	 1.001025896339578e+000
1	 4.256031355048466e+000	 4.523633167199345e-001	 9.571440098636994e-001
1	 4.251376615415561e+000	 4.941991259308263e-001	 9.008348092405640e-001
1	 4.246292548549063e+000	 5.361304456610527e-001	 8.328026305273634e-001
1	 4.240775579718958e+000	 5.781513764246956e-001	 7.537475095256263e-001
1	 4.234822228215323e+000	 6.202559089302561e-001	 6.643640567162160e-001
1	 4.228429110857803e+000	 6.624379255333883e-001	 5.653403154567327e-001
1	 4.221592945495159e+000	 7.046912018088520e-001	 4.573566051941240e-001
1	 4.214310554490549e+000	 7.470094082426365e-001	 3.410843515340962e-001
1	 4.206578868188182e+000	 7.893861120450736e-001	 2.171849050956802e-001
1	 4.198394928356806e+000	 8.318147790855723e-001	 8.630835116356592e-002
1	 4.286805413766293e+000	 4.131873668357763e-001	 7.969386743531456e-001
1	 4.282549985445799e+000	 4.551819180414574e-001	 7.715063226700246e-001
1	 4.277866242896895e+000	 4.972783992886887e-001	 7.345342607495434e-001
1	 4.272750498047201e+000	 5.394709861655601e-001	 6.865492439930286e-001
1	 4.267199153893131e+000	 5.817537424274391e-001	 6.280766323927631e-001
1	 4.261208708037016e+000	 6.241206213399326e-001	 5.596395781869974e-001
1	 4.254775756218443e+000	 6.665654671406720e-001	 4.817581991815604e-001
1	 4.247896995835610e+000	 7.090820166210587e-001	 3.949487389553604e-001
1	 4.240569229452330e+000	 7.516639008289352e-001	 2.997227152351105e-001
1	 4.232789368286272e+000	 7.943046468929923e-001	 1.965860577908355e-001
1	 4.224554435673913e+000	 8.369976799695582e-001	 8.603823726880321e-002
1	 4.313350394850049e+000	 4.157459272975019e-001	 6.194697623902497e-001
1	 4.309068615843296e+000	 4.580005193629747e-001	 6.094949194263033e-001
1	 4.304355870378411e+000	 5.003576726465224e-001	 5.888749665326339e-001
1	 4.299208447545529e+000	 5.428115266700173e-001	 5.579773037975759e-001
1	 4.293622728067493e+000	 5.853561084301131e-001	 5.171704755625995e-001
1	 4.287595187858888e+000	 6.279853337495214e-001	 4.668236383994625e-001
1	 4.281122401579249e+000	 6.706930087478522e-001	 4.073060169999374e-001
1	 4.274201046176212e+000	 7.134728314331500e-001	 3.389863487171951e-001
1	 4.266827904414243e+000	 7.563183934151094e-001	 2.622323175470748e-001
1	 4.258999868384476e+000	 7.992231817407802e-001	 1.774099783851263e-001
1	 4.250713942991122e+000	 8.421805808534109e-001	 8.488317244341168e-002
1	 4.339895375933970e+000	 4.183044877592276e-001	 4.661636220100698e-001
1	 4.335587246240997e+000	 4.608191206844921e-001	 4.689286163833495e-001
1	 4.330845497860159e+000	 5.034369460043563e-001	 4.619397050959290e-001
1	 4.325666397044096e+000	 5.461520671744743e-001	 4.454228829281670e-001
1	 4.320046302242091e+000	 5.889584744327864e-001	 4.196074685037316e-001
1	 4.313981667680984e+000	 6.318500461591107e-001	 3.847258205398534e-001
1	 4.307469046940256e+000	 6.748205503550329e-001	 3.410130440992199e-001
1	 4.300505096516986e+000	 7.178636462452412e-001	 2.887066871613982e-001
1	 4.293086579376300e+000	 7.609728860012833e-001	 2.280464278632085e-001
1	 4.285210368482795e+000	 8.041417165885677e-001	 1.592737527894323e-001
1	 4.276873450308417e+000	 8.473634817372637e-001	 8.263162672691903e-002
1	 4.366440357018083e+000	 4.208630482209341e-001	 3.346244267716188e-001
1	 4.362105876638948e+000	 4.636377220060151e-001	 3.476792702337993e-001
1	 4.357335125342180e+000	 5.065162193622187e-001	 3.518578765450485e-001
1	 4.352124346542950e+000	 5.494926076789817e-001	 3.472625165403646e-001
1	 4.346469876416969e+000	 5.925608404355302e-001	 3.340006094043915e-001
1	 4.340368147503342e+000	 6.357147585687872e-001	 3.121846554859412e-001
1	 4.333815692301494e+000	 6.789480919623162e-001	 2.819321610479262e-001
1	 4.326809146857960e+000	 7.222544610574481e-001	 2.433655549053664e-001
1	 4.319345254338512e+000	 7.656273785875821e-001	 1.966120969205507e-001
1	 4.311420868581225e+000	 8.090602514364862e-001	 1.418037783419949e-001
1	 4.303032957625781e+000	 8.525463826212494e-001	 7.907721399153765e-002
1	 4.392985338102427e+000	 4.234216086826028e-001	 2.225142581600504e-001
1	 4.388624507037184e+000	 4.664563233275489e-001	 2.436701756055960e-001
1	 4.383824752824526e+000	 5.095954927201384e-001	 2.568040940105457e-001
1	 4.378582296042137e+000	 5.528331481835896e-001	 2.619119794779110e-001
1	 4.372893450592176e+000	 5.961632064384140e-001	 2.589964207504727e-001
1	 4.366754627326002e+000	 6.395794709786392e-001	 2.480667472127364e-001
1	 4.360162337663002e+000	 6.830756335698055e-001	 2.291391406081878e-001
1	 4.353113197199152e+000	 7.266452758698857e-001	 2.022367401147548e-001
1	 4.345603929300893e+000	 7.702818711741308e-001	 1.673897404251037e-001
1	 4.337631368679769e+000	 8.139787862846665e-001	 1.246354824828482e-001
1	 4.329192464943203e+000	 8.577292835055018e-001	 7.401853653184681e-002
1	 4.419530319187035e+000	 4.259801691442144e-001	 1.275513665276731e-001
1	 4.415143137435748e+000	 4.692749246490989e-001	 1.548745203061945e-001
1	 4.410314380307235e+000	 5.126747660781440e-001	 1.749968258351708e-001
1	 4.405040245541705e+000	 5.561736886883483e-001	 1.878251078479565e-001
1	 4.399317024767752e+000	 5.997655724415079e-001	 1.932739425421856e-001
1	 4.393141107149005e+000	 6.434441833887549e-001	 1.912659297165242e-001
1	 4.386508983024807e+000	 6.872031751776038e-001	 1.817319602497991e-001
1	 4.379417247540588e+000	 7.310360906826696e-001	 1.646114783111718e-001
1	 4.371862604263454e+000	 7.749363637610538e-001	 1.398527376823190e-001
1	 4.363841868778422e+000	 8.188973211332393e-001	 1.074130515665355e-001
1	 4.355351972260665e+000	 8.629121843901543e-001	 6.725903525500285e-002
1	 4.446075300271936e+000	 4.285387296057502e-001	 4.750849433254234e-002
1	 4.441661767834682e+000	 4.720935259706710e-001	 7.931389590392513e-002
1	 4.436804007790360e+000	 5.157540394362642e-001	 1.046970864015159e-001
1	 4.431498195041699e+000	 5.595142291933083e-001	 1.234926628104754e-001
1	 4.425740598943746e+000	 6.033679384448824e-001	 1.355437615763420e-001
1	 4.419527586972392e+000	 6.473088957992211e-001	 1.407024541401788e-001
1	 4.412855628386948e+000	 6.913307167858139e-001	 1.388301392919352e-001
1	 4.405721297882295e+000	 7.354269054959153e-001	 1.297979315309451e-001
1	 4.398121279226208e+000	 7.795908563484764e-001	 1.134870446056300e-001
1	 4.390052368877188e+000	 8.238158559823360e-001	 8.978916938956380e-002
1	 4.381511479578152e+000	 8.680950852753391e-001	 5.860684523756381e-002
1	 4.119916406406244e+000	 8.162660764314833e-001	 8.400487375792071e-002
1	 4.111437550096344e+000	 8.579523818866410e-001	-1.297078789108815e-001
1	 4.102509297934843e+000	 8.996765657436617e-001	-3.511688374649456e-001
1	 4.093129097513706e+000	 9.414319172861084e-001	-5.792862329337851e-001
1	 4.083294519104891e+000	 9.832116348843376e-001	-8.129480536799729e-001
1	 4.073003258861228e+000	 1.025008828498531e+000	-1.051023016774726e+000
1	 4.062253141966685e+000	 1.066816522301444e+000	-1.292361588055656e+000
1	 4.051042125731239e+000	 1.108627657420195e+000	-1.535797050163933e+000
1	 4.039368302625527e+000	 1.150435094796215e+000	-1.780146617730546e+000
1	 4.027229903250404e+000	 1.192231618162235e+000	-2.024212598751233e+000
1	 4.014625299236578e+000	 1.234009937135045e+000	-2.266783601060713e+000
1	 4.146075913722957e+000	 8.214489773166681e-001	 8.506653881268464e-002
1	 4.137543220713117e+000	 8.633999709607193e-001	-1.010371294946463e-001
1	 4.128558278401947e+000	 9.053890835164926e-001	-2.953288091104080e-001
1	 4.119118518174838e+000	 9.474095616576930e-001	-4.968130740481955e-001
1	 4.109221494876151e+000	 9.894545605675654e-001	-7.044748395316296e-001
1	 4.098864890030391e+000	 1.031517146457817e+000	-9.172802448845376e-001
1	 4.088046515012491e+000	 1.073590299208018e+000	-1.134177582723596e+000
1	 4.076764314162331e+000	 1.115666915124804e+000	-1.354098273853849e+000
1	 4.065016367838656e+000	 1.157739809819977e+000	-1.575957887146906e+000
1	 4.052800895407486e+000	 1.199801721206408e+000	-1.798657203560734e+000
1	 4.040116258160177e+000	 1.241845312610418e+000	-2.021083323336539e+000
1	 4.172235421039816e+000	 8.266318782013202e-001	 8.591034917781881e-002
1	 4.163648891330075e+000	 8.688475600342712e-001	-7.530591629715261e-002
1	 4.154607258869277e+000	 9.111016012888170e-001	-2.450809397081867e-001
1	 4.145107938836247e+000	 9.533872060288050e-001	-4.225074125042882e-001
1	 4.135148470647740e+000	 9.956974862503660e-001	-6.066586089169305e-001
1	 4.124726521199934e+000	 1.038025464416730e+000	-7.965891822016714e-001
1	 4.113839888058725e+000	 1.080364076114282e+000	-9.913360053919886e-001
1	 4.102486502593892e+000	 1.122706172829172e+000	-1.189919056080786e+000
1	 4.090664433052284e+000	 1.165044524843574e+000	-1.391342344631472e+000
1	 4.078371887565092e+000	 1.207371824250493e+000	-1.594594885104818e+000
1	 4.065607217084311e+000	 1.249680688085785e+000	-1.798651708072006e+000
1	 4.198394928356806e+000	 8.318147790855723e-001	 8.630835116356622e-002
1	 4.189754561947185e+000	 8.742951491074277e-001	-5.256247520019103e-002
1	 4.180656239336789e+000	 9.168141190607618e-001	-2.002902285273795e-001
1	 4.171097359497876e+000	 9.593648503995627e-001	-3.560475584859966e-001
1	 4.161075446419582e+000	 1.001940411932846e+000	-5.189876007961995e-001
1	 4.150588152369765e+000	 1.044533782375364e+000	-6.882446886629972e-001
1	 4.139633261105280e+000	 1.087137853020315e+000	-8.629351075156948e-001
1	 4.128208691025804e+000	 1.129745430533361e+000	-1.042157892696577e+000
1	 4.116312498266290e+000	 1.172349239867047e+000	-1.224995669632625e+000
1	 4.103942879723094e+000	 1.214941927294514e+000	-1.410515535914807e+000
1	 4.091098176008842e+000	 1.257516063561146e+000	-1.597769984597170e+000
1	 4.224554435673913e+000	 8.369976799695582e-001	 8.603823726880321e-002
1	 4.215860232564423e+000	 8.797427381803208e-001	-3.285384732887314e-002
1	 4.206705219804441e+000	 9.225266368324540e-001	-1.608250186697219e-001
1	 4.197086780159657e+000	 9.653424947700842e-001	-2.971197901136874e-001
1	 4.187002422191598e+000	 1.008183337615112e+000	-4.409627299421770e-001
1	 4.176449783539791e+000	 1.051042100333811e+000	-5.915590898246617e-001
1	 4.165426634152052e+000	 1.093911629926193e+000	-7.480954759664704e-001
1	 4.153930879457951e+000	 1.136784688237429e+000	-9.097405627184863e-001
1	 4.141960563480547e+000	 1.179653954890438e+000	-1.075645848325966e+000
1	 4.129513871881357e+000	 1.222512030338491e+000	-1.244946452387671e+000
1	 4.116589134933641e+000	 1.265351439036504e+000	-1.416761954488897e+000
1	 4.250713942991122e+000	 8.421805808534109e-001	 8.488317244341168e-002
1	 4.241965903181752e+000	 8.851903272530827e-001	-1.622591581547153e-002
1	 4.232754200272183e+000	 9.282391546040192e-001	-1.265568941777633e-001
1	 4.223076200821531e+000	 9.713201391404875e-001	-2.454181082651867e-001
1	 4.212929397963709e+000	 1.014426263297271e+000	-3.720971968962863e-001
1	 4.202311414709920e+000	 1.057550418292166e+000	-5.058616394327283e-001
1	 4.191220007198934e+000	 1.100685406831993e+000	-6.459593457562440e-001
1	 4.179653067890218e+000	 1.143823945941438e+000	-7.916192888068570e-001
1	 4.167608628694930e+000	 1.186958669913788e+000	-9.420521795131738e-001
1	 4.155084864039749e+000	 1.230082133382446e+000	-1.096451183842250e+000
1	 4.142080093858572e+000	 1.273186814511860e+000	-1.253992681592280e+000
1	 4.276873450308417e+000	 8.473634817372637e-001	 8.263162672691905e-002
1	 4.268071573799144e+000	 8.906379163258443e-001	-2.723441213907052e-003
1	 4.258803180739970e+000	 9.339516723755845e-001	-9.736058091890562e-002
1	 4.249065621483434e+000	 9.772977835108908e-001	-2.006440003947055e-001
1	 4.238856373735842e+000	 1.020669188979431e+000	-3.119161122392362e-001
1	 4.228173045880060e+000	 1.064058736250520e+000	-4.304980017167414e-001
1	 4.217013380245822e+000	 1.107459183737793e+000	-5.556899379828200e-001
1	 4.205375256322488e+000	 1.150863203645447e+000	-6.867719285522113e-001
1	 4.193256693909314e+000	 1.194263384937138e+000	-8.230043170034085e-001
1	 4.180655856198142e+000	 1.237652236426401e+000	-9.636284238139374e-001
1	 4.167571052783504e+000	 1.281022189987216e+000	-1.107867230116848e+000
1	 4.303032957625781e+000	 8.525463826212494e-001	 7.907721399153765e-002
1	 4.294177244416569e+000	 8.960855053987376e-001	 7.609904377443161e-003
1	 4.284852161207754e+000	 9.396641901472764e-001	-7.311385108494314e-002
1	 4.275055042145303e+000	 9.832754278814120e-001	-1.625062129666404e-001
1	 4.264783349507913e+000	 1.026912114661697e+000	-2.599561345666509e-001
1	 4.254034677050121e+000	 1.070567054208968e+000	-3.648297525672169e-001
1	 4.242806753292610e+000	 1.114232960643671e+000	-4.764708219246547e-001
1	 4.231097444754643e+000	 1.157902461349516e+000	-5.942011952609287e-001
1	 4.218904759123573e+000	 1.201568099960529e+000	-7.173213469246839e-001
1	 4.206226848356403e+000	 1.245222339470378e+000	-8.451109417904359e-001
1	 4.193062011708301e+000	 1.288857565462575e+000	-9.768294487619852e-001
1	 4.329192464943203e+000	 8.577292835055018e-001	 7.401853653184684e-002
1	 4.320282915033996e+000	 9.015330944718942e-001	 1.473150443016030e-002
1	 4.310901141675489e+000	 9.453767079192216e-001	-5.369743115388140e-002
1	 4.301044462807080e+000	 9.892530722521702e-001	-1.307205321399833e-001
1	 4.290710325279849e+000	 1.033155040344177e+000	-2.157651215900272e-001
1	 4.279896308220005e+000	 1.077075372167602e+000	-3.082338987981650e-001
1	 4.268600126339194e+000	 1.121006737549704e+000	-4.075053002630463e-001
1	 4.256819633186567e+000	 1.164941719053705e+000	-5.129339069916961e-001
1	 4.244552824337582e+000	 1.208872814984003e+000	-6.238508984878359e-001
1	 4.231797840514403e+000	 1.252792442514399e+000	-7.395645536778976e-001
1	 4.218552970632834e+000	 1.296692940937935e+000	-8.593607989243137e-001
1	 4.355351972260665e+000	 8.629121843901543e-001	 6.725903525500282e-002
1	 4.346388585651394e+000	 9.069806835454463e-001	 1.859976628522567e-002
1	 4.336950122143129e+000	 9.510892256915464e-001	-3.899491316867068e-002
1	 4.327033883468698e+000	 9.952307166232822e-001	-1.050095723562278e-001
1	 4.316637301051570e+000	 1.039397966026977e+000	-1.789017938113238e-001
1	 4.305757939389626e+000	 1.083583690126516e+000	-2.601024147342625e-001
1	 4.294393499385467e+000	 1.127780514455969e+000	-3.480158164597404e-001
1	 4.282541821618144e+000	 1.171980976758073e+000	-4.420202626550998e-001
1	 4.270200889551217e+000	 1.216177530007600e+000	-5.414682867964524e-001
1	 4.257368832672012e+000	 1.260362545558484e+000	-6.456871293692194e-001
1	 4.244043929556965e+000	 1.304528316413302e+000	-7.539792251340750e-001
1	 4.381511479578152e+000	 8.680950852753391e-001	 5.860684523756381e-002
1	 4.372494256268735e+000	 9.124282726195253e-001	 1.917409058814823e-002
1	 4.362999102610631e+000	 9.568017434643776e-001	-2.889266919416175e-002
1	 4.353023304130099e+000	 1.001208360994867e+000	-8.510257250076557e-002
1	 4.342564276823000e+000	 1.045640891710206e+000	-1.489354102454979e-001
1	 4.331619570558885e+000	 1.090092008085801e+000	-2.198417953987263e-001
1	 4.320186872431323e+000	 1.134554291362543e+000	-2.972433833635984e-001
1	 4.308264010049259e+000	 1.179020234462681e+000	-3.805331440450245e-001
1	 4.295848954764352e+000	 1.223482245031362e+000	-4.690756863636330e-001
1	 4.282939824829096e+000	 1.267932648602657e+000	-5.622076358636550e-001
1	 4.269534888480566e+000	 1.312363691888676e+000	-6.592380659550530e-001
1	 4.014625299236578e+000	 1.234009937135045e+000	-2.266783601060713e+000
1	 4.001553005065471e+000	 1.275762689811019e+000	-2.509489580951564e+000
1	 3.988011677797905e+000	 1.317482444190801e+000	-2.753945723384929e+000
1	 3.974000122742366e+000	 1.359161703337862e+000	-2.998907262308563e+000
1	 3.959517297036672e+000	 1.400792909513493e+000	-3.243128418269068e+000
1	 3.944562312133357e+000	 1.442368447821711e+000	-3.485363966016396e+000
1	 3.929134436186639e+000	 1.483880649957763e+000	-3.724370825827520e+000
1	 3.913233096336334e+000	 1.525321798057408e+000	-3.958909675962739e+000
1	 3.896857880884243e+000	 1.566684128643885e+000	-4.187746583563682e+000
1	 3.880008541358522e+000	 1.607959836669317e+000	-4.409654651202353e+000
1	 3.862684994461762e+000	 1.649141079647046e+000	-4.623415676197912e+000
1	 4.040116258160177e+000	 1.241845312610418e+000	-2.021083323336539e+000
1	 4.026960961145821e+000	 1.283863175383798e+000	-2.244953181074174e+000
1	 4.013333652898217e+000	 1.325847830337527e+000	-2.471907143509046e+000
1	 3.999233131140133e+000	 1.367791732933090e+000	-2.700691427376134e+000
1	 3.984658346387703e+000	 1.409687277443730e+000	-2.930031309572028e+000
1	 3.969608404451609e+000	 1.451526800622489e+000	-3.158632425924768e+000
1	 3.954082568839195e+000	 1.493302585474527e+000	-3.385182123862879e+000
1	 3.938080263052889e+000	 1.535006865130830e+000	-3.608350867511866e+000
1	 3.921601072780403e+000	 1.576631826820247e+000	-3.826793693590200e+000
1	 3.904644747972214e+000	 1.618169615936555e+000	-4.039151716320966e+000
1	 3.887211204802013e+000	 1.659612340197034e+000	-4.244053679422122e+000
1	 4.065607217084311e+000	 1.249680688085785e+000	-1.798651708072006e+000
1	 4.052368917226699e+000	 1.291963660956650e+000	-2.005188159503843e+000
1	 4.038655627999038e+000	 1.334213216484404e+000	-2.215754695360996e+000
1	 4.024466139538371e+000	 1.376421762528545e+000	-2.429100475257991e+000
1	 4.009799395739159e+000	 1.418581645374264e+000	-2.643937221574600e+000
1	 3.994654496770230e+000	 1.460685153423631e+000	-2.858940283071561e+000
1	 3.979030701492055e+000	 1.502724520991713e+000	-3.072749777282714e+000
1	 3.962927429769677e+000	 1.544691932204722e+000	-3.283971811157021e+000
1	 3.946344264676717e+000	 1.586579524997117e+000	-3.491179779225925e+000
1	 3.929280954585979e+000	 1.628379395204330e+000	-3.692915738369846e+000
1	 3.911737415142254e+000	 1.670083600747572e+000	-3.887691858055343e+000
1	 4.091098176008842e+000	 1.257516063561146e+000	-1.597769984597170e+000
1	 4.077776873307971e+000	 1.300064146529557e+000	-1.788290004414582e+000
1	 4.063977603100237e+000	 1.342578602631396e+000	-1.983446684255724e+000
1	 4.049699147936964e+000	 1.385051792124172e+000	-2.182003908068145e+000
1	 4.034940445090934e+000	 1.427476013305023e+000	-2.382675010250875e+000
1	 4.019700589089125e+000	 1.469843506225049e+000	-2.584123637377745e+000
1	 4.003978834145140e+000	 1.512146456509219e+000	-2.784964708321835e+000
1	 3.987774596486632e+000	 1.554376999278973e+000	-2.983765473032758e+000
1	 3.971087456573137e+000	 1.596527223174380e+000	-3.179046669987512e+000
1	 3.953917161199785e+000	 1.638589174472521e+000	-3.369283782098916e+000
1	 3.936263625482467e+000	 1.680554861298542e+000	-3.552908390623566e+000
1	 4.116589134933641e+000	 1.265351439036504e+000	-1.416761954488897e+000
1	 4.103184829389508e+000	 1.308164632102502e+000	-1.592401376852089e+000
1	 4.089299578201687e+000	 1.350943988778462e+000	-1.772991986263691e+000
1	 4.074932156335790e+000	 1.393681821719912e+000	-1.957323998243530e+000
1	 4.060081494442918e+000	 1.436370381235935e+000	-2.144127308662720e+000
1	 4.044746681408201e+000	 1.479001859026653e+000	-2.332072186426891e+000
1	 4.028926966798369e+000	 1.521568392026945e+000	-2.519770078983395e+000
1	 4.012621763203689e+000	 1.564062066353473e+000	-2.705774531515692e+000
1	 3.995830648469614e+000	 1.606474921351918e+000	-2.888582220435336e+000
1	 3.978553367813597e+000	 1.648798953741010e+000	-3.066634101518299e+000
1	 3.960789835822633e+000	 1.691026121849827e+000	-3.238316672763699e+000
1	 4.142080093858572e+000	 1.273186814511860e+000	-1.253992681592280e+000
1	 4.128592785471174e+000	 1.316265117675463e+000	-1.415710659190416e+000
1	 4.114621553303263e+000	 1.359309374925567e+000	-1.582448492112186e+000
1	 4.100165164734732e+000	 1.402311851315711e+000	-1.753034164763354e+000
1	 4.085222543795005e+000	 1.445264749166924e+000	-1.926228872200150e+000
1	 4.069792773727361e+000	 1.488160211828356e+000	-2.100727576226456e+000
1	 4.053875099451660e+000	 1.530990327544789e+000	-2.275159683583380e+000
1	 4.037468929920784e+000	 1.573747133428113e+000	-2.448089847542843e+000
1	 4.020573840366099e+000	 1.616422619529614e+000	-2.618018893949381e+000
1	 4.003189574427383e+000	 1.659008733009677e+000	-2.783384872475146e+000
1	 3.985316046162736e+000	 1.701497382401312e+000	-2.942564233567536e+000
1	 4.167571052783504e+000	 1.281022189987216e+000	-1.107867230116848e+000
1	 4.154000741552840e+000	 1.324365603248425e+000	-1.256450556859063e+000
1	 4.139943528404840e+000	 1.367674761072673e+000	-1.409921608194153e+000
1	 4.125398173133672e+000	 1.410941880911512e+000	-1.567157408959158e+000
1	 4.110363593147087e+000	 1.454159117097919e+000	-1.726964984549465e+000
1	 4.094838866046510e+000	 1.497318564630069e+000	-1.888081812494399e+000
1	 4.078823232104933e+000	 1.540412263062650e+000	-2.049176400287397e+000
1	 4.062316096637850e+000	 1.583432200502780e+000	-2.208848991067995e+000
1	 4.045317032262544e+000	 1.626370317707353e+000	-2.365632398479598e+000
1	 4.027825781041108e+000	 1.669218512278404e+000	-2.517992971743348e+000
1	 4.009842256502755e+000	 1.711968642952877e+000	-2.664331691694851e+000
1	 4.193062011708301e+000	 1.288857565462575e+000	-9.768294487619852e-001
1	 4.179408697634375e+000	 1.332466088821368e+000	-1.112896751073228e+000
1	 4.165265503506290e+000	 1.376040147219743e+000	-1.253562812253843e+000
1	 4.150631181532491e+000	 1.419571910507259e+000	-1.397764807380442e+000
1	 4.135504642499055e+000	 1.463053485028845e+000	-1.544369921805353e+000
1	 4.119884958365556e+000	 1.506476917431704e+000	-1.692175729895628e+000
1	 4.103771364758110e+000	 1.549834198580429e+000	-1.839910699128800e+000
1	 4.087163263354825e+000	 1.593117267577365e+000	-1.986234821266531e+000
1	 4.070060224158895e+000	 1.636318015885016e+000	-2.129740372058179e+000
1	 4.052461987654741e+000	 1.679428291547071e+000	-2.268952800647318e+000
1	 4.034368466842676e+000	 1.722439903504409e+000	-2.402331749563323e+000
1	 4.218552970632834e+000	 1.296692940937935e+000	-8.593607989243137e-001
1	 4.204816653715645e+000	 1.340566574394276e+000	-9.833666004098479e-001
1	 4.190587478607485e+000	 1.384405533366737e+000	-1.111568261436923e+000
1	 4.175864189931072e+000	 1.428201940102896e+000	-1.242974059301991e+000
1	 4.160645691850802e+000	 1.471947852959630e+000	-1.376525472267131e+000
1	 4.144931050684400e+000	 1.515635270233171e+000	-1.511097516776963e+000
1	 4.128719497411107e+000	 1.559256134098022e+000	-1.645499204119501e+000
1	 4.112010430071640e+000	 1.602802334651756e+000	-1.778474118216005e+000
1	 4.094803416055107e+000	 1.646265714062487e+000	-1.908701115969494e+000
1	 4.077098194268250e+000	 1.689638070815559e+000	-2.034795151335705e+000
1	 4.058894677182479e+000	 1.732911164055787e+000	-2.155308224004446e+000
1	 4.244043929556965e+000	 1.304528316413302e+000	-7.539792251340750e-001
1	 4.230224609796522e+000	 1.348667059967129e+000	-8.662178891761737e-001
1	 4.215909453708300e+000	 1.392770919513618e+000	-9.821774505032583e-001
1	 4.201097198329294e+000	 1.436831969698365e+000	-1.100948086575825e+000
1	 4.185786741202223e+000	 1.480842220890201e+000	-1.221559509578416e+000
1	 4.169977143002949e+000	 1.524793623034384e+000	-1.342981293067401e+000
1	 4.153667630063844e+000	 1.568678069615330e+000	-1.464123307178972e+000
1	 4.136857596788233e+000	 1.612487401725843e+000	-1.583836263887674e+000
1	 4.119546607951128e+000	 1.656213412239649e+000	-1.700912373573479e+000
1	 4.101734400881598e+000	 1.699847850083750e+000	-1.814086113912097e+000
1	 4.083420887522148e+000	 1.743382424606897e+000	-1.922035111852549e+000
1	 4.269534888480566e+000	 1.312363691888676e+000	-6.592380659550530e-001
1	 4.255632565876873e+000	 1.356767545539909e+000	-7.598476206147015e-001
1	 4.241231428808608e+000	 1.401136305660350e+000	-8.636719181059491e-001
1	 4.226330206727042e+000	 1.445461999293613e+000	-9.698936836400075e-001
1	 4.210927790553209e+000	 1.489736588820484e+000	-1.077644616980389e+000
1	 4.195023235321111e+000	 1.533951975835254e+000	-1.186005739121546e+000
1	 4.178615762716243e+000	 1.578100005132252e+000	-1.294007831715888e+000
1	 4.161704763504536e+000	 1.622172468799514e+000	-1.400631970388237e+000
1	 4.144289799846913e+000	 1.666161110416386e+000	-1.504810152874881e+000
1	 4.126370607494755e+000	 1.710057629351524e+000	-1.605426022715193e+000
1	 4.107947097861665e+000	 1.753853685157622e+000	-1.701315689006715e+000
1	 3.862684994461762e+000	 1.649141079647046e+000	-4.623415676197912e+000
1	 3.844890029459101e+000	 1.690213828755853e+000	-4.818383706077192e+000
1	 3.826621338296151e+000	 1.731176368834391e+000	-4.985266509436571e+000
1	 3.807879346431334e+000	 1.772020776467594e+000	-5.124886015321645e+000
1	 3.788664650926863e+000	 1.812739108261148e+000	-5.238192490056956e+000
1	 3.768978021749813e+000	 1.853323405364218e+000	-5.326264439456876e+000
1	 3.748820402933820e+000	 1.893765698057605e+000	-5.390308287807896e+000
1	 3.728192913598082e+000	 1.934058010402449e+000	-5.431657830777594e+000
1	 3.707096848820648e+000	 1.974192364944430e+000	-5.451773459917981e+000
1	 3.685533680363033e+000	 2.014160787468252e+000	-5.452241156959680e+000
1	 3.663505057243498e+000	 2.053955311797023e+000	-5.434771256636825e+000
1	 3.887211204802013e+000	 1.659612340197034e+000	-4.244053679422122e+000
1	 3.869303250245444e+000	 1.700945881704125e+000	-4.431419735846891e+000
1	 3.850918561593066e+000	 1.742168514406036e+000	-4.592566499367358e+000
1	 3.832057567004748e+000	 1.783272264577802e+000	-4.728215780089314e+000
1	 3.812720867333757e+000	 1.824249138388354e+000	-4.839218938546849e+000
1	 3.792909237436087e+000	 1.865091126451960e+000	-4.926556946150241e+000
1	 3.772623627339524e+000	 1.905790208445515e+000	-4.991340221450023e+000
1	 3.751865163269135e+000	 1.946338357786760e+000	-5.034808239035407e+000
1	 3.730635148526093e+000	 1.986727546368357e+000	-5.058328908394359e+000
1	 3.708935064216883e+000	 2.026949749342556e+000	-5.063397720591542e+000
1	 3.686766569830242e+000	 2.066996949951050e+000	-5.051636661162680e+000
1	 3.911737415142254e+000	 1.670083600747572e+000	-3.887691858055344e+000
1	 3.893716471031692e+000	 1.711677934652947e+000	-4.066159195898115e+000
1	 3.875215784889801e+000	 1.753160659978216e+000	-4.220385440465265e+000
1	 3.856235787577899e+000	 1.794523752688519e+000	-4.350996709875030e+000
1	 3.836777083740312e+000	 1.835759168516035e+000	-4.458747906584067e+000
1	 3.816840453121952e+000	 1.876858847540136e+000	-4.544522910505466e+000
1	 3.796426851744760e+000	 1.917814718833813e+000	-4.609334550194573e+000
1	 3.775537412939671e+000	 1.958618705171413e+000	-4.654324348679012e+000
1	 3.754173448230981e+000	 1.999262727792577e+000	-4.680762041011454e+000
1	 3.732336448070155e+000	 2.039738711217104e+000	-4.690044861142793e+000
1	 3.710028082416403e+000	 2.080038588105279e+000	-4.683696596250202e+000
1	 3.936263625482467e+000	 1.680554861298542e+000	-3.552908390623565e+000
1	 3.918129691817840e+000	 1.722409987602205e+000	-3.721430384972760e+000
1	 3.899513008186363e+000	 1.764152805550830e+000	-3.867774290568772e+000
1	 3.880414008150813e+000	 1.805775240799661e+000	-3.992474939282773e+000
1	 3.860833300146565e+000	 1.847269198644123e+000	-4.096193226682132e+000
1	 3.840771668807451e+000	 1.888626568628697e+000	-4.179716412526422e+000
1	 3.820230076149578e+000	 1.929839229222470e+000	-4.243958204759156e+000
1	 3.799209662609750e+000	 1.970899052556393e+000	-4.289958623426245e+000
1	 3.777711747935383e+000	 2.011797909217094e+000	-4.318883641439274e+000
1	 3.755737831922926e+000	 2.052527673091920e+000	-4.332024599606172e+000
1	 3.733289595002063e+000	 2.093080226259743e+000	-4.330797393873827e+000
1	 3.960789835822633e+000	 1.691026121849827e+000	-3.238316672763699e+000
1	 3.942542912603887e+000	 1.733142040551793e+000	-3.396090623693556e+000
1	 3.923810231482769e+000	 1.775144951123781e+000	-3.533807514351968e+000
1	 3.904592228723509e+000	 1.817026728911142e+000	-3.651915275417016e+000
1	 3.884889516552547e+000	 1.858779228772551e+000	-3.750983250143878e+000
1	 3.864702884492636e+000	 1.900394289717594e+000	-3.831702577214672e+000
1	 3.844033300554041e+000	 1.941863739611455e+000	-3.894886365658675e+000
1	 3.822881912279440e+000	 1.983179399941692e+000	-3.941469658224484e+000
1	 3.801250047639373e+000	 2.024333090641914e+000	-3.972509180049858e+000
1	 3.779139215775276e+000	 2.065316634967020e+000	-3.989182869958591e+000
1	 3.756551107587308e+000	 2.106121864414475e+000	-3.992789192213229e+000
1	 3.985316046162736e+000	 1.701497382401312e+000	-2.942564233567536e+000
1	 3.966956133389826e+000	 1.743874093501599e+000	-3.089025361539892e+000
1	 3.948107454779024e+000	 1.786137096696969e+000	-3.217582360002227e+000
1	 3.928770449296013e+000	 1.828278217022880e+000	-3.328600623316170e+000
1	 3.908945732958295e+000	 1.870289258901253e+000	-3.422560400307690e+000
1	 3.888634100177547e+000	 1.912162010806777e+000	-3.500057234706992e+000
1	 3.867836524958197e+000	 1.953888250000737e+000	-3.561802209353086e+000
1	 3.846554161948798e+000	 1.995459747327294e+000	-3.608621990588145e+000
1	 3.824788347343020e+000	 2.036868272067043e+000	-3.641458669703826e+000
1	 3.802540599627279e+000	 2.078105596842430e+000	-3.661369398755759e+000
1	 3.779812620172219e+000	 2.119163502569507e+000	-3.669525818533590e+000
1	 4.009842256502755e+000	 1.711968642952877e+000	-2.664331691694851e+000
1	 3.991369354175657e+000	 1.754606146451514e+000	-2.799147316596524e+000
1	 3.972404678075141e+000	 1.797129242270299e+000	-2.918218162442931e+000
1	 3.952948669868347e+000	 1.839529705134791e+000	-3.021831432472396e+000
1	 3.933001949363844e+000	 1.881799289030159e+000	-3.110380742189258e+000
1	 3.912565315862232e+000	 1.923929731896198e+000	-3.184366592885319e+000
1	 3.891639749362106e+000	 1.965912760390286e+000	-3.244396663711126e+000
1	 3.870226411617892e+000	 2.007740094713191e+000	-3.291185918859971e+000
1	 3.848326647046395e+000	 2.049403453492486e+000	-3.325556526829635e+000
1	 3.825941983479014e+000	 2.090894558718166e+000	-3.348437589145537e+000
1	 3.803074132756878e+000	 2.132205140724873e+000	-3.360864676364145e+000
1	 4.034368466842676e+000	 1.722439903504409e+000	-2.402331749563323e+000
1	 4.015782574961377e+000	 1.765338199401428e+000	-2.525395646680894e+000
1	 3.996701901371128e+000	 1.808121387843667e+000	-2.634855671972050e+000
1	 3.977126890440536e+000	 1.850781193246788e+000	-2.730925163539778e+000
1	 3.957058165769226e+000	 1.893309319159202e+000	-2.813913567820944e+000
1	 3.936496531546734e+000	 1.935697452985806e+000	-2.884226921928537e+000
1	 3.915442973765817e+000	 1.977937270780072e+000	-2.942368172393906e+000
1	 3.893898661286784e+000	 2.020020442099368e+000	-2.988937327101488e+000
1	 3.871864946749569e+000	 2.061938634918248e+000	-3.024631437570110e+000
1	 3.849343367330559e+000	 2.103683520594251e+000	-3.050244409112023e+000
1	 3.826335645341370e+000	 2.145246778880604e+000	-3.066666636791786e+000
1	 4.058894677182479e+000	 1.732911164055787e+000	-2.155308224004446e+000
1	 4.040195795746984e+000	 1.776070252351231e+000	-2.266735150521553e+000
1	 4.020999124666999e+000	 1.819113533416977e+000	-2.366656407240917e+000
1	 4.001305111012600e+000	 1.862032681358789e+000	-2.455215774377500e+000
1	 3.981114382174480e+000	 1.904819349288316e+000	-2.532640996624973e+000
1	 3.960427747231099e+000	 1.947465174075554e+000	-2.599244250301101e+000
1	 3.939246198169390e+000	 1.989961781170067e+000	-2.655422467780852e+000
1	 3.917570910955537e+000	 2.032300789485816e+000	-2.701657516332020e+000
1	 3.895403246452611e+000	 2.074473816344336e+000	-2.738516228781813e+000
1	 3.872744751181991e+000	 2.116472482470704e+000	-2.766650283771333e+000
1	 3.849597157925778e+000	 2.158288417036733e+000	-2.786795933696059e+000
1	 4.083420887522148e+000	 1.743382424606897e+000	-1.922035111852549e+000
1	 4.064609016532469e+000	 1.786802305300813e+000	-2.022155497724416e+000
1	 4.045296347962761e+000	 1.830105678990131e+000	-2.112802031550560e+000
1	 4.025483331584565e+000	 1.873284169470709e+000	-2.194053224614711e+000
1	 4.005170598579635e+000	 1.916329379417432e+000	-2.266057590188282e+000
1	 3.984358962915372e+000	 1.959232895165392e+000	-2.329034071697461e+000
1	 3.963049422572876e+000	 2.001986291560236e+000	-2.383272352078688e+000
1	 3.941243160624214e+000	 2.044581136872522e+000	-2.429133041849508e+000
1	 3.918941546155595e+000	 2.087008997770754e+000	-2.467047743683335e+000
1	 3.896146135033390e+000	 2.129261444347548e+000	-2.497518991548994e+000
1	 3.872858670510183e+000	 2.171330055193294e+000	-2.521120062759579e+000
1	 4.107947097861665e+000	 1.753853685157622e+000	-1.701315689006715e+000
1	 4.089022237317836e+000	 1.797534358250065e+000	-1.790670486323422e+000
1	 4.069593571258429e+000	 1.841097824563030e+000	-1.872493751490434e+000
1	 4.049661552156451e+000	 1.884535657582464e+000	-1.946802997963274e+000
1	 4.029226814984733e+000	 1.927839409546485e+000	-2.013669980836947e+000
1	 4.008290178599602e+000	 1.971000616255271e+000	-2.073221062484560e+000
1	 3.986852646976334e+000	 2.014010801950552e+000	-2.125637486272009e+000
1	 3.964915410292882e+000	 2.056861484259475e+000	-2.171155556378960e+000
1	 3.942479845858591e+000	 2.099544179197508e+000	-2.210066721958238e+000
1	 3.919547518884829e+000	 2.142050406224803e+000	-2.242717564076227e+000
1	 3.896120183094670e+000	 2.184371693350318e+000	-2.269509684096122e+000
1	 3.663505057243498e+000	 2.053955311797023e+000	-5.434771256636824e+000
1	 3.641009397794123e+000	 2.093573913466255e+000	-5.401956229939175e+000
1	 3.618051979783224e+000	 2.133002672260831e+000	-5.355618857464902e+000
1	 3.594634989852545e+000	 2.172233674105955e+000	-5.296421585919541e+000
1	 3.570760792711000e+000	 2.211259032598791e+000	-5.225060848425707e+000
1	 3.546431930914687e+000	 2.250070893948701e+000	-5.142266380149510e+000
1	 3.521651124484179e+000	 2.288661441927229e+000	-5.048800472318177e+000
1	 3.496421270358105e+000	 2.327022902821664e+000	-4.945457165442083e+000
1	 3.470745441682317e+000	 2.365147550385902e+000	-4.833061382713464e+000
1	 3.444626886934159e+000	 2.403027710782308e+000	-4.712468004712039e+000
1	 3.418069028881694e+000	 2.440655767508218e+000	-4.584560886704842e+000
1	 3.686766569830242e+000	 2.066996949951050e+000	-5.051636661162679e+000
1	 3.664128073655406e+000	 2.106867110874977e+000	-5.025046382124966e+000
1	 3.641024886972017e+000	 2.146546223512473e+000	-4.984962853068383e+000
1	 3.617459210305964e+000	 2.186026323538118e+000	-4.932122798780002e+000
1	 3.593433423380952e+000	 2.225299474474157e+000	-4.867297631448410e+000
1	 3.568950084897113e+000	 2.264357772662104e+000	-4.791292614982626e+000
1	 3.544011932145869e+000	 2.303193352244159e+000	-4.704945964916327e+000
1	 3.518621880460040e+000	 2.341798390148219e+000	-4.609127885012791e+000
1	 3.492783022498508e+000	 2.380165111070181e+000	-4.504739541855639e+000
1	 3.466498627364913e+000	 2.418285792447177e+000	-4.392711978877864e+000
1	 3.439772139560280e+000	 2.456152769415362e+000	-4.274004971446791e+000
1	 3.710028082416403e+000	 2.080038588105279e+000	-4.683696596250202e+000
1	 3.687246749516119e+000	 2.120160308283864e+000	-4.663104456992601e+000
1	 3.663997794160271e+000	 2.160089774764248e+000	-4.629090658003725e+000
1	 3.640283430758890e+000	 2.199818972970387e+000	-4.582446745574766e+000
1	 3.616106054050469e+000	 2.239339916349606e+000	-4.523999754853364e+000
1	 3.591468238879172e+000	 2.278644651375572e+000	-4.454611257265987e+000
1	 3.566372739807267e+000	 2.317725262561140e+000	-4.375176340831401e+000
1	 3.540822490561769e+000	 2.356573877474813e+000	-4.286622524712151e+000
1	 3.514820603314581e+000	 2.395182671754490e+000	-4.189908609529828e+000
1	 3.488370367795641e+000	 2.433543874112068e+000	-4.086023465145439e+000
1	 3.461475250238931e+000	 2.471649771322521e+000	-3.975984757780603e+000
1	 3.733289595002063e+000	 2.093080226259743e+000	-4.330797393873827e+000
1	 3.710365425376351e+000	 2.133453505692957e+000	-4.315968742853877e+000
1	 3.686970701348075e+000	 2.173633326016202e+000	-4.287834859645955e+000
1	 3.663107651211415e+000	 2.213611622402808e+000	-4.247223015115814e+000
1	 3.638778684719643e+000	 2.253380358225186e+000	-4.194996869932543e+000
1	 3.613986392860959e+000	 2.292931530089151e+000	-4.132055439137130e+000
1	 3.588733547468467e+000	 2.332257172878210e+000	-4.059331987018502e+000
1	 3.563023100663379e+000	 2.371349364801481e+000	-3.977792853805161e+000
1	 3.536858184130619e+000	 2.410200232438856e+000	-3.888436215866498e+000
1	 3.510242108226418e+000	 2.448801955777006e+000	-3.792290781303016e+000
1	 3.483178360917712e+000	 2.487146773229715e+000	-3.690414422985023e+000
1	 3.756551107587308e+000	 2.106121864414475e+000	-3.992789192213230e+000
1	 3.733484101236187e+000	 2.146746703102297e+000	-3.983481533459253e+000
1	 3.709943608535523e+000	 2.187176877268380e+000	-3.961032192015104e+000
1	 3.685931871663629e+000	 2.227404271835431e+000	-3.926285417131497e+000
1	 3.661451315388570e+000	 2.267420800100942e+000	-3.880122847346616e+000
1	 3.636504546842563e+000	 2.307218408802881e+000	-3.823462425884995e+000
1	 3.611094355129561e+000	 2.346789083195411e+000	-3.757257243889480e+000
1	 3.585223710764961e+000	 2.386124852128255e+000	-3.682494313084932e+000
1	 3.558895764946705e+000	 2.425217793123309e+000	-3.600193269666397e+000
1	 3.532113848657318e+000	 2.464060037442008e+000	-3.511405011396227e+000
1	 3.504881471596690e+000	 2.502643775136959e+000	-3.417210270082248e+000
1	 3.779812620172219e+000	 2.119163502569507e+000	-3.669525818533591e+000
1	 3.756602777095718e+000	 2.160039900511925e+000	-3.665489004747600e+000
1	 3.732916515722703e+000	 2.200720428520827e+000	-3.648523408180972e+000
1	 3.708756092115632e+000	 2.241196921268303e+000	-3.619471852385808e+000
1	 3.684123946057342e+000	 2.281461241976922e+000	-3.579215647291840e+000
1	 3.659022700824081e+000	 2.321505287516808e+000	-3.528673488770011e+000
1	 3.633455162790639e+000	 2.361320993512780e+000	-3.468800283662253e+000
1	 3.607424320866601e+000	 2.400900339455171e+000	-3.400585901897202e+000
1	 3.580933345762923e+000	 2.440235353807876e+000	-3.325053857513403e+000
1	 3.553985589088419e+000	 2.479318119107100e+000	-3.243259920608373e+000
1	 3.526584582275933e+000	 2.518140777044271e+000	-3.156290662427228e+000
1	 3.803074132756878e+000	 2.132205140724873e+000	-3.360864676364145e+000
1	 3.779721452955028e+000	 2.173333097921881e+000	-3.361841096118960e+000
1	 3.755889422909708e+000	 2.214263979773591e+000	-3.350153157350442e+000
1	 3.731580312567512e+000	 2.254989570701471e+000	-3.326624187564296e+000
1	 3.706796576726056e+000	 2.295501683853173e+000	-3.292117194431828e+000
1	 3.681540854805606e+000	 2.335792166230976e+000	-3.247533782511349e+000
1	 3.655815970451795e+000	 2.375852903830359e+000	-3.193812993174506e+000
1	 3.629624930968387e+000	 2.415675826782264e+000	-3.131930069310836e+000
1	 3.602970926579354e+000	 2.455252914492586e+000	-3.062895146589957e+000
1	 3.575857329519798e+000	 2.494576200772307e+000	-2.987751873264541e+000
1	 3.548287692955509e+000	 2.533637778951668e+000	-2.907575960697599e+000
1	 3.826335645341370e+000	 2.145246778880604e+000	-3.066666636791786e+000
1	 3.802840128814207e+000	 2.186626295332208e+000	-3.072391396038267e+000
1	 3.778862330096630e+000	 2.227807531026718e+000	-3.065769866438225e+000
1	 3.754404533019363e+000	 2.268782220134982e+000	-3.047588134723509e+000
1	 3.729469207394803e+000	 2.309542125729741e+000	-3.018673257391280e+000
1	 3.704059008787234e+000	 2.350079044945431e+000	-2.979892227242964e+000
1	 3.678176778113121e+000	 2.390384814148185e+000	-2.932150860971953e+000
1	 3.651825541070408e+000	 2.430451314109564e+000	-2.876392609258024e+000
1	 3.625008507396083e+000	 2.470270475177467e+000	-2.813597291037451e+000
1	 3.597729069951527e+000	 2.509834282437645e+000	-2.744779753826508e+000
1	 3.569990803635482e+000	 2.549134780859165e+000	-2.670988462181828e+000
1	 3.849597157925778e+000	 2.158288417036733e+000	-2.786795933696060e+000
1	 3.825958804673342e+000	 2.199919492742945e+000	-2.796997031786372e+000
1	 3.801835237283558e+000	 2.241351082280250e+000	-2.795225625931195e+000
1	 3.777228753471282e+000	 2.282574869568885e+000	-2.782213135111145e+000
1	 3.752141838063679e+000	 2.323582567606674e+000	-2.758733332618679e+000
1	 3.726577162769055e+000	 2.364365923660214e+000	-2.725601394749577e+000
1	 3.700537585774706e+000	 2.404916724466300e+000	-2.683672868490273e+000
1	 3.674026151172752e+000	 2.445226801437109e+000	-2.633842559476214e+000
1	 3.647046088213191e+000	 2.485288035862547e+000	-2.577043341711419e+000
1	 3.619600810383687e+000	 2.525092364103140e+000	-2.514244890752170e+000
1	 3.591693914315921e+000	 2.564631782766780e+000	-2.446452342268605e+000
1	 3.872858670510183e+000	 2.171330055193294e+000	-2.521120062759580e+000
1	 3.849077480532520e+000	 2.213212690154133e+000	-2.535518563184225e+000
1	 3.824808144470584e+000	 2.254894633534237e+000	-2.538376079866024e+000
1	 3.800052973923359e+000	 2.296367519003226e+000	-2.530352247172970e+000
1	 3.774814468732780e+000	 2.337623009484017e+000	-2.512150532434302e+000
1	 3.749095316751166e+000	 2.378652802375369e+000	-2.484517398802177e+000
1	 3.722898393436643e+000	 2.419448634784743e+000	-2.448241385158471e+000
1	 3.696226761275508e+000	 2.460002288764932e+000	-2.404152104091939e+000
1	 3.669083669030763e+000	 2.500305596547853e+000	-2.353119159189083e+000
1	 3.641472550816350e+000	 2.540350445768814e+000	-2.296050983098701e+000
1	 3.613397024996893e+000	 2.580128784674530e+000	-2.233893598044810e+000
1	 3.896120183094670e+000	 2.184371693350318e+000	-2.269509684096122e+000
1	 3.872196156391830e+000	 2.226505887565815e+000	-2.287819880124169e+000
1	 3.847781051657799e+000	 2.268438184788724e+000	-2.295080319748062e+000
1	 3.822877194375687e+000	 2.310160168438054e+000	-2.291862038571745e+000
1	 3.797487099402197e+000	 2.351663451361817e+000	-2.278781477088704e+000
1	 3.771613470733660e+000	 2.392939681090942e+000	-2.256499789422177e+000
1	 3.745259201099026e+000	 2.433980545103553e+000	-2.225722067260113e+000
1	 3.718427371378765e+000	 2.474777776093068e+000	-2.187196479694370e+000
1	 3.691121249848881e+000	 2.515323157233418e+000	-2.141713329893110e+000
1	 3.663344291249593e+000	 2.555608527434688e+000	-2.090104029755193e+000
1	 3.635100135678463e+000	 2.595625786582433e+000	-2.033239993913886e+000
1	 3.418069028881694e+000	 2.440655767508218e+000	-4.584560886704843e+000
1	 3.391075462413564e+000	 2.478024165474663e+000	-4.449121537518932e+000
1	 3.363649950302459e+000	 2.515125413354498e+000	-4.304940199320186e+000
1	 3.335796424614757e+000	 2.551952090816394e+000	-4.151445970335162e+000
1	 3.307518985991763e+000	 2.588496854144156e+000	-3.988083779571779e+000
1	 3.278821901798353e+000	 2.624752440995853e+000	-3.814315779723658e+000
1	 3.249709604111268e+000	 2.660711675109583e+000	-3.629622721970092e+000
1	 3.220186687548850e+000	 2.696367470949601e+000	-3.433505309519467e+000
1	 3.190257906944268e+000	 2.731712838286568e+000	-3.225485526773510e+000
1	 3.159928174864604e+000	 2.766740886705848e+000	-3.005107941028144e+000
1	 3.129202558978380e+000	 2.801444830037749e+000	-2.771940973675997e+000
1	 3.439772139560280e+000	 2.456152769415362e+000	-4.274004971446792e+000
1	 3.412607176799092e+000	 2.493758438914534e+000	-4.148407100896364e+000
1	 3.385007525745849e+000	 2.531095262051196e+000	-4.014646693186274e+000
1	 3.356977143433667e+000	 2.568155771378457e+000	-3.872126562194118e+000
1	 3.328520156540966e+000	 2.604932576551025e+000	-3.720267478476150e+000
1	 3.299640859528343e+000	 2.641418369114568e+000	-3.558509618699107e+000
1	 3.270343712614112e+000	 2.677605927241350e+000	-3.386313993105951e+000
1	 3.240633339590237e+000	 2.713488120405851e+000	-3.203163847726373e+000
1	 3.210514525480814e+000	 2.749057913994119e+000	-3.008566038081401e+000
1	 3.179992214045371e+000	 2.784308373840668e+000	-2.802052371180369e+000
1	 3.149071505129704e+000	 2.819232670686875e+000	-2.583180912667738e+000
1	 3.461475250238931e+000	 2.471649771322521e+000	-3.975984757780603e+000
1	 3.434138891184774e+000	 2.509492712354419e+000	-3.859594988711247e+000
1	 3.406365101189476e+000	 2.547065110747905e+000	-3.735555063549874e+000
1	 3.378157862252898e+000	 2.584359451940527e+000	-3.603265150831359e+000
1	 3.349521327090561e+000	 2.621368298957908e+000	-3.462145393735593e+000
1	 3.320459817258793e+000	 2.658084297233307e+000	-3.311637373087476e+000
1	 3.290977821117469e+000	 2.694500179373151e+000	-3.151205544557930e+000
1	 3.261079991632188e+000	 2.730608769862154e+000	-2.980338646730490e+000
1	 3.230771144017953e+000	 2.766402989701746e+000	-2.798551076747181e+000
1	 3.200056253226749e+000	 2.801875860975598e+000	-2.605384230305736e+000
1	 3.168940451281644e+000	 2.837020511336151e+000	-2.400407802849891e+000
1	 3.483178360917712e+000	 2.487146773229715e+000	-3.690414422985023e+000
1	 3.455670605570664e+000	 2.525226985794328e+000	-3.582626978392669e+000
1	 3.427722676633388e+000	 2.563034959444632e+000	-3.467632478204022e+000
1	 3.399338581072477e+000	 2.600563132502614e+000	-3.344851649088915e+000
1	 3.370522497640566e+000	 2.637804021364806e+000	-3.213727104032325e+000
1	 3.341278774989704e+000	 2.674750225352065e+000	-3.073724776390826e+000
1	 3.311611929621332e+000	 2.711394431504983e+000	-2.924335324344376e+000
1	 3.281526643674675e+000	 2.747729419318503e+000	-2.765075502453522e+000
1	 3.251027762555652e+000	 2.783748065409440e+000	-2.595489497090181e+000
1	 3.220120292408699e+000	 2.819443348110626e+000	-2.415150222579307e+000
1	 3.188809397434151e+000	 2.854808351985561e+000	-2.223660574967790e+000
1	 3.504881471596690e+000	 2.502643775136959e+000	-3.417210270082248e+000
1	 3.477202319956819e+000	 2.540961259234274e+000	-3.317446289484754e+000
1	 3.449080252077623e+000	 2.579004808141385e+000	-3.210846918162673e+000
1	 3.420519299892435e+000	 2.616766813064721e+000	-3.096876219657342e+000
1	 3.391523668190997e+000	 2.654239743771723e+000	-2.975021950793797e+000
1	 3.362097732721079e+000	 2.691416153470844e+000	-2.844796924717519e+000
1	 3.332246038125688e+000	 2.728288683636842e+000	-2.705740340548496e+000
1	 3.301973295717676e+000	 2.764850068774895e+000	-2.557419076497253e+000
1	 3.271284381093876e+000	 2.801093141117196e+000	-2.399428943356361e+000
1	 3.240184331591174e+000	 2.837010835245738e+000	-2.231395895359703e+000
1	 3.208678343587174e+000	 2.872596192635087e+000	-2.052977195490569e+000
1	 3.526584582275933e+000	 2.518140777044271e+000	-3.156290662427228e+000
1	 3.498734034343295e+000	 2.556695532674269e+000	-3.063997539271766e+000
1	 3.470437827522229e+000	 2.594974656838175e+000	-2.965167152637275e+000
1	 3.441700018712803e+000	 2.632970493626854e+000	-2.859329267387794e+000
1	 3.412524838741869e+000	 2.670675466178660e+000	-2.746039045493154e+000
1	 3.382916690452920e+000	 2.708082081589644e+000	-2.624878296395347e+000
1	 3.352880146630526e+000	 2.745182935768729e+000	-2.495456690240865e+000
1	 3.322419947761167e+000	 2.781970718231322e+000	-2.357412931047416e+000
1	 3.291540999632590e+000	 2.818438216825003e+000	-2.210415886953173e+000
1	 3.260248370774131e+000	 2.854578322380923e+000	-2.054165674785284e+000
1	 3.228547289740662e+000	 2.890384033284712e+000	-1.888394696282629e+000
1	 3.548287692955509e+000	 2.533637778951668e+000	-2.907575960697600e+000
1	 3.520265748730149e+000	 2.572429806114325e+000	-2.822226700031724e+000
1	 3.491795402967247e+000	 2.610944505535007e+000	-2.730562714931740e+000
1	 3.462880737533613e+000	 2.649174174189019e+000	-2.632201431886121e+000
1	 3.433526009293200e+000	 2.687111188585622e+000	-2.526787276681866e+000
1	 3.403735648185230e+000	 2.724748009708466e+000	-2.413992770864808e+000
1	 3.373514255135836e+000	 2.762077187900638e+000	-2.293519587340519e+000
1	 3.342866599805126e+000	 2.799091367687780e+000	-2.165099562496647e+000
1	 3.311797618171762e+000	 2.835783292532855e+000	-2.028495662317922e+000
1	 3.280312409957529e+000	 2.872145809516169e+000	-1.883502900063845e+000
1	 3.248416235894569e+000	 2.908171873934421e+000	-1.729949203186253e+000
1	 3.569990803635482e+000	 2.549134780859165e+000	-2.670988462181828e+000
1	 3.541797463117435e+000	 2.588164079554456e+000	-2.592081057849243e+000
1	 3.513152978412723e+000	 2.626914354231893e+000	-2.507003879216706e+000
1	 3.484061456354891e+000	 2.665377854751221e+000	-2.415483580377170e+000
1	 3.454527179845005e+000	 2.703546910992609e+000	-2.317275316765809e+000
1	 3.424554605918010e+000	 2.741413937827308e+000	-2.212163646883262e+000
1	 3.394148363641605e+000	 2.778971440032568e+000	-2.099963389459775e+000
1	 3.363313251849528e+000	 2.816212017144263e+000	-1.980520433840974e+000
1	 3.332054236711353e+000	 2.853128368240739e+000	-1.853712501477829e+000
1	 3.300376449141319e+000	 2.889713296651464e+000	-1.719449856511667e+000
1	 3.268285182048843e+000	 2.925959714584197e+000	-1.577675963561585e+000
1	 3.591693914315921e+000	 2.564631782766780e+000	-2.446452342268604e+000
1	 3.563329177505210e+000	 2.603898352994674e+000	-2.373509172921603e+000
1	 3.534510553858698e+000	 2.642884202928839e+000	-2.294461638145737e+000
1	 3.505242175176669e+000	 2.681581535313462e+000	-2.209166800827743e+000
1	 3.475528350397301e+000	 2.719982633399626e+000	-2.117511628535676e+000
1	 3.445373563651263e+000	 2.758079865946171e+000	-2.019413660069135e+000
1	 3.414782472147825e+000	 2.795865692164516e+000	-1.914821623775772e+000
1	 3.383759903894350e+000	 2.833332666600767e+000	-1.803716005901775e+000
1	 3.352310855251333e+000	 2.870473443948651e+000	-1.686109567357060e+000
1	 3.320440488325465e+000	 2.907280783786795e+000	-1.562047807394625e+000
1	 3.288154128203432e+000	 2.943747555234022e+000	-1.431609372828173e+000
1	 3.613397024996893e+000	 2.580128784674530e+000	-2.233893598044810e+000
1	 3.584860891893529e+000	 2.619632626434988e+000	-2.166460841295325e+000
1	 3.555868129305218e+000	 2.658854051625854e+000	-2.092907681278321e+000
1	 3.526422893998978e+000	 2.697785215875753e+000	-2.013242395317474e+000
1	 3.496529520950103e+000	 2.736418355806673e+000	-1.927504471462052e+000
1	 3.466192521384992e+000	 2.774745794065056e+000	-1.835764999813751e+000
1	 3.435416580654481e+000	 2.812759944296480e+000	-1.738127011969680e+000
1	 3.404206555939567e+000	 2.850453316057285e+000	-1.634725767422551e+000
1	 3.372567473791665e+000	 2.887818519656581e+000	-1.525728985883472e+000
1	 3.340504527509918e+000	 2.924848270922150e+000	-1.411337024621926e+000
1	 3.308023074358291e+000	 2.961535395883882e+000	-1.291783000049996e+000
1	 3.635100135678463e+000	 2.595625786582433e+000	-2.033239993913885e+000
1	 3.606392606282453e+000	 2.635366899875415e+000	-1.970887057973435e+000
1	 3.577225704752324e+000	 2.674823900322948e+000	-1.902314374275731e+000
1	 3.547603612821848e+000	 2.713988896438097e+000	-1.827701873647056e+000
1	 3.517530691503432e+000	 2.752854078213755e+000	-1.747261907764972e+000
1	 3.487011479119201e+000	 2.791411722183962e+000	-1.661239325587462e+000
1	 3.456050689161568e+000	 2.829654196428459e+000	-1.569911494272499e+000
1	 3.424653207985159e+000	 2.867573965513814e+000	-1.473588264087556e+000
1	 3.392824092332315e+000	 2.905163595364520e+000	-1.372611876945214e+000
1	 3.360568566694637e+000	 2.942415758057519e+000	-1.267356818340224e+000
1	 3.327892020513366e+000	 2.979323236533758e+000	-1.158229612603968e+000
1	 3.129202558978380e+000	 2.801444830037749e+000	-2.771940973675997e+000
1	 3.098090975972703e+000	 2.835812860563197e+000	-2.532198816330168e+000
1	 3.066594216041264e+000	 2.869843648532129e+000	-2.292774354628794e+000
1	 3.034717795080714e+000	 2.903530751830148e+000	-2.054383119275300e+000
1	 3.002467371960544e+000	 2.936867849398260e+000	-1.817743044286975e+000
1	 2.969848745180576e+000	 2.969848745180576e+000	-1.583573178693484e+000
1	 2.936867849398261e+000	 3.002467371960544e+000	-1.352592394071924e+000
1	 2.903530751830149e+000	 3.034717795080714e+000	-1.125518090663831e+000
1	 2.869843648532130e+000	 3.066594216041263e+000	-9.030649048256436e-001
1	 2.835812860563197e+000	 3.098090975972703e+000	-6.859434205618511e-001
1	 2.801444830037748e+000	 3.129202558978380e+000	-4.748588878794515e-001
1	 3.149071505129704e+000	 2.819232670686875e+000	-2.583180912667738e+000
1	 3.117762378387155e+000	 2.853818921840275e+000	-2.358030503573430e+000
1	 3.086065629028769e+000	 2.888065789107530e+000	-2.133340599692775e+000
1	 3.053986807974516e+000	 2.921966789469875e+000	-1.909783784714442e+000
1	 3.021531610025019e+000	 2.955515561732601e+000	-1.688034072367459e+000
1	 2.988705870497813e+000	 2.988705870497813e+000	-1.468765680782716e+000
1	 2.955515561732601e+000	 3.021531610025020e+000	-1.252651804391205e+000
1	 2.921966789469876e+000	 3.053986807974515e+000	-1.040363385975535e+000
1	 2.888065789107530e+000	 3.086065629028767e+000	-8.325678914934782e-001
1	 2.853818921840277e+000	 3.117762378387154e+000	-6.299280902861588e-001
1	 2.819232670686876e+000	 3.149071505129704e+000	-4.331008432697727e-001
1	 3.168940451281644e+000	 2.837020511336151e+000	-2.400407802849891e+000
1	 3.137433780802209e+000	 2.871824983117554e+000	-2.189558147600351e+000
1	 3.105537042016849e+000	 2.906287929683185e+000	-1.979385872752696e+000
1	 3.073255820868856e+000	 2.940402827109916e+000	-1.770499925501069e+000
1	 3.040595848089982e+000	 2.974163274067317e+000	-1.563509596735083e+000
1	 3.007562995815484e+000	 3.007562995815484e+000	-1.359023396037781e+000
1	 2.974163274067317e+000	 3.040595848089982e+000	-1.157647926085280e+000
1	 2.940402827109917e+000	 3.073255820868856e+000	-9.599867588545386e-001
1	 2.906287929683185e+000	 3.105537042016848e+000	-7.666393160437286e-001
1	 2.871824983117555e+000	 3.137433780802209e+000	-5.781997560996806e-001
1	 2.837020511336151e+000	 3.168940451281644e+000	-3.952558702301621e-001
1	 3.188809397434151e+000	 2.854808351985561e+000	-2.223660574967790e+000
1	 3.157105183217814e+000	 2.889831044395010e+000	-2.026809112978624e+000
1	 3.125008455005450e+000	 2.924510070259066e+000	-1.830924531940992e+000
1	 3.092524833763677e+000	 2.958838864750235e+000	-1.636531830598795e+000
1	 3.059660086155382e+000	 2.992810986402366e+000	-1.444155153048570e+000
1	 3.026420121133541e+000	 3.026420121133540e+000	-1.254316801963457e+000
1	 2.992810986402366e+000	 3.059660086155382e+000	-1.067536253247266e+000
1	 2.958838864750236e+000	 3.092524833763677e+000	-8.843291742346038e-001
1	 2.924510070259066e+000	 3.125008455005449e+000	-7.052064475460427e-001
1	 2.889831044395010e+000	 3.157105183217813e+000	-5.306732026942398e-001
1	 2.854808351985561e+000	 3.188809397434151e+000	-3.612278575167089e-001
1	 3.208678343587174e+000	 2.872596192635087e+000	-2.052977195490569e+000
1	 3.176776585633915e+000	 2.907837105672620e+000	-1.869810086482520e+000
1	 3.144479867994519e+000	 2.942732210835145e+000	-1.687970579753230e+000
1	 3.111793846658931e+000	 2.977274902390801e+000	-1.507879781813803e+000
1	 3.078724324221171e+000	 3.011458698737709e+000	-1.329956635234014e+000
1	 3.045277246451941e+000	 3.045277246451941e+000	-1.154617107307482e+000
1	 3.011458698737709e+000	 3.078724324221171e+000	-9.822733823376022e-001
1	 2.977274902390801e+000	 3.111793846658930e+000	-8.133330592897385e-001
1	 2.942732210835145e+000	 3.144479867994518e+000	-6.481983565433429e-001
1	 2.907837105672621e+000	 3.176776585633915e+000	-4.872653254606301e-001
1	 2.872596192635087e+000	 3.208678343587173e+000	-3.309230744660416e-001
1	 3.228547289740662e+000	 2.890384033284712e+000	-1.888394696282629e+000
1	 3.196447988050458e+000	 2.925843166950362e+000	-1.718587097949120e+000
1	 3.163951280984001e+000	 2.960954351411394e+000	-1.550537673991381e+000
1	 3.131062859554560e+000	 2.995710940031577e+000	-1.384544054015121e+000
1	 3.097788562287297e+000	 3.030106411073305e+000	-1.220900284460756e+000
1	 3.064134371770635e+000	 3.064134371770636e+000	-1.059896229559724e+000
1	 3.030106411073305e+000	 3.097788562287297e+000	-9.018169782633579e-001
1	 2.995710940031576e+000	 3.131062859554559e+000	-7.469422584400042e-001
1	 2.960954351411395e+000	 3.163951280984000e+000	-5.955458596191894e-001
1	 2.925843166950363e+000	 3.196447988050458e+000	-4.478950655408962e-001
1	 2.890384033284712e+000	 3.228547289740663e+000	-3.042500977431450e-001
1	 3.248416235894569e+000	 2.908171873934421e+000	-1.729949203186253e+000
1	 3.216119390467393e+000	 2.943849228228216e+000	-1.573165540369102e+000
1	 3.183422693973840e+000	 2.979176491987786e+000	-1.418639138305373e+000
1	 3.150331872450513e+000	 3.014146977672529e+000	-1.266524915346762e+000
1	 3.116852800353711e+000	 3.048754123409113e+000	-1.116972678521812e+000
1	 3.082991497089580e+000	 3.082991497089580e+000	-9.701267732770760e-001
1	 3.048754123409114e+000	 3.116852800353712e+000	-8.261257417025367e-001
1	 3.014146977672530e+000	 3.150331872450512e+000	-6.851019900085640e-001
1	 2.979176491987787e+000	 3.183422693973839e+000	-5.471814659994581e-001
1	 2.943849228228217e+000	 3.216119390467392e+000	-4.124833472640932e-001
1	 2.908171873934422e+000	 3.248416235894569e+000	-2.811197407774517e-001
1	 3.268285182048843e+000	 2.925959714584197e+000	-1.577675963561586e+000
1	 3.235790792884662e+000	 2.961855289506158e+000	-1.433570189244748e+000
1	 3.202894106963984e+000	 2.997398632564292e+000	-1.292287972350234e+000
1	 3.169600885346736e+000	 3.032583015313621e+000	-1.153822627432178e+000
1	 3.135917038420363e+000	 3.067401835745095e+000	-1.018160721601675e+000
1	 3.101848622408730e+000	 3.101848622408731e+000	-8.852820091989248e-001
1	 3.067401835745095e+000	 3.135917038420363e+000	-7.551593776200923e-001
1	 3.032583015313622e+000	 3.169600885346736e+000	-6.277588044597139e-001
1	 2.997398632564291e+000	 3.202894106963981e+000	-5.030393261017723e-001
1	 2.961855289506159e+000	 3.235790792884661e+000	-3.809530178641758e-001
1	 2.925959714584196e+000	 3.268285182048841e+000	-2.614449857728025e-001
1	 3.288154128203432e+000	 2.943747555234022e+000	-1.431609372828173e+000
1	 3.255462195302214e+000	 2.979861350784167e+000	-1.299825221246060e+000
1	 3.222365519954375e+000	 3.015620773140882e+000	-1.171496861574899e+000
1	 3.188869898243179e+000	 3.051019052954823e+000	-1.046437445571250e+000
1	 3.154981276487200e+000	 3.086049548081208e+000	-9.244516344150753e-001
1	 3.120705747728038e+000	 3.120705747728039e+000	-8.053358541198781e-001
1	 3.086049548081208e+000	 3.154981276487199e+000	-6.888785649255274e-001
1	 3.051019052954824e+000	 3.188869898243178e+000	-5.748605441509889e-001
1	 3.015620773140883e+000	 3.222365519954375e+000	-4.630551819503066e-001
1	 2.979861350784168e+000	 3.255462195302214e+000	-3.532287893833811e-001
1	 2.943747555234023e+000	 3.288154128203432e+000	-2.451409181824314e-001
1	 3.308023074358291e+000	 2.961535395883882e+000	-1.291783000049996e+000
1	 3.275133597719994e+000	 2.997867412062220e+000	-1.171954232194598e+000
1	 3.241836932944962e+000	 3.033842913717531e+000	-1.056278186658319e+000
1	 3.208138911139784e+000	 3.069455090596099e+000	-9.443696189302144e-001
1	 3.174045514554174e+000	 3.104697260417412e+000	-8.358329447011315e-001
1	 3.139562873047458e+000	 3.139562873047459e+000	-7.302628514877634e-001
1	 3.104697260417412e+000	 3.174045514554175e+000	-6.272449272239211e-001
1	 3.069455090596098e+000	 3.208138911139783e+000	-5.263563045357446e-001
1	 3.033842913717530e+000	 3.241836932944961e+000	-4.271663193775420e-001
1	 2.997867412062221e+000	 3.275133597719993e+000	-3.292371826693389e-001
1	 2.961535395883882e+000	 3.308023074358290e+000	-2.321246635453161e-001
1	 3.327892020513366e+000	 2.979323236533758e+000	-1.158229612603968e+000
1	 3.294805000137952e+000	 3.015873473340294e+000	-1.049980254403042e+000
1	 3.261308345935689e+000	 3.052065054294209e+000	-9.466440326074943e-001
1	 3.227407924036499e+000	 3.087891128237413e+000	-8.476193907247784e-001
1	 3.193109752621236e+000	 3.123344972753669e+000	-7.522924780580107e-001
1	 3.158419998366947e+000	 3.158419998366947e+000	-6.600381526966950e-001
1	 3.123344972753668e+000	 3.193109752621235e+000	-5.702210046147223e-001
1	 3.087891128237413e+000	 3.227407924036498e+000	-4.821963967555510e-001
1	 3.052065054294209e+000	 3.261308345935689e+000	-3.953115219382224e-001
1	 3.015873473340296e+000	 3.294805000137950e+000	-3.089064733783397e-001
1	 2.979323236533757e+000	 3.327892020513365e+000	-2.223153265852206e-001
1	 2.801444830037748e+000	 3.129202558978380e+000	-4.748588878794513e-001
1	 2.766740886705849e+000	 3.159928174864604e+000	-2.732920798680425e-001
1	 2.731712838286569e+000	 3.190257906944266e+000	-8.381447599027991e-002
1	 2.696367470949602e+000	 3.220186687548848e+000	 9.436224834491114e-002
1	 2.660711675109584e+000	 3.249709604111267e+000	 2.620666511764793e-001
1	 2.624752440995853e+000	 3.278821901798352e+000	 4.201655396371899e-001
1	 2.588496854144156e+000	 3.307518985991762e+000	 5.695619286446112e-001
1	 2.551952090816395e+000	 3.335796424614756e+000	 7.111929473534331e-001
1	 2.515125413354500e+000	 3.363649950302459e+000	 8.460276981895150e-001
1	 2.478024165474664e+000	 3.391075462413564e+000	 9.750650733740116e-001
1	 2.440655767508217e+000	 3.418069028881693e+000	 1.099331533918847e+000
1	 2.819232670686876e+000	 3.149071505129704e+000	-4.331008432697727e-001
1	 2.784308373840670e+000	 3.179992214045370e+000	-2.453082272758087e-001
1	 2.749057913994120e+000	 3.210514525480812e+000	-6.891762189086981e-002
1	 2.713488120405852e+000	 3.240633339590236e+000	 9.681994236555758e-002
1	 2.677605927241352e+000	 3.270343712614111e+000	 2.526938794453479e-001
1	 2.641418369114570e+000	 3.299640859528343e+000	 3.995321254969255e-001
1	 2.604932576551026e+000	 3.328520156540965e+000	 5.381991586529273e-001
1	 2.568155771378458e+000	 3.356977143433667e+000	 6.695939654758170e-001
1	 2.531095262051198e+000	 3.385007525745848e+000	 7.946479587641484e-001
1	 2.493758438914536e+000	 3.412607176799092e+000	 9.143228515146951e-001
1	 2.456152769415361e+000	 3.439772139560280e+000	 1.029608491912285e+000
1	 2.837020511336151e+000	 3.168940451281644e+000	-3.952558702301618e-001
1	 2.801875860975600e+000	 3.200056253226749e+000	-2.207606565583993e-001
1	 2.766402989701746e+000	 3.230771144017953e+000	-5.689346902750603e-002
1	 2.730608769862155e+000	 3.261079991632187e+000	 9.703612570075970e-002
1	 2.694500179373153e+000	 3.290977821117469e+000	 2.417589002035570e-001
1	 2.658084297233307e+000	 3.320459817258792e+000	 3.780441434934561e-001
1	 2.621368298957909e+000	 3.349521327090560e+000	 5.066977796394900e-001
1	 2.584359451940528e+000	 3.378157862252897e+000	 6.285604322051410e-001
1	 2.547065110747906e+000	 3.406365101189476e+000	 7.445054390065766e-001
1	 2.509492712354420e+000	 3.434138891184773e+000	 8.554368217904773e-001
1	 2.471649771322521e+000	 3.461475250238931e+000	 9.622872155124251e-001
1	 2.854808351985561e+000	 3.188809397434151e+000	-3.612278575167092e-001
1	 2.819443348110627e+000	 3.220120292408697e+000	-1.995457560072789e-001
1	 2.783748065409441e+000	 3.251027762555652e+000	-4.763562005163058e-002
1	 2.747729419318505e+000	 3.281526643674674e+000	 9.511562959423348e-002
1	 2.711394431504984e+000	 3.311611929621331e+000	 2.293609934585827e-001
1	 2.674750225352067e+000	 3.341278774989703e+000	 3.557917070327457e-001
1	 2.637804021364808e+000	 3.370522497640566e+000	 4.751354955782010e-001
1	 2.600563132502616e+000	 3.399338581072476e+000	 5.881547741698940e-001
1	 2.563034959444632e+000	 3.427722676633386e+000	 6.956447971979931e-001
1	 2.525226985794328e+000	 3.455670605570663e+000	 7.984317616504155e-001
1	 2.487146773229715e+000	 3.483178360917711e+000	 8.973708685847774e-001
1	 2.872596192635087e+000	 3.208678343587173e+000	-3.309230744660416e-001
1	 2.837010835245740e+000	 3.240184331591173e+000	-1.815624802735700e-001
1	 2.801093141117199e+000	 3.271284381093875e+000	-4.104031297193256e-002
1	 2.764850068774896e+000	 3.301973295717675e+000	 9.116068872335115e-002
1	 2.728288683636843e+000	 3.332246038125688e+000	 2.155969801501712e-001
1	 2.691416153470845e+000	 3.362097732721078e+000	 3.328626975006415e-001
1	 2.654239743771723e+000	 3.391523668190995e+000	 4.435880857922225e-001
1	 2.616766813064722e+000	 3.420519299892435e+000	 5.484378717525320e-001
1	 2.579004808141386e+000	 3.449080252077623e+000	 6.481095854779397e-001
1	 2.540961259234274e+000	 3.477202319956819e+000	 7.433318348304643e-001
1	 2.502643775136959e+000	 3.504881471596690e+000	 8.348625366288192e-001
1	 2.890384033284712e+000	 3.228547289740663e+000	-3.042500977431450e-001
1	 2.854578322380924e+000	 3.260248370774130e+000	-1.667122713992904e-001
1	 2.818438216825004e+000	 3.291540999632589e+000	-3.700634006241010e-002
1	 2.781970718231322e+000	 3.322419947761165e+000	 8.527102109735285e-002
1	 2.745182935768729e+000	 3.352880146630526e+000	 2.005612978176603e-001
1	 2.708082081589645e+000	 3.382916690452919e+000	 3.093428329438137e-001
1	 2.670675466178661e+000	 3.412524838741868e+000	 4.121294641768953e-001
1	 2.632970493626856e+000	 3.441700018712803e+000	 5.094691066686252e-001
1	 2.594974656838176e+000	 3.470437827522228e+000	 6.019422838811115e-001
1	 2.556695532674270e+000	 3.498734034343295e+000	 6.901606102378630e-001
1	 2.518140777044271e+000	 3.526584582275933e+000	 7.747652291893776e-001
1	 2.908171873934422e+000	 3.248416235894569e+000	-2.811197407774515e-001
1	 2.872145809516170e+000	 3.280312409957526e+000	-1.548989827466760e-001
1	 2.835783292532856e+000	 3.311797618171760e+000	-3.543496974655791e-002
1	 2.799091367687780e+000	 3.342866599805124e+000	 7.754390502345032e-002
1	 2.762077187900638e+000	 3.373514255135835e+000	 1.843460734903586e-001
1	 2.724748009708467e+000	 3.403735648185228e+000	 2.853157342301163e-001
1	 2.687111188585623e+000	 3.433526009293199e+000	 3.808317362492337e-001
1	 2.649174174189021e+000	 3.462880737533611e+000	 4.713064077998830e-001
1	 2.610944505535009e+000	 3.491795402967246e+000	 5.571843331250326e-001
1	 2.572429806114326e+000	 3.520265748730147e+000	 6.389410801425335e-001
1	 2.533637778951668e+000	 3.548287692955509e+000	 7.170818821795191e-001
1	 2.925959714584196e+000	 3.268285182048841e+000	-2.614449857728032e-001
1	 2.889713296651466e+000	 3.300376449141320e+000	-1.460288057022361e-001
1	 2.853128368240741e+000	 3.332054236711353e+000	-3.622987133081268e-002
1	 2.816212017144264e+000	 3.363313251849527e+000	 6.807425326544569e-002
1	 2.778971440032569e+000	 3.394148363641605e+000	 1.670411939192185e-001
1	 2.741413937827309e+000	 3.424554605918008e+000	 2.608629887956830e-001
1	 2.703546910992610e+000	 3.454527179845004e+000	 3.497652541164722e-001
1	 2.665377854751222e+000	 3.484061456354890e+000	 4.340062953553561e-001
1	 2.626914354231894e+000	 3.513152978412722e+000	 5.138761662017966e-001
1	 2.588164079554457e+000	 3.541797463117434e+000	 5.896956777048972e-001
1	 2.549134780859165e+000	 3.569990803635482e+000	 6.618153601187544e-001
1	 2.943747555234023e+000	 3.288154128203432e+000	-2.451409181824314e-001
1	 2.907280783786796e+000	 3.320440488325464e+000	-1.400101990382061e-001
1	 2.870473443948652e+000	 3.352310855251331e+000	-3.929704246685106e-002
1	 2.833332666600767e+000	 3.383759903894348e+000	 5.695468451373031e-002
1	 2.795865692164517e+000	 3.414782472147823e+000	 1.487343732621842e-001
1	 2.758079865946172e+000	 3.445373563651261e+000	 2.360642120808767e-001
1	 2.719982633399626e+000	 3.475528350397299e+000	 3.189986694517308e-001
1	 2.681581535313464e+000	 3.505242175176668e+000	 3.976239234315848e-001
1	 2.642884202928839e+000	 3.534510553858696e+000	 4.720572388243720e-001
1	 2.603898352994674e+000	 3.563329177505208e+000	 5.424462938682386e-001
1	 2.564631782766780e+000	 3.591693914315921e+000	 6.089684582900328e-001
1	 2.961535395883882e+000	 3.308023074358290e+000	-2.321246635453163e-001
1	 2.924848270922151e+000	 3.340504527509917e+000	-1.367538208196489e-001
1	 2.887818519656582e+000	 3.372567473791665e+000	-4.454473922799740e-002
1	 2.850453316057287e+000	 3.404206555939566e+000	 4.427559227966316e-002
1	 2.812759944296480e+000	 3.435416580654480e+000	 1.295112183303557e-001
1	 2.774745794065057e+000	 3.466192521384991e+000	 2.109971067521843e-001
1	 2.736418355806673e+000	 3.496529520950103e+000	 2.885989845605295e-001
1	 2.697785215875754e+000	 3.526422893998977e+000	 3.622131210389508e-001
1	 2.658854051625856e+000	 3.555868129305217e+000	 4.317660587757772e-001
1	 2.619632626434989e+000	 3.584860891893528e+000	 4.972142936422690e-001
1	 2.580128784674530e+000	 3.613397024996892e+000	 5.585439048190584e-001
1	 2.979323236533757e+000	 3.327892020513365e+000	-2.223153265852204e-001
1	 2.942415758057519e+000	 3.360568566694637e+000	-1.361724627508084e-001
1	 2.905163595364522e+000	 3.392824092332316e+000	-5.188340869045405e-002
1	 2.867573965513815e+000	 3.424653207985158e+000	 3.012521132196466e-002
1	 2.829654196428458e+000	 3.456050689161565e+000	 1.094552914968274e-001
1	 2.791411722183963e+000	 3.487011479119198e+000	 1.857375198026715e-001
1	 2.752854078213757e+000	 3.517530691503431e+000	 2.586316016179759e-001
1	 2.713988896438098e+000	 3.547603612821848e+000	 3.278264316583722e-001
1	 2.674823900322949e+000	 3.577225704752323e+000	 3.930402142068108e-001
1	 2.635366899875415e+000	 3.606392606282451e+000	 4.540205318034128e-001
1	 2.595625786582433e+000	 3.635100135678463e+000	 5.105443626790858e-001
1	 2.440655767508217e+000	 3.418069028881693e+000	 1.099331533918847e+000
1	 2.403027710782309e+000	 3.444626886934158e+000	 1.220244423034671e+000
1	 2.365147550385903e+000	 3.470745441682316e+000	 1.337794906766435e+000
1	 2.327022902821665e+000	 3.496421270358104e+000	 1.450902539405636e+000
1	 2.288661441927231e+000	 3.521651124484178e+000	 1.558505545163858e+000
1	 2.250070893948702e+000	 3.546431930914686e+000	 1.659562399116566e+000
1	 2.211259032598793e+000	 3.570760792710999e+000	 1.753053361252978e+000
1	 2.172233674105956e+000	 3.594634989852544e+000	 1.837981960916249e+000
1	 2.133002672260833e+000	 3.618051979783224e+000	 1.913376429069061e+000
1	 2.093573913466256e+000	 3.641009397794123e+000	 1.978291075977071e+000
1	 2.053955311797024e+000	 3.663505057243499e+000	 2.031807612064805e+000
1	 2.456152769415361e+000	 3.439772139560280e+000	 1.029608491912285e+000
1	 2.418285792447179e+000	 3.466498627364913e+000	 1.141794673621305e+000
1	 2.380165111070181e+000	 3.492783022498506e+000	 1.250769222464284e+000
1	 2.341798390148221e+000	 3.518621880460039e+000	 1.355452404112576e+000
1	 2.303193352244160e+000	 3.544011932145867e+000	 1.454783905496592e+000
1	 2.264357772662105e+000	 3.568950084897113e+000	 1.547724432536440e+000
1	 2.225299474474158e+000	 3.593433423380951e+000	 1.633257259276044e+000
1	 2.186026323538119e+000	 3.617459210305963e+000	 1.710389725679938e+000
1	 2.146546223512476e+000	 3.641024886972018e+000	 1.778154681507944e+000
1	 2.106867110874978e+000	 3.664128073655407e+000	 1.835611873844742e+000
1	 2.066996949951050e+000	 3.686766569830242e+000	 1.881849276028618e+000
1	 2.471649771322521e+000	 3.461475250238931e+000	 9.622872155124251e-001
1	 2.433543874112069e+000	 3.488370367795640e+000	 1.066206195875433e+000
1	 2.395182671754491e+000	 3.514820603314580e+000	 1.166989235709987e+000
1	 2.356573877474815e+000	 3.540822490561768e+000	 1.263572284235749e+000
1	 2.317725262561142e+000	 3.566372739807267e+000	 1.354911617013808e+000
1	 2.278644651375573e+000	 3.591468238879171e+000	 1.439985421903830e+000
1	 2.239339916349608e+000	 3.616106054050468e+000	 1.517795334756847e+000
1	 2.199818972970387e+000	 3.640283430758889e+000	 1.587367922137285e+000
1	 2.160089774764249e+000	 3.663997794160270e+000	 1.647756108528004e+000
1	 2.120160308283866e+000	 3.687246749516119e+000	 1.698040545637920e+000
1	 2.080038588105279e+000	 3.710028082416402e+000	 1.737330921602191e+000
1	 2.487146773229715e+000	 3.483178360917711e+000	 8.973708685847774e-001
1	 2.448801955777006e+000	 3.510242108226416e+000	 9.934613406388400e-001
1	 2.410200232438857e+000	 3.536858184130618e+000	 1.086419374212903e+000
1	 2.371349364801481e+000	 3.563023100663378e+000	 1.175211287522265e+000
1	 2.332257172878212e+000	 3.588733547468467e+000	 1.258824782635025e+000
1	 2.292931530089151e+000	 3.613986392860957e+000	 1.336270491392686e+000
1	 2.253380358225186e+000	 3.638778684719642e+000	 1.406583469432170e+000
1	 2.213611622402810e+000	 3.663107651211412e+000	 1.468824635696535e+000
1	 2.173633326016204e+000	 3.686970701348075e+000	 1.522082154984908e+000
1	 2.133453505692959e+000	 3.710365425376349e+000	 1.565472761260490e+000
1	 2.093080226259744e+000	 3.733289595002064e+000	 1.598143019608778e+000
1	 2.502643775136959e+000	 3.504881471596690e+000	 8.348625366288192e-001
1	 2.464060037442009e+000	 3.532113848657317e+000	 9.235428959052501e-001
1	 2.425217793123310e+000	 3.558895764946705e+000	 1.009024946772616e+000
1	 2.386124852128257e+000	 3.585223710764961e+000	 1.090319782269767e+000
1	 2.346789083195412e+000	 3.611094355129560e+000	 1.166461087947060e+000
1	 2.307218408802882e+000	 3.636504546842561e+000	 1.236506619776970e+000
1	 2.267420800100944e+000	 3.661451315388570e+000	 1.299539628564856e+000
1	 2.227404271835432e+000	 3.685931871663629e+000	 1.354670228399448e+000
1	 2.187176877268380e+000	 3.709943608535522e+000	 1.401036706847811e+000
1	 2.146746703102298e+000	 3.733484101236187e+000	 1.437806774769783e+000
1	 2.106121864414475e+000	 3.756551107587308e+000	 1.464178753801287e+000
1	 2.518140777044271e+000	 3.526584582275933e+000	 7.747652291893776e-001
1	 2.479318119107102e+000	 3.553985589088418e+000	 8.564340733688773e-001
1	 2.440235353807877e+000	 3.580933345762921e+000	 9.347721161671556e-001
1	 2.400900339455172e+000	 3.607424320866600e+000	 1.008849358538406e+000
1	 2.361320993512782e+000	 3.633455162790638e+000	 1.077759752504201e+000
1	 2.321505287516810e+000	 3.659022700824080e+000	 1.140622583363239e+000
1	 2.281461241976924e+000	 3.684123946057341e+000	 1.196583796832225e+000
1	 2.241196921268304e+000	 3.708756092115631e+000	 1.244817268867609e+000
1	 2.200720428520829e+000	 3.732916515722703e+000	 1.284526016084564e+000
1	 2.160039900511926e+000	 3.756602777095717e+000	 1.314943344860301e+000
1	 2.119163502569507e+000	 3.779812620172219e+000	 1.335333937383433e+000
1	 2.533637778951668e+000	 3.548287692955509e+000	 7.170818821795191e-001
1	 2.494576200772307e+000	 3.575857329519796e+000	 7.921184954666070e-001
1	 2.455252914492587e+000	 3.602970926579353e+000	 8.636278730361993e-001
1	 2.415675826782265e+000	 3.629624930968386e+000	 9.307527907862732e-001
1	 2.375852903830360e+000	 3.655815970451794e+000	 9.926614829156382e-001
1	 2.335792166230979e+000	 3.681540854805606e+000	 1.048548901017636e+000
1	 2.295501683853174e+000	 3.706796576726054e+000	 1.097637916567315e+000
1	 2.254989570701473e+000	 3.731580312567512e+000	 1.139180464819683e+000
1	 2.214263979773593e+000	 3.755889422909709e+000	 1.172458628303479e+000
1	 2.173333097921883e+000	 3.779721452955028e+000	 1.196785658265595e+000
1	 2.132205140724873e+000	 3.803074132756878e+000	 1.211506932594533e+000
1	 2.549134780859165e+000	 3.569990803635482e+000	 6.618153601187544e-001
1	 2.509834282437646e+000	 3.597729069951526e+000	 7.305801828928575e-001
1	 2.470270475177468e+000	 3.625008507396082e+000	 7.955600107169329e-001
1	 2.430451314109565e+000	 3.651825541070407e+000	 8.559840018677729e-001
1	 2.390384814148185e+000	 3.678176778113119e+000	 9.111084276440951e-001
1	 2.350079044945432e+000	 3.704059008787233e+000	 9.602177811979793e-001
1	 2.309542125729743e+000	 3.729469207394803e+000	 1.002625828252817e+000
1	 2.268782220134983e+000	 3.754404533019363e+000	 1.037676598050155e+000
1	 2.227807531026719e+000	 3.778862330096628e+000	 1.064745313034489e+000
1	 2.186626295332208e+000	 3.802840128814206e+000	 1.083239255954143e+000
1	 2.145246778880603e+000	 3.826335645341369e+000	 1.092598573227461e+000
1	 2.564631782766780e+000	 3.591693914315921e+000	 6.089684582900328e-001
1	 2.525092364103141e+000	 3.619600810383686e+000	 6.718035425670574e-001
1	 2.485288035862548e+000	 3.647046088213191e+000	 7.305371009922259e-001
1	 2.445226801437110e+000	 3.674026151172752e+000	 7.844980283372141e-001
1	 2.404916724466302e+000	 3.700537585774705e+000	 8.330441334432173e-001
1	 2.364365923660214e+000	 3.726577162769055e+000	 8.755630709063358e-001
1	 2.323582567606676e+000	 3.752141838063679e+000	 9.114732131724539e-001
1	 2.282574869568885e+000	 3.777228753471281e+000	 9.402244617654398e-001
1	 2.241351082280252e+000	 3.801835237283556e+000	 9.612989965379624e-001
1	 2.199919492742946e+000	 3.825958804673341e+000	 9.742119620010241e-001
1	 2.158288417036733e+000	 3.849597157925776e+000	 9.785120899557842e-001
1	 2.580128784674530e+000	 3.613397024996892e+000	 5.585439048190584e-001
1	 2.540350445768814e+000	 3.641472550816349e+000	 6.157733560347756e-001
1	 2.500305596547856e+000	 3.669083669030762e+000	 6.685284707127925e-001
1	 2.460002288764933e+000	 3.696226761275507e+000	 7.162509870028226e-001
1	 2.419448634784744e+000	 3.722898393436643e+000	 7.584135033648858e-001
1	 2.378652802375370e+000	 3.749095316751165e+000	 7.945202064810957e-001
1	 2.337623009484018e+000	 3.774814468732779e+000	 8.241075381290299e-001
1	 2.296367519003227e+000	 3.800052973923357e+000	 8.467448001782619e-001
1	 2.254894633534239e+000	 3.824808144470582e+000	 8.620346970349671e-001
1	 2.213212690154134e+000	 3.849077480532518e+000	 8.696138150228884e-001
1	 2.171330055193293e+000	 3.872858670510183e+000	 8.691530383519552e-001
1	 2.595625786582433e+000	 3.635100135678463e+000	 5.105443626790858e-001
1	 2.555608527434690e+000	 3.663344291249594e+000	 5.624747682843346e-001
1	 2.515323157233419e+000	 3.691121249848880e+000	 6.095041792568068e-001
1	 2.474777776093069e+000	 3.718427371378764e+000	 6.512000426788316e-001
1	 2.433980545103553e+000	 3.745259201099025e+000	 6.871627562708222e-001
1	 2.392939681090943e+000	 3.771613470733658e+000	 7.170261661519345e-001
1	 2.351663451361819e+000	 3.797487099402198e+000	 7.404580021428724e-001
1	 2.310160168438055e+000	 3.822877194375687e+000	 7.571602502659295e-001
1	 2.268438184788725e+000	 3.847781051657798e+000	 7.668694622577346e-001
1	 2.226505887565816e+000	 3.872196156391828e+000	 7.693570020691386e-001
1	 2.184371693350319e+000	 3.896120183094671e+000	 7.644292294840100e-001
1	 2.053955311797024e+000	 3.663505057243499e+000	 2.031807612064805e+000
1	 2.014160787468252e+000	 3.685533680363033e+000	 2.074396243773490e+000
1	 1.974192364944430e+000	 3.707096848820648e+000	 2.105894757672792e+000
1	 1.934058010402448e+000	 3.728192913598082e+000	 2.124492884480105e+000
1	 1.893765698057604e+000	 3.748820402933820e+000	 2.128457636860426e+000
1	 1.853323405364218e+000	 3.768978021749816e+000	 2.116135247706956e+000
1	 1.812739108261146e+000	 3.788664650926863e+000	 2.085952948069690e+000
1	 1.772020776467593e+000	 3.807879346431335e+000	 2.036420583429341e+000
1	 1.731176368834389e+000	 3.826621338296154e+000	 1.966132067430439e+000
1	 1.690213828755850e+000	 3.844890029459103e+000	 1.873766672598916e+000
1	 1.649141079647045e+000	 3.862684994461762e+000	 1.758090157975186e+000
1	 2.066996949951050e+000	 3.686766569830242e+000	 1.881849276028617e+000
1	 2.026949749342556e+000	 3.708935064216883e+000	 1.917629453290974e+000
1	 1.986727546368357e+000	 3.730635148526093e+000	 1.943150760071725e+000
1	 1.946338357786760e+000	 3.751865163269136e+000	 1.956716577298178e+000
1	 1.905790208445514e+000	 3.772623627339523e+000	 1.956709040458470e+000
1	 1.865091126451959e+000	 3.792909237436088e+000	 1.941590791574312e+000
1	 1.824249138388352e+000	 3.812720867333757e+000	 1.909906570378787e+000
1	 1.783272264577800e+000	 3.832057567004750e+000	 1.860284643779841e+000
1	 1.742168514406034e+000	 3.850918561593067e+000	 1.791438073101053e+000
1	 1.700945881704123e+000	 3.869303250245444e+000	 1.702165818996583e+000
1	 1.659612340197034e+000	 3.887211204802014e+000	 1.591353684334794e+000
1	 2.080038588105279e+000	 3.710028082416402e+000	 1.737330921602191e+000
1	 2.039738711217104e+000	 3.732336448070155e+000	 1.766700972835600e+000
1	 1.999262727792577e+000	 3.754173448230980e+000	 1.786718812752691e+000
1	 1.958618705171412e+000	 3.775537412939671e+000	 1.795801187252614e+000
1	 1.917814718833812e+000	 3.796426851744759e+000	 1.792443596462586e+000
1	 1.876858847540135e+000	 3.816840453121952e+000	 1.775221878390519e+000
1	 1.835759168516034e+000	 3.836777083740314e+000	 1.742793633679586e+000
1	 1.794523752688518e+000	 3.856235787577902e+000	 1.693899490853573e+000
1	 1.753160659978214e+000	 3.875215784889802e+000	 1.627364211843421e+000
1	 1.711677934652944e+000	 3.893716471031693e+000	 1.542097637979412e+000
1	 1.670083600747572e+000	 3.911737415142254e+000	 1.437095477020633e+000
1	 2.093080226259744e+000	 3.733289595002064e+000	 1.598143019608778e+000
1	 2.052527673091920e+000	 3.755737831922926e+000	 1.621486360879311e+000
1	 2.011797909217094e+000	 3.777711747935385e+000	 1.636439754783617e+000
1	 1.970899052556393e+000	 3.799209662609751e+000	 1.641533046787018e+000
1	 1.929839229222468e+000	 3.820230076149580e+000	 1.635373381502188e+000
1	 1.888626568628695e+000	 3.840771668807453e+000	 1.616646635798981e+000
1	 1.847269198644121e+000	 3.860833300146565e+000	 1.584118697230924e+000
1	 1.805775240799659e+000	 3.880414008150813e+000	 1.536636587401977e+000
1	 1.764152805550827e+000	 3.899513008186365e+000	 1.473129430283462e+000
1	 1.722409987602202e+000	 3.918129691817841e+000	 1.392609265871300e+000
1	 1.680554861298541e+000	 3.936263625482468e+000	 1.294171709945075e+000
1	 2.106121864414475e+000	 3.756551107587308e+000	 1.464178753801287e+000
1	 2.065316634967020e+000	 3.779139215775277e+000	 1.481864258188019e+000
1	 2.024333090641914e+000	 3.801250047639374e+000	 1.492158367491786e+000
1	 1.983179399941690e+000	 3.822881912279438e+000	 1.493703780679490e+000
1	 1.941863739611454e+000	 3.844033300554041e+000	 1.485217603784253e+000
1	 1.900394289717593e+000	 3.864702884492638e+000	 1.465492650043998e+000
1	 1.858779228772550e+000	 3.884889516552548e+000	 1.433398591868999e+000
1	 1.817026728911141e+000	 3.904592228723510e+000	 1.387882964422487e+000
1	 1.775144951123779e+000	 3.923810231482770e+000	 1.327972020966518e+000
1	 1.733142040551790e+000	 3.942542912603888e+000	 1.252771440486479e+000
1	 1.691026121849827e+000	 3.960789835822633e+000	 1.161466888460622e+000
1	 2.119163502569507e+000	 3.779812620172219e+000	 1.335333937383433e+000
1	 2.078105596842430e+000	 3.802540599627279e+000	 1.347716292977122e+000
1	 2.036868272067042e+000	 3.824788347343020e+000	 1.353723253157537e+000
1	 1.995459747327294e+000	 3.846554161948797e+000	 1.352110143193625e+000
1	 1.953888250000736e+000	 3.867836524958199e+000	 1.341702383649417e+000
1	 1.912162010806776e+000	 3.888634100177547e+000	 1.321396674922763e+000
1	 1.870289258901251e+000	 3.908945732958296e+000	 1.290162042401982e+000
1	 1.828278217022879e+000	 3.928770449296015e+000	 1.247040742112308e+000
1	 1.786137096696968e+000	 3.948107454779024e+000	 1.191149027069280e+000
1	 1.743874093501597e+000	 3.966956133389827e+000	 1.121677774894592e+000
1	 1.701497382401312e+000	 3.985316046162736e+000	 1.037892977580970e+000
1	 2.132205140724873e+000	 3.803074132756878e+000	 1.211506932594533e+000
1	 2.090894558718166e+000	 3.825941983479015e+000	 1.218926989547796e+000
1	 2.049403453492485e+000	 3.848326647046395e+000	 1.220986718159960e+000
1	 2.007740094713190e+000	 3.870226411617893e+000	 1.216553861205908e+000
1	 1.965912760390285e+000	 3.891639749362105e+000	 1.204560542181538e+000
1	 1.923929731896196e+000	 3.912565315862232e+000	 1.184004351418456e+000
1	 1.881799289030157e+000	 3.933001949363844e+000	 1.153949303862412e+000
1	 1.839529705134789e+000	 3.952948669868349e+000	 1.113526668402757e+000
1	 1.797129242270296e+000	 3.972404678075142e+000	 1.061935668958390e+000
1	 1.754606146451512e+000	 3.991369354175659e+000	 9.984440578378662e-001
1	 1.711968642952877e+000	 4.009842256502755e+000	 9.223885621955117e-001
1	 2.145246778880603e+000	 3.826335645341369e+000	 1.092598573227461e+000
1	 2.103683520594251e+000	 3.849343367330560e+000	 1.095383680255790e+000
1	 2.061938634918248e+000	 3.871864946749569e+000	 1.093804660384795e+000
1	 2.020020442099369e+000	 3.893898661286784e+000	 1.086841483055177e+000
1	 1.977937270780072e+000	 3.915442973765818e+000	 1.073531397527885e+000
1	 1.935697452985805e+000	 3.936496531546734e+000	 1.052969937560066e+000
1	 1.893309319159200e+000	 3.957058165769228e+000	 1.024311811027652e+000
1	 1.850781193246786e+000	 3.977126890440537e+000	 9.867716743258703e-001
1	 1.808121387843664e+000	 3.996701901371129e+000	 9.396247916657421e-001
1	 1.765338199401425e+000	 4.015782574961380e+000	 8.822075796661333e-001
1	 1.722439903504408e+000	 4.034368466842676e+000	 8.139180379158281e-001
1	 2.158288417036733e+000	 3.849597157925776e+000	 9.785120899557847e-001
1	 2.116472482470704e+000	 3.872744751181992e+000	 9.769764206718863e-001
1	 2.074473816344336e+000	 3.895403246452611e+000	 9.720364607145726e-001
1	 2.032300789485816e+000	 3.917570910955538e+000	 9.627842328721281e-001
1	 1.989961781170065e+000	 3.939246198169390e+000	 9.483605686038450e-001
1	 1.947465174075554e+000	 3.960427747231101e+000	 9.279560480762250e-001
1	 1.904819349288315e+000	 3.981114382174480e+000	 9.008118406470665e-001
1	 1.862032681358787e+000	 4.001305111012601e+000	 8.662204455015600e-001
1	 1.819113533416974e+000	 4.020999124666998e+000	 8.235263323958499e-001
1	 1.776070252351229e+000	 4.040195795746985e+000	 7.721264827105476e-001
1	 1.732911164055787e+000	 4.058894677182479e+000	 7.114708312583870e-001
1	 2.171330055193293e+000	 3.872858670510183e+000	 8.691530383519550e-001
1	 2.129261444347548e+000	 3.896146135033388e+000	 8.635979077997785e-001
1	 2.087008997770753e+000	 3.918941546155595e+000	 8.555448784290594e-001
1	 2.044581136872523e+000	 3.941243160624216e+000	 8.441978701584603e-001
1	 2.001986291560235e+000	 3.963049422572877e+000	 8.287997858716518e-001
1	 1.959232895165392e+000	 3.984358962915374e+000	 8.086334034313357e-001
1	 1.916329379417430e+000	 4.005170598579636e+000	 7.830221858418648e-001
1	 1.873284169470707e+000	 4.025483331584564e+000	 7.513310090672970e-001
1	 1.830105678990129e+000	 4.045296347962763e+000	 7.129668072230749e-001
1	 1.786802305300810e+000	 4.064609016532471e+000	 6.673791350682417e-001
1	 1.743382424606897e+000	 4.083420887522148e+000	 6.140606479301390e-001
1	 2.184371693350319e+000	 3.896120183094671e+000	 7.644292294840100e-001
1	 2.142050406224803e+000	 3.919547518884829e+000	 7.551434012235599e-001
1	 2.099544179197507e+000	 3.942479845858590e+000	 7.441959503528497e-001
1	 2.056861484259475e+000	 3.964915410292883e+000	 7.309025543962492e-001
1	 2.014010801950551e+000	 3.986852646976334e+000	 7.146067088975499e-001
1	 1.971000616255269e+000	 4.008290178599601e+000	 6.946805878518981e-001
1	 1.927839409546483e+000	 4.029226814984732e+000	 6.705258421687176e-001
1	 1.884535657582463e+000	 4.049661552156453e+000	 6.415743354050925e-001
1	 1.841097824563027e+000	 4.069593571258430e+000	 6.072888161766779e-001
1	 1.797534358250062e+000	 4.089022237317838e+000	 5.671635268197172e-001
1	 1.753853685157622e+000	 4.107947097861664e+000	 5.207247480424152e-001
1	 1.649141079647045e+000	 3.862684994461762e+000	 1.758090157975186e+000
1	 1.607959836669317e+000	 3.880008541358522e+000	 1.622424067913002e+000
1	 1.566684128643885e+000	 3.896857880884244e+000	 1.472212587833017e+000
1	 1.525321798057408e+000	 3.913233096336334e+000	 1.309429434012633e+000
1	 1.483880649957764e+000	 3.929134436186639e+000	 1.136067141531578e+000
1	 1.442368447821711e+000	 3.944562312133357e+000	 9.541339120116901e-001
1	 1.400792909513494e+000	 3.959517297036672e+000	 7.656504875510224e-001
1	 1.359161703337863e+000	 3.974000122742365e+000	 5.726470564400548e-001
1	 1.317482444190802e+000	 3.988011677797904e+000	 3.771601960550797e-001
1	 1.275762689811020e+000	 4.001553005065472e+000	 1.812298581212497e-001
1	 1.234009937135045e+000	 4.014625299236578e+000	-1.310359867557520e-002
1	 1.659612340197034e+000	 3.887211204802014e+000	 1.591353684334794e+000
1	 1.618169615936555e+000	 3.904644747972214e+000	 1.462123693481880e+000
1	 1.576631826820247e+000	 3.921601072780403e+000	 1.319665894614646e+000
1	 1.535006865130830e+000	 3.938080263052889e+000	 1.165982650711085e+000
1	 1.493302585474528e+000	 3.954082568839193e+000	 1.003078992403867e+000
1	 1.451526800622490e+000	 3.969608404451609e+000	 8.329596864462272e-001
1	 1.409687277443731e+000	 3.984658346387704e+000	 6.576263539120026e-001
1	 1.367791732933091e+000	 3.999233131140132e+000	 4.790746427785533e-001
1	 1.325847830337528e+000	 4.013333652898218e+000	 2.992914593143004e-001
1	 1.283863175383799e+000	 4.026960961145821e+000	 1.202522624592373e-001
1	 1.241845312610418e+000	 4.040116258160177e+000	-5.608157485425513e-002
1	 1.670083600747572e+000	 3.911737415142254e+000	 1.437095477020633e+000
1	 1.628379395204330e+000	 3.929280954585979e+000	 1.315162280974577e+000
1	 1.586579524997117e+000	 3.946344264676716e+000	 1.181108592950920e+000
1	 1.544691932204722e+000	 3.962927429769678e+000	 1.036945615997318e+000
1	 1.502724520991713e+000	 3.979030701492054e+000	 8.846737324175207e-001
1	 1.460685153423632e+000	 3.994654496770229e+000	 7.262797770367908e-001
1	 1.418581645374265e+000	 4.009799395739159e+000	 5.637343795315866e-001
1	 1.376421762528547e+000	 4.024466139538371e+000	 3.989893796550614e-001
1	 1.334213216484406e+000	 4.038655627999036e+000	 2.339753189360776e-001
1	 1.291963660956652e+000	 4.052368917226699e+000	 7.059901217130138e-002
1	 1.249680688085785e+000	 4.065607217084311e+000	-8.925879823145055e-002
1	 1.680554861298541e+000	 3.936263625482468e+000	 1.294171709945075e+000
1	 1.638589174472521e+000	 3.953917161199785e+000	 1.180213139587527e+000
1	 1.596527223174380e+000	 3.971087456573137e+000	 1.055066603153973e+000
1	 1.554376999278973e+000	 3.987774596486632e+000	 9.207325681538037e-001
1	 1.512146456509219e+000	 4.003978834145141e+000	 7.791898217527429e-001
1	 1.469843506225050e+000	 4.019700589089125e+000	 6.323929331530567e-001
1	 1.427476013305023e+000	 4.034940445090933e+000	 4.822698001981840e-001
1	 1.385051792124172e+000	 4.049699147936963e+000	 3.307192833374137e-001
1	 1.342578602631397e+000	 4.063977603100236e+000	 1.796089298120578e-001
1	 1.300064146529559e+000	 4.077776873307971e+000	 3.077279064850025e-002
1	 1.257516063561146e+000	 4.091098176008841e+000	-1.139906672324820e-001
1	 1.691026121849827e+000	 3.960789835822633e+000	 1.161466888460622e+000
1	 1.648798953741009e+000	 3.978553367813596e+000	 1.055982439335082e+000
1	 1.606474921351918e+000	 3.995830648469615e+000	 9.401023570306175e-001
1	 1.564062066353474e+000	 4.012621763203689e+000	 8.157970232108278e-001
1	 1.521568392026945e+000	 4.028926966798369e+000	 6.850068752859915e-001
1	 1.479001859026653e+000	 4.044746681408199e+000	 5.496400424583017e-001
1	 1.436370381235935e+000	 4.060081494442918e+000	 4.115700770216164e-001
1	 1.393681821719912e+000	 4.074932156335789e+000	 2.726337834746837e-001
1	 1.350943988778463e+000	 4.089299578201687e+000	 1.346291477197419e-001
1	 1.308164632102503e+000	 4.103184829389505e+000	-6.866316688902696e-004
1	 1.265351439036505e+000	 4.116589134933641e+000	-1.315990084065177e-001
1	 1.701497382401312e+000	 3.985316046162736e+000	 1.037892977580970e+000
1	 1.659008733009677e+000	 4.003189574427382e+000	 9.412081998984254e-001
1	 1.616422619529614e+000	 4.020573840366098e+000	 8.348136743970893e-001
1	 1.573747133428113e+000	 4.037468929920783e+000	 7.206305663417576e-001
1	 1.530990327544789e+000	 4.053875099451660e+000	 6.005443962302239e-001
1	 1.488160211828356e+000	 4.069792773727359e+000	 4.764028342836746e-001
1	 1.445264749166924e+000	 4.085222543795005e+000	 3.500135971295153e-001
1	 1.402311851315712e+000	 4.100165164734732e+000	 2.231424487776210e-001
1	 1.359309374925569e+000	 4.114621553303263e+000	 9.751130769762062e-002
1	 1.316265117675464e+000	 4.128592785471173e+000	-2.520353848654988e-002
1	 1.273186814511860e+000	 4.142080093858571e+000	-1.433731094573649e-001
1	 1.711968642952877e+000	 4.009842256502755e+000	 9.223885621955117e-001
1	 1.669218512278404e+000	 4.027825781041108e+000	 8.346593165826792e-001
1	 1.626370317707353e+000	 4.045317032262544e+000	 7.378326808248723e-001
1	 1.583432200502780e+000	 4.062316096637851e+000	 6.337616876130205e-001
1	 1.540412263062650e+000	 4.078823232104933e+000	 5.242605562494038e-001
1	 1.497318564630069e+000	 4.094838866046510e+000	 4.111026305874255e-001
1	 1.454159117097919e+000	 4.110363593147085e+000	 2.960184220468971e-001
1	 1.410941880911513e+000	 4.125398173133672e+000	 1.806937594652687e-001
1	 1.367674761072675e+000	 4.139943528404841e+000	 6.676804725272767e-002
1	 1.324365603248427e+000	 4.154000741552840e+000	-4.416736697062396e-002
1	 1.281022189987217e+000	 4.167571052783504e+000	-1.505707143630329e-001
1	 1.722439903504408e+000	 4.034368466842676e+000	 8.139180379158281e-001
1	 1.679428291547071e+000	 4.052461987654741e+000	 7.351346218031619e-001
1	 1.636318015885016e+000	 4.070060224158894e+000	 6.478247648626444e-001
1	 1.593117267577365e+000	 4.087163263354823e+000	 5.537546602010729e-001
1	 1.549834198580428e+000	 4.103771364758109e+000	 4.546510200692758e-001
1	 1.506476917431704e+000	 4.119884958365555e+000	 3.521991424739182e-001
1	 1.463053485028846e+000	 4.135504642499056e+000	 2.480410817296591e-001
1	 1.419571910507260e+000	 4.150631181532491e+000	 1.437739244878088e-001
1	 1.376040147219744e+000	 4.165265503506290e+000	 4.094817249274585e-002
1	 1.332466088821370e+000	 4.179408697634374e+000	-5.893376696369035e-002
1	 1.288857565462574e+000	 4.193062011708301e+000	-1.544189821974369e-001
1	 1.732911164055787e+000	 4.058894677182479e+000	 7.114708312583867e-001
1	 1.689638070815559e+000	 4.077098194268251e+000	 6.414619805978582e-001
1	 1.646265714062487e+000	 4.094803416055107e+000	 5.634875730645851e-001
1	 1.602802334651756e+000	 4.112010430071640e+000	 4.792084592802248e-001
1	 1.559256134098022e+000	 4.128719497411105e+000	 3.902478127025941e-001
1	 1.515635270233172e+000	 4.144931050684399e+000	 2.981893103455086e-001
1	 1.471947852959630e+000	 4.160645691850803e+000	 2.045754123210651e-001
1	 1.428201940102896e+000	 4.175864189931072e+000	 1.109057416314283e-001
1	 1.384405533366738e+000	 4.190587478607485e+000	 1.863556536707345e-002
1	 1.340566574394277e+000	 4.204816653715645e+000	-7.082562179837559e-002
1	 1.296692940937935e+000	 4.218552970632833e+000	-1.561154111894990e-001
1	 1.743382424606897e+000	 4.083420887522148e+000	 6.140606479301390e-001
1	 1.699847850083750e+000	 4.101734400881599e+000	 5.524974187356238e-001
1	 1.656213412239648e+000	 4.119546607951128e+000	 4.835500412356593e-001
1	 1.612487401725843e+000	 4.136857596788232e+000	 4.087557198712628e-001
1	 1.568678069615330e+000	 4.153667630063844e+000	 3.296182274969253e-001
1	 1.524793623034385e+000	 4.169977143002949e+000	 2.476061858526923e-001
1	 1.480842220890202e+000	 4.185786741202224e+000	 1.641514357927405e-001
1	 1.436831969698367e+000	 4.201097198329294e+000	 8.064749870254762e-002
1	 1.392770919513620e+000	 4.215909453708300e+000	-1.551869711573728e-003
1	 1.348667059967130e+000	 4.230224609796522e+000	-8.113403232314720e-002
1	 1.304528316413302e+000	 4.244043929556965e+000	-1.568287294813404e-001
1	 1.753853685157622e+000	 4.107947097861664e+000	 5.207247480424152e-001
1	 1.710057629351524e+000	 4.126370607494756e+000	 4.671242820577818e-001
1	 1.666161110416385e+000	 4.144289799846913e+000	 4.067714603801890e-001
1	 1.622172468799515e+000	 4.161704763504535e+000	 3.410617320226240e-001
1	 1.578100005132253e+000	 4.178615762716243e+000	 2.713637732989529e-001
1	 1.533951975835255e+000	 4.195023235321111e+000	 1.990178538956796e-001
1	 1.489736588820484e+000	 4.210927790553209e+000	 1.253342797199361e-001
1	 1.445461999293614e+000	 4.226330206727042e+000	 5.159191407437735e-002
1	 1.401136305660351e+000	 4.241231428808609e+000	-2.096322151086139e-002
1	 1.356767545539911e+000	 4.255632565876873e+000	-9.111926567778306e-002
1	 1.312363691888676e+000	 4.269534888480566e+000	-1.576997539771514e-001
1	 1.234009937135045e+000	 4.014625299236578e+000	-1.310359867557520e-002
1	 1.192231618162235e+000	 4.027229903250403e+000	-2.067180978282661e-001
1	 1.150435094796215e+000	 4.039368302625527e+000	-4.005940804366550e-001
1	 1.108627657420196e+000	 4.051042125731239e+000	-5.928571269136223e-001
1	 1.066816522301444e+000	 4.062253141966684e+000	-7.816488836403415e-001
1	 1.025008828498531e+000	 4.073003258861228e+000	-9.651292331134631e-001
1	 9.832116348843378e-001	 4.083294519104889e+000	-1.141478393576490e+000
1	 9.414319172861090e-001	 4.093129097513706e+000	-1.308898945829986e+000
1	 8.996765657436628e-001	 4.102509297934844e+000	-1.465617785139150e+000
1	 8.579523818866420e-001	 4.111437550096343e+000	-1.609887996380031e+000
1	 8.162660764314833e-001	 4.119916406406246e+000	-1.739990650787691e+000
1	 1.241845312610418e+000	 4.040116258160177e+000	-5.608157485425513e-002
1	 1.199801721206407e+000	 4.052800895407485e+000	-2.306948664638544e-001
1	 1.157739809819977e+000	 4.065016367838656e+000	-4.046558014558264e-001
1	 1.115666915124804e+000	 4.076764314162331e+000	-5.761504080569544e-001
1	 1.073590299208018e+000	 4.088046515012491e+000	-7.433801078269475e-001
1	 1.031517146457817e+000	 4.098864890030391e+000	-9.045638587539606e-001
1	 9.894545605675660e-001	 4.109221494876151e+000	-1.057940229210615e+000
1	 9.474095616576935e-001	 4.119118518174837e+000	-1.201769400465110e+000
1	 9.053890835164935e-001	 4.128558278401945e+000	-1.334335095662845e+000
1	 8.633999709607205e-001	 4.137543220713117e+000	-1.453946433414709e+000
1	 8.214489773166679e-001	 4.146075913722956e+000	-1.558939704347408e+000
1	 1.249680688085785e+000	 4.065607217084311e+000	-8.925879823145055e-002
1	 1.207371824250493e+000	 4.078371887565093e+000	-2.465903248108330e-001
1	 1.165044524843574e+000	 4.090664433052284e+000	-4.024482224569792e-001
1	 1.122706172829172e+000	 4.102486502593892e+000	-5.550732796723679e-001
1	 1.080364076114283e+000	 4.113839888058724e+000	-7.027212857176384e-001
1	 1.038025464416730e+000	 4.124726521199935e+000	-8.436651459438919e-001
1	 9.956974862503664e-001	 4.135148470647740e+000	-9.761969289281334e-001
1	 9.533872060288057e-001	 4.145107938836248e+000	-1.098629843119857e+000
1	 9.111016012888182e-001	 4.154607258869276e+000	-1.209300140925890e+000
1	 8.688475600342719e-001	 4.163648891330073e+000	-1.306568948379263e+000
1	 8.266318782013199e-001	 4.172235421039815e+000	-1.388824018755180e+000
1	 1.257516063561146e+000	 4.091098176008841e+000	-1.139906672324820e-001
1	 1.214941927294513e+000	 4.103942879723093e+000	-2.556013430804480e-001
1	 1.172349239867047e+000	 4.116312498266290e+000	-3.950128578202687e-001
1	 1.129745430533361e+000	 4.128208691025804e+000	-5.305150981330457e-001
1	 1.087137853020316e+000	 4.139633261105280e+000	-6.604128355581966e-001
1	 1.044533782375364e+000	 4.150588152369766e+000	-7.830278133834715e-001
1	 1.001940411932846e+000	 4.161075446419582e+000	-8.967007658503190e-001
1	 9.593648503995635e-001	 4.171097359497876e+000	-9.997933674100439e-001
1	 9.168141190607630e-001	 4.180656239336789e+000	-1.090690109983711e+000
1	 8.742951491074287e-001	 4.189754561947185e+000	-1.167800106396222e+000
1	 8.318147790855722e-001	 4.198394928356807e+000	-1.229558818370306e+000
1	 1.265351439036505e+000	 4.116589134933641e+000	-1.315990084065177e-001
1	 1.222512030338490e+000	 4.129513871881357e+000	-2.588951461948741e-001
1	 1.179653954890438e+000	 4.141960563480546e+000	-3.833654246471006e-001
1	 1.136784688237430e+000	 4.153930879457953e+000	-5.033431913367058e-001
1	 1.093911629926193e+000	 4.165426634152050e+000	-6.171768361689857e-001
1	 1.051042100333812e+000	 4.176449783539791e+000	-7.232318491809922e-001
1	 1.008183337615113e+000	 4.187002422191598e+000	-8.198928107424724e-001
1	 9.653424947700848e-001	 4.197086780159657e+000	-9.055653119339715e-001
1	 9.225266368324550e-001	 4.206705219804440e+000	-9.786778030955533e-001
1	 8.797427381803220e-001	 4.215860232564422e+000	-1.037683368755255e+000
1	 8.369976799695580e-001	 4.224554435673912e+000	-1.081061427361714e+000
1	 1.273186814511860e+000	 4.142080093858571e+000	-1.433731094573649e-001
1	 1.230082133382446e+000	 4.155084864039749e+000	-2.576102259941024e-001
1	 1.186958669913788e+000	 4.167608628694931e+000	-3.684966365608868e-001
1	 1.143823945941438e+000	 4.179653067890218e+000	-4.744035365375475e-001
1	 1.100685406831993e+000	 4.191220007198933e+000	-5.737175912620905e-001
1	 1.057550418292166e+000	 4.202311414709921e+000	-6.648429641236107e-001
1	 1.014426263297272e+000	 4.212929397963711e+000	-7.462032767183096e-001
1	 9.713201391404883e-001	 4.223076200821531e+000	-8.162434988998086e-001
1	 9.282391546040201e-001	 4.232754200272183e+000	-8.734317667707077e-001
1	 8.851903272530837e-001	 4.241965903181751e+000	-9.162611268787946e-001
1	 8.421805808534107e-001	 4.250713942991123e+000	-9.432512050951418e-001
1	 1.281022189987217e+000	 4.167571052783504e+000	-1.505707143630329e-001
1	 1.237652236426401e+000	 4.180655856198142e+000	-2.528572199656632e-001
1	 1.194263384937138e+000	 4.193256693909315e+000	-3.513729683760748e-001
1	 1.150863203645447e+000	 4.205375256322488e+000	-4.445214133024340e-001
1	 1.107459183737794e+000	 4.217013380245822e+000	-5.307221730487630e-001
1	 1.064058736250521e+000	 4.228173045880062e+000	-6.084130283135413e-001
1	 1.020669188979431e+000	 4.238856373735841e+000	-6.760518512941189e-001
1	 9.772977835108917e-001	 4.249065621483434e+000	-7.321184639954477e-001
1	 9.339516723755856e-001	 4.258803180739968e+000	-7.751164238587318e-001
1	 8.906379163258454e-001	 4.268071573799145e+000	-8.035747350410566e-001
1	 8.473634817372635e-001	 4.276873450308417e+000	-8.160494838915792e-001
1	 1.288857565462574e+000	 4.193062011708301e+000	-1.544189821974369e-001
1	 1.245222339470378e+000	 4.206226848356404e+000	-2.457197579219054e-001
1	 1.201568099960529e+000	 4.218904759123572e+000	-3.329373928752472e-001
1	 1.157902461349516e+000	 4.231097444754642e+000	-4.145020326499419e-001
1	 1.114232960643672e+000	 4.242806753292610e+000	-4.888609460180333e-001
1	 1.070567054208968e+000	 4.254034677050119e+000	-5.544804918775780e-001
1	 1.026912114661697e+000	 4.264783349507913e+000	-6.098480163308289e-001
1	 9.832754278814129e-001	 4.275055042145303e+000	-6.534736778737952e-001
1	 9.396641901472774e-001	 4.284852161207753e+000	-6.838921988945236e-001
1	 8.960855053987386e-001	 4.294177244416568e+000	-6.996645418937253e-001
1	 8.525463826212495e-001	 4.303032957625781e+000	-6.993795090560094e-001
1	 1.296692940937935e+000	 4.218552970632833e+000	-1.561154111894990e-001
1	 1.252792442514398e+000	 4.231797840514404e+000	-2.372552779806100e-001
1	 1.208872814984003e+000	 4.244552824337582e+000	-3.141100908739769e-001
1	 1.164941719053705e+000	 4.256819633186567e+000	-3.851311433796071e-001
1	 1.121006737549705e+000	 4.268600126339194e+000	-4.487880717257107e-001
1	 1.077075372167602e+000	 4.279896308220005e+000	-5.035707904235200e-001
1	 1.033155040344177e+000	 4.290710325279848e+000	-5.479913563765269e-001
1	 9.892530722521710e-001	 4.301044462807080e+000	-5.805857596078967e-001
1	 9.453767079192226e-001	 4.310901141675489e+000	-5.999156388988919e-001
1	 9.015330944718958e-001	 4.320282915033996e+000	-6.045699208485680e-001
1	 8.577292835055018e-001	 4.329192464943202e+000	-5.931663810804633e-001
1	 1.304528316413302e+000	 4.244043929556965e+000	-1.568287294813404e-001
1	 1.260362545558484e+000	 4.257368832672011e+000	-2.284958131394679e-001
1	 1.216177530007600e+000	 4.270200889551217e+000	-2.957891356965288e-001
1	 1.171980976758073e+000	 4.282541821618144e+000	-3.571756165504896e-001
1	 1.127780514455969e+000	 4.294393499385466e+000	-4.111419953917962e-001
1	 1.083583690126516e+000	 4.305757939389624e+000	-4.561967358849386e-001
1	 1.039397966026978e+000	 4.316637301051570e+000	-4.908718558969494e-001
1	 9.952307166232832e-001	 4.327033883468698e+000	-5.137246824536801e-001
1	 9.510892256915473e-001	 4.336950122143129e+000	-5.233395298257679e-001
1	 9.069806835454475e-001	 4.346388585651394e+000	-5.183292993651710e-001
1	 8.629121843901537e-001	 4.355351972260664e+000	-4.973369999299047e-001
1	 1.312363691888676e+000	 4.269534888480566e+000	-1.576997539771514e-001
1	 1.267932648602657e+000	 4.282939824829096e+000	-2.204487496734769e-001
1	 1.223482245031362e+000	 4.295848954764351e+000	-2.788511531319252e-001
1	 1.179020234462681e+000	 4.308264010049258e+000	-3.313840090221812e-001
1	 1.134554291362543e+000	 4.320186872431324e+000	-3.765459150667522e-001
1	 1.090092008085802e+000	 4.331619570558885e+000	-4.128588933648204e-001
1	 1.045640891710207e+000	 4.342564276823000e+000	-4.388701858584087e-001
1	 1.001208360994868e+000	 4.353023304130100e+000	-4.531539722417247e-001
1	 9.568017434643784e-001	 4.362999102610631e+000	-4.543130088380192e-001
1	 9.124282726195264e-001	 4.372494256268734e+000	-4.409801871894863e-001
1	 8.680950852753387e-001	 4.381511479578151e+000	-4.118200113239806e-001
1	 8.162660764314833e-001	 4.119916406406246e+000	-1.739990650787691e+000
1	 7.746305074992252e-001	 4.127947367894609e+000	-1.854599726687103e+000
1	 7.330459304817431e-001	 4.135534529605870e+000	-1.951435523044694e+000
1	 6.915187573703863e-001	 4.142680794474464e+000	-2.027315752826021e+000
1	 6.500553007098926e-001	 4.149389174776561e+000	-2.079062500539540e+000
1	 6.086617716998241e-001	 4.155662788750935e+000	-2.103507190382602e+000
1	 5.673442784153456e-001	 4.161504857197135e+000	-2.097495421603356e+000
1	 5.261088241467282e-001	 4.166918700055335e+000	-2.057891665448268e+000
1	 4.849613058567833e-001	 4.171907732972208e+000	-1.981583818548718e+000
1	 4.439075127552812e-001	 4.176475463857043e+000	-1.865487608083095e+000
1	 4.029531249892537e-001	 4.180625489432248e+000	-1.706550844528935e+000
1	 8.214489773166679e-001	 4.146075913722956e+000	-1.558939704347407e+000
1	 7.795490423483210e-001	 4.154157867992348e+000	-1.647733947662769e+000
1	 7.377004230691655e-001	 4.161793204567331e+000	-1.718111999864233e+000
1	 6.959095721836315e-001	 4.168984844814609e+000	-1.767435791673625e+000
1	 6.541828423181021e-001	 4.175735820136896e+000	-1.793073603610160e+000
1	 6.125264841102901e-001	 4.182049268572324e+000	-1.792404165897830e+000
1	 5.709466444187197e-001	 4.187928431371007e+000	-1.762820644793088e+000
1	 5.294493646516879e-001	 4.193376649553178e+000	-1.701734510777531e+000
1	 4.880405792149032e-001	 4.198397360453264e+000	-1.606579284465996e+000
1	 4.467261140768532e-001	 4.202994094254131e+000	-1.474814156484770e+000
1	 4.055116854507895e-001	 4.207170470515677e+000	-1.303927477974569e+000
1	 8.266318782013199e-001	 4.172235421039815e+000	-1.388824018755180e+000
1	 7.844675771968941e-001	 4.180368368090208e+000	-1.454296366028852e+000
1	 7.423549156560880e-001	 4.188051879528886e+000	-1.500873817816967e+000
1	 7.003003869964152e-001	 4.195288895154834e+000	-1.526421014813072e+000
1	 6.583103839259004e-001	 4.202082465497299e+000	-1.528810734293205e+000
1	 6.163911965204050e-001	 4.208435748393773e+000	-1.505927184968980e+000
1	 5.745490104218138e-001	 4.214352005544933e+000	-1.455669206156023e+000
1	 5.327899051564466e-001	 4.219834599051071e+000	-1.375953367697804e+000
1	 4.911198525729089e-001	 4.224886987934367e+000	-1.264716967418551e+000
1	 4.495447153984033e-001	 4.229512724651257e+000	-1.119920923209644e+000
1	 4.080702459124012e-001	 4.233715451599140e+000	-9.395525571818449e-001
1	 8.318147790855722e-001	 4.198394928356807e+000	-1.229558818370305e+000
1	 7.893861120450738e-001	 4.206578868188182e+000	-1.274067986634267e+000
1	 7.470094082426367e-001	 4.214310554490549e+000	-1.299355181731858e+000
1	 7.046912018088525e-001	 4.221592945495158e+000	-1.303746996135553e+000
1	 6.624379255333894e-001	 4.228429110857805e+000	-1.285579755875719e+000
1	 6.202559089302573e-001	 4.234822228215324e+000	-1.243202072809469e+000
1	 5.781513764246974e-001	 4.240775579718958e+000	-1.174977317804650e+000
1	 5.361304456610546e-001	 4.246292548549061e+000	-1.079286012196181e+000
1	 4.941991259308284e-001	 4.251376615415560e+000	-9.545281351381028e-001
1	 4.523633167199370e-001	 4.256031355048466e+000	-7.991253447380887e-001
1	 4.106288063740698e-001	 4.260260432682667e+000	-6.115231111218292e-001
1	 8.369976799695580e-001	 4.224554435673912e+000	-1.081061427361714e+000
1	 7.943046468929926e-001	 4.232789368286274e+000	-1.106835238621769e+000
1	 7.516639008289354e-001	 4.240569229452330e+000	-1.113199356822664e+000
1	 7.090820166210595e-001	 4.247896995835609e+000	-1.098902299048117e+000
1	 6.665654671406729e-001	 4.254775756218444e+000	-1.062703724724091e+000
1	 6.241206213399340e-001	 4.261208708037016e+000	-1.003376307076710e+000
1	 5.817537424274406e-001	 4.267199153893131e+000	-9.197075408240856e-001
1	 5.394709861655621e-001	 4.272750498047200e+000	-8.105014842985943e-001
1	 4.972783992886910e-001	 4.277866242896893e+000	-6.745804344001407e-001
1	 4.551819180414601e-001	 4.282549985445800e+000	-5.107865329824698e-001
1	 4.131873668357765e-001	 4.286805413766292e+000	-3.179833034732713e-001
1	 8.421805808534107e-001	 4.250713942991123e+000	-9.432512050951413e-001
1	 7.992231817407801e-001	 4.258999868384476e+000	-9.523898085183138e-001
1	 7.563183934151097e-001	 4.266827904414243e+000	-9.420583898931768e-001
1	 7.134728314331505e-001	 4.274201046176210e+000	-9.113880767767630e-001
1	 6.706930087478533e-001	 4.281122401579250e+000	-8.595223612404628e-001
1	 6.279853337495228e-001	 4.287595187858888e+000	-7.856183516106935e-001
1	 5.853561084301144e-001	 4.293622728067493e+000	-6.888479744950853e-001
1	 5.428115266700191e-001	 4.299208447545526e+000	-5.683991260527108e-001
1	 5.003576726465248e-001	 4.304355870378411e+000	-4.234767716144007e-001
1	 4.580005193629775e-001	 4.309068615843296e+000	-2.533039929039851e-001
1	 4.157459272975020e-001	 4.313350394850049e+000	-5.712298225356671e-002
1	 8.473634817372635e-001	 4.276873450308417e+000	-8.160494838915793e-001
1	 8.041417165885677e-001	 4.285210368482794e+000	-8.105284794509635e-001
1	 7.609728860012833e-001	 4.293086579376299e+000	-7.855928407740510e-001
1	 7.178636462452421e-001	 4.300505096516986e+000	-7.407176873380600e-001
1	 6.748205503550336e-001	 4.307469046940256e+000	-6.753915402345443e-001
1	 6.318500461591116e-001	 4.313981667680984e+000	-5.891170146237019e-001
1	 5.889584744327882e-001	 4.320046302242091e+000	-4.814114752717753e-001
1	 5.461520671744763e-001	 4.325666397044095e+000	-3.518076548158922e-001
1	 5.034369460043586e-001	 4.330845497860159e+000	-1.998542344965696e-001
1	 4.608191206844949e-001	 4.335587246240999e+000	-2.511638719168602e-002
1	 4.183044877592278e-001	 4.339895375933969e+000	 1.728237173231619e-001
1	 8.525463826212495e-001	 4.303032957625781e+000	-6.993795090560094e-001
1	 8.090602514364863e-001	 4.311420868581226e+000	-6.810529762274675e-001
1	 7.656273785875825e-001	 4.319345254338512e+000	-6.434715235557120e-001
1	 7.222544610574486e-001	 4.326809146857957e+000	-5.864163225550106e-001
1	 6.789480919623173e-001	 4.333815692301495e+000	-5.096827998846290e-001
1	 6.357147585687886e-001	 4.340368147503341e+000	-4.130808303006592e-001
1	 5.925608404355318e-001	 4.346469876416971e+000	-2.964349042478945e-001
1	 5.494926076789838e-001	 4.352124346542950e+000	-1.595842703458729e-001
1	 5.065162193622209e-001	 4.357335125342182e+000	-2.383053073097385e-003
1	 4.636377220060178e-001	 4.362105876638946e+000	 1.752996539990390e-001
1	 4.208630482209342e-001	 4.366440357018084e+000	 3.735797190259150e-001
1	 8.577292835055018e-001	 4.329192464943202e+000	-5.931663810804634e-001
1	 8.139787862846666e-001	 4.337631368679769e+000	-5.637698160335721e-001
1	 7.702818711741309e-001	 4.345603929300892e+000	-5.153712572029197e-001
1	 7.266452758698863e-001	 4.353113197199152e+000	-4.480206505231205e-001
1	 6.830756335698065e-001	 4.360162337663001e+000	-3.617828685014094e-001
1	 6.395794709786408e-001	 4.366754627326001e+000	-2.567374628198740e-001
1	 5.961632064384156e-001	 4.372893450592176e+000	-1.329784019065392e-001
1	 5.528331481835914e-001	 4.378582296042137e+000	 9.386205735739117e-003
1	 5.095954927201408e-001	 4.383824752824524e+000	 1.702344016448037e-001
1	 4.664563233275514e-001	 4.388624507037182e+000	 3.494306801543935e-001
1	 4.234216086826028e-001	 4.392985338102427e+000	 5.468263029802287e-001
1	 8.629121843901537e-001	 4.355351972260664e+000	-4.973369999299047e-001
1	 8.188973211332394e-001	 4.363841868778422e+000	-4.584901645108053e-001
1	 7.749363637610540e-001	 4.371862604263454e+000	-4.009766251567323e-001
1	 7.310360906826702e-001	 4.379417247540587e+000	-3.250784709612192e-001
1	 6.872031751776049e-001	 4.386508983024807e+000	-2.310932083462143e-001
1	 6.434441833887559e-001	 4.393141107149004e+000	-1.193331318515169e-001
1	 5.997655724415095e-001	 4.399317024767750e+000	 9.875310993713526e-003
1	 5.561736886883503e-001	 4.405040245541704e+000	 1.561921594681170e-001
1	 5.126747660781463e-001	 4.410314380307237e+000	 3.192645829015143e-001
1	 4.692749246491018e-001	 4.415143137435746e+000	 4.987275261709515e-001
1	 4.259801691442147e-001	 4.419530319187035e+000	 6.942043562871423e-001
1	 8.680950852753387e-001	 4.381511479578151e+000	-4.118200113239805e-001
1	 8.238158559823360e-001	 4.390052368877188e+000	-3.650296969899903e-001
1	 7.795908563484765e-001	 4.398121279226207e+000	-2.999797435480609e-001
1	 7.354269054959162e-001	 4.405721297882296e+000	-2.171483829084619e-001
1	 6.913307167858148e-001	 4.412855628386947e+000	-1.170295757908185e-001
1	 6.473088957992225e-001	 4.419527586972392e+000	-1.320586362561493e-004
1	 6.033679384448840e-001	 4.425740598943745e+000	 1.330216074886118e-001
1	 5.595142291933103e-001	 4.431498195041699e+000	 2.818959843601402e-001
1	 5.157540394362666e-001	 4.436804007790360e+000	 4.459436988600319e-001
1	 4.720935259706737e-001	 4.441661767834682e+000	 6.246063785129099e-001
1	 4.285387296057504e-001	 4.446075300271935e+000	 8.173155788418126e-001
1	 4.029531249892537e-001	 4.180625489432248e+000	-1.706550844528935e+000
1	 3.620976067863625e-001	 4.184362021505856e+000	-1.507180611711939e+000
1	 3.213526407327570e-001	 4.187688172694504e+000	-1.268516513371746e+000
1	 2.807236575465114e-001	 4.190607788155260e+000	-9.855233747865883e-001
1	 2.402159721721483e-001	 4.193124788175179e+000	-6.531377453166933e-001
1	 1.998347830423373e-001	 4.195243164716059e+000	-2.662768418279229e-001
1	 1.595851714486665e-001	 4.196966977977437e+000	 1.801527276896642e-001
1	 1.194721010194024e-001	 4.198300352981236e+000	 6.912464693863809e-001
1	 7.950041730205061e-002	 4.199247476181253e+000	 1.272093745965433e+000
1	 3.967484744844418e-002	 4.199812592100591e+000	 1.927769763704541e+000
1	 0.000000000000000e+000	 4.200000000000000e+000	 2.663327810755467e+000
1	 4.055116854507895e-001	 4.207170470515677e+000	-1.303927477974569e+000
1	 3.643967541624681e-001	 4.210930727788930e+000	-1.096088106017900e+000
1	 3.233930769768961e-001	 4.214277998454133e+000	-8.526669812136480e-001
1	 2.825061190946215e-001	 4.217216152083235e+000	-5.698591430491227e-001
1	 2.417412292075342e-001	 4.219749133855213e+000	-2.438199649232320e-001
1	 2.011036387558757e-001	 4.221880961078892e+000	 1.293274648023417e-001
1	 1.605984612950167e-001	 4.223615719734106e+000	 5.534851180489795e-001
1	 1.202306919698994e-001	 4.224957561034675e+000	 1.032572966923140e+000
1	 8.000520709494927e-002	 4.225910698016350e+000	 1.570522095983594e+000
1	 3.992676383716256e-002	 4.226479402152904e+000	 2.171267993938029e+000
1	 0.000000000000000e+000	 4.226668000003317e+000	 2.838744031194275e+000
1	 4.080702459124012e-001	 4.233715451599140e+000	-9.395525571818448e-001
1	 3.666959015387500e-001	 4.237499434072024e+000	-7.255405656181639e-001
1	 3.254335132213082e-001	 4.240867824213765e+000	-4.794309841924962e-001
1	 2.842885806430894e-001	 4.243824516011195e+000	-1.985287803207989e-001
1	 2.432664862433434e-001	 4.246373479535219e+000	 1.199100090626761e-001
1	 2.023724944698763e-001	 4.248518757441677e+000	 4.786723421752193e-001
1	 1.616117511418334e-001	 4.250264461490711e+000	 8.805823364851795e-001
1	 1.209892829208262e-001	 4.251614769088036e+000	 1.328495539869513e+000
1	 8.050999688819228e-002	 4.252573919851357e+000	 1.825293315958075e+000
1	 4.017868022608438e-002	 4.253146212205120e+000	 2.373877350293036e+000
1	 0.000000000000000e+000	 4.253336000006534e+000	 2.977164283434583e+000
1	 4.106288063740698e-001	 4.260260432682667e+000	-6.115231111218293e-001
1	 3.689950489151643e-001	 4.264068140355160e+000	-3.934125443904153e-001
1	 3.274739494659247e-001	 4.267457649973410e+000	-1.464640941180831e-001
1	 2.860710421918256e-001	 4.270432879939134e+000	 1.310254300350993e-001
1	 2.447917432794700e-001	 4.272997825215165e+000	 4.408153169802456e-001
1	 2.036413501842233e-001	 4.275156553804367e+000	 7.847163491996207e-001
1	 1.626250409890001e-001	 4.276913203247188e+000	 1.164586246881802e+000
1	 1.217478738720753e-001	 4.278271977141238e+000	 1.582325168079098e+000
1	 8.101478668169354e-002	 4.279237141686182e+000	 2.039871271410191e+000
1	 4.043059661515872e-002	 4.279813022257143e+000	 2.539196347462957e+000
1	 0.000000000000000e+000	 4.280004000009551e+000	 3.082301524683977e+000
1	 4.131873668357765e-001	 4.286805413766292e+000	-3.179833034732713e-001
1	 3.712941962916669e-001	 4.290636846638358e+000	-9.763124140769441e-002
1	 3.295143857106780e-001	 4.294047475733071e+000	 1.485200480356180e-001
1	 2.878535037407407e-001	 4.297041243867040e+000	 4.212978525476689e-001
1	 2.463170003158082e-001	 4.299622170895024e+000	 7.215906589197112e-001
1	 2.049102058988012e-001	 4.301794350166916e+000	 1.050344764211364e+000
1	 1.636383308364001e-001	 4.303561945003477e+000	 1.408560892267060e+000
1	 1.225064648235393e-001	 4.304929185194208e+000	 1.797290821715681e+000
1	 8.151957647536698e-002	 4.305900363520742e+000	 2.217634031345579e+000
1	 4.068251300433474e-002	 4.306479832308872e+000	 2.670734368499586e+000
1	 0.000000000000000e+000	 4.306672000012267e+000	 3.157776745881296e+000
1	 4.157459272975020e-001	 4.313350394850049e+000	-5.712298225356649e-002
1	 3.735933436682134e-001	 4.317205552921639e+000	 1.638251189923347e-001
1	 3.315548219554993e-001	 4.320637301492754e+000	 4.077515189605750e-001
1	 2.896359652897452e-001	 4.323649607794900e+000	 6.747214490284729e-001
1	 2.478422573522522e-001	 4.326246516574763e+000	 9.648644006781102e-001
1	 2.061790616134947e-001	 4.328432146529278e+000	 1.278371839869203e+000
1	 1.646516206839167e-001	 4.330210686759510e+000	 1.615494889417651e+000
1	 1.232650557751107e-001	 4.331586393246864e+000	 1.976541984750354e+000
1	 8.202436626912654e-002	 4.332563585354944e+000	 2.361876508274485e+000
1	 4.093442939356163e-002	 4.333146642360212e+000	 2.771914407457393e+000
1	 0.000000000000000e+000	 4.333340000014585e+000	 3.207121801564152e+000
1	 4.183044877592278e-001	 4.339895375933969e+000	 1.728237173231619e-001
1	 3.758924910447601e-001	 4.343774259205020e+000	 3.929288476882057e-001
1	 3.335952582003206e-001	 4.347227127252465e+000	 6.334058342698735e-001
1	 2.914184268387496e-001	 4.350257971722702e+000	 8.936696564209347e-001
1	 2.493675143886962e-001	 4.352870862254360e+000	 1.173200602428539e+000
1	 2.074479173281881e-001	 4.355069942891406e+000	 1.471542975298395e+000
1	 1.656649105314333e-001	 4.356859428515224e+000	 1.788303735582738e+000
1	 1.240236467266820e-001	 4.358243601299130e+000	 2.123151085848642e+000
1	 8.252915606288601e-002	 4.359226807188695e+000	 2.475813001345858e+000
1	 4.118634578278849e-002	 4.359813452411068e+000	 2.846075711385550e+000
1	 0.000000000000000e+000	 4.360008000016401e+000	 3.233782135883562e+000
1	 4.208630482209342e-001	 4.366440357018084e+000	 3.735797190259151e-001
1	 3.781916384212625e-001	 4.370342965488526e+000	 5.916042943354887e-001
1	 3.356356944450737e-001	 4.373816953012210e+000	 8.276056069686104e-001
1	 2.932008883876646e-001	 4.376866335650437e+000	 1.080458196153395e+000
1	 2.508927714250344e-001	 4.379495207933778e+000	 1.349100973391996e+000
1	 2.087167730427661e-001	 4.381707739253251e+000	 1.632536809003316e+000
1	 1.666782003788331e-001	 4.383508170270559e+000	 1.929832031068287e+000
1	 1.247822376781459e-001	 4.384900809350929e+000	 2.240115840588988e+000
1	 8.303394585655943e-002	 4.385890029021909e+000	 2.562579646718495e+000
1	 4.143826217196451e-002	 4.386480262461337e+000	 2.896476325951034e+000
1	 0.000000000000000e+000	 4.386676000017618e+000	 3.241119409184344e+000
1	 4.234216086826028e-001	 4.392985338102427e+000	 5.468263029802287e-001
1	 3.804907857976769e-001	 4.396911671772175e+000	 7.617292964152684e-001
1	 3.376761306896904e-001	 4.400406778771993e+000	 9.924221457959541e-001
1	 2.949833499364008e-001	 4.403474699578092e+000	 1.237346817893212e+000
1	 2.524180284611608e-001	 4.406119553612993e+000	 1.495006755641406e+000
1	 2.099856287571130e-001	 4.408345535614769e+000	 1.763967235900539e+000
1	 1.676914902259998e-001	 4.410156912025449e+000	 2.042855621240348e+000
1	 1.255408286293950e-001	 4.411558017402181e+000	 2.330361508762755e+000
1	 8.353873565006062e-002	 4.412553250854495e+000	 2.625236779092587e+000
1	 4.169017856103882e-002	 4.413147072510927e+000	 2.926295548768843e+000
1	 0.000000000000000e+000	 4.413344000018133e+000	 3.232414029358000e+000
1	 4.259801691442147e-001	 4.419530319187035e+000	 6.942043562871423e-001
1	 3.827899331739588e-001	 4.423480378055991e+000	 9.051365760621870e-001
1	 3.397165669341023e-001	 4.426996604531820e+000	 1.129876995966634e+000
1	 2.967658114848686e-001	 4.430083063505656e+000	 1.366540980459788e+000
1	 2.539432854969698e-001	 4.432743899291977e+000	 1.613300540017747e+000
1	 2.112544844711133e-001	 4.434983331975911e+000	 1.868385351662460e+000
1	 1.687047800728163e-001	 4.436805653779831e+000	 2.130083661335465e+000
1	 1.262994195803216e-001	 4.438215225452805e+000	 2.396743070326471e+000
1	 8.404352544330351e-002	 4.439216472686363e+000	 2.666771208137280e+000
1	 4.194209494996055e-002	 4.439813882559739e+000	 2.938636294319775e+000
1	 0.000000000000000e+000	 4.440012000017850e+000	 3.210867591971280e+000
1	 4.285387296057504e-001	 4.446075300271935e+000	 8.173155788418126e-001
1	 3.850890805500644e-001	 4.450049084339992e+000	 1.023615086854414e+000
1	 3.417570031782413e-001	 4.453586430291699e+000	 1.241943424719073e+000
1	 2.985482730329786e-001	 4.456691427433116e+000	 1.470193472523103e+000
1	 2.554685425323556e-001	 4.459368244970696e+000	 1.706308016995249e+000
1	 2.125233401846516e-001	 4.461621128336632e+000	 1.948281327409737e+000
1	 1.697180699191663e-001	 4.463454395533639e+000	 2.194160607304284e+000
1	 1.270580105308184e-001	 4.464872433502730e+000	 2.442047323405669e+000
1	 8.454831523620206e-002	 4.465879694517425e+000	 2.690098413370580e+000
1	 4.219401133867887e-002	 4.466480692607676e+000	 2.936527374151093e+000
1	 0.000000000000000e+000	 4.466680000016666e+000	 3.179605232983144e+000
1	 4.466680000016666e+000	 0.000000000000000e+000	-5.353130968639037e-001
1	 4.466480692607676e+000	 4.219401133867760e-002	-4.620416868631635e-001
1	 4.465879694517425e+000	 8.454831523620093e-002	-3.911766059074112e-001
1	 4.464872433502732e+000	 1.270580105308175e-001	-3.229811462631305e-001
1	 4.463454395533638e+000	 1.697180699191654e-001	-2.577653133858948e-001
1	 4.461621128336632e+000	 2.125233401846509e-001	-1.958866741478451e-001
1	 4.459368244970697e+000	 2.554685425323549e-001	-1.377511550172468e-001
1	 4.456691427433116e+000	 2.985482730329781e-001	-8.381378699630759e-002
1	 4.453586430291699e+000	 3.417570031782409e-001	-3.457939412363881e-002
1	 4.450049084339993e+000	 3.850890805500640e-001	 9.396777643283394e-003
1	 4.446075300271936e+000	 4.285387296057502e-001	 4.750849433254228e-002
1	 4.493344001125477e+000	 0.000000000000000e+000	-6.117589751375875e-001
1	 4.493143503944068e+000	 4.244588995207978e-002	-5.402274003575980e-001
1	 4.492538918175069e+000	 8.505302933503606e-002	-4.701650424287681e-001
1	 4.491525644281116e+000	 1.278164877294522e-001	-4.019774239497860e-001
1	 4.490099141285576e+000	 1.707312078212957e-001	-3.361057348912562e-001
1	 4.488254930336909e+000	 2.137920056316579e-001	-2.730271916884214e-001
1	 4.485988598306078e+000	 2.569935708536612e-001	-2.132553500807288e-001
1	 4.483295801413886e+000	 3.003304672990533e-001	-1.573403695316050e-001
1	 4.480172268884856e+000	 3.437971334569229e-001	-1.058692270890520e-001
1	 4.476613806624297e+000	 3.873878831668750e-001	-5.946587858174857e-002
1	 4.472616300914867e+000	 4.310969064089001e-001	-1.879136508634516e-002
1	 4.520008008899155e+000	 0.000000000000000e+000	-6.564333548020461e-001
1	 4.519806321945046e+000	 4.269776862821970e-002	-5.886973518975277e-001
1	 4.519198148496462e+000	 8.555774355965609e-002	-5.215167334287044e-001
1	 4.518178861721836e+000	 1.285749651172135e-001	-4.554113928831416e-001
1	 4.516743893697839e+000	 1.717443459761730e-001	-3.909272261469458e-001
1	 4.514888738994899e+000	 2.150606713952958e-001	-3.286360750769531e-001
1	 4.512608958295946e+000	 2.585185995557295e-001	-2.691356284945647e-001
1	 4.509900182045276e+000	 3.021126620102522e-001	-2.130492793229273e-001
1	 4.506758114124131e+000	 3.458372642453048e-001	-1.610259366385824e-001
1	 4.503178535549549e+000	 3.896866863581595e-001	-1.137397914638071e-001
1	 4.499157308192906e+000	 4.336550838514770e-001	-7.189003518597736e-002
1	 4.546672030003567e+000	 0.000000000000000e+000	-6.738034419613516e-001
1	 4.546469153276179e+000	 4.294964743008928e-002	-6.114446756160564e-001
1	 4.545857392146254e+000	 8.606245803627631e-002	-5.487819097328300e-001
1	 4.544832092488003e+000	 1.293334428837648e-001	-4.864220090486253e-001
1	 4.543388659431392e+000	 1.727574846371274e-001	-4.249895394307253e-001
1	 4.541522560968784e+000	 2.163293377927727e-001	-3.651263687767793e-001
1	 4.539229331595074e+000	 2.600436290198506e-001	-3.074912288921675e-001
1	 4.536504575978026e+000	 3.038948576121461e-001	-2.527592378165870e-001
1	 4.533343972655577e+000	 3.478773960534281e-001	-2.016213821394030e-001
1	 4.529743277756489e+000	 3.919854906986115e-001	-1.547839589147972e-001
1	 4.525698328740826e+000	 4.362132625730023e-001	-1.129679768631121e-001
1	 4.573336071104578e+000	 0.000000000000000e+000	-6.682322641087992e-001
1	 4.573132004603026e+000	 4.320152642068041e-002	-6.123693838985282e-001
1	 4.572516655789086e+000	 8.656717289111186e-002	-5.554280100606281e-001
1	 4.571485343242732e+000	 1.300919212187695e-001	-4.980750280596791e-001
1	 4.570033445147192e+000	 1.737706240574890e-001	-4.409880701867691e-001
1	 4.568156402916755e+000	 2.175980051412969e-001	-3.848548458878970e-001
1	 4.565849724858240e+000	 2.615686596273152e-001	-3.303724365065895e-001
1	 4.563108989862871e+000	 3.056770545503059e-001	-2.782465545263739e-001
1	 4.559929851125255e+000	 3.499175293913336e-001	-2.291907674797469e-001
1	 4.556308039885855e+000	 3.942842967629247e-001	-1.839256867741898e-001
1	 4.552239369193410e+000	 4.387714432129977e-001	-1.431781217724244e-001
1	 4.600000138868055e+000	 0.000000000000000e+000	-6.439816897349432e-001
1	 4.599794882591152e+000	 4.345340566298506e-002	-5.952810665503046e-001
1	 4.599175946089609e+000	 8.707188825037808e-002	-5.448420808209972e-001
1	 4.598138620649135e+000	 1.308504003118912e-001	-4.933651269598847e-001
1	 4.596678257506200e+000	 1.747837644905879e-001	-4.415557225125407e-001
1	 4.594790271496990e+000	 2.188666737580766e-001	-3.901236392837260e-001
1	 4.592470144740218e+000	 2.630936917594145e-001	-3.397820021969302e-001
1	 4.589713430350547e+000	 3.074592532703025e-001	-2.912463564507056e-001
1	 4.586515756179225e+000	 3.519576647690627e-001	-2.452337036255687e-001
1	 4.582872828578394e+000	 3.965831051257931e-001	-2.024615074875442e-001
1	 4.578780436185432e+000	 4.413296264109848e-001	-1.636466703281018e-001
1	 4.626664239959866e+000	 0.000000000000000e+000	-6.052153434035952e-001
1	 4.626457793906116e+000	 4.370528521999509e-002	-5.639014965253875e-001
1	 4.625835269712468e+000	 8.757660424029021e-002	-5.203330928322428e-001
1	 4.624791931370330e+000	 1.316088803527934e-001	-4.752179525731211e-001
1	 4.623323103169382e+000	 1.757969061897542e-001	-4.292647100666971e-001
1	 4.621424173367673e+000	 2.201353439603201e-001	-3.831818162816312e-001
1	 4.619090597895791e+000	 2.646187257974394e-001	-3.376765123513011e-001
1	 4.616317904091794e+000	 3.092414542177068e-001	-2.934537749301370e-001
1	 4.613101694463548e+000	 3.539978026966565e-001	-2.512152343939111e-001
1	 4.609437650474841e+000	 3.988819163619110e-001	-2.116580669824713e-001
1	 4.605321536351673e+000	 4.438878128064857e-001	-1.754738620804495e-001
1	 4.653328381045879e+000	 0.000000000000000e+000	-5.560014204933506e-001
1	 4.653120745213482e+000	 4.395716515470247e-002	-5.218671459680920e-001
1	 4.652494633322307e+000	 8.808132098706338e-002	-4.851341783025427e-001
1	 4.651445282069431e+000	 1.323673615311397e-001	-4.464920993512231e-001
1	 4.649967988797696e+000	 1.768100494083182e-001	-4.066282949912756e-001
1	 4.648058115186988e+000	 2.214040160652356e-001	-3.662268991146288e-001
1	 4.645711090979727e+000	 2.661437621226807e-001	-3.259677116388638e-001
1	 4.642922417737344e+000	 3.110236578380899e-001	-2.865250916542602e-001
1	 4.639687672624278e+000	 3.560379436841560e-001	-2.485668269200328e-001
1	 4.636002512215939e+000	 4.011807310459718e-001	-2.127529810190839e-001
1	 4.631862676326913e+000	 4.464460030390216e-001	-1.797347195767908e-001
1	 4.679992568791956e+000	 0.000000000000000e+000	-5.003154056106458e-001
1	 4.679783743178812e+000	 4.420904553009910e-002	-4.727316161486066e-001
1	 4.679154043583776e+000	 8.858603861691296e-002	-4.424047912546019e-001
1	 4.678098679409551e+000	 1.331258440365936e-001	-4.099810195340919e-001
1	 4.676612921052108e+000	 1.778231943996098e-001	-3.761024673230723e-001
1	 4.674692103613120e+000	 2.226726903900312e-001	-3.414063333682379e-001
1	 4.672331630646810e+000	 2.676688011164292e-001	-3.065237804935910e-001
1	 4.669526977937934e+000	 3.128058645770228e-001	-2.720788454490090e-001
1	 4.666273697307479e+000	 3.580780882416026e-001	-2.386873282279602e-001
1	 4.662567420442432e+000	 4.034795497526700e-001	-2.069556622337333e-001
1	 4.658403862745927e+000	 4.490041977481145e-001	-1.774797667653735e-001
1	 4.706656809863967e+000	 0.000000000000000e+000	-4.420426984986054e-001
1	 4.706446794467666e+000	 4.446092640917691e-002	-4.199679847108892e-001
1	 4.705813507161520e+000	 8.909075725605413e-002	-3.952327944337419e-001
1	 4.704752130053802e+000	 1.338843280588184e-001	-3.684148683094561e-001
1	 4.703257906593572e+000	 1.788363414169591e-001	-3.400875672567245e-001
1	 4.701326145304251e+000	 2.239413672519153e-001	-3.108189064482846e-001
1	 4.698952223551813e+000	 2.691938431599759e-001	-2.811705691268306e-001
1	 4.696131591344303e+000	 3.145880748800764e-001	-2.516969014013926e-001
1	 4.692859775159207e+000	 3.601182368790375e-001	-2.229438892501487e-001
1	 4.689132381795056e+000	 4.057783730566990e-001	-1.954481190394938e-001
1	 4.684945102243494e+000	 4.515623975732859e-001	-1.697357229528761e-001
1	 4.733321110927781e+000	 0.000000000000000e+000	-3.849811510934080e-001
1	 4.733109905745613e+000	 4.471280785492781e-002	-3.669710734970795e-001
1	 4.732473030720188e+000	 8.959547703070218e-002	-3.466364756016120e-001
1	 4.731405640665302e+000	 1.346428137874779e-001	-3.244622865382651e-001
1	 4.729902952083057e+000	 1.798494907136964e-001	-3.009298525155607e-001
1	 4.727960246918568e+000	 2.252100469680961e-001	-2.765161180522383e-001
1	 4.725572876349514e+000	 2.707188886346119e-001	-2.516927897848100e-001
1	 4.722736264607185e+000	 3.163702891928219e-001	-2.269254838084240e-001
1	 4.719445912825524e+000	 3.621583901065016e-001	-2.026728575812532e-001
1	 4.715697402914556e+000	 4.080772015327532e-001	-1.793857274943768e-001
1	 4.711486401454396e+000	 4.541206031540578e-001	-1.575061732806355e-001
1	 4.446075300271936e+000	 4.285387296057502e-001	 4.750849433254228e-002
1	 4.441661767834682e+000	 4.720935259706710e-001	 7.931389590392513e-002
1	 4.436804007790360e+000	 5.157540394362642e-001	 1.046970864015159e-001
1	 4.431498195041699e+000	 5.595142291933083e-001	 1.234926628104752e-001
1	 4.425740598943746e+000	 6.033679384448824e-001	 1.355437615763420e-001
1	 4.419527586972392e+000	 6.473088957992211e-001	 1.407024541401788e-001
1	 4.412855628386948e+000	 6.913307167858139e-001	 1.388301392919352e-001
1	 4.405721297882295e+000	 7.354269054959153e-001	 1.297979315309451e-001
1	 4.398121279226208e+000	 7.795908563484764e-001	 1.134870446056300e-001
1	 4.390052368877188e+000	 8.238158559823360e-001	 8.978916938956380e-002
1	 4.381511479578152e+000	 8.680950852753391e-001	 5.860684523756381e-002
1	 4.472616300914867e+000	 4.310969064089001e-001	-1.879136508634516e-002
1	 4.468176421743034e+000	 4.749117046406273e-001	 1.602163063140849e-002
1	 4.463289663131959e+000	 5.188328510548874e-001	 4.515795777613466e-002
1	 4.457952177150324e+000	 5.628542687816455e-001	 6.839454872273282e-002
1	 4.452160210882960e+000	 6.069697642707739e-001	 8.551730974978161e-002
1	 4.445910110121298e+000	 6.511730286932239e-001	 9.632161186084016e-002
1	 4.439198323047761e+000	 6.954576394661731e-001	 1.006127798236089e-001
1	 4.432021403909766e+000	 7.398170619033307e-001	 9.820657846794118e-002
1	 4.424376016678722e+000	 7.842446509914091e-001	 8.892969525948620e-002
1	 4.416258938689484e+000	 8.287336532936124e-001	 7.262021814328493e-002
1	 4.407667064255489e+000	 8.732772089808065e-001	 4.912810763123099e-002
1	 4.499157308192906e+000	 4.336550838514770e-001	-7.189003518597720e-002
1	 4.494691082279965e+000	 4.777298840151175e-001	-3.538890405240144e-002
1	 4.489775325094918e+000	 5.219116634433039e-001	-3.841765718138102e-003
1	 4.484406165872398e+000	 5.661943092051772e-001	 2.248287902289400e-002
1	 4.478579829427026e+000	 6.105715909973927e-001	 4.332557161329773e-002
1	 4.472292639865749e+000	 6.550371625536073e-001	 5.843645634904171e-002
1	 4.465541024294118e+000	 6.995845631786762e-001	 6.757584061239234e-002
1	 4.458321516512070e+000	 7.442072194087526e-001	 7.051475366299255e-002
1	 4.450630760694663e+000	 7.888984467982984e-001	 6.703550289891591e-002
1	 4.442465515053097e+000	 8.336514518348714e-001	 5.693222647096799e-002
1	 4.433822655471317e+000	 8.784593339823468e-001	 4.001144110734767e-002
1	 4.525698328740826e+000	 4.362132625730023e-001	-1.129679768631122e-001
1	 4.521205756073643e+000	 4.805480647986484e-001	-7.594097597518340e-002
1	 4.516261000300147e+000	 5.249904773711639e-001	-4.317639467368109e-002
1	 4.510860167820908e+000	 5.695343512988463e-001	-1.497612053328840e-002
1	 4.504999461180328e+000	 6.141734195251155e-001	 8.366707776726295e-003
1	 4.498675182800865e+000	 6.589012983463135e-001	 2.656830566795838e-002
1	 4.491883738711193e+000	 7.037114889549528e-001	 3.935484882133879e-002
1	 4.484621642263760e+000	 7.485973791096094e-001	 4.646307928040123e-002
1	 4.476885517837255e+000	 7.935522449324758e-001	 4.764091030608927e-002
1	 4.468672104519224e+000	 8.385692528354413e-001	 4.264802881671505e-002
1	 4.459978259764123e+000	 8.836414615753686e-001	 3.125649420580652e-002
1	 4.552239369193410e+000	 4.387714432129977e-001	-1.431781217724244e-001
1	 4.547720449752237e+000	 4.833662476957265e-001	-1.066339887183372e-001
1	 4.542746695368543e+000	 5.280692936081172e-001	-7.369984831285051e-002
1	 4.537314189608825e+000	 5.728743958975963e-001	-4.469910927771179e-002
1	 4.531419112747249e+000	 6.177752507543191e-001	-1.994708208096488e-002
1	 4.525057745521771e+000	 6.627654370372839e-001	 2.496458079471881e-004
1	 4.518226472884162e+000	 7.078384178266320e-001	 1.559383707194127e-002
1	 4.510921787739378e+000	 7.529875421033312e-001	 2.579823299850975e-002
1	 4.503140294669723e+000	 7.982060465572736e-001	 3.058618208166398e-002
1	 4.494878713639077e+000	 8.434870575246499e-001	 2.969226758836547e-002
1	 4.486133883672389e+000	 8.888235930552790e-001	 2.286293287002640e-002
1	 4.578780436185432e+000	 4.413296264109848e-001	-1.636466703281018e-001
1	 4.574235169943915e+000	 4.861844334108587e-001	-1.284441733684794e-001
1	 4.569232416921015e+000	 5.311481129238143e-001	-9.624624555556216e-002
1	 4.563768237849136e+000	 5.762144438363704e-001	-6.738612770489139e-002
1	 4.557838790732178e+000	 6.213770855853804e-001	-4.218996610741385e-002
1	 4.551440334623583e+000	 6.666295795924611e-001	-2.097619296223073e-002
1	 4.544569233398202e+000	 7.119653508253430e-001	-4.054903005555527e-003
1	 4.537221959513468e+000	 7.573777094873468e-001	 8.272772599201075e-003
1	 4.529395097755288e+000	 8.028598528360240e-001	 1.571529400516756e-002
1	 4.521085348963856e+000	 8.484048671318258e-001	 1.799134091606115e-002
1	 4.512289533734595e+000	 8.940057297174856e-001	 1.483044013045619e-002
1	 4.605321536351673e+000	 4.438878128064857e-001	-1.754738620804494e-001
1	 4.600749923276847e+000	 4.890026226485517e-001	-1.423252563221045e-001
1	 4.595718171578467e+000	 5.342269360879052e-001	-1.116304756254835e-001
1	 4.590222319154814e+000	 5.795544959501119e-001	-8.372107637394423e-002
1	 4.584258501739502e+000	 6.249789249186764e-001	-5.892287308680369e-002
1	 4.577822956701428e+000	 6.704937269777871e-001	-3.755534854023640e-002
1	 4.570912026838486e+000	 7.160922889827148e-001	-1.993105869034224e-002
1	 4.563522164160577e+000	 7.617678823590856e-001	-6.355033370330158e-003
1	 4.555649933657177e+000	 8.075136649320592e-001	 2.875826225500311e-003
1	 4.547292017044766e+000	 8.533226828862970e-001	 7.473352219258439e-003
1	 4.538445216489230e+000	 8.991878728573964e-001	 7.158715798996362e-003
1	 4.631862676326913e+000	 4.464460030390216e-001	-1.797347195767908e-001
1	 4.627264716379197e+000	 4.918208161133120e-001	-1.492091041049573e-001
1	 4.622203965961801e+000	 5.373057638700401e-001	-1.206487490164669e-001
1	 4.616676440138842e+000	 5.828945530737640e-001	-9.437217832723670e-002
1	 4.610678252373610e+000	 6.285807696545841e-001	-7.069387172963605e-002
1	 4.604205618350420e+000	 6.743578801592033e-001	-4.992372868089758e-002
1	 4.597254859790194e+000	 7.202192333303772e-001	-3.236652590031981e-002
1	 4.589822408255249e+000	 7.661580618159766e-001	-1.832136910735616e-002
1	 4.581904808938611e+000	 8.121674840087112e-001	-8.081139872366253e-003
1	 4.573498724433014e+000	 8.582405060173921e-001	-1.931938490435600e-003
1	 4.564600938474771e+000	 9.043700237704185e-001	-1.525238261106465e-004
1	 4.658403862745927e+000	 4.490041977481145e-001	-1.774797667653735e-001
1	 4.653779555879137e+000	 4.946390145096463e-001	-1.500063461239124e-001
1	 4.648689806691922e+000	 5.403845970398689e-001	-1.240791296033493e-001
1	 4.643130607414194e+000	 5.862346160422691e-001	-9.999242568372620e-002
1	 4.637098049238889e+000	 6.321826206934800e-001	-7.803853698217869e-002
1	 4.630588326165689e+000	 6.782220401026525e-001	-5.850730236228614e-002
1	 4.623597738838498e+000	 7.243461848999593e-001	-4.168563105942098e-002
1	 4.616122698372031e+000	 7.705482489554488e-001	-2.785702946765498e-002
1	 4.608159730162812e+000	 8.168213112293123e-001	-1.730112127116873e-002
1	 4.599705477679802e+000	 8.631583377544390e-001	-1.029316163991492e-002
1	 4.590756706229705e+000	 9.095521837519599e-001	-7.103546245325281e-003
1	 4.684945102243494e+000	 4.515623975732859e-001	-1.697357229528761e-001
1	 4.680294448404837e+000	 4.974572185420615e-001	-1.456069762273752e-001
1	 4.675175700389738e+000	 5.434634363670421e-001	-1.226820486457315e-001
1	 4.669584827593856e+000	 5.895746856905718e-001	-1.012200110353502e-001
1	 4.663517898939720e+000	 6.357844789357414e-001	-8.148030387086271e-002
1	 4.656971086742349e+000	 6.820862077740766e-001	-6.372238123699803e-002
1	 4.649940670568578e+000	 7.284731447230903e-001	-4.820534541508656e-002
1	 4.642423041085465e+000	 7.749384448749320e-001	-3.518757250597197e-002
1	 4.634414703893004e+000	 8.214751477571949e-001	-2.492632953580082e-002
1	 4.625912283336335e+000	 8.680761793267665e-001	-1.767738352486947e-002
1	 4.616912526292515e+000	 9.147343540974275e-001	-1.369460303320293e-002
1	 4.711486401454396e+000	 4.541206031540578e-001	-1.575061732806355e-001
1	 4.706809400584462e+000	 5.002754289150643e-001	-1.368809339108200e-001
1	 4.701661653676148e+000	 5.465422826212099e-001	-1.172008013995041e-001
1	 4.696039107290805e+000	 5.929147628536144e-001	-9.867874424632872e-002
1	 4.689937808080499e+000	 6.393863452817449e-001	-8.153080937374499e-002
1	 4.683353906675523e+000	 6.859503841394175e-001	-6.597589156003338e-002
1	 4.676283661565610e+000	 7.326001138314001e-001	-5.223549210395490e-002
1	 4.668723442970103e+000	 7.793286506718558e-001	-4.053346685503145e-002
1	 4.660669736692415e+000	 8.261289947556908e-001	-3.109576377219870e-002
1	 4.652119147953821e+000	 8.729940319637028e-001	-2.415015020290512e-002
1	 4.643068405201682e+000	 9.199165361022299e-001	-1.992593010450719e-002
1	 4.381511479578152e+000	 8.680950852753391e-001	 5.860684523756381e-002
1	 4.372494256268735e+000	 9.124282726195253e-001	 1.917409058814829e-002
1	 4.362999102610631e+000	 9.568017434643776e-001	-2.889266919416172e-002
1	 4.353023304130099e+000	 1.001208360994867e+000	-8.510257250076557e-002
1	 4.342564276823000e+000	 1.045640891710206e+000	-1.489354102454979e-001
1	 4.331619570558885e+000	 1.090092008085801e+000	-2.198417953987263e-001
1	 4.320186872431323e+000	 1.134554291362543e+000	-2.972433833635982e-001
1	 4.308264010049259e+000	 1.179020234462681e+000	-3.805331440450241e-001
1	 4.295848954764352e+000	 1.223482245031362e+000	-4.690756863636326e-001
1	 4.282939824829096e+000	 1.267932648602657e+000	-5.622076358636547e-001
1	 4.269534888480566e+000	 1.312363691888676e+000	-6.592380659550526e-001
1	 4.407667064255489e+000	 8.732772089808065e-001	 4.912810763123084e-002
1	 4.398596012318691e+000	 9.178750448236623e-001	 1.772371536586165e-002
1	 4.389044177011387e+000	 9.625134046409614e-001	-2.192369972972302e-002
1	 4.379008827655714e+000	 1.007185109014209e+000	-6.934526845772485e-002
1	 4.368487364822226e+000	 1.051882881261982e+000	-1.240407402087777e-001
1	 4.357477323754350e+000	 1.096599350117776e+000	-1.854785885793926e-001
1	 4.345976377738679e+000	 1.141327052535939e+000	-2.530961701963865e-001
1	 4.333982341416010e+000	 1.186058436624959e+000	-3.262999377811355e-001
1	 4.321493174027922e+000	 1.230785864707158e+000	-4.044657083867843e-001
1	 4.308506982593760e+000	 1.275501616503612e+000	-4.869389876365258e-001
1	 4.295022025012785e+000	 1.320197892442914e+000	-5.730353506800361e-001
1	 4.433822655471317e+000	 8.784593339823468e-001	 4.001144110734767e-002
1	 4.424697774893605e+000	 9.233218183900276e-001	 1.558826301698419e-002
1	 4.415089257922868e+000	 9.682250672459721e-001	-1.661349572848386e-002
1	 4.404994357677094e+000	 1.013161858528212e+000	-5.614949036467583e-002
1	 4.394410459301542e+000	 1.058124872374679e+000	-1.025429167312228e-001
1	 4.383335083413517e+000	 1.103106693776949e+000	-1.552845668480150e-001
1	 4.371765889492628e+000	 1.148099815402816e+000	-2.138329387392385e-001
1	 4.359700679211523e+000	 1.193096640547001e+000	-2.776144016615565e-001
1	 4.347137399701697e+000	 1.238089486208987e+000	-3.460234177938903e-001
1	 4.334074146749346e+000	 1.283070586296852e+000	-4.184228213407186e-001
1	 4.320509167915920e+000	 1.328032094955654e+000	-4.941441558901835e-001
1	 4.459978259764123e+000	 8.836414615753686e-001	 3.125649420580660e-002
1	 4.450799550518534e+000	 9.287685946801909e-001	 1.283276940056535e-002
1	 4.441134351855978e+000	 9.739367327072045e-001	-1.284481920054381e-002
1	 4.430979900690286e+000	 1.019138611030946e+000	-4.535895032912571e-002
1	 4.420333566741423e+000	 1.064366866608685e+000	-8.425971001140353e-002
1	 4.409192856000538e+000	 1.109614040690051e+000	-1.290646108250728e-001
1	 4.397555414140286e+000	 1.154872581656271e+000	-1.792586651319969e-001
1	 4.385419029865138e+000	 1.200134847988272e+000	-2.342945135088617e-001
1	 4.372781638196507e+000	 1.245393111362680e+000	-2.935926095007652e-001
1	 4.359641323687432e+000	 1.290639559874549e+000	-3.565414617194750e-001
1	 4.345996323561552e+000	 1.335866301385387e+000	-4.224979341988856e-001
1	 4.486133883672389e+000	 8.888235930552790e-001	 2.286293287002636e-002
1	 4.476901345718530e+000	 9.342153750557224e-001	 9.520763630081246e-003
1	 4.467179465321621e+000	 9.796484024524531e-001	-1.050315563079696e-002
1	 4.456965463191335e+000	 1.025115368016482e+000	-3.682099400672639e-002
1	 4.446256693622321e+000	 1.070608865524385e+000	-6.901312823916132e-002
1	 4.435050647979574e+000	 1.116121392483815e+000	-1.066281392258538e-001
1	 4.423344958128767e+000	 1.161645352989399e+000	-1.491828609324311e-001
1	 4.411137399806196e+000	 1.207173060708236e+000	-1.961624829366388e-001
1	 4.398425895923181e+000	 1.252696741994064e+000	-2.470207077420558e-001
1	 4.385208519799599e+000	 1.298208539128881e+000	-3.011799638985783e-001
1	 4.371483498321261e+000	 1.343700513690607e+000	-3.580316758617242e-001
1	 4.512289533734595e+000	 8.940057297174856e-001	 1.483044013045619e-002
1	 4.503003167018644e+000	 9.396621608781910e-001	 5.714311958807176e-003
1	 4.493224604830710e+000	 9.853600779095112e-001	-9.476634803173088e-003
1	 4.482951051676290e+000	 1.031092130978891e+000	-3.038649502444411e-002
1	 4.472179846424698e+000	 1.076850870682165e+000	-5.662929447701479e-002
1	 4.460908465814778e+000	 1.122628750784974e+000	-8.778897702191295e-002
1	 4.449134527905185e+000	 1.168418131095294e+000	-1.234194413340155e-001
1	 4.436855795464038e+000	 1.214211280466358e+000	-1.630446283466922e-001
1	 4.424070179292549e+000	 1.260000379928967e+000	-2.061586605094809e-001
1	 4.410775741477422e+000	 1.305777525952022e+000	-2.522260338580203e-001
1	 4.396970698566632e+000	 1.351534733829807e+000	-3.006818637962914e-001
1	 4.538445216489230e+000	 8.991878728573964e-001	 7.158715798996362e-003
1	 4.529105020943929e+000	 9.451089535091675e-001	 1.474060145938476e-003
1	 4.519269776894150e+000	 9.910717605061749e-001	-9.655954365829979e-003
1	 4.508936672641198e+000	 1.037068901412243e+000	-2.590975305854078e-002
1	 4.498103031629029e+000	 1.083092883642415e+000	-4.693832780368863e-002
1	 4.486766315970298e+000	 1.129136117220259e+000	-7.236522816651100e-002
1	 4.474924129916655e+000	 1.175190917667052e+000	-1.017865979458041e-001
1	 4.462574223268005e+000	 1.221249509022102e+000	-1.347712581843584e-001
1	 4.449714494715445e+000	 1.267304026993219e+000	-1.708608376444754e-001
1	 4.436342995112479e+000	 1.313346522236146e+000	-2.095699516567752e-001
1	 4.422457930669240e+000	 1.359368963761478e+000	-2.503864301592070e-001
1	 4.564600938474771e+000	 9.043700237704185e-001	-1.525238261107214e-004
1	 4.555206914019435e+000	 9.505557543102216e-001	-3.140725635522496e-003
1	 4.545314988022853e+000	 9.967834516702375e-001	-1.093430602719746e-002
1	 4.534922332582101e+000	 1.043045680810607e+000	-2.324839542074772e-002
1	 4.524026255715767e+000	 1.089334905965518e+000	-3.977422854866103e-002
1	 4.512624204910294e+000	 1.135643493416402e+000	-6.017915270076964e-002
1	 4.500713770610291e+000	 1.181963714397768e+000	-8.410667595115698e-002
1	 4.488292689647442e+000	 1.228287748134932e+000	-1.111765562809840e-001
1	 4.475358848602693e+000	 1.274607685012648e+000	-1.409849324384270e-001
1	 4.461910287096350e+000	 1.320915529873429e+000	-1.731044973002054e-001
1	 4.447945201000674e+000	 1.367203205444115e+000	-2.070847144177759e-001
1	 4.590756706229705e+000	 9.095521837519599e-001	-7.103546245325261e-003
1	 4.581308852770215e+000	 9.560025646429224e-001	-8.072119290930310e-003
1	 4.571360244727723e+000	 1.002495152829494e+000	-1.320730427787373e-002
1	 4.560908037995050e+000	 1.049022470668055e+000	-2.226328201243918e-002
1	 4.549949525165379e+000	 1.095576939211864e+000	-3.497476745433617e-002
1	 4.538482139098918e+000	 1.142150881000136e+000	-5.105704806569413e-002
1	 4.526503456433209e+000	 1.188736522980538e+000	-7.020605547049862e-002
1	 4.514011201031684e+000	 1.235325999564314e+000	-9.209847112035702e-002
1	 4.501003247365127e+000	 1.281911355813081e+000	-1.163918666005219e-001
1	 4.487477623820609e+000	 1.328484550756047e+000	-1.427248791445320e-001
1	 4.473432515932507e+000	 1.375037460836209e+000	-1.707174228565841e-001
1	 4.616912526292515e+000	 9.147343540974275e-001	-1.369460303320291e-002
1	 4.607410843721322e+000	 9.614493858688405e-001	-1.326349664058876e-002
1	 4.597405553519671e+000	 1.008206865411738e+000	-1.637291753804175e-002
1	 4.586893795376091e+000	 1.054999272478657e+000	-2.281841351316373e-002
1	 4.575872846458331e+000	 1.101818984941838e+000	-3.238137860994613e-002
1	 4.564340125000327e+000	 1.148658281598193e+000	-4.482913445302206e-002
1	 4.552293193832523e+000	 1.195509345108457e+000	-5.991503696120121e-002
1	 4.539729763850075e+000	 1.242364265069712e+000	-7.737860887332744e-002
1	 4.526647697413575e+000	 1.289215041220348e+000	-9.694569845944906e-002
1	 4.513045011676836e+000	 1.336053586776173e+000	-1.183286647376966e-001
1	 4.498919881836327e+000	 1.382871731896253e+000	-1.412265894621474e-001
1	 4.643068405201682e+000	 9.199165361022299e-001	-1.992593010450718e-002
1	 4.633512893397808e+000	 9.668962193495464e-001	-1.865949854773091e-002
1	 4.623450920909602e+000	 1.013918590844765e+000	-2.033140163471525e-002
1	 4.612879611221272e+000	 1.060976087736485e+000	-2.478084267584023e-002
1	 4.601796226075083e+000	 1.108061044715827e+000	-3.183905600830157e-002
1	 4.590198169078672e+000	 1.155165696837306e+000	-4.132944403551254e-002
1	 4.578082989255348e+000	 1.202282182474619e+000	-5.306773049524646e-002
1	 4.565448384531957e+000	 1.249402546410591e+000	-6.686213005184949e-002
1	 4.552292205158868e+000	 1.296518743060277e+000	-8.251353427134364e-002
1	 4.538612457056610e+000	 1.343622639825984e+000	-9.981571400038780e-002
1	 4.524407305083716e+000	 1.390706020582740e+000	-1.185555381311206e-001
1	 4.269534888480566e+000	 1.312363691888676e+000	-6.592380659550526e-001
1	 4.255632565876873e+000	 1.356767545539909e+000	-7.598476206147016e-001
1	 4.241231428808608e+000	 1.401136305660350e+000	-8.636719181059489e-001
1	 4.226330206727042e+000	 1.445461999293613e+000	-9.698936836400075e-001
1	 4.210927790553209e+000	 1.489736588820484e+000	-1.077644616980390e+000
1	 4.195023235321111e+000	 1.533951975835254e+000	-1.186005739121546e+000
1	 4.178615762716243e+000	 1.578100005132252e+000	-1.294007831715888e+000
1	 4.161704763504536e+000	 1.622172468799514e+000	-1.400631970388237e+000
1	 4.144289799846913e+000	 1.666161110416386e+000	-1.504810152874881e+000
1	 4.126370607494755e+000	 1.710057629351524e+000	-1.605426022715192e+000
1	 4.107947097861665e+000	 1.753853685157622e+000	-1.701315689006715e+000
1	 4.295022025012785e+000	 1.320197892442914e+000	-5.730353506800361e-001
1	 4.281036712012197e+000	 1.364866816437977e+000	-6.623259782512129e-001
1	 4.266549606856836e+000	 1.409500437410214e+000	-7.543912973675876e-001
1	 4.251559431413378e+000	 1.454090734808399e+000	-8.485077110350775e-001
1	 4.236065069982164e+000	 1.498629623032470e+000	-9.439107375753472e-001
1	 4.220065571956185e+000	 1.543108955333008e+000	-1.039795385492327e+000
1	 4.203560154374750e+000	 1.587520527821554e+000	-1.135316604146597e+000
1	 4.186548204366940e+000	 1.631856083588732e+000	-1.229589810986557e+000
1	 4.169029281479971e+000	 1.676107316926896e+000	-1.321691495916916e+000
1	 4.151003119887775e+000	 1.720265877653798e+000	-1.410659903210972e+000
1	 4.132469630475130e+000	 1.764323375533540e+000	-1.495495791192982e+000
1	 4.320509167915920e+000	 1.328032094955654e+000	-4.941441558901835e-001
1	 4.306440864497702e+000	 1.372966089360724e+000	-5.727285549913604e-001
1	 4.291867791233776e+000	 1.417864571250883e+000	-6.537692158850064e-001
1	 4.276788662406224e+000	 1.462719472480056e+000	-7.366280334584938e-001
1	 4.261202355694690e+000	 1.507522659467327e+000	-8.206344957105770e-001
1	 4.245107914851145e+000	 1.552265937119550e+000	-9.050860728748694e-001
1	 4.228504552268712e+000	 1.596941052865476e+000	-9.892486680310181e-001
1	 4.211391651439614e+000	 1.641539700798301e+000	-1.072357129641404e+000
1	 4.193768769297368e+000	 1.686053525923383e+000	-1.153615826311161e+000
1	 4.175635638438452e+000	 1.730474128507555e+000	-1.232199283925104e+000
1	 4.156992169218811e+000	 1.774793068526321e+000	-1.307252885167068e+000
1	 4.345996323561552e+000	 1.335866301385387e+000	-4.224979341988856e-001
1	 4.331845029684224e+000	 1.381065366332917e+000	-4.910352049719187e-001
1	 4.317185988268775e+000	 1.426228709273348e+000	-5.618100235558874e-001
1	 4.302017906012683e+000	 1.471348214465735e+000	-6.342616995619541e-001
1	 4.286339653974895e+000	 1.516415700348281e+000	-7.078039707503495e-001
1	 4.270150270266355e+000	 1.561422923484098e+000	-7.818253926468221e-001
1	 4.253448962634002e+000	 1.606361582619120e+000	-8.556897779233499e-001
1	 4.236235110933194e+000	 1.651223322849099e+000	-9.287366857477009e-001
1	 4.218508269483742e+000	 1.695999739892365e+000	-1.000281961190208e+000
1	 4.200268169304669e+000	 1.740682384464818e+000	-1.069618324657037e+000
1	 4.181514720223089e+000	 1.785262766753336e+000	-1.136016011196927e+000
1	 4.371483498321261e+000	 1.343700513690607e+000	-3.580316758617242e-001
1	 4.357249213922601e+000	 1.389164649379327e+000	-4.172262374413355e-001
1	 4.342504204291177e+000	 1.434592853568603e+000	-4.785179537177992e-001
1	 4.327247168539862e+000	 1.479976962922586e+000	-5.414155780971213e-001
1	 4.311476971106893e+000	 1.525308747898565e+000	-6.054075041548519e-001
1	 4.295192644462189e+000	 1.570579916715873e+000	-6.699621421447217e-001
1	 4.278393391706491e+000	 1.615782119437595e+000	-7.345283361214250e-001
1	 4.261078589058305e+000	 1.660906952161999e+000	-7.985358217261747e-001
1	 4.243247788223720e+000	 1.705945961320361e+000	-8.613957245867586e-001
1	 4.224900718644310e+000	 1.750890648077604e+000	-9.225010991844546e-001
1	 4.206037289618354e+000	 1.795732472831950e+000	-9.812275079388131e-001
1	 4.396970698566632e+000	 1.351534733829807e+000	-3.006818637962914e-001
1	 4.382653423563671e+000	 1.397263940524723e+000	-3.512824031328203e-001
1	 4.367822445630329e+000	 1.442957006227640e+000	-4.038971260677344e-001
1	 4.352476456294863e+000	 1.488605720007758e+000	-4.580963626483870e-001
1	 4.336614313374794e+000	 1.534201804341407e+000	-5.134336913801948e-001
1	 4.320235043699011e+000	 1.579736919104094e+000	-5.694462891862019e-001
1	 4.303337845722058e+000	 1.625202665676005e+000	-6.256553153809732e-001
1	 4.285922092025571e+000	 1.670590591157880e+000	-6.815663296285287e-001
1	 4.267987331701933e+000	 1.715892192693890e+000	-7.366697437711213e-001
1	 4.249533292615256e+000	 1.761098921897935e+000	-7.904413073315830e-001
1	 4.230559883534988e+000	 1.806202189379531e+000	-8.423426264056886e-001
1	 4.422457930669240e+000	 1.359368963761478e+000	-2.503864301592070e-001
1	 4.408057664958274e+000	 1.405363241793874e+000	-2.931848811091620e-001
1	 4.393140718615578e+000	 1.451321169341452e+000	-3.379515494805988e-001
1	 4.377705775584788e+000	 1.497234487878403e+000	-3.843105762018138e-001
1	 4.361751687062710e+000	 1.543094871900039e+000	-4.318713740588707e-001
1	 4.345277474237193e+000	 1.588893932937980e+000	-4.802289378204538e-001
1	 4.328282330916575e+000	 1.634623223689457e+000	-5.289641843055417e-001
1	 4.310765626045626e+000	 1.680274242257618e+000	-5.776443223604839e-001
1	 4.292726906103014e+000	 1.725838436499471e+000	-6.258232526391099e-001
1	 4.274165897375390e+000	 1.771307208477830e+000	-6.730419970049767e-001
1	 4.255082508103375e+000	 1.816671919013446e+000	-7.188291572992316e-001
1	 4.447945201000674e+000	 1.367203205444115e+000	-2.070847144177759e-001
1	 4.433461944457243e+000	 1.413462555211549e+000	-2.429152660604383e-001
1	 4.418459029576266e+000	 1.459685345001031e+000	-2.806851247307333e-001
1	 4.402935132716745e+000	 1.505863268691670e+000	-3.200645755569018e-001
1	 4.386889098454755e+000	 1.551987952797689e+000	-3.607096324493939e-001
1	 4.370319942337101e+000	 1.598050960506750e+000	-4.022622952576181e-001
1	 4.353226853525915e+000	 1.644043795833055e+000	-4.443508353044380e-001
1	 4.335609197329096e+000	 1.689957907882091e+000	-4.865901093373175e-001
1	 4.317466517611591e+000	 1.735784695223622e+000	-5.285819018672089e-001
1	 4.298798539082597e+000	 1.781515510369309e+000	-5.699152957967870e-001
1	 4.279605169453902e+000	 1.827141664351063e+000	-6.101670711688354e-001
1	 4.473432515932507e+000	 1.375037460836209e+000	-1.707174228565841e-001
1	 4.458866268411421e+000	 1.421561882802518e+000	-2.004555560364694e-001
1	 4.443777384841742e+000	 1.468049535297369e+000	-2.321016471204095e-001
1	 4.428164533997837e+000	 1.514492064604708e+000	-2.653645555874570e-001
1	 4.412026553835039e+000	 1.560881049257587e+000	-2.999377781444313e-001
1	 4.395362454259105e+000	 1.607208004099625e+000	-3.354996399299435e-001
1	 4.378171419785952e+000	 1.653464384461906e+000	-3.717135150162219e-001
1	 4.360452812086606e+000	 1.699641590452172e+000	-4.082280763948227e-001
1	 4.342206172412294e+000	 1.745730971352863e+000	-4.446775755648751e-001
1	 4.323431223894759e+000	 1.791723830124395e+000	-4.806821517733326e-001
1	 4.304127873716954e+000	 1.837611428009748e+000	-5.158481708854624e-001
1	 4.498919881836327e+000	 1.382871731896253e+000	-1.412265894621474e-001
1	 4.484270643171641e+000	 1.429661226591549e+000	-1.657881405968107e-001
1	 4.469095790741352e+000	 1.476413742321459e+000	-1.922048090189079e-001
1	 4.453393985735167e+000	 1.523120877774671e+000	-2.202165533574959e-001
1	 4.437164059487676e+000	 1.569774163502965e+000	-2.495453470271337e-001
1	 4.420405016263575e+000	 1.616365066005822e+000	-2.798952906399347e-001
1	 4.403116035932562e+000	 1.662884991931116e+000	-3.109527570999193e-001
1	 4.385296476528788e+000	 1.709325292388740e+000	-3.423865697869025e-001
1	 4.366945876689758e+000	 1.755677267373712e+000	-3.738482141659630e-001
1	 4.348063957969757e+000	 1.801932170295104e+000	-4.049720830843825e-001
1	 4.328650627022914e+000	 1.848081212606869e+000	-4.353757559414363e-001
1	 4.524407305083716e+000	 1.390706020582740e+000	-1.185555381311206e-001
1	 4.509675075088747e+000	 1.437760588603412e+000	-1.388957893617590e-001
1	 4.494414253604443e+000	 1.484777968164294e+000	-1.609982023157753e-001
1	 4.478623494235840e+000	 1.531749710358705e+000	-1.846264520979918e-001
1	 4.462301621696776e+000	 1.578667297757052e+000	-2.095220924658551e-001
1	 4.445447634610878e+000	 1.625522148514563e+000	-2.354045767524653e-001
1	 4.428060708201620e+000	 1.672305620595791e+000	-2.619713173003872e-001
1	 4.410140196866271e+000	 1.719009016112672e+000	-2.888977841083413e-001
1	 4.391685636628613e+000	 1.765623585772689e+000	-3.158376433130457e-001
1	 4.372696747465478e+000	 1.812140533433458e+000	-3.424229360449515e-001
1	 4.353173435502171e+000	 1.858551020759795e+000	-3.682642981093216e-001
1	 4.107947097861665e+000	 1.753853685157622e+000	-1.701315689006716e+000
1	 4.089022237317836e+000	 1.797534358250065e+000	-1.790670486323422e+000
1	 4.069593571258429e+000	 1.841097824563030e+000	-1.872493751490434e+000
1	 4.049661552156451e+000	 1.884535657582464e+000	-1.946802997963274e+000
1	 4.029226814984733e+000	 1.927839409546485e+000	-2.013669980836947e+000
1	 4.008290178599602e+000	 1.971000616255271e+000	-2.073221062484560e+000
1	 3.986852646976334e+000	 2.014010801950552e+000	-2.125637486272009e+000
1	 3.964915410292882e+000	 2.056861484259475e+000	-2.171155556378960e+000
1	 3.942479845858591e+000	 2.099544179197508e+000	-2.210066721958238e+000
1	 3.919547518884829e+000	 2.142050406224803e+000	-2.242717564076227e+000
1	 3.896120183094670e+000	 2.184371693350318e+000	-2.269509684096122e+000
1	 4.132469630475130e+000	 1.764323375533540e+000	-1.495495791192982e+000
1	 4.113431797320074e+000	 1.808264801918528e+000	-1.575034678593188e+000
1	 4.093887151164926e+000	 1.852088321854113e+000	-1.648777953407937e+000
1	 4.073836147183756e+000	 1.895785458523871e+000	-1.716689270731062e+000
1	 4.053279424139898e+000	 1.939347713736705e+000	-1.778770968594480e+000
1	 4.032217805777888e+000	 1.982766572765459e+000	-1.835064363161357e+000
1	 4.010652302066275e+000	 2.026033509255522e+000	-1.885649978510795e+000
1	 3.988584110287830e+000	 2.069139990198221e+000	-1.930647709558983e+000
1	 3.966014615973809e+000	 2.112077480963578e+000	-1.970216916804279e+000
1	 3.942945393679174e+000	 2.154837450386865e+000	-2.004556451733886e+000
1	 3.919378207595921e+000	 2.197411375903190e+000	-2.033904611885244e+000
1	 4.156992169218811e+000	 1.774793068526321e+000	-1.307252885167068e+000
1	 4.137841363424330e+000	 1.818995248269089e+000	-1.378097448517331e+000
1	 4.118180737144485e+000	 1.863078821892374e+000	-1.444593619407554e+000
1	 4.098010748254414e+000	 1.907035262277360e+000	-1.506661074070986e+000
1	 4.077332039307960e+000	 1.950856020803727e+000	-1.564244777662416e+000
1	 4.056145438937856e+000	 1.994532532216958e+000	-1.617315216485778e+000
1	 4.034451963105934e+000	 2.038056219566090e+000	-1.665868587645822e+000
1	 4.012252816199793e+000	 2.081418499206607e+000	-1.709926945115625e+000
1	 3.989549391972592e+000	 2.124610785863071e+000	-1.749538301304415e+000
1	 3.966343274322894e+000	 2.167624497745854e+000	-1.784776683307666e+000
1	 3.942636237911627e+000	 2.210451061716202e+000	-1.815742143122477e+000
1	 4.181514720223089e+000	 1.785262766753336e+000	-1.136016011196927e+000
1	 4.162250941732745e+000	 1.829725699984286e+000	-1.199146580197772e+000
1	 4.142474335270258e+000	 1.874069327425340e+000	-1.259115133673901e+000
1	 4.122185361411838e+000	 1.918285071655266e+000	-1.315807068181076e+000
1	 4.101384666501830e+000	 1.962364333624481e+000	-1.369121813534812e+000
1	 4.080073084061180e+000	 2.006298497551087e+000	-1.418973009460468e+000
1	 4.058251636045005e+000	 2.050078935887735e+000	-1.465288658850540e+000
1	 4.035921533945722e+000	 2.093697014354039e+000	-1.508011257001497e+000
1	 4.013084179738415e+000	 2.137144097029070e+000	-1.547097896253402e+000
1	 3.989741166665250e+000	 2.180411551498271e+000	-1.582520345508260e+000
1	 3.965894279856078e+000	 2.223490754048992e+000	-1.614265104159022e+000
1	 4.206037289618354e+000	 1.795732472831950e+000	-9.812275079388133e-001
1	 4.186660538347462e+000	 1.840456159746656e+000	-1.037486450584694e+000
1	 4.166767951615396e+000	 1.885059841200544e+000	-1.091536118201305e+000
1	 4.146359992699433e+000	 1.929534889469920e+000	-1.143237150724449e+000
1	 4.125437311734429e+000	 1.973872655075902e+000	-1.192455078324004e+000
1	 4.104000747129543e+000	 2.018064471709167e+000	-1.239060449774384e+000
1	 4.082051326833178e+000	 2.062101661225940e+000	-1.282928952999419e+000
1	 4.059590269442583e+000	 2.105975538709924e+000	-1.323941527478832e+000
1	 4.036618985154763e+000	 2.149677417594655e+000	-1.361984468220167e+000
1	 4.013139076555489e+000	 2.193198614840611e+000	-1.396949521016982e+000
1	 3.989152339243563e+000	 2.236530456161202e+000	-1.428733968733047e+000
1	 4.230559883534988e+000	 1.806202189379531e+000	-8.423426264056886e-001
1	 4.211070159370624e+000	 1.851186630238740e+000	-8.924375479572093e-001
1	 4.191061592253049e+000	 1.896050365965515e+000	-9.410688746165891e-001
1	 4.170534648160610e+000	 1.940784718533653e+000	-9.880818407022454e-001
1	 4.149489981018678e+000	 1.985380988034921e+000	-1.033319515251849e+000
1	 4.127928434124627e+000	 2.029830457632516e+000	-1.076622889323061e+000
1	 4.105851041420147e+000	 2.074124398586184e+000	-1.117830967452545e+000
1	 4.083259028607333e+000	 2.118254075343665e+000	-1.156780863210133e+000
1	 4.060153814105110e+000	 2.162210750692911e+000	-1.193307898775019e+000
1	 4.036537009842877e+000	 2.205985690969373e+000	-1.227245708450970e+000
1	 4.012410421888376e+000	 2.249570171312477e+000	-1.258426346027195e+000
1	 4.255082508103375e+000	 1.816671919013446e+000	-7.188291572992315e-001
1	 4.235479810904370e+000	 1.861917114143071e+000	-7.633360070732316e-001
1	 4.215355263256365e+000	 1.907040904467783e+000	-8.069438453247818e-001
1	 4.194709333838777e+000	 1.952034561658800e+000	-8.494916836554883e-001
1	 4.173542680367494e+000	 1.996889335378473e+000	-8.908113758332426e-001
1	 4.151856151028105e+000	 2.041596458262454e+000	-9.307276711471390e-001
1	 4.129650785755607e+000	 2.086147150973950e+000	-9.690582803530886e-001
1	 4.106927817356930e+000	 2.130532627324669e+000	-1.005613954331867e+000
1	 4.083688672472942e+000	 2.174744099456916e+000	-1.040198575552898e+000
1	 4.059934972376665e+000	 2.218772783081054e+000	-1.072609262407899e+000
1	 4.035668533604806e+000	 2.262609902762454e+000	-1.102636486448390e+000
1	 4.279605169453902e+000	 1.827141664351063e+000	-6.101670711688354e-001
1	 4.259889499050846e+000	 1.872647614142192e+000	-6.495331603191481e-001
1	 4.239648970698495e+000	 1.918031459454879e+000	-6.884090932017942e-001
1	 4.218884055777345e+000	 1.963284421657692e+000	-7.266366773394968e-001
1	 4.197595415793796e+000	 2.008397699983488e+000	-7.640476088407396e-001
1	 4.175783903821666e+000	 2.053362476540301e+000	-8.004634988487949e-001
1	 4.153450565789250e+000	 2.098169921394718e+000	-8.356959174935539e-001
1	 4.130596641608336e+000	 2.142811197722343e+000	-8.695464555883936e-001
1	 4.107223566141736e+000	 2.187277467019754e+000	-9.018068042756827e-001
1	 4.083332970006111e+000	 2.231559894372153e+000	-9.322588527839611e-001
1	 4.058926680207141e+000	 2.275649653770777e+000	-9.606748044183030e-001
1	 4.304127873716954e+000	 1.837611428009748e+000	-5.158481708854625e-001
1	 4.284299229912193e+000	 1.883378132918639e+000	-5.503951042204525e-001
1	 4.263942720652592e+000	 1.929022033674333e+000	-5.847297990935219e-001
1	 4.243058820019717e+000	 1.974534301342660e+000	-6.187057170533380e-001
1	 4.221648193310499e+000	 2.019906084726900e+000	-6.521652701805006e-001
1	 4.199711698486981e+000	 2.065128515407375e+000	-6.849398275885400e-001
1	 4.177250387470768e+000	 2.110192712853969e+000	-7.168497408497461e-001
1	 4.154265507278510e+000	 2.155089789606092e+000	-7.477043886452233e-001
1	 4.130758500994970e+000	 2.199810856514507e+000	-7.773022408968259e-001
1	 4.106731008580471e+000	 2.244347028039166e+000	-8.054309425954821e-001
1	 4.082184867509671e+000	 2.288689427597087e+000	-8.318674174953962e-001
1	 4.328650627022914e+000	 1.848081212606869e+000	-4.353757559414362e-001
1	 4.308709009590553e+000	 1.894108673154950e+000	-4.653022807035734e-001
1	 4.288236519191803e+000	 1.940012629873676e+000	-4.951877764144999e-001
1	 4.267233632609309e+000	 1.985784203526040e+000	-5.249060598441374e-001
1	 4.245701018930529e+000	 2.031414492485641e+000	-5.543209528495808e-001
1	 4.223639541005738e+000	 2.076894577804999e+000	-5.832862758056627e-001
1	 4.201050256749856e+000	 2.122215528357185e+000	-6.116458579221574e-001
1	 4.177934420284409e+000	 2.167368406045322e+000	-6.392335647408962e-001
1	 4.154293482916130e+000	 2.212344271074257e+000	-6.658733430694648e-001
1	 4.130129093949001e+000	 2.257134187278590e+000	-6.913792835697334e-001
1	 4.105443101326692e+000	 2.301729227501026e+000	-7.155557011800076e-001
1	 4.353173435502171e+000	 1.858551020759795e+000	-3.682642981093216e-001
1	 4.333118844188068e+000	 1.904839237533663e+000	-3.936490725265372e-001
1	 4.312530372389278e+000	 1.951003250800439e+000	-4.190810021710657e-001
1	 4.291408499589530e+000	 1.997034131020163e+000	-4.444628068410363e-001
1	 4.269753898666800e+000	 2.042922926136646e+000	-4.696902361816205e-001
1	 4.247567437359611e+000	 2.088660666674489e+000	-4.946520568443114e-001
1	 4.224850179576207e+000	 2.134238370909847e+000	-5.192300510634302e-001
1	 4.201603386542996e+000	 2.179647050109439e+000	-5.432990268745070e-001
1	 4.177828517788692e+000	 2.224877713832085e+000	-5.667268401750951e-001
1	 4.153527231960960e+000	 2.269921375286927e+000	-5.893744288033462e-001
1	 4.128701387472490e+000	 2.314769056742235e+000	-6.110958587835156e-001
1	 3.896120183094670e+000	 2.184371693350318e+000	-2.269509684096122e+000
1	 3.872196156391830e+000	 2.226505887565815e+000	-2.287819880124169e+000
1	 3.847781051657799e+000	 2.268438184788724e+000	-2.295080319748062e+000
1	 3.822877194375687e+000	 2.310160168438054e+000	-2.291862038571745e+000
1	 3.797487099402197e+000	 2.351663451361817e+000	-2.278781477088704e+000
1	 3.771613470733660e+000	 2.392939681090942e+000	-2.256499789422177e+000
1	 3.745259201099026e+000	 2.433980545103553e+000	-2.225722067260113e+000
1	 3.718427371378765e+000	 2.474777776093068e+000	-2.187196479694370e+000
1	 3.691121249848881e+000	 2.515323157233418e+000	-2.141713329893111e+000
1	 3.663344291249593e+000	 2.555608527434688e+000	-2.090104029755193e+000
1	 3.635100135678463e+000	 2.595625786582433e+000	-2.033239993913886e+000
1	 3.919378207595921e+000	 2.197411375903190e+000	-2.033904611885244e+000
1	 3.895311365586440e+000	 2.239797091651857e+000	-2.055457179959675e+000
1	 3.870750514038509e+000	 2.281979705176810e+000	-2.066517700019475e+000
1	 3.845697992317276e+000	 2.323950749653989e+000	-2.067562989958129e+000
1	 3.820156330291954e+000	 2.365701787864012e+000	-2.059116471398769e+000
1	 3.794128248100461e+000	 2.407224417477454e+000	-2.041747633825833e+000
1	 3.767616655739987e+000	 2.448510276350554e+000	-2.016071412812506e+000
1	 3.740624652482407e+000	 2.489551047824761e+000	-1.982747482722844e+000
1	 3.713155526113803e+000	 2.530338466023375e+000	-1.942479464487402e+000
1	 3.685212751997570e+000	 2.570864321138575e+000	-1.896014049271401e+000
1	 3.656799991960950e+000	 2.611120464702004e+000	-1.844140039075306e+000
1	 3.942636237911627e+000	 2.210451061716202e+000	-1.815742143122477e+000
1	 3.918426580559851e+000	 2.253088299060944e+000	-1.839563088938000e+000
1	 3.893719982161631e+000	 2.295521228950525e+000	-1.853514558046925e+000
1	 3.868518795964159e+000	 2.337741334317803e+000	-1.857984460881146e+000
1	 3.842825566849163e+000	 2.379740127875997e+000	-1.853407678599212e+000
1	 3.816643031096151e+000	 2.421509157435314e+000	-1.840265670262942e+000
1	 3.789974115970547e+000	 2.463040011230107e+000	-1.819085994404144e+000
1	 3.762821939135638e+000	 2.504324323249833e+000	-1.790441745067453e+000
1	 3.735189807887588e+000	 2.545353778567166e+000	-1.754950902631733e+000
1	 3.707081218212970e+000	 2.586120118656366e+000	-1.713275599930416e+000
1	 3.678499853668706e+000	 2.626615146695153e+000	-1.666121304410351e+000
1	 3.965894279856078e+000	 2.223490754048992e+000	-1.614265104159022e+000
1	 3.941541807090635e+000	 2.266379513115587e+000	-1.639488572591082e+000
1	 3.916689461769292e+000	 2.309062759494951e+000	-1.655519303693169e+000
1	 3.891339611021289e+000	 2.351531925876843e+000	-1.662661553582683e+000
1	 3.865494814740871e+000	 2.393778474907056e+000	-1.661266093966058e+000
1	 3.839157825349139e+000	 2.435793904535413e+000	-1.651729950137943e+000
1	 3.812331587379767e+000	 2.477569753374349e+000	-1.634496055045989e+000
1	 3.785019236887463e+000	 2.519097606061323e+000	-1.610052819251548e+000
1	 3.757224100678466e+000	 2.560369098618344e+000	-1.578933616826079e+000
1	 3.728949695362555e+000	 2.601375923801742e+000	-1.541716187435404e+000
1	 3.700199726226330e+000	 2.642109836435287e+000	-1.499021955078402e+000
1	 3.989152339243563e+000	 2.236530456161202e+000	-1.428733968733047e+000
1	 3.964657050957376e+000	 2.279670737138295e+000	-1.454599722619694e+000
1	 3.939658958603628e+000	 2.322604300195172e+000	-1.471993201108841e+000
1	 3.914160443193615e+000	 2.365322527778455e+000	-1.481140203375813e+000
1	 3.888164079634114e+000	 2.407816832466474e+000	-1.482311776396034e+000
1	 3.861672636487839e+000	 2.450078662348638e+000	-1.475824071665475e+000
1	 3.834689075556711e+000	 2.492099506415424e+000	-1.462038121031924e+000
1	 3.807216551286875e+000	 2.533870899952260e+000	-1.441359531247650e+000
1	 3.779258409994675e+000	 2.575384429930460e+000	-1.414238097054545e+000
1	 3.750818188913090e+000	 2.616631740388379e+000	-1.381167332815982e+000
1	 3.721899615058423e+000	 2.657604537795815e+000	-1.342683922915479e+000
1	 4.012410421888376e+000	 2.249570171312477e+000	-1.258426346027195e+000
1	 3.987772317938652e+000	 2.292961974451581e+000	-1.284277318045520e+000
1	 3.962628478406767e+000	 2.336145854436272e+000	-1.302409995750890e+000
1	 3.936981298186089e+000	 2.379113143469983e+000	-1.312976864262783e+000
1	 3.910833367195941e+000	 2.421855204063538e+000	-1.316173585325017e+000
1	 3.884187470140661e+000	 2.464363434445877e+000	-1.312238960765028e+000
1	 3.857046586090442e+000	 2.506629273985477e+000	-1.301454819466480e+000
1	 3.829413887882881e+000	 2.548644208615679e+000	-1.284145827283080e+000
1	 3.801292741344446e+000	 2.590399776257062e+000	-1.260679219508854e+000
1	 3.772686704331336e+000	 2.631887572229961e+000	-1.231464455711188e+000
1	 3.743599525589591e+000	 2.673099254650146e+000	-1.196952796927138e+000
1	 4.035668533604806e+000	 2.262609902762454e+000	-1.102636486448390e+000
1	 4.010887613813038e+000	 2.306253228377954e+000	-1.127916401555158e+000
1	 3.985598026920840e+000	 2.349687425603333e+000	-1.146255554312860e+000
1	 3.959802181703660e+000	 2.392903776398774e+000	-1.157738205436140e+000
1	 3.933502683093391e+000	 2.435893593207531e+000	-1.162488926753929e+000
1	 3.906702331936016e+000	 2.478648224398018e+000	-1.160672659540572e+000
1	 3.879404124570022e+000	 2.521159059716648e+000	-1.152494702109305e+000
1	 3.851611252224484e+000	 2.563417535744617e+000	-1.138200625948945e+000
1	 3.823327100236015e+000	 2.605415141351706e+000	-1.118076119856377e+000
1	 3.794555247084064e+000	 2.647143423140165e+000	-1.092446761693027e+000
1	 3.765299463244429e+000	 2.688593990871690e+000	-1.061677717572296e+000
1	 4.058926680207141e+000	 2.275649653770777e+000	-9.606748044183030e-001
1	 4.034002944359120e+000	 2.319544502239928e+000	-9.849258704261015e-001
1	 4.008567609887977e+000	 2.363229017081439e+000	-1.003027517048440e+000
1	 3.982623099451280e+000	 2.406694430012174e+000	-1.015000818226153e+000
1	 3.956172032993508e+000	 2.449932003407741e+000	-1.020903508016117e+000
1	 3.929217227502314e+000	 2.492933035775949e+000	-1.020830122040560e+000
1	 3.901761696584512e+000	 2.535688867241079e+000	-1.014912075282836e+000
1	 3.873808649860681e+000	 2.578190885032107e+000	-1.003317675399338e+000
1	 3.845361492177609e+000	 2.620430528967938e+000	-9.862520708701872e-001
1	 3.816423822638035e+000	 2.662399296932675e+000	-9.639571334681762e-001
1	 3.786999433447543e+000	 2.704088750333855e+000	-9.367112746857232e-001
1	 4.082184867509671e+000	 2.288689427597087e+000	-8.318674174953963e-001
1	 4.057118315355471e+000	 2.332835799360010e+000	-8.547280814523774e-001
1	 4.031537233050311e+000	 2.376770632255675e+000	-8.722349619936023e-001
1	 4.005444057133900e+000	 2.420485107757529e+000	-8.843509330773253e-001
1	 3.978841422563334e+000	 2.463970438173451e+000	-8.910711009373880e-001
1	 3.951732162467971e+000	 2.507217872150561e+000	-8.924230170076223e-001
1	 3.924119307722978e+000	 2.550218700190915e+000	-8.884668356010159e-001
1	 3.896006086340477e+000	 2.592964260171183e+000	-8.792954154377140e-001
1	 3.867395922677467e+000	 2.635445942859312e+000	-8.650343642470019e-001
1	 3.838292436460015e+000	 2.677655197421168e+000	-8.458420258031980e-001
1	 3.808699441623531e+000	 2.719583536910049e+000	-8.219094088939789e-001
1	 4.105443101326692e+000	 2.301729227501026e+000	-7.155557011800076e-001
1	 4.080233732580672e+000	 2.346127123060713e+000	-7.367584693141143e-001
1	 4.054506902149972e+000	 2.390312274511121e+000	-7.533980806148090e-001
1	 4.028265060456469e+000	 2.434275813082185e+000	-7.653841461558559e-001
1	 4.001510857469911e+000	 2.478008901013948e+000	-7.726533130554348e-001
1	 3.974247142461394e+000	 2.521502737092738e+000	-7.751695373405168e-001
1	 3.946476963574481e+000	 2.564748562198295e+000	-7.729243112880008e-001
1	 3.918203567212872e+000	 2.607737664854878e+000	-7.659368442962464e-001
1	 3.889430397243822e+000	 2.650461386779378e+000	-7.542541964467363e-001
1	 3.860161094016768e+000	 2.692911128419326e+000	-7.379513640253066e-001
1	 3.830399493196998e+000	 2.735078354473679e+000	-7.171313163860511e-001
1	 4.128701387472490e+000	 2.314769056742235e+000	-6.110958587835156e-001
1	 4.103349201813303e+000	 2.359418476664549e+000	-6.304651778603566e-001
1	 4.077476622929090e+000	 2.403853947232863e+000	-6.460478644323133e-001
1	 4.051086115123940e+000	 2.448066549433488e+000	-6.577051552079082e-001
1	 4.024180343380284e+000	 2.492047395438517e+000	-6.653193665804952e-001
1	 3.996762173110999e+000	 2.535787634173376e+000	-6.687942160032617e-001
1	 3.968834669728084e+000	 2.579278456895365e+000	-6.680551088661663e-001
1	 3.940401098026867e+000	 2.622511102776228e+000	-6.630493899230373e-001
1	 3.911464921384908e+000	 2.665476864481689e+000	-6.537465583948998e-001
1	 3.882029800775060e+000	 2.708167093740828e+000	-6.401384459575618e-001
1	 3.852099593592544e+000	 2.750573206898159e+000	-6.222393569062855e-001
1	 3.635100135678463e+000	 2.595625786582433e+000	-2.033239993913886e+000
1	 3.606392606282453e+000	 2.635366899875415e+000	-1.970887057973435e+000
1	 3.577225704752324e+000	 2.674823900322948e+000	-1.902314374275731e+000
1	 3.547603612821848e+000	 2.713988896438097e+000	-1.827701873647056e+000
1	 3.517530691503432e+000	 2.752854078213755e+000	-1.747261907764973e+000
1	 3.487011479119201e+000	 2.791411722183962e+000	-1.661239325587461e+000
1	 3.456050689161568e+000	 2.829654196428459e+000	-1.569911494272499e+000
1	 3.424653207985159e+000	 2.867573965513814e+000	-1.473588264087556e+000
1	 3.392824092332315e+000	 2.905163595364520e+000	-1.372611876945214e+000
1	 3.360568566694637e+000	 2.942415758057519e+000	-1.267356818340223e+000
1	 3.327892020513366e+000	 2.979323236533758e+000	-1.158229612603968e+000
1	 3.656799991960950e+000	 2.611120464702004e+000	-1.844140039075306e+000
1	 3.627921091973301e+000	 2.651098813948400e+000	-1.786557503984545e+000
1	 3.598580077613614e+000	 2.690791354327859e+000	-1.722637102244275e+000
1	 3.568781155578661e+000	 2.730190147244945e+000	-1.652729735300372e+000
1	 3.538528712914069e+000	 2.769287336070453e+000	-1.577219819451904e+000
1	 3.507827315033624e+000	 2.808075151232928e+000	-1.496525045744944e+000
1	 3.476681703567104e+000	 2.846545915253110e+000	-1.411096080937270e+000
1	 3.445096794038395e+000	 2.884692047714542e+000	-1.321416209697624e+000
1	 3.413077673376231e+000	 2.922506070163752e+000	-1.228000918351364e+000
1	 3.380629597259997e+000	 2.959980610933395e+000	-1.131397420632878e+000
1	 3.347757987303395e+000	 2.997108409881948e+000	-1.032184126053414e+000
1	 3.678499853668706e+000	 2.626615146695153e+000	-1.666121304410352e+000
1	 3.649449583046557e+000	 2.666830731954232e+000	-1.613110213461163e+000
1	 3.619934455813751e+000	 2.706758812324469e+000	-1.553689219529967e+000
1	 3.589958703630074e+000	 2.746391402101919e+000	-1.488358937457549e+000
1	 3.559526739574368e+000	 2.785720598035260e+000	-1.417654455248839e+000
1	 3.528643156152111e+000	 2.824738584447534e+000	-1.342144813230541e+000
1	 3.497312723130440e+000	 2.863437638300463e+000	-1.262432421245831e+000
1	 3.465540385202509e+000	 2.901810134194556e+000	-1.179152414639955e+000
1	 3.433331259483468e+000	 2.939848549298362e+000	-1.092971949949262e+000
1	 3.400690632840491e+000	 2.977545468200245e+000	-1.004589441363174e+000
1	 3.367623959059742e+000	 3.014893587676185e+000	-9.147337391834309e-001
1	 3.700199726226330e+000	 2.642109836435287e+000	-1.499021955078402e+000
1	 3.670978084883970e+000	 2.682562657825638e+000	-1.450387830543291e+000
1	 3.641288844690950e+000	 2.722726278304398e+000	-1.395316595825502e+000
1	 3.611136262270088e+000	 2.762592665059088e+000	-1.334437694890413e+000
1	 3.580524776733461e+000	 2.802153868216249e+000	-1.268415869240779e+000
1	 3.549459007678244e+000	 2.841402025993399e+000	-1.197950391765632e+000
1	 3.517943753008951e+000	 2.880329369793212e+000	-1.123774235973984e+000
1	 3.485983986588032e+000	 2.918928229233141e+000	-1.046653181884516e+000
1	 3.453584855717061e+000	 2.957191037103732e+000	-9.673848600101176e-001
1	 3.420751678451021e+000	 2.995110334249032e+000	-8.867977350404335e-001
1	 3.387489940748560e+000	 3.032678774362513e+000	-8.057500309864433e-001
1	 3.721899615058423e+000	 2.657604537795815e+000	-1.342683922915479e+000
1	 3.692506602867291e+000	 2.698294595495338e+000	-1.298236661461453e+000
1	 3.662643249583431e+000	 2.738693756259258e+000	-1.247368687508768e+000
1	 3.632313836792711e+000	 2.778793940166521e+000	-1.190817754158884e+000
1	 3.601522829640471e+000	 2.818587150721498e+000	-1.129357604198825e+000
1	 3.570274874815602e+000	 2.858065480036140e+000	-1.063796993705411e+000
1	 3.538574798360022e+000	 2.897221113954046e+000	-9.949786487600738e-001
1	 3.506427603305497e+000	 2.936046337109576e+000	-9.237781569903327e-001
1	 3.473838467140046e+000	 2.974533537915240e+000	-8.511027958294111e-001
1	 3.440812739106495e+000	 3.012675213470731e+000	-7.778902995563165e-001
1	 3.407355937336000e+000	 3.050463974386978e+000	-7.051075673442984e-001
1	 3.743599525589591e+000	 2.673099254650146e+000	-1.196952796927137e+000
1	 3.714035142378266e+000	 2.714026548896057e+000	-1.156506568061962e+000
1	 3.683997675829406e+000	 2.754661250180662e+000	-1.109698433353061e+000
1	 3.653491432491950e+000	 2.794995231474285e+000	-1.057354290910944e+000
1	 3.622520903544524e+000	 2.835020449659075e+000	-1.000336590127946e+000
1	 3.591090762767767e+000	 2.874728950741375e+000	-9.395431797469243e-001
1	 3.559205864341033e+000	 2.914112875005660e+000	-8.759060871407223e-001
1	 3.526871240465430e+000	 2.953164462103143e+000	-8.103902308916212e-001
1	 3.494092098815463e+000	 2.991876056068263e+000	-7.439920689418196e-001
1	 3.460873819821822e+000	 3.030240110256311e+000	-6.777381847623052e-001
1	 3.427221953788212e+000	 3.068249192195626e+000	-6.126838141571859e-001
1	 3.765299463244429e+000	 2.688593990871690e+000	-1.061677717572296e+000
1	 3.735563708798650e+000	 2.729758521960522e+000	-1.025050865018101e+000
1	 3.705352128767096e+000	 2.770628764060226e+000	-9.821621538475917e-001
1	 3.674669054661811e+000	 2.811196543032450e+000	-9.339058107378623e-001
1	 3.643519003694748e+000	 2.851453769137059e+000	-8.812130463269143e-001
1	 3.611906676738323e+000	 2.891392442274725e+000	-8.250507621091077e-001
1	 3.579836956109366e+000	 2.931004657170742e+000	-7.664201870125293e-001
1	 3.547314903178365e+000	 2.970282608493129e+000	-7.063554460493375e-001
1	 3.514345755806346e+000	 3.009218595898182e+000	-6.459220636174015e-001
1	 3.480934925611911e+000	 3.047805028996743e+000	-5.862154042120150e-001
1	 3.447087995071350e+000	 3.086034432234503e+000	-5.283590534799006e-001
1	 3.786999433447543e+000	 2.704088750333855e+000	-9.367112746857231e-001
1	 3.757092307510191e+000	 2.745490518621454e+000	-9.037262205793009e-001
1	 3.726706613734713e+000	 2.786596301889566e+000	-8.646194539833713e-001
1	 3.695846708596300e+000	 2.827397878891083e+000	-8.203340534419510e-001
1	 3.664517135340264e+000	 2.867887113263517e+000	-7.718503868192291e-001
1	 3.632722621930851e+000	 2.908055958801806e+000	-7.201847110452639e-001
1	 3.600468078822400e+000	 2.947896464671987e+000	-6.663877003821163e-001
1	 3.567758596554829e+000	 2.987400780558812e+000	-6.115429058328923e-001
1	 3.534599443175731e+000	 3.026561161740375e+000	-5.567651485073175e-001
1	 3.500996061491667e+000	 3.065369974082996e+000	-5.031988499413717e-001
1	 3.466954066151565e+000	 3.103819698949656e+000	-4.520163025446097e-001
1	 3.808699441623531e+000	 2.719583536910049e+000	-8.219094088939789e-001
1	 3.778620943894639e+000	 2.761222542811580e+000	-7.923925607169077e-001
1	 3.748061136070473e+000	 2.802563867660294e+000	-7.569331293660309e-001
1	 3.717024399589422e+000	 2.843599243100253e+000	-7.165039005805370e-001
1	 3.685515303730202e+000	 2.884320486146528e+000	-6.721151290205006e-001
1	 3.653538603548932e+000	 2.924719504488237e+000	-6.248130645549903e-001
1	 3.621099237637516e+000	 2.964788301732085e+000	-5.756784062733160e-001
1	 3.588202325705354e+000	 3.004518982579476e+000	-5.258246870031571e-001
1	 3.554853165986657e+000	 3.043903757930221e+000	-4.763965913133155e-001
1	 3.521057232476001e+000	 3.082934949906039e+000	-4.285682101652010e-001
1	 3.486820171995006e+000	 3.121604996787129e+000	-3.835412355549665e-001
1	 3.830399493196998e+000	 2.735078354473679e+000	-7.171313163860511e-001
1	 3.800149623333742e+000	 2.776954598463622e+000	-6.909129765318713e-001
1	 3.769415701112596e+000	 2.818531465364028e+000	-6.589690755235685e-001
1	 3.738202132935184e+000	 2.859800639710027e+000	-6.222832861561995e-001
1	 3.706513514113687e+000	 2.900753891894165e+000	-5.818768055138321e-001
1	 3.674354626796149e+000	 2.941383083499637e+000	-5.388068411685498e-001
1	 3.641730437712098e+000	 2.981680172573729e+000	-4.941650246660704e-001
1	 3.608646095740468e+000	 3.021637218834403e+000	-4.490757551735587e-001
1	 3.575106929302158e+000	 3.061246388803097e+000	-4.046944763609343e-001
1	 3.541118443579818e+000	 3.100499960856845e+000	-3.622058897745955e-001
1	 3.506686317567826e+000	 3.139390330192969e+000	-3.228221081414813e-001
1	 3.852099593592544e+000	 2.750573206898159e+000	-6.222393569062854e-001
1	 3.821678351209255e+000	 2.792686689510306e+000	-5.991536347954186e-001
1	 3.790770314199296e+000	 2.834499098992381e+000	-5.705962002828462e-001
1	 3.759379913927593e+000	 2.876002072770478e+000	-5.375431103289288e-001
1	 3.727511771739845e+000	 2.917187334614499e+000	-5.010078788104380e-001
1	 3.695170696876086e+000	 2.958046700001626e+000	-4.620399556823604e-001
1	 3.662361684203525e+000	 2.998572081419610e+000	-4.217231333474101e-001
1	 3.629089911770705e+000	 3.038755493602875e+000	-3.811738831317780e-001
1	 3.595360738185273e+000	 3.078589058694384e+000	-3.415396249618123e-001
1	 3.561179699818029e+000	 3.118065011326383e+000	-3.039969335244117e-001
1	 3.526552507836179e+000	 3.157175703613221e+000	-2.697496843731277e-001
1	 3.327892020513366e+000	 2.979323236533758e+000	-1.158229612603968e+000
1	 3.294805000137952e+000	 3.015873473340294e+000	-1.049980254403043e+000
1	 3.261308345935689e+000	 3.052065054294209e+000	-9.466440326074948e-001
1	 3.227407924036499e+000	 3.087891128237413e+000	-8.476193907247785e-001
1	 3.193109752621236e+000	 3.123344972753669e+000	-7.522924780580109e-001
1	 3.158419998366947e+000	 3.158419998366947e+000	-6.600381526966948e-001
1	 3.123344972753668e+000	 3.193109752621235e+000	-5.702210046147221e-001
1	 3.087891128237413e+000	 3.227407924036498e+000	-4.821963967555510e-001
1	 3.052065054294209e+000	 3.261308345935689e+000	-3.953115219382225e-001
1	 3.015873473340296e+000	 3.294805000137950e+000	-3.089064733783397e-001
1	 2.979323236533757e+000	 3.327892020513365e+000	-2.223153265852206e-001
1	 3.347757987303395e+000	 2.997108409881948e+000	-1.032184126053414e+000
1	 3.314473452812669e+000	 3.033876834594319e+000	-9.349687798457700e-001
1	 3.280776839171725e+000	 3.070284462445565e+000	-8.433945995869024e-001
1	 3.246674047528561e+000	 3.106324401379362e+000	-7.566499447030159e-001
1	 3.212171131989779e+000	 3.141989888849766e+000	-6.739090012251687e-001
1	 3.177274296044633e+000	 3.177274296044634e+000	-5.943331676950264e-001
1	 3.141989888849766e+000	 3.212171131989780e+000	-5.170724641966941e-001
1	 3.106324401379360e+000	 3.246674047528559e+000	-4.412669615746848e-001
1	 3.070284462445565e+000	 3.280776839171725e+000	-3.660482278458080e-001
1	 3.033876834594320e+000	 3.314473452812668e+000	-2.905407887695540e-001
1	 2.997108409881948e+000	 3.347757987303394e+000	-2.138635995077379e-001
1	 3.367623959059742e+000	 3.014893587676185e+000	-9.147337391834305e-001
1	 3.334141910404290e+000	 3.051880200348930e+000	-8.278538550788090e-001
1	 3.300245337274650e+000	 3.088503875151511e+000	-7.472181862407918e-001
1	 3.265940175836902e+000	 3.124757679129364e+000	-6.718347527209586e-001
1	 3.231232516123409e+000	 3.160634809606826e+000	-6.006957745117166e-001
1	 3.196128598435629e+000	 3.196128598435629e+000	-5.327793890023467e-001
1	 3.160634809606826e+000	 3.231232516123408e+000	-4.670513941861509e-001
1	 3.124757679129365e+000	 3.265940175836902e+000	-4.024670139675839e-001
1	 3.088503875151512e+000	 3.300245337274649e+000	-3.379726818608492e-001
1	 3.051880200348931e+000	 3.334141910404288e+000	-2.725078393249403e-001
1	 3.014893587676185e+000	 3.367623959059741e+000	-2.050067449455041e-001
1	 3.387489940748560e+000	 3.032678774362513e+000	-8.057500309864429e-001
1	 3.353810377829602e+000	 3.069883575104714e+000	-7.285166103100874e-001
1	 3.319713845111270e+000	 3.106723296966643e+000	-6.580087769546512e-001
1	 3.285206313777745e+000	 3.143190966095471e+000	-5.930834387171314e-001
1	 3.250293909787164e+000	 3.179279739685800e+000	-5.325803264054898e-001
1	 3.214982910253216e+000	 3.214982910253216e+000	-4.753239920067068e-001
1	 3.179279739685799e+000	 3.250293909787164e+000	-4.201258348406554e-001
1	 3.143190966095472e+000	 3.285206313777744e+000	-3.657861514453974e-001
1	 3.106723296966644e+000	 3.319713845111269e+000	-3.110962048775062e-001
1	 3.069883575104714e+000	 3.353810377829599e+000	-2.548403090619598e-001
1	 3.032678774362513e+000	 3.387489940748560e+000	-1.957979237905949e-001
1	 3.407355937336000e+000	 3.050463974386978e+000	-7.051075673442984e-001
1	 3.373478860005382e+000	 3.087886963362258e+000	-6.368409403910263e-001
1	 3.339182367548385e+000	 3.124942732445550e+000	-5.756628216275277e-001
1	 3.304472466167311e+000	 3.161624266885730e+000	-5.203077281634765e-001
1	 3.269355317746097e+000	 3.197924683747635e+000	-4.694918701960312e-001
1	 3.233837236210684e+000	 3.233837236210684e+000	-4.219153795657897e-001
1	 3.197924683747635e+000	 3.269355317746097e+000	-3.762645681464959e-001
1	 3.161624266885730e+000	 3.304472466167310e+000	-3.312142113177034e-001
1	 3.124942732445552e+000	 3.339182367548385e+000	-2.854298517037195e-001
1	 3.087886963362259e+000	 3.373478860005381e+000	-2.375701183110093e-001
1	 3.050463974386978e+000	 3.407355937335999e+000	-1.862890561598997e-001
1	 3.427221953788212e+000	 3.068249192195626e+000	-6.126838141571860e-001
1	 3.393147361848418e+000	 3.105890369622151e+000	-5.527134244080699e-001
1	 3.358650909452801e+000	 3.143162186142826e+000	-5.000791639590455e-001
1	 3.323738637821821e+000	 3.180057586108189e+000	-4.534213869308524e-001
1	 3.288416744765251e+000	 3.216569646453285e+000	-4.113612549497155e-001
1	 3.252691581021319e+000	 3.252691581021319e+000	-3.725031462694604e-001
1	 3.216569646453285e+000	 3.288416744765252e+000	-3.354370961919205e-001
1	 3.180057586108189e+000	 3.323738637821821e+000	-2.987412636443643e-001
1	 3.143162186142827e+000	 3.358650909452801e+000	-2.609844187037797e-001
1	 3.105890369622152e+000	 3.393147361848417e+000	-2.207284458049363e-001
1	 3.068249192195626e+000	 3.427221953788212e+000	-1.765308573321840e-001
1	 3.447087995071350e+000	 3.086034432234503e+000	-5.283590534799008e-001
1	 3.412815888275493e+000	 3.123893798384978e+000	-4.760232480577913e-001
1	 3.378119475691321e+000	 3.161381662613057e+000	-4.311589722189951e-001
1	 3.343004833557501e+000	 3.198490928370902e+000	-3.923401622708910e-001
1	 3.307478195609673e+000	 3.235214632463700e+000	-3.581209181820279e-001
1	 3.271545949398407e+000	 3.271545949398407e+000	-3.270380439394981e-001
1	 3.235214632463701e+000	 3.307478195609675e+000	-2.976136202890648e-001
1	 3.198490928370902e+000	 3.343004833557500e+000	-2.683576044313497e-001
1	 3.161381662613058e+000	 3.378119475691321e+000	-2.377704511763077e-001
1	 3.123893798384979e+000	 3.412815888275493e+000	-2.043457500038422e-001
1	 3.086034432234504e+000	 3.447087995071350e+000	-1.665728724410924e-001
1	 3.466954066151565e+000	 3.103819698949656e+000	-4.520163025446095e-001
1	 3.432484444203388e+000	 3.141897254151326e+000	-4.066621286938117e-001
1	 3.397588071130752e+000	 3.179601166410840e+000	-3.688056723998031e-001
1	 3.362271058190569e+000	 3.216924298281913e+000	-3.369817258292470e-001
1	 3.326539675044415e+000	 3.253859646439833e+000	-3.097048401588504e-001
1	 3.290400346055236e+000	 3.290400346055236e+000	-2.854719483167962e-001
1	 3.253859646439832e+000	 3.326539675044415e+000	-2.627650208144870e-001
1	 3.216924298281914e+000	 3.362271058190569e+000	-2.400537490607980e-001
1	 3.179601166410838e+000	 3.397588071130751e+000	-2.157982504783385e-001
1	 3.141897254151327e+000	 3.432484444203387e+000	-1.884517896859475e-001
1	 3.103819698949656e+000	 3.466954066151564e+000	-1.564635099740442e-001
1	 3.486820171995006e+000	 3.121604996787129e+000	-3.835412355549664e-001
1	 3.452153034548887e+000	 3.159900741421784e+000	-3.445242429388513e-001
1	 3.417056700637892e+000	 3.197820702090761e+000	-3.129248836567404e-001
1	 3.381537316537249e+000	 3.235357700449274e+000	-2.872656186090963e-001
1	 3.345601187834516e+000	 3.272504693042630e+000	-2.660484997616980e-001
1	 3.309254775705090e+000	 3.309254775705090e+000	-2.477578268886434e-001
1	 3.272504693042629e+000	 3.345601187834515e+000	-2.308628377396445e-001
1	 3.235357700449275e+000	 3.381537316537248e+000	-2.138204259459125e-001
1	 3.197820702090762e+000	 3.417056700637892e+000	-1.950778809055672e-001
1	 3.159900741421784e+000	 3.452153034548886e+000	-1.730756438337565e-001
1	 3.121604996787128e+000	 3.486820171995005e+000	-1.462500741247241e-001
1	 3.506686317567826e+000	 3.139390330192969e+000	-3.228221081414813e-001
1	 3.471821664228772e+000	 3.177904264696934e+000	-2.895061567601082e-001
1	 3.436525369079551e+000	 3.216040274207416e+000	-2.634243559450404e-001
1	 3.400803613413762e+000	 3.253791139481034e+000	-2.431131978075181e-001
1	 3.364662738745024e+000	 3.291149776933045e+000	-2.270888318548427e-001
1	 3.328109243061256e+000	 3.328109243061256e+000	-2.138497078108331e-001
1	 3.291149776933045e+000	 3.364662738745024e+000	-2.018792518239083e-001
1	 3.253791139481036e+000	 3.400803613413762e+000	-1.896485704017891e-001
1	 3.216040274207417e+000	 3.436525369079551e+000	-1.756191763385140e-001
1	 3.177904264696934e+000	 3.471821664228771e+000	-1.582457308435371e-001
1	 3.139390330192968e+000	 3.506686317567826e+000	-1.359787960446563e-001
1	 3.526552507836179e+000	 3.157175703613221e+000	-2.697496843731277e-001
1	 3.491490338159828e+000	 3.195907828477368e+000	-2.415067579106552e-001
1	 3.455994081322530e+000	 3.234259887315394e+000	-2.202139097672271e-001
1	 3.420069953636332e+000	 3.272224619985245e+000	-2.044475854507548e-001
1	 3.383724332540991e+000	 3.309794902772032e+000	-1.927641860950040e-001
1	 3.346963752837023e+000	 3.346963752837023e+000	-1.837026498813585e-001
1	 3.309794902772032e+000	 3.383724332540992e+000	-1.757870664439504e-001
1	 3.272224619985246e+000	 3.420069953636332e+000	-1.675293187236556e-001
1	 3.234259887315396e+000	 3.455994081322531e+000	-1.574317466637885e-001
1	 3.195907828477369e+000	 3.491490338159828e+000	-1.439898270848244e-001
1	 3.157175703613221e+000	 3.526552507836178e+000	-1.256948640373206e-001
1	 2.979323236533757e+000	 3.327892020513365e+000	-2.223153265852205e-001
1	 2.942415758057519e+000	 3.360568566694637e+000	-1.361724627508085e-001
1	 2.905163595364522e+000	 3.392824092332316e+000	-5.188340869045394e-002
1	 2.867573965513815e+000	 3.424653207985158e+000	 3.012521132196444e-002
1	 2.829654196428458e+000	 3.456050689161565e+000	 1.094552914968274e-001
1	 2.791411722183963e+000	 3.487011479119198e+000	 1.857375198026713e-001
1	 2.752854078213757e+000	 3.517530691503431e+000	 2.586316016179756e-001
1	 2.713988896438098e+000	 3.547603612821848e+000	 3.278264316583722e-001
1	 2.674823900322949e+000	 3.577225704752323e+000	 3.930402142068106e-001
1	 2.635366899875415e+000	 3.606392606282451e+000	 4.540205318034131e-001
1	 2.595625786582433e+000	 3.635100135678463e+000	 5.105443626790857e-001
1	 2.997108409881948e+000	 3.347757987303394e+000	-2.138635995077380e-001
1	 2.959980610933398e+000	 3.380629597259997e+000	-1.363808901331460e-001
1	 2.922506070163753e+000	 3.413077673376230e+000	-5.949656556367922e-002
1	 2.884692047714543e+000	 3.445096794038394e+000	 1.616816500951079e-002
1	 2.846545915253111e+000	 3.476681703567104e+000	 9.001806663757395e-002
1	 2.808075151232929e+000	 3.507827315033624e+000	 1.614845335114136e-001
1	 2.769287336070453e+000	 3.538528712914067e+000	 2.300261943525676e-001
1	 2.730190147244946e+000	 3.568781155578661e+000	 2.951294673708363e-001
1	 2.690791354327860e+000	 3.598580077613612e+000	 3.563090639933150e-001
1	 2.651098813948400e+000	 3.627921091973300e+000	 4.131084407023051e-001
1	 2.611120464702003e+000	 3.656799991960950e+000	 4.651001984535000e-001
1	 3.014893587676185e+000	 3.367623959059741e+000	-2.050067449455042e-001
1	 2.977545468200246e+000	 3.400690632840491e+000	-1.355993438869085e-001
1	 2.939848549298364e+000	 3.433331259483468e+000	-6.568652797809493e-002
1	 2.901810134194558e+000	 3.465540385202508e+000	 3.941946237248972e-003
1	 2.863437638300465e+000	 3.497312723130437e+000	 7.251997990879588e-002
1	 2.824738584447536e+000	 3.528643156152111e+000	 1.393061204100177e-001
1	 2.785720598035261e+000	 3.559526739574368e+000	 2.035845023577843e-001
1	 2.746391402101920e+000	 3.589958703630072e+000	 2.646657394674195e-001
1	 2.706758812324471e+000	 3.619934455813750e+000	 3.218877657217616e-001
1	 2.666830731954234e+000	 3.649449583046557e+000	 3.746166244685992e-001
1	 2.626615146695152e+000	 3.678499853668705e+000	 4.222472042000255e-001
1	 3.032678774362513e+000	 3.387489940748560e+000	-1.957979237905948e-001
1	 2.995110334249033e+000	 3.420751678451020e+000	-1.338987922632546e-001
1	 2.957191037103734e+000	 3.453584855717059e+000	-7.053827042146188e-002
1	 2.918928229233141e+000	 3.485983986588031e+000	-6.649087661592446e-003
1	 2.880329369793212e+000	 3.517943753008949e+000	 5.685759316324035e-002
1	 2.841402025993400e+000	 3.549459007678243e+000	 1.190934523937247e-001
1	 2.802153868216250e+000	 3.580524776733459e+000	 1.791942445807657e-001
1	 2.762592665059090e+000	 3.611136262270087e+000	 2.363209815834971e-001
1	 2.722726278304400e+000	 3.641288844690951e+000	 2.896610655972245e-001
1	 2.682562657825638e+000	 3.670978084883968e+000	 3.384293700977933e-001
1	 2.642109836435286e+000	 3.700199726226330e+000	 3.818692668322204e-001
1	 3.050463974386978e+000	 3.407355937335999e+000	-1.862890561598997e-001
1	 3.012675213470734e+000	 3.440812739106494e+000	-1.313485477249918e-001
1	 2.974533537915241e+000	 3.473838467140045e+000	-7.413478506554982e-002
1	 2.936046337109576e+000	 3.506427603305496e+000	-1.569834822797434e-002
1	 2.897221113954048e+000	 3.538574798360020e+000	 4.292988129243724e-002
1	 2.858065480036141e+000	 3.570274874815600e+000	 1.007402402757858e-001
1	 2.818587150721498e+000	 3.601522829640470e+000	 1.567457596263050e-001
1	 2.778793940166523e+000	 3.632313836792710e+000	 2.099835935262592e-001
1	 2.738693756259259e+000	 3.662643249583431e+000	 2.595163992082383e-001
1	 2.698294595495339e+000	 3.692506602867289e+000	 3.044336647988054e-001
1	 2.657604537795814e+000	 3.721899615058423e+000	 3.438529828329470e-001
1	 3.068249192195626e+000	 3.427221953788212e+000	-1.765308573321840e-001
1	 3.030240110256313e+000	 3.460873819821821e+000	-1.280163149262427e-001
1	 2.991876056068266e+000	 3.494092098815462e+000	-7.655713921855301e-002
1	 2.953164462103146e+000	 3.526871240465430e+000	-2.329708054538937e-002
1	 2.914112875005661e+000	 3.559205864341032e+000	 3.063816228460126e-002
1	 2.874728950741376e+000	 3.591090762767767e+000	 8.414266019791505e-002
1	 2.835020449659076e+000	 3.622520903544523e+000	 1.361319298293795e-001
1	 2.794995231474286e+000	 3.653491432491948e+000	 1.855445640015171e-001
1	 2.754661250180662e+000	 3.683997675829406e+000	 2.313438135824703e-001
1	 2.714026548896059e+000	 3.714035142378265e+000	 2.725191177355050e-001
1	 2.673099254650146e+000	 3.743599525589591e+000	 3.080875797216626e-001
1	 3.086034432234504e+000	 3.447087995071350e+000	-1.665728724410924e-001
1	 3.047805028996744e+000	 3.480934925611909e+000	-1.239682370311918e-001
1	 3.009218595898184e+000	 3.514345755806345e+000	-7.788453078862778e-002
1	 2.970282608493129e+000	 3.547314903178363e+000	-2.953442566952569e-002
1	 2.931004657170744e+000	 3.579836956109366e+000	 1.988602970376996e-002
1	 2.891392442274726e+000	 3.611906676738323e+000	 6.919928258823638e-002
1	 2.851453769137059e+000	 3.643519003694745e+000	 1.172481079561287e-001
1	 2.811196543032452e+000	 3.674669054661810e+000	 1.628973960155342e-001
1	 2.770628764060227e+000	 3.705352128767095e+000	 2.050358919406261e-001
1	 2.729758521960524e+000	 3.735563708798649e+000	 2.425778844773868e-001
1	 2.688593990871690e+000	 3.765299463244429e+000	 2.744648402403097e-001
1	 3.103819698949656e+000	 3.466954066151564e+000	-1.564635099740444e-001
1	 3.065369974082997e+000	 3.500996061491667e+000	-1.192689404385628e-001
1	 3.026561161740376e+000	 3.534599443175730e+000	-7.819434183843227e-002
1	 2.987400780558813e+000	 3.567758596554828e+000	-3.449748090916688e-002
1	 2.947896464671988e+000	 3.600468078822399e+000	 1.057928749294906e-002
1	 2.908055958801807e+000	 3.632722621930849e+000	 5.581100356444951e-002
1	 2.867887113263519e+000	 3.664517135340263e+000	 9.999204642770965e-002
1	 2.827397878891083e+000	 3.695846708596299e+000	 1.419380348444519e-001
1	 2.786596301889567e+000	 3.726706613734711e+000	 1.804876810402515e-001
1	 2.745490518621455e+000	 3.757092307510189e+000	 2.145045940505583e-001
1	 2.704088750333854e+000	 3.786999433447542e+000	 2.428790291486683e-001
1	 3.121604996787128e+000	 3.486820171995005e+000	-1.462500741247241e-001
1	 3.082934949906041e+000	 3.521057232476000e+000	-1.139815779755173e-001
1	 3.043903757930221e+000	 3.554853165986655e+000	-7.756219030687789e-002
1	 3.004518982579477e+000	 3.588202325705353e+000	-3.827135804410708e-002
1	 2.964788301732086e+000	 3.621099237637516e+000	 2.625887008475103e-003
1	 2.924719504488238e+000	 3.653538603548931e+000	 4.388097868454721e-002
1	 2.884320486146530e+000	 3.685515303730201e+000	 8.426382896630263e-002
1	 2.843599243100253e+000	 3.717024399589420e+000	 1.225647984688048e-001
1	 2.802563867660295e+000	 3.748061136070472e+000	 1.575966210060452e-001
1	 2.761222542811582e+000	 3.778620943894637e+000	 1.881962784852497e-001
1	 2.719583536910049e+000	 3.808699441623531e+000	 2.132268225249674e-001
1	 3.139390330192968e+000	 3.506686317567826e+000	-1.359787960446563e-001
1	 3.100499960856846e+000	 3.541118443579816e+000	-1.081678706217179e-001
1	 3.061246388803098e+000	 3.575106929302158e+000	-7.606197997086422e-002
1	 3.021637218834405e+000	 3.608646095740467e+000	-4.093923956199735e-002
1	 2.981680172573730e+000	 3.641730437712097e+000	-4.064133802986647e-003
1	 2.941383083499639e+000	 3.674354626796149e+000	 3.331455895192559e-002
1	 2.900753891894166e+000	 3.706513514113685e+000	 6.996580456712209e-002
1	 2.859800639710028e+000	 3.738202132935183e+000	 1.046783103752416e-001
1	 2.818531465364029e+000	 3.769415701112595e+000	 1.362624775479305e-001
1	 2.776954598463623e+000	 3.800149623333741e+000	 1.635523047607298e-001
1	 2.735078354473680e+000	 3.830399493196999e+000	 1.854072394722943e-001
1	 3.157175703613221e+000	 3.526552507836178e+000	-1.256948640373206e-001
1	 3.118065011326384e+000	 3.561179699818027e+000	-1.018881478215802e-001
1	 3.078589058694385e+000	 3.595360738185272e+000	-7.376594871646300e-002
1	 3.038755493602877e+000	 3.629089911770705e+000	-4.258243299230502e-002
1	 2.998572081419612e+000	 3.662361684203524e+000	-9.578709169393018e-003
1	 2.958046700001628e+000	 3.695170696876085e+000	 2.401922898586145e-002
1	 2.917187334614501e+000	 3.727511771739843e+000	 5.700252370458508e-002
1	 2.876002072770479e+000	 3.759379913927593e+000	 8.818143463202949e-002
1	 2.834499098992384e+000	 3.790770314199296e+000	 1.163872764726538e-001
1	 2.792686689510307e+000	 3.821678351209254e+000	 1.404743090529740e-001
1	 2.750573206898159e+000	 3.852099593592544e+000	 1.593215761358430e-001
1	 2.595625786582433e+000	 3.635100135678463e+000	 5.105443626790857e-001
1	 2.555608527434690e+000	 3.663344291249594e+000	 5.624747682843346e-001
1	 2.515323157233419e+000	 3.691121249848880e+000	 6.095041792568069e-001
1	 2.474777776093069e+000	 3.718427371378764e+000	 6.512000426788316e-001
1	 2.433980545103553e+000	 3.745259201099025e+000	 6.871627562708222e-001
1	 2.392939681090943e+000	 3.771613470733658e+000	 7.170261661519344e-001
1	 2.351663451361819e+000	 3.797487099402198e+000	 7.404580021428724e-001
1	 2.310160168438055e+000	 3.822877194375687e+000	 7.571602502659295e-001
1	 2.268438184788725e+000	 3.847781051657798e+000	 7.668694622577343e-001
1	 2.226505887565816e+000	 3.872196156391828e+000	 7.693570020691386e-001
1	 2.184371693350319e+000	 3.896120183094671e+000	 7.644292294840105e-001
1	 2.611120464702003e+000	 3.656799991960950e+000	 4.651001984535000e-001
1	 2.570864321138576e+000	 3.685212751997569e+000	 5.120156862482345e-001
1	 2.530338466023376e+000	 3.713155526113802e+000	 5.536357229242920e-001
1	 2.489551047824761e+000	 3.740624652482406e+000	 5.896550596096895e-001
1	 2.448510276350556e+000	 3.767616655739987e+000	 6.198032002072504e-001
1	 2.407224417477455e+000	 3.794128248100461e+000	 6.438446665791350e-001
1	 2.365701787864014e+000	 3.820156330291952e+000	 6.615792003946597e-001
1	 2.323950749653990e+000	 3.845697992317274e+000	 6.728419017896624e-001
1	 2.281979705176812e+000	 3.870750514038508e+000	 6.775033051418999e-001
1	 2.239797091651859e+000	 3.895311365586439e+000	 6.754693924201619e-001
1	 2.197411375903191e+000	 3.919378207595922e+000	 6.666815447150868e-001
1	 2.626615146695152e+000	 3.678499853668705e+000	 4.222472042000255e-001
1	 2.586120118656368e+000	 3.707081218212969e+000	 4.644157762202106e-001
1	 2.545353778567167e+000	 3.735189807887586e+000	 5.010045688061665e-001
1	 2.504324323249835e+000	 3.762821939135638e+000	 5.318262710251774e-001
1	 2.463040011230107e+000	 3.789974115970546e+000	 5.567294132215563e-001
1	 2.421509157435316e+000	 3.816643031096150e+000	 5.755984207651756e-001
1	 2.379740127875998e+000	 3.842825566849162e+000	 5.883536046308022e-001
1	 2.337741334317804e+000	 3.868518795964157e+000	 5.949510893944082e-001
1	 2.295521228950527e+000	 3.893719982161630e+000	 5.953826793825424e-001
1	 2.253088299060946e+000	 3.918426580559849e+000	 5.896756638567843e-001
1	 2.210451061716201e+000	 3.942636237911626e+000	 5.778925622568765e-001
1	 2.642109836435286e+000	 3.700199726226330e+000	 3.818692668322204e-001
1	 2.601375923801743e+000	 3.728949695362554e+000	 4.195536344611668e-001
1	 2.560369098618345e+000	 3.757224100678465e+000	 4.514746000298086e-001
1	 2.519097606061324e+000	 3.785019236887461e+000	 4.775535889014466e-001
1	 2.477569753374350e+000	 3.812331587379766e+000	 4.977482506335847e-001
1	 2.435793904535414e+000	 3.839157825349139e+000	 5.120523222081475e-001
1	 2.393778474907057e+000	 3.865494814740868e+000	 5.204954292975869e-001
1	 2.351531925876845e+000	 3.891339611021287e+000	 5.231428265359539e-001
1	 2.309062759494952e+000	 3.916689461769291e+000	 5.200950779058463e-001
1	 2.266379513115588e+000	 3.941541807090635e+000	 5.114876784891370e-001
1	 2.223490754048992e+000	 3.965894279856078e+000	 4.974906189607518e-001
1	 2.657604537795814e+000	 3.721899615058423e+000	 3.438529828329470e-001
1	 2.616631740388380e+000	 3.750818188913088e+000	 3.773106900906015e-001
1	 2.575384429930460e+000	 3.779258409994675e+000	 4.049128754949731e-001
1	 2.533870899952260e+000	 3.807216551286874e+000	 4.266806596990076e-001
1	 2.492099506415426e+000	 3.834689075556711e+000	 4.426710727447252e-001
1	 2.450078662348639e+000	 3.861672636487839e+000	 4.529767474756149e-001
1	 2.407816832466475e+000	 3.888164079634113e+000	 4.577255532187935e-001
1	 2.365322527778456e+000	 3.914160443193614e+000	 4.570801710344223e-001
1	 2.322604300195174e+000	 3.939658958603628e+000	 4.512376119619387e-001
1	 2.279670737138297e+000	 3.964657050957376e+000	 4.404286798187127e-001
1	 2.236530456161203e+000	 3.989152339243565e+000	 4.249173802268091e-001
1	 2.673099254650146e+000	 3.743599525589591e+000	 3.080875797216626e-001
1	 2.631887572229962e+000	 3.772686704331336e+000	 3.375711229739012e-001
1	 2.590399776257065e+000	 3.801292741344446e+000	 3.611895378122974e-001
1	 2.548644208615681e+000	 3.829413887882881e+000	 3.790547560948763e-001
1	 2.506629273985478e+000	 3.857046586090440e+000	 3.913136142228244e-001
1	 2.464363434445877e+000	 3.884187470140660e+000	 3.981473972233390e-001
1	 2.421855204063539e+000	 3.910833367195940e+000	 3.997713263563575e-001
1	 2.379113143469984e+000	 3.936981298186088e+000	 3.964339918171719e-001
1	 2.336145854436273e+000	 3.962628478406765e+000	 3.884167322271406e-001
1	 2.292961974451583e+000	 3.987772317938651e+000	 3.760329627185685e-001
1	 2.249570171312477e+000	 4.012410421888377e+000	 3.596274535266153e-001
1	 2.688593990871690e+000	 3.765299463244429e+000	 2.744648402403097e-001
1	 2.647143423140167e+000	 3.794555247084062e+000	 3.002217844522003e-001
1	 2.605415141351707e+000	 3.823327100236013e+000	 3.201777244287782e-001
1	 2.563417535744619e+000	 3.851611252224484e+000	 3.345266724627247e-001
1	 2.521159059716650e+000	 3.879404124570022e+000	 3.434958580086882e-001
1	 2.478648224398019e+000	 3.906702331936014e+000	 3.473451427175545e-001
1	 2.435893593207533e+000	 3.933502683093391e+000	 3.463663832606072e-001
1	 2.392903776398776e+000	 3.959802181703660e+000	 3.408827437365478e-001
1	 2.349687425603335e+000	 3.985598026920840e+000	 3.312479595610444e-001
1	 2.306253228377956e+000	 4.010887613813038e+000	 3.178455548380765e-001
1	 2.262609902762454e+000	 4.035668533604805e+000	 3.010880153049302e-001
1	 2.704088750333854e+000	 3.786999433447542e+000	 2.428790291486683e-001
1	 2.662399296932676e+000	 3.816423822638035e+000	 2.651521208006377e-001
1	 2.620430528967939e+000	 3.845361492177608e+000	 2.817534818122425e-001
1	 2.578190885032109e+000	 3.873808649860683e+000	 2.929506239505065e-001
1	 2.535688867241081e+000	 3.901761696584511e+000	 2.990419135626071e-001
1	 2.492933035775951e+000	 3.929217227502314e+000	 3.003558776398461e-001
1	 2.449932003407743e+000	 3.956172032993508e+000	 2.972504629413363e-001
1	 2.406694430012176e+000	 3.982623099451279e+000	 2.901122501382359e-001
1	 2.363229017081441e+000	 4.008567609887977e+000	 2.793556250306793e-001
1	 2.319544502239928e+000	 4.034002944359119e+000	 2.654219089734571e-001
1	 2.275649653770778e+000	 4.058926680207141e+000	 2.487784507231480e-001
1	 2.719583536910049e+000	 3.808699441623531e+000	 2.132268225249674e-001
1	 2.677655197421170e+000	 3.838292436460013e+000	 2.322540993060820e-001
1	 2.635445942859314e+000	 3.867395922677467e+000	 2.457956825726199e-001
1	 2.592964260171184e+000	 3.896006086340478e+000	 2.541841490119218e-001
1	 2.550218700190916e+000	 3.924119307722977e+000	 2.577798992776311e-001
1	 2.507217872150561e+000	 3.951732162467970e+000	 2.569703749636492e-001
1	 2.463970438173453e+000	 3.978841422563334e+000	 2.521692349034294e-001
1	 2.420485107757531e+000	 4.005444057133898e+000	 2.438154928707149e-001
1	 2.376770632255676e+000	 4.031537233050311e+000	 2.323726188318239e-001
1	 2.332835799360012e+000	 4.057118315355470e+000	 2.183276059662718e-001
1	 2.288689427597086e+000	 4.082184867509672e+000	 2.021900057317596e-001
1	 2.735078354473680e+000	 3.830399493196999e+000	 1.854072394722943e-001
1	 2.692911128419328e+000	 3.860161094016767e+000	 2.014221368603318e-001
1	 2.650461386779380e+000	 3.889430397243821e+000	 2.121859454035063e-001
1	 2.607737664854879e+000	 3.918203567212871e+000	 2.180880152546150e-001
1	 2.564748562198297e+000	 3.946476963574479e+000	 2.195418288941782e-001
1	 2.521502737092741e+000	 3.974247142461394e+000	 2.169841487010852e-001
1	 2.478008901013949e+000	 4.001510857469909e+000	 2.108741311022632e-001
1	 2.434275813082187e+000	 4.028265060456468e+000	 2.016924094404493e-001
1	 2.390312274511123e+000	 4.054506902149972e+000	 1.899401477541935e-001
1	 2.346127123060715e+000	 4.080233732580671e+000	 1.761380677119185e-001
1	 2.301729227501026e+000	 4.105443101326692e+000	 1.608254509823582e-001
1	 2.750573206898159e+000	 3.852099593592544e+000	 1.593215761358430e-001
1	 2.708167093740829e+000	 3.882029800775058e+000	 1.725530309694797e-001
1	 2.665476864481691e+000	 3.911464921384907e+000	 1.808085577326263e-001
1	 2.622511102776231e+000	 3.940401098026868e+000	 1.845261284741593e-001
1	 2.579278456895366e+000	 3.968834669728083e+000	 1.841635017579840e-001
1	 2.535787634173377e+000	 3.996762173110999e+000	 1.801973203278357e-001
1	 2.492047395438518e+000	 4.024180343380283e+000	 1.731221835852099e-001
1	 2.448066549433489e+000	 4.051086115123938e+000	 1.634496970306995e-001
1	 2.403853947232866e+000	 4.077476622929091e+000	 1.517075008532497e-001
1	 2.359418476664551e+000	 4.103349201813302e+000	 1.384382798790137e-001
1	 2.314769056742235e+000	 4.128701387472490e+000	 1.241987571118014e-001
1	 2.184371693350319e+000	 3.896120183094671e+000	 7.644292294840100e-001
1	 2.142050406224803e+000	 3.919547518884829e+000	 7.551434012235598e-001
1	 2.099544179197507e+000	 3.942479845858590e+000	 7.441959503528495e-001
1	 2.056861484259475e+000	 3.964915410292883e+000	 7.309025543962492e-001
1	 2.014010801950551e+000	 3.986852646976334e+000	 7.146067088975494e-001
1	 1.971000616255269e+000	 4.008290178599601e+000	 6.946805878518979e-001
1	 1.927839409546483e+000	 4.029226814984732e+000	 6.705258421687177e-001
1	 1.884535657582463e+000	 4.049661552156453e+000	 6.415743354050923e-001
1	 1.841097824563027e+000	 4.069593571258430e+000	 6.072888161766780e-001
1	 1.797534358250062e+000	 4.089022237317838e+000	 5.671635268197172e-001
1	 1.753853685157622e+000	 4.107947097861664e+000	 5.207247480424154e-001
1	 2.197411375903191e+000	 3.919378207595922e+000	 6.666815447150868e-001
1	 2.154837450386865e+000	 3.942945393679174e+000	 6.542342899027719e-001
1	 2.112077480963578e+000	 3.966014615973810e+000	 6.408455330709525e-001
1	 2.069139990198221e+000	 3.988584110287832e+000	 6.259357861510178e-001
1	 2.026033509255521e+000	 4.010652302066276e+000	 6.089423867909241e-001
1	 1.982766572765458e+000	 4.032217805777888e+000	 5.893203348772232e-001
1	 1.939347713736703e+000	 4.053279424139900e+000	 5.665430866156825e-001
1	 1.895785458523869e+000	 4.073836147183757e+000	 5.401033051330040e-001
1	 1.852088321854111e+000	 4.093887151164926e+000	 5.095135666868784e-001
1	 1.808264801918526e+000	 4.113431797320075e+000	 4.743070216969938e-001
1	 1.764323375533539e+000	 4.132469630475129e+000	 4.340380099349962e-001
1	 2.210451061716201e+000	 3.942636237911626e+000	 5.778925622568766e-001
1	 2.167624497745854e+000	 3.966343274322894e+000	 5.630883168019084e-001
1	 2.124610785863071e+000	 3.989549391972592e+000	 5.479253699546447e-001
1	 2.081418499206607e+000	 4.012252816199793e+000	 5.319155064835379e-001
1	 2.038056219566089e+000	 4.034451963105935e+000	 5.145780019491202e-001
1	 1.994532532216957e+000	 4.056145438937857e+000	 4.954404343506801e-001
1	 1.950856020803725e+000	 4.077332039307960e+000	 4.740394700041102e-001
1	 1.907035262277359e+000	 4.098010748254416e+000	 4.499216223859729e-001
1	 1.863078821892371e+000	 4.118180737144486e+000	 4.226439827672264e-001
1	 1.818995248269086e+000	 4.137841363424331e+000	 3.917749215498454e-001
1	 1.774793068526321e+000	 4.156992169218809e+000	 3.568947593111569e-001
1	 2.223490754048992e+000	 3.965894279856078e+000	 4.974906189607515e-001
1	 2.180411551498271e+000	 3.989741166665249e+000	 4.810564779467931e-001
1	 2.137144097029069e+000	 4.013084179738416e+000	 4.647293367879042e-001
1	 2.093697014354038e+000	 4.035921533945724e+000	 4.480988723817243e-001
1	 2.050078935887734e+000	 4.058251636045004e+000	 4.307545548739495e-001
1	 2.006298497551086e+000	 4.080073084061181e+000	 4.122864334958416e-001
1	 1.962364333624480e+000	 4.101384666501832e+000	 3.922859104762897e-001
1	 1.918285071655264e+000	 4.122185361411839e+000	 3.703465015857911e-001
1	 1.874069327425338e+000	 4.142474335270260e+000	 3.460645819270322e-001
1	 1.829725699984283e+000	 4.162250941732746e+000	 3.190401156471101e-001
1	 1.785262766753336e+000	 4.181514720223089e+000	 2.888773683096124e-001
1	 2.236530456161203e+000	 3.989152339243565e+000	 4.249173802268091e-001
1	 2.193198614840611e+000	 4.013139076555488e+000	 4.075049008410008e-001
1	 2.149677417594655e+000	 4.036618985154761e+000	 3.905677722125613e-001
1	 2.105975538709923e+000	 4.059590269442585e+000	 3.737603593215758e-001
1	 2.062101661225939e+000	 4.082051326833178e+000	 3.567307406990919e-001
1	 2.018064471709165e+000	 4.104000747129543e+000	 3.391214675521754e-001
1	 1.973872655075901e+000	 4.125437311734432e+000	 3.205703220036402e-001
1	 1.929534889469918e+000	 4.146359992699434e+000	 3.007110728749091e-001
1	 1.885059841200541e+000	 4.166767951615396e+000	 2.791742274728138e-001
1	 1.840456159746654e+000	 4.186660538347463e+000	 2.555877778777119e-001
1	 1.795732472831950e+000	 4.206037289618354e+000	 2.295779402705619e-001
1	 2.249570171312477e+000	 4.012410421888377e+000	 3.596274535266152e-001
1	 2.205985690969373e+000	 4.036537009842876e+000	 3.418144057119690e-001
1	 2.162210750692910e+000	 4.060153814105112e+000	 3.247670003657895e-001
1	 2.118254075343665e+000	 4.083259028607333e+000	 3.081912590865051e-001
1	 2.074124398586183e+000	 4.105851041420149e+000	 2.917824360903619e-001
1	 2.029830457632516e+000	 4.127928434124629e+000	 2.752257497507407e-001
1	 1.985380988034921e+000	 4.149489981018680e+000	 2.581971215140646e-001
1	 1.940784718533651e+000	 4.170534648160611e+000	 2.403639205400672e-001
1	 1.896050365965512e+000	 4.191061592253051e+000	 2.213857124279122e-001
1	 1.851186630238736e+000	 4.211070159370625e+000	 2.009150104078115e-001
1	 1.806202189379531e+000	 4.230559883534988e+000	 1.785980274006642e-001
1	 2.262609902762454e+000	 4.035668533604805e+000	 3.010880153049302e-001
1	 2.218772783081055e+000	 4.059934972376666e+000	 2.833800819457180e-001
1	 2.174744099456915e+000	 4.083688672472943e+000	 2.666688700428167e-001
1	 2.130532627324669e+000	 4.106927817356931e+000	 2.506991949710204e-001
1	 2.086147150973949e+000	 4.129650785755607e+000	 2.352022039083522e-001
1	 2.041596458262453e+000	 4.151856151028108e+000	 2.198960789457788e-001
1	 1.996889335378471e+000	 4.173542680367495e+000	 2.044867530814264e-001
1	 1.952034561658799e+000	 4.194709333838778e+000	 1.886686374146582e-001
1	 1.907040904467781e+000	 4.215355263256367e+000	 1.721253578559009e-001
1	 1.861917114143068e+000	 4.235479810904372e+000	 1.545304996738097e-001
1	 1.816671919013446e+000	 4.255082508103375e+000	 1.355483582118608e-001
1	 2.275649653770778e+000	 4.058926680207141e+000	 2.487784507231480e-001
1	 2.231559894372153e+000	 4.083332970006112e+000	 2.316108791003601e-001
1	 2.187277467019754e+000	 4.107223566141736e+000	 2.156303097212806e-001
1	 2.142811197722343e+000	 4.130596641608336e+000	 2.006076536706698e-001
1	 2.098169921394717e+000	 4.153450565789250e+000	 1.862988149202010e-001
1	 2.053362476540299e+000	 4.175783903821666e+000	 1.724453641932149e-001
1	 2.008397699983486e+000	 4.197595415793796e+000	 1.587752284920355e-001
1	 1.963284421657689e+000	 4.218884055777344e+000	 1.450033946181867e-001
1	 1.918031459454877e+000	 4.239648970698497e+000	 1.308326250093842e-001
1	 1.872647614142190e+000	 4.259889499050848e+000	 1.159541842157842e-001
1	 1.827141664351063e+000	 4.279605169453903e+000	 1.000485743415416e-001
1	 2.288689427597086e+000	 4.082184867509672e+000	 2.021900057317596e-001
1	 2.244347028039166e+000	 4.106731008580471e+000	 1.859292119162989e-001
1	 2.199810856514507e+000	 4.130758500994972e+000	 1.710228978139034e-001
1	 2.155089789606092e+000	 4.154265507278510e+000	 1.572555331920936e-001
1	 2.110192712853968e+000	 4.177250387470768e+000	 1.443967858797113e-001
1	 2.065128515407374e+000	 4.199711698486983e+000	 1.322021655994510e-001
1	 2.019906084726898e+000	 4.221648193310501e+000	 1.204136835342901e-001
1	 1.974534301342659e+000	 4.243058820019718e+000	 1.087605260205284e-001
1	 1.929022033674331e+000	 4.263942720652592e+000	 9.695974075217712e-002
1	 1.883378132918636e+000	 4.284299229912195e+000	 8.471693387863782e-002
1	 1.837611428009747e+000	 4.304127873716953e+000	 7.172697637950215e-002
1	 2.301729227501026e+000	 4.105443101326692e+000	 1.608254509823582e-001
1	 2.257134187278591e+000	 4.130129093949002e+000	 1.457705787674309e-001
1	 2.212344271074256e+000	 4.154293482916130e+000	 1.322324475449611e-001
1	 2.167368406045321e+000	 4.177934420284408e+000	 1.199967061471051e-001
1	 2.122215528357185e+000	 4.201050256749856e+000	 1.088359333260867e-001
1	 2.076894577804997e+000	 4.223639541005738e+000	 9.851025079451631e-002
1	 2.031414492485639e+000	 4.245701018930529e+000	 8.876794938722399e-002
1	 1.985784203526038e+000	 4.267233632609310e+000	 7.934612684633291e-002
1	 1.940012629873674e+000	 4.288236519191804e+000	 6.997133572792758e-002
1	 1.894108673154947e+000	 4.308709009590554e+000	 6.036023992965200e-002
1	 1.848081212606869e+000	 4.328650627022916e+000	 5.022027834412940e-002
1	 2.314769056742235e+000	 4.128701387472490e+000	 1.241987571118015e-001
1	 2.269921375286927e+000	 4.153527231960959e+000	 1.105831930227778e-001
1	 2.224877713832085e+000	 4.177828517788692e+000	 9.865860587321318e-002
1	 2.179647050109439e+000	 4.201603386542996e+000	 8.819959782355558e-002
1	 2.134238370909847e+000	 4.224850179576208e+000	 7.897094248067976e-002
1	 2.088660666674487e+000	 4.247567437359612e+000	 7.072816641279167e-002
1	 2.042922926136644e+000	 4.269753898666802e+000	 6.321813851194164e-002
1	 1.997034131020160e+000	 4.291408499589530e+000	 5.617966586142037e-002
1	 1.951003250800436e+000	 4.312530372389279e+000	 4.934409477201102e-002
1	 1.904839237533661e+000	 4.333118844188069e+000	 4.243591566153121e-002
1	 1.858551020759794e+000	 4.353173435502172e+000	 3.517337046636127e-002
1	 1.753853685157622e+000	 4.107947097861664e+000	 5.207247480424154e-001
1	 1.710057629351524e+000	 4.126370607494756e+000	 4.671242820577819e-001
1	 1.666161110416385e+000	 4.144289799846913e+000	 4.067714603801892e-001
1	 1.622172468799515e+000	 4.161704763504535e+000	 3.410617320226240e-001
1	 1.578100005132253e+000	 4.178615762716243e+000	 2.713637732989531e-001
1	 1.533951975835255e+000	 4.195023235321111e+000	 1.990178538956796e-001
1	 1.489736588820484e+000	 4.210927790553209e+000	 1.253342797199359e-001
1	 1.445461999293614e+000	 4.226330206727042e+000	 5.159191407437724e-002
1	 1.401136305660351e+000	 4.241231428808609e+000	-2.096322151086139e-002
1	 1.356767545539911e+000	 4.255632565876873e+000	-9.111926567778328e-002
1	 1.312363691888676e+000	 4.269534888480566e+000	-1.576997539771513e-001
1	 1.764323375533539e+000	 4.132469630475129e+000	 4.340380099349961e-001
1	 1.720265877653797e+000	 4.151003119887775e+000	 3.876284653909629e-001
1	 1.676107316926896e+000	 4.169029281479970e+000	 3.351420525480818e-001
1	 1.631856083588733e+000	 4.186548204366940e+000	 2.778288931617661e-001
1	 1.587520527821555e+000	 4.203560154374750e+000	 2.169195269587756e-001
1	 1.543108955333008e+000	 4.220065571956183e+000	 1.536233606388150e-001
1	 1.498629623032471e+000	 4.236065069982164e+000	 8.912717977518181e-002
1	 1.454090734808400e+000	 4.251559431413378e+000	 2.459372530817527e-002
1	 1.409500437410216e+000	 4.266549606856837e+000	-3.883966386572668e-002
1	 1.364866816437979e+000	 4.281036712012198e+000	-1.000623408961031e-001
1	 1.320197892442914e+000	 4.295022025012786e+000	-1.579915724490049e-001
1	 1.774793068526321e+000	 4.156992169218809e+000	 3.568947593111570e-001
1	 1.730474128507555e+000	 4.175635638438452e+000	 3.167943340243018e-001
1	 1.686053525923382e+000	 4.193768769297369e+000	 2.712990740542854e-001
1	 1.641539700798301e+000	 4.211391651439614e+000	 2.215244919654058e-001
1	 1.596941052865475e+000	 4.228504552268712e+000	 1.685723910833664e-001
1	 1.552265937119550e+000	 4.245107914851143e+000	 1.135294060547432e-001
1	 1.507522659467327e+000	 4.261202355694691e+000	 5.746559450921041e-002
1	 1.462719472480057e+000	 4.276788662406223e+000	 1.433081598292030e-003
1	 1.417864571250884e+000	 4.291867791233775e+000	-5.353524097989948e-002
1	 1.372966089360725e+000	 4.306440864497702e+000	-1.064269600252569e-001
1	 1.328032094955654e+000	 4.320509167915920e+000	-1.562513286702210e-001
1	 1.785262766753336e+000	 4.181514720223089e+000	 2.888773683096122e-001
1	 1.740682384464818e+000	 4.200268169304669e+000	 2.543161811340288e-001
1	 1.695999739892365e+000	 4.218508269483743e+000	 2.150323679985250e-001
1	 1.651223322849099e+000	 4.236235110933195e+000	 1.720174398284603e-001
1	 1.606361582619120e+000	 4.253448962634001e+000	 1.262537691333795e-001
1	 1.561422923484099e+000	 4.270150270266355e+000	 7.871323064143143e-002
1	 1.516415700348282e+000	 4.286339653974895e+000	 3.035588330211558e-002
1	 1.471348214465736e+000	 4.302017906012683e+000	-1.787130455107711e-002
1	 1.426228709273350e+000	 4.317185988268776e+000	-6.503568522802744e-002
1	 1.381065366332918e+000	 4.331845029684222e+000	-1.102201153918648e-001
1	 1.335866301385387e+000	 4.345996323561552e+000	-1.525240920876915e-001
1	 1.795732472831950e+000	 4.206037289618354e+000	 2.295779402705619e-001
1	 1.750890648077604e+000	 4.224900718644310e+000	 1.998954209117597e-001
1	 1.705945961320361e+000	 4.243247788223719e+000	 1.661366701871225e-001
1	 1.660906952161999e+000	 4.261078589058304e+000	 1.291796969867676e-001
1	 1.615782119437595e+000	 4.278393391706491e+000	 8.989665618440540e-002
1	 1.570579916715873e+000	 4.295192644462189e+000	 4.915259775523723e-002
1	 1.525308747898565e+000	 4.311476971106892e+000	 7.804249571309430e-003
1	 1.479976962922587e+000	 4.327247168539862e+000	-3.330116437828939e-002
1	 1.434592853568604e+000	 4.342504204291177e+000	-7.332706871669809e-002
1	 1.389164649379328e+000	 4.357249213922600e+000	-1.114486428563449e-001
1	 1.343700513690607e+000	 4.371483498321261e+000	-1.468538872468909e-001
1	 1.806202189379531e+000	 4.230559883534988e+000	 1.785980274006642e-001
1	 1.761098921897934e+000	 4.249533292615258e+000	 1.532403818859472e-001
1	 1.715892192693890e+000	 4.267987331701933e+000	 1.244114670457358e-001
1	 1.670590591157880e+000	 4.285922092025571e+000	 9.288618388123748e-002
1	 1.625202665676005e+000	 4.303337845722058e+000	 5.943559253854297e-002
1	 1.579736919104094e+000	 4.320235043699010e+000	 2.482577821264348e-002
1	 1.534201804341408e+000	 4.336614313374793e+000	-1.018325493662242e-002
1	 1.488605720007759e+000	 4.352476456294863e+000	-4.483866021449462e-002
1	 1.442957006227642e+000	 4.367822445630329e+000	-7.839579363091592e-002
1	 1.397263940524724e+000	 4.382653423563671e+000	-1.101192265212901e-001
1	 1.351534733829807e+000	 4.396970698566631e+000	-1.392837242294115e-001
1	 1.816671919013446e+000	 4.255082508103375e+000	 1.355483582118607e-001
1	 1.771307208477829e+000	 4.274165897375390e+000	 1.140661073981036e-001
1	 1.725838436499470e+000	 4.292726906103013e+000	 8.966085845090782e-002
1	 1.680274242257619e+000	 4.310765626045627e+000	 6.301469559039630e-002
1	 1.634623223689457e+000	 4.328282330916575e+000	 3.480661894188430e-002
1	 1.588893932937980e+000	 4.345277474237192e+000	 5.711535425059866e-003
1	 1.543094871900040e+000	 4.361751687062710e+000	-2.360072600254709e-002
1	 1.497234487878403e+000	 4.377705775584788e+000	-5.246637327174936e-002
1	 1.451321169341454e+000	 4.393140718615577e+000	-8.022858291469048e-002
1	 1.405363241793875e+000	 4.408057664958273e+000	-1.062384032768561e-001
1	 1.359368963761478e+000	 4.422457930669241e+000	-1.298556280367693e-001
1	 1.827141664351063e+000	 4.279605169453903e+000	 1.000485743415416e-001
1	 1.781515510369310e+000	 4.298798539082598e+000	 8.209416294650623e-002
1	 1.735784695223622e+000	 4.317466517611590e+000	 6.169342528284921e-002
1	 1.689957907882090e+000	 4.335609197329095e+000	 3.944581920813106e-002
1	 1.644043795833055e+000	 4.353226853525915e+000	 1.594723334338805e-002
1	 1.598050960506751e+000	 4.370319942337100e+000	-8.210888954643614e-003
1	 1.551987952797689e+000	 4.386889098454755e+000	-3.244240293406808e-002
1	 1.505863268691670e+000	 4.402935132716745e+000	-5.616729185141128e-002
1	 1.459685345001032e+000	 4.418459029576267e+000	-7.881247127241656e-002
1	 1.413462555211551e+000	 4.433461944457243e+000	-9.981256718965709e-002
1	 1.367203205444115e+000	 4.447945201000674e+000	-1.186106669628473e-001
1	 1.837611428009747e+000	 4.304127873716953e+000	 7.172697637950221e-002
1	 1.791723830124394e+000	 4.323431223894758e+000	 5.705245012317450e-002
1	 1.745730971352862e+000	 4.342206172412293e+000	 4.032210151098498e-002
1	 1.699641590452172e+000	 4.360452812086607e+000	 2.206285404903374e-002
1	 1.653464384461907e+000	 4.378171419785954e+000	 2.796349133638520e-003
1	 1.607208004099625e+000	 4.395362454259106e+000	-1.696178889440425e-002
1	 1.560881049257588e+000	 4.412026553835039e+000	-3.670266470162337e-002
1	 1.514492064604709e+000	 4.428164533997835e+000	-5.592479995604824e-002
1	 1.468049535297370e+000	 4.443777384841742e+000	-7.413479647813123e-002
1	 1.421561882802519e+000	 4.458866268411421e+000	-9.084797374144460e-002
1	 1.375037460836209e+000	 4.473432515932509e+000	-1.055889799953048e-001
1	 1.848081212606869e+000	 4.328650627022916e+000	 5.022027834412945e-002
1	 1.801932170295104e+000	 4.348063957969758e+000	 3.867502688236646e-002
1	 1.755677267373712e+000	 4.366945876689758e+000	 2.536405063230551e-002
1	 1.709325292388740e+000	 4.385296476528787e+000	 1.075173456909545e-002
1	 1.662884991931116e+000	 4.403116035932561e+000	-4.705745195284661e-003
1	 1.616365066005823e+000	 4.420405016263575e+000	-2.056100737346442e-002
1	 1.569774163502966e+000	 4.437164059487675e+000	-3.637602620607280e-002
1	 1.523120877774671e+000	 4.453393985735167e+000	-5.172266628884889e-002
1	 1.476413742321461e+000	 4.469095790741354e+000	-6.618319098050493e-002
1	 1.429661226591551e+000	 4.484270643171642e+000	-7.935074392350644e-002
1	 1.382871731896253e+000	 4.498919881836327e+000	-9.082980328453397e-002
1	 1.858551020759794e+000	 4.353173435502172e+000	 3.517337046636121e-002
1	 1.812140533433459e+000	 4.372696747465477e+000	 2.670193389066813e-002
1	 1.765623585772689e+000	 4.391685636628613e+000	 1.664054629067244e-002
1	 1.719009016112672e+000	 4.410140196866269e+000	 5.400955894551779e-003
1	 1.672305620595792e+000	 4.428060708201620e+000	-6.617425024928653e-003
1	 1.625522148514564e+000	 4.445447634610878e+000	-1.902794931973501e-002
1	 1.578667297757052e+000	 4.462301621696776e+000	-3.145713467252942e-002
1	 1.531749710358706e+000	 4.478623494235840e+000	-4.354503362520643e-002
1	 1.484777968164295e+000	 4.494414253604442e+000	-5.494557379185078e-002
1	 1.437760588603414e+000	 4.509675075088747e+000	-6.532686819250258e-002
1	 1.390706020582740e+000	 4.524407305083716e+000	-7.437149571696027e-002
1	 1.312363691888676e+000	 4.269534888480566e+000	-1.576997539771513e-001
1	 1.267932648602657e+000	 4.282939824829096e+000	-2.204487496734772e-001
1	 1.223482245031362e+000	 4.295848954764351e+000	-2.788511531319252e-001
1	 1.179020234462681e+000	 4.308264010049258e+000	-3.313840090221810e-001
1	 1.134554291362543e+000	 4.320186872431324e+000	-3.765459150667521e-001
1	 1.090092008085802e+000	 4.331619570558885e+000	-4.128588933648204e-001
1	 1.045640891710207e+000	 4.342564276823000e+000	-4.388701858584086e-001
1	 1.001208360994868e+000	 4.353023304130100e+000	-4.531539722417248e-001
1	 9.568017434643784e-001	 4.362999102610631e+000	-4.543130088380191e-001
1	 9.124282726195264e-001	 4.372494256268734e+000	-4.409801871894864e-001
1	 8.680950852753387e-001	 4.381511479578151e+000	-4.118200113239806e-001
1	 1.320197892442914e+000	 4.295022025012786e+000	-1.579915724490049e-001
1	 1.275501616503612e+000	 4.308506982593760e+000	-2.123143498155417e-001
1	 1.230785864707158e+000	 4.321493174027922e+000	-2.624079952206251e-001
1	 1.186058436624959e+000	 4.333982341416010e+000	-3.067630547754426e-001
1	 1.141327052535939e+000	 4.345976377738680e+000	-3.438931274502924e-001
1	 1.096599350117777e+000	 4.357477323754351e+000	-3.723367014071254e-001
1	 1.051882881261983e+000	 4.368487364822227e+000	-3.906589125173145e-001
1	 1.007185109014211e+000	 4.379008827655716e+000	-3.974532234801982e-001
1	 9.625134046409619e-001	 4.389044177011388e+000	-3.913430221827401e-001
1	 9.178750448236637e-001	 4.398596012318689e+000	-3.709831381633079e-001
1	 8.732772089808061e-001	 4.407667064255488e+000	-3.350612762615208e-001
1	 1.328032094955654e+000	 4.320509167915920e+000	-1.562513286702210e-001
1	 1.283070586296851e+000	 4.334074146749345e+000	-2.026906221196211e-001
1	 1.238089486208986e+000	 4.347137399701695e+000	-2.450759270000867e-001
1	 1.193096640547001e+000	 4.359700679211523e+000	-2.819234102706951e-001
1	 1.148099815402817e+000	 4.371765889492628e+000	-3.117730785902698e-001
1	 1.103106693776949e+000	 4.383335083413515e+000	-3.331905748580540e-001
1	 1.058124872374680e+000	 4.394410459301543e+000	-3.447688962744057e-001
1	 1.013161858528213e+000	 4.404994357677094e+000	-3.451300324281678e-001
1	 9.682250672459731e-001	 4.415089257922869e+000	-3.329265221413869e-001
1	 9.233218183900289e-001	 4.424697774893605e+000	-3.068429280236822e-001
1	 8.784593339823468e-001	 4.433822655471318e+000	-2.655972279063902e-001
1	 1.335866301385387e+000	 4.345996323561552e+000	-1.525240920876915e-001
1	 1.290639559874550e+000	 4.359641323687432e+000	-1.916652746430251e-001
1	 1.245393111362680e+000	 4.372781638196507e+000	-2.269774831557105e-001
1	 1.200134847988272e+000	 4.385419029865139e+000	-2.570144454218848e-001
1	 1.154872581656272e+000	 4.397555414140288e+000	-2.803538112202078e-001
1	 1.109614040690051e+000	 4.409192856000539e+000	-2.955989042892128e-001
1	 1.064366866608686e+000	 4.420333566741422e+000	-3.013803964401325e-001
1	 1.019138611030948e+000	 4.430979900690285e+000	-2.963579023796117e-001
1	 9.739367327072057e-001	 4.441134351855977e+000	-2.792214940377917e-001
1	 9.287685946801924e-001	 4.450799550518535e+000	-2.486931334155437e-001
1	 8.836414615753686e-001	 4.459978259764123e+000	-2.035280231793054e-001
1	 1.343700513690607e+000	 4.371483498321261e+000	-1.468538872468909e-001
1	 1.298208539128881e+000	 4.385208519799600e+000	-1.793239756822241e-001
1	 1.252696741994064e+000	 4.398425895923181e+000	-2.082323458763897e-001
1	 1.207173060708236e+000	 4.411137399806195e+000	-2.321820511998441e-001
1	 1.161645352989399e+000	 4.423344958128768e+000	-2.497994529432054e-001
1	 1.116121392483815e+000	 4.435050647979574e+000	-2.597359229883174e-001
1	 1.070608865524385e+000	 4.446256693622320e+000	-2.606694704998749e-001
1	 1.025115368016484e+000	 4.456965463191334e+000	-2.513062912567152e-001
1	 9.796484024524539e-001	 4.467179465321621e+000	-2.303822384577174e-001
1	 9.342153750557234e-001	 4.476901345718530e+000	-1.966642140500731e-001
1	 8.888235930552788e-001	 4.486133883672388e+000	-1.489514798370475e-001
1	 1.351534733829807e+000	 4.396970698566631e+000	-1.392837242294115e-001
1	 1.305777525952022e+000	 4.410775741477425e+000	-1.657504130229307e-001
1	 1.260000379928967e+000	 4.424070179292549e+000	-1.889574276372301e-001
1	 1.214211280466358e+000	 4.436855795464037e+000	-2.075687405464385e-001
1	 1.168418131095294e+000	 4.449134527905184e+000	-2.202703297607592e-001
1	 1.122628750784974e+000	 4.460908465814775e+000	-2.257718274761019e-001
1	 1.076850870682166e+000	 4.472179846424697e+000	-2.228080958881837e-001
1	 1.031092130978892e+000	 4.482951051676290e+000	-2.101407288122494e-001
1	 9.853600779095125e-001	 4.493224604830710e+000	-1.865594779574938e-001
1	 9.396621608781921e-001	 4.503003167018642e+000	-1.508836029107230e-001
1	 8.940057297174857e-001	 4.512289533734596e+000	-1.019631440856825e-001
1	 1.359368963761478e+000	 4.422457930669241e+000	-1.298556280367693e-001
1	 1.313346522236146e+000	 4.436342995112480e+000	-1.510263511390747e-001
1	 1.267304026993219e+000	 4.449714494715444e+000	-1.692669511164888e-001
1	 1.221249509022102e+000	 4.462574223268007e+000	-1.833137457952679e-001
1	 1.175190917667052e+000	 4.474924129916656e+000	-1.919230756714828e-001
1	 1.129136117220259e+000	 4.486766315970299e+000	-1.938728938511847e-001
1	 1.083092883642415e+000	 4.498103031629026e+000	-1.879642875474413e-001
1	 1.037068901412243e+000	 4.508936672641196e+000	-1.730229297746617e-001
1	 9.910717605061759e-001	 4.519269776894150e+000	-1.479004600786481e-001
1	 9.451089535091687e-001	 4.529105020943928e+000	-1.114757933365067e-001
1	 8.991878728573965e-001	 4.538445216489231e+000	-6.265635585313881e-002
1	 1.367203205444115e+000	 4.447945201000674e+000	-1.186106669628473e-001
1	 1.320915529873429e+000	 4.461910287096349e+000	-1.352316864229974e-001
1	 1.274607685012648e+000	 4.475358848602692e+000	-1.492725263618166e-001
1	 1.228287748134932e+000	 4.488292689647442e+000	-1.595531127392209e-001
1	 1.181963714397769e+000	 4.500713770610291e+000	-1.649107384974715e-001
1	 1.135643493416403e+000	 4.512624204910295e+000	-1.642015901304288e-001
1	 1.089334905965519e+000	 4.524026255715766e+000	-1.563022114402489e-001
1	 1.043045680810608e+000	 4.534922332582100e+000	-1.401109030987967e-001
1	 9.967834516702385e-001	 4.545314988022854e+000	-1.145490568168523e-001
1	 9.505557543102224e-001	 4.555206914019434e+000	-7.856242310797687e-002
1	 9.043700237704183e-001	 4.564600938474771e+000	-3.112231181519681e-002
1	 1.375037460836209e+000	 4.473432515932509e+000	-1.055889799953048e-001
1	 1.328484550756046e+000	 4.487477623820607e+000	-1.184445005254969e-001
1	 1.281911355813081e+000	 4.501003247365127e+000	-1.290832253156382e-001
1	 1.235325999564315e+000	 4.514011201031685e+000	-1.364197914787403e-001
1	 1.188736522980538e+000	 4.526503456433209e+000	-1.393828820890064e-001
1	 1.142150881000137e+000	 4.538482139098920e+000	-1.369166847446839e-001
1	 1.095576939211864e+000	 4.549949525165379e+000	-1.279822941770920e-001
1	 1.049022470668056e+000	 4.560908037995050e+000	-1.115590574777507e-001
1	 1.002495152829495e+000	 4.571360244727723e+000	-8.664586068677307e-002
1	 9.560025646429237e-001	 4.581308852770216e+000	-5.226235565553326e-002
1	 9.095521837519596e-001	 4.590756706229706e+000	-7.450126264559804e-003
1	 1.382871731896253e+000	 4.498919881836327e+000	-9.082980328453397e-002
1	 1.336053586776173e+000	 4.513045011676836e+000	-1.007411118807457e-001
1	 1.289215041220348e+000	 4.526647697413575e+000	-1.088056538044984e-001
1	 1.242364265069712e+000	 4.539729763850075e+000	-1.140437241786211e-001
1	 1.195509345108457e+000	 4.552293193832523e+000	-1.154856850513301e-001
1	 1.148658281598194e+000	 4.564340125000325e+000	-1.121733513425399e-001
1	 1.101818984941838e+000	 4.575872846458329e+000	-1.031613289135056e-001
1	 1.054999272478658e+000	 4.586893795376091e+000	-8.751830326428106e-002
1	 1.008206865411739e+000	 4.597405553519669e+000	-6.432827751794434e-002
1	 9.614493858688419e-001	 4.607410843721322e+000	-3.269175850433237e-002
1	 9.147343540974272e-001	 4.616912526292514e+000	 8.273110091365145e-003
1	 1.390706020582740e+000	 4.524407305083716e+000	-7.437149571696027e-002
1	 1.343622639825983e+000	 4.538612457056611e+000	-8.219612548774784e-002
1	 1.296518743060277e+000	 4.552292205158868e+000	-8.854402109248682e-002
1	 1.249402546410591e+000	 4.565448384531957e+000	-9.255192985537271e-002
1	 1.202282182474620e+000	 4.578082989255348e+000	-9.336203613080296e-002
1	 1.155165696837306e+000	 4.590198169078671e+000	-9.012327004784124e-002
1	 1.108061044715827e+000	 4.601796226075082e+000	-8.199257766400007e-002
1	 1.060976087736485e+000	 4.612879611221272e+000	-6.813615094351407e-002
1	 1.013918590844767e+000	 4.623450920909602e+000	-4.773061611072972e-002
1	 9.668962193495476e-001	 4.633512893397807e+000	-1.996417906487173e-002
1	 9.199165361022297e-001	 4.643068405201682e+000	 1.596227332220117e-002
1	 8.680950852753387e-001	 4.381511479578151e+000	-4.118200113239806e-001
1	 8.238158559823360e-001	 4.390052368877188e+000	-3.650296969899903e-001
1	 7.795908563484765e-001	 4.398121279226207e+000	-2.999797435480610e-001
1	 7.354269054959162e-001	 4.405721297882296e+000	-2.171483829084619e-001
1	 6.913307167858148e-001	 4.412855628386947e+000	-1.170295757908185e-001
1	 6.473088957992225e-001	 4.419527586972392e+000	-1.320586362560661e-004
1	 6.033679384448840e-001	 4.425740598943745e+000	 1.330216074886116e-001
1	 5.595142291933103e-001	 4.431498195041699e+000	 2.818959843601401e-001
1	 5.157540394362666e-001	 4.436804007790360e+000	 4.459436988600318e-001
1	 4.720935259706737e-001	 4.441661767834682e+000	 6.246063785129099e-001
1	 4.285387296057504e-001	 4.446075300271935e+000	 8.173155788418124e-001
1	 8.732772089808061e-001	 4.407667064255488e+000	-3.350612762615209e-001
1	 8.287336532936124e-001	 4.416258938689484e+000	-2.818498127756395e-001
1	 7.842446509914095e-001	 4.424376016678722e+000	-2.108840884982242e-001
1	 7.398170619033314e-001	 4.432021403909765e+000	-1.228041643515121e-001
1	 6.954576394661742e-001	 4.439198323047760e+000	-1.826588939322227e-002
1	 6.511730286932252e-001	 4.445910110121297e+000	 1.020603182560602e-001
1	 6.069697642707758e-001	 4.452160210882961e+000	 2.374906816842192e-001
1	 5.628542687816476e-001	 4.457952177150324e+000	 3.873292647121263e-001
1	 5.188328510548899e-001	 4.463289663131958e+000	 5.508691588088281e-001
1	 4.749117046406300e-001	 4.468176421743035e+000	 7.273936556200594e-001
1	 4.310969064089004e-001	 4.472616300914869e+000	 9.161774034197028e-001
1	 8.784593339823468e-001	 4.433822655471318e+000	-2.655972279063902e-001
1	 8.336514518348714e-001	 4.442465515053097e+000	-2.075445481759156e-001
1	 7.888984467982986e-001	 4.450630760694661e+000	-1.323672120888929e-001
1	 7.442072194087532e-001	 4.458321516512071e+000	-4.083451178327457e-002
1	 6.995845631786775e-001	 4.465541024294117e+000	 6.626873727955411e-002
1	 6.550371625536086e-001	 4.472292639865747e+000	 1.881436236052435e-001
1	 6.105715909973943e-001	 4.478579829427026e+000	 3.239785523422161e-001
1	 5.661943092051792e-001	 4.484406165872399e+000	 4.729506411670936e-001
1	 5.219116634433063e-001	 4.489775325094919e+000	 6.342270973080707e-001
1	 4.777298840151202e-001	 4.494691082279964e+000	 8.069665737402887e-001
1	 4.336550838514772e-001	 4.499157308192906e+000	 9.903205026947811e-001
1	 8.836414615753686e-001	 4.459978259764123e+000	-2.035280231793055e-001
1	 8.385692528354412e-001	 4.468672104519224e+000	-1.421702457454108e-001
1	 7.935522449324761e-001	 4.476885517837256e+000	-6.443030961742574e-002
1	 7.485973791096102e-001	 4.484621642263760e+000	 2.882528631018739e-002
1	 7.037114889549538e-001	 4.491883738711193e+000	 1.367151061986112e-001
1	 6.589012983463148e-001	 4.498675182800866e+000	 2.583443555775283e-001
1	 6.141734195251172e-001	 4.504999461180325e+000	 3.928064402157953e-001
1	 5.695343512988482e-001	 4.510860167820907e+000	 5.391845032233528e-001
1	 5.249904773711663e-001	 4.516261000300147e+000	 6.965529381776585e-001
1	 4.805480647986511e-001	 4.521205756073644e+000	 8.639788761895173e-001
1	 4.362132625730025e-001	 4.525698328740826e+000	 1.040523644946227e+000
1	 8.888235930552788e-001	 4.486133883672388e+000	-1.489514798370475e-001
1	 8.434870575246498e-001	 4.494878713639076e+000	-8.578192887561112e-002
1	 7.982060465572737e-001	 4.503140294669722e+000	-7.074541364597699e-003
1	 7.529875421033320e-001	 4.510921787739379e+000	 8.623844149466180e-002
1	 7.078384178266330e-001	 4.518226472884162e+000	 1.932107469909496e-001
1	 6.627654370372851e-001	 4.525057745521769e+000	 3.128837436010994e-001
1	 6.177752507543209e-001	 4.531419112747249e+000	 4.442880903945159e-001
1	 5.728743958975985e-001	 4.537314189608826e+000	 5.864453607451771e-001
1	 5.280692936081197e-001	 4.542746695368543e+000	 7.383696380830149e-001
1	 4.833662476957295e-001	 4.547720449752237e+000	 8.990690815491269e-001
1	 4.387714432129978e-001	 4.552239369193409e+000	 1.067547459553284e+000
1	 8.940057297174857e-001	 4.512289533734596e+000	-1.019631440856825e-001
1	 8.484048671318258e-001	 4.521085348963856e+000	-3.843333978989496e-002
1	 8.028598528360241e-001	 4.529395097755289e+000	 3.969896668812234e-002
1	 7.573777094873473e-001	 4.537221959513468e+000	 1.314667092202259e-001
1	 7.119653508253439e-001	 4.544569233398201e+000	 2.358900122042749e-001
1	 6.666295795924624e-001	 4.551440334623585e+000	 3.519779015551978e-001
1	 6.213770855853823e-001	 4.557838790732179e+000	 4.787299895180756e-001
1	 5.762144438363727e-001	 4.563768237849134e+000	 6.151381309094063e-001
1	 5.311481129238166e-001	 4.569232416921015e+000	 7.601880485301005e-001
1	 4.861844334108614e-001	 4.574235169943914e+000	 9.128609256327221e-001
1	 4.413296264109849e-001	 4.578780436185433e+000	 1.072134963465140e+000
1	 8.991878728573965e-001	 4.538445216489231e+000	-6.265635585313881e-002
1	 8.533226828862971e-001	 4.547292017044767e+000	-1.769762232444096e-004
1	 8.075136649320595e-001	 4.555649933657178e+000	 7.588912216613009e-002
1	 7.617678823590861e-001	 4.563522164160577e+000	 1.645704311362720e-001
1	 7.160922889827159e-001	 4.570912026838487e+000	 2.648841692738764e-001
1	 6.704937269777883e-001	 4.577822956701428e+000	 3.758379756561469e-001
1	 6.249789249186784e-001	 4.584258501739503e+000	 4.964315754706369e-001
1	 5.795544959501140e-001	 4.590222319154812e+000	 6.256584152185061e-001
1	 5.342269360879076e-001	 4.595718171578466e+000	 7.625072653289635e-001
1	 4.890026226485546e-001	 4.600749923276847e+000	 9.059637881530085e-001
1	 4.438878128064857e-001	 4.605321536351674e+000	 1.055012069445620e+000
1	 9.043700237704183e-001	 4.564600938474771e+000	-3.112231181519685e-002
1	 8.582405060173920e-001	 4.573498724433015e+000	 2.893587316049245e-002
1	 8.121674840087119e-001	 4.581904808938611e+000	 1.014948656330224e-001
1	 7.661580618159770e-001	 4.589822408255248e+000	 1.856085759500387e-001
1	 7.202192333303782e-001	 4.597254859790191e+000	 2.803214893240615e-001
1	 6.743578801592047e-001	 4.604205618350421e+000	 3.846702872531942e-001
1	 6.285807696545859e-001	 4.610678252373609e+000	 4.976854398575435e-001
1	 5.828945530737658e-001	 4.616676440138839e+000	 6.183927669790884e-001
1	 5.373057638700425e-001	 4.622203965961801e+000	 7.458149660289372e-001
1	 4.918208161133147e-001	 4.627264716379197e+000	 8.789731047029554e-001
1	 4.464460030390217e-001	 4.631862676326912e+000	 1.016888076824417e+000
1	 9.095521837519596e-001	 4.590756706229706e+000	-7.450126264559808e-003
1	 8.631583377544391e-001	 4.599705477679802e+000	 4.885509456340936e-002
1	 8.168213112293127e-001	 4.608159730162813e+000	 1.165151699448042e-001
1	 7.705482489554496e-001	 4.616122698372031e+000	 1.946387788868397e-001
1	 7.243461848999602e-001	 4.623597738838497e+000	 2.823273329305102e-001
1	 6.782220401026543e-001	 4.630588326165689e+000	 3.786764707374348e-001
1	 6.321826206934819e-001	 4.637098049238887e+000	 4.827775235526903e-001
1	 5.862346160422717e-001	 4.643130607414195e+000	 5.937189496264247e-001
1	 5.403845970398715e-001	 4.648689806691922e+000	 7.105877358057962e-001
1	 4.946390145096492e-001	 4.653779555879138e+000	 8.324707646378284e-001
1	 4.490041977481146e-001	 4.658403862745926e+000	 9.584561454533260e-001
1	 9.147343540974272e-001	 4.616912526292514e+000	 8.273110091365133e-003
1	 8.680761793267664e-001	 4.625912283336335e+000	 5.953171601229296e-002
1	 8.214751477571952e-001	 4.634414703893005e+000	 1.209490396260377e-001
1	 7.749384448749330e-001	 4.642423041085467e+000	 1.917173798074407e-001
1	 7.284731447230914e-001	 4.649940670568578e+000	 2.710242329641800e-001
1	 6.820862077740778e-001	 4.656971086742346e+000	 3.580536067578013e-001
1	 6.357844789357430e-001	 4.663517898939720e+000	 4.519873055915633e-001
1	 5.895746856905739e-001	 4.669584827593855e+000	 5.520061862584517e-001
1	 5.434634363670444e-001	 4.675175700389735e+000	 6.572913822593036e-001
1	 4.974572185420643e-001	 4.680294448404835e+000	 7.670254954176391e-001
1	 4.515623975732860e-001	 4.684945102243493e+000	 8.803937535342656e-001
1	 9.199165361022297e-001	 4.643068405201682e+000	 1.596227332220117e-002
1	 8.729940319637027e-001	 4.652119147953821e+000	 6.091787543534388e-002
1	 8.261289947556909e-001	 4.660669736692415e+000	 1.147955102670750e-001
1	 7.793286506718566e-001	 4.668723442970105e+000	 1.768994600356489e-001
1	 7.326001138314011e-001	 4.676283661565609e+000	 2.465319746320051e-001
1	 6.859503841394185e-001	 4.683353906675523e+000	 3.229943509294018e-001
1	 6.393863452817467e-001	 4.689937808080498e+000	 4.055879856727141e-001
1	 5.929147628536167e-001	 4.696039107290805e+000	 4.936154007262721e-001
1	 5.465422826212124e-001	 4.701661653676148e+000	 5.863812395589130e-001
1	 5.002754289150674e-001	 4.706809400584463e+000	 6.831932339446025e-001
1	 4.541206031540581e-001	 4.711486401454396e+000	 7.833631399557713e-001
1	 4.285387296057504e-001	 4.446075300271935e+000	 8.173155788418124e-001
1	 3.850890805500644e-001	 4.450049084339992e+000	 1.023615086854414e+000
1	 3.417570031782413e-001	 4.453586430291699e+000	 1.241943424719074e+000
1	 2.985482730329786e-001	 4.456691427433116e+000	 1.470193472523103e+000
1	 2.554685425323556e-001	 4.459368244970696e+000	 1.706308016995248e+000
1	 2.125233401846516e-001	 4.461621128336632e+000	 1.948281327409736e+000
1	 1.697180699191663e-001	 4.463454395533639e+000	 2.194160607304284e+000
1	 1.270580105308184e-001	 4.464872433502730e+000	 2.442047323405669e+000
1	 8.454831523620206e-002	 4.465879694517425e+000	 2.690098413370579e+000
1	 4.219401133867887e-002	 4.466480692607676e+000	 2.936527374151093e+000
1	 0.000000000000000e+000	 4.466680000016666e+000	 3.179605232983144e+000
1	 4.310969064089004e-001	 4.472616300914869e+000	 9.161774034197028e-001
1	 3.873878831668753e-001	 4.476613806624297e+000	 1.116828269980626e+000
1	 3.437971334569231e-001	 4.480172268884855e+000	 1.327859469343609e+000
1	 3.003304672990538e-001	 4.483295801413886e+000	 1.547016140406344e+000
1	 2.569935708536618e-001	 4.485988598306078e+000	 1.772086010893058e+000
1	 2.137920056316586e-001	 4.488254930336908e+000	 2.000901430257078e+000
1	 1.707312078212965e-001	 4.490099141285577e+000	 2.231341276178599e+000
1	 1.278164877294533e-001	 4.491525644281117e+000	 2.461332735286005e+000
1	 8.505302933503721e-002	 4.492538918175069e+000	 2.688852958976424e+000
1	 4.244588995208106e-002	 4.493143503944066e+000	 2.911930595446969e+000
1	 0.000000000000000e+000	 4.493344001125477e+000	 3.128647199271351e+000
1	 4.336550838514772e-001	 4.499157308192906e+000	 9.903205026947811e-001
1	 3.896866863581597e-001	 4.503178535549550e+000	 1.183924096685344e+000
1	 3.458372642453051e-001	 4.506758114124129e+000	 1.386336752757903e+000
1	 3.021126620102527e-001	 4.509900182045278e+000	 1.595201826177797e+000
1	 2.585185995557301e-001	 4.512608958295946e+000	 1.808198671645438e+000
1	 2.150606713952966e-001	 4.514888738994900e+000	 2.023045043902898e+000
1	 1.717443459761739e-001	 4.516743893697840e+000	 2.237499371221120e+000
1	 1.285749651172146e-001	 4.518178861721835e+000	 2.449362901742298e+000
1	 8.555774355965724e-002	 4.519198148496463e+000	 2.656481722925585e+000
1	 4.269776862822099e-002	 4.519806321945047e+000	 2.856748654606157e+000
1	 0.000000000000000e+000	 4.520008008899155e+000	 3.048105016428691e+000
1	 4.362132625730025e-001	 4.525698328740826e+000	 1.040523644946227e+000
1	 3.919854906986117e-001	 4.529743277756488e+000	 1.225821860552646e+000
1	 3.478773960534284e-001	 4.533343972655576e+000	 1.418459178646494e+000
1	 3.038948576121467e-001	 4.536504575978026e+000	 1.616022285101260e+000
1	 2.600436290198512e-001	 4.539229331595072e+000	 1.816127996330637e+000
1	 2.163293377927735e-001	 4.541522560968785e+000	 2.016425939204658e+000
1	 1.727574846371283e-001	 4.543388659431391e+000	 2.214601104621651e+000
1	 1.293334428837658e-001	 4.544832092488003e+000	 2.408376274167668e+000
1	 8.606245803627748e-002	 4.545857392146254e+000	 2.595514319586862e+000
1	 4.294964743009057e-002	 4.546469153276180e+000	 2.773820375068213e+000
1	 0.000000000000000e+000	 4.546672030003567e+000	 2.941143882623859e+000
1	 4.387714432129978e-001	 4.552239369193409e+000	 1.067547459553284e+000
1	 3.942842967629250e-001	 4.556308039885856e+000	 1.243419440360575e+000
1	 3.499175293913340e-001	 4.559929851125256e+000	 1.425285397980908e+000
1	 3.056770545503065e-001	 4.563108989862871e+000	 1.610719639423217e+000
1	 2.615686596273159e-001	 4.565849724858238e+000	 1.797321446095474e+000
1	 2.175980051412977e-001	 4.568156402916756e+000	 1.982717945514992e+000
1	 1.737706240574899e-001	 4.570033445147191e+000	 2.164566858925786e+000
1	 1.300919212187705e-001	 4.571485343242731e+000	 2.340559123821095e+000
1	 8.656717289111304e-002	 4.572516655789088e+000	 2.508421390672897e+000
1	 4.320152642068171e-002	 4.573132004603025e+000	 2.665918393463497e+000
1	 0.000000000000000e+000	 4.573336071104578e+000	 2.810855193898112e+000
1	 4.413296264109849e-001	 4.578780436185433e+000	 1.072134963465140e+000
1	 3.965831051257935e-001	 4.582872828578392e+000	 1.237593921530605e+000
1	 3.519576647690630e-001	 4.586515756179225e+000	 1.407849541727961e+000
1	 3.074592532703030e-001	 4.589713430350548e+000	 1.580507238049171e+000
1	 2.630936917594153e-001	 4.592470144740218e+000	 1.753192947933441e+000
1	 2.188666737580774e-001	 4.594790271496987e+000	 1.923556109115359e+000
1	 1.747837644905889e-001	 4.596678257506201e+000	 2.089272516093445e+000
1	 1.308504003118923e-001	 4.598138620649136e+000	 2.248047054892634e+000
1	 8.707188825037926e-002	 4.599175946089610e+000	 2.397616315102339e+000
1	 4.345340566298635e-002	 4.599794882591152e+000	 2.535751078470017e+000
1	 0.000000000000000e+000	 4.600000138868055e+000	 2.660258683618883e+000
1	 4.438878128064857e-001	 4.605321536351674e+000	 1.055012069445619e+000
1	 3.988819163619112e-001	 4.609437650474842e+000	 1.209202196063941e+000
1	 3.539978026966568e-001	 4.613101694463546e+000	 1.367161928193340e+000
1	 3.092414542177074e-001	 4.616317904091796e+000	 1.526570486459874e+000
1	 2.646187257974401e-001	 4.619090597895790e+000	 1.685123861783596e+000
1	 2.201353439603209e-001	 4.621424173367672e+000	 1.840537811547448e+000
1	 1.757969061897552e-001	 4.623323103169382e+000	 1.990550740548551e+000
1	 1.316088803527945e-001	 4.624791931370331e+000	 2.132926465189366e+000
1	 8.757660424029136e-002	 4.625835269712470e+000	 2.265456859670491e+000
1	 4.370528521999640e-002	 4.626457793906115e+000	 2.385964383243604e+000
1	 0.000000000000000e+000	 4.626664239959866e+000	 2.492304487870268e+000
1	 4.464460030390217e-001	 4.631862676326912e+000	 1.016888076824417e+000
1	 4.011807310459722e-001	 4.636002512215941e+000	 1.159081541828412e+000
1	 3.560379436841565e-001	 4.639687672624278e+000	 1.304209746018911e+000
1	 3.110236578380905e-001	 4.642922417737345e+000	 1.450067648062482e+000
1	 2.661437621226814e-001	 4.645711090979727e+000	 1.594463914342613e+000
1	 2.214040160652363e-001	 4.648058115186988e+000	 1.735223849452258e+000
1	 1.768100494083191e-001	 4.649967988797696e+000	 1.870192218066927e+000
1	 1.323673615311408e-001	 4.651445282069432e+000	 1.997235956545998e+000
1	 8.808132098706455e-002	 4.652494633322307e+000	 2.114246772905059e+000
1	 4.395716515470378e-002	 4.653120745213480e+000	 2.219143634089007e+000
1	 0.000000000000000e+000	 4.653328381045879e+000	 2.309875139754474e+000
1	 4.490041977481146e-001	 4.658403862745926e+000	 9.584561454533263e-001
1	 4.034795497526701e-001	 4.662567420442432e+000	 1.088050182020393e+000
1	 3.580780882416031e-001	 4.666273697307478e+000	 1.219957713805793e+000
1	 3.128058645770233e-001	 4.669526977937935e+000	 1.352130618117068e+000
1	 2.676688011164299e-001	 4.672331630646811e+000	 1.482532100918915e+000
1	 2.226726903900320e-001	 4.674692103613119e+000	 1.609139477454139e+000
1	 1.778231943996107e-001	 4.676612921052107e+000	 1.729946852265999e+000
1	 1.331258440365946e-001	 4.678098679409549e+000	 1.842967696966884e+000
1	 8.858603861691414e-002	 4.679154043583776e+000	 1.946237324375655e+000
1	 4.420904553010043e-002	 4.679783743178811e+000	 2.037815257917450e+000
1	 0.000000000000000e+000	 4.679992568791956e+000	 2.115787495442514e+000
1	 4.515623975732860e-001	 4.684945102243493e+000	 8.803937535342656e-001
1	 4.057783730566992e-001	 4.689132381795057e+000	 9.969078255888989e-001
1	 3.601182368790378e-001	 4.692859775159207e+000	 1.115348717291271e+000
1	 3.145880748800770e-001	 4.696131591344303e+000	 1.233865671327301e+000
1	 2.691938431599767e-001	 4.698952223551811e+000	 1.350617556597928e+000
1	 2.239413672519161e-001	 4.701326145304252e+000	 1.463775415556504e+000
1	 1.788363414169600e-001	 4.703257906593573e+000	 1.571524920379288e+000
1	 1.338843280588195e-001	 4.704752130053801e+000	 1.672068736416140e+000
1	 8.909075725605534e-002	 4.705813507161522e+000	 1.763628791622387e+000
1	 4.446092640917822e-002	 4.706446794467667e+000	 1.844448450920950e+000
1	 0.000000000000000e+000	 4.706656809863967e+000	 1.912794594683759e+000
1	 4.541206031540581e-001	 4.711486401454396e+000	 7.833631399557713e-001
1	 4.080772015327535e-001	 4.715697402914556e+000	 8.864361893733268e-001
1	 3.621583901065020e-001	 4.719445912825525e+000	 9.913044249654620e-001
1	 3.163702891928225e-001	 4.722736264607184e+000	 1.096354184134957e+000
1	 2.707188886346127e-001	 4.725572876349514e+000	 1.199980397929655e+000
1	 2.252100469680970e-001	 4.727960246918568e+000	 1.300588822450570e+000
1	 1.798494907136974e-001	 4.729902952083058e+000	 1.396598189923068e+000
1	 1.346428137874790e-001	 4.731405640665302e+000	 1.486442278085347e+000
1	 8.959547703070339e-002	 4.732473030720187e+000	 1.568571896771461e+000
1	 4.471280785492915e-002	 4.733109905745613e+000	 1.641456790783836e+000
1	 0.000000000000000e+000	 4.733321110927781e+000	 1.703587458361663e+000
1	 4.733321110927781e+000	 0.000000000000000e+000	-3.849811510934080e-001
1	 4.733109905745613e+000	 4.471280785492781e-002	-3.669710734970796e-001
1	 4.732473030720188e+000	 8.959547703070218e-002	-3.466364756016122e-001
1	 4.731405640665302e+000	 1.346428137874779e-001	-3.244622865382651e-001
1	 4.729902952083057e+000	 1.798494907136964e-001	-3.009298525155607e-001
1	 4.727960246918568e+000	 2.252100469680961e-001	-2.765161180522383e-001
1	 4.725572876349514e+000	 2.707188886346119e-001	-2.516927897848101e-001
1	 4.722736264607185e+000	 3.163702891928219e-001	-2.269254838084240e-001
1	 4.719445912825524e+000	 3.621583901065016e-001	-2.026728575812532e-001
1	 4.715697402914556e+000	 4.080772015327532e-001	-1.793857274943768e-001
1	 4.711486401454396e+000	 4.541206031540578e-001	-1.575061732806355e-001
1	 4.759989469820151e+000	 0.000000000000000e+000	-3.343677541936737e-001
1	 4.759777074671015e+000	 4.496472763253101e-002	-3.190206558146145e-001
1	 4.759136611380217e+000	 9.010027361466881e-002	-3.018206687401588e-001
1	 4.758063207462941e+000	 1.354014149440846e-001	-2.831522556567901e-001
1	 4.756552052470237e+000	 1.808627941936055e-001	-2.633975345796033e-001
1	 4.754598401764884e+000	 2.264789197545885e-001	-2.429356316414758e-001
1	 4.752197580332299e+000	 2.722441661938199e-001	-2.221420191763639e-001
1	 4.749344986623096e+000	 3.181527747266116e-001	-2.013878398256517e-001
1	 4.746036096423840e+000	 3.641988538086731e-001	-1.810392174543041e-001
1	 4.742266466752270e+000	 4.103763798492339e-001	-1.614565557215671e-001
1	 4.738031739773277e+000	 4.566791980477858e-001	-1.429938252089910e-001
1	 4.786657848721423e+000	 0.000000000000000e+000	-2.920978240633683e-001
1	 4.786444263604397e+000	 4.521664759929027e-002	-2.784648340819694e-001
1	 4.785800212045457e+000	 9.060507057761931e-002	-2.634455440291518e-001
1	 4.784720794261156e+000	 1.361600166701584e-001	-2.473328103828798e-001
1	 4.783201172851483e+000	 1.818760984341039e-001	-2.304180240474570e-001
1	 4.781236576596879e+000	 2.277477934934140e-001	-2.129906158411023e-001
1	 4.778822304290479e+000	 2.737694448977087e-001	-1.953375500773621e-001
1	 4.775953728602225e+000	 3.199352615980164e-001	-1.777428067766186e-001
1	 4.772626299971283e+000	 3.662393190419611e-001	-1.604868530889036e-001
1	 4.768835550523107e+000	 4.126755598908812e-001	-1.438461045546168e-001
1	 4.764577098007344e+000	 4.592377948612594e-001	-1.280923768751102e-001
1	 4.813326200962827e+000	 0.000000000000000e+000	-2.568893654812621e-001
1	 4.813111425879084e+000	 4.546856731450769e-002	-2.442381846837278e-001
1	 4.812463786055541e+000	 9.110986703643685e-002	-2.306541512581892e-001
1	 4.811378354410160e+000	 1.369186176384996e-001	-2.163472746740317e-001
1	 4.809850266591904e+000	 1.828894016623030e-001	-2.015266232933121e-001
1	 4.807874724798890e+000	 2.290166659644496e-001	-1.863999638835403e-001
1	 4.805447001632020e+000	 2.752947220774363e-001	-1.711733921037199e-001
1	 4.802562443980586e+000	 3.217177466880521e-001	-1.560509543438158e-001
1	 4.799216476936393e+000	 3.682797822358817e-001	-1.412342613311023e-001
1	 4.795404607732644e+000	 4.149747376344186e-001	-1.269220939505019e-001
1	 4.791122429703765e+000	 4.617963891171835e-001	-1.133100017597178e-001
1	 4.839994479875598e+000	 0.000000000000000e+000	-2.274886719113713e-001
1	 4.839778514828407e+000	 4.572048633748538e-002	-2.152987994192568e-001
1	 4.839127286750117e+000	 9.161466210800462e-002	-2.026084604332094e-001
1	 4.838035841260178e+000	 1.376772165219083e-001	-1.895534778725725e-001
1	 4.836499287056593e+000	 1.839027021053143e-001	-1.762689078032826e-001
1	 4.834512799755251e+000	 2.302855349475718e-001	-1.628887944831005e-001
1	 4.832071625764876e+000	 2.768199950641596e-001	-1.495459193386169e-001
1	 4.829171086194195e+000	 3.235002268777344e-001	-1.363715441344627e-001
1	 4.825806580787716e+000	 3.703202398199508e-001	-1.234951486178599e-001
1	 4.821973591886459e+000	 4.172739090565691e-001	-1.110441629444726e-001
1	 4.817667688409711e+000	 4.643549763382627e-001	-9.914369521453030e-002
1	 4.866662638790970e+000	 0.000000000000000e+000	-2.026695516088018e-001
1	 4.866445483785695e+000	 4.597240422752544e-002	-1.906276423512327e-001
1	 4.865790667468827e+000	 9.211945490920574e-002	-1.784888444775926e-001
1	 4.864693208161425e+000	 1.384358119931847e-001	-1.663233583086216e-001
1	 4.863148187610658e+000	 1.849159979902493e-001	-1.542004456716186e-001
1	 4.861150754850293e+000	 2.315543982226574e-001	-1.421882821617223e-001
1	 4.858696130097009e+000	 2.783452611890359e-001	-1.303538063719422e-001
1	 4.855779608679063e+000	 3.252826990480789e-001	-1.187625662687956e-001
1	 4.852396564993790e+000	 3.723606882236841e-001	-1.074785629034205e-001
1	 4.848542456490132e+000	 4.195730701340565e-001	-9.656409166113343e-002
1	 4.844212827672348e+000	 4.669135520472020e-001	-8.607958126546457e-002
1	 4.893330631040176e+000	 0.000000000000000e+000	-1.812325788022752e-001
1	 4.893112286084272e+000	 4.622432054393000e-002	-1.692279274944570e-001
1	 4.892453881551312e+000	 9.262424455692345e-002	-1.574935786956803e-001
1	 4.891350408464123e+000	 1.391944027251290e-001	-1.460425797479774e-001
1	 4.889796921619200e+000	 1.859292875442192e-001	-1.348865261866215e-001
1	 4.887788543468357e+000	 2.328232535695832e-001	-1.240354930732969e-001
1	 4.885320468036373e+000	 2.798705177832224e-001	-1.134979664129796e-001
1	 4.882387964871203e+000	 3.270651600801012e-001	-1.032807747835705e-001
1	 4.878986383023156e+000	 3.744011238765979e-001	-9.338902131172332e-002
1	 4.875111155049245e+000	 4.218722168436039e-001	-8.382601613261694e-002
1	 4.870757801038846e+000	 4.694721117667060e-001	-7.459320947546683e-002
1	 4.919998409954449e+000	 0.000000000000000e+000	-1.620043690105495e-001
1	 4.919778875057467e+000	 4.647623484600112e-002	-1.501245165615276e-001
1	 4.919116882337213e+000	 9.312903016804092e-002	-1.388383563685281e-001
1	 4.918007395518488e+000	 1.399529873905411e-001	-1.281101602020561e-001
1	 4.916445442447325e+000	 1.869425689943357e-001	-1.179018971645943e-001
1	 4.914426118993777e+000	 2.340920987682258e-001	-1.081732261199090e-001
1	 4.911944592990931e+000	 2.813957621778768e-001	-9.888149139840892e-002
1	 4.908996108206631e+000	 3.288476068548173e-001	-8.998172189537415e-002
1	 4.905575988344355e+000	 3.764415432082079e-001	-8.142663367557151e-002
1	 4.901679641069377e+000	 4.241713451619347e-001	-7.316663619428675e-002
1	 4.897302562056370e+000	 4.720306510194794e-001	-6.514984224069222e-002
1	 4.946665928865022e+000	 0.000000000000000e+000	-1.438368775902833e-001
1	 4.946445204038610e+000	 4.672814669304094e-002	-1.323633360153341e-001
1	 4.945779623166170e+000	 9.363381085944129e-002	-1.217558198786775e-001
1	 4.944664122674740e+000	 1.407115646622214e-001	-1.119381126376027e-001
1	 4.943093703460129e+000	 1.879558405677100e-001	-1.028305107047107e-001
1	 4.941063434810888e+000	 2.353609315984621e-001	-9.434985916212459e-002
1	 4.938568458368636e+000	 2.829209917041559e-001	-8.640959402104438e-002
1	 4.935603992121360e+000	 3.306300362532426e-001	-7.891979116638066e-002
1	 4.932165334425926e+000	 3.784819426480299e-001	-7.178722211640548e-002
1	 4.928247868056106e+000	 4.264704510657722e-001	-6.491541671687791e-002
1	 4.923847064272092e+000	 4.745891653282274e-001	-5.820473287782662e-002
1	 4.973333141103128e+000	 0.000000000000000e+000	-1.256067206512520e-001
1	 4.973111226361029e+000	 4.698005564435157e-002	-1.150108127102676e-001
1	 4.972442057377833e+000	 9.413858574800782e-002	-1.054951067863333e-001
1	 4.971320543283099e+000	 1.414701332129701e-001	-9.695109714361490e-002
1	 4.969741658022722e+000	 1.889691004914536e-001	-8.926527705159502e-002
1	 4.967700444304020e+000	 2.366297498401687e-001	-8.231920013386344e-002
1	 4.965192017577452e+000	 2.844462036932173e-001	-7.598955160789067e-002
1	 4.962211570051403e+000	 3.324124451563928e-001	-7.014822961343244e-002
1	 4.958754374736414e+000	 3.805223186255800e-001	-6.466243681196804e-002
1	 4.954815789515014e+000	 4.287695305318400e-001	-5.939478242294927e-002
1	 4.950391261233176e+000	 4.771476502156543e-001	-5.420339484509825e-002
1	 5.000000000000000e+000	 0.000000000000000e+000	-1.062145175113388e-001
1	 4.999776895358052e+000	 4.723196125923512e-002	-9.715332743439124e-002
1	 4.999104138311836e+000	 9.464335395062358e-002	-8.932141030380673e-002
1	 4.997976610693785e+000	 1.422286917155873e-001	-8.258608413156608e-002
1	 4.996389259500202e+000	 1.899823469926779e-001	-7.680782626568045e-002
1	 4.994337100857515e+000	 2.378985512732224e-001	-7.184034288044490e-002
1	 4.991815224025334e+000	 2.859713954762181e-001	-6.753065177912804e-002
1	 4.988818795432773e+000	 3.341948304452838e-001	-6.371917879955256e-002
1	 4.985343062744359e+000	 3.825626675703741e-001	-6.023986809296114e-002
1	 4.981383358951679e+000	 4.310685795368613e-001	-5.692030652506808e-002
1	 4.976935106486797e+000	 4.797061012044654e-001	-5.358186242505989e-002
1	 4.711486401454396e+000	 4.541206031540578e-001	-1.575061732806355e-001
1	 4.706809400584462e+000	 5.002754289150643e-001	-1.368809339108200e-001
1	 4.701661653676148e+000	 5.465422826212099e-001	-1.172008013995041e-001
1	 4.696039107290805e+000	 5.929147628536144e-001	-9.867874424632872e-002
1	 4.689937808080499e+000	 6.393863452817449e-001	-8.153080937374496e-002
1	 4.683353906675523e+000	 6.859503841394175e-001	-6.597589156003339e-002
1	 4.676283661565610e+000	 7.326001138314001e-001	-5.223549210395491e-002
1	 4.668723442970103e+000	 7.793286506718558e-001	-4.053346685503144e-002
1	 4.660669736692415e+000	 8.261289947556908e-001	-3.109576377219872e-002
1	 4.652119147953821e+000	 8.729940319637028e-001	-2.415015020290513e-002
1	 4.643068405201682e+000	 9.199165361022299e-001	-1.992593010450719e-002
1	 4.738031739773277e+000	 4.566791980477858e-001	-1.429938252089910e-001
1	 4.733328387862385e+000	 5.030940681690770e-001	-1.255370689848660e-001
1	 4.728151637647650e+000	 5.496215974204830e-001	-1.088423753951699e-001
1	 4.722497412852646e+000	 5.962553483164129e-001	-9.307573444571353e-002
1	 4.716361737855575e+000	 6.429887597671158e-001	-7.840866420227002e-002
1	 4.709740741598711e+000	 6.898151485630015e-001	-6.501810139857783e-002
1	 4.702630661491457e+000	 7.367277109902938e-001	-5.308628018659384e-002
1	 4.695027847302338e+000	 7.837195245792672e-001	-4.280059890054679e-002
1	 4.686928765035167e+000	 8.307835499861416e-001	-3.435347472990451e-002
1	 4.678330000784435e+000	 8.779126330095246e-001	-2.794218622104970e-002
1	 4.669228264565003e+000	 9.250995067421185e-001	-2.376870355321542e-002
1	 4.764577098007344e+000	 4.592377948612594e-001	-1.280923768751102e-001
1	 4.759847395035628e+000	 5.059127095378930e-001	-1.131493101147783e-001
1	 4.754641641492657e+000	 5.527009145300992e-001	-9.883901131090669e-002
1	 4.748955738264196e+000	 5.995959362855476e-001	-8.528941903608675e-002
1	 4.742785687454572e+000	 6.465911769552423e-001	-7.263560597211594e-002
1	 4.736127596318019e+000	 6.936799158861571e-001	-6.101975879643958e-002
1	 4.728977681183592e+000	 7.408553112459421e-001	-5.059114572371339e-002
1	 4.721332271368977e+000	 7.881104017809552e-001	-4.150607138961428e-002
1	 4.713187813078358e+000	 8.354381087086972e-001	-3.392781878325649e-002
1	 4.704540873279440e+000	 8.828312377455567e-001	-2.802657795536763e-002
1	 4.695388143554561e+000	 9.302824812705677e-001	-2.397936125162243e-002
1	 4.791122429703765e+000	 4.617963891171835e-001	-1.133100017597178e-001
1	 4.786366375697530e+000	 5.087313480891076e-001	-1.003549838348389e-001
1	 4.781131618855301e+000	 5.557802285614468e-001	-8.794333859042199e-002
1	 4.775414037225054e+000	 6.029365209151660e-001	-7.617373642155023e-002
1	 4.769209610637267e+000	 6.501935905420583e-001	-6.515275363415075e-002
1	 4.762514424658145e+000	 6.975446793456983e-001	-5.499491002296501e-002
1	 4.755324674536412e+000	 7.449829073751975e-001	-4.582269421512398e-002
1	 4.747636669138935e+000	 7.925012745930328e-001	-3.776657635935423e-002
1	 4.739446834870297e+000	 8.400926627780263e-001	-3.096500775672643e-002
1	 4.730751719571419e+000	 8.877498375643832e-001	-2.556440704641477e-002
1	 4.721547996392131e+000	 9.354654506175089e-001	-2.171913257925054e-002
1	 4.817667688409711e+000	 4.643549763382627e-001	-9.914369521453030e-002
1	 4.812885283441428e+000	 5.115499788903157e-001	-8.777739047842133e-002
1	 4.807621523379716e+000	 5.588595341259149e-001	-7.689141781902813e-002
1	 4.801872263434823e+000	 6.062770963594155e-001	-6.656382215738116e-002
1	 4.795633461163435e+000	 6.537959942234991e-001	-5.688050100537721e-002
1	 4.788901180443781e+000	 7.014094321784388e-001	-4.793526845089632e-002
1	 4.781671595444322e+000	 7.491104921549110e-001	-3.982990761201866e-002
1	 4.773940994581146e+000	 7.968921353316150e-001	-3.267421111004289e-002
1	 4.765705784459294e+000	 8.447472040487973e-001	-2.658600912440538e-002
1	 4.756962493792949e+000	 8.926684238585888e-001	-2.169118460767597e-002
1	 4.747707777299492e+000	 9.406484057128736e-001	-1.812367525564728e-002
1	 4.844212827672348e+000	 4.669135520472020e-001	-8.607958126546456e-002
1	 4.839404071860663e+000	 5.143685970091132e-001	-7.602618895125743e-002
1	 4.834111308710036e+000	 5.619388258348924e-001	-6.640319510391994e-002
1	 4.828330370593108e+000	 6.096176567724445e-001	-5.727652448756772e-002
1	 4.822057192792849e+000	 6.573983816954989e-001	-4.871908493292591e-002
1	 4.815287817499626e+000	 7.052741676211933e-001	-4.081082674075803e-002
1	 4.808018397801716e+000	 7.532380583619346e-001	-3.363879184645914e-002
1	 4.800245201664535e+000	 8.012829763128150e-001	-2.729715234133808e-002
1	 4.791964615893656e+000	 8.494017243756793e-001	-2.188723795793419e-002
1	 4.783173150076616e+000	 8.975869880207578e-001	-1.751755214000086e-002
1	 4.773867440498423e+000	 9.458313374865937e-001	-1.430377633268703e-002
1	 4.870757801038846e+000	 4.694721117667060e-001	-7.459320947546681e-002
1	 4.865922694548569e+000	 5.171871975130948e-001	-6.569776903789398e-002
1	 4.860600928490404e+000	 5.650180982997679e-001	-5.718294173220388e-002
1	 4.854788312399505e+000	 6.129581963084000e-001	-4.911090317846739e-002
1	 4.848480759285287e+000	 6.610007466539926e-001	-4.154913504894459e-002
1	 4.841674289650374e+000	 7.091388789107755e-001	-3.457044918978374e-002
1	 4.834365035503001e+000	 7.573655987731198e-001	-2.825300338014792e-002
1	 4.826549244358026e+000	 8.056737898527467e-001	-2.268030844570653e-002
1	 4.818223283221690e+000	 8.540562156133401e-001	-1.794122645452698e-002
1	 4.809383642554999e+000	 9.025055214434751e-001	-1.412995973564623e-002
1	 4.800026940210695e+000	 9.510142368686003e-001	-1.134603047401518e-002
1	 4.897302562056370e+000	 4.720306510194794e-001	-6.514984224069220e-002
1	 4.892441105098484e+000	 5.200057754698557e-001	-5.737561171007823e-002
1	 4.887090336364951e+000	 5.680973461319309e-001	-4.991967966021201e-002
1	 4.881246042553618e+000	 6.162987091214296e-001	-4.284871227659482e-002
1	 4.874904114400521e+000	 6.646030827949144e-001	-3.623220580850731e-002
1	 4.868060550720721e+000	 7.130035592839999e-001	-3.014244499113083e-002
1	 4.860711462442573e+000	 7.614931061653186e-001	-2.465445556130280e-002
1	 4.852853076630550e+000	 8.100645682675249e-001	-1.984595078025916e-002
1	 4.844481740491707e+000	 8.587106696164487e-001	-1.579727188799959e-002
1	 4.835593925360678e+000	 9.074240155193246e-001	-1.259132242576239e-002
1	 4.826186230658091e+000	 9.561970947888259e-001	-1.031349637556844e-002
1	 4.923847064272092e+000	 4.745891653282274e-001	-5.820473287782661e-002
1	 4.918959257103751e+000	 5.228243259469916e-001	-5.163063788574897e-002
1	 4.913579485977811e+000	 5.711765639427692e-001	-4.528759336395380e-002
1	 4.907703514755048e+000	 6.196391893656807e-001	-3.925486739172893e-002
1	 4.901327211898328e+000	 6.682053838141989e-001	-3.361129147309805e-002
1	 4.894446554535365e+000	 7.168682019776805e-001	-2.843512311727183e-002
1	 4.887057632514837e+000	 7.656205733153829e-001	-2.380390554472512e-002
1	 4.879156652451032e+000	 8.144553038732628e-001	-1.979432470313187e-002
1	 4.870739941752015e+000	 8.633650782396737e-001	-1.648206378970602e-002
1	 4.861803952626233e+000	 9.123424616408908e-001	-1.394165548867650e-002
1	 4.852345266062382e+000	 9.613799021772006e-001	-1.224633214461812e-002
1	 4.950391261233176e+000	 4.771476502156543e-001	-5.420339484509826e-002
1	 4.945477104157704e+000	 5.256428440120974e-001	-4.902154606827797e-002
1	 4.940068330973121e+000	 5.742557463436726e-001	-4.394642855805098e-002
1	 4.934160682703395e+000	 6.229796311953018e-001	-3.907789808095868e-002
1	 4.927750005538482e+000	 6.718076434077810e-001	-3.451132467405234e-002
1	 4.920832254918999e+000	 7.207328002286314e-001	-3.033732951109192e-002
1	 4.913403499614191e+000	 7.697479930001639e-001	-2.664152249807194e-002
1	 4.905459925788398e+000	 8.188459889860746e-001	-2.350424112711425e-002
1	 4.896997841050921e+000	 8.680194333376836e-001	-2.100029113197673e-002
1	 4.888013678484247e+000	 9.172608512007586e-001	-1.919868950157990e-002
1	 4.878504000645347e+000	 9.665626499636570e-001	-1.816241042002445e-002
1	 4.976935106486797e+000	 4.797061012044654e-001	-5.358186242505991e-002
1	 4.971994599853684e+000	 5.284613247327685e-001	-5.009513927738844e-002
1	 4.966556824995021e+000	 5.773348879460298e-001	-4.654187826904549e-002
1	 4.960617500098262e+000	 6.263200287644395e-001	-4.305038588495964e-002
1	 4.954172449080762e+000	 6.754098552715955e-001	-3.973965916352272e-002
1	 4.947217605696319e+000	 7.245973472736669e-001	-3.671896723933913e-002
1	 4.939749017635035e+000	 7.738753579965136e-001	-3.408743778675866e-002
1	 4.931762850611571e+000	 8.232366159220741e-001	-3.193364931142106e-002
1	 4.923255392436736e+000	 8.726737267651472e-001	-3.033523025399462e-002
1	 4.914223057067300e+000	 9.221791755915122e-001	-2.935846588514498e-002
1	 4.904662388628768e+000	 9.717453290781269e-001	-2.905791398331751e-002
1	 4.643068405201682e+000	 9.199165361022299e-001	-1.992593010450719e-002
1	 4.633512893397808e+000	 9.668962193495464e-001	-1.865949854773091e-002
1	 4.623450920909602e+000	 1.013918590844765e+000	-2.033140163471526e-002
1	 4.612879611221272e+000	 1.060976087736485e+000	-2.478084267584023e-002
1	 4.601796226075083e+000	 1.108061044715827e+000	-3.183905600830156e-002
1	 4.590198169078672e+000	 1.155165696837306e+000	-4.132944403551252e-002
1	 4.578082989255348e+000	 1.202282182474619e+000	-5.306773049524647e-002
1	 4.565448384531957e+000	 1.249402546410591e+000	-6.686213005184952e-002
1	 4.552292205158868e+000	 1.296518743060277e+000	-8.251353427134364e-002
1	 4.538612457056610e+000	 1.343622639825984e+000	-9.981571400038780e-002
1	 4.524407305083716e+000	 1.390706020582740e+000	-1.185555381311206e-001
1	 4.669228264565003e+000	 9.250995067421185e-001	-2.376870355321541e-002
1	 4.659618915336745e+000	 9.723438817405615e-001	-2.202947028235878e-002
1	 4.649500251936107e+000	 1.019631185499925e+000	-2.270581226712656e-002
1	 4.638869381640498e+000	 1.066953812558383e+000	-2.567737818207110e-002
1	 4.627723550764356e+000	 1.114304054419368e+000	-3.082168075213252e-002
1	 4.616060148286782e+000	 1.161674102388338e+000	-3.801428630854702e-002
1	 4.603876709421853e+000	 1.209056050545213e+000	-4.712901190101944e-002
1	 4.591170919126122e+000	 1.256441898851738e+000	-5.803812975173234e-002
1	 4.577940615537890e+000	 1.303823556392736e+000	-7.061257881306796e-002
1	 4.564183793342687e+000	 1.351192844750042e+000	-8.472218316713014e-002
1	 4.549898607059532e+000	 1.398541501507601e+000	-1.002358769815045e-001
1	 4.695388143554561e+000	 9.302824812705677e-001	-2.397936125162244e-002
1	 4.685724956861634e+000	 9.777915482187314e-001	-2.195306150146113e-002
1	 4.675549602506140e+000	 1.025343784441016e+000	-2.193408977161669e-002
1	 4.664859171558671e+000	 1.072931541865138e+000	-2.383388739089124e-002
1	 4.653650894905826e+000	 1.120547068806811e+000	-2.756603260296456e-002
1	 4.641922146898159e+000	 1.168182512822402e+000	-3.304646371229436e-002
1	 4.629670448940496e+000	 1.215829923698024e+000	-4.019370331364551e-002
1	 4.616893473019093e+000	 1.263481256574305e+000	-4.892908317113270e-002
1	 4.603589045160168e+000	 1.311128375205806e+000	-5.917696929878498e-002
1	 4.589755148814241e+000	 1.358763055353852e+000	-7.086498678170156e-002
1	 4.575389928160809e+000	 1.406376988311272e+000	-8.392424386481251e-002
1	 4.721547996392131e+000	 9.354654506175089e-001	-2.171913257925053e-002
1	 4.711830972288417e+000	 9.832392092507670e-001	-1.957444253999579e-002
1	 4.701598927034792e+000	 1.031056377671105e+000	-1.912374029779859e-002
1	 4.690848935495057e+000	 1.078909265195828e+000	-2.030168258631557e-002
1	 4.679578213127979e+000	 1.126790076952974e+000	-2.304779300403746e-002
1	 4.667784119655578e+000	 1.174690916749863e+000	-2.730670003521018e-002
1	 4.655464162673449e+000	 1.222603790078849e+000	-3.302837186362018e-002
1	 4.642616001197560e+000	 1.270520607259488e+000	-4.016834741471942e-002
1	 4.629237449142049e+000	 1.318433186716127e+000	-4.868796305465093e-002
1	 4.615326478722450e+000	 1.366333258389628e+000	-5.855457436930622e-002
1	 4.600881223778735e+000	 1.414212467281752e+000	-6.974177244259514e-002
1	 4.747707777299492e+000	 9.406484057128736e-001	-1.812367525564728e-002
1	 4.737936915933036e+000	 9.886868553033805e-001	-1.601259074374051e-002
1	 4.727648179937163e+000	 1.036768955193263e+000	-1.535788828251420e-002
1	 4.716838627968924e+000	 1.084886972089533e+000	-1.610893647580095e-002
1	 4.705505460059299e+000	 1.133033067932675e+000	-1.822117467685104e-002
1	 4.693646021301822e+000	 1.181199302781087e+000	-2.165634737599920e-002
1	 4.681257805482884e+000	 1.229377637833485e+000	-2.638273325472698e-002
1	 4.668338458648202e+000	 1.277559938588484e+000	-3.237536829975539e-002
1	 4.654885782599884e+000	 1.325737978140341e+000	-3.961626236796868e-002
1	 4.640897738318488e+000	 1.373903440609585e+000	-4.809460859179558e-002
1	 4.626372449304512e+000	 1.422047924707039e+000	-5.780698501526675e-002
1	 4.773867440498423e+000	 9.458313374865937e-001	-1.430377633268704e-002
1	 4.764042742111435e+000	 9.941344768432842e-001	-1.236198115081861e-002
1	 4.753697315628352e+000	 1.042481507010558e+000	-1.169594498395437e-002
1	 4.742828203499540e+000	 1.090864652085331e+000	-1.226131678578523e-002
1	 4.731432590328278e+000	 1.139276030820732e+000	-1.401951054279436e-002
1	 4.719507806579668e+000	 1.187707659526438e+000	-1.693791772237314e-002
1	 4.707051332230972e+000	 1.236151455107731e+000	-2.099011440798661e-002
1	 4.694060800357711e+000	 1.284599238242489e+000	-2.615606256106008e-002
1	 4.680534000650018e+000	 1.333042736695088e+000	-3.242230484760568e-002
1	 4.666468882853538e+000	 1.381473588765937e+000	-3.978215246749862e-002
1	 4.651863560129326e+000	 1.429883346875132e+000	-4.823586542588480e-002
1	 4.800026940210695e+000	 9.510142368686003e-001	-1.134603047401518e-002
1	 4.790148405139557e+000	 9.995820643371888e-001	-9.693254794530265e-003
1	 4.779746288523450e+000	 1.048194023126059e+000	-9.174255354801590e-003
1	 4.768817616606180e+000	 1.096842294722301e+000	-9.742600296025994e-003
1	 4.757359558563402e+000	 1.145518954691962e+000	-1.135582356360469e-002
1	 4.745369430231896e+000	 1.194215975596280e+000	-1.397559730677535e-002
1	 4.732844697779878e+000	 1.242925230047382e+000	-1.756790111631089e-002
1	 4.719782981312768e+000	 1.291638493902699e+000	-2.210318767317382e-002
1	 4.706182058408796e+000	 1.340347449597011e+000	-2.755654437766065e-002
1	 4.692039867578768e+000	 1.389043689610899e+000	-3.390785052637631e-002
1	 4.677354511644374e+000	 1.437718720074028e+000	-4.114192960336476e-002
1	 4.826186230658091e+000	 9.561970947888259e-001	-1.031349637556843e-002
1	 4.816253859333342e+000	 1.005029608251808e+000	-9.053865468868645e-003
1	 4.805795053037558e+000	 1.053906493542835e+000	-8.806724068777000e-003
1	 4.794806821808106e+000	 1.102819889539520e+000	-9.515267085779870e-003
1	 4.783286319393154e+000	 1.151761828621185e+000	-1.112337821806412e-002
1	 4.771230847001283e+000	 1.200724239600978e+000	-1.357574438662441e-002
1	 4.758637856991776e+000	 1.249698950798238e+000	-1.681797127343940e-002
1	 4.745504956500062e+000	 1.298677693250309e+000	-2.079669975531039e-002
1	 4.731829910992570e+000	 1.347652104062751e+000	-2.545972301809086e-002
1	 4.717610647745360e+000	 1.396613729896686e+000	-3.075610412853656e-002
1	 4.702845259240852e+000	 1.445554030591727e+000	-3.663629383396978e-002
1	 4.852345266062382e+000	 9.613799021772006e-001	-1.224633214461812e-002
1	 4.842359059008736e+000	 1.010477099053851e+000	-1.146870576213556e-002
1	 4.831843563585773e+000	 1.059618908263955e+000	-1.158542148019785e-002
1	 4.820795773624587e+000	 1.108797426076069e+000	-1.252107573184511e-002
1	 4.809212827446026e+000	 1.158004641683217e+000	-1.419621430168725e-002
1	 4.797092011630610e+000	 1.207232440150896e+000	-1.652737106896336e-002
1	 4.784430764728838e+000	 1.256472605506096e+000	-1.942711421665596e-002
1	 4.771226680906276e+000	 1.305716823966517e+000	-2.280410000479741e-002
1	 4.757477513517681e+000	 1.354956687308949e+000	-2.656313419088845e-002
1	 4.743181178604490e+000	 1.404183696375513e+000	-3.060524116443956e-002
1	 4.728335758309948e+000	 1.453389264716227e+000	-3.482774084605991e-002
1	 4.878504000645347e+000	 9.665626499636570e-001	-1.816241042002446e-002
1	 4.868463958481682e+000	 1.015924527210032e+000	-1.794071312984359e-002
1	 4.857891774583190e+000	 1.065331257292487e+000	-1.848117026298693e-002
1	 4.846784426574895e+000	 1.114774893871027e+000	-1.968162016702352e-002
1	 4.835139037350504e+000	 1.164247382952877e+000	-2.142966370696716e-002
1	 4.822952878862655e+000	 1.213740565856400e+000	-2.360260977304801e-002
1	 4.810223375853232e+000	 1.263246182316751e+000	-2.606743669985714e-002
1	 4.796948109518096e+000	 1.312755873732517e+000	-2.868077008574909e-002
1	 4.783124821100482e+000	 1.362261186552246e+000	-3.128887747601102e-002
1	 4.768751415407335e+000	 1.411753575799593e+000	-3.372768034582496e-002
1	 4.753825964242861e+000	 1.461224408735526e+000	-3.582278378950948e-002
1	 4.904662388628768e+000	 9.717453290781269e-001	-2.905791398331750e-002
1	 4.894568512068120e+000	 1.021371883187062e+000	-2.945145674547748e-002
1	 4.883939640444909e+000	 1.071043530631502e+000	-3.044411344403939e-002
1	 4.872772735178299e+000	 1.120752282463470e+000	-3.189886887760059e-002
1	 4.861064903735073e+000	 1.170490041504984e+000	-3.366085081392931e-002
1	 4.848813403440197e+000	 1.220248605327853e+000	-3.555716489931357e-002
1	 4.836015645227130e+000	 1.270019669376003e+000	-3.739675599168330e-002
1	 4.822669197322209e+000	 1.319794830229507e+000	-3.897029688168154e-002
1	 4.808771788857317e+000	 1.369565589009284e+000	-4.005010532755161e-002
1	 4.794321313405072e+000	 1.419323354921142e+000	-4.039009028756310e-002
1	 4.779315832430783e+000	 1.469059448937622e+000	-3.972572818774582e-002
1	 4.524407305083716e+000	 1.390706020582740e+000	-1.185555381311206e-001
1	 4.509675075088747e+000	 1.437760588603412e+000	-1.388957893617589e-001
1	 4.494414253604443e+000	 1.484777968164294e+000	-1.609982023157753e-001
1	 4.478623494235840e+000	 1.531749710358705e+000	-1.846264520979918e-001
1	 4.462301621696776e+000	 1.578667297757052e+000	-2.095220924658551e-001
1	 4.445447634610878e+000	 1.625522148514563e+000	-2.354045767524653e-001
1	 4.428060708201620e+000	 1.672305620595791e+000	-2.619713173003872e-001
1	 4.410140196866271e+000	 1.719009016112672e+000	-2.888977841083414e-001
1	 4.391685636628613e+000	 1.765623585772689e+000	-3.158376433130456e-001
1	 4.372696747465478e+000	 1.812140533433458e+000	-3.424229360449514e-001
1	 4.353173435502171e+000	 1.858551020759795e+000	-3.682642981093216e-001
1	 4.549898607059532e+000	 1.398541501507601e+000	-1.002358769815045e-001
1	 4.535083373104525e+000	 1.445861183193071e+000	-1.172620998576601e-001
1	 4.519736569483269e+000	 1.493143466892460e+000	-1.358672047683064e-001
1	 4.503856842214986e+000	 1.540379856096477e+000	-1.558372395062660e-001
1	 4.487443009391757e+000	 1.587561785386848e+000	-1.769325382220217e-001
1	 4.470494063995282e+000	 1.634680624567193e+000	-1.988876601272415e-001
1	 4.453009176602114e+000	 1.681727682911336e+000	-2.214113717621280e-001
1	 4.434987697972089e+000	 1.728694213525793e+000	-2.441866737905742e-001
1	 4.416429161514878e+000	 1.775571417823013e+000	-2.668708732000252e-001
1	 4.397333285629620e+000	 1.822350450101617e+000	-2.890957016912312e-001
1	 4.377699975912727e+000	 1.869022422229697e+000	-3.104674809465682e-001
1	 4.575389928160809e+000	 1.406376988311272e+000	-8.392424386481251e-002
1	 4.560491690183496e+000	 1.453961783860481e+000	-9.834730334227038e-002
1	 4.545058904360769e+000	 1.501508971897163e+000	-1.140594652416327e-001
1	 4.529090209126037e+000	 1.549010008309379e+000	-1.308737288732718e-001
1	 4.512584415949611e+000	 1.596456279690133e+000	-1.485763596803588e-001
1	 4.495540512171281e+000	 1.643839107491402e+000	-1.669267766805171e-001
1	 4.477957663720667e+000	 1.691149752296235e+000	-1.856574845628453e-001
1	 4.459835217720181e+000	 1.738379418205699e+000	-2.044740515278205e-001
1	 4.441172704965379e+000	 1.785519257337162e+000	-2.230551338702189e-001
1	 4.421969842277713e+000	 1.832560374430208e+000	-2.410525482125932e-001
1	 4.402226534724702e+000	 1.879493831556171e+000	-2.580913921994317e-001
1	 4.600881223778735e+000	 1.414212467281752e+000	-6.974177244259514e-002
1	 4.585899981862075e+000	 1.462062376429718e+000	-8.209012399171908e-002
1	 4.570381213923803e+000	 1.509874468538931e+000	-9.536344226031833e-002
1	 4.554323550811518e+000	 1.557640151894844e+000	-1.094061837757955e-001
1	 4.537725797373787e+000	 1.605350765101788e+000	-1.240375943135906e-001
1	 4.520586935308483e+000	 1.652997581260137e+000	-1.390515757182754e-001
1	 4.502906125898312e+000	 1.700571812262213e+000	-1.542165945428412e-001
1	 4.484682712628255e+000	 1.748064613203672e+000	-1.692756335799332e-001
1	 4.465916223679773e+000	 1.795467086906851e+000	-1.839461872779760e-001
1	 4.446606374296626e+000	 1.842770288552342e+000	-1.979203019492901e-001
1	 4.426753069017446e+000	 1.889965230414765e+000	-2.108646615866616e-001
1	 4.626372449304512e+000	 1.422047924707039e+000	-5.780698501526675e-002
1	 4.611308203676677e+000	 1.470162946724856e+000	-6.843069713963464e-002
1	 4.595703453859223e+000	 1.518239942178289e+000	-7.957231879136249e-002
1	 4.579556823113962e+000	 1.566270271750308e+000	-9.111219794983538e-002
1	 4.562867109667728e+000	 1.614245226056694e+000	-1.029095102276043e-001
1	 4.545633289576500e+000	 1.662156029846346e+000	-1.148021354032736e-001
1	 4.527854519476074e+000	 1.709993846320989e+000	-1.266065690385504e-001
1	 4.509530139214028e+000	 1.757749781570993e+000	-1.381178701033958e-001
1	 4.490659674357717e+000	 1.805414889123798e+000	-1.491096454656744e-001
1	 4.471242838573231e+000	 1.852980174601130e+000	-1.593340720299736e-001
1	 4.451279535870309e+000	 1.900436600481029e+000	-1.685219572344016e-001
1	 4.651863560129326e+000	 1.429883346875132e+000	-4.823586542588480e-002
1	 4.636716311163718e+000	 1.478263480569972e+000	-5.731053203835784e-002
1	 4.621025579853891e+000	 1.526605378175764e+000	-6.648387427858514e-002
1	 4.604789981875901e+000	 1.574900352773203e+000	-7.567649596959312e-002
1	 4.588008308834882e+000	 1.623139646989730e+000	-8.479435479489564e-002
1	 4.570679531144936e+000	 1.671314437222977e+000	-9.372867857356006e-002
1	 4.552802800794988e+000	 1.719415837984281e+000	-1.023559060198617e-001
1	 4.534377453995208e+000	 1.767434906358946e+000	-1.105376526265107e-001
1	 4.515403013698871e+000	 1.815362646579719e+000	-1.181207022630380e-001
1	 4.495879191994396e+000	 1.863190014709683e+000	-1.249370250305665e-001
1	 4.475805892362633e+000	 1.910907923430507e+000	-1.308038218610287e-001
1	 4.677354511644374e+000	 1.437718720074028e+000	-4.114192960336476e-002
1	 4.662124259859619e+000	 1.486363963789141e+000	-4.867247582850924e-002
1	 4.646347547594663e+000	 1.534970761891882e+000	-5.590036082512567e-002
1	 4.630022982939861e+000	 1.583530379860965e+000	-6.279074038666846e-002
1	 4.613149350878688e+000	 1.632034012335776e+000	-6.930311143455281e-002
1	 4.595725616183406e+000	 1.680472787362978e+000	-7.539129777078844e-002
1	 4.577750926196077e+000	 1.728837770763812e+000	-8.100344588055147e-002
1	 4.559224613489508e+000	 1.777119970618811e+000	-8.608203100468376e-002
1	 4.540146198402894e+000	 1.825310341866332e+000	-9.056387368158589e-002
1	 4.520515391446991e+000	 1.873399791011110e+000	-9.438016693625742e-002
1	 4.500332095573771e+000	 1.921379180938751e+000	-9.745651427153604e-002
1	 4.702845259240852e+000	 1.445554030591727e+000	-3.663629383396978e-002
1	 4.687532005300790e+000	 1.494464382206437e+000	-4.246067867153366e-002
1	 4.671669312768398e+000	 1.543336078687172e+000	-4.762838336817011e-002
1	 4.655255782148381e+000	 1.592160337911028e+000	-5.215334508662027e-002
1	 4.638290191802596e+000	 1.640928306529714e+000	-5.605526423261303e-002
1	 4.620771500861514e+000	 1.689631064239296e+000	-5.935968913217708e-002
1	 4.602698852020376e+000	 1.738259628171301e+000	-6.209809251893825e-002
1	 4.584071574214638e+000	 1.786804957401870e+000	-6.430793949943367e-002
1	 4.564889185169442e+000	 1.835257957575353e+000	-6.603274667738064e-002
1	 4.545151393817891e+000	 1.883609485638524e+000	-6.732213213212041e-002
1	 4.524858102583068e+000	 1.931850354681308e+000	-6.823185596188763e-002
1	 4.728335758309948e+000	 1.453389264716227e+000	-3.482774084605991e-002
1	 4.712939503023649e+000	 1.502564721645936e+000	-3.862056000180239e-002
1	 4.696990831061952e+000	 1.551701313922158e+000	-4.147878369668069e-002
1	 4.680488335343983e+000	 1.600790211820825e+000	-4.346929463047305e-002
1	 4.663430787610048e+000	 1.649822514006423e+000	-4.467857010964178e-002
1	 4.645817141348872e+000	 1.698789251824879e+000	-4.521289481469212e-002
1	 4.627646534608915e+000	 1.747681393718469e+000	-4.519854336141997e-002
1	 4.608918292688311e+000	 1.796489849759405e+000	-4.478193164002632e-002
1	 4.589631930698175e+000	 1.845205476298500e+000	-4.412973596920090e-002
1	 4.569787155993958e+000	 1.893819080725032e+000	-4.342897915957256e-002
1	 4.549383870469874e+000	 1.942321426333724e+000	-4.288708264233062e-002
1	 4.753825964242861e+000	 1.461224408735526e+000	-3.582278378950948e-002
1	 4.738346708564613e+000	 1.510664967931714e+000	-3.709877585667332e-002
1	 4.722312058162185e+000	 1.560066452957368e+000	-3.726652816922958e-002
1	 4.705720598369203e+000	 1.609419986487791e+000	-3.644996935859789e-002
1	 4.688571094304490e+000	 1.658716619200784e+000	-3.480883825485166e-002
1	 4.670862493815090e+000	 1.707947334092676e+000	-3.253905363416471e-002
1	 4.652593930302719e+000	 1.757103050917036e+000	-2.987302799631023e-002
1	 4.633764725428240e+000	 1.806174630742699e+000	-2.707992354110457e-002
1	 4.614374391688747e+000	 1.855152880627489e+000	-2.446584861256568e-002
1	 4.594422634862072e+000	 1.904028558403749e+000	-2.237399298706947e-002
1	 4.573909356313535e+000	 1.952792377571551e+000	-2.118470049674863e-002
1	 4.779315832430783e+000	 1.469059448937622e+000	-3.972572818774582e-002
1	 4.763753577460100e+000	 1.518765106887844e+000	-3.784318724469855e-002
1	 4.747632949755956e+000	 1.568431481153328e+000	-3.481059899509945e-002
1	 4.730952527066570e+000	 1.618049646809360e+000	-3.081297604382247e-002
1	 4.713711067889371e+000	 1.667610606547676e+000	-2.608971655798618e-002
1	 4.695907514429774e+000	 1.717105295015634e+000	-2.093515961542997e-002
1	 4.677540995442822e+000	 1.766524583278722e+000	-1.569905509944630e-002
1	 4.658610828952133e+000	 1.815859283403033e+000	-1.078694536348209e-002
1	 4.639116524840820e+000	 1.865100153154037e+000	-6.660456042696813e-003
1	 4.619057787309098e+000	 1.914237900807783e+000	-3.837493554070374e-003
1	 4.598434517193399e+000	 1.963263190070333e+000	-2.892347002878300e-003
1	 4.353173435502171e+000	 1.858551020759795e+000	-3.682642981093216e-001
1	 4.333118844188068e+000	 1.904839237533663e+000	-3.936490725265372e-001
1	 4.312530372389278e+000	 1.951003250800439e+000	-4.190810021710657e-001
1	 4.291408499589530e+000	 1.997034131020163e+000	-4.444628068410364e-001
1	 4.269753898666800e+000	 2.042922926136646e+000	-4.696902361816204e-001
1	 4.247567437359611e+000	 2.088660666674489e+000	-4.946520568443114e-001
1	 4.224850179576207e+000	 2.134238370909847e+000	-5.192300510634302e-001
1	 4.201603386542996e+000	 2.179647050109439e+000	-5.432990268745070e-001
1	 4.177828517788692e+000	 2.224877713832085e+000	-5.667268401750951e-001
1	 4.153527231960960e+000	 2.269921375286927e+000	-5.893744288033465e-001
1	 4.128701387472490e+000	 2.314769056742235e+000	-6.110958587835156e-001
1	 4.377699975912727e+000	 1.869022422229697e+000	-3.104674809465682e-001
1	 4.357532393524315e+000	 1.915571434911691e+000	-3.313686090951936e-001
1	 4.336827922675253e+000	 1.961995544302362e+000	-3.524185801967315e-001
1	 4.315587045550745e+000	 2.008285770551153e+000	-3.735481849557564e-001
1	 4.293810438819873e+000	 2.054433111164409e+000	-3.946843606074766e-001
1	 4.271498975110129e+000	 2.100428546131131e+000	-4.157501741611819e-001
1	 4.248653724323996e+000	 2.146263043122858e+000	-4.366648114493531e-001
1	 4.225275954793839e+000	 2.191927562762204e+000	-4.573435721315785e-001
1	 4.201367134271600e+000	 2.237413063954258e+000	-4.776978707910877e-001
1	 4.176928930750041e+000	 2.282710509275002e+000	-4.976352442498429e-001
1	 4.151963213112460e+000	 2.327810870410583e+000	-5.170593652156315e-001
1	 4.402226534724702e+000	 1.879493831556171e+000	-2.580913921994317e-001
1	 4.381945961177230e+000	 1.926303640341893e+000	-2.746988211566486e-001
1	 4.361125491190895e+000	 1.972987846051518e+000	-2.916372921215857e-001
1	 4.339765609652384e+000	 2.019537418523855e+000	-3.088556638762391e-001
1	 4.317866997021876e+000	 2.065943304827759e+000	-3.263002989910334e-001
1	 4.295430530815843e+000	 2.112196434416588e+000	-3.439150411371725e-001
1	 4.272457286930998e+000	 2.158287724357238e+000	-3.616411957055865e-001
1	 4.248948540805665e+000	 2.204208084628181e+000	-3.794175138540419e-001
1	 4.224905768415010e+000	 2.249948423480745e+000	-3.971801800986501e-001
1	 4.200330647096902e+000	 2.295499652857716e+000	-4.148628035599566e-001
1	 4.175225056205250e+000	 2.340852693863087e+000	-4.323964129675700e-001
1	 4.426753069017446e+000	 1.889965230414765e+000	-2.108646615866616e-001
1	 4.406359504423866e+000	 1.937035835043452e+000	-2.234750274303159e-001
1	 4.385423035416232e+000	 1.983980136811944e+000	-2.366585213164296e-001
1	 4.363944149582698e+000	 2.030789055248471e+000	-2.503722421772409e-001
1	 4.341923531174543e+000	 2.077453486984451e+000	-2.645704103868533e-001
1	 4.319362062597204e+000	 2.123964310937663e+000	-2.792043371580069e-001
1	 4.296260825741616e+000	 2.170312393570411e+000	-2.942223978325317e-001
1	 4.272621103152047e+000	 2.216488594217080e+000	-3.095700092073785e-001
1	 4.248444379026888e+000	 2.262483770475300e+000	-3.251896110313857e-001
1	 4.223732340049087e+000	 2.308288783654709e+000	-3.410206518008109e-001
1	 4.198486876043154e+000	 2.353894504277206e+000	-3.569995789738423e-001
1	 4.451279535870309e+000	 1.900436600481029e+000	-1.685219572344016e-001
1	 4.430772980541285e+000	 1.947768000235553e+000	-1.775362336044070e-001
1	 4.409720512831290e+000	 1.994972397347677e+000	-1.874054418445452e-001
1	 4.388122623029947e+000	 2.042040661035201e+000	-1.980852640566428e-001
1	 4.365979999179608e+000	 2.088963637492247e+000	-2.095264012000238e-001
1	 4.343293528574661e+000	 2.135732155101159e+000	-2.216745326181731e-001
1	 4.320064299100253e+000	 2.182337029719798e+000	-2.344702831068828e-001
1	 4.296293600406571e+000	 2.228769070038614e+000	-2.478491977333683e-001
1	 4.271982924915197e+000	 2.275019083001672e+000	-2.617417246008905e-001
1	 4.247133968654143e+000	 2.321077879285622e+000	-2.760732057378017e-001
1	 4.221748631918484e+000	 2.366936278830407e+000	-2.907638762732344e-001
1	 4.475805892362633e+000	 1.910907923430507e+000	-1.308038218610287e-001
1	 4.455186346806542e+000	 1.958500117137379e+000	-1.367250329973997e-001
1	 4.434017880916100e+000	 2.005964608422758e+000	-1.438029711421211e-001
1	 4.412300987682382e+000	 2.053292216194244e+000	-1.519824116827551e-001
1	 4.390036358938798e+000	 2.100473736208904e+000	-1.611993449657646e-001
1	 4.367224886868670e+000	 2.147499946313881e+000	-1.713809240278546e-001
1	 4.343867665351315e+000	 2.194361611762827e+000	-1.824454265523688e-001
1	 4.319965991142817e+000	 2.241049490602491e+000	-1.943022313746801e-001
1	 4.295521364887907e+000	 2.287554339123615e+000	-2.068518098306399e-001
1	 4.270535491959619e+000	 2.333866917370094e+000	-2.199857322106267e-001
1	 4.245010283123539e+000	 2.379977994700153e+000	-2.335866895489792e-001
1	 4.500332095573771e+000	 1.921379180938751e+000	-9.745651427153604e-002
1	 4.479599560496697e+000	 1.969232166968115e+000	-1.008875104398608e-001
1	 4.458315097150689e+000	 2.016956750801223e+000	-1.057777242335152e-001
1	 4.436479201228258e+000	 2.064543701035800e+000	-1.120516977911769e-001
1	 4.414092568353847e+000	 2.111983762992179e+000	-1.196197014897769e-001
1	 4.391156095599677e+000	 2.159267663982630e+000	-1.283776679839993e-001
1	 4.367670882839205e+000	 2.206386118656919e+000	-1.382071501657113e-001
1	 4.343638233934360e+000	 2.253329834418422e+000	-1.489753035284065e-001
1	 4.319059657752982e+000	 2.300089516904883e+000	-1.605348933698598e-001
1	 4.293936869013054e+000	 2.346655875527765e+000	-1.727243272118421e-001
1	 4.268271788950622e+000	 2.393019629063903e+000	-1.853677127594024e-001
1	 4.524858102583068e+000	 1.931850354681308e+000	-6.823185596188763e-002
1	 4.504012578888808e+000	 1.979964130946945e+000	-6.987314925561017e-002
1	 4.482612119015088e+000	 2.027948805247112e+000	-7.325796942372578e-002
1	 4.460657221355828e+000	 2.075795095870070e+000	-7.828145852191829e-002
1	 4.438148585326483e+000	 2.123493697699832e+000	-8.481733537345723e-002
1	 4.415087112888134e+000	 2.171035287514209e+000	-9.271781404831876e-002
1	 4.391473909908327e+000	 2.218410529359499e+000	-1.018135589446539e-001
1	 4.367310287354787e+000	 2.265610079996117e+000	-1.119136771650669e-001
1	 4.342597762318389e+000	 2.312624594409227e+000	-1.228057487993980e-001
1	 4.317338058861997e+000	 2.359444731378275e+000	-1.342558956415413e-001
1	 4.291533108692035e+000	 2.406061159099123e+000	-1.460088887804720e-001
1	 4.549383870469874e+000	 1.942321426333724e+000	-4.288708264233063e-002
1	 4.528425359259934e+000	 1.990695990293054e+000	-4.353474122639462e-002
1	 4.506908903989321e+000	 2.038940752524462e+000	-4.617358541287840e-002
1	 4.484835005753348e+000	 2.087046381007252e+000	-5.066034648786560e-002
1	 4.462204367758438e+000	 2.135003520189621e+000	-5.682153394701798e-002
1	 4.439017896854490e+000	 2.182802796315422e+000	-6.445333657315971e-002
1	 4.415276704903087e+000	 2.230434822827990e+000	-7.332157576292633e-002
1	 4.390982109977675e+000	 2.277890205845288e+000	-8.316171204813661e-002
1	 4.366135637392090e+000	 2.325159549700400e+000	-9.367890564122672e-002
1	 4.340739020553997e+000	 2.372233462541266e+000	-1.045481317129612e-001
1	 4.314794201640082e+000	 2.419102561983274e+000	-1.154143509851541e-001
1	 4.573909356313535e+000	 1.952792377571551e+000	-2.118470049674863e-002
1	 4.552837858887132e+000	 2.001427726225625e+000	-2.172829942914459e-002
1	 4.531205409553421e+000	 2.049932573397313e+000	-2.445601977991156e-002
1	 4.509012512109073e+000	 2.098297536757549e+000	-2.917732406604485e-002
1	 4.486259873551446e+000	 2.146513210319305e+000	-3.566102463261315e-002
1	 4.462948405619200e+000	 2.194570169793071e+000	-4.363516551444314e-002
1	 4.439079226167888e+000	 2.242458978019818e+000	-5.278697513510240e-002
1	 4.414653660376604e+000	 2.290170190475643e+000	-6.276289108762079e-002
1	 4.389673241782055e+000	 2.337694360842155e+000	-7.316865808266682e-002
1	 4.364139713136595e+000	 2.385022046636375e+000	-8.356949998492308e-002
1	 4.338055027087065e+000	 2.432143814893819e+000	-9.349036668755570e-002
1	 4.598434517193399e+000	 1.963263190070333e+000	-2.892347002878300e-003
1	 4.577250035047463e+000	 2.012159319963842e+000	-4.312973839598836e-003
1	 4.555501593187414e+000	 2.060924248629703e+000	-8.038248784860966e-003
1	 4.533189698111257e+000	 2.109548543431159e+000	-1.382165690351143e-002
1	 4.510315060607234e+000	 2.158022747946641e+000	-2.136399175865326e-002
1	 4.486878597302711e+000	 2.206337387353962e+000	-3.031321626923508e-002
1	 4.462881432047134e+000	 2.254482973892404e+000	-4.026441591251796e-002
1	 4.438324897125159e+000	 2.302450012396894e+000	-5.075984585979106e-002
1	 4.413210534296251e+000	 2.350229005898244e+000	-6.128907342597464e-002
1	 4.387540095657339e+000	 2.397810461283245e+000	-7.128921699794343e-002
1	 4.361315544325289e+000	 2.445184895008223e+000	-8.014528238297936e-002
1	 4.128701387472490e+000	 2.314769056742235e+000	-6.110958587835156e-001
1	 4.103349201813303e+000	 2.359418476664549e+000	-6.304651778603566e-001
1	 4.077476622929090e+000	 2.403853947232863e+000	-6.460478644323136e-001
1	 4.051086115123940e+000	 2.448066549433488e+000	-6.577051552079082e-001
1	 4.024180343380284e+000	 2.492047395438517e+000	-6.653193665804952e-001
1	 3.996762173110999e+000	 2.535787634173376e+000	-6.687942160032618e-001
1	 3.968834669728084e+000	 2.579278456895365e+000	-6.680551088661663e-001
1	 3.940401098026867e+000	 2.622511102776228e+000	-6.630493899230371e-001
1	 3.911464921384908e+000	 2.665476864481689e+000	-6.537465583948998e-001
1	 3.882029800775060e+000	 2.708167093740828e+000	-6.401384459575619e-001
1	 3.852099593592544e+000	 2.750573206898159e+000	-6.222393569062853e-001
1	 4.151963213112460e+000	 2.327810870410583e+000	-5.170593652156317e-001
1	 4.126468188805896e+000	 2.372711852972975e+000	-5.347119126984677e-001
1	 4.100449839287810e+000	 2.417397680753247e+000	-5.492688105595895e-001
1	 4.073910642746602e+000	 2.461859384486436e+000	-5.605520905649868e-001
1	 4.046853279179697e+000	 2.506088026269067e+000	-5.683991076251541e-001
1	 4.019280630144203e+000	 2.550074705158071e+000	-5.726628959590138e-001
1	 3.991195778323190e+000	 2.593810562780759e+000	-5.732125013365372e-001
1	 3.962602006906416e+000	 2.637286788948845e+000	-5.699332884673417e-001
1	 3.933502798784717e+000	 2.680494627269417e+000	-5.627272226538060e-001
1	 3.903901835557515e+000	 2.723425380745688e+000	-5.515131248821940e-001
1	 3.873802996353268e+000	 2.766070417360369e+000	-5.362268995830581e-001
1	 4.175225056205250e+000	 2.340852693863087e+000	-4.323964129675700e-001
1	 4.149587193144093e+000	 2.386005239254254e+000	-4.486315068131359e-001
1	 4.123423072882692e+000	 2.430941424434303e+000	-4.623195300037414e-001
1	 4.096735187493785e+000	 2.475652229886951e+000	-4.732566444196375e-001
1	 4.069526231989785e+000	 2.520128667633113e+000	-4.812497259340853e-001
1	 4.041799104072064e+000	 2.564361786861185e+000	-4.861167393706389e-001
1	 4.013556903694774e+000	 2.608342679568453e+000	-4.876870979320504e-001
1	 3.984802932442126e+000	 2.652062486206556e+000	-4.858020062012234e-001
1	 3.955540692718250e+000	 2.695512401323905e+000	-4.803147858453768e-001
1	 3.925773886749151e+000	 2.738683679197817e+000	-4.710911831878871e-001
1	 3.895506415396549e+000	 2.781567639449146e+000	-4.580096578488957e-001
1	 4.198486876043154e+000	 2.353894504277206e+000	-3.569995789738423e-001
1	 4.172706174370148e+000	 2.399298612245635e+000	-3.720429317560272e-001
1	 4.146396283511082e+000	 2.444485154575170e+000	-3.849584385227335e-001
1	 4.119559709423029e+000	 2.489445061498262e+000	-3.955294890887453e-001
1	 4.092199162133382e+000	 2.534169294960264e+000	-4.035467124344161e-001
1	 4.064317555487759e+000	 2.578648854281084e+000	-4.088083546091703e-001
1	 4.035918006711387e+000	 2.622874781828016e+000	-4.111206473343856e-001
1	 4.007003835782910e+000	 2.666838168692684e+000	-4.102981664537023e-001
1	 3.977578564619736e+000	 2.710530160364861e+000	-4.061641793940606e-001
1	 3.947645916074441e+000	 2.753941962396010e+000	-3.985509808186509e-001
1	 3.917209812741994e+000	 2.797064846045182e+000	-3.873002156735563e-001
1	 4.221748631918484e+000	 2.366936278830407e+000	-2.907638762732345e-001
1	 4.195825092026316e+000	 2.412591948684358e+000	-3.047692168278370e-001
1	 4.169369430970326e+000	 2.458028847474985e+000	-3.169493428308118e-001
1	 4.142384168591882e+000	 2.503237855183602e+000	-3.270877379741763e-001
1	 4.114872029933323e+000	 2.548209883680131e+000	-3.349727718462895e-001
1	 4.086835944984467e+000	 2.592935882416122e+000	-3.403980650792659e-001
1	 4.058279048241576e+000	 2.637406844129021e+000	-3.431628492769547e-001
1	 4.029204678077676e+000	 2.681613810550552e+000	-3.430723209332207e-001
1	 3.999616375923409e+000	 2.725547878111993e+000	-3.399379885557207e-001
1	 3.969517885257866e+000	 2.769200203639070e+000	-3.335780122182372e-001
1	 3.938913150409199e+000	 2.812562010029167e+000	-3.238175347750048e-001
1	 4.245010283123539e+000	 2.379977994700153e+000	-2.335866895489791e-001
1	 4.218943905654852e+000	 2.425885225307669e+000	-2.466373401863178e-001
1	 4.192342475057772e+000	 2.471572479432886e+000	-2.580612951508440e-001
1	 4.165208525057892e+000	 2.517030586806200e+000	-2.676547712927538e-001
1	 4.137544795712443e+000	 2.562250409222322e+000	-2.752176271727015e-001
1	 4.109354233155369e+000	 2.607222846264663e+000	-2.805536998923660e-001
1	 4.080639989153887e+000	 2.651938841041037e+000	-2.834711386582442e-001
1	 4.051405420475334e+000	 2.696389385923486e+000	-2.837827343640483e-001
1	 4.021654088063500e+000	 2.740565528285002e+000	-2.813062444783729e-001
1	 3.991389756023894e+000	 2.784458376225797e+000	-2.758647125276609e-001
1	 3.960616390417767e+000	 2.828059104281789e+000	-2.672867814701831e-001
1	 4.268271788950622e+000	 2.393019629063903e+000	-1.853677127594024e-001
1	 4.242062574798013e+000	 2.439178418852811e+000	-1.974781234844228e-001
1	 4.215315375570760e+000	 2.485116026748010e+000	-2.080684524812304e-001
1	 4.188032738878608e+000	 2.530823232229286e+000	-2.169600674546302e-001
1	 4.160217419793573e+000	 2.576290847016447e+000	-2.239778305258860e-001
1	 4.131872380593637e+000	 2.621509720825069e+000	-2.289503913239774e-001
1	 4.103000790316869e+000	 2.666470747133634e+000	-2.317104766517908e-001
1	 4.073606024124799e+000	 2.711164868954809e+000	-2.320951761022474e-001
1	 4.043691662474240e+000	 2.755583084603595e+000	-2.299462230018342e-001
1	 4.013261490097005e+000	 2.799716453454991e+000	-2.251102700635020e-001
1	 3.982319494787302e+000	 2.843556101683742e+000	-2.174391591372698e-001
1	 4.291533108692035e+000	 2.406061159099123e+000	-1.460088887804720e-001
1	 4.265181058998054e+000	 2.452471506057029e+000	-1.571261299059326e-001
1	 4.238288092306640e+000	 2.498659465719493e+000	-1.667499404001789e-001
1	 4.210856770111576e+000	 2.544615767316091e+000	-1.747390398777583e-001
1	 4.182889862499550e+000	 2.590331172492116e+000	-1.809565800521073e-001
1	 4.154390347892454e+000	 2.635796481095700e+000	-1.852703788001316e-001
1	 4.125361412599070e+000	 2.681002536976384e+000	-1.875531485497671e-001
1	 4.095806450174976e+000	 2.725940233787844e+000	-1.876827184688585e-001
1	 4.065729060589863e+000	 2.770600520787479e+000	-1.855422499429973e-001
1	 4.035133049201670e+000	 2.814974408625450e+000	-1.810204448409019e-001
1	 4.004022425537404e+000	 2.859052975115712e+000	-1.740117460785312e-001
1	 4.314794201640082e+000	 2.419102561983274e+000	-1.154143509851541e-001
1	 4.288299317797230e+000	 2.465764463657565e+000	-1.254195654715852e-001
1	 4.261260585062754e+000	 2.512202772646475e+000	-1.338897212377720e-001
1	 4.233680578814340e+000	 2.558408167929846e+000	-1.407328790352707e-001
1	 4.205562084153207e+000	 2.604371361078937e+000	-1.458635427268166e-001
1	 4.176908095644997e+000	 2.650083102074917e+000	-1.492028191688997e-001
1	 4.147721816869036e+000	 2.695534185138857e+000	-1.506785680884609e-001
1	 4.118006659774781e+000	 2.740715454565915e+000	-1.502255415491804e-001
1	 4.087766243844598e+000	 2.785617810556357e+000	-1.477855126242205e-001
1	 4.057004395062370e+000	 2.830232215035974e+000	-1.433073929152616e-001
1	 4.025725144687676e+000	 2.874549697458393e+000	-1.367473385818402e-001
1	 4.338055027087065e+000	 2.432143814893819e+000	-9.349036668755573e-002
1	 4.311417310737799e+000	 2.479057268391663e+000	-1.022001834941335e-001
1	 4.284232813636449e+000	 2.525745923828093e+000	-1.092764664534126e-001
1	 4.256504125044452e+000	 2.572200409933781e+000	-1.146883995411810e-001
1	 4.228234045077380e+000	 2.618411388206521e+000	-1.184146828019611e-001
1	 4.199425584444444e+000	 2.664369558761081e+000	-1.204436030232423e-001
1	 4.170081963995318e+000	 2.710065666190623e+000	-1.207730880145727e-001
1	 4.140206614073120e+000	 2.755490505432346e+000	-1.194107442176649e-001
1	 4.109803173672678e+000	 2.800634927629937e+000	-1.163738774127029e-001
1	 4.078875489403576e+000	 2.845489845985364e+000	-1.116894963262665e-001
1	 4.047427614257718e+000	 2.890046241592473e+000	-1.053942989875566e-001
1	 4.361315544325289e+000	 2.445184895008223e+000	-8.014528238297936e-002
1	 4.334534997362015e+000	 2.492349896996570e+000	-8.731319206590990e-002
1	 4.307204737825070e+000	 2.539288895563483e+000	-9.270343306313898e-002
1	 4.279327368859457e+000	 2.585992469191127e+000	-9.635789208806814e-002
1	 4.250905705594900e+000	 2.632451229304477e+000	-9.833209569631654e-002
1	 4.221942774883972e+000	 2.678655826152553e+000	-9.869517685139016e-002
1	 4.192441814846462e+000	 2.724596954701255e+000	-9.752981666152517e-002
1	 4.162406274218905e+000	 2.770265360530462e+000	-9.493216115817205e-002
1	 4.131839811508338e+000	 2.815651845727923e+000	-9.101171304846790e-002
1	 4.100746293949764e+000	 2.860747274772419e+000	-8.589119843698148e-002
1	 4.069129796267132e+000	 2.905542580398644e+000	-7.970640857561009e-002
1	 3.852099593592544e+000	 2.750573206898159e+000	-6.222393569062854e-001
1	 3.821678351209255e+000	 2.792686689510306e+000	-5.991536347954186e-001
1	 3.790770314199296e+000	 2.834499098992381e+000	-5.705962002828462e-001
1	 3.759379913927593e+000	 2.876002072770478e+000	-5.375431103289288e-001
1	 3.727511771739845e+000	 2.917187334614499e+000	-5.010078788104381e-001
1	 3.695170696876086e+000	 2.958046700001626e+000	-4.620399556823603e-001
1	 3.662361684203525e+000	 2.998572081419610e+000	-4.217231333474100e-001
1	 3.629089911770705e+000	 3.038755493602875e+000	-3.811738831317781e-001
1	 3.595360738185273e+000	 3.078589058694384e+000	-3.415396249618123e-001
1	 3.561179699818029e+000	 3.118065011326383e+000	-3.039969335244117e-001
1	 3.526552507836179e+000	 3.157175703613221e+000	-2.697496843731277e-001
1	 3.873802996353268e+000	 2.766070417360369e+000	-5.362268995830583e-001
1	 3.843210355370015e+000	 2.808421174698224e+000	-5.159930655901741e-001
1	 3.812128177074005e+000	 2.850469162607365e+000	-4.905865679787816e-001
1	 3.780560917797261e+000	 2.892205971397670e+000	-4.609605867362585e-001
1	 3.748513224922960e+000	 2.933623278209317e+000	-4.281054190619203e-001
1	 3.715989934787254e+000	 2.974712852406442e+000	-3.930469788607167e-001
1	 3.682996070399316e+000	 3.015466560910336e+000	-3.568452239710408e-001
1	 3.649536838981732e+000	 3.055876373465033e+000	-3.205925139919387e-001
1	 3.615617629333496e+000	 3.095934367828268e+000	-2.854119017700338e-001
1	 3.581244009018296e+000	 3.135632734880839e+000	-2.524553617932098e-001
1	 3.546421721381069e+000	 3.174963783647567e+000	-2.229019589162920e-001
1	 3.895506415396549e+000	 2.781567639449146e+000	-4.580096578488956e-001
1	 3.864742375684650e+000	 2.824155671690768e+000	-4.402539392235157e-001
1	 3.833486055971865e+000	 2.866439238203753e+000	-4.176757310185927e-001
1	 3.801741937557330e+000	 2.908409882181733e+000	-3.911932594875862e-001
1	 3.769514693861729e+000	 2.950059234135116e+000	-3.617611086383472e-001
1	 3.736809188317338e+000	 2.991379017314969e+000	-3.303687618128288e-001
1	 3.703630472075321e+000	 3.032361053076080e+000	-2.980390723775157e-001
1	 3.669983781532329e+000	 3.072997266172065e+000	-2.658266663133106e-001
1	 3.635874535678719e+000	 3.113279689975390e+000	-2.348162796848679e-001
1	 3.601308333271102e+000	 3.153200471615380e+000	-2.061210341527474e-001
1	 3.566290949832161e+000	 3.192751877027288e+000	-1.808806538666987e-001
1	 3.917209812741994e+000	 2.797064846045182e+000	-3.873002156735564e-001
1	 3.886274374472734e+000	 2.839890152953399e+000	-3.716860194410713e-001
1	 3.854843913517219e+000	 2.882409297834739e+000	-3.516461120553669e-001
1	 3.822922936141674e+000	 2.924613776766638e+000	-3.280519038513209e-001
1	 3.790516141804254e+000	 2.966495173629784e+000	-3.018099882906911e-001
1	 3.757628421033339e+000	 3.008045165562213e+000	-2.738607471802262e-001
1	 3.724264853122053e+000	 3.049255528352266e+000	-2.451768872203959e-001
1	 3.690430703641078e+000	 3.090118141763176e+000	-2.167619105537274e-001
1	 3.656131421772111e+000	 3.130624994782195e+000	-1.896485221670004e-001
1	 3.621372637464641e+000	 3.170768190787212e+000	-1.648969771793519e-001
1	 3.586160158419070e+000	 3.210539952623959e+000	-1.435933712179109e-001
1	 3.938913150409199e+000	 2.812562010029167e+000	-3.238175347750048e-001
1	 3.907806314053837e+000	 2.855624590951576e+000	-3.100446265129883e-001
1	 3.876201712334408e+000	 2.898379313553516e+000	-2.922849692889262e-001
1	 3.844103876484156e+000	 2.940817626796362e+000	-2.713515050485496e-001
1	 3.811517531998638e+000	 2.982931067931204e+000	-2.480907735445214e-001
1	 3.778447596502259e+000	 3.024711267983182e+000	-2.233816025483683e-001
1	 3.744899177430023e+000	 3.066149957174310e+000	-1.981337324492905e-001
1	 3.710877569526564e+000	 3.107238970277572e+000	-1.732863777463341e-001
1	 3.676388252164828e+000	 3.147970251895123e+000	-1.498067281173376e-001
1	 3.641436886487101e+000	 3.188335861653541e+000	-1.286883919180343e-001
1	 3.606029312371414e+000	 3.228327979309160e+000	-1.109497851269327e-001
1	 3.960616390417767e+000	 2.828059104281789e+000	-2.672867814701830e-001
1	 3.929338156747531e+000	 2.871358958150761e+000	-2.550904865205538e-001
1	 3.897559415047773e+000	 2.914349257413285e+000	-2.393842654563678e-001
1	 3.865284721518647e+000	 2.957021403914879e+000	-2.209111443452810e-001
1	 3.832518827692988e+000	 2.999366888277261e+000	-2.004457554242843e-001
1	 3.799266678291102e+000	 3.041377295412881e+000	-1.787931334683905e-001
1	 3.765533408889746e+000	 3.083044309977635e+000	-1.567874504321888e-001
1	 3.731324343407372e+000	 3.124359721754459e+000	-1.352906906657146e-001
1	 3.696644991408034e+000	 3.165315430960618e+000	-1.151912691724510e-001
1	 3.661501045226678e+000	 3.205903453471577e+000	-9.740259553722480e-002
1	 3.625898376918811e+000	 3.246115925954463e+000	-8.286158630463958e-002
1	 3.982319494787302e+000	 2.843556101683742e+000	-2.174391591372698e-001
1	 3.950869864873384e+000	 2.887093227016413e+000	-2.065895855273116e-001
1	 3.918916984281657e+000	 2.930319101467232e+000	-1.927405410686242e-001
1	 3.886465434179013e+000	 2.973225079766164e+000	-1.765538888365829e-001
1	 3.853519992135405e+000	 3.015802605905840e+000	-1.587207043953214e-001
1	 3.820085629966870e+000	 3.058043218686316e+000	-1.399601992981205e-001
1	 3.786167511391734e+000	 3.099938557197659e+000	-1.210185875698067e-001
1	 3.751770989502083e+000	 3.141480366233044e+000	-1.026678972253985e-001
1	 3.716901604052892e+000	 3.182660501625122e+000	-8.570472903279358e-002
1	 3.681565078571564e+000	 3.223470935498523e+000	-7.094896487501537e-002
1	 3.645767317290875e+000	 3.263903761431447e+000	-5.924242820904192e-002
1	 4.004022425537404e+000	 2.859052975115712e+000	-1.740117460785312e-001
1	 3.972401400750971e+000	 2.902827370013994e+000	-1.643130284510699e-001
1	 3.940274382660399e+000	 2.946288817768555e+000	-1.521547917334444e-001
1	 3.907645977399122e+000	 2.989428625994190e+000	-1.381066847838137e-001
1	 3.874520988573994e+000	 3.032238192054827e+000	-1.227647774027223e-001
1	 3.840904415096564e+000	 3.074709008638495e+000	-1.067506317564539e-001
1	 3.806801448826500e+000	 3.116832669269804e+000	-9.071032230829314e-002
1	 3.772217472029284e+000	 3.158600873752531e+000	-7.531340602288367e-002
1	 3.737158054650565e+000	 3.200005433535076e+000	-6.125184474729391e-002
1	 3.701628951409949e+000	 3.241038276991590e+000	-4.923888180581718e-002
1	 3.665636098717228e+000	 3.281691454611689e+000	-4.000787497361251e-002
1	 4.025725144687676e+000	 2.874549697458393e+000	-1.367473385818401e-001
1	 3.993932726699861e+000	 2.918561359608961e+000	-1.280369024610759e-001
1	 3.961631572808342e+000	 2.962258378370446e+000	-1.174323494120376e-001
1	 3.928826314112840e+000	 3.005632014242933e+000	-1.054002543721541e-001
1	 3.895521780256860e+000	 3.048673617962105e+000	-9.243042789124145e-002
1	 3.861722997247187e+000	 3.091374636104424e+000	-7.903515608964667e-002
1	 3.827435185084556e+000	 3.133726616629489e+000	-6.574839546067179e-002
1	 3.792663755207555e+000	 3.175721214352126e+000	-5.312492395193411e-002
1	 3.757414307752215e+000	 3.217350196336924e+000	-4.173944988121207e-002
1	 3.721692628630025e+000	 3.258605447207982e+000	-3.218568035940751e-002
1	 3.685504686427483e+000	 3.299478974366764e+000	-2.507535100585375e-002
1	 4.047427614257718e+000	 2.890046241592473e+000	-1.053942989875566e-001
1	 4.015463805039628e+000	 2.934295168266779e+000	-9.754214473206864e-002
1	 3.982988517349825e+000	 2.978227755326101e+000	-8.838276746311885e-002
1	 3.950006407254037e+000	 3.021835216156369e+000	-7.826899576125199e-002
1	 3.916522330432105e+000	 3.065108854865560e+000	-6.757331869543667e-002
1	 3.882541339985742e+000	 3.108040071919109e+000	-5.668731475240993e-002
1	 3.848068684056416e+000	 3.150620369712136e+000	-4.602104275116360e-002
1	 3.813109803255485e+000	 3.192841358071037e+000	-3.600239580528887e-002
1	 3.777670327908999e+000	 3.234694759677108e+000	-2.707641949726333e-002
1	 3.741756075119986e+000	 3.276172415404905e+000	-1.970459552722583e-002
1	 3.705373045651260e+000	 3.317266289568249e+000	-1.436409219400647e-002
1	 4.069129796267132e+000	 2.905542580398644e+000	-7.970640857561008e-002
1	 4.036994598089843e+000	 2.950028768452905e+000	-7.261441439406154e-002
1	 4.004345178909193e+000	 2.994196920688713e+000	-6.481970933423412e-002
1	 3.971186219756580e+000	 3.038038203378470e+000	-5.655088630718701e-002
1	 3.937522602347835e+000	 3.081543874003077e+000	-4.805223769387733e-002
1	 3.903359406879230e+000	 3.124705286917557e+000	-3.958339351082765e-002
1	 3.868701909632593e+000	 3.167513898953163e+000	-3.141892950020164e-002
1	 3.833555580391654e+000	 3.209961274948469e+000	-2.384794579417405e-002
1	 3.797926079672085e+000	 3.252039093202068e+000	-1.717361688293885e-002
1	 3.761819255768024e+000	 3.293739150839572e+000	-1.171271369352655e-002
1	 3.725241141618175e+000	 3.335053369087720e+000	-7.795098662443193e-003
1	 3.526552507836179e+000	 3.157175703613221e+000	-2.697496843731277e-001
1	 3.491490338159828e+000	 3.195907828477368e+000	-2.415067579106552e-001
1	 3.455994081322530e+000	 3.234259887315394e+000	-2.202139097672271e-001
1	 3.420069953636332e+000	 3.272224619985245e+000	-2.044475854507546e-001
1	 3.383724332540991e+000	 3.309794902772032e+000	-1.927641860950041e-001
1	 3.346963752837023e+000	 3.346963752837023e+000	-1.837026498813585e-001
1	 3.309794902772032e+000	 3.383724332540992e+000	-1.757870664439504e-001
1	 3.272224619985246e+000	 3.420069953636332e+000	-1.675293187236557e-001
1	 3.234259887315396e+000	 3.455994081322531e+000	-1.574317466637886e-001
1	 3.195907828477369e+000	 3.491490338159828e+000	-1.439898270848244e-001
1	 3.157175703613221e+000	 3.526552507836178e+000	-1.256948640373206e-001
1	 3.546421721381069e+000	 3.174963783647567e+000	-2.229019589162921e-001
1	 3.511162005309020e+000	 3.213914132076515e+000	-1.991993076660705e-001
1	 3.475465756353108e+000	 3.252482273120868e+000	-1.820890593280073e-001
1	 3.439339225849170e+000	 3.290660905733673e+000	-1.702067732052167e-001
1	 3.402788827168555e+000	 3.328442866063796e+000	-1.621684992686110e-001
1	 3.365821131929980e+000	 3.365821131929980e+000	-1.565732626816883e-001
1	 3.328442866063797e+000	 3.402788827168556e+000	-1.520055805128393e-001
1	 3.290660905733673e+000	 3.439339225849169e+000	-1.470380053034770e-001
1	 3.252482273120869e+000	 3.475465756353108e+000	-1.402336900892467e-001
1	 3.213914132076516e+000	 3.511162005309019e+000	-1.301489694169687e-001
1	 3.174963783647567e+000	 3.546421721381069e+000	-1.153359508621735e-001
1	 3.566290949832161e+000	 3.192751877027288e+000	-1.808806538666987e-001
1	 3.530833687216243e+000	 3.231920449184717e+000	-1.612772607767417e-001
1	 3.494937445991728e+000	 3.270704672597463e+000	-1.478620909297826e-001
1	 3.458608512518250e+000	 3.309097205313643e+000	-1.393423499548998e-001
1	 3.421853336098788e+000	 3.347090843345852e+000	-1.344065106582905e-001
1	 3.384678525170281e+000	 3.384678525170281e+000	-1.317266770037681e-001
1	 3.347090843345852e+000	 3.421853336098788e+000	-1.299609790696644e-001
1	 3.309097205313644e+000	 3.458608512518249e+000	-1.277559939045438e-001
1	 3.270704672597465e+000	 3.494937445991728e+000	-1.237491871355212e-001
1	 3.231920449184717e+000	 3.530833687216242e+000	-1.165713701301658e-001
1	 3.192751877027288e+000	 3.566290949832160e+000	-1.048491674761580e-001
1	 3.586160158419070e+000	 3.210539952623959e+000	-1.435933712179109e-001
1	 3.550505349456825e+000	 3.249926748291658e+000	-1.276529662997965e-001
1	 3.514409116163697e+000	 3.288927053856719e+000	-1.174528345505162e-001
1	 3.477877779923087e+000	 3.327533486462375e+000	-1.117841557735802e-001
1	 3.440917825969560e+000	 3.365738801984989e+000	-1.094203924331302e-001
1	 3.403535899558241e+000	 3.403535899558241e+000	-1.091195096509268e-001
1	 3.365738801984989e+000	 3.440917825969561e+000	-1.096262245567542e-001
1	 3.327533486462376e+000	 3.477877779923085e+000	-1.096742802195110e-001
1	 3.288927053856721e+000	 3.514409116163698e+000	-1.079887393211517e-001
1	 3.249926748291659e+000	 3.550505349456825e+000	-1.032882926854000e-001
1	 3.210539952623960e+000	 3.586160158419070e+000	-9.428757773786664e-002
1	 3.606029312371414e+000	 3.228327979309160e+000	-1.109497851269327e-001
1	 3.570176957606095e+000	 3.267932997887018e+000	-9.824073867789579e-002
1	 3.533880732794333e+000	 3.307149385010174e+000	-9.078291791833587e-002
1	 3.497146994343197e+000	 3.345969716917086e+000	-8.746360465305536e-002
1	 3.459982263418742e+000	 3.384386709347995e+000	-8.715361536961920e-002
1	 3.422393222094180e+000	 3.422393222094180e+000	-8.870935401591465e-002
1	 3.384386709347995e+000	 3.459982263418741e+000	-9.097489209943779e-002
1	 3.345969716917085e+000	 3.497146994343196e+000	-9.278407169093297e-002
1	 3.307149385010174e+000	 3.533880732794332e+000	-9.296262685434864e-002
1	 3.267932997887019e+000	 3.570176957606094e+000	-9.033031897814225e-002
1	 3.228327979309159e+000	 3.606029312371414e+000	-8.370308144992460e-002
1	 3.625898376918811e+000	 3.246115925954463e+000	-8.286158630463957e-002
1	 3.589848477239379e+000	 3.285939166460482e+000	-7.295680497001678e-002
1	 3.553352261808945e+000	 3.325371634169369e+000	-6.777571823579619e-002
1	 3.516416122058093e+000	 3.364405864414994e+000	-6.631364225007382e-002
1	 3.479046615084206e+000	 3.403034532801657e+000	-6.755091402502593e-002
1	 3.441250459778411e+000	 3.441250459778411e+000	-7.045475395765632e-002
1	 3.403034532801657e+000	 3.479046615084205e+000	-7.398115323504145e-002
1	 3.364405864414994e+000	 3.516416122058091e+000	-7.707678211218781e-002
1	 3.325371634169370e+000	 3.553352261808946e+000	-7.868091499530408e-002
1	 3.285939166460482e+000	 3.589848477239376e+000	-7.772736822048411e-002
1	 3.246115925954463e+000	 3.625898376918811e+000	-7.314644638760429e-002
1	 3.645767317290875e+000	 3.263903761431447e+000	-5.924242820904191e-002
1	 3.609519873932002e+000	 3.303945222501731e+000	-5.171925379297258e-002
1	 3.572823669132847e+000	 3.343593769445843e+000	-4.835631546920075e-002
1	 3.535685129347288e+000	 3.382841896693317e+000	-4.826870500310268e-002
1	 3.498110847603818e+000	 3.421682239712763e+000	-5.055825303987604e-002
1	 3.460107579611250e+000	 3.460107579611252e+000	-5.431517852500559e-002
1	 3.421682239712763e+000	 3.498110847603817e+000	-5.861976016956644e-002
1	 3.382841896693318e+000	 3.535685129347289e+000	-6.254402640370307e-002
1	 3.343593769445845e+000	 3.572823669132847e+000	-6.515346021264379e-002
1	 3.303945222501733e+000	 3.609519873932001e+000	-6.550871521167864e-002
1	 3.263903761431447e+000	 3.645767317290875e+000	-6.266733928980425e-002
1	 3.665636098717228e+000	 3.281691454611689e+000	-4.000787497361251e-002
1	 3.629191113259291e+000	 3.321951134500448e+000	-3.444798590937601e-002
1	 3.592294920691352e+000	 3.361815758951137e+000	-3.245144714417753e-002
1	 3.554953982490301e+000	 3.401277781489275e+000	-3.326468056745546e-002
1	 3.517174927615452e+000	 3.440329797448102e+000	-3.612279452711284e-002
1	 3.478964548593017e+000	 3.478964548593018e+000	-4.025099749568278e-002
1	 3.440329797448102e+000	 3.517174927615451e+000	-4.486603054221854e-002
1	 3.401277781489275e+000	 3.554953982490300e+000	-4.917761555792365e-002
1	 3.361815758951137e+000	 3.592294920691351e+000	-5.238991614176775e-002
1	 3.321951134500449e+000	 3.629191113259290e+000	-5.370300802007379e-002
1	 3.281691454611689e+000	 3.665636098717227e+000	-5.231435585143562e-002
1	 3.685504686427483e+000	 3.299478974366764e+000	-2.507535100585375e-002
1	 3.648862160796576e+000	 3.339956870946316e+000	-2.106466640052060e-002
1	 3.611765982409770e+000	 3.380037570796788e+000	-1.998946459121707e-002
1	 3.574222647766642e+000	 3.419713486540084e+000	-2.123886951950577e-002
1	 3.536238821756975e+000	 3.458977173374460e+000	-2.419286650733634e-002
1	 3.497821333724026e+000	 3.497821333724026e+000	-2.822345769993508e-002
1	 3.458977173374460e+000	 3.536238821756975e+000	-3.269583267882210e-002
1	 3.419713486540086e+000	 3.574222647766642e+000	-3.696955174671873e-002
1	 3.380037570796789e+000	 3.611765982409770e+000	-4.039973935249505e-002
1	 3.339956870946317e+000	 3.648862160796575e+000	-4.233828509848285e-002
1	 3.299478974366763e+000	 3.685504686427482e+000	-4.213504975453593e-002
1	 3.705373045651260e+000	 3.317266289568249e+000	-1.436409219400647e-002
1	 3.668532982119180e+000	 3.357962400329018e+000	-1.149267836526172e-002
1	 3.631236820213418e+000	 3.398259173094338e+000	-1.090029058726864e-002
1	 3.593491091455829e+000	 3.438148979582966e+000	-1.212994828281915e-002
1	 3.555302496666260e+000	 3.477624334858627e+000	-1.471793235122406e-002
1	 3.516677902004592e+000	 3.516677902004593e+000	-1.819466009974791e-002
1	 3.477624334858627e+000	 3.555302496666259e+000	-2.208557131594908e-002
1	 3.438148979582966e+000	 3.593491091455829e+000	-2.591202358520044e-002
1	 3.398259173094339e+000	 3.631236820213417e+000	-2.919219493312382e-002
1	 3.357962400329019e+000	 3.668532982119179e+000	-3.144199185404364e-002
1	 3.317266289568248e+000	 3.705373045651260e+000	-3.217596077389928e-002
1	 3.725241141618175e+000	 3.335053369087720e+000	-7.795098662443191e-003
1	 3.688203542802434e+000	 3.375967691138236e+000	-5.657078088472203e-003
1	 3.650707400027607e+000	 3.416480533955327e+000	-5.115378341779918e-003
1	 3.612759279837374e+000	 3.456584228355137e+000	-5.877933231015667e-003
1	 3.574365918981176e+000	 3.496271249267390e+000	-7.648561191906270e-003
1	 3.535534220435035e+000	 3.535534220435036e+000	-1.012753759568110e-002
1	 3.496271249267390e+000	 3.574365918981175e+000	-1.301217377836784e-002
1	 3.456584228355137e+000	 3.612759279837374e+000	-1.599740154618467e-002
1	 3.416480533955327e+000	 3.650707400027605e+000	-1.877636189770741e-002
1	 3.375967691138237e+000	 3.688203542802432e+000	-2.104099669278697e-002
1	 3.335053369087720e+000	 3.725241141618176e+000	-2.248264199145783e-002
1	 3.157175703613221e+000	 3.526552507836178e+000	-1.256948640373206e-001
1	 3.118065011326384e+000	 3.561179699818027e+000	-1.018881478215802e-001
1	 3.078589058694385e+000	 3.595360738185272e+000	-7.376594871646300e-002
1	 3.038755493602877e+000	 3.629089911770705e+000	-4.258243299230508e-002
1	 2.998572081419612e+000	 3.662361684203524e+000	-9.578709169392907e-003
1	 2.958046700001628e+000	 3.695170696876085e+000	 2.401922898586145e-002
1	 2.917187334614501e+000	 3.727511771739843e+000	 5.700252370458508e-002
1	 2.876002072770479e+000	 3.759379913927593e+000	 8.818143463202954e-002
1	 2.834499098992384e+000	 3.790770314199296e+000	 1.163872764726539e-001
1	 2.792686689510307e+000	 3.821678351209254e+000	 1.404743090529740e-001
1	 2.750573206898159e+000	 3.852099593592544e+000	 1.593215761358429e-001
1	 3.174963783647567e+000	 3.546421721381069e+000	-1.153359508621735e-001
1	 3.135632734880841e+000	 3.581244009018294e+000	-9.514451391358114e-002
1	 3.095934367828270e+000	 3.615617629333495e+000	-7.070928589099576e-002
1	 3.055876373465034e+000	 3.649536838981732e+000	-4.324168781191501e-002
1	 3.015466560910337e+000	 3.682996070399315e+000	-1.394051994080442e-002
1	 2.974712852406443e+000	 3.715989934787253e+000	 1.601004157810626e-002
1	 2.933623278209318e+000	 3.748513224922960e+000	 4.544241337039062e-002
1	 2.892205971397670e+000	 3.780560917797259e+000	 7.320753479443315e-002
1	 2.850469162607365e+000	 3.812128177074004e+000	 9.817675536807569e-002
1	 2.808421174698226e+000	 3.843210355370014e+000	 1.192436759392622e-001
1	 2.766070417360369e+000	 3.873802996353269e+000	 1.353259400215635e-001
1	 3.192751877027288e+000	 3.566290949832160e+000	-1.048491674761580e-001
1	 3.153200471615380e+000	 3.601308333271100e+000	-8.795206741706466e-002
1	 3.113279689975391e+000	 3.635874535678719e+000	-6.694501402618625e-002
1	 3.072997266172067e+000	 3.669983781532328e+000	-4.298163712932138e-002
1	 3.032361053076082e+000	 3.703630472075321e+000	-1.720331980851900e-002
1	 2.991379017314970e+000	 3.736809188317336e+000	 9.262722417991920e-003
1	 2.950059234135118e+000	 3.769514693861728e+000	 3.530532880522516e-002
1	 2.908409882181734e+000	 3.801741937557329e+000	 5.983124317067087e-002
1	 2.866439238203754e+000	 3.833486055971864e+000	 8.176692256900456e-002
1	 2.824155671690770e+000	 3.864742375684650e+000	 1.000603012836344e-001
1	 2.781567639449146e+000	 3.895506415396549e+000	 1.136825067021808e-001
1	 3.210539952623960e+000	 3.586160158419070e+000	-9.428757773786668e-002
1	 3.170768190787212e+000	 3.621372637464638e+000	-8.038542869768399e-002
1	 3.130624994782196e+000	 3.656131421772108e+000	-6.256809542013184e-002
1	 3.090118141763178e+000	 3.690430703641078e+000	-4.191663018261790e-002
1	 3.049255528352266e+000	 3.724264853122051e+000	-1.950015000536867e-002
1	 3.008045165562216e+000	 3.757628421033338e+000	 3.625972975671132e-003
1	 2.966495173629784e+000	 3.790516141804253e+000	 2.642188869605033e-002
1	 2.924613776766640e+000	 3.822922936141673e+000	 4.786501032101834e-002
1	 2.882409297834739e+000	 3.854843913517218e+000	 6.695171589615370e-002
1	 2.839890152953400e+000	 3.886274374472733e+000	 8.269900713230932e-002
1	 2.797064846045183e+000	 3.917209812741994e+000	 9.414612209663836e-002
1	 3.228327979309159e+000	 3.606029312371414e+000	-8.370308144992458e-002
1	 3.188335861653541e+000	 3.641436886487099e+000	-7.251757770864348e-002
1	 3.147970251895124e+000	 3.676388252164825e+000	-5.767140301496787e-002
1	 3.107238970277573e+000	 3.710877569526564e+000	-4.015849943207309e-002
1	 3.066149957174311e+000	 3.744899177430022e+000	-2.096112318396387e-002
1	 3.024711267983184e+000	 3.778447596502258e+000	-1.048174608734576e-003
1	 2.982931067931206e+000	 3.811517531998637e+000	 1.862644068226479e-002
1	 2.940817626796363e+000	 3.844103876484155e+000	 3.712541613116810e-002
1	 2.898379313553519e+000	 3.876201712334407e+000	 5.352961084330132e-002
1	 2.855624590951578e+000	 3.907806314053836e+000	 6.693957539134510e-002
1	 2.812562010029166e+000	 3.938913150409197e+000	 7.647703384844304e-002
1	 3.246115925954463e+000	 3.625898376918811e+000	-7.314644638760430e-002
1	 3.205903453471577e+000	 3.661501045226677e+000	-6.441989901776413e-002
1	 3.165315430960621e+000	 3.696644991408035e+000	-5.234577768833770e-002
1	 3.124359721754462e+000	 3.731324343407371e+000	-3.781662953894631e-002
1	 3.083044309977637e+000	 3.765533408889745e+000	-2.171350366313204e-002
1	 3.041377295412882e+000	 3.799266678291101e+000	-4.904448776870490e-003
1	 2.999366888277262e+000	 3.832518827692987e+000	 1.175695920362349e-002
1	 2.957021403914880e+000	 3.865284721518646e+000	 2.743305670758003e-002
1	 2.914349257413285e+000	 3.897559415047772e+000	 4.130349631101202e-002
1	 2.871358958150763e+000	 3.929338156747529e+000	 5.256661203337845e-002
1	 2.828059104281789e+000	 3.960616390417768e+000	 6.044074348443154e-002
1	 3.263903761431447e+000	 3.645767317290875e+000	-6.266733928980425e-002
1	 3.223470935498525e+000	 3.681565078571562e+000	-5.616222537572324e-002
1	 3.182660501625123e+000	 3.716901604052892e+000	-4.668008368862629e-002
1	 3.141480366233045e+000	 3.751770989502082e+000	-3.499802410938969e-002
1	 3.099938557197660e+000	 3.786167511391734e+000	-2.188178507434867e-002
1	 3.058043218686318e+000	 3.820085629966869e+000	-8.084426847281168e-003
1	 3.015802605905843e+000	 3.853519992135404e+000	 5.654946657945817e-003
1	 2.973225079766165e+000	 3.886465434179012e+000	 1.861243493749538e-002
1	 2.930319101467233e+000	 3.918916984281657e+000	 3.008055436668985e-002
1	 2.887093227016414e+000	 3.950869864873383e+000	 3.936941570421201e-002
1	 2.843556101683741e+000	 3.982319494787302e+000	 4.580786336379715e-002
1	 3.281691454611689e+000	 3.665636098717227e+000	-5.231435585143562e-002
1	 3.241038276991592e+000	 3.701628951409947e+000	-4.781287988031296e-002
1	 3.200005433535079e+000	 3.737158054650565e+000	-4.076126228374488e-002
1	 3.158600873752532e+000	 3.772217472029282e+000	-3.180737028744041e-002
1	 3.116832669269805e+000	 3.806801448826498e+000	-2.158776550589607e-002
1	 3.074709008638496e+000	 3.840904415096563e+000	-1.072662046510632e-002
1	 3.032238192054828e+000	 3.874520988573993e+000	 1.653377441628856e-004
1	 2.989428625994192e+000	 3.907645977399120e+000	 1.049185457582900e-002
1	 2.946288817768555e+000	 3.940274382660399e+000	 1.967214387958148e-002
1	 2.902827370013994e+000	 3.972401400750969e+000	 2.714185056383202e-002
1	 2.859052975115711e+000	 4.004022425537404e+000	 3.235397823729351e-002
1	 3.299478974366763e+000	 3.685504686427482e+000	-4.213504975453593e-002
1	 3.258605447207982e+000	 3.721692628630023e+000	-3.943871678922637e-002
1	 3.217350196336925e+000	 3.757414307752212e+000	-3.467438369028560e-002
1	 3.175721214352127e+000	 3.792663755207554e+000	-2.834710127755179e-002
1	 3.133726616629491e+000	 3.827435185084555e+000	-2.095062023834474e-002
1	 3.091374636104426e+000	 3.861722997247186e+000	-1.296655831274846e-002
1	 3.048673617962106e+000	 3.895521780256858e+000	-4.863593128410018e-003
1	 3.005632014242935e+000	 3.928826314112839e+000	 2.903317727056529e-003
1	 2.962258378370447e+000	 3.961631572808341e+000	 9.893687885823732e-003
1	 2.918561359608963e+000	 3.993932726699861e+000	 1.568222320350153e-002
1	 2.874549697458392e+000	 4.025725144687676e+000	 1.985951124421129e-002
1	 3.317266289568248e+000	 3.705373045651260e+000	-3.217596077389928e-002
1	 3.276172415404907e+000	 3.741756075119985e+000	-3.110516103164158e-002
1	 3.234694759677109e+000	 3.777670327908998e+000	-2.850269734700600e-002
1	 3.192841358071038e+000	 3.813109803255483e+000	-2.471745687367176e-002
1	 3.150620369712137e+000	 3.848068684056416e+000	-2.008697216094093e-002
1	 3.108040071919110e+000	 3.882541339985740e+000	-1.493686618339368e-002
1	 3.065108854865561e+000	 3.916522330432104e+000	-9.580321478634558e-003
1	 3.021835216156370e+000	 3.950006407254036e+000	-4.317574404193669e-003
1	 2.978227755326102e+000	 3.982988517349825e+000	 5.645645447884679e-004
1	 2.934295168266779e+000	 4.015463805039627e+000	 4.793163487321450e-003
1	 2.890046241592473e+000	 4.047427614257718e+000	 8.109594182059740e-003
1	 3.335053369087720e+000	 3.725241141618176e+000	-2.248264199145783e-002
1	 3.293739150839573e+000	 3.761819255768023e+000	-2.287624646676516e-002
1	 3.252039093202069e+000	 3.797926079672084e+000	-2.232768059391111e-002
1	 3.209961274948470e+000	 3.833555580391652e+000	-2.101654206864415e-002
1	 3.167513898953164e+000	 3.868701909632591e+000	-1.911095995472099e-002
1	 3.124705286917558e+000	 3.903359406879229e+000	-1.676734451497231e-002
1	 3.081543874003079e+000	 3.937522602347834e+000	-1.413015954917690e-002
1	 3.038038203378472e+000	 3.971186219756580e+000	-1.133171761478729e-002
1	 2.994196920688714e+000	 4.004345178909192e+000	-8.491998446155162e-003
1	 2.950028768452906e+000	 4.036994598089842e+000	-5.718490826954879e-003
1	 2.905542580398644e+000	 4.069129796267132e+000	-3.106058109137819e-003
1	 2.750573206898159e+000	 3.852099593592544e+000	 1.593215761358429e-001
1	 2.708167093740829e+000	 3.882029800775058e+000	 1.725530309694797e-001
1	 2.665476864481691e+000	 3.911464921384907e+000	 1.808085577326263e-001
1	 2.622511102776231e+000	 3.940401098026868e+000	 1.845261284741594e-001
1	 2.579278456895366e+000	 3.968834669728083e+000	 1.841635017579839e-001
1	 2.535787634173377e+000	 3.996762173110999e+000	 1.801973203278356e-001
1	 2.492047395438518e+000	 4.024180343380283e+000	 1.731221835852099e-001
1	 2.448066549433489e+000	 4.051086115123938e+000	 1.634496970306995e-001
1	 2.403853947232866e+000	 4.077476622929091e+000	 1.517075008532497e-001
1	 2.359418476664551e+000	 4.103349201813302e+000	 1.384382798790137e-001
1	 2.314769056742235e+000	 4.128701387472490e+000	 1.241987571118014e-001
1	 2.766070417360369e+000	 3.873802996353269e+000	 1.353259400215635e-001
1	 2.723425380745690e+000	 3.903901835557513e+000	 1.460696428382268e-001
1	 2.680494627269417e+000	 3.933502798784716e+000	 1.521369531276730e-001
1	 2.637286788948848e+000	 3.962602006906415e+000	 1.540008642515688e-001
1	 2.593810562780761e+000	 3.991195778323188e+000	 1.521498512214586e-001
1	 2.550074705158073e+000	 4.019280630144202e+000	 1.470869415964703e-001
1	 2.506088026269068e+000	 4.046853279179696e+000	 1.393287691229452e-001
1	 2.461859384486437e+000	 4.073910642746602e+000	 1.294046122327821e-001
1	 2.417397680753248e+000	 4.100449839287809e+000	 1.178554195320755e-001
1	 2.372711852972977e+000	 4.126468188805896e+000	 1.052328244196857e-001
1	 2.327810870410583e+000	 4.151963213112461e+000	 9.209815097711727e-002
1	 2.781567639449146e+000	 3.895506415396549e+000	 1.136825067021808e-001
1	 2.738683679197817e+000	 3.925773886749149e+000	 1.222932363909469e-001
1	 2.695512401323906e+000	 3.955540692718248e+000	 1.265455606421503e-001
1	 2.652062486206557e+000	 3.984802932442126e+000	 1.269285438634624e-001
1	 2.608342679568454e+000	 4.013556903694772e+000	 1.239431543452857e-001
1	 2.564361786861186e+000	 4.041799104072061e+000	 1.181013351442306e-001
1	 2.520128667633115e+000	 4.069526231989785e+000	 1.099250640580653e-001
1	 2.475652229886951e+000	 4.096735187493783e+000	 9.994540473782590e-002
1	 2.430941424434304e+000	 4.123423072882691e+000	 8.870155098245308e-002
1	 2.386005239254255e+000	 4.149587193144091e+000	 7.673986625496942e-002
1	 2.340852693863087e+000	 4.175225056205249e+000	 6.461292044676803e-002
1	 2.797064846045183e+000	 3.917209812741994e+000	 9.414612209663836e-002
1	 2.753941962396011e+000	 3.947645916074441e+000	 1.009618213621928e-001
1	 2.710530160364864e+000	 3.977578564619735e+000	 1.037630700948596e-001
1	 2.666838168692685e+000	 4.007003835782909e+000	 1.030363548372383e-001
1	 2.622874781828018e+000	 4.035918006711385e+000	 9.927720667404458e-002
1	 2.578648854281084e+000	 4.064317555487757e+000	 9.298929861363869e-002
1	 2.534169294960265e+000	 4.092199162133381e+000	 8.468353684522958e-002
1	 2.489445061498264e+000	 4.119559709423027e+000	 7.487714780888100e-002
1	 2.444485154575173e+000	 4.146396283511083e+000	 6.409276300461297e-002
1	 2.399298612245636e+000	 4.172706174370147e+000	 5.285750345044063e-002
1	 2.353894504277207e+000	 4.198486876043155e+000	 4.170206567722015e-002
1	 2.812562010029166e+000	 3.938913150409197e+000	 7.647703384844304e-002
1	 2.769200203639073e+000	 3.969517885257864e+000	 8.181918269037489e-002
1	 2.725547878111994e+000	 3.999616375923409e+000	 8.352415500865684e-002
1	 2.681613810550554e+000	 4.029204678077674e+000	 8.205750509098198e-002
1	 2.637406844129024e+000	 4.058279048241573e+000	 7.789168237949184e-002
1	 2.592935882416123e+000	 4.086835944984467e+000	 7.150518162766192e-002
1	 2.548209883680132e+000	 4.114872029933322e+000	 6.338169016521464e-002
1	 2.503237855183604e+000	 4.142384168591880e+000	 5.400923406253119e-002
1	 2.458028847474986e+000	 4.169369430970327e+000	 4.387932496906211e-002
1	 2.412591948684360e+000	 4.195825092026315e+000	 3.348610937815588e-002
1	 2.366936278830408e+000	 4.221748631918484e+000	 2.332552204368019e-002
1	 2.828059104281789e+000	 3.960616390417768e+000	 6.044074348443154e-002
1	 2.784458376225799e+000	 3.991389756023893e+000	 6.461472252239503e-002
1	 2.740565528285003e+000	 4.021654088063499e+000	 6.556930899685576e-002
1	 2.696389385923488e+000	 4.051405420475333e+000	 6.373105841948737e-002
1	 2.651938841041038e+000	 4.080639989153885e+000	 5.953197374079089e-002
1	 2.607222846264665e+000	 4.109354233155368e+000	 5.340873433007731e-002
1	 2.562250409222323e+000	 4.137544795712441e+000	 4.580192375721842e-002
1	 2.517030586806202e+000	 4.165208525057891e+000	 3.715525798513289e-002
1	 2.471572479432887e+000	 4.192342475057770e+000	 2.791481556323666e-002
1	 2.425885225307671e+000	 4.218943905654851e+000	 1.852827138879101e-002
1	 2.379977994700152e+000	 4.245010283123540e+000	 9.444135575423091e-003
1	 2.843556101683741e+000	 3.982319494787302e+000	 4.580786336379715e-002
1	 2.799716453454993e+000	 4.013261490097004e+000	 4.910330733762468e-002
1	 2.755583084603597e+000	 4.043691662474239e+000	 4.964468745110416e-002
1	 2.711164868954809e+000	 4.073606024124797e+000	 4.780177531103402e-002
1	 2.666470747133637e+000	 4.103000790316870e+000	 4.394903582617521e-002
1	 2.621509720825071e+000	 4.131872380593637e+000	 3.846496083381684e-002
1	 2.576290847016449e+000	 4.160217419793572e+000	 3.173140169615252e-002
1	 2.530823232229289e+000	 4.188032738878608e+000	 2.413290225635253e-002
1	 2.485116026748012e+000	 4.215315375570760e+000	 1.605603352802684e-002
1	 2.439178418852813e+000	 4.242062574798011e+000	 7.888731471685256e-003
1	 2.393019629063903e+000	 4.268271788950621e+000	 1.963918788824848e-005
1	 2.859052975115711e+000	 4.004022425537404e+000	 3.235397823729351e-002
1	 2.814974408625452e+000	 4.035133049201670e+000	 3.504511999876629e-002
1	 2.770600520787481e+000	 4.065729060589862e+000	 3.550195433142409e-002
1	 2.725940233787845e+000	 4.095806450174976e+000	 3.401995889448907e-002
1	 2.681002536976386e+000	 4.125361412599069e+000	 3.089923618048662e-002
1	 2.635796481095702e+000	 4.154390347892453e+000	 2.644397739276973e-002
1	 2.590331172492117e+000	 4.182889862499549e+000	 2.096192394783335e-002
1	 2.544615767316093e+000	 4.210856770111573e+000	 1.476382773688456e-002
1	 2.498659465719495e+000	 4.238288092306640e+000	 8.162911271803214e-003
1	 2.452471506057029e+000	 4.265181058998053e+000	 1.474328828088900e-003
1	 2.406061159099123e+000	 4.291533108692035e+000	-4.985370318374885e-003
1	 2.874549697458392e+000	 4.025725144687676e+000	 1.985951124421129e-002
1	 2.830232215035975e+000	 4.057004395062370e+000	 2.220551654535430e-002
1	 2.785617810556359e+000	 4.087766243844597e+000	 2.289813386761538e-002
1	 2.740715454565916e+000	 4.118006659774780e+000	 2.214130582490857e-002
1	 2.695534185138858e+000	 4.147721816869036e+000	 2.014420933142873e-002
1	 2.650083102074919e+000	 4.176908095644997e+000	 1.712087512044297e-002
1	 2.604371361078938e+000	 4.205562084153206e+000	 1.328980204212182e-002
1	 2.558408167929848e+000	 4.233680578814339e+000	 8.873566983358103e-003
1	 2.512202772646477e+000	 4.261260585062753e+000	 4.098431254361948e-003
1	 2.465764463657566e+000	 4.288299317797230e+000	-8.060557138954982e-004
1	 2.419102561983274e+000	 4.314794201640081e+000	-5.607454520548463e-003
1	 2.890046241592473e+000	 4.047427614257718e+000	 8.109594182059740e-003
1	 2.845489845985365e+000	 4.078875489403574e+000	 1.035488755349139e-002
1	 2.800634927629938e+000	 4.109803173672677e+000	 1.159546698935991e-002
1	 2.755490505432348e+000	 4.140206614073119e+000	 1.192676192395085e-002
1	 2.710065666190625e+000	 4.170081963995317e+000	 1.145071593529545e-002
1	 2.664369558761083e+000	 4.199425584444442e+000	 1.027558708636266e-002
1	 2.618411388206523e+000	 4.228234045077378e+000	 8.515738710862197e-003
1	 2.572200409933783e+000	 4.256504125044451e+000	 6.291421159253671e-003
1	 2.525745923828095e+000	 4.284232813636448e+000	 3.728545037789313e-003
1	 2.479057268391665e+000	 4.311417310737797e+000	 9.584464888436617e-004
1	 2.432143814893820e+000	 4.338055027087065e+000	-1.882354925608162e-003
1	 2.905542580398644e+000	 4.069129796267132e+000	-3.106058109137819e-003
1	 2.860747274772420e+000	 4.100746293949762e+000	-7.314761071264275e-004
1	 2.815651845727925e+000	 4.131839811508338e+000	 1.361272310057074e-003
1	 2.770265360530464e+000	 4.162406274218904e+000	 3.142382399181840e-003
1	 2.724596954701256e+000	 4.192441814846460e+000	 4.590506390535154e-003
1	 2.678655826152555e+000	 4.221942774883970e+000	 5.692759628254149e-003
1	 2.632451229304480e+000	 4.250905705594900e+000	 6.444711343943421e-003
1	 2.585992469191129e+000	 4.279327368859455e+000	 6.850360216211521e-003
1	 2.539288895563485e+000	 4.307204737825070e+000	 6.922094905602333e-003
1	 2.492349896996571e+000	 4.334534997362013e+000	 6.680639790229308e-003
1	 2.445184895008223e+000	 4.361315544325288e+000	 6.154986162140150e-003
1	 2.314769056742235e+000	 4.128701387472490e+000	 1.241987571118015e-001
1	 2.269921375286927e+000	 4.153527231960959e+000	 1.105831930227777e-001
1	 2.224877713832085e+000	 4.177828517788692e+000	 9.865860587321307e-002
1	 2.179647050109439e+000	 4.201603386542996e+000	 8.819959782355558e-002
1	 2.134238370909847e+000	 4.224850179576208e+000	 7.897094248067971e-002
1	 2.088660666674487e+000	 4.247567437359612e+000	 7.072816641279167e-002
1	 2.042922926136644e+000	 4.269753898666802e+000	 6.321813851194152e-002
1	 1.997034131020160e+000	 4.291408499589530e+000	 5.617966586142037e-002
1	 1.951003250800436e+000	 4.312530372389279e+000	 4.934409477201091e-002
1	 1.904839237533661e+000	 4.333118844188069e+000	 4.243591566153115e-002
1	 1.858551020759794e+000	 4.353173435502172e+000	 3.517337046636127e-002
1	 2.327810870410583e+000	 4.151963213112461e+000	 9.209815097711721e-002
1	 2.282710509275002e+000	 4.176928930750042e+000	 7.990834185932005e-002
1	 2.237413063954258e+000	 4.201367134271600e+000	 6.958294966803991e-002
1	 2.191927562762203e+000	 4.225275954793839e+000	 6.088456747239118e-002
1	 2.146263043122858e+000	 4.248653724323997e+000	 5.356922112389112e-002
1	 2.100428546131129e+000	 4.271498975110131e+000	 4.738692044939619e-002
1	 2.054433111164407e+000	 4.293810438819873e+000	 4.208221296230452e-002
1	 2.008285770551150e+000	 4.315587045550745e+000	 3.739473890341177e-002
1	 1.961995544302361e+000	 4.336827922675255e+000	 3.305978643975757e-002
1	 1.915571434911689e+000	 4.357532393524317e+000	 2.880884586984314e-002
1	 1.869022422229697e+000	 4.377699975912727e+000	 2.437016170679135e-002
1	 2.340852693863087e+000	 4.175225056205249e+000	 6.461292044676803e-002
1	 2.295499652857716e+000	 4.200330647096901e+000	 5.367003538409676e-002
1	 2.249948423480745e+000	 4.224905768415010e+000	 4.472888641325012e-002
1	 2.204208084628181e+000	 4.248948540805665e+000	 3.755018044535946e-002
1	 2.158287724357237e+000	 4.272457286931000e+000	 3.188986957077888e-002
1	 2.112196434416586e+000	 4.295430530815843e+000	 2.749967502622513e-002
1	 2.065943304827756e+000	 4.317866997021875e+000	 2.412761087445042e-002
1	 2.019537418523853e+000	 4.339765609652384e+000	 2.151850631311009e-002
1	 1.972987846051516e+000	 4.361125491190895e+000	 1.941452555131548e-002
1	 1.926303640341891e+000	 4.381945961177231e+000	 1.755568421700993e-002
1	 1.879493831556170e+000	 4.402226534724702e+000	 1.568036128548098e-002
1	 2.353894504277207e+000	 4.198486876043155e+000	 4.170206567722018e-002
1	 2.308288783654709e+000	 4.223732340049086e+000	 3.188483868934047e-002
1	 2.262483770475299e+000	 4.248444379026888e+000	 2.415397831194596e-002
1	 2.216488594217080e+000	 4.272621103152047e+000	 1.827830701093830e-002
1	 2.170312393570410e+000	 4.296260825741616e+000	 1.402227232899406e-002
1	 2.123964310937661e+000	 4.319362062597204e+000	 1.114644667008374e-002
1	 2.077453486984449e+000	 4.341923531174544e+000	 9.408026493206906e-003
1	 2.030789055248469e+000	 4.363944149582701e+000	 8.561329888808117e-003
1	 1.983980136811941e+000	 4.385423035416232e+000	 8.358291532828882e-003
1	 1.937035835043450e+000	 4.406359504423868e+000	 8.548954037476214e-003
1	 1.889965230414766e+000	 4.426753069017446e+000	 8.881954744331289e-003
1	 2.366936278830408e+000	 4.221748631918484e+000	 2.332552204368024e-002
1	 2.321077879285621e+000	 4.247133968654143e+000	 1.456898479961602e-002
1	 2.275019083001672e+000	 4.271982924915198e+000	 7.914552693618099e-003
1	 2.228769070038613e+000	 4.296293600406571e+000	 3.149047016562129e-003
1	 2.182337029719798e+000	 4.320064299100253e+000	 5.387759720848484e-005
1	 2.135732155101159e+000	 4.343293528574663e+000	-1.594478604505706e-003
1	 2.088963637492245e+000	 4.365979999179609e+000	-2.023997316600718e-003
1	 2.042040661035199e+000	 4.388122623029948e+000	-1.466626204371824e-003
1	 1.994972397347675e+000	 4.409720512831291e+000	-1.578045517671156e-004
1	 1.947768000235550e+000	 4.430772980541286e+000	 1.664015641944378e-003
1	 1.900436600481028e+000	 4.451279535870308e+000	 3.757846188099989e-003
1	 2.379977994700152e+000	 4.245010283123540e+000	 9.444135575423118e-003
1	 2.333866917370093e+000	 4.270535491959618e+000	 1.738384852853436e-003
1	 2.287554339123615e+000	 4.295521364887907e+000	-3.934263065715149e-003
1	 2.241049490602490e+000	 4.319965991142814e+000	-7.759220531960959e-003
1	 2.194361611762826e+000	 4.343867665351315e+000	-9.929748639301628e-003
1	 2.147499946313880e+000	 4.367224886868670e+000	-1.064649688007999e-002
1	 2.100473736208902e+000	 4.390036358938799e+000	-1.011703657536078e-002
1	 2.053292216194242e+000	 4.412300987682381e+000	-8.555389133989372e-003
1	 2.005964608422755e+000	 4.434017880916101e+000	-6.181550192439586e-003
1	 1.958500117137376e+000	 4.455186346806544e+000	-3.221010678838829e-003
1	 1.910907923430507e+000	 4.475805892362633e+000	 9.572416650560633e-005
1	 2.393019629063903e+000	 4.268271788950621e+000	 1.963918788824848e-005
1	 2.346655875527765e+000	 4.293936869013054e+000	-6.591362047637106e-003
1	 2.300089516904883e+000	 4.319059657752982e+000	-1.133850775395809e-002
1	 2.253329834418422e+000	 4.343638233934361e+000	-1.436978949658910e-002
1	 2.206386118656918e+000	 4.367670882839205e+000	-1.584487026496688e-002
1	 2.159267663982628e+000	 4.391156095599678e+000	-1.593463948886202e-002
1	 2.111983762992177e+000	 4.414092568353845e+000	-1.482075474591842e-002
1	 2.064543701035798e+000	 4.436479201228258e+000	-1.269517130310169e-002
1	 2.016956750801220e+000	 4.458315097150689e+000	-9.759660645690962e-003
1	 1.969232166968113e+000	 4.479599560496698e+000	-6.225319154695833e-003
1	 1.921379180938751e+000	 4.500332095573771e+000	-2.312068097266126e-003
1	 2.406061159099123e+000	 4.291533108692035e+000	-4.985370318374871e-003
1	 2.359444731378276e+000	 4.317338058861998e+000	-1.040495929775651e-002
1	 2.312624594409227e+000	 4.342597762318389e+000	-1.424535362143040e-002
1	 2.265610079996117e+000	 4.367310287354788e+000	-1.660758017836220e-002
1	 2.218410529359498e+000	 4.391473909908327e+000	-1.760953037624188e-002
1	 2.171035287514208e+000	 4.415087112888135e+000	-1.738552767427590e-002
1	 2.123493697699830e+000	 4.438148585326483e+000	-1.608587230325860e-002
1	 2.075795095870067e+000	 4.460657221355828e+000	-1.387636444871623e-002
1	 2.027948805247110e+000	 4.482612119015089e+000	-1.093780720488999e-002
1	 1.979964130946943e+000	 4.504012578888810e+000	-7.465490634842725e-003
1	 1.931850354681308e+000	 4.524858102583068e+000	-3.668658295033725e-003
1	 2.419102561983274e+000	 4.314794201640081e+000	-5.607454520548477e-003
1	 2.372233462541266e+000	 4.340739020553997e+000	-9.687403561944086e-003
1	 2.325159549700400e+000	 4.366135637392091e+000	-1.260307472667818e-002
1	 2.277890205845286e+000	 4.390982109977674e+000	-1.439909437605678e-002
1	 2.230434822827990e+000	 4.415276704903087e+000	-1.514350224683500e-002
1	 2.182802796315420e+000	 4.439017896854491e+000	-1.492732870487420e-002
1	 2.135003520189619e+000	 4.462204367758439e+000	-1.386413727873508e-002
1	 2.087046381007250e+000	 4.484835005753348e+000	-1.208953392852540e-002
1	 2.038940752524460e+000	 4.506908903989322e+000	-9.760644563517870e-003
1	 1.990695990293051e+000	 4.528425359259936e+000	-7.055562374703610e-003
1	 1.942321426333725e+000	 4.549383870469876e+000	-4.172766595479056e-003
1	 2.432143814893820e+000	 4.338055027087065e+000	-1.882354925608176e-003
1	 2.385022046636375e+000	 4.364139713136596e+000	-4.423975835865651e-003
1	 2.337694360842154e+000	 4.389673241782057e+000	-6.361016290611095e-003
1	 2.290170190475642e+000	 4.414653660376604e+000	-7.672371876832014e-003
1	 2.242458978019816e+000	 4.439079226167888e+000	-8.368241855450771e-003
1	 2.194570169793070e+000	 4.462948405619200e+000	-8.489713386623965e-003
1	 2.146513210319303e+000	 4.486259873551447e+000	-8.108296742563984e-003
1	 2.098297536757547e+000	 4.509012512109074e+000	-7.325413188895513e-003
1	 2.049932573397310e+000	 4.531205409553421e+000	-6.271837305035985e-003
1	 2.001427726225622e+000	 4.552837858887135e+000	-5.107095596691404e-003
1	 1.952792377571550e+000	 4.573909356313535e+000	-4.018823329138919e-003
1	 2.445184895008223e+000	 4.361315544325288e+000	 6.154986162140150e-003
1	 2.397810461283245e+000	 4.387540095657339e+000	 5.399767208426429e-003
1	 2.350229005898243e+000	 4.413210534296250e+000	 4.530434978380113e-003
1	 2.302450012396893e+000	 4.438324897125158e+000	 3.643051674162741e-003
1	 2.254482973892402e+000	 4.462881432047135e+000	 2.793158081804810e-003
1	 2.206337387353960e+000	 4.486878597302712e+000	 1.996185078222468e-003
1	 2.158022747946639e+000	 4.510315060607235e+000	 1.227930810172383e-003
1	 2.109548543431156e+000	 4.533189698111257e+000	 4.251015926373478e-004
1	 2.060924248629700e+000	 4.555501593187415e+000	-5.140855516622611e-004
1	 2.012159319963839e+000	 4.577250035047465e+000	-1.729240907289022e-003
1	 1.963263190070333e+000	 4.598434517193399e+000	-3.397082939952638e-003
1	 1.858551020759794e+000	 4.353173435502172e+000	 3.517337046636121e-002
1	 1.812140533433459e+000	 4.372696747465477e+000	 2.670193389066813e-002
1	 1.765623585772689e+000	 4.391685636628613e+000	 1.664054629067249e-002
1	 1.719009016112672e+000	 4.410140196866269e+000	 5.400955894551668e-003
1	 1.672305620595792e+000	 4.428060708201620e+000	-6.617425024928736e-003
1	 1.625522148514564e+000	 4.445447634610878e+000	-1.902794931973498e-002
1	 1.578667297757052e+000	 4.462301621696776e+000	-3.145713467252945e-002
1	 1.531749710358706e+000	 4.478623494235840e+000	-4.354503362520640e-002
1	 1.484777968164295e+000	 4.494414253604442e+000	-5.494557379185081e-002
1	 1.437760588603414e+000	 4.509675075088747e+000	-6.532686819250258e-002
1	 1.390706020582740e+000	 4.524407305083716e+000	-7.437149571696024e-002
1	 1.869022422229697e+000	 4.377699975912727e+000	 2.437016170679138e-002
1	 1.822350450101617e+000	 4.397333285629620e+000	 1.886156393000027e-002
1	 1.775571417823013e+000	 4.416429161514878e+000	 1.183620501826302e-002
1	 1.728694213525794e+000	 4.434987697972089e+000	 3.659318915626986e-003
1	 1.681727682911336e+000	 4.453009176602114e+000	-5.319859540698468e-003
1	 1.634680624567194e+000	 4.470494063995283e+000	-1.476838450367196e-002
1	 1.587561785386848e+000	 4.487443009391756e+000	-2.436985577907391e-002
1	 1.540379856096478e+000	 4.503856842214986e+000	-3.382464241343686e-002
1	 1.493143466892461e+000	 4.519736569483268e+000	-4.285007342975351e-002
1	 1.445861183193073e+000	 4.535083373104527e+000	-5.118059600749153e-002
1	 1.398541501507601e+000	 4.549898607059533e+000	-5.856790147477921e-002
1	 1.879493831556170e+000	 4.402226534724702e+000	 1.568036128548098e-002
1	 1.832560374430207e+000	 4.421969842277713e+000	 1.284394638651373e-002
1	 1.785519257337162e+000	 4.441172704965378e+000	 8.500175814607769e-003
1	 1.738379418205699e+000	 4.459835217720181e+000	 2.970103764639215e-003
1	 1.691149752296236e+000	 4.477957663720669e+000	-3.442772613365203e-003
1	 1.643839107491403e+000	 4.495540512171281e+000	-1.045270632328121e-002
1	 1.596456279690134e+000	 4.512584415949610e+000	-1.779185946676065e-002
1	 1.549010008309380e+000	 4.529090209126037e+000	-2.521042838185059e-002
1	 1.501508971897164e+000	 4.545058904360769e+000	-3.247673541006525e-002
1	 1.453961783860482e+000	 4.560491690183496e+000	-3.937728779638657e-002
1	 1.406376988311272e+000	 4.575389928160809e+000	-4.571680429424208e-002
1	 1.889965230414766e+000	 4.426753069017446e+000	 8.881954744331289e-003
1	 1.842770288552342e+000	 4.446606374296626e+000	 8.337264791896420e-003
1	 1.795467086906851e+000	 4.465916223679773e+000	 6.257350350338531e-003
1	 1.748064613203672e+000	 4.484682712628255e+000	 2.921295674796987e-003
1	 1.700571812262214e+000	 4.502906125898312e+000	-1.408847667512508e-003
1	 1.652997581260138e+000	 4.520586935308485e+000	-6.488199209501736e-003
1	 1.605350765101789e+000	 4.537725797373788e+000	-1.208915567693257e-002
1	 1.557640151894845e+000	 4.554323550811517e+000	-1.800146519056180e-002
1	 1.509874468538931e+000	 4.570381213923803e+000	-2.403227007444651e-002
1	 1.462062376429719e+000	 4.585899981862074e+000	-3.000611883184573e-002
1	 1.414212467281752e+000	 4.600881223778737e+000	-3.576494791170669e-002
1	 1.900436600481028e+000	 4.451279535870308e+000	 3.757846188099989e-003
1	 1.852980174601130e+000	 4.471242838573231e+000	 5.036598206449111e-003
1	 1.805414889123797e+000	 4.490659674357717e+000	 4.740908252313603e-003
1	 1.757749781570994e+000	 4.509530139214029e+000	 3.109978485718187e-003
1	 1.709993846320989e+000	 4.527854519476072e+000	 3.685626389388769e-004
1	 1.662156029846346e+000	 4.545633289576499e+000	-3.273159352053329e-003
1	 1.614245226056694e+000	 4.562867109667728e+000	-7.619679010356609e-003
1	 1.566270271750309e+000	 4.579556823113962e+000	-1.249022962925202e-002
1	 1.518239942178290e+000	 4.595703453859223e+000	-1.771882964435254e-002
1	 1.470162946724858e+000	 4.611308203676678e+000	-2.315429953544614e-002
1	 1.422047924707039e+000	 4.626372449304512e+000	-2.866025277987967e-002
1	 1.910907923430507e+000	 4.475805892362633e+000	 9.572416650559246e-005
1	 1.863190014709682e+000	 4.495879191994395e+000	 2.643732839457139e-003
1	 1.815362646579719e+000	 4.515403013698873e+000	 3.592090473423654e-003
1	 1.767434906358946e+000	 4.534377453995210e+000	 3.142085698716282e-003
1	 1.719415837984281e+000	 4.552802800794987e+000	 1.485181002529076e-003
1	 1.671314437222977e+000	 4.570679531144938e+000	-1.197140834630517e-003
1	 1.623139646989731e+000	 4.588008308834881e+000	-4.733509956794404e-003
1	 1.574900352773205e+000	 4.604789981875901e+000	-8.962782441363171e-003
1	 1.526605378175765e+000	 4.621025579853892e+000	-1.373413328168836e-002
1	 1.478263480569974e+000	 4.636716311163719e+000	-1.890712957061785e-002
1	 1.429883346875132e+000	 4.651863560129327e+000	-2.435178415490381e-002
1	 1.921379180938751e+000	 4.500332095573771e+000	-2.312068097266140e-003
1	 1.873399791011110e+000	 4.520515391446991e+000	 8.669797740888524e-004
1	 1.825310341866332e+000	 4.540146198402894e+000	 2.459980006272247e-003
1	 1.777119970618811e+000	 4.559224613489509e+000	 2.632159598918160e-003
1	 1.728837770763812e+000	 4.577750926196077e+000	 1.545558338383865e-003
1	 1.680472787362979e+000	 4.595725616183406e+000	-6.411937944536539e-004
1	 1.632034012335777e+000	 4.613149350878689e+000	-3.773088955999433e-003
1	 1.583530379860966e+000	 4.630022982939862e+000	-7.698943289026511e-003
1	 1.534970761891884e+000	 4.646347547594662e+000	-1.227158809712539e-002
1	 1.486363963789142e+000	 4.662124259859619e+000	-1.734805018280889e-002
1	 1.437718720074028e+000	 4.677354511644374e+000	-2.278972121750016e-002
1	 1.931850354681308e+000	 4.524858102583068e+000	-3.668658295033732e-003
1	 1.883609485638523e+000	 4.545151393817888e+000	-5.790014326524304e-004
1	 1.835257957575353e+000	 4.564889185169442e+000	 1.001289664634426e-003
1	 1.786804957401870e+000	 4.584071574214639e+000	 1.203118140945460e-003
1	 1.738259628171301e+000	 4.602698852020376e+000	 1.628346095026365e-004
1	 1.689631064239296e+000	 4.620771500861516e+000	-1.978094906021077e-003
1	 1.640928306529715e+000	 4.638290191802595e+000	-5.073423559659042e-003
1	 1.592160337911029e+000	 4.655255782148378e+000	-8.972460079001175e-003
1	 1.543336078687173e+000	 4.671669312768397e+000	-1.352040625843654e-002
1	 1.494464382206439e+000	 4.687532005300789e+000	-1.855869485278649e-002
1	 1.445554030591727e+000	 4.702845259240851e+000	-2.392532718929705e-002
1	 1.942321426333725e+000	 4.549383870469876e+000	-4.172766595479056e-003
1	 1.893819080725033e+000	 4.569787155993960e+000	-1.973373494602033e-003
1	 1.845205476298500e+000	 4.589631930698173e+000	-1.119843331579225e-003
1	 1.796489849759405e+000	 4.608918292688313e+000	-1.513970692139280e-003
1	 1.747681393718469e+000	 4.627646534608913e+000	-3.041492676624485e-003
1	 1.698789251824880e+000	 4.645817141348874e+000	-5.572570476092775e-003
1	 1.649822514006424e+000	 4.663430787610048e+000	-8.962288952256613e-003
1	 1.600790211820826e+000	 4.680488335343982e+000	-1.305117286050146e-002
1	 1.551701313922159e+000	 4.696990831061952e+000	-1.766571834468863e-002
1	 1.502564721645938e+000	 4.712939503023648e+000	-2.261893832615609e-002
1	 1.453389264716227e+000	 4.728335758309947e+000	-2.771092040713956e-002
1	 1.952792377571550e+000	 4.573909356313535e+000	-4.018823329138926e-003
1	 1.904028558403749e+000	 4.594422634862071e+000	-3.589286696077661e-003
1	 1.855152880627489e+000	 4.614374391688748e+000	-4.232056220904404e-003
1	 1.806174630742699e+000	 4.633764725428240e+000	-5.880107334589137e-003
1	 1.757103050917036e+000	 4.652593930302719e+000	-8.437792589264581e-003
1	 1.707947334092676e+000	 4.670862493815090e+000	-1.178151242473666e-002
1	 1.658716619200785e+000	 4.688571094304491e+000	-1.576042207788397e-002
1	 1.609419986487792e+000	 4.705720598369203e+000	-2.019717249681496e-002
1	 1.560066452957369e+000	 4.722312058162185e+000	-2.488868308593551e-002
1	 1.510664967931714e+000	 4.738346708564613e+000	-2.960694407950212e-002
1	 1.461224408735526e+000	 4.753825964242861e+000	-3.409984631974535e-002
1	 1.963263190070333e+000	 4.598434517193399e+000	-3.397082939952638e-003
1	 1.914237900807782e+000	 4.619057787309097e+000	-5.694038947934393e-003
1	 1.865100153154038e+000	 4.639116524840820e+000	-8.656953256805988e-003
1	 1.815859283403033e+000	 4.658610828952133e+000	-1.224857215464916e-002
1	 1.766524583278723e+000	 4.677540995442822e+000	-1.638851778668346e-002
1	 1.717105295015634e+000	 4.695907514429774e+000	-2.095418741564555e-002
1	 1.667610606547677e+000	 4.713711067889371e+000	-2.578170960957428e-002
1	 1.618049646809361e+000	 4.730952527066571e+000	-3.066695430408245e-002
1	 1.568431481153329e+000	 4.747632949755954e+000	-3.536659362215325e-002
1	 1.518765106887845e+000	 4.763753577460098e+000	-3.959921028100365e-002
1	 1.469059448937622e+000	 4.779315832430783e+000	-4.304645037259396e-002
1	 1.390706020582740e+000	 4.524407305083716e+000	-7.437149571696024e-002
1	 1.343622639825983e+000	 4.538612457056611e+000	-8.219612548774788e-002
1	 1.296518743060277e+000	 4.552292205158868e+000	-8.854402109248682e-002
1	 1.249402546410591e+000	 4.565448384531957e+000	-9.255192985537271e-002
1	 1.202282182474620e+000	 4.578082989255348e+000	-9.336203613080296e-002
1	 1.155165696837306e+000	 4.590198169078671e+000	-9.012327004784124e-002
1	 1.108061044715827e+000	 4.601796226075082e+000	-8.199257766400005e-002
1	 1.060976087736485e+000	 4.612879611221272e+000	-6.813615094351405e-002
1	 1.013918590844767e+000	 4.623450920909602e+000	-4.773061611072972e-002
1	 9.668962193495476e-001	 4.633512893397807e+000	-1.996417906487171e-002
1	 9.199165361022297e-001	 4.643068405201682e+000	 1.596227332220116e-002
1	 1.398541501507601e+000	 4.549898607059533e+000	-5.856790147477921e-002
1	 1.351192844750042e+000	 4.564183793342687e+000	-6.507214556110519e-002
1	 1.303823556392736e+000	 4.577940615537889e+000	-7.041245835142057e-002
1	 1.256441898851738e+000	 4.591170919126122e+000	-7.384204390402724e-002
1	 1.209056050545214e+000	 4.603876709421853e+000	-7.461518159405342e-002
1	 1.161674102388338e+000	 4.616060148286781e+000	-7.198844956992376e-002
1	 1.114304054419369e+000	 4.627723550764354e+000	-6.522191868106539e-002
1	 1.066953812558384e+000	 4.638869381640500e+000	-5.358031522462541e-002
1	 1.019631185499927e+000	 4.649500251936107e+000	-3.633415097529848e-002
1	 9.723438817405630e-001	 4.659618915336746e+000	-1.276081907966379e-002
1	 9.250995067421182e-001	 4.669228264565003e+000	 1.785434548574440e-002
1	 1.406376988311272e+000	 4.575389928160809e+000	-4.571680429424208e-002
1	 1.358763055353852e+000	 4.589755148814242e+000	-5.145212139985321e-002
1	 1.311128375205806e+000	 4.603589045160167e+000	-5.623533508488213e-002
1	 1.263481256574304e+000	 4.616893473019093e+000	-5.942544254112986e-002
1	 1.215829923698024e+000	 4.629670448940495e+000	-6.037933006003531e-002
1	 1.168182512822402e+000	 4.641922146898158e+000	-5.845289970846627e-002
1	 1.120547068806811e+000	 4.653650894905825e+000	-5.300217389301690e-002
1	 1.072931541865139e+000	 4.664859171558671e+000	-4.338437615851774e-002
1	 1.025343784441017e+000	 4.675549602506138e+000	-2.895898666559763e-002
1	 9.777915482187325e-001	 4.685724956861633e+000	-9.088770892766683e-003
1	 9.302824812705676e-001	 4.695388143554562e+000	 1.685921978974118e-002
1	 1.414212467281752e+000	 4.600881223778737e+000	-3.576494791170669e-002
1	 1.366333258389628e+000	 4.615326478722449e+000	-4.113480019083735e-002
1	 1.318433186716127e+000	 4.629237449142049e+000	-4.567703839442654e-002
1	 1.270520607259488e+000	 4.642616001197560e+000	-4.884587474108840e-002
1	 1.222603790078849e+000	 4.655464162673450e+000	-5.009138726510089e-002
1	 1.174690916749864e+000	 4.667784119655579e+000	-4.886053834658720e-002
1	 1.126790076952975e+000	 4.679578213127977e+000	-4.459817691620861e-002
1	 1.078909265195829e+000	 4.690848935495056e+000	-3.674802274282230e-002
1	 1.031056377671107e+000	 4.701598927034792e+000	-2.475363129638769e-002
1	 9.832392092507680e-001	 4.711830972288415e+000	-8.059337764059156e-003
1	 9.354654506175086e-001	 4.721547996392132e+000	 1.388882111542564e-002
1	 1.422047924707039e+000	 4.626372449304512e+000	-2.866025277987967e-002
1	 1.373903440609585e+000	 4.640897738318490e+000	-3.392336947402985e-002
1	 1.325737978140340e+000	 4.654885782599884e+000	-3.840935812595283e-002
1	 1.277559938588484e+000	 4.668338458648202e+000	-4.165715139979721e-002
1	 1.229377637833485e+000	 4.681257805482885e+000	-4.320067515007794e-002
1	 1.181199302781088e+000	 4.693646021301822e+000	-4.256974756611218e-002
1	 1.133033067932675e+000	 4.705505460059298e+000	-3.929096615879414e-002
1	 1.084886972089534e+000	 4.716838627968922e+000	-3.288858112518370e-002
1	 1.036768955193264e+000	 4.727648179937162e+000	-2.288535369683183e-002
1	 9.886868553033817e-001	 4.737936915933035e+000	-8.803398150129201e-003
1	 9.406484057128736e-001	 4.747707777299493e+000	 9.834993769080395e-003
1	 1.429883346875132e+000	 4.651863560129327e+000	-2.435178415490381e-002
1	 1.381473588765937e+000	 4.666468882853535e+000	-2.962533586110280e-002
1	 1.333042736695088e+000	 4.680534000650019e+000	-3.411128445389830e-002
1	 1.284599238242489e+000	 4.694060800357712e+000	-3.742287006978507e-002
1	 1.236151455107731e+000	 4.707051332230970e+000	-3.916859207531938e-002
1	 1.187707659526438e+000	 4.719507806579667e+000	-3.895297770760163e-002
1	 1.139276030820732e+000	 4.731432590328278e+000	-3.637734111951073e-002
1	 1.090864652085332e+000	 4.742828203499540e+000	-3.104053155596764e-002
1	 1.042481507010559e+000	 4.753697315628352e+000	-2.253966944647718e-002
1	 9.941344768432852e-001	 4.764042742111435e+000	-1.047086925992194e-002
1	 9.458313374865937e-001	 4.773867440498423e+000	 5.570051970254561e-003
1	 1.437718720074028e+000	 4.677354511644374e+000	-2.278972121750016e-002
1	 1.389043689610899e+000	 4.692039867578767e+000	-2.805240768382245e-002
1	 1.340347449597012e+000	 4.706182058408798e+000	-3.246881202419841e-002
1	 1.291638493902699e+000	 4.719782981312768e+000	-3.571614861458641e-002
1	 1.242925230047383e+000	 4.732844697779877e+000	-3.746828404554110e-002
1	 1.194215975596280e+000	 4.745369430231895e+000	-3.739636425965722e-002
1	 1.145518954691963e+000	 4.757359558563401e+000	-3.516943306323511e-002
1	 1.096842294722301e+000	 4.768817616606179e+000	-3.045504099254403e-002
1	 1.048194023126060e+000	 4.779746288523450e+000	-2.291984356444439e-002
1	 9.995820643371901e-001	 4.790148405139555e+000	-1.223018799185871e-002
1	 9.510142368686003e-001	 4.800026940210695e+000	 1.947312503639756e-003
1	 1.445554030591727e+000	 4.702845259240851e+000	-2.392532718929705e-002
1	 1.396613729896686e+000	 4.717610647745360e+000	-2.902038142453192e-002
1	 1.347652104062751e+000	 4.731829910992570e+000	-3.317475040943994e-002
1	 1.298677693250309e+000	 4.745504956500063e+000	-3.611936744702334e-002
1	 1.249698950798238e+000	 4.758637856991776e+000	-3.758432653053363e-002
1	 1.200724239600978e+000	 4.771230847001283e+000	-3.729935709518695e-002
1	 1.151761828621185e+000	 4.783286319393156e+000	-3.499428953280658e-002
1	 1.102819889539521e+000	 4.794806821808104e+000	-3.039951076669838e-002
1	 1.053906493542836e+000	 4.805795053037559e+000	-2.324640922573061e-002
1	 1.005029608251809e+000	 4.816253859333341e+000	-1.326780859893777e-002
1	 9.561970947888254e-001	 4.826186230658090e+000	-1.983897947995528e-004
1	 1.453389264716227e+000	 4.728335758309947e+000	-2.771092040713956e-002
1	 1.404183696375512e+000	 4.743181178604491e+000	-3.234903178728781e-002
1	 1.354956687308949e+000	 4.757477513517681e+000	-3.592854064016329e-002
1	 1.305716823966517e+000	 4.771226680906276e+000	-3.822392003040353e-002
1	 1.256472605506095e+000	 4.784430764728837e+000	-3.901241648551894e-002
1	 1.207232440150896e+000	 4.797092011630610e+000	-3.807436159291715e-002
1	 1.158004641683218e+000	 4.809212827446026e+000	-3.519347217970931e-002
1	 1.108797426076070e+000	 4.820795773624587e+000	-3.015713875188783e-002
1	 1.059618908263956e+000	 4.831843563585775e+000	-2.275670190527864e-002
1	 1.010477099053852e+000	 4.842359059008737e+000	-1.278771645625931e-002
1	 9.613799021772006e-001	 4.852345266062382e+000	-5.020307550379632e-005
1	 1.461224408735526e+000	 4.753825964242861e+000	-3.409984631974535e-002
1	 1.411753575799593e+000	 4.768751415407334e+000	-3.786200527425137e-002
1	 1.362261186552246e+000	 4.783124821100482e+000	-4.043607758631572e-002
1	 1.312755873732517e+000	 4.796948109518096e+000	-4.162997133529124e-002
1	 1.263246182316752e+000	 4.810223375853232e+000	-4.125907419176206e-002
1	 1.213740565856400e+000	 4.822952878862653e+000	-3.914639120206139e-002
1	 1.164247382952878e+000	 4.835139037350504e+000	-3.512266741819879e-002
1	 1.114774893871027e+000	 4.846784426574895e+000	-2.902649549098872e-002
1	 1.065331257292489e+000	 4.857891774583191e+000	-2.070440837594678e-002
1	 1.015924527210033e+000	 4.868463958481681e+000	-1.001095733200618e-002
1	 9.665626499636570e-001	 4.878504000645349e+000	 3.191224577843311e-003
1	 1.469059448937622e+000	 4.779315832430783e+000	-4.304645037259396e-002
1	 1.419323354921142e+000	 4.794321313405073e+000	-4.538671713762751e-002
1	 1.369565589009284e+000	 4.808771788857316e+000	-4.640953797240240e-002
1	 1.319794830229507e+000	 4.822669197322208e+000	-4.594622395750418e-002
1	 1.270019669376003e+000	 4.836015645227129e+000	-4.384135455410205e-002
1	 1.220248605327854e+000	 4.848813403440198e+000	-3.995273102675531e-002
1	 1.170490041504984e+000	 4.861064903735074e+000	-3.415130942840767e-002
1	 1.120752282463471e+000	 4.872772735178298e+000	-2.632111376799918e-002
1	 1.071043530631503e+000	 4.883939640444909e+000	-1.635913001077270e-002
1	 1.021371883187063e+000	 4.894568512068120e+000	-4.175181588235186e-003
1	 9.717453290781267e-001	 4.904662388628768e+000	 1.030821288097967e-002
1	 9.199165361022297e-001	 4.643068405201682e+000	 1.596227332220117e-002
1	 8.729940319637027e-001	 4.652119147953821e+000	 6.091787543534390e-002
1	 8.261289947556909e-001	 4.660669736692415e+000	 1.147955102670751e-001
1	 7.793286506718566e-001	 4.668723442970105e+000	 1.768994600356489e-001
1	 7.326001138314011e-001	 4.676283661565609e+000	 2.465319746320050e-001
1	 6.859503841394185e-001	 4.683353906675523e+000	 3.229943509294018e-001
1	 6.393863452817467e-001	 4.689937808080498e+000	 4.055879856727143e-001
1	 5.929147628536167e-001	 4.696039107290805e+000	 4.936154007262720e-001
1	 5.465422826212124e-001	 4.701661653676148e+000	 5.863812395589130e-001
1	 5.002754289150674e-001	 4.706809400584463e+000	 6.831932339446027e-001
1	 4.541206031540581e-001	 4.711486401454396e+000	 7.833631399557716e-001
1	 9.250995067421182e-001	 4.669228264565003e+000	 1.785434548574441e-002
1	 8.779126330095247e-001	 4.678330000784436e+000	 5.628674706081530e-002
1	 8.307835499861416e-001	 4.686928765035166e+000	 1.024634812532762e-001
1	 7.837195245792679e-001	 4.695027847302339e+000	 1.558045842829812e-001
1	 7.367277109902949e-001	 4.702630661491456e+000	 2.157306162291544e-001
1	 6.898151485630030e-001	 4.709740741598712e+000	 2.816635040179043e-001
1	 6.429887597671178e-001	 4.716361737855574e+000	 3.530273601953237e-001
1	 5.962553483164153e-001	 4.722497412852646e+000	 4.292492766431048e-001
1	 5.496215974204857e-001	 4.728151637647651e+000	 5.097600924760872e-001
1	 5.030940681690798e-001	 4.733328387862384e+000	 5.939951354430320e-001
1	 4.566791980477860e-001	 4.738031739773277e+000	 6.813949362327180e-001
1	 9.302824812705676e-001	 4.695388143554562e+000	 1.685921978974118e-002
1	 8.828312377455569e-001	 4.704540873279440e+000	 4.956824211876147e-002
1	 8.354381087086975e-001	 4.713187813078358e+000	 8.898697127864989e-002
1	 7.881104017809557e-001	 4.721332271368975e+000	 1.346309056035347e-001
1	 7.408553112459433e-001	 4.728977681183592e+000	 1.860178958335097e-001
1	 6.936799158861584e-001	 4.736127596318019e+000	 2.426688009438277e-001
1	 6.465911769552440e-001	 4.742785687454572e+000	 3.041081218359655e-001
1	 5.995959362855495e-001	 4.748955738264194e+000	 3.698646123365378e-001
1	 5.527009145301018e-001	 4.754641641492658e+000	 4.394718670183639e-001
1	 5.059127095378959e-001	 4.759847395035628e+000	 5.124688854254383e-001
1	 4.592377948612595e-001	 4.764577098007343e+000	 5.884006123497542e-001
1	 9.354654506175086e-001	 4.721547996392132e+000	 1.388882111542564e-002
1	 8.877498375643832e-001	 4.730751719571417e+000	 4.168339582011729e-002
1	 8.400926627780265e-001	 4.739446834870298e+000	 7.528210699141361e-002
1	 7.925012745930337e-001	 4.747636669138935e+000	 1.142759894501957e-001
1	 7.449829073751983e-001	 4.755324674536411e+000	 1.582595384763726e-001
1	 6.975446793456998e-001	 4.762514424658144e+000	 2.068312271720585e-001
1	 6.501935905420603e-001	 4.769209610637267e+000	 2.595940036354237e-001
1	 6.029365209151680e-001	 4.775414037225054e+000	 3.161557675918071e-001
1	 5.557802285614493e-001	 4.781131618855298e+000	 3.761298261862019e-001
1	 5.087313480891106e-001	 4.786366375697531e+000	 4.391353286974302e-001
1	 4.617963891171837e-001	 4.791122429703765e+000	 5.047976799893571e-001
1	 9.406484057128736e-001	 4.747707777299493e+000	 9.834993769080397e-003
1	 8.926684238585889e-001	 4.756962493792949e+000	 3.353296960303214e-002
1	 8.447472040487978e-001	 4.765705784459295e+000	 6.224485791940831e-002
1	 7.968921353316155e-001	 4.773940994581147e+000	 9.561766240116702e-002
1	 7.491104921549121e-001	 4.781671595444322e+000	 1.333022417316221e-001
1	 7.014094321784405e-001	 4.788901180443782e+000	 1.749537367233356e-001
1	 6.537959942235011e-001	 4.795633461163436e+000	 2.202319790809528e-001
1	 6.062770963594178e-001	 4.801872263434824e+000	 2.688018815576427e-001
1	 5.588595341259174e-001	 4.807621523379713e+000	 3.203338093144019e-001
1	 5.115499788903188e-001	 4.812885283441428e+000	 3.745039323399985e-001
1	 4.643549763382630e-001	 4.817667688409712e+000	 4.309945588364630e-001
1	 9.458313374865937e-001	 4.773867440498423e+000	 5.570051970254561e-003
1	 8.975869880207581e-001	 4.783173150076618e+000	 2.599800714382249e-002
1	 8.494017243756795e-001	 4.791964615893656e+000	 5.075158954247208e-002
1	 8.012829763128158e-001	 4.800245201664535e+000	 7.951455405327484e-002
1	 7.532380583619357e-001	 4.808018397801718e+000	 1.119741984146190e-001
1	 7.052741676211949e-001	 4.815287817499627e+000	 1.478217478925154e-001
1	 6.573983816955008e-001	 4.822057192792848e+000	 1.867527232906293e-001
1	 6.096176567724465e-001	 4.828330370593107e+000	 2.284672920797483e-001
1	 5.619388258348950e-001	 4.834111308710037e+000	 2.726706024773046e-001
1	 5.143685970091161e-001	 4.839404071860662e+000	 3.190731003515052e-001
1	 4.669135520472022e-001	 4.844212827672348e+000	 3.673908288673085e-001
1	 9.510142368686003e-001	 4.800026940210695e+000	 1.947312503639755e-003
1	 9.025055214434749e-001	 4.809383642554999e+000	 1.994037235284168e-002
1	 8.540562156133406e-001	 4.818223283221691e+000	 4.165959844518391e-002
1	 8.056737898527479e-001	 4.826549244358029e+000	 6.680662135812486e-002
1	 7.573655987731208e-001	 4.834365035503002e+000	 9.508560234613281e-002
1	 7.091388789107771e-001	 4.841674289650374e+000	 1.262036229063827e-001
1	 6.610007466539944e-001	 4.848480759285287e+000	 1.598710592564469e-001
1	 6.129581963084021e-001	 4.854788312399506e+000	 1.958019414493382e-001
1	 5.650180982997706e-001	 4.860600928490404e+000	 2.337142968946918e-001
1	 5.171871975130977e-001	 4.865922694548567e+000	 2.733304780974052e-001
1	 4.694721117667061e-001	 4.870757801038845e+000	 3.143774744666539e-001
1	 9.561970947888254e-001	 4.826186230658090e+000	-1.983897947995528e-004
1	 9.074240155193247e-001	 4.835593925360676e+000	 1.620327003259058e-002
1	 8.587106696164492e-001	 4.844481740491709e+000	 3.580763022371292e-002
1	 8.100645682675256e-001	 4.852853076630551e+000	 5.831565606121567e-002
1	 7.614931061653197e-001	 4.860711462442573e+000	 8.342913781804129e-002
1	 7.130035592840015e-001	 4.868060550720722e+000	 1.108511321248490e-001
1	 6.646030827949162e-001	 4.874904114400522e+000	 1.402863897080197e-001
1	 6.162987091214318e-001	 4.881246042553618e+000	 1.714417690776248e-001
1	 5.680973461319333e-001	 4.887090336364949e+000	 2.040266357896441e-001
1	 5.200057754698587e-001	 4.892441105098485e+000	 2.377532469511283e-001
1	 4.720306510194797e-001	 4.897302562056368e+000	 2.723371206807613e-001
1	 9.613799021772006e-001	 4.852345266062382e+000	-5.020307550379979e-005
1	 9.123424616408908e-001	 4.861803952626233e+000	 1.561174984644677e-002
1	 8.633650782396743e-001	 4.870739941752016e+000	 3.401638079172210e-002
1	 8.144553038732636e-001	 4.879156652451032e+000	 5.484577587592140e-002
1	 7.656205733153840e-001	 4.887057632514837e+000	 7.778045337035681e-002
1	 7.168682019776821e-001	 4.894446554535366e+000	 1.024999033636391e-001
1	 6.682053838142009e-001	 4.901327211898328e+000	 1.286831151346380e-001
1	 6.196391893656831e-001	 4.907703514755048e+000	 1.560090915851946e-001
1	 5.711765639427719e-001	 4.913579485977810e+000	 1.841573501302858e-001
1	 5.228243259469946e-001	 4.918959257103752e+000	 2.128084094929278e-001
1	 4.745891653282275e-001	 4.923847064272091e+000	 2.416442619002587e-001
1	 9.665626499636570e-001	 4.878504000645349e+000	 3.191224577843313e-003
1	 9.172608512007584e-001	 4.888013678484246e+000	 1.897319421882670e-002
1	 8.680194333376842e-001	 4.896997841050922e+000	 3.708898170286779e-002
1	 8.188459889860752e-001	 4.905459925788396e+000	 5.718389999741251e-002
1	 7.697479930001649e-001	 4.913403499614191e+000	 7.889862046317547e-002
1	 7.207328002286328e-001	 4.920832254918997e+000	 1.018698568919418e-001
1	 6.718076434077829e-001	 4.927750005538484e+000	 1.257310384806586e-001
1	 6.229796311953038e-001	 4.934160682703394e+000	 1.501129707745248e-001
1	 5.742557463436753e-001	 4.940068330973122e+000	 1.746444836689932e-001
1	 5.256428440121004e-001	 4.945477104157705e+000	 1.989530656181112e-001
1	 4.771476502156546e-001	 4.950391261233177e+000	 2.226654832546910e-001
1	 9.717453290781267e-001	 4.904662388628768e+000	 1.030821288097967e-002
1	 9.221791755915124e-001	 4.914223057067300e+000	 2.707779076135140e-002
1	 8.726737267651474e-001	 4.923255392436735e+000	 4.581147008131728e-002
1	 8.232366159220749e-001	 4.931762850611571e+000	 6.610020953598153e-002
1	 7.738753579965146e-001	 4.939749017635035e+000	 8.752657760250342e-002
1	 7.245973472736680e-001	 4.947217605696317e+000	 1.096656266351604e-001
1	 6.754098552715974e-001	 4.954172449080763e+000	 1.320857570073714e-001
1	 6.263200287644418e-001	 4.960617500098262e+000	 1.543495699340285e-001
1	 5.773348879460326e-001	 4.966556824995019e+000	 1.760147076751651e-001
1	 5.284613247327714e-001	 4.971994599853685e+000	 1.966346798910185e-001
1	 4.797061012044656e-001	 4.976935106486797e+000	 2.157596749884483e-001
1	 4.541206031540581e-001	 4.711486401454396e+000	 7.833631399557716e-001
1	 4.080772015327535e-001	 4.715697402914556e+000	 8.864361893733270e-001
1	 3.621583901065020e-001	 4.719445912825525e+000	 9.913044249654622e-001
1	 3.163702891928225e-001	 4.722736264607184e+000	 1.096354184134956e+000
1	 2.707188886346127e-001	 4.725572876349514e+000	 1.199980397929655e+000
1	 2.252100469680970e-001	 4.727960246918568e+000	 1.300588822450570e+000
1	 1.798494907136974e-001	 4.729902952083058e+000	 1.396598189923068e+000
1	 1.346428137874790e-001	 4.731405640665302e+000	 1.486442278085347e+000
1	 8.959547703070339e-002	 4.732473030720187e+000	 1.568571896771461e+000
1	 4.471280785492915e-002	 4.733109905745613e+000	 1.641456790783836e+000
1	 0.000000000000000e+000	 4.733321110927781e+000	 1.703587458361663e+000
1	 4.566791980477860e-001	 4.738031739773277e+000	 6.813949362327180e-001
1	 4.103763798492342e-001	 4.742266466752271e+000	 7.715474310744824e-001
1	 3.641988538086734e-001	 4.746036096423838e+000	 8.634755868133540e-001
1	 3.181527747266120e-001	 4.749344986623094e+000	 9.558214208079912e-001
1	 2.722441661938205e-001	 4.752197580332298e+000	 1.047234712027499e+000
1	 2.264789197545892e-001	 4.754598401764884e+000	 1.136374878375428e+000
1	 1.808627941936064e-001	 4.756552052470238e+000	 1.221912785355780e+000
1	 1.354014149440857e-001	 4.758063207462942e+000	 1.302532484984154e+000
1	 9.010027361467005e-002	 4.759136611380218e+000	 1.376932884035863e+000
1	 4.496472763253237e-002	 4.759777074671015e+000	 1.443829340907251e+000
1	 0.000000000000000e+000	 4.759989469820151e+000	 1.501955190545030e+000
1	 4.592377948612595e-001	 4.764577098007343e+000	 5.884006123497542e-001
1	 4.126755598908816e-001	 4.768835550523108e+000	 6.668850137391840e-001
1	 3.662393190419614e-001	 4.772626299971281e+000	 7.470780572915355e-001
1	 3.199352615980169e-001	 4.775953728602225e+000	 8.278752824149981e-001
1	 2.737694448977094e-001	 4.778822304290480e+000	 9.081788963164261e-001
1	 2.277477934934148e-001	 4.781236576596879e+000	 9.868993031232500e-001
1	 1.818760984341048e-001	 4.783201172851484e+000	 1.062956576329244e+000
1	 1.361600166701595e-001	 4.784720794261155e+000	 1.135281873695395e+000
1	 9.060507057762055e-002	 4.785800212045455e+000	 1.202818793892318e+000
1	 4.521664759929164e-002	 4.786444263604397e+000	 1.264524674320827e+000
1	 0.000000000000000e+000	 4.786657848721423e+000	 1.319371829694307e+000
1	 4.617963891171837e-001	 4.791122429703765e+000	 5.047976799893571e-001
1	 4.149747376344187e-001	 4.795404607732642e+000	 5.727553793524797e-001
1	 3.682797822358820e-001	 4.799216476936393e+000	 6.423024159337450e-001
1	 3.217177466880528e-001	 4.802562443980587e+000	 7.125857047656576e-001
1	 2.752947220774370e-001	 4.805447001632019e+000	 7.827574766177695e-001
1	 2.290166659644504e-001	 4.807874724798890e+000	 8.519764647116205e-001
1	 1.828894016623039e-001	 4.809850266591901e+000	 9.194090470421487e-001
1	 1.369186176385007e-001	 4.811378354410160e+000	 9.842303436451231e-001
1	 9.110986703643810e-002	 4.812463786055542e+000	 1.045625268270810e+000
1	 4.546856731450907e-002	 4.813111425879084e+000	 1.102789534041425e+000
1	 0.000000000000000e+000	 4.813326200962827e+000	 1.154930612784027e+000
1	 4.643549763382630e-001	 4.817667688409712e+000	 4.309945588364632e-001
1	 4.172739090565695e-001	 4.821973591886458e+000	 4.894583331798700e-001
1	 3.703202398199511e-001	 4.825806580787716e+000	 5.493351655005441e-001
1	 3.235002268777351e-001	 4.829171086194194e+000	 6.100212113060504e-001
1	 2.768199950641603e-001	 4.832071625764875e+000	 6.709163349761497e-001
1	 2.302855349475726e-001	 4.834512799755250e+000	 7.314249597806463e-001
1	 1.839027021053153e-001	 4.836499287056594e+000	 7.909568860856059e-001
1	 1.376772165219094e-001	 4.838035841260179e+000	 8.489280772754902e-001
1	 9.161466210800583e-002	 4.839127286750117e+000	 9.047614130053955e-001
1	 4.572048633748675e-002	 4.839778514828407e+000	 9.578874094815850e-001
1	 0.000000000000000e+000	 4.839994479875598e+000	 1.007744906550498e+000
1	 4.669135520472022e-001	 4.844212827672348e+000	 3.673908288673085e-001
1	 4.195730701340568e-001	 4.848542456490133e+000	 4.172872290335394e-001
1	 3.723606882236845e-001	 4.852396564993790e+000	 4.683588473316557e-001
1	 3.252826990480796e-001	 4.855779608679062e+000	 5.202489556716465e-001
1	 2.783452611890366e-001	 4.858696130097009e+000	 5.726026765355011e-001
1	 2.315543982226583e-001	 4.861150754850295e+000	 6.250675019246159e-001
1	 1.849159979902502e-001	 4.863148187610658e+000	 6.772937933749254e-001
1	 1.384358119931858e-001	 4.864693208161427e+000	 7.289352627354134e-001
1	 9.211945490920699e-002	 4.865790667468827e+000	 7.796494334581858e-001
1	 4.597240422752683e-002	 4.866445483785694e+000	 8.290980821993041e-001
1	 0.000000000000000e+000	 4.866662638790970e+000	 8.769476605793043e-001
1	 4.694721117667061e-001	 4.870757801038845e+000	 3.143774744666539e-001
1	 4.218722168436042e-001	 4.875111155049245e+000	 3.565291485388333e-001
1	 3.744011238765984e-001	 4.878986383023155e+000	 3.995521529640483e-001
1	 3.270651600801019e-001	 4.882387964871204e+000	 4.433347628649738e-001
1	 2.798705177832233e-001	 4.885320468036373e+000	 4.877649974920642e-001
1	 2.328232535695840e-001	 4.887788543468357e+000	 5.327308136456748e-001
1	 1.859292875442203e-001	 4.889796921619201e+000	 5.781202933410895e-001
1	 1.391944027251300e-001	 4.891350408464121e+000	 6.238218255603887e-001
1	 9.262424455692471e-002	 4.892453881551311e+000	 6.697242819536883e-001
1	 4.622432054393138e-002	 4.893112286084270e+000	 7.157171863703027e-001
1	 0.000000000000000e+000	 4.893330631040176e+000	 7.616908781179459e-001
1	 4.720306510194797e-001	 4.897302562056368e+000	 2.723371206807614e-001
1	 4.241713451619351e-001	 4.901679641069377e+000	 3.074650746266622e-001
1	 3.764415432082082e-001	 4.905575988344354e+000	 3.430900321563080e-001
1	 3.288476068548179e-001	 4.908996108206632e+000	 3.793431691099335e-001
1	 2.813957621778775e-001	 4.911944592990930e+000	 4.163530540839960e-001
1	 2.340920987682267e-001	 4.914426118993778e+000	 4.542455217935253e-001
1	 1.869425689943367e-001	 4.916445442447324e+000	 4.931435541466008e-001
1	 1.399529873905422e-001	 4.918007395518488e+000	 5.331671690037835e-001
1	 9.312903016804217e-002	 4.919116882337213e+000	 5.744333165797604e-001
1	 4.647623484600252e-002	 4.919778875057468e+000	 6.170557834295068e-001
1	 0.000000000000000e+000	 4.919998409954449e+000	 6.611451039472113e-001
1	 4.745891653282275e-001	 4.923847064272091e+000	 2.416442619002588e-001
1	 4.264704510657726e-001	 4.928247868056106e+000	 2.703700594679050e-001
1	 3.784819426480304e-001	 4.932165334425927e+000	 2.991437974538173e-001
1	 3.306300362532432e-001	 4.935603992121361e+000	 3.283374604322687e-001
1	 2.829209917041566e-001	 4.938568458368637e+000	 3.583178325789326e-001
1	 2.353609315984630e-001	 4.941063434810887e+000	 3.894460563609061e-001
1	 1.879558405677110e-001	 4.943093703460129e+000	 4.220772127006821e-001
1	 1.407115646622226e-001	 4.944664122674740e+000	 4.565599226963008e-001
1	 9.363381085944257e-002	 4.945779623166172e+000	 4.932359709302497e-001
1	 4.672814669304236e-002	 4.946445204038611e+000	 5.324399503520864e-001
1	 0.000000000000000e+000	 4.946665928865022e+000	 5.744989286735912e-001
1	 4.771476502156546e-001	 4.950391261233177e+000	 2.226654832546910e-001
1	 4.287695305318403e-001	 4.954815789515013e+000	 2.455133870566662e-001
1	 3.805223186255805e-001	 4.958754374736414e+000	 2.678812254235674e-001
1	 3.324124451563934e-001	 4.962211570051403e+000	 2.903797100138570e-001
1	 2.844462036932180e-001	 4.965192017577452e+000	 3.136115202225859e-001
1	 2.366297498401695e-001	 4.967700444304020e+000	 3.381705525102161e-001
1	 1.889691004914545e-001	 4.969741658022721e+000	 3.646412052582245e-001
1	 1.414701332129713e-001	 4.971320543283099e+000	 3.935976993238056e-001
1	 9.413858574800907e-002	 4.972442057377833e+000	 4.256034343824726e-001
1	 4.698005564435299e-002	 4.973111226361030e+000	 4.612103810668063e-001
1	 0.000000000000000e+000	 4.973333141103128e+000	 5.009585088321035e-001
1	 4.797061012044656e-001	 4.976935106486797e+000	 2.157596749884483e-001
1	 4.310685795368616e-001	 4.981383358951680e+000	 2.331587306405431e-001
1	 3.825626675703746e-001	 4.985343062744359e+000	 2.494666546819351e-001
1	 3.341948304452843e-001	 4.988818795432774e+000	 2.655308143661896e-001
1	 2.859713954762189e-001	 4.991815224025334e+000	 2.821874771129172e-001
1	 2.378985512732232e-001	 4.994337100857515e+000	 3.002607557118571e-001
1	 1.899823469926789e-001	 4.996389259500201e+000	 3.205616033960053e-001
1	 1.422286917155884e-001	 4.997976610693784e+000	 3.438868590271639e-001
1	 9.464335395062488e-002	 4.999104138311836e+000	 3.710183425198226e-001
1	 4.723196125923654e-002	 4.999776895358053e+000	 4.027220005159944e-001
1	 0.000000000000000e+000	 5.000000000000000e+000	 4.397471022146594e-001
