label=Stress xy
num_items=4050

0:-4.6788017549468331e-003
1:-2.1689376396997185e-002
2:-3.6446420597541267e-002
3:-2.0904114391345301e-002
4:8.3849496428610240e-003
5:3.9610854473952810e-003
6:1.0404792544204596e-002
7:5.1014231877662679e-002
8:2.6955851283282078e-002
9:7.6415697608211326e-003
10:9.1949101849806911e-003
11:4.9327921236121605e-002
12:8.1798732198428703e-003
13:-6.3097873696169815e-002
14:-7.3117395184355338e-002
15:-1.5980756280210253e-002
16:2.1680187625588279e-004
17:1.0664667283743139e-002
18:-6.4969102681856364e-002
19:-2.1034392821477721e-001
20:8.2073226206846442e-002
21:-5.1941371493359020e-002
22:-7.3635963958655437e-001
23:-1.7345011103240073e+000
24:7.3989177729903002e-002
25:-1.8052337716379085e-001
26:-1.2901231145449583e+000
27:-2.8530367238097445e+000
28:1.9788893957711457e-002
29:-2.4611184553712145e-001
30:-1.4270977306066035e+000
31:-3.0753939172338636e+000
32:-3.2068797963090473e-001
33:-6.5059650027969673e-001
34:-1.9612271041551135e+000
35:-4.2330762686530354e+000
36:-2.4393314962767003e+000
37:-3.7915944995035109e+000
38:-5.7546473634327100e+000
39:-7.6052083493876710e+000
40:-3.9418548241719313e+000
41:-5.9056194654177698e+000
42:-8.0780188721404684e+000
43:-9.3371382118937696e+000
44:-4.2123651097932795e+000
45:-6.1767080512348764e+000
46:-8.0889632251292642e+000
47:-8.8865932158836767e+000
48:-6.0660464884446270e+000
49:-1.0306451173404440e+001
50:-1.5227054079599386e+001
51:-1.6563146761536306e+001
52:-8.7661973335602230e+000
53:-1.0981636422036734e+001
54:-1.2727369269952659e+001
55:-1.2102938060738110e+001
56:-9.8262736535163526e+000
57:-1.0205698034274949e+001
58:-9.2596687240389439e+000
59:-7.1005636708534059e+000
60:-9.0197274302637318e+000
61:-8.5953520976138869e+000
62:-6.6446401666996158e+000
63:-4.0261114465955217e+000
64:-1.5830369100861116e+001
65:-1.1941649616741543e+001
66:-4.5053940728145374e+000
67:6.9785780734460923e-001
68:-1.0775581119102544e+001
69:-6.9428648585914763e+000
70:-9.3487689836396637e-001
71:3.0536769989180654e+000
72:-5.3835720834215151e+000
73:-1.8716630927472853e+000
74:2.5071626132505993e+000
75:5.1423760750239600e+000
76:-2.2618229627302315e+000
77:9.0088669513175490e-001
78:4.3264217711620754e+000
79:6.1927163545141202e+000
80:2.5994836822622873e+000
81:4.1989650896264887e+000
82:3.6349775676371743e+000
83:2.2858029735160370e+000
84:4.5380810147010306e+000
85:5.8384819145848583e+000
86:5.3086379496077027e+000
87:3.8427280415199982e+000
88:6.1161008945305877e+000
89:6.9612258465594348e+000
90:6.3760448769514682e+000
91:4.8700606985034041e+000
92:6.8481162006908898e+000
93:7.3461795855181418e+000
94:6.6298824492803465e+000
95:5.1088359975774802e+000
96:1.5852914401677225e+000
97:6.7635897141033541e-001
98:1.2820909333584166e-001
99:2.1234157224662060e-002
100:2.9089916491629495e+000
101:1.5181733510252573e+000
102:4.4357776954866779e-001
103:1.1695195203042230e-001
104:3.8055096224600344e+000
105:2.1196087314551231e+000
106:6.9921336329649852e-001
107:2.1933517672756539e-001
108:4.0208011342119248e+000
109:2.2767290454114693e+000
110:7.8385882678569052e-001
111:2.7090476129182600e-001
112:1.9092954731857105e-002
113:1.8350498647004134e-002
114:1.3396124368447627e-002
115:8.9302813794415112e-003
116:8.5871032633629191e-002
117:6.2707141147640783e-002
118:4.9131361279930140e-002
119:4.4623597617605641e-002
120:1.6487008576486123e-001
121:1.1973154459725222e-001
122:9.3428610746634957e-002
123:8.6260185316374569e-002
124:2.1130451226250591e-001
125:1.5917558502953513e-001
126:1.2526011727144010e-001
127:1.1480301087338490e-001
128:7.0710138289838695e-003
129:5.5481000034610720e-003
130:6.0908941044904505e-003
131:7.0975920487468232e-003
132:4.2337615467526582e-002
133:3.8291223902698651e-002
134:3.3998147673152422e-002
135:3.1658122311429407e-002
136:8.3430128406299917e-002
137:7.7244502467999507e-002
138:6.8690745122232735e-002
139:6.2970018017758908e-002
140:1.1139847266378365e-001
141:1.0413368030584973e-001
142:9.3660695057399421e-002
143:8.6084604929004216e-002
144:7.4246810810382081e-003
145:7.2195764796329220e-003
146:5.9568257235833805e-003
147:4.8313571094289005e-003
148:3.0763281230496153e-002
149:2.9024852635997973e-002
150:2.6503731640910341e-002
151:2.4396761060704437e-002
152:6.0538893186217121e-002
153:5.6594184103867365e-002
154:5.2039941477743691e-002
155:4.8574318542688739e-002
156:8.2558541174809333e-002
157:7.6836144274728638e-002
158:7.0496407000671404e-002
159:6.5970067098032867e-002
160:4.3640150002954665e-003
161:3.9269471654953675e-003
162:3.9133360281159209e-003
163:4.0277288923511326e-003
164:2.3241111548370955e-002
165:2.1407564991677328e-002
166:1.9635350985848388e-002
167:1.8640648299156744e-002
168:4.6636591654088073e-002
169:4.3261372418399280e-002
170:3.9521367559203789e-002
171:3.7205298625024398e-002
172:6.3537981802974666e-002
173:5.9216817456442937e-002
174:5.4227498867770993e-002
175:5.0987241130769051e-002
176:4.0388716811595561e-003
177:3.8667841452381139e-003
178:3.4077732676500096e-003
179:3.0193881529958213e-003
180:1.8192638647376524e-002
181:1.7256043887064716e-002
182:1.5861185081298506e-002
183:1.4718166546647484e-002
184:3.6159276898393530e-002
185:3.4207381531497480e-002
186:3.1582408943717805e-002
187:2.9484648800196741e-002
188:4.9475367763031512e-002
189:4.6724041461013971e-002
190:4.3158368655087619e-002
191:4.0373241823556540e-002
192:2.8437547857322098e-003
193:2.6134251361641068e-003
194:2.4314071698828890e-003
195:2.3087432291629081e-003
196:1.4105798381161033e-002
197:1.3047902758728920e-002
198:1.1804500251369658e-002
199:1.0900082309420554e-002
200:2.8336842361998519e-002
201:2.6261419155761655e-002
202:2.3697972505745669e-002
203:2.1807676987356066e-002
204:3.8857191740902491e-002
205:3.6072450189867850e-002
206:3.2560428716492347e-002
207:2.9938501378402257e-002
208:2.2262199529927752e-003
209:2.0137823306471377e-003
210:1.6599003025443667e-003
211:1.3660279395995810e-003
212:1.0414110704634124e-002
213:9.4088656729750496e-003
214:7.9185364432799651e-003
215:6.6577368425417551e-003
216:2.0807662177377569e-002
217:1.8789760191757685e-002
218:1.5843585688682139e-002
219:1.3340013402784907e-002
220:2.8549134726339211e-002
221:2.5769107761203246e-002
222:2.1739630160576284e-002
223:1.8318833847415679e-002
224:1.2118425671033951e-003
225:9.2082688700798445e-004
226:4.9924456525203141e-004
227:1.1027303974928204e-004
228:5.9480376572736268e-003
229:4.5170367334613467e-003
230:2.4056026967413813e-003
231:5.5933809765396439e-004
232:1.1915233084942013e-002
233:9.0248643866420800e-003
234:4.7701555406193643e-003
235:1.0922644781178688e-003
236:1.6367960842506073e-002
237:1.2400580391997576e-002
238:6.5595104577779451e-003
239:1.5252672202863997e-003
240:-1.8989393430941817e-002
241:-1.2343296408468940e-001
242:-1.2703634874104094e-001
243:-3.8652542854147355e-002
244:-6.5402886302871454e-003
245:8.4178226205289988e-002
246:3.0985938460287776e-001
247:5.5241766194096031e-001
248:2.4463985391237592e-001
249:1.2716488922238276e+000
250:2.2997581277139698e+000
251:2.8774739998896544e+000
252:7.0156845422046665e-001
253:3.0827487370271509e+000
254:5.1474200331520858e+000
255:6.0255154222847640e+000
256:1.8443007320418515e-002
257:-2.1734654593025865e-001
258:-1.3610995363842309e+000
259:-2.9628559309100173e+000
260:6.8136159656417961e-001
261:5.3430866101673635e-001
262:-5.3943366005345639e-001
263:-2.0753130607392878e+000
264:3.0995977780605597e+000
265:3.0170207010182772e+000
266:1.9036789638651086e+000
267:3.2225039149894680e-001
268:6.2598067288484813e+000
269:6.0872703442127838e+000
270:4.7455938488730558e+000
271:2.9788787950048765e+000
272:-4.0612607803734866e+000
273:-5.9005114910058571e+000
274:-7.5635437421987621e+000
275:-8.1251191623963877e+000
276:-3.1181222261472095e+000
277:-4.7771252736232075e+000
278:-6.0913886510061097e+000
279:-6.3373309022903728e+000
280:-7.2602293675879370e-001
281:-2.3428830273811045e+000
282:-3.5296618529463619e+000
283:-3.6509992643979632e+000
284:1.8485794843776644e+000
285:8.7676120130919077e-002
286:-1.2808558102731076e+000
287:-1.5419652867907769e+000
288:-8.1240900350083383e+000
289:-7.4708625526034664e+000
290:-5.3251285109731077e+000
291:-2.6852245091224205e+000
292:-6.1661038104156116e+000
293:-5.2723109858087547e+000
294:-3.0398753406445551e+000
295:-5.6168423975789483e-001
296:-3.4180745503109664e+000
297:-2.5300729761881739e+000
298:-5.9507055579824331e-001
299:1.4052156520765966e+000
300:-1.3895145896013203e+000
301:-7.3849350630481236e-001
302:7.1564411142573514e-001
303:2.2272909748800549e+000
304:-9.6981095356247815e-001
305:1.9914231969026774e+000
306:5.0346124927480496e+000
307:6.6041722919704489e+000
308:9.7327817353289592e-001
309:3.4806918528282922e+000
310:5.8388710380851538e+000
311:6.9236804977428577e+000
312:2.5965443550395788e+000
313:4.4420778092558253e+000
314:6.0056354484428844e+000
315:6.6006291832254762e+000
316:3.1265781665888213e+000
317:4.4984973473826608e+000
318:5.6068753215150275e+000
319:5.9680095330610365e+000
320:7.1275511800962708e+000
321:7.4576492883997876e+000
322:6.6436492364678328e+000
323:5.1053077405361629e+000
324:7.2379563104028239e+000
325:7.3103443151088285e+000
326:6.3816093983376865e+000
327:4.8811192415613869e+000
328:6.7172993764842213e+000
329:6.5690519039679218e+000
330:5.6210907367634695e+000
331:4.2839082863938174e+000
332:5.9985043288732314e+000
333:5.7695869927262340e+000
334:4.8789560947528168e+000
335:3.7116068076867417e+000
336:4.0175262994088383e+000
337:2.2779010084944189e+000
338:7.9390283156943375e-001
339:2.8687611714542144e-001
340:3.8421767181528699e+000
341:2.1880726212303636e+000
342:7.8516664935185654e-001
343:3.0934803005169709e-001
344:3.3802737872295960e+000
345:1.9474398466998077e+000
346:7.3668897775611575e-001
347:3.2631094001598648e-001
348:2.9374861342127532e+000
349:1.7132383387035262e+000
350:6.8008694878414522e-001
351:3.2891838391981398e-001
352:2.2914044056442123e-001
353:1.7756996942247846e-001
354:1.4120693795549707e-001
355:1.2885533752263989e-001
356:2.5596969329089631e-001
357:2.0595050158124659e-001
358:1.6648565089670328e-001
359:1.5175385817879886e-001
360:2.7903677984005681e-001
361:2.3160817795884203e-001
362:1.9112917669746873e-001
363:1.7540881306298522e-001
364:2.8703744632724498e-001
365:2.4327547603489930e-001
366:2.0487817474578984e-001
367:1.8959510138969229e-001
368:1.2507946394749944e-001
369:1.1737500651359799e-001
370:1.0627977187739313e-001
371:9.7949587717497330e-002
372:1.4774709468917868e-001
373:1.3985763377450203e-001
374:1.2805825397743284e-001
375:1.1842877582692622e-001
376:1.7162982124326379e-001
377:1.6411661975283134e-001
378:1.5191253308226066e-001
379:1.4095073770467931e-001
380:1.8591095926490411e-001
381:1.7846844743100920e-001
382:1.6602173818248708e-001
383:1.5450768569887310e-001
384:9.3873799624728152e-002
385:8.7193014797592033e-002
386:7.9854493587543499e-002
387:7.4779439574953005e-002
388:1.1332008696690329e-001
389:1.0487880579321020e-001
390:9.5831871772812799e-002
391:8.9949274765377285e-002
392:1.3472838041684310e-001
393:1.2443397951028114e-001
394:1.1370491182777792e-001
395:1.0714569314324431e-001
396:1.4784879602210166e-001
397:1.3681474852683861e-001
398:1.2537828229706879e-001
399:1.1849835875435073e-001
400:7.2130555822084746e-002
401:6.7399881159617481e-002
402:6.1840581244769981e-002
403:5.8136550205398319e-002
404:8.7041735115545360e-002
405:8.1776167959455803e-002
406:7.5339278346907762e-002
407:7.0821444308754894e-002
408:1.0408130543380592e-001
409:9.8413037299195608e-002
410:9.1129860796451523e-002
411:8.5712824668802340e-002
412:1.1533710378307747e-001
413:1.0942240878873295e-001
414:1.0164395169127560e-001
415:9.5710468274937149e-002
416:5.6371237407193464e-002
417:5.3184595036056943e-002
418:4.9122479774042223e-002
419:4.5994497175138163e-002
420:6.8580777010498126e-002
421:6.4585367016943562e-002
422:5.9637313287917319e-002
423:5.5934104495311235e-002
424:8.2916672543926526e-002
425:7.7978012102951022e-002
426:7.2019769882901249e-002
427:6.7688494650935807e-002
428:9.2596612650028540e-002
429:8.7106280457046173e-002
430:8.0531803739151878e-002
431:7.5798564512840755e-002
432:4.4302517952713422e-002
433:4.1172751141286115e-002
434:3.7182893981357344e-002
435:3.4179656769213224e-002
436:5.3960078782247504e-002
437:5.0262692184480741e-002
438:4.5450371956153590e-002
439:4.1763115603116338e-002
440:6.5417680406771539e-002
441:6.1104950733409220e-002
442:5.5356848784136069e-002
443:5.0857483019756615e-002
444:7.3331713581723440e-002
445:6.8611186818547776e-002
446:6.2239519230094284e-002
447:5.7193713609645057e-002
448:3.2583290538560808e-002
449:2.9401684977399003e-002
450:2.4810323514520363e-002
451:2.0919742378823394e-002
452:3.9786537734448915e-002
453:3.5871028677241699e-002
454:3.0265938190963008e-002
455:2.5538727837529016e-002
456:4.8418456954132862e-002
457:4.3610710557270956e-002
458:3.6781996044956314e-002
459:3.1054640898108058e-002
460:5.4440915871389578e-002
461:4.9022354946345159e-002
462:4.1348097123618970e-002
463:3.4926428300630218e-002
464:1.8700824328027794e-002
465:1.4180612493111202e-002
466:7.5174194579803568e-003
467:1.7757254769032108e-003
468:2.2845642340994642e-002
469:1.7339492890889353e-002
470:9.1924834642348012e-003
471:2.1615778210609844e-003
472:2.7798003766680606e-002
473:2.1110806307072297e-002
474:1.1165214676011996e-002
475:2.5560864294655507e-003
476:3.1278227271668256e-002
477:2.3769217870998692e-002
478:1.2568449609598520e-002
479:2.8542710047104311e-003
480:1.0584443813723095e+000
481:4.3950594600138322e+000
482:7.1503429996430485e+000
483:8.1772049218647727e+000
484:2.0455889080942380e+000
485:7.0373650100463303e+000
486:1.0863903327942554e+001
487:1.1958072687739183e+001
488:4.9130846476648191e+000
489:1.0982947913973245e+001
490:1.5158790039510958e+001
491:1.5799866114564667e+001
492:9.2084120931060980e+000
493:1.4626352539881280e+001
494:1.7788192039005406e+001
495:1.7583751384685581e+001
496:8.3768957073002284e+000
497:8.0759000982091234e+000
498:6.5172854994302298e+000
499:4.5902093637664008e+000
500:1.1968946666112890e+001
501:1.1252680703855072e+001
502:9.1794812453892458e+000
503:6.9505387294170768e+000
504:1.5363194875185213e+001
505:1.3856884537914853e+001
506:1.1010295353323814e+001
507:8.4553760118481378e+000
508:1.6696083779797252e+001
509:1.4482732903275428e+001
510:1.1050160101995765e+001
511:8.3389045316445003e+000
512:3.3875667102602338e+000
513:1.4883060825734582e+000
514:-7.0788607208058338e-002
515:-4.8321554206201700e-001
516:5.6354502219809506e+000
517:3.5273506931677083e+000
518:1.6800051377340166e+000
519:1.0358764622014891e+000
520:7.0710683388114193e+000
521:4.8483022211405364e+000
522:2.8330759031585466e+000
523:2.0389092629914525e+000
524:6.9751935549574124e+000
525:4.8068579840797492e+000
526:2.8417694448183362e+000
527:2.0574269430337861e+000
528:-4.1452755608835318e-001
529:4.1893711499450897e-002
530:1.1793158656694629e+000
531:2.4163228389514098e+000
532:9.7465279998908949e-001
533:1.1265850510671831e+000
534:1.7617994978333245e+000
535:2.5563716242696151e+000
536:1.8857195776206677e+000
537:1.8031652797832929e+000
538:2.0132567087165270e+000
539:2.4001612554607425e+000
540:1.8954165084503947e+000
541:1.7629403253588329e+000
542:1.8327324852688303e+000
543:2.0461722701497118e+000
544:3.1667131046085504e+000
545:4.3223438461870147e+000
546:5.2599700382052097e+000
547:5.5513987170627104e+000
548:3.0641307272000970e+000
549:3.8674542710836475e+000
550:4.5299683457496913e+000
551:4.7138299856653960e+000
552:2.6718028639613585e+000
553:3.1230827046089442e+000
554:3.5025040687074056e+000
555:3.5779867818908975e+000
556:2.2038752894245262e+000
557:2.4765764388950950e+000
558:2.7054978802251304e+000
559:2.7264373363890186e+000
560:5.5594086281956923e+000
561:5.3166642748083568e+000
562:4.4731953372950706e+000
563:3.3998354108897617e+000
564:4.6901176388218380e+000
565:4.4380202020278503e+000
566:3.6969647934188141e+000
567:2.8032626631913109e+000
568:3.5275035825340364e+000
569:3.2876141600383675e+000
570:2.6991368286580530e+000
571:2.0385627326812918e+000
572:2.6678914288853037e+000
573:2.4558062372230349e+000
574:1.9931423360211400e+000
575:1.5018587203115981e+000
576:2.6954597606781894e+000
577:1.5831663011113137e+000
578:6.4517296327354212e-001
579:3.2609044273624271e-001
580:2.2287733671041274e+000
581:1.3248974182858171e+000
582:5.6567878659741966e-001
583:3.0958602646427397e-001
584:1.6262954066554973e+000
585:9.8197950361054775e-001
586:4.4693030106489001e-001
587:2.7297545592344152e-001
588:1.2026321531358604e+000
589:7.3794533287993280e-001
590:3.5745484516213555e-001
591:2.4046992988078431e-001
592:2.8756761835404610e-001
593:2.4685026292077672e-001
594:2.1076955690395019e-001
595:1.9599759496600133e-001
596:2.7984585511501625e-001
597:2.4858373873937306e-001
598:2.1935638407709029e-001
599:2.0566857595298513e-001
600:2.5723517990039674e-001
601:2.4225199528077290e-001
602:2.2451655180485172e-001
603:2.1245127571192007e-001
604:2.3491945212923088e-001
605:2.3194557798638421e-001
606:2.2271238941667926e-001
607:2.1207469161069067e-001
608:1.9218140065473513e-001
609:1.8448600350036592e-001
610:1.7184069720454551e-001
611:1.6026185338106799e-001
612:2.0111689597776414e-001
613:1.9231952298990754e-001
614:1.7927515413671274e-001
615:1.6811911344950548e-001
616:2.0657349254945101e-001
617:1.9602180208827041e-001
618:1.8290659407207568e-001
619:1.7319844048434133e-001
620:2.0546549477294576e-001
621:1.9417792717490864e-001
622:1.8179343959525143e-001
623:1.7370546251027602e-001
624:1.5359146234783011e-001
625:1.4250722104555516e-001
626:1.3094602183623227e-001
627:1.2393560049978765e-001
628:1.6187708050059088e-001
629:1.5135098852651374e-001
630:1.3997242246107180e-001
631:1.3274303877383636e-001
632:1.6812630994410538e-001
633:1.5919977113092565e-001
634:1.4864431355157318e-001
635:1.4124092786330597e-001
636:1.6974466837881361e-001
637:1.6233882596798269e-001
638:1.5266048183923925e-001
639:1.4527280004469745e-001
640:1.2069582639817636e-001
641:1.1462290277420099e-001
642:1.0661415157767150e-001
643:1.0048279598441220e-001
644:1.2928982719178164e-001
645:1.2286882093431320e-001
646:1.1452544079417673e-001
647:1.0820178012451288e-001
648:1.3748900211018480e-001
649:1.3067775182854036e-001
650:1.2217993984102497e-001
651:1.1592750127090533e-001
652:1.4137810074308130e-001
653:1.3446531699136235e-001
654:1.2614144238635372e-001
655:1.2015845346323104e-001
656:9.7256089029556597e-002
657:9.1558643836418888e-002
658:8.4725620798873760e-002
659:7.9801838915323914e-002
660:1.0488386492484285e-001
661:9.8975135458972907e-002
662:9.1789418776201628e-002
663:8.6548703584894582e-002
664:1.1267979385216725e-001
665:1.0677207834586180e-001
666:9.9345331502620746e-002
667:9.3781347782361371e-002
668:1.1706445951280234e-001
669:1.1130299519611719e-001
670:1.0382263202700859e-001
671:9.8090166493749326e-002
672:7.7234743223008426e-002
673:7.2310182699434039e-002
674:6.5636615833521914e-002
675:6.0331380584043942e-002
676:8.3800374749839923e-002
677:7.8521768088806260e-002
678:7.1351612232259679e-002
679:6.5631056629532974e-002
680:9.0829228497395095e-002
681:8.5175249253627336e-002
682:7.7514379333104816e-002
683:7.1392068818351084e-002
684:9.5024264661059926e-002
685:8.9175202460174727e-002
686:8.1274643949659345e-002
687:7.4949955562728030e-002
688:5.7430457809674935e-002
689:5.1719387427642961e-002
690:4.3632276713541307e-002
691:3.6866939597409755e-002
692:6.2493741862775565e-002
693:5.6303115972388247e-002
694:4.7517377051351423e-002
695:4.0159580300439937e-002
696:6.8022744345014804e-002
697:6.1335525319921314e-002
698:5.1786818579596883e-002
699:4.3765199634395471e-002
700:7.1456031688307706e-002
701:6.4480099629030563e-002
702:5.4459443955787008e-002
703:4.6018183153645649e-002
704:3.3023900980350643e-002
705:2.5107547223456299e-002
706:1.3287399406425779e-002
707:3.0291308340255904e-003
708:3.5978930553696498e-002
709:2.7362190677854066e-002
710:1.4484885783943354e-002
711:3.2999549874009569e-003
712:3.9204633329694295e-002
713:2.9809122649031048e-002
714:1.5767435295429160e-002
715:3.5619852946213275e-003
716:4.1217710027925097e-002
717:3.1336617278885419e-002
718:1.6573818343064456e-002
719:3.7330045319359730e-003
720:1.2497644223658643e+001
721:1.6845116084871073e+001
722:1.8869110264740986e+001
723:1.8015733032199755e+001
724:1.9878076796673529e+001
725:2.0949179040719663e+001
726:1.9883803130241120e+001
727:1.7582464392675590e+001
728:2.8186353612701911e+001
729:2.4099950505808302e+001
730:1.8533863754828687e+001
731:1.4431609182479447e+001
732:3.0221468521762539e+001
733:2.2976630659937012e+001
734:1.4872918404380409e+001
735:9.9369295208775004e+000
736:1.6865806986553537e+001
737:1.4271906262782624e+001
738:1.0562787075408568e+001
739:7.8190283424090108e+000
740:1.5973361419340680e+001
741:1.2800147512646459e+001
742:8.8093662593795106e+000
743:6.1976394415329175e+000
744:1.2399440581950437e+001
745:8.8727206936878567e+000
746:5.0695338080221433e+000
747:3.0037629579695881e+000
748:7.8081095262411413e+000
749:4.4251038845464548e+000
750:1.2461164151565076e+000
751:-1.3681107301160439e-001
752:6.4988236537143029e+000
753:4.4190611340628552e+000
754:2.5509906388994676e+000
755:1.8177714303834829e+000
756:5.0549089500261903e+000
757:3.2959165628845781e+000
758:1.7594943338708877e+000
759:1.1954808933766987e+000
760:2.2534993155236873e+000
761:1.1720195877337551e+000
762:3.2871297921780596e-001
763:1.2333877174531523e-001
764:-4.9471803528649105e-001
765:-9.0763029559859187e-001
766:-1.0539828004969582e+000
767:-8.8150916434377802e-001
768:1.6726261734726500e+000
769:1.5584525127490561e+000
770:1.6179262887592569e+000
771:1.7881047750437400e+000
772:1.1069872295350669e+000
773:1.0676868758075126e+000
774:1.1586103276877298e+000
775:1.2909102857522712e+000
776:1.6073577293497873e-001
777:2.9797976358435135e-001
778:5.1631438303673849e-001
779:6.6744750116158669e-001
780:-7.0191485389167252e-001
781:-3.6079863846083110e-001
782:2.2879137107726270e-002
783:2.3491463233056348e-001
784:1.9093387603393457e+000
785:2.1205203772566215e+000
786:2.2946034002067761e+000
787:2.2975774625609344e+000
788:1.3692674025106375e+000
789:1.5044427162436522e+000
790:1.6102298135003095e+000
791:1.5958036361936887e+000
792:7.2999439335871419e-001
793:8.2779791281185733e-001
794:8.9749555920709012e-001
795:8.8341513458199483e-001
796:3.1076340201488833e-001
797:4.1756505756208723e-001
798:4.8906266243973390e-001
799:4.8550407902690890e-001
800:2.2393835603601371e+000
801:2.0481728234983216e+000
802:1.6533420920753423e+000
803:1.2459365050978168e+000
804:1.5440105856797093e+000
805:1.3951606021748402e+000
806:1.1157420823566775e+000
807:8.4374549517324149e-001
808:8.4688770720803386e-001
809:7.5316720913375590e-001
810:5.9688878847153493e-001
811:4.5892991758356150e-001
812:4.6250360411151453e-001
813:4.0647040063423051e-001
814:3.2199762698845835e-001
815:2.5618993399517614e-001
816:1.0010095216881310e+000
817:6.2195633207011591e-001
818:3.1440367843547207e-001
819:2.2379106393466663e-001
820:6.8491072893397609e-001
821:4.4091102166047913e-001
822:2.4711037200847091e-001
823:1.9621633909962249e-001
824:3.8299507009778483e-001
825:2.6795855157811604e-001
826:1.8075911901086394e-001
827:1.6474973271149446e-001
828:2.2339369926259445e-001
829:1.7477330035686056e-001
830:1.4120143953099876e-001
831:1.4125268163688531e-001
832:2.2270978599091060e-001
833:2.2490398513667420e-001
834:2.1941821900838135e-001
835:2.0962054132160385e-001
836:2.0095875424180440e-001
837:2.0971565496247394e-001
838:2.0954956620695969e-001
839:2.0162504360415184e-001
840:1.7304079520907359e-001
841:1.8566188154771490e-001
842:1.9016255800718349e-001
843:1.8541303406077309e-001
844:1.5012914624717083e-001
845:1.6349974574175666e-001
846:1.7081389281442372e-001
847:1.6917078010302530e-001
848:2.0289225639043770e-001
849:1.9167344372925377e-001
850:1.8006551026612858e-001
851:1.7295301871300739e-001
852:1.9527504616970295e-001
853:1.8500621137259704e-001
854:1.7523218246901839e-001
855:1.6983544937725978e-001
856:1.8058040039812839e-001
857:1.7286479536561250e-001
858:1.6596004100311820e-001
859:1.6250571963780122e-001
860:1.6614279989721670e-001
861:1.6115432193340909e-001
862:1.5665232609487612e-001
863:1.5444872048816893e-001
864:1.6957948893968136e-001
865:1.6297515097892482e-001
866:1.5379776951854954e-001
867:1.4649596769544601e-001
868:1.6741595233692688e-001
869:1.6219976944965581e-001
870:1.5410529081243279e-001
871:1.4721939430601391e-001
872:1.6105446443309568e-001
873:1.5746212525813338e-001
874:1.5109757311615238e-001
875:1.4524733020811825e-001
876:1.5355725441200277e-001
877:1.5110773062169253e-001
878:1.4632299182891489e-001
879:1.4161934325347281e-001
880:1.4258746319741800e-001
881:1.3573321803291793e-001
882:1.2762141952265879e-001
883:1.2184334087479601e-001
884:1.4344134635843056e-001
885:1.3689882136973838e-001
886:1.2929532703076071e-001
887:1.2391618764262335e-001
888:1.4192493234197659e-001
889:1.3613880201790690e-001
890:1.2936258240428880e-001
891:1.2451150436978889e-001
892:1.3884131997181426e-001
893:1.3386714394573140e-001
894:1.2782655073285873e-001
895:1.2338470720990752e-001
896:1.1885149341046836e-001
897:1.1319910831215858e-001
898:1.0572797785488465e-001
899:9.9938920098728234e-002
900:1.2111564985087001e-001
901:1.1570493522902033e-001
902:1.0835625997546294e-001
903:1.0256073724791041e-001
904:1.2195887688848536e-001
905:1.1694078393259399e-001
906:1.0996616604112358e-001
907:1.0435792284813492e-001
908:1.2102549169453140e-001
909:1.1637352210996163e-001
910:1.0984927676125385e-001
911:1.0452776945570698e-001
912:9.6833187332477796e-002
913:9.0920632246608929e-002
914:8.2943763228041464e-002
915:7.6546755570655226e-002
916:9.9431964809608253e-002
917:9.3475932804266831e-002
918:8.5424219476918306e-002
919:7.8934123282782875e-002
920:1.0129648104436874e-001
921:9.5422192850690785e-002
922:8.7394727681612647e-002
923:8.0861948279650042e-002
924:1.0158701386581662e-001
925:9.5873226656943186e-002
926:8.7952405757512314e-002
927:8.1447335107949673e-002
928:7.3003299348601947e-002
929:6.5903947964834814e-002
930:5.5672200309007609e-002
931:4.7041096159705739e-002
932:7.5321435653604524e-002
933:6.8045937293793338e-002
934:5.7506510956331441e-002
935:4.8592981353063391e-002
936:7.7205434682412574e-002
937:6.9810323807026148e-002
938:5.9044554123917882e-002
939:4.9906191113182230e-002
940:7.7794180405113961e-002
941:7.0393257717607599e-002
942:5.9587231261249582e-002
943:5.0383758683030064e-002
944:4.2132518691469376e-002
945:3.2034288262785336e-002
946:1.6949511080295711e-002
947:3.8228742544591460e-003
948:4.3521208316998836e-002
949:3.3091901520335261e-002
950:1.7513975668119238e-002
951:3.9514371055659539e-003
952:4.4697332092748648e-002
953:3.3982163291457028e-002
954:1.7976183431994461e-002
955:4.0437099443263987e-003
956:4.5125790990985730e-002
957:3.4300633805039282e-002
958:1.8130733510199722e-002
959:4.0685679464971432e-003
960:2.8788565133282127e+001
961:2.0614258788120583e+001
962:1.1886889235556051e+001
963:6.8512866497453180e+000
964:2.1741759418594349e+001
965:1.3780557642340824e+001
966:5.6583749598364097e+000
967:1.1928971244646358e+000
968:8.4718233661520461e+000
969:3.0104612300308657e+000
970:-2.3096172127304642e+000
971:-5.1767577041490220e+000
972:-8.0496884700522275e-001
973:-4.2210295863716363e+000
974:-7.2673060565805923e+000
975:-8.8520070786898053e+000
976:4.7799082740063943e+000
977:1.6479186362896607e+000
978:-1.0244018498994167e+000
979:-1.9683339799038622e+000
980:-5.7051220665798374e-001
981:-3.0031935053349947e+000
982:-4.6429678209671712e+000
983:-4.8429831258193197e+000
984:-6.3172154960927953e+000
985:-7.6337584413981423e+000
986:-7.9674358286943026e+000
987:-7.4069211881960184e+000
988:-9.5029314267299814e+000
989:-1.0014747604519592e+001
990:-9.5192604128570615e+000
991:-8.5451787402389705e+000
992:-2.1004914082995234e+000
993:-2.1296705873790209e+000
994:-1.8677163806656092e+000
995:-1.4651990462565130e+000
996:-4.6331866608125987e+000
997:-4.0829342225576832e+000
998:-3.1937927472482834e+000
999:-2.4291569574383152e+000
1000:-6.9043610140594840e+000
1001:-5.8630621785256603e+000
1002:-4.4313356832881814e+000
1003:-3.3455479792788592e+000
1004:-7.9086565556797970e+000
1005:-6.6482926261313500e+000
1006:-4.9757066691717640e+000
1007:-3.7498433257579040e+000
1008:-1.1948421483080138e+000
1009:-7.2259007073382997e-001
1010:-2.2975668885297301e-001
1011:2.8056056438004500e-002
1012:-2.0123190913399522e+000
1013:-1.3265921704265313e+000
1014:-6.5162808301834219e-001
1015:-3.1124400068262947e-001
1016:-2.7959846071187915e+000
1017:-1.9157876611673661e+000
1018:-1.0704964231565453e+000
1019:-6.4532995161660767e-001
1020:-3.1439294707857650e+000
1021:-2.1831793550476704e+000
1022:-1.2682551725289450e+000
1023:-8.0592531211943619e-001
1024:1.1795425687795781e-001
1025:2.3954209274170193e-001
1026:3.1907454265640617e-001
1027:3.2273278753194995e-001
1028:-1.9242307874977932e-001
1029:-3.6498599761907433e-002
1030:6.6375544353242236e-002
1031:8.7214002658774367e-002
1032:-4.9243468713962407e-001
1033:-2.9218671981241329e-001
1034:-1.5467568692633857e-001
1035:-1.1011657250460269e-001
1036:-6.3609331903950461e-001
1037:-4.1293035527495403e-001
1038:-2.5651135940184788e-001
1039:-1.9870390160873427e-001
1040:3.0665992392153035e-001
1041:2.6793614722940490e-001
1042:2.1346063913339694e-001
1043:1.7602764568611765e-001
1044:8.4386025582409416e-002
1045:7.4781464005196710e-002
1046:6.4673051327114178e-002
1047:6.5559516031208603e-002
1048:-9.7287322246475100e-002
1049:-7.7008574565303273e-002
1050:-4.9599089608188734e-002
1051:-2.1787117527099980e-002
1052:-1.7740006171907383e-001
1053:-1.4240562411567320e-001
1054:-9.9763642951209985e-002
1055:-6.3822487783527268e-002
1056:1.5970800678354885e-001
1057:1.3624683495260476e-001
1058:1.2261894756247872e-001
1059:1.2819243360518456e-001
1060:7.0513891055800970e-002
1061:7.9433359757714789e-002
1062:9.1323011601296022e-002
1063:1.0355811625211642e-001
1064:-3.4776697922006346e-003
1065:2.5939546580131697e-002
1066:5.4368699752050817e-002
1067:7.0772624865926850e-002
1068:-4.2461675234542216e-002
1069:-7.7654120099091466e-003
1070:2.6063940383078379e-002
1071:4.4487489769300212e-002
1072:1.3692748749361605e-001
1073:1.5032486257325631e-001
1074:1.5912387180081194e-001
1075:1.5937777678208562e-001
1076:1.1173190350133448e-001
1077:1.2483856601520490e-001
1078:1.3600441384133477e-001
1079:1.3970274555581036e-001
1080:7.8307460813799745e-002
1081:9.1099196533434845e-002
1082:1.0472641019839038e-001
1083:1.1234081644366825e-001
1084:5.2172311911252593e-002
1085:6.5451814786883278e-002
1086:8.0787269038628831e-002
1087:9.0743407415588062e-002
1088:1.5748571515718282e-001
1089:1.5414859154624064e-001
1090:1.5096267768904226e-001
1091:1.4934777205587227e-001
1092:1.3999974465470416e-001
1093:1.3993225534416709e-001
1094:1.3941758699396495e-001
1095:1.3894768924403089e-001
1096:1.1528854153503773e-001
1097:1.1939797581999964e-001
1098:1.2258422343145355e-001
1099:1.2379029578431296e-001
1100:9.5311404248381679e-002
1101:1.0218266167387474e-001
1102:1.0816800817065213e-001
1103:1.1085865975413182e-001
1104:1.4870063820708604e-001
1105:1.4683142978899344e-001
1106:1.4296633569118947e-001
1107:1.3897984551374509e-001
1108:1.3871655372604916e-001
1109:1.3783024023634208e-001
1110:1.3557789338085185e-001
1111:1.3292057767759419e-001
1112:1.2413463717277504e-001
1113:1.2446389782087840e-001
1114:1.2411885631434083e-001
1115:1.2308648195504858e-001
1116:1.1176854530878580e-001
1117:1.1312357366218802e-001
1118:1.1416374656521071e-001
1119:1.1426158418071895e-001
1120:1.3655027561569963e-001
1121:1.3207878460969877e-001
1122:1.2646296165395299e-001
1123:1.2224394887884490e-001
1124:1.3117334040117717e-001
1125:1.2772587335155808e-001
1126:1.2302472959465309e-001
1127:1.1929471170306243e-001
1128:1.2222264330984668e-001
1129:1.2018793269962999e-001
1130:1.1687318064644471e-001
1131:1.1392863694235518e-001
1132:1.1402518261012196e-001
1133:1.1306328519020235e-001
1134:1.1091150003440398e-001
1135:1.0867789676478348e-001
1136:1.1999120633872459e-001
1137:1.1555806366799896e-001
1138:1.0932730430276799e-001
1139:1.0420397797443404e-001
1140:1.1726491097776941e-001
1141:1.1326985161413479e-001
1142:1.0761351513839670e-001
1143:1.0288569166662562e-001
1144:1.1224688109828630e-001
1145:1.0888661993276545e-001
1146:1.0401725636100712e-001
1147:9.9836692695112708e-002
1148:1.0731475524177211e-001
1149:1.0450190500786756e-001
1150:1.0027090956218995e-001
1151:9.6531197864036244e-002
1152:1.0134923684292713e-001
1153:9.5752608490328808e-002
1154:8.7919204679329024e-002
1155:8.1451256733272873e-002
1156:1.0021113903871363e-001
1157:9.4880112482880405e-002
1158:8.7282475944788426e-002
1159:8.0941108097182080e-002
1160:9.7425804618095482e-002
1161:9.2520716761142430e-002
1162:8.5364366976453929e-002
1163:7.9295126745294195e-002
1164:9.4340521799371330e-002
1165:8.9815285162942446e-002
1166:8.3089957701971598e-002
1167:7.7303944072725908e-002
1168:7.7813587019532782e-002
1169:7.0440123587531683e-002
1170:5.9658501134622594e-002
1171:5.0456721163483619e-002
1172:7.7361356629580852e-002
1173:7.0090554045572323e-002
1174:5.9420461206025232e-002
1175:5.0275919004616663e-002
1176:7.5844107823751047e-002
1177:6.8800042262295150e-002
1178:5.8395250747436907e-002
1179:4.9427114004963850e-002
1180:7.3988519577368156e-002
1181:6.7183527314486513e-002
1182:5.7069149245766386e-002
1183:4.8312755867384607e-002
1184:4.5191578068404403e-002
1185:3.4345664978975794e-002
1186:1.8146598841725377e-002
1187:4.0701503358241964e-003
1188:4.5029031444019568e-002
1189:3.4214521259961585e-002
1190:1.8071824783747841e-002
1191:4.0658379601831249e-003
1192:4.4265300268974531e-002
1193:3.3625473090001232e-002
1194:1.7760658299409055e-002
1195:4.0189363039756796e-003
1196:4.3262857209880108e-002
1197:3.2855358610974328e-002
1198:1.7346878644719354e-002
1199:3.9234998250529951e-003
1200:-4.2203837640020598e+000
1201:-6.9659934173636993e+000
1202:-9.1803129229079570e+000
1203:-1.0243223848233379e+001
1204:-7.1719323647333644e+000
1205:-9.5041980316182926e+000
1206:-1.1026650928345132e+001
1207:-1.1536266953051928e+001
1208:-6.3492513645814928e+000
1209:-8.8832321546986179e+000
1210:-1.0426731611758051e+001
1211:-1.0755528239096856e+001
1212:-4.0786748887881856e+000
1213:-6.5231732098651358e+000
1214:-8.0801263808374593e+000
1215:-8.4076850131877592e+000
1216:-1.0677736033032543e+001
1217:-1.0843022803528330e+001
1218:-1.0010788709695628e+001
1219:-8.8799974033802371e+000
1220:-1.1697421337382167e+001
1221:-1.1437353837884929e+001
1222:-1.0228008258582877e+001
1223:-8.9448224957020077e+000
1224:-1.0760069038868238e+001
1225:-1.0312160491848141e+001
1226:-9.0630543182304031e+000
1227:-7.8610285972322105e+000
1228:-8.3853556332018897e+000
1229:-7.9996574667833658e+000
1230:-7.0163424031856572e+000
1231:-6.0891099293171420e+000
1232:-8.1965412730062290e+000
1233:-6.8624489852776920e+000
1234:-5.1138000926747305e+000
1235:-3.8486235589964242e+000
1236:-8.2251433438392780e+000
1237:-6.8448245662332496e+000
1238:-5.0675784847149048e+000
1239:-3.8066863785660399e+000
1240:-7.2094115655324380e+000
1241:-5.9732180272775190e+000
1242:-4.4043620033383721e+000
1243:-3.3116028891837916e+000
1244:-5.5886339201067496e+000
1245:-4.6379017459465732e+000
1246:-3.4330743033326301e+000
1247:-2.5999679766040846e+000
1248:-3.2292405697691722e+000
1249:-2.2514329813993985e+000
1250:-1.3239962705662831e+000
1251:-8.5480019788134032e-001
1252:-3.1986968806093459e+000
1253:-2.2452892412928427e+000
1254:-1.3466033168386431e+000
1255:-8.9139067276700779e-001
1256:-2.7929462750429450e+000
1257:-1.9853828908603581e+000
1258:-1.2292218350183770e+000
1259:-8.4575437294422207e-001
1260:-2.2081881582525744e+000
1261:-1.6015936140294955e+000
1262:-1.0367697784574681e+000
1263:-7.4996341950435430e-001
1264:-6.8108012664267270e-001
1265:-4.5273452245509938e-001
1266:-2.9201301963352738e-001
1267:-2.3050951233079744e-001
1268:-7.2096287917430835e-001
1269:-4.9668997391080139e-001
1270:-3.3759637408467030e-001
1271:-2.7359021477821399e-001
1272:-7.0047296061622111e-001
1273:-5.0813147155660265e-001
1274:-3.6853069616129741e-001
1275:-3.0795217956580984e-001
1276:-6.4008945257158745e-001
1277:-4.9251905066286289e-001
1278:-3.8026669170564825e-001
1279:-3.2616282402112134e-001
1280:-2.0653699266705206e-001
1281:-1.6704343334253652e-001
1282:-1.2029272680143718e-001
1283:-8.2825171111750917e-002
1284:-2.4685190918448519e-001
1285:-2.0256106390861309e-001
1286:-1.5183745397402046e-001
1287:-1.1387071293502347e-001
1288:-2.8072280239364850e-001
1289:-2.3485031163773709e-001
1290:-1.8303258230736255e-001
1291:-1.4661526232134570e-001
1292:-3.0006926351882163e-001
1293:-2.5482633471688171e-001
1294:-2.0289438444212182e-001
1295:-1.6740037035775773e-001
1296:-6.1209855761927889e-002
1297:-2.5533075755484455e-002
1298:1.0206050907788259e-002
1299:2.9926451596576236e-002
1300:-9.2939939838787372e-002
1301:-5.7306772548202767e-002
1302:-1.9468367461232112e-002
1303:2.6287158097997674e-003
1304:-1.2762699286532836e-001
1305:-9.4199353029032554e-002
1306:-5.6014284066035716e-002
1307:-3.1558798912196470e-002
1308:-1.4965999484248588e-001
1309:-1.1815603290956073e-001
1310:-8.0884323698437954e-002
1311:-5.5600580600855140e-002
1312:3.8069730800948866e-002
1313:5.2058978435424910e-002
1314:6.8342633347514864e-002
1315:7.9260015967110339e-002
1316:1.2030268967907152e-002
1317:2.7968951234536396e-002
1318:4.6276671519060175e-002
1319:5.8660494531878403e-002
1320:-2.0353578721903631e-002
1321:-1.5047148979876663e-003
1322:1.9547782208888406e-002
1323:3.3390994714347658e-002
1324:-4.3389082507398147e-002
1325:-2.2754649315996217e-002
1326:1.0437974929280442e-004
1327:1.4866558733463877e-002
1328:8.4472520124654601e-002
1329:9.2545115816336371e-002
1330:9.9934006170150816e-002
1331:1.0349385902777365e-001
1332:6.4714870243572697e-002
1333:7.4460556452873639e-002
1334:8.4059405190331990e-002
1335:8.9203176115762561e-002
1336:4.0070185121303184e-002
1337:5.1194667279820381e-002
1338:6.2983850428289773e-002
1339:7.0004258382066475e-002
1340:2.1876498745877937e-002
1341:3.3757999698732735e-002
1342:4.6867465517573259e-002
1343:5.5128796196232427e-002
1344:1.0477528745604014e-001
1345:1.0675164298924845e-001
1346:1.0852757180863844e-001
1347:1.0917969881865010e-001
1348:9.1250200506667767e-002
1349:9.4497680041566889e-002
1350:9.7694036440288262e-002
1351:9.9332454660362293e-002
1352:7.3076900126821498e-002
1353:7.8040521862452417e-002
1354:8.3094674888288339e-002
1355:8.5936587975614417e-002
1356:5.8922922496537175e-002
1357:6.5118399163466206e-002
1358:7.1524898669335840e-002
1359:7.5238020810777489e-002
1360:1.0924698009390794e-001
1361:1.0883074323868634e-001
1362:1.0731517961832350e-001
1363:1.0549421258569285e-001
1364:9.9912309180764894e-002
1365:1.0043151018149352e-001
1366:1.0004903456652912e-001
1367:9.8999573198414306e-002
1368:8.7105220147609089e-002
1369:8.8711941319424961e-002
1370:8.9698157808149423e-002
1371:8.9630988919661175e-002
1372:7.6825333740199647e-002
1373:7.9206950886083399e-002
1374:8.1183092895135520e-002
1375:8.1845139144239021e-002
1376:1.0432036240816982e-001
1377:1.0182350992454994e-001
1378:9.7947393984038206e-002
1379:9.4449851163575543e-002
1380:9.8194066202031791e-002
1381:9.6316565656770187e-002
1382:9.3136993574457913e-002
1383:9.0112715289928064e-002
1384:8.9315708669840760e-002
1385:8.8274922216999452e-002
1386:8.6047522832884540e-002
1387:8.3671393670415747e-002
1388:8.1902645830622067e-002
1389:8.1507509496964850e-002
1390:8.0027066021993734e-002
1391:7.8164159178101544e-002
1392:9.2381795669493616e-002
1393:8.8075029370141097e-002
1394:8.1607965973593613e-002
1395:7.5996118122494988e-002
1396:8.8282912952568404e-002
1397:8.4402509746901860e-002
1398:7.8445485809826965e-002
1399:7.3183775999494452e-002
1400:8.2166098951238817e-002
1401:7.8868433598635296e-002
1402:7.3618166331313253e-002
1403:6.8853566065641872e-002
1404:7.6916014772096711e-002
1405:7.4082219170395744e-002
1406:6.9402328341445177e-002
1407:6.5048100437485171e-002
1408:7.2764526269599630e-002
1409:6.6108023305261679e-002
1410:5.6177865945237992e-002
1411:4.7561034435721440e-002
1412:7.0123641339849288e-002
1413:6.3777857741635885e-002
1414:5.4245995824659068e-002
1415:4.5939091022457211e-002
1416:6.6042784693897155e-002
1417:6.0160494320317497e-002
1418:5.1241631464687597e-002
1419:4.3421920306235824e-002
1420:6.2447431212785648e-002
1421:5.6961558987614513e-002
1422:4.8575077419684469e-002
1423:4.1181829878805656e-002
1424:4.2587184568977185e-002
1425:3.2336851038236483e-002
1426:1.7064578866702512e-002
1427:3.8467757625043606e-003
1428:4.1135935285783340e-002
1429:3.1234211623671158e-002
1430:1.6477990327592180e-002
1431:3.7049282806908765e-003
1432:3.8888828639868443e-002
1433:2.9534537318658557e-002
1434:1.5582502606649467e-002
1435:3.5007075476698305e-003
1436:3.6885430182832565e-002
1437:2.8011232744757881e-002
1438:1.4766808802002668e-002
1439:3.2964585959504148e-003
1440:-2.8852148602753425e+000
1441:-4.9856353867779069e+000
1442:-6.3576657790053428e+000
1443:-6.6549072444666635e+000
1444:-1.3182571074505589e+000
1445:-2.6764220548612307e+000
1446:-3.6060054267976493e+000
1447:-3.8227316254578043e+000
1448:-3.3634211928933611e-001
1449:-8.5685865627892543e-001
1450:-1.2535427277276401e+000
1451:-1.3712210869952375e+000
1452:-1.1018817254993654e-001
1453:-2.6855628484065180e-001
1454:-4.2874622811175778e-001
1455:-5.0693060351515706e-001
1456:-6.6330014456468342e+000
1457:-6.3268354559612234e+000
1458:-5.5646412426764789e+000
1459:-4.8487665637920481e+000
1460:-3.8103611438907730e+000
1461:-3.6468180668818562e+000
1462:-3.2485350348952409e+000
1463:-2.8736612147056171e+000
1464:-1.3798944961790747e+000
1465:-1.3575486084783099e+000
1466:-1.2791038419793030e+000
1467:-1.1952073687137690e+000
1468:-5.3147640054558543e-001
1469:-5.6798089047749067e-001
1470:-6.0101476338811055e-001
1471:-6.1429957292927451e-001
1472:-4.4618035673352328e+000
1473:-3.7212432309111145e+000
1474:-2.7765148177458698e+000
1475:-2.1227608355917416e+000
1476:-2.6689610943724014e+000
1477:-2.2659220533900251e+000
1478:-1.7380375202024896e+000
1479:-1.3698718335234299e+000
1480:-1.1452750764112112e+000
1481:-1.0315123849910091e+000
1482:-8.6335505364019249e-001
1483:-7.4047086142057439e-001
1484:-6.1636758513278733e-001
1485:-6.0422913158281877e-001
1486:-5.6742696569992745e-001
1487:-5.3428642819954364e-001
1488:-1.8163877710003773e+000
1489:-1.3438984317174780e+000
1490:-9.0578404083518638e-001
1491:-6.8299494950981698e-001
1492:-1.1984724920342080e+000
1493:-9.3698967739982386e-001
1494:-6.9712166536743192e-001
1495:-5.7404656733397430e-001
1496:-6.8363240998121300e-001
1497:-5.9915888729114941e-001
1498:-5.2262399179859365e-001
1499:-4.8019037144208476e-001
1500:-5.1830982266389292e-001
1501:-4.9449973618850140e-001
1502:-4.7010665088075154e-001
1503:-4.5126467597372633e-001
1504:-5.9682307484737984e-001
1505:-4.7912685465616711e-001
1506:-3.8495623161995407e-001
1507:-3.3521369886671537e-001
1508:-5.2478325728673236e-001
1509:-4.5377473467901097e-001
1510:-3.8856040104283168e-001
1511:-3.4689756522671644e-001
1512:-4.6049950557003710e-001
1513:-4.2695410846425474e-001
1514:-3.8585807544588629e-001
1515:-3.5263395194821767e-001
1516:-4.3971669285210779e-001
1517:-4.1614573289887902e-001
1518:-3.8159167108532843e-001
1519:-3.5173113152285207e-001
1520:-3.1002549361934789e-001
1521:-2.6534110604948735e-001
1522:-2.1303530559299705e-001
1523:-1.7745216015202267e-001
1524:-3.2407547354706939e-001
1525:-2.8187404051103598e-001
1526:-2.3034739056380196e-001
1527:-1.9487612244096086e-001
1528:-3.3332550907358871e-001
1529:-2.9615858967611430e-001
1530:-2.4842265987220899e-001
1531:-2.1430292898613026e-001
1532:-3.3455282964150679e-001
1533:-3.0138735619889928e-001
1534:-2.5805778004402596e-001
1535:-2.2617244079435431e-001
1536:-1.6000974661983855e-001
1537:-1.2920709352123994e-001
1538:-9.2614599780679027e-002
1539:-6.7325932104769864e-002
1540:-1.7772158745057406e-001
1541:-1.4774172634462177e-001
1542:-1.1217507555351756e-001
1543:-8.7153327694800428e-002
1544:-1.9752521101574633e-001
1545:-1.6831249071685742e-001
1546:-1.3376967546490476e-001
1547:-1.0934689667288552e-001
1548:-2.1006396426503429e-001
1549:-1.8174861406651877e-001
1550:-1.4800509231735423e-001
1551:-1.2408130210980685e-001
1552:-5.4848064530200746e-002
1553:-3.3625117047793883e-002
1554:-1.0022210599354209e-002
1555:5.1981254674309790e-003
1556:-7.4511883649077279e-002
1557:-5.2744036478918774e-002
1558:-2.8209348072024073e-002
1559:-1.2252606313158283e-002
1560:-9.6894434629830870e-002
1561:-7.5154020406539082e-002
1562:-5.0118090954549339e-002
1563:-3.3472371517917467e-002
1564:-1.1189281879800034e-001
1565:-9.0453703994761395e-002
1566:-6.5401165315227633e-002
1567:-4.8445388822851834e-002
1568:1.2394006763338279e-002
1569:2.4665701525431849e-002
1570:3.8403732659152555e-002
1571:4.7241583912194220e-002
1572:-4.6932467107186019e-003
1573:8.3052867863799111e-003
1574:2.3116984646884584e-002
1575:3.2883902353111970e-002
1576:-2.5474762221985719e-002
1577:-1.1628379628321984e-002
1578:4.3382407066078271e-003
1579:1.5043153649809234e-002
1580:-4.0190921010667915e-002
1581:-2.5847493222105944e-002
1582:-9.2200693473076922e-003
1583:2.0143670487806640e-003
1584:5.1371916974583015e-002
1585:5.8155615885431000e-002
1586:6.5233690763045901e-002
1587:6.9395579811557084e-002
1588:3.7543727821521190e-002
1589:4.5277029862724791e-002
1590:5.3490152734838488e-002
1591:5.8447263497661037e-002
1592:2.0223967492549153e-002
1593:2.8935948356945906e-002
1594:3.8408485277203211e-002
1595:4.4307169203727063e-002
1596:7.4903732215480714e-003
1597:1.6792671225401620e-002
1598:2.7086757164871866e-002
1599:3.3633771885560444e-002
1600:7.1202492422688654e-002
1601:7.3988249108551701e-002
1602:7.6477273643389840e-002
1603:7.7517182856392808e-002
1604:6.0654304962033938e-002
1605:6.4171325449965594e-002
1606:6.7577868540772537e-002
1607:6.9290067368701608e-002
1608:4.7003967521409784e-002
1609:5.1407070533198741e-002
1610:5.5909552927935778e-002
1611:5.8421463609667497e-002
1612:3.6675040547608423e-002
1613:4.1694966394188980e-002
1614:4.6951952591887440e-002
1615:5.0015465408884366e-002
1616:7.7768771561323974e-002
1617:7.7713208740857631e-002
1618:7.6631205065300870e-002
1619:7.5044939463806651e-002
1620:6.9887284087458132e-002
1621:7.0443061267682350e-002
1622:7.0090170561314682e-002
1623:6.9017001853085333e-002
1624:5.9431866597024437e-002
1625:6.0732098020011643e-002
1626:6.1290586936222038e-002
1627:6.0872156155380143e-002
1628:5.1313865537952669e-002
1629:5.3144309888700447e-002
1630:5.4370523492497387e-002
1631:5.4441933196157075e-002
1632:7.3935945359654726e-002
1633:7.1354105712832433e-002
1634:6.6986957383835685e-002
1635:6.2861026167321934e-002
1636:6.8167765384460621e-002
1637:6.6058656257687892e-002
1638:6.2284240676179353e-002
1639:5.8596849594888444e-002
1640:6.0357508356550744e-002
1641:5.8860833827718353e-002
1642:5.5863291251219985e-002
1643:5.2759804763575092e-002
1644:5.4179804165730809e-002
1645:5.3146838375720859e-002
1646:5.0741821602003682e-002
1647:4.8088624377437779e-002
1648:6.0378674417853030e-002
1649:5.5117292237059565e-002
1650:4.7033559391692355e-002
1651:3.9882969238214876e-002
1652:5.6344124393399107e-002
1653:5.1520325482252022e-002
1654:4.4029005226714935e-002
1655:3.7354157290876384e-002
1656:5.0816581925246601e-002
1657:4.6586787070858560e-002
1658:3.9905763671427417e-002
1659:3.3884881153612628e-002
1660:4.6386287041897345e-002
1661:4.2622522043415351e-002
1662:3.6583300951640169e-002
1663:3.1083982225482577e-002
1664:3.5721127537876145e-002
1665:2.7120887207781299e-002
1666:1.4282892009931145e-002
1667:3.1659728061127655e-003
1668:3.3456355063553517e-002
1669:2.5396661972079536e-002
1670:1.3366016239607136e-002
1671:2.9543092370121191e-003
1672:3.0350872096630496e-002
1673:2.3039230588487582e-002
1674:1.2131101228193939e-002
1675:2.7023581081717044e-003
1676:2.7840991322857733e-002
1677:2.1127898924235250e-002
1678:1.1117284814700906e-002
1679:2.4734246772957829e-003
1680:-8.4514603549182069e-002
1681:-1.8934444668175474e-001
1682:-3.1626375637893805e-001
1683:-3.9329380080177861e-001
1684:-5.4532890171195364e-002
1685:-1.1416516180721262e-001
1686:-2.1110375356651009e-001
1687:-2.8539094906087603e-001
1688:-2.9260440930008711e-002
1689:-7.2416356859649436e-002
1690:-1.5106229030014451e-001
1691:-2.1527575896130866e-001
1692:-1.9192509652576063e-002
1693:-6.7629436068666934e-002
1694:-1.4101883488280961e-001
1695:-1.9616170234085284e-001
1696:-4.2401673569907011e-001
1697:-4.7137029969570188e-001
1698:-5.1618903940711014e-001
1699:-5.3830413650436348e-001
1700:-3.2050317964282227e-001
1701:-3.7435702505955182e-001
1702:-4.2515360261255630e-001
1703:-4.5318190329541164e-001
1704:-2.4676165518747140e-001
1705:-2.9577086784859885e-001
1706:-3.4484572963787641e-001
1707:-3.7610805451860962e-001
1708:-2.2249836864376821e-001
1709:-2.6525635179796109e-001
1710:-3.1173612273352636e-001
1711:-3.4359832582227745e-001
1712:-5.4568137680209627e-001
1713:-5.4750059648213212e-001
1714:-5.3274322851348777e-001
1715:-5.1516445178498838e-001
1716:-4.6534723421250834e-001
1717:-4.8207989058287143e-001
1718:-4.9256790590556782e-001
1719:-4.9283168342400235e-001
1720:-3.9194762242488140e-001
1721:-4.1919623372279069e-001
1722:-4.4658162194396533e-001
1723:-4.5857189376947538e-001
1724:-3.6013231990067202e-001
1725:-3.8835752977355292e-001
1726:-4.1658935601663760e-001
1727:-4.2923350912132718e-001
1728:-5.0570721561066445e-001
1729:-4.8991313685252552e-001
1730:-4.6967827494432535e-001
1731:-4.5105619512420880e-001
1732:-4.9056392020855405e-001
1733:-4.8311150488289484e-001
1734:-4.6655526585814261e-001
1735:-4.4787812951898703e-001
1736:-4.6105043186159955e-001
1737:-4.5976815178878822e-001
1738:-4.4796826972763032e-001
1739:-4.3220439656527454e-001
1740:-4.3217964756665345e-001
1741:-4.3240414538239147e-001
1742:-4.2397971378713778e-001
1743:-4.1198317472669127e-001
1744:-4.3914409003178589e-001
1745:-4.1473839133673551e-001
1746:-3.7951348857636891e-001
1747:-3.5006504749341533e-001
1748:-4.3569358497335264e-001
1749:-4.1071484922523210e-001
1750:-3.7528197649101713e-001
1751:-3.4674394193907893e-001
1752:-4.2178548833443952e-001
1753:-3.9981230125375822e-001
1754:-3.6775185474631339e-001
1755:-3.4164091055654267e-001
1756:-4.0397349251161258e-001
1757:-3.8641046663938389e-001
1758:-3.5943636435938220e-001
1759:-3.3645917405693659e-001
1760:-3.3359224708898277e-001
1761:-3.0224586122491232e-001
1762:-2.6154325716698529e-001
1763:-2.3129362680490506e-001
1764:-3.3131957743819718e-001
1765:-3.0273929021150842e-001
1766:-2.6624571605120478e-001
1767:-2.3884602188787574e-001
1768:-3.2755353730639647e-001
1769:-3.0189169807293831e-001
1770:-2.6957731601759011e-001
1771:-2.4520420879986110e-001
1772:-3.2371402534341132e-001
1773:-3.0026814771535121e-001
1774:-2.7046309530970958e-001
1775:-2.4784951769630906e-001
1776:-2.1576648341341048e-001
1777:-1.8818131135418728e-001
1778:-1.5494957105899976e-001
1779:-1.3127262883117477e-001
1780:-2.2446607946620006e-001
1781:-1.9843610698927913e-001
1782:-1.6642690250714873e-001
1783:-1.4336036279011152e-001
1784:-2.3223277202570183e-001
1785:-2.0833877334387160e-001
1786:-1.7831751226757070e-001
1787:-1.5635244239327581e-001
1788:-2.3578898995050018e-001
1789:-2.1345055397651216e-001
1790:-1.8513014516819948e-001
1791:-1.6421661466183760e-001
1792:-1.1921587749073485e-001
1793:-9.7956867336558034e-002
1794:-7.2972848605095994e-002
1795:-5.5930120476416795e-002
1796:-1.3159388172211259e-001
1797:-1.1075424536520125e-001
1798:-8.6025388556398782e-002
1799:-6.8934393557998408e-002
1800:-1.4507801911940590e-001
1801:-1.2498154240961155e-001
1802:-1.0084620471853073e-001
1803:-8.3908677414900032e-002
1804:-1.5341399680937193e-001
1805:-1.3405117678165418e-001
1806:-1.1057832599390836e-001
1807:-9.3922498261848800e-002
1808:-4.7580931610684218e-002
1809:-3.3047087371675950e-002
1810:-1.6155173766617674e-002
1811:-4.6983242822650588e-003
1812:-6.0474219316371404e-002
1813:-4.5694480212370291e-002
1814:-2.8428424965916500e-002
1815:-1.6638640573681789e-002
1816:-7.5426079687776773e-002
1817:-6.0525754005032961e-002
1818:-4.2985463970566039e-002
1819:-3.0907587580742437e-002
1820:-8.5512933264540930e-002
1821:-7.0664967589036135e-002
1822:-5.3063848776171811e-002
1823:-4.0863604701246323e-002
1824:9.0604456856599089e-004
1825:1.0477573307123789e-002
1826:2.1164612173364898e-002
1827:2.8029950533806490e-002
1828:-1.0837815933999717e-002
1829:-8.4605433806881323e-004
1830:1.0471152765701432e-002
1831:1.7861125600291398e-002
1832:-2.4928241067650011e-002
1833:-1.4543735056427969e-002
1834:-2.6104108190818254e-003
1835:5.3196108218458125e-003
1836:-3.4799103871918022e-002
1837:-2.4220651358086154e-002
1838:-1.1963499775657969e-002
1839:-3.7277746034680564e-003
1840:3.1241586799745799e-002
1841:3.6564910078441468e-002
1842:4.2191708887839470e-002
1843:4.5527149751923256e-002
1844:2.1359038532292384e-002
1845:2.7198910340224439e-002
1846:3.3464987927204946e-002
1847:3.7274946662630752e-002
1848:9.1237593025671401e-003
1849:1.5533452219002979e-002
1850:2.2529531814367947e-002
1851:2.6892133623256310e-002
1852:2.5933057474042490e-004
1853:7.0259935389910249e-003
1854:1.4503337250870239e-002
1855:1.9240862255225810e-002
1856:4.6968949760887758e-002
1857:4.9067439715410943e-002
1858:5.0637712373193915e-002
1859:5.0965062567734781e-002
1860:3.8967601488625186e-002
1861:4.1536729369276833e-002
1862:4.3716295633677925e-002
1863:4.4502401040475412e-002
1864:2.8878064107120384e-002
1865:3.1998659605409166e-002
1866:3.4899021235399869e-002
1867:3.6237140101337453e-002
1868:2.1427031920311656e-002
1869:2.4924172410678316e-002
1870:2.8320180074963622e-002
1871:3.0043936664142012e-002
1872:5.0835655654613093e-002
1873:5.0046740749711417e-002
1874:4.7954547508511851e-002
1875:4.5540301349537328e-002
1876:4.4613278025813205e-002
1877:4.4269400322822595e-002
1878:4.2752655023733176e-002
1879:4.0780830414130428e-002
1880:3.6641624876716204e-002
1881:3.6848554264593110e-002
1882:3.6054966215149198e-002
1883:3.4645154970367090e-002
1884:3.0656671399250650e-002
1885:3.1259954071851684e-002
1886:3.0995711428654180e-002
1887:3.0002206160467882e-002
1888:4.3966380355698803e-002
1889:4.0452509312421094e-002
1890:3.4759994084650504e-002
1891:2.9544032585950262e-002
1892:3.9445417170245668e-002
1893:3.6397664805557617e-002
1894:3.1355906447189968e-002
1895:2.6674825092514353e-002
1896:3.3614145050535491e-002
1897:3.1164221324522963e-002
1898:2.6963183281658948e-002
1899:2.2977829484791410e-002
1900:2.9197804855583324e-002
1901:2.7194445497337370e-002
1902:2.3624567311726359e-002
1903:2.0164082969131719e-002
1904:2.6459539115644439e-002
1905:2.0071841701111454e-002
1906:1.0547643514061648e-002
1907:2.3279777427852146e-003
1908:2.3890416900301928e-002
1909:1.8117869657097399e-002
1910:9.5106340306586983e-003
1911:2.0885252058920091e-003
1912:2.0585203242020900e-002
1913:1.5614659375492850e-002
1914:8.1994075562266781e-003
1915:1.8110474499323551e-003
1916:1.8067855885603234e-002
1917:1.3703712621013123e-002
1918:7.1882442655306937e-003
1919:1.5787882330338186e-003
1920:-1.6593281892661106e-002
1921:-6.9478064747751811e-002
1922:-1.4091858984371494e-001
1923:-1.9183656890759007e-001
1924:-1.3872263890374681e-002
1925:-6.9917686561951048e-002
1926:-1.3635493780315325e-001
1927:-1.8115526943346555e-001
1928:-1.2577500753991812e-002
1929:-6.4725104231575181e-002
1930:-1.2342481925091171e-001
1931:-1.6320422669728968e-001
1932:-1.1985996639347053e-002
1933:-5.8036711097220334e-002
1934:-1.1150962377534929e-001
1935:-1.4917120633259126e-001
1936:-2.1600137301714709e-001
1937:-2.5670662678434331e-001
1938:-3.0298211698698391e-001
1939:-3.3493916828323117e-001
1940:-2.0271346162950293e-001
1941:-2.4117285940748123e-001
1942:-2.8729005743374081e-001
1943:-3.1888338165430097e-001
1944:-1.8321977584387530e-001
1945:-2.2001877737788553e-001
1946:-2.6476978734453238e-001
1947:-2.9469237356108480e-001
1948:-1.6858206276506646e-001
1949:-2.0377472097951324e-001
1950:-2.4571177949799616e-001
1951:-2.7339809924108799e-001
1952:-3.5110725020222072e-001
1953:-3.7752751483140939e-001
1954:-4.0244138849541772e-001
1955:-4.1296518741120719e-001
1956:-3.3407475609514525e-001
1957:-3.5726599090016220e-001
1958:-3.7717211989098010e-001
1959:-3.8497383165712529e-001
1960:-3.0845731437377139e-001
1961:-3.2887821271408829e-001
1962:-3.4616833218248255e-001
1963:-3.5361846030873456e-001
1964:-2.8612820118425075e-001
1965:-3.0571075892411026e-001
1966:-3.2383322938526582e-001
1967:-3.3303381238645519e-001
1968:-4.1527813788477652e-001
1969:-4.1540730057106462e-001
1970:-4.0861460506162112e-001
1971:-3.9886481654133682e-001
1972:-3.8672321346862432e-001
1973:-3.8726037371343608e-001
1974:-3.8317739698293191e-001
1975:-3.7662407578888701e-001
1976:-3.5597667062770560e-001
1977:-3.5827364291428621e-001
1978:-3.5713106395267497e-001
1979:-3.5299729315598011e-001
1980:-3.3657227457109695e-001
1981:-3.4080385699612109e-001
1982:-3.4154732506381846e-001
1983:-3.3841657955773097e-001
1984:-3.9228726167999023e-001
1985:-3.7747972911129501e-001
1986:-3.5388150435587751e-001
1987:-3.3304859565389783e-001
1988:-3.7198432345286669e-001
1989:-3.6108646463183636e-001
1990:-3.4268269543962626e-001
1991:-3.2549420050084427e-001
1992:-3.4963923680835968e-001
1993:-3.4157658037946453e-001
1994:-3.2756227756833134e-001
1995:-3.1402214919573040e-001
1996:-3.3547382355178385e-001
1997:-3.2840634704785687e-001
1998:-3.1623742382953046e-001
1999:-3.0456376297054166e-001
2000:-3.2121037309904771e-001
2001:-2.9907730152702217e-001
2002:-2.7047697644385255e-001
2003:-2.4861654115535309e-001
2004:-3.1534806105119023e-001
2005:-2.9575485423330061e-001
2006:-2.6955293225060323e-001
2007:-2.4915731493794044e-001
2008:-3.0582095266581805e-001
2009:-2.8939202727069635e-001
2010:-2.6647726142782840e-001
2011:-2.4814575870326738e-001
2012:-2.9750776873027646e-001
2013:-2.8316091186404163e-001
2014:-2.6271803548284695e-001
2015:-2.4605595943360692e-001
2016:-2.3696027457656882e-001
2017:-2.1537965262035025e-001
2018:-1.8798681956459506e-001
2019:-1.6769123927936397e-001
2020:-2.3824705717556091e-001
2021:-2.1804651622616625e-001
2022:-1.9233417983045140e-001
2023:-1.7316244029319466e-001
2024:-2.3823437541844070e-001
2025:-2.1981202470392155e-001
2026:-1.9619448708596002e-001
2027:-1.7841069493460646e-001
2028:-2.3694580661379072e-001
2029:-2.1990115419836298e-001
2030:-1.9784760221839570e-001
2031:-1.8108670802336216e-001
2032:-1.5717179456089408e-001
2033:-1.3825593124745511e-001
2034:-1.1520651036796867e-001
2035:-9.8756034099826542e-002
2036:-1.6316324303585708e-001
2037:-1.4508268945867736e-001
2038:-1.2286047073062387e-001
2039:-1.0685149463281493e-001
2040:-1.6906167809796838e-001
2041:-1.5204730181650131e-001
2042:-1.3093616270541639e-001
2043:-1.1558027725162140e-001
2044:-1.7222180798781242e-001
2045:-1.5601212128774331e-001
2046:-1.3576622945944472e-001
2047:-1.2094787071362045e-001
2048:-9.0415629309648762e-002
2049:-7.5643951629295381e-002
2050:-5.8059467458006372e-002
2051:-4.5825074429963926e-002
2052:-9.8681634735504120e-002
2053:-8.4131058999025371e-002
2054:-6.6671630005540744e-002
2055:-5.4432737515707687e-002
2056:-1.0769288771308863e-001
2057:-9.3555779237263562e-002
2058:-7.6425888151260821e-002
2059:-6.4295823403048943e-002
2060:-1.1330699812969117e-001
2061:-9.9558367450182469e-002
2062:-8.2790893023735088e-002
2063:-7.0829277209794622e-002
2064:-3.9730993883643803e-002
2065:-2.9082664646581990e-002
2066:-1.6701082949336490e-002
2067:-8.3390268929914978e-003
2068:-4.8309109970945820e-002
2069:-3.7575360815960419e-002
2070:-2.5019546571267277e-002
2071:-1.6469001853472342e-002
2072:-5.8186067136891048e-002
2073:-4.7429346422011173e-002
2074:-3.4753649726365757e-002
2075:-2.6042292660552968e-002
2076:-6.4772139668735351e-002
2077:-5.4067352910817171e-002
2078:-4.1379468571756388e-002
2079:-3.2604297952986555e-002
2080:-4.2725239136699707e-003
2081:2.6561629603685183e-003
2082:1.0362177781543186e-002
2083:1.5282474500558097e-002
2084:-1.2281242752261343e-002
2085:-5.0990954833300354e-003
2086:2.9760429336738964e-003
2087:8.1998095075362810e-003
2088:-2.1744959764546087e-002
2089:-1.4323774104256009e-002
2090:-5.8804842962021748e-003
2091:-3.3797694970930613e-004
2092:-2.8256026170201544e-002
2093:-2.0715197489684201e-002
2094:-1.2071137431811107e-002
2095:-6.3416690568108948e-003
2096:1.7566950806874142e-002
2097:2.1248870092283184e-002
2098:2.4889014552528531e-002
2099:2.6804580213332228e-002
2100:1.0650451092626280e-002
2101:1.4648168679766586e-002
2102:1.8711189092518031e-002
2103:2.0962518327076154e-002
2104:2.2931613043365648e-003
2105:6.6420433856820404e-003
2106:1.1188123190325416e-002
2107:1.3830376086463829e-002
2108:-3.5998245318984816e-003
2109:9.7169043467295094e-004
2110:5.8353711484251201e-003
2111:8.7409687290907166e-003
2112:2.7521894073018235e-002
2113:2.8326275326276646e-002
2114:2.8333920785635531e-002
2115:2.7556092962854092e-002
2116:2.1863901947137825e-002
2117:2.3024246751322922e-002
2118:2.3517237107499662e-002
2119:2.3127579507995578e-002
2120:1.4947928108989704e-002
2121:1.6529656022040862e-002
2122:1.7604281129862526e-002
2123:1.7685602808285857e-002
2124:1.0005677585756517e-002
2125:1.1876710858524217e-002
2126:1.3355840859557775e-002
2127:1.3768961346197341e-002
2128:2.6869524080060610e-002
2129:2.5098741840611231e-002
2130:2.1858323409497268e-002
2131:1.8672440923186286e-002
2132:2.2654177297562247e-002
2133:2.1305462212697693e-002
2134:1.8664960721426260e-002
2135:1.5980267458482782e-002
2136:1.7472923416026524e-002
2137:1.6642952661117285e-002
2138:1.4743532180459554e-002
2139:1.2679982193099012e-002
2140:1.3741478883360811e-002
2141:1.3281742247755312e-002
2142:1.1913773140065184e-002
2143:1.0296961733272552e-002
2144:1.6731497784459270e-002
2145:1.2685066741697969e-002
2146:6.6408301247501108e-003
2147:1.4390315855196459e-003
2148:1.4323013568499484e-002
2149:1.0856964459114745e-002
2150:5.6730737053288290e-003
2151:1.2149538999167203e-003
2152:1.1374734331962229e-002
2153:8.6284267247840225e-003
2154:4.5099849483718375e-003
2155:9.7132969533937717e-004
2156:9.2451150005005110e-003
2157:7.0163497396929708e-003
2158:3.6624149014950307e-003
2159:7.8205920118106192e-004
2160:-1.1457291938272397e-002
2161:-5.4138744075074560e-002
2162:-1.0550952190840016e-001
2163:-1.4243887986991491e-001
2164:-1.0522403887155462e-002
2165:-4.8408611000583988e-002
2166:-9.6404137208783353e-002
2167:-1.3163964655000410e-001
2168:-9.5133557468667206e-003
2169:-4.3487841877067522e-002
2170:-8.7542300957081584e-002
2171:-1.1995617861990267e-001
2172:-8.8507351564506894e-003
2173:-4.0792262670033365e-002
2174:-8.1768546320722321e-002
2175:-1.1175111726780058e-001
2176:-1.6147430982875860e-001
2177:-1.9535187818832811e-001
2178:-2.3501319987708724e-001
2179:-2.6121707218030960e-001
2180:-1.4966873089099436e-001
2181:-1.8092420337004794e-001
2182:-2.1672918036274658e-001
2183:-2.4064332992819487e-001
2184:-1.3635715036299073e-001
2185:-1.6449949865813845e-001
2186:-1.9671391357638598e-001
2187:-2.1872715186901548e-001
2188:-1.2692904319697754e-001
2189:-1.5330682982406157e-001
2190:-1.8406678945610169e-001
2191:-2.0536650403238385e-001
2192:-2.7347217524687900e-001
2193:-2.9306516642023284e-001
2194:-3.1245636331458804e-001
2195:-3.2307373640876136e-001
2196:-2.5222258579097556e-001
2197:-2.7178327229864846e-001
2198:-2.9276417562832585e-001
2199:-3.0510120788816986e-001
2200:-2.2973002673218870e-001
2201:-2.4884465279180973e-001
2202:-2.7003753089425575e-001
2203:-2.8277384985703036e-001
2204:-2.1604403734426197e-001
2205:-2.3440650169707730e-001
2206:-2.5449067845278928e-001
2207:-2.6645934431798257e-001
2208:-3.2735802759111937e-001
2209:-3.3267828261841204e-001
2210:-3.3431853631419522e-001
2211:-3.3159121802090030e-001
2212:-3.1025247812959372e-001
2213:-3.1693493475670115e-001
2214:-3.2000297087138801e-001
2215:-3.1826515209862727e-001
2216:-2.8812857981250273e-001
2217:-2.9542959053716827e-001
2218:-2.9989351113447288e-001
2219:-2.9972957698538377e-001
2220:-2.7150308070135376e-001
2221:-2.7869606749165332e-001
2222:-2.8391715217850327e-001
2223:-2.8493960937646995e-001
2224:-3.2880347201089094e-001
2225:-3.2205539550748558e-001
2226:-3.1047499817544794e-001
2227:-2.9947083983665695e-001
2228:-3.1601005708449981e-001
2229:-3.1022095276280071e-001
2230:-2.9993496662303920e-001
2231:-2.9008855131089678e-001
2232:-2.9848181715194311e-001
2233:-2.9446682464924145e-001
2234:-2.8626132848424718e-001
2235:-2.7791042700961532e-001
2236:-2.8449495090553795e-001
2237:-2.8194376218537837e-001
2238:-2.7548211009477841e-001
2239:-2.6833134189645730e-001
2240:-2.9286880453983877e-001
2241:-2.7944718745707181e-001
2242:-2.6024708188651530e-001
2243:-2.4448723612945236e-001
2244:-2.8419942118532387e-001
2245:-2.7225396764003013e-001
2246:-2.5510712622483589e-001
2247:-2.4089588529108474e-001
2248:-2.7281406985303958e-001
2249:-2.6246863637051415e-001
2250:-2.4755781410975131e-001
2251:-2.3508596611987406e-001
2252:-2.6382902058088947e-001
2253:-2.5460794720231561e-001
2254:-2.4118983852543421e-001
2255:-2.2986931891896184e-001
2256:-2.3581727243548084e-001
2257:-2.1951664263454848e-001
2258:-1.9828962869708683e-001
2259:-1.8206536481126578e-001
2260:-2.3300436814312642e-001
2261:-2.1803456255497544e-001
2262:-1.9831064895449027e-001
2263:-1.8308325018449320e-001
2264:-2.2810043243378109e-001
2265:-2.1471265558978500e-001
2266:-1.9683187850830078e-001
2267:-1.8286952850960830e-001
2268:-2.2349342532126032e-001
2269:-2.1119284079276671e-001
2270:-1.9461977226095453e-001
2271:-1.8158454487687198e-001
2272:-1.7345614722657948e-001
2273:-1.5767343187807126e-001
2274:-1.3789114945848308e-001
2275:-1.2336583726497176e-001
2276:-1.7495674006004569e-001
2277:-1.5998589030033389e-001
2278:-1.4109040054784752e-001
2279:-1.2712525912022826e-001
2280:-1.7536999466646977e-001
2281:-1.6146857231480535e-001
2282:-1.4375948656345167e-001
2283:-1.3054917563827534e-001
2284:-1.7455421964359075e-001
2285:-1.6146759287365678e-001
2286:-1.4468411938091372e-001
2287:-1.3207382573092913e-001
2288:-1.1586195100806866e-001
2289:-1.0233745813643993e-001
2290:-8.5794988897634858e-002
2291:-7.3951226726456126e-002
2292:-1.1988194306182713e-001
2293:-1.0678819244951919e-001
2294:-9.0692340769917806e-002
2295:-7.9099328158715052e-002
2296:-1.2365625688257893e-001
2297:-1.1114609443111145e-001
2298:-9.5673785409135736e-002
2299:-8.4455439655062955e-002
2300:-1.2546150848024390e-001
2301:-1.1342006178933607e-001
2302:-9.8456502852586947e-002
2303:-8.7556152119396310e-002
2304:-6.7937128335775351e-002
2305:-5.7284822206853027e-002
2306:-4.4617929006824014e-002
2307:-3.5828173917855755e-002
2308:-7.3185963169247914e-002
2309:-6.2671023389281225e-002
2310:-5.0093667109143626e-002
2311:-4.1312711988433171e-002
2312:-7.8706047665826243e-002
2313:-6.8436968009184682e-002
2314:-5.6067334274079887e-002
2315:-4.7365820482473488e-002
2316:-8.1952783776553059e-002
2317:-7.1915667277522924e-002
2318:-5.9768027896424630e-002
2319:-5.1176482733688543e-002
2320:-3.1463175301086707e-002
2321:-2.3878893419304780e-002
2322:-1.5154571277343272e-002
2323:-9.3449283684454744e-003
2324:-3.6934321778641560e-002
2325:-2.9300860803337492e-002
2326:-2.0466317878715851e-002
2327:-1.4536396489243887e-002
2328:-4.3004204005198866e-002
2329:-3.5367554710754701e-002
2330:-2.6464513994202136e-002
2331:-2.0433929019400294e-002
2332:-4.6853101793382278e-002
2333:-3.9259224128422365e-002
2334:-3.0359374188506351e-002
2335:-2.4293169188684363e-002
2336:-6.5537193275440331e-003
2337:-1.8799406775047796e-003
2338:3.1342582863866744e-003
2339:6.1671956545105407e-003
2340:-1.1668504552306651e-002
2341:-6.8320150308517234e-003
2342:-1.5715703186882338e-003
2343:1.6742894459596893e-003
2344:-1.7495945006036028e-002
2345:-1.2502623410114945e-002
2346:-6.9906473031584966e-003
2347:-3.5175894272123876e-003
2348:-2.1323574455110787e-002
2349:-1.6251158185373208e-002
2350:-1.0598458098828568e-002
2351:-6.9893064433486580e-003
2352:7.5036764578064758e-003
2353:9.5167064426425144e-003
2354:1.1196223385436471e-002
2355:1.1775203356072850e-002
2356:3.1322543592919340e-003
2357:5.3879867531183567e-003
2358:7.4141732475017019e-003
2359:8.2828829167018482e-003
2360:-1.9268589307969916e-003
2361:5.9895343331013956e-004
2362:3.0192344308403057e-003
2363:4.2226929348306592e-003
2364:-5.3162695899552324e-003
2365:-2.6189885861187629e-003
2366:5.8237224816936746e-005
2367:1.4841811844102455e-003
2368:1.1840819997698766e-002
2369:1.1567769688247661e-002
2370:1.0468570067376353e-002
2371:9.0780734763971308e-003
2372:8.5119569497128459e-003
2373:8.5673994437871336e-003
2374:7.9421441107049538e-003
2375:6.9512848349010470e-003
2376:4.6421675926786986e-003
2377:5.0815889330078617e-003
2378:5.0122343810245626e-003
2379:4.4911673835727464e-003
2380:2.0313889524158340e-003
2381:2.7294682794449282e-003
2382:3.0360885782687867e-003
2383:2.8335744055976021e-003
2384:8.1546549122920239e-003
2385:6.1878954474233940e-003
2386:3.2202541703060718e-003
2387:6.7190280750211004e-004
2388:6.2547462983169435e-003
2389:4.7502351933443512e-003
2390:2.4625994839780345e-003
2391:4.9740744791038191e-004
2392:4.0614994908551158e-003
2393:3.0991692939263587e-003
2394:1.6054283242407273e-003
2395:3.1804946006041006e-004
2396:2.5849672880456217e-003
2397:1.9888986031670469e-003
2398:1.0277859894008319e-003
2399:1.9223350491164072e-004
2400:-8.5132792240315523e-003
2401:-3.9459855748104136e-002
2402:-7.8682848967665198e-002
2403:-1.0735197182210002e-001
2404:-7.7818071535266549e-003
2405:-3.6795969443661050e-002
2406:-7.2985723681459988e-002
2407:-9.9492502494105045e-002
2408:-6.7767288184513563e-003
2409:-3.3260538216586616e-002
2410:-6.6133524164376192e-002
2411:-9.0376235867680205e-002
2412:-6.1244533323451308e-003
2413:-3.0785437703788356e-002
2414:-6.1628531855279799e-002
2415:-8.4471869526208998e-002
2416:-1.2196346240045225e-001
2417:-1.4770473802052364e-001
2418:-1.7814619463497189e-001
2419:-1.9926893666612189e-001
2420:-1.1318325520905785e-001
2421:-1.3779078007340018e-001
2422:-1.6743426208627149e-001
2423:-1.8800203151721334e-001
2424:-1.0304379449941908e-001
2425:-1.2605489153467908e-001
2426:-1.5400190269458225e-001
2427:-1.7334685694121105e-001
2428:-9.6410936145851334e-002
2429:-1.1800064206424106e-001
2430:-1.4411122188084402e-001
2431:-1.6219273072516274e-001
2432:-2.0977457291382828e-001
2433:-2.2757926052557362e-001
2434:-2.4672346825711458e-001
2435:-2.5804854491710016e-001
2436:-1.9809287465995151e-001
2437:-2.1487500116597663e-001
2438:-2.3258790145589384e-001
2439:-2.4308720046663082e-001
2440:-1.8275714447267269e-001
2441:-1.9836060526195237e-001
2442:-2.1495018402320382e-001
2443:-2.2507671362132725e-001
2444:-1.7102753508045079e-001
2445:-1.8588275713338961e-001
2446:-2.0208229732684424e-001
2447:-2.1227482902747269e-001
2448:-2.6285224553455733e-001
2449:-2.6989254477971880e-001
2450:-2.7542354574667643e-001
2451:-2.7699242334292296e-001
2452:-2.4764787533172636e-001
2453:-2.5460383839879530e-001
2454:-2.6061651003243508e-001
2455:-2.6289204810428657e-001
2456:-2.2964856967385644e-001
2457:-2.3678885586268944e-001
2458:-2.4324659623570627e-001
2459:-2.4596254004362655e-001
2460:-2.1697502159647358e-001
2461:-2.2432395112390696e-001
2462:-2.3098122988383332e-001
2463:-2.3382226387331329e-001
2464:-2.7691817043638733e-001
2465:-2.7508220552819812e-001
2466:-2.6954119602605386e-001
2467:-2.6305897430047909e-001
2468:-2.6327825486322559e-001
2469:-2.6241104828193135e-001
2470:-2.5828200226197234e-001
2471:-2.5294670556410986e-001
2472:-2.4661119707445245e-001
2473:-2.4644071903534909e-001
2474:-2.4360378825441167e-001
2475:-2.3950382065871617e-001
2476:-2.3454403770383617e-001
2477:-2.3466572002607727e-001
2478:-2.3251488065949866e-001
2479:-2.2914863886298553e-001
2480:-2.5889245486342272e-001
2481:-2.5027562880214621e-001
2482:-2.3761052460260731e-001
2483:-2.2685101857202411e-001
2484:-2.4939671953382556e-001
2485:-2.4188669082771647e-001
2486:-2.3057818953765241e-001
2487:-2.2081140930930276e-001
2488:-2.3667565007092570e-001
2489:-2.3047617555212396e-001
2490:-2.2077882502692694e-001
2491:-2.1218913108088536e-001
2492:-2.2677103505680246e-001
2493:-2.2141095403424649e-001
2494:-2.1278152956465415e-001
2495:-2.0499692989863472e-001
2496:-2.2077070712445171e-001
2497:-2.0900421069030817e-001
2498:-1.9308710932984369e-001
2499:-1.8052605929333779e-001
2500:-2.1524868729258811e-001
2501:-2.0442286881716462e-001
2502:-1.8967101774335018e-001
2503:-1.7795612012991435e-001
2504:-2.0723864285827748e-001
2505:-1.9753680328920054e-001
2506:-1.8419405666188216e-001
2507:-1.7350717225928664e-001
2508:-2.0047293197642194e-001
2509:-1.9156490834674506e-001
2510:-1.7923078649768204e-001
2511:-1.6928328870636683e-001
2512:-1.7373859000359329e-001
2513:-1.6107947489054794e-001
2514:-1.4479134021083717e-001
2515:-1.3250813196062064e-001
2516:-1.7160237178740015e-001
2517:-1.5971041109544584e-001
2518:-1.4432206032416220e-001
2519:-1.3264485365565504e-001
2520:-1.6767981252295217e-001
2521:-1.5672241390857133e-001
2522:-1.4244552408590486e-001
2523:-1.3153638934181994e-001
2524:-1.6383384264024894e-001
2525:-1.5354804357863064e-001
2526:-1.4007744442044015e-001
2527:-1.2973707210284641e-001
2528:-1.2605037761133300e-001
2529:-1.1426731052852633e-001
2530:-9.9585515068113514e-002
2531:-8.8863832171006393e-002
2532:-1.2647878724116102e-001
2533:-1.1518862597010214e-001
2534:-1.0105202547305231e-001
2535:-9.0680495820498683e-002
2536:-1.2574942471303704e-001
2537:-1.1511153338251075e-001
2538:-1.0171378838505710e-001
2539:-9.1826581013630698e-002
2540:-1.2423677944020275e-001
2541:-1.1410134705066960e-001
2542:-1.0128715309150034e-001
2543:-9.1790815028064771e-002
2544:-8.3344025211583558e-002
2545:-7.3443370022194338e-002
2546:-6.1433670708460272e-002
2547:-5.2916835866006547e-002
2548:-8.5325618083507013e-002
2549:-7.5697697046284623e-002
2550:-6.3972059127263087e-002
2551:-5.5617768398684500e-002
2552:-8.6702216139453336e-002
2553:-7.7460956536266334e-002
2554:-6.6151888312076523e-002
2555:-5.8050512693345990e-002
2556:-8.6854620766652610e-002
2557:-7.7932712326497414e-002
2558:-6.6976802361911392e-002
2559:-5.9099150066514165e-002
2560:-4.8622414238755969e-002
2561:-4.1066733681312584e-002
2562:-3.2187649086378903e-002
2563:-2.6116699216818487e-002
2564:-5.1390709642191702e-002
2565:-4.3931958060795279e-002
2566:-3.5125568355642602e-002
2567:-2.9071647815356115e-002
2568:-5.3935348384420191e-002
2569:-4.6650171518214503e-002
2570:-3.8002290163414200e-002
2571:-3.2019782535524212e-002
2572:-5.5087258977491678e-002
2573:-4.7969582743995383e-002
2574:-3.9489935316695791e-002
2575:-3.3598369935823713e-002
2576:-2.3137831304123991e-002
2577:-1.8037374357334719e-002
2578:-1.2327642006553374e-002
2579:-8.6591805195901095e-003
2580:-2.6089063556197521e-002
2581:-2.0961153817250479e-002
2582:-1.5176262190425350e-002
2583:-1.1420244454539140e-002
2584:-2.9058315096413150e-002
2585:-2.3942466884844041e-002
2586:-1.8120534823652501e-002
2587:-1.4296157906625015e-002
2588:-3.0672225753009534e-002
2589:-2.5601113714138649e-002
2590:-1.9796465305967837e-002
2591:-1.5954382005473555e-002
2592:-6.9490819160046499e-003
2593:-4.1729701660285475e-003
2594:-1.3749868979170403e-003
2595:1.5712708510189579e-004
2596:-9.6530525553704689e-003
2597:-6.7524851443364307e-003
2598:-3.7588638237144355e-003
2599:-2.0515588147254058e-003
2600:-1.2478706260462819e-002
2601:-9.4614792377533223e-003
2602:-6.2729130053509018e-003
2603:-4.3837940138090189e-003
2604:-1.4116842817767485e-002
2605:-1.1044949645843405e-002
2606:-7.7526838189776416e-003
2607:-5.7595709373752906e-003
2608:7.6573191443969353e-004
2609:1.5885494691958858e-003
2610:2.0770663292317615e-003
2611:2.0289778874155672e-003
2612:-1.3407137264642018e-003
2613:-3.0926253573268617e-004
2614:4.8477327922093156e-004
2615:6.9671922013136869e-004
2616:-3.5647628393665914e-003
2617:-2.3106481824052170e-003
2618:-1.1879935438736833e-003
2619:-6.9510741081595204e-004
2620:-4.8766590046861943e-003
2621:-3.4894171716634559e-003
2622:-2.1681731966033029e-003
2623:-1.5045433428283184e-003
2624:1.8681758412816543e-003
2625:1.4490057686971350e-003
2626:7.4350189857676132e-004
2627:1.2348689950549682e-004
2628:6.8382946009885935e-004
2629:5.6114158532289402e-004
2630:2.8055061368916753e-004
2631:1.6050265136204869e-005
2632:-5.4811533552427563e-004
2633:-3.5349735886769682e-004
2634:-1.8669922058237333e-004
2635:-8.2851346233983212e-005
2636:-1.2603582245801347e-003
2637:-8.7565518773411420e-004
2638:-4.4745419553591511e-004
2639:-1.3386274502985487e-004
2640:-5.8668002425611510e-003
2641:-2.9628148097530112e-002
2642:-5.9557091035791293e-002
2643:-8.1736774968386716e-002
2644:-5.5695193315698915e-003
2645:-2.7688585684778860e-002
2646:-5.5862978298661950e-002
2647:-7.6763399615840805e-002
2648:-5.3647265001014700e-003
2649:-2.5416346563032485e-002
2650:-5.1170419512721534e-002
2651:-7.0321444383644613e-002
2652:-5.1790171820839661e-003
2653:-2.3712192827756752e-002
2654:-4.7529200211902198e-002
2655:-6.5297722396639404e-002
2656:-9.3284571876859360e-002
2657:-1.1402978676810840e-001
2658:-1.3899194268601048e-001
2659:-1.5631894866193960e-001
2660:-8.7581284015162852e-002
2661:-1.0683206514336337e-001
2662:-1.2985020196023592e-001
2663:-1.4592549405513427e-001
2664:-8.0213311525753742e-002
2665:-9.7754408747985008e-002
2666:-1.1873148631979982e-001
2667:-1.3350742818393646e-001
2668:-7.4511624637898746e-002
2669:-9.0932129121931340e-002
2670:-1.1069680184660843e-001
2671:-1.2468449805355489e-001
2672:-1.6484715336982189e-001
2673:-1.7936310017871362e-001
2674:-1.9546978070288148e-001
2675:-2.0574778306587607e-001
2676:-1.5394214082603414e-001
2677:-1.6782366811316501e-001
2678:-1.8356769061332420e-001
2679:-1.9376334549902771e-001
2680:-1.4095830032542170e-001
2681:-1.5396885364508181e-001
2682:-1.6885165914773689e-001
2683:-1.7851874867890835e-001
2684:-1.3174728142174605e-001
2685:-1.4403496312649924e-001
2686:-1.5801754348947866e-001
2687:-1.6706671686707047e-001
2688:-2.1051235292504419e-001
2689:-2.1794246101410766e-001
2690:-2.2465644096934440e-001
2691:-2.2754018922460140e-001
2692:-1.9850489172711658e-001
2693:-2.0590208143994657e-001
2694:-2.1264804793147590e-001
2695:-2.1566449876477803e-001
2696:-1.8300763800209302e-001
2697:-1.9008217436229810e-001
2698:-1.9674600325639488e-001
2699:-1.9997645166248582e-001
2700:-1.7126871874052946e-001
2701:-1.7797927877534009e-001
2702:-1.8450239828314047e-001
2703:-1.8785682442319590e-001
2704:-2.2829753947203629e-001
2705:-2.2855157627916528e-001
2706:-2.2669876843121176e-001
2707:-2.2364729657721893e-001
2708:-2.1654456880995526e-001
2709:-2.1710737195903254e-001
2710:-2.1579347624068382e-001
2711:-2.1324823369920842e-001
2712:-2.0106618955118696e-001
2713:-2.0206800476379483e-001
2714:-2.0138734405974831e-001
2715:-1.9937323338075599e-001
2716:-1.8908159153429968e-001
2717:-1.9035742988105273e-001
2718:-1.9006427054001043e-001
2719:-1.8838040966199243e-001
2720:-2.2146305577790734e-001
2721:-2.1647523404006871e-001
2722:-2.0834420777547438e-001
2723:-2.0095303476900600e-001
2724:-2.1136252150082507e-001
2725:-2.0696909262347371e-001
2726:-1.9967464142392299e-001
2727:-1.9296914898817019e-001
2728:-1.9778864267947685e-001
2729:-1.9402695478591933e-001
2730:-1.8767950630507801e-001
2731:-1.8177990704595917e-001
2732:-1.8698840052941343e-001
2733:-1.8364816569990505e-001
2734:-1.7795365671364391e-001
2735:-1.7261430678426418e-001
2736:-1.9664294060195600e-001
2737:-1.8813715481708340e-001
2738:-1.7631861906100502e-001
2739:-1.6675039718541296e-001
2740:-1.8903833240631165e-001
2741:-1.8124577507536030e-001
2742:-1.7034301599593241e-001
2743:-1.6145326504128443e-001
2744:-1.7830063687911099e-001
2745:-1.7135529097269966e-001
2746:-1.6154407542697913e-001
2747:-1.5347500654798971e-001
2748:-1.6944764771142667e-001
2749:-1.6308702578326284e-001
2750:-1.5403415835923609e-001
2751:-1.4654675620349969e-001
2752:-1.6149465516810041e-001
2753:-1.5155302878305868e-001
2754:-1.3849736053315179e-001
2755:-1.2845274368367632e-001
2756:-1.5654691432245865e-001
2757:-1.4723200785679805e-001
2758:-1.3494115251539307e-001
2759:-1.2544650408271910e-001
2760:-1.4899839641215298e-001
2761:-1.4046767840188687e-001
2762:-1.2915347047682352e-001
2763:-1.2037031014142638e-001
2764:-1.4238107703802669e-001
2765:-1.3442845567856290e-001
2766:-1.2384946049800580e-001
2767:-1.1560871815962424e-001
2768:-1.2310316683687170e-001
2769:-1.1323508897560663e-001
2770:-1.0073661045918189e-001
2771:-9.1454908372926413e-002
2772:-1.2037818684179379e-001
2773:-1.1101108423244256e-001
2774:-9.9109341742904603e-002
2775:-9.0238406161829196e-002
2776:-1.1566730677883877e-001
2777:-1.0695402270566841e-001
2778:-9.5840066131085727e-002
2779:-8.7521037498946228e-002
2780:-1.1118521029818719e-001
2781:-1.0297449239376812e-001
2782:-9.2472871598146017e-002
2783:-8.4590052323601422e-002
2784:-8.6622917329109927e-002
2785:-7.7879120256950957e-002
2786:-6.7123089868294766e-002
2787:-5.9374898327406382e-002
2788:-8.5608057243283991e-002
2789:-7.7212685433749012e-002
2790:-6.6854625524879141e-002
2791:-5.9369477119156799e-002
2792:-8.3165966858906148e-002
2793:-7.5253461657315557e-002
2794:-6.5459783300594029e-002
2795:-5.8356949823404995e-002
2796:-8.0455752035045083e-002
2797:-7.2935503239339172e-002
2798:-6.3608959755688296e-002
2799:-5.6828584403628826e-002
2800:-5.5424008617580067e-002
2801:-4.8407328952339915e-002
2802:-4.0033266200934024e-002
2803:-3.4202533929833731e-002
2804:-5.5544410269664085e-002
2805:-4.8738955969794648e-002
2806:-4.0591944841425594e-002
2807:-3.4897945741785154e-002
2808:-5.4717911504279668e-002
2809:-4.8229888721563675e-002
2810:-4.0435169861686500e-002
2811:-3.4963668199185713e-002
2812:-5.3348433513044267e-002
2813:-4.7135072364531246e-002
2814:-3.9652790986147109e-002
2815:-3.4385498922498377e-002
2816:-3.1301770140330726e-002
2817:-2.6266742282550038e-002
2818:-2.0487226733291491e-002
2819:-1.6647916081413042e-002
2820:-3.2056978017342169e-002
2821:-2.7112804890773196e-002
2822:-2.1411087952165966e-002
2823:-1.7600638774658076e-002
2824:-3.2224616722497650e-002
2825:-2.7444336604468298e-002
2826:-2.1903851285287115e-002
2827:-1.8176891287148021e-002
2828:-3.1742897829206577e-002
2829:-2.7122869267685087e-002
2830:-2.1751191842504930e-002
2831:-1.8122640127383165e-002
2832:-1.4806193309408156e-002
2833:-1.1717443807755218e-002
2834:-8.3860185999183098e-003
2835:-6.3499051401445300e-003
2836:-1.5763684990770278e-002
2837:-1.2666929831996920e-002
2838:-9.2927580798326855e-003
2839:-7.1994711735398559e-003
2840:-1.6370495658719834e-002
2841:-1.3308756236588792e-002
2842:-9.9377891480585748e-003
2843:-7.8149066689783518e-003
2844:-1.6357841960529040e-002
2845:-1.3356822005793825e-002
2846:-1.0032148564665340e-002
2847:-7.9199413873526289e-003
2848:-5.4396276890894373e-003
2849:-3.9946324921332505e-003
2850:-2.5863447739148406e-003
2851:-1.8474851711952464e-003
2852:-6.2504207300021824e-003
2853:-4.7217304388134920e-003
2854:-3.1848898687085506e-003
2855:-2.3337610399478490e-003
2856:-6.8392780931083794e-003
2857:-5.2481214027838858e-003
2858:-3.6086786688561330e-003
2859:-2.6646623536626850e-003
2860:-6.9416953930883912e-003
2861:-5.3368893917119112e-003
2862:-3.6658574600288698e-003
2863:-2.6889238215066134e-003
2864:-1.5604759301791921e-003
2865:-1.0932285836619386e-003
2866:-5.5441638249270045e-004
2867:-1.5455418149019041e-004
2868:-1.9827446125038738e-003
2869:-1.3946980988030053e-003
2870:-7.0044486239278234e-004
2871:-1.8508430823689704e-004
2872:-2.2603253037968818e-003
2873:-1.5779126522020128e-003
2874:-7.7823759471729774e-004
2875:-1.9939111222378299e-004
2876:-2.2651698782910658e-003
2877:-1.5556713855112807e-003
2878:-7.4556252350510912e-004
2879:-1.8157677172800970e-004
2880:-5.0189335429220040e-003
2881:-2.2772633346895596e-002
2882:-4.5543047717216088e-002
2883:-6.2569649822296014e-002
2884:-4.5888605304322183e-003
2885:-2.0988193282821806e-002
2886:-4.1922641697047590e-002
2887:-5.7611744778367453e-002
2888:-3.9094177823151832e-003
2889:-1.8684641762856263e-002
2890:-3.7437729585422796e-002
2891:-5.1477127562354952e-002
2892:-3.4224906931732062e-003
2893:-1.6986919552317351e-002
2894:-3.4167837186538166e-002
2895:-4.6992857893851644e-002
2896:-7.1435707836193241e-002
2897:-8.7319392831660542e-002
2898:-1.0653807205708550e-001
2899:-1.2015490145917257e-001
2900:-6.5828984758282152e-002
2901:-8.0665973586719175e-002
2902:-9.8753476745797722e-002
2903:-1.1158311622304790e-001
2904:-5.8846931378559279e-002
2905:-7.2210524470898943e-002
2906:-8.8568934753516335e-002
2907:-1.0017925708779427e-001
2908:-5.3708974682960403e-002
2909:-6.5861828244373505e-002
2910:-8.0715527738217371e-002
2911:-9.1265257324772531e-002
2912:-1.2701485665103024e-001
2913:-1.3889236473511099e-001
2914:-1.5233564370979696e-001
2915:-1.6102013937957613e-001
2916:-1.1802202351217313e-001
2917:-1.2910281157449466e-001
2918:-1.4157715427232156e-001
2919:-1.4964864711104686e-001
2920:-1.0599541248236134e-001
2921:-1.1599544599515983e-001
2922:-1.2728330505613075e-001
2923:-1.3465628261616885e-001
2924:-9.6561461149981459e-002
2925:-1.0570787687674414e-001
2926:-1.1611169321391802e-001
2927:-1.2296811553680971e-001
2928:-1.6506205492903295e-001
2929:-1.7156871405790386e-001
2930:-1.7799367455257264e-001
2931:-1.8137713993466473e-001
2932:-1.5343220464347393e-001
2933:-1.5958647743474183e-001
2934:-1.6577297524484597e-001
2935:-1.6910923182494592e-001
2936:-1.3815051194109082e-001
2937:-1.4385768099571908e-001
2938:-1.4961929612559755e-001
2939:-1.5273675810235843e-001
2940:-1.2623674193972512e-001
2941:-1.3156135203229544e-001
2942:-1.3690603823852135e-001
2943:-1.3977863089563561e-001
2944:-1.8264517314595219e-001
2945:-1.8401774121888997e-001
2946:-1.8388381160672126e-001
2947:-1.8235583684114035e-001
2948:-1.7038945147549134e-001
2949:-1.7184056258467120e-001
2950:-1.7192607976535562e-001
2951:-1.7066468634747467e-001
2952:-1.5393654125233963e-001
2953:-1.5534770985003102e-001
2954:-1.5560249548148913e-001
2955:-1.5463495104783070e-001
2956:-1.4088013230498633e-001
2957:-1.4220614338285154e-001
2958:-1.4253377888244376e-001
2959:-1.4174579820594008e-001
2960:-1.8106174729183439e-001
2961:-1.7793753798351156e-001
2962:-1.7257539586600684e-001
2963:-1.6751689436468142e-001
2964:-1.6954925570682600e-001
2965:-1.6681124500935940e-001
2966:-1.6203052817436522e-001
2967:-1.5745975272651622e-001
2968:-1.5372997472187033e-001
2969:-1.5143794306006692e-001
2970:-1.4732073167521942e-001
2971:-1.4331306966957874e-001
2972:-1.4097328287182509e-001
2973:-1.3896207370827798e-001
2974:-1.3527309444679697e-001
2975:-1.3164613361560762e-001
2976:-1.6450488864725357e-001
2977:-1.5843335009087026e-001
2978:-1.4975852996688663e-001
2979:-1.4256598497369469e-001
2980:-1.5471699847127790e-001
2981:-1.4915844196104511e-001
2982:-1.4117094397121041e-001
2983:-1.3452290544780957e-001
2984:-1.4088740467227384e-001
2985:-1.3595387628318081e-001
2986:-1.2883495845230497e-001
2987:-1.2288791831339986e-001
2988:-1.2944350440123134e-001
2989:-1.2496538964675498e-001
2990:-1.1849969207215907e-001
2991:-1.1308635884617052e-001
2992:-1.3856032561828621e-001
2993:-1.3090883470635520e-001
2994:-1.2071786224677399e-001
2995:-1.1276567936526852e-001
2996:-1.3081430963972088e-001
2997:-1.2372249618517407e-001
2998:-1.1425531992856090e-001
2999:-1.0684499005321119e-001
3000:-1.1956302787971823e-001
3001:-1.1319452679058496e-001
3002:-1.0466787687860135e-001
3003:-9.7969694668454468e-002
3004:-1.1005348926227501e-001
3005:-1.0423616427101576e-001
3006:-9.6431435232192719e-002
3007:-9.0287070598042002e-002
3008:-1.0849123366309857e-001
3009:-1.0054951054143839e-001
3010:-9.0378190395686453e-002
3011:-8.2733195197377152e-002
3012:-1.0285229062327762e-001
3013:-9.5423420832116704e-002
3014:-8.5889552431226618e-002
3015:-7.8708480684665669e-002
3016:-9.4351479552810022e-002
3017:-8.7612806440695801e-002
3018:-7.8950818149479796e-002
3019:-7.2412553247468148e-002
3020:-8.6963571867454043e-002
3021:-8.0773870201513817e-002
3022:-7.2814275485951638e-002
3023:-6.6798743804068278e-002
3024:-7.8720322714282975e-002
3025:-7.1417369764423963e-002
3026:-6.2352237674118419e-002
3027:-5.5754118777794133e-002
3028:-7.4933889386699995e-002
3029:-6.8058986518420170e-002
3030:-5.9512192534145546e-002
3031:-5.3278452905341514e-002
3032:-6.8970279497937048e-002
3033:-6.2695402434986836e-002
3034:-5.4881865009287552e-002
3035:-4.9169619417494190e-002
3036:-6.3627893656144199e-002
3037:-5.7845462370443870e-002
3038:-5.0639035878802356e-002
3039:-4.5363300402325543e-002
3040:-5.2364367853956408e-002
3041:-4.6308456423367159e-002
3042:-3.9007788599771547e-002
3043:-3.3861393529776941e-002
3044:-5.0070666882526614e-002
3045:-4.4334226559317652e-002
3046:-3.7407056278169946e-002
3047:-3.2513269009817429e-002
3048:-4.6224735112045418e-002
3049:-4.0954370406521758e-002
3050:-3.4580663510015215e-002
3051:-3.0067826673338606e-002
3052:-4.2640355486006039e-002
3053:-3.7766331449554429e-002
3054:-3.1868557202777592e-002
3055:-2.7687280036589448e-002
3056:-3.1276779468279697e-002
3057:-2.6754524524636329e-002
3058:-2.1488820866580213e-002
3059:-1.7924794183854856e-002
3060:-3.0051292190180424e-002
3061:-2.5738071303014295e-002
3062:-2.0703695683413924e-002
3063:-1.7284926480674645e-002
3064:-2.7793196528522850e-002
3065:-2.3803128796924523e-002
3066:-1.9134461412921033e-002
3067:-1.5952692428793359e-002
3068:-2.5577119352077501e-002
3069:-2.1873179216531161e-002
3070:-1.7533470211708077e-002
3071:-1.4569469476408805e-002
3072:-1.6188511478159449e-002
3073:-1.3231656378607621e-002
3074:-9.9468859806602361e-003
3075:-7.8519260470645749e-003
3076:-1.5614783517594320e-002
3077:-1.2764166955299602e-002
3078:-9.5841536481278619e-003
3079:-7.5440244635897593e-003
3080:-1.4393610554675494e-002
3081:-1.1727130194613456e-002
3082:-8.7413975970017706e-003
3083:-6.8156354498297694e-003
3084:-1.3114324394865354e-002
3085:-1.0623303344883804e-002
3086:-7.8293629747843100e-003
3087:-6.0227109060775217e-003
3088:-6.8784201249982848e-003
3089:-5.2780546742974364e-003
3090:-3.6060452263854846e-003
3091:-2.6242802684403928e-003
3092:-6.5912536692074534e-003
3093:-5.0214223877561078e-003
3094:-3.3764780402474135e-003
3095:-2.4076694528805645e-003
3096:-5.9122951489501349e-003
3097:-4.4235130764631219e-003
3098:-2.8659068528639909e-003
3099:-1.9523315371334218e-003
3100:-5.1735139564453502e-003
3101:-3.7761183665130085e-003
3102:-2.3209699119535456e-003
3103:-1.4747450172556975e-003
3104:-2.1972450422120780e-003
3105:-1.4882779845218955e-003
3106:-6.9606406821750872e-004
3107:-1.6131585594331691e-004
3108:-1.9862458373317527e-003
3109:-1.3023835942046597e-003
3110:-5.8046040527063301e-004
3111:-1.3357452012116076e-004
3112:-1.5581771559982681e-003
3113:-9.4628528259774506e-004
3114:-3.7307273474302088e-004
3115:-9.0659089371326272e-005
3116:-1.1140360027593723e-003
3117:-5.8037656609080397e-004
3118:-1.5189711634028001e-004
3119:-2.0899164039816264e-005
3120:-3.2115110757279068e-003
3121:-1.6115014328363889e-002
3122:-3.2466093826999179e-002
3123:-4.4650673998917055e-002
3124:-2.8983201896249683e-003
3125:-1.4436242221962598e-002
3126:-2.9093769679421087e-002
3127:-4.0009967658281520e-002
3128:-2.5394429357039777e-003
3129:-1.2089242427726214e-002
3130:-2.4275222438214120e-002
3131:-3.3386673724560702e-002
3132:-2.2029664622165443e-003
3133:-1.0123657261697111e-002
3134:-2.0246677344859607e-002
3135:-2.7856352872753939e-002
3136:-5.1015415547543339e-002
3137:-6.2496803688146571e-002
3138:-7.6495312006089347e-002
3139:-8.6445228175133074e-002
3140:-4.5697658439972984e-002
3141:-5.5905951407719506e-002
3142:-6.8301762004782107e-002
3143:-7.7126492297058619e-002
3144:-3.8142190720514321e-002
3145:-4.6647196858799166e-002
3146:-5.6944753254335359e-002
3147:-6.4290130935032441e-002
3148:-3.1848878353969629e-002
3149:-3.8993357119853328e-002
3150:-4.7647284128284721e-002
3151:-5.3826948203550135e-002
3152:-9.1454043504046137e-002
3153:-1.0013730712989218e-001
3154:-1.1006445955152649e-001
3155:-1.1663142163694216e-001
3156:-8.1590210847883204e-002
3157:-8.9366804068488043e-002
3158:-9.8308173056477877e-002
3159:-1.0424131766044784e-001
3160:-6.8020915097927778e-002
3161:-7.4525375489784274e-002
3162:-8.1999970440103945e-002
3163:-8.6949426982947539e-002
3164:-5.6967479141051776e-002
3165:-6.2418494866845795e-002
3166:-6.8643453204954921e-002
3167:-7.2748818875829138e-002
3168:-1.1976527081021342e-001
3169:-1.2485653683577753e-001
3170:-1.2994655972589986e-001
3171:-1.3267530924738488e-001
3172:-1.0707178416945110e-001
3173:-1.1165632629603338e-001
3174:-1.1622723397791548e-001
3175:-1.1868433626230381e-001
3176:-8.9305025225373591e-002
3177:-9.3121735989510790e-002
3178:-9.6943525871495337e-002
3179:-9.9024154495609723e-002
3180:-7.4701599055333121e-002
3181:-7.7875432434161521e-002
3182:-8.1072586540928762e-002
3183:-8.2827366421547713e-002
3184:-1.3372286582499612e-001
3185:-1.3500037065122800e-001
3186:-1.3535586253851348e-001
3187:-1.3464606288750466e-001
3188:-1.1963666516646450e-001
3189:-1.2082108531385799e-001
3190:-1.2120209219754666e-001
3191:-1.2060682236305832e-001
3192:-9.9845118047819495e-002
3193:-1.0087653465605578e-001
3194:-1.0122635701293121e-001
3195:-1.0072941168396880e-001
3196:-8.3524127703104439e-002
3197:-8.4389605713064489e-002
3198:-8.4657340125754904e-002
3199:-8.4207627024645224e-002
3200:-1.3393084616450313e-001
3201:-1.3204416645079856e-001
3202:-1.2855538604245578e-001
3203:-1.2511676541000510e-001
3204:-1.1998077257415046e-001
3205:-1.1830721700405046e-001
3206:-1.1519083853007821e-001
3207:-1.1211482230362917e-001
3208:-1.0019763789843975e-001
3209:-9.8787258971320721e-002
3210:-9.6176166123944695e-002
3211:-9.3602834624375700e-002
3212:-8.3742616571107251e-002
3213:-8.2540694693441288e-002
3214:-8.0346229787560147e-002
3215:-7.8184894173591118e-002
3216:-1.2302854688362144e-001
3217:-1.1878873909814799e-001
3218:-1.1267002083653191e-001
3219:-1.0754134113719817e-001
3220:-1.1024813167608798e-001
3221:-1.0646596909977087e-001
3222:-1.0100970854019235e-001
3223:-9.6425242108587245e-002
3224:-9.2041405770287341e-002
3225:-8.8881706913701994e-002
3226:-8.4320461370648844e-002
3227:-8.0475434472948415e-002
3228:-7.6869831185096174e-002
3229:-7.4208010537421196e-002
3230:-7.0361979604401576e-002
3231:-6.7113620884468428e-002
3232:-1.0466396297160863e-001
3233:-9.9140749125248964e-002
3234:-9.1723748967187199e-002
3235:-8.5879643437310263e-002
3236:-9.3846574523379411e-002
3237:-8.8894072266707563e-002
3238:-8.2238481811121908e-002
3239:-7.6988457165943200e-002
3240:-7.8306676624569832e-002
3241:-7.4147780146098935e-002
3242:-6.8565670938683668e-002
3243:-6.4158910808701008e-002
3244:-6.5279355636825062e-002
3245:-6.1774236710510938e-002
3246:-5.7083843267963966e-002
3247:-5.3379300263974319e-002
3248:-8.2717156431104555e-002
3249:-7.6829003129855161e-002
3250:-6.9257600228448291e-002
3251:-6.3532198809657853e-002
3252:-7.4145307356625223e-002
3253:-6.8855068782327181e-002
3254:-6.2053700910286724e-002
3255:-5.6904862380376058e-002
3256:-6.1769409187156073e-002
3257:-5.7328033693563499e-002
3258:-5.1620836634240344e-002
3259:-4.7293900428915278e-002
3260:-5.1367133696204707e-002
3261:-4.7631798141885180e-002
3262:-4.2836383896215476e-002
3263:-3.9197041677310515e-002
3264:-6.0512286894163825e-002
3265:-5.5004582471446274e-002
3266:-4.8138809278562532e-002
3267:-4.3109671736653060e-002
3268:-5.4185571360295830e-002
3269:-4.9227172200806080e-002
3270:-4.3046332966469682e-002
3271:-3.8515484975292315e-002
3272:-4.5004709658847286e-002
3273:-4.0835713163888177e-002
3274:-3.5644935109071026e-002
3275:-3.1837717374850832e-002
3276:-3.7269015674314100e-002
3277:-3.3764819514235690e-002
3278:-2.9410576089669217e-002
3279:-2.6216122231340830e-002
3280:-4.0512740779002347e-002
3281:-3.5864563684740586e-002
3282:-3.0239433260657578e-002
3283:-2.6249174593889341e-002
3284:-3.6173890715208913e-002
3285:-3.1983911238118633e-002
3286:-2.6913240308399845e-002
3287:-2.3312811083954214e-002
3288:-2.9867780302062868e-002
3289:-2.6345622091740475e-002
3290:-2.2085415360693420e-002
3291:-1.9057340410228066e-002
3292:-2.4561161944379354e-002
3293:-2.1605599075812054e-002
3294:-1.8034775264835701e-002
3295:-1.5495414522092698e-002
3296:-2.4234154023556484e-002
3297:-2.0696465808609493e-002
3298:-1.6549452653675748e-002
3299:-1.3714374444596646e-002
3300:-2.1492564795379716e-002
3301:-1.8296487130388984e-002
3302:-1.4547961971241141e-002
3303:-1.1981599733910725e-002
3304:-1.7524208133815708e-002
3305:-1.4833742267019546e-002
3306:-1.1679052591048279e-002
3307:-9.5164340715015536e-003
3308:-1.4208256004898822e-002
3309:-1.1952148341148218e-002
3310:-9.3098761700417445e-003
3311:-7.4974668669054723e-003
3312:-1.2321304477315526e-002
3313:-9.9358890771661587e-003
3314:-7.2590646227595696e-003
3315:-5.5266528805150454e-003
3316:-1.0718711816865510e-002
3317:-8.5557597593752688e-003
3318:-6.1275984622194976e-003
3319:-4.5545212146077992e-003
3320:-8.4503574119168413e-003
3321:-6.6249694130399552e-003
3322:-4.5764502176332943e-003
3323:-3.2486192174076617e-003
3324:-6.6027521228738907e-003
3325:-5.0716926799695408e-003
3326:-3.3548364576752305e-003
3327:-2.2417745785095408e-003
3328:-4.7118056091677799e-003
3329:-3.3727715247293885e-003
3330:-1.9834669824385157e-003
3331:-1.1806709694826909e-003
3332:-3.8140329504367174e-003
3333:-2.6013193117533800e-003
3334:-1.3542585722582628e-003
3335:-6.4509564892688514e-004
3336:-2.6232805105885198e-003
3337:-1.6055911879673704e-003
3338:-5.7665407272891806e-004
3339:-9.9771614911408041e-006
3340:-1.7174120893337684e-003
3341:-8.6991513613853672e-004
3342:-2.9490545392152356e-005
3343:4.1548936772230823e-004
3344:-8.4140515958429363e-004
3345:-3.5550342573769994e-004
3346:-1.1050037369547744e-005
3347:3.4375524135887092e-005
3348:-3.5178853696839950e-004
3349:3.6375003707717594e-005
3350:2.1867677741867298e-004
3351:1.0547303661446486e-004
3352:2.1427585050133743e-004
3353:4.6667574010109759e-004
3354:4.4686517561950658e-004
3355:1.5106249931239881e-004
3356:5.8176492546882399e-004
3357:7.3070441017240764e-004
3358:5.7933252710599134e-004
3359:1.8002716669897451e-004
3360:-1.9718630133585191e-003
3361:-9.0028385483781077e-003
3362:-1.7976932053050131e-002
3363:-2.4742432692717139e-002
3364:-1.4397421972477981e-003
3365:-6.7497812196165956e-003
3366:-1.3476063854298906e-002
3367:-1.8556866347306477e-002
3368:-6.7532295204495612e-004
3369:-3.5288220678448895e-003
3370:-7.0587349850879675e-003
3371:-9.7202449026032034e-003
3372:-1.4800916454811523e-004
3373:-8.5684312202434618e-004
3374:-1.6571516561036882e-003
3375:-2.2756915408480038e-003
3376:-2.8306469916640185e-002
3377:-3.4695303906077439e-002
3378:-4.2444773507180664e-002
3379:-4.7980373907985652e-002
3380:-2.1249862593378906e-002
3381:-2.6083057896560190e-002
3382:-3.1951532940677062e-002
3383:-3.6149757106596368e-002
3384:-1.1143528906751871e-002
3385:-1.3668922859661420e-002
3386:-1.6705602207701089e-002
3387:-1.8895014746826911e-002
3388:-2.6265287884708970e-003
3389:-3.1770359194281984e-003
3390:-3.7618521997047987e-003
3391:-4.2144965531130917e-003
3392:-5.0791100257074923e-002
3393:-5.5648640361928854e-002
3394:-6.1167428780484118e-002
3395:-6.4800504427756214e-002
3396:-3.8282205073937432e-002
3397:-4.1940077500724836e-002
3398:-4.6062232735864808e-002
3399:-4.8775792330157844e-002
3400:-2.0022284034085572e-002
3401:-2.1936778052816724e-002
3402:-2.4072522083200362e-002
3403:-2.5489117108444325e-002
3404:-4.4812357746103057e-003
3405:-4.9186944550707575e-003
3406:-5.3832657179500630e-003
3407:-5.7005325183829792e-003
3408:-6.6531321210167055e-002
3409:-6.9350769021495964e-002
3410:-7.2197287884585779e-002
3411:-7.3758839730316050e-002
3412:-5.0076242526257989e-002
3413:-5.2196284881263946e-002
3414:-5.4329869017512446e-002
3415:-5.5487682327614724e-002
3416:-2.6178780182703944e-002
3417:-2.7289187941028768e-002
3418:-2.8377586834909558e-002
3419:-2.8949943983651492e-002
3420:-5.8643294106400399e-003
3421:-6.1020123790513194e-003
3422:-6.2988120785968911e-003
3423:-6.3982912129787869e-003
3424:-7.4376060180918482e-002
3425:-7.5130240500141693e-002
3426:-7.5334077896454577e-002
3427:-7.4904941930364469e-002
3428:-5.5937536109730755e-002
3429:-5.6470990548944021e-002
3430:-5.6574098740140952e-002
3431:-5.6214076119444706e-002
3432:-2.9167186485764784e-002
3433:-2.9425145465817377e-002
3434:-2.9464555007142023e-002
3435:-2.9261361231350709e-002
3436:-6.4443362305032321e-003
3437:-6.5274665140188292e-003
3438:-6.5869396590265156e-003
3439:-6.5543087478834687e-003
3440:-7.4477687144386920e-002
3441:-7.3395212785390643e-002
3442:-7.1437505274022303e-002
3443:-6.9506644801405074e-002
3444:-5.5875805322242240e-002
3445:-5.5045535606492869e-002
3446:-5.3563722061948198e-002
3447:-5.2093510599801995e-002
3448:-2.9072318305331593e-002
3449:-2.8623221413451166e-002
3450:-2.7829678576710971e-002
3451:-2.7029722380163466e-002
3452:-6.5004507286561038e-003
3453:-6.3790119313778130e-003
3454:-6.1694838821628479e-003
3455:-5.9481977765735890e-003
3456:-6.8327705539019679e-002
3457:-6.5940491065546780e-002
3458:-6.2490346573972032e-002
3459:-5.9574826573429704e-002
3460:-5.1188976589908404e-002
3461:-4.9364707237055841e-002
3462:-4.6736732155477828e-002
3463:-4.4512939897124938e-002
3464:-2.6531824150810162e-002
3465:-2.5556905369282491e-002
3466:-2.4181327063501207e-002
3467:-2.3005425617655107e-002
3468:-5.8080648527386938e-003
3469:-5.5865438030787704e-003
3470:-5.3215823265635662e-003
3471:-5.0657997624556630e-003
3472:-5.7928398208143599e-002
3473:-5.4791570589905796e-002
3474:-5.0604420834431930e-002
3475:-4.7295936717593509e-002
3476:-4.3254887936407367e-002
3477:-4.0873420507233076e-002
3478:-3.7710376839120659e-002
3479:-3.5205390228258929e-002
3480:-2.2329696624381813e-002
3481:-2.1069477984819292e-002
3482:-1.9413470651152179e-002
3483:-1.8088446999711013e-002
3484:-4.8959304946806694e-003
3485:-4.6033057074295163e-003
3486:-4.2419286205424818e-003
3487:-3.9311643700820787e-003
3488:-4.5496286044361303e-002
3489:-4.2158806194368480e-002
3490:-3.7878131527553829e-002
3491:-3.4628011701144414e-002
3492:-3.3837108197714259e-002
3493:-3.1309452320552697e-002
3494:-2.8079113530040382e-002
3495:-2.5623284960255701e-002
3496:-1.7354954403861162e-002
3497:-1.6021988584875031e-002
3498:-1.4342610743337302e-002
3499:-1.3056843169475352e-002
3500:-3.7448634905907193e-003
3501:-3.4423430203584337e-003
3502:-3.0984927179784727e-003
3503:-2.8159607510337779e-003
3504:-3.2904869719016863e-002
3505:-2.9778120232386060e-002
3506:-2.5899136639555169e-002
3507:-2.3052873988701976e-002
3508:-2.4317655429328889e-002
3509:-2.1957953816977582e-002
3510:-1.9041691398619932e-002
3511:-1.6899437030487723e-002
3512:-1.2364069400872570e-002
3513:-1.1126178760026419e-002
3514:-9.6124024570040708e-003
3515:-8.4937741390949170e-003
3516:-2.6464287182314974e-003
3517:-2.3637187785973965e-003
3518:-2.0411243064664538e-003
3519:-1.7911802557825591e-003
3520:-2.1576875867130713e-002
3521:-1.8943445918609744e-002
3522:-1.5765147869493422e-002
3523:-1.3504630717154761e-002
3524:-1.5785161235972619e-002
3525:-1.3803168138219636e-002
3526:-1.1418911018444633e-002
3527:-9.7222000605780689e-003
3528:-7.9054157897968449e-003
3529:-6.8705882692195316e-003
3530:-5.6397583655301486e-003
3531:-4.7601627544810914e-003
3532:-1.6493045967180011e-003
3533:-1.4180541413368435e-003
3534:-1.1637609756074880e-003
3535:-9.7362701158498614e-004
3536:-1.2358053307740846e-002
3537:-1.0350449212845515e-002
3538:-8.0018323227999920e-003
3539:-6.3905475677146191e-003
3540:-8.8596079208863917e-003
3541:-7.3532316787486797e-003
3542:-5.5961328480626654e-003
3543:-4.3901236252061526e-003
3544:-4.3081389789759268e-003
3545:-3.5246549995969602e-003
3546:-2.6188382635604227e-003
3547:-1.9961622394237019e-003
3548:-8.6696877508000915e-004
3549:-6.9025925504524678e-004
3550:-4.9762961222884626e-004
3551:-3.6364358478238465e-004
3552:-5.5944021963455007e-003
3553:-4.2326611416655556e-003
3554:-2.7065314522677188e-003
3555:-1.7168730388388773e-003
3556:-3.7928711383291413e-003
3557:-2.7729054432770240e-003
3558:-1.6313865169939614e-003
3559:-8.8974935958106242e-004
3560:-1.6856640427631408e-003
3561:-1.1587886541048144e-003
3562:-5.7162830889208088e-004
3563:-1.8601606055000070e-004
3564:-2.9368500795709746e-004
3565:-1.8072858881728433e-004
3566:-5.8711528386796815e-005
3567:2.9041650561528675e-005
3568:-1.2504585260236884e-003
3569:-5.0016790367653143e-004
3570:2.3368108189033749e-004
3571:6.1085288390632937e-004
3572:-5.3926507927391592e-004
3573:1.8849695503791548e-005
3574:5.4892745944428226e-004
3575:8.0426017218353598e-004
3576:-9.1839503016623947e-007
3577:2.8817499705556776e-004
3578:5.4843422425999966e-004
3579:6.6016514584985508e-004
3580:7.6463235351697945e-005
3581:1.4580173805509467e-004
3582:1.9815021240467311e-004
3583:2.1408843557126422e-004
3584:7.4542851805112296e-004
3585:8.4249485599658021e-004
3586:6.3560415130158748e-004
3587:2.0052147311913648e-004
3588:8.8593485800315063e-004
3589:9.1068739165023132e-004
3590:6.5557183696344167e-004
3591:2.1157901549193227e-004
3592:6.8891067095980252e-004
3593:6.7175333508109219e-004
3594:4.6126014577585299e-004
3595:1.1247768519472542e-004
3596:2.1610210805744976e-004
3597:2.0677536718177603e-004
3598:1.0589819763179962e-004
3599:-9.8532803405914439e-005
3600:0.0000000000000000e+000
3601:0.0000000000000000e+000
3602:0.0000000000000000e+000
3603:0.0000000000000000e+000
3604:0.0000000000000000e+000
3605:0.0000000000000000e+000
3606:0.0000000000000000e+000
3607:0.0000000000000000e+000
3608:0.0000000000000000e+000
3609:0.0000000000000000e+000
3610:0.0000000000000000e+000
3611:0.0000000000000000e+000
3612:0.0000000000000000e+000
3613:0.0000000000000000e+000
3614:0.0000000000000000e+000
3615:0.0000000000000000e+000
3616:0.0000000000000000e+000
3617:0.0000000000000000e+000
3618:0.0000000000000000e+000
3619:0.0000000000000000e+000
3620:0.0000000000000000e+000
3621:0.0000000000000000e+000
3622:0.0000000000000000e+000
3623:0.0000000000000000e+000
3624:0.0000000000000000e+000
3625:0.0000000000000000e+000
3626:0.0000000000000000e+000
3627:0.0000000000000000e+000
3628:0.0000000000000000e+000
3629:0.0000000000000000e+000
3630:0.0000000000000000e+000
3631:0.0000000000000000e+000
3632:0.0000000000000000e+000
3633:0.0000000000000000e+000
3634:0.0000000000000000e+000
3635:0.0000000000000000e+000
3636:0.0000000000000000e+000
3637:0.0000000000000000e+000
3638:0.0000000000000000e+000
3639:0.0000000000000000e+000
3640:0.0000000000000000e+000
3641:0.0000000000000000e+000
3642:0.0000000000000000e+000
3643:0.0000000000000000e+000
3644:0.0000000000000000e+000
3645:0.0000000000000000e+000
3646:0.0000000000000000e+000
3647:0.0000000000000000e+000
3648:0.0000000000000000e+000
3649:0.0000000000000000e+000
3650:0.0000000000000000e+000
3651:0.0000000000000000e+000
3652:0.0000000000000000e+000
3653:0.0000000000000000e+000
3654:0.0000000000000000e+000
3655:0.0000000000000000e+000
3656:0.0000000000000000e+000
3657:0.0000000000000000e+000
3658:0.0000000000000000e+000
3659:0.0000000000000000e+000
3660:0.0000000000000000e+000
3661:0.0000000000000000e+000
3662:0.0000000000000000e+000
3663:0.0000000000000000e+000
3664:0.0000000000000000e+000
3665:0.0000000000000000e+000
3666:0.0000000000000000e+000
3667:0.0000000000000000e+000
3668:0.0000000000000000e+000
3669:0.0000000000000000e+000
3670:0.0000000000000000e+000
3671:0.0000000000000000e+000
3672:0.0000000000000000e+000
3673:0.0000000000000000e+000
3674:0.0000000000000000e+000
3675:0.0000000000000000e+000
3676:0.0000000000000000e+000
3677:0.0000000000000000e+000
3678:0.0000000000000000e+000
3679:0.0000000000000000e+000
3680:0.0000000000000000e+000
3681:0.0000000000000000e+000
3682:0.0000000000000000e+000
3683:0.0000000000000000e+000
3684:0.0000000000000000e+000
3685:0.0000000000000000e+000
3686:0.0000000000000000e+000
3687:0.0000000000000000e+000
3688:0.0000000000000000e+000
3689:0.0000000000000000e+000
3690:0.0000000000000000e+000
3691:0.0000000000000000e+000
3692:0.0000000000000000e+000
3693:0.0000000000000000e+000
3694:0.0000000000000000e+000
3695:0.0000000000000000e+000
3696:0.0000000000000000e+000
3697:0.0000000000000000e+000
3698:0.0000000000000000e+000
3699:0.0000000000000000e+000
3700:0.0000000000000000e+000
3701:0.0000000000000000e+000
3702:0.0000000000000000e+000
3703:0.0000000000000000e+000
3704:0.0000000000000000e+000
3705:0.0000000000000000e+000
3706:0.0000000000000000e+000
3707:0.0000000000000000e+000
3708:0.0000000000000000e+000
3709:0.0000000000000000e+000
3710:0.0000000000000000e+000
3711:0.0000000000000000e+000
3712:0.0000000000000000e+000
3713:0.0000000000000000e+000
3714:0.0000000000000000e+000
3715:0.0000000000000000e+000
3716:0.0000000000000000e+000
3717:0.0000000000000000e+000
3718:0.0000000000000000e+000
3719:0.0000000000000000e+000
3720:0.0000000000000000e+000
3721:0.0000000000000000e+000
3722:0.0000000000000000e+000
3723:0.0000000000000000e+000
3724:0.0000000000000000e+000
3725:0.0000000000000000e+000
3726:0.0000000000000000e+000
3727:0.0000000000000000e+000
3728:0.0000000000000000e+000
3729:0.0000000000000000e+000
3730:0.0000000000000000e+000
3731:0.0000000000000000e+000
3732:0.0000000000000000e+000
3733:0.0000000000000000e+000
3734:0.0000000000000000e+000
3735:0.0000000000000000e+000
3736:0.0000000000000000e+000
3737:0.0000000000000000e+000
3738:0.0000000000000000e+000
3739:0.0000000000000000e+000
3740:0.0000000000000000e+000
3741:0.0000000000000000e+000
3742:0.0000000000000000e+000
3743:0.0000000000000000e+000
3744:0.0000000000000000e+000
3745:0.0000000000000000e+000
3746:0.0000000000000000e+000
3747:0.0000000000000000e+000
3748:0.0000000000000000e+000
3749:0.0000000000000000e+000
3750:0.0000000000000000e+000
3751:0.0000000000000000e+000
3752:0.0000000000000000e+000
3753:0.0000000000000000e+000
3754:0.0000000000000000e+000
3755:0.0000000000000000e+000
3756:0.0000000000000000e+000
3757:0.0000000000000000e+000
3758:0.0000000000000000e+000
3759:0.0000000000000000e+000
3760:0.0000000000000000e+000
3761:0.0000000000000000e+000
3762:0.0000000000000000e+000
3763:0.0000000000000000e+000
3764:0.0000000000000000e+000
3765:0.0000000000000000e+000
3766:0.0000000000000000e+000
3767:0.0000000000000000e+000
3768:0.0000000000000000e+000
3769:0.0000000000000000e+000
3770:0.0000000000000000e+000
3771:0.0000000000000000e+000
3772:0.0000000000000000e+000
3773:0.0000000000000000e+000
3774:0.0000000000000000e+000
3775:0.0000000000000000e+000
3776:0.0000000000000000e+000
3777:0.0000000000000000e+000
3778:0.0000000000000000e+000
3779:0.0000000000000000e+000
3780:0.0000000000000000e+000
3781:0.0000000000000000e+000
3782:0.0000000000000000e+000
3783:0.0000000000000000e+000
3784:0.0000000000000000e+000
3785:0.0000000000000000e+000
3786:0.0000000000000000e+000
3787:0.0000000000000000e+000
3788:0.0000000000000000e+000
3789:0.0000000000000000e+000
3790:0.0000000000000000e+000
3791:0.0000000000000000e+000
3792:0.0000000000000000e+000
3793:0.0000000000000000e+000
3794:0.0000000000000000e+000
3795:0.0000000000000000e+000
3796:0.0000000000000000e+000
3797:0.0000000000000000e+000
3798:0.0000000000000000e+000
3799:0.0000000000000000e+000
3800:0.0000000000000000e+000
3801:0.0000000000000000e+000
3802:0.0000000000000000e+000
3803:0.0000000000000000e+000
3804:0.0000000000000000e+000
3805:0.0000000000000000e+000
3806:0.0000000000000000e+000
3807:0.0000000000000000e+000
3808:0.0000000000000000e+000
3809:0.0000000000000000e+000
3810:0.0000000000000000e+000
3811:0.0000000000000000e+000
3812:0.0000000000000000e+000
3813:0.0000000000000000e+000
3814:0.0000000000000000e+000
3815:0.0000000000000000e+000
3816:0.0000000000000000e+000
3817:0.0000000000000000e+000
3818:0.0000000000000000e+000
3819:0.0000000000000000e+000
3820:0.0000000000000000e+000
3821:0.0000000000000000e+000
3822:0.0000000000000000e+000
3823:0.0000000000000000e+000
3824:0.0000000000000000e+000
3825:0.0000000000000000e+000
3826:0.0000000000000000e+000
3827:0.0000000000000000e+000
3828:0.0000000000000000e+000
3829:0.0000000000000000e+000
3830:0.0000000000000000e+000
3831:0.0000000000000000e+000
3832:0.0000000000000000e+000
3833:0.0000000000000000e+000
3834:0.0000000000000000e+000
3835:0.0000000000000000e+000
3836:0.0000000000000000e+000
3837:0.0000000000000000e+000
3838:0.0000000000000000e+000
3839:0.0000000000000000e+000
3840:0.0000000000000000e+000
3841:0.0000000000000000e+000
3842:0.0000000000000000e+000
3843:0.0000000000000000e+000
3844:0.0000000000000000e+000
3845:0.0000000000000000e+000
3846:0.0000000000000000e+000
3847:0.0000000000000000e+000
3848:0.0000000000000000e+000
3849:0.0000000000000000e+000
3850:0.0000000000000000e+000
3851:0.0000000000000000e+000
3852:0.0000000000000000e+000
3853:0.0000000000000000e+000
3854:0.0000000000000000e+000
3855:0.0000000000000000e+000
3856:0.0000000000000000e+000
3857:0.0000000000000000e+000
3858:0.0000000000000000e+000
3859:0.0000000000000000e+000
3860:0.0000000000000000e+000
3861:0.0000000000000000e+000
3862:0.0000000000000000e+000
3863:0.0000000000000000e+000
3864:0.0000000000000000e+000
3865:0.0000000000000000e+000
3866:0.0000000000000000e+000
3867:0.0000000000000000e+000
3868:0.0000000000000000e+000
3869:0.0000000000000000e+000
3870:0.0000000000000000e+000
3871:0.0000000000000000e+000
3872:0.0000000000000000e+000
3873:0.0000000000000000e+000
3874:0.0000000000000000e+000
3875:0.0000000000000000e+000
3876:0.0000000000000000e+000
3877:0.0000000000000000e+000
3878:0.0000000000000000e+000
3879:0.0000000000000000e+000
3880:0.0000000000000000e+000
3881:0.0000000000000000e+000
3882:0.0000000000000000e+000
3883:0.0000000000000000e+000
3884:0.0000000000000000e+000
3885:0.0000000000000000e+000
3886:0.0000000000000000e+000
3887:0.0000000000000000e+000
3888:0.0000000000000000e+000
3889:0.0000000000000000e+000
3890:0.0000000000000000e+000
3891:0.0000000000000000e+000
3892:0.0000000000000000e+000
3893:0.0000000000000000e+000
3894:0.0000000000000000e+000
3895:0.0000000000000000e+000
3896:0.0000000000000000e+000
3897:0.0000000000000000e+000
3898:0.0000000000000000e+000
3899:0.0000000000000000e+000
3900:0.0000000000000000e+000
3901:0.0000000000000000e+000
3902:0.0000000000000000e+000
3903:0.0000000000000000e+000
3904:0.0000000000000000e+000
3905:0.0000000000000000e+000
3906:0.0000000000000000e+000
3907:0.0000000000000000e+000
3908:0.0000000000000000e+000
3909:0.0000000000000000e+000
3910:0.0000000000000000e+000
3911:0.0000000000000000e+000
3912:0.0000000000000000e+000
3913:0.0000000000000000e+000
3914:0.0000000000000000e+000
3915:0.0000000000000000e+000
3916:0.0000000000000000e+000
3917:0.0000000000000000e+000
3918:0.0000000000000000e+000
3919:0.0000000000000000e+000
3920:0.0000000000000000e+000
3921:0.0000000000000000e+000
3922:0.0000000000000000e+000
3923:0.0000000000000000e+000
3924:0.0000000000000000e+000
3925:0.0000000000000000e+000
3926:0.0000000000000000e+000
3927:0.0000000000000000e+000
3928:0.0000000000000000e+000
3929:0.0000000000000000e+000
3930:0.0000000000000000e+000
3931:0.0000000000000000e+000
3932:0.0000000000000000e+000
3933:0.0000000000000000e+000
3934:0.0000000000000000e+000
3935:0.0000000000000000e+000
3936:0.0000000000000000e+000
3937:0.0000000000000000e+000
3938:0.0000000000000000e+000
3939:0.0000000000000000e+000
3940:0.0000000000000000e+000
3941:0.0000000000000000e+000
3942:0.0000000000000000e+000
3943:0.0000000000000000e+000
3944:0.0000000000000000e+000
3945:0.0000000000000000e+000
3946:0.0000000000000000e+000
3947:0.0000000000000000e+000
3948:0.0000000000000000e+000
3949:0.0000000000000000e+000
3950:0.0000000000000000e+000
3951:0.0000000000000000e+000
3952:0.0000000000000000e+000
3953:0.0000000000000000e+000
3954:0.0000000000000000e+000
3955:0.0000000000000000e+000
3956:0.0000000000000000e+000
3957:0.0000000000000000e+000
3958:0.0000000000000000e+000
3959:0.0000000000000000e+000
3960:0.0000000000000000e+000
3961:0.0000000000000000e+000
3962:0.0000000000000000e+000
3963:0.0000000000000000e+000
3964:0.0000000000000000e+000
3965:0.0000000000000000e+000
3966:0.0000000000000000e+000
3967:0.0000000000000000e+000
3968:0.0000000000000000e+000
3969:0.0000000000000000e+000
3970:0.0000000000000000e+000
3971:0.0000000000000000e+000
3972:0.0000000000000000e+000
3973:0.0000000000000000e+000
3974:0.0000000000000000e+000
3975:0.0000000000000000e+000
3976:0.0000000000000000e+000
3977:0.0000000000000000e+000
3978:0.0000000000000000e+000
3979:0.0000000000000000e+000
3980:0.0000000000000000e+000
3981:0.0000000000000000e+000
3982:0.0000000000000000e+000
3983:0.0000000000000000e+000
3984:0.0000000000000000e+000
3985:0.0000000000000000e+000
3986:0.0000000000000000e+000
3987:0.0000000000000000e+000
3988:0.0000000000000000e+000
3989:0.0000000000000000e+000
3990:0.0000000000000000e+000
3991:0.0000000000000000e+000
3992:0.0000000000000000e+000
3993:0.0000000000000000e+000
3994:0.0000000000000000e+000
3995:0.0000000000000000e+000
3996:0.0000000000000000e+000
3997:0.0000000000000000e+000
3998:0.0000000000000000e+000
3999:0.0000000000000000e+000
4000:0.0000000000000000e+000
4001:0.0000000000000000e+000
4002:0.0000000000000000e+000
4003:0.0000000000000000e+000
4004:0.0000000000000000e+000
4005:0.0000000000000000e+000
4006:0.0000000000000000e+000
4007:0.0000000000000000e+000
4008:0.0000000000000000e+000
4009:0.0000000000000000e+000
4010:0.0000000000000000e+000
4011:0.0000000000000000e+000
4012:0.0000000000000000e+000
4013:0.0000000000000000e+000
4014:0.0000000000000000e+000
4015:0.0000000000000000e+000
4016:0.0000000000000000e+000
4017:0.0000000000000000e+000
4018:0.0000000000000000e+000
4019:0.0000000000000000e+000
4020:0.0000000000000000e+000
4021:0.0000000000000000e+000
4022:0.0000000000000000e+000
4023:0.0000000000000000e+000
4024:0.0000000000000000e+000
4025:0.0000000000000000e+000
4026:0.0000000000000000e+000
4027:0.0000000000000000e+000
4028:0.0000000000000000e+000
4029:0.0000000000000000e+000
4030:0.0000000000000000e+000
4031:0.0000000000000000e+000
4032:0.0000000000000000e+000
4033:0.0000000000000000e+000
4034:0.0000000000000000e+000
4035:0.0000000000000000e+000
4036:0.0000000000000000e+000
4037:0.0000000000000000e+000
4038:0.0000000000000000e+000
4039:0.0000000000000000e+000
4040:0.0000000000000000e+000
4041:0.0000000000000000e+000
4042:0.0000000000000000e+000
4043:0.0000000000000000e+000
4044:0.0000000000000000e+000
4045:0.0000000000000000e+000
4046:0.0000000000000000e+000
4047:0.0000000000000000e+000
4048:0.0000000000000000e+000
4049:0.0000000000000000e+000
4050:0.0000000000000000e+000
4051:0.0000000000000000e+000
4052:0.0000000000000000e+000
4053:0.0000000000000000e+000
4054:0.0000000000000000e+000
4055:0.0000000000000000e+000
4056:0.0000000000000000e+000
4057:0.0000000000000000e+000
4058:0.0000000000000000e+000
4059:0.0000000000000000e+000
4060:0.0000000000000000e+000
4061:0.0000000000000000e+000
4062:0.0000000000000000e+000
4063:0.0000000000000000e+000
4064:0.0000000000000000e+000
4065:0.0000000000000000e+000
4066:0.0000000000000000e+000
4067:0.0000000000000000e+000
4068:0.0000000000000000e+000
4069:0.0000000000000000e+000
4070:0.0000000000000000e+000
4071:0.0000000000000000e+000
4072:0.0000000000000000e+000
4073:0.0000000000000000e+000
4074:0.0000000000000000e+000
4075:0.0000000000000000e+000
4076:0.0000000000000000e+000
4077:0.0000000000000000e+000
4078:0.0000000000000000e+000
4079:0.0000000000000000e+000
4080:0.0000000000000000e+000
4081:0.0000000000000000e+000
4082:0.0000000000000000e+000
4083:0.0000000000000000e+000
4084:0.0000000000000000e+000
4085:0.0000000000000000e+000
4086:0.0000000000000000e+000
4087:0.0000000000000000e+000
4088:0.0000000000000000e+000
4089:0.0000000000000000e+000
4090:0.0000000000000000e+000
4091:0.0000000000000000e+000
4092:0.0000000000000000e+000
4093:0.0000000000000000e+000
4094:0.0000000000000000e+000
4095:0.0000000000000000e+000
4096:0.0000000000000000e+000
4097:0.0000000000000000e+000
4098:0.0000000000000000e+000
4099:0.0000000000000000e+000
4100:0.0000000000000000e+000
4101:0.0000000000000000e+000
4102:0.0000000000000000e+000
4103:0.0000000000000000e+000
4104:0.0000000000000000e+000
4105:0.0000000000000000e+000
4106:0.0000000000000000e+000
4107:0.0000000000000000e+000
4108:0.0000000000000000e+000
4109:0.0000000000000000e+000
4110:0.0000000000000000e+000
4111:0.0000000000000000e+000
4112:0.0000000000000000e+000
4113:0.0000000000000000e+000
4114:0.0000000000000000e+000
4115:0.0000000000000000e+000
4116:0.0000000000000000e+000
4117:0.0000000000000000e+000
4118:0.0000000000000000e+000
4119:0.0000000000000000e+000
4120:0.0000000000000000e+000
4121:0.0000000000000000e+000
4122:0.0000000000000000e+000
4123:0.0000000000000000e+000
4124:0.0000000000000000e+000
4125:0.0000000000000000e+000
4126:0.0000000000000000e+000
4127:0.0000000000000000e+000
4128:0.0000000000000000e+000
4129:0.0000000000000000e+000
4130:0.0000000000000000e+000
4131:0.0000000000000000e+000
4132:0.0000000000000000e+000
4133:0.0000000000000000e+000
4134:0.0000000000000000e+000
4135:0.0000000000000000e+000
4136:0.0000000000000000e+000
4137:0.0000000000000000e+000
4138:0.0000000000000000e+000
4139:0.0000000000000000e+000
4140:0.0000000000000000e+000
4141:0.0000000000000000e+000
4142:0.0000000000000000e+000
4143:0.0000000000000000e+000
4144:0.0000000000000000e+000
4145:0.0000000000000000e+000
4146:0.0000000000000000e+000
4147:0.0000000000000000e+000
4148:0.0000000000000000e+000
4149:0.0000000000000000e+000
4150:0.0000000000000000e+000
4151:0.0000000000000000e+000
4152:0.0000000000000000e+000
4153:0.0000000000000000e+000
4154:0.0000000000000000e+000
4155:0.0000000000000000e+000
4156:0.0000000000000000e+000
4157:0.0000000000000000e+000
4158:0.0000000000000000e+000
4159:0.0000000000000000e+000
4160:0.0000000000000000e+000
4161:0.0000000000000000e+000
4162:0.0000000000000000e+000
4163:0.0000000000000000e+000
4164:0.0000000000000000e+000
4165:0.0000000000000000e+000
4166:0.0000000000000000e+000
4167:0.0000000000000000e+000
4168:0.0000000000000000e+000
4169:0.0000000000000000e+000
4170:0.0000000000000000e+000
4171:0.0000000000000000e+000
4172:0.0000000000000000e+000
4173:0.0000000000000000e+000
4174:0.0000000000000000e+000
4175:0.0000000000000000e+000
4176:0.0000000000000000e+000
4177:0.0000000000000000e+000
4178:0.0000000000000000e+000
4179:0.0000000000000000e+000
4180:0.0000000000000000e+000
4181:0.0000000000000000e+000
4182:0.0000000000000000e+000
4183:0.0000000000000000e+000
4184:0.0000000000000000e+000
4185:0.0000000000000000e+000
4186:0.0000000000000000e+000
4187:0.0000000000000000e+000
4188:0.0000000000000000e+000
4189:0.0000000000000000e+000
4190:0.0000000000000000e+000
4191:0.0000000000000000e+000
4192:0.0000000000000000e+000
4193:0.0000000000000000e+000
4194:0.0000000000000000e+000
4195:0.0000000000000000e+000
4196:0.0000000000000000e+000
4197:0.0000000000000000e+000
4198:0.0000000000000000e+000
4199:0.0000000000000000e+000
4200:0.0000000000000000e+000
4201:0.0000000000000000e+000
4202:0.0000000000000000e+000
4203:0.0000000000000000e+000
4204:0.0000000000000000e+000
4205:0.0000000000000000e+000
4206:0.0000000000000000e+000
4207:0.0000000000000000e+000
4208:0.0000000000000000e+000
4209:0.0000000000000000e+000
4210:0.0000000000000000e+000
4211:0.0000000000000000e+000
4212:0.0000000000000000e+000
4213:0.0000000000000000e+000
4214:0.0000000000000000e+000
4215:0.0000000000000000e+000
4216:0.0000000000000000e+000
4217:0.0000000000000000e+000
4218:0.0000000000000000e+000
4219:0.0000000000000000e+000
4220:0.0000000000000000e+000
4221:0.0000000000000000e+000
4222:0.0000000000000000e+000
4223:0.0000000000000000e+000
4224:0.0000000000000000e+000
4225:0.0000000000000000e+000
4226:0.0000000000000000e+000
4227:0.0000000000000000e+000
4228:0.0000000000000000e+000
4229:0.0000000000000000e+000
4230:0.0000000000000000e+000
4231:0.0000000000000000e+000
4232:0.0000000000000000e+000
4233:0.0000000000000000e+000
4234:0.0000000000000000e+000
4235:0.0000000000000000e+000
4236:0.0000000000000000e+000
4237:0.0000000000000000e+000
4238:0.0000000000000000e+000
4239:0.0000000000000000e+000
4240:0.0000000000000000e+000
4241:0.0000000000000000e+000
4242:0.0000000000000000e+000
4243:0.0000000000000000e+000
4244:0.0000000000000000e+000
4245:0.0000000000000000e+000
4246:0.0000000000000000e+000
4247:0.0000000000000000e+000
4248:0.0000000000000000e+000
4249:0.0000000000000000e+000
4250:0.0000000000000000e+000
4251:0.0000000000000000e+000
4252:0.0000000000000000e+000
4253:0.0000000000000000e+000
4254:0.0000000000000000e+000
4255:0.0000000000000000e+000
4256:0.0000000000000000e+000
4257:0.0000000000000000e+000
4258:0.0000000000000000e+000
4259:0.0000000000000000e+000
4260:0.0000000000000000e+000
4261:0.0000000000000000e+000
4262:0.0000000000000000e+000
4263:0.0000000000000000e+000
4264:0.0000000000000000e+000
4265:0.0000000000000000e+000
4266:0.0000000000000000e+000
4267:0.0000000000000000e+000
4268:0.0000000000000000e+000
4269:0.0000000000000000e+000
4270:0.0000000000000000e+000
4271:0.0000000000000000e+000
4272:0.0000000000000000e+000
4273:0.0000000000000000e+000
4274:0.0000000000000000e+000
4275:0.0000000000000000e+000
4276:0.0000000000000000e+000
4277:0.0000000000000000e+000
4278:0.0000000000000000e+000
4279:0.0000000000000000e+000
4280:0.0000000000000000e+000
4281:0.0000000000000000e+000
4282:0.0000000000000000e+000
4283:0.0000000000000000e+000
4284:0.0000000000000000e+000
4285:0.0000000000000000e+000
4286:0.0000000000000000e+000
4287:0.0000000000000000e+000
4288:0.0000000000000000e+000
4289:0.0000000000000000e+000
4290:0.0000000000000000e+000
4291:0.0000000000000000e+000
4292:0.0000000000000000e+000
4293:0.0000000000000000e+000
4294:0.0000000000000000e+000
4295:0.0000000000000000e+000
4296:0.0000000000000000e+000
4297:0.0000000000000000e+000
4298:0.0000000000000000e+000
4299:0.0000000000000000e+000
4300:0.0000000000000000e+000
4301:0.0000000000000000e+000
4302:0.0000000000000000e+000
4303:0.0000000000000000e+000
4304:0.0000000000000000e+000
4305:0.0000000000000000e+000
4306:0.0000000000000000e+000
4307:0.0000000000000000e+000
4308:0.0000000000000000e+000
4309:0.0000000000000000e+000
4310:0.0000000000000000e+000
4311:0.0000000000000000e+000
4312:0.0000000000000000e+000
4313:0.0000000000000000e+000
4314:0.0000000000000000e+000
4315:0.0000000000000000e+000
4316:0.0000000000000000e+000
4317:0.0000000000000000e+000
4318:0.0000000000000000e+000
4319:0.0000000000000000e+000
4320:0.0000000000000000e+000
4321:0.0000000000000000e+000
4322:0.0000000000000000e+000
4323:0.0000000000000000e+000
4324:0.0000000000000000e+000
4325:0.0000000000000000e+000
4326:0.0000000000000000e+000
4327:0.0000000000000000e+000
4328:0.0000000000000000e+000
4329:0.0000000000000000e+000
4330:0.0000000000000000e+000
4331:0.0000000000000000e+000
4332:0.0000000000000000e+000
4333:0.0000000000000000e+000
4334:0.0000000000000000e+000
4335:0.0000000000000000e+000
4336:0.0000000000000000e+000
4337:0.0000000000000000e+000
4338:0.0000000000000000e+000
4339:0.0000000000000000e+000
4340:0.0000000000000000e+000
4341:0.0000000000000000e+000
4342:0.0000000000000000e+000
4343:0.0000000000000000e+000
4344:0.0000000000000000e+000
4345:0.0000000000000000e+000
4346:0.0000000000000000e+000
4347:0.0000000000000000e+000
4348:0.0000000000000000e+000
4349:0.0000000000000000e+000
4350:0.0000000000000000e+000
4351:0.0000000000000000e+000
4352:0.0000000000000000e+000
4353:0.0000000000000000e+000
4354:0.0000000000000000e+000
4355:0.0000000000000000e+000
4356:0.0000000000000000e+000
4357:0.0000000000000000e+000
4358:0.0000000000000000e+000
4359:0.0000000000000000e+000
4360:0.0000000000000000e+000
4361:0.0000000000000000e+000
4362:0.0000000000000000e+000
4363:0.0000000000000000e+000
4364:0.0000000000000000e+000
4365:0.0000000000000000e+000
4366:0.0000000000000000e+000
4367:0.0000000000000000e+000
4368:0.0000000000000000e+000
4369:0.0000000000000000e+000
4370:0.0000000000000000e+000
4371:0.0000000000000000e+000
4372:0.0000000000000000e+000
4373:0.0000000000000000e+000
4374:0.0000000000000000e+000
4375:0.0000000000000000e+000
4376:0.0000000000000000e+000
4377:0.0000000000000000e+000
4378:0.0000000000000000e+000
4379:0.0000000000000000e+000
4380:0.0000000000000000e+000
4381:0.0000000000000000e+000
4382:0.0000000000000000e+000
4383:0.0000000000000000e+000
4384:0.0000000000000000e+000
4385:0.0000000000000000e+000
4386:0.0000000000000000e+000
4387:0.0000000000000000e+000
4388:0.0000000000000000e+000
4389:0.0000000000000000e+000
4390:0.0000000000000000e+000
4391:0.0000000000000000e+000
4392:0.0000000000000000e+000
4393:0.0000000000000000e+000
4394:0.0000000000000000e+000
4395:0.0000000000000000e+000
4396:0.0000000000000000e+000
4397:0.0000000000000000e+000
4398:0.0000000000000000e+000
4399:0.0000000000000000e+000
4400:0.0000000000000000e+000
4401:0.0000000000000000e+000
4402:0.0000000000000000e+000
4403:0.0000000000000000e+000
4404:0.0000000000000000e+000
4405:0.0000000000000000e+000
4406:0.0000000000000000e+000
4407:0.0000000000000000e+000
4408:0.0000000000000000e+000
4409:0.0000000000000000e+000
4410:0.0000000000000000e+000
4411:0.0000000000000000e+000
4412:0.0000000000000000e+000
4413:0.0000000000000000e+000
4414:0.0000000000000000e+000
4415:0.0000000000000000e+000
4416:0.0000000000000000e+000
4417:0.0000000000000000e+000
4418:0.0000000000000000e+000
4419:0.0000000000000000e+000
4420:0.0000000000000000e+000
4421:0.0000000000000000e+000
4422:0.0000000000000000e+000
4423:0.0000000000000000e+000
4424:0.0000000000000000e+000
4425:0.0000000000000000e+000
4426:0.0000000000000000e+000
4427:0.0000000000000000e+000
4428:0.0000000000000000e+000
4429:0.0000000000000000e+000
4430:0.0000000000000000e+000
4431:0.0000000000000000e+000
4432:0.0000000000000000e+000
4433:0.0000000000000000e+000
4434:0.0000000000000000e+000
4435:0.0000000000000000e+000
4436:0.0000000000000000e+000
4437:0.0000000000000000e+000
4438:0.0000000000000000e+000
4439:0.0000000000000000e+000
4440:0.0000000000000000e+000
4441:0.0000000000000000e+000
4442:0.0000000000000000e+000
4443:0.0000000000000000e+000
4444:0.0000000000000000e+000
4445:0.0000000000000000e+000
4446:0.0000000000000000e+000
4447:0.0000000000000000e+000
4448:0.0000000000000000e+000
4449:0.0000000000000000e+000
4450:0.0000000000000000e+000
4451:0.0000000000000000e+000
4452:0.0000000000000000e+000
4453:0.0000000000000000e+000
4454:0.0000000000000000e+000
4455:0.0000000000000000e+000
4456:0.0000000000000000e+000
4457:0.0000000000000000e+000
4458:0.0000000000000000e+000
4459:0.0000000000000000e+000
4460:0.0000000000000000e+000
4461:0.0000000000000000e+000
4462:0.0000000000000000e+000
4463:0.0000000000000000e+000
4464:0.0000000000000000e+000
4465:0.0000000000000000e+000
4466:0.0000000000000000e+000
4467:0.0000000000000000e+000
4468:0.0000000000000000e+000
4469:0.0000000000000000e+000
4470:0.0000000000000000e+000
4471:0.0000000000000000e+000
4472:0.0000000000000000e+000
4473:0.0000000000000000e+000
4474:0.0000000000000000e+000
4475:0.0000000000000000e+000
4476:0.0000000000000000e+000
4477:0.0000000000000000e+000
4478:0.0000000000000000e+000
4479:0.0000000000000000e+000
4480:0.0000000000000000e+000
4481:0.0000000000000000e+000
4482:0.0000000000000000e+000
4483:0.0000000000000000e+000
4484:0.0000000000000000e+000
4485:0.0000000000000000e+000
4486:0.0000000000000000e+000
4487:0.0000000000000000e+000
4488:0.0000000000000000e+000
4489:0.0000000000000000e+000
4490:0.0000000000000000e+000
4491:0.0000000000000000e+000
4492:0.0000000000000000e+000
4493:0.0000000000000000e+000
4494:0.0000000000000000e+000
4495:0.0000000000000000e+000
4496:0.0000000000000000e+000
4497:0.0000000000000000e+000
4498:0.0000000000000000e+000
4499:0.0000000000000000e+000
4500:0.0000000000000000e+000
4501:0.0000000000000000e+000
4502:0.0000000000000000e+000
4503:0.0000000000000000e+000
4504:0.0000000000000000e+000
4505:0.0000000000000000e+000
4506:0.0000000000000000e+000
4507:0.0000000000000000e+000
4508:0.0000000000000000e+000
4509:0.0000000000000000e+000
4510:0.0000000000000000e+000
4511:0.0000000000000000e+000
4512:0.0000000000000000e+000
4513:0.0000000000000000e+000
4514:0.0000000000000000e+000
4515:0.0000000000000000e+000
4516:0.0000000000000000e+000
4517:0.0000000000000000e+000
4518:0.0000000000000000e+000
4519:0.0000000000000000e+000
4520:0.0000000000000000e+000
4521:0.0000000000000000e+000
4522:0.0000000000000000e+000
4523:0.0000000000000000e+000
4524:0.0000000000000000e+000
4525:0.0000000000000000e+000
4526:0.0000000000000000e+000
4527:0.0000000000000000e+000
4528:0.0000000000000000e+000
4529:0.0000000000000000e+000
4530:0.0000000000000000e+000
4531:0.0000000000000000e+000
4532:0.0000000000000000e+000
4533:0.0000000000000000e+000
4534:0.0000000000000000e+000
4535:0.0000000000000000e+000
4536:0.0000000000000000e+000
4537:0.0000000000000000e+000
4538:0.0000000000000000e+000
4539:0.0000000000000000e+000
4540:0.0000000000000000e+000
4541:0.0000000000000000e+000
4542:0.0000000000000000e+000
4543:0.0000000000000000e+000
4544:0.0000000000000000e+000
4545:0.0000000000000000e+000
4546:0.0000000000000000e+000
4547:0.0000000000000000e+000
4548:0.0000000000000000e+000
4549:0.0000000000000000e+000
4550:0.0000000000000000e+000
4551:0.0000000000000000e+000
4552:0.0000000000000000e+000
4553:0.0000000000000000e+000
4554:0.0000000000000000e+000
4555:0.0000000000000000e+000
4556:0.0000000000000000e+000
4557:0.0000000000000000e+000
4558:0.0000000000000000e+000
4559:0.0000000000000000e+000
4560:0.0000000000000000e+000
4561:0.0000000000000000e+000
4562:0.0000000000000000e+000
4563:0.0000000000000000e+000
4564:0.0000000000000000e+000
4565:0.0000000000000000e+000
4566:0.0000000000000000e+000
4567:0.0000000000000000e+000
4568:0.0000000000000000e+000
4569:0.0000000000000000e+000
4570:0.0000000000000000e+000
4571:0.0000000000000000e+000
4572:0.0000000000000000e+000
4573:0.0000000000000000e+000
4574:0.0000000000000000e+000
4575:0.0000000000000000e+000
4576:0.0000000000000000e+000
4577:0.0000000000000000e+000
4578:0.0000000000000000e+000
4579:0.0000000000000000e+000
4580:0.0000000000000000e+000
4581:0.0000000000000000e+000
4582:0.0000000000000000e+000
4583:0.0000000000000000e+000
4584:0.0000000000000000e+000
4585:0.0000000000000000e+000
4586:0.0000000000000000e+000
4587:0.0000000000000000e+000
4588:0.0000000000000000e+000
4589:0.0000000000000000e+000
4590:0.0000000000000000e+000
4591:0.0000000000000000e+000
4592:0.0000000000000000e+000
4593:0.0000000000000000e+000
4594:0.0000000000000000e+000
4595:0.0000000000000000e+000
4596:0.0000000000000000e+000
4597:0.0000000000000000e+000
4598:0.0000000000000000e+000
4599:0.0000000000000000e+000
4600:0.0000000000000000e+000
4601:0.0000000000000000e+000
4602:0.0000000000000000e+000
4603:0.0000000000000000e+000
4604:0.0000000000000000e+000
4605:0.0000000000000000e+000
4606:0.0000000000000000e+000
4607:0.0000000000000000e+000
4608:0.0000000000000000e+000
4609:0.0000000000000000e+000
4610:0.0000000000000000e+000
4611:0.0000000000000000e+000
4612:0.0000000000000000e+000
4613:0.0000000000000000e+000
4614:0.0000000000000000e+000
4615:0.0000000000000000e+000
4616:0.0000000000000000e+000
4617:0.0000000000000000e+000
4618:0.0000000000000000e+000
4619:0.0000000000000000e+000
4620:0.0000000000000000e+000
4621:0.0000000000000000e+000
4622:0.0000000000000000e+000
4623:0.0000000000000000e+000
4624:0.0000000000000000e+000
4625:0.0000000000000000e+000
4626:0.0000000000000000e+000
4627:0.0000000000000000e+000
4628:0.0000000000000000e+000
4629:0.0000000000000000e+000
4630:0.0000000000000000e+000
4631:0.0000000000000000e+000
4632:0.0000000000000000e+000
4633:0.0000000000000000e+000
4634:0.0000000000000000e+000
4635:0.0000000000000000e+000
4636:0.0000000000000000e+000
4637:0.0000000000000000e+000
4638:0.0000000000000000e+000
4639:0.0000000000000000e+000
4640:0.0000000000000000e+000
4641:0.0000000000000000e+000
4642:0.0000000000000000e+000
4643:0.0000000000000000e+000
4644:0.0000000000000000e+000
4645:0.0000000000000000e+000
4646:0.0000000000000000e+000
4647:0.0000000000000000e+000
4648:0.0000000000000000e+000
4649:0.0000000000000000e+000
4650:0.0000000000000000e+000
4651:0.0000000000000000e+000
4652:0.0000000000000000e+000
4653:0.0000000000000000e+000
4654:0.0000000000000000e+000
4655:0.0000000000000000e+000
4656:0.0000000000000000e+000
4657:0.0000000000000000e+000
4658:0.0000000000000000e+000
4659:0.0000000000000000e+000
4660:0.0000000000000000e+000
4661:0.0000000000000000e+000
4662:0.0000000000000000e+000
4663:0.0000000000000000e+000
4664:0.0000000000000000e+000
4665:0.0000000000000000e+000
4666:0.0000000000000000e+000
4667:0.0000000000000000e+000
4668:0.0000000000000000e+000
4669:0.0000000000000000e+000
4670:0.0000000000000000e+000
4671:0.0000000000000000e+000
4672:0.0000000000000000e+000
4673:0.0000000000000000e+000
4674:0.0000000000000000e+000
4675:0.0000000000000000e+000
4676:0.0000000000000000e+000
4677:0.0000000000000000e+000
4678:0.0000000000000000e+000
4679:0.0000000000000000e+000
4680:0.0000000000000000e+000
4681:0.0000000000000000e+000
4682:0.0000000000000000e+000
4683:0.0000000000000000e+000
4684:0.0000000000000000e+000
4685:0.0000000000000000e+000
4686:0.0000000000000000e+000
4687:0.0000000000000000e+000
4688:0.0000000000000000e+000
4689:0.0000000000000000e+000
4690:0.0000000000000000e+000
4691:0.0000000000000000e+000
4692:0.0000000000000000e+000
4693:0.0000000000000000e+000
4694:0.0000000000000000e+000
4695:0.0000000000000000e+000
4696:0.0000000000000000e+000
4697:0.0000000000000000e+000
4698:0.0000000000000000e+000
4699:0.0000000000000000e+000
4700:0.0000000000000000e+000
4701:0.0000000000000000e+000
4702:0.0000000000000000e+000
4703:0.0000000000000000e+000
4704:0.0000000000000000e+000
4705:0.0000000000000000e+000
4706:0.0000000000000000e+000
4707:0.0000000000000000e+000
4708:0.0000000000000000e+000
4709:0.0000000000000000e+000
4710:0.0000000000000000e+000
4711:0.0000000000000000e+000
4712:0.0000000000000000e+000
4713:0.0000000000000000e+000
4714:0.0000000000000000e+000
4715:0.0000000000000000e+000
4716:0.0000000000000000e+000
4717:0.0000000000000000e+000
4718:0.0000000000000000e+000
4719:0.0000000000000000e+000
4720:0.0000000000000000e+000
4721:0.0000000000000000e+000
4722:0.0000000000000000e+000
4723:0.0000000000000000e+000
4724:0.0000000000000000e+000
4725:0.0000000000000000e+000
4726:0.0000000000000000e+000
4727:0.0000000000000000e+000
4728:0.0000000000000000e+000
4729:0.0000000000000000e+000
4730:0.0000000000000000e+000
4731:0.0000000000000000e+000
4732:0.0000000000000000e+000
4733:0.0000000000000000e+000
4734:0.0000000000000000e+000
4735:0.0000000000000000e+000
4736:0.0000000000000000e+000
4737:0.0000000000000000e+000
4738:0.0000000000000000e+000
4739:0.0000000000000000e+000
4740:0.0000000000000000e+000
4741:0.0000000000000000e+000
4742:0.0000000000000000e+000
4743:0.0000000000000000e+000
4744:0.0000000000000000e+000
4745:0.0000000000000000e+000
4746:0.0000000000000000e+000
4747:0.0000000000000000e+000
4748:0.0000000000000000e+000
4749:0.0000000000000000e+000
4750:0.0000000000000000e+000
4751:0.0000000000000000e+000
4752:0.0000000000000000e+000
4753:0.0000000000000000e+000
4754:0.0000000000000000e+000
4755:0.0000000000000000e+000
4756:0.0000000000000000e+000
4757:0.0000000000000000e+000
4758:0.0000000000000000e+000
4759:0.0000000000000000e+000
4760:0.0000000000000000e+000
4761:0.0000000000000000e+000
4762:0.0000000000000000e+000
4763:0.0000000000000000e+000
4764:0.0000000000000000e+000
4765:0.0000000000000000e+000
4766:0.0000000000000000e+000
4767:0.0000000000000000e+000
4768:0.0000000000000000e+000
4769:0.0000000000000000e+000
4770:0.0000000000000000e+000
4771:0.0000000000000000e+000
4772:0.0000000000000000e+000
4773:0.0000000000000000e+000
4774:0.0000000000000000e+000
4775:0.0000000000000000e+000
4776:0.0000000000000000e+000
4777:0.0000000000000000e+000
4778:0.0000000000000000e+000
4779:0.0000000000000000e+000
4780:0.0000000000000000e+000
4781:0.0000000000000000e+000
4782:0.0000000000000000e+000
4783:0.0000000000000000e+000
4784:0.0000000000000000e+000
4785:0.0000000000000000e+000
4786:0.0000000000000000e+000
4787:0.0000000000000000e+000
4788:0.0000000000000000e+000
4789:0.0000000000000000e+000
4790:0.0000000000000000e+000
4791:0.0000000000000000e+000
4792:0.0000000000000000e+000
4793:0.0000000000000000e+000
4794:0.0000000000000000e+000
4795:0.0000000000000000e+000
4796:0.0000000000000000e+000
4797:0.0000000000000000e+000
4798:0.0000000000000000e+000
4799:0.0000000000000000e+000
4800:0.0000000000000000e+000
4801:0.0000000000000000e+000
4802:0.0000000000000000e+000
4803:0.0000000000000000e+000
4804:0.0000000000000000e+000
4805:0.0000000000000000e+000
4806:0.0000000000000000e+000
4807:0.0000000000000000e+000
4808:0.0000000000000000e+000
4809:0.0000000000000000e+000
4810:0.0000000000000000e+000
4811:0.0000000000000000e+000
4812:0.0000000000000000e+000
4813:0.0000000000000000e+000
4814:0.0000000000000000e+000
4815:0.0000000000000000e+000
4816:0.0000000000000000e+000
4817:0.0000000000000000e+000
4818:0.0000000000000000e+000
4819:0.0000000000000000e+000
4820:0.0000000000000000e+000
4821:0.0000000000000000e+000
4822:0.0000000000000000e+000
4823:0.0000000000000000e+000
4824:0.0000000000000000e+000
4825:0.0000000000000000e+000
4826:0.0000000000000000e+000
4827:0.0000000000000000e+000
4828:0.0000000000000000e+000
4829:0.0000000000000000e+000
4830:0.0000000000000000e+000
4831:0.0000000000000000e+000
4832:0.0000000000000000e+000
4833:0.0000000000000000e+000
4834:0.0000000000000000e+000
4835:0.0000000000000000e+000
4836:0.0000000000000000e+000
4837:0.0000000000000000e+000
4838:0.0000000000000000e+000
4839:0.0000000000000000e+000
4840:0.0000000000000000e+000
4841:0.0000000000000000e+000
4842:0.0000000000000000e+000
4843:0.0000000000000000e+000
4844:0.0000000000000000e+000
4845:0.0000000000000000e+000
4846:0.0000000000000000e+000
4847:0.0000000000000000e+000
4848:0.0000000000000000e+000
4849:0.0000000000000000e+000
4850:0.0000000000000000e+000
4851:0.0000000000000000e+000
4852:0.0000000000000000e+000
4853:0.0000000000000000e+000
4854:0.0000000000000000e+000
4855:0.0000000000000000e+000
4856:0.0000000000000000e+000
4857:0.0000000000000000e+000
4858:0.0000000000000000e+000
4859:0.0000000000000000e+000
4860:0.0000000000000000e+000
4861:0.0000000000000000e+000
4862:0.0000000000000000e+000
4863:0.0000000000000000e+000
4864:0.0000000000000000e+000
4865:0.0000000000000000e+000
4866:0.0000000000000000e+000
4867:0.0000000000000000e+000
4868:0.0000000000000000e+000
4869:0.0000000000000000e+000
4870:0.0000000000000000e+000
4871:0.0000000000000000e+000
4872:0.0000000000000000e+000
4873:0.0000000000000000e+000
4874:0.0000000000000000e+000
4875:0.0000000000000000e+000
4876:0.0000000000000000e+000
4877:0.0000000000000000e+000
4878:0.0000000000000000e+000
4879:0.0000000000000000e+000
4880:0.0000000000000000e+000
4881:0.0000000000000000e+000
4882:0.0000000000000000e+000
4883:0.0000000000000000e+000
4884:0.0000000000000000e+000
4885:0.0000000000000000e+000
4886:0.0000000000000000e+000
4887:0.0000000000000000e+000
4888:0.0000000000000000e+000
4889:0.0000000000000000e+000
4890:0.0000000000000000e+000
4891:0.0000000000000000e+000
4892:0.0000000000000000e+000
4893:0.0000000000000000e+000
4894:0.0000000000000000e+000
4895:0.0000000000000000e+000
4896:0.0000000000000000e+000
4897:0.0000000000000000e+000
4898:0.0000000000000000e+000
4899:0.0000000000000000e+000
4900:0.0000000000000000e+000
4901:0.0000000000000000e+000
4902:0.0000000000000000e+000
4903:0.0000000000000000e+000
4904:0.0000000000000000e+000
4905:0.0000000000000000e+000
4906:0.0000000000000000e+000
4907:0.0000000000000000e+000
4908:0.0000000000000000e+000
4909:0.0000000000000000e+000
4910:0.0000000000000000e+000
4911:0.0000000000000000e+000
4912:0.0000000000000000e+000
4913:0.0000000000000000e+000
4914:0.0000000000000000e+000
4915:0.0000000000000000e+000
4916:0.0000000000000000e+000
4917:0.0000000000000000e+000
4918:0.0000000000000000e+000
4919:0.0000000000000000e+000
4920:0.0000000000000000e+000
4921:0.0000000000000000e+000
4922:0.0000000000000000e+000
4923:0.0000000000000000e+000
4924:0.0000000000000000e+000
4925:0.0000000000000000e+000
4926:0.0000000000000000e+000
4927:0.0000000000000000e+000
4928:0.0000000000000000e+000
4929:0.0000000000000000e+000
4930:0.0000000000000000e+000
4931:0.0000000000000000e+000
4932:0.0000000000000000e+000
4933:0.0000000000000000e+000
4934:0.0000000000000000e+000
4935:0.0000000000000000e+000
4936:0.0000000000000000e+000
4937:0.0000000000000000e+000
4938:0.0000000000000000e+000
4939:0.0000000000000000e+000
4940:0.0000000000000000e+000
4941:0.0000000000000000e+000
4942:0.0000000000000000e+000
4943:0.0000000000000000e+000
4944:0.0000000000000000e+000
4945:0.0000000000000000e+000
4946:0.0000000000000000e+000
4947:0.0000000000000000e+000
4948:0.0000000000000000e+000
4949:0.0000000000000000e+000
4950:0.0000000000000000e+000
4951:0.0000000000000000e+000
4952:0.0000000000000000e+000
4953:0.0000000000000000e+000
4954:0.0000000000000000e+000
4955:0.0000000000000000e+000
4956:0.0000000000000000e+000
4957:0.0000000000000000e+000
4958:0.0000000000000000e+000
4959:0.0000000000000000e+000
4960:0.0000000000000000e+000
4961:0.0000000000000000e+000
4962:0.0000000000000000e+000
4963:0.0000000000000000e+000
4964:0.0000000000000000e+000
4965:0.0000000000000000e+000
4966:0.0000000000000000e+000
4967:0.0000000000000000e+000
4968:0.0000000000000000e+000
4969:0.0000000000000000e+000
4970:0.0000000000000000e+000
4971:0.0000000000000000e+000
4972:0.0000000000000000e+000
4973:0.0000000000000000e+000
4974:0.0000000000000000e+000
4975:0.0000000000000000e+000
4976:0.0000000000000000e+000
4977:0.0000000000000000e+000
4978:0.0000000000000000e+000
4979:0.0000000000000000e+000
4980:0.0000000000000000e+000
4981:0.0000000000000000e+000
4982:0.0000000000000000e+000
4983:0.0000000000000000e+000
4984:0.0000000000000000e+000
4985:0.0000000000000000e+000
4986:0.0000000000000000e+000
4987:0.0000000000000000e+000
4988:0.0000000000000000e+000
4989:0.0000000000000000e+000
4990:0.0000000000000000e+000
4991:0.0000000000000000e+000
4992:0.0000000000000000e+000
4993:0.0000000000000000e+000
4994:0.0000000000000000e+000
4995:0.0000000000000000e+000
4996:0.0000000000000000e+000
4997:0.0000000000000000e+000
4998:0.0000000000000000e+000
4999:0.0000000000000000e+000
5000:0.0000000000000000e+000
5001:0.0000000000000000e+000
5002:0.0000000000000000e+000
5003:0.0000000000000000e+000
5004:0.0000000000000000e+000
5005:0.0000000000000000e+000
5006:0.0000000000000000e+000
5007:0.0000000000000000e+000
5008:0.0000000000000000e+000
5009:0.0000000000000000e+000
5010:0.0000000000000000e+000
5011:0.0000000000000000e+000
5012:0.0000000000000000e+000
5013:0.0000000000000000e+000
5014:0.0000000000000000e+000
5015:0.0000000000000000e+000
5016:0.0000000000000000e+000
5017:0.0000000000000000e+000
5018:0.0000000000000000e+000
5019:0.0000000000000000e+000
5020:0.0000000000000000e+000
5021:0.0000000000000000e+000
5022:0.0000000000000000e+000
5023:0.0000000000000000e+000
5024:0.0000000000000000e+000
5025:0.0000000000000000e+000
5026:0.0000000000000000e+000
5027:0.0000000000000000e+000
5028:0.0000000000000000e+000
5029:0.0000000000000000e+000
5030:0.0000000000000000e+000
5031:0.0000000000000000e+000
5032:0.0000000000000000e+000
5033:0.0000000000000000e+000
5034:0.0000000000000000e+000
5035:0.0000000000000000e+000
5036:0.0000000000000000e+000
5037:0.0000000000000000e+000
5038:0.0000000000000000e+000
5039:0.0000000000000000e+000
5040:0.0000000000000000e+000
5041:0.0000000000000000e+000
5042:0.0000000000000000e+000
5043:0.0000000000000000e+000
5044:0.0000000000000000e+000
5045:0.0000000000000000e+000
5046:0.0000000000000000e+000
5047:0.0000000000000000e+000
5048:0.0000000000000000e+000
5049:0.0000000000000000e+000
5050:0.0000000000000000e+000
5051:0.0000000000000000e+000
5052:0.0000000000000000e+000
5053:0.0000000000000000e+000
5054:0.0000000000000000e+000
5055:0.0000000000000000e+000
5056:0.0000000000000000e+000
5057:0.0000000000000000e+000
5058:0.0000000000000000e+000
5059:0.0000000000000000e+000
5060:0.0000000000000000e+000
5061:0.0000000000000000e+000
5062:0.0000000000000000e+000
5063:0.0000000000000000e+000
5064:0.0000000000000000e+000
5065:0.0000000000000000e+000
5066:0.0000000000000000e+000
5067:0.0000000000000000e+000
5068:0.0000000000000000e+000
5069:0.0000000000000000e+000
5070:0.0000000000000000e+000
5071:0.0000000000000000e+000
5072:0.0000000000000000e+000
5073:0.0000000000000000e+000
5074:0.0000000000000000e+000
5075:0.0000000000000000e+000
5076:0.0000000000000000e+000
5077:0.0000000000000000e+000
5078:0.0000000000000000e+000
5079:0.0000000000000000e+000
5080:0.0000000000000000e+000
5081:0.0000000000000000e+000
5082:0.0000000000000000e+000
5083:0.0000000000000000e+000
5084:0.0000000000000000e+000
5085:0.0000000000000000e+000
5086:0.0000000000000000e+000
5087:0.0000000000000000e+000
5088:0.0000000000000000e+000
5089:0.0000000000000000e+000
5090:0.0000000000000000e+000
5091:0.0000000000000000e+000
5092:0.0000000000000000e+000
5093:0.0000000000000000e+000
5094:0.0000000000000000e+000
5095:0.0000000000000000e+000
5096:0.0000000000000000e+000
5097:0.0000000000000000e+000
5098:0.0000000000000000e+000
5099:0.0000000000000000e+000
5100:0.0000000000000000e+000
5101:0.0000000000000000e+000
5102:0.0000000000000000e+000
5103:0.0000000000000000e+000
5104:0.0000000000000000e+000
5105:0.0000000000000000e+000
5106:0.0000000000000000e+000
5107:0.0000000000000000e+000
5108:0.0000000000000000e+000
5109:0.0000000000000000e+000
5110:0.0000000000000000e+000
5111:0.0000000000000000e+000
5112:0.0000000000000000e+000
5113:0.0000000000000000e+000
5114:0.0000000000000000e+000
5115:0.0000000000000000e+000
5116:0.0000000000000000e+000
5117:0.0000000000000000e+000
5118:0.0000000000000000e+000
5119:0.0000000000000000e+000
5120:0.0000000000000000e+000
5121:0.0000000000000000e+000
5122:0.0000000000000000e+000
5123:0.0000000000000000e+000
5124:0.0000000000000000e+000
5125:0.0000000000000000e+000
5126:0.0000000000000000e+000
5127:0.0000000000000000e+000
5128:0.0000000000000000e+000
5129:0.0000000000000000e+000
5130:0.0000000000000000e+000
5131:0.0000000000000000e+000
5132:0.0000000000000000e+000
5133:0.0000000000000000e+000
5134:0.0000000000000000e+000
5135:0.0000000000000000e+000
5136:0.0000000000000000e+000
5137:0.0000000000000000e+000
5138:0.0000000000000000e+000
5139:0.0000000000000000e+000
5140:0.0000000000000000e+000
5141:0.0000000000000000e+000
5142:0.0000000000000000e+000
5143:0.0000000000000000e+000
5144:0.0000000000000000e+000
5145:0.0000000000000000e+000
5146:0.0000000000000000e+000
5147:0.0000000000000000e+000
5148:0.0000000000000000e+000
5149:0.0000000000000000e+000
5150:0.0000000000000000e+000
5151:0.0000000000000000e+000
5152:0.0000000000000000e+000
5153:0.0000000000000000e+000
5154:0.0000000000000000e+000
5155:0.0000000000000000e+000
5156:0.0000000000000000e+000
5157:0.0000000000000000e+000
5158:0.0000000000000000e+000
5159:0.0000000000000000e+000
5160:0.0000000000000000e+000
5161:0.0000000000000000e+000
5162:0.0000000000000000e+000
5163:0.0000000000000000e+000
5164:0.0000000000000000e+000
5165:0.0000000000000000e+000
5166:0.0000000000000000e+000
5167:0.0000000000000000e+000
5168:0.0000000000000000e+000
5169:0.0000000000000000e+000
5170:0.0000000000000000e+000
5171:0.0000000000000000e+000
5172:0.0000000000000000e+000
5173:0.0000000000000000e+000
5174:0.0000000000000000e+000
5175:0.0000000000000000e+000
5176:0.0000000000000000e+000
5177:0.0000000000000000e+000
5178:0.0000000000000000e+000
5179:0.0000000000000000e+000
5180:0.0000000000000000e+000
5181:0.0000000000000000e+000
5182:0.0000000000000000e+000
5183:0.0000000000000000e+000
5184:0.0000000000000000e+000
5185:0.0000000000000000e+000
5186:0.0000000000000000e+000
5187:0.0000000000000000e+000
5188:0.0000000000000000e+000
5189:0.0000000000000000e+000
5190:0.0000000000000000e+000
5191:0.0000000000000000e+000
5192:0.0000000000000000e+000
5193:0.0000000000000000e+000
5194:0.0000000000000000e+000
5195:0.0000000000000000e+000
5196:0.0000000000000000e+000
5197:0.0000000000000000e+000
5198:0.0000000000000000e+000
5199:0.0000000000000000e+000
5200:0.0000000000000000e+000
5201:0.0000000000000000e+000
5202:0.0000000000000000e+000
5203:0.0000000000000000e+000
5204:0.0000000000000000e+000
5205:0.0000000000000000e+000
5206:0.0000000000000000e+000
5207:0.0000000000000000e+000
5208:0.0000000000000000e+000
5209:0.0000000000000000e+000
5210:0.0000000000000000e+000
5211:0.0000000000000000e+000
5212:0.0000000000000000e+000
5213:0.0000000000000000e+000
5214:0.0000000000000000e+000
5215:0.0000000000000000e+000
5216:0.0000000000000000e+000
5217:0.0000000000000000e+000
5218:0.0000000000000000e+000
5219:0.0000000000000000e+000
5220:0.0000000000000000e+000
5221:0.0000000000000000e+000
5222:0.0000000000000000e+000
5223:0.0000000000000000e+000
5224:0.0000000000000000e+000
5225:0.0000000000000000e+000
5226:0.0000000000000000e+000
5227:0.0000000000000000e+000
5228:0.0000000000000000e+000
5229:0.0000000000000000e+000
5230:0.0000000000000000e+000
5231:0.0000000000000000e+000
5232:0.0000000000000000e+000
5233:0.0000000000000000e+000
5234:0.0000000000000000e+000
5235:0.0000000000000000e+000
5236:0.0000000000000000e+000
5237:0.0000000000000000e+000
5238:0.0000000000000000e+000
5239:0.0000000000000000e+000
5240:0.0000000000000000e+000
5241:0.0000000000000000e+000
5242:0.0000000000000000e+000
5243:0.0000000000000000e+000
5244:0.0000000000000000e+000
5245:0.0000000000000000e+000
5246:0.0000000000000000e+000
5247:0.0000000000000000e+000
5248:0.0000000000000000e+000
5249:0.0000000000000000e+000
5250:0.0000000000000000e+000
5251:0.0000000000000000e+000
5252:0.0000000000000000e+000
5253:0.0000000000000000e+000
5254:0.0000000000000000e+000
5255:0.0000000000000000e+000
5256:0.0000000000000000e+000
5257:0.0000000000000000e+000
5258:0.0000000000000000e+000
5259:0.0000000000000000e+000
5260:0.0000000000000000e+000
5261:0.0000000000000000e+000
5262:0.0000000000000000e+000
5263:0.0000000000000000e+000
5264:0.0000000000000000e+000
5265:0.0000000000000000e+000
5266:0.0000000000000000e+000
5267:0.0000000000000000e+000
5268:0.0000000000000000e+000
5269:0.0000000000000000e+000
5270:0.0000000000000000e+000
5271:0.0000000000000000e+000
5272:0.0000000000000000e+000
5273:0.0000000000000000e+000
5274:0.0000000000000000e+000
5275:0.0000000000000000e+000
5276:0.0000000000000000e+000
5277:0.0000000000000000e+000
5278:0.0000000000000000e+000
5279:0.0000000000000000e+000
5280:0.0000000000000000e+000
5281:0.0000000000000000e+000
5282:0.0000000000000000e+000
5283:0.0000000000000000e+000
5284:0.0000000000000000e+000
5285:0.0000000000000000e+000
5286:0.0000000000000000e+000
5287:0.0000000000000000e+000
5288:0.0000000000000000e+000
5289:0.0000000000000000e+000
5290:0.0000000000000000e+000
5291:0.0000000000000000e+000
5292:0.0000000000000000e+000
5293:0.0000000000000000e+000
5294:0.0000000000000000e+000
5295:0.0000000000000000e+000
5296:0.0000000000000000e+000
5297:0.0000000000000000e+000
5298:0.0000000000000000e+000
5299:0.0000000000000000e+000
5300:0.0000000000000000e+000
5301:0.0000000000000000e+000
5302:0.0000000000000000e+000
5303:0.0000000000000000e+000
5304:0.0000000000000000e+000
5305:0.0000000000000000e+000
5306:0.0000000000000000e+000
5307:0.0000000000000000e+000
5308:0.0000000000000000e+000
5309:0.0000000000000000e+000
5310:0.0000000000000000e+000
5311:0.0000000000000000e+000
5312:0.0000000000000000e+000
5313:0.0000000000000000e+000
5314:0.0000000000000000e+000
5315:0.0000000000000000e+000
5316:0.0000000000000000e+000
5317:0.0000000000000000e+000
5318:0.0000000000000000e+000
5319:0.0000000000000000e+000
5320:0.0000000000000000e+000
5321:0.0000000000000000e+000
5322:0.0000000000000000e+000
5323:0.0000000000000000e+000
5324:0.0000000000000000e+000
5325:0.0000000000000000e+000
5326:0.0000000000000000e+000
5327:0.0000000000000000e+000
5328:0.0000000000000000e+000
5329:0.0000000000000000e+000
5330:0.0000000000000000e+000
5331:0.0000000000000000e+000
5332:0.0000000000000000e+000
5333:0.0000000000000000e+000
5334:0.0000000000000000e+000
5335:0.0000000000000000e+000
5336:0.0000000000000000e+000
5337:0.0000000000000000e+000
5338:0.0000000000000000e+000
5339:0.0000000000000000e+000
5340:0.0000000000000000e+000
5341:0.0000000000000000e+000
5342:0.0000000000000000e+000
5343:0.0000000000000000e+000
5344:0.0000000000000000e+000
5345:0.0000000000000000e+000
5346:0.0000000000000000e+000
5347:0.0000000000000000e+000
5348:0.0000000000000000e+000
5349:0.0000000000000000e+000
5350:0.0000000000000000e+000
5351:0.0000000000000000e+000
5352:0.0000000000000000e+000
5353:0.0000000000000000e+000
5354:0.0000000000000000e+000
5355:0.0000000000000000e+000
5356:0.0000000000000000e+000
5357:0.0000000000000000e+000
5358:0.0000000000000000e+000
5359:0.0000000000000000e+000
5360:0.0000000000000000e+000
5361:0.0000000000000000e+000
5362:0.0000000000000000e+000
5363:0.0000000000000000e+000
5364:0.0000000000000000e+000
5365:0.0000000000000000e+000
5366:0.0000000000000000e+000
5367:0.0000000000000000e+000
5368:0.0000000000000000e+000
5369:0.0000000000000000e+000
5370:0.0000000000000000e+000
5371:0.0000000000000000e+000
5372:0.0000000000000000e+000
5373:0.0000000000000000e+000
5374:0.0000000000000000e+000
5375:0.0000000000000000e+000
5376:0.0000000000000000e+000
5377:0.0000000000000000e+000
5378:0.0000000000000000e+000
5379:0.0000000000000000e+000
5380:0.0000000000000000e+000
5381:0.0000000000000000e+000
5382:0.0000000000000000e+000
5383:0.0000000000000000e+000
5384:0.0000000000000000e+000
5385:0.0000000000000000e+000
5386:0.0000000000000000e+000
5387:0.0000000000000000e+000
5388:0.0000000000000000e+000
5389:0.0000000000000000e+000
5390:0.0000000000000000e+000
5391:0.0000000000000000e+000
5392:0.0000000000000000e+000
5393:0.0000000000000000e+000
5394:0.0000000000000000e+000
5395:0.0000000000000000e+000
5396:0.0000000000000000e+000
5397:0.0000000000000000e+000
5398:0.0000000000000000e+000
5399:0.0000000000000000e+000
5400:0.0000000000000000e+000
5401:0.0000000000000000e+000
5402:0.0000000000000000e+000
5403:0.0000000000000000e+000
5404:0.0000000000000000e+000
5405:0.0000000000000000e+000
5406:0.0000000000000000e+000
5407:0.0000000000000000e+000
5408:0.0000000000000000e+000
5409:0.0000000000000000e+000
5410:0.0000000000000000e+000
5411:0.0000000000000000e+000
5412:0.0000000000000000e+000
5413:0.0000000000000000e+000
5414:0.0000000000000000e+000
5415:0.0000000000000000e+000
5416:0.0000000000000000e+000
5417:0.0000000000000000e+000
5418:0.0000000000000000e+000
5419:0.0000000000000000e+000
5420:0.0000000000000000e+000
5421:0.0000000000000000e+000
5422:0.0000000000000000e+000
5423:0.0000000000000000e+000
5424:0.0000000000000000e+000
5425:0.0000000000000000e+000
5426:0.0000000000000000e+000
5427:0.0000000000000000e+000
5428:0.0000000000000000e+000
5429:0.0000000000000000e+000
5430:0.0000000000000000e+000
5431:0.0000000000000000e+000
5432:0.0000000000000000e+000
5433:0.0000000000000000e+000
5434:0.0000000000000000e+000
5435:0.0000000000000000e+000
5436:0.0000000000000000e+000
5437:0.0000000000000000e+000
5438:0.0000000000000000e+000
5439:0.0000000000000000e+000
5440:0.0000000000000000e+000
5441:0.0000000000000000e+000
5442:0.0000000000000000e+000
5443:0.0000000000000000e+000
5444:0.0000000000000000e+000
5445:0.0000000000000000e+000
5446:0.0000000000000000e+000
5447:0.0000000000000000e+000
5448:0.0000000000000000e+000
5449:0.0000000000000000e+000
5450:0.0000000000000000e+000
5451:0.0000000000000000e+000
5452:0.0000000000000000e+000
5453:0.0000000000000000e+000
5454:0.0000000000000000e+000
5455:0.0000000000000000e+000
5456:0.0000000000000000e+000
5457:0.0000000000000000e+000
5458:0.0000000000000000e+000
5459:0.0000000000000000e+000
5460:0.0000000000000000e+000
5461:0.0000000000000000e+000
5462:0.0000000000000000e+000
5463:0.0000000000000000e+000
5464:0.0000000000000000e+000
5465:0.0000000000000000e+000
5466:0.0000000000000000e+000
5467:0.0000000000000000e+000
5468:0.0000000000000000e+000
5469:0.0000000000000000e+000
5470:0.0000000000000000e+000
5471:0.0000000000000000e+000
5472:0.0000000000000000e+000
5473:0.0000000000000000e+000
5474:0.0000000000000000e+000
5475:0.0000000000000000e+000
5476:0.0000000000000000e+000
5477:0.0000000000000000e+000
5478:0.0000000000000000e+000
5479:0.0000000000000000e+000
5480:0.0000000000000000e+000
5481:0.0000000000000000e+000
5482:0.0000000000000000e+000
5483:0.0000000000000000e+000
5484:0.0000000000000000e+000
5485:0.0000000000000000e+000
5486:0.0000000000000000e+000
5487:0.0000000000000000e+000
5488:0.0000000000000000e+000
5489:0.0000000000000000e+000
5490:0.0000000000000000e+000
5491:0.0000000000000000e+000
5492:0.0000000000000000e+000
5493:0.0000000000000000e+000
5494:0.0000000000000000e+000
5495:0.0000000000000000e+000
5496:0.0000000000000000e+000
5497:0.0000000000000000e+000
5498:0.0000000000000000e+000
5499:0.0000000000000000e+000
5500:0.0000000000000000e+000
5501:0.0000000000000000e+000
5502:0.0000000000000000e+000
5503:0.0000000000000000e+000
5504:0.0000000000000000e+000
5505:0.0000000000000000e+000
5506:0.0000000000000000e+000
5507:0.0000000000000000e+000
5508:0.0000000000000000e+000
5509:0.0000000000000000e+000
5510:0.0000000000000000e+000
5511:0.0000000000000000e+000
5512:0.0000000000000000e+000
5513:0.0000000000000000e+000
5514:0.0000000000000000e+000
5515:0.0000000000000000e+000
5516:0.0000000000000000e+000
5517:0.0000000000000000e+000
5518:0.0000000000000000e+000
5519:0.0000000000000000e+000
5520:0.0000000000000000e+000
5521:0.0000000000000000e+000
5522:0.0000000000000000e+000
5523:0.0000000000000000e+000
5524:0.0000000000000000e+000
5525:0.0000000000000000e+000
5526:0.0000000000000000e+000
5527:0.0000000000000000e+000
5528:0.0000000000000000e+000
5529:0.0000000000000000e+000
5530:0.0000000000000000e+000
5531:0.0000000000000000e+000
5532:0.0000000000000000e+000
5533:0.0000000000000000e+000
5534:0.0000000000000000e+000
5535:0.0000000000000000e+000
5536:0.0000000000000000e+000
5537:0.0000000000000000e+000
5538:0.0000000000000000e+000
5539:0.0000000000000000e+000
5540:0.0000000000000000e+000
5541:0.0000000000000000e+000
5542:0.0000000000000000e+000
5543:0.0000000000000000e+000
5544:0.0000000000000000e+000
5545:0.0000000000000000e+000
5546:0.0000000000000000e+000
5547:0.0000000000000000e+000
5548:0.0000000000000000e+000
5549:0.0000000000000000e+000
5550:0.0000000000000000e+000
5551:0.0000000000000000e+000
5552:0.0000000000000000e+000
5553:0.0000000000000000e+000
5554:0.0000000000000000e+000
5555:0.0000000000000000e+000
5556:0.0000000000000000e+000
5557:0.0000000000000000e+000
5558:0.0000000000000000e+000
5559:0.0000000000000000e+000
5560:0.0000000000000000e+000
5561:0.0000000000000000e+000
5562:0.0000000000000000e+000
5563:0.0000000000000000e+000
5564:0.0000000000000000e+000
5565:0.0000000000000000e+000
5566:0.0000000000000000e+000
5567:0.0000000000000000e+000
5568:0.0000000000000000e+000
5569:0.0000000000000000e+000
5570:0.0000000000000000e+000
5571:0.0000000000000000e+000
5572:0.0000000000000000e+000
5573:0.0000000000000000e+000
5574:0.0000000000000000e+000
5575:0.0000000000000000e+000
5576:0.0000000000000000e+000
5577:0.0000000000000000e+000
5578:0.0000000000000000e+000
5579:0.0000000000000000e+000
5580:0.0000000000000000e+000
5581:0.0000000000000000e+000
5582:0.0000000000000000e+000
5583:0.0000000000000000e+000
5584:0.0000000000000000e+000
5585:0.0000000000000000e+000
5586:0.0000000000000000e+000
5587:0.0000000000000000e+000
5588:0.0000000000000000e+000
5589:0.0000000000000000e+000
5590:0.0000000000000000e+000
5591:0.0000000000000000e+000
5592:0.0000000000000000e+000
5593:0.0000000000000000e+000
5594:0.0000000000000000e+000
5595:0.0000000000000000e+000
5596:0.0000000000000000e+000
5597:0.0000000000000000e+000
5598:0.0000000000000000e+000
5599:0.0000000000000000e+000
5600:0.0000000000000000e+000
5601:0.0000000000000000e+000
5602:0.0000000000000000e+000
5603:0.0000000000000000e+000
5604:0.0000000000000000e+000
5605:0.0000000000000000e+000
5606:0.0000000000000000e+000
5607:0.0000000000000000e+000
5608:0.0000000000000000e+000
5609:0.0000000000000000e+000
5610:0.0000000000000000e+000
5611:0.0000000000000000e+000
5612:0.0000000000000000e+000
5613:0.0000000000000000e+000
5614:0.0000000000000000e+000
5615:0.0000000000000000e+000
5616:0.0000000000000000e+000
5617:0.0000000000000000e+000
5618:0.0000000000000000e+000
5619:0.0000000000000000e+000
5620:0.0000000000000000e+000
5621:0.0000000000000000e+000
5622:0.0000000000000000e+000
5623:0.0000000000000000e+000
5624:0.0000000000000000e+000
5625:0.0000000000000000e+000
5626:0.0000000000000000e+000
5627:0.0000000000000000e+000
5628:0.0000000000000000e+000
5629:0.0000000000000000e+000
5630:0.0000000000000000e+000
5631:0.0000000000000000e+000
5632:0.0000000000000000e+000
5633:0.0000000000000000e+000
5634:0.0000000000000000e+000
5635:0.0000000000000000e+000
5636:0.0000000000000000e+000
5637:0.0000000000000000e+000
5638:0.0000000000000000e+000
5639:0.0000000000000000e+000
5640:0.0000000000000000e+000
5641:0.0000000000000000e+000
5642:0.0000000000000000e+000
5643:0.0000000000000000e+000
5644:0.0000000000000000e+000
5645:0.0000000000000000e+000
5646:0.0000000000000000e+000
5647:0.0000000000000000e+000
5648:0.0000000000000000e+000
5649:0.0000000000000000e+000
5650:0.0000000000000000e+000
5651:0.0000000000000000e+000
5652:0.0000000000000000e+000
5653:0.0000000000000000e+000
5654:0.0000000000000000e+000
5655:0.0000000000000000e+000
5656:0.0000000000000000e+000
5657:0.0000000000000000e+000
5658:0.0000000000000000e+000
5659:0.0000000000000000e+000
5660:0.0000000000000000e+000
5661:0.0000000000000000e+000
5662:0.0000000000000000e+000
5663:0.0000000000000000e+000
5664:0.0000000000000000e+000
5665:0.0000000000000000e+000
5666:0.0000000000000000e+000
5667:0.0000000000000000e+000
5668:0.0000000000000000e+000
5669:0.0000000000000000e+000
5670:0.0000000000000000e+000
5671:0.0000000000000000e+000
5672:0.0000000000000000e+000
5673:0.0000000000000000e+000
5674:0.0000000000000000e+000
5675:0.0000000000000000e+000
5676:0.0000000000000000e+000
5677:0.0000000000000000e+000
5678:0.0000000000000000e+000
5679:0.0000000000000000e+000
5680:0.0000000000000000e+000
5681:0.0000000000000000e+000
5682:0.0000000000000000e+000
5683:0.0000000000000000e+000
5684:0.0000000000000000e+000
5685:0.0000000000000000e+000
5686:0.0000000000000000e+000
5687:0.0000000000000000e+000
5688:0.0000000000000000e+000
5689:0.0000000000000000e+000
5690:0.0000000000000000e+000
5691:0.0000000000000000e+000
5692:0.0000000000000000e+000
5693:0.0000000000000000e+000
5694:0.0000000000000000e+000
5695:0.0000000000000000e+000
5696:0.0000000000000000e+000
5697:0.0000000000000000e+000
5698:0.0000000000000000e+000
5699:0.0000000000000000e+000
5700:0.0000000000000000e+000
5701:0.0000000000000000e+000
5702:0.0000000000000000e+000
5703:0.0000000000000000e+000
5704:0.0000000000000000e+000
5705:0.0000000000000000e+000
5706:0.0000000000000000e+000
5707:0.0000000000000000e+000
5708:0.0000000000000000e+000
5709:0.0000000000000000e+000
5710:0.0000000000000000e+000
5711:0.0000000000000000e+000
5712:0.0000000000000000e+000
5713:0.0000000000000000e+000
5714:0.0000000000000000e+000
5715:0.0000000000000000e+000
5716:0.0000000000000000e+000
5717:0.0000000000000000e+000
5718:0.0000000000000000e+000
5719:0.0000000000000000e+000
5720:0.0000000000000000e+000
5721:0.0000000000000000e+000
5722:0.0000000000000000e+000
5723:0.0000000000000000e+000
5724:0.0000000000000000e+000
5725:0.0000000000000000e+000
5726:0.0000000000000000e+000
5727:0.0000000000000000e+000
5728:0.0000000000000000e+000
5729:0.0000000000000000e+000
5730:0.0000000000000000e+000
5731:0.0000000000000000e+000
5732:0.0000000000000000e+000
5733:0.0000000000000000e+000
5734:0.0000000000000000e+000
5735:0.0000000000000000e+000
5736:0.0000000000000000e+000
5737:0.0000000000000000e+000
5738:0.0000000000000000e+000
5739:0.0000000000000000e+000
5740:0.0000000000000000e+000
5741:0.0000000000000000e+000
5742:0.0000000000000000e+000
5743:0.0000000000000000e+000
5744:0.0000000000000000e+000
5745:0.0000000000000000e+000
5746:0.0000000000000000e+000
5747:0.0000000000000000e+000
5748:0.0000000000000000e+000
5749:0.0000000000000000e+000
5750:0.0000000000000000e+000
5751:0.0000000000000000e+000
5752:0.0000000000000000e+000
5753:0.0000000000000000e+000
5754:0.0000000000000000e+000
5755:0.0000000000000000e+000
5756:0.0000000000000000e+000
5757:0.0000000000000000e+000
5758:0.0000000000000000e+000
5759:0.0000000000000000e+000
5760:0.0000000000000000e+000
5761:0.0000000000000000e+000
5762:0.0000000000000000e+000
5763:0.0000000000000000e+000
5764:0.0000000000000000e+000
5765:0.0000000000000000e+000
5766:0.0000000000000000e+000
5767:0.0000000000000000e+000
5768:0.0000000000000000e+000
5769:0.0000000000000000e+000
5770:0.0000000000000000e+000
5771:0.0000000000000000e+000
5772:0.0000000000000000e+000
5773:0.0000000000000000e+000
5774:0.0000000000000000e+000
5775:0.0000000000000000e+000
5776:0.0000000000000000e+000
5777:0.0000000000000000e+000
5778:0.0000000000000000e+000
5779:0.0000000000000000e+000
5780:0.0000000000000000e+000
5781:0.0000000000000000e+000
5782:0.0000000000000000e+000
5783:0.0000000000000000e+000
5784:0.0000000000000000e+000
5785:0.0000000000000000e+000
5786:0.0000000000000000e+000
5787:0.0000000000000000e+000
5788:0.0000000000000000e+000
5789:0.0000000000000000e+000
5790:0.0000000000000000e+000
5791:0.0000000000000000e+000
5792:0.0000000000000000e+000
5793:0.0000000000000000e+000
5794:0.0000000000000000e+000
5795:0.0000000000000000e+000
5796:0.0000000000000000e+000
5797:0.0000000000000000e+000
5798:0.0000000000000000e+000
5799:0.0000000000000000e+000
5800:0.0000000000000000e+000
5801:0.0000000000000000e+000
5802:0.0000000000000000e+000
5803:0.0000000000000000e+000
5804:0.0000000000000000e+000
5805:0.0000000000000000e+000
5806:0.0000000000000000e+000
5807:0.0000000000000000e+000
5808:0.0000000000000000e+000
5809:0.0000000000000000e+000
5810:0.0000000000000000e+000
5811:0.0000000000000000e+000
5812:0.0000000000000000e+000
5813:0.0000000000000000e+000
5814:0.0000000000000000e+000
5815:0.0000000000000000e+000
5816:0.0000000000000000e+000
5817:0.0000000000000000e+000
5818:0.0000000000000000e+000
5819:0.0000000000000000e+000
5820:0.0000000000000000e+000
5821:0.0000000000000000e+000
5822:0.0000000000000000e+000
5823:0.0000000000000000e+000
5824:0.0000000000000000e+000
5825:0.0000000000000000e+000
5826:0.0000000000000000e+000
5827:0.0000000000000000e+000
5828:0.0000000000000000e+000
5829:0.0000000000000000e+000
5830:0.0000000000000000e+000
5831:0.0000000000000000e+000
5832:0.0000000000000000e+000
5833:0.0000000000000000e+000
5834:0.0000000000000000e+000
5835:0.0000000000000000e+000
5836:0.0000000000000000e+000
5837:0.0000000000000000e+000
5838:0.0000000000000000e+000
5839:0.0000000000000000e+000
5840:0.0000000000000000e+000
5841:0.0000000000000000e+000
5842:0.0000000000000000e+000
5843:0.0000000000000000e+000
5844:0.0000000000000000e+000
5845:0.0000000000000000e+000
5846:0.0000000000000000e+000
5847:0.0000000000000000e+000
5848:0.0000000000000000e+000
5849:0.0000000000000000e+000
5850:0.0000000000000000e+000
5851:0.0000000000000000e+000
5852:0.0000000000000000e+000
5853:0.0000000000000000e+000
5854:0.0000000000000000e+000
5855:0.0000000000000000e+000
5856:0.0000000000000000e+000
5857:0.0000000000000000e+000
5858:0.0000000000000000e+000
5859:0.0000000000000000e+000
5860:0.0000000000000000e+000
5861:0.0000000000000000e+000
5862:0.0000000000000000e+000
5863:0.0000000000000000e+000
5864:0.0000000000000000e+000
5865:0.0000000000000000e+000
5866:0.0000000000000000e+000
5867:0.0000000000000000e+000
5868:0.0000000000000000e+000
5869:0.0000000000000000e+000
5870:0.0000000000000000e+000
5871:0.0000000000000000e+000
5872:0.0000000000000000e+000
5873:0.0000000000000000e+000
5874:0.0000000000000000e+000
5875:0.0000000000000000e+000
5876:0.0000000000000000e+000
5877:0.0000000000000000e+000
5878:0.0000000000000000e+000
5879:0.0000000000000000e+000
5880:0.0000000000000000e+000
5881:0.0000000000000000e+000
5882:0.0000000000000000e+000
5883:0.0000000000000000e+000
5884:0.0000000000000000e+000
5885:0.0000000000000000e+000
5886:0.0000000000000000e+000
5887:0.0000000000000000e+000
5888:0.0000000000000000e+000
5889:0.0000000000000000e+000
5890:0.0000000000000000e+000
5891:0.0000000000000000e+000
5892:0.0000000000000000e+000
5893:0.0000000000000000e+000
5894:0.0000000000000000e+000
5895:0.0000000000000000e+000
5896:0.0000000000000000e+000
5897:0.0000000000000000e+000
5898:0.0000000000000000e+000
5899:0.0000000000000000e+000
5900:0.0000000000000000e+000
5901:0.0000000000000000e+000
5902:0.0000000000000000e+000
5903:0.0000000000000000e+000
5904:0.0000000000000000e+000
5905:0.0000000000000000e+000
5906:0.0000000000000000e+000
5907:0.0000000000000000e+000
5908:0.0000000000000000e+000
5909:0.0000000000000000e+000
5910:0.0000000000000000e+000
5911:0.0000000000000000e+000
5912:0.0000000000000000e+000
5913:0.0000000000000000e+000
5914:0.0000000000000000e+000
5915:0.0000000000000000e+000
5916:0.0000000000000000e+000
5917:0.0000000000000000e+000
5918:0.0000000000000000e+000
5919:0.0000000000000000e+000
5920:0.0000000000000000e+000
5921:0.0000000000000000e+000
5922:0.0000000000000000e+000
5923:0.0000000000000000e+000
5924:0.0000000000000000e+000
5925:0.0000000000000000e+000
5926:0.0000000000000000e+000
5927:0.0000000000000000e+000
5928:0.0000000000000000e+000
5929:0.0000000000000000e+000
5930:0.0000000000000000e+000
5931:0.0000000000000000e+000
5932:0.0000000000000000e+000
5933:0.0000000000000000e+000
5934:0.0000000000000000e+000
5935:0.0000000000000000e+000
5936:0.0000000000000000e+000
5937:0.0000000000000000e+000
5938:0.0000000000000000e+000
5939:0.0000000000000000e+000
5940:0.0000000000000000e+000
5941:0.0000000000000000e+000
5942:0.0000000000000000e+000
5943:0.0000000000000000e+000
5944:0.0000000000000000e+000
5945:0.0000000000000000e+000
5946:0.0000000000000000e+000
5947:0.0000000000000000e+000
5948:0.0000000000000000e+000
5949:0.0000000000000000e+000
5950:0.0000000000000000e+000
5951:0.0000000000000000e+000
5952:0.0000000000000000e+000
5953:0.0000000000000000e+000
5954:0.0000000000000000e+000
5955:0.0000000000000000e+000
5956:0.0000000000000000e+000
5957:0.0000000000000000e+000
5958:0.0000000000000000e+000
5959:0.0000000000000000e+000
5960:0.0000000000000000e+000
5961:0.0000000000000000e+000
5962:0.0000000000000000e+000
5963:0.0000000000000000e+000
5964:0.0000000000000000e+000
5965:0.0000000000000000e+000
5966:0.0000000000000000e+000
5967:0.0000000000000000e+000
5968:0.0000000000000000e+000
5969:0.0000000000000000e+000
5970:0.0000000000000000e+000
5971:0.0000000000000000e+000
5972:0.0000000000000000e+000
5973:0.0000000000000000e+000
5974:0.0000000000000000e+000
5975:0.0000000000000000e+000
5976:0.0000000000000000e+000
5977:0.0000000000000000e+000
5978:0.0000000000000000e+000
5979:0.0000000000000000e+000
5980:0.0000000000000000e+000
5981:0.0000000000000000e+000
5982:0.0000000000000000e+000
5983:0.0000000000000000e+000
5984:0.0000000000000000e+000
5985:0.0000000000000000e+000
5986:0.0000000000000000e+000
5987:0.0000000000000000e+000
5988:0.0000000000000000e+000
5989:0.0000000000000000e+000
5990:0.0000000000000000e+000
5991:0.0000000000000000e+000
5992:0.0000000000000000e+000
5993:0.0000000000000000e+000
5994:0.0000000000000000e+000
5995:0.0000000000000000e+000
5996:0.0000000000000000e+000
5997:0.0000000000000000e+000
5998:0.0000000000000000e+000
5999:0.0000000000000000e+000
6000:0.0000000000000000e+000
6001:0.0000000000000000e+000
6002:0.0000000000000000e+000
6003:0.0000000000000000e+000
6004:0.0000000000000000e+000
6005:0.0000000000000000e+000
6006:0.0000000000000000e+000
6007:0.0000000000000000e+000
6008:0.0000000000000000e+000
6009:0.0000000000000000e+000
6010:0.0000000000000000e+000
6011:0.0000000000000000e+000
6012:0.0000000000000000e+000
6013:0.0000000000000000e+000
6014:0.0000000000000000e+000
6015:0.0000000000000000e+000
6016:0.0000000000000000e+000
6017:0.0000000000000000e+000
6018:0.0000000000000000e+000
6019:0.0000000000000000e+000
6020:0.0000000000000000e+000
6021:0.0000000000000000e+000
6022:0.0000000000000000e+000
6023:0.0000000000000000e+000
6024:0.0000000000000000e+000
6025:0.0000000000000000e+000
6026:0.0000000000000000e+000
6027:0.0000000000000000e+000
6028:0.0000000000000000e+000
6029:0.0000000000000000e+000
6030:0.0000000000000000e+000
6031:0.0000000000000000e+000
6032:0.0000000000000000e+000
6033:0.0000000000000000e+000
6034:0.0000000000000000e+000
6035:0.0000000000000000e+000
6036:0.0000000000000000e+000
6037:0.0000000000000000e+000
6038:0.0000000000000000e+000
6039:0.0000000000000000e+000
6040:0.0000000000000000e+000
6041:0.0000000000000000e+000
6042:0.0000000000000000e+000
6043:0.0000000000000000e+000
6044:0.0000000000000000e+000
6045:0.0000000000000000e+000
6046:0.0000000000000000e+000
6047:0.0000000000000000e+000
6048:0.0000000000000000e+000
6049:0.0000000000000000e+000
6050:0.0000000000000000e+000
6051:0.0000000000000000e+000
6052:0.0000000000000000e+000
6053:0.0000000000000000e+000
6054:0.0000000000000000e+000
6055:0.0000000000000000e+000
6056:0.0000000000000000e+000
6057:0.0000000000000000e+000
6058:0.0000000000000000e+000
6059:0.0000000000000000e+000
6060:0.0000000000000000e+000
6061:0.0000000000000000e+000
6062:0.0000000000000000e+000
6063:0.0000000000000000e+000
6064:0.0000000000000000e+000
6065:0.0000000000000000e+000
6066:0.0000000000000000e+000
6067:0.0000000000000000e+000
6068:0.0000000000000000e+000
6069:0.0000000000000000e+000
6070:0.0000000000000000e+000
6071:0.0000000000000000e+000
6072:0.0000000000000000e+000
6073:0.0000000000000000e+000
6074:0.0000000000000000e+000
6075:0.0000000000000000e+000
6076:0.0000000000000000e+000
6077:0.0000000000000000e+000
6078:0.0000000000000000e+000
6079:0.0000000000000000e+000
6080:0.0000000000000000e+000
6081:0.0000000000000000e+000
6082:0.0000000000000000e+000
6083:0.0000000000000000e+000
6084:0.0000000000000000e+000
6085:0.0000000000000000e+000
6086:0.0000000000000000e+000
6087:0.0000000000000000e+000
6088:0.0000000000000000e+000
6089:0.0000000000000000e+000
6090:0.0000000000000000e+000
6091:0.0000000000000000e+000
6092:0.0000000000000000e+000
6093:0.0000000000000000e+000
6094:0.0000000000000000e+000
6095:0.0000000000000000e+000
6096:0.0000000000000000e+000
6097:0.0000000000000000e+000
6098:0.0000000000000000e+000
6099:0.0000000000000000e+000
6100:0.0000000000000000e+000
6101:0.0000000000000000e+000
6102:0.0000000000000000e+000
6103:0.0000000000000000e+000
6104:0.0000000000000000e+000
6105:0.0000000000000000e+000
6106:0.0000000000000000e+000
6107:0.0000000000000000e+000
6108:0.0000000000000000e+000
6109:0.0000000000000000e+000
6110:0.0000000000000000e+000
6111:0.0000000000000000e+000
6112:0.0000000000000000e+000
6113:0.0000000000000000e+000
6114:0.0000000000000000e+000
6115:0.0000000000000000e+000
6116:0.0000000000000000e+000
6117:0.0000000000000000e+000
6118:0.0000000000000000e+000
6119:0.0000000000000000e+000
6120:0.0000000000000000e+000
6121:0.0000000000000000e+000
6122:0.0000000000000000e+000
6123:0.0000000000000000e+000
6124:0.0000000000000000e+000
6125:0.0000000000000000e+000
6126:0.0000000000000000e+000
6127:0.0000000000000000e+000
6128:0.0000000000000000e+000
6129:0.0000000000000000e+000
6130:0.0000000000000000e+000
6131:0.0000000000000000e+000
6132:0.0000000000000000e+000
6133:0.0000000000000000e+000
6134:0.0000000000000000e+000
6135:0.0000000000000000e+000
6136:0.0000000000000000e+000
6137:0.0000000000000000e+000
6138:0.0000000000000000e+000
6139:0.0000000000000000e+000
6140:0.0000000000000000e+000
6141:0.0000000000000000e+000
6142:0.0000000000000000e+000
6143:0.0000000000000000e+000
6144:0.0000000000000000e+000
6145:0.0000000000000000e+000
6146:0.0000000000000000e+000
6147:0.0000000000000000e+000
6148:0.0000000000000000e+000
6149:0.0000000000000000e+000
6150:0.0000000000000000e+000
6151:0.0000000000000000e+000
6152:0.0000000000000000e+000
6153:0.0000000000000000e+000
6154:0.0000000000000000e+000
6155:0.0000000000000000e+000
6156:0.0000000000000000e+000
6157:0.0000000000000000e+000
6158:0.0000000000000000e+000
6159:0.0000000000000000e+000
6160:0.0000000000000000e+000
6161:0.0000000000000000e+000
6162:0.0000000000000000e+000
6163:0.0000000000000000e+000
6164:0.0000000000000000e+000
6165:0.0000000000000000e+000
6166:0.0000000000000000e+000
6167:0.0000000000000000e+000
6168:0.0000000000000000e+000
6169:0.0000000000000000e+000
6170:0.0000000000000000e+000
6171:0.0000000000000000e+000
6172:0.0000000000000000e+000
6173:0.0000000000000000e+000
6174:0.0000000000000000e+000
6175:0.0000000000000000e+000
6176:0.0000000000000000e+000
6177:0.0000000000000000e+000
6178:0.0000000000000000e+000
6179:0.0000000000000000e+000
6180:0.0000000000000000e+000
6181:0.0000000000000000e+000
6182:0.0000000000000000e+000
6183:0.0000000000000000e+000
6184:0.0000000000000000e+000
6185:0.0000000000000000e+000
6186:0.0000000000000000e+000
6187:0.0000000000000000e+000
6188:0.0000000000000000e+000
6189:0.0000000000000000e+000
6190:0.0000000000000000e+000
6191:0.0000000000000000e+000
6192:0.0000000000000000e+000
6193:0.0000000000000000e+000
6194:0.0000000000000000e+000
6195:0.0000000000000000e+000
6196:0.0000000000000000e+000
6197:0.0000000000000000e+000
6198:0.0000000000000000e+000
6199:0.0000000000000000e+000
6200:0.0000000000000000e+000
6201:0.0000000000000000e+000
6202:0.0000000000000000e+000
6203:0.0000000000000000e+000
6204:0.0000000000000000e+000
6205:0.0000000000000000e+000
6206:0.0000000000000000e+000
6207:0.0000000000000000e+000
6208:0.0000000000000000e+000
6209:0.0000000000000000e+000
6210:0.0000000000000000e+000
6211:0.0000000000000000e+000
6212:0.0000000000000000e+000
6213:0.0000000000000000e+000
6214:0.0000000000000000e+000
6215:0.0000000000000000e+000
6216:0.0000000000000000e+000
6217:0.0000000000000000e+000
6218:0.0000000000000000e+000
6219:0.0000000000000000e+000
6220:0.0000000000000000e+000
6221:0.0000000000000000e+000
6222:0.0000000000000000e+000
6223:0.0000000000000000e+000
6224:0.0000000000000000e+000
6225:0.0000000000000000e+000
6226:0.0000000000000000e+000
6227:0.0000000000000000e+000
6228:0.0000000000000000e+000
6229:0.0000000000000000e+000
6230:0.0000000000000000e+000
6231:0.0000000000000000e+000
6232:0.0000000000000000e+000
6233:0.0000000000000000e+000
6234:0.0000000000000000e+000
6235:0.0000000000000000e+000
6236:0.0000000000000000e+000
6237:0.0000000000000000e+000
6238:0.0000000000000000e+000
6239:0.0000000000000000e+000
6240:0.0000000000000000e+000
6241:0.0000000000000000e+000
6242:0.0000000000000000e+000
6243:0.0000000000000000e+000
6244:0.0000000000000000e+000
6245:0.0000000000000000e+000
6246:0.0000000000000000e+000
6247:0.0000000000000000e+000
6248:0.0000000000000000e+000
6249:0.0000000000000000e+000
6250:0.0000000000000000e+000
6251:0.0000000000000000e+000
6252:0.0000000000000000e+000
6253:0.0000000000000000e+000
6254:0.0000000000000000e+000
6255:0.0000000000000000e+000
6256:0.0000000000000000e+000
6257:0.0000000000000000e+000
6258:0.0000000000000000e+000
6259:0.0000000000000000e+000
6260:0.0000000000000000e+000
6261:0.0000000000000000e+000
6262:0.0000000000000000e+000
6263:0.0000000000000000e+000
6264:0.0000000000000000e+000
6265:0.0000000000000000e+000
6266:0.0000000000000000e+000
6267:0.0000000000000000e+000
6268:0.0000000000000000e+000
6269:0.0000000000000000e+000
6270:0.0000000000000000e+000
6271:0.0000000000000000e+000
6272:0.0000000000000000e+000
6273:0.0000000000000000e+000
6274:0.0000000000000000e+000
6275:0.0000000000000000e+000
6276:0.0000000000000000e+000
6277:0.0000000000000000e+000
6278:0.0000000000000000e+000
6279:0.0000000000000000e+000
6280:0.0000000000000000e+000
6281:0.0000000000000000e+000
6282:0.0000000000000000e+000
6283:0.0000000000000000e+000
6284:0.0000000000000000e+000
6285:0.0000000000000000e+000
6286:0.0000000000000000e+000
6287:0.0000000000000000e+000
6288:0.0000000000000000e+000
6289:0.0000000000000000e+000
6290:0.0000000000000000e+000
6291:0.0000000000000000e+000
6292:0.0000000000000000e+000
6293:0.0000000000000000e+000
6294:0.0000000000000000e+000
6295:0.0000000000000000e+000
6296:0.0000000000000000e+000
6297:0.0000000000000000e+000
6298:0.0000000000000000e+000
6299:0.0000000000000000e+000
6300:0.0000000000000000e+000
6301:0.0000000000000000e+000
6302:0.0000000000000000e+000
6303:0.0000000000000000e+000
6304:0.0000000000000000e+000
6305:0.0000000000000000e+000
6306:0.0000000000000000e+000
6307:0.0000000000000000e+000
6308:0.0000000000000000e+000
6309:0.0000000000000000e+000
6310:0.0000000000000000e+000
6311:0.0000000000000000e+000
6312:0.0000000000000000e+000
6313:0.0000000000000000e+000
6314:0.0000000000000000e+000
6315:0.0000000000000000e+000
6316:0.0000000000000000e+000
6317:0.0000000000000000e+000
6318:0.0000000000000000e+000
6319:0.0000000000000000e+000
6320:0.0000000000000000e+000
6321:0.0000000000000000e+000
6322:0.0000000000000000e+000
6323:0.0000000000000000e+000
6324:0.0000000000000000e+000
6325:0.0000000000000000e+000
6326:0.0000000000000000e+000
6327:0.0000000000000000e+000
6328:0.0000000000000000e+000
6329:0.0000000000000000e+000
6330:0.0000000000000000e+000
6331:0.0000000000000000e+000
6332:0.0000000000000000e+000
6333:0.0000000000000000e+000
6334:0.0000000000000000e+000
6335:0.0000000000000000e+000
6336:0.0000000000000000e+000
6337:0.0000000000000000e+000
6338:0.0000000000000000e+000
6339:0.0000000000000000e+000
6340:0.0000000000000000e+000
6341:0.0000000000000000e+000
6342:0.0000000000000000e+000
6343:0.0000000000000000e+000
6344:0.0000000000000000e+000
6345:0.0000000000000000e+000
6346:0.0000000000000000e+000
6347:0.0000000000000000e+000
6348:0.0000000000000000e+000
6349:0.0000000000000000e+000
6350:0.0000000000000000e+000
6351:0.0000000000000000e+000
6352:0.0000000000000000e+000
6353:0.0000000000000000e+000
6354:0.0000000000000000e+000
6355:0.0000000000000000e+000
6356:0.0000000000000000e+000
6357:0.0000000000000000e+000
6358:0.0000000000000000e+000
6359:0.0000000000000000e+000
6360:0.0000000000000000e+000
6361:0.0000000000000000e+000
6362:0.0000000000000000e+000
6363:0.0000000000000000e+000
6364:0.0000000000000000e+000
6365:0.0000000000000000e+000
6366:0.0000000000000000e+000
6367:0.0000000000000000e+000
6368:0.0000000000000000e+000
6369:0.0000000000000000e+000
6370:0.0000000000000000e+000
6371:0.0000000000000000e+000
6372:0.0000000000000000e+000
6373:0.0000000000000000e+000
6374:0.0000000000000000e+000
6375:0.0000000000000000e+000
6376:0.0000000000000000e+000
6377:0.0000000000000000e+000
6378:0.0000000000000000e+000
6379:0.0000000000000000e+000
6380:0.0000000000000000e+000
6381:0.0000000000000000e+000
6382:0.0000000000000000e+000
6383:0.0000000000000000e+000
6384:0.0000000000000000e+000
6385:0.0000000000000000e+000
6386:0.0000000000000000e+000
6387:0.0000000000000000e+000
6388:0.0000000000000000e+000
6389:0.0000000000000000e+000
6390:0.0000000000000000e+000
6391:0.0000000000000000e+000
6392:0.0000000000000000e+000
6393:0.0000000000000000e+000
6394:0.0000000000000000e+000
6395:0.0000000000000000e+000
6396:0.0000000000000000e+000
6397:0.0000000000000000e+000
6398:0.0000000000000000e+000
6399:0.0000000000000000e+000
6400:0.0000000000000000e+000
6401:0.0000000000000000e+000
6402:0.0000000000000000e+000
6403:0.0000000000000000e+000
6404:0.0000000000000000e+000
6405:0.0000000000000000e+000
6406:0.0000000000000000e+000
6407:0.0000000000000000e+000
6408:0.0000000000000000e+000
6409:0.0000000000000000e+000
6410:0.0000000000000000e+000
6411:0.0000000000000000e+000
6412:0.0000000000000000e+000
6413:0.0000000000000000e+000
6414:0.0000000000000000e+000
6415:0.0000000000000000e+000
6416:0.0000000000000000e+000
6417:0.0000000000000000e+000
6418:0.0000000000000000e+000
6419:0.0000000000000000e+000
6420:0.0000000000000000e+000
6421:0.0000000000000000e+000
6422:0.0000000000000000e+000
6423:0.0000000000000000e+000
6424:0.0000000000000000e+000
6425:0.0000000000000000e+000
6426:0.0000000000000000e+000
6427:0.0000000000000000e+000
6428:0.0000000000000000e+000
6429:0.0000000000000000e+000
6430:0.0000000000000000e+000
6431:0.0000000000000000e+000
6432:0.0000000000000000e+000
6433:0.0000000000000000e+000
6434:0.0000000000000000e+000
6435:0.0000000000000000e+000
6436:0.0000000000000000e+000
6437:0.0000000000000000e+000
6438:0.0000000000000000e+000
6439:0.0000000000000000e+000
6440:0.0000000000000000e+000
6441:0.0000000000000000e+000
6442:0.0000000000000000e+000
6443:0.0000000000000000e+000
6444:0.0000000000000000e+000
6445:0.0000000000000000e+000
6446:0.0000000000000000e+000
6447:0.0000000000000000e+000
6448:0.0000000000000000e+000
6449:0.0000000000000000e+000
6450:0.0000000000000000e+000
6451:0.0000000000000000e+000
6452:0.0000000000000000e+000
6453:0.0000000000000000e+000
6454:0.0000000000000000e+000
6455:0.0000000000000000e+000
6456:0.0000000000000000e+000
6457:0.0000000000000000e+000
6458:0.0000000000000000e+000
6459:0.0000000000000000e+000
6460:0.0000000000000000e+000
6461:0.0000000000000000e+000
6462:0.0000000000000000e+000
6463:0.0000000000000000e+000
6464:0.0000000000000000e+000
6465:0.0000000000000000e+000
6466:0.0000000000000000e+000
6467:0.0000000000000000e+000
6468:0.0000000000000000e+000
6469:0.0000000000000000e+000
6470:0.0000000000000000e+000
6471:0.0000000000000000e+000
6472:0.0000000000000000e+000
6473:0.0000000000000000e+000
6474:0.0000000000000000e+000
6475:0.0000000000000000e+000
6476:0.0000000000000000e+000
6477:0.0000000000000000e+000
6478:0.0000000000000000e+000
6479:0.0000000000000000e+000
6480:0.0000000000000000e+000
6481:0.0000000000000000e+000
6482:0.0000000000000000e+000
6483:0.0000000000000000e+000
6484:0.0000000000000000e+000
6485:0.0000000000000000e+000
6486:0.0000000000000000e+000
6487:0.0000000000000000e+000
6488:0.0000000000000000e+000
6489:0.0000000000000000e+000
6490:0.0000000000000000e+000
6491:0.0000000000000000e+000
6492:0.0000000000000000e+000
6493:0.0000000000000000e+000
6494:0.0000000000000000e+000
6495:0.0000000000000000e+000
6496:0.0000000000000000e+000
6497:0.0000000000000000e+000
6498:0.0000000000000000e+000
6499:0.0000000000000000e+000
6500:0.0000000000000000e+000
6501:0.0000000000000000e+000
6502:0.0000000000000000e+000
6503:0.0000000000000000e+000
6504:0.0000000000000000e+000
6505:0.0000000000000000e+000
6506:0.0000000000000000e+000
6507:0.0000000000000000e+000
6508:0.0000000000000000e+000
6509:0.0000000000000000e+000
6510:0.0000000000000000e+000
6511:0.0000000000000000e+000
6512:0.0000000000000000e+000
6513:0.0000000000000000e+000
6514:0.0000000000000000e+000
6515:0.0000000000000000e+000
6516:0.0000000000000000e+000
6517:0.0000000000000000e+000
6518:0.0000000000000000e+000
6519:0.0000000000000000e+000
6520:0.0000000000000000e+000
6521:0.0000000000000000e+000
6522:0.0000000000000000e+000
6523:0.0000000000000000e+000
6524:0.0000000000000000e+000
6525:0.0000000000000000e+000
6526:0.0000000000000000e+000
6527:0.0000000000000000e+000
6528:0.0000000000000000e+000
6529:0.0000000000000000e+000
6530:0.0000000000000000e+000
6531:0.0000000000000000e+000
6532:0.0000000000000000e+000
6533:0.0000000000000000e+000
6534:0.0000000000000000e+000
6535:0.0000000000000000e+000
6536:0.0000000000000000e+000
6537:0.0000000000000000e+000
6538:0.0000000000000000e+000
6539:0.0000000000000000e+000
6540:0.0000000000000000e+000
6541:0.0000000000000000e+000
6542:0.0000000000000000e+000
6543:0.0000000000000000e+000
6544:0.0000000000000000e+000
6545:0.0000000000000000e+000
6546:0.0000000000000000e+000
6547:0.0000000000000000e+000
6548:0.0000000000000000e+000
6549:0.0000000000000000e+000
6550:0.0000000000000000e+000
6551:0.0000000000000000e+000
6552:0.0000000000000000e+000
6553:0.0000000000000000e+000
6554:0.0000000000000000e+000
6555:0.0000000000000000e+000
6556:0.0000000000000000e+000
6557:0.0000000000000000e+000
6558:0.0000000000000000e+000
6559:0.0000000000000000e+000
6560:0.0000000000000000e+000
6561:0.0000000000000000e+000
6562:0.0000000000000000e+000
6563:0.0000000000000000e+000
6564:0.0000000000000000e+000
6565:0.0000000000000000e+000
6566:0.0000000000000000e+000
6567:0.0000000000000000e+000
6568:0.0000000000000000e+000
6569:0.0000000000000000e+000
6570:0.0000000000000000e+000
6571:0.0000000000000000e+000
6572:0.0000000000000000e+000
6573:0.0000000000000000e+000
6574:0.0000000000000000e+000
6575:0.0000000000000000e+000
6576:0.0000000000000000e+000
6577:0.0000000000000000e+000
6578:0.0000000000000000e+000
6579:0.0000000000000000e+000
6580:0.0000000000000000e+000
6581:0.0000000000000000e+000
6582:0.0000000000000000e+000
6583:0.0000000000000000e+000
6584:0.0000000000000000e+000
6585:0.0000000000000000e+000
6586:0.0000000000000000e+000
6587:0.0000000000000000e+000
6588:0.0000000000000000e+000
6589:0.0000000000000000e+000
6590:0.0000000000000000e+000
6591:0.0000000000000000e+000
6592:0.0000000000000000e+000
6593:0.0000000000000000e+000
6594:0.0000000000000000e+000
6595:0.0000000000000000e+000
6596:0.0000000000000000e+000
6597:0.0000000000000000e+000
6598:0.0000000000000000e+000
6599:0.0000000000000000e+000
6600:0.0000000000000000e+000
6601:0.0000000000000000e+000
6602:0.0000000000000000e+000
6603:0.0000000000000000e+000
6604:0.0000000000000000e+000
6605:0.0000000000000000e+000
6606:0.0000000000000000e+000
6607:0.0000000000000000e+000
6608:0.0000000000000000e+000
6609:0.0000000000000000e+000
6610:0.0000000000000000e+000
6611:0.0000000000000000e+000
6612:0.0000000000000000e+000
6613:0.0000000000000000e+000
6614:0.0000000000000000e+000
6615:0.0000000000000000e+000
6616:0.0000000000000000e+000
6617:0.0000000000000000e+000
6618:0.0000000000000000e+000
6619:0.0000000000000000e+000
6620:0.0000000000000000e+000
6621:0.0000000000000000e+000
6622:0.0000000000000000e+000
6623:0.0000000000000000e+000
6624:0.0000000000000000e+000
6625:0.0000000000000000e+000
6626:0.0000000000000000e+000
6627:0.0000000000000000e+000
6628:0.0000000000000000e+000
6629:0.0000000000000000e+000
6630:0.0000000000000000e+000
6631:0.0000000000000000e+000
6632:0.0000000000000000e+000
6633:0.0000000000000000e+000
6634:0.0000000000000000e+000
6635:0.0000000000000000e+000
6636:0.0000000000000000e+000
6637:0.0000000000000000e+000
6638:0.0000000000000000e+000
6639:0.0000000000000000e+000
6640:0.0000000000000000e+000
6641:0.0000000000000000e+000
6642:0.0000000000000000e+000
6643:0.0000000000000000e+000
6644:0.0000000000000000e+000
6645:0.0000000000000000e+000
6646:0.0000000000000000e+000
6647:0.0000000000000000e+000
6648:0.0000000000000000e+000
6649:0.0000000000000000e+000
6650:0.0000000000000000e+000
6651:0.0000000000000000e+000
6652:0.0000000000000000e+000
6653:0.0000000000000000e+000
6654:0.0000000000000000e+000
6655:0.0000000000000000e+000
6656:0.0000000000000000e+000
6657:0.0000000000000000e+000
6658:0.0000000000000000e+000
6659:0.0000000000000000e+000
6660:0.0000000000000000e+000
6661:0.0000000000000000e+000
6662:0.0000000000000000e+000
6663:0.0000000000000000e+000
6664:0.0000000000000000e+000
6665:0.0000000000000000e+000
6666:0.0000000000000000e+000
6667:0.0000000000000000e+000
6668:0.0000000000000000e+000
6669:0.0000000000000000e+000
6670:0.0000000000000000e+000
6671:0.0000000000000000e+000
6672:0.0000000000000000e+000
6673:0.0000000000000000e+000
6674:0.0000000000000000e+000
6675:0.0000000000000000e+000
6676:0.0000000000000000e+000
6677:0.0000000000000000e+000
6678:0.0000000000000000e+000
6679:0.0000000000000000e+000
6680:0.0000000000000000e+000
6681:0.0000000000000000e+000
6682:0.0000000000000000e+000
6683:0.0000000000000000e+000
6684:0.0000000000000000e+000
6685:0.0000000000000000e+000
6686:0.0000000000000000e+000
6687:0.0000000000000000e+000
6688:0.0000000000000000e+000
6689:0.0000000000000000e+000
6690:0.0000000000000000e+000
6691:0.0000000000000000e+000
6692:0.0000000000000000e+000
6693:0.0000000000000000e+000
6694:0.0000000000000000e+000
6695:0.0000000000000000e+000
6696:0.0000000000000000e+000
6697:0.0000000000000000e+000
6698:0.0000000000000000e+000
6699:0.0000000000000000e+000
6700:0.0000000000000000e+000
6701:0.0000000000000000e+000
6702:0.0000000000000000e+000
6703:0.0000000000000000e+000
6704:0.0000000000000000e+000
6705:0.0000000000000000e+000
6706:0.0000000000000000e+000
6707:0.0000000000000000e+000
6708:0.0000000000000000e+000
6709:0.0000000000000000e+000
6710:0.0000000000000000e+000
6711:0.0000000000000000e+000
6712:0.0000000000000000e+000
6713:0.0000000000000000e+000
6714:0.0000000000000000e+000
6715:0.0000000000000000e+000
6716:0.0000000000000000e+000
6717:0.0000000000000000e+000
6718:0.0000000000000000e+000
6719:0.0000000000000000e+000
6720:0.0000000000000000e+000
6721:0.0000000000000000e+000
6722:0.0000000000000000e+000
6723:0.0000000000000000e+000
6724:0.0000000000000000e+000
6725:0.0000000000000000e+000
6726:0.0000000000000000e+000
6727:0.0000000000000000e+000
6728:0.0000000000000000e+000
6729:0.0000000000000000e+000
6730:0.0000000000000000e+000
6731:0.0000000000000000e+000
6732:0.0000000000000000e+000
6733:0.0000000000000000e+000
6734:0.0000000000000000e+000
6735:0.0000000000000000e+000
6736:0.0000000000000000e+000
6737:0.0000000000000000e+000
6738:0.0000000000000000e+000
6739:0.0000000000000000e+000
6740:0.0000000000000000e+000
6741:0.0000000000000000e+000
6742:0.0000000000000000e+000
6743:0.0000000000000000e+000
6744:0.0000000000000000e+000
6745:0.0000000000000000e+000
6746:0.0000000000000000e+000
6747:0.0000000000000000e+000
6748:0.0000000000000000e+000
6749:0.0000000000000000e+000
6750:0.0000000000000000e+000
6751:0.0000000000000000e+000
6752:0.0000000000000000e+000
6753:0.0000000000000000e+000
6754:0.0000000000000000e+000
6755:0.0000000000000000e+000
6756:0.0000000000000000e+000
6757:0.0000000000000000e+000
6758:0.0000000000000000e+000
6759:0.0000000000000000e+000
6760:0.0000000000000000e+000
6761:0.0000000000000000e+000
6762:0.0000000000000000e+000
6763:0.0000000000000000e+000
6764:0.0000000000000000e+000
6765:0.0000000000000000e+000
6766:0.0000000000000000e+000
6767:0.0000000000000000e+000
6768:0.0000000000000000e+000
6769:0.0000000000000000e+000
6770:0.0000000000000000e+000
6771:0.0000000000000000e+000
6772:0.0000000000000000e+000
6773:0.0000000000000000e+000
6774:0.0000000000000000e+000
6775:0.0000000000000000e+000
6776:0.0000000000000000e+000
6777:0.0000000000000000e+000
6778:0.0000000000000000e+000
6779:0.0000000000000000e+000
6780:0.0000000000000000e+000
6781:0.0000000000000000e+000
6782:0.0000000000000000e+000
6783:0.0000000000000000e+000
6784:0.0000000000000000e+000
6785:0.0000000000000000e+000
6786:0.0000000000000000e+000
6787:0.0000000000000000e+000
6788:0.0000000000000000e+000
6789:0.0000000000000000e+000
6790:0.0000000000000000e+000
6791:0.0000000000000000e+000
6792:0.0000000000000000e+000
6793:0.0000000000000000e+000
6794:0.0000000000000000e+000
6795:0.0000000000000000e+000
6796:0.0000000000000000e+000
6797:0.0000000000000000e+000
6798:0.0000000000000000e+000
6799:0.0000000000000000e+000
6800:0.0000000000000000e+000
6801:0.0000000000000000e+000
6802:0.0000000000000000e+000
6803:0.0000000000000000e+000
6804:0.0000000000000000e+000
6805:0.0000000000000000e+000
6806:0.0000000000000000e+000
6807:0.0000000000000000e+000
6808:0.0000000000000000e+000
6809:0.0000000000000000e+000
6810:0.0000000000000000e+000
6811:0.0000000000000000e+000
6812:0.0000000000000000e+000
6813:0.0000000000000000e+000
6814:0.0000000000000000e+000
6815:0.0000000000000000e+000
6816:0.0000000000000000e+000
6817:0.0000000000000000e+000
6818:0.0000000000000000e+000
6819:0.0000000000000000e+000
6820:0.0000000000000000e+000
6821:0.0000000000000000e+000
6822:0.0000000000000000e+000
6823:0.0000000000000000e+000
6824:0.0000000000000000e+000
6825:0.0000000000000000e+000
6826:0.0000000000000000e+000
6827:0.0000000000000000e+000
6828:0.0000000000000000e+000
6829:0.0000000000000000e+000
6830:0.0000000000000000e+000
6831:0.0000000000000000e+000
6832:0.0000000000000000e+000
6833:0.0000000000000000e+000
6834:0.0000000000000000e+000
6835:0.0000000000000000e+000
6836:0.0000000000000000e+000
6837:0.0000000000000000e+000
6838:0.0000000000000000e+000
6839:0.0000000000000000e+000
6840:0.0000000000000000e+000
6841:0.0000000000000000e+000
6842:0.0000000000000000e+000
6843:0.0000000000000000e+000
6844:0.0000000000000000e+000
6845:0.0000000000000000e+000
6846:0.0000000000000000e+000
6847:0.0000000000000000e+000
6848:0.0000000000000000e+000
6849:0.0000000000000000e+000
6850:0.0000000000000000e+000
6851:0.0000000000000000e+000
6852:0.0000000000000000e+000
6853:0.0000000000000000e+000
6854:0.0000000000000000e+000
6855:0.0000000000000000e+000
6856:0.0000000000000000e+000
6857:0.0000000000000000e+000
6858:0.0000000000000000e+000
6859:0.0000000000000000e+000
6860:0.0000000000000000e+000
6861:0.0000000000000000e+000
6862:0.0000000000000000e+000
6863:0.0000000000000000e+000
6864:0.0000000000000000e+000
6865:0.0000000000000000e+000
6866:0.0000000000000000e+000
6867:0.0000000000000000e+000
6868:0.0000000000000000e+000
6869:0.0000000000000000e+000
6870:0.0000000000000000e+000
6871:0.0000000000000000e+000
6872:0.0000000000000000e+000
6873:0.0000000000000000e+000
6874:0.0000000000000000e+000
6875:0.0000000000000000e+000
6876:0.0000000000000000e+000
6877:0.0000000000000000e+000
6878:0.0000000000000000e+000
6879:0.0000000000000000e+000
6880:0.0000000000000000e+000
6881:0.0000000000000000e+000
6882:0.0000000000000000e+000
6883:0.0000000000000000e+000
6884:0.0000000000000000e+000
6885:0.0000000000000000e+000
6886:0.0000000000000000e+000
6887:0.0000000000000000e+000
6888:0.0000000000000000e+000
6889:0.0000000000000000e+000
6890:0.0000000000000000e+000
6891:0.0000000000000000e+000
6892:0.0000000000000000e+000
6893:0.0000000000000000e+000
6894:0.0000000000000000e+000
6895:0.0000000000000000e+000
6896:0.0000000000000000e+000
6897:0.0000000000000000e+000
6898:0.0000000000000000e+000
6899:0.0000000000000000e+000
6900:0.0000000000000000e+000
6901:0.0000000000000000e+000
6902:0.0000000000000000e+000
6903:0.0000000000000000e+000
6904:0.0000000000000000e+000
6905:0.0000000000000000e+000
6906:0.0000000000000000e+000
6907:0.0000000000000000e+000
6908:0.0000000000000000e+000
6909:0.0000000000000000e+000
6910:0.0000000000000000e+000
6911:0.0000000000000000e+000
6912:0.0000000000000000e+000
6913:0.0000000000000000e+000
6914:0.0000000000000000e+000
6915:0.0000000000000000e+000
6916:0.0000000000000000e+000
6917:0.0000000000000000e+000
6918:0.0000000000000000e+000
6919:0.0000000000000000e+000
6920:0.0000000000000000e+000
6921:0.0000000000000000e+000
6922:0.0000000000000000e+000
6923:0.0000000000000000e+000
6924:0.0000000000000000e+000
6925:0.0000000000000000e+000
6926:0.0000000000000000e+000
6927:0.0000000000000000e+000
6928:0.0000000000000000e+000
6929:0.0000000000000000e+000
6930:0.0000000000000000e+000
6931:0.0000000000000000e+000
6932:0.0000000000000000e+000
6933:0.0000000000000000e+000
6934:0.0000000000000000e+000
6935:0.0000000000000000e+000
6936:0.0000000000000000e+000
6937:0.0000000000000000e+000
6938:0.0000000000000000e+000
6939:0.0000000000000000e+000
6940:0.0000000000000000e+000
6941:0.0000000000000000e+000
6942:0.0000000000000000e+000
6943:0.0000000000000000e+000
6944:0.0000000000000000e+000
6945:0.0000000000000000e+000
6946:0.0000000000000000e+000
6947:0.0000000000000000e+000
6948:0.0000000000000000e+000
6949:0.0000000000000000e+000
6950:0.0000000000000000e+000
6951:0.0000000000000000e+000
6952:0.0000000000000000e+000
6953:0.0000000000000000e+000
6954:0.0000000000000000e+000
6955:0.0000000000000000e+000
6956:0.0000000000000000e+000
6957:0.0000000000000000e+000
6958:0.0000000000000000e+000
6959:0.0000000000000000e+000
6960:0.0000000000000000e+000
6961:0.0000000000000000e+000
6962:0.0000000000000000e+000
6963:0.0000000000000000e+000
6964:0.0000000000000000e+000
6965:0.0000000000000000e+000
6966:0.0000000000000000e+000
6967:0.0000000000000000e+000
6968:0.0000000000000000e+000
6969:0.0000000000000000e+000
6970:0.0000000000000000e+000
6971:0.0000000000000000e+000
6972:0.0000000000000000e+000
6973:0.0000000000000000e+000
6974:0.0000000000000000e+000
6975:0.0000000000000000e+000
6976:0.0000000000000000e+000
6977:0.0000000000000000e+000
6978:0.0000000000000000e+000
6979:0.0000000000000000e+000
6980:0.0000000000000000e+000
6981:0.0000000000000000e+000
6982:0.0000000000000000e+000
6983:0.0000000000000000e+000
6984:0.0000000000000000e+000
6985:0.0000000000000000e+000
6986:0.0000000000000000e+000
6987:0.0000000000000000e+000
6988:0.0000000000000000e+000
6989:0.0000000000000000e+000
6990:0.0000000000000000e+000
6991:0.0000000000000000e+000
6992:0.0000000000000000e+000
6993:0.0000000000000000e+000
6994:0.0000000000000000e+000
6995:0.0000000000000000e+000
6996:0.0000000000000000e+000
6997:0.0000000000000000e+000
6998:0.0000000000000000e+000
6999:0.0000000000000000e+000
7000:0.0000000000000000e+000
7001:0.0000000000000000e+000
7002:0.0000000000000000e+000
7003:0.0000000000000000e+000
7004:0.0000000000000000e+000
7005:0.0000000000000000e+000
7006:0.0000000000000000e+000
7007:0.0000000000000000e+000
7008:0.0000000000000000e+000
7009:0.0000000000000000e+000
7010:0.0000000000000000e+000
7011:0.0000000000000000e+000
7012:0.0000000000000000e+000
7013:0.0000000000000000e+000
7014:0.0000000000000000e+000
7015:0.0000000000000000e+000
7016:0.0000000000000000e+000
7017:0.0000000000000000e+000
7018:0.0000000000000000e+000
7019:0.0000000000000000e+000
7020:0.0000000000000000e+000
7021:0.0000000000000000e+000
7022:0.0000000000000000e+000
7023:0.0000000000000000e+000
7024:0.0000000000000000e+000
7025:0.0000000000000000e+000
7026:0.0000000000000000e+000
7027:0.0000000000000000e+000
7028:0.0000000000000000e+000
7029:0.0000000000000000e+000
7030:0.0000000000000000e+000
7031:0.0000000000000000e+000
7032:0.0000000000000000e+000
7033:0.0000000000000000e+000
7034:0.0000000000000000e+000
7035:0.0000000000000000e+000
7036:0.0000000000000000e+000
7037:0.0000000000000000e+000
7038:0.0000000000000000e+000
7039:0.0000000000000000e+000
7040:0.0000000000000000e+000
7041:0.0000000000000000e+000
7042:0.0000000000000000e+000
7043:0.0000000000000000e+000
7044:0.0000000000000000e+000
7045:0.0000000000000000e+000
7046:0.0000000000000000e+000
7047:0.0000000000000000e+000
7048:0.0000000000000000e+000
7049:0.0000000000000000e+000
7050:0.0000000000000000e+000
7051:0.0000000000000000e+000
7052:0.0000000000000000e+000
7053:0.0000000000000000e+000
7054:0.0000000000000000e+000
7055:0.0000000000000000e+000
7056:0.0000000000000000e+000
7057:0.0000000000000000e+000
7058:0.0000000000000000e+000
7059:0.0000000000000000e+000
7060:0.0000000000000000e+000
7061:0.0000000000000000e+000
7062:0.0000000000000000e+000
7063:0.0000000000000000e+000
7064:0.0000000000000000e+000
7065:0.0000000000000000e+000
7066:0.0000000000000000e+000
7067:0.0000000000000000e+000
7068:0.0000000000000000e+000
7069:0.0000000000000000e+000
7070:0.0000000000000000e+000
7071:0.0000000000000000e+000
7072:0.0000000000000000e+000
7073:0.0000000000000000e+000
7074:0.0000000000000000e+000
7075:0.0000000000000000e+000
7076:0.0000000000000000e+000
7077:0.0000000000000000e+000
7078:0.0000000000000000e+000
7079:0.0000000000000000e+000
7080:0.0000000000000000e+000
7081:0.0000000000000000e+000
7082:0.0000000000000000e+000
7083:0.0000000000000000e+000
7084:0.0000000000000000e+000
7085:0.0000000000000000e+000
7086:0.0000000000000000e+000
7087:0.0000000000000000e+000
7088:0.0000000000000000e+000
7089:0.0000000000000000e+000
7090:0.0000000000000000e+000
7091:0.0000000000000000e+000
7092:0.0000000000000000e+000
7093:0.0000000000000000e+000
7094:0.0000000000000000e+000
7095:0.0000000000000000e+000
7096:0.0000000000000000e+000
7097:0.0000000000000000e+000
7098:0.0000000000000000e+000
7099:0.0000000000000000e+000
7100:0.0000000000000000e+000
7101:0.0000000000000000e+000
7102:0.0000000000000000e+000
7103:0.0000000000000000e+000
7104:0.0000000000000000e+000
7105:0.0000000000000000e+000
7106:0.0000000000000000e+000
7107:0.0000000000000000e+000
7108:0.0000000000000000e+000
7109:0.0000000000000000e+000
7110:0.0000000000000000e+000
7111:0.0000000000000000e+000
7112:0.0000000000000000e+000
7113:0.0000000000000000e+000
7114:0.0000000000000000e+000
7115:0.0000000000000000e+000
7116:0.0000000000000000e+000
7117:0.0000000000000000e+000
7118:0.0000000000000000e+000
7119:0.0000000000000000e+000
7120:0.0000000000000000e+000
7121:0.0000000000000000e+000
7122:0.0000000000000000e+000
7123:0.0000000000000000e+000
7124:0.0000000000000000e+000
7125:0.0000000000000000e+000
7126:0.0000000000000000e+000
7127:0.0000000000000000e+000
7128:0.0000000000000000e+000
7129:0.0000000000000000e+000
7130:0.0000000000000000e+000
7131:0.0000000000000000e+000
7132:0.0000000000000000e+000
7133:0.0000000000000000e+000
7134:0.0000000000000000e+000
7135:0.0000000000000000e+000
7136:0.0000000000000000e+000
7137:0.0000000000000000e+000
7138:0.0000000000000000e+000
7139:0.0000000000000000e+000
7140:0.0000000000000000e+000
7141:0.0000000000000000e+000
7142:0.0000000000000000e+000
7143:0.0000000000000000e+000
7144:0.0000000000000000e+000
7145:0.0000000000000000e+000
7146:0.0000000000000000e+000
7147:0.0000000000000000e+000
7148:0.0000000000000000e+000
7149:0.0000000000000000e+000
7150:0.0000000000000000e+000
7151:0.0000000000000000e+000
7152:0.0000000000000000e+000
7153:0.0000000000000000e+000
7154:0.0000000000000000e+000
7155:0.0000000000000000e+000
7156:0.0000000000000000e+000
7157:0.0000000000000000e+000
7158:0.0000000000000000e+000
7159:0.0000000000000000e+000
7160:0.0000000000000000e+000
7161:0.0000000000000000e+000
7162:0.0000000000000000e+000
7163:0.0000000000000000e+000
7164:0.0000000000000000e+000
7165:0.0000000000000000e+000
7166:0.0000000000000000e+000
7167:0.0000000000000000e+000
7168:0.0000000000000000e+000
7169:0.0000000000000000e+000
7170:0.0000000000000000e+000
7171:0.0000000000000000e+000
7172:0.0000000000000000e+000
7173:0.0000000000000000e+000
7174:0.0000000000000000e+000
7175:0.0000000000000000e+000
7176:0.0000000000000000e+000
7177:0.0000000000000000e+000
7178:0.0000000000000000e+000
7179:0.0000000000000000e+000
7180:0.0000000000000000e+000
7181:0.0000000000000000e+000
7182:0.0000000000000000e+000
7183:0.0000000000000000e+000
7184:0.0000000000000000e+000
7185:0.0000000000000000e+000
7186:0.0000000000000000e+000
7187:0.0000000000000000e+000
7188:0.0000000000000000e+000
7189:0.0000000000000000e+000
7190:0.0000000000000000e+000
7191:0.0000000000000000e+000
7192:0.0000000000000000e+000
7193:0.0000000000000000e+000
7194:0.0000000000000000e+000
7195:0.0000000000000000e+000
7196:0.0000000000000000e+000
7197:0.0000000000000000e+000
7198:0.0000000000000000e+000
7199:0.0000000000000000e+000
