patch_n	x	y	stress_yy
0	 1.000000000000000e+00	 0.000000000000000e+00	 3.166984520848081e+01
0	 9.996729636820960e-01	 2.557292623921203e-02	 3.163903194161947e+01
0	 9.986858229984225e-01	 5.125093934185408e-02	 3.153364167717342e+01
0	 9.970304235821705e-01	 7.700907529800641e-02	 3.135354656380792e+01
0	 9.946998458296608e-01	 1.028217575064603e-01	 3.109943949586495e+01
0	 9.916884554886183e-01	 1.286628719407720e-01	 3.077284335333583e+01
0	 9.879919488237964e-01	 1.545058469873433e-01	 3.037609550482714e+01
0	 9.836073918782625e-01	 1.803237375032306e-01	 2.991230762674581e+01
0	 9.785332533915302e-01	 2.060893125863047e-01	 2.938530226455626e+01
0	 9.727694309855227e-01	 2.317751464998693e-01	 2.879952885110428e+01
0	 9.663172702855480e-01	 2.573537121488546e-01	 2.815996298883458e+01
0	 1.149999887500563e+00	 0.000000000000000e+00	 2.461638564245131e+01
0	 1.149683752385050e+00	 3.040983305945991e-02	 2.461136459979689e+01
0	 1.148729516366064e+00	 6.100501562201316e-02	 2.455542182750008e+01
0	 1.147129296888819e+00	 9.175663868994394e-02	 2.444866764273731e+01
0	 1.144876405002917e+00	 1.226349523392736e-01	 2.429166391244290e+01
0	 1.141965394264352e+00	 1.536094503774806e-01	 2.408542593910789e+01
0	 1.138392104395610e+00	 1.846489610485204e-01	 2.383141290227396e+01
0	 1.134153699238249e+00	 2.157217432919858e-01	 2.353150695707719e+01
0	 1.129248698573761e+00	 2.467955879938801e-01	 2.318798162126282e+01
0	 1.123677003436670e+00	 2.778379236019072e-01	 2.280346058054534e+01
0	 1.117439914598139e+00	 3.088159254195779e-01	 2.238086847201338e+01
0	 1.299999550002250e+00	 0.000000000000000e+00	 1.988170469946593e+01
0	 1.299694316072781e+00	 3.524673262419238e-02	 1.990676388085256e+01
0	 1.298772984669142e+00	 7.075907727076611e-02	 1.989444796698718e+01
0	 1.297227945048158e+00	 1.065041799601272e-01	 1.984489374374420e+01
0	 1.295052738912370e+00	 1.424481174517875e-01	 1.975851012513220e+01
0	 1.292242107625757e+00	 1.785559913937358e-01	 1.963597881154297e+01
0	 1.288792034368325e+00	 2.147920298943826e-01	 1.947824894666742e+01
0	 1.284699780779975e+00	 2.511196959830505e-01	 1.928652582541073e+01
0	 1.279963917684101e+00	 2.875018023413431e-01	 1.906225394516489e+01
0	 1.274584349527820e+00	 3.239006316090835e-01	 1.880709492039228e+01
0	 1.268562332228222e+00	 3.602780614963094e-01	 1.852290098099878e+01
0	 1.449998987505063e+00	 0.000000000000000e+00	 1.662970404683241e+01
0	 1.449704654745291e+00	 4.008362493340946e-02	 1.668145419704499e+01
0	 1.448816227907655e+00	 8.051312428811296e-02	 1.670402427542792e+01
0	 1.447326368060187e+00	 1.212516991085561e-01	 1.669752448639567e+01
0	 1.445228847558019e+00	 1.622612528440019e-01	 1.666224239192733e+01
0	 1.442518595572835e+00	 2.035024949895380e-01	 1.659864366705385e+01
0	 1.439191738741942e+00	 2.449350535249298e-01	 1.650736935739783e+01
0	 1.435245636503442e+00	 2.865175955764246e-01	 1.638922965354860e+01
0	 1.430678910722550e+00	 3.282079556286936e-01	 1.624519432083791e+01
0	 1.425491469258975e+00	 3.699632705213982e-01	 1.607638004195451e+01
0	 1.419684523175798e+00	 4.117401203790492e-01	 1.588403503702560e+01
0	 1.599998200009000e+00	 0.000000000000000e+00	 1.438312627589861e+01
0	 1.599714768402579e+00	 4.492050998711115e-02	 1.445616021776313e+01
0	 1.598859246081604e+00	 9.026715667405368e-02	 1.450516694861716e+01
0	 1.597424565924907e+00	 1.359991961352309e-01	 1.453022187405538e+01
0	 1.595404730939865e+00	 1.820743585159167e-01	 1.453152451060291e+01
0	 1.592794858105585e+00	 2.284489611648869e-01	 1.450939955161596e+01
0	 1.589591217516462e+00	 2.750780319401621e-01	 1.446429569506998e+01
0	 1.585791266408648e+00	 3.219154420721084e-01	 1.439678222673168e+01
0	 1.581393677689108e+00	 3.689140478559318e-01	 1.430754342352194e+01
0	 1.576398362630134e+00	 4.160258403388510e-01	 1.419737091139751e+01
0	 1.570806487440865e+00	 4.632021020677969e-01	 1.406715417624627e+01
0	 1.749997187514063e+00	 0.000000000000000e+00	 1.284969767360712e+01
0	 1.749724657044645e+00	 4.975738778529740e-02	 1.293846708881869e+01
0	 1.748902039190989e+00	 1.000211744285883e-01	 1.300653721727777e+01
0	 1.747522538642318e+00	 1.507466710401513e-01	 1.305395223341925e+01
0	 1.745580389057908e+00	 2.018874344675321e-01	 1.308084912544501e+01
0	 1.743070895224007e+00	 2.533953899197826e-01	 1.308745903704596e+01
0	 1.739990470691884e+00	 3.052209651400795e-01	 1.307410705230934e+01
0	 1.736336670495594e+00	 3.573132354701015e-01	 1.304121040630467e+01
0	 1.732108218583774e+00	 4.096200790230576e-01	 1.298927514906172e+01
0	 1.727305029641297e+00	 4.620883410614423e-01	 1.291889133544379e+01
0	 1.721928225023426e+00	 5.146640065625530e-01	 1.283072685568058e+01
0	 1.899995950020250e+00	 0.000000000000000e+00	 1.184042156107650e+01
0	 1.899734320671490e+00	 5.459425832796828e-02	 1.193984165006681e+01
0	 1.898944607235809e+00	 1.097751775517168e-01	 1.202074912970065e+01
0	 1.897620286212420e+00	 1.654941238233176e-01	 1.208316234584442e+01
0	 1.895755821912148e+00	 2.217004806988480e-01	 1.212717349532131e+01
0	 1.893346706928101e+00	 2.783417812542251e-01	 1.215295017196308e+01
0	 1.890389498268208e+00	 3.353638531246820e-01	 1.216073574658929e+01
0	 1.886881848764280e+00	 3.927109757704041e-01	 1.215084855805272e+01
0	 1.882822533406550e+00	 4.503260491300712e-01	 1.212367992365029e+01
0	 1.878211470292463e+00	 5.081507726891719e-01	 1.207969100853754e+01
0	 1.873049735923479e+00	 5.661258338633171e-01	 1.201940862394780e+01
0	 2.049994487527563e+00	 0.000000000000000e+00	 1.122766387415395e+01
0	 2.049743759283111e+00	 5.943112161512375e-02	 1.133326471650944e+01
0	 2.048986950216066e+00	 1.195291660434392e-01	 1.142180230574611e+01
0	 2.047717808635211e+00	 1.802415544847296e-01	 1.149327358945007e+01
0	 2.045931029502584e+00	 2.415134972098644e-01	 1.154773770363098e+01
0	 2.043622293217868e+00	 3.032881351682144e-01	 1.158531766195026e+01
0	 2.040788300245434e+00	 3.655066958939695e-01	 1.160620111422237e+01
0	 2.037426801214705e+00	 4.281086629730164e-01	 1.161064014892099e+01
0	 2.033536622157434e+00	 4.910319581769723e-01	 1.159895013746964e+01
0	 2.029117684583635e+00	 5.542131352220399e-01	 1.157150764159841e+01
0	 2.024171020141025e+00	 6.175875839700894e-01	 1.152874742806191e+01
0	 2.199992800036000e+00	 0.000000000000000e+00	 1.092211912920964e+01
0	 2.199752972879513e+00	 6.426797764676385e-02	 1.103003494736508e+01
0	 2.199029068131757e+00	 1.292831399037555e-01	 1.112184817261538e+01
0	 2.197815105910694e+00	 1.949889630243872e-01	 1.119753727126042e+01
0	 2.196106011829216e+00	 2.613264840005812e-01	 1.125713575706433e+01
0	 2.193897654093306e+00	 3.282344516617504e-01	 1.130073397874322e+01
0	 2.191186876623562e+00	 3.956494934479421e-01	 1.132848012450319e+01
0	 2.187971527846871e+00	 4.635062970779381e-01	 1.134058041743192e+01
0	 2.184250484836427e+00	 5.317378061637610e-01	 1.133729849363085e+01
0	 2.180023672514809e+00	 6.002754286600462e-01	 1.131895397363819e+01
0	 2.175292077676064e+00	 6.690492568828700e-01	 1.128592025623381e+01
0	 2.349990887545562e+00	 0.000000000000000e+00	 1.085942752824670e+01
0	 2.349761961460690e+00	 6.910482642288851e-02	 1.096633297730497e+01
0	 2.349070960982886e+00	 1.390370991326657e-01	 1.105776608337270e+01
0	 2.347912178038867e+00	 2.097363494422906e-01	 1.113368837685649e+01
0	 2.346280768892045e+00	 2.811394410709988e-01	 1.119411221209121e+01
0	 2.344172789554417e+00	 3.531807307348334e-01	 1.123910262112368e+01
0	 2.341585227402592e+00	 4.257922457865997e-01	 1.126877848078429e+01
0	 2.338516028660777e+00	 4.989038780851693e-01	 1.128331296661588e+01
0	 2.334964121443529e+00	 5.724435930904375e-01	 1.128293328211967e+01
0	 2.330929434085988e+00	 6.463376530031908e-01	 1.126791966730335e+01
0	 2.326412908528595e+00	 7.205108526016588e-01	 1.123860370612080e+01
0	 2.499988750056250e+00	 0.000000000000000e+00	 1.099203341054865e+01
0	 2.499770725026647e+00	 7.394166794349778e-02	 1.109506848851109e+01
0	 2.499112628769450e+00	 1.487910437301697e-01	 1.118303470489164e+01
0	 2.498009025019731e+00	 2.244837137384398e-01	 1.125587712771287e+01
0	 2.496455300691071e+00	 3.009523684211167e-01	 1.131358938000247e+01
0	 2.494447699601199e+00	 3.781269723874630e-01	 1.135621553670590e+01
0	 2.491983352582525e+00	 4.559349529099427e-01	 1.138385139968225e+01
0	 2.489060303656423e+00	 5.343014059947100e-01	 1.139664512439762e+01
0	 2.485677531978741e+00	 6.131493189570014e-01	 1.139479718467855e+01
0	 2.481834969297172e+00	 6.923998082514738e-01	 1.137855967528946e+01
0	 2.477533512698618e+00	 7.719723711264557e-01	 1.134823496570064e+01
0	 9.663172702855480e-01	 2.573537121488546e-01	 2.815996298883459e+01
0	 9.591793620732318e-01	 2.827982619426179e-01	 2.746389941235940e+01
0	 9.513601689584680e-01	 3.080806073922526e-01	 2.672097536447251e+01
0	 9.428654211265124e-01	 3.331734929460903e-01	 2.593789120088987e+01
0	 9.337022982642078e-01	 3.580499477747234e-01	 2.512141265380705e+01
0	 9.238794106811713e-01	 3.826833818802652e-01	 2.427824342542642e+01
0	 9.134067728053055e-01	 4.070476806024162e-01	 2.341491003951685e+01
0	 9.022957692201137e-01	 4.311172968179087e-01	 2.253766195230653e+01
0	 8.905591134850915e-01	 4.548673401506053e-01	 2.165238882693704e+01
0	 8.782108000513508e-01	 4.782736625388824e-01	 2.076455581729703e+01
0	 8.652660496514462e-01	 5.013129395444765e-01	 1.987915675930539e+01
0	 1.117439914598139e+00	 3.088159254195779e-01	 2.238086847201339e+01
0	 1.110539936480547e+00	 3.396975806386511e-01	 2.195656618315990e+01
0	 1.102981382940312e+00	 3.704489931236601e-01	 2.149896153658145e+01
0	 1.094769793156659e+00	 4.010372588456850e-01	 2.101196635823427e+01
0	 1.085912107493716e+00	 4.314296791462701e-01	 2.049956966637518e+01
0	 1.076416649250996e+00	 4.615938766428449e-01	 1.996577202182168e+01
0	 1.066293099042388e+00	 4.914979099286173e-01	 1.941452421873688e+01
0	 1.055552461965562e+00	 5.211103862159407e-01	 1.884967187433311e+01
0	 1.044207027795018e+00	 5.504005710899794e-01	 1.827490707152404e+01
0	 1.032270324500510e+00	 5.793384945678733e-01	 1.769372779273303e+01
0	 1.019757065457224e+00	 6.078950526970949e-01	 1.710940548388224e+01
0	 1.268562332228222e+00	 3.602780614963094e-01	 1.852290098099878e+01
0	 1.261900283848551e+00	 3.965968139850741e-01	 1.827073113470041e+01
0	 1.254602369491958e+00	 4.328172853019068e-01	 1.799391672825435e+01
0	 1.246673937331922e+00	 4.689009229491089e-01	 1.769489132597680e+01
0	 1.238121688410218e+00	 5.048093004477687e-01	 1.737615598572565e+01
0	 1.228953659016682e+00	 5.405042530393119e-01	 1.704024279264538e+01
0	 1.219179195951692e+00	 5.759480125791949e-01	 1.668967996278378e+01
0	 1.208808924827656e+00	 6.111033406241608e-01	 1.632695936474666e+01
0	 1.197854711634708e+00	 6.459336587294396e-01	 1.595450714363822e+01
0	 1.186329617861952e+00	 6.804031749996700e-01	 1.557465795343618e+01
0	 1.174247849527959e+00	 7.144770059767271e-01	 1.518963312341400e+01
0	 1.419684523175798e+00	 4.117401203790492e-01	 1.588403503702561e+01
0	 1.413260404177244e+00	 4.534959619818867e-01	 1.574459986007311e+01
0	 1.406223128613405e+00	 4.951854839269930e-01	 1.558635913240635e+01
0	 1.398577853652303e+00	 5.367644852563626e-01	 1.541090695953228e+01
0	 1.390331041013713e+00	 5.781888116792189e-01	 1.521989244318628e+01
0	 1.381490439978229e+00	 6.194145110696666e-01	 1.501499819672506e+01
0	 1.372065063533218e+00	 6.603979885541494e-01	 1.479791937805177e+01
0	 1.362065157806394e+00	 7.010961600425684e-01	 1.457034372589894e+01
0	 1.351502165004163e+00	 7.414666030689865e-01	 1.433393301416471e+01
0	 1.340388680135674e+00	 7.814677038342718e-01	 1.409030625740749e+01
0	 1.328738401863651e+00	 8.210587993833739e-01	 1.384102491380440e+01
0	 1.570806487440865e+00	 4.632021020677969e-01	 1.406715417624627e+01
0	 1.564620297466626e+00	 5.103950246290894e-01	 1.400234043718990e+01
0	 1.557843660304654e+00	 5.575535889989182e-01	 1.392282577545828e+01
0	 1.550481542117800e+00	 6.046279457674451e-01	 1.382970389801958e+01
0	 1.542540165304202e+00	 6.515682128406212e-01	 1.372411263969736e+01
0	 1.534026992135638e+00	 6.983246507339090e-01	 1.360722066701419e+01
0	 1.524950701786966e+00	 7.448478378534807e-01	 1.348021428371376e+01
0	 1.515321160901775e+00	 7.910888444711636e-01	 1.334428463036585e+01
0	 1.505149387903381e+00	 8.369994041086192e-01	 1.320061553811474e+01
0	 1.494447511321678e+00	 8.825320810716791e-01	 1.305037225723284e+01
0	 1.483228722464299e+00	 9.276404329170345e-01	 1.289469123718230e+01
0	 1.721928225023426e+00	 5.146640065625530e-01	 1.283072685568058e+01
0	 1.715979963716697e+00	 5.672940019266816e-01	 1.281468582145929e+01
0	 1.709463964565705e+00	 6.199216005176829e-01	 1.278692315356566e+01
0	 1.702385002728414e+00	 6.724913044823572e-01	 1.274822378317866e+01
0	 1.694749061281682e+00	 7.249475039319749e-01	 1.269940825356161e+01
0	 1.686563315488907e+00	 7.772346720320389e-01	 1.264132411949643e+01
0	 1.677836110712936e+00	 8.292975604771888e-01	 1.257483728531915e+01
0	 1.668576934113801e+00	 8.810813939099464e-01	 1.250082346622478e+01
0	 1.658796380332363e+00	 9.325320618483387e-01	 1.242015994238460e+01
0	 1.648506111419962e+00	 9.835963067118920e-01	 1.233371775557980e+01
0	 1.637718811329905e+00	 1.034221906577709e+00	 1.224235447475663e+01
0	 1.873049735923479e+00	 5.661258338633171e-01	 1.201940862394780e+01
0	 1.867339402927457e+00	 6.241928938746634e-01	 1.203383486976812e+01
0	 1.861084041396557e+00	 6.822895184832865e-01	 1.203875665835026e+01
0	 1.854288235484144e+00	 7.403545614010988e-01	 1.203476368867748e+01
0	 1.846957728946156e+00	 7.983266849532805e-01	 1.202247488274648e+01
0	 1.839099410038039e+00	 8.561445749640565e-01	 1.200253257775575e+01
0	 1.830721290311127e+00	 9.137471564252733e-01	 1.197559659841061e+01
0	 1.821832477442471e+00	 9.710738083589170e-01	 1.194233833173564e+01
0	 1.812443142291110e+00	 1.028064576288144e+00	 1.190343491965181e+01
0	 1.802564480430528e+00	 1.084660380754910e+00	 1.185956367423672e+01
0	 1.792208668460466e+00	 1.140803220365398e+00	 1.181139680770372e+01
0	 2.024171020141025e+00	 6.175875839700894e-01	 1.152874742806190e+01
0	 2.018698615098906e+00	 6.810917004730350e-01	 1.156022015923942e+01
0	 2.012703890797211e+00	 7.446573428957294e-01	 1.158387097981316e+01
0	 2.006191240384992e+00	 8.082177165236695e-01	 1.160016409074275e+01
0	 1.999166168297624e+00	 8.717057559045381e-01	 1.160958824481333e+01
0	 1.991635275783031e+00	 9.350543595299613e-01	 1.161265264461038e+01
0	 1.983606240581540e+00	 9.981966256977348e-01	 1.160988270589411e+01
0	 1.975087790887786e+00	 1.061066087818075e+00	 1.160181577161463e+01
0	 1.966089673779621e+00	 1.123596947428036e+00	 1.158899685850643e+01
0	 1.956622618353376e+00	 1.185724303200734e+00	 1.157197451264791e+01
0	 1.946698293855985e+00	 1.247384374280101e+00	 1.155129684293932e+01
0	 2.175292077676064e+00	 6.690492568828700e-01	 1.128592025623381e+01
0	 2.170057600231045e+00	 7.379904217217967e-01	 1.132431630404450e+01
0	 2.164323512767666e+00	 8.070250737550115e-01	 1.135618672349224e+01
0	 2.158094017430954e+00	 8.760807698500694e-01	 1.138191420877992e+01
0	 2.151374379336084e+00	 9.450847167857475e-01	 1.140190267027126e+01
0	 2.144170912723884e+00	 1.013964025729754e+00	 1.141657419212375e+01
0	 2.136490961524176e+00	 1.082645968294573e+00	 1.142636585836877e+01
0	 2.128342874449745e+00	 1.151058232287421e+00	 1.143172650993592e+01
0	 2.119735974797896e+00	 1.219129175268015e+00	 1.143311349368956e+01
0	 2.110680525188503e+00	 1.286788074049363e+00	 1.143098946147594e+01
0	 2.101187687516461e+00	 1.353965368321819e+00	 1.142581927268927e+01
0	 2.326412908528595e+00	 7.205108526016588e-01	 1.123860370612080e+01
0	 2.321416358323872e+00	 7.948890576209479e-01	 1.127610412449052e+01
0	 2.315942907307924e+00	 8.693927110611331e-01	 1.130808905865246e+01
0	 2.309996566622036e+00	 9.439437213802994e-01	 1.133488798373093e+01
0	 2.303582362061538e+00	 1.018463567596908e+00	 1.135684928054301e+01
0	 2.296706320860599e+00	 1.092873573563434e+00	 1.137433785544329e+01
0	 2.289375453139033e+00	 1.167095184215788e+00	 1.138773263808522e+01
0	 2.281597728128347e+00	 1.241050241766955e+00	 1.139742400537309e+01
0	 2.273382045345934e+00	 1.314661259808079e+00	 1.140381117937622e+01
0	 2.264738200935913e+00	 1.387851693300798e+00	 1.140729964522810e+01
0	 2.255676849441893e+00	 1.460546202490550e+00	 1.140829863217510e+01
0	 2.477533512698618e+00	 7.719723711264557e-01	 1.134823496570064e+01
0	 2.472774889377388e+00	 8.517876081704888e-01	 1.137867813744206e+01
0	 2.467562074417983e+00	 9.317602548140940e-01	 1.140439940066089e+01
0	 2.461898887958233e+00	 1.011806571114358e+00	 1.142569342221016e+01
0	 2.455790116473984e+00	 1.091842308338022e+00	 1.144287224955653e+01
0	 2.449241500193176e+00	 1.171783003031002e+00	 1.145626334088007e+01
0	 2.442259715426113e+00	 1.251544273461379e+00	 1.146620748405460e+01
0	 2.434852351923595e+00	 1.331042116256676e+00	 1.147305664373735e+01
0	 2.427027885423738e+00	 1.410193201048230e+00	 1.147717177575510e+01
0	 2.418795645595604e+00	 1.488915160955038e+00	 1.147892064694328e+01
0	 2.410165779632282e+00	 1.567126876786296e+00	 1.147867569666517e+01
0	 8.652660496514462e-01	 5.013129395444765e-01	 1.987915675930537e+01
0	 8.517416390148504e-01	 5.239620833542135e-01	 1.901800583361553e+01
0	 8.376546495845698e-01	 5.462003486063129e-01	 1.816612666971655e+01
0	 8.230235944554187e-01	 5.680073192043984e-01	 1.732695679598003e+01
0	 8.078679389440340e-01	 5.893636746162986e-01	 1.650345625143638e+01
0	 7.922080209706511e-01	 6.102512424511254e-01	 1.569812426952251e+01
0	 7.760649682494194e-01	 6.306530442364180e-01	 1.491302310112103e+01
0	 7.594606129488911e-01	 6.505533342043818e-01	 1.414980705833048e+01
0	 7.424174044922536e-01	 6.699376309678146e-01	 1.340975504725954e+01
0	 7.249583211663617e-01	 6.887927420372356e-01	 1.269380508324184e+01
0	 7.071067812000000e-01	 7.071067812000000e-01	 1.200258952328663e+01
0	 1.019757065457224e+00	 6.078950526970949e-01	 1.710940548388224e+01
0	 1.006683468170774e+00	 6.360412799957051e-01	 1.653586698497912e+01
0	 9.930660447031967e-01	 6.637509658103725e-01	 1.596495918986099e+01
0	 9.789226910466082e-01	 6.909981594101882e-01	 1.539903268460552e+01
0	 9.642722236742418e-01	 7.177581242741000e-01	 1.484018057366067e+01
0	 9.491343025761649e-01	 7.440074078492045e-01	 1.429024017156136e+01
0	 9.335293512099136e-01	 7.697239035234755e-01	 1.375079917488575e+01
0	 9.174784740056318e-01	 7.948869045254155e-01	 1.322320547229738e+01
0	 9.010033720729582e-01	 8.194771495473929e-01	 1.270857977894231e+01
0	 8.841262577564236e-01	 8.434768599737411e-01	 1.220783033762672e+01
0	 8.668697686777688e-01	 8.668697686777688e-01	 1.172166900422797e+01
0	 1.174247849527959e+00	 7.144770059767271e-01	 1.518963312341400e+01
0	 1.161625064915331e+00	 7.481203085187054e-01	 1.480513071489727e+01
0	 1.148477206705996e+00	 7.813014066888982e-01	 1.442074568611996e+01
0	 1.134821553790295e+00	 8.139888151301679e-01	 1.403808554524985e+01
0	 1.120676273799032e+00	 8.461523813407049e-01	 1.365861365632663e+01
0	 1.106060348793123e+00	 8.777633726135103e-01	 1.328364688803634e+01
0	 1.090993497974549e+00	 9.087945542046861e-01	 1.291435595304548e+01
0	 1.075496098036135e+00	 9.392202583464735e-01	 1.255176806143677e+01
0	 1.059589101775096e+00	 9.690164438179816e-01	 1.219677150265418e+01
0	 1.043293955594786e+00	 9.981607458842373e-01	 1.185012177714268e+01
0	 1.026632516511075e+00	 1.026632516511075e+00	 1.151244891810813e+01
0	 1.328738401863651e+00	 8.210587993833739e-01	 1.384102491380440e+01
0	 1.316566429248524e+00	 8.601991689232146e-01	 1.358329132599578e+01
0	 1.303888135592968e+00	 8.988516712418905e-01	 1.332505391853520e+01
0	 1.290720182686480e+00	 9.369792863643377e-01	 1.306741708092286e+01
0	 1.277080089318405e+00	 9.745464458161129e-01	 1.281140162322509e+01
0	 1.262986159621527e+00	 1.011519136744043e+00	 1.255794190876655e+01
0	 1.248457408543325e+00	 1.047864996280050e+00	 1.230788459201429e+01
0	 1.233513485040402e+00	 1.083553395667556e+00	 1.206198878920330e+01
0	 1.218174593598666e+00	 1.118555513779580e+00	 1.182092749520848e+01
0	 1.202461414681450e+00	 1.152844399768723e+00	 1.158529005473001e+01
0	 1.186395024699918e+00	 1.186395024699918e+00	 1.135558549770270e+01
0	 1.483228722464299e+00	 9.276404329170345e-01	 1.289469123718230e+01
0	 1.471507561170349e+00	 9.722778612092319e-01	 1.272206146858693e+01
0	 1.459298831364113e+00	 1.016401759469349e+00	 1.254919127168635e+01
0	 1.446618577735162e+00	 1.059969573112697e+00	 1.237684330506201e+01
0	 1.433483670232361e+00	 1.102940317700325e+00	 1.220572985598134e+01
0	 1.419911735061375e+00	 1.145274700240803e+00	 1.203651050414560e+01
0	 1.405921082916242e+00	 1.186935229749567e+00	 1.186979075095228e+01
0	 1.391530635018430e+00	 1.227886316488662e+00	 1.170612153216200e+01
0	 1.376759847543670e+00	 1.268094359432189e+00	 1.154599952060607e+01
0	 1.361628635016414e+00	 1.307527821627200e+00	 1.138986811893249e+01
0	 1.346157293244298e+00	 1.346157293244298e+00	 1.123811903985774e+01
0	 1.637718811329905e+00	 1.034221906577709e+00	 1.224235447475663e+01
0	 1.626448460680810e+00	 1.084356385376757e+00	 1.212566591108193e+01
0	 1.614709294019430e+00	 1.133951671371275e+00	 1.200940110719693e+01
0	 1.602516738936342e+00	 1.182959675375248e+00	 1.189408914522541e+01
0	 1.589887016540900e+00	 1.231333996993340e+00	 1.178022718967877e+01
0	 1.576837075112669e+00	 1.279030063103790e+00	 1.166827888769811e+01
0	 1.563384521093300e+00	 1.326005254613237e+00	 1.155867336116476e+01
0	 1.549547547970222e+00	 1.372219020809793e+00	 1.145180474850759e+01
0	 1.535344863610105e+00	 1.417632980775807e+00	 1.134803224643112e+01
0	 1.520795616599679e+00	 1.462211011459668e+00	 1.124768059670722e+01
0	 1.505919322144216e+00	 1.505919322144216e+00	 1.115104096041121e+01
0	 1.792208668460466e+00	 1.140803220365398e+00	 1.181139680770372e+01
0	 1.781389127779906e+00	 1.196434741425793e+00	 1.172948729728568e+01
0	 1.770119523558921e+00	 1.251501406947666e+00	 1.164882436098253e+01
0	 1.758414666290020e+00	 1.305949593151987e+00	 1.156977641759234e+01
0	 1.746290128244021e+00	 1.359727483695158e+00	 1.149269019850040e+01
0	 1.733762179775407e+00	 1.412785225333003e+00	 1.141788981776545e+01
0	 1.720847723074499e+00	 1.465075070871061e+00	 1.134567621728231e+01
0	 1.707564223895776e+00	 1.516551508630946e+00	 1.127632696208837e+01
0	 1.693929641797974e+00	 1.567171377810435e+00	 1.121009635617148e+01
0	 1.679962359431245e+00	 1.616893969266125e+00	 1.114721584586933e+01
0	 1.665681111399671e+00	 1.665681111399671e+00	 1.108789467603286e+01
0	 1.946698293855985e+00	 1.247384374280101e+00	 1.155129684293932e+01
0	 1.936329562467634e+00	 1.308512929356335e+00	 1.148834867419157e+01
0	 1.925529519982584e+00	 1.369050966198525e+00	 1.142750463758910e+01
0	 1.914312359796195e+00	 1.428939326442917e+00	 1.136902202808723e+01
0	 1.902693005341725e+00	 1.488120777805780e+00	 1.131314197350833e+01
0	 1.890687049049590e+00	 1.546540186928444e+00	 1.126008903714945e+01
0	 1.878310688859839e+00	 1.604144678523038e+00	 1.121007107136001e+01
0	 1.865580662795092e+00	 1.660883779952125e+00	 1.116327930413198e+01
0	 1.852514182107276e+00	 1.716709550536074e+00	 1.111988863800982e+01
0	 1.839128863511110e+00	 1.771576695046574e+00	 1.108005813878785e+01
0	 1.825442661010663e+00	 1.825442661010663e+00	 1.104393169046169e+01
0	 2.101187687516461e+00	 1.353965368321819e+00	 1.142581927268927e+01
0	 2.091269764743998e+00	 1.420590949168387e+00	 1.136971399735950e+01
0	 2.080939283290419e+00	 1.486600349123849e+00	 1.131654181861069e+01
0	 2.070209819454868e+00	 1.551928875248037e+00	 1.126648278672316e+01
0	 2.059095647834011e+00	 1.616513879325205e+00	 1.121970354516861e+01
0	 2.047611682935218e+00	 1.680294947890111e+00	 1.117635732680545e+01
0	 2.035773418449320e+00	 1.743214077569168e+00	 1.113658413202671e+01
0	 2.023596864668172e+00	 1.805215834773329e+00	 1.110051107329620e+01
0	 2.011098484538011e+00	 1.866247498952722e+00	 1.106825286901576e+01
0	 1.998295128839277e+00	 1.926259188801012e+00	 1.103991246879694e+01
0	 1.985203970977193e+00	 1.985203970977193e+00	 1.101558179191753e+01
0	 2.255676849441893e+00	 1.460546202490550e+00	 1.140829863217510e+01
0	 2.246209734608997e+00	 1.532668800861947e+00	 1.134955589334798e+01
0	 2.236348813482428e+00	 1.604149555723641e+00	 1.129451528564065e+01
0	 2.226107045266038e+00	 1.674918239567347e+00	 1.124330286927007e+01
0	 2.215498055720881e+00	 1.744906788253434e+00	 1.119603240809848e+01
0	 2.204536081432291e+00	 1.814049508218005e+00	 1.115280563954043e+01
0	 2.193235911842942e+00	 1.882283268009451e+00	 1.111371269028596e+01
0	 2.181612829515013e+00	 1.949547673094555e+00	 1.107883262271176e+01
0	 2.169682549090178e+00	 2.015785223060380e+00	 1.104823409608095e+01
0	 2.157461155415744e+00	 2.080941450529441e+00	 1.102197612635697e+01
0	 2.144965041299260e+00	 2.144965041299260e+00	 1.100010892862931e+01
0	 2.410165779632282e+00	 1.567126876786296e+00	 1.147867569666517e+01
0	 2.401149472062629e+00	 1.644746484437016e+00	 1.140974491342176e+01
0	 2.391758110558609e+00	 1.721698585997898e+00	 1.134521129546544e+01
0	 2.382004037229707e+00	 1.797907419400847e+00	 1.128516286855182e+01
0	 2.371900229002333e+00	 1.873299504590465e+00	 1.122967546766900e+01
0	 2.361460244540809e+00	 1.947803867912127e+00	 1.117881318313808e+01
0	 2.350698169040705e+00	 2.021352249843887e+00	 1.113262893600390e+01
0	 2.339628557335619e+00	 2.093879294915807e+00	 1.109116516726779e+01
0	 2.328266375763778e+00	 2.165322722859049e+00	 1.105445462511823e+01
0	 2.316626943240512e+00	 2.235623480231860e+00	 1.102252123435736e+01
0	 2.304725871976864e+00	 2.304725871976864e+00	 1.099538103265452e+01
0	 2.499988750056250e+00	 0.000000000000000e+00	 1.099203341054865e+01
0	 2.499770725026647e+00	 7.394166794349778e-02	 1.109506848851109e+01
0	 2.499112628769450e+00	 1.487910437301697e-01	 1.118303470489164e+01
0	 2.498009025019731e+00	 2.244837137384398e-01	 1.125587712771286e+01
0	 2.496455300691071e+00	 3.009523684211167e-01	 1.131358938000247e+01
0	 2.494447699601199e+00	 3.781269723874630e-01	 1.135621553670590e+01
0	 2.491983352582525e+00	 4.559349529099427e-01	 1.138385139968224e+01
0	 2.489060303656423e+00	 5.343014059947100e-01	 1.139664512439762e+01
0	 2.485677531978741e+00	 6.131493189570014e-01	 1.139479718467855e+01
0	 2.481834969297172e+00	 6.923998082514738e-01	 1.137855967528946e+01
0	 2.477533512698618e+00	 7.719723711264557e-01	 1.134823496570063e+01
0	 2.649991000045000e+00	 0.000000000000000e+00	 1.094167737645715e+01
0	 2.649783876389527e+00	 7.877865094302783e-02	 1.104057060876931e+01
0	 2.649158685315402e+00	 1.585452736331827e-01	 1.112556648106945e+01
0	 2.648110262374002e+00	 2.392315093989629e-01	 1.119662743279468e+01
0	 2.646634225135823e+00	 3.207658753046814e-01	 1.125375701614679e+01
0	 2.644727005229822e+00	 4.030739437243493e-01	 1.129700160822103e+01
0	 2.642385876948400e+00	 4.860785417155360e-01	 1.132645160415329e+01
0	 2.639608982112964e+00	 5.696999692913988e-01	 1.134224206916034e+01
0	 2.636395350922146e+00	 6.538562354769027e-01	 1.134455283733017e+01
0	 2.632744918536289e+00	 7.384633108300602e-01	 1.133360805556696e+01
0	 2.628658537187449e+00	 8.234353949143451e-01	 1.130967518186583e+01
0	 2.799993250033749e+00	 0.000000000000000e+00	 1.088412010484844e+01
0	 2.799797027752406e+00	 8.361563394273903e-02	 1.097892458970894e+01
0	 2.799204741861354e+00	 1.682995035365301e-01	 1.106087932181686e+01
0	 2.798211499728272e+00	 2.539793050599455e-01	 1.112996074448359e+01
0	 2.796813149580574e+00	 3.405793821888015e-01	 1.118618030927689e+01
0	 2.795006310858444e+00	 4.280209150618581e-01	 1.122958603844200e+01
0	 2.792788401314274e+00	 5.162221305217887e-01	 1.126026364816871e+01
0	 2.790157660569506e+00	 6.050985325887538e-01	 1.127833721402433e+01
0	 2.787113169865550e+00	 6.945631519974467e-01	 1.128396936780245e+01
0	 2.783654867775407e+00	 7.845268134092355e-01	 1.127736102346206e+01
0	 2.779783561676280e+00	 8.748984187027391e-01	 1.125875063848336e+01
0	 2.949995500022500e+00	 0.000000000000000e+00	 1.082054085665898e+01
0	 2.949810179115287e+00	 8.845261694263146e-02	 1.091130487264036e+01
0	 2.949250798407306e+00	 1.780537334402122e-01	 1.099016249892447e+01
0	 2.948312737082543e+00	 2.687271007213877e-01	 1.105710151369297e+01
0	 2.946992074025326e+00	 3.603928890734773e-01	 1.111213964652987e+01
0	 2.945285616487066e+00	 4.529678863999892e-01	 1.115532601648639e+01
0	 2.943190925680149e+00	 5.463657193287006e-01	 1.118674219394223e+01
0	 2.940706339026047e+00	 6.404970958867754e-01	 1.120650287041678e+01
0	 2.937830988808955e+00	 7.352700685186339e-01	 1.121475612686108e+01
0	 2.934564817014525e+00	 8.305903159890000e-01	 1.121168329777359e+01
0	 2.930908586165111e+00	 9.263614424916374e-01	 1.119749843551818e+01
0	 3.099997750011250e+00	 0.000000000000000e+00	 1.075187473569503e+01
0	 3.099823330478168e+00	 9.328959994270508e-02	 1.083864197633569e+01
0	 3.099296854953259e+00	 1.878079633442288e-01	 1.091435765001359e+01
0	 3.098413974436814e+00	 2.834748963832893e-01	 1.097901872765023e+01
0	 3.097170998470078e+00	 3.802063959587087e-01	 1.103264790582114e+01
0	 3.095564922115686e+00	 4.779148577387424e-01	 1.107529493911623e+01
0	 3.093593450046023e+00	 5.765093081362718e-01	 1.110703764670712e+01
0	 3.091255017482589e+00	 6.758956591854629e-01	 1.112798257963820e+01
0	 3.088548807752360e+00	 7.759769850404636e-01	 1.113826534053933e+01
0	 3.085474766253643e+00	 8.766538185693533e-01	 1.113805055302370e+01
0	 3.082033610653943e+00	 9.778244662810405e-01	 1.112753148381492e+01
0	 3.250000000000000e+00	 0.000000000000000e+00	 1.067887276753866e+01
0	 3.249836481841048e+00	 9.812658294295989e-02	 1.076168269731589e+01
0	 3.249342911499211e+00	 1.975621932485799e-01	 1.083422004336773e+01
0	 3.248515211791084e+00	 2.982226920456504e-01	 1.089648923059274e+01
0	 3.247349922914830e+00	 4.000199028444956e-01	 1.094851685073824e+01
0	 3.245844227744308e+00	 5.028618290781180e-01	 1.099035290300295e+01
0	 3.243995974411898e+00	 6.066528969445025e-01	 1.102207174979531e+01
0	 3.241803695939131e+00	 7.112942224848169e-01	 1.104377277615764e+01
0	 3.239266626695765e+00	 8.166839015629366e-01	 1.105558074561076e+01
0	 3.236384715492760e+00	 9.227173211502957e-01	 1.105764584976004e+01
0	 3.233158635142773e+00	 1.029287490070948e+00	 1.105014345379544e+01
0	 3.400002249988749e+00	 0.000000000000000e+00	 1.060214507046020e+01
0	 3.399849633203927e+00	 1.029635659433959e-01	 1.068103331980593e+01
0	 3.399388968045163e+00	 2.073164231532655e-01	 1.075036251195055e+01
0	 3.398616449145356e+00	 3.129704877084710e-01	 1.081014309999032e+01
0	 3.397528847359582e+00	 4.198334097308381e-01	 1.086040468583140e+01
0	 3.396123533372931e+00	 5.278088004181162e-01	 1.090119717961977e+01
0	 3.394398498777772e+00	 6.367964857533924e-01	 1.093259170803646e+01
0	 3.392352374395672e+00	 7.466927857848371e-01	 1.095468126166437e+01
0	 3.389984445639169e+00	 8.573908180860523e-01	 1.096758107513412e+01
0	 3.387294664731879e+00	 9.687808237318273e-01	 1.097142873756238e+01
0	 3.384283659631604e+00	 1.080750513861359e+00	 1.096638403479769e+01
0	 3.550004499977499e+00	 0.000000000000000e+00	 1.052219242109337e+01
0	 3.549862784566808e+00	 1.078005489440131e-01	 1.059719117840955e+01
0	 3.549435024591115e+00	 2.170706530582858e-01	 1.066328751878612e+01
0	 3.548717686499626e+00	 3.277182833717511e-01	 1.072049674355310e+01
0	 3.547707771804333e+00	 4.396469166177361e-01	 1.076885072738495e+01
0	 3.546402839001552e+00	 5.527557717587364e-01	 1.080839900470342e+01
0	 3.544801023143647e+00	 6.669400745629417e-01	 1.083920963304534e+01
0	 3.542901052852214e+00	 7.820913490855238e-01	 1.086136982505610e+01
0	 3.540702264582575e+00	 8.980977346098110e-01	 1.087498634367189e+01
0	 3.538204613970997e+00	 1.014844326313947e+00	 1.088018565823173e+01
0	 3.535408684120436e+00	 1.132213537652275e+00	 1.087711386262124e+01
0	 3.700006749966249e+00	 0.000000000000000e+00	 1.043942969847887e+01
0	 3.699875935929688e+00	 1.126375319448115e-01	 1.051056807881696e+01
0	 3.699481081137068e+00	 2.268248829636405e-01	 1.057341093319164e+01
0	 3.698818923853896e+00	 3.424660790354908e-01	 1.062797742640344e+01
0	 3.697886696249085e+00	 4.594604235051897e-01	 1.067430108642530e+01
0	 3.696682144630173e+00	 5.777027430999788e-01	 1.071243082412743e+01
0	 3.695203547509522e+00	 6.970836633731504e-01	 1.074243175366952e+01
0	 3.693449731308756e+00	 8.174899123868765e-01	 1.076438580647406e+01
0	 3.691420083525979e+00	 9.388046511342125e-01	 1.077839213411136e+01
0	 3.689114563210115e+00	 1.060907828896657e+00	 1.078456729809200e+01
0	 3.686533708609267e+00	 1.183676561443695e+00	 1.078304524739968e+01
0	 3.850008999954999e+00	 0.000000000000000e+00	 1.035420354414554e+01
0	 3.849889087292568e+00	 1.174745149457911e-01	 1.042150792590802e+01
0	 3.849527137683020e+00	 2.365791128693298e-01	 1.048107991454536e+01
0	 3.848920161208168e+00	 3.572138746996900e-01	 1.053294171013974e+01
0	 3.848065620693837e+00	 4.792739303931989e-01	 1.057712796961924e+01
0	 3.846961450258796e+00	 6.026497144418437e-01	 1.061368676481440e+01
0	 3.845606071875396e+00	 7.272272521840183e-01	 1.064268036139927e+01
0	 3.843998409765296e+00	 8.528884756888954e-01	 1.066418581271664e+01
0	 3.842137902469385e+00	 9.795115676592573e-01	 1.067829536450385e+01
0	 3.840024512449232e+00	 1.106971331479955e+00	 1.068511666877952e+01
0	 3.837658733098098e+00	 1.235139585235620e+00	 1.068477280755582e+01
0	 4.000011249943750e+00	 0.000000000000000e+00	 1.026680583728944e+01
0	 3.999902238655450e+00	 1.223114979469520e-01	 1.033030016453316e+01
0	 3.999573194228973e+00	 2.463333427753538e-01	 1.038658653972739e+01
0	 3.999021398562439e+00	 3.719616703643486e-01	 1.043568949680031e+01
0	 3.998244545138589e+00	 4.990874372817639e-01	 1.047764437472673e+01
0	 3.997240755887419e+00	 6.275966857843311e-01	 1.051249821791387e+01
0	 3.996008596241272e+00	 7.573708409955457e-01	 1.054031051490030e+01
0	 3.994547088221840e+00	 8.882870389915810e-01	 1.056115377031054e+01
0	 3.992855721412790e+00	 1.020218484184945e+00	 1.057511390669444e+01
0	 3.990934461688352e+00	 1.153034834063843e+00	 1.058229049477420e+01
0	 3.988783757586930e+00	 1.286602609028049e+00	 1.058279681266501e+01
0	 2.477533512698618e+00	 7.719723711264557e-01	 1.134823496570064e+01
0	 2.472774889377388e+00	 8.517876081704888e-01	 1.137867813744206e+01
0	 2.467562074417983e+00	 9.317602548140940e-01	 1.140439940066089e+01
0	 2.461898887958233e+00	 1.011806571114358e+00	 1.142569342221016e+01
0	 2.455790116473984e+00	 1.091842308338022e+00	 1.144287224955653e+01
0	 2.449241500193176e+00	 1.171783003031002e+00	 1.145626334088007e+01
0	 2.442259715426113e+00	 1.251544273461379e+00	 1.146620748405461e+01
0	 2.434852351923595e+00	 1.331042116256676e+00	 1.147305664373735e+01
0	 2.427027885423738e+00	 1.410193201048230e+00	 1.147717177575510e+01
0	 2.418795645595604e+00	 1.488915160955038e+00	 1.147892064694328e+01
0	 2.410165779632282e+00	 1.567126876786296e+00	 1.147867569666516e+01
0	 2.628658537187449e+00	 8.234353949143451e-01	 1.130967518186583e+01
0	 2.624137847709186e+00	 9.086878230177352e-01	 1.134055745925695e+01
0	 2.619185676430042e+00	 9.941296228342560e-01	 1.136765527873982e+01
0	 2.613805652478804e+00	 1.079671405854780e+00	 1.139122474071188e+01
0	 2.608002323004838e+00	 1.165223195426786e+00	 1.141153557514770e+01
0	 2.601781141221454e+00	 1.250694740620358e+00	 1.142886963724887e+01
0	 2.595148449619688e+00	 1.335995832865312e+00	 1.144351931857442e+01
0	 2.588111458458530e+00	 1.421036623032722e+00	 1.145578590321133e+01
0	 2.580678219684425e+00	 1.505727936623182e+00	 1.146597789859469e+01
0	 2.572857596477731e+00	 1.589981584742758e+00	 1.147440936992296e+01
0	 2.564659228666179e+00	 1.673710668595353e+00	 1.148139830579745e+01
0	 2.779783561676280e+00	 8.748984187027391e-01	 1.125875063848336e+01
0	 2.775500806040989e+00	 9.655880378653909e-01	 1.128911903605397e+01
0	 2.770809278442119e+00	 1.056498990854741e+00	 1.131655232342590e+01
0	 2.765712416999422e+00	 1.147536240595450e+00	 1.134127420062618e+01
0	 2.760214529535773e+00	 1.238604082515734e+00	 1.136351875675376e+01
0	 2.754320782249860e+00	 1.329606478209841e+00	 1.138352932378692e+01
0	 2.748037183813446e+00	 1.420447392269325e+00	 1.140155726944995e+01
0	 2.741370564993714e+00	 1.511031129808813e+00	 1.141786075150011e+01
0	 2.734328553945435e+00	 1.601262672198154e+00	 1.143270345582634e+01
0	 2.726919547360267e+00	 1.691048008530483e+00	 1.144635334027262e+01
0	 2.719152677700579e+00	 1.780294460404411e+00	 1.145908140514906e+01
0	 2.930908586165111e+00	 9.263614424916374e-01	 1.119749843551819e+01
0	 2.926863764372795e+00	 1.022488252713456e+00	 1.122655127114958e+01
0	 2.922432880454218e+00	 1.118868358875551e+00	 1.125344256883625e+01
0	 2.917619181520085e+00	 1.215401075336367e+00	 1.127836840186933e+01
0	 2.912426736066789e+00	 1.311984969604863e+00	 1.130153240248676e+01
0	 2.906860423278392e+00	 1.408518215799451e+00	 1.132314489371763e+01
0	 2.900925918007387e+00	 1.504898951673420e+00	 1.134342198114065e+01
0	 2.894629671529147e+00	 1.601025636584950e+00	 1.136258462147421e+01
0	 2.887978888206768e+00	 1.696797407773146e+00	 1.138085768487165e+01
0	 2.880981498243212e+00	 1.792114432318214e+00	 1.139846902739070e+01
0	 2.873646126735485e+00	 1.886878252213468e+00	 1.141564858936972e+01
0	 3.082033610653943e+00	 9.778244662810405e-01	 1.112753148381492e+01
0	 3.078226722704608e+00	 1.079388467561930e+00	 1.115458799520846e+01
0	 3.074056482466336e+00	 1.181237726896684e+00	 1.118019094867194e+01
0	 3.069525946040793e+00	 1.283265910077533e+00	 1.120451252932558e+01
0	 3.064638942597886e+00	 1.385365856694175e+00	 1.122772998290628e+01
0	 3.059400064307051e+00	 1.487429953389187e+00	 1.125002496489881e+01
0	 3.053814652201509e+00	 1.589350511077596e+00	 1.127158286804468e+01
0	 3.047888778064826e+00	 1.691020143361132e+00	 1.129259214097228e+01
0	 3.041629222468425e+00	 1.792332143348159e+00	 1.131324361054501e+01
0	 3.035043449126567e+00	 1.893180856105949e+00	 1.133372982012783e+01
0	 3.028139575770894e+00	 1.993462044022526e+00	 1.135424439535111e+01
0	 3.233158635142773e+00	 1.029287490070948e+00	 1.105014345379544e+01
0	 3.229589681036427e+00	 1.136288682410813e+00	 1.107462066874335e+01
0	 3.225680084478475e+00	 1.243607094918141e+00	 1.109829518562446e+01
0	 3.221432710561547e+00	 1.351130744818947e+00	 1.112131825949749e+01
0	 3.216851149129064e+00	 1.458746743783669e+00	 1.114384397749359e+01
0	 3.211939705335835e+00	 1.566341690979050e+00	 1.116602877848497e+01
0	 3.206703386395814e+00	 1.673802070481853e+00	 1.118803096752280e+01
0	 3.201147884600754e+00	 1.781014650137360e+00	 1.121001023454575e+01
0	 3.195279556730406e+00	 1.887866878923192e+00	 1.123212718659757e+01
0	 3.189105400010330e+00	 1.994247279893690e+00	 1.125454290236552e+01
0	 3.182633024806809e+00	 2.100045835831584e+00	 1.127741851728002e+01
0	 3.384283659631604e+00	 1.080750513861359e+00	 1.096638403479769e+01
0	 3.380952639368249e+00	 1.193188897260105e+00	 1.098777891403906e+01
0	 3.377303686490635e+00	 1.305976462939922e+00	 1.100897193220814e+01
0	 3.373339475082346e+00	 1.418995579560609e+00	 1.103009577636274e+01
0	 3.369063355660323e+00	 1.532127630873346e+00	 1.105128395764727e+01
0	 3.364479346364748e+00	 1.645253428569039e+00	 1.107267046503042e+01
0	 3.359592120590302e+00	 1.758253629886191e+00	 1.109438942841940e+01
0	 3.354406991136930e+00	 1.871009156913632e+00	 1.111657479810084e+01
0	 3.348929890992710e+00	 1.983401614498245e+00	 1.113936004707718e+01
0	 3.343167350894503e+00	 2.095313703681435e+00	 1.116287790238717e+01
0	 3.337126473843227e+00	 2.206629627640642e+00	 1.118726011093675e+01
0	 3.535408684120436e+00	 1.132213537652275e+00	 1.087711386262124e+01
0	 3.532315597700076e+00	 1.250089112109807e+00	 1.089498933723465e+01
0	 3.528927288502814e+00	 1.368345830962026e+00	 1.091321974982301e+01
0	 3.525246239603192e+00	 1.486860414302519e+00	 1.093192112100992e+01
0	 3.521275562191663e+00	 1.605508517963204e+00	 1.095120846875357e+01
0	 3.517018987393786e+00	 1.724165166159156e+00	 1.097119556734657e+01
0	 3.512480854784971e+00	 1.842705189290610e+00	 1.099199472886366e+01
0	 3.507666097673354e+00	 1.961003663689951e+00	 1.101371661197581e+01
0	 3.502580225255339e+00	 2.078936350073318e+00	 1.103647006255163e+01
0	 3.497229301779085e+00	 2.196380127469185e+00	 1.106036198991977e+01
0	 3.491619922880150e+00	 2.313213419449700e+00	 1.108549728208668e+01
0	 3.686533708609267e+00	 1.183676561443695e+00	 1.078304524739968e+01
0	 3.683678556031909e+00	 1.306989326959918e+00	 1.079701917494979e+01
0	 3.680550890515012e+00	 1.430715198984454e+00	 1.081186588017017e+01
0	 3.677153004124083e+00	 1.554725249044677e+00	 1.082768625931527e+01
0	 3.673487768723085e+00	 1.678889405053246e+00	 1.084457852884893e+01
0	 3.669558628422951e+00	 1.803076903749399e+00	 1.086263806668499e+01
0	 3.665369588979823e+00	 1.927156748695110e+00	 1.088195728762325e+01
0	 3.660925204210026e+00	 2.050998170466316e+00	 1.090262555626244e+01
0	 3.656230559518292e+00	 2.174471085648412e+00	 1.092472914006173e+01
0	 3.651291252664076e+00	 2.297446551256941e+00	 1.094835120460178e+01
0	 3.646113371917576e+00	 2.419797211258757e+00	 1.097357185248219e+01
0	 3.837658733098098e+00	 1.235139585235620e+00	 1.068477280755582e+01
0	 3.835041514363746e+00	 1.363889541810438e+00	 1.069450914477190e+01
0	 3.832174492527232e+00	 1.493084567007205e+00	 1.070560147509115e+01
0	 3.829059768645019e+00	 1.622590083787083e+00	 1.071813682912993e+01
0	 3.825699975254587e+00	 1.752270292143470e+00	 1.073219800465962e+01
0	 3.822098269452244e+00	 1.881988641339768e+00	 1.074786347148998e+01
0	 3.818258323174858e+00	 2.011608308099691e+00	 1.076520732115099e+01
0	 3.814184310746946e+00	 2.140992677242726e+00	 1.078429926331992e+01
0	 3.809880893781568e+00	 2.270005821223525e+00	 1.080520467022369e+01
0	 3.805353203549477e+00	 2.398512975044702e+00	 1.082798466954934e+01
0	 3.800606820955508e+00	 2.526381003067814e+00	 1.085269628573503e+01
0	 3.988783757586930e+00	 1.286602609028049e+00	 1.058279681266501e+01
0	 3.986404472695590e+00	 1.420789756661367e+00	 1.058799849178769e+01
0	 3.983798094539473e+00	 1.555453935030281e+00	 1.059500847631428e+01
0	 3.980966533166001e+00	 1.690454918529738e+00	 1.060390096471014e+01
0	 3.977912181786171e+00	 1.825651179233876e+00	 1.061474447283023e+01
0	 3.974637910481664e+00	 1.960900378930265e+00	 1.062760178726806e+01
0	 3.971147057370076e+00	 2.096059867504354e+00	 1.064252997311295e+01
0	 3.967443417284116e+00	 2.230987184019182e+00	 1.065958043696058e+01
0	 3.963531228045168e+00	 2.365540556798659e+00	 1.067879904520452e+01
0	 3.959415154435287e+00	 2.499579398832468e+00	 1.070022629686191e+01
0	 3.955100269993945e+00	 2.632964794876874e+00	 1.072389754947209e+01
0	 2.410165779632282e+00	 1.567126876786296e+00	 1.147867569666517e+01
0	 2.401149472062629e+00	 1.644746484437016e+00	 1.140974491342176e+01
0	 2.391758110558609e+00	 1.721698585997898e+00	 1.134521129546544e+01
0	 2.382004037229707e+00	 1.797907419400847e+00	 1.128516286855182e+01
0	 2.371900229002333e+00	 1.873299504590465e+00	 1.122967546766900e+01
0	 2.361460244540809e+00	 1.947803867912127e+00	 1.117881318313808e+01
0	 2.350698169040705e+00	 2.021352249843887e+00	 1.113262893600389e+01
0	 2.339628557335619e+00	 2.093879294915807e+00	 1.109116516726779e+01
0	 2.328266375763778e+00	 2.165322722859049e+00	 1.105445462511823e+01
0	 2.316626943240512e+00	 2.235623480231860e+00	 1.102252123435736e+01
0	 2.304725871976864e+00	 2.304725871976864e+00	 1.099538103265452e+01
0	 2.564659228666179e+00	 1.673710668595353e+00	 1.148139830579745e+01
0	 2.556093741545993e+00	 1.756827446314448e+00	 1.141192859297551e+01
0	 2.547171953399237e+00	 1.839251054612918e+00	 1.134720727621979e+01
0	 2.537905589222977e+00	 1.920900196700967e+00	 1.128729330546073e+01
0	 2.528306977090006e+00	 2.001695976449018e+00	 1.123223312231971e+01
0	 2.518388997723800e+00	 2.081562139957269e+00	 1.118206124628789e+01
0	 2.508165032052228e+00	 2.160425299483447e+00	 1.113680097766131e+01
0	 2.497648907159019e+00	 2.238215138475777e+00	 1.109646520148456e+01
0	 2.486854841057069e+00	 2.314864596669713e+00	 1.106105727660336e+01
0	 2.475797386707324e+00	 2.390310034425090e+00	 1.103057199417260e+01
0	 2.464491375701491e+00	 2.464491375701491e+00	 1.100499659056870e+01
0	 2.719152677700579e+00	 1.780294460404411e+00	 1.145908140514906e+01
0	 2.711038011029945e+00	 1.868908408191879e+00	 1.138996092268924e+01
0	 2.702585796240506e+00	 1.956803523227937e+00	 1.132590455299035e+01
0	 2.693807141216914e+00	 2.043892974001087e+00	 1.126694414117159e+01
0	 2.684713725178339e+00	 2.130092448307570e+00	 1.121309864511596e+01
0	 2.675317750907414e+00	 2.215320412002412e+00	 1.116437483991871e+01
0	 2.665631895064307e+00	 2.299498349123008e+00	 1.112076812928855e+01
0	 2.655669256982879e+00	 2.382550982035747e+00	 1.108226344781275e+01
0	 2.645443306350695e+00	 2.464406470480378e+00	 1.104883623802111e+01
0	 2.634967830174318e+00	 2.544996588618321e+00	 1.102045348658096e+01
0	 2.624256879426119e+00	 2.624256879426119e+00	 1.099707480468093e+01
0	 2.873646126735485e+00	 1.886878252213468e+00	 1.141564858936971e+01
0	 2.865982280514487e+00	 1.980989370069312e+00	 1.134759693484621e+01
0	 2.857999639082421e+00	 2.074355991842957e+00	 1.128489576775889e+01
0	 2.849708693211519e+00	 2.166885751301206e+00	 1.122755159186223e+01
0	 2.841120473267331e+00	 2.258488920166124e+00	 1.117555758000770e+01
0	 2.832246504091650e+00	 2.349078684047554e+00	 1.112889437968702e+01
0	 2.823098758076941e+00	 2.438571398762567e+00	 1.108753101778993e+01
0	 2.813689606807197e+00	 2.526886825595717e+00	 1.105142588811141e+01
0	 2.804031771644656e+00	 2.613948344291042e+00	 1.102052780529436e+01
0	 2.794138273641492e+00	 2.699683142811550e+00	 1.099477710939960e+01
0	 2.784022383150746e+00	 2.784022383150746e+00	 1.097410680611117e+01
0	 3.028139575770894e+00	 1.993462044022526e+00	 1.135424439535111e+01
0	 3.020926549999619e+00	 2.093070331946743e+00	 1.128785157841603e+01
0	 3.013413481924977e+00	 2.191908460457976e+00	 1.122707102908712e+01
0	 3.005610245206788e+00	 2.289878528601327e+00	 1.117188548481028e+01
0	 2.997527221356981e+00	 2.386885392024676e+00	 1.112226384468483e+01
0	 2.989175257276508e+00	 2.482836956092697e+00	 1.107816206234935e+01
0	 2.980565621090131e+00	 2.577644448402127e+00	 1.103952413190841e+01
0	 2.971709956631976e+00	 2.671222669155688e+00	 1.100628315003183e+01
0	 2.962620236938951e+00	 2.763490218101706e+00	 1.097836243759845e+01
0	 2.953308717108849e+00	 2.854369697004781e+00	 1.095567670483880e+01
0	 2.943787886875373e+00	 2.943787886875373e+00	 1.093813324481122e+01
0	 3.182633024806809e+00	 2.100045835831584e+00	 1.127741851728002e+01
0	 3.175870819485337e+00	 2.205151293824175e+00	 1.121317348679827e+01
0	 3.168827324768175e+00	 2.309460929072995e+00	 1.115478163197597e+01
0	 3.161511797202723e+00	 2.412871305901446e+00	 1.110220333040452e+01
0	 3.153933969447292e+00	 2.515281863883228e+00	 1.105538455323784e+01
0	 3.146104010461989e+00	 2.616595228137840e+00	 1.101425783425545e+01
0	 3.138032484103876e+00	 2.716717498041687e+00	 1.097874332697968e+01
0	 3.129730306457215e+00	 2.815558512715658e+00	 1.094874993255327e+01
0	 3.121208702233580e+00	 2.913032091912370e+00	 1.092417648138466e+01
0	 3.112479160576386e+00	 3.009056251198011e+00	 1.090491295220147e+01
0	 3.103553390600000e+00	 3.103553390600000e+00	 1.089084171307537e+01
0	 3.337126473843227e+00	 2.206629627640642e+00	 1.118726011093675e+01
0	 3.330815088971646e+00	 2.317232255701606e+00	 1.112557198181968e+01
0	 3.324241167612018e+00	 2.427013397688014e+00	 1.106996003228798e+01
0	 3.317413349199326e+00	 2.535864083201566e+00	 1.102036353688922e+01
0	 3.310340717538263e+00	 2.643678335741782e+00	 1.097670673909938e+01
0	 3.303032763648092e+00	 2.750353500182982e+00	 1.093889988739110e+01
0	 3.295499347118176e+00	 2.855790547681246e+00	 1.090684035526924e+01
0	 3.287750656282912e+00	 2.959894356275627e+00	 1.088041382753605e+01
0	 3.279797167528545e+00	 3.062573965723035e+00	 1.085949553538802e+01
0	 3.271649604044104e+00	 3.163742805391240e+00	 1.084395152361027e+01
0	 3.263318894324626e+00	 3.263318894324626e+00	 1.083363993408172e+01
0	 3.491619922880150e+00	 2.313213419449700e+00	 1.108549728208668e+01
0	 3.485759358458544e+00	 2.429313217579039e+00	 1.102671136608230e+01
0	 3.479655010456503e+00	 2.544565866303034e+00	 1.097420913109272e+01
0	 3.473314901196594e+00	 2.658856860501685e+00	 1.092790987324159e+01
0	 3.466747465629891e+00	 2.772074807600334e+00	 1.088771718082501e+01
0	 3.459961516834817e+00	 2.884111772228124e+00	 1.085352002977518e+01
0	 3.452966210133033e+00	 2.994863597320807e+00	 1.082519395968346e+01
0	 3.445771006109069e+00	 3.104230199835597e+00	 1.080260231218734e+01
0	 3.438385632823843e+00	 3.212115839533698e+00	 1.078559751388424e+01
0	 3.430820047512003e+00	 3.318429359584470e+00	 1.077402238661410e+01
0	 3.423084398049253e+00	 3.423084398049253e+00	 1.076771146891010e+01
0	 3.646113371917576e+00	 2.419797211258757e+00	 1.097357185248219e+01
0	 3.640703627946031e+00	 2.541394179456471e+00	 1.091798192863760e+01
0	 3.635068853301630e+00	 2.662118334918052e+00	 1.086886965353796e+01
0	 3.629216453194529e+00	 2.781849637801805e+00	 1.082613535300622e+01
0	 3.623154213722180e+00	 2.900471279458887e+00	 1.078966292054624e+01
0	 3.616890270022164e+00	 3.017870044273267e+00	 1.075932096583137e+01
0	 3.610433073148445e+00	 3.133936646960367e+00	 1.073496404085579e+01
0	 3.603791355935685e+00	 3.248566043395567e+00	 1.071643392508124e+01
0	 3.596974098119477e+00	 3.361657713344363e+00	 1.070356095127581e+01
0	 3.589990490980084e+00	 3.473115913777701e+00	 1.069616535442202e+01
0	 3.582849901773880e+00	 3.582849901773880e+00	 1.069405862702537e+01
0	 3.800606820955508e+00	 2.526381003067814e+00	 1.085269628573503e+01
0	 3.795647897434107e+00	 2.653475141333903e+00	 1.080055410816637e+01
0	 3.790482696147402e+00	 2.779670803533072e+00	 1.075507164606103e+01
0	 3.785118005193131e+00	 2.904842415101925e+00	 1.071613116048357e+01
0	 3.779560961815128e+00	 3.028867751317439e+00	 1.068359771212019e+01
0	 3.773819023210134e+00	 3.151628316318409e+00	 1.065732035741850e+01
0	 3.767899936164413e+00	 3.273009696599927e+00	 1.063713341987336e+01
0	 3.761811705762761e+00	 3.392901886955538e+00	 1.062285781730836e+01
0	 3.755562563415445e+00	 3.511199587155027e+00	 1.061430242635966e+01
0	 3.749160934448347e+00	 3.627802467970931e+00	 1.061126546603958e+01
0	 3.742615405498507e+00	 3.742615405498507e+00	 1.061353588319848e+01
0	 3.955100269993945e+00	 2.632964794876874e+00	 1.072389754947209e+01
0	 3.950592166922772e+00	 2.765556103211336e+00	 1.067542029727764e+01
0	 3.945896538993816e+00	 2.897223272148092e+00	 1.063377429417617e+01
0	 3.941019557192398e+00	 3.027835192402045e+00	 1.059882455166733e+01
0	 3.935967709908736e+00	 3.157264223175993e+00	 1.057041807311123e+01
0	 3.930747776398728e+00	 3.285386588363553e+00	 1.054838509295437e+01
0	 3.925366799180936e+00	 3.412082746239488e+00	 1.053254038886382e+01
0	 3.919832055590298e+00	 3.537237730515509e+00	 1.052268464712584e+01
0	 3.914151028711748e+00	 3.660741460965693e+00	 1.051860586200534e+01
0	 3.908331377916790e+00	 3.782489022164162e+00	 1.052008075041337e+01
0	 3.902380909223136e+00	 3.902380909223136e+00	 1.052687616414980e+01
0	 4.000011249943750e+00	 0.000000000000000e+00	 1.026680583728944e+01
0	 3.999902238655450e+00	 1.223114979469520e-01	 1.033030016453316e+01
0	 3.999573194228973e+00	 2.463333427753538e-01	 1.038658653972739e+01
0	 3.999021398562439e+00	 3.719616703643486e-01	 1.043568949680031e+01
0	 3.998244545138589e+00	 4.990874372817639e-01	 1.047764437472673e+01
0	 3.997240755887419e+00	 6.275966857843311e-01	 1.051249821791387e+01
0	 3.996008596241272e+00	 7.573708409955457e-01	 1.054031051490030e+01
0	 3.994547088221840e+00	 8.882870389915810e-01	 1.056115377031054e+01
0	 3.992855721412790e+00	 1.020218484184945e+00	 1.057511390669444e+01
0	 3.990934461688352e+00	 1.153034834063843e+00	 1.058229049477420e+01
0	 3.988783757586930e+00	 1.286602609028049e+00	 1.058279681266501e+01
0	 4.150009112454438e+00	 0.000000000000000e+00	 1.026093934204660e+01
0	 4.149911002221406e+00	 1.271483394692778e-01	 1.032048823880134e+01
0	 4.149614862015536e+00	 2.560872873760166e-01	 1.037336174639890e+01
0	 4.149118245543303e+00	 3.867090346648194e-01	 1.041958751122085e+01
0	 4.148419076937616e+00	 5.189003646370816e-01	 1.045920238844138e+01
0	 4.147515665934201e+00	 6.525429274427502e-01	 1.049225328083456e+01
0	 4.146406721421203e+00	 7.875135481249752e-01	 1.051879783208703e+01
0	 4.145091363217485e+00	 9.236845669072101e-01	 1.053890497049648e+01
0	 4.143569131948000e+00	 1.060924210057300e+00	 1.055265530032947e+01
0	 4.141839996899534e+00	 1.199096989317321e+00	 1.056014133969412e+01
0	 4.139904361756954e+00	 1.338064127557142e+00	 1.056146760550234e+01
0	 4.300007199964000e+00	 0.000000000000000e+00	 1.025549183137290e+01
0	 4.299919990802586e+00	 1.319851882469281e-01	 1.031123005822027e+01
0	 4.299656754866665e+00	 2.658412466077123e-01	 1.036078933168652e+01
0	 4.299215317671477e+00	 4.014564210864974e-01	 1.040419985848303e+01
0	 4.298593834000445e+00	 5.387133217119873e-01	 1.044149964864472e+01
0	 4.297790801395312e+00	 6.774892065207557e-01	 1.047273529692906e+01
0	 4.296805072200235e+00	 8.176563004687070e-01	 1.049796263288549e+01
0	 4.295635864031390e+00	 9.590821479193811e-01	 1.051724723629494e+01
0	 4.294282768555103e+00	 1.101629996988494e+00	 1.053066481582803e+01
0	 4.292745758470713e+00	 1.245159213664270e+00	 1.053830145008787e+01
0	 4.291025192609484e+00	 1.389525723278731e+00	 1.054025369164947e+01
0	 4.450005512472437e+00	 0.000000000000000e+00	 1.025041892337923e+01
0	 4.449929204398984e+00	 1.368220442799031e-01	 1.030246684076455e+01
0	 4.449698872782357e+00	 2.755952204704409e-01	 1.034879992286564e+01
0	 4.449312614946959e+00	 4.162038296293828e-01	 1.038945047566432e+01
0	 4.448768816327078e+00	 5.585263085064811e-01	 1.042445736456436e+01
0	 4.448066162270750e+00	 7.024355230183474e-01	 1.045386674188575e+01
0	 4.447203648578363e+00	 8.477990980267410e-01	 1.047773265552297e+01
0	 4.446180590663556e+00	 9.944797820280936e-01	 1.049611753618694e+01
0	 4.444996631234097e+00	 1.142335844978525e+00	 1.050909256159127e+01
0	 4.443651746401889e+00	 1.291221507104690e+00	 1.051673789703801e+01
0	 4.442146250144523e+00	 1.440987396192817e+00	 1.051914281306995e+01
0	 4.600004049979750e+00	 0.000000000000000e+00	 1.024568229080919e+01
0	 4.599938643010606e+00	 1.416589075682026e-01	 1.029414784009538e+01
0	 4.599741215762615e+00	 2.853492089642025e-01	 1.033733364662454e+01
0	 4.599410137369751e+00	 4.309512602934756e-01	 1.037527372890630e+01
0	 4.598944023917513e+00	 5.783393250205627e-01	 1.040800755847954e+01
0	 4.598341748560517e+00	 7.273818769355257e-01	 1.043558073647895e+01
0	 4.597602450555589e+00	 8.779419407990771e-01	 1.045804556247004e+01
0	 4.596725543113983e+00	 1.029877469233348e+00	 1.047546149360679e+01
0	 4.595710719984981e+00	 1.183041754027394e+00	 1.048789549293022e+01
0	 4.594557960693059e+00	 1.337283869638582e+00	 1.049542226652975e+01
0	 4.593267534362068e+00	 1.492449146299399e+00	 1.049812439030167e+01
0	 4.750002812485938e+00	 0.000000000000000e+00	 1.024124866261497e+01
0	 4.749948306637451e+00	 1.464957781118268e-01	 1.028622901780819e+01
0	 4.749783783807435e+00	 2.951032120889970e-01	 1.032633855690605e+01
0	 4.749507884939852e+00	 4.456987130787757e-01	 1.036161268522860e+01
0	 4.749119456771752e+00	 5.981523712542323e-01	 1.039209127230632e+01
0	 4.748617560264612e+00	 7.523282682722903e-01	 1.041781928007539e+01
0	 4.748001478131913e+00	 9.080848287857158e-01	 1.043884729328249e+01
0	 4.747270721382669e+00	 1.065275209535145e+00	 1.045523195071384e+01
0	 4.746425034807756e+00	 1.223747724135101e+00	 1.046703627647583e+01
0	 4.745464401344226e+00	 1.383346301265945e+00	 1.047432991129492e+01
0	 4.744389045262123e+00	 1.543910973598476e+00	 1.047718924464464e+01
0	 4.900001799991001e+00	 0.000000000000000e+00	 1.023708901679647e+01
0	 4.899958195279519e+00	 1.513326559107755e-01	 1.027867197052320e+01
0	 4.899826576916821e+00	 3.048572298448244e-01	 1.031576936497707e+01
0	 4.899605857657265e+00	 4.604461879852834e-01	 1.034841771696950e+01
0	 4.899295114889796e+00	 6.179654472074899e-01	 1.037665711966218e+01
0	 4.898893597383034e+00	 7.772746970286410e-01	 1.040053182460865e+01
0	 4.898400731307336e+00	 9.382277619866566e-01	 1.042009073496424e+01
0	 4.897816125469616e+00	 1.100673002933483e+00	 1.043538780897559e+01
0	 4.897139575702424e+00	 1.264453755301645e+00	 1.044648237334383e+01
0	 4.896371068355390e+00	 1.429408801986779e+00	 1.045343934665419e+01
0	 4.895510782844684e+00	 1.595372878090050e+00	 1.045632937375601e+01
0	 5.050001012494939e+00	 0.000000000000000e+00	 1.023317792308019e+01
0	 5.049968308936806e+00	 1.561695409650488e-01	 1.027144305652221e+01
0	 5.049869595090770e+00	 3.146112622316845e-01	 1.030558640604767e+01
0	 5.049704055521984e+00	 4.751936850129983e-01	 1.033564536648321e+01
0	 5.049470998271643e+00	 6.377785528803355e-01	 1.036166010818091e+01
0	 5.049169859915785e+00	 8.022211632045779e-01	 1.038367411484718e+01
0	 5.048800210081855e+00	 9.683707404018995e-01	 1.040173464066430e+01
0	 5.048361755374822e+00	 1.136070849428363e+00	 1.041589308625608e+01
0	 5.047854342668981e+00	 1.305159847527027e+00	 1.042620529342042e+01
0	 5.047277961726549e+00	 1.475471371801085e+00	 1.043273175902785e+01
0	 5.046632747109752e+00	 1.646834859774120e+00	 1.043553776904600e+01
0	 5.200000449997751e+00	 0.000000000000000e+00	 1.022949300395995e+01
0	 5.199978647609315e+00	 1.610064332746466e-01	 1.026451267993495e+01
0	 5.199912838329283e+00	 3.243653092495777e-01	 1.029575479258165e+01
0	 5.199802478534013e+00	 4.899412041619206e-01	 1.032325741617675e+01
0	 5.199647106917291e+00	 6.575916882727689e-01	 1.034706067500539e+01
0	 5.199446347862862e+00	 8.271676668001013e-01	 1.036720723869156e+01
0	 5.199199914455472e+00	 9.985137640314447e-01	 1.038374274423039e+01
0	 5.198907611098289e+00	 1.171468749019785e+00	 1.039671614466588e+01
0	 5.198569335707431e+00	 1.345866000811247e+00	 1.040617998463145e+01
0	 5.198185081457704e+00	 1.521534010708862e+00	 1.041219060334093e+01
0	 5.197754938057328e+00	 1.698296918650687e+00	 1.041480826606399e+01
0	 5.350000112499440e+00	 0.000000000000000e+00	 1.022601448995869e+01
0	 5.349989211297048e+00	 1.658433328395692e-01	 1.025785470028516e+01
0	 5.349956306632360e+00	 3.341193708985038e-01	 1.028624371609994e+01
0	 5.349901126693354e+00	 5.046887454320503e-01	 1.031122012182491e+01
0	 5.349823440826746e+00	 6.774048533847903e-01	 1.033282389175706e+01
0	 5.349723061224268e+00	 8.521142078152111e-01	 1.035109684442544e+01
0	 5.349599844428188e+00	 1.028656832875292e+00	 1.036608303044378e+01
0	 5.349453692640015e+00	 1.206866701707748e+00	 1.037782905415134e+01
0	 5.349284554817772e+00	 1.386572215154305e+00	 1.038638432952382e+01
0	 5.349092427548855e+00	 1.567596718710110e+00	 1.039180127111352e+01
0	 5.348877355687412e+00	 1.749759054719749e+00	 1.039413542112458e+01
0	 5.500000000000000e+00	 0.000000000000000e+00	 1.022272485043828e+01
0	 5.500000000000000e+00	 1.706802396598161e-01	 1.025144594250961e+01
0	 5.499999999999999e+00	 3.438734471784625e-01	 1.027702586795613e+01
0	 5.500000000000001e+00	 5.194363088233871e-01	 1.029950357666891e+01
0	 5.500000000000000e+00	 6.972180482163993e-01	 1.031891880522805e+01
0	 5.500000000000000e+00	 8.770607862499069e-01	 1.033531249165324e+01
0	 5.499999999999999e+00	 1.058799946933441e+00	 1.034872712991023e+01
0	 5.500000000000001e+00	 1.242264707492253e+00	 1.035920706477660e+01
0	 5.500000000000000e+00	 1.427278490556199e+00	 1.036679872778647e+01
0	 5.500000000000000e+00	 1.613659495804829e+00	 1.037155081516931e+01
0	 5.500000000000000e+00	 1.801221267981308e+00	 1.037351440895691e+01
0	 3.988783757586930e+00	 1.286602609028049e+00	 1.058279681266501e+01
0	 3.986404472695590e+00	 1.420789756661367e+00	 1.058799849178769e+01
0	 3.983798094539473e+00	 1.555453935030281e+00	 1.059500847631428e+01
0	 3.980966533166001e+00	 1.690454918529738e+00	 1.060390096471014e+01
0	 3.977912181786171e+00	 1.825651179233876e+00	 1.061474447283023e+01
0	 3.974637910481664e+00	 1.960900378930265e+00	 1.062760178726806e+01
0	 3.971147057370076e+00	 2.096059867504354e+00	 1.064252997311296e+01
0	 3.967443417284116e+00	 2.230987184019182e+00	 1.065958043696058e+01
0	 3.963531228045168e+00	 2.365540556798659e+00	 1.067879904520452e+01
0	 3.959415154435287e+00	 2.499579398832468e+00	 1.070022629686190e+01
0	 3.955100269993945e+00	 2.632964794876874e+00	 1.072389754947209e+01
0	 4.139904361756954e+00	 1.338064127557142e+00	 1.056146760550234e+01
0	 4.137763003749154e+00	 1.477688307214205e+00	 1.056248786907288e+01
0	 4.135417261649724e+00	 1.617821478785640e+00	 1.056534475884755e+01
0	 4.132868854502631e+00	 1.758317768265401e+00	 1.057010726556844e+01
0	 4.130119936199388e+00	 1.899029919975904e+00	 1.057683868906093e+01
0	 4.127173089815442e+00	 2.039809808398163e+00	 1.058559658853361e+01
0	 4.124031319658886e+00	 2.180508956749796e+00	 1.059643278611414e+01
0	 4.120698041081719e+00	 2.320979058508381e+00	 1.060939342438571e+01
0	 4.117177068126046e+00	 2.461072498038022e+00	 1.062451907790409e+01
0	 4.113472599098866e+00	 2.600642866485761e+00	 1.064184491792857e+01
0	 4.109589200189125e+00	 2.739545469171619e+00	 1.066140092891198e+01
0	 4.291025192609484e+00	 1.389525723278731e+00	 1.054025369164947e+01
0	 4.289121761842024e+00	 1.534586943115062e+00	 1.053791451667851e+01
0	 4.287036656190153e+00	 1.680189116092485e+00	 1.053743335820360e+01
0	 4.284771403694099e+00	 1.826180719795484e+00	 1.053887396415570e+01
0	 4.282327918925531e+00	 1.972408770786162e+00	 1.054229438702114e+01
0	 4.279708497953234e+00	 2.118719356230299e+00	 1.054774693337730e+01
0	 4.276915811275295e+00	 2.264958172668943e+00	 1.055527816544268e+01
0	 4.273952894762432e+00	 2.410971067985439e+00	 1.056492895530698e+01
0	 4.270823138676836e+00	 2.556604582575320e+00	 1.057673459175250e+01
0	 4.267530274849753e+00	 2.701706485734253e+00	 1.059072493886006e+01
0	 4.264078362118846e+00	 2.846126303337350e+00	 1.060692464493000e+01
0	 4.442146250144523e+00	 1.440987396192817e+00	 1.051914281306995e+01
0	 4.440480746974201e+00	 1.591485664363938e+00	 1.051417893097663e+01
0	 4.438656278160762e+00	 1.742556846950814e+00	 1.051108861995693e+01
0	 4.436674180740405e+00	 1.894043773119985e+00	 1.050993044075788e+01
0	 4.434536129964600e+00	 2.045787731664650e+00	 1.051075725373259e+01
0	 4.432244134895037e+00	 2.197629022426675e+00	 1.051361616953374e+01
0	 4.429800532219298e+00	 2.349407515261795e+00	 1.051854855058729e+01
0	 4.427207978326250e+00	 2.500963212450355e+00	 1.052559006389969e+01
0	 4.424469439697538e+00	 2.652136810410551e+00	 1.053477078502651e+01
0	 4.421588181687950e+00	 2.802770256577945e+00	 1.054611535233976e+01
0	 4.418567755783104e+00	 2.952707297374067e+00	 1.055964317009294e+01
0	 4.593267534362068e+00	 1.492449146299399e+00	 1.049812439030167e+01
0	 4.591839959145684e+00	 1.648384470960834e+00	 1.049119521193698e+01
0	 4.590276127561546e+00	 1.804924671360627e+00	 1.048615022132488e+01
0	 4.588577185641548e+00	 1.961906928238904e+00	 1.048304291486314e+01
0	 4.586744569316593e+00	 2.119166802611370e+00	 1.048192108027432e+01
0	 4.584780000640854e+00	 2.276538806987290e+00	 1.048282675010914e+01
0	 4.582685482490897e+00	 2.433856984528350e+00	 1.048579620480581e+01
0	 4.580463291773178e+00	 2.590955491903129e+00	 1.049086002573818e+01
0	 4.578115971188154e+00	 2.747669181543717e+00	 1.049804319798691e+01
0	 4.575646319613459e+00	 2.903834179016839e+00	 1.050736526190303e+01
0	 4.573057381181901e+00	 3.059288451281770e+00	 1.051884051191833e+01
0	 4.744389045262123e+00	 1.543910973598476e+00	 1.047718924464464e+01
0	 4.743199398356472e+00	 1.705283362905749e+00	 1.046888881519539e+01
0	 4.741896204392511e+00	 1.867292589321924e+00	 1.046247899320886e+01
0	 4.740480418397529e+00	 2.029770185152243e+00	 1.045800838286868e+01
0	 4.738953236981512e+00	 2.192545983626319e+00	 1.045551986608912e+01
0	 4.737316095190681e+00	 2.355448709912145e+00	 1.045505056027724e+01
0	 4.735570662090091e+00	 2.518306580468610e+00	 1.045663182445043e+01
0	 4.733718835103212e+00	 2.680947906343760e+00	 1.046028931401754e+01
0	 4.731762733148683e+00	 2.843201695974817e+00	 1.046604308385715e+01
0	 4.729704688626274e+00	 3.004898253050930e+00	 1.047390773868616e+01
0	 4.727547238315238e+00	 3.165869765060460e+00	 1.048389262911863e+01
0	 4.895510782844684e+00	 1.595372878090050e+00	 1.045632937375601e+01
0	 4.894559064606566e+00	 1.762182340198684e+00	 1.044719473561410e+01
0	 4.893516508653653e+00	 1.929660600834706e+00	 1.043995354271797e+01
0	 4.892383879008348e+00	 2.097633543860000e+00	 1.043464971478259e+01
0	 4.891162132959359e+00	 2.265925274709500e+00	 1.043132142903805e+01
0	 4.889852418544520e+00	 2.434358731201237e+00	 1.043000108354464e+01
0	 4.888456071016881e+00	 2.602756303082574e+00	 1.043071530769456e+01
0	 4.886974608316354e+00	 2.770940455772249e+00	 1.043348502008188e+01
0	 4.885409725579121e+00	 2.938734353703850e+00	 1.043832553327035e+01
0	 4.883763288726401e+00	 3.105962478680222e+00	 1.044524670437004e+01
0	 4.882037327183113e+00	 3.272451238710135e+00	 1.045425312976117e+01
0	 5.046632747109752e+00	 1.646834859774120e+00	 1.043553776904600e+01
0	 5.045918957895967e+00	 1.819081402839638e+00	 1.042605602870032e+01
0	 5.045137040344974e+00	 1.992028705898973e+00	 1.041846750278052e+01
0	 5.044287567474004e+00	 2.165497004362176e+00	 1.041281165939561e+01
0	 5.043371257250132e+00	 2.339304675860912e+00	 1.040912219651033e+01
0	 5.042388970702373e+00	 2.513268870854569e+00	 1.040742701198847e+01
0	 5.041341709271268e+00	 2.687206152370242e+00	 1.040774821968941e+01
0	 5.040230611412605e+00	 2.860933140188596e+00	 1.041010221167374e+01
0	 5.039056948479473e+00	 3.034267154730816e+00	 1.041449976594251e+01
0	 5.037822119913837e+00	 3.207026855904713e+00	 1.042094619853534e+01
0	 5.036527647785526e+00	 3.379032872230796e+00	 1.042944155825946e+01
0	 5.197754938057328e+00	 1.698296918650687e+00	 1.041480826606399e+01
0	 5.197279078224672e+00	 1.875980550828612e+00	 1.040542259877186e+01
0	 5.196757799466472e+00	 2.054396904514725e+00	 1.039792727708591e+01
0	 5.196191483794499e+00	 2.233360566658770e+00	 1.039235756743318e+01
0	 5.195580609853829e+00	 2.412684187080552e+00	 1.038874293052236e+01
0	 5.194925751664237e+00	 2.592179128872141e+00	 1.038710699919742e+01
0	 5.194227576853251e+00	 2.771656128331616e+00	 1.038746760124783e+01
0	 5.193486844391963e+00	 2.950925959592801e+00	 1.038983682710816e+01
0	 5.192704401849737e+00	 3.129800099055717e+00	 1.039422114176677e+01
0	 5.191881182188583e+00	 3.308091384724403e+00	 1.040062153962227e+01
0	 5.191018200122479e+00	 3.485614665622442e+00	 1.040903374049011e+01
0	 5.348877355687412e+00	 1.749759054719749e+00	 1.039413542112458e+01
0	 5.348639425592684e+00	 1.932879784165605e+00	 1.038525019936524e+01
0	 5.348378786018149e+00	 2.116765196681961e+00	 1.037825017931543e+01
0	 5.348095627969832e+00	 2.301224230749784e+00	 1.037316668651863e+01
0	 5.347790190770452e+00	 2.486063808368424e+00	 1.037002519709304e+01
0	 5.347462761430114e+00	 2.671089505253951e+00	 1.036884532440395e+01
0	 5.347113673762829e+00	 2.856106230966692e+00	 1.036964084963206e+01
0	 5.346743307254429e+00	 3.040918913984865e+00	 1.037241979605207e+01
0	 5.346352085689913e+00	 3.225333186678552e+00	 1.037718454623838e+01
0	 5.345940475550638e+00	 3.409156065139293e+00	 1.038393200085020e+01
0	 5.345508984193971e+00	 3.592196618885075e+00	 1.039265377712733e+01
0	 5.500000000000000e+00	 1.801221267981308e+00	 1.037351440895691e+01
0	 5.500000000000000e+00	 1.989779102850618e+00	 1.036549960374833e+01
0	 5.500000000000000e+00	 2.179133582400679e+00	 1.035936288850964e+01
0	 5.500000000000000e+00	 2.369087996635214e+00	 1.035513191482595e+01
0	 5.500000000000001e+00	 2.559443539724526e+00	 1.035282843298019e+01
0	 5.500000000000000e+00	 2.750000000000000e+00	 1.035246828839271e+01
0	 5.499999999999999e+00	 2.940556460275472e+00	 1.035406146093116e+01
0	 5.499999999999999e+00	 3.130912003364783e+00	 1.035761214679156e+01
0	 5.500000000000000e+00	 3.320866417599320e+00	 1.036311888206813e+01
0	 5.499999999999999e+00	 3.510220897149381e+00	 1.037057470657898e+01
0	 5.500000000000000e+00	 3.698778732018692e+00	 1.037996736600853e+01
0	 3.955100269993945e+00	 2.632964794876874e+00	 1.072389754947209e+01
0	 3.950592166922772e+00	 2.765556103211336e+00	 1.067542029727764e+01
0	 3.945896538993816e+00	 2.897223272148092e+00	 1.063377429417617e+01
0	 3.941019557192398e+00	 3.027835192402045e+00	 1.059882455166733e+01
0	 3.935967709908736e+00	 3.157264223175993e+00	 1.057041807311123e+01
0	 3.930747776398728e+00	 3.285386588363553e+00	 1.054838509295437e+01
0	 3.925366799180936e+00	 3.412082746239488e+00	 1.053254038886382e+01
0	 3.919832055590298e+00	 3.537237730515509e+00	 1.052268464712584e+01
0	 3.914151028711748e+00	 3.660741460965693e+00	 1.051860586200534e+01
0	 3.908331377916790e+00	 3.782489022164162e+00	 1.052008075041337e+01
0	 3.902380909223136e+00	 3.902380909223136e+00	 1.052687616414980e+01
0	 4.109589200189125e+00	 2.739545469171619e+00	 1.066140092891198e+01
0	 4.105531904382000e+00	 2.877633786785414e+00	 1.061322146724439e+01
0	 4.101305836076104e+00	 3.014772302421391e+00	 1.057053618380938e+01
0	 4.096916549162396e+00	 3.150824372234639e+00	 1.053323729314978e+01
0	 4.092369883196451e+00	 3.285656939512189e+00	 1.050120224876931e+01
0	 4.087671939513157e+00	 3.419140948056929e+00	 1.047429466243684e+01
0	 4.082829056383977e+00	 3.551151728073290e+00	 1.045236528437829e+01
0	 4.077847783415268e+00	 3.681569352336257e+00	 1.043525302899566e+01
0	 4.072734855388527e+00	 3.810278960764008e+00	 1.042278603089857e+01
0	 4.067497165743279e+00	 3.937171051866395e+00	 1.041478271642171e+01
0	 4.062141739900740e+00	 4.062141739900740e+00	 1.041105287640018e+01
0	 4.264078362118846e+00	 2.846126303337350e+00	 1.060692464493001e+01
0	 4.260471874252005e+00	 2.989711638476006e+00	 1.056036408969623e+01
0	 4.256715366273577e+00	 3.132321509018305e+00	 1.051804789812903e+01
0	 4.252813774979230e+00	 3.273813736551226e+00	 1.047989283473673e+01
0	 4.248772291088924e+00	 3.414049848437910e+00	 1.044580401599399e+01
0	 4.244596338015519e+00	 3.552895508382589e+00	 1.041567555257550e+01
0	 4.240291549782320e+00	 3.690220918511672e+00	 1.038939124031273e+01
0	 4.235863748266016e+00	 3.825901190655974e+00	 1.036682528829137e+01
0	 4.231318919943537e+00	 3.959816684870604e+00	 1.034784307251898e+01
0	 4.226663192321286e+00	 4.091853313594266e+00	 1.033230190378470e+01
0	 4.221902810222807e+00	 4.221902810222807e+00	 1.032005179868167e+01
0	 4.418567755783104e+00	 2.952707297374067e+00	 1.055964317009294e+01
0	 4.415412076532787e+00	 3.101789658283109e+00	 1.051589157280352e+01
0	 4.412125129586235e+00	 3.249870891938836e+00	 1.047521460884979e+01
0	 4.408711234642900e+00	 3.396803285351809e+00	 1.043755147160233e+01
0	 4.405174933586156e+00	 3.542442949953154e+00	 1.040283270288396e+01
0	 4.401520971905815e+00	 3.686650269340535e+00	 1.037098059498726e+01
0	 4.397754279375969e+00	 3.829290317554636e+00	 1.034190962937020e+01
0	 4.393879950142542e+00	 3.970233245474661e+00	 1.031552694380641e+01
0	 4.389903222376782e+00	 4.109354633285484e+00	 1.029173281969231e+01
0	 4.385829457650813e+00	 4.246535807347775e+00	 1.027042118126330e+01
0	 4.381664120189336e+00	 4.381664120189336e+00	 1.025148009863019e+01
0	 4.573057381181901e+00	 3.059288451281770e+00	 1.051884051191833e+01
0	 4.570352511224344e+00	 3.213867846206724e+00	 1.047897362209886e+01
0	 4.567535126014078e+00	 3.367420451182984e+00	 1.044108527599767e+01
0	 4.564608928153406e+00	 3.519793018636386e+00	 1.040513540780709e+01
0	 4.561577810688146e+00	 3.670836244057925e+00	 1.037107819603436e+01
0	 4.558445841184043e+00	 3.820405230930763e+00	 1.033886225723967e+01
0	 4.555217245164921e+00	 3.968359925202177e+00	 1.030843086471545e+01
0	 4.551896389044845e+00	 4.114565516792317e+00	 1.027972218689391e+01
0	 4.548487762688258e+00	 4.258892806008644e+00	 1.025266954014838e+01
0	 4.544995961731856e+00	 4.401218533126920e+00	 1.022720165060498e+01
0	 4.541425669800329e+00	 4.541425669800329e+00	 1.020324291959907e+01
0	 4.727547238315238e+00	 3.165869765060460e+00	 1.048389262911863e+01
0	 4.725293178326679e+00	 3.325946202246852e+00	 1.044888606291966e+01
0	 4.722945355557104e+00	 3.484970186750748e+00	 1.041482979293020e+01
0	 4.720506855510748e+00	 3.642782936404959e+00	 1.038170315985286e+01
0	 4.717980922394894e+00	 3.799229730752219e+00	 1.034948255818110e+01
0	 4.715370945850204e+00	 3.954160393153276e+00	 1.031814144953379e+01
0	 4.712680447149174e+00	 4.107429741454300e+00	 1.028765038963534e+01
0	 4.709913064972926e+00	 4.258898004608945e+00	 1.025797706645106e+01
0	 4.707072540877967e+00	 4.408431203040089e+00	 1.022908634684754e+01
0	 4.704162704564419e+00	 4.555901490931705e+00	 1.020094032903874e+01
0	 4.701187459055785e+00	 4.701187459055785e+00	 1.017349839799487e+01
0	 4.882037327183113e+00	 3.272451238710135e+00	 1.045425312976117e+01
0	 4.880234077839790e+00	 3.438024726403492e+00	 1.042499441141070e+01
0	 4.878355818215314e+00	 3.602520098642125e+00	 1.039572035637045e+01
0	 4.876405016714926e+00	 3.765773038657527e+00	 1.036642866730957e+01
0	 4.874384268706399e+00	 3.927623410036037e+00	 1.033711683643738e+01
0	 4.872296285904298e+00	 4.087915756008072e+00	 1.030778200293439e+01
0	 4.870143885328734e+00	 4.246499766311000e+00	 1.027842081326851e+01
0	 4.867929977926786e+00	 4.403230708924539e+00	 1.024902928438872e+01
0	 4.865657556945910e+00	 4.557969824379815e+00	 1.021960266965737e+01
0	 4.863329686148498e+00	 4.710584680762126e+00	 1.019013532724225e+01
0	 4.860949487955702e+00	 4.860949487955702e+00	 1.016062059054010e+01
0	 5.036527647785526e+00	 3.379032872230796e+00	 1.042944155825947e+01
0	 5.035175209763679e+00	 3.550103418676643e+00	 1.040674040601803e+01
0	 5.033766513988709e+00	 3.720070186857122e+00	 1.038311617747278e+01
0	 5.032303411765941e+00	 3.888763325394090e+00	 1.035858413066753e+01
0	 5.030787849622661e+00	 4.056017281909381e+00	 1.033316198640897e+01
0	 5.029221861346324e+00	 4.221671319495152e+00	 1.030686965146919e+01
0	 5.027607559703595e+00	 4.385569999772281e+00	 1.027972893451196e+01
0	 5.025947127906424e+00	 4.547563629739104e+00	 1.025176325701993e+01
0	 5.024242810892082e+00	 4.707508670027822e+00	 1.022299736139884e+01
0	 5.022496906484098e+00	 4.865268102618185e+00	 1.019345701828975e+01
0	 5.020711756500083e+00	 5.020711756500083e+00	 1.016316873493577e+01
0	 5.191018200122479e+00	 3.485614665622442e+00	 1.040903374049011e+01
0	 5.190116574098343e+00	 3.662182279066308e+00	 1.039363089523054e+01
0	 5.189177442877290e+00	 3.837620451395732e+00	 1.037645085517734e+01
0	 5.188202040663794e+00	 4.011753796614649e+00	 1.035752582294509e+01
0	 5.187191665143684e+00	 4.184411346372250e+00	 1.033689308447769e+01
0	 5.186147672176284e+00	 4.355427083614516e+00	 1.031459461731782e+01
0	 5.185071470273762e+00	 4.524640441838144e+00	 1.029067668208034e+01
0	 5.183964514911838e+00	 4.691896767052639e+00	 1.026518940152834e+01
0	 5.182828302716490e+00	 4.857047739984113e+00	 1.023818633159810e+01
0	 5.181664365571215e+00	 5.019951756499882e+00	 1.020972402859133e+01
0	 5.180474264688927e+00	 5.180474264688927e+00	 1.017986161656031e+01
0	 5.345508984193971e+00	 3.592196618885075e+00	 1.039265377712733e+01
0	 5.345058170843784e+00	 3.774261307572484e+00	 1.038522861427843e+01
0	 5.344588604881054e+00	 3.955170892257959e+00	 1.037522188625347e+01
0	 5.344100903408480e+00	 4.134744452319201e+00	 1.036268229077132e+01
0	 5.343595715269464e+00	 4.312805603424643e+00	 1.034766618546276e+01
0	 5.343073718394177e+00	 4.489183048366163e+00	 1.033023709848586e+01
0	 5.342535617039230e+00	 4.663711092508583e+00	 1.031046521349333e+01
0	 5.341982138943032e+00	 4.836230120865143e+00	 1.028842683533813e+01
0	 5.341414032419129e+00	 5.006587034248685e+00	 1.026420384291536e+01
0	 5.340832063409849e+00	 5.174635642407216e+00	 1.023788313544883e+01
0	 5.340237012522233e+00	 5.340237012522233e+00	 1.020955607835136e+01
0	 5.500000000000000e+00	 3.698778732018692e+00	 1.037996736600853e+01
0	 5.500000000000000e+00	 3.886340504195170e+00	 1.038114448649138e+01
0	 5.500000000000000e+00	 4.072721509443801e+00	 1.037898190176902e+01
0	 5.500000000000000e+00	 4.257735292507747e+00	 1.037354448827987e+01
0	 5.500000000000000e+00	 4.441200053066559e+00	 1.036490732257558e+01
0	 5.500000000000000e+00	 4.622939213750094e+00	 1.035315510984202e+01
0	 5.500000000000000e+00	 4.802781951783603e+00	 1.033838157860206e+01
0	 5.500000000000000e+00	 4.980563691176614e+00	 1.032068884986530e+01
0	 5.500000000000000e+00	 5.156126552821539e+00	 1.030018678907938e+01
0	 5.500000000000001e+00	 5.329319760340186e+00	 1.027699234920323e+01
0	 5.500000000000000e+00	 5.500000000000000e+00	 1.025122891307861e+01
1	 5.500000000000000e+00	 0.000000000000000e+00	 1.019584977351520e+01
1	 5.500000000000000e+00	 1.706802396598161e-01	 1.022162002261158e+01
1	 5.499999999999999e+00	 3.438734471784625e-01	 1.024473392419614e+01
1	 5.500000000000001e+00	 5.194363088233871e-01	 1.026549374286383e+01
1	 5.500000000000000e+00	 6.972180482163993e-01	 1.028417515016726e+01
1	 5.500000000000000e+00	 8.770607862499069e-01	 1.030102880630814e+01
1	 5.499999999999999e+00	 1.058799946933441e+00	 1.031628176735921e+01
1	 5.500000000000001e+00	 1.242264707492253e+00	 1.033013873352217e+01
1	 5.500000000000000e+00	 1.427278490556199e+00	 1.034278315186426e+01
1	 5.500000000000000e+00	 1.613659495804829e+00	 1.035437818515332e+01
1	 5.500000000000000e+00	 1.801221267981308e+00	 1.036506755679171e+01
1	 5.649999887500562e+00	 0.000000000000000e+00	 1.018811645868485e+01
1	 5.650598287897095e+00	 1.730938919510074e-01	 1.021071467483181e+01
1	 5.651159726867477e+00	 3.482375398004746e-01	 1.023095061866230e+01
1	 5.651683322853805e+00	 5.253083449673226e-01	 1.024906919480948e+01
1	 5.652168244676074e+00	 7.041787221539000e-01	 1.026529561604367e+01
1	 5.652613714727432e+00	 8.847163681716042e-01	 1.027983618313987e+01
1	 5.653019012009153e+00	 1.066784555960686e+00	 1.029287898880717e+01
1	 5.653383474983764e+00	 1.250242452642374e+00	 1.030459455033983e+01
1	 5.653706504225801e+00	 1.434945460223793e+00	 1.031513637511455e+01
1	 5.653987564850719e+00	 1.620745577366643e+00	 1.032464146256662e+01
1	 5.654226188703898e+00	 1.807491780432230e+00	 1.033323074582496e+01
1	 5.799999550002250e+00	 0.000000000000000e+00	 1.017927518989833e+01
1	 5.800944378597363e+00	 1.752496497560428e-01	 1.019910299382937e+01
1	 5.801829411668173e+00	 3.521288571929826e-01	 1.021681669115042e+01
1	 5.802653540251364e+00	 5.305361272457023e-01	 1.023261431762712e+01
1	 5.803415722779560e+00	 7.103668013372972e-01	 1.024667927337273e+01
1	 5.804114988292018e+00	 8.915132436991186e-01	 1.025918063332311e+01
1	 5.804750439463245e+00	 1.073865040463986e+00	 1.027027343093924e+01
1	 5.805321255432246e+00	 1.257309210837820e+00	 1.028009891605148e+01
1	 5.805826694416083e+00	 1.441730429566815e+00	 1.028878478766933e+01
1	 5.806266096092428e+00	 1.627011259833496e+00	 1.029644540249421e+01
1	 5.806638883737002e+00	 1.813032395636601e+00	 1.030318195978984e+01
1	 5.949998987505063e+00	 0.000000000000000e+00	 1.016935720751927e+01
1	 5.951083262924739e+00	 1.771487958747452e-01	 1.018678651585424e+01
1	 5.952097467737246e+00	 3.555519160418363e-01	 1.020231412057272e+01
1	 5.953040620523580e+00	 5.351285148506355e-01	 1.021609920469465e+01
1	 5.953911802617414e+00	 7.157958663368468e-01	 1.022829005915014e+01
1	 5.954710160300928e+00	 8.974694831114254e-01	 1.023902413581612e+01
1	 5.955434906863729e+00	 1.080063241118552e+00	 1.024842809647055e+01
1	 5.956085324515712e+00	 1.263489509901863e+00	 1.025661785769706e+01
1	 5.956660766145306e+00	 1.447659287986832e+00	 1.026369863177037e+01
1	 5.957160656915187e+00	 1.632482342957813e+00	 1.026976496354967e+01
1	 5.957584495688130e+00	 1.817867355780949e+00	 1.027490076340461e+01
1	 6.099998200009000e+00	 0.000000000000000e+00	 1.015838207495512e+01
1	 6.101059668011652e+00	 1.787924577468981e-01	 1.017376143086978e+01
1	 6.102051312457404e+00	 3.585106714507265e-01	 1.018742367966142e+01
1	 6.102972423103052e+00	 5.390932390071511e-01	 1.019949529971760e+01
1	 6.103822337050539e+00	 7.204777312978469e-01	 1.021009468116387e+01
1	 6.104600439923667e+00	 9.026007609307943e-01	 1.021933205507614e+01
1	 6.105306166965791e+00	 1.085398053354858e+00	 1.022730942760602e+01
1	 6.105939004054898e+00	 1.268804520188468e+00	 1.023412051909323e+01
1	 6.106498488632643e+00	 1.452754334592864e+00	 1.023985070823387e+01
1	 6.106984210544292e+00	 1.637181008511607e+00	 1.024457698136781e+01
1	 6.107395812786715e+00	 1.822017471590097e+00	 1.024836788694214e+01
1	 6.249997187514063e+00	 0.000000000000000e+00	 1.014635866184391e+01
1	 6.250918102206393e+00	 1.801816091320386e-01	 1.016001881287019e+01
1	 6.251777540361497e+00	 3.610085284513981e-01	 1.017212480329824e+01
1	 6.252575071852076e+00	 5.424369358632813e-01	 1.018277513695396e+01
1	 6.253310296205526e+00	 7.244225091012987e-01	 1.019206235924752e+01
1	 6.253982843102037e+00	 9.069204607559580e-01	 1.020007294460185e+01
1	 6.254592372837275e+00	 1.089885574111508e+00	 1.020688719107984e+01
1	 6.255138576748536e+00	 1.273272239732586e+00	 1.021257912245251e+01
1	 6.255621177603413e+00	 1.457034492739895e+00	 1.021721639793423e+01
1	 6.256039929950061e+00	 1.641126050712087e+00	 1.022086022979410e+01
1	 6.256394620428207e+00	 1.825500352149107e+00	 1.022356530903460e+01
1	 6.399995950020251e+00	 0.000000000000000e+00	 1.013328581638457e+01
1	 6.400702899473077e+00	 1.813170715559821e-01	 1.014554474122190e+01
1	 6.401362092513695e+00	 3.630483518565533e-01	 1.015639544428037e+01
1	 6.401973316934676e+00	 5.451651744895609e-01	 1.016591210520114e+01
1	 6.402536375552957e+00	 7.276386665548624e-01	 1.017416459517292e+01
1	 6.403051086367959e+00	 9.104397636454845e-01	 1.018121837006450e+01
1	 6.403517282707911e+00	 1.093539225043500e+00	 1.018713437002414e+01
1	 6.403934813364233e+00	 1.276907649114213e+00	 1.019196892583638e+01
1	 6.404303542713714e+00	 1.460515488881868e+00	 1.019577367230899e+01
1	 6.404623350828357e+00	 1.644333067769735e+00	 1.019859546894303e+01
1	 6.404894133572665e+00	 1.828330595487118e+00	 1.020047632811884e+01
1	 6.549994487527562e+00	 0.000000000000000e+00	 1.011915277013515e+01
1	 6.550458263377964e+00	 1.821995155280984e-01	 1.013032032308160e+01
1	 6.550890422875793e+00	 3.646324745089745e-01	 1.014021191432323e+01
1	 6.551290887460732e+00	 5.472824802103246e-01	 1.014888023080739e+01
1	 6.551659584247425e+00	 7.301330701824109e-01	 1.015637496756640e+01
1	 6.551996446058533e+00	 9.131677211548770e-01	 1.016274275025449e+01
1	 6.552301411455246e+00	 1.096369853972156e+00	 1.016802706227065e+01
1	 6.552574424765225e+00	 1.279722838564411e+00	 1.017226817668302e+01
1	 6.552815436107977e+00	 1.463209998950903e+00	 1.017550309315711e+01
1	 6.553024401417590e+00	 1.646814618272623e+00	 1.017776548007626e+01
1	 6.553201282462858e+00	 1.830519943851050e+00	 1.017908562202750e+01
1	 6.699992800036000e+00	 0.000000000000000e+00	 1.010393930398885e+01
1	 6.700228310754365e+00	 1.828294615327158e-01	 1.011432162285183e+01
1	 6.700447662342810e+00	 3.657627039714051e-01	 1.012354870783864e+01
1	 6.700650837030096e+00	 5.487923534504207e-01	 1.013165397561032e+01
1	 6.700837818346896e+00	 7.319110230781833e-01	 1.013866894874705e+01
1	 6.701008591129122e+00	 9.151113139266455e-01	 1.014462321428021e+01
1	 6.701163141520994e+00	 1.098385816024159e+00	 1.014954438471692e+01
1	 6.701301456977851e+00	 1.281727109351480e+00	 1.015345806165389e+01
1	 6.701423526268693e+00	 1.465127764840623e+00	 1.015638780207260e+01
1	 6.701529339478459e+00	 1.648580345376286e+00	 1.015835508740062e+01
1	 6.701618888010039e+00	 1.832077406799563e+00	 1.015937929541691e+01
1	 6.849990887545562e+00	 0.000000000000000e+00	 1.008761569209992e+01
1	 6.850057115137048e+00	 1.832072807973946e-01	 1.009751950109347e+01
1	 6.850118781114459e+00	 3.664403276931113e-01	 1.010637830569719e+01
1	 6.850175884226728e+00	 5.496972842445267e-01	 1.011420804620414e+01
1	 6.850228423315206e+00	 7.329762931969438e-01	 1.012102374081853e+01
1	 6.850276397313722e+00	 9.162754965462671e-01	 1.012683947364109e+01
1	 6.850319805248633e+00	 1.099593035601731e+00	 1.013166838341443e+01
1	 6.850358646238881e+00	 1.282927051048677e+00	 1.013552265304534e+01
1	 6.850392919496020e+00	 1.466275683011378e+00	 1.013841349992022e+01
1	 6.850422624324284e+00	 1.649637071115897e+00	 1.014035116702835e+01
1	 6.850447760120598e+00	 1.833009354552988e+00	 1.014134491490677e+01
1	 6.999988750056250e+00	 0.000000000000000e+00	 1.007014243024898e+01
1	 6.999988750056250e+00	 1.833331958401875e-01	 1.007987936208684e+01
1	 6.999988750056249e+00	 3.666661166807499e-01	 1.008867095577676e+01
1	 6.999988750056250e+00	 5.499987625216876e-01	 1.009651721131888e+01
1	 6.999988750056251e+00	 7.333311333630000e-01	 1.010341812871334e+01
1	 6.999988750056250e+00	 9.166632292046875e-01	 1.010937370796026e+01
1	 6.999988750056250e+00	 1.099995050046750e+00	 1.011438394905978e+01
1	 6.999988750056250e+00	 1.283326595889188e+00	 1.011844885201204e+01
1	 6.999988750056250e+00	 1.466657866732000e+00	 1.012156841681717e+01
1	 6.999988750056248e+00	 1.649988862575187e+00	 1.012374264347529e+01
1	 6.999988750056250e+00	 1.833319583418750e+00	 1.012497153198654e+01
1	 5.500000000000000e+00	 1.801221267981308e+00	 1.036506755679171e+01
1	 5.500000000000000e+00	 1.989779102850618e+00	 1.035642894795818e+01
1	 5.500000000000000e+00	 2.179133582400679e+00	 1.034893838540306e+01
1	 5.500000000000000e+00	 2.369087996635214e+00	 1.034260506052813e+01
1	 5.500000000000001e+00	 2.559443539724526e+00	 1.033743801049887e+01
1	 5.500000000000000e+00	 2.750000000000000e+00	 1.033344615070652e+01
1	 5.499999999999999e+00	 2.940556460275472e+00	 1.033063830645077e+01
1	 5.499999999999999e+00	 3.130912003364783e+00	 1.032902324407968e+01
1	 5.500000000000000e+00	 3.320866417599320e+00	 1.032860970181845e+01
1	 5.499999999999999e+00	 3.510220897149381e+00	 1.032940642051422e+01
1	 5.500000000000000e+00	 3.698778732018692e+00	 1.033142217452554e+01
1	 5.654226188703898e+00	 1.807491780432230e+00	 1.033323074582495e+01
1	 5.654421982664573e+00	 1.995036194350917e+00	 1.032665253170145e+01
1	 5.654574610891106e+00	 2.183217500118354e+00	 1.032113840540046e+01
1	 5.654683815904202e+00	 2.371878050286975e+00	 1.031670304059185e+01
1	 5.654749413009355e+00	 2.560858849641121e+00	 1.031336010630776e+01
1	 5.654771291076336e+00	 2.750000000000000e+00	 1.031112229999898e+01
1	 5.654749413009355e+00	 2.939141150358878e+00	 1.031000137727528e+01
1	 5.654683815904200e+00	 3.128121949713023e+00	 1.031000817847564e+01
1	 5.654574610891107e+00	 3.316782499881644e+00	 1.031115265219485e+01
1	 5.654421982664573e+00	 3.504963805649081e+00	 1.031344387587332e+01
1	 5.654226188703898e+00	 3.692508219567770e+00	 1.031689007353964e+01
1	 5.806638883737002e+00	 1.813032395636601e+00	 1.030318195978984e+01
1	 5.806944576048011e+00	 1.999678656308416e+00	 1.029845272806568e+01
1	 5.807182758442195e+00	 2.186822317303666e+00	 1.029471511817687e+01
1	 5.807353115164882e+00	 2.374339994328100e+00	 1.029198658710694e+01
1	 5.807455419925687e+00	 2.562107476556435e+00	 1.029028303123496e+01
1	 5.807489536648926e+00	 2.750000000000000e+00	 1.028961880638992e+01
1	 5.807455419925687e+00	 2.937892523443563e+00	 1.029000674528127e+01
1	 5.807353115164881e+00	 3.125660005671899e+00	 1.029145817234991e+01
1	 5.807182758442197e+00	 3.313177682696332e+00	 1.029398291607569e+01
1	 5.806944576048011e+00	 3.500321343691583e+00	 1.029758931876946e+01
1	 5.806638883737001e+00	 3.686967604363399e+00	 1.030228424386991e+01
1	 5.957584495688130e+00	 1.817867355780949e+00	 1.027490076340461e+01
1	 5.957931867574640e+00	 2.003727787341040e+00	 1.027181541735131e+01
1	 5.958202410552873e+00	 2.189965171161799e+00	 1.026965736556403e+01
1	 5.958395851336177e+00	 2.376485826306270e+00	 1.026844478423581e+01
1	 5.958511994224919e+00	 2.563195594863720e+00	 1.026819397080738e+01
1	 5.958550721600896e+00	 2.749999999999999e+00	 1.026891934854129e+01
1	 5.958511994224920e+00	 2.936804405136277e+00	 1.027063347040504e+01
1	 5.958395851336176e+00	 3.123514173693729e+00	 1.027334702226545e+01
1	 5.958202410552873e+00	 3.310034828838198e+00	 1.027706882539574e+01
1	 5.957931867574640e+00	 3.496272212658959e+00	 1.028180583829687e+01
1	 5.957584495688130e+00	 3.682132644219051e+00	 1.028756315783375e+01
1	 6.107395812786715e+00	 1.822017471590097e+00	 1.024836788694214e+01
1	 6.107733003126661e+00	 2.007201848327319e+00	 1.024672668450947e+01
1	 6.107995521219875e+00	 2.192660740328510e+00	 1.024595368709862e+01
1	 6.108183173041235e+00	 2.378325815375125e+00	 1.024606626350287e+01
1	 6.108295819744560e+00	 2.564128487241992e+00	 1.024707978300952e+01
1	 6.108333377919235e+00	 2.750000000000000e+00	 1.024900760790582e+01
1	 6.108295819744558e+00	 2.935871512758006e+00	 1.025186108724376e+01
1	 6.108183173041236e+00	 3.121674184624874e+00	 1.025564955186960e+01
1	 6.107995521219875e+00	 3.307339259671489e+00	 1.026038031072299e+01
1	 6.107733003126661e+00	 3.492798151672680e+00	 1.026605864840828e+01
1	 6.107395812786717e+00	 3.677982528409903e+00	 1.027268782404015e+01
1	 6.256394620428207e+00	 1.825500352149107e+00	 1.022356530903460e+01
1	 6.256685077483718e+00	 2.010116273939978e+00	 1.022317290213270e+01
1	 6.256911142795715e+00	 2.194921421117796e+00	 1.022359240256056e+01
1	 6.257072700736669e+00	 2.379868628715343e+00	 1.022483929292992e+01
1	 6.257169668609669e+00	 2.564910610655391e+00	 1.022692710315870e+01
1	 6.257201996754195e+00	 2.750000000000000e+00	 1.022986739656608e+01
1	 6.257169668609669e+00	 2.935089389344607e+00	 1.023366975852102e+01
1	 6.257072700736667e+00	 3.120131371284656e+00	 1.023834178766781e+01
1	 6.256911142795714e+00	 3.305078578882202e+00	 1.024388908974509e+01
1	 6.256685077483718e+00	 3.489883726060021e+00	 1.025031527400902e+01
1	 6.256394620428207e+00	 3.674499647850892e+00	 1.025762195226476e+01
1	 6.404894133572665e+00	 1.828330595487118e+00	 1.020047632811884e+01
1	 6.405115809894531e+00	 2.012483847716360e+00	 1.020114080933281e+01
1	 6.405288299914419e+00	 2.196757473164058e+00	 1.020256169544583e+01
1	 6.405411547328175e+00	 2.381121435887601e+00	 1.020475186886564e+01
1	 6.405485511885681e+00	 2.565545650795689e+00	 1.020772244985555e+01
1	 6.405510169423718e+00	 2.750000000000000e+00	 1.021148278175056e+01
1	 6.405485511885681e+00	 2.934454349204308e+00	 1.021604041911132e+01
1	 6.405411547328174e+00	 3.118878564112398e+00	 1.022140111884691e+01
1	 6.405288299914420e+00	 3.303242526835941e+00	 1.022756883432823e+01
1	 6.405115809894531e+00	 3.487516152283638e+00	 1.023454571250476e+01
1	 6.404894133572665e+00	 3.671669404512882e+00	 1.024233209402757e+01
1	 6.553201282462858e+00	 1.830519943851050e+00	 1.017908562202750e+01
1	 6.553346051570383e+00	 2.014314844450358e+00	 1.018061758558820e+01
1	 6.553458677283317e+00	 2.198177137722072e+00	 1.018284969615687e+01
1	 6.553539138967742e+00	 2.382089993514667e+00	 1.018579180903857e+01
1	 6.553587421878396e+00	 2.566036566237139e+00	 1.018945233028480e+01
1	 6.553603517165414e+00	 2.750000000000000e+00	 1.019383820506016e+01
1	 6.553587421878397e+00	 2.933963433762860e+00	 1.019895490848798e+01
1	 6.553539138967743e+00	 3.117910006485332e+00	 1.020480643899957e+01
1	 6.553458677283317e+00	 3.301822862277926e+00	 1.021139531420430e+01
1	 6.553346051570384e+00	 3.485685155549640e+00	 1.021872256928906e+01
1	 6.553201282462858e+00	 3.669480056148950e+00	 1.022678775794812e+01
1	 6.701618888010039e+00	 1.832077406799563e+00	 1.015937929541691e+01
1	 6.701692166967734e+00	 2.015617142913979e+00	 1.016159091875476e+01
1	 6.701749167891995e+00	 2.199186731213230e+00	 1.016444456373236e+01
1	 6.701789886148753e+00	 2.382778712191313e+00	 1.016794684537573e+01
1	 6.701814318427286e+00	 2.566385623308049e+00	 1.017210334319881e+01
1	 6.701822462740889e+00	 2.750000000000000e+00	 1.017691859460129e+01
1	 6.701814318427284e+00	 2.933614376691950e+00	 1.018239608976028e+01
1	 6.701789886148752e+00	 3.117221287808686e+00	 1.018853826802729e+01
1	 6.701749167891996e+00	 3.300813268786769e+00	 1.019534651583863e+01
1	 6.701692166967733e+00	 3.484382857086020e+00	 1.020282116614269e+01
1	 6.701618888010039e+00	 3.667922593200437e+00	 1.021096149934375e+01
1	 6.850447760120598e+00	 1.833009354552988e+00	 1.014134491490677e+01
1	 6.850468327043051e+00	 2.016396311243988e+00	 1.014404906655922e+01
1	 6.850484323971402e+00	 2.199790716024133e+00	 1.014733456500244e+01
1	 6.850495750580829e+00	 2.383190707091706e+00	 1.015120471517925e+01
1	 6.850502606639301e+00	 2.566594422455933e+00	 1.015566227801603e+01
1	 6.850504892007593e+00	 2.749999999999999e+00	 1.016070946842932e+01
1	 6.850502606639302e+00	 2.933405577544066e+00	 1.016634795380534e+01
1	 6.850495750580831e+00	 3.116809292908293e+00	 1.017257885295496e+01
1	 6.850484323971402e+00	 3.300209283975865e+00	 1.017940273554502e+01
1	 6.850468327043051e+00	 3.483603688756010e+00	 1.018681962200705e+01
1	 6.850447760120597e+00	 3.666990645447012e+00	 1.019482898392279e+01
1	 6.999988750056250e+00	 1.833319583418750e+00	 1.012497153198655e+01
1	 6.999988750056250e+00	 2.016655666735000e+00	 1.012798091102830e+01
1	 6.999988750056251e+00	 2.199991750051250e+00	 1.013150815014549e+01
1	 6.999988750056250e+00	 2.383327833367500e+00	 1.013555324933811e+01
1	 6.999988750056250e+00	 2.566663916683750e+00	 1.014011620860618e+01
1	 6.999988750056251e+00	 2.750000000000000e+00	 1.014519702794968e+01
1	 6.999988750056251e+00	 2.933336083316250e+00	 1.015079570736862e+01
1	 6.999988750056250e+00	 3.116672166632499e+00	 1.015691224686300e+01
1	 6.999988750056250e+00	 3.300008249948749e+00	 1.016354664643282e+01
1	 6.999988750056250e+00	 3.483344333264998e+00	 1.017069890607807e+01
1	 6.999988750056250e+00	 3.666680416581250e+00	 1.017836902579877e+01
1	 5.500000000000000e+00	 3.698778732018692e+00	 1.033142217452554e+01
1	 5.500000000000000e+00	 3.886340504195170e+00	 1.031621822198228e+01
1	 5.500000000000000e+00	 4.072721509443801e+00	 1.030283025666205e+01
1	 5.500000000000000e+00	 4.257735292507747e+00	 1.029129771466384e+01
1	 5.500000000000000e+00	 4.441200053066559e+00	 1.028166822001326e+01
1	 5.500000000000000e+00	 4.622939213750094e+00	 1.027399786501279e+01
1	 5.500000000000000e+00	 4.802781951783603e+00	 1.026835154107036e+01
1	 5.500000000000000e+00	 4.980563691176614e+00	 1.026480332359610e+01
1	 5.500000000000000e+00	 5.156126552821539e+00	 1.026343691520000e+01
1	 5.500000000000001e+00	 5.329319760340186e+00	 1.026434615214048e+01
1	 5.500000000000000e+00	 5.500000000000000e+00	 1.026763557978246e+01
1	 5.654226188703898e+00	 3.692508219567770e+00	 1.031689007353964e+01
1	 5.653987564850719e+00	 3.879254422633356e+00	 1.030187038099377e+01
1	 5.653706504225801e+00	 4.065054539776207e+00	 1.028857850347718e+01
1	 5.653383474983765e+00	 4.249757547357625e+00	 1.027704500788365e+01
1	 5.653019012009153e+00	 4.433215444039315e+00	 1.026730627306888e+01
1	 5.652613714727430e+00	 4.615283631828397e+00	 1.025940462008847e+01
1	 5.652168244676074e+00	 4.795821277846101e+00	 1.025338846384700e+01
1	 5.651683322853805e+00	 4.974691655032679e+00	 1.024931248716141e+01
1	 5.651159726867475e+00	 5.151762460199528e+00	 1.024723783839999e+01
1	 5.650598287897094e+00	 5.326906108048993e+00	 1.024723235402837e+01
1	 5.649999887500562e+00	 5.500000000000001e+00	 1.024937080757920e+01
1	 5.806638883737001e+00	 3.686967604363399e+00	 1.030228424386991e+01
1	 5.806266096092427e+00	 3.872988740166504e+00	 1.028757819065826e+01
1	 5.805826694416083e+00	 4.058269570433185e+00	 1.027451049770217e+01
1	 5.805321255432244e+00	 4.242690789162180e+00	 1.026310457957830e+01
1	 5.804750439463246e+00	 4.426134959536015e+00	 1.025338779522240e+01
1	 5.804114988292016e+00	 4.608486756300881e+00	 1.024539149552029e+01
1	 5.803415722779558e+00	 4.789633198662703e+00	 1.023915107793081e+01
1	 5.802653540251364e+00	 4.969463872754298e+00	 1.023470604831782e+01
1	 5.801829411668173e+00	 5.147871142807019e+00	 1.023210009019263e+01
1	 5.800944378597361e+00	 5.324750350243959e+00	 1.023138114159410e+01
1	 5.799999550002250e+00	 5.500000000000000e+00	 1.023260147985955e+01
1	 5.957584495688130e+00	 3.682132644219051e+00	 1.028756315783375e+01
1	 5.957160656915187e+00	 3.867517657042187e+00	 1.027329402565097e+01
1	 5.956660766145307e+00	 4.052340712013168e+00	 1.026057174065076e+01
1	 5.956085324515713e+00	 4.236510490098136e+00	 1.024941396187564e+01
1	 5.955434906863728e+00	 4.419936758881446e+00	 1.023984085844952e+01
1	 5.954710160300928e+00	 4.602530516888574e+00	 1.023187511681347e+01
1	 5.953911802617414e+00	 4.784204133663153e+00	 1.022554194889705e+01
1	 5.953040620523582e+00	 4.964871485149367e+00	 1.022086910123072e+01
1	 5.952097467737246e+00	 5.144448083958165e+00	 1.021788686500593e+01
1	 5.951083262924739e+00	 5.322851204125257e+00	 1.021662808708884e+01
1	 5.949998987505063e+00	 5.500000000000001e+00	 1.021712818199627e+01
1	 6.107395812786717e+00	 3.677982528409903e+00	 1.027268782404015e+01
1	 6.106984210544293e+00	 3.862818991488393e+00	 1.025897358378238e+01
1	 6.106498488632642e+00	 4.047245665407136e+00	 1.024671205925154e+01
1	 6.105939004054897e+00	 4.231195479811531e+00	 1.023591629000504e+01
1	 6.105306166965791e+00	 4.414601946645143e+00	 1.022660076186160e+01
1	 6.104600439923665e+00	 4.597399239069207e+00	 1.021878139854633e+01
1	 6.103822337050540e+00	 4.779522268702154e+00	 1.021247555245019e+01
1	 6.102972423103055e+00	 4.960906760992850e+00	 1.020770199451394e+01
1	 6.102051312457405e+00	 5.141489328549276e+00	 1.020448090324782e+01
1	 6.101059668011654e+00	 5.321207542253103e+00	 1.020283385289936e+01
1	 6.099998200009000e+00	 5.500000000000000e+00	 1.020278380078246e+01
1	 6.256394620428207e+00	 3.674499647850892e+00	 1.025762195226476e+01
1	 6.256039929950060e+00	 3.858873949287913e+00	 1.024457600774907e+01
1	 6.255621177603414e+00	 4.042965507260104e+00	 1.023288565375409e+01
1	 6.255138576748535e+00	 4.226727760267413e+00	 1.022256023492817e+01
1	 6.254592372837275e+00	 4.410114425888493e+00	 1.021360979381044e+01
1	 6.253982843102036e+00	 4.593079539244043e+00	 1.020604505984024e+01
1	 6.253310296205525e+00	 4.775577490898701e+00	 1.019987743751961e+01
1	 6.252575071852077e+00	 4.957563064136720e+00	 1.019511899375515e+01
1	 6.251777540361497e+00	 5.138991471548604e+00	 1.019178244440624e+01
1	 6.250918102206393e+00	 5.319818390867962e+00	 1.018988114006974e+01
1	 6.249997187514063e+00	 5.500000000000001e+00	 1.018942905113168e+01
1	 6.404894133572665e+00	 3.671669404512882e+00	 1.024233209402756e+01
1	 6.404623350828357e+00	 3.855666932230265e+00	 1.023006398325724e+01
1	 6.404303542713714e+00	 4.039484511118132e+00	 1.021905112654193e+01
1	 6.403934813364231e+00	 4.223092350885787e+00	 1.020929992843063e+01
1	 6.403517282707911e+00	 4.406460774956501e+00	 1.020081700822716e+01
1	 6.403051086367957e+00	 4.589560236354515e+00	 1.019360919178554e+01
1	 6.402536375552957e+00	 4.772361333445138e+00	 1.018768350300735e+01
1	 6.401973316934675e+00	 4.954834825510440e+00	 1.018304715506252e+01
1	 6.401362092513695e+00	 5.136951648143448e+00	 1.017970754135591e+01
1	 6.400702899473075e+00	 5.318682928444018e+00	 1.017767222626252e+01
1	 6.399995950020251e+00	 5.500000000000000e+00	 1.017694893565466e+01
1	 6.553201282462858e+00	 3.669480056148950e+00	 1.022678775794812e+01
1	 6.553024401417590e+00	 3.853185381727376e+00	 1.021540381333190e+01
1	 6.552815436107977e+00	 4.036790001049097e+00	 1.020517149245905e+01
1	 6.552574424765225e+00	 4.220277161435588e+00	 1.019609488110580e+01
1	 6.552301411455245e+00	 4.403630146027844e+00	 1.018817801437132e+01
1	 6.551996446058534e+00	 4.586832278845125e+00	 1.018142487231743e+01
1	 6.551659584247425e+00	 4.769866929817590e+00	 1.017583937572539e+01
1	 6.551290887460732e+00	 4.952717519789678e+00	 1.017142538197886e+01
1	 6.550890422875793e+00	 5.135367525491027e+00	 1.016818668108202e+01
1	 6.550458263377965e+00	 5.317800484471904e+00	 1.016612699182108e+01
1	 6.549994487527562e+00	 5.500000000000000e+00	 1.016524995807692e+01
1	 6.701618888010039e+00	 3.667922593200437e+00	 1.021096149934375e+01
1	 6.701529339478459e+00	 3.851419654623712e+00	 1.020056546889735e+01
1	 6.701423526268693e+00	 4.034872235159376e+00	 1.019121417118154e+01
1	 6.701301456977852e+00	 4.218272890648521e+00	 1.018290989366770e+01
1	 6.701163141520996e+00	 4.401614183975842e+00	 1.017565477922486e+01
1	 6.701008591129122e+00	 4.584888686073356e+00	 1.016945082458561e+01
1	 6.700837818346897e+00	 4.768088976921818e+00	 1.016429987902842e+01
1	 6.700650837030095e+00	 4.951207646549581e+00	 1.016020364327760e+01
1	 6.700447662342808e+00	 5.134237296028597e+00	 1.015716366862196e+01
1	 6.700228310754366e+00	 5.317170538467287e+00	 1.015518135625217e+01
1	 6.699992800036000e+00	 5.500000000000000e+00	 1.015425795681665e+01
1	 6.850447760120597e+00	 3.666990645447012e+00	 1.019482898392279e+01
1	 6.850422624324283e+00	 3.850362928884102e+00	 1.018552261597690e+01
1	 6.850392919496022e+00	 4.033724316988622e+00	 1.017715096227881e+01
1	 6.850358646238879e+00	 4.217072948951323e+00	 1.016971496203372e+01
1	 6.850319805248633e+00	 4.400406964398269e+00	 1.016321544181854e+01
1	 6.850276397313723e+00	 4.583724503453735e+00	 1.015765311534660e+01
1	 6.850228423315206e+00	 4.767023706803057e+00	 1.015302858333080e+01
1	 6.850175884226729e+00	 4.950302715755475e+00	 1.014934233344502e+01
1	 6.850118781114459e+00	 5.133559672306890e+00	 1.014659474038325e+01
1	 6.850057115137050e+00	 5.316792719202607e+00	 1.014478606601633e+01
1	 6.849990887545562e+00	 5.500000000000000e+00	 1.014391645964532e+01
1	 6.999988750056250e+00	 3.666680416581250e+00	 1.017836902579877e+01
1	 6.999988750056251e+00	 3.850011137424813e+00	 1.017025262010482e+01
1	 6.999988750056248e+00	 4.033342133268000e+00	 1.016295800371180e+01
1	 6.999988750056251e+00	 4.216673404110813e+00	 1.015648517661960e+01
1	 6.999988750056249e+00	 4.400004949953250e+00	 1.015083413882820e+01
1	 6.999988750056250e+00	 4.583336770795313e+00	 1.014600489033750e+01
1	 6.999988750056250e+00	 4.766668866637001e+00	 1.014199743114747e+01
1	 6.999988750056250e+00	 4.950001237478314e+00	 1.013881176125803e+01
1	 6.999988750056250e+00	 5.133333883319253e+00	 1.013644788066912e+01
1	 6.999988750056250e+00	 5.316666804159815e+00	 1.013490578938068e+01
1	 6.999988750056250e+00	 5.500000000000000e+00	 1.013418548739266e+01
1	 6.999988750056250e+00	 0.000000000000000e+00	 1.007014243024898e+01
1	 6.999988750056250e+00	 1.833331958401875e-01	 1.007987936208684e+01
1	 6.999988750056249e+00	 3.666661166807499e-01	 1.008867095577676e+01
1	 6.999988750056250e+00	 5.499987625216876e-01	 1.009651721131888e+01
1	 6.999988750056251e+00	 7.333311333630000e-01	 1.010341812871334e+01
1	 6.999988750056250e+00	 9.166632292046875e-01	 1.010937370796026e+01
1	 6.999988750056250e+00	 1.099995050046750e+00	 1.011438394905979e+01
1	 6.999988750056250e+00	 1.283326595889188e+00	 1.011844885201204e+01
1	 6.999988750056250e+00	 1.466657866732000e+00	 1.012156841681717e+01
1	 6.999988750056248e+00	 1.649988862575187e+00	 1.012374264347529e+01
1	 6.999988750056250e+00	 1.833319583418750e+00	 1.012497153198655e+01
1	 7.149991000045000e+00	 0.000000000000000e+00	 1.005675630673501e+01
1	 7.149991000045000e+00	 1.833331958401875e-01	 1.006586391740635e+01
1	 7.149991000044999e+00	 3.666661166807499e-01	 1.007409169521263e+01
1	 7.149991000045000e+00	 5.499987625216874e-01	 1.008143964015399e+01
1	 7.149991000044999e+00	 7.333311333629999e-01	 1.008790775223053e+01
1	 7.149991000045000e+00	 9.166632292046876e-01	 1.009349603144239e+01
1	 7.149991000045000e+00	 1.099995050046750e+00	 1.009820447778969e+01
1	 7.149991000045000e+00	 1.283326595889188e+00	 1.010203309127254e+01
1	 7.149991000045001e+00	 1.466657866732000e+00	 1.010498187189110e+01
1	 7.149991000045000e+00	 1.649988862575188e+00	 1.010705081964547e+01
1	 7.149991000045000e+00	 1.833319583418750e+00	 1.010823993453579e+01
1	 7.299993250033749e+00	 0.000000000000000e+00	 1.004279052077804e+01
1	 7.299993250033749e+00	 1.833331958401875e-01	 1.005131328495726e+01
1	 7.299993250033749e+00	 3.666661166807500e-01	 1.005902172168772e+01
1	 7.299993250033748e+00	 5.499987625216874e-01	 1.006591583096954e+01
1	 7.299993250033749e+00	 7.333311333629998e-01	 1.007199561280283e+01
1	 7.299993250033751e+00	 9.166632292046877e-01	 1.007726106718771e+01
1	 7.299993250033749e+00	 1.099995050046750e+00	 1.008171219412431e+01
1	 7.299993250033747e+00	 1.283326595889187e+00	 1.008534899361272e+01
1	 7.299993250033747e+00	 1.466657866732000e+00	 1.008817146565307e+01
1	 7.299993250033748e+00	 1.649988862575187e+00	 1.009017961024549e+01
1	 7.299993250033750e+00	 1.833319583418750e+00	 1.009137342739009e+01
1	 7.449995500022500e+00	 0.000000000000000e+00	 1.002824507237807e+01
1	 7.449995500022500e+00	 1.833331958401875e-01	 1.003622746473957e+01
1	 7.449995500022499e+00	 3.666661166807499e-01	 1.004346103520202e+01
1	 7.449995500022500e+00	 5.499987625216874e-01	 1.004994578376554e+01
1	 7.449995500022500e+00	 7.333311333630000e-01	 1.005568171043025e+01
1	 7.449995500022500e+00	 9.166632292046877e-01	 1.006066881519624e+01
1	 7.449995500022499e+00	 1.099995050046750e+00	 1.006490709806363e+01
1	 7.449995500022498e+00	 1.283326595889187e+00	 1.006839655903255e+01
1	 7.449995500022498e+00	 1.466657866732000e+00	 1.007113719810308e+01
1	 7.449995500022499e+00	 1.649988862575188e+00	 1.007312901527535e+01
1	 7.449995500022500e+00	 1.833319583418750e+00	 1.007437201054946e+01
1	 7.599997750011250e+00	 0.000000000000000e+00	 1.001311996153512e+01
1	 7.599997750011250e+00	 1.833331958401875e-01	 1.002060645675327e+01
1	 7.599997750011251e+00	 3.666661166807500e-01	 1.002740963575553e+01
1	 7.599997750011251e+00	 5.499987625216876e-01	 1.003352949854199e+01
1	 7.599997750011249e+00	 7.333311333629999e-01	 1.003896604511277e+01
1	 7.599997750011250e+00	 9.166632292046875e-01	 1.004371927546797e+01
1	 7.599997750011249e+00	 1.099995050046750e+00	 1.004778918960769e+01
1	 7.599997750011249e+00	 1.283326595889188e+00	 1.005117578753204e+01
1	 7.599997750011251e+00	 1.466657866732000e+00	 1.005387906924111e+01
1	 7.599997750011251e+00	 1.649988862575188e+00	 1.005589903473503e+01
1	 7.599997750011250e+00	 1.833319583418750e+00	 1.005723568401389e+01
1	 7.750000000000000e+00	 0.000000000000000e+00	 9.997415188249180e+00
1	 7.749999999999998e+00	 1.833331958401875e-01	 1.000445026099837e+01
1	 7.750000000000003e+00	 3.666661166807501e-01	 1.001086752334825e+01
1	 7.749999999999997e+00	 5.499987625216874e-01	 1.001666697529889e+01
1	 7.750000000000000e+00	 7.333311333630000e-01	 1.002184861685041e+01
1	 7.749999999999999e+00	 9.166632292046875e-01	 1.002641244800290e+01
1	 7.750000000000002e+00	 1.099995050046750e+00	 1.003035846875646e+01
1	 7.750000000000001e+00	 1.283326595889188e+00	 1.003368667911119e+01
1	 7.749999999999999e+00	 1.466657866732000e+00	 1.003639707906719e+01
1	 7.749999999999998e+00	 1.649988862575187e+00	 1.003848966862455e+01
1	 7.750000000000001e+00	 1.833319583418750e+00	 1.003996444778338e+01
1	 7.900002249988749e+00	 0.000000000000000e+00	 9.981130752520238e+00
1	 7.900002249988749e+00	 1.833331958401875e-01	 9.987758877474867e+00
1	 7.900002249988749e+00	 3.666661166807500e-01	 9.993834697980173e+00
1	 7.900002249988749e+00	 5.499987625216876e-01	 9.999358214036238e+00
1	 7.900002249988750e+00	 7.333311333629999e-01	 1.000432942564316e+01
1	 7.900002249988749e+00	 9.166632292046873e-01	 1.000874833280104e+01
1	 7.900002249988749e+00	 1.099995050046750e+00	 1.001261493550995e+01
1	 7.900002249988749e+00	 1.283326595889187e+00	 1.001592923377001e+01
1	 7.900002249988749e+00	 1.466657866732000e+00	 1.001869122758130e+01
1	 7.900002249988748e+00	 1.649988862575187e+00	 1.002090091694391e+01
1	 7.900002249988749e+00	 1.833319583418750e+00	 1.002255830185794e+01
1	 8.050004499977501e+00	 0.000000000000000e+00	 9.964266654348304e+00
1	 8.050004499977499e+00	 1.833331958401875e-01	 9.970532306182763e+00
1	 8.050004499977499e+00	 3.666661166807499e-01	 9.976311159651306e+00
1	 8.050004499977501e+00	 5.499987625216877e-01	 9.981603214754035e+00
1	 8.050004499977499e+00	 7.333311333630000e-01	 9.986408471491025e+00
1	 8.050004499977501e+00	 9.166632292046876e-01	 9.990726929862372e+00
1	 8.050004499977501e+00	 1.099995050046750e+00	 9.994558589868163e+00
1	 8.050004499977499e+00	 1.283326595889188e+00	 9.997903451508490e+00
1	 8.050004499977497e+00	 1.466657866732000e+00	 1.000076151478344e+01
1	 8.050004499977501e+00	 1.649988862575188e+00	 1.000313277969311e+01
1	 8.050004499977499e+00	 1.833319583418750e+00	 1.000501724623757e+01
1	 8.200006749966249e+00	 0.000000000000000e+00	 9.946822893733380e+00
1	 8.200006749966249e+00	 1.833331958401875e-01	 9.952770547122050e+00
1	 8.200006749966249e+00	 3.666661166807499e-01	 9.958296908361653e+00
1	 8.200006749966247e+00	 5.499987625216874e-01	 9.963401977452271e+00
1	 8.200006749966249e+00	 7.333311333630000e-01	 9.968085754394000e+00
1	 8.200006749966249e+00	 9.166632292046876e-01	 9.972348239186912e+00
1	 8.200006749966249e+00	 1.099995050046750e+00	 9.976189431831093e+00
1	 8.200006749966249e+00	 1.283326595889188e+00	 9.979609332326634e+00
1	 8.200006749966249e+00	 1.466657866732000e+00	 9.982607940673621e+00
1	 8.200006749966249e+00	 1.649988862575188e+00	 9.985185256872125e+00
1	 8.200006749966249e+00	 1.833319583418750e+00	 9.987341280922259e+00
1	 8.350008999954998e+00	 0.000000000000000e+00	 9.928799470675457e+00
1	 8.350008999954998e+00	 1.833331958401875e-01	 9.934473600292733e+00
1	 8.350008999955003e+00	 3.666661166807500e-01	 9.939791944111207e+00
1	 8.350008999954998e+00	 5.499987625216874e-01	 9.944754502130968e+00
1	 8.350008999955000e+00	 7.333311333629999e-01	 9.949361274352091e+00
1	 8.350008999955001e+00	 9.166632292046876e-01	 9.953612260774651e+00
1	 8.350008999955001e+00	 1.099995050046750e+00	 9.957507461398743e+00
1	 8.350008999955000e+00	 1.283326595889188e+00	 9.961046876224446e+00
1	 8.350008999955000e+00	 1.466657866732000e+00	 9.964230505251827e+00
1	 8.350008999954998e+00	 1.649988862575187e+00	 9.967058348480993e+00
1	 8.350008999954998e+00	 1.833319583418750e+00	 9.969530405912007e+00
1	 8.500011249943750e+00	 0.000000000000000e+00	 9.910196385174544e+00
1	 8.500011249943752e+00	 1.833331958401875e-01	 9.915641465694812e+00
1	 8.500011249943752e+00	 3.666661166807500e-01	 9.920796266899973e+00
1	 8.500011249943750e+00	 5.499987625216876e-01	 9.925660788790104e+00
1	 8.500011249943750e+00	 7.333311333629999e-01	 9.930235031365278e+00
1	 8.500011249943752e+00	 9.166632292046875e-01	 9.934518994625595e+00
1	 8.500011249943752e+00	 1.099995050046750e+00	 9.938512678571110e+00
1	 8.500011249943752e+00	 1.283326595889188e+00	 9.942216083201915e+00
1	 8.500011249943750e+00	 1.466657866732000e+00	 9.945629208518074e+00
1	 8.500011249943752e+00	 1.649988862575188e+00	 9.948752054519693e+00
1	 8.500011249943750e+00	 1.833319583418750e+00	 9.951584621206816e+00
1	 6.999988750056250e+00	 1.833319583418750e+00	 1.012497153198654e+01
1	 6.999988750056250e+00	 2.016655666735000e+00	 1.012798091102830e+01
1	 6.999988750056251e+00	 2.199991750051250e+00	 1.013150815014549e+01
1	 6.999988750056250e+00	 2.383327833367500e+00	 1.013555324933811e+01
1	 6.999988750056250e+00	 2.566663916683750e+00	 1.014011620860618e+01
1	 6.999988750056251e+00	 2.750000000000000e+00	 1.014519702794968e+01
1	 6.999988750056251e+00	 2.933336083316250e+00	 1.015079570736862e+01
1	 6.999988750056250e+00	 3.116672166632499e+00	 1.015691224686300e+01
1	 6.999988750056250e+00	 3.300008249948749e+00	 1.016354664643282e+01
1	 6.999988750056250e+00	 3.483344333264998e+00	 1.017069890607807e+01
1	 6.999988750056250e+00	 3.666680416581250e+00	 1.017836902579877e+01
1	 7.149991000045000e+00	 1.833319583418750e+00	 1.010823993453579e+01
1	 7.149991000045000e+00	 2.016655666735000e+00	 1.011119790424591e+01
1	 7.149991000044999e+00	 2.199991750051250e+00	 1.011463254133667e+01
1	 7.149991000044999e+00	 2.383327833367499e+00	 1.011854384580807e+01
1	 7.149991000045001e+00	 2.566663916683749e+00	 1.012293181766011e+01
1	 7.149991000044999e+00	 2.749999999999999e+00	 1.012779645689278e+01
1	 7.149991000045000e+00	 2.933336083316249e+00	 1.013313776350609e+01
1	 7.149991000045000e+00	 3.116672166632500e+00	 1.013895573750004e+01
1	 7.149991000045001e+00	 3.300008249948750e+00	 1.014525037887462e+01
1	 7.149991000045000e+00	 3.483344333264998e+00	 1.015202168762984e+01
1	 7.149991000045000e+00	 3.666680416581249e+00	 1.015926966376570e+01
1	 7.299993250033750e+00	 1.833319583418750e+00	 1.009137342739009e+01
1	 7.299993250033750e+00	 2.016655666735000e+00	 1.009436171257975e+01
1	 7.299993250033749e+00	 2.199991750051249e+00	 1.009778547245525e+01
1	 7.299993250033751e+00	 2.383327833367500e+00	 1.010164470701659e+01
1	 7.299993250033750e+00	 2.566663916683749e+00	 1.010593941626376e+01
1	 7.299993250033748e+00	 2.749999999999999e+00	 1.011066960019676e+01
1	 7.299993250033750e+00	 2.933336083316250e+00	 1.011583525881561e+01
1	 7.299993250033749e+00	 3.116672166632499e+00	 1.012143639212029e+01
1	 7.299993250033751e+00	 3.300008249948749e+00	 1.012747300011080e+01
1	 7.299993250033752e+00	 3.483344333265000e+00	 1.013394508278715e+01
1	 7.299993250033750e+00	 3.666680416581250e+00	 1.014085264014933e+01
1	 7.449995500022500e+00	 1.833319583418750e+00	 1.007437201054946e+01
1	 7.449995500022498e+00	 2.016655666735000e+00	 1.007747233602982e+01
1	 7.449995500022502e+00	 2.199991750051250e+00	 1.008096694350122e+01
1	 7.449995500022499e+00	 2.383327833367499e+00	 1.008485583296366e+01
1	 7.449995500022499e+00	 2.566663916683749e+00	 1.008913900441713e+01
1	 7.449995500022499e+00	 2.749999999999999e+00	 1.009381645786164e+01
1	 7.449995500022499e+00	 2.933336083316249e+00	 1.009888819329717e+01
1	 7.449995500022502e+00	 3.116672166632500e+00	 1.010435421072374e+01
1	 7.449995500022498e+00	 3.300008249948749e+00	 1.011021451014136e+01
1	 7.449995500022500e+00	 3.483344333264999e+00	 1.011646909155000e+01
1	 7.449995500022498e+00	 3.666680416581249e+00	 1.012311795494967e+01
1	 7.599997750011250e+00	 1.833319583418750e+00	 1.005723568401389e+01
1	 7.599997750011250e+00	 2.016655666735000e+00	 1.006052977459612e+01
1	 7.599997750011251e+00	 2.199991750051250e+00	 1.006417695447458e+01
1	 7.599997750011251e+00	 2.383327833367500e+00	 1.006817722364928e+01
1	 7.599997750011251e+00	 2.566663916683750e+00	 1.007253058212021e+01
1	 7.599997750011251e+00	 2.749999999999999e+00	 1.007723702988739e+01
1	 7.599997750011249e+00	 2.933336083316250e+00	 1.008229656695078e+01
1	 7.599997750011250e+00	 3.116672166632499e+00	 1.008770919331041e+01
1	 7.599997750011249e+00	 3.300008249948749e+00	 1.009347490896628e+01
1	 7.599997750011250e+00	 3.483344333264998e+00	 1.009959371391838e+01
1	 7.599997750011250e+00	 3.666680416581250e+00	 1.010606560816671e+01
1	 7.750000000000001e+00	 1.833319583418750e+00	 1.003996444778338e+01
1	 7.749999999999998e+00	 2.016655666735000e+00	 1.004353402827865e+01
1	 7.750000000000000e+00	 2.199991750051250e+00	 1.004741550537534e+01
1	 7.749999999999999e+00	 2.383327833367500e+00	 1.005160887907347e+01
1	 7.750000000000000e+00	 2.566663916683749e+00	 1.005611414937302e+01
1	 7.749999999999999e+00	 2.749999999999999e+00	 1.006093131627401e+01
1	 7.750000000000000e+00	 2.933336083316250e+00	 1.006606037977644e+01
1	 7.750000000000000e+00	 3.116672166632499e+00	 1.007150133988029e+01
1	 7.750000000000002e+00	 3.300008249948750e+00	 1.007725419658558e+01
1	 7.749999999999999e+00	 3.483344333264999e+00	 1.008331894989230e+01
1	 7.749999999999999e+00	 3.666680416581250e+00	 1.008969559980046e+01
1	 7.900002249988749e+00	 1.833319583418750e+00	 1.002255830185794e+01
1	 7.900002249988750e+00	 2.016655666735001e+00	 1.002648509707740e+01
1	 7.900002249988750e+00	 2.199991750051250e+00	 1.003068259620348e+01
1	 7.900002249988749e+00	 2.383327833367500e+00	 1.003515079923621e+01
1	 7.900002249988750e+00	 2.566663916683750e+00	 1.003988970617555e+01
1	 7.900002249988750e+00	 2.750000000000000e+00	 1.004489931702153e+01
1	 7.900002249988751e+00	 2.933336083316250e+00	 1.005017963177414e+01
1	 7.900002249988749e+00	 3.116672166632499e+00	 1.005573065043339e+01
1	 7.900002249988749e+00	 3.300008249948748e+00	 1.006155237299926e+01
1	 7.900002249988750e+00	 3.483344333264999e+00	 1.006764479947176e+01
1	 7.900002249988749e+00	 3.666680416581249e+00	 1.007400792985090e+01
1	 8.050004499977499e+00	 1.833319583418750e+00	 1.000501724623757e+01
1	 8.050004499977499e+00	 2.016655666735000e+00	 1.000938298099238e+01
1	 8.050004499977502e+00	 2.199991750051250e+00	 1.001397822695902e+01
1	 8.050004499977499e+00	 2.383327833367500e+00	 1.001880298413750e+01
1	 8.050004499977499e+00	 2.566663916683749e+00	 1.002385725252780e+01
1	 8.050004499977501e+00	 2.750000000000000e+00	 1.002914103212993e+01
1	 8.050004499977497e+00	 2.933336083316249e+00	 1.003465432294389e+01
1	 8.050004499977499e+00	 3.116672166632499e+00	 1.004039712496969e+01
1	 8.050004499977499e+00	 3.300008249948749e+00	 1.004636943820731e+01
1	 8.050004499977499e+00	 3.483344333264999e+00	 1.005257126265676e+01
1	 8.050004499977499e+00	 3.666680416581250e+00	 1.005900259831804e+01
1	 8.200006749966249e+00	 1.833319583418750e+00	 9.987341280922255e+00
1	 8.200006749966251e+00	 2.016655666735000e+00	 9.992227680023589e+00
1	 8.200006749966249e+00	 2.199991750051250e+00	 9.997302397641949e+00
1	 8.200006749966247e+00	 2.383327833367499e+00	 1.000256543377735e+01
1	 8.200006749966249e+00	 2.566663916683749e+00	 1.000801678842976e+01
1	 8.200006749966249e+00	 2.750000000000000e+00	 1.001365646159921e+01
1	 8.200006749966249e+00	 2.933336083316249e+00	 1.001948445328569e+01
1	 8.200006749966249e+00	 3.116672166632499e+00	 1.002550076348919e+01
1	 8.200006749966249e+00	 3.300008249948750e+00	 1.003170539220973e+01
1	 8.200006749966249e+00	 3.483344333264998e+00	 1.003809833944730e+01
1	 8.200006749966249e+00	 3.666680416581250e+00	 1.004467960520189e+01
1	 8.350008999954998e+00	 1.833319583418750e+00	 9.969530405912003e+00
1	 8.350008999955001e+00	 2.016655666735000e+00	 9.975019194171024e+00
1	 8.350008999955000e+00	 2.199991750051250e+00	 9.980655108252266e+00
1	 8.350008999954998e+00	 2.383327833367499e+00	 9.986438148155747e+00
1	 8.350008999955000e+00	 2.566663916683749e+00	 9.992368313881446e+00
1	 8.350008999955000e+00	 2.750000000000000e+00	 9.998445605429373e+00
1	 8.350008999955000e+00	 2.933336083316249e+00	 1.000467002279953e+01
1	 8.350008999955000e+00	 3.116672166632499e+00	 1.001104156599192e+01
1	 8.350008999954998e+00	 3.300008249948749e+00	 1.001756023500653e+01
1	 8.350008999955000e+00	 3.483344333264999e+00	 1.002422602984337e+01
1	 8.350008999955000e+00	 3.666680416581249e+00	 1.003103895050243e+01
1	 8.500011249943750e+00	 1.833319583418750e+00	 9.951584621206816e+00
1	 8.500011249943748e+00	 2.016655666735000e+00	 9.957757523434690e+00
1	 8.500011249943750e+00	 2.199991750051250e+00	 9.964036358789985e+00
1	 8.500011249943752e+00	 2.383327833367500e+00	 9.970421127272704e+00
1	 8.500011249943752e+00	 2.566663916683749e+00	 9.976911828882850e+00
1	 8.500011249943750e+00	 2.749999999999999e+00	 9.983508463620421e+00
1	 8.500011249943750e+00	 2.933336083316249e+00	 9.990211031485423e+00
1	 8.500011249943750e+00	 3.116672166632499e+00	 9.997019532477852e+00
1	 8.500011249943750e+00	 3.300008249948749e+00	 1.000393396659771e+01
1	 8.500011249943750e+00	 3.483344333264998e+00	 1.001095433384498e+01
1	 8.500011249943750e+00	 3.666680416581250e+00	 1.001808063421969e+01
1	 6.999988750056250e+00	 3.666680416581250e+00	 1.017836902579877e+01
1	 6.999988750056251e+00	 3.850011137424813e+00	 1.017025262010482e+01
1	 6.999988750056248e+00	 4.033342133268000e+00	 1.016295800371180e+01
1	 6.999988750056251e+00	 4.216673404110813e+00	 1.015648517661960e+01
1	 6.999988750056249e+00	 4.400004949953250e+00	 1.015083413882820e+01
1	 6.999988750056250e+00	 4.583336770795313e+00	 1.014600489033750e+01
1	 6.999988750056250e+00	 4.766668866637001e+00	 1.014199743114747e+01
1	 6.999988750056250e+00	 4.950001237478314e+00	 1.013881176125803e+01
1	 6.999988750056250e+00	 5.133333883319253e+00	 1.013644788066912e+01
1	 6.999988750056250e+00	 5.316666804159815e+00	 1.013490578938068e+01
1	 6.999988750056250e+00	 5.500000000000000e+00	 1.013418548739266e+01
1	 7.149991000045000e+00	 3.666680416581249e+00	 1.015926966376570e+01
1	 7.149991000045000e+00	 3.850011137424812e+00	 1.015234824412095e+01
1	 7.149991000045001e+00	 4.033342133268000e+00	 1.014619146179504e+01
1	 7.149991000045000e+00	 4.216673404110813e+00	 1.014079931678791e+01
1	 7.149991000045000e+00	 4.400004949953251e+00	 1.013617180909952e+01
1	 7.149991000045000e+00	 4.583336770795313e+00	 1.013230893872982e+01
1	 7.149991000044999e+00	 4.766668866637001e+00	 1.012921070567877e+01
1	 7.149991000044999e+00	 4.950001237478313e+00	 1.012687710994630e+01
1	 7.149991000045001e+00	 5.133333883319252e+00	 1.012530815153238e+01
1	 7.149991000045000e+00	 5.316666804159815e+00	 1.012450383043697e+01
1	 7.149991000045000e+00	 5.500000000000000e+00	 1.012446414666000e+01
1	 7.299993250033750e+00	 3.666680416581250e+00	 1.014085264014934e+01
1	 7.299993250033751e+00	 3.850011137424813e+00	 1.013507545779976e+01
1	 7.299993250033747e+00	 4.033342133268000e+00	 1.013000576093921e+01
1	 7.299993250033750e+00	 4.216673404110812e+00	 1.012564354956763e+01
1	 7.299993250033749e+00	 4.400004949953249e+00	 1.012198882368500e+01
1	 7.299993250033747e+00	 4.583336770795313e+00	 1.011904158329128e+01
1	 7.299993250033752e+00	 4.766668866637002e+00	 1.011680182838642e+01
1	 7.299993250033751e+00	 4.950001237478315e+00	 1.011526955897041e+01
1	 7.299993250033749e+00	 5.133333883319251e+00	 1.011444477504320e+01
1	 7.299993250033750e+00	 5.316666804159816e+00	 1.011432747660475e+01
1	 7.299993250033749e+00	 5.499999999999999e+00	 1.011491766365505e+01
1	 7.449995500022498e+00	 3.666680416581249e+00	 1.012311795494967e+01
1	 7.449995500022500e+00	 3.850011137424812e+00	 1.011843426114129e+01
1	 7.449995500022500e+00	 4.033342133268000e+00	 1.011440090114433e+01
1	 7.449995500022500e+00	 4.216673404110812e+00	 1.011101787495879e+01
1	 7.449995500022499e+00	 4.400004949953251e+00	 1.010828518258464e+01
1	 7.449995500022500e+00	 4.583336770795314e+00	 1.010620282402187e+01
1	 7.449995500022498e+00	 4.766668866637001e+00	 1.010477079927044e+01
1	 7.449995500022499e+00	 4.950001237478314e+00	 1.010398910833034e+01
1	 7.449995500022499e+00	 5.133333883319252e+00	 1.010385775120156e+01
1	 7.449995500022499e+00	 5.316666804159814e+00	 1.010437672788406e+01
1	 7.449995500022500e+00	 5.500000000000001e+00	 1.010554603837781e+01
1	 7.599997750011250e+00	 3.666680416581250e+00	 1.010606560816671e+01
1	 7.599997750011249e+00	 3.850011137424812e+00	 1.010242465414549e+01
1	 7.599997750011251e+00	 4.033342133268000e+00	 1.009937688241038e+01
1	 7.599997750011251e+00	 4.216673404110813e+00	 1.009692229296137e+01
1	 7.599997750011249e+00	 4.400004949953251e+00	 1.009506088579844e+01
1	 7.599997750011247e+00	 4.583336770795312e+00	 1.009379266092160e+01
1	 7.599997750011250e+00	 4.766668866637001e+00	 1.009311761833083e+01
1	 7.599997750011250e+00	 4.950001237478314e+00	 1.009303575802611e+01
1	 7.599997750011249e+00	 5.133333883319252e+00	 1.009354708000746e+01
1	 7.599997750011249e+00	 5.316666804159814e+00	 1.009465158427483e+01
1	 7.599997750011250e+00	 5.500000000000000e+00	 1.009634927082826e+01
1	 7.749999999999999e+00	 3.666680416581250e+00	 1.008969559980046e+01
1	 7.749999999999999e+00	 3.850011137424812e+00	 1.008704663681239e+01
1	 7.749999999999998e+00	 4.033342133268000e+00	 1.008493370473736e+01
1	 7.749999999999998e+00	 4.216673404110812e+00	 1.008335680357536e+01
1	 7.750000000000000e+00	 4.400004949953250e+00	 1.008231593332640e+01
1	 7.750000000000000e+00	 4.583336770795313e+00	 1.008181109399047e+01
1	 7.750000000000000e+00	 4.766668866637001e+00	 1.008184228556758e+01
1	 7.750000000000001e+00	 4.950001237478315e+00	 1.008240950805771e+01
1	 7.750000000000000e+00	 5.133333883319252e+00	 1.008351276146091e+01
1	 7.750000000000000e+00	 5.316666804159815e+00	 1.008515204577714e+01
1	 7.750000000000000e+00	 5.500000000000000e+00	 1.008732736100641e+01
1	 7.900002249988749e+00	 3.666680416581249e+00	 1.007400792985090e+01
1	 7.900002249988747e+00	 3.850011137424811e+00	 1.007230020914198e+01
1	 7.900002249988752e+00	 4.033342133268000e+00	 1.007107136812528e+01
1	 7.900002249988749e+00	 4.216673404110812e+00	 1.007032140680078e+01
1	 7.900002249988749e+00	 4.400004949953250e+00	 1.007005032516851e+01
1	 7.900002249988750e+00	 4.583336770795313e+00	 1.007025812322847e+01
1	 7.900002249988749e+00	 4.766668866637001e+00	 1.007094480098069e+01
1	 7.900002249988750e+00	 4.950001237478314e+00	 1.007211035842516e+01
1	 7.900002249988750e+00	 5.133333883319253e+00	 1.007375479556191e+01
1	 7.900002249988749e+00	 5.316666804159814e+00	 1.007587811239094e+01
1	 7.900002249988749e+00	 5.499999999999999e+00	 1.007848030891228e+01
1	 8.050004499977499e+00	 3.666680416581250e+00	 1.005900259831804e+01
1	 8.050004499977501e+00	 3.850011137424812e+00	 1.005818537113428e+01
1	 8.050004499977501e+00	 4.033342133268000e+00	 1.005778987257413e+01
1	 8.050004499977501e+00	 4.216673404110812e+00	 1.005781610263762e+01
1	 8.050004499977499e+00	 4.400004949953250e+00	 1.005826406132478e+01
1	 8.050004499977501e+00	 4.583336770795314e+00	 1.005913374863561e+01
1	 8.050004499977501e+00	 4.766668866637001e+00	 1.006042516457016e+01
1	 8.050004499977499e+00	 4.950001237478314e+00	 1.006213830912843e+01
1	 8.050004499977499e+00	 5.133333883319252e+00	 1.006427318231045e+01
1	 8.050004499977501e+00	 5.316666804159815e+00	 1.006682978411625e+01
1	 8.050004499977501e+00	 5.500000000000000e+00	 1.006980811454583e+01
1	 8.200006749966249e+00	 3.666680416581250e+00	 1.004467960520189e+01
1	 8.200006749966249e+00	 3.850011137424813e+00	 1.004470212278926e+01
1	 8.200006749966249e+00	 4.033342133268000e+00	 1.004508921808392e+01
1	 8.200006749966251e+00	 4.216673404110813e+00	 1.004584089108589e+01
1	 8.200006749966247e+00	 4.400004949953249e+00	 1.004695714179520e+01
1	 8.200006749966249e+00	 4.583336770795313e+00	 1.004843797021190e+01
1	 8.200006749966251e+00	 4.766668866637001e+00	 1.005028337633600e+01
1	 8.200006749966249e+00	 4.950001237478315e+00	 1.005249336016753e+01
1	 8.200006749966251e+00	 5.133333883319253e+00	 1.005506792170653e+01
1	 8.200006749966251e+00	 5.316666804159815e+00	 1.005800706095305e+01
1	 8.200006749966249e+00	 5.500000000000000e+00	 1.006131077790708e+01
1	 8.350008999955000e+00	 3.666680416581249e+00	 1.003103895050243e+01
1	 8.350008999955000e+00	 3.850011137424812e+00	 1.003185046410695e+01
1	 8.350008999954996e+00	 4.033342133267999e+00	 1.003296940465465e+01
1	 8.350008999955001e+00	 4.216673404110812e+00	 1.003439577214558e+01
1	 8.350008999955000e+00	 4.400004949953250e+00	 1.003612956657980e+01
1	 8.350008999954998e+00	 4.583336770795313e+00	 1.003817078795731e+01
1	 8.350008999955000e+00	 4.766668866637001e+00	 1.004051943627820e+01
1	 8.350008999955000e+00	 4.950001237478314e+00	 1.004317551154247e+01
1	 8.350008999955000e+00	 5.133333883319253e+00	 1.004613901375017e+01
1	 8.350008999955000e+00	 5.316666804159815e+00	 1.004940994290136e+01
1	 8.350008999954998e+00	 5.500000000000000e+00	 1.005298829899605e+01
1	 8.500011249943750e+00	 3.666680416581250e+00	 1.001808063421969e+01
1	 8.500011249943750e+00	 3.850011137424812e+00	 1.001963039508732e+01
1	 8.500011249943752e+00	 4.033342133268000e+00	 1.002143043228631e+01
1	 8.500011249943750e+00	 4.216673404110812e+00	 1.002348074581670e+01
1	 8.500011249943752e+00	 4.400004949953252e+00	 1.002578133567854e+01
1	 8.500011249943750e+00	 4.583336770795314e+00	 1.002833220187187e+01
1	 8.500011249943752e+00	 4.766668866637002e+00	 1.003113334439676e+01
1	 8.500011249943750e+00	 4.950001237478315e+00	 1.003418476325324e+01
1	 8.500011249943748e+00	 5.133333883319252e+00	 1.003748645844137e+01
1	 8.500011249943752e+00	 5.316666804159816e+00	 1.004103842996118e+01
1	 8.500011249943750e+00	 5.500000000000000e+00	 1.004484067781271e+01
1	 8.500011249943750e+00	 0.000000000000000e+00	 9.910196385174544e+00
1	 8.500011249943752e+00	 1.833331958401875e-01	 9.915641465694812e+00
1	 8.500011249943752e+00	 3.666661166807500e-01	 9.920796266899970e+00
1	 8.500011249943750e+00	 5.499987625216876e-01	 9.925660788790104e+00
1	 8.500011249943750e+00	 7.333311333629999e-01	 9.930235031365278e+00
1	 8.500011249943752e+00	 9.166632292046875e-01	 9.934518994625595e+00
1	 8.500011249943752e+00	 1.099995050046750e+00	 9.938512678571110e+00
1	 8.500011249943752e+00	 1.283326595889188e+00	 9.942216083201915e+00
1	 8.500011249943750e+00	 1.466657866732000e+00	 9.945629208518074e+00
1	 8.500011249943752e+00	 1.649988862575188e+00	 9.948752054519693e+00
1	 8.500011249943750e+00	 1.833319583418750e+00	 9.951584621206813e+00
1	 8.650009112454439e+00	 0.000000000000000e+00	 9.894435363691954e+00
1	 8.650009112454436e+00	 1.833331958401875e-01	 9.899756994779223e+00
1	 8.650009112454439e+00	 3.666661166807501e-01	 9.904794922335116e+00
1	 8.650009112454439e+00	 5.499987625216877e-01	 9.909549146359712e+00
1	 8.650009112454439e+00	 7.333311333630003e-01	 9.914019666853093e+00
1	 8.650009112454438e+00	 9.166632292046875e-01	 9.918206483815332e+00
1	 8.650009112454439e+00	 1.099995050046750e+00	 9.922109597246500e+00
1	 8.650009112454438e+00	 1.283326595889187e+00	 9.925729007146689e+00
1	 8.650009112454436e+00	 1.466657866732000e+00	 9.929064713515967e+00
1	 8.650009112454438e+00	 1.649988862575188e+00	 9.932116716354409e+00
1	 8.650009112454438e+00	 1.833319583418750e+00	 9.934885015662090e+00
1	 8.800007199964000e+00	 0.000000000000000e+00	 9.876633583666685e+00
1	 8.800007199963998e+00	 1.833331958401875e-01	 9.881954410030980e+00
1	 8.800007199964002e+00	 3.666661166807500e-01	 9.886998108995851e+00
1	 8.800007199964002e+00	 5.499987625216876e-01	 9.891764680561360e+00
1	 8.800007199964000e+00	 7.333311333629999e-01	 9.896254124727596e+00
1	 8.800007199964002e+00	 9.166632292046875e-01	 9.900466441494629e+00
1	 8.800007199964002e+00	 1.099995050046750e+00	 9.904401630862534e+00
1	 8.800007199963998e+00	 1.283326595889187e+00	 9.908059692831403e+00
1	 8.800007199964000e+00	 1.466657866732000e+00	 9.911440627401294e+00
1	 8.800007199964002e+00	 1.649988862575188e+00	 9.914544434572303e+00
1	 8.800007199963998e+00	 1.833319583418750e+00	 9.917371114344483e+00
1	 8.950005512472437e+00	 0.000000000000000e+00	 9.856791045098767e+00
1	 8.950005512472437e+00	 1.833331958401875e-01	 9.862233711450134e+00
1	 8.950005512472439e+00	 3.666661166807500e-01	 9.867405826882209e+00
1	 8.950005512472437e+00	 5.499987625216874e-01	 9.872307391395085e+00
1	 8.950005512472439e+00	 7.333311333630000e-01	 9.876938404988833e+00
1	 8.950005512472437e+00	 9.166632292046876e-01	 9.881298867663524e+00
1	 8.950005512472442e+00	 1.099995050046750e+00	 9.885388779419257e+00
1	 8.950005512472439e+00	 1.283326595889188e+00	 9.889208140256091e+00
1	 8.950005512472437e+00	 1.466657866732000e+00	 9.892756950174114e+00
1	 8.950005512472440e+00	 1.649988862575188e+00	 9.896035209173412e+00
1	 8.950005512472439e+00	 1.833319583418750e+00	 9.899042917254052e+00
1	 9.100004049979750e+00	 0.000000000000000e+00	 9.834907747988259e+00
1	 9.100004049979752e+00	 1.833331958401875e-01	 9.840594899036711e+00
1	 9.100004049979750e+00	 3.666661166807500e-01	 9.846018075994245e+00
1	 9.100004049979750e+00	 5.499987625216874e-01	 9.851177278860925e+00
1	 9.100004049979754e+00	 7.333311333630002e-01	 9.856072507636842e+00
1	 9.100004049979750e+00	 9.166632292046877e-01	 9.860703762322068e+00
1	 9.100004049979749e+00	 1.099995050046750e+00	 9.865071042916700e+00
1	 9.100004049979749e+00	 1.283326595889188e+00	 9.869174349420803e+00
1	 9.100004049979752e+00	 1.466657866732000e+00	 9.873013681834474e+00
1	 9.100004049979750e+00	 1.649988862575187e+00	 9.876589040157786e+00
1	 9.100004049979750e+00	 1.833319583418750e+00	 9.879900424390827e+00
1	 9.250002812485938e+00	 0.000000000000000e+00	 9.810983692335181e+00
1	 9.250002812485938e+00	 1.833331958401875e-01	 9.817037972790775e+00
1	 9.250002812485938e+00	 3.666661166807501e-01	 9.822834856331996e+00
1	 9.250002812485938e+00	 5.499987625216874e-01	 9.828374342958924e+00
1	 9.250002812485940e+00	 7.333311333630002e-01	 9.833656432671672e+00
1	 9.250002812485940e+00	 9.166632292046875e-01	 9.838681125470300e+00
1	 9.250002812485940e+00	 1.099995050046750e+00	 9.843448421354903e+00
1	 9.250002812485938e+00	 1.283326595889188e+00	 9.847958320325578e+00
1	 9.250002812485937e+00	 1.466657866732000e+00	 9.852210822382403e+00
1	 9.250002812485938e+00	 1.649988862575188e+00	 9.856205927525464e+00
1	 9.250002812485938e+00	 1.833319583418750e+00	 9.859943635754854e+00
1	 9.400001799991001e+00	 0.000000000000000e+00	 9.785018878139594e+00
1	 9.400001799991001e+00	 1.833331958401875e-01	 9.791562932712347e+00
1	 9.400001799991001e+00	 3.666661166807500e-01	 9.797856167895496e+00
1	 9.400001799991003e+00	 5.499987625216877e-01	 9.803898583689140e+00
1	 9.400001799991001e+00	 7.333311333629999e-01	 9.809690180093357e+00
1	 9.400001799991001e+00	 9.166632292046873e-01	 9.815230957108264e+00
1	 9.400001799991001e+00	 1.099995050046750e+00	 9.820520914733931e+00
1	 9.400001799991001e+00	 1.283326595889188e+00	 9.825560052970467e+00
1	 9.400001799990999e+00	 1.466657866732000e+00	 9.830348371817962e+00
1	 9.400001799990999e+00	 1.649988862575187e+00	 9.834885871276507e+00
1	 9.400001799991001e+00	 1.833319583418750e+00	 9.839172551346200e+00
1	 9.550001012494938e+00	 0.000000000000000e+00	 9.757013305401529e+00
1	 9.550001012494940e+00	 1.833331958401875e-01	 9.764169778801476e+00
1	 9.550001012494940e+00	 3.666661166807501e-01	 9.771082010684793e+00
1	 9.550001012494940e+00	 5.499987625216876e-01	 9.777750001051590e+00
1	 9.550001012494937e+00	 7.333311333629999e-01	 9.784173749901951e+00
1	 9.550001012494940e+00	 9.166632292046875e-01	 9.790353257235994e+00
1	 9.550001012494938e+00	 1.099995050046750e+00	 9.796288523053812e+00
1	 9.550001012494940e+00	 1.283326595889188e+00	 9.801979547355504e+00
1	 9.550001012494938e+00	 1.466657866732000e+00	 9.807426330141180e+00
1	 9.550001012494940e+00	 1.649988862575188e+00	 9.812628871410945e+00
1	 9.550001012494938e+00	 1.833319583418750e+00	 9.817587171164892e+00
1	 9.700000449997750e+00	 0.000000000000000e+00	 9.726966974121039e+00
1	 9.700000449997752e+00	 1.833331958401875e-01	 9.734858511058212e+00
1	 9.700000449997752e+00	 3.666661166807499e-01	 9.742512384699946e+00
1	 9.700000449997750e+00	 5.499987625216874e-01	 9.749928595046331e+00
1	 9.700000449997749e+00	 7.333311333630000e-01	 9.757107142097500e+00
1	 9.700000449997752e+00	 9.166632292046875e-01	 9.764048025853546e+00
1	 9.700000449997752e+00	 1.099995050046750e+00	 9.770751246314591e+00
1	 9.700000449997750e+00	 1.283326595889187e+00	 9.777216803480741e+00
1	 9.700000449997752e+00	 1.466657866732000e+00	 9.783444697352117e+00
1	 9.700000449997752e+00	 1.649988862575188e+00	 9.789434927928827e+00
1	 9.700000449997752e+00	 1.833319583418750e+00	 9.795187495210975e+00
1	 9.850000112499439e+00	 0.000000000000000e+00	 9.694879884298146e+00
1	 9.850000112499439e+00	 1.833331958401875e-01	 9.703629129482588e+00
1	 9.850000112499439e+00	 3.666661166807499e-01	 9.712147289940962e+00
1	 9.850000112499441e+00	 5.499987625216876e-01	 9.720434365673407e+00
1	 9.850000112499441e+00	 7.333311333630000e-01	 9.728490356680023e+00
1	 9.850000112499439e+00	 9.166632292046875e-01	 9.736315262960947e+00
1	 9.850000112499441e+00	 1.099995050046750e+00	 9.743909084516311e+00
1	 9.850000112499441e+00	 1.283326595889188e+00	 9.751271821346222e+00
1	 9.850000112499437e+00	 1.466657866732000e+00	 9.758403473450800e+00
1	 9.850000112499441e+00	 1.649988862575188e+00	 9.765304040830197e+00
1	 9.850000112499442e+00	 1.833319583418750e+00	 9.771973523484503e+00
1	 1.000000000000000e+01	 0.000000000000000e+00	 9.660752035932907e+00
1	 1.000000000000000e+01	 1.833331958401875e-01	 9.670481634074639e+00
1	 9.999999999999998e+00	 3.666661166807499e-01	 9.679986726407918e+00
1	 1.000000000000000e+01	 5.499987625216876e-01	 9.689267312932852e+00
1	 9.999999999999998e+00	 7.333311333629999e-01	 9.698323393649584e+00
1	 1.000000000000000e+01	 9.166632292046875e-01	 9.707154968558260e+00
1	 1.000000000000000e+01	 1.099995050046750e+00	 9.715762037659019e+00
1	 1.000000000000000e+01	 1.283326595889188e+00	 9.724144600951979e+00
1	 1.000000000000000e+01	 1.466657866732000e+00	 9.732302658437295e+00
1	 1.000000000000000e+01	 1.649988862575187e+00	 9.740236210115109e+00
1	 1.000000000000000e+01	 1.833319583418750e+00	 9.747945255985522e+00
1	 8.500011249943750e+00	 1.833319583418750e+00	 9.951584621206816e+00
1	 8.500011249943748e+00	 2.016655666735000e+00	 9.957757523434687e+00
1	 8.500011249943750e+00	 2.199991750051250e+00	 9.964036358789985e+00
1	 8.500011249943752e+00	 2.383327833367500e+00	 9.970421127272704e+00
1	 8.500011249943752e+00	 2.566663916683749e+00	 9.976911828882850e+00
1	 8.500011249943750e+00	 2.749999999999999e+00	 9.983508463620424e+00
1	 8.500011249943750e+00	 2.933336083316249e+00	 9.990211031485423e+00
1	 8.500011249943750e+00	 3.116672166632499e+00	 9.997019532477852e+00
1	 8.500011249943750e+00	 3.300008249948749e+00	 1.000393396659771e+01
1	 8.500011249943750e+00	 3.483344333264998e+00	 1.001095433384498e+01
1	 8.500011249943750e+00	 3.666680416581250e+00	 1.001808063421969e+01
1	 8.650009112454438e+00	 1.833319583418750e+00	 9.934885015662090e+00
1	 8.650009112454438e+00	 2.016655666735000e+00	 9.941334821063126e+00
1	 8.650009112454438e+00	 2.199991750051249e+00	 9.947878238855827e+00
1	 8.650009112454439e+00	 2.383327833367499e+00	 9.954515269040215e+00
1	 8.650009112454436e+00	 2.566663916683749e+00	 9.961245911616281e+00
1	 8.650009112454438e+00	 2.750000000000000e+00	 9.968070166584020e+00
1	 8.650009112454438e+00	 2.933336083316249e+00	 9.974988033943436e+00
1	 8.650009112454441e+00	 3.116672166632499e+00	 9.981999513694532e+00
1	 8.650009112454438e+00	 3.300008249948749e+00	 9.989104605837309e+00
1	 8.650009112454438e+00	 3.483344333264999e+00	 9.996303310371747e+00
1	 8.650009112454439e+00	 3.666680416581250e+00	 1.000359562729788e+01
1	 8.800007199963998e+00	 1.833319583418750e+00	 9.917371114344483e+00
1	 8.800007199964002e+00	 2.016655666735000e+00	 9.924248464578406e+00
1	 8.800007199963996e+00	 2.199991750051249e+00	 9.931207106505221e+00
1	 8.800007199964000e+00	 2.383327833367500e+00	 9.938247040124917e+00
1	 8.800007199964002e+00	 2.566663916683749e+00	 9.945368265437507e+00
1	 8.800007199964005e+00	 2.750000000000000e+00	 9.952570782442987e+00
1	 8.800007199964000e+00	 2.933336083316249e+00	 9.959854591141355e+00
1	 8.800007199963998e+00	 3.116672166632499e+00	 9.967219691532613e+00
1	 8.800007199964000e+00	 3.300008249948749e+00	 9.974666083616771e+00
1	 8.800007199964000e+00	 3.483344333264998e+00	 9.982193767393811e+00
1	 8.800007199964000e+00	 3.666680416581250e+00	 9.989802742863741e+00
1	 8.950005512472439e+00	 1.833319583418750e+00	 9.899042917254050e+00
1	 8.950005512472437e+00	 2.016655666735000e+00	 9.906498453980580e+00
1	 8.950005512472435e+00	 2.199991750051249e+00	 9.914022961738180e+00
1	 8.950005512472439e+00	 2.383327833367500e+00	 9.921616440526842e+00
1	 8.950005512472437e+00	 2.566663916683749e+00	 9.929278890346572e+00
1	 8.950005512472437e+00	 2.749999999999999e+00	 9.937010311197369e+00
1	 8.950005512472440e+00	 2.933336083316249e+00	 9.944810703079227e+00
1	 8.950005512472439e+00	 3.116672166632499e+00	 9.952680065992157e+00
1	 8.950005512472437e+00	 3.300008249948749e+00	 9.960618399936148e+00
1	 8.950005512472439e+00	 3.483344333264999e+00	 9.968625704911203e+00
1	 8.950005512472439e+00	 3.666680416581249e+00	 9.976701980917333e+00
1	 9.100004049979750e+00	 1.833319583418750e+00	 9.879900424390826e+00
1	 9.100004049979750e+00	 2.016655666735000e+00	 9.888084789269698e+00
1	 9.100004049979750e+00	 2.199991750051249e+00	 9.896325804554772e+00
1	 9.100004049979750e+00	 2.383327833367500e+00	 9.904623470246047e+00
1	 9.100004049979750e+00	 2.566663916683749e+00	 9.912977786343532e+00
1	 9.100004049979750e+00	 2.749999999999999e+00	 9.921388752847218e+00
1	 9.100004049979750e+00	 2.933336083316249e+00	 9.929856369757102e+00
1	 9.100004049979752e+00	 3.116672166632499e+00	 9.938380637073191e+00
1	 9.100004049979749e+00	 3.300008249948748e+00	 9.946961554795486e+00
1	 9.100004049979750e+00	 3.483344333264999e+00	 9.955599122923990e+00
1	 9.100004049979750e+00	 3.666680416581250e+00	 9.964293341458692e+00
1	 9.250002812485938e+00	 1.833319583418750e+00	 9.859943635754854e+00
1	 9.250002812485937e+00	 2.016655666735000e+00	 9.869007470445792e+00
1	 9.250002812485938e+00	 2.199991750051249e+00	 9.878115634955037e+00
1	 9.250002812485938e+00	 2.383327833367500e+00	 9.887268129282578e+00
1	 9.250002812485938e+00	 2.566663916683749e+00	 9.896464953428424e+00
1	 9.250002812485938e+00	 2.749999999999999e+00	 9.905706107392577e+00
1	 9.250002812485940e+00	 2.933336083316250e+00	 9.914991591175024e+00
1	 9.250002812485938e+00	 3.116672166632499e+00	 9.924321404775784e+00
1	 9.250002812485938e+00	 3.300008249948749e+00	 9.933695548194841e+00
1	 9.250002812485938e+00	 3.483344333264998e+00	 9.943114021432207e+00
1	 9.250002812485938e+00	 3.666680416581250e+00	 9.952576824487869e+00
1	 9.400001799991001e+00	 1.833319583418750e+00	 9.839172551346199e+00
1	 9.400001799991001e+00	 2.016655666735000e+00	 9.849266497508925e+00
1	 9.400001799991001e+00	 2.199991750051250e+00	 9.859392452939025e+00
1	 9.400001799991001e+00	 2.383327833367499e+00	 9.869550417636489e+00
1	 9.400001799991001e+00	 2.566663916683749e+00	 9.879740391601313e+00
1	 9.400001799991001e+00	 2.750000000000000e+00	 9.889962374833498e+00
1	 9.400001799991001e+00	 2.933336083316250e+00	 9.900216367333048e+00
1	 9.400001799991001e+00	 3.116672166632499e+00	 9.910502369099977e+00
1	 9.400001799991003e+00	 3.300008249948749e+00	 9.920820380134254e+00
1	 9.400001799990999e+00	 3.483344333264998e+00	 9.931170400435892e+00
1	 9.400001799991001e+00	 3.666680416581250e+00	 9.941552430004906e+00
1	 9.550001012494938e+00	 1.833319583418750e+00	 9.817587171164888e+00
1	 9.550001012494940e+00	 2.016655666735000e+00	 9.828861870459143e+00
1	 9.550001012494938e+00	 2.199991750051250e+00	 9.840156258506783e+00
1	 9.550001012494938e+00	 2.383327833367500e+00	 9.851470335307814e+00
1	 9.550001012494940e+00	 2.566663916683750e+00	 9.862804100862226e+00
1	 9.550001012494940e+00	 2.750000000000000e+00	 9.874157555170026e+00
1	 9.550001012494938e+00	 2.933336083316250e+00	 9.885530698231227e+00
1	 9.550001012494938e+00	 3.116672166632499e+00	 9.896923530045790e+00
1	 9.550001012494938e+00	 3.300008249948749e+00	 9.908336050613757e+00
1	 9.550001012494940e+00	 3.483344333264999e+00	 9.919768259935116e+00
1	 9.550001012494938e+00	 3.666680416581250e+00	 9.931220158009854e+00
1	 9.700000449997752e+00	 1.833319583418750e+00	 9.795187495210975e+00
1	 9.700000449997752e+00	 2.016655666735000e+00	 9.807793589296484e+00
1	 9.700000449997750e+00	 2.199991750051250e+00	 9.820407051658353e+00
1	 9.700000449997752e+00	 2.383327833367500e+00	 9.833027882296605e+00
1	 9.700000449997752e+00	 2.566663916683749e+00	 9.845656081211221e+00
1	 9.700000449997750e+00	 2.750000000000000e+00	 9.858291648402222e+00
1	 9.700000449997752e+00	 2.933336083316250e+00	 9.870934583869586e+00
1	 9.700000449997752e+00	 3.116672166632499e+00	 9.883584887613313e+00
1	 9.700000449997752e+00	 3.300008249948750e+00	 9.896242559633418e+00
1	 9.700000449997752e+00	 3.483344333264999e+00	 9.908907599929897e+00
1	 9.700000449997752e+00	 3.666680416581250e+00	 9.921580008502749e+00
1	 9.850000112499442e+00	 1.833319583418750e+00	 9.771973523484501e+00
1	 9.850000112499439e+00	 2.016655666735000e+00	 9.786061654020990e+00
1	 9.850000112499442e+00	 2.199991750051250e+00	 9.800144832393794e+00
1	 9.850000112499439e+00	 2.383327833367500e+00	 9.814223058602920e+00
1	 9.850000112499439e+00	 2.566663916683749e+00	 9.828296332648355e+00
1	 9.850000112499441e+00	 2.749999999999999e+00	 9.842364654530108e+00
1	 9.850000112499439e+00	 2.933336083316249e+00	 9.856428024248183e+00
1	 9.850000112499439e+00	 3.116672166632499e+00	 9.870486441802571e+00
1	 9.850000112499441e+00	 3.300008249948749e+00	 9.884539907193279e+00
1	 9.850000112499441e+00	 3.483344333264999e+00	 9.898588420420300e+00
1	 9.850000112499442e+00	 3.666680416581250e+00	 9.912631981483653e+00
1	 1.000000000000000e+01	 1.833319583418750e+00	 9.747945255985522e+00
1	 1.000000000000000e+01	 2.016655666735000e+00	 9.763666064632718e+00
1	 9.999999999999998e+00	 2.199991750051249e+00	 9.779369600713146e+00
1	 1.000000000000000e+01	 2.383327833367500e+00	 9.795055864226789e+00
1	 1.000000000000000e+01	 2.566663916683749e+00	 9.810724855173657e+00
1	 1.000000000000000e+01	 2.750000000000000e+00	 9.826376573553754e+00
1	 1.000000000000000e+01	 2.933336083316249e+00	 9.842011019367071e+00
1	 1.000000000000000e+01	 3.116672166632499e+00	 9.857628192613614e+00
1	 1.000000000000000e+01	 3.300008249948749e+00	 9.873228093293383e+00
1	 1.000000000000000e+01	 3.483344333264998e+00	 9.888810721406378e+00
1	 1.000000000000000e+01	 3.666680416581250e+00	 9.904376076952596e+00
1	 8.500011249943750e+00	 3.666680416581250e+00	 1.001808063421969e+01
1	 8.500011249943750e+00	 3.850011137424812e+00	 1.001963039508732e+01
1	 8.500011249943752e+00	 4.033342133268000e+00	 1.002143043228631e+01
1	 8.500011249943750e+00	 4.216673404110812e+00	 1.002348074581670e+01
1	 8.500011249943752e+00	 4.400004949953252e+00	 1.002578133567854e+01
1	 8.500011249943750e+00	 4.583336770795314e+00	 1.002833220187187e+01
1	 8.500011249943752e+00	 4.766668866637002e+00	 1.003113334439676e+01
1	 8.500011249943750e+00	 4.950001237478315e+00	 1.003418476325324e+01
1	 8.500011249943748e+00	 5.133333883319252e+00	 1.003748645844137e+01
1	 8.500011249943752e+00	 5.316666804159816e+00	 1.004103842996118e+01
1	 8.500011249943750e+00	 5.500000000000000e+00	 1.004484067781271e+01
1	 8.650009112454439e+00	 3.666680416581250e+00	 1.000359562729788e+01
1	 8.650009112454438e+00	 3.850011137424812e+00	 1.000565788833785e+01
1	 8.650009112454436e+00	 4.033342133268000e+00	 1.000796048028252e+01
1	 8.650009112454439e+00	 4.216673404110812e+00	 1.001050340313193e+01
1	 8.650009112454438e+00	 4.400004949953250e+00	 1.001328665688613e+01
1	 8.650009112454436e+00	 4.583336770795313e+00	 1.001631024154519e+01
1	 8.650009112454436e+00	 4.766668866637001e+00	 1.001957415710917e+01
1	 8.650009112454441e+00	 4.950001237478316e+00	 1.002307840357810e+01
1	 8.650009112454438e+00	 5.133333883319252e+00	 1.002682298095205e+01
1	 8.650009112454441e+00	 5.316666804159817e+00	 1.003080788923108e+01
1	 8.650009112454439e+00	 5.500000000000000e+00	 1.003503312841525e+01
1	 8.800007199964000e+00	 3.666680416581250e+00	 9.989802742863743e+00
1	 8.800007199964000e+00	 3.850011137424813e+00	 9.992427784192301e+00
1	 8.800007199963998e+00	 4.033342133267999e+00	 9.995283210877865e+00
1	 8.800007199964002e+00	 4.216673404110812e+00	 9.998369022920503e+00
1	 8.800007199964002e+00	 4.400004949953252e+00	 1.000168522032028e+01
1	 8.800007199964002e+00	 4.583336770795313e+00	 1.000523180307727e+01
1	 8.800007199963998e+00	 4.766668866637000e+00	 1.000900877119151e+01
1	 8.800007199964000e+00	 4.950001237478315e+00	 1.001301612466309e+01
1	 8.800007199964000e+00	 5.133333883319252e+00	 1.001725386349206e+01
1	 8.800007199964000e+00	 5.316666804159815e+00	 1.002172198767849e+01
1	 8.800007199964000e+00	 5.500000000000000e+00	 1.002642049722242e+01
1	 8.950005512472439e+00	 3.666680416581249e+00	 9.976701980917335e+00
1	 8.950005512472439e+00	 3.850011137424812e+00	 9.979940082650703e+00
1	 8.950005512472439e+00	 4.033342133268000e+00	 9.983398624072402e+00
1	 8.950005512472437e+00	 4.216673404110813e+00	 9.987077605182488e+00
1	 8.950005512472439e+00	 4.400004949953250e+00	 9.990977025981044e+00
1	 8.950005512472439e+00	 4.583336770795313e+00	 9.995096886468140e+00
1	 8.950005512472439e+00	 4.766668866637001e+00	 9.999437186643856e+00
1	 8.950005512472437e+00	 4.950001237478314e+00	 1.000399792650826e+01
1	 8.950005512472437e+00	 5.133333883319252e+00	 1.000877910606142e+01
1	 8.950005512472437e+00	 5.316666804159814e+00	 1.001378072530341e+01
1	 8.950005512472437e+00	 5.499999999999999e+00	 1.001900278423431e+01
1	 9.100004049979750e+00	 3.666680416581250e+00	 9.964293341458692e+00
1	 9.100004049979752e+00	 3.850011137424813e+00	 9.968194783713113e+00
1	 9.100004049979752e+00	 4.033342133268000e+00	 9.972306719866157e+00
1	 9.100004049979749e+00	 4.216673404110812e+00	 9.976629149917908e+00
1	 9.100004049979750e+00	 4.400004949953250e+00	 9.981162073868443e+00
1	 9.100004049979754e+00	 4.583336770795314e+00	 9.985905491717862e+00
1	 9.100004049979752e+00	 4.766668866637002e+00	 9.990859403466221e+00
1	 9.100004049979750e+00	 4.950001237478313e+00	 9.996023809113634e+00
1	 9.100004049979752e+00	 5.133333883319254e+00	 1.000139870866015e+01
1	 9.100004049979750e+00	 5.316666804159815e+00	 1.000698410210589e+01
1	 9.100004049979750e+00	 5.500000000000000e+00	 1.001277998945090e+01
1	 9.250002812485938e+00	 3.666680416581250e+00	 9.952576824487869e+00
1	 9.250002812485938e+00	 3.850011137424811e+00	 9.957191887379572e+00
1	 9.250002812485938e+00	 4.033342133268000e+00	 9.962007498259181e+00
1	 9.250002812485938e+00	 4.216673404110812e+00	 9.967023657126806e+00
1	 9.250002812485940e+00	 4.400004949953251e+00	 9.972240363982534e+00
1	 9.250002812485940e+00	 4.583336770795314e+00	 9.977657618826456e+00
1	 9.250002812485938e+00	 4.766668866637001e+00	 9.983275421658652e+00
1	 9.250002812485938e+00	 4.950001237478314e+00	 9.989093772479247e+00
1	 9.250002812485940e+00	 5.133333883319252e+00	 9.995112671288318e+00
1	 9.250002812485938e+00	 5.316666804159816e+00	 1.000133211808595e+01
1	 9.250002812485938e+00	 5.500000000000000e+00	 1.000775211287224e+01
1	 9.400001799991001e+00	 3.666680416581250e+00	 9.941552430004906e+00
1	 9.400001799991001e+00	 3.850011137424812e+00	 9.946931393650118e+00
1	 9.400001799991001e+00	 4.033342133268000e+00	 9.952500959251523e+00
1	 9.400001799991001e+00	 4.216673404110812e+00	 9.958261126809235e+00
1	 9.400001799990999e+00	 4.400004949953250e+00	 9.964211896323347e+00
1	 9.400001799991003e+00	 4.583336770795313e+00	 9.970353267793961e+00
1	 9.400001799991001e+00	 4.766668866637001e+00	 9.976685241221201e+00
1	 9.400001799991001e+00	 4.950001237478314e+00	 9.983207816605152e+00
1	 9.400001799991001e+00	 5.133333883319252e+00	 9.989920993945926e+00
1	 9.400001799990999e+00	 5.316666804159815e+00	 9.996824773243622e+00
1	 9.400001799991001e+00	 5.500000000000000e+00	 1.000391915449835e+01
1	 9.550001012494938e+00	 3.666680416581250e+00	 9.931220158009856e+00
1	 9.550001012494938e+00	 3.850011137424812e+00	 9.937413302524806e+00
1	 9.550001012494938e+00	 4.033342133268000e+00	 9.943787102843222e+00
1	 9.550001012494938e+00	 4.216673404110812e+00	 9.950341558965226e+00
1	 9.550001012494938e+00	 4.400004949953250e+00	 9.957076670890915e+00
1	 9.550001012494938e+00	 4.583336770795313e+00	 9.963992438620439e+00
1	 9.550001012494938e+00	 4.766668866637001e+00	 9.971088862153881e+00
1	 9.550001012494938e+00	 4.950001237478314e+00	 9.978365941491369e+00
1	 9.550001012494940e+00	 5.133333883319253e+00	 9.985823676633022e+00
1	 9.550001012494938e+00	 5.316666804159814e+00	 9.993462067578953e+00
1	 9.550001012494938e+00	 5.500000000000000e+00	 1.000128111432928e+01
1	 9.700000449997752e+00	 3.666680416581250e+00	 9.921580008502749e+00
1	 9.700000449997750e+00	 3.850011137424813e+00	 9.928637614003673e+00
1	 9.700000449997750e+00	 4.033342133268000e+00	 9.935865929034332e+00
1	 9.700000449997752e+00	 4.216673404110812e+00	 9.943264953594829e+00
1	 9.700000449997750e+00	 4.400004949953250e+00	 9.950834687685312e+00
1	 9.700000449997752e+00	 4.583336770795313e+00	 9.958575131305912e+00
1	 9.700000449997752e+00	 4.766668866637001e+00	 9.966486284456742e+00
1	 9.700000449997752e+00	 4.950001237478315e+00	 9.974568147137948e+00
1	 9.700000449997752e+00	 5.133333883319250e+00	 9.982820719349647e+00
1	 9.700000449997752e+00	 5.316666804159815e+00	 9.991244001091964e+00
1	 9.700000449997750e+00	 5.500000000000000e+00	 9.999837992365070e+00
1	 9.850000112499442e+00	 3.666680416581250e+00	 9.912631981483651e+00
1	 9.850000112499441e+00	 3.850011137424812e+00	 9.920604328086771e+00
1	 9.850000112499442e+00	 4.033342133268000e+00	 9.928737437824871e+00
1	 9.850000112499439e+00	 4.216673404110812e+00	 9.937031310698085e+00
1	 9.850000112499441e+00	 4.400004949953250e+00	 9.945485946706549e+00
1	 9.850000112499439e+00	 4.583336770795313e+00	 9.954101345850420e+00
1	 9.850000112499439e+00	 4.766668866637001e+00	 9.962877508129825e+00
1	 9.850000112499441e+00	 4.950001237478315e+00	 9.971814433544914e+00
1	 9.850000112499441e+00	 5.133333883319252e+00	 9.980912122095827e+00
1	 9.850000112499441e+00	 5.316666804159815e+00	 9.990170573782716e+00
1	 9.850000112499439e+00	 5.500000000000000e+00	 9.999589788605700e+00
1	 1.000000000000000e+01	 3.666680416581250e+00	 9.904376076952596e+00
1	 1.000000000000000e+01	 3.850011137424812e+00	 9.913313444774149e+00
1	 1.000000000000000e+01	 4.033342133268000e+00	 9.922401629214908e+00
1	 9.999999999999998e+00	 4.216673404110812e+00	 9.931640630275032e+00
1	 1.000000000000000e+01	 4.400004949953250e+00	 9.941030447954683e+00
1	 1.000000000000000e+01	 4.583336770795313e+00	 9.950571082254010e+00
1	 1.000000000000000e+01	 4.766668866637001e+00	 9.960262533173159e+00
1	 1.000000000000000e+01	 4.950001237478315e+00	 9.970104800712310e+00
1	 1.000000000000000e+01	 5.133333883319252e+00	 9.980097884871604e+00
1	 1.000000000000000e+01	 5.316666804159815e+00	 9.990241785651190e+00
1	 1.000000000000000e+01	 5.500000000000000e+00	 1.000053650305125e+01
2	 5.500000000000000e+00	 5.500000000000000e+00	 1.019243102564100e+01
2	 5.500000000000001e+00	 5.649999887500562e+00	 1.018188151721374e+01
2	 5.500000000000000e+00	 5.799999550002250e+00	 1.017143462865711e+01
2	 5.500000000000001e+00	 5.949998987505063e+00	 1.016109035997089e+01
2	 5.500000000000000e+00	 6.099998200009000e+00	 1.015084871115485e+01
2	 5.500000000000001e+00	 6.249997187514063e+00	 1.014070968220874e+01
2	 5.500000000000000e+00	 6.399995950020251e+00	 1.013067327313235e+01
2	 5.500000000000000e+00	 6.549994487527562e+00	 1.012073948392544e+01
2	 5.500000000000000e+00	 6.699992800036000e+00	 1.011090831458779e+01
2	 5.500000000000000e+00	 6.849990887545562e+00	 1.010117976511913e+01
2	 5.500000000000000e+00	 6.999988750056250e+00	 1.009155383551928e+01
2	 5.649999887500562e+00	 5.500000000000001e+00	 1.018969729699469e+01
2	 5.649999887500563e+00	 5.649999887500562e+00	 1.017944391443742e+01
2	 5.649999887500562e+00	 5.799999550002250e+00	 1.016929835185288e+01
2	 5.649999887500561e+00	 5.949998987505063e+00	 1.015926060924081e+01
2	 5.649999887500563e+00	 6.099998200008999e+00	 1.014933068660099e+01
2	 5.649999887500563e+00	 6.249997187514062e+00	 1.013950858393323e+01
2	 5.649999887500563e+00	 6.399995950020251e+00	 1.012979430123726e+01
2	 5.649999887500562e+00	 6.549994487527562e+00	 1.012018783851290e+01
2	 5.649999887500563e+00	 6.699992800036000e+00	 1.011068919575990e+01
2	 5.649999887500562e+00	 6.849990887545563e+00	 1.010129837297804e+01
2	 5.649999887500562e+00	 6.999988750056250e+00	 1.009201537016711e+01
2	 5.799999550002250e+00	 5.500000000000000e+00	 1.018614869166544e+01
2	 5.799999550002251e+00	 5.649999887500562e+00	 1.017621321000765e+01
2	 5.799999550002252e+00	 5.799999550002251e+00	 1.016639074850557e+01
2	 5.799999550002251e+00	 5.949998987505063e+00	 1.015668130715896e+01
2	 5.799999550002251e+00	 6.099998200009001e+00	 1.014708488596762e+01
2	 5.799999550002251e+00	 6.249997187514062e+00	 1.013760148493133e+01
2	 5.799999550002250e+00	 6.399995950020250e+00	 1.012823110404987e+01
2	 5.799999550002249e+00	 6.549994487527561e+00	 1.011897374332305e+01
2	 5.799999550002251e+00	 6.699992800036002e+00	 1.010982940275065e+01
2	 5.799999550002250e+00	 6.849990887545562e+00	 1.010079808233242e+01
2	 5.799999550002250e+00	 6.999988750056248e+00	 1.009187978206820e+01
2	 5.949998987505063e+00	 5.500000000000001e+00	 1.018178520965335e+01
2	 5.949998987505063e+00	 5.649999887500561e+00	 1.017218940392450e+01
2	 5.949998987505063e+00	 5.799999550002251e+00	 1.016271181861526e+01
2	 5.949998987505063e+00	 5.949998987505063e+00	 1.015335245372541e+01
2	 5.949998987505063e+00	 6.099998200009000e+00	 1.014411130925476e+01
2	 5.949998987505063e+00	 6.249997187514062e+00	 1.013498838520310e+01
2	 5.949998987505062e+00	 6.399995950020250e+00	 1.012598368157023e+01
2	 5.949998987505063e+00	 6.549994487527564e+00	 1.011709719835594e+01
2	 5.949998987505062e+00	 6.699992800036000e+00	 1.010832893556005e+01
2	 5.949998987505063e+00	 6.849990887545562e+00	 1.009967889318231e+01
2	 5.949998987505063e+00	 6.999988750056250e+00	 1.009114707122257e+01
2	 6.099998200009000e+00	 5.500000000000000e+00	 1.017660685095847e+01
2	 6.099998200009001e+00	 5.649999887500563e+00	 1.016737249618802e+01
2	 6.099998200008999e+00	 5.799999550002250e+00	 1.015826156218199e+01
2	 6.099998200009000e+00	 5.949998987505063e+00	 1.014927404894021e+01
2	 6.099998200008999e+00	 6.099998200009000e+00	 1.014040995646247e+01
2	 6.099998200009001e+00	 6.249997187514063e+00	 1.013166928474858e+01
2	 6.099998200009000e+00	 6.399995950020250e+00	 1.012305203379837e+01
2	 6.099998200009001e+00	 6.549994487527563e+00	 1.011455820361161e+01
2	 6.099998200009000e+00	 6.699992800036000e+00	 1.010618779418814e+01
2	 6.099998200009000e+00	 6.849990887545563e+00	 1.009794080552774e+01
2	 6.099998200009001e+00	 6.999988750056250e+00	 1.008981723763022e+01
2	 6.249997187514063e+00	 5.500000000000001e+00	 1.017061361558087e+01
2	 6.249997187514062e+00	 5.649999887500562e+00	 1.016176248679827e+01
2	 6.249997187514062e+00	 5.799999550002251e+00	 1.015303997920584e+01
2	 6.249997187514063e+00	 5.949998987505064e+00	 1.014444609280340e+01
2	 6.249997187514063e+00	 6.099998200009001e+00	 1.013598082759080e+01
2	 6.249997187514064e+00	 6.249997187514064e+00	 1.012764418356783e+01
2	 6.249997187514062e+00	 6.399995950020249e+00	 1.011943616073432e+01
2	 6.249997187514063e+00	 6.549994487527562e+00	 1.011135675909009e+01
2	 6.249997187514063e+00	 6.699992800036001e+00	 1.010340597863494e+01
2	 6.249997187514063e+00	 6.849990887545561e+00	 1.009558381936871e+01
2	 6.249997187514063e+00	 6.999988750056250e+00	 1.008789028129121e+01
2	 6.399995950020251e+00	 5.500000000000000e+00	 1.016380550352067e+01
2	 6.399995950020252e+00	 5.649999887500564e+00	 1.015535937575532e+01
2	 6.399995950020251e+00	 5.799999550002251e+00	 1.014704706968684e+01
2	 6.399995950020250e+00	 5.949998987505063e+00	 1.013886858531504e+01
2	 6.399995950020250e+00	 6.099998200008999e+00	 1.013082392263977e+01
2	 6.399995950020249e+00	 6.249997187514063e+00	 1.012291308166085e+01
2	 6.399995950020249e+00	 6.399995950020250e+00	 1.011513606237812e+01
2	 6.399995950020251e+00	 6.549994487527562e+00	 1.010749286479138e+01
2	 6.399995950020250e+00	 6.699992800036001e+00	 1.009998348890048e+01
2	 6.399995950020250e+00	 6.849990887545562e+00	 1.009260793470525e+01
2	 6.399995950020250e+00	 6.999988750056250e+00	 1.008536620220550e+01
2	 6.549994487527562e+00	 5.500000000000000e+00	 1.015618251477788e+01
2	 6.549994487527561e+00	 5.649999887500563e+00	 1.014816316305923e+01
2	 6.549994487527561e+00	 5.799999550002249e+00	 1.014028283362506e+01
2	 6.549994487527562e+00	 5.949998987505063e+00	 1.013254152647519e+01
2	 6.549994487527561e+00	 6.099998200009000e+00	 1.012493924160947e+01
2	 6.549994487527562e+00	 6.249997187514063e+00	 1.011747597902773e+01
2	 6.549994487527563e+00	 6.399995950020251e+00	 1.011015173872981e+01
2	 6.549994487527562e+00	 6.549994487527562e+00	 1.010296652071555e+01
2	 6.549994487527562e+00	 6.699992800036000e+00	 1.009592032498480e+01
2	 6.549994487527563e+00	 6.849990887545564e+00	 1.008901315153739e+01
2	 6.549994487527562e+00	 6.999988750056249e+00	 1.008224500037316e+01
2	 6.699992800036000e+00	 5.500000000000000e+00	 1.014774464935257e+01
2	 6.699992800036000e+00	 5.649999887500564e+00	 1.014017384871008e+01
2	 6.699992800036000e+00	 5.799999550002250e+00	 1.013274727102057e+01
2	 6.699992800036001e+00	 5.949998987505062e+00	 1.012546491628389e+01
2	 6.699992800035999e+00	 6.099998200009000e+00	 1.011832678449990e+01
2	 6.699992800036001e+00	 6.249997187514063e+00	 1.011133287566846e+01
2	 6.699992800036000e+00	 6.399995950020251e+00	 1.010448318978941e+01
2	 6.699992800036001e+00	 6.549994487527563e+00	 1.009777772686261e+01
2	 6.699992800036000e+00	 6.699992800036000e+00	 1.009121648688790e+01
2	 6.699992800035999e+00	 6.849990887545562e+00	 1.008479946986513e+01
2	 6.699992800036000e+00	 6.999988750056250e+00	 1.007852667579417e+01
2	 6.849990887545562e+00	 5.500000000000000e+00	 1.013849190724483e+01
2	 6.849990887545562e+00	 5.649999887500562e+00	 1.013139143270789e+01
2	 6.849990887545562e+00	 5.799999550002251e+00	 1.012444038187339e+01
2	 6.849990887545562e+00	 5.949998987505063e+00	 1.011763875474119e+01
2	 6.849990887545562e+00	 6.099998200009000e+00	 1.011098655131114e+01
2	 6.849990887545563e+00	 6.249997187514064e+00	 1.010448377158312e+01
2	 6.849990887545562e+00	 6.399995950020251e+00	 1.009813041555698e+01
2	 6.849990887545563e+00	 6.549994487527563e+00	 1.009192648323259e+01
2	 6.849990887545562e+00	 6.699992800035999e+00	 1.008587197460982e+01
2	 6.849990887545562e+00	 6.849990887545562e+00	 1.007996688968851e+01
2	 6.849990887545563e+00	 6.999988750056249e+00	 1.007421122846856e+01
2	 6.999988750056250e+00	 5.500000000000000e+00	 1.012842428845471e+01
2	 6.999988750056250e+00	 5.649999887500562e+00	 1.012181591505275e+01
2	 6.999988750056249e+00	 5.799999550002250e+00	 1.011536216618361e+01
2	 6.999988750056250e+00	 5.949998987505063e+00	 1.010906304184714e+01
2	 6.999988750056251e+00	 6.099998200009000e+00	 1.010291854204323e+01
2	 6.999988750056250e+00	 6.249997187514062e+00	 1.009692866677173e+01
2	 6.999988750056250e+00	 6.399995950020250e+00	 1.009109341603254e+01
2	 6.999988750056250e+00	 6.549994487527563e+00	 1.008541278982553e+01
2	 6.999988750056250e+00	 6.699992800036001e+00	 1.007988678815057e+01
2	 6.999988750056248e+00	 6.849990887545562e+00	 1.007451541100755e+01
2	 6.999988750056250e+00	 6.999988750056250e+00	 1.006929865839633e+01
2	 5.500000000000000e+00	 6.999988750056250e+00	 1.009155383551928e+01
2	 5.500000000000000e+00	 7.149991000045000e+00	 1.008573265521453e+01
2	 5.499999999999999e+00	 7.299993250033749e+00	 1.007964536645667e+01
2	 5.500000000000001e+00	 7.449995500022500e+00	 1.007329196924575e+01
2	 5.500000000000000e+00	 7.599997750011250e+00	 1.006667246358173e+01
2	 5.500000000000000e+00	 7.750000000000000e+00	 1.005978684946463e+01
2	 5.499999999999999e+00	 7.900002249988749e+00	 1.005263512689445e+01
2	 5.500000000000000e+00	 8.050004499977501e+00	 1.004521729587118e+01
2	 5.500000000000000e+00	 8.200006749966249e+00	 1.003753335639482e+01
2	 5.500000000000000e+00	 8.350008999954998e+00	 1.002958330846538e+01
2	 5.500000000000000e+00	 8.500011249943750e+00	 1.002136715208285e+01
2	 5.649999887500562e+00	 6.999988750056250e+00	 1.009201537016711e+01
2	 5.649999887500564e+00	 7.149991000045000e+00	 1.008614542205593e+01
2	 5.649999887500561e+00	 7.299993250033749e+00	 1.008002035164661e+01
2	 5.649999887500563e+00	 7.449995500022500e+00	 1.007364015893914e+01
2	 5.649999887500561e+00	 7.599997750011248e+00	 1.006700484393352e+01
2	 5.649999887500563e+00	 7.749999999999998e+00	 1.006011440662977e+01
2	 5.649999887500564e+00	 7.900002249988749e+00	 1.005296884702786e+01
2	 5.649999887500561e+00	 8.050004499977499e+00	 1.004556816512780e+01
2	 5.649999887500563e+00	 8.200006749966249e+00	 1.003791236092959e+01
2	 5.649999887500563e+00	 8.350008999954998e+00	 1.003000143443325e+01
2	 5.649999887500562e+00	 8.500011249943752e+00	 1.002183538563874e+01
2	 5.799999550002250e+00	 6.999988750056248e+00	 1.009187978206820e+01
2	 5.799999550002250e+00	 7.149991000044999e+00	 1.008599674439916e+01
2	 5.799999550002251e+00	 7.299993250033748e+00	 1.007986957061987e+01
2	 5.799999550002251e+00	 7.449995500022500e+00	 1.007349826073033e+01
2	 5.799999550002250e+00	 7.599997750011249e+00	 1.006688281473054e+01
2	 5.799999550002251e+00	 7.750000000000001e+00	 1.006002323262049e+01
2	 5.799999550002250e+00	 7.900002249988750e+00	 1.005291951440021e+01
2	 5.799999550002251e+00	 8.050004499977499e+00	 1.004557166006966e+01
2	 5.799999550002251e+00	 8.200006749966249e+00	 1.003797966962886e+01
2	 5.799999550002251e+00	 8.350008999955003e+00	 1.003014354307783e+01
2	 5.799999550002251e+00	 8.500011249943752e+00	 1.002206328041652e+01
2	 5.949998987505063e+00	 6.999988750056250e+00	 1.009114707122257e+01
2	 5.949998987505062e+00	 7.149991000045000e+00	 1.008528662224421e+01
2	 5.949998987505062e+00	 7.299993250033751e+00	 1.007919302337645e+01
2	 5.949998987505062e+00	 7.449995500022500e+00	 1.007286627461930e+01
2	 5.949998987505061e+00	 7.599997750011248e+00	 1.006630637597275e+01
2	 5.949998987505062e+00	 7.749999999999999e+00	 1.005951332743680e+01
2	 5.949998987505063e+00	 7.900002249988749e+00	 1.005248712901146e+01
2	 5.949998987505062e+00	 8.050004499977501e+00	 1.004522778069673e+01
2	 5.949998987505063e+00	 8.200006749966247e+00	 1.003773528249260e+01
2	 5.949998987505062e+00	 8.350008999954998e+00	 1.003000963439907e+01
2	 5.949998987505063e+00	 8.500011249943752e+00	 1.002205083641616e+01
2	 6.099998200009001e+00	 6.999988750056250e+00	 1.008981723763022e+01
2	 6.099998200009001e+00	 7.149991000044999e+00	 1.008401505559109e+01
2	 6.099998200008998e+00	 7.299993250033748e+00	 1.007799070991636e+01
2	 6.099998200009000e+00	 7.449995500022499e+00	 1.007174420060605e+01
2	 6.099998200009001e+00	 7.599997750011250e+00	 1.006527552766016e+01
2	 6.099998200009001e+00	 7.750000000000000e+00	 1.005858469107870e+01
2	 6.099998200009001e+00	 7.900002249988750e+00	 1.005167169086163e+01
2	 6.099998200009002e+00	 8.050004499977501e+00	 1.004453652700900e+01
2	 6.099998200008999e+00	 8.200006749966249e+00	 1.003717919952079e+01
2	 6.099998200009001e+00	 8.350008999954998e+00	 1.002959970839699e+01
2	 6.099998200009002e+00	 8.500011249943752e+00	 1.002179805363761e+01
2	 6.249997187514063e+00	 6.999988750056250e+00	 1.008789028129121e+01
2	 6.249997187514063e+00	 7.149991000045000e+00	 1.008218204443981e+01
2	 6.249997187514063e+00	 7.299993250033750e+00	 1.007626263023962e+01
2	 6.249997187514063e+00	 7.449995500022500e+00	 1.007013203869059e+01
2	 6.249997187514063e+00	 7.599997750011250e+00	 1.006379026979278e+01
2	 6.249997187514062e+00	 7.749999999999998e+00	 1.005723732354615e+01
2	 6.249997187514063e+00	 7.900002249988749e+00	 1.005047319995071e+01
2	 6.249997187514063e+00	 8.050004499977501e+00	 1.004349789900646e+01
2	 6.249997187514063e+00	 8.200006749966249e+00	 1.003631142071341e+01
2	 6.249997187514063e+00	 8.350008999955000e+00	 1.002891376507155e+01
2	 6.249997187514063e+00	 8.500011249943750e+00	 1.002130493208087e+01
2	 6.399995950020250e+00	 6.999988750056250e+00	 1.008536620220550e+01
2	 6.399995950020250e+00	 7.149991000045000e+00	 1.007978758879040e+01
2	 6.399995950020249e+00	 7.299993250033749e+00	 1.007400878434620e+01
2	 6.399995950020251e+00	 7.449995500022501e+00	 1.006802978887294e+01
2	 6.399995950020249e+00	 7.599997750011249e+00	 1.006185060237060e+01
2	 6.399995950020250e+00	 7.750000000000000e+00	 1.005547122483918e+01
2	 6.399995950020250e+00	 7.900002249988750e+00	 1.004889165627869e+01
2	 6.399995950020250e+00	 8.050004499977501e+00	 1.004211189668910e+01
2	 6.399995950020250e+00	 8.200006749966251e+00	 1.003513194607045e+01
2	 6.399995950020250e+00	 8.350008999955001e+00	 1.002795180442273e+01
2	 6.399995950020250e+00	 8.500011249943752e+00	 1.002057147174591e+01
2	 6.549994487527562e+00	 6.999988750056249e+00	 1.008224500037316e+01
2	 6.549994487527560e+00	 7.149991000044998e+00	 1.007683168864285e+01
2	 6.549994487527562e+00	 7.299993250033750e+00	 1.007122917223616e+01
2	 6.549994487527562e+00	 7.449995500022500e+00	 1.006543745115308e+01
2	 6.549994487527562e+00	 7.599997750011251e+00	 1.005945652539362e+01
2	 6.549994487527561e+00	 7.749999999999997e+00	 1.005328639495777e+01
2	 6.549994487527563e+00	 7.900002249988749e+00	 1.004692705984553e+01
2	 6.549994487527563e+00	 8.050004499977501e+00	 1.004037852005690e+01
2	 6.549994487527562e+00	 8.200006749966249e+00	 1.003364077559189e+01
2	 6.549994487527563e+00	 8.350008999955000e+00	 1.002671382645049e+01
2	 6.549994487527562e+00	 8.500011249943750e+00	 1.001959767263272e+01
2	 6.699992800036000e+00	 6.999988750056250e+00	 1.007852667579417e+01
2	 6.699992800036001e+00	 7.149991000045001e+00	 1.007331434399719e+01
2	 6.699992800036000e+00	 7.299993250033750e+00	 1.006792379390947e+01
2	 6.699992800036000e+00	 7.449995500022498e+00	 1.006235502553102e+01
2	 6.699992800036002e+00	 7.599997750011251e+00	 1.005660803886183e+01
2	 6.699992800035998e+00	 7.749999999999998e+00	 1.005068283390191e+01
2	 6.699992800035998e+00	 7.900002249988749e+00	 1.004457941065125e+01
2	 6.699992800035998e+00	 8.050004499977497e+00	 1.003829776910985e+01
2	 6.699992800036000e+00	 8.200006749966249e+00	 1.003183790927772e+01
2	 6.699992800035998e+00	 8.350008999955000e+00	 1.002519983115486e+01
2	 6.699992800036000e+00	 8.500011249943752e+00	 1.001838353474125e+01
2	 6.849990887545563e+00	 6.999988750056249e+00	 1.007421122846856e+01
2	 6.849990887545562e+00	 7.149991000045000e+00	 1.006923555485341e+01
2	 6.849990887545562e+00	 7.299993250033750e+00	 1.006409264936615e+01
2	 6.849990887545562e+00	 7.449995500022500e+00	 1.005878251200676e+01
2	 6.849990887545563e+00	 7.599997750011250e+00	 1.005330514277524e+01
2	 6.849990887545561e+00	 7.749999999999998e+00	 1.004766054167161e+01
2	 6.849990887545561e+00	 7.900002249988749e+00	 1.004184870869583e+01
2	 6.849990887545563e+00	 8.050004499977501e+00	 1.003586964384793e+01
2	 6.849990887545562e+00	 8.200006749966249e+00	 1.002972334712791e+01
2	 6.849990887545562e+00	 8.350008999954998e+00	 1.002340981853575e+01
2	 6.849990887545562e+00	 8.500011249943752e+00	 1.001692905807148e+01
2	 6.999988750056250e+00	 6.999988750056250e+00	 1.006929865839633e+01
2	 6.999988750056250e+00	 7.149991000045000e+00	 1.006459532121155e+01
2	 6.999988750056251e+00	 7.299993250033751e+00	 1.005973573860620e+01
2	 6.999988750056250e+00	 7.449995500022500e+00	 1.005471991058030e+01
2	 6.999988750056250e+00	 7.599997750011250e+00	 1.004954783713384e+01
2	 6.999988750056251e+00	 7.750000000000001e+00	 1.004421951826683e+01
2	 6.999988750056251e+00	 7.900002249988749e+00	 1.003873495397926e+01
2	 6.999988750056250e+00	 8.050004499977499e+00	 1.003309414427113e+01
2	 6.999988750056250e+00	 8.200006749966251e+00	 1.002729708914245e+01
2	 6.999988750056250e+00	 8.350008999954998e+00	 1.002134378859320e+01
2	 6.999988750056250e+00	 8.500011249943750e+00	 1.001523424262340e+01
2	 5.500000000000000e+00	 8.500011249943750e+00	 1.002136715208285e+01
2	 5.500000000000000e+00	 8.650009112454439e+00	 1.002061346704984e+01
2	 5.500000000000000e+00	 8.800007199964000e+00	 1.001926324573875e+01
2	 5.499999999999999e+00	 8.950005512472437e+00	 1.001731648814953e+01
2	 5.500000000000000e+00	 9.100004049979750e+00	 1.001477319428209e+01
2	 5.500000000000000e+00	 9.250002812485938e+00	 1.001163336413635e+01
2	 5.500000000000000e+00	 9.400001799991001e+00	 1.000789699771225e+01
2	 5.500000000000000e+00	 9.550001012494938e+00	 1.000356409500973e+01
2	 5.500000000000000e+00	 9.700000449997750e+00	 9.998634656028694e+00
2	 5.500000000000000e+00	 9.850000112499439e+00	 9.993108680769057e+00
2	 5.500000000000000e+00	 1.000000000000000e+01	 9.986986169230789e+00
2	 5.649999887500562e+00	 8.500011249943752e+00	 1.002183538563874e+01
2	 5.649999887500563e+00	 8.650009112454438e+00	 1.002114982890600e+01
2	 5.649999887500563e+00	 8.800007199963998e+00	 1.001987856847326e+01
2	 5.649999887500563e+00	 8.950005512472437e+00	 1.001802160434050e+01
2	 5.649999887500563e+00	 9.100004049979750e+00	 1.001557893650762e+01
2	 5.649999887500562e+00	 9.250002812485940e+00	 1.001255056497456e+01
2	 5.649999887500564e+00	 9.400001799991005e+00	 1.000893648974124e+01
2	 5.649999887500561e+00	 9.550001012494940e+00	 1.000473671080763e+01
2	 5.649999887500560e+00	 9.700000449997750e+00	 9.999951228173584e+00
2	 5.649999887500562e+00	 9.850000112499439e+00	 9.994580041839129e+00
2	 5.649999887500562e+00	 1.000000000000000e+01	 9.988623151804090e+00
2	 5.799999550002251e+00	 8.500011249943752e+00	 1.002206328041652e+01
2	 5.799999550002250e+00	 8.650009112454439e+00	 1.002143878870606e+01
2	 5.799999550002251e+00	 8.800007199964003e+00	 1.002023942592740e+01
2	 5.799999550002251e+00	 8.950005512472440e+00	 1.001846519208051e+01
2	 5.799999550002251e+00	 9.100004049979749e+00	 1.001611608716529e+01
2	 5.799999550002250e+00	 9.250002812485938e+00	 1.001319211118168e+01
2	 5.799999550002249e+00	 9.400001799991001e+00	 1.000969326412961e+01
2	 5.799999550002250e+00	 9.550001012494938e+00	 1.000561954600905e+01
2	 5.799999550002251e+00	 9.700000449997756e+00	 1.000097095681991e+01
2	 5.799999550002249e+00	 9.850000112499441e+00	 9.995747496562103e+00
2	 5.799999550002250e+00	 9.999999999999998e+00	 9.989949165235606e+00
2	 5.949998987505063e+00	 8.500011249943752e+00	 1.002205083641616e+01
2	 5.949998987505063e+00	 8.650009112454439e+00	 1.002148034645001e+01
2	 5.949998987505063e+00	 8.800007199964003e+00	 1.002034581810116e+01
2	 5.949998987505063e+00	 8.950005512472437e+00	 1.001864725136954e+01
2	 5.949998987505061e+00	 9.100004049979750e+00	 1.001638464625507e+01
2	 5.949998987505062e+00	 9.250002812485937e+00	 1.001355800275770e+01
2	 5.949998987505062e+00	 9.400001799990997e+00	 1.001016732087738e+01
2	 5.949998987505063e+00	 9.550001012494940e+00	 1.000621260061403e+01
2	 5.949998987505063e+00	 9.700000449997752e+00	 1.000169384196761e+01
2	 5.949998987505063e+00	 9.850000112499439e+00	 9.996611044938017e+00
2	 5.949998987505063e+00	 1.000000000000000e+01	 9.990964209525243e+00
2	 6.099998200009002e+00	 8.500011249943752e+00	 1.002179805363761e+01
2	 6.099998200008999e+00	 8.650009112454438e+00	 1.002127450213782e+01
2	 6.099998200009000e+00	 8.800007199964000e+00	 1.002019774499448e+01
2	 6.099998200008999e+00	 8.950005512472439e+00	 1.001856778220754e+01
2	 6.099998200009000e+00	 9.100004049979752e+00	 1.001638461377693e+01
2	 6.099998200009000e+00	 9.250002812485938e+00	 1.001364823970257e+01
2	 6.099998200009001e+00	 9.400001799990999e+00	 1.001035865998445e+01
2	 6.099998200009002e+00	 9.550001012494940e+00	 1.000651587462249e+01
2	 6.099998200009001e+00	 9.700000449997752e+00	 1.000211988361663e+01
2	 6.099998200009003e+00	 9.850000112499441e+00	 9.997170686966790e+00
2	 6.099998200009000e+00	 9.999999999999998e+00	 9.991668284672961e+00
2	 6.249997187514063e+00	 8.500011249943750e+00	 1.002130493208087e+01
2	 6.249997187514062e+00	 8.650009112454439e+00	 1.002082125576947e+01
2	 6.249997187514063e+00	 8.800007199964002e+00	 1.001979520660735e+01
2	 6.249997187514063e+00	 8.950005512472439e+00	 1.001822678459448e+01
2	 6.249997187514063e+00	 9.100004049979756e+00	 1.001611598973081e+01
2	 6.249997187514061e+00	 9.250002812485938e+00	 1.001346282201627e+01
2	 6.249997187514062e+00	 9.400001799990999e+00	 1.001026728145081e+01
2	 6.249997187514063e+00	 9.550001012494940e+00	 1.000652936803437e+01
2	 6.249997187514062e+00	 9.700000449997754e+00	 1.000224908176691e+01
2	 6.249997187514063e+00	 9.850000112499439e+00	 9.997426422648365e+00
2	 6.249997187514063e+00	 1.000000000000000e+01	 9.992061390678707e+00
2	 6.399995950020250e+00	 8.500011249943752e+00	 1.002057147174591e+01
2	 6.399995950020250e+00	 8.650009112454438e+00	 1.002012060734489e+01
2	 6.399995950020248e+00	 8.800007199964000e+00	 1.001913820293973e+01
2	 6.399995950020250e+00	 8.950005512472439e+00	 1.001762425853034e+01
2	 6.399995950020251e+00	 9.100004049979750e+00	 1.001557877411670e+01
2	 6.399995950020250e+00	 9.250002812485938e+00	 1.001300174969872e+01
2	 6.399995950020251e+00	 9.400001799991001e+00	 1.000989318527639e+01
2	 6.399995950020251e+00	 9.550001012494940e+00	 1.000625308084967e+01
2	 6.399995950020251e+00	 9.700000449997752e+00	 1.000208143641846e+01
2	 6.399995950020251e+00	 9.850000112499441e+00	 9.997378251982738e+00
2	 6.399995950020251e+00	 1.000000000000000e+01	 9.992143527542456e+00
2	 6.549994487527562e+00	 8.500011249943750e+00	 1.001959767263272e+01
2	 6.549994487527562e+00	 8.650009112454439e+00	 1.001917255686411e+01
2	 6.549994487527563e+00	 8.800007199964002e+00	 1.001822673399158e+01
2	 6.549994487527562e+00	 8.950005512472439e+00	 1.001676020401508e+01
2	 6.549994487527562e+00	 9.100004049979750e+00	 1.001477296693454e+01
2	 6.549994487527563e+00	 9.250002812485938e+00	 1.001226502274992e+01
2	 6.549994487527562e+00	 9.400001799990999e+00	 1.000923637146119e+01
2	 6.549994487527561e+00	 9.550001012494940e+00	 1.000568701306828e+01
2	 6.549994487527561e+00	 9.700000449997752e+00	 1.000161694757117e+01
2	 6.549994487527563e+00	 9.850000112499441e+00	 9.997026174969804e+00
2	 6.549994487527562e+00	 1.000000000000000e+01	 9.991914695264093e+00
2	 6.699992800036000e+00	 8.500011249943752e+00	 1.001838353474125e+01
2	 6.699992800035998e+00	 8.650009112454436e+00	 1.001797710432708e+01
2	 6.699992800036000e+00	 8.800007199964000e+00	 1.001706079976290e+01
2	 6.699992800036000e+00	 8.950005512472439e+00	 1.001563462104865e+01
2	 6.699992800036001e+00	 9.100004049979754e+00	 1.001369856818431e+01
2	 6.699992800036001e+00	 9.250002812485938e+00	 1.001125264116981e+01
2	 6.699992800036000e+00	 9.400001799991001e+00	 1.000829684000513e+01
2	 6.699992800036001e+00	 9.550001012494938e+00	 1.000483116469022e+01
2	 6.699992800035999e+00	 9.700000449997752e+00	 1.000085561522503e+01
2	 6.699992800036001e+00	 9.850000112499439e+00	 9.996370191609529e+00
2	 6.699992800036000e+00	 1.000000000000000e+01	 9.991374893843650e+00
2	 6.849990887545562e+00	 8.500011249943752e+00	 1.001692905807148e+01
2	 6.849990887545562e+00	 8.650009112454436e+00	 1.001653424973375e+01
2	 6.849990887545563e+00	 8.800007199964002e+00	 1.001564040025362e+01
2	 6.849990887545562e+00	 8.950005512472437e+00	 1.001424750963105e+01
2	 6.849990887545562e+00	 9.100004049979750e+00	 1.001235557786596e+01
2	 6.849990887545563e+00	 9.250002812485942e+00	 1.000996460495836e+01
2	 6.849990887545562e+00	 9.400001799990999e+00	 1.000707459090820e+01
2	 6.849990887545563e+00	 9.550001012494940e+00	 1.000368553571541e+01
2	 6.849990887545562e+00	 9.700000449997752e+00	 9.999797439379968e+00
2	 6.849990887545563e+00	 9.850000112499441e+00	 9.995410301901845e+00
2	 6.849990887545562e+00	 1.000000000000000e+01	 9.990524123281007e+00
2	 6.999988750056250e+00	 8.500011249943750e+00	 1.001523424262340e+01
2	 6.999988750056251e+00	 8.650009112454438e+00	 1.001484399308413e+01
2	 6.999988750056248e+00	 8.800007199963998e+00	 1.001396553546374e+01
2	 6.999988750056251e+00	 8.950005512472440e+00	 1.001259886976221e+01
2	 6.999988750056249e+00	 9.100004049979750e+00	 1.001074399597949e+01
2	 6.999988750056250e+00	 9.250002812485937e+00	 1.000840091411553e+01
2	 6.999988750056250e+00	 9.400001799991001e+00	 1.000556962417034e+01
2	 6.999988750056250e+00	 9.550001012494938e+00	 1.000225012614382e+01
2	 6.999988750056250e+00	 9.700000449997752e+00	 9.998442420035962e+00
2	 6.999988750056250e+00	 9.850000112499441e+00	 9.994146505846768e+00
2	 6.999988750056250e+00	 1.000000000000000e+01	 9.989362383576157e+00
2	 6.999988750056250e+00	 5.500000000000000e+00	 1.012842428845471e+01
2	 6.999988750056250e+00	 5.649999887500562e+00	 1.012181591505275e+01
2	 6.999988750056249e+00	 5.799999550002250e+00	 1.011536216618361e+01
2	 6.999988750056250e+00	 5.949998987505063e+00	 1.010906304184714e+01
2	 6.999988750056251e+00	 6.099998200009000e+00	 1.010291854204323e+01
2	 6.999988750056250e+00	 6.249997187514062e+00	 1.009692866677172e+01
2	 6.999988750056250e+00	 6.399995950020250e+00	 1.009109341603254e+01
2	 6.999988750056250e+00	 6.549994487527563e+00	 1.008541278982552e+01
2	 6.999988750056250e+00	 6.699992800036001e+00	 1.007988678815057e+01
2	 6.999988750056248e+00	 6.849990887545562e+00	 1.007451541100755e+01
2	 6.999988750056250e+00	 6.999988750056250e+00	 1.006929865839633e+01
2	 7.149991000045000e+00	 5.500000000000000e+00	 1.011777333116686e+01
2	 7.149991000045000e+00	 5.649999887500563e+00	 1.011183886191883e+01
2	 7.149991000044999e+00	 5.799999550002249e+00	 1.010604987710165e+01
2	 7.149991000045000e+00	 5.949998987505063e+00	 1.010040637671521e+01
2	 7.149991000044999e+00	 6.099998200009000e+00	 1.009490836075937e+01
2	 7.149991000045000e+00	 6.249997187514063e+00	 1.008955582923403e+01
2	 7.149991000045000e+00	 6.399995950020251e+00	 1.008434878213906e+01
2	 7.149991000045000e+00	 6.549994487527562e+00	 1.007928721947439e+01
2	 7.149991000045001e+00	 6.699992800036000e+00	 1.007437114123987e+01
2	 7.149991000045000e+00	 6.849990887545563e+00	 1.006960054743539e+01
2	 7.149991000045000e+00	 6.999988750056250e+00	 1.006497543806086e+01
2	 7.299993250033749e+00	 5.499999999999999e+00	 1.010751800545436e+01
2	 7.299993250033749e+00	 5.649999887500562e+00	 1.010222468102911e+01
2	 7.299993250033749e+00	 5.799999550002251e+00	 1.009706770083445e+01
2	 7.299993250033748e+00	 5.949998987505062e+00	 1.009204706487028e+01
2	 7.299993250033749e+00	 6.099998200008999e+00	 1.008716277313649e+01
2	 7.299993250033751e+00	 6.249997187514065e+00	 1.008241482563301e+01
2	 7.299993250033749e+00	 6.399995950020248e+00	 1.007780322235972e+01
2	 7.299993250033747e+00	 6.549994487527561e+00	 1.007332796331650e+01
2	 7.299993250033747e+00	 6.699992800035998e+00	 1.006898904850328e+01
2	 7.299993250033748e+00	 6.849990887545560e+00	 1.006478647791995e+01
2	 7.299993250033750e+00	 6.999988750056252e+00	 1.006072025156638e+01
2	 7.449995500022500e+00	 5.500000000000001e+00	 1.009765831131723e+01
2	 7.449995500022500e+00	 5.649999887500563e+00	 1.009297337238356e+01
2	 7.449995500022499e+00	 5.799999550002249e+00	 1.008841563738196e+01
2	 7.449995500022500e+00	 5.949998987505062e+00	 1.008398510631234e+01
2	 7.449995500022500e+00	 6.099998200009000e+00	 1.007968177917462e+01
2	 7.449995500022500e+00	 6.249997187514063e+00	 1.007550565596869e+01
2	 7.449995500022499e+00	 6.399995950020250e+00	 1.007145673669446e+01
2	 7.449995500022498e+00	 6.549994487527560e+00	 1.006753502135187e+01
2	 7.449995500022498e+00	 6.699992800035999e+00	 1.006374050994082e+01
2	 7.449995500022499e+00	 6.849990887545562e+00	 1.006007320246119e+01
2	 7.449995500022500e+00	 6.999988750056250e+00	 1.005653309891293e+01
2	 7.599997750011250e+00	 5.500000000000000e+00	 1.008819424875552e+01
2	 7.599997750011250e+00	 5.649999887500563e+00	 1.008408493598224e+01
2	 7.599997750011251e+00	 5.799999550002251e+00	 1.008009368674424e+01
2	 7.599997750011251e+00	 5.949998987505063e+00	 1.007622050104142e+01
2	 7.599997750011249e+00	 6.099998200008999e+00	 1.007246537887371e+01
2	 7.599997750011250e+00	 6.249997187514063e+00	 1.006882832024104e+01
2	 7.599997750011249e+00	 6.399995950020250e+00	 1.006530932514333e+01
2	 7.599997750011249e+00	 6.549994487527560e+00	 1.006190839358050e+01
2	 7.599997750011251e+00	 6.699992800036000e+00	 1.005862552555246e+01
2	 7.599997750011251e+00	 6.849990887545562e+00	 1.005546072105914e+01
2	 7.599997750011250e+00	 6.999988750056250e+00	 1.005241398010045e+01
2	 7.750000000000000e+00	 5.500000000000000e+00	 1.007912581776918e+01
2	 7.749999999999998e+00	 5.649999887500562e+00	 1.007555937182510e+01
2	 7.750000000000003e+00	 5.799999550002252e+00	 1.007210184892123e+01
2	 7.749999999999997e+00	 5.949998987505062e+00	 1.006875324905747e+01
2	 7.750000000000000e+00	 6.099998200009000e+00	 1.006551357223378e+01
2	 7.749999999999999e+00	 6.249997187514062e+00	 1.006238281845008e+01
2	 7.750000000000002e+00	 6.399995950020251e+00	 1.005936098770630e+01
2	 7.750000000000001e+00	 6.549994487527563e+00	 1.005644808000237e+01
2	 7.749999999999999e+00	 6.699992800035999e+00	 1.005364409533822e+01
2	 7.749999999999998e+00	 6.849990887545560e+00	 1.005094903371377e+01
2	 7.750000000000001e+00	 6.999988750056250e+00	 1.004836289512899e+01
2	 7.900002249988749e+00	 5.499999999999999e+00	 1.007045301835821e+01
2	 7.900002249988749e+00	 5.649999887500563e+00	 1.006739667991218e+01
2	 7.900002249988749e+00	 5.799999550002251e+00	 1.006444012391297e+01
2	 7.900002249988749e+00	 5.949998987505062e+00	 1.006158335036054e+01
2	 7.900002249988750e+00	 6.099998200009002e+00	 1.005882635925484e+01
2	 7.900002249988749e+00	 6.249997187514062e+00	 1.005616915059580e+01
2	 7.900002249988749e+00	 6.399995950020250e+00	 1.005361172438338e+01
2	 7.900002249988749e+00	 6.549994487527560e+00	 1.005115408061749e+01
2	 7.900002249988749e+00	 6.699992800036000e+00	 1.004879621929809e+01
2	 7.900002249988748e+00	 6.849990887545561e+00	 1.004653814042512e+01
2	 7.900002249988749e+00	 6.999988750056248e+00	 1.004437984399852e+01
2	 8.050004499977501e+00	 5.500000000000000e+00	 1.006217585052265e+01
2	 8.050004499977499e+00	 5.649999887500562e+00	 1.005959686024344e+01
2	 8.050004499977499e+00	 5.799999550002251e+00	 1.005710851171946e+01
2	 8.050004499977501e+00	 5.949998987505063e+00	 1.005471080495062e+01
2	 8.050004499977499e+00	 6.099998200009000e+00	 1.005240373993689e+01
2	 8.050004499977501e+00	 6.249997187514063e+00	 1.005018731667822e+01
2	 8.050004499977501e+00	 6.399995950020250e+00	 1.004806153517457e+01
2	 8.050004499977499e+00	 6.549994487527562e+00	 1.004602639542588e+01
2	 8.050004499977497e+00	 6.699992800035998e+00	 1.004408189743209e+01
2	 8.050004499977501e+00	 6.849990887545562e+00	 1.004222804119317e+01
2	 8.050004499977499e+00	 6.999988750056250e+00	 1.004046482670906e+01
2	 8.200006749966249e+00	 5.500000000000000e+00	 1.005429431426244e+01
2	 8.200006749966249e+00	 5.649999887500562e+00	 1.005215991281890e+01
2	 8.200006749966249e+00	 5.799999550002250e+00	 1.005010701234066e+01
2	 8.200006749966247e+00	 5.949998987505063e+00	 1.004813561282767e+01
2	 8.200006749966249e+00	 6.099998200009001e+00	 1.004624571427990e+01
2	 8.200006749966249e+00	 6.249997187514062e+00	 1.004443731669732e+01
2	 8.200006749966249e+00	 6.399995950020250e+00	 1.004271042007986e+01
2	 8.200006749966249e+00	 6.549994487527561e+00	 1.004106502442750e+01
2	 8.200006749966249e+00	 6.699992800036000e+00	 1.003950112974021e+01
2	 8.200006749966249e+00	 6.849990887545561e+00	 1.003801873601791e+01
2	 8.200006749966249e+00	 6.999988750056249e+00	 1.003661784326059e+01
2	 8.350008999954998e+00	 5.500000000000000e+00	 1.004680840957761e+01
2	 8.350008999954998e+00	 5.649999887500562e+00	 1.004508583763856e+01
2	 8.350008999955003e+00	 5.799999550002251e+00	 1.004343562577660e+01
2	 8.350008999954998e+00	 5.949998987505062e+00	 1.004185777399172e+01
2	 8.350008999955000e+00	 6.099998200009001e+00	 1.004035228228392e+01
2	 8.350008999955001e+00	 6.249997187514063e+00	 1.003891915065310e+01
2	 8.350008999955001e+00	 6.399995950020251e+00	 1.003755837909927e+01
2	 8.350008999955000e+00	 6.549994487527562e+00	 1.003626996762239e+01
2	 8.350008999955000e+00	 6.699992800035998e+00	 1.003505391622243e+01
2	 8.350008999954998e+00	 6.849990887545562e+00	 1.003391022489936e+01
2	 8.350008999954998e+00	 6.999988750056248e+00	 1.003283889365311e+01
2	 8.500011249943750e+00	 5.500000000000000e+00	 1.003971813646817e+01
2	 8.500011249943752e+00	 5.649999887500563e+00	 1.003837463470241e+01
2	 8.500011249943752e+00	 5.799999550002251e+00	 1.003709435202729e+01
2	 8.500011249943750e+00	 5.949998987505062e+00	 1.003587728844279e+01
2	 8.500011249943750e+00	 6.099998200009000e+00	 1.003472344394890e+01
2	 8.500011249943752e+00	 6.249997187514063e+00	 1.003363281854557e+01
2	 8.500011249943752e+00	 6.399995950020251e+00	 1.003260541223278e+01
2	 8.500011249943752e+00	 6.549994487527563e+00	 1.003164122501052e+01
2	 8.500011249943750e+00	 6.699992800036000e+00	 1.003074025687877e+01
2	 8.500011249943752e+00	 6.849990887545562e+00	 1.002990250783748e+01
2	 8.500011249943750e+00	 6.999988750056250e+00	 1.002912797788664e+01
2	 6.999988750056250e+00	 6.999988750056250e+00	 1.006929865839633e+01
2	 6.999988750056250e+00	 7.149991000045000e+00	 1.006459532121155e+01
2	 6.999988750056251e+00	 7.299993250033751e+00	 1.005973573860620e+01
2	 6.999988750056250e+00	 7.449995500022500e+00	 1.005471991058030e+01
2	 6.999988750056250e+00	 7.599997750011250e+00	 1.004954783713384e+01
2	 6.999988750056251e+00	 7.750000000000001e+00	 1.004421951826683e+01
2	 6.999988750056251e+00	 7.900002249988749e+00	 1.003873495397926e+01
2	 6.999988750056250e+00	 8.050004499977499e+00	 1.003309414427113e+01
2	 6.999988750056250e+00	 8.200006749966251e+00	 1.002729708914245e+01
2	 6.999988750056250e+00	 8.350008999954998e+00	 1.002134378859319e+01
2	 6.999988750056250e+00	 8.500011249943750e+00	 1.001523424262340e+01
2	 7.149991000045000e+00	 6.999988750056250e+00	 1.006497543806086e+01
2	 7.149991000045000e+00	 7.149991000045000e+00	 1.006060643860899e+01
2	 7.149991000044999e+00	 7.299993250033749e+00	 1.005609310229980e+01
2	 7.149991000044999e+00	 7.449995500022498e+00	 1.005143542913330e+01
2	 7.149991000045001e+00	 7.599997750011250e+00	 1.004663341910947e+01
2	 7.149991000044999e+00	 7.749999999999999e+00	 1.004168707222833e+01
2	 7.149991000045000e+00	 7.900002249988749e+00	 1.003659638848989e+01
2	 7.149991000045000e+00	 8.050004499977499e+00	 1.003136136789411e+01
2	 7.149991000045001e+00	 8.200006749966251e+00	 1.002598201044102e+01
2	 7.149991000045000e+00	 8.350008999955001e+00	 1.002045831613062e+01
2	 7.149991000045000e+00	 8.500011249943748e+00	 1.001479028496289e+01
2	 7.299993250033750e+00	 6.999988750056252e+00	 1.006072025156638e+01
2	 7.299993250033750e+00	 7.149991000044999e+00	 1.005667089231928e+01
2	 7.299993250033749e+00	 7.299993250033748e+00	 1.005248910477810e+01
2	 7.299993250033751e+00	 7.449995500022501e+00	 1.004817488894284e+01
2	 7.299993250033750e+00	 7.599997750011250e+00	 1.004372824481351e+01
2	 7.299993250033748e+00	 7.749999999999997e+00	 1.003914917239009e+01
2	 7.299993250033750e+00	 7.900002249988750e+00	 1.003443767167260e+01
2	 7.299993250033749e+00	 8.050004499977499e+00	 1.002959374266103e+01
2	 7.299993250033751e+00	 8.200006749966247e+00	 1.002461738535538e+01
2	 7.299993250033752e+00	 8.350008999955000e+00	 1.001950859975566e+01
2	 7.299993250033750e+00	 8.500011249943750e+00	 1.001426738586187e+01
2	 7.449995500022500e+00	 6.999988750056250e+00	 1.005653309891293e+01
2	 7.449995500022498e+00	 7.149991000044999e+00	 1.005278868234243e+01
2	 7.449995500022502e+00	 7.299993250033752e+00	 1.004892374604110e+01
2	 7.449995500022499e+00	 7.449995500022499e+00	 1.004493829000894e+01
2	 7.449995500022499e+00	 7.599997750011249e+00	 1.004083231424593e+01
2	 7.449995500022499e+00	 7.749999999999999e+00	 1.003660581875210e+01
2	 7.449995500022499e+00	 7.900002249988749e+00	 1.003225880352742e+01
2	 7.449995500022502e+00	 8.050004499977502e+00	 1.002779126857191e+01
2	 7.449995500022498e+00	 8.200006749966249e+00	 1.002320321388554e+01
2	 7.449995500022500e+00	 8.350008999955000e+00	 1.001849463946836e+01
2	 7.449995500022498e+00	 8.500011249943748e+00	 1.001366554532033e+01
2	 7.599997750011250e+00	 6.999988750056250e+00	 1.005241398010045e+01
2	 7.599997750011250e+00	 7.149991000045000e+00	 1.004895980867842e+01
2	 7.599997750011251e+00	 7.299993250033752e+00	 1.004539702608880e+01
2	 7.599997750011251e+00	 7.449995500022500e+00	 1.004172563233157e+01
2	 7.599997750011251e+00	 7.599997750011250e+00	 1.003794562740675e+01
2	 7.599997750011251e+00	 7.750000000000002e+00	 1.003405701131434e+01
2	 7.599997750011249e+00	 7.900002249988749e+00	 1.003005978405432e+01
2	 7.599997750011250e+00	 8.050004499977499e+00	 1.002595394562671e+01
2	 7.599997750011249e+00	 8.200006749966249e+00	 1.002173949603150e+01
2	 7.599997750011250e+00	 8.350008999955000e+00	 1.001741643526870e+01
2	 7.599997750011250e+00	 8.500011249943752e+00	 1.001298476333830e+01
2	 7.750000000000001e+00	 6.999988750056250e+00	 1.004836289512899e+01
2	 7.749999999999998e+00	 7.149991000044999e+00	 1.004518427132727e+01
2	 7.750000000000000e+00	 7.299993250033750e+00	 1.004190894492119e+01
2	 7.749999999999999e+00	 7.449995500022499e+00	 1.003853691591076e+01
2	 7.750000000000000e+00	 7.599997750011249e+00	 1.003506818429597e+01
2	 7.749999999999999e+00	 7.749999999999999e+00	 1.003150275007682e+01
2	 7.750000000000000e+00	 7.900002249988751e+00	 1.002784061325333e+01
2	 7.750000000000000e+00	 8.050004499977501e+00	 1.002408177382547e+01
2	 7.750000000000002e+00	 8.200006749966249e+00	 1.002022623179326e+01
2	 7.749999999999999e+00	 8.350008999955000e+00	 1.001627398715669e+01
2	 7.749999999999999e+00	 8.500011249943748e+00	 1.001222503991576e+01
2	 7.900002249988749e+00	 6.999988750056248e+00	 1.004437984399851e+01
2	 7.900002249988750e+00	 7.149991000045001e+00	 1.004146207028896e+01
2	 7.900002249988750e+00	 7.299993250033750e+00	 1.003845950253829e+01
2	 7.900002249988749e+00	 7.449995500022500e+00	 1.003537214074650e+01
2	 7.900002249988750e+00	 7.599997750011249e+00	 1.003219998491359e+01
2	 7.900002249988750e+00	 7.750000000000000e+00	 1.002894303503956e+01
2	 7.900002249988751e+00	 7.900002249988750e+00	 1.002560129112442e+01
2	 7.900002249988749e+00	 8.050004499977499e+00	 1.002217475316817e+01
2	 7.900002249988749e+00	 8.200006749966249e+00	 1.001866342117080e+01
2	 7.900002249988750e+00	 8.350008999955000e+00	 1.001506729513232e+01
2	 7.900002249988749e+00	 8.500011249943748e+00	 1.001138637505272e+01
2	 8.050004499977499e+00	 6.999988750056250e+00	 1.004046482670906e+01
2	 8.050004499977499e+00	 7.149991000045000e+00	 1.003779320556351e+01
2	 8.050004499977502e+00	 7.299993250033751e+00	 1.003504869894007e+01
2	 8.050004499977499e+00	 7.449995500022500e+00	 1.003223130683878e+01
2	 8.050004499977499e+00	 7.599997750011250e+00	 1.002934102925960e+01
2	 8.050004499977501e+00	 7.750000000000000e+00	 1.002637786620255e+01
2	 8.050004499977497e+00	 7.900002249988748e+00	 1.002334181766762e+01
2	 8.050004499977499e+00	 8.050004499977501e+00	 1.002023288365481e+01
2	 8.050004499977499e+00	 8.200006749966251e+00	 1.001705106416413e+01
2	 8.050004499977499e+00	 8.350008999955000e+00	 1.001379635919558e+01
2	 8.050004499977499e+00	 8.500011249943750e+00	 1.001046876874914e+01
2	 8.200006749966249e+00	 6.999988750056249e+00	 1.003661784326059e+01
2	 8.200006749966251e+00	 7.149991000045000e+00	 1.003417767715090e+01
2	 8.200006749966249e+00	 7.299993250033751e+00	 1.003167653412657e+01
2	 8.200006749966247e+00	 7.449995500022498e+00	 1.002911441418760e+01
2	 8.200006749966249e+00	 7.599997750011250e+00	 1.002649131733401e+01
2	 8.200006749966249e+00	 7.750000000000001e+00	 1.002380724356578e+01
2	 8.200006749966249e+00	 7.900002249988749e+00	 1.002106219288291e+01
2	 8.200006749966249e+00	 8.050004499977499e+00	 1.001825616528541e+01
2	 8.200006749966249e+00	 8.200006749966249e+00	 1.001538916077326e+01
2	 8.200006749966249e+00	 8.350008999954998e+00	 1.001246117934650e+01
2	 8.200006749966249e+00	 8.500011249943750e+00	 1.000947222100509e+01
2	 8.350008999954998e+00	 6.999988750056248e+00	 1.003283889365311e+01
2	 8.350008999955001e+00	 7.149991000045000e+00	 1.003061548505113e+01
2	 8.350008999955000e+00	 7.299993250033750e+00	 1.002834300809775e+01
2	 8.350008999954998e+00	 7.449995500022498e+00	 1.002602146279299e+01
2	 8.350008999955000e+00	 7.599997750011250e+00	 1.002365084913682e+01
2	 8.350008999955000e+00	 7.750000000000001e+00	 1.002123116712925e+01
2	 8.350008999955000e+00	 7.900002249988749e+00	 1.001876241677029e+01
2	 8.350008999955000e+00	 8.050004499977499e+00	 1.001624459805994e+01
2	 8.350008999954998e+00	 8.200006749966249e+00	 1.001367771099819e+01
2	 8.350008999955000e+00	 8.350008999955000e+00	 1.001106175558505e+01
2	 8.350008999955000e+00	 8.500011249943750e+00	 1.000839673182051e+01
2	 8.500011249943750e+00	 6.999988750056250e+00	 1.002912797788664e+01
2	 8.500011249943748e+00	 7.149991000045000e+00	 1.002710662926423e+01
2	 8.500011249943750e+00	 7.299993250033750e+00	 1.002504812085365e+01
2	 8.500011249943752e+00	 7.449995500022499e+00	 1.002295245265491e+01
2	 8.500011249943752e+00	 7.599997750011251e+00	 1.002081962466801e+01
2	 8.500011249943750e+00	 7.749999999999999e+00	 1.001864963689296e+01
2	 8.500011249943750e+00	 7.900002249988749e+00	 1.001644248932976e+01
2	 8.500011249943750e+00	 8.050004499977499e+00	 1.001419818197841e+01
2	 8.500011249943750e+00	 8.200006749966249e+00	 1.001191671483890e+01
2	 8.500011249943750e+00	 8.350008999955000e+00	 1.000959808791123e+01
2	 8.500011249943750e+00	 8.500011249943750e+00	 1.000724230119542e+01
2	 6.999988750056250e+00	 8.500011249943750e+00	 1.001523424262340e+01
2	 6.999988750056251e+00	 8.650009112454438e+00	 1.001484399308413e+01
2	 6.999988750056248e+00	 8.800007199963998e+00	 1.001396553546374e+01
2	 6.999988750056251e+00	 8.950005512472440e+00	 1.001259886976221e+01
2	 6.999988750056249e+00	 9.100004049979750e+00	 1.001074399597949e+01
2	 6.999988750056250e+00	 9.250002812485937e+00	 1.000840091411553e+01
2	 6.999988750056250e+00	 9.400001799991001e+00	 1.000556962417034e+01
2	 6.999988750056250e+00	 9.550001012494938e+00	 1.000225012614382e+01
2	 6.999988750056250e+00	 9.700000449997752e+00	 9.998442420035964e+00
2	 6.999988750056250e+00	 9.850000112499441e+00	 9.994146505846768e+00
2	 6.999988750056250e+00	 1.000000000000000e+01	 9.989362383576157e+00
2	 7.149991000045000e+00	 8.500011249943748e+00	 1.001479028496289e+01
2	 7.149991000045000e+00	 8.650009112454438e+00	 1.001446458613086e+01
2	 7.149991000045001e+00	 8.800007199964002e+00	 1.001368008077483e+01
2	 7.149991000045000e+00	 8.950005512472439e+00	 1.001243676889476e+01
2	 7.149991000045000e+00	 9.100004049979750e+00	 1.001073465049063e+01
2	 7.149991000045000e+00	 9.250002812485940e+00	 1.000857372556240e+01
2	 7.149991000044999e+00	 9.400001799991001e+00	 1.000595399411004e+01
2	 7.149991000044999e+00	 9.550001012494940e+00	 1.000287545613349e+01
2	 7.149991000045001e+00	 9.700000449997752e+00	 9.999338111632751e+00
2	 7.149991000045000e+00	 9.850000112499439e+00	 9.995341960607796e+00
2	 7.149991000045000e+00	 1.000000000000000e+01	 9.990887003058564e+00
2	 7.299993250033750e+00	 8.500011249943750e+00	 1.001426738586187e+01
2	 7.299993250033751e+00	 8.650009112454439e+00	 1.001399420224023e+01
2	 7.299993250033747e+00	 8.800007199963998e+00	 1.001329161368781e+01
2	 7.299993250033750e+00	 8.950005512472437e+00	 1.001215962020459e+01
2	 7.299993250033749e+00	 9.100004049979750e+00	 1.001059822179051e+01
2	 7.299993250033747e+00	 9.250002812485940e+00	 1.000860741844556e+01
2	 7.299993250033752e+00	 9.400001799991003e+00	 1.000618721016972e+01
2	 7.299993250033751e+00	 9.550001012494942e+00	 1.000333759696293e+01
2	 7.299993250033749e+00	 9.700000449997750e+00	 1.000005857882520e+01
2	 7.299993250033750e+00	 9.850000112499441e+00	 9.996350155756463e+00
2	 7.299993250033749e+00	 9.999999999999998e+00	 9.992212327756729e+00
2	 7.449995500022498e+00	 8.500011249943748e+00	 1.001366554532033e+01
2	 7.449995500022500e+00	 8.650009112454438e+00	 1.001343284141225e+01
2	 7.449995500022500e+00	 8.800007199964002e+00	 1.001280013420269e+01
2	 7.449995500022500e+00	 8.950005512472437e+00	 1.001176742369166e+01
2	 7.449995500022499e+00	 9.100004049979752e+00	 1.001033470987911e+01
2	 7.449995500022500e+00	 9.250002812485938e+00	 1.000850199276504e+01
2	 7.449995500022498e+00	 9.400001799991003e+00	 1.000626927234940e+01
2	 7.449995500022499e+00	 9.550001012494940e+00	 1.000363654863216e+01
2	 7.449995500022499e+00	 9.700000449997752e+00	 1.000060382161331e+01
2	 7.449995500022499e+00	 9.850000112499439e+00	 9.997171091292810e+00
2	 7.449995500022500e+00	 1.000000000000000e+01	 9.993338357670623e+00
2	 7.599997750011250e+00	 8.500011249943752e+00	 1.001298476333830e+01
2	 7.599997750011249e+00	 8.650009112454436e+00	 1.001278050364690e+01
2	 7.599997750011251e+00	 8.800007199964002e+00	 1.001220564231947e+01
2	 7.599997750011251e+00	 8.950005512472437e+00	 1.001126017935600e+01
2	 7.599997750011249e+00	 9.100004049979750e+00	 1.000994411475646e+01
2	 7.599997750011247e+00	 9.250002812485937e+00	 1.000825744852082e+01
2	 7.599997750011250e+00	 9.400001799990999e+00	 1.000620018064905e+01
2	 7.599997750011250e+00	 9.550001012494942e+00	 1.000377231114115e+01
2	 7.599997750011249e+00	 9.700000449997752e+00	 1.000097383999710e+01
2	 7.599997750011249e+00	 9.850000112499439e+00	 9.997804767216811e+00
2	 7.599997750011250e+00	 1.000000000000000e+01	 9.994265092800347e+00
2	 7.749999999999999e+00	 8.500011249943748e+00	 1.001222503991576e+01
2	 7.749999999999999e+00	 8.650009112454439e+00	 1.001203718894420e+01
2	 7.749999999999998e+00	 8.800007199964002e+00	 1.001150813803815e+01
2	 7.749999999999998e+00	 8.950005512472437e+00	 1.001063788719759e+01
2	 7.750000000000000e+00	 9.100004049979752e+00	 1.000942643642251e+01
2	 7.750000000000000e+00	 9.250002812485938e+00	 1.000787378571290e+01
2	 7.750000000000000e+00	 9.400001799991001e+00	 1.000597993506871e+01
2	 7.750000000000001e+00	 9.550001012494938e+00	 1.000374488448991e+01
2	 7.750000000000000e+00	 9.700000449997750e+00	 1.000116863397653e+01
2	 7.750000000000000e+00	 9.850000112499441e+00	 9.998251183528492e+00
2	 7.750000000000000e+00	 1.000000000000000e+01	 9.994992533145799e+00
2	 7.900002249988749e+00	 8.500011249943748e+00	 1.001138637505272e+01
2	 7.900002249988747e+00	 8.650009112454438e+00	 1.001120289730412e+01
2	 7.900002249988752e+00	 8.800007199964000e+00	 1.001070762135871e+01
2	 7.900002249988749e+00	 8.950005512472437e+00	 1.000990054721645e+01
2	 7.900002249988749e+00	 9.100004049979750e+00	 1.000878167487731e+01
2	 7.900002249988750e+00	 9.250002812485938e+00	 1.000735100434128e+01
2	 7.900002249988749e+00	 9.400001799991001e+00	 1.000560853560833e+01
2	 7.900002249988750e+00	 9.550001012494940e+00	 1.000355426867844e+01
2	 7.900002249988750e+00	 9.700000449997752e+00	 1.000118820355162e+01
2	 7.900002249988749e+00	 9.850000112499439e+00	 9.998510340227810e+00
2	 7.900002249988749e+00	 1.000000000000000e+01	 9.995520678707027e+00
2	 8.050004499977499e+00	 8.500011249943750e+00	 1.001046876874914e+01
2	 8.050004499977501e+00	 8.650009112454439e+00	 1.001027762872670e+01
2	 8.050004499977501e+00	 8.800007199964000e+00	 1.000980409228118e+01
2	 8.050004499977501e+00	 8.950005512472437e+00	 1.000904815941256e+01
2	 8.050004499977499e+00	 9.100004049979752e+00	 1.000800983012083e+01
2	 8.050004499977501e+00	 9.250002812485940e+00	 1.000668910440596e+01
2	 8.050004499977501e+00	 9.400001799990999e+00	 1.000508598226794e+01
2	 8.050004499977499e+00	 9.550001012494938e+00	 1.000320046370675e+01
2	 8.050004499977499e+00	 9.700000449997750e+00	 1.000103254872240e+01
2	 8.050004499977501e+00	 9.850000112499441e+00	 9.998582237314832e+00
2	 8.050004499977501e+00	 1.000000000000000e+01	 9.995849529484033e+00
2	 8.200006749966249e+00	 8.500011249943750e+00	 1.000947222100509e+01
2	 8.200006749966249e+00	 8.650009112454438e+00	 1.000926138321191e+01
2	 8.200006749966249e+00	 8.800007199964000e+00	 1.000879755080554e+01
2	 8.200006749966251e+00	 8.950005512472440e+00	 1.000808072378594e+01
2	 8.200006749966247e+00	 9.100004049979749e+00	 1.000711090215307e+01
2	 8.200006749966249e+00	 9.250002812485938e+00	 1.000588808590696e+01
2	 8.200006749966251e+00	 9.400001799991003e+00	 1.000441227504753e+01
2	 8.200006749966249e+00	 9.550001012494938e+00	 1.000268346957483e+01
2	 8.200006749966251e+00	 9.700000449997752e+00	 1.000070166948880e+01
2	 8.200006749966251e+00	 9.850000112499442e+00	 9.998466874789447e+00
2	 8.200006749966249e+00	 1.000000000000000e+01	 9.995979085476783e+00
2	 8.350008999955000e+00	 8.500011249943750e+00	 1.000839673182051e+01
2	 8.350008999955000e+00	 8.650009112454438e+00	 1.000815416075978e+01
2	 8.350008999954996e+00	 8.800007199963998e+00	 1.000768799693180e+01
2	 8.350008999955001e+00	 8.950005512472439e+00	 1.000699824033657e+01
2	 8.350008999955000e+00	 9.100004049979750e+00	 1.000608489097404e+01
2	 8.350008999954998e+00	 9.250002812485938e+00	 1.000494794884423e+01
2	 8.350008999955000e+00	 9.400001799991003e+00	 1.000358741394712e+01
2	 8.350008999955000e+00	 9.550001012494940e+00	 1.000200328628266e+01
2	 8.350008999955000e+00	 9.700000449997752e+00	 1.000019556585091e+01
2	 8.350008999955000e+00	 9.850000112499439e+00	 9.998164252651778e+00
2	 8.350008999954998e+00	 1.000000000000000e+01	 9.995909346685306e+00
2	 8.500011249943750e+00	 8.500011249943750e+00	 1.000724230119542e+01
2	 8.500011249943750e+00	 8.650009112454438e+00	 1.000695596137028e+01
2	 8.500011249943752e+00	 8.800007199964000e+00	 1.000647543065996e+01
2	 8.500011249943750e+00	 8.950005512472437e+00	 1.000580070906445e+01
2	 8.500011249943752e+00	 9.100004049979752e+00	 1.000493179658375e+01
2	 8.500011249943750e+00	 9.250002812485938e+00	 1.000386869321783e+01
2	 8.500011249943752e+00	 9.400001799991003e+00	 1.000261139896668e+01
2	 8.500011249943750e+00	 9.550001012494938e+00	 1.000115991383029e+01
2	 8.500011249943748e+00	 9.700000449997750e+00	 9.999514237808638e+00
2	 8.500011249943752e+00	 9.850000112499442e+00	 9.997674370901761e+00
2	 8.500011249943750e+00	 1.000000000000000e+01	 9.995640313109574e+00
2	 8.500011249943750e+00	 5.500000000000000e+00	 1.003971813646817e+01
2	 8.500011249943752e+00	 5.649999887500563e+00	 1.003837463470241e+01
2	 8.500011249943752e+00	 5.799999550002251e+00	 1.003709435202729e+01
2	 8.500011249943750e+00	 5.949998987505062e+00	 1.003587728844279e+01
2	 8.500011249943750e+00	 6.099998200009000e+00	 1.003472344394890e+01
2	 8.500011249943752e+00	 6.249997187514063e+00	 1.003363281854557e+01
2	 8.500011249943752e+00	 6.399995950020251e+00	 1.003260541223278e+01
2	 8.500011249943752e+00	 6.549994487527563e+00	 1.003164122501052e+01
2	 8.500011249943750e+00	 6.699992800036000e+00	 1.003074025687877e+01
2	 8.500011249943752e+00	 6.849990887545562e+00	 1.002990250783748e+01
2	 8.500011249943750e+00	 6.999988750056250e+00	 1.002912797788664e+01
2	 8.650009112454439e+00	 5.500000000000000e+00	 1.003094780203877e+01
2	 8.650009112454436e+00	 5.649999887500563e+00	 1.003003198643205e+01
2	 8.650009112454439e+00	 5.799999550002250e+00	 1.002918013654007e+01
2	 8.650009112454439e+00	 5.949998987505063e+00	 1.002839225236282e+01
2	 8.650009112454439e+00	 6.099998200009000e+00	 1.002766833390025e+01
2	 8.650009112454438e+00	 6.249997187514062e+00	 1.002700838115236e+01
2	 8.650009112454439e+00	 6.399995950020251e+00	 1.002641239411914e+01
2	 8.650009112454438e+00	 6.549994487527560e+00	 1.002588037280056e+01
2	 8.650009112454436e+00	 6.699992800036000e+00	 1.002541231719661e+01
2	 8.650009112454438e+00	 6.849990887545562e+00	 1.002500822730728e+01
2	 8.650009112454438e+00	 6.999988750056249e+00	 1.002466810313253e+01
2	 8.800007199964000e+00	 5.500000000000000e+00	 1.002311141581737e+01
2	 8.800007199963998e+00	 5.649999887500563e+00	 1.002257355777947e+01
2	 8.800007199964002e+00	 5.799999550002251e+00	 1.002210041192893e+01
2	 8.800007199964002e+00	 5.949998987505063e+00	 1.002169197826579e+01
2	 8.800007199964000e+00	 6.099998200009001e+00	 1.002134825679003e+01
2	 8.800007199964002e+00	 6.249997187514063e+00	 1.002106924750163e+01
2	 8.800007199964002e+00	 6.399995950020249e+00	 1.002085495040058e+01
2	 8.800007199963998e+00	 6.549994487527561e+00	 1.002070536548687e+01
2	 8.800007199964000e+00	 6.699992800036000e+00	 1.002062049276051e+01
2	 8.800007199964002e+00	 6.849990887545563e+00	 1.002060033222146e+01
2	 8.800007199963998e+00	 6.999988750056250e+00	 1.002064488386973e+01
2	 8.950005512472437e+00	 5.499999999999999e+00	 1.001620897780401e+01
2	 8.950005512472437e+00	 5.649999887500564e+00	 1.001599934874463e+01
2	 8.950005512472439e+00	 5.799999550002251e+00	 1.001585517819387e+01
2	 8.950005512472437e+00	 5.949998987505063e+00	 1.001577646615176e+01
2	 8.950005512472439e+00	 6.099998200009000e+00	 1.001576321261826e+01
2	 8.950005512472437e+00	 6.249997187514063e+00	 1.001581541759338e+01
2	 8.950005512472442e+00	 6.399995950020251e+00	 1.001593308107713e+01
2	 8.950005512472439e+00	 6.549994487527562e+00	 1.001611620306950e+01
2	 8.950005512472437e+00	 6.699992800035999e+00	 1.001636478357047e+01
2	 8.950005512472440e+00	 6.849990887545564e+00	 1.001667882258006e+01
2	 8.950005512472439e+00	 6.999988750056250e+00	 1.001705832009825e+01
2	 9.100004049979750e+00	 5.500000000000000e+00	 1.001024048799874e+01
2	 9.100004049979752e+00	 5.649999887500564e+00	 1.001030935932762e+01
2	 9.100004049979750e+00	 5.799999550002251e+00	 1.001044443533493e+01
2	 9.100004049979750e+00	 5.949998987505062e+00	 1.001064571602071e+01
2	 9.100004049979754e+00	 6.099998200009001e+00	 1.001091320138495e+01
2	 9.100004049979750e+00	 6.249997187514063e+00	 1.001124689142765e+01
2	 9.100004049979749e+00	 6.399995950020250e+00	 1.001164678614882e+01
2	 9.100004049979749e+00	 6.549994487527561e+00	 1.001211288554845e+01
2	 9.100004049979752e+00	 6.699992800036001e+00	 1.001264518962654e+01
2	 9.100004049979750e+00	 6.849990887545562e+00	 1.001324369838309e+01
2	 9.100004049979750e+00	 6.999988750056250e+00	 1.001390841181813e+01
2	 9.250002812485938e+00	 5.500000000000000e+00	 1.000520594640159e+01
2	 9.250002812485938e+00	 5.649999887500562e+00	 1.000550358952844e+01
2	 9.250002812485938e+00	 5.799999550002251e+00	 1.000586818335215e+01
2	 9.250002812485938e+00	 5.949998987505062e+00	 1.000629972787271e+01
2	 9.250002812485940e+00	 6.099998200009000e+00	 1.000679822309015e+01
2	 9.250002812485940e+00	 6.249997187514063e+00	 1.000736366900446e+01
2	 9.250002812485940e+00	 6.399995950020250e+00	 1.000799606561565e+01
2	 9.250002812485938e+00	 6.549994487527563e+00	 1.000869541292373e+01
2	 9.250002812485937e+00	 6.699992800035998e+00	 1.000946171092870e+01
2	 9.250002812485938e+00	 6.849990887545562e+00	 1.001029495963058e+01
2	 9.250002812485938e+00	 6.999988750056250e+00	 1.001119515902935e+01
2	 9.400001799991001e+00	 5.500000000000000e+00	 1.000110535301257e+01
2	 9.400001799991001e+00	 5.649999887500563e+00	 1.000158203934714e+01
2	 9.400001799991001e+00	 5.799999550002250e+00	 1.000212642224554e+01
2	 9.400001799991003e+00	 5.949998987505063e+00	 1.000273850170777e+01
2	 9.400001799991001e+00	 6.099998200009001e+00	 1.000341827773386e+01
2	 9.400001799991001e+00	 6.249997187514062e+00	 1.000416575032382e+01
2	 9.400001799991001e+00	 6.399995950020251e+00	 1.000498091947765e+01
2	 9.400001799991001e+00	 6.549994487527563e+00	 1.000586378519537e+01
2	 9.400001799990999e+00	 6.699992800036000e+00	 1.000681434747700e+01
2	 9.400001799990999e+00	 6.849990887545562e+00	 1.000783260632251e+01
2	 9.400001799991001e+00	 6.999988750056250e+00	 1.000891856173195e+01
2	 9.550001012494938e+00	 5.500000000000000e+00	 9.997938707831722e+00
2	 9.550001012494940e+00	 5.649999887500563e+00	 9.998544708783717e+00
2	 9.550001012494940e+00	 5.799999550002251e+00	 9.999219152015115e+00
2	 9.550001012494940e+00	 5.949998987505063e+00	 9.999962037525895e+00
2	 9.550001012494937e+00	 6.099998200009000e+00	 1.000077336531611e+01
2	 9.550001012494940e+00	 6.249997187514063e+00	 1.000165313538576e+01
2	 9.550001012494938e+00	 6.399995950020248e+00	 1.000260134773485e+01
2	 9.550001012494940e+00	 6.549994487527561e+00	 1.000361800236339e+01
2	 9.550001012494938e+00	 6.699992800036000e+00	 1.000470309927142e+01
2	 9.550001012494940e+00	 6.849990887545563e+00	 1.000585663845893e+01
2	 9.550001012494938e+00	 6.999988750056250e+00	 1.000707861992593e+01
2	 9.700000449997750e+00	 5.500000000000000e+00	 9.995706010859056e+00
2	 9.700000449997752e+00	 5.649999887500563e+00	 9.996391597838223e+00
2	 9.700000449997752e+00	 5.799999550002251e+00	 9.997146372660927e+00
2	 9.700000449997750e+00	 5.949998987505063e+00	 9.997970335327153e+00
2	 9.700000449997749e+00	 6.099998200008999e+00	 9.998863485836942e+00
2	 9.700000449997752e+00	 6.249997187514062e+00	 9.999825824190300e+00
2	 9.700000449997752e+00	 6.399995950020250e+00	 1.000085735038726e+01
2	 9.700000449997750e+00	 6.549994487527561e+00	 1.000195806442782e+01
2	 9.700000449997752e+00	 6.699992800036000e+00	 1.000312796631201e+01
2	 9.700000449997752e+00	 6.849990887545562e+00	 1.000436705603984e+01
2	 9.700000449997752e+00	 6.999988750056250e+00	 1.000567533361134e+01
2	 9.850000112499439e+00	 5.500000000000000e+00	 9.994407262094656e+00
2	 9.850000112499439e+00	 5.649999887500561e+00	 9.995122706510683e+00
2	 9.850000112499439e+00	 5.799999550002250e+00	 9.995908084182977e+00
2	 9.850000112499441e+00	 5.949998987505063e+00	 9.996763395111532e+00
2	 9.850000112499441e+00	 6.099998200009001e+00	 9.997688639296355e+00
2	 9.850000112499439e+00	 6.249997187514062e+00	 9.998683816737476e+00
2	 9.850000112499441e+00	 6.399995950020251e+00	 9.999748927434908e+00
2	 9.850000112499441e+00	 6.549994487527563e+00	 1.000088397138866e+01
2	 9.850000112499437e+00	 6.699992800036000e+00	 1.000208894859878e+01
2	 9.850000112499441e+00	 6.849990887545563e+00	 1.000336385906525e+01
2	 9.850000112499442e+00	 6.999988750056251e+00	 1.000470870278812e+01
2	 1.000000000000000e+01	 5.500000000000000e+00	 9.994042461538456e+00
2	 1.000000000000000e+01	 5.649999887500562e+00	 9.994738034801141e+00
2	 9.999999999999998e+00	 5.799999550002250e+00	 9.995504286581326e+00
2	 1.000000000000000e+01	 5.949998987505063e+00	 9.996341216879069e+00
2	 9.999999999999998e+00	 6.099998200009000e+00	 9.997248825694379e+00
2	 1.000000000000000e+01	 6.249997187514063e+00	 9.998227113027287e+00
2	 1.000000000000000e+01	 6.399995950020251e+00	 9.999276078877790e+00
2	 1.000000000000000e+01	 6.549994487527562e+00	 1.000039572324594e+01
2	 1.000000000000000e+01	 6.699992800036000e+00	 1.000158604613174e+01
2	 1.000000000000000e+01	 6.849990887545562e+00	 1.000284704753519e+01
2	 1.000000000000000e+01	 6.999988750056250e+00	 1.000417872745636e+01
2	 8.500011249943750e+00	 6.999988750056250e+00	 1.002912797788664e+01
2	 8.500011249943748e+00	 7.149991000045000e+00	 1.002710662926423e+01
2	 8.500011249943750e+00	 7.299993250033750e+00	 1.002504812085365e+01
2	 8.500011249943752e+00	 7.449995500022499e+00	 1.002295245265491e+01
2	 8.500011249943752e+00	 7.599997750011251e+00	 1.002081962466801e+01
2	 8.500011249943750e+00	 7.749999999999999e+00	 1.001864963689296e+01
2	 8.500011249943750e+00	 7.900002249988749e+00	 1.001644248932976e+01
2	 8.500011249943750e+00	 8.050004499977499e+00	 1.001419818197841e+01
2	 8.500011249943750e+00	 8.200006749966249e+00	 1.001191671483891e+01
2	 8.500011249943750e+00	 8.350008999955000e+00	 1.000959808791123e+01
2	 8.500011249943750e+00	 8.500011249943750e+00	 1.000724230119542e+01
2	 8.650009112454438e+00	 6.999988750056249e+00	 1.002466810313253e+01
2	 8.650009112454438e+00	 7.149991000044999e+00	 1.002299584546799e+01
2	 8.650009112454438e+00	 7.299993250033749e+00	 1.002129123746007e+01
2	 8.650009112454439e+00	 7.449995500022499e+00	 1.001955427910873e+01
2	 8.650009112454436e+00	 7.599997750011249e+00	 1.001778497041401e+01
2	 8.650009112454438e+00	 7.749999999999999e+00	 1.001598331137589e+01
2	 8.650009112454438e+00	 7.900002249988749e+00	 1.001414930199438e+01
2	 8.650009112454441e+00	 8.050004499977499e+00	 1.001228294226946e+01
2	 8.650009112454438e+00	 8.200006749966247e+00	 1.001038423220115e+01
2	 8.650009112454438e+00	 8.350008999955000e+00	 1.000845317178945e+01
2	 8.650009112454439e+00	 8.500011249943750e+00	 1.000648976103435e+01
2	 8.800007199963998e+00	 6.999988750056250e+00	 1.002064488386973e+01
2	 8.800007199964002e+00	 7.149991000045000e+00	 1.001926997263985e+01
2	 8.800007199963996e+00	 7.299993250033748e+00	 1.001786752049692e+01
2	 8.800007199964000e+00	 7.449995500022501e+00	 1.001643752744092e+01
2	 8.800007199964002e+00	 7.599997750011250e+00	 1.001497999347187e+01
2	 8.800007199964005e+00	 7.750000000000002e+00	 1.001349491858973e+01
2	 8.800007199964000e+00	 7.900002249988749e+00	 1.001198230279454e+01
2	 8.800007199963998e+00	 8.050004499977499e+00	 1.001044214608626e+01
2	 8.800007199964000e+00	 8.200006749966249e+00	 1.000887444846494e+01
2	 8.800007199964000e+00	 8.350008999954998e+00	 1.000727920993054e+01
2	 8.800007199964000e+00	 8.500011249943752e+00	 1.000565643048308e+01
2	 8.950005512472439e+00	 6.999988750056250e+00	 1.001705832009825e+01
2	 8.950005512472437e+00	 7.149991000045000e+00	 1.001592901077982e+01
2	 8.950005512472435e+00	 7.299993250033748e+00	 1.001477696996423e+01
2	 8.950005512472439e+00	 7.449995500022500e+00	 1.001360219765148e+01
2	 8.950005512472437e+00	 7.599997750011249e+00	 1.001240469384157e+01
2	 8.950005512472437e+00	 7.749999999999998e+00	 1.001118445853449e+01
2	 8.950005512472440e+00	 7.900002249988749e+00	 1.000994149173023e+01
2	 8.950005512472439e+00	 8.050004499977501e+00	 1.000867579342883e+01
2	 8.950005512472437e+00	 8.200006749966249e+00	 1.000738736363025e+01
2	 8.950005512472439e+00	 8.350008999955001e+00	 1.000607620233451e+01
2	 8.950005512472439e+00	 8.500011249943750e+00	 1.000474230954162e+01
2	 9.100004049979750e+00	 6.999988750056250e+00	 1.001390841181813e+01
2	 9.100004049979750e+00	 7.149991000045001e+00	 1.001297295988792e+01
2	 9.100004049979750e+00	 7.299993250033749e+00	 1.001201958586201e+01
2	 9.100004049979750e+00	 7.449995500022501e+00	 1.001104828974042e+01
2	 9.100004049979750e+00	 7.599997750011250e+00	 1.001005907152314e+01
2	 9.100004049979750e+00	 7.749999999999998e+00	 1.000905193121017e+01
2	 9.100004049979750e+00	 7.900002249988749e+00	 1.000802686880151e+01
2	 9.100004049979752e+00	 8.050004499977499e+00	 1.000698388429715e+01
2	 9.100004049979749e+00	 8.200006749966249e+00	 1.000592297769712e+01
2	 9.100004049979750e+00	 8.350008999955001e+00	 1.000484414900138e+01
2	 9.100004049979750e+00	 8.500011249943750e+00	 1.000374739820996e+01
2	 9.250002812485938e+00	 6.999988750056250e+00	 1.001119515902935e+01
2	 9.250002812485937e+00	 7.149991000044999e+00	 1.001040181996412e+01
2	 9.250002812485938e+00	 7.299993250033748e+00	 1.000959536819027e+01
2	 9.250002812485938e+00	 7.449995500022500e+00	 1.000877580370775e+01
2	 9.250002812485938e+00	 7.599997750011249e+00	 1.000794312651660e+01
2	 9.250002812485938e+00	 7.750000000000000e+00	 1.000709733661679e+01
2	 9.250002812485940e+00	 7.900002249988751e+00	 1.000623843400835e+01
2	 9.250002812485938e+00	 8.050004499977499e+00	 1.000536641869126e+01
2	 9.250002812485938e+00	 8.200006749966249e+00	 1.000448129066553e+01
2	 9.250002812485938e+00	 8.350008999955001e+00	 1.000358304993114e+01
2	 9.250002812485938e+00	 8.500011249943750e+00	 1.000267169648812e+01
2	 9.400001799991001e+00	 6.999988750056250e+00	 1.000891856173195e+01
2	 9.400001799991001e+00	 7.149991000045000e+00	 1.000821559100849e+01
2	 9.400001799991001e+00	 7.299993250033751e+00	 1.000750431694901e+01
2	 9.400001799991001e+00	 7.449995500022498e+00	 1.000678473955348e+01
2	 9.400001799991001e+00	 7.599997750011250e+00	 1.000605685882194e+01
2	 9.400001799991001e+00	 7.749999999999999e+00	 1.000532067475436e+01
2	 9.400001799991001e+00	 7.900002249988749e+00	 1.000457618735076e+01
2	 9.400001799991001e+00	 8.050004499977499e+00	 1.000382339661112e+01
2	 9.400001799991003e+00	 8.200006749966251e+00	 1.000306230253548e+01
2	 9.400001799990999e+00	 8.350008999955000e+00	 1.000229290512379e+01
2	 9.400001799991001e+00	 8.500011249943750e+00	 1.000151520437607e+01
2	 9.550001012494938e+00	 6.999988750056250e+00	 1.000707861992593e+01
2	 9.550001012494940e+00	 7.149991000045000e+00	 1.000641427302100e+01
2	 9.550001012494938e+00	 7.299993250033751e+00	 1.000574643213823e+01
2	 9.550001012494938e+00	 7.449995500022499e+00	 1.000507509727762e+01
2	 9.550001012494940e+00	 7.599997750011250e+00	 1.000440026843916e+01
2	 9.550001012494940e+00	 7.750000000000001e+00	 1.000372194562287e+01
2	 9.550001012494938e+00	 7.900002249988749e+00	 1.000304012882874e+01
2	 9.550001012494938e+00	 8.050004499977499e+00	 1.000235481805678e+01
2	 9.550001012494938e+00	 8.200006749966251e+00	 1.000166601330698e+01
2	 9.550001012494940e+00	 8.350008999955000e+00	 1.000097371457934e+01
2	 9.550001012494938e+00	 8.500011249943750e+00	 1.000027792187385e+01
2	 9.700000449997752e+00	 6.999988750056250e+00	 1.000567533361133e+01
2	 9.700000449997752e+00	 7.149991000045000e+00	 1.000499786600169e+01
2	 9.700000449997750e+00	 7.299993250033750e+00	 1.000432171375797e+01
2	 9.700000449997752e+00	 7.449995500022499e+00	 1.000364687688016e+01
2	 9.700000449997752e+00	 7.599997750011250e+00	 1.000297335536830e+01
2	 9.700000449997750e+00	 7.750000000000000e+00	 1.000230114922235e+01
2	 9.700000449997752e+00	 7.900002249988749e+00	 1.000163025844232e+01
2	 9.700000449997752e+00	 8.050004499977499e+00	 1.000096068302821e+01
2	 9.700000449997752e+00	 8.200006749966251e+00	 1.000029242298003e+01
2	 9.700000449997752e+00	 8.350008999955000e+00	 9.999625478297762e+00
2	 9.700000449997752e+00	 8.500011249943750e+00	 9.998959848981432e+00
2	 9.850000112499442e+00	 6.999988750056251e+00	 1.000470870278812e+01
2	 9.850000112499439e+00	 7.149991000045000e+00	 1.000396636995055e+01
2	 9.850000112499442e+00	 7.299993250033751e+00	 1.000323016180822e+01
2	 9.850000112499439e+00	 7.449995500022499e+00	 1.000250007836115e+01
2	 9.850000112499439e+00	 7.599997750011249e+00	 1.000177611960934e+01
2	 9.850000112499441e+00	 7.750000000000000e+00	 1.000105828555279e+01
2	 9.850000112499439e+00	 7.900002249988749e+00	 1.000034657619147e+01
2	 9.850000112499439e+00	 8.050004499977499e+00	 9.999640991525427e+00
2	 9.850000112499441e+00	 8.200006749966251e+00	 9.998941531554655e+00
2	 9.850000112499441e+00	 8.350008999955000e+00	 9.998248196279096e+00
2	 9.850000112499442e+00	 8.500011249943752e+00	 9.997560985698824e+00
2	 1.000000000000000e+01	 6.999988750056250e+00	 1.000417872745636e+01
2	 1.000000000000000e+01	 7.149991000045000e+00	 1.000331978486760e+01
2	 9.999999999999998e+00	 7.299993250033749e+00	 1.000247177628900e+01
2	 1.000000000000000e+01	 7.449995500022500e+00	 1.000163470172057e+01
2	 1.000000000000000e+01	 7.599997750011250e+00	 1.000080856116229e+01
2	 1.000000000000000e+01	 7.750000000000000e+00	 9.999993354614185e+00
2	 1.000000000000000e+01	 7.900002249988749e+00	 9.999189082076228e+00
2	 1.000000000000000e+01	 8.050004499977501e+00	 9.998395743548439e+00
2	 1.000000000000000e+01	 8.200006749966249e+00	 9.997613339030819e+00
2	 1.000000000000000e+01	 8.350008999954998e+00	 9.996841868523337e+00
2	 1.000000000000000e+01	 8.500011249943750e+00	 9.996081332026025e+00
2	 8.500011249943750e+00	 8.500011249943750e+00	 1.000724230119542e+01
2	 8.500011249943750e+00	 8.650009112454438e+00	 1.000695596137028e+01
2	 8.500011249943752e+00	 8.800007199964000e+00	 1.000647543065996e+01
2	 8.500011249943750e+00	 8.950005512472437e+00	 1.000580070906446e+01
2	 8.500011249943752e+00	 9.100004049979752e+00	 1.000493179658375e+01
2	 8.500011249943750e+00	 9.250002812485938e+00	 1.000386869321783e+01
2	 8.500011249943752e+00	 9.400001799991003e+00	 1.000261139896669e+01
2	 8.500011249943750e+00	 9.550001012494938e+00	 1.000115991383029e+01
2	 8.500011249943748e+00	 9.700000449997750e+00	 9.999514237808638e+00
2	 8.500011249943752e+00	 9.850000112499442e+00	 9.997674370901761e+00
2	 8.500011249943750e+00	 1.000000000000000e+01	 9.995640313109574e+00
2	 8.650009112454439e+00	 8.500011249943750e+00	 1.000648976103435e+01
2	 8.650009112454438e+00	 8.650009112454438e+00	 1.000626152122792e+01
2	 8.650009112454436e+00	 8.800007199964000e+00	 1.000585846225157e+01
2	 8.650009112454439e+00	 8.950005512472437e+00	 1.000528058410531e+01
2	 8.650009112454438e+00	 9.100004049979750e+00	 1.000452788678911e+01
2	 8.650009112454436e+00	 9.250002812485938e+00	 1.000360037030295e+01
2	 8.650009112454436e+00	 9.400001799990999e+00	 1.000249803464684e+01
2	 8.650009112454441e+00	 9.550001012494942e+00	 1.000122087982077e+01
2	 8.650009112454438e+00	 9.700000449997752e+00	 9.999768905824700e+00
2	 8.650009112454441e+00	 9.850000112499442e+00	 9.998142112658659e+00
2	 8.650009112454439e+00	 1.000000000000000e+01	 9.996340500322619e+00
2	 8.800007199964000e+00	 8.500011249943752e+00	 1.000565643048308e+01
2	 8.800007199964000e+00	 8.650009112454436e+00	 1.000548645744976e+01
2	 8.800007199963998e+00	 8.800007199963998e+00	 1.000516103690317e+01
2	 8.800007199964002e+00	 8.950005512472439e+00	 1.000468016884331e+01
2	 8.800007199964002e+00	 9.100004049979752e+00	 1.000404385327014e+01
2	 8.800007199964002e+00	 9.250002812485938e+00	 1.000325209018369e+01
2	 8.800007199963998e+00	 9.400001799990999e+00	 1.000230487958394e+01
2	 8.800007199964000e+00	 9.550001012494937e+00	 1.000120222147088e+01
2	 8.800007199964000e+00	 9.700000449997752e+00	 9.999944115844462e+00
2	 8.800007199964000e+00	 9.850000112499439e+00	 9.998530562704744e+00
2	 8.800007199964000e+00	 1.000000000000000e+01	 9.996961562051691e+00
2	 8.950005512472439e+00	 8.500011249943750e+00	 1.000474230954162e+01
2	 8.950005512472439e+00	 8.650009112454439e+00	 1.000463077003579e+01
2	 8.950005512472439e+00	 8.800007199964002e+00	 1.000438315461475e+01
2	 8.950005512472437e+00	 8.950005512472439e+00	 1.000399946327844e+01
2	 8.950005512472439e+00	 9.100004049979750e+00	 1.000347969602688e+01
2	 8.950005512472439e+00	 9.250002812485940e+00	 1.000282385286006e+01
2	 8.950005512472439e+00	 9.400001799991001e+00	 1.000203193377798e+01
2	 8.950005512472437e+00	 9.550001012494938e+00	 1.000110393878059e+01
2	 8.950005512472437e+00	 9.700000449997750e+00	 1.000003986786796e+01
2	 8.950005512472437e+00	 9.850000112499439e+00	 9.998839721040008e+00
2	 8.950005512472437e+00	 9.999999999999998e+00	 9.997503498296766e+00
2	 9.100004049979750e+00	 8.500011249943750e+00	 1.000374739820996e+01
2	 9.100004049979752e+00	 8.650009112454439e+00	 1.000369445898605e+01
2	 9.100004049979752e+00	 8.800007199964000e+00	 1.000352481538629e+01
2	 9.100004049979749e+00	 8.950005512472437e+00	 1.000323846741071e+01
2	 9.100004049979750e+00	 9.100004049979750e+00	 1.000283541505931e+01
2	 9.100004049979754e+00	 9.250002812485940e+00	 1.000231565833204e+01
2	 9.100004049979752e+00	 9.400001799991001e+00	 1.000167919722893e+01
2	 9.100004049979750e+00	 9.550001012494938e+00	 1.000092603174996e+01
2	 9.100004049979752e+00	 9.700000449997754e+00	 1.000005616189513e+01
2	 9.100004049979750e+00	 9.850000112499441e+00	 9.999069587664458e+00
2	 9.100004049979750e+00	 1.000000000000000e+01	 9.997966309057858e+00
2	 9.250002812485938e+00	 8.500011249943750e+00	 1.000267169648812e+01
2	 9.250002812485938e+00	 8.650009112454438e+00	 1.000267752430048e+01
2	 9.250002812485938e+00	 8.800007199964000e+00	 1.000258601921784e+01
2	 9.250002812485938e+00	 8.950005512472439e+00	 1.000239718124014e+01
2	 9.250002812485940e+00	 9.100004049979754e+00	 1.000211101036741e+01
2	 9.250002812485940e+00	 9.250002812485940e+00	 1.000172750659965e+01
2	 9.250002812485938e+00	 9.400001799991001e+00	 1.000124666993682e+01
2	 9.250002812485938e+00	 9.550001012494938e+00	 1.000066850037895e+01
2	 9.250002812485940e+00	 9.700000449997752e+00	 9.999992997926041e+00
2	 9.250002812485938e+00	 9.850000112499441e+00	 9.999220162578077e+00
2	 9.250002812485938e+00	 1.000000000000000e+01	 9.998349994335015e+00
2	 9.400001799991001e+00	 8.500011249943750e+00	 1.000151520437607e+01
2	 9.400001799991001e+00	 8.650009112454438e+00	 1.000157996597913e+01
2	 9.400001799991001e+00	 8.800007199964002e+00	 1.000156676610934e+01
2	 9.400001799991001e+00	 8.950005512472439e+00	 1.000147560476670e+01
2	 9.400001799990999e+00	 9.100004049979749e+00	 1.000130648195121e+01
2	 9.400001799991003e+00	 9.250002812485938e+00	 1.000105939766286e+01
2	 9.400001799991001e+00	 9.400001799991001e+00	 1.000073435190166e+01
2	 9.400001799991001e+00	 9.550001012494938e+00	 1.000033134466758e+01
2	 9.400001799991001e+00	 9.700000449997752e+00	 9.999850375960662e+00
2	 9.400001799990999e+00	 9.850000112499439e+00	 9.999291445780864e+00
2	 9.400001799991001e+00	 1.000000000000000e+01	 9.998654554128215e+00
2	 9.550001012494938e+00	 8.500011249943750e+00	 1.000027792187385e+01
2	 9.550001012494938e+00	 8.650009112454438e+00	 1.000040178402198e+01
2	 9.550001012494938e+00	 8.800007199964002e+00	 1.000046705606084e+01
2	 9.550001012494938e+00	 8.950005512472437e+00	 1.000047373799041e+01
2	 9.550001012494938e+00	 9.100004049979750e+00	 1.000042182981068e+01
2	 9.550001012494938e+00	 9.250002812485938e+00	 1.000031133152170e+01
2	 9.550001012494938e+00	 9.400001799991001e+00	 1.000014224312342e+01
2	 9.550001012494938e+00	 9.550001012494938e+00	 9.999914564615866e+00
2	 9.550001012494940e+00	 9.700000449997752e+00	 9.999628295999006e+00
2	 9.550001012494938e+00	 9.850000112499439e+00	 9.999283437272874e+00
2	 9.550001012494938e+00	 1.000000000000000e+01	 9.998879988437455e+00
2	 9.700000449997752e+00	 8.500011249943750e+00	 9.998959848981436e+00
2	 9.700000449997750e+00	 8.650009112454438e+00	 9.999142978429033e+00
2	 9.700000449997750e+00	 8.800007199964000e+00	 9.999286889072293e+00
2	 9.700000449997752e+00	 8.950005512472437e+00	 9.999391580911245e+00
2	 9.700000449997750e+00	 9.100004049979750e+00	 9.999457053945854e+00
2	 9.700000449997752e+00	 9.250002812485938e+00	 9.999483308176135e+00
2	 9.700000449997752e+00	 9.400001799991001e+00	 9.999470343602114e+00
2	 9.700000449997752e+00	 9.550001012494940e+00	 9.999418160223746e+00
2	 9.700000449997752e+00	 9.700000449997752e+00	 9.999326758041079e+00
2	 9.700000449997752e+00	 9.850000112499439e+00	 9.999196137054064e+00
2	 9.700000449997750e+00	 1.000000000000000e+01	 9.999026297262732e+00
2	 9.850000112499442e+00	 8.500011249943752e+00	 9.997560985698824e+00
2	 9.850000112499441e+00	 8.650009112454438e+00	 9.997803549200274e+00
2	 9.850000112499442e+00	 8.800007199964002e+00	 9.998026265143732e+00
2	 9.850000112499439e+00	 8.950005512472437e+00	 9.998229133529209e+00
2	 9.850000112499441e+00	 9.100004049979750e+00	 9.998412154356698e+00
2	 9.850000112499439e+00	 9.250002812485938e+00	 9.998575327626193e+00
2	 9.850000112499439e+00	 9.400001799990999e+00	 9.998718653337725e+00
2	 9.850000112499441e+00	 9.550001012494940e+00	 9.998842131491299e+00
2	 9.850000112499441e+00	 9.700000449997752e+00	 9.998945762086866e+00
2	 9.850000112499441e+00	 9.850000112499441e+00	 9.999029545124461e+00
2	 9.850000112499439e+00	 1.000000000000000e+01	 9.999093480604120e+00
2	 1.000000000000000e+01	 8.500011249943750e+00	 9.996081332026028e+00
2	 1.000000000000000e+01	 8.650009112454439e+00	 9.996383496335731e+00
2	 1.000000000000000e+01	 8.800007199964000e+00	 9.996685184275149e+00
2	 9.999999999999998e+00	 8.950005512472437e+00	 9.996986395844317e+00
2	 1.000000000000000e+01	 9.100004049979750e+00	 9.997287131043221e+00
2	 1.000000000000000e+01	 9.250002812485938e+00	 9.997587389871891e+00
2	 1.000000000000000e+01	 9.400001799991001e+00	 9.997887172330284e+00
2	 1.000000000000000e+01	 9.550001012494938e+00	 9.998186478418464e+00
2	 1.000000000000000e+01	 9.700000449997750e+00	 9.998485308136392e+00
2	 1.000000000000000e+01	 9.850000112499439e+00	 9.998783661484078e+00
2	 1.000000000000000e+01	 1.000000000000000e+01	 9.999081538461516e+00
3	 0.000000000000000e+00	 5.500000000000000e+00	 9.507827672334393e+00
3	 0.000000000000000e+00	 5.649999887500562e+00	 9.532952640423691e+00
3	 0.000000000000000e+00	 5.799999550002250e+00	 9.559338675562952e+00
3	 0.000000000000000e+00	 5.949998987505063e+00	 9.586985777752687e+00
3	 0.000000000000000e+00	 6.099998200009000e+00	 9.615893946993411e+00
3	 0.000000000000000e+00	 6.249997187514063e+00	 9.646063183285641e+00
3	 0.000000000000000e+00	 6.399995950020251e+00	 9.677493486629871e+00
3	 0.000000000000000e+00	 6.549994487527562e+00	 9.710184857026611e+00
3	 0.000000000000000e+00	 6.699992800036000e+00	 9.744137294476385e+00
3	 0.000000000000000e+00	 6.849990887545562e+00	 9.779350798979669e+00
3	 0.000000000000000e+00	 6.999988750056250e+00	 9.815825370537009e+00
3	 1.833331958401875e-01	 5.500000000000001e+00	 9.518177023972839e+00
3	 1.833331958401875e-01	 5.649999887500562e+00	 9.542342451287205e+00
3	 1.833331958401875e-01	 5.799999550002250e+00	 9.567583864554805e+00
3	 1.833331958401875e-01	 5.949998987505063e+00	 9.593901263776131e+00
3	 1.833331958401875e-01	 6.099998200008999e+00	 9.621294648951629e+00
3	 1.833331958401875e-01	 6.249997187514062e+00	 9.649764020081781e+00
3	 1.833331958401875e-01	 6.399995950020251e+00	 9.679309377167019e+00
3	 1.833331958401875e-01	 6.549994487527562e+00	 9.709930720207844e+00
3	 1.833331958401875e-01	 6.699992800036000e+00	 9.741628049204705e+00
3	 1.833331958401875e-01	 6.849990887545563e+00	 9.774401364158066e+00
3	 1.833331958401875e-01	 6.999988750056250e+00	 9.808250665068398e+00
3	 3.666661166807499e-01	 5.500000000000000e+00	 9.532109029454309e+00
3	 3.666661166807501e-01	 5.649999887500562e+00	 9.555289656232716e+00
3	 3.666661166807500e-01	 5.799999550002251e+00	 9.579361187236657e+00
3	 3.666661166807499e-01	 5.949998987505063e+00	 9.604323622466518e+00
3	 3.666661166807499e-01	 6.099998200009001e+00	 9.630176961922734e+00
3	 3.666661166807499e-01	 6.249997187514062e+00	 9.656921205605718e+00
3	 3.666661166807499e-01	 6.399995950020250e+00	 9.684556353515893e+00
3	 3.666661166807499e-01	 6.549994487527561e+00	 9.713082405653696e+00
3	 3.666661166807500e-01	 6.699992800036002e+00	 9.742499362019531e+00
3	 3.666661166807500e-01	 6.849990887545562e+00	 9.772807222613832e+00
3	 3.666661166807499e-01	 6.999988750056248e+00	 9.804005987436998e+00
3	 5.499987625216876e-01	 5.500000000000001e+00	 9.549623688778485e+00
3	 5.499987625216876e-01	 5.649999887500561e+00	 9.571794255259995e+00
3	 5.499987625216876e-01	 5.799999550002251e+00	 9.594670643608252e+00
3	 5.499987625216876e-01	 5.949998987505063e+00	 9.618252853823630e+00
3	 5.499987625216876e-01	 6.099998200009000e+00	 9.642540885906525e+00
3	 5.499987625216876e-01	 6.249997187514062e+00	 9.667534739857309e+00
3	 5.499987625216874e-01	 6.399995950020250e+00	 9.693234415676354e+00
3	 5.499987625216877e-01	 6.549994487527564e+00	 9.719639913364041e+00
3	 5.499987625216876e-01	 6.699992800036000e+00	 9.746751232920749e+00
3	 5.499987625216876e-01	 6.849990887545562e+00	 9.774568374346837e+00
3	 5.499987625216876e-01	 6.999988750056250e+00	 9.803091337642719e+00
3	 7.333311333629999e-01	 5.500000000000000e+00	 9.570721001945106e+00
3	 7.333311333630000e-01	 5.649999887500563e+00	 9.591856248368757e+00
3	 7.333311333629998e-01	 5.799999550002250e+00	 9.613512233669368e+00
3	 7.333311333629999e-01	 5.949998987505063e+00	 9.635688957847300e+00
3	 7.333311333629999e-01	 6.099998200009000e+00	 9.658386420902856e+00
3	 7.333311333630000e-01	 6.249997187514063e+00	 9.681604622836391e+00
3	 7.333311333629999e-01	 6.399995950020250e+00	 9.705343563648256e+00
3	 7.333311333630000e-01	 6.549994487527563e+00	 9.729603243338751e+00
3	 7.333311333630000e-01	 6.699992800036000e+00	 9.754383661908228e+00
3	 7.333311333629999e-01	 6.849990887545563e+00	 9.779684819357012e+00
3	 7.333311333629999e-01	 6.999988750056250e+00	 9.805506715685445e+00
3	 9.166632292046875e-01	 5.500000000000001e+00	 9.595400968953884e+00
3	 9.166632292046872e-01	 5.649999887500562e+00	 9.615475635558756e+00
3	 9.166632292046873e-01	 5.799999550002251e+00	 9.635885957419783e+00
3	 9.166632292046876e-01	 5.949998987505064e+00	 9.656631934537284e+00
3	 9.166632292046876e-01	 6.099998200009001e+00	 9.677713566911519e+00
3	 9.166632292046877e-01	 6.249997187514064e+00	 9.699130854542819e+00
3	 9.166632292046873e-01	 6.399995950020249e+00	 9.720883797431458e+00
3	 9.166632292046875e-01	 6.549994487527562e+00	 9.742972395577707e+00
3	 9.166632292046876e-01	 6.699992800036001e+00	 9.765396648981872e+00
3	 9.166632292046872e-01	 6.849990887545561e+00	 9.788156557644236e+00
3	 9.166632292046875e-01	 6.999988750056250e+00	 9.811252121565099e+00
3	 1.099995050046750e+00	 5.500000000000000e+00	 9.623663589804570e+00
3	 1.099995050046750e+00	 5.649999887500564e+00	 9.642652416829733e+00
3	 1.099995050046750e+00	 5.799999550002251e+00	 9.661791814859260e+00
3	 1.099995050046750e+00	 5.949998987505063e+00	 9.681081783893385e+00
3	 1.099995050046750e+00	 6.099998200008999e+00	 9.700522323932359e+00
3	 1.099995050046750e+00	 6.249997187514063e+00	 9.720113434976419e+00
3	 1.099995050046750e+00	 6.399995950020250e+00	 9.739855117025813e+00
3	 1.099995050046750e+00	 6.549994487527562e+00	 9.759747370080781e+00
3	 1.099995050046750e+00	 6.699992800036001e+00	 9.779790194141565e+00
3	 1.099995050046750e+00	 6.849990887545562e+00	 9.799983589208411e+00
3	 1.099995050046750e+00	 6.999988750056250e+00	 9.820327555281569e+00
3	 1.283326595889188e+00	 5.500000000000000e+00	 9.655508864496818e+00
3	 1.283326595889187e+00	 5.649999887500563e+00	 9.673386592181446e+00
3	 1.283326595889188e+00	 5.799999550002249e+00	 9.691229805987591e+00
3	 1.283326595889187e+00	 5.949998987505063e+00	 9.709038505915435e+00
3	 1.283326595889188e+00	 6.099998200009000e+00	 9.726812691965177e+00
3	 1.283326595889188e+00	 6.249997187514063e+00	 9.744552364137039e+00
3	 1.283326595889188e+00	 6.399995950020251e+00	 9.762257522431193e+00
3	 1.283326595889188e+00	 6.549994487527562e+00	 9.779928166847842e+00
3	 1.283326595889188e+00	 6.699992800036000e+00	 9.797564297387188e+00
3	 1.283326595889188e+00	 6.849990887545564e+00	 9.815165914049439e+00
3	 1.283326595889188e+00	 6.999988750056249e+00	 9.832733016834782e+00
3	 1.466657866732000e+00	 5.500000000000000e+00	 9.690936793030364e+00
3	 1.466657866732000e+00	 5.649999887500564e+00	 9.707678161613646e+00
3	 1.466657866732000e+00	 5.799999550002250e+00	 9.724199930804534e+00
3	 1.466657866732000e+00	 5.949998987505062e+00	 9.740502100603209e+00
3	 1.466657866732000e+00	 6.099998200009000e+00	 9.756584671009820e+00
3	 1.466657866732000e+00	 6.249997187514063e+00	 9.772447642024513e+00
3	 1.466657866732000e+00	 6.399995950020251e+00	 9.788091013647445e+00
3	 1.466657866732000e+00	 6.549994487527563e+00	 9.803514785878770e+00
3	 1.466657866732000e+00	 6.699992800036000e+00	 9.818718958718645e+00
3	 1.466657866732000e+00	 6.849990887545562e+00	 9.833703532167217e+00
3	 1.466657866732000e+00	 6.999988750056250e+00	 9.848468506224631e+00
3	 1.649988862575187e+00	 5.500000000000000e+00	 9.729947375404938e+00
3	 1.649988862575188e+00	 5.649999887500562e+00	 9.745527125126046e+00
3	 1.649988862575188e+00	 5.799999550002251e+00	 9.760702189309868e+00
3	 1.649988862575188e+00	 5.949998987505063e+00	 9.775472567956509e+00
3	 1.649988862575188e+00	 6.099998200009000e+00	 9.789838261066073e+00
3	 1.649988862575188e+00	 6.249997187514064e+00	 9.803799268638691e+00
3	 1.649988862575188e+00	 6.399995950020251e+00	 9.817355590674433e+00
3	 1.649988862575188e+00	 6.549994487527563e+00	 9.830507227173436e+00
3	 1.649988862575187e+00	 6.699992800035999e+00	 9.843254178135799e+00
3	 1.649988862575188e+00	 6.849990887545562e+00	 9.855596443561623e+00
3	 1.649988862575188e+00	 6.999988750056249e+00	 9.867534023451027e+00
3	 1.833319583418750e+00	 5.500000000000000e+00	 9.772540611620251e+00
3	 1.833319583418750e+00	 5.649999887500562e+00	 9.786933482718418e+00
3	 1.833319583418750e+00	 5.799999550002250e+00	 9.800736581503367e+00
3	 1.833319583418750e+00	 5.949998987505063e+00	 9.813949907975132e+00
3	 1.833319583418750e+00	 6.099998200009000e+00	 9.826573462133794e+00
3	 1.833319583418750e+00	 6.249997187514062e+00	 9.838607243979400e+00
3	 1.833319583418750e+00	 6.399995950020250e+00	 9.850051253512023e+00
3	 1.833319583418750e+00	 6.549994487527563e+00	 9.860905490731717e+00
3	 1.833319583418750e+00	 6.699992800036001e+00	 9.871169955638546e+00
3	 1.833319583418750e+00	 6.849990887545562e+00	 9.880844648232575e+00
3	 1.833319583418750e+00	 6.999988750056250e+00	 9.889929568513853e+00
3	 0.000000000000000e+00	 6.999988750056250e+00	 9.815825370537009e+00
3	 0.000000000000000e+00	 7.149991000045000e+00	 9.826874488314916e+00
3	 0.000000000000000e+00	 7.299993250033749e+00	 9.838652848387840e+00
3	 0.000000000000000e+00	 7.449995500022500e+00	 9.851160450755817e+00
3	 0.000000000000000e+00	 7.599997750011250e+00	 9.864397295418815e+00
3	 0.000000000000000e+00	 7.750000000000000e+00	 9.878363382376847e+00
3	 0.000000000000000e+00	 7.900002249988749e+00	 9.893058711629916e+00
3	 0.000000000000000e+00	 8.050004499977501e+00	 9.908483283178017e+00
3	 0.000000000000000e+00	 8.200006749966249e+00	 9.924637097021154e+00
3	 0.000000000000000e+00	 8.350008999954998e+00	 9.941520153159315e+00
3	 0.000000000000000e+00	 8.500011249943750e+00	 9.959132451592504e+00
3	 1.833331958401875e-01	 6.999988750056250e+00	 9.808250665068398e+00
3	 1.833331958401875e-01	 7.149991000045000e+00	 9.819958332264537e+00
3	 1.833331958401875e-01	 7.299993250033749e+00	 9.832357203582578e+00
3	 1.833331958401875e-01	 7.449995500022500e+00	 9.845447279022528e+00
3	 1.833331958401875e-01	 7.599997750011248e+00	 9.859228558584373e+00
3	 1.833331958401875e-01	 7.749999999999998e+00	 9.873701042268129e+00
3	 1.833331958401875e-01	 7.900002249988749e+00	 9.888864730073799e+00
3	 1.833331958401875e-01	 8.050004499977499e+00	 9.904719622001377e+00
3	 1.833331958401875e-01	 8.200006749966249e+00	 9.921265718050838e+00
3	 1.833331958401875e-01	 8.350008999954998e+00	 9.938503018222230e+00
3	 1.833331958401875e-01	 8.500011249943752e+00	 9.956431522515503e+00
3	 3.666661166807499e-01	 6.999988750056248e+00	 9.804005987436998e+00
3	 3.666661166807499e-01	 7.149991000044999e+00	 9.816142024547300e+00
3	 3.666661166807501e-01	 7.299993250033748e+00	 9.828931227492241e+00
3	 3.666661166807499e-01	 7.449995500022500e+00	 9.842373596271862e+00
3	 3.666661166807499e-01	 7.599997750011249e+00	 9.856469130886140e+00
3	 3.666661166807500e-01	 7.750000000000001e+00	 9.871217831335082e+00
3	 3.666661166807500e-01	 7.900002249988750e+00	 9.886619697618690e+00
3	 3.666661166807499e-01	 8.050004499977499e+00	 9.902674729736953e+00
3	 3.666661166807499e-01	 8.200006749966249e+00	 9.919382927689892e+00
3	 3.666661166807500e-01	 8.350008999955003e+00	 9.936744291477487e+00
3	 3.666661166807500e-01	 8.500011249943752e+00	 9.954758821099746e+00
3	 5.499987625216876e-01	 6.999988750056250e+00	 9.803091337642719e+00
3	 5.499987625216874e-01	 7.149991000045000e+00	 9.815425565163082e+00
3	 5.499987625216874e-01	 7.299993250033751e+00	 9.828374920116755e+00
3	 5.499987625216874e-01	 7.449995500022500e+00	 9.841939402503742e+00
3	 5.499987625216873e-01	 7.599997750011248e+00	 9.856119012324026e+00
3	 5.499987625216876e-01	 7.749999999999999e+00	 9.870913749577618e+00
3	 5.499987625216874e-01	 7.900002249988749e+00	 9.886323614264521e+00
3	 5.499987625216877e-01	 8.050004499977501e+00	 9.902348606384727e+00
3	 5.499987625216874e-01	 8.200006749966247e+00	 9.918988725938238e+00
3	 5.499987625216874e-01	 8.350008999954998e+00	 9.936243972925055e+00
3	 5.499987625216877e-01	 8.500011249943752e+00	 9.954114347345186e+00
3	 7.333311333629999e-01	 6.999988750056250e+00	 9.805506715685443e+00
3	 7.333311333629999e-01	 7.149991000044999e+00	 9.817808954111825e+00
3	 7.333311333629998e-01	 7.299993250033748e+00	 9.830688281456034e+00
3	 7.333311333629999e-01	 7.449995500022499e+00	 9.844144697718079e+00
3	 7.333311333630002e-01	 7.599997750011250e+00	 9.858178202897959e+00
3	 7.333311333630000e-01	 7.750000000000000e+00	 9.872788796995685e+00
3	 7.333311333630002e-01	 7.900002249988750e+00	 9.887976480011227e+00
3	 7.333311333630000e-01	 8.050004499977501e+00	 9.903741251944606e+00
3	 7.333311333630000e-01	 8.200006749966249e+00	 9.920083112795821e+00
3	 7.333311333629998e-01	 8.350008999954998e+00	 9.937002062564874e+00
3	 7.333311333630000e-01	 8.500011249943752e+00	 9.954498101251758e+00
3	 9.166632292046875e-01	 6.999988750056250e+00	 9.811252121565097e+00
3	 9.166632292046876e-01	 7.149991000045000e+00	 9.823292191393422e+00
3	 9.166632292046875e-01	 7.299993250033750e+00	 9.835871311510003e+00
3	 9.166632292046877e-01	 7.449995500022500e+00	 9.848989481914817e+00
3	 9.166632292046877e-01	 7.599997750011250e+00	 9.862646702607885e+00
3	 9.166632292046875e-01	 7.749999999999998e+00	 9.876842973589191e+00
3	 9.166632292046875e-01	 7.900002249988749e+00	 9.891578294858745e+00
3	 9.166632292046875e-01	 8.050004499977501e+00	 9.906852666416540e+00
3	 9.166632292046876e-01	 8.200006749966249e+00	 9.922666088262583e+00
3	 9.166632292046873e-01	 8.350008999955000e+00	 9.939018560396873e+00
3	 9.166632292046875e-01	 8.500011249943750e+00	 9.955910082819413e+00
3	 1.099995050046750e+00	 6.999988750056250e+00	 9.820327555281571e+00
3	 1.099995050046750e+00	 7.149991000045000e+00	 9.831875277007811e+00
3	 1.099995050046750e+00	 7.299993250033749e+00	 9.843924010278560e+00
3	 1.099995050046750e+00	 7.449995500022501e+00	 9.856473755093869e+00
3	 1.099995050046750e+00	 7.599997750011249e+00	 9.869524511453708e+00
3	 1.099995050046750e+00	 7.750000000000000e+00	 9.883076279358093e+00
3	 1.099995050046750e+00	 7.900002249988750e+00	 9.897129058807016e+00
3	 1.099995050046750e+00	 8.050004499977501e+00	 9.911682849800473e+00
3	 1.099995050046750e+00	 8.200006749966251e+00	 9.926737652338463e+00
3	 1.099995050046750e+00	 8.350008999955001e+00	 9.942293466420997e+00
3	 1.099995050046750e+00	 8.500011249943752e+00	 9.958350292048062e+00
3	 1.283326595889188e+00	 6.999988750056249e+00	 9.832733016834782e+00
3	 1.283326595889187e+00	 7.149991000044998e+00	 9.843558210954850e+00
3	 1.283326595889188e+00	 7.299993250033750e+00	 9.854846377761643e+00
3	 1.283326595889188e+00	 7.449995500022500e+00	 9.866597517255141e+00
3	 1.283326595889188e+00	 7.599997750011251e+00	 9.878811629435369e+00
3	 1.283326595889187e+00	 7.749999999999997e+00	 9.891488714302312e+00
3	 1.283326595889188e+00	 7.900002249988749e+00	 9.904628771855950e+00
3	 1.283326595889188e+00	 8.050004499977501e+00	 9.918231802096322e+00
3	 1.283326595889187e+00	 8.200006749966249e+00	 9.932297805023405e+00
3	 1.283326595889188e+00	 8.350008999955000e+00	 9.946826780637201e+00
3	 1.283326595889188e+00	 8.500011249943750e+00	 9.961818728937720e+00
3	 1.466657866732000e+00	 6.999988750056250e+00	 9.848468506224631e+00
3	 1.466657866732000e+00	 7.149991000045001e+00	 9.858340993234521e+00
3	 1.466657866732000e+00	 7.299993250033750e+00	 9.868638413959161e+00
3	 1.466657866732000e+00	 7.449995500022498e+00	 9.879360768398591e+00
3	 1.466657866732000e+00	 7.599997750011251e+00	 9.890508056552786e+00
3	 1.466657866732000e+00	 7.749999999999998e+00	 9.902080278421774e+00
3	 1.466657866732000e+00	 7.900002249988749e+00	 9.914077434005515e+00
3	 1.466657866732000e+00	 8.050004499977497e+00	 9.926499523304038e+00
3	 1.466657866732000e+00	 8.200006749966249e+00	 9.939346546317337e+00
3	 1.466657866732000e+00	 8.350008999955000e+00	 9.952618503045422e+00
3	 1.466657866732000e+00	 8.500011249943752e+00	 9.966315393488260e+00
3	 1.649988862575188e+00	 6.999988750056249e+00	 9.867534023451027e+00
3	 1.649988862575188e+00	 7.149991000045000e+00	 9.876223623846659e+00
3	 1.649988862575187e+00	 7.299993250033750e+00	 9.885300118871022e+00
3	 1.649988862575188e+00	 7.449995500022500e+00	 9.894763508524102e+00
3	 1.649988862575188e+00	 7.599997750011250e+00	 9.904613792805891e+00
3	 1.649988862575187e+00	 7.749999999999998e+00	 9.914850971716405e+00
3	 1.649988862575187e+00	 7.900002249988749e+00	 9.925475045255627e+00
3	 1.649988862575188e+00	 8.050004499977501e+00	 9.936486013423563e+00
3	 1.649988862575188e+00	 8.200006749966249e+00	 9.947883876220221e+00
3	 1.649988862575187e+00	 8.350008999954998e+00	 9.959668633645586e+00
3	 1.649988862575188e+00	 8.500011249943752e+00	 9.971840285699667e+00
3	 1.833319583418750e+00	 6.999988750056250e+00	 9.889929568513852e+00
3	 1.833319583418750e+00	 7.149991000045000e+00	 9.897206102791234e+00
3	 1.833319583418750e+00	 7.299993250033751e+00	 9.904831492497163e+00
3	 1.833319583418750e+00	 7.449995500022500e+00	 9.912805737631624e+00
3	 1.833319583418750e+00	 7.599997750011250e+00	 9.921128838194615e+00
3	 1.833319583418750e+00	 7.750000000000001e+00	 9.929800794186146e+00
3	 1.833319583418750e+00	 7.900002249988749e+00	 9.938821605606220e+00
3	 1.833319583418750e+00	 8.050004499977499e+00	 9.948191272454830e+00
3	 1.833319583418750e+00	 8.200006749966251e+00	 9.957909794731972e+00
3	 1.833319583418750e+00	 8.350008999954998e+00	 9.967977172437656e+00
3	 1.833319583418750e+00	 8.500011249943750e+00	 9.978393405571881e+00
3	 0.000000000000000e+00	 8.500011249943750e+00	 9.959132451592504e+00
3	 0.000000000000000e+00	 8.650009112454439e+00	 9.960063641016850e+00
3	 0.000000000000000e+00	 8.800007199964000e+00	 9.962388264353169e+00
3	 0.000000000000000e+00	 8.950005512472437e+00	 9.966106321601384e+00
3	 0.000000000000000e+00	 9.100004049979750e+00	 9.971217812761406e+00
3	 0.000000000000000e+00	 9.250002812485938e+00	 9.977722737833147e+00
3	 0.000000000000000e+00	 9.400001799991001e+00	 9.985621096816507e+00
3	 0.000000000000000e+00	 9.550001012494938e+00	 9.994912889711447e+00
3	 0.000000000000000e+00	 9.700000449997750e+00	 1.000559811651780e+01
3	 0.000000000000000e+00	 9.850000112499439e+00	 1.001767677723552e+01
3	 0.000000000000000e+00	 1.000000000000000e+01	 1.003114887186457e+01
3	 1.833331958401875e-01	 8.500011249943752e+00	 9.956431522515501e+00
3	 1.833331958401875e-01	 8.650009112454438e+00	 9.957414450326295e+00
3	 1.833331958401875e-01	 8.800007199963998e+00	 9.959725776618690e+00
3	 1.833331958401875e-01	 8.950005512472437e+00	 9.963365501392591e+00
3	 1.833331958401875e-01	 9.100004049979750e+00	 9.968333624647927e+00
3	 1.833331958401875e-01	 9.250002812485940e+00	 9.974630146384603e+00
3	 1.833331958401875e-01	 9.400001799991005e+00	 9.982255066602535e+00
3	 1.833331958401875e-01	 9.550001012494940e+00	 9.991208385301624e+00
3	 1.833331958401875e-01	 9.700000449997750e+00	 1.000149010248178e+01
3	 1.833331958401875e-01	 9.850000112499439e+00	 1.001310021814294e+01
3	 1.833331958401875e-01	 1.000000000000000e+01	 1.002603873228498e+01
3	 3.666661166807500e-01	 8.500011249943752e+00	 9.954758821099743e+00
3	 3.666661166807500e-01	 8.650009112454439e+00	 9.955775628920343e+00
3	 3.666661166807500e-01	 8.800007199964003e+00	 9.958055799650619e+00
3	 3.666661166807499e-01	 8.950005512472440e+00	 9.961599333290522e+00
3	 3.666661166807499e-01	 9.100004049979749e+00	 9.966406229839933e+00
3	 3.666661166807500e-01	 9.250002812485938e+00	 9.972476489298774e+00
3	 3.666661166807499e-01	 9.400001799991001e+00	 9.979810111666961e+00
3	 3.666661166807499e-01	 9.550001012494938e+00	 9.988407096944387e+00
3	 3.666661166807500e-01	 9.700000449997756e+00	 9.998267445130988e+00
3	 3.666661166807500e-01	 9.850000112499441e+00	 1.000939115622665e+01
3	 3.666661166807499e-01	 9.999999999999998e+00	 1.002177823023131e+01
3	 5.499987625216877e-01	 8.500011249943752e+00	 9.954114347345186e+00
3	 5.499987625216877e-01	 8.650009112454439e+00	 9.955147176798935e+00
3	 5.499987625216876e-01	 8.800007199964003e+00	 9.957378333448945e+00
3	 5.499987625216876e-01	 8.950005512472437e+00	 9.960807817295128e+00
3	 5.499987625216874e-01	 9.100004049979750e+00	 9.965435628337378e+00
3	 5.499987625216873e-01	 9.250002812485937e+00	 9.971261766575617e+00
3	 5.499987625216874e-01	 9.400001799990997e+00	 9.978286232009744e+00
3	 5.499987625216876e-01	 9.550001012494940e+00	 9.986509024639691e+00
3	 5.499987625216877e-01	 9.700000449997752e+00	 9.995930144465362e+00
3	 5.499987625216876e-01	 9.850000112499439e+00	 1.000654959148664e+01
3	 5.499987625216876e-01	 1.000000000000000e+01	 1.001836736570346e+01
3	 7.333311333630000e-01	 8.500011249943752e+00	 9.954498101251760e+00
3	 7.333311333630000e-01	 8.650009112454438e+00	 9.955529093962024e+00
3	 7.333311333629999e-01	 8.800007199964000e+00	 9.957693378013580e+00
3	 7.333311333630000e-01	 8.950005512472439e+00	 9.960990953406341e+00
3	 7.333311333630002e-01	 9.100004049979752e+00	 9.965421820140193e+00
3	 7.333311333629999e-01	 9.250002812485938e+00	 9.970985978215049e+00
3	 7.333311333629999e-01	 9.400001799990999e+00	 9.977683427630817e+00
3	 7.333311333630000e-01	 9.550001012494940e+00	 9.985514168387450e+00
3	 7.333311333630002e-01	 9.700000449997752e+00	 9.994478200484807e+00
3	 7.333311333630000e-01	 9.850000112499441e+00	 1.000457552392279e+01
3	 7.333311333629999e-01	 9.999999999999998e+00	 1.001580613870134e+01
3	 9.166632292046875e-01	 8.500011249943750e+00	 9.955910082819413e+00
3	 9.166632292046873e-01	 8.650009112454439e+00	 9.956921380409558e+00
3	 9.166632292046876e-01	 8.800007199964002e+00	 9.959000933344491e+00
3	 9.166632292046876e-01	 8.950005512472439e+00	 9.962148741624105e+00
3	 9.166632292046877e-01	 9.100004049979756e+00	 9.966364805248318e+00
3	 9.166632292046872e-01	 9.250002812485938e+00	 9.971649124217025e+00
3	 9.166632292046872e-01	 9.400001799990999e+00	 9.978001698530138e+00
3	 9.166632292046875e-01	 9.550001012494940e+00	 9.985422528187586e+00
3	 9.166632292046875e-01	 9.700000449997754e+00	 9.993911613189260e+00
3	 9.166632292046876e-01	 9.850000112499439e+00	 1.000346895353502e+01
3	 9.166632292046875e-01	 1.000000000000000e+01	 1.001409454922488e+01
3	 1.099995050046750e+00	 8.500011249943752e+00	 9.958350292048062e+00
3	 1.099995050046750e+00	 8.650009112454438e+00	 9.959324036141465e+00
3	 1.099995050046750e+00	 8.800007199964000e+00	 9.961300999441605e+00
3	 1.099995050046750e+00	 8.950005512472439e+00	 9.964281181948381e+00
3	 1.099995050046750e+00	 9.100004049979750e+00	 9.968264583661700e+00
3	 1.099995050046750e+00	 9.250002812485938e+00	 9.973251204581480e+00
3	 1.099995050046750e+00	 9.400001799991001e+00	 9.979241044707628e+00
3	 1.099995050046750e+00	 9.550001012494940e+00	 9.986234104040044e+00
3	 1.099995050046750e+00	 9.700000449997752e+00	 9.994230382578628e+00
3	 1.099995050046750e+00	 9.850000112499441e+00	 1.000322988032331e+01
3	 1.099995050046750e+00	 1.000000000000000e+01	 1.001323259727398e+01
3	 1.283326595889188e+00	 8.500011249943750e+00	 9.961818728937720e+00
3	 1.283326595889188e+00	 8.650009112454439e+00	 9.962737061157712e+00
3	 1.283326595889188e+00	 8.800007199964002e+00	 9.964593576304868e+00
3	 1.283326595889188e+00	 8.950005512472439e+00	 9.967388274379093e+00
3	 1.283326595889187e+00	 9.100004049979750e+00	 9.971121155380290e+00
3	 1.283326595889188e+00	 9.250002812485938e+00	 9.975792219308357e+00
3	 1.283326595889188e+00	 9.400001799990999e+00	 9.981401466163211e+00
3	 1.283326595889188e+00	 9.550001012494940e+00	 9.987948895944761e+00
3	 1.283326595889187e+00	 9.700000449997752e+00	 9.995434508652869e+00
3	 1.283326595889188e+00	 9.850000112499441e+00	 1.000385830428751e+01
3	 1.283326595889188e+00	 1.000000000000000e+01	 1.001322028284853e+01
3	 1.466657866732000e+00	 8.500011249943752e+00	 9.966315393488260e+00
3	 1.466657866732000e+00	 8.650009112454436e+00	 9.967160455458220e+00
3	 1.466657866732000e+00	 8.800007199964000e+00	 9.968878663934230e+00
3	 1.466657866732000e+00	 8.950005512472439e+00	 9.971470018916204e+00
3	 1.466657866732000e+00	 9.100004049979754e+00	 9.974934520404009e+00
3	 1.466657866732000e+00	 9.250002812485938e+00	 9.979272168397586e+00
3	 1.466657866732000e+00	 9.400001799991001e+00	 9.984482962896816e+00
3	 1.466657866732000e+00	 9.550001012494938e+00	 9.990566903901652e+00
3	 1.466657866732000e+00	 9.700000449997752e+00	 9.997523991411912e+00
3	 1.466657866732000e+00	 9.850000112499439e+00	 1.000535422542756e+01
3	 1.466657866732000e+00	 1.000000000000000e+01	 1.001405760594850e+01
3	 1.649988862575188e+00	 8.500011249943752e+00	 9.971840285699670e+00
3	 1.649988862575187e+00	 8.650009112454436e+00	 9.972594219042955e+00
3	 1.649988862575188e+00	 8.800007199964002e+00	 9.974156262329647e+00
3	 1.649988862575187e+00	 8.950005512472437e+00	 9.976526415559634e+00
3	 1.649988862575187e+00	 9.100004049979750e+00	 9.979704678732825e+00
3	 1.649988862575188e+00	 9.250002812485942e+00	 9.983691051849117e+00
3	 1.649988862575187e+00	 9.400001799990999e+00	 9.988485534908440e+00
3	 1.649988862575188e+00	 9.550001012494940e+00	 9.994088127910626e+00
3	 1.649988862575188e+00	 9.700000449997752e+00	 1.000049883085566e+01
3	 1.649988862575188e+00	 9.850000112499441e+00	 1.000771764374339e+01
3	 1.649988862575187e+00	 1.000000000000000e+01	 1.001574456657372e+01
3	 1.833319583418750e+00	 8.500011249943750e+00	 9.978393405571881e+00
3	 1.833319583418750e+00	 8.650009112454438e+00	 9.979038351911854e+00
3	 1.833319583418750e+00	 8.800007199963998e+00	 9.980426371491042e+00
3	 1.833319583418750e+00	 8.950005512472440e+00	 9.982557464309355e+00
3	 1.833319583418750e+00	 9.100004049979750e+00	 9.985431630366671e+00
3	 1.833319583418750e+00	 9.250002812485937e+00	 9.989048869662893e+00
3	 1.833319583418750e+00	 9.400001799991001e+00	 9.993409182197954e+00
3	 1.833319583418750e+00	 9.550001012494938e+00	 9.998512567971686e+00
3	 1.833319583418750e+00	 9.700000449997752e+00	 1.000435902698404e+01
3	 1.833319583418750e+00	 9.850000112499441e+00	 1.001094855923492e+01
3	 1.833319583418750e+00	 1.000000000000000e+01	 1.001828116472420e+01
3	 1.833319583418750e+00	 5.500000000000000e+00	 9.772540611620251e+00
3	 1.833319583418750e+00	 5.649999887500562e+00	 9.786933482718412e+00
3	 1.833319583418750e+00	 5.799999550002250e+00	 9.800736581503367e+00
3	 1.833319583418750e+00	 5.949998987505063e+00	 9.813949907975132e+00
3	 1.833319583418750e+00	 6.099998200009000e+00	 9.826573462133794e+00
3	 1.833319583418750e+00	 6.249997187514062e+00	 9.838607243979400e+00
3	 1.833319583418750e+00	 6.399995950020250e+00	 9.850051253512023e+00
3	 1.833319583418750e+00	 6.549994487527563e+00	 9.860905490731717e+00
3	 1.833319583418750e+00	 6.699992800036001e+00	 9.871169955638546e+00
3	 1.833319583418750e+00	 6.849990887545562e+00	 9.880844648232575e+00
3	 1.833319583418750e+00	 6.999988750056250e+00	 9.889929568513852e+00
3	 2.016655666735000e+00	 5.500000000000000e+00	 9.822105020753401e+00
3	 2.016655666735001e+00	 5.649999887500563e+00	 9.833223353154459e+00
3	 2.016655666735000e+00	 5.799999550002249e+00	 9.843811317767262e+00
3	 2.016655666735000e+00	 5.949998987505063e+00	 9.853868914591827e+00
3	 2.016655666735000e+00	 6.099998200009000e+00	 9.863396143628165e+00
3	 2.016655666735000e+00	 6.249997187514063e+00	 9.872393004876310e+00
3	 2.016655666735000e+00	 6.399995950020251e+00	 9.880859498336244e+00
3	 2.016655666735000e+00	 6.549994487527562e+00	 9.888795624008029e+00
3	 2.016655666735000e+00	 6.699992800036000e+00	 9.896201381891643e+00
3	 2.016655666735000e+00	 6.849990887545563e+00	 9.903076771987115e+00
3	 2.016655666735000e+00	 6.999988750056250e+00	 9.909421794294460e+00
3	 2.199991750051249e+00	 5.499999999999999e+00	 9.868744344472676e+00
3	 2.199991750051250e+00	 5.649999887500562e+00	 9.876773527890579e+00
3	 2.199991750051250e+00	 5.799999550002251e+00	 9.884331748601340e+00
3	 2.199991750051249e+00	 5.949998987505062e+00	 9.891419006604970e+00
3	 2.199991750051249e+00	 6.099998200008999e+00	 9.898035301901455e+00
3	 2.199991750051250e+00	 6.249997187514065e+00	 9.904180634490746e+00
3	 2.199991750051249e+00	 6.399995950020248e+00	 9.909855004372830e+00
3	 2.199991750051249e+00	 6.549994487527561e+00	 9.915058411547660e+00
3	 2.199991750051249e+00	 6.699992800035998e+00	 9.919790856015229e+00
3	 2.199991750051249e+00	 6.849990887545560e+00	 9.924052337775505e+00
3	 2.199991750051250e+00	 6.999988750056252e+00	 9.927842856828446e+00
3	 2.383327833367500e+00	 5.500000000000001e+00	 9.912458582778115e+00
3	 2.383327833367500e+00	 5.649999887500563e+00	 9.917584006926756e+00
3	 2.383327833367499e+00	 5.799999550002249e+00	 9.922297874005595e+00
3	 2.383327833367500e+00	 5.949998987505062e+00	 9.926600184014591e+00
3	 2.383327833367499e+00	 6.099998200009000e+00	 9.930490936953650e+00
3	 2.383327833367500e+00	 6.249997187514063e+00	 9.933970132822731e+00
3	 2.383327833367499e+00	 6.399995950020250e+00	 9.937037771621732e+00
3	 2.383327833367499e+00	 6.549994487527560e+00	 9.939693853350617e+00
3	 2.383327833367499e+00	 6.699992800035999e+00	 9.941938378009304e+00
3	 2.383327833367499e+00	 6.849990887545562e+00	 9.943771345597733e+00
3	 2.383327833367499e+00	 6.999988750056250e+00	 9.945192756115835e+00
3	 2.566663916683749e+00	 5.500000000000000e+00	 9.953247735669654e+00
3	 2.566663916683749e+00	 5.649999887500563e+00	 9.955654790263011e+00
3	 2.566663916683750e+00	 5.799999550002251e+00	 9.957709693980050e+00
3	 2.566663916683750e+00	 5.949998987505063e+00	 9.959412446820661e+00
3	 2.566663916683749e+00	 6.099998200008999e+00	 9.960763048784763e+00
3	 2.566663916683749e+00	 6.249997187514063e+00	 9.961761499872228e+00
3	 2.566663916683749e+00	 6.399995950020250e+00	 9.962407800082985e+00
3	 2.566663916683749e+00	 6.549994487527560e+00	 9.962701949416900e+00
3	 2.566663916683749e+00	 6.699992800036000e+00	 9.962643947873886e+00
3	 2.566663916683749e+00	 6.849990887545562e+00	 9.962233795453816e+00
3	 2.566663916683749e+00	 6.999988750056250e+00	 9.961471492156580e+00
3	 2.750000000000000e+00	 5.500000000000000e+00	 9.991111803147351e+00
3	 2.750000000000000e+00	 5.649999887500562e+00	 9.990985877899343e+00
3	 2.750000000000000e+00	 5.799999550002252e+00	 9.990567208524661e+00
3	 2.749999999999999e+00	 5.949998987505062e+00	 9.989855795023177e+00
3	 2.750000000000000e+00	 6.099998200009000e+00	 9.988851637394770e+00
3	 2.749999999999999e+00	 6.249997187514062e+00	 9.987554735639279e+00
3	 2.750000000000000e+00	 6.399995950020251e+00	 9.985965089756570e+00
3	 2.750000000000000e+00	 6.549994487527563e+00	 9.984082699746509e+00
3	 2.749999999999999e+00	 6.699992800035999e+00	 9.981907565608934e+00
3	 2.749999999999999e+00	 6.849990887545560e+00	 9.979439687343717e+00
3	 2.750000000000000e+00	 6.999988750056250e+00	 9.976679064950741e+00
3	 2.933336083316249e+00	 5.499999999999999e+00	 1.002605078521117e+01
3	 2.933336083316249e+00	 5.649999887500563e+00	 1.002357726983575e+01
3	 2.933336083316250e+00	 5.799999550002251e+00	 1.002087041763947e+01
3	 2.933336083316250e+00	 5.949998987505062e+00	 1.001793022862216e+01
3	 2.933336083316250e+00	 6.099998200009002e+00	 1.001475670278370e+01
3	 2.933336083316249e+00	 6.249997187514062e+00	 1.001134984012386e+01
3	 2.933336083316250e+00	 6.399995950020250e+00	 1.000770964064250e+01
3	 2.933336083316249e+00	 6.549994487527560e+00	 1.000383610433943e+01
3	 2.933336083316249e+00	 6.699992800036000e+00	 9.999729231214488e+00
3	 2.933336083316249e+00	 6.849990887545561e+00	 9.995389021267487e+00
3	 2.933336083316249e+00	 6.999988750056248e+00	 9.990815474498270e+00
3	 3.116672166632499e+00	 5.500000000000000e+00	 1.005806468186115e+01
3	 3.116672166632498e+00	 5.649999887500562e+00	 1.005342896607224e+01
3	 3.116672166632499e+00	 5.799999550002251e+00	 1.004861932132446e+01
3	 3.116672166632499e+00	 5.949998987505063e+00	 1.004363574761762e+01
3	 3.116672166632499e+00	 6.099998200009000e+00	 1.003847824495152e+01
3	 3.116672166632500e+00	 6.249997187514063e+00	 1.003314681332598e+01
3	 3.116672166632499e+00	 6.399995950020250e+00	 1.002764145274076e+01
3	 3.116672166632499e+00	 6.549994487527562e+00	 1.002196216319567e+01
3	 3.116672166632499e+00	 6.699992800035998e+00	 1.001610894469052e+01
3	 3.116672166632500e+00	 6.849990887545562e+00	 1.001008179722510e+01
3	 3.116672166632499e+00	 6.999988750056250e+00	 1.000388072079920e+01
3	 3.300008249948749e+00	 5.500000000000000e+00	 1.008715349309724e+01
3	 3.300008249948748e+00	 5.649999887500562e+00	 1.008054096660877e+01
3	 3.300008249948749e+00	 5.799999550002250e+00	 1.007381391957961e+01
3	 3.300008249948748e+00	 5.949998987505063e+00	 1.006697235200952e+01
3	 3.300008249948749e+00	 6.099998200009001e+00	 1.006001626389828e+01
3	 3.300008249948749e+00	 6.249997187514062e+00	 1.005294565524562e+01
3	 3.300008249948749e+00	 6.399995950020250e+00	 1.004576052605136e+01
3	 3.300008249948749e+00	 6.549994487527561e+00	 1.003846087631525e+01
3	 3.300008249948749e+00	 6.699992800036000e+00	 1.003104670603706e+01
3	 3.300008249948749e+00	 6.849990887545561e+00	 1.002351801521655e+01
3	 3.300008249948749e+00	 6.999988750056249e+00	 1.001587480385350e+01
3	 3.483344333264998e+00	 5.500000000000000e+00	 1.011331721891946e+01
3	 3.483344333264998e+00	 5.649999887500562e+00	 1.010491327144541e+01
3	 3.483344333264999e+00	 5.799999550002251e+00	 1.009645421240496e+01
3	 3.483344333264999e+00	 5.949998987505062e+00	 1.008794004179788e+01
3	 3.483344333264998e+00	 6.099998200009001e+00	 1.007937075962392e+01
3	 3.483344333264999e+00	 6.249997187514063e+00	 1.007074636588281e+01
3	 3.483344333264999e+00	 6.399995950020251e+00	 1.006206686057431e+01
3	 3.483344333264998e+00	 6.549994487527562e+00	 1.005333224369814e+01
3	 3.483344333264999e+00	 6.699992800035998e+00	 1.004454251525408e+01
3	 3.483344333264998e+00	 6.849990887545562e+00	 1.003569767524185e+01
3	 3.483344333264998e+00	 6.999988750056248e+00	 1.002679772366118e+01
3	 3.666680416581250e+00	 5.500000000000000e+00	 1.013655585932782e+01
3	 3.666680416581250e+00	 5.649999887500563e+00	 1.012654588058209e+01
3	 3.666680416581251e+00	 5.799999550002251e+00	 1.011654019980049e+01
3	 3.666680416581249e+00	 5.949998987505062e+00	 1.010653881698270e+01
3	 3.666680416581249e+00	 6.099998200009000e+00	 1.009654173212848e+01
3	 3.666680416581250e+00	 6.249997187514063e+00	 1.008654894523753e+01
3	 3.666680416581250e+00	 6.399995950020251e+00	 1.007656045630959e+01
3	 3.666680416581250e+00	 6.549994487527563e+00	 1.006657626534437e+01
3	 3.666680416581250e+00	 6.699992800036000e+00	 1.005659637234159e+01
3	 3.666680416581250e+00	 6.849990887545562e+00	 1.004662077730098e+01
3	 3.666680416581250e+00	 6.999988750056250e+00	 1.003664948022226e+01
3	 1.833319583418750e+00	 6.999988750056250e+00	 9.889929568513853e+00
3	 1.833319583418750e+00	 7.149991000045000e+00	 9.897206102791236e+00
3	 1.833319583418750e+00	 7.299993250033751e+00	 9.904831492497163e+00
3	 1.833319583418750e+00	 7.449995500022500e+00	 9.912805737631624e+00
3	 1.833319583418750e+00	 7.599997750011250e+00	 9.921128838194615e+00
3	 1.833319583418750e+00	 7.750000000000001e+00	 9.929800794186146e+00
3	 1.833319583418750e+00	 7.900002249988749e+00	 9.938821605606220e+00
3	 1.833319583418750e+00	 8.050004499977499e+00	 9.948191272454830e+00
3	 1.833319583418750e+00	 8.200006749966251e+00	 9.957909794731972e+00
3	 1.833319583418750e+00	 8.350008999954998e+00	 9.967977172437656e+00
3	 1.833319583418750e+00	 8.500011249943750e+00	 9.978393405571881e+00
3	 2.016655666735000e+00	 6.999988750056250e+00	 9.909421794294456e+00
3	 2.016655666735000e+00	 7.149991000045000e+00	 9.915361456813473e+00
3	 2.016655666735000e+00	 7.299993250033749e+00	 9.921586279830086e+00
3	 2.016655666735000e+00	 7.449995500022498e+00	 9.928096263344308e+00
3	 2.016655666735000e+00	 7.599997750011250e+00	 9.934891407356137e+00
3	 2.016655666734999e+00	 7.749999999999999e+00	 9.941971711865570e+00
3	 2.016655666735000e+00	 7.900002249988749e+00	 9.949337176872627e+00
3	 2.016655666735000e+00	 8.050004499977499e+00	 9.956987802377263e+00
3	 2.016655666735001e+00	 8.200006749966251e+00	 9.964923588379525e+00
3	 2.016655666735000e+00	 8.350008999955001e+00	 9.973144534879388e+00
3	 2.016655666734999e+00	 8.500011249943748e+00	 9.981650641876861e+00
3	 2.199991750051250e+00	 6.999988750056252e+00	 9.927842856828446e+00
3	 2.199991750051250e+00	 7.149991000044999e+00	 9.932543889934491e+00
3	 2.199991750051249e+00	 7.299993250033748e+00	 9.937466388607191e+00
3	 2.199991750051251e+00	 7.449995500022501e+00	 9.942610352846582e+00
3	 2.199991750051249e+00	 7.599997750011250e+00	 9.947975782652644e+00
3	 2.199991750051249e+00	 7.749999999999997e+00	 9.953562678025385e+00
3	 2.199991750051250e+00	 7.900002249988750e+00	 9.959371038964802e+00
3	 2.199991750051250e+00	 8.050004499977499e+00	 9.965400865470892e+00
3	 2.199991750051250e+00	 8.200006749966247e+00	 9.971652157543653e+00
3	 2.199991750051250e+00	 8.350008999955000e+00	 9.978124915183107e+00
3	 2.199991750051250e+00	 8.500011249943750e+00	 9.984819138389216e+00
3	 2.383327833367499e+00	 6.999988750056250e+00	 9.945192756115830e+00
3	 2.383327833367499e+00	 7.149991000044999e+00	 9.948753402154285e+00
3	 2.383327833367500e+00	 7.299993250033752e+00	 9.952471818828499e+00
3	 2.383327833367499e+00	 7.449995500022499e+00	 9.956348006138450e+00
3	 2.383327833367500e+00	 7.599997750011249e+00	 9.960381964084146e+00
3	 2.383327833367500e+00	 7.749999999999999e+00	 9.964573692665589e+00
3	 2.383327833367500e+00	 7.900002249988749e+00	 9.968923191882780e+00
3	 2.383327833367500e+00	 8.050004499977502e+00	 9.973430461735711e+00
3	 2.383327833367499e+00	 8.200006749966249e+00	 9.978095502224390e+00
3	 2.383327833367500e+00	 8.350008999955000e+00	 9.982918313348817e+00
3	 2.383327833367499e+00	 8.500011249943748e+00	 9.987898895108989e+00
3	 2.566663916683749e+00	 6.999988750056250e+00	 9.961471492156576e+00
3	 2.566663916683750e+00	 7.149991000045000e+00	 9.963989993472886e+00
3	 2.566663916683749e+00	 7.299993250033752e+00	 9.966602570493979e+00
3	 2.566663916683750e+00	 7.449995500022500e+00	 9.969309223219890e+00
3	 2.566663916683750e+00	 7.599997750011250e+00	 9.972109951650621e+00
3	 2.566663916683749e+00	 7.750000000000002e+00	 9.975004755786182e+00
3	 2.566663916683749e+00	 7.900002249988749e+00	 9.977993635626536e+00
3	 2.566663916683749e+00	 8.050004499977499e+00	 9.981076591171719e+00
3	 2.566663916683749e+00	 8.200006749966249e+00	 9.984253622421708e+00
3	 2.566663916683749e+00	 8.350008999955000e+00	 9.987524729376513e+00
3	 2.566663916683749e+00	 8.500011249943752e+00	 9.990889912036145e+00
3	 2.750000000000000e+00	 6.999988750056250e+00	 9.976679064950739e+00
3	 2.749999999999999e+00	 7.149991000044999e+00	 9.978253663890257e+00
3	 2.750000000000000e+00	 7.299993250033750e+00	 9.979858643603659e+00
3	 2.749999999999999e+00	 7.449995500022499e+00	 9.981494004090937e+00
3	 2.749999999999999e+00	 7.599997750011249e+00	 9.983159745352104e+00
3	 2.749999999999999e+00	 7.749999999999999e+00	 9.984855867387152e+00
3	 2.750000000000000e+00	 7.900002249988751e+00	 9.986582370196095e+00
3	 2.750000000000000e+00	 8.050004499977501e+00	 9.988339253778914e+00
3	 2.750000000000000e+00	 8.200006749966249e+00	 9.990126518135625e+00
3	 2.750000000000000e+00	 8.350008999955000e+00	 9.991944163266218e+00
3	 2.749999999999999e+00	 8.500011249943748e+00	 9.993792189170696e+00
3	 2.933336083316249e+00	 6.999988750056248e+00	 9.990815474498270e+00
3	 2.933336083316250e+00	 7.149991000045001e+00	 9.991544413406421e+00
3	 2.933336083316250e+00	 7.299993250033750e+00	 9.992240038157510e+00
3	 2.933336083316250e+00	 7.449995500022500e+00	 9.992902348751567e+00
3	 2.933336083316249e+00	 7.599997750011249e+00	 9.993531345188572e+00
3	 2.933336083316250e+00	 7.750000000000000e+00	 9.994127027468519e+00
3	 2.933336083316249e+00	 7.900002249988750e+00	 9.994689395591433e+00
3	 2.933336083316249e+00	 8.050004499977499e+00	 9.995218449557301e+00
3	 2.933336083316249e+00	 8.200006749966249e+00	 9.995714189366131e+00
3	 2.933336083316250e+00	 8.350008999955000e+00	 9.996176615017896e+00
3	 2.933336083316249e+00	 8.500011249943748e+00	 9.996605726512641e+00
3	 3.116672166632499e+00	 6.999988750056250e+00	 1.000388072079920e+01
3	 3.116672166632499e+00	 7.149991000045000e+00	 1.000386224202137e+01
3	 3.116672166632499e+00	 7.299993250033751e+00	 1.000374675415556e+01
3	 3.116672166632500e+00	 7.449995500022500e+00	 1.000353425720177e+01
3	 3.116672166632499e+00	 7.599997750011250e+00	 1.000322475116001e+01
3	 3.116672166632500e+00	 7.750000000000000e+00	 1.000281823603027e+01
3	 3.116672166632499e+00	 7.900002249988748e+00	 1.000231471181256e+01
3	 3.116672166632499e+00	 8.050004499977501e+00	 1.000171417850687e+01
3	 3.116672166632499e+00	 8.200006749966251e+00	 1.000101663611321e+01
3	 3.116672166632499e+00	 8.350008999955000e+00	 1.000022208463157e+01
3	 3.116672166632499e+00	 8.500011249943750e+00	 9.999330524061946e+00
3	 3.300008249948749e+00	 6.999988750056249e+00	 1.001587480385350e+01
3	 3.300008249948749e+00	 7.149991000045000e+00	 1.001520714973509e+01
3	 3.300008249948749e+00	 7.299993250033751e+00	 1.001437879159779e+01
3	 3.300008249948748e+00	 7.449995500022498e+00	 1.001338972944158e+01
3	 3.300008249948749e+00	 7.599997750011250e+00	 1.001223996326645e+01
3	 3.300008249948749e+00	 7.750000000000001e+00	 1.001092949307242e+01
3	 3.300008249948749e+00	 7.900002249988749e+00	 1.000945831885949e+01
3	 3.300008249948749e+00	 8.050004499977499e+00	 1.000782644062765e+01
3	 3.300008249948749e+00	 8.200006749966249e+00	 1.000603385837690e+01
3	 3.300008249948749e+00	 8.350008999954998e+00	 1.000408057210725e+01
3	 3.300008249948749e+00	 8.500011249943750e+00	 1.000196658181869e+01
3	 3.483344333264998e+00	 6.999988750056248e+00	 1.002679772366118e+01
3	 3.483344333264999e+00	 7.149991000045000e+00	 1.002557913654762e+01
3	 3.483344333264998e+00	 7.299993250033750e+00	 1.002413615048420e+01
3	 3.483344333264998e+00	 7.449995500022498e+00	 1.002246876547096e+01
3	 3.483344333264999e+00	 7.599997750011250e+00	 1.002057698150787e+01
3	 3.483344333264999e+00	 7.750000000000001e+00	 1.001846079859495e+01
3	 3.483344333264999e+00	 7.900002249988749e+00	 1.001612021673219e+01
3	 3.483344333264999e+00	 8.050004499977499e+00	 1.001355523591960e+01
3	 3.483344333264999e+00	 8.200006749966249e+00	 1.001076585615716e+01
3	 3.483344333264999e+00	 8.350008999955000e+00	 1.000775207744490e+01
3	 3.483344333264999e+00	 8.500011249943750e+00	 1.000451389978280e+01
3	 3.666680416581250e+00	 6.999988750056250e+00	 1.003664948022226e+01
3	 3.666680416581249e+00	 7.149991000045000e+00	 1.003497820245892e+01
3	 3.666680416581250e+00	 7.299993250033750e+00	 1.003301883081481e+01
3	 3.666680416581250e+00	 7.449995500022499e+00	 1.003077136528994e+01
3	 3.666680416581250e+00	 7.599997750011251e+00	 1.002823580588429e+01
3	 3.666680416581249e+00	 7.749999999999999e+00	 1.002541215259787e+01
3	 3.666680416581250e+00	 7.900002249988749e+00	 1.002230040543069e+01
3	 3.666680416581250e+00	 8.050004499977499e+00	 1.001890056438274e+01
3	 3.666680416581250e+00	 8.200006749966249e+00	 1.001521262945403e+01
3	 3.666680416581249e+00	 8.350008999955000e+00	 1.001123660064455e+01
3	 3.666680416581250e+00	 8.500011249943750e+00	 1.000697247795430e+01
3	 1.833319583418750e+00	 8.500011249943750e+00	 9.978393405571881e+00
3	 1.833319583418750e+00	 8.650009112454438e+00	 9.979038351911854e+00
3	 1.833319583418750e+00	 8.800007199963998e+00	 9.980426371491042e+00
3	 1.833319583418750e+00	 8.950005512472440e+00	 9.982557464309355e+00
3	 1.833319583418750e+00	 9.100004049979750e+00	 9.985431630366671e+00
3	 1.833319583418750e+00	 9.250002812485937e+00	 9.989048869662893e+00
3	 1.833319583418750e+00	 9.400001799991001e+00	 9.993409182197956e+00
3	 1.833319583418750e+00	 9.550001012494938e+00	 9.998512567971687e+00
3	 1.833319583418750e+00	 9.700000449997752e+00	 1.000435902698404e+01
3	 1.833319583418750e+00	 9.850000112499441e+00	 1.001094855923492e+01
3	 1.833319583418750e+00	 1.000000000000000e+01	 1.001828116472420e+01
3	 2.016655666734999e+00	 8.500011249943748e+00	 9.981650641876859e+00
3	 2.016655666735000e+00	 8.650009112454438e+00	 9.982074118387045e+00
3	 2.016655666735000e+00	 8.800007199964002e+00	 9.983142922655169e+00
3	 2.016655666735000e+00	 8.950005512472439e+00	 9.984857054681106e+00
3	 2.016655666735000e+00	 9.100004049979750e+00	 9.987216514464784e+00
3	 2.016655666735000e+00	 9.250002812485940e+00	 9.990221302006081e+00
3	 2.016655666735000e+00	 9.400001799991001e+00	 9.993871417304891e+00
3	 2.016655666734999e+00	 9.550001012494940e+00	 9.998166860361117e+00
3	 2.016655666735001e+00	 9.700000449997752e+00	 1.000310763117464e+01
3	 2.016655666735000e+00	 9.850000112499439e+00	 1.000869372974540e+01
3	 2.016655666735000e+00	 1.000000000000000e+01	 1.001492515607325e+01
3	 2.199991750051250e+00	 8.500011249943750e+00	 9.984819138389218e+00
3	 2.199991750051250e+00	 8.650009112454439e+00	 9.985049764039102e+00
3	 2.199991750051249e+00	 8.800007199963998e+00	 9.985827971879761e+00
3	 2.199991750051250e+00	 8.950005512472437e+00	 9.987153761911124e+00
3	 2.199991750051249e+00	 9.100004049979750e+00	 9.989027134133028e+00
3	 2.199991750051249e+00	 9.250002812485940e+00	 9.991448088545434e+00
3	 2.199991750051249e+00	 9.400001799991003e+00	 9.994416625148201e+00
3	 2.199991750051250e+00	 9.550001012494942e+00	 9.997932743941227e+00
3	 2.199991750051250e+00	 9.700000449997750e+00	 1.000199644492442e+01
3	 2.199991750051250e+00	 9.850000112499441e+00	 1.000660772809768e+01
3	 2.199991750051249e+00	 9.999999999999998e+00	 1.001176659346087e+01
3	 2.383327833367499e+00	 8.500011249943748e+00	 9.987898895108993e+00
3	 2.383327833367499e+00	 8.650009112454438e+00	 9.987965288868022e+00
3	 2.383327833367499e+00	 8.800007199964002e+00	 9.988481519164836e+00
3	 2.383327833367499e+00	 8.950005512472437e+00	 9.989447585999333e+00
3	 2.383327833367500e+00	 9.100004049979752e+00	 9.990863489371399e+00
3	 2.383327833367500e+00	 9.250002812485938e+00	 9.992729229280965e+00
3	 2.383327833367499e+00	 9.400001799991003e+00	 9.995044805727879e+00
3	 2.383327833367500e+00	 9.550001012494940e+00	 9.997810218712047e+00
3	 2.383327833367500e+00	 9.700000449997752e+00	 1.000102546823336e+01
3	 2.383327833367499e+00	 9.850000112499439e+00	 1.000469055429173e+01
3	 2.383327833367500e+00	 1.000000000000000e+01	 1.000880547688699e+01
3	 2.566663916683749e+00	 8.500011249943752e+00	 9.990889912036147e+00
3	 2.566663916683749e+00	 8.650009112454436e+00	 9.990820692873800e+00
3	 2.566663916683749e+00	 8.800007199964002e+00	 9.991103564510379e+00
3	 2.566663916683749e+00	 8.950005512472437e+00	 9.991738526945785e+00
3	 2.566663916683749e+00	 9.100004049979750e+00	 9.992725580179926e+00
3	 2.566663916683749e+00	 9.250002812485937e+00	 9.994064724212667e+00
3	 2.566663916683749e+00	 9.400001799990999e+00	 9.995755959043892e+00
3	 2.566663916683749e+00	 9.550001012494942e+00	 9.997799284673530e+00
3	 2.566663916683749e+00	 9.700000449997752e+00	 1.000019470110147e+01
3	 2.566663916683749e+00	 9.850000112499439e+00	 1.000294220832756e+01
3	 2.566663916683749e+00	 1.000000000000000e+01	 1.000604180635175e+01
3	 2.749999999999999e+00	 8.500011249943748e+00	 9.993792189170696e+00
3	 2.749999999999999e+00	 8.650009112454439e+00	 9.993615976056432e+00
3	 2.749999999999999e+00	 8.800007199964002e+00	 9.993694107916397e+00
3	 2.749999999999999e+00	 8.950005512472437e+00	 9.994026584750474e+00
3	 2.750000000000000e+00	 9.100004049979752e+00	 9.994613406558543e+00
3	 2.749999999999999e+00	 9.250002812485938e+00	 9.995454573340526e+00
3	 2.749999999999999e+00	 9.400001799991001e+00	 9.996550085096287e+00
3	 2.750000000000000e+00	 9.550001012494938e+00	 9.997899941825722e+00
3	 2.749999999999999e+00	 9.700000449997750e+00	 9.999504143528716e+00
3	 2.749999999999999e+00	 9.850000112499441e+00	 1.000136269020520e+01
3	 2.750000000000000e+00	 1.000000000000000e+01	 1.000347558185503e+01
3	 2.933336083316249e+00	 8.500011249943748e+00	 9.996605726512641e+00
3	 2.933336083316249e+00	 8.650009112454438e+00	 9.996351138415939e+00
3	 2.933336083316250e+00	 8.800007199964000e+00	 9.996253149382893e+00
3	 2.933336083316249e+00	 8.950005512472437e+00	 9.996311759413397e+00
3	 2.933336083316249e+00	 9.100004049979750e+00	 9.996526968507323e+00
3	 2.933336083316250e+00	 9.250002812485938e+00	 9.996898776664580e+00
3	 2.933336083316250e+00	 9.400001799991001e+00	 9.997427183885033e+00
3	 2.933336083316249e+00	 9.550001012494940e+00	 9.998112190168609e+00
3	 2.933336083316250e+00	 9.700000449997752e+00	 9.998953795515188e+00
3	 2.933336083316249e+00	 9.850000112499439e+00	 9.999951999924610e+00
3	 2.933336083316249e+00	 1.000000000000000e+01	 1.000110680339684e+01
3	 3.116672166632499e+00	 8.500011249943750e+00	 9.999330524061948e+00
3	 3.116672166632500e+00	 8.650009112454439e+00	 9.999026179952310e+00
3	 3.116672166632499e+00	 8.800007199964000e+00	 9.998780688909868e+00
3	 3.116672166632499e+00	 8.950005512472437e+00	 9.998594050934551e+00
3	 3.116672166632499e+00	 9.100004049979752e+00	 9.998466266026217e+00
3	 3.116672166632500e+00	 9.250002812485940e+00	 9.998397334184794e+00
3	 3.116672166632499e+00	 9.400001799990999e+00	 9.998387255410140e+00
3	 3.116672166632499e+00	 9.550001012494938e+00	 9.998436029702185e+00
3	 3.116672166632498e+00	 9.700000449997750e+00	 9.998543657060768e+00
3	 3.116672166632499e+00	 9.850000112499441e+00	 9.998710137485844e+00
3	 3.116672166632499e+00	 1.000000000000000e+01	 9.998935470977221e+00
3	 3.300008249948749e+00	 8.500011249943750e+00	 1.000196658181869e+01
3	 3.300008249948749e+00	 8.650009112454438e+00	 1.000164110066552e+01
3	 3.300008249948749e+00	 8.800007199964000e+00	 1.000127672649731e+01
3	 3.300008249948749e+00	 8.950005512472440e+00	 1.000087345931392e+01
3	 3.300008249948748e+00	 9.100004049979749e+00	 1.000043129911525e+01
3	 3.300008249948749e+00	 9.250002812485938e+00	 9.999950245901195e+00
3	 3.300008249948749e+00	 9.400001799991003e+00	 9.999430299671607e+00
3	 3.300008249948749e+00	 9.550001012494938e+00	 9.998871460426438e+00
3	 3.300008249948750e+00	 9.700000449997752e+00	 9.998273728165533e+00
3	 3.300008249948749e+00	 9.850000112499442e+00	 9.997637102888827e+00
3	 3.300008249948749e+00	 1.000000000000000e+01	 9.996961584596171e+00
3	 3.483344333264999e+00	 8.500011249943750e+00	 1.000451389978280e+01
3	 3.483344333264998e+00	 8.650009112454438e+00	 1.000419590055562e+01
3	 3.483344333264998e+00	 8.800007199963998e+00	 1.000374126214523e+01
3	 3.483344333264999e+00	 8.950005512472439e+00	 1.000314998455153e+01
3	 3.483344333264999e+00	 9.100004049979750e+00	 1.000242206777440e+01
3	 3.483344333264999e+00	 9.250002812485938e+00	 1.000155751181374e+01
3	 3.483344333264999e+00	 9.400001799991003e+00	 1.000055631666944e+01
3	 3.483344333264999e+00	 9.550001012494940e+00	 9.999418482341380e+00
3	 3.483344333264999e+00	 9.700000449997752e+00	 9.998144008829470e+00
3	 3.483344333264999e+00	 9.850000112499439e+00	 9.996732896133580e+00
3	 3.483344333264998e+00	 1.000000000000000e+01	 9.995185144253670e+00
3	 3.666680416581250e+00	 8.500011249943750e+00	 1.000697247795430e+01
3	 3.666680416581249e+00	 8.650009112454438e+00	 1.000669057962257e+01
3	 3.666680416581249e+00	 8.800007199964000e+00	 1.000617429585363e+01
3	 3.666680416581250e+00	 8.950005512472437e+00	 1.000542362664738e+01
3	 3.666680416581250e+00	 9.100004049979752e+00	 1.000443857200370e+01
3	 3.666680416581250e+00	 9.250002812485938e+00	 1.000321913192247e+01
3	 3.666680416581251e+00	 9.400001799991003e+00	 1.000176530640364e+01
3	 3.666680416581250e+00	 9.550001012494938e+00	 1.000007709544701e+01
3	 3.666680416581249e+00	 9.700000449997750e+00	 9.998154499052569e+00
3	 3.666680416581250e+00	 9.850000112499442e+00	 9.995997517220189e+00
3	 3.666680416581250e+00	 1.000000000000000e+01	 9.993606149949702e+00
3	 3.666680416581250e+00	 5.500000000000000e+00	 1.013655585932782e+01
3	 3.666680416581250e+00	 5.649999887500563e+00	 1.012654588058209e+01
3	 3.666680416581251e+00	 5.799999550002251e+00	 1.011654019980049e+01
3	 3.666680416581249e+00	 5.949998987505062e+00	 1.010653881698270e+01
3	 3.666680416581249e+00	 6.099998200009000e+00	 1.009654173212848e+01
3	 3.666680416581250e+00	 6.249997187514063e+00	 1.008654894523752e+01
3	 3.666680416581250e+00	 6.399995950020251e+00	 1.007656045630959e+01
3	 3.666680416581250e+00	 6.549994487527563e+00	 1.006657626534437e+01
3	 3.666680416581250e+00	 6.699992800036000e+00	 1.005659637234159e+01
3	 3.666680416581250e+00	 6.849990887545562e+00	 1.004662077730098e+01
3	 3.666680416581250e+00	 6.999988750056250e+00	 1.003664948022226e+01
3	 3.850011137424812e+00	 5.500000000000000e+00	 1.016718795159532e+01
3	 3.850011137424811e+00	 5.649999887500563e+00	 1.015598598931778e+01
3	 3.850011137424813e+00	 5.799999550002250e+00	 1.014473271288634e+01
3	 3.850011137424813e+00	 5.949998987505063e+00	 1.013342812230071e+01
3	 3.850011137424813e+00	 6.099998200009000e+00	 1.012207221756059e+01
3	 3.850011137424812e+00	 6.249997187514062e+00	 1.011066499866567e+01
3	 3.850011137424813e+00	 6.399995950020251e+00	 1.009920646561567e+01
3	 3.850011137424811e+00	 6.549994487527560e+00	 1.008769661841029e+01
3	 3.850011137424813e+00	 6.699992800036000e+00	 1.007613545704923e+01
3	 3.850011137424813e+00	 6.849990887545562e+00	 1.006452298153220e+01
3	 3.850011137424812e+00	 6.999988750056249e+00	 1.005285919185889e+01
3	 4.033342133268000e+00	 5.500000000000000e+00	 1.019151486814458e+01
3	 4.033342133268000e+00	 5.649999887500563e+00	 1.017950494835371e+01
3	 4.033342133268000e+00	 5.799999550002251e+00	 1.016738810360981e+01
3	 4.033342133268001e+00	 5.949998987505063e+00	 1.015516433391259e+01
3	 4.033342133268000e+00	 6.099998200009001e+00	 1.014283363926175e+01
3	 4.033342133268000e+00	 6.249997187514063e+00	 1.013039601965698e+01
3	 4.033342133268001e+00	 6.399995950020249e+00	 1.011785147509795e+01
3	 4.033342133268000e+00	 6.549994487527561e+00	 1.010520000558436e+01
3	 4.033342133268000e+00	 6.699992800036000e+00	 1.009244161111590e+01
3	 4.033342133268001e+00	 6.849990887545563e+00	 1.007957629169228e+01
3	 4.033342133268000e+00	 6.999988750056250e+00	 1.006660404731315e+01
3	 4.216673404110812e+00	 5.499999999999999e+00	 1.020953660897562e+01
3	 4.216673404110812e+00	 5.649999887500564e+00	 1.019710275768985e+01
3	 4.216673404110813e+00	 5.799999550002251e+00	 1.018450637197086e+01
3	 4.216673404110812e+00	 5.949998987505063e+00	 1.017174745181834e+01
3	 4.216673404110812e+00	 6.099998200009000e+00	 1.015882599723196e+01
3	 4.216673404110812e+00	 6.249997187514063e+00	 1.014574200821142e+01
3	 4.216673404110812e+00	 6.399995950020251e+00	 1.013249548475638e+01
3	 4.216673404110813e+00	 6.549994487527562e+00	 1.011908642686655e+01
3	 4.216673404110812e+00	 6.699992800035999e+00	 1.010551483454158e+01
3	 4.216673404110812e+00	 6.849990887545564e+00	 1.009178070778118e+01
3	 4.216673404110813e+00	 6.999988750056250e+00	 1.007788404658501e+01
3	 4.400004949953250e+00	 5.500000000000000e+00	 1.022125317408837e+01
3	 4.400004949953251e+00	 5.649999887500564e+00	 1.020877941732617e+01
3	 4.400004949953251e+00	 5.799999550002251e+00	 1.019608751796946e+01
3	 4.400004949953249e+00	 5.949998987505062e+00	 1.018317747601789e+01
3	 4.400004949953250e+00	 6.099998200009001e+00	 1.017004929147118e+01
3	 4.400004949953250e+00	 6.249997187514063e+00	 1.015670296432897e+01
3	 4.400004949953250e+00	 6.399995950020250e+00	 1.014313849459096e+01
3	 4.400004949953250e+00	 6.549994487527561e+00	 1.012935588225682e+01
3	 4.400004949953252e+00	 6.699992800036001e+00	 1.011535512732624e+01
3	 4.400004949953250e+00	 6.849990887545562e+00	 1.010113622979888e+01
3	 4.400004949953250e+00	 6.999988750056250e+00	 1.008669918967442e+01
3	 4.583336770795313e+00	 5.500000000000000e+00	 1.022666456348282e+01
3	 4.583336770795315e+00	 5.649999887500562e+00	 1.021453492726266e+01
3	 4.583336770795313e+00	 5.799999550002251e+00	 1.020213154160558e+01
3	 4.583336770795313e+00	 5.949998987505062e+00	 1.018945440651125e+01
3	 4.583336770795313e+00	 6.099998200009000e+00	 1.017650352197937e+01
3	 4.583336770795315e+00	 6.249997187514063e+00	 1.016327888800960e+01
3	 4.583336770795313e+00	 6.399995950020250e+00	 1.014978050460165e+01
3	 4.583336770795313e+00	 6.549994487527563e+00	 1.013600837175515e+01
3	 4.583336770795313e+00	 6.699992800035998e+00	 1.012196248946982e+01
3	 4.583336770795313e+00	 6.849990887545562e+00	 1.010764285774533e+01
3	 4.583336770795313e+00	 6.999988750056250e+00	 1.009304947658136e+01
3	 4.766668866637001e+00	 5.500000000000000e+00	 1.022577077715892e+01
3	 4.766668866637001e+00	 5.649999887500563e+00	 1.021436928749927e+01
3	 4.766668866637001e+00	 5.799999550002250e+00	 1.020263844287919e+01
3	 4.766668866637001e+00	 5.949998987505063e+00	 1.019057824329838e+01
3	 4.766668866637001e+00	 6.099998200009001e+00	 1.017818868875652e+01
3	 4.766668866637001e+00	 6.249997187514062e+00	 1.016546977925330e+01
3	 4.766668866637001e+00	 6.399995950020251e+00	 1.015242151478840e+01
3	 4.766668866637001e+00	 6.549994487527563e+00	 1.013904389536150e+01
3	 4.766668866637001e+00	 6.699992800036000e+00	 1.012533692097231e+01
3	 4.766668866637001e+00	 6.849990887545562e+00	 1.011130059162051e+01
3	 4.766668866637001e+00	 6.999988750056250e+00	 1.009693490730576e+01
3	 4.950001237478315e+00	 5.500000000000000e+00	 1.021857181511665e+01
3	 4.950001237478314e+00	 5.649999887500563e+00	 1.020828249803597e+01
3	 4.950001237478315e+00	 5.799999550002251e+00	 1.019760822179028e+01
3	 4.950001237478314e+00	 5.949998987505063e+00	 1.018654898637925e+01
3	 4.950001237478314e+00	 6.099998200009000e+00	 1.017510479180260e+01
3	 4.950001237478315e+00	 6.249997187514063e+00	 1.016327563806002e+01
3	 4.950001237478313e+00	 6.399995950020248e+00	 1.015106152515121e+01
3	 4.950001237478315e+00	 6.549994487527561e+00	 1.013846245307585e+01
3	 4.950001237478314e+00	 6.699992800036000e+00	 1.012547842183368e+01
3	 4.950001237478315e+00	 6.849990887545563e+00	 1.011210943142437e+01
3	 4.950001237478314e+00	 6.999988750056250e+00	 1.009835548184762e+01
3	 5.133333883319252e+00	 5.500000000000000e+00	 1.020506767735595e+01
3	 5.133333883319253e+00	 5.649999887500563e+00	 1.019627455887274e+01
3	 5.133333883319252e+00	 5.799999550002251e+00	 1.018704087833881e+01
3	 5.133333883319251e+00	 5.949998987505063e+00	 1.017736663575385e+01
3	 5.133333883319252e+00	 6.099998200008999e+00	 1.016725183111759e+01
3	 5.133333883319253e+00	 6.249997187514062e+00	 1.015669646442975e+01
3	 5.133333883319252e+00	 6.399995950020250e+00	 1.014570053569004e+01
3	 5.133333883319251e+00	 6.549994487527561e+00	 1.013426404489818e+01
3	 5.133333883319253e+00	 6.699992800036000e+00	 1.012238699205388e+01
3	 5.133333883319252e+00	 6.849990887545562e+00	 1.011006937715688e+01
3	 5.133333883319253e+00	 6.999988750056250e+00	 1.009731120020688e+01
3	 5.316666804159815e+00	 5.500000000000000e+00	 1.018525836387681e+01
3	 5.316666804159814e+00	 5.649999887500561e+00	 1.017834547000955e+01
3	 5.316666804159814e+00	 5.799999550002250e+00	 1.017093641252474e+01
3	 5.316666804159816e+00	 5.949998987505063e+00	 1.016303119142212e+01
3	 5.316666804159814e+00	 6.099998200009001e+00	 1.015462980670144e+01
3	 5.316666804159814e+00	 6.249997187514062e+00	 1.014573225836243e+01
3	 5.316666804159816e+00	 6.399995950020251e+00	 1.013633854640487e+01
3	 5.316666804159815e+00	 6.549994487527563e+00	 1.012644867082843e+01
3	 5.316666804159814e+00	 6.699992800036000e+00	 1.011606263163290e+01
3	 5.316666804159815e+00	 6.849990887545563e+00	 1.010518042881801e+01
3	 5.316666804159816e+00	 6.999988750056251e+00	 1.009380206238349e+01
3	 5.500000000000000e+00	 5.500000000000000e+00	 1.015914387467919e+01
3	 5.500000000000001e+00	 5.649999887500562e+00	 1.015449523144635e+01
3	 5.500000000000000e+00	 5.799999550002250e+00	 1.014929482434805e+01
3	 5.500000000000001e+00	 5.949998987505063e+00	 1.014354265338406e+01
3	 5.500000000000000e+00	 6.099998200009000e+00	 1.013723871855415e+01
3	 5.500000000000001e+00	 6.249997187514063e+00	 1.013038301985809e+01
3	 5.500000000000000e+00	 6.399995950020251e+00	 1.012297555729565e+01
3	 5.500000000000000e+00	 6.549994487527562e+00	 1.011501633086660e+01
3	 5.500000000000000e+00	 6.699992800036000e+00	 1.010650534057070e+01
3	 5.500000000000000e+00	 6.849990887545562e+00	 1.009744258640771e+01
3	 5.500000000000000e+00	 6.999988750056250e+00	 1.008782806837742e+01
3	 3.666680416581250e+00	 6.999988750056250e+00	 1.003664948022226e+01
3	 3.666680416581249e+00	 7.149991000045000e+00	 1.003497820245892e+01
3	 3.666680416581250e+00	 7.299993250033750e+00	 1.003301883081481e+01
3	 3.666680416581250e+00	 7.449995500022499e+00	 1.003077136528994e+01
3	 3.666680416581250e+00	 7.599997750011251e+00	 1.002823580588429e+01
3	 3.666680416581249e+00	 7.749999999999999e+00	 1.002541215259787e+01
3	 3.666680416581250e+00	 7.900002249988749e+00	 1.002230040543069e+01
3	 3.666680416581250e+00	 8.050004499977499e+00	 1.001890056438274e+01
3	 3.666680416581250e+00	 8.200006749966249e+00	 1.001521262945403e+01
3	 3.666680416581249e+00	 8.350008999955000e+00	 1.001123660064454e+01
3	 3.666680416581250e+00	 8.500011249943750e+00	 1.000697247795430e+01
3	 3.850011137424812e+00	 6.999988750056249e+00	 1.005285919185889e+01
3	 3.850011137424811e+00	 7.149991000044999e+00	 1.004994704479321e+01
3	 3.850011137424812e+00	 7.299993250033749e+00	 1.004675785620582e+01
3	 3.850011137424812e+00	 7.449995500022499e+00	 1.004329162609670e+01
3	 3.850011137424812e+00	 7.599997750011249e+00	 1.003954835446586e+01
3	 3.850011137424812e+00	 7.749999999999999e+00	 1.003552804131329e+01
3	 3.850011137424812e+00	 7.900002249988749e+00	 1.003123068663900e+01
3	 3.850011137424812e+00	 8.050004499977499e+00	 1.002665629044298e+01
3	 3.850011137424813e+00	 8.200006749966247e+00	 1.002180485272525e+01
3	 3.850011137424812e+00	 8.350008999955000e+00	 1.001667637348578e+01
3	 3.850011137424812e+00	 8.500011249943750e+00	 1.001127085272459e+01
3	 4.033342133268000e+00	 6.999988750056250e+00	 1.006660404731315e+01
3	 4.033342133268000e+00	 7.149991000045000e+00	 1.006262852581282e+01
3	 4.033342133268000e+00	 7.299993250033748e+00	 1.005838701511668e+01
3	 4.033342133268000e+00	 7.449995500022501e+00	 1.005387951522468e+01
3	 4.033342133268000e+00	 7.599997750011250e+00	 1.004910602613685e+01
3	 4.033342133268001e+00	 7.750000000000002e+00	 1.004406654785319e+01
3	 4.033342133268000e+00	 7.900002249988749e+00	 1.003876108037368e+01
3	 4.033342133267999e+00	 8.050004499977499e+00	 1.003318962369834e+01
3	 4.033342133268000e+00	 8.200006749966249e+00	 1.002735217782715e+01
3	 4.033342133268000e+00	 8.350008999954998e+00	 1.002124874276013e+01
3	 4.033342133268000e+00	 8.500011249943752e+00	 1.001487931849728e+01
3	 4.216673404110813e+00	 6.999988750056250e+00	 1.007788404658501e+01
3	 4.216673404110812e+00	 7.149991000045000e+00	 1.007302264551771e+01
3	 4.216673404110812e+00	 7.299993250033748e+00	 1.006790630754733e+01
3	 4.216673404110812e+00	 7.449995500022500e+00	 1.006253503267382e+01
3	 4.216673404110812e+00	 7.599997750011249e+00	 1.005690882089722e+01
3	 4.216673404110812e+00	 7.749999999999998e+00	 1.005102767221750e+01
3	 4.216673404110812e+00	 7.900002249988749e+00	 1.004489158663467e+01
3	 4.216673404110813e+00	 8.050004499977501e+00	 1.003850056414874e+01
3	 4.216673404110812e+00	 8.200006749966249e+00	 1.003185460475969e+01
3	 4.216673404110813e+00	 8.350008999955001e+00	 1.002495370846754e+01
3	 4.216673404110812e+00	 8.500011249943750e+00	 1.001779787527227e+01
3	 4.400004949953250e+00	 6.999988750056250e+00	 1.008669918967442e+01
3	 4.400004949953250e+00	 7.149991000045001e+00	 1.008112940390785e+01
3	 4.400004949953249e+00	 7.299993250033749e+00	 1.007531573349774e+01
3	 4.400004949953251e+00	 7.449995500022501e+00	 1.006925817844409e+01
3	 4.400004949953251e+00	 7.599997750011250e+00	 1.006295673874690e+01
3	 4.400004949953249e+00	 7.749999999999998e+00	 1.005641141440618e+01
3	 4.400004949953250e+00	 7.900002249988749e+00	 1.004962220542192e+01
3	 4.400004949953251e+00	 8.050004499977499e+00	 1.004258911179411e+01
3	 4.400004949953250e+00	 8.200006749966249e+00	 1.003531213352279e+01
3	 4.400004949953251e+00	 8.350008999955001e+00	 1.002779127060791e+01
3	 4.400004949953250e+00	 8.500011249943750e+00	 1.002002652304950e+01
3	 4.583336770795313e+00	 6.999988750056250e+00	 1.009304947658136e+01
3	 4.583336770795313e+00	 7.149991000044999e+00	 1.008694880098314e+01
3	 4.583336770795314e+00	 7.299993250033748e+00	 1.008061529296784e+01
3	 4.583336770795314e+00	 7.449995500022500e+00	 1.007404895253540e+01
3	 4.583336770795312e+00	 7.599997750011249e+00	 1.006724977968584e+01
3	 4.583336770795312e+00	 7.750000000000000e+00	 1.006021777441915e+01
3	 4.583336770795313e+00	 7.900002249988751e+00	 1.005295293673535e+01
3	 4.583336770795314e+00	 8.050004499977499e+00	 1.004545526663443e+01
3	 4.583336770795314e+00	 8.200006749966249e+00	 1.003772476411637e+01
3	 4.583336770795313e+00	 8.350008999955001e+00	 1.002976142918120e+01
3	 4.583336770795313e+00	 8.500011249943750e+00	 1.002156526182890e+01
3	 4.766668866637001e+00	 6.999988750056250e+00	 1.009693490730576e+01
3	 4.766668866637001e+00	 7.149991000045000e+00	 1.009048083674362e+01
3	 4.766668866637001e+00	 7.299993250033751e+00	 1.008380498595760e+01
3	 4.766668866637001e+00	 7.449995500022498e+00	 1.007690735494773e+01
3	 4.766668866637001e+00	 7.599997750011250e+00	 1.006978794371398e+01
3	 4.766668866637001e+00	 7.749999999999999e+00	 1.006244675225638e+01
3	 4.766668866637001e+00	 7.900002249988749e+00	 1.005488378057491e+01
3	 4.766668866637001e+00	 8.050004499977499e+00	 1.004709902866956e+01
3	 4.766668866637001e+00	 8.200006749966251e+00	 1.003909249654036e+01
3	 4.766668866637001e+00	 8.350008999955000e+00	 1.003086418418730e+01
3	 4.766668866637001e+00	 8.500011249943750e+00	 1.002241409161037e+01
3	 4.950001237478314e+00	 6.999988750056250e+00	 1.009835548184762e+01
3	 4.950001237478314e+00	 7.149991000045000e+00	 1.009172551118918e+01
3	 4.950001237478315e+00	 7.299993250033751e+00	 1.008488481246697e+01
3	 4.950001237478315e+00	 7.449995500022499e+00	 1.007783338568101e+01
3	 4.950001237478314e+00	 7.599997750011250e+00	 1.007057123083127e+01
3	 4.950001237478315e+00	 7.750000000000001e+00	 1.006309834791777e+01
3	 4.950001237478315e+00	 7.900002249988749e+00	 1.005541473694051e+01
3	 4.950001237478314e+00	 8.050004499977499e+00	 1.004752039789950e+01
3	 4.950001237478314e+00	 8.200006749966251e+00	 1.003941533079469e+01
3	 4.950001237478314e+00	 8.350008999955000e+00	 1.003109953562616e+01
3	 4.950001237478314e+00	 8.500011249943750e+00	 1.002257301239385e+01
3	 5.133333883319253e+00	 6.999988750056250e+00	 1.009731120020687e+01
3	 5.133333883319251e+00	 7.149991000045000e+00	 1.009068282431979e+01
3	 5.133333883319252e+00	 7.299993250033750e+00	 1.008385477249590e+01
3	 5.133333883319252e+00	 7.449995500022499e+00	 1.007682704473517e+01
3	 5.133333883319252e+00	 7.599997750011250e+00	 1.006959964103764e+01
3	 5.133333883319252e+00	 7.750000000000000e+00	 1.006217256140329e+01
3	 5.133333883319252e+00	 7.900002249988749e+00	 1.005454580583212e+01
3	 5.133333883319252e+00	 8.050004499977499e+00	 1.004671937432412e+01
3	 5.133333883319253e+00	 8.200006749966251e+00	 1.003869326687932e+01
3	 5.133333883319252e+00	 8.350008999955000e+00	 1.003046748349768e+01
3	 5.133333883319253e+00	 8.500011249943750e+00	 1.002204202417924e+01
3	 5.316666804159816e+00	 6.999988750056251e+00	 1.009380206238349e+01
3	 5.316666804159815e+00	 7.149991000045000e+00	 1.008735277613541e+01
3	 5.316666804159816e+00	 7.299993250033751e+00	 1.008071486604434e+01
3	 5.316666804159814e+00	 7.449995500022499e+00	 1.007388833211020e+01
3	 5.316666804159814e+00	 7.599997750011249e+00	 1.006687317433305e+01
3	 5.316666804159815e+00	 7.750000000000000e+00	 1.005966939271287e+01
3	 5.316666804159815e+00	 7.900002249988749e+00	 1.005227698724965e+01
3	 5.316666804159814e+00	 8.050004499977499e+00	 1.004469595794341e+01
3	 5.316666804159815e+00	 8.200006749966251e+00	 1.003692630479414e+01
3	 5.316666804159815e+00	 8.350008999955000e+00	 1.002896802780183e+01
3	 5.316666804159816e+00	 8.500011249943752e+00	 1.002082112696649e+01
3	 5.500000000000000e+00	 6.999988750056250e+00	 1.008782806837742e+01
3	 5.500000000000000e+00	 7.149991000045000e+00	 1.008173536663602e+01
3	 5.499999999999999e+00	 7.299993250033749e+00	 1.007546509311221e+01
3	 5.500000000000001e+00	 7.449995500022500e+00	 1.006901724780602e+01
3	 5.500000000000000e+00	 7.599997750011250e+00	 1.006239183071742e+01
3	 5.500000000000000e+00	 7.750000000000000e+00	 1.005558884184644e+01
3	 5.499999999999999e+00	 7.900002249988749e+00	 1.004860828119305e+01
3	 5.500000000000000e+00	 8.050004499977501e+00	 1.004145014875727e+01
3	 5.500000000000000e+00	 8.200006749966249e+00	 1.003411444453908e+01
3	 5.500000000000000e+00	 8.350008999954998e+00	 1.002660116853849e+01
3	 5.500000000000000e+00	 8.500011249943750e+00	 1.001891032075551e+01
3	 3.666680416581250e+00	 8.500011249943750e+00	 1.000697247795430e+01
3	 3.666680416581249e+00	 8.650009112454438e+00	 1.000669057962257e+01
3	 3.666680416581249e+00	 8.800007199964000e+00	 1.000617429585363e+01
3	 3.666680416581250e+00	 8.950005512472437e+00	 1.000542362664738e+01
3	 3.666680416581250e+00	 9.100004049979752e+00	 1.000443857200370e+01
3	 3.666680416581250e+00	 9.250002812485938e+00	 1.000321913192247e+01
3	 3.666680416581251e+00	 9.400001799991003e+00	 1.000176530640363e+01
3	 3.666680416581250e+00	 9.550001012494938e+00	 1.000007709544701e+01
3	 3.666680416581249e+00	 9.700000449997750e+00	 9.998154499052568e+00
3	 3.666680416581250e+00	 9.850000112499442e+00	 9.995997517220186e+00
3	 3.666680416581250e+00	 1.000000000000000e+01	 9.993606149949702e+00
3	 3.850011137424812e+00	 8.500011249943750e+00	 1.001127085272459e+01
3	 3.850011137424812e+00	 8.650009112454438e+00	 1.001086275049270e+01
3	 3.850011137424812e+00	 8.800007199964000e+00	 1.001017232199049e+01
3	 3.850011137424812e+00	 8.950005512472437e+00	 1.000919956721785e+01
3	 3.850011137424812e+00	 9.100004049979750e+00	 1.000794448617466e+01
3	 3.850011137424812e+00	 9.250002812485938e+00	 1.000640707886082e+01
3	 3.850011137424811e+00	 9.400001799990999e+00	 1.000458734527624e+01
3	 3.850011137424813e+00	 9.550001012494942e+00	 1.000248528542080e+01
3	 3.850011137424813e+00	 9.700000449997752e+00	 1.000010089929443e+01
3	 3.850011137424813e+00	 9.850000112499442e+00	 9.997434186896957e+00
3	 3.850011137424812e+00	 1.000000000000000e+01	 9.994485148228286e+00
3	 4.033342133268000e+00	 8.500011249943752e+00	 1.001487931849728e+01
3	 4.033342133268000e+00	 8.650009112454436e+00	 1.001437392758052e+01
3	 4.033342133267999e+00	 8.800007199963998e+00	 1.001353826961739e+01
3	 4.033342133268000e+00	 8.950005512472439e+00	 1.001237234460779e+01
3	 4.033342133268001e+00	 9.100004049979752e+00	 1.001087615255161e+01
3	 4.033342133268000e+00	 9.250002812485938e+00	 1.000904969344876e+01
3	 4.033342133268000e+00	 9.400001799990999e+00	 1.000689296729912e+01
3	 4.033342133268000e+00	 9.550001012494937e+00	 1.000440597410261e+01
3	 4.033342133268000e+00	 9.700000449997752e+00	 1.000158871385912e+01
3	 4.033342133268000e+00	 9.850000112499439e+00	 9.998441186568506e+00
3	 4.033342133268000e+00	 1.000000000000000e+01	 9.994963392230744e+00
3	 4.216673404110812e+00	 8.500011249943750e+00	 1.001779787527227e+01
3	 4.216673404110812e+00	 8.650009112454439e+00	 1.001722411088592e+01
3	 4.216673404110812e+00	 8.800007199964002e+00	 1.001627213873424e+01
3	 4.216673404110813e+00	 8.950005512472439e+00	 1.001494195881712e+01
3	 4.216673404110812e+00	 9.100004049979750e+00	 1.001323357113446e+01
3	 4.216673404110812e+00	 9.250002812485940e+00	 1.001114697568619e+01
3	 4.216673404110812e+00	 9.400001799991001e+00	 1.000868217247219e+01
3	 4.216673404110812e+00	 9.550001012494938e+00	 1.000583916149234e+01
3	 4.216673404110812e+00	 9.700000449997750e+00	 1.000261794274656e+01
3	 4.216673404110812e+00	 9.850000112499439e+00	 9.999018516234756e+00
3	 4.216673404110812e+00	 9.999999999999998e+00	 9.995040881956799e+00
3	 4.400004949953250e+00	 8.500011249943750e+00	 1.002002652304951e+01
3	 4.400004949953251e+00	 8.650009112454439e+00	 1.001941330040883e+01
3	 4.400004949953250e+00	 8.800007199964000e+00	 1.001837392934094e+01
3	 4.400004949953250e+00	 8.950005512472437e+00	 1.001690840984574e+01
3	 4.400004949953250e+00	 9.100004049979750e+00	 1.001501674192312e+01
3	 4.400004949953251e+00	 9.250002812485940e+00	 1.001269892557301e+01
3	 4.400004949953250e+00	 9.400001799991001e+00	 1.000995496079529e+01
3	 4.400004949953250e+00	 9.550001012494938e+00	 1.000678484758986e+01
3	 4.400004949953251e+00	 9.700000449997754e+00	 1.000318858595663e+01
3	 4.400004949953250e+00	 9.850000112499441e+00	 9.999166175895533e+00
3	 4.400004949953250e+00	 1.000000000000000e+01	 9.994717617406380e+00
3	 4.583336770795313e+00	 8.500011249943750e+00	 1.002156526182890e+01
3	 4.583336770795312e+00	 8.650009112454438e+00	 1.002094149614917e+01
3	 4.583336770795313e+00	 8.800007199964000e+00	 1.001984364143743e+01
3	 4.583336770795313e+00	 8.950005512472439e+00	 1.001827169769357e+01
3	 4.583336770795315e+00	 9.100004049979754e+00	 1.001622566491750e+01
3	 4.583336770795314e+00	 9.250002812485940e+00	 1.001370554310912e+01
3	 4.583336770795313e+00	 9.400001799991001e+00	 1.001071133226834e+01
3	 4.583336770795313e+00	 9.550001012494938e+00	 1.000724303239507e+01
3	 4.583336770795314e+00	 9.700000449997752e+00	 1.000330064348922e+01
3	 4.583336770795313e+00	 9.850000112499441e+00	 9.998884165550695e+00
3	 4.583336770795313e+00	 1.000000000000000e+01	 9.993993598579342e+00
3	 4.766668866637001e+00	 8.500011249943750e+00	 1.002241409161037e+01
3	 4.766668866637001e+00	 8.650009112454438e+00	 1.002180869810686e+01
3	 4.766668866637001e+00	 8.800007199964002e+00	 1.002068127502360e+01
3	 4.766668866637001e+00	 8.950005512472439e+00	 1.001903182236050e+01
3	 4.766668866637001e+00	 9.100004049979749e+00	 1.001686034011747e+01
3	 4.766668866637001e+00	 9.250002812485938e+00	 1.001416682829441e+01
3	 4.766668866637001e+00	 9.400001799991001e+00	 1.001095128689124e+01
3	 4.766668866637001e+00	 9.550001012494938e+00	 1.000721371590787e+01
3	 4.766668866637001e+00	 9.700000449997752e+00	 1.000295411534421e+01
3	 4.766668866637001e+00	 9.850000112499439e+00	 9.998172485200117e+00
3	 4.766668866637001e+00	 1.000000000000000e+01	 9.992868825475599e+00
3	 4.950001237478314e+00	 8.500011249943750e+00	 1.002257301239385e+01
3	 4.950001237478315e+00	 8.650009112454438e+00	 1.002201490628181e+01
3	 4.950001237478315e+00	 8.800007199964002e+00	 1.002088683009939e+01
3	 4.950001237478314e+00	 8.950005512472437e+00	 1.001918878384646e+01
3	 4.950001237478314e+00	 9.100004049979750e+00	 1.001692076752297e+01
3	 4.950001237478314e+00	 9.250002812485938e+00	 1.001408278112881e+01
3	 4.950001237478314e+00	 9.400001799991001e+00	 1.001067482466389e+01
3	 4.950001237478314e+00	 9.550001012494938e+00	 1.000669689812812e+01
3	 4.950001237478315e+00	 9.700000449997752e+00	 1.000214900152142e+01
3	 4.950001237478314e+00	 9.850000112499439e+00	 9.997031134843729e+00
3	 4.950001237478315e+00	 1.000000000000000e+01	 9.991343298094904e+00
3	 5.133333883319253e+00	 8.500011249943750e+00	 1.002204202417924e+01
3	 5.133333883319252e+00	 8.650009112454438e+00	 1.002156012067396e+01
3	 5.133333883319252e+00	 8.800007199964000e+00	 1.002046030666470e+01
3	 5.133333883319252e+00	 8.950005512472437e+00	 1.001874258215137e+01
3	 5.133333883319253e+00	 9.100004049979750e+00	 1.001640694713389e+01
3	 5.133333883319252e+00	 9.250002812485938e+00	 1.001345340161218e+01
3	 5.133333883319252e+00	 9.400001799991001e+00	 1.000988194558614e+01
3	 5.133333883319253e+00	 9.550001012494940e+00	 1.000569257905571e+01
3	 5.133333883319250e+00	 9.700000449997752e+00	 1.000088530202082e+01
3	 5.133333883319252e+00	 9.850000112499439e+00	 9.995460114481343e+00
3	 5.133333883319252e+00	 1.000000000000000e+01	 9.989417016437210e+00
3	 5.316666804159816e+00	 8.500011249943752e+00	 1.002082112696649e+01
3	 5.316666804159815e+00	 8.650009112454438e+00	 1.002044434128322e+01
3	 5.316666804159815e+00	 8.800007199964002e+00	 1.001940170471945e+01
3	 5.316666804159814e+00	 8.950005512472437e+00	 1.001769321727512e+01
3	 5.316666804159815e+00	 9.100004049979750e+00	 1.001531887895014e+01
3	 5.316666804159814e+00	 9.250002812485938e+00	 1.001227868974444e+01
3	 5.316666804159815e+00	 9.400001799990999e+00	 1.000857264965795e+01
3	 5.316666804159815e+00	 9.550001012494940e+00	 1.000420075869057e+01
3	 5.316666804159816e+00	 9.700000449997752e+00	 9.999163016842228e+00
3	 5.316666804159815e+00	 9.850000112499441e+00	 9.993459424112860e+00
3	 5.316666804159815e+00	 1.000000000000000e+01	 9.987089980502361e+00
3	 5.500000000000000e+00	 8.500011249943750e+00	 1.001891032075551e+01
3	 5.500000000000000e+00	 8.650009112454439e+00	 1.001866756810949e+01
3	 5.500000000000000e+00	 8.800007199964000e+00	 1.001771102426355e+01
3	 5.499999999999999e+00	 8.950005512472437e+00	 1.001604068921763e+01
3	 5.500000000000000e+00	 9.100004049979750e+00	 1.001365656297165e+01
3	 5.500000000000000e+00	 9.250002812485938e+00	 1.001055864552551e+01
3	 5.500000000000000e+00	 9.400001799991001e+00	 1.000674693687915e+01
3	 5.500000000000000e+00	 9.550001012494938e+00	 1.000222143703254e+01
3	 5.500000000000000e+00	 9.700000449997750e+00	 9.996982145985548e+00
3	 5.500000000000000e+00	 9.850000112499439e+00	 9.991029063738115e+00
3	 5.500000000000000e+00	 1.000000000000000e+01	 9.984362190290195e+00
4	 7.071067812000000e-01	 7.071067812000000e-01	 1.418635260070109e+01
4	 6.887927420372353e-01	 7.249583211663617e-01	 1.352644823063586e+01
4	 6.699376309678143e-01	 7.424174044922536e-01	 1.285502886178833e+01
4	 6.505533342043818e-01	 7.594606129488911e-01	 1.217432138267067e+01
4	 6.306530442364179e-01	 7.760649682494196e-01	 1.148689809336727e+01
4	 6.102512424511253e-01	 7.922080209706512e-01	 1.079569581980604e+01
4	 5.893636746162983e-01	 8.078679389440340e-01	 1.010403059866058e+01
4	 5.680073192043984e-01	 8.230235944554188e-01	 9.415606463823620e+00
4	 5.462003486063129e-01	 8.376546495845698e-01	 8.734516741986024e+00
4	 5.239620833542135e-01	 8.517416390148506e-01	 8.065236197220282e+00
4	 5.013129395444765e-01	 8.652660496514462e-01	 7.412602375705478e+00
4	 8.668697686777688e-01	 8.668697686777688e-01	 1.240014769233131e+01
4	 8.434768599737412e-01	 8.841262577564242e-01	 1.189734155324281e+01
4	 8.194771495473929e-01	 9.010033720729586e-01	 1.138769509174318e+01
4	 7.948869045254155e-01	 9.174784740056322e-01	 1.087316150144682e+01
4	 7.697239035234753e-01	 9.335293512099139e-01	 1.035592557506823e+01
4	 7.440074078492044e-01	 9.491343025761650e-01	 9.838409747227560e+00
4	 7.177581242740999e-01	 9.642722236742419e-01	 9.323276486195461e+00
4	 6.909981594101883e-01	 9.789226910466082e-01	 8.813426252069661e+00
4	 6.637509658103724e-01	 9.930660447031966e-01	 8.311990230913034e+00
4	 6.360412799957051e-01	 1.006683468170774e+00	 7.822317083905497e+00
4	 6.078950526970949e-01	 1.019757065457224e+00	 7.347953026170726e+00
4	 1.026632516511075e+00	 1.026632516511075e+00	 1.125979053599455e+01
4	 9.981607458842369e-01	 1.043293955594787e+00	 1.088201395146591e+01
4	 9.690164438179812e-01	 1.059589101775096e+00	 1.049904966517775e+01
4	 9.392202583464733e-01	 1.075496098036135e+00	 1.011252083211491e+01
4	 9.087945542046859e-01	 1.090993497974549e+00	 9.724207297484590e+00
4	 8.777633726135100e-01	 1.106060348793123e+00	 9.336046510777544e+00
4	 8.461523813407048e-01	 1.120676273799033e+00	 8.950131766264981e+00
4	 8.139888151301677e-01	 1.134821553790295e+00	 8.568707351749445e+00
4	 7.813014066888981e-01	 1.148477206705996e+00	 8.194160208055305e+00
4	 7.481203085187054e-01	 1.161625064915331e+00	 7.829007744621514e+00
4	 7.144770059767271e-01	 1.174247849527959e+00	 7.475881524692621e+00
4	 1.186395024699918e+00	 1.186395024699918e+00	 1.059104350690989e+01
4	 1.152844399768723e+00	 1.202461414681450e+00	 1.031112243903499e+01
4	 1.118555513779580e+00	 1.218174593598667e+00	 1.002590035659955e+01
4	 1.083553395667556e+00	 1.233513485040401e+00	 9.736691553740368e+00
4	 1.047864996280050e+00	 1.248457408543325e+00	 9.444918893351868e+00
4	 1.011519136744043e+00	 1.262986159621527e+00	 9.152113167986704e+00
4	 9.745464458161129e-01	 1.277080089318405e+00	 8.859910576332112e+00
4	 9.369792863643377e-01	 1.290720182686480e+00	 8.570048082918625e+00
4	 8.988516712418904e-01	 1.303888135592968e+00	 8.284356451149154e+00
4	 8.601991689232146e-01	 1.316566429248524e+00	 8.004750775045233e+00
4	 8.210587993833739e-01	 1.328738401863651e+00	 7.733218384329517e+00
4	 1.346157293244298e+00	 1.346157293244298e+00	 1.027717298908734e+01
4	 1.307527821627200e+00	 1.361628635016414e+00	 1.007237388532851e+01
4	 1.268094359432188e+00	 1.376759847543669e+00	 9.861144020507195e+00
4	 1.227886316488662e+00	 1.391530635018430e+00	 9.644533063635754e+00
4	 1.186935229749567e+00	 1.405921082916242e+00	 9.423668761837330e+00
4	 1.145274700240803e+00	 1.419911735061375e+00	 9.199756298077094e+00
4	 1.102940317700325e+00	 1.433483670232361e+00	 8.974076327847840e+00
4	 1.059969573112697e+00	 1.446618577735162e+00	 8.747981555325143e+00
4	 1.016401759469349e+00	 1.459298831364113e+00	 8.522891726888322e+00
4	 9.722778612092317e-01	 1.471507561170349e+00	 8.300286944929606e+00
4	 9.276404329170345e-01	 1.483228722464299e+00	 8.081699237900160e+00
4	 1.505919322144216e+00	 1.505919322144216e+00	 1.023703479338880e+01
4	 1.462211011459667e+00	 1.520795616599679e+00	 1.008836686302912e+01
4	 1.417632980775806e+00	 1.535344863610106e+00	 9.931576075279251e+00
4	 1.372219020809792e+00	 1.549547547970222e+00	 9.767493914978509e+00
4	 1.326005254613237e+00	 1.563384521093301e+00	 9.597010925656871e+00
4	 1.279030063103790e+00	 1.576837075112669e+00	 9.421076681281578e+00
4	 1.231333996993340e+00	 1.589887016540900e+00	 9.240698818312023e+00
4	 1.182959675375247e+00	 1.602516738936342e+00	 9.056941033900003e+00
4	 1.133951671371274e+00	 1.614709294019430e+00	 8.870919967854102e+00
4	 1.084356385376757e+00	 1.626448460680810e+00	 8.683800902568324e+00
4	 1.034221906577709e+00	 1.637718811329905e+00	 8.496792236649190e+00
4	 1.665681111399671e+00	 1.665681111399671e+00	 1.041247169895279e+01
4	 1.616893969266125e+00	 1.679962359431244e+00	 1.030401655070509e+01
4	 1.567171377810435e+00	 1.693929641797974e+00	 1.018546258916944e+01
4	 1.516551508630946e+00	 1.707564223895776e+00	 1.005746439288665e+01
4	 1.465075070871060e+00	 1.720847723074500e+00	 9.920724058941877e+00
4	 1.412785225333003e+00	 1.733762179775407e+00	 9.775991980924788e+00
4	 1.359727483695158e+00	 1.746290128244021e+00	 9.624066937279739e+00
4	 1.305949593151987e+00	 1.758414666290020e+00	 9.465795417090707e+00
4	 1.251501406947666e+00	 1.770119523558921e+00	 9.302070117625002e+00
4	 1.196434741425792e+00	 1.781389127779905e+00	 9.133827558511371e+00
4	 1.140803220365398e+00	 1.792208668460467e+00	 8.962044771370273e+00
4	 1.825442661010663e+00	 1.825442661010663e+00	 1.076071195924304e+01
4	 1.771576695046572e+00	 1.839128863511110e+00	 1.067905251202892e+01
4	 1.716709550536073e+00	 1.852514182107276e+00	 1.058520644360539e+01
4	 1.660883779952125e+00	 1.865580662795093e+00	 1.047968559429667e+01
4	 1.604144678523038e+00	 1.878310688859840e+00	 1.036304270275160e+01
4	 1.546540186928443e+00	 1.890687049049591e+00	 1.023587299428091e+01
4	 1.488120777805780e+00	 1.902693005341725e+00	 1.009881523905793e+01
4	 1.428939326442917e+00	 1.914312359796195e+00	 9.952552216315816e+00
4	 1.369050966198525e+00	 1.925529519982584e+00	 9.797810524729460e+00
4	 1.308512929356335e+00	 1.936329562467635e+00	 9.635359685689483e+00
4	 1.247384374280101e+00	 1.946698293855985e+00	 9.466010495284003e+00
4	 1.985203970977193e+00	 1.985203970977193e+00	 1.124959714243946e+01
4	 1.926259188801011e+00	 1.998295128839277e+00	 1.118335225775922e+01
4	 1.866247498952721e+00	 2.011098484538011e+00	 1.110282733521668e+01
4	 1.805215834773328e+00	 2.023596864668172e+00	 1.100841869127073e+01
4	 1.743214077569167e+00	 2.035773418449320e+00	 1.090056019995711e+01
4	 1.680294947890110e+00	 2.047611682935218e+00	 1.077972561837403e+01
4	 1.616513879325205e+00	 2.059095647834012e+00	 1.064643048018601e+01
4	 1.551928875248037e+00	 2.070209819454868e+00	 1.050123349638957e+01
4	 1.486600349123849e+00	 2.080939283290419e+00	 1.034473740447921e+01
4	 1.420590949168387e+00	 2.091269764743998e+00	 1.017758921108892e+01
4	 1.353965368321819e+00	 2.101187687516461e+00	 1.000047977930269e+01
4	 2.144965041299260e+00	 2.144965041299260e+00	 1.185448245442414e+01
4	 2.080941450529440e+00	 2.157461155415744e+00	 1.179393414958342e+01
4	 2.015785223060380e+00	 2.169682549090179e+00	 1.171707177342091e+01
4	 1.949547673094555e+00	 2.181612829515013e+00	 1.162419725690652e+01
4	 1.882283268009451e+00	 2.193235911842942e+00	 1.151564897146592e+01
4	 1.814049508218005e+00	 2.204536081432291e+00	 1.139180469212595e+01
4	 1.744906788253433e+00	 2.215498055720881e+00	 1.125308418577529e+01
4	 1.674918239567347e+00	 2.226107045266038e+00	 1.109995136405731e+01
4	 1.604149555723641e+00	 2.236348813482428e+00	 1.093291594093877e+01
4	 1.532668800861947e+00	 2.246209734608996e+00	 1.075253453735179e+01
4	 1.460546202490550e+00	 2.255676849441894e+00	 1.055941117963638e+01
4	 2.304725871976864e+00	 2.304725871976864e+00	 1.255616344300041e+01
4	 2.235623480231859e+00	 2.316626943240512e+00	 1.249295977302470e+01
4	 2.165322722859048e+00	 2.328266375763778e+00	 1.241150617932826e+01
4	 2.093879294915806e+00	 2.339628557335619e+00	 1.231202630229789e+01
4	 2.021352249843887e+00	 2.350698169040705e+00	 1.219478064571547e+01
4	 1.947803867912126e+00	 2.361460244540809e+00	 1.206007007471022e+01
4	 1.873299504590465e+00	 2.371900229002333e+00	 1.190823896867199e+01
4	 1.797907419400847e+00	 2.382004037229707e+00	 1.173967796766888e+01
4	 1.721698585997898e+00	 2.391758110558609e+00	 1.155482625063423e+01
4	 1.644746484437016e+00	 2.401149472062629e+00	 1.135417328502917e+01
4	 1.567126876786296e+00	 2.410165779632283e+00	 1.113825999100475e+01
4	 5.013129395444765e-01	 8.652660496514462e-01	 7.412602375705477e+00
4	 4.782736625388826e-01	 8.782108000513508e-01	 6.637823706652605e+00
4	 4.548673401506054e-01	 8.905591134850914e-01	 5.876754251819047e+00
4	 4.311172968179089e-01	 9.022957692201137e-01	 5.134335060618348e+00
4	 4.070476806024165e-01	 9.134067728053056e-01	 4.415795419020688e+00
4	 3.826833818802655e-01	 9.238794106811712e-01	 3.726589371406874e+00
4	 3.580499477747236e-01	 9.337022982642075e-01	 3.072317709198021e+00
4	 3.331734929460904e-01	 9.428654211265123e-01	 2.458636352250425e+00
4	 3.080806073922527e-01	 9.513601689584680e-01	 1.891152930433689e+00
4	 2.827982619426180e-01	 9.591793620732318e-01	 1.375314286018505e+00
4	 2.573537121488546e-01	 9.663172702855480e-01	 9.162884881964675e-01
4	 6.078950526970949e-01	 1.019757065457224e+00	 7.347953026170726e+00
4	 5.793384945678737e-01	 1.032270324500511e+00	 6.721757266203486e+00
4	 5.504005710899796e-01	 1.044207027795018e+00	 6.112140505749651e+00
4	 5.211103862159411e-01	 1.055552461965562e+00	 5.522890375193015e+00
4	 4.914979099286175e-01	 1.066293099042388e+00	 4.957932505451097e+00
4	 4.615938766428451e-01	 1.076416649250996e+00	 4.421282580096173e+00
4	 4.314296791462704e-01	 1.085912107493716e+00	 3.916990996298130e+00
4	 4.010372588456851e-01	 1.094769793156659e+00	 3.449081060043300e+00
4	 3.704489931236603e-01	 1.102981382940312e+00	 3.021482061689551e+00
4	 3.396975806386513e-01	 1.110539936480547e+00	 2.637958982707443e+00
4	 3.088159254195779e-01	 1.117439914598139e+00	 2.302040940950237e+00
4	 7.144770059767271e-01	 1.174247849527959e+00	 7.475881524692619e+00
4	 6.804031749996703e-01	 1.186329617861952e+00	 6.954073966472574e+00
4	 6.459336587294399e-01	 1.197854711634708e+00	 6.449357251075446e+00
4	 6.111033406241609e-01	 1.208808924827655e+00	 5.964730727602165e+00
4	 5.759480125791954e-01	 1.219179195951692e+00	 5.503259628662136e+00
4	 5.405042530393123e-01	 1.228953659016682e+00	 5.068038990838014e+00
4	 5.048093004477689e-01	 1.238121688410218e+00	 4.662153550492590e+00
4	 4.689009229491092e-01	 1.246673937331923e+00	 4.288634347011596e+00
4	 4.328172853019071e-01	 1.254602369491958e+00	 3.950412982268948e+00
4	 3.965968139850743e-01	 1.261900283848551e+00	 3.650274681500908e+00
4	 3.602780614963094e-01	 1.268562332228222e+00	 3.390811461516511e+00
4	 8.210587993833739e-01	 1.328738401863651e+00	 7.733218384329517e+00
4	 7.814677038342720e-01	 1.340388680135674e+00	 7.285346851727642e+00
4	 7.414666030689867e-01	 1.351502165004163e+00	 6.853990313419970e+00
4	 7.010961600425687e-01	 1.362065157806393e+00	 6.441603530323859e+00
4	 6.603979885541496e-01	 1.372065063533217e+00	 6.050671091010902e+00
4	 6.194145110696669e-01	 1.381490439978229e+00	 5.683679751413534e+00
4	 5.781888116792194e-01	 1.390331041013713e+00	 5.343088444486103e+00
4	 5.367644852563627e-01	 1.398577853652303e+00	 5.031296514611165e+00
4	 4.951854839269932e-01	 1.406223128613405e+00	 4.750610851470540e+00
4	 4.534959619818870e-01	 1.413260404177244e+00	 4.503212701152303e+00
4	 4.117401203790492e-01	 1.419684523175798e+00	 4.291125010576564e+00
4	 9.276404329170345e-01	 1.483228722464299e+00	 8.081699237900160e+00
4	 8.825320810716796e-01	 1.494447511321678e+00	 7.685907834212502e+00
4	 8.369994041086196e-01	 1.505149387903381e+00	 7.305563084904141e+00
4	 7.910888444711638e-01	 1.515321160901775e+00	 6.942738672317258e+00
4	 7.448478378534811e-01	 1.524950701786966e+00	 6.599519583791297e+00
4	 6.983246507339094e-01	 1.534026992135637e+00	 6.277980352163361e+00
4	 6.515682128406216e-01	 1.542540165304201e+00	 5.980161868964802e+00
4	 6.046279457674455e-01	 1.550481542117800e+00	 5.708047192487081e+00
4	 5.575535889989185e-01	 1.557843660304654e+00	 5.463536843763692e+00
4	 5.103950246290896e-01	 1.564620297466626e+00	 5.248424141443754e+00
4	 4.632021020677969e-01	 1.570806487440865e+00	 5.064371167186286e+00
4	 1.034221906577709e+00	 1.637718811329905e+00	 8.496792236649190e+00
4	 9.835963067118926e-01	 1.648506111419962e+00	 8.136871311098188e+00
4	 9.325320618483391e-01	 1.658796380332363e+00	 7.791129429488947e+00
4	 8.810813939099469e-01	 1.668576934113801e+00	 7.461370727482777e+00
4	 8.292975604771891e-01	 1.677836110712935e+00	 7.149400951946348e+00
4	 7.772346720320393e-01	 1.686563315488907e+00	 6.857009864706648e+00
4	 7.249475039319755e-01	 1.694749061281682e+00	 6.585952724031333e+00
4	 6.724913044823576e-01	 1.702385002728414e+00	 6.337931171619178e+00
4	 6.199216005176831e-01	 1.709463964565705e+00	 6.114573897359850e+00
4	 5.672940019266818e-01	 1.715979963716697e+00	 5.917417488755691e+00
4	 5.146640065625530e-01	 1.721928225023426e+00	 5.747887894144069e+00
4	 1.140803220365398e+00	 1.792208668460467e+00	 8.962044771370273e+00
4	 1.084660380754911e+00	 1.802564480430528e+00	 8.625643718826858e+00
4	 1.028064576288145e+00	 1.812443142291110e+00	 8.302103402924942e+00
4	 9.710738083589174e-01	 1.821832477442471e+00	 7.993035922116013e+00
4	 9.137471564252736e-01	 1.830721290311127e+00	 7.700049823328540e+00
4	 8.561445749640568e-01	 1.839099410038038e+00	 7.424735480553393e+00
4	 7.983266849532810e-01	 1.846957728946157e+00	 7.168649846069732e+00
4	 7.403545614010991e-01	 1.854288235484144e+00	 6.933300835458774e+00
4	 6.822895184832869e-01	 1.861084041396557e+00	 6.720131637031992e+00
4	 6.241928938746637e-01	 1.867339402927457e+00	 6.530505258189919e+00
4	 5.661258338633171e-01	 1.873049735923479e+00	 6.365689633935810e+00
4	 1.247384374280101e+00	 1.946698293855985e+00	 9.466010495284007e+00
4	 1.185724303200734e+00	 1.956622618353375e+00	 9.143504639975991e+00
4	 1.123596947428037e+00	 1.966089673779621e+00	 8.832566193545377e+00
4	 1.061066087818076e+00	 1.975087790887786e+00	 8.534670057571109e+00
4	 9.981966256977352e-01	 1.983606240581540e+00	 8.251284747525805e+00
4	 9.350543595299617e-01	 1.991635275783030e+00	 7.983859927152086e+00
4	 8.717057559045387e-01	 1.999166168297624e+00	 7.733813494401083e+00
4	 8.082177165236698e-01	 2.006191240384991e+00	 7.502518432720700e+00
4	 7.446573428957299e-01	 2.012703890797211e+00	 7.291289662010937e+00
4	 6.810917004730356e-01	 2.018698615098907e+00	 7.101371138104544e+00
4	 6.175875839700894e-01	 2.024171020141025e+00	 6.933923457133798e+00
4	 1.353965368321819e+00	 2.101187687516461e+00	 1.000047977930270e+01
4	 1.286788074049364e+00	 2.110680525188504e+00	 9.684224132303878e+00
4	 1.219129175268015e+00	 2.119735974797896e+00	 9.378305108840250e+00
4	 1.151058232287422e+00	 2.128342874449745e+00	 9.084099851750457e+00
4	 1.082645968294573e+00	 2.136490961524176e+00	 8.802977452043358e+00
4	 1.013964025729754e+00	 2.144170912723884e+00	 8.536288066819978e+00
4	 9.450847167857478e-01	 2.151374379336084e+00	 8.285351701116577e+00
4	 8.760807698500701e-01	 2.158094017430955e+00	 8.051446833380798e+00
4	 8.070250737550122e-01	 2.164323512767667e+00	 7.835799079231414e+00
4	 7.379904217217970e-01	 2.170057600231044e+00	 7.639570098242389e+00
4	 6.690492568828701e-01	 2.175292077676064e+00	 7.463846953008297e+00
4	 1.460546202490550e+00	 2.255676849441894e+00	 1.055941117963638e+01
4	 1.387851693300798e+00	 2.264738200935913e+00	 1.024323290393792e+01
4	 1.314661259808080e+00	 2.273382045345935e+00	 9.936240154271939e+00
4	 1.241050241766955e+00	 2.281597728128347e+00	 9.639741087214073e+00
4	 1.167095184215788e+00	 2.289375453139033e+00	 9.355034691052833e+00
4	 1.092873573563434e+00	 2.296706320860599e+00	 9.083401081045221e+00
4	 1.018463567596909e+00	 2.303582362061538e+00	 8.826091531405488e+00
4	 9.439437213802996e-01	 2.309996566622035e+00	 8.584318398872670e+00
4	 8.693927110611338e-01	 2.315942907307924e+00	 8.359245103992551e+00
4	 7.948890576209484e-01	 2.321416358323872e+00	 8.151976343514773e+00
4	 7.205108526016587e-01	 2.326412908528595e+00	 7.963548710022245e+00
4	 1.567126876786296e+00	 2.410165779632283e+00	 1.113825999100475e+01
4	 1.488915160955038e+00	 2.418795645595603e+00	 1.081710355563658e+01
4	 1.410193201048231e+00	 2.427027885423737e+00	 1.050406731545754e+01
4	 1.331042116256677e+00	 2.434852351923595e+00	 1.020041169566990e+01
4	 1.251544273461380e+00	 2.442259715426113e+00	 9.907387053730314e+00
4	 1.171783003031002e+00	 2.449241500193175e+00	 9.626224858814890e+00
4	 1.091842308338022e+00	 2.455790116473984e+00	 9.358128656577897e+00
4	 1.011806571114359e+00	 2.461898887958233e+00	 9.104264955641570e+00
4	 9.317602548140945e-01	 2.467562074417983e+00	 8.865754181063560e+00
4	 8.517876081704893e-01	 2.472774889377388e+00	 8.643661845415732e+00
4	 7.719723711264557e-01	 2.477533512698618e+00	 8.438990089681004e+00
4	 2.573537121488546e-01	 9.663172702855480e-01	 9.162884881964675e-01
4	 2.317751464998693e-01	 9.727694309855226e-01	 4.267939974848307e-01
4	 2.060893125863047e-01	 9.785332533915302e-01	-1.586456703827244e-02
4	 1.803237375032306e-01	 9.836073918782625e-01	-4.089988106355809e-01
4	 1.545058469873432e-01	 9.879919488237964e-01	-7.503631180704455e-01
4	 1.286628719407719e-01	 9.916884554886182e-01	-1.038210668126856e+00
4	 1.028217575064602e-01	 9.946998458296606e-01	-1.271335564721553e+00
4	 7.700907529800619e-02	 9.970304235821705e-01	-1.449099080024772e+00
4	 5.125093934185383e-02	 9.986858229984226e-01	-1.571438860769277e+00
4	 2.557292623921174e-02	 9.996729636820960e-01	-1.638860890079716e+00
4	 0.000000000000000e+00	 1.000000000000000e+00	-1.652414940861353e+00
4	 3.088159254195779e-01	 1.117439914598139e+00	 2.302040940950236e+00
4	 2.778379236019073e-01	 1.123677003436669e+00	 1.870839001131058e+00
4	 2.467955879938801e-01	 1.129248698573762e+00	 1.484277640485435e+00
4	 2.157217432919857e-01	 1.134153699238249e+00	 1.144376462825420e+00
4	 1.846489610485203e-01	 1.138392104395610e+00	 8.528089452247629e-01
4	 1.536094503774804e-01	 1.141965394264352e+00	 6.108671356987565e-01
4	 1.226349523392734e-01	 1.144876405002917e+00	 4.194354472277984e-01
4	 9.175663868994366e-02	 1.147129296888819e+00	 2.789745957356313e-01
4	 6.100501562201285e-02	 1.148729516366064e+00	 1.895162687881413e-01
4	 3.040983305945955e-02	 1.149683752385050e+00	 1.506686144454146e-01
4	 0.000000000000000e+00	 1.149999887500563e+00	 1.616321426726155e-01
4	 3.602780614963094e-01	 1.268562332228222e+00	 3.390811461516509e+00
4	 3.239006316090836e-01	 1.274584349527820e+00	 2.995944813217975e+00
4	 2.875018023413431e-01	 1.279963917684101e+00	 2.644522450617253e+00
4	 2.511196959830503e-01	 1.284699780779975e+00	 2.338185338546345e+00
4	 2.147920298943824e-01	 1.288792034368325e+00	 2.078288746081009e+00
4	 1.785559913937357e-01	 1.292242107625757e+00	 1.865877668131107e+00
4	 1.424481174517873e-01	 1.295052738912370e+00	 1.701668765841435e+00
4	 1.065041799601268e-01	 1.297227945048158e+00	 1.586039446362224e+00
4	 7.075907727076577e-02	 1.298772984669142e+00	 1.519024421065858e+00
4	 3.524673262419198e-02	 1.299694316072782e+00	 1.500319781851390e+00
4	 0.000000000000000e+00	 1.299999550002250e+00	 1.529294336967147e+00
4	 4.117401203790492e-01	 1.419684523175798e+00	 4.291125010576563e+00
4	 3.699632705213983e-01	 1.425491469258975e+00	 3.919188472602513e+00
4	 3.282079556286936e-01	 1.430678910722550e+00	 3.590047718193992e+00
4	 2.865175955764245e-01	 1.435245636503442e+00	 3.305111350725267e+00
4	 2.449350535249296e-01	 1.439191738741942e+00	 3.065542539635903e+00
4	 2.035024949895378e-01	 1.442518595572835e+00	 2.872240686530365e+00
4	 1.622612528440016e-01	 1.445228847558020e+00	 2.725828080572173e+00
4	 1.212516991085558e-01	 1.447326368060187e+00	 2.626641944270122e+00
4	 8.051312428811257e-02	 1.448816227907655e+00	 2.574732082330640e+00
4	 4.008362493340899e-02	 1.449704654745291e+00	 2.569864148152599e+00
4	 0.000000000000000e+00	 1.449998987505063e+00	 2.611528345992392e+00
4	 4.632021020677969e-01	 1.570806487440865e+00	 5.064371167186286e+00
4	 4.160258403388510e-01	 1.576398362630134e+00	 4.706591828041974e+00
4	 3.689140478559318e-01	 1.581393677689108e+00	 4.391284701074319e+00
4	 3.219154420721081e-01	 1.585791266408648e+00	 4.119706581802793e+00
4	 2.750780319401620e-01	 1.589591217516462e+00	 3.892896723454350e+00
4	 2.284489611648867e-01	 1.592794858105585e+00	 3.711662476652862e+00
4	 1.820743585159164e-01	 1.595404730939866e+00	 3.576568946156889e+00
4	 1.359991961352305e-01	 1.597424565924908e+00	 3.487932940536849e+00
4	 9.026715667405324e-02	 1.598859246081604e+00	 3.445821355425368e+00
4	 4.492050998711061e-02	 1.599714768402580e+00	 3.450053990211205e+00
4	 0.000000000000000e+00	 1.599998200009000e+00	 3.500210658961384e+00
4	 5.146640065625530e-01	 1.721928225023426e+00	 5.747887894144069e+00
4	 4.620883410614422e-01	 1.727305029641296e+00	 5.398216035704575e+00
4	 4.096200790230577e-01	 1.732108218583774e+00	 5.090897505864428e+00
4	 3.573132354701014e-01	 1.736336670495594e+00	 4.827084676193156e+00
4	 3.052209651400793e-01	 1.739990470691884e+00	 4.607732124490513e+00
4	 2.533953899197823e-01	 1.743070895224007e+00	 4.433584982114365e+00
4	 2.018874344675317e-01	 1.745580389057909e+00	 4.305170647884372e+00
4	 1.507466710401509e-01	 1.747522538642318e+00	 4.222794067108258e+00
4	 1.000211744285878e-01	 1.748902039190989e+00	 4.186536671700612e+00
4	 4.975738778529682e-02	 1.749724657044645e+00	 4.196258971584636e+00
4	 0.000000000000000e+00	 1.749997187514063e+00	 4.251606683512734e+00
4	 5.661258338633171e-01	 1.873049735923479e+00	 6.365689633935810e+00
4	 5.081507726891720e-01	 1.878211470292464e+00	 6.019779590602079e+00
4	 4.503260491300712e-01	 1.882822533406550e+00	 5.716239213337129e+00
4	 3.927109757704041e-01	 1.886881848764280e+00	 5.456145778216028e+00
4	 3.353638531246818e-01	 1.890389498268208e+00	 5.240392860543600e+00
4	 2.783417812542248e-01	 1.893346706928101e+00	 5.069680628338482e+00
4	 2.217004806988476e-01	 1.895755821912148e+00	 4.944509049565222e+00
4	 1.654941238233171e-01	 1.897620286212419e+00	 4.865174160821462e+00
4	 1.097751775517163e-01	 1.898944607235809e+00	 4.831767463893163e+00
4	 5.459425832796766e-02	 1.899734320671490e+00	 4.844178433458515e+00
4	 0.000000000000000e+00	 1.899995950020250e+00	 4.902100037827942e+00
4	 6.175875839700894e-01	 2.024171020141025e+00	 6.933923457133799e+00
4	 5.542131352220401e-01	 2.029117684583634e+00	 6.588549704306979e+00
4	 4.910319581769723e-01	 2.033536622157434e+00	 6.285654796207623e+00
4	 4.281086629730163e-01	 2.037426801214705e+00	 6.026259812585211e+00
4	 3.655066958939693e-01	 2.040788300245433e+00	 5.811212130222589e+00
4	 3.032881351682141e-01	 2.043622293217868e+00	 5.641177175089948e+00
4	 2.415134972098640e-01	 2.045931029502583e+00	 5.516632762770001e+00
4	 1.802415544847290e-01	 2.047717808635211e+00	 5.437866139735354e+00
4	 1.195291660434386e-01	 2.048986950216065e+00	 5.404973771285936e+00
4	 5.943112161512307e-02	 2.049743759283112e+00	 5.417863854200569e+00
4	 0.000000000000000e+00	 2.049994487527563e+00	 5.476261466139293e+00
4	 6.690492568828701e-01	 2.175292077676064e+00	 7.463846953008298e+00
4	 6.002754286600462e-01	 2.180023672514809e+00	 7.116550210757364e+00
4	 5.317378061637610e-01	 2.184250484836427e+00	 6.811907302014816e+00
4	 4.635062970779380e-01	 2.187971527846872e+00	 6.550895690328357e+00
4	 3.956494934479419e-01	 2.191186876623562e+00	 6.334326068399201e+00
4	 3.282344516617501e-01	 2.193897654093306e+00	 6.162835240229314e+00
4	 2.613264840005809e-01	 2.196106011829216e+00	 6.036881351297014e+00
4	 1.949889630243867e-01	 2.197815105910695e+00	 5.956741554049715e+00
4	 1.292831399037549e-01	 2.199029068131757e+00	 5.922512139524334e+00
4	 6.426797764676308e-02	 2.199752972879512e+00	 5.934111109011190e+00
4	 0.000000000000000e+00	 2.199992800036000e+00	 5.991283104509051e+00
4	 7.205108526016587e-01	 2.326412908528595e+00	 7.963548710022247e+00
4	 6.463376530031909e-01	 2.330929434085989e+00	 7.612411397117676e+00
4	 5.724435930904375e-01	 2.334964121443530e+00	 7.304150825011416e+00
4	 4.989038780851692e-01	 2.338516028660777e+00	 7.039709439331486e+00
4	 4.257922457865996e-01	 2.341585227402593e+00	 6.819867488993372e+00
4	 3.531807307348330e-01	 2.344172789554416e+00	 6.645236806880721e+00
4	 2.811394410709983e-01	 2.346280768892045e+00	 6.516256757138877e+00
4	 2.097363494422900e-01	 2.347912178038867e+00	 6.433192417503641e+00
4	 1.390370991326650e-01	 2.349070960982886e+00	 6.396135016144681e+00
4	 6.910482642288772e-02	 2.349761961460691e+00	 6.405004593528258e+00
4	 0.000000000000000e+00	 2.349990887545562e+00	 6.459554812543961e+00
4	 7.719723711264557e-01	 2.477533512698618e+00	 8.438990089681004e+00
4	 6.923998082514740e-01	 2.481834969297172e+00	 8.082488318951587e+00
4	 6.131493189570014e-01	 2.485677531978740e+00	 7.769121895788201e+00
4	 5.343014059947100e-01	 2.489060303656423e+00	 7.499804253654919e+00
4	 4.559349529099424e-01	 2.491983352582524e+00	 7.275289348637749e+00
4	 3.781269723874626e-01	 2.494447699601199e+00	 7.096166169552815e+00
4	 3.009523684211163e-01	 2.496455300691071e+00	 6.962855274892159e+00
4	 2.244837137384392e-01	 2.498009025019732e+00	 6.875607410512539e+00
4	 1.487910437301690e-01	 2.499112628769450e+00	 6.834504218690919e+00
4	 7.394166794349694e-02	 2.499770725026647e+00	 6.839461006130400e+00
4	 0.000000000000000e+00	 2.499988750056250e+00	 6.890231497161823e+00
4	 2.304725871976864e+00	 2.304725871976864e+00	 1.255616344300041e+01
4	 2.235623480231859e+00	 2.316626943240512e+00	 1.249295977302470e+01
4	 2.165322722859048e+00	 2.328266375763778e+00	 1.241150617932827e+01
4	 2.093879294915806e+00	 2.339628557335619e+00	 1.231202630229789e+01
4	 2.021352249843887e+00	 2.350698169040705e+00	 1.219478064571547e+01
4	 1.947803867912126e+00	 2.361460244540809e+00	 1.206007007471023e+01
4	 1.873299504590465e+00	 2.371900229002333e+00	 1.190823896867199e+01
4	 1.797907419400847e+00	 2.382004037229707e+00	 1.173967796766888e+01
4	 1.721698585997898e+00	 2.391758110558609e+00	 1.155482625063424e+01
4	 1.644746484437016e+00	 2.401149472062629e+00	 1.135417328502917e+01
4	 1.567126876786296e+00	 2.410165779632283e+00	 1.113825999100475e+01
4	 2.464491375701491e+00	 2.464491375701491e+00	 1.192340663881388e+01
4	 2.390310034425089e+00	 2.475797386707324e+00	 1.189191055682072e+01
4	 2.314864596669712e+00	 2.486854841057069e+00	 1.184211775828116e+01
4	 2.238215138475776e+00	 2.497648907159019e+00	 1.177415584085595e+01
4	 2.160425299483448e+00	 2.508165032052228e+00	 1.168818408581715e+01
4	 2.081562139957269e+00	 2.518388997723800e+00	 1.158439711997007e+01
4	 2.001695976449018e+00	 2.528306977090006e+00	 1.146302829966211e+01
4	 1.920900196700967e+00	 2.537905589222977e+00	 1.132435276153926e+01
4	 1.839251054612918e+00	 2.547171953399237e+00	 1.116869008364708e+01
4	 1.756827446314448e+00	 2.556093741545993e+00	 1.099640650086395e+01
4	 1.673710668595353e+00	 2.564659228666180e+00	 1.080791662063712e+01
4	 2.624256879426119e+00	 2.624256879426119e+00	 1.140357390746870e+01
4	 2.544996588618319e+00	 2.634967830174317e+00	 1.140076672381891e+01
4	 2.464406470480377e+00	 2.645443306350696e+00	 1.137956758530386e+01
4	 2.382550982035746e+00	 2.655669256982878e+00	 1.134001193411846e+01
4	 2.299498349123008e+00	 2.665631895064307e+00	 1.128216316073405e+01
4	 2.215320412002412e+00	 2.675317750907415e+00	 1.120611645706319e+01
4	 2.130092448307570e+00	 2.684713725178339e+00	 1.111200244468776e+01
4	 2.043892974001086e+00	 2.693807141216915e+00	 1.099999052655180e+01
4	 1.956803523227937e+00	 2.702585796240506e+00	 1.087029190881130e+01
4	 1.868908408191879e+00	 2.711038011029945e+00	 1.072316223909834e+01
4	 1.780294460404410e+00	 2.719152677700579e+00	 1.055890380843069e+01
4	 2.784022383150746e+00	 2.784022383150746e+00	 1.098062469714269e+01
4	 2.699683142811550e+00	 2.794138273641492e+00	 1.100373200269024e+01
4	 2.613948344291042e+00	 2.804031771644657e+00	 1.100832517399527e+01
4	 2.526886825595716e+00	 2.813689606807197e+00	 1.099435093233433e+01
4	 2.438571398762567e+00	 2.823098758076941e+00	 1.096178138948078e+01
4	 2.349078684047554e+00	 2.832246504091651e+00	 1.091061810135072e+01
4	 2.258488920166123e+00	 2.841120473267331e+00	 1.084089593883256e+01
4	 2.166885751301206e+00	 2.849708693211518e+00	 1.075268672631071e+01
4	 2.074355991842956e+00	 2.857999639082421e+00	 1.064610259617122e+01
4	 1.980989370069312e+00	 2.865982280514487e+00	 1.052129900650842e+01
4	 1.886878252213468e+00	 2.873646126735485e+00	 1.037847736946928e+01
4	 2.943787886875373e+00	 2.943787886875373e+00	 1.064141913292512e+01
4	 2.854369697004779e+00	 2.953308717108849e+00	 1.068789884242662e+01
4	 2.763490218101706e+00	 2.962620236938951e+00	 1.071573103252110e+01
4	 2.671222669155686e+00	 2.971709956631976e+00	 1.072477663993652e+01
4	 2.577644448402127e+00	 2.980565621090130e+00	 1.071492040613639e+01
4	 2.482836956092696e+00	 2.989175257276508e+00	 1.068607512938536e+01
4	 2.386885392024675e+00	 2.997527221356982e+00	 1.063818576786425e+01
4	 2.289878528601326e+00	 3.005610245206788e+00	 1.057123334531341e+01
4	 2.191908460457975e+00	 3.013413481924976e+00	 1.048523860806408e+01
4	 2.093070331946743e+00	 3.020926549999618e+00	 1.038026538077192e+01
4	 1.993462044022526e+00	 3.028139575770894e+00	 1.025642356782910e+01
4	 3.103553390600000e+00	 3.103553390600000e+00	 1.037509070063111e+01
4	 3.009056251198010e+00	 3.112479160576386e+00	 1.044261694386303e+01
4	 2.913032091912369e+00	 3.121208702233582e+00	 1.049136254783300e+01
4	 2.815558512715656e+00	 3.129730306457214e+00	 1.052110511227571e+01
4	 2.716717498041686e+00	 3.138032484103876e+00	 1.053164526836320e+01
4	 2.616595228137838e+00	 3.146104010461988e+00	 1.052281112009947e+01
4	 2.515281863883228e+00	 3.153933969447293e+00	 1.049446256441515e+01
4	 2.412871305901445e+00	 3.161511797202723e+00	 1.044649544159453e+01
4	 2.309460929072995e+00	 3.168827324768176e+00	 1.037884546475223e+01
4	 2.205151293824175e+00	 3.175870819485337e+00	 1.029149187518394e+01
4	 2.100045835831584e+00	 3.182633024806809e+00	 1.018446076967772e+01
4	 3.263318894324626e+00	 3.263318894324626e+00	 1.017257498112664e+01
4	 3.163742805391240e+00	 3.271649604044104e+00	 1.025902049790019e+01
4	 3.062573965723034e+00	 3.279797167528546e+00	 1.032656082810205e+01
4	 2.959894356275627e+00	 3.287750656282911e+00	 1.037489222951567e+01
4	 2.855790547681246e+00	 3.295499347118177e+00	 1.040373390554294e+01
4	 2.750353500182981e+00	 3.303032763648092e+00	 1.041283262254117e+01
4	 2.643678335741781e+00	 3.310340717538262e+00	 1.040196722888835e+01
4	 2.535864083201566e+00	 3.317413349199326e+00	 1.037095302696555e+01
4	 2.427013397688014e+00	 3.324241167612018e+00	 1.031964594612017e+01
4	 2.317232255701607e+00	 3.330815088971646e+00	 1.024794646253948e+01
4	 2.206629627640642e+00	 3.337126473843227e+00	 1.015580321094918e+01
4	 3.423084398049253e+00	 3.423084398049253e+00	 1.002625094929432e+01
4	 3.318429359584469e+00	 3.430820047512003e+00	 1.012966946572026e+01
4	 3.212115839533698e+00	 3.438385632823844e+00	 1.021407277247931e+01
4	 3.104230199835597e+00	 3.445771006109069e+00	 1.027907737557642e+01
4	 2.994863597320807e+00	 3.452966210133032e+00	 1.032432322944052e+01
4	 2.884111772228124e+00	 3.459961516834817e+00	 1.034947851428277e+01
4	 2.772074807600334e+00	 3.466747465629891e+00	 1.035424433483215e+01
4	 2.658856860501686e+00	 3.473314901196594e+00	 1.033835929074316e+01
4	 2.544565866303033e+00	 3.479655010456503e+00	 1.030160386571050e+01
4	 2.429313217579038e+00	 3.485759358458544e+00	 1.024380458003408e+01
4	 2.313213419449700e+00	 3.491619922880150e+00	 1.016483785018661e+01
4	 3.582849901773880e+00	 3.582849901773880e+00	 9.929664670700973e+00
4	 3.473115913777700e+00	 3.589990490980084e+00	 1.004827404671381e+01
4	 3.361657713344362e+00	 3.596974098119477e+00	 1.014777690713905e+01
4	 3.248566043395567e+00	 3.603791355935685e+00	 1.022771124195053e+01
4	 3.133936646960366e+00	 3.610433073148445e+00	 1.028763950199749e+01
4	 3.017870044273266e+00	 3.616890270022164e+00	 1.032715351906881e+01
4	 2.900471279458887e+00	 3.623154213722181e+00	 1.034587936457551e+01
4	 2.781849637801805e+00	 3.629216453194529e+00	 1.034348209590197e+01
4	 2.662118334918052e+00	 3.635068853301630e+00	 1.031967033614424e+01
4	 2.541394179456471e+00	 3.640703627946031e+00	 1.027420063057793e+01
4	 2.419797211258757e+00	 3.646113371917576e+00	 1.020688152190812e+01
4	 3.742615405498507e+00	 3.742615405498507e+00	 9.877314127915932e+00
4	 3.627802467970930e+00	 3.749160934448346e+00	 1.000948066503858e+01
4	 3.511199587155026e+00	 3.755562563415444e+00	 1.012247097510958e+01
4	 3.392901886955537e+00	 3.761811705762762e+00	 1.021574546214507e+01
4	 3.273009696599926e+00	 3.767899936164413e+00	 1.028879044938315e+01
4	 3.151628316318408e+00	 3.773819023210134e+00	 1.034112322408541e+01
4	 3.028867751317439e+00	 3.779560961815128e+00	 1.037229703654904e+01
4	 2.904842415101925e+00	 3.785118005193130e+00	 1.038190600085301e+01
4	 2.779670803533072e+00	 3.790482696147402e+00	 1.036958984151294e+01
4	 2.653475141333903e+00	 3.795647897434107e+00	 1.033503842781843e+01
4	 2.526381003067814e+00	 3.800606820955507e+00	 1.027799603630254e+01
4	 3.902380909223136e+00	 3.902380909223136e+00	 9.864479959141606e+00
4	 3.782489022164161e+00	 3.908331377916790e+00	 1.000870402509657e+01
4	 3.660741460965692e+00	 3.914151028711749e+00	 1.013370563910852e+01
4	 3.537237730515508e+00	 3.919832055590298e+00	 1.023886828851222e+01
4	 3.412082746239486e+00	 3.925366799180937e+00	 1.032360323211278e+01
4	 3.285386588363552e+00	 3.930747776398727e+00	 1.038735465158265e+01
4	 3.157264223175993e+00	 3.935967709908737e+00	 1.042960477160720e+01
4	 3.027835192402046e+00	 3.941019557192399e+00	 1.044987889454015e+01
4	 2.897223272148092e+00	 3.945896538993817e+00	 1.044775029201211e+01
4	 2.765556103211335e+00	 3.950592166922772e+00	 1.042284489355989e+01
4	 2.632964794876874e+00	 3.955100269993945e+00	 1.037484571104068e+01
4	 1.567126876786296e+00	 2.410165779632283e+00	 1.113825999100475e+01
4	 1.488915160955038e+00	 2.418795645595603e+00	 1.081710355563658e+01
4	 1.410193201048231e+00	 2.427027885423737e+00	 1.050406731545755e+01
4	 1.331042116256677e+00	 2.434852351923595e+00	 1.020041169566990e+01
4	 1.251544273461380e+00	 2.442259715426113e+00	 9.907387053730314e+00
4	 1.171783003031002e+00	 2.449241500193175e+00	 9.626224858814890e+00
4	 1.091842308338022e+00	 2.455790116473984e+00	 9.358128656577900e+00
4	 1.011806571114359e+00	 2.461898887958233e+00	 9.104264955641568e+00
4	 9.317602548140945e-01	 2.467562074417983e+00	 8.865754181063561e+00
4	 8.517876081704893e-01	 2.472774889377388e+00	 8.643661845415732e+00
4	 7.719723711264557e-01	 2.477533512698618e+00	 8.438990089681006e+00
4	 1.673710668595353e+00	 2.564659228666180e+00	 1.080791662063712e+01
4	 1.589981584742758e+00	 2.572857596477730e+00	 1.053186670457730e+01
4	 1.505727936623183e+00	 2.580678219684424e+00	 1.026212975369402e+01
4	 1.421036623032722e+00	 2.588111458458531e+00	 9.999771253987884e+00
4	 1.335995832865313e+00	 2.595148449619689e+00	 9.745848103585544e+00
4	 1.250694740620359e+00	 2.601781141221454e+00	 9.501401614663919e+00
4	 1.165223195426787e+00	 2.608002323004838e+00	 9.267450355754370e+00
4	 1.079671405854780e+00	 2.613805652478804e+00	 9.044982939860386e+00
4	 9.941296228342568e-01	 2.619185676430042e+00	 8.834950869992362e+00
4	 9.086878230177359e-01	 2.624137847709186e+00	 8.638261557344412e+00
4	 8.234353949143453e-01	 2.628658537187449e+00	 8.455771628144307e+00
4	 1.780294460404410e+00	 2.719152677700579e+00	 1.055890380843069e+01
4	 1.691048008530484e+00	 2.726919547360267e+00	 1.032259703192981e+01
4	 1.601262672198155e+00	 2.734328553945434e+00	 1.009088794470026e+01
4	 1.511031129808813e+00	 2.741370564993715e+00	 9.864676467445719e+00
4	 1.420447392269326e+00	 2.748037183813446e+00	 9.644856039718956e+00
4	 1.329606478209842e+00	 2.754320782249860e+00	 9.432308091881378e+00
4	 1.238604082515734e+00	 2.760214529535773e+00	 9.227896387850087e+00
4	 1.147536240595450e+00	 2.765712416999421e+00	 9.032461319954098e+00
4	 1.056498990854742e+00	 2.770809278442119e+00	 8.846814241733830e+00
4	 9.655880378653914e-01	 2.775500806040989e+00	 8.671731927136763e+00
4	 8.748984187027392e-01	 2.779783561676280e+00	 8.507951245102641e+00
4	 1.886878252213468e+00	 2.873646126735485e+00	 1.037847736946928e+01
4	 1.792114432318214e+00	 2.880981498243211e+00	 1.017730334380525e+01
4	 1.696797407773148e+00	 2.887978888206769e+00	 9.979106298520215e+00
4	 1.601025636584950e+00	 2.894629671529146e+00	 9.784644070760567e+00
4	 1.504898951673421e+00	 2.900925918007386e+00	 9.594670512393684e+00
4	 1.408518215799452e+00	 2.906860423278392e+00	 9.409931159845538e+00
4	 1.311984969604864e+00	 2.912426736066789e+00	 9.231158789117091e+00
4	 1.215401075336368e+00	 2.917619181520085e+00	 9.059068918332365e+00
4	 1.118868358875552e+00	 2.922432880454218e+00	 8.894355323653532e+00
4	 1.022488252713456e+00	 2.926863764372796e+00	 8.737685636483754e+00
4	 9.263614424916374e-01	 2.930908586165111e+00	 8.589697090434701e+00
4	 1.993462044022526e+00	 3.028139575770894e+00	 1.025642356782910e+01
4	 1.893180856105950e+00	 3.035043449126566e+00	 1.008639199677677e+01
4	 1.792332143348160e+00	 3.041629222468425e+00	 9.917810319083110e+00
4	 1.691020143361132e+00	 3.047888778064826e+00	 9.751313215192361e+00
4	 1.589350511077597e+00	 3.053814652201509e+00	 9.587534114981123e+00
4	 1.487429953389188e+00	 3.059400064307051e+00	 9.427101852875509e+00
4	 1.385365856694176e+00	 3.064638942597886e+00	 9.270637212104909e+00
4	 1.283265910077534e+00	 3.069525946040793e+00	 9.118749405358466e+00
4	 1.181237726896685e+00	 3.074056482466336e+00	 8.972032541967655e+00
4	 1.079388467561930e+00	 3.078226722704608e+00	 8.831062133582146e+00
4	 9.778244662810405e-01	 3.082033610653943e+00	 8.696391691033392e+00
4	 2.100045835831584e+00	 3.182633024806809e+00	 1.018446076967772e+01
4	 1.994247279893691e+00	 3.189105400010331e+00	 1.004209620856936e+01
4	 1.887866878923192e+00	 3.195279556730406e+00	 9.899745060613270e+00
4	 1.781014650137360e+00	 3.201147884600754e+00	 9.757934220882962e+00
4	 1.673802070481854e+00	 3.206703386395814e+00	 9.617192212199340e+00
4	 1.566341690979051e+00	 3.211939705335835e+00	 9.478046657618085e+00
4	 1.458746743783670e+00	 3.216851149129064e+00	 9.341021639234604e+00
4	 1.351130744818948e+00	 3.221432710561547e+00	 9.206634978445299e+00
4	 1.243607094918141e+00	 3.225680084478475e+00	 9.075395475303186e+00
4	 1.136288682410814e+00	 3.229589681036426e+00	 8.947800146388348e+00
4	 1.029287490070948e+00	 3.233158635142773e+00	 8.824331501595813e+00
4	 2.206629627640642e+00	 3.337126473843227e+00	 1.015580321094918e+01
4	 2.095313703681436e+00	 3.343167350894503e+00	 1.003806097067814e+01
4	 1.983401614498246e+00	 3.348929890992711e+00	 9.918982112344796e+00
4	 1.871009156913634e+00	 3.354406991136930e+00	 9.798998316199443e+00
4	 1.758253629886191e+00	 3.359592120590301e+00	 9.678545851999523e+00
4	 1.645253428569040e+00	 3.364479346364747e+00	 9.558063734856567e+00
4	 1.532127630873347e+00	 3.369063355660324e+00	 9.437991760230560e+00
4	 1.418995579560610e+00	 3.373339475082346e+00	 9.318768443362970e+00
4	 1.305976462939922e+00	 3.377303686490633e+00	 9.200828890757492e+00
4	 1.193188897260106e+00	 3.380952639368249e+00	 9.084602633151489e+00
4	 1.080750513861359e+00	 3.384283659631604e+00	 8.970511450697895e+00
4	 2.313213419449700e+00	 3.491619922880150e+00	 1.016483785018661e+01
4	 2.196380127469186e+00	 3.497229301779085e+00	 1.006903621762558e+01
4	 2.078936350073318e+00	 3.502580225255338e+00	 9.970629662996998e+00
4	 1.961003663689952e+00	 3.507666097673355e+00	 9.869964997237176e+00
4	 1.842705189290611e+00	 3.512480854784971e+00	 9.767396628352214e+00
4	 1.724165166159156e+00	 3.517018987393786e+00	 9.663285292596257e+00
4	 1.605508517963206e+00	 3.521275562191664e+00	 9.557996654903853e+00
4	 1.486860414302520e+00	 3.525246239603192e+00	 9.451899795792105e+00
4	 1.368345830962026e+00	 3.528927288502813e+00	 9.345365604203536e+00
4	 1.250089112109807e+00	 3.532315597700076e+00	 9.238765097715515e+00
4	 1.132213537652275e+00	 3.535408684120436e+00	 9.132467693129069e+00
4	 2.419797211258757e+00	 3.646113371917576e+00	 1.020688152190812e+01
4	 2.297446551256942e+00	 3.651291252664076e+00	 1.013064668555715e+01
4	 2.174471085648412e+00	 3.656230559518292e+00	 1.005061542441828e+01
4	 2.050998170466317e+00	 3.660925204210027e+00	 9.967058243975305e+00
4	 1.927156748695111e+00	 3.665369588979823e+00	 9.880256277029583e+00
4	 1.803076903749400e+00	 3.669558628422952e+00	 9.790500502296570e+00
4	 1.678889405053247e+00	 3.673487768723084e+00	 9.698090820740628e+00
4	 1.554725249044678e+00	 3.677153004124083e+00	 9.603335000178264e+00
4	 1.430715198984454e+00	 3.680550890515013e+00	 9.506547500952792e+00
4	 1.306989326959918e+00	 3.683678556031909e+00	 9.408048197601222e+00
4	 1.183676561443695e+00	 3.686533708609267e+00	 9.308161013332708e+00
4	 2.526381003067814e+00	 3.800606820955507e+00	 1.027799603630254e+01
4	 2.398512975044703e+00	 3.805353203549477e+00	 1.021921699209116e+01
4	 2.270005821223525e+00	 3.809880893781568e+00	 1.015552191245299e+01
4	 2.140992677242727e+00	 3.814184310746947e+00	 1.008711212415915e+01
4	 2.011608308099692e+00	 3.818258323174858e+00	 1.001420262049725e+01
4	 1.881988641339769e+00	 3.822098269452244e+00	 9.937021695094099e+00
4	 1.752270292143471e+00	 3.825699975254587e+00	 9.855810421087284e+00
4	 1.622590083787084e+00	 3.829059768645018e+00	 9.770821980589918e+00
4	 1.493084567007206e+00	 3.832174492527232e+00	 9.682320851736803e+00
4	 1.363889541810439e+00	 3.835041514363747e+00	 9.590581862905900e+00
4	 1.235139585235620e+00	 3.837658733098098e+00	 9.495889125912516e+00
4	 2.632964794876874e+00	 3.955100269993945e+00	 1.037484571104068e+01
4	 2.499579398832469e+00	 3.959415154435287e+00	 1.033163707344464e+01
4	 2.365540556798660e+00	 3.963531228045168e+00	 1.028245992151315e+01
4	 2.230987184019183e+00	 3.967443417284116e+00	 1.022745236288569e+01
4	 2.096059867504354e+00	 3.971147057370076e+00	 1.016676921218221e+01
4	 1.960900378930266e+00	 3.974637910481664e+00	 1.010058198025796e+01
4	 1.825651179233877e+00	 3.977912181786171e+00	 1.002907869605563e+01
4	 1.690454918529739e+00	 3.980966533166001e+00	 9.952463561289385e+00
4	 1.555453935030282e+00	 3.983798094539473e+00	 9.870956440646410e+00
4	 1.420789756661368e+00	 3.986404472695590e+00	 9.784792192699417e+00
4	 1.286602609028050e+00	 3.988783757586930e+00	 9.694219849221110e+00
4	 7.719723711264557e-01	 2.477533512698618e+00	 8.438990089681006e+00
4	 6.923998082514740e-01	 2.481834969297172e+00	 8.082488318951587e+00
4	 6.131493189570014e-01	 2.485677531978740e+00	 7.769121895788201e+00
4	 5.343014059947100e-01	 2.489060303656423e+00	 7.499804253654919e+00
4	 4.559349529099424e-01	 2.491983352582524e+00	 7.275289348637749e+00
4	 3.781269723874626e-01	 2.494447699601199e+00	 7.096166169552816e+00
4	 3.009523684211163e-01	 2.496455300691071e+00	 6.962855274892159e+00
4	 2.244837137384392e-01	 2.498009025019732e+00	 6.875607410512537e+00
4	 1.487910437301690e-01	 2.499112628769450e+00	 6.834504218690920e+00
4	 7.394166794349694e-02	 2.499770725026647e+00	 6.839461006130402e+00
4	 0.000000000000000e+00	 2.499988750056250e+00	 6.890231497161824e+00
4	 8.234353949143453e-01	 2.628658537187449e+00	 8.455771628144307e+00
4	 7.384633108300606e-01	 2.632744918536289e+00	 8.130140528877853e+00
4	 6.538562354769027e-01	 2.636395350922146e+00	 7.844283160419881e+00
4	 5.696999692913987e-01	 2.639608982112964e+00	 7.598987370531943e+00
4	 4.860785417155357e-01	 2.642385876948399e+00	 7.394902709969057e+00
4	 4.030739437243490e-01	 2.644727005229822e+00	 7.232536143497335e+00
4	 3.207658753046809e-01	 2.646634225135823e+00	 7.112249466930519e+00
4	 2.392315093989623e-01	 2.648110262374003e+00	 7.034258467800584e+00
4	 1.585452736331819e-01	 2.649158685315401e+00	 6.998633832846641e+00
4	 7.877865094302690e-02	 2.649783876389527e+00	 7.005303771477061e+00
4	 0.000000000000000e+00	 2.649991000045000e+00	 7.054058291834910e+00
4	 8.748984187027392e-01	 2.779783561676280e+00	 8.507951245102635e+00
4	 7.845268134092357e-01	 2.783654867775407e+00	 8.209538472756904e+00
4	 6.945631519974466e-01	 2.787113169865551e+00	 7.947897105214989e+00
4	 6.050985325887538e-01	 2.790157660569506e+00	 7.723711540578069e+00
4	 5.162221305217883e-01	 2.792788401314273e+00	 7.537545405404087e+00
4	 4.280209150618577e-01	 2.795006310858444e+00	 7.389838183896203e+00
4	 3.405793821888010e-01	 2.796813149580574e+00	 7.280903300632498e+00
4	 2.539793050599449e-01	 2.798211499728273e+00	 7.210927683110112e+00
4	 1.682995035365293e-01	 2.799204741861354e+00	 7.179972802564734e+00
4	 8.361563394273808e-02	 2.799797027752407e+00	 7.187977164195733e+00
4	 0.000000000000000e+00	 2.799993250033749e+00	 7.234760191930892e+00
4	 9.263614424916374e-01	 2.930908586165111e+00	 8.589697090434697e+00
4	 8.305903159890002e-01	 2.934564817014525e+00	 8.315441362126750e+00
4	 7.352700685186339e-01	 2.937830988808955e+00	 8.075259693430203e+00
4	 6.404970958867751e-01	 2.940706339026047e+00	 7.869750355092977e+00
4	 5.463657193287004e-01	 2.943190925680148e+00	 7.699405499294175e+00
4	 4.529678863999886e-01	 2.945285616487065e+00	 7.564608499566603e+00
4	 3.603928890734767e-01	 2.946992074025327e+00	 7.465632542370475e+00
4	 2.687271007213869e-01	 2.948312737082543e+00	 7.402640488597223e+00
4	 1.780537334402113e-01	 2.949250798407306e+00	 7.375686000519288e+00
4	 8.845261694263042e-02	 2.949810179115287e+00	 7.384715907452468e+00
4	 0.000000000000000e+00	 2.949995500022500e+00	 7.429573762335387e+00
4	 9.778244662810405e-01	 3.082033610653943e+00	 8.696391691033394e+00
4	 8.766538185693534e-01	 3.085474766253644e+00	 8.443701816688401e+00
4	 7.759769850404638e-01	 3.088548807752360e+00	 8.222649675411397e+00
4	 6.758956591854628e-01	 3.091255017482589e+00	 8.033761146917495e+00
4	 5.765093081362715e-01	 3.093593450046023e+00	 7.877468360010160e+00
4	 4.779148577387419e-01	 3.095564922115686e+00	 7.754107588554245e+00
4	 3.802063959587080e-01	 3.097170998470078e+00	 7.663918235318445e+00
4	 2.834748963832885e-01	 3.098413974436814e+00	 7.607042916278107e+00
4	 1.878079633442278e-01	 3.099296854953259e+00	 7.583528639124829e+00
4	 9.328959994270399e-02	 3.099823330478167e+00	 7.593329051404754e+00
4	 0.000000000000000e+00	 3.099997750011250e+00	 7.636307716443475e+00
4	 1.029287490070948e+00	 3.233158635142773e+00	 8.824331501595813e+00
4	 9.227173211502960e-01	 3.236384715492761e+00	 8.590994847134091e+00
4	 8.166839015629366e-01	 3.239266626695764e+00	 8.387084668779675e+00
4	 7.112942224848167e-01	 3.241803695939130e+00	 8.213065477647845e+00
4	 6.066528969445022e-01	 3.243995974411898e+00	 8.069318563385004e+00
4	 5.028618290781175e-01	 3.245844227744309e+00	 7.956140329171008e+00
4	 4.000199028444949e-01	 3.247349922914830e+00	 7.873741579975631e+00
4	 2.982226920456496e-01	 3.248515211791085e+00	 7.822247772584672e+00
4	 1.975621932485789e-01	 3.249342911499210e+00	 7.801700220155520e+00
4	 9.812658294295874e-02	 3.249836481841048e+00	 7.812058228818014e+00
4	 0.000000000000000e+00	 3.250000000000000e+00	 7.853202129542049e+00
4	 1.080750513861359e+00	 3.384283659631604e+00	 8.970511450697893e+00
4	 9.687808237318273e-01	 3.387294664731878e+00	 8.754623641285209e+00
4	 8.573908180860524e-01	 3.389984445639169e+00	 8.566146449798373e+00
4	 7.466927857848370e-01	 3.392352374395672e+00	 8.405491958061358e+00
4	 6.367964857533922e-01	 3.394398498777773e+00	 8.272998062595065e+00
4	 5.278088004181154e-01	 3.396123533372930e+00	 8.168927158974494e+00
4	 4.198334097308373e-01	 3.397528847359581e+00	 8.093465667471371e+00
4	 3.129704877084702e-01	 3.398616449145356e+00	 8.046724405564749e+00
4	 2.073164231532646e-01	 3.399388968045163e+00	 8.028739799615883e+00
4	 1.029635659433947e-01	 3.399849633203927e+00	 8.039475915211220e+00
4	 0.000000000000000e+00	 3.400002249988749e+00	 8.078827273739652e+00
4	 1.132213537652275e+00	 3.535408684120436e+00	 9.132467693129069e+00
4	 1.014844326313948e+00	 3.538204613970996e+00	 8.932377906029785e+00
4	 8.980977346098110e-01	 3.540702264582575e+00	 8.757853579066321e+00
4	 7.820913490855235e-01	 3.542901052852214e+00	 8.609261684623659e+00
4	 6.669400745629414e-01	 3.544801023143647e+00	 8.486902821965678e+00
4	 5.527557717587356e-01	 3.546402839001552e+00	 8.391010181432353e+00
4	 4.396469166177354e-01	 3.547707771804334e+00	 8.321749255771245e+00
4	 3.277182833717502e-01	 3.548717686499626e+00	 8.279218302071135e+00
4	 2.170706530582847e-01	 3.549435024591115e+00	 8.263449546479285e+00
4	 1.078005489440118e-01	 3.549862784566808e+00	 8.274411113067320e+00
4	 0.000000000000000e+00	 3.550004499977499e+00	 8.312009648167024e+00
4	 1.183676561443695e+00	 3.686533708609267e+00	 9.308161013332711e+00
4	 1.060907828896657e+00	 3.689114563210115e+00	 9.122428888753277e+00
4	 9.388046511342124e-01	 3.691420083525979e+00	 8.960567046123096e+00
4	 8.174899123868762e-01	 3.693449731308756e+00	 8.822903394647854e+00
4	 6.970836633731500e-01	 3.695203547509522e+00	 8.709706271127287e+00
4	 5.777027430999782e-01	 3.696682144630174e+00	 8.621183629544378e+00
4	 4.594604235051891e-01	 3.697886696249085e+00	 8.557482897825468e+00
4	 3.424660790354899e-01	 3.698818923853897e+00	 8.518691503717818e+00
4	 2.268248829636394e-01	 3.699481081137067e+00	 8.504838062081042e+00
4	 1.126375319448102e-01	 3.699875935929688e+00	 8.515894206684630e+00
4	 0.000000000000000e+00	 3.700006749966249e+00	 8.551777041099140e+00
4	 1.235139585235620e+00	 3.837658733098098e+00	 9.495889125912516e+00
4	 1.106971331479956e+00	 3.840024512449232e+00	 9.323250456335638e+00
4	 9.795115676592570e-01	 3.842137902469384e+00	 9.172919360563091e+00
4	 8.528884756888955e-01	 3.843998409765297e+00	 9.045189718726105e+00
4	 7.272272521840180e-01	 3.845606071875396e+00	 8.940301797169553e+00
4	 6.026497144418431e-01	 3.846961450258796e+00	 8.858441620385499e+00
4	 4.792739303931982e-01	 3.848065620693836e+00	 8.799740941578815e+00
4	 3.572138746996889e-01	 3.848920161208167e+00	 8.764277812723128e+00
4	 2.365791128693287e-01	 3.849527137683020e+00	 8.752077746668480e+00
4	 1.174745149457898e-01	 3.849889087292568e+00	 8.763115455985966e+00
4	 0.000000000000000e+00	 3.850008999954999e+00	 8.797317145994411e+00
4	 1.286602609028050e+00	 3.988783757586930e+00	 9.694219849221106e+00
4	 1.153034834063843e+00	 3.990934461688351e+00	 9.533558985537745e+00
4	 1.020218484184945e+00	 3.992855721412790e+00	 9.393760562674949e+00
4	 8.882870389915808e-01	 3.994547088221839e+00	 9.275088653665806e+00
4	 7.573708409955453e-01	 3.996008596241272e+00	 9.177758970490027e+00
4	 6.275966857843304e-01	 3.997240755887419e+00	 9.101938384028056e+00
4	 4.990874372817631e-01	 3.998244545138590e+00	 9.047744983403515e+00
4	 3.719616703643476e-01	 3.999021398562439e+00	 9.015248674802240e+00
4	 2.463333427753525e-01	 3.999573194228973e+00	 9.004472312689337e+00
4	 1.223114979469505e-01	 3.999902238655449e+00	 9.015393349573078e+00
4	 0.000000000000000e+00	 4.000011249943750e+00	 9.047945984273875e+00
4	 3.902380909223136e+00	 3.902380909223136e+00	 9.864479959141606e+00
4	 3.782489022164161e+00	 3.908331377916790e+00	 1.000870402509657e+01
4	 3.660741460965692e+00	 3.914151028711749e+00	 1.013370563910852e+01
4	 3.537237730515508e+00	 3.919832055590298e+00	 1.023886828851222e+01
4	 3.412082746239486e+00	 3.925366799180937e+00	 1.032360323211278e+01
4	 3.285386588363552e+00	 3.930747776398727e+00	 1.038735465158265e+01
4	 3.157264223175993e+00	 3.935967709908737e+00	 1.042960477160720e+01
4	 3.027835192402046e+00	 3.941019557192399e+00	 1.044987889454015e+01
4	 2.897223272148092e+00	 3.945896538993817e+00	 1.044775029201211e+01
4	 2.765556103211335e+00	 3.950592166922772e+00	 1.042284489355989e+01
4	 2.632964794876874e+00	 3.955100269993945e+00	 1.037484571104068e+01
4	 4.062141739900740e+00	 4.062141739900740e+00	 1.004319763012919e+01
4	 3.937112530507939e+00	 4.067567780682841e+00	 1.014507630573154e+01
4	 3.810177572212667e+00	 4.072871336778009e+00	 1.023129315430721e+01
4	 3.681439956543159e+00	 4.078045321595413e+00	 1.030144462513107e+01
4	 3.551008289152954e+00	 4.083082787935250e+00	 1.035514750176185e+01
4	 3.418996436183498e+00	 4.087976954734955e+00	 1.039204202473636e+01
4	 3.285523237277441e+00	 4.092721233621022e+00	 1.041179496658777e+01
4	 3.150712186393066e+00	 4.097309255069136e+00	 1.041410263135309e+01
4	 3.014691081916291e+00	 4.101734893973097e+00	 1.039869374941581e+01
4	 2.877591647905489e+00	 4.105992294423202e+00	 1.036533223765361e+01
4	 2.739549128630254e+00	 4.110075893497488e+00	 1.031381979447355e+01
4	 4.221902810222807e+00	 4.221902810222807e+00	 1.018491996182791e+01
4	 4.091588767158615e+00	 4.226914230725594e+00	 1.024990328046777e+01
4	 3.959354065550901e+00	 4.231804048299755e+00	 1.030273227729030e+01
4	 3.825303665202362e+00	 4.236565814213922e+00	 1.034316085911863e+01
4	 3.689547928020609e+00	 4.241193222776674e+00	 1.037095689896420e+01
4	 3.552202364082821e+00	 4.245680135204383e+00	 1.038590406203597e+01
4	 3.413387345939014e+00	 4.250020603227936e+00	 1.038780359003169e+01
4	 3.273227792302188e+00	 4.254208892266027e+00	 1.037647602997605e+01
4	 3.131852822593871e+00	 4.258239503991635e+00	 1.035176289335418e+01
4	 2.989395384126464e+00	 4.262107198119389e+00	 1.031352823097350e+01
4	 2.845991854003976e+00	 4.265807013244679e+00	 1.026166010888980e+01
4	 4.381664120189336e+00	 4.381664120189336e+00	 1.029289815319420e+01
4	 4.245872126188424e+00	 4.386323568112594e+00	 1.032617084920767e+01
4	 4.108185640181093e+00	 4.390857863240454e+00	 1.035065685985126e+01
4	 3.968709515523085e+00	 4.395261184640323e+00	 1.036623199815745e+01
4	 3.827553671084559e+00	 4.399527862547744e+00	 1.037278062641448e+01
4	 3.684832845587159e+00	 4.403652399129981e+00	 1.037019664923654e+01
4	 3.540666323609532e+00	 4.407629488908295e+00	 1.035838447572035e+01
4	 3.395177634357756e+00	 4.411454038694872e+00	 1.033725994445858e+01
4	 3.248494224568998e+00	 4.415121186900617e+00	 1.030675120499107e+01
4	 3.100747107181071e+00	 4.418626322071962e+00	 1.026679954917211e+01
4	 2.952070487653461e+00	 4.421965100518506e+00	 1.021736018592238e+01
4	 4.541425669800329e+00	 4.541425669800329e+00	 1.037036916034137e+01
4	 4.399917151623256e+00	 4.545748632906994e+00	 1.037677288607204e+01
4	 4.256587520851324e+00	 4.549941482285424e+00	 1.037756210350951e+01
4	 4.111539192785187e+00	 4.553999086709290e+00	 1.037271516566689e+01
4	 3.964879093394471e+00	 4.557916472054837e+00	 1.036221409191381e+01
4	 3.816718431519815e+00	 4.561688838533025e+00	 1.034604500726352e+01
4	 3.667172447678284e+00	 4.565311577522974e+00	 1.032419856002355e+01
4	 3.516360140458546e+00	 4.568780287894537e+00	 1.029667031570282e+01
4	 3.364403971700447e+00	 4.572090791709147e+00	 1.026346112501756e+01
4	 3.211429551854982e+00	 4.575239149190583e+00	 1.022457746382109e+01
4	 3.057565307112449e+00	 4.578221672861008e+00	 1.018003174279928e+01
4	 4.701187459055785e+00	 4.701187459055785e+00	 1.042049815428893e+01
4	 4.553678582019964e+00	 4.705142311607406e+00	 1.040447893384968e+01
4	 4.404475618363970e+00	 4.708963781049156e+00	 1.038579170256171e+01
4	 4.253675732554878e+00	 4.712647543324914e+00	 1.036451041214889e+01
4	 4.101379851902239e+00	 4.716189429014647e+00	 1.034070789196817e+01
4	 3.947692466976007e+00	 4.719585436576043e+00	 1.031445587368338e+01
4	 3.792721414496117e+00	 4.722831745181699e+00	 1.028582500145155e+01
4	 3.636577643509271e+00	 4.725924727073635e+00	 1.025488482802948e+01
4	 3.479374965808458e+00	 4.728860959358554e+00	 1.022170379723295e+01
4	 3.321229791685382e+00	 4.731637235169823e+00	 1.018634921321146e+01
4	 3.162260852233277e+00	 4.734250574125308e+00	 1.014888719703417e+01
4	 4.860949487955702e+00	 4.860949487955702e+00	 1.044633453734793e+01
4	 4.707111394677546e+00	 4.864457583436935e+00	 1.041191177583944e+01
4	 4.551766687570416e+00	 4.867833983184804e+00	 1.037753129868544e+01
4	 4.395003837509226e+00	 4.871075309536023e+00	 1.034336476008499e+01
4	 4.236914186144548e+00	 4.874178323841415e+00	 1.030957768103246e+01
4	 4.077591784796399e+00	 4.877139935481522e+00	 1.027632907611912e+01
4	 3.917133221856791e+00	 4.879957210536586e+00	 1.024377107308964e+01
4	 3.755637439295906e+00	 4.882627380064675e+00	 1.021204852764940e+01
4	 3.593205538945659e+00	 4.885147847943205e+00	 1.018129863611134e+01
4	 3.429940579309621e+00	 4.887516198231051e+00	 1.015165054854917e+01
4	 3.265947363718884e+00	 4.889730202010712e+00	 1.012322498518377e+01
4	 5.020711756500083e+00	 5.020711756500083e+00	 1.045077994269480e+01
4	 4.860170849391709e+00	 5.023647566386144e+00	 1.040153322764968e+01
4	 4.698378482233559e+00	 5.026461831708850e+00	 1.035480685209789e+01
4	 4.535410185261464e+00	 5.029152230176174e+00	 1.031087851433714e+01
4	 4.371343400905821e+00	 5.031716547865335e+00	 1.027001440919405e+01
4	 4.206257369560352e+00	 5.034152684265726e+00	 1.023246835418274e+01
4	 4.040233009202079e+00	 5.036458657088063e+00	 1.019848091846806e+01
4	 3.873352789218213e+00	 5.038632606818789e+00	 1.016827856006470e+01
4	 3.705700598829579e+00	 5.040672800999702e+00	 1.014207277688435e+01
4	 3.537361610532220e+00	 5.042577638213827e+00	 1.012005927737957e+01
4	 3.368422139008597e+00	 5.044345651759771e+00	 1.010241717662194e+01
4	 5.180474264688927e+00	 5.180474264688927e+00	 1.043656650251139e+01
4	 5.012812531663974e+00	 5.182665562915681e+00	 1.037563659638054e+01
4	 4.844229906158705e+00	 5.184757757867715e+00	 1.031948673625469e+01
4	 4.674783725484853e+00	 5.186749590047138e+00	 1.026851307031204e+01
4	 4.504532327473494e+00	 5.188639865737305e+00	 1.022309455535443e+01
4	 4.333534986552665e+00	 5.190427458972384e+00	 1.018359135777392e+01
4	 4.161851847533294e+00	 5.192111313399522e+00	 1.015034327106769e+01
4	 3.989543857251744e+00	 5.193690444027668e+00	 1.012366816103764e+01
4	 3.816672694226331e+00	 5.195163938857536e+00	 1.010386045013396e+01
4	 3.643300696493541e+00	 5.196530960387514e+00	 1.009118965261304e+01
4	 3.469490787797442e+00	 5.197790746990702e+00	 1.008589897227163e+01
4	 5.340237012522233e+00	 5.340237012522233e+00	 1.040624366915636e+01
4	 5.164992395278220e+00	 5.341465105225590e+00	 1.033634440876265e+01
4	 4.989241160017692e+00	 5.342633046891175e+00	 1.027328655983208e+01
4	 4.813015964734057e+00	 5.343740454704298e+00	 1.021759962296660e+01
4	 4.636349760357082e+00	 5.344786967991405e+00	 1.016979009555015e+01
4	 4.459275770668197e+00	 5.345772248542158e+00	 1.013033879948721e+01
4	 4.281827471858133e+00	 5.346695980911250e+00	 1.009969823968080e+01
4	 4.104038571752728e+00	 5.347557872699467e+00	 1.007829001580870e+01
4	 3.925942988733542e+00	 5.348357654813471e+00	 1.006650231060775e+01
4	 3.747574830380608e+00	 5.349095081703886e+00	 1.006468747824051e+01
4	 3.568968371865246e+00	 5.349769931581280e+00	 1.007315975637978e+01
4	 5.500000000000000e+00	 5.500000000000000e+00	 1.036217196721475e+01
4	 5.316666804159812e+00	 5.500000000000001e+00	 1.028561018744914e+01
4	 5.133333883319249e+00	 5.500000000000000e+00	 1.021777590161276e+01
4	 4.950001237478313e+00	 5.500000000000001e+00	 1.015934832200757e+01
4	 4.766668866637000e+00	 5.500000000000000e+00	 1.011097803245206e+01
4	 4.583336770795312e+00	 5.500000000000001e+00	 1.007328277275334e+01
4	 4.400004949953249e+00	 5.500000000000000e+00	 1.004684325903396e+01
4	 4.216673404110812e+00	 5.500000000000000e+00	 1.003219908375952e+01
4	 4.033342133268000e+00	 5.500000000000000e+00	 1.002984474085122e+01
4	 3.850011137424812e+00	 5.500000000000000e+00	 1.004022582211864e+01
4	 3.666680416581250e+00	 5.500000000000000e+00	 1.006373543133958e+01
4	 2.632964794876874e+00	 3.955100269993945e+00	 1.037484571104068e+01
4	 2.499579398832469e+00	 3.959415154435287e+00	 1.033163707344464e+01
4	 2.365540556798660e+00	 3.963531228045168e+00	 1.028245992151314e+01
4	 2.230987184019183e+00	 3.967443417284116e+00	 1.022745236288569e+01
4	 2.096059867504354e+00	 3.971147057370076e+00	 1.016676921218221e+01
4	 1.960900378930266e+00	 3.974637910481664e+00	 1.010058198025796e+01
4	 1.825651179233877e+00	 3.977912181786171e+00	 1.002907869605563e+01
4	 1.690454918529739e+00	 3.980966533166001e+00	 9.952463561289385e+00
4	 1.555453935030282e+00	 3.983798094539473e+00	 9.870956440646411e+00
4	 1.420789756661368e+00	 3.986404472695590e+00	 9.784792192699417e+00
4	 1.286602609028050e+00	 3.988783757586930e+00	 9.694219849221112e+00
4	 2.739549128630254e+00	 4.110075893497488e+00	 1.031381979447355e+01
4	 2.600697584791332e+00	 4.113980565660153e+00	 1.027528625467125e+01
4	 2.461182027553491e+00	 4.117701282416173e+00	 1.023103066851607e+01
4	 2.321145605553089e+00	 4.121233489687036e+00	 1.018115938555237e+01
4	 2.180733152726933e+00	 4.124573007972221e+00	 1.012579121234878e+01
4	 2.040090691550676e+00	 4.127716048525584e+00	 1.006505750608762e+01
4	 1.899364927998841e+00	 4.130659227559598e+00	 9.999102157475377e+00
4	 1.758702741885009e+00	 4.133399578366545e+00	 9.928081462440524e+00
4	 1.618250676295858e+00	 4.135934561265616e+00	 9.852163883366298e+00
4	 1.478154429841542e+00	 4.138262071306128e+00	 9.771529701937153e+00
4	 1.338558355407241e+00	 4.140380443678898e+00	 9.686370567030497e+00
4	 2.845991854003976e+00	 4.265807013244679e+00	 1.026166010888980e+01
4	 2.701777179060509e+00	 4.269334396665459e+00	 1.022766945241905e+01
4	 2.556897506487170e+00	 4.272684895786017e+00	 1.018815034580833e+01
4	 2.411496903244537e+00	 4.275854498830709e+00	 1.014318271258145e+01
4	 2.265721072443612e+00	 4.278839543619536e+00	 1.009285613462999e+01
4	 2.119716869071357e+00	 4.281636731386554e+00	 1.003726999450802e+01
4	 1.973631807934052e+00	 4.284243138816882e+00	 9.976533542035916e+00
4	 1.827613567271917e+00	 4.286656228210834e+00	 9.910765884371605e+00
4	 1.681809491548586e+00	 4.288873855701119e+00	 9.840095899404730e+00
4	 1.536366096926746e+00	 4.290894277467394e+00	 9.764662073066086e+00
4	 1.391428582906615e+00	 4.292716153911434e+00	 9.684612261905871e+00
4	 2.952070487653461e+00	 4.421965100518506e+00	 1.021736018592238e+01
4	 2.802596769402773e+00	 4.425133561899730e+00	 1.018780571276266e+01
4	 2.652469691451814e+00	 4.428127850298835e+00	 1.015287392323748e+01
4	 2.501830609200217e+00	 4.430944519904440e+00	 1.011262249533373e+01
4	 2.350822398485360e+00	 4.433580451537987e+00	 1.006711713458620e+01
4	 2.199589005990795e+00	 4.436032863903376e+00	 1.001643173454824e+01
4	 2.048274992812530e+00	 4.438299323263568e+00	 9.960648483729235e+00
4	 1.897025074215196e+00	 4.440377751474111e+00	 9.899857918003764e+00
4	 1.745983658651757e+00	 4.442266432318076e+00	 9.834158917906505e+00
4	 1.595294389127034e+00	 4.443964016101907e+00	 9.763658650665590e+00
4	 1.445099689956604e+00	 4.445469522487395e+00	 9.688472457287670e+00
4	 3.057565307112449e+00	 4.578221672861008e+00	 1.018003174279928e+01
4	 2.902937371158517e+00	 4.581035028773662e+00	 1.015483628145467e+01
4	 2.747683239050069e+00	 4.583675986673228e+00	 1.012437972490331e+01
4	 2.591937636701010e+00	 4.586141690874603e+00	 1.008870067995788e+01
4	 2.435836630145725e+00	 4.588429584287177e+00	 1.004784512171590e+01
4	 2.279517231003674e+00	 4.590537417017512e+00	 1.000186655887270e+01
4	 2.123116996390954e+00	 4.592463253649744e+00	 9.950826159468827e+00
4	 1.966773625726791e+00	 4.594205479154759e+00	 9.894792835951293e+00
4	 1.810624556914225e+00	 4.595762803390413e+00	 9.833843288699647e+00
4	 1.654806564379334e+00	 4.597134264166503e+00	 9.768062007460264e+00
4	 1.499455361432342e+00	 4.598319228860094e+00	 9.697541230444250e+00
4	 3.162260852233277e+00	 4.734250574125308e+00	 1.014888719703417e+01
4	 3.002583995759598e+00	 4.736698308732388e+00	 1.012800568825846e+01
4	 2.842326364208747e+00	 4.738977864606911e+00	 1.010194976695275e+01
4	 2.681611875296483e+00	 4.741086995462417e+00	 1.007074125799078e+01
4	 2.520565550965770e+00	 4.743023715022378e+00	 1.003440953096226e+01
4	 2.359313194441520e+00	 4.744786303057146e+00	 9.992991669200531e+00
4	 2.197981063212666e+00	 4.746373310397627e+00	 9.946532606891457e+00
4	 2.036695539723166e+00	 4.747783562895355e+00	 9.895085232984391e+00
4	 1.875582801574012e+00	 4.749016164306338e+00	 9.838710460833992e+00
4	 1.714768493041906e+00	 4.750070498083841e+00	 9.777477262731210e+00
4	 1.554377399706863e+00	 4.750946228073313e+00	 9.711462668725796e+00
4	 3.265947363718884e+00	 4.889730202010712e+00	 1.012322498518377e+01
4	 3.101327155454016e+00	 4.891787888282268e+00	 1.010664608444322e+01
4	 2.936192378270741e+00	 4.893687356832372e+00	 1.008495364388105e+01
4	 2.770651729709076e+00	 4.895426975052518e+00	 1.005815420193090e+01
4	 2.604814737144463e+00	 4.897005318816253e+00	 1.002626276114944e+01
4	 2.438791517016213e+00	 4.898421176218096e+00	 9.989302969284831e+00
4	 2.272692531454057e+00	 4.899673550616019e+00	 9.947307269732343e+00
4	 2.106628343430503e+00	 4.900761662961669e+00	 9.900317019842481e+00
4	 1.940709371577830e+00	 4.901684953406997e+00	 9.848382575746264e+00
4	 1.775045645810618e+00	 4.902443082180303e+00	 9.791563342579721e+00
4	 1.609746564887756e+00	 4.903035929729383e+00	 9.729927789226133e+00
4	 3.368422139008597e+00	 5.044345651759771e+00	 1.010241717662194e+01
4	 3.198964282613575e+00	 5.045975564271499e+00	 1.009016419828189e+01
4	 3.029081142675272e+00	 5.047466137470148e+00	 1.007283523831713e+01
4	 2.858861578965180e+00	 5.048816327451977e+00	 1.005042231111557e+01
4	 2.688394994012125e+00	 5.050025236305321e+00	 1.002292749686260e+01
4	 2.517771176985342e+00	 5.051092114011632e+00	 9.990363151442205e+00
4	 2.347080146227548e+00	 5.052016359960242e+00	 9.952752079283655e+00
4	 2.176411991017169e+00	 5.052797524070509e+00	 9.910127667177157e+00
4	 2.005856713143488e+00	 5.053435307516978e+00	 9.862533977334525e+00
4	 1.835504068879405e+00	 5.053929563055119e+00	 9.810025798250274e+00
4	 1.665443411933720e+00	 5.054280294947185e+00	 9.752668652218695e+00
4	 3.469490787797442e+00	 5.197790746990702e+00	 1.008589897227162e+01
4	 3.295301044205221e+00	 5.198942650462118e+00	 1.007803040846195e+01
4	 3.120800417590167e+00	 5.199986028450348e+00	 1.006510169198542e+01
4	 2.946053134435075e+00	 5.200920353841052e+00	 1.004709037316877e+01
4	 2.771123699131434e+00	 5.201745179533035e+00	 1.002398631616646e+01
4	 2.596076814754174e+00	 5.202460139113835e+00	 9.995791963437769e+00
4	 2.420977303350995e+00	 5.203064947386919e+00	 9.962522546468346e+00
4	 2.245890025952345e+00	 5.203559400748825e+00	 9.924206239973689e+00
4	 2.070879802509234e+00	 5.203943377415274e+00	 9.880884257257387e+00
4	 1.896011331966317e+00	 5.204216837495710e+00	 9.832610884872890e+00
4	 1.721349112677032e+00	 5.204379822916263e+00	 9.779453455247529e+00
4	 3.568968371865246e+00	 5.349769931581280e+00	 1.007315975637978e+01
4	 3.390152534649290e+00	 5.350382025934917e+00	 1.006976953900986e+01
4	 3.211167087631663e+00	 5.350931171763977e+00	 1.006131419834377e+01
4	 3.032046678237216e+00	 5.351417219622117e+00	 1.004775618062242e+01
4	 2.852826033240566e+00	 5.351840044459159e+00	 1.002907312442338e+01
4	 2.673539936345180e+00	 5.352199545721794e+00	 1.000525821624377e+01
4	 2.494223205689763e+00	 5.352495647430591e+00	 9.976320461871991e+00
4	 2.314910671312450e+00	 5.352728298233155e+00	 9.942284869397746e+00
4	 2.135637152603462e+00	 5.352897471433399e+00	 9.903192540587096e+00
4	 1.956437435776846e+00	 5.353003164996831e+00	 9.859100668293650e+00
4	 1.777346251391887e+00	 5.353045401531937e+00	 9.810082438576451e+00
4	 3.666680416581250e+00	 5.500000000000000e+00	 1.006373543133958e+01
4	 3.483344333265000e+00	 5.500000000000000e+00	 1.006495305944825e+01
4	 3.300008249948749e+00	 5.499999999999999e+00	 1.006108027082726e+01
4	 3.116672166632500e+00	 5.500000000000001e+00	 1.005206304351435e+01
4	 2.933336083316251e+00	 5.500000000000000e+00	 1.003786605773085e+01
4	 2.750000000000000e+00	 5.500000000000000e+00	 1.001847319308195e+01
4	 2.566663916683750e+00	 5.499999999999999e+00	 9.993887892871996e+00
4	 2.383327833367501e+00	 5.500000000000000e+00	 9.964133388982114e+00
4	 2.199991750051251e+00	 5.500000000000000e+00	 9.929252782552815e+00
4	 2.016655666735001e+00	 5.500000000000000e+00	 9.889308977630177e+00
4	 1.833319583418750e+00	 5.500000000000000e+00	 9.844384466940207e+00
4	 1.286602609028050e+00	 3.988783757586930e+00	 9.694219849221110e+00
4	 1.153034834063843e+00	 3.990934461688351e+00	 9.533558985537745e+00
4	 1.020218484184945e+00	 3.992855721412790e+00	 9.393760562674949e+00
4	 8.882870389915808e-01	 3.994547088221839e+00	 9.275088653665803e+00
4	 7.573708409955453e-01	 3.996008596241272e+00	 9.177758970490027e+00
4	 6.275966857843304e-01	 3.997240755887419e+00	 9.101938384028058e+00
4	 4.990874372817631e-01	 3.998244545138590e+00	 9.047744983403515e+00
4	 3.719616703643476e-01	 3.999021398562439e+00	 9.015248674802240e+00
4	 2.463333427753525e-01	 3.999573194228973e+00	 9.004472312689337e+00
4	 1.223114979469505e-01	 3.999902238655449e+00	 9.015393349573079e+00
4	 0.000000000000000e+00	 4.000011249943750e+00	 9.047945984273875e+00
4	 1.338558355407241e+00	 4.140380443678898e+00	 9.686370567030499e+00
4	 1.199609027063123e+00	 4.142288399657368e+00	 9.537866977839265e+00
4	 1.061442344274345e+00	 4.143985225323287e+00	 9.408366766392939e+00
4	 9.241957302716574e-01	 4.145470585582656e+00	 9.298161004126698e+00
4	 7.880033930345438e-01	 4.146744584022641e+00	 9.207514100326780e+00
4	 6.529959074205121e-01	 4.147807756929683e+00	 9.136663279433730e+00
4	 5.192998227076752e-01	 4.148661065193036e+00	 9.085818395675336e+00
4	 3.870372978355472e-01	 4.149305884194254e+00	 9.055162092575687e+00
4	 2.563257663111568e-01	 4.149743991799631e+00	 9.044850311670102e+00
4	 1.272776324150433e-01	 4.149977554587447e+00	 9.055013151636958e+00
4	 0.000000000000000e+00	 4.150009112454438e+00	 9.085756076126438e+00
4	 1.391428582906615e+00	 4.292716153911434e+00	 9.684612261905873e+00
4	 1.247144567607312e+00	 4.294338503027423e+00	 9.547191743974604e+00
4	 1.103650727257306e+00	 4.295760852543197e+00	 9.427114324090200e+00
4	 9.610854898435076e-01	 4.296983080022059e+00	 9.324691932228998e+00
4	 8.195841414818283e-01	 4.298005463482552e+00	 9.240226085279721e+00
4	 6.792784169852106e-01	 4.298828675498542e+00	 9.174007430172161e+00
4	 5.402961145223392e-01	 4.299453775437642e+00	 9.126315499537395e+00
4	 4.027607365585346e-01	 4.299882199928094e+00	 9.097418689120191e+00
4	 2.667911589773984e-01	 4.300115751658342e+00	 9.087574464953370e+00
4	 1.325013299747292e-01	 4.300156586626039e+00	 9.097029807103299e+00
4	 0.000000000000000e+00	 4.300007199964000e+00	 9.126021895647938e+00
4	 1.445099689956604e+00	 4.445469522487395e+00	 9.688472457287672e+00
4	 1.295544690275905e+00	 4.446782301876902e+00	 9.561185807547671e+00
4	 1.146763425830186e+00	 4.447902158924506e+00	 9.449752647340205e+00
4	 9.988920403728458e-01	 4.448829220648334e+00	 9.354501076955799e+00
4	 8.520637586426676e-01	 4.449563977152108e+00	 9.275760823385017e+00
4	 7.064085025222832e-01	 4.450107275812671e+00	 9.213862848756495e+00
4	 5.620525284618862e-01	 4.450460313878051e+00	 9.169139088850230e+00
4	 4.191180881474670e-01	 4.450624629554059e+00	 9.141922330077950e+00
4	 2.777231141464766e-01	 4.450602091668688e+00	 9.132546233043744e+00
4	 1.379809320046779e-01	 4.450394888013833e+00	 9.141345510502070e+00
4	 0.000000000000000e+00	 4.450005512472437e+00	 9.168656267237866e+00
4	 1.499455361432342e+00	 4.598319228860094e+00	 9.697541230444244e+00
4	 1.344709729820958e+00	 4.599317364121700e+00	 9.579545658112496e+00
4	 1.190697310947138e+00	 4.600128730535634e+00	 9.476060620028786e+00
4	 1.037548324859361e+00	 4.600753679385593e+00	 9.387426872073508e+00
4	 8.853904307914610e-01	 4.601192883604083e+00	 9.313995592766393e+00
4	 7.343483855973333e-01	 4.601447332335733e+00	 9.256127998401816e+00
4	 5.845437194724916e-01	 4.601518324207729e+00	 9.214195027171396e+00
4	 4.360944306245528e-01	 4.601407459370106e+00	 9.188577098929121e+00
4	 2.891147003684812e-01	 4.601116630377211e+00	 9.179663957354153e+00
4	 1.437146299255105e-01	 4.600648011989287e+00	 9.187854601338435e+00
4	 0.000000000000000e+00	 4.600004049979750e+00	 9.213557312476855e+00
4	 1.554377399706863e+00	 4.750946228073313e+00	 9.711462668725796e+00
4	 1.394537797838895e+00	 4.751643276493033e+00	 9.602006373598138e+00
4	 1.235366860342370e+00	 4.752161891231754e+00	 9.505843594938472e+00
4	 1.076984898820851e+00	 4.752502570542606e+00	 9.423325206249690e+00
4	 9.195101307106810e-01	 4.752666085006587e+00	 9.354818808972045e+00
4	 7.630583947333502e-01	 4.752653472912856e+00	 9.300708268459353e+00
4	 6.077428790343261e-01	 4.752466034663516e+00	 9.261393267801559e+00
4	 4.536738632784685e-01	 4.752105326247876e+00	 9.237288884508862e+00
4	 3.009584758489277e-01	 4.751573151837030e+00	 9.228825195324683e+00
4	 1.497004671653482e-01	 4.750871555554833e+00	 9.236446914654454e+00
4	 0.000000000000000e+00	 4.750002812485938e+00	 9.260613072281135e+00
4	 1.609746564887756e+00	 4.903035929729383e+00	 9.729927789226135e+00
4	 1.444925473259588e+00	 4.903463582471950e+00	 9.628337076409359e+00
4	 1.280684703067896e+00	 4.903726375745886e+00	 9.538930765204450e+00
4	 1.117130338416399e+00	 4.903824844223170e+00	 9.462068149763097e+00
4	 9.543669042334271e-01	 4.903759736143379e+00	 9.398129656252225e+00
4	 7.924971496810279e-01	 4.903532009913532e+00	 9.347516204332027e+00
4	 6.316218396737749e-01	 4.903142830053298e+00	 9.310648540115936e+00
4	 4.718395553582280e-01	 4.902593562512680e+00	 9.287966544936667e+00
4	 3.132465043359788e-01	 4.901885769392728e+00	 9.279928524628872e+00
4	 1.559363413403614e-01	 4.901021203102825e+00	 9.287010484386769e+00
4	 0.000000000000000e+00	 4.900001799991001e+00	 9.309705394557430e+00
4	 1.665443411933720e+00	 5.054280294947185e+00	 9.752668652218695e+00
4	 1.495768497007342e+00	 5.054487651412894e+00	 9.658337089668958e+00
4	 1.326562172895668e+00	 5.054551947568656e+00	 9.575172871311800e+00
4	 1.157911659558880e+00	 5.054473637769242e+00	 9.503542766925346e+00
4	 9.899031676519628e-01	 5.054253323636132e+00	 9.443837644079139e+00
4	 8.226217547559919e-01	 5.053891752044932e+00	 9.396471559487072e+00
4	 6.561511858221866e-01	 5.053389812750257e+00	 9.361880778968654e+00
4	 4.905737982943804e-01	 5.052748535660522e+00	 9.340522731430021e+00
4	 3.259703723470616e-01	 5.051969087776579e+00	 9.332874902887994e+00
4	 1.624200066452947e-01	 5.051052769809601e+00	 9.339433677111357e+00
4	 0.000000000000000e+00	 5.050001012494939e+00	 9.360713129942145e+00
4	 1.721349112677032e+00	 5.204379822916263e+00	 9.779453455247527e+00
4	 1.546962461312571e+00	 5.204432454868308e+00	 9.691832684156058e+00
4	 1.372909863421311e+00	 5.204374942214292e+00	 9.614440207179120e+00
4	 1.199254742984974e+00	 5.204207570352684e+00	 9.547650024317999e+00
4	 1.026060012754443e+00	 5.203930704691240e+00	 9.491862125915087e+00
4	 8.533879993910858e-01	 5.203544789830318e+00	 9.447501221509183e+00
4	 6.813003701260399e-01	 5.203050348605400e+00	 9.415015358901410e+00
4	 5.098580611149284e-01	 5.202447980992325e+00	 9.394874442518269e+00
4	 3.391212076580887e-01	 5.201738362879111e+00	 9.387568661093923e+00
4	 1.691490764483843e-01	 5.200922244708761e+00	 9.393606835510051e+00
4	 0.000000000000000e+00	 5.200000449997751e+00	 9.413514698322036e+00
4	 1.777346251391887e+00	 5.353045401531937e+00	 9.810082438576449e+00
4	 1.598403484494257e+00	 5.353024228415138e+00	 9.728674326125065e+00
4	 1.419638177849710e+00	 5.352939718186220e+00	 9.656620892303375e+00
4	 1.241084760269700e+00	 5.352791967028985e+00	 9.594303798911906e+00
4	 1.062777516210880e+00	 5.352581095457479e+00	 9.542131806591051e+00
4	 8.847505639975405e-01	 5.352307248179333e+00	 9.500539051800271e+00
4	 7.070378342721669e-01	 5.351970593936116e+00	 9.469983182311292e+00
4	 5.296730487024414e-01	 5.351571325321015e+00	 9.450943367326595e+00
4	 3.526896989723637e-01	 5.351109658574176e+00	 9.443918199597883e+00
4	 1.761210260845452e-01	 5.350585833356086e+00	 9.449423507923559e+00
4	 0.000000000000000e+00	 5.350000112499440e+00	 9.467990099136957e+00
4	 1.833319583418750e+00	 5.500000000000000e+00	 9.844384466940207e+00
4	 1.649988862575188e+00	 5.500000000000000e+00	 9.768734352235160e+00
4	 1.466657866732000e+00	 5.500000000000000e+00	 9.701619380539716e+00
4	 1.283326595889187e+00	 5.499999999999999e+00	 9.643429986196656e+00
4	 1.099995050046749e+00	 5.500000000000000e+00	 9.594584256778079e+00
4	 9.166632292046866e-01	 5.500000000000000e+00	 9.555525668890086e+00
4	 7.333311333629988e-01	 5.500000000000000e+00	 9.526720660376926e+00
4	 5.499987625216860e-01	 5.500000000000000e+00	 9.508656066119158e+00
4	 3.666661166807482e-01	 5.500000000000000e+00	 9.501836446003177e+00
4	 1.833331958401853e-01	 5.500000000000000e+00	 9.506781334494208e+00
4	 0.000000000000000e+00	 5.500000000000000e+00	 9.524022441565146e+00
