label=Stress xy
num_items=4608

0:1.6026909716071571e-003
1:-6.8723057573674112e-002
2:-6.1804773205969402e-002
3:1.9125979388353958e-002
4:7.9080723998794400e-002
5:5.4268548145684371e-003
6:-3.6842426888877677e-002
7:-2.7982931539254883e-002
8:8.2842115391017226e-002
9:3.6712720284239692e-002
10:-2.8155399693785964e-002
11:-8.1462026360272083e-002
12:1.1129900711911268e-002
13:1.0520757056408682e-002
14:-3.9801444789126665e-002
15:-1.1633095661009372e-001
16:8.4441204992542790e-002
17:1.6416077393385831e-001
18:1.6626593422988922e-001
19:8.9773355142807931e-002
20:2.5140830431842104e-003
21:5.7190893404745506e-003
22:-1.7938336660713466e-001
23:-4.6633101638054369e-001
24:-4.0615726948676191e-002
25:4.0224646165028591e-002
26:-1.5758854614585555e-001
27:-5.4165578793290980e-001
28:-2.4802078410912649e-002
29:2.5155972894641609e-001
30:2.2146992768194096e-001
31:-1.0101638790379124e-001
32:4.6078104980101370e-002
33:-2.7418350404509062e-001
34:-1.3466123148785749e+000
35:-2.6702715504907388e+000
36:-5.4682867210606467e-001
37:-6.1259254721200784e-001
38:-1.0078320478401497e+000
39:-1.5479288575116836e+000
40:-7.0142151147138831e-001
41:-7.2988815962065767e-001
42:-6.2615278448784373e-001
43:-4.3867069047921559e-001
44:-3.4548933679898591e-001
45:-5.7128098327716414e-001
46:-3.7985878771285880e-001
47:1.3936299998825435e-001
48:-3.5148652671784921e+000
49:-4.2227568647657661e+000
50:-3.0984177575075358e+000
51:-6.6703227744400218e-001
52:-1.9872856243502972e+000
53:-2.2882131973865500e+000
54:-1.0720750032794197e+000
55:1.0930648205434828e+000
56:-4.8984810627321002e-001
57:-4.9250288296728156e-001
58:5.3979687057369929e-001
59:2.1248588575338880e+000
60:2.7798685058261657e-001
61:3.2558895047509501e-001
62:9.8428457664665614e-001
63:1.9463937594017502e+000
64:1.0606762028193888e+000
65:3.9132146226693258e+000
66:6.8332987680045481e+000
67:8.4569429591764393e+000
68:2.4182154860055274e+000
69:4.2482900201827016e+000
70:5.9224894487499995e+000
71:6.6587869766612409e+000
72:2.9440549641495615e+000
73:3.7451252014847092e+000
74:4.1917661497914347e+000
75:4.0753496233346649e+000
76:2.3925724283407583e+000
77:2.6387509304331180e+000
78:2.4495582442977413e+000
79:1.9133672050103390e+000
80:9.0965899444457072e+000
81:9.5273711698205155e+000
82:8.4658085707247999e+000
83:6.4077632631918799e+000
84:6.9066355063949336e+000
85:6.8644142072263383e+000
86:5.5352063015608977e+000
87:3.5398913457290981e+000
88:3.9922815382959911e+000
89:3.7044551920155522e+000
90:2.5107893099788345e+000
91:9.6885110201578906e-001
92:1.7148371258011934e+000
93:1.5235265364422572e+000
94:8.0527766173216986e-001
95:-1.0441191306484428e-001
96:5.0060529753454857e+000
97:2.8970287923643250e+000
98:1.1182054125718621e+000
99:5.0047999368766971e-001
100:2.4534024098779397e+000
101:1.2212076368725604e+000
102:3.5781759595239454e-001
103:2.6652602563783567e-001
104:3.0106240698754899e-001
105:-1.3078222207777007e-001
106:-2.4817734876442152e-001
107:3.7128685306239404e-003
108:-4.4559842216179585e-001
109:-5.2741966562289078e-001
110:-4.1671619963218387e-001
111:-1.6519815813906538e-001
112:3.7850048281660104e-001
113:1.7538757871070318e-001
114:2.1236245021241169e-002
115:-1.1948671409593999e-002
116:2.7096342024061604e-001
117:1.0992146635787253e-001
118:5.4145589690899089e-003
119:6.2583889954982022e-003
120:8.6210678886399300e-002
121:-2.3273842517048064e-003
122:-1.9082068119870441e-002
123:4.3772822598812031e-002
124:-8.9458826235138844e-002
125:-1.0892698240533764e-001
126:-4.0811141137267012e-002
127:8.3071452783405081e-002
128:-4.1188830683200842e-003
129:8.2129538895977430e-003
130:1.5873103269969387e-002
131:1.5283471586865308e-002
132:2.1624437870866032e-002
133:3.1952144455468470e-002
134:4.0633621621323432e-002
135:4.3613708645981034e-002
136:7.1981774759482378e-002
137:7.3378833153140935e-002
138:7.5152479483073603e-002
139:7.6474234817040840e-002
140:1.2343096763134601e-001
141:1.1314240975134984e-001
142:1.0330574841416308e-001
143:9.8515736555554248e-002
144:1.2214996936197060e-002
145:6.4001770765675144e-003
146:2.5206211665429325e-003
147:2.3884888704693847e-003
148:4.1423858970537422e-002
149:3.3506418428814466e-002
150:2.6173705323772882e-002
151:2.2850866045196285e-002
152:7.4223219128333559e-002
153:6.5346418859440744e-002
154:5.5835886627810492e-002
155:5.0134038858502462e-002
156:9.5292334811009391e-002
157:8.7047557421285060e-002
158:7.7651814166769473e-002
159:7.1493902976210125e-002
160:3.4086897274104785e-003
161:5.2080060045185186e-003
162:6.1302863352171002e-003
163:5.7447290367161584e-003
164:2.2532397053049238e-002
165:2.3007236832529299e-002
166:2.2699797316007648e-002
167:2.1753685015170204e-002
168:4.8444521574415401e-002
169:4.6816725112072889e-002
170:4.4416142814534307e-002
171:4.2364098490860883e-002
172:6.9041382364057005e-002
173:6.5514941655395495e-002
174:6.1135510940423111e-002
175:5.7948743865729985e-002
176:5.1486572850331499e-003
177:4.1274191093174633e-003
178:3.3410025467168424e-003
179:3.1567466450723287e-003
180:2.0843677753177949e-002
181:1.9000427895383830e-002
182:1.7154626734576978e-002
183:1.6168457079718191e-002
184:4.0959542058500734e-002
185:3.8099539790968459e-002
186:3.4944266987345020e-002
187:3.2967567107383404e-002
188:5.6100030955044247e-002
189:5.2503465606107511e-002
190:4.8400294765844419e-002
191:4.5707129733346223e-002
192:3.1869337878797002e-003
193:3.2019220674790482e-003
194:3.0965925952425384e-003
195:2.9201452861820410e-003
196:1.5760007126026907e-002
197:1.4967017687439374e-002
198:1.3906834312507407e-002
199:1.3074673874872527e-002
200:3.2013078023926382e-002
201:3.0208712971322705e-002
202:2.7958566573357952e-002
203:2.6313693289836265e-002
204:4.4354257052478648e-002
205:4.1807537018275831e-002
206:3.8688156063102261e-002
207:3.6453192387606574e-002
208:2.7913988301481348e-003
209:2.5551337088200081e-003
210:2.2893167029691677e-003
211:2.1181122446045858e-003
212:1.2598485588990281e-002
213:1.1690410036596427e-002
214:1.0591424442926687e-002
215:9.8148703890053018e-003
216:2.5393042968535135e-002
217:2.3598856260899640e-002
218:2.1400311078852072e-002
219:1.9824358700203690e-002
220:3.5198670230118641e-002
221:3.2717978525945858e-002
222:2.9667092451739790e-002
223:2.7471095912058121e-002
224:2.0187778327347161e-003
225:1.8022008974676847e-003
226:1.5265048514466544e-003
227:1.3204686749930304e-003
228:9.3381775307866764e-003
229:8.3000697009210627e-003
230:6.9705636700372687e-003
231:5.9706782502186992e-003
232:1.8861060683679230e-002
233:1.6782221203757122e-002
234:1.4118412188804563e-002
235:1.2113911943442489e-002
236:2.6139241690228705e-002
237:2.3286600681991270e-002
238:1.9631255176307739e-002
239:1.6880635053876918e-002
240:1.1881123722046743e-003
241:8.7900804077317718e-004
242:4.3888366354093373e-004
243:7.3323503832197021e-005
244:5.3306908137214573e-003
245:3.9014485890921679e-003
246:1.9969070090464620e-003
247:5.0668682154007317e-004
248:1.0825365057508578e-002
249:7.9551505234302360e-003
250:4.1666934785167193e-003
251:1.2296008587454235e-003
252:1.5105545714419282e-002
253:1.1146609714174058e-002
254:5.9347251303589581e-003
255:1.9043889098104621e-003
256:-5.3175606468157277e-002
257:-2.2750750224720544e-002
258:-5.6022803056445407e-002
259:-1.3745022528972919e-001
260:-1.7893701944977364e-001
261:2.6615111783134308e-002
262:1.7870817065063227e-001
263:2.0629874061260953e-001
264:-3.3619535001493472e-001
265:3.7706933471577536e-001
266:1.1353167015296584e+000
267:1.5843656725911348e+000
268:-4.5149445778529290e-001
269:8.6491302578063323e-001
270:2.3669662354925936e+000
271:3.3530487225950738e+000
272:-7.9880541683940067e-003
273:4.3185388497346289e-001
274:6.3012828216160477e-001
275:4.9422019037896808e-001
276:3.9075802701609297e-001
277:1.0067676441003086e+000
278:1.5788203814569965e+000
279:1.8397075892926931e+000
280:1.8092573430405552e+000
281:2.2583391836444155e+000
282:2.8003845710327404e+000
283:3.1822014363062960e+000
284:3.5849218802206675e+000
285:3.6019532760887762e+000
286:3.7242222042660615e+000
287:3.8946162464798380e+000
288:2.6987401211849338e-001
289:-4.3304380757838205e-002
290:1.0533801652038945e-001
291:6.4636960842877145e-001
292:1.7338008350074214e+000
293:1.3749480454268537e+000
294:1.3862040320423257e+000
295:1.7623110680933518e+000
296:3.1003171666611768e+000
297:2.5888534845395434e+000
298:2.2994953274185890e+000
299:2.3674033149787448e+000
300:3.7311165013034584e+000
301:3.0313907300022174e+000
302:2.4186090425120859e+000
303:2.1790047817395219e+000
304:7.8361792373121131e-001
305:7.0653534007145258e-001
306:1.0417831144511431e+000
307:1.6327653610570494e+000
308:1.7819535363685830e+000
309:1.3920333745925912e+000
310:1.1549243137075880e+000
311:1.1813811633236764e+000
312:2.2767365770086210e+000
313:1.7335495821407647e+000
314:1.0822464951382795e+000
315:6.2705419425790598e-001
316:2.0368514515873217e+000
317:1.5715600609106910e+000
318:8.5769782558457708e-001
319:2.2871331002184264e-001
320:1.9121730588974191e+000
321:1.9932352904322259e+000
322:1.6406996110047585e+000
323:1.0192371719831892e+000
324:1.2398825986568951e+000
325:1.1707688585536555e+000
326:7.2963516847302878e-001
327:1.2253724672085106e-001
328:4.9250814059336345e-001
329:3.2974386686162510e-001
330:-9.3529291422099953e-002
331:-5.7959835828041040e-001
332:1.9151973338574990e-002
333:-1.3699277071945828e-001
334:-4.4428959708465554e-001
335:-7.5919864536182746e-001
336:8.3498159606942379e-001
337:8.0875958687910632e-001
338:4.2030788448733503e-001
339:-1.4892580859912735e-001
340:1.9867354048837601e-002
341:2.7389922749696699e-001
342:3.3096280317015336e-001
343:1.6440340395160555e-001
344:-6.0318501146842651e-001
345:-1.8848166632698055e-001
346:1.8241121193074022e-001
347:3.3624773399179941e-001
348:-7.4314467330763190e-001
349:-3.6240270281994874e-001
350:4.4042290345738526e-002
351:2.8633784898249770e-001
352:-3.7610341418652438e-001
353:-4.4977699911323088e-001
354:-4.0226011708529602e-001
355:-2.5574813762013326e-001
356:2.5750274253395312e-002
357:-1.7240650453803630e-001
358:-3.3575637945228737e-001
359:-3.8799781975731884e-001
360:2.9024889886817362e-001
361:4.8919041601682658e-002
362:-2.3397460628711855e-001
363:-4.2629102920445289e-001
364:2.9384384999268870e-001
365:1.1081738713444728e-001
366:-1.4445756489953163e-001
367:-3.5274081931408630e-001
368:-2.0470483927292552e-001
369:-1.8185413586520005e-001
370:-6.1117359650628422e-002
371:1.0110874682256524e-001
372:-3.7791634356615816e-001
373:-2.9152553906385203e-001
374:-9.2373132978821243e-002
375:1.2651580539375895e-001
376:-4.4977117484785262e-001
377:-3.2510344565360638e-001
378:-8.1863916687162766e-002
379:1.6632903062068516e-001
380:-3.8670558769020785e-001
381:-2.6690345016478795e-001
382:-3.4498617441595526e-002
383:2.0195146900222777e-001
384:1.4977668776272143e-001
385:1.3377910319963016e-001
386:1.1735027632221270e-001
387:1.0816419304283149e-001
388:1.8806669520389799e-001
389:1.6546793509707916e-001
390:1.4000477786159685e-001
391:1.2357118959542163e-001
392:2.3310118701909927e-001
393:2.0302746007015268e-001
394:1.6726143648065819e-001
395:1.4250960194281218e-001
396:2.6384433037990851e-001
397:2.2891343910110709e-001
398:1.8638853275587727e-001
399:1.5613320444510670e-001
400:1.0407889872669904e-001
401:9.6525383771406570e-002
402:8.7771813811256719e-002
403:8.1907024467827466e-002
404:1.1786913229842570e-001
405:1.1156140661544470e-001
406:1.0416829745610508e-001
407:9.9143162504476468e-002
408:1.3502332164233988e-001
409:1.3042375896431746e-001
410:1.2491364457158412e-001
411:1.2106678002288367e-001
412:1.4752866046706889e-001
413:1.4430174317786801e-001
414:1.4031760139221230e-001
415:1.3743724735181878e-001
416:7.9218920913059654e-002
417:7.4722548708923989e-002
418:6.9310180030844229e-002
419:6.5509958933053641e-002
420:9.6182664995701689e-002
421:9.0093621262053877e-002
422:8.2977675453129049e-002
423:7.8158720887558458e-002
424:1.1776729321745473e-001
425:1.0957908400402598e-001
426:1.0021281974977948e-001
427:9.4043528597306317e-002
428:1.3389051947637287e-001
429:1.2407718136254443e-001
430:1.1296499217246048e-001
431:1.0574451018132031e-001
432:6.3440622117615628e-002
433:5.9528112239119656e-002
434:5.5004520121851544e-002
435:5.1982837913104339e-002
436:7.5751612835316159e-002
437:7.1414004519688892e-002
438:6.6291884854203884e-002
439:6.2777821150434565e-002
440:9.1220167619290013e-002
441:8.6440837560487246e-002
442:8.0685126527932430e-002
443:7.6641555479874057e-002
444:1.0262084837937399e-001
445:9.7589503672154645e-002
446:9.1461091100353817e-002
447:8.7098222345984258e-002
448:5.0440684553771951e-002
449:4.7537030910684695e-002
450:4.4002916984864401e-002
451:4.1489144789250844e-002
452:6.0925298163700313e-002
453:5.7406418530640942e-002
454:5.3161549371328297e-002
455:5.0173489967262126e-002
456:7.4414185814148825e-002
457:7.0092656622527408e-002
458:6.4920513713698821e-002
459:6.1313690502468036e-002
460:8.4606621678780580e-002
461:7.9669940920202076e-002
462:7.3787139879133545e-002
463:6.9706103882469131e-002
464:4.0071966689213222e-002
465:3.7245499997863044e-002
466:3.3760876034733822e-002
467:3.1245779807559364e-002
468:4.8482299161732002e-002
469:4.5072272907049508e-002
470:4.0848219605878554e-002
471:3.7783215349895337e-002
472:5.9279927718500179e-002
473:5.5164533251143941e-002
474:5.0048813853080937e-002
475:4.6322347239461714e-002
476:6.7421226904706005e-002
477:6.2808136539946477e-002
478:5.7065015909617302e-002
479:5.2874504933118904e-002
480:2.9724727406552215e-002
481:2.6477677797946120e-002
482:2.2316954961943258e-002
483:1.9186053018169526e-002
484:3.5929116058355019e-002
485:3.1979765195805858e-002
486:2.6919263637938003e-002
487:2.3111396574918407e-002
488:4.4059538051736312e-002
489:3.9234780900758368e-002
490:3.3053683405093140e-002
491:2.8403466634061188e-002
492:5.0318233248112555e-002
493:4.4853871361107779e-002
494:3.7854796590863535e-002
495:3.2590311218487544e-002
496:1.7160279536911689e-002
497:1.2634593137285705e-002
498:6.6777168555075461e-003
499:2.0721369280583650e-003
500:2.0639377413848713e-002
501:1.5101420079430048e-002
502:7.8059687448745517e-003
503:2.1607646435337752e-003
504:2.5382043044206277e-002
505:1.8605633399501359e-002
506:9.6710659920251595e-003
507:2.7517212420368419e-003
508:2.9172953964246903e-002
509:2.1510397804709074e-002
510:1.1401812491070754e-002
511:3.5689679871568512e-003
512:-4.8490274517708781e-001
513:1.1779672640066545e+000
514:3.1429171124444713e+000
515:4.4921090526254073e+000
516:1.6551320264112693e-001
517:2.0910204392013951e+000
518:4.4825224030161976e+000
519:6.2229367535968541e+000
520:2.5892099703716172e+000
521:4.1049618739062161e+000
522:6.0712925911081825e+000
523:7.5697193638689191e+000
524:5.6540668661239835e+000
525:6.2790696094828169e+000
526:7.1671053004622101e+000
527:7.9033680960703645e+000
528:4.7372446904617860e+000
529:4.4581173395345433e+000
530:4.2456251169634633e+000
531:4.1990241859953068e+000
532:6.4519926030549373e+000
533:5.7069777399746684e+000
534:4.9365209805438832e+000
535:4.5005064699954760e+000
536:7.6066878651610388e+000
537:6.3640764100069092e+000
538:5.0094856993302113e+000
539:4.1756517226398993e+000
540:7.6619666353692697e+000
541:6.1224793260100894e+000
542:4.4304370939773303e+000
543:3.3762011956547386e+000
544:3.9512917421530900e+000
545:3.1118055890625382e+000
546:2.2718483773060325e+000
547:1.8237682555434953e+000
548:4.1171566394299735e+000
549:3.0990094528575867e+000
550:1.9355069233705975e+000
551:1.1701268103309901e+000
552:3.7196572726857058e+000
553:2.7495818428424541e+000
554:1.5307972451435508e+000
555:6.3260376516237560e-001
556:2.9444675529871005e+000
557:2.2267421158620024e+000
558:1.2467612256811473e+000
559:4.6227878062289612e-001
560:1.6515348152444689e+000
561:1.2789856375105422e+000
562:6.3454846265744036e-001
563:1.9243067576540190e-002
564:9.4785461384935010e-001
565:7.3052767065223057e-001
566:2.5923254180189786e-001
567:-2.4588649786390362e-001
568:4.1516379533960501e-001
569:3.8233989802213481e-001
570:1.1343751662391667e-001
571:-2.6593772271701777e-001
572:3.0228486343941546e-001
573:3.9706254231893851e-001
574:2.6526496112247039e-001
575:-3.1544581143180740e-002
576:-1.7627707373809523e-001
577:-2.5951620068395131e-001
578:-4.4280651791275027e-001
579:-6.4053221592198473e-001
580:-3.7178111902780531e-001
581:-2.9107951243458546e-001
582:-2.5940713173031194e-001
583:-2.9155830186278719e-001
584:-3.4373491465540285e-001
585:-1.9153761179471765e-001
586:-6.5192712361957020e-002
587:-2.3716540868948682e-002
588:-1.0523898075266702e-001
589:-7.3870105907851537e-003
590:4.9118228801845187e-002
591:3.7882861933734274e-002
592:-6.1570051276615922e-001
593:-3.1682143796627804e-001
594:1.7345748319668793e-002
595:2.3070990829668245e-001
596:-2.7004064391335769e-001
597:-1.2867784798322407e-001
598:4.9704951545960559e-002
599:1.8178427084851861e-001
600:-2.5851803184070682e-002
601:-2.0144362610654165e-002
602:4.6130325413982605e-002
603:1.4201502784804410e-001
604:2.8041997930912527e-003
605:-4.1917507168577929e-002
606:8.2915953876073045e-003
607:1.2997858848187932e-001
608:2.4551496788999347e-001
609:1.0009067981896197e-001
610:-1.1604767841275665e-001
611:-3.0194081564166325e-001
612:1.8707292149157009e-001
613:7.0993729670885561e-002
614:-9.5650319200821524e-002
615:-2.3501896951900841e-001
616:1.5144466682717192e-001
617:6.5932550128841111e-002
618:-4.6207796045058147e-002
619:-1.3259506393790615e-001
620:1.5527233704585483e-001
621:8.7271243072739285e-002
622:9.1850450865197230e-003
623:-4.2511809420748517e-002
624:-3.3200748893954679e-001
625:-2.1841255882007007e-001
626:-3.4189793435213589e-004
627:2.2034261447183548e-001
628:-2.5012012013414670e-001
629:-1.3957067053541752e-001
630:5.5611123591063384e-002
631:2.4425488534299070e-001
632:-1.3238481179354311e-001
633:-3.3905515829297433e-002
634:1.2084882927331210e-001
635:2.5959170707243368e-001
636:-3.3796306046020630e-002
637:4.9226191353163334e-002
638:1.6489836562772384e-001
639:2.5918917472828240e-001
640:2.7672829018165329e-001
641:2.3945124661326628e-001
642:1.9370037772377291e-001
643:1.6084613959967051e-001
644:2.8947230699143922e-001
645:2.5020503036659653e-001
646:2.0166027464224279e-001
647:1.6651353419953346e-001
648:2.8962200286003353e-001
649:2.5354405926730972e-001
650:2.0890321658840877e-001
651:1.7655143220227731e-001
652:2.7710745411027993e-001
653:2.4790865647808211e-001
654:2.1204598972273814e-001
655:1.8627108203497794e-001
656:1.5172518279501493e-001
657:1.4923814867349611e-001
658:1.4624219974925515e-001
659:1.4413675851364507e-001
660:1.5688849110998768e-001
661:1.5503288015217875e-001
662:1.5321147175840436e-001
663:1.5227505475605885e-001
664:1.6734359510169403e-001
665:1.6455987398368574e-001
666:1.6198511914621996e-001
667:1.6082201124921158e-001
668:1.7820686422588930e-001
669:1.7336902444861485e-001
670:1.6846492802582205e-001
671:1.6578530253910043e-001
672:1.4064231781198924e-001
673:1.3026496882768038e-001
674:1.1847458256350191e-001
675:1.1077850648666178e-001
676:1.4909320196725978e-001
677:1.3850574361835788e-001
678:1.2628328036083430e-001
679:1.1813498495257192e-001
680:1.5775363458520916e-001
681:1.4753923620349901e-001
682:1.3559744058306461e-001
683:1.2750631924679531e-001
684:1.6257828495530971e-001
685:1.5314585772535483e-001
686:1.4206637313744697e-001
687:1.3451511298610383e-001
688:1.0750961157611254e-001
689:1.0238923685524676e-001
690:9.6155891641908672e-002
691:9.1721202171545127e-002
692:1.1467112298552079e-001
693:1.0937400809126425e-001
694:1.0299609276527677e-001
695:9.8516532654340891e-002
696:1.2393074763122447e-001
697:1.1829127467585519e-001
698:1.1157891818988006e-001
699:1.0692905293233659e-001
700:1.3096326925676388e-001
701:1.2497573748831195e-001
702:1.1789528790725416e-001
703:1.1302923336944870e-001
704:8.9142994860977834e-002
705:8.3958210699307423e-002
706:7.7775064874424510e-002
707:7.3481735240307600e-002
708:9.5862565255729268e-002
709:9.0400294592231062e-002
710:8.3850836824011302e-002
711:7.9273475917117808e-002
712:1.0417082677937392e-001
713:9.8437960244316475e-002
714:9.1529879860804575e-002
715:8.6673383983961752e-002
716:1.1018694957324394e-001
717:1.0431677446063309e-001
718:9.7225275178946621e-002
719:9.2224925953599546e-002
720:7.1081562473949755e-002
721:6.6242552556365367e-002
722:6.0214952364066779e-002
723:5.5814283620308623e-002
724:7.6700226648082195e-002
725:7.1504497115912169e-002
726:6.5028114218074390e-002
727:6.0296228288900848e-002
728:8.3909472236905258e-002
729:7.8288809718098346e-002
730:7.1279714283547541e-002
731:6.6156168915997488e-002
732:8.9341825135285879e-002
733:8.3426504547753813e-002
734:7.6049599393730280e-002
735:7.0656898386625019e-002
736:5.3120181480612746e-002
737:4.7346446916802704e-002
738:3.9948660364400874e-002
739:3.4382364340782748e-002
740:5.7380271281924848e-002
741:5.1098962371839869e-002
742:4.3040918918019144e-002
743:3.6970092686912044e-002
744:6.2981230721437770e-002
745:5.6111574411593299e-002
746:4.7288492915679471e-002
747:4.0633291035828571e-002
748:6.7306824071842714e-002
749:6.0042867275578671e-002
750:5.0707319632569865e-002
751:4.3660861405086376e-002
752:3.0769659687718977e-002
753:2.2670550340905961e-002
754:1.1984911526553559e-002
755:3.7040577394704946e-003
756:3.3026827205345437e-002
757:2.4186519733269522e-002
758:1.2523620472989635e-002
759:3.4859270845917301e-003
760:3.6307332983141961e-002
761:2.6608458045818340e-002
762:1.3812054793847846e-002
763:3.8953861819843306e-003
764:3.9078836622614722e-002
765:2.8805065969739221e-002
766:1.5248380474979121e-002
767:4.7411746715166200e-003
768:7.6062351036882516e+000
769:7.5848116944063317e+000
770:7.6822027806064748e+000
771:7.8529165064753288e+000
772:9.9359851643028669e+000
773:8.9488482849195083e+000
774:7.9003810880588805e+000
775:7.2803277629025969e+000
776:9.9637691606320331e+000
777:8.3165961415126102e+000
778:6.5558714168113985e+000
779:5.5040381733565118e+000
780:7.6766090512117655e+000
781:5.9833833529024831e+000
782:4.2767008532273723e+000
783:3.3537613496589151e+000
784:7.4349131310624061e+000
785:5.7743710636509578e+000
786:3.9205969541765118e+000
787:2.7394978151701372e+000
788:6.6557519486624681e+000
789:4.9356431543280443e+000
790:2.9400415848266506e+000
791:1.6011025574742455e+000
792:4.8611019324656439e+000
793:3.4059240823064871e+000
794:1.6723383953133202e+000
795:4.7011128019730808e-001
796:2.8892529399693925e+000
797:1.8997531568236510e+000
798:7.0963778626909302e-001
799:-1.2518442325655588e-001
800:2.3175767304544435e+000
801:1.7518756945908203e+000
802:9.3875720727563661e-001
803:2.5803291685717916e-001
804:1.1844387105624856e+000
805:8.1163060488662098e-001
806:2.2245546076717981e-001
807:-3.0788011151112044e-001
808:1.4725190876120248e-001
809:9.7717415488293696e-003
810:-3.0854353999953765e-001
811:-6.5900730082960246e-001
812:-3.0950861383259887e-001
813:-2.7914867286441614e-001
814:-4.0620754769679629e-001
815:-6.3133541239390312e-001
816:1.3604621785751961e-001
817:2.8449980658472607e-001
818:2.2637126203626518e-001
819:-1.1187286466667784e-002
820:-3.8558523418924329e-001
821:-1.9153112031830663e-001
822:-1.4713457004001176e-001
823:-2.7313343055034284e-001
824:-7.0596169448118484e-001
825:-5.3749056201915879e-001
826:-4.7033164170253500e-001
827:-5.3585519582971197e-001
828:-6.7543374122585653e-001
829:-5.9177916016610554e-001
830:-5.9225300970198869e-001
831:-6.7663395238257074e-001
832:-7.7255267610487427e-002
833:-8.0920686767181824e-003
834:1.9226229233248050e-002
835:-8.0608853203373923e-003
836:-3.0566944170307248e-001
837:-2.2776119589837029e-001
838:-1.5915955404717314e-001
839:-1.3190868077908138e-001
840:-5.4598609489261907e-001
841:-4.5169587554036894e-001
842:-3.2274375810624889e-001
843:-2.1936391146567039e-001
844:-6.8595213541283284e-001
845:-5.7529511632773556e-001
846:-3.9511539591481476e-001
847:-2.2957580859064172e-001
848:-3.9238763061872274e-002
849:-5.5553320917879012e-002
850:3.4539467664916425e-002
851:1.8895681761922525e-001
852:-1.1218842420493159e-001
853:-2.1088928430900825e-002
854:1.7000337751625036e-001
855:3.7182833679503841e-001
856:-1.4469359064458470e-001
857:3.8578056421156109e-002
858:2.9885490847531720e-001
859:5.1456036659931881e-001
860:-1.2157093911629885e-001
861:9.5576891277656659e-002
862:3.6090687610438915e-001
863:5.5048207325105047e-001
864:2.2211801930702163e-001
865:1.5168416200700444e-001
866:7.5074928778844072e-002
867:2.8074869605115009e-002
868:4.0682879975757807e-001
869:3.1500850336033681e-001
870:2.1674413950056870e-001
871:1.5793547628551166e-001
872:5.4044532772401632e-001
873:4.2547826947591288e-001
874:3.0516600151551465e-001
875:2.3570697649569156e-001
876:5.6055466520872854e-001
877:4.3149248876649909e-001
878:2.9903822778208250e-001
879:2.2506191962402505e-001
880:3.3884801823169663e-002
881:9.7337026913034641e-002
882:1.8270297172831648e-001
883:2.5010778319544663e-001
884:1.4964025386553514e-001
885:1.6975586600203854e-001
886:1.9958385127638198e-001
887:2.2519141092591266e-001
888:2.1738931414989179e-001
889:2.0765949249715496e-001
890:1.9985774561282557e-001
891:1.9762830787400526e-001
892:2.0548606309370140e-001
893:1.9334293586570950e-001
894:1.8339671734473426e-001
895:1.8029333516643253e-001
896:2.6190118890099984e-001
897:2.3846706004927753e-001
898:2.0978211714517073e-001
899:1.8924523823308342e-001
900:2.2888269220425339e-001
901:2.1595561587139386e-001
902:1.9988725399582263e-001
903:1.8818321751300007e-001
904:1.9671582753701250e-001
905:1.9319585232119391e-001
906:1.8797612963497748e-001
907:1.8349481764141029e-001
908:1.8042589574049223e-001
909:1.8081896699764291e-001
910:1.7961248888918566e-001
911:1.7737001327898841e-001
912:1.8219122295321372e-001
913:1.7611283400000322e-001
914:1.6973617909466496e-001
915:1.6603982513529494e-001
916:1.8299163875114671e-001
917:1.7561320664916469e-001
918:1.6773763081232940e-001
919:1.6304363148491902e-001
920:1.7994366991328853e-001
921:1.7220761312367702e-001
922:1.6412282223770419e-001
923:1.5946574287905166e-001
924:1.7447103768873171e-001
925:1.6748682292478026e-001
926:1.6058024825143505e-001
927:1.5697740869917326e-001
928:1.6278470435207287e-001
929:1.5407973222022081e-001
930:1.4383719218279312e-001
931:1.3684142511454689e-001
932:1.5997763500406442e-001
933:1.5278620969909459e-001
934:1.4425535261308783e-001
935:1.3836986908770474e-001
936:1.5690064894246539e-001
937:1.5129922870532161e-001
938:1.4449964742861726e-001
939:1.3967802300053589e-001
940:1.5499102150442598e-001
941:1.5031336538139553e-001
942:1.4445596531839339e-001
943:1.4015484172040946e-001
944:1.3339087171891384e-001
945:1.2728796923852720e-001
946:1.2008722568750956e-001
947:1.1515214382728373e-001
948:1.3519019751230565e-001
949:1.2911598337114008e-001
950:1.2198010651346901e-001
951:1.1711577014891969e-001
952:1.3679135878644516e-001
953:1.3091257797020170e-001
954:1.2406748389397163e-001
955:1.1945345369865719e-001
956:1.3744644522778768e-001
957:1.3183855485399479e-001
958:1.2537433357857228e-001
959:1.2107325098216670e-001
960:1.1229807263048026e-001
961:1.0643481795717022e-001
962:9.9340153583095919e-002
963:9.4328032163906672e-002
964:1.1432272137330338e-001
965:1.0858870638131857e-001
966:1.0162116793067019e-001
967:9.6674677532347195e-002
968:1.1678495241760557e-001
969:1.1123017934042663e-001
970:1.0444236114276856e-001
971:9.9592121120698443e-002
972:1.1853464552119934e-001
973:1.1312539181152285e-001
974:1.0648593998149522e-001
975:1.0171761066647000e-001
976:9.1410356652120495e-002
977:8.5383557154709869e-002
978:7.7864460403660365e-002
979:7.2365273507358024e-002
980:9.3739783400876409e-002
981:8.7598349712319501e-002
982:7.9925275031593565e-002
983:7.4304690316047819e-002
984:9.6654128628877095e-002
985:9.0425193928344985e-002
986:8.2632198013239316e-002
987:7.6915287639854932e-002
988:9.8792087333008455e-002
989:9.2543656953124262e-002
990:8.4720812297881892e-002
991:7.8977642617053936e-002
992:6.8942375366005809e-002
993:6.1509321793846258e-002
994:5.1951005837549677e-002
995:4.4732163935194358e-002
996:7.0786065384558519e-002
997:6.3112779765344490e-002
998:5.3230994859010880e-002
999:4.5756541042623430e-002
1000:7.3308048345204282e-002
1001:6.5395430073682134e-002
1002:5.5188292347378244e-002
1003:4.7454439447248545e-002
1004:7.5330293591493319e-002
1005:6.7291035522514489e-002
1006:5.6908635010194386e-002
1007:4.9032762445633683e-002
1008:4.0034742921932875e-002
1009:2.9499234275611207e-002
1010:1.5596440826114799e-002
1011:4.8204258361487298e-003
1012:4.0883685213534221e-002
1013:2.9946613571121529e-002
1014:1.5512783974408697e-002
1015:4.3243092847202701e-003
1016:4.2405039564657458e-002
1017:3.1066404470475931e-002
1018:1.6099372000982302e-002
1019:4.4951167042905681e-003
1020:4.3888173868382778e-002
1021:3.2335547131938723e-002
1022:1.7082206750887688e-002
1023:5.2530631083072188e-003
1024:5.7601022903138448e+000
1025:4.2992282146118299e+000
1026:2.8814229970715535e+000
1027:2.1689504345583432e+000
1028:2.3482859829046361e+000
1029:1.5796715432445179e+000
1030:8.9736328460702697e-001
1031:6.2007075355583996e-001
1032:-1.5685570385631027e+000
1033:-1.3701662487870940e+000
1034:-1.0096155467959267e+000
1035:-6.5531994045464426e-001
1036:-4.1608501164275946e+000
1037:-3.1724014069874391e+000
1038:-1.9487542970704523e+000
1039:-1.0614803756448805e+000
1040:1.8383257645486364e+000
1041:1.1322147791771950e+000
1042:2.7712321599631179e-001
1043:-3.2753144627844605e-001
1044:5.0223575826172240e-001
1045:2.0229927713985246e-001
1046:-1.8904046989614209e-001
1047:-4.8898676046854878e-001
1048:-5.0850778352047266e-001
1049:-3.9102843809116211e-001
1050:-3.2411980529959417e-001
1051:-3.3903523690906312e-001
1052:-7.2178157661430653e-001
1053:-3.7062206982210755e-001
1054:-6.5018567661314225e-002
1055:5.2280029544884955e-002
1056:-4.4290009312905032e-001
1057:-3.6508640170294371e-001
1058:-4.2023872266850287e-001
1059:-5.8259513539183505e-001
1060:-5.4435400549635082e-001
1061:-4.9071258229629933e-001
1062:-5.1217245222211627e-001
1063:-5.9870960438606657e-001
1064:-3.7223566194831226e-001
1065:-4.4821556769809667e-001
1066:-5.5368747363964887e-001
1067:-6.3938493327712331e-001
1068:-6.9423880823533115e-003
1069:-2.5744592263687288e-001
1070:-5.2539191604152669e-001
1071:-6.8562147569829734e-001
1072:-6.2518197211183058e-001
1073:-5.9424304528573602e-001
1074:-6.4309621765003666e-001
1075:-7.4892193189274148e-001
1076:-6.3856995400775540e-001
1077:-6.8656829098435479e-001
1078:-8.0488094833898871e-001
1079:-9.3824350137667023e-001
1080:-7.0292621422260004e-001
1081:-8.5805743507290055e-001
1082:-1.0723992136461074e+000
1083:-1.2458314499816439e+000
1084:-7.8818962678881055e-001
1085:-1.0286070541189849e+000
1086:-1.3206919148734106e+000
1087:-1.5280099326811027e+000
1088:-7.5872525275461888e-001
1089:-6.3432505622855584e-001
1090:-4.2977775174444299e-001
1091:-2.4062839219836121e-001
1092:-9.4165206496210185e-001
1093:-7.8224570900710322e-001
1094:-5.3774218178279398e-001
1095:-3.2235028452878933e-001
1096:-1.2408051989604494e+000
1097:-1.0312405998427177e+000
1098:-7.2875371248243337e-001
1099:-4.7463765108660932e-001
1100:-1.5164487531498463e+000
1101:-1.2650029894422852e+000
1102:-9.1358991751764440e-001
1103:-6.2635631325300034e-001
1104:-1.2547467349117111e-001
1105:8.8147085548994225e-002
1106:3.3929585801125178e-001
1107:5.1065881589127937e-001
1108:-2.0713847074486366e-001
1109:-1.5790057728326409e-002
1110:2.0948778582065050e-001
1111:3.6346667015384471e-001
1112:-3.5522485215151889e-001
1113:-1.8194009321998325e-001
1114:2.3931221200732829e-002
1115:1.6622558665514994e-001
1116:-5.0056193993757303e-001
1117:-3.3269352140324132e-001
1118:-1.3069945103302122e-001
1119:1.1067846500991317e-002
1120:5.1616228169027190e-001
1121:3.9175976219466446e-001
1122:2.6434101773059504e-001
1123:1.9342397111046861e-001
1124:3.7427594271893844e-001
1125:2.8154507747617830e-001
1126:1.8528253670590203e-001
1127:1.3045302709541326e-001
1128:1.8821121896716930e-001
1129:1.4177054559072846e-001
1130:9.2639386363994491e-002
1131:6.3767147630905019e-002
1132:4.4879858882560741e-002
1133:3.7725538481897913e-002
1134:2.9685638305090221e-002
1135:2.4515635304567591e-002
1136:1.7636758247816317e-001
1137:1.7080389140794811e-001
1138:1.6883279949801672e-001
1139:1.7137501348303771e-001
1140:1.2060060007982611e-001
1141:1.2888173402282571e-001
1142:1.4168372656578615e-001
1143:1.5302670396860815e-001
1144:6.3361214417009440e-002
1145:8.4916101729862206e-002
1146:1.1074339212828381e-001
1147:1.2877903112129038e-001
1148:3.1386224318155916e-002
1149:5.9443557812723750e-002
1150:9.0464178718293958e-002
1151:1.0995820229760357e-001
1152:1.7303677079653526e-001
1153:1.7378191026831022e-001
1154:1.7303957015741070e-001
1155:1.7115650118412776e-001
1156:1.5640698717784363e-001
1157:1.5665441502138594e-001
1158:1.5637285525638592e-001
1159:1.5569382583517249e-001
1160:1.3330383390088169e-001
1161:1.3357218419154765e-001
1162:1.3476636467003753e-001
1163:1.3632856775598420e-001
1164:1.1451890759646514e-001
1165:1.1531704143156059e-001
1166:1.1831259651843379e-001
1167:1.2210633432911115e-001
1168:1.6866646948035011e-001
1169:1.6279234339805110e-001
1170:1.5718393575770379e-001
1171:1.5446096137789339e-001
1172:1.5445071978670960e-001
1173:1.5126422703733725e-001
1174:1.4840150002074490e-001
1175:1.4719973261938316e-001
1176:1.3678787797005004e-001
1177:1.3672114990543396e-001
1178:1.3693604299681031e-001
1179:1.3733217962329700e-001
1180:1.2392834439581968e-001
1181:1.2595625492516488e-001
1182:1.2814313610538733e-001
1183:1.2946748497135560e-001
1184:1.5278115880822729e-001
1185:1.4842544991793841e-001
1186:1.4295948117397497e-001
1187:1.3893643348521054e-001
1188:1.4595674228763855e-001
1189:1.4210522007599544e-001
1190:1.3745273663291513e-001
1191:1.3417248987849698e-001
1192:1.3659249651310773e-001
1193:1.3353565325887767e-001
1194:1.3012310000518237e-001
1195:1.2794885717656393e-001
1196:1.2906250678541162e-001
1197:1.2671963631421884e-001
1198:1.2439428064285704e-001
1199:1.2317262485297537e-001
1200:1.3638452534251377e-001
1201:1.3108250753752093e-001
1202:1.2498078548147695e-001
1203:1.2092950358510027e-001
1204:1.3206394677130431e-001
1205:1.2754814328279113e-001
1206:1.2230749373926154e-001
1207:1.1878993134183934e-001
1208:1.2643988075798959e-001
1209:1.2289219626982542e-001
1210:1.1869976117976316e-001
1211:1.1582088255741509e-001
1212:1.2213935622425709e-001
1213:1.1928948226927960e-001
1214:1.1584277744212715e-001
1215:1.1340921453544345e-001
1216:1.1848282727314224e-001
1217:1.1317819037444850e-001
1218:1.0666099203648223e-001
1219:1.0197544768660102e-001
1220:1.1653927200465163e-001
1221:1.1150090539825096e-001
1222:1.0531916012525472e-001
1223:1.0088155983496688e-001
1224:1.1382555727988272e-001
1225:1.0919071885855039e-001
1226:1.0351986683974156e-001
1227:9.9461884118639599e-002
1228:1.1160927260619054e-001
1229:1.0732673026092499e-001
1230:1.0210357093140000e-001
1231:9.8379558053672100e-002
1232:9.9082431935627852e-002
1233:9.2874588769712607e-002
1234:8.5093712724253673e-002
1235:7.9374289304770251e-002
1236:9.8099999916269970e-002
1237:9.2052034345624922e-002
1238:8.4442934402877687e-002
1239:7.8826948130321858e-002
1240:9.6849678500444930e-002
1241:9.1044018879002236e-002
1242:8.3703021353041404e-002
1243:7.8255702006131592e-002
1244:9.5915498976717278e-002
1245:9.0321391356682934e-002
1246:8.3219590602863547e-002
1247:7.7927382809016024e-002
1248:7.5724561289944356e-002
1249:6.7654593368454696e-002
1250:5.7225803735590088e-002
1251:4.9309531369032988e-002
1252:7.5205201618019565e-002
1253:6.7146552142354904e-002
1254:5.6718839157866741e-002
1255:4.8792898734488180e-002
1256:7.4699148227993686e-002
1257:6.6729209428776221e-002
1258:5.6399376481788145e-002
1259:4.8534765209586654e-002
1260:7.4442781149615167e-002
1261:6.6597508063780869e-002
1262:5.6416638296037866e-002
1263:4.8655706234575401e-002
1264:4.4136200122139771e-002
1265:3.2517568339737749e-002
1266:1.7175270132155158e-002
1267:5.2757685211810516e-003
1268:4.3605193342248057e-002
1269:3.1946554951287391e-002
1270:1.6548510575655651e-002
1271:4.6035625466652073e-003
1272:4.3376638415459488e-002
1273:3.1773252415660515e-002
1274:1.6442666897234059e-002
1275:4.5458738271863747e-003
1276:4.3557294473240353e-002
1277:3.2078611200406157e-002
1278:1.6907179200136829e-002
1279:5.1296490476107227e-003
1280:-5.3936920111255562e+000
1281:-4.0575563545051736e+000
1282:-2.4369806614539167e+000
1283:-1.2889438161726847e+000
1284:-6.9205117981409625e+000
1285:-5.2525693122993076e+000
1286:-3.2441865806988104e+000
1287:-1.8334890643926545e+000
1288:-7.1723998195571843e+000
1289:-5.4422597118363543e+000
1290:-3.4115800744998674e+000
1291:-2.0289013630362258e+000
1292:-6.0316979405442241e+000
1293:-4.5380222336604863e+000
1294:-2.8609708178365816e+000
1295:-1.7839026654063945e+000
1296:-8.6035506029488995e-001
1297:-4.1310764793625609e-001
1298:1.6354511300335894e-002
1299:2.2742752862440571e-001
1300:-1.3195988138087742e+000
1301:-7.7038511507467378e-001
1302:-1.4735706772024929e-001
1303:2.5846586021333490e-001
1304:-1.5482774356656441e+000
1305:-1.0378456722325375e+000
1306:-3.8644461425174442e-001
1307:1.0165309729371701e-001
1308:-1.4395740158278707e+000
1309:-1.0905571764724729e+000
1310:-5.8922915829863043e-001
1311:-1.6976274659683158e-001
1312:1.7689257876921102e-001
1313:-1.2933310156140196e-001
1314:-4.5855412991424194e-001
1315:-6.5698974321443815e-001
1316:2.7570656065763405e-001
1317:-5.8108453037173588e-003
1318:-3.2514020236381441e-001
1319:-5.3312119580460671e-001
1320:1.7292828879436503e-001
1321:-3.3612169257335518e-002
1322:-2.8427248045886150e-001
1323:-4.6196797946544155e-001
1324:-8.3434000063283983e-002
1325:-1.9975093813961575e-001
1326:-3.5504047829002006e-001
1327:-4.7676611183109130e-001
1328:-7.7927703704120954e-001
1329:-1.0557916826368074e+000
1330:-1.3842525471632532e+000
1331:-1.6112339438112189e+000
1332:-6.6895688922107721e-001
1333:-9.7453873557769932e-001
1334:-1.3342206837755533e+000
1335:-1.5799935251232602e+000
1336:-5.9183470214303557e-001
1337:-8.8933783429120239e-001
1338:-1.2297331262030897e+000
1339:-1.4540202612853164e+000
1340:-5.8393462905818017e-001
1341:-8.3998673920609657e-001
1342:-1.1195965269726345e+000
1343:-1.2921568839933313e+000
1344:-1.5987165554245426e+000
1345:-1.3301782037997307e+000
1346:-9.6036802539736199e-001
1347:-6.6202617509788075e-001
1348:-1.5681186903814424e+000
1349:-1.2897865786819753e+000
1350:-9.1613274944182921e-001
1351:-6.2169274576979416e-001
1352:-1.4374224667064508e+000
1353:-1.1714439258795559e+000
1354:-8.2556504647082285e-001
1355:-5.6134755578872919e-001
1356:-1.2676767338861905e+000
1357:-1.0304286811087833e+000
1358:-7.3096953640034346e-001
1359:-5.0917814046984400e-001
1360:-5.3592457444925878e-001
1361:-3.7588001158170592e-001
1362:-1.8293720365191610e-001
1363:-4.7220686087349306e-002
1364:-5.0486365358901630e-001
1365:-3.7146910276874634e-001
1366:-2.1214565093435420e-001
1367:-1.0131406677549248e-001
1368:-4.6209312307460915e-001
1369:-3.5889147178873487e-001
1370:-2.3745897884991604e-001
1371:-1.5451735951324394e-001
1372:-4.2759130826554226e-001
1373:-3.4402219199119910e-001
1374:-2.4705320731356689e-001
1375:-1.8197904434685344e-001
1376:-1.0713566717614649e-002
1377:-3.4300933161617833e-003
1378:4.4217510105006158e-003
1379:9.1743311233275678e-003
1380:-6.8309980272885956e-002
1381:-5.0147475823239321e-002
1382:-2.8989698849320514e-002
1383:-1.4719551133852262e-002
1384:-1.2608338537884645e-001
1385:-9.8303329045119459e-002
1386:-6.5756139687727713e-002
1387:-4.3644769682971998e-002
1388:-1.5704754009621696e-001
1389:-1.2540381687408669e-001
1390:-8.8703785990581416e-002
1391:-6.4090212542983735e-002
1392:1.8510828992634058e-002
1393:4.7001031381635881e-002
1394:7.8254811103723482e-002
1395:9.7673373790617260e-002
1396:-3.9227860778791625e-003
1397:2.1765999775628476e-002
1398:5.1410711377759787e-002
1399:7.1164158000389721e-002
1400:-3.2124785765898133e-002
1401:-9.9506479484335990e-003
1402:1.7777885669371250e-002
1403:3.8108680529072861e-002
1404:-5.2921877180750011e-002
1405:-3.3333909499883199e-002
1406:-6.9336075610926702e-003
1407:1.3947317633233458e-002
1408:1.0249564367751580e-001
1409:1.0449276756419074e-001
1410:1.0905792403890702e-001
1411:1.1405870603839613e-001
1412:7.7373400713137128e-002
1413:8.2919988412291049e-002
1414:9.1025767917195688e-002
1415:9.7904489716941406e-002
1416:4.6077482715766657e-002
1417:5.5926863376656644e-002
1418:6.8223871604679506e-002
1419:7.7224514319241377e-002
1420:2.3226367049512111e-002
1421:3.6122014046627876e-002
1422:5.1303113121013107e-002
1423:6.1678498159574879e-002
1424:1.1640974226631275e-001
1425:1.1915390728643468e-001
1426:1.2213302171526136e-001
1427:1.2395552653711986e-001
1428:1.0081609582656197e-001
1429:1.0434098088174805e-001
1430:1.0856567492952800e-001
1431:1.1151680258232179e-001
1432:8.0795432310871648e-002
1433:8.5396706675448492e-002
1434:9.1321904985517385e-002
1435:9.5803337941122738e-002
1436:6.5699502207697102e-002
1437:7.1170048410583109e-002
1438:7.8456361713896902e-002
1439:8.4154969303672819e-002
1440:1.2382679592357572e-001
1441:1.2207062080654418e-001
1442:1.2048265350521478e-001
1443:1.1980464136348813e-001
1444:1.1210843149003051e-001
1445:1.1172160273285210e-001
1446:1.1165918371874159e-001
1447:1.1195033067646834e-001
1448:9.7311692960995386e-002
1449:9.8566859604049067e-002
1450:1.0030616741590977e-001
1451:1.0171717715515795e-001
1452:8.6348209746649543e-002
1453:8.8751036695446872e-002
1454:9.1726654401843993e-002
1455:9.3885137186428907e-002
1456:1.1900583115793051e-001
1457:1.1648419179883616e-001
1458:1.1341855697843463e-001
1459:1.1124089981324260e-001
1460:1.1153590700153072e-001
1461:1.0959245503636927e-001
1462:1.0726882761909048e-001
1463:1.0565040255535610e-001
1464:1.0177829116008763e-001
1465:1.0063633082057580e-001
1466:9.9342292389310485e-002
1467:9.8500627587980422e-002
1468:9.4290814029180478e-002
1469:9.3799268863008836e-002
1470:9.3341474916675243e-002
1471:9.3131269996196267e-002
1472:1.0957177295242346e-001
1473:1.0553438592458642e-001
1474:1.0060791147420471e-001
1475:9.7093530069728901e-002
1476:1.0428029906317607e-001
1477:1.0077952727351026e-001
1478:9.6478167859203448e-002
1479:9.3385406977960411e-002
1480:9.7528463059382772e-002
1481:9.4709967789323737e-002
1482:9.1200911167143267e-002
1483:8.8640390815894102e-002
1484:9.2470080777209834e-002
1485:9.0160828587093650e-002
1486:8.7241173978438599e-002
1487:8.5074901992191754e-002
1488:9.4720079052428172e-002
1489:8.9258941074155593e-002
1490:8.2313506864691854e-002
1491:7.7128022935149865e-002
1492:9.1196550040925500e-002
1493:8.6026611901516545e-002
1494:7.9433673933061152e-002
1495:7.4497329917168620e-002
1496:8.6698953448372723e-002
1497:8.1951485426470350e-002
1498:7.5873953756878137e-002
1499:7.1305203401703848e-002
1500:8.3328138784488276e-002
1501:7.8937073287048756e-002
1502:7.3297109154678561e-002
1503:6.9042701398738054e-002
1504:7.3697844018763239e-002
1505:6.5953305258011116e-002
1506:5.5894364921376984e-002
1507:4.8219603559542377e-002
1508:7.1197412504920801e-002
1509:6.3694910048995398e-002
1510:5.3929794024882682e-002
1511:4.6463398200407853e-002
1512:6.8199094046200795e-002
1513:6.1059366651784838e-002
1514:5.1738911964609925e-002
1515:4.4591360252976782e-002
1516:6.6103417955182417e-002
1517:5.9277750361803536e-002
1518:5.0345090536457734e-002
1519:4.3477927858389685e-002
1520:4.3171442322430892e-002
1521:3.1799060478175267e-002
1522:1.6766038611615273e-002
1523:5.0943752430970485e-003
1524:4.1538675110114449e-002
1525:3.0431488486785549e-002
1526:1.5746956897656664e-002
1527:4.3442973388998713e-003
1528:3.9863112963447633e-002
1529:2.9187891090705576e-002
1530:1.5070194544004172e-002
1531:4.1044688806990840e-003
1532:3.8927419209809168e-002
1533:2.8649158755792017e-002
1534:1.5051870577688923e-002
1535:4.4869149219547077e-003
1536:-5.0168074604448867e+000
1537:-3.7622853542569614e+000
1538:-2.3883064082953407e+000
1539:-1.5366629522174369e+000
1540:-3.3390645995408699e+000
1541:-2.5311126009636968e+000
1542:-1.6610621402978079e+000
1543:-1.1353180709155954e+000
1544:-1.7615500559329298e+000
1545:-1.3976440810502935e+000
1546:-1.0042410217452402e+000
1547:-7.6510138371389302e-001
1548:-1.0211286389300598e+000
1549:-8.9132852015167419e-001
1550:-7.2464743059629289e-001
1551:-5.9894292775415436e-001
1552:-1.2780221164449379e+000
1553:-1.0249736676439198e+000
1554:-6.3944272009629577e-001
1555:-3.0151267734246162e-001
1556:-9.7900595750253860e-001
1557:-8.2786323054171918e-001
1558:-6.0048512105642282e-001
1559:-4.0308106335318578e-001
1560:-6.8987832008443073e-001
1561:-6.1356006669959984e-001
1562:-5.1667856363990139e-001
1563:-4.4448763792514484e-001
1564:-5.4569214698301005e-001
1565:-4.8216623894714694e-001
1566:-4.2716950338959292e-001
1567:-4.0639118623421661e-001
1568:-2.2304828211345293e-001
1569:-2.9348941577362919e-001
1570:-3.9410098055716042e-001
1571:-4.7788681925021492e-001
1572:-3.5235649661937857e-001
1573:-3.7454010134091931e-001
1574:-4.0927313417374478e-001
1575:-4.4033162449343982e-001
1576:-4.2439238168127780e-001
1577:-4.2086791716251426e-001
1578:-4.1825462051757700e-001
1579:-4.1777317547439397e-001
1580:-4.0550762075929692e-001
1581:-4.1083291239965919e-001
1582:-4.1685014310224405e-001
1583:-4.2074863478347146e-001
1584:-5.6668848877281230e-001
1585:-7.8964663676154367e-001
1586:-1.0262619091135450e+000
1587:-1.1660101472733622e+000
1588:-4.9853434205266883e-001
1589:-6.6372400421585454e-001
1590:-8.3236107012465288e-001
1591:-9.2567433610501171e-001
1592:-4.4952675806447329e-001
1593:-5.5265787693667001e-001
1594:-6.4997237295732591e-001
1595:-6.9601416596299603e-001
1596:-4.4255742054989877e-001
1597:-5.0832778974657944e-001
1598:-5.6429047594475445e-001
1599:-5.8430503292100355e-001
1600:-1.1399143949223220e+000
1601:-9.3034146624228375e-001
1602:-6.6937400244577594e-001
1603:-4.7891119059604853e-001
1604:-9.0322537104829670e-001
1605:-7.5066424471027726e-001
1606:-5.6409158518863411e-001
1607:-4.3065640022960716e-001
1608:-6.7710174738250017e-001
1609:-5.8102764354749570e-001
1610:-4.6816824288678160e-001
1611:-3.9124072704763141e-001
1612:-5.6716698172944080e-001
1613:-5.0066975426575910e-001
1614:-4.2641024095307639e-001
1615:-3.7907542603393812e-001
1616:-4.0888675805239688e-001
1617:-3.3582647089889101e-001
1618:-2.5125682462098109e-001
1619:-1.9468071732531728e-001
1620:-3.8129277244077808e-001
1621:-3.2715204942632226e-001
1622:-2.6349562603002302e-001
1623:-2.2005773099625214e-001
1624:-3.6228353496983196e-001
1625:-3.2614233213184207e-001
1626:-2.8104946933177871e-001
1627:-2.4806804477245276e-001
1628:-3.6073835404334614e-001
1629:-3.3326896293445718e-001
1630:-2.9571886790369856e-001
1631:-2.6562790319632490e-001
1632:-1.7154571453941495e-001
1633:-1.3871766452252315e-001
1634:-1.0051752294694467e-001
1635:-7.4788763999161484e-002
1636:-1.9962077258185282e-001
1637:-1.6506593596187094e-001
1638:-1.2389393446039966e-001
1639:-9.5336412665557382e-002
1640:-2.2986459503020792e-001
1641:-1.9491308137836394e-001
1642:-1.5228558213402368e-001
1643:-1.2189361204631530e-001
1644:-2.4815014353071740e-001
1645:-2.1431735221261863e-001
1646:-1.7243058756944402e-001
1647:-1.4205536357152165e-001
1648:-6.3509354995709658e-002
1649:-4.4465318826128239e-002
1650:-1.8453211937156700e-002
1651:2.3765824876497785e-003
1652:-8.2940626626206548e-002
1653:-6.3191918195577262e-002
1654:-3.7099881056983142e-002
1655:-1.6852234207070965e-002
1656:-1.0839732091401674e-001
1657:-8.7209189399680045e-002
1658:-6.0334381374682083e-002
1659:-4.0326251970234893e-002
1660:-1.2798849063585246e-001
1661:-1.0529854682370933e-001
1662:-7.7303763410092999e-002
1663:-5.7080641543790875e-002
1664:1.1953053030570523e-002
1665:2.5793791205296228e-002
1666:4.2001726943835950e-002
1667:5.3006053672233711e-002
1668:-7.4122416239568419e-003
1669:6.9852578736372710e-003
1670:2.4236016442136889e-002
1671:3.6282119829959311e-002
1672:-3.0977737803642300e-002
1673:-1.6048881133903195e-002
1674:2.3079700424337738e-003
1675:1.5518240171452381e-002
1676:-4.7735876231732449e-002
1677:-3.2549266091504644e-002
1678:-1.3539713831791549e-002
1679:4.1332510426025188e-004
1680:5.7327539890988523e-002
1681:6.3383127813659484e-002
1682:7.1431359710148523e-002
1683:7.7712866840743119e-002
1684:4.1272495707233493e-002
1685:4.8565594238850499e-002
1686:5.7996229183325199e-002
1687:6.5159304531762371e-002
1688:2.1288518427951781e-002
1689:3.0042960891282302e-002
1690:4.1077281880620993e-002
1691:4.9237295740689448e-002
1692:6.7102222199598022e-003
1693:1.6467240993185400e-002
1694:2.8577441377876624e-002
1695:3.7384089156722547e-002
1696:8.0195001852098310e-002
1697:8.3070863078474735e-002
1698:8.6595097002995822e-002
1699:8.9121516609971169e-002
1700:6.8034087313054895e-002
1701:7.1601364518896329e-002
1702:7.6031458608141964e-002
1703:7.9255050822664763e-002
1704:5.2585353068160284e-002
1705:5.7061550562932863e-002
1706:6.2682431547665812e-002
1707:6.6822454843188911e-002
1708:4.1064978936191807e-002
1709:4.6243039887871470e-002
1710:5.2783412077808782e-002
1711:5.7631055458311958e-002
1712:8.9723825683421202e-002
1713:8.9618922808314461e-002
1714:8.9636486135491591e-002
1715:8.9768311748378377e-002
1716:8.0255494165519539e-002
1717:8.0905241357493149e-002
1718:8.1810554648789086e-002
1719:8.2548557744255499e-002
1720:6.8327619135446313e-002
1721:6.9899865133500896e-002
1722:7.1882409591164570e-002
1723:7.3349196232330077e-002
1724:5.9511769739809428e-002
1725:6.1743459549246774e-002
1726:6.4489536394571487e-002
1727:6.6467294262605364e-002
1728:8.9266665027254818e-002
1729:8.7214321074017068e-002
1730:8.4601174804218596e-002
1731:8.2647839704810558e-002
1732:8.2326245258807329e-002
1733:8.0743112281183416e-002
1734:7.8709517900950765e-002
1735:7.7175364064357155e-002
1736:7.3479062778832191e-002
1737:7.2524163051505233e-002
1738:7.1267654927534063e-002
1739:7.0296459537326716e-002
1740:6.6857680077754000e-002
1741:6.6396585031460703e-002
1742:6.5751716714605002e-002
1743:6.5224296292630130e-002
1744:8.1012969809036453e-002
1745:7.6833325366072000e-002
1746:7.1451022029900127e-002
1747:6.7380160185542673e-002
1748:7.5765310871581365e-002
1749:7.2006780528294734e-002
1750:6.7133104792288664e-002
1751:6.3420801592593723e-002
1752:6.9185249534479590e-002
1753:6.5980828741997608e-002
1754:6.1776867272394752e-002
1755:5.8537056223917874e-002
1756:6.4346364841441947e-002
1757:6.1570221751875098e-002
1758:5.7884234384134259e-002
1759:5.5010145583541142e-002
1760:6.4537959768361866e-002
1761:5.7896536141856254e-002
1762:4.9194240201267066e-002
1763:4.2495957221215498e-002
1764:6.0770473950476599e-002
1765:5.4501185567384265e-002
1766:4.6268771213052028e-002
1767:3.9918632159975050e-002
1768:5.6147497977074162e-002
1769:5.0398208961842668e-002
1770:4.2823828404260120e-002
1771:3.6962386750901792e-002
1772:5.2828446683908653e-002
1773:4.7504126896343438e-002
1774:4.0468561520077877e-002
1775:3.5008097777939756e-002
1776:3.8053605316301434e-002
1777:2.8017328964066508e-002
1778:1.4737496449483878e-002
1779:4.4171829157724687e-003
1780:3.5698448636234732e-002
1781:2.6156112092580515e-002
1782:1.3524756169870976e-002
1783:3.7045494028497658e-003
1784:3.3053236102991365e-002
1785:2.4200319175515295e-002
1786:1.2473712319630544e-002
1787:3.3509713269717785e-003
1788:3.1353559513035367e-002
1789:2.3063510712661786e-002
1790:1.2075312655435247e-002
1791:3.5216067479927047e-003
1792:-7.7375170019686423e-001
1793:-7.1012825480836861e-001
1794:-6.1028442049842713e-001
1795:-5.2085774379717309e-001
1796:-4.0501228838790587e-001
1797:-4.0167334409257482e-001
1798:-3.8600316562389525e-001
1799:-3.6532137048774826e-001
1800:-1.0620314480067176e-001
1801:-1.5220569802615927e-001
1802:-2.0811343154678219e-001
1803:-2.4781156780535782e-001
1804:-1.6899491420517287e-002
1805:-7.8252882197871729e-002
1806:-1.5970838879277532e-001
1807:-2.2321774307518524e-001
1808:-4.7718952973470369e-001
1809:-4.2323030441722798e-001
1810:-3.8467199629470772e-001
1811:-3.7952538091092020e-001
1812:-3.5278981128547804e-001
1813:-3.4025994045112423e-001
1814:-3.4541007429132109e-001
1815:-3.6583455993558539e-001
1816:-2.6419306307954210e-001
1817:-2.9107630656340139e-001
1818:-3.3415182571908475e-001
1819:-3.7329883349131088e-001
1820:-2.5278326235924703e-001
1821:-2.9865332027047775e-001
1822:-3.5615603390962547e-001
1823:-3.9843160265415112e-001
1824:-3.8657555764021229e-001
1825:-4.0387463718300942e-001
1826:-4.2431892322483000e-001
1827:-4.3835878910980003e-001
1828:-3.8254047497326887e-001
1829:-4.1420212591946631e-001
1830:-4.5181517717148434e-001
1831:-4.7781038732317915e-001
1832:-3.9488369798885103e-001
1833:-4.3095537162765130e-001
1834:-4.7227336413620707e-001
1835:-4.9953783780828487e-001
1836:-4.1783964645159499e-001
1837:-4.4630885076225535e-001
1838:-4.7613736427359860e-001
1839:-4.9339214148085991e-001
1840:-4.5770409930914663e-001
1841:-5.0638235361419981e-001
1842:-5.4429760662893689e-001
1843:-5.5373945701612959e-001
1844:-4.9184857451806202e-001
1845:-5.1292379225631890e-001
1846:-5.2339277363343484e-001
1847:-5.1836540591011859e-001
1848:-5.0586407237537045e-001
1849:-5.0229814897440794e-001
1850:-4.9179614713293407e-001
1851:-4.7926360361169362e-001
1852:-4.9320388483465449e-001
1853:-4.7946871405471730e-001
1854:-4.6426666691371338e-001
1855:-4.5469869446978295e-001
1856:-5.3719199317063004e-001
1857:-4.8119656759812335e-001
1858:-4.1946091657838919e-001
1859:-3.8082206662287499e-001
1860:-5.0356089300877427e-001
1861:-4.6310100859129555e-001
1862:-4.1720333248947666e-001
1863:-3.8730689516141170e-001
1864:-4.6860033621814468e-001
1865:-4.4404441058622601e-001
1866:-4.1311500089205583e-001
1867:-3.9025938666701993e-001
1868:-4.4864057098393667e-001
1869:-4.3292820432533624e-001
1870:-4.0910560160183956e-001
1871:-3.8830041782254088e-001
1872:-3.6489572847435525e-001
1873:-3.3801530643176253e-001
1874:-3.0061939311745839e-001
1875:-2.7017580373792222e-001
1876:-3.7231194332765177e-001
1877:-3.4266854603536712e-001
1878:-3.0313393521754350e-001
1879:-2.7217492221321166e-001
1880:-3.7587494628971824e-001
1881:-3.4472283002108922e-001
1882:-3.0513276157036867e-001
1883:-2.7559745680992259e-001
1884:-3.7392044113657619e-001
1885:-3.4321859222610668e-001
1886:-3.0568221054644451e-001
1887:-2.7884472476905048e-001
1888:-2.5296938964231636e-001
1889:-2.2063767400263004e-001
1890:-1.8040401929170544e-001
1891:-1.5106176369238003e-001
1892:-2.5593156777030485e-001
1893:-2.2693220224360408e-001
1894:-1.9061914879220507e-001
1895:-1.6395441344978939e-001
1896:-2.6091568806446069e-001
1897:-2.3531281328166567e-001
1898:-2.0287387455732056e-001
1899:-1.7875125986410909e-001
1900:-2.6559364339892511e-001
1901:-2.4186488244379634e-001
1902:-2.1144395385303427e-001
1903:-1.8854062313141520e-001
1904:-1.3710052562922420e-001
1905:-1.1397661818127851e-001
1906:-8.5591202531058203e-002
1907:-6.5203246068125359e-002
1908:-1.5074266312655077e-001
1909:-1.2785793237091436e-001
1910:-9.9604015957740696e-002
1911:-7.9178457335608354e-002
1912:-1.6635691475508704e-001
1913:-1.4413330593831403e-001
1914:-1.1650638923569447e-001
1915:-9.6380833444327116e-002
1916:-1.7664978671132456e-001
1917:-1.5520043176766196e-001
1918:-1.2840314059762103e-001
1919:-1.0877505982785614e-001
1920:-5.5813700327449506e-002
1921:-4.0518159823658445e-002
1922:-2.1291073465078268e-002
1923:-7.1135079433429713e-003
1924:-6.9695565714096616e-002
1925:-5.4177408536873410e-002
1926:-3.4693259246103406e-002
1927:-2.0344259894563985e-002
1928:-8.6875865801699093e-002
1929:-7.1092420488733474e-002
1930:-5.1305708445439857e-002
1931:-3.6758200275783331e-002
1932:-9.9329597841968945e-002
1933:-8.3362110325152117e-002
1934:-6.3368664260189042e-002
1935:-4.8688296730309541e-002
1936:-6.4610572971946076e-004
1937:9.4703851641581155e-003
1938:2.1992263946194537e-002
1939:3.1070499392997782e-002
1940:-1.3731162491429652e-002
1941:-3.2180745872106460e-003
1942:9.8382870638278851e-003
1943:1.9339231658965349e-002
1944:-2.9970873464984355e-002
1945:-1.8974703308758164e-002
1946:-5.2658289274063316e-003
1947:4.7522669677564104e-003
1948:-4.1779589707723087e-002
1949:-3.0439502155913713e-002
1950:-1.6264877091534877e-002
1951:-5.8767516628022692e-003
1952:3.4916202467433891e-002
1953:4.0457964348887550e-002
1954:4.7455289789997517e-002
1955:5.2639693629900064e-002
1956:2.3475082739340569e-002
1957:2.9646525096375269e-002
1958:3.7395693755578288e-002
1959:4.3102913887631898e-002
1960:9.2381925082377983e-003
1961:1.6158643974395086e-002
1962:2.4794103105820465e-002
1963:3.1110904430481336e-002
1964:-1.1443467117548565e-003
1965:6.2945766548831786e-003
1966:1.5536782869949131e-002
1967:2.2265191911664886e-002
1968:5.4690502322752833e-002
1969:5.7217694196296236e-002
1970:6.0317256391467913e-002
1971:6.2541368147994242e-002
1972:4.5413699535735097e-002
1973:4.8413243789351419e-002
1974:5.2105621702881320e-002
1975:5.4766105375611003e-002
1976:3.3739417799135751e-002
1977:3.7347222663410305e-002
1978:4.1802586107623038e-002
1979:4.5024385933549571e-002
1980:2.5120771583762313e-002
1981:2.9188623763622152e-002
1982:3.4220748253338061e-002
1983:3.7866614930971973e-002
1984:6.3066591641781730e-002
1985:6.2869769151590565e-002
1986:6.2548516835434109e-002
1987:6.2252893231687860e-002
1988:5.5538542457008164e-002
1989:5.5823284674705896e-002
1990:5.6083466622260054e-002
1991:5.6197556031118152e-002
1992:4.6111099587945521e-002
1993:4.7001146351314999e-002
1994:4.7989925259607005e-002
1995:4.8615572817082967e-002
1996:3.9187868009338579e-002
1997:4.0524218423018454e-002
1998:4.2048425761890246e-002
1999:4.3048525274396378e-002
2000:6.1495372856523511e-002
2001:5.8941089100400045e-002
2002:5.5527543804055314e-002
2003:5.2849220780053378e-002
2004:5.5654340895420609e-002
2005:5.3504653874428057e-002
2006:5.0595917972433832e-002
2007:4.8286818048742491e-002
2008:4.8347231857758514e-002
2009:4.6730665628718568e-002
2010:4.4487395278889723e-002
2011:4.2665263432136356e-002
2012:4.2987232347384913e-002
2013:4.1783287620680461e-002
2014:4.0055296745396797e-002
2015:3.8610412766149869e-002
2016:5.0781891594090314e-002
2017:4.5694620114846242e-002
2018:3.8959825494364816e-002
2019:3.3723363454792502e-002
2020:4.6437628932496915e-002
2021:4.1802671502962539e-002
2022:3.5641729282509547e-002
2023:3.0832608712190308e-002
2024:4.1103446032885460e-002
2025:3.7063754775476160e-002
2026:3.1658213311357215e-002
2027:2.7411776669514918e-002
2028:3.7270965987457133e-002
2029:3.3691441265137859e-002
2030:2.8869997501597862e-002
2031:2.5058754814390245e-002
2032:3.0210742133629322e-002
2033:2.2234316978105240e-002
2034:1.1658697537018472e-002
2035:3.4238077143110856e-003
2036:2.7591166814813394e-002
2037:2.0215657303548486e-002
2038:1.0432754578461776e-002
2039:2.8121006629516789e-003
2040:2.4529114714726484e-002
2041:1.7951149016586468e-002
2042:9.2201557624828189e-003
2043:2.4144248834414299e-003
2044:2.2454885443585378e-002
2045:1.6498555086081616e-002
2046:8.5873119655658879e-003
2047:2.4165366901198076e-003
2048:-1.4237951982023355e-002
2049:-7.4859769031700246e-002
2050:-1.5648691022959374e-001
2051:-2.2099093607767434e-001
2052:-1.5922577256891834e-002
2053:-7.1315836674359825e-002
2054:-1.4482833306841797e-001
2055:-2.0212201747671429e-001
2056:-1.6091127692580823e-002
2057:-6.5902608806225893e-002
2058:-1.3044565174573974e-001
2059:-1.7957188341336597e-001
2060:-1.4664872550826151e-002
2061:-6.1148630813422485e-002
2062:-1.2005708751227655e-001
2063:-1.6387381252129327e-001
2064:-2.5192935914018849e-001
2065:-3.0044606659252243e-001
2066:-3.5893995473505147e-001
2067:-4.0008824045522418e-001
2068:-2.3001793293839043e-001
2069:-2.7533657262916950e-001
2070:-3.3076342320631053e-001
2071:-3.7040832990286832e-001
2072:-2.0363229798992721e-001
2073:-2.4404168234516260e-001
2074:-2.9450575677416624e-001
2075:-3.3145250368018109e-001
2076:-1.8509731427378923e-001
2077:-2.2117939305462814e-001
2078:-2.6710308992293841e-001
2079:-3.0141721999249660e-001
2080:-4.1766370512233975e-001
2081:-4.4145372180466802e-001
2082:-4.6525864510580783e-001
2083:-4.7795907816188493e-001
2084:-3.8668207675978788e-001
2085:-4.0741463000068828e-001
2086:-4.2910645217450338e-001
2087:-4.4162518635657344e-001
2088:-3.4637953608857197e-001
2089:-3.6517941712421126e-001
2090:-3.8679734335012445e-001
2091:-4.0113547500271074e-001
2092:-3.1558159826271115e-001
2093:-3.3447635903072109e-001
2094:-3.5809411164921467e-001
2095:-3.7540288760160251e-001
2096:-4.7654808309855806e-001
2097:-4.6344148725201550e-001
2098:-4.5071559440385517e-001
2099:-4.4431473175210145e-001
2100:-4.4249429909692806e-001
2101:-4.3634557363441162e-001
2102:-4.3034489046637936e-001
2103:-4.2729519824154261e-001
2104:-4.0503368787004046e-001
2105:-4.0610997466917093e-001
2106:-4.0646607901410764e-001
2107:-4.0593566281226640e-001
2108:-3.8166428533786062e-001
2109:-3.8685788748060956e-001
2110:-3.9023307043005517e-001
2111:-3.9021326961473074e-001
2112:-4.3984703940467268e-001
2113:-4.2590280927788099e-001
2114:-4.0358893692395192e-001
2115:-3.8332834196897964e-001
2116:-4.2326703478387434e-001
2117:-4.0921690592324678e-001
2118:-3.8820081180963195e-001
2119:-3.7003547346421156e-001
2120:-4.0215372735942229e-001
2121:-3.8859038522184414e-001
2122:-3.7008292104192242e-001
2123:-3.5527626244901994e-001
2124:-3.8636924696856750e-001
2125:-3.7365799653615689e-001
2126:-3.5769822059148926e-001
2127:-3.4594480904713348e-001
2128:-3.6944740509902940e-001
2129:-3.4046540856029572e-001
2130:-3.0530442952467812e-001
2131:-2.8038833439466626e-001
2132:-3.5822511447636629e-001
2133:-3.3390426139740675e-001
2134:-3.0385198701870431e-001
2135:-2.8210585664772597e-001
2136:-3.4604270848132601e-001
2137:-3.2671031359967778e-001
2138:-3.0189737016810336e-001
2139:-2.8319412621582946e-001
2140:-3.3859064892730423e-001
2141:-3.2224389359870237e-001
2142:-3.0035359012622931e-001
2143:-2.8314480702625106e-001
2144:-2.6780758814602162e-001
2145:-2.4458882086669390e-001
2146:-2.1476441240282601e-001
2147:-1.9226549077129509e-001
2148:-2.7039730356916347e-001
2149:-2.4776265888384733e-001
2150:-2.1886904877193195e-001
2151:-1.9721282075784594e-001
2152:-2.7242313441441879e-001
2153:-2.5089151078695976e-001
2154:-2.2365711736305138e-001
2155:-2.0344127338396292e-001
2156:-2.7293880512095842e-001
2157:-2.5251387444896806e-001
2158:-2.2689208776596123e-001
2159:-2.0804150776576832e-001
2160:-1.8063430710159092e-001
2161:-1.5974762525032962e-001
2162:-1.3359802940162319e-001
2163:-1.1440012450897494e-001
2164:-1.8613462597015729e-001
2165:-1.6634899606236531e-001
2166:-1.4149213111651859e-001
2167:-1.2317479511737259e-001
2168:-1.9311885527953709e-001
2169:-1.7455754161164996e-001
2170:-1.5111040372663623e-001
2171:-1.3372971515916154e-001
2172:-1.9832462713647395e-001
2173:-1.8053900986202850e-001
2174:-1.5796010474573424e-001
2175:-1.4113462952172331e-001
2176:-1.0505677735273179e-001
2177:-8.9080804791328030e-002
2178:-6.9081155804078129e-002
2179:-5.4399764889739563e-002
2180:-1.1409629433973073e-001
2181:-9.8287930678487706e-002
2182:-7.8491843280985601e-002
2183:-6.3954882025308538e-002
2184:-1.2495666549060477e-001
2185:-1.0942874049808207e-001
2186:-8.9978818280589457e-002
2187:-7.5692053256486994e-002
2188:-1.3256495797596632e-001
2189:-1.1729930713797604e-001
2190:-9.8176458231032979e-002
2191:-8.4128788119959497e-002
2192:-4.7460820200222374e-002
2193:-3.6004283292765608e-002
2194:-2.1673116410479532e-002
2195:-1.1161478155379621e-002
2196:-5.7026626498658396e-002
2197:-4.5472035800465535e-002
2198:-3.1012677077641635e-002
2199:-2.0402587971992021e-002
2200:-6.8800232787958132e-002
2201:-5.7140353427018988e-002
2202:-4.2543284445459101e-002
2203:-3.1827388624887376e-002
2204:-7.7282129609786546e-002
2205:-6.5558907566774974e-002
2206:-5.0878935048086195e-002
2207:-4.0099299485633205e-002
2208:-6.3402093563303258e-003
2209:1.2986085128581862e-003
2210:1.0782251460924461e-002
2211:1.7680863179540315e-002
2212:-1.5487562368686864e-002
2213:-7.5966906596100338e-003
2214:2.2128313927013200e-003
2215:9.3589277460384840e-003
2216:-2.6802544097835265e-002
2217:-1.8607109085575557e-002
2218:-8.4041060451188771e-003
2219:-9.5940792532687080e-004
2220:-3.4999870875264787e-002
2221:-2.6589626114770927e-002
2222:-1.6109337108919028e-002
2223:-8.4543984460501778e-003
2224:2.0639852327267175e-002
2225:2.4927572103548117e-002
2226:3.0231881110283812e-002
2227:3.4075110497703308e-002
2228:1.2482011007992415e-002
2229:1.7126026499481917e-002
2230:2.2863575256130347e-002
2231:2.7014620008173475e-002
2232:2.3635795953484908e-003
2233:7.4434927451622985e-003
2234:1.3708502258816826e-002
2235:1.8232191350274984e-002
2236:-4.9890727855152472e-003
2237:4.0273002365849944e-004
2238:7.0430417851425316e-003
2239:1.1830140185369466e-002
2240:3.5504861962927479e-002
2241:3.7049947635496322e-002
2242:3.8829211754628619e-002
2243:4.0011551291084135e-002
2244:2.8616013669925739e-002
2245:3.0503198020864725e-002
2246:3.2710810090626798e-002
2247:3.4207663413514180e-002
2248:2.0046857498148364e-002
2249:2.2369299406397095e-002
2250:2.5121322210135810e-002
2251:2.7017442509722583e-002
2252:1.3800088480753914e-002
2253:1.6447635877512436e-002
2254:1.9605835264625910e-002
2255:2.1799476160792013e-002
2256:4.0055137848651862e-002
2257:3.9064805414350277e-002
2258:3.7603552405868761e-002
2259:3.6353937297108466e-002
2260:3.4437014456182406e-002
2261:3.3827725413426248e-002
2262:3.2841793636505370e-002
2263:3.1939752712076983e-002
2264:2.7482530356790193e-002
2265:2.7356584923555357e-002
2266:2.6972794326442867e-002
2267:2.6510429042721804e-002
2268:2.2440159309709416e-002
2269:2.2674085524507344e-002
2270:2.2737992946069596e-002
2271:2.2602030103166280e-002
2272:3.5130076911023732e-002
2273:3.1791452296546910e-002
2274:2.7277984626828733e-002
2275:2.3697936869873096e-002
2276:3.0923550497385280e-002
2277:2.8022742149029417e-002
2278:2.4073032302609220e-002
2279:2.0919349871520960e-002
2280:2.5758978829123674e-002
2281:2.3420001797597491e-002
2282:2.0193578476791818e-002
2283:1.7586787083296807e-002
2284:2.2048758757298486e-002
2285:2.0133193919364724e-002
2286:1.7451735129685026e-002
2287:1.5256904989534033e-002
2288:2.1243309668334525e-002
2289:1.5620364054287116e-002
2290:8.1483864863993328e-003
2291:2.3175744706454625e-003
2292:1.8740534782075345e-002
2293:1.3732616190404249e-002
2294:7.0704937551057043e-003
2295:1.8660776628410597e-003
2296:1.5759734947815778e-002
2297:1.1533271629549612e-002
2298:5.9004067158572428e-003
2299:1.4922791381167800e-003
2300:1.3693256442408272e-002
2301:1.0049655043313373e-002
2302:5.1846787849448364e-003
2303:1.3707820275125696e-003
2304:-1.3346507194862372e-002
2305:-5.8270160191537301e-002
2306:-1.1494355662725994e-001
2307:-1.5689427402788600e-001
2308:-1.1141243694765166e-002
2309:-5.3063579311422318e-002
2310:-1.0636498885744052e-001
2311:-1.4614812153490495e-001
2312:-9.3599579079520386e-003
2313:-4.7481073628926167e-002
2314:-9.6532582709191503e-002
2315:-1.3360228378036107e-001
2316:-8.8346971946061028e-003
2317:-4.4130259030603143e-002
2318:-9.0039103498588971e-002
2319:-1.2511698334165861e-001
2320:-1.7710363261178397e-001
2321:-2.1143379262134521e-001
2322:-2.5531890631622445e-001
2323:-2.8826002104630333e-001
2324:-1.6538530177936653e-001
2325:-1.9793047735662933e-001
2326:-2.3930880927480971e-001
2327:-2.7019227499239629e-001
2328:-1.5169801076541481e-001
2329:-1.8227612969435789e-001
2330:-2.2085592406501395e-001
2331:-2.4941658200131017e-001
2332:-1.4243516058408626e-001
2333:-1.7178297249279537e-001
2334:-2.0857968421054468e-001
2335:-2.3563737054641820e-001
2336:-3.0211490218789061e-001
2337:-3.2128894137168751e-001
2338:-3.4567925048787629e-001
2339:-3.6389299607655989e-001
2340:-2.8349509456267624e-001
2341:-3.0258486706784243e-001
2342:-3.2652108152288484e-001
2343:-3.4412301431959735e-001
2344:-2.6198709051079222e-001
2345:-2.8055993961433234e-001
2346:-3.0337269351122415e-001
2347:-3.1976940255068420e-001
2348:-2.4763738460721993e-001
2349:-2.6550211105181215e-001
2350:-2.8704681245097152e-001
2351:-3.0220785271813422e-001
2352:-3.7067248662847352e-001
2353:-3.7658270042154540e-001
2354:-3.8053454553345417e-001
2355:-3.8068209565778011e-001
2356:-3.5044268995350608e-001
2357:-3.5580855732318240e-001
2358:-3.6005829123480848e-001
2359:-3.6120682005712196e-001
2360:-3.2544592001484896e-001
2361:-3.3034631118764357e-001
2362:-3.3530402920012320e-001
2363:-3.3800329956216552e-001
2364:-3.0735829110814256e-001
2365:-3.1208950253362999e-001
2366:-3.1783459708923245e-001
2367:-3.2191001282533882e-001
2368:-3.7711707001400796e-001
2369:-3.6552982490633118e-001
2370:-3.5125825676303807e-001
2371:-3.4096868532175129e-001
2372:-3.5885126549157131e-001
2373:-3.5012325070118872e-001
2374:-3.3897825325908920e-001
2375:-3.3062215633649472e-001
2376:-3.3713670092187442e-001
2377:-3.3156017447438291e-001
2378:-3.2373903394262843e-001
2379:-3.1732657257189856e-001
2380:-3.2211635631464153e-001
2381:-3.1851150051613519e-001
2382:-3.1265891317794436e-001
2383:-3.0729236665759441e-001
2384:-3.3429333156372398e-001
2385:-3.1886103777390140e-001
2386:-2.9798366681339422e-001
2387:-2.8141314143564078e-001
2388:-3.2462055277355362e-001
2389:-3.1016261998527950e-001
2390:-2.9085307197868471e-001
2391:-2.7571149368715953e-001
2392:-3.1209256364329679e-001
2393:-2.9906659478512954e-001
2394:-2.8201227990240119e-001
2395:-2.6889577343398696e-001
2396:-3.0256124957007419e-001
2397:-2.9075597016936827e-001
2398:-2.7559086808594779e-001
2399:-2.6414963715967049e-001
2400:-2.7159674998777866e-001
2401:-2.5205988740610502e-001
2402:-2.2756883685475876e-001
2403:-2.0956348861394219e-001
2404:-2.6685773170159960e-001
2405:-2.4926455750876919e-001
2406:-2.2703591950202573e-001
2407:-2.1055492392429606e-001
2408:-2.6125287787486179e-001
2409:-2.4586573333080139e-001
2410:-2.2615843115242251e-001
2411:-2.1133634920486366e-001
2412:-2.5740024332231431e-001
2413:-2.4345102237789637e-001
2414:-2.2534625093385599e-001
2415:-2.1154275686017918e-001
2416:-2.0016958771140331e-001
2417:-1.8274754018253336e-001
2418:-1.6060711447301346e-001
2419:-1.4409021242747660e-001
2420:-2.0172200625209397e-001
2421:-1.8500005763976812e-001
2422:-1.6378225139004274e-001
2423:-1.4797952925589197e-001
2424:-2.0316131590533809e-001
2425:-1.8740486191987504e-001
2426:-1.6745874154670415e-001
2427:-1.5263988580543442e-001
2428:-2.0381520804648312e-001
2429:-1.8883865710493936e-001
2430:-1.6991927829172010e-001
2431:-1.5589440658920944e-001
2432:-1.3566287993862997e-001
2433:-1.2062826168110286e-001
2434:-1.0178380739525494e-001
2435:-8.7931854447876545e-002
2436:-1.3989948221135240e-001
2437:-1.2542013040297226e-001
2438:-1.0722880198001708e-001
2439:-9.3822756003446708e-002
2440:-1.4501194425068845e-001
2441:-1.3120122715995133e-001
2442:-1.1378919920812253e-001
2443:-1.0090910436964849e-001
2444:-1.4861220986977761e-001
2445:-1.3527117319693960e-001
2446:-1.1840060523795976e-001
2447:-1.0588083133904690e-001
2448:-8.1139759419160282e-002
2449:-6.9434005478099761e-002
2450:-5.4773750574525382e-002
2451:-4.4006871945271246e-002
2452:-8.7176622973582196e-002
2453:-7.5598055222482821e-002
2454:-6.1092467413972028e-002
2455:-5.0435491023360493e-002
2456:-9.4443483179030702e-002
2457:-8.3049431770582716e-002
2458:-6.8769875058883850e-002
2459:-5.8274864281183822e-002
2460:-9.9545953859307854e-002
2461:-8.8307560454198755e-002
2462:-7.4219818603002904e-002
2463:-6.3863181877331920e-002
2464:-3.8891910784466251e-002
2465:-3.0412266999381252e-002
2466:-1.9842279648796798e-002
2467:-1.2119241859450321e-002
2468:-4.5334838635525454e-002
2469:-3.6803827206017277e-002
2470:-2.6167021206610606e-002
2471:-1.8392925083860829e-002
2472:-5.3200683180946909e-002
2473:-4.4613359591250117e-002
2474:-3.3903345217994478e-002
2475:-2.6073340499552559e-002
2476:-5.8815269710579821e-002
2477:-5.0192993132177510e-002
2478:-3.9437576651864890e-002
2479:-3.1572928255728827e-002
2480:-8.6014598121252200e-003
2481:-3.0845893274774501e-003
2482:3.7092630374877880e-003
2483:8.6066553974539182e-003
2484:-1.4817505118540783e-002
2485:-9.1372066962187824e-003
2486:-2.1346704545712482e-003
2487:2.9191844549543095e-003
2488:-2.2429534041303153e-002
2489:-1.6550875818200445e-002
2490:-9.2954640073048076e-003
2491:-4.0523371833561996e-003
2492:-2.7881930397111669e-002
2493:-2.1862635349582282e-002
2494:-1.4428275700165564e-002
2495:-9.0514774399123449e-003
2496:1.0646310000263722e-002
2497:1.3445675797412912e-002
2498:1.6793516272414977e-002
2499:1.9126038658217010e-002
2500:5.0660614584203782e-003
2501:8.1075231966594736e-003
2502:1.1757553018727570e-002
2503:1.4311204025910003e-002
2504:-1.7741080830772824e-003
2505:1.5660266753010654e-003
2506:5.5878950869091681e-003
2507:8.4128626173302044e-003
2508:-6.6791217577342344e-003
2509:-3.1232485382277995e-003
2510:1.1664200696910496e-003
2511:4.1861587415337040e-003
2512:1.9850013672610245e-002
2513:2.0257846006687712e-002
2514:2.0540671857409740e-002
2515:2.0566381877574848e-002
2516:1.5171226225304891e-002
2517:1.5870857168959761e-002
2518:1.6526281926152946e-002
2519:1.6831348366176131e-002
2520:9.4414945326368148e-003
2521:1.0505657072810501e-002
2522:1.1626103618306951e-002
2523:1.2279468071847460e-002
2524:5.3372044753070532e-003
2525:6.6683570956285526e-003
2526:8.1290343446941953e-003
2527:9.0369466886557424e-003
2528:2.0113339383510790e-002
2529:1.8414252373340857e-002
2530:1.6011985743141735e-002
2531:1.4028650062068083e-002
2532:1.6554199296440211e-002
2533:1.5237309807226204e-002
2534:1.3328973529039568e-002
2535:1.1720583732022531e-002
2536:1.2220672830581333e-002
2537:1.1376827685033451e-002
2538:1.0079509956160800e-002
2539:8.9347031417328290e-003
2540:9.1369715317892383e-003
2541:8.6360562109043595e-003
2542:7.7814354562751719e-003
2543:6.9723068296117848e-003
2544:1.2600401710592148e-002
2545:9.2565450671740039e-003
2546:4.7867198580249203e-003
2547:1.2788034429656863e-003
2548:1.0532938535078319e-002
2549:7.7224179409819951e-003
2550:3.9562973516699424e-003
2551:9.9375023473577818e-004
2552:8.0430293503290194e-003
2553:5.8866192732322199e-003
2554:2.9841723189277195e-003
2555:6.9143574831869966e-004
2556:6.2937229941829763e-003
2557:4.6066596591377356e-003
2558:2.3244291483125127e-003
2559:5.1307256857318685e-004
2560:-8.8526590133649920e-003
2561:-4.2738066739640909e-002
2562:-8.6924609307863568e-002
2563:-1.2077253515728241e-001
2564:-8.8234198197249640e-003
2565:-4.0342612706224655e-002
2566:-8.1339196891483431e-002
2567:-1.1266346607936056e-001
2568:-8.4045983330441262e-003
2569:-3.7189916392158615e-002
2570:-7.4485551080023873e-002
2571:-1.0287052783024400e-001
2572:-7.7918281315798744e-003
2573:-3.4752617766229163e-002
2574:-6.9565043572022686e-002
2575:-9.5968050076026573e-002
2576:-1.3756165684865732e-001
2577:-1.6611208307768199e-001
2578:-2.0188674871633808e-001
2579:-2.2817513132871470e-001
2580:-1.2824953681154655e-001
2581:-1.5495569996172032e-001
2582:-1.8857074614781177e-001
2583:-2.1339292181186179e-001
2584:-1.1702566030111883e-001
2585:-1.4149276866705951e-001
2586:-1.7250825539631620e-001
2587:-1.9558463395067111e-001
2588:-1.0913275528973054e-001
2589:-1.3201189067845509e-001
2590:-1.6120214496634599e-001
2591:-1.8306860667401892e-001
2592:-2.3986850332718712e-001
2593:-2.5733734473700781e-001
2594:-2.7834974704530308e-001
2595:-2.9309071369133483e-001
2596:-2.2453637374548999e-001
2597:-2.4142370347374559e-001
2598:-2.6196232450483209e-001
2599:-2.7655854584498091e-001
2600:-2.0607077984451611e-001
2601:-2.2225808398571104e-001
2602:-2.4225511998761060e-001
2603:-2.5672117388977217e-001
2604:-1.9309709144019779e-001
2605:-2.0879284148670521e-001
2606:-2.2843346574076431e-001
2607:-2.4284473192392561e-001
2608:-2.9816307793657870e-001
2609:-3.0311248029378329e-001
2610:-3.0934284763757536e-001
2611:-3.1394394471002246e-001
2612:-2.8186884334266332e-001
2613:-2.8762843744774208e-001
2614:-2.9466060103906738e-001
2615:-2.9968057588429164e-001
2616:-2.6231023421071342e-001
2617:-2.6894934644511598e-001
2618:-2.7679596943288121e-001
2619:-2.8218490694807596e-001
2620:-2.4862317315189020e-001
2621:-2.5580030264902787e-001
2622:-2.6409361018854455e-001
2623:-2.6962925099138169e-001
2624:-3.1448021736197740e-001
2625:-3.1146645734143585e-001
2626:-3.0629732135168919e-001
2627:-3.0138733826082242e-001
2628:-3.0040199760879127e-001
2629:-2.9788736947172534e-001
2630:-2.9364401100756826e-001
2631:-2.8965401584468098e-001
2632:-2.8310600284759052e-001
2633:-2.8126293141965503e-001
2634:-2.7825397774715666e-001
2635:-2.7548463890339125e-001
2636:-2.7067127737825658e-001
2637:-2.6935850004023748e-001
2638:-2.6731598187040828e-001
2639:-2.6549779316105815e-001
2640:-2.9697263483194242e-001
2641:-2.8594882007989958e-001
2642:-2.7183551915730725e-001
2643:-2.6122512440386342e-001
2644:-2.8594261155504092e-001
2645:-2.7644866938682988e-001
2646:-2.6415574769304662e-001
2647:-2.5480593071402918e-001
2648:-2.7262376122969728e-001
2649:-2.6485378654926667e-001
2650:-2.5458095122585733e-001
2651:-2.4660374721146733e-001
2652:-2.6323738441061312e-001
2653:-2.5658019842138963e-001
2654:-2.4758356432158529e-001
2655:-2.4044985418899201e-001
2656:-2.5485906377630801e-001
2657:-2.4148053251610282e-001
2658:-2.2406441579256636e-001
2659:-2.1074586746553989e-001
2660:-2.4897329894936576e-001
2661:-2.3643693614297490e-001
2662:-2.2018324453112542e-001
2663:-2.0780440348146414e-001
2664:-2.4139417095027371e-001
2665:-2.2995502237501164e-001
2666:-2.1521590891208475e-001
2667:-2.0406154301962520e-001
2668:-2.3566192777889958e-001
2669:-2.2506252504320631e-001
2670:-2.1148267585692584e-001
2671:-2.0126559462758220e-001
2672:-2.0327210350536687e-001
2673:-1.8877733898460736e-001
2674:-1.7046452182468966e-001
2675:-1.5688765907368549e-001
2676:-2.0085316965950181e-001
2677:-1.8731425567061463e-001
2678:-1.7015667300181656e-001
2679:-1.5739481298324889e-001
2680:-1.9775971762225014e-001
2681:-1.8534810199217824e-001
2682:-1.6954144653516970e-001
2683:-1.5772311783022214e-001
2684:-1.9543671406905133e-001
2685:-1.8379727801171411e-001
2686:-1.6890621773602765e-001
2687:-1.5771922080437356e-001
2688:-1.4979028817597470e-001
2689:-1.3669532317977554e-001
2690:-1.2012479480552449e-001
2691:-1.0781887843233207e-001
2692:-1.5063176168468109e-001
2693:-1.3801202257156947e-001
2694:-1.2205400289800664e-001
2695:-1.1021177221369963e-001
2696:-1.5136299556920768e-001
2697:-1.3935827087978109e-001
2698:-1.2419285086604212e-001
2699:-1.1295057787467828e-001
2700:-1.5164242688227703e-001
2701:-1.4010522889215427e-001
2702:-1.2554227229436188e-001
2703:-1.1475598580809834e-001
2704:-1.0157423351911248e-001
2705:-9.0465081632721170e-002
2706:-7.6535529551319550e-002
2707:-6.6292139626307700e-002
2708:-1.0417609196669063e-001
2709:-9.3378925183861941e-002
2710:-7.9828541910575840e-002
2711:-6.9854392881338725e-002
2712:-1.0718014060346030e-001
2713:-9.6767286870429625e-002
2714:-8.3681943152568675e-002
2715:-7.4036337918693323e-002
2716:-1.0918317352246894e-001
2717:-9.9047446267957640e-002
2718:-8.6295790587149729e-002
2719:-7.6884567624012856e-002
2720:-6.1277793228185613e-002
2721:-5.2671772394446426e-002
2722:-4.1935512893279958e-002
2723:-3.4083974391497532e-002
2724:-6.4934612410886522e-002
2725:-5.6422671753004895e-002
2726:-4.5801256816610979e-002
2727:-3.8031682806960544e-002
2728:-6.9235543798184557e-002
2729:-6.0852594535489628e-002
2730:-5.0389165106470749e-002
2731:-4.2732774908141882e-002
2732:-7.2171601165900323e-002
2733:-6.3892302002001466e-002
2734:-5.3556203214719128e-002
2735:-4.5991347431458197e-002
2736:-3.0384360206060421e-002
2737:-2.4320754125259872e-002
2738:-1.6829225821207872e-002
2739:-1.1409105044966955e-002
2740:-3.4345636573754848e-002
2741:-2.8253420868759562e-002
2742:-2.0722441245995728e-002
2743:-1.5270455361723884e-002
2744:-3.9068191620794467e-002
2745:-3.2946518674066991e-002
2746:-2.5374334678142145e-002
2747:-1.9888644054846961e-002
2748:-4.2346096635906293e-002
2749:-3.6207878452524253e-002
2750:-2.8611983794554867e-002
2751:-2.3106492450774563e-002
2752:-9.0011262304164740e-003
2753:-5.3561436173093927e-003
2754:-9.5385265575451844e-004
2755:2.1494148739497070e-003
2756:-1.2821723503638891e-002
2757:-9.0565478451261582e-003
2758:-4.4974231447762669e-003
2759:-1.2739389943611282e-003
2760:-1.7392467940620163e-002
2761:-1.3484097338169449e-002
2762:-8.7381231584426552e-003
2763:-5.3714133048778888e-003
2764:-2.0578342313406481e-002
2765:-1.6570661931724472e-002
2766:-1.1695100843712362e-002
2767:-8.2290576356073147e-003
2768:3.3558635570477839e-003
2769:4.8118168746891015e-003
2770:6.4326389808470330e-003
2771:7.4612358905516577e-003
2772:1.7945889757218663e-005
2773:1.6734922687314721e-003
2774:3.5527668163390981e-003
2775:4.7779511398447485e-003
2776:-3.9771351765898093e-003
2777:-2.0816186691589886e-003
2778:1.0819163093679960e-004
2779:1.5694245522352252e-003
2780:-6.7632576084141255e-003
2781:-4.6994851337553894e-003
2782:-2.2921085488545856e-003
2783:-6.6562530786284924e-004
2784:7.6376711553781873e-003
2785:7.3035531638756647e-003
2786:6.6655656470164387e-003
2787:6.0217157146963754e-003
2788:5.0811865597489214e-003
2789:5.0276142736457516e-003
2790:4.7566731518648509e-003
2791:4.3949211262126744e-003
2792:2.0242350567642137e-003
2793:2.3051091703430592e-003
2794:2.4718483559762272e-003
2795:2.4465679192074174e-003
2796:-1.0526625736690195e-004
2797:4.0773339042588419e-004
2798:8.7834416954148641e-004
2799:1.0867414682563608e-003
2800:5.4485791424834142e-003
2801:3.9938240788685020e-003
2802:2.0180774337815312e-003
2803:4.4422019161882454e-004
2804:4.0021663329117257e-003
2805:2.9439060852913044e-003
2806:1.4903337628792588e-003
2807:3.2042015329913372e-004
2808:2.2658185564225939e-003
2809:1.6688566522536606e-003
2810:8.2348989221414897e-004
2811:1.2459325160332893e-004
2812:1.0505924073441932e-003
2813:7.6425764689908894e-004
2814:3.2903187661413304e-004
2815:-5.1788803654679560e-005
2816:-7.3743112788089869e-003
2817:-3.3464245437461300e-002
2818:-6.7129694995706202e-002
2819:-9.2645362732318409e-002
2820:-6.6763668917821121e-003
2821:-3.1217595273996583e-002
2822:-6.2924768920040230e-002
2823:-8.6987310927735109e-002
2824:-5.9934439565253305e-003
2825:-2.8618313567643733e-002
2826:-5.7906526955240331e-002
2827:-8.0177415462218876e-002
2828:-5.6445391380958157e-003
2829:-2.6880537599536868e-002
2830:-5.4419014627515687e-002
2831:-7.5396612032355856e-002
2832:-1.0536939779128418e-001
2833:-1.2751800938212346e-001
2834:-1.5582979164064087e-001
2835:-1.7708017169701820e-001
2836:-9.9010805680898192e-002
2837:-1.1997128984970015e-001
2838:-1.4676645837477043e-001
2839:-1.6688015612737442e-001
2840:-9.1337440997918060e-002
2841:-1.1083315839890809e-001
2842:-1.3576100275701272e-001
2843:-1.5447705525459957e-001
2844:-8.5933570161173145e-002
2845:-1.0437208121676103e-001
2846:-1.2795412728548392e-001
2847:-1.4566441855592965e-001
2848:-1.8685707560385295e-001
2849:-2.0222966081507349e-001
2850:-2.2153502304019848e-001
2851:-2.3575553254496823e-001
2852:-1.7616115086364525e-001
2853:-1.9081166659974153e-001
2854:-2.0921417664590608e-001
2855:-2.2277277796535136e-001
2856:-1.6314892351029245e-001
2857:-1.7691415802503405e-001
2858:-1.9421282946838275e-001
2859:-2.0696464324904651e-001
2860:-1.5389846899879081e-001
2861:-1.6702872976261435e-001
2862:-1.8353818462479590e-001
2863:-1.9571518594435114e-001
2864:-2.4151926083074035e-001
2865:-2.4878794997474438e-001
2866:-2.5718267224022118e-001
2867:-2.6278221153035447e-001
2868:-2.2830957391527629e-001
2869:-2.3545095668168325e-001
2870:-2.4386713437445967e-001
2871:-2.4962686896107242e-001
2872:-2.1221562823317366e-001
2873:-2.1917264608306425e-001
2874:-2.2759298555059682e-001
2875:-2.3354346461777312e-001
2876:-2.0075498504187014e-001
2877:-2.0755669719643485e-001
2878:-2.1596196080071572e-001
2879:-2.2204463584665002e-001
2880:-2.6392070806501422e-001
2881:-2.6293916954406649e-001
2882:-2.6138933606551323e-001
2883:-2.5999514247689887e-001
2884:-2.5100778686998387e-001
2885:-2.5067688257693366e-001
2886:-2.4992849124146232e-001
2887:-2.4911219014065134e-001
2888:-2.3520186655302780e-001
2889:-2.3559247686341719e-001
2890:-2.3572354660132269e-001
2891:-2.3553385244693464e-001
2892:-2.2388597030559451e-001
2893:-2.2473195257173070e-001
2894:-2.2540970171641969e-001
2895:-2.2560263777767223e-001
2896:-2.5797217678136269e-001
2897:-2.5174636913081311e-001
2898:-2.4328819031105831e-001
2899:-2.3654849728780655e-001
2900:-2.4739008441476121e-001
2901:-2.4177096184193417e-001
2902:-2.3418854310051890e-001
2903:-2.2818461331233511e-001
2904:-2.3416143383476412e-001
2905:-2.2930042699578490e-001
2906:-2.2281700220502623e-001
2907:-2.1773959909969334e-001
2908:-2.2446539285097683e-001
2909:-2.2015981281053193e-001
2910:-2.1448527035813608e-001
2911:-2.1009237220867039e-001
2912:-2.3198945079858568e-001
2913:-2.2186606175560938e-001
2914:-2.0890912865011010e-001
2915:-1.9917089872170932e-001
2916:-2.2407629706054238e-001
2917:-2.1484939736081238e-001
2918:-2.0300544937021192e-001
2919:-1.9407681950205130e-001
2920:-2.1417824192031085e-001
2921:-2.0600013345932675e-001
2922:-1.9545060950170862e-001
2923:-1.8745740462261795e-001
2924:-2.0691871566130024e-001
2925:-1.9945180478381255e-001
2926:-1.8977351193911085e-001
2927:-1.8240461536049962e-001
2928:-1.9356850981676435e-001
2929:-1.8229044490629762e-001
2930:-1.6784945434422338e-001
2931:-1.5699099591404264e-001
2932:-1.8884814958462701e-001
2933:-1.7819176760048630e-001
2934:-1.6457339874901034e-001
2935:-1.5435425016297410e-001
2936:-1.8267601042789758e-001
2937:-1.7280029516021655e-001
2938:-1.6021548148277520e-001
2939:-1.5079999781844428e-001
2940:-1.7793512893168065e-001
2941:-1.6863441090415926e-001
2942:-1.5681130715428770e-001
2943:-1.4798844764792585e-001
2944:-1.5107509666162636e-001
2945:-1.3981750470826160e-001
2946:-1.2560816361056357e-001
2947:-1.1508432654681687e-001
2948:-1.4876366946027880e-001
2949:-1.3806832453444079e-001
2950:-1.2455808248867700e-001
2951:-1.1454364389251703e-001
2952:-1.4561202147972929e-001
2953:-1.3559872168467466e-001
2954:-1.2293337611530132e-001
2955:-1.1353203003765308e-001
2956:-1.4309230300702763e-001
2957:-1.3356225980776354e-001
2958:-1.2149295283575648e-001
2959:-1.1252201479395195e-001
2960:-1.0962461481678114e-001
2961:-9.9651344490890428e-002
2962:-8.7101502375662193e-002
2963:-7.7837181505087671e-002
2964:-1.0930696368374189e-001
2965:-9.9671556972884656e-002
2966:-8.7552334125276840e-002
2967:-7.8610243795093043e-002
2968:-1.0856990039778990e-001
2969:-9.9365129958680132e-002
2970:-8.7794461124548431e-002
2971:-7.9262610269387843e-002
2972:-1.0775771084830403e-001
2973:-9.8875197015127841e-002
2974:-8.7714784660150619e-002
2975:-7.9489557336282324e-002
2976:-7.3185791955931556e-002
2977:-6.4992383657971498e-002
2978:-5.4762225380114583e-002
2979:-4.7273874416275417e-002
2980:-7.4101877844586161e-002
2981:-6.6120952074000969e-002
2982:-5.6152948018159586e-002
2983:-4.8853969443320329e-002
2984:-7.4935868381904691e-002
2985:-6.7223657704295448e-002
2986:-5.7586581653024979e-002
2987:-5.0526165894284471e-002
2988:-7.5298202482234219e-002
2989:-6.7785421320401384e-002
2990:-5.8393468956192213e-002
2991:-5.1509372574838376e-002
2992:-4.3653378010985511e-002
2993:-3.7532869754388944e-002
2994:-2.9957072605627692e-002
2995:-2.4464678707981666e-002
2996:-4.5305112853439404e-002
2997:-3.9266584231914183e-002
2998:-3.1788578589882190e-002
2999:-2.6364109176414584e-002
3000:-4.7069955181749300e-002
3001:-4.1143809602779351e-002
3002:-3.3800469432176156e-002
3003:-2.8470045014378175e-002
3004:-4.8123538456165744e-002
3005:-4.2287684654796140e-002
3006:-3.5052981015687566e-002
3007:-2.9798793224598160e-002
3008:-2.1931993401125276e-002
3009:-1.7894602294582521e-002
3010:-1.2978234864844432e-002
3011:-9.4793505412760458e-003
3012:-2.3845798082319715e-002
3013:-1.9795069171089960e-002
3014:-1.4853650850992490e-002
3015:-1.1329703945589324e-002
3016:-2.5974839814116378e-002
3017:-2.1917617681141494e-002
3018:-1.6957747998092968e-002
3019:-1.3412010311004537e-002
3020:-2.7324632722477836e-002
3021:-2.3270794966537989e-002
3022:-1.8307692170425421e-002
3023:-1.4753614083211710e-002
3024:-7.9860894483859343e-003
3025:-5.8524321832593767e-003
3026:-3.3526297825074553e-003
3027:-1.6543522538656592e-003
3028:-9.8044727215389083e-003
3029:-7.5763208035457509e-003
3030:-4.9465934672720414e-003
3031:-3.1436492974638063e-003
3032:-1.1853121540907504e-002
3033:-9.5210003072743049e-003
3034:-6.7469641799461320e-003
3035:-4.8267790903912377e-003
3036:-1.3175101957620002e-002
3037:-1.0778101324747403e-002
3038:-7.9127798975476473e-003
3039:-5.9175434204503767e-003
3040:-1.0466427635967093e-003
3041:-4.2759853855237024e-004
3042:1.8293159850346711e-004
3043:4.9976601496241121e-004
3044:-2.4637617835902162e-003
3045:-1.6792543485596569e-003
3046:-8.4799584885915781e-004
3047:-3.5827122192183167e-004
3048:-4.0665346309529159e-003
3049:-3.0986725971409988e-003
3050:-2.0218660721453684e-003
3051:-1.3390966848333755e-003
3052:-5.1062982183340015e-003
3053:-4.0228360326897339e-003
3054:-2.7903585111835011e-003
3055:-1.9845619715360358e-003
3056:5.3056872273625196e-004
3057:3.8723416521311188e-004
3058:1.4054200942377495e-004
3059:-9.4276624206565495e-005
3060:-2.2103880179881962e-004
3061:-1.3882480560445075e-004
3062:-8.8748960959082624e-005
3063:-9.4201941409976993e-005
3064:-1.0869152361267253e-003
3065:-7.6763648225733284e-004
3066:-4.0500841443514153e-004
3067:-1.6841638834547016e-004
3068:-1.6626054351393663e-003
3069:-1.2054798349784353e-003
3070:-6.6051000335985797e-004
3071:-2.8225403149130995e-004
3072:-5.5109380010916718e-003
3073:-2.6018378900613658e-002
3074:-5.2628034780245816e-002
3075:-7.2910404381210339e-002
3076:-5.2467491001282288e-003
3077:-2.4414872493817151e-002
3078:-4.9296341915070034e-002
3079:-6.8268900507553881e-002
3080:-4.8645665027824163e-003
3081:-2.2403977225721239e-002
3082:-4.5185545844526741e-002
3083:-6.2567889505348445e-002
3084:-4.5429095817149032e-003
3085:-2.0924992175542428e-002
3086:-4.2215819650319904e-002
3087:-5.8470341679382754e-002
3088:-8.3107993723178189e-002
3089:-1.0096983260892278e-001
3090:-1.2382538235609736e-001
3091:-1.4099870316157290e-001
3092:-7.7817427392301505e-002
3093:-9.4571843166304681e-002
3094:-1.1604615624620362e-001
3095:-1.3220960927589281e-001
3096:-7.1323722352369168e-002
3097:-8.6717767005417210e-002
3098:-1.0650020970843248e-001
3099:-1.2143057408731649e-001
3100:-6.6660120195578002e-002
3101:-8.1076281766048849e-002
3102:-9.9646501364579365e-002
3103:-1.1369653799684634e-001
3104:-1.4899888112488896e-001
3105:-1.6179200650235043e-001
3106:-1.7789608243516566e-001
3107:-1.8978881577592047e-001
3108:-1.3976493233079354e-001
3109:-1.5190956645989934e-001
3110:-1.6725773125301152e-001
3111:-1.7864022337736518e-001
3112:-1.2843163016429446e-001
3113:-1.3974377761289838e-001
3114:-1.5412345102055380e-001
3115:-1.6485383414845822e-001
3116:-1.2029281586038602e-001
3117:-1.3097733982306856e-001
3118:-1.4462832869348299e-001
3119:-1.5486933836741648e-001
3120:-1.9472510888544678e-001
3121:-2.0143348293179122e-001
3122:-2.0977722098408516e-001
3123:-2.1585892192248618e-001
3124:-1.8339470461454094e-001
3125:-1.8990924456507169e-001
3126:-1.9803866405191653e-001
3127:-2.0398567121222400e-001
3128:-1.6937059466362306e-001
3129:-1.7561671917264707e-001
3130:-1.8344626863525790e-001
3131:-1.8920202195317440e-001
3132:-1.5920350983044892e-001
3133:-1.6523201572637633e-001
3134:-1.7281621447053555e-001
3135:-1.7841348949306712e-001
3136:-2.1774338793700834e-001
3137:-2.1873159723166150e-001
3138:-2.1960620880924667e-001
3139:-2.1995868729621801e-001
3140:-2.0586018274936299e-001
3141:-2.0696731837004922e-001
3142:-2.0808694284134616e-001
3143:-2.0869607406088675e-001
3144:-1.9105110564801445e-001
3145:-1.9228223557364807e-001
3146:-1.9368086355626504e-001
3147:-1.9459368357984982e-001
3148:-1.8023354945101891e-001
3149:-1.8153582331024848e-001
3150:-1.8311712150815102e-001
3151:-1.8423881187186208e-001
3152:-2.1893762141554543e-001
3153:-2.1491410035675718e-001
3154:-2.0963211466083415e-001
3155:-2.0555890584917355e-001
3156:-2.0788139557132446e-001
3157:-2.0434129064699783e-001
3158:-1.9969795322582543e-001
3159:-1.9612030907605779e-001
3160:-1.9401858878572867e-001
3161:-1.9102893590423811e-001
3162:-1.8711412487606982e-001
3163:-1.8410278320481951e-001
3164:-1.8382458635390994e-001
3165:-1.8119530256457148e-001
3166:-1.7775859778301123e-001
3167:-1.7511977373134024e-001
3168:-2.0255785282537550e-001
3169:-1.9540672615778182e-001
3170:-1.8613577014904839e-001
3171:-1.7907549399109637e-001
3172:-1.9338293611908475e-001
3173:-1.8673898406434683e-001
3174:-1.7816889325623844e-001
3175:-1.7167579530116683e-001
3176:-1.8167686846408196e-001
3177:-1.7565267109990584e-001
3178:-1.6794225903251370e-001
3179:-1.6214720369639563e-001
3180:-1.7290761169014449e-001
3181:-1.6732625862725573e-001
3182:-1.6023277866875649e-001
3183:-1.5494057122394481e-001
3184:-1.7477143921442775e-001
3185:-1.6578482008987508e-001
3186:-1.5437125761309142e-001
3187:-1.4586208300513165e-001
3188:-1.6768623014716777e-001
3189:-1.5929095598251966e-001
3190:-1.4863642082648379e-001
3191:-1.4069941050195645e-001
3192:-1.5854077282728624e-001
3193:-1.5085697303040552e-001
3194:-1.4111438764184586e-001
3195:-1.3386382625865273e-001
3196:-1.5160695539133054e-001
3197:-1.4442242619034282e-001
3198:-1.3531873679014547e-001
3199:-1.2854826532636976e-001
3200:-1.4111779053962542e-001
3201:-1.3184037801149442e-001
3202:-1.2009190022503226e-001
3203:-1.1136012899119074e-001
3204:-1.3623284791518686e-001
3205:-1.2743149802658948e-001
3206:-1.1630566166535471e-001
3207:-1.0805227176751256e-001
3208:-1.2973697208904569e-001
3209:-1.2153180555228427e-001
3210:-1.1118579552940139e-001
3211:-1.0353161423475092e-001
3212:-1.2466441863831935e-001
3213:-1.1689707598708407e-001
3214:-1.0712381649401047e-001
3215:-9.9909777781348560e-002
3216:-1.0671155568760428e-001
3217:-9.8024964030101011e-002
3218:-8.7113177659828220e-002
3219:-7.9073145708277698e-002
3220:-1.0364173421466528e-001
3221:-9.5362706400550251e-002
3222:-8.4966612912447101e-002
3223:-7.7309520197861484e-002
3224:-9.9418823230984374e-002
3225:-9.1648370787875841e-002
3226:-8.1894866947304523e-002
3227:-7.4714221368996442e-002
3228:-9.6015365246129164e-002
3229:-8.8616941642155361e-002
3230:-7.9332767426707890e-002
3231:-7.2499526081119856e-002
3232:-7.4965408656991278e-002
3233:-6.7581103522577804e-002
3234:-5.8349431810884630e-002
3235:-5.1582552825280875e-002
3236:-7.3379186334048455e-002
3237:-6.6279241874829919e-002
3238:-5.7406092977164841e-002
3239:-5.0904431173033712e-002
3240:-7.1007928151177027e-002
3241:-6.4274325691038692e-002
3242:-5.5862856849245072e-002
3243:-4.9702560130865159e-002
3244:-6.8959260479135864e-002
3245:-6.2502861190703585e-002
3246:-5.4440576619714097e-002
3247:-4.8538339579314756e-002
3248:-4.8247700240968534e-002
3249:-4.2486226877244036e-002
3250:-3.5341851539026282e-002
3251:-3.0151747118033000e-002
3252:-4.7690464265995720e-002
3253:-4.2115961167836002e-002
3254:-3.5199488446184146e-002
3255:-3.0171764558617198e-002
3256:-4.6645321739218294e-002
3257:-4.1315703160266372e-002
3258:-3.4697806845909285e-002
3259:-2.9882884744023466e-002
3260:-4.5600463880053843e-002
3261:-4.0459257309471683e-002
3262:-3.4071144683437762e-002
3263:-2.9420044857790002e-002
3264:-2.7701216644604620e-002
3265:-2.3672238175967125e-002
3266:-1.8735467809901520e-002
3267:-1.5196895287764444e-002
3268:-2.7788224327443701e-002
3269:-2.3848612080043921e-002
3270:-1.9013187665719765e-002
3271:-1.5540601632845104e-002
3272:-2.7589559785629107e-002
3273:-2.3776157325340275e-002
3274:-1.9085501823322762e-002
3275:-1.5708621556328208e-002
3276:-2.7198020204663973e-002
3277:-2.3488717884467623e-002
3278:-1.8918631983706153e-002
3279:-1.5622472124827135e-002
3280:-1.3618600401125610e-002
3281:-1.1207098018860912e-002
3282:-8.3172014707019008e-003
3283:-6.2987956610464843e-003
3284:-1.3982218102481046e-002
3285:-1.1579737405293696e-002
3286:-8.6870265278444232e-003
3287:-6.6552849616103521e-003
3288:-1.4183019340185187e-002
3289:-1.1808227578090821e-002
3290:-8.9326135344385479e-003
3291:-6.8993906854684624e-003
3292:-1.4127208867584907e-002
3293:-1.1785839652705257e-002
3294:-8.9392475907001789e-003
3295:-6.9170898472973334e-003
3296:-5.4697165478411426e-003
3297:-4.3431712694449454e-003
3298:-3.0504383017084186e-003
3299:-2.1953595778811444e-003
3300:-5.8091878018162795e-003
3301:-4.6339007500050362e-003
3302:-3.2672411768378180e-003
3303:-2.3475824969052222e-003
3304:-6.0423213081244979e-003
3305:-4.8296738083265477e-003
3306:-3.4007886445978270e-003
3307:-2.4231051112148859e-003
3308:-6.0602192582636036e-003
3309:-4.8390438850854757e-003
3310:-3.3887000253534209e-003
3311:-2.3866504358978128e-003
3312:-1.8463073976892990e-003
3313:-1.3381151446973018e-003
3314:-7.2565776693717923e-004
3315:-2.9501712064824992e-004
3316:-1.9647956172317042e-003
3317:-1.3986182899154978e-003
3318:-7.0976978506771989e-004
3319:-2.2001463045491750e-004
3320:-2.0158948763632418e-003
3321:-1.4213542922724308e-003
3322:-6.9453834240077394e-004
3323:-1.7494633502940137e-004
3324:-1.9757364595839998e-003
3325:-1.3957030531276077e-003
3326:-6.8707812080957104e-004
3327:-1.8086385704181503e-004
3328:-4.3548619787121571e-003
3329:-2.0119742471673897e-002
3330:-4.0614691816607700e-002
3331:-5.6266418279358132e-002
3332:-4.0024537960554000e-003
3333:-1.8582013178089486e-002
3334:-3.7546472246103538e-002
3335:-5.2037438808770611e-002
3336:-3.5803830890790166e-003
3337:-1.6669729111096713e-002
3338:-3.3710781128670569e-002
3339:-4.6743579852533371e-002
3340:-3.2858011628146399e-003
3341:-1.5276127572412881e-002
3342:-3.0899288668094344e-002
3343:-4.2857628990386816e-002
3344:-6.4150980124469764e-002
3345:-7.8033860209814218e-002
3346:-9.5940015473114953e-002
3347:-1.0950539264017652e-001
3348:-5.9330769975126582e-002
3349:-7.2172106421747123e-002
3350:-8.8774738530337904e-002
3351:-1.0138349510941817e-001
3352:-5.3291636797485317e-002
3353:-6.4815765953404242e-002
3354:-7.9772092484048970e-002
3355:-9.1174442638062972e-002
3356:-4.8854489429029778e-002
3357:-5.9401021652260216e-002
3358:-7.3137257621859797e-002
3359:-8.3646933893919181e-002
3360:-1.1587223947371254e-001
3361:-1.2618509133063263e-001
3362:-1.3939408467268297e-001
3363:-1.4932923368288159e-001
3364:-1.0729070194209454e-001
3365:-1.1684168979658380e-001
3366:-1.2912760119434666e-001
3367:-1.3840962643882312e-001
3368:-9.6500105169960382e-002
3369:-1.0508350219515611e-001
3370:-1.1619953181609088e-001
3371:-1.2465584187342606e-001
3372:-8.8540790030890507e-002
3373:-9.6402835839662568e-002
3374:-1.0664864138846362e-001
3375:-1.1449234046607870e-001
3376:-1.5353899596942630e-001
3377:-1.5940306122654269e-001
3378:-1.6680758552774161e-001
3379:-1.7229387912000282e-001
3380:-1.4233714303490785e-001
3381:-1.4780406291922693e-001
3382:-1.5478272721023337e-001
3383:-1.6001336746212150e-001
3384:-1.2821952113660692e-001
3385:-1.3315841579356916e-001
3386:-1.3956858529424498e-001
3387:-1.4445580790808252e-001
3388:-1.1778054096324829e-001
3389:-1.2230717372140539e-001
3390:-1.2827176036686858e-001
3391:-1.3288821311431551e-001
3392:-1.7408653645449954e-001
3393:-1.7539945152446820e-001
3394:-1.7703544836405305e-001
3395:-1.7823034479558986e-001
3396:-1.6173258573149202e-001
3397:-1.6301333495842410e-001
3398:-1.6467069512996715e-001
3399:-1.6593050515092028e-001
3400:-1.4606766906574647e-001
3401:-1.4727300401556753e-001
3402:-1.4891459859060227e-001
3403:-1.5022565588342279e-001
3404:-1.3440894614908711e-001
3405:-1.3553084476779759e-001
3406:-1.3712690900563709e-001
3407:-1.3845160939978821e-001
3408:-1.7787692727782015e-001
3409:-1.7539405281468098e-001
3410:-1.7216877386436552e-001
3411:-1.6970763410238221e-001
3412:-1.6564943878374347e-001
3413:-1.6337542290834703e-001
3414:-1.6049129160672204e-001
3415:-1.5834423680821938e-001
3416:-1.5002118431005762e-001
3417:-1.4798630181194197e-001
3418:-1.4550373601769523e-001
3419:-1.4373310563132211e-001
3420:-1.3829219845819282e-001
3421:-1.3641502374910647e-001
3422:-1.3420686809558391e-001
3423:-1.3269917187396643e-001
3424:-1.6760467227093384e-001
3425:-1.6225441662884726e-001
3426:-1.5548037191621283e-001
3427:-1.5044672776643420e-001
3428:-1.5644208753668343e-001
3429:-1.5151432024716457e-001
3430:-1.4531960579909189e-001
3431:-1.4075152580727965e-001
3432:-1.4207163736530803e-001
3433:-1.3764844180099756e-001
3434:-1.3214871643797199e-001
3435:-1.2814141006807325e-001
3436:-1.3120582977654702e-001
3437:-1.2713360137324933e-001
3438:-1.2211989109278566e-001
3439:-1.1850662768928678e-001
3440:-1.4725191132447349e-001
3441:-1.4032366166547966e-001
3442:-1.3155784811761162e-001
3443:-1.2504902534255508e-001
3444:-1.3780781769575304e-001
3445:-1.3135538429184007e-001
3446:-1.2323603611734189e-001
3447:-1.1724236067552304e-001
3448:-1.2550528677412612e-001
3449:-1.1964510283625056e-001
3450:-1.1233195139623414e-001
3451:-1.0698184149384576e-001
3452:-1.1609089131756398e-001
3453:-1.1066274741546610e-001
3454:-1.0393894560755511e-001
3455:-9.9060206819087601e-002
3456:-1.2130260464117580e-001
3457:-1.1378791465211445e-001
3458:-1.0434433659677907e-001
3459:-9.7383012274863859e-002
3460:-1.1377192596044268e-001
3461:-1.0676648402684559e-001
3462:-9.7985970976353823e-002
3463:-9.1531807680678465e-002
3464:-1.0385651832968505e-001
3465:-9.7487866778532009e-002
3466:-8.9536410976348305e-002
3467:-8.3716315072791453e-002
3468:-9.6187917466068390e-002
3469:-9.0286150701811105e-002
3470:-8.2942487669354970e-002
3471:-7.7587189523466965e-002
3472:-9.3614743152828153e-002
3473:-8.6434486173369907e-002
3474:-7.7428979568286760e-002
3475:-7.0804739806279202e-002
3476:-8.8019615099951959e-002
3477:-8.1291140667023351e-002
3478:-7.2868709397235609e-002
3479:-6.6686480399707884e-002
3480:-8.0527874006450367e-002
3481:-7.4377616464860630e-002
3482:-6.6701279531889243e-002
3483:-6.1084517978993377e-002
3484:-7.4638949018404496e-002
3485:-6.8923254756472499e-002
3486:-6.1807526824185735e-002
3487:-5.6615556768904209e-002
3488:-6.7367533379468020e-002
3489:-6.1088001660384313e-002
3490:-5.3248335984414870e-002
3491:-4.7510482782910798e-002
3492:-6.3471236958757324e-002
3493:-5.7577793319506541e-002
3494:-5.0223789211655351e-002
3495:-4.4844316157208491e-002
3496:-5.8154325379125772e-002
3497:-5.2758780127874674e-002
3498:-4.6030810818973714e-002
3499:-4.1113085037940519e-002
3500:-5.3900354214195756e-002
3501:-4.8881946870938879e-002
3502:-4.2627961655335209e-002
3503:-3.8059665849509851e-002
3504:-4.4650558008201183e-002
3505:-3.9636770221463460e-002
3506:-3.3404985725428771e-002
3507:-2.8866101736817772e-002
3508:-4.2157713388635852e-002
3509:-3.7434715212060821e-002
3510:-3.1561149825873769e-002
3511:-2.7280588537081502e-002
3512:-3.8651946007208636e-002
3513:-3.4311659741187960e-002
3514:-2.8909792373070630e-002
3515:-2.4969582743532750e-002
3516:-3.5770817066422773e-002
3517:-3.1726398393843266e-002
3518:-2.6689375485686496e-002
3519:-2.3012566539250944e-002
3520:-2.6695552728207558e-002
3521:-2.3066954043470426e-002
3522:-1.8591608381864480e-002
3523:-1.5359971733741417e-002
3524:-2.5231955852073842e-002
3525:-2.1801245923542059e-002
3526:-1.7559727177960147e-002
3527:-1.4488633902062205e-002
3528:-2.3082896417221214e-002
3529:-1.9917870523900389e-002
3530:-1.5991208796629190e-002
3531:-1.3137074258896547e-002
3532:-2.1252210665346230e-002
3533:-1.8296561765429886e-002
3534:-1.4618715895517227e-002
3535:-1.1936612967208438e-002
3536:-1.3892131409897901e-002
3537:-1.1589402020609749e-002
3538:-8.7832499106910104e-003
3539:-6.7844425451705961e-003
3540:-1.3092748786485014e-002
3541:-1.0900161690899354e-002
3542:-8.2148663516802868e-003
3543:-6.2911774412926754e-003
3544:-1.1840391380372300e-002
3545:-9.8039836471859286e-003
3546:-7.2926482874688748e-003
3547:-5.4794424108931452e-003
3548:-1.0720041501231441e-002
3549:-8.8128980500888372e-003
3550:-6.4473683158811556e-003
3551:-4.7284028827854858e-003
3552:-5.9370695639182642e-003
3553:-4.7290069147668500e-003
3554:-3.2877408969530873e-003
3555:-2.2864939626392584e-003
3556:-5.4775764407391913e-003
3557:-4.3224225317727485e-003
3558:-2.9303810104019659e-003
3559:-1.9516813241636866e-003
3560:-4.7171619274866249e-003
3561:-3.6458021617926072e-003
3562:-2.3372464705752683e-003
3563:-1.4027276591361834e-003
3564:-4.0110193867624391e-003
3565:-3.0151985105872359e-003
3566:-1.7853933410007746e-003
3567:-8.9605192696400797e-004
3568:-1.8817554635730998e-003
3569:-1.3273306419234708e-003
3570:-6.5176745744189950e-004
3571:-1.7062479933844664e-004
3572:-1.5695136971008994e-003
3573:-1.0853485790870182e-003
3574:-5.0087679495923801e-004
3575:-8.9107992387243114e-005
3576:-1.0593675880485162e-003
3577:-6.8723258292065215e-004
3578:-2.4817482267631594e-004
3579:5.2719651415892434e-005
3580:-5.8960889537175952e-004
3581:-3.1894459512991165e-004
3582:-1.1699875899351694e-005
3583:1.8860974142212431e-004
3584:-3.1191201157384028e-003
3585:-1.4467917095462066e-002
3586:-2.9265785904588636e-002
3587:-4.0600569173541858e-002
3588:-2.7736594362882004e-003
3589:-1.2801551740110197e-002
3590:-2.5903987970433973e-002
3591:-3.5960755661728072e-002
3592:-2.3262515999538801e-003
3593:-1.0657910203081097e-002
3594:-2.1583740118170380e-002
3595:-3.0000232404811762e-002
3596:-1.9858830096290770e-003
3597:-9.0382979993138719e-003
3598:-1.8323051387863911e-002
3599:-2.5503189159327488e-002
3600:-4.6276366169770579e-002
3601:-5.6249938643747811e-002
3602:-6.9270371820982682e-002
3603:-7.9255757265735333e-002
3604:-4.0977126805811379e-002
3605:-4.9768958393062897e-002
3606:-6.1311305791193468e-002
3607:-7.0212681708390373e-002
3608:-3.4168887210028996e-002
3609:-4.1439175290070365e-002
3610:-5.1079517178018979e-002
3611:-5.8586861719313203e-002
3612:-2.9031809614072174e-002
3613:-3.5151472029086937e-002
3614:-4.3354324813033210e-002
3615:-4.9808775048475452e-002
3616:-8.3893217260309003e-002
3617:-9.1322912585952987e-002
3618:-1.0104969875234891e-001
3619:-1.0853014605691130e-001
3620:-7.4314654703430252e-002
3621:-8.0833199680065665e-002
3622:-8.9469426174319147e-002
3623:-9.6189310275183473e-002
3624:-6.1996366961366206e-002
3625:-6.7329060071056379e-002
3626:-7.4546253002804999e-002
3627:-8.0276759408463766e-002
3628:-5.2692286880475232e-002
3629:-5.7118343850184591e-002
3630:-6.3250866891926480e-002
3631:-6.8225324302920345e-002
3632:-1.1165136012069406e-001
3633:-1.1591763618595151e-001
3634:-1.2159494748893648e-001
3635:-1.2603139397103488e-001
3636:-9.8957039523198342e-002
3637:-1.0265985419166596e-001
3638:-1.0770642450314843e-001
3639:-1.1173947262122425e-001
3640:-8.2582329360053802e-002
3641:-8.5543435264860315e-002
3642:-8.9758520116069301e-002
3643:-9.3258697029118362e-002
3644:-7.0175937359987214e-002
3645:-7.2563542949126703e-002
3646:-7.6134788823141952e-002
3647:-7.9221528453291765e-002
3648:-1.2748398234979683e-001
3649:-1.2852709943147941e-001
3650:-1.3006557280672659e-001
3651:-1.3138077398816705e-001
3652:-1.1302970345455077e-001
3653:-1.1386768085607354e-001
3654:-1.1524479791255830e-001
3655:-1.1651779646746924e-001
3656:-9.4330925749246536e-002
3657:-9.4884642931461080e-002
3658:-9.6029563348595193e-002
3659:-9.7230889037443674e-002
3660:-8.0121940352752136e-002
3661:-8.0445056124341940e-002
3662:-8.1395399774879834e-002
3663:-8.2529061106718080e-002
3664:-1.3123931178300366e-001
3665:-1.2943667341486376e-001
3666:-1.2736544480954723e-001
3667:-1.2599310704510955e-001
3668:-1.1640159233138833e-001
3669:-1.1472498801084187e-001
3670:-1.1289846438217212e-001
3671:-1.1177519962417122e-001
3672:-9.7136857626236736e-002
3673:-9.5600837925005094e-002
3674:-9.4062462341627212e-002
3675:-9.3240313684407827e-002
3676:-8.2443760087213547e-002
3677:-8.0997207809243882e-002
3678:-7.9655827969327492e-002
3679:-7.9046185694199120e-002
3680:-1.2458696976485402e-001
3681:-1.2070025611007722e-001
3682:-1.1595305766364294e-001
3683:-1.1256281418999778e-001
3684:-1.1053242310139738e-001
3685:-1.0700276205657569e-001
3686:-1.0278514083333845e-001
3687:-9.9849631068099617e-002
3688:-9.2199343774475584e-002
3689:-8.9116856470187161e-002
3690:-8.5565813182673256e-002
3691:-8.3204923713058765e-002
3692:-7.8151203390105867e-002
3693:-7.5397133901325006e-002
3694:-7.2338307426780296e-002
3695:-7.0403516871110836e-002
3696:-1.1027504678044578e-001
3697:-1.0510007043609419e-001
3698:-9.8721361369045843e-002
3699:-9.4118445986459590e-002
3700:-9.7826022432517451e-002
3701:-9.3173417032050537e-002
3702:-8.7506066621447068e-002
3703:-8.3471218477458003e-002
3704:-8.1516085360548982e-002
3705:-7.7526616926038697e-002
3706:-7.2763369383335469e-002
3707:-6.9451279108758340e-002
3708:-6.8963687463491630e-002
3709:-6.5468367475633435e-002
3710:-6.1379656111870309e-002
3711:-5.8607410578644950e-002
3712:-9.1394602041602740e-002
3713:-8.5769010675525711e-002
3714:-7.8788310426288422e-002
3715:-7.3713220745788635e-002
3716:-8.1054766112089283e-002
3717:-7.6006924701067347e-002
3718:-6.9791262485845981e-002
3719:-6.5311145886412306e-002
3720:-6.7428772810449428e-002
3721:-6.3126445769848119e-002
3722:-5.7898131047091655e-002
3723:-5.4186000187788394e-002
3724:-5.6881390687651447e-002
3725:-5.3144109000305237e-002
3726:-4.8664256354098337e-002
3727:-4.5534393974054128e-002
3728:-7.0912218650095116e-002
3729:-6.5465786340325210e-002
3730:-5.8696604541733470e-002
3731:-5.3766591396645413e-002
3732:-6.2825426655248026e-002
3733:-5.7957697680177708e-002
3734:-5.1932051857499835e-002
3735:-4.7563098014795857e-002
3736:-5.2108160703168808e-002
3737:-4.7990719227737670e-002
3738:-4.2928971382471530e-002
3739:-3.9287284504506144e-002
3740:-4.3766508480390549e-002
3741:-4.0220475684847413e-002
3742:-3.5892746328060290e-002
3743:-3.2804824097668633e-002
3744:-5.1184953302998264e-002
3745:-4.6403281458348253e-002
3746:-4.0447290781082564e-002
3747:-3.6099053837460697e-002
3748:-4.5269385663804798e-002
3749:-4.1002504037616426e-002
3750:-3.5695416854641608e-002
3751:-3.1827090664457075e-002
3752:-3.7368600137628494e-002
3753:-3.3775752686610913e-002
3754:-2.9318404281174975e-002
3755:-2.6078604304705162e-002
3756:-3.1173092538741964e-002
3757:-2.8098678538158180e-002
3758:-2.4294987027324532e-002
3759:-2.1538741036246020e-002
3760:-3.3920302729117925e-002
3761:-3.0067657757763981e-002
3762:-2.5266728438492213e-002
3763:-2.1760052490966558e-002
3764:-2.9890381025231248e-002
3765:-2.6462395535752383e-002
3766:-2.2183725276760113e-002
3767:-1.9052958189799372e-002
3768:-2.4459713642234298e-002
3769:-2.1591003746057335e-002
3770:-1.8000537954305323e-002
3771:-1.5365440513912414e-002
3772:-2.0164992049501344e-002
3773:-1.7728933475142355e-002
3774:-1.4671153862985288e-002
3775:-1.2419957123100317e-002
3776:-2.0082410049302560e-002
3777:-1.7266381229616653e-002
3778:-1.3754991408937300e-002
3779:-1.1188428058837307e-002
3780:-1.7559708410132151e-002
3781:-1.5058620770451439e-002
3782:-1.1923547408327977e-002
3783:-9.6188965249373124e-003
3784:-1.4116362851887970e-002
3785:-1.2034449663494420e-002
3786:-9.4011466129865114e-003
3787:-7.4464825188027672e-003
3788:-1.1360777036166839e-002
3789:-9.6064731205866092e-003
3790:-7.3660148520306775e-003
3791:-5.6859313173541490e-003
3792:-1.0026835314769037e-002
3793:-8.2106810750378258e-003
3794:-5.9486176180567462e-003
3795:-4.2972659205561051e-003
3796:-8.5829596072977167e-003
3797:-6.9765682118734353e-003
3798:-4.9538044943215368e-003
3799:-3.4595113450380612e-003
3800:-6.5784638841935991e-003
3801:-5.2523991241581842e-003
3802:-3.5505242201548273e-003
3803:-2.2677933180511936e-003
3804:-4.9496579657058015e-003
3805:-3.8435416807375005e-003
3806:-2.3942559198759312e-003
3807:-1.2787691967501764e-003
3808:-3.6124107767686047e-003
3809:-2.6721986120409966e-003
3810:-1.5024133119500931e-003
3811:-6.4946734893578926e-004
3812:-2.8501252317082570e-003
3813:-2.0391005610347641e-003
3814:-1.0106355238678462e-003
3815:-2.4513120211639171e-004
3816:-1.7600638001690624e-003
3817:-1.1229222967315802e-003
3818:-2.8579433076268842e-004
3819:3.6029350372699932e-004
3820:-8.5139954309571453e-004
3821:-3.5161519666580143e-004
3822:3.3353337772043968e-004
3823:8.8400990801136439e-004
3824:-3.6889081980144556e-004
3825:-1.6264235704530275e-004
3826:6.4224999778548145e-005
3827:2.0574039144513086e-004
3828:-1.8898832967746937e-005
3829:6.4921243526940784e-005
3830:1.4523928911770414e-004
3831:1.8453834930240052e-004
3832:5.2007174720568327e-004
3833:4.6618672907097248e-004
3834:3.8404153376869049e-004
3835:3.1200658640106473e-004
3836:9.9626510940573260e-004
3837:8.5372101588614070e-004
3838:6.6908602964508201e-004
3839:5.2860406168230933e-004
3840:-1.7733355021030727e-003
3841:-8.0348646555828129e-003
3842:-1.6303824445019148e-002
3843:-2.2717743045267358e-002
3844:-1.2967419482128040e-003
3845:-5.8557116327907508e-003
3846:-1.1935719210188381e-002
3847:-1.6696763209558461e-002
3848:-6.3248464666264465e-004
3849:-2.9649540428786396e-003
3850:-6.1822896967097009e-003
3851:-8.7816582855240657e-003
3852:-9.0841453061917213e-005
3853:-7.1287898708972974e-004
3854:-1.7309911540473052e-003
3855:-2.6696127486629784e-003
3856:-2.5848034445022539e-002
3857:-3.1250702715810035e-002
3858:-3.8561985991375933e-002
3859:-4.4366747860771112e-002
3860:-1.8963688334781934e-002
3861:-2.2807917589182405e-002
3862:-2.8186902349557928e-002
3863:-3.2588092353982905e-002
3864:-9.9146658967556259e-003
3865:-1.1702684583800358e-002
3866:-1.4530703652696453e-002
3867:-1.7077741474242802e-002
3868:-2.9278100594140868e-003
3869:-3.1223127067294123e-003
3870:-3.9722675405761930e-003
3871:-5.0806564738064032e-003
3872:-4.6924395685450176e-002
3873:-5.0785514262709969e-002
3874:-5.6244661435989197e-002
3875:-6.0751842685648955e-002
3876:-3.4442251786363370e-002
3877:-3.7083530719453611e-002
3878:-4.1091997919718022e-002
3879:-4.4595278624510633e-002
3880:-1.8004770374414152e-002
3881:-1.9042574384610211e-002
3882:-2.1142750751402303e-002
3883:-2.3324296754851502e-002
3884:-5.2899799376314805e-003
3885:-5.0896647764878686e-003
3886:-5.7153114920547908e-003
3887:-6.8746774234701557e-003
3888:-6.2481545478968566e-002
3889:-6.4510346593611309e-002
3890:-6.7684275808678002e-002
3891:-7.0520775162778326e-002
3892:-4.5848671797347230e-002
3893:-4.7102421962207069e-002
3894:-4.9426505916552975e-002
3895:-5.1735332604002322e-002
3896:-2.3950077427619103e-002
3897:-2.4181403432400737e-002
3898:-2.5382064936519066e-002
3899:-2.6991227040646000e-002
3900:-7.0147036050497913e-003
3901:-6.4538115979640865e-003
3902:-6.7822296194011717e-003
3903:-7.8465519947852926e-003
3904:-7.1317095402559150e-002
3905:-7.1498694079955391e-002
3906:-7.2332605095585908e-002
3907:-7.3429304508764670e-002
3908:-5.2313624931043169e-002
3909:-5.2199714237342751e-002
3910:-5.2797757616736378e-002
3911:-5.3828406062577293e-002
3912:-2.7280808932712758e-002
3913:-2.6776609057505667e-002
3914:-2.7060737132595894e-002
3915:-2.8000475535375165e-002
3916:-7.9115989951324614e-003
3917:-7.1046361260407326e-003
3918:-7.1434326127936890e-003
3919:-8.0098664254602114e-003
3920:-7.3350889005289674e-002
3921:-7.1961536914466509e-002
3922:-7.0749691302441214e-002
3923:-7.0281411220415119e-002
3924:-5.3771266938411451e-002
3925:-5.2517749828175531e-002
3926:-5.1608919682741221e-002
3927:-5.1469295537138186e-002
3928:-2.7970204390566421e-002
3929:-2.6895299221029925e-002
3930:-2.6383626970324588e-002
3931:-2.6674192265688824e-002
3932:-7.9995046946264980e-003
3933:-7.0625579090924564e-003
3934:-6.8566715734562165e-003
3935:-7.4780162086657311e-003
3936:-6.9482698611374946e-002
3937:-6.6941826514547317e-002
3938:-6.4200062745001729e-002
3939:-6.2538098656997845e-002
3940:-5.0891356642861776e-002
3941:-4.8832062251037055e-002
3942:-4.6800889951599332e-002
3943:-4.5746610324922950e-002
3944:-2.6385934863883853e-002
3945:-2.4959709995697524e-002
3946:-2.3861852160598211e-002
3947:-2.3605176158035032e-002
3948:-7.4130364258104178e-003
3949:-6.4756630088410603e-003
3950:-6.0978868513894670e-003
3951:-6.4561690563794761e-003
3952:-6.1256730405604982e-002
3953:-5.8075394579438888e-002
3954:-5.4416501515458557e-002
3955:-5.1989138176314460e-002
3956:-4.4816788157644886e-002
3957:-4.2331777015951436e-002
3958:-3.9627230650150065e-002
3959:-3.7966455981982318e-002
3960:-2.3138031470926378e-002
3961:-2.1571826551723353e-002
3962:-2.0125870779818325e-002
3963:-1.9475577214609147e-002
3964:-6.3467143167757244e-003
3965:-5.4926182483130892e-003
3966:-5.0216031036738459e-003
3967:-5.1536823757057778e-003
3968:-5.0453292212196979e-002
3969:-4.7078266725155631e-002
3970:-4.3075580785350252e-002
3971:-4.0314908700188959e-002
3972:-3.6853166163447089e-002
3973:-3.4280517535771757e-002
3974:-3.1330450438660555e-002
3975:-2.9380955736132208e-002
3976:-1.8919122697641014e-002
3977:-1.7403762135991107e-002
3978:-1.5840651255951261e-002
3979:-1.4959926844668209e-002
3980:-5.0282418056474334e-003
3981:-4.3312160560895529e-003
3982:-3.8415446906198583e-003
3983:-3.7879556146790307e-003
3984:-3.8743416432789328e-002
3985:-3.5559847800182162e-002
3986:-3.1696713327203849e-002
3987:-2.8958502144121989e-002
3988:-2.8240593570293755e-002
3989:-2.5853157817392489e-002
3990:-2.3009041140441212e-002
3991:-2.1036744440615009e-002
3992:-1.4388138911586136e-002
3993:-1.3051804033670818e-002
3994:-1.1553360137717664e-002
3995:-1.0592737744280425e-002
3996:-3.6566022223895257e-003
3997:-3.1353618215142114e-003
3998:-2.6806753109162636e-003
3999:-2.5049289980892215e-003
4000:-2.7508600095147415e-002
4001:-2.4763368085274802e-002
4002:-2.1372506603136644e-002
4003:-1.8919903740003824e-002
4004:-1.9985126126459998e-002
4005:-1.7960289568432354e-002
4006:-1.5469569958914350e-002
4007:-1.3676394689139766e-002
4008:-1.0066854625824328e-002
4009:-8.9924044607526364e-003
4010:-7.6897810123271954e-003
4011:-6.7674461060549312e-003
4012:-2.3866590381367409e-003
4013:-2.0486560442900970e-003
4014:-1.6671174796919117e-003
4015:-1.4202618861692961e-003
4016:-1.7700238672293520e-002
4017:-1.5536885497695930e-002
4018:-1.2813671377233158e-002
4019:-1.0802623032748117e-002
4020:-1.2791287539684934e-002
4021:-1.1220676679337354e-002
4022:-9.2229191575070105e-003
4023:-7.7311773474595027e-003
4024:-6.3242443441879599e-003
4025:-5.5367941134331963e-003
4026:-4.4983377832849003e-003
4027:-3.6939434178111553e-003
4028:-1.3198967992127499e-003
4029:-1.1402073278470811e-003
4030:-8.4680247323647650e-004
4031:-5.7673308736050236e-004
4032:-9.8626203672839679e-003
4033:-8.3149360065564153e-003
4034:-6.3216211279718965e-003
4035:-4.8137629242680519e-003
4036:-7.0489517458667350e-003
4037:-5.9486788608051379e-003
4038:-4.4894972004397554e-003
4039:-3.3529977017639633e-003
4040:-3.3525903613698914e-003
4041:-2.8433261891619966e-003
4042:-2.0905136825884003e-003
4043:-1.4457952695267338e-003
4044:-5.0012481340370356e-004
4045:-4.4940351195794887e-004
4046:-2.4524758563550171e-004
4047:1.6980727325347729e-005
4048:-4.1603005543136727e-003
4049:-3.1928719204134194e-003
4050:-1.9023905239380821e-003
4051:-8.9164657813606187e-004
4052:-2.8783761510978467e-003
4053:-2.2111524183393099e-003
4054:-1.2636292796349108e-003
4055:-4.7839945766383420e-004
4056:-1.2080005729728953e-003
4057:-9.3829491466547964e-004
4058:-4.4584893880487882e-004
4059:3.9313415003037240e-005
4060:7.0585524363505486e-005
4061:3.1142584459950022e-005
4062:1.6896127547941754e-004
4063:4.1966580836786039e-004
4064:-5.1416757642116335e-004
4065:-9.7377750068946298e-005
4066:5.0044863807776978e-004
4067:1.0000639390652334e-003
4068:-2.0653536354417338e-004
4069:4.0538807707487242e-005
4070:4.6837250528785506e-004
4071:8.7712250287358547e-004
4072:1.7319202815286935e-004
4073:2.0396541336659507e-004
4074:4.1670031668190698e-004
4075:7.1202721748510670e-004
4076:4.4764206461725880e-004
4077:3.1656469485879114e-004
4078:3.6956840593159457e-004
4079:5.8189490344800674e-004
4080:1.0906733634925593e-003
4081:9.1342124248146664e-004
4082:6.9417711577245513e-004
4083:5.3535099426820897e-004
4084:9.3573869286312286e-004
4085:7.1893721475505728e-004
4086:4.7497047727924137e-004
4087:3.1779654454121986e-004
4088:7.3743561066547233e-004
4089:4.9593225963890134e-004
4090:2.5480509392878617e-004
4091:1.2668579968604300e-004
4092:5.8839246282323284e-004
4093:3.4857308950012256e-004
4094:1.3652130016909289e-004
4095:5.1287529509321940e-005
4096:0.0000000000000000e+000
4097:0.0000000000000000e+000
4098:0.0000000000000000e+000
4099:0.0000000000000000e+000
4100:0.0000000000000000e+000
4101:0.0000000000000000e+000
4102:0.0000000000000000e+000
4103:0.0000000000000000e+000
4104:0.0000000000000000e+000
4105:0.0000000000000000e+000
4106:0.0000000000000000e+000
4107:0.0000000000000000e+000
4108:0.0000000000000000e+000
4109:0.0000000000000000e+000
4110:0.0000000000000000e+000
4111:0.0000000000000000e+000
4112:0.0000000000000000e+000
4113:0.0000000000000000e+000
4114:0.0000000000000000e+000
4115:0.0000000000000000e+000
4116:0.0000000000000000e+000
4117:0.0000000000000000e+000
4118:0.0000000000000000e+000
4119:0.0000000000000000e+000
4120:0.0000000000000000e+000
4121:0.0000000000000000e+000
4122:0.0000000000000000e+000
4123:0.0000000000000000e+000
4124:0.0000000000000000e+000
4125:0.0000000000000000e+000
4126:0.0000000000000000e+000
4127:0.0000000000000000e+000
4128:0.0000000000000000e+000
4129:0.0000000000000000e+000
4130:0.0000000000000000e+000
4131:0.0000000000000000e+000
4132:0.0000000000000000e+000
4133:0.0000000000000000e+000
4134:0.0000000000000000e+000
4135:0.0000000000000000e+000
4136:0.0000000000000000e+000
4137:0.0000000000000000e+000
4138:0.0000000000000000e+000
4139:0.0000000000000000e+000
4140:0.0000000000000000e+000
4141:0.0000000000000000e+000
4142:0.0000000000000000e+000
4143:0.0000000000000000e+000
4144:0.0000000000000000e+000
4145:0.0000000000000000e+000
4146:0.0000000000000000e+000
4147:0.0000000000000000e+000
4148:0.0000000000000000e+000
4149:0.0000000000000000e+000
4150:0.0000000000000000e+000
4151:0.0000000000000000e+000
4152:0.0000000000000000e+000
4153:0.0000000000000000e+000
4154:0.0000000000000000e+000
4155:0.0000000000000000e+000
4156:0.0000000000000000e+000
4157:0.0000000000000000e+000
4158:0.0000000000000000e+000
4159:0.0000000000000000e+000
4160:0.0000000000000000e+000
4161:0.0000000000000000e+000
4162:0.0000000000000000e+000
4163:0.0000000000000000e+000
4164:0.0000000000000000e+000
4165:0.0000000000000000e+000
4166:0.0000000000000000e+000
4167:0.0000000000000000e+000
4168:0.0000000000000000e+000
4169:0.0000000000000000e+000
4170:0.0000000000000000e+000
4171:0.0000000000000000e+000
4172:0.0000000000000000e+000
4173:0.0000000000000000e+000
4174:0.0000000000000000e+000
4175:0.0000000000000000e+000
4176:0.0000000000000000e+000
4177:0.0000000000000000e+000
4178:0.0000000000000000e+000
4179:0.0000000000000000e+000
4180:0.0000000000000000e+000
4181:0.0000000000000000e+000
4182:0.0000000000000000e+000
4183:0.0000000000000000e+000
4184:0.0000000000000000e+000
4185:0.0000000000000000e+000
4186:0.0000000000000000e+000
4187:0.0000000000000000e+000
4188:0.0000000000000000e+000
4189:0.0000000000000000e+000
4190:0.0000000000000000e+000
4191:0.0000000000000000e+000
4192:0.0000000000000000e+000
4193:0.0000000000000000e+000
4194:0.0000000000000000e+000
4195:0.0000000000000000e+000
4196:0.0000000000000000e+000
4197:0.0000000000000000e+000
4198:0.0000000000000000e+000
4199:0.0000000000000000e+000
4200:0.0000000000000000e+000
4201:0.0000000000000000e+000
4202:0.0000000000000000e+000
4203:0.0000000000000000e+000
4204:0.0000000000000000e+000
4205:0.0000000000000000e+000
4206:0.0000000000000000e+000
4207:0.0000000000000000e+000
4208:0.0000000000000000e+000
4209:0.0000000000000000e+000
4210:0.0000000000000000e+000
4211:0.0000000000000000e+000
4212:0.0000000000000000e+000
4213:0.0000000000000000e+000
4214:0.0000000000000000e+000
4215:0.0000000000000000e+000
4216:0.0000000000000000e+000
4217:0.0000000000000000e+000
4218:0.0000000000000000e+000
4219:0.0000000000000000e+000
4220:0.0000000000000000e+000
4221:0.0000000000000000e+000
4222:0.0000000000000000e+000
4223:0.0000000000000000e+000
4224:0.0000000000000000e+000
4225:0.0000000000000000e+000
4226:0.0000000000000000e+000
4227:0.0000000000000000e+000
4228:0.0000000000000000e+000
4229:0.0000000000000000e+000
4230:0.0000000000000000e+000
4231:0.0000000000000000e+000
4232:0.0000000000000000e+000
4233:0.0000000000000000e+000
4234:0.0000000000000000e+000
4235:0.0000000000000000e+000
4236:0.0000000000000000e+000
4237:0.0000000000000000e+000
4238:0.0000000000000000e+000
4239:0.0000000000000000e+000
4240:0.0000000000000000e+000
4241:0.0000000000000000e+000
4242:0.0000000000000000e+000
4243:0.0000000000000000e+000
4244:0.0000000000000000e+000
4245:0.0000000000000000e+000
4246:0.0000000000000000e+000
4247:0.0000000000000000e+000
4248:0.0000000000000000e+000
4249:0.0000000000000000e+000
4250:0.0000000000000000e+000
4251:0.0000000000000000e+000
4252:0.0000000000000000e+000
4253:0.0000000000000000e+000
4254:0.0000000000000000e+000
4255:0.0000000000000000e+000
4256:0.0000000000000000e+000
4257:0.0000000000000000e+000
4258:0.0000000000000000e+000
4259:0.0000000000000000e+000
4260:0.0000000000000000e+000
4261:0.0000000000000000e+000
4262:0.0000000000000000e+000
4263:0.0000000000000000e+000
4264:0.0000000000000000e+000
4265:0.0000000000000000e+000
4266:0.0000000000000000e+000
4267:0.0000000000000000e+000
4268:0.0000000000000000e+000
4269:0.0000000000000000e+000
4270:0.0000000000000000e+000
4271:0.0000000000000000e+000
4272:0.0000000000000000e+000
4273:0.0000000000000000e+000
4274:0.0000000000000000e+000
4275:0.0000000000000000e+000
4276:0.0000000000000000e+000
4277:0.0000000000000000e+000
4278:0.0000000000000000e+000
4279:0.0000000000000000e+000
4280:0.0000000000000000e+000
4281:0.0000000000000000e+000
4282:0.0000000000000000e+000
4283:0.0000000000000000e+000
4284:0.0000000000000000e+000
4285:0.0000000000000000e+000
4286:0.0000000000000000e+000
4287:0.0000000000000000e+000
4288:0.0000000000000000e+000
4289:0.0000000000000000e+000
4290:0.0000000000000000e+000
4291:0.0000000000000000e+000
4292:0.0000000000000000e+000
4293:0.0000000000000000e+000
4294:0.0000000000000000e+000
4295:0.0000000000000000e+000
4296:0.0000000000000000e+000
4297:0.0000000000000000e+000
4298:0.0000000000000000e+000
4299:0.0000000000000000e+000
4300:0.0000000000000000e+000
4301:0.0000000000000000e+000
4302:0.0000000000000000e+000
4303:0.0000000000000000e+000
4304:0.0000000000000000e+000
4305:0.0000000000000000e+000
4306:0.0000000000000000e+000
4307:0.0000000000000000e+000
4308:0.0000000000000000e+000
4309:0.0000000000000000e+000
4310:0.0000000000000000e+000
4311:0.0000000000000000e+000
4312:0.0000000000000000e+000
4313:0.0000000000000000e+000
4314:0.0000000000000000e+000
4315:0.0000000000000000e+000
4316:0.0000000000000000e+000
4317:0.0000000000000000e+000
4318:0.0000000000000000e+000
4319:0.0000000000000000e+000
4320:0.0000000000000000e+000
4321:0.0000000000000000e+000
4322:0.0000000000000000e+000
4323:0.0000000000000000e+000
4324:0.0000000000000000e+000
4325:0.0000000000000000e+000
4326:0.0000000000000000e+000
4327:0.0000000000000000e+000
4328:0.0000000000000000e+000
4329:0.0000000000000000e+000
4330:0.0000000000000000e+000
4331:0.0000000000000000e+000
4332:0.0000000000000000e+000
4333:0.0000000000000000e+000
4334:0.0000000000000000e+000
4335:0.0000000000000000e+000
4336:0.0000000000000000e+000
4337:0.0000000000000000e+000
4338:0.0000000000000000e+000
4339:0.0000000000000000e+000
4340:0.0000000000000000e+000
4341:0.0000000000000000e+000
4342:0.0000000000000000e+000
4343:0.0000000000000000e+000
4344:0.0000000000000000e+000
4345:0.0000000000000000e+000
4346:0.0000000000000000e+000
4347:0.0000000000000000e+000
4348:0.0000000000000000e+000
4349:0.0000000000000000e+000
4350:0.0000000000000000e+000
4351:0.0000000000000000e+000
4352:0.0000000000000000e+000
4353:0.0000000000000000e+000
4354:0.0000000000000000e+000
4355:0.0000000000000000e+000
4356:0.0000000000000000e+000
4357:0.0000000000000000e+000
4358:0.0000000000000000e+000
4359:0.0000000000000000e+000
4360:0.0000000000000000e+000
4361:0.0000000000000000e+000
4362:0.0000000000000000e+000
4363:0.0000000000000000e+000
4364:0.0000000000000000e+000
4365:0.0000000000000000e+000
4366:0.0000000000000000e+000
4367:0.0000000000000000e+000
4368:0.0000000000000000e+000
4369:0.0000000000000000e+000
4370:0.0000000000000000e+000
4371:0.0000000000000000e+000
4372:0.0000000000000000e+000
4373:0.0000000000000000e+000
4374:0.0000000000000000e+000
4375:0.0000000000000000e+000
4376:0.0000000000000000e+000
4377:0.0000000000000000e+000
4378:0.0000000000000000e+000
4379:0.0000000000000000e+000
4380:0.0000000000000000e+000
4381:0.0000000000000000e+000
4382:0.0000000000000000e+000
4383:0.0000000000000000e+000
4384:0.0000000000000000e+000
4385:0.0000000000000000e+000
4386:0.0000000000000000e+000
4387:0.0000000000000000e+000
4388:0.0000000000000000e+000
4389:0.0000000000000000e+000
4390:0.0000000000000000e+000
4391:0.0000000000000000e+000
4392:0.0000000000000000e+000
4393:0.0000000000000000e+000
4394:0.0000000000000000e+000
4395:0.0000000000000000e+000
4396:0.0000000000000000e+000
4397:0.0000000000000000e+000
4398:0.0000000000000000e+000
4399:0.0000000000000000e+000
4400:0.0000000000000000e+000
4401:0.0000000000000000e+000
4402:0.0000000000000000e+000
4403:0.0000000000000000e+000
4404:0.0000000000000000e+000
4405:0.0000000000000000e+000
4406:0.0000000000000000e+000
4407:0.0000000000000000e+000
4408:0.0000000000000000e+000
4409:0.0000000000000000e+000
4410:0.0000000000000000e+000
4411:0.0000000000000000e+000
4412:0.0000000000000000e+000
4413:0.0000000000000000e+000
4414:0.0000000000000000e+000
4415:0.0000000000000000e+000
4416:0.0000000000000000e+000
4417:0.0000000000000000e+000
4418:0.0000000000000000e+000
4419:0.0000000000000000e+000
4420:0.0000000000000000e+000
4421:0.0000000000000000e+000
4422:0.0000000000000000e+000
4423:0.0000000000000000e+000
4424:0.0000000000000000e+000
4425:0.0000000000000000e+000
4426:0.0000000000000000e+000
4427:0.0000000000000000e+000
4428:0.0000000000000000e+000
4429:0.0000000000000000e+000
4430:0.0000000000000000e+000
4431:0.0000000000000000e+000
4432:0.0000000000000000e+000
4433:0.0000000000000000e+000
4434:0.0000000000000000e+000
4435:0.0000000000000000e+000
4436:0.0000000000000000e+000
4437:0.0000000000000000e+000
4438:0.0000000000000000e+000
4439:0.0000000000000000e+000
4440:0.0000000000000000e+000
4441:0.0000000000000000e+000
4442:0.0000000000000000e+000
4443:0.0000000000000000e+000
4444:0.0000000000000000e+000
4445:0.0000000000000000e+000
4446:0.0000000000000000e+000
4447:0.0000000000000000e+000
4448:0.0000000000000000e+000
4449:0.0000000000000000e+000
4450:0.0000000000000000e+000
4451:0.0000000000000000e+000
4452:0.0000000000000000e+000
4453:0.0000000000000000e+000
4454:0.0000000000000000e+000
4455:0.0000000000000000e+000
4456:0.0000000000000000e+000
4457:0.0000000000000000e+000
4458:0.0000000000000000e+000
4459:0.0000000000000000e+000
4460:0.0000000000000000e+000
4461:0.0000000000000000e+000
4462:0.0000000000000000e+000
4463:0.0000000000000000e+000
4464:0.0000000000000000e+000
4465:0.0000000000000000e+000
4466:0.0000000000000000e+000
4467:0.0000000000000000e+000
4468:0.0000000000000000e+000
4469:0.0000000000000000e+000
4470:0.0000000000000000e+000
4471:0.0000000000000000e+000
4472:0.0000000000000000e+000
4473:0.0000000000000000e+000
4474:0.0000000000000000e+000
4475:0.0000000000000000e+000
4476:0.0000000000000000e+000
4477:0.0000000000000000e+000
4478:0.0000000000000000e+000
4479:0.0000000000000000e+000
4480:0.0000000000000000e+000
4481:0.0000000000000000e+000
4482:0.0000000000000000e+000
4483:0.0000000000000000e+000
4484:0.0000000000000000e+000
4485:0.0000000000000000e+000
4486:0.0000000000000000e+000
4487:0.0000000000000000e+000
4488:0.0000000000000000e+000
4489:0.0000000000000000e+000
4490:0.0000000000000000e+000
4491:0.0000000000000000e+000
4492:0.0000000000000000e+000
4493:0.0000000000000000e+000
4494:0.0000000000000000e+000
4495:0.0000000000000000e+000
4496:0.0000000000000000e+000
4497:0.0000000000000000e+000
4498:0.0000000000000000e+000
4499:0.0000000000000000e+000
4500:0.0000000000000000e+000
4501:0.0000000000000000e+000
4502:0.0000000000000000e+000
4503:0.0000000000000000e+000
4504:0.0000000000000000e+000
4505:0.0000000000000000e+000
4506:0.0000000000000000e+000
4507:0.0000000000000000e+000
4508:0.0000000000000000e+000
4509:0.0000000000000000e+000
4510:0.0000000000000000e+000
4511:0.0000000000000000e+000
4512:0.0000000000000000e+000
4513:0.0000000000000000e+000
4514:0.0000000000000000e+000
4515:0.0000000000000000e+000
4516:0.0000000000000000e+000
4517:0.0000000000000000e+000
4518:0.0000000000000000e+000
4519:0.0000000000000000e+000
4520:0.0000000000000000e+000
4521:0.0000000000000000e+000
4522:0.0000000000000000e+000
4523:0.0000000000000000e+000
4524:0.0000000000000000e+000
4525:0.0000000000000000e+000
4526:0.0000000000000000e+000
4527:0.0000000000000000e+000
4528:0.0000000000000000e+000
4529:0.0000000000000000e+000
4530:0.0000000000000000e+000
4531:0.0000000000000000e+000
4532:0.0000000000000000e+000
4533:0.0000000000000000e+000
4534:0.0000000000000000e+000
4535:0.0000000000000000e+000
4536:0.0000000000000000e+000
4537:0.0000000000000000e+000
4538:0.0000000000000000e+000
4539:0.0000000000000000e+000
4540:0.0000000000000000e+000
4541:0.0000000000000000e+000
4542:0.0000000000000000e+000
4543:0.0000000000000000e+000
4544:0.0000000000000000e+000
4545:0.0000000000000000e+000
4546:0.0000000000000000e+000
4547:0.0000000000000000e+000
4548:0.0000000000000000e+000
4549:0.0000000000000000e+000
4550:0.0000000000000000e+000
4551:0.0000000000000000e+000
4552:0.0000000000000000e+000
4553:0.0000000000000000e+000
4554:0.0000000000000000e+000
4555:0.0000000000000000e+000
4556:0.0000000000000000e+000
4557:0.0000000000000000e+000
4558:0.0000000000000000e+000
4559:0.0000000000000000e+000
4560:0.0000000000000000e+000
4561:0.0000000000000000e+000
4562:0.0000000000000000e+000
4563:0.0000000000000000e+000
4564:0.0000000000000000e+000
4565:0.0000000000000000e+000
4566:0.0000000000000000e+000
4567:0.0000000000000000e+000
4568:0.0000000000000000e+000
4569:0.0000000000000000e+000
4570:0.0000000000000000e+000
4571:0.0000000000000000e+000
4572:0.0000000000000000e+000
4573:0.0000000000000000e+000
4574:0.0000000000000000e+000
4575:0.0000000000000000e+000
4576:0.0000000000000000e+000
4577:0.0000000000000000e+000
4578:0.0000000000000000e+000
4579:0.0000000000000000e+000
4580:0.0000000000000000e+000
4581:0.0000000000000000e+000
4582:0.0000000000000000e+000
4583:0.0000000000000000e+000
4584:0.0000000000000000e+000
4585:0.0000000000000000e+000
4586:0.0000000000000000e+000
4587:0.0000000000000000e+000
4588:0.0000000000000000e+000
4589:0.0000000000000000e+000
4590:0.0000000000000000e+000
4591:0.0000000000000000e+000
4592:0.0000000000000000e+000
4593:0.0000000000000000e+000
4594:0.0000000000000000e+000
4595:0.0000000000000000e+000
4596:0.0000000000000000e+000
4597:0.0000000000000000e+000
4598:0.0000000000000000e+000
4599:0.0000000000000000e+000
4600:0.0000000000000000e+000
4601:0.0000000000000000e+000
4602:0.0000000000000000e+000
4603:0.0000000000000000e+000
4604:0.0000000000000000e+000
4605:0.0000000000000000e+000
4606:0.0000000000000000e+000
4607:0.0000000000000000e+000
4608:0.0000000000000000e+000
4609:0.0000000000000000e+000
4610:0.0000000000000000e+000
4611:0.0000000000000000e+000
4612:0.0000000000000000e+000
4613:0.0000000000000000e+000
4614:0.0000000000000000e+000
4615:0.0000000000000000e+000
4616:0.0000000000000000e+000
4617:0.0000000000000000e+000
4618:0.0000000000000000e+000
4619:0.0000000000000000e+000
4620:0.0000000000000000e+000
4621:0.0000000000000000e+000
4622:0.0000000000000000e+000
4623:0.0000000000000000e+000
4624:0.0000000000000000e+000
4625:0.0000000000000000e+000
4626:0.0000000000000000e+000
4627:0.0000000000000000e+000
4628:0.0000000000000000e+000
4629:0.0000000000000000e+000
4630:0.0000000000000000e+000
4631:0.0000000000000000e+000
4632:0.0000000000000000e+000
4633:0.0000000000000000e+000
4634:0.0000000000000000e+000
4635:0.0000000000000000e+000
4636:0.0000000000000000e+000
4637:0.0000000000000000e+000
4638:0.0000000000000000e+000
4639:0.0000000000000000e+000
4640:0.0000000000000000e+000
4641:0.0000000000000000e+000
4642:0.0000000000000000e+000
4643:0.0000000000000000e+000
4644:0.0000000000000000e+000
4645:0.0000000000000000e+000
4646:0.0000000000000000e+000
4647:0.0000000000000000e+000
4648:0.0000000000000000e+000
4649:0.0000000000000000e+000
4650:0.0000000000000000e+000
4651:0.0000000000000000e+000
4652:0.0000000000000000e+000
4653:0.0000000000000000e+000
4654:0.0000000000000000e+000
4655:0.0000000000000000e+000
4656:0.0000000000000000e+000
4657:0.0000000000000000e+000
4658:0.0000000000000000e+000
4659:0.0000000000000000e+000
4660:0.0000000000000000e+000
4661:0.0000000000000000e+000
4662:0.0000000000000000e+000
4663:0.0000000000000000e+000
4664:0.0000000000000000e+000
4665:0.0000000000000000e+000
4666:0.0000000000000000e+000
4667:0.0000000000000000e+000
4668:0.0000000000000000e+000
4669:0.0000000000000000e+000
4670:0.0000000000000000e+000
4671:0.0000000000000000e+000
4672:0.0000000000000000e+000
4673:0.0000000000000000e+000
4674:0.0000000000000000e+000
4675:0.0000000000000000e+000
4676:0.0000000000000000e+000
4677:0.0000000000000000e+000
4678:0.0000000000000000e+000
4679:0.0000000000000000e+000
4680:0.0000000000000000e+000
4681:0.0000000000000000e+000
4682:0.0000000000000000e+000
4683:0.0000000000000000e+000
4684:0.0000000000000000e+000
4685:0.0000000000000000e+000
4686:0.0000000000000000e+000
4687:0.0000000000000000e+000
4688:0.0000000000000000e+000
4689:0.0000000000000000e+000
4690:0.0000000000000000e+000
4691:0.0000000000000000e+000
4692:0.0000000000000000e+000
4693:0.0000000000000000e+000
4694:0.0000000000000000e+000
4695:0.0000000000000000e+000
4696:0.0000000000000000e+000
4697:0.0000000000000000e+000
4698:0.0000000000000000e+000
4699:0.0000000000000000e+000
4700:0.0000000000000000e+000
4701:0.0000000000000000e+000
4702:0.0000000000000000e+000
4703:0.0000000000000000e+000
4704:0.0000000000000000e+000
4705:0.0000000000000000e+000
4706:0.0000000000000000e+000
4707:0.0000000000000000e+000
4708:0.0000000000000000e+000
4709:0.0000000000000000e+000
4710:0.0000000000000000e+000
4711:0.0000000000000000e+000
4712:0.0000000000000000e+000
4713:0.0000000000000000e+000
4714:0.0000000000000000e+000
4715:0.0000000000000000e+000
4716:0.0000000000000000e+000
4717:0.0000000000000000e+000
4718:0.0000000000000000e+000
4719:0.0000000000000000e+000
4720:0.0000000000000000e+000
4721:0.0000000000000000e+000
4722:0.0000000000000000e+000
4723:0.0000000000000000e+000
4724:0.0000000000000000e+000
4725:0.0000000000000000e+000
4726:0.0000000000000000e+000
4727:0.0000000000000000e+000
4728:0.0000000000000000e+000
4729:0.0000000000000000e+000
4730:0.0000000000000000e+000
4731:0.0000000000000000e+000
4732:0.0000000000000000e+000
4733:0.0000000000000000e+000
4734:0.0000000000000000e+000
4735:0.0000000000000000e+000
4736:0.0000000000000000e+000
4737:0.0000000000000000e+000
4738:0.0000000000000000e+000
4739:0.0000000000000000e+000
4740:0.0000000000000000e+000
4741:0.0000000000000000e+000
4742:0.0000000000000000e+000
4743:0.0000000000000000e+000
4744:0.0000000000000000e+000
4745:0.0000000000000000e+000
4746:0.0000000000000000e+000
4747:0.0000000000000000e+000
4748:0.0000000000000000e+000
4749:0.0000000000000000e+000
4750:0.0000000000000000e+000
4751:0.0000000000000000e+000
4752:0.0000000000000000e+000
4753:0.0000000000000000e+000
4754:0.0000000000000000e+000
4755:0.0000000000000000e+000
4756:0.0000000000000000e+000
4757:0.0000000000000000e+000
4758:0.0000000000000000e+000
4759:0.0000000000000000e+000
4760:0.0000000000000000e+000
4761:0.0000000000000000e+000
4762:0.0000000000000000e+000
4763:0.0000000000000000e+000
4764:0.0000000000000000e+000
4765:0.0000000000000000e+000
4766:0.0000000000000000e+000
4767:0.0000000000000000e+000
4768:0.0000000000000000e+000
4769:0.0000000000000000e+000
4770:0.0000000000000000e+000
4771:0.0000000000000000e+000
4772:0.0000000000000000e+000
4773:0.0000000000000000e+000
4774:0.0000000000000000e+000
4775:0.0000000000000000e+000
4776:0.0000000000000000e+000
4777:0.0000000000000000e+000
4778:0.0000000000000000e+000
4779:0.0000000000000000e+000
4780:0.0000000000000000e+000
4781:0.0000000000000000e+000
4782:0.0000000000000000e+000
4783:0.0000000000000000e+000
4784:0.0000000000000000e+000
4785:0.0000000000000000e+000
4786:0.0000000000000000e+000
4787:0.0000000000000000e+000
4788:0.0000000000000000e+000
4789:0.0000000000000000e+000
4790:0.0000000000000000e+000
4791:0.0000000000000000e+000
4792:0.0000000000000000e+000
4793:0.0000000000000000e+000
4794:0.0000000000000000e+000
4795:0.0000000000000000e+000
4796:0.0000000000000000e+000
4797:0.0000000000000000e+000
4798:0.0000000000000000e+000
4799:0.0000000000000000e+000
4800:0.0000000000000000e+000
4801:0.0000000000000000e+000
4802:0.0000000000000000e+000
4803:0.0000000000000000e+000
4804:0.0000000000000000e+000
4805:0.0000000000000000e+000
4806:0.0000000000000000e+000
4807:0.0000000000000000e+000
4808:0.0000000000000000e+000
4809:0.0000000000000000e+000
4810:0.0000000000000000e+000
4811:0.0000000000000000e+000
4812:0.0000000000000000e+000
4813:0.0000000000000000e+000
4814:0.0000000000000000e+000
4815:0.0000000000000000e+000
4816:0.0000000000000000e+000
4817:0.0000000000000000e+000
4818:0.0000000000000000e+000
4819:0.0000000000000000e+000
4820:0.0000000000000000e+000
4821:0.0000000000000000e+000
4822:0.0000000000000000e+000
4823:0.0000000000000000e+000
4824:0.0000000000000000e+000
4825:0.0000000000000000e+000
4826:0.0000000000000000e+000
4827:0.0000000000000000e+000
4828:0.0000000000000000e+000
4829:0.0000000000000000e+000
4830:0.0000000000000000e+000
4831:0.0000000000000000e+000
4832:0.0000000000000000e+000
4833:0.0000000000000000e+000
4834:0.0000000000000000e+000
4835:0.0000000000000000e+000
4836:0.0000000000000000e+000
4837:0.0000000000000000e+000
4838:0.0000000000000000e+000
4839:0.0000000000000000e+000
4840:0.0000000000000000e+000
4841:0.0000000000000000e+000
4842:0.0000000000000000e+000
4843:0.0000000000000000e+000
4844:0.0000000000000000e+000
4845:0.0000000000000000e+000
4846:0.0000000000000000e+000
4847:0.0000000000000000e+000
4848:0.0000000000000000e+000
4849:0.0000000000000000e+000
4850:0.0000000000000000e+000
4851:0.0000000000000000e+000
4852:0.0000000000000000e+000
4853:0.0000000000000000e+000
4854:0.0000000000000000e+000
4855:0.0000000000000000e+000
4856:0.0000000000000000e+000
4857:0.0000000000000000e+000
4858:0.0000000000000000e+000
4859:0.0000000000000000e+000
4860:0.0000000000000000e+000
4861:0.0000000000000000e+000
4862:0.0000000000000000e+000
4863:0.0000000000000000e+000
4864:0.0000000000000000e+000
4865:0.0000000000000000e+000
4866:0.0000000000000000e+000
4867:0.0000000000000000e+000
4868:0.0000000000000000e+000
4869:0.0000000000000000e+000
4870:0.0000000000000000e+000
4871:0.0000000000000000e+000
4872:0.0000000000000000e+000
4873:0.0000000000000000e+000
4874:0.0000000000000000e+000
4875:0.0000000000000000e+000
4876:0.0000000000000000e+000
4877:0.0000000000000000e+000
4878:0.0000000000000000e+000
4879:0.0000000000000000e+000
4880:0.0000000000000000e+000
4881:0.0000000000000000e+000
4882:0.0000000000000000e+000
4883:0.0000000000000000e+000
4884:0.0000000000000000e+000
4885:0.0000000000000000e+000
4886:0.0000000000000000e+000
4887:0.0000000000000000e+000
4888:0.0000000000000000e+000
4889:0.0000000000000000e+000
4890:0.0000000000000000e+000
4891:0.0000000000000000e+000
4892:0.0000000000000000e+000
4893:0.0000000000000000e+000
4894:0.0000000000000000e+000
4895:0.0000000000000000e+000
4896:0.0000000000000000e+000
4897:0.0000000000000000e+000
4898:0.0000000000000000e+000
4899:0.0000000000000000e+000
4900:0.0000000000000000e+000
4901:0.0000000000000000e+000
4902:0.0000000000000000e+000
4903:0.0000000000000000e+000
4904:0.0000000000000000e+000
4905:0.0000000000000000e+000
4906:0.0000000000000000e+000
4907:0.0000000000000000e+000
4908:0.0000000000000000e+000
4909:0.0000000000000000e+000
4910:0.0000000000000000e+000
4911:0.0000000000000000e+000
4912:0.0000000000000000e+000
4913:0.0000000000000000e+000
4914:0.0000000000000000e+000
4915:0.0000000000000000e+000
4916:0.0000000000000000e+000
4917:0.0000000000000000e+000
4918:0.0000000000000000e+000
4919:0.0000000000000000e+000
4920:0.0000000000000000e+000
4921:0.0000000000000000e+000
4922:0.0000000000000000e+000
4923:0.0000000000000000e+000
4924:0.0000000000000000e+000
4925:0.0000000000000000e+000
4926:0.0000000000000000e+000
4927:0.0000000000000000e+000
4928:0.0000000000000000e+000
4929:0.0000000000000000e+000
4930:0.0000000000000000e+000
4931:0.0000000000000000e+000
4932:0.0000000000000000e+000
4933:0.0000000000000000e+000
4934:0.0000000000000000e+000
4935:0.0000000000000000e+000
4936:0.0000000000000000e+000
4937:0.0000000000000000e+000
4938:0.0000000000000000e+000
4939:0.0000000000000000e+000
4940:0.0000000000000000e+000
4941:0.0000000000000000e+000
4942:0.0000000000000000e+000
4943:0.0000000000000000e+000
4944:0.0000000000000000e+000
4945:0.0000000000000000e+000
4946:0.0000000000000000e+000
4947:0.0000000000000000e+000
4948:0.0000000000000000e+000
4949:0.0000000000000000e+000
4950:0.0000000000000000e+000
4951:0.0000000000000000e+000
4952:0.0000000000000000e+000
4953:0.0000000000000000e+000
4954:0.0000000000000000e+000
4955:0.0000000000000000e+000
4956:0.0000000000000000e+000
4957:0.0000000000000000e+000
4958:0.0000000000000000e+000
4959:0.0000000000000000e+000
4960:0.0000000000000000e+000
4961:0.0000000000000000e+000
4962:0.0000000000000000e+000
4963:0.0000000000000000e+000
4964:0.0000000000000000e+000
4965:0.0000000000000000e+000
4966:0.0000000000000000e+000
4967:0.0000000000000000e+000
4968:0.0000000000000000e+000
4969:0.0000000000000000e+000
4970:0.0000000000000000e+000
4971:0.0000000000000000e+000
4972:0.0000000000000000e+000
4973:0.0000000000000000e+000
4974:0.0000000000000000e+000
4975:0.0000000000000000e+000
4976:0.0000000000000000e+000
4977:0.0000000000000000e+000
4978:0.0000000000000000e+000
4979:0.0000000000000000e+000
4980:0.0000000000000000e+000
4981:0.0000000000000000e+000
4982:0.0000000000000000e+000
4983:0.0000000000000000e+000
4984:0.0000000000000000e+000
4985:0.0000000000000000e+000
4986:0.0000000000000000e+000
4987:0.0000000000000000e+000
4988:0.0000000000000000e+000
4989:0.0000000000000000e+000
4990:0.0000000000000000e+000
4991:0.0000000000000000e+000
4992:0.0000000000000000e+000
4993:0.0000000000000000e+000
4994:0.0000000000000000e+000
4995:0.0000000000000000e+000
4996:0.0000000000000000e+000
4997:0.0000000000000000e+000
4998:0.0000000000000000e+000
4999:0.0000000000000000e+000
5000:0.0000000000000000e+000
5001:0.0000000000000000e+000
5002:0.0000000000000000e+000
5003:0.0000000000000000e+000
5004:0.0000000000000000e+000
5005:0.0000000000000000e+000
5006:0.0000000000000000e+000
5007:0.0000000000000000e+000
5008:0.0000000000000000e+000
5009:0.0000000000000000e+000
5010:0.0000000000000000e+000
5011:0.0000000000000000e+000
5012:0.0000000000000000e+000
5013:0.0000000000000000e+000
5014:0.0000000000000000e+000
5015:0.0000000000000000e+000
5016:0.0000000000000000e+000
5017:0.0000000000000000e+000
5018:0.0000000000000000e+000
5019:0.0000000000000000e+000
5020:0.0000000000000000e+000
5021:0.0000000000000000e+000
5022:0.0000000000000000e+000
5023:0.0000000000000000e+000
5024:0.0000000000000000e+000
5025:0.0000000000000000e+000
5026:0.0000000000000000e+000
5027:0.0000000000000000e+000
5028:0.0000000000000000e+000
5029:0.0000000000000000e+000
5030:0.0000000000000000e+000
5031:0.0000000000000000e+000
5032:0.0000000000000000e+000
5033:0.0000000000000000e+000
5034:0.0000000000000000e+000
5035:0.0000000000000000e+000
5036:0.0000000000000000e+000
5037:0.0000000000000000e+000
5038:0.0000000000000000e+000
5039:0.0000000000000000e+000
5040:0.0000000000000000e+000
5041:0.0000000000000000e+000
5042:0.0000000000000000e+000
5043:0.0000000000000000e+000
5044:0.0000000000000000e+000
5045:0.0000000000000000e+000
5046:0.0000000000000000e+000
5047:0.0000000000000000e+000
5048:0.0000000000000000e+000
5049:0.0000000000000000e+000
5050:0.0000000000000000e+000
5051:0.0000000000000000e+000
5052:0.0000000000000000e+000
5053:0.0000000000000000e+000
5054:0.0000000000000000e+000
5055:0.0000000000000000e+000
5056:0.0000000000000000e+000
5057:0.0000000000000000e+000
5058:0.0000000000000000e+000
5059:0.0000000000000000e+000
5060:0.0000000000000000e+000
5061:0.0000000000000000e+000
5062:0.0000000000000000e+000
5063:0.0000000000000000e+000
5064:0.0000000000000000e+000
5065:0.0000000000000000e+000
5066:0.0000000000000000e+000
5067:0.0000000000000000e+000
5068:0.0000000000000000e+000
5069:0.0000000000000000e+000
5070:0.0000000000000000e+000
5071:0.0000000000000000e+000
5072:0.0000000000000000e+000
5073:0.0000000000000000e+000
5074:0.0000000000000000e+000
5075:0.0000000000000000e+000
5076:0.0000000000000000e+000
5077:0.0000000000000000e+000
5078:0.0000000000000000e+000
5079:0.0000000000000000e+000
5080:0.0000000000000000e+000
5081:0.0000000000000000e+000
5082:0.0000000000000000e+000
5083:0.0000000000000000e+000
5084:0.0000000000000000e+000
5085:0.0000000000000000e+000
5086:0.0000000000000000e+000
5087:0.0000000000000000e+000
5088:0.0000000000000000e+000
5089:0.0000000000000000e+000
5090:0.0000000000000000e+000
5091:0.0000000000000000e+000
5092:0.0000000000000000e+000
5093:0.0000000000000000e+000
5094:0.0000000000000000e+000
5095:0.0000000000000000e+000
5096:0.0000000000000000e+000
5097:0.0000000000000000e+000
5098:0.0000000000000000e+000
5099:0.0000000000000000e+000
5100:0.0000000000000000e+000
5101:0.0000000000000000e+000
5102:0.0000000000000000e+000
5103:0.0000000000000000e+000
5104:0.0000000000000000e+000
5105:0.0000000000000000e+000
5106:0.0000000000000000e+000
5107:0.0000000000000000e+000
5108:0.0000000000000000e+000
5109:0.0000000000000000e+000
5110:0.0000000000000000e+000
5111:0.0000000000000000e+000
5112:0.0000000000000000e+000
5113:0.0000000000000000e+000
5114:0.0000000000000000e+000
5115:0.0000000000000000e+000
5116:0.0000000000000000e+000
5117:0.0000000000000000e+000
5118:0.0000000000000000e+000
5119:0.0000000000000000e+000
5120:0.0000000000000000e+000
5121:0.0000000000000000e+000
5122:0.0000000000000000e+000
5123:0.0000000000000000e+000
5124:0.0000000000000000e+000
5125:0.0000000000000000e+000
5126:0.0000000000000000e+000
5127:0.0000000000000000e+000
5128:0.0000000000000000e+000
5129:0.0000000000000000e+000
5130:0.0000000000000000e+000
5131:0.0000000000000000e+000
5132:0.0000000000000000e+000
5133:0.0000000000000000e+000
5134:0.0000000000000000e+000
5135:0.0000000000000000e+000
5136:0.0000000000000000e+000
5137:0.0000000000000000e+000
5138:0.0000000000000000e+000
5139:0.0000000000000000e+000
5140:0.0000000000000000e+000
5141:0.0000000000000000e+000
5142:0.0000000000000000e+000
5143:0.0000000000000000e+000
5144:0.0000000000000000e+000
5145:0.0000000000000000e+000
5146:0.0000000000000000e+000
5147:0.0000000000000000e+000
5148:0.0000000000000000e+000
5149:0.0000000000000000e+000
5150:0.0000000000000000e+000
5151:0.0000000000000000e+000
5152:0.0000000000000000e+000
5153:0.0000000000000000e+000
5154:0.0000000000000000e+000
5155:0.0000000000000000e+000
5156:0.0000000000000000e+000
5157:0.0000000000000000e+000
5158:0.0000000000000000e+000
5159:0.0000000000000000e+000
5160:0.0000000000000000e+000
5161:0.0000000000000000e+000
5162:0.0000000000000000e+000
5163:0.0000000000000000e+000
5164:0.0000000000000000e+000
5165:0.0000000000000000e+000
5166:0.0000000000000000e+000
5167:0.0000000000000000e+000
5168:0.0000000000000000e+000
5169:0.0000000000000000e+000
5170:0.0000000000000000e+000
5171:0.0000000000000000e+000
5172:0.0000000000000000e+000
5173:0.0000000000000000e+000
5174:0.0000000000000000e+000
5175:0.0000000000000000e+000
5176:0.0000000000000000e+000
5177:0.0000000000000000e+000
5178:0.0000000000000000e+000
5179:0.0000000000000000e+000
5180:0.0000000000000000e+000
5181:0.0000000000000000e+000
5182:0.0000000000000000e+000
5183:0.0000000000000000e+000
5184:0.0000000000000000e+000
5185:0.0000000000000000e+000
5186:0.0000000000000000e+000
5187:0.0000000000000000e+000
5188:0.0000000000000000e+000
5189:0.0000000000000000e+000
5190:0.0000000000000000e+000
5191:0.0000000000000000e+000
5192:0.0000000000000000e+000
5193:0.0000000000000000e+000
5194:0.0000000000000000e+000
5195:0.0000000000000000e+000
5196:0.0000000000000000e+000
5197:0.0000000000000000e+000
5198:0.0000000000000000e+000
5199:0.0000000000000000e+000
5200:0.0000000000000000e+000
5201:0.0000000000000000e+000
5202:0.0000000000000000e+000
5203:0.0000000000000000e+000
5204:0.0000000000000000e+000
5205:0.0000000000000000e+000
5206:0.0000000000000000e+000
5207:0.0000000000000000e+000
5208:0.0000000000000000e+000
5209:0.0000000000000000e+000
5210:0.0000000000000000e+000
5211:0.0000000000000000e+000
5212:0.0000000000000000e+000
5213:0.0000000000000000e+000
5214:0.0000000000000000e+000
5215:0.0000000000000000e+000
5216:0.0000000000000000e+000
5217:0.0000000000000000e+000
5218:0.0000000000000000e+000
5219:0.0000000000000000e+000
5220:0.0000000000000000e+000
5221:0.0000000000000000e+000
5222:0.0000000000000000e+000
5223:0.0000000000000000e+000
5224:0.0000000000000000e+000
5225:0.0000000000000000e+000
5226:0.0000000000000000e+000
5227:0.0000000000000000e+000
5228:0.0000000000000000e+000
5229:0.0000000000000000e+000
5230:0.0000000000000000e+000
5231:0.0000000000000000e+000
5232:0.0000000000000000e+000
5233:0.0000000000000000e+000
5234:0.0000000000000000e+000
5235:0.0000000000000000e+000
5236:0.0000000000000000e+000
5237:0.0000000000000000e+000
5238:0.0000000000000000e+000
5239:0.0000000000000000e+000
5240:0.0000000000000000e+000
5241:0.0000000000000000e+000
5242:0.0000000000000000e+000
5243:0.0000000000000000e+000
5244:0.0000000000000000e+000
5245:0.0000000000000000e+000
5246:0.0000000000000000e+000
5247:0.0000000000000000e+000
5248:0.0000000000000000e+000
5249:0.0000000000000000e+000
5250:0.0000000000000000e+000
5251:0.0000000000000000e+000
5252:0.0000000000000000e+000
5253:0.0000000000000000e+000
5254:0.0000000000000000e+000
5255:0.0000000000000000e+000
5256:0.0000000000000000e+000
5257:0.0000000000000000e+000
5258:0.0000000000000000e+000
5259:0.0000000000000000e+000
5260:0.0000000000000000e+000
5261:0.0000000000000000e+000
5262:0.0000000000000000e+000
5263:0.0000000000000000e+000
5264:0.0000000000000000e+000
5265:0.0000000000000000e+000
5266:0.0000000000000000e+000
5267:0.0000000000000000e+000
5268:0.0000000000000000e+000
5269:0.0000000000000000e+000
5270:0.0000000000000000e+000
5271:0.0000000000000000e+000
5272:0.0000000000000000e+000
5273:0.0000000000000000e+000
5274:0.0000000000000000e+000
5275:0.0000000000000000e+000
5276:0.0000000000000000e+000
5277:0.0000000000000000e+000
5278:0.0000000000000000e+000
5279:0.0000000000000000e+000
5280:0.0000000000000000e+000
5281:0.0000000000000000e+000
5282:0.0000000000000000e+000
5283:0.0000000000000000e+000
5284:0.0000000000000000e+000
5285:0.0000000000000000e+000
5286:0.0000000000000000e+000
5287:0.0000000000000000e+000
5288:0.0000000000000000e+000
5289:0.0000000000000000e+000
5290:0.0000000000000000e+000
5291:0.0000000000000000e+000
5292:0.0000000000000000e+000
5293:0.0000000000000000e+000
5294:0.0000000000000000e+000
5295:0.0000000000000000e+000
5296:0.0000000000000000e+000
5297:0.0000000000000000e+000
5298:0.0000000000000000e+000
5299:0.0000000000000000e+000
5300:0.0000000000000000e+000
5301:0.0000000000000000e+000
5302:0.0000000000000000e+000
5303:0.0000000000000000e+000
5304:0.0000000000000000e+000
5305:0.0000000000000000e+000
5306:0.0000000000000000e+000
5307:0.0000000000000000e+000
5308:0.0000000000000000e+000
5309:0.0000000000000000e+000
5310:0.0000000000000000e+000
5311:0.0000000000000000e+000
5312:0.0000000000000000e+000
5313:0.0000000000000000e+000
5314:0.0000000000000000e+000
5315:0.0000000000000000e+000
5316:0.0000000000000000e+000
5317:0.0000000000000000e+000
5318:0.0000000000000000e+000
5319:0.0000000000000000e+000
5320:0.0000000000000000e+000
5321:0.0000000000000000e+000
5322:0.0000000000000000e+000
5323:0.0000000000000000e+000
5324:0.0000000000000000e+000
5325:0.0000000000000000e+000
5326:0.0000000000000000e+000
5327:0.0000000000000000e+000
5328:0.0000000000000000e+000
5329:0.0000000000000000e+000
5330:0.0000000000000000e+000
5331:0.0000000000000000e+000
5332:0.0000000000000000e+000
5333:0.0000000000000000e+000
5334:0.0000000000000000e+000
5335:0.0000000000000000e+000
5336:0.0000000000000000e+000
5337:0.0000000000000000e+000
5338:0.0000000000000000e+000
5339:0.0000000000000000e+000
5340:0.0000000000000000e+000
5341:0.0000000000000000e+000
5342:0.0000000000000000e+000
5343:0.0000000000000000e+000
5344:0.0000000000000000e+000
5345:0.0000000000000000e+000
5346:0.0000000000000000e+000
5347:0.0000000000000000e+000
5348:0.0000000000000000e+000
5349:0.0000000000000000e+000
5350:0.0000000000000000e+000
5351:0.0000000000000000e+000
5352:0.0000000000000000e+000
5353:0.0000000000000000e+000
5354:0.0000000000000000e+000
5355:0.0000000000000000e+000
5356:0.0000000000000000e+000
5357:0.0000000000000000e+000
5358:0.0000000000000000e+000
5359:0.0000000000000000e+000
5360:0.0000000000000000e+000
5361:0.0000000000000000e+000
5362:0.0000000000000000e+000
5363:0.0000000000000000e+000
5364:0.0000000000000000e+000
5365:0.0000000000000000e+000
5366:0.0000000000000000e+000
5367:0.0000000000000000e+000
5368:0.0000000000000000e+000
5369:0.0000000000000000e+000
5370:0.0000000000000000e+000
5371:0.0000000000000000e+000
5372:0.0000000000000000e+000
5373:0.0000000000000000e+000
5374:0.0000000000000000e+000
5375:0.0000000000000000e+000
5376:0.0000000000000000e+000
5377:0.0000000000000000e+000
5378:0.0000000000000000e+000
5379:0.0000000000000000e+000
5380:0.0000000000000000e+000
5381:0.0000000000000000e+000
5382:0.0000000000000000e+000
5383:0.0000000000000000e+000
5384:0.0000000000000000e+000
5385:0.0000000000000000e+000
5386:0.0000000000000000e+000
5387:0.0000000000000000e+000
5388:0.0000000000000000e+000
5389:0.0000000000000000e+000
5390:0.0000000000000000e+000
5391:0.0000000000000000e+000
5392:0.0000000000000000e+000
5393:0.0000000000000000e+000
5394:0.0000000000000000e+000
5395:0.0000000000000000e+000
5396:0.0000000000000000e+000
5397:0.0000000000000000e+000
5398:0.0000000000000000e+000
5399:0.0000000000000000e+000
5400:0.0000000000000000e+000
5401:0.0000000000000000e+000
5402:0.0000000000000000e+000
5403:0.0000000000000000e+000
5404:0.0000000000000000e+000
5405:0.0000000000000000e+000
5406:0.0000000000000000e+000
5407:0.0000000000000000e+000
5408:0.0000000000000000e+000
5409:0.0000000000000000e+000
5410:0.0000000000000000e+000
5411:0.0000000000000000e+000
5412:0.0000000000000000e+000
5413:0.0000000000000000e+000
5414:0.0000000000000000e+000
5415:0.0000000000000000e+000
5416:0.0000000000000000e+000
5417:0.0000000000000000e+000
5418:0.0000000000000000e+000
5419:0.0000000000000000e+000
5420:0.0000000000000000e+000
5421:0.0000000000000000e+000
5422:0.0000000000000000e+000
5423:0.0000000000000000e+000
5424:0.0000000000000000e+000
5425:0.0000000000000000e+000
5426:0.0000000000000000e+000
5427:0.0000000000000000e+000
5428:0.0000000000000000e+000
5429:0.0000000000000000e+000
5430:0.0000000000000000e+000
5431:0.0000000000000000e+000
5432:0.0000000000000000e+000
5433:0.0000000000000000e+000
5434:0.0000000000000000e+000
5435:0.0000000000000000e+000
5436:0.0000000000000000e+000
5437:0.0000000000000000e+000
5438:0.0000000000000000e+000
5439:0.0000000000000000e+000
5440:0.0000000000000000e+000
5441:0.0000000000000000e+000
5442:0.0000000000000000e+000
5443:0.0000000000000000e+000
5444:0.0000000000000000e+000
5445:0.0000000000000000e+000
5446:0.0000000000000000e+000
5447:0.0000000000000000e+000
5448:0.0000000000000000e+000
5449:0.0000000000000000e+000
5450:0.0000000000000000e+000
5451:0.0000000000000000e+000
5452:0.0000000000000000e+000
5453:0.0000000000000000e+000
5454:0.0000000000000000e+000
5455:0.0000000000000000e+000
5456:0.0000000000000000e+000
5457:0.0000000000000000e+000
5458:0.0000000000000000e+000
5459:0.0000000000000000e+000
5460:0.0000000000000000e+000
5461:0.0000000000000000e+000
5462:0.0000000000000000e+000
5463:0.0000000000000000e+000
5464:0.0000000000000000e+000
5465:0.0000000000000000e+000
5466:0.0000000000000000e+000
5467:0.0000000000000000e+000
5468:0.0000000000000000e+000
5469:0.0000000000000000e+000
5470:0.0000000000000000e+000
5471:0.0000000000000000e+000
5472:0.0000000000000000e+000
5473:0.0000000000000000e+000
5474:0.0000000000000000e+000
5475:0.0000000000000000e+000
5476:0.0000000000000000e+000
5477:0.0000000000000000e+000
5478:0.0000000000000000e+000
5479:0.0000000000000000e+000
5480:0.0000000000000000e+000
5481:0.0000000000000000e+000
5482:0.0000000000000000e+000
5483:0.0000000000000000e+000
5484:0.0000000000000000e+000
5485:0.0000000000000000e+000
5486:0.0000000000000000e+000
5487:0.0000000000000000e+000
5488:0.0000000000000000e+000
5489:0.0000000000000000e+000
5490:0.0000000000000000e+000
5491:0.0000000000000000e+000
5492:0.0000000000000000e+000
5493:0.0000000000000000e+000
5494:0.0000000000000000e+000
5495:0.0000000000000000e+000
5496:0.0000000000000000e+000
5497:0.0000000000000000e+000
5498:0.0000000000000000e+000
5499:0.0000000000000000e+000
5500:0.0000000000000000e+000
5501:0.0000000000000000e+000
5502:0.0000000000000000e+000
5503:0.0000000000000000e+000
5504:0.0000000000000000e+000
5505:0.0000000000000000e+000
5506:0.0000000000000000e+000
5507:0.0000000000000000e+000
5508:0.0000000000000000e+000
5509:0.0000000000000000e+000
5510:0.0000000000000000e+000
5511:0.0000000000000000e+000
5512:0.0000000000000000e+000
5513:0.0000000000000000e+000
5514:0.0000000000000000e+000
5515:0.0000000000000000e+000
5516:0.0000000000000000e+000
5517:0.0000000000000000e+000
5518:0.0000000000000000e+000
5519:0.0000000000000000e+000
5520:0.0000000000000000e+000
5521:0.0000000000000000e+000
5522:0.0000000000000000e+000
5523:0.0000000000000000e+000
5524:0.0000000000000000e+000
5525:0.0000000000000000e+000
5526:0.0000000000000000e+000
5527:0.0000000000000000e+000
5528:0.0000000000000000e+000
5529:0.0000000000000000e+000
5530:0.0000000000000000e+000
5531:0.0000000000000000e+000
5532:0.0000000000000000e+000
5533:0.0000000000000000e+000
5534:0.0000000000000000e+000
5535:0.0000000000000000e+000
5536:0.0000000000000000e+000
5537:0.0000000000000000e+000
5538:0.0000000000000000e+000
5539:0.0000000000000000e+000
5540:0.0000000000000000e+000
5541:0.0000000000000000e+000
5542:0.0000000000000000e+000
5543:0.0000000000000000e+000
5544:0.0000000000000000e+000
5545:0.0000000000000000e+000
5546:0.0000000000000000e+000
5547:0.0000000000000000e+000
5548:0.0000000000000000e+000
5549:0.0000000000000000e+000
5550:0.0000000000000000e+000
5551:0.0000000000000000e+000
5552:0.0000000000000000e+000
5553:0.0000000000000000e+000
5554:0.0000000000000000e+000
5555:0.0000000000000000e+000
5556:0.0000000000000000e+000
5557:0.0000000000000000e+000
5558:0.0000000000000000e+000
5559:0.0000000000000000e+000
5560:0.0000000000000000e+000
5561:0.0000000000000000e+000
5562:0.0000000000000000e+000
5563:0.0000000000000000e+000
5564:0.0000000000000000e+000
5565:0.0000000000000000e+000
5566:0.0000000000000000e+000
5567:0.0000000000000000e+000
5568:0.0000000000000000e+000
5569:0.0000000000000000e+000
5570:0.0000000000000000e+000
5571:0.0000000000000000e+000
5572:0.0000000000000000e+000
5573:0.0000000000000000e+000
5574:0.0000000000000000e+000
5575:0.0000000000000000e+000
5576:0.0000000000000000e+000
5577:0.0000000000000000e+000
5578:0.0000000000000000e+000
5579:0.0000000000000000e+000
5580:0.0000000000000000e+000
5581:0.0000000000000000e+000
5582:0.0000000000000000e+000
5583:0.0000000000000000e+000
5584:0.0000000000000000e+000
5585:0.0000000000000000e+000
5586:0.0000000000000000e+000
5587:0.0000000000000000e+000
5588:0.0000000000000000e+000
5589:0.0000000000000000e+000
5590:0.0000000000000000e+000
5591:0.0000000000000000e+000
5592:0.0000000000000000e+000
5593:0.0000000000000000e+000
5594:0.0000000000000000e+000
5595:0.0000000000000000e+000
5596:0.0000000000000000e+000
5597:0.0000000000000000e+000
5598:0.0000000000000000e+000
5599:0.0000000000000000e+000
5600:0.0000000000000000e+000
5601:0.0000000000000000e+000
5602:0.0000000000000000e+000
5603:0.0000000000000000e+000
5604:0.0000000000000000e+000
5605:0.0000000000000000e+000
5606:0.0000000000000000e+000
5607:0.0000000000000000e+000
5608:0.0000000000000000e+000
5609:0.0000000000000000e+000
5610:0.0000000000000000e+000
5611:0.0000000000000000e+000
5612:0.0000000000000000e+000
5613:0.0000000000000000e+000
5614:0.0000000000000000e+000
5615:0.0000000000000000e+000
5616:0.0000000000000000e+000
5617:0.0000000000000000e+000
5618:0.0000000000000000e+000
5619:0.0000000000000000e+000
5620:0.0000000000000000e+000
5621:0.0000000000000000e+000
5622:0.0000000000000000e+000
5623:0.0000000000000000e+000
5624:0.0000000000000000e+000
5625:0.0000000000000000e+000
5626:0.0000000000000000e+000
5627:0.0000000000000000e+000
5628:0.0000000000000000e+000
5629:0.0000000000000000e+000
5630:0.0000000000000000e+000
5631:0.0000000000000000e+000
5632:0.0000000000000000e+000
5633:0.0000000000000000e+000
5634:0.0000000000000000e+000
5635:0.0000000000000000e+000
5636:0.0000000000000000e+000
5637:0.0000000000000000e+000
5638:0.0000000000000000e+000
5639:0.0000000000000000e+000
5640:0.0000000000000000e+000
5641:0.0000000000000000e+000
5642:0.0000000000000000e+000
5643:0.0000000000000000e+000
5644:0.0000000000000000e+000
5645:0.0000000000000000e+000
5646:0.0000000000000000e+000
5647:0.0000000000000000e+000
5648:0.0000000000000000e+000
5649:0.0000000000000000e+000
5650:0.0000000000000000e+000
5651:0.0000000000000000e+000
5652:0.0000000000000000e+000
5653:0.0000000000000000e+000
5654:0.0000000000000000e+000
5655:0.0000000000000000e+000
5656:0.0000000000000000e+000
5657:0.0000000000000000e+000
5658:0.0000000000000000e+000
5659:0.0000000000000000e+000
5660:0.0000000000000000e+000
5661:0.0000000000000000e+000
5662:0.0000000000000000e+000
5663:0.0000000000000000e+000
5664:0.0000000000000000e+000
5665:0.0000000000000000e+000
5666:0.0000000000000000e+000
5667:0.0000000000000000e+000
5668:0.0000000000000000e+000
5669:0.0000000000000000e+000
5670:0.0000000000000000e+000
5671:0.0000000000000000e+000
5672:0.0000000000000000e+000
5673:0.0000000000000000e+000
5674:0.0000000000000000e+000
5675:0.0000000000000000e+000
5676:0.0000000000000000e+000
5677:0.0000000000000000e+000
5678:0.0000000000000000e+000
5679:0.0000000000000000e+000
5680:0.0000000000000000e+000
5681:0.0000000000000000e+000
5682:0.0000000000000000e+000
5683:0.0000000000000000e+000
5684:0.0000000000000000e+000
5685:0.0000000000000000e+000
5686:0.0000000000000000e+000
5687:0.0000000000000000e+000
5688:0.0000000000000000e+000
5689:0.0000000000000000e+000
5690:0.0000000000000000e+000
5691:0.0000000000000000e+000
5692:0.0000000000000000e+000
5693:0.0000000000000000e+000
5694:0.0000000000000000e+000
5695:0.0000000000000000e+000
5696:0.0000000000000000e+000
5697:0.0000000000000000e+000
5698:0.0000000000000000e+000
5699:0.0000000000000000e+000
5700:0.0000000000000000e+000
5701:0.0000000000000000e+000
5702:0.0000000000000000e+000
5703:0.0000000000000000e+000
5704:0.0000000000000000e+000
5705:0.0000000000000000e+000
5706:0.0000000000000000e+000
5707:0.0000000000000000e+000
5708:0.0000000000000000e+000
5709:0.0000000000000000e+000
5710:0.0000000000000000e+000
5711:0.0000000000000000e+000
5712:0.0000000000000000e+000
5713:0.0000000000000000e+000
5714:0.0000000000000000e+000
5715:0.0000000000000000e+000
5716:0.0000000000000000e+000
5717:0.0000000000000000e+000
5718:0.0000000000000000e+000
5719:0.0000000000000000e+000
5720:0.0000000000000000e+000
5721:0.0000000000000000e+000
5722:0.0000000000000000e+000
5723:0.0000000000000000e+000
5724:0.0000000000000000e+000
5725:0.0000000000000000e+000
5726:0.0000000000000000e+000
5727:0.0000000000000000e+000
5728:0.0000000000000000e+000
5729:0.0000000000000000e+000
5730:0.0000000000000000e+000
5731:0.0000000000000000e+000
5732:0.0000000000000000e+000
5733:0.0000000000000000e+000
5734:0.0000000000000000e+000
5735:0.0000000000000000e+000
5736:0.0000000000000000e+000
5737:0.0000000000000000e+000
5738:0.0000000000000000e+000
5739:0.0000000000000000e+000
5740:0.0000000000000000e+000
5741:0.0000000000000000e+000
5742:0.0000000000000000e+000
5743:0.0000000000000000e+000
5744:0.0000000000000000e+000
5745:0.0000000000000000e+000
5746:0.0000000000000000e+000
5747:0.0000000000000000e+000
5748:0.0000000000000000e+000
5749:0.0000000000000000e+000
5750:0.0000000000000000e+000
5751:0.0000000000000000e+000
5752:0.0000000000000000e+000
5753:0.0000000000000000e+000
5754:0.0000000000000000e+000
5755:0.0000000000000000e+000
5756:0.0000000000000000e+000
5757:0.0000000000000000e+000
5758:0.0000000000000000e+000
5759:0.0000000000000000e+000
5760:0.0000000000000000e+000
5761:0.0000000000000000e+000
5762:0.0000000000000000e+000
5763:0.0000000000000000e+000
5764:0.0000000000000000e+000
5765:0.0000000000000000e+000
5766:0.0000000000000000e+000
5767:0.0000000000000000e+000
5768:0.0000000000000000e+000
5769:0.0000000000000000e+000
5770:0.0000000000000000e+000
5771:0.0000000000000000e+000
5772:0.0000000000000000e+000
5773:0.0000000000000000e+000
5774:0.0000000000000000e+000
5775:0.0000000000000000e+000
5776:0.0000000000000000e+000
5777:0.0000000000000000e+000
5778:0.0000000000000000e+000
5779:0.0000000000000000e+000
5780:0.0000000000000000e+000
5781:0.0000000000000000e+000
5782:0.0000000000000000e+000
5783:0.0000000000000000e+000
5784:0.0000000000000000e+000
5785:0.0000000000000000e+000
5786:0.0000000000000000e+000
5787:0.0000000000000000e+000
5788:0.0000000000000000e+000
5789:0.0000000000000000e+000
5790:0.0000000000000000e+000
5791:0.0000000000000000e+000
5792:0.0000000000000000e+000
5793:0.0000000000000000e+000
5794:0.0000000000000000e+000
5795:0.0000000000000000e+000
5796:0.0000000000000000e+000
5797:0.0000000000000000e+000
5798:0.0000000000000000e+000
5799:0.0000000000000000e+000
5800:0.0000000000000000e+000
5801:0.0000000000000000e+000
5802:0.0000000000000000e+000
5803:0.0000000000000000e+000
5804:0.0000000000000000e+000
5805:0.0000000000000000e+000
5806:0.0000000000000000e+000
5807:0.0000000000000000e+000
5808:0.0000000000000000e+000
5809:0.0000000000000000e+000
5810:0.0000000000000000e+000
5811:0.0000000000000000e+000
5812:0.0000000000000000e+000
5813:0.0000000000000000e+000
5814:0.0000000000000000e+000
5815:0.0000000000000000e+000
5816:0.0000000000000000e+000
5817:0.0000000000000000e+000
5818:0.0000000000000000e+000
5819:0.0000000000000000e+000
5820:0.0000000000000000e+000
5821:0.0000000000000000e+000
5822:0.0000000000000000e+000
5823:0.0000000000000000e+000
5824:0.0000000000000000e+000
5825:0.0000000000000000e+000
5826:0.0000000000000000e+000
5827:0.0000000000000000e+000
5828:0.0000000000000000e+000
5829:0.0000000000000000e+000
5830:0.0000000000000000e+000
5831:0.0000000000000000e+000
5832:0.0000000000000000e+000
5833:0.0000000000000000e+000
5834:0.0000000000000000e+000
5835:0.0000000000000000e+000
5836:0.0000000000000000e+000
5837:0.0000000000000000e+000
5838:0.0000000000000000e+000
5839:0.0000000000000000e+000
5840:0.0000000000000000e+000
5841:0.0000000000000000e+000
5842:0.0000000000000000e+000
5843:0.0000000000000000e+000
5844:0.0000000000000000e+000
5845:0.0000000000000000e+000
5846:0.0000000000000000e+000
5847:0.0000000000000000e+000
5848:0.0000000000000000e+000
5849:0.0000000000000000e+000
5850:0.0000000000000000e+000
5851:0.0000000000000000e+000
5852:0.0000000000000000e+000
5853:0.0000000000000000e+000
5854:0.0000000000000000e+000
5855:0.0000000000000000e+000
5856:0.0000000000000000e+000
5857:0.0000000000000000e+000
5858:0.0000000000000000e+000
5859:0.0000000000000000e+000
5860:0.0000000000000000e+000
5861:0.0000000000000000e+000
5862:0.0000000000000000e+000
5863:0.0000000000000000e+000
5864:0.0000000000000000e+000
5865:0.0000000000000000e+000
5866:0.0000000000000000e+000
5867:0.0000000000000000e+000
5868:0.0000000000000000e+000
5869:0.0000000000000000e+000
5870:0.0000000000000000e+000
5871:0.0000000000000000e+000
5872:0.0000000000000000e+000
5873:0.0000000000000000e+000
5874:0.0000000000000000e+000
5875:0.0000000000000000e+000
5876:0.0000000000000000e+000
5877:0.0000000000000000e+000
5878:0.0000000000000000e+000
5879:0.0000000000000000e+000
5880:0.0000000000000000e+000
5881:0.0000000000000000e+000
5882:0.0000000000000000e+000
5883:0.0000000000000000e+000
5884:0.0000000000000000e+000
5885:0.0000000000000000e+000
5886:0.0000000000000000e+000
5887:0.0000000000000000e+000
5888:0.0000000000000000e+000
5889:0.0000000000000000e+000
5890:0.0000000000000000e+000
5891:0.0000000000000000e+000
5892:0.0000000000000000e+000
5893:0.0000000000000000e+000
5894:0.0000000000000000e+000
5895:0.0000000000000000e+000
5896:0.0000000000000000e+000
5897:0.0000000000000000e+000
5898:0.0000000000000000e+000
5899:0.0000000000000000e+000
5900:0.0000000000000000e+000
5901:0.0000000000000000e+000
5902:0.0000000000000000e+000
5903:0.0000000000000000e+000
5904:0.0000000000000000e+000
5905:0.0000000000000000e+000
5906:0.0000000000000000e+000
5907:0.0000000000000000e+000
5908:0.0000000000000000e+000
5909:0.0000000000000000e+000
5910:0.0000000000000000e+000
5911:0.0000000000000000e+000
5912:0.0000000000000000e+000
5913:0.0000000000000000e+000
5914:0.0000000000000000e+000
5915:0.0000000000000000e+000
5916:0.0000000000000000e+000
5917:0.0000000000000000e+000
5918:0.0000000000000000e+000
5919:0.0000000000000000e+000
5920:0.0000000000000000e+000
5921:0.0000000000000000e+000
5922:0.0000000000000000e+000
5923:0.0000000000000000e+000
5924:0.0000000000000000e+000
5925:0.0000000000000000e+000
5926:0.0000000000000000e+000
5927:0.0000000000000000e+000
5928:0.0000000000000000e+000
5929:0.0000000000000000e+000
5930:0.0000000000000000e+000
5931:0.0000000000000000e+000
5932:0.0000000000000000e+000
5933:0.0000000000000000e+000
5934:0.0000000000000000e+000
5935:0.0000000000000000e+000
5936:0.0000000000000000e+000
5937:0.0000000000000000e+000
5938:0.0000000000000000e+000
5939:0.0000000000000000e+000
5940:0.0000000000000000e+000
5941:0.0000000000000000e+000
5942:0.0000000000000000e+000
5943:0.0000000000000000e+000
5944:0.0000000000000000e+000
5945:0.0000000000000000e+000
5946:0.0000000000000000e+000
5947:0.0000000000000000e+000
5948:0.0000000000000000e+000
5949:0.0000000000000000e+000
5950:0.0000000000000000e+000
5951:0.0000000000000000e+000
5952:0.0000000000000000e+000
5953:0.0000000000000000e+000
5954:0.0000000000000000e+000
5955:0.0000000000000000e+000
5956:0.0000000000000000e+000
5957:0.0000000000000000e+000
5958:0.0000000000000000e+000
5959:0.0000000000000000e+000
5960:0.0000000000000000e+000
5961:0.0000000000000000e+000
5962:0.0000000000000000e+000
5963:0.0000000000000000e+000
5964:0.0000000000000000e+000
5965:0.0000000000000000e+000
5966:0.0000000000000000e+000
5967:0.0000000000000000e+000
5968:0.0000000000000000e+000
5969:0.0000000000000000e+000
5970:0.0000000000000000e+000
5971:0.0000000000000000e+000
5972:0.0000000000000000e+000
5973:0.0000000000000000e+000
5974:0.0000000000000000e+000
5975:0.0000000000000000e+000
5976:0.0000000000000000e+000
5977:0.0000000000000000e+000
5978:0.0000000000000000e+000
5979:0.0000000000000000e+000
5980:0.0000000000000000e+000
5981:0.0000000000000000e+000
5982:0.0000000000000000e+000
5983:0.0000000000000000e+000
5984:0.0000000000000000e+000
5985:0.0000000000000000e+000
5986:0.0000000000000000e+000
5987:0.0000000000000000e+000
5988:0.0000000000000000e+000
5989:0.0000000000000000e+000
5990:0.0000000000000000e+000
5991:0.0000000000000000e+000
5992:0.0000000000000000e+000
5993:0.0000000000000000e+000
5994:0.0000000000000000e+000
5995:0.0000000000000000e+000
5996:0.0000000000000000e+000
5997:0.0000000000000000e+000
5998:0.0000000000000000e+000
5999:0.0000000000000000e+000
6000:0.0000000000000000e+000
6001:0.0000000000000000e+000
6002:0.0000000000000000e+000
6003:0.0000000000000000e+000
6004:0.0000000000000000e+000
6005:0.0000000000000000e+000
6006:0.0000000000000000e+000
6007:0.0000000000000000e+000
6008:0.0000000000000000e+000
6009:0.0000000000000000e+000
6010:0.0000000000000000e+000
6011:0.0000000000000000e+000
6012:0.0000000000000000e+000
6013:0.0000000000000000e+000
6014:0.0000000000000000e+000
6015:0.0000000000000000e+000
6016:0.0000000000000000e+000
6017:0.0000000000000000e+000
6018:0.0000000000000000e+000
6019:0.0000000000000000e+000
6020:0.0000000000000000e+000
6021:0.0000000000000000e+000
6022:0.0000000000000000e+000
6023:0.0000000000000000e+000
6024:0.0000000000000000e+000
6025:0.0000000000000000e+000
6026:0.0000000000000000e+000
6027:0.0000000000000000e+000
6028:0.0000000000000000e+000
6029:0.0000000000000000e+000
6030:0.0000000000000000e+000
6031:0.0000000000000000e+000
6032:0.0000000000000000e+000
6033:0.0000000000000000e+000
6034:0.0000000000000000e+000
6035:0.0000000000000000e+000
6036:0.0000000000000000e+000
6037:0.0000000000000000e+000
6038:0.0000000000000000e+000
6039:0.0000000000000000e+000
6040:0.0000000000000000e+000
6041:0.0000000000000000e+000
6042:0.0000000000000000e+000
6043:0.0000000000000000e+000
6044:0.0000000000000000e+000
6045:0.0000000000000000e+000
6046:0.0000000000000000e+000
6047:0.0000000000000000e+000
6048:0.0000000000000000e+000
6049:0.0000000000000000e+000
6050:0.0000000000000000e+000
6051:0.0000000000000000e+000
6052:0.0000000000000000e+000
6053:0.0000000000000000e+000
6054:0.0000000000000000e+000
6055:0.0000000000000000e+000
6056:0.0000000000000000e+000
6057:0.0000000000000000e+000
6058:0.0000000000000000e+000
6059:0.0000000000000000e+000
6060:0.0000000000000000e+000
6061:0.0000000000000000e+000
6062:0.0000000000000000e+000
6063:0.0000000000000000e+000
6064:0.0000000000000000e+000
6065:0.0000000000000000e+000
6066:0.0000000000000000e+000
6067:0.0000000000000000e+000
6068:0.0000000000000000e+000
6069:0.0000000000000000e+000
6070:0.0000000000000000e+000
6071:0.0000000000000000e+000
6072:0.0000000000000000e+000
6073:0.0000000000000000e+000
6074:0.0000000000000000e+000
6075:0.0000000000000000e+000
6076:0.0000000000000000e+000
6077:0.0000000000000000e+000
6078:0.0000000000000000e+000
6079:0.0000000000000000e+000
6080:0.0000000000000000e+000
6081:0.0000000000000000e+000
6082:0.0000000000000000e+000
6083:0.0000000000000000e+000
6084:0.0000000000000000e+000
6085:0.0000000000000000e+000
6086:0.0000000000000000e+000
6087:0.0000000000000000e+000
6088:0.0000000000000000e+000
6089:0.0000000000000000e+000
6090:0.0000000000000000e+000
6091:0.0000000000000000e+000
6092:0.0000000000000000e+000
6093:0.0000000000000000e+000
6094:0.0000000000000000e+000
6095:0.0000000000000000e+000
6096:0.0000000000000000e+000
6097:0.0000000000000000e+000
6098:0.0000000000000000e+000
6099:0.0000000000000000e+000
6100:0.0000000000000000e+000
6101:0.0000000000000000e+000
6102:0.0000000000000000e+000
6103:0.0000000000000000e+000
6104:0.0000000000000000e+000
6105:0.0000000000000000e+000
6106:0.0000000000000000e+000
6107:0.0000000000000000e+000
6108:0.0000000000000000e+000
6109:0.0000000000000000e+000
6110:0.0000000000000000e+000
6111:0.0000000000000000e+000
6112:0.0000000000000000e+000
6113:0.0000000000000000e+000
6114:0.0000000000000000e+000
6115:0.0000000000000000e+000
6116:0.0000000000000000e+000
6117:0.0000000000000000e+000
6118:0.0000000000000000e+000
6119:0.0000000000000000e+000
6120:0.0000000000000000e+000
6121:0.0000000000000000e+000
6122:0.0000000000000000e+000
6123:0.0000000000000000e+000
6124:0.0000000000000000e+000
6125:0.0000000000000000e+000
6126:0.0000000000000000e+000
6127:0.0000000000000000e+000
6128:0.0000000000000000e+000
6129:0.0000000000000000e+000
6130:0.0000000000000000e+000
6131:0.0000000000000000e+000
6132:0.0000000000000000e+000
6133:0.0000000000000000e+000
6134:0.0000000000000000e+000
6135:0.0000000000000000e+000
6136:0.0000000000000000e+000
6137:0.0000000000000000e+000
6138:0.0000000000000000e+000
6139:0.0000000000000000e+000
6140:0.0000000000000000e+000
6141:0.0000000000000000e+000
6142:0.0000000000000000e+000
6143:0.0000000000000000e+000
6144:0.0000000000000000e+000
6145:0.0000000000000000e+000
6146:0.0000000000000000e+000
6147:0.0000000000000000e+000
6148:0.0000000000000000e+000
6149:0.0000000000000000e+000
6150:0.0000000000000000e+000
6151:0.0000000000000000e+000
6152:0.0000000000000000e+000
6153:0.0000000000000000e+000
6154:0.0000000000000000e+000
6155:0.0000000000000000e+000
6156:0.0000000000000000e+000
6157:0.0000000000000000e+000
6158:0.0000000000000000e+000
6159:0.0000000000000000e+000
6160:0.0000000000000000e+000
6161:0.0000000000000000e+000
6162:0.0000000000000000e+000
6163:0.0000000000000000e+000
6164:0.0000000000000000e+000
6165:0.0000000000000000e+000
6166:0.0000000000000000e+000
6167:0.0000000000000000e+000
6168:0.0000000000000000e+000
6169:0.0000000000000000e+000
6170:0.0000000000000000e+000
6171:0.0000000000000000e+000
6172:0.0000000000000000e+000
6173:0.0000000000000000e+000
6174:0.0000000000000000e+000
6175:0.0000000000000000e+000
6176:0.0000000000000000e+000
6177:0.0000000000000000e+000
6178:0.0000000000000000e+000
6179:0.0000000000000000e+000
6180:0.0000000000000000e+000
6181:0.0000000000000000e+000
6182:0.0000000000000000e+000
6183:0.0000000000000000e+000
6184:0.0000000000000000e+000
6185:0.0000000000000000e+000
6186:0.0000000000000000e+000
6187:0.0000000000000000e+000
6188:0.0000000000000000e+000
6189:0.0000000000000000e+000
6190:0.0000000000000000e+000
6191:0.0000000000000000e+000
6192:0.0000000000000000e+000
6193:0.0000000000000000e+000
6194:0.0000000000000000e+000
6195:0.0000000000000000e+000
6196:0.0000000000000000e+000
6197:0.0000000000000000e+000
6198:0.0000000000000000e+000
6199:0.0000000000000000e+000
6200:0.0000000000000000e+000
6201:0.0000000000000000e+000
6202:0.0000000000000000e+000
6203:0.0000000000000000e+000
6204:0.0000000000000000e+000
6205:0.0000000000000000e+000
6206:0.0000000000000000e+000
6207:0.0000000000000000e+000
6208:0.0000000000000000e+000
6209:0.0000000000000000e+000
6210:0.0000000000000000e+000
6211:0.0000000000000000e+000
6212:0.0000000000000000e+000
6213:0.0000000000000000e+000
6214:0.0000000000000000e+000
6215:0.0000000000000000e+000
6216:0.0000000000000000e+000
6217:0.0000000000000000e+000
6218:0.0000000000000000e+000
6219:0.0000000000000000e+000
6220:0.0000000000000000e+000
6221:0.0000000000000000e+000
6222:0.0000000000000000e+000
6223:0.0000000000000000e+000
6224:0.0000000000000000e+000
6225:0.0000000000000000e+000
6226:0.0000000000000000e+000
6227:0.0000000000000000e+000
6228:0.0000000000000000e+000
6229:0.0000000000000000e+000
6230:0.0000000000000000e+000
6231:0.0000000000000000e+000
6232:0.0000000000000000e+000
6233:0.0000000000000000e+000
6234:0.0000000000000000e+000
6235:0.0000000000000000e+000
6236:0.0000000000000000e+000
6237:0.0000000000000000e+000
6238:0.0000000000000000e+000
6239:0.0000000000000000e+000
6240:0.0000000000000000e+000
6241:0.0000000000000000e+000
6242:0.0000000000000000e+000
6243:0.0000000000000000e+000
6244:0.0000000000000000e+000
6245:0.0000000000000000e+000
6246:0.0000000000000000e+000
6247:0.0000000000000000e+000
6248:0.0000000000000000e+000
6249:0.0000000000000000e+000
6250:0.0000000000000000e+000
6251:0.0000000000000000e+000
6252:0.0000000000000000e+000
6253:0.0000000000000000e+000
6254:0.0000000000000000e+000
6255:0.0000000000000000e+000
6256:0.0000000000000000e+000
6257:0.0000000000000000e+000
6258:0.0000000000000000e+000
6259:0.0000000000000000e+000
6260:0.0000000000000000e+000
6261:0.0000000000000000e+000
6262:0.0000000000000000e+000
6263:0.0000000000000000e+000
6264:0.0000000000000000e+000
6265:0.0000000000000000e+000
6266:0.0000000000000000e+000
6267:0.0000000000000000e+000
6268:0.0000000000000000e+000
6269:0.0000000000000000e+000
6270:0.0000000000000000e+000
6271:0.0000000000000000e+000
6272:0.0000000000000000e+000
6273:0.0000000000000000e+000
6274:0.0000000000000000e+000
6275:0.0000000000000000e+000
6276:0.0000000000000000e+000
6277:0.0000000000000000e+000
6278:0.0000000000000000e+000
6279:0.0000000000000000e+000
6280:0.0000000000000000e+000
6281:0.0000000000000000e+000
6282:0.0000000000000000e+000
6283:0.0000000000000000e+000
6284:0.0000000000000000e+000
6285:0.0000000000000000e+000
6286:0.0000000000000000e+000
6287:0.0000000000000000e+000
6288:0.0000000000000000e+000
6289:0.0000000000000000e+000
6290:0.0000000000000000e+000
6291:0.0000000000000000e+000
6292:0.0000000000000000e+000
6293:0.0000000000000000e+000
6294:0.0000000000000000e+000
6295:0.0000000000000000e+000
6296:0.0000000000000000e+000
6297:0.0000000000000000e+000
6298:0.0000000000000000e+000
6299:0.0000000000000000e+000
6300:0.0000000000000000e+000
6301:0.0000000000000000e+000
6302:0.0000000000000000e+000
6303:0.0000000000000000e+000
6304:0.0000000000000000e+000
6305:0.0000000000000000e+000
6306:0.0000000000000000e+000
6307:0.0000000000000000e+000
6308:0.0000000000000000e+000
6309:0.0000000000000000e+000
6310:0.0000000000000000e+000
6311:0.0000000000000000e+000
6312:0.0000000000000000e+000
6313:0.0000000000000000e+000
6314:0.0000000000000000e+000
6315:0.0000000000000000e+000
6316:0.0000000000000000e+000
6317:0.0000000000000000e+000
6318:0.0000000000000000e+000
6319:0.0000000000000000e+000
6320:0.0000000000000000e+000
6321:0.0000000000000000e+000
6322:0.0000000000000000e+000
6323:0.0000000000000000e+000
6324:0.0000000000000000e+000
6325:0.0000000000000000e+000
6326:0.0000000000000000e+000
6327:0.0000000000000000e+000
6328:0.0000000000000000e+000
6329:0.0000000000000000e+000
6330:0.0000000000000000e+000
6331:0.0000000000000000e+000
6332:0.0000000000000000e+000
6333:0.0000000000000000e+000
6334:0.0000000000000000e+000
6335:0.0000000000000000e+000
6336:0.0000000000000000e+000
6337:0.0000000000000000e+000
6338:0.0000000000000000e+000
6339:0.0000000000000000e+000
6340:0.0000000000000000e+000
6341:0.0000000000000000e+000
6342:0.0000000000000000e+000
6343:0.0000000000000000e+000
6344:0.0000000000000000e+000
6345:0.0000000000000000e+000
6346:0.0000000000000000e+000
6347:0.0000000000000000e+000
6348:0.0000000000000000e+000
6349:0.0000000000000000e+000
6350:0.0000000000000000e+000
6351:0.0000000000000000e+000
6352:0.0000000000000000e+000
6353:0.0000000000000000e+000
6354:0.0000000000000000e+000
6355:0.0000000000000000e+000
6356:0.0000000000000000e+000
6357:0.0000000000000000e+000
6358:0.0000000000000000e+000
6359:0.0000000000000000e+000
6360:0.0000000000000000e+000
6361:0.0000000000000000e+000
6362:0.0000000000000000e+000
6363:0.0000000000000000e+000
6364:0.0000000000000000e+000
6365:0.0000000000000000e+000
6366:0.0000000000000000e+000
6367:0.0000000000000000e+000
6368:0.0000000000000000e+000
6369:0.0000000000000000e+000
6370:0.0000000000000000e+000
6371:0.0000000000000000e+000
6372:0.0000000000000000e+000
6373:0.0000000000000000e+000
6374:0.0000000000000000e+000
6375:0.0000000000000000e+000
6376:0.0000000000000000e+000
6377:0.0000000000000000e+000
6378:0.0000000000000000e+000
6379:0.0000000000000000e+000
6380:0.0000000000000000e+000
6381:0.0000000000000000e+000
6382:0.0000000000000000e+000
6383:0.0000000000000000e+000
6384:0.0000000000000000e+000
6385:0.0000000000000000e+000
6386:0.0000000000000000e+000
6387:0.0000000000000000e+000
6388:0.0000000000000000e+000
6389:0.0000000000000000e+000
6390:0.0000000000000000e+000
6391:0.0000000000000000e+000
6392:0.0000000000000000e+000
6393:0.0000000000000000e+000
6394:0.0000000000000000e+000
6395:0.0000000000000000e+000
6396:0.0000000000000000e+000
6397:0.0000000000000000e+000
6398:0.0000000000000000e+000
6399:0.0000000000000000e+000
6400:0.0000000000000000e+000
6401:0.0000000000000000e+000
6402:0.0000000000000000e+000
6403:0.0000000000000000e+000
6404:0.0000000000000000e+000
6405:0.0000000000000000e+000
6406:0.0000000000000000e+000
6407:0.0000000000000000e+000
6408:0.0000000000000000e+000
6409:0.0000000000000000e+000
6410:0.0000000000000000e+000
6411:0.0000000000000000e+000
6412:0.0000000000000000e+000
6413:0.0000000000000000e+000
6414:0.0000000000000000e+000
6415:0.0000000000000000e+000
6416:0.0000000000000000e+000
6417:0.0000000000000000e+000
6418:0.0000000000000000e+000
6419:0.0000000000000000e+000
6420:0.0000000000000000e+000
6421:0.0000000000000000e+000
6422:0.0000000000000000e+000
6423:0.0000000000000000e+000
6424:0.0000000000000000e+000
6425:0.0000000000000000e+000
6426:0.0000000000000000e+000
6427:0.0000000000000000e+000
6428:0.0000000000000000e+000
6429:0.0000000000000000e+000
6430:0.0000000000000000e+000
6431:0.0000000000000000e+000
6432:0.0000000000000000e+000
6433:0.0000000000000000e+000
6434:0.0000000000000000e+000
6435:0.0000000000000000e+000
6436:0.0000000000000000e+000
6437:0.0000000000000000e+000
6438:0.0000000000000000e+000
6439:0.0000000000000000e+000
6440:0.0000000000000000e+000
6441:0.0000000000000000e+000
6442:0.0000000000000000e+000
6443:0.0000000000000000e+000
6444:0.0000000000000000e+000
6445:0.0000000000000000e+000
6446:0.0000000000000000e+000
6447:0.0000000000000000e+000
6448:0.0000000000000000e+000
6449:0.0000000000000000e+000
6450:0.0000000000000000e+000
6451:0.0000000000000000e+000
6452:0.0000000000000000e+000
6453:0.0000000000000000e+000
6454:0.0000000000000000e+000
6455:0.0000000000000000e+000
6456:0.0000000000000000e+000
6457:0.0000000000000000e+000
6458:0.0000000000000000e+000
6459:0.0000000000000000e+000
6460:0.0000000000000000e+000
6461:0.0000000000000000e+000
6462:0.0000000000000000e+000
6463:0.0000000000000000e+000
6464:0.0000000000000000e+000
6465:0.0000000000000000e+000
6466:0.0000000000000000e+000
6467:0.0000000000000000e+000
6468:0.0000000000000000e+000
6469:0.0000000000000000e+000
6470:0.0000000000000000e+000
6471:0.0000000000000000e+000
6472:0.0000000000000000e+000
6473:0.0000000000000000e+000
6474:0.0000000000000000e+000
6475:0.0000000000000000e+000
6476:0.0000000000000000e+000
6477:0.0000000000000000e+000
6478:0.0000000000000000e+000
6479:0.0000000000000000e+000
6480:0.0000000000000000e+000
6481:0.0000000000000000e+000
6482:0.0000000000000000e+000
6483:0.0000000000000000e+000
6484:0.0000000000000000e+000
6485:0.0000000000000000e+000
6486:0.0000000000000000e+000
6487:0.0000000000000000e+000
6488:0.0000000000000000e+000
6489:0.0000000000000000e+000
6490:0.0000000000000000e+000
6491:0.0000000000000000e+000
6492:0.0000000000000000e+000
6493:0.0000000000000000e+000
6494:0.0000000000000000e+000
6495:0.0000000000000000e+000
6496:0.0000000000000000e+000
6497:0.0000000000000000e+000
6498:0.0000000000000000e+000
6499:0.0000000000000000e+000
6500:0.0000000000000000e+000
6501:0.0000000000000000e+000
6502:0.0000000000000000e+000
6503:0.0000000000000000e+000
6504:0.0000000000000000e+000
6505:0.0000000000000000e+000
6506:0.0000000000000000e+000
6507:0.0000000000000000e+000
6508:0.0000000000000000e+000
6509:0.0000000000000000e+000
6510:0.0000000000000000e+000
6511:0.0000000000000000e+000
6512:0.0000000000000000e+000
6513:0.0000000000000000e+000
6514:0.0000000000000000e+000
6515:0.0000000000000000e+000
6516:0.0000000000000000e+000
6517:0.0000000000000000e+000
6518:0.0000000000000000e+000
6519:0.0000000000000000e+000
6520:0.0000000000000000e+000
6521:0.0000000000000000e+000
6522:0.0000000000000000e+000
6523:0.0000000000000000e+000
6524:0.0000000000000000e+000
6525:0.0000000000000000e+000
6526:0.0000000000000000e+000
6527:0.0000000000000000e+000
6528:0.0000000000000000e+000
6529:0.0000000000000000e+000
6530:0.0000000000000000e+000
6531:0.0000000000000000e+000
6532:0.0000000000000000e+000
6533:0.0000000000000000e+000
6534:0.0000000000000000e+000
6535:0.0000000000000000e+000
6536:0.0000000000000000e+000
6537:0.0000000000000000e+000
6538:0.0000000000000000e+000
6539:0.0000000000000000e+000
6540:0.0000000000000000e+000
6541:0.0000000000000000e+000
6542:0.0000000000000000e+000
6543:0.0000000000000000e+000
6544:0.0000000000000000e+000
6545:0.0000000000000000e+000
6546:0.0000000000000000e+000
6547:0.0000000000000000e+000
6548:0.0000000000000000e+000
6549:0.0000000000000000e+000
6550:0.0000000000000000e+000
6551:0.0000000000000000e+000
6552:0.0000000000000000e+000
6553:0.0000000000000000e+000
6554:0.0000000000000000e+000
6555:0.0000000000000000e+000
6556:0.0000000000000000e+000
6557:0.0000000000000000e+000
6558:0.0000000000000000e+000
6559:0.0000000000000000e+000
6560:0.0000000000000000e+000
6561:0.0000000000000000e+000
6562:0.0000000000000000e+000
6563:0.0000000000000000e+000
6564:0.0000000000000000e+000
6565:0.0000000000000000e+000
6566:0.0000000000000000e+000
6567:0.0000000000000000e+000
6568:0.0000000000000000e+000
6569:0.0000000000000000e+000
6570:0.0000000000000000e+000
6571:0.0000000000000000e+000
6572:0.0000000000000000e+000
6573:0.0000000000000000e+000
6574:0.0000000000000000e+000
6575:0.0000000000000000e+000
6576:0.0000000000000000e+000
6577:0.0000000000000000e+000
6578:0.0000000000000000e+000
6579:0.0000000000000000e+000
6580:0.0000000000000000e+000
6581:0.0000000000000000e+000
6582:0.0000000000000000e+000
6583:0.0000000000000000e+000
6584:0.0000000000000000e+000
6585:0.0000000000000000e+000
6586:0.0000000000000000e+000
6587:0.0000000000000000e+000
6588:0.0000000000000000e+000
6589:0.0000000000000000e+000
6590:0.0000000000000000e+000
6591:0.0000000000000000e+000
6592:0.0000000000000000e+000
6593:0.0000000000000000e+000
6594:0.0000000000000000e+000
6595:0.0000000000000000e+000
6596:0.0000000000000000e+000
6597:0.0000000000000000e+000
6598:0.0000000000000000e+000
6599:0.0000000000000000e+000
6600:0.0000000000000000e+000
6601:0.0000000000000000e+000
6602:0.0000000000000000e+000
6603:0.0000000000000000e+000
6604:0.0000000000000000e+000
6605:0.0000000000000000e+000
6606:0.0000000000000000e+000
6607:0.0000000000000000e+000
6608:0.0000000000000000e+000
6609:0.0000000000000000e+000
6610:0.0000000000000000e+000
6611:0.0000000000000000e+000
6612:0.0000000000000000e+000
6613:0.0000000000000000e+000
6614:0.0000000000000000e+000
6615:0.0000000000000000e+000
6616:0.0000000000000000e+000
6617:0.0000000000000000e+000
6618:0.0000000000000000e+000
6619:0.0000000000000000e+000
6620:0.0000000000000000e+000
6621:0.0000000000000000e+000
6622:0.0000000000000000e+000
6623:0.0000000000000000e+000
6624:0.0000000000000000e+000
6625:0.0000000000000000e+000
6626:0.0000000000000000e+000
6627:0.0000000000000000e+000
6628:0.0000000000000000e+000
6629:0.0000000000000000e+000
6630:0.0000000000000000e+000
6631:0.0000000000000000e+000
6632:0.0000000000000000e+000
6633:0.0000000000000000e+000
6634:0.0000000000000000e+000
6635:0.0000000000000000e+000
6636:0.0000000000000000e+000
6637:0.0000000000000000e+000
6638:0.0000000000000000e+000
6639:0.0000000000000000e+000
6640:0.0000000000000000e+000
6641:0.0000000000000000e+000
6642:0.0000000000000000e+000
6643:0.0000000000000000e+000
6644:0.0000000000000000e+000
6645:0.0000000000000000e+000
6646:0.0000000000000000e+000
6647:0.0000000000000000e+000
6648:0.0000000000000000e+000
6649:0.0000000000000000e+000
6650:0.0000000000000000e+000
6651:0.0000000000000000e+000
6652:0.0000000000000000e+000
6653:0.0000000000000000e+000
6654:0.0000000000000000e+000
6655:0.0000000000000000e+000
6656:0.0000000000000000e+000
6657:0.0000000000000000e+000
6658:0.0000000000000000e+000
6659:0.0000000000000000e+000
6660:0.0000000000000000e+000
6661:0.0000000000000000e+000
6662:0.0000000000000000e+000
6663:0.0000000000000000e+000
6664:0.0000000000000000e+000
6665:0.0000000000000000e+000
6666:0.0000000000000000e+000
6667:0.0000000000000000e+000
6668:0.0000000000000000e+000
6669:0.0000000000000000e+000
6670:0.0000000000000000e+000
6671:0.0000000000000000e+000
6672:0.0000000000000000e+000
6673:0.0000000000000000e+000
6674:0.0000000000000000e+000
6675:0.0000000000000000e+000
6676:0.0000000000000000e+000
6677:0.0000000000000000e+000
6678:0.0000000000000000e+000
6679:0.0000000000000000e+000
6680:0.0000000000000000e+000
6681:0.0000000000000000e+000
6682:0.0000000000000000e+000
6683:0.0000000000000000e+000
6684:0.0000000000000000e+000
6685:0.0000000000000000e+000
6686:0.0000000000000000e+000
6687:0.0000000000000000e+000
6688:0.0000000000000000e+000
6689:0.0000000000000000e+000
6690:0.0000000000000000e+000
6691:0.0000000000000000e+000
6692:0.0000000000000000e+000
6693:0.0000000000000000e+000
6694:0.0000000000000000e+000
6695:0.0000000000000000e+000
6696:0.0000000000000000e+000
6697:0.0000000000000000e+000
6698:0.0000000000000000e+000
6699:0.0000000000000000e+000
6700:0.0000000000000000e+000
6701:0.0000000000000000e+000
6702:0.0000000000000000e+000
6703:0.0000000000000000e+000
6704:0.0000000000000000e+000
6705:0.0000000000000000e+000
6706:0.0000000000000000e+000
6707:0.0000000000000000e+000
6708:0.0000000000000000e+000
6709:0.0000000000000000e+000
6710:0.0000000000000000e+000
6711:0.0000000000000000e+000
6712:0.0000000000000000e+000
6713:0.0000000000000000e+000
6714:0.0000000000000000e+000
6715:0.0000000000000000e+000
6716:0.0000000000000000e+000
6717:0.0000000000000000e+000
6718:0.0000000000000000e+000
6719:0.0000000000000000e+000
6720:0.0000000000000000e+000
6721:0.0000000000000000e+000
6722:0.0000000000000000e+000
6723:0.0000000000000000e+000
6724:0.0000000000000000e+000
6725:0.0000000000000000e+000
6726:0.0000000000000000e+000
6727:0.0000000000000000e+000
6728:0.0000000000000000e+000
6729:0.0000000000000000e+000
6730:0.0000000000000000e+000
6731:0.0000000000000000e+000
6732:0.0000000000000000e+000
6733:0.0000000000000000e+000
6734:0.0000000000000000e+000
6735:0.0000000000000000e+000
6736:0.0000000000000000e+000
6737:0.0000000000000000e+000
6738:0.0000000000000000e+000
6739:0.0000000000000000e+000
6740:0.0000000000000000e+000
6741:0.0000000000000000e+000
6742:0.0000000000000000e+000
6743:0.0000000000000000e+000
6744:0.0000000000000000e+000
6745:0.0000000000000000e+000
6746:0.0000000000000000e+000
6747:0.0000000000000000e+000
6748:0.0000000000000000e+000
6749:0.0000000000000000e+000
6750:0.0000000000000000e+000
6751:0.0000000000000000e+000
6752:0.0000000000000000e+000
6753:0.0000000000000000e+000
6754:0.0000000000000000e+000
6755:0.0000000000000000e+000
6756:0.0000000000000000e+000
6757:0.0000000000000000e+000
6758:0.0000000000000000e+000
6759:0.0000000000000000e+000
6760:0.0000000000000000e+000
6761:0.0000000000000000e+000
6762:0.0000000000000000e+000
6763:0.0000000000000000e+000
6764:0.0000000000000000e+000
6765:0.0000000000000000e+000
6766:0.0000000000000000e+000
6767:0.0000000000000000e+000
6768:0.0000000000000000e+000
6769:0.0000000000000000e+000
6770:0.0000000000000000e+000
6771:0.0000000000000000e+000
6772:0.0000000000000000e+000
6773:0.0000000000000000e+000
6774:0.0000000000000000e+000
6775:0.0000000000000000e+000
6776:0.0000000000000000e+000
6777:0.0000000000000000e+000
6778:0.0000000000000000e+000
6779:0.0000000000000000e+000
6780:0.0000000000000000e+000
6781:0.0000000000000000e+000
6782:0.0000000000000000e+000
6783:0.0000000000000000e+000
6784:0.0000000000000000e+000
6785:0.0000000000000000e+000
6786:0.0000000000000000e+000
6787:0.0000000000000000e+000
6788:0.0000000000000000e+000
6789:0.0000000000000000e+000
6790:0.0000000000000000e+000
6791:0.0000000000000000e+000
6792:0.0000000000000000e+000
6793:0.0000000000000000e+000
6794:0.0000000000000000e+000
6795:0.0000000000000000e+000
6796:0.0000000000000000e+000
6797:0.0000000000000000e+000
6798:0.0000000000000000e+000
6799:0.0000000000000000e+000
6800:0.0000000000000000e+000
6801:0.0000000000000000e+000
6802:0.0000000000000000e+000
6803:0.0000000000000000e+000
6804:0.0000000000000000e+000
6805:0.0000000000000000e+000
6806:0.0000000000000000e+000
6807:0.0000000000000000e+000
6808:0.0000000000000000e+000
6809:0.0000000000000000e+000
6810:0.0000000000000000e+000
6811:0.0000000000000000e+000
6812:0.0000000000000000e+000
6813:0.0000000000000000e+000
6814:0.0000000000000000e+000
6815:0.0000000000000000e+000
6816:0.0000000000000000e+000
6817:0.0000000000000000e+000
6818:0.0000000000000000e+000
6819:0.0000000000000000e+000
6820:0.0000000000000000e+000
6821:0.0000000000000000e+000
6822:0.0000000000000000e+000
6823:0.0000000000000000e+000
6824:0.0000000000000000e+000
6825:0.0000000000000000e+000
6826:0.0000000000000000e+000
6827:0.0000000000000000e+000
6828:0.0000000000000000e+000
6829:0.0000000000000000e+000
6830:0.0000000000000000e+000
6831:0.0000000000000000e+000
6832:0.0000000000000000e+000
6833:0.0000000000000000e+000
6834:0.0000000000000000e+000
6835:0.0000000000000000e+000
6836:0.0000000000000000e+000
6837:0.0000000000000000e+000
6838:0.0000000000000000e+000
6839:0.0000000000000000e+000
6840:0.0000000000000000e+000
6841:0.0000000000000000e+000
6842:0.0000000000000000e+000
6843:0.0000000000000000e+000
6844:0.0000000000000000e+000
6845:0.0000000000000000e+000
6846:0.0000000000000000e+000
6847:0.0000000000000000e+000
6848:0.0000000000000000e+000
6849:0.0000000000000000e+000
6850:0.0000000000000000e+000
6851:0.0000000000000000e+000
6852:0.0000000000000000e+000
6853:0.0000000000000000e+000
6854:0.0000000000000000e+000
6855:0.0000000000000000e+000
6856:0.0000000000000000e+000
6857:0.0000000000000000e+000
6858:0.0000000000000000e+000
6859:0.0000000000000000e+000
6860:0.0000000000000000e+000
6861:0.0000000000000000e+000
6862:0.0000000000000000e+000
6863:0.0000000000000000e+000
6864:0.0000000000000000e+000
6865:0.0000000000000000e+000
6866:0.0000000000000000e+000
6867:0.0000000000000000e+000
6868:0.0000000000000000e+000
6869:0.0000000000000000e+000
6870:0.0000000000000000e+000
6871:0.0000000000000000e+000
6872:0.0000000000000000e+000
6873:0.0000000000000000e+000
6874:0.0000000000000000e+000
6875:0.0000000000000000e+000
6876:0.0000000000000000e+000
6877:0.0000000000000000e+000
6878:0.0000000000000000e+000
6879:0.0000000000000000e+000
6880:0.0000000000000000e+000
6881:0.0000000000000000e+000
6882:0.0000000000000000e+000
6883:0.0000000000000000e+000
6884:0.0000000000000000e+000
6885:0.0000000000000000e+000
6886:0.0000000000000000e+000
6887:0.0000000000000000e+000
6888:0.0000000000000000e+000
6889:0.0000000000000000e+000
6890:0.0000000000000000e+000
6891:0.0000000000000000e+000
6892:0.0000000000000000e+000
6893:0.0000000000000000e+000
6894:0.0000000000000000e+000
6895:0.0000000000000000e+000
6896:0.0000000000000000e+000
6897:0.0000000000000000e+000
6898:0.0000000000000000e+000
6899:0.0000000000000000e+000
6900:0.0000000000000000e+000
6901:0.0000000000000000e+000
6902:0.0000000000000000e+000
6903:0.0000000000000000e+000
6904:0.0000000000000000e+000
6905:0.0000000000000000e+000
6906:0.0000000000000000e+000
6907:0.0000000000000000e+000
6908:0.0000000000000000e+000
6909:0.0000000000000000e+000
6910:0.0000000000000000e+000
6911:0.0000000000000000e+000
6912:0.0000000000000000e+000
6913:0.0000000000000000e+000
6914:0.0000000000000000e+000
6915:0.0000000000000000e+000
6916:0.0000000000000000e+000
6917:0.0000000000000000e+000
6918:0.0000000000000000e+000
6919:0.0000000000000000e+000
6920:0.0000000000000000e+000
6921:0.0000000000000000e+000
6922:0.0000000000000000e+000
6923:0.0000000000000000e+000
6924:0.0000000000000000e+000
6925:0.0000000000000000e+000
6926:0.0000000000000000e+000
6927:0.0000000000000000e+000
6928:0.0000000000000000e+000
6929:0.0000000000000000e+000
6930:0.0000000000000000e+000
6931:0.0000000000000000e+000
6932:0.0000000000000000e+000
6933:0.0000000000000000e+000
6934:0.0000000000000000e+000
6935:0.0000000000000000e+000
6936:0.0000000000000000e+000
6937:0.0000000000000000e+000
6938:0.0000000000000000e+000
6939:0.0000000000000000e+000
6940:0.0000000000000000e+000
6941:0.0000000000000000e+000
6942:0.0000000000000000e+000
6943:0.0000000000000000e+000
6944:0.0000000000000000e+000
6945:0.0000000000000000e+000
6946:0.0000000000000000e+000
6947:0.0000000000000000e+000
6948:0.0000000000000000e+000
6949:0.0000000000000000e+000
6950:0.0000000000000000e+000
6951:0.0000000000000000e+000
6952:0.0000000000000000e+000
6953:0.0000000000000000e+000
6954:0.0000000000000000e+000
6955:0.0000000000000000e+000
6956:0.0000000000000000e+000
6957:0.0000000000000000e+000
6958:0.0000000000000000e+000
6959:0.0000000000000000e+000
6960:0.0000000000000000e+000
6961:0.0000000000000000e+000
6962:0.0000000000000000e+000
6963:0.0000000000000000e+000
6964:0.0000000000000000e+000
6965:0.0000000000000000e+000
6966:0.0000000000000000e+000
6967:0.0000000000000000e+000
6968:0.0000000000000000e+000
6969:0.0000000000000000e+000
6970:0.0000000000000000e+000
6971:0.0000000000000000e+000
6972:0.0000000000000000e+000
6973:0.0000000000000000e+000
6974:0.0000000000000000e+000
6975:0.0000000000000000e+000
6976:0.0000000000000000e+000
6977:0.0000000000000000e+000
6978:0.0000000000000000e+000
6979:0.0000000000000000e+000
6980:0.0000000000000000e+000
6981:0.0000000000000000e+000
6982:0.0000000000000000e+000
6983:0.0000000000000000e+000
6984:0.0000000000000000e+000
6985:0.0000000000000000e+000
6986:0.0000000000000000e+000
6987:0.0000000000000000e+000
6988:0.0000000000000000e+000
6989:0.0000000000000000e+000
6990:0.0000000000000000e+000
6991:0.0000000000000000e+000
6992:0.0000000000000000e+000
6993:0.0000000000000000e+000
6994:0.0000000000000000e+000
6995:0.0000000000000000e+000
6996:0.0000000000000000e+000
6997:0.0000000000000000e+000
6998:0.0000000000000000e+000
6999:0.0000000000000000e+000
7000:0.0000000000000000e+000
7001:0.0000000000000000e+000
7002:0.0000000000000000e+000
7003:0.0000000000000000e+000
7004:0.0000000000000000e+000
7005:0.0000000000000000e+000
7006:0.0000000000000000e+000
7007:0.0000000000000000e+000
7008:0.0000000000000000e+000
7009:0.0000000000000000e+000
7010:0.0000000000000000e+000
7011:0.0000000000000000e+000
7012:0.0000000000000000e+000
7013:0.0000000000000000e+000
7014:0.0000000000000000e+000
7015:0.0000000000000000e+000
7016:0.0000000000000000e+000
7017:0.0000000000000000e+000
7018:0.0000000000000000e+000
7019:0.0000000000000000e+000
7020:0.0000000000000000e+000
7021:0.0000000000000000e+000
7022:0.0000000000000000e+000
7023:0.0000000000000000e+000
7024:0.0000000000000000e+000
7025:0.0000000000000000e+000
7026:0.0000000000000000e+000
7027:0.0000000000000000e+000
7028:0.0000000000000000e+000
7029:0.0000000000000000e+000
7030:0.0000000000000000e+000
7031:0.0000000000000000e+000
7032:0.0000000000000000e+000
7033:0.0000000000000000e+000
7034:0.0000000000000000e+000
7035:0.0000000000000000e+000
7036:0.0000000000000000e+000
7037:0.0000000000000000e+000
7038:0.0000000000000000e+000
7039:0.0000000000000000e+000
7040:0.0000000000000000e+000
7041:0.0000000000000000e+000
7042:0.0000000000000000e+000
7043:0.0000000000000000e+000
7044:0.0000000000000000e+000
7045:0.0000000000000000e+000
7046:0.0000000000000000e+000
7047:0.0000000000000000e+000
7048:0.0000000000000000e+000
7049:0.0000000000000000e+000
7050:0.0000000000000000e+000
7051:0.0000000000000000e+000
7052:0.0000000000000000e+000
7053:0.0000000000000000e+000
7054:0.0000000000000000e+000
7055:0.0000000000000000e+000
7056:0.0000000000000000e+000
7057:0.0000000000000000e+000
7058:0.0000000000000000e+000
7059:0.0000000000000000e+000
7060:0.0000000000000000e+000
7061:0.0000000000000000e+000
7062:0.0000000000000000e+000
7063:0.0000000000000000e+000
7064:0.0000000000000000e+000
7065:0.0000000000000000e+000
7066:0.0000000000000000e+000
7067:0.0000000000000000e+000
7068:0.0000000000000000e+000
7069:0.0000000000000000e+000
7070:0.0000000000000000e+000
7071:0.0000000000000000e+000
7072:0.0000000000000000e+000
7073:0.0000000000000000e+000
7074:0.0000000000000000e+000
7075:0.0000000000000000e+000
7076:0.0000000000000000e+000
7077:0.0000000000000000e+000
7078:0.0000000000000000e+000
7079:0.0000000000000000e+000
7080:0.0000000000000000e+000
7081:0.0000000000000000e+000
7082:0.0000000000000000e+000
7083:0.0000000000000000e+000
7084:0.0000000000000000e+000
7085:0.0000000000000000e+000
7086:0.0000000000000000e+000
7087:0.0000000000000000e+000
7088:0.0000000000000000e+000
7089:0.0000000000000000e+000
7090:0.0000000000000000e+000
7091:0.0000000000000000e+000
7092:0.0000000000000000e+000
7093:0.0000000000000000e+000
7094:0.0000000000000000e+000
7095:0.0000000000000000e+000
7096:0.0000000000000000e+000
7097:0.0000000000000000e+000
7098:0.0000000000000000e+000
7099:0.0000000000000000e+000
7100:0.0000000000000000e+000
7101:0.0000000000000000e+000
7102:0.0000000000000000e+000
7103:0.0000000000000000e+000
7104:0.0000000000000000e+000
7105:0.0000000000000000e+000
7106:0.0000000000000000e+000
7107:0.0000000000000000e+000
7108:0.0000000000000000e+000
7109:0.0000000000000000e+000
7110:0.0000000000000000e+000
7111:0.0000000000000000e+000
7112:0.0000000000000000e+000
7113:0.0000000000000000e+000
7114:0.0000000000000000e+000
7115:0.0000000000000000e+000
7116:0.0000000000000000e+000
7117:0.0000000000000000e+000
7118:0.0000000000000000e+000
7119:0.0000000000000000e+000
7120:0.0000000000000000e+000
7121:0.0000000000000000e+000
7122:0.0000000000000000e+000
7123:0.0000000000000000e+000
7124:0.0000000000000000e+000
7125:0.0000000000000000e+000
7126:0.0000000000000000e+000
7127:0.0000000000000000e+000
7128:0.0000000000000000e+000
7129:0.0000000000000000e+000
7130:0.0000000000000000e+000
7131:0.0000000000000000e+000
7132:0.0000000000000000e+000
7133:0.0000000000000000e+000
7134:0.0000000000000000e+000
7135:0.0000000000000000e+000
7136:0.0000000000000000e+000
7137:0.0000000000000000e+000
7138:0.0000000000000000e+000
7139:0.0000000000000000e+000
7140:0.0000000000000000e+000
7141:0.0000000000000000e+000
7142:0.0000000000000000e+000
7143:0.0000000000000000e+000
7144:0.0000000000000000e+000
7145:0.0000000000000000e+000
7146:0.0000000000000000e+000
7147:0.0000000000000000e+000
7148:0.0000000000000000e+000
7149:0.0000000000000000e+000
7150:0.0000000000000000e+000
7151:0.0000000000000000e+000
7152:0.0000000000000000e+000
7153:0.0000000000000000e+000
7154:0.0000000000000000e+000
7155:0.0000000000000000e+000
7156:0.0000000000000000e+000
7157:0.0000000000000000e+000
7158:0.0000000000000000e+000
7159:0.0000000000000000e+000
7160:0.0000000000000000e+000
7161:0.0000000000000000e+000
7162:0.0000000000000000e+000
7163:0.0000000000000000e+000
7164:0.0000000000000000e+000
7165:0.0000000000000000e+000
7166:0.0000000000000000e+000
7167:0.0000000000000000e+000
7168:0.0000000000000000e+000
7169:0.0000000000000000e+000
7170:0.0000000000000000e+000
7171:0.0000000000000000e+000
7172:0.0000000000000000e+000
7173:0.0000000000000000e+000
7174:0.0000000000000000e+000
7175:0.0000000000000000e+000
7176:0.0000000000000000e+000
7177:0.0000000000000000e+000
7178:0.0000000000000000e+000
7179:0.0000000000000000e+000
7180:0.0000000000000000e+000
7181:0.0000000000000000e+000
7182:0.0000000000000000e+000
7183:0.0000000000000000e+000
7184:0.0000000000000000e+000
7185:0.0000000000000000e+000
7186:0.0000000000000000e+000
7187:0.0000000000000000e+000
7188:0.0000000000000000e+000
7189:0.0000000000000000e+000
7190:0.0000000000000000e+000
7191:0.0000000000000000e+000
7192:0.0000000000000000e+000
7193:0.0000000000000000e+000
7194:0.0000000000000000e+000
7195:0.0000000000000000e+000
7196:0.0000000000000000e+000
7197:0.0000000000000000e+000
7198:0.0000000000000000e+000
7199:0.0000000000000000e+000
7200:0.0000000000000000e+000
7201:0.0000000000000000e+000
7202:0.0000000000000000e+000
7203:0.0000000000000000e+000
7204:0.0000000000000000e+000
7205:0.0000000000000000e+000
7206:0.0000000000000000e+000
7207:0.0000000000000000e+000
7208:0.0000000000000000e+000
7209:0.0000000000000000e+000
7210:0.0000000000000000e+000
7211:0.0000000000000000e+000
7212:0.0000000000000000e+000
7213:0.0000000000000000e+000
7214:0.0000000000000000e+000
7215:0.0000000000000000e+000
7216:0.0000000000000000e+000
7217:0.0000000000000000e+000
7218:0.0000000000000000e+000
7219:0.0000000000000000e+000
7220:0.0000000000000000e+000
7221:0.0000000000000000e+000
7222:0.0000000000000000e+000
7223:0.0000000000000000e+000
7224:0.0000000000000000e+000
7225:0.0000000000000000e+000
7226:0.0000000000000000e+000
7227:0.0000000000000000e+000
7228:0.0000000000000000e+000
7229:0.0000000000000000e+000
7230:0.0000000000000000e+000
7231:0.0000000000000000e+000
7232:0.0000000000000000e+000
7233:0.0000000000000000e+000
7234:0.0000000000000000e+000
7235:0.0000000000000000e+000
7236:0.0000000000000000e+000
7237:0.0000000000000000e+000
7238:0.0000000000000000e+000
7239:0.0000000000000000e+000
7240:0.0000000000000000e+000
7241:0.0000000000000000e+000
7242:0.0000000000000000e+000
7243:0.0000000000000000e+000
7244:0.0000000000000000e+000
7245:0.0000000000000000e+000
7246:0.0000000000000000e+000
7247:0.0000000000000000e+000
7248:0.0000000000000000e+000
7249:0.0000000000000000e+000
7250:0.0000000000000000e+000
7251:0.0000000000000000e+000
7252:0.0000000000000000e+000
7253:0.0000000000000000e+000
7254:0.0000000000000000e+000
7255:0.0000000000000000e+000
7256:0.0000000000000000e+000
7257:0.0000000000000000e+000
7258:0.0000000000000000e+000
7259:0.0000000000000000e+000
7260:0.0000000000000000e+000
7261:0.0000000000000000e+000
7262:0.0000000000000000e+000
7263:0.0000000000000000e+000
7264:0.0000000000000000e+000
7265:0.0000000000000000e+000
7266:0.0000000000000000e+000
7267:0.0000000000000000e+000
7268:0.0000000000000000e+000
7269:0.0000000000000000e+000
7270:0.0000000000000000e+000
7271:0.0000000000000000e+000
7272:0.0000000000000000e+000
7273:0.0000000000000000e+000
7274:0.0000000000000000e+000
7275:0.0000000000000000e+000
7276:0.0000000000000000e+000
7277:0.0000000000000000e+000
7278:0.0000000000000000e+000
7279:0.0000000000000000e+000
7280:0.0000000000000000e+000
7281:0.0000000000000000e+000
7282:0.0000000000000000e+000
7283:0.0000000000000000e+000
7284:0.0000000000000000e+000
7285:0.0000000000000000e+000
7286:0.0000000000000000e+000
7287:0.0000000000000000e+000
7288:0.0000000000000000e+000
7289:0.0000000000000000e+000
7290:0.0000000000000000e+000
7291:0.0000000000000000e+000
7292:0.0000000000000000e+000
7293:0.0000000000000000e+000
7294:0.0000000000000000e+000
7295:0.0000000000000000e+000
7296:0.0000000000000000e+000
7297:0.0000000000000000e+000
7298:0.0000000000000000e+000
7299:0.0000000000000000e+000
7300:0.0000000000000000e+000
7301:0.0000000000000000e+000
7302:0.0000000000000000e+000
7303:0.0000000000000000e+000
7304:0.0000000000000000e+000
7305:0.0000000000000000e+000
7306:0.0000000000000000e+000
7307:0.0000000000000000e+000
7308:0.0000000000000000e+000
7309:0.0000000000000000e+000
7310:0.0000000000000000e+000
7311:0.0000000000000000e+000
7312:0.0000000000000000e+000
7313:0.0000000000000000e+000
7314:0.0000000000000000e+000
7315:0.0000000000000000e+000
7316:0.0000000000000000e+000
7317:0.0000000000000000e+000
7318:0.0000000000000000e+000
7319:0.0000000000000000e+000
7320:0.0000000000000000e+000
7321:0.0000000000000000e+000
7322:0.0000000000000000e+000
7323:0.0000000000000000e+000
7324:0.0000000000000000e+000
7325:0.0000000000000000e+000
7326:0.0000000000000000e+000
7327:0.0000000000000000e+000
7328:0.0000000000000000e+000
7329:0.0000000000000000e+000
7330:0.0000000000000000e+000
7331:0.0000000000000000e+000
7332:0.0000000000000000e+000
7333:0.0000000000000000e+000
7334:0.0000000000000000e+000
7335:0.0000000000000000e+000
7336:0.0000000000000000e+000
7337:0.0000000000000000e+000
7338:0.0000000000000000e+000
7339:0.0000000000000000e+000
7340:0.0000000000000000e+000
7341:0.0000000000000000e+000
7342:0.0000000000000000e+000
7343:0.0000000000000000e+000
7344:0.0000000000000000e+000
7345:0.0000000000000000e+000
7346:0.0000000000000000e+000
7347:0.0000000000000000e+000
7348:0.0000000000000000e+000
7349:0.0000000000000000e+000
7350:0.0000000000000000e+000
7351:0.0000000000000000e+000
7352:0.0000000000000000e+000
7353:0.0000000000000000e+000
7354:0.0000000000000000e+000
7355:0.0000000000000000e+000
7356:0.0000000000000000e+000
7357:0.0000000000000000e+000
7358:0.0000000000000000e+000
7359:0.0000000000000000e+000
7360:0.0000000000000000e+000
7361:0.0000000000000000e+000
7362:0.0000000000000000e+000
7363:0.0000000000000000e+000
7364:0.0000000000000000e+000
7365:0.0000000000000000e+000
7366:0.0000000000000000e+000
7367:0.0000000000000000e+000
7368:0.0000000000000000e+000
7369:0.0000000000000000e+000
7370:0.0000000000000000e+000
7371:0.0000000000000000e+000
7372:0.0000000000000000e+000
7373:0.0000000000000000e+000
7374:0.0000000000000000e+000
7375:0.0000000000000000e+000
7376:0.0000000000000000e+000
7377:0.0000000000000000e+000
7378:0.0000000000000000e+000
7379:0.0000000000000000e+000
7380:0.0000000000000000e+000
7381:0.0000000000000000e+000
7382:0.0000000000000000e+000
7383:0.0000000000000000e+000
7384:0.0000000000000000e+000
7385:0.0000000000000000e+000
7386:0.0000000000000000e+000
7387:0.0000000000000000e+000
7388:0.0000000000000000e+000
7389:0.0000000000000000e+000
7390:0.0000000000000000e+000
7391:0.0000000000000000e+000
7392:0.0000000000000000e+000
7393:0.0000000000000000e+000
7394:0.0000000000000000e+000
7395:0.0000000000000000e+000
7396:0.0000000000000000e+000
7397:0.0000000000000000e+000
7398:0.0000000000000000e+000
7399:0.0000000000000000e+000
7400:0.0000000000000000e+000
7401:0.0000000000000000e+000
7402:0.0000000000000000e+000
7403:0.0000000000000000e+000
7404:0.0000000000000000e+000
7405:0.0000000000000000e+000
7406:0.0000000000000000e+000
7407:0.0000000000000000e+000
7408:0.0000000000000000e+000
7409:0.0000000000000000e+000
7410:0.0000000000000000e+000
7411:0.0000000000000000e+000
7412:0.0000000000000000e+000
7413:0.0000000000000000e+000
7414:0.0000000000000000e+000
7415:0.0000000000000000e+000
7416:0.0000000000000000e+000
7417:0.0000000000000000e+000
7418:0.0000000000000000e+000
7419:0.0000000000000000e+000
7420:0.0000000000000000e+000
7421:0.0000000000000000e+000
7422:0.0000000000000000e+000
7423:0.0000000000000000e+000
7424:0.0000000000000000e+000
7425:0.0000000000000000e+000
7426:0.0000000000000000e+000
7427:0.0000000000000000e+000
7428:0.0000000000000000e+000
7429:0.0000000000000000e+000
7430:0.0000000000000000e+000
7431:0.0000000000000000e+000
7432:0.0000000000000000e+000
7433:0.0000000000000000e+000
7434:0.0000000000000000e+000
7435:0.0000000000000000e+000
7436:0.0000000000000000e+000
7437:0.0000000000000000e+000
7438:0.0000000000000000e+000
7439:0.0000000000000000e+000
7440:0.0000000000000000e+000
7441:0.0000000000000000e+000
7442:0.0000000000000000e+000
7443:0.0000000000000000e+000
7444:0.0000000000000000e+000
7445:0.0000000000000000e+000
7446:0.0000000000000000e+000
7447:0.0000000000000000e+000
7448:0.0000000000000000e+000
7449:0.0000000000000000e+000
7450:0.0000000000000000e+000
7451:0.0000000000000000e+000
7452:0.0000000000000000e+000
7453:0.0000000000000000e+000
7454:0.0000000000000000e+000
7455:0.0000000000000000e+000
7456:0.0000000000000000e+000
7457:0.0000000000000000e+000
7458:0.0000000000000000e+000
7459:0.0000000000000000e+000
7460:0.0000000000000000e+000
7461:0.0000000000000000e+000
7462:0.0000000000000000e+000
7463:0.0000000000000000e+000
7464:0.0000000000000000e+000
7465:0.0000000000000000e+000
7466:0.0000000000000000e+000
7467:0.0000000000000000e+000
7468:0.0000000000000000e+000
7469:0.0000000000000000e+000
7470:0.0000000000000000e+000
7471:0.0000000000000000e+000
7472:0.0000000000000000e+000
7473:0.0000000000000000e+000
7474:0.0000000000000000e+000
7475:0.0000000000000000e+000
7476:0.0000000000000000e+000
7477:0.0000000000000000e+000
7478:0.0000000000000000e+000
7479:0.0000000000000000e+000
7480:0.0000000000000000e+000
7481:0.0000000000000000e+000
7482:0.0000000000000000e+000
7483:0.0000000000000000e+000
7484:0.0000000000000000e+000
7485:0.0000000000000000e+000
7486:0.0000000000000000e+000
7487:0.0000000000000000e+000
7488:0.0000000000000000e+000
7489:0.0000000000000000e+000
7490:0.0000000000000000e+000
7491:0.0000000000000000e+000
7492:0.0000000000000000e+000
7493:0.0000000000000000e+000
7494:0.0000000000000000e+000
7495:0.0000000000000000e+000
7496:0.0000000000000000e+000
7497:0.0000000000000000e+000
7498:0.0000000000000000e+000
7499:0.0000000000000000e+000
7500:0.0000000000000000e+000
7501:0.0000000000000000e+000
7502:0.0000000000000000e+000
7503:0.0000000000000000e+000
7504:0.0000000000000000e+000
7505:0.0000000000000000e+000
7506:0.0000000000000000e+000
7507:0.0000000000000000e+000
7508:0.0000000000000000e+000
7509:0.0000000000000000e+000
7510:0.0000000000000000e+000
7511:0.0000000000000000e+000
7512:0.0000000000000000e+000
7513:0.0000000000000000e+000
7514:0.0000000000000000e+000
7515:0.0000000000000000e+000
7516:0.0000000000000000e+000
7517:0.0000000000000000e+000
7518:0.0000000000000000e+000
7519:0.0000000000000000e+000
7520:0.0000000000000000e+000
7521:0.0000000000000000e+000
7522:0.0000000000000000e+000
7523:0.0000000000000000e+000
7524:0.0000000000000000e+000
7525:0.0000000000000000e+000
7526:0.0000000000000000e+000
7527:0.0000000000000000e+000
7528:0.0000000000000000e+000
7529:0.0000000000000000e+000
7530:0.0000000000000000e+000
7531:0.0000000000000000e+000
7532:0.0000000000000000e+000
7533:0.0000000000000000e+000
7534:0.0000000000000000e+000
7535:0.0000000000000000e+000
7536:0.0000000000000000e+000
7537:0.0000000000000000e+000
7538:0.0000000000000000e+000
7539:0.0000000000000000e+000
7540:0.0000000000000000e+000
7541:0.0000000000000000e+000
7542:0.0000000000000000e+000
7543:0.0000000000000000e+000
7544:0.0000000000000000e+000
7545:0.0000000000000000e+000
7546:0.0000000000000000e+000
7547:0.0000000000000000e+000
7548:0.0000000000000000e+000
7549:0.0000000000000000e+000
7550:0.0000000000000000e+000
7551:0.0000000000000000e+000
7552:0.0000000000000000e+000
7553:0.0000000000000000e+000
7554:0.0000000000000000e+000
7555:0.0000000000000000e+000
7556:0.0000000000000000e+000
7557:0.0000000000000000e+000
7558:0.0000000000000000e+000
7559:0.0000000000000000e+000
7560:0.0000000000000000e+000
7561:0.0000000000000000e+000
7562:0.0000000000000000e+000
7563:0.0000000000000000e+000
7564:0.0000000000000000e+000
7565:0.0000000000000000e+000
7566:0.0000000000000000e+000
7567:0.0000000000000000e+000
7568:0.0000000000000000e+000
7569:0.0000000000000000e+000
7570:0.0000000000000000e+000
7571:0.0000000000000000e+000
7572:0.0000000000000000e+000
7573:0.0000000000000000e+000
7574:0.0000000000000000e+000
7575:0.0000000000000000e+000
7576:0.0000000000000000e+000
7577:0.0000000000000000e+000
7578:0.0000000000000000e+000
7579:0.0000000000000000e+000
7580:0.0000000000000000e+000
7581:0.0000000000000000e+000
7582:0.0000000000000000e+000
7583:0.0000000000000000e+000
7584:0.0000000000000000e+000
7585:0.0000000000000000e+000
7586:0.0000000000000000e+000
7587:0.0000000000000000e+000
7588:0.0000000000000000e+000
7589:0.0000000000000000e+000
7590:0.0000000000000000e+000
7591:0.0000000000000000e+000
7592:0.0000000000000000e+000
7593:0.0000000000000000e+000
7594:0.0000000000000000e+000
7595:0.0000000000000000e+000
7596:0.0000000000000000e+000
7597:0.0000000000000000e+000
7598:0.0000000000000000e+000
7599:0.0000000000000000e+000
7600:0.0000000000000000e+000
7601:0.0000000000000000e+000
7602:0.0000000000000000e+000
7603:0.0000000000000000e+000
7604:0.0000000000000000e+000
7605:0.0000000000000000e+000
7606:0.0000000000000000e+000
7607:0.0000000000000000e+000
7608:0.0000000000000000e+000
7609:0.0000000000000000e+000
7610:0.0000000000000000e+000
7611:0.0000000000000000e+000
7612:0.0000000000000000e+000
7613:0.0000000000000000e+000
7614:0.0000000000000000e+000
7615:0.0000000000000000e+000
7616:0.0000000000000000e+000
7617:0.0000000000000000e+000
7618:0.0000000000000000e+000
7619:0.0000000000000000e+000
7620:0.0000000000000000e+000
7621:0.0000000000000000e+000
7622:0.0000000000000000e+000
7623:0.0000000000000000e+000
7624:0.0000000000000000e+000
7625:0.0000000000000000e+000
7626:0.0000000000000000e+000
7627:0.0000000000000000e+000
7628:0.0000000000000000e+000
7629:0.0000000000000000e+000
7630:0.0000000000000000e+000
7631:0.0000000000000000e+000
7632:0.0000000000000000e+000
7633:0.0000000000000000e+000
7634:0.0000000000000000e+000
7635:0.0000000000000000e+000
7636:0.0000000000000000e+000
7637:0.0000000000000000e+000
7638:0.0000000000000000e+000
7639:0.0000000000000000e+000
7640:0.0000000000000000e+000
7641:0.0000000000000000e+000
7642:0.0000000000000000e+000
7643:0.0000000000000000e+000
7644:0.0000000000000000e+000
7645:0.0000000000000000e+000
7646:0.0000000000000000e+000
7647:0.0000000000000000e+000
7648:0.0000000000000000e+000
7649:0.0000000000000000e+000
7650:0.0000000000000000e+000
7651:0.0000000000000000e+000
7652:0.0000000000000000e+000
7653:0.0000000000000000e+000
7654:0.0000000000000000e+000
7655:0.0000000000000000e+000
7656:0.0000000000000000e+000
7657:0.0000000000000000e+000
7658:0.0000000000000000e+000
7659:0.0000000000000000e+000
7660:0.0000000000000000e+000
7661:0.0000000000000000e+000
7662:0.0000000000000000e+000
7663:0.0000000000000000e+000
7664:0.0000000000000000e+000
7665:0.0000000000000000e+000
7666:0.0000000000000000e+000
7667:0.0000000000000000e+000
7668:0.0000000000000000e+000
7669:0.0000000000000000e+000
7670:0.0000000000000000e+000
7671:0.0000000000000000e+000
7672:0.0000000000000000e+000
7673:0.0000000000000000e+000
7674:0.0000000000000000e+000
7675:0.0000000000000000e+000
7676:0.0000000000000000e+000
7677:0.0000000000000000e+000
7678:0.0000000000000000e+000
7679:0.0000000000000000e+000
7680:0.0000000000000000e+000
7681:0.0000000000000000e+000
7682:0.0000000000000000e+000
7683:0.0000000000000000e+000
7684:0.0000000000000000e+000
7685:0.0000000000000000e+000
7686:0.0000000000000000e+000
7687:0.0000000000000000e+000
7688:0.0000000000000000e+000
7689:0.0000000000000000e+000
7690:0.0000000000000000e+000
7691:0.0000000000000000e+000
7692:0.0000000000000000e+000
7693:0.0000000000000000e+000
7694:0.0000000000000000e+000
7695:0.0000000000000000e+000
7696:0.0000000000000000e+000
7697:0.0000000000000000e+000
7698:0.0000000000000000e+000
7699:0.0000000000000000e+000
7700:0.0000000000000000e+000
7701:0.0000000000000000e+000
7702:0.0000000000000000e+000
7703:0.0000000000000000e+000
7704:0.0000000000000000e+000
7705:0.0000000000000000e+000
7706:0.0000000000000000e+000
7707:0.0000000000000000e+000
7708:0.0000000000000000e+000
7709:0.0000000000000000e+000
7710:0.0000000000000000e+000
7711:0.0000000000000000e+000
7712:0.0000000000000000e+000
7713:0.0000000000000000e+000
7714:0.0000000000000000e+000
7715:0.0000000000000000e+000
7716:0.0000000000000000e+000
7717:0.0000000000000000e+000
7718:0.0000000000000000e+000
7719:0.0000000000000000e+000
7720:0.0000000000000000e+000
7721:0.0000000000000000e+000
7722:0.0000000000000000e+000
7723:0.0000000000000000e+000
7724:0.0000000000000000e+000
7725:0.0000000000000000e+000
7726:0.0000000000000000e+000
7727:0.0000000000000000e+000
7728:0.0000000000000000e+000
7729:0.0000000000000000e+000
7730:0.0000000000000000e+000
7731:0.0000000000000000e+000
7732:0.0000000000000000e+000
7733:0.0000000000000000e+000
7734:0.0000000000000000e+000
7735:0.0000000000000000e+000
7736:0.0000000000000000e+000
7737:0.0000000000000000e+000
7738:0.0000000000000000e+000
7739:0.0000000000000000e+000
7740:0.0000000000000000e+000
7741:0.0000000000000000e+000
7742:0.0000000000000000e+000
7743:0.0000000000000000e+000
7744:0.0000000000000000e+000
7745:0.0000000000000000e+000
7746:0.0000000000000000e+000
7747:0.0000000000000000e+000
7748:0.0000000000000000e+000
7749:0.0000000000000000e+000
7750:0.0000000000000000e+000
7751:0.0000000000000000e+000
7752:0.0000000000000000e+000
7753:0.0000000000000000e+000
7754:0.0000000000000000e+000
7755:0.0000000000000000e+000
7756:0.0000000000000000e+000
7757:0.0000000000000000e+000
7758:0.0000000000000000e+000
7759:0.0000000000000000e+000
7760:0.0000000000000000e+000
7761:0.0000000000000000e+000
7762:0.0000000000000000e+000
7763:0.0000000000000000e+000
7764:0.0000000000000000e+000
7765:0.0000000000000000e+000
7766:0.0000000000000000e+000
7767:0.0000000000000000e+000
7768:0.0000000000000000e+000
7769:0.0000000000000000e+000
7770:0.0000000000000000e+000
7771:0.0000000000000000e+000
7772:0.0000000000000000e+000
7773:0.0000000000000000e+000
7774:0.0000000000000000e+000
7775:0.0000000000000000e+000
7776:0.0000000000000000e+000
7777:0.0000000000000000e+000
7778:0.0000000000000000e+000
7779:0.0000000000000000e+000
7780:0.0000000000000000e+000
7781:0.0000000000000000e+000
7782:0.0000000000000000e+000
7783:0.0000000000000000e+000
7784:0.0000000000000000e+000
7785:0.0000000000000000e+000
7786:0.0000000000000000e+000
7787:0.0000000000000000e+000
7788:0.0000000000000000e+000
7789:0.0000000000000000e+000
7790:0.0000000000000000e+000
7791:0.0000000000000000e+000
7792:0.0000000000000000e+000
7793:0.0000000000000000e+000
7794:0.0000000000000000e+000
7795:0.0000000000000000e+000
7796:0.0000000000000000e+000
7797:0.0000000000000000e+000
7798:0.0000000000000000e+000
7799:0.0000000000000000e+000
7800:0.0000000000000000e+000
7801:0.0000000000000000e+000
7802:0.0000000000000000e+000
7803:0.0000000000000000e+000
7804:0.0000000000000000e+000
7805:0.0000000000000000e+000
7806:0.0000000000000000e+000
7807:0.0000000000000000e+000
7808:0.0000000000000000e+000
7809:0.0000000000000000e+000
7810:0.0000000000000000e+000
7811:0.0000000000000000e+000
7812:0.0000000000000000e+000
7813:0.0000000000000000e+000
7814:0.0000000000000000e+000
7815:0.0000000000000000e+000
7816:0.0000000000000000e+000
7817:0.0000000000000000e+000
7818:0.0000000000000000e+000
7819:0.0000000000000000e+000
7820:0.0000000000000000e+000
7821:0.0000000000000000e+000
7822:0.0000000000000000e+000
7823:0.0000000000000000e+000
7824:0.0000000000000000e+000
7825:0.0000000000000000e+000
7826:0.0000000000000000e+000
7827:0.0000000000000000e+000
7828:0.0000000000000000e+000
7829:0.0000000000000000e+000
7830:0.0000000000000000e+000
7831:0.0000000000000000e+000
7832:0.0000000000000000e+000
7833:0.0000000000000000e+000
7834:0.0000000000000000e+000
7835:0.0000000000000000e+000
7836:0.0000000000000000e+000
7837:0.0000000000000000e+000
7838:0.0000000000000000e+000
7839:0.0000000000000000e+000
7840:0.0000000000000000e+000
7841:0.0000000000000000e+000
7842:0.0000000000000000e+000
7843:0.0000000000000000e+000
7844:0.0000000000000000e+000
7845:0.0000000000000000e+000
7846:0.0000000000000000e+000
7847:0.0000000000000000e+000
7848:0.0000000000000000e+000
7849:0.0000000000000000e+000
7850:0.0000000000000000e+000
7851:0.0000000000000000e+000
7852:0.0000000000000000e+000
7853:0.0000000000000000e+000
7854:0.0000000000000000e+000
7855:0.0000000000000000e+000
7856:0.0000000000000000e+000
7857:0.0000000000000000e+000
7858:0.0000000000000000e+000
7859:0.0000000000000000e+000
7860:0.0000000000000000e+000
7861:0.0000000000000000e+000
7862:0.0000000000000000e+000
7863:0.0000000000000000e+000
7864:0.0000000000000000e+000
7865:0.0000000000000000e+000
7866:0.0000000000000000e+000
7867:0.0000000000000000e+000
7868:0.0000000000000000e+000
7869:0.0000000000000000e+000
7870:0.0000000000000000e+000
7871:0.0000000000000000e+000
7872:0.0000000000000000e+000
7873:0.0000000000000000e+000
7874:0.0000000000000000e+000
7875:0.0000000000000000e+000
7876:0.0000000000000000e+000
7877:0.0000000000000000e+000
7878:0.0000000000000000e+000
7879:0.0000000000000000e+000
7880:0.0000000000000000e+000
7881:0.0000000000000000e+000
7882:0.0000000000000000e+000
7883:0.0000000000000000e+000
7884:0.0000000000000000e+000
7885:0.0000000000000000e+000
7886:0.0000000000000000e+000
7887:0.0000000000000000e+000
7888:0.0000000000000000e+000
7889:0.0000000000000000e+000
7890:0.0000000000000000e+000
7891:0.0000000000000000e+000
7892:0.0000000000000000e+000
7893:0.0000000000000000e+000
7894:0.0000000000000000e+000
7895:0.0000000000000000e+000
7896:0.0000000000000000e+000
7897:0.0000000000000000e+000
7898:0.0000000000000000e+000
7899:0.0000000000000000e+000
7900:0.0000000000000000e+000
7901:0.0000000000000000e+000
7902:0.0000000000000000e+000
7903:0.0000000000000000e+000
7904:0.0000000000000000e+000
7905:0.0000000000000000e+000
7906:0.0000000000000000e+000
7907:0.0000000000000000e+000
7908:0.0000000000000000e+000
7909:0.0000000000000000e+000
7910:0.0000000000000000e+000
7911:0.0000000000000000e+000
7912:0.0000000000000000e+000
7913:0.0000000000000000e+000
7914:0.0000000000000000e+000
7915:0.0000000000000000e+000
7916:0.0000000000000000e+000
7917:0.0000000000000000e+000
7918:0.0000000000000000e+000
7919:0.0000000000000000e+000
7920:0.0000000000000000e+000
7921:0.0000000000000000e+000
7922:0.0000000000000000e+000
7923:0.0000000000000000e+000
7924:0.0000000000000000e+000
7925:0.0000000000000000e+000
7926:0.0000000000000000e+000
7927:0.0000000000000000e+000
7928:0.0000000000000000e+000
7929:0.0000000000000000e+000
7930:0.0000000000000000e+000
7931:0.0000000000000000e+000
7932:0.0000000000000000e+000
7933:0.0000000000000000e+000
7934:0.0000000000000000e+000
7935:0.0000000000000000e+000
7936:0.0000000000000000e+000
7937:0.0000000000000000e+000
7938:0.0000000000000000e+000
7939:0.0000000000000000e+000
7940:0.0000000000000000e+000
7941:0.0000000000000000e+000
7942:0.0000000000000000e+000
7943:0.0000000000000000e+000
7944:0.0000000000000000e+000
7945:0.0000000000000000e+000
7946:0.0000000000000000e+000
7947:0.0000000000000000e+000
7948:0.0000000000000000e+000
7949:0.0000000000000000e+000
7950:0.0000000000000000e+000
7951:0.0000000000000000e+000
7952:0.0000000000000000e+000
7953:0.0000000000000000e+000
7954:0.0000000000000000e+000
7955:0.0000000000000000e+000
7956:0.0000000000000000e+000
7957:0.0000000000000000e+000
7958:0.0000000000000000e+000
7959:0.0000000000000000e+000
7960:0.0000000000000000e+000
7961:0.0000000000000000e+000
7962:0.0000000000000000e+000
7963:0.0000000000000000e+000
7964:0.0000000000000000e+000
7965:0.0000000000000000e+000
7966:0.0000000000000000e+000
7967:0.0000000000000000e+000
7968:0.0000000000000000e+000
7969:0.0000000000000000e+000
7970:0.0000000000000000e+000
7971:0.0000000000000000e+000
7972:0.0000000000000000e+000
7973:0.0000000000000000e+000
7974:0.0000000000000000e+000
7975:0.0000000000000000e+000
7976:0.0000000000000000e+000
7977:0.0000000000000000e+000
7978:0.0000000000000000e+000
7979:0.0000000000000000e+000
7980:0.0000000000000000e+000
7981:0.0000000000000000e+000
7982:0.0000000000000000e+000
7983:0.0000000000000000e+000
7984:0.0000000000000000e+000
7985:0.0000000000000000e+000
7986:0.0000000000000000e+000
7987:0.0000000000000000e+000
7988:0.0000000000000000e+000
7989:0.0000000000000000e+000
7990:0.0000000000000000e+000
7991:0.0000000000000000e+000
7992:0.0000000000000000e+000
7993:0.0000000000000000e+000
7994:0.0000000000000000e+000
7995:0.0000000000000000e+000
7996:0.0000000000000000e+000
7997:0.0000000000000000e+000
7998:0.0000000000000000e+000
7999:0.0000000000000000e+000
8000:0.0000000000000000e+000
8001:0.0000000000000000e+000
8002:0.0000000000000000e+000
8003:0.0000000000000000e+000
8004:0.0000000000000000e+000
8005:0.0000000000000000e+000
8006:0.0000000000000000e+000
8007:0.0000000000000000e+000
8008:0.0000000000000000e+000
8009:0.0000000000000000e+000
8010:0.0000000000000000e+000
8011:0.0000000000000000e+000
8012:0.0000000000000000e+000
8013:0.0000000000000000e+000
8014:0.0000000000000000e+000
8015:0.0000000000000000e+000
8016:0.0000000000000000e+000
8017:0.0000000000000000e+000
8018:0.0000000000000000e+000
8019:0.0000000000000000e+000
8020:0.0000000000000000e+000
8021:0.0000000000000000e+000
8022:0.0000000000000000e+000
8023:0.0000000000000000e+000
8024:0.0000000000000000e+000
8025:0.0000000000000000e+000
8026:0.0000000000000000e+000
8027:0.0000000000000000e+000
8028:0.0000000000000000e+000
8029:0.0000000000000000e+000
8030:0.0000000000000000e+000
8031:0.0000000000000000e+000
8032:0.0000000000000000e+000
8033:0.0000000000000000e+000
8034:0.0000000000000000e+000
8035:0.0000000000000000e+000
8036:0.0000000000000000e+000
8037:0.0000000000000000e+000
8038:0.0000000000000000e+000
8039:0.0000000000000000e+000
8040:0.0000000000000000e+000
8041:0.0000000000000000e+000
8042:0.0000000000000000e+000
8043:0.0000000000000000e+000
8044:0.0000000000000000e+000
8045:0.0000000000000000e+000
8046:0.0000000000000000e+000
8047:0.0000000000000000e+000
8048:0.0000000000000000e+000
8049:0.0000000000000000e+000
8050:0.0000000000000000e+000
8051:0.0000000000000000e+000
8052:0.0000000000000000e+000
8053:0.0000000000000000e+000
8054:0.0000000000000000e+000
8055:0.0000000000000000e+000
8056:0.0000000000000000e+000
8057:0.0000000000000000e+000
8058:0.0000000000000000e+000
8059:0.0000000000000000e+000
8060:0.0000000000000000e+000
8061:0.0000000000000000e+000
8062:0.0000000000000000e+000
8063:0.0000000000000000e+000
8064:0.0000000000000000e+000
8065:0.0000000000000000e+000
8066:0.0000000000000000e+000
8067:0.0000000000000000e+000
8068:0.0000000000000000e+000
8069:0.0000000000000000e+000
8070:0.0000000000000000e+000
8071:0.0000000000000000e+000
8072:0.0000000000000000e+000
8073:0.0000000000000000e+000
8074:0.0000000000000000e+000
8075:0.0000000000000000e+000
8076:0.0000000000000000e+000
8077:0.0000000000000000e+000
8078:0.0000000000000000e+000
8079:0.0000000000000000e+000
8080:0.0000000000000000e+000
8081:0.0000000000000000e+000
8082:0.0000000000000000e+000
8083:0.0000000000000000e+000
8084:0.0000000000000000e+000
8085:0.0000000000000000e+000
8086:0.0000000000000000e+000
8087:0.0000000000000000e+000
8088:0.0000000000000000e+000
8089:0.0000000000000000e+000
8090:0.0000000000000000e+000
8091:0.0000000000000000e+000
8092:0.0000000000000000e+000
8093:0.0000000000000000e+000
8094:0.0000000000000000e+000
8095:0.0000000000000000e+000
8096:0.0000000000000000e+000
8097:0.0000000000000000e+000
8098:0.0000000000000000e+000
8099:0.0000000000000000e+000
8100:0.0000000000000000e+000
8101:0.0000000000000000e+000
8102:0.0000000000000000e+000
8103:0.0000000000000000e+000
8104:0.0000000000000000e+000
8105:0.0000000000000000e+000
8106:0.0000000000000000e+000
8107:0.0000000000000000e+000
8108:0.0000000000000000e+000
8109:0.0000000000000000e+000
8110:0.0000000000000000e+000
8111:0.0000000000000000e+000
8112:0.0000000000000000e+000
8113:0.0000000000000000e+000
8114:0.0000000000000000e+000
8115:0.0000000000000000e+000
8116:0.0000000000000000e+000
8117:0.0000000000000000e+000
8118:0.0000000000000000e+000
8119:0.0000000000000000e+000
8120:0.0000000000000000e+000
8121:0.0000000000000000e+000
8122:0.0000000000000000e+000
8123:0.0000000000000000e+000
8124:0.0000000000000000e+000
8125:0.0000000000000000e+000
8126:0.0000000000000000e+000
8127:0.0000000000000000e+000
8128:0.0000000000000000e+000
8129:0.0000000000000000e+000
8130:0.0000000000000000e+000
8131:0.0000000000000000e+000
8132:0.0000000000000000e+000
8133:0.0000000000000000e+000
8134:0.0000000000000000e+000
8135:0.0000000000000000e+000
8136:0.0000000000000000e+000
8137:0.0000000000000000e+000
8138:0.0000000000000000e+000
8139:0.0000000000000000e+000
8140:0.0000000000000000e+000
8141:0.0000000000000000e+000
8142:0.0000000000000000e+000
8143:0.0000000000000000e+000
8144:0.0000000000000000e+000
8145:0.0000000000000000e+000
8146:0.0000000000000000e+000
8147:0.0000000000000000e+000
8148:0.0000000000000000e+000
8149:0.0000000000000000e+000
8150:0.0000000000000000e+000
8151:0.0000000000000000e+000
8152:0.0000000000000000e+000
8153:0.0000000000000000e+000
8154:0.0000000000000000e+000
8155:0.0000000000000000e+000
8156:0.0000000000000000e+000
8157:0.0000000000000000e+000
8158:0.0000000000000000e+000
8159:0.0000000000000000e+000
8160:0.0000000000000000e+000
8161:0.0000000000000000e+000
8162:0.0000000000000000e+000
8163:0.0000000000000000e+000
8164:0.0000000000000000e+000
8165:0.0000000000000000e+000
8166:0.0000000000000000e+000
8167:0.0000000000000000e+000
8168:0.0000000000000000e+000
8169:0.0000000000000000e+000
8170:0.0000000000000000e+000
8171:0.0000000000000000e+000
8172:0.0000000000000000e+000
8173:0.0000000000000000e+000
8174:0.0000000000000000e+000
8175:0.0000000000000000e+000
8176:0.0000000000000000e+000
8177:0.0000000000000000e+000
8178:0.0000000000000000e+000
8179:0.0000000000000000e+000
8180:0.0000000000000000e+000
8181:0.0000000000000000e+000
8182:0.0000000000000000e+000
8183:0.0000000000000000e+000
8184:0.0000000000000000e+000
8185:0.0000000000000000e+000
8186:0.0000000000000000e+000
8187:0.0000000000000000e+000
8188:0.0000000000000000e+000
8189:0.0000000000000000e+000
8190:0.0000000000000000e+000
8191:0.0000000000000000e+000
