patch_n	x	y	stress_yy
0	 0.000000000000000e+00	 0.000000000000000e+00	 0.000000000000000e+00
0	 0.000000000000000e+00	 2.500000000000000e-01	 0.000000000000000e+00
0	 0.000000000000000e+00	 5.000000000000000e-01	 0.000000000000000e+00
0	 0.000000000000000e+00	 7.500000000000001e-01	 0.000000000000000e+00
0	 0.000000000000000e+00	 1.000000000000000e+00	 0.000000000000000e+00
0	 0.000000000000000e+00	 1.250000000000000e+00	 0.000000000000000e+00
0	 0.000000000000000e+00	 1.500000000000000e+00	 0.000000000000000e+00
0	 0.000000000000000e+00	 1.750000000000000e+00	 0.000000000000000e+00
0	 0.000000000000000e+00	 2.000000000000000e+00	 0.000000000000000e+00
0	 0.000000000000000e+00	 2.250000000000000e+00	 0.000000000000000e+00
0	 0.000000000000000e+00	 2.500000000000000e+00	 0.000000000000000e+00
0	 6.250000000000000e-01	 0.000000000000000e+00	 1.144542400000004e-01
0	 6.250000000000001e-01	 2.500000000000000e-01	 1.475269260000003e-01
0	 6.250000000000000e-01	 4.999999999999999e-01	 1.805996119999975e-01
0	 6.249999999999999e-01	 7.500000000000001e-01	 2.136722980000021e-01
0	 6.249999999999999e-01	 9.999999999999997e-01	 2.467449840000016e-01
0	 6.250000000000000e-01	 1.250000000000000e+00	 2.798176700000009e-01
0	 6.249999999999999e-01	 1.500000000000000e+00	 3.128903559999999e-01
0	 6.250000000000000e-01	 1.750000000000000e+00	 3.459630420000006e-01
0	 6.250000000000000e-01	 2.000000000000000e+00	 3.790357280000017e-01
0	 6.250000000000000e-01	 2.250000000000000e+00	 4.121084140000008e-01
0	 6.250000000000000e-01	 2.500000000000000e+00	 4.451811000000014e-01
0	 1.250000000000000e+00	 0.000000000000000e+00	 2.063353599999984e-01
0	 1.250000000000000e+00	 2.499999999999999e-01	 2.667158640000092e-01
0	 1.250000000000000e+00	 4.999999999999999e-01	 3.270963679999951e-01
0	 1.250000000000000e+00	 7.500000000000000e-01	 3.874768719999981e-01
0	 1.250000000000000e+00	 1.000000000000000e+00	 4.478573760000052e-01
0	 1.250000000000000e+00	 1.250000000000000e+00	 5.082378800000007e-01
0	 1.250000000000000e+00	 1.500000000000000e+00	 5.686183839999963e-01
0	 1.250000000000000e+00	 1.750000000000000e+00	 6.289988879999970e-01
0	 1.250000000000000e+00	 2.000000000000000e+00	 6.893793920000039e-01
0	 1.250000000000000e+00	 2.250000000000000e+00	 7.497598960000045e-01
0	 1.250000000000000e+00	 2.500000000000000e+00	 8.101404000000032e-01
0	 1.875000000000000e+00	 0.000000000000000e+00	 2.756433599999997e-01
0	 1.875000000000000e+00	 2.500000000000000e-01	 3.575668139999909e-01
0	 1.875000000000001e+00	 5.000000000000001e-01	 4.394902680000084e-01
0	 1.875000000000000e+00	 7.500000000000000e-01	 5.214137220000145e-01
0	 1.875000000000000e+00	 1.000000000000000e+00	 6.033371759999908e-01
0	 1.875000000000000e+00	 1.250000000000000e+00	 6.852606300000035e-01
0	 1.875000000000000e+00	 1.500000000000000e+00	 7.671840839999944e-01
0	 1.875000000000000e+00	 1.750000000000000e+00	 8.491075379999962e-01
0	 1.875000000000000e+00	 2.000000000000000e+00	 9.310309920000067e-01
0	 1.875000000000000e+00	 2.250000000000000e+00	 1.012954445999994e+00
0	 1.875000000000000e+00	 2.500000000000001e+00	 1.094877900000008e+00
0	 2.500000000000000e+00	 0.000000000000000e+00	 3.223782400000098e-01
0	 2.500000000000000e+00	 2.499999999999999e-01	 4.200797760000110e-01
0	 2.500000000000000e+00	 5.000000000000001e-01	 5.177813119999582e-01
0	 2.500000000000000e+00	 7.500000000000000e-01	 6.154828479999931e-01
0	 2.500000000000000e+00	 1.000000000000000e+00	 7.131843839999980e-01
0	 2.500000000000000e+00	 1.250000000000000e+00	 8.108859200000041e-01
0	 2.500000000000001e+00	 1.500000000000000e+00	 9.085874560000003e-01
0	 2.500000000000000e+00	 1.750000000000000e+00	 1.006288992000004e+00
0	 2.500000000000000e+00	 2.000000000000000e+00	 1.103990528000002e+00
0	 2.500000000000000e+00	 2.250000000000000e+00	 1.201692064000015e+00
0	 2.500000000000000e+00	 2.500000000000000e+00	 1.299393600000021e+00
0	 3.125000000000000e+00	 0.000000000000000e+00	 3.465400000000063e-01
0	 3.125000000000000e+00	 2.500000000000000e-01	 4.542547499999594e-01
0	 3.125000000000000e+00	 5.000000000000001e-01	 5.619694999999852e-01
0	 3.125000000000000e+00	 7.500000000000001e-01	 6.696842500000478e-01
0	 3.125000000000000e+00	 1.000000000000000e+00	 7.773990000000216e-01
0	 3.125000000000000e+00	 1.250000000000000e+00	 8.851137500000107e-01
0	 3.125000000000000e+00	 1.500000000000000e+00	 9.928284999999998e-01
0	 3.125000000000000e+00	 1.750000000000000e+00	 1.100543250000008e+00
0	 3.125000000000000e+00	 2.000000000000000e+00	 1.208258000000027e+00
0	 3.125000000000000e+00	 2.250000000000000e+00	 1.315972750000038e+00
0	 3.125000000000000e+00	 2.500000000000000e+00	 1.423687500000015e+00
0	 3.750000000000000e+00	 0.000000000000000e+00	 3.481286400000005e-01
0	 3.749999999999999e+00	 2.500000000000000e-01	 4.600917360000529e-01
0	 3.749999999999999e+00	 4.999999999999999e-01	 5.720548319999722e-01
0	 3.750000000000000e+00	 7.500000000000000e-01	 6.840179279999870e-01
0	 3.750000000000001e+00	 1.000000000000000e+00	 7.959810239999693e-01
0	 3.750000000000000e+00	 1.250000000000000e+00	 9.079441200000040e-01
0	 3.749999999999999e+00	 1.500000000000000e+00	 1.019907215999996e+00
0	 3.750000000000000e+00	 1.750000000000000e+00	 1.131870312000039e+00
0	 3.749999999999999e+00	 1.999999999999999e+00	 1.243833408000006e+00
0	 3.750000000000000e+00	 2.250000000000000e+00	 1.355796503999996e+00
0	 3.750000000000000e+00	 2.500000000000000e+00	 1.467759600000007e+00
0	 4.375000000000000e+00	 0.000000000000000e+00	 3.271441599999925e-01
0	 4.374999999999999e+00	 2.499999999999999e-01	 4.375907340000152e-01
0	 4.375000000000000e+00	 5.000000000000001e-01	 5.480373080000216e-01
0	 4.375000000000001e+00	 7.500000000000002e-01	 6.584838820000515e-01
0	 4.375000000000000e+00	 1.000000000000000e+00	 7.689304560000549e-01
0	 4.375000000000000e+00	 1.250000000000000e+00	 8.793770300000057e-01
0	 4.374999999999999e+00	 1.500000000000000e+00	 9.898236040000072e-01
0	 4.375000000000000e+00	 1.750000000000000e+00	 1.100270177999993e+00
0	 4.374999999999999e+00	 2.000000000000000e+00	 1.210716752000041e+00
0	 4.375000000000000e+00	 2.250000000000000e+00	 1.321163325999983e+00
0	 4.375000000000000e+00	 2.500000000000000e+00	 1.431609900000063e+00
0	 5.000000000000000e+00	 0.000000000000000e+00	 2.835865599999821e-01
0	 4.999999999999998e+00	 2.499999999999999e-01	 3.867517440000250e-01
0	 4.999999999999999e+00	 5.000000000000000e-01	 4.899169280000070e-01
0	 4.999999999999999e+00	 7.500000000000000e-01	 5.930821120000593e-01
0	 4.999999999999999e+00	 1.000000000000000e+00	 6.962472960000055e-01
0	 5.000000000000000e+00	 1.250000000000000e+00	 7.994124799999947e-01
0	 4.999999999999998e+00	 1.500000000000000e+00	 9.025776639999901e-01
0	 4.999999999999999e+00	 1.750000000000000e+00	 1.005742848000013e+00
0	 5.000000000000000e+00	 2.000000000000000e+00	 1.108908032000011e+00
0	 5.000000000000000e+00	 2.250000000000000e+00	 1.212073216000064e+00
0	 5.000000000000000e+00	 2.500000000000000e+00	 1.315238400000007e+00
0	 5.624999999999999e+00	 0.000000000000000e+00	 2.174558400000138e-01
0	 5.624999999999999e+00	 2.500000000000000e-01	 3.075747659999528e-01
0	 5.625000000000000e+00	 5.000000000000000e-01	 3.976936920000274e-01
0	 5.624999999999999e+00	 7.500000000000001e-01	 4.878126179998792e-01
0	 5.624999999999999e+00	 1.000000000000000e+00	 5.779315439999488e-01
0	 5.625000000000000e+00	 1.250000000000000e+00	 6.680504700000034e-01
0	 5.625000000000001e+00	 1.500000000000000e+00	 7.581693960000190e-01
0	 5.625000000000000e+00	 1.750000000000000e+00	 8.482883220000570e-01
0	 5.624999999999999e+00	 2.000000000000000e+00	 9.384072479999207e-01
0	 5.624999999999999e+00	 2.250000000000000e+00	 1.028526174000004e+00
0	 5.625000000000000e+00	 2.500000000000000e+00	 1.118645100000037e+00
0	 6.250000000000000e+00	 0.000000000000000e+00	 1.287519999999987e-01
0	 6.250000000000000e+00	 2.500000000000000e-01	 2.000597999997559e-01
0	 6.250000000000000e+00	 5.000000000000000e-01	 2.713675999999606e-01
0	 6.250000000000000e+00	 7.500000000000001e-01	 3.426754000001597e-01
0	 6.250000000000000e+00	 1.000000000000000e+00	 4.139832000000573e-01
0	 6.250000000000000e+00	 1.250000000000000e+00	 4.852909999999878e-01
0	 6.250000000000000e+00	 1.500000000000000e+00	 5.565987999999626e-01
0	 6.250000000000000e+00	 1.750000000000000e+00	 6.279066000000276e-01
0	 6.250000000000001e+00	 2.000000000000000e+00	 6.992144000000928e-01
0	 6.250000000000000e+00	 2.250000000000000e+00	 7.705222000001122e-01
0	 6.250000000000000e+00	 2.500000000000000e+00	 8.418300000000656e-01
0	 0.000000000000000e+00	 2.500000000000000e+00	 0.000000000000000e+00
0	 0.000000000000000e+00	 2.750000000000000e+00	 0.000000000000000e+00
0	 0.000000000000000e+00	 3.000000000000001e+00	 0.000000000000000e+00
0	 0.000000000000000e+00	 3.250000000000001e+00	 0.000000000000000e+00
0	 0.000000000000000e+00	 3.500000000000001e+00	 0.000000000000000e+00
0	 0.000000000000000e+00	 3.750000000000001e+00	 0.000000000000000e+00
0	 0.000000000000000e+00	 4.000000000000001e+00	 0.000000000000000e+00
0	 0.000000000000000e+00	 4.250000000000002e+00	 0.000000000000000e+00
0	 0.000000000000000e+00	 4.500000000000002e+00	 0.000000000000000e+00
0	 0.000000000000000e+00	 4.750000000000002e+00	 0.000000000000000e+00
0	 0.000000000000000e+00	 5.000000000000000e+00	 0.000000000000000e+00
0	 6.250000000000000e-01	 2.500000000000000e+00	 4.451811000000014e-01
0	 6.250000000000001e-01	 2.750000000000000e+00	 4.088729540000013e-01
0	 6.250000000000001e-01	 3.000000000000000e+00	 3.725648080000004e-01
0	 6.250000000000000e-01	 3.250000000000001e+00	 3.362566620000009e-01
0	 6.249999999999999e-01	 3.500000000000001e+00	 2.999485159999989e-01
0	 6.249999999999998e-01	 3.750000000000001e+00	 2.636403699999978e-01
0	 6.249999999999999e-01	 4.000000000000002e+00	 2.273322239999983e-01
0	 6.250000000000000e-01	 4.250000000000002e+00	 1.910240779999996e-01
0	 6.250000000000000e-01	 4.500000000000002e+00	 1.547159319999992e-01
0	 6.250000000000000e-01	 4.750000000000003e+00	 1.184077859999954e-01
0	 6.250000000000000e-01	 5.000000000000000e+00	 8.209963999999820e-02
0	 1.250000000000000e+00	 2.500000000000000e+00	 8.101404000000032e-01
0	 1.250000000000000e+00	 2.750000000000000e+00	 7.448004560000024e-01
0	 1.250000000000000e+00	 3.000000000000000e+00	 6.794605120000019e-01
0	 1.250000000000000e+00	 3.250000000000002e+00	 6.141205680000054e-01
0	 1.250000000000000e+00	 3.500000000000001e+00	 5.487806239999992e-01
0	 1.250000000000000e+00	 3.750000000000001e+00	 4.834406800000007e-01
0	 1.250000000000000e+00	 4.000000000000001e+00	 4.181007359999939e-01
0	 1.250000000000000e+00	 4.250000000000001e+00	 3.527607919999980e-01
0	 1.250000000000000e+00	 4.500000000000002e+00	 2.874208479999972e-01
0	 1.250000000000000e+00	 4.750000000000002e+00	 2.220809039999970e-01
0	 1.250000000000000e+00	 5.000000000000000e+00	 1.567409599999958e-01
0	 1.875000000000000e+00	 2.500000000000001e+00	 1.094877900000008e+00
0	 1.875000000000000e+00	 2.750000000000000e+00	 1.007782506000010e+00
0	 1.875000000000000e+00	 3.000000000000000e+00	 9.206871120000074e-01
0	 1.875000000000000e+00	 3.250000000000001e+00	 8.335917180000020e-01
0	 1.875000000000001e+00	 3.500000000000001e+00	 7.464963240000005e-01
0	 1.875000000000000e+00	 3.750000000000001e+00	 6.594009300000031e-01
0	 1.875000000000000e+00	 4.000000000000002e+00	 5.723055360000067e-01
0	 1.875000000000000e+00	 4.250000000000002e+00	 4.852101419999899e-01
0	 1.875000000000000e+00	 4.500000000000002e+00	 3.981147479999984e-01
0	 1.875000000000000e+00	 4.750000000000002e+00	 3.110193539999924e-01
0	 1.875000000000000e+00	 5.000000000000001e+00	 2.239239599999943e-01
0	 2.500000000000000e+00	 2.500000000000000e+00	 1.299393600000021e+00
0	 2.500000000000000e+00	 2.750000000000000e+00	 1.197819104000008e+00
0	 2.500000000000000e+00	 3.000000000000001e+00	 1.096244607999986e+00
0	 2.500000000000000e+00	 3.250000000000001e+00	 9.946701119999959e-01
0	 2.500000000000000e+00	 3.500000000000001e+00	 8.930956160000020e-01
0	 2.500000000000000e+00	 3.750000000000001e+00	 7.915211199999973e-01
0	 2.500000000000000e+00	 4.000000000000001e+00	 6.899466239999961e-01
0	 2.500000000000001e+00	 4.250000000000003e+00	 5.883721280000067e-01
0	 2.500000000000000e+00	 4.500000000000001e+00	 4.867976319999911e-01
0	 2.500000000000000e+00	 4.750000000000002e+00	 3.852231359999971e-01
0	 2.500000000000000e+00	 5.000000000000000e+00	 2.836486399999781e-01
0	 3.125000000000000e+00	 2.500000000000000e+00	 1.423687500000015e+00
0	 3.125000000000000e+00	 2.750000000000000e+00	 1.314910250000041e+00
0	 3.125000000000000e+00	 3.000000000000000e+00	 1.206132999999995e+00
0	 3.125000000000000e+00	 3.250000000000001e+00	 1.097355749999996e+00
0	 3.125000000000000e+00	 3.500000000000001e+00	 9.885784999999879e-01
0	 3.125000000000000e+00	 3.750000000000001e+00	 8.798012499999918e-01
0	 3.125000000000000e+00	 4.000000000000001e+00	 7.710239999999979e-01
0	 3.124999999999999e+00	 4.250000000000001e+00	 6.622467499999930e-01
0	 3.125000000000000e+00	 4.500000000000003e+00	 5.534694999999812e-01
0	 3.125000000000000e+00	 4.750000000000003e+00	 4.446922499999854e-01
0	 3.125000000000000e+00	 5.000000000000000e+00	 3.359149999999866e-01
0	 3.750000000000000e+00	 2.500000000000000e+00	 1.467759600000007e+00
0	 3.750000000000000e+00	 2.750000000000000e+00	 1.359055944000020e+00
0	 3.750000000000000e+00	 3.000000000000000e+00	 1.250352288000016e+00
0	 3.750000000000000e+00	 3.250000000000001e+00	 1.141648632000008e+00
0	 3.750000000000000e+00	 3.500000000000000e+00	 1.032944976000008e+00
0	 3.750000000000000e+00	 3.750000000000001e+00	 9.242413200000095e-01
0	 3.750000000000000e+00	 4.000000000000001e+00	 8.155376639999887e-01
0	 3.750000000000000e+00	 4.250000000000003e+00	 7.068340079999792e-01
0	 3.750000000000001e+00	 4.500000000000002e+00	 5.981303520000059e-01
0	 3.750000000000000e+00	 4.750000000000003e+00	 4.894266959999651e-01
0	 3.750000000000000e+00	 5.000000000000001e+00	 3.807230399999862e-01
0	 4.375000000000000e+00	 2.500000000000000e+00	 1.431609900000063e+00
0	 4.374999999999999e+00	 2.750000000000000e+00	 1.330256186000022e+00
0	 4.375000000000000e+00	 3.000000000000001e+00	 1.228902472000002e+00
0	 4.374999999999999e+00	 3.250000000000000e+00	 1.127548757999971e+00
0	 4.374999999999999e+00	 3.500000000000001e+00	 1.026195043999991e+00
0	 4.375000000000001e+00	 3.750000000000001e+00	 9.248413299999584e-01
0	 4.375000000000000e+00	 4.000000000000002e+00	 8.234876160000080e-01
0	 4.375000000000000e+00	 4.250000000000002e+00	 7.221339019999611e-01
0	 4.374999999999999e+00	 4.500000000000002e+00	 6.207801880000051e-01
0	 4.374999999999999e+00	 4.750000000000001e+00	 5.194264740000104e-01
0	 4.375000000000000e+00	 5.000000000000000e+00	 4.180727599999213e-01
0	 5.000000000000000e+00	 2.500000000000000e+00	 1.315238400000007e+00
0	 4.999999999999999e+00	 2.750000000000000e+00	 1.228510976000029e+00
0	 5.000000000000000e+00	 3.000000000000000e+00	 1.141783552000032e+00
0	 5.000000000000000e+00	 3.250000000000001e+00	 1.055056128000054e+00
0	 5.000000000000000e+00	 3.500000000000001e+00	 9.683287039999851e-01
0	 4.999999999999999e+00	 3.750000000000000e+00	 8.816012799999884e-01
0	 5.000000000000000e+00	 4.000000000000002e+00	 7.948738559999238e-01
0	 5.000000000000000e+00	 4.250000000000002e+00	 7.081464319999674e-01
0	 5.000000000000000e+00	 4.500000000000003e+00	 6.214190079999238e-01
0	 5.000000000000000e+00	 4.750000000000003e+00	 5.346915839999141e-01
0	 5.000000000000000e+00	 5.000000000000001e+00	 4.479641599999694e-01
0	 5.625000000000000e+00	 2.500000000000000e+00	 1.118645100000037e+00
0	 5.625000000000000e+00	 2.750000000000000e+00	 1.053820314000022e+00
0	 5.625000000000000e+00	 3.000000000000001e+00	 9.889955280000183e-01
0	 5.624999999999999e+00	 3.250000000000001e+00	 9.241707419999785e-01
0	 5.625000000000000e+00	 3.500000000000001e+00	 8.593459559999397e-01
0	 5.624999999999999e+00	 3.750000000000001e+00	 7.945211699999721e-01
0	 5.625000000000000e+00	 4.000000000000002e+00	 7.296963839999562e-01
0	 5.624999999999999e+00	 4.250000000000002e+00	 6.648715980000107e-01
0	 5.624999999999998e+00	 4.500000000000002e+00	 6.000468119999437e-01
0	 5.624999999999999e+00	 4.750000000000002e+00	 5.352220259999407e-01
0	 5.625000000000000e+00	 5.000000000000000e+00	 4.703972399999312e-01
0	 6.250000000000000e+00	 2.500000000000000e+00	 8.418300000000656e-01
0	 6.250000000000000e+00	 2.750000000000000e+00	 8.061842000001048e-01
0	 6.250000000000000e+00	 3.000000000000001e+00	 7.705384000000093e-01
0	 6.250000000000001e+00	 3.250000000000001e+00	 7.348926000000031e-01
0	 6.250000000000001e+00	 3.500000000000001e+00	 6.992467999999195e-01
0	 6.250000000000000e+00	 3.750000000000001e+00	 6.636009999999132e-01
0	 6.250000000000000e+00	 4.000000000000001e+00	 6.279551999999405e-01
0	 6.250000000000000e+00	 4.250000000000002e+00	 5.923093999998792e-01
0	 6.250000000000001e+00	 4.500000000000003e+00	 5.566635999999292e-01
0	 6.250000000000000e+00	 4.750000000000002e+00	 5.210177999998679e-01
0	 6.250000000000000e+00	 5.000000000000000e+00	 4.853719999998951e-01
0	 0.000000000000000e+00	 5.000000000000000e+00	 0.000000000000000e+00
0	 0.000000000000000e+00	 5.250000000000000e+00	 0.000000000000000e+00
0	 0.000000000000000e+00	 5.500000000000001e+00	 0.000000000000000e+00
0	 0.000000000000000e+00	 5.750000000000002e+00	 0.000000000000000e+00
0	 0.000000000000000e+00	 6.000000000000001e+00	 0.000000000000000e+00
0	 0.000000000000000e+00	 6.250000000000001e+00	 0.000000000000000e+00
0	 0.000000000000000e+00	 6.500000000000001e+00	 0.000000000000000e+00
0	 0.000000000000000e+00	 6.750000000000002e+00	 0.000000000000000e+00
0	 0.000000000000000e+00	 7.000000000000002e+00	 0.000000000000000e+00
0	 0.000000000000000e+00	 7.250000000000002e+00	 0.000000000000000e+00
0	 0.000000000000000e+00	 7.500000000000000e+00	 0.000000000000000e+00
0	 6.250000000000000e-01	 5.000000000000000e+00	 8.209963999999820e-02
0	 6.250000000000001e-01	 5.250000000000002e+00	 4.807701399999829e-02
0	 6.250000000000001e-01	 5.500000000000001e+00	 1.405438799999983e-02
0	 6.250000000000000e-01	 5.750000000000001e+00	-1.996823799999974e-02
0	 6.249999999999999e-01	 6.000000000000000e+00	-5.399086400000165e-02
0	 6.249999999999998e-01	 6.250000000000001e+00	-8.801349000000254e-02
0	 6.249999999999999e-01	 6.500000000000002e+00	-1.220361160000013e-01
0	 6.250000000000000e-01	 6.750000000000001e+00	-1.560587420000002e-01
0	 6.250000000000000e-01	 7.000000000000002e+00	-1.900813680000009e-01
0	 6.250000000000000e-01	 7.250000000000003e+00	-2.241039940000040e-01
0	 6.250000000000000e-01	 7.500000000000000e+00	-2.581266199999994e-01
0	 1.250000000000000e+00	 5.000000000000000e+00	 1.567409599999958e-01
0	 1.250000000000000e+00	 5.250000000000001e+00	 9.557029599999320e-02
0	 1.250000000000000e+00	 5.500000000000001e+00	 3.439963199999919e-02
0	 1.250000000000000e+00	 5.750000000000003e+00	-2.677103199999739e-02
0	 1.250000000000000e+00	 6.000000000000001e+00	-8.794169600000418e-02
0	 1.250000000000000e+00	 6.250000000000000e+00	-1.491123600000009e-01
0	 1.250000000000000e+00	 6.500000000000002e+00	-2.102830240000067e-01
0	 1.250000000000000e+00	 6.750000000000002e+00	-2.714536880000006e-01
0	 1.250000000000000e+00	 7.000000000000001e+00	-3.326243520000021e-01
0	 1.250000000000000e+00	 7.250000000000002e+00	-3.937950160000003e-01
0	 1.250000000000000e+00	 7.500000000000000e+00	-4.549656799999967e-01
0	 1.875000000000000e+00	 5.000000000000001e+00	 2.239239599999943e-01
0	 1.875000000000000e+00	 5.250000000000001e+00	 1.424798459999927e-01
0	 1.875000000000000e+00	 5.500000000000001e+00	 6.103573199999651e-02
0	 1.875000000000000e+00	 5.750000000000001e+00	-2.040838200000289e-02
0	 1.875000000000001e+00	 6.000000000000002e+00	-1.018524960000078e-01
0	 1.875000000000000e+00	 6.250000000000003e+00	-1.832966099999981e-01
0	 1.875000000000000e+00	 6.500000000000001e+00	-2.647407239999952e-01
0	 1.875000000000000e+00	 6.750000000000001e+00	-3.461848380000043e-01
0	 1.875000000000000e+00	 7.000000000000003e+00	-4.276289519999997e-01
0	 1.875000000000000e+00	 7.250000000000002e+00	-5.090730660000033e-01
0	 1.875000000000000e+00	 7.500000000000001e+00	-5.905171799999996e-01
0	 2.500000000000000e+00	 5.000000000000000e+00	 2.836486399999781e-01
0	 2.500000000000000e+00	 5.250000000000000e+00	 1.888056639999762e-01
0	 2.500000000000000e+00	 5.500000000000001e+00	 9.396268799998568e-02
0	 2.500000000000000e+00	 5.750000000000001e+00	-8.802880000100317e-04
0	 2.500000000000000e+00	 6.000000000000001e+00	-9.572326400000657e-02
0	 2.500000000000000e+00	 6.250000000000000e+00	-1.905662400000084e-01
0	 2.500000000000000e+00	 6.500000000000001e+00	-2.854092160000011e-01
0	 2.500000000000001e+00	 6.750000000000002e+00	-3.802521919999819e-01
0	 2.500000000000000e+00	 7.000000000000003e+00	-4.750951680000059e-01
0	 2.500000000000000e+00	 7.250000000000002e+00	-5.699381439999969e-01
0	 2.500000000000000e+00	 7.500000000000000e+00	-6.647811199999910e-01
0	 3.125000000000000e+00	 5.000000000000000e+00	 3.359149999999866e-01
0	 3.125000000000000e+00	 5.250000000000000e+00	 2.345477499999832e-01
0	 3.125000000000000e+00	 5.500000000000000e+00	 1.331804999999736e-01
0	 3.125000000000000e+00	 5.750000000000001e+00	 3.181324999998010e-02
0	 3.125000000000000e+00	 6.000000000000001e+00	-6.955400000001503e-02
0	 3.125000000000000e+00	 6.250000000000001e+00	-1.709212500000202e-01
0	 3.125000000000000e+00	 6.500000000000001e+00	-2.722885000000064e-01
0	 3.124999999999999e+00	 6.750000000000001e+00	-3.736557499999925e-01
0	 3.125000000000000e+00	 7.000000000000004e+00	-4.750229999999967e-01
0	 3.125000000000000e+00	 7.250000000000002e+00	-5.763902499999852e-01
0	 3.125000000000000e+00	 7.500000000000000e+00	-6.777574999999869e-01
0	 3.750000000000000e+00	 5.000000000000001e+00	 3.807230399999862e-01
0	 3.750000000000000e+00	 5.250000000000002e+00	 2.797061039999964e-01
0	 3.750000000000000e+00	 5.500000000000001e+00	 1.786891679999888e-01
0	 3.750000000000000e+00	 5.750000000000001e+00	 7.767223199998562e-02
0	 3.750000000000000e+00	 6.000000000000002e+00	-2.334470400002500e-02
0	 3.750000000000000e+00	 6.250000000000001e+00	-1.243616400000018e-01
0	 3.750000000000000e+00	 6.500000000000000e+00	-2.253785759999893e-01
0	 3.750000000000000e+00	 6.750000000000003e+00	-3.263955119999996e-01
0	 3.750000000000001e+00	 7.000000000000004e+00	-4.274124479999729e-01
0	 3.750000000000000e+00	 7.250000000000004e+00	-5.284293840000364e-01
0	 3.750000000000000e+00	 7.500000000000000e+00	-6.294463200000154e-01
0	 4.375000000000000e+00	 5.000000000000000e+00	 4.180727599999213e-01
0	 4.374999999999999e+00	 5.249999999999999e+00	 3.242807259999720e-01
0	 4.375000000000000e+00	 5.500000000000002e+00	 2.304886919999563e-01
0	 4.374999999999999e+00	 5.750000000000001e+00	 1.366966579999543e-01
0	 4.374999999999999e+00	 6.000000000000001e+00	 4.290462399997508e-02
0	 4.375000000000001e+00	 6.250000000000002e+00	-5.088741000004538e-02
0	 4.375000000000000e+00	 6.500000000000002e+00	-1.446794439999943e-01
0	 4.375000000000000e+00	 6.750000000000002e+00	-2.384714780000178e-01
0	 4.374999999999999e+00	 7.000000000000002e+00	-3.322635119999731e-01
0	 4.374999999999999e+00	 7.250000000000001e+00	-4.260555459999221e-01
0	 4.375000000000000e+00	 7.500000000000000e+00	-5.198475799999878e-01
0	 5.000000000000000e+00	 5.000000000000001e+00	 4.479641599999694e-01
0	 4.999999999999999e+00	 5.250000000000001e+00	 3.682716159999369e-01
0	 5.000000000000000e+00	 5.500000000000000e+00	 2.885790719999516e-01
0	 5.000000000000000e+00	 5.750000000000001e+00	 2.088865280000189e-01
0	 5.000000000000000e+00	 6.000000000000002e+00	 1.291939839999729e-01
0	 4.999999999999999e+00	 6.250000000000000e+00	 4.950143999995493e-02
0	 5.000000000000000e+00	 6.500000000000002e+00	-3.019110400006433e-02
0	 5.000000000000000e+00	 6.750000000000001e+00	-1.098836480000198e-01
0	 5.000000000000000e+00	 7.000000000000003e+00	-1.895761919999739e-01
0	 5.000000000000000e+00	 7.250000000000004e+00	-2.692687360000713e-01
0	 5.000000000000000e+00	 7.500000000000001e+00	-3.489612799999708e-01
0	 5.625000000000000e+00	 5.000000000000000e+00	 4.703972399999312e-01
0	 5.625000000000000e+00	 5.250000000000002e+00	 4.116787739999539e-01
0	 5.625000000000000e+00	 5.500000000000001e+00	 3.529603079999876e-01
0	 5.624999999999999e+00	 5.750000000000000e+00	 2.942418419999577e-01
0	 5.625000000000000e+00	 6.000000000000001e+00	 2.355233759999176e-01
0	 5.624999999999999e+00	 6.250000000000001e+00	 1.768049099999713e-01
0	 5.625000000000000e+00	 6.500000000000003e+00	 1.180864439999763e-01
0	 5.624999999999999e+00	 6.750000000000001e+00	 5.936797800002992e-02
0	 5.624999999999998e+00	 7.000000000000000e+00	 6.495120000060693e-04
0	 5.624999999999999e+00	 7.250000000000003e+00	-5.806895399999792e-02
0	 5.625000000000000e+00	 7.500000000000000e+00	-1.167874200000086e-01
0	 6.250000000000000e+00	 5.000000000000000e+00	 4.853719999998951e-01
0	 6.250000000000000e+00	 5.250000000000000e+00	 4.545021999999348e-01
0	 6.250000000000000e+00	 5.500000000000001e+00	 4.236323999999737e-01
0	 6.250000000000001e+00	 5.750000000000002e+00	 3.927625999999294e-01
0	 6.250000000000001e+00	 6.000000000000001e+00	 3.618927999999297e-01
0	 6.250000000000000e+00	 6.250000000000001e+00	 3.310229999999187e-01
0	 6.250000000000000e+00	 6.500000000000001e+00	 3.001531999999190e-01
0	 6.250000000000000e+00	 6.750000000000002e+00	 2.692833999999195e-01
0	 6.250000000000001e+00	 7.000000000000003e+00	 2.384136000000315e-01
0	 6.250000000000000e+00	 7.250000000000002e+00	 2.075438000000318e-01
0	 6.250000000000000e+00	 7.500000000000000e+00	 1.766739999999878e-01
0	 0.000000000000000e+00	 7.500000000000000e+00	 0.000000000000000e+00
0	 0.000000000000000e+00	 7.750000000000001e+00	 0.000000000000000e+00
0	 0.000000000000000e+00	 8.000000000000002e+00	 0.000000000000000e+00
0	 0.000000000000000e+00	 8.250000000000002e+00	 0.000000000000000e+00
0	 0.000000000000000e+00	 8.500000000000002e+00	 0.000000000000000e+00
0	 0.000000000000000e+00	 8.750000000000000e+00	 0.000000000000000e+00
0	 0.000000000000000e+00	 9.000000000000004e+00	 0.000000000000000e+00
0	 0.000000000000000e+00	 9.250000000000004e+00	 0.000000000000000e+00
0	 0.000000000000000e+00	 9.500000000000002e+00	 0.000000000000000e+00
0	 0.000000000000000e+00	 9.750000000000002e+00	 0.000000000000000e+00
0	 0.000000000000000e+00	 1.000000000000000e+01	 0.000000000000000e+00
0	 6.250000000000000e-01	 7.500000000000000e+00	-2.581266199999994e-01
0	 6.249999999999998e-01	 7.749999999999998e+00	-2.170964859999999e-01
0	 6.250000000000000e-01	 8.000000000000000e+00	-1.760663519999990e-01
0	 6.249999999999999e-01	 8.250000000000000e+00	-1.350362180000000e-01
0	 6.250000000000000e-01	 8.500000000000004e+00	-9.400608399999993e-02
0	 6.249999999999999e-01	 8.750000000000000e+00	-5.297595000000244e-02
0	 6.250000000000001e-01	 9.000000000000002e+00	-1.194581600000225e-02
0	 6.250000000000000e-01	 9.250000000000002e+00	 2.908431799999870e-02
0	 6.250000000000000e-01	 9.500000000000000e+00	 7.011445200000467e-02
0	 6.250000000000001e-01	 9.750000000000004e+00	 1.111445860000022e-01
0	 6.250000000000000e-01	 1.000000000000000e+01	 1.521747200000005e-01
0	 1.250000000000000e+00	 7.500000000000000e+00	-4.549656799999967e-01
0	 1.250000000000000e+00	 7.750000000000000e+00	-3.801717040000005e-01
0	 1.250000000000000e+00	 8.000000000000000e+00	-3.053777279999951e-01
0	 1.250000000000000e+00	 8.250000000000002e+00	-2.305837519999987e-01
0	 1.250000000000000e+00	 8.500000000000002e+00	-1.557897759999982e-01
0	 1.250000000000000e+00	 8.750000000000002e+00	-8.099579999999243e-02
0	 1.250000000000000e+00	 9.000000000000004e+00	-6.201823999999878e-03
0	 1.250000000000000e+00	 9.250000000000002e+00	 6.859215200000415e-02
0	 1.250000000000000e+00	 9.500000000000000e+00	 1.433861279999974e-01
0	 1.250000000000000e+00	 9.750000000000004e+00	 2.181801040000106e-01
0	 1.250000000000000e+00	 1.000000000000000e+01	 2.929740800000025e-01
0	 1.875000000000000e+00	 7.500000000000001e+00	-5.905171799999996e-01
0	 1.875000000000000e+00	 7.749999999999998e+00	-4.892256539999941e-01
0	 1.875000000000000e+00	 8.000000000000000e+00	-3.879341279999943e-01
0	 1.875000000000001e+00	 8.250000000000004e+00	-2.866426019999919e-01
0	 1.875000000000001e+00	 8.500000000000004e+00	-1.853510759999984e-01
0	 1.875000000000001e+00	 8.750000000000002e+00	-8.405955000000148e-02
0	 1.875000000000000e+00	 9.000000000000000e+00	 1.723197600002113e-02
0	 1.875000000000000e+00	 9.250000000000002e+00	 1.185235020000066e-01
0	 1.875000000000000e+00	 9.500000000000004e+00	 2.198150280000325e-01
0	 1.875000000000000e+00	 9.750000000000004e+00	 3.211065540000362e-01
0	 1.875000000000000e+00	 1.000000000000000e+01	 4.223980800000083e-01
0	 2.500000000000000e+00	 7.500000000000000e+00	-6.647811199999910e-01
0	 2.500000000000000e+00	 7.750000000000000e+00	-5.442583359999986e-01
0	 2.500000000000001e+00	 8.000000000000002e+00	-4.237355519999986e-01
0	 2.500000000000001e+00	 8.250000000000002e+00	-3.032127680000162e-01
0	 2.500000000000000e+00	 8.500000000000004e+00	-1.826899839999951e-01
0	 2.500000000000000e+00	 8.750000000000002e+00	-6.216719999998141e-02
0	 2.500000000000000e+00	 9.000000000000000e+00	 5.835558399999807e-02
0	 2.500000000000000e+00	 9.250000000000002e+00	 1.788783680000137e-01
0	 2.500000000000000e+00	 9.500000000000002e+00	 2.994011519999931e-01
0	 2.500000000000001e+00	 9.750000000000004e+00	 4.199239360000236e-01
0	 2.500000000000000e+00	 1.000000000000000e+01	 5.404467199999986e-01
0	 3.125000000000000e+00	 7.500000000000000e+00	-6.777574999999869e-01
0	 3.125000000000000e+00	 7.750000000000001e+00	-5.452697500000074e-01
0	 3.124999999999999e+00	 8.000000000000000e+00	-4.127820000000083e-01
0	 3.125000000000000e+00	 8.250000000000002e+00	-2.802942499999905e-01
0	 3.125000000000000e+00	 8.500000000000002e+00	-1.478065000000007e-01
0	 3.125000000000000e+00	 8.750000000000000e+00	-1.531875000002199e-02
0	 3.125000000000000e+00	 9.000000000000002e+00	 1.171690000000059e-01
0	 3.125000000000000e+00	 9.250000000000002e+00	 2.496567500000281e-01
0	 3.125000000000000e+00	 9.500000000000002e+00	 3.821444999999856e-01
0	 3.125000000000000e+00	 9.750000000000002e+00	 5.146322500000383e-01
0	 3.125000000000000e+00	 1.000000000000000e+01	 6.471200000000010e-01
0	 3.750000000000000e+00	 7.500000000000000e+00	-6.294463200000154e-01
0	 3.750000000000000e+00	 7.749999999999999e+00	-4.922598959999794e-01
0	 3.750000000000000e+00	 8.000000000000002e+00	-3.550734720000006e-01
0	 3.750000000000000e+00	 8.250000000000004e+00	-2.178870479999651e-01
0	 3.750000000000000e+00	 8.500000000000002e+00	-8.070062400000406e-02
0	 3.750000000000000e+00	 8.750000000000004e+00	 5.648580000002016e-02
0	 3.750000000000001e+00	 9.000000000000004e+00	 1.936722240000211e-01
0	 3.750000000000000e+00	 9.250000000000004e+00	 3.308586479999964e-01
0	 3.750000000000000e+00	 9.500000000000002e+00	 4.680450719999987e-01
0	 3.750000000000000e+00	 9.750000000000004e+00	 6.052314959999874e-01
0	 3.750000000000000e+00	 1.000000000000000e+01	 7.424179200000490e-01
0	 4.375000000000000e+00	 7.500000000000000e+00	-5.198475799999878e-01
0	 4.375000000000000e+00	 7.749999999999999e+00	-3.852287739999750e-01
0	 4.375000000000000e+00	 8.000000000000000e+00	-2.506099680000514e-01
0	 4.375000000000000e+00	 8.250000000000004e+00	-1.159911619999843e-01
0	 4.375000000000001e+00	 8.500000000000004e+00	 1.862764400000819e-02
0	 4.375000000000000e+00	 8.750000000000002e+00	 1.532464499999645e-01
0	 4.375000000000000e+00	 9.000000000000004e+00	 2.878652559999994e-01
0	 4.375000000000000e+00	 9.250000000000002e+00	 4.224840620000506e-01
0	 4.374999999999999e+00	 9.500000000000002e+00	 5.571028680000853e-01
0	 4.375000000000000e+00	 9.750000000000004e+00	 6.917216740000277e-01
0	 4.375000000000000e+00	 1.000000000000000e+01	 8.263404800000098e-01
0	 5.000000000000000e+00	 7.500000000000001e+00	-3.489612799999708e-01
0	 4.999999999999999e+00	 7.749999999999999e+00	-2.241763840000338e-01
0	 5.000000000000000e+00	 8.000000000000002e+00	-9.939148799997799e-02
0	 5.000000000000000e+00	 8.250000000000002e+00	 2.539340800004905e-02
0	 5.000000000000000e+00	 8.500000000000002e+00	 1.501783039999547e-01
0	 4.999999999999999e+00	 8.750000000000002e+00	 2.749632000000446e-01
0	 4.999999999999999e+00	 9.000000000000002e+00	 3.997480960000038e-01
0	 4.999999999999998e+00	 9.250000000000002e+00	 5.245329919999739e-01
0	 5.000000000000000e+00	 9.500000000000004e+00	 6.493178879998468e-01
0	 5.000000000000000e+00	 9.750000000000004e+00	 7.741027839998337e-01
0	 5.000000000000000e+00	 1.000000000000000e+01	 8.988876800001048e-01
0	 5.625000000000000e+00	 7.500000000000000e+00	-1.167874200000086e-01
0	 5.624999999999999e+00	 7.750000000000000e+00	-9.102725999964416e-03
0	 5.624999999999999e+00	 8.000000000000000e+00	 9.858196800002102e-02
0	 5.625000000000000e+00	 8.250000000000002e+00	 2.062666620000031e-01
0	 5.624999999999998e+00	 8.500000000000000e+00	 3.139513559999695e-01
0	 5.625000000000000e+00	 8.750000000000000e+00	 4.216360499999627e-01
0	 5.625000000000000e+00	 9.000000000000002e+00	 5.293207440000679e-01
0	 5.625000000000000e+00	 9.250000000000002e+00	 6.370054380000824e-01
0	 5.624999999999999e+00	 9.500000000000000e+00	 7.446901319999071e-01
0	 5.624999999999999e+00	 9.750000000000004e+00	 8.523748260000089e-01
0	 5.624999999999999e+00	 1.000000000000000e+01	 9.600595200000228e-01
0	 6.250000000000000e+00	 7.500000000000000e+00	 1.766739999999878e-01
0	 6.250000000000001e+00	 7.750000000000001e+00	 2.599922000000150e-01
0	 6.250000000000000e+00	 8.000000000000002e+00	 3.433103999999850e-01
0	 6.250000000000000e+00	 8.250000000000002e+00	 4.266286000000452e-01
0	 6.250000000000000e+00	 8.500000000000000e+00	 5.099467999999379e-01
0	 6.250000000000000e+00	 8.750000000000000e+00	 5.932649999998747e-01
0	 6.250000000000000e+00	 9.000000000000004e+00	 6.765832000000138e-01
0	 6.250000000000001e+00	 9.250000000000005e+00	 7.599014000000183e-01
0	 6.250000000000000e+00	 9.500000000000000e+00	 8.432196000000224e-01
0	 6.250000000000000e+00	 9.750000000000002e+00	 9.265378000000275e-01
0	 6.250000000000000e+00	 1.000000000000000e+01	 1.009855999999943e+00
0	 6.250000000000000e+00	 0.000000000000000e+00	 1.287519999999987e-01
0	 6.250000000000000e+00	 2.500000000000000e-01	 2.000597999997559e-01
0	 6.250000000000000e+00	 5.000000000000000e-01	 2.713675999999606e-01
0	 6.250000000000000e+00	 7.500000000000001e-01	 3.426754000001597e-01
0	 6.250000000000000e+00	 1.000000000000000e+00	 4.139832000000573e-01
0	 6.250000000000000e+00	 1.250000000000000e+00	 4.852909999999878e-01
0	 6.250000000000000e+00	 1.500000000000000e+00	 5.565987999999626e-01
0	 6.250000000000000e+00	 1.750000000000000e+00	 6.279066000000276e-01
0	 6.250000000000001e+00	 2.000000000000000e+00	 6.992144000000928e-01
0	 6.250000000000000e+00	 2.250000000000000e+00	 7.705222000001122e-01
0	 6.250000000000000e+00	 2.500000000000000e+00	 8.418300000000656e-01
0	 6.875000000000001e+00	 0.000000000000000e+00	 3.634511999999757e-02
0	 6.875000000000001e+00	 2.500000000000000e-01	 8.741523800007601e-02
0	 6.874999999999999e+00	 4.999999999999999e-01	 1.384853560000790e-01
0	 6.875000000000000e+00	 7.500000000000001e-01	 1.895554739998100e-01
0	 6.875000000000001e+00	 1.000000000000000e+00	 2.406255920000378e-01
0	 6.875000000000001e+00	 1.250000000000000e+00	 2.916957100000284e-01
0	 6.875000000000000e+00	 1.500000000000000e+00	 3.427658280000611e-01
0	 6.875000000000001e+00	 1.750000000000000e+00	 3.938359460000940e-01
0	 6.875000000000002e+00	 2.000000000000000e+00	 4.449060639999062e-01
0	 6.875000000000000e+00	 2.250000000000000e+00	 4.959761820000713e-01
0	 6.875000000000000e+00	 2.500000000000000e+00	 5.470462999999705e-01
0	 7.500000000000003e+00	 0.000000000000000e+00	-4.089471999992876e-02
0	 7.500000000000003e+00	 2.500000000000000e-01	-7.150527999955090e-03
0	 7.500000000000001e+00	 5.000000000000000e-01	 2.659366399998760e-02
0	 7.500000000000000e+00	 7.500000000000001e-01	 6.033785600002428e-02
0	 7.500000000000002e+00	 1.000000000000000e+00	 9.408204800008842e-02
0	 7.500000000000001e+00	 1.250000000000000e+00	 1.278262400000063e-01
0	 7.500000000000002e+00	 1.500000000000000e+00	 1.615704320000479e-01
0	 7.500000000000003e+00	 1.750000000000000e+00	 1.953146240000251e-01
0	 7.500000000000001e+00	 2.000000000000000e+00	 2.290588160000495e-01
0	 7.500000000000002e+00	 2.250000000000000e+00	 2.628030080000898e-01
0	 7.500000000000001e+00	 2.500000000000000e+00	 2.965472000001190e-01
0	 8.125000000000004e+00	 0.000000000000000e+00	-1.029675199999858e-01
0	 8.125000000000002e+00	 2.500000000000000e-01	-8.363749799985892e-02
0	 8.125000000000004e+00	 5.000000000000001e-01	-6.430747600004380e-02
0	 8.125000000000002e+00	 7.500000000000002e-01	-4.497745400004528e-02
0	 8.125000000000004e+00	 1.000000000000000e+00	-2.564743199997961e-02
0	 8.125000000000002e+00	 1.250000000000000e+00	-6.317410000045155e-03
0	 8.125000000000002e+00	 1.500000000000000e+00	 1.301261199993870e-02
0	 8.125000000000002e+00	 1.750000000000000e+00	 3.234263399999327e-02
0	 8.125000000000002e+00	 2.000000000000000e+00	 5.167265600015680e-02
0	 8.125000000000004e+00	 2.250000000000000e+00	 7.100267799996018e-02
0	 8.125000000000002e+00	 2.500000000000000e+00	 9.033270000007310e-02
0	 8.750000000000002e+00	 0.000000000000000e+00	-1.498732800000902e-01
0	 8.750000000000002e+00	 2.499999999999999e-01	-1.420456720002747e-01
0	 8.750000000000004e+00	 5.000000000000000e-01	-1.342180639997906e-01
0	 8.750000000000002e+00	 7.500000000000001e-01	-1.263904560000717e-01
0	 8.750000000000000e+00	 1.000000000000000e+00	-1.185628479999590e-01
0	 8.750000000000002e+00	 1.250000000000000e+00	-1.107352399999595e-01
0	 8.750000000000004e+00	 1.500000000000000e+00	-1.029076319999987e-01
0	 8.750000000000002e+00	 1.750000000000000e+00	-9.508002399980466e-02
0	 8.750000000000000e+00	 2.000000000000000e+00	-8.725241599996103e-02
0	 8.750000000000004e+00	 2.250000000000000e+00	-7.942480799996156e-02
0	 8.750000000000004e+00	 2.500000000000000e+00	-7.159719999991762e-02
0	 9.375000000000004e+00	 0.000000000000000e+00	-1.816120000001753e-01
0	 9.375000000000000e+00	 2.499999999999999e-01	-1.823750500002242e-01
0	 9.375000000000002e+00	 5.000000000000000e-01	-1.831381000001662e-01
0	 9.375000000000002e+00	 7.500000000000000e-01	-1.839011500003534e-01
0	 9.375000000000002e+00	 9.999999999999998e-01	-1.846641999999342e-01
0	 9.375000000000004e+00	 1.250000000000000e+00	-1.854272500000587e-01
0	 9.375000000000002e+00	 1.500000000000000e+00	-1.861903000002381e-01
0	 9.375000000000004e+00	 1.750000000000000e+00	-1.869533499996733e-01
0	 9.375000000000002e+00	 2.000000000000000e+00	-1.877164000000576e-01
0	 9.375000000000005e+00	 2.250000000000000e+00	-1.884794499996789e-01
0	 9.375000000000002e+00	 2.500000000000000e+00	-1.892424999998532e-01
0	 1.000000000000000e+01	 0.000000000000000e+00	-1.981836800000636e-01
0	 1.000000000000000e+01	 2.499999999999999e-01	-2.046256319995822e-01
0	 1.000000000000001e+01	 5.000000000000001e-01	-2.110675840002105e-01
0	 1.000000000000001e+01	 7.500000000000001e-01	-2.175095359997288e-01
0	 1.000000000000000e+01	 1.000000000000000e+00	-2.239514879999804e-01
0	 1.000000000000000e+01	 1.250000000000000e+00	-2.303934399999097e-01
0	 1.000000000000000e+01	 1.500000000000000e+00	-2.368353920000000e-01
0	 1.000000000000001e+01	 1.750000000000000e+00	-2.432773440000478e-01
0	 1.000000000000001e+01	 2.000000000000000e+00	-2.497192959999506e-01
0	 1.000000000000001e+01	 2.250000000000000e+00	-2.561612480002793e-01
0	 1.000000000000000e+01	 2.500000000000000e+00	-2.626031999998447e-01
0	 1.062500000000000e+01	 0.000000000000000e+00	-1.995883200001103e-01
0	 1.062500000000000e+01	 2.500000000000000e-01	-2.087974179998957e-01
0	 1.062500000000001e+01	 5.000000000000001e-01	-2.180065159999550e-01
0	 1.062500000000000e+01	 7.500000000000001e-01	-2.272156139998158e-01
0	 1.062500000000001e+01	 1.000000000000000e+00	-2.364247120003733e-01
0	 1.062500000000000e+01	 1.250000000000000e+00	-2.456338099999566e-01
0	 1.062500000000001e+01	 1.500000000000000e+00	-2.548429079998029e-01
0	 1.062500000000000e+01	 1.750000000000000e+00	-2.640520060001787e-01
0	 1.062500000000000e+01	 2.000000000000000e+00	-2.732611039998112e-01
0	 1.062500000000000e+01	 2.250000000000000e+00	-2.824702019998959e-01
0	 1.062500000000000e+01	 2.500000000000000e+00	-2.916792999998918e-01
0	 1.125000000000001e+01	 0.000000000000000e+00	-1.858259200002266e-01
0	 1.125000000000000e+01	 2.499999999999999e-01	-1.948904080001468e-01
0	 1.125000000000000e+01	 5.000000000000000e-01	-2.039548959993540e-01
0	 1.125000000000000e+01	 7.500000000000001e-01	-2.130193840000084e-01
0	 1.125000000000001e+01	 1.000000000000000e+00	-2.220838719999846e-01
0	 1.125000000000001e+01	 1.250000000000000e+00	-2.311483599999775e-01
0	 1.125000000000000e+01	 1.500000000000000e+00	-2.402128479999846e-01
0	 1.125000000000001e+01	 1.750000000000000e+00	-2.492773359997484e-01
0	 1.125000000000001e+01	 2.000000000000000e+00	-2.583418239998636e-01
0	 1.125000000000000e+01	 2.250000000000000e+00	-2.674063119994421e-01
0	 1.125000000000000e+01	 2.500000000000000e+00	-2.764707999999061e-01
0	 1.187500000000001e+01	 0.000000000000000e+00	-1.568964800000572e-01
0	 1.187500000000001e+01	 2.500000000000000e-01	-1.629046019999422e-01
0	 1.187500000000000e+01	 4.999999999999999e-01	-1.689127240003352e-01
0	 1.187500000000001e+01	 7.500000000000001e-01	-1.749208459998402e-01
0	 1.187500000000001e+01	 1.000000000000000e+00	-1.809289680002689e-01
0	 1.187500000000001e+01	 1.250000000000000e+00	-1.869370899999723e-01
0	 1.187500000000001e+01	 1.500000000000000e+00	-1.929452119999420e-01
0	 1.187500000000001e+01	 1.750000000000000e+00	-1.989533339998850e-01
0	 1.187500000000001e+01	 2.000000000000000e+00	-2.049614559998134e-01
0	 1.187500000000001e+01	 2.250000000000000e+00	-2.109695780004399e-01
0	 1.187500000000001e+01	 2.500000000000000e+00	-2.169776999998874e-01
0	 1.250000000000000e+01	 0.000000000000000e+00	-1.128000000001350e-01
0	 1.250000000000000e+01	 2.500000000000000e-01	-1.128400000003132e-01
0	 1.250000000000000e+01	 5.000000000000000e-01	-1.128800000004460e-01
0	 1.250000000000000e+01	 7.500000000000001e-01	-1.129199999993077e-01
0	 1.250000000000000e+01	 1.000000000000000e+00	-1.129599999996301e-01
0	 1.250000000000000e+01	 1.250000000000000e+00	-1.129999999999853e-01
0	 1.250000000000000e+01	 1.500000000000000e+00	-1.130399999999199e-01
0	 1.250000000000000e+01	 1.750000000000000e+00	-1.130799999998544e-01
0	 1.250000000000000e+01	 2.000000000000000e+00	-1.131199999999011e-01
0	 1.250000000000000e+01	 2.250000000000000e+00	-1.131599999996580e-01
0	 1.250000000000000e+01	 2.500000000000000e+00	-1.131999999998357e-01
0	 6.250000000000000e+00	 2.500000000000000e+00	 8.418300000000656e-01
0	 6.250000000000000e+00	 2.750000000000000e+00	 8.061842000001048e-01
0	 6.250000000000000e+00	 3.000000000000001e+00	 7.705384000000093e-01
0	 6.250000000000001e+00	 3.250000000000001e+00	 7.348926000000031e-01
0	 6.250000000000001e+00	 3.500000000000001e+00	 6.992467999999195e-01
0	 6.250000000000000e+00	 3.750000000000001e+00	 6.636009999999132e-01
0	 6.250000000000000e+00	 4.000000000000001e+00	 6.279551999999405e-01
0	 6.250000000000000e+00	 4.250000000000002e+00	 5.923093999998792e-01
0	 6.250000000000001e+00	 4.500000000000003e+00	 5.566635999999292e-01
0	 6.250000000000000e+00	 4.750000000000002e+00	 5.210177999998679e-01
0	 6.250000000000000e+00	 5.000000000000000e+00	 4.853719999998951e-01
0	 6.875000000000000e+00	 2.500000000000000e+00	 5.470462999999705e-01
0	 6.874999999999999e+00	 2.750000000000000e+00	 5.419186019999787e-01
0	 6.874999999999999e+00	 3.000000000000000e+00	 5.367909040000339e-01
0	 6.875000000000000e+00	 3.250000000000001e+00	 5.316632060000123e-01
0	 6.874999999999999e+00	 3.500000000000001e+00	 5.265355080000393e-01
0	 6.875000000000001e+00	 3.750000000000001e+00	 5.214078099999300e-01
0	 6.875000000000000e+00	 4.000000000000002e+00	 5.162801119998488e-01
0	 6.875000000000002e+00	 4.250000000000001e+00	 5.111524139998542e-01
0	 6.875000000000002e+00	 4.500000000000002e+00	 5.060247159999353e-01
0	 6.875000000000000e+00	 4.750000000000003e+00	 5.008970180000007e-01
0	 6.875000000000000e+00	 5.000000000000000e+00	 4.957693199998586e-01
0	 7.500000000000001e+00	 2.500000000000000e+00	 2.965472000001190e-01
0	 7.500000000000003e+00	 2.750000000000000e+00	 3.173394879999969e-01
0	 7.500000000000003e+00	 3.000000000000001e+00	 3.381317760000571e-01
0	 7.500000000000000e+00	 3.250000000000000e+00	 3.589240640000128e-01
0	 7.500000000000002e+00	 3.500000000000001e+00	 3.797163519999951e-01
0	 7.500000000000002e+00	 3.750000000000001e+00	 4.005086400000079e-01
0	 7.500000000000002e+00	 4.000000000000001e+00	 4.213009280000293e-01
0	 7.500000000000003e+00	 4.250000000000002e+00	 4.420932159997941e-01
0	 7.500000000000001e+00	 4.500000000000002e+00	 4.628855039998824e-01
0	 7.500000000000003e+00	 4.750000000000003e+00	 4.836777920001471e-01
0	 7.500000000000001e+00	 5.000000000000000e+00	 5.044700799999080e-01
0	 8.125000000000002e+00	 2.500000000000000e+00	 9.033270000007310e-02
0	 8.125000000000002e+00	 2.750000000000000e+00	 1.324468580001464e-01
0	 8.125000000000004e+00	 3.000000000000001e+00	 1.745610159999790e-01
0	 8.125000000000000e+00	 3.250000000000000e+00	 2.166751740000644e-01
0	 8.125000000000002e+00	 3.500000000000000e+00	 2.587893320000392e-01
0	 8.125000000000004e+00	 3.750000000000001e+00	 3.009034899999709e-01
0	 8.125000000000002e+00	 4.000000000000002e+00	 3.430176480000709e-01
0	 8.125000000000002e+00	 4.250000000000002e+00	 3.851318059998944e-01
0	 8.125000000000002e+00	 4.500000000000002e+00	 4.272459639998604e-01
0	 8.125000000000002e+00	 4.750000000000001e+00	 4.693601219996461e-01
0	 8.125000000000002e+00	 5.000000000000000e+00	 5.114742799999571e-01
0	 8.750000000000004e+00	 2.500000000000000e+00	-7.159719999991762e-02
0	 8.750000000000000e+00	 2.750000000000000e+00	-1.275928799996105e-02
0	 8.750000000000002e+00	 3.000000000000001e+00	 4.607862400010643e-02
0	 8.750000000000002e+00	 3.250000000000000e+00	 1.049165360000547e-01
0	 8.750000000000002e+00	 3.500000000000000e+00	 1.637544479999534e-01
0	 8.750000000000002e+00	 3.750000000000001e+00	 2.225923600000179e-01
0	 8.750000000000002e+00	 4.000000000000002e+00	 2.814302719999828e-01
0	 8.750000000000004e+00	 4.250000000000003e+00	 3.402681839997254e-01
0	 8.750000000000000e+00	 4.500000000000001e+00	 3.991060959999571e-01
0	 8.750000000000002e+00	 4.750000000000003e+00	 4.579440079999220e-01
0	 8.750000000000004e+00	 5.000000000000000e+00	 5.167819199998203e-01
0	 9.375000000000002e+00	 2.500000000000000e+00	-1.892424999998532e-01
0	 9.375000000000004e+00	 2.750000000000000e+00	-1.182789499999518e-01
0	 9.375000000000000e+00	 3.000000000000000e+00	-4.731539999986321e-02
0	 9.375000000000004e+00	 3.250000000000000e+00	 2.364815000000463e-02
0	 9.375000000000004e+00	 3.500000000000001e+00	 9.461169999988084e-02
0	 9.375000000000004e+00	 3.750000000000001e+00	 1.655752499999844e-01
0	 9.375000000000004e+00	 4.000000000000002e+00	 2.365387999998969e-01
0	 9.375000000000004e+00	 4.250000000000002e+00	 3.075023499999563e-01
0	 9.375000000000002e+00	 4.500000000000002e+00	 3.784658999999469e-01
0	 9.375000000000004e+00	 4.750000000000002e+00	 4.494294499999174e-01
0	 9.375000000000002e+00	 5.000000000000000e+00	 5.203929999998635e-01
0	 1.000000000000000e+01	 2.500000000000000e+00	-2.626031999998447e-01
0	 1.000000000000000e+01	 2.750000000000000e+00	-1.841121279999014e-01
0	 1.000000000000000e+01	 3.000000000000000e+00	-1.056210559999860e-01
0	 1.000000000000001e+01	 3.250000000000000e+00	-2.712998400014693e-02
0	 1.000000000000000e+01	 3.500000000000001e+00	 5.136108799994605e-02
0	 1.000000000000000e+01	 3.750000000000001e+00	 1.298521600000324e-01
0	 1.000000000000000e+01	 4.000000000000002e+00	 2.083432320001154e-01
0	 1.000000000000001e+01	 4.250000000000003e+00	 2.868343040001829e-01
0	 1.000000000000001e+01	 4.500000000000004e+00	 3.653253759999408e-01
0	 1.000000000000000e+01	 4.750000000000002e+00	 4.438164479998186e-01
0	 1.000000000000000e+01	 4.999999999999999e+00	 5.223075199999094e-01
0	 1.062500000000000e+01	 2.500000000000000e+00	-2.916792999998918e-01
0	 1.062500000000000e+01	 2.750000000000000e+00	-2.102588220000162e-01
0	 1.062500000000000e+01	 3.000000000000001e+00	-1.288383439999267e-01
0	 1.062500000000000e+01	 3.250000000000000e+00	-4.741786600006409e-02
0	 1.062500000000000e+01	 3.500000000000001e+00	 3.400261199998684e-02
0	 1.062500000000000e+01	 3.750000000000001e+00	 1.154230899999702e-01
0	 1.062500000000000e+01	 4.000000000000001e+00	 1.968435679999178e-01
0	 1.062500000000000e+01	 4.250000000000002e+00	 2.782640459998653e-01
0	 1.062500000000000e+01	 4.500000000000002e+00	 3.596845239998973e-01
0	 1.062500000000000e+01	 4.750000000000002e+00	 4.411050019999703e-01
0	 1.062500000000000e+01	 5.000000000000000e+00	 5.225254799999136e-01
0	 1.125000000000000e+01	 2.500000000000000e+00	-2.764707999999061e-01
0	 1.125000000000001e+01	 2.750000000000000e+00	-1.967190320000968e-01
0	 1.125000000000000e+01	 3.000000000000000e+00	-1.169672640000174e-01
0	 1.125000000000000e+01	 3.250000000000001e+00	-3.721549600004259e-02
0	 1.125000000000001e+01	 3.500000000000000e+00	 4.253627200001553e-02
0	 1.125000000000000e+01	 3.750000000000001e+00	 1.222880399997796e-01
0	 1.125000000000001e+01	 4.000000000000003e+00	 2.020398079998493e-01
0	 1.125000000000001e+01	 4.250000000000002e+00	 2.817915759996577e-01
0	 1.125000000000000e+01	 4.500000000000002e+00	 3.615433439999373e-01
0	 1.125000000000001e+01	 4.750000000000002e+00	 4.412951120003610e-01
0	 1.125000000000000e+01	 5.000000000000000e+00	 5.210468799997869e-01
0	 1.187500000000001e+01	 2.500000000000000e+00	-2.169776999998874e-01
0	 1.187500000000001e+01	 2.750000000000000e+00	-1.434927579995844e-01
0	 1.187500000000001e+01	 3.000000000000001e+00	-7.000781600011019e-02
0	 1.187500000000000e+01	 3.250000000000000e+00	 3.477126000134727e-03
0	 1.187500000000000e+01	 3.500000000000000e+00	 7.696206799990991e-02
0	 1.187500000000001e+01	 3.750000000000000e+00	 1.504470099999056e-01
0	 1.187500000000000e+01	 4.000000000000001e+00	 2.239319520000116e-01
0	 1.187500000000001e+01	 4.250000000000002e+00	 2.974168940000599e-01
0	 1.187500000000001e+01	 4.500000000000002e+00	 3.709018359998595e-01
0	 1.187500000000001e+01	 4.750000000000003e+00	 4.443867779997390e-01
0	 1.187500000000001e+01	 5.000000000000000e+00	 5.178717199997961e-01
0	 1.250000000000000e+01	 2.500000000000000e+00	-1.131999999998357e-01
0	 1.250000000000000e+01	 2.750000000000000e+00	-5.057999999956296e-02
0	 1.250000000000000e+01	 3.000000000000001e+00	 1.203999999998040e-02
0	 1.250000000000000e+01	 3.250000000000001e+00	 7.466000000011519e-02
0	 1.250000000000000e+01	 3.500000000000001e+00	 1.372799999999508e-01
0	 1.250000000000000e+01	 3.750000000000001e+00	 1.998999999999312e-01
0	 1.250000000000000e+01	 4.000000000000001e+00	 2.625200000000660e-01
0	 1.250000000000000e+01	 4.250000000000002e+00	 3.251399999998129e-01
0	 1.250000000000000e+01	 4.500000000000003e+00	 3.877599999997373e-01
0	 1.250000000000000e+01	 4.750000000000002e+00	 4.503799999996616e-01
0	 1.250000000000000e+01	 5.000000000000000e+00	 5.129999999997636e-01
0	 6.250000000000000e+00	 5.000000000000000e+00	 4.853719999998951e-01
0	 6.250000000000000e+00	 5.250000000000000e+00	 4.545021999999348e-01
0	 6.250000000000000e+00	 5.500000000000001e+00	 4.236323999999737e-01
0	 6.250000000000001e+00	 5.750000000000002e+00	 3.927625999999294e-01
0	 6.250000000000001e+00	 6.000000000000001e+00	 3.618927999999297e-01
0	 6.250000000000000e+00	 6.250000000000001e+00	 3.310229999999187e-01
0	 6.250000000000000e+00	 6.500000000000001e+00	 3.001531999999190e-01
0	 6.250000000000000e+00	 6.750000000000002e+00	 2.692833999999195e-01
0	 6.250000000000001e+00	 7.000000000000003e+00	 2.384136000000315e-01
0	 6.250000000000000e+00	 7.250000000000002e+00	 2.075438000000318e-01
0	 6.250000000000000e+00	 7.500000000000000e+00	 1.766739999999878e-01
0	 6.875000000000000e+00	 5.000000000000000e+00	 4.957693199998586e-01
0	 6.874999999999999e+00	 5.250000000000000e+00	 4.939755819999797e-01
0	 6.874999999999999e+00	 5.499999999999999e+00	 4.921818439999688e-01
0	 6.875000000000000e+00	 5.750000000000000e+00	 4.903881059999474e-01
0	 6.874999999999999e+00	 6.000000000000002e+00	 4.885943680000209e-01
0	 6.875000000000001e+00	 6.250000000000001e+00	 4.868006299998688e-01
0	 6.875000000000000e+00	 6.500000000000002e+00	 4.850068919999196e-01
0	 6.875000000000002e+00	 6.750000000000001e+00	 4.832131539998837e-01
0	 6.875000000000002e+00	 7.000000000000003e+00	 4.814194160000089e-01
0	 6.875000000000000e+00	 7.250000000000002e+00	 4.796256780001192e-01
0	 6.875000000000000e+00	 7.500000000000000e+00	 4.778319400000203e-01
0	 7.500000000000001e+00	 5.000000000000000e+00	 5.044700799999080e-01
0	 7.500000000000003e+00	 5.250000000000002e+00	 5.273326079998389e-01
0	 7.500000000000003e+00	 5.500000000000002e+00	 5.501951359998575e-01
0	 7.500000000000000e+00	 5.750000000000000e+00	 5.730576639999262e-01
0	 7.500000000000002e+00	 6.000000000000001e+00	 5.959201919999406e-01
0	 7.500000000000002e+00	 6.250000000000003e+00	 6.187827199999827e-01
0	 7.500000000000002e+00	 6.500000000000002e+00	 6.416452479999781e-01
0	 7.500000000000003e+00	 6.750000000000003e+00	 6.645077759998667e-01
0	 7.500000000000001e+00	 7.000000000000002e+00	 6.873703039999788e-01
0	 7.500000000000003e+00	 7.250000000000003e+00	 7.102328320000901e-01
0	 7.500000000000001e+00	 7.500000000000000e+00	 7.330953600000468e-01
0	 8.125000000000002e+00	 5.000000000000000e+00	 5.114742799999571e-01
0	 8.125000000000002e+00	 5.249999999999999e+00	 5.545732779999913e-01
0	 8.125000000000004e+00	 5.500000000000001e+00	 5.976722759998740e-01
0	 8.125000000000000e+00	 5.750000000000001e+00	 6.407712739999298e-01
0	 8.125000000000002e+00	 6.000000000000001e+00	 6.838702719999615e-01
0	 8.125000000000004e+00	 6.250000000000003e+00	 7.269692699999333e-01
0	 8.125000000000002e+00	 6.500000000000001e+00	 7.700682679999957e-01
0	 8.125000000000002e+00	 6.750000000000003e+00	 8.131672660000369e-01
0	 8.125000000000002e+00	 7.000000000000001e+00	 8.562662639998987e-01
0	 8.125000000000002e+00	 7.250000000000001e+00	 8.993652619998240e-01
0	 8.125000000000002e+00	 7.499999999999999e+00	 9.424642599999981e-01
0	 8.750000000000004e+00	 5.000000000000000e+00	 5.167819199998203e-01
0	 8.750000000000000e+00	 5.250000000000000e+00	 5.756975919998656e-01
0	 8.750000000000002e+00	 5.500000000000001e+00	 6.346132639998890e-01
0	 8.750000000000002e+00	 5.750000000000000e+00	 6.935289359999207e-01
0	 8.750000000000002e+00	 6.000000000000000e+00	 7.524446079999585e-01
0	 8.750000000000002e+00	 6.250000000000002e+00	 8.113602800000176e-01
0	 8.750000000000002e+00	 6.500000000000003e+00	 8.702759519999769e-01
0	 8.750000000000004e+00	 6.750000000000002e+00	 9.291916239997806e-01
0	 8.750000000000000e+00	 7.000000000000001e+00	 9.881072960000288e-01
0	 8.750000000000002e+00	 7.250000000000003e+00	 1.047022968000100e+00
0	 8.750000000000004e+00	 7.499999999999999e+00	 1.105938640000082e+00
0	 9.375000000000002e+00	 5.000000000000000e+00	 5.203929999998635e-01
0	 9.375000000000004e+00	 5.250000000000002e+00	 5.907055499996746e-01
0	 9.375000000000000e+00	 5.500000000000001e+00	 6.610180999998506e-01
0	 9.375000000000004e+00	 5.750000000000001e+00	 7.313306500000001e-01
0	 9.375000000000004e+00	 6.000000000000002e+00	 8.016431999998360e-01
0	 9.375000000000004e+00	 6.250000000000002e+00	 8.719557499999432e-01
0	 9.375000000000004e+00	 6.500000000000001e+00	 9.422682999999931e-01
0	 9.375000000000004e+00	 6.750000000000003e+00	 1.012580849999923e+00
0	 9.375000000000002e+00	 7.000000000000003e+00	 1.082893400000007e+00
0	 9.375000000000004e+00	 7.250000000000001e+00	 1.153205950000070e+00
0	 9.375000000000002e+00	 7.500000000000000e+00	 1.223518500000065e+00
0	 1.000000000000000e+01	 4.999999999999999e+00	 5.223075199999094e-01
0	 1.000000000000000e+01	 5.250000000000001e+00	 5.995971519998712e-01
0	 1.000000000000000e+01	 5.500000000000001e+00	 6.768867839998494e-01
0	 1.000000000000001e+01	 5.750000000000001e+00	 7.541764159998346e-01
0	 1.000000000000000e+01	 6.000000000000001e+00	 8.314660479997958e-01
0	 1.000000000000000e+01	 6.250000000000000e+00	 9.087556799999953e-01
0	 1.000000000000000e+01	 6.500000000000001e+00	 9.860453120001025e-01
0	 1.000000000000001e+01	 6.750000000000003e+00	 1.063334944000149e+00
0	 1.000000000000001e+01	 7.000000000000001e+00	 1.140624576000020e+00
0	 1.000000000000000e+01	 7.250000000000001e+00	 1.217914208000010e+00
0	 1.000000000000000e+01	 7.499999999999999e+00	 1.295203839999992e+00
0	 1.062500000000000e+01	 5.000000000000000e+00	 5.225254799999136e-01
0	 1.062500000000000e+01	 5.249999999999999e+00	 6.023723979999659e-01
0	 1.062500000000000e+01	 5.500000000000002e+00	 6.822193159998322e-01
0	 1.062500000000000e+01	 5.750000000000001e+00	 7.620662339998158e-01
0	 1.062500000000000e+01	 6.000000000000002e+00	 8.419131520000098e-01
0	 1.062500000000000e+01	 6.250000000000001e+00	 9.217600699999592e-01
0	 1.062500000000000e+01	 6.500000000000001e+00	 1.001606987999961e+00
0	 1.062500000000000e+01	 6.750000000000002e+00	 1.081453906000007e+00
0	 1.062500000000000e+01	 7.000000000000002e+00	 1.161300823999960e+00
0	 1.062500000000000e+01	 7.250000000000002e+00	 1.241147742000132e+00
0	 1.062500000000000e+01	 7.500000000000000e+00	 1.320994659999996e+00
0	 1.125000000000000e+01	 5.000000000000000e+00	 5.210468799997869e-01
0	 1.125000000000001e+01	 5.250000000000001e+00	 5.990312879996692e-01
0	 1.125000000000000e+01	 5.500000000000001e+00	 6.770156959998219e-01
0	 1.125000000000000e+01	 5.750000000000000e+00	 7.550001039998478e-01
0	 1.125000000000001e+01	 6.000000000000000e+00	 8.329845119999123e-01
0	 1.125000000000000e+01	 6.250000000000002e+00	 9.109689199999048e-01
0	 1.125000000000001e+01	 6.500000000000003e+00	 9.889533279999370e-01
0	 1.125000000000001e+01	 6.750000000000003e+00	 1.066937735999885e+00
0	 1.125000000000000e+01	 7.000000000000003e+00	 1.144922144000127e+00
0	 1.125000000000001e+01	 7.250000000000003e+00	 1.222906552000512e+00
0	 1.125000000000000e+01	 7.500000000000000e+00	 1.300890959999812e+00
0	 1.187500000000001e+01	 5.000000000000000e+00	 5.178717199997961e-01
0	 1.187500000000001e+01	 5.250000000000001e+00	 5.895738220003347e-01
0	 1.187500000000001e+01	 5.500000000000001e+00	 6.612759239997783e-01
0	 1.187500000000000e+01	 5.750000000000000e+00	 7.329780259999923e-01
0	 1.187500000000000e+01	 6.000000000000000e+00	 8.046801280000030e-01
0	 1.187500000000001e+01	 6.249999999999999e+00	 8.763822299999235e-01
0	 1.187500000000000e+01	 6.500000000000001e+00	 9.480843320000432e-01
0	 1.187500000000001e+01	 6.750000000000001e+00	 1.019786434000194e+00
0	 1.187500000000001e+01	 7.000000000000003e+00	 1.091488536000185e+00
0	 1.187500000000001e+01	 7.250000000000003e+00	 1.163190638000167e+00
0	 1.187500000000001e+01	 7.500000000000000e+00	 1.234892740000149e+00
0	 1.250000000000000e+01	 5.000000000000000e+00	 5.129999999997636e-01
0	 1.250000000000000e+01	 5.250000000000000e+00	 5.740000000000897e-01
0	 1.250000000000000e+01	 5.500000000000001e+00	 6.349999999996865e-01
0	 1.250000000000000e+01	 5.750000000000002e+00	 6.959999999998525e-01
0	 1.250000000000000e+01	 6.000000000000001e+00	 7.570000000000299e-01
0	 1.250000000000000e+01	 6.250000000000001e+00	 8.179999999999971e-01
0	 1.250000000000000e+01	 6.500000000000001e+00	 8.789999999999409e-01
0	 1.250000000000000e+01	 6.750000000000002e+00	 9.400000000001187e-01
0	 1.250000000000000e+01	 7.000000000000003e+00	 1.001000000000296e+00
0	 1.250000000000000e+01	 7.250000000000002e+00	 1.062000000000118e+00
0	 1.250000000000000e+01	 7.500000000000000e+00	 1.123000000000119e+00
0	 6.250000000000000e+00	 7.500000000000000e+00	 1.766739999999878e-01
0	 6.250000000000001e+00	 7.750000000000001e+00	 2.599922000000150e-01
0	 6.250000000000000e+00	 8.000000000000002e+00	 3.433103999999850e-01
0	 6.250000000000000e+00	 8.250000000000002e+00	 4.266286000000452e-01
0	 6.250000000000000e+00	 8.500000000000000e+00	 5.099467999999379e-01
0	 6.250000000000000e+00	 8.750000000000000e+00	 5.932649999998747e-01
0	 6.250000000000000e+00	 9.000000000000004e+00	 6.765832000000138e-01
0	 6.250000000000001e+00	 9.250000000000005e+00	 7.599014000000183e-01
0	 6.250000000000000e+00	 9.500000000000000e+00	 8.432196000000224e-01
0	 6.250000000000000e+00	 9.750000000000002e+00	 9.265378000000275e-01
0	 6.250000000000000e+00	 1.000000000000000e+01	 1.009855999999943e+00
0	 6.875000000000000e+00	 7.500000000000000e+00	 4.778319400000203e-01
0	 6.875000000000001e+00	 7.750000000000000e+00	 5.350630820000075e-01
0	 6.874999999999999e+00	 8.000000000000000e+00	 5.922942239999935e-01
0	 6.875000000000001e+00	 8.250000000000000e+00	 6.495253659999811e-01
0	 6.875000000000000e+00	 8.500000000000002e+00	 7.067565080000252e-01
0	 6.875000000000001e+00	 8.750000000000000e+00	 7.639876500000737e-01
0	 6.875000000000002e+00	 9.000000000000002e+00	 8.212187919997938e-01
0	 6.874999999999998e+00	 9.250000000000000e+00	 8.784499340000717e-01
0	 6.875000000000000e+00	 9.500000000000000e+00	 9.356810759999385e-01
0	 6.875000000000000e+00	 9.750000000000002e+00	 9.929122180000808e-01
0	 6.875000000000001e+00	 1.000000000000000e+01	 1.050143360000034e+00
0	 7.500000000000001e+00	 7.500000000000000e+00	 7.330953600000468e-01
0	 7.500000000000001e+00	 7.749999999999999e+00	 7.680646080000164e-01
0	 7.500000000000003e+00	 8.000000000000000e+00	 8.030338560000738e-01
0	 7.500000000000002e+00	 8.250000000000002e+00	 8.380031039999735e-01
0	 7.500000000000000e+00	 8.500000000000002e+00	 8.729723520000007e-01
0	 7.500000000000000e+00	 8.750000000000002e+00	 9.079416000000390e-01
0	 7.500000000000002e+00	 9.000000000000002e+00	 9.429108480001352e-01
0	 7.500000000000002e+00	 9.250000000000002e+00	 9.778800960000954e-01
0	 7.500000000000002e+00	 9.500000000000002e+00	 1.012849343999944e+00
0	 7.500000000000003e+00	 9.750000000000002e+00	 1.047818592000129e+00
0	 7.500000000000003e+00	 1.000000000000000e+01	 1.082787840000021e+00
0	 8.125000000000002e+00	 7.499999999999999e+00	 9.424642599999981e-01
0	 8.125000000000004e+00	 7.750000000000001e+00	 9.589967780001079e-01
0	 8.125000000000002e+00	 8.000000000000002e+00	 9.755292960000527e-01
0	 8.125000000000002e+00	 8.250000000000000e+00	 9.920618140000755e-01
0	 8.125000000000004e+00	 8.500000000000002e+00	 1.008594332000051e+00
0	 8.125000000000002e+00	 8.750000000000000e+00	 1.025126850000170e+00
0	 8.125000000000004e+00	 9.000000000000002e+00	 1.041659368000126e+00
0	 8.125000000000004e+00	 9.250000000000002e+00	 1.058191886000083e+00
0	 8.125000000000000e+00	 9.500000000000002e+00	 1.074724403999982e+00
0	 8.125000000000004e+00	 9.750000000000004e+00	 1.091256921999873e+00
0	 8.125000000000004e+00	 1.000000000000000e+01	 1.107789439999873e+00
0	 8.750000000000004e+00	 7.499999999999999e+00	 1.105938640000082e+00
0	 8.750000000000002e+00	 7.750000000000000e+00	 1.107859591999916e+00
0	 8.750000000000002e+00	 8.000000000000000e+00	 1.109780544000016e+00
0	 8.750000000000004e+00	 8.250000000000002e+00	 1.111701496000128e+00
0	 8.750000000000004e+00	 8.500000000000002e+00	 1.113622447999997e+00
0	 8.750000000000004e+00	 8.750000000000002e+00	 1.115543400000042e+00
0	 8.750000000000000e+00	 9.000000000000000e+00	 1.117464352000219e+00
0	 8.750000000000004e+00	 9.250000000000002e+00	 1.119385303999685e+00
0	 8.750000000000000e+00	 9.500000000000002e+00	 1.121306255999954e+00
0	 8.750000000000002e+00	 9.750000000000002e+00	 1.123227207999955e+00
0	 8.750000000000002e+00	 1.000000000000000e+01	 1.125148160000044e+00
0	 9.375000000000002e+00	 7.500000000000000e+00	 1.223518500000065e+00
0	 9.375000000000004e+00	 7.750000000000001e+00	 1.214653049999946e+00
0	 9.375000000000002e+00	 8.000000000000002e+00	 1.205787600000119e+00
0	 9.375000000000002e+00	 8.250000000000000e+00	 1.196922150000081e+00
0	 9.375000000000004e+00	 8.500000000000004e+00	 1.188056700000132e+00
0	 9.375000000000004e+00	 8.750000000000002e+00	 1.179191250000058e+00
0	 9.375000000000004e+00	 9.000000000000002e+00	 1.170325799999983e+00
0	 9.375000000000004e+00	 9.250000000000002e+00	 1.161460350000068e+00
0	 9.375000000000004e+00	 9.500000000000002e+00	 1.152594899999631e+00
0	 9.375000000000004e+00	 9.750000000000000e+00	 1.143729450000298e+00
0	 9.375000000000004e+00	 1.000000000000000e+01	 1.134864000000046e+00
0	 1.000000000000000e+01	 7.499999999999999e+00	 1.295203839999992e+00
0	 1.000000000000000e+01	 7.750000000000000e+00	 1.279377152000207e+00
0	 1.000000000000001e+01	 8.000000000000000e+00	 1.263550464000026e+00
0	 1.000000000000000e+01	 8.250000000000002e+00	 1.247723776000071e+00
0	 1.000000000000000e+01	 8.500000000000000e+00	 1.231897088000027e+00
0	 1.000000000000000e+01	 8.750000000000002e+00	 1.216070400000025e+00
0	 1.000000000000000e+01	 9.000000000000000e+00	 1.200243712000253e+00
0	 1.000000000000000e+01	 9.250000000000004e+00	 1.184417024000065e+00
0	 1.000000000000000e+01	 9.500000000000004e+00	 1.168590335999698e+00
0	 1.000000000000001e+01	 9.750000000000004e+00	 1.152763647999655e+00
0	 1.000000000000000e+01	 1.000000000000000e+01	 1.136936959999879e+00
0	 1.062500000000000e+01	 7.500000000000000e+00	 1.320994659999996e+00
0	 1.062500000000000e+01	 7.750000000000000e+00	 1.302031898000124e+00
0	 1.062500000000000e+01	 8.000000000000000e+00	 1.283069136000052e+00
0	 1.062500000000000e+01	 8.250000000000002e+00	 1.264106373999895e+00
0	 1.062500000000000e+01	 8.500000000000002e+00	 1.245143612000099e+00
0	 1.062500000000000e+01	 8.750000000000002e+00	 1.226180850000186e+00
0	 1.062500000000000e+01	 9.000000000000002e+00	 1.207218087999665e+00
0	 1.062500000000001e+01	 9.250000000000002e+00	 1.188255326000230e+00
0	 1.062500000000000e+01	 9.500000000000002e+00	 1.169292563999813e+00
0	 1.062500000000001e+01	 9.750000000000004e+00	 1.150329801999706e+00
0	 1.062500000000000e+01	 1.000000000000000e+01	 1.131367039999986e+00
0	 1.125000000000000e+01	 7.500000000000000e+00	 1.300890959999812e+00
0	 1.125000000000001e+01	 7.750000000000000e+00	 1.282617287999988e+00
0	 1.125000000000001e+01	 8.000000000000000e+00	 1.264343616000179e+00
0	 1.125000000000000e+01	 8.250000000000000e+00	 1.246069944000145e+00
0	 1.125000000000000e+01	 8.500000000000002e+00	 1.227796271999893e+00
0	 1.125000000000000e+01	 8.750000000000002e+00	 1.209522599999957e+00
0	 1.125000000000000e+01	 9.000000000000002e+00	 1.191248928000078e+00
0	 1.125000000000000e+01	 9.250000000000002e+00	 1.172975255999566e+00
0	 1.125000000000001e+01	 9.500000000000002e+00	 1.154701584000061e+00
0	 1.125000000000000e+01	 9.750000000000000e+00	 1.136427912000681e+00
0	 1.125000000000001e+01	 1.000000000000000e+01	 1.118154239999925e+00
0	 1.187500000000001e+01	 7.500000000000000e+00	 1.234892740000149e+00
0	 1.187500000000000e+01	 7.749999999999998e+00	 1.221133322000381e+00
0	 1.187500000000001e+01	 8.000000000000002e+00	 1.207373903999742e+00
0	 1.187500000000001e+01	 8.250000000000002e+00	 1.193614486000096e+00
0	 1.187500000000000e+01	 8.500000000000000e+00	 1.179855067999904e+00
0	 1.187500000000001e+01	 8.750000000000002e+00	 1.166095650000170e+00
0	 1.187500000000001e+01	 9.000000000000002e+00	 1.152336232000097e+00
0	 1.187500000000001e+01	 9.250000000000002e+00	 1.138576813999560e+00
0	 1.187500000000001e+01	 9.500000000000002e+00	 1.124817396000015e+00
0	 1.187500000000000e+01	 9.750000000000002e+00	 1.111057977999864e+00
0	 1.187500000000001e+01	 1.000000000000000e+01	 1.097298560000226e+00
0	 1.250000000000000e+01	 7.500000000000000e+00	 1.123000000000119e+00
0	 1.250000000000000e+01	 7.750000000000001e+00	 1.117580000000139e+00
0	 1.250000000000000e+01	 8.000000000000002e+00	 1.112160000000063e+00
0	 1.250000000000000e+01	 8.250000000000002e+00	 1.106739999999995e+00
0	 1.250000000000000e+01	 8.500000000000000e+00	 1.101319999999894e+00
0	 1.250000000000000e+01	 8.750000000000000e+00	 1.095899999999486e+00
0	 1.250000000000000e+01	 9.000000000000004e+00	 1.090479999999871e+00
0	 1.250000000000000e+01	 9.250000000000005e+00	 1.085060000000126e+00
0	 1.250000000000000e+01	 9.500000000000000e+00	 1.079639999999540e+00
0	 1.250000000000000e+01	 9.750000000000002e+00	 1.074220000000413e+00
0	 1.250000000000000e+01	 1.000000000000000e+01	 1.068799999999825e+00
0	 1.250000000000000e+01	 0.000000000000000e+00	-1.128000000001350e-01
0	 1.250000000000000e+01	 2.500000000000000e-01	-1.128400000003132e-01
0	 1.250000000000000e+01	 5.000000000000000e-01	-1.128800000004460e-01
0	 1.250000000000000e+01	 7.500000000000001e-01	-1.129199999993077e-01
0	 1.250000000000000e+01	 1.000000000000000e+00	-1.129599999996301e-01
0	 1.250000000000000e+01	 1.250000000000000e+00	-1.129999999999853e-01
0	 1.250000000000000e+01	 1.500000000000000e+00	-1.130399999999199e-01
0	 1.250000000000000e+01	 1.750000000000000e+00	-1.130799999998544e-01
0	 1.250000000000000e+01	 2.000000000000000e+00	-1.131199999999011e-01
0	 1.250000000000000e+01	 2.250000000000000e+00	-1.131599999996580e-01
0	 1.250000000000000e+01	 2.500000000000000e+00	-1.131999999998357e-01
0	 1.312500000000000e+01	 0.000000000000000e+00	-6.495200000028456e-02
0	 1.312500000000000e+01	 2.500000000000000e-01	-5.807660000062070e-02
0	 1.312500000000000e+01	 4.999999999999999e-01	-5.120119999996704e-02
0	 1.312500000000000e+01	 7.500000000000001e-01	-4.432580000014213e-02
0	 1.312500000000000e+01	 1.000000000000000e+00	-3.745040000020042e-02
0	 1.312500000000000e+01	 1.250000000000000e+00	-3.057500000000491e-02
0	 1.312500000000000e+01	 1.500000000000000e+00	-2.369959999998270e-02
0	 1.312500000000000e+01	 1.750000000000000e+00	-1.682419999996243e-02
0	 1.312500000000000e+01	 2.000000000000000e+00	-9.948800000284088e-03
0	 1.312500000000000e+01	 2.250000000000000e+00	-3.073399999922732e-03
0	 1.312500000000000e+01	 2.500000000000000e+00	 3.802000000097117e-03
0	 1.375000000000000e+01	 0.000000000000000e+00	-2.476799999997503e-02
0	 1.375000000000000e+01	 2.500000000000000e-01	-1.199439999953894e-02
0	 1.375000000000000e+01	 5.000000000000000e-01	 7.791999998911502e-04
0	 1.375000000000000e+01	 7.500000000000001e-01	 1.355279999935397e-02
0	 1.375000000000000e+01	 1.000000000000000e+00	 2.632640000026492e-02
0	 1.375000000000000e+01	 1.250000000000000e+00	 3.909999999998081e-02
0	 1.375000000000000e+01	 1.500000000000000e+00	 5.187360000004989e-02
0	 1.375000000000000e+01	 1.750000000000000e+00	 6.464720000002762e-02
0	 1.375000000000000e+01	 2.000000000000000e+00	 7.742080000002179e-02
0	 1.375000000000000e+01	 2.250000000000000e+00	 9.019439999953040e-02
0	 1.375000000000000e+01	 2.500000000000000e+00	 1.029679999999367e-01
0	 1.437500000000000e+01	 0.000000000000000e+00	 7.751999999783266e-03
0	 1.437500000000000e+01	 2.500000000000000e-01	 2.540659999968928e-02
0	 1.437500000000001e+01	 5.000000000000001e-01	 4.306119999999308e-02
0	 1.437500000000000e+01	 7.500000000000002e-01	 6.071580000007906e-02
0	 1.437500000000001e+01	 1.000000000000000e+00	 7.837039999966083e-02
0	 1.437500000000000e+01	 1.250000000000000e+00	 9.602500000018836e-02
0	 1.437500000000000e+01	 1.500000000000000e+00	 1.136796000001012e-01
0	 1.437500000000000e+01	 1.750000000000000e+00	 1.313341999998663e-01
0	 1.437500000000000e+01	 2.000000000000000e+00	 1.489887999996960e-01
0	 1.437500000000000e+01	 2.250000000000000e+00	 1.666433999998235e-01
0	 1.437500000000000e+01	 2.500000000000000e+00	 1.842980000002381e-01
0	 1.500000000000000e+01	 0.000000000000000e+00	 3.260799999988962e-02
0	 1.500000000000000e+01	 2.499999999999999e-01	 5.412639999943148e-02
0	 1.500000000000000e+01	 5.000000000000000e-01	 7.564480000008052e-02
0	 1.500000000000000e+01	 7.500000000000001e-01	 9.716319999978390e-02
0	 1.500000000000000e+01	 1.000000000000000e+00	 1.186815999996801e-01
0	 1.500000000000000e+01	 1.250000000000000e+00	 1.402000000001458e-01
0	 1.500000000000001e+01	 1.500000000000000e+00	 1.617184000000616e-01
0	 1.500000000000000e+01	 1.750000000000000e+00	 1.832367999999196e-01
0	 1.500000000000000e+01	 2.000000000000000e+00	 2.047551999996925e-01
0	 1.500000000000000e+01	 2.250000000000000e+00	 2.262735999998267e-01
0	 1.500000000000000e+01	 2.500000000000000e+00	 2.477920000000466e-01
0	 1.562500000000000e+01	 0.000000000000000e+00	 4.979999999985552e-02
0	 1.562500000000000e+01	 2.499999999999999e-01	 7.416499999901532e-02
0	 1.562500000000000e+01	 5.000000000000000e-01	 9.853000000027511e-02
0	 1.562500000000000e+01	 7.500000000000000e-01	 1.228949999992957e-01
0	 1.562500000000000e+01	 9.999999999999998e-01	 1.472599999994495e-01
0	 1.562500000000001e+01	 1.250000000000000e+00	 1.716249999998532e-01
0	 1.562500000000000e+01	 1.500000000000000e+00	 1.959899999999504e-01
0	 1.562500000000001e+01	 1.750000000000000e+00	 2.203550000006876e-01
0	 1.562500000000000e+01	 2.000000000000000e+00	 2.447200000005018e-01
0	 1.562500000000001e+01	 2.250000000000000e+00	 2.690849999997802e-01
0	 1.562500000000000e+01	 2.500000000000000e+00	 2.934499999998508e-01
0	 1.625000000000000e+01	 0.000000000000000e+00	 5.932799999968097e-02
0	 1.625000000000000e+01	 2.499999999999999e-01	 8.552239999962528e-02
0	 1.625000000000000e+01	 5.000000000000001e-01	 1.117168000000763e-01
0	 1.625000000000000e+01	 7.500000000000001e-01	 1.379111999993322e-01
0	 1.625000000000000e+01	 1.000000000000000e+00	 1.641055999997410e-01
0	 1.625000000000000e+01	 1.250000000000000e+00	 1.902999999999544e-01
0	 1.625000000000000e+01	 1.500000000000000e+00	 2.164944000001235e-01
0	 1.625000000000001e+01	 1.750000000000000e+00	 2.426888000002236e-01
0	 1.625000000000001e+01	 2.000000000000000e+00	 2.688832000001084e-01
0	 1.625000000000001e+01	 2.250000000000000e+00	 2.950775999999963e-01
0	 1.625000000000000e+01	 2.500000000000000e+00	 3.212719999998726e-01
0	 1.687500000000000e+01	 0.000000000000000e+00	 6.119199999972125e-02
0	 1.687500000000000e+01	 2.500000000000000e-01	 8.819860000018608e-02
0	 1.687500000000000e+01	 5.000000000000001e-01	 1.152051999996889e-01
0	 1.687500000000000e+01	 7.500000000000001e-01	 1.422117999996109e-01
0	 1.687500000000001e+01	 1.000000000000000e+00	 1.692183999996680e-01
0	 1.687500000000000e+01	 1.250000000000000e+00	 1.962249999998278e-01
0	 1.687500000000000e+01	 1.500000000000000e+00	 2.232316000002169e-01
0	 1.687500000000000e+01	 1.750000000000000e+00	 2.502382000000274e-01
0	 1.687500000000001e+01	 2.000000000000000e+00	 2.772447999999983e-01
0	 1.687500000000001e+01	 2.250000000000000e+00	 3.042514000000552e-01
0	 1.687500000000000e+01	 2.500000000000000e+00	 3.312580000002896e-01
0	 1.750000000000000e+01	 0.000000000000000e+00	 5.539199999944345e-02
0	 1.750000000000000e+01	 2.499999999999999e-01	 8.219359999883312e-02
0	 1.750000000000001e+01	 5.000000000000000e-01	 1.089951999990775e-01
0	 1.750000000000000e+01	 7.500000000000001e-01	 1.357968000002187e-01
0	 1.750000000000001e+01	 1.000000000000000e+00	 1.625984000001404e-01
0	 1.750000000000000e+01	 1.250000000000000e+00	 1.893999999992957e-01
0	 1.750000000000000e+01	 1.500000000000000e+00	 2.162015999999152e-01
0	 1.750000000000001e+01	 1.750000000000000e+00	 2.430031999999652e-01
0	 1.750000000000000e+01	 2.000000000000000e+00	 2.698048000004138e-01
0	 1.750000000000000e+01	 2.250000000000000e+00	 2.966063999998881e-01
0	 1.750000000000000e+01	 2.500000000000000e+00	 3.234080000002137e-01
0	 1.812500000000001e+01	 0.000000000000000e+00	 4.192799999955810e-02
0	 1.812500000000001e+01	 2.500000000000000e-01	 6.750739999922581e-02
0	 1.812500000000000e+01	 4.999999999999999e-01	 9.308679999964786e-02
0	 1.812500000000000e+01	 7.500000000000001e-01	 1.186661999992180e-01
0	 1.812500000000001e+01	 1.000000000000000e+00	 1.442455999996394e-01
0	 1.812500000000001e+01	 1.250000000000000e+00	 1.698249999998680e-01
0	 1.812500000000001e+01	 1.500000000000000e+00	 1.954043999998916e-01
0	 1.812500000000000e+01	 1.750000000000000e+00	 2.209838000002406e-01
0	 1.812500000000001e+01	 2.000000000000000e+00	 2.465631999999447e-01
0	 1.812500000000001e+01	 2.250000000000000e+00	 2.721425999997796e-01
0	 1.812500000000000e+01	 2.500000000000000e+00	 2.977220000001779e-01
0	 1.875000000000000e+01	 0.000000000000000e+00	 2.079999999935467e-02
0	 1.875000000000000e+01	 2.500000000000000e-01	 4.413999999845835e-02
0	 1.875000000000000e+01	 5.000000000000000e-01	 6.747999999937945e-02
0	 1.875000000000000e+01	 7.500000000000001e-01	 9.082000000081966e-02
0	 1.875000000000000e+01	 1.000000000000000e+00	 1.141600000002185e-01
0	 1.875000000000000e+01	 1.250000000000000e+00	 1.374999999999460e-01
0	 1.875000000000000e+01	 1.500000000000000e+00	 1.608399999993360e-01
0	 1.875000000000000e+01	 1.750000000000000e+00	 1.841800000001115e-01
0	 1.875000000000000e+01	 2.000000000000000e+00	 2.075200000000166e-01
0	 1.875000000000000e+01	 2.250000000000000e+00	 2.308600000005966e-01
0	 1.875000000000000e+01	 2.500000000000000e+00	 2.542000000001821e-01
0	 1.250000000000000e+01	 2.500000000000000e+00	-1.131999999998357e-01
0	 1.250000000000000e+01	 2.750000000000000e+00	-5.057999999956296e-02
0	 1.250000000000000e+01	 3.000000000000001e+00	 1.203999999998040e-02
0	 1.250000000000000e+01	 3.250000000000001e+00	 7.466000000011519e-02
0	 1.250000000000000e+01	 3.500000000000001e+00	 1.372799999999508e-01
0	 1.250000000000000e+01	 3.750000000000001e+00	 1.998999999999312e-01
0	 1.250000000000000e+01	 4.000000000000001e+00	 2.625200000000660e-01
0	 1.250000000000000e+01	 4.250000000000002e+00	 3.251399999998129e-01
0	 1.250000000000000e+01	 4.500000000000003e+00	 3.877599999997373e-01
0	 1.250000000000000e+01	 4.750000000000002e+00	 4.503799999996616e-01
0	 1.250000000000000e+01	 5.000000000000000e+00	 5.129999999997636e-01
0	 1.312500000000000e+01	 2.500000000000000e+00	 3.802000000097117e-03
0	 1.312500000000000e+01	 2.750000000000000e+00	 5.418819999978947e-02
0	 1.312500000000000e+01	 3.000000000000000e+00	 1.045744000001437e-01
0	 1.312500000000000e+01	 3.250000000000001e+00	 1.549605999999933e-01
0	 1.312500000000000e+01	 3.500000000000001e+00	 2.053467999999782e-01
0	 1.312500000000000e+01	 3.750000000000001e+00	 2.557329999997471e-01
0	 1.312500000000000e+01	 4.000000000000002e+00	 3.061191999996588e-01
0	 1.312500000000000e+01	 4.250000000000001e+00	 3.565054000001567e-01
0	 1.312500000000000e+01	 4.500000000000002e+00	 4.068915999999035e-01
0	 1.312500000000000e+01	 4.750000000000003e+00	 4.572778000000917e-01
0	 1.312500000000000e+01	 5.000000000000000e+00	 5.076639999999021e-01
0	 1.375000000000000e+01	 2.500000000000000e+00	 1.029679999999367e-01
0	 1.375000000000000e+01	 2.750000000000000e+00	 1.429808000004039e-01
0	 1.375000000000000e+01	 3.000000000000001e+00	 1.829935999999727e-01
0	 1.375000000000000e+01	 3.250000000000000e+00	 2.230064000000143e-01
0	 1.375000000000000e+01	 3.500000000000001e+00	 2.630191999997329e-01
0	 1.375000000000000e+01	 3.750000000000001e+00	 3.030319999997218e-01
0	 1.375000000000000e+01	 4.000000000000001e+00	 3.430447999999388e-01
0	 1.375000000000000e+01	 4.250000000000002e+00	 3.830575999998032e-01
0	 1.375000000000000e+01	 4.500000000000002e+00	 4.230703999998919e-01
0	 1.375000000000000e+01	 4.750000000000003e+00	 4.630831999997919e-01
0	 1.375000000000000e+01	 5.000000000000000e+00	 5.030960000000695e-01
0	 1.437500000000000e+01	 2.500000000000000e+00	 1.842980000002381e-01
0	 1.437500000000000e+01	 2.750000000000000e+00	 2.157978000000825e-01
0	 1.437500000000000e+01	 3.000000000000001e+00	 2.472976000003161e-01
0	 1.437500000000000e+01	 3.250000000000000e+00	 2.787973999999142e-01
0	 1.437500000000000e+01	 3.500000000000000e+00	 3.102972000000707e-01
0	 1.437500000000000e+01	 3.750000000000001e+00	 3.417969999999176e-01
0	 1.437500000000000e+01	 4.000000000000002e+00	 3.732968000000013e-01
0	 1.437500000000000e+01	 4.250000000000002e+00	 4.047965999996195e-01
0	 1.437500000000000e+01	 4.500000000000002e+00	 4.362963999998551e-01
0	 1.437500000000000e+01	 4.750000000000001e+00	 4.677961999997202e-01
0	 1.437500000000000e+01	 5.000000000000000e+00	 4.992959999998713e-01
0	 1.500000000000000e+01	 2.500000000000000e+00	 2.477920000000466e-01
0	 1.500000000000000e+01	 2.750000000000000e+00	 2.726391999995255e-01
0	 1.500000000000000e+01	 3.000000000000001e+00	 2.974864000001847e-01
0	 1.500000000000000e+01	 3.250000000000000e+00	 3.223335999998974e-01
0	 1.500000000000000e+01	 3.500000000000000e+00	 3.471807999997623e-01
0	 1.500000000000000e+01	 3.750000000000001e+00	 3.720279999997356e-01
0	 1.500000000000000e+01	 4.000000000000002e+00	 3.968751999998946e-01
0	 1.500000000000000e+01	 4.250000000000003e+00	 4.217223999993513e-01
0	 1.500000000000000e+01	 4.500000000000001e+00	 4.465695999998687e-01
0	 1.500000000000000e+01	 4.750000000000003e+00	 4.714167999997799e-01
0	 1.500000000000000e+01	 5.000000000000000e+00	 4.962639999997798e-01
0	 1.562500000000000e+01	 2.500000000000000e+00	 2.934499999998508e-01
0	 1.562500000000000e+01	 2.750000000000000e+00	 3.135049999995858e-01
0	 1.562500000000000e+01	 3.000000000000000e+00	 3.335600000001667e-01
0	 1.562500000000000e+01	 3.250000000000000e+00	 3.536149999999781e-01
0	 1.562500000000000e+01	 3.500000000000001e+00	 3.736699999997808e-01
0	 1.562500000000001e+01	 3.750000000000001e+00	 3.937250000000780e-01
0	 1.562500000000000e+01	 4.000000000000002e+00	 4.137799999998303e-01
0	 1.562500000000000e+01	 4.250000000000002e+00	 4.338349999997280e-01
0	 1.562500000000000e+01	 4.500000000000002e+00	 4.538900000001789e-01
0	 1.562500000000000e+01	 4.750000000000002e+00	 4.739450000006689e-01
0	 1.562500000000000e+01	 5.000000000000000e+00	 4.939999999999500e-01
0	 1.625000000000000e+01	 2.500000000000000e+00	 3.212719999998726e-01
0	 1.625000000000000e+01	 2.750000000000000e+00	 3.383951999997737e-01
0	 1.625000000000000e+01	 3.000000000000000e+00	 3.555184000000927e-01
0	 1.625000000000001e+01	 3.250000000000000e+00	 3.726415999999778e-01
0	 1.625000000000000e+01	 3.500000000000001e+00	 3.897647999997821e-01
0	 1.625000000000000e+01	 3.750000000000001e+00	 4.068880000001051e-01
0	 1.625000000000000e+01	 4.000000000000002e+00	 4.240112000002020e-01
0	 1.625000000000001e+01	 4.250000000000003e+00	 4.411343999999039e-01
0	 1.625000000000001e+01	 4.500000000000004e+00	 4.582575999997311e-01
0	 1.625000000000000e+01	 4.750000000000002e+00	 4.753808000001886e-01
0	 1.625000000000000e+01	 4.999999999999999e+00	 4.925039999998049e-01
0	 1.687500000000000e+01	 2.500000000000000e+00	 3.312580000002896e-01
0	 1.687500000000000e+01	 2.750000000000000e+00	 3.473098000000349e-01
0	 1.687500000000001e+01	 3.000000000000001e+00	 3.633616000001577e-01
0	 1.687500000000000e+01	 3.250000000000000e+00	 3.794133999997427e-01
0	 1.687500000000000e+01	 3.500000000000001e+00	 3.954652000000947e-01
0	 1.687500000000001e+01	 3.750000000000001e+00	 4.115169999998787e-01
0	 1.687500000000000e+01	 4.000000000000001e+00	 4.275687999995735e-01
0	 1.687500000000000e+01	 4.250000000000002e+00	 4.436205999994520e-01
0	 1.687500000000000e+01	 4.500000000000002e+00	 4.596723999996539e-01
0	 1.687500000000000e+01	 4.750000000000002e+00	 4.757241999995865e-01
0	 1.687500000000000e+01	 5.000000000000000e+00	 4.917759999997884e-01
0	 1.750000000000000e+01	 2.500000000000000e+00	 3.234080000002137e-01
0	 1.750000000000000e+01	 2.750000000000000e+00	 3.402488000002523e-01
0	 1.750000000000000e+01	 3.000000000000000e+00	 3.570895999999919e-01
0	 1.750000000000000e+01	 3.250000000000001e+00	 3.739304000002963e-01
0	 1.750000000000000e+01	 3.500000000000000e+00	 3.907711999999990e-01
0	 1.750000000000000e+01	 3.750000000000001e+00	 4.076119999997206e-01
0	 1.750000000000001e+01	 4.000000000000003e+00	 4.244527999997597e-01
0	 1.750000000000001e+01	 4.250000000000002e+00	 4.412935999996038e-01
0	 1.750000000000001e+01	 4.500000000000002e+00	 4.581343999996436e-01
0	 1.750000000000001e+01	 4.750000000000002e+00	 4.749751999995416e-01
0	 1.750000000000000e+01	 5.000000000000000e+00	 4.918159999999006e-01
0	 1.812500000000000e+01	 2.500000000000000e+00	 2.977220000001779e-01
0	 1.812500000000000e+01	 2.750000000000000e+00	 3.172122000000492e-01
0	 1.812500000000001e+01	 3.000000000000001e+00	 3.367024000000899e-01
0	 1.812500000000000e+01	 3.250000000000000e+00	 3.561925999997049e-01
0	 1.812500000000000e+01	 3.500000000000000e+00	 3.756828000002835e-01
0	 1.812500000000000e+01	 3.750000000000000e+00	 3.951729999998276e-01
0	 1.812500000000000e+01	 4.000000000000001e+00	 4.146631999997653e-01
0	 1.812500000000000e+01	 4.250000000000002e+00	 4.341533999998340e-01
0	 1.812500000000001e+01	 4.500000000000002e+00	 4.536435999995365e-01
0	 1.812500000000000e+01	 4.750000000000003e+00	 4.731337999995589e-01
0	 1.812500000000000e+01	 5.000000000000000e+00	 4.926239999999636e-01
0	 1.875000000000000e+01	 2.500000000000000e+00	 2.542000000001821e-01
0	 1.875000000000000e+01	 2.750000000000000e+00	 2.782000000002683e-01
0	 1.875000000000000e+01	 3.000000000000001e+00	 3.021999999999637e-01
0	 1.875000000000000e+01	 3.250000000000001e+00	 3.262000000003784e-01
0	 1.875000000000000e+01	 3.500000000000001e+00	 3.502000000000825e-01
0	 1.875000000000000e+01	 3.750000000000001e+00	 3.742000000002398e-01
0	 1.875000000000000e+01	 4.000000000000001e+00	 3.981999999995445e-01
0	 1.875000000000000e+01	 4.250000000000002e+00	 4.221999999998617e-01
0	 1.875000000000000e+01	 4.500000000000003e+00	 4.461999999996636e-01
0	 1.875000000000000e+01	 4.750000000000002e+00	 4.701999999998208e-01
0	 1.875000000000000e+01	 5.000000000000000e+00	 4.941999999996228e-01
0	 1.250000000000000e+01	 5.000000000000000e+00	 5.129999999997636e-01
0	 1.250000000000000e+01	 5.250000000000000e+00	 5.740000000000897e-01
0	 1.250000000000000e+01	 5.500000000000001e+00	 6.349999999996865e-01
0	 1.250000000000000e+01	 5.750000000000002e+00	 6.959999999998525e-01
0	 1.250000000000000e+01	 6.000000000000001e+00	 7.570000000000299e-01
0	 1.250000000000000e+01	 6.250000000000001e+00	 8.179999999999971e-01
0	 1.250000000000000e+01	 6.500000000000001e+00	 8.789999999999409e-01
0	 1.250000000000000e+01	 6.750000000000002e+00	 9.400000000001187e-01
0	 1.250000000000000e+01	 7.000000000000003e+00	 1.001000000000296e+00
0	 1.250000000000000e+01	 7.250000000000002e+00	 1.062000000000118e+00
0	 1.250000000000000e+01	 7.500000000000000e+00	 1.123000000000119e+00
0	 1.312500000000000e+01	 5.000000000000000e+00	 5.076639999999021e-01
0	 1.312500000000000e+01	 5.250000000000000e+00	 5.566773999996163e-01
0	 1.312500000000000e+01	 5.499999999999999e+00	 6.056907999999980e-01
0	 1.312500000000000e+01	 5.750000000000000e+00	 6.547042000000300e-01
0	 1.312500000000000e+01	 6.000000000000002e+00	 7.037175999997967e-01
0	 1.312500000000000e+01	 6.250000000000001e+00	 7.527309999997925e-01
0	 1.312500000000000e+01	 6.500000000000002e+00	 8.017443999999330e-01
0	 1.312500000000000e+01	 6.750000000000001e+00	 8.507578000002126e-01
0	 1.312500000000000e+01	 7.000000000000003e+00	 8.997711999999184e-01
0	 1.312500000000000e+01	 7.250000000000002e+00	 9.487846000002489e-01
0	 1.312500000000000e+01	 7.500000000000000e+00	 9.977980000000106e-01
0	 1.375000000000000e+01	 5.000000000000000e+00	 5.030960000000695e-01
0	 1.375000000000000e+01	 5.250000000000002e+00	 5.419736000000185e-01
0	 1.375000000000000e+01	 5.500000000000002e+00	 5.808511999998016e-01
0	 1.375000000000000e+01	 5.750000000000000e+00	 6.197287999999913e-01
0	 1.375000000000000e+01	 6.000000000000001e+00	 6.586063999998077e-01
0	 1.375000000000000e+01	 6.250000000000003e+00	 6.974839999999000e-01
0	 1.375000000000000e+01	 6.500000000000002e+00	 7.363616000001372e-01
0	 1.375000000000000e+01	 6.750000000000003e+00	 7.752392000000109e-01
0	 1.375000000000000e+01	 7.000000000000002e+00	 8.141168000001084e-01
0	 1.375000000000000e+01	 7.250000000000003e+00	 8.529944000000400e-01
0	 1.375000000000000e+01	 7.500000000000000e+00	 8.918719999999383e-01
0	 1.437500000000000e+01	 5.000000000000000e+00	 4.992959999998713e-01
0	 1.437500000000000e+01	 5.249999999999999e+00	 5.298885999995548e-01
0	 1.437500000000000e+01	 5.500000000000001e+00	 5.604812000002274e-01
0	 1.437500000000000e+01	 5.750000000000001e+00	 5.910737999997366e-01
0	 1.437500000000000e+01	 6.000000000000001e+00	 6.216663999998601e-01
0	 1.437500000000000e+01	 6.250000000000003e+00	 6.522589999998514e-01
0	 1.437500000000000e+01	 6.500000000000001e+00	 6.828516000001682e-01
0	 1.437500000000000e+01	 6.750000000000003e+00	 7.134441999998645e-01
0	 1.437500000000000e+01	 7.000000000000001e+00	 7.440368000003112e-01
0	 1.437500000000000e+01	 7.250000000000001e+00	 7.746293999999209e-01
0	 1.437500000000000e+01	 7.499999999999999e+00	 8.052220000001056e-01
0	 1.500000000000000e+01	 5.000000000000000e+00	 4.962639999997798e-01
0	 1.500000000000000e+01	 5.250000000000000e+00	 5.204223999993989e-01
0	 1.500000000000000e+01	 5.500000000000001e+00	 5.445808000001100e-01
0	 1.500000000000000e+01	 5.750000000000000e+00	 5.687391999998301e-01
0	 1.500000000000000e+01	 6.000000000000000e+00	 5.928975999997690e-01
0	 1.500000000000000e+01	 6.250000000000002e+00	 6.170560000000159e-01
0	 1.500000000000000e+01	 6.500000000000003e+00	 6.412143999999379e-01
0	 1.500000000000000e+01	 6.750000000000002e+00	 6.653727999996462e-01
0	 1.500000000000000e+01	 7.000000000000001e+00	 6.895312000000595e-01
0	 1.500000000000000e+01	 7.250000000000003e+00	 7.136896000003112e-01
0	 1.500000000000000e+01	 7.499999999999999e+00	 7.378480000002521e-01
0	 1.562500000000000e+01	 5.000000000000000e+00	 4.939999999999500e-01
0	 1.562500000000000e+01	 5.250000000000002e+00	 5.135749999997933e-01
0	 1.562500000000000e+01	 5.500000000000001e+00	 5.331500000001276e-01
0	 1.562500000000000e+01	 5.750000000000001e+00	 5.527249999999250e-01
0	 1.562500000000000e+01	 6.000000000000002e+00	 5.722999999996918e-01
0	 1.562500000000001e+01	 6.250000000000002e+00	 5.918750000000638e-01
0	 1.562500000000000e+01	 6.500000000000001e+00	 6.114500000000689e-01
0	 1.562500000000000e+01	 6.750000000000003e+00	 6.310249999999969e-01
0	 1.562500000000000e+01	 7.000000000000003e+00	 6.505999999999015e-01
0	 1.562500000000000e+01	 7.250000000000001e+00	 6.701750000006438e-01
0	 1.562500000000000e+01	 7.500000000000000e+00	 6.897499999998223e-01
0	 1.625000000000000e+01	 4.999999999999999e+00	 4.925039999998049e-01
0	 1.625000000000000e+01	 5.250000000000001e+00	 5.093463999996761e-01
0	 1.625000000000000e+01	 5.500000000000001e+00	 5.261887999999654e-01
0	 1.625000000000001e+01	 5.750000000000001e+00	 5.430311999997540e-01
0	 1.625000000000000e+01	 6.000000000000001e+00	 5.598735999995951e-01
0	 1.625000000000000e+01	 6.250000000000000e+00	 5.767160000000437e-01
0	 1.625000000000000e+01	 6.500000000000001e+00	 5.935584000002662e-01
0	 1.625000000000001e+01	 6.750000000000003e+00	 6.104008000001826e-01
0	 1.625000000000001e+01	 7.000000000000001e+00	 6.272431999998691e-01
0	 1.625000000000000e+01	 7.250000000000001e+00	 6.440856000008072e-01
0	 1.625000000000000e+01	 7.499999999999999e+00	 6.609280000001050e-01
0	 1.687500000000000e+01	 5.000000000000000e+00	 4.917759999997884e-01
0	 1.687500000000000e+01	 5.249999999999999e+00	 5.077365999995817e-01
0	 1.687500000000001e+01	 5.500000000000002e+00	 5.236972000000191e-01
0	 1.687500000000000e+01	 5.750000000000001e+00	 5.396577999996518e-01
0	 1.687500000000000e+01	 6.000000000000002e+00	 5.556184000002294e-01
0	 1.687500000000001e+01	 6.250000000000001e+00	 5.715790000000173e-01
0	 1.687500000000000e+01	 6.500000000000001e+00	 5.875395999998934e-01
0	 1.687500000000000e+01	 6.750000000000002e+00	 6.035001999999527e-01
0	 1.687500000000000e+01	 7.000000000000002e+00	 6.194607999998919e-01
0	 1.687500000000000e+01	 7.250000000000002e+00	 6.354213999997393e-01
0	 1.687500000000000e+01	 7.500000000000000e+00	 6.513820000000335e-01
0	 1.750000000000000e+01	 5.000000000000000e+00	 4.918159999999006e-01
0	 1.750000000000000e+01	 5.250000000000001e+00	 5.087456000000923e-01
0	 1.750000000000000e+01	 5.500000000000001e+00	 5.256751999996295e-01
0	 1.750000000000000e+01	 5.750000000000000e+00	 5.426048000002647e-01
0	 1.750000000000000e+01	 6.000000000000000e+00	 5.595344000000317e-01
0	 1.750000000000000e+01	 6.250000000000002e+00	 5.764639999995510e-01
0	 1.750000000000001e+01	 6.500000000000003e+00	 5.933936000000098e-01
0	 1.750000000000001e+01	 6.750000000000003e+00	 6.103231999999182e-01
0	 1.750000000000001e+01	 7.000000000000003e+00	 6.272528000001998e-01
0	 1.750000000000001e+01	 7.250000000000003e+00	 6.441824000003397e-01
0	 1.750000000000000e+01	 7.500000000000000e+00	 6.611119999998747e-01
0	 1.812500000000000e+01	 5.000000000000000e+00	 4.926239999999636e-01
0	 1.812500000000000e+01	 5.250000000000001e+00	 5.123733999995210e-01
0	 1.812500000000001e+01	 5.500000000000001e+00	 5.321227999997806e-01
0	 1.812500000000000e+01	 5.750000000000000e+00	 5.518721999995257e-01
0	 1.812500000000000e+01	 6.000000000000000e+00	 5.716216000000565e-01
0	 1.812500000000000e+01	 6.249999999999999e+00	 5.913709999997306e-01
0	 1.812500000000000e+01	 6.500000000000001e+00	 6.111203999999760e-01
0	 1.812500000000000e+01	 6.750000000000001e+00	 6.308697999999968e-01
0	 1.812500000000001e+01	 7.000000000000003e+00	 6.506191999996520e-01
0	 1.812500000000000e+01	 7.250000000000003e+00	 6.703686000001597e-01
0	 1.812500000000000e+01	 7.500000000000000e+00	 6.901180000003393e-01
0	 1.875000000000000e+01	 5.000000000000000e+00	 4.941999999996228e-01
0	 1.875000000000000e+01	 5.250000000000000e+00	 5.186199999997321e-01
0	 1.875000000000000e+01	 5.500000000000001e+00	 5.430399999994507e-01
0	 1.875000000000000e+01	 5.750000000000002e+00	 5.674599999998886e-01
0	 1.875000000000000e+01	 6.000000000000001e+00	 5.918800000003265e-01
0	 1.875000000000000e+01	 6.250000000000001e+00	 6.163000000002404e-01
0	 1.875000000000000e+01	 6.500000000000001e+00	 6.407199999994796e-01
0	 1.875000000000000e+01	 6.750000000000002e+00	 6.651399999999088e-01
0	 1.875000000000000e+01	 7.000000000000003e+00	 6.895600000003556e-01
0	 1.875000000000000e+01	 7.250000000000002e+00	 7.139800000000919e-01
0	 1.875000000000000e+01	 7.500000000000000e+00	 7.384000000001834e-01
0	 1.250000000000000e+01	 7.500000000000000e+00	 1.123000000000119e+00
0	 1.250000000000000e+01	 7.750000000000001e+00	 1.117580000000139e+00
0	 1.250000000000000e+01	 8.000000000000002e+00	 1.112160000000063e+00
0	 1.250000000000000e+01	 8.250000000000002e+00	 1.106739999999995e+00
0	 1.250000000000000e+01	 8.500000000000000e+00	 1.101319999999894e+00
0	 1.250000000000000e+01	 8.750000000000000e+00	 1.095899999999486e+00
0	 1.250000000000000e+01	 9.000000000000004e+00	 1.090479999999871e+00
0	 1.250000000000000e+01	 9.250000000000005e+00	 1.085060000000126e+00
0	 1.250000000000000e+01	 9.500000000000000e+00	 1.079639999999540e+00
0	 1.250000000000000e+01	 9.750000000000002e+00	 1.074220000000413e+00
0	 1.250000000000000e+01	 1.000000000000000e+01	 1.068799999999825e+00
0	 1.312500000000000e+01	 7.500000000000000e+00	 9.977980000000106e-01
0	 1.312500000000000e+01	 7.750000000000000e+00	 1.001918199999949e+00
0	 1.312499999999999e+01	 8.000000000000000e+00	 1.006038400000011e+00
0	 1.312500000000000e+01	 8.250000000000000e+00	 1.010158599999844e+00
0	 1.312500000000000e+01	 8.500000000000002e+00	 1.014278799999696e+00
0	 1.312500000000000e+01	 8.750000000000000e+00	 1.018398999999838e+00
0	 1.312500000000000e+01	 9.000000000000002e+00	 1.022519199999500e+00
0	 1.312500000000000e+01	 9.250000000000000e+00	 1.026639399999821e+00
0	 1.312500000000000e+01	 9.500000000000000e+00	 1.030759599999701e+00
0	 1.312500000000000e+01	 9.750000000000002e+00	 1.034879799999644e+00
0	 1.312500000000000e+01	 1.000000000000000e+01	 1.038999999999768e+00
0	 1.375000000000000e+01	 7.500000000000000e+00	 8.918719999999383e-01
0	 1.375000000000000e+01	 7.749999999999999e+00	 9.041088000005815e-01
0	 1.375000000000000e+01	 8.000000000000000e+00	 9.163456000000602e-01
0	 1.375000000000000e+01	 8.250000000000002e+00	 9.285823999998746e-01
0	 1.375000000000000e+01	 8.500000000000002e+00	 9.408191999994853e-01
0	 1.375000000000000e+01	 8.750000000000002e+00	 9.530559999992400e-01
0	 1.375000000000000e+01	 9.000000000000002e+00	 9.652928000000187e-01
0	 1.375000000000000e+01	 9.250000000000002e+00	 9.775296000001261e-01
0	 1.375000000000000e+01	 9.500000000000002e+00	 9.897664000000475e-01
0	 1.375000000000000e+01	 9.750000000000002e+00	 1.002003199999702e+00
0	 1.375000000000000e+01	 1.000000000000000e+01	 1.014240000000033e+00
0	 1.437500000000000e+01	 7.499999999999999e+00	 8.052220000001056e-01
0	 1.437500000000000e+01	 7.750000000000001e+00	 8.241518000003438e-01
0	 1.437500000000000e+01	 8.000000000000002e+00	 8.430816000003657e-01
0	 1.437500000000000e+01	 8.250000000000000e+00	 8.620113999998135e-01
0	 1.437500000000000e+01	 8.500000000000002e+00	 8.809412000004503e-01
0	 1.437500000000000e+01	 8.750000000000000e+00	 8.998709999997000e-01
0	 1.437500000000000e+01	 9.000000000000002e+00	 9.188007999996117e-01
0	 1.437500000000000e+01	 9.250000000000002e+00	 9.377305999999465e-01
0	 1.437500000000000e+01	 9.500000000000002e+00	 9.566604000000640e-01
0	 1.437500000000000e+01	 9.750000000000004e+00	 9.755901999995968e-01
0	 1.437500000000000e+01	 1.000000000000000e+01	 9.945199999995319e-01
0	 1.500000000000000e+01	 7.499999999999999e+00	 7.378480000002521e-01
0	 1.500000000000000e+01	 7.750000000000000e+00	 7.620471999999016e-01
0	 1.500000000000000e+01	 8.000000000000000e+00	 7.862464000000902e-01
0	 1.500000000000000e+01	 8.250000000000002e+00	 8.104455999996444e-01
0	 1.500000000000000e+01	 8.500000000000002e+00	 8.346447999996525e-01
0	 1.500000000000000e+01	 8.750000000000002e+00	 8.588439999996569e-01
0	 1.500000000000000e+01	 9.000000000000000e+00	 8.830431999993925e-01
0	 1.500000000000001e+01	 9.250000000000002e+00	 9.072423999989844e-01
0	 1.500000000000000e+01	 9.500000000000002e+00	 9.314415999995536e-01
0	 1.500000000000000e+01	 9.750000000000002e+00	 9.556407999990139e-01
0	 1.500000000000000e+01	 1.000000000000000e+01	 9.798399999997539e-01
0	 1.562500000000000e+01	 7.500000000000000e+00	 6.897499999998223e-01
0	 1.562500000000000e+01	 7.750000000000001e+00	 7.177950000002030e-01
0	 1.562500000000000e+01	 8.000000000000002e+00	 7.458400000001145e-01
0	 1.562500000000000e+01	 8.250000000000000e+00	 7.738849999999162e-01
0	 1.562500000000001e+01	 8.500000000000004e+00	 8.019299999993259e-01
0	 1.562500000000000e+01	 8.750000000000002e+00	 8.299749999999050e-01
0	 1.562500000000000e+01	 9.000000000000002e+00	 8.580200000008401e-01
0	 1.562500000000000e+01	 9.250000000000002e+00	 8.860650000001609e-01
0	 1.562500000000000e+01	 9.500000000000002e+00	 9.141100000000787e-01
0	 1.562500000000000e+01	 9.750000000000000e+00	 9.421549999998382e-01
0	 1.562500000000000e+01	 1.000000000000000e+01	 9.701999999991883e-01
0	 1.625000000000000e+01	 7.499999999999999e+00	 6.609280000001050e-01
0	 1.625000000000000e+01	 7.750000000000000e+00	 6.913952000002921e-01
0	 1.625000000000000e+01	 8.000000000000000e+00	 7.218624000000465e-01
0	 1.625000000000000e+01	 8.250000000000002e+00	 7.523295999996480e-01
0	 1.625000000000000e+01	 8.500000000000000e+00	 7.827967999996601e-01
0	 1.625000000000001e+01	 8.750000000000002e+00	 8.132639999995916e-01
0	 1.625000000000000e+01	 9.000000000000000e+00	 8.437312000002646e-01
0	 1.625000000000001e+01	 9.250000000000004e+00	 8.741983999994143e-01
0	 1.625000000000001e+01	 9.500000000000004e+00	 9.046655999998878e-01
0	 1.625000000000001e+01	 9.750000000000004e+00	 9.351327999998051e-01
0	 1.625000000000000e+01	 1.000000000000000e+01	 9.655999999999666e-01
0	 1.687500000000000e+01	 7.500000000000000e+00	 6.513820000000335e-01
0	 1.687500000000000e+01	 7.750000000000000e+00	 6.828478000000056e-01
0	 1.687500000000000e+01	 8.000000000000000e+00	 7.143136000002436e-01
0	 1.687500000000000e+01	 8.250000000000002e+00	 7.457793999999232e-01
0	 1.687500000000000e+01	 8.500000000000002e+00	 7.772452000003726e-01
0	 1.687500000000000e+01	 8.750000000000002e+00	 8.087109999995549e-01
0	 1.687500000000000e+01	 9.000000000000002e+00	 8.401767999995829e-01
0	 1.687500000000001e+01	 9.250000000000002e+00	 8.716425999994750e-01
0	 1.687500000000001e+01	 9.500000000000002e+00	 9.031083999993894e-01
0	 1.687500000000001e+01	 9.750000000000004e+00	 9.345741999991899e-01
0	 1.687500000000000e+01	 1.000000000000000e+01	 9.660400000001342e-01
0	 1.750000000000000e+01	 7.500000000000000e+00	 6.611119999998747e-01
0	 1.750000000000001e+01	 7.750000000000000e+00	 6.921528000000619e-01
0	 1.750000000000000e+01	 8.000000000000000e+00	 7.231936000001756e-01
0	 1.750000000000001e+01	 8.250000000000000e+00	 7.542344000000681e-01
0	 1.750000000000001e+01	 8.500000000000002e+00	 7.852752000006170e-01
0	 1.750000000000001e+01	 8.750000000000002e+00	 8.163159999998361e-01
0	 1.750000000000001e+01	 9.000000000000002e+00	 8.473567999996237e-01
0	 1.750000000000001e+01	 9.250000000000002e+00	 8.783976000006867e-01
0	 1.750000000000001e+01	 9.500000000000002e+00	 9.094383999990922e-01
0	 1.750000000000001e+01	 9.750000000000000e+00	 9.404791999982416e-01
0	 1.750000000000000e+01	 1.000000000000000e+01	 9.715199999995153e-01
0	 1.812500000000000e+01	 7.500000000000000e+00	 6.901180000003393e-01
0	 1.812500000000000e+01	 7.749999999999998e+00	 7.193101999995724e-01
0	 1.812500000000000e+01	 8.000000000000002e+00	 7.485024000003631e-01
0	 1.812500000000001e+01	 8.250000000000002e+00	 7.776945999995958e-01
0	 1.812500000000001e+01	 8.500000000000000e+00	 8.068868000003976e-01
0	 1.812500000000001e+01	 8.750000000000002e+00	 8.360790000000956e-01
0	 1.812500000000000e+01	 9.000000000000002e+00	 8.652711999998635e-01
0	 1.812500000000001e+01	 9.250000000000002e+00	 8.944633999985661e-01
0	 1.812500000000000e+01	 9.500000000000002e+00	 9.236556000001555e-01
0	 1.812500000000000e+01	 9.750000000000002e+00	 9.528477999993453e-01
0	 1.812500000000001e+01	 1.000000000000000e+01	 9.820399999988186e-01
0	 1.875000000000000e+01	 7.500000000000000e+00	 7.384000000001834e-01
0	 1.875000000000000e+01	 7.750000000000001e+00	 7.643199999999697e-01
0	 1.875000000000000e+01	 8.000000000000002e+00	 7.902400000004127e-01
0	 1.875000000000000e+01	 8.250000000000002e+00	 8.161600000001101e-01
0	 1.875000000000000e+01	 8.500000000000000e+00	 8.420799999999673e-01
0	 1.875000000000000e+01	 8.750000000000000e+00	 8.680000000004994e-01
0	 1.875000000000000e+01	 9.000000000000004e+00	 8.939199999993619e-01
0	 1.875000000000000e+01	 9.250000000000005e+00	 9.198399999988639e-01
0	 1.875000000000000e+01	 9.500000000000000e+00	 9.457600000004617e-01
0	 1.875000000000000e+01	 9.750000000000002e+00	 9.716799999999644e-01
0	 1.875000000000000e+01	 1.000000000000000e+01	 9.976000000001762e-01
0	 1.875000000000000e+01	 0.000000000000000e+00	 2.079999999935467e-02
0	 1.875000000000000e+01	 2.500000000000000e-01	 4.413999999845835e-02
0	 1.875000000000000e+01	 5.000000000000000e-01	 6.747999999937945e-02
0	 1.875000000000000e+01	 7.500000000000001e-01	 9.082000000081966e-02
0	 1.875000000000000e+01	 1.000000000000000e+00	 1.141600000002185e-01
0	 1.875000000000000e+01	 1.250000000000000e+00	 1.374999999999460e-01
0	 1.875000000000000e+01	 1.500000000000000e+00	 1.608399999993360e-01
0	 1.875000000000000e+01	 1.750000000000000e+00	 1.841800000001115e-01
0	 1.875000000000000e+01	 2.000000000000000e+00	 2.075200000000166e-01
0	 1.875000000000000e+01	 2.250000000000000e+00	 2.308600000005966e-01
0	 1.875000000000000e+01	 2.500000000000000e+00	 2.542000000001821e-01
0	 1.937500000000000e+01	 0.000000000000000e+00	-2.352000000382937e-03
0	 1.937500000000000e+01	 2.500000000000000e-01	 1.842339999853163e-02
0	 1.937500000000000e+01	 4.999999999999999e-01	 3.919879999934373e-02
0	 1.937500000000000e+01	 7.500000000000001e-01	 5.997419999985939e-02
0	 1.937500000000000e+01	 1.000000000000000e+00	 8.074960000022260e-02
0	 1.937500000000000e+01	 1.250000000000000e+00	 1.015249999999024e-01
0	 1.937500000000000e+01	 1.500000000000000e+00	 1.223003999997588e-01
0	 1.937500000000000e+01	 1.750000000000000e+00	 1.430758000006583e-01
0	 1.937500000000000e+01	 2.000000000000000e+00	 1.638511999989171e-01
0	 1.937500000000000e+01	 2.250000000000000e+00	 1.846265999999930e-01
0	 1.937500000000000e+01	 2.500000000000000e+00	 2.054020000001877e-01
0	 2.000000000000000e+01	 0.000000000000000e+00	-2.188800000100244e-02
0	 2.000000000000000e+01	 2.500000000000000e-01	-3.310399999677404e-03
0	 2.000000000000000e+01	 5.000000000000000e-01	 1.526719999929013e-02
0	 2.000000000000000e+01	 7.500000000000001e-01	 3.384479999920529e-02
0	 2.000000000000000e+01	 1.000000000000000e+00	 5.242240000023877e-02
0	 2.000000000000000e+01	 1.250000000000000e+00	 7.099999999975458e-02
0	 2.000000000000000e+01	 1.500000000000000e+00	 8.957759999977467e-02
0	 2.000000000000000e+01	 1.750000000000000e+00	 1.081552000001373e-01
0	 2.000000000000000e+01	 2.000000000000000e+00	 1.267328000001732e-01
0	 2.000000000000000e+01	 2.250000000000000e+00	 1.453103999994576e-01
0	 2.000000000000000e+01	 2.500000000000000e+00	 1.638879999998011e-01
0	 2.062500000000001e+01	 0.000000000000000e+00	-3.780800000043882e-02
0	 2.062500000000000e+01	 2.500000000000000e-01	-2.106140000105566e-02
0	 2.062500000000000e+01	 5.000000000000001e-01	-4.314800000560759e-03
0	 2.062500000000000e+01	 7.500000000000002e-01	 1.243179999923688e-02
0	 2.062500000000001e+01	 1.000000000000000e+00	 2.917840000105056e-02
0	 2.062500000000000e+01	 1.250000000000000e+00	 4.592500000020207e-02
0	 2.062500000000000e+01	 1.500000000000000e+00	 6.267160000018623e-02
0	 2.062500000000000e+01	 1.750000000000000e+00	 7.941819999990250e-02
0	 2.062500000000000e+01	 2.000000000000000e+00	 9.616480000036452e-02
0	 2.062500000000000e+01	 2.250000000000000e+00	 1.129114000004064e-01
0	 2.062500000000000e+01	 2.500000000000000e+00	 1.296580000001324e-01
0	 2.125000000000000e+01	 0.000000000000000e+00	-5.011200000133443e-02
0	 2.125000000000000e+01	 2.499999999999999e-01	-3.482959999883369e-02
0	 2.125000000000000e+01	 5.000000000000000e-01	-1.954720000017765e-02
0	 2.125000000000000e+01	 7.500000000000001e-01	-4.264799999389711e-03
0	 2.125000000000000e+01	 1.000000000000000e+00	 1.101760000112583e-02
0	 2.125000000000000e+01	 1.250000000000000e+00	 2.629999999950172e-02
0	 2.125000000000000e+01	 1.500000000000000e+00	 4.158239999894978e-02
0	 2.125000000000000e+01	 1.750000000000000e+00	 5.686480000015591e-02
0	 2.125000000000000e+01	 2.000000000000000e+00	 7.214720000019124e-02
0	 2.125000000000001e+01	 2.250000000000000e+00	 8.742960000009960e-02
0	 2.125000000000001e+01	 2.500000000000000e+00	 1.027120000003378e-01
0	 2.187500000000000e+01	 0.000000000000000e+00	-5.880000000111352e-02
0	 2.187500000000000e+01	 2.499999999999999e-01	-4.461499999898521e-02
0	 2.187500000000000e+01	 5.000000000000000e-01	-3.042999999964694e-02
0	 2.187500000000000e+01	 7.500000000000000e-01	-1.624500000056855e-02
0	 2.187500000000000e+01	 9.999999999999998e-01	-2.060000001003236e-03
0	 2.187500000000000e+01	 1.250000000000000e+00	 1.212499999976302e-02
0	 2.187500000000000e+01	 1.500000000000000e+00	 2.630999999972215e-02
0	 2.187500000000000e+01	 1.750000000000000e+00	 4.049500000017190e-02
0	 2.187500000000000e+01	 2.000000000000000e+00	 5.467999999992542e-02
0	 2.187500000000001e+01	 2.250000000000000e+00	 6.886500000118434e-02
0	 2.187500000000000e+01	 2.500000000000000e+00	 8.304999999992903e-02
0	 2.250000000000000e+01	 0.000000000000000e+00	-6.387199999977611e-02
0	 2.250000000000000e+01	 2.499999999999999e-01	-5.041760000075174e-02
0	 2.250000000000001e+01	 5.000000000000001e-01	-3.696320000043381e-02
0	 2.250000000000000e+01	 7.500000000000001e-01	-2.350880000122749e-02
0	 2.250000000000001e+01	 1.000000000000000e+00	-1.005439999967716e-02
0	 2.250000000000000e+01	 1.250000000000000e+00	 3.399999999498249e-03
0	 2.250000000000000e+01	 1.500000000000000e+00	 1.685440000011006e-02
0	 2.250000000000001e+01	 1.750000000000000e+00	 3.030879999953019e-02
0	 2.250000000000001e+01	 2.000000000000000e+00	 4.376319999910822e-02
0	 2.250000000000001e+01	 2.250000000000000e+00	 5.721759999959471e-02
0	 2.250000000000000e+01	 2.500000000000000e+00	 7.067199999948316e-02
0	 2.312500000000001e+01	 0.000000000000000e+00	-6.532800000016438e-02
0	 2.312500000000001e+01	 2.500000000000000e-01	-5.223740000012720e-02
0	 2.312500000000000e+01	 5.000000000000001e-01	-3.914679999965597e-02
0	 2.312500000000000e+01	 7.500000000000001e-01	-2.605619999961124e-02
0	 2.312500000000000e+01	 1.000000000000000e+00	-1.296560000036668e-02
0	 2.312500000000000e+01	 1.250000000000000e+00	 1.249999998620410e-04
0	 2.312500000000000e+01	 1.500000000000000e+00	 1.321560000072629e-02
0	 2.312500000000000e+01	 1.750000000000000e+00	 2.630619999984962e-02
0	 2.312500000000001e+01	 2.000000000000000e+00	 3.939680000009105e-02
0	 2.312500000000001e+01	 2.250000000000000e+00	 5.248739999963447e-02
0	 2.312500000000001e+01	 2.500000000000000e+00	 6.557799999988845e-02
0	 2.375000000000001e+01	 0.000000000000000e+00	-6.316800000121248e-02
0	 2.375000000000001e+01	 2.499999999999999e-01	-5.007439999826299e-02
0	 2.375000000000001e+01	 5.000000000000000e-01	-3.698079999971061e-02
0	 2.375000000000001e+01	 7.500000000000001e-01	-2.388719999970229e-02
0	 2.375000000000001e+01	 1.000000000000000e+00	-1.079360000028785e-02
0	 2.375000000000001e+01	 1.250000000000000e+00	 2.299999999522129e-03
0	 2.375000000000000e+01	 1.500000000000000e+00	 1.539360000011062e-02
0	 2.375000000000001e+01	 1.750000000000000e+00	 2.848719999963329e-02
0	 2.375000000000001e+01	 2.000000000000000e+00	 4.158080000072020e-02
0	 2.375000000000001e+01	 2.250000000000000e+00	 5.467440000091386e-02
0	 2.375000000000000e+01	 2.500000000000000e+00	 6.776799999954621e-02
0	 2.437500000000001e+01	 0.000000000000000e+00	-5.739200000078881e-02
0	 2.437500000000001e+01	 2.500000000000000e-01	-4.392860000010347e-02
0	 2.437500000000000e+01	 4.999999999999999e-01	-3.046519999834140e-02
0	 2.437500000000001e+01	 7.500000000000001e-01	-1.700180000037544e-02
0	 2.437500000000001e+01	 1.000000000000000e+00	-3.538400001097987e-03
0	 2.437500000000000e+01	 1.250000000000000e+00	 9.924999999810780e-03
0	 2.437500000000001e+01	 1.500000000000000e+00	 2.338840000036427e-02
0	 2.437500000000001e+01	 1.750000000000000e+00	 3.685179999860716e-02
0	 2.437500000000001e+01	 2.000000000000000e+00	 5.031519999911668e-02
0	 2.437500000000001e+01	 2.250000000000000e+00	 6.377859999975447e-02
0	 2.437500000000001e+01	 2.500000000000000e+00	 7.724200000041037e-02
0	 2.500000000000000e+01	 0.000000000000000e+00	-4.800000000102501e-02
0	 2.500000000000000e+01	 2.500000000000000e-01	-3.380000000156742e-02
0	 2.500000000000000e+01	 5.000000000000000e-01	-1.960000000035895e-02
0	 2.500000000000000e+01	 7.500000000000001e-01	-5.399999999270830e-03
0	 2.500000000000000e+01	 1.000000000000000e+00	 8.800000000645278e-03
0	 2.500000000000000e+01	 1.250000000000000e+00	 2.300000000019509e-02
0	 2.500000000000000e+01	 1.500000000000000e+00	 3.719999999987066e-02
0	 2.500000000000000e+01	 1.750000000000000e+00	 5.139999999954626e-02
0	 2.500000000000000e+01	 2.000000000000000e+00	 6.560000000147925e-02
0	 2.500000000000000e+01	 2.250000000000000e+00	 7.980000000044431e-02
0	 2.500000000000000e+01	 2.500000000000000e+00	 9.399999999999410e-02
0	 1.875000000000000e+01	 2.500000000000000e+00	 2.542000000001821e-01
0	 1.875000000000000e+01	 2.750000000000000e+00	 2.782000000002683e-01
0	 1.875000000000000e+01	 3.000000000000001e+00	 3.021999999999637e-01
0	 1.875000000000000e+01	 3.250000000000001e+00	 3.262000000003784e-01
0	 1.875000000000000e+01	 3.500000000000001e+00	 3.502000000000825e-01
0	 1.875000000000000e+01	 3.750000000000001e+00	 3.742000000002398e-01
0	 1.875000000000000e+01	 4.000000000000001e+00	 3.981999999995445e-01
0	 1.875000000000000e+01	 4.250000000000002e+00	 4.221999999998617e-01
0	 1.875000000000000e+01	 4.500000000000003e+00	 4.461999999996636e-01
0	 1.875000000000000e+01	 4.750000000000002e+00	 4.701999999998208e-01
0	 1.875000000000000e+01	 5.000000000000000e+00	 4.941999999996228e-01
0	 1.937500000000000e+01	 2.500000000000000e+00	 2.054020000001877e-01
0	 1.937500000000000e+01	 2.750000000000000e+00	 2.344640000003125e-01
0	 1.937500000000000e+01	 3.000000000000000e+00	 2.635260000002406e-01
0	 1.937500000000000e+01	 3.250000000000001e+00	 2.925880000003476e-01
0	 1.937500000000000e+01	 3.500000000000001e+00	 3.216500000005330e-01
0	 1.937500000000000e+01	 3.750000000000001e+00	 3.507119999998615e-01
0	 1.937500000000000e+01	 4.000000000000002e+00	 3.797739999996650e-01
0	 1.937500000000000e+01	 4.250000000000001e+00	 4.088359999994517e-01
0	 1.937500000000001e+01	 4.500000000000002e+00	 4.378979999999534e-01
0	 1.937500000000000e+01	 4.750000000000003e+00	 4.669600000001241e-01
0	 1.937500000000000e+01	 5.000000000000000e+00	 4.960219999991800e-01
0	 2.000000000000000e+01	 2.500000000000000e+00	 1.638879999998011e-01
0	 2.000000000000001e+01	 2.750000000000000e+00	 1.972560000005761e-01
0	 2.000000000000000e+01	 3.000000000000001e+00	 2.306240000000156e-01
0	 2.000000000000000e+01	 3.250000000000000e+00	 2.639919999995927e-01
0	 2.000000000000000e+01	 3.500000000000001e+00	 2.973599999995707e-01
0	 2.000000000000000e+01	 3.750000000000001e+00	 3.307279999997027e-01
0	 2.000000000000000e+01	 4.000000000000001e+00	 3.640959999995619e-01
0	 2.000000000000000e+01	 4.250000000000002e+00	 3.974639999998918e-01
0	 2.000000000000000e+01	 4.500000000000002e+00	 4.308319999996924e-01
0	 2.000000000000000e+01	 4.750000000000003e+00	 4.641999999994927e-01
0	 2.000000000000000e+01	 5.000000000000000e+00	 4.975680000000038e-01
0	 2.062500000000000e+01	 2.500000000000000e+00	 1.296580000001324e-01
0	 2.062500000000000e+01	 2.750000000000000e+00	 1.665760000004335e-01
0	 2.062500000000001e+01	 3.000000000000001e+00	 2.034940000004797e-01
0	 2.062500000000000e+01	 3.250000000000000e+00	 2.404119999999309e-01
0	 2.062500000000000e+01	 3.500000000000000e+00	 2.773299999997055e-01
0	 2.062500000000000e+01	 3.750000000000001e+00	 3.142480000002263e-01
0	 2.062500000000000e+01	 4.000000000000002e+00	 3.511659999997108e-01
0	 2.062500000000000e+01	 4.250000000000002e+00	 3.880839999990441e-01
0	 2.062500000000000e+01	 4.500000000000002e+00	 4.250019999992263e-01
0	 2.062500000000000e+01	 4.750000000000001e+00	 4.619199999997705e-01
0	 2.062500000000000e+01	 5.000000000000000e+00	 4.988379999992352e-01
0	 2.125000000000001e+01	 2.500000000000000e+00	 1.027120000003378e-01
0	 2.125000000000000e+01	 2.750000000000000e+00	 1.424240000004280e-01
0	 2.125000000000001e+01	 3.000000000000001e+00	 1.821360000001127e-01
0	 2.125000000000000e+01	 3.250000000000000e+00	 2.218479999998253e-01
0	 2.125000000000000e+01	 3.500000000000000e+00	 2.615600000003923e-01
0	 2.125000000000000e+01	 3.750000000000001e+00	 3.012719999998748e-01
0	 2.125000000000000e+01	 4.000000000000002e+00	 3.409839999997999e-01
0	 2.125000000000001e+01	 4.250000000000003e+00	 3.806959999993852e-01
0	 2.125000000000000e+01	 4.500000000000001e+00	 4.204079999996502e-01
0	 2.125000000000000e+01	 4.750000000000003e+00	 4.601199999995309e-01
0	 2.125000000000001e+01	 5.000000000000000e+00	 4.998319999994117e-01
0	 2.187500000000000e+01	 2.500000000000000e+00	 8.304999999992903e-02
0	 2.187500000000001e+01	 2.750000000000000e+00	 1.247999999998043e-01
0	 2.187500000000000e+01	 3.000000000000000e+00	 1.665499999994991e-01
0	 2.187500000000000e+01	 3.250000000000000e+00	 2.083000000003015e-01
0	 2.187500000000000e+01	 3.500000000000001e+00	 2.500500000000671e-01
0	 2.187500000000000e+01	 3.750000000000001e+00	 2.917999999998422e-01
0	 2.187500000000000e+01	 4.000000000000002e+00	 3.335499999998602e-01
0	 2.187500000000001e+01	 4.250000000000002e+00	 3.752999999997319e-01
0	 2.187500000000000e+01	 4.500000000000002e+00	 4.170499999989635e-01
0	 2.187500000000000e+01	 4.750000000000002e+00	 4.588000000003460e-01
0	 2.187500000000000e+01	 5.000000000000000e+00	 5.005499999990448e-01
0	 2.250000000000000e+01	 2.500000000000000e+00	 7.067199999948316e-02
0	 2.250000000000001e+01	 2.750000000000000e+00	 1.137040000005866e-01
0	 2.250000000000000e+01	 3.000000000000000e+00	 1.567359999993842e-01
0	 2.250000000000001e+01	 3.250000000000000e+00	 1.997680000003189e-01
0	 2.250000000000000e+01	 3.500000000000001e+00	 2.427999999992775e-01
0	 2.250000000000000e+01	 3.750000000000001e+00	 2.858320000001260e-01
0	 2.250000000000000e+01	 4.000000000000002e+00	 3.288639999993734e-01
0	 2.250000000000001e+01	 4.250000000000003e+00	 3.718959999998870e-01
0	 2.250000000000000e+01	 4.500000000000004e+00	 4.149279999995572e-01
0	 2.250000000000000e+01	 4.750000000000002e+00	 4.579599999993375e-01
0	 2.250000000000000e+01	 4.999999999999999e+00	 5.009919999995560e-01
0	 2.312500000000001e+01	 2.500000000000000e+00	 6.557799999988845e-02
0	 2.312500000000000e+01	 2.750000000000000e+00	 1.091359999999162e-01
0	 2.312500000000001e+01	 3.000000000000001e+00	 1.526940000004642e-01
0	 2.312500000000000e+01	 3.250000000000000e+00	 1.962520000001015e-01
0	 2.312500000000001e+01	 3.500000000000001e+00	 2.398099999991803e-01
0	 2.312500000000001e+01	 3.750000000000001e+00	 2.833680000002714e-01
0	 2.312500000000000e+01	 4.000000000000001e+00	 3.269259999989683e-01
0	 2.312500000000000e+01	 4.250000000000002e+00	 3.704840000001042e-01
0	 2.312500000000000e+01	 4.500000000000002e+00	 4.140420000004410e-01
0	 2.312500000000001e+01	 4.750000000000002e+00	 4.575999999995699e-01
0	 2.312500000000001e+01	 5.000000000000000e+00	 5.011579999994353e-01
0	 2.375000000000000e+01	 2.500000000000000e+00	 6.776799999954621e-02
0	 2.375000000000001e+01	 2.750000000000000e+00	 1.110960000014219e-01
0	 2.375000000000000e+01	 3.000000000000000e+00	 1.544239999996104e-01
0	 2.375000000000000e+01	 3.250000000000001e+00	 1.977520000002754e-01
0	 2.375000000000000e+01	 3.500000000000000e+00	 2.410799999994027e-01
0	 2.375000000000000e+01	 3.750000000000001e+00	 2.844079999994701e-01
0	 2.375000000000000e+01	 4.000000000000003e+00	 3.277359999993074e-01
0	 2.375000000000001e+01	 4.250000000000002e+00	 3.710639999997767e-01
0	 2.375000000000001e+01	 4.500000000000002e+00	 4.143920000001570e-01
0	 2.375000000000001e+01	 4.750000000000002e+00	 4.577199999997230e-01
0	 2.375000000000000e+01	 5.000000000000000e+00	 5.010479999999262e-01
0	 2.437500000000001e+01	 2.500000000000000e+00	 7.724200000041037e-02
0	 2.437500000000001e+01	 2.750000000000000e+00	 1.195839999992558e-01
0	 2.437500000000001e+01	 3.000000000000001e+00	 1.619260000002107e-01
0	 2.437500000000000e+01	 3.250000000000000e+00	 2.042679999991804e-01
0	 2.437500000000000e+01	 3.500000000000000e+00	 2.466099999996761e-01
0	 2.437500000000000e+01	 3.750000000000000e+00	 2.889520000001481e-01
0	 2.437500000000000e+01	 4.000000000000001e+00	 3.312939999997155e-01
0	 2.437500000000000e+01	 4.250000000000002e+00	 3.736360000000008e-01
0	 2.437500000000000e+01	 4.500000000000002e+00	 4.159779999998392e-01
0	 2.437500000000001e+01	 4.750000000000003e+00	 4.583199999987256e-01
0	 2.437500000000001e+01	 5.000000000000000e+00	 5.006619999996075e-01
0	 2.500000000000000e+01	 2.500000000000000e+00	 9.399999999999410e-02
0	 2.500000000000000e+01	 2.750000000000000e+00	 1.345999999987876e-01
0	 2.500000000000000e+01	 3.000000000000001e+00	 1.752000000002159e-01
0	 2.500000000000000e+01	 3.250000000000001e+00	 2.157999999999660e-01
0	 2.500000000000000e+01	 3.500000000000001e+00	 2.564000000003748e-01
0	 2.500000000000000e+01	 3.750000000000001e+00	 2.970000000001878e-01
0	 2.500000000000000e+01	 4.000000000000001e+00	 3.375999999992274e-01
0	 2.500000000000000e+01	 4.250000000000002e+00	 3.781999999993957e-01
0	 2.500000000000000e+01	 4.500000000000003e+00	 4.187999999999193e-01
0	 2.500000000000000e+01	 4.750000000000002e+00	 4.594000000005686e-01
0	 2.500000000000000e+01	 5.000000000000000e+00	 4.999999999995453e-01
0	 1.875000000000000e+01	 5.000000000000000e+00	 4.941999999996228e-01
0	 1.875000000000000e+01	 5.250000000000000e+00	 5.186199999997321e-01
0	 1.875000000000000e+01	 5.500000000000001e+00	 5.430399999994507e-01
0	 1.875000000000000e+01	 5.750000000000002e+00	 5.674599999998886e-01
0	 1.875000000000000e+01	 6.000000000000001e+00	 5.918800000003265e-01
0	 1.875000000000000e+01	 6.250000000000001e+00	 6.163000000002404e-01
0	 1.875000000000000e+01	 6.500000000000001e+00	 6.407199999994796e-01
0	 1.875000000000000e+01	 6.750000000000002e+00	 6.651399999999088e-01
0	 1.875000000000000e+01	 7.000000000000003e+00	 6.895600000003556e-01
0	 1.875000000000000e+01	 7.250000000000002e+00	 7.139800000000919e-01
0	 1.875000000000000e+01	 7.500000000000000e+00	 7.384000000001834e-01
0	 1.937500000000000e+01	 5.000000000000000e+00	 4.960219999991800e-01
0	 1.937500000000000e+01	 5.250000000000000e+00	 5.256482000002117e-01
0	 1.937500000000000e+01	 5.499999999999999e+00	 5.552743999996257e-01
0	 1.937500000000000e+01	 5.750000000000000e+00	 5.849006000001515e-01
0	 1.937500000000000e+01	 6.000000000000002e+00	 6.145268000003136e-01
0	 1.937500000000000e+01	 6.250000000000001e+00	 6.441529999997945e-01
0	 1.937500000000000e+01	 6.500000000000002e+00	 6.737791999999313e-01
0	 1.937500000000000e+01	 6.750000000000001e+00	 7.034053999996904e-01
0	 1.937500000000001e+01	 7.000000000000003e+00	 7.330316000005220e-01
0	 1.937500000000000e+01	 7.250000000000002e+00	 7.626578000006733e-01
0	 1.937500000000000e+01	 7.500000000000000e+00	 7.922840000004150e-01
0	 2.000000000000000e+01	 5.000000000000000e+00	 4.975680000000038e-01
0	 2.000000000000001e+01	 5.250000000000002e+00	 5.316207999998382e-01
0	 2.000000000000000e+01	 5.500000000000002e+00	 5.656735999997584e-01
0	 2.000000000000000e+01	 5.750000000000000e+00	 5.997263999993747e-01
0	 2.000000000000000e+01	 6.000000000000001e+00	 6.337791999993974e-01
0	 2.000000000000000e+01	 6.250000000000003e+00	 6.678319999995687e-01
0	 2.000000000000000e+01	 6.500000000000002e+00	 7.018847999996559e-01
0	 2.000000000000000e+01	 6.750000000000003e+00	 7.359375999998362e-01
0	 2.000000000000000e+01	 7.000000000000002e+00	 7.699904000002087e-01
0	 2.000000000000000e+01	 7.250000000000003e+00	 8.040432000002484e-01
0	 2.000000000000000e+01	 7.500000000000000e+00	 8.380960000002660e-01
0	 2.062500000000000e+01	 5.000000000000000e+00	 4.988379999992352e-01
0	 2.062500000000000e+01	 5.249999999999999e+00	 5.365377999993692e-01
0	 2.062500000000001e+01	 5.500000000000001e+00	 5.742376000000032e-01
0	 2.062500000000000e+01	 5.750000000000001e+00	 6.119373999994481e-01
0	 2.062500000000000e+01	 6.000000000000001e+00	 6.496371999995606e-01
0	 2.062500000000000e+01	 6.250000000000003e+00	 6.873370000001974e-01
0	 2.062500000000000e+01	 6.500000000000001e+00	 7.250367999992869e-01
0	 2.062500000000000e+01	 6.750000000000003e+00	 7.627365999993135e-01
0	 2.062500000000000e+01	 7.000000000000001e+00	 8.004363999998336e-01
0	 2.062500000000000e+01	 7.250000000000001e+00	 8.381361999999606e-01
0	 2.062500000000000e+01	 7.499999999999999e+00	 8.758360000001189e-01
0	 2.125000000000001e+01	 5.000000000000000e+00	 4.998319999994117e-01
0	 2.125000000000000e+01	 5.250000000000000e+00	 5.403991999995512e-01
0	 2.125000000000001e+01	 5.500000000000001e+00	 5.809663999995517e-01
0	 2.125000000000000e+01	 5.750000000000000e+00	 6.215335999994138e-01
0	 2.125000000000000e+01	 6.000000000000000e+00	 6.621008000002414e-01
0	 2.125000000000000e+01	 6.250000000000002e+00	 7.026680000001396e-01
0	 2.125000000000000e+01	 6.500000000000003e+00	 7.432351999999920e-01
0	 2.125000000000001e+01	 6.750000000000002e+00	 7.838023999997711e-01
0	 2.125000000000000e+01	 7.000000000000001e+00	 8.243695999999187e-01
0	 2.125000000000000e+01	 7.250000000000003e+00	 8.649367999997715e-01
0	 2.125000000000001e+01	 7.499999999999999e+00	 9.055040000002460e-01
0	 2.187500000000000e+01	 5.000000000000000e+00	 5.005499999990448e-01
0	 2.187500000000001e+01	 5.250000000000002e+00	 5.432049999993929e-01
0	 2.187500000000000e+01	 5.500000000000001e+00	 5.858599999992943e-01
0	 2.187500000000000e+01	 5.750000000000001e+00	 6.285150000001033e-01
0	 2.187500000000000e+01	 6.000000000000002e+00	 6.711699999998758e-01
0	 2.187500000000000e+01	 6.250000000000002e+00	 7.138250000002344e-01
0	 2.187500000000000e+01	 6.500000000000001e+00	 7.564799999996374e-01
0	 2.187500000000001e+01	 6.750000000000003e+00	 7.991349999998706e-01
0	 2.187500000000000e+01	 7.000000000000003e+00	 8.417899999991980e-01
0	 2.187500000000000e+01	 7.250000000000001e+00	 8.844450000003204e-01
0	 2.187500000000000e+01	 7.500000000000000e+00	 9.271000000000029e-01
0	 2.250000000000000e+01	 4.999999999999999e+00	 5.009919999995560e-01
0	 2.250000000000001e+01	 5.250000000000001e+00	 5.449552000001916e-01
0	 2.250000000000000e+01	 5.500000000000001e+00	 5.889183999994094e-01
0	 2.250000000000001e+01	 5.750000000000001e+00	 6.328815999999874e-01
0	 2.250000000000000e+01	 6.000000000000001e+00	 6.768447999994324e-01
0	 2.250000000000000e+01	 6.250000000000000e+00	 7.208079999997020e-01
0	 2.250000000000000e+01	 6.500000000000001e+00	 7.647711999993476e-01
0	 2.250000000000001e+01	 6.750000000000003e+00	 8.087343999996376e-01
0	 2.250000000000000e+01	 7.000000000000001e+00	 8.526975999997948e-01
0	 2.250000000000000e+01	 7.250000000000001e+00	 8.966607999998840e-01
0	 2.250000000000000e+01	 7.499999999999999e+00	 9.406240000002343e-01
0	 2.312500000000001e+01	 5.000000000000000e+00	 5.011579999994353e-01
0	 2.312500000000000e+01	 5.249999999999999e+00	 5.456497999993658e-01
0	 2.312500000000001e+01	 5.500000000000002e+00	 5.901416000001718e-01
0	 2.312500000000000e+01	 5.750000000000001e+00	 6.346333999998892e-01
0	 2.312500000000001e+01	 6.000000000000002e+00	 6.791251999992258e-01
0	 2.312500000000001e+01	 6.250000000000001e+00	 7.236169999999533e-01
0	 2.312500000000000e+01	 6.500000000000001e+00	 7.681087999989966e-01
0	 2.312500000000000e+01	 6.750000000000002e+00	 8.126005999999463e-01
0	 2.312500000000000e+01	 7.000000000000002e+00	 8.570924000009853e-01
0	 2.312500000000001e+01	 7.250000000000002e+00	 9.015841999999279e-01
0	 2.312500000000001e+01	 7.500000000000000e+00	 9.460759999999622e-01
0	 2.375000000000000e+01	 5.000000000000000e+00	 5.010479999999262e-01
0	 2.375000000000001e+01	 5.250000000000001e+00	 5.452888000005444e-01
0	 2.375000000000000e+01	 5.500000000000001e+00	 5.895295999992515e-01
0	 2.375000000000000e+01	 5.750000000000000e+00	 6.337703999997690e-01
0	 2.375000000000000e+01	 6.000000000000000e+00	 6.780111999993709e-01
0	 2.375000000000000e+01	 6.250000000000002e+00	 7.222519999994683e-01
0	 2.375000000000000e+01	 6.500000000000003e+00	 7.664927999993361e-01
0	 2.375000000000001e+01	 6.750000000000003e+00	 8.107336000001907e-01
0	 2.375000000000001e+01	 7.000000000000003e+00	 8.549744000007788e-01
0	 2.375000000000001e+01	 7.250000000000003e+00	 8.992151999998421e-01
0	 2.375000000000000e+01	 7.500000000000000e+00	 9.434559999998979e-01
0	 2.437500000000001e+01	 5.000000000000000e+00	 5.006619999996075e-01
0	 2.437500000000001e+01	 5.250000000000001e+00	 5.438721999996781e-01
0	 2.437500000000001e+01	 5.500000000000001e+00	 5.870823999997264e-01
0	 2.437500000000000e+01	 5.750000000000000e+00	 6.302925999987664e-01
0	 2.437500000000000e+01	 6.000000000000000e+00	 6.735028000000430e-01
0	 2.437500000000000e+01	 6.249999999999999e+00	 7.167129999996971e-01
0	 2.437500000000000e+01	 6.500000000000001e+00	 7.599232000000457e-01
0	 2.437500000000000e+01	 6.750000000000001e+00	 8.031334000000456e-01
0	 2.437500000000000e+01	 7.000000000000003e+00	 8.463435999995994e-01
0	 2.437500000000001e+01	 7.250000000000003e+00	 8.895537999989116e-01
0	 2.437500000000001e+01	 7.500000000000000e+00	 9.327640000002191e-01
0	 2.500000000000000e+01	 5.000000000000000e+00	 4.999999999995453e-01
0	 2.500000000000000e+01	 5.250000000000000e+00	 5.413999999992498e-01
0	 2.500000000000000e+01	 5.500000000000001e+00	 5.827999999998130e-01
0	 2.500000000000000e+01	 5.750000000000002e+00	 6.241999999996752e-01
0	 2.500000000000000e+01	 6.000000000000001e+00	 6.656000000003732e-01
0	 2.500000000000000e+01	 6.250000000000001e+00	 7.069999999999428e-01
0	 2.500000000000000e+01	 6.500000000000001e+00	 7.483999999998048e-01
0	 2.500000000000000e+01	 6.750000000000002e+00	 7.897999999997297e-01
0	 2.500000000000000e+01	 7.000000000000003e+00	 8.312000000003650e-01
0	 2.500000000000000e+01	 7.250000000000002e+00	 8.726000000004155e-01
0	 2.500000000000000e+01	 7.500000000000000e+00	 9.140000000002146e-01
0	 1.875000000000000e+01	 7.500000000000000e+00	 7.384000000001834e-01
0	 1.875000000000000e+01	 7.750000000000001e+00	 7.643199999999697e-01
0	 1.875000000000000e+01	 8.000000000000002e+00	 7.902400000004127e-01
0	 1.875000000000000e+01	 8.250000000000002e+00	 8.161600000001101e-01
0	 1.875000000000000e+01	 8.500000000000000e+00	 8.420799999999673e-01
0	 1.875000000000000e+01	 8.750000000000000e+00	 8.680000000004994e-01
0	 1.875000000000000e+01	 9.000000000000004e+00	 8.939199999993619e-01
0	 1.875000000000000e+01	 9.250000000000005e+00	 9.198399999988639e-01
0	 1.875000000000000e+01	 9.500000000000000e+00	 9.457600000004617e-01
0	 1.875000000000000e+01	 9.750000000000002e+00	 9.716799999999644e-01
0	 1.875000000000000e+01	 1.000000000000000e+01	 9.976000000001762e-01
0	 1.937500000000000e+01	 7.500000000000000e+00	 7.922840000004150e-01
0	 1.937500000000000e+01	 7.750000000000000e+00	 8.144892000001683e-01
0	 1.937500000000000e+01	 8.000000000000000e+00	 8.366944000000632e-01
0	 1.937500000000000e+01	 8.250000000000000e+00	 8.588996000002167e-01
0	 1.937500000000000e+01	 8.500000000000002e+00	 8.811048000002870e-01
0	 1.937500000000000e+01	 8.750000000000000e+00	 9.033100000007200e-01
0	 1.937500000000000e+01	 9.000000000000002e+00	 9.255151999989971e-01
0	 1.937500000000000e+01	 9.250000000000000e+00	 9.477204000007543e-01
0	 1.937500000000000e+01	 9.500000000000000e+00	 9.699255999997987e-01
0	 1.937500000000000e+01	 9.750000000000002e+00	 9.921308000006566e-01
0	 1.937500000000000e+01	 1.000000000000000e+01	 1.014335999999916e+00
0	 2.000000000000000e+01	 7.500000000000000e+00	 8.380960000002660e-01
0	 2.000000000000000e+01	 7.749999999999999e+00	 8.571248000006390e-01
0	 2.000000000000000e+01	 8.000000000000000e+00	 8.761535999998945e-01
0	 2.000000000000000e+01	 8.250000000000002e+00	 8.951823999996088e-01
0	 2.000000000000000e+01	 8.500000000000002e+00	 9.142111999996181e-01
0	 2.000000000000000e+01	 8.750000000000002e+00	 9.332400000000983e-01
0	 2.000000000000000e+01	 9.000000000000002e+00	 9.522688000000847e-01
0	 2.000000000000000e+01	 9.250000000000002e+00	 9.712976000002090e-01
0	 2.000000000000000e+01	 9.500000000000002e+00	 9.903263999989483e-01
0	 2.000000000000000e+01	 9.750000000000002e+00	 1.009355199999851e+00
0	 2.000000000000000e+01	 1.000000000000000e+01	 1.028383999999338e+00
0	 2.062500000000000e+01	 7.499999999999999e+00	 8.758360000001189e-01
0	 2.062500000000000e+01	 7.750000000000001e+00	 8.922267999996908e-01
0	 2.062500000000000e+01	 8.000000000000002e+00	 9.086176000003273e-01
0	 2.062500000000000e+01	 8.250000000000000e+00	 9.250084000001506e-01
0	 2.062500000000000e+01	 8.500000000000002e+00	 9.413992000004977e-01
0	 2.062500000000000e+01	 8.750000000000000e+00	 9.577899999999203e-01
0	 2.062500000000000e+01	 9.000000000000002e+00	 9.741807999998844e-01
0	 2.062500000000000e+01	 9.250000000000002e+00	 9.905715999999088e-01
0	 2.062500000000000e+01	 9.500000000000002e+00	 1.006962400000066e+00
0	 2.062500000000000e+01	 9.750000000000004e+00	 1.023353200000439e+00
0	 2.062500000000001e+01	 1.000000000000000e+01	 1.039743999999132e+00
0	 2.125000000000001e+01	 7.499999999999999e+00	 9.055040000002460e-01
0	 2.125000000000001e+01	 7.750000000000000e+00	 9.197952000008883e-01
0	 2.125000000000000e+01	 8.000000000000000e+00	 9.340864000001670e-01
0	 2.125000000000000e+01	 8.250000000000002e+00	 9.483775999997069e-01
0	 2.125000000000001e+01	 8.500000000000002e+00	 9.626688000010664e-01
0	 2.125000000000001e+01	 8.750000000000002e+00	 9.769600000002017e-01
0	 2.125000000000000e+01	 9.000000000000000e+00	 9.912511999992570e-01
0	 2.125000000000000e+01	 9.250000000000002e+00	 1.005542399998957e+00
0	 2.125000000000000e+01	 9.500000000000002e+00	 1.019833600001676e+00
0	 2.125000000000000e+01	 9.750000000000002e+00	 1.034124799999426e+00
0	 2.125000000000000e+01	 1.000000000000000e+01	 1.048416000000784e+00
0	 2.187500000000000e+01	 7.500000000000000e+00	 9.271000000000029e-01
0	 2.187500000000001e+01	 7.750000000000001e+00	 9.398299999993531e-01
0	 2.187500000000000e+01	 8.000000000000002e+00	 9.525599999998798e-01
0	 2.187500000000000e+01	 8.250000000000000e+00	 9.652900000001322e-01
0	 2.187500000000001e+01	 8.500000000000004e+00	 9.780200000000683e-01
0	 2.187500000000000e+01	 8.750000000000002e+00	 9.907499999997069e-01
0	 2.187500000000000e+01	 9.000000000000002e+00	 1.003479999999968e+00
0	 2.187500000000000e+01	 9.250000000000002e+00	 1.016209999999047e+00
0	 2.187500000000001e+01	 9.500000000000002e+00	 1.028939999999423e+00
0	 2.187500000000000e+01	 9.750000000000000e+00	 1.041670000000071e+00
0	 2.187500000000000e+01	 1.000000000000000e+01	 1.054399999999944e+00
0	 2.250000000000000e+01	 7.499999999999999e+00	 9.406240000002343e-01
0	 2.250000000000001e+01	 7.750000000000000e+00	 9.523311999997156e-01
0	 2.250000000000000e+01	 8.000000000000000e+00	 9.640383999998398e-01
0	 2.250000000000001e+01	 8.250000000000002e+00	 9.757456000005545e-01
0	 2.250000000000000e+01	 8.500000000000000e+00	 9.874527999998307e-01
0	 2.250000000000000e+01	 8.750000000000002e+00	 9.991600000016229e-01
0	 2.250000000000000e+01	 9.000000000000000e+00	 1.010867200000931e+00
0	 2.250000000000001e+01	 9.250000000000004e+00	 1.022574399999369e+00
0	 2.250000000000001e+01	 9.500000000000004e+00	 1.034281599998599e+00
0	 2.250000000000000e+01	 9.750000000000004e+00	 1.045988799998493e+00
0	 2.250000000000000e+01	 1.000000000000000e+01	 1.057695999999453e+00
0	 2.312500000000001e+01	 7.500000000000000e+00	 9.460759999999622e-01
0	 2.312500000000001e+01	 7.750000000000000e+00	 9.572988000000078e-01
0	 2.312500000000000e+01	 8.000000000000000e+00	 9.685216000005094e-01
0	 2.312500000000000e+01	 8.250000000000002e+00	 9.797443999997485e-01
0	 2.312500000000000e+01	 8.500000000000002e+00	 9.909671999996982e-01
0	 2.312500000000001e+01	 8.750000000000002e+00	 1.002189999999737e+00
0	 2.312500000000001e+01	 9.000000000000002e+00	 1.013412799998416e+00
0	 2.312500000000001e+01	 9.250000000000002e+00	 1.024635600000933e+00
0	 2.312500000000000e+01	 9.500000000000002e+00	 1.035858399999789e+00
0	 2.312500000000000e+01	 9.750000000000004e+00	 1.047081199997758e+00
0	 2.312500000000001e+01	 1.000000000000000e+01	 1.058304000000731e+00
0	 2.375000000000000e+01	 7.500000000000000e+00	 9.434559999998979e-01
0	 2.375000000000001e+01	 7.750000000000000e+00	 9.547327999997542e-01
0	 2.375000000000001e+01	 8.000000000000000e+00	 9.660096000000644e-01
0	 2.375000000000000e+01	 8.250000000000000e+00	 9.772864000002986e-01
0	 2.375000000000000e+01	 8.500000000000002e+00	 9.885632000003611e-01
0	 2.375000000000000e+01	 8.750000000000002e+00	 9.998399999997079e-01
0	 2.375000000000001e+01	 9.000000000000002e+00	 1.011116799999446e+00
0	 2.375000000000000e+01	 9.250000000000002e+00	 1.022393600001513e+00
0	 2.375000000000000e+01	 9.500000000000002e+00	 1.033670400000375e+00
0	 2.375000000000000e+01	 9.750000000000000e+00	 1.044947200001356e+00
0	 2.375000000000001e+01	 1.000000000000000e+01	 1.056224000001294e+00
0	 2.437500000000001e+01	 7.500000000000000e+00	 9.327640000002191e-01
0	 2.437500000000000e+01	 7.749999999999998e+00	 9.446332000007623e-01
0	 2.437500000000000e+01	 8.000000000000002e+00	 9.565024000003186e-01
0	 2.437500000000000e+01	 8.250000000000002e+00	 9.683716000002238e-01
0	 2.437500000000000e+01	 8.500000000000000e+00	 9.802408000004001e-01
0	 2.437500000000000e+01	 8.750000000000002e+00	 9.921100000005247e-01
0	 2.437500000000001e+01	 9.000000000000002e+00	 1.003979200000229e+00
0	 2.437500000000001e+01	 9.250000000000002e+00	 1.015848400000042e+00
0	 2.437500000000000e+01	 9.500000000000002e+00	 1.027717600001511e+00
0	 2.437500000000000e+01	 9.750000000000002e+00	 1.039586800001758e+00
0	 2.437500000000001e+01	 1.000000000000000e+01	 1.051456000001850e+00
0	 2.500000000000000e+01	 7.500000000000000e+00	 9.140000000002146e-01
0	 2.500000000000000e+01	 7.750000000000001e+00	 9.269999999990008e-01
0	 2.500000000000000e+01	 8.000000000000002e+00	 9.400000000011324e-01
0	 2.500000000000000e+01	 8.250000000000002e+00	 9.530000000001594e-01
0	 2.500000000000000e+01	 8.500000000000000e+00	 9.660000000003777e-01
0	 2.500000000000000e+01	 8.750000000000000e+00	 9.790000000010771e-01
0	 2.500000000000000e+01	 9.000000000000004e+00	 9.920000000001039e-01
0	 2.500000000000000e+01	 9.250000000000005e+00	 1.004999999998294e+00
0	 2.500000000000000e+01	 9.500000000000000e+00	 1.017999999998868e+00
0	 2.500000000000000e+01	 9.750000000000002e+00	 1.031000000000404e+00
0	 2.500000000000000e+01	 1.000000000000000e+01	 1.044000000000267e+00
0	 2.500000000000000e+01	 0.000000000000000e+00	-4.800000000102501e-02
0	 2.500000000000000e+01	 2.500000000000000e-01	-3.380000000156742e-02
0	 2.500000000000000e+01	 5.000000000000000e-01	-1.960000000035895e-02
0	 2.500000000000000e+01	 7.500000000000001e-01	-5.399999999270830e-03
0	 2.500000000000000e+01	 1.000000000000000e+00	 8.800000000645278e-03
0	 2.500000000000000e+01	 1.250000000000000e+00	 2.300000000019509e-02
0	 2.500000000000000e+01	 1.500000000000000e+00	 3.719999999987066e-02
0	 2.500000000000000e+01	 1.750000000000000e+00	 5.139999999954626e-02
0	 2.500000000000000e+01	 2.000000000000000e+00	 6.560000000147925e-02
0	 2.500000000000000e+01	 2.250000000000000e+00	 7.980000000044431e-02
0	 2.500000000000000e+01	 2.500000000000000e+00	 9.399999999999410e-02
0	 2.562500000000000e+01	 0.000000000000000e+00	-3.763999999935042e-02
0	 2.562499999999999e+01	 2.499999999999999e-01	-2.257400000088983e-02
0	 2.562499999999999e+01	 4.999999999999999e-01	-7.507999999421112e-03
0	 2.562499999999999e+01	 7.500000000000001e-01	 7.557999999639337e-03
0	 2.562499999999999e+01	 1.000000000000000e+00	 2.262400000067466e-02
0	 2.562500000000000e+01	 1.250000000000000e+00	 3.768999999982925e-02
0	 2.562500000000000e+01	 1.500000000000000e+00	 5.275599999906967e-02
0	 2.562500000000000e+01	 1.750000000000000e+00	 6.782200000035042e-02
0	 2.562500000000000e+01	 2.000000000000000e+00	 8.288799999905327e-02
0	 2.562500000000000e+01	 2.250000000000000e+00	 9.795399999945610e-02
0	 2.562500000000000e+01	 2.500000000000000e+00	 1.130200000004300e-01
0	 2.625000000000000e+01	 0.000000000000000e+00	-2.896000000029986e-02
0	 2.625000000000000e+01	 2.500000000000000e-01	-1.313600000093800e-02
0	 2.624999999999999e+01	 5.000000000000000e-01	 2.687999997073525e-03
0	 2.625000000000000e+01	 7.500000000000001e-01	 1.851199999984663e-02
0	 2.625000000000000e+01	 1.000000000000000e+00	 3.433599999855631e-02
0	 2.625000000000000e+01	 1.250000000000000e+00	 5.015999999928856e-02
0	 2.624999999999999e+01	 1.500000000000000e+00	 6.598399999966387e-02
0	 2.625000000000000e+01	 1.750000000000000e+00	 8.180799999919901e-02
0	 2.625000000000000e+01	 2.000000000000000e+00	 9.763200000016957e-02
0	 2.625000000000000e+01	 2.250000000000000e+00	 1.134559999998786e-01
0	 2.624999999999999e+01	 2.500000000000000e+00	 1.292800000002981e-01
0	 2.687499999999999e+01	 0.000000000000000e+00	-2.195999999958787e-02
0	 2.687499999999999e+01	 2.500000000000000e-01	-5.486000001644930e-03
0	 2.687499999999999e+01	 5.000000000000000e-01	 1.098799999887488e-02
0	 2.687500000000000e+01	 7.500000000000002e-01	 2.746200000070376e-02
0	 2.687500000000000e+01	 1.000000000000000e+00	 4.393599999947213e-02
0	 2.687499999999999e+01	 1.250000000000000e+00	 6.040999999998854e-02
0	 2.687499999999999e+01	 1.500000000000000e+00	 7.688399999989126e-02
0	 2.687499999999999e+01	 1.750000000000000e+00	 9.335799999985460e-02
0	 2.687499999999999e+01	 2.000000000000000e+00	 1.098319999983566e-01
0	 2.687499999999999e+01	 2.250000000000000e+00	 1.263059999982500e-01
0	 2.687499999999999e+01	 2.500000000000000e+00	 1.427799999995649e-01
0	 2.749999999999999e+01	 0.000000000000000e+00	-1.664000000012322e-02
0	 2.749999999999998e+01	 2.500000000000000e-01	 3.760000009098046e-04
0	 2.749999999999999e+01	 4.999999999999999e-01	 1.739199999871898e-02
0	 2.749999999999999e+01	 7.500000000000000e-01	 3.440799999850550e-02
0	 2.749999999999999e+01	 1.000000000000000e+00	 5.142399999985038e-02
0	 2.750000000000000e+01	 1.250000000000000e+00	 6.843999999981418e-02
0	 2.749999999999999e+01	 1.500000000000000e+00	 8.545599999907019e-02
0	 2.750000000000000e+01	 1.750000000000000e+00	 1.024719999993095e-01
0	 2.749999999999999e+01	 2.000000000000000e+00	 1.194880000001674e-01
0	 2.749999999999999e+01	 2.250000000000000e+00	 1.365039999996043e-01
0	 2.749999999999999e+01	 2.500000000000000e+00	 1.535199999997516e-01
0	 2.812499999999999e+01	 0.000000000000000e+00	-1.300000000057366e-02
0	 2.812499999999998e+01	 2.499999999999999e-01	 4.449999997241649e-03
0	 2.812499999999999e+01	 5.000000000000001e-01	 2.190000000140912e-02
0	 2.812499999999999e+01	 7.500000000000000e-01	 3.934999999951889e-02
0	 2.812499999999998e+01	 9.999999999999998e-01	 5.679999999806091e-02
0	 2.812499999999999e+01	 1.250000000000000e+00	 7.424999999940952e-02
0	 2.812499999999999e+01	 1.500000000000000e+00	 9.169999999945483e-02
0	 2.812499999999999e+01	 1.750000000000000e+00	 1.091500000004467e-01
0	 2.812499999999999e+01	 2.000000000000000e+00	 1.266000000011114e-01
0	 2.812499999999999e+01	 2.250000000000000e+00	 1.440500000015605e-01
0	 2.812499999999999e+01	 2.500000000000000e+00	 1.614999999993927e-01
0	 2.874999999999999e+01	 0.000000000000000e+00	-1.104000000040628e-02
0	 2.874999999999999e+01	 2.500000000000000e-01	 6.736000000930335e-03
0	 2.874999999999998e+01	 5.000000000000000e-01	 2.451200000089758e-02
0	 2.874999999999999e+01	 7.500000000000002e-01	 4.228799999884422e-02
0	 2.874999999999999e+01	 1.000000000000000e+00	 6.006399999993420e-02
0	 2.874999999999999e+01	 1.250000000000000e+00	 7.784000000032876e-02
0	 2.874999999999999e+01	 1.500000000000000e+00	 9.561599999993076e-02
0	 2.874999999999999e+01	 1.750000000000000e+00	 1.133919999997647e-01
0	 2.874999999999998e+01	 1.999999999999999e+00	 1.311679999996001e-01
0	 2.874999999999999e+01	 2.250000000000000e+00	 1.489440000001325e-01
0	 2.874999999999999e+01	 2.500000000000000e+00	 1.667200000003533e-01
0	 2.937499999999999e+01	 0.000000000000000e+00	-1.075999999997635e-02
0	 2.937499999999999e+01	 2.500000000000000e-01	 7.233999998137986e-03
0	 2.937499999999998e+01	 5.000000000000001e-01	 2.522800000021013e-02
0	 2.937499999999998e+01	 7.500000000000000e-01	 4.322199999944507e-02
0	 2.937499999999998e+01	 1.000000000000000e+00	 6.121600000004577e-02
0	 2.937499999999999e+01	 1.250000000000000e+00	 7.920999999981862e-02
0	 2.937499999999999e+01	 1.500000000000000e+00	 9.720399999948073e-02
0	 2.937499999999999e+01	 1.750000000000000e+00	 1.151980000011262e-01
0	 2.937499999999998e+01	 2.000000000000000e+00	 1.331919999980846e-01
0	 2.937499999999999e+01	 2.250000000000000e+00	 1.511859999998363e-01
0	 2.937499999999999e+01	 2.500000000000000e+00	 1.691799999996135e-01
0	 2.999999999999998e+01	 0.000000000000000e+00	-1.215999999999440e-02
0	 2.999999999999999e+01	 2.499999999999999e-01	 5.943999999689894e-03
0	 2.999999999999999e+01	 5.000000000000001e-01	 2.404800000270214e-02
0	 2.999999999999999e+01	 7.500000000000002e-01	 4.215200000190949e-02
0	 2.999999999999998e+01	 1.000000000000000e+00	 6.025600000012343e-02
0	 2.999999999999998e+01	 1.250000000000000e+00	 7.835999999947774e-02
0	 2.999999999999998e+01	 1.500000000000000e+00	 9.646399999933686e-02
0	 2.999999999999999e+01	 1.750000000000000e+00	 1.145679999996636e-01
0	 2.999999999999999e+01	 2.000000000000000e+00	 1.326719999984997e-01
0	 2.999999999999999e+01	 2.250000000000000e+00	 1.507759999995528e-01
0	 2.999999999999998e+01	 2.500000000000000e+00	 1.688799999996604e-01
0	 3.062499999999998e+01	 0.000000000000000e+00	-1.524000000046044e-02
0	 3.062499999999998e+01	 2.500000000000000e-01	 2.865999998280033e-03
0	 3.062499999999998e+01	 5.000000000000000e-01	 2.097200000128376e-02
0	 3.062499999999999e+01	 7.500000000000001e-01	 3.907799999868903e-02
0	 3.062499999999998e+01	 9.999999999999998e-01	 5.718400000015224e-02
0	 3.062499999999998e+01	 1.250000000000000e+00	 7.529000000019438e-02
0	 3.062499999999998e+01	 1.500000000000000e+00	 9.339600000071610e-02
0	 3.062499999999998e+01	 1.750000000000000e+00	 1.115020000000300e-01
0	 3.062499999999998e+01	 2.000000000000000e+00	 1.296080000001542e-01
0	 3.062499999999998e+01	 2.250000000000000e+00	 1.477139999987421e-01
0	 3.062499999999998e+01	 2.500000000000000e+00	 1.658200000001387e-01
0	 3.125000000000000e+01	 0.000000000000000e+00	-1.999999999924285e-02
0	 3.125000000000000e+01	 2.500000000000000e-01	-2.000000002008658e-03
0	 3.125000000000000e+01	 5.000000000000000e-01	 1.599999999783980e-02
0	 3.125000000000000e+01	 7.500000000000001e-01	 3.400000000123794e-02
0	 3.125000000000000e+01	 1.000000000000000e+00	 5.200000000113589e-02
0	 3.125000000000000e+01	 1.250000000000000e+00	 7.000000000019213e-02
0	 3.125000000000000e+01	 1.500000000000000e+00	 8.799999999924839e-02
0	 3.125000000000000e+01	 1.750000000000000e+00	 1.060000000002503e-01
0	 3.125000000000000e+01	 2.000000000000000e+00	 1.240000000012523e-01
0	 3.125000000000000e+01	 2.250000000000000e+00	 1.419999999998603e-01
0	 3.125000000000000e+01	 2.500000000000000e+00	 1.599999999996271e-01
0	 2.500000000000000e+01	 2.500000000000000e+00	 9.399999999999410e-02
0	 2.500000000000000e+01	 2.750000000000000e+00	 1.345999999987876e-01
0	 2.500000000000000e+01	 3.000000000000001e+00	 1.752000000002159e-01
0	 2.500000000000000e+01	 3.250000000000001e+00	 2.157999999999660e-01
0	 2.500000000000000e+01	 3.500000000000001e+00	 2.564000000003748e-01
0	 2.500000000000000e+01	 3.750000000000001e+00	 2.970000000001878e-01
0	 2.500000000000000e+01	 4.000000000000001e+00	 3.375999999992274e-01
0	 2.500000000000000e+01	 4.250000000000002e+00	 3.781999999993957e-01
0	 2.500000000000000e+01	 4.500000000000003e+00	 4.187999999999193e-01
0	 2.500000000000000e+01	 4.750000000000002e+00	 4.594000000005686e-01
0	 2.500000000000000e+01	 5.000000000000000e+00	 4.999999999995453e-01
0	 2.562500000000000e+01	 2.500000000000000e+00	 1.130200000004300e-01
0	 2.562500000000000e+01	 2.750000000000000e+00	 1.516440000006734e-01
0	 2.562500000000000e+01	 3.000000000000000e+00	 1.902679999995309e-01
0	 2.562499999999999e+01	 3.250000000000001e+00	 2.288920000001418e-01
0	 2.562500000000000e+01	 3.500000000000001e+00	 2.675159999993585e-01
0	 2.562500000000000e+01	 3.750000000000001e+00	 3.061400000001908e-01
0	 2.562500000000000e+01	 4.000000000000002e+00	 3.447639999991548e-01
0	 2.562500000000000e+01	 4.250000000000002e+00	 3.833880000001862e-01
0	 2.562500000000000e+01	 4.500000000000001e+00	 4.220119999995378e-01
0	 2.562499999999999e+01	 4.750000000000001e+00	 4.606360000003759e-01
0	 2.562500000000000e+01	 5.000000000000000e+00	 4.992599999993464e-01
0	 2.624999999999999e+01	 2.500000000000000e+00	 1.292800000002981e-01
0	 2.625000000000000e+01	 2.750000000000000e+00	 1.662159999991403e-01
0	 2.625000000000000e+01	 3.000000000000001e+00	 2.031520000000682e-01
0	 2.625000000000000e+01	 3.250000000000000e+00	 2.400880000003380e-01
0	 2.625000000000000e+01	 3.500000000000001e+00	 2.770240000000639e-01
0	 2.625000000000000e+01	 3.750000000000001e+00	 3.139599999996832e-01
0	 2.625000000000000e+01	 4.000000000000002e+00	 3.508960000006462e-01
0	 2.625000000000000e+01	 4.250000000000001e+00	 3.878319999992997e-01
0	 2.624999999999999e+01	 4.500000000000001e+00	 4.247679999996424e-01
0	 2.625000000000000e+01	 4.750000000000003e+00	 4.617040000006545e-01
0	 2.624999999999999e+01	 5.000000000000000e+00	 4.986399999989732e-01
0	 2.687499999999999e+01	 2.500000000000000e+00	 1.427799999995649e-01
0	 2.687499999999999e+01	 2.750000000000000e+00	 1.783160000009495e-01
0	 2.687499999999999e+01	 3.000000000000000e+00	 2.138520000001458e-01
0	 2.687499999999999e+01	 3.250000000000001e+00	 2.493879999999943e-01
0	 2.687499999999999e+01	 3.500000000000001e+00	 2.849239999994663e-01
0	 2.687500000000000e+01	 3.750000000000001e+00	 3.204600000003691e-01
0	 2.687499999999999e+01	 4.000000000000001e+00	 3.559960000007260e-01
0	 2.687500000000000e+01	 4.250000000000001e+00	 3.915319999988951e-01
0	 2.687499999999999e+01	 4.500000000000002e+00	 4.270680000004745e-01
0	 2.687500000000000e+01	 4.750000000000002e+00	 4.626039999996706e-01
0	 2.687499999999999e+01	 5.000000000000001e+00	 4.981399999998359e-01
0	 2.749999999999999e+01	 2.500000000000000e+00	 1.535199999997516e-01
0	 2.749999999999999e+01	 2.750000000000000e+00	 1.879439999989676e-01
0	 2.749999999999999e+01	 3.000000000000000e+00	 2.223679999999609e-01
0	 2.749999999999999e+01	 3.250000000000000e+00	 2.567919999999521e-01
0	 2.749999999999999e+01	 3.500000000000001e+00	 2.912160000001329e-01
0	 2.749999999999998e+01	 3.750000000000000e+00	 3.256400000001717e-01
0	 2.750000000000000e+01	 4.000000000000002e+00	 3.600639999997265e-01
0	 2.749999999999999e+01	 4.250000000000002e+00	 3.944880000003724e-01
0	 2.750000000000000e+01	 4.500000000000002e+00	 4.289119999993040e-01
0	 2.749999999999999e+01	 4.750000000000002e+00	 4.633359999996145e-01
0	 2.749999999999999e+01	 5.000000000000000e+00	 4.977599999998362e-01
0	 2.812499999999999e+01	 2.500000000000000e+00	 1.614999999993927e-01
0	 2.812499999999998e+01	 2.750000000000000e+00	 1.950999999986648e-01
0	 2.812499999999999e+01	 3.000000000000000e+00	 2.286999999996107e-01
0	 2.812499999999999e+01	 3.250000000000001e+00	 2.623000000001788e-01
0	 2.812499999999999e+01	 3.500000000000001e+00	 2.958999999992414e-01
0	 2.812499999999999e+01	 3.750000000000001e+00	 3.295000000006874e-01
0	 2.812499999999999e+01	 4.000000000000002e+00	 3.631000000002161e-01
0	 2.812499999999999e+01	 4.250000000000002e+00	 3.967000000002235e-01
0	 2.812499999999999e+01	 4.500000000000002e+00	 4.302999999996614e-01
0	 2.812499999999999e+01	 4.750000000000003e+00	 4.638999999973590e-01
0	 2.812499999999999e+01	 5.000000000000000e+00	 4.975000000001728e-01
0	 2.874999999999999e+01	 2.500000000000000e+00	 1.667200000003533e-01
0	 2.874999999999998e+01	 2.750000000000000e+00	 1.997839999990295e-01
0	 2.874999999999999e+01	 3.000000000000001e+00	 2.328480000002173e-01
0	 2.874999999999999e+01	 3.250000000000000e+00	 2.659119999997066e-01
0	 2.874999999999998e+01	 3.500000000000000e+00	 2.989759999998657e-01
0	 2.874999999999999e+01	 3.750000000000001e+00	 3.320399999984749e-01
0	 2.874999999999998e+01	 4.000000000000001e+00	 3.651039999997510e-01
0	 2.874999999999999e+01	 4.250000000000002e+00	 3.981679999997212e-01
0	 2.874999999999999e+01	 4.500000000000002e+00	 4.312320000015182e-01
0	 2.874999999999998e+01	 4.750000000000002e+00	 4.642959999974482e-01
0	 2.874999999999999e+01	 5.000000000000000e+00	 4.973599999999579e-01
0	 2.937499999999999e+01	 2.500000000000000e+00	 1.691799999996135e-01
0	 2.937499999999999e+01	 2.750000000000000e+00	 2.019959999994382e-01
0	 2.937499999999999e+01	 3.000000000000001e+00	 2.348119999989596e-01
0	 2.937499999999998e+01	 3.250000000000000e+00	 2.676280000000417e-01
0	 2.937499999999999e+01	 3.500000000000001e+00	 3.004440000007986e-01
0	 2.937499999999998e+01	 3.750000000000002e+00	 3.332599999992865e-01
0	 2.937499999999999e+01	 4.000000000000002e+00	 3.660759999997424e-01
0	 2.937499999999999e+01	 4.250000000000003e+00	 3.988919999996513e-01
0	 2.937499999999998e+01	 4.500000000000002e+00	 4.317080000015535e-01
0	 2.937499999999998e+01	 4.750000000000002e+00	 4.645239999994999e-01
0	 2.937499999999999e+01	 5.000000000000000e+00	 4.973399999997241e-01
0	 2.999999999999998e+01	 2.500000000000000e+00	 1.688799999996604e-01
0	 2.999999999999998e+01	 2.750000000000000e+00	 2.017360000002007e-01
0	 2.999999999999998e+01	 3.000000000000000e+00	 2.345919999990985e-01
0	 2.999999999999998e+01	 3.250000000000000e+00	 2.674480000001580e-01
0	 2.999999999999998e+01	 3.500000000000001e+00	 3.003039999993325e-01
0	 2.999999999999999e+01	 3.750000000000001e+00	 3.331599999992990e-01
0	 2.999999999999999e+01	 4.000000000000003e+00	 3.660159999991918e-01
0	 2.999999999999998e+01	 4.250000000000001e+00	 3.988719999991437e-01
0	 2.999999999999998e+01	 4.500000000000002e+00	 4.317279999991542e-01
0	 2.999999999999999e+01	 4.750000000000002e+00	 4.645839999994905e-01
0	 2.999999999999998e+01	 5.000000000000000e+00	 4.974400000001822e-01
0	 3.062499999999998e+01	 2.500000000000000e+00	 1.658200000001387e-01
0	 3.062499999999998e+01	 2.750000000000001e+00	 1.990040000016826e-01
0	 3.062499999999998e+01	 3.000000000000000e+00	 2.321879999986293e-01
0	 3.062499999999998e+01	 3.250000000000000e+00	 2.653719999992033e-01
0	 3.062499999999998e+01	 3.500000000000001e+00	 2.985559999987898e-01
0	 3.062499999999998e+01	 3.750000000000001e+00	 3.317399999999926e-01
0	 3.062499999999998e+01	 4.000000000000002e+00	 3.649239999997888e-01
0	 3.062499999999998e+01	 4.250000000000001e+00	 3.981079999995529e-01
0	 3.062499999999998e+01	 4.500000000000002e+00	 4.312920000002339e-01
0	 3.062499999999998e+01	 4.750000000000002e+00	 4.644759999993940e-01
0	 3.062499999999998e+01	 5.000000000000000e+00	 4.976599999999108e-01
0	 3.125000000000000e+01	 2.500000000000000e+00	 1.599999999996271e-01
0	 3.125000000000000e+01	 2.750000000000000e+00	 1.937999999993260e-01
0	 3.125000000000000e+01	 3.000000000000001e+00	 2.275999999985765e-01
0	 3.125000000000000e+01	 3.250000000000001e+00	 2.613999999989257e-01
0	 3.125000000000000e+01	 3.500000000000001e+00	 2.951999999992093e-01
0	 3.125000000000000e+01	 3.750000000000001e+00	 3.290000000005969e-01
0	 3.125000000000000e+01	 4.000000000000001e+00	 3.627999999991971e-01
0	 3.125000000000000e+01	 4.250000000000002e+00	 3.965999999998361e-01
0	 3.125000000000001e+01	 4.500000000000003e+00	 4.303999999997644e-01
0	 3.125000000000000e+01	 4.750000000000002e+00	 4.641999999989820e-01
0	 3.125000000000000e+01	 5.000000000000000e+00	 4.979999999996210e-01
0	 2.500000000000000e+01	 5.000000000000000e+00	 4.999999999995453e-01
0	 2.500000000000000e+01	 5.250000000000000e+00	 5.413999999992498e-01
0	 2.500000000000000e+01	 5.500000000000001e+00	 5.827999999998130e-01
0	 2.500000000000000e+01	 5.750000000000002e+00	 6.241999999996752e-01
0	 2.500000000000000e+01	 6.000000000000001e+00	 6.656000000003732e-01
0	 2.500000000000000e+01	 6.250000000000001e+00	 7.069999999999428e-01
0	 2.500000000000000e+01	 6.500000000000001e+00	 7.483999999998048e-01
0	 2.500000000000000e+01	 6.750000000000002e+00	 7.897999999997297e-01
0	 2.500000000000000e+01	 7.000000000000003e+00	 8.312000000003650e-01
0	 2.500000000000000e+01	 7.250000000000002e+00	 8.726000000004155e-01
0	 2.500000000000000e+01	 7.500000000000000e+00	 9.140000000002146e-01
0	 2.562500000000000e+01	 5.000000000000000e+00	 4.992599999993464e-01
0	 2.562500000000000e+01	 5.250000000000000e+00	 5.386080000008836e-01
0	 2.562500000000000e+01	 5.500000000000001e+00	 5.779559999992587e-01
0	 2.562499999999999e+01	 5.750000000000000e+00	 6.173040000002770e-01
0	 2.562500000000000e+01	 6.000000000000002e+00	 6.566519999991876e-01
0	 2.562500000000000e+01	 6.250000000000002e+00	 6.960000000000772e-01
0	 2.562500000000000e+01	 6.500000000000002e+00	 7.353479999990985e-01
0	 2.562500000000000e+01	 6.750000000000002e+00	 7.746960000001762e-01
0	 2.562500000000000e+01	 7.000000000000001e+00	 8.140439999995798e-01
0	 2.562499999999999e+01	 7.250000000000001e+00	 8.533919999997593e-01
0	 2.562500000000000e+01	 7.500000000000000e+00	 8.927400000002026e-01
0	 2.624999999999999e+01	 5.000000000000000e+00	 4.986399999989732e-01
0	 2.625000000000000e+01	 5.250000000000001e+00	 5.362319999992855e-01
0	 2.625000000000000e+01	 5.500000000000002e+00	 5.738239999999070e-01
0	 2.625000000000000e+01	 5.750000000000000e+00	 6.114160000004976e-01
0	 2.625000000000000e+01	 6.000000000000001e+00	 6.490080000000004e-01
0	 2.625000000000000e+01	 6.250000000000002e+00	 6.865999999992519e-01
0	 2.625000000000000e+01	 6.500000000000002e+00	 7.241920000002029e-01
0	 2.625000000000000e+01	 6.750000000000001e+00	 7.617839999995103e-01
0	 2.624999999999999e+01	 7.000000000000003e+00	 7.993759999994630e-01
0	 2.625000000000000e+01	 7.250000000000004e+00	 8.369680000007963e-01
0	 2.624999999999999e+01	 7.499999999999999e+00	 8.745600000001462e-01
0	 2.687499999999999e+01	 5.000000000000001e+00	 4.981399999998359e-01
0	 2.687499999999999e+01	 5.250000000000001e+00	 5.342720000011513e-01
0	 2.687499999999999e+01	 5.500000000000000e+00	 5.704039999997007e-01
0	 2.687499999999999e+01	 5.750000000000001e+00	 6.065359999997018e-01
0	 2.687499999999999e+01	 6.000000000000000e+00	 6.426679999991043e-01
0	 2.687500000000000e+01	 6.250000000000000e+00	 6.788000000005595e-01
0	 2.687499999999999e+01	 6.500000000000001e+00	 7.149320000000472e-01
0	 2.687500000000000e+01	 6.750000000000002e+00	 7.510639999984579e-01
0	 2.687499999999999e+01	 7.000000000000002e+00	 7.871960000002787e-01
0	 2.687500000000000e+01	 7.250000000000001e+00	 8.233280000003823e-01
0	 2.687499999999999e+01	 7.499999999999999e+00	 8.594599999993239e-01
0	 2.749999999999999e+01	 5.000000000000000e+00	 4.977599999998362e-01
0	 2.749999999999999e+01	 5.250000000000001e+00	 5.327279999990990e-01
0	 2.749999999999999e+01	 5.500000000000000e+00	 5.676959999999613e-01
0	 2.749999999999999e+01	 5.750000000000000e+00	 6.026640000001989e-01
0	 2.749999999999999e+01	 6.000000000000001e+00	 6.376320000007596e-01
0	 2.749999999999998e+01	 6.250000000000000e+00	 6.725999999998902e-01
0	 2.750000000000000e+01	 6.500000000000003e+00	 7.075680000003133e-01
0	 2.749999999999999e+01	 6.750000000000002e+00	 7.425360000005838e-01
0	 2.750000000000000e+01	 7.000000000000003e+00	 7.775039999992296e-01
0	 2.749999999999999e+01	 7.250000000000002e+00	 8.124719999992533e-01
0	 2.749999999999999e+01	 7.500000000000000e+00	 8.474399999998995e-01
0	 2.812499999999999e+01	 5.000000000000000e+00	 4.975000000001728e-01
0	 2.812499999999998e+01	 5.250000000000000e+00	 5.315999999993148e-01
0	 2.812499999999999e+01	 5.500000000000001e+00	 5.656999999995980e-01
0	 2.812499999999999e+01	 5.750000000000001e+00	 5.997999999996587e-01
0	 2.812499999999999e+01	 6.000000000000001e+00	 6.338999999993243e-01
0	 2.812499999999999e+01	 6.250000000000001e+00	 6.680000000008398e-01
0	 2.812499999999999e+01	 6.500000000000001e+00	 7.020999999998168e-01
0	 2.812499999999999e+01	 6.750000000000002e+00	 7.362000000003383e-01
0	 2.812499999999999e+01	 7.000000000000000e+00	 7.702999999992243e-01
0	 2.812499999999999e+01	 7.250000000000002e+00	 8.043999999974359e-01
0	 2.812499999999999e+01	 7.500000000000001e+00	 8.384999999996980e-01
0	 2.874999999999999e+01	 5.000000000000000e+00	 4.973599999999579e-01
0	 2.874999999999998e+01	 5.249999999999999e+00	 5.308879999990116e-01
0	 2.874999999999999e+01	 5.500000000000001e+00	 5.644159999996886e-01
0	 2.874999999999999e+01	 5.750000000000000e+00	 5.979439999990227e-01
0	 2.874999999999998e+01	 6.000000000000000e+00	 6.314719999999143e-01
0	 2.874999999999999e+01	 6.250000000000001e+00	 6.649999999985456e-01
0	 2.874999999999998e+01	 6.500000000000001e+00	 6.985280000001995e-01
0	 2.874999999999999e+01	 6.750000000000000e+00	 7.320560000000144e-01
0	 2.874999999999999e+01	 7.000000000000002e+00	 7.655840000009452e-01
0	 2.874999999999998e+01	 7.250000000000001e+00	 7.991119999979633e-01
0	 2.874999999999999e+01	 7.500000000000000e+00	 8.326399999994294e-01
0	 2.937499999999999e+01	 5.000000000000000e+00	 4.973399999997241e-01
0	 2.937499999999999e+01	 5.249999999999999e+00	 5.305919999989861e-01
0	 2.937499999999999e+01	 5.500000000000000e+00	 5.638439999993662e-01
0	 2.937499999999998e+01	 5.750000000000001e+00	 5.970960000001965e-01
0	 2.937499999999999e+01	 6.000000000000003e+00	 6.303480000004353e-01
0	 2.937499999999998e+01	 6.250000000000002e+00	 6.635999999992933e-01
0	 2.937499999999999e+01	 6.500000000000001e+00	 6.968520000006524e-01
0	 2.937499999999999e+01	 6.750000000000002e+00	 7.301039999996877e-01
0	 2.937499999999998e+01	 7.000000000000002e+00	 7.633560000014268e-01
0	 2.937499999999998e+01	 7.250000000000002e+00	 7.966079999999208e-01
0	 2.937499999999999e+01	 7.500000000000000e+00	 8.298599999999825e-01
0	 2.999999999999998e+01	 5.000000000000000e+00	 4.974400000001822e-01
0	 2.999999999999998e+01	 5.250000000000001e+00	 5.307120000002371e-01
0	 2.999999999999998e+01	 5.500000000000000e+00	 5.639839999993598e-01
0	 2.999999999999998e+01	 5.750000000000001e+00	 5.972560000003783e-01
0	 2.999999999999998e+01	 6.000000000000001e+00	 6.305279999996889e-01
0	 2.999999999999999e+01	 6.250000000000001e+00	 6.637999999996140e-01
0	 2.999999999999999e+01	 6.500000000000004e+00	 6.970719999998208e-01
0	 2.999999999999998e+01	 6.750000000000001e+00	 7.303439999990208e-01
0	 2.999999999999998e+01	 7.000000000000002e+00	 7.636160000000559e-01
0	 2.999999999999999e+01	 7.250000000000003e+00	 7.968879999992848e-01
0	 2.999999999999998e+01	 7.500000000000000e+00	 8.301600000002907e-01
0	 3.062499999999998e+01	 5.000000000000000e+00	 4.976599999999108e-01
0	 3.062499999999998e+01	 5.250000000000002e+00	 5.312480000014864e-01
0	 3.062499999999998e+01	 5.500000000000001e+00	 5.648359999988201e-01
0	 3.062499999999998e+01	 5.750000000000001e+00	 5.984239999994256e-01
0	 3.062499999999998e+01	 6.000000000000002e+00	 6.320119999993989e-01
0	 3.062499999999998e+01	 6.250000000000001e+00	 6.656000000002782e-01
0	 3.062499999999998e+01	 6.500000000000001e+00	 6.991879999997510e-01
0	 3.062499999999998e+01	 6.750000000000001e+00	 7.327760000002569e-01
0	 3.062499999999998e+01	 7.000000000000001e+00	 7.663640000009699e-01
0	 3.062499999999998e+01	 7.250000000000002e+00	 7.999519999994510e-01
0	 3.062499999999998e+01	 7.500000000000000e+00	 8.335399999999996e-01
0	 3.125000000000000e+01	 5.000000000000000e+00	 4.979999999996210e-01
0	 3.125000000000000e+01	 5.250000000000000e+00	 5.321999999993756e-01
0	 3.125000000000000e+01	 5.500000000000001e+00	 5.663999999986822e-01
0	 3.125000000000000e+01	 5.750000000000002e+00	 6.005999999990875e-01
0	 3.125000000000000e+01	 6.000000000000001e+00	 6.347999999994269e-01
0	 3.125000000000000e+01	 6.250000000000001e+00	 6.690000000008703e-01
0	 3.125000000000000e+01	 6.500000000000001e+00	 7.031999999995264e-01
0	 3.125000000000000e+01	 6.750000000000002e+00	 7.373999999998662e-01
0	 3.125000000000001e+01	 7.000000000000003e+00	 7.716000000009161e-01
0	 3.125000000000000e+01	 7.250000000000002e+00	 8.057999999998344e-01
0	 3.125000000000000e+01	 7.500000000000000e+00	 8.400000000001739e-01
0	 2.500000000000000e+01	 7.500000000000000e+00	 9.140000000002146e-01
0	 2.500000000000000e+01	 7.750000000000001e+00	 9.269999999990008e-01
0	 2.500000000000000e+01	 8.000000000000002e+00	 9.400000000011324e-01
0	 2.500000000000000e+01	 8.250000000000002e+00	 9.530000000001594e-01
0	 2.500000000000000e+01	 8.500000000000000e+00	 9.660000000003777e-01
0	 2.500000000000000e+01	 8.750000000000000e+00	 9.790000000010771e-01
0	 2.500000000000000e+01	 9.000000000000004e+00	 9.920000000001039e-01
0	 2.500000000000000e+01	 9.250000000000005e+00	 1.004999999998294e+00
0	 2.500000000000000e+01	 9.500000000000000e+00	 1.017999999998868e+00
0	 2.500000000000000e+01	 9.750000000000002e+00	 1.031000000000404e+00
0	 2.500000000000000e+01	 1.000000000000000e+01	 1.044000000000267e+00
0	 2.562500000000000e+01	 7.500000000000000e+00	 8.927400000002026e-01
0	 2.562500000000000e+01	 7.750000000000000e+00	 9.070500000002234e-01
0	 2.562500000000000e+01	 8.000000000000002e+00	 9.213599999991515e-01
0	 2.562500000000000e+01	 8.250000000000000e+00	 9.356700000005826e-01
0	 2.562500000000000e+01	 8.499999999999998e+00	 9.499799999995847e-01
0	 2.562500000000000e+01	 8.750000000000000e+00	 9.642900000010580e-01
0	 2.562500000000000e+01	 9.000000000000002e+00	 9.786000000003672e-01
0	 2.562499999999999e+01	 9.250000000000000e+00	 9.929100000016957e-01
0	 2.562500000000000e+01	 9.500000000000002e+00	 1.007220000001494e+00
0	 2.562500000000000e+01	 9.750000000000004e+00	 1.021530000001162e+00
0	 2.562500000000000e+01	 1.000000000000000e+01	 1.035840000000454e+00
0	 2.624999999999999e+01	 7.499999999999999e+00	 8.745600000001462e-01
0	 2.624999999999999e+01	 7.749999999999998e+00	 8.899999999994785e-01
0	 2.625000000000000e+01	 8.000000000000002e+00	 9.054400000009799e-01
0	 2.625000000000000e+01	 8.250000000000004e+00	 9.208800000008314e-01
0	 2.624999999999999e+01	 8.500000000000000e+00	 9.363200000014565e-01
0	 2.625000000000000e+01	 8.750000000000002e+00	 9.517600000021939e-01
0	 2.625000000000000e+01	 9.000000000000002e+00	 9.672000000015450e-01
0	 2.625000000000000e+01	 9.250000000000004e+00	 9.826400000009629e-01
0	 2.624999999999999e+01	 9.500000000000002e+00	 9.980800000007726e-01
0	 2.625000000000000e+01	 9.750000000000002e+00	 1.013520000002924e+00
0	 2.625000000000000e+01	 1.000000000000000e+01	 1.028960000000634e+00
0	 2.687499999999999e+01	 7.499999999999999e+00	 8.594599999993239e-01
0	 2.687500000000000e+01	 7.750000000000001e+00	 8.758500000007041e-01
0	 2.687500000000000e+01	 8.000000000000000e+00	 8.922399999988498e-01
0	 2.687499999999999e+01	 8.250000000000002e+00	 9.086300000001215e-01
0	 2.687499999999999e+01	 8.500000000000000e+00	 9.250199999995471e-01
0	 2.687500000000000e+01	 8.750000000000000e+00	 9.414100000004101e-01
0	 2.687499999999999e+01	 9.000000000000002e+00	 9.578000000020985e-01
0	 2.687499999999999e+01	 9.250000000000000e+00	 9.741900000007860e-01
0	 2.687499999999999e+01	 9.500000000000004e+00	 9.905799999995935e-01
0	 2.687500000000000e+01	 9.750000000000004e+00	 1.006970000001812e+00
0	 2.687499999999999e+01	 1.000000000000000e+01	 1.023360000002249e+00
0	 2.749999999999999e+01	 7.500000000000000e+00	 8.474399999998995e-01
0	 2.749999999999999e+01	 7.750000000000000e+00	 8.646000000003590e-01
0	 2.749999999999998e+01	 7.999999999999998e+00	 8.817600000005110e-01
0	 2.749999999999999e+01	 8.250000000000000e+00	 8.989199999995617e-01
0	 2.749999999999999e+01	 8.500000000000000e+00	 9.160800000019724e-01
0	 2.749999999999999e+01	 8.750000000000002e+00	 9.332400000032390e-01
0	 2.749999999999999e+01	 9.000000000000002e+00	 9.504000000010778e-01
0	 2.749999999999999e+01	 9.250000000000000e+00	 9.675599999996338e-01
0	 2.750000000000000e+01	 9.500000000000004e+00	 9.847199999978864e-01
0	 2.749999999999999e+01	 9.750000000000002e+00	 1.001880000000544e+00
0	 2.749999999999999e+01	 1.000000000000000e+01	 1.019040000002391e+00
0	 2.812499999999999e+01	 7.500000000000001e+00	 8.384999999996980e-01
0	 2.812499999999999e+01	 7.750000000000001e+00	 8.562499999987651e-01
0	 2.812499999999999e+01	 8.000000000000000e+00	 8.739999999995731e-01
0	 2.812499999999999e+01	 8.249999999999998e+00	 8.917499999999894e-01
0	 2.812499999999999e+01	 8.500000000000002e+00	 9.095000000005626e-01
0	 2.812499999999999e+01	 8.750000000000002e+00	 9.272500000023215e-01
0	 2.812499999999999e+01	 9.000000000000002e+00	 9.449999999997520e-01
0	 2.812499999999999e+01	 9.250000000000002e+00	 9.627500000009490e-01
0	 2.812499999999999e+01	 9.500000000000002e+00	 9.805000000010721e-01
0	 2.812499999999999e+01	 9.750000000000002e+00	 9.982500000009443e-01
0	 2.812499999999999e+01	 1.000000000000000e+01	 1.016000000001327e+00
0	 2.874999999999999e+01	 7.500000000000000e+00	 8.326399999994294e-01
0	 2.874999999999998e+01	 7.749999999999997e+00	 8.508000000003560e-01
0	 2.874999999999999e+01	 8.000000000000002e+00	 8.689600000002591e-01
0	 2.874999999999998e+01	 8.249999999999998e+00	 8.871199999999746e-01
0	 2.874999999999999e+01	 8.500000000000002e+00	 9.052800000014006e-01
0	 2.874999999999999e+01	 8.750000000000002e+00	 9.234399999984571e-01
0	 2.874999999999998e+01	 9.000000000000002e+00	 9.416000000005001e-01
0	 2.874999999999999e+01	 9.250000000000002e+00	 9.597600000013103e-01
0	 2.874999999999999e+01	 9.500000000000002e+00	 9.779200000023015e-01
0	 2.874999999999999e+01	 9.750000000000000e+00	 9.960799999999209e-01
0	 2.874999999999999e+01	 9.999999999999998e+00	 1.014240000001365e+00
0	 2.937499999999999e+01	 7.500000000000000e+00	 8.298599999999825e-01
0	 2.937499999999999e+01	 7.750000000000001e+00	 8.482499999998119e-01
0	 2.937499999999998e+01	 8.000000000000000e+00	 8.666400000003751e-01
0	 2.937499999999999e+01	 8.250000000000002e+00	 8.850300000008187e-01
0	 2.937499999999999e+01	 8.500000000000004e+00	 9.034200000019632e-01
0	 2.937499999999999e+01	 8.750000000000002e+00	 9.218100000001240e-01
0	 2.937499999999998e+01	 8.999999999999998e+00	 9.402000000012662e-01
0	 2.937499999999999e+01	 9.250000000000002e+00	 9.585900000011803e-01
0	 2.937499999999999e+01	 9.500000000000002e+00	 9.769800000039277e-01
0	 2.937499999999998e+01	 9.750000000000004e+00	 9.953700000055543e-01
0	 2.937499999999999e+01	 1.000000000000000e+01	 1.013760000000019e+00
0	 2.999999999999998e+01	 7.500000000000000e+00	 8.301600000002907e-01
0	 2.999999999999999e+01	 7.750000000000000e+00	 8.485999999994310e-01
0	 2.999999999999999e+01	 8.000000000000002e+00	 8.670399999993241e-01
0	 2.999999999999999e+01	 8.250000000000002e+00	 8.854800000004521e-01
0	 2.999999999999998e+01	 8.500000000000000e+00	 9.039199999996292e-01
0	 2.999999999999999e+01	 8.750000000000002e+00	 9.223600000000318e-01
0	 2.999999999999999e+01	 9.000000000000002e+00	 9.407999999996683e-01
0	 2.999999999999998e+01	 9.250000000000002e+00	 9.592400000011096e-01
0	 2.999999999999998e+01	 9.500000000000000e+00	 9.776799999997369e-01
0	 2.999999999999999e+01	 9.750000000000002e+00	 9.961200000039561e-01
0	 2.999999999999998e+01	 1.000000000000000e+01	 1.014560000000131e+00
0	 3.062499999999998e+01	 7.500000000000000e+00	 8.335399999999996e-01
0	 3.062499999999998e+01	 7.750000000000000e+00	 8.518500000008096e-01
0	 3.062499999999998e+01	 8.000000000000000e+00	 8.701599999997927e-01
0	 3.062499999999998e+01	 8.250000000000002e+00	 8.884699999995362e-01
0	 3.062499999999998e+01	 8.500000000000000e+00	 9.067800000011065e-01
0	 3.062499999999998e+01	 8.750000000000000e+00	 9.250900000022491e-01
0	 3.062499999999998e+01	 9.000000000000002e+00	 9.434000000005938e-01
0	 3.062499999999998e+01	 9.250000000000000e+00	 9.617100000033221e-01
0	 3.062499999999998e+01	 9.500000000000002e+00	 9.800199999992867e-01
0	 3.062499999999998e+01	 9.750000000000000e+00	 9.983300000001801e-01
0	 3.062499999999998e+01	 1.000000000000000e+01	 1.016640000001700e+00
0	 3.125000000000000e+01	 7.500000000000000e+00	 8.400000000001739e-01
0	 3.125000000000000e+01	 7.750000000000001e+00	 8.579999999998288e-01
0	 3.125000000000000e+01	 8.000000000000002e+00	 8.759999999997456e-01
0	 3.125000000000000e+01	 8.250000000000002e+00	 8.940000000002613e-01
0	 3.125000000000000e+01	 8.500000000000000e+00	 9.120000000010008e-01
0	 3.125000000000000e+01	 8.750000000000000e+00	 9.300000000010300e-01
0	 3.125000000000000e+01	 9.000000000000004e+00	 9.479999999996379e-01
0	 3.125000000000000e+01	 9.250000000000005e+00	 9.659999999996670e-01
0	 3.125000000000000e+01	 9.500000000000000e+00	 9.839999999991715e-01
0	 3.125000000000000e+01	 9.750000000000002e+00	 1.002000000001147e+00
0	 3.125000000000000e+01	 1.000000000000000e+01	 1.020000000001176e+00
0	 3.125000000000000e+01	 0.000000000000000e+00	-1.999999999924285e-02
0	 3.125000000000000e+01	 2.500000000000000e-01	-2.000000002008658e-03
0	 3.125000000000000e+01	 5.000000000000000e-01	 1.599999999783980e-02
0	 3.125000000000000e+01	 7.500000000000001e-01	 3.400000000123794e-02
0	 3.125000000000000e+01	 1.000000000000000e+00	 5.200000000113589e-02
0	 3.125000000000000e+01	 1.250000000000000e+00	 7.000000000019213e-02
0	 3.125000000000000e+01	 1.500000000000000e+00	 8.799999999924839e-02
0	 3.125000000000000e+01	 1.750000000000000e+00	 1.060000000002503e-01
0	 3.125000000000000e+01	 2.000000000000000e+00	 1.240000000012523e-01
0	 3.125000000000000e+01	 2.250000000000000e+00	 1.419999999998603e-01
0	 3.125000000000000e+01	 2.500000000000000e+00	 1.599999999996271e-01
0	 3.187500000000000e+01	 0.000000000000000e+00	-2.520000000034717e-02
0	 3.187499999999999e+01	 2.499999999999999e-01	-7.354000000920802e-03
0	 3.187500000000000e+01	 4.999999999999999e-01	 1.049200000082136e-02
0	 3.187500000000000e+01	 7.500000000000001e-01	 2.833799999933822e-02
0	 3.187499999999999e+01	 1.000000000000000e+00	 4.618400000001683e-02
0	 3.187500000000000e+01	 1.250000000000000e+00	 6.403000000010373e-02
0	 3.187500000000000e+01	 1.500000000000000e+00	 8.187600000018128e-02
0	 3.187500000000000e+01	 1.750000000000000e+00	 9.972199999887352e-02
0	 3.187500000000001e+01	 2.000000000000000e+00	 1.175680000020585e-01
0	 3.187500000000000e+01	 2.250000000000000e+00	 1.354139999996118e-01
0	 3.187500000000000e+01	 2.500000000000000e+00	 1.532600000005546e-01
0	 3.249999999999999e+01	 0.000000000000000e+00	-2.960000000209462e-02
0	 3.250000000000001e+01	 2.500000000000000e-01	-1.189599999476866e-02
0	 3.249999999999999e+01	 5.000000000000000e-01	 5.808000001346401e-03
0	 3.250000000000000e+01	 7.500000000000001e-01	 2.351200000005279e-02
0	 3.249999999999999e+01	 1.000000000000000e+00	 4.121600000205977e-02
0	 3.249999999999999e+01	 1.250000000000000e+00	 5.891999999878551e-02
0	 3.250000000000001e+01	 1.500000000000000e+00	 7.662399999950269e-02
0	 3.250000000000000e+01	 1.750000000000000e+00	 9.432800000056561e-02
0	 3.250000000000000e+01	 2.000000000000000e+00	 1.120319999997399e-01
0	 3.249999999999999e+01	 2.250000000000000e+00	 1.297359999993475e-01
0	 3.250000000000000e+01	 2.500000000000000e+00	 1.474399999996656e-01
0	 3.312499999999999e+01	 0.000000000000000e+00	-3.319999999753520e-02
0	 3.312499999999999e+01	 2.500000000000000e-01	-1.562600000178911e-02
0	 3.312500000000000e+01	 5.000000000000000e-01	 1.948000001737554e-03
0	 3.312499999999999e+01	 7.500000000000002e-01	 1.952200000036165e-02
0	 3.312500000000001e+01	 1.000000000000000e+00	 3.709599999850955e-02
0	 3.312499999999999e+01	 1.250000000000000e+00	 5.467000000116685e-02
0	 3.312499999999999e+01	 1.500000000000000e+00	 7.224400000121933e-02
0	 3.312499999999999e+01	 1.750000000000000e+00	 8.981799999965291e-02
0	 3.312499999999999e+01	 2.000000000000000e+00	 1.073919999971115e-01
0	 3.312500000000000e+01	 2.250000000000000e+00	 1.249660000005581e-01
0	 3.312499999999999e+01	 2.500000000000000e+00	 1.425399999998688e-01
0	 3.374999999999999e+01	 0.000000000000000e+00	-3.600000000041348e-02
0	 3.374999999999999e+01	 2.500000000000000e-01	-1.854399999957967e-02
0	 3.374999999999998e+01	 4.999999999999999e-01	-1.087999998631676e-03
0	 3.374999999999999e+01	 7.500000000000000e-01	 1.636799999881075e-02
0	 3.374999999999999e+01	 1.000000000000000e+00	 3.382399999931974e-02
0	 3.374999999999999e+01	 1.250000000000000e+00	 5.127999999956499e-02
0	 3.374999999999999e+01	 1.500000000000000e+00	 6.873600000061245e-02
0	 3.374999999999999e+01	 1.750000000000000e+00	 8.619199999984060e-02
0	 3.374999999999999e+01	 2.000000000000000e+00	 1.036479999972313e-01
0	 3.374999999999999e+01	 2.250000000000000e+00	 1.211039999994057e-01
0	 3.374999999999999e+01	 2.500000000000000e+00	 1.385599999995435e-01
0	 3.437499999999999e+01	 0.000000000000000e+00	-3.799999999714032e-02
0	 3.437499999999998e+01	 2.499999999999999e-01	-2.065000000220047e-02
0	 3.437499999999999e+01	 5.000000000000001e-01	-3.299999996243975e-03
0	 3.437499999999999e+01	 7.500000000000000e-01	 1.404999999843293e-02
0	 3.437499999999999e+01	 9.999999999999998e-01	 3.139999999985194e-02
0	 3.437499999999999e+01	 1.250000000000000e+00	 4.875000000161833e-02
0	 3.437499999999999e+01	 1.500000000000000e+00	 6.610000000121254e-02
0	 3.437499999999999e+01	 1.750000000000000e+00	 8.345000000244186e-02
0	 3.437499999999999e+01	 2.000000000000000e+00	 1.008000000015271e-01
0	 3.437500000000000e+01	 2.250000000000000e+00	 1.181500000004831e-01
0	 3.437499999999999e+01	 2.500000000000000e+00	 1.354999999989559e-01
0	 3.499999999999999e+01	 0.000000000000000e+00	-3.920000000192659e-02
0	 3.499999999999999e+01	 2.500000000000000e-01	-2.194399999981744e-02
0	 3.499999999999999e+01	 5.000000000000000e-01	-4.687999998720358e-03
0	 3.499999999999999e+01	 7.500000000000002e-01	 1.256800000120869e-02
0	 3.499999999999999e+01	 1.000000000000000e+00	 2.982399999864344e-02
0	 3.499999999999999e+01	 1.250000000000000e+00	 4.708000000022138e-02
0	 3.499999999999999e+01	 1.500000000000000e+00	 6.433600000040304e-02
0	 3.499999999999999e+01	 1.750000000000000e+00	 8.159199999937530e-02
0	 3.499999999999999e+01	 1.999999999999999e+00	 9.884799999777077e-02
0	 3.499999999999999e+01	 2.250000000000000e+00	 1.161039999994297e-01
0	 3.499999999999999e+01	 2.500000000000000e+00	 1.333600000009483e-01
0	 3.562499999999999e+01	 0.000000000000000e+00	-3.959999999665344e-02
0	 3.562499999999999e+01	 2.500000000000000e-01	-2.242600000149827e-02
0	 3.562499999999999e+01	 5.000000000000001e-01	-5.252000000229823e-03
0	 3.562499999999999e+01	 7.500000000000000e-01	 1.192199999982426e-02
0	 3.562499999999999e+01	 1.000000000000000e+00	 2.909600000067151e-02
0	 3.562499999999999e+01	 1.250000000000000e+00	 4.627000000070326e-02
0	 3.562499999999999e+01	 1.500000000000000e+00	 6.344400000018866e-02
0	 3.562499999999999e+01	 1.750000000000000e+00	 8.061799999943277e-02
0	 3.562499999999999e+01	 2.000000000000000e+00	 9.779200000179045e-02
0	 3.562499999999999e+01	 2.250000000000000e+00	 1.149659999988728e-01
0	 3.562499999999999e+01	 2.500000000000000e+00	 1.321399999980599e-01
0	 3.624999999999998e+01	 0.000000000000000e+00	-3.920000000192658e-02
0	 3.624999999999998e+01	 2.499999999999999e-01	-2.209600000014291e-02
0	 3.624999999999999e+01	 5.000000000000001e-01	-4.991999997132544e-03
0	 3.624999999999999e+01	 7.500000000000002e-01	 1.211200000087139e-02
0	 3.624999999999998e+01	 1.000000000000000e+00	 2.921599999822742e-02
0	 3.624999999999997e+01	 1.250000000000000e+00	 4.631999999915593e-02
0	 3.624999999999999e+01	 1.500000000000000e+00	 6.342400000041851e-02
0	 3.624999999999998e+01	 1.750000000000000e+00	 8.052799999965084e-02
0	 3.624999999999999e+01	 2.000000000000000e+00	 9.763200000065808e-02
0	 3.624999999999999e+01	 2.250000000000000e+00	 1.147360000011546e-01
0	 3.624999999999998e+01	 2.500000000000000e+00	 1.318400000002384e-01
0	 3.687499999999998e+01	 0.000000000000000e+00	-3.799999999927196e-02
0	 3.687499999999998e+01	 2.500000000000000e-01	-2.095399999958895e-02
0	 3.687499999999998e+01	 5.000000000000000e-01	-3.908000001364174e-03
0	 3.687499999999999e+01	 7.500000000000001e-01	 1.313800000314718e-02
0	 3.687499999999997e+01	 9.999999999999998e-01	 3.018399999826500e-02
0	 3.687499999999998e+01	 1.250000000000000e+00	 4.722999999948741e-02
0	 3.687499999999998e+01	 1.500000000000000e+00	 6.427599999944314e-02
0	 3.687499999999998e+01	 1.750000000000000e+00	 8.132199999977274e-02
0	 3.687499999999998e+01	 2.000000000000000e+00	 9.836800000029337e-02
0	 3.687499999999998e+01	 2.250000000000000e+00	 1.154140000000127e-01
0	 3.687499999999998e+01	 2.500000000000000e+00	 1.324599999996679e-01
0	 3.750000000000000e+01	 0.000000000000000e+00	-3.600000000005821e-02
0	 3.750000000000000e+01	 2.500000000000000e-01	-1.900000000154541e-02
0	 3.750000000000000e+01	 5.000000000000000e-01	-2.000000002719020e-03
0	 3.750000000000000e+01	 7.500000000000001e-01	 1.500000000141709e-02
0	 3.750000000000001e+01	 1.000000000000000e+00	 3.200000000198600e-02
0	 3.750000000000000e+01	 1.250000000000000e+00	 4.899999999992134e-02
0	 3.750000000000000e+01	 1.500000000000000e+00	 6.599999999854655e-02
0	 3.750000000000000e+01	 1.750000000000000e+00	 8.300000000114172e-02
0	 3.750000000000000e+01	 2.000000000000000e+00	 1.000000000004775e-01
0	 3.750000000000000e+01	 2.250000000000000e+00	 1.170000000009410e-01
0	 3.750000000000000e+01	 2.500000000000000e+00	 1.339999999999009e-01
0	 3.125000000000000e+01	 2.500000000000000e+00	 1.599999999996271e-01
0	 3.125000000000000e+01	 2.750000000000000e+00	 1.937999999993260e-01
0	 3.125000000000000e+01	 3.000000000000001e+00	 2.275999999985765e-01
0	 3.125000000000000e+01	 3.250000000000001e+00	 2.613999999989257e-01
0	 3.125000000000000e+01	 3.500000000000001e+00	 2.951999999992093e-01
0	 3.125000000000000e+01	 3.750000000000001e+00	 3.290000000005969e-01
0	 3.125000000000000e+01	 4.000000000000001e+00	 3.627999999991971e-01
0	 3.125000000000000e+01	 4.250000000000002e+00	 3.965999999998361e-01
0	 3.125000000000001e+01	 4.500000000000003e+00	 4.303999999997644e-01
0	 3.125000000000000e+01	 4.750000000000002e+00	 4.641999999989820e-01
0	 3.125000000000000e+01	 5.000000000000000e+00	 4.979999999996210e-01
0	 3.187500000000000e+01	 2.500000000000000e+00	 1.532600000005546e-01
0	 3.187500000000000e+01	 2.750000000000000e+00	 1.877719999989524e-01
0	 3.187500000000000e+01	 3.000000000000000e+00	 2.222839999996107e-01
0	 3.187500000000000e+01	 3.250000000000001e+00	 2.567959999998040e-01
0	 3.187500000000000e+01	 3.500000000000001e+00	 2.913079999997149e-01
0	 3.187500000000000e+01	 3.750000000000001e+00	 3.258199999995831e-01
0	 3.187500000000000e+01	 4.000000000000002e+00	 3.603319999989159e-01
0	 3.187500000000000e+01	 4.250000000000002e+00	 3.948439999989767e-01
0	 3.187500000000000e+01	 4.500000000000001e+00	 4.293559999991704e-01
0	 3.187499999999999e+01	 4.750000000000001e+00	 4.638680000016207e-01
0	 3.187500000000000e+01	 5.000000000000000e+00	 4.983799999982996e-01
0	 3.250000000000000e+01	 2.500000000000000e+00	 1.474399999996656e-01
0	 3.250000000000001e+01	 2.750000000000000e+00	 1.825679999999494e-01
0	 3.250000000000000e+01	 3.000000000000001e+00	 2.176959999989470e-01
0	 3.250000000000000e+01	 3.250000000000000e+00	 2.528239999996051e-01
0	 3.249999999999999e+01	 3.500000000000001e+00	 2.879520000000111e-01
0	 3.250000000000001e+01	 3.750000000000001e+00	 3.230800000003803e-01
0	 3.250000000000001e+01	 4.000000000000002e+00	 3.582079999989336e-01
0	 3.249999999999999e+01	 4.250000000000001e+00	 3.933359999999553e-01
0	 3.250000000000000e+01	 4.500000000000001e+00	 4.284639999996732e-01
0	 3.250000000000000e+01	 4.750000000000003e+00	 4.635920000004246e-01
0	 3.250000000000000e+01	 5.000000000000000e+00	 4.987199999999082e-01
0	 3.312499999999999e+01	 2.500000000000000e+00	 1.425399999998688e-01
0	 3.312499999999999e+01	 2.750000000000000e+00	 1.781879999985339e-01
0	 3.312499999999999e+01	 3.000000000000000e+00	 2.138360000003234e-01
0	 3.312499999999999e+01	 3.250000000000001e+00	 2.494839999995491e-01
0	 3.312499999999999e+01	 3.500000000000001e+00	 2.851320000004625e-01
0	 3.312499999999999e+01	 3.750000000000001e+00	 3.207799999997694e-01
0	 3.312499999999999e+01	 4.000000000000001e+00	 3.564279999994635e-01
0	 3.312500000000000e+01	 4.250000000000001e+00	 3.920759999976942e-01
0	 3.312499999999999e+01	 4.500000000000002e+00	 4.277240000000403e-01
0	 3.312499999999999e+01	 4.750000000000002e+00	 4.633719999990217e-01
0	 3.312499999999999e+01	 5.000000000000001e+00	 4.990199999993727e-01
0	 3.374999999999999e+01	 2.500000000000000e+00	 1.385599999995435e-01
0	 3.374999999999999e+01	 2.750000000000000e+00	 1.746320000006844e-01
0	 3.374999999999998e+01	 3.000000000000000e+00	 2.107039999997411e-01
0	 3.374999999999999e+01	 3.250000000000000e+00	 2.467759999984277e-01
0	 3.374999999999999e+01	 3.500000000000001e+00	 2.828479999996565e-01
0	 3.374999999999999e+01	 3.750000000000000e+00	 3.189199999998167e-01
0	 3.374999999999999e+01	 4.000000000000002e+00	 3.549919999995984e-01
0	 3.374999999999999e+01	 4.250000000000002e+00	 3.910639999996730e-01
0	 3.374999999999999e+01	 4.500000000000002e+00	 4.271359999984625e-01
0	 3.374999999999999e+01	 4.750000000000002e+00	 4.632080000004931e-01
0	 3.374999999999999e+01	 5.000000000000000e+00	 4.992799999998355e-01
0	 3.437499999999999e+01	 2.500000000000000e+00	 1.354999999989559e-01
0	 3.437499999999999e+01	 2.750000000000000e+00	 1.718999999978743e-01
0	 3.437499999999999e+01	 3.000000000000000e+00	 2.083000000006164e-01
0	 3.437499999999999e+01	 3.250000000000001e+00	 2.446999999994547e-01
0	 3.437499999999999e+01	 3.500000000000001e+00	 2.811000000005610e-01
0	 3.437499999999999e+01	 3.750000000000001e+00	 3.175000000002008e-01
0	 3.437499999999999e+01	 4.000000000000002e+00	 3.538999999996406e-01
0	 3.437499999999999e+01	 4.250000000000002e+00	 3.902999999978355e-01
0	 3.437499999999999e+01	 4.500000000000002e+00	 4.266999999988029e-01
0	 3.437499999999999e+01	 4.750000000000003e+00	 4.630999999987999e-01
0	 3.437499999999999e+01	 5.000000000000000e+00	 4.994999999993866e-01
0	 3.499999999999999e+01	 2.500000000000000e+00	 1.333600000009483e-01
0	 3.499999999999998e+01	 2.750000000000000e+00	 1.699919999992935e-01
0	 3.500000000000000e+01	 3.000000000000001e+00	 2.066239999985768e-01
0	 3.499999999999999e+01	 3.250000000000000e+00	 2.432560000006307e-01
0	 3.499999999999998e+01	 3.500000000000000e+00	 2.798880000001376e-01
0	 3.499999999999999e+01	 3.750000000000001e+00	 3.165199999996204e-01
0	 3.499999999999999e+01	 4.000000000000001e+00	 3.531520000005249e-01
0	 3.499999999999999e+01	 4.250000000000002e+00	 3.897839999996932e-01
0	 3.499999999999999e+01	 4.500000000000002e+00	 4.264159999991079e-01
0	 3.499999999999998e+01	 4.750000000000002e+00	 4.630479999995626e-01
0	 3.499999999999999e+01	 5.000000000000000e+00	 4.996799999997137e-01
0	 3.562499999999999e+01	 2.500000000000000e+00	 1.321399999980599e-01
0	 3.562499999999998e+01	 2.750000000000000e+00	 1.689080000005175e-01
0	 3.562499999999999e+01	 3.000000000000001e+00	 2.056759999986437e-01
0	 3.562499999999999e+01	 3.250000000000000e+00	 2.424439999983709e-01
0	 3.562499999999999e+01	 3.500000000000001e+00	 2.792119999994258e-01
0	 3.562499999999999e+01	 3.750000000000002e+00	 3.159799999996792e-01
0	 3.562499999999999e+01	 4.000000000000002e+00	 3.527479999997397e-01
0	 3.562499999999999e+01	 4.250000000000003e+00	 3.895159999993749e-01
0	 3.562499999999998e+01	 4.500000000000002e+00	 4.262839999978869e-01
0	 3.562499999999999e+01	 4.750000000000002e+00	 4.630519999984984e-01
0	 3.562499999999999e+01	 5.000000000000000e+00	 4.998199999995733e-01
0	 3.624999999999998e+01	 2.500000000000000e+00	 1.318400000002384e-01
0	 3.624999999999998e+01	 2.750000000000000e+00	 1.686480000005366e-01
0	 3.624999999999997e+01	 3.000000000000000e+00	 2.054559999997218e-01
0	 3.624999999999998e+01	 3.250000000000000e+00	 2.422640000003867e-01
0	 3.624999999999999e+01	 3.500000000000001e+00	 2.790719999994050e-01
0	 3.624999999999998e+01	 3.750000000000001e+00	 3.158799999998050e-01
0	 3.624999999999999e+01	 4.000000000000003e+00	 3.526879999997244e-01
0	 3.624999999999998e+01	 4.250000000000001e+00	 3.894959999984500e-01
0	 3.624999999999998e+01	 4.500000000000002e+00	 4.263039999997887e-01
0	 3.624999999999999e+01	 4.750000000000002e+00	 4.631119999988463e-01
0	 3.624999999999998e+01	 5.000000000000000e+00	 4.999199999993209e-01
0	 3.687499999999998e+01	 2.500000000000000e+00	 1.324599999996679e-01
0	 3.687499999999999e+01	 2.750000000000001e+00	 1.692120000011514e-01
0	 3.687499999999998e+01	 3.000000000000000e+00	 2.059639999978651e-01
0	 3.687499999999997e+01	 3.250000000000000e+00	 2.427159999989989e-01
0	 3.687499999999998e+01	 3.500000000000001e+00	 2.794680000010734e-01
0	 3.687499999999999e+01	 3.750000000000001e+00	 3.162199999997402e-01
0	 3.687499999999998e+01	 4.000000000000002e+00	 3.529720000006712e-01
0	 3.687499999999999e+01	 4.250000000000001e+00	 3.897239999996933e-01
0	 3.687499999999998e+01	 4.500000000000002e+00	 4.264759999975039e-01
0	 3.687499999999998e+01	 4.750000000000002e+00	 4.632279999972551e-01
0	 3.687499999999998e+01	 5.000000000000000e+00	 4.999800000000219e-01
0	 3.750000000000000e+01	 2.500000000000000e+00	 1.339999999999009e-01
0	 3.750000000000000e+01	 2.750000000000000e+00	 1.705999999977131e-01
0	 3.750000000000000e+01	 3.000000000000001e+00	 2.071999999998297e-01
0	 3.750000000000001e+01	 3.250000000000001e+00	 2.437999999979972e-01
0	 3.750000000000000e+01	 3.500000000000001e+00	 2.803999999997586e-01
0	 3.750000000000001e+01	 3.750000000000001e+00	 3.170000000008096e-01
0	 3.750000000000000e+01	 4.000000000000001e+00	 3.535999999989770e-01
0	 3.750000000000000e+01	 4.250000000000002e+00	 3.901999999996520e-01
0	 3.750000000000001e+01	 4.500000000000003e+00	 4.267999999989058e-01
0	 3.750000000000000e+01	 4.750000000000002e+00	 4.633999999959869e-01
0	 3.750000000000000e+01	 5.000000000000000e+00	 4.999999999995453e-01
0	 3.125000000000000e+01	 5.000000000000000e+00	 4.979999999996210e-01
0	 3.125000000000000e+01	 5.250000000000000e+00	 5.321999999993756e-01
0	 3.125000000000000e+01	 5.500000000000001e+00	 5.663999999986822e-01
0	 3.125000000000000e+01	 5.750000000000002e+00	 6.005999999990875e-01
0	 3.125000000000000e+01	 6.000000000000001e+00	 6.347999999994269e-01
0	 3.125000000000000e+01	 6.250000000000001e+00	 6.690000000008703e-01
0	 3.125000000000000e+01	 6.500000000000001e+00	 7.031999999995264e-01
0	 3.125000000000000e+01	 6.750000000000002e+00	 7.373999999998662e-01
0	 3.125000000000001e+01	 7.000000000000003e+00	 7.716000000009161e-01
0	 3.125000000000000e+01	 7.250000000000002e+00	 8.057999999998344e-01
0	 3.125000000000000e+01	 7.500000000000000e+00	 8.400000000001739e-01
0	 3.187500000000000e+01	 5.000000000000000e+00	 4.983799999982996e-01
0	 3.187500000000000e+01	 5.250000000000000e+00	 5.332899999998657e-01
0	 3.187500000000000e+01	 5.500000000000001e+00	 5.682000000001397e-01
0	 3.187500000000000e+01	 5.750000000000000e+00	 6.031100000004039e-01
0	 3.187500000000000e+01	 6.000000000000002e+00	 6.380199999998527e-01
0	 3.187500000000000e+01	 6.250000000000002e+00	 6.729300000006772e-01
0	 3.187500000000000e+01	 6.500000000000002e+00	 7.078399999995396e-01
0	 3.187500000000000e+01	 6.750000000000002e+00	 7.427499999991519e-01
0	 3.187500000000000e+01	 7.000000000000001e+00	 7.776599999988698e-01
0	 3.187499999999999e+01	 7.250000000000001e+00	 8.125700000022654e-01
0	 3.187500000000000e+01	 7.500000000000000e+00	 8.474800000013214e-01
0	 3.250000000000000e+01	 5.000000000000000e+00	 4.987199999999082e-01
0	 3.250000000000001e+01	 5.250000000000001e+00	 5.342400000005297e-01
0	 3.250000000000000e+01	 5.500000000000002e+00	 5.697599999991544e-01
0	 3.250000000000000e+01	 5.750000000000000e+00	 6.052799999993953e-01
0	 3.249999999999999e+01	 6.000000000000001e+00	 6.407999999999168e-01
0	 3.250000000000001e+01	 6.250000000000002e+00	 6.763200000000351e-01
0	 3.250000000000001e+01	 6.500000000000002e+00	 7.118400000004472e-01
0	 3.249999999999999e+01	 6.750000000000001e+00	 7.473600000005743e-01
0	 3.250000000000000e+01	 7.000000000000003e+00	 7.828800000007072e-01
0	 3.250000000000000e+01	 7.250000000000004e+00	 8.184000000011640e-01
0	 3.250000000000000e+01	 7.499999999999999e+00	 8.539200000003964e-01
0	 3.312499999999999e+01	 5.000000000000001e+00	 4.990199999993727e-01
0	 3.312499999999999e+01	 5.250000000000001e+00	 5.350499999987807e-01
0	 3.312499999999999e+01	 5.500000000000000e+00	 5.710799999998917e-01
0	 3.312499999999999e+01	 5.750000000000001e+00	 6.071099999998599e-01
0	 3.312499999999999e+01	 6.000000000000000e+00	 6.431400000007165e-01
0	 3.312499999999999e+01	 6.250000000000000e+00	 6.791700000003220e-01
0	 3.312499999999999e+01	 6.500000000000001e+00	 7.151999999996924e-01
0	 3.312500000000000e+01	 6.750000000000002e+00	 7.512299999981775e-01
0	 3.312499999999999e+01	 7.000000000000002e+00	 7.872600000009553e-01
0	 3.312499999999999e+01	 7.250000000000001e+00	 8.232900000002796e-01
0	 3.312499999999999e+01	 7.499999999999999e+00	 8.593200000009741e-01
0	 3.374999999999999e+01	 5.000000000000000e+00	 4.992799999998355e-01
0	 3.374999999999999e+01	 5.250000000000001e+00	 5.357199999994948e-01
0	 3.374999999999998e+01	 5.500000000000000e+00	 5.721600000006227e-01
0	 3.374999999999999e+01	 5.750000000000000e+00	 6.085999999992486e-01
0	 3.374999999999999e+01	 6.000000000000001e+00	 6.450400000000618e-01
0	 3.374999999999999e+01	 6.250000000000000e+00	 6.814800000001171e-01
0	 3.374999999999999e+01	 6.500000000000003e+00	 7.179199999997050e-01
0	 3.374999999999999e+01	 6.750000000000002e+00	 7.543599999999410e-01
0	 3.374999999999999e+01	 7.000000000000003e+00	 7.908000000005800e-01
0	 3.374999999999999e+01	 7.250000000000002e+00	 8.272399999987752e-01
0	 3.374999999999999e+01	 7.500000000000000e+00	 8.636800000015655e-01
0	 3.437499999999999e+01	 5.000000000000000e+00	 4.994999999993866e-01
0	 3.437499999999999e+01	 5.250000000000000e+00	 5.362499999974213e-01
0	 3.437499999999999e+01	 5.500000000000001e+00	 5.730000000017668e-01
0	 3.437499999999999e+01	 5.750000000000001e+00	 6.097500000001654e-01
0	 3.437499999999999e+01	 6.000000000000001e+00	 6.465000000009211e-01
0	 3.437499999999999e+01	 6.250000000000001e+00	 6.832500000004764e-01
0	 3.437499999999999e+01	 6.500000000000001e+00	 7.199999999997430e-01
0	 3.437499999999999e+01	 6.750000000000002e+00	 7.567499999977648e-01
0	 3.437499999999999e+01	 7.000000000000000e+00	 7.935000000005134e-01
0	 3.437499999999999e+01	 7.250000000000002e+00	 8.302499999998040e-01
0	 3.437499999999999e+01	 7.500000000000001e+00	 8.670000000009284e-01
0	 3.499999999999999e+01	 5.000000000000000e+00	 4.996799999997137e-01
0	 3.499999999999998e+01	 5.249999999999999e+00	 5.366399999990853e-01
0	 3.500000000000000e+01	 5.500000000000001e+00	 5.735999999972632e-01
0	 3.499999999999999e+01	 5.750000000000000e+00	 6.105600000010543e-01
0	 3.499999999999998e+01	 6.000000000000000e+00	 6.475200000005217e-01
0	 3.499999999999999e+01	 6.250000000000001e+00	 6.844799999992545e-01
0	 3.499999999999999e+01	 6.500000000000001e+00	 7.214400000011855e-01
0	 3.499999999999999e+01	 6.750000000000000e+00	 7.584000000001367e-01
0	 3.499999999999999e+01	 7.000000000000002e+00	 7.953600000007554e-01
0	 3.499999999999998e+01	 7.250000000000001e+00	 8.323199999999272e-01
0	 3.499999999999999e+01	 7.500000000000000e+00	 8.692800000002165e-01
0	 3.562499999999999e+01	 5.000000000000000e+00	 4.998199999995733e-01
0	 3.562499999999998e+01	 5.249999999999999e+00	 5.368900000013058e-01
0	 3.562499999999999e+01	 5.500000000000000e+00	 5.739599999990621e-01
0	 3.562499999999999e+01	 5.750000000000001e+00	 6.110299999984637e-01
0	 3.562499999999999e+01	 6.000000000000003e+00	 6.480999999998148e-01
0	 3.562499999999999e+01	 6.250000000000002e+00	 6.851700000000095e-01
0	 3.562499999999999e+01	 6.500000000000001e+00	 7.222399999984122e-01
0	 3.562499999999999e+01	 6.750000000000002e+00	 7.593099999995870e-01
0	 3.562499999999998e+01	 7.000000000000002e+00	 7.963800000003491e-01
0	 3.562499999999999e+01	 7.250000000000002e+00	 8.334500000003686e-01
0	 3.562499999999999e+01	 7.500000000000000e+00	 8.705200000001414e-01
0	 3.624999999999998e+01	 5.000000000000000e+00	 4.999199999993209e-01
0	 3.624999999999998e+01	 5.250000000000001e+00	 5.370000000009859e-01
0	 3.624999999999997e+01	 5.500000000000000e+00	 5.740799999979850e-01
0	 3.624999999999998e+01	 5.750000000000001e+00	 6.111599999993061e-01
0	 3.624999999999999e+01	 6.000000000000001e+00	 6.482399999989807e-01
0	 3.624999999999998e+01	 6.250000000000001e+00	 6.853199999998589e-01
0	 3.624999999999999e+01	 6.500000000000004e+00	 7.223999999984807e-01
0	 3.624999999999998e+01	 6.750000000000001e+00	 7.594799999994613e-01
0	 3.624999999999998e+01	 7.000000000000002e+00	 7.965599999991468e-01
0	 3.624999999999999e+01	 7.250000000000003e+00	 8.336399999986828e-01
0	 3.624999999999998e+01	 7.500000000000000e+00	 8.707199999989257e-01
0	 3.687499999999998e+01	 5.000000000000000e+00	 4.999800000000219e-01
0	 3.687499999999999e+01	 5.250000000000002e+00	 5.369700000013026e-01
0	 3.687499999999998e+01	 5.500000000000001e+00	 5.739599999992343e-01
0	 3.687499999999997e+01	 5.750000000000001e+00	 6.109499999998100e-01
0	 3.687499999999998e+01	 6.000000000000002e+00	 6.479400000009709e-01
0	 3.687499999999999e+01	 6.250000000000001e+00	 6.849299999997900e-01
0	 3.687499999999998e+01	 6.500000000000001e+00	 7.219200000005183e-01
0	 3.687499999999999e+01	 6.750000000000001e+00	 7.589100000000477e-01
0	 3.687499999999998e+01	 7.000000000000001e+00	 7.958999999976555e-01
0	 3.687499999999998e+01	 7.250000000000002e+00	 8.328899999979141e-01
0	 3.687499999999998e+01	 7.500000000000000e+00	 8.698800000004783e-01
0	 3.750000000000000e+01	 5.000000000000000e+00	 4.999999999995453e-01
0	 3.750000000000000e+01	 5.250000000000000e+00	 5.367999999989839e-01
0	 3.750000000000000e+01	 5.500000000000001e+00	 5.735999999998853e-01
0	 3.750000000000001e+01	 5.750000000000002e+00	 6.103999999982586e-01
0	 3.750000000000000e+01	 6.000000000000001e+00	 6.471999999998700e-01
0	 3.750000000000001e+01	 6.250000000000001e+00	 6.840000000007713e-01
0	 3.750000000000000e+01	 6.500000000000001e+00	 7.207999999998549e-01
0	 3.750000000000000e+01	 6.750000000000002e+00	 7.576000000000250e-01
0	 3.750000000000001e+01	 7.000000000000003e+00	 7.943999999994845e-01
0	 3.750000000000000e+01	 7.250000000000002e+00	 8.311999999967710e-01
0	 3.750000000000000e+01	 7.500000000000000e+00	 8.679999999998246e-01
0	 3.125000000000000e+01	 7.500000000000000e+00	 8.400000000001739e-01
0	 3.125000000000000e+01	 7.750000000000001e+00	 8.579999999998288e-01
0	 3.125000000000000e+01	 8.000000000000002e+00	 8.759999999997456e-01
0	 3.125000000000000e+01	 8.250000000000002e+00	 8.940000000002613e-01
0	 3.125000000000000e+01	 8.500000000000000e+00	 9.120000000010008e-01
0	 3.125000000000000e+01	 8.750000000000000e+00	 9.300000000010300e-01
0	 3.125000000000000e+01	 9.000000000000004e+00	 9.479999999996379e-01
0	 3.125000000000000e+01	 9.250000000000005e+00	 9.659999999996670e-01
0	 3.125000000000000e+01	 9.500000000000000e+00	 9.839999999991715e-01
0	 3.125000000000000e+01	 9.750000000000002e+00	 1.002000000001147e+00
0	 3.125000000000000e+01	 1.000000000000000e+01	 1.020000000001176e+00
0	 3.187500000000000e+01	 7.500000000000000e+00	 8.474800000013214e-01
0	 3.187500000000000e+01	 7.750000000000000e+00	 8.651039999998960e-01
0	 3.187500000000000e+01	 8.000000000000002e+00	 8.827279999995200e-01
0	 3.187500000000000e+01	 8.250000000000000e+00	 9.003520000013385e-01
0	 3.187500000000000e+01	 8.499999999999998e+00	 9.179759999998405e-01
0	 3.187500000000000e+01	 8.750000000000000e+00	 9.356000000016020e-01
0	 3.187500000000000e+01	 9.000000000000002e+00	 9.532240000024785e-01
0	 3.187499999999999e+01	 9.250000000000000e+00	 9.708479999997192e-01
0	 3.187500000000000e+01	 9.500000000000002e+00	 9.884719999975061e-01
0	 3.187500000000000e+01	 9.750000000000004e+00	 1.006096000001522e+00
0	 3.187500000000000e+01	 1.000000000000000e+01	 1.023720000000461e+00
0	 3.250000000000000e+01	 7.499999999999999e+00	 8.539200000003964e-01
0	 3.249999999999999e+01	 7.749999999999998e+00	 8.712160000011528e-01
0	 3.250000000000000e+01	 8.000000000000002e+00	 8.885119999992170e-01
0	 3.249999999999999e+01	 8.250000000000004e+00	 9.058080000011310e-01
0	 3.250000000000000e+01	 8.500000000000000e+00	 9.231040000002542e-01
0	 3.249999999999999e+01	 8.750000000000002e+00	 9.404000000014998e-01
0	 3.250000000000000e+01	 9.000000000000002e+00	 9.576960000004358e-01
0	 3.250000000000000e+01	 9.250000000000004e+00	 9.749919999996629e-01
0	 3.249999999999999e+01	 9.500000000000002e+00	 9.922880000014984e-01
0	 3.249999999999999e+01	 9.750000000000002e+00	 1.009584000005282e+00
0	 3.249999999999999e+01	 1.000000000000000e+01	 1.026880000000041e+00
0	 3.312499999999999e+01	 7.499999999999999e+00	 8.593200000009741e-01
0	 3.312500000000001e+01	 7.750000000000001e+00	 8.763359999999661e-01
0	 3.312499999999999e+01	 8.000000000000000e+00	 8.933520000012282e-01
0	 3.312499999999999e+01	 8.250000000000002e+00	 9.103680000004392e-01
0	 3.312499999999999e+01	 8.500000000000000e+00	 9.273840000017798e-01
0	 3.312499999999999e+01	 8.750000000000000e+00	 9.444000000003410e-01
0	 3.312500000000000e+01	 9.000000000000002e+00	 9.614159999997527e-01
0	 3.312499999999999e+01	 9.250000000000000e+00	 9.784320000010289e-01
0	 3.312500000000000e+01	 9.500000000000004e+00	 9.954479999991845e-01
0	 3.312500000000000e+01	 9.750000000000004e+00	 1.012464000000221e+00
0	 3.312499999999999e+01	 1.000000000000000e+01	 1.029480000001292e+00
0	 3.374999999999999e+01	 7.500000000000000e+00	 8.636800000015655e-01
0	 3.374999999999999e+01	 7.750000000000000e+00	 8.804640000013225e-01
0	 3.374999999999999e+01	 7.999999999999998e+00	 8.972479999999697e-01
0	 3.374999999999999e+01	 8.250000000000000e+00	 9.140320000007623e-01
0	 3.374999999999998e+01	 8.500000000000000e+00	 9.308160000001192e-01
0	 3.374999999999999e+01	 8.750000000000002e+00	 9.476000000001154e-01
0	 3.374999999999999e+01	 9.000000000000002e+00	 9.643840000016524e-01
0	 3.374999999999999e+01	 9.250000000000000e+00	 9.811679999971623e-01
0	 3.374999999999999e+01	 9.500000000000004e+00	 9.979520000007918e-01
0	 3.374999999999999e+01	 9.750000000000002e+00	 1.014735999999771e+00
0	 3.374999999999999e+01	 1.000000000000000e+01	 1.031520000001506e+00
0	 3.437499999999999e+01	 7.500000000000001e+00	 8.670000000009284e-01
0	 3.437499999999999e+01	 7.750000000000001e+00	 8.836000000002763e-01
0	 3.437499999999999e+01	 8.000000000000000e+00	 9.002000000006477e-01
0	 3.437499999999999e+01	 8.249999999999998e+00	 9.168000000004660e-01
0	 3.437499999999999e+01	 8.500000000000002e+00	 9.333999999995513e-01
0	 3.437499999999999e+01	 8.750000000000002e+00	 9.500000000002726e-01
0	 3.437499999999999e+01	 9.000000000000002e+00	 9.666000000002843e-01
0	 3.437499999999999e+01	 9.250000000000002e+00	 9.832000000014817e-01
0	 3.437499999999999e+01	 9.500000000000002e+00	 9.998000000030396e-01
0	 3.437499999999999e+01	 9.750000000000002e+00	 1.016400000000290e+00
0	 3.437499999999999e+01	 1.000000000000000e+01	 1.033000000000328e+00
0	 3.499999999999999e+01	 7.500000000000000e+00	 8.692800000002165e-01
0	 3.499999999999998e+01	 7.749999999999997e+00	 8.857439999991257e-01
0	 3.499999999999999e+01	 8.000000000000002e+00	 9.022079999995122e-01
0	 3.499999999999999e+01	 8.249999999999998e+00	 9.186720000019940e-01
0	 3.499999999999999e+01	 8.500000000000002e+00	 9.351360000008900e-01
0	 3.499999999999999e+01	 8.750000000000002e+00	 9.516000000010417e-01
0	 3.499999999999999e+01	 9.000000000000002e+00	 9.680640000011653e-01
0	 3.499999999999999e+01	 9.250000000000002e+00	 9.845280000033868e-01
0	 3.499999999999999e+01	 9.500000000000002e+00	 1.000992000002148e+00
0	 3.499999999999999e+01	 9.750000000000000e+00	 1.017456000000746e+00
0	 3.499999999999999e+01	 9.999999999999998e+00	 1.033920000001132e+00
0	 3.562499999999999e+01	 7.500000000000000e+00	 8.705200000001414e-01
0	 3.562499999999999e+01	 7.750000000000001e+00	 8.868960000012401e-01
0	 3.562499999999999e+01	 8.000000000000000e+00	 9.032719999983948e-01
0	 3.562499999999998e+01	 8.250000000000002e+00	 9.196479999996398e-01
0	 3.562499999999999e+01	 8.500000000000004e+00	 9.360240000003017e-01
0	 3.562499999999999e+01	 8.750000000000002e+00	 9.524000000030166e-01
0	 3.562499999999998e+01	 8.999999999999998e+00	 9.687759999988613e-01
0	 3.562499999999999e+01	 9.250000000000002e+00	 9.851520000008795e-01
0	 3.562499999999999e+01	 9.500000000000002e+00	 1.001527999997468e+00
0	 3.562499999999999e+01	 9.750000000000004e+00	 1.017904000001124e+00
0	 3.562499999999999e+01	 1.000000000000000e+01	 1.034280000000365e+00
0	 3.624999999999998e+01	 7.500000000000000e+00	 8.707199999989257e-01
0	 3.624999999999999e+01	 7.750000000000000e+00	 8.870559999993997e-01
0	 3.624999999999999e+01	 8.000000000000002e+00	 9.033919999998483e-01
0	 3.624999999999999e+01	 8.250000000000002e+00	 9.197279999996107e-01
0	 3.624999999999999e+01	 8.500000000000000e+00	 9.360640000002606e-01
0	 3.624999999999999e+01	 8.750000000000002e+00	 9.523999999995950e-01
0	 3.624999999999999e+01	 9.000000000000002e+00	 9.687359999963903e-01
0	 3.624999999999999e+01	 9.250000000000002e+00	 9.850720000000865e-01
0	 3.624999999999999e+01	 9.500000000000000e+00	 1.001407999998346e+00
0	 3.624999999999998e+01	 9.750000000000002e+00	 1.017744000004930e+00
0	 3.624999999999998e+01	 1.000000000000000e+01	 1.034080000002291e+00
0	 3.687499999999998e+01	 7.500000000000000e+00	 8.698800000004783e-01
0	 3.687499999999997e+01	 7.750000000000000e+00	 8.862240000019519e-01
0	 3.687499999999998e+01	 8.000000000000000e+00	 9.025680000001368e-01
0	 3.687499999999998e+01	 8.250000000000002e+00	 9.189119999997541e-01
0	 3.687499999999998e+01	 8.500000000000000e+00	 9.352560000003510e-01
0	 3.687499999999998e+01	 8.750000000000000e+00	 9.515999999993854e-01
0	 3.687499999999998e+01	 9.000000000000002e+00	 9.679440000020819e-01
0	 3.687499999999997e+01	 9.250000000000000e+00	 9.842880000007885e-01
0	 3.687499999999998e+01	 9.500000000000002e+00	 1.000632000004906e+00
0	 3.687499999999997e+01	 9.750000000000000e+00	 1.016976000003230e+00
0	 3.687499999999998e+01	 1.000000000000000e+01	 1.033319999999093e+00
0	 3.750000000000000e+01	 7.500000000000000e+00	 8.679999999998246e-01
0	 3.750000000000001e+01	 7.750000000000001e+00	 8.843999999978329e-01
0	 3.750000000000000e+01	 8.000000000000002e+00	 9.007999999997907e-01
0	 3.750000000000000e+01	 8.250000000000002e+00	 9.171999999999514e-01
0	 3.750000000000000e+01	 8.500000000000000e+00	 9.335999999997568e-01
0	 3.750000000000000e+01	 8.750000000000000e+00	 9.500000000002728e-01
0	 3.750000000000000e+01	 9.000000000000004e+00	 9.664000000000783e-01
0	 3.750000000000001e+01	 9.250000000000005e+00	 9.828000000020568e-01
0	 3.750000000000000e+01	 9.500000000000000e+00	 9.991999999996890e-01
0	 3.750000000000000e+01	 9.750000000000002e+00	 1.015599999999495e+00
0	 3.750000000000000e+01	 1.000000000000000e+01	 1.032000000000721e+00
0	 3.750000000000000e+01	 0.000000000000000e+00	-3.600000000005821e-02
0	 3.750000000000000e+01	 2.500000000000000e-01	-1.900000000154541e-02
0	 3.750000000000000e+01	 5.000000000000000e-01	-2.000000002719020e-03
0	 3.750000000000000e+01	 7.500000000000001e-01	 1.500000000141709e-02
0	 3.750000000000001e+01	 1.000000000000000e+00	 3.200000000198600e-02
0	 3.750000000000000e+01	 1.250000000000000e+00	 4.899999999992134e-02
0	 3.750000000000000e+01	 1.500000000000000e+00	 6.599999999854655e-02
0	 3.750000000000000e+01	 1.750000000000000e+00	 8.300000000114172e-02
0	 3.750000000000000e+01	 2.000000000000000e+00	 1.000000000004775e-01
0	 3.750000000000000e+01	 2.250000000000000e+00	 1.170000000009410e-01
0	 3.750000000000000e+01	 2.500000000000000e+00	 1.339999999999009e-01
0	 3.812500000000000e+01	 0.000000000000000e+00	-3.376000000043788e-02
0	 3.812500000000000e+01	 2.499999999999999e-01	-1.679599999781254e-02
0	 3.812499999999999e+01	 4.999999999999999e-01	 1.680000016462265e-04
0	 3.812500000000001e+01	 7.500000000000001e-01	 1.713199999779815e-02
0	 3.812500000000000e+01	 1.000000000000000e+00	 3.409599999802900e-02
0	 3.812500000000001e+01	 1.250000000000000e+00	 5.105999999951982e-02
0	 3.812500000000000e+01	 1.500000000000000e+00	 6.802400000254179e-02
0	 3.812500000000000e+01	 1.750000000000000e+00	 8.498800000006355e-02
0	 3.812500000000001e+01	 2.000000000000000e+00	 1.019520000003382e-01
0	 3.812500000000000e+01	 2.250000000000000e+00	 1.189159999999306e-01
0	 3.812500000000000e+01	 2.500000000000000e+00	 1.358799999994776e-01
0	 3.874999999999999e+01	 0.000000000000000e+00	-3.184000000082676e-02
0	 3.875000000000000e+01	 2.500000000000000e-01	-1.490400000232445e-02
0	 3.874999999999999e+01	 5.000000000000000e-01	 2.032000001032425e-03
0	 3.874999999999999e+01	 7.500000000000001e-01	 1.896799999990236e-02
0	 3.875000000000000e+01	 1.000000000000000e+00	 3.590399999887044e-02
0	 3.874999999999999e+01	 1.250000000000000e+00	 5.283999999876610e-02
0	 3.874999999999999e+01	 1.500000000000000e+00	 6.977600000317889e-02
0	 3.874999999999999e+01	 1.750000000000000e+00	 8.671200000012173e-02
0	 3.875000000000000e+01	 2.000000000000000e+00	 1.036479999996232e-01
0	 3.874999999999999e+01	 2.250000000000000e+00	 1.205839999983718e-01
0	 3.875000000000000e+01	 2.500000000000000e+00	 1.375200000012012e-01
0	 3.937499999999999e+01	 0.000000000000000e+00	-3.024000000095839e-02
0	 3.937499999999999e+01	 2.500000000000000e-01	-1.332400000256341e-02
0	 3.937499999999999e+01	 5.000000000000000e-01	 3.591999998606640e-03
0	 3.937500000000000e+01	 7.500000000000002e-01	 2.050799999777135e-02
0	 3.937499999999999e+01	 1.000000000000000e+00	 3.742399999975886e-02
0	 3.937500000000000e+01	 1.250000000000000e+00	 5.433999999917561e-02
0	 3.937499999999999e+01	 1.500000000000000e+00	 7.125600000228829e-02
0	 3.937499999999999e+01	 1.750000000000000e+00	 8.817200000087158e-02
0	 3.937499999999999e+01	 2.000000000000000e+00	 1.050879999990347e-01
0	 3.937500000000000e+01	 2.250000000000000e+00	 1.220039999991562e-01
0	 3.937499999999999e+01	 2.500000000000000e+00	 1.389200000007307e-01
0	 3.999999999999999e+01	 0.000000000000000e+00	-2.896000000163212e-02
0	 3.999999999999999e+01	 2.500000000000000e-01	-1.205600000444308e-02
0	 3.999999999999999e+01	 4.999999999999999e-01	 4.847999997692286e-03
0	 3.999999999999999e+01	 7.500000000000000e-01	 2.175199999992661e-02
0	 3.999999999999999e+01	 1.000000000000000e+00	 3.865600000006683e-02
0	 4.000000000000000e+01	 1.250000000000000e+00	 5.555999999975468e-02
0	 3.999999999999999e+01	 1.500000000000000e+00	 7.246399999921940e-02
0	 3.999999999999999e+01	 1.750000000000000e+00	 8.936799999919030e-02
0	 3.999999999999999e+01	 2.000000000000000e+00	 1.062720000007289e-01
0	 3.999999999999999e+01	 2.250000000000000e+00	 1.231760000021310e-01
0	 3.999999999999999e+01	 2.500000000000000e+00	 1.400799999982993e-01
0	 4.062499999999999e+01	 0.000000000000000e+00	-2.800000000178216e-02
0	 4.062499999999998e+01	 2.499999999999999e-01	-1.109999999328532e-02
0	 4.062499999999999e+01	 5.000000000000001e-01	 5.800000003968226e-03
0	 4.062499999999999e+01	 7.500000000000000e-01	 2.269999999567696e-02
0	 4.062499999999999e+01	 9.999999999999998e-01	 3.959999999539720e-02
0	 4.062499999999999e+01	 1.250000000000000e+00	 5.649999999803867e-02
0	 4.062499999999999e+01	 1.500000000000000e+00	 7.339999999891221e-02
0	 4.062499999999999e+01	 1.750000000000000e+00	 9.030000000136237e-02
0	 4.062499999999999e+01	 2.000000000000000e+00	 1.072000000003969e-01
0	 4.062500000000001e+01	 2.250000000000000e+00	 1.241000000019374e-01
0	 4.062499999999999e+01	 2.500000000000000e+00	 1.409999999992806e-01
0	 4.124999999999999e+01	 0.000000000000000e+00	-2.735999999856632e-02
0	 4.124999999999998e+01	 2.500000000000000e-01	-1.045599999971904e-02
0	 4.124999999999998e+01	 5.000000000000000e-01	 6.448000003178539e-03
0	 4.124999999999998e+01	 7.500000000000002e-01	 2.335200000253652e-02
0	 4.124999999999999e+01	 1.000000000000000e+00	 4.025600000044064e-02
0	 4.124999999999999e+01	 1.250000000000000e+00	 5.716000000042242e-02
0	 4.124999999999999e+01	 1.500000000000000e+00	 7.406400000175556e-02
0	 4.124999999999999e+01	 1.750000000000000e+00	 9.096799999994690e-02
0	 4.124999999999999e+01	 1.999999999999999e+00	 1.078719999998867e-01
0	 4.124999999999999e+01	 2.250000000000000e+00	 1.247759999992555e-01
0	 4.124999999999999e+01	 2.500000000000000e+00	 1.416799999994112e-01
0	 4.187499999999999e+01	 0.000000000000000e+00	-2.703999999909001e-02
0	 4.187499999999999e+01	 2.500000000000000e-01	-1.012400000223183e-02
0	 4.187499999999999e+01	 5.000000000000001e-01	 6.792000003032260e-03
0	 4.187499999999999e+01	 7.500000000000000e-01	 2.370799999709102e-02
0	 4.187499999999999e+01	 1.000000000000000e+00	 4.062400000041586e-02
0	 4.187499999999999e+01	 1.250000000000000e+00	 5.753999999917881e-02
0	 4.187499999999998e+01	 1.500000000000000e+00	 7.445600000122481e-02
0	 4.187499999999999e+01	 1.750000000000000e+00	 9.137199999855740e-02
0	 4.187499999999999e+01	 2.000000000000000e+00	 1.082880000012665e-01
0	 4.187499999999999e+01	 2.250000000000000e+00	 1.252039999974095e-01
0	 4.187499999999998e+01	 2.500000000000000e+00	 1.421199999988687e-01
0	 4.249999999999998e+01	 0.000000000000000e+00	-2.704000000051110e-02
0	 4.249999999999999e+01	 2.499999999999999e-01	-1.010399999562116e-02
0	 4.249999999999999e+01	 5.000000000000001e-01	 6.831999999444224e-03
0	 4.249999999999999e+01	 7.500000000000002e-01	 2.376800000050402e-02
0	 4.249999999999997e+01	 1.000000000000000e+00	 4.070400000028929e-02
0	 4.249999999999996e+01	 1.250000000000000e+00	 5.763999999963687e-02
0	 4.249999999999999e+01	 1.500000000000000e+00	 7.457600000200200e-02
0	 4.249999999999999e+01	 1.750000000000000e+00	 9.151199999885740e-02
0	 4.249999999999999e+01	 2.000000000000000e+00	 1.084479999965516e-01
0	 4.249999999999999e+01	 2.250000000000000e+00	 1.253840000001343e-01
0	 4.249999999999997e+01	 2.500000000000000e+00	 1.423199999997848e-01
0	 4.312499999999998e+01	 0.000000000000000e+00	-2.736000000425065e-02
0	 4.312499999999998e+01	 2.500000000000000e-01	-1.039600000304194e-02
0	 4.312499999999998e+01	 5.000000000000000e-01	 6.568000000090078e-03
0	 4.312499999999999e+01	 7.500000000000001e-01	 2.353199999767242e-02
0	 4.312499999999997e+01	 9.999999999999998e-01	 4.049599999927510e-02
0	 4.312499999999998e+01	 1.250000000000000e+00	 5.745999999859918e-02
0	 4.312499999999998e+01	 1.500000000000000e+00	 7.442399999959549e-02
0	 4.312499999999998e+01	 1.750000000000000e+00	 9.138800000151062e-02
0	 4.312499999999998e+01	 2.000000000000000e+00	 1.083520000030390e-01
0	 4.312499999999997e+01	 2.250000000000000e+00	 1.253159999993887e-01
0	 4.312499999999997e+01	 2.500000000000000e+00	 1.422800000014491e-01
0	 4.375000000000000e+01	 0.000000000000000e+00	-2.800000000036107e-02
0	 4.375000000000000e+01	 2.500000000000000e-01	-1.099999999971618e-02
0	 4.375000000000000e+01	 5.000000000000000e-01	 5.999999999387568e-03
0	 4.375000000000000e+01	 7.500000000000001e-01	 2.300000000338504e-02
0	 4.375000000000000e+01	 1.000000000000000e+00	 4.000000000132787e-02
0	 4.375000000000000e+01	 1.250000000000000e+00	 5.699999999961847e-02
0	 4.375000000000000e+01	 1.500000000000000e+00	 7.399999999744036e-02
0	 4.375000000000000e+01	 1.750000000000000e+00	 9.099999999904185e-02
0	 4.375000000000000e+01	 2.000000000000000e+00	 1.080000000001746e-01
0	 4.375000000000000e+01	 2.250000000000000e+00	 1.250000000008237e-01
0	 4.375000000000000e+01	 2.500000000000000e+00	 1.419999999995980e-01
0	 3.750000000000000e+01	 2.500000000000000e+00	 1.339999999999009e-01
0	 3.750000000000000e+01	 2.750000000000000e+00	 1.705999999977131e-01
0	 3.750000000000000e+01	 3.000000000000001e+00	 2.071999999998297e-01
0	 3.750000000000001e+01	 3.250000000000001e+00	 2.437999999979972e-01
0	 3.750000000000000e+01	 3.500000000000001e+00	 2.803999999997586e-01
0	 3.750000000000001e+01	 3.750000000000001e+00	 3.170000000008096e-01
0	 3.750000000000000e+01	 4.000000000000001e+00	 3.535999999989770e-01
0	 3.750000000000000e+01	 4.250000000000002e+00	 3.901999999996520e-01
0	 3.750000000000001e+01	 4.500000000000003e+00	 4.267999999989058e-01
0	 3.750000000000000e+01	 4.750000000000002e+00	 4.633999999959869e-01
0	 3.750000000000000e+01	 5.000000000000000e+00	 4.999999999995453e-01
0	 3.812500000000000e+01	 2.500000000000000e+00	 1.358799999994776e-01
0	 3.812499999999999e+01	 2.750000000000000e+00	 1.722919999989642e-01
0	 3.812500000000001e+01	 3.000000000000000e+00	 2.087039999990722e-01
0	 3.812500000000001e+01	 3.250000000000001e+00	 2.451159999987792e-01
0	 3.812500000000000e+01	 3.500000000000001e+00	 2.815280000008504e-01
0	 3.812500000000001e+01	 3.750000000000001e+00	 3.179400000014758e-01
0	 3.812499999999999e+01	 4.000000000000002e+00	 3.543520000000327e-01
0	 3.812500000000001e+01	 4.250000000000002e+00	 3.907639999990285e-01
0	 3.812500000000001e+01	 4.500000000000001e+00	 4.271760000002670e-01
0	 3.812499999999999e+01	 4.750000000000001e+00	 4.635879999993870e-01
0	 3.812500000000000e+01	 5.000000000000000e+00	 4.999999999987570e-01
0	 3.875000000000000e+01	 2.500000000000000e+00	 1.375200000012012e-01
0	 3.875000000000000e+01	 2.750000000000000e+00	 1.737680000009425e-01
0	 3.875000000000001e+01	 3.000000000000001e+00	 2.100159999977138e-01
0	 3.874999999999999e+01	 3.250000000000000e+00	 2.462639999985604e-01
0	 3.875000000000000e+01	 3.500000000000001e+00	 2.825120000001173e-01
0	 3.875000000000001e+01	 3.750000000000001e+00	 3.187600000000920e-01
0	 3.875000000000000e+01	 4.000000000000002e+00	 3.550079999978438e-01
0	 3.874999999999999e+01	 4.250000000000001e+00	 3.912559999996734e-01
0	 3.875000000000000e+01	 4.500000000000001e+00	 4.275039999982793e-01
0	 3.874999999999999e+01	 4.750000000000003e+00	 4.637519999987145e-01
0	 3.875000000000000e+01	 5.000000000000000e+00	 4.999999999992343e-01
0	 3.937499999999999e+01	 2.500000000000000e+00	 1.389200000007307e-01
0	 3.937500000000000e+01	 2.750000000000000e+00	 1.750279999975295e-01
0	 3.937500000000000e+01	 3.000000000000000e+00	 2.111360000000396e-01
0	 3.937500000000000e+01	 3.250000000000001e+00	 2.472439999983690e-01
0	 3.937499999999999e+01	 3.500000000000001e+00	 2.833520000009621e-01
0	 3.937499999999999e+01	 3.750000000000001e+00	 3.194599999984251e-01
0	 3.937499999999998e+01	 4.000000000000001e+00	 3.555679999977736e-01
0	 3.937499999999999e+01	 4.250000000000001e+00	 3.916759999995129e-01
0	 3.937499999999999e+01	 4.500000000000002e+00	 4.277840000010079e-01
0	 3.937499999999999e+01	 4.750000000000002e+00	 4.638919999995901e-01
0	 3.937499999999999e+01	 5.000000000000001e+00	 4.999999999997229e-01
0	 3.999999999999999e+01	 2.500000000000000e+00	 1.400799999982993e-01
0	 3.999999999999999e+01	 2.750000000000000e+00	 1.760719999995906e-01
0	 3.999999999999999e+01	 3.000000000000000e+00	 2.120640000007626e-01
0	 3.999999999999999e+01	 3.250000000000000e+00	 2.480559999994539e-01
0	 3.999999999999999e+01	 3.500000000000001e+00	 2.840479999976775e-01
0	 3.999999999999999e+01	 3.750000000000000e+00	 3.200400000005727e-01
0	 3.999999999999999e+01	 4.000000000000002e+00	 3.560319999982334e-01
0	 3.999999999999999e+01	 4.250000000000002e+00	 3.920240000026893e-01
0	 3.999999999999999e+01	 4.500000000000002e+00	 4.280159999986211e-01
0	 3.999999999999999e+01	 4.750000000000002e+00	 4.640079999974432e-01
0	 3.999999999999999e+01	 5.000000000000000e+00	 5.000000000011440e-01
0	 4.062499999999999e+01	 2.500000000000000e+00	 1.409999999992806e-01
0	 4.062499999999999e+01	 2.750000000000000e+00	 1.769000000010755e-01
0	 4.062499999999999e+01	 3.000000000000000e+00	 2.127999999981146e-01
0	 4.062499999999999e+01	 3.250000000000001e+00	 2.486999999984404e-01
0	 4.062500000000000e+01	 3.500000000000001e+00	 2.845999999991342e-01
0	 4.062499999999999e+01	 3.750000000000001e+00	 3.204999999986354e-01
0	 4.062499999999999e+01	 4.000000000000002e+00	 3.563999999987634e-01
0	 4.062500000000000e+01	 4.250000000000002e+00	 3.923000000004533e-01
0	 4.062499999999999e+01	 4.500000000000002e+00	 4.281999999994902e-01
0	 4.062499999999999e+01	 4.750000000000003e+00	 4.640999999994425e-01
0	 4.062499999999999e+01	 5.000000000000000e+00	 4.999999999995453e-01
0	 4.124999999999999e+01	 2.500000000000000e+00	 1.416799999994112e-01
0	 4.124999999999997e+01	 2.750000000000000e+00	 1.775120000015567e-01
0	 4.124999999999999e+01	 3.000000000000001e+00	 2.133439999980466e-01
0	 4.124999999999998e+01	 3.250000000000000e+00	 2.491760000006494e-01
0	 4.124999999999999e+01	 3.500000000000000e+00	 2.850079999991873e-01
0	 4.124999999999999e+01	 3.750000000000001e+00	 3.208399999981203e-01
0	 4.124999999999998e+01	 4.000000000000001e+00	 3.566720000014485e-01
0	 4.124999999999999e+01	 4.250000000000002e+00	 3.925039999996445e-01
0	 4.124999999999999e+01	 4.500000000000002e+00	 4.283359999984527e-01
0	 4.124999999999998e+01	 4.750000000000002e+00	 4.641679999975180e-01
0	 4.124999999999999e+01	 5.000000000000000e+00	 5.000000000002558e-01
0	 4.187499999999998e+01	 2.500000000000000e+00	 1.421199999988687e-01
0	 4.187499999999998e+01	 2.750000000000000e+00	 1.779080000024583e-01
0	 4.187499999999999e+01	 3.000000000000001e+00	 2.136959999995316e-01
0	 4.187499999999998e+01	 3.250000000000000e+00	 2.494840000000911e-01
0	 4.187500000000000e+01	 3.500000000000001e+00	 2.852720000002124e-01
0	 4.187499999999999e+01	 3.750000000000002e+00	 3.210599999976524e-01
0	 4.187499999999999e+01	 4.000000000000002e+00	 3.568480000006872e-01
0	 4.187499999999999e+01	 4.250000000000003e+00	 3.926360000010057e-01
0	 4.187499999999999e+01	 4.500000000000002e+00	 4.284240000005390e-01
0	 4.187499999999999e+01	 4.750000000000002e+00	 4.642119999999750e-01
0	 4.187499999999998e+01	 5.000000000000000e+00	 5.000000000009662e-01
0	 4.249999999999997e+01	 2.500000000000000e+00	 1.423199999997848e-01
0	 4.249999999999999e+01	 2.750000000000000e+00	 1.780880000013800e-01
0	 4.249999999999998e+01	 3.000000000000000e+00	 2.138559999971336e-01
0	 4.249999999999998e+01	 3.250000000000000e+00	 2.496239999982538e-01
0	 4.249999999999999e+01	 3.500000000000001e+00	 2.853920000023371e-01
0	 4.249999999999999e+01	 3.750000000000001e+00	 3.211599999992646e-01
0	 4.249999999999999e+01	 4.000000000000003e+00	 3.569279999981961e-01
0	 4.249999999999999e+01	 4.250000000000001e+00	 3.926960000010997e-01
0	 4.249999999999999e+01	 4.500000000000002e+00	 4.284640000008722e-01
0	 4.249999999999999e+01	 4.750000000000002e+00	 4.642319999983375e-01
0	 4.249999999999997e+01	 5.000000000000000e+00	 5.000000000016770e-01
0	 4.312499999999997e+01	 2.500000000000000e+00	 1.422800000014491e-01
0	 4.312499999999999e+01	 2.750000000000001e+00	 1.780519999990308e-01
0	 4.312499999999998e+01	 3.000000000000000e+00	 2.138240000002330e-01
0	 4.312499999999998e+01	 3.250000000000000e+00	 2.495960000007705e-01
0	 4.312499999999998e+01	 3.500000000000001e+00	 2.853680000004380e-01
0	 4.312499999999998e+01	 3.750000000000001e+00	 3.211399999996461e-01
0	 4.312499999999999e+01	 4.000000000000002e+00	 3.569120000001646e-01
0	 4.312499999999998e+01	 4.250000000000001e+00	 3.926839999998322e-01
0	 4.312499999999998e+01	 4.500000000000002e+00	 4.284560000007422e-01
0	 4.312499999999998e+01	 4.750000000000002e+00	 4.642280000020820e-01
0	 4.312499999999997e+01	 5.000000000000000e+00	 4.999999999995452e-01
0	 4.375000000000000e+01	 2.500000000000000e+00	 1.419999999995980e-01
0	 4.375000000000000e+01	 2.750000000000000e+00	 1.777999999949076e-01
0	 4.375000000000000e+01	 3.000000000000001e+00	 2.135999999998929e-01
0	 4.375000000000000e+01	 3.250000000000001e+00	 2.493999999978556e-01
0	 4.375000000000000e+01	 3.500000000000001e+00	 2.851999999992503e-01
0	 4.375000000000000e+01	 3.750000000000001e+00	 3.210000000002822e-01
0	 4.375000000000000e+01	 4.000000000000001e+00	 3.568000000001348e-01
0	 4.375000000000000e+01	 4.250000000000002e+00	 3.926000000006980e-01
0	 4.375000000000001e+01	 4.500000000000003e+00	 4.283999999998400e-01
0	 4.375000000000000e+01	 4.750000000000002e+00	 4.642000000004032e-01
0	 4.375000000000000e+01	 5.000000000000000e+00	 5.000000000009663e-01
0	 3.750000000000000e+01	 5.000000000000000e+00	 4.999999999995453e-01
0	 3.750000000000000e+01	 5.250000000000000e+00	 5.367999999989839e-01
0	 3.750000000000000e+01	 5.500000000000001e+00	 5.735999999998853e-01
0	 3.750000000000001e+01	 5.750000000000002e+00	 6.103999999982586e-01
0	 3.750000000000000e+01	 6.000000000000001e+00	 6.471999999998700e-01
0	 3.750000000000001e+01	 6.250000000000001e+00	 6.840000000007713e-01
0	 3.750000000000000e+01	 6.500000000000001e+00	 7.207999999998549e-01
0	 3.750000000000000e+01	 6.750000000000002e+00	 7.576000000000250e-01
0	 3.750000000000001e+01	 7.000000000000003e+00	 7.943999999994845e-01
0	 3.750000000000000e+01	 7.250000000000002e+00	 8.311999999967710e-01
0	 3.750000000000000e+01	 7.500000000000000e+00	 8.679999999998246e-01
0	 3.812500000000000e+01	 5.000000000000000e+00	 4.999999999987570e-01
0	 3.812499999999999e+01	 5.250000000000000e+00	 5.365739999979738e-01
0	 3.812500000000001e+01	 5.500000000000001e+00	 5.731479999999437e-01
0	 3.812500000000001e+01	 5.750000000000000e+00	 6.097219999995404e-01
0	 3.812500000000000e+01	 6.000000000000002e+00	 6.462960000004438e-01
0	 3.812500000000001e+01	 6.250000000000002e+00	 6.828700000009785e-01
0	 3.812499999999999e+01	 6.500000000000002e+00	 7.194439999994444e-01
0	 3.812500000000001e+01	 6.750000000000002e+00	 7.560179999983436e-01
0	 3.812500000000001e+01	 7.000000000000001e+00	 7.925920000001856e-01
0	 3.812499999999999e+01	 7.250000000000001e+00	 8.291659999984987e-01
0	 3.812500000000000e+01	 7.500000000000000e+00	 8.657399999984825e-01
0	 3.875000000000000e+01	 5.000000000000000e+00	 4.999999999992343e-01
0	 3.875000000000000e+01	 5.250000000000001e+00	 5.363760000003461e-01
0	 3.875000000000001e+01	 5.500000000000002e+00	 5.727519999977774e-01
0	 3.874999999999999e+01	 5.750000000000000e+00	 6.091279999988563e-01
0	 3.875000000000000e+01	 6.000000000000001e+00	 6.455039999992578e-01
0	 3.875000000000001e+01	 6.250000000000002e+00	 6.818799999991872e-01
0	 3.875000000000000e+01	 6.500000000000002e+00	 7.182559999976045e-01
0	 3.874999999999999e+01	 6.750000000000001e+00	 7.546319999993668e-01
0	 3.875000000000000e+01	 7.000000000000003e+00	 7.910079999971500e-01
0	 3.874999999999999e+01	 7.250000000000004e+00	 8.273839999996500e-01
0	 3.875000000000000e+01	 7.499999999999999e+00	 8.637600000008125e-01
0	 3.937499999999999e+01	 5.000000000000001e+00	 4.999999999997229e-01
0	 3.937500000000000e+01	 5.250000000000001e+00	 5.362059999992792e-01
0	 3.937500000000000e+01	 5.500000000000000e+00	 5.724120000005497e-01
0	 3.937500000000000e+01	 5.750000000000001e+00	 6.086179999980615e-01
0	 3.937499999999999e+01	 6.000000000000000e+00	 6.448239999994816e-01
0	 3.937499999999999e+01	 6.250000000000000e+00	 6.810299999985251e-01
0	 3.937499999999998e+01	 6.500000000000001e+00	 7.172359999982546e-01
0	 3.937499999999999e+01	 6.750000000000002e+00	 7.534419999993986e-01
0	 3.937499999999999e+01	 7.000000000000002e+00	 7.896480000005645e-01
0	 3.937499999999999e+01	 7.250000000000001e+00	 8.258539999986397e-01
0	 3.937499999999999e+01	 7.499999999999999e+00	 8.620599999996872e-01
0	 3.999999999999999e+01	 5.000000000000000e+00	 5.000000000011440e-01
0	 3.999999999999999e+01	 5.250000000000001e+00	 5.360639999983341e-01
0	 3.999999999999999e+01	 5.500000000000000e+00	 5.721279999996679e-01
0	 3.999999999999999e+01	 5.750000000000000e+00	 6.081920000001864e-01
0	 3.999999999999999e+01	 6.000000000000001e+00	 6.442559999993047e-01
0	 3.999999999999999e+01	 6.250000000000000e+00	 6.803200000004299e-01
0	 3.999999999999999e+01	 6.500000000000003e+00	 7.163839999998735e-01
0	 3.999999999999999e+01	 6.750000000000002e+00	 7.524480000017603e-01
0	 3.999999999999999e+01	 7.000000000000003e+00	 7.885119999992086e-01
0	 3.999999999999999e+01	 7.250000000000002e+00	 8.245759999968825e-01
0	 3.999999999999999e+01	 7.500000000000000e+00	 8.606399999980141e-01
0	 4.062499999999999e+01	 5.000000000000000e+00	 4.999999999995453e-01
0	 4.062499999999999e+01	 5.250000000000000e+00	 5.359499999999705e-01
0	 4.062499999999999e+01	 5.500000000000001e+00	 5.718999999984822e-01
0	 4.062499999999999e+01	 5.750000000000001e+00	 6.078499999980600e-01
0	 4.062500000000000e+01	 6.000000000000001e+00	 6.437999999999598e-01
0	 4.062499999999999e+01	 6.250000000000001e+00	 6.797499999982687e-01
0	 4.062499999999999e+01	 6.500000000000001e+00	 7.156999999996918e-01
0	 4.062500000000000e+01	 6.750000000000002e+00	 7.516499999998343e-01
0	 4.062499999999999e+01	 7.000000000000000e+00	 7.875999999987451e-01
0	 4.062499999999999e+01	 7.250000000000002e+00	 8.235500000010579e-01
0	 4.062499999999999e+01	 7.500000000000001e+00	 8.594999999985478e-01
0	 4.124999999999999e+01	 5.000000000000000e+00	 5.000000000002558e-01
0	 4.124999999999997e+01	 5.249999999999999e+00	 5.358639999996312e-01
0	 4.124999999999999e+01	 5.500000000000001e+00	 5.717279999976140e-01
0	 4.124999999999998e+01	 5.750000000000000e+00	 6.075920000009106e-01
0	 4.124999999999999e+01	 6.000000000000000e+00	 6.434559999997869e-01
0	 4.124999999999999e+01	 6.250000000000001e+00	 6.793199999979924e-01
0	 4.124999999999998e+01	 6.500000000000001e+00	 7.151840000014815e-01
0	 4.124999999999999e+01	 6.750000000000000e+00	 7.510479999987725e-01
0	 4.124999999999999e+01	 7.000000000000002e+00	 7.869119999991623e-01
0	 4.124999999999998e+01	 7.250000000000001e+00	 8.227759999976780e-01
0	 4.124999999999999e+01	 7.500000000000000e+00	 8.586399999984452e-01
0	 4.187499999999998e+01	 5.000000000000000e+00	 5.000000000009662e-01
0	 4.187499999999998e+01	 5.249999999999999e+00	 5.358060000021373e-01
0	 4.187499999999999e+01	 5.500000000000000e+00	 5.716120000010552e-01
0	 4.187499999999998e+01	 5.750000000000001e+00	 6.074179999981302e-01
0	 4.187500000000000e+01	 6.000000000000003e+00	 6.432240000015171e-01
0	 4.187499999999999e+01	 6.250000000000002e+00	 6.790299999972491e-01
0	 4.187499999999999e+01	 6.500000000000001e+00	 7.148360000007076e-01
0	 4.187499999999999e+01	 6.750000000000002e+00	 7.506420000007390e-01
0	 4.187499999999999e+01	 7.000000000000002e+00	 7.864480000010509e-01
0	 4.187499999999999e+01	 7.250000000000002e+00	 8.222539999991341e-01
0	 4.187499999999998e+01	 7.500000000000000e+00	 8.580599999980624e-01
0	 4.249999999999997e+01	 5.000000000000000e+00	 5.000000000016770e-01
0	 4.249999999999999e+01	 5.250000000000001e+00	 5.357760000006477e-01
0	 4.249999999999998e+01	 5.500000000000000e+00	 5.715519999980403e-01
0	 4.249999999999998e+01	 5.750000000000001e+00	 6.073279999989341e-01
0	 4.249999999999999e+01	 6.000000000000001e+00	 6.431040000019030e-01
0	 4.249999999999999e+01	 6.250000000000001e+00	 6.788799999984266e-01
0	 4.249999999999999e+01	 6.500000000000004e+00	 7.146559999983754e-01
0	 4.249999999999999e+01	 6.750000000000001e+00	 7.504320000019409e-01
0	 4.249999999999999e+01	 7.000000000000002e+00	 7.862079999988226e-01
0	 4.249999999999999e+01	 7.250000000000003e+00	 8.219839999969495e-01
0	 4.249999999999997e+01	 7.500000000000000e+00	 8.577599999981090e-01
0	 4.312499999999997e+01	 5.000000000000000e+00	 4.999999999995452e-01
0	 4.312499999999999e+01	 5.250000000000002e+00	 5.357739999996016e-01
0	 4.312499999999998e+01	 5.500000000000001e+00	 5.715480000011469e-01
0	 4.312499999999998e+01	 5.750000000000001e+00	 6.073220000007842e-01
0	 4.312499999999998e+01	 6.000000000000002e+00	 6.430960000006173e-01
0	 4.312499999999998e+01	 6.250000000000001e+00	 6.788699999985697e-01
0	 4.312499999999999e+01	 6.500000000000001e+00	 7.146439999999644e-01
0	 4.312499999999998e+01	 6.750000000000001e+00	 7.504180000005080e-01
0	 4.312499999999998e+01	 7.000000000000001e+00	 7.861920000001625e-01
0	 4.312499999999998e+01	 7.250000000000002e+00	 8.219660000002464e-01
0	 4.312499999999997e+01	 7.500000000000000e+00	 8.577399999992965e-01
0	 4.375000000000000e+01	 5.000000000000000e+00	 5.000000000009663e-01
0	 4.375000000000000e+01	 5.250000000000000e+00	 5.357999999982297e-01
0	 4.375000000000000e+01	 5.500000000000001e+00	 5.716000000023270e-01
0	 4.375000000000000e+01	 5.750000000000002e+00	 6.073999999995796e-01
0	 4.375000000000000e+01	 6.000000000000001e+00	 6.431999999984870e-01
0	 4.375000000000000e+01	 6.250000000000001e+00	 6.790000000002294e-01
0	 4.375000000000000e+01	 6.500000000000001e+00	 7.148000000000820e-01
0	 4.375000000000000e+01	 6.750000000000002e+00	 7.506000000006453e-01
0	 4.375000000000001e+01	 7.000000000000003e+00	 7.863999999997873e-01
0	 4.375000000000000e+01	 7.250000000000002e+00	 8.221999999989293e-01
0	 4.375000000000000e+01	 7.500000000000000e+00	 8.579999999994925e-01
0	 3.750000000000000e+01	 7.500000000000000e+00	 8.679999999998246e-01
0	 3.750000000000001e+01	 7.750000000000001e+00	 8.843999999978329e-01
0	 3.750000000000000e+01	 8.000000000000002e+00	 9.007999999997907e-01
0	 3.750000000000000e+01	 8.250000000000002e+00	 9.171999999999514e-01
0	 3.750000000000000e+01	 8.500000000000000e+00	 9.335999999997568e-01
0	 3.750000000000000e+01	 8.750000000000000e+00	 9.500000000002728e-01
0	 3.750000000000000e+01	 9.000000000000004e+00	 9.664000000000783e-01
0	 3.750000000000001e+01	 9.250000000000005e+00	 9.828000000020568e-01
0	 3.750000000000000e+01	 9.500000000000000e+00	 9.991999999996890e-01
0	 3.750000000000000e+01	 9.750000000000002e+00	 1.015599999999495e+00
0	 3.750000000000000e+01	 1.000000000000000e+01	 1.032000000000721e+00
0	 3.812500000000000e+01	 7.500000000000000e+00	 8.657399999984825e-01
0	 3.812500000000000e+01	 7.750000000000000e+00	 8.822180000006539e-01
0	 3.812500000000000e+01	 8.000000000000002e+00	 8.986960000016880e-01
0	 3.812500000000000e+01	 8.250000000000000e+00	 9.151739999981365e-01
0	 3.812500000000001e+01	 8.499999999999998e+00	 9.316520000014776e-01
0	 3.812500000000000e+01	 8.750000000000000e+00	 9.481300000013189e-01
0	 3.812500000000000e+01	 9.000000000000002e+00	 9.646079999996703e-01
0	 3.812499999999999e+01	 9.250000000000000e+00	 9.810860000020581e-01
0	 3.812500000000000e+01	 9.500000000000002e+00	 9.975639999991609e-01
0	 3.812500000000001e+01	 9.750000000000004e+00	 1.014042000002136e+00
0	 3.812500000000000e+01	 1.000000000000000e+01	 1.030519999999857e+00
0	 3.875000000000000e+01	 7.499999999999999e+00	 8.637600000008125e-01
0	 3.874999999999999e+01	 7.749999999999998e+00	 8.803119999997046e-01
0	 3.874999999999999e+01	 8.000000000000002e+00	 8.968639999978979e-01
0	 3.874999999999999e+01	 8.250000000000004e+00	 9.134159999977838e-01
0	 3.874999999999999e+01	 8.500000000000000e+00	 9.299680000003018e-01
0	 3.874999999999999e+01	 8.750000000000002e+00	 9.465200000000423e-01
0	 3.875000000000000e+01	 9.000000000000002e+00	 9.630719999976166e-01
0	 3.874999999999999e+01	 9.250000000000004e+00	 9.796240000028724e-01
0	 3.874999999999999e+01	 9.500000000000002e+00	 9.961759999969503e-01
0	 3.875000000000000e+01	 9.750000000000002e+00	 1.012728000001652e+00
0	 3.874999999999999e+01	 1.000000000000000e+01	 1.029279999997712e+00
0	 3.937499999999999e+01	 7.499999999999999e+00	 8.620599999996872e-01
0	 3.937500000000000e+01	 7.750000000000001e+00	 8.786819999991800e-01
0	 3.937500000000001e+01	 8.000000000000000e+00	 8.953040000013996e-01
0	 3.937500000000000e+01	 8.250000000000002e+00	 9.119259999998016e-01
0	 3.937499999999999e+01	 8.500000000000000e+00	 9.285479999997374e-01
0	 3.937500000000000e+01	 8.750000000000000e+00	 9.451699999979875e-01
0	 3.937500000000000e+01	 9.000000000000002e+00	 9.617919999980828e-01
0	 3.937499999999999e+01	 9.250000000000000e+00	 9.784140000025595e-01
0	 3.937499999999999e+01	 9.500000000000004e+00	 9.950360000005182e-01
0	 3.937499999999999e+01	 9.750000000000004e+00	 1.011658000003356e+00
0	 3.937499999999999e+01	 1.000000000000000e+01	 1.028279999999881e+00
0	 3.999999999999999e+01	 7.500000000000000e+00	 8.606399999980141e-01
0	 4.000000000000000e+01	 7.750000000000000e+00	 8.773279999990914e-01
0	 3.999999999999999e+01	 7.999999999999998e+00	 8.940160000011470e-01
0	 4.000000000000000e+01	 8.250000000000000e+00	 9.107039999986800e-01
0	 3.999999999999999e+01	 8.500000000000000e+00	 9.273920000012192e-01
0	 3.999999999999999e+01	 8.750000000000002e+00	 9.440800000004727e-01
0	 3.999999999999999e+01	 9.000000000000002e+00	 9.607679999975098e-01
0	 3.999999999999999e+01	 9.250000000000000e+00	 9.774559999951200e-01
0	 3.999999999999998e+01	 9.500000000000004e+00	 9.941439999984942e-01
0	 3.999999999999999e+01	 9.750000000000002e+00	 1.010831999994341e+00
0	 3.999999999999999e+01	 1.000000000000000e+01	 1.027520000003789e+00
0	 4.062499999999999e+01	 7.500000000000001e+00	 8.594999999985478e-01
0	 4.062499999999999e+01	 7.750000000000001e+00	 8.762499999982026e-01
0	 4.062499999999999e+01	 8.000000000000000e+00	 8.929999999987055e-01
0	 4.062499999999999e+01	 8.249999999999998e+00	 9.097499999987300e-01
0	 4.062499999999999e+01	 8.500000000000002e+00	 9.265000000008408e-01
0	 4.062499999999999e+01	 8.750000000000002e+00	 9.432500000002617e-01
0	 4.062499999999999e+01	 9.000000000000002e+00	 9.600000000002501e-01
0	 4.062499999999999e+01	 9.250000000000002e+00	 9.767500000010755e-01
0	 4.062499999999999e+01	 9.500000000000002e+00	 9.935000000005798e-01
0	 4.062499999999999e+01	 9.750000000000002e+00	 1.010250000004406e+00
0	 4.062499999999999e+01	 1.000000000000000e+01	 1.027000000000555e+00
0	 4.124999999999999e+01	 7.500000000000000e+00	 8.586399999984452e-01
0	 4.124999999999999e+01	 7.749999999999997e+00	 8.754480000008354e-01
0	 4.124999999999999e+01	 8.000000000000002e+00	 8.922560000000246e-01
0	 4.124999999999998e+01	 8.249999999999998e+00	 9.090640000017282e-01
0	 4.124999999999999e+01	 8.500000000000002e+00	 9.258719999999673e-01
0	 4.124999999999999e+01	 8.750000000000002e+00	 9.426799999958588e-01
0	 4.124999999999999e+01	 9.000000000000002e+00	 9.594880000033665e-01
0	 4.124999999999999e+01	 9.250000000000002e+00	 9.762960000027376e-01
0	 4.124999999999998e+01	 9.500000000000002e+00	 9.931039999998982e-01
0	 4.124999999999999e+01	 9.750000000000000e+00	 1.009912000006455e+00
0	 4.124999999999999e+01	 9.999999999999998e+00	 1.026720000001547e+00
0	 4.187499999999998e+01	 7.500000000000000e+00	 8.580599999980624e-01
0	 4.187499999999999e+01	 7.750000000000001e+00	 8.749220000013234e-01
0	 4.187499999999999e+01	 8.000000000000000e+00	 8.917839999993166e-01
0	 4.187499999999999e+01	 8.250000000000002e+00	 9.086460000001112e-01
0	 4.187499999999999e+01	 8.500000000000004e+00	 9.255080000014149e-01
0	 4.187499999999999e+01	 8.750000000000002e+00	 9.423699999995598e-01
0	 4.187499999999998e+01	 8.999999999999998e+00	 9.592320000001248e-01
0	 4.187499999999999e+01	 9.250000000000002e+00	 9.760939999978289e-01
0	 4.187499999999999e+01	 9.500000000000002e+00	 9.929560000034440e-01
0	 4.187499999999999e+01	 9.750000000000004e+00	 1.009818000004601e+00
0	 4.187499999999999e+01	 1.000000000000000e+01	 1.026680000001079e+00
0	 4.249999999999997e+01	 7.500000000000000e+00	 8.577599999981090e-01
0	 4.249999999999999e+01	 7.750000000000000e+00	 8.746720000013988e-01
0	 4.249999999999999e+01	 8.000000000000002e+00	 8.915839999968610e-01
0	 4.249999999999999e+01	 8.250000000000002e+00	 9.084959999978250e-01
0	 4.249999999999998e+01	 8.500000000000000e+00	 9.254079999956274e-01
0	 4.249999999999998e+01	 8.750000000000002e+00	 9.423199999992509e-01
0	 4.249999999999999e+01	 9.000000000000002e+00	 9.592319999966412e-01
0	 4.249999999999998e+01	 9.250000000000002e+00	 9.761439999974280e-01
0	 4.249999999999999e+01	 9.500000000000000e+00	 9.930560000004608e-01
0	 4.249999999999998e+01	 9.750000000000002e+00	 1.009967999997675e+00
0	 4.249999999999998e+01	 1.000000000000000e+01	 1.026880000000574e+00
0	 4.312499999999997e+01	 7.500000000000000e+00	 8.577399999992965e-01
0	 4.312499999999998e+01	 7.750000000000000e+00	 8.746979999996360e-01
0	 4.312499999999997e+01	 8.000000000000000e+00	 8.916560000021403e-01
0	 4.312499999999999e+01	 8.250000000000002e+00	 9.086139999985239e-01
0	 4.312499999999999e+01	 8.500000000000000e+00	 9.255720000015043e-01
0	 4.312499999999997e+01	 8.750000000000000e+00	 9.425299999993103e-01
0	 4.312499999999999e+01	 9.000000000000002e+00	 9.594879999980321e-01
0	 4.312499999999997e+01	 9.250000000000000e+00	 9.764459999999534e-01
0	 4.312499999999998e+01	 9.500000000000002e+00	 9.934040000000963e-01
0	 4.312499999999998e+01	 9.750000000000000e+00	 1.010362000002373e+00
0	 4.312499999999998e+01	 1.000000000000000e+01	 1.027320000000031e+00
0	 4.375000000000000e+01	 7.500000000000000e+00	 8.579999999994925e-01
0	 4.375000000000001e+01	 7.750000000000001e+00	 8.749999999955456e-01
0	 4.375000000000000e+01	 8.000000000000002e+00	 8.919999999996265e-01
0	 4.375000000000001e+01	 8.250000000000002e+00	 9.089999999981589e-01
0	 4.375000000000000e+01	 8.500000000000000e+00	 9.259999999959808e-01
0	 4.375000000000000e+01	 8.750000000000000e+00	 9.430000000008932e-01
0	 4.375000000000001e+01	 9.000000000000004e+00	 9.600000000015421e-01
0	 4.375000000000001e+01	 9.250000000000005e+00	 9.769999999974744e-01
0	 4.375000000000000e+01	 9.500000000000000e+00	 9.939999999971859e-01
0	 4.375000000000000e+01	 9.750000000000002e+00	 1.010999999999741e+00
0	 4.375000000000000e+01	 1.000000000000000e+01	 1.027999999999452e+00
0	 4.375000000000000e+01	 0.000000000000000e+00	-2.800000000036107e-02
0	 4.375000000000000e+01	 2.500000000000000e-01	-1.099999999971618e-02
0	 4.375000000000000e+01	 5.000000000000000e-01	 5.999999999387568e-03
0	 4.375000000000000e+01	 7.500000000000001e-01	 2.300000000338504e-02
0	 4.375000000000000e+01	 1.000000000000000e+00	 4.000000000132787e-02
0	 4.375000000000000e+01	 1.250000000000000e+00	 5.699999999961847e-02
0	 4.375000000000000e+01	 1.500000000000000e+00	 7.399999999744036e-02
0	 4.375000000000000e+01	 1.750000000000000e+00	 9.099999999904185e-02
0	 4.375000000000000e+01	 2.000000000000000e+00	 1.080000000001746e-01
0	 4.375000000000000e+01	 2.250000000000000e+00	 1.250000000008237e-01
0	 4.375000000000000e+01	 2.500000000000000e+00	 1.419999999995980e-01
0	 4.437500000000000e+01	 0.000000000000000e+00	-2.872000000166963e-02
0	 4.437499999999999e+01	 2.499999999999999e-01	-1.168599999836144e-02
0	 4.437499999999999e+01	 4.999999999999999e-01	 5.348000000804801e-03
0	 4.437500000000000e+01	 7.500000000000001e-01	 2.238200000336921e-02
0	 4.437500000000000e+01	 1.000000000000000e+00	 3.941600000470540e-02
0	 4.437500000000000e+01	 1.250000000000000e+00	 5.644999999976363e-02
0	 4.437499999999999e+01	 1.500000000000000e+00	 7.348399999909419e-02
0	 4.437500000000000e+01	 1.750000000000000e+00	 9.051799999832966e-02
0	 4.437500000000000e+01	 2.000000000000000e+00	 1.075519999983269e-01
0	 4.437499999999999e+01	 2.250000000000000e+00	 1.245859999997601e-01
0	 4.437500000000000e+01	 2.500000000000000e+00	 1.416199999983548e-01
0	 4.500000000000000e+01	 0.000000000000000e+00	-2.927999999542408e-02
0	 4.500000000000001e+01	 2.500000000000000e-01	-1.222399999835487e-02
0	 4.500000000000000e+01	 5.000000000000000e-01	 4.832000001659394e-03
0	 4.499999999999999e+01	 7.500000000000001e-01	 2.188800000217946e-02
0	 4.500000000000001e+01	 1.000000000000000e+00	 3.894400000265236e-02
0	 4.500000000000000e+01	 1.250000000000000e+00	 5.600000000143269e-02
0	 4.500000000000000e+01	 1.500000000000000e+00	 7.305599999990661e-02
0	 4.499999999999999e+01	 1.750000000000000e+00	 9.011199999810306e-02
0	 4.500000000000000e+01	 2.000000000000000e+00	 1.071680000007056e-01
0	 4.500000000000000e+01	 2.250000000000000e+00	 1.242239999982964e-01
0	 4.499999999999999e+01	 2.500000000000000e+00	 1.412799999982895e-01
0	 4.562499999999999e+01	 0.000000000000000e+00	-2.968000000720394e-02
0	 4.562499999999999e+01	 2.500000000000000e-01	-1.261400000361755e-02
0	 4.562499999999999e+01	 5.000000000000000e-01	 4.452000003015429e-03
0	 4.562499999999999e+01	 7.500000000000002e-01	 2.151799999830731e-02
0	 4.562500000000000e+01	 1.000000000000000e+00	 3.858400000026191e-02
0	 4.562500000000000e+01	 1.250000000000000e+00	 5.564999999894128e-02
0	 4.562499999999999e+01	 1.500000000000000e+00	 7.271600000031186e-02
0	 4.562499999999999e+01	 1.750000000000000e+00	 8.978199999933878e-02
0	 4.562499999999999e+01	 2.000000000000000e+00	 1.068479999980228e-01
0	 4.562500000000000e+01	 2.250000000000000e+00	 1.239139999981116e-01
0	 4.562500000000000e+01	 2.500000000000000e+00	 1.409800000022443e-01
0	 4.624999999999999e+01	 0.000000000000000e+00	-2.991999999721884e-02
0	 4.624999999999999e+01	 2.500000000000000e-01	-1.285599999701977e-02
0	 4.624999999999999e+01	 4.999999999999999e-01	 4.208000000775502e-03
0	 4.624999999999998e+01	 7.500000000000000e-01	 2.127200000390069e-02
0	 4.624999999999999e+01	 1.000000000000000e+00	 3.833600000164658e-02
0	 4.624999999999999e+01	 1.250000000000000e+00	 5.540000000223698e-02
0	 4.624999999999999e+01	 1.500000000000000e+00	 7.246399999939002e-02
0	 4.624999999999999e+01	 1.750000000000000e+00	 8.952799999804026e-02
0	 4.625000000000000e+01	 2.000000000000000e+00	 1.065919999995477e-01
0	 4.624999999999999e+01	 2.250000000000000e+00	 1.236559999994588e-01
0	 4.624999999999999e+01	 2.500000000000000e+00	 1.407199999988506e-01
0	 4.687499999999999e+01	 0.000000000000000e+00	-2.999999999460101e-02
0	 4.687499999999999e+01	 2.499999999999999e-01	-1.295000000141888e-02
0	 4.687500000000000e+01	 5.000000000000001e-01	 4.100000002871353e-03
0	 4.687499999999999e+01	 7.500000000000000e-01	 2.114999999749234e-02
0	 4.687499999999999e+01	 9.999999999999998e-01	 3.820000000011849e-02
0	 4.687499999999999e+01	 1.250000000000000e+00	 5.525000000243806e-02
0	 4.687499999999999e+01	 1.500000000000000e+00	 7.229999999794995e-02
0	 4.687499999999999e+01	 1.750000000000000e+00	 8.935000000180941e-02
0	 4.687499999999999e+01	 2.000000000000000e+00	 1.063999999991772e-01
0	 4.687499999999999e+01	 2.250000000000000e+00	 1.234499999976577e-01
0	 4.687499999999999e+01	 2.500000000000000e+00	 1.404999999994772e-01
0	 4.749999999999999e+01	 0.000000000000000e+00	-2.992000000290319e-02
0	 4.749999999999999e+01	 2.500000000000000e-01	-1.289599999919360e-02
0	 4.749999999999999e+01	 5.000000000000000e-01	 4.127999995943564e-03
0	 4.749999999999999e+01	 7.500000000000002e-01	 2.115199999766419e-02
0	 4.749999999999999e+01	 1.000000000000000e+00	 3.817599999863086e-02
0	 4.749999999999999e+01	 1.250000000000000e+00	 5.519999999776814e-02
0	 4.749999999999999e+01	 1.500000000000000e+00	 7.222399999644163e-02
0	 4.749999999999999e+01	 1.750000000000000e+00	 8.924799999832092e-02
0	 4.749999999999999e+01	 1.999999999999999e+00	 1.062720000007289e-01
0	 4.749999999999999e+01	 2.250000000000000e+00	 1.232959999999790e-01
0	 4.749999999999999e+01	 2.500000000000000e+00	 1.403200000012816e-01
0	 4.812499999999999e+01	 0.000000000000000e+00	-2.967999999725635e-02
0	 4.812499999999999e+01	 2.500000000000000e-01	-1.269400000226690e-02
0	 4.812499999999997e+01	 5.000000000000001e-01	 4.292000002762750e-03
0	 4.812499999999999e+01	 7.500000000000000e-01	 2.127800000127816e-02
0	 4.812499999999999e+01	 1.000000000000000e+00	 3.826399999525163e-02
0	 4.812499999999999e+01	 1.250000000000000e+00	 5.524999999941827e-02
0	 4.812499999999998e+01	 1.500000000000000e+00	 7.223600000173826e-02
0	 4.812499999999999e+01	 1.750000000000000e+00	 8.922199999901183e-02
0	 4.812499999999999e+01	 2.000000000000000e+00	 1.062080000009278e-01
0	 4.812499999999999e+01	 2.250000000000000e+00	 1.231940000021334e-01
0	 4.812499999999999e+01	 2.500000000000000e+00	 1.401799999989350e-01
0	 4.874999999999998e+01	 0.000000000000000e+00	-2.928000000110842e-02
0	 4.874999999999998e+01	 2.499999999999999e-01	-1.234400000027509e-02
0	 4.874999999999999e+01	 5.000000000000001e-01	 4.592000000111968e-03
0	 4.874999999999999e+01	 7.500000000000002e-01	 2.152799999809463e-02
0	 4.874999999999997e+01	 1.000000000000000e+00	 3.846399999600256e-02
0	 4.874999999999996e+01	 1.250000000000000e+00	 5.539999999939482e-02
0	 4.874999999999999e+01	 1.500000000000000e+00	 7.233600000291390e-02
0	 4.874999999999999e+01	 1.750000000000000e+00	 8.927199999885999e-02
0	 4.874999999999999e+01	 2.000000000000000e+00	 1.062079999984583e-01
0	 4.874999999999998e+01	 2.250000000000000e+00	 1.231439999983763e-01
0	 4.874999999999999e+01	 2.500000000000000e+00	 1.400799999998981e-01
0	 4.937499999999998e+01	 0.000000000000000e+00	-2.872000000024855e-02
0	 4.937499999999999e+01	 2.500000000000000e-01	-1.184599999879538e-02
0	 4.937499999999998e+01	 5.000000000000000e-01	 5.028000007641387e-03
0	 4.937499999999999e+01	 7.500000000000001e-01	 2.190200000030053e-02
0	 4.937499999999996e+01	 9.999999999999998e-01	 3.877600000112590e-02
0	 4.937499999999998e+01	 1.250000000000000e+00	 5.565000000089526e-02
0	 4.937499999999998e+01	 1.500000000000000e+00	 7.252400000208571e-02
0	 4.937499999999998e+01	 1.750000000000000e+00	 8.939800000274080e-02
0	 4.937499999999997e+01	 2.000000000000000e+00	 1.062719999985603e-01
0	 4.937499999999998e+01	 2.250000000000000e+00	 1.231460000018083e-01
0	 4.937499999999997e+01	 2.500000000000000e+00	 1.400199999991969e-01
0	 5.000000000000000e+01	 0.000000000000000e+00	-2.800000000036107e-02
0	 5.000000000000000e+01	 2.500000000000000e-01	-1.120000000160185e-02
0	 5.000000000000000e+01	 5.000000000000000e-01	 5.599999998675354e-03
0	 5.000000000000000e+01	 7.500000000000001e-01	 2.240000000287936e-02
0	 5.000000000000000e+01	 1.000000000000000e+00	 3.920000000263713e-02
0	 5.000000000000000e+01	 1.250000000000000e+00	 5.600000000001160e-02
0	 5.000000000000000e+01	 1.500000000000000e+00	 7.279999999684329e-02
0	 5.000000000000000e+01	 1.750000000000000e+00	 8.959999999973434e-02
0	 5.000000000000001e+01	 2.000000000000000e+00	 1.064000000013720e-01
0	 5.000000000000000e+01	 2.250000000000000e+00	 1.232000000001676e-01
0	 5.000000000000000e+01	 2.500000000000000e+00	 1.400000000003843e-01
0	 4.375000000000000e+01	 2.500000000000000e+00	 1.419999999995980e-01
0	 4.375000000000000e+01	 2.750000000000000e+00	 1.777999999949076e-01
0	 4.375000000000000e+01	 3.000000000000001e+00	 2.135999999998929e-01
0	 4.375000000000000e+01	 3.250000000000001e+00	 2.493999999978556e-01
0	 4.375000000000000e+01	 3.500000000000001e+00	 2.851999999992503e-01
0	 4.375000000000000e+01	 3.750000000000001e+00	 3.210000000002822e-01
0	 4.375000000000000e+01	 4.000000000000001e+00	 3.568000000001348e-01
0	 4.375000000000000e+01	 4.250000000000002e+00	 3.926000000006980e-01
0	 4.375000000000001e+01	 4.500000000000003e+00	 4.283999999998400e-01
0	 4.375000000000000e+01	 4.750000000000002e+00	 4.642000000004032e-01
0	 4.375000000000000e+01	 5.000000000000000e+00	 5.000000000009663e-01
0	 4.437500000000000e+01	 2.500000000000000e+00	 1.416199999983548e-01
0	 4.437499999999999e+01	 2.750000000000000e+00	 1.774580000006564e-01
0	 4.437500000000000e+01	 3.000000000000000e+00	 2.132960000003644e-01
0	 4.437499999999999e+01	 3.250000000000001e+00	 2.491339999998387e-01
0	 4.437500000000001e+01	 3.500000000000001e+00	 2.849720000009892e-01
0	 4.437500000000001e+01	 3.750000000000001e+00	 3.208100000020531e-01
0	 4.437500000000000e+01	 4.000000000000002e+00	 3.566480000015307e-01
0	 4.437499999999999e+01	 4.250000000000002e+00	 3.924859999993340e-01
0	 4.437500000000000e+01	 4.500000000000001e+00	 4.283240000029547e-01
0	 4.437499999999999e+01	 4.750000000000001e+00	 4.641620000037847e-01
0	 4.437500000000000e+01	 5.000000000000000e+00	 5.000000000015881e-01
0	 4.499999999999999e+01	 2.500000000000000e+00	 1.412799999982895e-01
0	 4.500000000000001e+01	 2.750000000000000e+00	 1.771520000013128e-01
0	 4.500000000000001e+01	 3.000000000000001e+00	 2.130239999978870e-01
0	 4.499999999999999e+01	 3.250000000000000e+00	 2.488959999989666e-01
0	 4.500000000000000e+01	 3.500000000000001e+00	 2.847680000006884e-01
0	 4.500000000000001e+01	 3.750000000000001e+00	 3.206399999980687e-01
0	 4.500000000000001e+01	 4.000000000000002e+00	 3.565119999994131e-01
0	 4.499999999999999e+01	 4.250000000000001e+00	 3.923840000006339e-01
0	 4.500000000000000e+01	 4.500000000000001e+00	 4.282560000016337e-01
0	 4.500000000000000e+01	 4.750000000000003e+00	 4.641280000014823e-01
0	 4.499999999999999e+01	 5.000000000000000e+00	 4.999999999991900e-01
0	 4.562500000000000e+01	 2.500000000000000e+00	 1.409800000022443e-01
0	 4.562499999999999e+01	 2.750000000000000e+00	 1.768820000001239e-01
0	 4.562499999999999e+01	 3.000000000000000e+00	 2.127839999972348e-01
0	 4.562499999999999e+01	 3.250000000000001e+00	 2.486859999984565e-01
0	 4.562499999999999e+01	 3.500000000000001e+00	 2.845880000020908e-01
0	 4.562499999999999e+01	 3.750000000000001e+00	 3.204899999991734e-01
0	 4.562499999999999e+01	 4.000000000000001e+00	 3.563920000039039e-01
0	 4.562499999999999e+01	 4.250000000000001e+00	 3.922940000023800e-01
0	 4.562499999999999e+01	 4.500000000000002e+00	 4.281960000021455e-01
0	 4.562499999999999e+01	 4.750000000000002e+00	 4.640980000007602e-01
0	 4.562500000000000e+01	 5.000000000000001e+00	 4.999999999993676e-01
0	 4.624999999999999e+01	 2.500000000000000e+00	 1.407199999988506e-01
0	 4.624999999999999e+01	 2.750000000000000e+00	 1.766479999998214e-01
0	 4.624999999999999e+01	 3.000000000000000e+00	 2.125759999984217e-01
0	 4.624999999999999e+01	 3.250000000000000e+00	 2.485040000011322e-01
0	 4.624999999999999e+01	 3.500000000000001e+00	 2.844320000018143e-01
0	 4.624999999999999e+01	 3.750000000000000e+00	 3.203600000013296e-01
0	 4.624999999999999e+01	 4.000000000000002e+00	 3.562879999999223e-01
0	 4.625000000000000e+01	 4.250000000000002e+00	 3.922160000007548e-01
0	 4.624999999999999e+01	 4.500000000000002e+00	 4.281440000022310e-01
0	 4.625000000000000e+01	 4.750000000000002e+00	 4.640720000008258e-01
0	 4.624999999999999e+01	 5.000000000000000e+00	 5.000000000009663e-01
0	 4.687499999999999e+01	 2.500000000000000e+00	 1.404999999994772e-01
0	 4.687499999999999e+01	 2.750000000000000e+00	 1.764500000013949e-01
0	 4.687499999999999e+01	 3.000000000000000e+00	 2.124000000000419e-01
0	 4.687499999999998e+01	 3.250000000000001e+00	 2.483499999997887e-01
0	 4.687499999999999e+01	 3.500000000000001e+00	 2.842999999999254e-01
0	 4.687499999999999e+01	 3.750000000000001e+00	 3.202500000037714e-01
0	 4.687499999999999e+01	 4.000000000000002e+00	 3.562000000002286e-01
0	 4.687500000000000e+01	 4.250000000000002e+00	 3.921500000004901e-01
0	 4.687499999999999e+01	 4.500000000000002e+00	 4.281000000005974e-01
0	 4.687500000000000e+01	 4.750000000000003e+00	 4.640500000012143e-01
0	 4.687499999999999e+01	 5.000000000000000e+00	 5.000000000038085e-01
0	 4.749999999999999e+01	 2.500000000000000e+00	 1.403200000012816e-01
0	 4.749999999999998e+01	 2.750000000000000e+00	 1.762879999995397e-01
0	 4.749999999999999e+01	 3.000000000000001e+00	 2.122560000028450e-01
0	 4.749999999999998e+01	 3.250000000000000e+00	 2.482240000004585e-01
0	 4.749999999999998e+01	 3.500000000000000e+00	 2.841920000003647e-01
0	 4.749999999999999e+01	 3.750000000000001e+00	 3.201600000004134e-01
0	 4.749999999999999e+01	 4.000000000000001e+00	 3.561279999995651e-01
0	 4.749999999999999e+01	 4.250000000000002e+00	 3.920960000016294e-01
0	 4.749999999999999e+01	 4.500000000000002e+00	 4.280640000014873e-01
0	 4.749999999999999e+01	 4.750000000000002e+00	 4.640319999979093e-01
0	 4.749999999999999e+01	 5.000000000000000e+00	 5.000000000016770e-01
0	 4.812499999999999e+01	 2.500000000000000e+00	 1.401799999989350e-01
0	 4.812499999999999e+01	 2.750000000000000e+00	 1.761619999982975e-01
0	 4.812499999999999e+01	 3.000000000000001e+00	 2.121440000008646e-01
0	 4.812499999999998e+01	 3.250000000000000e+00	 2.481260000002311e-01
0	 4.812500000000000e+01	 3.500000000000001e+00	 2.841079999990849e-01
0	 4.812499999999999e+01	 3.750000000000002e+00	 3.200899999982135e-01
0	 4.812499999999998e+01	 4.000000000000002e+00	 3.560720000006120e-01
0	 4.812499999999999e+01	 4.250000000000003e+00	 3.920539999980137e-01
0	 4.812499999999999e+01	 4.500000000000002e+00	 4.280360000013345e-01
0	 4.812499999999999e+01	 4.750000000000002e+00	 4.640180000027280e-01
0	 4.812499999999999e+01	 5.000000000000000e+00	 5.000000000016768e-01
0	 4.874999999999999e+01	 2.500000000000000e+00	 1.400799999998981e-01
0	 4.874999999999999e+01	 2.750000000000000e+00	 1.760720000027553e-01
0	 4.874999999999996e+01	 3.000000000000000e+00	 2.120639999984787e-01
0	 4.874999999999998e+01	 3.250000000000000e+00	 2.480559999987960e-01
0	 4.874999999999999e+01	 3.500000000000001e+00	 2.840480000015511e-01
0	 4.874999999999998e+01	 3.750000000000001e+00	 3.200399999989855e-01
0	 4.874999999999999e+01	 4.000000000000003e+00	 3.560319999998284e-01
0	 4.874999999999999e+01	 4.250000000000001e+00	 3.920240000013308e-01
0	 4.874999999999998e+01	 4.500000000000002e+00	 4.280160000027018e-01
0	 4.874999999999998e+01	 4.750000000000002e+00	 4.640080000026259e-01
0	 4.874999999999999e+01	 5.000000000000000e+00	 5.000000000023874e-01
0	 4.937499999999997e+01	 2.500000000000000e+00	 1.400199999991969e-01
0	 4.937499999999999e+01	 2.750000000000001e+00	 1.760180000033082e-01
0	 4.937499999999998e+01	 3.000000000000000e+00	 2.120159999999673e-01
0	 4.937499999999998e+01	 3.250000000000000e+00	 2.480139999995116e-01
0	 4.937499999999999e+01	 3.500000000000001e+00	 2.840119999993167e-01
0	 4.937499999999998e+01	 3.750000000000001e+00	 3.200100000018764e-01
0	 4.937499999999999e+01	 4.000000000000002e+00	 3.560080000013954e-01
0	 4.937499999999998e+01	 4.250000000000001e+00	 3.920060000000423e-01
0	 4.937499999999997e+01	 4.500000000000002e+00	 4.280039999979415e-01
0	 4.937499999999999e+01	 4.750000000000002e+00	 4.640020000003260e-01
0	 4.937499999999997e+01	 5.000000000000000e+00	 5.000000000009662e-01
0	 5.000000000000000e+01	 2.500000000000000e+00	 1.400000000003843e-01
0	 5.000000000000000e+01	 2.750000000000000e+00	 1.759999999970798e-01
0	 5.000000000000000e+01	 3.000000000000001e+00	 2.120000000011273e-01
0	 5.000000000000001e+01	 3.250000000000001e+00	 2.480000000005589e-01
0	 5.000000000000000e+01	 3.500000000000001e+00	 2.839999999993638e-01
0	 5.000000000000000e+01	 3.750000000000001e+00	 3.199999999987115e-01
0	 4.999999999999999e+01	 4.000000000000001e+00	 3.560000000007336e-01
0	 5.000000000000000e+01	 4.250000000000002e+00	 3.920000000007918e-01
0	 5.000000000000001e+01	 4.500000000000003e+00	 4.280000000008499e-01
0	 5.000000000000000e+01	 4.750000000000002e+00	 4.640000000034147e-01
0	 5.000000000000000e+01	 5.000000000000000e+00	 5.000000000009663e-01
0	 4.375000000000000e+01	 5.000000000000000e+00	 5.000000000009663e-01
0	 4.375000000000000e+01	 5.250000000000000e+00	 5.357999999982297e-01
0	 4.375000000000000e+01	 5.500000000000001e+00	 5.716000000023270e-01
0	 4.375000000000000e+01	 5.750000000000002e+00	 6.073999999995796e-01
0	 4.375000000000000e+01	 6.000000000000001e+00	 6.431999999984870e-01
0	 4.375000000000000e+01	 6.250000000000001e+00	 6.790000000002294e-01
0	 4.375000000000000e+01	 6.500000000000001e+00	 7.148000000000820e-01
0	 4.375000000000000e+01	 6.750000000000002e+00	 7.506000000006453e-01
0	 4.375000000000001e+01	 7.000000000000003e+00	 7.863999999997873e-01
0	 4.375000000000000e+01	 7.250000000000002e+00	 8.221999999989293e-01
0	 4.375000000000000e+01	 7.500000000000000e+00	 8.579999999994925e-01
0	 4.437500000000000e+01	 5.000000000000000e+00	 5.000000000015881e-01
0	 4.437499999999999e+01	 5.250000000000000e+00	 5.358380000021175e-01
0	 4.437500000000000e+01	 5.500000000000001e+00	 5.716760000014744e-01
0	 4.437499999999999e+01	 5.750000000000000e+00	 6.075139999988086e-01
0	 4.437500000000001e+01	 6.000000000000002e+00	 6.433520000013915e-01
0	 4.437500000000001e+01	 6.250000000000002e+00	 6.791900000017339e-01
0	 4.437500000000000e+01	 6.500000000000002e+00	 7.150280000005117e-01
0	 4.437499999999999e+01	 6.750000000000002e+00	 7.508659999983150e-01
0	 4.437500000000000e+01	 7.000000000000001e+00	 7.867040000005148e-01
0	 4.437499999999999e+01	 7.250000000000001e+00	 8.225420000027770e-01
0	 4.437500000000000e+01	 7.500000000000000e+00	 8.583800000005803e-01
0	 4.499999999999999e+01	 5.000000000000000e+00	 4.999999999991900e-01
0	 4.500000000000001e+01	 5.250000000000001e+00	 5.358720000025854e-01
0	 4.500000000000001e+01	 5.500000000000002e+00	 5.717439999995315e-01
0	 4.499999999999999e+01	 5.750000000000000e+00	 6.076160000005778e-01
0	 4.500000000000000e+01	 6.000000000000001e+00	 6.434880000009228e-01
0	 4.500000000000001e+01	 6.250000000000002e+00	 6.793599999989692e-01
0	 4.500000000000001e+01	 6.500000000000002e+00	 7.152319999989371e-01
0	 4.499999999999999e+01	 6.750000000000001e+00	 7.511040000001580e-01
0	 4.500000000000000e+01	 7.000000000000003e+00	 7.869760000011574e-01
0	 4.500000000000000e+01	 7.250000000000004e+00	 8.228480000010506e-01
0	 4.499999999999999e+01	 7.499999999999999e+00	 8.587200000001791e-01
0	 4.562500000000000e+01	 5.000000000000001e+00	 4.999999999993676e-01
0	 4.562499999999999e+01	 5.250000000000001e+00	 5.359020000042638e-01
0	 4.562499999999999e+01	 5.500000000000000e+00	 5.718039999998650e-01
0	 4.562499999999999e+01	 5.750000000000001e+00	 6.077060000005983e-01
0	 4.562499999999999e+01	 6.000000000000000e+00	 6.436080000024116e-01
0	 4.562499999999999e+01	 6.250000000000000e+00	 6.795099999993166e-01
0	 4.562499999999999e+01	 6.500000000000001e+00	 7.154120000040468e-01
0	 4.562499999999999e+01	 6.750000000000002e+00	 7.513139999995921e-01
0	 4.562499999999999e+01	 7.000000000000002e+00	 7.872160000012227e-01
0	 4.562499999999999e+01	 7.250000000000001e+00	 8.231179999994820e-01
0	 4.562500000000000e+01	 7.499999999999999e+00	 8.590199999996887e-01
0	 4.624999999999999e+01	 5.000000000000000e+00	 5.000000000009663e-01
0	 4.624999999999999e+01	 5.250000000000001e+00	 5.359280000016485e-01
0	 4.624999999999999e+01	 5.500000000000000e+00	 5.718560000010259e-01
0	 4.624999999999999e+01	 5.750000000000000e+00	 6.077840000018266e-01
0	 4.624999999999999e+01	 6.000000000000001e+00	 6.437120000033972e-01
0	 4.624999999999999e+01	 6.250000000000000e+00	 6.796400000006030e-01
0	 4.624999999999999e+01	 6.500000000000003e+00	 7.155679999993733e-01
0	 4.625000000000000e+01	 6.750000000000002e+00	 7.514960000016268e-01
0	 4.624999999999999e+01	 7.000000000000003e+00	 7.874240000002611e-01
0	 4.625000000000000e+01	 7.250000000000002e+00	 8.233520000004545e-01
0	 4.624999999999999e+01	 7.500000000000000e+00	 8.592799999977531e-01
0	 4.687499999999999e+01	 5.000000000000000e+00	 5.000000000038085e-01
0	 4.687499999999999e+01	 5.250000000000000e+00	 5.359500000015962e-01
0	 4.687499999999999e+01	 5.500000000000001e+00	 5.719000000021530e-01
0	 4.687499999999998e+01	 5.750000000000001e+00	 6.078500000016331e-01
0	 4.687499999999999e+01	 6.000000000000001e+00	 6.438000000014147e-01
0	 4.687499999999999e+01	 6.250000000000001e+00	 6.797500000040169e-01
0	 4.687499999999999e+01	 6.500000000000001e+00	 7.157000000020731e-01
0	 4.687500000000000e+01	 6.750000000000002e+00	 7.516500000012687e-01
0	 4.687499999999999e+01	 7.000000000000000e+00	 7.876000000006654e-01
0	 4.687500000000000e+01	 7.250000000000002e+00	 8.235500000027036e-01
0	 4.687499999999999e+01	 7.500000000000001e+00	 8.594999999971267e-01
0	 4.749999999999999e+01	 5.000000000000000e+00	 5.000000000016770e-01
0	 4.749999999999998e+01	 5.249999999999999e+00	 5.359680000002903e-01
0	 4.749999999999999e+01	 5.500000000000001e+00	 5.719360000032402e-01
0	 4.749999999999998e+01	 5.750000000000000e+00	 6.079040000017421e-01
0	 4.749999999999998e+01	 6.000000000000000e+00	 6.438720000014703e-01
0	 4.749999999999999e+01	 6.250000000000001e+00	 6.798400000000980e-01
0	 4.749999999999999e+01	 6.500000000000001e+00	 7.158079999992499e-01
0	 4.749999999999999e+01	 6.750000000000000e+00	 7.517760000009589e-01
0	 4.749999999999999e+01	 7.000000000000002e+00	 7.877440000040141e-01
0	 4.749999999999999e+01	 7.250000000000001e+00	 8.237119999961728e-01
0	 4.749999999999999e+01	 7.500000000000000e+00	 8.596799999978089e-01
0	 4.812499999999999e+01	 5.000000000000000e+00	 5.000000000016768e-01
0	 4.812499999999999e+01	 5.249999999999999e+00	 5.359820000013946e-01
0	 4.812499999999999e+01	 5.500000000000000e+00	 5.719640000021853e-01
0	 4.812499999999998e+01	 5.750000000000001e+00	 6.079460000011965e-01
0	 4.812500000000000e+01	 6.000000000000003e+00	 6.439279999996949e-01
0	 4.812499999999999e+01	 6.250000000000002e+00	 6.799099999991791e-01
0	 4.812499999999998e+01	 6.500000000000001e+00	 7.158920000012224e-01
0	 4.812499999999999e+01	 6.750000000000002e+00	 7.518739999964925e-01
0	 4.812499999999999e+01	 7.000000000000002e+00	 7.878559999983920e-01
0	 4.812499999999999e+01	 7.250000000000002e+00	 8.238380000019172e-01
0	 4.812499999999999e+01	 7.500000000000000e+00	 8.598200000029979e-01
0	 4.874999999999999e+01	 5.000000000000000e+00	 5.000000000023874e-01
0	 4.874999999999999e+01	 5.250000000000001e+00	 5.359920000026690e-01
0	 4.874999999999996e+01	 5.500000000000000e+00	 5.719840000007903e-01
0	 4.874999999999998e+01	 5.750000000000001e+00	 6.079759999977326e-01
0	 4.874999999999999e+01	 6.000000000000001e+00	 6.439680000019088e-01
0	 4.874999999999998e+01	 6.250000000000001e+00	 6.799599999986325e-01
0	 4.874999999999999e+01	 6.500000000000004e+00	 7.159520000001861e-01
0	 4.874999999999999e+01	 6.750000000000001e+00	 7.519439999988463e-01
0	 4.874999999999998e+01	 7.000000000000002e+00	 7.879360000002174e-01
0	 4.874999999999998e+01	 7.250000000000003e+00	 8.239280000022728e-01
0	 4.874999999999999e+01	 7.500000000000000e+00	 8.599200000006135e-01
0	 4.937499999999997e+01	 5.000000000000000e+00	 5.000000000009662e-01
0	 4.937499999999999e+01	 5.250000000000002e+00	 5.359980000009920e-01
0	 4.937499999999998e+01	 5.500000000000001e+00	 5.719960000020919e-01
0	 4.937499999999998e+01	 5.750000000000001e+00	 6.079940000002153e-01
0	 4.937499999999999e+01	 6.000000000000002e+00	 6.439919999996651e-01
0	 4.937499999999998e+01	 6.250000000000001e+00	 6.799900000000930e-01
0	 4.937499999999999e+01	 6.500000000000001e+00	 7.159880000010334e-01
0	 4.937499999999998e+01	 6.750000000000001e+00	 7.519860000003907e-01
0	 4.937499999999997e+01	 7.000000000000001e+00	 7.879839999968690e-01
0	 4.937499999999999e+01	 7.250000000000002e+00	 8.239819999964113e-01
0	 4.937499999999997e+01	 7.500000000000000e+00	 8.599800000013150e-01
0	 5.000000000000000e+01	 5.000000000000000e+00	 5.000000000009663e-01
0	 5.000000000000000e+01	 5.250000000000000e+00	 5.359999999967735e-01
0	 5.000000000000000e+01	 5.500000000000001e+00	 5.720000000013542e-01
0	 5.000000000000001e+01	 5.750000000000002e+00	 6.080000000011412e-01
0	 5.000000000000000e+01	 6.000000000000001e+00	 6.439999999999458e-01
0	 5.000000000000000e+01	 6.250000000000001e+00	 6.799999999985830e-01
0	 4.999999999999999e+01	 6.500000000000001e+00	 7.160000000013156e-01
0	 5.000000000000000e+01	 6.750000000000002e+00	 7.520000000027950e-01
0	 5.000000000000001e+01	 7.000000000000003e+00	 7.880000000000108e-01
0	 5.000000000000000e+01	 7.250000000000002e+00	 8.240000000025757e-01
0	 5.000000000000000e+01	 7.500000000000000e+00	 8.600000000001273e-01
0	 4.375000000000000e+01	 7.500000000000000e+00	 8.579999999994925e-01
0	 4.375000000000001e+01	 7.750000000000001e+00	 8.749999999955456e-01
0	 4.375000000000000e+01	 8.000000000000002e+00	 8.919999999996265e-01
0	 4.375000000000001e+01	 8.250000000000002e+00	 9.089999999981589e-01
0	 4.375000000000000e+01	 8.500000000000000e+00	 9.259999999959808e-01
0	 4.375000000000000e+01	 8.750000000000000e+00	 9.430000000008932e-01
0	 4.375000000000001e+01	 9.000000000000004e+00	 9.600000000015421e-01
0	 4.375000000000001e+01	 9.250000000000005e+00	 9.769999999974744e-01
0	 4.375000000000000e+01	 9.500000000000000e+00	 9.939999999971859e-01
0	 4.375000000000000e+01	 9.750000000000002e+00	 1.010999999999741e+00
0	 4.375000000000000e+01	 1.000000000000000e+01	 1.027999999999452e+00
0	 4.437500000000000e+01	 7.500000000000000e+00	 8.583800000005803e-01
0	 4.437499999999999e+01	 7.750000000000000e+00	 8.754140000011829e-01
0	 4.437500000000000e+01	 8.000000000000002e+00	 8.924479999967451e-01
0	 4.437500000000000e+01	 8.250000000000000e+00	 9.094819999965030e-01
0	 4.437499999999999e+01	 8.499999999999998e+00	 9.265160000015483e-01
0	 4.437500000000000e+01	 8.750000000000000e+00	 9.435500000005926e-01
0	 4.437500000000000e+01	 9.000000000000002e+00	 9.605840000020618e-01
0	 4.437499999999999e+01	 9.250000000000000e+00	 9.776179999972090e-01
0	 4.437500000000000e+01	 9.500000000000002e+00	 9.946519999978901e-01
0	 4.437500000000001e+01	 9.750000000000004e+00	 1.011686000002493e+00
0	 4.437500000000000e+01	 1.000000000000000e+01	 1.028719999999206e+00
0	 4.499999999999999e+01	 7.499999999999999e+00	 8.587200000001791e-01
0	 4.499999999999999e+01	 7.749999999999998e+00	 8.757759999982218e-01
0	 4.499999999999999e+01	 8.000000000000002e+00	 8.928319999979401e-01
0	 4.500000000000000e+01	 8.250000000000004e+00	 9.098880000006756e-01
0	 4.499999999999999e+01	 8.500000000000000e+00	 9.269439999999624e-01
0	 4.500000000000000e+01	 8.750000000000002e+00	 9.439999999998785e-01
0	 4.500000000000000e+01	 9.000000000000002e+00	 9.610559999994098e-01
0	 4.500000000000000e+01	 9.250000000000004e+00	 9.781120000012481e-01
0	 4.500000000000000e+01	 9.500000000000002e+00	 9.951679999950535e-01
0	 4.500000000000000e+01	 9.750000000000002e+00	 1.012223999995558e+00
0	 4.500000000000000e+01	 1.000000000000000e+01	 1.029279999999666e+00
0	 4.562500000000000e+01	 7.499999999999999e+00	 8.590199999996887e-01
0	 4.562500000000001e+01	 7.750000000000001e+00	 8.760860000004584e-01
0	 4.562499999999999e+01	 8.000000000000000e+00	 8.931519999982627e-01
0	 4.562499999999999e+01	 8.250000000000002e+00	 9.102179999983310e-01
0	 4.562499999999999e+01	 8.500000000000000e+00	 9.272840000020243e-01
0	 4.562499999999999e+01	 8.750000000000000e+00	 9.443499999936218e-01
0	 4.562500000000001e+01	 9.000000000000002e+00	 9.614160000012633e-01
0	 4.562499999999999e+01	 9.250000000000000e+00	 9.784819999978829e-01
0	 4.562500000000000e+01	 9.500000000000004e+00	 9.955480000033721e-01
0	 4.562499999999999e+01	 9.750000000000004e+00	 1.012613999996935e+00
0	 4.562499999999999e+01	 1.000000000000000e+01	 1.029680000000965e+00
0	 4.624999999999999e+01	 7.500000000000000e+00	 8.592799999977531e-01
0	 4.624999999999999e+01	 7.750000000000000e+00	 8.763439999998651e-01
0	 4.625000000000000e+01	 7.999999999999998e+00	 8.934079999994180e-01
0	 4.624999999999999e+01	 8.250000000000000e+00	 9.104719999982992e-01
0	 4.624999999999999e+01	 8.500000000000000e+00	 9.275360000009659e-01
0	 4.624999999999999e+01	 8.750000000000002e+00	 9.446000000028935e-01
0	 4.624999999999999e+01	 9.000000000000002e+00	 9.616639999989376e-01
0	 4.624999999999999e+01	 9.250000000000000e+00	 9.787279999990074e-01
0	 4.624999999999999e+01	 9.500000000000004e+00	 9.957919999989140e-01
0	 4.624999999999999e+01	 9.750000000000002e+00	 1.012855999997697e+00
0	 4.624999999999999e+01	 1.000000000000000e+01	 1.029919999999862e+00
0	 4.687499999999999e+01	 7.500000000000001e+00	 8.594999999971267e-01
0	 4.687499999999999e+01	 7.750000000000001e+00	 8.765500000014378e-01
0	 4.687499999999999e+01	 8.000000000000000e+00	 8.935999999983025e-01
0	 4.687499999999999e+01	 8.249999999999998e+00	 9.106500000003731e-01
0	 4.687499999999999e+01	 8.500000000000002e+00	 9.276999999971965e-01
0	 4.687499999999999e+01	 8.750000000000002e+00	 9.447500000010932e-01
0	 4.687499999999999e+01	 9.000000000000002e+00	 9.618000000051891e-01
0	 4.687500000000000e+01	 9.250000000000002e+00	 9.788500000000632e-01
0	 4.687499999999999e+01	 9.500000000000002e+00	 9.959000000029383e-01
0	 4.687499999999999e+01	 9.750000000000002e+00	 1.012949999996674e+00
0	 4.687499999999999e+01	 1.000000000000000e+01	 1.030000000002218e+00
0	 4.749999999999999e+01	 7.500000000000000e+00	 8.596799999978089e-01
0	 4.749999999999999e+01	 7.749999999999997e+00	 8.767039999986060e-01
0	 4.749999999999999e+01	 8.000000000000002e+00	 8.937280000006510e-01
0	 4.749999999999998e+01	 8.249999999999998e+00	 9.107520000007696e-01
0	 4.749999999999999e+01	 8.500000000000002e+00	 9.277760000020723e-01
0	 4.749999999999999e+01	 8.750000000000002e+00	 9.447999999972566e-01
0	 4.749999999999999e+01	 9.000000000000002e+00	 9.618239999977779e-01
0	 4.749999999999999e+01	 9.250000000000002e+00	 9.788480000054419e-01
0	 4.749999999999999e+01	 9.500000000000002e+00	 9.958720000025820e-01
0	 4.749999999999999e+01	 9.750000000000000e+00	 1.012895999996516e+00
0	 4.749999999999999e+01	 9.999999999999998e+00	 1.029920000003415e+00
0	 4.812499999999999e+01	 7.500000000000000e+00	 8.598200000029979e-01
0	 4.812499999999999e+01	 7.750000000000001e+00	 8.768060000003352e-01
0	 4.812499999999999e+01	 8.000000000000000e+00	 8.937919999988962e-01
0	 4.812499999999999e+01	 8.250000000000002e+00	 9.107780000019253e-01
0	 4.812499999999999e+01	 8.500000000000004e+00	 9.277639999986320e-01
0	 4.812499999999999e+01	 8.750000000000002e+00	 9.447499999979739e-01
0	 4.812499999999997e+01	 8.999999999999998e+00	 9.617360000013445e-01
0	 4.812499999999999e+01	 9.250000000000002e+00	 9.787219999939613e-01
0	 4.812499999999999e+01	 9.500000000000002e+00	 9.957079999956733e-01
0	 4.812499999999999e+01	 9.750000000000004e+00	 1.012693999999214e+00
0	 4.812499999999999e+01	 1.000000000000000e+01	 1.029679999994926e+00
0	 4.874999999999999e+01	 7.500000000000000e+00	 8.599200000006135e-01
0	 4.874999999999999e+01	 7.750000000000000e+00	 8.768560000038975e-01
0	 4.874999999999998e+01	 8.000000000000002e+00	 8.937919999974446e-01
0	 4.874999999999999e+01	 8.250000000000002e+00	 9.107279999984157e-01
0	 4.874999999999998e+01	 8.500000000000000e+00	 9.276639999993869e-01
0	 4.874999999999998e+01	 8.750000000000002e+00	 9.445999999939600e-01
0	 4.874999999999999e+01	 9.000000000000002e+00	 9.615360000054354e-01
0	 4.874999999999999e+01	 9.250000000000002e+00	 9.784719999971002e-01
0	 4.874999999999999e+01	 9.500000000000000e+00	 9.954079999967906e-01
0	 4.874999999999998e+01	 9.750000000000002e+00	 1.012344000002210e+00
0	 4.874999999999998e+01	 1.000000000000000e+01	 1.029279999997357e+00
0	 4.937499999999997e+01	 7.500000000000000e+00	 8.599800000013150e-01
0	 4.937499999999998e+01	 7.750000000000000e+00	 8.768540000020187e-01
0	 4.937499999999996e+01	 8.000000000000000e+00	 8.937279999982002e-01
0	 4.937499999999999e+01	 8.250000000000002e+00	 9.106019999995657e-01
0	 4.937499999999998e+01	 8.500000000000000e+00	 9.274759999957591e-01
0	 4.937499999999997e+01	 8.750000000000000e+00	 9.443500000018221e-01
0	 4.937499999999999e+01	 9.000000000000002e+00	 9.612240000009818e-01
0	 4.937499999999997e+01	 9.250000000000000e+00	 9.780980000016373e-01
0	 4.937499999999998e+01	 9.500000000000002e+00	 9.949719999936921e-01
0	 4.937499999999997e+01	 9.750000000000000e+00	 1.011846000002947e+00
0	 4.937499999999998e+01	 1.000000000000000e+01	 1.028719999999339e+00
0	 5.000000000000000e+01	 7.500000000000000e+00	 8.600000000001273e-01
0	 5.000000000000001e+01	 7.750000000000001e+00	 8.767999999979409e-01
0	 5.000000000000000e+01	 8.000000000000002e+00	 8.936000000011034e-01
0	 5.000000000000000e+01	 8.250000000000002e+00	 9.103999999993562e-01
0	 4.999999999999999e+01	 8.500000000000000e+00	 9.271999999984872e-01
0	 5.000000000000000e+01	 8.750000000000000e+00	 9.439999999972829e-01
0	 5.000000000000000e+01	 9.000000000000004e+00	 9.608000000010917e-01
0	 5.000000000000001e+01	 9.250000000000005e+00	 9.775999999988016e-01
0	 5.000000000000000e+01	 9.500000000000000e+00	 9.943999999990183e-01
0	 5.000000000000000e+01	 9.750000000000002e+00	 1.011200000002078e+00
0	 5.000000000000000e+01	 1.000000000000000e+01	 1.027999999999452e+00
0	 5.000000000000000e+01	 0.000000000000000e+00	-2.800000000036107e-02
0	 5.000000000000000e+01	 2.500000000000000e-01	-1.120000000160185e-02
0	 5.000000000000000e+01	 5.000000000000000e-01	 5.599999998675354e-03
0	 5.000000000000000e+01	 7.500000000000001e-01	 2.240000000287936e-02
0	 5.000000000000000e+01	 1.000000000000000e+00	 3.920000000263713e-02
0	 5.000000000000000e+01	 1.250000000000000e+00	 5.600000000001160e-02
0	 5.000000000000000e+01	 1.500000000000000e+00	 7.279999999684329e-02
0	 5.000000000000000e+01	 1.750000000000000e+00	 8.959999999973434e-02
0	 5.000000000000001e+01	 2.000000000000000e+00	 1.064000000013720e-01
0	 5.000000000000000e+01	 2.250000000000000e+00	 1.232000000001676e-01
0	 5.000000000000000e+01	 2.500000000000000e+00	 1.400000000003843e-01
0	 5.062500000000000e+01	 0.000000000000000e+00	-2.723999999867388e-02
0	 5.062499999999999e+01	 2.499999999999999e-01	-1.051599999379813e-02
0	 5.062499999999999e+01	 4.999999999999999e-01	 6.207999998910376e-03
0	 5.062499999999999e+01	 7.500000000000001e-01	 2.293199999820721e-02
0	 5.062499999999999e+01	 1.000000000000000e+00	 3.965600000515366e-02
0	 5.062500000000000e+01	 1.250000000000000e+00	 5.638000000104393e-02
0	 5.062500000000000e+01	 1.500000000000000e+00	 7.310399999879803e-02
0	 5.062500000000000e+01	 1.750000000000000e+00	 8.982800000093548e-02
0	 5.062500000000001e+01	 2.000000000000000e+00	 1.065520000008899e-01
0	 5.062500000000000e+01	 2.250000000000000e+00	 1.232759999982979e-01
0	 5.062500000000000e+01	 2.500000000000000e+00	 1.400000000036039e-01
0	 5.125000000000000e+01	 0.000000000000000e+00	-2.656000000378356e-02
0	 5.125000000000001e+01	 2.500000000000000e-01	-9.903999995455706e-03
0	 5.124999999999999e+01	 5.000000000000000e-01	 6.752000003199099e-03
0	 5.124999999999999e+01	 7.500000000000001e-01	 2.340800000497407e-02
0	 5.124999999999999e+01	 1.000000000000000e+00	 4.006399999981998e-02
0	 5.125000000000000e+01	 1.250000000000000e+00	 5.671999999976586e-02
0	 5.125000000000000e+01	 1.500000000000000e+00	 7.337600000075850e-02
0	 5.124999999999999e+01	 1.750000000000000e+00	 9.003200000112788e-02
0	 5.125000000000000e+01	 2.000000000000000e+00	 1.066879999974377e-01
0	 5.125000000000000e+01	 2.250000000000000e+00	 1.233439999994701e-01
0	 5.124999999999999e+01	 2.500000000000000e+00	 1.400000000033153e-01
0	 5.187499999999999e+01	 0.000000000000000e+00	-2.596000000139043e-02
0	 5.187499999999999e+01	 2.500000000000000e-01	-9.364000004505213e-03
0	 5.187499999999999e+01	 5.000000000000000e-01	 7.232000000673442e-03
0	 5.187500000000001e+01	 7.500000000000002e-01	 2.382799999837348e-02
0	 5.187500000000000e+01	 1.000000000000000e+00	 4.042399999801138e-02
0	 5.187499999999999e+01	 1.250000000000000e+00	 5.701999999976338e-02
0	 5.187499999999998e+01	 1.500000000000000e+00	 7.361599999884548e-02
0	 5.187499999999999e+01	 1.750000000000000e+00	 9.021200000063344e-02
0	 5.187499999999999e+01	 2.000000000000000e+00	 1.068080000002594e-01
0	 5.187500000000000e+01	 2.250000000000000e+00	 1.234040000010160e-01
0	 5.187499999999999e+01	 2.500000000000000e+00	 1.400000000009171e-01
0	 5.249999999999999e+01	 0.000000000000000e+00	-2.543999999744528e-02
0	 5.249999999999999e+01	 2.500000000000000e-01	-8.896000008594834e-03
0	 5.249999999999999e+01	 4.999999999999999e-01	 7.648000005422154e-03
0	 5.249999999999998e+01	 7.500000000000000e-01	 2.419200000306343e-02
0	 5.249999999999998e+01	 1.000000000000000e+00	 4.073600000085569e-02
0	 5.249999999999999e+01	 1.250000000000000e+00	 5.728000000093657e-02
0	 5.250000000000000e+01	 1.500000000000000e+00	 7.382400000089073e-02
0	 5.249999999999999e+01	 1.750000000000000e+00	 9.036799999950772e-02
0	 5.249999999999998e+01	 2.000000000000000e+00	 1.069120000078821e-01
0	 5.249999999999999e+01	 2.250000000000000e+00	 1.234559999979013e-01
0	 5.250000000000000e+01	 2.500000000000000e+00	 1.399999999993184e-01
0	 5.312499999999999e+01	 0.000000000000000e+00	-2.500000000225100e-02
0	 5.312499999999998e+01	 2.499999999999999e-01	-8.500000014426553e-03
0	 5.312500000000000e+01	 5.000000000000001e-01	 7.999999998968740e-03
0	 5.312499999999999e+01	 7.500000000000000e-01	 2.450000000082096e-02
0	 5.312499999999997e+01	 9.999999999999998e-01	 4.100000000072637e-02
0	 5.312499999999999e+01	 1.250000000000000e+00	 5.750000000084299e-02
0	 5.312499999999999e+01	 1.500000000000000e+00	 7.399999999928740e-02
0	 5.312499999999999e+01	 1.750000000000000e+00	 9.050000000266693e-02
0	 5.312499999999999e+01	 2.000000000000000e+00	 1.070000000017458e-01
0	 5.312500000000000e+01	 2.250000000000000e+00	 1.235000000039592e-01
0	 5.312499999999999e+01	 2.500000000000000e+00	 1.400000000010948e-01
0	 5.374999999999999e+01	 0.000000000000000e+00	-2.464000000657052e-02
0	 5.374999999999998e+01	 2.500000000000000e-01	-8.176000002756433e-03
0	 5.374999999999999e+01	 5.000000000000000e-01	 8.287999996719170e-03
0	 5.374999999999999e+01	 7.500000000000002e-01	 2.475199999586392e-02
0	 5.374999999999999e+01	 1.000000000000000e+00	 4.121599999842030e-02
0	 5.374999999999999e+01	 1.250000000000000e+00	 5.767999999868323e-02
0	 5.374999999999998e+01	 1.500000000000000e+00	 7.414399999907949e-02
0	 5.374999999999999e+01	 1.750000000000000e+00	 9.060799999787153e-02
0	 5.374999999999997e+01	 1.999999999999999e+00	 1.070720000015513e-01
0	 5.374999999999999e+01	 2.250000000000000e+00	 1.235360000052310e-01
0	 5.374999999999999e+01	 2.500000000000000e+00	 1.400000000039370e-01
0	 5.437499999999999e+01	 0.000000000000000e+00	-2.436000000329841e-02
0	 5.437499999999999e+01	 2.500000000000000e-01	-7.924000003199698e-03
0	 5.437499999999998e+01	 5.000000000000001e-01	 8.511999997296016e-03
0	 5.437499999999999e+01	 7.500000000000000e-01	 2.494799999540433e-02
0	 5.437499999999999e+01	 1.000000000000000e+00	 4.138400000164166e-02
0	 5.437499999999999e+01	 1.250000000000000e+00	 5.782000000067456e-02
0	 5.437499999999999e+01	 1.500000000000000e+00	 7.425599999996269e-02
0	 5.437499999999999e+01	 1.750000000000000e+00	 9.069200000055842e-02
0	 5.437499999999998e+01	 2.000000000000000e+00	 1.071280000025044e-01
0	 5.437499999999999e+01	 2.250000000000000e+00	 1.235640000056163e-01
0	 5.437499999999999e+01	 2.500000000000000e+00	 1.400000000046475e-01
0	 5.499999999999999e+01	 0.000000000000000e+00	-2.416000000948770e-02
0	 5.499999999999999e+01	 2.499999999999999e-01	-7.744000007123055e-03
0	 5.500000000000000e+01	 5.000000000000001e-01	 8.671999997248036e-03
0	 5.500000000000000e+01	 7.500000000000002e-01	 2.508800000107977e-02
0	 5.499999999999996e+01	 1.000000000000000e+00	 4.150400000283422e-02
0	 5.499999999999997e+01	 1.250000000000000e+00	 5.791999999829045e-02
0	 5.499999999999998e+01	 1.500000000000000e+00	 7.433599999890522e-02
0	 5.499999999999999e+01	 1.750000000000000e+00	 9.075200000231318e-02
0	 5.499999999999999e+01	 2.000000000000000e+00	 1.071680000036881e-01
0	 5.499999999999999e+01	 2.250000000000000e+00	 1.235839999992550e-01
0	 5.499999999999997e+01	 2.500000000000000e+00	 1.400000000003843e-01
0	 5.562499999999998e+01	 0.000000000000000e+00	-2.404000001092755e-02
0	 5.562499999999999e+01	 2.500000000000000e-01	-7.636000002249529e-03
0	 5.562499999999998e+01	 5.000000000000000e-01	 8.768000003121831e-03
0	 5.562499999999999e+01	 7.500000000000001e-01	 2.517200000269174e-02
0	 5.562499999999996e+01	 9.999999999999998e-01	 4.157599999612915e-02
0	 5.562499999999999e+01	 1.250000000000000e+00	 5.797999999828107e-02
0	 5.562499999999998e+01	 1.500000000000000e+00	 7.438400000114355e-02
0	 5.562499999999997e+01	 1.750000000000000e+00	 9.078799999974277e-02
0	 5.562499999999997e+01	 2.000000000000000e+00	 1.071919999992672e-01
0	 5.562499999999998e+01	 2.250000000000000e+00	 1.235960000061996e-01
0	 5.562499999999998e+01	 2.500000000000000e+00	 1.400000000046475e-01
0	 5.625000000000000e+01	 0.000000000000000e+00	-2.400000000761793e-02
0	 5.625000000000000e+01	 2.500000000000000e-01	-7.600000003834659e-03
0	 5.625000000000000e+01	 5.000000000000000e-01	 8.799999990730027e-03
0	 5.625000000000000e+01	 7.500000000000001e-01	 2.520000000141491e-02
0	 5.625000000000000e+01	 1.000000000000000e+00	 4.160000000133075e-02
0	 5.625000000000000e+01	 1.250000000000000e+00	 5.799999999993588e-02
0	 5.624999999999999e+01	 1.500000000000000e+00	 7.439999999974134e-02
0	 5.625000000000000e+01	 1.750000000000000e+00	 9.080000000096790e-02
0	 5.625000000000000e+01	 2.000000000000000e+00	 1.072000000048158e-01
0	 5.625000000000000e+01	 2.250000000000000e+00	 1.236000000046213e-01
0	 5.625000000000000e+01	 2.500000000000000e+00	 1.400000000018053e-01
0	 5.000000000000000e+01	 2.500000000000000e+00	 1.400000000003843e-01
0	 5.000000000000000e+01	 2.750000000000000e+00	 1.759999999970798e-01
0	 5.000000000000000e+01	 3.000000000000001e+00	 2.120000000011273e-01
0	 5.000000000000001e+01	 3.250000000000001e+00	 2.480000000005589e-01
0	 5.000000000000000e+01	 3.500000000000001e+00	 2.839999999993638e-01
0	 5.000000000000000e+01	 3.750000000000001e+00	 3.199999999987115e-01
0	 4.999999999999999e+01	 4.000000000000001e+00	 3.560000000007336e-01
0	 5.000000000000000e+01	 4.250000000000002e+00	 3.920000000007918e-01
0	 5.000000000000001e+01	 4.500000000000003e+00	 4.280000000008499e-01
0	 5.000000000000000e+01	 4.750000000000002e+00	 4.640000000034147e-01
0	 5.000000000000000e+01	 5.000000000000000e+00	 5.000000000009663e-01
0	 5.062500000000000e+01	 2.500000000000000e+00	 1.400000000036039e-01
0	 5.062500000000001e+01	 2.750000000000000e+00	 1.759999999998668e-01
0	 5.062500000000000e+01	 3.000000000000000e+00	 2.120000000018103e-01
0	 5.062499999999999e+01	 3.250000000000001e+00	 2.479999999997508e-01
0	 5.062500000000001e+01	 3.500000000000001e+00	 2.840000000003767e-01
0	 5.062500000000001e+01	 3.750000000000001e+00	 3.200000000012126e-01
0	 5.062500000000000e+01	 4.000000000000002e+00	 3.559999999994943e-01
0	 5.062500000000000e+01	 4.250000000000002e+00	 3.919999999988948e-01
0	 5.062500000000000e+01	 4.500000000000001e+00	 4.280000000017563e-01
0	 5.062499999999999e+01	 4.750000000000001e+00	 4.639999999993367e-01
0	 5.062500000000000e+01	 5.000000000000000e+00	 5.000000000001670e-01
0	 5.124999999999999e+01	 2.500000000000000e+00	 1.400000000033153e-01
0	 5.125000000000000e+01	 2.750000000000000e+00	 1.759999999984327e-01
0	 5.125000000000000e+01	 3.000000000000001e+00	 2.120000000024103e-01
0	 5.124999999999999e+01	 3.250000000000000e+00	 2.479999999989663e-01
0	 5.125000000000001e+01	 3.500000000000001e+00	 2.839999999991011e-01
0	 5.125000000000001e+01	 3.750000000000001e+00	 3.200000000000838e-01
0	 5.125000000000001e+01	 4.000000000000002e+00	 3.560000000021324e-01
0	 5.124999999999999e+01	 4.250000000000001e+00	 3.920000000002046e-01
0	 5.124999999999999e+01	 4.500000000000001e+00	 4.280000000003171e-01
0	 5.125000000000000e+01	 4.750000000000003e+00	 4.640000000007518e-01
0	 5.124999999999999e+01	 5.000000000000000e+00	 5.000000000020322e-01
0	 5.187499999999999e+01	 2.500000000000000e+00	 1.400000000009171e-01
0	 5.187500000000000e+01	 2.750000000000000e+00	 1.760000000038069e-01
0	 5.187500000000000e+01	 3.000000000000000e+00	 2.120000000008306e-01
0	 5.187499999999999e+01	 3.250000000000001e+00	 2.480000000018640e-01
0	 5.187499999999999e+01	 3.500000000000001e+00	 2.840000000014652e-01
0	 5.187500000000000e+01	 3.750000000000001e+00	 3.199999999998089e-01
0	 5.187499999999999e+01	 4.000000000000001e+00	 3.559999999992434e-01
0	 5.187499999999999e+01	 4.250000000000001e+00	 3.919999999993706e-01
0	 5.187500000000000e+01	 4.500000000000002e+00	 4.279999999977759e-01
0	 5.187499999999999e+01	 4.750000000000002e+00	 4.640000000025861e-01
0	 5.187499999999999e+01	 5.000000000000001e+00	 4.999999999995453e-01
0	 5.250000000000000e+01	 2.500000000000000e+00	 1.399999999993184e-01
0	 5.249999999999999e+01	 2.750000000000000e+00	 1.760000000039616e-01
0	 5.249999999999997e+01	 3.000000000000000e+00	 2.120000000009705e-01
0	 5.249999999999999e+01	 3.250000000000000e+00	 2.479999999997282e-01
0	 5.249999999999998e+01	 3.500000000000001e+00	 2.840000000023087e-01
0	 5.249999999999998e+01	 3.750000000000000e+00	 3.199999999998234e-01
0	 5.249999999999999e+01	 4.000000000000002e+00	 3.559999999986215e-01
0	 5.249999999999999e+01	 4.250000000000002e+00	 3.920000000003274e-01
0	 5.249999999999999e+01	 4.500000000000002e+00	 4.280000000001394e-01
0	 5.249999999999999e+01	 4.750000000000002e+00	 4.639999999999148e-01
0	 5.250000000000000e+01	 5.000000000000000e+00	 5.000000000009663e-01
0	 5.312499999999999e+01	 2.500000000000000e+00	 1.400000000010948e-01
0	 5.312499999999998e+01	 2.750000000000000e+00	 1.760000000044810e-01
0	 5.312499999999999e+01	 3.000000000000000e+00	 2.120000000014025e-01
0	 5.312499999999999e+01	 3.250000000000001e+00	 2.480000000008719e-01
0	 5.312499999999999e+01	 3.500000000000001e+00	 2.840000000010146e-01
0	 5.312499999999998e+01	 3.750000000000001e+00	 3.200000000010306e-01
0	 5.312499999999999e+01	 4.000000000000002e+00	 3.560000000010888e-01
0	 5.312500000000000e+01	 4.250000000000002e+00	 3.920000000012314e-01
0	 5.312499999999999e+01	 4.500000000000002e+00	 4.280000000008499e-01
0	 5.312499999999999e+01	 4.750000000000003e+00	 4.639999999975094e-01
0	 5.312499999999999e+01	 5.000000000000000e+00	 5.000000000009663e-01
0	 5.374999999999999e+01	 2.500000000000000e+00	 1.400000000039370e-01
0	 5.374999999999998e+01	 2.750000000000000e+00	 1.760000000043164e-01
0	 5.374999999999999e+01	 3.000000000000001e+00	 2.120000000005437e-01
0	 5.374999999999998e+01	 3.250000000000000e+00	 2.480000000043348e-01
0	 5.374999999999998e+01	 3.500000000000000e+00	 2.839999999994470e-01
0	 5.374999999999999e+01	 3.750000000000001e+00	 3.200000000013858e-01
0	 5.374999999999998e+01	 4.000000000000001e+00	 3.560000000025960e-01
0	 5.374999999999999e+01	 4.250000000000002e+00	 3.919999999996374e-01
0	 5.374999999999999e+01	 4.500000000000002e+00	 4.280000000001394e-01
0	 5.374999999999998e+01	 4.750000000000002e+00	 4.639999999953496e-01
0	 5.374999999999999e+01	 5.000000000000000e+00	 4.999999999995453e-01
0	 5.437499999999999e+01	 2.500000000000000e+00	 1.400000000046475e-01
0	 5.437499999999998e+01	 2.750000000000000e+00	 1.760000000014335e-01
0	 5.437499999999999e+01	 3.000000000000001e+00	 2.120000000012185e-01
0	 5.437499999999999e+01	 3.250000000000000e+00	 2.479999999995570e-01
0	 5.437500000000000e+01	 3.500000000000001e+00	 2.840000000008084e-01
0	 5.437499999999999e+01	 3.750000000000002e+00	 3.199999999996235e-01
0	 5.437499999999998e+01	 4.000000000000002e+00	 3.559999999977773e-01
0	 5.437499999999999e+01	 4.250000000000003e+00	 3.920000000007917e-01
0	 5.437499999999998e+01	 4.500000000000002e+00	 4.280000000004376e-01
0	 5.437499999999999e+01	 4.750000000000002e+00	 4.640000000003252e-01
0	 5.437499999999999e+01	 5.000000000000000e+00	 4.999999999981240e-01
0	 5.499999999999997e+01	 2.500000000000000e+00	 1.400000000003843e-01
0	 5.499999999999999e+01	 2.750000000000000e+00	 1.760000000039080e-01
0	 5.499999999999996e+01	 3.000000000000000e+00	 2.119999999982631e-01
0	 5.499999999999998e+01	 3.250000000000000e+00	 2.480000000004113e-01
0	 5.499999999999999e+01	 3.500000000000001e+00	 2.840000000027375e-01
0	 5.499999999999999e+01	 3.750000000000001e+00	 3.200000000004297e-01
0	 5.499999999999999e+01	 4.000000000000003e+00	 3.559999999993124e-01
0	 5.499999999999998e+01	 4.250000000000001e+00	 3.919999999991249e-01
0	 5.499999999999999e+01	 4.500000000000002e+00	 4.280000000008500e-01
0	 5.499999999999999e+01	 4.750000000000002e+00	 4.639999999983097e-01
0	 5.499999999999997e+01	 5.000000000000000e+00	 4.999999999995453e-01
0	 5.562499999999998e+01	 2.500000000000000e+00	 1.400000000046475e-01
0	 5.562499999999999e+01	 2.750000000000001e+00	 1.760000000023525e-01
0	 5.562499999999998e+01	 3.000000000000000e+00	 2.120000000008279e-01
0	 5.562499999999998e+01	 3.250000000000000e+00	 2.480000000024602e-01
0	 5.562499999999998e+01	 3.500000000000001e+00	 2.840000000024603e-01
0	 5.562499999999998e+01	 3.750000000000001e+00	 3.200000000018080e-01
0	 5.562499999999999e+01	 4.000000000000002e+00	 3.560000000020385e-01
0	 5.562499999999998e+01	 4.250000000000001e+00	 3.919999999996029e-01
0	 5.562499999999998e+01	 4.500000000000002e+00	 4.279999999985845e-01
0	 5.562499999999999e+01	 4.750000000000002e+00	 4.640000000000637e-01
0	 5.562499999999998e+01	 5.000000000000000e+00	 4.999999999995452e-01
0	 5.625000000000000e+01	 2.500000000000000e+00	 1.400000000018053e-01
0	 5.625000000000000e+01	 2.750000000000000e+00	 1.759999999994077e-01
0	 5.625000000000000e+01	 3.000000000000001e+00	 2.120000000046536e-01
0	 5.625000000000001e+01	 3.250000000000001e+00	 2.480000000032907e-01
0	 5.625000000000001e+01	 3.500000000000001e+00	 2.840000000046596e-01
0	 5.625000000000000e+01	 3.750000000000001e+00	 3.199999999992542e-01
0	 5.624999999999999e+01	 4.000000000000001e+00	 3.560000000021546e-01
0	 5.625000000000000e+01	 4.250000000000002e+00	 3.920000000048343e-01
0	 5.625000000000001e+01	 4.500000000000003e+00	 4.280000000008500e-01
0	 5.625000000000000e+01	 4.750000000000002e+00	 4.639999999954446e-01
0	 5.625000000000000e+01	 5.000000000000000e+00	 4.999999999995453e-01
0	 5.000000000000000e+01	 5.000000000000000e+00	 5.000000000009663e-01
0	 5.000000000000000e+01	 5.250000000000000e+00	 5.359999999967735e-01
0	 5.000000000000000e+01	 5.500000000000001e+00	 5.720000000013542e-01
0	 5.000000000000001e+01	 5.750000000000002e+00	 6.080000000011412e-01
0	 5.000000000000000e+01	 6.000000000000001e+00	 6.439999999999458e-01
0	 5.000000000000000e+01	 6.250000000000001e+00	 6.799999999985830e-01
0	 4.999999999999999e+01	 6.500000000000001e+00	 7.160000000013156e-01
0	 5.000000000000000e+01	 6.750000000000002e+00	 7.520000000027950e-01
0	 5.000000000000001e+01	 7.000000000000003e+00	 7.880000000000108e-01
0	 5.000000000000000e+01	 7.250000000000002e+00	 8.240000000025757e-01
0	 5.000000000000000e+01	 7.500000000000000e+00	 8.600000000001273e-01
0	 5.062500000000000e+01	 5.000000000000000e+00	 5.000000000001670e-01
0	 5.062500000000001e+01	 5.250000000000000e+00	 5.359999999989556e-01
0	 5.062500000000000e+01	 5.500000000000001e+00	 5.720000000019483e-01
0	 5.062499999999999e+01	 5.750000000000000e+00	 6.079999999998776e-01
0	 5.062500000000001e+01	 6.000000000000002e+00	 6.439999999998153e-01
0	 5.062500000000001e+01	 6.250000000000002e+00	 6.800000000020724e-01
0	 5.062500000000000e+01	 6.500000000000002e+00	 7.159999999989327e-01
0	 5.062500000000000e+01	 6.750000000000002e+00	 7.519999999983332e-01
0	 5.062500000000000e+01	 7.000000000000001e+00	 7.880000000012058e-01
0	 5.062499999999999e+01	 7.250000000000001e+00	 8.240000000002075e-01
0	 5.062500000000000e+01	 7.500000000000000e+00	 8.599999999996164e-01
0	 5.124999999999999e+01	 5.000000000000000e+00	 5.000000000020322e-01
0	 5.125000000000000e+01	 5.250000000000001e+00	 5.359999999976605e-01
0	 5.125000000000000e+01	 5.500000000000002e+00	 5.720000000019266e-01
0	 5.124999999999999e+01	 5.750000000000000e+00	 6.079999999998593e-01
0	 5.125000000000001e+01	 6.000000000000001e+00	 6.440000000000828e-01
0	 5.125000000000001e+01	 6.250000000000002e+00	 6.800000000017762e-01
0	 5.125000000000001e+01	 6.500000000000002e+00	 7.160000000024036e-01
0	 5.124999999999999e+01	 6.750000000000001e+00	 7.520000000004761e-01
0	 5.124999999999999e+01	 7.000000000000003e+00	 7.879999999992114e-01
0	 5.125000000000000e+01	 7.250000000000004e+00	 8.240000000024884e-01
0	 5.124999999999999e+01	 7.499999999999999e+00	 8.599999999980843e-01
0	 5.187499999999999e+01	 5.000000000000001e+00	 4.999999999995453e-01
0	 5.187500000000000e+01	 5.250000000000001e+00	 5.360000000011028e-01
0	 5.187500000000000e+01	 5.500000000000000e+00	 5.719999999981266e-01
0	 5.187499999999999e+01	 5.750000000000001e+00	 6.080000000012028e-01
0	 5.187499999999999e+01	 6.000000000000000e+00	 6.440000000016920e-01
0	 5.187500000000000e+01	 6.250000000000000e+00	 6.799999999987035e-01
0	 5.187499999999999e+01	 6.500000000000001e+00	 7.159999999980490e-01
0	 5.187499999999999e+01	 6.750000000000002e+00	 7.519999999995975e-01
0	 5.187500000000000e+01	 7.000000000000002e+00	 7.879999999965814e-01
0	 5.187499999999999e+01	 7.250000000000001e+00	 8.240000000013917e-01
0	 5.187499999999999e+01	 7.499999999999999e+00	 8.599999999983512e-01
0	 5.250000000000000e+01	 5.000000000000000e+00	 5.000000000009663e-01
0	 5.249999999999999e+01	 5.250000000000001e+00	 5.360000000044550e-01
0	 5.249999999999997e+01	 5.500000000000000e+00	 5.719999999994210e-01
0	 5.249999999999999e+01	 5.750000000000000e+00	 6.079999999987113e-01
0	 5.249999999999998e+01	 6.000000000000001e+00	 6.440000000002263e-01
0	 5.249999999999998e+01	 6.250000000000000e+00	 6.800000000005830e-01
0	 5.249999999999999e+01	 6.500000000000003e+00	 7.159999999993811e-01
0	 5.249999999999999e+01	 6.750000000000002e+00	 7.520000000010869e-01
0	 5.249999999999999e+01	 7.000000000000003e+00	 7.879999999996559e-01
0	 5.249999999999999e+01	 7.250000000000002e+00	 8.239999999994307e-01
0	 5.250000000000000e+01	 7.500000000000000e+00	 8.599999999976404e-01
0	 5.312499999999999e+01	 5.000000000000000e+00	 5.000000000009663e-01
0	 5.312499999999998e+01	 5.250000000000000e+00	 5.360000000019988e-01
0	 5.312499999999999e+01	 5.500000000000001e+00	 5.720000000001196e-01
0	 5.312499999999999e+01	 5.750000000000001e+00	 6.080000000010988e-01
0	 5.312499999999999e+01	 6.000000000000001e+00	 6.439999999999981e-01
0	 5.312499999999998e+01	 6.250000000000001e+00	 6.799999999998361e-01
0	 5.312499999999999e+01	 6.500000000000001e+00	 7.160000000013156e-01
0	 5.312500000000000e+01	 6.750000000000002e+00	 7.520000000000372e-01
0	 5.312499999999999e+01	 7.000000000000000e+00	 7.880000000010768e-01
0	 5.312499999999999e+01	 7.250000000000002e+00	 8.240000000012890e-01
0	 5.312499999999999e+01	 7.500000000000001e+00	 8.600000000015485e-01
0	 5.374999999999999e+01	 5.000000000000000e+00	 4.999999999995453e-01
0	 5.374999999999998e+01	 5.249999999999999e+00	 5.360000000009905e-01
0	 5.374999999999999e+01	 5.500000000000001e+00	 5.720000000029020e-01
0	 5.374999999999998e+01	 5.750000000000000e+00	 6.080000000013641e-01
0	 5.374999999999998e+01	 6.000000000000000e+00	 6.440000000000291e-01
0	 5.374999999999999e+01	 6.250000000000001e+00	 6.800000000009020e-01
0	 5.374999999999998e+01	 6.500000000000001e+00	 7.160000000017569e-01
0	 5.374999999999999e+01	 6.750000000000000e+00	 7.519999999987983e-01
0	 5.374999999999999e+01	 7.000000000000002e+00	 7.879999999993003e-01
0	 5.374999999999998e+01	 7.250000000000001e+00	 8.239999999973526e-01
0	 5.374999999999999e+01	 7.500000000000000e+00	 8.600000000015484e-01
0	 5.437499999999999e+01	 5.000000000000000e+00	 4.999999999981240e-01
0	 5.437499999999998e+01	 5.249999999999999e+00	 5.360000000001504e-01
0	 5.437499999999999e+01	 5.500000000000000e+00	 5.720000000009124e-01
0	 5.437499999999999e+01	 5.750000000000001e+00	 6.079999999997836e-01
0	 5.437500000000000e+01	 6.000000000000003e+00	 6.439999999967719e-01
0	 5.437499999999999e+01	 6.250000000000002e+00	 6.799999999980740e-01
0	 5.437499999999998e+01	 6.500000000000001e+00	 7.159999999976491e-01
0	 5.437499999999999e+01	 6.750000000000002e+00	 7.520000000006635e-01
0	 5.437499999999998e+01	 7.000000000000002e+00	 7.879999999981776e-01
0	 5.437499999999999e+01	 7.250000000000002e+00	 8.239999999987757e-01
0	 5.437499999999999e+01	 7.500000000000000e+00	 8.600000000015486e-01
0	 5.499999999999997e+01	 5.000000000000000e+00	 4.999999999995453e-01
0	 5.499999999999999e+01	 5.250000000000001e+00	 5.360000000055560e-01
0	 5.499999999999996e+01	 5.500000000000000e+00	 5.719999999960030e-01
0	 5.499999999999998e+01	 5.750000000000001e+00	 6.079999999974407e-01
0	 5.499999999999999e+01	 6.000000000000001e+00	 6.440000000018985e-01
0	 5.499999999999999e+01	 6.250000000000001e+00	 6.799999999988801e-01
0	 5.499999999999999e+01	 6.500000000000004e+00	 7.159999999991838e-01
0	 5.499999999999998e+01	 6.750000000000001e+00	 7.519999999989966e-01
0	 5.499999999999999e+01	 7.000000000000002e+00	 7.879999999985898e-01
0	 5.499999999999999e+01	 7.250000000000003e+00	 8.239999999974704e-01
0	 5.499999999999997e+01	 7.500000000000000e+00	 8.600000000015484e-01
0	 5.562499999999998e+01	 5.000000000000000e+00	 4.999999999995452e-01
0	 5.562499999999999e+01	 5.250000000000002e+00	 5.359999999988488e-01
0	 5.562499999999998e+01	 5.500000000000001e+00	 5.719999999975018e-01
0	 5.562499999999998e+01	 5.750000000000001e+00	 6.079999999994895e-01
0	 5.562499999999998e+01	 6.000000000000002e+00	 6.440000000009106e-01
0	 5.562499999999998e+01	 6.250000000000001e+00	 6.800000000002584e-01
0	 5.562499999999999e+01	 6.500000000000001e+00	 7.160000000011996e-01
0	 5.562499999999998e+01	 6.750000000000001e+00	 7.519999999973429e-01
0	 5.562499999999998e+01	 7.000000000000001e+00	 7.879999999991668e-01
0	 5.562499999999999e+01	 7.250000000000002e+00	 8.240000000006460e-01
0	 5.562499999999998e+01	 7.500000000000000e+00	 8.600000000015486e-01
0	 5.625000000000000e+01	 5.000000000000000e+00	 4.999999999995453e-01
0	 5.625000000000000e+01	 5.250000000000000e+00	 5.359999999948383e-01
0	 5.625000000000000e+01	 5.500000000000001e+00	 5.720000000006171e-01
0	 5.625000000000001e+01	 5.750000000000002e+00	 6.080000000003202e-01
0	 5.625000000000001e+01	 6.000000000000001e+00	 6.440000000016890e-01
0	 5.625000000000000e+01	 6.250000000000001e+00	 6.799999999969941e-01
0	 5.624999999999999e+01	 6.500000000000001e+00	 7.159999999998946e-01
0	 5.625000000000000e+01	 6.750000000000002e+00	 7.520000000011531e-01
0	 5.625000000000001e+01	 7.000000000000003e+00	 7.880000000000109e-01
0	 5.625000000000000e+01	 7.250000000000002e+00	 8.239999999974478e-01
0	 5.625000000000000e+01	 7.500000000000000e+00	 8.600000000001273e-01
0	 5.000000000000000e+01	 7.500000000000000e+00	 8.600000000001273e-01
0	 5.000000000000001e+01	 7.750000000000001e+00	 8.767999999979409e-01
0	 5.000000000000000e+01	 8.000000000000002e+00	 8.936000000011034e-01
0	 5.000000000000000e+01	 8.250000000000002e+00	 9.103999999993562e-01
0	 4.999999999999999e+01	 8.500000000000000e+00	 9.271999999984872e-01
0	 5.000000000000000e+01	 8.750000000000000e+00	 9.439999999972829e-01
0	 5.000000000000000e+01	 9.000000000000004e+00	 9.608000000010917e-01
0	 5.000000000000001e+01	 9.250000000000005e+00	 9.775999999988016e-01
0	 5.000000000000000e+01	 9.500000000000000e+00	 9.943999999990183e-01
0	 5.000000000000000e+01	 9.750000000000002e+00	 1.011200000002078e+00
0	 5.000000000000000e+01	 1.000000000000000e+01	 1.027999999999452e+00
0	 5.062500000000000e+01	 7.500000000000000e+00	 8.599999999996164e-01
0	 5.062500000000000e+01	 7.750000000000000e+00	 8.767240000000923e-01
0	 5.062500000000001e+01	 8.000000000000002e+00	 8.934480000026386e-01
0	 5.062500000000000e+01	 8.250000000000000e+00	 9.101719999979662e-01
0	 5.062500000000001e+01	 8.499999999999998e+00	 9.268960000029559e-01
0	 5.062499999999999e+01	 8.750000000000000e+00	 9.436199999967216e-01
0	 5.062500000000000e+01	 9.000000000000002e+00	 9.603439999970034e-01
0	 5.062499999999999e+01	 9.250000000000000e+00	 9.770679999985415e-01
0	 5.062500000000000e+01	 9.500000000000002e+00	 9.937919999997691e-01
0	 5.062500000000000e+01	 9.750000000000004e+00	 1.010516000004031e+00
0	 5.062500000000000e+01	 1.000000000000000e+01	 1.027239999998919e+00
0	 5.124999999999999e+01	 7.499999999999999e+00	 8.599999999980843e-01
0	 5.124999999999999e+01	 7.749999999999998e+00	 8.766559999999918e-01
0	 5.125000000000000e+01	 8.000000000000002e+00	 8.933120000002490e-01
0	 5.124999999999999e+01	 8.250000000000004e+00	 9.099679999990951e-01
0	 5.125000000000000e+01	 8.500000000000000e+00	 9.266239999979100e-01
0	 5.124999999999999e+01	 8.750000000000002e+00	 9.432800000020499e-01
0	 5.125000000000000e+01	 9.000000000000002e+00	 9.599360000002214e-01
0	 5.125000000000000e+01	 9.250000000000004e+00	 9.765920000014516e-01
0	 5.125000000000000e+01	 9.500000000000002e+00	 9.932479999922373e-01
0	 5.124999999999999e+01	 9.750000000000002e+00	 1.009903999996726e+00
0	 5.125000000000000e+01	 1.000000000000000e+01	 1.026560000001809e+00
0	 5.187499999999999e+01	 7.499999999999999e+00	 8.599999999983512e-01
0	 5.187500000000000e+01	 7.750000000000001e+00	 8.765959999990469e-01
0	 5.187499999999999e+01	 8.000000000000000e+00	 8.931920000005534e-01
0	 5.187499999999999e+01	 8.250000000000002e+00	 9.097880000021530e-01
0	 5.187499999999999e+01	 8.500000000000000e+00	 9.263839999991231e-01
0	 5.187500000000000e+01	 8.750000000000000e+00	 9.429800000058484e-01
0	 5.187500000000000e+01	 9.000000000000002e+00	 9.595760000024035e-01
0	 5.187499999999999e+01	 9.250000000000000e+00	 9.761720000039659e-01
0	 5.187500000000001e+01	 9.500000000000004e+00	 9.927680000035191e-01
0	 5.187499999999999e+01	 9.750000000000004e+00	 1.009363999993144e+00
0	 5.187499999999999e+01	 1.000000000000000e+01	 1.025960000005455e+00
0	 5.250000000000000e+01	 7.500000000000000e+00	 8.599999999976404e-01
0	 5.249999999999999e+01	 7.750000000000000e+00	 8.765440000002674e-01
0	 5.249999999999998e+01	 7.999999999999998e+00	 8.930879999983612e-01
0	 5.249999999999999e+01	 8.250000000000000e+00	 9.096319999994832e-01
0	 5.249999999999998e+01	 8.500000000000000e+00	 9.261760000020740e-01
0	 5.249999999999999e+01	 8.750000000000002e+00	 9.427199999950755e-01
0	 5.249999999999999e+01	 9.000000000000002e+00	 9.592640000011250e-01
0	 5.249999999999999e+01	 9.250000000000000e+00	 9.758080000012922e-01
0	 5.249999999999999e+01	 9.500000000000004e+00	 9.923519999983932e-01
0	 5.249999999999999e+01	 9.750000000000002e+00	 1.008895999995211e+00
0	 5.249999999999999e+01	 1.000000000000000e+01	 1.025439999997957e+00
0	 5.312499999999999e+01	 7.500000000000001e+00	 8.600000000015485e-01
0	 5.312499999999999e+01	 7.750000000000001e+00	 8.765000000027023e-01
0	 5.312499999999999e+01	 8.000000000000000e+00	 8.929999999994458e-01
0	 5.312499999999999e+01	 8.249999999999998e+00	 9.094999999989877e-01
0	 5.312499999999999e+01	 8.500000000000002e+00	 9.260000000004709e-01
0	 5.312499999999999e+01	 8.750000000000002e+00	 9.425000000035764e-01
0	 5.312499999999999e+01	 9.000000000000002e+00	 9.589999999988668e-01
0	 5.312499999999999e+01	 9.250000000000002e+00	 9.754999999970129e-01
0	 5.312499999999999e+01	 9.500000000000002e+00	 9.920000000009535e-01
0	 5.312499999999999e+01	 9.750000000000002e+00	 1.008500000008020e+00
0	 5.312499999999999e+01	 1.000000000000000e+01	 1.024999999997078e+00
0	 5.374999999999999e+01	 7.500000000000000e+00	 8.600000000015484e-01
0	 5.374999999999997e+01	 7.749999999999997e+00	 8.764640000017877e-01
0	 5.374999999999999e+01	 8.000000000000002e+00	 8.929280000003815e-01
0	 5.374999999999996e+01	 8.249999999999998e+00	 9.093920000027287e-01
0	 5.374999999999999e+01	 8.500000000000002e+00	 9.258559999999251e-01
0	 5.374999999999999e+01	 8.750000000000002e+00	 9.423199999966325e-01
0	 5.374999999999999e+01	 9.000000000000002e+00	 9.587840000030596e-01
0	 5.374999999999999e+01	 9.250000000000002e+00	 9.752479999999695e-01
0	 5.374999999999999e+01	 9.500000000000002e+00	 9.917120000040585e-01
0	 5.374999999999999e+01	 9.750000000000000e+00	 1.008175999995544e+00
0	 5.374999999999999e+01	 9.999999999999998e+00	 1.024639999997135e+00
0	 5.437499999999999e+01	 7.500000000000000e+00	 8.600000000015486e-01
0	 5.437499999999998e+01	 7.750000000000001e+00	 8.764359999982073e-01
0	 5.437499999999999e+01	 8.000000000000000e+00	 8.928719999980427e-01
0	 5.437499999999998e+01	 8.250000000000002e+00	 9.093080000006637e-01
0	 5.437499999999999e+01	 8.500000000000004e+00	 9.257439999970529e-01
0	 5.437499999999999e+01	 8.750000000000002e+00	 9.421800000014859e-01
0	 5.437499999999997e+01	 8.999999999999998e+00	 9.586159999967088e-01
0	 5.437499999999999e+01	 9.250000000000002e+00	 9.750519999945468e-01
0	 5.437499999999999e+01	 9.500000000000002e+00	 9.914879999985834e-01
0	 5.437499999999999e+01	 9.750000000000004e+00	 1.007924000007110e+00
0	 5.437499999999999e+01	 1.000000000000000e+01	 1.024359999996705e+00
0	 5.499999999999997e+01	 7.500000000000000e+00	 8.600000000015484e-01
0	 5.499999999999999e+01	 7.750000000000000e+00	 8.764160000023296e-01
0	 5.499999999999999e+01	 8.000000000000002e+00	 8.928319999968843e-01
0	 5.500000000000000e+01	 8.250000000000002e+00	 9.092479999967031e-01
0	 5.499999999999998e+01	 8.500000000000000e+00	 9.256640000006026e-01
0	 5.499999999999997e+01	 8.750000000000002e+00	 9.420799999981769e-01
0	 5.499999999999998e+01	 9.000000000000002e+00	 9.584960000001409e-01
0	 5.499999999999998e+01	 9.250000000000002e+00	 9.749120000043595e-01
0	 5.499999999999998e+01	 9.500000000000000e+00	 9.913280000027466e-01
0	 5.499999999999998e+01	 9.750000000000002e+00	 1.007744000000343e+00
0	 5.499999999999999e+01	 1.000000000000000e+01	 1.024159999997210e+00
0	 5.562499999999998e+01	 7.500000000000000e+00	 8.600000000015486e-01
0	 5.562499999999998e+01	 7.750000000000000e+00	 8.764039999999191e-01
0	 5.562499999999996e+01	 8.000000000000000e+00	 8.928080000015330e-01
0	 5.562499999999999e+01	 8.250000000000002e+00	 9.092120000023799e-01
0	 5.562499999999999e+01	 8.500000000000000e+00	 9.256160000006732e-01
0	 5.562499999999997e+01	 8.750000000000000e+00	 9.420200000039193e-01
0	 5.562499999999999e+01	 9.000000000000002e+00	 9.584240000009457e-01
0	 5.562499999999998e+01	 9.250000000000000e+00	 9.748279999944416e-01
0	 5.562499999999998e+01	 9.500000000000002e+00	 9.912319999938461e-01
0	 5.562499999999998e+01	 9.750000000000000e+00	 1.007636000002311e+00
0	 5.562499999999998e+01	 1.000000000000000e+01	 1.024039999998649e+00
0	 5.625000000000000e+01	 7.500000000000000e+00	 8.600000000001273e-01
0	 5.625000000000001e+01	 7.750000000000001e+00	 8.763999999964905e-01
0	 5.625000000000000e+01	 8.000000000000002e+00	 8.928000000029598e-01
0	 5.625000000000000e+01	 8.250000000000002e+00	 9.092000000007441e-01
0	 5.624999999999999e+01	 8.500000000000000e+00	 9.256000000019706e-01
0	 5.625000000000000e+01	 8.750000000000000e+00	 9.419999999951121e-01
0	 5.625000000000001e+01	 9.000000000000004e+00	 9.584000000018023e-01
0	 5.625000000000001e+01	 9.250000000000005e+00	 9.748000000025874e-01
0	 5.625000000000000e+01	 9.500000000000000e+00	 9.911999999957289e-01
0	 5.624999999999999e+01	 9.750000000000002e+00	 1.007599999999798e+00
0	 5.625000000000000e+01	 1.000000000000000e+01	 1.023999999995340e+00
0	 5.625000000000000e+01	 0.000000000000000e+00	-2.400000000761793e-02
0	 5.625000000000000e+01	 2.500000000000000e-01	-7.600000003834659e-03
0	 5.625000000000000e+01	 5.000000000000000e-01	 8.799999990730027e-03
0	 5.625000000000000e+01	 7.500000000000001e-01	 2.520000000141491e-02
0	 5.625000000000000e+01	 1.000000000000000e+00	 4.160000000133075e-02
0	 5.625000000000000e+01	 1.250000000000000e+00	 5.799999999993588e-02
0	 5.624999999999999e+01	 1.500000000000000e+00	 7.439999999974134e-02
0	 5.625000000000000e+01	 1.750000000000000e+00	 9.080000000096790e-02
0	 5.625000000000000e+01	 2.000000000000000e+00	 1.072000000048158e-01
0	 5.625000000000000e+01	 2.250000000000000e+00	 1.236000000046213e-01
0	 5.625000000000000e+01	 2.500000000000000e+00	 1.400000000018053e-01
0	 5.687500000000000e+01	 0.000000000000000e+00	-2.400000000335467e-02
0	 5.687499999999999e+01	 2.499999999999999e-01	-7.600000005139358e-03
0	 5.687499999999999e+01	 4.999999999999999e-01	 8.799999998859772e-03
0	 5.687500000000001e+01	 7.500000000000001e-01	 2.519999999291196e-02
0	 5.687499999999999e+01	 1.000000000000000e+00	 4.159999999817628e-02
0	 5.687500000000001e+01	 1.250000000000000e+00	 5.800000000010241e-02
0	 5.687500000000001e+01	 1.500000000000000e+00	 7.439999999511311e-02
0	 5.687499999999999e+01	 1.750000000000000e+00	 9.080000000297614e-02
0	 5.687500000000001e+01	 2.000000000000000e+00	 1.072000000004625e-01
0	 5.687500000000000e+01	 2.250000000000000e+00	 1.236000000019999e-01
0	 5.687500000000001e+01	 2.500000000000000e+00	 1.400000000035595e-01
0	 5.750000000000000e+01	 0.000000000000000e+00	-2.400000000193359e-02
0	 5.750000000000001e+01	 2.500000000000000e-01	-7.600000005196178e-03
0	 5.750000000000000e+01	 5.000000000000000e-01	 8.799999990283598e-03
0	 5.750000000000001e+01	 7.500000000000001e-01	 2.519999999764601e-02
0	 5.749999999999999e+01	 1.000000000000000e+00	 4.159999999982310e-02
0	 5.750000000000000e+01	 1.250000000000000e+00	 5.800000000060202e-02
0	 5.750000000000000e+01	 1.500000000000000e+00	 7.439999999482710e-02
0	 5.750000000000000e+01	 1.750000000000000e+00	 9.080000000503483e-02
0	 5.750000000000001e+01	 2.000000000000000e+00	 1.071999999983124e-01
0	 5.749999999999999e+01	 2.250000000000000e+00	 1.236000000005788e-01
0	 5.749999999999999e+01	 2.500000000000000e+00	 1.400000000031376e-01
0	 5.812499999999999e+01	 0.000000000000000e+00	-2.400000000903901e-02
0	 5.812499999999999e+01	 2.500000000000000e-01	-7.599999998764653e-03
0	 5.812500000000000e+01	 5.000000000000000e-01	 8.799999998095673e-03
0	 5.812500000000000e+01	 7.500000000000002e-01	 2.519999999498733e-02
0	 5.812500000000000e+01	 1.000000000000000e+00	 4.159999999348214e-02
0	 5.812499999999999e+01	 1.250000000000000e+00	 5.800000000011353e-02
0	 5.812499999999999e+01	 1.500000000000000e+00	 7.440000000339375e-02
0	 5.812499999999999e+01	 1.750000000000000e+00	 9.080000000256662e-02
0	 5.812499999999999e+01	 2.000000000000000e+00	 1.071999999903625e-01
0	 5.812500000000000e+01	 2.250000000000000e+00	 1.235999999947387e-01
0	 5.812500000000000e+01	 2.500000000000000e+00	 1.400000000064238e-01
0	 5.874999999999999e+01	 0.000000000000000e+00	-2.400000000193359e-02
0	 5.874999999999997e+01	 2.500000000000000e-01	-7.600000007615544e-03
0	 5.874999999999998e+01	 4.999999999999999e-01	 8.800000001436719e-03
0	 5.874999999999998e+01	 7.500000000000000e-01	 2.520000000019245e-02
0	 5.874999999999999e+01	 1.000000000000000e+00	 4.159999999893066e-02
0	 5.875000000000000e+01	 1.250000000000000e+00	 5.799999999975823e-02
0	 5.874999999999999e+01	 1.500000000000000e+00	 7.439999999916473e-02
0	 5.874999999999999e+01	 1.750000000000000e+00	 9.080000000220247e-02
0	 5.874999999999999e+01	 2.000000000000000e+00	 1.072000000000628e-01
0	 5.874999999999999e+01	 2.250000000000000e+00	 1.236000000087323e-01
0	 5.874999999999999e+01	 2.500000000000000e+00	 1.400000000014500e-01
0	 5.937499999999999e+01	 0.000000000000000e+00	-2.400000000335467e-02
0	 5.937499999999997e+01	 2.499999999999999e-01	-7.600000015736051e-03
0	 5.937500000000000e+01	 5.000000000000001e-01	 8.800000001918485e-03
0	 5.937499999999999e+01	 7.500000000000000e-01	 2.519999999607811e-02
0	 5.937499999999998e+01	 9.999999999999998e-01	 4.159999999305701e-02
0	 5.937499999999999e+01	 1.250000000000000e+00	 5.799999999851480e-02
0	 5.937499999999999e+01	 1.500000000000000e+00	 7.439999999906509e-02
0	 5.937499999999999e+01	 1.750000000000000e+00	 9.079999999856855e-02
0	 5.937499999999999e+01	 2.000000000000000e+00	 1.072000000068225e-01
0	 5.937499999999999e+01	 2.250000000000000e+00	 1.236000000101705e-01
0	 5.937499999999999e+01	 2.500000000000000e+00	 1.400000000060686e-01
0	 5.999999999999999e+01	 0.000000000000000e+00	-2.400000000193359e-02
0	 5.999999999999999e+01	 2.500000000000000e-01	-7.600000000649281e-03
0	 5.999999999999999e+01	 5.000000000000000e-01	 8.800000002926979e-03
0	 5.999999999999999e+01	 7.500000000000002e-01	 2.519999999715697e-02
0	 5.999999999999999e+01	 1.000000000000000e+00	 4.159999999862616e-02
0	 6.000000000000000e+01	 1.250000000000000e+00	 5.800000000064641e-02
0	 5.999999999999998e+01	 1.500000000000000e+00	 7.440000000124561e-02
0	 5.999999999999999e+01	 1.750000000000000e+00	 9.080000000167845e-02
0	 5.999999999999997e+01	 1.999999999999999e+00	 1.072000000000628e-01
0	 5.999999999999999e+01	 2.250000000000000e+00	 1.235999999959437e-01
0	 5.999999999999999e+01	 2.500000000000000e+00	 1.400000000032264e-01
0	 6.062499999999999e+01	 0.000000000000000e+00	-2.400000000477576e-02
0	 6.062499999999999e+01	 2.500000000000000e-01	-7.599999999801270e-03
0	 6.062499999999997e+01	 5.000000000000001e-01	 8.800000005862152e-03
0	 6.062499999999999e+01	 7.500000000000000e-01	 2.519999999919206e-02
0	 6.062499999999999e+01	 1.000000000000000e+00	 4.159999999767291e-02
0	 6.062499999999999e+01	 1.250000000000000e+00	 5.799999999638317e-02
0	 6.062499999999998e+01	 1.500000000000000e+00	 7.440000000223906e-02
0	 6.062499999999999e+01	 1.750000000000000e+00	 9.080000000033775e-02
0	 6.062499999999999e+01	 2.000000000000000e+00	 1.072000000021944e-01
0	 6.062500000000000e+01	 2.250000000000000e+00	 1.236000000058612e-01
0	 6.062499999999999e+01	 2.500000000000000e+00	 1.400000000032264e-01
0	 6.124999999999998e+01	 0.000000000000000e+00	-2.400000000193359e-02
0	 6.124999999999997e+01	 2.499999999999999e-01	-7.600000002803744e-03
0	 6.124999999999999e+01	 5.000000000000001e-01	 8.799999993512830e-03
0	 6.124999999999999e+01	 7.500000000000002e-01	 2.520000000228437e-02
0	 6.124999999999996e+01	 1.000000000000000e+00	 4.159999999817463e-02
0	 6.124999999999997e+01	 1.250000000000000e+00	 5.799999999922534e-02
0	 6.124999999999999e+01	 1.500000000000000e+00	 7.440000000276656e-02
0	 6.124999999999998e+01	 1.750000000000000e+00	 9.079999999989845e-02
0	 6.124999999999999e+01	 2.000000000000000e+00	 1.071999999993523e-01
0	 6.124999999999999e+01	 2.250000000000000e+00	 1.235999999977366e-01
0	 6.124999999999999e+01	 2.500000000000000e+00	 1.400000000032264e-01
0	 6.187499999999997e+01	 0.000000000000000e+00	-2.400000000761793e-02
0	 6.187499999999999e+01	 2.500000000000000e-01	-7.600000000564129e-03
0	 6.187499999999999e+01	 5.000000000000000e-01	 8.799999992853471e-03
0	 6.187499999999999e+01	 7.500000000000001e-01	 2.519999999545891e-02
0	 6.187499999999997e+01	 9.999999999999998e-01	 4.160000000346764e-02
0	 6.187499999999998e+01	 1.250000000000000e+00	 5.799999999709372e-02
0	 6.187499999999997e+01	 1.500000000000000e+00	 7.439999999569358e-02
0	 6.187499999999999e+01	 1.750000000000000e+00	 9.080000000366641e-02
0	 6.187499999999997e+01	 2.000000000000000e+00	 1.072000000024028e-01
0	 6.187499999999999e+01	 2.250000000000000e+00	 1.236000000039944e-01
0	 6.187499999999999e+01	 2.500000000000000e+00	 1.400000000046475e-01
0	 6.250000000000000e+01	 0.000000000000000e+00	-2.400000000193359e-02
0	 6.250000000000000e+01	 2.500000000000000e-01	-7.600000004604804e-03
0	 6.250000000000000e+01	 5.000000000000000e-01	 8.799999992289722e-03
0	 6.250000000000000e+01	 7.500000000000001e-01	 2.520000001051026e-02
0	 6.250000000000000e+01	 1.000000000000000e+00	 4.159999999857424e-02
0	 6.250000000000000e+01	 1.250000000000000e+00	 5.799999999851480e-02
0	 6.250000000000000e+01	 1.500000000000000e+00	 7.439999999974134e-02
0	 6.250000000000000e+01	 1.750000000000000e+00	 9.080000000096788e-02
0	 6.250000000000000e+01	 2.000000000000000e+00	 1.072000000049015e-01
0	 6.250000000000000e+01	 2.250000000000000e+00	 1.236000000088351e-01
0	 6.250000000000000e+01	 2.500000000000000e+00	 1.400000000018053e-01
0	 5.625000000000000e+01	 2.500000000000000e+00	 1.400000000018053e-01
0	 5.625000000000000e+01	 2.750000000000000e+00	 1.759999999994077e-01
0	 5.625000000000000e+01	 3.000000000000001e+00	 2.120000000046536e-01
0	 5.625000000000001e+01	 3.250000000000001e+00	 2.480000000032907e-01
0	 5.625000000000001e+01	 3.500000000000001e+00	 2.840000000046596e-01
0	 5.625000000000000e+01	 3.750000000000001e+00	 3.199999999992542e-01
0	 5.624999999999999e+01	 4.000000000000001e+00	 3.560000000021546e-01
0	 5.625000000000000e+01	 4.250000000000002e+00	 3.920000000048343e-01
0	 5.625000000000001e+01	 4.500000000000003e+00	 4.280000000008500e-01
0	 5.625000000000000e+01	 4.750000000000002e+00	 4.639999999954446e-01
0	 5.625000000000000e+01	 5.000000000000000e+00	 4.999999999995453e-01
0	 5.687500000000001e+01	 2.500000000000000e+00	 1.400000000035595e-01
0	 5.687500000000001e+01	 2.750000000000000e+00	 1.760000000004399e-01
0	 5.687500000000000e+01	 3.000000000000000e+00	 2.120000000017156e-01
0	 5.687500000000000e+01	 3.250000000000001e+00	 2.480000000030077e-01
0	 5.687500000000000e+01	 3.500000000000001e+00	 2.840000000022951e-01
0	 5.687500000000000e+01	 3.750000000000001e+00	 3.200000000027362e-01
0	 5.687500000000000e+01	 4.000000000000002e+00	 3.560000000035589e-01
0	 5.687500000000001e+01	 4.250000000000002e+00	 3.920000000016882e-01
0	 5.687500000000000e+01	 4.500000000000001e+00	 4.280000000003722e-01
0	 5.687499999999999e+01	 4.750000000000001e+00	 4.640000000034272e-01
0	 5.687500000000001e+01	 5.000000000000000e+00	 5.000000000001670e-01
0	 5.749999999999999e+01	 2.500000000000000e+00	 1.400000000031376e-01
0	 5.749999999999999e+01	 2.750000000000000e+00	 1.760000000006645e-01
0	 5.749999999999999e+01	 3.000000000000001e+00	 2.120000000042978e-01
0	 5.750000000000000e+01	 3.250000000000000e+00	 2.480000000029624e-01
0	 5.750000000000000e+01	 3.500000000000001e+00	 2.840000000024931e-01
0	 5.750000000000001e+01	 3.750000000000001e+00	 3.200000000029773e-01
0	 5.749999999999999e+01	 4.000000000000002e+00	 3.560000000037727e-01
0	 5.749999999999999e+01	 4.250000000000001e+00	 3.919999999988636e-01
0	 5.749999999999999e+01	 4.500000000000001e+00	 4.280000000044529e-01
0	 5.750000000000000e+01	 4.750000000000003e+00	 4.639999999983471e-01
0	 5.749999999999999e+01	 5.000000000000000e+00	 4.999999999991900e-01
0	 5.812500000000000e+01	 2.500000000000000e+00	 1.400000000064238e-01
0	 5.812500000000000e+01	 2.750000000000000e+00	 1.760000000007547e-01
0	 5.812500000000000e+01	 3.000000000000000e+00	 2.120000000048299e-01
0	 5.812500000000000e+01	 3.250000000000001e+00	 2.480000000010489e-01
0	 5.812499999999999e+01	 3.500000000000001e+00	 2.840000000054912e-01
0	 5.812500000000000e+01	 3.750000000000001e+00	 3.199999999995394e-01
0	 5.812499999999998e+01	 4.000000000000001e+00	 3.560000000007949e-01
0	 5.812500000000000e+01	 4.250000000000001e+00	 3.920000000031253e-01
0	 5.812499999999999e+01	 4.500000000000002e+00	 4.280000000004703e-01
0	 5.812500000000000e+01	 4.750000000000002e+00	 4.640000000053576e-01
0	 5.812500000000000e+01	 5.000000000000001e+00	 4.999999999993676e-01
0	 5.874999999999999e+01	 2.500000000000000e+00	 1.400000000014500e-01
0	 5.874999999999999e+01	 2.750000000000000e+00	 1.760000000029374e-01
0	 5.874999999999998e+01	 3.000000000000000e+00	 2.120000000022609e-01
0	 5.874999999999999e+01	 3.250000000000000e+00	 2.480000000000509e-01
0	 5.874999999999999e+01	 3.500000000000001e+00	 2.840000000010161e-01
0	 5.874999999999999e+01	 3.750000000000000e+00	 3.200000000013858e-01
0	 5.874999999999999e+01	 4.000000000000002e+00	 3.560000000005384e-01
0	 5.874999999999999e+01	 4.250000000000002e+00	 3.920000000013273e-01
0	 5.874999999999999e+01	 4.500000000000002e+00	 4.280000000004480e-01
0	 5.874999999999999e+01	 4.750000000000002e+00	 4.639999999952416e-01
0	 5.874999999999999e+01	 5.000000000000000e+00	 5.000000000009663e-01
0	 5.937499999999999e+01	 2.500000000000000e+00	 1.400000000060686e-01
0	 5.937499999999997e+01	 2.750000000000000e+00	 1.760000000008599e-01
0	 5.937499999999999e+01	 3.000000000000000e+00	 2.120000000035985e-01
0	 5.937499999999999e+01	 3.250000000000001e+00	 2.480000000036459e-01
0	 5.937499999999999e+01	 3.500000000000001e+00	 2.840000000049016e-01
0	 5.937499999999999e+01	 3.750000000000001e+00	 3.199999999997874e-01
0	 5.937499999999999e+01	 4.000000000000002e+00	 3.559999999966482e-01
0	 5.937499999999999e+01	 4.250000000000002e+00	 3.920000000002131e-01
0	 5.937499999999999e+01	 4.500000000000002e+00	 4.280000000008499e-01
0	 5.937499999999999e+01	 4.750000000000003e+00	 4.639999999999743e-01
0	 5.937499999999999e+01	 5.000000000000000e+00	 4.999999999981242e-01
0	 5.999999999999999e+01	 2.500000000000000e+00	 1.400000000032264e-01
0	 5.999999999999998e+01	 2.750000000000000e+00	 1.760000000023428e-01
0	 5.999999999999999e+01	 3.000000000000001e+00	 2.120000000016178e-01
0	 5.999999999999998e+01	 3.250000000000000e+00	 2.480000000019157e-01
0	 5.999999999999997e+01	 3.500000000000000e+00	 2.840000000013232e-01
0	 5.999999999999999e+01	 3.750000000000001e+00	 3.200000000003624e-01
0	 5.999999999999999e+01	 4.000000000000001e+00	 3.560000000032809e-01
0	 5.999999999999999e+01	 4.250000000000002e+00	 3.920000000001659e-01
0	 5.999999999999999e+01	 4.500000000000002e+00	 4.279999999979231e-01
0	 5.999999999999997e+01	 4.750000000000002e+00	 4.640000000046361e-01
0	 5.999999999999999e+01	 5.000000000000000e+00	 4.999999999988347e-01
0	 6.062499999999999e+01	 2.500000000000000e+00	 1.400000000032264e-01
0	 6.062499999999997e+01	 2.750000000000000e+00	 1.759999999982610e-01
0	 6.062499999999999e+01	 3.000000000000001e+00	 2.119999999985631e-01
0	 6.062499999999998e+01	 3.250000000000000e+00	 2.480000000022147e-01
0	 6.062499999999999e+01	 3.500000000000001e+00	 2.840000000013276e-01
0	 6.062499999999999e+01	 3.750000000000002e+00	 3.200000000010347e-01
0	 6.062499999999999e+01	 4.000000000000002e+00	 3.559999999989530e-01
0	 6.062499999999999e+01	 4.250000000000003e+00	 3.920000000015827e-01
0	 6.062499999999999e+01	 4.500000000000002e+00	 4.279999999989744e-01
0	 6.062499999999999e+01	 4.750000000000002e+00	 4.639999999980660e-01
0	 6.062499999999999e+01	 5.000000000000000e+00	 4.999999999981240e-01
0	 6.124999999999999e+01	 2.500000000000000e+00	 1.400000000032264e-01
0	 6.124999999999998e+01	 2.750000000000000e+00	 1.760000000036875e-01
0	 6.124999999999997e+01	 3.000000000000000e+00	 2.120000000018339e-01
0	 6.124999999999998e+01	 3.250000000000000e+00	 2.480000000021440e-01
0	 6.124999999999999e+01	 3.500000000000001e+00	 2.840000000022140e-01
0	 6.124999999999998e+01	 3.750000000000001e+00	 3.200000000010269e-01
0	 6.124999999999999e+01	 4.000000000000003e+00	 3.560000000013679e-01
0	 6.124999999999998e+01	 4.250000000000001e+00	 3.920000000012955e-01
0	 6.124999999999998e+01	 4.500000000000002e+00	 4.280000000006978e-01
0	 6.124999999999998e+01	 4.750000000000002e+00	 4.639999999980660e-01
0	 6.124999999999999e+01	 5.000000000000000e+00	 4.999999999995453e-01
0	 6.187499999999999e+01	 2.500000000000000e+00	 1.400000000046475e-01
0	 6.187499999999999e+01	 2.750000000000001e+00	 1.760000000042329e-01
0	 6.187499999999997e+01	 3.000000000000000e+00	 2.119999999991712e-01
0	 6.187499999999998e+01	 3.250000000000000e+00	 2.480000000004188e-01
0	 6.187499999999999e+01	 3.500000000000001e+00	 2.840000000002974e-01
0	 6.187499999999999e+01	 3.750000000000001e+00	 3.200000000012098e-01
0	 6.187499999999999e+01	 4.000000000000002e+00	 3.560000000006617e-01
0	 6.187499999999997e+01	 4.250000000000001e+00	 3.919999999995143e-01
0	 6.187499999999997e+01	 4.500000000000002e+00	 4.279999999985033e-01
0	 6.187499999999999e+01	 4.750000000000002e+00	 4.640000000026810e-01
0	 6.187499999999999e+01	 5.000000000000000e+00	 4.999999999967030e-01
0	 6.250000000000000e+01	 2.500000000000000e+00	 1.400000000018053e-01
0	 6.250000000000000e+01	 2.750000000000000e+00	 1.759999999980738e-01
0	 6.250000000000000e+01	 3.000000000000001e+00	 2.119999999984704e-01
0	 6.250000000000001e+01	 3.250000000000001e+00	 2.480000000019124e-01
0	 6.250000000000001e+01	 3.500000000000001e+00	 2.840000000006171e-01
0	 6.250000000000000e+01	 3.750000000000001e+00	 3.199999999992543e-01
0	 6.250000000000000e+01	 4.000000000000001e+00	 3.559999999993124e-01
0	 6.250000000000000e+01	 4.250000000000002e+00	 3.920000000006567e-01
0	 6.250000000000001e+01	 4.500000000000003e+00	 4.279999999967217e-01
0	 6.250000000000000e+01	 4.750000000000002e+00	 4.639999999994870e-01
0	 6.250000000000000e+01	 5.000000000000000e+00	 4.999999999995453e-01
0	 5.625000000000000e+01	 5.000000000000000e+00	 4.999999999995453e-01
0	 5.625000000000000e+01	 5.250000000000000e+00	 5.359999999948383e-01
0	 5.625000000000000e+01	 5.500000000000001e+00	 5.720000000006171e-01
0	 5.625000000000001e+01	 5.750000000000002e+00	 6.080000000003202e-01
0	 5.625000000000001e+01	 6.000000000000001e+00	 6.440000000016890e-01
0	 5.625000000000000e+01	 6.250000000000001e+00	 6.799999999969941e-01
0	 5.624999999999999e+01	 6.500000000000001e+00	 7.159999999998946e-01
0	 5.625000000000000e+01	 6.750000000000002e+00	 7.520000000011531e-01
0	 5.625000000000001e+01	 7.000000000000003e+00	 7.880000000000109e-01
0	 5.625000000000000e+01	 7.250000000000002e+00	 8.239999999974478e-01
0	 5.625000000000000e+01	 7.500000000000000e+00	 8.600000000001273e-01
0	 5.687500000000001e+01	 5.000000000000000e+00	 5.000000000001670e-01
0	 5.687500000000001e+01	 5.250000000000000e+00	 5.359999999966837e-01
0	 5.687500000000000e+01	 5.500000000000001e+00	 5.719999999976071e-01
0	 5.687500000000000e+01	 5.750000000000000e+00	 6.080000000024461e-01
0	 5.687500000000000e+01	 6.000000000000002e+00	 6.440000000003125e-01
0	 5.687500000000000e+01	 6.250000000000002e+00	 6.800000000021749e-01
0	 5.687500000000000e+01	 6.500000000000002e+00	 7.160000000015649e-01
0	 5.687500000000001e+01	 6.750000000000002e+00	 7.519999999997165e-01
0	 5.687500000000000e+01	 7.000000000000001e+00	 7.879999999998218e-01
0	 5.687499999999999e+01	 7.250000000000001e+00	 8.240000000028990e-01
0	 5.687500000000001e+01	 7.500000000000000e+00	 8.599999999967742e-01
0	 5.749999999999999e+01	 5.000000000000000e+00	 4.999999999991900e-01
0	 5.749999999999999e+01	 5.250000000000001e+00	 5.359999999956176e-01
0	 5.749999999999999e+01	 5.500000000000002e+00	 5.719999999996175e-01
0	 5.750000000000000e+01	 5.750000000000000e+00	 6.079999999996810e-01
0	 5.750000000000000e+01	 6.000000000000001e+00	 6.439999999985011e-01
0	 5.750000000000001e+01	 6.250000000000002e+00	 6.799999999989851e-01
0	 5.749999999999999e+01	 6.500000000000002e+00	 7.160000000011575e-01
0	 5.749999999999999e+01	 6.750000000000001e+00	 7.519999999977585e-01
0	 5.749999999999999e+01	 7.000000000000003e+00	 7.880000000033472e-01
0	 5.750000000000000e+01	 7.250000000000004e+00	 8.240000000001726e-01
0	 5.749999999999999e+01	 7.499999999999999e+00	 8.599999999980843e-01
0	 5.812500000000000e+01	 5.000000000000001e+00	 4.999999999993676e-01
0	 5.812500000000000e+01	 5.250000000000001e+00	 5.360000000012483e-01
0	 5.812500000000000e+01	 5.500000000000000e+00	 5.720000000009712e-01
0	 5.812500000000000e+01	 5.750000000000001e+00	 6.080000000006542e-01
0	 5.812499999999999e+01	 6.000000000000000e+00	 6.440000000016324e-01
0	 5.812500000000000e+01	 6.250000000000000e+00	 6.799999999984342e-01
0	 5.812499999999998e+01	 6.500000000000001e+00	 7.159999999983571e-01
0	 5.812500000000000e+01	 6.750000000000002e+00	 7.520000000021089e-01
0	 5.812499999999999e+01	 7.000000000000002e+00	 7.880000000024734e-01
0	 5.812500000000000e+01	 7.250000000000001e+00	 8.240000000070055e-01
0	 5.812500000000000e+01	 7.499999999999999e+00	 8.599999999983512e-01
0	 5.874999999999999e+01	 5.000000000000000e+00	 5.000000000009663e-01
0	 5.874999999999999e+01	 5.250000000000001e+00	 5.359999999977021e-01
0	 5.874999999999998e+01	 5.500000000000000e+00	 5.720000000023989e-01
0	 5.874999999999999e+01	 5.750000000000000e+00	 6.079999999979684e-01
0	 5.874999999999999e+01	 6.000000000000001e+00	 6.440000000003547e-01
0	 5.874999999999999e+01	 6.250000000000000e+00	 6.799999999993033e-01
0	 5.874999999999999e+01	 6.500000000000003e+00	 7.159999999982780e-01
0	 5.874999999999999e+01	 6.750000000000002e+00	 7.520000000008433e-01
0	 5.874999999999999e+01	 7.000000000000003e+00	 7.879999999999645e-01
0	 5.874999999999999e+01	 7.250000000000002e+00	 8.239999999951129e-01
0	 5.874999999999999e+01	 7.500000000000000e+00	 8.600000000004827e-01
0	 5.937499999999999e+01	 5.000000000000000e+00	 4.999999999981242e-01
0	 5.937499999999997e+01	 5.250000000000000e+00	 5.359999999945141e-01
0	 5.937499999999999e+01	 5.500000000000001e+00	 5.720000000006280e-01
0	 5.937499999999999e+01	 5.750000000000001e+00	 6.079999999999647e-01
0	 5.937499999999999e+01	 6.000000000000001e+00	 6.440000000029968e-01
0	 5.937499999999999e+01	 6.250000000000001e+00	 6.799999999975272e-01
0	 5.937499999999999e+01	 6.500000000000001e+00	 7.159999999972304e-01
0	 5.937499999999999e+01	 6.750000000000002e+00	 7.520000000011506e-01
0	 5.937499999999999e+01	 7.000000000000000e+00	 7.879999999985898e-01
0	 5.937499999999999e+01	 7.250000000000002e+00	 8.240000000012669e-01
0	 5.937499999999999e+01	 7.500000000000001e+00	 8.600000000043908e-01
0	 5.999999999999999e+01	 5.000000000000000e+00	 4.999999999988347e-01
0	 5.999999999999998e+01	 5.249999999999999e+00	 5.360000000032802e-01
0	 5.999999999999999e+01	 5.500000000000001e+00	 5.720000000007787e-01
0	 5.999999999999998e+01	 5.750000000000000e+00	 6.080000000000110e-01
0	 5.999999999999997e+01	 6.000000000000000e+00	 6.439999999997735e-01
0	 5.999999999999999e+01	 6.250000000000001e+00	 6.799999999998785e-01
0	 5.999999999999999e+01	 6.500000000000001e+00	 7.160000000031523e-01
0	 5.999999999999999e+01	 6.750000000000000e+00	 7.520000000000374e-01
0	 5.999999999999999e+01	 7.000000000000002e+00	 7.880000000013471e-01
0	 5.999999999999997e+01	 7.250000000000001e+00	 8.240000000037970e-01
0	 5.999999999999999e+01	 7.500000000000000e+00	 8.600000000015484e-01
0	 6.062499999999999e+01	 5.000000000000000e+00	 4.999999999981240e-01
0	 6.062499999999997e+01	 5.249999999999999e+00	 5.359999999991983e-01
0	 6.062499999999999e+01	 5.500000000000000e+00	 5.720000000005663e-01
0	 6.062499999999998e+01	 5.750000000000001e+00	 6.079999999992439e-01
0	 6.062499999999999e+01	 6.000000000000003e+00	 6.440000000004885e-01
0	 6.062499999999999e+01	 6.250000000000002e+00	 6.799999999980642e-01
0	 6.062499999999999e+01	 6.500000000000001e+00	 7.160000000009564e-01
0	 6.062499999999999e+01	 6.750000000000002e+00	 7.519999999971911e-01
0	 6.062499999999999e+01	 7.000000000000002e+00	 7.879999999981353e-01
0	 6.062499999999999e+01	 7.250000000000002e+00	 8.240000000014902e-01
0	 6.062499999999999e+01	 7.500000000000000e+00	 8.600000000015486e-01
0	 6.124999999999999e+01	 5.000000000000000e+00	 4.999999999995453e-01
0	 6.124999999999998e+01	 5.250000000000001e+00	 5.359999999980524e-01
0	 6.124999999999997e+01	 5.500000000000000e+00	 5.719999999992184e-01
0	 6.124999999999998e+01	 5.750000000000001e+00	 6.079999999977523e-01
0	 6.124999999999999e+01	 6.000000000000001e+00	 6.439999999992434e-01
0	 6.124999999999998e+01	 6.250000000000001e+00	 6.799999999994772e-01
0	 6.124999999999999e+01	 6.500000000000004e+00	 7.160000000005288e-01
0	 6.124999999999998e+01	 6.750000000000001e+00	 7.519999999976142e-01
0	 6.124999999999998e+01	 7.000000000000002e+00	 7.880000000027009e-01
0	 6.124999999999998e+01	 7.250000000000003e+00	 8.240000000014899e-01
0	 6.124999999999999e+01	 7.500000000000000e+00	 8.600000000015484e-01
0	 6.187499999999999e+01	 5.000000000000000e+00	 4.999999999967030e-01
0	 6.187499999999999e+01	 5.250000000000002e+00	 5.359999999993080e-01
0	 6.187499999999997e+01	 5.500000000000001e+00	 5.719999999958452e-01
0	 6.187499999999998e+01	 5.750000000000001e+00	 6.079999999981587e-01
0	 6.187499999999999e+01	 6.000000000000002e+00	 6.440000000015900e-01
0	 6.187499999999999e+01	 6.250000000000001e+00	 6.800000000003708e-01
0	 6.187499999999999e+01	 6.500000000000001e+00	 7.160000000012440e-01
0	 6.187499999999997e+01	 6.750000000000001e+00	 7.519999999972543e-01
0	 6.187499999999997e+01	 7.000000000000001e+00	 7.879999999990857e-01
0	 6.187499999999999e+01	 7.250000000000002e+00	 8.239999999990001e-01
0	 6.187499999999999e+01	 7.500000000000000e+00	 8.600000000029698e-01
0	 6.250000000000000e+01	 5.000000000000000e+00	 4.999999999995453e-01
0	 6.250000000000000e+01	 5.250000000000000e+00	 5.359999999965241e-01
0	 6.250000000000000e+01	 5.500000000000001e+00	 5.719999999990525e-01
0	 6.250000000000001e+01	 5.750000000000002e+00	 6.080000000017841e-01
0	 6.250000000000001e+01	 6.000000000000001e+00	 6.439999999997781e-01
0	 6.250000000000000e+01	 6.250000000000001e+00	 6.799999999984153e-01
0	 6.250000000000000e+01	 6.500000000000001e+00	 7.160000000013156e-01
0	 6.250000000000000e+01	 6.750000000000002e+00	 7.519999999998177e-01
0	 6.250000000000001e+01	 7.000000000000003e+00	 7.879999999973039e-01
0	 6.250000000000000e+01	 7.250000000000002e+00	 8.240000000000691e-01
0	 6.250000000000000e+01	 7.500000000000000e+00	 8.600000000001273e-01
0	 5.625000000000000e+01	 7.500000000000000e+00	 8.600000000001273e-01
0	 5.625000000000001e+01	 7.750000000000001e+00	 8.763999999964905e-01
0	 5.625000000000000e+01	 8.000000000000002e+00	 8.928000000029598e-01
0	 5.625000000000000e+01	 8.250000000000002e+00	 9.092000000007441e-01
0	 5.624999999999999e+01	 8.500000000000000e+00	 9.256000000019706e-01
0	 5.625000000000000e+01	 8.750000000000000e+00	 9.419999999951121e-01
0	 5.625000000000001e+01	 9.000000000000004e+00	 9.584000000018023e-01
0	 5.625000000000001e+01	 9.250000000000005e+00	 9.748000000025874e-01
0	 5.625000000000000e+01	 9.500000000000000e+00	 9.911999999957289e-01
0	 5.624999999999999e+01	 9.750000000000002e+00	 1.007599999999798e+00
0	 5.625000000000000e+01	 1.000000000000000e+01	 1.023999999995340e+00
0	 5.687500000000001e+01	 7.500000000000000e+00	 8.599999999967742e-01
0	 5.687500000000000e+01	 7.750000000000000e+00	 8.763999999977062e-01
0	 5.687500000000001e+01	 8.000000000000002e+00	 8.928000000026295e-01
0	 5.687499999999999e+01	 8.250000000000000e+00	 9.092000000034709e-01
0	 5.687499999999999e+01	 8.499999999999998e+00	 9.255999999972897e-01
0	 5.687500000000000e+01	 8.750000000000000e+00	 9.419999999935617e-01
0	 5.687499999999999e+01	 9.000000000000002e+00	 9.584000000027491e-01
0	 5.687499999999999e+01	 9.250000000000000e+00	 9.748000000007725e-01
0	 5.687500000000000e+01	 9.500000000000002e+00	 9.911999999984659e-01
0	 5.687500000000000e+01	 9.750000000000004e+00	 1.007600000002151e+00
0	 5.687500000000000e+01	 1.000000000000000e+01	 1.023999999998048e+00
0	 5.749999999999999e+01	 7.499999999999999e+00	 8.599999999980843e-01
0	 5.749999999999999e+01	 7.749999999999998e+00	 8.763999999976347e-01
0	 5.750000000000000e+01	 8.000000000000002e+00	 8.928000000033594e-01
0	 5.749999999999999e+01	 8.250000000000004e+00	 9.091999999995177e-01
0	 5.749999999999999e+01	 8.500000000000000e+00	 9.256000000022762e-01
0	 5.750000000000001e+01	 8.750000000000002e+00	 9.419999999964016e-01
0	 5.749999999999999e+01	 9.000000000000002e+00	 9.584000000033416e-01
0	 5.750000000000000e+01	 9.250000000000004e+00	 9.747999999977812e-01
0	 5.749999999999999e+01	 9.500000000000002e+00	 9.912000000010585e-01
0	 5.749999999999999e+01	 9.750000000000002e+00	 1.007599999999294e+00
0	 5.750000000000000e+01	 1.000000000000000e+01	 1.024000000000492e+00
0	 5.812500000000000e+01	 7.499999999999999e+00	 8.599999999983512e-01
0	 5.812500000000001e+01	 7.750000000000001e+00	 8.764000000030655e-01
0	 5.812499999999999e+01	 8.000000000000000e+00	 8.927999999991879e-01
0	 5.812499999999999e+01	 8.250000000000002e+00	 9.091999999979453e-01
0	 5.812499999999999e+01	 8.500000000000000e+00	 9.256000000051895e-01
0	 5.812499999999999e+01	 8.750000000000000e+00	 9.419999999935295e-01
0	 5.812500000000000e+01	 9.000000000000002e+00	 9.583999999937536e-01
0	 5.812499999999999e+01	 9.250000000000000e+00	 9.747999999952623e-01
0	 5.812499999999999e+01	 9.500000000000004e+00	 9.911999999943951e-01
0	 5.812500000000001e+01	 9.750000000000004e+00	 1.007600000008698e+00
0	 5.812499999999999e+01	 1.000000000000000e+01	 1.023999999996761e+00
0	 5.874999999999999e+01	 7.500000000000000e+00	 8.600000000004827e-01
0	 5.874999999999999e+01	 7.750000000000000e+00	 8.764000000006270e-01
0	 5.874999999999999e+01	 7.999999999999998e+00	 8.927999999949509e-01
0	 5.874999999999999e+01	 8.250000000000000e+00	 9.091999999994097e-01
0	 5.874999999999998e+01	 8.500000000000000e+00	 9.255999999976603e-01
0	 5.874999999999999e+01	 8.750000000000002e+00	 9.419999999980891e-01
0	 5.874999999999999e+01	 9.000000000000002e+00	 9.583999999921516e-01
0	 5.874999999999999e+01	 9.250000000000000e+00	 9.747999999937217e-01
0	 5.874999999999999e+01	 9.500000000000004e+00	 9.911999999936095e-01
0	 5.874999999999998e+01	 9.750000000000002e+00	 1.007600000000508e+00
0	 5.874999999999999e+01	 1.000000000000000e+01	 1.023999999998892e+00
0	 5.937499999999999e+01	 7.500000000000001e+00	 8.600000000043908e-01
0	 5.937499999999999e+01	 7.750000000000001e+00	 8.763999999969471e-01
0	 5.937499999999999e+01	 8.000000000000000e+00	 8.928000000024023e-01
0	 5.937499999999999e+01	 8.249999999999998e+00	 9.092000000005221e-01
0	 5.937499999999999e+01	 8.500000000000002e+00	 9.256000000067648e-01
0	 5.937499999999999e+01	 8.750000000000002e+00	 9.419999999998649e-01
0	 5.937499999999999e+01	 9.000000000000002e+00	 9.583999999922109e-01
0	 5.937499999999998e+01	 9.250000000000002e+00	 9.747999999940559e-01
0	 5.937500000000000e+01	 9.500000000000002e+00	 9.911999999985708e-01
0	 5.937499999999999e+01	 9.750000000000002e+00	 1.007599999993597e+00
0	 5.937499999999999e+01	 1.000000000000000e+01	 1.023999999993919e+00
0	 5.999999999999999e+01	 7.500000000000000e+00	 8.600000000015484e-01
0	 5.999999999999997e+01	 7.749999999999997e+00	 8.764000000015306e-01
0	 5.999999999999999e+01	 8.000000000000002e+00	 8.928000000024110e-01
0	 5.999999999999997e+01	 8.249999999999998e+00	 9.092000000016753e-01
0	 5.999999999999999e+01	 8.500000000000002e+00	 9.256000000039842e-01
0	 5.999999999999999e+01	 8.750000000000002e+00	 9.419999999963971e-01
0	 5.999999999999999e+01	 9.000000000000002e+00	 9.583999999997912e-01
0	 5.999999999999999e+01	 9.250000000000002e+00	 9.747999999957726e-01
0	 5.999999999999999e+01	 9.500000000000002e+00	 9.911999999932369e-01
0	 5.999999999999999e+01	 9.750000000000000e+00	 1.007599999999488e+00
0	 5.999999999999999e+01	 9.999999999999998e+00	 1.023999999995340e+00
0	 6.062499999999999e+01	 7.500000000000000e+00	 8.600000000015486e-01
0	 6.062499999999998e+01	 7.750000000000001e+00	 8.763999999989659e-01
0	 6.062499999999999e+01	 8.000000000000000e+00	 8.927999999969477e-01
0	 6.062499999999999e+01	 8.250000000000002e+00	 9.092000000028553e-01
0	 6.062499999999998e+01	 8.500000000000004e+00	 9.255999999965069e-01
0	 6.062499999999999e+01	 8.750000000000002e+00	 9.419999999927676e-01
0	 6.062499999999997e+01	 8.999999999999998e+00	 9.583999999982413e-01
0	 6.062499999999999e+01	 9.250000000000002e+00	 9.747999999893001e-01
0	 6.062499999999999e+01	 9.500000000000002e+00	 9.911999999840944e-01
0	 6.062499999999998e+01	 9.750000000000004e+00	 1.007599999996955e+00
0	 6.062499999999999e+01	 1.000000000000000e+01	 1.023999999989655e+00
0	 6.124999999999999e+01	 7.500000000000000e+00	 8.600000000015484e-01
0	 6.124999999999998e+01	 7.750000000000000e+00	 8.763999999966505e-01
0	 6.124999999999999e+01	 8.000000000000002e+00	 8.927999999997382e-01
0	 6.124999999999999e+01	 8.250000000000002e+00	 9.091999999990089e-01
0	 6.124999999999998e+01	 8.500000000000000e+00	 9.255999999982798e-01
0	 6.124999999999998e+01	 8.750000000000002e+00	 9.419999999998577e-01
0	 6.124999999999999e+01	 9.000000000000002e+00	 9.583999999964696e-01
0	 6.124999999999997e+01	 9.250000000000002e+00	 9.747999999901916e-01
0	 6.124999999999998e+01	 9.500000000000000e+00	 9.911999999928870e-01
0	 6.124999999999997e+01	 9.750000000000002e+00	 1.007599999999797e+00
0	 6.124999999999998e+01	 1.000000000000000e+01	 1.023999999998182e+00
0	 6.187499999999999e+01	 7.500000000000000e+00	 8.600000000029698e-01
0	 6.187499999999999e+01	 7.750000000000000e+00	 8.763999999999817e-01
0	 6.187499999999996e+01	 8.000000000000000e+00	 8.927999999995626e-01
0	 6.187499999999998e+01	 8.250000000000002e+00	 9.091999999972363e-01
0	 6.187499999999998e+01	 8.500000000000000e+00	 9.256000000020479e-01
0	 6.187499999999998e+01	 8.750000000000000e+00	 9.419999999968861e-01
0	 6.187499999999999e+01	 9.000000000000002e+00	 9.583999999988164e-01
0	 6.187499999999998e+01	 9.250000000000000e+00	 9.747999999919477e-01
0	 6.187499999999997e+01	 9.500000000000002e+00	 9.912000000075146e-01
0	 6.187499999999997e+01	 9.750000000000000e+00	 1.007600000010591e+00
0	 6.187499999999997e+01	 1.000000000000000e+01	 1.023999999995339e+00
0	 6.250000000000000e+01	 7.500000000000000e+00	 8.600000000001273e-01
0	 6.250000000000001e+01	 7.750000000000001e+00	 8.763999999959060e-01
0	 6.250000000000000e+01	 8.000000000000002e+00	 8.927999999955425e-01
0	 6.249999999999999e+01	 8.250000000000002e+00	 9.092000000008296e-01
0	 6.249999999999999e+01	 8.500000000000000e+00	 9.255999999965071e-01
0	 6.250000000000000e+01	 8.750000000000000e+00	 9.419999999977337e-01
0	 6.250000000000000e+01	 9.000000000000004e+00	 9.583999999989601e-01
0	 6.250000000000001e+01	 9.250000000000005e+00	 9.748000000027587e-01
0	 6.250000000000000e+01	 9.500000000000000e+00	 9.911999999928868e-01
0	 6.250000000000000e+01	 9.750000000000002e+00	 1.007599999996956e+00
0	 6.250000000000000e+01	 1.000000000000000e+01	 1.023999999995340e+00
0	 6.250000000000000e+01	 0.000000000000000e+00	-2.400000000193359e-02
0	 6.250000000000000e+01	 2.500000000000000e-01	-7.600000004604804e-03
0	 6.250000000000000e+01	 5.000000000000000e-01	 8.799999992289722e-03
0	 6.250000000000000e+01	 7.500000000000001e-01	 2.520000001051026e-02
0	 6.250000000000000e+01	 1.000000000000000e+00	 4.159999999857424e-02
0	 6.250000000000000e+01	 1.250000000000000e+00	 5.799999999851480e-02
0	 6.250000000000000e+01	 1.500000000000000e+00	 7.439999999974134e-02
0	 6.250000000000000e+01	 1.750000000000000e+00	 9.080000000096788e-02
0	 6.250000000000000e+01	 2.000000000000000e+00	 1.072000000049015e-01
0	 6.250000000000000e+01	 2.250000000000000e+00	 1.236000000088351e-01
0	 6.250000000000000e+01	 2.500000000000000e+00	 1.400000000018053e-01
0	 6.312500000000000e+01	 0.000000000000000e+00	-2.400000000339908e-02
0	 6.312499999999998e+01	 2.499999999999999e-01	-7.599999997184709e-03
0	 6.312499999999999e+01	 4.999999999999999e-01	 8.800000000729244e-03
0	 6.312499999999999e+01	 7.500000000000001e-01	 2.519999999539320e-02
0	 6.312499999999999e+01	 1.000000000000000e+00	 4.160000000516719e-02
0	 6.312500000000000e+01	 1.250000000000000e+00	 5.800000000008021e-02
0	 6.312499999999999e+01	 1.500000000000000e+00	 7.439999999639170e-02
0	 6.312500000000000e+01	 1.750000000000000e+00	 9.079999999892505e-02
0	 6.312500000000001e+01	 2.000000000000000e+00	 1.071999999977917e-01
0	 6.312500000000000e+01	 2.250000000000000e+00	 1.235999999992223e-01
0	 6.312500000000001e+01	 2.500000000000000e+00	 1.400000000007174e-01
0	 6.374999999999999e+01	 0.000000000000000e+00	-2.400000000211122e-02
0	 6.375000000000001e+01	 2.500000000000000e-01	-7.599999993264267e-03
0	 6.375000000000000e+01	 5.000000000000000e-01	 8.799999997636180e-03
0	 6.374999999999999e+01	 7.500000000000001e-01	 2.520000000265151e-02
0	 6.375000000000000e+01	 1.000000000000000e+00	 4.160000000400471e-02
0	 6.374999999999999e+01	 1.250000000000000e+00	 5.800000000193429e-02
0	 6.374999999999999e+01	 1.500000000000000e+00	 7.440000000146998e-02
0	 6.375000000000000e+01	 1.750000000000000e+00	 9.079999999954967e-02
0	 6.375000000000000e+01	 2.000000000000000e+00	 1.072000000065593e-01
0	 6.375000000000000e+01	 2.250000000000000e+00	 1.236000000062760e-01
0	 6.374999999999999e+01	 2.500000000000000e+00	 1.400000000002955e-01
0	 6.437499999999999e+01	 0.000000000000000e+00	-2.399999999838087e-02
0	 6.437499999999999e+01	 2.500000000000000e-01	-7.599999997571887e-03
0	 6.437499999999999e+01	 5.000000000000000e-01	 8.800000009195235e-03
0	 6.437500000000000e+01	 7.500000000000002e-01	 2.519999999105710e-02
0	 6.437500000000001e+01	 1.000000000000000e+00	 4.159999999891379e-02
0	 6.437499999999999e+01	 1.250000000000000e+00	 5.800000000260042e-02
0	 6.437499999999999e+01	 1.500000000000000e+00	 7.440000000187712e-02
0	 6.437499999999999e+01	 1.750000000000000e+00	 9.079999999936916e-02
0	 6.437499999999999e+01	 2.000000000000000e+00	 1.072000000009510e-01
0	 6.437500000000001e+01	 2.250000000000000e+00	 1.235999999945896e-01
0	 6.437499999999999e+01	 2.500000000000000e+00	 1.400000000007395e-01
0	 6.500000000000000e+01	 0.000000000000000e+00	-2.399999999695979e-02
0	 6.499999999999999e+01	 2.500000000000000e-01	-7.599999999425592e-03
0	 6.499999999999999e+01	 4.999999999999999e-01	 8.800000013132879e-03
0	 6.499999999999997e+01	 7.500000000000000e-01	 2.519999999578707e-02
0	 6.499999999999997e+01	 1.000000000000000e+00	 4.160000000192311e-02
0	 6.500000000000001e+01	 1.250000000000000e+00	 5.800000000082405e-02
0	 6.499999999999999e+01	 1.500000000000000e+00	 7.440000000643114e-02
0	 6.500000000000000e+01	 1.750000000000000e+00	 9.079999999954677e-02
0	 6.499999999999999e+01	 2.000000000000000e+00	 1.072000000007456e-01
0	 6.499999999999999e+01	 2.250000000000000e+00	 1.235999999987747e-01
0	 6.500000000000000e+01	 2.500000000000000e+00	 1.400000000014500e-01
0	 6.562499999999999e+01	 0.000000000000000e+00	-2.400000000477576e-02
0	 6.562499999999999e+01	 2.499999999999999e-01	-7.600000010967510e-03
0	 6.562500000000000e+01	 5.000000000000001e-01	 8.800000010059372e-03
0	 6.562499999999999e+01	 7.500000000000000e-01	 2.519999999276494e-02
0	 6.562499999999999e+01	 9.999999999999998e-01	 4.159999999904190e-02
0	 6.562499999999999e+01	 1.250000000000000e+00	 5.799999999780425e-02
0	 6.562499999999999e+01	 1.500000000000000e+00	 7.440000000328791e-02
0	 6.562499999999999e+01	 1.750000000000000e+00	 9.080000000333334e-02
0	 6.562499999999999e+01	 2.000000000000000e+00	 1.072000000012805e-01
0	 6.562500000000001e+01	 2.250000000000000e+00	 1.236000000027104e-01
0	 6.562499999999999e+01	 2.500000000000000e+00	 1.400000000003843e-01
0	 6.624999999999999e+01	 0.000000000000000e+00	-2.399999999909142e-02
0	 6.624999999999999e+01	 2.500000000000000e-01	-7.599999995256890e-03
0	 6.624999999999997e+01	 5.000000000000000e-01	 8.800000012025140e-03
0	 6.624999999999999e+01	 7.500000000000002e-01	 2.520000000398824e-02
0	 6.625000000000000e+01	 1.000000000000000e+00	 4.159999999133659e-02
0	 6.625000000000000e+01	 1.250000000000000e+00	 5.800000000064642e-02
0	 6.624999999999999e+01	 1.500000000000000e+00	 7.440000000046261e-02
0	 6.625000000000001e+01	 1.750000000000000e+00	 9.080000000290216e-02
0	 6.624999999999999e+01	 1.999999999999999e+00	 1.072000000029050e-01
0	 6.624999999999999e+01	 2.250000000000000e+00	 1.235999999958024e-01
0	 6.624999999999999e+01	 2.500000000000000e+00	 1.400000000003843e-01
0	 6.687500000000000e+01	 0.000000000000000e+00	-2.399999999624925e-02
0	 6.687500000000000e+01	 2.500000000000000e-01	-7.600000000814674e-03
0	 6.687499999999999e+01	 5.000000000000001e-01	 8.800000011575590e-03
0	 6.687499999999999e+01	 7.500000000000000e-01	 2.519999999494844e-02
0	 6.687499999999997e+01	 1.000000000000000e+00	 4.160000000029015e-02
0	 6.687500000000000e+01	 1.250000000000000e+00	 5.799999999922535e-02
0	 6.687500000000000e+01	 1.500000000000000e+00	 7.440000000315748e-02
0	 6.687499999999999e+01	 1.750000000000000e+00	 9.080000000238897e-02
0	 6.687500000000000e+01	 2.000000000000000e+00	 1.072000000007733e-01
0	 6.687499999999999e+01	 2.250000000000000e+00	 1.235999999976903e-01
0	 6.687499999999999e+01	 2.500000000000000e+00	 1.400000000003843e-01
0	 6.749999999999999e+01	 0.000000000000000e+00	-2.399999999909141e-02
0	 6.749999999999999e+01	 2.499999999999999e-01	-7.599999994563560e-03
0	 6.750000000000000e+01	 5.000000000000001e-01	 8.799999993287911e-03
0	 6.750000000000000e+01	 7.500000000000002e-01	 2.520000000117557e-02
0	 6.749999999999997e+01	 1.000000000000000e+00	 4.160000000448287e-02
0	 6.749999999999997e+01	 1.250000000000000e+00	 5.799999999780425e-02
0	 6.750000000000000e+01	 1.500000000000000e+00	 7.440000000001125e-02
0	 6.749999999999999e+01	 1.750000000000000e+00	 9.079999999989827e-02
0	 6.749999999999999e+01	 2.000000000000000e+00	 1.071999999992657e-01
0	 6.749999999999999e+01	 2.250000000000000e+00	 1.236000000019133e-01
0	 6.749999999999999e+01	 2.500000000000000e+00	 1.399999999975421e-01
0	 6.812499999999997e+01	 0.000000000000000e+00	-2.399999999624924e-02
0	 6.812499999999999e+01	 2.500000000000000e-01	-7.600000013221693e-03
0	 6.812499999999997e+01	 5.000000000000000e-01	 8.799999995063449e-03
0	 6.812499999999999e+01	 7.500000000000001e-01	 2.519999999949369e-02
0	 6.812499999999997e+01	 9.999999999999998e-01	 4.159999999665819e-02
0	 6.812499999999997e+01	 1.250000000000000e+00	 5.800000000135697e-02
0	 6.812499999999999e+01	 1.500000000000000e+00	 7.439999999689917e-02
0	 6.812499999999997e+01	 1.750000000000000e+00	 9.079999999954680e-02
0	 6.812499999999996e+01	 2.000000000000000e+00	 1.071999999955206e-01
0	 6.812499999999999e+01	 2.250000000000000e+00	 1.236000000026383e-01
0	 6.812499999999999e+01	 2.500000000000000e+00	 1.399999999989632e-01
0	 6.875000000000000e+01	 0.000000000000000e+00	-2.400000000193359e-02
0	 6.875000000000000e+01	 2.500000000000000e-01	-7.600000007138370e-03
0	 6.875000000000000e+01	 5.000000000000000e-01	 8.799999989946478e-03
0	 6.875000000000000e+01	 7.500000000000001e-01	 2.520000000645939e-02
0	 6.875000000000000e+01	 1.000000000000000e+00	 4.160000000005601e-02
0	 6.875000000000000e+01	 1.250000000000000e+00	 5.799999999851480e-02
0	 6.875000000000000e+01	 1.500000000000000e+00	 7.439999999697360e-02
0	 6.875000000000000e+01	 1.750000000000000e+00	 9.080000000096788e-02
0	 6.875000000000000e+01	 2.000000000000000e+00	 1.072000000049622e-01
0	 6.875000000000000e+01	 2.250000000000000e+00	 1.235999999977366e-01
0	 6.875000000000000e+01	 2.500000000000000e+00	 1.399999999989632e-01
0	 6.250000000000000e+01	 2.500000000000000e+00	 1.400000000018053e-01
0	 6.250000000000000e+01	 2.750000000000000e+00	 1.759999999980738e-01
0	 6.250000000000000e+01	 3.000000000000001e+00	 2.119999999984704e-01
0	 6.250000000000001e+01	 3.250000000000001e+00	 2.480000000019124e-01
0	 6.250000000000001e+01	 3.500000000000001e+00	 2.840000000006171e-01
0	 6.250000000000000e+01	 3.750000000000001e+00	 3.199999999992543e-01
0	 6.250000000000000e+01	 4.000000000000001e+00	 3.559999999993124e-01
0	 6.250000000000000e+01	 4.250000000000002e+00	 3.920000000006567e-01
0	 6.250000000000001e+01	 4.500000000000003e+00	 4.279999999967217e-01
0	 6.250000000000000e+01	 4.750000000000002e+00	 4.639999999994870e-01
0	 6.250000000000000e+01	 5.000000000000000e+00	 4.999999999995453e-01
0	 6.312500000000001e+01	 2.500000000000000e+00	 1.400000000007174e-01
0	 6.312499999999999e+01	 2.750000000000000e+00	 1.760000000058659e-01
0	 6.312500000000000e+01	 3.000000000000000e+00	 2.119999999988001e-01
0	 6.312499999999999e+01	 3.250000000000001e+00	 2.479999999974350e-01
0	 6.312500000000001e+01	 3.500000000000001e+00	 2.840000000051236e-01
0	 6.312500000000000e+01	 3.750000000000001e+00	 3.200000000040849e-01
0	 6.312500000000000e+01	 4.000000000000002e+00	 3.560000000007841e-01
0	 6.312499999999999e+01	 4.250000000000002e+00	 3.920000000029527e-01
0	 6.312500000000000e+01	 4.500000000000001e+00	 4.280000000002296e-01
0	 6.312499999999998e+01	 4.750000000000001e+00	 4.640000000007972e-01
0	 6.312500000000001e+01	 5.000000000000000e+00	 4.999999999973248e-01
0	 6.374999999999999e+01	 2.500000000000000e+00	 1.400000000002955e-01
0	 6.375000000000000e+01	 2.750000000000000e+00	 1.760000000018604e-01
0	 6.375000000000001e+01	 3.000000000000001e+00	 2.119999999973597e-01
0	 6.375000000000000e+01	 3.250000000000000e+00	 2.480000000007916e-01
0	 6.375000000000001e+01	 3.500000000000001e+00	 2.840000000023639e-01
0	 6.375000000000001e+01	 3.750000000000001e+00	 3.200000000041949e-01
0	 6.375000000000001e+01	 4.000000000000002e+00	 3.559999999996667e-01
0	 6.375000000000000e+01	 4.250000000000001e+00	 3.920000000014134e-01
0	 6.375000000000001e+01	 4.500000000000001e+00	 4.280000000017382e-01
0	 6.375000000000000e+01	 4.750000000000003e+00	 4.640000000009344e-01
0	 6.374999999999999e+01	 5.000000000000000e+00	 4.999999999991899e-01
0	 6.437499999999999e+01	 2.500000000000000e+00	 1.400000000007395e-01
0	 6.437499999999999e+01	 2.750000000000000e+00	 1.760000000001998e-01
0	 6.437500000000000e+01	 3.000000000000000e+00	 2.120000000020589e-01
0	 6.437499999999999e+01	 3.250000000000001e+00	 2.480000000003391e-01
0	 6.437500000000000e+01	 3.500000000000001e+00	 2.839999999998279e-01
0	 6.437499999999999e+01	 3.750000000000001e+00	 3.199999999980210e-01
0	 6.437499999999999e+01	 4.000000000000001e+00	 3.559999999992046e-01
0	 6.437500000000001e+01	 4.250000000000001e+00	 3.919999999977720e-01
0	 6.437500000000000e+01	 4.500000000000002e+00	 4.279999999948664e-01
0	 6.437499999999999e+01	 4.750000000000002e+00	 4.640000000000639e-01
0	 6.437499999999999e+01	 5.000000000000001e+00	 4.999999999991899e-01
0	 6.500000000000000e+01	 2.500000000000000e+00	 1.400000000014500e-01
0	 6.500000000000000e+01	 2.750000000000000e+00	 1.760000000048120e-01
0	 6.499999999999999e+01	 3.000000000000000e+00	 2.119999999959808e-01
0	 6.499999999999999e+01	 3.250000000000000e+00	 2.480000000006668e-01
0	 6.500000000000000e+01	 3.500000000000001e+00	 2.839999999990763e-01
0	 6.499999999999999e+01	 3.750000000000000e+00	 3.199999999996234e-01
0	 6.500000000000000e+01	 4.000000000000002e+00	 3.560000000003674e-01
0	 6.499999999999999e+01	 4.250000000000002e+00	 3.920000000066155e-01
0	 6.499999999999999e+01	 4.500000000000002e+00	 4.280000000001394e-01
0	 6.499999999999999e+01	 4.750000000000002e+00	 4.639999999977106e-01
0	 6.500000000000000e+01	 5.000000000000000e+00	 5.000000000009663e-01
0	 6.562499999999999e+01	 2.500000000000000e+00	 1.400000000003843e-01
0	 6.562499999999997e+01	 2.750000000000000e+00	 1.759999999959737e-01
0	 6.562500000000000e+01	 3.000000000000000e+00	 2.120000000005216e-01
0	 6.562500000000000e+01	 3.250000000000001e+00	 2.480000000009226e-01
0	 6.562499999999999e+01	 3.500000000000001e+00	 2.840000000008387e-01
0	 6.562500000000000e+01	 3.750000000000001e+00	 3.199999999992542e-01
0	 6.562499999999999e+01	 4.000000000000002e+00	 3.560000000031419e-01
0	 6.562500000000000e+01	 4.250000000000002e+00	 3.919999999969979e-01
0	 6.562500000000000e+01	 4.500000000000002e+00	 4.279999999972972e-01
0	 6.562500000000000e+01	 4.750000000000003e+00	 4.639999999984832e-01
0	 6.562499999999999e+01	 5.000000000000000e+00	 4.999999999981242e-01
0	 6.624999999999999e+01	 2.500000000000000e+00	 1.400000000003843e-01
0	 6.624999999999997e+01	 2.750000000000000e+00	 1.759999999976018e-01
0	 6.624999999999999e+01	 3.000000000000001e+00	 2.120000000005372e-01
0	 6.624999999999997e+01	 3.250000000000000e+00	 2.480000000013365e-01
0	 6.624999999999999e+01	 3.500000000000000e+00	 2.839999999950529e-01
0	 6.624999999999999e+01	 3.750000000000001e+00	 3.199999999999895e-01
0	 6.624999999999999e+01	 4.000000000000001e+00	 3.559999999957738e-01
0	 6.624999999999999e+01	 4.250000000000002e+00	 3.919999999931731e-01
0	 6.624999999999999e+01	 4.500000000000002e+00	 4.280000000001394e-01
0	 6.624999999999997e+01	 4.750000000000002e+00	 4.640000000017945e-01
0	 6.624999999999999e+01	 5.000000000000000e+00	 4.999999999952820e-01
0	 6.687499999999999e+01	 2.500000000000000e+00	 1.400000000003843e-01
0	 6.687499999999997e+01	 2.750000000000000e+00	 1.759999999967240e-01
0	 6.687500000000000e+01	 3.000000000000001e+00	 2.119999999977690e-01
0	 6.687500000000000e+01	 3.250000000000000e+00	 2.479999999946119e-01
0	 6.687500000000000e+01	 3.500000000000001e+00	 2.840000000005476e-01
0	 6.687500000000000e+01	 3.750000000000002e+00	 3.200000000023626e-01
0	 6.687499999999999e+01	 4.000000000000002e+00	 3.560000000016569e-01
0	 6.687500000000000e+01	 4.250000000000003e+00	 3.920000000007917e-01
0	 6.687499999999997e+01	 4.500000000000002e+00	 4.279999999960984e-01
0	 6.687500000000000e+01	 4.750000000000002e+00	 4.639999999994407e-01
0	 6.687499999999999e+01	 5.000000000000000e+00	 4.999999999995452e-01
0	 6.749999999999999e+01	 2.500000000000000e+00	 1.399999999975421e-01
0	 6.749999999999999e+01	 2.750000000000000e+00	 1.760000000004794e-01
0	 6.749999999999996e+01	 3.000000000000000e+00	 2.120000000004345e-01
0	 6.749999999999997e+01	 3.250000000000000e+00	 2.479999999982464e-01
0	 6.749999999999999e+01	 3.500000000000001e+00	 2.840000000000391e-01
0	 6.749999999999999e+01	 3.750000000000001e+00	 3.199999999982279e-01
0	 6.749999999999999e+01	 4.000000000000003e+00	 3.559999999992691e-01
0	 6.749999999999997e+01	 4.250000000000001e+00	 3.919999999969664e-01
0	 6.749999999999997e+01	 4.500000000000002e+00	 4.279999999965868e-01
0	 6.749999999999999e+01	 4.750000000000002e+00	 4.640000000009081e-01
0	 6.749999999999999e+01	 5.000000000000000e+00	 4.999999999995453e-01
0	 6.812499999999999e+01	 2.500000000000000e+00	 1.399999999989632e-01
0	 6.812499999999997e+01	 2.750000000000001e+00	 1.759999999985525e-01
0	 6.812499999999999e+01	 3.000000000000000e+00	 2.119999999999771e-01
0	 6.812499999999997e+01	 3.250000000000000e+00	 2.479999999975814e-01
0	 6.812499999999997e+01	 3.500000000000001e+00	 2.839999999975994e-01
0	 6.812499999999999e+01	 3.750000000000001e+00	 3.199999999997087e-01
0	 6.812499999999999e+01	 4.000000000000002e+00	 3.559999999993124e-01
0	 6.812499999999999e+01	 4.250000000000001e+00	 3.920000000022129e-01
0	 6.812499999999997e+01	 4.500000000000002e+00	 4.279999999997798e-01
0	 6.812499999999997e+01	 4.750000000000002e+00	 4.640000000012591e-01
0	 6.812499999999999e+01	 5.000000000000000e+00	 4.999999999995452e-01
0	 6.875000000000000e+01	 2.500000000000000e+00	 1.399999999989632e-01
0	 6.875000000000000e+01	 2.750000000000000e+00	 1.759999999985824e-01
0	 6.875000000000000e+01	 3.000000000000001e+00	 2.119999999941616e-01
0	 6.875000000000001e+01	 3.250000000000001e+00	 2.480000000019056e-01
0	 6.875000000000000e+01	 3.500000000000001e+00	 2.839999999978121e-01
0	 6.875000000000001e+01	 3.750000000000001e+00	 3.200000000020220e-01
0	 6.875000000000000e+01	 4.000000000000001e+00	 3.559999999993124e-01
0	 6.875000000000000e+01	 4.250000000000002e+00	 3.919999999993707e-01
0	 6.875000000000001e+01	 4.500000000000003e+00	 4.279999999966611e-01
0	 6.875000000000000e+01	 4.750000000000002e+00	 4.639999999994870e-01
0	 6.875000000000000e+01	 5.000000000000000e+00	 4.999999999995453e-01
0	 6.250000000000000e+01	 5.000000000000000e+00	 4.999999999995453e-01
0	 6.250000000000000e+01	 5.250000000000000e+00	 5.359999999965241e-01
0	 6.250000000000000e+01	 5.500000000000001e+00	 5.719999999990525e-01
0	 6.250000000000001e+01	 5.750000000000002e+00	 6.080000000017841e-01
0	 6.250000000000001e+01	 6.000000000000001e+00	 6.439999999997781e-01
0	 6.250000000000000e+01	 6.250000000000001e+00	 6.799999999984153e-01
0	 6.250000000000000e+01	 6.500000000000001e+00	 7.160000000013156e-01
0	 6.250000000000000e+01	 6.750000000000002e+00	 7.519999999998177e-01
0	 6.250000000000001e+01	 7.000000000000003e+00	 7.879999999973039e-01
0	 6.250000000000000e+01	 7.250000000000002e+00	 8.240000000000691e-01
0	 6.250000000000000e+01	 7.500000000000000e+00	 8.600000000001273e-01
0	 6.312500000000001e+01	 5.000000000000000e+00	 4.999999999973248e-01
0	 6.312499999999999e+01	 5.250000000000000e+00	 5.360000000020876e-01
0	 6.312500000000000e+01	 5.500000000000001e+00	 5.719999999989437e-01
0	 6.312499999999999e+01	 5.750000000000000e+00	 6.080000000018585e-01
0	 6.312500000000001e+01	 6.000000000000002e+00	 6.440000000031300e-01
0	 6.312500000000000e+01	 6.250000000000002e+00	 6.800000000049446e-01
0	 6.312500000000000e+01	 6.500000000000002e+00	 7.160000000016548e-01
0	 6.312499999999999e+01	 6.750000000000002e+00	 7.520000000024243e-01
0	 6.312500000000000e+01	 7.000000000000001e+00	 7.879999999996570e-01
0	 6.312499999999998e+01	 7.250000000000001e+00	 8.240000000002469e-01
0	 6.312500000000001e+01	 7.500000000000000e+00	 8.599999999996166e-01
0	 6.374999999999999e+01	 5.000000000000000e+00	 4.999999999991899e-01
0	 6.375000000000000e+01	 5.250000000000001e+00	 5.359999999995670e-01
0	 6.375000000000001e+01	 5.500000000000002e+00	 5.719999999968982e-01
0	 6.375000000000000e+01	 5.750000000000000e+00	 6.079999999996862e-01
0	 6.375000000000001e+01	 6.000000000000001e+00	 6.440000000011695e-01
0	 6.375000000000001e+01	 6.250000000000002e+00	 6.800000000030449e-01
0	 6.375000000000001e+01	 6.500000000000002e+00	 7.159999999985612e-01
0	 6.375000000000000e+01	 6.750000000000001e+00	 7.519999999975547e-01
0	 6.375000000000001e+01	 7.000000000000003e+00	 7.880000000005438e-01
0	 6.375000000000000e+01	 7.250000000000004e+00	 8.240000000055133e-01
0	 6.374999999999999e+01	 7.499999999999999e+00	 8.600000000009266e-01
0	 6.437499999999999e+01	 5.000000000000001e+00	 4.999999999991899e-01
0	 6.437499999999999e+01	 5.250000000000001e+00	 5.360000000006712e-01
0	 6.437500000000000e+01	 5.500000000000000e+00	 5.720000000009979e-01
0	 6.437499999999999e+01	 5.750000000000001e+00	 6.079999999994116e-01
0	 6.437500000000000e+01	 6.000000000000000e+00	 6.439999999987225e-01
0	 6.437499999999999e+01	 6.250000000000000e+00	 6.799999999984255e-01
0	 6.437499999999999e+01	 6.500000000000001e+00	 7.159999999981878e-01
0	 6.437500000000001e+01	 6.750000000000002e+00	 7.519999999995977e-01
0	 6.437500000000000e+01	 7.000000000000002e+00	 7.879999999965143e-01
0	 6.437499999999999e+01	 7.250000000000001e+00	 8.239999999986919e-01
0	 6.437499999999999e+01	 7.499999999999999e+00	 8.600000000015486e-01
0	 6.500000000000000e+01	 5.000000000000000e+00	 5.000000000009663e-01
0	 6.500000000000000e+01	 5.250000000000001e+00	 5.360000000017082e-01
0	 6.499999999999999e+01	 5.500000000000000e+00	 5.719999999938096e-01
0	 6.499999999999999e+01	 5.750000000000000e+00	 6.079999999987619e-01
0	 6.500000000000000e+01	 6.000000000000001e+00	 6.439999999982373e-01
0	 6.499999999999999e+01	 6.250000000000000e+00	 6.800000000003830e-01
0	 6.500000000000000e+01	 6.500000000000003e+00	 7.159999999998835e-01
0	 6.499999999999999e+01	 6.750000000000002e+00	 7.520000000036448e-01
0	 6.499999999999999e+01	 7.000000000000003e+00	 7.879999999993006e-01
0	 6.499999999999999e+01	 7.250000000000002e+00	 8.240000000029112e-01
0	 6.500000000000000e+01	 7.500000000000000e+00	 8.600000000004827e-01
0	 6.562499999999999e+01	 5.000000000000000e+00	 4.999999999981242e-01
0	 6.562499999999997e+01	 5.250000000000000e+00	 5.359999999953122e-01
0	 6.562500000000000e+01	 5.500000000000001e+00	 5.720000000028802e-01
0	 6.562500000000000e+01	 5.750000000000001e+00	 6.079999999954651e-01
0	 6.562499999999999e+01	 6.000000000000001e+00	 6.439999999999999e-01
0	 6.562500000000000e+01	 6.250000000000001e+00	 6.799999999998362e-01
0	 6.562499999999999e+01	 6.500000000000001e+00	 7.160000000005265e-01
0	 6.562500000000000e+01	 6.750000000000002e+00	 7.520000000011328e-01
0	 6.562500000000000e+01	 7.000000000000000e+00	 7.880000000014321e-01
0	 6.562500000000000e+01	 7.250000000000002e+00	 8.240000000026180e-01
0	 6.562499999999999e+01	 7.500000000000001e+00	 8.600000000015485e-01
0	 6.624999999999999e+01	 5.000000000000000e+00	 4.999999999952820e-01
0	 6.624999999999997e+01	 5.249999999999999e+00	 5.359999999991608e-01
0	 6.624999999999999e+01	 5.500000000000001e+00	 5.720000000023626e-01
0	 6.624999999999997e+01	 5.750000000000000e+00	 6.080000000001423e-01
0	 6.624999999999999e+01	 6.000000000000000e+00	 6.439999999959902e-01
0	 6.624999999999999e+01	 6.250000000000001e+00	 6.800000000012819e-01
0	 6.624999999999999e+01	 6.500000000000001e+00	 7.159999999956452e-01
0	 6.624999999999999e+01	 6.750000000000000e+00	 7.519999999958870e-01
0	 6.624999999999999e+01	 7.000000000000002e+00	 7.880000000021423e-01
0	 6.624999999999997e+01	 7.250000000000001e+00	 8.240000000030872e-01
0	 6.624999999999999e+01	 7.500000000000000e+00	 8.600000000029695e-01
0	 6.687499999999999e+01	 5.000000000000000e+00	 4.999999999995452e-01
0	 6.687499999999997e+01	 5.249999999999999e+00	 5.359999999990823e-01
0	 6.687500000000000e+01	 5.500000000000000e+00	 5.720000000026144e-01
0	 6.687500000000000e+01	 5.750000000000001e+00	 6.079999999948388e-01
0	 6.687500000000000e+01	 6.000000000000003e+00	 6.440000000011296e-01
0	 6.687500000000000e+01	 6.250000000000002e+00	 6.800000000008131e-01
0	 6.687499999999999e+01	 6.500000000000001e+00	 7.160000000029496e-01
0	 6.687500000000000e+01	 6.750000000000002e+00	 7.519999999985318e-01
0	 6.687499999999997e+01	 7.000000000000002e+00	 7.879999999981016e-01
0	 6.687500000000000e+01	 7.250000000000002e+00	 8.240000000028650e-01
0	 6.687499999999999e+01	 7.500000000000000e+00	 8.599999999972855e-01
0	 6.749999999999999e+01	 5.000000000000000e+00	 4.999999999995453e-01
0	 6.749999999999999e+01	 5.250000000000001e+00	 5.359999999991075e-01
0	 6.749999999999996e+01	 5.500000000000000e+00	 5.719999999999505e-01
0	 6.749999999999997e+01	 5.750000000000001e+00	 6.079999999974073e-01
0	 6.749999999999999e+01	 6.000000000000001e+00	 6.439999999992000e-01
0	 6.749999999999999e+01	 6.250000000000001e+00	 6.799999999980993e-01
0	 6.749999999999999e+01	 6.500000000000004e+00	 7.160000000012723e-01
0	 6.749999999999997e+01	 6.750000000000001e+00	 7.519999999975485e-01
0	 6.749999999999997e+01	 7.000000000000002e+00	 7.880000000000109e-01
0	 6.749999999999999e+01	 7.250000000000003e+00	 8.240000000000688e-01
0	 6.749999999999999e+01	 7.500000000000000e+00	 8.600000000015484e-01
0	 6.812499999999999e+01	 5.000000000000000e+00	 4.999999999995452e-01
0	 6.812499999999997e+01	 5.250000000000002e+00	 5.359999999978911e-01
0	 6.812499999999999e+01	 5.500000000000001e+00	 5.720000000023354e-01
0	 6.812499999999997e+01	 5.750000000000001e+00	 6.079999999967425e-01
0	 6.812499999999997e+01	 6.000000000000002e+00	 6.439999999996024e-01
0	 6.812499999999999e+01	 6.250000000000001e+00	 6.800000000017119e-01
0	 6.812499999999999e+01	 6.500000000000001e+00	 7.159999999998947e-01
0	 6.812499999999999e+01	 6.750000000000001e+00	 7.520000000013739e-01
0	 6.812499999999997e+01	 7.000000000000001e+00	 7.880000000003621e-01
0	 6.812499999999997e+01	 7.250000000000002e+00	 8.239999999989991e-01
0	 6.812499999999999e+01	 7.500000000000000e+00	 8.600000000001276e-01
0	 6.875000000000000e+01	 5.000000000000000e+00	 4.999999999995453e-01
0	 6.875000000000000e+01	 5.250000000000000e+00	 5.360000000027171e-01
0	 6.875000000000000e+01	 5.500000000000001e+00	 5.720000000004281e-01
0	 6.875000000000001e+01	 5.750000000000002e+00	 6.080000000024879e-01
0	 6.875000000000000e+01	 6.000000000000001e+00	 6.439999999983941e-01
0	 6.875000000000001e+01	 6.250000000000001e+00	 6.800000000026041e-01
0	 6.875000000000000e+01	 6.500000000000001e+00	 7.160000000013155e-01
0	 6.875000000000000e+01	 6.750000000000002e+00	 7.519999999999529e-01
0	 6.875000000000001e+01	 7.000000000000003e+00	 7.879999999972431e-01
0	 6.875000000000000e+01	 7.250000000000002e+00	 8.240000000000691e-01
0	 6.875000000000000e+01	 7.500000000000000e+00	 8.600000000001273e-01
0	 6.250000000000000e+01	 7.500000000000000e+00	 8.600000000001273e-01
0	 6.250000000000001e+01	 7.750000000000001e+00	 8.763999999959060e-01
0	 6.250000000000000e+01	 8.000000000000002e+00	 8.927999999955425e-01
0	 6.249999999999999e+01	 8.250000000000002e+00	 9.092000000008296e-01
0	 6.249999999999999e+01	 8.500000000000000e+00	 9.255999999965071e-01
0	 6.250000000000000e+01	 8.750000000000000e+00	 9.419999999977337e-01
0	 6.250000000000000e+01	 9.000000000000004e+00	 9.583999999989601e-01
0	 6.250000000000001e+01	 9.250000000000005e+00	 9.748000000027587e-01
0	 6.250000000000000e+01	 9.500000000000000e+00	 9.911999999928868e-01
0	 6.250000000000000e+01	 9.750000000000002e+00	 1.007599999996956e+00
0	 6.250000000000000e+01	 1.000000000000000e+01	 1.023999999995340e+00
0	 6.312500000000001e+01	 7.500000000000000e+00	 8.599999999996166e-01
0	 6.312500000000001e+01	 7.750000000000000e+00	 8.764000000003569e-01
0	 6.312500000000001e+01	 8.000000000000002e+00	 8.928000000010891e-01
0	 6.312500000000001e+01	 8.250000000000000e+00	 9.091999999995202e-01
0	 6.312499999999999e+01	 8.499999999999998e+00	 9.256000000026734e-01
0	 6.312500000000000e+01	 8.750000000000000e+00	 9.419999999988217e-01
0	 6.312500000000001e+01	 9.000000000000002e+00	 9.583999999947540e-01
0	 6.312499999999999e+01	 9.250000000000000e+00	 9.748000000009300e-01
0	 6.312499999999999e+01	 9.500000000000002e+00	 9.912000000095870e-01
0	 6.312500000000001e+01	 9.750000000000004e+00	 1.007599999985699e+00
0	 6.312500000000000e+01	 1.000000000000000e+01	 1.023999999998093e+00
0	 6.374999999999999e+01	 7.499999999999999e+00	 8.600000000009266e-01
0	 6.374999999999998e+01	 7.749999999999998e+00	 8.763999999997701e-01
0	 6.374999999999999e+01	 8.000000000000002e+00	 8.927999999991174e-01
0	 6.375000000000000e+01	 8.250000000000004e+00	 9.092000000009003e-01
0	 6.374999999999999e+01	 8.500000000000000e+00	 9.255999999966257e-01
0	 6.375000000000000e+01	 8.750000000000002e+00	 9.420000000018400e-01
0	 6.375000000000001e+01	 9.000000000000002e+00	 9.583999999984841e-01
0	 6.375000000000001e+01	 9.250000000000004e+00	 9.747999999977798e-01
0	 6.375000000000001e+01	 9.500000000000002e+00	 9.911999999953741e-01
0	 6.374999999999999e+01	 9.750000000000002e+00	 1.007600000010492e+00
0	 6.374999999999999e+01	 1.000000000000000e+01	 1.023999999994985e+00
0	 6.437499999999999e+01	 7.499999999999999e+00	 8.600000000015486e-01
0	 6.437500000000001e+01	 7.750000000000001e+00	 8.764000000018741e-01
0	 6.437499999999999e+01	 8.000000000000000e+00	 8.927999999993549e-01
0	 6.437499999999999e+01	 8.250000000000002e+00	 9.091999999966411e-01
0	 6.437499999999999e+01	 8.500000000000000e+00	 9.255999999942037e-01
0	 6.437499999999999e+01	 8.750000000000000e+00	 9.419999999965606e-01
0	 6.437500000000001e+01	 9.000000000000002e+00	 9.583999999937705e-01
0	 6.437499999999999e+01	 9.250000000000000e+00	 9.747999999962794e-01
0	 6.437500000000000e+01	 9.500000000000004e+00	 9.911999999947512e-01
0	 6.437500000000000e+01	 9.750000000000004e+00	 1.007599999992781e+00
0	 6.437499999999999e+01	 1.000000000000000e+01	 1.023999999996761e+00
0	 6.500000000000000e+01	 7.500000000000000e+00	 8.600000000004827e-01
0	 6.500000000000000e+01	 7.750000000000000e+00	 8.764000000042506e-01
0	 6.499999999999999e+01	 7.999999999999998e+00	 8.927999999945337e-01
0	 6.499999999999999e+01	 8.250000000000000e+00	 9.091999999969234e-01
0	 6.499999999999999e+01	 8.500000000000000e+00	 9.255999999969781e-01
0	 6.499999999999999e+01	 8.750000000000002e+00	 9.419999999980891e-01
0	 6.499999999999999e+01	 9.000000000000002e+00	 9.584000000046403e-01
0	 6.500000000000000e+01	 9.250000000000000e+00	 9.747999999990601e-01
0	 6.499999999999999e+01	 9.500000000000004e+00	 9.911999999985591e-01
0	 6.500000000000000e+01	 9.750000000000002e+00	 1.007600000001873e+00
0	 6.500000000000000e+01	 1.000000000000000e+01	 1.023999999999603e+00
0	 6.562499999999999e+01	 7.500000000000001e+00	 8.600000000015485e-01
0	 6.562499999999999e+01	 7.750000000000001e+00	 8.763999999989930e-01
0	 6.562500000000000e+01	 8.000000000000000e+00	 8.927999999997382e-01
0	 6.562500000000000e+01	 8.249999999999998e+00	 9.091999999980347e-01
0	 6.562499999999999e+01	 8.500000000000002e+00	 9.255999999986386e-01
0	 6.562499999999999e+01	 8.750000000000002e+00	 9.419999999970228e-01
0	 6.562500000000000e+01	 9.000000000000002e+00	 9.584000000080405e-01
0	 6.562499999999999e+01	 9.250000000000002e+00	 9.747999999997046e-01
0	 6.562500000000000e+01	 9.500000000000002e+00	 9.911999999986235e-01
0	 6.562500000000000e+01	 9.750000000000002e+00	 1.007599999996380e+00
0	 6.562499999999999e+01	 1.000000000000000e+01	 1.024000000001024e+00
0	 6.624999999999999e+01	 7.500000000000000e+00	 8.600000000029695e-01
0	 6.624999999999996e+01	 7.749999999999997e+00	 8.764000000018304e-01
0	 6.624999999999999e+01	 8.000000000000002e+00	 8.928000000028371e-01
0	 6.624999999999997e+01	 8.249999999999998e+00	 9.091999999946686e-01
0	 6.624999999999999e+01	 8.500000000000002e+00	 9.255999999957965e-01
0	 6.624999999999999e+01	 8.750000000000002e+00	 9.419999999977829e-01
0	 6.624999999999999e+01	 9.000000000000002e+00	 9.583999999916850e-01
0	 6.625000000000000e+01	 9.250000000000002e+00	 9.747999999945159e-01
0	 6.624999999999999e+01	 9.500000000000002e+00	 9.912000000056334e-01
0	 6.624999999999999e+01	 9.750000000000000e+00	 1.007599999990214e+00
0	 6.624999999999999e+01	 9.999999999999998e+00	 1.023999999989656e+00
0	 6.687499999999999e+01	 7.500000000000000e+00	 8.599999999972855e-01
0	 6.687499999999999e+01	 7.750000000000001e+00	 8.764000000019528e-01
0	 6.687499999999999e+01	 8.000000000000000e+00	 8.927999999976980e-01
0	 6.687499999999999e+01	 8.250000000000002e+00	 9.091999999974121e-01
0	 6.687500000000000e+01	 8.500000000000004e+00	 9.255999999979282e-01
0	 6.687499999999999e+01	 8.750000000000002e+00	 9.419999999998719e-01
0	 6.687499999999997e+01	 8.999999999999998e+00	 9.583999999954004e-01
0	 6.687499999999999e+01	 9.250000000000002e+00	 9.747999999973442e-01
0	 6.687499999999999e+01	 9.500000000000002e+00	 9.911999999975944e-01
0	 6.687499999999999e+01	 9.750000000000004e+00	 1.007599999999797e+00
0	 6.687500000000000e+01	 1.000000000000000e+01	 1.023999999998182e+00
0	 6.749999999999999e+01	 7.500000000000000e+00	 8.600000000015484e-01
0	 6.749999999999999e+01	 7.750000000000000e+00	 8.764000000058230e-01
0	 6.749999999999999e+01	 8.000000000000002e+00	 8.927999999969394e-01
0	 6.750000000000000e+01	 8.250000000000002e+00	 9.091999999990088e-01
0	 6.749999999999997e+01	 8.500000000000000e+00	 9.255999999955240e-01
0	 6.749999999999999e+01	 8.750000000000002e+00	 9.419999999998574e-01
0	 6.749999999999999e+01	 9.000000000000002e+00	 9.584000000034018e-01
0	 6.749999999999997e+01	 9.250000000000002e+00	 9.748000000013425e-01
0	 6.749999999999997e+01	 9.500000000000000e+00	 9.911999999928870e-01
0	 6.749999999999997e+01	 9.750000000000002e+00	 1.007600000005308e+00
0	 6.749999999999999e+01	 1.000000000000000e+01	 1.024000000001024e+00
0	 6.812499999999999e+01	 7.500000000000000e+00	 8.600000000001276e-01
0	 6.812499999999999e+01	 7.750000000000000e+00	 8.764000000004122e-01
0	 6.812499999999997e+01	 8.000000000000000e+00	 8.928000000016543e-01
0	 6.812500000000000e+01	 8.250000000000002e+00	 9.091999999986980e-01
0	 6.812499999999999e+01	 8.500000000000000e+00	 9.256000000007706e-01
0	 6.812499999999999e+01	 8.750000000000000e+00	 9.420000000025549e-01
0	 6.812499999999999e+01	 9.000000000000002e+00	 9.583999999989600e-01
0	 6.812499999999999e+01	 9.250000000000000e+00	 9.748000000085525e-01
0	 6.812499999999997e+01	 9.500000000000002e+00	 9.912000000078000e-01
0	 6.812499999999997e+01	 9.750000000000000e+00	 1.007600000002479e+00
0	 6.812499999999997e+01	 1.000000000000000e+01	 1.023999999995339e+00
0	 6.875000000000000e+01	 7.500000000000000e+00	 8.600000000001273e-01
0	 6.875000000000001e+01	 7.750000000000001e+00	 8.764000000062346e-01
0	 6.875000000000000e+01	 8.000000000000002e+00	 8.927999999997381e-01
0	 6.875000000000000e+01	 8.250000000000002e+00	 9.091999999981226e-01
0	 6.875000000000000e+01	 8.500000000000000e+00	 9.255999999993492e-01
0	 6.875000000000000e+01	 8.750000000000000e+00	 9.420000000005757e-01
0	 6.875000000000000e+01	 9.000000000000004e+00	 9.584000000018021e-01
0	 6.875000000000001e+01	 9.250000000000005e+00	 9.748000000058710e-01
0	 6.875000000000000e+01	 9.500000000000000e+00	 9.911999999985708e-01
0	 6.875000000000000e+01	 9.750000000000002e+00	 1.007599999996956e+00
0	 6.875000000000000e+01	 1.000000000000000e+01	 1.024000000001024e+00
0	 6.875000000000000e+01	 0.000000000000000e+00	-2.400000000193359e-02
0	 6.875000000000000e+01	 2.500000000000000e-01	-7.600000007138370e-03
0	 6.875000000000000e+01	 5.000000000000000e-01	 8.799999989946478e-03
0	 6.875000000000000e+01	 7.500000000000001e-01	 2.520000000645939e-02
0	 6.875000000000000e+01	 1.000000000000000e+00	 4.160000000005601e-02
0	 6.875000000000000e+01	 1.250000000000000e+00	 5.799999999851480e-02
0	 6.875000000000000e+01	 1.500000000000000e+00	 7.439999999697360e-02
0	 6.875000000000000e+01	 1.750000000000000e+00	 9.080000000096788e-02
0	 6.875000000000000e+01	 2.000000000000000e+00	 1.072000000049622e-01
0	 6.875000000000000e+01	 2.250000000000000e+00	 1.235999999977366e-01
0	 6.875000000000000e+01	 2.500000000000000e+00	 1.399999999989632e-01
0	 6.937500000000000e+01	 0.000000000000000e+00	-2.388000000905777e-02
0	 6.937500000000000e+01	 2.499999999999999e-01	-7.482000005388676e-03
0	 6.937499999999999e+01	 4.999999999999999e-01	 8.915999995607360e-03
0	 6.937500000000000e+01	 7.500000000000001e-01	 2.531399998928683e-02
0	 6.937500000000000e+01	 1.000000000000000e+00	 4.171200000245334e-02
0	 6.937500000000001e+01	 1.250000000000000e+00	 5.810999999582566e-02
0	 6.937499999999999e+01	 1.500000000000000e+00	 7.450799999363378e-02
0	 6.937500000000000e+01	 1.750000000000000e+00	 9.090600000171872e-02
0	 6.937500000000001e+01	 2.000000000000000e+00	 1.073039999976100e-01
0	 6.937500000000000e+01	 2.250000000000000e+00	 1.237019999991596e-01
0	 6.937500000000000e+01	 2.500000000000000e+00	 1.401000000035513e-01
0	 6.999999999999999e+01	 0.000000000000000e+00	-2.352000000200860e-02
0	 7.000000000000003e+01	 2.500000000000000e-01	-7.128000003811260e-03
0	 7.000000000000001e+01	 5.000000000000000e-01	 9.263999987523702e-03
0	 7.000000000000001e+01	 7.500000000000001e-01	 2.565599999602754e-02
0	 7.000000000000001e+01	 1.000000000000000e+00	 4.204799999686053e-02
0	 7.000000000000001e+01	 1.250000000000000e+00	 5.843999999770589e-02
0	 7.000000000000000e+01	 1.500000000000000e+00	 7.483199999615001e-02
0	 6.999999999999999e+01	 1.750000000000000e+00	 9.122399999957330e-02
0	 7.000000000000001e+01	 2.000000000000000e+00	 1.076160000036189e-01
0	 7.000000000000001e+01	 2.250000000000000e+00	 1.240080000032954e-01
0	 7.000000000000000e+01	 2.500000000000000e+00	 1.403999999945782e-01
0	 7.062499999999999e+01	 0.000000000000000e+00	-2.292000001489214e-02
0	 7.062500000000000e+01	 2.500000000000000e-01	-6.538000011816139e-03
0	 7.062499999999999e+01	 5.000000000000000e-01	 9.843999993009998e-03
0	 7.062500000000000e+01	 7.500000000000002e-01	 2.622599999416931e-02
0	 7.062500000000001e+01	 1.000000000000000e+00	 4.260800000161692e-02
0	 7.062500000000000e+01	 1.250000000000000e+00	 5.898999999445210e-02
0	 7.062499999999999e+01	 1.500000000000000e+00	 7.537199999678862e-02
0	 7.062500000000000e+01	 1.750000000000000e+00	 9.175400000534793e-02
0	 7.062499999999997e+01	 2.000000000000000e+00	 1.081359999953874e-01
0	 7.062500000000000e+01	 2.250000000000000e+00	 1.245180000001398e-01
0	 7.062499999999999e+01	 2.500000000000000e+00	 1.408999999981120e-01
0	 7.125000000000000e+01	 0.000000000000000e+00	-2.208000000791799e-02
0	 7.124999999999999e+01	 2.500000000000000e-01	-5.712000015414647e-03
0	 7.124999999999999e+01	 4.999999999999999e-01	 1.065599999733950e-02
0	 7.124999999999999e+01	 7.500000000000000e-01	 2.702399999870062e-02
0	 7.124999999999999e+01	 1.000000000000000e+00	 4.339199999307937e-02
0	 7.125000000000000e+01	 1.250000000000000e+00	 5.975999999527913e-02
0	 7.124999999999999e+01	 1.500000000000000e+00	 7.612800000494691e-02
0	 7.125000000000000e+01	 1.750000000000000e+00	 9.249599999705535e-02
0	 7.125000000000000e+01	 2.000000000000000e+00	 1.088639999998975e-01
0	 7.125000000000000e+01	 2.250000000000000e+00	 1.252319999949236e-01
0	 7.124999999999999e+01	 2.500000000000000e+00	 1.415999999927919e-01
0	 7.187499999999999e+01	 0.000000000000000e+00	-2.100000000382352e-02
0	 7.187499999999997e+01	 2.499999999999999e-01	-4.650000019331513e-03
0	 7.187500000000000e+01	 5.000000000000001e-01	 1.170000000405948e-02
0	 7.187500000000000e+01	 7.500000000000000e-01	 2.804999998429588e-02
0	 7.187499999999997e+01	 9.999999999999998e-01	 4.439999999644518e-02
0	 7.187499999999999e+01	 1.250000000000000e+00	 6.074999999690079e-02
0	 7.187499999999997e+01	 1.500000000000000e+00	 7.709999999017821e-02
0	 7.187499999999999e+01	 1.750000000000000e+00	 9.345000000100566e-02
0	 7.187499999999999e+01	 2.000000000000000e+00	 1.097999999984853e-01
0	 7.187500000000001e+01	 2.250000000000000e+00	 1.261499999998250e-01
0	 7.187500000000000e+01	 2.500000000000000e+00	 1.424999999976251e-01
0	 7.249999999999999e+01	 0.000000000000000e+00	-1.968000000260873e-02
0	 7.249999999999999e+01	 2.500000000000000e-01	-3.352000000091101e-03
0	 7.250000000000000e+01	 5.000000000000000e-01	 1.297600000317345e-02
0	 7.249999999999999e+01	 7.500000000000002e-01	 2.930399999395544e-02
0	 7.249999999999999e+01	 1.000000000000000e+00	 4.563199999862607e-02
0	 7.250000000000000e+01	 1.250000000000000e+00	 6.195999999647482e-02
0	 7.249999999999999e+01	 1.500000000000000e+00	 7.828799999957692e-02
0	 7.250000000000000e+01	 1.750000000000000e+00	 9.461599999625039e-02
0	 7.250000000000000e+01	 1.999999999999999e+00	 1.109440000027873e-01
0	 7.249999999999999e+01	 2.250000000000000e+00	 1.272719999988681e-01
0	 7.249999999999997e+01	 2.500000000000000e+00	 1.436000000012427e-01
0	 7.312500000000000e+01	 0.000000000000000e+00	-1.812000000427361e-02
0	 7.312499999999999e+01	 2.500000000000000e-01	-1.817999997596659e-03
0	 7.312499999999999e+01	 5.000000000000001e-01	 1.448399998984230e-02
0	 7.312500000000000e+01	 7.500000000000000e-01	 3.078599999970619e-02
0	 7.312499999999999e+01	 1.000000000000000e+00	 4.708799999260400e-02
0	 7.312500000000000e+01	 1.250000000000000e+00	 6.339000000039620e-02
0	 7.312499999999999e+01	 1.500000000000000e+00	 7.969199999687786e-02
0	 7.312499999999999e+01	 1.750000000000000e+00	 9.599400000015573e-02
0	 7.312499999999999e+01	 2.000000000000000e+00	 1.122959999975137e-01
0	 7.312499999999999e+01	 2.250000000000000e+00	 1.285979999991582e-01
0	 7.312499999999999e+01	 2.500000000000000e+00	 1.448999999993817e-01
0	 7.374999999999997e+01	 0.000000000000000e+00	-1.632000000313383e-02
0	 7.374999999999999e+01	 2.499999999999999e-01	-4.800000751731030e-05
0	 7.375000000000000e+01	 5.000000000000001e-01	 1.622399999109202e-02
0	 7.374999999999999e+01	 7.500000000000002e-01	 3.249599999947424e-02
0	 7.374999999999997e+01	 1.000000000000000e+00	 4.876800000006249e-02
0	 7.374999999999996e+01	 1.250000000000000e+00	 6.503999999694086e-02
0	 7.374999999999999e+01	 1.500000000000000e+00	 8.131199999917781e-02
0	 7.374999999999999e+01	 1.750000000000000e+00	 9.758399999849723e-02
0	 7.374999999999999e+01	 2.000000000000000e+00	 1.138560000042903e-01
0	 7.374999999999999e+01	 2.250000000000000e+00	 1.301280000034526e-01
0	 7.374999999999999e+01	 2.500000000000000e+00	 1.463999999970156e-01
0	 7.437499999999999e+01	 0.000000000000000e+00	-1.427999999918939e-02
0	 7.437499999999999e+01	 2.500000000000000e-01	 1.957999997734665e-03
0	 7.437499999999999e+01	 5.000000000000000e-01	 1.819599999765507e-02
0	 7.437499999999999e+01	 7.500000000000001e-01	 3.443399999907575e-02
0	 7.437499999999996e+01	 9.999999999999998e-01	 5.067200000041794e-02
0	 7.437499999999999e+01	 1.250000000000000e+00	 6.691000000103031e-02
0	 7.437499999999997e+01	 1.500000000000000e+00	 8.314800000022160e-02
0	 7.437499999999999e+01	 1.750000000000000e+00	 9.938600000079542e-02
0	 7.437499999999997e+01	 2.000000000000000e+00	 1.156240000045579e-01
0	 7.437499999999997e+01	 2.250000000000000e+00	 1.318619999999448e-01
0	 7.437499999999999e+01	 2.500000000000000e+00	 1.481000000012500e-01
0	 7.500000000000000e+01	 0.000000000000000e+00	-1.200000000380897e-02
0	 7.500000000000000e+01	 2.500000000000000e-01	 4.199999999628876e-03
0	 7.500000000000000e+01	 5.000000000000000e-01	 2.039999998823342e-02
0	 7.500000000000000e+01	 7.500000000000001e-01	 3.660000000410674e-02
0	 7.500000000000000e+01	 1.000000000000000e+00	 5.279999999597704e-02
0	 7.500000000000000e+01	 1.250000000000000e+00	 6.899999999774309e-02
0	 7.500000000000000e+01	 1.500000000000000e+00	 8.519999999528044e-02
0	 7.500000000000000e+01	 1.750000000000000e+00	 1.013999999969428e-01
0	 7.500000000000000e+01	 2.000000000000000e+00	 1.176000000014819e-01
0	 7.500000000000000e+01	 2.250000000000000e+00	 1.337999999863332e-01
0	 7.500000000000000e+01	 2.500000000000000e+00	 1.499999999992951e-01
0	 6.875000000000000e+01	 2.500000000000000e+00	 1.399999999989632e-01
0	 6.875000000000000e+01	 2.750000000000000e+00	 1.759999999985824e-01
0	 6.875000000000000e+01	 3.000000000000001e+00	 2.119999999941616e-01
0	 6.875000000000001e+01	 3.250000000000001e+00	 2.480000000019056e-01
0	 6.875000000000000e+01	 3.500000000000001e+00	 2.839999999978121e-01
0	 6.875000000000001e+01	 3.750000000000001e+00	 3.200000000020220e-01
0	 6.875000000000000e+01	 4.000000000000001e+00	 3.559999999993124e-01
0	 6.875000000000000e+01	 4.250000000000002e+00	 3.919999999993707e-01
0	 6.875000000000001e+01	 4.500000000000003e+00	 4.279999999966611e-01
0	 6.875000000000000e+01	 4.750000000000002e+00	 4.639999999994870e-01
0	 6.875000000000000e+01	 5.000000000000000e+00	 4.999999999995453e-01
0	 6.937500000000000e+01	 2.500000000000000e+00	 1.401000000035513e-01
0	 6.937500000000000e+01	 2.750000000000000e+00	 1.760800000002275e-01
0	 6.937499999999999e+01	 3.000000000000000e+00	 2.120599999987741e-01
0	 6.937500000000000e+01	 3.250000000000001e+00	 2.480400000002700e-01
0	 6.937500000000001e+01	 3.500000000000001e+00	 2.840199999982118e-01
0	 6.937500000000000e+01	 3.750000000000001e+00	 3.200000000014535e-01
0	 6.937500000000000e+01	 4.000000000000002e+00	 3.559799999980623e-01
0	 6.937500000000000e+01	 4.250000000000002e+00	 3.919599999974205e-01
0	 6.937500000000000e+01	 4.500000000000001e+00	 4.279400000030933e-01
0	 6.937499999999999e+01	 4.750000000000001e+00	 4.639199999979527e-01
0	 6.937500000000000e+01	 5.000000000000000e+00	 4.998999999973108e-01
0	 7.000000000000000e+01	 2.500000000000000e+00	 1.403999999945782e-01
0	 7.000000000000001e+01	 2.750000000000000e+00	 1.763199999988877e-01
0	 7.000000000000001e+01	 3.000000000000001e+00	 2.122399999973887e-01
0	 6.999999999999999e+01	 3.250000000000000e+00	 2.481600000020710e-01
0	 7.000000000000000e+01	 3.500000000000001e+00	 2.840800000037190e-01
0	 7.000000000000000e+01	 3.750000000000001e+00	 3.199999999987161e-01
0	 7.000000000000000e+01	 4.000000000000002e+00	 3.559199999996263e-01
0	 6.999999999999999e+01	 4.250000000000001e+00	 3.918399999986555e-01
0	 7.000000000000000e+01	 4.500000000000001e+00	 4.277600000015981e-01
0	 7.000000000000000e+01	 4.750000000000003e+00	 4.636799999983336e-01
0	 7.000000000000000e+01	 5.000000000000000e+00	 4.996000000019763e-01
0	 7.062499999999999e+01	 2.500000000000000e+00	 1.408999999981120e-01
0	 7.062499999999999e+01	 2.750000000000000e+00	 1.767199999955257e-01
0	 7.062499999999997e+01	 3.000000000000000e+00	 2.125400000035355e-01
0	 7.062500000000001e+01	 3.250000000000001e+00	 2.483599999976535e-01
0	 7.062500000000001e+01	 3.500000000000001e+00	 2.841799999987294e-01
0	 7.062500000000000e+01	 3.750000000000001e+00	 3.199999999996190e-01
0	 7.062500000000000e+01	 4.000000000000001e+00	 3.558200000018417e-01
0	 7.062500000000001e+01	 4.250000000000001e+00	 3.916400000064074e-01
0	 7.062500000000000e+01	 4.500000000000002e+00	 4.274600000004014e-01
0	 7.062499999999999e+01	 4.750000000000002e+00	 4.632800000026631e-01
0	 7.062499999999999e+01	 5.000000000000001e+00	 4.991000000050150e-01
0	 7.124999999999999e+01	 2.500000000000000e+00	 1.415999999927919e-01
0	 7.125000000000001e+01	 2.750000000000000e+00	 1.772799999980995e-01
0	 7.124999999999999e+01	 3.000000000000000e+00	 2.129600000002095e-01
0	 7.124999999999999e+01	 3.250000000000000e+00	 2.486399999957483e-01
0	 7.125000000000000e+01	 3.500000000000001e+00	 2.843200000018622e-01
0	 7.125000000000000e+01	 3.750000000000000e+00	 3.199999999985437e-01
0	 7.125000000000001e+01	 4.000000000000002e+00	 3.556800000001975e-01
0	 7.125000000000000e+01	 4.250000000000002e+00	 3.913599999958117e-01
0	 7.125000000000000e+01	 4.500000000000002e+00	 4.270400000023041e-01
0	 7.125000000000000e+01	 4.750000000000002e+00	 4.627200000005160e-01
0	 7.124999999999999e+01	 5.000000000000000e+00	 4.984000000035849e-01
0	 7.187500000000000e+01	 2.500000000000000e+00	 1.424999999976251e-01
0	 7.187499999999997e+01	 2.750000000000000e+00	 1.779999999964229e-01
0	 7.187499999999999e+01	 3.000000000000000e+00	 2.135000000004325e-01
0	 7.187500000000000e+01	 3.250000000000001e+00	 2.489999999967471e-01
0	 7.187500000000000e+01	 3.500000000000001e+00	 2.845000000002864e-01
0	 7.187499999999999e+01	 3.750000000000001e+00	 3.199999999950454e-01
0	 7.187499999999999e+01	 4.000000000000002e+00	 3.554999999984432e-01
0	 7.187499999999999e+01	 4.250000000000002e+00	 3.910000000009304e-01
0	 7.187499999999999e+01	 4.500000000000002e+00	 4.265000000059491e-01
0	 7.187500000000000e+01	 4.750000000000003e+00	 4.619999999971766e-01
0	 7.187500000000000e+01	 5.000000000000000e+00	 4.975000000037255e-01
0	 7.249999999999997e+01	 2.500000000000000e+00	 1.436000000012427e-01
0	 7.249999999999999e+01	 2.750000000000000e+00	 1.788800000018070e-01
0	 7.250000000000001e+01	 3.000000000000001e+00	 2.141599999964369e-01
0	 7.249999999999999e+01	 3.250000000000000e+00	 2.494399999975253e-01
0	 7.249999999999997e+01	 3.500000000000000e+00	 2.847200000004976e-01
0	 7.249999999999999e+01	 3.750000000000001e+00	 3.199999999992668e-01
0	 7.249999999999999e+01	 4.000000000000001e+00	 3.552800000007282e-01
0	 7.249999999999999e+01	 4.250000000000002e+00	 3.905599999995957e-01
0	 7.249999999999997e+01	 4.500000000000002e+00	 4.258400000060603e-01
0	 7.249999999999997e+01	 4.750000000000002e+00	 4.611199999952384e-01
0	 7.249999999999997e+01	 5.000000000000000e+00	 4.963999999986868e-01
0	 7.312499999999999e+01	 2.500000000000000e+00	 1.448999999993817e-01
0	 7.312499999999997e+01	 2.750000000000000e+00	 1.799200000002323e-01
0	 7.312500000000000e+01	 3.000000000000001e+00	 2.149399999994648e-01
0	 7.312500000000000e+01	 3.250000000000000e+00	 2.499599999975522e-01
0	 7.312499999999999e+01	 3.500000000000001e+00	 2.849799999964724e-01
0	 7.312500000000000e+01	 3.750000000000002e+00	 3.200000000066529e-01
0	 7.312499999999999e+01	 4.000000000000002e+00	 3.550199999988425e-01
0	 7.312500000000000e+01	 4.250000000000003e+00	 3.900399999963844e-01
0	 7.312500000000000e+01	 4.500000000000002e+00	 4.250599999972200e-01
0	 7.312500000000000e+01	 4.750000000000002e+00	 4.600799999949355e-01
0	 7.312499999999999e+01	 5.000000000000000e+00	 4.951000000019689e-01
0	 7.374999999999999e+01	 2.500000000000000e+00	 1.463999999970156e-01
0	 7.375000000000000e+01	 2.750000000000000e+00	 1.811199999955218e-01
0	 7.374999999999997e+01	 3.000000000000000e+00	 2.158400000022795e-01
0	 7.374999999999999e+01	 3.250000000000000e+00	 2.505599999982643e-01
0	 7.374999999999999e+01	 3.500000000000001e+00	 2.852799999987171e-01
0	 7.374999999999999e+01	 3.750000000000001e+00	 3.199999999996013e-01
0	 7.374999999999999e+01	 4.000000000000003e+00	 3.547199999985651e-01
0	 7.374999999999999e+01	 4.250000000000001e+00	 3.894399999982655e-01
0	 7.374999999999999e+01	 4.500000000000002e+00	 4.241599999971868e-01
0	 7.374999999999999e+01	 4.750000000000002e+00	 4.588800000006759e-01
0	 7.374999999999999e+01	 5.000000000000000e+00	 4.935999999986507e-01
0	 7.437499999999999e+01	 2.500000000000000e+00	 1.481000000012500e-01
0	 7.437500000000000e+01	 2.750000000000001e+00	 1.824799999954116e-01
0	 7.437499999999997e+01	 3.000000000000000e+00	 2.168600000000002e-01
0	 7.437499999999996e+01	 3.250000000000000e+00	 2.512399999991687e-01
0	 7.437499999999999e+01	 3.500000000000001e+00	 2.856200000015925e-01
0	 7.437499999999999e+01	 3.750000000000001e+00	 3.200000000025759e-01
0	 7.437499999999999e+01	 4.000000000000002e+00	 3.543799999974340e-01
0	 7.437499999999997e+01	 4.250000000000001e+00	 3.887599999942696e-01
0	 7.437499999999997e+01	 4.500000000000002e+00	 4.231399999997856e-01
0	 7.437499999999997e+01	 4.750000000000002e+00	 4.575200000050709e-01
0	 7.437499999999999e+01	 5.000000000000000e+00	 4.918999999972584e-01
0	 7.500000000000000e+01	 2.500000000000000e+00	 1.499999999992951e-01
0	 7.500000000000000e+01	 2.750000000000000e+00	 1.840000000064309e-01
0	 7.500000000000000e+01	 3.000000000000001e+00	 2.179999999995630e-01
0	 7.500000000000001e+01	 3.250000000000001e+00	 2.519999999989864e-01
0	 7.500000000000000e+01	 3.500000000000001e+00	 2.859999999969887e-01
0	 7.500000000000001e+01	 3.750000000000001e+00	 3.200000000034830e-01
0	 7.500000000000000e+01	 4.000000000000001e+00	 3.539999999986776e-01
0	 7.500000000000000e+01	 4.250000000000002e+00	 3.879999999952935e-01
0	 7.500000000000001e+01	 4.500000000000003e+00	 4.219999999975244e-01
0	 7.500000000000000e+01	 4.750000000000002e+00	 4.560000000054051e-01
0	 7.500000000000000e+01	 5.000000000000000e+00	 4.899999999992133e-01
0	 6.875000000000000e+01	 5.000000000000000e+00	 4.999999999995453e-01
0	 6.875000000000000e+01	 5.250000000000000e+00	 5.360000000027171e-01
0	 6.875000000000000e+01	 5.500000000000001e+00	 5.720000000004281e-01
0	 6.875000000000001e+01	 5.750000000000002e+00	 6.080000000024879e-01
0	 6.875000000000000e+01	 6.000000000000001e+00	 6.439999999983941e-01
0	 6.875000000000001e+01	 6.250000000000001e+00	 6.800000000026041e-01
0	 6.875000000000000e+01	 6.500000000000001e+00	 7.160000000013155e-01
0	 6.875000000000000e+01	 6.750000000000002e+00	 7.519999999999529e-01
0	 6.875000000000001e+01	 7.000000000000003e+00	 7.879999999972431e-01
0	 6.875000000000000e+01	 7.250000000000002e+00	 8.240000000000691e-01
0	 6.875000000000000e+01	 7.500000000000000e+00	 8.600000000001273e-01
0	 6.937500000000000e+01	 5.000000000000000e+00	 4.998999999973108e-01
0	 6.937500000000000e+01	 5.250000000000000e+00	 5.359199999993061e-01
0	 6.937499999999999e+01	 5.500000000000001e+00	 5.719400000003519e-01
0	 6.937500000000000e+01	 5.750000000000000e+00	 6.079599999997173e-01
0	 6.937500000000001e+01	 6.000000000000002e+00	 6.439800000005137e-01
0	 6.937500000000000e+01	 6.250000000000002e+00	 6.800000000023021e-01
0	 6.937500000000000e+01	 6.500000000000002e+00	 7.160199999974907e-01
0	 6.937500000000000e+01	 6.750000000000002e+00	 7.520399999997144e-01
0	 6.937500000000000e+01	 7.000000000000001e+00	 7.880600000053887e-01
0	 6.937499999999999e+01	 7.250000000000001e+00	 8.240800000002492e-01
0	 6.937500000000000e+01	 7.500000000000000e+00	 8.600999999996527e-01
0	 7.000000000000000e+01	 5.000000000000000e+00	 4.996000000019763e-01
0	 7.000000000000001e+01	 5.250000000000001e+00	 5.356800000023380e-01
0	 7.000000000000001e+01	 5.500000000000002e+00	 5.717599999998222e-01
0	 6.999999999999999e+01	 5.750000000000000e+00	 6.078400000023775e-01
0	 7.000000000000000e+01	 6.000000000000001e+00	 6.439200000040745e-01
0	 7.000000000000000e+01	 6.250000000000002e+00	 6.800000000003639e-01
0	 7.000000000000000e+01	 6.500000000000002e+00	 7.160800000012787e-01
0	 6.999999999999999e+01	 6.750000000000001e+00	 7.521600000004016e-01
0	 7.000000000000000e+01	 7.000000000000003e+00	 7.882400000005062e-01
0	 7.000000000000000e+01	 7.250000000000004e+00	 8.243200000000890e-01
0	 7.000000000000000e+01	 7.499999999999999e+00	 8.603999999982290e-01
0	 7.062499999999999e+01	 5.000000000000001e+00	 4.991000000050150e-01
0	 7.062499999999999e+01	 5.250000000000001e+00	 5.352799999957112e-01
0	 7.062499999999997e+01	 5.500000000000000e+00	 5.714600000023325e-01
0	 7.062500000000001e+01	 5.750000000000001e+00	 6.076399999964831e-01
0	 7.062500000000001e+01	 6.000000000000000e+00	 6.438200000004337e-01
0	 7.062500000000000e+01	 6.250000000000000e+00	 6.800000000012671e-01
0	 7.062500000000000e+01	 6.500000000000001e+00	 7.161800000009463e-01
0	 7.062500000000001e+01	 6.750000000000002e+00	 7.523600000081205e-01
0	 7.062500000000000e+01	 7.000000000000002e+00	 7.885400000020580e-01
0	 7.062499999999999e+01	 7.250000000000001e+00	 8.247200000019541e-01
0	 7.062499999999999e+01	 7.499999999999999e+00	 8.608999999953685e-01
0	 7.124999999999999e+01	 5.000000000000000e+00	 4.984000000035849e-01
0	 7.125000000000001e+01	 5.250000000000001e+00	 5.347199999955882e-01
0	 7.124999999999999e+01	 5.500000000000000e+00	 5.710400000018021e-01
0	 7.124999999999999e+01	 5.750000000000000e+00	 6.073599999980699e-01
0	 7.125000000000000e+01	 6.000000000000001e+00	 6.436800000029589e-01
0	 7.125000000000000e+01	 6.250000000000000e+00	 6.800000000005468e-01
0	 7.125000000000001e+01	 6.500000000000003e+00	 7.163199999993768e-01
0	 7.125000000000000e+01	 6.750000000000002e+00	 7.526400000010489e-01
0	 7.125000000000000e+01	 7.000000000000003e+00	 7.889600000047179e-01
0	 7.125000000000000e+01	 7.250000000000002e+00	 8.252800000029479e-01
0	 7.124999999999999e+01	 7.500000000000000e+00	 8.615999999982195e-01
0	 7.187500000000000e+01	 5.000000000000000e+00	 4.975000000037255e-01
0	 7.187499999999997e+01	 5.250000000000000e+00	 5.339999999979557e-01
0	 7.187499999999999e+01	 5.500000000000001e+00	 5.705000000052141e-01
0	 7.187500000000000e+01	 5.750000000000001e+00	 6.069999999981155e-01
0	 7.187500000000000e+01	 6.000000000000001e+00	 6.434999999998409e-01
0	 7.187499999999999e+01	 6.250000000000001e+00	 6.799999999984695e-01
0	 7.187499999999999e+01	 6.500000000000001e+00	 7.165000000007637e-01
0	 7.187499999999999e+01	 6.750000000000002e+00	 7.529999999978840e-01
0	 7.187499999999999e+01	 7.000000000000000e+00	 7.895000000074834e-01
0	 7.187500000000000e+01	 7.250000000000002e+00	 8.260000000040021e-01
0	 7.187500000000000e+01	 7.500000000000001e+00	 8.625000000044737e-01
0	 7.249999999999997e+01	 5.000000000000000e+00	 4.963999999986868e-01
0	 7.249999999999999e+01	 5.249999999999999e+00	 5.331200000050657e-01
0	 7.250000000000001e+01	 5.500000000000001e+00	 5.698399999969835e-01
0	 7.249999999999999e+01	 5.750000000000000e+00	 6.065600000010445e-01
0	 7.249999999999997e+01	 6.000000000000000e+00	 6.432799999984625e-01
0	 7.249999999999999e+01	 6.250000000000001e+00	 6.799999999984278e-01
0	 7.249999999999999e+01	 6.500000000000001e+00	 7.167200000039274e-01
0	 7.249999999999999e+01	 6.750000000000000e+00	 7.534400000018594e-01
0	 7.249999999999997e+01	 7.000000000000002e+00	 7.901600000052564e-01
0	 7.249999999999997e+01	 7.250000000000001e+00	 8.268799999963412e-01
0	 7.249999999999997e+01	 7.500000000000000e+00	 8.636000000038281e-01
0	 7.312499999999999e+01	 5.000000000000000e+00	 4.951000000019689e-01
0	 7.312499999999997e+01	 5.249999999999999e+00	 5.320799999997895e-01
0	 7.312500000000000e+01	 5.500000000000000e+00	 5.690600000009658e-01
0	 7.312500000000000e+01	 5.750000000000001e+00	 6.060399999974442e-01
0	 7.312499999999999e+01	 6.000000000000003e+00	 6.430199999954659e-01
0	 7.312500000000000e+01	 6.250000000000002e+00	 6.800000000058140e-01
0	 7.312499999999999e+01	 6.500000000000001e+00	 7.169800000038554e-01
0	 7.312500000000000e+01	 6.750000000000002e+00	 7.539600000001436e-01
0	 7.312500000000000e+01	 7.000000000000002e+00	 7.909399999997253e-01
0	 7.312500000000000e+01	 7.250000000000002e+00	 8.279199999976083e-01
0	 7.312499999999999e+01	 7.500000000000000e+00	 8.648999999977039e-01
0	 7.374999999999999e+01	 5.000000000000000e+00	 4.935999999986507e-01
0	 7.375000000000000e+01	 5.250000000000001e+00	 5.308799999979411e-01
0	 7.374999999999997e+01	 5.500000000000000e+00	 5.681600000026407e-01
0	 7.374999999999999e+01	 5.750000000000001e+00	 6.054399999972780e-01
0	 7.374999999999999e+01	 6.000000000000001e+00	 6.427199999970939e-01
0	 7.374999999999999e+01	 6.250000000000001e+00	 6.799999999987622e-01
0	 7.374999999999999e+01	 6.500000000000004e+00	 7.172799999992208e-01
0	 7.374999999999999e+01	 6.750000000000001e+00	 7.545599999975737e-01
0	 7.374999999999999e+01	 7.000000000000002e+00	 7.918399999994109e-01
0	 7.374999999999999e+01	 7.250000000000003e+00	 8.291200000058152e-01
0	 7.374999999999999e+01	 7.500000000000000e+00	 8.664000000010220e-01
0	 7.437499999999999e+01	 5.000000000000000e+00	 4.918999999972584e-01
0	 7.437500000000000e+01	 5.250000000000002e+00	 5.295199999962424e-01
0	 7.437499999999997e+01	 5.500000000000001e+00	 5.671400000042328e-01
0	 7.437499999999996e+01	 5.750000000000001e+00	 6.047600000007635e-01
0	 7.437499999999999e+01	 6.000000000000002e+00	 6.423799999998386e-01
0	 7.437499999999999e+01	 6.250000000000001e+00	 6.800000000045791e-01
0	 7.437499999999999e+01	 6.500000000000001e+00	 7.176200000003520e-01
0	 7.437499999999997e+01	 6.750000000000001e+00	 7.552399999938391e-01
0	 7.437499999999997e+01	 7.000000000000001e+00	 7.928600000031122e-01
0	 7.437499999999997e+01	 7.250000000000002e+00	 8.304800000007854e-01
0	 7.437499999999999e+01	 7.500000000000000e+00	 8.680999999995723e-01
0	 7.500000000000000e+01	 5.000000000000000e+00	 4.899999999992133e-01
0	 7.500000000000000e+01	 5.250000000000000e+00	 5.280000000051316e-01
0	 7.500000000000000e+01	 5.500000000000001e+00	 5.659999999998888e-01
0	 7.500000000000001e+01	 5.750000000000002e+00	 6.039999999984504e-01
0	 7.500000000000000e+01	 6.000000000000001e+00	 6.420000000005643e-01
0	 7.500000000000001e+01	 6.250000000000001e+00	 6.800000000040650e-01
0	 7.500000000000000e+01	 6.500000000000001e+00	 7.180000000005293e-01
0	 7.500000000000000e+01	 6.750000000000002e+00	 7.559999999984148e-01
0	 7.500000000000001e+01	 7.000000000000003e+00	 7.940000000019155e-01
0	 7.500000000000000e+01	 7.250000000000002e+00	 8.320000000053815e-01
0	 7.500000000000000e+01	 7.500000000000000e+00	 8.700000000004594e-01
0	 6.875000000000000e+01	 7.500000000000000e+00	 8.600000000001273e-01
0	 6.875000000000001e+01	 7.750000000000001e+00	 8.764000000062346e-01
0	 6.875000000000000e+01	 8.000000000000002e+00	 8.927999999997381e-01
0	 6.875000000000000e+01	 8.250000000000002e+00	 9.091999999981226e-01
0	 6.875000000000000e+01	 8.500000000000000e+00	 9.255999999993492e-01
0	 6.875000000000000e+01	 8.750000000000000e+00	 9.420000000005757e-01
0	 6.875000000000000e+01	 9.000000000000004e+00	 9.584000000018021e-01
0	 6.875000000000001e+01	 9.250000000000005e+00	 9.748000000058710e-01
0	 6.875000000000000e+01	 9.500000000000000e+00	 9.911999999985708e-01
0	 6.875000000000000e+01	 9.750000000000002e+00	 1.007599999996956e+00
0	 6.875000000000000e+01	 1.000000000000000e+01	 1.024000000001024e+00
0	 6.937500000000000e+01	 7.500000000000000e+00	 8.600999999996527e-01
0	 6.937500000000001e+01	 7.750000000000000e+00	 8.764580000033093e-01
0	 6.937500000000001e+01	 8.000000000000002e+00	 8.928159999983624e-01
0	 6.937500000000000e+01	 8.250000000000000e+00	 9.091739999995880e-01
0	 6.937500000000000e+01	 8.499999999999998e+00	 9.255320000029222e-01
0	 6.937500000000000e+01	 8.750000000000000e+00	 9.418899999961006e-01
0	 6.937500000000000e+01	 9.000000000000002e+00	 9.582480000032301e-01
0	 6.937499999999999e+01	 9.250000000000000e+00	 9.746060000067147e-01
0	 6.937500000000000e+01	 9.500000000000002e+00	 9.909640000097554e-01
0	 6.937500000000001e+01	 9.750000000000004e+00	 1.007321999996837e+00
0	 6.937500000000000e+01	 1.000000000000000e+01	 1.023680000003679e+00
0	 7.000000000000000e+01	 7.499999999999999e+00	 8.603999999982290e-01
0	 6.999999999999999e+01	 7.749999999999998e+00	 8.766319999955667e-01
0	 7.000000000000001e+01	 8.000000000000002e+00	 8.928639999992326e-01
0	 7.000000000000000e+01	 8.250000000000004e+00	 9.090960000063917e-01
0	 6.999999999999999e+01	 8.500000000000000e+00	 9.253280000078233e-01
0	 7.000000000000000e+01	 8.750000000000002e+00	 9.415600000047158e-01
0	 7.000000000000000e+01	 9.000000000000002e+00	 9.577920000039717e-01
0	 7.000000000000001e+01	 9.250000000000004e+00	 9.740240000089369e-01
0	 7.000000000000000e+01	 9.500000000000002e+00	 9.902560000069648e-01
0	 7.000000000000001e+01	 9.750000000000002e+00	 1.006488000005324e+00
0	 6.999999999999999e+01	 1.000000000000000e+01	 1.022720000000277e+00
0	 7.062499999999999e+01	 7.499999999999999e+00	 8.608999999953685e-01
0	 7.062500000000000e+01	 7.750000000000001e+00	 8.769220000009116e-01
0	 7.062499999999999e+01	 8.000000000000000e+00	 8.929440000036856e-01
0	 7.062500000000000e+01	 8.250000000000002e+00	 9.089659999993674e-01
0	 7.062500000000000e+01	 8.500000000000000e+00	 9.249880000029025e-01
0	 7.062500000000000e+01	 8.750000000000000e+00	 9.410100000044157e-01
0	 7.062500000000001e+01	 9.000000000000002e+00	 9.570320000048153e-01
0	 7.062499999999999e+01	 9.250000000000000e+00	 9.730540000017391e-01
0	 7.062499999999999e+01	 9.500000000000004e+00	 9.890760000120120e-01
0	 7.062499999999999e+01	 9.750000000000004e+00	 1.005097999998571e+00
0	 7.062499999999999e+01	 1.000000000000000e+01	 1.021120000002895e+00
0	 7.124999999999999e+01	 7.500000000000000e+00	 8.615999999982195e-01
0	 7.125000000000000e+01	 7.750000000000000e+00	 8.773280000017084e-01
0	 7.124999999999999e+01	 7.999999999999998e+00	 8.930560000059397e-01
0	 7.125000000000000e+01	 8.250000000000000e+00	 9.087840000015974e-01
0	 7.124999999999997e+01	 8.500000000000000e+00	 9.245120000052359e-01
0	 7.125000000000000e+01	 8.750000000000002e+00	 9.402400000034564e-01
0	 7.125000000000000e+01	 9.000000000000002e+00	 9.559680000040583e-01
0	 7.125000000000000e+01	 9.250000000000000e+00	 9.716959999987276e-01
0	 7.125000000000000e+01	 9.500000000000004e+00	 9.874240000051235e-01
0	 7.124999999999999e+01	 9.750000000000002e+00	 1.003152000007616e+00
0	 7.125000000000000e+01	 1.000000000000000e+01	 1.018880000003719e+00
0	 7.187500000000000e+01	 7.500000000000001e+00	 8.625000000044737e-01
0	 7.187499999999999e+01	 7.750000000000001e+00	 8.778499999993897e-01
0	 7.187500000000000e+01	 8.000000000000000e+00	 8.932000000029371e-01
0	 7.187500000000000e+01	 8.249999999999998e+00	 9.085500000014395e-01
0	 7.187499999999999e+01	 8.500000000000002e+00	 9.239000000043517e-01
0	 7.187499999999997e+01	 8.750000000000002e+00	 9.392499999934167e-01
0	 7.187499999999999e+01	 9.000000000000002e+00	 9.546000000028703e-01
0	 7.187499999999999e+01	 9.250000000000002e+00	 9.699500000062111e-01
0	 7.187500000000000e+01	 9.500000000000002e+00	 9.853000000035468e-01
0	 7.187499999999999e+01	 9.750000000000002e+00	 1.000650000013746e+00
0	 7.187499999999999e+01	 1.000000000000000e+01	 1.015999999988537e+00
0	 7.249999999999997e+01	 7.500000000000000e+00	 8.636000000038281e-01
0	 7.249999999999997e+01	 7.749999999999997e+00	 8.784879999997237e-01
0	 7.250000000000000e+01	 8.000000000000002e+00	 8.933759999987750e-01
0	 7.249999999999997e+01	 8.249999999999998e+00	 9.082640000058924e-01
0	 7.249999999999999e+01	 8.500000000000002e+00	 9.231520000048886e-01
0	 7.249999999999999e+01	 8.750000000000002e+00	 9.380400000068033e-01
0	 7.250000000000000e+01	 9.000000000000002e+00	 9.529280000078214e-01
0	 7.250000000000000e+01	 9.250000000000002e+00	 9.678159999993174e-01
0	 7.249999999999999e+01	 9.500000000000002e+00	 9.827040000133525e-01
0	 7.249999999999999e+01	 9.750000000000000e+00	 9.975920000077059e-01
0	 7.249999999999999e+01	 9.999999999999998e+00	 1.012480000002825e+00
0	 7.312499999999999e+01	 7.500000000000000e+00	 8.648999999977039e-01
0	 7.312500000000000e+01	 7.750000000000001e+00	 8.792420000033115e-01
0	 7.312499999999997e+01	 8.000000000000000e+00	 8.935840000007407e-01
0	 7.312499999999999e+01	 8.250000000000002e+00	 9.079260000000033e-01
0	 7.312500000000000e+01	 8.500000000000004e+00	 9.222679999951554e-01
0	 7.312499999999999e+01	 8.750000000000002e+00	 9.366100000057217e-01
0	 7.312499999999997e+01	 8.999999999999998e+00	 9.509519999987350e-01
0	 7.312500000000000e+01	 9.250000000000002e+00	 9.652940000052477e-01
0	 7.312500000000000e+01	 9.500000000000002e+00	 9.796360000013419e-01
0	 7.312500000000000e+01	 9.750000000000004e+00	 9.939779999941303e-01
0	 7.312500000000000e+01	 1.000000000000000e+01	 1.008320000008212e+00
0	 7.374999999999999e+01	 7.500000000000000e+00	 8.664000000010220e-01
0	 7.374999999999999e+01	 7.750000000000000e+00	 8.801120000025610e-01
0	 7.374999999999999e+01	 8.000000000000002e+00	 8.938239999963997e-01
0	 7.375000000000000e+01	 8.250000000000002e+00	 9.075360000005930e-01
0	 7.374999999999997e+01	 8.500000000000000e+00	 9.212479999977664e-01
0	 7.374999999999999e+01	 8.750000000000002e+00	 9.349600000071068e-01
0	 7.374999999999999e+01	 9.000000000000002e+00	 9.486720000114055e-01
0	 7.374999999999997e+01	 9.250000000000002e+00	 9.623839999943378e-01
0	 7.374999999999997e+01	 9.500000000000000e+00	 9.760960000078575e-01
0	 7.374999999999999e+01	 9.750000000000002e+00	 9.898080000055245e-01
0	 7.374999999999997e+01	 1.000000000000000e+01	 1.003520000000435e+00
0	 7.437499999999999e+01	 7.500000000000000e+00	 8.680999999995723e-01
0	 7.437499999999997e+01	 7.750000000000000e+00	 8.810980000028715e-01
0	 7.437499999999997e+01	 8.000000000000000e+00	 8.940960000022892e-01
0	 7.437500000000000e+01	 8.250000000000002e+00	 9.070939999992217e-01
0	 7.437499999999997e+01	 8.500000000000000e+00	 9.200919999983628e-01
0	 7.437499999999999e+01	 8.750000000000000e+00	 9.330900000030132e-01
0	 7.437499999999999e+01	 9.000000000000002e+00	 9.460879999977578e-01
0	 7.437499999999997e+01	 9.250000000000000e+00	 9.590859999946907e-01
0	 7.437499999999997e+01	 9.500000000000002e+00	 9.720840000036077e-01
0	 7.437499999999997e+01	 9.750000000000000e+00	 9.850819999940852e-01
0	 7.437499999999999e+01	 1.000000000000000e+01	 9.980799999993901e-01
0	 7.500000000000000e+01	 7.500000000000000e+00	 8.700000000004594e-01
0	 7.500000000000001e+01	 7.750000000000001e+00	 8.822000000072124e-01
0	 7.500000000000000e+01	 8.000000000000002e+00	 8.944000000028041e-01
0	 7.500000000000000e+01	 8.250000000000002e+00	 9.065999999990026e-01
0	 7.500000000000000e+01	 8.500000000000000e+00	 9.187999999966223e-01
0	 7.500000000000000e+01	 8.750000000000000e+00	 9.310000000027686e-01
0	 7.500000000000000e+01	 9.000000000000004e+00	 9.432000000003881e-01
0	 7.500000000000001e+01	 9.250000000000005e+00	 9.553999999980771e-01
0	 7.500000000000000e+01	 9.500000000000000e+00	 9.676000000013117e-01
0	 7.500000000000000e+01	 9.750000000000002e+00	 9.798000000158470e-01
0	 7.500000000000000e+01	 1.000000000000000e+01	 9.920000000022356e-01
0	 7.500000000000000e+01	 0.000000000000000e+00	-1.200000000380897e-02
0	 7.500000000000000e+01	 2.500000000000000e-01	 4.199999999628876e-03
0	 7.500000000000000e+01	 5.000000000000000e-01	 2.039999998823342e-02
0	 7.500000000000000e+01	 7.500000000000001e-01	 3.660000000410674e-02
0	 7.500000000000000e+01	 1.000000000000000e+00	 5.279999999597704e-02
0	 7.500000000000000e+01	 1.250000000000000e+00	 6.899999999774309e-02
0	 7.500000000000000e+01	 1.500000000000000e+00	 8.519999999528044e-02
0	 7.500000000000000e+01	 1.750000000000000e+00	 1.013999999969428e-01
0	 7.500000000000000e+01	 2.000000000000000e+00	 1.176000000014819e-01
0	 7.500000000000000e+01	 2.250000000000000e+00	 1.337999999863332e-01
0	 7.500000000000000e+01	 2.500000000000000e+00	 1.499999999992951e-01
0	 7.562500000000000e+01	 0.000000000000000e+00	-9.720000002744198e-03
0	 7.562500000000000e+01	 2.499999999999999e-01	 6.441999996207252e-03
0	 7.562500000000000e+01	 4.999999999999999e-01	 2.260399999251389e-02
0	 7.562500000000000e+01	 7.500000000000001e-01	 3.876599999928707e-02
0	 7.562499999999999e+01	 1.000000000000000e+00	 5.492799999908812e-02
0	 7.562500000000001e+01	 1.250000000000000e+00	 7.108999999831943e-02
0	 7.562499999999999e+01	 1.500000000000000e+00	 8.725199999633829e-02
0	 7.562500000000001e+01	 1.750000000000000e+00	 1.034140000021772e-01
0	 7.562500000000001e+01	 2.000000000000000e+00	 1.195760000039869e-01
0	 7.562500000000000e+01	 2.250000000000000e+00	 1.357379999918008e-01
0	 7.562500000000000e+01	 2.500000000000000e+00	 1.519000000022253e-01
0	 7.624999999999999e+01	 0.000000000000000e+00	-7.679999998799759e-03
0	 7.625000000000003e+01	 2.500000000000000e-01	 8.448000004374774e-03
0	 7.625000000000000e+01	 5.000000000000000e-01	 2.457600000624611e-02
0	 7.624999999999997e+01	 7.500000000000001e-01	 4.070399999748772e-02
0	 7.625000000000001e+01	 1.000000000000000e+00	 5.683199999819651e-02
0	 7.624999999999999e+01	 1.250000000000000e+00	 7.296000000120985e-02
0	 7.625000000000000e+01	 1.500000000000000e+00	 8.908799999891370e-02
0	 7.625000000000000e+01	 1.750000000000000e+00	 1.052159999950170e-01
0	 7.625000000000000e+01	 2.000000000000000e+00	 1.213440000027722e-01
0	 7.625000000000000e+01	 2.250000000000000e+00	 1.374719999976293e-01
0	 7.625000000000000e+01	 2.500000000000000e+00	 1.536000000012195e-01
0	 7.687499999999999e+01	 0.000000000000000e+00	-5.880000003344321e-03
0	 7.687500000000001e+01	 2.500000000000000e-01	 1.021799999770031e-02
0	 7.687499999999997e+01	 5.000000000000000e-01	 2.631600000045650e-02
0	 7.687499999999999e+01	 7.500000000000002e-01	 4.241400000022295e-02
0	 7.687500000000001e+01	 1.000000000000000e+00	 5.851200000008894e-02
0	 7.687500000000001e+01	 1.250000000000000e+00	 7.460999999935326e-02
0	 7.687500000000000e+01	 1.500000000000000e+00	 9.070799999527912e-02
0	 7.687499999999999e+01	 1.750000000000000e+00	 1.068059999945189e-01
0	 7.687499999999999e+01	 2.000000000000000e+00	 1.229039999977585e-01
0	 7.687500000000001e+01	 2.250000000000000e+00	 1.390019999984378e-01
0	 7.687499999999999e+01	 2.500000000000000e+00	 1.550999999963664e-01
0	 7.750000000000000e+01	 0.000000000000000e+00	-4.320000005009206e-03
0	 7.749999999999997e+01	 2.500000000000000e-01	 1.175199999361231e-02
0	 7.749999999999999e+01	 4.999999999999999e-01	 2.782399999637014e-02
0	 7.749999999999997e+01	 7.500000000000000e-01	 4.389600000725007e-02
0	 7.749999999999999e+01	 1.000000000000000e+00	 5.996800000240374e-02
0	 7.750000000000000e+01	 1.250000000000000e+00	 7.603999999830080e-02
0	 7.750000000000000e+01	 1.500000000000000e+00	 9.211199999988216e-02
0	 7.750000000000001e+01	 1.750000000000000e+00	 1.081839999965631e-01
0	 7.749999999999999e+01	 2.000000000000000e+00	 1.242560000061337e-01
0	 7.750000000000000e+01	 2.250000000000000e+00	 1.403279999990509e-01
0	 7.749999999999999e+01	 2.500000000000000e+00	 1.563999999959264e-01
0	 7.812499999999999e+01	 0.000000000000000e+00	-3.000000003794412e-03
0	 7.812499999999997e+01	 2.499999999999999e-01	 1.304999999076265e-02
0	 7.812500000000000e+01	 5.000000000000001e-01	 2.910000000029925e-02
0	 7.812499999999999e+01	 7.500000000000000e-01	 4.514999999081046e-02
0	 7.812499999999999e+01	 9.999999999999998e-01	 6.119999999811454e-02
0	 7.812499999999999e+01	 1.250000000000000e+00	 7.724999999787485e-02
0	 7.812499999999999e+01	 1.500000000000000e+00	 9.329999999467835e-02
0	 7.812500000000001e+01	 1.750000000000000e+00	 1.093500000063985e-01
0	 7.812499999999999e+01	 2.000000000000000e+00	 1.253999999988999e-01
0	 7.812500000000001e+01	 2.250000000000000e+00	 1.414500000080347e-01
0	 7.812499999999997e+01	 2.500000000000000e+00	 1.574999999995441e-01
0	 7.874999999999999e+01	 0.000000000000000e+00	-1.919999999699940e-03
0	 7.874999999999999e+01	 2.500000000000000e-01	 1.411199999324974e-02
0	 7.874999999999999e+01	 5.000000000000000e-01	 3.014400000103434e-02
0	 7.874999999999999e+01	 7.500000000000002e-01	 4.617600000362704e-02
0	 7.874999999999999e+01	 1.000000000000000e+00	 6.220800000266886e-02
0	 7.875000000000000e+01	 1.250000000000000e+00	 7.823999999629905e-02
0	 7.874999999999999e+01	 1.500000000000000e+00	 9.427200000336249e-02
0	 7.875000000000000e+01	 1.750000000000000e+00	 1.103039999975408e-01
0	 7.874999999999999e+01	 1.999999999999999e+00	 1.263360000023837e-01
0	 7.874999999999999e+01	 2.250000000000000e+00	 1.423679999917287e-01
0	 7.874999999999999e+01	 2.500000000000000e+00	 1.583999999979824e-01
0	 7.937500000000000e+01	 0.000000000000000e+00	-1.080000004094472e-03
0	 7.937499999999999e+01	 2.500000000000000e-01	 1.493800000793575e-02
0	 7.937499999999999e+01	 5.000000000000001e-01	 3.095599999765900e-02
0	 7.937499999999999e+01	 7.500000000000000e-01	 4.697399999729454e-02
0	 7.937499999999997e+01	 1.000000000000000e+00	 6.299200000247901e-02
0	 7.937500000000000e+01	 1.250000000000000e+00	 7.900999999961303e-02
0	 7.937500000000000e+01	 1.500000000000000e+00	 9.502799999250205e-02
0	 7.937499999999999e+01	 1.750000000000000e+00	 1.110459999992486e-01
0	 7.937499999999999e+01	 2.000000000000000e+00	 1.270639999972900e-01
0	 7.937500000000000e+01	 2.250000000000000e+00	 1.430819999868599e-01
0	 7.937499999999999e+01	 2.500000000000000e+00	 1.590999999976361e-01
0	 7.999999999999999e+01	 0.000000000000000e+00	-4.800000056093268e-04
0	 7.999999999999999e+01	 2.499999999999999e-01	 1.552800000011445e-02
0	 7.999999999999999e+01	 5.000000000000001e-01	 3.153599999467272e-02
0	 7.999999999999999e+01	 7.500000000000002e-01	 4.754400000046534e-02
0	 7.999999999999997e+01	 1.000000000000000e+00	 6.355199999836310e-02
0	 7.999999999999996e+01	 1.250000000000000e+00	 7.956000000035601e-02
0	 8.000000000000000e+01	 1.500000000000000e+00	 9.556800000628633e-02
0	 8.000000000000000e+01	 1.750000000000000e+00	 1.115760000064626e-01
0	 8.000000000000000e+01	 2.000000000000000e+00	 1.275839999934512e-01
0	 7.999999999999999e+01	 2.250000000000000e+00	 1.435919999948964e-01
0	 7.999999999999997e+01	 2.500000000000000e+00	 1.596000000006370e-01
0	 8.062499999999997e+01	 0.000000000000000e+00	-1.199999985601608e-04
0	 8.062499999999999e+01	 2.500000000000000e-01	 1.588199999347954e-02
0	 8.062500000000000e+01	 5.000000000000000e-01	 3.188400000254492e-02
0	 8.062499999999999e+01	 7.500000000000001e-01	 4.788599999159943e-02
0	 8.062499999999997e+01	 9.999999999999998e-01	 6.388800000393528e-02
0	 8.062500000000000e+01	 1.250000000000000e+00	 7.988999999923863e-02
0	 8.062499999999999e+01	 1.500000000000000e+00	 9.589199999596987e-02
0	 8.062499999999997e+01	 1.750000000000000e+00	 1.118939999969370e-01
0	 8.062499999999997e+01	 2.000000000000000e+00	 1.278959999996803e-01
0	 8.062499999999997e+01	 2.250000000000000e+00	 1.438980000010584e-01
0	 8.062499999999997e+01	 2.500000000000000e+00	 1.598999999998796e-01
0	 8.125000000000000e+01	 0.000000000000000e+00	 0.000000000000000e+00
0	 8.125000000000000e+01	 2.500000000000000e-01	 1.600000000214517e-02
0	 8.125000000000000e+01	 5.000000000000000e-01	 3.199999999508252e-02
0	 8.125000000000000e+01	 7.500000000000001e-01	 4.800000000242906e-02
0	 8.125000000000000e+01	 1.000000000000000e+00	 6.400000000041929e-02
0	 8.125000000000000e+01	 1.250000000000000e+00	 7.999999999839247e-02
0	 8.125000000000000e+01	 1.500000000000000e+00	 9.599999999921918e-02
0	 8.125000000000000e+01	 1.750000000000000e+00	 1.120000000014329e-01
0	 8.125000000000000e+01	 2.000000000000000e+00	 1.279999999979964e-01
0	 8.125000000000000e+01	 2.250000000000000e+00	 1.440000000058945e-01
0	 8.125000000000000e+01	 2.500000000000000e+00	 1.599999999996271e-01
0	 7.500000000000000e+01	 2.500000000000000e+00	 1.499999999992951e-01
0	 7.500000000000000e+01	 2.750000000000000e+00	 1.840000000064309e-01
0	 7.500000000000000e+01	 3.000000000000001e+00	 2.179999999995630e-01
0	 7.500000000000001e+01	 3.250000000000001e+00	 2.519999999989864e-01
0	 7.500000000000000e+01	 3.500000000000001e+00	 2.859999999969887e-01
0	 7.500000000000001e+01	 3.750000000000001e+00	 3.200000000034830e-01
0	 7.500000000000000e+01	 4.000000000000001e+00	 3.539999999986776e-01
0	 7.500000000000000e+01	 4.250000000000002e+00	 3.879999999952935e-01
0	 7.500000000000001e+01	 4.500000000000003e+00	 4.219999999975244e-01
0	 7.500000000000000e+01	 4.750000000000002e+00	 4.560000000054051e-01
0	 7.500000000000000e+01	 5.000000000000000e+00	 4.899999999992133e-01
0	 7.562500000000000e+01	 2.500000000000000e+00	 1.519000000022253e-01
0	 7.562500000000000e+01	 2.750000000000000e+00	 1.855199999987092e-01
0	 7.562500000000000e+01	 3.000000000000000e+00	 2.191399999998007e-01
0	 7.562500000000000e+01	 3.250000000000001e+00	 2.527599999986315e-01
0	 7.562500000000000e+01	 3.500000000000001e+00	 2.863799999974131e-01
0	 7.562500000000000e+01	 3.750000000000001e+00	 3.200000000028633e-01
0	 7.562499999999999e+01	 4.000000000000002e+00	 3.536200000045297e-01
0	 7.562500000000000e+01	 4.250000000000002e+00	 3.872399999991005e-01
0	 7.562500000000000e+01	 4.500000000000001e+00	 4.208600000028781e-01
0	 7.562499999999999e+01	 4.750000000000001e+00	 4.544799999928829e-01
0	 7.562500000000000e+01	 5.000000000000000e+00	 4.880999999958834e-01
0	 7.625000000000000e+01	 2.500000000000000e+00	 1.536000000012195e-01
0	 7.625000000000001e+01	 2.750000000000000e+00	 1.868800000034380e-01
0	 7.625000000000000e+01	 3.000000000000001e+00	 2.201599999997691e-01
0	 7.624999999999999e+01	 3.250000000000000e+00	 2.534400000015269e-01
0	 7.625000000000000e+01	 3.500000000000001e+00	 2.867199999978639e-01
0	 7.625000000000001e+01	 3.750000000000001e+00	 3.200000000000433e-01
0	 7.625000000000001e+01	 4.000000000000002e+00	 3.532800000000439e-01
0	 7.624999999999999e+01	 4.250000000000001e+00	 3.865600000051940e-01
0	 7.625000000000000e+01	 4.500000000000001e+00	 4.198400000030406e-01
0	 7.625000000000000e+01	 4.750000000000003e+00	 4.531200000028653e-01
0	 7.625000000000000e+01	 5.000000000000000e+00	 4.864000000013747e-01
0	 7.687499999999999e+01	 2.500000000000000e+00	 1.550999999963664e-01
0	 7.687499999999999e+01	 2.750000000000000e+00	 1.880799999965788e-01
0	 7.687500000000000e+01	 3.000000000000000e+00	 2.210599999993665e-01
0	 7.687499999999999e+01	 3.250000000000001e+00	 2.540399999969556e-01
0	 7.687499999999999e+01	 3.500000000000001e+00	 2.870199999979059e-01
0	 7.687499999999999e+01	 3.750000000000001e+00	 3.199999999996220e-01
0	 7.687499999999999e+01	 4.000000000000001e+00	 3.529799999972906e-01
0	 7.687500000000000e+01	 4.250000000000001e+00	 3.859599999942118e-01
0	 7.687499999999999e+01	 4.500000000000002e+00	 4.189400000004894e-01
0	 7.687500000000000e+01	 4.750000000000002e+00	 4.519199999978059e-01
0	 7.687499999999999e+01	 5.000000000000001e+00	 4.849000000071158e-01
0	 7.749999999999999e+01	 2.500000000000000e+00	 1.563999999959264e-01
0	 7.750000000000000e+01	 2.750000000000000e+00	 1.891200000037781e-01
0	 7.749999999999999e+01	 3.000000000000000e+00	 2.218400000001167e-01
0	 7.749999999999997e+01	 3.250000000000000e+00	 2.545599999991322e-01
0	 7.750000000000000e+01	 3.500000000000001e+00	 2.872800000016617e-01
0	 7.749999999999999e+01	 3.750000000000000e+00	 3.199999999953715e-01
0	 7.749999999999999e+01	 4.000000000000002e+00	 3.527200000025348e-01
0	 7.749999999999999e+01	 4.250000000000002e+00	 3.854399999952077e-01
0	 7.750000000000000e+01	 4.500000000000002e+00	 4.181600000048178e-01
0	 7.750000000000000e+01	 4.750000000000002e+00	 4.508800000017743e-01
0	 7.749999999999999e+01	 5.000000000000000e+00	 4.836000000018714e-01
0	 7.812499999999997e+01	 2.500000000000000e+00	 1.574999999995441e-01
0	 7.812499999999997e+01	 2.750000000000000e+00	 1.899999999991390e-01
0	 7.812499999999999e+01	 3.000000000000000e+00	 2.225000000040626e-01
0	 7.812499999999999e+01	 3.250000000000001e+00	 2.550000000060871e-01
0	 7.812500000000000e+01	 3.500000000000001e+00	 2.875000000044384e-01
0	 7.812499999999997e+01	 3.750000000000001e+00	 3.200000000045546e-01
0	 7.812499999999997e+01	 4.000000000000002e+00	 3.524999999996226e-01
0	 7.812500000000000e+01	 4.250000000000002e+00	 3.850000000039446e-01
0	 7.812499999999999e+01	 4.500000000000002e+00	 4.175000000039119e-01
0	 7.812499999999997e+01	 4.750000000000003e+00	 4.499999999948255e-01
0	 7.812499999999997e+01	 5.000000000000000e+00	 4.825000000025170e-01
0	 7.874999999999999e+01	 2.500000000000000e+00	 1.583999999979824e-01
0	 7.874999999999997e+01	 2.750000000000000e+00	 1.907200000015749e-01
0	 7.874999999999999e+01	 3.000000000000001e+00	 2.230399999983859e-01
0	 7.874999999999999e+01	 3.250000000000000e+00	 2.553599999974451e-01
0	 7.874999999999997e+01	 3.500000000000000e+00	 2.876799999999113e-01
0	 7.874999999999997e+01	 3.750000000000001e+00	 3.199999999964379e-01
0	 7.874999999999999e+01	 4.000000000000001e+00	 3.523200000009829e-01
0	 7.874999999999999e+01	 4.250000000000002e+00	 3.846399999929830e-01
0	 7.874999999999999e+01	 4.500000000000002e+00	 4.169600000025341e-01
0	 7.874999999999997e+01	 4.750000000000002e+00	 4.492799999988800e-01
0	 7.874999999999999e+01	 5.000000000000000e+00	 4.816000000033682e-01
0	 7.937499999999999e+01	 2.500000000000000e+00	 1.590999999976361e-01
0	 7.937499999999997e+01	 2.750000000000000e+00	 1.912800000057809e-01
0	 7.937500000000000e+01	 3.000000000000001e+00	 2.234600000016844e-01
0	 7.937499999999999e+01	 3.250000000000000e+00	 2.556399999946509e-01
0	 7.937500000000000e+01	 3.500000000000001e+00	 2.878200000040282e-01
0	 7.937500000000000e+01	 3.750000000000002e+00	 3.199999999989210e-01
0	 7.937499999999997e+01	 4.000000000000002e+00	 3.521800000004794e-01
0	 7.937500000000000e+01	 4.250000000000003e+00	 3.843599999996173e-01
0	 7.937499999999999e+01	 4.500000000000002e+00	 4.165399999999791e-01
0	 7.937499999999999e+01	 4.750000000000002e+00	 4.487199999914721e-01
0	 7.937499999999999e+01	 5.000000000000000e+00	 4.808999999994511e-01
0	 7.999999999999997e+01	 2.500000000000000e+00	 1.596000000006370e-01
0	 8.000000000000000e+01	 2.750000000000000e+00	 1.916800000034284e-01
0	 7.999999999999997e+01	 3.000000000000000e+00	 2.237600000031879e-01
0	 7.999999999999999e+01	 3.250000000000000e+00	 2.558400000002601e-01
0	 7.999999999999997e+01	 3.500000000000001e+00	 2.879200000039490e-01
0	 7.999999999999999e+01	 3.750000000000001e+00	 3.199999999995962e-01
0	 8.000000000000000e+01	 4.000000000000003e+00	 3.520799999989776e-01
0	 7.999999999999999e+01	 4.250000000000001e+00	 3.841600000061323e-01
0	 7.999999999999999e+01	 4.500000000000002e+00	 4.162399999998297e-01
0	 7.999999999999999e+01	 4.750000000000002e+00	 4.483200000009902e-01
0	 7.999999999999997e+01	 5.000000000000000e+00	 4.803999999950293e-01
0	 8.062499999999997e+01	 2.500000000000000e+00	 1.598999999998796e-01
0	 8.062499999999997e+01	 2.750000000000001e+00	 1.919200000012401e-01
0	 8.062499999999997e+01	 3.000000000000000e+00	 2.239399999988978e-01
0	 8.062499999999997e+01	 3.250000000000000e+00	 2.559599999982105e-01
0	 8.062499999999997e+01	 3.500000000000001e+00	 2.879800000007718e-01
0	 8.062499999999997e+01	 3.750000000000001e+00	 3.200000000040368e-01
0	 8.062499999999999e+01	 4.000000000000002e+00	 3.520200000011187e-01
0	 8.062499999999997e+01	 4.250000000000001e+00	 3.840399999973261e-01
0	 8.062499999999997e+01	 4.500000000000002e+00	 4.160600000023603e-01
0	 8.062499999999999e+01	 4.750000000000002e+00	 4.480799999999478e-01
0	 8.062499999999997e+01	 5.000000000000000e+00	 4.800999999986287e-01
0	 8.125000000000000e+01	 2.500000000000000e+00	 1.599999999996271e-01
0	 8.125000000000000e+01	 2.750000000000000e+00	 1.920000000023123e-01
0	 8.125000000000000e+01	 3.000000000000001e+00	 2.239999999993358e-01
0	 8.125000000000001e+01	 3.250000000000001e+00	 2.560000000030982e-01
0	 8.125000000000000e+01	 3.500000000000001e+00	 2.879999999976235e-01
0	 8.125000000000001e+01	 3.750000000000001e+00	 3.200000000035061e-01
0	 8.125000000000000e+01	 4.000000000000001e+00	 3.519999999980427e-01
0	 8.125000000000000e+01	 4.250000000000002e+00	 3.839999999968427e-01
0	 8.125000000000001e+01	 4.500000000000003e+00	 4.160000000013042e-01
0	 8.125000000000000e+01	 4.750000000000002e+00	 4.480000000029350e-01
0	 8.125000000000000e+01	 5.000000000000000e+00	 4.800000000017235e-01
0	 7.500000000000000e+01	 5.000000000000000e+00	 4.899999999992133e-01
0	 7.500000000000000e+01	 5.250000000000000e+00	 5.280000000051316e-01
0	 7.500000000000000e+01	 5.500000000000001e+00	 5.659999999998888e-01
0	 7.500000000000001e+01	 5.750000000000002e+00	 6.039999999984504e-01
0	 7.500000000000000e+01	 6.000000000000001e+00	 6.420000000005643e-01
0	 7.500000000000001e+01	 6.250000000000001e+00	 6.800000000040650e-01
0	 7.500000000000000e+01	 6.500000000000001e+00	 7.180000000005293e-01
0	 7.500000000000000e+01	 6.750000000000002e+00	 7.559999999984148e-01
0	 7.500000000000001e+01	 7.000000000000003e+00	 7.940000000019155e-01
0	 7.500000000000000e+01	 7.250000000000002e+00	 8.320000000053815e-01
0	 7.500000000000000e+01	 7.500000000000000e+00	 8.700000000004594e-01
0	 7.562500000000000e+01	 5.000000000000000e+00	 4.880999999958834e-01
0	 7.562500000000000e+01	 5.250000000000000e+00	 5.264800000006838e-01
0	 7.562500000000000e+01	 5.500000000000001e+00	 5.648600000014764e-01
0	 7.562500000000000e+01	 5.750000000000000e+00	 6.032400000000389e-01
0	 7.562500000000000e+01	 6.000000000000002e+00	 6.416199999956822e-01
0	 7.562500000000000e+01	 6.250000000000002e+00	 6.800000000023353e-01
0	 7.562499999999999e+01	 6.500000000000002e+00	 7.183800000051375e-01
0	 7.562500000000000e+01	 6.750000000000002e+00	 7.567600000008665e-01
0	 7.562500000000000e+01	 7.000000000000001e+00	 7.951400000029603e-01
0	 7.562499999999999e+01	 7.250000000000001e+00	 8.335199999941014e-01
0	 7.562500000000000e+01	 7.500000000000000e+00	 8.719000000039221e-01
0	 7.625000000000000e+01	 5.000000000000000e+00	 4.864000000013747e-01
0	 7.625000000000001e+01	 5.250000000000001e+00	 5.251200000036941e-01
0	 7.625000000000000e+01	 5.500000000000002e+00	 5.638399999997710e-01
0	 7.624999999999999e+01	 5.750000000000000e+00	 6.025600000006859e-01
0	 7.625000000000000e+01	 6.000000000000001e+00	 6.412800000017534e-01
0	 7.625000000000001e+01	 6.250000000000002e+00	 6.799999999990265e-01
0	 7.625000000000001e+01	 6.500000000000002e+00	 7.187199999981179e-01
0	 7.624999999999999e+01	 6.750000000000001e+00	 7.574400000052897e-01
0	 7.625000000000000e+01	 7.000000000000003e+00	 7.961600000079997e-01
0	 7.625000000000000e+01	 7.250000000000004e+00	 8.348800000040734e-01
0	 7.625000000000000e+01	 7.499999999999999e+00	 8.735999999988306e-01
0	 7.687499999999999e+01	 5.000000000000001e+00	 4.849000000071158e-01
0	 7.687499999999999e+01	 5.250000000000001e+00	 5.239200000007296e-01
0	 7.687500000000000e+01	 5.500000000000000e+00	 5.629399999986950e-01
0	 7.687499999999999e+01	 5.750000000000001e+00	 6.019599999996330e-01
0	 7.687499999999999e+01	 6.000000000000000e+00	 6.409800000014451e-01
0	 7.687499999999999e+01	 6.250000000000000e+00	 6.799999999986055e-01
0	 7.687499999999999e+01	 6.500000000000001e+00	 7.190200000000669e-01
0	 7.687500000000000e+01	 6.750000000000002e+00	 7.580399999950969e-01
0	 7.687499999999999e+01	 7.000000000000002e+00	 7.970600000017922e-01
0	 7.687500000000000e+01	 7.250000000000001e+00	 8.360799999979280e-01
0	 7.687499999999999e+01	 7.499999999999999e+00	 8.750999999936229e-01
0	 7.749999999999999e+01	 5.000000000000000e+00	 4.836000000018714e-01
0	 7.750000000000000e+01	 5.250000000000001e+00	 5.228800000065811e-01
0	 7.749999999999999e+01	 5.500000000000000e+00	 5.621600000011987e-01
0	 7.749999999999997e+01	 5.750000000000000e+00	 6.014400000025343e-01
0	 7.750000000000000e+01	 6.000000000000001e+00	 6.407200000026768e-01
0	 7.749999999999999e+01	 6.250000000000000e+00	 6.799999999980852e-01
0	 7.749999999999999e+01	 6.500000000000003e+00	 7.192800000058812e-01
0	 7.749999999999999e+01	 6.750000000000002e+00	 7.585599999995419e-01
0	 7.750000000000000e+01	 7.000000000000003e+00	 7.978400000072982e-01
0	 7.750000000000000e+01	 7.250000000000002e+00	 8.371199999992028e-01
0	 7.749999999999999e+01	 7.500000000000000e+00	 8.763999999999328e-01
0	 7.812499999999997e+01	 5.000000000000000e+00	 4.825000000025170e-01
0	 7.812499999999997e+01	 5.250000000000000e+00	 5.220000000001592e-01
0	 7.812499999999999e+01	 5.500000000000001e+00	 5.615000000024202e-01
0	 7.812499999999999e+01	 5.750000000000001e+00	 6.010000000029359e-01
0	 7.812500000000000e+01	 6.000000000000001e+00	 6.404999999999565e-01
0	 7.812499999999997e+01	 6.250000000000001e+00	 6.800000000051365e-01
0	 7.812499999999997e+01	 6.500000000000001e+00	 7.194999999967423e-01
0	 7.812500000000000e+01	 6.750000000000002e+00	 7.590000000025755e-01
0	 7.812499999999999e+01	 7.000000000000000e+00	 7.984999999990805e-01
0	 7.812499999999997e+01	 7.250000000000002e+00	 8.379999999957687e-01
0	 7.812499999999997e+01	 7.500000000000001e+00	 8.775000000063928e-01
0	 7.874999999999999e+01	 5.000000000000000e+00	 4.816000000033682e-01
0	 7.874999999999997e+01	 5.249999999999999e+00	 5.212800000030868e-01
0	 7.874999999999999e+01	 5.500000000000001e+00	 5.609599999988659e-01
0	 7.874999999999999e+01	 5.750000000000000e+00	 6.006399999997355e-01
0	 7.874999999999997e+01	 6.000000000000000e+00	 6.403200000011697e-01
0	 7.874999999999997e+01	 6.250000000000001e+00	 6.799999999963092e-01
0	 7.874999999999999e+01	 6.500000000000001e+00	 7.196800000044411e-01
0	 7.874999999999999e+01	 6.750000000000000e+00	 7.593599999971858e-01
0	 7.874999999999999e+01	 7.000000000000002e+00	 7.990400000025073e-01
0	 7.874999999999997e+01	 7.250000000000001e+00	 8.387200000024402e-01
0	 7.874999999999999e+01	 7.500000000000000e+00	 8.784000000005677e-01
0	 7.937499999999999e+01	 5.000000000000000e+00	 4.808999999994511e-01
0	 7.937499999999997e+01	 5.249999999999999e+00	 5.207200000011322e-01
0	 7.937500000000000e+01	 5.500000000000000e+00	 5.605400000005193e-01
0	 7.937499999999999e+01	 5.750000000000001e+00	 6.003599999957262e-01
0	 7.937500000000000e+01	 6.000000000000003e+00	 6.401799999998830e-01
0	 7.937500000000000e+01	 6.250000000000002e+00	 6.799999999973715e-01
0	 7.937499999999997e+01	 6.500000000000001e+00	 7.198200000036574e-01
0	 7.937500000000000e+01	 6.750000000000002e+00	 7.596399999997063e-01
0	 7.937499999999999e+01	 7.000000000000002e+00	 7.994599999984003e-01
0	 7.937499999999999e+01	 7.250000000000002e+00	 8.392799999924888e-01
0	 7.937499999999999e+01	 7.500000000000000e+00	 8.791000000016428e-01
0	 7.999999999999997e+01	 5.000000000000000e+00	 4.803999999950293e-01
0	 8.000000000000000e+01	 5.250000000000001e+00	 5.203200000061285e-01
0	 7.999999999999997e+01	 5.500000000000000e+00	 5.602400000042481e-01
0	 7.999999999999999e+01	 5.750000000000001e+00	 6.001600000002136e-01
0	 7.999999999999997e+01	 6.000000000000001e+00	 6.400799999995984e-01
0	 7.999999999999999e+01	 6.250000000000001e+00	 6.800000000001781e-01
0	 8.000000000000000e+01	 6.500000000000004e+00	 7.199199999973871e-01
0	 7.999999999999999e+01	 6.750000000000001e+00	 7.598400000037903e-01
0	 7.999999999999999e+01	 7.000000000000002e+00	 7.997600000024203e-01
0	 7.999999999999999e+01	 7.250000000000003e+00	 8.396800000014080e-01
0	 7.999999999999997e+01	 7.500000000000000e+00	 8.796000000074856e-01
0	 8.062499999999997e+01	 5.000000000000000e+00	 4.800999999986287e-01
0	 8.062499999999997e+01	 5.250000000000002e+00	 5.200800000034823e-01
0	 8.062499999999997e+01	 5.500000000000001e+00	 5.600600000017907e-01
0	 8.062499999999997e+01	 5.750000000000001e+00	 6.000399999967805e-01
0	 8.062499999999997e+01	 6.000000000000002e+00	 6.400200000007031e-01
0	 8.062499999999997e+01	 6.250000000000001e+00	 6.800000000046189e-01
0	 8.062499999999999e+01	 6.500000000000001e+00	 7.199799999995095e-01
0	 8.062499999999997e+01	 6.750000000000001e+00	 7.599599999992098e-01
0	 8.062499999999997e+01	 7.000000000000001e+00	 7.999399999977895e-01
0	 8.062499999999999e+01	 7.250000000000002e+00	 8.399200000002909e-01
0	 8.062499999999997e+01	 7.500000000000000e+00	 8.799000000038862e-01
0	 8.125000000000000e+01	 5.000000000000000e+00	 4.800000000017235e-01
0	 8.125000000000000e+01	 5.250000000000000e+00	 5.200000000016188e-01
0	 8.125000000000000e+01	 5.500000000000001e+00	 5.600000000043792e-01
0	 8.125000000000001e+01	 5.750000000000002e+00	 6.000000000014440e-01
0	 8.125000000000000e+01	 6.000000000000001e+00	 6.400000000013505e-01
0	 8.125000000000001e+01	 6.250000000000001e+00	 6.800000000040881e-01
0	 8.125000000000000e+01	 6.500000000000001e+00	 7.200000000011640e-01
0	 8.125000000000000e+01	 6.750000000000002e+00	 7.599999999968191e-01
0	 8.125000000000001e+01	 7.000000000000003e+00	 8.000000000038199e-01
0	 8.125000000000000e+01	 7.250000000000002e+00	 8.399999999994635e-01
0	 8.125000000000000e+01	 7.500000000000000e+00	 8.800000000007913e-01
0	 7.500000000000000e+01	 7.500000000000000e+00	 8.700000000004594e-01
0	 7.500000000000001e+01	 7.750000000000001e+00	 8.822000000072124e-01
0	 7.500000000000000e+01	 8.000000000000002e+00	 8.944000000028041e-01
0	 7.500000000000000e+01	 8.250000000000002e+00	 9.065999999990026e-01
0	 7.500000000000000e+01	 8.500000000000000e+00	 9.187999999966223e-01
0	 7.500000000000000e+01	 8.750000000000000e+00	 9.310000000027686e-01
0	 7.500000000000000e+01	 9.000000000000004e+00	 9.432000000003881e-01
0	 7.500000000000001e+01	 9.250000000000005e+00	 9.553999999980771e-01
0	 7.500000000000000e+01	 9.500000000000000e+00	 9.676000000013117e-01
0	 7.500000000000000e+01	 9.750000000000002e+00	 9.798000000158470e-01
0	 7.500000000000000e+01	 1.000000000000000e+01	 9.920000000022356e-01
0	 7.562500000000000e+01	 7.500000000000000e+00	 8.719000000039221e-01
0	 7.562500000000000e+01	 7.750000000000000e+00	 8.833020000053698e-01
0	 7.562500000000001e+01	 8.000000000000002e+00	 8.947040000024449e-01
0	 7.562500000000000e+01	 8.250000000000000e+00	 9.061060000015522e-01
0	 7.562500000000000e+01	 8.499999999999998e+00	 9.175080000012823e-01
0	 7.562500000000000e+01	 8.750000000000000e+00	 9.289099999964393e-01
0	 7.562500000000000e+01	 9.000000000000002e+00	 9.403120000027049e-01
0	 7.562499999999999e+01	 9.250000000000000e+00	 9.517140000027516e-01
0	 7.562500000000000e+01	 9.500000000000002e+00	 9.631160000022726e-01
0	 7.562500000000001e+01	 9.750000000000004e+00	 9.745179999965701e-01
0	 7.562500000000000e+01	 1.000000000000000e+01	 9.859200000001064e-01
0	 7.625000000000000e+01	 7.499999999999999e+00	 8.735999999988306e-01
0	 7.624999999999997e+01	 7.749999999999998e+00	 8.842880000015086e-01
0	 7.624999999999999e+01	 8.000000000000002e+00	 8.949759999992032e-01
0	 7.625000000000000e+01	 8.250000000000004e+00	 9.056639999983629e-01
0	 7.625000000000000e+01	 8.500000000000000e+00	 9.163520000015741e-01
0	 7.625000000000000e+01	 8.750000000000002e+00	 9.270399999945059e-01
0	 7.625000000000000e+01	 9.000000000000002e+00	 9.377279999978513e-01
0	 7.625000000000000e+01	 9.250000000000004e+00	 9.484160000103425e-01
0	 7.624999999999999e+01	 9.500000000000002e+00	 9.591040000100128e-01
0	 7.624999999999999e+01	 9.750000000000002e+00	 9.697919999986852e-01
0	 7.624999999999999e+01	 1.000000000000000e+01	 9.804799999898254e-01
0	 7.687499999999999e+01	 7.499999999999999e+00	 8.750999999936229e-01
0	 7.687500000000001e+01	 7.750000000000001e+00	 8.851580000055603e-01
0	 7.687499999999999e+01	 8.000000000000000e+00	 8.952160000011924e-01
0	 7.687499999999997e+01	 8.250000000000002e+00	 9.052739999976503e-01
0	 7.687500000000000e+01	 8.500000000000000e+00	 9.153319999967597e-01
0	 7.687500000000000e+01	 8.750000000000000e+00	 9.253899999941114e-01
0	 7.687500000000001e+01	 9.000000000000002e+00	 9.354480000046104e-01
0	 7.687499999999999e+01	 9.250000000000000e+00	 9.455060000046707e-01
0	 7.687500000000000e+01	 9.500000000000004e+00	 9.555639999949724e-01
0	 7.687500000000000e+01	 9.750000000000004e+00	 9.656220000092240e-01
0	 7.687499999999999e+01	 1.000000000000000e+01	 9.756799999941277e-01
0	 7.749999999999999e+01	 7.500000000000000e+00	 8.763999999999328e-01
0	 7.750000000000000e+01	 7.750000000000000e+00	 8.859119999998546e-01
0	 7.749999999999999e+01	 7.999999999999998e+00	 8.954240000004854e-01
0	 7.750000000000000e+01	 8.250000000000000e+00	 9.049360000050256e-01
0	 7.749999999999999e+01	 8.500000000000000e+00	 9.144480000032117e-01
0	 7.750000000000000e+01	 8.750000000000002e+00	 9.239599999987088e-01
0	 7.750000000000000e+01	 9.000000000000002e+00	 9.334720000064665e-01
0	 7.749999999999999e+01	 9.250000000000000e+00	 9.429840000048183e-01
0	 7.750000000000001e+01	 9.500000000000004e+00	 9.524960000140769e-01
0	 7.749999999999999e+01	 9.750000000000002e+00	 9.620079999963053e-01
0	 7.750000000000000e+01	 1.000000000000000e+01	 9.715200000073306e-01
0	 7.812499999999997e+01	 7.500000000000001e+00	 8.775000000063928e-01
0	 7.812499999999999e+01	 7.750000000000001e+00	 8.865499999978521e-01
0	 7.812499999999999e+01	 8.000000000000000e+00	 8.956000000015336e-01
0	 7.812500000000000e+01	 8.249999999999998e+00	 9.046500000055648e-01
0	 7.812499999999999e+01	 8.500000000000002e+00	 9.136999999981298e-01
0	 7.812499999999999e+01	 8.750000000000002e+00	 9.227500000079082e-01
0	 7.812499999999999e+01	 9.000000000000002e+00	 9.318000000050124e-01
0	 7.812500000000000e+01	 9.250000000000002e+00	 9.408500000127961e-01
0	 7.812499999999999e+01	 9.500000000000002e+00	 9.498999999991270e-01
0	 7.812499999999999e+01	 9.750000000000002e+00	 9.589499999815275e-01
0	 7.812499999999999e+01	 1.000000000000000e+01	 9.679999999846702e-01
0	 7.874999999999999e+01	 7.500000000000000e+00	 8.784000000005677e-01
0	 7.874999999999999e+01	 7.749999999999997e+00	 8.870720000008128e-01
0	 7.874999999999999e+01	 8.000000000000002e+00	 8.957440000010308e-01
0	 7.874999999999997e+01	 8.249999999999998e+00	 9.044159999959437e-01
0	 7.874999999999999e+01	 8.500000000000002e+00	 9.130880000042950e-01
0	 7.874999999999999e+01	 8.750000000000002e+00	 9.217599999971173e-01
0	 7.874999999999999e+01	 9.000000000000002e+00	 9.304320000137550e-01
0	 7.875000000000001e+01	 9.250000000000002e+00	 9.391039999940675e-01
0	 7.874999999999999e+01	 9.500000000000002e+00	 9.477760000055433e-01
0	 7.874999999999997e+01	 9.750000000000000e+00	 9.564480000026883e-01
0	 7.874999999999999e+01	 9.999999999999998e+00	 9.651200000035945e-01
0	 7.937499999999999e+01	 7.500000000000000e+00	 8.791000000016428e-01
0	 7.937499999999999e+01	 7.750000000000001e+00	 8.874780000066054e-01
0	 7.937499999999999e+01	 8.000000000000000e+00	 8.958560000018558e-01
0	 7.937499999999999e+01	 8.250000000000002e+00	 9.042339999979369e-01
0	 7.937499999999999e+01	 8.500000000000004e+00	 9.126119999962157e-01
0	 7.937500000000000e+01	 8.750000000000002e+00	 9.209900000009241e-01
0	 7.937499999999996e+01	 8.999999999999998e+00	 9.293680000019846e-01
0	 7.937500000000000e+01	 9.250000000000002e+00	 9.377459999967821e-01
0	 7.937500000000000e+01	 9.500000000000002e+00	 9.461239999911497e-01
0	 7.937499999999999e+01	 9.750000000000004e+00	 9.545020000018664e-01
0	 7.937500000000000e+01	 1.000000000000000e+01	 9.628800000001547e-01
0	 7.999999999999997e+01	 7.500000000000000e+00	 8.796000000074856e-01
0	 7.999999999999997e+01	 7.750000000000000e+00	 8.877680000042888e-01
0	 7.999999999999999e+01	 8.000000000000002e+00	 8.959360000005664e-01
0	 8.000000000000000e+01	 8.250000000000002e+00	 9.041040000008506e-01
0	 7.999999999999999e+01	 8.500000000000000e+00	 9.122719999996896e-01
0	 7.999999999999997e+01	 8.750000000000002e+00	 9.204400000022602e-01
0	 7.999999999999999e+01	 9.000000000000002e+00	 9.286080000027103e-01
0	 7.999999999999999e+01	 9.250000000000002e+00	 9.367760000070654e-01
0	 7.999999999999997e+01	 9.500000000000000e+00	 9.449439999997050e-01
0	 7.999999999999997e+01	 9.750000000000002e+00	 9.531120000019333e-01
0	 7.999999999999999e+01	 1.000000000000000e+01	 9.612799999899835e-01
0	 8.062499999999997e+01	 7.500000000000000e+00	 8.799000000038862e-01
0	 8.062499999999997e+01	 7.750000000000000e+00	 8.879420000035497e-01
0	 8.062499999999997e+01	 8.000000000000000e+00	 8.959839999979806e-01
0	 8.062499999999999e+01	 8.250000000000002e+00	 9.040260000011596e-01
0	 8.062499999999997e+01	 8.500000000000000e+00	 9.120679999910093e-01
0	 8.062499999999999e+01	 8.750000000000000e+00	 9.201100000005632e-01
0	 8.062499999999999e+01	 9.000000000000002e+00	 9.281520000001819e-01
0	 8.062499999999999e+01	 9.250000000000000e+00	 9.361940000019333e-01
0	 8.062499999999997e+01	 9.500000000000002e+00	 9.442360000014977e-01
0	 8.062499999999999e+01	 9.750000000000000e+00	 9.522779999940664e-01
0	 8.062499999999997e+01	 1.000000000000000e+01	 9.603199999958175e-01
0	 8.125000000000000e+01	 7.500000000000000e+00	 8.800000000007913e-01
0	 8.125000000000001e+01	 7.750000000000001e+00	 8.880000000018983e-01
0	 8.125000000000000e+01	 8.000000000000002e+00	 8.960000000044487e-01
0	 8.125000000000000e+01	 8.250000000000002e+00	 9.039999999970404e-01
0	 8.125000000000000e+01	 8.500000000000000e+00	 9.119999999995797e-01
0	 8.125000000000000e+01	 8.750000000000000e+00	 9.200000000049386e-01
0	 8.125000000000000e+01	 9.000000000000004e+00	 9.279999999989740e-01
0	 8.125000000000001e+01	 9.250000000000005e+00	 9.359999999958517e-01
0	 8.125000000000000e+01	 9.500000000000000e+00	 9.439999999983683e-01
0	 8.125000000000000e+01	 9.750000000000002e+00	 9.520000000122317e-01
0	 8.125000000000000e+01	 1.000000000000000e+01	 9.599999999977626e-01
0	 8.125000000000000e+01	 0.000000000000000e+00	 0.000000000000000e+00
0	 8.125000000000000e+01	 2.500000000000000e-01	 1.600000000214517e-02
0	 8.125000000000000e+01	 5.000000000000000e-01	 3.199999999508252e-02
0	 8.125000000000000e+01	 7.500000000000001e-01	 4.800000000242906e-02
0	 8.125000000000000e+01	 1.000000000000000e+00	 6.400000000041929e-02
0	 8.125000000000000e+01	 1.250000000000000e+00	 7.999999999839247e-02
0	 8.125000000000000e+01	 1.500000000000000e+00	 9.599999999921918e-02
0	 8.125000000000000e+01	 1.750000000000000e+00	 1.120000000014329e-01
0	 8.125000000000000e+01	 2.000000000000000e+00	 1.279999999979964e-01
0	 8.125000000000000e+01	 2.250000000000000e+00	 1.440000000058945e-01
0	 8.125000000000000e+01	 2.500000000000000e+00	 1.599999999996271e-01
0	 8.187500000000000e+01	 0.000000000000000e+00	 0.000000000000000e+00
0	 8.187500000000000e+01	 2.499999999999999e-01	 1.597999998744268e-02
0	 8.187499999999997e+01	 4.999999999999999e-01	 3.195999999471185e-02
0	 8.187499999999999e+01	 7.500000000000001e-01	 4.794000000018431e-02
0	 8.187499999999999e+01	 1.000000000000000e+00	 6.392000000074126e-02
0	 8.187500000000001e+01	 1.250000000000000e+00	 7.989999999795661e-02
0	 8.187500000000000e+01	 1.500000000000000e+00	 9.587999999534469e-02
0	 8.187499999999999e+01	 1.750000000000000e+00	 1.118599999976988e-01
0	 8.187500000000000e+01	 2.000000000000000e+00	 1.278399999961473e-01
0	 8.187500000000000e+01	 2.250000000000000e+00	 1.438199999974634e-01
0	 8.187500000000000e+01	 2.500000000000000e+00	 1.598000000015976e-01
0	 8.249999999999999e+01	 0.000000000000000e+00	 0.000000000000000e+00
0	 8.250000000000001e+01	 2.500000000000000e-01	 1.592000001712449e-02
0	 8.250000000000000e+01	 5.000000000000000e-01	 3.184000000382551e-02
0	 8.250000000000000e+01	 7.500000000000001e-01	 4.776000000577921e-02
0	 8.249999999999999e+01	 1.000000000000000e+00	 6.368000000549412e-02
0	 8.250000000000000e+01	 1.250000000000000e+00	 7.959999999807012e-02
0	 8.250000000000000e+01	 1.500000000000000e+00	 9.552000000224793e-02
0	 8.250000000000000e+01	 1.750000000000000e+00	 1.114399999932369e-01
0	 8.250000000000003e+01	 2.000000000000000e+00	 1.273600000047103e-01
0	 8.249999999999999e+01	 2.250000000000000e+00	 1.432800000005236e-01
0	 8.250000000000001e+01	 2.500000000000000e+00	 1.592000000018246e-01
0	 8.312499999999999e+01	 0.000000000000000e+00	 0.000000000000000e+00
0	 8.312500000000000e+01	 2.500000000000000e-01	 1.581999999710213e-02
0	 8.312500000000001e+01	 5.000000000000000e-01	 3.164000000176467e-02
0	 8.312500000000000e+01	 7.500000000000002e-01	 4.745999999465794e-02
0	 8.312500000000001e+01	 1.000000000000000e+00	 6.327999999724210e-02
0	 8.312499999999999e+01	 1.250000000000000e+00	 7.910000000013187e-02
0	 8.312499999999997e+01	 1.500000000000000e+00	 9.491999999523031e-02
0	 8.312499999999999e+01	 1.750000000000000e+00	 1.107399999991543e-01
0	 8.312499999999999e+01	 2.000000000000000e+00	 1.265600000014361e-01
0	 8.312500000000000e+01	 2.250000000000000e+00	 1.423800000011665e-01
0	 8.312499999999999e+01	 2.500000000000000e+00	 1.582000000002637e-01
0	 8.374999999999999e+01	 0.000000000000000e+00	 0.000000000000000e+00
0	 8.374999999999996e+01	 2.500000000000000e-01	 1.568000000824685e-02
0	 8.374999999999997e+01	 4.999999999999999e-01	 3.136000000502227e-02
0	 8.374999999999999e+01	 7.500000000000000e-01	 4.704000000023737e-02
0	 8.375000000000000e+01	 1.000000000000000e+00	 6.271999999102429e-02
0	 8.375000000000000e+01	 1.250000000000000e+00	 7.839999999568190e-02
0	 8.375000000000000e+01	 1.500000000000000e+00	 9.408000000566948e-02
0	 8.375000000000000e+01	 1.750000000000000e+00	 1.097600000040303e-01
0	 8.374999999999999e+01	 2.000000000000000e+00	 1.254399999993597e-01
0	 8.374999999999999e+01	 2.250000000000000e+00	 1.411200000013811e-01
0	 8.374999999999999e+01	 2.500000000000000e+00	 1.567999999970482e-01
0	 8.437499999999999e+01	 0.000000000000000e+00	 0.000000000000000e+00
0	 8.437499999999997e+01	 2.499999999999999e-01	 1.550000000605830e-02
0	 8.437500000000000e+01	 5.000000000000001e-01	 3.100000000599788e-02
0	 8.437499999999999e+01	 7.500000000000000e-01	 4.649999999661741e-02
0	 8.437499999999999e+01	 9.999999999999998e-01	 6.199999999436820e-02
0	 8.437499999999999e+01	 1.250000000000000e+00	 7.749999999617785e-02
0	 8.437499999999997e+01	 1.500000000000000e+00	 9.299999999822471e-02
0	 8.437500000000000e+01	 1.750000000000000e+00	 1.084999999986313e-01
0	 8.437499999999999e+01	 2.000000000000000e+00	 1.239999999988877e-01
0	 8.437500000000001e+01	 2.250000000000000e+00	 1.395000000051874e-01
0	 8.437499999999999e+01	 2.500000000000000e+00	 1.549999999980401e-01
0	 8.499999999999999e+01	 0.000000000000000e+00	 0.000000000000000e+00
0	 8.499999999999999e+01	 2.500000000000000e-01	 1.528000001294743e-02
0	 8.499999999999999e+01	 5.000000000000000e-01	 3.055999999247118e-02
0	 8.499999999999996e+01	 7.500000000000002e-01	 4.584000000001782e-02
0	 8.499999999999999e+01	 1.000000000000000e+00	 6.111999999441001e-02
0	 8.500000000000000e+01	 1.250000000000000e+00	 7.640000000108671e-02
0	 8.499999999999999e+01	 1.500000000000000e+00	 9.168000000065551e-02
0	 8.499999999999999e+01	 1.750000000000000e+00	 1.069600000036432e-01
0	 8.499999999999996e+01	 1.999999999999999e+00	 1.222400000031525e-01
0	 8.500000000000000e+01	 2.250000000000000e+00	 1.375199999955637e-01
0	 8.499999999999999e+01	 2.500000000000000e+00	 1.528000000021734e-01
0	 8.562499999999999e+01	 0.000000000000000e+00	 0.000000000000000e+00
0	 8.562499999999999e+01	 2.500000000000000e-01	 1.502000000993380e-02
0	 8.562500000000000e+01	 5.000000000000001e-01	 3.004000000323970e-02
0	 8.562499999999999e+01	 7.500000000000000e-01	 4.505999999239241e-02
0	 8.562499999999999e+01	 1.000000000000000e+00	 6.007999999673669e-02
0	 8.562500000000000e+01	 1.250000000000000e+00	 7.510000000081621e-02
0	 8.562499999999999e+01	 1.500000000000000e+00	 9.012000000134104e-02
0	 8.562499999999999e+01	 1.750000000000000e+00	 1.051400000008527e-01
0	 8.562499999999999e+01	 2.000000000000000e+00	 1.201599999973269e-01
0	 8.562499999999999e+01	 2.250000000000000e+00	 1.351800000023141e-01
0	 8.562499999999997e+01	 2.500000000000000e+00	 1.501999999959480e-01
0	 8.624999999999997e+01	 0.000000000000000e+00	 0.000000000000000e+00
0	 8.624999999999997e+01	 2.499999999999999e-01	 1.472000000503883e-02
0	 8.625000000000000e+01	 5.000000000000001e-01	 2.944000001021577e-02
0	 8.624999999999999e+01	 7.500000000000002e-01	 4.415999999614706e-02
0	 8.624999999999997e+01	 1.000000000000000e+00	 5.887999999404617e-02
0	 8.624999999999996e+01	 1.250000000000000e+00	 7.360000000034006e-02
0	 8.624999999999999e+01	 1.500000000000000e+00	 8.832000000061024e-02
0	 8.624999999999999e+01	 1.750000000000000e+00	 1.030400000022324e-01
0	 8.624999999999999e+01	 2.000000000000000e+00	 1.177599999891837e-01
0	 8.624999999999999e+01	 2.250000000000000e+00	 1.324799999991882e-01
0	 8.624999999999999e+01	 2.500000000000000e+00	 1.471999999949958e-01
0	 8.687499999999999e+01	 0.000000000000000e+00	 0.000000000000000e+00
0	 8.687499999999999e+01	 2.500000000000000e-01	 1.438000000313192e-02
0	 8.687499999999999e+01	 5.000000000000000e-01	 2.876000000626722e-02
0	 8.687500000000000e+01	 7.500000000000001e-01	 4.313999999538880e-02
0	 8.687499999999996e+01	 9.999999999999998e-01	 5.751999999574679e-02
0	 8.687499999999999e+01	 1.250000000000000e+00	 7.189999999752672e-02
0	 8.687499999999997e+01	 1.500000000000000e+00	 8.627999999646363e-02
0	 8.687499999999997e+01	 1.750000000000000e+00	 1.006599999954005e-01
0	 8.687499999999999e+01	 2.000000000000000e+00	 1.150399999989367e-01
0	 8.687499999999997e+01	 2.250000000000000e+00	 1.294199999982835e-01
0	 8.687499999999999e+01	 2.500000000000000e+00	 1.437999999950535e-01
0	 8.750000000000000e+01	 0.000000000000000e+00	 0.000000000000000e+00
0	 8.750000000000000e+01	 2.500000000000000e-01	 1.399999999652594e-02
0	 8.750000000000000e+01	 5.000000000000000e-01	 2.799999999521957e-02
0	 8.750000000000000e+01	 7.500000000000001e-01	 4.199999999627865e-02
0	 8.750000000000000e+01	 1.000000000000000e+00	 5.600000000356432e-02
0	 8.750000000000000e+01	 1.250000000000000e+00	 6.999999999948160e-02
0	 8.750000000000000e+01	 1.500000000000000e+00	 8.399999999539948e-02
0	 8.750000000000000e+01	 1.750000000000000e+00	 9.799999999984205e-02
0	 8.750000000000000e+01	 2.000000000000000e+00	 1.119999999986021e-01
0	 8.750000000000000e+01	 2.250000000000000e+00	 1.260000000087277e-01
0	 8.750000000000000e+01	 2.500000000000000e+00	 1.399999999932788e-01
0	 8.125000000000000e+01	 2.500000000000000e+00	 1.599999999996271e-01
0	 8.125000000000000e+01	 2.750000000000000e+00	 1.920000000023123e-01
0	 8.125000000000000e+01	 3.000000000000001e+00	 2.239999999993358e-01
0	 8.125000000000001e+01	 3.250000000000001e+00	 2.560000000030982e-01
0	 8.125000000000000e+01	 3.500000000000001e+00	 2.879999999976235e-01
0	 8.125000000000001e+01	 3.750000000000001e+00	 3.200000000035061e-01
0	 8.125000000000000e+01	 4.000000000000001e+00	 3.519999999980427e-01
0	 8.125000000000000e+01	 4.250000000000002e+00	 3.839999999968427e-01
0	 8.125000000000001e+01	 4.500000000000003e+00	 4.160000000013042e-01
0	 8.125000000000000e+01	 4.750000000000002e+00	 4.480000000029350e-01
0	 8.125000000000000e+01	 5.000000000000000e+00	 4.800000000017235e-01
0	 8.187500000000000e+01	 2.500000000000000e+00	 1.598000000015976e-01
0	 8.187500000000001e+01	 2.750000000000000e+00	 1.918399999980550e-01
0	 8.187499999999999e+01	 3.000000000000000e+00	 2.238800000018457e-01
0	 8.187500000000000e+01	 3.250000000000001e+00	 2.559200000009046e-01
0	 8.187500000000001e+01	 3.500000000000001e+00	 2.879599999992571e-01
0	 8.187500000000001e+01	 3.750000000000001e+00	 3.199999999958377e-01
0	 8.187500000000001e+01	 4.000000000000002e+00	 3.520399999956267e-01
0	 8.187500000000000e+01	 4.250000000000002e+00	 3.840799999953712e-01
0	 8.187500000000000e+01	 4.500000000000001e+00	 4.161200000014824e-01
0	 8.187499999999999e+01	 4.750000000000001e+00	 4.481600000080262e-01
0	 8.187500000000000e+01	 5.000000000000000e+00	 4.802000000106777e-01
0	 8.250000000000001e+01	 2.500000000000000e+00	 1.592000000018246e-01
0	 8.250000000000000e+01	 2.750000000000000e+00	 1.913600000078551e-01
0	 8.250000000000000e+01	 3.000000000000001e+00	 2.235199999988920e-01
0	 8.250000000000000e+01	 3.250000000000000e+00	 2.556800000014292e-01
0	 8.250000000000001e+01	 3.500000000000001e+00	 2.878400000027365e-01
0	 8.250000000000001e+01	 3.750000000000001e+00	 3.200000000028714e-01
0	 8.250000000000000e+01	 4.000000000000002e+00	 3.521600000021390e-01
0	 8.250000000000001e+01	 4.250000000000001e+00	 3.843200000093455e-01
0	 8.250000000000000e+01	 4.500000000000001e+00	 4.164800000006964e-01
0	 8.250000000000000e+01	 4.750000000000003e+00	 4.486400000056489e-01
0	 8.250000000000001e+01	 5.000000000000000e+00	 4.808000000005919e-01
0	 8.312499999999999e+01	 2.500000000000000e+00	 1.582000000002637e-01
0	 8.312499999999999e+01	 2.750000000000000e+00	 1.905600000055974e-01
0	 8.312500000000000e+01	 3.000000000000000e+00	 2.229200000007626e-01
0	 8.312499999999999e+01	 3.250000000000001e+00	 2.552800000010337e-01
0	 8.312499999999999e+01	 3.500000000000001e+00	 2.876400000008927e-01
0	 8.312500000000000e+01	 3.750000000000001e+00	 3.200000000022906e-01
0	 8.312499999999999e+01	 4.000000000000001e+00	 3.523600000044570e-01
0	 8.312500000000000e+01	 4.250000000000001e+00	 3.847199999992067e-01
0	 8.312499999999999e+01	 4.500000000000002e+00	 4.170800000046880e-01
0	 8.312499999999999e+01	 4.750000000000002e+00	 4.494399999976182e-01
0	 8.312499999999999e+01	 5.000000000000001e+00	 4.818000000025081e-01
0	 8.374999999999999e+01	 2.500000000000000e+00	 1.567999999970482e-01
0	 8.375000000000000e+01	 2.750000000000000e+00	 1.894400000004290e-01
0	 8.374999999999999e+01	 3.000000000000000e+00	 2.220799999958223e-01
0	 8.375000000000000e+01	 3.250000000000000e+00	 2.547200000010173e-01
0	 8.375000000000000e+01	 3.500000000000001e+00	 2.873600000010155e-01
0	 8.374999999999997e+01	 3.750000000000000e+00	 3.200000000010306e-01
0	 8.375000000000001e+01	 4.000000000000002e+00	 3.526399999913480e-01
0	 8.375000000000000e+01	 4.250000000000002e+00	 3.852800000036500e-01
0	 8.375000000000000e+01	 4.500000000000002e+00	 4.179200000045428e-01
0	 8.375000000000000e+01	 4.750000000000002e+00	 4.505600000022997e-01
0	 8.374999999999999e+01	 5.000000000000000e+00	 4.832000000114078e-01
0	 8.437499999999999e+01	 2.500000000000000e+00	 1.549999999980401e-01
0	 8.437499999999999e+01	 2.750000000000000e+00	 1.879999999993570e-01
0	 8.437499999999997e+01	 3.000000000000000e+00	 2.209999999968581e-01
0	 8.437499999999997e+01	 3.250000000000001e+00	 2.539999999972695e-01
0	 8.437500000000000e+01	 3.500000000000001e+00	 2.870000000003675e-01
0	 8.437499999999999e+01	 3.750000000000001e+00	 3.200000000035175e-01
0	 8.437499999999999e+01	 4.000000000000002e+00	 3.530000000004933e-01
0	 8.437500000000000e+01	 4.250000000000002e+00	 3.860000000014588e-01
0	 8.437499999999999e+01	 4.500000000000002e+00	 4.190000000086393e-01
0	 8.437499999999999e+01	 4.750000000000003e+00	 4.520000000053567e-01
0	 8.437499999999999e+01	 5.000000000000000e+00	 4.850000000089950e-01
0	 8.499999999999999e+01	 2.500000000000000e+00	 1.528000000021734e-01
0	 8.499999999999999e+01	 2.750000000000000e+00	 1.862399999959333e-01
0	 8.500000000000000e+01	 3.000000000000001e+00	 2.196799999999762e-01
0	 8.499999999999997e+01	 3.250000000000000e+00	 2.531200000007383e-01
0	 8.499999999999999e+01	 3.500000000000000e+00	 2.865599999967711e-01
0	 8.500000000000000e+01	 3.750000000000001e+00	 3.200000000013883e-01
0	 8.499999999999999e+01	 4.000000000000001e+00	 3.534400000062725e-01
0	 8.499999999999999e+01	 4.250000000000002e+00	 3.868800000006470e-01
0	 8.500000000000000e+01	 4.500000000000002e+00	 4.203199999977870e-01
0	 8.499999999999999e+01	 4.750000000000002e+00	 4.537600000071803e-01
0	 8.499999999999999e+01	 5.000000000000000e+00	 4.872000000020194e-01
0	 8.562499999999997e+01	 2.500000000000000e+00	 1.501999999959480e-01
0	 8.562499999999997e+01	 2.750000000000000e+00	 1.841600000012723e-01
0	 8.562500000000000e+01	 3.000000000000001e+00	 2.181200000000343e-01
0	 8.562499999999997e+01	 3.250000000000000e+00	 2.520800000034701e-01
0	 8.562500000000000e+01	 3.500000000000001e+00	 2.860400000017213e-01
0	 8.562500000000000e+01	 3.750000000000002e+00	 3.200000000045964e-01
0	 8.562499999999999e+01	 4.000000000000002e+00	 3.539599999985523e-01
0	 8.562500000000000e+01	 4.250000000000003e+00	 3.879199999971757e-01
0	 8.562499999999999e+01	 4.500000000000002e+00	 4.218800000041091e-01
0	 8.562500000000001e+01	 4.750000000000002e+00	 4.558400000092812e-01
0	 8.562499999999997e+01	 5.000000000000000e+00	 4.898000000054025e-01
0	 8.624999999999999e+01	 2.500000000000000e+00	 1.471999999949958e-01
0	 8.624999999999999e+01	 2.750000000000000e+00	 1.817600000011988e-01
0	 8.624999999999997e+01	 3.000000000000000e+00	 2.163199999986759e-01
0	 8.624999999999999e+01	 3.250000000000000e+00	 2.508799999991282e-01
0	 8.625000000000000e+01	 3.500000000000001e+00	 2.854399999984294e-01
0	 8.624999999999999e+01	 3.750000000000001e+00	 3.200000000024344e-01
0	 8.625000000000000e+01	 4.000000000000003e+00	 3.545600000009585e-01
0	 8.624999999999997e+01	 4.250000000000001e+00	 3.891199999973193e-01
0	 8.624999999999997e+01	 4.500000000000002e+00	 4.236800000001040e-01
0	 8.624999999999997e+01	 4.750000000000002e+00	 4.582400000032322e-01
0	 8.624999999999999e+01	 5.000000000000000e+00	 4.928000000035127e-01
0	 8.687499999999999e+01	 2.500000000000000e+00	 1.437999999950535e-01
0	 8.687500000000000e+01	 2.750000000000001e+00	 1.790399999939097e-01
0	 8.687499999999997e+01	 3.000000000000000e+00	 2.142799999933119e-01
0	 8.687499999999996e+01	 3.250000000000000e+00	 2.495199999975489e-01
0	 8.687499999999999e+01	 3.500000000000001e+00	 2.847600000057744e-01
0	 8.687499999999997e+01	 3.750000000000001e+00	 3.199999999969563e-01
0	 8.687499999999999e+01	 4.000000000000002e+00	 3.552400000046385e-01
0	 8.687500000000000e+01	 4.250000000000001e+00	 3.904800000015047e-01
0	 8.687499999999999e+01	 4.500000000000002e+00	 4.257200000058071e-01
0	 8.687499999999999e+01	 4.750000000000002e+00	 4.609600000083509e-01
0	 8.687499999999999e+01	 5.000000000000000e+00	 4.962000000034548e-01
0	 8.750000000000000e+01	 2.500000000000000e+00	 1.399999999932788e-01
0	 8.750000000000000e+01	 2.750000000000000e+00	 1.759999999880101e-01
0	 8.750000000000000e+01	 3.000000000000001e+00	 2.119999999997898e-01
0	 8.750000000000001e+01	 3.250000000000001e+00	 2.480000000034008e-01
0	 8.750000000000000e+01	 3.500000000000001e+00	 2.839999999949334e-01
0	 8.750000000000001e+01	 3.750000000000001e+00	 3.199999999992542e-01
0	 8.750000000000000e+01	 4.000000000000001e+00	 3.559999999964709e-01
0	 8.749999999999999e+01	 4.250000000000002e+00	 3.920000000050544e-01
0	 8.750000000000001e+01	 4.500000000000003e+00	 4.279999999965879e-01
0	 8.750000000000000e+01	 4.750000000000002e+00	 4.639999999994884e-01
0	 8.750000000000000e+01	 5.000000000000000e+00	 5.000000000052297e-01
0	 8.125000000000000e+01	 5.000000000000000e+00	 4.800000000017235e-01
0	 8.125000000000000e+01	 5.250000000000000e+00	 5.200000000016188e-01
0	 8.125000000000000e+01	 5.500000000000001e+00	 5.600000000043792e-01
0	 8.125000000000001e+01	 5.750000000000002e+00	 6.000000000014440e-01
0	 8.125000000000000e+01	 6.000000000000001e+00	 6.400000000013505e-01
0	 8.125000000000001e+01	 6.250000000000001e+00	 6.800000000040881e-01
0	 8.125000000000000e+01	 6.500000000000001e+00	 7.200000000011640e-01
0	 8.125000000000000e+01	 6.750000000000002e+00	 7.599999999968191e-01
0	 8.125000000000001e+01	 7.000000000000003e+00	 8.000000000038199e-01
0	 8.125000000000000e+01	 7.250000000000002e+00	 8.399999999994635e-01
0	 8.125000000000000e+01	 7.500000000000000e+00	 8.800000000007913e-01
0	 8.187500000000000e+01	 5.000000000000000e+00	 4.802000000106777e-01
0	 8.187500000000001e+01	 5.250000000000000e+00	 5.201800000020121e-01
0	 8.187499999999999e+01	 5.500000000000001e+00	 5.601600000008130e-01
0	 8.187500000000000e+01	 5.750000000000000e+00	 6.001400000047521e-01
0	 8.187500000000001e+01	 6.000000000000002e+00	 6.401200000009237e-01
0	 8.187500000000001e+01	 6.250000000000002e+00	 6.800999999981214e-01
0	 8.187500000000001e+01	 6.500000000000002e+00	 7.200799999999703e-01
0	 8.187500000000000e+01	 6.750000000000002e+00	 7.600599999989548e-01
0	 8.187500000000000e+01	 7.000000000000001e+00	 8.000400000043066e-01
0	 8.187499999999999e+01	 7.250000000000001e+00	 8.400200000042953e-01
0	 8.187500000000000e+01	 7.500000000000000e+00	 8.799999999947958e-01
0	 8.250000000000001e+01	 5.000000000000000e+00	 4.808000000005919e-01
0	 8.250000000000000e+01	 5.250000000000001e+00	 5.207200000076451e-01
0	 8.250000000000000e+01	 5.500000000000002e+00	 5.606400000002373e-01
0	 8.250000000000000e+01	 5.750000000000000e+00	 6.005600000018875e-01
0	 8.250000000000001e+01	 6.000000000000001e+00	 6.404800000024853e-01
0	 8.250000000000001e+01	 6.250000000000002e+00	 6.804000000045750e-01
0	 8.250000000000000e+01	 6.500000000000002e+00	 7.203200000044657e-01
0	 8.250000000000001e+01	 6.750000000000001e+00	 7.602400000066996e-01
0	 8.250000000000000e+01	 7.000000000000003e+00	 8.001600000016038e-01
0	 8.250000000000000e+01	 7.250000000000004e+00	 8.400800000039820e-01
0	 8.250000000000001e+01	 7.499999999999999e+00	 8.799999999995476e-01
0	 8.312499999999999e+01	 5.000000000000001e+00	 4.818000000025081e-01
0	 8.312499999999999e+01	 5.250000000000001e+00	 5.216200000064243e-01
0	 8.312500000000000e+01	 5.500000000000000e+00	 5.614400000060341e-01
0	 8.312499999999999e+01	 5.750000000000001e+00	 6.012600000049321e-01
0	 8.312499999999999e+01	 6.000000000000000e+00	 6.410800000042173e-01
0	 8.312500000000000e+01	 6.250000000000000e+00	 6.809000000011336e-01
0	 8.312499999999999e+01	 6.500000000000001e+00	 7.207200000043246e-01
0	 8.312500000000000e+01	 6.750000000000002e+00	 7.605400000031193e-01
0	 8.312499999999999e+01	 7.000000000000002e+00	 8.003600000037634e-01
0	 8.312499999999999e+01	 7.250000000000001e+00	 8.401799999978962e-01
0	 8.312499999999999e+01	 7.499999999999999e+00	 8.800000000039890e-01
0	 8.374999999999999e+01	 5.000000000000000e+00	 4.832000000114078e-01
0	 8.375000000000000e+01	 5.250000000000001e+00	 5.228800000098399e-01
0	 8.374999999999999e+01	 5.500000000000000e+00	 5.625599999995736e-01
0	 8.375000000000000e+01	 5.750000000000000e+00	 6.022400000049708e-01
0	 8.375000000000000e+01	 6.000000000000001e+00	 6.419200000087243e-01
0	 8.374999999999997e+01	 6.250000000000000e+00	 6.816000000032573e-01
0	 8.375000000000001e+01	 6.500000000000003e+00	 7.212799999941325e-01
0	 8.375000000000000e+01	 6.750000000000002e+00	 7.609600000016630e-01
0	 8.375000000000000e+01	 7.000000000000003e+00	 8.006400000063113e-01
0	 8.375000000000000e+01	 7.250000000000002e+00	 8.403200000032045e-01
0	 8.374999999999999e+01	 7.500000000000000e+00	 8.799999999958175e-01
0	 8.437499999999999e+01	 5.000000000000000e+00	 4.850000000089950e-01
0	 8.437499999999999e+01	 5.250000000000000e+00	 5.244999999995852e-01
0	 8.437499999999997e+01	 5.500000000000001e+00	 5.640000000012813e-01
0	 8.437499999999997e+01	 5.750000000000001e+00	 6.035000000048216e-01
0	 8.437500000000000e+01	 6.000000000000001e+00	 6.430000000050091e-01
0	 8.437499999999999e+01	 6.250000000000001e+00	 6.825000000013403e-01
0	 8.437499999999999e+01	 6.500000000000001e+00	 7.220000000003794e-01
0	 8.437500000000000e+01	 6.750000000000002e+00	 7.615000000034081e-01
0	 8.437499999999999e+01	 7.000000000000000e+00	 8.010000000112307e-01
0	 8.437499999999999e+01	 7.250000000000002e+00	 8.405000000021953e-01
0	 8.437499999999999e+01	 7.500000000000001e+00	 8.799999999993703e-01
0	 8.499999999999999e+01	 5.000000000000000e+00	 4.872000000020194e-01
0	 8.499999999999999e+01	 5.249999999999999e+00	 5.264800000023865e-01
0	 8.500000000000000e+01	 5.500000000000001e+00	 5.657600000037994e-01
0	 8.499999999999997e+01	 5.750000000000000e+00	 6.050400000028200e-01
0	 8.499999999999999e+01	 6.000000000000000e+00	 6.443200000017296e-01
0	 8.500000000000000e+01	 6.250000000000001e+00	 6.836000000006971e-01
0	 8.499999999999999e+01	 6.500000000000001e+00	 7.228800000020634e-01
0	 8.499999999999999e+01	 6.750000000000000e+00	 7.621599999993147e-01
0	 8.500000000000000e+01	 7.000000000000002e+00	 8.014399999979104e-01
0	 8.499999999999999e+01	 7.250000000000001e+00	 8.407199999988120e-01
0	 8.499999999999999e+01	 7.500000000000000e+00	 8.800000000022123e-01
0	 8.562499999999997e+01	 5.000000000000000e+00	 4.898000000054025e-01
0	 8.562499999999997e+01	 5.249999999999999e+00	 5.288200000039557e-01
0	 8.562500000000000e+01	 5.500000000000000e+00	 5.678400000044730e-01
0	 8.562499999999997e+01	 5.750000000000001e+00	 6.068600000055785e-01
0	 8.562500000000000e+01	 6.000000000000003e+00	 6.458800000004334e-01
0	 8.562500000000000e+01	 6.250000000000002e+00	 6.849000000027549e-01
0	 8.562499999999999e+01	 6.500000000000001e+00	 7.239200000018413e-01
0	 8.562500000000000e+01	 6.750000000000002e+00	 7.629399999970685e-01
0	 8.562499999999999e+01	 7.000000000000002e+00	 8.019599999977636e-01
0	 8.562500000000001e+01	 7.250000000000002e+00	 8.409800000066450e-01
0	 8.562499999999997e+01	 7.500000000000000e+00	 8.800000000036338e-01
0	 8.624999999999999e+01	 5.000000000000000e+00	 4.928000000035127e-01
0	 8.624999999999999e+01	 5.250000000000001e+00	 5.315200000050393e-01
0	 8.624999999999997e+01	 5.500000000000000e+00	 5.702400000063661e-01
0	 8.624999999999999e+01	 5.750000000000001e+00	 6.089600000014316e-01
0	 8.625000000000000e+01	 6.000000000000001e+00	 6.476800000024511e-01
0	 8.624999999999999e+01	 6.250000000000001e+00	 6.864000000010687e-01
0	 8.625000000000000e+01	 6.500000000000004e+00	 7.251199999998902e-01
0	 8.624999999999997e+01	 6.750000000000001e+00	 7.638399999979691e-01
0	 8.624999999999997e+01	 7.000000000000002e+00	 8.025599999996303e-01
0	 8.624999999999997e+01	 7.250000000000003e+00	 8.412799999973710e-01
0	 8.624999999999999e+01	 7.500000000000000e+00	 8.799999999979492e-01
0	 8.687499999999999e+01	 5.000000000000000e+00	 4.962000000034548e-01
0	 8.687500000000000e+01	 5.250000000000002e+00	 5.345800000045442e-01
0	 8.687499999999997e+01	 5.500000000000001e+00	 5.729600000004952e-01
0	 8.687499999999996e+01	 5.750000000000001e+00	 6.113400000023467e-01
0	 8.687499999999999e+01	 6.000000000000002e+00	 6.497200000060550e-01
0	 8.687499999999997e+01	 6.250000000000001e+00	 6.880999999969830e-01
0	 8.687499999999999e+01	 6.500000000000001e+00	 7.264800000058326e-01
0	 8.687500000000000e+01	 6.750000000000001e+00	 7.648599999953394e-01
0	 8.687499999999999e+01	 7.000000000000001e+00	 8.032400000008091e-01
0	 8.687499999999999e+01	 7.250000000000002e+00	 8.416200000045200e-01
0	 8.687499999999999e+01	 7.500000000000000e+00	 8.799999999979494e-01
0	 8.750000000000000e+01	 5.000000000000000e+00	 5.000000000052297e-01
0	 8.750000000000000e+01	 5.250000000000000e+00	 5.379999999949111e-01
0	 8.750000000000000e+01	 5.500000000000001e+00	 5.760000000044837e-01
0	 8.750000000000001e+01	 5.750000000000002e+00	 6.140000000058875e-01
0	 8.750000000000000e+01	 6.000000000000001e+00	 6.519999999994757e-01
0	 8.750000000000001e+01	 6.250000000000001e+00	 6.900000000001683e-01
0	 8.750000000000000e+01	 6.500000000000001e+00	 7.279999999980196e-01
0	 8.749999999999999e+01	 6.750000000000002e+00	 7.659999999987117e-01
0	 8.750000000000001e+01	 7.000000000000003e+00	 8.039999999937222e-01
0	 8.750000000000000e+01	 7.250000000000002e+00	 8.419999999944152e-01
0	 8.750000000000000e+01	 7.500000000000000e+00	 8.799999999951069e-01
0	 8.125000000000000e+01	 7.500000000000000e+00	 8.800000000007913e-01
0	 8.125000000000001e+01	 7.750000000000001e+00	 8.880000000018983e-01
0	 8.125000000000000e+01	 8.000000000000002e+00	 8.960000000044487e-01
0	 8.125000000000000e+01	 8.250000000000002e+00	 9.039999999970404e-01
0	 8.125000000000000e+01	 8.500000000000000e+00	 9.119999999995797e-01
0	 8.125000000000000e+01	 8.750000000000000e+00	 9.200000000049386e-01
0	 8.125000000000000e+01	 9.000000000000004e+00	 9.279999999989740e-01
0	 8.125000000000001e+01	 9.250000000000005e+00	 9.359999999958517e-01
0	 8.125000000000000e+01	 9.500000000000000e+00	 9.439999999983683e-01
0	 8.125000000000000e+01	 9.750000000000002e+00	 9.520000000122317e-01
0	 8.125000000000000e+01	 1.000000000000000e+01	 9.599999999977626e-01
0	 8.187500000000000e+01	 7.500000000000000e+00	 8.799999999947958e-01
0	 8.187500000000000e+01	 7.750000000000000e+00	 8.880000000033459e-01
0	 8.187500000000000e+01	 8.000000000000002e+00	 8.960000000002125e-01
0	 8.187500000000000e+01	 8.250000000000000e+00	 9.039999999992896e-01
0	 8.187500000000000e+01	 8.499999999999998e+00	 9.120000000031395e-01
0	 8.187500000000000e+01	 8.750000000000000e+00	 9.199999999910137e-01
0	 8.187500000000000e+01	 9.000000000000002e+00	 9.280000000016554e-01
0	 8.187500000000000e+01	 9.250000000000000e+00	 9.359999999972319e-01
0	 8.187499999999999e+01	 9.500000000000002e+00	 9.439999999923191e-01
0	 8.187500000000001e+01	 9.750000000000004e+00	 9.519999999993086e-01
0	 8.187500000000000e+01	 1.000000000000000e+01	 9.599999999985618e-01
0	 8.250000000000001e+01	 7.499999999999999e+00	 8.799999999995476e-01
0	 8.249999999999999e+01	 7.749999999999998e+00	 8.880000000046380e-01
0	 8.250000000000001e+01	 8.000000000000002e+00	 8.959999999957385e-01
0	 8.249999999999999e+01	 8.250000000000004e+00	 9.040000000056285e-01
0	 8.249999999999999e+01	 8.500000000000000e+00	 9.119999999996902e-01
0	 8.249999999999999e+01	 8.750000000000002e+00	 9.200000000030076e-01
0	 8.250000000000000e+01	 9.000000000000002e+00	 9.280000000118426e-01
0	 8.250000000000001e+01	 9.250000000000004e+00	 9.360000000007052e-01
0	 8.250000000000000e+01	 9.500000000000002e+00	 9.439999999997888e-01
0	 8.249999999999999e+01	 9.750000000000002e+00	 9.519999999931889e-01
0	 8.249999999999999e+01	 1.000000000000000e+01	 9.600000000123291e-01
0	 8.312499999999999e+01	 7.499999999999999e+00	 8.800000000039890e-01
0	 8.312500000000000e+01	 7.750000000000001e+00	 8.879999999986158e-01
0	 8.312500000000000e+01	 8.000000000000000e+00	 8.960000000035531e-01
0	 8.312499999999999e+01	 8.250000000000002e+00	 9.039999999991724e-01
0	 8.312499999999999e+01	 8.500000000000000e+00	 9.119999999996109e-01
0	 8.312500000000000e+01	 8.750000000000000e+00	 9.199999999985682e-01
0	 8.312500000000000e+01	 9.000000000000002e+00	 9.280000000083600e-01
0	 8.312500000000000e+01	 9.250000000000000e+00	 9.359999999951212e-01
0	 8.312500000000000e+01	 9.500000000000004e+00	 9.440000000016527e-01
0	 8.312500000000000e+01	 9.750000000000004e+00	 9.520000000148164e-01
0	 8.312499999999999e+01	 1.000000000000000e+01	 9.599999999934992e-01
0	 8.374999999999999e+01	 7.500000000000000e+00	 8.799999999958175e-01
0	 8.374999999999999e+01	 7.750000000000000e+00	 8.880000000004034e-01
0	 8.374999999999999e+01	 7.999999999999998e+00	 8.959999999952115e-01
0	 8.375000000000000e+01	 8.250000000000000e+00	 9.039999999986825e-01
0	 8.374999999999999e+01	 8.500000000000000e+00	 9.120000000000058e-01
0	 8.374999999999999e+01	 8.750000000000002e+00	 9.199999999943175e-01
0	 8.375000000000000e+01	 9.000000000000002e+00	 9.279999999985779e-01
0	 8.375000000000000e+01	 9.250000000000000e+00	 9.360000000010746e-01
0	 8.375000000000000e+01	 9.500000000000004e+00	 9.439999999940383e-01
0	 8.374999999999999e+01	 9.750000000000002e+00	 9.520000000037495e-01
0	 8.374999999999999e+01	 1.000000000000000e+01	 9.599999999991834e-01
0	 8.437499999999999e+01	 7.500000000000001e+00	 8.799999999993703e-01
0	 8.437500000000000e+01	 7.750000000000001e+00	 8.879999999923921e-01
0	 8.437499999999997e+01	 8.000000000000000e+00	 8.959999999994795e-01
0	 8.437499999999999e+01	 8.249999999999998e+00	 9.039999999980217e-01
0	 8.437499999999999e+01	 8.500000000000002e+00	 9.119999999988664e-01
0	 8.437499999999999e+01	 8.750000000000002e+00	 9.199999999964347e-01
0	 8.437499999999997e+01	 9.000000000000002e+00	 9.280000000018197e-01
0	 8.437500000000000e+01	 9.250000000000002e+00	 9.359999999839463e-01
0	 8.437499999999999e+01	 9.500000000000002e+00	 9.439999999955261e-01
0	 8.437499999999997e+01	 9.750000000000002e+00	 9.519999999919072e-01
0	 8.437499999999999e+01	 1.000000000000000e+01	 9.599999999949207e-01
0	 8.499999999999999e+01	 7.500000000000000e+00	 8.800000000022123e-01
0	 8.499999999999997e+01	 7.749999999999997e+00	 8.880000000015887e-01
0	 8.499999999999999e+01	 8.000000000000002e+00	 8.959999999994763e-01
0	 8.499999999999996e+01	 8.249999999999998e+00	 9.040000000027248e-01
0	 8.499999999999999e+01	 8.500000000000002e+00	 9.120000000024220e-01
0	 8.500000000000000e+01	 8.750000000000002e+00	 9.199999999935976e-01
0	 8.500000000000000e+01	 9.000000000000002e+00	 9.280000000073517e-01
0	 8.500000000000000e+01	 9.250000000000002e+00	 9.359999999859727e-01
0	 8.499999999999999e+01	 9.500000000000002e+00	 9.439999999944484e-01
0	 8.500000000000000e+01	 9.750000000000000e+00	 9.519999999984697e-01
0	 8.499999999999999e+01	 9.999999999999998e+00	 9.599999999920786e-01
0	 8.562499999999997e+01	 7.500000000000000e+00	 8.800000000036338e-01
0	 8.562500000000000e+01	 7.750000000000001e+00	 8.879999999986796e-01
0	 8.562500000000000e+01	 8.000000000000000e+00	 8.960000000017070e-01
0	 8.562499999999997e+01	 8.250000000000002e+00	 9.040000000055594e-01
0	 8.562500000000000e+01	 8.500000000000004e+00	 9.120000000024221e-01
0	 8.562500000000000e+01	 8.750000000000002e+00	 9.200000000042766e-01
0	 8.562499999999997e+01	 8.999999999999998e+00	 9.280000000081696e-01
0	 8.562500000000000e+01	 9.250000000000002e+00	 9.359999999873176e-01
0	 8.562500000000000e+01	 9.500000000000002e+00	 9.440000000001318e-01
0	 8.562500000000000e+01	 9.750000000000004e+00	 9.520000000094185e-01
0	 8.562499999999999e+01	 1.000000000000000e+01	 9.600000000034470e-01
0	 8.624999999999999e+01	 7.500000000000000e+00	 8.799999999979492e-01
0	 8.624999999999997e+01	 7.750000000000000e+00	 8.879999999968688e-01
0	 8.624999999999999e+01	 8.000000000000002e+00	 8.959999999973461e-01
0	 8.624999999999999e+01	 8.250000000000002e+00	 9.040000000036001e-01
0	 8.624999999999997e+01	 8.500000000000000e+00	 9.119999999984968e-01
0	 8.624999999999999e+01	 8.750000000000002e+00	 9.199999999971107e-01
0	 8.624999999999997e+01	 9.000000000000002e+00	 9.280000000035671e-01
0	 8.624999999999997e+01	 9.250000000000002e+00	 9.359999999997567e-01
0	 8.624999999999999e+01	 9.500000000000000e+00	 9.440000000040475e-01
0	 8.624999999999997e+01	 9.750000000000002e+00	 9.520000000065919e-01
0	 8.624999999999997e+01	 1.000000000000000e+01	 9.600000000034470e-01
0	 8.687499999999999e+01	 7.500000000000000e+00	 8.799999999979494e-01
0	 8.687499999999997e+01	 7.750000000000000e+00	 8.880000000005568e-01
0	 8.687499999999997e+01	 8.000000000000000e+00	 8.959999999993072e-01
0	 8.687499999999999e+01	 8.250000000000002e+00	 9.040000000032657e-01
0	 8.687499999999999e+01	 8.500000000000000e+00	 9.120000000052612e-01
0	 8.687499999999999e+01	 8.750000000000000e+00	 9.200000000014440e-01
0	 8.687499999999999e+01	 9.000000000000002e+00	 9.280000000046551e-01
0	 8.687499999999997e+01	 9.250000000000000e+00	 9.360000000015170e-01
0	 8.687499999999999e+01	 9.500000000000002e+00	 9.440000000075672e-01
0	 8.687499999999997e+01	 9.750000000000000e+00	 9.519999999838611e-01
0	 8.687499999999999e+01	 1.000000000000000e+01	 9.599999999977623e-01
0	 8.750000000000000e+01	 7.500000000000000e+00	 8.799999999951069e-01
0	 8.750000000000001e+01	 7.750000000000001e+00	 8.879999999898324e-01
0	 8.750000000000000e+01	 8.000000000000002e+00	 8.960000000030277e-01
0	 8.750000000000000e+01	 8.250000000000002e+00	 9.039999999970404e-01
0	 8.750000000000000e+01	 8.500000000000000e+00	 9.119999999938968e-01
0	 8.750000000000000e+01	 8.750000000000000e+00	 9.200000000021192e-01
0	 8.750000000000000e+01	 9.000000000000004e+00	 9.279999999932911e-01
0	 8.750000000000001e+01	 9.250000000000005e+00	 9.360000000071977e-01
0	 8.750000000000000e+01	 9.500000000000000e+00	 9.440000000040527e-01
0	 8.750000000000000e+01	 9.750000000000002e+00	 9.519999999952239e-01
0	 8.750000000000000e+01	 1.000000000000000e+01	 9.599999999977626e-01
0	 8.750000000000000e+01	 0.000000000000000e+00	 0.000000000000000e+00
0	 8.750000000000000e+01	 2.500000000000000e-01	 1.399999999652594e-02
0	 8.750000000000000e+01	 5.000000000000000e-01	 2.799999999521957e-02
0	 8.750000000000000e+01	 7.500000000000001e-01	 4.199999999627865e-02
0	 8.750000000000000e+01	 1.000000000000000e+00	 5.600000000356432e-02
0	 8.750000000000000e+01	 1.250000000000000e+00	 6.999999999948160e-02
0	 8.750000000000000e+01	 1.500000000000000e+00	 8.399999999539948e-02
0	 8.750000000000000e+01	 1.750000000000000e+00	 9.799999999984205e-02
0	 8.750000000000000e+01	 2.000000000000000e+00	 1.119999999986021e-01
0	 8.750000000000000e+01	 2.250000000000000e+00	 1.260000000087277e-01
0	 8.750000000000000e+01	 2.500000000000000e+00	 1.399999999932788e-01
0	 8.812500000000000e+01	 0.000000000000000e+00	 0.000000000000000e+00
0	 8.812499999999997e+01	 2.499999999999999e-01	 1.366000001801636e-02
0	 8.812499999999997e+01	 4.999999999999999e-01	 2.731999999926634e-02
0	 8.812500000000000e+01	 7.500000000000001e-01	 4.097999999843167e-02
0	 8.812499999999999e+01	 1.000000000000000e+00	 5.464000000418317e-02
0	 8.812500000000000e+01	 1.250000000000000e+00	 6.829999999364844e-02
0	 8.812500000000001e+01	 1.500000000000000e+00	 8.195999999475363e-02
0	 8.812500000000000e+01	 1.750000000000000e+00	 9.561999999792013e-02
0	 8.812500000000000e+01	 2.000000000000000e+00	 1.092799999943939e-01
0	 8.812500000000003e+01	 2.250000000000000e+00	 1.229399999965075e-01
0	 8.812500000000000e+01	 2.500000000000000e+00	 1.365999999929813e-01
0	 8.875000000000000e+01	 0.000000000000000e+00	 0.000000000000000e+00
0	 8.875000000000003e+01	 2.500000000000000e-01	 1.343999999129726e-02
0	 8.875000000000001e+01	 5.000000000000000e-01	 2.688000000411913e-02
0	 8.874999999999999e+01	 7.500000000000001e-01	 4.031999999557957e-02
0	 8.875000000000000e+01	 1.000000000000000e+00	 5.376000000025036e-02
0	 8.875000000000000e+01	 1.250000000000000e+00	 6.719999999447170e-02
0	 8.875000000000000e+01	 1.500000000000000e+00	 8.063999999640196e-02
0	 8.874999999999999e+01	 1.750000000000000e+00	 9.408000000467708e-02
0	 8.875000000000001e+01	 2.000000000000000e+00	 1.075199999968743e-01
0	 8.874999999999999e+01	 2.250000000000000e+00	 1.209600000013464e-01
0	 8.875000000000001e+01	 2.500000000000000e+00	 1.343999999946277e-01
0	 8.937500000000000e+01	 0.000000000000000e+00	 0.000000000000000e+00
0	 8.937500000000000e+01	 2.500000000000000e-01	 1.334000000226760e-02
0	 8.937500000000000e+01	 5.000000000000000e-01	 2.667999999577373e-02
0	 8.937500000000000e+01	 7.500000000000002e-01	 4.001999999039228e-02
0	 8.937500000000000e+01	 1.000000000000000e+00	 5.335999999871556e-02
0	 8.937500000000000e+01	 1.250000000000000e+00	 6.669999999928679e-02
0	 8.937499999999999e+01	 1.500000000000000e+00	 8.003999999774454e-02
0	 8.937499999999999e+01	 1.750000000000000e+00	 9.337999999701213e-02
0	 8.937499999999999e+01	 2.000000000000000e+00	 1.067199999972956e-01
0	 8.937500000000001e+01	 2.250000000000000e+00	 1.200600000014509e-01
0	 8.937500000000000e+01	 2.500000000000000e+00	 1.333999999928892e-01
0	 9.000000000000000e+01	 0.000000000000000e+00	 0.000000000000000e+00
0	 8.999999999999999e+01	 2.500000000000000e-01	 1.335999999072744e-02
0	 8.999999999999997e+01	 4.999999999999999e-01	 2.671999998775504e-02
0	 8.999999999999999e+01	 7.500000000000000e-01	 4.007999998854203e-02
0	 8.999999999999999e+01	 1.000000000000000e+00	 5.343999998985460e-02
0	 9.000000000000001e+01	 1.250000000000000e+00	 6.679999999619211e-02
0	 9.000000000000000e+01	 1.500000000000000e+00	 8.015999999791082e-02
0	 9.000000000000000e+01	 1.750000000000000e+00	 9.352000000078027e-02
0	 8.999999999999999e+01	 2.000000000000000e+00	 1.068800000020076e-01
0	 8.999999999999999e+01	 2.250000000000000e+00	 1.202399999911569e-01
0	 9.000000000000000e+01	 2.500000000000000e+00	 1.335999999980686e-01
0	 9.062499999999999e+01	 0.000000000000000e+00	 0.000000000000000e+00
0	 9.062499999999999e+01	 2.499999999999999e-01	 1.350000000438055e-02
0	 9.062500000000000e+01	 5.000000000000001e-01	 2.700000000828928e-02
0	 9.062499999999999e+01	 7.500000000000000e-01	 4.049999999150927e-02
0	 9.062500000000000e+01	 9.999999999999998e-01	 5.399999999252630e-02
0	 9.062499999999999e+01	 1.250000000000000e+00	 6.749999999726697e-02
0	 9.062499999999999e+01	 1.500000000000000e+00	 8.099999999654128e-02
0	 9.062499999999997e+01	 1.750000000000000e+00	 9.449999999775109e-02
0	 9.062499999999999e+01	 2.000000000000000e+00	 1.079999999895535e-01
0	 9.062500000000001e+01	 2.250000000000000e+00	 1.214999999902491e-01
0	 9.062499999999999e+01	 2.500000000000000e+00	 1.350000000002183e-01
0	 9.124999999999999e+01	 0.000000000000000e+00	 0.000000000000000e+00
0	 9.124999999999999e+01	 2.500000000000000e-01	 1.376000000673010e-02
0	 9.125000000000000e+01	 5.000000000000000e-01	 2.751999998855720e-02
0	 9.125000000000000e+01	 7.500000000000002e-01	 4.127999999326210e-02
0	 9.125000000000000e+01	 1.000000000000000e+00	 5.503999999512104e-02
0	 9.125000000000000e+01	 1.250000000000000e+00	 6.879999999966911e-02
0	 9.124999999999997e+01	 1.500000000000000e+00	 8.255999999711157e-02
0	 9.125000000000001e+01	 1.750000000000000e+00	 9.631999999442249e-02
0	 9.124999999999997e+01	 1.999999999999999e+00	 1.100799999932178e-01
0	 9.124999999999999e+01	 2.250000000000000e+00	 1.238399999934355e-01
0	 9.125000000000000e+01	 2.500000000000000e+00	 1.375999999993383e-01
0	 9.187499999999999e+01	 0.000000000000000e+00	 0.000000000000000e+00
0	 9.187499999999999e+01	 2.500000000000000e-01	 1.414000000747456e-02
0	 9.187500000000000e+01	 5.000000000000001e-01	 2.827999999546220e-02
0	 9.187500000000001e+01	 7.500000000000000e-01	 4.241999999279169e-02
0	 9.187499999999999e+01	 1.000000000000000e+00	 5.656000000250028e-02
0	 9.187499999999999e+01	 1.250000000000000e+00	 7.069999999913536e-02
0	 9.187499999999999e+01	 1.500000000000000e+00	 8.483999998653440e-02
0	 9.187499999999997e+01	 1.750000000000000e+00	 9.897999999708418e-02
0	 9.187499999999999e+01	 2.000000000000000e+00	 1.131200000003219e-01
0	 9.187499999999997e+01	 2.250000000000000e+00	 1.272600000007194e-01
0	 9.187499999999997e+01	 2.500000000000000e+00	 1.413999999925863e-01
0	 9.249999999999999e+01	 0.000000000000000e+00	 0.000000000000000e+00
0	 9.249999999999997e+01	 2.499999999999999e-01	 1.464000000836778e-02
0	 9.250000000000001e+01	 5.000000000000001e-01	 2.928000000266999e-02
0	 9.250000000000000e+01	 7.500000000000002e-01	 4.392000001039874e-02
0	 9.249999999999999e+01	 1.000000000000000e+00	 5.856000000167833e-02
0	 9.249999999999997e+01	 1.250000000000000e+00	 7.319999999992886e-02
0	 9.249999999999999e+01	 1.500000000000000e+00	 8.784000000068704e-02
0	 9.249999999999999e+01	 1.750000000000000e+00	 1.024799999942671e-01
0	 9.250000000000000e+01	 2.000000000000000e+00	 1.171199999959072e-01
0	 9.249999999999999e+01	 2.250000000000000e+00	 1.317599999993061e-01
0	 9.249999999999999e+01	 2.500000000000000e+00	 1.463999999941734e-01
0	 9.312499999999997e+01	 0.000000000000000e+00	 0.000000000000000e+00
0	 9.312500000000000e+01	 2.500000000000000e-01	 1.525999998925823e-02
0	 9.312499999999999e+01	 5.000000000000000e-01	 3.051999999557246e-02
0	 9.312499999999999e+01	 7.500000000000001e-01	 4.578000000776909e-02
0	 9.312499999999997e+01	 9.999999999999998e-01	 6.103999999424638e-02
0	 9.312499999999999e+01	 1.250000000000000e+00	 7.629999999636539e-02
0	 9.312499999999997e+01	 1.500000000000000e+00	 9.155999999848062e-02
0	 9.312499999999997e+01	 1.750000000000000e+00	 1.068200000020200e-01
0	 9.312499999999997e+01	 2.000000000000000e+00	 1.220799999930984e-01
0	 9.312499999999997e+01	 2.250000000000000e+00	 1.373399999998934e-01
0	 9.312499999999997e+01	 2.500000000000000e+00	 1.525999999927308e-01
0	 9.375000000000000e+01	 0.000000000000000e+00	 0.000000000000000e+00
0	 9.375000000000000e+01	 2.500000000000000e-01	 1.599999998721068e-02
0	 9.375000000000001e+01	 5.000000000000000e-01	 3.200000000501617e-02
0	 9.375000000000000e+01	 7.500000000000001e-01	 4.799999999818542e-02
0	 9.375000000000000e+01	 1.000000000000000e+00	 6.400000000041929e-02
0	 9.375000000000000e+01	 1.250000000000000e+00	 7.999999999697138e-02
0	 9.375000000000000e+01	 1.500000000000000e+00	 9.599999999352174e-02
0	 9.375000000000000e+01	 1.750000000000000e+00	 1.119999999957599e-01
0	 9.375000000000001e+01	 2.000000000000000e+00	 1.279999999951542e-01
0	 9.375000000000000e+01	 2.250000000000000e+00	 1.440000000002363e-01
0	 9.375000000000000e+01	 2.500000000000000e+00	 1.599999999939428e-01
0	 8.750000000000000e+01	 2.500000000000000e+00	 1.399999999932788e-01
0	 8.750000000000000e+01	 2.750000000000000e+00	 1.759999999880101e-01
0	 8.750000000000000e+01	 3.000000000000001e+00	 2.119999999997898e-01
0	 8.750000000000001e+01	 3.250000000000001e+00	 2.480000000034008e-01
0	 8.750000000000000e+01	 3.500000000000001e+00	 2.839999999949334e-01
0	 8.750000000000001e+01	 3.750000000000001e+00	 3.199999999992542e-01
0	 8.750000000000000e+01	 4.000000000000001e+00	 3.559999999964709e-01
0	 8.749999999999999e+01	 4.250000000000002e+00	 3.920000000050544e-01
0	 8.750000000000001e+01	 4.500000000000003e+00	 4.279999999965879e-01
0	 8.750000000000000e+01	 4.750000000000002e+00	 4.639999999994884e-01
0	 8.750000000000000e+01	 5.000000000000000e+00	 5.000000000052297e-01
0	 8.812500000000000e+01	 2.500000000000000e+00	 1.365999999929813e-01
0	 8.812500000000000e+01	 2.750000000000000e+00	 1.733000000015601e-01
0	 8.812500000000001e+01	 3.000000000000000e+00	 2.099999999948079e-01
0	 8.812500000000001e+01	 3.250000000000001e+00	 2.466999999985967e-01
0	 8.812500000000000e+01	 3.500000000000001e+00	 2.833999999980824e-01
0	 8.812500000000001e+01	 3.750000000000001e+00	 3.201000000015286e-01
0	 8.812500000000000e+01	 4.000000000000002e+00	 3.568000000052818e-01
0	 8.812500000000001e+01	 4.250000000000002e+00	 3.934999999977337e-01
0	 8.812500000000000e+01	 4.500000000000001e+00	 4.301999999993191e-01
0	 8.812499999999999e+01	 4.750000000000001e+00	 4.669000000126814e-01
0	 8.812500000000000e+01	 5.000000000000000e+00	 5.036000000079088e-01
0	 8.875000000000001e+01	 2.500000000000000e+00	 1.343999999946277e-01
0	 8.875000000000001e+01	 2.750000000000000e+00	 1.715999999993089e-01
0	 8.875000000000000e+01	 3.000000000000001e+00	 2.087999999977520e-01
0	 8.874999999999999e+01	 3.250000000000000e+00	 2.459999999974202e-01
0	 8.875000000000000e+01	 3.500000000000001e+00	 2.831999999963858e-01
0	 8.875000000000001e+01	 3.750000000000001e+00	 3.204000000000914e-01
0	 8.875000000000000e+01	 4.000000000000002e+00	 3.575999999955576e-01
0	 8.874999999999999e+01	 4.250000000000001e+00	 3.948000000022489e-01
0	 8.874999999999997e+01	 4.500000000000001e+00	 4.319999999927053e-01
0	 8.875000000000000e+01	 4.750000000000003e+00	 4.692000000080662e-01
0	 8.875000000000001e+01	 5.000000000000000e+00	 5.064000000077229e-01
0	 8.937500000000000e+01	 2.500000000000000e+00	 1.333999999928892e-01
0	 8.937500000000000e+01	 2.750000000000000e+00	 1.708999999904751e-01
0	 8.937499999999999e+01	 3.000000000000000e+00	 2.083999999967359e-01
0	 8.937500000000000e+01	 3.250000000000001e+00	 2.458999999980907e-01
0	 8.937499999999999e+01	 3.500000000000001e+00	 2.833999999994857e-01
0	 8.937499999999999e+01	 3.750000000000001e+00	 3.209000000023293e-01
0	 8.937499999999997e+01	 4.000000000000001e+00	 3.583999999942273e-01
0	 8.937500000000000e+01	 4.250000000000001e+00	 3.958999999962740e-01
0	 8.937499999999999e+01	 4.500000000000002e+00	 4.333999999992953e-01
0	 8.937499999999999e+01	 4.750000000000002e+00	 4.709000000071550e-01
0	 8.937500000000000e+01	 5.000000000000001e+00	 5.084000000046274e-01
0	 9.000000000000000e+01	 2.500000000000000e+00	 1.335999999980686e-01
0	 8.999999999999997e+01	 2.750000000000000e+00	 1.711999999981297e-01
0	 8.999999999999999e+01	 3.000000000000000e+00	 2.087999999969418e-01
0	 8.999999999999997e+01	 3.250000000000000e+00	 2.463999999934993e-01
0	 8.999999999999999e+01	 3.500000000000001e+00	 2.839999999997714e-01
0	 8.999999999999999e+01	 3.750000000000000e+00	 3.215999999927271e-01
0	 9.000000000000000e+01	 4.000000000000002e+00	 3.591999999976462e-01
0	 9.000000000000000e+01	 4.250000000000002e+00	 3.968000000007889e-01
0	 9.000000000000001e+01	 4.500000000000002e+00	 4.344000000138244e-01
0	 9.000000000000000e+01	 4.750000000000002e+00	 4.720000000062896e-01
0	 9.000000000000000e+01	 5.000000000000000e+00	 5.096000000044398e-01
0	 9.062499999999999e+01	 2.500000000000000e+00	 1.350000000002183e-01
0	 9.062499999999999e+01	 2.750000000000000e+00	 1.724999999978136e-01
0	 9.062499999999999e+01	 3.000000000000000e+00	 2.099999999901627e-01
0	 9.062499999999997e+01	 3.250000000000001e+00	 2.474999999912981e-01
0	 9.062500000000001e+01	 3.500000000000001e+00	 2.850000000039970e-01
0	 9.062499999999999e+01	 3.750000000000001e+00	 3.225000000036005e-01
0	 9.062499999999999e+01	 4.000000000000002e+00	 3.599999999998714e-01
0	 9.062500000000000e+01	 4.250000000000002e+00	 3.975000000015556e-01
0	 9.062500000000000e+01	 4.500000000000002e+00	 4.350000000080456e-01
0	 9.062499999999999e+01	 4.750000000000003e+00	 4.724999999962284e-01
0	 9.062499999999999e+01	 5.000000000000000e+00	 5.100000000069826e-01
0	 9.125000000000000e+01	 2.500000000000000e+00	 1.375999999993383e-01
0	 9.124999999999997e+01	 2.750000000000000e+00	 1.747999999917362e-01
0	 9.125000000000000e+01	 3.000000000000001e+00	 2.120000000001138e-01
0	 9.124999999999996e+01	 3.250000000000000e+00	 2.491999999964958e-01
0	 9.124999999999997e+01	 3.500000000000000e+00	 2.863999999941828e-01
0	 9.124999999999999e+01	 3.750000000000001e+00	 3.236000000015333e-01
0	 9.124999999999999e+01	 4.000000000000001e+00	 3.607999999992067e-01
0	 9.124999999999999e+01	 4.250000000000002e+00	 3.979999999998525e-01
0	 9.124999999999999e+01	 4.500000000000002e+00	 4.352000000068305e-01
0	 9.124999999999999e+01	 4.750000000000002e+00	 4.723999999990515e-01
0	 9.125000000000000e+01	 5.000000000000000e+00	 5.096000000008871e-01
0	 9.187499999999997e+01	 2.500000000000000e+00	 1.413999999925863e-01
0	 9.187499999999997e+01	 2.750000000000000e+00	 1.780999999908499e-01
0	 9.187500000000000e+01	 3.000000000000001e+00	 2.147999999996075e-01
0	 9.187499999999997e+01	 3.250000000000000e+00	 2.514999999959853e-01
0	 9.187500000000000e+01	 3.500000000000001e+00	 2.881999999992517e-01
0	 9.187500000000000e+01	 3.750000000000002e+00	 3.249000000021794e-01
0	 9.187499999999997e+01	 4.000000000000002e+00	 3.616000000011417e-01
0	 9.187500000000000e+01	 4.250000000000003e+00	 3.983000000076252e-01
0	 9.187499999999996e+01	 4.500000000000002e+00	 4.349999999968446e-01
0	 9.187500000000000e+01	 4.750000000000002e+00	 4.717000000056270e-01
0	 9.187499999999997e+01	 5.000000000000000e+00	 5.084000000039167e-01
0	 9.249999999999999e+01	 2.500000000000000e+00	 1.463999999941734e-01
0	 9.250000000000000e+01	 2.750000000000000e+00	 1.823999999852315e-01
0	 9.249999999999997e+01	 3.000000000000000e+00	 2.183999999974019e-01
0	 9.249999999999999e+01	 3.250000000000000e+00	 2.543999999912337e-01
0	 9.249999999999999e+01	 3.500000000000001e+00	 2.903999999967074e-01
0	 9.249999999999999e+01	 3.750000000000001e+00	 3.264000000004853e-01
0	 9.250000000000000e+01	 4.000000000000003e+00	 3.624000000044728e-01
0	 9.249999999999999e+01	 4.250000000000001e+00	 3.984000000105518e-01
0	 9.249999999999997e+01	 4.500000000000002e+00	 4.344000000088513e-01
0	 9.249999999999999e+01	 4.750000000000002e+00	 4.704000000003816e-01
0	 9.249999999999999e+01	 5.000000000000000e+00	 5.064000000032820e-01
0	 9.312499999999997e+01	 2.500000000000000e+00	 1.525999999927308e-01
0	 9.312500000000000e+01	 2.750000000000001e+00	 1.876999999927944e-01
0	 9.312499999999997e+01	 3.000000000000000e+00	 2.227999999962418e-01
0	 9.312499999999997e+01	 3.250000000000000e+00	 2.578999999988428e-01
0	 9.312499999999999e+01	 3.500000000000001e+00	 2.929999999983326e-01
0	 9.312499999999997e+01	 3.750000000000001e+00	 3.280999999949773e-01
0	 9.312499999999999e+01	 4.000000000000002e+00	 3.632000000038731e-01
0	 9.312499999999999e+01	 4.250000000000001e+00	 3.983000000033614e-01
0	 9.312499999999999e+01	 4.500000000000002e+00	 4.334000000017634e-01
0	 9.312499999999999e+01	 4.750000000000002e+00	 4.685000000069375e-01
0	 9.312499999999997e+01	 5.000000000000000e+00	 5.036000000075090e-01
0	 9.375000000000000e+01	 2.500000000000000e+00	 1.599999999939428e-01
0	 9.375000000000000e+01	 2.750000000000000e+00	 1.939999999848340e-01
0	 9.375000000000000e+01	 3.000000000000001e+00	 2.279999999956326e-01
0	 9.375000000000001e+01	 3.250000000000001e+00	 2.619999999950542e-01
0	 9.375000000000000e+01	 3.500000000000001e+00	 2.959999999944767e-01
0	 9.375000000000000e+01	 3.750000000000001e+00	 3.299999999995845e-01
0	 9.375000000000000e+01	 4.000000000000001e+00	 3.639999999990078e-01
0	 9.375000000000000e+01	 4.250000000000002e+00	 3.980000000012752e-01
0	 9.375000000000001e+01	 4.500000000000003e+00	 4.319999999950106e-01
0	 9.375000000000000e+01	 4.750000000000002e+00	 4.660000000058098e-01
0	 9.375000000000000e+01	 5.000000000000000e+00	 5.000000000052297e-01
0	 8.750000000000000e+01	 5.000000000000000e+00	 5.000000000052297e-01
0	 8.750000000000000e+01	 5.250000000000000e+00	 5.379999999949111e-01
0	 8.750000000000000e+01	 5.500000000000001e+00	 5.760000000044837e-01
0	 8.750000000000001e+01	 5.750000000000002e+00	 6.140000000058875e-01
0	 8.750000000000000e+01	 6.000000000000001e+00	 6.519999999994757e-01
0	 8.750000000000001e+01	 6.250000000000001e+00	 6.900000000001683e-01
0	 8.750000000000000e+01	 6.500000000000001e+00	 7.279999999980196e-01
0	 8.749999999999999e+01	 6.750000000000002e+00	 7.659999999987117e-01
0	 8.750000000000001e+01	 7.000000000000003e+00	 8.039999999937222e-01
0	 8.750000000000000e+01	 7.250000000000002e+00	 8.419999999944152e-01
0	 8.750000000000000e+01	 7.500000000000000e+00	 8.799999999951069e-01
0	 8.812500000000000e+01	 5.000000000000000e+00	 5.036000000079088e-01
0	 8.812500000000000e+01	 5.250000000000000e+00	 5.412000000022582e-01
0	 8.812500000000001e+01	 5.500000000000001e+00	 5.787999999954654e-01
0	 8.812500000000001e+01	 5.750000000000000e+00	 6.164000000017336e-01
0	 8.812500000000000e+01	 6.000000000000002e+00	 6.539999999973040e-01
0	 8.812500000000001e+01	 6.250000000000002e+00	 6.915999999996326e-01
0	 8.812500000000000e+01	 6.500000000000002e+00	 7.292000000022901e-01
0	 8.812500000000001e+01	 6.750000000000002e+00	 7.667999999964886e-01
0	 8.812500000000000e+01	 7.000000000000001e+00	 8.043999999912722e-01
0	 8.812499999999999e+01	 7.250000000000001e+00	 8.420000000064037e-01
0	 8.812500000000000e+01	 7.500000000000000e+00	 8.795999999948731e-01
0	 8.875000000000001e+01	 5.000000000000000e+00	 5.064000000077229e-01
0	 8.875000000000001e+01	 5.250000000000001e+00	 5.436000000036556e-01
0	 8.875000000000000e+01	 5.500000000000002e+00	 5.808000000046301e-01
0	 8.874999999999999e+01	 5.750000000000000e+00	 6.180000000034100e-01
0	 8.875000000000000e+01	 6.000000000000001e+00	 6.552000000000664e-01
0	 8.875000000000001e+01	 6.250000000000002e+00	 6.923999999998638e-01
0	 8.875000000000000e+01	 6.500000000000002e+00	 7.296000000000376e-01
0	 8.874999999999999e+01	 6.750000000000001e+00	 7.667999999972254e-01
0	 8.874999999999997e+01	 7.000000000000003e+00	 8.039999999979842e-01
0	 8.875000000000000e+01	 7.250000000000004e+00	 8.412000000010887e-01
0	 8.875000000000001e+01	 7.499999999999999e+00	 8.783999999998569e-01
0	 8.937500000000000e+01	 5.000000000000001e+00	 5.084000000046274e-01
0	 8.937500000000000e+01	 5.250000000000001e+00	 5.452000000063344e-01
0	 8.937499999999999e+01	 5.500000000000000e+00	 5.820000000049923e-01
0	 8.937500000000000e+01	 5.750000000000001e+00	 6.188000000016308e-01
0	 8.937499999999999e+01	 6.000000000000000e+00	 6.556000000014178e-01
0	 8.937499999999999e+01	 6.250000000000000e+00	 6.924000000024763e-01
0	 8.937499999999997e+01	 6.500000000000001e+00	 7.291999999956083e-01
0	 8.937500000000000e+01	 6.750000000000002e+00	 7.659999999926724e-01
0	 8.937499999999999e+01	 7.000000000000002e+00	 8.027999999967503e-01
0	 8.937499999999999e+01	 7.250000000000001e+00	 8.395999999946534e-01
0	 8.937500000000000e+01	 7.499999999999999e+00	 8.763999999985120e-01
0	 9.000000000000000e+01	 5.000000000000000e+00	 5.096000000044398e-01
0	 8.999999999999997e+01	 5.250000000000001e+00	 5.460000000038003e-01
0	 8.999999999999999e+01	 5.500000000000000e+00	 5.824000000015565e-01
0	 8.999999999999997e+01	 5.750000000000000e+00	 6.188000000046964e-01
0	 8.999999999999999e+01	 6.000000000000001e+00	 6.552000000061822e-01
0	 8.999999999999999e+01	 6.250000000000000e+00	 6.915999999979042e-01
0	 9.000000000000000e+01	 6.500000000000003e+00	 7.279999999991029e-01
0	 9.000000000000000e+01	 6.750000000000002e+00	 7.644000000013673e-01
0	 9.000000000000001e+01	 7.000000000000003e+00	 8.008000000018010e-01
0	 9.000000000000000e+01	 7.250000000000002e+00	 8.371999999994271e-01
0	 9.000000000000000e+01	 7.500000000000000e+00	 8.735999999970545e-01
0	 9.062499999999999e+01	 5.000000000000000e+00	 5.100000000069826e-01
0	 9.062499999999999e+01	 5.250000000000000e+00	 5.460000000065888e-01
0	 9.062499999999999e+01	 5.500000000000001e+00	 5.819999999988171e-01
0	 9.062499999999997e+01	 5.750000000000001e+00	 6.179999999976998e-01
0	 9.062500000000001e+01	 6.000000000000001e+00	 6.540000000053044e-01
0	 9.062499999999999e+01	 6.250000000000001e+00	 6.900000000037209e-01
0	 9.062499999999999e+01	 6.500000000000001e+00	 7.259999999988053e-01
0	 9.062500000000000e+01	 6.750000000000002e+00	 7.619999999971712e-01
0	 9.062500000000000e+01	 7.000000000000000e+00	 7.980000000024745e-01
0	 9.062499999999999e+01	 7.250000000000002e+00	 8.339999999901813e-01
0	 9.062499999999999e+01	 7.500000000000001e+00	 8.699999999947752e-01
0	 9.125000000000000e+01	 5.000000000000000e+00	 5.096000000008871e-01
0	 9.124999999999997e+01	 5.249999999999999e+00	 5.452000000024761e-01
0	 9.125000000000000e+01	 5.500000000000001e+00	 5.808000000072550e-01
0	 9.124999999999996e+01	 5.750000000000000e+00	 6.163999999987949e-01
0	 9.124999999999997e+01	 6.000000000000000e+00	 6.519999999983896e-01
0	 9.124999999999999e+01	 6.250000000000001e+00	 6.875999999984113e-01
0	 9.124999999999999e+01	 6.500000000000001e+00	 7.231999999951505e-01
0	 9.124999999999999e+01	 6.750000000000000e+00	 7.587999999984147e-01
0	 9.124999999999999e+01	 7.000000000000002e+00	 7.944000000009057e-01
0	 9.124999999999999e+01	 7.250000000000001e+00	 8.299999999957454e-01
0	 9.125000000000000e+01	 7.500000000000000e+00	 8.655999999973574e-01
0	 9.187499999999997e+01	 5.000000000000000e+00	 5.084000000039167e-01
0	 9.187499999999997e+01	 5.249999999999999e+00	 5.435999999986845e-01
0	 9.187500000000000e+01	 5.500000000000000e+00	 5.788000000025250e-01
0	 9.187499999999997e+01	 5.750000000000001e+00	 6.140000000016241e-01
0	 9.187500000000000e+01	 6.000000000000003e+00	 6.492000000065459e-01
0	 9.187500000000000e+01	 6.250000000000002e+00	 6.844000000026029e-01
0	 9.187499999999997e+01	 6.500000000000001e+00	 7.196000000010891e-01
0	 9.187500000000000e+01	 6.750000000000002e+00	 7.548000000028333e-01
0	 9.187499999999996e+01	 7.000000000000002e+00	 7.899999999958397e-01
0	 9.187500000000000e+01	 7.250000000000002e+00	 8.252000000027248e-01
0	 9.187499999999997e+01	 7.500000000000000e+00	 8.603999999991176e-01
0	 9.249999999999999e+01	 5.000000000000000e+00	 5.064000000032820e-01
0	 9.250000000000000e+01	 5.250000000000001e+00	 5.412000000023437e-01
0	 9.249999999999997e+01	 5.500000000000000e+00	 5.760000000068853e-01
0	 9.249999999999999e+01	 5.750000000000001e+00	 6.108000000009050e-01
0	 9.249999999999999e+01	 6.000000000000001e+00	 6.456000000037240e-01
0	 9.249999999999999e+01	 6.250000000000001e+00	 6.804000000020048e-01
0	 9.250000000000000e+01	 6.500000000000004e+00	 7.152000000076011e-01
0	 9.249999999999999e+01	 6.750000000000001e+00	 7.500000000067620e-01
0	 9.249999999999997e+01	 7.000000000000002e+00	 7.847999999967228e-01
0	 9.249999999999999e+01	 7.250000000000003e+00	 8.195999999941247e-01
0	 9.249999999999999e+01	 7.500000000000000e+00	 8.543999999972131e-01
0	 9.312499999999997e+01	 5.000000000000000e+00	 5.036000000075090e-01
0	 9.312500000000000e+01	 5.250000000000002e+00	 5.380000000004582e-01
0	 9.312499999999997e+01	 5.500000000000001e+00	 5.724000000053178e-01
0	 9.312499999999997e+01	 5.750000000000001e+00	 6.068000000047122e-01
0	 9.312499999999999e+01	 6.000000000000002e+00	 6.412000000031273e-01
0	 9.312499999999997e+01	 6.250000000000001e+00	 6.755999999986971e-01
0	 9.312499999999999e+01	 6.500000000000001e+00	 7.100000000008337e-01
0	 9.312499999999999e+01	 6.750000000000001e+00	 7.444000000049315e-01
0	 9.312499999999999e+01	 7.000000000000001e+00	 7.787999999994168e-01
0	 9.312499999999999e+01	 7.250000000000002e+00	 8.132000000063582e-01
0	 9.312499999999997e+01	 7.500000000000000e+00	 8.475999999973285e-01
0	 9.375000000000000e+01	 5.000000000000000e+00	 5.000000000052297e-01
0	 9.375000000000000e+01	 5.250000000000000e+00	 5.339999999922126e-01
0	 9.375000000000000e+01	 5.500000000000001e+00	 5.680000000047878e-01
0	 9.375000000000001e+01	 5.750000000000002e+00	 6.020000000034991e-01
0	 9.375000000000000e+01	 6.000000000000001e+00	 6.360000000000792e-01
0	 9.375000000000000e+01	 6.250000000000001e+00	 6.700000000023447e-01
0	 9.375000000000000e+01	 6.500000000000001e+00	 7.039999999989259e-01
0	 9.375000000000000e+01	 6.750000000000002e+00	 7.380000000011935e-01
0	 9.375000000000001e+01	 7.000000000000003e+00	 7.719999999920867e-01
0	 9.375000000000000e+01	 7.250000000000002e+00	 8.060000000057279e-01
0	 9.375000000000000e+01	 7.500000000000000e+00	 8.399999999994635e-01
0	 8.750000000000000e+01	 7.500000000000000e+00	 8.799999999951069e-01
0	 8.750000000000001e+01	 7.750000000000001e+00	 8.879999999898324e-01
0	 8.750000000000000e+01	 8.000000000000002e+00	 8.960000000030277e-01
0	 8.750000000000000e+01	 8.250000000000002e+00	 9.039999999970404e-01
0	 8.750000000000000e+01	 8.500000000000000e+00	 9.119999999938968e-01
0	 8.750000000000000e+01	 8.750000000000000e+00	 9.200000000021192e-01
0	 8.750000000000000e+01	 9.000000000000004e+00	 9.279999999932911e-01
0	 8.750000000000001e+01	 9.250000000000005e+00	 9.360000000071977e-01
0	 8.750000000000000e+01	 9.500000000000000e+00	 9.440000000040527e-01
0	 8.750000000000000e+01	 9.750000000000002e+00	 9.519999999952239e-01
0	 8.750000000000000e+01	 1.000000000000000e+01	 9.599999999977626e-01
0	 8.812500000000000e+01	 7.500000000000000e+00	 8.795999999948731e-01
0	 8.812500000000003e+01	 7.750000000000000e+00	 8.876800000026479e-01
0	 8.812500000000000e+01	 8.000000000000002e+00	 8.957600000016388e-01
0	 8.812500000000000e+01	 8.250000000000000e+00	 9.038400000021742e-01
0	 8.812500000000000e+01	 8.499999999999998e+00	 9.119199999974733e-01
0	 8.812500000000000e+01	 8.750000000000000e+00	 9.200000000080700e-01
0	 8.812500000000000e+01	 9.000000000000002e+00	 9.280800000016134e-01
0	 8.812500000000000e+01	 9.250000000000000e+00	 9.361600000086758e-01
0	 8.812500000000000e+01	 9.500000000000002e+00	 9.442399999978514e-01
0	 8.812500000000000e+01	 9.750000000000004e+00	 9.523200000050022e-01
0	 8.812500000000000e+01	 1.000000000000000e+01	 9.604000000098087e-01
0	 8.875000000000001e+01	 7.499999999999999e+00	 8.783999999998569e-01
0	 8.874999999999997e+01	 7.749999999999998e+00	 8.867199999954597e-01
0	 8.875000000000000e+01	 8.000000000000002e+00	 8.950399999972087e-01
0	 8.874999999999999e+01	 8.250000000000004e+00	 9.033600000086415e-01
0	 8.875000000000000e+01	 8.500000000000000e+00	 9.116799999968387e-01
0	 8.875000000000000e+01	 8.750000000000002e+00	 9.199999999975009e-01
0	 8.875000000000000e+01	 9.000000000000002e+00	 9.283200000116991e-01
0	 8.875000000000000e+01	 9.250000000000004e+00	 9.366400000066093e-01
0	 8.875000000000000e+01	 9.500000000000002e+00	 9.449599999879166e-01
0	 8.874999999999999e+01	 9.750000000000002e+00	 9.532800000045694e-01
0	 8.875000000000000e+01	 1.000000000000000e+01	 9.616000000004735e-01
0	 8.937500000000000e+01	 7.499999999999999e+00	 8.763999999985120e-01
0	 8.937500000000001e+01	 7.750000000000001e+00	 8.851199999884973e-01
0	 8.937500000000000e+01	 8.000000000000000e+00	 8.938399999951939e-01
0	 8.937500000000000e+01	 8.250000000000002e+00	 9.025599999963776e-01
0	 8.937499999999999e+01	 8.500000000000000e+00	 9.112800000054135e-01
0	 8.937500000000000e+01	 8.750000000000000e+00	 9.200000000095796e-01
0	 8.937500000000000e+01	 9.000000000000002e+00	 9.287199999965466e-01
0	 8.937499999999999e+01	 9.250000000000000e+00	 9.374400000005784e-01
0	 8.937500000000001e+01	 9.500000000000004e+00	 9.461600000133918e-01
0	 8.937500000000000e+01	 9.750000000000004e+00	 9.548800000037404e-01
0	 8.937500000000000e+01	 1.000000000000000e+01	 9.636000000043052e-01
0	 9.000000000000000e+01	 7.500000000000000e+00	 8.735999999970545e-01
0	 9.000000000000000e+01	 7.750000000000000e+00	 8.828799999977622e-01
0	 8.999999999999999e+01	 7.999999999999998e+00	 8.921600000011410e-01
0	 8.999999999999999e+01	 8.250000000000000e+00	 9.014400000021606e-01
0	 8.999999999999999e+01	 8.500000000000000e+00	 9.107199999999831e-01
0	 8.999999999999999e+01	 8.750000000000002e+00	 9.199999999893285e-01
0	 8.999999999999999e+01	 9.000000000000002e+00	 9.292800000035814e-01
0	 9.000000000000000e+01	 9.250000000000000e+00	 9.385600000132265e-01
0	 9.000000000000001e+01	 9.500000000000004e+00	 9.478400000033801e-01
0	 8.999999999999999e+01	 9.750000000000002e+00	 9.571200000152655e-01
0	 9.000000000000000e+01	 1.000000000000000e+01	 9.664000000086045e-01
0	 9.062499999999999e+01	 7.500000000000001e+00	 8.699999999947752e-01
0	 9.062500000000000e+01	 7.750000000000001e+00	 8.799999999989055e-01
0	 9.062499999999999e+01	 8.000000000000000e+00	 8.899999999982805e-01
0	 9.062499999999999e+01	 8.249999999999998e+00	 8.999999999946208e-01
0	 9.062499999999999e+01	 8.500000000000002e+00	 9.100000000024978e-01
0	 9.062499999999999e+01	 8.750000000000002e+00	 9.200000000021189e-01
0	 9.062499999999997e+01	 9.000000000000002e+00	 9.299999999939248e-01
0	 9.062500000000000e+01	 9.250000000000002e+00	 9.400000000022414e-01
0	 9.062500000000000e+01	 9.500000000000002e+00	 9.500000000045360e-01
0	 9.062499999999999e+01	 9.750000000000002e+00	 9.600000000015566e-01
0	 9.062499999999999e+01	 1.000000000000000e+01	 9.700000000037792e-01
0	 9.125000000000000e+01	 7.500000000000000e+00	 8.655999999973574e-01
0	 9.124999999999997e+01	 7.749999999999997e+00	 8.764800000023220e-01
0	 9.124999999999999e+01	 8.000000000000002e+00	 8.873600000029576e-01
0	 9.124999999999996e+01	 8.249999999999998e+00	 8.982399999943864e-01
0	 9.125000000000000e+01	 8.500000000000002e+00	 9.091200000028721e-01
0	 9.124999999999999e+01	 8.750000000000002e+00	 9.200000000149112e-01
0	 9.124999999999999e+01	 9.000000000000002e+00	 9.308800000111843e-01
0	 9.125000000000000e+01	 9.250000000000002e+00	 9.417600000021085e-01
0	 9.124999999999999e+01	 9.500000000000002e+00	 9.526400000073020e-01
0	 9.125000000000000e+01	 9.750000000000000e+00	 9.635199999995185e-01
0	 9.124999999999999e+01	 9.999999999999998e+00	 9.744000000011969e-01
0	 9.187499999999997e+01	 7.500000000000000e+00	 8.603999999991176e-01
0	 9.187499999999997e+01	 7.750000000000001e+00	 8.723199999920092e-01
0	 9.187499999999999e+01	 8.000000000000000e+00	 8.842400000007055e-01
0	 9.187499999999997e+01	 8.250000000000002e+00	 8.961600000034764e-01
0	 9.187499999999999e+01	 8.500000000000004e+00	 9.080800000077736e-01
0	 9.187499999999999e+01	 8.750000000000002e+00	 9.200000000042901e-01
0	 9.187499999999997e+01	 8.999999999999998e+00	 9.319199999971377e-01
0	 9.187499999999999e+01	 9.250000000000002e+00	 9.438400000050289e-01
0	 9.187499999999999e+01	 9.500000000000002e+00	 9.557600000096600e-01
0	 9.187499999999999e+01	 9.750000000000004e+00	 9.676800000050886e-01
0	 9.187499999999999e+01	 1.000000000000000e+01	 9.796000000108052e-01
0	 9.249999999999999e+01	 7.500000000000000e+00	 8.543999999972131e-01
0	 9.250000000000000e+01	 7.750000000000000e+00	 8.675199999977008e-01
0	 9.250000000000000e+01	 8.000000000000002e+00	 8.806399999954800e-01
0	 9.249999999999999e+01	 8.250000000000002e+00	 8.937600000033097e-01
0	 9.249999999999999e+01	 8.500000000000000e+00	 9.068799999955058e-01
0	 9.249999999999999e+01	 8.750000000000002e+00	 9.200000000056342e-01
0	 9.249999999999997e+01	 9.000000000000002e+00	 9.331200000122514e-01
0	 9.249999999999997e+01	 9.250000000000002e+00	 9.462400000028935e-01
0	 9.249999999999997e+01	 9.500000000000000e+00	 9.593600000073419e-01
0	 9.249999999999997e+01	 9.750000000000002e+00	 9.724800000299256e-01
0	 9.249999999999999e+01	 1.000000000000000e+01	 9.855999999956566e-01
0	 9.312499999999997e+01	 7.500000000000000e+00	 8.475999999973285e-01
0	 9.312499999999997e+01	 7.750000000000000e+00	 8.620799999946578e-01
0	 9.312499999999997e+01	 8.000000000000000e+00	 8.765600000009247e-01
0	 9.312499999999999e+01	 8.250000000000002e+00	 8.910399999939218e-01
0	 9.312499999999997e+01	 8.500000000000000e+00	 9.055199999977507e-01
0	 9.312499999999997e+01	 8.750000000000000e+00	 9.199999999929169e-01
0	 9.312499999999999e+01	 9.000000000000002e+00	 9.344799999951191e-01
0	 9.312499999999997e+01	 9.250000000000000e+00	 9.489600000051757e-01
0	 9.312499999999997e+01	 9.500000000000002e+00	 9.634400000073751e-01
0	 9.312499999999997e+01	 9.750000000000000e+00	 9.779200000195998e-01
0	 9.312499999999997e+01	 1.000000000000000e+01	 9.923999999955410e-01
0	 9.375000000000000e+01	 7.500000000000000e+00	 8.399999999994635e-01
0	 9.375000000000001e+01	 7.750000000000001e+00	 8.559999999910375e-01
0	 9.375000000000000e+01	 8.000000000000002e+00	 8.720000000010941e-01
0	 9.375000000000001e+01	 8.250000000000002e+00	 8.879999999976463e-01
0	 9.375000000000000e+01	 8.500000000000000e+00	 9.039999999941949e-01
0	 9.375000000000000e+01	 8.750000000000000e+00	 9.200000000021192e-01
0	 9.375000000000000e+01	 9.000000000000004e+00	 9.359999999901414e-01
0	 9.375000000000001e+01	 9.250000000000005e+00	 9.520000000009078e-01
0	 9.375000000000000e+01	 9.500000000000000e+00	 9.680000000003020e-01
0	 9.375000000000000e+01	 9.750000000000002e+00	 9.839999999940127e-01
0	 9.375000000000000e+01	 1.000000000000000e+01	 9.999999999990906e-01
0	 9.375000000000000e+01	 0.000000000000000e+00	 0.000000000000000e+00
0	 9.375000000000000e+01	 2.500000000000000e-01	 1.599999998721068e-02
0	 9.375000000000001e+01	 5.000000000000000e-01	 3.200000000501617e-02
0	 9.375000000000000e+01	 7.500000000000001e-01	 4.799999999818542e-02
0	 9.375000000000000e+01	 1.000000000000000e+00	 6.400000000041929e-02
0	 9.375000000000000e+01	 1.250000000000000e+00	 7.999999999697138e-02
0	 9.375000000000000e+01	 1.500000000000000e+00	 9.599999999352174e-02
0	 9.375000000000000e+01	 1.750000000000000e+00	 1.119999999957599e-01
0	 9.375000000000001e+01	 2.000000000000000e+00	 1.279999999951542e-01
0	 9.375000000000000e+01	 2.250000000000000e+00	 1.440000000002363e-01
0	 9.375000000000000e+01	 2.500000000000000e+00	 1.599999999939428e-01
0	 9.437500000000001e+01	 0.000000000000000e+00	 0.000000000000000e+00
0	 9.437500000000000e+01	 2.500000000000000e-01	 1.664000000053328e-02
0	 9.437500000000000e+01	 5.000000000000000e-01	 3.328000000329428e-02
0	 9.437500000000001e+01	 7.500000000000001e-01	 4.991999999875701e-02
0	 9.437500000000001e+01	 1.000000000000000e+00	 6.655999999524102e-02
0	 9.437500000000000e+01	 1.250000000000000e+00	 8.319999999844005e-02
0	 9.437499999999999e+01	 1.500000000000000e+00	 9.983999999478498e-02
0	 9.437500000000001e+01	 1.750000000000000e+00	 1.164799999933131e-01
0	 9.437500000000000e+01	 2.000000000000000e+00	 1.331199999907717e-01
0	 9.437500000000001e+01	 2.250000000000000e+00	 1.497599999966682e-01
0	 9.437500000000000e+01	 2.500000000000000e+00	 1.663999999911958e-01
0	 9.500000000000001e+01	 0.000000000000000e+00	 0.000000000000000e+00
0	 9.500000000000001e+01	 2.500000000000000e-01	 1.696000001294821e-02
0	 9.500000000000000e+01	 5.000000000000000e-01	 3.392000000775713e-02
0	 9.500000000000000e+01	 7.500000000000002e-01	 5.088000000428115e-02
0	 9.499999999999997e+01	 1.000000000000000e+00	 6.784000000206360e-02
0	 9.500000000000001e+01	 1.250000000000000e+00	 8.479999999462252e-02
0	 9.500000000000001e+01	 1.500000000000000e+00	 1.017599999958884e-01
0	 9.500000000000000e+01	 1.750000000000000e+00	 1.187199999971968e-01
0	 9.500000000000000e+01	 2.000000000000000e+00	 1.356799999928882e-01
0	 9.500000000000001e+01	 2.250000000000000e+00	 1.526399999995962e-01
0	 9.500000000000000e+01	 2.500000000000000e+00	 1.695999999949294e-01
0	 9.562500000000000e+01	 0.000000000000000e+00	 0.000000000000000e+00
0	 9.562500000000001e+01	 2.500000000000000e-01	 1.696000000426967e-02
0	 9.562500000000000e+01	 5.000000000000001e-01	 3.392000000853870e-02
0	 9.562499999999999e+01	 7.500000000000001e-01	 5.087999998566834e-02
0	 9.562500000000000e+01	 1.000000000000000e+00	 6.784000000175133e-02
0	 9.562500000000000e+01	 1.250000000000000e+00	 8.479999999693180e-02
0	 9.562499999999997e+01	 1.500000000000000e+00	 1.017599999977991e-01
0	 9.562499999999999e+01	 1.750000000000000e+00	 1.187199999918676e-01
0	 9.562500000000001e+01	 2.000000000000000e+00	 1.356799999953751e-01
0	 9.562499999999999e+01	 2.250000000000000e+00	 1.526399999953292e-01
0	 9.562500000000000e+01	 2.500000000000000e+00	 1.695999999995479e-01
0	 9.625000000000000e+01	 0.000000000000000e+00	 0.000000000000000e+00
0	 9.625000000000000e+01	 2.500000000000000e-01	 1.664000000564889e-02
0	 9.624999999999999e+01	 5.000000000000001e-01	 3.327999998571148e-02
0	 9.625000000000000e+01	 7.500000000000001e-01	 4.992000000009994e-02
0	 9.625000000000001e+01	 1.000000000000000e+00	 6.655999999491054e-02
0	 9.625000000000000e+01	 1.250000000000000e+00	 8.319999999955027e-02
0	 9.625000000000001e+01	 1.500000000000000e+00	 9.983999999637407e-02
0	 9.624999999999997e+01	 1.750000000000000e+00	 1.164799999955340e-01
0	 9.624999999999997e+01	 2.000000000000000e+00	 1.331199999995647e-01
0	 9.624999999999999e+01	 2.250000000000000e+00	 1.497599999964910e-01
0	 9.625000000000000e+01	 2.500000000000000e+00	 1.663999999934162e-01
0	 9.687500000000000e+01	 0.000000000000000e+00	 0.000000000000000e+00
0	 9.687499999999997e+01	 2.499999999999999e-01	 1.599999999653037e-02
0	 9.687499999999999e+01	 4.999999999999999e-01	 3.200000000645118e-02
0	 9.687499999999997e+01	 7.500000000000000e-01	 4.800000000048277e-02
0	 9.687500000000000e+01	 1.000000000000000e+00	 6.400000000336399e-02
0	 9.687499999999999e+01	 1.250000000000000e+00	 7.999999999697138e-02
0	 9.687500000000000e+01	 1.500000000000000e+00	 9.599999999954496e-02
0	 9.687500000000000e+01	 1.750000000000000e+00	 1.119999999994805e-01
0	 9.687499999999997e+01	 2.000000000000000e+00	 1.279999999951542e-01
0	 9.687500000000000e+01	 2.250000000000000e+00	 1.439999999967174e-01
0	 9.687500000000000e+01	 2.500000000000000e+00	 1.599999999939428e-01
0	 9.749999999999999e+01	 0.000000000000000e+00	 0.000000000000000e+00
0	 9.749999999999996e+01	 2.499999999999999e-01	 1.504000000259126e-02
0	 9.749999999999997e+01	 5.000000000000000e-01	 3.007999998460398e-02
0	 9.749999999999996e+01	 7.500000000000000e-01	 4.512000000154008e-02
0	 9.749999999999999e+01	 1.000000000000000e+00	 6.016000000156200e-02
0	 9.750000000000000e+01	 1.250000000000000e+00	 7.519999999772153e-02
0	 9.750000000000000e+01	 1.500000000000000e+00	 9.023999999672325e-02
0	 9.749999999999999e+01	 1.750000000000000e+00	 1.052799999939680e-01
0	 9.749999999999999e+01	 2.000000000000000e+00	 1.203200000077248e-01
0	 9.750000000000000e+01	 2.250000000000000e+00	 1.353599999908862e-01
0	 9.749999999999999e+01	 2.500000000000000e+00	 1.503999999954431e-01
0	 9.812499999999997e+01	 0.000000000000000e+00	 0.000000000000000e+00
0	 9.812500000000000e+01	 2.500000000000001e-01	 1.375999999167187e-02
0	 9.812499999999997e+01	 5.000000000000000e-01	 2.752000000825374e-02
0	 9.812499999999999e+01	 7.500000000000001e-01	 4.128000000667729e-02
0	 9.812499999999997e+01	 1.000000000000000e+00	 5.504000000906323e-02
0	 9.812499999999999e+01	 1.250000000000000e+00	 6.880000000251130e-02
0	 9.812499999999997e+01	 1.500000000000000e+00	 8.256000000306615e-02
0	 9.812499999999997e+01	 1.750000000000000e+00	 9.631999999441956e-02
0	 9.812499999999997e+01	 2.000000000000000e+00	 1.100799999960600e-01
0	 9.812499999999997e+01	 2.250000000000000e+00	 1.238400000033848e-01
0	 9.812499999999999e+01	 2.500000000000000e+00	 1.375999999993383e-01
0	 9.874999999999997e+01	 0.000000000000000e+00	 0.000000000000000e+00
0	 9.874999999999999e+01	 2.500000000000000e-01	 1.216000000077142e-02
0	 9.874999999999996e+01	 5.000000000000000e-01	 2.432000000587758e-02
0	 9.875000000000000e+01	 7.500000000000001e-01	 3.647999999396145e-02
0	 9.874999999999999e+01	 1.000000000000000e+00	 4.864000000173607e-02
0	 9.874999999999999e+01	 1.250000000000000e+00	 6.080000000281417e-02
0	 9.874999999999999e+01	 1.500000000000000e+00	 7.296000000105009e-02
0	 9.875000000000001e+01	 1.750000000000000e+00	 8.511999999996181e-02
0	 9.874999999999999e+01	 2.000000000000000e+00	 9.728000000563952e-02
0	 9.875000000000000e+01	 2.250000000000000e+00	 1.094399999999506e-01
0	 9.874999999999997e+01	 2.500000000000000e+00	 1.215999999999440e-01
0	 9.937499999999999e+01	 0.000000000000000e+00	 0.000000000000000e+00
0	 9.937500000000000e+01	 2.500000000000000e-01	 1.024000000577557e-02
0	 9.937499999999997e+01	 5.000000000000000e-01	 2.047999999314578e-02
0	 9.937499999999999e+01	 7.500000000000001e-01	 3.072000000656846e-02
0	 9.937500000000000e+01	 1.000000000000000e+00	 4.095999998980841e-02
0	 9.937499999999999e+01	 1.250000000000000e+00	 5.119999999863012e-02
0	 9.937499999999997e+01	 1.500000000000000e+00	 6.144000000176674e-02
0	 9.937499999999997e+01	 1.750000000000000e+00	 7.168000000206121e-02
0	 9.937499999999997e+01	 2.000000000000000e+00	 8.191999999450240e-02
0	 9.937499999999999e+01	 2.250000000000000e+00	 9.216000000265012e-02
0	 9.937499999999999e+01	 2.500000000000000e+00	 1.023999999972602e-01
0	 1.000000000000000e+02	 0.000000000000000e+00	 0.000000000000000e+00
0	 1.000000000000000e+02	 2.500000000000000e-01	 7.999999987412586e-03
0	 1.000000000000000e+02	 5.000000000000000e-01	 1.600000001326832e-02
0	 1.000000000000000e+02	 7.500000000000001e-01	 2.400000000193425e-02
0	 1.000000000000000e+02	 1.000000000000000e+00	 3.199999999594638e-02
0	 1.000000000000000e+02	 1.250000000000000e+00	 4.000000000132787e-02
0	 9.999999999999999e+01	 1.500000000000000e+00	 4.799999999818243e-02
0	 1.000000000000000e+02	 1.750000000000000e+00	 5.600000000072214e-02
0	 1.000000000000000e+02	 2.000000000000000e+00	 6.399999999757711e-02
0	 1.000000000000000e+02	 2.250000000000000e+00	 7.200000001148510e-02
0	 1.000000000000000e+02	 2.500000000000000e+00	 8.000000000265574e-02
0	 9.375000000000000e+01	 2.500000000000000e+00	 1.599999999939428e-01
0	 9.375000000000000e+01	 2.750000000000000e+00	 1.939999999848340e-01
0	 9.375000000000000e+01	 3.000000000000001e+00	 2.279999999956326e-01
0	 9.375000000000001e+01	 3.250000000000001e+00	 2.619999999950542e-01
0	 9.375000000000000e+01	 3.500000000000001e+00	 2.959999999944767e-01
0	 9.375000000000000e+01	 3.750000000000001e+00	 3.299999999995845e-01
0	 9.375000000000000e+01	 4.000000000000001e+00	 3.639999999990078e-01
0	 9.375000000000000e+01	 4.250000000000002e+00	 3.980000000012752e-01
0	 9.375000000000001e+01	 4.500000000000003e+00	 4.319999999950106e-01
0	 9.375000000000000e+01	 4.750000000000002e+00	 4.660000000058098e-01
0	 9.375000000000000e+01	 5.000000000000000e+00	 5.000000000052297e-01
0	 9.437500000000000e+01	 2.500000000000000e+00	 1.663999999911958e-01
0	 9.437499999999999e+01	 2.750000000000000e+00	 1.993799999912201e-01
0	 9.437499999999999e+01	 3.000000000000001e+00	 2.323599999896356e-01
0	 9.437500000000000e+01	 3.250000000000000e+00	 2.653399999999159e-01
0	 9.437500000000000e+01	 3.500000000000001e+00	 2.983200000021682e-01
0	 9.437500000000001e+01	 3.750000000000001e+00	 3.313000000005673e-01
0	 9.437499999999999e+01	 4.000000000000001e+00	 3.642799999989954e-01
0	 9.437500000000001e+01	 4.250000000000004e+00	 3.972600000061278e-01
0	 9.437499999999999e+01	 4.500000000000002e+00	 4.302400000006275e-01
0	 9.437500000000000e+01	 4.750000000000004e+00	 4.632199999979725e-01
0	 9.437500000000000e+01	 5.000000000000000e+00	 4.962000000099388e-01
0	 9.500000000000000e+01	 2.500000000000000e+00	 1.695999999949294e-01
0	 9.500000000000000e+01	 2.750000000000000e+00	 2.019199999916504e-01
0	 9.499999999999999e+01	 3.000000000000000e+00	 2.342399999931602e-01
0	 9.499999999999997e+01	 3.250000000000000e+00	 2.665599999970532e-01
0	 9.499999999999999e+01	 3.500000000000000e+00	 2.988799999987568e-01
0	 9.500000000000000e+01	 3.750000000000002e+00	 3.311999999993987e-01
0	 9.499999999999999e+01	 4.000000000000001e+00	 3.635200000012366e-01
0	 9.500000000000000e+01	 4.250000000000002e+00	 3.958400000072971e-01
0	 9.500000000000001e+01	 4.500000000000002e+00	 4.281600000023645e-01
0	 9.500000000000001e+01	 4.750000000000003e+00	 4.604800000009468e-01
0	 9.500000000000000e+01	 4.999999999999999e+00	 4.928000000038678e-01
0	 9.562500000000000e+01	 2.500000000000000e+00	 1.695999999995479e-01
0	 9.562499999999999e+01	 2.750000000000000e+00	 2.016199999972233e-01
0	 9.562499999999999e+01	 3.000000000000001e+00	 2.336399999914517e-01
0	 9.562499999999999e+01	 3.250000000000001e+00	 2.656599999969023e-01
0	 9.562499999999999e+01	 3.500000000000001e+00	 2.976800000020521e-01
0	 9.562499999999999e+01	 3.750000000000001e+00	 3.296999999974812e-01
0	 9.562500000000001e+01	 4.000000000000003e+00	 3.617200000002118e-01
0	 9.562500000000000e+01	 4.250000000000002e+00	 3.937400000016053e-01
0	 9.562499999999999e+01	 4.500000000000002e+00	 4.257599999959869e-01
0	 9.562500000000001e+01	 4.750000000000003e+00	 4.577800000096624e-01
0	 9.562500000000000e+01	 4.999999999999999e+00	 4.898000000039816e-01
0	 9.625000000000000e+01	 2.500000000000000e+00	 1.663999999934162e-01
0	 9.624999999999999e+01	 2.750000000000000e+00	 1.984800000021140e-01
0	 9.625000000000000e+01	 3.000000000000001e+00	 2.305599999974484e-01
0	 9.624999999999999e+01	 3.250000000000001e+00	 2.626399999984919e-01
0	 9.624999999999997e+01	 3.500000000000000e+00	 2.947200000023608e-01
0	 9.625000000000000e+01	 3.750000000000002e+00	 3.267999999952111e-01
0	 9.624999999999997e+01	 4.000000000000001e+00	 3.588800000002834e-01
0	 9.625000000000000e+01	 4.250000000000001e+00	 3.909600000053563e-01
0	 9.625000000000000e+01	 4.500000000000003e+00	 4.230400000047419e-01
0	 9.624999999999997e+01	 4.750000000000001e+00	 4.551200000065591e-01
0	 9.625000000000000e+01	 5.000000000000001e+00	 4.872000000105458e-01
0	 9.687500000000000e+01	 2.500000000000000e+00	 1.599999999939428e-01
0	 9.687500000000000e+01	 2.750000000000000e+00	 1.925000000017277e-01
0	 9.687500000000000e+01	 3.000000000000001e+00	 2.249999999976756e-01
0	 9.687500000000001e+01	 3.250000000000001e+00	 2.574999999995819e-01
0	 9.687499999999999e+01	 3.500000000000001e+00	 2.899999999997461e-01
0	 9.687499999999999e+01	 3.750000000000001e+00	 3.225000000043111e-01
0	 9.687500000000000e+01	 4.000000000000001e+00	 3.550000000014996e-01
0	 9.687500000000000e+01	 4.250000000000002e+00	 3.875000000045060e-01
0	 9.687499999999997e+01	 4.500000000000002e+00	 4.200000000046691e-01
0	 9.687500000000000e+01	 4.750000000000002e+00	 4.525000000045685e-01
0	 9.687500000000000e+01	 5.000000000000000e+00	 4.850000000004685e-01
0	 9.749999999999999e+01	 2.500000000000000e+00	 1.503999999954431e-01
0	 9.749999999999999e+01	 2.750000000000000e+00	 1.836799999989384e-01
0	 9.749999999999999e+01	 3.000000000000000e+00	 2.169599999962068e-01
0	 9.749999999999999e+01	 3.250000000000001e+00	 2.502399999952002e-01
0	 9.749999999999996e+01	 3.500000000000001e+00	 2.835200000001499e-01
0	 9.749999999999997e+01	 3.750000000000001e+00	 3.168000000019858e-01
0	 9.749999999999997e+01	 4.000000000000001e+00	 3.500800000045689e-01
0	 9.750000000000000e+01	 4.250000000000003e+00	 3.833600000035623e-01
0	 9.749999999999999e+01	 4.500000000000002e+00	 4.166399999974145e-01
0	 9.749999999999997e+01	 4.750000000000002e+00	 4.499200000129200e-01
0	 9.749999999999999e+01	 5.000000000000000e+00	 4.832000000078551e-01
0	 9.812499999999999e+01	 2.500000000000000e+00	 1.375999999993383e-01
0	 9.812500000000000e+01	 2.750000000000001e+00	 1.720199999943992e-01
0	 9.812499999999996e+01	 3.000000000000000e+00	 2.064400000015049e-01
0	 9.812499999999999e+01	 3.250000000000001e+00	 2.408600000038064e-01
0	 9.812499999999999e+01	 3.500000000000001e+00	 2.752799999967680e-01
0	 9.812499999999999e+01	 3.750000000000001e+00	 3.096999999991366e-01
0	 9.812500000000000e+01	 4.000000000000003e+00	 3.441200000054330e-01
0	 9.812499999999999e+01	 4.250000000000002e+00	 3.785399999998151e-01
0	 9.812499999999999e+01	 4.500000000000003e+00	 4.129599999959562e-01
0	 9.812499999999997e+01	 4.750000000000002e+00	 4.473799999960258e-01
0	 9.812499999999999e+01	 5.000000000000000e+00	 4.818000000000212e-01
0	 9.874999999999997e+01	 2.500000000000000e+00	 1.215999999999440e-01
0	 9.874999999999997e+01	 2.750000000000000e+00	 1.575199999995062e-01
0	 9.874999999999999e+01	 3.000000000000000e+00	 1.934400000029962e-01
0	 9.875000000000000e+01	 3.250000000000000e+00	 2.293600000038775e-01
0	 9.875000000000000e+01	 3.500000000000001e+00	 2.652800000067222e-01
0	 9.874999999999999e+01	 3.750000000000001e+00	 3.012000000001603e-01
0	 9.874999999999999e+01	 4.000000000000002e+00	 3.371200000003682e-01
0	 9.874999999999999e+01	 4.250000000000002e+00	 3.730400000108610e-01
0	 9.875000000000000e+01	 4.500000000000003e+00	 4.089600000156697e-01
0	 9.874999999999999e+01	 4.750000000000002e+00	 4.448800000034226e-01
0	 9.874999999999997e+01	 5.000000000000000e+00	 4.808000000025459e-01
0	 9.937499999999999e+01	 2.500000000000000e+00	 1.023999999972602e-01
0	 9.937500000000000e+01	 2.750000000000001e+00	 1.401800000000852e-01
0	 9.937499999999999e+01	 3.000000000000001e+00	 1.779600000039945e-01
0	 9.937499999999999e+01	 3.250000000000001e+00	 2.157400000083428e-01
0	 9.937499999999999e+01	 3.500000000000001e+00	 2.535199999993589e-01
0	 9.937499999999999e+01	 3.750000000000001e+00	 2.913000000024190e-01
0	 9.937499999999999e+01	 4.000000000000002e+00	 3.290800000115729e-01
0	 9.937499999999999e+01	 4.250000000000002e+00	 3.668600000025889e-01
0	 9.937499999999999e+01	 4.500000000000002e+00	 4.046400000049744e-01
0	 9.937499999999999e+01	 4.750000000000002e+00	 4.424200000073598e-01
0	 9.937499999999999e+01	 5.000000000000000e+00	 4.802000000040606e-01
0	 1.000000000000000e+02	 2.500000000000000e+00	 8.000000000265574e-02
0	 1.000000000000000e+02	 2.750000000000000e+00	 1.199999999911935e-01
0	 1.000000000000000e+02	 3.000000000000001e+00	 1.600000000081538e-01
0	 1.000000000000000e+02	 3.250000000000001e+00	 2.000000000037972e-01
0	 1.000000000000000e+02	 3.500000000000001e+00	 2.400000000079672e-01
0	 1.000000000000000e+02	 3.750000000000001e+00	 2.800000000092950e-01
0	 1.000000000000000e+02	 4.000000000000001e+00	 3.199999999992540e-01
0	 1.000000000000000e+02	 4.250000000000002e+00	 3.600000000062665e-01
0	 1.000000000000000e+02	 4.500000000000002e+00	 4.000000000019099e-01
0	 1.000000000000000e+02	 4.750000000000002e+00	 4.399999999918688e-01
0	 1.000000000000000e+02	 5.000000000000000e+00	 4.800000000045657e-01
0	 9.375000000000000e+01	 5.000000000000000e+00	 5.000000000052297e-01
0	 9.375000000000000e+01	 5.250000000000000e+00	 5.339999999922126e-01
0	 9.375000000000000e+01	 5.500000000000001e+00	 5.680000000047878e-01
0	 9.375000000000001e+01	 5.750000000000002e+00	 6.020000000034991e-01
0	 9.375000000000000e+01	 6.000000000000001e+00	 6.360000000000792e-01
0	 9.375000000000000e+01	 6.250000000000001e+00	 6.700000000023447e-01
0	 9.375000000000000e+01	 6.500000000000001e+00	 7.039999999989259e-01
0	 9.375000000000000e+01	 6.750000000000002e+00	 7.380000000011935e-01
0	 9.375000000000001e+01	 7.000000000000003e+00	 7.719999999920867e-01
0	 9.375000000000000e+01	 7.250000000000002e+00	 8.060000000057279e-01
0	 9.375000000000000e+01	 7.500000000000000e+00	 8.399999999994635e-01
0	 9.437500000000000e+01	 5.000000000000000e+00	 4.962000000099388e-01
0	 9.437499999999999e+01	 5.250000000000000e+00	 5.299400000112837e-01
0	 9.437499999999999e+01	 5.500000000000001e+00	 5.636799999995181e-01
0	 9.437500000000000e+01	 5.750000000000000e+00	 5.974200000041137e-01
0	 9.437500000000000e+01	 6.000000000000001e+00	 6.311600000033684e-01
0	 9.437500000000001e+01	 6.250000000000002e+00	 6.649000000044757e-01
0	 9.437499999999999e+01	 6.500000000000001e+00	 6.986399999999725e-01
0	 9.437500000000001e+01	 6.750000000000003e+00	 7.323800000040848e-01
0	 9.437499999999999e+01	 7.000000000000001e+00	 7.661199999956533e-01
0	 9.437500000000000e+01	 7.250000000000003e+00	 7.998600000014358e-01
0	 9.437500000000000e+01	 7.500000000000000e+00	 8.335999999990127e-01
0	 9.500000000000000e+01	 4.999999999999999e+00	 4.928000000038678e-01
0	 9.500000000000000e+01	 5.250000000000001e+00	 5.265600000092013e-01
0	 9.499999999999999e+01	 5.500000000000001e+00	 5.603200000045797e-01
0	 9.499999999999997e+01	 5.750000000000000e+00	 5.940800000054055e-01
0	 9.499999999999999e+01	 6.000000000000000e+00	 6.278400000076834e-01
0	 9.500000000000000e+01	 6.250000000000001e+00	 6.616000000033040e-01
0	 9.499999999999999e+01	 6.500000000000000e+00	 6.953600000031402e-01
0	 9.500000000000000e+01	 6.750000000000001e+00	 7.291200000011602e-01
0	 9.500000000000001e+01	 7.000000000000003e+00	 7.628800000055947e-01
0	 9.500000000000001e+01	 7.250000000000004e+00	 7.966400000078597e-01
0	 9.500000000000000e+01	 7.499999999999999e+00	 8.304000000027404e-01
0	 9.562500000000000e+01	 4.999999999999999e+00	 4.898000000039816e-01
0	 9.562499999999999e+01	 5.250000000000001e+00	 5.238600000026704e-01
0	 9.562499999999999e+01	 5.500000000000000e+00	 5.579200000028861e-01
0	 9.562499999999999e+01	 5.750000000000001e+00	 5.919800000032216e-01
0	 9.562499999999999e+01	 6.000000000000001e+00	 6.260400000055659e-01
0	 9.562499999999999e+01	 6.250000000000001e+00	 6.600999999999653e-01
0	 9.562500000000001e+01	 6.500000000000003e+00	 6.941600000020223e-01
0	 9.562500000000000e+01	 6.750000000000002e+00	 7.282200000066495e-01
0	 9.562499999999999e+01	 7.000000000000003e+00	 7.622799999985806e-01
0	 9.562500000000001e+01	 7.250000000000003e+00	 7.963400000019893e-01
0	 9.562500000000000e+01	 7.500000000000000e+00	 8.304000000045166e-01
0	 9.625000000000000e+01	 5.000000000000001e+00	 4.872000000105458e-01
0	 9.624999999999999e+01	 5.250000000000000e+00	 5.218400000006653e-01
0	 9.625000000000000e+01	 5.500000000000001e+00	 5.564800000037118e-01
0	 9.624999999999999e+01	 5.750000000000000e+00	 5.911200000062501e-01
0	 9.624999999999997e+01	 6.000000000000000e+00	 6.257600000062844e-01
0	 9.625000000000000e+01	 6.250000000000001e+00	 6.603999999984977e-01
0	 9.624999999999997e+01	 6.500000000000001e+00	 6.950400000008016e-01
0	 9.625000000000000e+01	 6.750000000000002e+00	 7.296800000073693e-01
0	 9.625000000000000e+01	 7.000000000000003e+00	 7.643200000011442e-01
0	 9.624999999999997e+01	 7.250000000000001e+00	 7.989600000030348e-01
0	 9.625000000000000e+01	 7.500000000000001e+00	 8.335999999999900e-01
0	 9.687500000000000e+01	 5.000000000000000e+00	 4.850000000004685e-01
0	 9.687500000000000e+01	 5.250000000000000e+00	 5.205000000061857e-01
0	 9.687500000000000e+01	 5.500000000000002e+00	 5.560000000014873e-01
0	 9.687500000000001e+01	 5.750000000000001e+00	 5.915000000032801e-01
0	 9.687499999999999e+01	 6.000000000000000e+00	 6.270000000051070e-01
0	 9.687499999999999e+01	 6.250000000000002e+00	 6.625000000042292e-01
0	 9.687500000000000e+01	 6.500000000000001e+00	 6.980000000023699e-01
0	 9.687500000000000e+01	 6.750000000000003e+00	 7.335000000063286e-01
0	 9.687499999999997e+01	 7.000000000000002e+00	 7.690000000003384e-01
0	 9.687500000000000e+01	 7.250000000000002e+00	 8.044999999997691e-01
0	 9.687500000000000e+01	 7.500000000000000e+00	 8.400000000051475e-01
0	 9.749999999999999e+01	 5.000000000000000e+00	 4.832000000078551e-01
0	 9.749999999999999e+01	 5.250000000000000e+00	 5.198400000076279e-01
0	 9.749999999999999e+01	 5.500000000000001e+00	 5.564800000068580e-01
0	 9.749999999999999e+01	 5.750000000000001e+00	 5.931200000031949e-01
0	 9.749999999999996e+01	 6.000000000000000e+00	 6.297600000061984e-01
0	 9.749999999999997e+01	 6.250000000000001e+00	 6.664000000018248e-01
0	 9.749999999999997e+01	 6.500000000000000e+00	 7.030400000024615e-01
0	 9.750000000000000e+01	 6.750000000000003e+00	 7.396800000009297e-01
0	 9.749999999999999e+01	 7.000000000000001e+00	 7.763200000027838e-01
0	 9.749999999999997e+01	 7.250000000000003e+00	 8.129600000063951e-01
0	 9.749999999999999e+01	 7.500000000000000e+00	 8.495999999951207e-01
0	 9.812499999999999e+01	 5.000000000000000e+00	 4.818000000000212e-01
0	 9.812500000000000e+01	 5.250000000000002e+00	 5.198600000024474e-01
0	 9.812499999999996e+01	 5.499999999999999e+00	 5.579200000083923e-01
0	 9.812499999999999e+01	 5.750000000000003e+00	 5.959800000027828e-01
0	 9.812499999999999e+01	 6.000000000000002e+00	 6.340399999999122e-01
0	 9.812499999999999e+01	 6.250000000000002e+00	 6.720999999993439e-01
0	 9.812500000000000e+01	 6.500000000000001e+00	 7.101600000027027e-01
0	 9.812499999999999e+01	 6.750000000000002e+00	 7.482199999969895e-01
0	 9.812499999999999e+01	 7.000000000000003e+00	 7.862799999958776e-01
0	 9.812499999999997e+01	 7.250000000000002e+00	 8.243399999958522e-01
0	 9.812499999999999e+01	 7.500000000000000e+00	 8.624000000054368e-01
0	 9.874999999999997e+01	 5.000000000000000e+00	 4.808000000025459e-01
0	 9.874999999999997e+01	 5.250000000000000e+00	 5.205600000007975e-01
0	 9.874999999999999e+01	 5.500000000000000e+00	 5.603200000058188e-01
0	 9.875000000000000e+01	 5.750000000000001e+00	 6.000800000061003e-01
0	 9.875000000000000e+01	 6.000000000000001e+00	 6.398400000012394e-01
0	 9.874999999999999e+01	 6.250000000000002e+00	 6.795999999997617e-01
0	 9.874999999999999e+01	 6.500000000000001e+00	 7.193599999993695e-01
0	 9.874999999999999e+01	 6.750000000000002e+00	 7.591200000035777e-01
0	 9.875000000000000e+01	 7.000000000000002e+00	 7.988800000077865e-01
0	 9.874999999999999e+01	 7.250000000000002e+00	 8.386400000006232e-01
0	 9.874999999999997e+01	 7.500000000000000e+00	 8.783999999991463e-01
0	 9.937499999999999e+01	 5.000000000000000e+00	 4.802000000040606e-01
0	 9.937500000000000e+01	 5.250000000000001e+00	 5.219400000062665e-01
0	 9.937499999999999e+01	 5.500000000000001e+00	 5.636800000095572e-01
0	 9.937499999999999e+01	 5.750000000000001e+00	 6.054200000090234e-01
0	 9.937499999999999e+01	 6.000000000000001e+00	 6.471600000036839e-01
0	 9.937499999999999e+01	 6.250000000000002e+00	 6.889000000047039e-01
0	 9.937499999999999e+01	 6.500000000000002e+00	 7.306400000061336e-01
0	 9.937499999999999e+01	 6.750000000000002e+00	 7.723800000007940e-01
0	 9.937499999999999e+01	 7.000000000000002e+00	 8.141200000068238e-01
0	 9.937499999999999e+01	 7.250000000000003e+00	 8.558600000014847e-01
0	 9.937499999999999e+01	 7.500000000000000e+00	 8.976000000018303e-01
0	 1.000000000000000e+02	 5.000000000000000e+00	 4.800000000045657e-01
0	 1.000000000000000e+02	 5.250000000000000e+00	 5.239999999929520e-01
0	 1.000000000000000e+02	 5.500000000000001e+00	 5.680000000040765e-01
0	 1.000000000000000e+02	 5.750000000000002e+00	 6.120000000038319e-01
0	 1.000000000000000e+02	 6.000000000000001e+00	 6.560000000007450e-01
0	 1.000000000000000e+02	 6.250000000000001e+00	 7.000000000061846e-01
0	 1.000000000000000e+02	 6.500000000000001e+00	 7.439999999917288e-01
0	 1.000000000000000e+02	 6.750000000000002e+00	 7.880000000000110e-01
0	 1.000000000000000e+02	 7.000000000000002e+00	 8.319999999969242e-01
0	 1.000000000000000e+02	 7.250000000000002e+00	 8.759999999824680e-01
0	 1.000000000000000e+02	 7.500000000000000e+00	 9.199999999964349e-01
0	 9.375000000000000e+01	 7.500000000000000e+00	 8.399999999994635e-01
0	 9.375000000000001e+01	 7.750000000000001e+00	 8.559999999910375e-01
0	 9.375000000000000e+01	 8.000000000000002e+00	 8.720000000010941e-01
0	 9.375000000000001e+01	 8.250000000000002e+00	 8.879999999976463e-01
0	 9.375000000000000e+01	 8.500000000000000e+00	 9.039999999941949e-01
0	 9.375000000000000e+01	 8.750000000000000e+00	 9.200000000021192e-01
0	 9.375000000000000e+01	 9.000000000000004e+00	 9.359999999901414e-01
0	 9.375000000000001e+01	 9.250000000000005e+00	 9.520000000009078e-01
0	 9.375000000000000e+01	 9.500000000000000e+00	 9.680000000003020e-01
0	 9.375000000000000e+01	 9.750000000000002e+00	 9.839999999940127e-01
0	 9.375000000000000e+01	 1.000000000000000e+01	 9.999999999990906e-01
0	 9.437500000000000e+01	 7.500000000000000e+00	 8.335999999990127e-01
0	 9.437500000000001e+01	 7.750000000000001e+00	 8.509999999980821e-01
0	 9.437500000000001e+01	 8.000000000000002e+00	 8.683999999954194e-01
0	 9.437500000000000e+01	 8.250000000000000e+00	 8.858000000022511e-01
0	 9.437499999999999e+01	 8.500000000000002e+00	 9.031999999996517e-01
0	 9.437500000000000e+01	 8.750000000000002e+00	 9.205999999970513e-01
0	 9.437500000000003e+01	 9.000000000000004e+00	 9.379999999941887e-01
0	 9.437499999999999e+01	 9.250000000000000e+00	 9.554000000030214e-01
0	 9.437500000000001e+01	 9.500000000000004e+00	 9.728000000002689e-01
0	 9.437500000000000e+01	 9.750000000000002e+00	 9.902000000089177e-01
0	 9.437500000000001e+01	 1.000000000000000e+01	 1.007599999995001e+00
0	 9.500000000000000e+01	 7.499999999999999e+00	 8.304000000027404e-01
0	 9.500000000000003e+01	 7.750000000000000e+00	 8.488000000015439e-01
0	 9.499999999999999e+01	 8.000000000000000e+00	 8.671999999943648e-01
0	 9.500000000000001e+01	 8.250000000000002e+00	 8.855999999999072e-01
0	 9.500000000000001e+01	 8.500000000000000e+00	 9.039999999993916e-01
0	 9.500000000000001e+01	 8.750000000000002e+00	 9.224000000102736e-01
0	 9.500000000000000e+01	 9.000000000000000e+00	 9.408000000052024e-01
0	 9.499999999999999e+01	 9.250000000000002e+00	 9.591999999970755e-01
0	 9.499999999999999e+01	 9.500000000000002e+00	 9.775999999902691e-01
0	 9.500000000000001e+01	 9.750000000000002e+00	 9.959999999949788e-01
0	 9.500000000000001e+01	 1.000000000000000e+01	 1.014399999989023e+00
0	 9.562500000000000e+01	 7.500000000000000e+00	 8.304000000045166e-01
0	 9.562499999999999e+01	 7.750000000000001e+00	 8.494000000037207e-01
0	 9.562500000000000e+01	 8.000000000000000e+00	 8.683999999991887e-01
0	 9.562500000000000e+01	 8.250000000000002e+00	 8.873999999970293e-01
0	 9.562499999999999e+01	 8.500000000000000e+00	 9.064000000038109e-01
0	 9.562500000000000e+01	 8.750000000000004e+00	 9.253999999806241e-01
0	 9.562500000000000e+01	 9.000000000000002e+00	 9.444000000018929e-01
0	 9.562500000000000e+01	 9.250000000000002e+00	 9.633999999877564e-01
0	 9.562500000000000e+01	 9.500000000000002e+00	 9.823999999818720e-01
0	 9.562500000000000e+01	 9.750000000000000e+00	 1.001400000003620e+00
0	 9.562500000000000e+01	 9.999999999999998e+00	 1.020400000003008e+00
0	 9.625000000000000e+01	 7.500000000000001e+00	 8.335999999999900e-01
0	 9.624999999999997e+01	 7.749999999999999e+00	 8.527999999969381e-01
0	 9.624999999999997e+01	 8.000000000000000e+00	 8.720000000021786e-01
0	 9.625000000000001e+01	 8.250000000000000e+00	 8.911999999971115e-01
0	 9.624999999999999e+01	 8.500000000000000e+00	 9.104000000038271e-01
0	 9.625000000000000e+01	 8.750000000000004e+00	 9.295999999949347e-01
0	 9.624999999999997e+01	 9.000000000000002e+00	 9.487999999953175e-01
0	 9.625000000000001e+01	 9.250000000000004e+00	 9.679999999894707e-01
0	 9.625000000000000e+01	 9.500000000000004e+00	 9.871999999902716e-01
0	 9.625000000000000e+01	 9.750000000000000e+00	 1.006400000010014e+00
0	 9.625000000000000e+01	 1.000000000000000e+01	 1.025599999982775e+00
0	 9.687500000000000e+01	 7.500000000000000e+00	 8.400000000051475e-01
0	 9.687500000000000e+01	 7.750000000000001e+00	 8.590000000006384e-01
0	 9.687500000000001e+01	 8.000000000000000e+00	 8.780000000015786e-01
0	 9.687500000000001e+01	 8.250000000000004e+00	 8.970000000035516e-01
0	 9.687500000000000e+01	 8.500000000000002e+00	 9.160000000008527e-01
0	 9.687499999999999e+01	 8.750000000000000e+00	 9.349999999983538e-01
0	 9.687500000000000e+01	 9.000000000000002e+00	 9.540000000065554e-01
0	 9.687499999999999e+01	 9.250000000000000e+00	 9.729999999837470e-01
0	 9.687500000000000e+01	 9.500000000000002e+00	 9.919999999851810e-01
0	 9.687499999999999e+01	 9.750000000000002e+00	 1.010999999981604e+00
0	 9.687500000000000e+01	 1.000000000000000e+01	 1.030000000002929e+00
0	 9.749999999999999e+01	 7.500000000000000e+00	 8.495999999951207e-01
0	 9.749999999999999e+01	 7.750000000000000e+00	 8.680000000070328e-01
0	 9.750000000000000e+01	 8.000000000000000e+00	 8.864000000045283e-01
0	 9.749999999999997e+01	 8.250000000000000e+00	 9.047999999978613e-01
0	 9.749999999999997e+01	 8.500000000000002e+00	 9.231999999968818e-01
0	 9.749999999999999e+01	 8.750000000000002e+00	 9.416000000022573e-01
0	 9.750000000000000e+01	 9.000000000000002e+00	 9.599999999931599e-01
0	 9.749999999999999e+01	 9.250000000000000e+00	 9.783999999967798e-01
0	 9.749999999999999e+01	 9.500000000000002e+00	 9.967999999879442e-01
0	 9.749999999999999e+01	 9.750000000000004e+00	 1.015199999998337e+00
0	 9.749999999999999e+01	 1.000000000000000e+01	 1.033599999999524e+00
0	 9.812499999999999e+01	 7.500000000000000e+00	 8.624000000054368e-01
0	 9.812499999999997e+01	 7.750000000000000e+00	 8.798000000100942e-01
0	 9.812500000000000e+01	 8.000000000000002e+00	 8.972000000008764e-01
0	 9.812499999999999e+01	 8.250000000000002e+00	 9.145999999986998e-01
0	 9.812499999999999e+01	 8.500000000000000e+00	 9.319999999984853e-01
0	 9.812499999999999e+01	 8.750000000000000e+00	 9.493999999893327e-01
0	 9.812499999999999e+01	 9.000000000000000e+00	 9.668000000033313e-01
0	 9.812499999999997e+01	 9.250000000000002e+00	 9.842000000149002e-01
0	 9.812499999999999e+01	 9.500000000000005e+00	 1.001599999995048e+00
0	 9.812499999999997e+01	 9.750000000000002e+00	 1.018999999985224e+00
0	 9.812499999999997e+01	 1.000000000000000e+01	 1.036399999998139e+00
0	 9.874999999999997e+01	 7.500000000000000e+00	 8.783999999991463e-01
0	 9.874999999999999e+01	 7.750000000000000e+00	 8.943999999948186e-01
0	 9.874999999999999e+01	 8.000000000000000e+00	 9.104000000036211e-01
0	 9.874999999999999e+01	 8.250000000000002e+00	 9.263999999990868e-01
0	 9.875000000000000e+01	 8.500000000000000e+00	 9.423999999945555e-01
0	 9.874999999999999e+01	 8.750000000000000e+00	 9.583999999996324e-01
0	 9.874999999999999e+01	 9.000000000000002e+00	 9.744000000090502e-01
0	 9.874999999999999e+01	 9.250000000000002e+00	 9.904000000027602e-01
0	 9.874999999999997e+01	 9.500000000000002e+00	 1.006400000005672e+00
0	 9.874999999999999e+01	 9.750000000000000e+00	 1.022399999999382e+00
0	 9.874999999999997e+01	 1.000000000000000e+01	 1.038400000015828e+00
0	 9.937499999999999e+01	 7.500000000000000e+00	 8.976000000018303e-01
0	 9.937500000000000e+01	 7.750000000000001e+00	 9.117999999967008e-01
0	 9.937499999999997e+01	 8.000000000000000e+00	 9.260000000022658e-01
0	 9.937499999999997e+01	 8.250000000000000e+00	 9.402000000033627e-01
0	 9.937499999999997e+01	 8.500000000000002e+00	 9.544000000027014e-01
0	 9.937499999999997e+01	 8.750000000000002e+00	 9.686000000101572e-01
0	 9.937499999999997e+01	 9.000000000000000e+00	 9.827999999970413e-01
0	 9.937499999999999e+01	 9.250000000000002e+00	 9.970000000066642e-01
0	 9.937499999999997e+01	 9.500000000000000e+00	 1.011200000004919e+00
0	 9.937499999999997e+01	 9.750000000000002e+00	 1.025400000014542e+00
0	 9.937499999999999e+01	 1.000000000000000e+01	 1.039600000001428e+00
0	 1.000000000000000e+02	 7.500000000000000e+00	 9.199999999964349e-01
0	 1.000000000000000e+02	 7.750000000000001e+00	 9.319999999974015e-01
0	 1.000000000000000e+02	 8.000000000000002e+00	 9.440000000068953e-01
0	 9.999999999999999e+01	 8.250000000000002e+00	 9.559999999964927e-01
0	 1.000000000000000e+02	 8.500000000000002e+00	 9.680000000059863e-01
0	 1.000000000000000e+02	 8.750000000000000e+00	 9.800000000041110e-01
0	 1.000000000000000e+02	 9.000000000000004e+00	 9.919999999965501e-01
0	 1.000000000000000e+02	 9.250000000000004e+00	 1.004000000011729e+00
0	 1.000000000000000e+02	 9.500000000000002e+00	 1.016000000038277e+00
0	 1.000000000000000e+02	 9.750000000000002e+00	 1.027999999973871e+00
0	 1.000000000000000e+02	 1.000000000000000e+01	 1.040000000011787e+00
