label=Stress xy
num_items=45

0:-1.7630131110508510e-01
1:-1.2534055413245548e-01
2:-1.5917966327828564e-01
3:-1.9454721045145295e-02
4:-5.8097764229629124e-02
5:-1.8289615122560318e-01
6:-1.5143641720764095e-01
7:-1.1199647266587921e-01
8:-1.6006734962863858e-01
9:-9.8830544959624456e-02
10:1.3482954412833432e-02
11:-1.5871744283244266e-01
12:-1.4421218710441397e-01
13:-1.2022587165873296e-02
14:-1.6048321483246791e-01
15:-1.0470045714445510e-01
16:1.1461321875334978e-02
17:-1.4916345769742731e-01
18:-1.7892007681262331e-01
19:-4.5861366221913287e-02
20:-1.5040001155772306e-01
21:-1.7338101582123988e-01
22:-4.5932031067713625e-02
23:-1.6301918712515545e-01
24:-1.6134803048789464e-01
25:-2.6256845070685247e-02
26:-1.4264058534887908e-01
27:-1.3868521003860076e-01
28:-1.1449994355993141e-02
29:-1.4901790228217868e-01
30:-1.5712185565012776e-01
31:-2.7495467660521647e-02
32:-1.5437568028191376e-01
33:-1.4026691008318906e-01
34:-1.3618604144731370e-02
35:-1.3518037581946016e-01
36:-1.6115334463982819e-01
37:-3.6747701856596732e-02
38:-1.3292952939792149e-01
39:-1.6223930693477950e-01
40:-4.1255052230982969e-02
41:-1.4404707986909301e-01
42:-1.4179014921268895e-01
43:-2.9229231042704525e-02
44:-1.4363340723193335e-01
