label=Stress xy
num_items=3456

0:2.3090982901482379e-01
1:6.2925556277218053e-01
2:7.3451374276373937e-01
3:-1.9411981978449754e-02
4:-8.7577072068165174e-02
5:-3.0360619968162617e-01
6:-5.6263877418359454e-01
7:-5.4252813833036151e-01
8:-5.2505802375882293e-01
9:7.4585071273917269e-01
10:5.9256682340267230e-01
11:1.1438623834186343e-02
12:-2.5924958761730527e-01
13:2.8160727077536979e-01
14:9.4167576023745436e-01
15:-3.9679794408945851e-01
16:4.5827495492430170e-01
17:1.9796154263088683e+00
18:-5.6818107815806940e-01
19:-1.1609616726192369e+00
20:-9.1442468326312487e-01
21:9.8823908651708126e-01
22:5.2618162545400948e-01
23:2.4219979042836298e-01
24:2.4936305610420297e+00
25:1.9967424253178037e+00
26:1.0166879578511414e+00
27:-4.2373123142610625e-01
28:1.6038798202686794e-01
29:2.5832293951275453e-01
30:2.8853655430232317e-01
31:4.4273982600646372e-01
32:3.2727943746997379e-01
33:6.3600184750173416e-01
34:5.8541049209587881e-01
35:4.8167607217585129e-01
36:1.4504976420392979e-01
37:3.3787939461545749e-02
38:1.8738563627801953e-02
39:2.1926382345036347e-01
40:1.8387128396122512e-01
41:2.2016717963934068e-01
42:4.1808884806445418e-01
43:3.6805450556749580e-01
44:3.6518458449639257e-01
45:3.3881606732089814e-02
46:3.3566854310647362e-02
47:2.5044164088178993e-02
48:2.2538403994420148e-01
49:1.6224645353921524e-01
50:1.0144086507106871e-01
51:3.4633183202320694e-01
52:2.6227872054508450e-01
53:1.9109754274167992e-01
54:2.2905852893996229e-02
55:2.6560534808528120e-02
56:2.5849712648667100e-02
57:8.5024001676323138e-02
58:8.7829255226299044e-02
59:9.0512707527242997e-02
60:1.6843399301924519e-01
61:1.5608394948587603e-01
62:1.4785580752882813e-01
63:2.1385003414638597e-02
64:1.2910191687237524e-02
65:9.6087274650892545e-03
66:8.5026704779984849e-02
67:6.6650435332933397e-02
68:5.3047483460299624e-02
69:1.3867610654029386e-01
70:1.1552055149731014e-01
71:9.6738284097890329e-02
72:1.0471640399516414e-02
73:1.1967285638519929e-02
74:1.1244748385765972e-02
75:4.9109119845864711e-02
76:4.5864053679926450e-02
77:4.2258488633719879e-02
78:8.9156366981777202e-02
79:8.0026922898575575e-02
80:7.2394663546612684e-02
81:9.7488546141199853e-03
82:7.5413616861549158e-03
83:6.5403273430852549e-03
84:3.9459435994217466e-02
85:3.4453631074235269e-02
86:3.0648218760506104e-02
87:6.8065494746028965e-02
88:6.0625107498070277e-02
89:5.4379046877724775e-02
90:6.4765411543821743e-03
91:6.2839886423008617e-03
92:5.7883821841251699e-03
93:2.9001968443746591e-02
94:2.6502804129629569e-02
95:2.4201315294528569e-02
96:5.1264565904962936e-02
97:4.6487622500364700e-02
98:4.2409083999856420e-02
99:5.3724235604386082e-03
100:4.7594091192000700e-03
101:4.3403489841405607e-03
102:2.2915498008777870e-02
103:2.0876102916490905e-02
104:1.9154936057444640e-02
105:4.0266599704767293e-02
106:3.6817324254645990e-02
107:3.3810550964829697e-02
108:4.1613590418495255e-03
109:3.8396185354376182e-03
110:3.5170937825940189e-03
111:1.8225285022075571e-02
112:1.6645279873632443e-02
113:1.5218616167946493e-02
114:3.2146277155709765e-02
115:2.9346622622728840e-02
116:2.6854435221726050e-02
117:3.3134106141340211e-03
118:2.9592494913929846e-03
119:2.6403532885524183e-03
120:1.4376944293185019e-02
121:1.2882138533377130e-02
122:1.1495637498470076e-02
123:2.5391050935362241e-02
124:2.2772918632118323e-02
125:2.0336130858764078e-02
126:2.4373471183056859e-03
127:2.0418095765822237e-03
128:1.6555031775419464e-03
129:1.0594826507754854e-02
130:8.8451997382095263e-03
131:7.1411379414768441e-03
132:1.8752701727114001e-02
133:1.5683856533846883e-02
134:1.2696910143523140e-02
135:1.3814323040345355e-03
136:7.9710997899495883e-04
137:1.7742302105988909e-04
138:5.9398256632930222e-03
139:3.4570929043276398e-03
140:9.2930518566890273e-04
141:1.0592127921966264e-02
142:6.2578043537592941e-03
143:1.8687354990338831e-03
144:-8.7002321992378728e-01
145:-3.5674580954824653e-01
146:1.7575626905689420e-01
147:-5.0239383092996404e-01
148:5.7842926799336525e-01
149:1.6083930605906362e+00
150:9.3674649030366741e-01
151:1.5303796477847593e+00
152:2.0030695243841388e+00
153:4.3444091241564581e-01
154:1.2554919689926898e+00
155:2.8155004746412189e+00
156:1.9734918319053225e+00
157:2.5161323748264990e+00
158:3.5004725815186037e+00
159:2.1259520114787089e+00
160:2.2468521623002835e+00
161:2.5121941915922270e+00
162:3.2783327155757087e+00
163:2.4393194256091038e+00
164:9.9220291038676534e-01
165:3.5455096018012209e+00
166:2.1879829938065298e+00
167:4.5425052411407180e-01
168:2.3301194050105645e+00
169:1.2526913211115553e+00
170:3.0954739072742720e-02
171:4.6810864256928514e-01
172:5.0835054271770796e-01
173:5.5113626196948184e-01
174:-2.9955848336832163e-02
175:2.6805107622688845e-01
176:5.4344873602019506e-01
177:-2.3230193885585776e-01
178:1.4707553311520027e-01
179:4.7869065644207903e-01
180:5.3005054634969007e-01
181:4.3897953307735871e-01
182:3.8790500518740373e-01
183:5.7562521990898396e-01
184:4.5114355553765145e-01
185:3.6654983776330458e-01
186:5.2837267259459253e-01
187:4.2399734488732704e-01
188:3.5940142499165623e-01
189:3.5820779890484955e-01
190:2.9025540161470859e-01
191:2.3600546018220750e-01
192:3.3916672668048181e-01
193:3.0779475275468854e-01
194:2.8243938151459724e-01
195:3.4421907105189653e-01
196:3.2988596417043664e-01
197:3.1388360680273808e-01
198:2.1435568308514502e-01
199:1.8944930792608786e-01
200:1.7087581724097273e-01
201:2.6328146913792888e-01
202:2.2517019825050383e-01
203:1.9674613332872215e-01
204:2.9403536782503809e-01
205:2.5132518355098016e-01
206:2.2165652673426253e-01
207:1.5933937179545785e-01
208:1.3676833970428809e-01
209:1.1820698447446448e-01
210:1.8375709784048569e-01
211:1.6333126129344616e-01
212:1.4606558611324602e-01
213:2.0911671353859906e-01
214:1.8876565244800517e-01
215:1.7072523722974622e-01
216:1.0959519927577710e-01
217:9.7414579263935916e-02
218:8.7465708846695495e-02
219:1.3663225759771569e-01
220:1.2131140649748297e-01
221:1.0888894741670342e-01
222:1.6019359160488431e-01
223:1.4285179867071848e-01
224:1.2907504018086313e-01
225:8.2288441270312346e-02
226:7.3808452909725583e-02
227:6.6573034279750989e-02
228:1.0268100693728473e-01
229:9.2817759682779652e-02
230:8.4377808142615460e-02
231:1.2215741193396641e-01
232:1.1089467927665334e-01
233:1.0123396831740951e-01
234:6.2834803103931275e-02
235:5.6997644033716321e-02
236:5.2054662184566627e-02
237:7.9917586594399445e-02
238:7.2799531078142132e-02
239:6.6747693294962274e-02
240:9.6093629140265341e-02
241:8.7854799021121061e-02
242:8.0854227147072133e-02
243:4.9470172389436087e-02
244:4.5289903264526296e-02
245:4.1629412672687799e-02
246:6.3537727423979146e-02
247:5.8297018750863579e-02
248:5.3717374295293788e-02
249:7.7088995123170953e-02
250:7.0869000874249063e-02
251:6.5451356527351873e-02
252:3.9596197846331317e-02
253:3.6176697887699914e-02
254:3.3133111040958889e-02
255:5.1167225396213295e-02
256:4.6851582453093690e-02
257:4.2992940972702995e-02
258:6.2425572846560633e-02
259:5.7274557616219086e-02
260:5.2661632199438417e-02
261:3.1336369462775210e-02
262:2.8105060693806042e-02
263:2.5094113409643071e-02
264:4.0686160196989146e-02
265:3.6504220507436139e-02
266:3.2603683938368315e-02
267:4.9882510686396153e-02
268:4.4818719823534699e-02
269:4.0097373716835014e-02
270:2.3135663144767817e-02
271:1.9337995439042775e-02
272:1.5639206182230390e-02
273:3.0057668950161216e-02
274:2.5105238686287230e-02
275:2.0273703453234392e-02
276:3.7007755614513707e-02
277:3.0982856749233352e-02
278:2.5100869496669717e-02
279:1.3028985677680868e-02
280:7.6515170711189406e-03
281:2.2083145332858021e-03
282:1.6855395469283829e-02
283:9.8013548659379637e-03
284:2.6535082718899808e-03
285:2.0937559417373991e-02
286:1.2341445257518928e-02
287:3.6234530475322863e-03
288:2.0989684809381517e+00
289:1.8501549049948109e+00
290:1.4791712703738145e+00
291:2.8983045854127965e+00
292:1.5351306296554827e+00
293:1.1565477809564872e-01
294:2.0495585686881603e+00
295:5.2118701563658731e-01
296:-9.9761827034235284e-01
297:1.2832547884272021e+00
298:1.1085235735038026e+00
299:1.0092226992132214e+00
300:-4.6450073935611508e-01
301:-9.1489718079458304e-01
302:-1.2297630714264931e+00
303:-1.5839248777966661e+00
304:-1.9598532518493403e+00
305:-2.1401508649217180e+00
306:8.6969338104773031e-01
307:3.8354920725322195e-01
308:-1.9130740461568163e-01
309:-1.1594624708429695e+00
310:-7.7412075434433902e-01
311:-5.1833344200592302e-01
312:-1.9226130573741389e+00
313:-1.2310180773292201e+00
314:-7.0981946753033820e-01
315:-2.6670347843300779e-01
316:7.6323082639446913e-02
317:3.7288049969384013e-01
318:-3.8683745192580776e-01
319:-1.1800369289725172e-01
320:1.3395809291624419e-01
321:-5.2769041934103200e-01
322:-3.0479960784831878e-01
323:-6.9183598767663348e-02
324:4.2700417928951817e-01
325:3.6700478591634245e-01
326:3.3886725836397491e-01
327:2.1046085614268573e-01
328:2.3536474388463180e-01
329:2.6503046910996148e-01
330:3.2084078639973541e-02
331:1.2184027980898854e-01
332:1.8925829012396686e-01
333:3.3352573811382341e-01
334:3.2128984084399281e-01
335:3.0680670074247035e-01
336:2.7196991024468459e-01
337:2.6530624258158586e-01
338:2.6209491937647134e-01
339:2.0390173778053905e-01
340:2.0713260013729912e-01
341:2.1951539424171870e-01
342:2.8911918333287473e-01
343:2.5220444380392637e-01
344:2.2758183715425434e-01
345:2.5480803848681982e-01
346:2.3485656846641356e-01
347:2.2126762160618468e-01
348:2.2298687809780343e-01
349:2.1690570724202518e-01
350:2.1125744982732844e-01
351:2.1631269952896062e-01
352:1.9578548820303204e-01
353:1.7759913480008613e-01
354:2.1239039456225151e-01
355:1.9349222850710782e-01
356:1.7788825932991681e-01
357:2.0431059991750772e-01
358:1.8854839362876241e-01
359:1.7703372317292765e-01
360:1.6717144516894641e-01
361:1.5028793914946001e-01
362:1.3693012831609072e-01
363:1.6930242811827714e-01
364:1.5503311136480127e-01
365:1.4348765833942895e-01
366:1.7061142595228956e-01
367:1.5855481939213739e-01
368:1.4842024510206903e-01
369:1.2999377594549863e-01
370:1.1832425082804375e-01
371:1.0833592220233326e-01
372:1.3698446291754643e-01
373:1.2556896225004480e-01
374:1.1592801560972159e-01
375:1.4234247536478764e-01
376:1.3155590979520396e-01
377:1.2263725578825749e-01
378:1.0302686824505117e-01
379:9.4510056627334013e-02
380:8.7270689916739849e-02
381:1.1076914463627123e-01
382:1.0233666555340354e-01
383:9.5144255503404940e-02
384:1.1774767138069947e-01
385:1.0943391265276434e-01
386:1.0232284708343091e-01
387:8.3329154502614536e-02
388:7.6748118082410388e-02
389:7.1017956956742095e-02
390:9.1134815395156499e-02
391:8.4314036154251870e-02
392:7.8369603630720180e-02
393:9.8288902306197273e-02
394:9.1343136249569301e-02
395:8.5299188333142748e-02
396:6.7799598606003847e-02
397:6.2288476595401487e-02
398:5.7347172957549014e-02
399:7.4973967366398164e-02
400:6.9069500385973370e-02
401:6.3762798356891498e-02
402:8.1781312551708146e-02
403:7.5557883587679883e-02
404:6.9960166153585468e-02
405:5.4351673884100393e-02
406:4.8866699872420212e-02
407:4.3746632389061055e-02
408:6.0502576505334867e-02
409:5.4465667349480135e-02
410:4.8809812779198922e-02
411:6.6483014789943853e-02
412:5.9984028664423622e-02
413:5.3882245181738904e-02
414:4.0382962357933191e-02
415:3.3805658293712480e-02
416:2.7379243579494644e-02
417:4.5059064060399355e-02
418:3.7680415809946001e-02
419:3.0458055755397132e-02
420:4.9805568257037733e-02
421:4.1745860767263290e-02
422:3.3847840319282660e-02
423:2.2826598056396637e-02
424:1.3423192006424103e-02
425:3.8845511737919261e-03
426:2.5329791581633225e-02
427:1.4729229152182909e-02
428:3.9756036993617763e-03
429:2.8233886161953541e-02
430:1.6624921521767647e-02
431:4.8450656175186577e-03
432:9.3904416114207090e-01
433:-2.2143432854776571e-01
434:-1.3660602317376005e+00
435:-3.1045950334066597e-01
436:-8.5624855260982924e-01
437:-1.4304502938874915e+00
438:-5.4649421129526443e-01
439:-7.9066668318647770e-01
440:-1.1075171255947025e+00
441:-1.7909322542538899e+00
442:-1.9948135228755923e+00
443:-2.0100111044303328e+00
444:-1.6310807990691008e+00
445:-1.6604138447406416e+00
446:-1.5850369751745574e+00
447:-1.2273977609233895e+00
448:-1.2622175723330082e+00
449:-1.2763012403343510e+00
450:-1.7803096806362122e+00
451:-1.1965061586883377e+00
452:-7.6602055934982161e-01
453:-1.4406457867032756e+00
454:-1.1221322214471676e+00
455:-8.5740466962161332e-01
456:-1.2486326856629966e+00
457:-1.1233225342091546e+00
458:-9.5226648700705163e-01
459:-6.0938350305438871e-01
460:-3.9337889194487441e-01
461:-1.6305667116918010e-01
462:-7.2434899919331008e-01
463:-5.0344367799429868e-01
464:-2.9234560708509866e-01
465:-8.2142892608030871e-01
466:-5.9429471634080733e-01
467:-4.0109261684711273e-01
468:-5.6932080894407017e-02
469:5.0456282076907583e-02
470:1.3035620811178766e-01
471:-1.9611874375857585e-01
472:-8.1878675878622659e-02
473:1.4274205625719582e-02
474:-3.1520268668557216e-01
475:-1.9694842085455969e-01
476:-8.7380090838326013e-02
477:1.5117101915555844e-01
478:1.6606552193451393e-01
479:1.8951280237320736e-01
480:5.0048211371242012e-02
481:8.9020286730515652e-02
482:1.2878656442582714e-01
483:-3.8969207624601668e-02
484:1.8937323437206638e-02
485:6.9879481511353495e-02
486:1.9801895466750144e-01
487:1.9757782830307910e-01
488:1.9604549164584031e-01
489:1.4279124619994818e-01
490:1.5038157767530541e-01
491:1.5757267005663861e-01
492:8.8121975706243583e-02
493:1.0455443822358174e-01
494:1.2127963284569240e-01
495:1.9122954945308884e-01
496:1.7947441208502687e-01
497:1.7168226310245990e-01
498:1.5832783302213535e-01
499:1.5530108377376212e-01
500:1.5430613902222376e-01
501:1.2742110870676734e-01
502:1.3167703730398475e-01
503:1.3603358650936753e-01
504:1.6674887282769671e-01
505:1.5609493764632243e-01
506:1.4709177399156292e-01
507:1.5192742763780664e-01
508:1.4441785176518215e-01
509:1.3842869359106288e-01
510:1.3591402563129196e-01
511:1.3197893851069334e-01
512:1.2943391526048584e-01
513:1.4160420176777627e-01
514:1.3183100751745333e-01
515:1.2383505837791976e-01
516:1.3458910082347988e-01
517:1.2728792929614341e-01
518:1.2135907083736107e-01
519:1.2730458849221063e-01
520:1.2225935743130850e-01
521:1.1818150739673504e-01
522:1.1929619958336804e-01
523:1.1129885964638339e-01
524:1.0446599901931476e-01
525:1.1766487378087902e-01
526:1.1070385701426495e-01
527:1.0481337385903043e-01
528:1.1530960743836872e-01
529:1.0952414019971750e-01
530:1.0471526087390637e-01
531:1.0055234154158336e-01
532:9.3755797209158054e-02
533:8.7844639389493787e-02
534:1.0134079653595503e-01
535:9.5125393576089304e-02
536:8.9713438555303671e-02
537:1.0173213537487798e-01
538:9.6124876269064893e-02
539:9.1239126528632988e-02
540:8.4348547959781972e-02
541:7.8076665189948435e-02
542:7.2428740228756033e-02
543:8.6399373227281209e-02
544:8.0284780339363135e-02
545:7.4760172032905095e-02
546:8.8138771363350077e-02
547:8.2263347887811547e-02
548:7.6943935766542126e-02
549:6.8888650582147978e-02
550:6.2223884172541280e-02
551:5.5955030008205571e-02
552:7.1221615898294399e-02
553:6.4447446413845255e-02
554:5.8048606676883746e-02
555:7.3456086563482195e-02
556:6.6659618520560168e-02
557:6.0217897727343400e-02
558:5.1741989972172935e-02
559:4.3379760289673074e-02
560:3.5176405668045509e-02
561:5.3694284599462190e-02
562:4.4980089270961907e-02
563:3.6409706808493932e-02
564:5.5785613656977276e-02
565:4.6849946985369664e-02
566:3.8043030984935756e-02
567:2.9337770435744856e-02
568:1.7258089935378220e-02
569:4.9986095092300117e-03
570:3.0289811651375235e-02
571:1.7612080685403757e-02
572:4.7417634925517212e-03
573:3.1739805743024201e-02
574:1.8670065088287179e-02
575:5.3949519055874291e-03
576:-2.9424980505339432e-01
577:-5.4972142568736826e-01
578:-8.7004793637529898e-01
579:-9.3853149467533481e-03
580:-3.6719804389949945e-01
581:-7.1871643352841408e-01
582:2.1698655462719825e-02
583:-3.8265752048951879e-01
584:-7.0957012774013251e-01
585:-1.0008219441271344e+00
586:-1.0882017129246988e+00
587:-1.1758388682735421e+00
588:-8.5561393840232525e-01
589:-9.7113577900025572e-01
590:-1.0750853252152024e+00
591:-8.2247807045131216e-01
592:-9.1845636668499120e-01
593:-9.9103268760142116e-01
594:-1.1886023461064550e+00
595:-1.1037528340826861e+00
596:-9.5552923132879053e-01
597:-1.0811759583546210e+00
598:-9.8986280743436361e-01
599:-8.7412832969575949e-01
600:-9.7709962407137108e-01
601:-8.8112835877499196e-01
602:-7.9968853057204292e-01
603:-8.3233342300786806e-01
604:-6.2098393068909608e-01
605:-4.4508071738836713e-01
606:-7.8743763368226516e-01
607:-6.3169089826686775e-01
608:-4.9246901029099710e-01
609:-7.4744634160711532e-01
610:-6.3842933172780947e-01
611:-5.2701573770951249e-01
612:-3.6477868756605092e-01
613:-2.4605853253538165e-01
614:-1.3386724091038146e-01
615:-4.1977592664339730e-01
616:-3.0401982227529778e-01
617:-1.9678107050144841e-01
618:-4.6042363518953500e-01
619:-3.5132250352362654e-01
620:-2.5272721364055711e-01
621:-8.2611694279964648e-02
622:-2.0007691306770149e-02
623:3.3985387259050329e-02
624:-1.4748161565792120e-01
625:-8.4007918714057842e-02
626:-2.7044931097067314e-02
627:-2.0630395646327515e-01
628:-1.4143157970191586e-01
629:-8.0969697186928813e-02
630:5.4542453001136443e-02
631:7.6741097330967567e-02
632:9.8923025625043501e-02
633:-2.2968563214783920e-03
634:2.8845466060178664e-02
635:5.8215685249151099e-02
636:-5.2555749263799287e-02
637:-1.4803359776489305e-02
638:1.9421539361196831e-02
639:1.0762656776730589e-01
640:1.1505233961866303e-01
641:1.2199361657860242e-01
642:7.0040242446088169e-02
643:8.2084807006112107e-02
644:9.3565316021278433e-02
645:3.3721912272080580e-02
646:5.0501658325027760e-02
647:6.6637788179670907e-02
648:1.2331759069994869e-01
649:1.2197720892518807e-01
650:1.2178064157179579e-01
651:9.7686146402154200e-02
652:1.0100716321911460e-01
653:1.0475611410451179e-01
654:7.3407601231397529e-02
655:8.0765461499625796e-02
656:8.7835375483359901e-02
657:1.2070798415460259e-01
658:1.1699259515273952e-01
659:1.1407124668561169e-01
660:1.0545603356296708e-01
661:1.0422554146175443e-01
662:1.0359833878152543e-01
663:9.0140269608692397e-02
664:9.1443265953723721e-02
665:9.3158800606006134e-02
666:1.1178972573365303e-01
667:1.0692641156928177e-01
668:1.0294352889507057e-01
669:1.0252831751847392e-01
670:9.9504638577958646e-02
671:9.7124896080281575e-02
672:9.3285604971149794e-02
673:9.2002542421428316e-02
674:9.1126921267236330e-02
675:1.0033010999122857e-01
676:9.5194382207379108e-02
677:9.0725888782092437e-02
678:9.5250786735656207e-02
679:9.1137702629985634e-02
680:8.7587275847621673e-02
681:8.9975841823487113e-02
682:8.6928475318706011e-02
683:8.4339189101966056e-02
684:8.7817733305205883e-02
685:8.2198801520420431e-02
686:7.7102141225153659e-02
687:8.5119889561328238e-02
688:8.0112181282248104e-02
689:7.5544770955609505e-02
690:8.2334940341186602e-02
691:7.7972250241743271e-02
692:7.3967884557676208e-02
693:7.3698954714375112e-02
694:6.6979731039627469e-02
695:6.0595540460264462e-02
696:7.2371092809720913e-02
697:6.5933791546298359e-02
698:5.9784358348867105e-02
699:7.1056269471657788e-02
700:6.4978969883828092e-02
701:5.9142373332589163e-02
702:5.6168224052304760e-02
703:4.7196591513082392e-02
704:3.8340956040772083e-02
705:5.5447530255300748e-02
706:4.6563979544048575e-02
707:3.7767660439685893e-02
708:5.4952312504122261e-02
709:4.6272166502027187e-02
710:3.7650486646803011e-02
711:3.1991294962722162e-02
712:1.8815663020728617e-02
713:5.4295976288055055e-03
714:3.1435196898407632e-02
715:1.8274942957765206e-02
716:4.8996500521255714e-03
717:3.1422993686020619e-02
718:1.8464426199430947e-02
719:5.2862142327822796e-03
720:-4.2996441930507424e-02
721:-4.0492842812610447e-01
722:-6.8383532835684013e-01
723:-9.1461548594921574e-02
724:-3.1959778984694903e-01
725:-5.1667733691351070e-01
726:-7.6210802407090453e-02
727:-2.0544043616619315e-01
728:-3.5558176751920717e-01
729:-7.7893299498982727e-01
730:-8.6396357562592119e-01
731:-9.2349858390171669e-01
732:-6.0086025905312512e-01
733:-6.9965622492342494e-01
734:-7.7759167056238188e-01
735:-4.3948153634454562e-01
736:-5.5368912455728658e-01
737:-6.5167124466763593e-01
738:-9.0816731931157491e-01
739:-8.2582890530455788e-01
740:-7.6428846791446381e-01
741:-7.8504637755175344e-01
742:-7.4837623871516079e-01
743:-7.1508622347537187e-01
744:-6.8028409798274092e-01
745:-6.8204198927847781e-01
746:-6.6976215115090154e-01
747:-7.2428914932503607e-01
748:-6.3076361078853171e-01
749:-5.3075684456030303e-01
750:-6.8271295104411156e-01
751:-6.0153999826785076e-01
752:-5.1877040582181921e-01
753:-6.4296146619553951e-01
754:-5.7432465055492310e-01
755:-5.0897578326649440e-01
756:-4.6924014415974563e-01
757:-3.6844900652414181e-01
758:-2.7760386105031526e-01
759:-4.6893115666778284e-01
760:-3.8535387286846673e-01
761:-3.0781017348135881e-01
762:-4.6982787422608691e-01
763:-3.9989213019067232e-01
764:-3.3207756281789425e-01
765:-2.3330007168734984e-01
766:-1.6800651432426272e-01
767:-1.0663398192351353e-01
768:-2.6693441896237263e-01
769:-2.0291519685561418e-01
770:-1.4323515767290612e-01
771:-2.9403282245981088e-01
772:-2.3280859307565949e-01
773:-1.7634170457725909e-01
774:-7.7345648214853485e-02
775:-3.8017281692908148e-02
776:-2.5297166840955129e-03
777:-1.1452669838757149e-01
778:-7.4790556117690685e-02
779:-3.8216519408471254e-02
780:-1.4861249324300785e-01
781:-1.0832036156144635e-01
782:-7.0511639488077774e-02
783:1.2878037068925608e-02
784:3.2283972541644113e-02
785:5.0862106301392145e-02
786:-2.1194398811222249e-02
787:1.8775142549893086e-03
788:2.3568234274243691e-02
789:-5.2079330877198370e-02
790:-2.6191312732354814e-02
791:-2.2378789684658188e-03
792:5.8887111744236054e-02
793:6.8083930765298339e-02
794:7.6758276109556767e-02
795:3.3175051963046383e-02
796:4.4994241275542142e-02
797:5.6200885833363259e-02
798:8.6748159695712503e-03
799:2.3017999769849549e-02
800:3.6658567737588334e-02
801:7.9960634567970076e-02
802:8.2800866436716705e-02
803:8.5908246980425720e-02
804:6.0921984106697483e-02
805:6.6307813488166681e-02
806:7.1651912397621989e-02
807:4.2792129634813256e-02
808:5.0456715087152257e-02
809:5.7770690920507781e-02
810:8.6719881951810254e-02
811:8.6421839075572632e-02
812:8.6422177923710972e-02
813:7.3573238179040185e-02
814:7.4962036532611048e-02
815:7.6510929006077838e-02
816:6.0714379013945323e-02
817:6.3756756382947477e-02
818:6.6820940267375797e-02
819:8.5720855249517974e-02
820:8.3367190560687088e-02
821:8.1399845525583020e-02
822:7.6627986992396521e-02
823:7.5535712726018778e-02
824:7.4687730326353244e-02
825:6.7733631633686286e-02
826:6.7857839164096975e-02
827:6.8084310774207943e-02
828:7.9696676636594341e-02
829:7.5761714427592858e-02
830:7.2136570320734839e-02
831:7.3537626126888841e-02
832:7.0420896788253529e-02
833:6.7529267547292465e-02
834:6.7481047288273532e-02
835:6.5206070803972713e-02
836:6.3071476412901853e-02
837:6.9412589168341782e-02
838:6.3611500491286388e-02
839:5.8019076520804971e-02
840:6.5179876242875953e-02
841:5.9946608833358554e-02
842:5.4859071705438814e-02
843:6.1116604434171974e-02
844:5.6496125792456331e-02
845:5.1958443007372630e-02
846:5.3953665211133255e-02
847:4.5466782323748137e-02
848:3.7020391855960080e-02
849:5.1063868066834862e-02
850:4.3019986623986449e-02
851:3.4983596496581865e-02
852:4.8472092921254706e-02
853:4.0959051672406294e-02
854:3.3420500634855028e-02
855:3.0905674480935189e-02
856:1.8170582119132993e-02
857:5.2152413393223287e-03
858:2.9137137975714517e-02
859:1.6936849877572147e-02
860:4.5188434488036520e-03
861:2.7907885029163779e-02
862:1.6379941524812255e-02
863:4.6368097772384017e-03
864:-5.2558641290297671e-02
865:-1.6362604450250670e-01
866:-3.0452273444199035e-01
867:-3.6453757343293043e-02
868:-1.5870994519465839e-01
869:-2.8947224879485006e-01
870:-3.3976226229933085e-02
871:-1.6311037084328228e-01
872:-2.7942746022702419e-01
873:-3.8592847242599887e-01
874:-4.9677315915149656e-01
875:-5.9405614190346323e-01
876:-3.5582671761989471e-01
877:-4.4176324763588026e-01
878:-5.1865702479730957e-01
879:-3.3088396239918688e-01
880:-3.9674998636850894e-01
881:-4.5809220860225364e-01
882:-6.2688871893841835e-01
883:-6.4005234142337197e-01
884:-6.3596365947930822e-01
885:-5.4624944305863188e-01
886:-5.6298999689464424e-01
887:-5.6884923908211715e-01
888:-4.8101176013878433e-01
889:-4.9844108906516504e-01
890:-5.1136009912347946e-01
891:-6.1374161466047128e-01
892:-5.5500777799088352e-01
893:-5.0000290970699413e-01
894:-5.5687237731165762e-01
895:-5.1711094743223707e-01
896:-4.7770945958941735e-01
897:-5.0770402783714863e-01
898:-4.8319000198584094e-01
899:-4.5566689182202741e-01
900:-4.6583495193883911e-01
901:-4.0170305805592688e-01
902:-3.3863728639192658e-01
903:-4.4992193564809091e-01
904:-3.9447274441378943e-01
905:-3.4037639733744157e-01
906:-4.3320895421711542e-01
907:-3.8655623974295200e-01
908:-3.4154309136578492e-01
909:-3.0280241440769673e-01
910:-2.4492347837039846e-01
911:-1.9152126245411924e-01
912:-3.0951589972790322e-01
913:-2.5868445135801604e-01
914:-2.1094721422615062e-01
915:-3.1538712820437470e-01
916:-2.7056209072965959e-01
917:-2.2744875560995859e-01
918:-1.6466339464117710e-01
919:-1.2436423298410097e-01
920:-8.6365889796075748e-02
921:-1.8574820130254477e-01
922:-1.4641017184109420e-01
923:-1.0942418387189908e-01
924:-2.0375605251798962e-01
925:-1.6589601220384714e-01
926:-1.3043923640516422e-01
927:-6.7614922825721055e-02
928:-4.0995409857939522e-02
929:-1.6397373647525342e-02
930:-9.0958861865795770e-02
931:-6.4111081983104418e-02
932:-3.9029992451772973e-02
933:-1.1241807378300654e-01
934:-8.5369903517092657e-02
935:-5.9833637196538975e-02
936:-4.9311619733505502e-03
937:1.0673659382250631e-02
938:2.5495299972343618e-02
939:-2.6857185497220274e-02
940:-9.5922447794691054e-03
941:6.7027255293755006e-03
942:-4.7059267790499765e-02
943:-2.8467275620837670e-02
944:-1.1032043503475071e-02
945:3.2287527013091524e-02
946:4.1015653379685574e-02
947:4.9283350623144630e-02
948:1.4334407928244532e-02
949:2.4550332094752658e-02
950:3.4237312473538464e-02
951:-2.6851189613319132e-03
952:8.9248132367968757e-03
953:1.9937286982620591e-02
954:5.2767069838276233e-02
955:5.6728946889580384e-02
956:6.0629780300435594e-02
957:3.8570155962540952e-02
958:4.3980466652465959e-02
959:4.9183307435653335e-02
960:2.5056208509848743e-02
961:3.1792084742846075e-02
962:3.8174064802817501e-02
963:6.1978526082951173e-02
964:6.2773914359945074e-02
965:6.3603175031425943e-02
966:5.1220707866861073e-02
967:5.3115131457188401e-02
968:5.4950427772284295e-02
969:4.0855359584794318e-02
970:4.3817868192925644e-02
971:4.6628249856099695e-02
972:6.3319503234660665e-02
973:6.1551881491367047e-02
974:5.9874638498114585e-02
975:5.5213501875722347e-02
976:5.4322528779739462e-02
977:5.3434816365751085e-02
978:4.7424583939421144e-02
979:4.7394865533369010e-02
980:4.7281289741270764e-02
981:5.8161999936719652e-02
982:5.3926359900080843e-02
983:4.9738627672309355e-02
984:5.2148756989349537e-02
985:4.8608990391672754e-02
986:4.5060173542226592e-02
987:4.6424179523804121e-02
988:4.3603824718150636e-02
989:4.0717461600099016e-02
990:4.6455696603395699e-02
991:3.9302052010981137e-02
992:3.2103965429111064e-02
993:4.2155765909104886e-02
994:3.5680070689220376e-02
995:2.9127874233794270e-02
996:3.8212143004254163e-02
997:3.2461532322117820e-02
998:2.6602361158345519e-02
999:2.6821788077687835e-02
1000:1.5759743414396489e-02
1001:4.4859860793406972e-03
1002:2.4284880648749389e-02
1003:1.4112967877097666e-02
1004:3.7387561187407449e-03
1005:2.2234898310784477e-02
1006:1.3030888329077105e-02
1007:3.6339930457067178e-03
1008:-3.3946860515569569e-02
1009:-1.5631215981173444e-01
1010:-2.6222605986584424e-01
1011:-2.7830192706121418e-02
1012:-1.2520875316605296e-01
1013:-2.1496969242644118e-01
1014:-2.2183138906130495e-02
1015:-9.8246039158731716e-02
1016:-1.7552509625429449e-01
1017:-3.0849763812160153e-01
1018:-3.6999572952540150e-01
1019:-4.2805579767625829e-01
1020:-2.5855900114617969e-01
1021:-3.2078183040516695e-01
1022:-3.7877895400663675e-01
1023:-2.1695369928826158e-01
1024:-2.7802253760196088e-01
1025:-3.3407798785357073e-01
1026:-4.4997119269340946e-01
1027:-4.6762753953452096e-01
1028:-4.8247226783439828e-01
1029:-4.0127761017092006e-01
1030:-4.2116539721389940e-01
1031:-4.3770814246342632e-01
1032:-3.5673752593999392e-01
1033:-3.7928397929574098e-01
1034:-3.9795196760583085e-01
1035:-4.8148409651156343e-01
1036:-4.6264394281042903e-01
1037:-4.4006330076644296e-01
1038:-4.3874684345664211e-01
1039:-4.2607058908317524e-01
1040:-4.1050940885601345e-01
1041:-4.0092033946254535e-01
1042:-3.9364672632350545e-01
1043:-3.8434374981993219e-01
1044:-4.2051701377026784e-01
1045:-3.7926503815951862e-01
1046:-3.3944383555560120e-01
1047:-3.9590752760437259e-01
1048:-3.6342700351554869e-01
1049:-3.3137301477874742e-01
1050:-3.7405081049704242e-01
1051:-3.4891922991181445e-01
1052:-3.2320994702381617e-01
1053:-3.1570527028889545e-01
1054:-2.7385347597446985e-01
1055:-2.3328432847154998e-01
1056:-3.1112011326902766e-01
1057:-2.7406844715597284e-01
1058:-2.3820749093491408e-01
1059:-3.0599135108811698e-01
1060:-2.7361123255741809e-01
1061:-2.4232988699918945e-01
1062:-2.1071980558736683e-01
1063:-1.7437979944723747e-01
1064:-1.4030407308634399e-01
1065:-2.1802812776260644e-01
1066:-1.8489449022409823e-01
1067:-1.5349628955289663e-01
1068:-2.2440558265764482e-01
1069:-1.9415980374513217e-01
1070:-1.6512061878800313e-01
1071:-1.2270596772019879e-01
1072:-9.5766729645985663e-02
1073:-7.0256412403534155e-02
1074:-1.3677796724930788e-01
1075:-1.1050632425740312e-01
1076:-8.5633217724362304e-02
1077:-1.4923936879307875e-01
1078:-1.2380705570900513e-01
1079:-9.9742894710892080e-02
1080:-5.7360636947252845e-02
1081:-3.8396652306585587e-02
1082:-2.0616696802619822e-02
1083:-7.2894880996940761e-02
1084:-5.3794252892582384e-02
1085:-3.5784574263049540e-02
1086:-8.7225336345820192e-02
1087:-6.8033996075288081e-02
1088:-4.9840525617695725e-02
1089:-1.1977126723788336e-02
1090:2.8532232272484285e-04
1091:1.1909978377394744e-02
1092:-2.6809217538452567e-02
1093:-1.3727892167407897e-02
1094:-1.3544544328958294e-03
1095:-4.0583332047718121e-02
1096:-2.6822597094323893e-02
1097:-1.3839844422149479e-02
1098:1.7392175240631989e-02
1099:2.4753691867418548e-02
1100:3.1704602862862717e-02
1101:4.5933740975431262e-03
1102:1.2820216518796107e-02
1103:2.0587997993710697e-02
1104:-7.4842917267313736e-03
1105:1.5483445820162972e-03
1106:1.0073464629432082e-02
1107:3.4715674427683377e-02
1108:3.8247108097163370e-02
1109:4.1576801952563823e-02
1110:2.4095353224059198e-02
1111:2.8496646357786024e-02
1112:3.2618705135518053e-02
1113:1.4043037073675328e-02
1114:1.9256652501281914e-02
1115:2.4113539030981981e-02
1116:4.2660052178313410e-02
1117:4.3101575851213922e-02
1118:4.3416708055171734e-02
1119:3.4149072226026589e-02
1120:3.5346650289776162e-02
1121:3.6358786930912296e-02
1122:2.6068849050733433e-02
1123:2.8003818130992605e-02
1124:2.9694295834963309e-02
1125:4.2804950703860645e-02
1126:4.0406640288681760e-02
1127:3.7911560270900035e-02
1128:3.6155186970028660e-02
1129:3.4469148338531180e-02
1130:3.2637587247456183e-02
1131:2.9891855991108562e-02
1132:2.8912706445879798e-02
1133:2.7739281584107652e-02
1134:3.5646026242517531e-02
1135:3.0337562674085151e-02
1136:2.4904359185150347e-02
1137:3.0784792844946795e-02
1138:2.6247460652581329e-02
1139:2.1561847278878329e-02
1140:2.6300909281629502e-02
1141:2.2545872971258381e-02
1142:1.8619014218712465e-02
1143:2.0831666426511467e-02
1144:1.2229257257013989e-02
1145:3.4403915480434410e-03
1146:1.8007948872706077e-02
1147:1.0464161946190393e-02
1148:2.7465971828712563e-03
1149:1.5591364887792341e-02
1150:9.1206537911535691e-03
1151:2.4888435603897061e-03
1152:0.0000000000000000e+00
1153:0.0000000000000000e+00
1154:0.0000000000000000e+00
1155:0.0000000000000000e+00
1156:0.0000000000000000e+00
1157:0.0000000000000000e+00
1158:0.0000000000000000e+00
1159:0.0000000000000000e+00
1160:0.0000000000000000e+00
1161:0.0000000000000000e+00
1162:0.0000000000000000e+00
1163:0.0000000000000000e+00
1164:0.0000000000000000e+00
1165:0.0000000000000000e+00
1166:0.0000000000000000e+00
1167:0.0000000000000000e+00
1168:0.0000000000000000e+00
1169:0.0000000000000000e+00
1170:0.0000000000000000e+00
1171:0.0000000000000000e+00
1172:0.0000000000000000e+00
1173:0.0000000000000000e+00
1174:0.0000000000000000e+00
1175:0.0000000000000000e+00
1176:0.0000000000000000e+00
1177:0.0000000000000000e+00
1178:0.0000000000000000e+00
1179:0.0000000000000000e+00
1180:0.0000000000000000e+00
1181:0.0000000000000000e+00
1182:0.0000000000000000e+00
1183:0.0000000000000000e+00
1184:0.0000000000000000e+00
1185:0.0000000000000000e+00
1186:0.0000000000000000e+00
1187:0.0000000000000000e+00
1188:0.0000000000000000e+00
1189:0.0000000000000000e+00
1190:0.0000000000000000e+00
1191:0.0000000000000000e+00
1192:0.0000000000000000e+00
1193:0.0000000000000000e+00
1194:0.0000000000000000e+00
1195:0.0000000000000000e+00
1196:0.0000000000000000e+00
1197:0.0000000000000000e+00
1198:0.0000000000000000e+00
1199:0.0000000000000000e+00
1200:0.0000000000000000e+00
1201:0.0000000000000000e+00
1202:0.0000000000000000e+00
1203:0.0000000000000000e+00
1204:0.0000000000000000e+00
1205:0.0000000000000000e+00
1206:0.0000000000000000e+00
1207:0.0000000000000000e+00
1208:0.0000000000000000e+00
1209:0.0000000000000000e+00
1210:0.0000000000000000e+00
1211:0.0000000000000000e+00
1212:0.0000000000000000e+00
1213:0.0000000000000000e+00
1214:0.0000000000000000e+00
1215:0.0000000000000000e+00
1216:0.0000000000000000e+00
1217:0.0000000000000000e+00
1218:0.0000000000000000e+00
1219:0.0000000000000000e+00
1220:0.0000000000000000e+00
1221:0.0000000000000000e+00
1222:0.0000000000000000e+00
1223:0.0000000000000000e+00
1224:0.0000000000000000e+00
1225:0.0000000000000000e+00
1226:0.0000000000000000e+00
1227:0.0000000000000000e+00
1228:0.0000000000000000e+00
1229:0.0000000000000000e+00
1230:0.0000000000000000e+00
1231:0.0000000000000000e+00
1232:0.0000000000000000e+00
1233:0.0000000000000000e+00
1234:0.0000000000000000e+00
1235:0.0000000000000000e+00
1236:0.0000000000000000e+00
1237:0.0000000000000000e+00
1238:0.0000000000000000e+00
1239:0.0000000000000000e+00
1240:0.0000000000000000e+00
1241:0.0000000000000000e+00
1242:0.0000000000000000e+00
1243:0.0000000000000000e+00
1244:0.0000000000000000e+00
1245:0.0000000000000000e+00
1246:0.0000000000000000e+00
1247:0.0000000000000000e+00
1248:0.0000000000000000e+00
1249:0.0000000000000000e+00
1250:0.0000000000000000e+00
1251:0.0000000000000000e+00
1252:0.0000000000000000e+00
1253:0.0000000000000000e+00
1254:0.0000000000000000e+00
1255:0.0000000000000000e+00
1256:0.0000000000000000e+00
1257:0.0000000000000000e+00
1258:0.0000000000000000e+00
1259:0.0000000000000000e+00
1260:0.0000000000000000e+00
1261:0.0000000000000000e+00
1262:0.0000000000000000e+00
1263:0.0000000000000000e+00
1264:0.0000000000000000e+00
1265:0.0000000000000000e+00
1266:0.0000000000000000e+00
1267:0.0000000000000000e+00
1268:0.0000000000000000e+00
1269:0.0000000000000000e+00
1270:0.0000000000000000e+00
1271:0.0000000000000000e+00
1272:0.0000000000000000e+00
1273:0.0000000000000000e+00
1274:0.0000000000000000e+00
1275:0.0000000000000000e+00
1276:0.0000000000000000e+00
1277:0.0000000000000000e+00
1278:0.0000000000000000e+00
1279:0.0000000000000000e+00
1280:0.0000000000000000e+00
1281:0.0000000000000000e+00
1282:0.0000000000000000e+00
1283:0.0000000000000000e+00
1284:0.0000000000000000e+00
1285:0.0000000000000000e+00
1286:0.0000000000000000e+00
1287:0.0000000000000000e+00
1288:0.0000000000000000e+00
1289:0.0000000000000000e+00
1290:0.0000000000000000e+00
1291:0.0000000000000000e+00
1292:0.0000000000000000e+00
1293:0.0000000000000000e+00
1294:0.0000000000000000e+00
1295:0.0000000000000000e+00
1296:0.0000000000000000e+00
1297:0.0000000000000000e+00
1298:0.0000000000000000e+00
1299:0.0000000000000000e+00
1300:0.0000000000000000e+00
1301:0.0000000000000000e+00
1302:0.0000000000000000e+00
1303:0.0000000000000000e+00
1304:0.0000000000000000e+00
1305:0.0000000000000000e+00
1306:0.0000000000000000e+00
1307:0.0000000000000000e+00
1308:0.0000000000000000e+00
1309:0.0000000000000000e+00
1310:0.0000000000000000e+00
1311:0.0000000000000000e+00
1312:0.0000000000000000e+00
1313:0.0000000000000000e+00
1314:0.0000000000000000e+00
1315:0.0000000000000000e+00
1316:0.0000000000000000e+00
1317:0.0000000000000000e+00
1318:0.0000000000000000e+00
1319:0.0000000000000000e+00
1320:0.0000000000000000e+00
1321:0.0000000000000000e+00
1322:0.0000000000000000e+00
1323:0.0000000000000000e+00
1324:0.0000000000000000e+00
1325:0.0000000000000000e+00
1326:0.0000000000000000e+00
1327:0.0000000000000000e+00
1328:0.0000000000000000e+00
1329:0.0000000000000000e+00
1330:0.0000000000000000e+00
1331:0.0000000000000000e+00
1332:0.0000000000000000e+00
1333:0.0000000000000000e+00
1334:0.0000000000000000e+00
1335:0.0000000000000000e+00
1336:0.0000000000000000e+00
1337:0.0000000000000000e+00
1338:0.0000000000000000e+00
1339:0.0000000000000000e+00
1340:0.0000000000000000e+00
1341:0.0000000000000000e+00
1342:0.0000000000000000e+00
1343:0.0000000000000000e+00
1344:0.0000000000000000e+00
1345:0.0000000000000000e+00
1346:0.0000000000000000e+00
1347:0.0000000000000000e+00
1348:0.0000000000000000e+00
1349:0.0000000000000000e+00
1350:0.0000000000000000e+00
1351:0.0000000000000000e+00
1352:0.0000000000000000e+00
1353:0.0000000000000000e+00
1354:0.0000000000000000e+00
1355:0.0000000000000000e+00
1356:0.0000000000000000e+00
1357:0.0000000000000000e+00
1358:0.0000000000000000e+00
1359:0.0000000000000000e+00
1360:0.0000000000000000e+00
1361:0.0000000000000000e+00
1362:0.0000000000000000e+00
1363:0.0000000000000000e+00
1364:0.0000000000000000e+00
1365:0.0000000000000000e+00
1366:0.0000000000000000e+00
1367:0.0000000000000000e+00
1368:0.0000000000000000e+00
1369:0.0000000000000000e+00
1370:0.0000000000000000e+00
1371:0.0000000000000000e+00
1372:0.0000000000000000e+00
1373:0.0000000000000000e+00
1374:0.0000000000000000e+00
1375:0.0000000000000000e+00
1376:0.0000000000000000e+00
1377:0.0000000000000000e+00
1378:0.0000000000000000e+00
1379:0.0000000000000000e+00
1380:0.0000000000000000e+00
1381:0.0000000000000000e+00
1382:0.0000000000000000e+00
1383:0.0000000000000000e+00
1384:0.0000000000000000e+00
1385:0.0000000000000000e+00
1386:0.0000000000000000e+00
1387:0.0000000000000000e+00
1388:0.0000000000000000e+00
1389:0.0000000000000000e+00
1390:0.0000000000000000e+00
1391:0.0000000000000000e+00
1392:0.0000000000000000e+00
1393:0.0000000000000000e+00
1394:0.0000000000000000e+00
1395:0.0000000000000000e+00
1396:0.0000000000000000e+00
1397:0.0000000000000000e+00
1398:0.0000000000000000e+00
1399:0.0000000000000000e+00
1400:0.0000000000000000e+00
1401:0.0000000000000000e+00
1402:0.0000000000000000e+00
1403:0.0000000000000000e+00
1404:0.0000000000000000e+00
1405:0.0000000000000000e+00
1406:0.0000000000000000e+00
1407:0.0000000000000000e+00
1408:0.0000000000000000e+00
1409:0.0000000000000000e+00
1410:0.0000000000000000e+00
1411:0.0000000000000000e+00
1412:0.0000000000000000e+00
1413:0.0000000000000000e+00
1414:0.0000000000000000e+00
1415:0.0000000000000000e+00
1416:0.0000000000000000e+00
1417:0.0000000000000000e+00
1418:0.0000000000000000e+00
1419:0.0000000000000000e+00
1420:0.0000000000000000e+00
1421:0.0000000000000000e+00
1422:0.0000000000000000e+00
1423:0.0000000000000000e+00
1424:0.0000000000000000e+00
1425:0.0000000000000000e+00
1426:0.0000000000000000e+00
1427:0.0000000000000000e+00
1428:0.0000000000000000e+00
1429:0.0000000000000000e+00
1430:0.0000000000000000e+00
1431:0.0000000000000000e+00
1432:0.0000000000000000e+00
1433:0.0000000000000000e+00
1434:0.0000000000000000e+00
1435:0.0000000000000000e+00
1436:0.0000000000000000e+00
1437:0.0000000000000000e+00
1438:0.0000000000000000e+00
1439:0.0000000000000000e+00
1440:0.0000000000000000e+00
1441:0.0000000000000000e+00
1442:0.0000000000000000e+00
1443:0.0000000000000000e+00
1444:0.0000000000000000e+00
1445:0.0000000000000000e+00
1446:0.0000000000000000e+00
1447:0.0000000000000000e+00
1448:0.0000000000000000e+00
1449:0.0000000000000000e+00
1450:0.0000000000000000e+00
1451:0.0000000000000000e+00
1452:0.0000000000000000e+00
1453:0.0000000000000000e+00
1454:0.0000000000000000e+00
1455:0.0000000000000000e+00
1456:0.0000000000000000e+00
1457:0.0000000000000000e+00
1458:0.0000000000000000e+00
1459:0.0000000000000000e+00
1460:0.0000000000000000e+00
1461:0.0000000000000000e+00
1462:0.0000000000000000e+00
1463:0.0000000000000000e+00
1464:0.0000000000000000e+00
1465:0.0000000000000000e+00
1466:0.0000000000000000e+00
1467:0.0000000000000000e+00
1468:0.0000000000000000e+00
1469:0.0000000000000000e+00
1470:0.0000000000000000e+00
1471:0.0000000000000000e+00
1472:0.0000000000000000e+00
1473:0.0000000000000000e+00
1474:0.0000000000000000e+00
1475:0.0000000000000000e+00
1476:0.0000000000000000e+00
1477:0.0000000000000000e+00
1478:0.0000000000000000e+00
1479:0.0000000000000000e+00
1480:0.0000000000000000e+00
1481:0.0000000000000000e+00
1482:0.0000000000000000e+00
1483:0.0000000000000000e+00
1484:0.0000000000000000e+00
1485:0.0000000000000000e+00
1486:0.0000000000000000e+00
1487:0.0000000000000000e+00
1488:0.0000000000000000e+00
1489:0.0000000000000000e+00
1490:0.0000000000000000e+00
1491:0.0000000000000000e+00
1492:0.0000000000000000e+00
1493:0.0000000000000000e+00
1494:0.0000000000000000e+00
1495:0.0000000000000000e+00
1496:0.0000000000000000e+00
1497:0.0000000000000000e+00
1498:0.0000000000000000e+00
1499:0.0000000000000000e+00
1500:0.0000000000000000e+00
1501:0.0000000000000000e+00
1502:0.0000000000000000e+00
1503:0.0000000000000000e+00
1504:0.0000000000000000e+00
1505:0.0000000000000000e+00
1506:0.0000000000000000e+00
1507:0.0000000000000000e+00
1508:0.0000000000000000e+00
1509:0.0000000000000000e+00
1510:0.0000000000000000e+00
1511:0.0000000000000000e+00
1512:0.0000000000000000e+00
1513:0.0000000000000000e+00
1514:0.0000000000000000e+00
1515:0.0000000000000000e+00
1516:0.0000000000000000e+00
1517:0.0000000000000000e+00
1518:0.0000000000000000e+00
1519:0.0000000000000000e+00
1520:0.0000000000000000e+00
1521:0.0000000000000000e+00
1522:0.0000000000000000e+00
1523:0.0000000000000000e+00
1524:0.0000000000000000e+00
1525:0.0000000000000000e+00
1526:0.0000000000000000e+00
1527:0.0000000000000000e+00
1528:0.0000000000000000e+00
1529:0.0000000000000000e+00
1530:0.0000000000000000e+00
1531:0.0000000000000000e+00
1532:0.0000000000000000e+00
1533:0.0000000000000000e+00
1534:0.0000000000000000e+00
1535:0.0000000000000000e+00
1536:0.0000000000000000e+00
1537:0.0000000000000000e+00
1538:0.0000000000000000e+00
1539:0.0000000000000000e+00
1540:0.0000000000000000e+00
1541:0.0000000000000000e+00
1542:0.0000000000000000e+00
1543:0.0000000000000000e+00
1544:0.0000000000000000e+00
1545:0.0000000000000000e+00
1546:0.0000000000000000e+00
1547:0.0000000000000000e+00
1548:0.0000000000000000e+00
1549:0.0000000000000000e+00
1550:0.0000000000000000e+00
1551:0.0000000000000000e+00
1552:0.0000000000000000e+00
1553:0.0000000000000000e+00
1554:0.0000000000000000e+00
1555:0.0000000000000000e+00
1556:0.0000000000000000e+00
1557:0.0000000000000000e+00
1558:0.0000000000000000e+00
1559:0.0000000000000000e+00
1560:0.0000000000000000e+00
1561:0.0000000000000000e+00
1562:0.0000000000000000e+00
1563:0.0000000000000000e+00
1564:0.0000000000000000e+00
1565:0.0000000000000000e+00
1566:0.0000000000000000e+00
1567:0.0000000000000000e+00
1568:0.0000000000000000e+00
1569:0.0000000000000000e+00
1570:0.0000000000000000e+00
1571:0.0000000000000000e+00
1572:0.0000000000000000e+00
1573:0.0000000000000000e+00
1574:0.0000000000000000e+00
1575:0.0000000000000000e+00
1576:0.0000000000000000e+00
1577:0.0000000000000000e+00
1578:0.0000000000000000e+00
1579:0.0000000000000000e+00
1580:0.0000000000000000e+00
1581:0.0000000000000000e+00
1582:0.0000000000000000e+00
1583:0.0000000000000000e+00
1584:0.0000000000000000e+00
1585:0.0000000000000000e+00
1586:0.0000000000000000e+00
1587:0.0000000000000000e+00
1588:0.0000000000000000e+00
1589:0.0000000000000000e+00
1590:0.0000000000000000e+00
1591:0.0000000000000000e+00
1592:0.0000000000000000e+00
1593:0.0000000000000000e+00
1594:0.0000000000000000e+00
1595:0.0000000000000000e+00
1596:0.0000000000000000e+00
1597:0.0000000000000000e+00
1598:0.0000000000000000e+00
1599:0.0000000000000000e+00
1600:0.0000000000000000e+00
1601:0.0000000000000000e+00
1602:0.0000000000000000e+00
1603:0.0000000000000000e+00
1604:0.0000000000000000e+00
1605:0.0000000000000000e+00
1606:0.0000000000000000e+00
1607:0.0000000000000000e+00
1608:0.0000000000000000e+00
1609:0.0000000000000000e+00
1610:0.0000000000000000e+00
1611:0.0000000000000000e+00
1612:0.0000000000000000e+00
1613:0.0000000000000000e+00
1614:0.0000000000000000e+00
1615:0.0000000000000000e+00
1616:0.0000000000000000e+00
1617:0.0000000000000000e+00
1618:0.0000000000000000e+00
1619:0.0000000000000000e+00
1620:0.0000000000000000e+00
1621:0.0000000000000000e+00
1622:0.0000000000000000e+00
1623:0.0000000000000000e+00
1624:0.0000000000000000e+00
1625:0.0000000000000000e+00
1626:0.0000000000000000e+00
1627:0.0000000000000000e+00
1628:0.0000000000000000e+00
1629:0.0000000000000000e+00
1630:0.0000000000000000e+00
1631:0.0000000000000000e+00
1632:0.0000000000000000e+00
1633:0.0000000000000000e+00
1634:0.0000000000000000e+00
1635:0.0000000000000000e+00
1636:0.0000000000000000e+00
1637:0.0000000000000000e+00
1638:0.0000000000000000e+00
1639:0.0000000000000000e+00
1640:0.0000000000000000e+00
1641:0.0000000000000000e+00
1642:0.0000000000000000e+00
1643:0.0000000000000000e+00
1644:0.0000000000000000e+00
1645:0.0000000000000000e+00
1646:0.0000000000000000e+00
1647:0.0000000000000000e+00
1648:0.0000000000000000e+00
1649:0.0000000000000000e+00
1650:0.0000000000000000e+00
1651:0.0000000000000000e+00
1652:0.0000000000000000e+00
1653:0.0000000000000000e+00
1654:0.0000000000000000e+00
1655:0.0000000000000000e+00
1656:0.0000000000000000e+00
1657:0.0000000000000000e+00
1658:0.0000000000000000e+00
1659:0.0000000000000000e+00
1660:0.0000000000000000e+00
1661:0.0000000000000000e+00
1662:0.0000000000000000e+00
1663:0.0000000000000000e+00
1664:0.0000000000000000e+00
1665:0.0000000000000000e+00
1666:0.0000000000000000e+00
1667:0.0000000000000000e+00
1668:0.0000000000000000e+00
1669:0.0000000000000000e+00
1670:0.0000000000000000e+00
1671:0.0000000000000000e+00
1672:0.0000000000000000e+00
1673:0.0000000000000000e+00
1674:0.0000000000000000e+00
1675:0.0000000000000000e+00
1676:0.0000000000000000e+00
1677:0.0000000000000000e+00
1678:0.0000000000000000e+00
1679:0.0000000000000000e+00
1680:0.0000000000000000e+00
1681:0.0000000000000000e+00
1682:0.0000000000000000e+00
1683:0.0000000000000000e+00
1684:0.0000000000000000e+00
1685:0.0000000000000000e+00
1686:0.0000000000000000e+00
1687:0.0000000000000000e+00
1688:0.0000000000000000e+00
1689:0.0000000000000000e+00
1690:0.0000000000000000e+00
1691:0.0000000000000000e+00
1692:0.0000000000000000e+00
1693:0.0000000000000000e+00
1694:0.0000000000000000e+00
1695:0.0000000000000000e+00
1696:0.0000000000000000e+00
1697:0.0000000000000000e+00
1698:0.0000000000000000e+00
1699:0.0000000000000000e+00
1700:0.0000000000000000e+00
1701:0.0000000000000000e+00
1702:0.0000000000000000e+00
1703:0.0000000000000000e+00
1704:0.0000000000000000e+00
1705:0.0000000000000000e+00
1706:0.0000000000000000e+00
1707:0.0000000000000000e+00
1708:0.0000000000000000e+00
1709:0.0000000000000000e+00
1710:0.0000000000000000e+00
1711:0.0000000000000000e+00
1712:0.0000000000000000e+00
1713:0.0000000000000000e+00
1714:0.0000000000000000e+00
1715:0.0000000000000000e+00
1716:0.0000000000000000e+00
1717:0.0000000000000000e+00
1718:0.0000000000000000e+00
1719:0.0000000000000000e+00
1720:0.0000000000000000e+00
1721:0.0000000000000000e+00
1722:0.0000000000000000e+00
1723:0.0000000000000000e+00
1724:0.0000000000000000e+00
1725:0.0000000000000000e+00
1726:0.0000000000000000e+00
1727:0.0000000000000000e+00
1728:0.0000000000000000e+00
1729:0.0000000000000000e+00
1730:0.0000000000000000e+00
1731:0.0000000000000000e+00
1732:0.0000000000000000e+00
1733:0.0000000000000000e+00
1734:0.0000000000000000e+00
1735:0.0000000000000000e+00
1736:0.0000000000000000e+00
1737:0.0000000000000000e+00
1738:0.0000000000000000e+00
1739:0.0000000000000000e+00
1740:0.0000000000000000e+00
1741:0.0000000000000000e+00
1742:0.0000000000000000e+00
1743:0.0000000000000000e+00
1744:0.0000000000000000e+00
1745:0.0000000000000000e+00
1746:0.0000000000000000e+00
1747:0.0000000000000000e+00
1748:0.0000000000000000e+00
1749:0.0000000000000000e+00
1750:0.0000000000000000e+00
1751:0.0000000000000000e+00
1752:0.0000000000000000e+00
1753:0.0000000000000000e+00
1754:0.0000000000000000e+00
1755:0.0000000000000000e+00
1756:0.0000000000000000e+00
1757:0.0000000000000000e+00
1758:0.0000000000000000e+00
1759:0.0000000000000000e+00
1760:0.0000000000000000e+00
1761:0.0000000000000000e+00
1762:0.0000000000000000e+00
1763:0.0000000000000000e+00
1764:0.0000000000000000e+00
1765:0.0000000000000000e+00
1766:0.0000000000000000e+00
1767:0.0000000000000000e+00
1768:0.0000000000000000e+00
1769:0.0000000000000000e+00
1770:0.0000000000000000e+00
1771:0.0000000000000000e+00
1772:0.0000000000000000e+00
1773:0.0000000000000000e+00
1774:0.0000000000000000e+00
1775:0.0000000000000000e+00
1776:0.0000000000000000e+00
1777:0.0000000000000000e+00
1778:0.0000000000000000e+00
1779:0.0000000000000000e+00
1780:0.0000000000000000e+00
1781:0.0000000000000000e+00
1782:0.0000000000000000e+00
1783:0.0000000000000000e+00
1784:0.0000000000000000e+00
1785:0.0000000000000000e+00
1786:0.0000000000000000e+00
1787:0.0000000000000000e+00
1788:0.0000000000000000e+00
1789:0.0000000000000000e+00
1790:0.0000000000000000e+00
1791:0.0000000000000000e+00
1792:0.0000000000000000e+00
1793:0.0000000000000000e+00
1794:0.0000000000000000e+00
1795:0.0000000000000000e+00
1796:0.0000000000000000e+00
1797:0.0000000000000000e+00
1798:0.0000000000000000e+00
1799:0.0000000000000000e+00
1800:0.0000000000000000e+00
1801:0.0000000000000000e+00
1802:0.0000000000000000e+00
1803:0.0000000000000000e+00
1804:0.0000000000000000e+00
1805:0.0000000000000000e+00
1806:0.0000000000000000e+00
1807:0.0000000000000000e+00
1808:0.0000000000000000e+00
1809:0.0000000000000000e+00
1810:0.0000000000000000e+00
1811:0.0000000000000000e+00
1812:0.0000000000000000e+00
1813:0.0000000000000000e+00
1814:0.0000000000000000e+00
1815:0.0000000000000000e+00
1816:0.0000000000000000e+00
1817:0.0000000000000000e+00
1818:0.0000000000000000e+00
1819:0.0000000000000000e+00
1820:0.0000000000000000e+00
1821:0.0000000000000000e+00
1822:0.0000000000000000e+00
1823:0.0000000000000000e+00
1824:0.0000000000000000e+00
1825:0.0000000000000000e+00
1826:0.0000000000000000e+00
1827:0.0000000000000000e+00
1828:0.0000000000000000e+00
1829:0.0000000000000000e+00
1830:0.0000000000000000e+00
1831:0.0000000000000000e+00
1832:0.0000000000000000e+00
1833:0.0000000000000000e+00
1834:0.0000000000000000e+00
1835:0.0000000000000000e+00
1836:0.0000000000000000e+00
1837:0.0000000000000000e+00
1838:0.0000000000000000e+00
1839:0.0000000000000000e+00
1840:0.0000000000000000e+00
1841:0.0000000000000000e+00
1842:0.0000000000000000e+00
1843:0.0000000000000000e+00
1844:0.0000000000000000e+00
1845:0.0000000000000000e+00
1846:0.0000000000000000e+00
1847:0.0000000000000000e+00
1848:0.0000000000000000e+00
1849:0.0000000000000000e+00
1850:0.0000000000000000e+00
1851:0.0000000000000000e+00
1852:0.0000000000000000e+00
1853:0.0000000000000000e+00
1854:0.0000000000000000e+00
1855:0.0000000000000000e+00
1856:0.0000000000000000e+00
1857:0.0000000000000000e+00
1858:0.0000000000000000e+00
1859:0.0000000000000000e+00
1860:0.0000000000000000e+00
1861:0.0000000000000000e+00
1862:0.0000000000000000e+00
1863:0.0000000000000000e+00
1864:0.0000000000000000e+00
1865:0.0000000000000000e+00
1866:0.0000000000000000e+00
1867:0.0000000000000000e+00
1868:0.0000000000000000e+00
1869:0.0000000000000000e+00
1870:0.0000000000000000e+00
1871:0.0000000000000000e+00
1872:0.0000000000000000e+00
1873:0.0000000000000000e+00
1874:0.0000000000000000e+00
1875:0.0000000000000000e+00
1876:0.0000000000000000e+00
1877:0.0000000000000000e+00
1878:0.0000000000000000e+00
1879:0.0000000000000000e+00
1880:0.0000000000000000e+00
1881:0.0000000000000000e+00
1882:0.0000000000000000e+00
1883:0.0000000000000000e+00
1884:0.0000000000000000e+00
1885:0.0000000000000000e+00
1886:0.0000000000000000e+00
1887:0.0000000000000000e+00
1888:0.0000000000000000e+00
1889:0.0000000000000000e+00
1890:0.0000000000000000e+00
1891:0.0000000000000000e+00
1892:0.0000000000000000e+00
1893:0.0000000000000000e+00
1894:0.0000000000000000e+00
1895:0.0000000000000000e+00
1896:0.0000000000000000e+00
1897:0.0000000000000000e+00
1898:0.0000000000000000e+00
1899:0.0000000000000000e+00
1900:0.0000000000000000e+00
1901:0.0000000000000000e+00
1902:0.0000000000000000e+00
1903:0.0000000000000000e+00
1904:0.0000000000000000e+00
1905:0.0000000000000000e+00
1906:0.0000000000000000e+00
1907:0.0000000000000000e+00
1908:0.0000000000000000e+00
1909:0.0000000000000000e+00
1910:0.0000000000000000e+00
1911:0.0000000000000000e+00
1912:0.0000000000000000e+00
1913:0.0000000000000000e+00
1914:0.0000000000000000e+00
1915:0.0000000000000000e+00
1916:0.0000000000000000e+00
1917:0.0000000000000000e+00
1918:0.0000000000000000e+00
1919:0.0000000000000000e+00
1920:0.0000000000000000e+00
1921:0.0000000000000000e+00
1922:0.0000000000000000e+00
1923:0.0000000000000000e+00
1924:0.0000000000000000e+00
1925:0.0000000000000000e+00
1926:0.0000000000000000e+00
1927:0.0000000000000000e+00
1928:0.0000000000000000e+00
1929:0.0000000000000000e+00
1930:0.0000000000000000e+00
1931:0.0000000000000000e+00
1932:0.0000000000000000e+00
1933:0.0000000000000000e+00
1934:0.0000000000000000e+00
1935:0.0000000000000000e+00
1936:0.0000000000000000e+00
1937:0.0000000000000000e+00
1938:0.0000000000000000e+00
1939:0.0000000000000000e+00
1940:0.0000000000000000e+00
1941:0.0000000000000000e+00
1942:0.0000000000000000e+00
1943:0.0000000000000000e+00
1944:0.0000000000000000e+00
1945:0.0000000000000000e+00
1946:0.0000000000000000e+00
1947:0.0000000000000000e+00
1948:0.0000000000000000e+00
1949:0.0000000000000000e+00
1950:0.0000000000000000e+00
1951:0.0000000000000000e+00
1952:0.0000000000000000e+00
1953:0.0000000000000000e+00
1954:0.0000000000000000e+00
1955:0.0000000000000000e+00
1956:0.0000000000000000e+00
1957:0.0000000000000000e+00
1958:0.0000000000000000e+00
1959:0.0000000000000000e+00
1960:0.0000000000000000e+00
1961:0.0000000000000000e+00
1962:0.0000000000000000e+00
1963:0.0000000000000000e+00
1964:0.0000000000000000e+00
1965:0.0000000000000000e+00
1966:0.0000000000000000e+00
1967:0.0000000000000000e+00
1968:0.0000000000000000e+00
1969:0.0000000000000000e+00
1970:0.0000000000000000e+00
1971:0.0000000000000000e+00
1972:0.0000000000000000e+00
1973:0.0000000000000000e+00
1974:0.0000000000000000e+00
1975:0.0000000000000000e+00
1976:0.0000000000000000e+00
1977:0.0000000000000000e+00
1978:0.0000000000000000e+00
1979:0.0000000000000000e+00
1980:0.0000000000000000e+00
1981:0.0000000000000000e+00
1982:0.0000000000000000e+00
1983:0.0000000000000000e+00
1984:0.0000000000000000e+00
1985:0.0000000000000000e+00
1986:0.0000000000000000e+00
1987:0.0000000000000000e+00
1988:0.0000000000000000e+00
1989:0.0000000000000000e+00
1990:0.0000000000000000e+00
1991:0.0000000000000000e+00
1992:0.0000000000000000e+00
1993:0.0000000000000000e+00
1994:0.0000000000000000e+00
1995:0.0000000000000000e+00
1996:0.0000000000000000e+00
1997:0.0000000000000000e+00
1998:0.0000000000000000e+00
1999:0.0000000000000000e+00
2000:0.0000000000000000e+00
2001:0.0000000000000000e+00
2002:0.0000000000000000e+00
2003:0.0000000000000000e+00
2004:0.0000000000000000e+00
2005:0.0000000000000000e+00
2006:0.0000000000000000e+00
2007:0.0000000000000000e+00
2008:0.0000000000000000e+00
2009:0.0000000000000000e+00
2010:0.0000000000000000e+00
2011:0.0000000000000000e+00
2012:0.0000000000000000e+00
2013:0.0000000000000000e+00
2014:0.0000000000000000e+00
2015:0.0000000000000000e+00
2016:0.0000000000000000e+00
2017:0.0000000000000000e+00
2018:0.0000000000000000e+00
2019:0.0000000000000000e+00
2020:0.0000000000000000e+00
2021:0.0000000000000000e+00
2022:0.0000000000000000e+00
2023:0.0000000000000000e+00
2024:0.0000000000000000e+00
2025:0.0000000000000000e+00
2026:0.0000000000000000e+00
2027:0.0000000000000000e+00
2028:0.0000000000000000e+00
2029:0.0000000000000000e+00
2030:0.0000000000000000e+00
2031:0.0000000000000000e+00
2032:0.0000000000000000e+00
2033:0.0000000000000000e+00
2034:0.0000000000000000e+00
2035:0.0000000000000000e+00
2036:0.0000000000000000e+00
2037:0.0000000000000000e+00
2038:0.0000000000000000e+00
2039:0.0000000000000000e+00
2040:0.0000000000000000e+00
2041:0.0000000000000000e+00
2042:0.0000000000000000e+00
2043:0.0000000000000000e+00
2044:0.0000000000000000e+00
2045:0.0000000000000000e+00
2046:0.0000000000000000e+00
2047:0.0000000000000000e+00
2048:0.0000000000000000e+00
2049:0.0000000000000000e+00
2050:0.0000000000000000e+00
2051:0.0000000000000000e+00
2052:0.0000000000000000e+00
2053:0.0000000000000000e+00
2054:0.0000000000000000e+00
2055:0.0000000000000000e+00
2056:0.0000000000000000e+00
2057:0.0000000000000000e+00
2058:0.0000000000000000e+00
2059:0.0000000000000000e+00
2060:0.0000000000000000e+00
2061:0.0000000000000000e+00
2062:0.0000000000000000e+00
2063:0.0000000000000000e+00
2064:0.0000000000000000e+00
2065:0.0000000000000000e+00
2066:0.0000000000000000e+00
2067:0.0000000000000000e+00
2068:0.0000000000000000e+00
2069:0.0000000000000000e+00
2070:0.0000000000000000e+00
2071:0.0000000000000000e+00
2072:0.0000000000000000e+00
2073:0.0000000000000000e+00
2074:0.0000000000000000e+00
2075:0.0000000000000000e+00
2076:0.0000000000000000e+00
2077:0.0000000000000000e+00
2078:0.0000000000000000e+00
2079:0.0000000000000000e+00
2080:0.0000000000000000e+00
2081:0.0000000000000000e+00
2082:0.0000000000000000e+00
2083:0.0000000000000000e+00
2084:0.0000000000000000e+00
2085:0.0000000000000000e+00
2086:0.0000000000000000e+00
2087:0.0000000000000000e+00
2088:0.0000000000000000e+00
2089:0.0000000000000000e+00
2090:0.0000000000000000e+00
2091:0.0000000000000000e+00
2092:0.0000000000000000e+00
2093:0.0000000000000000e+00
2094:0.0000000000000000e+00
2095:0.0000000000000000e+00
2096:0.0000000000000000e+00
2097:0.0000000000000000e+00
2098:0.0000000000000000e+00
2099:0.0000000000000000e+00
2100:0.0000000000000000e+00
2101:0.0000000000000000e+00
2102:0.0000000000000000e+00
2103:0.0000000000000000e+00
2104:0.0000000000000000e+00
2105:0.0000000000000000e+00
2106:0.0000000000000000e+00
2107:0.0000000000000000e+00
2108:0.0000000000000000e+00
2109:0.0000000000000000e+00
2110:0.0000000000000000e+00
2111:0.0000000000000000e+00
2112:0.0000000000000000e+00
2113:0.0000000000000000e+00
2114:0.0000000000000000e+00
2115:0.0000000000000000e+00
2116:0.0000000000000000e+00
2117:0.0000000000000000e+00
2118:0.0000000000000000e+00
2119:0.0000000000000000e+00
2120:0.0000000000000000e+00
2121:0.0000000000000000e+00
2122:0.0000000000000000e+00
2123:0.0000000000000000e+00
2124:0.0000000000000000e+00
2125:0.0000000000000000e+00
2126:0.0000000000000000e+00
2127:0.0000000000000000e+00
2128:0.0000000000000000e+00
2129:0.0000000000000000e+00
2130:0.0000000000000000e+00
2131:0.0000000000000000e+00
2132:0.0000000000000000e+00
2133:0.0000000000000000e+00
2134:0.0000000000000000e+00
2135:0.0000000000000000e+00
2136:0.0000000000000000e+00
2137:0.0000000000000000e+00
2138:0.0000000000000000e+00
2139:0.0000000000000000e+00
2140:0.0000000000000000e+00
2141:0.0000000000000000e+00
2142:0.0000000000000000e+00
2143:0.0000000000000000e+00
2144:0.0000000000000000e+00
2145:0.0000000000000000e+00
2146:0.0000000000000000e+00
2147:0.0000000000000000e+00
2148:0.0000000000000000e+00
2149:0.0000000000000000e+00
2150:0.0000000000000000e+00
2151:0.0000000000000000e+00
2152:0.0000000000000000e+00
2153:0.0000000000000000e+00
2154:0.0000000000000000e+00
2155:0.0000000000000000e+00
2156:0.0000000000000000e+00
2157:0.0000000000000000e+00
2158:0.0000000000000000e+00
2159:0.0000000000000000e+00
2160:0.0000000000000000e+00
2161:0.0000000000000000e+00
2162:0.0000000000000000e+00
2163:0.0000000000000000e+00
2164:0.0000000000000000e+00
2165:0.0000000000000000e+00
2166:0.0000000000000000e+00
2167:0.0000000000000000e+00
2168:0.0000000000000000e+00
2169:0.0000000000000000e+00
2170:0.0000000000000000e+00
2171:0.0000000000000000e+00
2172:0.0000000000000000e+00
2173:0.0000000000000000e+00
2174:0.0000000000000000e+00
2175:0.0000000000000000e+00
2176:0.0000000000000000e+00
2177:0.0000000000000000e+00
2178:0.0000000000000000e+00
2179:0.0000000000000000e+00
2180:0.0000000000000000e+00
2181:0.0000000000000000e+00
2182:0.0000000000000000e+00
2183:0.0000000000000000e+00
2184:0.0000000000000000e+00
2185:0.0000000000000000e+00
2186:0.0000000000000000e+00
2187:0.0000000000000000e+00
2188:0.0000000000000000e+00
2189:0.0000000000000000e+00
2190:0.0000000000000000e+00
2191:0.0000000000000000e+00
2192:0.0000000000000000e+00
2193:0.0000000000000000e+00
2194:0.0000000000000000e+00
2195:0.0000000000000000e+00
2196:0.0000000000000000e+00
2197:0.0000000000000000e+00
2198:0.0000000000000000e+00
2199:0.0000000000000000e+00
2200:0.0000000000000000e+00
2201:0.0000000000000000e+00
2202:0.0000000000000000e+00
2203:0.0000000000000000e+00
2204:0.0000000000000000e+00
2205:0.0000000000000000e+00
2206:0.0000000000000000e+00
2207:0.0000000000000000e+00
2208:0.0000000000000000e+00
2209:0.0000000000000000e+00
2210:0.0000000000000000e+00
2211:0.0000000000000000e+00
2212:0.0000000000000000e+00
2213:0.0000000000000000e+00
2214:0.0000000000000000e+00
2215:0.0000000000000000e+00
2216:0.0000000000000000e+00
2217:0.0000000000000000e+00
2218:0.0000000000000000e+00
2219:0.0000000000000000e+00
2220:0.0000000000000000e+00
2221:0.0000000000000000e+00
2222:0.0000000000000000e+00
2223:0.0000000000000000e+00
2224:0.0000000000000000e+00
2225:0.0000000000000000e+00
2226:0.0000000000000000e+00
2227:0.0000000000000000e+00
2228:0.0000000000000000e+00
2229:0.0000000000000000e+00
2230:0.0000000000000000e+00
2231:0.0000000000000000e+00
2232:0.0000000000000000e+00
2233:0.0000000000000000e+00
2234:0.0000000000000000e+00
2235:0.0000000000000000e+00
2236:0.0000000000000000e+00
2237:0.0000000000000000e+00
2238:0.0000000000000000e+00
2239:0.0000000000000000e+00
2240:0.0000000000000000e+00
2241:0.0000000000000000e+00
2242:0.0000000000000000e+00
2243:0.0000000000000000e+00
2244:0.0000000000000000e+00
2245:0.0000000000000000e+00
2246:0.0000000000000000e+00
2247:0.0000000000000000e+00
2248:0.0000000000000000e+00
2249:0.0000000000000000e+00
2250:0.0000000000000000e+00
2251:0.0000000000000000e+00
2252:0.0000000000000000e+00
2253:0.0000000000000000e+00
2254:0.0000000000000000e+00
2255:0.0000000000000000e+00
2256:0.0000000000000000e+00
2257:0.0000000000000000e+00
2258:0.0000000000000000e+00
2259:0.0000000000000000e+00
2260:0.0000000000000000e+00
2261:0.0000000000000000e+00
2262:0.0000000000000000e+00
2263:0.0000000000000000e+00
2264:0.0000000000000000e+00
2265:0.0000000000000000e+00
2266:0.0000000000000000e+00
2267:0.0000000000000000e+00
2268:0.0000000000000000e+00
2269:0.0000000000000000e+00
2270:0.0000000000000000e+00
2271:0.0000000000000000e+00
2272:0.0000000000000000e+00
2273:0.0000000000000000e+00
2274:0.0000000000000000e+00
2275:0.0000000000000000e+00
2276:0.0000000000000000e+00
2277:0.0000000000000000e+00
2278:0.0000000000000000e+00
2279:0.0000000000000000e+00
2280:0.0000000000000000e+00
2281:0.0000000000000000e+00
2282:0.0000000000000000e+00
2283:0.0000000000000000e+00
2284:0.0000000000000000e+00
2285:0.0000000000000000e+00
2286:0.0000000000000000e+00
2287:0.0000000000000000e+00
2288:0.0000000000000000e+00
2289:0.0000000000000000e+00
2290:0.0000000000000000e+00
2291:0.0000000000000000e+00
2292:0.0000000000000000e+00
2293:0.0000000000000000e+00
2294:0.0000000000000000e+00
2295:0.0000000000000000e+00
2296:0.0000000000000000e+00
2297:0.0000000000000000e+00
2298:0.0000000000000000e+00
2299:0.0000000000000000e+00
2300:0.0000000000000000e+00
2301:0.0000000000000000e+00
2302:0.0000000000000000e+00
2303:0.0000000000000000e+00
2304:0.0000000000000000e+00
2305:0.0000000000000000e+00
2306:0.0000000000000000e+00
2307:0.0000000000000000e+00
2308:0.0000000000000000e+00
2309:0.0000000000000000e+00
2310:0.0000000000000000e+00
2311:0.0000000000000000e+00
2312:0.0000000000000000e+00
2313:0.0000000000000000e+00
2314:0.0000000000000000e+00
2315:0.0000000000000000e+00
2316:0.0000000000000000e+00
2317:0.0000000000000000e+00
2318:0.0000000000000000e+00
2319:0.0000000000000000e+00
2320:0.0000000000000000e+00
2321:0.0000000000000000e+00
2322:0.0000000000000000e+00
2323:0.0000000000000000e+00
2324:0.0000000000000000e+00
2325:0.0000000000000000e+00
2326:0.0000000000000000e+00
2327:0.0000000000000000e+00
2328:0.0000000000000000e+00
2329:0.0000000000000000e+00
2330:0.0000000000000000e+00
2331:0.0000000000000000e+00
2332:0.0000000000000000e+00
2333:0.0000000000000000e+00
2334:0.0000000000000000e+00
2335:0.0000000000000000e+00
2336:0.0000000000000000e+00
2337:0.0000000000000000e+00
2338:0.0000000000000000e+00
2339:0.0000000000000000e+00
2340:0.0000000000000000e+00
2341:0.0000000000000000e+00
2342:0.0000000000000000e+00
2343:0.0000000000000000e+00
2344:0.0000000000000000e+00
2345:0.0000000000000000e+00
2346:0.0000000000000000e+00
2347:0.0000000000000000e+00
2348:0.0000000000000000e+00
2349:0.0000000000000000e+00
2350:0.0000000000000000e+00
2351:0.0000000000000000e+00
2352:0.0000000000000000e+00
2353:0.0000000000000000e+00
2354:0.0000000000000000e+00
2355:0.0000000000000000e+00
2356:0.0000000000000000e+00
2357:0.0000000000000000e+00
2358:0.0000000000000000e+00
2359:0.0000000000000000e+00
2360:0.0000000000000000e+00
2361:0.0000000000000000e+00
2362:0.0000000000000000e+00
2363:0.0000000000000000e+00
2364:0.0000000000000000e+00
2365:0.0000000000000000e+00
2366:0.0000000000000000e+00
2367:0.0000000000000000e+00
2368:0.0000000000000000e+00
2369:0.0000000000000000e+00
2370:0.0000000000000000e+00
2371:0.0000000000000000e+00
2372:0.0000000000000000e+00
2373:0.0000000000000000e+00
2374:0.0000000000000000e+00
2375:0.0000000000000000e+00
2376:0.0000000000000000e+00
2377:0.0000000000000000e+00
2378:0.0000000000000000e+00
2379:0.0000000000000000e+00
2380:0.0000000000000000e+00
2381:0.0000000000000000e+00
2382:0.0000000000000000e+00
2383:0.0000000000000000e+00
2384:0.0000000000000000e+00
2385:0.0000000000000000e+00
2386:0.0000000000000000e+00
2387:0.0000000000000000e+00
2388:0.0000000000000000e+00
2389:0.0000000000000000e+00
2390:0.0000000000000000e+00
2391:0.0000000000000000e+00
2392:0.0000000000000000e+00
2393:0.0000000000000000e+00
2394:0.0000000000000000e+00
2395:0.0000000000000000e+00
2396:0.0000000000000000e+00
2397:0.0000000000000000e+00
2398:0.0000000000000000e+00
2399:0.0000000000000000e+00
2400:0.0000000000000000e+00
2401:0.0000000000000000e+00
2402:0.0000000000000000e+00
2403:0.0000000000000000e+00
2404:0.0000000000000000e+00
2405:0.0000000000000000e+00
2406:0.0000000000000000e+00
2407:0.0000000000000000e+00
2408:0.0000000000000000e+00
2409:0.0000000000000000e+00
2410:0.0000000000000000e+00
2411:0.0000000000000000e+00
2412:0.0000000000000000e+00
2413:0.0000000000000000e+00
2414:0.0000000000000000e+00
2415:0.0000000000000000e+00
2416:0.0000000000000000e+00
2417:0.0000000000000000e+00
2418:0.0000000000000000e+00
2419:0.0000000000000000e+00
2420:0.0000000000000000e+00
2421:0.0000000000000000e+00
2422:0.0000000000000000e+00
2423:0.0000000000000000e+00
2424:0.0000000000000000e+00
2425:0.0000000000000000e+00
2426:0.0000000000000000e+00
2427:0.0000000000000000e+00
2428:0.0000000000000000e+00
2429:0.0000000000000000e+00
2430:0.0000000000000000e+00
2431:0.0000000000000000e+00
2432:0.0000000000000000e+00
2433:0.0000000000000000e+00
2434:0.0000000000000000e+00
2435:0.0000000000000000e+00
2436:0.0000000000000000e+00
2437:0.0000000000000000e+00
2438:0.0000000000000000e+00
2439:0.0000000000000000e+00
2440:0.0000000000000000e+00
2441:0.0000000000000000e+00
2442:0.0000000000000000e+00
2443:0.0000000000000000e+00
2444:0.0000000000000000e+00
2445:0.0000000000000000e+00
2446:0.0000000000000000e+00
2447:0.0000000000000000e+00
2448:0.0000000000000000e+00
2449:0.0000000000000000e+00
2450:0.0000000000000000e+00
2451:0.0000000000000000e+00
2452:0.0000000000000000e+00
2453:0.0000000000000000e+00
2454:0.0000000000000000e+00
2455:0.0000000000000000e+00
2456:0.0000000000000000e+00
2457:0.0000000000000000e+00
2458:0.0000000000000000e+00
2459:0.0000000000000000e+00
2460:0.0000000000000000e+00
2461:0.0000000000000000e+00
2462:0.0000000000000000e+00
2463:0.0000000000000000e+00
2464:0.0000000000000000e+00
2465:0.0000000000000000e+00
2466:0.0000000000000000e+00
2467:0.0000000000000000e+00
2468:0.0000000000000000e+00
2469:0.0000000000000000e+00
2470:0.0000000000000000e+00
2471:0.0000000000000000e+00
2472:0.0000000000000000e+00
2473:0.0000000000000000e+00
2474:0.0000000000000000e+00
2475:0.0000000000000000e+00
2476:0.0000000000000000e+00
2477:0.0000000000000000e+00
2478:0.0000000000000000e+00
2479:0.0000000000000000e+00
2480:0.0000000000000000e+00
2481:0.0000000000000000e+00
2482:0.0000000000000000e+00
2483:0.0000000000000000e+00
2484:0.0000000000000000e+00
2485:0.0000000000000000e+00
2486:0.0000000000000000e+00
2487:0.0000000000000000e+00
2488:0.0000000000000000e+00
2489:0.0000000000000000e+00
2490:0.0000000000000000e+00
2491:0.0000000000000000e+00
2492:0.0000000000000000e+00
2493:0.0000000000000000e+00
2494:0.0000000000000000e+00
2495:0.0000000000000000e+00
2496:0.0000000000000000e+00
2497:0.0000000000000000e+00
2498:0.0000000000000000e+00
2499:0.0000000000000000e+00
2500:0.0000000000000000e+00
2501:0.0000000000000000e+00
2502:0.0000000000000000e+00
2503:0.0000000000000000e+00
2504:0.0000000000000000e+00
2505:0.0000000000000000e+00
2506:0.0000000000000000e+00
2507:0.0000000000000000e+00
2508:0.0000000000000000e+00
2509:0.0000000000000000e+00
2510:0.0000000000000000e+00
2511:0.0000000000000000e+00
2512:0.0000000000000000e+00
2513:0.0000000000000000e+00
2514:0.0000000000000000e+00
2515:0.0000000000000000e+00
2516:0.0000000000000000e+00
2517:0.0000000000000000e+00
2518:0.0000000000000000e+00
2519:0.0000000000000000e+00
2520:0.0000000000000000e+00
2521:0.0000000000000000e+00
2522:0.0000000000000000e+00
2523:0.0000000000000000e+00
2524:0.0000000000000000e+00
2525:0.0000000000000000e+00
2526:0.0000000000000000e+00
2527:0.0000000000000000e+00
2528:0.0000000000000000e+00
2529:0.0000000000000000e+00
2530:0.0000000000000000e+00
2531:0.0000000000000000e+00
2532:0.0000000000000000e+00
2533:0.0000000000000000e+00
2534:0.0000000000000000e+00
2535:0.0000000000000000e+00
2536:0.0000000000000000e+00
2537:0.0000000000000000e+00
2538:0.0000000000000000e+00
2539:0.0000000000000000e+00
2540:0.0000000000000000e+00
2541:0.0000000000000000e+00
2542:0.0000000000000000e+00
2543:0.0000000000000000e+00
2544:0.0000000000000000e+00
2545:0.0000000000000000e+00
2546:0.0000000000000000e+00
2547:0.0000000000000000e+00
2548:0.0000000000000000e+00
2549:0.0000000000000000e+00
2550:0.0000000000000000e+00
2551:0.0000000000000000e+00
2552:0.0000000000000000e+00
2553:0.0000000000000000e+00
2554:0.0000000000000000e+00
2555:0.0000000000000000e+00
2556:0.0000000000000000e+00
2557:0.0000000000000000e+00
2558:0.0000000000000000e+00
2559:0.0000000000000000e+00
2560:0.0000000000000000e+00
2561:0.0000000000000000e+00
2562:0.0000000000000000e+00
2563:0.0000000000000000e+00
2564:0.0000000000000000e+00
2565:0.0000000000000000e+00
2566:0.0000000000000000e+00
2567:0.0000000000000000e+00
2568:0.0000000000000000e+00
2569:0.0000000000000000e+00
2570:0.0000000000000000e+00
2571:0.0000000000000000e+00
2572:0.0000000000000000e+00
2573:0.0000000000000000e+00
2574:0.0000000000000000e+00
2575:0.0000000000000000e+00
2576:0.0000000000000000e+00
2577:0.0000000000000000e+00
2578:0.0000000000000000e+00
2579:0.0000000000000000e+00
2580:0.0000000000000000e+00
2581:0.0000000000000000e+00
2582:0.0000000000000000e+00
2583:0.0000000000000000e+00
2584:0.0000000000000000e+00
2585:0.0000000000000000e+00
2586:0.0000000000000000e+00
2587:0.0000000000000000e+00
2588:0.0000000000000000e+00
2589:0.0000000000000000e+00
2590:0.0000000000000000e+00
2591:0.0000000000000000e+00
2592:0.0000000000000000e+00
2593:0.0000000000000000e+00
2594:0.0000000000000000e+00
2595:0.0000000000000000e+00
2596:0.0000000000000000e+00
2597:0.0000000000000000e+00
2598:0.0000000000000000e+00
2599:0.0000000000000000e+00
2600:0.0000000000000000e+00
2601:0.0000000000000000e+00
2602:0.0000000000000000e+00
2603:0.0000000000000000e+00
2604:0.0000000000000000e+00
2605:0.0000000000000000e+00
2606:0.0000000000000000e+00
2607:0.0000000000000000e+00
2608:0.0000000000000000e+00
2609:0.0000000000000000e+00
2610:0.0000000000000000e+00
2611:0.0000000000000000e+00
2612:0.0000000000000000e+00
2613:0.0000000000000000e+00
2614:0.0000000000000000e+00
2615:0.0000000000000000e+00
2616:0.0000000000000000e+00
2617:0.0000000000000000e+00
2618:0.0000000000000000e+00
2619:0.0000000000000000e+00
2620:0.0000000000000000e+00
2621:0.0000000000000000e+00
2622:0.0000000000000000e+00
2623:0.0000000000000000e+00
2624:0.0000000000000000e+00
2625:0.0000000000000000e+00
2626:0.0000000000000000e+00
2627:0.0000000000000000e+00
2628:0.0000000000000000e+00
2629:0.0000000000000000e+00
2630:0.0000000000000000e+00
2631:0.0000000000000000e+00
2632:0.0000000000000000e+00
2633:0.0000000000000000e+00
2634:0.0000000000000000e+00
2635:0.0000000000000000e+00
2636:0.0000000000000000e+00
2637:0.0000000000000000e+00
2638:0.0000000000000000e+00
2639:0.0000000000000000e+00
2640:0.0000000000000000e+00
2641:0.0000000000000000e+00
2642:0.0000000000000000e+00
2643:0.0000000000000000e+00
2644:0.0000000000000000e+00
2645:0.0000000000000000e+00
2646:0.0000000000000000e+00
2647:0.0000000000000000e+00
2648:0.0000000000000000e+00
2649:0.0000000000000000e+00
2650:0.0000000000000000e+00
2651:0.0000000000000000e+00
2652:0.0000000000000000e+00
2653:0.0000000000000000e+00
2654:0.0000000000000000e+00
2655:0.0000000000000000e+00
2656:0.0000000000000000e+00
2657:0.0000000000000000e+00
2658:0.0000000000000000e+00
2659:0.0000000000000000e+00
2660:0.0000000000000000e+00
2661:0.0000000000000000e+00
2662:0.0000000000000000e+00
2663:0.0000000000000000e+00
2664:0.0000000000000000e+00
2665:0.0000000000000000e+00
2666:0.0000000000000000e+00
2667:0.0000000000000000e+00
2668:0.0000000000000000e+00
2669:0.0000000000000000e+00
2670:0.0000000000000000e+00
2671:0.0000000000000000e+00
2672:0.0000000000000000e+00
2673:0.0000000000000000e+00
2674:0.0000000000000000e+00
2675:0.0000000000000000e+00
2676:0.0000000000000000e+00
2677:0.0000000000000000e+00
2678:0.0000000000000000e+00
2679:0.0000000000000000e+00
2680:0.0000000000000000e+00
2681:0.0000000000000000e+00
2682:0.0000000000000000e+00
2683:0.0000000000000000e+00
2684:0.0000000000000000e+00
2685:0.0000000000000000e+00
2686:0.0000000000000000e+00
2687:0.0000000000000000e+00
2688:0.0000000000000000e+00
2689:0.0000000000000000e+00
2690:0.0000000000000000e+00
2691:0.0000000000000000e+00
2692:0.0000000000000000e+00
2693:0.0000000000000000e+00
2694:0.0000000000000000e+00
2695:0.0000000000000000e+00
2696:0.0000000000000000e+00
2697:0.0000000000000000e+00
2698:0.0000000000000000e+00
2699:0.0000000000000000e+00
2700:0.0000000000000000e+00
2701:0.0000000000000000e+00
2702:0.0000000000000000e+00
2703:0.0000000000000000e+00
2704:0.0000000000000000e+00
2705:0.0000000000000000e+00
2706:0.0000000000000000e+00
2707:0.0000000000000000e+00
2708:0.0000000000000000e+00
2709:0.0000000000000000e+00
2710:0.0000000000000000e+00
2711:0.0000000000000000e+00
2712:0.0000000000000000e+00
2713:0.0000000000000000e+00
2714:0.0000000000000000e+00
2715:0.0000000000000000e+00
2716:0.0000000000000000e+00
2717:0.0000000000000000e+00
2718:0.0000000000000000e+00
2719:0.0000000000000000e+00
2720:0.0000000000000000e+00
2721:0.0000000000000000e+00
2722:0.0000000000000000e+00
2723:0.0000000000000000e+00
2724:0.0000000000000000e+00
2725:0.0000000000000000e+00
2726:0.0000000000000000e+00
2727:0.0000000000000000e+00
2728:0.0000000000000000e+00
2729:0.0000000000000000e+00
2730:0.0000000000000000e+00
2731:0.0000000000000000e+00
2732:0.0000000000000000e+00
2733:0.0000000000000000e+00
2734:0.0000000000000000e+00
2735:0.0000000000000000e+00
2736:0.0000000000000000e+00
2737:0.0000000000000000e+00
2738:0.0000000000000000e+00
2739:0.0000000000000000e+00
2740:0.0000000000000000e+00
2741:0.0000000000000000e+00
2742:0.0000000000000000e+00
2743:0.0000000000000000e+00
2744:0.0000000000000000e+00
2745:0.0000000000000000e+00
2746:0.0000000000000000e+00
2747:0.0000000000000000e+00
2748:0.0000000000000000e+00
2749:0.0000000000000000e+00
2750:0.0000000000000000e+00
2751:0.0000000000000000e+00
2752:0.0000000000000000e+00
2753:0.0000000000000000e+00
2754:0.0000000000000000e+00
2755:0.0000000000000000e+00
2756:0.0000000000000000e+00
2757:0.0000000000000000e+00
2758:0.0000000000000000e+00
2759:0.0000000000000000e+00
2760:0.0000000000000000e+00
2761:0.0000000000000000e+00
2762:0.0000000000000000e+00
2763:0.0000000000000000e+00
2764:0.0000000000000000e+00
2765:0.0000000000000000e+00
2766:0.0000000000000000e+00
2767:0.0000000000000000e+00
2768:0.0000000000000000e+00
2769:0.0000000000000000e+00
2770:0.0000000000000000e+00
2771:0.0000000000000000e+00
2772:0.0000000000000000e+00
2773:0.0000000000000000e+00
2774:0.0000000000000000e+00
2775:0.0000000000000000e+00
2776:0.0000000000000000e+00
2777:0.0000000000000000e+00
2778:0.0000000000000000e+00
2779:0.0000000000000000e+00
2780:0.0000000000000000e+00
2781:0.0000000000000000e+00
2782:0.0000000000000000e+00
2783:0.0000000000000000e+00
2784:0.0000000000000000e+00
2785:0.0000000000000000e+00
2786:0.0000000000000000e+00
2787:0.0000000000000000e+00
2788:0.0000000000000000e+00
2789:0.0000000000000000e+00
2790:0.0000000000000000e+00
2791:0.0000000000000000e+00
2792:0.0000000000000000e+00
2793:0.0000000000000000e+00
2794:0.0000000000000000e+00
2795:0.0000000000000000e+00
2796:0.0000000000000000e+00
2797:0.0000000000000000e+00
2798:0.0000000000000000e+00
2799:0.0000000000000000e+00
2800:0.0000000000000000e+00
2801:0.0000000000000000e+00
2802:0.0000000000000000e+00
2803:0.0000000000000000e+00
2804:0.0000000000000000e+00
2805:0.0000000000000000e+00
2806:0.0000000000000000e+00
2807:0.0000000000000000e+00
2808:0.0000000000000000e+00
2809:0.0000000000000000e+00
2810:0.0000000000000000e+00
2811:0.0000000000000000e+00
2812:0.0000000000000000e+00
2813:0.0000000000000000e+00
2814:0.0000000000000000e+00
2815:0.0000000000000000e+00
2816:0.0000000000000000e+00
2817:0.0000000000000000e+00
2818:0.0000000000000000e+00
2819:0.0000000000000000e+00
2820:0.0000000000000000e+00
2821:0.0000000000000000e+00
2822:0.0000000000000000e+00
2823:0.0000000000000000e+00
2824:0.0000000000000000e+00
2825:0.0000000000000000e+00
2826:0.0000000000000000e+00
2827:0.0000000000000000e+00
2828:0.0000000000000000e+00
2829:0.0000000000000000e+00
2830:0.0000000000000000e+00
2831:0.0000000000000000e+00
2832:0.0000000000000000e+00
2833:0.0000000000000000e+00
2834:0.0000000000000000e+00
2835:0.0000000000000000e+00
2836:0.0000000000000000e+00
2837:0.0000000000000000e+00
2838:0.0000000000000000e+00
2839:0.0000000000000000e+00
2840:0.0000000000000000e+00
2841:0.0000000000000000e+00
2842:0.0000000000000000e+00
2843:0.0000000000000000e+00
2844:0.0000000000000000e+00
2845:0.0000000000000000e+00
2846:0.0000000000000000e+00
2847:0.0000000000000000e+00
2848:0.0000000000000000e+00
2849:0.0000000000000000e+00
2850:0.0000000000000000e+00
2851:0.0000000000000000e+00
2852:0.0000000000000000e+00
2853:0.0000000000000000e+00
2854:0.0000000000000000e+00
2855:0.0000000000000000e+00
2856:0.0000000000000000e+00
2857:0.0000000000000000e+00
2858:0.0000000000000000e+00
2859:0.0000000000000000e+00
2860:0.0000000000000000e+00
2861:0.0000000000000000e+00
2862:0.0000000000000000e+00
2863:0.0000000000000000e+00
2864:0.0000000000000000e+00
2865:0.0000000000000000e+00
2866:0.0000000000000000e+00
2867:0.0000000000000000e+00
2868:0.0000000000000000e+00
2869:0.0000000000000000e+00
2870:0.0000000000000000e+00
2871:0.0000000000000000e+00
2872:0.0000000000000000e+00
2873:0.0000000000000000e+00
2874:0.0000000000000000e+00
2875:0.0000000000000000e+00
2876:0.0000000000000000e+00
2877:0.0000000000000000e+00
2878:0.0000000000000000e+00
2879:0.0000000000000000e+00
2880:0.0000000000000000e+00
2881:0.0000000000000000e+00
2882:0.0000000000000000e+00
2883:0.0000000000000000e+00
2884:0.0000000000000000e+00
2885:0.0000000000000000e+00
2886:0.0000000000000000e+00
2887:0.0000000000000000e+00
2888:0.0000000000000000e+00
2889:0.0000000000000000e+00
2890:0.0000000000000000e+00
2891:0.0000000000000000e+00
2892:0.0000000000000000e+00
2893:0.0000000000000000e+00
2894:0.0000000000000000e+00
2895:0.0000000000000000e+00
2896:0.0000000000000000e+00
2897:0.0000000000000000e+00
2898:0.0000000000000000e+00
2899:0.0000000000000000e+00
2900:0.0000000000000000e+00
2901:0.0000000000000000e+00
2902:0.0000000000000000e+00
2903:0.0000000000000000e+00
2904:0.0000000000000000e+00
2905:0.0000000000000000e+00
2906:0.0000000000000000e+00
2907:0.0000000000000000e+00
2908:0.0000000000000000e+00
2909:0.0000000000000000e+00
2910:0.0000000000000000e+00
2911:0.0000000000000000e+00
2912:0.0000000000000000e+00
2913:0.0000000000000000e+00
2914:0.0000000000000000e+00
2915:0.0000000000000000e+00
2916:0.0000000000000000e+00
2917:0.0000000000000000e+00
2918:0.0000000000000000e+00
2919:0.0000000000000000e+00
2920:0.0000000000000000e+00
2921:0.0000000000000000e+00
2922:0.0000000000000000e+00
2923:0.0000000000000000e+00
2924:0.0000000000000000e+00
2925:0.0000000000000000e+00
2926:0.0000000000000000e+00
2927:0.0000000000000000e+00
2928:0.0000000000000000e+00
2929:0.0000000000000000e+00
2930:0.0000000000000000e+00
2931:0.0000000000000000e+00
2932:0.0000000000000000e+00
2933:0.0000000000000000e+00
2934:0.0000000000000000e+00
2935:0.0000000000000000e+00
2936:0.0000000000000000e+00
2937:0.0000000000000000e+00
2938:0.0000000000000000e+00
2939:0.0000000000000000e+00
2940:0.0000000000000000e+00
2941:0.0000000000000000e+00
2942:0.0000000000000000e+00
2943:0.0000000000000000e+00
2944:0.0000000000000000e+00
2945:0.0000000000000000e+00
2946:0.0000000000000000e+00
2947:0.0000000000000000e+00
2948:0.0000000000000000e+00
2949:0.0000000000000000e+00
2950:0.0000000000000000e+00
2951:0.0000000000000000e+00
2952:0.0000000000000000e+00
2953:0.0000000000000000e+00
2954:0.0000000000000000e+00
2955:0.0000000000000000e+00
2956:0.0000000000000000e+00
2957:0.0000000000000000e+00
2958:0.0000000000000000e+00
2959:0.0000000000000000e+00
2960:0.0000000000000000e+00
2961:0.0000000000000000e+00
2962:0.0000000000000000e+00
2963:0.0000000000000000e+00
2964:0.0000000000000000e+00
2965:0.0000000000000000e+00
2966:0.0000000000000000e+00
2967:0.0000000000000000e+00
2968:0.0000000000000000e+00
2969:0.0000000000000000e+00
2970:0.0000000000000000e+00
2971:0.0000000000000000e+00
2972:0.0000000000000000e+00
2973:0.0000000000000000e+00
2974:0.0000000000000000e+00
2975:0.0000000000000000e+00
2976:0.0000000000000000e+00
2977:0.0000000000000000e+00
2978:0.0000000000000000e+00
2979:0.0000000000000000e+00
2980:0.0000000000000000e+00
2981:0.0000000000000000e+00
2982:0.0000000000000000e+00
2983:0.0000000000000000e+00
2984:0.0000000000000000e+00
2985:0.0000000000000000e+00
2986:0.0000000000000000e+00
2987:0.0000000000000000e+00
2988:0.0000000000000000e+00
2989:0.0000000000000000e+00
2990:0.0000000000000000e+00
2991:0.0000000000000000e+00
2992:0.0000000000000000e+00
2993:0.0000000000000000e+00
2994:0.0000000000000000e+00
2995:0.0000000000000000e+00
2996:0.0000000000000000e+00
2997:0.0000000000000000e+00
2998:0.0000000000000000e+00
2999:0.0000000000000000e+00
3000:0.0000000000000000e+00
3001:0.0000000000000000e+00
3002:0.0000000000000000e+00
3003:0.0000000000000000e+00
3004:0.0000000000000000e+00
3005:0.0000000000000000e+00
3006:0.0000000000000000e+00
3007:0.0000000000000000e+00
3008:0.0000000000000000e+00
3009:0.0000000000000000e+00
3010:0.0000000000000000e+00
3011:0.0000000000000000e+00
3012:0.0000000000000000e+00
3013:0.0000000000000000e+00
3014:0.0000000000000000e+00
3015:0.0000000000000000e+00
3016:0.0000000000000000e+00
3017:0.0000000000000000e+00
3018:0.0000000000000000e+00
3019:0.0000000000000000e+00
3020:0.0000000000000000e+00
3021:0.0000000000000000e+00
3022:0.0000000000000000e+00
3023:0.0000000000000000e+00
3024:0.0000000000000000e+00
3025:0.0000000000000000e+00
3026:0.0000000000000000e+00
3027:0.0000000000000000e+00
3028:0.0000000000000000e+00
3029:0.0000000000000000e+00
3030:0.0000000000000000e+00
3031:0.0000000000000000e+00
3032:0.0000000000000000e+00
3033:0.0000000000000000e+00
3034:0.0000000000000000e+00
3035:0.0000000000000000e+00
3036:0.0000000000000000e+00
3037:0.0000000000000000e+00
3038:0.0000000000000000e+00
3039:0.0000000000000000e+00
3040:0.0000000000000000e+00
3041:0.0000000000000000e+00
3042:0.0000000000000000e+00
3043:0.0000000000000000e+00
3044:0.0000000000000000e+00
3045:0.0000000000000000e+00
3046:0.0000000000000000e+00
3047:0.0000000000000000e+00
3048:0.0000000000000000e+00
3049:0.0000000000000000e+00
3050:0.0000000000000000e+00
3051:0.0000000000000000e+00
3052:0.0000000000000000e+00
3053:0.0000000000000000e+00
3054:0.0000000000000000e+00
3055:0.0000000000000000e+00
3056:0.0000000000000000e+00
3057:0.0000000000000000e+00
3058:0.0000000000000000e+00
3059:0.0000000000000000e+00
3060:0.0000000000000000e+00
3061:0.0000000000000000e+00
3062:0.0000000000000000e+00
3063:0.0000000000000000e+00
3064:0.0000000000000000e+00
3065:0.0000000000000000e+00
3066:0.0000000000000000e+00
3067:0.0000000000000000e+00
3068:0.0000000000000000e+00
3069:0.0000000000000000e+00
3070:0.0000000000000000e+00
3071:0.0000000000000000e+00
3072:0.0000000000000000e+00
3073:0.0000000000000000e+00
3074:0.0000000000000000e+00
3075:0.0000000000000000e+00
3076:0.0000000000000000e+00
3077:0.0000000000000000e+00
3078:0.0000000000000000e+00
3079:0.0000000000000000e+00
3080:0.0000000000000000e+00
3081:0.0000000000000000e+00
3082:0.0000000000000000e+00
3083:0.0000000000000000e+00
3084:0.0000000000000000e+00
3085:0.0000000000000000e+00
3086:0.0000000000000000e+00
3087:0.0000000000000000e+00
3088:0.0000000000000000e+00
3089:0.0000000000000000e+00
3090:0.0000000000000000e+00
3091:0.0000000000000000e+00
3092:0.0000000000000000e+00
3093:0.0000000000000000e+00
3094:0.0000000000000000e+00
3095:0.0000000000000000e+00
3096:0.0000000000000000e+00
3097:0.0000000000000000e+00
3098:0.0000000000000000e+00
3099:0.0000000000000000e+00
3100:0.0000000000000000e+00
3101:0.0000000000000000e+00
3102:0.0000000000000000e+00
3103:0.0000000000000000e+00
3104:0.0000000000000000e+00
3105:0.0000000000000000e+00
3106:0.0000000000000000e+00
3107:0.0000000000000000e+00
3108:0.0000000000000000e+00
3109:0.0000000000000000e+00
3110:0.0000000000000000e+00
3111:0.0000000000000000e+00
3112:0.0000000000000000e+00
3113:0.0000000000000000e+00
3114:0.0000000000000000e+00
3115:0.0000000000000000e+00
3116:0.0000000000000000e+00
3117:0.0000000000000000e+00
3118:0.0000000000000000e+00
3119:0.0000000000000000e+00
3120:0.0000000000000000e+00
3121:0.0000000000000000e+00
3122:0.0000000000000000e+00
3123:0.0000000000000000e+00
3124:0.0000000000000000e+00
3125:0.0000000000000000e+00
3126:0.0000000000000000e+00
3127:0.0000000000000000e+00
3128:0.0000000000000000e+00
3129:0.0000000000000000e+00
3130:0.0000000000000000e+00
3131:0.0000000000000000e+00
3132:0.0000000000000000e+00
3133:0.0000000000000000e+00
3134:0.0000000000000000e+00
3135:0.0000000000000000e+00
3136:0.0000000000000000e+00
3137:0.0000000000000000e+00
3138:0.0000000000000000e+00
3139:0.0000000000000000e+00
3140:0.0000000000000000e+00
3141:0.0000000000000000e+00
3142:0.0000000000000000e+00
3143:0.0000000000000000e+00
3144:0.0000000000000000e+00
3145:0.0000000000000000e+00
3146:0.0000000000000000e+00
3147:0.0000000000000000e+00
3148:0.0000000000000000e+00
3149:0.0000000000000000e+00
3150:0.0000000000000000e+00
3151:0.0000000000000000e+00
3152:0.0000000000000000e+00
3153:0.0000000000000000e+00
3154:0.0000000000000000e+00
3155:0.0000000000000000e+00
3156:0.0000000000000000e+00
3157:0.0000000000000000e+00
3158:0.0000000000000000e+00
3159:0.0000000000000000e+00
3160:0.0000000000000000e+00
3161:0.0000000000000000e+00
3162:0.0000000000000000e+00
3163:0.0000000000000000e+00
3164:0.0000000000000000e+00
3165:0.0000000000000000e+00
3166:0.0000000000000000e+00
3167:0.0000000000000000e+00
3168:0.0000000000000000e+00
3169:0.0000000000000000e+00
3170:0.0000000000000000e+00
3171:0.0000000000000000e+00
3172:0.0000000000000000e+00
3173:0.0000000000000000e+00
3174:0.0000000000000000e+00
3175:0.0000000000000000e+00
3176:0.0000000000000000e+00
3177:0.0000000000000000e+00
3178:0.0000000000000000e+00
3179:0.0000000000000000e+00
3180:0.0000000000000000e+00
3181:0.0000000000000000e+00
3182:0.0000000000000000e+00
3183:0.0000000000000000e+00
3184:0.0000000000000000e+00
3185:0.0000000000000000e+00
3186:0.0000000000000000e+00
3187:0.0000000000000000e+00
3188:0.0000000000000000e+00
3189:0.0000000000000000e+00
3190:0.0000000000000000e+00
3191:0.0000000000000000e+00
3192:0.0000000000000000e+00
3193:0.0000000000000000e+00
3194:0.0000000000000000e+00
3195:0.0000000000000000e+00
3196:0.0000000000000000e+00
3197:0.0000000000000000e+00
3198:0.0000000000000000e+00
3199:0.0000000000000000e+00
3200:0.0000000000000000e+00
3201:0.0000000000000000e+00
3202:0.0000000000000000e+00
3203:0.0000000000000000e+00
3204:0.0000000000000000e+00
3205:0.0000000000000000e+00
3206:0.0000000000000000e+00
3207:0.0000000000000000e+00
3208:0.0000000000000000e+00
3209:0.0000000000000000e+00
3210:0.0000000000000000e+00
3211:0.0000000000000000e+00
3212:0.0000000000000000e+00
3213:0.0000000000000000e+00
3214:0.0000000000000000e+00
3215:0.0000000000000000e+00
3216:0.0000000000000000e+00
3217:0.0000000000000000e+00
3218:0.0000000000000000e+00
3219:0.0000000000000000e+00
3220:0.0000000000000000e+00
3221:0.0000000000000000e+00
3222:0.0000000000000000e+00
3223:0.0000000000000000e+00
3224:0.0000000000000000e+00
3225:0.0000000000000000e+00
3226:0.0000000000000000e+00
3227:0.0000000000000000e+00
3228:0.0000000000000000e+00
3229:0.0000000000000000e+00
3230:0.0000000000000000e+00
3231:0.0000000000000000e+00
3232:0.0000000000000000e+00
3233:0.0000000000000000e+00
3234:0.0000000000000000e+00
3235:0.0000000000000000e+00
3236:0.0000000000000000e+00
3237:0.0000000000000000e+00
3238:0.0000000000000000e+00
3239:0.0000000000000000e+00
3240:0.0000000000000000e+00
3241:0.0000000000000000e+00
3242:0.0000000000000000e+00
3243:0.0000000000000000e+00
3244:0.0000000000000000e+00
3245:0.0000000000000000e+00
3246:0.0000000000000000e+00
3247:0.0000000000000000e+00
3248:0.0000000000000000e+00
3249:0.0000000000000000e+00
3250:0.0000000000000000e+00
3251:0.0000000000000000e+00
3252:0.0000000000000000e+00
3253:0.0000000000000000e+00
3254:0.0000000000000000e+00
3255:0.0000000000000000e+00
3256:0.0000000000000000e+00
3257:0.0000000000000000e+00
3258:0.0000000000000000e+00
3259:0.0000000000000000e+00
3260:0.0000000000000000e+00
3261:0.0000000000000000e+00
3262:0.0000000000000000e+00
3263:0.0000000000000000e+00
3264:0.0000000000000000e+00
3265:0.0000000000000000e+00
3266:0.0000000000000000e+00
3267:0.0000000000000000e+00
3268:0.0000000000000000e+00
3269:0.0000000000000000e+00
3270:0.0000000000000000e+00
3271:0.0000000000000000e+00
3272:0.0000000000000000e+00
3273:0.0000000000000000e+00
3274:0.0000000000000000e+00
3275:0.0000000000000000e+00
3276:0.0000000000000000e+00
3277:0.0000000000000000e+00
3278:0.0000000000000000e+00
3279:0.0000000000000000e+00
3280:0.0000000000000000e+00
3281:0.0000000000000000e+00
3282:0.0000000000000000e+00
3283:0.0000000000000000e+00
3284:0.0000000000000000e+00
3285:0.0000000000000000e+00
3286:0.0000000000000000e+00
3287:0.0000000000000000e+00
3288:0.0000000000000000e+00
3289:0.0000000000000000e+00
3290:0.0000000000000000e+00
3291:0.0000000000000000e+00
3292:0.0000000000000000e+00
3293:0.0000000000000000e+00
3294:0.0000000000000000e+00
3295:0.0000000000000000e+00
3296:0.0000000000000000e+00
3297:0.0000000000000000e+00
3298:0.0000000000000000e+00
3299:0.0000000000000000e+00
3300:0.0000000000000000e+00
3301:0.0000000000000000e+00
3302:0.0000000000000000e+00
3303:0.0000000000000000e+00
3304:0.0000000000000000e+00
3305:0.0000000000000000e+00
3306:0.0000000000000000e+00
3307:0.0000000000000000e+00
3308:0.0000000000000000e+00
3309:0.0000000000000000e+00
3310:0.0000000000000000e+00
3311:0.0000000000000000e+00
3312:0.0000000000000000e+00
3313:0.0000000000000000e+00
3314:0.0000000000000000e+00
3315:0.0000000000000000e+00
3316:0.0000000000000000e+00
3317:0.0000000000000000e+00
3318:0.0000000000000000e+00
3319:0.0000000000000000e+00
3320:0.0000000000000000e+00
3321:0.0000000000000000e+00
3322:0.0000000000000000e+00
3323:0.0000000000000000e+00
3324:0.0000000000000000e+00
3325:0.0000000000000000e+00
3326:0.0000000000000000e+00
3327:0.0000000000000000e+00
3328:0.0000000000000000e+00
3329:0.0000000000000000e+00
3330:0.0000000000000000e+00
3331:0.0000000000000000e+00
3332:0.0000000000000000e+00
3333:0.0000000000000000e+00
3334:0.0000000000000000e+00
3335:0.0000000000000000e+00
3336:0.0000000000000000e+00
3337:0.0000000000000000e+00
3338:0.0000000000000000e+00
3339:0.0000000000000000e+00
3340:0.0000000000000000e+00
3341:0.0000000000000000e+00
3342:0.0000000000000000e+00
3343:0.0000000000000000e+00
3344:0.0000000000000000e+00
3345:0.0000000000000000e+00
3346:0.0000000000000000e+00
3347:0.0000000000000000e+00
3348:0.0000000000000000e+00
3349:0.0000000000000000e+00
3350:0.0000000000000000e+00
3351:0.0000000000000000e+00
3352:0.0000000000000000e+00
3353:0.0000000000000000e+00
3354:0.0000000000000000e+00
3355:0.0000000000000000e+00
3356:0.0000000000000000e+00
3357:0.0000000000000000e+00
3358:0.0000000000000000e+00
3359:0.0000000000000000e+00
3360:0.0000000000000000e+00
3361:0.0000000000000000e+00
3362:0.0000000000000000e+00
3363:0.0000000000000000e+00
3364:0.0000000000000000e+00
3365:0.0000000000000000e+00
3366:0.0000000000000000e+00
3367:0.0000000000000000e+00
3368:0.0000000000000000e+00
3369:0.0000000000000000e+00
3370:0.0000000000000000e+00
3371:0.0000000000000000e+00
3372:0.0000000000000000e+00
3373:0.0000000000000000e+00
3374:0.0000000000000000e+00
3375:0.0000000000000000e+00
3376:0.0000000000000000e+00
3377:0.0000000000000000e+00
3378:0.0000000000000000e+00
3379:0.0000000000000000e+00
3380:0.0000000000000000e+00
3381:0.0000000000000000e+00
3382:0.0000000000000000e+00
3383:0.0000000000000000e+00
3384:0.0000000000000000e+00
3385:0.0000000000000000e+00
3386:0.0000000000000000e+00
3387:0.0000000000000000e+00
3388:0.0000000000000000e+00
3389:0.0000000000000000e+00
3390:0.0000000000000000e+00
3391:0.0000000000000000e+00
3392:0.0000000000000000e+00
3393:0.0000000000000000e+00
3394:0.0000000000000000e+00
3395:0.0000000000000000e+00
3396:0.0000000000000000e+00
3397:0.0000000000000000e+00
3398:0.0000000000000000e+00
3399:0.0000000000000000e+00
3400:0.0000000000000000e+00
3401:0.0000000000000000e+00
3402:0.0000000000000000e+00
3403:0.0000000000000000e+00
3404:0.0000000000000000e+00
3405:0.0000000000000000e+00
3406:0.0000000000000000e+00
3407:0.0000000000000000e+00
3408:0.0000000000000000e+00
3409:0.0000000000000000e+00
3410:0.0000000000000000e+00
3411:0.0000000000000000e+00
3412:0.0000000000000000e+00
3413:0.0000000000000000e+00
3414:0.0000000000000000e+00
3415:0.0000000000000000e+00
3416:0.0000000000000000e+00
3417:0.0000000000000000e+00
3418:0.0000000000000000e+00
3419:0.0000000000000000e+00
3420:0.0000000000000000e+00
3421:0.0000000000000000e+00
3422:0.0000000000000000e+00
3423:0.0000000000000000e+00
3424:0.0000000000000000e+00
3425:0.0000000000000000e+00
3426:0.0000000000000000e+00
3427:0.0000000000000000e+00
3428:0.0000000000000000e+00
3429:0.0000000000000000e+00
3430:0.0000000000000000e+00
3431:0.0000000000000000e+00
3432:0.0000000000000000e+00
3433:0.0000000000000000e+00
3434:0.0000000000000000e+00
3435:0.0000000000000000e+00
3436:0.0000000000000000e+00
3437:0.0000000000000000e+00
3438:0.0000000000000000e+00
3439:0.0000000000000000e+00
3440:0.0000000000000000e+00
3441:0.0000000000000000e+00
3442:0.0000000000000000e+00
3443:0.0000000000000000e+00
3444:0.0000000000000000e+00
3445:0.0000000000000000e+00
3446:0.0000000000000000e+00
3447:0.0000000000000000e+00
3448:0.0000000000000000e+00
3449:0.0000000000000000e+00
3450:0.0000000000000000e+00
3451:0.0000000000000000e+00
3452:0.0000000000000000e+00
3453:0.0000000000000000e+00
3454:0.0000000000000000e+00
3455:0.0000000000000000e+00
