x	y	stress_xx
 0.0000000000e+00	 2.0000000000e+00	-1.8675087471e+00
 3.5482463975e-02	 1.9996852239e+00	-1.7617824586e+00
 7.1209681781e-02	 1.9987318933e+00	-1.6639620565e+00
 1.0716689579e-01	 1.9971267502e+00	-1.5728037118e+00
 1.4333866616e-01	 1.9948568938e+00	-1.4867915843e+00
 1.7970887582e-01	 1.9919098172e+00	-1.4041296731e+00
 2.1626073768e-01	 1.9882734453e+00	-1.3227352151e+00
 2.5297680400e-01	 1.9839361725e+00	-1.2402337969e+00
 2.8983897809e-01	 1.9788869010e+00	-1.1539563399e+00
 3.2682852838e-01	 1.9731150785e+00	-1.0609381096e+00
 3.6392610487e-01	 1.9666107368e+00	-9.5791989191e-01
 0.0000000000e+00	 1.9937500000e+00	-1.7823596916e+00
 3.5371581273e-02	 1.9934362076e+00	-1.6821038681e+00
 7.0987151521e-02	 1.9924858561e+00	-1.5898055869e+00
 1.0683199924e-01	 1.9908857291e+00	-1.5045169005e+00
 1.4289073282e-01	 1.9886229660e+00	-1.4250301607e+00
 1.7914728558e-01	 1.9856850990e+00	-1.3498692596e+00
 2.1558492287e-01	 1.9820600908e+00	-1.2772823249e+00
 2.5218625147e-01	 1.9777363720e+00	-1.2052360326e+00
 2.8893323127e-01	 1.9727028794e+00	-1.1314116952e+00
 3.2580718922e-01	 1.9669490939e+00	-1.0532032777e+00
 3.6278883578e-01	 1.9604650783e+00	-9.6771748369e-01
 0.0000000000e+00	 1.9875000000e+00	-1.7029649166e+00
 3.5260698571e-02	 1.9871871913e+00	-1.6072054566e+00
 7.0764621262e-02	 1.9862398189e+00	-1.5194560957e+00
 1.0649710268e-01	 1.9846447080e+00	-1.4390662175e+00
 1.4244279949e-01	 1.9823890382e+00	-1.3651378477e+00
 1.7858569533e-01	 1.9794603809e+00	-1.2965162835e+00
 2.1490910805e-01	 1.9758467363e+00	-1.2317820816e+00
 2.5139569895e-01	 1.9715365715e+00	-1.1692445673e+00
 2.8802748446e-01	 1.9665188578e+00	-1.1069370227e+00
 3.2478585006e-01	 1.9607831093e+00	-1.0426137047e+00
 3.6165156670e-01	 1.9543194197e+00	-9.7374883680e-01
 0.0000000000e+00	 1.9812500000e+00	-1.6293819113e+00
 3.5149815869e-02	 1.9809381749e+00	-1.5371355643e+00
 7.0542091003e-02	 1.9799937818e+00	-1.4529527391e+00
 1.0616220613e-01	 1.9784036869e+00	-1.3764816128e+00
 1.4199486615e-01	 1.9761551104e+00	-1.3071353817e+00
 1.7802410509e-01	 1.9732356627e+00	-1.2440822744e+00
 2.1423329324e-01	 1.9696333818e+00	-1.1862368292e+00
 2.5060514643e-01	 1.9653367709e+00	-1.1322525968e+00
 2.8712173764e-01	 1.9603348363e+00	-1.0805164231e+00
 3.2376451091e-01	 1.9546171247e+00	-1.0291444656e+00
 3.6051429762e-01	 1.9481737612e+00	-9.7598008583e-01
 0.0000000000e+00	 1.9750000000e+00	-1.5616688929e+00
 3.5038933168e-02	 1.9746891586e+00	-1.4719431455e+00
 7.0319560745e-02	 1.9737477446e+00	-1.3903351728e+00
 1.0582730958e-01	 1.9721626658e+00	-1.3167934220e+00
 1.4154693281e-01	 1.9699211826e+00	-1.2510437703e+00
 1.7746251485e-01	 1.9670109445e+00	-1.1925789187e+00
 2.1355747843e-01	 1.9634200273e+00	-1.1406489557e+00
 2.4981459392e-01	 1.9591369704e+00	-1.0942532483e+00
 2.8621599083e-01	 1.9541508147e+00	-1.0521338165e+00
 3.2274317175e-01	 1.9484511400e+00	-1.0127703435e+00
 3.5937702854e-01	 1.9420281026e+00	-9.7437696449e-01
 0.0000000000e+00	 1.9687500000e+00	-1.4998848178e+00
 3.4928050467e-02	 1.9684401423e+00	-1.4116777777e+00
 7.0097030488e-02	 1.9675017074e+00	-1.3316435599e+00
 1.0549241303e-01	 1.9659216447e+00	-1.2600323720e+00
 1.4109899948e-01	 1.9636872548e+00	-1.1968842966e+00
 1.7690092461e-01	 1.9607862263e+00	-1.1420180633e+00
 2.1288166362e-01	 1.9572066727e+00	-1.0950208940e+00
 2.4902404140e-01	 1.9529371698e+00	-1.0552395791e+00
 2.8531024402e-01	 1.9479667931e+00	-1.0217729397e+00
 3.2172183260e-01	 1.9422851554e+00	-9.9346582617e-01
 3.5823975945e-01	 1.9358824441e+00	-9.6890479929e-01
 0.0000000000e+00	 1.9625000000e+00	-1.4440893934e+00
 3.4817167766e-02	 1.9621911260e+00	-1.3563896722e+00
 6.9874500231e-02	 1.9612556703e+00	-1.2769185796e+00
 1.0515751648e-01	 1.9596806237e+00	-1.2062295876e+00
 1.4065106614e-01	 1.9574533271e+00	-1.1446785238e+00
 1.7633933437e-01	 1.9545615082e+00	-1.0924117172e+00
 2.1220584882e-01	 1.9509933182e+00	-1.0493551222e+00
 2.4823348889e-01	 1.9467373693e+00	-1.0152045759e+00
 2.8440449721e-01	 1.9417827716e+00	-9.8941734315e-01
 3.2070049344e-01	 1.9361191708e+00	-9.7120510024e-01
 3.5710249037e-01	 1.9297367855e+00	-9.5952850301e-01
 0.0000000000e+00	 1.9562500000e+00	-1.3943430901e+00
 3.4706285066e-02	 1.9559421096e+00	-1.3061296837e+00
 6.9651969975e-02	 1.9550096331e+00	-1.2262014345e+00
 1.0482261993e-01	 1.9534396026e+00	-1.1554165976e+00
 1.4020313281e-01	 1.9512193993e+00	-1.0944482994e+00
 1.7577774413e-01	 1.9483367900e+00	-1.0437720546e+00
 2.1153003401e-01	 1.9447799637e+00	-1.0036541649e+00
 2.4744293637e-01	 1.9405375688e+00	-9.7414115328e-01
 2.8349875041e-01	 1.9355987500e+00	-9.5505038810e-01
 3.1967915429e-01	 1.9299531862e+00	-9.4596204712e-01
 3.5596522130e-01	 1.9235911270e+00	-9.4621256810e-01
 0.0000000000e+00	 1.9500000000e+00	-1.3507071535e+00
 3.4595402366e-02	 1.9496930933e+00	-1.2609493207e+00
 6.9429439720e-02	 1.9487635959e+00	-1.1795338599e+00
 1.0448772338e-01	 1.9471985815e+00	-1.1076253415e+00
 1.3975519948e-01	 1.9449854715e+00	-1.0462157600e+00
 1.7521615390e-01	 1.9421120718e+00	-9.9611141746e-01
 2.1085421920e-01	 1.9385666092e+00	-9.5792059345e-01
 2.4665238386e-01	 1.9343377682e+00	-9.3204215265e-01
 2.8259300360e-01	 1.9294147284e+00	-9.1865524343e-01
 3.1865781514e-01	 1.9237872016e+00	-9.1771023782e-01
 3.5482795222e-01	 1.9174454684e+00	-9.2892105996e-01
 0.0000000000e+00	 1.9437500000e+00	-1.3132436172e+00
 3.4484519667e-02	 1.9434440770e+00	-1.2209007564e+00
 6.9206909465e-02	 1.9425175588e+00	-1.1369581315e+00
 1.0415282683e-01	 1.9409575604e+00	-1.0628881759e+00
 1.3930726615e-01	 1.9387515437e+00	-1.0000033358e+00
 1.7465456366e-01	 1.9358873536e+00	-9.4944231810e-01
 2.1017840440e-01	 1.9323532547e+00	-9.1215702697e-01
 2.4586183135e-01	 1.9281379677e+00	-8.8890034117e-01
 2.8168725680e-01	 1.9232307069e+00	-8.8021488265e-01
 3.1763647599e-01	 1.9176212169e+00	-8.8642292801e-01
 3.5369068314e-01	 1.9112998099e+00	-9.0761761009e-01
 0.0000000000e+00	 1.9375000000e+00	-1.2820153150e+00
 3.4373636968e-02	 1.9371950607e+00	-1.1860368388e+00
 6.8984379211e-02	 1.9362715216e+00	-1.0985170750e+00
 1.0381793028e-01	 1.9347165393e+00	-1.0212378814e+00
 1.3885933282e-01	 1.9325176159e+00	-9.5583375557e-01
 1.7409297343e-01	 1.9296626354e+00	-9.0377744204e-01
 2.0950258960e-01	 1.9261399002e+00	-8.6636613303e-01
 2.4507127884e-01	 1.9219381671e+00	-8.4470841044e-01
 2.8078150999e-01	 1.9170466853e+00	-8.3971208070e-01
 3.1661513684e-01	 1.9114552323e+00	-8.5207305295e-01
 3.5255341407e-01	 1.9051541513e+00	-8.8226540904e-01
 3.6392610487e-01	 1.9666107368e+00	-9.5791989191e-01
 4.0111177966e-01	 1.9593645204e+00	-8.5576166554e-01
 4.3836504758e-01	 1.9513677320e+00	-7.6802528636e-01
 4.7566482793e-01	 1.9426123785e+00	-6.9511170311e-01
 5.1298951209e-01	 1.9330911976e+00	-6.3718422874e-01
 5.5031699230e-01	 1.9227976930e+00	-5.9416492213e-01
 5.8762469302e-01	 1.9117261679e+00	-5.6573286600e-01
 6.2488960461e-01	 1.8998717574e+00	-5.5132442424e-01
 6.6208831940e-01	 1.8872304588e+00	-7.5865334158e-01
 6.9919707006e-01	 1.8737991610e+00	-9.7230238907e-01
 7.3619177013e-01	 1.8595756714e+00	-8.9074463177e-01
 3.6278883578e-01	 1.9604650783e+00	-9.6771748369e-01
 3.9985830534e-01	 1.9532415063e+00	-8.7432114337e-01
 4.3699515680e-01	 1.9452697079e+00	-7.9646305212e-01
 4.7417837534e-01	 1.9365417148e+00	-7.3438973789e-01
 5.1138641986e-01	 1.9270502876e+00	-6.8810359439e-01
 5.4859725169e-01	 1.9167889502e+00	-6.5735961067e-01
 5.8578836585e-01	 1.9057520237e+00	-6.4166403415e-01
 6.2293682460e-01	 1.8939346581e+00	-6.4027504986e-01
 6.6001929341e-01	 1.8813328636e+00	-8.5103324542e-01
 6.9701207922e-01	 1.8679435387e+00	-9.2587632315e-01
 7.3389117086e-01	 1.8537644974e+00	-8.6090436103e-01
 3.6165156670e-01	 1.9543194197e+00	-9.7374883680e-01
 3.9860483103e-01	 1.9471184921e+00	-8.8963017329e-01
 4.3562526602e-01	 1.9391716837e+00	-8.2217735555e-01
 4.7269192275e-01	 1.9304710511e+00	-7.7148161914e-01
 5.0978332763e-01	 1.9210093776e+00	-7.3738351074e-01
 5.4687751109e-01	 1.9107802074e+00	-7.1946996736e-01
 5.8395203869e-01	 1.8997778794e+00	-7.1707336660e-01
 6.2098404458e-01	 1.8879975589e+00	-7.2927263025e-01
 6.5795026741e-01	 1.8754352684e+00	-9.4381010964e-01
 6.9482708838e-01	 1.8620879163e+00	-8.8024229560e-01
 7.3159057158e-01	 1.8479533234e+00	-8.3232966396e-01
 3.6051429762e-01	 1.9481737612e+00	-9.7598008583e-01
 3.9735135671e-01	 1.9409954780e+00	-9.0165941960e-01
 4.3425537525e-01	 1.9330736596e+00	-8.4514346094e-01
 4.7120547016e-01	 1.9244003875e+00	-8.0636727534e-01
 5.0818023541e-01	 1.9149684676e+00	-7.8500862833e-01
 5.4515777049e-01	 1.9047714646e+00	-7.8048541600e-01
 5.8211571152e-01	 1.8938037351e+00	-7.9195510473e-01
 6.1903126457e-01	 1.8820604597e+00	-8.1831626160e-01
 6.5588124142e-01	 1.8695376732e+00	-8.9272402481e-01
 6.9264209754e-01	 1.8562322939e+00	-8.3542086514e-01
 7.2928997231e-01	 1.8421421495e+00	-8.0504682424e-01
 3.5937702854e-01	 1.9420281026e+00	-9.7437696449e-01
 3.9609788240e-01	 1.9348724639e+00	-9.1037920687e-01
 4.3288548447e-01	 1.9269756354e+00	-8.6533635501e-01
 4.6971901757e-01	 1.9183297238e+00	-8.3902642050e-01
 5.0657714318e-01	 1.9089275576e+00	-8.3096344716e-01
 5.4343802989e-01	 1.8987627218e+00	-8.4039529460e-01
 5.8027938436e-01	 1.8878295908e+00	-8.6630346956e-01
 6.1707848456e-01	 1.8761233604e+00	-9.0740508569e-01
 6.5381221542e-01	 1.8636400781e+00	-8.3049438650e-01
 6.9045710670e-01	 1.8503766715e+00	-7.9143276921e-01
 7.2698937303e-01	 1.8363309755e+00	-7.7908237127e-01
 3.5823975945e-01	 1.9358824441e+00	-9.6890479929e-01
 3.9484440808e-01	 1.9287494498e+00	-9.1575951452e-01
 4.3151559369e-01	 1.9208776112e+00	-8.8273074246e-01
 4.6823256499e-01	 1.9122590601e+00	-8.6943855076e-01
 5.0497405095e-01	 1.9028866476e+00	-8.7523231437e-01
 5.4171828929e-01	 1.8927539790e+00	-8.9918885404e-01
 5.7844305719e-01	 1.8818554466e+00	-9.4011266140e-01
 6.1512570455e-01	 1.8701862612e+00	-8.6816147597e-01
 6.5174318943e-01	 1.8577424829e+00	-7.6862969478e-01
 6.8827211586e-01	 1.8445210491e+00	-7.4829892682e-01
 7.2468877375e-01	 1.8305198015e+00	-7.5446308402e-01
 3.5710249037e-01	 1.9297367855e+00	-9.5952850301e-01
 3.9359093377e-01	 1.9226264356e+00	-9.1776997132e-01
 4.3014570292e-01	 1.9147795871e+00	-8.9730104152e-01
 4.6674611240e-01	 1.9061883964e+00	-8.9758294088e-01
 5.0337095873e-01	 1.8968457376e+00	-9.1779942173e-01
 5.3999854869e-01	 1.8867452363e+00	-9.5685525667e-01
 5.7660673003e-01	 1.8758813023e+00	-1.0133768595e+00
 6.1317292453e-01	 1.8642491619e+00	-7.9907261988e-01
 6.4967416343e-01	 1.8518448877e+00	-7.0714514440e-01
 6.8608712502e-01	 1.8386654268e+00	-7.0604044144e-01
 7.2238817447e-01	 1.8247086275e+00	-7.3121599506e-01
 3.5596522130e-01	 1.9235911270e+00	-9.4621256810e-01
 3.9233745946e-01	 1.9165034215e+00	-9.1637984983e-01
 4.2877581215e-01	 1.9086815629e+00	-9.0902137936e-01
 4.6525965981e-01	 1.9001177327e+00	-9.2343864074e-01
 5.0176786650e-01	 1.8908048276e+00	-9.5864880321e-01
 5.3827880809e-01	 1.8807364935e+00	-1.0133835749e+00
 5.7477040286e-01	 1.8699071580e+00	-9.4990103380e-01
 6.1122014452e-01	 1.8583120627e+00	-7.3011756809e-01
 6.4760513743e-01	 1.8459472925e+00	-6.4605604749e-01
 6.8390213417e-01	 1.8328098044e+00	-6.6467860395e-01
 7.2008757519e-01	 1.8188974536e+00	-7.0936839458e-01
 3.5482795222e-01	 1.9174454684e+00	-9.2892105996e-01
 3.9108398514e-01	 1.9103804074e+00	-9.1155806064e-01
 4.2740592137e-01	 1.9025835387e+00	-9.1786558740e-01
 4.6377320722e-01	 1.8940470690e+00	-9.4698447173e-01
 5.0016477428e-01	 1.8847639177e+00	-9.9776433245e-01
 5.3655906749e-01	 1.8747277507e+00	-1.0615134914e+00
 5.7293407570e-01	 1.8639330137e+00	-8.6252548691e-01
 6.0926736450e-01	 1.8523749634e+00	-6.6131033116e-01
 6.4553611143e-01	 1.8400496973e+00	-5.8537783551e-01
 6.8171714333e-01	 1.8269541820e+00	-6.2423489562e-01
 7.1778697591e-01	 1.8130862796e+00	-6.8894783451e-01
 3.5369068314e-01	 1.9112998099e+00	-9.0761761009e-01
 3.8983051083e-01	 1.9042573932e+00	-9.0327314658e-01
 4.2603603060e-01	 1.8964855146e+00	-9.2380719659e-01
 4.6228675463e-01	 1.8879764054e+00	-9.6819902305e-01
 4.9856168205e-01	 1.8787230077e+00	-1.0351297201e+00
 5.3483932689e-01	 1.8687190079e+00	-9.5593613730e-01
 5.7109774853e-01	 1.8579588695e+00	-7.7484209804e-01
 6.0731458449e-01	 1.8464378642e+00	-5.9266496895e-01
 6.4346708543e-01	 1.8341521021e+00	-5.2512606112e-01
 6.7953215249e-01	 1.8210985596e+00	-5.8473099123e-01
 7.1548637663e-01	 1.8072751056e+00	-6.6998213275e-01
 3.5255341407e-01	 1.9051541513e+00	-8.8226540904e-01
 3.8857703652e-01	 1.8981343791e+00	-8.9149327679e-01
 4.2466613983e-01	 1.8903874904e+00	-9.2681943256e-01
 4.6080030205e-01	 1.8819057417e+00	-9.8706064802e-01
 4.9695858983e-01	 1.8726820977e+00	-1.0098139071e+00
 5.3311958628e-01	 1.8627102651e+00	-8.4958021999e-01
 5.6926142136e-01	 1.8519847252e+00	-6.8685837026e-01
 6.0536180447e-01	 1.8405007650e+00	-5.2419559148e-01
 6.4139805943e-01	 1.8282545070e+00	-4.6531640018e-01
 6.7734716164e-01	 1.8152429372e+00	-5.4618876210e-01
 7.1318577734e-01	 1.8014639316e+00	-6.5249937746e-01
 7.3619177013e-01	 1.8595756714e+00	-8.9074463177e-01
 7.7304708781e-01	 1.8445591295e+00	-8.2612657812e-01
 8.0973934004e-01	 1.8287488968e+00	-7.6710913300e-01
 8.4624374641e-01	 1.8121456766e+00	-7.1637284351e-01
 8.8253538936e-01	 1.7947511758e+00	-6.7661819260e-01
 9.1858926384e-01	 1.7765681200e+00	-6.5053900572e-01
 9.5438032829e-01	 1.7576002651e+00	-6.4079489824e-01
 9.8988355683e-01	 1.7378524064e+00	-6.4998301799e-01
 1.0250739923e+00	 1.7173303844e+00	-6.8060935596e-01
 1.0599268003e+00	 1.6960410872e+00	-7.3505991355e-01
 1.0944173230e+00	 1.6739924501e+00	-8.1557202689e-01
 7.3389117086e-01	 1.8537644974e+00	-8.6090436103e-01
 7.7063131567e-01	 1.8387948822e+00	-8.1313161710e-01
 8.0720890461e-01	 1.8230340565e+00	-7.6909975923e-01
 8.4359923471e-01	 1.8064827213e+00	-7.3157880785e-01
 8.7977746628e-01	 1.7891425784e+00	-7.0336703556e-01
 9.1571867240e-01	 1.7710163446e+00	-6.8726429196e-01
 9.5139788977e-01	 1.7521077642e+00	-6.8604432647e-01
 9.8679017072e-01	 1.7324216176e+00	-7.0242636202e-01
 1.0218706361e+00	 1.7119637269e+00	-7.3904619185e-01
 1.0566145290e+00	 1.6907409588e+00	-7.9842708688e-01
 1.0909972689e+00	 1.6687612237e+00	-8.8295081399e-01
 7.3159057158e-01	 1.8479533234e+00	-8.3232966396e-01
 7.6821554353e-01	 1.8330306349e+00	-8.0089475044e-01
 8.0467846918e-01	 1.8173192162e+00	-7.7132987625e-01
 8.4095472301e-01	 1.8008197661e+00	-7.4649563597e-01
 8.7701954320e-01	 1.7835339810e+00	-7.2928923846e-01
 9.1284808096e-01	 1.7654645692e+00	-7.2261774580e-01
 9.4841545125e-01	 1.7466152634e+00	-7.2937026695e-01
 9.8369678462e-01	 1.7269908288e+00	-7.5238935804e-01
 1.0186672799e+00	 1.7065970695e+00	-7.9444190007e-01
 1.0533022578e+00	 1.6854408304e+00	-8.5818974133e-01
 1.0875772148e+00	 1.6635299973e+00	-9.4616040406e-01
 7.2928997231e-01	 1.8421421495e+00	-8.0504682424e-01
 7.6579977138e-01	 1.8272663877e+00	-7.8943870215e-01
 8.0214803375e-01	 1.8116043759e+00	-7.7381853681e-01
 8.3831021131e-01	 1.7951568109e+00	-7.6113860230e-01
 8.7426162011e-01	 1.7779253835e+00	-7.5439619525e-01
 9.0997748952e-01	 1.7599127939e+00	-7.5660678371e-01
 9.4543301273e-01	 1.7411227626e+00	-7.7077606731e-01
 9.8060339851e-01	 1.7215600401e+00	-7.9987119923e-01
 1.0154639237e+00	 1.7012304120e+00	-8.4679144002e-01
 1.0499899865e+00	 1.6801407020e+00	-9.1433852957e-01
 1.0841571606e+00	 1.6582987709e+00	-1.0051870769e+00
 7.2698937303e-01	 1.8363309755e+00	-7.7908237127e-01
 7.6338399924e-01	 1.8215021404e+00	-7.7878639139e-01
 7.9961759832e-01	 1.8058895356e+00	-7.7658493685e-01
 8.3566569961e-01	 1.7894938556e+00	-7.7552307118e-01
 8.7150369703e-01	 1.7723167861e+00	-7.7869933524e-01
 9.0710689807e-01	 1.7543610185e+00	-7.8923880189e-01
 9.4245057421e-01	 1.7356302618e+00	-8.1026499815e-01
 9.7751001240e-01	 1.7161292513e+00	-8.4487094414e-01
 1.0122605675e+00	 1.6958637546e+00	-8.9608957789e-01
 1.0466777153e+00	 1.6748405736e+00	-9.6686385179e-01
 1.0807371065e+00	 1.6530675445e+00	-1.0600167998e+00
 7.2468877375e-01	 1.8305198015e+00	-7.5446308402e-01
 7.6096822709e-01	 1.8157378931e+00	-7.6896093556e-01
 7.9708716288e-01	 1.8001746953e+00	-7.7964841773e-01
 8.3302118791e-01	 1.7838309004e+00	-7.8966449824e-01
 8.6874577394e-01	 1.7667081887e+00	-8.0221012369e-01
 9.0423630663e-01	 1.7488092431e+00	-8.2052117595e-01
 9.3946813569e-01	 1.7301377609e+00	-8.4784025187e-01
 9.7441662628e-01	 1.7106984625e+00	-8.8738751446e-01
 1.0090572112e+00	 1.6904970971e+00	-9.4233088361e-01
 1.0433654440e+00	 1.6695404452e+00	-1.0157558517e+00
 1.0773170524e+00	 1.6478363181e+00	-1.1106352227e+00
 7.2238817447e-01	 1.8247086275e+00	-7.3121599506e-01
 7.5855245495e-01	 1.8099736458e+00	-7.5998565341e-01
 7.9455672745e-01	 1.7944598550e+00	-7.8302846859e-01
 8.3037667620e-01	 1.7781679451e+00	-8.0357843191e-01
 8.6598785085e-01	 1.7610995913e+00	-8.2494006236e-01
 9.0136571518e-01	 1.7432574677e+00	-8.5046126054e-01
 9.3648569717e-01	 1.7246452601e+00	-8.8350494141e-01
 9.7132324017e-01	 1.7052676738e+00	-9.2741969292e-01
 1.0058538550e+00	 1.6851304397e+00	-9.8550972768e-01
 1.0400531728e+00	 1.6642403168e+00	-1.0610044123e+00
 1.0738969982e+00	 1.6426050917e+00	-1.1570276733e+00
 7.2008757519e-01	 1.8188974536e+00	-7.0936839458e-01
 7.5613668280e-01	 1.8042093985e+00	-7.5188406835e-01
 7.9202629201e-01	 1.7887450147e+00	-7.8674472870e-01
 8.2773216450e-01	 1.7725049899e+00	-8.1728051487e-01
 8.6322992776e-01	 1.7554909938e+00	-8.4690069013e-01
 8.9849512373e-01	 1.7377056924e+00	-8.7906638906e-01
 9.3350325864e-01	 1.7191527593e+00	-9.1726209895e-01
 9.6822985406e-01	 1.6998368850e+00	-9.6496612104e-01
 1.0026504988e+00	 1.6797637822e+00	-1.0256202781e+00
 1.0367409015e+00	 1.6589401884e+00	-1.1025991521e+00
 1.0704769441e+00	 1.6373738653e+00	-1.1991791514e+00
 7.1778697591e-01	 1.8130862796e+00	-6.8894783451e-01
 7.5372091065e-01	 1.7984451513e+00	-7.4467991163e-01
 7.8949585658e-01	 1.7830301744e+00	-7.9081698984e-01
 8.2508765279e-01	 1.7668420347e+00	-8.3078648557e-01
 8.6047200467e-01	 1.7498823964e+00	-8.6810358355e-01
 8.9562453228e-01	 1.7321539170e+00	-9.0634387330e-01
 9.3052082012e-01	 1.7136602584e+00	-9.4911467466e-01
 9.6513646794e-01	 1.6944060962e+00	-1.0000252969e+00
 9.9944714256e-01	 1.6743971248e+00	-1.0626564969e+00
 1.0334286303e+00	 1.6536400600e+00	-1.1405294203e+00
 1.0670568900e+00	 1.6321426388e+00	-1.2370743241e+00
 7.1548637663e-01	 1.8072751056e+00	-6.6998213275e-01
 7.5130513850e-01	 1.7926809040e+00	-7.3839712575e-01
 7.8696542114e-01	 1.7773153341e+00	-7.9526519878e-01
 8.2244314108e-01	 1.7611790794e+00	-8.4411217977e-01
 8.5771408158e-01	 1.7442737990e+00	-8.8856035748e-01
 8.9275394083e-01	 1.7266021416e+00	-9.3230100310e-01
 9.2753838159e-01	 1.7081677576e+00	-9.7906553536e-01
 9.6204308183e-01	 1.6889753075e+00	-1.0325955727e+00
 9.9624378633e-01	 1.6690304673e+00	-1.0966121370e+00
 1.0301163590e+00	 1.6483399316e+00	-1.1747842931e+00
 1.0636368358e+00	 1.6269114124e+00	-1.2706975204e+00
 7.1318577734e-01	 1.8014639316e+00	-6.5249937746e-01
 7.4888936635e-01	 1.7869166567e+00	-7.3305986785e-01
 7.8443498570e-01	 1.7716004938e+00	-8.0010945978e-01
 8.1979862937e-01	 1.7555161242e+00	-8.5727353209e-01
 8.5495615848e-01	 1.7386652016e+00	-9.0828266568e-01
 8.8988334938e-01	 1.7210503662e+00	-9.5694504599e-01
 9.2455594306e-01	 1.7026752568e+00	-1.0071174632e+00
 9.5894969571e-01	 1.6835445187e+00	-1.0626751526e+00
 9.9304043010e-01	 1.6636638099e+00	-1.1274807391e+00
 1.0268040878e+00	 1.6430398032e+00	-1.2053525688e+00
 1.0602167817e+00	 1.6216801860e+00	-1.3000327254e+00
 1.0944173230e+00	 1.6739924501e+00	-8.1557202689e-01
 1.1285219861e+00	 1.6511928878e+00	-9.2478537959e-01
 1.1622157534e+00	 1.6276529933e+00	-1.0690786741e+00
 1.1954748239e+00	 1.6033838055e+00	-1.2560415697e+00
 1.2282757913e+00	 1.5783973734e+00	-1.4930369348e+00
 1.2605956968e+00	 1.5527067391e+00	-1.6530450906e+00
 1.2924120820e+00	 1.5263259159e+00	-1.5777332284e+00
 1.3237030390e+00	 1.4992698647e+00	-1.5289961548e+00
 1.3544472612e+00	 1.4715544662e+00	-1.5078942354e+00
 1.3846240902e+00	 1.4431964902e+00	-1.5154825159e+00
 1.4142135624e+00	 1.4142135624e+00	-1.5528256901e+00
 1.0909972689e+00	 1.6687612237e+00	-8.8295081399e-01
 1.1249953549e+00	 1.6460329101e+00	-9.8172219539e-01
 1.1585838292e+00	 1.6225665777e+00	-1.1156744325e+00
 1.1917389651e+00	 1.5983732311e+00	-1.2921978573e+00
 1.2244374294e+00	 1.5734648816e+00	-1.5184557305e+00
 1.2566563353e+00	 1.5478545305e+00	-1.7167956070e+00
 1.2883732942e+00	 1.5215561474e+00	-1.6324502889e+00
 1.3195664670e+00	 1.4945846464e+00	-1.5744708942e+00
 1.3502146135e+00	 1.4669558585e+00	-1.5438033102e+00
 1.3802971399e+00	 1.4386865012e+00	-1.5413864986e+00
 1.4097941450e+00	 1.4097941450e+00	-1.5681677836e+00
 1.0875772148e+00	 1.6635299973e+00	-9.4616040406e-01
 1.1214687237e+00	 1.6408729323e+00	-1.0348022983e+00
 1.1549519049e+00	 1.6174801621e+00	-1.1587344865e+00
 1.1880031063e+00	 1.5933626567e+00	-1.3251476644e+00
 1.2205990676e+00	 1.5685323898e+00	-1.5410051421e+00
 1.2527169737e+00	 1.5430023219e+00	-1.7783752783e+00
 1.2843345064e+00	 1.5167863789e+00	-1.6854087804e+00
 1.3154298950e+00	 1.4898994280e+00	-1.6185965969e+00
 1.3459819658e+00	 1.4623572508e+00	-1.5787689441e+00
 1.3759701896e+00	 1.4341765122e+00	-1.5667475309e+00
 1.4053747276e+00	 1.4053747276e+00	-1.5833611749e+00
 1.0841571606e+00	 1.6582987709e+00	-1.0051870769e+00
 1.1179420925e+00	 1.6357129545e+00	-1.0840158368e+00
 1.1513199807e+00	 1.6123937465e+00	-1.1982528690e+00
 1.1842672474e+00	 1.5883520823e+00	-1.3548889154e+00
 1.2167607057e+00	 1.5635998980e+00	-1.5606869851e+00
 1.2487776122e+00	 1.5381501134e+00	-1.8221368051e+00
 1.2802957187e+00	 1.5120166104e+00	-1.7365888029e+00
 1.3112933230e+00	 1.4852142097e+00	-1.6613565963e+00
 1.3417493181e+00	 1.4577586431e+00	-1.6127777296e+00
 1.3716432393e+00	 1.4296665231e+00	-1.5915554862e+00
 1.4009553102e+00	 1.4009553102e+00	-1.5983990335e+00
 1.0807371065e+00	 1.6530675445e+00	-1.0600167998e+00
 1.1144154613e+00	 1.6305529767e+00	-1.1293526916e+00
 1.1476880565e+00	 1.6073073309e+00	-1.2342233899e+00
 1.1805313886e+00	 1.5833415079e+00	-1.3814193575e+00
 1.2129223439e+00	 1.5586674063e+00	-1.5775029433e+00
 1.2448382506e+00	 1.5332979048e+00	-1.8287638332e+00
 1.2762569309e+00	 1.5072468419e+00	-1.7859704165e+00
 1.3071567510e+00	 1.4805289914e+00	-1.7027342314e+00
 1.3375166704e+00	 1.4531600353e+00	-1.6458163111e+00
 1.3673162890e+00	 1.4251565341e+00	-1.6158003349e+00
 1.3965358928e+00	 1.3965358928e+00	-1.6132746717e+00
 1.0773170524e+00	 1.6478363181e+00	-1.1106352227e+00
 1.1108888301e+00	 1.6253929990e+00	-1.1708024712e+00
 1.1440561322e+00	 1.6022209153e+00	-1.2666396329e+00
 1.1767955298e+00	 1.5783309335e+00	-1.4047365575e+00
 1.2090839820e+00	 1.5537349145e+00	-1.5914545665e+00
 1.2408988891e+00	 1.5284456963e+00	-1.8328829038e+00
 1.2722181431e+00	 1.5024770734e+00	-1.8335336404e+00
 1.3030201790e+00	 1.4758437730e+00	-1.7427128471e+00
 1.3332840227e+00	 1.4485614276e+00	-1.6778713852e+00
 1.3629893387e+00	 1.4206465451e+00	-1.6394721460e+00
 1.3921164755e+00	 1.3921164755e+00	-1.6279815466e+00
 1.0738969982e+00	 1.6426050917e+00	-1.1570276733e+00
 1.1073621989e+00	 1.6202330212e+00	-1.2083545079e+00
 1.1404242080e+00	 1.5971344997e+00	-1.2954949517e+00
 1.1730596709e+00	 1.5733203591e+00	-1.4248378992e+00
 1.2052456202e+00	 1.5488024227e+00	-1.6025432687e+00
 1.2369595275e+00	 1.5235934877e+00	-1.8344994521e+00
 1.2681793554e+00	 1.4977073049e+00	-1.8792584524e+00
 1.2988836070e+00	 1.4711585547e+00	-1.7812757945e+00
 1.3290513750e+00	 1.4439628199e+00	-1.7089297018e+00
 1.3586623884e+00	 1.4161365560e+00	-1.6625610890e+00
 1.3876970581e+00	 1.3876970581e+00	-1.6425132622e+00
 1.0704769441e+00	 1.6373738653e+00	-1.1991791514e+00
 1.1038355677e+00	 1.6150730434e+00	-1.2419978530e+00
 1.1367922838e+00	 1.5920480841e+00	-1.3207824664e+00
 1.1693238121e+00	 1.5683097847e+00	-1.4417205804e+00
 1.2014072583e+00	 1.5438699309e+00	-1.6107703253e+00
 1.2330201659e+00	 1.5187412791e+00	-1.8336188237e+00
 1.2641405676e+00	 1.4929375365e+00	-1.9231247885e+00
 1.2947470350e+00	 1.4664733364e+00	-1.8184064303e+00
 1.3248187273e+00	 1.4393642122e+00	-1.7389780648e+00
 1.3543354381e+00	 1.4116265670e+00	-1.6850574351e+00
 1.3832776407e+00	 1.3832776407e+00	-1.6568635722e+00
 1.0670568900e+00	 1.6321426388e+00	-1.2370743241e+00
 1.1003089365e+00	 1.6099130656e+00	-1.2717212725e+00
 1.1331603595e+00	 1.5869616685e+00	-1.3424950598e+00
 1.1655879533e+00	 1.5632992103e+00	-1.4553816097e+00
 1.1975688965e+00	 1.5389374391e+00	-1.6161368717e+00
 1.2290808044e+00	 1.5138890706e+00	-1.8302462721e+00
 1.2601017799e+00	 1.4881677680e+00	-1.9651125416e+00
 1.2906104630e+00	 1.4617881181e+00	-1.8540881178e+00
 1.3205860796e+00	 1.4347656045e+00	-1.7680033330e+00
 1.3500084879e+00	 1.4071165779e+00	-1.7069515592e+00
 1.3788582233e+00	 1.3788582233e+00	-1.6710263817e+00
 1.0636368358e+00	 1.6269114124e+00	-1.2706975204e+00
 1.0967823053e+00	 1.6047530879e+00	-1.2975132425e+00
 1.1295284353e+00	 1.5818752529e+00	-1.3606253734e+00
 1.1618520945e+00	 1.5582886359e+00	-1.4658178037e+00
 1.1937305346e+00	 1.5340049473e+00	-1.6186439004e+00
 1.2251414428e+00	 1.5090368620e+00	-1.8243869580e+00
 1.2560629921e+00	 1.4833979995e+00	-2.0052015615e+00
 1.2864738910e+00	 1.4571028997e+00	-1.8883042262e+00
 1.3163534319e+00	 1.4301669968e+00	-1.7959924212e+00
 1.3456815376e+00	 1.4026065889e+00	-1.7282339414e+00
 1.3744388059e+00	 1.3744388059e+00	-1.6849957506e+00
 1.0602167817e+00	 1.6216801860e+00	-1.3000327254e+00
 1.0932556741e+00	 1.5995931101e+00	-1.3193619445e+00
 1.1258965111e+00	 1.5767888373e+00	-1.3751658037e+00
 1.1581162356e+00	 1.5532780615e+00	-1.4730257839e+00
 1.1898921728e+00	 1.5290724555e+00	-1.6182922590e+00
 1.2212020813e+00	 1.5041846535e+00	-1.8160459473e+00
 1.2520242043e+00	 1.4786282310e+00	-2.0433716535e+00
 1.2823373190e+00	 1.4524176814e+00	-1.9210381314e+00
 1.3121207842e+00	 1.4255683891e+00	-1.8229323006e+00
 1.3413545873e+00	 1.3980965999e+00	-1.7488951684e+00
 1.3700193885e+00	 1.3700193885e+00	-1.6987658953e+00
 1.4142135624e+00	 1.4142135624e+00	-1.5528256901e+00
 1.4431964755e+00	 1.3846241126e+00	-1.5951244318e+00
 1.4715544074e+00	 1.3544473509e+00	-1.6156727140e+00
 1.4992697328e+00	 1.3237032403e+00	-1.6128876431e+00
 1.5263256822e+00	 1.2924124388e+00	-1.5854602293e+00
 1.5527063752e+00	 1.2605962528e+00	-1.5323719718e+00
 1.5783968513e+00	 1.2282765894e+00	-1.5137441944e+00
 1.6033830974e+00	 1.1954759065e+00	-1.4676331930e+00
 1.6276520721e+00	 1.1622171622e+00	-1.3623599802e+00
 1.6511917266e+00	 1.1285237623e+00	-1.2025023906e+00
 1.6739910224e+00	 1.0944195068e+00	-9.9236808662e-01
 1.4097941450e+00	 1.4097941450e+00	-1.5681677836e+00
 1.4386864865e+00	 1.3802971623e+00	-1.6064000137e+00
 1.4669557999e+00	 1.3502147029e+00	-1.6219749866e+00
 1.4945845149e+00	 1.3195666677e+00	-1.6133287418e+00
 1.5215559144e+00	 1.2883736499e+00	-1.5791707862e+00
 1.5478541677e+00	 1.2566568895e+00	-1.5185005018e+00
 1.5734643611e+00	 1.2244382250e+00	-1.5072792975e+00
 1.5983725252e+00	 1.1917400443e+00	-1.4551620535e+00
 1.6225656594e+00	 1.1585852336e+00	-1.3426240995e+00
 1.6460317524e+00	 1.1249971255e+00	-1.1742435552e+00
 1.6687598005e+00	 1.0909994458e+00	-9.5433787253e-01
 1.4053747276e+00	 1.4053747276e+00	-1.5833611749e+00
 1.4341764975e+00	 1.3759702119e+00	-1.6175874812e+00
 1.4623571923e+00	 1.3459820549e+00	-1.6282403789e+00
 1.4898992970e+00	 1.3154300950e+00	-1.6137744573e+00
 1.5167861467e+00	 1.2843348611e+00	-1.5729173874e+00
 1.5430019603e+00	 1.2527175262e+00	-1.5046861538e+00
 1.5685318709e+00	 1.2205998607e+00	-1.5025463850e+00
 1.5933619530e+00	 1.1880041821e+00	-1.4444412164e+00
 1.6174792466e+00	 1.1549533050e+00	-1.3246622998e+00
 1.6408717783e+00	 1.1214704888e+00	-1.1477878107e+00
 1.6635285785e+00	 1.0875793848e+00	-9.1814470633e-01
 1.4009553102e+00	 1.4009553102e+00	-1.5983990335e+00
 1.4296665085e+00	 1.3716432615e+00	-1.6286802231e+00
 1.4577585848e+00	 1.3417494069e+00	-1.6344624948e+00
 1.4852140791e+00	 1.3112935224e+00	-1.6142186058e+00
 1.5120163789e+00	 1.2802960722e+00	-1.5666940587e+00
 1.5381497529e+00	 1.2487781629e+00	-1.4959312134e+00
 1.5635993808e+00	 1.2167614963e+00	-1.4995949764e+00
 1.5883513809e+00	 1.1842683199e+00	-1.4355200267e+00
 1.6123928339e+00	 1.1513213763e+00	-1.3085236293e+00
 1.6357118041e+00	 1.1179438520e+00	-1.1231837865e+00
 1.6582973566e+00	 1.0841593239e+00	-8.8383668002e-01
 1.3965358928e+00	 1.3965358928e+00	-1.6132746717e+00
 1.4251565195e+00	 1.3673163112e+00	-1.6396717766e+00
 1.4531599773e+00	 1.3375167589e+00	-1.6406350922e+00
 1.4805288611e+00	 1.3071569498e+00	-1.6146551618e+00
 1.5072466111e+00	 1.2762572833e+00	-1.5604949881e+00
 1.5332975455e+00	 1.2448387996e+00	-1.4995302921e+00
 1.5586668906e+00	 1.2129231320e+00	-1.4984747603e+00
 1.5833408087e+00	 1.1805324576e+00	-1.4284480013e+00
 1.6073064212e+00	 1.1476894477e+00	-1.2942573094e+00
 1.6305518300e+00	 1.1144172152e+00	-1.1004802873e+00
 1.6530661346e+00	 1.0807392629e+00	-8.5146206124e-01
 1.3921164755e+00	 1.3921164755e+00	-1.6279815466e+00
 1.4206465305e+00	 1.3629893608e+00	-1.6505558294e+00
 1.4485613697e+00	 1.3332841110e+00	-1.6467520850e+00
 1.4758436432e+00	 1.3030203771e+00	-1.6150782612e+00
 1.5024768434e+00	 1.2722184944e+00	-1.5543145293e+00
 1.5284453380e+00	 1.2408994363e+00	-1.5049978827e+00
 1.5537344005e+00	 1.2090847676e+00	-1.4992355977e+00
 1.5783302365e+00	 1.1767965954e+00	-1.4232748318e+00
 1.6022200085e+00	 1.1440575191e+00	-1.2819127383e+00
 1.6253918559e+00	 1.1108905785e+00	-1.0797262952e+00
 1.6478349127e+00	 1.0773192020e+00	-8.2106929600e-01
 1.3876970581e+00	 1.3876970581e+00	-1.6425132622e+00
 1.4161365415e+00	 1.3586624105e+00	-1.6613262227e+00
 1.4439627622e+00	 1.3290514630e+00	-1.6528075458e+00
 1.4711584253e+00	 1.2988838045e+00	-1.6154822032e+00
 1.4977070756e+00	 1.2681797056e+00	-1.5481472036e+00
 1.5235931306e+00	 1.2369600730e+00	-1.5123840617e+00
 1.5488019103e+00	 1.2052464033e+00	-1.5019275242e+00
 1.5733196643e+00	 1.1730607332e+00	-1.4200503870e+00
 1.5971335957e+00	 1.1404255904e+00	-1.2715394934e+00
 1.6202318817e+00	 1.1073639417e+00	-1.0609709730e+00
 1.6426036908e+00	 1.0738991410e+00	-7.9270701156e-01
 1.3832776407e+00	 1.3832776407e+00	-1.6568635722e+00
 1.4116265526e+00	 1.3543354601e+00	-1.6719769533e+00
 1.4393641547e+00	 1.3248188150e+00	-1.6587957086e+00
 1.4664732074e+00	 1.2947472319e+00	-1.6158614534e+00
 1.4929373079e+00	 1.2641409167e+00	-1.5419877033e+00
 1.5187409232e+00	 1.2330207097e+00	-1.5217390800e+00
 1.5438694201e+00	 1.2014080389e+00	-1.5066007530e+00
 1.5683090921e+00	 1.1693248710e+00	-1.4188247160e+00
 1.5920471830e+00	 1.1367936618e+00	-1.2631873340e+00
 1.6150719076e+00	 1.1038373050e+00	-1.0442636669e+00
 1.6373724688e+00	 1.0704790801e+00	-7.6642401931e-01
 1.3788582233e+00	 1.3788582233e+00	-1.6710263817e+00
 1.4071165636e+00	 1.3500085098e+00	-1.6825021759e+00
 1.4347655472e+00	 1.3205861670e+00	-1.6647109711e+00
 1.4617879895e+00	 1.2906106592e+00	-1.6162106463e+00
 1.4881675401e+00	 1.2601021278e+00	-1.5358308937e+00
 1.5138887158e+00	 1.2290813465e+00	-1.5331133659e+00
 1.5389369300e+00	 1.1975696746e+00	-1.5133056780e+00
 1.5632985200e+00	 1.1655890088e+00	-1.4196480508e+00
 1.5869607703e+00	 1.1331617332e+00	-1.2569062047e+00
 1.6099119334e+00	 1.1003106682e+00	-1.0296539096e+00
 1.6321412469e+00	 1.0670590191e+00	-7.4226931771e-01
 1.3744388059e+00	 1.3744388059e+00	-1.6849957506e+00
 1.4026065746e+00	 1.3456815594e+00	-1.6928962060e+00
 1.4301669396e+00	 1.3163535191e+00	-1.6705478973e+00
 1.4571027715e+00	 1.2864740866e+00	-1.6165245878e+00
 1.4833977723e+00	 1.2560633389e+00	-1.5296718166e+00
 1.5090365083e+00	 1.2251419832e+00	-1.5465575278e+00
 1.5340044398e+00	 1.1937313102e+00	-1.5220928761e+00
 1.5582879478e+00	 1.1618531466e+00	-1.4225708095e+00
 1.5818743576e+00	 1.1295298045e+00	-1.2527462379e+00
 1.6047519593e+00	 1.0967840315e+00	-1.0171914229e+00
 1.6269100249e+00	 1.0636389581e+00	-7.2029209533e-01
 1.3700193885e+00	 1.3700193885e+00	-1.6987658953e+00
 1.3980965856e+00	 1.3413546091e+00	-1.7031535223e+00
 1.4255683321e+00	 1.3121208711e+00	-1.6763012206e+00
 1.4524175536e+00	 1.2823375140e+00	-1.6167982585e+00
 1.4786280046e+00	 1.2520245501e+00	-1.5235056926e+00
 1.5041843009e+00	 1.2212026199e+00	-1.5621223569e+00
 1.5290719496e+00	 1.1898929459e+00	-1.5330131109e+00
 1.5532773756e+00	 1.1581172844e+00	-1.4276435993e+00
 1.5767879448e+00	 1.1258978759e+00	-1.2507577573e+00
 1.5995919851e+00	 1.0932573947e+00	-1.0069261212e+00
 1.6216788030e+00	 1.0602188972e+00	-7.0054173388e-01
 1.6739910224e+00	 1.0944195068e+00	-9.9236808662e-01
 1.6960399458e+00	 1.0599285363e+00	-7.6683424866e-01
 1.7173295184e+00	 1.0250752778e+00	-5.5728709898e-01
 1.7378518048e+00	 9.8988438935e-01	-3.6229447533e-01
 1.7575999168e+00	 9.5438070621e-01	-1.8005197308e-01
 1.7765680136e+00	 9.1858918609e-01	-8.4234332748e-03
 1.7947513000e+00	 8.8253485548e-01	 1.5501576961e-01
 1.8121460197e+00	 8.4624275655e-01	 3.1293322581e-01
 1.8287494474e+00	 8.0973789494e-01	 4.6819236976e-01
 1.8445598760e+00	 7.7304518881e-01	 6.2380433758e-01
 1.8595766021e+00	 7.3618941913e-01	 7.8287939161e-01
 1.6687598005e+00	 1.0909994458e+00	-9.5433787253e-01
 1.6907398210e+00	 1.0566162597e+00	-7.2915381640e-01
 1.7119628636e+00	 1.0218719175e+00	-5.2065219610e-01
 1.7324210179e+00	 9.8679100065e-01	-3.2761212557e-01
 1.7521074170e+00	 9.5139826651e-01	-1.4843854838e-01
 1.7710162386e+00	 9.1571859489e-01	 1.8798376752e-02
 1.7891427021e+00	 8.7977693407e-01	 1.7632107181e-01
 1.8064830634e+00	 8.4359824794e-01	 3.2660009338e-01
 1.8230346054e+00	 8.0720746403e-01	 4.7230803158e-01
 1.8387956263e+00	 7.7062942260e-01	 6.1627234247e-01
 1.8537654252e+00	 7.3388882720e-01	 7.6142769576e-01
 1.6635285785e+00	 1.0875793848e+00	-9.1814470633e-01
 1.6854396961e+00	 1.0533039830e+00	-6.9287299970e-01
 1.7065962089e+00	 1.0186685573e+00	-4.8499646393e-01
 1.7269902311e+00	 9.8369761194e-01	-2.9350584075e-01
 1.7466149173e+00	 9.4841582681e-01	-1.1701569056e-01
 1.7654644635e+00	 9.1284800369e-01	 4.6197322320e-02
 1.7835341043e+00	 8.7701901265e-01	 1.9815330631e-01
 1.8008201071e+00	 8.4095373934e-01	 3.4112574903e-01
 1.8173197634e+00	 8.0467703311e-01	 4.7759643200e-01
 1.8330313767e+00	 7.6821365639e-01	 6.1020923418e-01
 1.8479542483e+00	 7.3158823527e-01	 7.4172339852e-01
 1.6582973566e+00	 1.0841593239e+00	-8.8383668002e-01
 1.6801395713e+00	 1.0499917063e+00	-6.5803473159e-01
 1.7012295542e+00	 1.0154651971e+00	-4.5035768344e-01
 1.7215594442e+00	 9.8060422322e-01	-2.6000826736e-01
 1.7411224176e+00	 9.4543338711e-01	-8.5810939703e-02
 1.7599126885e+00	 9.0997741249e-01	 7.3750931209e-02
 1.7779255065e+00	 8.7426109124e-01	 2.2049501990e-01
 1.7951571508e+00	 8.3830923073e-01	 3.5649769954e-01
 1.8116049213e+00	 8.0214660220e-01	 4.8404996892e-01
 1.8272671271e+00	 7.6579789018e-01	 6.0561222314e-01
 1.8421430715e+00	 7.2928764334e-01	 7.2376843496e-01
 1.6530661346e+00	 1.0807392629e+00	-8.5146206124e-01
 1.6748394465e+00	 1.0466794296e+00	-6.2468206377e-01
 1.6958628994e+00	 1.0122618368e+00	-4.1677369828e-01
 1.7161286573e+00	 9.7751083451e-01	-2.2715205956e-01
 1.7356299178e+00	 9.4245094741e-01	-5.4851789747e-02
 1.7543609135e+00	 9.0710682129e-01	 1.0143682994e-01
 1.7723169087e+00	 8.7150316982e-01	 2.4332890937e-01
 1.7894941945e+00	 8.3566472212e-01	 3.7270365160e-01
 1.8058900793e+00	 7.9961617128e-01	 4.9166128855e-01
 1.8215028775e+00	 7.6338212398e-01	 6.0247881502e-01
 1.8363318946e+00	 7.2698705141e-01	 7.0756508064e-01
 1.6478349127e+00	 1.0773192020e+00	-8.2106929600e-01
 1.6695393216e+00	 1.0433671530e+00	-5.9285816848e-01
 1.6904962447e+00	 1.0090584766e+00	-3.8428241576e-01
 1.7106978704e+00	 9.7441744580e-01	-1.9496987936e-01
 1.7301374181e+00	 9.3946850771e-01	-2.4165687772e-02
 1.7488091384e+00	 9.0423623009e-01	 1.2923274532e-01
 1.7667083109e+00	 8.6874524840e-01	 2.6663782394e-01
 1.7838312382e+00	 8.3302021351e-01	 3.8973151504e-01
 1.8001752373e+00	 7.9708574037e-01	 5.0042328944e-01
 1.8157386279e+00	 7.6096635776e-01	 6.0080681541e-01
 1.8305207177e+00	 7.2468645948e-01	 6.9311595707e-01
 1.6426036908e+00	 1.0738991410e+00	-7.9270701156e-01
 1.6642391968e+00	 1.0400548763e+00	-5.6260634042e-01
 1.6851295899e+00	 1.0058551164e+00	-3.5292180784e-01
 1.7052670835e+00	 9.7132405708e-01	-1.6349439669e-01
 1.7246449183e+00	 9.3648606800e-01	 6.2199667532e-03
 1.7432573634e+00	 9.0136563889e-01	 1.5711650608e-01
 1.7610997131e+00	 8.6598732698e-01	 2.9040476765e-01
 1.7781682819e+00	 8.3037570490e-01	 4.0756940597e-01
 1.7944603953e+00	 7.9455530945e-01	 5.1032912642e-01
 1.8099743783e+00	 7.5855059155e-01	 6.0059433460e-01
 1.8247095408e+00	 7.2238586755e-01	 6.8042403716e-01
 1.6373724688e+00	 1.0704790801e+00	-7.6642401931e-01
 1.6589390720e+00	 1.0367425996e+00	-5.3396999875e-01
 1.6797629352e+00	 1.0026517561e+00	-3.2272991219e-01
 1.6998362966e+00	 9.6823066837e-01	-1.3275828957e-01
 1.7191524186e+00	 9.3350362830e-01	 3.6277822734e-02
 1.7377055883e+00	 8.9849504768e-01	 1.8506604446e-01
 1.7554911153e+00	 8.6322940556e-01	 3.1461290186e-01
 1.7725053256e+00	 8.2773119629e-01	 4.2620565016e-01
 1.7887455533e+00	 7.9202487853e-01	 5.2137221474e-01
 1.8042101287e+00	 7.5613482534e-01	 6.0183979244e-01
 1.8188983639e+00	 7.2008527561e-01	 6.6949265086e-01
 1.6321412469e+00	 1.0670590191e+00	-7.4226931771e-01
 1.6536389472e+00	 1.0334303229e+00	-5.0699268898e-01
 1.6743962804e+00	 9.9944839586e-01	-2.9374483322e-01
 1.6944055097e+00	 9.6513727965e-01	-1.0279424420e-01
 1.7136599189e+00	 9.3052118859e-01	 6.5980578223e-02
 1.7321538133e+00	 8.9562445648e-01	 2.1305939790e-01
 1.7498825175e+00	 8.6047148414e-01	 3.3924554775e-01
 1.7668423693e+00	 8.2508668768e-01	 4.4562878637e-01
 1.7830307112e+00	 7.8949444761e-01	 5.3354623423e-01
 1.7984458791e+00	 7.5371905912e-01	 6.0454192333e-01
 1.8130871871e+00	 7.1778468368e-01	 6.6032549091e-01
 1.6269100249e+00	 1.0636389581e+00	-7.2029209533e-01
 1.6483388223e+00	 1.0301180463e+00	-4.8171808513e-01
 1.6690296257e+00	 9.9624503562e-01	-2.6600474318e-01
 1.6889747228e+00	 9.6204389093e-01	-7.3634955119e-02
 1.7081674191e+00	 9.2753874888e-01	 9.5300981207e-02
 1.7266020383e+00	 8.9275386527e-01	 2.4107471070e-01
 1.7442739197e+00	 8.5771356271e-01	 3.6428618891e-01
 1.7611794129e+00	 8.2244217906e-01	 4.6582756975e-01
 1.7773158692e+00	 7.8696401668e-01	 5.4684513354e-01
 1.7926816294e+00	 7.5130329291e-01	 6.0869978122e-01
 1.8072760102e+00	 7.1548409174e-01	 6.5292661860e-01
 1.6216788030e+00	 1.0602188972e+00	-7.0054173388e-01
 1.6430386975e+00	 1.0268057696e+00	-4.5818999171e-01
 1.6636629710e+00	 9.9304167537e-01	-2.3954788324e-01
 1.6835439359e+00	 9.5895050221e-01	-4.5313125324e-02
 1.7026749194e+00	 9.2455630917e-01	 1.2421183042e-01
 1.7210502632e+00	 8.8988327406e-01	 2.6909023579e-01
 1.7386653219e+00	 8.5495564129e-01	 3.8971847394e-01
 1.7555164566e+00	 8.1979767045e-01	 4.8679097538e-01
 1.7716010272e+00	 7.8443358576e-01	 5.6126313450e-01
 1.7869173798e+00	 7.4888752669e-01	 6.1431274482e-01
 1.8014648333e+00	 7.1318349981e-01	 6.4730046978e-01
 1.8595766021e+00	 7.3618941913e-01	 7.8287939161e-01
 1.8737999088e+00	 6.9919518155e-01	 9.8235468914e-01
 1.8872310448e+00	 6.6208683996e-01	 1.0658761099e+00
 1.8998722024e+00	 6.2488848179e-01	 1.1842245140e+00
 1.9117264922e+00	 5.8762387546e-01	 1.2363365534e+00
 1.9227979164e+00	 5.5031642973e-01	 1.3078701773e+00
 1.9330913394e+00	 5.1298915540e-01	 1.3981876848e+00
 1.9426124577e+00	 4.7566462921e-01	 1.5063815549e+00
 1.9513677669e+00	 4.3836496011e-01	 1.6312732008e+00
 1.9593645290e+00	 4.0111175801e-01	 1.7714142979e+00
 1.9666107368e+00	 3.6392610487e-01	 1.9250906049e+00
 1.8537654252e+00	 7.3388882720e-01	 7.6142769576e-01
 1.8679442840e+00	 6.9701019662e-01	 9.5435627383e-01
 1.8813334478e+00	 6.6001781858e-01	 1.1220985872e+00
 1.8939351017e+00	 6.2293570529e-01	 1.2342192830e+00
 1.9057523469e+00	 5.8578755085e-01	 1.2801709737e+00
 1.9167891729e+00	 5.4859669088e-01	 1.3460317789e+00
 1.9270504290e+00	 5.1138606429e-01	 1.4312626364e+00
 1.9365417937e+00	 4.7417817724e-01	 1.5350511141e+00
 1.9452697427e+00	 4.3699506961e-01	 1.6563100515e+00
 1.9532415149e+00	 3.9985828376e-01	 1.7936787886e+00
 1.9604650783e+00	 3.6278883578e-01	 1.9455268966e+00
 1.8479542483e+00	 7.3158823527e-01	 7.4172339852e-01
 1.8620886593e+00	 6.9482521168e-01	 9.2760923186e-01
 1.8754358507e+00	 6.5794879721e-01	 1.1809057454e+00
 1.8879980011e+00	 6.2098292878e-01	 1.2858451506e+00
 1.8997782016e+00	 5.8395122624e-01	 1.3252220014e+00
 1.9107804294e+00	 5.4687695204e-01	 1.3850034709e+00
 1.9210095185e+00	 5.0978297317e-01	 1.4647500705e+00
 1.9304711298e+00	 4.7269172527e-01	 1.5637453380e+00
 1.9391717184e+00	 4.3562517910e-01	 1.6809943657e+00
 1.9471185007e+00	 3.9860480951e-01	 1.8152249264e+00
 1.9543194197e+00	 3.6165156670e-01	 1.9648911142e+00
 1.8421430715e+00	 7.2928764334e-01	 7.2376843496e-01
 1.8562330346e+00	 6.9264022674e-01	 9.0211296077e-01
 1.8695382537e+00	 6.5587977584e-01	 1.1547412658e+00
 1.8820609005e+00	 6.1903015228e-01	 1.3391094427e+00
 1.8938040564e+00	 5.8211490163e-01	 1.3714940213e+00
 1.9047716859e+00	 5.4515721320e-01	 1.4247867484e+00
 1.9149686081e+00	 5.0817988206e-01	 1.4986486462e+00
 1.9244004659e+00	 4.7120527330e-01	 1.5924601072e+00
 1.9330736941e+00	 4.3425528860e-01	 1.7053193050e+00
 1.9409954866e+00	 3.9735133526e-01	 1.8360432170e+00
 1.9481737612e+00	 3.6051429762e-01	 1.9831711722e+00
 1.8363318946e+00	 7.2698705141e-01	 7.0756508064e-01
 1.8503774099e+00	 6.9045524180e-01	 8.7786715150e-01
 1.8636406567e+00	 6.5381075447e-01	 1.1224079303e+00
 1.8761237998e+00	 6.1707737578e-01	 1.3940196863e+00
 1.8878299111e+00	 5.8027857702e-01	 1.4189915741e+00
 1.8987629424e+00	 5.4343747435e-01	 1.4653832173e+00
 1.9089276977e+00	 5.0657679095e-01	 1.5329570901e+00
 1.9183298019e+00	 4.6971882133e-01	 1.6211913266e+00
 1.9269756698e+00	 4.3288539810e-01	 1.7292780138e+00
 1.9348724724e+00	 3.9609786102e-01	 1.8561241078e+00
 1.9420281026e+00	 3.5937702854e-01	 2.0003548872e+00
 1.8305207177e+00	 7.2468645948e-01	 6.9311595707e-01
 1.8445217852e+00	 6.8827025686e-01	 8.5487179307e-01
 1.8577430597e+00	 6.5174173310e-01	 1.0908232433e+00
 1.8701866992e+00	 6.1512459927e-01	 1.3655747143e+00
 1.8818557658e+00	 5.7844225241e-01	 1.4677193583e+00
 1.8927541989e+00	 5.4171773551e-01	 1.5067945965e+00
 1.9028867872e+00	 5.0497369984e-01	 1.5676741970e+00
 1.9122591380e+00	 4.6823236936e-01	 1.6499349263e+00
 1.9208776456e+00	 4.3151550759e-01	 1.7528636192e+00
 1.9287494583e+00	 3.9484438677e-01	 1.8754579872e+00
 1.9358824441e+00	 3.5823975945e-01	 2.0164299763e+00
 1.8247095408e+00	 7.2238586755e-01	 6.8042403716e-01
 1.8386661605e+00	 6.8608527192e-01	 8.3312717731e-01
 1.8518454627e+00	 6.4967271172e-01	 1.0599848906e+00
 1.8642495986e+00	 6.1317182277e-01	 1.3172099275e+00
 1.8758816205e+00	 5.7660592779e-01	 1.5176822332e+00
 1.8867454554e+00	 5.3999799667e-01	 1.5490227197e+00
 1.8968458768e+00	 5.0337060873e-01	 1.6027988317e+00
 1.9061884741e+00	 4.6674591740e-01	 1.6786868616e+00
 1.9147796213e+00	 4.3014561709e-01	 1.7760692300e+00
 1.9226264441e+00	 3.9359091252e-01	 1.8940351835e+00
 1.9297367855e+00	 3.5710249037e-01	 2.0313840553e+00
 1.8188983639e+00	 7.2008527561e-01	 6.6949265086e-01
 1.8328105358e+00	 6.8390028698e-01	 8.1263390373e-01
 1.8459478657e+00	 6.4760369035e-01	 1.0298908164e+00
 1.8583124979e+00	 6.1121904626e-01	 1.2686217236e+00
 1.8699074752e+00	 5.7476960318e-01	 1.4718692517e+00
 1.8807367120e+00	 5.3827825783e-01	 1.5920695369e+00
 1.8908049664e+00	 5.0176751762e-01	 1.6383299293e+00
 1.9001178101e+00	 4.6525946543e-01	 1.7074431137e+00
 1.9086815970e+00	 4.2877572659e-01	 1.7988879373e+00
 1.9165034300e+00	 3.9233743828e-01	 1.9118459639e+00
 1.9235911270e+00	 3.5596522130e-01	 2.0452046373e+00
 1.8130871871e+00	 7.1778468368e-01	 6.6032549091e-01
 1.8269549110e+00	 6.8171530204e-01	 7.9339288441e-01
 1.8400502687e+00	 6.4553466897e-01	 1.0005392282e+00
 1.8523753973e+00	 6.0926626975e-01	 1.2198417094e+00
 1.8639333299e+00	 5.7293327857e-01	 1.4089975036e+00
 1.8747279685e+00	 5.3655851898e-01	 1.6305032853e+00
 1.8847640559e+00	 5.0016442651e-01	 1.6742664969e+00
 1.8940471462e+00	 4.6377301346e-01	 1.7361996901e+00
 1.9025835728e+00	 4.2740583609e-01	 1.8213128134e+00
 1.9103804158e+00	 3.9108396404e-01	 1.9288805340e+00
 1.9174454684e+00	 3.5482795222e-01	 2.0578791308e+00
 1.8072760102e+00	 7.1548409174e-01	 6.5292661860e-01
 1.8210992863e+00	 6.7953031710e-01	 7.7540534904e-01
 1.8341526716e+00	 6.4346564760e-01	 9.7192860037e-01
 1.8464382967e+00	 6.0731349325e-01	 1.1709017093e+00
 1.8579591846e+00	 5.7109695396e-01	 1.3457677878e+00
 1.8687192250e+00	 5.3483878014e-01	 1.5544496427e+00
 1.8787231455e+00	 4.9856133540e-01	 1.7106076146e+00
 1.8879764823e+00	 4.6228656150e-01	 1.7649526247e+00
 1.8964855485e+00	 4.2603594559e-01	 1.8433369123e+00
 1.9042574017e+00	 3.8983048979e-01	 1.9451290359e+00
 1.9112998099e+00	 3.5369068314e-01	 2.0693948386e+00
 1.8014648333e+00	 7.1318349981e-01	 6.4730046978e-01
 1.8152436616e+00	 6.7734533215e-01	 7.5867285005e-01
 1.8282550746e+00	 6.4139662622e-01	 9.4405767916e-01
 1.8405011960e+00	 6.0536071674e-01	 1.1218337686e+00
 1.8519850393e+00	 5.6926062935e-01	 1.2822068464e+00
 1.8627104815e+00	 5.3311904130e-01	 1.4778577263e+00
 1.8726822350e+00	 4.9695824428e-01	 1.6993921356e+00
 1.8819058183e+00	 4.6080010953e-01	 1.7936979786e+00
 1.8903875242e+00	 4.2466605509e-01	 1.8649532687e+00
 1.8981343875e+00	 3.8857701555e-01	 1.9605815482e+00
 1.9051541513e+00	 3.5255341407e-01	 2.0797389553e+00
 1.9666107368e+00	 3.6392610487e-01	 1.9250906049e+00
 1.9731150785e+00	 3.2682852838e-01	 2.0911671629e+00
 1.9788869010e+00	 2.8983897809e-01	 2.2691350309e+00
 1.9839361725e+00	 2.5297680400e-01	 2.4578024438e+00
 1.9882734453e+00	 2.1626073768e-01	 2.6556916409e+00
 1.9919098172e+00	 1.7970887582e-01	 2.8610508010e+00
 1.9948568938e+00	 1.4333866616e-01	 3.0718679136e+00
 1.9971267502e+00	 1.0716689579e-01	 3.2858863731e+00
 1.9987318933e+00	 7.1209681781e-02	 3.5006220803e+00
 1.9996852239e+00	 3.5482463975e-02	 3.7133818292e+00
 2.0000000000e+00	 0.0000000000e+00	 3.9212827569e+00
 1.9604650783e+00	 3.6278883578e-01	 1.9455268966e+00
 1.9669490939e+00	 3.2580718922e-01	 2.1068024393e+00
 1.9727028794e+00	 2.8893323127e-01	 2.2804801877e+00
 1.9777363720e+00	 2.5218625147e-01	 2.4652769418e+00
 1.9820600908e+00	 2.1558492287e-01	 2.6596277812e+00
 1.9856850990e+00	 1.7914728558e-01	 2.8616982151e+00
 1.9886229660e+00	 1.4289073282e-01	 3.0693982245e+00
 1.9908857291e+00	 1.0683199924e-01	 3.2803979882e+00
 1.9924858561e+00	 7.0987151521e-02	 3.4921450770e+00
 1.9934362076e+00	 3.5371581273e-02	 3.7018828950e+00
 1.9937500000e+00	 0.0000000000e+00	 3.9066701506e+00
 1.9543194197e+00	 3.6165156670e-01	 1.9648911142e+00
 1.9607831093e+00	 3.2478585006e-01	 2.1215529398e+00
 1.9665188578e+00	 2.8802748446e-01	 2.2911345569e+00
 1.9715365715e+00	 2.5139569895e-01	 2.4722611356e+00
 1.9758467363e+00	 2.1490910805e-01	 2.6632803764e+00
 1.9794603809e+00	 1.7858569533e-01	 2.8622748762e+00
 1.9823890382e+00	 1.4244279949e-01	 3.0670763433e+00
 1.9846447080e+00	 1.0649710268e-01	 3.2752814566e+00
 1.9862398189e+00	 7.0764621262e-02	 3.4842691527e+00
 1.9871871913e+00	 3.5260698571e-02	 3.6912191253e+00
 1.9875000000e+00	 0.0000000000e+00	 3.8931313170e+00
 1.9481737612e+00	 3.6051429762e-01	 1.9831711722e+00
 1.9546171247e+00	 3.2376451091e-01	 2.1354090546e+00
 1.9603348363e+00	 2.8712173764e-01	 2.3010910114e+00
 1.9653367709e+00	 2.5060514643e-01	 2.4787503820e+00
 1.9696333818e+00	 2.1423329324e-01	 2.6666472644e+00
 1.9732356627e+00	 1.7802410509e-01	 2.8627810959e+00
 1.9761551104e+00	 1.4199486615e-01	 3.0649050437e+00
 1.9784036869e+00	 1.0616220613e-01	 3.2705419977e+00
 1.9799937818e+00	 7.0542091003e-02	 3.4770019532e+00
 1.9809381749e+00	 3.5149815869e-02	 3.6814005684e+00
 1.9812500000e+00	 0.0000000000e+00	 3.8806786802e+00
 1.9420281026e+00	 3.5937702854e-01	 2.0003548872e+00
 1.9484511400e+00	 3.2274317175e-01	 2.1483611008e+00
 1.9541508147e+00	 2.8621599083e-01	 2.3103423752e+00
 1.9591369704e+00	 2.4981459392e-01	 2.4847400147e+00
 1.9634200273e+00	 2.1355747843e-01	 2.6697262854e+00
 1.9670109445e+00	 1.7746251485e-01	 2.8632172137e+00
 1.9699211826e+00	 1.4154693281e-01	 3.0628871527e+00
 1.9721626658e+00	 1.0582730958e-01	 3.2661849103e+00
 1.9737477446e+00	 7.0319560745e-02	 3.4703512292e+00
 1.9746891586e+00	 3.5038933168e-02	 3.6724374038e+00
 1.9750000000e+00	 0.0000000000e+00	 3.8693248214e+00
 1.9358824441e+00	 3.5823975945e-01	 2.0164299763e+00
 1.9422851554e+00	 3.2172183260e-01	 2.1603993205e+00
 1.9479667931e+00	 2.8531024402e-01	 2.3188814231e+00
 1.9529371698e+00	 2.4902404140e-01	 2.4902253432e+00
 1.9572066727e+00	 2.1288166362e-01	 2.6725152814e+00
 1.9607862263e+00	 1.7690092461e-01	 2.8635835969e+00
 1.9636872548e+00	 1.4109899948e-01	 3.0610255513e+00
 1.9659216447e+00	 1.0549241303e-01	 3.2622155739e+00
 1.9675017074e+00	 7.0097030488e-02	 3.4643248387e+00
 1.9684401423e+00	 3.4928050467e-02	 3.6643399444e+00
 1.9687500000e+00	 0.0000000000e+00	 3.8590824815e+00
 1.9297367855e+00	 3.5710249037e-01	 2.0313840553e+00
 1.9361191708e+00	 3.2070049344e-01	 2.1715138802e+00
 1.9417827716e+00	 2.8440449721e-01	 2.3267008798e+00
 1.9467373693e+00	 2.4823348889e-01	 2.4952016530e+00
 1.9509933182e+00	 2.1220584882e-01	 2.6750120964e+00
 1.9545615082e+00	 1.7633933437e-01	 2.8638806412e+00
 1.9574533271e+00	 1.4065106614e-01	 3.0593231760e+00
 1.9596806237e+00	 1.0515751648e-01	 3.2586394495e+00
 1.9612556703e+00	 6.9874500231e-02	 3.4589307482e+00
 1.9621911260e+00	 3.4817167766e-02	 3.6571186387e+00
 1.9625000000e+00	 0.0000000000e+00	 3.8499645640e+00
 1.9235911270e+00	 3.5596522130e-01	 2.0452046373e+00
 1.9299531862e+00	 3.1967915429e-01	 2.1816948691e+00
 1.9355987500e+00	 2.8349875041e-01	 2.3337934189e+00
 1.9405375688e+00	 2.4744293637e-01	 2.4996642051e+00
 1.9447799637e+00	 2.1153003401e-01	 2.6772145766e+00
 1.9483367900e+00	 1.7577774413e-01	 2.8641087716e+00
 1.9512193993e+00	 1.4020313281e-01	 3.0577830190e+00
 1.9534396026e+00	 1.0482261993e-01	 3.2554620814e+00
 1.9550096331e+00	 6.9651969975e-02	 3.4541770343e+00
 1.9559421096e+00	 3.4706285066e-02	 3.6507840725e+00
 1.9562500000e+00	 0.0000000000e+00	 3.8419841369e+00
 1.9174454684e+00	 3.5482795222e-01	 2.0578791308e+00
 1.9237872016e+00	 3.1865781514e-01	 2.1909322985e+00
 1.9294147284e+00	 2.8259300360e-01	 2.3401516623e+00
 1.9343377682e+00	 2.4665238386e-01	 2.5036082352e+00
 1.9385666092e+00	 2.1085421920e-01	 2.6791205703e+00
 1.9421120718e+00	 1.7521615390e-01	 2.8642684422e+00
 1.9449854715e+00	 1.3975519948e-01	 3.0564081294e+00
 1.9471985815e+00	 1.0448772338e-01	 3.2526890985e+00
 1.9487635959e+00	 6.9429439720e-02	 3.4500718862e+00
 1.9496930933e+00	 3.4595402366e-02	 3.6453469717e+00
 1.9500000000e+00	 0.0000000000e+00	 3.8351544360e+00
 1.9112998099e+00	 3.5369068314e-01	 2.0693948386e+00
 1.9176212169e+00	 3.1763647599e-01	 2.1992160998e+00
 1.9232307069e+00	 2.8168725680e-01	 2.3457681793e+00
 1.9281379677e+00	 2.4586183135e-01	 2.5070289540e+00
 1.9323532547e+00	 2.1017840440e-01	 2.6807279279e+00
 1.9358873536e+00	 1.7465456366e-01	 2.8643601371e+00
 1.9387515437e+00	 1.3930726615e-01	 3.0552016141e+00
 1.9409575604e+00	 1.0415282683e-01	 3.2503262153e+00
 1.9425175588e+00	 6.9206909465e-02	 3.4466236066e+00
 1.9434440770e+00	 3.4484519667e-02	 3.6408182044e+00
 1.9437500000e+00	 0.0000000000e+00	 3.8294888674e+00
 1.9051541513e+00	 3.5255341407e-01	 2.0797389553e+00
 1.9114552323e+00	 3.1661513684e-01	 2.2065361237e+00
 1.9170466853e+00	 2.8078150999e-01	 2.3506354857e+00
 1.9219381671e+00	 2.4507127884e-01	 2.5099215462e+00
 1.9261399002e+00	 2.0950258960e-01	 2.6820345021e+00
 1.9296626354e+00	 1.7409297343e-01	 2.8643843706e+00
 1.9325176159e+00	 1.3885933282e-01	 3.0541666388e+00
 1.9347165393e+00	 1.0381793028e-01	 3.2483792336e+00
 1.9362715216e+00	 6.8984379211e-02	 3.4438406144e+00
 1.9371950607e+00	 3.4373636968e-02	 3.6372087827e+00
 1.9375000000e+00	 0.0000000000e+00	 3.8250010098e+00
 0.0000000000e+00	 1.9375000000e+00	-1.2820153150e+00
 3.4373636968e-02	 1.9371950607e+00	-1.1860368388e+00
 6.8984379211e-02	 1.9362715216e+00	-1.0985170750e+00
 1.0381793028e-01	 1.9347165393e+00	-1.0212378814e+00
 1.3885933282e-01	 1.9325176159e+00	-9.5583375557e-01
 1.7409297343e-01	 1.9296626354e+00	-9.0377744204e-01
 2.0950258960e-01	 1.9261399002e+00	-8.6636613303e-01
 2.4507127884e-01	 1.9219381671e+00	-8.4470841044e-01
 2.8078150999e-01	 1.9170466853e+00	-8.3971208070e-01
 3.1661513684e-01	 1.9114552323e+00	-8.5207305295e-01
 3.5255341407e-01	 1.9051541513e+00	-8.8226540904e-01
 0.0000000000e+00	 1.9312500000e+00	-1.2364450805e+00
 3.4262754269e-02	 1.9309460443e+00	-1.1430893583e+00
 6.8761848957e-02	 1.9300254845e+00	-1.0597861047e+00
 1.0348303373e-01	 1.9284755182e+00	-9.8841084882e-01
 1.3841139949e-01	 1.9262836881e+00	-9.3069136240e-01
 1.7353138319e-01	 1.9234379173e+00	-8.8819288719e-01
 2.0882677480e-01	 1.9199265456e+00	-8.6230393275e-01
 2.4428072633e-01	 1.9157383666e+00	-8.5422279456e-01
 2.7987576319e-01	 1.9108626637e+00	-8.6494494463e-01
 3.1559379769e-01	 1.9052892477e+00	-8.9525144663e-01
 3.5141614499e-01	 1.8990084928e+00	-9.4569854531e-01
 0.0000000000e+00	 1.9250000000e+00	-1.1924247192e+00
 3.4151871570e-02	 1.9246970280e+00	-1.1014325981e+00
 6.8539318703e-02	 1.9237794473e+00	-1.0221001607e+00
 1.0314813719e-01	 1.9222344971e+00	-9.5639721712e-01
 1.3796346616e-01	 1.9200497603e+00	-9.0614540284e-01
 1.7296979296e-01	 1.9172131991e+00	-8.7300302295e-01
 2.0815095999e-01	 1.9137131911e+00	-8.5845044456e-01
 2.4349017382e-01	 1.9095385661e+00	-8.6377618829e-01
 2.7897001638e-01	 1.9046786422e+00	-8.9006387199e-01
 3.1457245854e-01	 1.8991232631e+00	-9.3818016004e-01
 3.5027887591e-01	 1.8928628342e+00	-1.0087638700e+00
 0.0000000000e+00	 1.9187500000e+00	-1.1499725076e+00
 3.4040988870e-02	 1.9184480117e+00	-1.0610823938e+00
 6.8316788449e-02	 1.9175334101e+00	-9.8547272585e-01
 1.0281324064e-01	 1.9159934760e+00	-9.2520821068e-01
 1.3751553283e-01	 1.9138158325e+00	-8.8220494259e-01
 1.7240820272e-01	 1.9109884809e+00	-8.5821486189e-01
 2.0747514519e-01	 1.9074998366e+00	-8.5481073917e-01
 2.4269962131e-01	 1.9033387655e+00	-8.7337183736e-01
 2.7806426958e-01	 1.8984946206e+00	-9.1507040590e-01
 3.1355111939e-01	 1.8929572784e+00	-9.8085916167e-01
 3.4914160684e-01	 1.8867171756e+00	-1.0714599101e+00
 0.0000000000e+00	 1.9125000000e+00	-1.1091069612e+00
 3.3930106171e-02	 1.9121989954e+00	-1.0220547898e+00
 6.8094258194e-02	 1.9112873730e+00	-9.4991746334e-01
 1.0247834409e-01	 1.9097524549e+00	-8.9485520702e-01
 1.3706759950e-01	 1.9075819047e+00	-8.5887917490e-01
 1.7184661249e-01	 1.9047637627e+00	-8.4383552015e-01
 2.0679933039e-01	 1.9012864821e+00	-8.5138996844e-01
 2.4190906880e-01	 1.8971389650e+00	-8.8301304795e-01
 2.7715852277e-01	 1.8923105990e+00	-9.3996613111e-01
 3.1252978024e-01	 1.8867912938e+00	-1.0232884446e+00
 3.4800433776e-01	 1.8805715171e+00	-1.1337852024e+00
 0.0000000000e+00	 1.9062500000e+00	-1.0698468385e+00
 3.3819223471e-02	 1.9059499790e+00	-9.8436604280e-01
 6.7871727938e-02	 1.9050413358e+00	-9.1544821966e-01
 1.0214344754e-01	 1.9035114338e+00	-8.6534973943e-01
 1.3661966617e-01	 1.9013479769e+00	-8.3617742272e-01
 1.7128502225e-01	 1.8985390445e+00	-8.2987221906e-01
 2.0612351558e-01	 1.8950731276e+00	-8.4819336671e-01
 2.4111851629e-01	 1.8909391644e+00	-8.9270318771e-01
 2.7625277597e-01	 1.8861265775e+00	-9.6475267461e-01
 3.1150844109e-01	 1.8806253092e+00	-1.0654680268e+00
 3.4686706868e-01	 1.8744258585e+00	-1.1824747038e+00
 0.0000000000e+00	 1.9000000000e+00	-1.0322111444e+00
 3.3708340771e-02	 1.8997009627e+00	-9.4803262561e-01
 6.7649197683e-02	 1.8987952986e+00	-8.8207902768e-01
 1.0180855099e-01	 1.8972704127e+00	-8.3670349947e-01
 1.3617173284e-01	 1.8951140491e+00	-8.1410914079e-01
 1.7072343201e-01	 1.8923143264e+00	-8.1633228695e-01
 2.0544770078e-01	 1.8888597730e+00	-8.4522625215e-01
 2.4032796377e-01	 1.8847393639e+00	-9.0244568676e-01
 2.7534702916e-01	 1.8799425559e+00	-9.8943170639e-01
 3.1048710194e-01	 1.8744593246e+00	-1.0955696575e+00
 3.4572979961e-01	 1.8682802000e+00	-1.1025736891e+00
 0.0000000000e+00	 1.8937500000e+00	-9.9621913517e-01
 3.3597458071e-02	 1.8934519464e+00	-9.1307123030e-01
 6.7426667427e-02	 1.8925492615e+00	-8.4982410967e-01
 1.0147365444e-01	 1.8910293916e+00	-8.0892833961e-01
 1.3572379951e-01	 1.8888801213e+00	-7.9268391785e-01
 1.7016184178e-01	 1.8860896082e+00	-8.0322316088e-01
 2.0477188597e-01	 1.8826464185e+00	-8.4249402813e-01
 2.3953741126e-01	 1.8785395634e+00	-9.1224403875e-01
 2.7444128235e-01	 1.8737585343e+00	-9.8857480857e-01
 3.0946576279e-01	 1.8682933400e+00	-1.0028806819e+00
 3.4459253053e-01	 1.8621345414e+00	-1.0232060560e+00
 0.0000000000e+00	 1.8875000000e+00	-9.6189032177e-01
 3.3486575371e-02	 1.8872029301e+00	-8.7949877208e-01
 6.7204137171e-02	 1.8863032243e+00	-8.1869788043e-01
 1.0113875789e-01	 1.8847883705e+00	-7.8203627590e-01
 1.3527586617e-01	 1.8826461935e+00	-7.7191147885e-01
 1.6960025154e-01	 1.8798648900e+00	-7.9055238842e-01
 2.0409607116e-01	 1.8764330640e+00	-8.4000218466e-01
 2.3874685875e-01	 1.8723397628e+00	-8.7175018526e-01
 2.7353553555e-01	 1.8675745128e+00	-8.8697471010e-01
 3.0844442364e-01	 1.8621273553e+00	-9.1090830177e-01
 3.4345526145e-01	 1.8559888829e+00	-9.4437706597e-01
 0.0000000000e+00	 1.8812500000e+00	-9.2924447460e-01
 3.3375692670e-02	 1.8809539137e+00	-8.4733239289e-01
 6.6981606914e-02	 1.8800571871e+00	-7.8871495054e-01
 1.0080386134e-01	 1.8785473494e+00	-7.5603949067e-01
 1.3482793284e-01	 1.8764122657e+00	-7.5180168718e-01
 1.6903866130e-01	 1.8736401718e+00	-7.5734772066e-01
 2.0342025636e-01	 1.8702197095e+00	-7.5547580850e-01
 2.3795630623e-01	 1.8661399623e+00	-7.6506413016e-01
 2.7262978874e-01	 1.8613904912e+00	-7.8628189121e-01
 3.0742308448e-01	 1.8559613707e+00	-8.1965838103e-01
 3.4231799237e-01	 1.8498432243e+00	-8.6609199067e-01
 0.0000000000e+00	 1.8750000000e+00	-8.9830162765e-01
 3.3264809970e-02	 1.8747048974e+00	-8.1459972143e-01
 6.6759076657e-02	 1.8738111500e+00	-7.4906295050e-01
 1.0046896479e-01	 1.8723063283e+00	-7.0042814019e-01
 1.3437999951e-01	 1.8701783379e+00	-6.6770156735e-01
 1.6847707106e-01	 1.8674154536e+00	-6.5017896784e-01
 2.0274444155e-01	 1.8640063550e+00	-6.4746379677e-01
 2.3716575372e-01	 1.8599401617e+00	-6.5948343744e-01
 2.7172404193e-01	 1.8552064696e+00	-6.8650305681e-01
 3.0640174533e-01	 1.8497953861e+00	-7.2913681073e-01
 3.4118072329e-01	 1.8436975658e+00	-7.8835611227e-01
 3.5255341407e-01	 1.9051541513e+00	-8.8226540904e-01
 3.8857703652e-01	 1.8981343791e+00	-8.9149327679e-01
 4.2466613983e-01	 1.8903874904e+00	-9.2681943256e-01
 4.6080030205e-01	 1.8819057417e+00	-9.8706064802e-01
 4.9695858983e-01	 1.8726820977e+00	-1.0098139071e+00
 5.3311958628e-01	 1.8627102651e+00	-8.4958021999e-01
 5.6926142136e-01	 1.8519847252e+00	-6.8685837026e-01
 6.0536180447e-01	 1.8405007650e+00	-5.2419559148e-01
 6.4139805943e-01	 1.8282545070e+00	-4.6531640018e-01
 6.7734716164e-01	 1.8152429372e+00	-5.4618876210e-01
 7.1318577734e-01	 1.8014639316e+00	-6.5249937746e-01
 3.5141614499e-01	 1.8990084928e+00	-9.4569854531e-01
 3.8732356221e-01	 1.8920113650e+00	-9.7839442104e-01
 4.2329624905e-01	 1.8842894662e+00	-1.0348904031e+00
 4.5931384946e-01	 1.8758350780e+00	-1.1139844609e+00
 4.9535549760e-01	 1.8666411877e+00	-9.9486949048e-01
 5.3139984568e-01	 1.8567015223e+00	-8.4823244523e-01
 5.6742509420e-01	 1.8460105809e+00	-6.9766596919e-01
 6.0340902446e-01	 1.8345636657e+00	-5.4565600443e-01
 6.3932903343e-01	 1.8223569118e+00	-4.8394247055e-01
 6.7516217080e-01	 1.8093873149e+00	-5.7266992046e-01
 7.1088517806e-01	 1.7956527577e+00	-6.8470881328e-01
 3.5027887591e-01	 1.8928628342e+00	-1.0087638700e+00
 3.8607008790e-01	 1.8858883509e+00	-1.0648993717e+00
 4.2192635828e-01	 1.8781914421e+00	-1.1425246058e+00
 4.5782739687e-01	 1.8697644143e+00	-1.1057338149e+00
 4.9375240538e-01	 1.8606002777e+00	-9.7989956135e-01
 5.2968010508e-01	 1.8506927795e+00	-8.4666728707e-01
 5.6558876703e-01	 1.8400364366e+00	-7.0804171917e-01
 6.0145624444e-01	 1.8286265665e+00	-5.6644811091e-01
 6.3726000744e-01	 1.8164593166e+00	-5.0142424600e-01
 6.7297717995e-01	 1.8035316925e+00	-5.9777529427e-01
 7.0858457877e-01	 1.7898415837e+00	-7.1529566041e-01
 3.4914160684e-01	 1.8867171756e+00	-1.0714599101e+00
 3.8481661359e-01	 1.8797653367e+00	-1.1510060546e+00
 4.2055646751e-01	 1.8720934179e+00	-1.1769692237e+00
 4.5634094429e-01	 1.8636937506e+00	-1.0761064685e+00
 4.9214931315e-01	 1.8545593677e+00	-9.6491029834e-01
 5.2796036448e-01	 1.8446840367e+00	-8.4489089394e-01
 5.6375243986e-01	 1.8340622923e+00	-7.1799162274e-01
 5.9950346443e-01	 1.8226894672e+00	-5.8657764861e-01
 6.3519098144e-01	 1.8105617214e+00	-5.1776197160e-01
 6.7079218910e-01	 1.7976760701e+00	-6.2150408904e-01
 7.0628397949e-01	 1.7840304097e+00	-7.4425794006e-01
 3.4800433776e-01	 1.8805715171e+00	-1.1337852024e+00
 3.8356313928e-01	 1.8736423226e+00	-1.2039193693e+00
 4.1918657673e-01	 1.8659953937e+00	-1.1316410592e+00
 4.5485449170e-01	 1.8576230869e+00	-1.0466345613e+00
 4.9054622092e-01	 1.8485184577e+00	-9.4990786252e-01
 5.2624062388e-01	 1.8386752939e+00	-8.4290938512e-01
 5.6191611270e-01	 1.8280881481e+00	-7.2752163982e-01
 5.9755068441e-01	 1.8167523680e+00	-6.0605029720e-01
 6.3312195544e-01	 1.8046641262e+00	-5.3295581710e-01
 6.6860719826e-01	 1.7918204477e+00	-6.4385541567e-01
 7.0398338021e-01	 1.7782192357e+00	-7.7159355769e-01
 3.4686706868e-01	 1.8744258585e+00	-1.1824747038e+00
 3.8230966497e-01	 1.8675193085e+00	-1.1418371388e+00
 4.1781668596e-01	 1.8598973696e+00	-1.0866191105e+00
 4.5336803911e-01	 1.8515524232e+00	-1.0173241736e+00
 4.8894312870e-01	 1.8424775477e+00	-9.3489839700e-01
 5.2452088328e-01	 1.8326665511e+00	-8.4072885027e-01
 5.6007978553e-01	 1.8221140038e+00	-7.3663768701e-01
 5.9559790439e-01	 1.8108152687e+00	-6.2487167740e-01
 6.3105292944e-01	 1.7987665310e+00	-5.4700587572e-01
 6.6642220741e-01	 1.7859648254e+00	-6.6482828902e-01
 7.0168278092e-01	 1.7724080618e+00	-7.9730030117e-01
 3.4572979961e-01	 1.8682802000e+00	-1.1025736891e+00
 3.8105619066e-01	 1.8613962943e+00	-1.0801872809e+00
 4.1644679519e-01	 1.8537993454e+00	-1.0419092825e+00
 4.5188158652e-01	 1.8454817596e+00	-9.8818137782e-01
 4.8734003647e-01	 1.8364366377e+00	-9.1988802672e-01
 5.2280114268e-01	 1.8266578083e+00	-8.3835534888e-01
 5.5824345836e-01	 1.8161398595e+00	-7.4534563691e-01
 5.9364512438e-01	 1.8048781695e+00	-6.4304735002e-01
 6.2898390344e-01	 1.7928689358e+00	-5.5991216287e-01
 6.6423721657e-01	 1.7801092030e+00	-6.8442162621e-01
 6.9938218164e-01	 1.7665968878e+00	-8.2137583880e-01
 3.4459253053e-01	 1.8621345414e+00	-1.0232060560e+00
 3.7980271635e-01	 1.8552732802e+00	-1.0189754282e+00
 4.1507690441e-01	 1.8477013213e+00	-9.9751747981e-01
 4.5039513394e-01	 1.8394110959e+00	-9.5921223760e-01
 4.8573694425e-01	 1.8303957277e+00	-9.0488285804e-01
 5.2108140207e-01	 1.8206490655e+00	-8.3579490986e-01
 5.5640713120e-01	 1.8101657152e+00	-7.5365131732e-01
 5.9169234436e-01	 1.7989410703e+00	-6.6058281496e-01
 6.2691487744e-01	 1.7869713407e+00	-5.7167461485e-01
 6.6205222572e-01	 1.7742535806e+00	-7.0263424508e-01
 6.9708158236e-01	 1.7607857138e+00	-8.4381771738e-01
 3.4345526145e-01	 1.8559888829e+00	-9.4437706597e-01
 3.7854924204e-01	 1.8491502661e+00	-9.5820721897e-01
 4.1370701364e-01	 1.8416032971e+00	-9.5344960675e-01
 4.4890868135e-01	 1.8333404322e+00	-9.3042280821e-01
 4.8413385202e-01	 1.8243548177e+00	-8.8988897854e-01
 5.1936166147e-01	 1.8146403227e+00	-8.3305353094e-01
 5.5457080403e-01	 1.8041915710e+00	-7.6156051060e-01
 5.8973956435e-01	 1.7930039710e+00	-6.7748351021e-01
 6.2484585144e-01	 1.7810737455e+00	-5.8331202121e-01
 6.5986723487e-01	 1.7683979582e+00	-7.1946486255e-01
 6.9478098307e-01	 1.7549745399e+00	-8.6462336017e-01
 3.4231799237e-01	 1.8498432243e+00	-8.6609199067e-01
 3.7729576772e-01	 1.8430272520e+00	-8.9788829776e-01
 4.1233712286e-01	 1.8355052729e+00	-9.0971156727e-01
 4.4742222876e-01	 1.8272697685e+00	-9.0181913614e-01
 4.8253075979e-01	 1.8183139077e+00	-8.7491245664e-01
 5.1764192087e-01	 1.8086315800e+00	-8.3013717825e-01
 5.5273447686e-01	 1.7982174267e+00	-7.6907895283e-01
 5.8778678433e-01	 1.7870668718e+00	-6.9375481081e-01
 6.2277682544e-01	 1.7751761503e+00	-6.0660000048e-01
 6.5768224403e-01	 1.7625423358e+00	-7.3491209290e-01
 6.9248038379e-01	 1.7491633659e+00	-8.8379006486e-01
 3.4118072329e-01	 1.8436975658e+00	-7.8835611227e-01
 3.7604229341e-01	 1.8369042378e+00	-8.3802431502e-01
 4.1096723209e-01	 1.8294072488e+00	-8.6630926494e-01
 4.4593577617e-01	 1.8211991048e+00	-8.7340725905e-01
 4.8092766757e-01	 1.8122729977e+00	-8.5995934131e-01
 5.1592218027e-01	 1.8026228372e+00	-8.2705178570e-01
 5.5089814970e-01	 1.7922432824e+00	-7.7621233308e-01
 5.8583400432e-01	 1.7811297725e+00	-7.0940202780e-01
 6.2070779944e-01	 1.7692785551e+00	-6.2900254449e-01
 6.5549725318e-01	 1.7566867135e+00	-7.4897444607e-01
 6.9017978450e-01	 1.7433521919e+00	-9.0131500144e-01
 7.1318577734e-01	 1.8014639316e+00	-6.5249937746e-01
 7.4888936635e-01	 1.7869166567e+00	-7.3305986785e-01
 7.8443498570e-01	 1.7716004938e+00	-8.0010945978e-01
 8.1979862937e-01	 1.7555161242e+00	-8.5727353209e-01
 8.5495615848e-01	 1.7386652016e+00	-9.0828266568e-01
 8.8988334938e-01	 1.7210503662e+00	-9.5694504599e-01
 9.2455594306e-01	 1.7026752568e+00	-1.0071174632e+00
 9.5894969571e-01	 1.6835445187e+00	-1.0626751526e+00
 9.9304043010e-01	 1.6636638099e+00	-1.1274807391e+00
 1.0268040878e+00	 1.6430398032e+00	-1.2053525688e+00
 1.0602167817e+00	 1.6216801860e+00	-1.3000327254e+00
 7.1088517806e-01	 1.7956527577e+00	-6.8470881328e-01
 7.4647359420e-01	 1.7811524094e+00	-7.6226995441e-01
 7.8190455026e-01	 1.7658856535e+00	-8.2727462721e-01
 8.1715411766e-01	 1.7498531690e+00	-8.8331058548e-01
 8.5219823539e-01	 1.7330566041e+00	-9.3406642402e-01
 8.8701275793e-01	 1.7154985909e+00	-9.8330418891e-01
 9.2157350453e-01	 1.6971827560e+00	-1.0348306157e+00
 9.5585630959e-01	 1.6781137299e+00	-1.0924672361e+00
 9.8983707388e-01	 1.6582971524e+00	-1.1600196155e+00
 1.0234918165e+00	 1.6377396749e+00	-1.2412460020e+00
 1.0567967275e+00	 1.6164489596e+00	-1.3398256819e+00
 7.0858457877e-01	 1.7898415837e+00	-7.1529566041e-01
 7.4405782205e-01	 1.7753881621e+00	-7.8977756205e-01
 7.7937411482e-01	 1.7601708132e+00	-8.5266430301e-01
 8.1450960595e-01	 1.7441902137e+00	-9.0750649746e-01
 8.4944031229e-01	 1.7274480067e+00	-9.5795123103e-01
 8.8414216648e-01	 1.7099468155e+00	-1.0077148762e+00
 9.1859106601e-01	 1.6916902551e+00	-1.0605545652e+00
 9.5276292347e-01	 1.6726829412e+00	-1.1202385605e+00
 9.8663371765e-01	 1.6529304950e+00	-1.1905157822e+00
 1.0201795453e+00	 1.6324395465e+00	-1.2750847712e+00
 1.0533766734e+00	 1.6112177332e+00	-1.3775623815e+00
 7.0628397949e-01	 1.7840304097e+00	-7.4425794006e-01
 7.4164204989e-01	 1.7696239149e+00	-8.1558115805e-01
 7.7684367938e-01	 1.7544559729e+00	-8.7627746144e-01
 8.1186509424e-01	 1.7385272585e+00	-9.2986080895e-01
 8.4668238920e-01	 1.7218394093e+00	-9.7993725280e-01
 8.8127157502e-01	 1.7043950401e+00	-1.0301779560e+00
 9.1560862748e-01	 1.6861977543e+00	-1.0842908975e+00
 9.4966953735e-01	 1.6672521524e+00	-1.1459915030e+00
 9.8343036142e-01	 1.6475638375e+00	-1.2189724591e+00
 1.0168672740e+00	 1.6271394181e+00	-1.3068729889e+00
 1.0499566193e+00	 1.6059865068e+00	-1.4132478768e+00
 7.0398338021e-01	 1.7782192357e+00	-7.7159355769e-01
 7.3922627774e-01	 1.7638596676e+00	-8.3967909416e-01
 7.7431324394e-01	 1.7487411326e+00	-8.9811296213e-01
 8.0922058253e-01	 1.7328643032e+00	-9.5037294808e-01
 8.4392446611e-01	 1.7162308119e+00	-1.0000245452e+00
 8.7840098357e-01	 1.6988432647e+00	-1.0506941698e+00
 9.1262618895e-01	 1.6807052535e+00	-1.1060410959e+00
 9.4657615124e-01	 1.6618213636e+00	-1.1697283428e+00
 9.8022700519e-01	 1.6421971801e+00	-1.2453927744e+00
 1.0135550028e+00	 1.6218392897e+00	-1.3366146824e+00
 1.0465365651e+00	 1.6007552804e+00	-1.4468871426e+00
 7.0168278092e-01	 1.7724080618e+00	-7.9730030117e-01
 7.3681050559e-01	 1.7580954203e+00	-8.6206960464e-01
 7.7178280850e-01	 1.7430262923e+00	-9.1816954824e-01
 8.0657607082e-01	 1.7272013480e+00	-9.6904222824e-01
 8.4116654301e-01	 1.7106222145e+00	-1.0182130520e+00
 8.7553039212e-01	 1.6932914894e+00	-1.0692641505e+00
 9.0964375042e-01	 1.6752127527e+00	-1.1258065392e+00
 9.4348276512e-01	 1.6563905748e+00	-1.1914512605e+00
 9.7702364896e-01	 1.6368305226e+00	-1.2697797634e+00
 1.0102427315e+00	 1.6165391613e+00	-1.3643137932e+00
 1.0431165110e+00	 1.5955240540e+00	-1.4784850755e+00
 6.9938218164e-01	 1.7665968878e+00	-8.2137583880e-01
 7.3439473344e-01	 1.7523311730e+00	-8.8275080436e-01
 7.6925237306e-01	 1.7373114520e+00	-9.3644584451e-01
 8.0393155911e-01	 1.7215383928e+00	-9.8586784630e-01
 8.3840861992e-01	 1.7050136170e+00	-1.0345026031e+00
 8.7265980067e-01	 1.6877397140e+00	-1.0858884206e+00
 9.0666131189e-01	 1.6697202518e+00	-1.1435885007e+00
 9.4038937900e-01	 1.6509597861e+00	-1.2111623357e+00
 9.7382029274e-01	 1.6314638652e+00	-1.2921363666e+00
 1.0069304603e+00	 1.6112390329e+00	-1.3899741750e+00
 1.0396964569e+00	 1.5902928276e+00	-1.5080464922e+00
 6.9708158236e-01	 1.7607857138e+00	-8.4381771738e-01
 7.3197896129e-01	 1.7465669257e+00	-9.0172068683e-01
 7.6672193762e-01	 1.7315966117e+00	-9.5294035533e-01
 8.0128704740e-01	 1.7158754375e+00	-1.0008488806e+00
 8.3565069682e-01	 1.6994050196e+00	-1.0488929127e+00
 8.6978920922e-01	 1.6821879386e+00	-1.1005673904e+00
 9.0367887336e-01	 1.6642277510e+00	-1.1593881456e+00
 9.3729599289e-01	 1.6455289973e+00	-1.2288635460e+00
 9.7061693651e-01	 1.6260972077e+00	-1.3124654287e+00
 1.0036181890e+00	 1.6059389045e+00	-1.4135995925e+00
 1.0362764027e+00	 1.5850616012e+00	-1.5355761284e+00
 6.9478098307e-01	 1.7549745399e+00	-8.6462336017e-01
 7.2956318913e-01	 1.7408026785e+00	-9.1897712217e-01
 7.6419150218e-01	 1.7258817714e+00	-9.6765146272e-01
 7.9864253569e-01	 1.7102124823e+00	-1.0139842891e+00
 8.3289277373e-01	 1.6937964222e+00	-1.0613835772e+00
 8.6691861776e-01	 1.6766361633e+00	-1.1133013563e+00
 9.0069643484e-01	 1.6587352502e+00	-1.1732065298e+00
 9.3420260677e-01	 1.6400982085e+00	-1.2445567646e+00
 9.6741358028e-01	 1.6207305503e+00	-1.3307696965e+00
 1.0003059178e+00	 1.6006387761e+00	-1.4351937197e+00
 1.0328563486e+00	 1.5798303748e+00	-1.5610786372e+00
 6.9248038379e-01	 1.7491633659e+00	-8.8379006486e-01
 7.2714741698e-01	 1.7350384312e+00	-9.3451785510e-01
 7.6166106674e-01	 1.7201669311e+00	-9.8057742433e-01
 7.9599802398e-01	 1.7045495271e+00	-1.0252729071e+00
 8.3013485063e-01	 1.6881878248e+00	-1.0719740736e+00
 8.6404802631e-01	 1.6710843879e+00	-1.1240904988e+00
 8.9771399631e-01	 1.6532427494e+00	-1.1850445981e+00
 9.3110922065e-01	 1.6346674198e+00	-1.2582437591e+00
 9.6421022405e-01	 1.6153638928e+00	-1.3470518174e+00
 9.9699364652e-01	 1.5953386477e+00	-1.4547601389e+00
 1.0294362945e+00	 1.5745991484e+00	-1.5845585879e+00
 6.9017978450e-01	 1.7433521919e+00	-9.0131500144e-01
 7.2473164483e-01	 1.7292741839e+00	-9.4834050280e-01
 7.5913063130e-01	 1.7144520908e+00	-9.9171637136e-01
 7.9335351227e-01	 1.6988865718e+00	-1.0347134457e+00
 8.2737692754e-01	 1.6825792273e+00	-1.0806637570e+00
 8.6117743486e-01	 1.6655326125e+00	-1.1329348804e+00
 8.9473155778e-01	 1.6477502485e+00	-1.1949031817e+00
 9.2801583454e-01	 1.6292366310e+00	-1.2699261897e+00
 9.6100686783e-01	 1.6099972354e+00	-1.3613143378e+00
 9.9368137527e-01	 1.5900385193e+00	-1.4723023385e+00
 1.0260162403e+00	 1.5693679220e+00	-1.6060204645e+00
 1.0602167817e+00	 1.6216801860e+00	-1.3000327254e+00
 1.0932556741e+00	 1.5995931101e+00	-1.3193619445e+00
 1.1258965111e+00	 1.5767888373e+00	-1.3751658037e+00
 1.1581162356e+00	 1.5532780615e+00	-1.4730257839e+00
 1.1898921728e+00	 1.5290724555e+00	-1.6182922590e+00
 1.2212020813e+00	 1.5041846535e+00	-1.8160459473e+00
 1.2520242043e+00	 1.4786282310e+00	-2.0433716535e+00
 1.2823373190e+00	 1.4524176814e+00	-1.9210381314e+00
 1.3121207842e+00	 1.4255683891e+00	-1.8229323006e+00
 1.3413545873e+00	 1.3980965999e+00	-1.7488951684e+00
 1.3700193885e+00	 1.3700193885e+00	-1.6987658953e+00
 1.0567967275e+00	 1.6164489596e+00	-1.3398256819e+00
 1.0897290428e+00	 1.5944331323e+00	-1.3570855702e+00
 1.1222645869e+00	 1.5717024217e+00	-1.4092313748e+00
 1.1543803768e+00	 1.5482674871e+00	-1.5017262631e+00
 1.1860538109e+00	 1.5241399637e+00	-1.6398084562e+00
 1.2172627197e+00	 1.4993324449e+00	-1.8284533568e+00
 1.2479854166e+00	 1.4738584625e+00	-2.0723373251e+00
 1.2782007470e+00	 1.4477324631e+00	-1.9684114206e+00
 1.3078881365e+00	 1.4209697814e+00	-1.8595861978e+00
 1.3370276370e+00	 1.3935866108e+00	-1.7732855981e+00
 1.3655999711e+00	 1.3655999711e+00	-1.7093436817e+00
 1.0533766734e+00	 1.6112177332e+00	-1.3775623815e+00
 1.0862024116e+00	 1.5892731545e+00	-1.3928700414e+00
 1.1186326626e+00	 1.5666160061e+00	-1.4414733046e+00
 1.1506445180e+00	 1.5432569127e+00	-1.5287170458e+00
 1.1822154491e+00	 1.5192074719e+00	-1.6597273479e+00
 1.2133233582e+00	 1.4944802363e+00	-1.8393743063e+00
 1.2439466288e+00	 1.4690886940e+00	-2.0722364456e+00
 1.2740641750e+00	 1.4430472447e+00	-2.0146803618e+00
 1.3036554888e+00	 1.4163711737e+00	-1.8952775609e+00
 1.3327006867e+00	 1.3890766218e+00	-1.7968435692e+00
 1.3611805538e+00	 1.3611805538e+00	-1.7192067360e+00
 1.0499566193e+00	 1.6059865068e+00	-1.4132478768e+00
 1.0826757804e+00	 1.5841131768e+00	-1.4267224507e+00
 1.1150007384e+00	 1.5615295905e+00	-1.4719006461e+00
 1.1469086592e+00	 1.5382463384e+00	-1.5540090596e+00
 1.1783770872e+00	 1.5142749801e+00	-1.6780616462e+00
 1.2093839966e+00	 1.4896280278e+00	-1.8488231979e+00
 1.2399078411e+00	 1.4643189255e+00	-2.0707744001e+00
 1.2699276030e+00	 1.4383620264e+00	-2.0598323677e+00
 1.2994228411e+00	 1.4117725660e+00	-1.9299946368e+00
 1.3283737364e+00	 1.3845666328e+00	-1.8195581157e+00
 1.3567611364e+00	 1.3567611364e+00	-1.7283448310e+00
 1.0465365651e+00	 1.6007552804e+00	-1.4468871426e+00
 1.0791491492e+00	 1.5789531990e+00	-1.4586498360e+00
 1.1113688142e+00	 1.5564431749e+00	-1.5005224184e+00
 1.1431728003e+00	 1.5332357640e+00	-1.5776132188e+00
 1.1745387254e+00	 1.5093424883e+00	-1.6948240698e+00
 1.2054446351e+00	 1.4847758192e+00	-1.8568144588e+00
 1.2358690533e+00	 1.4595491570e+00	-2.0679672245e+00
 1.2657910310e+00	 1.4336768081e+00	-2.1038549098e+00
 1.2951901935e+00	 1.4071739582e+00	-1.9637257474e+00
 1.3240467862e+00	 1.3800566437e+00	-1.8414183610e+00
 1.3523417190e+00	 1.3523417190e+00	-1.7367478425e+00
 1.0431165110e+00	 1.5955240540e+00	-1.4784850755e+00
 1.0756225180e+00	 1.5737932212e+00	-1.4886591788e+00
 1.1077368899e+00	 1.5513567593e+00	-1.5273476062e+00
 1.1394369415e+00	 1.5282251896e+00	-1.5995404244e+00
 1.1707003635e+00	 1.5044099965e+00	-1.7100273436e+00
 1.2015052735e+00	 1.4799236107e+00	-1.8633625416e+00
 1.2318302656e+00	 1.4547793885e+00	-2.0638309979e+00
 1.2616544590e+00	 1.4289915898e+00	-2.1467355202e+00
 1.2909575458e+00	 1.4025753505e+00	-1.9964592908e+00
 1.3197198359e+00	 1.3755466547e+00	-1.8624135193e+00
 1.3479223016e+00	 1.3479223016e+00	-1.7444057506e+00
 1.0396964569e+00	 1.5902928276e+00	-1.5080464922e+00
 1.0720958868e+00	 1.5686332435e+00	-1.5167574039e+00
 1.1041049657e+00	 1.5462703437e+00	-1.5523851594e+00
 1.1357010827e+00	 1.5232146152e+00	-1.6198015635e+00
 1.1668620017e+00	 1.4994775047e+00	-1.7236841992e+00
 1.1975659120e+00	 1.4750714021e+00	-1.8684819246e+00
 1.2277914778e+00	 1.4500096201e+00	-2.0583818434e+00
 1.2575178870e+00	 1.4243063714e+00	-2.1884617923e+00
 1.2867248981e+00	 1.3979767428e+00	-2.0281837423e+00
 1.3153928856e+00	 1.3710366657e+00	-1.8825328972e+00
 1.3435028842e+00	 1.3435028842e+00	-1.7513086417e+00
 1.0362764027e+00	 1.5850616012e+00	-1.5355761284e+00
 1.0685692556e+00	 1.5634732657e+00	-1.5429513782e+00
 1.1004730415e+00	 1.5411839281e+00	-1.5756439927e+00
 1.1319652239e+00	 1.5182040408e+00	-1.6384075092e+00
 1.1630236398e+00	 1.4945450130e+00	-1.7358073747e+00
 1.1936265504e+00	 1.4702191935e+00	-1.8721871124e+00
 1.2237526901e+00	 1.4452398516e+00	-2.0516359291e+00
 1.2533813150e+00	 1.4196211531e+00	-2.2290213814e+00
 1.2824922504e+00	 1.3933781351e+00	-2.0588876560e+00
 1.3110659353e+00	 1.3665266767e+00	-1.9017658952e+00
 1.3390834669e+00	 1.3390834669e+00	-1.7574467100e+00
 1.0328563486e+00	 1.5798303748e+00	-1.5610786372e+00
 1.0650426244e+00	 1.5583132879e+00	-1.5672479097e+00
 1.0968411172e+00	 1.5360975125e+00	-1.5971329845e+00
 1.1282293650e+00	 1.5131934664e+00	-1.6553691209e+00
 1.1591852780e+00	 1.4896125212e+00	-1.7464096150e+00
 1.1896871889e+00	 1.4653669850e+00	-1.8744926361e+00
 1.2197139023e+00	 1.4404700831e+00	-2.0436094685e+00
 1.2492447430e+00	 1.4149359348e+00	-2.2574744758e+00
 1.2782596027e+00	 1.3887795274e+00	-2.0885596657e+00
 1.3067389851e+00	 1.3620166876e+00	-1.9201020089e+00
 1.3346640495e+00	 1.3346640495e+00	-1.7628102594e+00
 1.0294362945e+00	 1.5745991484e+00	-1.5845585879e+00
 1.0615159932e+00	 1.5531533101e+00	-1.5896537469e+00
 1.0932091930e+00	 1.5310110969e+00	-1.6168609766e+00
 1.1244935062e+00	 1.5081828920e+00	-1.6706972431e+00
 1.1553469161e+00	 1.4846800294e+00	-1.7555036721e+00
 1.1857478273e+00	 1.4605147764e+00	-1.8754130542e+00
 1.2156751146e+00	 1.4357003146e+00	-2.0343187213e+00
 1.2451081711e+00	 1.4102507165e+00	-2.2358451045e+00
 1.2740269550e+00	 1.3841809197e+00	-2.1171884866e+00
 1.3024120348e+00	 1.3575066986e+00	-1.9375308314e+00
 1.3302446321e+00	 1.3302446321e+00	-1.7673897056e+00
 1.0260162403e+00	 1.5693679220e+00	-1.6060204645e+00
 1.0579893620e+00	 1.5479933324e+00	-1.6101755772e+00
 1.0895772688e+00	 1.5259246813e+00	-1.6348367738e+00
 1.1207576474e+00	 1.5031723176e+00	-1.6844027060e+00
 1.1515085543e+00	 1.4797475376e+00	-1.7631023046e+00
 1.1818084658e+00	 1.4556625679e+00	-1.8749629526e+00
 1.2116363268e+00	 1.4309305461e+00	-2.0237799943e+00
 1.2409715991e+00	 1.4055654981e+00	-2.2130878877e+00
 1.2697943073e+00	 1.3795823120e+00	-2.1447629166e+00
 1.2980850845e+00	 1.3529967096e+00	-1.9540420540e+00
 1.3258252147e+00	 1.3258252147e+00	-1.7711755773e+00
 1.3700193885e+00	 1.3700193885e+00	-1.6987658953e+00
 1.3980965856e+00	 1.3413546091e+00	-1.7031535223e+00
 1.4255683321e+00	 1.3121208711e+00	-1.6763012206e+00
 1.4524175536e+00	 1.2823375140e+00	-1.6167982585e+00
 1.4786280046e+00	 1.2520245501e+00	-1.5235056926e+00
 1.5041843009e+00	 1.2212026199e+00	-1.5621223569e+00
 1.5290719496e+00	 1.1898929459e+00	-1.5330131109e+00
 1.5532773756e+00	 1.1581172844e+00	-1.4276435993e+00
 1.5767879448e+00	 1.1258978759e+00	-1.2507577573e+00
 1.5995919851e+00	 1.0932573947e+00	-1.0069261212e+00
 1.6216788030e+00	 1.0602188972e+00	-7.0054173388e-01
 1.3655999711e+00	 1.3655999711e+00	-1.7093436817e+00
 1.3935865966e+00	 1.3370276587e+00	-1.7033364378e+00
 1.4209697246e+00	 1.3078882231e+00	-1.6665949172e+00
 1.4477323357e+00	 1.2782009414e+00	-1.5977727424e+00
 1.4738582368e+00	 1.2479857612e+00	-1.5097143318e+00
 1.4993320935e+00	 1.2172632566e+00	-1.5576724113e+00
 1.5241394595e+00	 1.1860545816e+00	-1.5249503980e+00
 1.5482668034e+00	 1.1543814222e+00	-1.4164623607e+00
 1.5717015321e+00	 1.1222659473e+00	-1.2369598867e+00
 1.5944320110e+00	 1.0897307579e+00	-9.9102405820e-01
 1.6164475810e+00	 1.0567988362e+00	-6.8306115272e-01
 1.3611805538e+00	 1.3611805538e+00	-1.7192067360e+00
 1.3890766076e+00	 1.3327007083e+00	-1.7027390352e+00
 1.4163711171e+00	 1.3036555751e+00	-1.6560425240e+00
 1.4430471178e+00	 1.2740643687e+00	-1.5778350227e+00
 1.4690884691e+00	 1.2439469723e+00	-1.5106190264e+00
 1.4944798861e+00	 1.2133238933e+00	-1.5543920556e+00
 1.5192069693e+00	 1.1822162172e+00	-1.5179890792e+00
 1.5432562312e+00	 1.1506455600e+00	-1.4063287719e+00
 1.5666151194e+00	 1.1186340186e+00	-1.2241703039e+00
 1.5892720368e+00	 1.0862041212e+00	-9.7610515570e-01
 1.6112163591e+00	 1.0533787752e+00	-6.6655261678e-01
 1.3567611364e+00	 1.3567611364e+00	-1.7283448310e+00
 1.3845666186e+00	 1.3283737580e+00	-1.7013501126e+00
 1.4117725095e+00	 1.2994229272e+00	-1.6446319453e+00
 1.4383618999e+00	 1.2699277961e+00	-1.5569721927e+00
 1.4643187013e+00	 1.2399081834e+00	-1.5128177845e+00
 1.4896276786e+00	 1.2093845300e+00	-1.5523223561e+00
 1.5142744792e+00	 1.1783778529e+00	-1.5121694163e+00
 1.5382456591e+00	 1.1469096978e+00	-1.3972822582e+00
 1.5615287067e+00	 1.1150020900e+00	-1.2124275681e+00
 1.5841120627e+00	 1.0826774844e+00	-9.6220707962e-01
 1.6059851371e+00	 1.0499587143e+00	-6.5105287330e-01
 1.3523417190e+00	 1.3523417190e+00	-1.7367478425e+00
 1.3800566296e+00	 1.3240468076e+00	-1.6991585616e+00
 1.4071739020e+00	 1.2951902792e+00	-1.6323511695e+00
 1.4336766820e+00	 1.2657912235e+00	-1.5351714211e+00
 1.4595489336e+00	 1.2358693946e+00	-1.5163525108e+00
 1.4847754712e+00	 1.2054451667e+00	-1.5515044394e+00
 1.5093419890e+00	 1.1745394885e+00	-1.5075317248e+00
 1.5332350869e+00	 1.1431738355e+00	-1.3893622930e+00
 1.5564422939e+00	 1.1113701614e+00	-1.2017702811e+00
 1.5789520885e+00	 1.0791508477e+00	-9.4936753315e-01
 1.6007539152e+00	 1.0465386533e+00	-6.3659870256e-01
 1.3479223016e+00	 1.3479223016e+00	-1.7444057506e+00
 1.3755466407e+00	 1.3197198573e+00	-1.6961533684e+00
 1.4025752945e+00	 1.2909576312e+00	-1.6191882705e+00
 1.4289914641e+00	 1.2616546509e+00	-1.5124199540e+00
 1.4547791658e+00	 1.2318306057e+00	-1.5212651791e+00
 1.4799232638e+00	 1.2015058034e+00	-1.5519794941e+00
 1.5044094988e+00	 1.1707011242e+00	-1.5041163754e+00
 1.5282245147e+00	 1.1394379733e+00	-1.3826083982e+00
 1.5513558812e+00	 1.1077382327e+00	-1.1922370875e+00
 1.5737921144e+00	 1.0756242109e+00	-9.3762425744e-01
 1.5955226933e+00	 1.0431185924e+00	-6.2322691845e-01
 1.3435028842e+00	 1.3435028842e+00	-1.7513086417e+00
 1.3710366517e+00	 1.3153929069e+00	-1.6923236158e+00
 1.3979766870e+00	 1.2867249833e+00	-1.6051314095e+00
 1.4243062461e+00	 1.2575180782e+00	-1.4887051158e+00
 1.4500093980e+00	 1.2277918168e+00	-1.5275978332e+00
 1.4750710564e+00	 1.1975664401e+00	-1.5537887712e+00
 1.4994770087e+00	 1.1668627598e+00	-1.5019637941e+00
 1.5232139425e+00	 1.1357021111e+00	-1.3770601449e+00
 1.5462694685e+00	 1.1041063041e+00	-1.1838666756e+00
 1.5686321403e+00	 1.0720975741e+00	-9.2701503221e-01
 1.5902914713e+00	 1.0396985314e+00	-6.1097436900e-01
 1.3390834669e+00	 1.3390834669e+00	-1.7574467100e+00
 1.3665266627e+00	 1.3110659566e+00	-1.6876584843e+00
 1.3933780795e+00	 1.2824923353e+00	-1.5901688361e+00
 1.4196210282e+00	 1.2533815056e+00	-1.4640143103e+00
 1.4452396303e+00	 1.2237530280e+00	-1.5353925887e+00
 1.4702188490e+00	 1.1936270768e+00	-1.5569735855e+00
 1.4945445185e+00	 1.1630243955e+00	-1.5011144638e+00
 1.5182033703e+00	 1.1319662489e+00	-1.3727571546e+00
 1.5411830558e+00	 1.1004743755e+00	-1.1766977780e+00
 1.5634721661e+00	 1.0685709374e+00	-9.1757767643e-01
 1.5850602494e+00	 1.0362784705e+00	-5.9987793692e-01
 1.3346640495e+00	 1.3346640495e+00	-1.7628102594e+00
 1.3620166737e+00	 1.3067390063e+00	-1.6821472541e+00
 1.3887794719e+00	 1.2782596873e+00	-1.5742888899e+00
 1.4149358103e+00	 1.2492449330e+00	-1.4458805772e+00
 1.4404698625e+00	 1.2197142391e+00	-1.5446916333e+00
 1.4653666415e+00	 1.1896877136e+00	-1.5615753164e+00
 1.4896120284e+00	 1.1591860312e+00	-1.5016089248e+00
 1.5131927982e+00	 1.1282303867e+00	-1.3697390995e+00
 1.5360966430e+00	 1.0968424468e+00	-1.1707691726e+00
 1.5583121920e+00	 1.0650443006e+00	-9.0935004888e-01
 1.5798290274e+00	 1.0328584095e+00	-5.8997454024e-01
 1.3302446321e+00	 1.3302446321e+00	-1.7673897056e+00
 1.3575066847e+00	 1.3024120559e+00	-1.6757793065e+00
 1.3841808644e+00	 1.2740270394e+00	-1.5574800019e+00
 1.4102505924e+00	 1.2451083604e+00	-1.4621137355e+00
 1.4357000948e+00	 1.2156754502e+00	-1.5555372287e+00
 1.4605144341e+00	 1.1857483503e+00	-1.5676354092e+00
 1.4846795382e+00	 1.1553476668e+00	-1.5034877760e+00
 1.5081822260e+00	 1.1244945245e+00	-1.3680457040e+00
 1.5310102303e+00	 1.0932105182e+00	-1.1661196830e+00
 1.5531522178e+00	 1.0615176639e+00	-9.0237004893e-01
 1.5745978055e+00	 1.0294383485e+00	-5.8130113283e-01
 1.3258252147e+00	 1.3258252147e+00	-1.7711755773e+00
 1.3529966958e+00	 1.2980851056e+00	-1.6685441258e+00
 1.3795822569e+00	 1.2697943914e+00	-1.5397306962e+00
 1.4055653745e+00	 1.2409717878e+00	-1.4800388765e+00
 1.4309303270e+00	 1.2116366614e+00	-1.5679717113e+00
 1.4556622267e+00	 1.1818089870e+00	-1.5751953762e+00
 1.4797470481e+00	 1.1515093025e+00	-1.5067916757e+00
 1.5031716538e+00	 1.1207586623e+00	-1.3677167451e+00
 1.5259238176e+00	 1.0895785896e+00	-1.1627881793e+00
 1.5479922437e+00	 1.0579910271e+00	-8.9667561710e-01
 1.5693665835e+00	 1.0260182876e+00	-5.7389470505e-01
 1.6216788030e+00	 1.0602188972e+00	-7.0054173388e-01
 1.6430386975e+00	 1.0268057696e+00	-4.5818999171e-01
 1.6636629710e+00	 9.9304167537e-01	-2.3954788324e-01
 1.6835439359e+00	 9.5895050221e-01	-4.5313125324e-02
 1.7026749194e+00	 9.2455630917e-01	 1.2421183042e-01
 1.7210502632e+00	 8.8988327406e-01	 2.6909023579e-01
 1.7386653219e+00	 8.5495564129e-01	 3.8971847394e-01
 1.7555164566e+00	 8.1979767045e-01	 4.8679097538e-01
 1.7716010272e+00	 7.8443358576e-01	 5.6126313450e-01
 1.7869173798e+00	 7.4888752669e-01	 6.1431274482e-01
 1.8014648333e+00	 7.1318349981e-01	 6.4730046978e-01
 1.6164475810e+00	 1.0567988362e+00	-6.8306115272e-01
 1.6377385727e+00	 1.0234934929e+00	-4.4445596643e-01
 1.6582963162e+00	 9.8983831513e-01	-2.2832972958e-01
 1.6781131491e+00	 9.5585711349e-01	-3.5429975129e-02
 1.6971824197e+00	 9.2157386946e-01	 1.3388270168e-01
 1.7154984882e+00	 8.8701268285e-01	 2.7960571561e-01
 1.7330567240e+00	 8.5219771986e-01	 4.0206259891e-01
 1.7498535003e+00	 8.1715316183e-01	 5.0186863456e-01
 1.7658861852e+00	 7.8190315484e-01	 5.7989452000e-01
 1.7811531302e+00	 7.4647176047e-01	 6.3722857160e-01
 1.7956536564e+00	 7.1088290787e-01	 6.7513797881e-01
 1.6112163591e+00	 1.0533787752e+00	-6.6655261678e-01
 1.6324384478e+00	 1.0201812162e+00	-4.3167946061e-01
 1.6529296615e+00	 9.8663495488e-01	-2.1805635777e-01
 1.6726823622e+00	 9.5276372478e-01	-2.6480363582e-02
 1.6916899199e+00	 9.1859142975e-01	 1.4263011135e-01
 1.7099467131e+00	 8.8414209164e-01	 2.8920700394e-01
 1.7274481262e+00	 8.4943979844e-01	 4.1350138183e-01
 1.7441905440e+00	 8.1450865321e-01	 5.1604978996e-01
 1.7601713431e+00	 7.7937272391e-01	 5.9763865737e-01
 1.7753888806e+00	 7.4405599426e-01	 6.5926726668e-01
 1.7898424795e+00	 7.0858231593e-01	 7.0210978755e-01
 1.6059851371e+00	 1.0499587143e+00	-6.5105287330e-01
 1.6271383230e+00	 1.0168689396e+00	-4.1989611314e-01
 1.6475630067e+00	 9.8343159464e-01	-2.0876216577e-01
 1.6672515753e+00	 9.4967033606e-01	-1.8497319395e-02
 1.6861974202e+00	 9.1560899004e-01	 1.5042252359e-01
 1.7043949381e+00	 8.8127150043e-01	 2.9786417642e-01
 1.7218395284e+00	 8.4668187701e-01	 4.2400662310e-01
 1.7385275877e+00	 8.1186414459e-01	 5.2930807439e-01
 1.7544565011e+00	 7.7684229299e-01	 6.1447111352e-01
 1.7696246310e+00	 7.4164022804e-01	 6.8040642675e-01
 1.7840313027e+00	 7.0628172400e-01	 7.2819561175e-01
 1.6007539152e+00	 1.0465386533e+00	-6.3659870256e-01
 1.6218381982e+00	 1.0135566629e+00	-4.0914159009e-01
 1.6421963520e+00	 9.8022823439e-01	-2.0048157199e-01
 1.6618207884e+00	 9.4657694734e-01	-1.1513884223e-02
 1.6807049204e+00	 9.1262655033e-01	 1.5722839794e-01
 1.6988431631e+00	 8.7840090922e-01	 3.0554731321e-01
 1.7162309306e+00	 8.4392395558e-01	 4.3355013756e-01
 1.7328646314e+00	 8.0921963598e-01	 5.4161714571e-01
 1.7487416591e+00	 7.7431186206e-01	 6.3036749185e-01
 1.7638603814e+00	 7.3922446182e-01	 7.0062369700e-01
 1.7782201258e+00	 7.0398113206e-01	 7.5337522835e-01
 1.5955226933e+00	 1.0431185924e+00	-6.2322691845e-01
 1.6165380734e+00	 1.0102443862e+00	-3.9945158516e-01
 1.6368296972e+00	 9.7702487415e-01	-1.9324901568e-01
 1.6563900015e+00	 9.4348355862e-01	-5.5631128790e-03
 1.6752124207e+00	 9.0964411062e-01	 1.6301618932e-01
 1.6932913880e+00	 8.7553031801e-01	 3.1222649913e-01
 1.7106223328e+00	 8.4116603416e-01	 4.4210375475e-01
 1.7272016751e+00	 8.0657512736e-01	 5.5295068732e-01
 1.7430268171e+00	 7.7178143114e-01	 6.4530343278e-01
 1.7580961318e+00	 7.3680869560e-01	 7.1989677191e-01
 1.7724089489e+00	 7.0168054012e-01	 7.7762847648e-01
 1.5902914713e+00	 1.0396985314e+00	-6.1097436900e-01
 1.6112379485e+00	 1.0069321095e+00	-3.9086182017e-01
 1.6314630425e+00	 9.7382151390e-01	-1.8709895726e-01
 1.6509592146e+00	 9.4039016990e-01	-6.7807354573e-04
 1.6697199210e+00	 9.0666167092e-01	 1.6775434786e-01
 1.6877396130e+00	 8.7265972680e-01	 3.1787182369e-01
 1.7050137350e+00	 8.3840811273e-01	 4.4963931912e-01
 1.7215387188e+00	 8.0393061874e-01	 5.6328240855e-01
 1.7373119751e+00	 7.6925100021e-01	 6.5925461442e-01
 1.7523318822e+00	 7.3439292939e-01	 7.3820339603e-01
 1.7665977720e+00	 6.9937994819e-01	 8.0093525849e-01
 1.5850602494e+00	 1.0362784705e+00	-5.9987793692e-01
 1.6059378237e+00	 1.0036198328e+00	-3.8340804545e-01
 1.6260963878e+00	 9.7061815366e-01	-1.8206587863e-01
 1.6455284277e+00	 9.3729678118e-01	 3.1081520003e-03
 1.6642274212e+00	 9.0367923121e-01	 1.7141131890e-01
 1.6821878379e+00	 8.6978913559e-01	 3.2245338115e-01
 1.6994051372e+00	 8.3565019131e-01	 4.5612869033e-01
 1.7158757625e+00	 8.0128611013e-01	 5.7258604508e-01
 1.7315971330e+00	 7.6672056929e-01	 6.7219675314e-01
 1.7465676326e+00	 7.3197716317e-01	 7.5552136489e-01
 1.7607865951e+00	 6.9707935625e-01	 8.2327554099e-01
 1.5798290274e+00	 1.0328584095e+00	-5.8997454024e-01
 1.6006376989e+00	 1.0003075562e+00	-3.7712604041e-01
 1.6207297330e+00	 9.6741479341e-01	-1.7818428360e-01
 1.6400976408e+00	 9.3420339246e-01	 5.7624681649e-03
 1.6587349215e+00	 9.0069679150e-01	 1.7395554285e-01
 1.6766360629e+00	 8.6691854439e-01	 3.2594127067e-01
 1.6937965394e+00	 8.3289226988e-01	 4.6154374346e-01
 1.7102128062e+00	 7.9864160151e-01	 5.8083535938e-01
 1.7258822910e+00	 7.6419013837e-01	 6.8410560424e-01
 1.7408033829e+00	 7.2956139695e-01	 7.7182852575e-01
 1.7549754182e+00	 6.9477876431e-01	 8.4462935592e-01
 1.5745978055e+00	 1.0294383485e+00	-5.8130113283e-01
 1.5953375740e+00	 9.9699527949e-01	-3.7205161393e-01
 1.6153630783e+00	 9.6421143317e-01	-1.7548869817e-01
 1.6346668540e+00	 9.3111000375e-01	 7.2517653064e-03
 1.6532424218e+00	 8.9771435179e-01	 1.7535545516e-01
 1.6710842879e+00	 8.6404795318e-01	 3.2830559632e-01
 1.6881879416e+00	 8.3013434845e-01	 4.6585636925e-01
 1.7045498498e+00	 7.9599709289e-01	 5.8800414116e-01
 1.7201674490e+00	 7.6165970744e-01	 6.9495696259e-01
 1.7350391333e+00	 7.2714563073e-01	 7.8710277852e-01
 1.7491642414e+00	 6.9247817238e-01	 8.6497680161e-01
 1.5693665835e+00	 1.0260182876e+00	-5.7389470505e-01
 1.5900374492e+00	 9.9368300282e-01	-3.6822060492e-01
 1.6099964235e+00	 9.6100807293e-01	-1.7401367097e-01
 1.6292360671e+00	 9.2801661503e-01	 7.5429195018e-03
 1.6477499220e+00	 8.9473191208e-01	 1.7557948620e-01
 1.6655325128e+00	 8.6117736197e-01	 3.2951646717e-01
 1.6825793437e+00	 8.2737642703e-01	 4.6903847444e-01
 1.6988868935e+00	 7.9335258428e-01	 5.9406620785e-01
 1.7144526070e+00	 7.5912927652e-01	 7.0472666327e-01
 1.7292748837e+00	 7.2472986452e-01	 8.0132207663e-01
 1.7433530645e+00	 6.9017758044e-01	 8.8429804393e-01
 1.8014648333e+00	 7.1318349981e-01	 6.4730046978e-01
 1.8152436616e+00	 6.7734533215e-01	 7.5867285005e-01
 1.8282550746e+00	 6.4139662622e-01	 9.4405767916e-01
 1.8405011960e+00	 6.0536071674e-01	 1.1218337686e+00
 1.8519850393e+00	 5.6926062935e-01	 1.2822068464e+00
 1.8627104815e+00	 5.3311904130e-01	 1.4778577263e+00
 1.8726822350e+00	 4.9695824428e-01	 1.6993921356e+00
 1.8819058183e+00	 4.6080010953e-01	 1.7936979786e+00
 1.8903875242e+00	 4.2466605509e-01	 1.8649532687e+00
 1.8981343875e+00	 3.8857701555e-01	 1.9605815482e+00
 1.9051541513e+00	 3.5255341407e-01	 2.0797389553e+00
 1.7956536564e+00	 7.1088290787e-01	 6.7513797881e-01
 1.8093880369e+00	 6.7516034721e-01	 7.9156859333e-01
 1.8223574776e+00	 6.3932760484e-01	 9.7954661535e-01
 1.8345640954e+00	 6.0340794024e-01	 1.1469353694e+00
 1.8460108940e+00	 5.6742430474e-01	 1.3014889584e+00
 1.8567017380e+00	 5.3139930245e-01	 1.4898748718e+00
 1.8666413246e+00	 4.9535515317e-01	 1.7028276420e+00
 1.8758351544e+00	 4.5931365756e-01	 1.9143068456e+00
 1.8842894999e+00	 4.2329616459e-01	 1.9745891653e+00
 1.8920113733e+00	 3.8732354131e-01	 2.0568940268e+00
 1.8990084928e+00	 3.5141614499e-01	 2.1603982997e+00
 1.7898424795e+00	 7.0858231593e-01	 7.0210978755e-01
 1.8035324122e+00	 6.7297536226e-01	 8.2363675790e-01
 1.8164598806e+00	 6.3725858347e-01	 1.0142293476e+00
 1.8286269948e+00	 6.0145516373e-01	 1.1709520692e+00
 1.8400367487e+00	 5.6558798013e-01	 1.3199740199e+00
 1.8506929945e+00	 5.2967956361e-01	 1.5013580934e+00
 1.8606004142e+00	 4.9375206206e-01	 1.7059666583e+00
 1.8697644905e+00	 4.5782720560e-01	 1.9254206256e+00
 1.8781914757e+00	 4.2192627409e-01	 2.0850742560e+00
 1.8858883592e+00	 3.8607006707e-01	 2.1540527655e+00
 1.8928628342e+00	 3.5027887591e-01	 2.2418906039e+00
 1.7840313027e+00	 7.0628172400e-01	 7.2819561175e-01
 1.7976767875e+00	 6.7079037732e-01	 8.5485950486e-01
 1.8105622836e+00	 6.3518956209e-01	 1.0480903729e+00
 1.8226898941e+00	 5.9950238722e-01	 1.1939066138e+00
 1.8340626035e+00	 5.6375165552e-01	 1.3376842238e+00
 1.8446842510e+00	 5.2795982477e-01	 1.5123289424e+00
 1.8545595037e+00	 4.9214897095e-01	 1.7088300106e+00
 1.8636938265e+00	 4.5634075363e-01	 1.9189316267e+00
 1.8720934514e+00	 4.2055638359e-01	 2.1351669610e+00
 1.8797653450e+00	 3.8481659282e-01	 2.2520638885e+00
 1.8867171756e+00	 3.4914160684e-01	 2.3242225704e+00
 1.7782201258e+00	 7.0398113206e-01	 7.5337522835e-01
 1.7918211627e+00	 6.6860539237e-01	 8.8521907298e-01
 1.8046646866e+00	 6.3312054072e-01	 1.0811142809e+00
 1.8167527935e+00	 5.9754961072e-01	 1.2158218540e+00
 1.8280884582e+00	 5.6191533090e-01	 1.3546418792e+00
 1.8386755075e+00	 5.2624008592e-01	 1.5228090953e+00
 1.8485185933e+00	 4.9054587984e-01	 1.7114386576e+00
 1.8576231626e+00	 4.5485430167e-01	 1.9123972200e+00
 1.8659954271e+00	 4.1918649309e-01	 2.1183363156e+00
 1.8736423309e+00	 3.8356311858e-01	 2.3227172569e+00
 1.8805715171e+00	 3.4800433776e-01	 2.4074010463e+00
 1.7724089489e+00	 7.0168054012e-01	 7.7762847648e-01
 1.7859655380e+00	 6.6642040743e-01	 9.1469778002e-01
 1.7987670895e+00	 6.3105151934e-01	 1.1132857548e+00
 1.8108156929e+00	 5.9559683421e-01	 1.2367207477e+00
 1.8221143129e+00	 5.6007900629e-01	 1.3708694133e+00
 1.8326667640e+00	 5.2452034708e-01	 1.5328203563e+00
 1.8424776829e+00	 4.8894278873e-01	 1.7138136931e+00
 1.8515524987e+00	 4.5336784970e-01	 1.9058377070e+00
 1.8598974028e+00	 4.1781660259e-01	 2.1016615949e+00
 1.8675193167e+00	 3.8230964434e-01	 2.2948598102e+00
 1.8744258585e+00	 3.4686706868e-01	 2.4798282084e+00
 1.7665977720e+00	 6.9937994819e-01	 8.0093525849e-01
 1.7801099133e+00	 6.6423542249e-01	 9.4327802399e-01
 1.7928694925e+00	 6.2898249796e-01	 1.1445895735e+00
 1.8048785922e+00	 5.9364405770e-01	 1.2566263612e+00
 1.8161401676e+00	 5.5824268168e-01	 1.3863893733e+00
 1.8266580205e+00	 5.2280060824e-01	 1.5423846590e+00
 1.8364367724e+00	 4.8733969762e-01	 1.7159763480e+00
 1.8454818347e+00	 4.5188139773e-01	 1.8992735318e+00
 1.8537993786e+00	 4.1644671209e-01	 2.0851623778e+00
 1.8613963026e+00	 3.8105617009e-01	 2.2673299142e+00
 1.8682802000e+00	 3.4572979961e-01	 2.4402796936e+00
 1.7607865951e+00	 6.9707935625e-01	 8.2327554099e-01
 1.7742542886e+00	 6.6205043754e-01	 9.7094228450e-01
 1.7869718955e+00	 6.2691347659e-01	 1.1750106128e+00
 1.7989414916e+00	 5.9169128119e-01	 1.2755618716e+00
 1.8101660223e+00	 5.5640635707e-01	 1.4012244284e+00
 1.8206492770e+00	 5.2108086939e-01	 1.5515240685e+00
 1.8303958620e+00	 4.8573660651e-01	 1.7179479925e+00
 1.8394111708e+00	 4.5039494577e-01	 1.8927252840e+00
 1.8477013543e+00	 4.1507682159e-01	 2.0688583924e+00
 1.8552732884e+00	 3.7980269585e-01	 2.2401463601e+00
 1.8621345414e+00	 3.4459253053e-01	 2.4012000028e+00
 1.7549754182e+00	 6.9477876431e-01	 8.4462935592e-01
 1.7683986639e+00	 6.5986545260e-01	 9.9767312408e-01
 1.7810742985e+00	 6.2484445521e-01	 1.2038108100e+00
 1.7930043910e+00	 5.8973850469e-01	 1.2935505681e+00
 1.8041918770e+00	 5.5457003246e-01	 1.4153973720e+00
 1.8146405336e+00	 5.1936113055e-01	 1.5602607840e+00
 1.8243549515e+00	 4.8413351540e-01	 1.7197501384e+00
 1.8333405069e+00	 4.4890849380e-01	 1.8862137005e+00
 1.8416033300e+00	 4.1370693109e-01	 2.0527695185e+00
 1.8491502743e+00	 3.7854922160e-01	 2.2133280931e+00
 1.8559888829e+00	 3.4345526145e-01	 2.3626070741e+00
 1.7491642414e+00	 6.9247817238e-01	 8.6497680161e-01
 1.7625430392e+00	 6.5768046765e-01	 1.0234531896e+00
 1.7751767015e+00	 6.2277543383e-01	 1.2226384441e+00
 1.7870672903e+00	 5.8778572818e-01	 1.3106158542e+00
 1.7982177317e+00	 5.5273370784e-01	 1.4289311235e+00
 1.8086317901e+00	 5.1764139170e-01	 1.5686171406e+00
 1.8183140411e+00	 4.8253042428e-01	 1.7214044418e+00
 1.8272698429e+00	 4.4742204183e-01	 1.8797596686e+00
 1.8355053057e+00	 4.1233704059e-01	 2.0369157900e+00
 1.8430272601e+00	 3.7729574736e-01	 2.1868942145e+00
 1.8498432243e+00	 3.4231799237e-01	 2.3245190020e+00
 1.7433530645e+00	 6.9017758044e-01	 8.8429804393e-01
 1.7566874145e+00	 6.5549548271e-01	 1.0482652137e+00
 1.7692791045e+00	 6.2070641246e-01	 1.2402580046e+00
 1.7811301897e+00	 5.8583295167e-01	 1.3267812492e+00
 1.7922435864e+00	 5.5089738323e-01	 1.4418487303e+00
 1.8026230466e+00	 5.1592165286e-01	 1.5766156118e+00
 1.8122731307e+00	 4.8092733317e-01	 1.7229327051e+00
 1.8211991790e+00	 4.4593558986e-01	 1.8733842280e+00
 1.8294072815e+00	 4.1096715009e-01	 2.0213173976e+00
 1.8369042459e+00	 3.7604227311e-01	 2.1608639848e+00
 1.8436975658e+00	 3.4118072329e-01	 2.2869540406e+00
 1.9051541513e+00	 3.5255341407e-01	 2.0797389553e+00
 1.9114552323e+00	 3.1661513684e-01	 2.2065361237e+00
 1.9170466853e+00	 2.8078150999e-01	 2.3506354857e+00
 1.9219381671e+00	 2.4507127884e-01	 2.5099215462e+00
 1.9261399002e+00	 2.0950258960e-01	 2.6820345021e+00
 1.9296626354e+00	 1.7409297343e-01	 2.8643843706e+00
 1.9325176159e+00	 1.3885933282e-01	 3.0541666388e+00
 1.9347165393e+00	 1.0381793028e-01	 3.2483792336e+00
 1.9362715216e+00	 6.8984379211e-02	 3.4438406144e+00
 1.9371950607e+00	 3.4373636968e-02	 3.6372087827e+00
 1.9375000000e+00	 0.0000000000e+00	 3.8250010098e+00
 1.8990084928e+00	 3.5141614499e-01	 2.1603982997e+00
 1.9052892477e+00	 3.1559379769e-01	 2.2723915160e+00
 1.9108626637e+00	 2.7987576319e-01	 2.4028315789e+00
 1.9157383666e+00	 2.4428072633e-01	 2.5496151057e+00
 1.9199265456e+00	 2.0882677480e-01	 2.7103921965e+00
 1.9234379173e+00	 1.7353138319e-01	 2.8825806828e+00
 1.9262836881e+00	 1.3841139949e-01	 3.0633818889e+00
 1.9284755182e+00	 1.0348303373e-01	 3.2497977092e+00
 1.9300254845e+00	 6.8761848957e-02	 3.4386487994e+00
 1.9309460443e+00	 3.4262754269e-02	 3.6265936802e+00
 1.9312500000e+00	 0.0000000000e+00	 3.8101485516e+00
 1.8928628342e+00	 3.5027887591e-01	 2.2418906039e+00
 1.8991232631e+00	 3.1457245854e-01	 2.3389447373e+00
 1.9046786422e+00	 2.7897001638e-01	 2.4556037602e+00
 1.9095385661e+00	 2.4349017382e-01	 2.5897765885e+00
 1.9137131911e+00	 2.0815095999e-01	 2.7391233615e+00
 1.9172131991e+00	 1.7296979296e-01	 2.9010698115e+00
 1.9200497603e+00	 1.3796346616e-01	 3.0728231383e+00
 1.9222344971e+00	 1.0314813719e-01	 3.2513891952e+00
 1.9237794473e+00	 6.8539318703e-02	 3.4335907809e+00
 1.9246970280e+00	 3.4151871570e-02	 3.6160868383e+00
 1.9250000000e+00	 0.0000000000e+00	 3.7953923576e+00
 1.8867171756e+00	 3.4914160684e-01	 2.3242225704e+00
 1.8929572784e+00	 3.1355111939e-01	 2.4062018260e+00
 1.8984946206e+00	 2.7806426958e-01	 2.5089574786e+00
 1.9033387655e+00	 2.4269962131e-01	 2.6304109278e+00
 1.9074998366e+00	 2.0747514519e-01	 2.7682324873e+00
 1.9109884809e+00	 1.7240820272e-01	 2.9198558749e+00
 1.9138158325e+00	 1.3751553283e-01	 3.0824942032e+00
 1.9159934760e+00	 1.0281324064e-01	 3.2531572743e+00
 1.9175334101e+00	 6.8316788449e-02	 3.4286699746e+00
 1.9184480117e+00	 3.4040988870e-02	 3.6056915710e+00
 1.9187500000e+00	 0.0000000000e+00	 3.7807357042e+00
 1.8805715171e+00	 3.4800433776e-01	 2.4074010463e+00
 1.8867912938e+00	 3.1252978024e-01	 2.4741689488e+00
 1.8923105990e+00	 2.7715852277e-01	 2.5628982969e+00
 1.8971389650e+00	 2.4190906880e-01	 2.6715231579e+00
 1.9012864821e+00	 2.0679933039e-01	 2.7977241529e+00
 1.9047637627e+00	 1.7184661249e-01	 2.9389430694e+00
 1.9075819047e+00	 1.3706759950e-01	 3.0923989684e+00
 1.9097524549e+00	 1.0247834409e-01	 3.2551055892e+00
 1.9112873730e+00	 6.8094258194e-02	 3.4238898496e+00
 1.9121989954e+00	 3.3930106171e-02	 3.5954112402e+00
 1.9125000000e+00	 0.0000000000e+00	 3.7661819108e+00
 1.8744258585e+00	 3.4686706868e-01	 2.4798282084e+00
 1.8806253092e+00	 3.1150844109e-01	 2.5428524037e+00
 1.8861265775e+00	 2.7625277597e-01	 2.6174318943e+00
 1.8909391644e+00	 2.4111851629e-01	 2.7131184153e+00
 1.8950731276e+00	 2.0612351558e-01	 2.8276030278e+00
 1.8985390445e+00	 1.7128502225e-01	 2.9583356711e+00
 1.9013479769e+00	 1.3661966617e-01	 3.1025413887e+00
 1.9035114338e+00	 1.0214344754e-01	 3.2572378445e+00
 1.9050413358e+00	 6.7871727938e-02	 3.4192539293e+00
 1.9059499790e+00	 3.3819223471e-02	 3.5852492558e+00
 1.9062500000e+00	 0.0000000000e+00	 3.7517343401e+00
 1.8682802000e+00	 3.4572979961e-01	 2.4402796936e+00
 1.8744593246e+00	 3.1048710194e-01	 2.6017877613e+00
 1.8799425559e+00	 2.7534702916e-01	 2.6725640678e+00
 1.8847393639e+00	 2.4032796377e-01	 2.7552019413e+00
 1.8888597730e+00	 2.0544770078e-01	 2.8578738734e+00
 1.8923143264e+00	 1.7072343201e-01	 2.9780380368e+00
 1.8951140491e+00	 1.3617173284e-01	 3.1129254899e+00
 1.8972704127e+00	 1.0180855099e-01	 3.2595578069e+00
 1.8987952986e+00	 6.7649197683e-02	 3.4147657921e+00
 1.8997009627e+00	 3.3708340771e-02	 3.5752090770e+00
 1.9000000000e+00	 0.0000000000e+00	 3.7373963993e+00
 1.8621345414e+00	 3.4459253053e-01	 2.4012000028e+00
 1.8682933400e+00	 3.0946576279e-01	 2.5523580194e+00
 1.8737585343e+00	 2.7444128235e-01	 2.7056431947e+00
 1.8785395634e+00	 2.3953741126e-01	 2.7977790830e+00
 1.8826464185e+00	 2.0477188597e-01	 2.8885415446e+00
 1.8860896082e+00	 1.7016184178e-01	 2.9980546054e+00
 1.8888801213e+00	 1.3572379951e-01	 3.1235553700e+00
 1.8910293916e+00	 1.0147365444e-01	 3.2620693069e+00
 1.8925492615e+00	 6.7426667427e-02	 3.4104290726e+00
 1.8934519464e+00	 3.3597458071e-02	 3.5652942128e+00
 1.8937500000e+00	 0.0000000000e+00	 3.7231715403e+00
 1.8559888829e+00	 3.4345526145e-01	 2.3626070741e+00
 1.8621273553e+00	 3.0844442364e-01	 2.5033887987e+00
 1.8675745128e+00	 2.7353553555e-01	 2.6490204673e+00
 1.8723397628e+00	 2.3874685875e-01	 2.7959706120e+00
 1.8764330640e+00	 2.0409607116e-01	 2.9196109915e+00
 1.8798648900e+00	 1.6960025154e-01	 3.0183898996e+00
 1.8826461935e+00	 1.3527586617e-01	 3.1344352004e+00
 1.8847883705e+00	 1.0113875789e-01	 3.2647762394e+00
 1.8863032243e+00	 6.7204137171e-02	 3.4062474625e+00
 1.8872029301e+00	 3.3486575371e-02	 3.5555082231e+00
 1.8875000000e+00	 0.0000000000e+00	 3.7090632609e+00
 1.8498432243e+00	 3.4231799237e-01	 2.3245190020e+00
 1.8559613707e+00	 3.0742308448e-01	 2.4548959348e+00
 1.8613904912e+00	 2.7262978874e-01	 2.5928407994e+00
 1.8661399623e+00	 2.3795630623e-01	 2.7348751068e+00
 1.8702197095e+00	 2.0342025636e-01	 2.8782405256e+00
 1.8736401718e+00	 1.6903866130e-01	 3.0208846722e+00
 1.8764122657e+00	 1.3482793284e-01	 3.1455692271e+00
 1.8785473494e+00	 1.0080386134e-01	 3.2676825650e+00
 1.8800571871e+00	 6.6981606914e-02	 3.4022247112e+00
 1.8809539137e+00	 3.3375692670e-02	 3.5458547191e+00
 1.8812500000e+00	 0.0000000000e+00	 3.6950751055e+00
 1.8436975658e+00	 3.4118072329e-01	 2.2869540406e+00
 1.8497953861e+00	 3.0640174533e-01	 2.4068954048e+00
 1.8552064696e+00	 2.7172404193e-01	 2.5371180697e+00
 1.8599401617e+00	 2.3716575372e-01	 2.6741961808e+00
 1.8640063550e+00	 2.0274444155e-01	 2.8154076854e+00
 1.8674154536e+00	 1.6847707106e-01	 2.9587205886e+00
 1.8701783379e+00	 1.3437999951e-01	 3.1027739271e+00
 1.8723063283e+00	 1.0046896479e-01	 3.2468539666e+00
 1.8738111500e+00	 6.6759076657e-02	 3.3908661451e+00
 1.8747048974e+00	 3.3264809970e-02	 3.5353032934e+00
 1.8750000000e+00	 0.0000000000e+00	 3.6812106654e+00
 0.0000000000e+00	 1.8750000000e+00	-8.9830162765e-01
 3.3264809970e-02	 1.8747048974e+00	-8.1459972143e-01
 6.6759076657e-02	 1.8738111500e+00	-7.4906295050e-01
 1.0046896479e-01	 1.8723063283e+00	-7.0042814019e-01
 1.3437999951e-01	 1.8701783379e+00	-6.6770156735e-01
 1.6847707106e-01	 1.8674154536e+00	-6.5017896784e-01
 2.0274444155e-01	 1.8640063550e+00	-6.4746379677e-01
 2.3716575372e-01	 1.8599401617e+00	-6.5948343744e-01
 2.7172404193e-01	 1.8552064696e+00	-6.8650305681e-01
 3.0640174533e-01	 1.8497953861e+00	-7.2913681073e-01
 3.4118072329e-01	 1.8436975658e+00	-7.8835611227e-01
 0.0000000000e+00	 1.8687500000e+00	-8.5791872687e-01
 3.3153927269e-02	 1.8684558811e+00	-7.8326635839e-01
 6.6536546401e-02	 1.8675651128e+00	-7.2552161530e-01
 1.0013406824e-01	 1.8660653072e+00	-6.8341093136e-01
 1.3393206617e-01	 1.8639444102e+00	-6.5593114907e-01
 1.6791548082e-01	 1.8611907355e+00	-6.4236958934e-01
 2.0206862674e-01	 1.8577930005e+00	-6.4232238603e-01
 2.3637520120e-01	 1.8537403612e+00	-6.5571078262e-01
 2.7081829512e-01	 1.8490224481e+00	-6.8279508979e-01
 3.0538040618e-01	 1.8436294015e+00	-7.2418600806e-01
 3.4004345421e-01	 1.8375519072e+00	-7.8085302972e-01
 0.0000000000e+00	 1.8625000000e+00	-8.1891856063e-01
 3.3043044569e-02	 1.8622068648e+00	-7.5331050950e-01
 6.6314016144e-02	 1.8613190756e+00	-7.0332809029e-01
 9.9799171688e-02	 1.8598242861e+00	-6.6768696378e-01
 1.3348413284e-01	 1.8577104824e+00	-6.4537422723e-01
 1.6735389058e-01	 1.8549660173e+00	-6.3566855047e-01
 2.0139281193e-01	 1.8515796459e+00	-6.3815858877e-01
 2.3558464869e-01	 1.8475405607e+00	-6.5275937112e-01
 2.6991254831e-01	 1.8428384265e+00	-6.7972636333e-01
 3.0435906702e-01	 1.8374634169e+00	-7.1966691128e-01
 3.3890618513e-01	 1.8314062487e+00	-7.7354877908e-01
 0.0000000000e+00	 1.8562500000e+00	-7.8130975685e-01
 3.2932161868e-02	 1.8559578484e+00	-7.2474058036e-01
 6.6091485888e-02	 1.8550730385e+00	-6.8249045852e-01
 9.9464275138e-02	 1.8535832650e+00	-6.5326389571e-01
 1.3303619951e-01	 1.8514765546e+00	-6.3603793111e-01
 1.6679230034e-01	 1.8487412991e+00	-6.3008234544e-01
 2.0071699713e-01	 1.8453662914e+00	-6.3497815631e-01
 2.3479409617e-01	 1.8413407601e+00	-6.5063410181e-01
 2.6900680150e-01	 1.8366544049e+00	-6.7730081266e-01
 3.0333772787e-01	 1.8312974322e+00	-7.1558237927e-01
 3.3776891605e-01	 1.8252605901e+00	-7.6644502882e-01
 0.0000000000e+00	 1.8500000000e+00	-7.4510106004e-01
 3.2821279168e-02	 1.8497088321e+00	-6.9756508699e-01
 6.5868955632e-02	 1.8488270013e+00	-6.6301690528e-01
 9.9129378588e-02	 1.8473422440e+00	-6.4014947744e-01
 1.3258826617e-01	 1.8452426268e+00	-6.2792946975e-01
 1.6623071011e-01	 1.8425165809e+00	-6.2561753391e-01
 2.0004118232e-01	 1.8391529369e+00	-6.3278688897e-01
 2.3400354366e-01	 1.8351409596e+00	-6.4933990394e-01
 2.6810105470e-01	 1.8304703834e+00	-6.7552238270e-01
 3.0231638872e-01	 1.8251314476e+00	-7.1193525776e-01
 3.3663164697e-01	 1.8191149316e+00	-7.5954340933e-01
 0.0000000000e+00	 1.8437500000e+00	-7.1030133326e-01
 3.2710396468e-02	 1.8434598158e+00	-6.7179265768e-01
 6.5646425376e-02	 1.8425809641e+00	-6.4491571984e-01
 9.8794482039e-02	 1.8411012229e+00	-6.2835155288e-01
 1.3214033284e-01	 1.8390086990e+00	-6.2105613335e-01
 1.6566911987e-01	 1.8362918628e+00	-6.2228074211e-01
 1.9936536752e-01	 1.8329395824e+00	-6.3159063686e-01
 2.3321299115e-01	 1.8289411590e+00	-6.4888173773e-01
 2.6719530789e-01	 1.8242863618e+00	-6.7439502823e-01
 3.0129504957e-01	 1.8189654630e+00	-7.0872837917e-01
 3.3549437789e-01	 1.8129692730e+00	-7.5284551223e-01
 0.0000000000e+00	 1.8375000000e+00	-6.7691956018e-01
 3.2599513769e-02	 1.8372107995e+00	-6.4743203495e-01
 6.5423895121e-02	 1.8363349270e+00	-6.2819529723e-01
 9.8459585490e-02	 1.8348602018e+00	-6.1787806113e-01
 1.3169239951e-01	 1.8327747712e+00	-6.1542529460e-01
 1.6510752963e-01	 1.8300671446e+00	-6.2007866389e-01
 1.9868955271e-01	 1.8267262279e+00	-6.3139530075e-01
 2.3242243864e-01	 1.8227413585e+00	-6.4926459479e-01
 2.6628956108e-01	 1.8181023403e+00	-6.7392271409e-01
 3.0027371042e-01	 1.8127994784e+00	-7.0596456232e-01
 3.3435710882e-01	 1.8068236144e+00	-7.4635288973e-01
 0.0000000000e+00	 1.8312500000e+00	-6.4496484710e-01
 3.2488631069e-02	 1.8309617831e+00	-6.2449207748e-01
 6.5201364866e-02	 1.8300888898e+00	-6.1286414003e-01
 9.8124688942e-02	 1.8286191807e+00	-6.0873703810e-01
 1.3124446618e-01	 1.8265408434e+00	-6.1104441012e-01
 1.6454593940e-01	 1.8238424264e+00	-6.1901806196e-01
 1.9801373791e-01	 1.8205128734e+00	-6.3220683295e-01
 2.3163188612e-01	 1.8165415580e+00	-6.5049349877e-01
 2.6538381428e-01	 1.8119183187e+00	-6.7410941533e-01
 2.9925237127e-01	 1.8066334938e+00	-7.0364661221e-01
 3.3321983974e-01	 1.8006779559e+00	-7.4006705397e-01
 0.0000000000e+00	 1.8250000000e+00	-6.1444642508e-01
 3.2377748370e-02	 1.8247127668e+00	-6.0298176206e-01
 6.4978834612e-02	 1.8238428526e+00	-5.9893086024e-01
 9.7789792394e-02	 1.8223781596e+00	-6.0093661821e-01
 1.3079653285e-01	 1.8203069156e+00	-6.0792102189e-01
 1.6398434916e-01	 1.8176177082e+00	-6.1910576904e-01
 1.9733792310e-01	 1.8142995188e+00	-6.3403123814e-01
 2.3084133361e-01	 1.8103417574e+00	-6.5257350583e-01
 2.6447806747e-01	 1.8057342971e+00	-6.7495911736e-01
 2.9823103212e-01	 1.8004675091e+00	-7.0177731980e-01
 3.3208257066e-01	 1.7945322973e+00	-7.3398947630e-01
 0.0000000000e+00	 1.8187500000e+00	-5.8537365204e-01
 3.2266865671e-02	 1.8184637505e+00	-5.8291018567e-01
 6.4756304358e-02	 1.8175968155e+00	-5.8640418110e-01
 9.7454895846e-02	 1.8161371385e+00	-5.9448503602e-01
 1.3034859952e-01	 1.8140729878e+00	-6.0606275871e-01
 1.6342275893e-01	 1.8113929900e+00	-6.2034868903e-01
 1.9666210830e-01	 1.8080861643e+00	-6.3687457435e-01
 2.3005078110e-01	 1.8041419569e+00	-6.5550970522e-01
 2.6357232067e-01	 1.7995502756e+00	-6.7647581619e-01
 2.9720969297e-01	 1.7943015245e+00	-7.0035946178e-01
 3.3094530159e-01	 1.7883866388e+00	-7.2812158662e-01
 0.0000000000e+00	 1.8125000000e+00	-5.5775601499e-01
 3.2155982972e-02	 1.8122147342e+00	-5.6428656755e-01
 6.4533774104e-02	 1.8113507783e+00	-5.7529293908e-01
 9.7119999299e-02	 1.8098961174e+00	-5.8939062801e-01
 1.2990066619e-01	 1.8078390600e+00	-6.0547733770e-01
 1.6286116869e-01	 1.8051682719e+00	-6.2275379830e-01
 1.9598629350e-01	 1.8018728098e+00	-6.4074295379e-01
 2.2926022860e-01	 1.7979421563e+00	-6.5930721987e-01
 2.6266657387e-01	 1.7933662540e+00	-6.7866351856e-01
 2.9618835382e-01	 1.7881355399e+00	-6.9939580028e-01
 3.2980803251e-01	 1.7822409802e+00	-7.2246477264e-01
 3.4118072329e-01	 1.8436975658e+00	-7.8835611227e-01
 3.7604229341e-01	 1.8369042378e+00	-8.3802431502e-01
 4.1096723209e-01	 1.8294072488e+00	-8.6630926494e-01
 4.4593577617e-01	 1.8211991048e+00	-8.7340725905e-01
 4.8092766757e-01	 1.8122729977e+00	-8.5995934131e-01
 5.1592218027e-01	 1.8026228372e+00	-8.2705178570e-01
 5.5089814970e-01	 1.7922432824e+00	-7.7621233308e-01
 5.8583400432e-01	 1.7811297725e+00	-7.0940202780e-01
 6.2070779944e-01	 1.7692785551e+00	-6.2900254449e-01
 6.5549725318e-01	 1.7566867135e+00	-7.4897444607e-01
 6.9017978450e-01	 1.7433521919e+00	-9.0131500144e-01
 3.4004345421e-01	 1.8375519072e+00	-7.8085302972e-01
 3.7478881910e-01	 1.8307812237e+00	-8.3178115159e-01
 4.0959734131e-01	 1.8233092246e+00	-8.6198336295e-01
 4.4444932358e-01	 1.8151284411e+00	-8.7162256394e-01
 4.7932457534e-01	 1.8062320877e+00	-8.6130016894e-01
 5.1420243966e-01	 1.7966140944e+00	-8.3205666295e-01
 5.4906182253e-01	 1.7862691381e+00	-7.8536796547e-01
 5.8388122430e-01	 1.7751926733e+00	-7.2313744947e-01
 6.1863877344e-01	 1.7633809599e+00	-6.4768350643e-01
 6.5331226234e-01	 1.7508310911e+00	-7.5938958601e-01
 6.8787918522e-01	 1.7375410179e+00	-9.1761538752e-01
 3.3890618513e-01	 1.8314062487e+00	-7.7354877908e-01
 3.7353534478e-01	 1.8246582096e+00	-8.2567975904e-01
 4.0822745054e-01	 1.8172112004e+00	-8.5773177501e-01
 4.4296287099e-01	 1.8090577775e+00	-8.6983468910e-01
 4.7772148311e-01	 1.8001911777e+00	-8.6255070662e-01
 5.1248269906e-01	 1.7906053516e+00	-8.3687500530e-01
 5.4722549536e-01	 1.7802949939e+00	-7.9423222541e-01
 5.8192844428e-01	 1.7692555740e+00	-7.3646866962e-01
 6.1656974744e-01	 1.7574833647e+00	-6.6584010466e-01
 6.5112727149e-01	 1.7449754687e+00	-7.6892579244e-01
 6.8557858594e-01	 1.7317298440e+00	-9.3294986202e-01
 3.3776891605e-01	 1.8252605901e+00	-7.6644502882e-01
 3.7228187047e-01	 1.8185351955e+00	-8.1972252907e-01
 4.0685755976e-01	 1.8111131763e+00	-8.5355764373e-01
 4.4147641841e-01	 1.8029871138e+00	-8.6804755357e-01
 4.7611839089e-01	 1.7941502677e+00	-8.6371567290e-01
 5.1076295846e-01	 1.7845966088e+00	-8.4151235128e-01
 5.4538916820e-01	 1.7743208496e+00	-8.0281148899e-01
 5.7997566427e-01	 1.7633184748e+00	-7.4940291653e-01
 6.1450072144e-01	 1.7515857696e+00	-6.8348043100e-01
 6.4894228065e-01	 1.7391198463e+00	-7.7758639559e-01
 6.8327798666e-01	 1.7259186700e+00	-9.4732208689e-01
 3.3663164697e-01	 1.8191149316e+00	-7.5954340933e-01
 3.7102839616e-01	 1.8124121813e+00	-8.1391181556e-01
 4.0548766899e-01	 1.8050151521e+00	-8.4946407405e-01
 4.3998996582e-01	 1.7969164501e+00	-8.6626503868e-01
 4.7451529866e-01	 1.7881093577e+00	-8.6479974839e-01
 5.0904321786e-01	 1.7785878660e+00	-8.4597420102e-01
 5.4355284103e-01	 1.7683467053e+00	-8.1111209332e-01
 5.7802288425e-01	 1.7573813756e+00	-7.6194737865e-01
 6.1243169544e-01	 1.7456881744e+00	-7.0061253646e-01
 6.4675728980e-01	 1.7332642239e+00	-7.8537468368e-01
 6.8097738737e-01	 1.7201074960e+00	-9.6073568068e-01
 3.3549437789e-01	 1.8129692730e+00	-7.5284551223e-01
 3.6977492185e-01	 1.8062891672e+00	-8.0824993396e-01
 4.0411777821e-01	 1.7989171279e+00	-8.4545413261e-01
 4.3850351323e-01	 1.7908457864e+00	-8.6449098738e-01
 4.7291220644e-01	 1.7820684478e+00	-8.6580757506e-01
 5.0732347726e-01	 1.7725791232e+00	-8.5026601563e-01
 5.4171651386e-01	 1.7623725610e+00	-8.1914033584e-01
 5.7607010424e-01	 1.7514442763e+00	-7.7410920398e-01
 6.1036266944e-01	 1.7397905792e+00	-7.1724443052e-01
 6.4457229896e-01	 1.7274086016e+00	-7.9229390223e-01
 6.7867678809e-01	 1.7142963220e+00	-9.7319421781e-01
 3.3435710882e-01	 1.8068236144e+00	-7.4635288973e-01
 3.6852144753e-01	 1.8001661531e+00	-8.0273916064e-01
 4.0274788744e-01	 1.7928191038e+00	-8.4153084709e-01
 4.3701706064e-01	 1.7847751227e+00	-8.6272920361e-01
 4.7130911421e-01	 1.7760275378e+00	-8.6674375566e-01
 5.0560373666e-01	 1.7665703804e+00	-8.5439321650e-01
 5.3988018670e-01	 1.7563984168e+00	-8.2690247365e-01
 5.7411732423e-01	 1.7455071771e+00	-7.8589549930e-01
 6.0829364344e-01	 1.7338929840e+00	-7.3338408048e-01
 6.4238730812e-01	 1.7215529792e+00	-7.9834725328e-01
 6.7637618881e-01	 1.7084851481e+00	-9.8470122781e-01
 3.3321983974e-01	 1.8006779559e+00	-7.4006705397e-01
 3.6726797322e-01	 1.7940431390e+00	-7.9738173219e-01
 4.0137799667e-01	 1.7867210796e+00	-8.3769720554e-01
 4.3553060806e-01	 1.7787044590e+00	-8.6098345164e-01
 4.6970602199e-01	 1.7699866278e+00	-8.6761285298e-01
 5.0388399606e-01	 1.7605616376e+00	-8.5836118465e-01
 5.3804385953e-01	 1.7504242725e+00	-8.3440472280e-01
 5.7216454421e-01	 1.7395700778e+00	-7.9731332954e-01
 6.0622461745e-01	 1.7279953888e+00	-7.4903941069e-01
 6.4020231727e-01	 1.7156973568e+00	-8.0353789470e-01
 6.7407558953e-01	 1.7026739741e+00	-9.9526019456e-01
 3.3208257066e-01	 1.7945322973e+00	-7.3398947630e-01
 3.6601449891e-01	 1.7879201248e+00	-7.9217984477e-01
 4.0000810589e-01	 1.7806230555e+00	-8.3395615569e-01
 4.3404415547e-01	 1.7726337954e+00	-8.5925745537e-01
 4.6810292976e-01	 1.7639457178e+00	-8.6841938919e-01
 5.0216425546e-01	 1.7545528948e+00	-8.6217526000e-01
 5.3620753237e-01	 1.7444501282e+00	-8.4165325763e-01
 5.7021176420e-01	 1.7336329786e+00	-8.0836971701e-01
 6.0415559145e-01	 1.7220977936e+00	-7.6421830182e-01
 6.3801732643e-01	 1.7098417344e+00	-8.0786893940e-01
 6.7177499025e-01	 1.6968628001e+00	-1.0048745555e+00
 3.3094530159e-01	 1.7883866388e+00	-7.2812158662e-01
 3.6476102460e-01	 1.7817971107e+00	-7.8713565340e-01
 3.9863821512e-01	 1.7745250313e+00	-8.3031060432e-01
 4.3255770288e-01	 1.7665631317e+00	-8.5755489764e-01
 4.6649983754e-01	 1.7579048078e+00	-8.6916784517e-01
 5.0044451485e-01	 1.7485441521e+00	-8.6584074071e-01
 5.3437120520e-01	 1.7384759839e+00	-8.4865421003e-01
 5.6825898418e-01	 1.7276958794e+00	-8.1907164071e-01
 6.0208656545e-01	 1.7162001985e+00	-7.7892859015e-01
 6.3583233559e-01	 1.7039861121e+00	-8.1134345459e-01
 6.6947439097e-01	 1.6910516262e+00	-1.0135477009e+00
 3.2980803251e-01	 1.7822409802e+00	-7.2246477264e-01
 3.6350755029e-01	 1.7756740966e+00	-7.8225127128e-01
 3.9726832435e-01	 1.7684270071e+00	-8.2676341646e-01
 4.3107125030e-01	 1.7604924680e+00	-8.5587941955e-01
 4.6489674531e-01	 1.7518638978e+00	-8.6986265975e-01
 4.9872477425e-01	 1.7425354093e+00	-8.6936288246e-01
 5.3253487804e-01	 1.7325018397e+00	-8.5541366868e-01
 5.6630620417e-01	 1.7217587801e+00	-8.2942603554e-01
 6.0001753946e-01	 1.7103026033e+00	-7.9317806675e-01
 6.3364734474e-01	 1.6981304897e+00	-8.1396446096e-01
 6.6717379169e-01	 1.6852404522e+00	-1.0212829728e+00
 6.9017978450e-01	 1.7433521919e+00	-9.0131500144e-01
 7.2473164483e-01	 1.7292741839e+00	-9.4834050280e-01
 7.5913063130e-01	 1.7144520908e+00	-9.9171637136e-01
 7.9335351227e-01	 1.6988865718e+00	-1.0347134457e+00
 8.2737692754e-01	 1.6825792273e+00	-1.0806637570e+00
 8.6117743486e-01	 1.6655326125e+00	-1.1329348804e+00
 8.9473155778e-01	 1.6477502485e+00	-1.1949031817e+00
 9.2801583454e-01	 1.6292366310e+00	-1.2699261897e+00
 9.6100686783e-01	 1.6099972354e+00	-1.3613143378e+00
 9.9368137527e-01	 1.5900385193e+00	-1.4723023385e+00
 1.0260162403e+00	 1.5693679220e+00	-1.6060204645e+00
 6.8787918522e-01	 1.7375410179e+00	-9.1761538752e-01
 7.2231587268e-01	 1.7235099366e+00	-9.6424018673e-01
 7.5660019586e-01	 1.7087372505e+00	-1.0077760969e+00
 7.9070900056e-01	 1.6932236166e+00	-1.0514686831e+00
 8.2461900445e-01	 1.6769706299e+00	-1.0986220022e+00
 8.5830684341e-01	 1.6599808371e+00	-1.1525731315e+00
 8.9174911925e-01	 1.6422577477e+00	-1.2166656142e+00
 9.2492244842e-01	 1.6238058422e+00	-1.2942220490e+00
 9.5780351160e-01	 1.6046305779e+00	-1.3885160664e+00
 9.9036910402e-01	 1.5847383909e+00	-1.5027439529e+00
 1.0225961862e+00	 1.5641366956e+00	-1.6399961952e+00
 6.8557858594e-01	 1.7317298440e+00	-9.3294986202e-01
 7.1990010053e-01	 1.7177456894e+00	-9.7906023454e-01
 7.5406976042e-01	 1.7030224102e+00	-1.0226471433e+00
 7.8806448885e-01	 1.6875606613e+00	-1.0669313972e+00
 8.2186108135e-01	 1.6713620325e+00	-1.1151895932e+00
 8.5543625196e-01	 1.6544290618e+00	-1.1707288198e+00
 8.8876668073e-01	 1.6367652469e+00	-1.2368602988e+00
 9.2182906231e-01	 1.6183750535e+00	-1.3168721883e+00
 9.5460015538e-01	 1.5992639205e+00	-1.4140017911e+00
 9.8705683277e-01	 1.5794382625e+00	-1.5314074259e+00
 1.0191761321e+00	 1.5589054692e+00	-1.6721402311e+00
 6.8327798666e-01	 1.7259186700e+00	-9.4732208689e-01
 7.1748432838e-01	 1.7119814421e+00	-9.9280436896e-01
 7.5153932498e-01	 1.6973075699e+00	-1.0363333351e+00
 7.8541997714e-01	 1.6818977061e+00	-1.0811055545e+00
 8.1910315826e-01	 1.6657534351e+00	-1.1303706778e+00
 8.5256566051e-01	 1.6488772864e+00	-1.1874063136e+00
 8.8578424220e-01	 1.6312727461e+00	-1.2554918617e+00
 9.1873567619e-01	 1.6129442647e+00	-1.3378815286e+00
 9.5139679915e-01	 1.5938972630e+00	-1.4377767635e+00
 9.8374456152e-01	 1.5741381341e+00	-1.5582983741e+00
 1.0157560779e+00	 1.5536742428e+00	-1.7024585868e+00
 6.8097738737e-01	 1.7201074960e+00	-9.6073568068e-01
 7.1506855623e-01	 1.7062171948e+00	-1.0054762643e+00
 7.4900888954e-01	 1.6915927296e+00	-1.0488384438e+00
 7.8277546544e-01	 1.6762347509e+00	-1.0939950643e+00
 8.1634523517e-01	 1.6601448377e+00	-1.1441693437e+00
 8.4969506906e-01	 1.6433255110e+00	-1.2026099180e+00
 8.8280180368e-01	 1.6257802452e+00	-1.2725648642e+00
 9.1564229008e-01	 1.6075134759e+00	-1.3572549245e+00
 9.4819344293e-01	 1.5885306056e+00	-1.4598461679e+00
 9.8043229027e-01	 1.5688380057e+00	-1.5834223465e+00
 1.0123360238e+00	 1.5484430164e+00	-1.7309572098e+00
 6.7867678809e-01	 1.7142963220e+00	-9.7319421781e-01
 7.1265278408e-01	 1.7004529475e+00	-1.0170795456e+00
 7.4647845410e-01	 1.6858778893e+00	-1.0601661870e+00
 7.8013095373e-01	 1.6705717956e+00	-1.1056037785e+00
 8.1358731208e-01	 1.6545362402e+00	-1.1565896176e+00
 8.4682447761e-01	 1.6377737356e+00	-1.2163438744e+00
 8.7981936515e-01	 1.6202877444e+00	-1.2880838015e+00
 9.1254890396e-01	 1.6020826872e+00	-1.3749971632e+00
 9.4499008670e-01	 1.5831639481e+00	-1.4802151203e+00
 9.7712001902e-01	 1.5635378773e+00	-1.6067848235e+00
 1.0089159697e+00	 1.5432117900e+00	-1.7576419797e+00
 6.7637618881e-01	 1.7084851481e+00	-9.8470122781e-01
 7.1023701193e-01	 1.6946887002e+00	-1.0276177877e+00
 7.4394801867e-01	 1.6801630490e+00	-1.0703202275e+00
 7.7748644202e-01	 1.6649088404e+00	-1.1159354900e+00
 8.1082938899e-01	 1.6489276428e+00	-1.1676354638e+00
 8.4395388616e-01	 1.6322219603e+00	-1.2286123592e+00
 8.7683692663e-01	 1.6147952436e+00	-1.3020531017e+00
 9.0945551785e-01	 1.5966518984e+00	-1.3911129633e+00
 9.4178673048e-01	 1.5777972907e+00	-1.4988886672e+00
 9.7380774778e-01	 1.5582377489e+00	-1.6283912163e+00
 1.0054959155e+00	 1.5379805636e+00	-1.7825187068e+00
 6.7407558953e-01	 1.7026739741e+00	-9.9526019456e-01
 7.0782123978e-01	 1.6889244530e+00	-1.0370945145e+00
 7.4141758323e-01	 1.6744482087e+00	-1.0793041727e+00
 7.7484193032e-01	 1.6592458851e+00	-1.1249939318e+00
 8.0807146590e-01	 1.6433190454e+00	-1.1773107833e+00
 8.4108329472e-01	 1.6266701849e+00	-1.2394194827e+00
 8.7385448810e-01	 1.6093027427e+00	-1.3144771246e+00
 9.0636213174e-01	 1.5912211096e+00	-1.4056069735e+00
 9.3858337426e-01	 1.5724306332e+00	-1.5158717846e+00
 9.7049547653e-01	 1.5529376205e+00	-1.6482468649e+00
 1.0020758614e+00	 1.5327493372e+00	-1.8055931313e+00
 6.7177499025e-01	 1.6968628001e+00	-1.0048745555e+00
 7.0540546763e-01	 1.6831602057e+00	-1.0455131982e+00
 7.3888714779e-01	 1.6687333683e+00	-1.0871215730e+00
 7.7219741861e-01	 1.6535829299e+00	-1.1327827764e+00
 8.0531354281e-01	 1.6377104479e+00	-1.1856194128e+00
 8.3821270327e-01	 1.6211184095e+00	-1.2487692879e+00
 8.7087204958e-01	 1.6038102419e+00	-1.3253601606e+00
 9.0326874563e-01	 1.5857903209e+00	-1.4184837714e+00
 9.3538001803e-01	 1.5670639758e+00	-1.5311693764e+00
 9.6718320528e-01	 1.5476374921e+00	-1.6663570373e+00
 9.9865580727e-01	 1.5275181108e+00	-1.8268709218e+00
 6.6947439097e-01	 1.6910516262e+00	-1.0135477009e+00
 7.0298969549e-01	 1.6773959584e+00	-1.0528772582e+00
 7.3635671236e-01	 1.6630185280e+00	-1.0937759213e+00
 7.6955290691e-01	 1.6479199747e+00	-1.1393056341e+00
 8.0255561972e-01	 1.6321018505e+00	-1.1925651238e+00
 8.3534211182e-01	 1.6155666341e+00	-1.2566657494e+00
 8.6788961106e-01	 1.5983177411e+00	-1.3347064294e+00
 9.0017535951e-01	 1.5803595321e+00	-1.4297478626e+00
 9.3217666181e-01	 1.5616973183e+00	-1.5447862736e+00
 9.6387093403e-01	 1.5423373637e+00	-1.6827269283e+00
 9.9523575314e-01	 1.5222868843e+00	-1.8463576740e+00
 6.6717379169e-01	 1.6852404522e+00	-1.0212829728e+00
 7.0057392334e-01	 1.6716317111e+00	-1.0591900601e+00
 7.3382627693e-01	 1.6573036877e+00	-1.0992706521e+00
 7.6690839520e-01	 1.6422570194e+00	-1.1445660525e+00
 7.9979769663e-01	 1.6264932531e+00	-1.1981516207e+00
 8.3247152038e-01	 1.6100148588e+00	-1.2631127723e+00
 8.6490717254e-01	 1.5928252402e+00	-1.3425200788e+00
 8.9708197340e-01	 1.5749287433e+00	-1.4394036791e+00
 9.2897330559e-01	 1.5563306609e+00	-1.5567272326e+00
 9.6055866278e-01	 1.5370372353e+00	-1.6973616582e+00
 9.9181569901e-01	 1.5170556579e+00	-1.8640589098e+00
 1.0260162403e+00	 1.5693679220e+00	-1.6060204645e+00
 1.0579893620e+00	 1.5479933324e+00	-1.6101755772e+00
 1.0895772688e+00	 1.5259246813e+00	-1.6348367738e+00
 1.1207576474e+00	 1.5031723176e+00	-1.6844027060e+00
 1.1515085543e+00	 1.4797475376e+00	-1.7631023046e+00
 1.1818084658e+00	 1.4556625679e+00	-1.8749629526e+00
 1.2116363268e+00	 1.4309305461e+00	-2.0237799943e+00
 1.2409715991e+00	 1.4055654981e+00	-2.2130878877e+00
 1.2697943073e+00	 1.3795823120e+00	-2.1447629166e+00
 1.2980850845e+00	 1.3529967096e+00	-1.9540420540e+00
 1.3258252147e+00	 1.3258252147e+00	-1.7711755773e+00
 1.0225961862e+00	 1.5641366956e+00	-1.6399961952e+00
 1.0544627308e+00	 1.5428333546e+00	-1.6427246928e+00
 1.0859453446e+00	 1.5208382657e+00	-1.6641859792e+00
 1.1170217886e+00	 1.4981617432e+00	-1.7086651009e+00
 1.1476701925e+00	 1.4748150458e+00	-1.7802840967e+00
 1.1778691042e+00	 1.4508103593e+00	-1.8829708214e+00
 1.2075975391e+00	 1.4261607777e+00	-2.0204290697e+00
 1.2368350271e+00	 1.4008802798e+00	-2.1961102987e+00
 1.2655616596e+00	 1.3749837043e+00	-2.1765034334e+00
 1.2937581342e+00	 1.3484867206e+00	-1.9730792377e+00
 1.3214057973e+00	 1.3214057973e+00	-1.7757230077e+00
 1.0191761321e+00	 1.5589054692e+00	-1.6721402311e+00
 1.0509360996e+00	 1.5376733768e+00	-1.6735680343e+00
 1.0823134203e+00	 1.5157518501e+00	-1.6919519549e+00
 1.1132859298e+00	 1.4931511689e+00	-1.7314634234e+00
 1.1438318306e+00	 1.4698825540e+00	-1.7961175748e+00
 1.1739297427e+00	 1.4459581508e+00	-1.8897427226e+00
 1.2035587513e+00	 1.4213910092e+00	-2.0159510961e+00
 1.2326984551e+00	 1.3961950615e+00	-2.1781111320e+00
 1.2613290120e+00	 1.3703850966e+00	-2.2072189170e+00
 1.2894311839e+00	 1.3439767315e+00	-1.9912105421e+00
 1.3169863800e+00	 1.3169863800e+00	-1.7794701186e+00
 1.0157560779e+00	 1.5536742428e+00	-1.7024585868e+00
 1.0474094684e+00	 1.5325133991e+00	-1.7027137680e+00
 1.0786814961e+00	 1.5106654345e+00	-1.7181449202e+00
 1.1095500709e+00	 1.4881405945e+00	-1.7528098419e+00
 1.1399934688e+00	 1.4649500622e+00	-1.8106167474e+00
 1.1699903811e+00	 1.4411059422e+00	-1.8952943913e+00
 1.1995199636e+00	 1.4166212407e+00	-2.0103634168e+00
 1.2285618831e+00	 1.3915098432e+00	-2.1591092174e+00
 1.2570963643e+00	 1.3657864889e+00	-2.2368989415e+00
 1.2851042337e+00	 1.3394667425e+00	-2.0084262883e+00
 1.3125669626e+00	 1.3125669626e+00	-1.7824079104e+00
 1.0123360238e+00	 1.5484430164e+00	-1.7309572098e+00
 1.0438828372e+00	 1.5273534213e+00	-1.7301700173e+00
 1.0750495719e+00	 1.5055790189e+00	-1.7427750750e+00
 1.1058142121e+00	 1.4831300201e+00	-1.7727165275e+00
 1.1361551069e+00	 1.4600175704e+00	-1.8237956471e+00
 1.1660510196e+00	 1.4362537337e+00	-1.8996416062e+00
 1.1954811758e+00	 1.4118514722e+00	-2.0036834375e+00
 1.2244253111e+00	 1.3868246249e+00	-2.1391234638e+00
 1.2528637166e+00	 1.3611878812e+00	-2.2655331768e+00
 1.2807772834e+00	 1.3349567535e+00	-2.0247169070e+00
 1.3081475452e+00	 1.3081475452e+00	-1.7845275062e+00
 1.0089159697e+00	 1.5432117900e+00	-1.7576419797e+00
 1.0403562060e+00	 1.5221934435e+00	-1.7559448629e+00
 1.0714176477e+00	 1.5004926033e+00	-1.7658526000e+00
 1.1020783533e+00	 1.4781194457e+00	-1.7911956549e+00
 1.1323167451e+00	 1.4550850787e+00	-1.8356683308e+00
 1.1621116580e+00	 1.4314015251e+00	-1.9028001907e+00
 1.1914423881e+00	 1.4070817037e+00	-1.9959286273e+00
 1.2202887391e+00	 1.3821394065e+00	-2.1181728612e+00
 1.2486310689e+00	 1.3565892735e+00	-2.2724096311e+00
 1.2764503331e+00	 1.3304467644e+00	-2.0400729406e+00
 1.3037281278e+00	 1.3037281278e+00	-1.7858201543e+00
 1.0054959155e+00	 1.5379805636e+00	-1.7825187068e+00
 1.0368295748e+00	 1.5170334657e+00	-1.7800463413e+00
 1.0677857234e+00	 1.4954061877e+00	-1.7873876560e+00
 1.0983424945e+00	 1.4731088713e+00	-1.8082594016e+00
 1.1284783832e+00	 1.4501525869e+00	-1.8462488805e+00
 1.1581722965e+00	 1.4265493165e+00	-1.9047860135e+00
 1.1874036003e+00	 1.4023119352e+00	-1.9871165198e+00
 1.2161521671e+00	 1.3774541882e+00	-2.0962764817e+00
 1.2443984212e+00	 1.3519906658e+00	-2.2350685542e+00
 1.2721233828e+00	 1.3259367754e+00	-2.0544850450e+00
 1.2993087105e+00	 1.2993087105e+00	-1.7862772295e+00
 1.0020758614e+00	 1.5327493372e+00	-1.8055931313e+00
 1.0333029436e+00	 1.5118734880e+00	-1.8024824445e+00
 1.0641537992e+00	 1.4903197721e+00	-1.8073903836e+00
 1.0946066356e+00	 1.4680982969e+00	-1.8239199485e+00
 1.1246400214e+00	 1.4452200951e+00	-1.8555514033e+00
 1.1542329349e+00	 1.4216971080e+00	-1.9056149893e+00
 1.1833648125e+00	 1.3975421667e+00	-1.9772647140e+00
 1.2120155951e+00	 1.3727689699e+00	-2.0734534810e+00
 1.2401657735e+00	 1.3473920581e+00	-2.1969098194e+00
 1.2677964326e+00	 1.3214267864e+00	-2.0679439916e+00
 1.2948892931e+00	 1.2948892931e+00	-1.7858902364e+00
 9.9865580727e-01	 1.5275181108e+00	-1.8268709218e+00
 1.0297763124e+00	 1.5067135102e+00	-1.8232611192e+00
 1.0605218750e+00	 1.4852333564e+00	-1.8258709033e+00
 1.0908707768e+00	 1.4630877225e+00	-1.8381894798e+00
 1.1208016595e+00	 1.4402876033e+00	-1.8635900322e+00
 1.1502935734e+00	 1.4168448994e+00	-1.9053030800e+00
 1.1793260248e+00	 1.3927723983e+00	-1.9663908757e+00
 1.2078790231e+00	 1.3680837516e+00	-2.0497231002e+00
 1.2359331258e+00	 1.3427934504e+00	-2.1579541097e+00
 1.2634694823e+00	 1.3169167973e+00	-2.0804406695e+00
 1.2904698757e+00	 1.2904698757e+00	-1.7846508106e+00
 9.9523575314e-01	 1.5222868843e+00	-1.8463576740e+00
 1.0262496812e+00	 1.5015535324e+00	-1.8423902656e+00
 1.0568899508e+00	 1.4801469408e+00	-1.8428393143e+00
 1.0871349180e+00	 1.4580771481e+00	-1.8510801829e+00
 1.1169632977e+00	 1.4353551115e+00	-1.8703789263e+00
 1.1463542118e+00	 1.4119926909e+00	-1.9038662950e+00
 1.1752872370e+00	 1.3880026298e+00	-1.9545127385e+00
 1.2037424511e+00	 1.3633985332e+00	-2.0251046665e+00
 1.2317004781e+00	 1.3381948427e+00	-2.1182222119e+00
 1.2591425320e+00	 1.3124068083e+00	-2.0919660868e+00
 1.2860504583e+00	 1.2860504583e+00	-1.7825507217e+00
 9.9181569901e-01	 1.5170556579e+00	-1.8640589098e+00
 1.0227230500e+00	 1.4963935546e+00	-1.8598777371e+00
 1.0532580265e+00	 1.4750605252e+00	-1.8583056950e+00
 1.0833990592e+00	 1.4530665737e+00	-1.8626042486e+00
 1.1131249359e+00	 1.4304226197e+00	-1.8759322713e+00
 1.1424148503e+00	 1.4071404823e+00	-1.9013206920e+00
 1.1712484493e+00	 1.3832328613e+00	-1.9416481050e+00
 1.1996058791e+00	 1.3587133149e+00	-1.9996175953e+00
 1.2274678304e+00	 1.3335962350e+00	-2.0777350181e+00
 1.2548155817e+00	 1.3078968193e+00	-2.1025113737e+00
 1.2816310409e+00	 1.2816310409e+00	-1.7795818749e+00
 1.3258252147e+00	 1.3258252147e+00	-1.7711755773e+00
 1.3529966958e+00	 1.2980851056e+00	-1.6685441258e+00
 1.3795822569e+00	 1.2697943914e+00	-1.5397306962e+00
 1.4055653745e+00	 1.2409717878e+00	-1.4800388765e+00
 1.4309303270e+00	 1.2116366614e+00	-1.5679717113e+00
 1.4556622267e+00	 1.1818089870e+00	-1.5751953762e+00
 1.4797470481e+00	 1.1515093025e+00	-1.5067916757e+00
 1.5031716538e+00	 1.1207586623e+00	-1.3677167451e+00
 1.5259238176e+00	 1.0895785896e+00	-1.1627881793e+00
 1.5479922437e+00	 1.0579910271e+00	-8.9667561710e-01
 1.5693665835e+00	 1.0260182876e+00	-5.7389470505e-01
 1.3214057973e+00	 1.3214057973e+00	-1.7757230077e+00
 1.3484867068e+00	 1.2937581552e+00	-1.6600519834e+00
 1.3749836494e+00	 1.2655617434e+00	-1.5187534893e+00
 1.4008801566e+00	 1.2368352151e+00	-1.4955958462e+00
 1.4261605593e+00	 1.2075978725e+00	-1.5761985854e+00
 1.4508100193e+00	 1.1778696237e+00	-1.5768359061e+00
 1.4748145579e+00	 1.1476709382e+00	-1.5026133886e+00
 1.4981610816e+00	 1.1170228001e+00	-1.3585127652e+00
 1.5208374049e+00	 1.0859466609e+00	-1.1493788585e+00
 1.5428322696e+00	 1.0544643904e+00	-8.7990994059e-01
 1.5641353616e+00	 1.0225982266e+00	-5.5465144128e-01
 1.3169863800e+00	 1.3169863800e+00	-1.7794701186e+00
 1.3439767178e+00	 1.2894312049e+00	-1.6506276808e+00
 1.3703850419e+00	 1.2613290955e+00	-1.4967132121e+00
 1.3961949387e+00	 1.2326986425e+00	-1.5127759478e+00
 1.4213907915e+00	 1.2035590836e+00	-1.5858890010e+00
 1.4459578119e+00	 1.1739302604e+00	-1.5797950126e+00
 1.4698820678e+00	 1.1438325738e+00	-1.4996235499e+00
 1.4931505095e+00	 1.1132869379e+00	-1.3503820725e+00
 1.5157509922e+00	 1.0823147323e+00	-1.1369426803e+00
 1.5376722954e+00	 1.0509377536e+00	-8.6403224912e-01
 1.5589041397e+00	 1.0191781657e+00	-5.3622588505e-01
 1.3125669626e+00	 1.3125669626e+00	-1.7824079104e+00
 1.3394667288e+00	 1.2851042545e+00	-1.6402605750e+00
 1.3657864344e+00	 1.2570964475e+00	-1.4735976672e+00
 1.3915097208e+00	 1.2285620699e+00	-1.5316210012e+00
 1.4166210238e+00	 1.1995202948e+00	-1.5970834036e+00
 1.4411056045e+00	 1.1699908971e+00	-1.5841117433e+00
 1.4649495776e+00	 1.1399942095e+00	-1.4978597892e+00
 1.4881399373e+00	 1.1095510757e+00	-1.3433608614e+00
 1.5106645794e+00	 1.0786828037e+00	-1.1255143897e+00
 1.5325123213e+00	 1.0474111169e+00	-8.4907582730e-01
 1.5536729177e+00	 1.0157581047e+00	-5.1864985330e-01
 1.3081475452e+00	 1.3081475452e+00	-1.7845275062e+00
 1.3349567398e+00	 1.2807773042e+00	-1.6289401266e+00
 1.3611878268e+00	 1.2528637995e+00	-1.4493947428e+00
 1.3868245029e+00	 1.2244254973e+00	-1.5521728944e+00
 1.4118512560e+00	 1.1954815059e+00	-1.6098222899e+00
 1.4362533970e+00	 1.1660515339e+00	-1.5898251815e+00
 1.4600170874e+00	 1.1361558451e+00	-1.4973597566e+00
 1.4831293651e+00	 1.1058152135e+00	-1.3374853320e+00
 1.5055781667e+00	 1.0750508751e+00	-1.1151287235e+00
 1.5273523471e+00	 1.0438844801e+00	-8.3507393912e-01
 1.5484416958e+00	 1.0123380438e+00	-5.0195513050e-01
 1.3037281278e+00	 1.3037281278e+00	-1.7858201543e+00
 1.3304467508e+00	 1.2764503538e+00	-1.6166559024e+00
 1.3565892193e+00	 1.2486311516e+00	-1.4426534977e+00
 1.3821392849e+00	 1.2202889247e+00	-1.5744735851e+00
 1.4070814883e+00	 1.1914427170e+00	-1.6241462092e+00
 1.4314011896e+00	 1.1621121706e+00	-1.5969744462e+00
 1.4550845973e+00	 1.1323174808e+00	-1.4981611223e+00
 1.4781187929e+00	 1.1020793513e+00	-1.3327916902e+00
 1.5004917540e+00	 1.0714189464e+00	-1.1058204110e+00
 1.5221923730e+00	 1.0403578434e+00	-8.2205982762e-01
 1.5432104738e+00	 1.0089179828e+00	-4.8617346815e-01
 1.2993087105e+00	 1.2993087105e+00	-1.7862772295e+00
 1.3259367619e+00	 1.2721234035e+00	-1.6033975763e+00
 1.3519906118e+00	 1.2443985036e+00	-1.4756803391e+00
 1.3774540670e+00	 1.2161523520e+00	-1.5985651014e+00
 1.4023117205e+00	 1.1874039282e+00	-1.6400957637e+00
 1.4265489822e+00	 1.1581728073e+00	-1.6055986932e+00
 1.4501521071e+00	 1.1284791165e+00	-1.5003015776e+00
 1.4731082208e+00	 1.0983434891e+00	-1.3293161478e+00
 1.4954053413e+00	 1.0677870178e+00	-1.0976241729e+00
 1.5170323988e+00	 1.0368312066e+00	-8.1006671455e-01
 1.5379792519e+00	 1.0054979218e+00	-4.7133658413e-01
 1.2948892931e+00	 1.2948892931e+00	-1.7858902364e+00
 1.3214267729e+00	 1.2677964531e+00	-1.5891549318e+00
 1.3473920043e+00	 1.2401658556e+00	-1.5107209505e+00
 1.3727688491e+00	 1.2120157794e+00	-1.6244895431e+00
 1.3975419528e+00	 1.1833651393e+00	-1.6577116100e+00
 1.4216967748e+00	 1.1542334440e+00	-1.6157371156e+00
 1.4452196170e+00	 1.1246407521e+00	-1.5038188349e+00
 1.4680976486e+00	 1.0946076269e+00	-1.3270949228e+00
 1.4903189285e+00	 1.0641550892e+00	-1.0905747219e+00
 1.5118724247e+00	 1.0333045698e+00	-7.9912779997e-01
 1.5327480299e+00	 1.0020778609e+00	-4.5747616222e-01
 1.2904698757e+00	 1.2904698757e+00	-1.7846508106e+00
 1.3169167839e+00	 1.2634695028e+00	-1.5739178635e+00
 1.3427933967e+00	 1.2359332077e+00	-1.5478189440e+00
 1.3680836312e+00	 1.2078792068e+00	-1.6522890830e+00
 1.3927721850e+00	 1.1793263504e+00	-1.6770344595e+00
 1.4168445674e+00	 1.1502940807e+00	-1.6274289441e+00
 1.4402871268e+00	 1.1208023878e+00	-1.5087506282e+00
 1.4630870764e+00	 1.0908717647e+00	-1.3261642392e+00
 1.4852325158e+00	 1.0605231605e+00	-1.0847067622e+00
 1.5067124505e+00	 1.0297779331e+00	-7.8927626191e-01
 1.5275168080e+00	 9.9865779993e-01	-4.4462385144e-01
 1.2860504583e+00	 1.2860504583e+00	-1.7825507217e+00
 1.3124067949e+00	 1.2591425524e+00	-1.5576763792e+00
 1.3381947892e+00	 1.2317005597e+00	-1.5870180252e+00
 1.3633984133e+00	 1.2037426342e+00	-1.6820059684e+00
 1.3880024172e+00	 1.1752875616e+00	-1.6981050798e+00
 1.4119923599e+00	 1.1463547174e+00	-1.6407134483e+00
 1.4353546366e+00	 1.1169640234e+00	-1.5151347135e+00
 1.4580765042e+00	 1.0871359025e+00	-1.3265603272e+00
 1.4801461031e+00	 1.0568912319e+00	-1.0800549894e+00
 1.5015524764e+00	 1.0262512963e+00	-7.8054525597e-01
 1.5222855860e+00	 9.9523773897e-01	-4.3281126549e-01
 1.2816310409e+00	 1.2816310409e+00	-1.7795818749e+00
 1.3078968059e+00	 1.2548156021e+00	-1.5404206018e+00
 1.3335961817e+00	 1.2274679117e+00	-1.6283619946e+00
 1.3587131954e+00	 1.1996060615e+00	-1.7136825218e+00
 1.3832326495e+00	 1.1712487727e+00	-1.7209642952e+00
 1.4071401525e+00	 1.1424153541e+00	-1.6556299367e+00
 1.4304221465e+00	 1.1131256591e+00	-1.5230088691e+00
 1.4530659320e+00	 1.0834000403e+00	-1.3283194234e+00
 1.4750596904e+00	 1.0532593033e+00	-1.0766540906e+00
 1.4963925022e+00	 1.0227246596e+00	-7.7296791496e-01
 1.5170543641e+00	 9.9181767802e-01	-4.2206998216e-01
 1.5693665835e+00	 1.0260182876e+00	-5.7389470505e-01
 1.5900374492e+00	 9.9368300282e-01	-3.6822060492e-01
 1.6099964235e+00	 9.6100807293e-01	-1.7401367097e-01
 1.6292360671e+00	 9.2801661503e-01	 7.5429195018e-03
 1.6477499220e+00	 8.9473191208e-01	 1.7557948620e-01
 1.6655325128e+00	 8.6117736197e-01	 3.2951646717e-01
 1.6825793437e+00	 8.2737642703e-01	 4.6903847444e-01
 1.6988868935e+00	 7.9335258428e-01	 5.9406620785e-01
 1.7144526070e+00	 7.5912927652e-01	 7.0472666327e-01
 1.7292748837e+00	 7.2472986452e-01	 8.0132207663e-01
 1.7433530645e+00	 6.9017758044e-01	 8.8429804393e-01
 1.5641353616e+00	 1.0225982266e+00	-5.5465144128e-01
 1.5847373244e+00	 9.9037072614e-01	-3.5216090027e-01
 1.6046297688e+00	 9.5780471268e-01	-1.6033798724e-01
 1.6238052802e+00	 9.2492322631e-01	 1.9609688832e-02
 1.6422574223e+00	 8.9174947237e-01	 1.8678102945e-01
 1.6599807378e+00	 8.5830677076e-01	 3.4055855260e-01
 1.6769707459e+00	 8.2461850560e-01	 4.8058297429e-01
 1.6932239372e+00	 7.9070807566e-01	 6.0672568294e-01
 1.7087377649e+00	 7.5659884559e-01	 7.1905953627e-01
 1.7235106341e+00	 7.2231409830e-01	 8.1782841550e-01
 1.7375418876e+00	 6.8787698850e-01	 9.0341597035e-01
 1.5589041397e+00	 1.0191781657e+00	-5.3622588505e-01
 1.5794371996e+00	 9.8705844947e-01	-3.3694353147e-01
 1.5992631140e+00	 9.5460135244e-01	-1.4753195069e-01
 1.6183744933e+00	 9.2182983759e-01	 3.0777182252e-02
 1.6367649225e+00	 8.8876703267e-01	 1.9705175086e-01
 1.6544289627e+00	 8.5543617955e-01	 3.5063678417e-01
 1.6713621481e+00	 8.2186058418e-01	 4.9112956010e-01
 1.6875609809e+00	 7.8806356705e-01	 6.1835263632e-01
 1.7030229229e+00	 7.5406841467e-01	 7.3232523157e-01
 1.7177463845e+00	 7.1989833208e-01	 8.3323338569e-01
 1.7317307107e+00	 6.8557639657e-01	 9.2139932520e-01
 1.5536729177e+00	 1.0157581047e+00	-5.1864985330e-01
 1.5741370747e+00	 9.8374617279e-01	-3.2259965420e-01
 1.5938964593e+00	 9.5139799220e-01	-1.3562593683e-01
 1.6129437064e+00	 9.1873644888e-01	 4.1015920012e-02
 1.6312724228e+00	 8.8578459296e-01	 2.0636317838e-01
 1.6488771877e+00	 8.5256558835e-01	 3.5972380540e-01
 1.6657535503e+00	 8.1910266275e-01	 5.0065209454e-01
 1.6818980246e+00	 7.8541905843e-01	 6.2892224880e-01
 1.6973080809e+00	 7.5153798375e-01	 7.4450034222e-01
 1.7119821349e+00	 7.1748256587e-01	 8.4751508147e-01
 1.7259195338e+00	 6.8327580463e-01	 9.3822778773e-01
 1.5484416958e+00	 1.0123380438e+00	-5.0195513050e-01
 1.5688369499e+00	 9.8043389612e-01	-3.0916039170e-01
 1.5885298046e+00	 9.4819463196e-01	-1.2465028799e-01
 1.6075129195e+00	 9.1564306016e-01	 5.0296456939e-02
 1.6257799231e+00	 8.8280215325e-01	 2.1468687659e-01
 1.6433254126e+00	 8.4969499714e-01	 3.6779229920e-01
 1.6601449525e+00	 8.1634474133e-01	 5.0912448311e-01
 1.6762350683e+00	 7.8277454982e-01	 6.3840974806e-01
 1.6915932389e+00	 7.4900755283e-01	 7.5556151282e-01
 1.7062178853e+00	 7.1506679965e-01	 8.6065165399e-01
 1.7201083570e+00	 6.8097521269e-01	 9.5388109994e-01
 1.5432104738e+00	 1.0089179828e+00	-4.8617346815e-01
 1.5635368251e+00	 9.7712161945e-01	-2.9665683413e-01
 1.5831631498e+00	 9.4499127172e-01	-1.1463531277e-01
 1.6020821326e+00	 9.1254967145e-01	 5.8589383027e-02
 1.6202874233e+00	 8.7981971355e-01	 2.2199444734e-01
 1.6377736376e+00	 8.4682440593e-01	 3.7481498859e-01
 1.6545363547e+00	 8.1358681991e-01	 5.1652067484e-01
 1.6705721120e+00	 7.8013004120e-01	 6.4679040945e-01
 1.6858783969e+00	 7.4647712191e-01	 7.6548544040e-01
 1.7004536357e+00	 7.1265103344e-01	 8.7262131221e-01
 1.7142971801e+00	 6.7867462076e-01	 9.6833906766e-01
 1.5379792519e+00	 1.0054979218e+00	-4.7133658413e-01
 1.5582367002e+00	 9.7380934277e-01	-2.8512003810e-01
 1.5777964951e+00	 9.4178791148e-01	-1.0561128544e-01
 1.5966513457e+00	 9.0945628273e-01	 6.5865324028e-02
 1.6147949236e+00	 8.7683727384e-01	 2.2825753043e-01
 1.6322218626e+00	 8.4395381473e-01	 3.8076463729e-01
 1.6489277569e+00	 8.1082889849e-01	 5.2281466305e-01
 1.6649091557e+00	 7.7748553259e-01	 6.5403955677e-01
 1.6801635548e+00	 7.4394669098e-01	 7.7424887529e-01
 1.6946893860e+00	 7.1023526722e-01	 8.8340232391e-01
 1.7084860032e+00	 6.7637402883e-01	 9.8158156166e-01
 1.5327480299e+00	 1.0020778609e+00	-4.5747616222e-01
 1.5529365754e+00	 9.7049706610e-01	-2.7458102607e-01
 1.5724298403e+00	 9.3858455124e-01	-9.7608445369e-02
 1.5912205588e+00	 9.0636289402e-01	 7.2094942071e-02
 1.6093024238e+00	 8.7385483414e-01	 2.3344780419e-01
 1.6266700875e+00	 8.4108322353e-01	 3.8561405052e-01
 1.6433191591e+00	 8.0807097706e-01	 5.2798048606e-01
 1.6592461994e+00	 7.7484102398e-01	 6.6013256314e-01
 1.6744487128e+00	 7.4141626006e-01	 7.8182862208e-01
 1.6889251364e+00	 7.0781950101e-01	 8.9297301667e-01
 1.7026748263e+00	 6.7407343689e-01	 9.9358851870e-01
 1.5275168080e+00	 9.9865779993e-01	-4.4462385144e-01
 1.5476364506e+00	 9.6718478942e-01	-2.6507078572e-01
 1.5670631856e+00	 9.3538119099e-01	-9.0656996421e-02
 1.5857897720e+00	 9.0326950530e-01	 7.7248936278e-02
 1.6038099241e+00	 8.7087239443e-01	 2.3753698616e-01
 1.6211183125e+00	 8.3821263232e-01	 3.8933607561e-01
 1.6377105612e+00	 8.0531305564e-01	 5.3199222804e-01
 1.6535832430e+00	 7.7219651537e-01	 6.6504485180e-01
 1.6687338708e+00	 7.3888582914e-01	 7.8820154050e-01
 1.6831608868e+00	 7.0540373480e-01	 9.0131177890e-01
 1.6968636494e+00	 6.7177284496e-01	 1.0043399427e+00
 1.5222855860e+00	 9.9523773897e-01	-4.3281126549e-01
 1.5423363257e+00	 9.6387251275e-01	-2.5662026944e-01
 1.5616965308e+00	 9.3217783075e-01	-8.4787106356e-02
 1.5803589851e+00	 9.0017611659e-01	 8.1298043401e-02
 1.5983174244e+00	 8.6788995473e-01	 2.4049683379e-01
 1.6155665374e+00	 8.3534204112e-01	 3.9190360282e-01
 1.6321019634e+00	 8.0255513422e-01	 5.3482401970e-01
 1.6479202867e+00	 7.6955200675e-01	 6.6875189701e-01
 1.6630190288e+00	 7.3635539823e-01	 7.9334454638e-01
 1.6773966372e+00	 7.0298796858e-01	 9.0839706091e-01
 1.6910524725e+00	 6.6947225303e-01	 1.0138159059e+00
 1.5170543641e+00	 9.9181767802e-01	-4.2206998216e-01
 1.5370362009e+00	 9.6056023608e-01	-2.4926039362e-01
 1.5563298761e+00	 9.2897447051e-01	-8.0028906200e-02
 1.5749281982e+00	 8.9708272788e-01	 8.4213038474e-02
 1.5928249246e+00	 8.6490751503e-01	 2.4229914509e-01
 1.6100147624e+00	 8.3247144992e-01	 3.9328956599e-01
 1.6264933656e+00	 7.9979721280e-01	 5.3645003920e-01
 1.6422573304e+00	 7.6690749814e-01	 6.7122922491e-01
 1.6573041867e+00	 7.3382496731e-01	 7.9723461263e-01
 1.6716323876e+00	 7.0057220237e-01	 9.1420737592e-01
 1.6852412957e+00	 6.6717166109e-01	 1.0219965501e+00
 1.7433530645e+00	 6.9017758044e-01	 8.8429804393e-01
 1.7566874145e+00	 6.5549548271e-01	 1.0482652137e+00
 1.7692791045e+00	 6.2070641246e-01	 1.2402580046e+00
 1.7811301897e+00	 5.8583295167e-01	 1.3267812492e+00
 1.7922435864e+00	 5.5089738323e-01	 1.4418487303e+00
 1.8026230466e+00	 5.1592165286e-01	 1.5766156118e+00
 1.8122731307e+00	 4.8092733317e-01	 1.7229327051e+00
 1.8211991790e+00	 4.4593558986e-01	 1.8733842280e+00
 1.8294072815e+00	 4.1096715009e-01	 2.0213173976e+00
 1.8369042459e+00	 3.7604227311e-01	 2.1608639848e+00
 1.8436975658e+00	 3.4118072329e-01	 2.2869540406e+00
 1.7375418876e+00	 6.8787698850e-01	 9.0341597035e-01
 1.7508317897e+00	 6.5331049777e-01	 1.0711402580e+00
 1.7633815074e+00	 6.1863739108e-01	 1.2556577697e+00
 1.7751930891e+00	 5.8388017517e-01	 1.3426724785e+00
 1.7862694411e+00	 5.4906105862e-01	 1.4581398299e+00
 1.7966143031e+00	 5.1420191401e-01	 1.5933347514e+00
 1.8062322202e+00	 4.7932424206e-01	 1.7402198496e+00
 1.8151285151e+00	 4.4444913790e-01	 1.8914826908e+00
 1.8233092572e+00	 4.0959725958e-01	 2.0405650078e+00
 1.8307812318e+00	 3.7478879887e-01	 2.1816839570e+00
 1.8375519072e+00	 3.4004345421e-01	 2.3098456339e+00
 1.7317307107e+00	 6.8557639657e-01	 9.2139932520e-01
 1.7449761650e+00	 6.5112551282e-01	 1.0928349074e+00
 1.7574839104e+00	 6.1656836970e-01	 1.2696220423e+00
 1.7692559884e+00	 5.8192739866e-01	 1.3573500702e+00
 1.7802952958e+00	 5.4722473401e-01	 1.4734262545e+00
 1.7906055596e+00	 5.1248217517e-01	 1.6092442079e+00
 1.8001913098e+00	 4.7772115095e-01	 1.7568773508e+00
 1.8090578511e+00	 4.4296268593e-01	 1.9091157180e+00
 1.8172112329e+00	 4.0822736908e-01	 2.0594947801e+00
 1.8246582176e+00	 3.7353532462e-01	 2.2023164039e+00
 1.8314062487e+00	 3.3890618513e-01	 2.3326621585e+00
 1.7259195338e+00	 6.8327580463e-01	 9.3822778773e-01
 1.7391205403e+00	 6.4894052788e-01	 1.1133303617e+00
 1.7515863134e+00	 6.1449934833e-01	 1.2821722393e+00
 1.7633188878e+00	 5.7997462215e-01	 1.3708342560e+00
 1.7743211506e+00	 5.4538840940e-01	 1.4877270554e+00
 1.7845968161e+00	 5.1076243633e-01	 1.6243618617e+00
 1.7941503994e+00	 4.7611805984e-01	 1.7729219335e+00
 1.8029871872e+00	 4.4147623396e-01	 1.9262988978e+00
 1.8111132087e+00	 4.0685747858e-01	 2.0781211890e+00
 1.8185352035e+00	 3.7228185037e-01	 2.2227747134e+00
 1.8252605901e+00	 3.3776891605e-01	 2.3554159464e+00
 1.7201083570e+00	 6.8097521269e-01	 9.5388109994e-01
 1.7332649156e+00	 6.4675554294e-01	 1.1326078878e+00
 1.7456887164e+00	 6.1243032695e-01	 1.2933298492e+00
 1.7573817872e+00	 5.7802184565e-01	 1.3831453422e+00
 1.7683470053e+00	 5.4355208478e-01	 1.5010613612e+00
 1.7785880726e+00	 5.0904269748e-01	 1.6387056736e+00
 1.7881094889e+00	 4.7451496873e-01	 1.7883704042e+00
 1.7969165233e+00	 4.3998978199e-01	 1.9430479012e+00
 1.8050151844e+00	 4.0548758808e-01	 2.0964587926e+00
 1.8124121893e+00	 3.7102837613e-01	 2.2430723576e+00
 1.8191149316e+00	 3.3663164697e-01	 2.3781194134e+00
 1.7142971801e+00	 6.7867462076e-01	 9.6833906766e-01
 1.7274092909e+00	 6.4457055799e-01	 1.1506488212e+00
 1.7397911194e+00	 6.1036130558e-01	 1.3031164328e+00
 1.7514446865e+00	 5.7606906914e-01	 1.3943037112e+00
 1.7623728600e+00	 5.4171576017e-01	 1.5134483798e+00
 1.7725793291e+00	 5.0732295864e-01	 1.6522936854e+00
 1.7820685785e+00	 4.7291187761e-01	 1.8032396526e+00
 1.7908458594e+00	 4.3850333003e-01	 1.9593784836e+00
 1.7989171601e+00	 4.0411769758e-01	 2.1145222345e+00
 1.8062891752e+00	 3.6977490189e-01	 2.2632228938e+00
 1.8129692730e+00	 3.3549437789e-01	 2.4007850603e+00
 1.7084860032e+00	 6.7637402883e-01	 9.8158156166e-01
 1.7215536662e+00	 6.4238557305e-01	 1.1674345669e+00
 1.7338935224e+00	 6.0829228420e-01	 1.3115536248e+00
 1.7455075859e+00	 5.7411629264e-01	 1.4043298227e+00
 1.7563987147e+00	 5.3987943556e-01	 1.5249073993e+00
 1.7665705856e+00	 5.0560321980e-01	 1.6651440218e+00
 1.7760276681e+00	 4.7130878650e-01	 1.8175466531e+00
 1.7847751954e+00	 4.3701687806e-01	 1.9753064865e+00
 1.7928191358e+00	 4.0274780708e-01	 2.1323262446e+00
 1.8001661610e+00	 3.6852142764e-01	 2.2832399660e+00
 1.8068236144e+00	 3.3435710882e-01	 2.4234254742e+00
 1.7026748263e+00	 6.7407343689e-01	 9.9358851870e-01
 1.7156980415e+00	 6.4020058811e-01	 1.1829466009e+00
 1.7279959254e+00	 6.0622326283e-01	 1.3186631348e+00
 1.7395704853e+00	 5.7216351613e-01	 1.4132442152e+00
 1.7504245694e+00	 5.3804311095e-01	 1.5354577893e+00
 1.7605618422e+00	 5.0388348095e-01	 1.6772748917e+00
 1.7699867576e+00	 4.6970569539e-01	 1.8313084661e+00
 1.7787045315e+00	 4.3553042609e-01	 1.9908478384e+00
 1.7867211116e+00	 4.0137791658e-01	 2.1498856411e+00
 1.7940431469e+00	 3.6726795340e-01	 2.3031373066e+00
 1.8006779559e+00	 3.3321983974e-01	 2.4460533301e+00
 1.6968636494e+00	 6.7177284496e-01	 1.0043399427e+00
 1.7098424167e+00	 6.3801560317e-01	 1.1971664711e+00
 1.7220983283e+00	 6.0415424145e-01	 1.3244667490e+00
 1.7336333847e+00	 5.7021073963e-01	 1.4210675069e+00
 1.7444504241e+00	 5.3620678634e-01	 1.5451190028e+00
 1.7545530987e+00	 5.0216374211e-01	 1.6887045896e+00
 1.7639458472e+00	 4.6810260428e-01	 1.8445422392e+00
 1.7726338676e+00	 4.3404397413e-01	 2.0060185571e+00
 1.7806230873e+00	 4.0000802608e-01	 2.1672153315e+00
 1.7879201327e+00	 3.6601447916e-01	 2.3229287379e+00
 1.7945322973e+00	 3.3208257066e-01	 2.4686813927e+00
 1.6910524725e+00	 6.6947225303e-01	 1.0138159059e+00
 1.7039867920e+00	 6.3583061823e-01	 1.2100757986e+00
 1.7162007313e+00	 6.0208522008e-01	 1.3289863307e+00
 1.7276962840e+00	 5.6825796312e-01	 1.4278203977e+00
 1.7384762788e+00	 5.3437046173e-01	 1.5539105772e+00
 1.7485443552e+00	 5.0044400327e-01	 1.6994514969e+00
 1.7579049368e+00	 4.6649951317e-01	 1.8572652095e+00
 1.7665632037e+00	 4.3255752216e-01	 2.0208347504e+00
 1.7745250630e+00	 3.9863813558e-01	 2.1843303149e+00
 1.7817971186e+00	 3.6476100491e-01	 2.3426281734e+00
 1.7883866388e+00	 3.3094530159e-01	 2.4913225173e+00
 1.6852412957e+00	 6.6717166109e-01	 1.0219965501e+00
 1.6981311673e+00	 6.3364563329e-01	 1.2216562794e+00
 1.7103031343e+00	 6.0001619871e-01	 1.3322438228e+00
 1.7217591834e+00	 5.6630518662e-01	 1.4335236701e+00
 1.7325021336e+00	 5.3253413712e-01	 1.5618521358e+00
 1.7425356117e+00	 4.9872426443e-01	 1.7095340837e+00
 1.7518640263e+00	 4.6489642206e-01	 1.8694947042e+00
 1.7604925397e+00	 4.3107107020e-01	 2.0353126181e+00
 1.7684270388e+00	 3.9726824508e-01	 2.2012456827e+00
 1.7756741044e+00	 3.6350753067e-01	 2.3622496193e+00
 1.7822409802e+00	 3.2980803251e-01	 2.5139896520e+00
 1.8436975658e+00	 3.4118072329e-01	 2.2869540406e+00
 1.8497953861e+00	 3.0640174533e-01	 2.4068954048e+00
 1.8552064696e+00	 2.7172404193e-01	 2.5371180697e+00
 1.8599401617e+00	 2.3716575372e-01	 2.6741961808e+00
 1.8640063550e+00	 2.0274444155e-01	 2.8154076854e+00
 1.8674154536e+00	 1.6847707106e-01	 2.9587205886e+00
 1.8701783379e+00	 1.3437999951e-01	 3.1027739271e+00
 1.8723063283e+00	 1.0046896479e-01	 3.2468539666e+00
 1.8738111500e+00	 6.6759076657e-02	 3.3908661451e+00
 1.8747048974e+00	 3.3264809970e-02	 3.5353032934e+00
 1.8750000000e+00	 0.0000000000e+00	 3.6812106654e+00
 1.8375519072e+00	 3.4004345421e-01	 2.3098456339e+00
 1.8436294015e+00	 3.0538040618e-01	 2.4316412606e+00
 1.8490224481e+00	 2.7081829512e-01	 2.5622456731e+00
 1.8537403612e+00	 2.3637520120e-01	 2.6982945169e+00
 1.8577930005e+00	 2.0206862674e-01	 2.8371247104e+00
 1.8611907355e+00	 1.6791548082e-01	 2.9767605148e+00
 1.8639444102e+00	 1.3393206617e-01	 3.1158943707e+00
 1.8660653072e+00	 1.0013406824e-01	 3.2538630022e+00
 1.8675651128e+00	 6.6536546401e-02	 3.3906193098e+00
 1.8684558811e+00	 3.3153927269e-02	 3.5267005784e+00
 1.8687500000e+00	 0.0000000000e+00	 3.6631935299e+00
 1.8314062487e+00	 3.3890618513e-01	 2.3326621585e+00
 1.8374634169e+00	 3.0435906702e-01	 2.4565057302e+00
 1.8428384265e+00	 2.6991254831e-01	 2.5876522549e+00
 1.8475405607e+00	 2.3558464869e-01	 2.7227987416e+00
 1.8515796459e+00	 2.0139281193e-01	 2.8593410700e+00
 1.8549660173e+00	 1.6735389058e-01	 2.9953598714e+00
 1.8577104824e+00	 1.3348413284e-01	 3.1296012218e+00
 1.8598242861e+00	 9.9799171688e-02	 3.2614526484e+00
 1.8613190756e+00	 6.6314016144e-02	 3.3909149658e+00
 1.8622068648e+00	 3.3043044569e-02	 3.5185704650e+00
 1.8625000000e+00	 0.0000000000e+00	 3.6455479832e+00
 1.8252605901e+00	 3.3776891605e-01	 2.3554159464e+00
 1.8312974322e+00	 3.0333772787e-01	 2.4815011293e+00
 1.8366544049e+00	 2.6900680150e-01	 2.6133500031e+00
 1.8413407601e+00	 2.3479409617e-01	 2.7477208075e+00
 1.8453662914e+00	 2.0071699713e-01	 2.8820683784e+00
 1.8487412991e+00	 1.6679230034e-01	 3.0145298342e+00
 1.8514765546e+00	 1.3303619951e-01	 3.1439051219e+00
 1.8535832650e+00	 9.9464275138e-02	 3.2696329201e+00
 1.8550730385e+00	 6.6091485888e-02	 3.3917624122e+00
 1.8559578484e+00	 3.2932161868e-02	 3.5109214517e+00
 1.8562500000e+00	 0.0000000000e+00	 3.6282816412e+00
 1.8191149316e+00	 3.3663164697e-01	 2.3781194134e+00
 1.8251314476e+00	 3.0231638872e-01	 2.5066398696e+00
 1.8304703834e+00	 2.6810105470e-01	 2.6393512120e+00
 1.8351409596e+00	 2.3400354366e-01	 2.7730727818e+00
 1.8391529369e+00	 2.0004118232e-01	 2.9053183695e+00
 1.8425165809e+00	 1.6623071011e-01	 3.0342817018e+00
 1.8452426268e+00	 1.3258826617e-01	 3.1588168359e+00
 1.8473422440e+00	 9.9129378588e-02	 3.2784139535e+00
 1.8488270013e+00	 6.5868955632e-02	 3.3931710658e+00
 1.8497088321e+00	 3.2821279168e-02	 3.5037621482e+00
 1.8500000000e+00	 0.0000000000e+00	 3.6114022226e+00
 1.8129692730e+00	 3.3549437789e-01	 2.4007850603e+00
 1.8189654630e+00	 3.0129504957e-01	 2.5319344611e+00
 1.8242863618e+00	 2.6719530789e-01	 2.6656682843e+00
 1.8289411590e+00	 2.3321299115e-01	 2.7988668479e+00
 1.8329395824e+00	 1.9936536752e-01	 2.9291028988e+00
 1.8362918628e+00	 1.6566911987e-01	 3.0546268973e+00
 1.8390086990e+00	 1.3214033284e-01	 3.1743472536e+00
 1.8411012229e+00	 9.8794482039e-02	 3.2878060083e+00
 1.8425809641e+00	 6.5646425376e-02	 3.3951504629e+00
 1.8434598158e+00	 3.2710396468e-02	 3.4971012775e+00
 1.8437500000e+00	 0.0000000000e+00	 3.5949175509e+00
 1.8068236144e+00	 3.3435710882e-01	 2.4234254742e+00
 1.8127994784e+00	 3.0027371042e-01	 2.5573975131e+00
 1.8181023403e+00	 2.6628956108e-01	 2.6923137329e+00
 1.8227413585e+00	 2.3242243864e-01	 2.8251153073e+00
 1.8267262279e+00	 1.9868955271e-01	 2.9534339456e+00
 1.8300671446e+00	 1.6510752963e-01	 3.0755769705e+00
 1.8327747712e+00	 1.3169239951e-01	 3.1905073925e+00
 1.8348602018e+00	 9.8459585490e-02	 3.2978194700e+00
 1.8363349270e+00	 6.5423895121e-02	 3.3977102611e+00
 1.8372107995e+00	 3.2599513769e-02	 3.4909476775e+00
 1.8375000000e+00	 0.0000000000e+00	 3.5788355559e+00
 1.8006779559e+00	 3.3321983974e-01	 2.4460533301e+00
 1.8066334938e+00	 2.9925237127e-01	 2.5830417364e+00
 1.8119183187e+00	 2.6538381428e-01	 2.7193001830e+00
 1.8165415580e+00	 2.3163188612e-01	 2.8518305819e+00
 1.8205128734e+00	 1.9801373791e-01	 2.9783236150e+00
 1.8238424264e+00	 1.6454593940e-01	 3.0971436005e+00
 1.8265408434e+00	 1.3124446618e-01	 3.2073083994e+00
 1.8286191807e+00	 9.8124688942e-02	 3.3084648517e+00
 1.8300888898e+00	 6.5201364866e-02	 3.4008602416e+00
 1.8309617831e+00	 3.2488631069e-02	 3.4853103033e+00
 1.8312500000e+00	 0.0000000000e+00	 3.5631642758e+00
 1.7945322973e+00	 3.3208257066e-01	 2.4686813927e+00
 1.8004675091e+00	 2.9823103212e-01	 2.6088799448e+00
 1.8057342971e+00	 2.6447806747e-01	 2.7466403734e+00
 1.8103417574e+00	 2.3084133361e-01	 2.8790252157e+00
 1.8142995188e+00	 1.9733792310e-01	 3.0037841403e+00
 1.8176177082e+00	 1.6398434916e-01	 3.1193385972e+00
 1.8203069156e+00	 1.3079653285e-01	 3.2247615531e+00
 1.8223781596e+00	 9.7789792394e-02	 3.3197527962e+00
 1.8238428526e+00	 6.4978834612e-02	 3.4046103113e+00
 1.8247127668e+00	 3.2377748370e-02	 3.4801982288e+00
 1.8250000000e+00	 0.0000000000e+00	 3.5479118587e+00
 1.7883866388e+00	 3.3094530159e-01	 2.4913225173e+00
 1.7943015245e+00	 2.9720969297e-01	 2.6349250570e+00
 1.7995502756e+00	 2.6357232067e-01	 2.7743471593e+00
 1.8041419569e+00	 2.3005078110e-01	 2.9067118775e+00
 1.8080861643e+00	 1.9666210830e-01	 3.0298278848e+00
 1.8113929900e+00	 1.6342275893e-01	 3.1421739041e+00
 1.8140729878e+00	 1.3034859952e-01	 3.2428782662e+00
 1.8161371385e+00	 9.7454895846e-02	 3.3316940790e+00
 1.8175968155e+00	 6.4756304358e-02	 3.4089705049e+00
 1.8184637505e+00	 3.2266865671e-02	 3.4756206492e+00
 1.8187500000e+00	 0.0000000000e+00	 3.5330865649e+00
 1.7822409802e+00	 3.2980803251e-01	 2.5139896520e+00
 1.7881355399e+00	 2.9618835382e-01	 2.6611900981e+00
 1.7933662540e+00	 2.6266657387e-01	 2.8024335136e+00
 1.7979421563e+00	 2.2926022860e-01	 2.9349033623e+00
 1.8018728098e+00	 1.9598629350e-01	 3.0564673444e+00
 1.8051682719e+00	 1.6286116869e-01	 3.1656616005e+00
 1.8078390600e+00	 1.2990066619e-01	 3.2616700880e+00
 1.8098961174e+00	 9.7119999299e-02	 3.3442996096e+00
 1.8113507783e+00	 6.4533774104e-02	 3.4139509872e+00
 1.8122147342e+00	 3.2155982972e-02	 3.4715868828e+00
 1.8125000000e+00	 0.0000000000e+00	 3.5186967685e+00
 0.0000000000e+00	 1.8125000000e+00	-5.5775601499e-01
 3.2155982972e-02	 1.8122147342e+00	-5.6428656755e-01
 6.4533774104e-02	 1.8113507783e+00	-5.7529293908e-01
 9.7119999299e-02	 1.8098961174e+00	-5.8939062801e-01
 1.2990066619e-01	 1.8078390600e+00	-6.0547733770e-01
 1.6286116869e-01	 1.8051682719e+00	-6.2275379830e-01
 1.9598629350e-01	 1.8018728098e+00	-6.4074295379e-01
 2.2926022860e-01	 1.7979421563e+00	-6.5930721987e-01
 2.6266657387e-01	 1.7933662540e+00	-6.7866351856e-01
 2.9618835382e-01	 1.7881355399e+00	-6.9939580028e-01
 3.2980803251e-01	 1.7822409802e+00	-7.2246477264e-01
 0.0000000000e+00	 1.8062500000e+00	-5.4355771762e-01
 3.2045100273e-02	 1.8059657178e+00	-5.4969398228e-01
 6.4311243850e-02	 1.8051047411e+00	-5.6030393626e-01
 9.6785102752e-02	 1.8036550963e+00	-5.7400207781e-01
 1.2945273286e-01	 1.8016051322e+00	-5.8968210288e-01
 1.6229957846e-01	 1.7989435537e+00	-6.0653758200e-01
 1.9531047870e-01	 1.7956594553e+00	-6.2408102298e-01
 2.2846967609e-01	 1.7917423558e+00	-6.4216102778e-01
 2.6176082706e-01	 1.7871822324e+00	-6.6097725207e-01
 2.9516701467e-01	 1.7819695553e+00	-6.8109288112e-01
 3.2867076344e-01	 1.7760953217e+00	-7.0344434335e-01
 0.0000000000e+00	 1.8000000000e+00	-5.3022567154e-01
 3.1934217573e-02	 1.7997167015e+00	-5.3603364169e-01
 6.4088713596e-02	 1.7988587040e+00	-5.4629871296e-01
 9.6450206205e-02	 1.7974140752e+00	-5.5963409090e-01
 1.2900479953e-01	 1.7953712044e+00	-5.7492922168e-01
 1.6173798823e-01	 1.7927188355e+00	-5.9137032721e-01
 1.9463466389e-01	 1.7894461008e+00	-6.0845934658e-01
 2.2767912358e-01	 1.7855425553e+00	-6.2603099456e-01
 2.6085508026e-01	 1.7809982109e+00	-6.4426764895e-01
 2.9414567552e-01	 1.7758035707e+00	-6.6371178227e-01
 3.2753349436e-01	 1.7699496632e+00	-6.8527566237e-01
 0.0000000000e+00	 1.7937500000e+00	-5.1776340652e-01
 3.1823334874e-02	 1.7934676852e+00	-5.2330955721e-01
 6.3866183341e-02	 1.7926126668e+00	-5.3328175667e-01
 9.6115309657e-02	 1.7911730541e+00	-5.4629162403e-01
 1.2855686620e-01	 1.7891372766e+00	-5.6122411201e-01
 1.6117639799e-01	 1.7864941173e+00	-5.7725790350e-01
 1.9395884909e-01	 1.7832327463e+00	-5.9388423466e-01
 2.2688857107e-01	 1.7793427547e+00	-6.1092385809e-01
 2.5994933345e-01	 1.7748141893e+00	-6.2854186024e-01
 2.9312433637e-01	 1.7696375860e+00	-6.4726005151e-01
 3.2639622528e-01	 1.7638040046e+00	-6.6796665568e-01
 0.0000000000e+00	 1.7875000000e+00	-5.0617450167e-01
 3.1712452174e-02	 1.7872186689e+00	-5.1152579310e-01
 6.3643653086e-02	 1.7863666296e+00	-5.2125761044e-01
 9.5780413108e-02	 1.7849320330e+00	-5.3397969147e-01
 1.2810893287e-01	 1.7829033488e+00	-5.4857225045e-01
 1.6061480775e-01	 1.7802693991e+00	-5.6420623939e-01
 1.9328303429e-01	 1.7770193918e+00	-5.8036205582e-01
 2.2609801855e-01	 1.7731429542e+00	-5.9684641339e-01
 2.5904358665e-01	 1.7686301677e+00	-6.1380709203e-01
 2.9210299722e-01	 1.7634716014e+00	-6.3174528863e-01
 3.2525895621e-01	 1.7576583460e+00	-6.5152529735e-01
 0.0000000000e+00	 1.7812500000e+00	-4.9546258635e-01
 3.1601569475e-02	 1.7809696526e+00	-5.0068646739e-01
 6.3421122831e-02	 1.7801205925e+00	-5.1023087382e-01
 9.5445516559e-02	 1.7786910119e+00	-5.2270336594e-01
 1.2766099954e-01	 1.7766694211e+00	-5.3697917322e-01
 1.6005321752e-01	 1.7740446810e+00	-5.5222132343e-01
 1.9260721948e-01	 1.7708060372e+00	-5.6789923819e-01
 2.2530746604e-01	 1.7669431537e+00	-5.8380551372e-01
 2.5813783984e-01	 1.7624461462e+00	-6.0007060639e-01
 2.9108165807e-01	 1.7573056168e+00	-6.1717514630e-01
 3.2412168713e-01	 1.7515126875e+00	-6.3595961036e-01
 0.0000000000e+00	 1.7750000000e+00	-4.8563134104e-01
 3.1490686775e-02	 1.7747206362e+00	-4.9079575276e-01
 6.3198592575e-02	 1.7738745553e+00	-5.0020620386e-01
 9.5110620010e-02	 1.7724499908e+00	-5.1246777971e-01
 1.2721306621e-01	 1.7704354933e+00	-5.2645047727e-01
 1.5949162728e-01	 1.7678199628e+00	-5.4130920527e-01
 1.9193140468e-01	 1.7645926827e+00	-5.5650227048e-01
 2.2451691353e-01	 1.7607433531e+00	-5.7180807154e-01
 2.5723209304e-01	 1.7562621246e+00	-5.8733972238e-01
 2.9006031892e-01	 1.7511396322e+00	-6.0355733102e-01
 3.2298441805e-01	 1.7453670289e+00	-6.2127766750e-01
 0.0000000000e+00	 1.7687500000e+00	-4.7668449823e-01
 3.1379804075e-02	 1.7684716199e+00	-4.8185787762e-01
 6.2976062320e-02	 1.7676285181e+00	-4.9118831615e-01
 9.4775723460e-02	 1.7662089697e+00	-5.0327812560e-01
 1.2676513288e-01	 1.7642015655e+00	-5.1699182132e-01
 1.5893003704e-01	 1.7615952446e+00	-5.3147599667e-01
 1.9125558987e-01	 1.7583793282e+00	-5.4617770304e-01
 2.2372636102e-01	 1.7545435526e+00	-5.6086105957e-01
 2.5632634623e-01	 1.7500781030e+00	-5.7562181703e-01
 2.8903897977e-01	 1.7449736476e+00	-5.9089960409e-01
 3.2184714897e-01	 1.7392213704e+00	-6.0748759221e-01
 0.0000000000e+00	 1.7625000000e+00	-4.6862584336e-01
 3.1268921374e-02	 1.7622226036e+00	-4.7387712700e-01
 6.2753532063e-02	 1.7613824810e+00	-4.8318198583e-01
 9.4440826910e-02	 1.7599679486e+00	-4.9513965809e-01
 1.2631719954e-01	 1.7579676377e+00	-5.0860892699e-01
 1.5836844681e-01	 1.7553705264e+00	-5.2272787267e-01
 1.9057977506e-01	 1.7521659737e+00	-5.3693214898e-01
 2.2293580850e-01	 1.7483437520e+00	-5.5097151188e-01
 2.5542059942e-01	 1.7438940815e+00	-5.6492432637e-01
 2.8801764062e-01	 1.7388076629e+00	-5.7920978257e-01
 3.2070987989e-01	 1.7330757118e+00	-5.9459755948e-01
 0.0000000000e+00	 1.7562500000e+00	-4.6145921574e-01
 3.1158038674e-02	 1.7559735873e+00	-4.6685784358e-01
 6.2531001807e-02	 1.7551364438e+00	-4.7619204867e-01
 9.4105930359e-02	 1.7537269275e+00	-4.8805769439e-01
 1.2586926621e-01	 1.7517337099e+00	-5.0130757988e-01
 1.5780685657e-01	 1.7491458083e+00	-5.1507107269e-01
 1.8990396026e-01	 1.7459526192e+00	-5.2877228527e-01
 2.2214525599e-01	 1.7421439515e+00	-5.4214652497e-01
 2.5451485261e-01	 1.7377100599e+00	-5.5525474650e-01
 2.8699630146e-01	 1.7326416783e+00	-5.6849574026e-01
 3.1957261082e-01	 1.7269300533e+00	-5.8261579680e-01
 0.0000000000e+00	 1.7500000000e+00	-4.5518850956e-01
 3.1047155973e-02	 1.7497245709e+00	-4.6080442875e-01
 6.2308471550e-02	 1.7488904066e+00	-4.7022340214e-01
 9.3771033808e-02	 1.7474859064e+00	-4.8203761558e-01
 1.2542133288e-01	 1.7454997821e+00	-4.9509363077e-01
 1.5724526633e-01	 1.7429210901e+00	-5.0851190167e-01
 1.8922814545e-01	 1.7397392647e+00	-5.2170485388e-01
 2.2135470347e-01	 1.7359441510e+00	-5.3439325886e-01
 2.5360910580e-01	 1.7315260383e+00	-5.4662063467e-01
 2.8597496231e-01	 1.7264756937e+00	-5.5876540872e-01
 3.1843534174e-01	 1.7207843947e+00	-5.7155058509e-01
 3.2980803251e-01	 1.7822409802e+00	-7.2246477264e-01
 3.6350755029e-01	 1.7756740966e+00	-7.8225127128e-01
 3.9726832435e-01	 1.7684270071e+00	-8.2676341646e-01
 4.3107125030e-01	 1.7604924680e+00	-8.5587941955e-01
 4.6489674531e-01	 1.7518638978e+00	-8.6986265975e-01
 4.9872477425e-01	 1.7425354093e+00	-8.6936288246e-01
 5.3253487804e-01	 1.7325018397e+00	-8.5541366868e-01
 5.6630620417e-01	 1.7217587801e+00	-8.2942603554e-01
 6.0001753946e-01	 1.7103026033e+00	-7.9317806675e-01
 6.3364734474e-01	 1.6981304897e+00	-8.1396446096e-01
 6.6717379169e-01	 1.6852404522e+00	-1.0212829728e+00
 3.2867076344e-01	 1.7760953217e+00	-7.0344434335e-01
 3.6225407598e-01	 1.7695510825e+00	-7.6845586991e-01
 3.9589843358e-01	 1.7623289830e+00	-8.1813722221e-01
 4.2958479771e-01	 1.7544218043e+00	-8.5235234442e-01
 4.6329365309e-01	 1.7458229878e+00	-8.7134736605e-01
 4.9700503365e-01	 1.7365266665e+00	-8.7575188912e-01
 5.3069855087e-01	 1.7265276954e+00	-8.6657658295e-01
 5.6435342416e-01	 1.7158216809e+00	-8.4520694731e-01
 5.9794851346e-01	 1.7044050081e+00	-8.1339314293e-01
 6.3146235390e-01	 1.6922748673e+00	-8.2235989628e-01
 6.6487319241e-01	 1.6794292782e+00	-1.0345038006e+00
 3.2753349436e-01	 1.7699496632e+00	-6.8527566237e-01
 3.6100060167e-01	 1.7634280683e+00	-7.5537713041e-01
 3.9452854280e-01	 1.7562309588e+00	-8.1007794548e-01
 4.2809834512e-01	 1.7483511407e+00	-8.4922819627e-01
 4.6169056086e-01	 1.7397820778e+00	-8.7305724642e-01
 4.9528529305e-01	 1.7305179237e+00	-8.8217511011e-01
 5.2886222371e-01	 1.7205535511e+00	-8.7757017163e-01
 5.6240064414e-01	 1.7098845816e+00	-8.6060310979e-01
 5.9587948746e-01	 1.6985074129e+00	-8.3299692684e-01
 6.2927736306e-01	 1.6864192449e+00	-8.2962308838e-01
 6.6257259313e-01	 1.6736181042e+00	-1.0463863729e+00
 3.2639622528e-01	 1.7638040046e+00	-6.6796665568e-01
 3.5974712736e-01	 1.7573050542e+00	-7.4302281395e-01
 3.9315865203e-01	 1.7501329347e+00	-8.0259316102e-01
 4.2661189254e-01	 1.7422804770e+00	-8.4651434046e-01
 4.6008746864e-01	 1.7337411678e+00	-8.7499943219e-01
 4.9356555245e-01	 1.7245091809e+00	-8.8863941658e-01
 5.2702589654e-01	 1.7145794069e+00	-8.8840101780e-01
 5.6044786413e-01	 1.7039474824e+00	-8.7562078842e-01
 5.9381046146e-01	 1.6926098177e+00	-8.5199533486e-01
 6.2709237222e-01	 1.6805636226e+00	-8.3575393827e-01
 6.6027199385e-01	 1.6678069303e+00	-1.0569296294e+00
 3.2525895621e-01	 1.7576583460e+00	-6.5152529735e-01
 3.5849365305e-01	 1.7511820401e+00	-7.3140071767e-01
 3.9178876126e-01	 1.7440349105e+00	-7.9569046663e-01
 4.2512543995e-01	 1.7362098133e+00	-8.4421815146e-01
 4.5848437641e-01	 1.7277002579e+00	-8.7718104914e-01
 4.9184581185e-01	 1.7185004381e+00	-8.9515165856e-01
 5.2518956938e-01	 1.7086052626e+00	-8.9907566708e-01
 5.5849508412e-01	 1.6980103832e+00	-8.9026619395e-01
 5.9174143547e-01	 1.6867122226e+00	-8.7039421070e-01
 6.2490738137e-01	 1.6747080002e+00	-8.4147507930e-01
 6.5797139457e-01	 1.6619957563e+00	-1.0661323984e+00
 3.2412168713e-01	 1.7515126875e+00	-6.3595961036e-01
 3.5724017874e-01	 1.7450590260e+00	-7.2051867533e-01
 3.9041887048e-01	 1.7379368863e+00	-7.8937748348e-01
 4.2363898736e-01	 1.7301391496e+00	-8.4234701310e-01
 4.5688128419e-01	 1.7216593479e+00	-8.7960921743e-01
 4.9012607125e-01	 1.7124916953e+00	-9.0171866465e-01
 5.2335324221e-01	 1.7026311183e+00	-9.0960062691e-01
 5.5654230410e-01	 1.6920732839e+00	-9.0454548147e-01
 5.8967240947e-01	 1.6808146274e+00	-8.8819932413e-01
 6.2272239053e-01	 1.6688523778e+00	-8.6255073576e-01
 6.5567079529e-01	 1.6561845823e+00	-1.0739933957e+00
 3.2298441805e-01	 1.7453670289e+00	-6.2127766750e-01
 3.5598670443e-01	 1.7389360118e+00	-7.1038455793e-01
 3.8904897971e-01	 1.7318388622e+00	-7.8366185656e-01
 4.2215253477e-01	 1.7240684859e+00	-8.4090831868e-01
 4.5527819196e-01	 1.7156184379e+00	-8.8229105146e-01
 4.8840633065e-01	 1.7064829525e+00	-9.0834724157e-01
 5.2151691505e-01	 1.6966569740e+00	-9.1998236598e-01
 5.5458952409e-01	 1.6861361847e+00	-9.1846474950e-01
 5.8760338347e-01	 1.6749170322e+00	-9.0541636965e-01
 6.2053739969e-01	 1.6629967554e+00	-8.8279984931e-01
 6.5337019601e-01	 1.6503734083e+00	-1.0805112219e+00
 3.2184714897e-01	 1.7392213704e+00	-6.0748759221e-01
 3.5473323012e-01	 1.7328129977e+00	-7.0100627441e-01
 3.8767908893e-01	 1.7257408380e+00	-7.7855125511e-01
 4.2066608219e-01	 1.7179978222e+00	-8.3990947114e-01
 4.5367509974e-01	 1.7095775279e+00	-8.8523365978e-01
 4.8668659005e-01	 1.7004742097e+00	-9.1504417384e-01
 5.1968058788e-01	 1.6906828298e+00	-9.3022731346e-01
 5.5263674407e-01	 1.6801990854e+00	-9.3203003893e-01
 5.8553435747e-01	 1.6690194370e+00	-9.2205096523e-01
 6.1835240884e-01	 1.6571411330e+00	-9.0222757855e-01
 6.5106959673e-01	 1.6445622344e+00	-1.0856843608e+00
 3.2070987989e-01	 1.7330757118e+00	-5.9459755948e-01
 3.5347975580e-01	 1.7266899836e+00	-6.9239177226e-01
 3.8630919816e-01	 1.7196428139e+00	-7.7405337304e-01
 4.1917962960e-01	 1.7119271586e+00	-8.3935788325e-01
 4.5207200751e-01	 1.7035366179e+00	-8.8844414501e-01
 4.8496684945e-01	 1.6944654670e+00	-9.2181622334e-01
 5.1784426071e-01	 1.6847086855e+00	-9.4034185833e-01
 5.5068396406e-01	 1.6742619862e+00	-9.4524733201e-01
 5.8346533147e-01	 1.6631218418e+00	-9.3810865088e-01
 6.1616741800e-01	 1.6512855107e+00	-9.2083898404e-01
 6.4876899744e-01	 1.6387510604e+00	-1.0895111772e+00
 3.1957261082e-01	 1.7269300533e+00	-5.8261579680e-01
 3.5222628149e-01	 1.7205669695e+00	-6.8454903826e-01
 3.8493930738e-01	 1.7135447897e+00	-7.7017592934e-01
 4.1769317701e-01	 1.7058564949e+00	-8.3926097778e-01
 4.5046891528e-01	 1.6974957079e+00	-8.9192960372e-01
 4.8324710885e-01	 1.6884567242e+00	-9.2867012894e-01
 5.1600793355e-01	 1.6787345412e+00	-9.5033234867e-01
 5.4873118404e-01	 1.6683248870e+00	-9.5812255132e-01
 5.8139630547e-01	 1.6572242466e+00	-9.5359488728e-01
 6.1398242715e-01	 1.6454298883e+00	-9.3863902651e-01
 6.4646839816e-01	 1.6329398864e+00	-1.0919899147e+00
 3.1843534174e-01	 1.7207843947e+00	-5.7155058509e-01
 3.5097280718e-01	 1.7144439553e+00	-6.7748609916e-01
 3.8356941661e-01	 1.7074467655e+00	-7.6692666858e-01
 4.1620672442e-01	 1.6997858312e+00	-8.3962618765e-01
 4.4886582306e-01	 1.6914547979e+00	-8.9569712629e-01
 4.8152736824e-01	 1.6824479814e+00	-9.3561260606e-01
 5.1417160638e-01	 1.6727603969e+00	-9.6020509093e-01
 5.4677840403e-01	 1.6623877877e+00	-9.7066155871e-01
 5.7932727947e-01	 1.6513266515e+00	-9.6851505441e-01
 6.1179743631e-01	 1.6395742659e+00	-9.5563256510e-01
 6.4416779888e-01	 1.6271287125e+00	-1.0931186937e+00
 6.6717379169e-01	 1.6852404522e+00	-1.0212829728e+00
 7.0057392334e-01	 1.6716317111e+00	-1.0591900601e+00
 7.3382627693e-01	 1.6573036877e+00	-1.0992706521e+00
 7.6690839520e-01	 1.6422570194e+00	-1.1445660525e+00
 7.9979769663e-01	 1.6264932531e+00	-1.1981516207e+00
 8.3247152038e-01	 1.6100148588e+00	-1.2631127723e+00
 8.6490717254e-01	 1.5928252402e+00	-1.3425200788e+00
 8.9708197340e-01	 1.5749287433e+00	-1.4394036791e+00
 9.2897330559e-01	 1.5563306609e+00	-1.5567272326e+00
 9.6055866278e-01	 1.5370372353e+00	-1.6973616582e+00
 9.9181569901e-01	 1.5170556579e+00	-1.8640589098e+00
 6.6487319241e-01	 1.6794292782e+00	-1.0345038006e+00
 6.9815815120e-01	 1.6658674638e+00	-1.0707569749e+00
 7.3129584149e-01	 1.6515888474e+00	-1.1101396717e+00
 7.6426388350e-01	 1.6365940642e+00	-1.1556491866e+00
 7.9703977355e-01	 1.6208846557e+00	-1.2103124518e+00
 8.2960092893e-01	 1.6044630834e+00	-1.2771622530e+00
 8.6192473401e-01	 1.5873327394e+00	-1.3592125735e+00
 8.9398858729e-01	 1.5694979545e+00	-1.4594332803e+00
 9.2576994936e-01	 1.5509640034e+00	-1.5807243783e+00
 9.5724639153e-01	 1.5317371069e+00	-1.7258900737e+00
 9.8839564488e-01	 1.5118244315e+00	-1.8976128986e+00
 6.6257259313e-01	 1.6736181042e+00	-1.0463863729e+00
 6.9574237905e-01	 1.6601032165e+00	-1.0809499564e+00
 7.2876540606e-01	 1.6458740071e+00	-1.1196066693e+00
 7.6161937180e-01	 1.6309311089e+00	-1.1653101926e+00
 7.9428185046e-01	 1.6152760582e+00	-1.2210394141e+00
 8.2673033749e-01	 1.5989113080e+00	-1.2897748571e+00
 8.5894229549e-01	 1.5818402386e+00	-1.3744742682e+00
 8.9089520118e-01	 1.5640671658e+00	-1.4780475742e+00
 9.2256659314e-01	 1.5455973459e+00	-1.6033314351e+00
 9.5393412029e-01	 1.5264369785e+00	-1.7530636303e+00
 9.8497559074e-01	 1.5065932051e+00	-1.9298575283e+00
 6.6027199385e-01	 1.6678069303e+00	-1.0569296294e+00
 6.9332660690e-01	 1.6543389693e+00	-1.0897687622e+00
 7.2623497062e-01	 1.6401591668e+00	-1.1276722933e+00
 7.5897486009e-01	 1.6252681537e+00	-1.1735506813e+00
 7.9152392737e-01	 1.6096674608e+00	-1.2303351498e+00
 8.2385974604e-01	 1.5933595326e+00	-1.3009543256e+00
 8.5595985697e-01	 1.5763477377e+00	-1.3883100674e+00
 8.8780181507e-01	 1.5586363770e+00	-1.4952526913e+00
 9.1936323692e-01	 1.5402306885e+00	-1.6245558197e+00
 9.5062184904e-01	 1.5211368501e+00	-1.7788910875e+00
 9.8155553661e-01	 1.5013619787e+00	-1.9608029552e+00
 6.5797139457e-01	 1.6619957563e+00	-1.0661323984e+00
 6.9091083475e-01	 1.6485747220e+00	-1.0972130443e+00
 7.2370453519e-01	 1.6344443265e+00	-1.1343370931e+00
 7.5633034838e-01	 1.6196051985e+00	-1.1803721718e+00
 7.8876600428e-01	 1.6040588634e+00	-1.2382022177e+00
 8.2098915459e-01	 1.5878077572e+00	-1.3107043255e+00
 8.5297741844e-01	 1.5708552369e+00	-1.4007248123e+00
 8.8470842895e-01	 1.5532055882e+00	-1.5110547106e+00
 9.1615988069e-01	 1.5348640310e+00	-1.6444049093e+00
 9.4730957779e-01	 1.5158367217e+00	-1.8033811788e+00
 9.7813548247e-01	 1.4961307523e+00	-1.9904593241e+00
 6.5567079529e-01	 1.6561845823e+00	-1.0739933957e+00
 6.8849506260e-01	 1.6428104747e+00	-1.1032823473e+00
 7.2117409975e-01	 1.6287294862e+00	-1.1396015172e+00
 7.5368583668e-01	 1.6139422432e+00	-1.1857760895e+00
 7.8600808119e-01	 1.5984502660e+00	-1.2446430921e+00
 8.1811856314e-01	 1.5822559819e+00	-1.3190284488e+00
 8.4999497992e-01	 1.5653627361e+00	-1.4117232798e+00
 8.8161504284e-01	 1.5477747994e+00	-1.5254596581e+00
 9.1295652446e-01	 1.5294973736e+00	-1.6628860412e+00
 9.4399730654e-01	 1.5105365933e+00	-1.8265426118e+00
 9.7471542834e-01	 1.4908995259e+00	-2.0188367684e+00
 6.5337019601e-01	 1.6503734083e+00	-1.0805112219e+00
 6.8607929045e-01	 1.6370462274e+00	-1.1079761063e+00
 7.1864366431e-01	 1.6230146459e+00	-1.1434659113e+00
 7.5104132497e-01	 1.6082792880e+00	-1.1897637650e+00
 7.8325015810e-01	 1.5928416685e+00	-1.2496601607e+00
 8.1524797169e-01	 1.5767042065e+00	-1.3259302111e+00
 8.4701254139e-01	 1.5598702353e+00	-1.4213101813e+00
 8.7852165672e-01	 1.5423440107e+00	-1.5384735065e+00
 9.0975316824e-01	 1.5241307161e+00	-1.6800065122e+00
 9.4068503528e-01	 1.5052364649e+00	-1.8483840671e+00
 9.7129537421e-01	 1.4856682995e+00	-2.0459454101e+00
 6.5106959673e-01	 1.6445622344e+00	-1.0856843608e+00
 6.8366351830e-01	 1.6312819801e+00	-1.1112936453e+00
 7.1611322887e-01	 1.6172998056e+00	-1.1459305165e+00
 7.4839681326e-01	 1.6026163327e+00	-1.1923364322e+00
 7.8049223500e-01	 1.5872330711e+00	-1.2532557238e+00
 8.1237738024e-01	 1.5711524311e+00	-1.3314130501e+00
 8.4403010287e-01	 1.5543777344e+00	-1.4294901612e+00
 8.7542827061e-01	 1.5369132219e+00	-1.5501021738e+00
 9.0654981201e-01	 1.5187640587e+00	-1.6957735775e+00
 9.3737276403e-01	 1.4999363365e+00	-1.8689141985e+00
 9.6787532007e-01	 1.4804370731e+00	-2.0717953591e+00
 6.4876899744e-01	 1.6387510604e+00	-1.0895111772e+00
 6.8124774615e-01	 1.6255177329e+00	-1.1132341748e+00
 7.1358279343e-01	 1.6115849653e+00	-1.1469954675e+00
 7.4575230155e-01	 1.5969533775e+00	-1.1934952265e+00
 7.7773431191e-01	 1.5816244737e+00	-1.2554319920e+00
 8.0950678879e-01	 1.5656006557e+00	-1.3354803246e+00
 8.4104766434e-01	 1.5488852336e+00	-1.4362677964e+00
 8.7233488449e-01	 1.5314824331e+00	-1.5603515226e+00
 9.0334645578e-01	 1.5133974012e+00	-1.7101944506e+00
 9.3406049278e-01	 1.4946362081e+00	-1.8881416320e+00
 9.6445526593e-01	 1.4752058467e+00	-2.0963967131e+00
 6.4646839816e-01	 1.6329398864e+00	-1.0919899147e+00
 6.7883197400e-01	 1.6197534856e+00	-1.1137967903e+00
 7.1105235800e-01	 1.6058701250e+00	-1.1466607909e+00
 7.4310778985e-01	 1.5912904223e+00	-1.1932411831e+00
 7.7497638882e-01	 1.5760158763e+00	-1.2561910851e+00
 8.0663619734e-01	 1.5600488804e+00	-1.3381353125e+00
 8.3806522581e-01	 1.5433927328e+00	-1.4416475944e+00
 8.6924149837e-01	 1.5260516444e+00	-1.5692273587e+00
 9.0014309956e-01	 1.5080307438e+00	-1.7232763018e+00
 9.3074822153e-01	 1.4893360797e+00	-1.9060749657e+00
 9.6103521180e-01	 1.4699746202e+00	-2.1197595577e+00
 6.4416779888e-01	 1.6271287125e+00	-1.0931186937e+00
 6.7641620185e-01	 1.6139892383e+00	-1.1129804699e+00
 7.0852192256e-01	 1.6001552847e+00	-1.1449264029e+00
 7.4046327814e-01	 1.5856274670e+00	-1.1915752353e+00
 7.7221846572e-01	 1.5704072788e+00	-1.2555350304e+00
 8.0376560589e-01	 1.5544971050e+00	-1.3393812098e+00
 8.3508278728e-01	 1.5379002319e+00	-1.4456339925e+00
 8.6614811226e-01	 1.5206208556e+00	-1.5767354308e+00
 8.9693974333e-01	 1.5026640863e+00	-1.7350262579e+00
 9.2743595027e-01	 1.4840359513e+00	-1.9227227689e+00
 9.5761515766e-01	 1.4647433938e+00	-2.1418939659e+00
 9.9181569901e-01	 1.5170556579e+00	-1.8640589098e+00
 1.0227230500e+00	 1.4963935546e+00	-1.8598777371e+00
 1.0532580265e+00	 1.4750605252e+00	-1.8583056950e+00
 1.0833990592e+00	 1.4530665737e+00	-1.8626042486e+00
 1.1131249359e+00	 1.4304226197e+00	-1.8759322713e+00
 1.1424148503e+00	 1.4071404823e+00	-1.9013206920e+00
 1.1712484493e+00	 1.3832328613e+00	-1.9416481050e+00
 1.1996058791e+00	 1.3587133149e+00	-1.9996175953e+00
 1.2274678304e+00	 1.3335962350e+00	-2.0777350181e+00
 1.2548155817e+00	 1.3078968193e+00	-2.1025113737e+00
 1.2816310409e+00	 1.2816310409e+00	-1.7795818749e+00
 9.8839564488e-01	 1.5118244315e+00	-1.8976128986e+00
 1.0191964187e+00	 1.4912335768e+00	-1.8948872929e+00
 1.0496261023e+00	 1.4699741096e+00	-1.8920640132e+00
 1.0796632004e+00	 1.4480559993e+00	-1.8923105124e+00
 1.1092865740e+00	 1.4254901279e+00	-1.8987018186e+00
 1.1384754887e+00	 1.4022882737e+00	-1.9141957622e+00
 1.1672096615e+00	 1.3784630928e+00	-1.9416091090e+00
 1.1954693071e+00	 1.3540280966e+00	-1.9835948487e+00
 1.2232351828e+00	 1.3289976273e+00	-2.0426208717e+00
 1.2504886314e+00	 1.3033868302e+00	-2.1132830236e+00
 1.2772116235e+00	 1.2772116235e+00	-1.7714155757e+00
 9.8497559074e-01	 1.5065932051e+00	-1.9298575283e+00
 1.0156697875e+00	 1.4860735991e+00	-1.9286729817e+00
 1.0459941781e+00	 1.4648876940e+00	-1.9246735780e+00
 1.0759273415e+00	 1.4430454249e+00	-1.9209327911e+00
 1.1054482122e+00	 1.4205576361e+00	-1.9204418553e+00
 1.1345361272e+00	 1.3974360652e+00	-1.9260855703e+00
 1.1631708738e+00	 1.3736933243e+00	-1.9406189577e+00
 1.1913327351e+00	 1.3493428782e+00	-1.9666450105e+00
 1.2190025351e+00	 1.3243990196e+00	-2.0065937665e+00
 1.2461616811e+00	 1.2988768412e+00	-2.0627029235e+00
 1.2727922062e+00	 1.2727922062e+00	-1.7619459008e+00
 9.8155553661e-01	 1.5013619787e+00	-1.9608029552e+00
 1.0121431563e+00	 1.4809136213e+00	-1.9612467158e+00
 1.0423622538e+00	 1.4598012784e+00	-1.9561478848e+00
 1.0721914827e+00	 1.4380348505e+00	-1.9484859858e+00
 1.1016098503e+00	 1.4156251443e+00	-1.9411685061e+00
 1.1305967656e+00	 1.3925838566e+00	-1.9370072793e+00
 1.1591320860e+00	 1.3689235558e+00	-1.9386956630e+00
 1.1871961631e+00	 1.3446576599e+00	-1.9487867495e+00
 1.2147698874e+00	 1.3198004119e+00	-1.9696728343e+00
 1.2418347309e+00	 1.2943668522e+00	-2.0035663572e+00
 1.2683727888e+00	 1.2683727888e+00	-1.7511607997e+00
 9.7813548247e-01	 1.4961307523e+00	-1.9904593241e+00
 1.0086165251e+00	 1.4757536435e+00	-1.9926204158e+00
 1.0387303296e+00	 1.4547148628e+00	-1.9865004549e+00
 1.0684556239e+00	 1.4330242761e+00	-1.9749850388e+00
 1.0977714885e+00	 1.4106926525e+00	-1.9608979504e+00
 1.1266574041e+00	 1.3877316480e+00	-1.9469781173e+00
 1.1550932982e+00	 1.3641537873e+00	-1.9358573105e+00
 1.1830595911e+00	 1.3399724416e+00	-1.9300388147e+00
 1.2105372397e+00	 1.3152018041e+00	-1.9318772908e+00
 1.2375077806e+00	 1.2898568631e+00	-1.9435600422e+00
 1.2639533714e+00	 1.2639533714e+00	-1.7390483065e+00
 9.7471542834e-01	 1.4908995259e+00	-2.0188367684e+00
 1.0050898939e+00	 1.4705936657e+00	-2.0228060108e+00
 1.0350984054e+00	 1.4496284472e+00	-2.0157448361e+00
 1.0647197651e+00	 1.4280137017e+00	-2.0004449347e+00
 1.0939331266e+00	 1.4057601607e+00	-1.9796464229e+00
 1.1227180425e+00	 1.3828794395e+00	-1.9560153791e+00
 1.1510545105e+00	 1.3593840188e+00	-1.9321220613e+00
 1.1789230191e+00	 1.3352872232e+00	-1.9104200367e+00
 1.2063045920e+00	 1.3106031964e+00	-1.8932264371e+00
 1.2331808303e+00	 1.2853468741e+00	-1.8827035491e+00
 1.2595339540e+00	 1.2595339540e+00	-1.7255965409e+00
 9.7129537421e-01	 1.4856682995e+00	-2.0459454101e+00
 1.0015632627e+00	 1.4654336880e+00	-2.0518154388e+00
 1.0314664812e+00	 1.4445420316e+00	-2.0438946033e+00
 1.0609839062e+00	 1.4230031274e+00	-2.0248807007e+00
 1.0900947648e+00	 1.4008276689e+00	-1.9974302148e+00
 1.1187786809e+00	 1.3780272309e+00	-1.9641364269e+00
 1.1470157227e+00	 1.3546142503e+00	-1.9275081527e+00
 1.1747864471e+00	 1.3306020049e+00	-1.8899493287e+00
 1.2020719443e+00	 1.3060045887e+00	-1.8537396609e+00
 1.2288538800e+00	 1.2808368851e+00	-1.8210165372e+00
 1.2551145366e+00	 1.2551145366e+00	-1.7107937103e+00
 9.6787532007e-01	 1.4804370731e+00	-2.0717953591e+00
 9.9803663150e-01	 1.4602737102e+00	-2.0796606468e+00
 1.0278345569e+00	 1.4394556160e+00	-2.0709633587e+00
 1.0572480474e+00	 1.4179925530e+00	-2.0483074078e+00
 1.0862564029e+00	 1.3958951771e+00	-2.0142656747e+00
 1.1148393194e+00	 1.3731750224e+00	-1.9713586920e+00
 1.1429769350e+00	 1.3498444819e+00	-1.9220338999e+00
 1.1706498751e+00	 1.3259167866e+00	-1.8686456885e+00
 1.1978392966e+00	 1.3014059810e+00	-1.8134364387e+00
 1.2245269297e+00	 1.2763268960e+00	-1.7585187557e+00
 1.2506951192e+00	 1.2506951192e+00	-1.6946281112e+00
 9.6445526593e-01	 1.4752058467e+00	-2.0963967131e+00
 9.9451000030e-01	 1.4551137324e+00	-2.1063535906e+00
 1.0242026327e+00	 1.4343692004e+00	-2.0969647324e+00
 1.0535121886e+00	 1.4129819786e+00	-2.0707401714e+00
 1.0824180411e+00	 1.3909626853e+00	-2.0301692096e+00
 1.1108999578e+00	 1.3683228138e+00	-1.9776996756e+00
 1.1389381472e+00	 1.3450747134e+00	-1.9157176971e+00
 1.1665133031e+00	 1.3212315683e+00	-1.8465281996e+00
 1.1936066489e+00	 1.2968073733e+00	-1.7723363366e+00
 1.2201999794e+00	 1.2718169070e+00	-1.6952300452e+00
 1.2462757018e+00	 1.2462757018e+00	-1.6978724957e+00
 9.6103521180e-01	 1.4699746202e+00	-2.1197595577e+00
 9.9098336909e-01	 1.4499537546e+00	-2.1319062356e+00
 1.0205707085e+00	 1.4292827848e+00	-2.1219123830e+00
 1.0497763297e+00	 1.4079714042e+00	-2.0921941520e+00
 1.0785796792e+00	 1.3860301935e+00	-2.0451572860e+00
 1.1069605963e+00	 1.3634706052e+00	-1.9831769502e+00
 1.1348993595e+00	 1.3403049449e+00	-1.9085780195e+00
 1.1623767311e+00	 1.3165463499e+00	-1.8236160329e+00
 1.1893740012e+00	 1.2922087656e+00	-1.7304590125e+00
 1.2158730292e+00	 1.2673069180e+00	-1.6311703395e+00
 1.2418562845e+00	 1.2418562845e+00	-1.7077110957e+00
 9.5761515766e-01	 1.4647433938e+00	-2.1418939659e+00
 9.8745673788e-01	 1.4447937769e+00	-2.1563305563e+00
 1.0169387842e+00	 1.4241963692e+00	-2.1458199979e+00
 1.0460404709e+00	 1.4029608298e+00	-2.1126845560e+00
 1.0747413174e+00	 1.3810977017e+00	-2.0592464312e+00
 1.1030212347e+00	 1.3586183967e+00	-1.9878081611e+00
 1.1308605717e+00	 1.3355351764e+00	-1.9006334242e+00
 1.1582401591e+00	 1.3118611316e+00	-1.7999284481e+00
 1.1851413535e+00	 1.2876101579e+00	-1.6878242173e+00
 1.2115460789e+00	 1.2627969289e+00	-1.5663596674e+00
 1.2374368671e+00	 1.2374368671e+00	-1.7205986547e+00
 1.2816310409e+00	 1.2816310409e+00	-1.7795818749e+00
 1.3078968059e+00	 1.2548156021e+00	-1.5404206018e+00
 1.3335961817e+00	 1.2274679117e+00	-1.6283619946e+00
 1.3587131954e+00	 1.1996060615e+00	-1.7136825218e+00
 1.3832326495e+00	 1.1712487727e+00	-1.7209642952e+00
 1.4071401525e+00	 1.1424153541e+00	-1.6556299367e+00
 1.4304221465e+00	 1.1131256591e+00	-1.5230088691e+00
 1.4530659320e+00	 1.0834000403e+00	-1.3283194234e+00
 1.4750596904e+00	 1.0532593033e+00	-1.0766540906e+00
 1.4963925022e+00	 1.0227246596e+00	-7.7296791496e-01
 1.5170543641e+00	 9.9181767802e-01	-4.2206998216e-01
 1.2772116235e+00	 1.2772116235e+00	-1.7714155757e+00
 1.3033868169e+00	 1.2504886517e+00	-1.5125330275e+00
 1.3289975742e+00	 1.2232352637e+00	-1.6579595138e+00
 1.3540279775e+00	 1.1954694889e+00	-1.7300443258e+00
 1.3784628817e+00	 1.1672099838e+00	-1.7258834192e+00
 1.4022879451e+00	 1.1384759908e+00	-1.6509038018e+00
 1.4254896563e+00	 1.1092872948e+00	-1.5104371745e+00
 1.4480553599e+00	 1.0796641781e+00	-1.3097020093e+00
 1.4699732776e+00	 1.0496273747e+00	-1.0537887557e+00
 1.4912325281e+00	 1.0191980228e+00	-7.4764817659e-01
 1.5118231421e+00	 9.8839761706e-01	-3.9608276577e-01
 1.2727922062e+00	 1.2727922062e+00	-1.7619459008e+00
 1.2988768279e+00	 1.2461617014e+00	-1.5507989024e+00
 1.3243989666e+00	 1.2190026158e+00	-1.6894483760e+00
 1.3493427595e+00	 1.1913329163e+00	-1.7481572946e+00
 1.3736931140e+00	 1.1631711949e+00	-1.7324337422e+00
 1.3974357376e+00	 1.1345366275e+00	-1.6477093152e+00
 1.4205571662e+00	 1.1054489304e+00	-1.4993181013e+00
 1.4430447877e+00	 1.0759283158e+00	-1.2924787275e+00
 1.4648868649e+00	 1.0459954460e+00	-1.0322795239e+00
 1.4860725539e+00	 1.0156713861e+00	-7.2366680311e-01
 1.5065919202e+00	 9.8497755610e-01	-3.7143620942e-01
 1.2683727888e+00	 1.2683727888e+00	-1.7511607997e+00
 1.2943668390e+00	 1.2418347510e+00	-1.5995631718e+00
 1.3198003591e+00	 1.2147699678e+00	-1.7228691074e+00
 1.3446575416e+00	 1.1871963436e+00	-1.7680609187e+00
 1.3689233462e+00	 1.1591324061e+00	-1.7406537648e+00
 1.3925835302e+00	 1.1305972642e+00	-1.6460840354e+00
 1.4156246760e+00	 1.1016105661e+00	-1.4896883149e+00
 1.4380342155e+00	 1.0721924536e+00	-1.2766854018e+00
 1.4598004522e+00	 1.0423635174e+00	-1.0121614303e+00
 1.4809125798e+00	 1.0121447493e+00	-7.0105809523e-01
 1.5013606982e+00	 9.8155749515e-01	-3.4816393588e-01
 1.2639533714e+00	 1.2639533714e+00	-1.7390483065e+00
 1.2898568500e+00	 1.2375078007e+00	-1.6504621568e+00
 1.3152017516e+00	 1.2105373198e+00	-1.7582622859e+00
 1.3399723237e+00	 1.1830597710e+00	-1.7897947267e+00
 1.3641535784e+00	 1.1550936172e+00	-1.7505820139e+00
 1.3877313228e+00	 1.1266579010e+00	-1.6460655368e+00
 1.4106921858e+00	 1.0977722017e+00	-1.4815844884e+00
 1.4330236433e+00	 1.0684565914e+00	-1.2623578568e+00
 1.4547140394e+00	 1.0387315888e+00	-9.9346950578e-01
 1.4757526056e+00	 1.0086181125e+00	-6.7985634652e-01
 1.4961294763e+00	 9.7813743419e-01	-3.2629955956e-01
 1.2595339540e+00	 1.2595339540e+00	-1.7255965409e+00
 1.2853468610e+00	 1.2331808503e+00	-1.7035375991e+00
 1.3106031441e+00	 1.2063046718e+00	-1.7956685422e+00
 1.3352871058e+00	 1.1789231984e+00	-1.8133982858e+00
 1.3593838107e+00	 1.1510548283e+00	-1.7622570427e+00
 1.3828791154e+00	 1.1227185377e+00	-1.6476914097e+00
 1.4057596957e+00	 1.0939338374e+00	-1.4750433023e+00
 1.4280130711e+00	 1.0647207292e+00	-1.2495319180e+00
 1.4496276267e+00	 1.0350996601e+00	-9.7623877697e-01
 1.4705926315e+00	 1.0050914758e+00	-6.6009584335e-01
 1.4908982544e+00	 9.7471737323e-01	-3.0587668641e-01
 1.2551145366e+00	 1.2551145366e+00	-1.7107937103e+00
 1.2808368720e+00	 1.2288538999e+00	-1.7588313100e+00
 1.3060045365e+00	 1.2020720239e+00	-1.8351285605e+00
 1.3306018879e+00	 1.1747866258e+00	-1.8389112026e+00
 1.3546140429e+00	 1.1470160394e+00	-1.7757174314e+00
 1.3780269079e+00	 1.1187791744e+00	-1.6509992610e+00
 1.4008272055e+00	 1.0900954730e+00	-1.4701014449e+00
 1.4230024989e+00	 1.0609848670e+00	-1.2382434115e+00
 1.4445412140e+00	 1.0314677315e+00	-9.6050426644e-01
 1.4654326573e+00	 1.0015648390e+00	-6.4181086470e-01
 1.4856670324e+00	 9.7129731227e-01	-2.8692891373e-01
 1.2506951192e+00	 1.2506951192e+00	-1.6946281112e+00
 1.2763268830e+00	 1.2245269496e+00	-1.8163851719e+00
 1.3014059290e+00	 1.1978393759e+00	-1.8766830798e+00
 1.3259166699e+00	 1.1706500531e+00	-1.8663731240e+00
 1.3498442752e+00	 1.1429772506e+00	-1.7910017876e+00
 1.3731747005e+00	 1.1148398111e+00	-1.6560267141e+00
 1.3958947153e+00	 1.0862571087e+00	-1.4667956120e+00
 1.4179919268e+00	 1.0572490048e+00	-1.2285281642e+00
 1.4394548013e+00	 1.0278358029e+00	-9.4630099239e-01
 1.4602726832e+00	 9.9803820228e-01	-6.2503568207e-01
 1.4804358105e+00	 9.6787725131e-01	-2.6948983003e-01
 1.2462757018e+00	 1.2462757018e+00	-1.6978724957e+00
 1.2718168940e+00	 1.2201999992e+00	-1.8762411392e+00
 1.2968073215e+00	 1.1936067279e+00	-1.9203728945e+00
 1.3212314520e+00	 1.1665134805e+00	-1.8958237375e+00
 1.3450745074e+00	 1.1389384617e+00	-1.8081487470e+00
 1.3683224931e+00	 1.1109004478e+00	-1.6628114094e+00
 1.3909622252e+00	 1.0824187444e+00	-1.4651625076e+00
 1.4129813546e+00	 1.0535131426e+00	-1.2204220039e+00
 1.4343683885e+00	 1.0242038742e+00	-9.3366396865e-01
 1.4551127091e+00	 9.9451156552e-01	-6.0980455932e-01
 1.4752045885e+00	 9.6445719035e-01	-2.5359301489e-01
 1.2418562845e+00	 1.2418562845e+00	-1.7077110957e+00
 1.2673069050e+00	 1.2158730489e+00	-1.9384412396e+00
 1.2922087140e+00	 1.1893740799e+00	-1.9662388555e+00
 1.3165462341e+00	 1.1623769079e+00	-1.9273027720e+00
 1.3403047397e+00	 1.1348996728e+00	-1.8271969735e+00
 1.3634702857e+00	 1.1069610845e+00	-1.6713910047e+00
 1.3860297350e+00	 1.0785803800e+00	-1.4652388435e+00
 1.4079707824e+00	 1.0497772804e+00	-1.2139607591e+00
 1.4292819758e+00	 1.0205719456e+00	-9.2262820459e-01
 1.4499527349e+00	 9.9098492876e-01	-5.9615175256e-01
 1.4699733666e+00	 9.6103712939e-01	-2.3927203879e-01
 1.2374368671e+00	 1.2374368671e+00	-1.7205986547e+00
 1.2627969160e+00	 1.2115460985e+00	-2.0030275757e+00
 1.2876101064e+00	 1.1851414320e+00	-2.0143218712e+00
 1.3118610162e+00	 1.1582403352e+00	-1.9608499989e+00
 1.3355349719e+00	 1.1308608839e+00	-1.8481851602e+00
 1.3586180782e+00	 1.1030217212e+00	-1.6818031751e+00
 1.3810972448e+00	 1.0747420157e+00	-1.4670613399e+00
 1.4029602102e+00	 1.0460414182e+00	-1.2091802593e+00
 1.4241955631e+00	 1.0169400170e+00	-9.1322870505e-01
 1.4447927608e+00	 9.8745829200e-01	-5.8411150999e-01
 1.4647421446e+00	 9.5761706843e-01	-2.2656046293e-01
 1.5170543641e+00	 9.9181767802e-01	-4.2206998216e-01
 1.5370362009e+00	 9.6056023608e-01	-2.4926039362e-01
 1.5563298761e+00	 9.2897447051e-01	-8.0028906200e-02
 1.5749281982e+00	 8.9708272788e-01	 8.4213038474e-02
 1.5928249246e+00	 8.6490751503e-01	 2.4229914509e-01
 1.6100147624e+00	 8.3247144992e-01	 3.9328956599e-01
 1.6264933656e+00	 7.9979721280e-01	 5.3645003920e-01
 1.6422573304e+00	 7.6690749814e-01	 6.7122922491e-01
 1.6573041867e+00	 7.3382496731e-01	 7.9723461263e-01
 1.6716323876e+00	 7.0057220237e-01	 9.1420737592e-01
 1.6852412957e+00	 6.6717166109e-01	 1.0219965501e+00
 1.5118231421e+00	 9.8839761706e-01	-3.9608276577e-01
 1.5317360761e+00	 9.5724795940e-01	-2.2929918811e-01
 1.5509632213e+00	 9.2577111027e-01	-6.4782069600e-02
 1.5694974113e+00	 8.9398933916e-01	 9.6026445217e-02
 1.5873324249e+00	 8.6192507532e-01	 2.5192093151e-01
 1.6044629873e+00	 8.2960085871e-01	 4.0191451421e-01
 1.6208847678e+00	 7.9703929139e-01	 5.4521858101e-01
 1.6365943741e+00	 7.6426298953e-01	 6.8122073331e-01
 1.6515893447e+00	 7.3129453639e-01	 8.0946134059e-01
 1.6658681380e+00	 6.9815643616e-01	 9.2960906777e-01
 1.6794301188e+00	 6.6487106916e-01	 1.0414357443e+00
 1.5065919202e+00	 9.8497755610e-01	-3.7143620942e-01
 1.5264359512e+00	 9.5393568273e-01	-2.1067999841e-01
 1.5455965666e+00	 9.2256775003e-01	-5.0876559430e-02
 1.5640666244e+00	 8.9089595045e-01	 1.0650152881e-01
 1.5818399251e+00	 8.5894263562e-01	 2.6021000381e-01
 1.5989112123e+00	 8.2673026751e-01	 4.0921527477e-01
 1.6152761700e+00	 7.9428136997e-01	 5.5267470728e-01
 1.6309314178e+00	 7.6161848092e-01	 6.8991518532e-01
 1.6458745027e+00	 7.2876410547e-01	 8.2041030922e-01
 1.6601038884e+00	 6.9574066995e-01	 9.4375659224e-01
 1.6736189419e+00	 6.6257047723e-01	 1.0596490174e+00
 1.5013606982e+00	 9.8155749515e-01	-3.4816393588e-01
 1.5211358264e+00	 9.5062340606e-01	-1.9343561173e-01
 1.5402299118e+00	 9.1936438979e-01	-3.8344164292e-02
 1.5586358375e+00	 8.8780256173e-01	 1.1560765831e-01
 1.5763474254e+00	 8.5596019592e-01	 2.6713704318e-01
 1.5933594372e+00	 8.2385967631e-01	 4.1516399058e-01
 1.6096675722e+00	 7.9152344854e-01	 5.5879216689e-01
 1.6252684615e+00	 7.5897397231e-01	 6.9728807427e-01
 1.6401596607e+00	 7.2623367455e-01	 8.3005888879e-01
 1.6543396388e+00	 6.9332490373e-01	 9.5662932263e-01
 1.6678077650e+00	 6.6026988530e-01	 1.0766178652e+00
 1.4961294763e+00	 9.7813743419e-01	-3.2629955956e-01
 1.5158357016e+00	 9.4731112938e-01	-1.7759880449e-01
 1.5348632571e+00	 9.1616102955e-01	-2.7216658210e-02
 1.5532050506e+00	 8.8470917302e-01	 1.2331422241e-01
 1.5708549256e+00	 8.5297775621e-01	 2.7267275690e-01
 1.5878076622e+00	 8.2098908510e-01	 4.1973283835e-01
 1.6040589744e+00	 7.8876552712e-01	 5.6354475142e-01
 1.6196055052e+00	 7.5632946370e-01	 7.0331494638e-01
 1.6344448186e+00	 7.2370324363e-01	 8.3838451379e-01
 1.6485753891e+00	 6.9090913752e-01	 9.6820670898e-01
 1.6619965881e+00	 6.5796929336e-01	 1.0923238738e+00
 1.4908982544e+00	 9.7471737323e-01	-3.0587668641e-01
 1.5105355767e+00	 9.4399885270e-01	-1.6320234214e-01
 1.5294966023e+00	 9.1295766931e-01	-1.7525800372e-02
 1.5477742637e+00	 8.8161578430e-01	 1.2959062989e-01
 1.5653624259e+00	 8.4999531650e-01	 2.7678787882e-01
 1.5822558872e+00	 8.1811849390e-01	 4.2289402914e-01
 1.5984503765e+00	 7.8600760570e-01	 5.6690629594e-01
 1.6139425488e+00	 7.5368495508e-01	 7.0797140167e-01
 1.6287299766e+00	 7.2117281271e-01	 8.4536468408e-01
 1.6428111395e+00	 6.8849337131e-01	 9.7846827941e-01
 1.6561854113e+00	 6.5566870143e-01	 1.1067487214e+00
 1.4856670324e+00	 9.7129731227e-01	-2.8692891373e-01
 1.5052354519e+00	 9.4068657603e-01	-1.5027897896e-01
 1.5241299476e+00	 9.0975430907e-01	-9.3033348737e-03
 1.5423434768e+00	 8.7852239559e-01	 1.3440630988e-01
 1.5598699262e+00	 8.4701287680e-01	 2.7945316980e-01
 1.5767041121e+00	 8.1524790269e-01	 4.2461980900e-01
 1.5928417787e+00	 7.8324968428e-01	 5.6885067973e-01
 1.6082795925e+00	 7.5104044647e-01	 7.1123309491e-01
 1.6230151346e+00	 7.1864238179e-01	 8.5097696600e-01
 1.6370468899e+00	 6.8607760509e-01	 9.8739364151e-01
 1.6503742344e+00	 6.5336810949e-01	 1.1198741798e+00
 1.4804358105e+00	 9.6787725131e-01	-2.6948983003e-01
 1.4999353271e+00	 9.3737429935e-01	-1.3886145784e-01
 1.5187632928e+00	 9.0655094882e-01	-2.5809904480e-03
 1.5369126899e+00	 8.7542900687e-01	 1.3773071226e-01
 1.5543774264e+00	 8.4403043709e-01	 2.8063941819e-01
 1.5711523371e+00	 8.1237731148e-01	 4.2488245959e-01
 1.5872331809e+00	 7.8049176285e-01	 5.6935182710e-01
 1.6026166362e+00	 7.4839593786e-01	 7.1307573659e-01
 1.6173002926e+00	 7.1611195087e-01	 8.5519899360e-01
 1.6312826403e+00	 6.8366183888e-01	 9.9496248370e-01
 1.6445630575e+00	 6.5106751756e-01	 1.1316821158e+00
 1.4752045885e+00	 9.6445719035e-01	-2.5359301489e-01
 1.4946352022e+00	 9.3406202267e-01	-1.2898251013e-01
 1.5133966381e+00	 9.0334758858e-01	 2.6095198059e-03
 1.5314819030e+00	 8.7233561815e-01	 1.3953330804e-01
 1.5488849267e+00	 8.4104799738e-01	 2.8031744033e-01
 1.5656005620e+00	 8.0950672027e-01	 4.2365429876e-01
 1.5816245831e+00	 7.7773384143e-01	 5.6838370814e-01
 1.5969536799e+00	 7.4575142924e-01	 7.1347509390e-01
 1.6115854505e+00	 7.1358151994e-01	 8.5800846977e-01
 1.6255183907e+00	 6.8124607266e-01	 1.0011545767e+00
 1.6387518806e+00	 6.4876692562e-01	 1.1421544934e+00
 1.4699733666e+00	 9.6103712939e-01	-2.3927203879e-01
 1.4893350774e+00	 9.3074974600e-01	-1.2067485539e-01
 1.5080299833e+00	 9.0014422833e-01	 6.2364987012e-03
 1.5260511161e+00	 8.6924222943e-01	 1.3978358969e-01
 1.5433924269e+00	 8.3806555767e-01	 2.7845808104e-01
 1.5600487870e+00	 8.0663612907e-01	 4.2090768127e-01
 1.5760159853e+00	 7.7497592000e-01	 5.6592033960e-01
 1.5912907236e+00	 7.4310692062e-01	 7.1240699175e-01
 1.6058706085e+00	 7.1105108902e-01	 8.5938316753e-01
 1.6197541411e+00	 6.7883030644e-01	 1.0059497750e+00
 1.6329407037e+00	 6.4646633369e-01	 1.1512733749e+00
 1.4647421446e+00	 9.5761706843e-01	-2.2656046293e-01
 1.4840349526e+00	 9.2743746932e-01	-1.1397120117e-01
 1.5026633286e+00	 8.9694086809e-01	 8.2682652472e-03
 1.5206203292e+00	 8.6614884071e-01	 1.3845107158e-01
 1.5378999272e+00	 8.3508311796e-01	 2.7503221413e-01
 1.5544970119e+00	 8.0376553786e-01	 4.1661499938e-01
 1.5704073875e+00	 7.7221799858e-01	 5.6193578567e-01
 1.5856277673e+00	 7.4046241201e-01	 7.0984731379e-01
 1.6001557665e+00	 7.0852065810e-01	 8.5930093126e-01
 1.6139898915e+00	 6.7641454023e-01	 1.0093280184e+00
 1.6271295269e+00	 6.4416574175e-01	 1.1590209234e+00
 1.6852412957e+00	 6.6717166109e-01	 1.0219965501e+00
 1.6981311673e+00	 6.3364563329e-01	 1.2216562794e+00
 1.7103031343e+00	 6.0001619871e-01	 1.3322438228e+00
 1.7217591834e+00	 5.6630518662e-01	 1.4335236701e+00
 1.7325021336e+00	 5.3253413712e-01	 1.5618521358e+00
 1.7425356117e+00	 4.9872426443e-01	 1.7095340837e+00
 1.7518640263e+00	 4.6489642206e-01	 1.8694947042e+00
 1.7604925397e+00	 4.3107107020e-01	 2.0353126181e+00
 1.7684270388e+00	 3.9726824508e-01	 2.2012456827e+00
 1.7756741044e+00	 3.6350753067e-01	 2.3622496193e+00
 1.7822409802e+00	 3.2980803251e-01	 2.5139896520e+00
 1.6794301188e+00	 6.6487106916e-01	 1.0414357443e+00
 1.6922755426e+00	 6.3146064835e-01	 1.2459034940e+00
 1.7044055373e+00	 5.9794717733e-01	 1.3488503444e+00
 1.7158220828e+00	 5.6435241011e-01	 1.4525031632e+00
 1.7265279883e+00	 5.3069781251e-01	 1.5821331895e+00
 1.7365268682e+00	 4.9700452559e-01	 1.7301656428e+00
 1.7458231159e+00	 4.6329333095e-01	 1.8896417257e+00
 1.7544218758e+00	 4.2958461823e-01	 2.0542511387e+00
 1.7623290145e+00	 3.9589835458e-01	 2.2183573720e+00
 1.7695510903e+00	 3.6225405643e-01	 2.3770158941e+00
 1.7760953217e+00	 3.2867076344e-01	 2.5259854266e+00
 1.6736189419e+00	 6.6257047723e-01	 1.0596490174e+00
 1.6864199179e+00	 6.2927566341e-01	 1.2689168337e+00
 1.6985079403e+00	 5.9587815596e-01	 1.3643867859e+00
 1.7098849821e+00	 5.6239963361e-01	 1.4706333976e+00
 1.7205538430e+00	 5.2886148790e-01	 1.6017671267e+00
 1.7305181247e+00	 4.9528478674e-01	 1.7503325934e+00
 1.7397822055e+00	 4.6169023984e-01	 1.9094861651e+00
 1.7483512119e+00	 4.2809816627e-01	 2.0730278833e+00
 1.7562309902e+00	 3.9452846408e-01	 2.2354262424e+00
 1.7634280761e+00	 3.6100058219e-01	 2.3918359398e+00
 1.7699496632e+00	 3.2753349436e-01	 2.5381087864e+00
 1.6678077650e+00	 6.6026988530e-01	 1.0766178652e+00
 1.6805642932e+00	 6.2709067846e-01	 1.2906795987e+00
 1.6926103433e+00	 5.9380913459e-01	 1.3788768807e+00
 1.7039478815e+00	 5.6044685710e-01	 1.4879370700e+00
 1.7145796977e+00	 5.2702516329e-01	 1.6207755455e+00
 1.7245093812e+00	 4.9356504790e-01	 1.7700553792e+00
 1.7337412950e+00	 4.6008714873e-01	 1.9290472612e+00
 1.7422805479e+00	 4.2661171430e-01	 2.0916608410e+00
 1.7501329660e+00	 3.9315857358e-01	 2.2524689939e+00
 1.7573050620e+00	 3.5974710795e-01	 2.4067251328e+00
 1.7638040046e+00	 3.2639622528e-01	 2.5503737548e+00
 1.6619965881e+00	 6.5796929336e-01	 1.0923238738e+00
 1.6747086685e+00	 6.2490569352e-01	 1.3106878115e+00
 1.6867127463e+00	 5.9174011321e-01	 1.3923444688e+00
 1.6980107809e+00	 5.5849408060e-01	 1.5044369892e+00
 1.7086055524e+00	 5.2518883868e-01	 1.6391801602e+00
 1.7185006378e+00	 4.9184530906e-01	 1.7893545625e+00
 1.7277003846e+00	 4.5848405762e-01	 1.9483443726e+00
 1.7362098840e+00	 4.2512526234e-01	 2.1101681204e+00
 1.7440349417e+00	 3.9178868308e-01	 2.2695024440e+00
 1.7511820478e+00	 3.5849363370e-01	 2.4216989641e+00
 1.7576583460e+00	 3.2525895621e-01	 2.5627944652e+00
 1.6561854113e+00	 6.5566870143e-01	 1.1067487214e+00
 1.6688530437e+00	 6.2272070858e-01	 1.3186404426e+00
 1.6808151493e+00	 5.8967109184e-01	 1.4048134980e+00
 1.6920736802e+00	 5.5654130409e-01	 1.5201560776e+00
 1.7026314071e+00	 5.2335251407e-01	 1.6570028031e+00
 1.7124918943e+00	 4.9012557021e-01	 1.8082508264e+00
 1.7216594742e+00	 4.5688096651e-01	 1.9673969800e+00
 1.7301392201e+00	 4.2363881037e-01	 2.1285679518e+00
 1.7379369174e+00	 3.9041879258e-01	 2.2865435304e+00
 1.7450590337e+00	 3.5724015946e-01	 2.4367730415e+00
 1.7515126875e+00	 3.2412168713e-01	 2.5753851635e+00
 1.6503742344e+00	 6.5336810949e-01	 1.1198741798e+00
 1.6629974190e+00	 6.2053572364e-01	 1.3253839641e+00
 1.6749175522e+00	 5.8760207046e-01	 1.4163080261e+00
 1.6861365796e+00	 5.5458852759e-01	 1.5351173736e+00
 1.6966572618e+00	 5.2151618946e-01	 1.6742654266e+00
 1.7064831508e+00	 4.8840583137e-01	 1.8267649768e+00
 1.7156185637e+00	 4.5527787540e-01	 1.9862246878e+00
 1.7240685562e+00	 4.2215235840e-01	 2.1468786892e+00
 1.7318388932e+00	 3.8904890208e-01	 2.3036093128e+00
 1.7389360195e+00	 3.5598668521e-01	 2.4519630915e+00
 1.7453670289e+00	 3.2298441805e-01	 2.5881602093e+00
 1.6445630575e+00	 6.5106751756e-01	 1.1316821158e+00
 1.6571417943e+00	 6.1835073870e-01	 1.3309434854e+00
 1.6690199552e+00	 5.8553304909e-01	 1.4268522230e+00
 1.6801994790e+00	 5.5263575108e-01	 1.5493440334e+00
 1.6906831166e+00	 5.1967986485e-01	 1.6909901052e+00
 1.7004744073e+00	 4.8668609253e-01	 1.8449179446e+00
 1.7095776533e+00	 4.5367478429e-01	 2.0048472269e+00
 1.7179978922e+00	 4.2066590644e-01	 2.1651188125e+00
 1.7257408689e+00	 3.8767901158e-01	 2.3207169747e+00
 1.7328130054e+00	 3.5473321097e-01	 2.4672849613e+00
 1.7392213704e+00	 3.2184714897e-01	 2.6011340784e+00
 1.6387518806e+00	 6.4876692562e-01	 1.1421544934e+00
 1.6512861696e+00	 6.1616575375e-01	 1.3353442222e+00
 1.6631223582e+00	 5.8346402771e-01	 1.4364703725e+00
 1.6742623783e+00	 5.5068297457e-01	 1.5628593331e+00
 1.6847089713e+00	 5.1784354024e-01	 1.7071990380e+00
 1.6944656638e+00	 4.8496635368e-01	 1.8627307879e+00
 1.7035367429e+00	 4.5207169318e-01	 2.0232844567e+00
 1.7119272283e+00	 4.1917945447e-01	 2.1833069300e+00
 1.7196428446e+00	 3.8630912108e-01	 2.3378838262e+00
 1.7266899912e+00	 3.5347973672e-01	 2.4827546212e+00
 1.7330757118e+00	 3.2070987989e-01	 2.6143213648e+00
 1.6329407037e+00	 6.4646633369e-01	 1.1512733749e+00
 1.6454305449e+00	 6.1398076881e-01	 1.3386114984e+00
 1.6572247612e+00	 5.8139500634e-01	 1.4451868741e+00
 1.6683252777e+00	 5.4873019807e-01	 1.5756866710e+00
 1.6787348260e+00	 5.1600721562e-01	 1.7229145507e+00
 1.6884569203e+00	 4.8324661484e-01	 1.8802246946e+00
 1.6974958324e+00	 4.5046860207e-01	 2.0415563672e+00
 1.7058565644e+00	 4.1769300250e-01	 2.2014617801e+00
 1.7135448203e+00	 3.8493923058e-01	 2.3551273058e+00
 1.7205669771e+00	 3.5222626248e-01	 2.4983881666e+00
 1.7269300533e+00	 3.1957261082e-01	 2.6277367826e+00
 1.6271295269e+00	 6.4416574175e-01	 1.1590209234e+00
 1.6395749202e+00	 6.1179578386e-01	 1.3407707480e+00
 1.6513271642e+00	 5.7932598496e-01	 1.4530262456e+00
 1.6623881771e+00	 5.4677742156e-01	 1.5878495696e+00
 1.6727606807e+00	 5.1417089101e-01	 1.7381590977e+00
 1.6824481768e+00	 4.8152687600e-01	 1.8974209839e+00
 1.6914549220e+00	 4.4886551095e-01	 2.0596830817e+00
 1.6997859004e+00	 4.1620655053e-01	 2.2196022342e+00
 1.7074467961e+00	 3.8356934007e-01	 2.3724649831e+00
 1.7144439629e+00	 3.5097278823e-01	 2.5142018203e+00
 1.7207843947e+00	 3.1843534174e-01	 2.6413951685e+00
 1.7822409802e+00	 3.2980803251e-01	 2.5139896520e+00
 1.7881355399e+00	 2.9618835382e-01	 2.6611900981e+00
 1.7933662540e+00	 2.6266657387e-01	 2.8024335136e+00
 1.7979421563e+00	 2.2926022860e-01	 2.9349033623e+00
 1.8018728098e+00	 1.9598629350e-01	 3.0564673444e+00
 1.8051682719e+00	 1.6286116869e-01	 3.1656616005e+00
 1.8078390600e+00	 1.2990066619e-01	 3.2616700880e+00
 1.8098961174e+00	 9.7119999299e-02	 3.3442996096e+00
 1.8113507783e+00	 6.4533774104e-02	 3.4139509872e+00
 1.8122147342e+00	 3.2155982972e-02	 3.4715868828e+00
 1.8125000000e+00	 0.0000000000e+00	 3.5186967685e+00
 1.7760953217e+00	 3.2867076344e-01	 2.5259854266e+00
 1.7819695553e+00	 2.9516701467e-01	 2.6715484109e+00
 1.7871822324e+00	 2.6176082706e-01	 2.8110947135e+00
 1.7917423558e+00	 2.2846967609e-01	 2.9418560327e+00
 1.7956594553e+00	 1.9531047870e-01	 3.0617416356e+00
 1.7989435537e+00	 1.6229957846e-01	 3.1693226213e+00
 1.8016051322e+00	 1.2945273286e-01	 3.2638114083e+00
 1.8036550963e+00	 9.6785102752e-02	 3.3450369224e+00
 1.8051047411e+00	 6.4311243850e-02	 3.4134159745e+00
 1.8059657178e+00	 3.2045100273e-02	 3.4699213247e+00
 1.8062500000e+00	 0.0000000000e+00	 3.5160469284e+00
 1.7699496632e+00	 3.2753349436e-01	 2.5381087864e+00
 1.7758035707e+00	 2.9414567552e-01	 2.6821573835e+00
 1.7809982109e+00	 2.6085508026e-01	 2.8201074281e+00
 1.7855425553e+00	 2.2767912358e-01	 2.9492386270e+00
 1.7894461008e+00	 1.9463466389e-01	 3.0675016924e+00
 1.7927188355e+00	 1.6173798823e-01	 3.1735026601e+00
 1.7953712044e+00	 1.2900479953e-01	 3.2664824843e+00
 1.7974140752e+00	 9.6450206205e-02	 3.3462923818e+00
 1.7988587040e+00	 6.4088713596e-02	 3.4133654085e+00
 1.7997167015e+00	 3.1934217573e-02	 3.4686847617e+00
 1.8000000000e+00	 0.0000000000e+00	 3.5137492981e+00
 1.7638040046e+00	 3.2639622528e-01	 2.5503737548e+00
 1.7696375860e+00	 2.9312433637e-01	 2.6930304178e+00
 1.7748141893e+00	 2.5994933345e-01	 2.8294844283e+00
 1.7793427547e+00	 2.2688857107e-01	 2.9570632789e+00
 1.7832327463e+00	 1.9395884909e-01	 3.0737590073e+00
 1.7864941173e+00	 1.6117639799e-01	 3.1782125664e+00
 1.7891372766e+00	 1.2855686620e-01	 3.2696935234e+00
 1.7911730541e+00	 9.6115309657e-02	 3.3480755554e+00
 1.7926126668e+00	 6.3866183341e-02	 3.4138082210e+00
 1.7934676852e+00	 3.1823334874e-02	 3.4678854957e+00
 1.7937500000e+00	 0.0000000000e+00	 3.5118115562e+00
 1.7576583460e+00	 3.2525895621e-01	 2.5627944652e+00
 1.7634716014e+00	 2.9210299722e-01	 2.7041810304e+00
 1.7686301677e+00	 2.5904358665e-01	 2.8392386036e+00
 1.7731429542e+00	 2.2609801855e-01	 2.9653422430e+00
 1.7770193918e+00	 1.9328303429e-01	 3.0805251949e+00
 1.7802693991e+00	 1.6061480775e-01	 3.1834633121e+00
 1.7829033488e+00	 1.2810893287e-01	 3.2734548543e+00
 1.7849320330e+00	 9.5780413108e-02	 3.3503961302e+00
 1.7863666296e+00	 6.3643653086e-02	 3.4147534604e+00
 1.7872186689e+00	 3.1712452174e-02	 3.4675319407e+00
 1.7875000000e+00	 0.0000000000e+00	 3.5102414888e+00
 1.7515126875e+00	 3.2412168713e-01	 2.5753851635e+00
 1.7573056168e+00	 2.9108165807e-01	 2.7156228550e+00
 1.7624461462e+00	 2.5813783984e-01	 2.8493829639e+00
 1.7669431537e+00	 2.2530746604e-01	 2.9740878967e+00
 1.7708060372e+00	 1.9260721948e-01	 3.0878119939e+00
 1.7740446810e+00	 1.6005321752e-01	 3.1892659938e+00
 1.7766694211e+00	 1.2766099954e-01	 3.2777769293e+00
 1.7786910119e+00	 9.5445516559e-02	 3.3532639147e+00
 1.7801205925e+00	 6.3421122831e-02	 3.4162102934e+00
 1.7809696526e+00	 3.1601569475e-02	 3.4676326256e+00
 1.7812500000e+00	 0.0000000000e+00	 3.5090469913e+00
 1.7453670289e+00	 3.2298441805e-01	 2.5881602093e+00
 1.7511396322e+00	 2.9006031892e-01	 2.7273696442e+00
 1.7562621246e+00	 2.5723209304e-01	 2.8599306417e+00
 1.7607433531e+00	 2.2451691353e-01	 2.9833127427e+00
 1.7645926827e+00	 1.9193140468e-01	 3.0956312697e+00
 1.7678199628e+00	 1.5949162728e-01	 3.1956318343e+00
 1.7704354933e+00	 1.2721306621e-01	 3.2826703265e+00
 1.7724499908e+00	 9.5110620010e-02	 3.3566888412e+00
 1.7738745553e+00	 6.3198592575e-02	 3.4181880075e+00
 1.7747206362e+00	 3.1490686775e-02	 3.4681961952e+00
 1.7750000000e+00	 0.0000000000e+00	 3.5082360700e+00
 1.7392213704e+00	 3.2184714897e-01	 2.6011340784e+00
 1.7449736476e+00	 2.8903897977e-01	 2.7394352716e+00
 1.7500781030e+00	 2.5632634623e-01	 2.8708948946e+00
 1.7545435526e+00	 2.2372636102e-01	 2.9930294109e+00
 1.7583793282e+00	 1.9125558987e-01	 3.1039950163e+00
 1.7615952446e+00	 1.5893003704e-01	 3.2025721857e+00
 1.7642015655e+00	 1.2676513288e-01	 3.2881457519e+00
 1.7662089697e+00	 9.4775723460e-02	 3.3606809677e+00
 1.7676285181e+00	 6.2976062320e-02	 3.4206960126e+00
 1.7684716199e+00	 3.1379804075e-02	 3.4692314131e+00
 1.7687500000e+00	 0.0000000000e+00	 3.5078168447e+00
 1.7330757118e+00	 3.2070987989e-01	 2.6143213648e+00
 1.7388076629e+00	 2.8801764062e-01	 2.7518337340e+00
 1.7438940815e+00	 2.5542059942e-01	 2.8822891068e+00
 1.7483437520e+00	 2.2293580850e-01	 3.0032506609e+00
 1.7521659737e+00	 1.9057977506e-01	 3.1129153587e+00
 1.7553705264e+00	 1.5836844681e-01	 3.2100985310e+00
 1.7579676377e+00	 1.2631719954e-01	 3.2942140416e+00
 1.7599679486e+00	 9.4440826910e-02	 3.3652504804e+00
 1.7613824810e+00	 6.2753532063e-02	 3.4237438437e+00
 1.7622226036e+00	 3.1268921374e-02	 3.4707471632e+00
 1.7625000000e+00	 0.0000000000e+00	 3.5077975502e+00
 1.7269300533e+00	 3.1957261082e-01	 2.6277367826e+00
 1.7326416783e+00	 2.8699630146e-01	 2.7645791536e+00
 1.7377100599e+00	 2.5451485261e-01	 2.8941267921e+00
 1.7421439515e+00	 2.2214525599e-01	 3.0139893842e+00
 1.7459526192e+00	 1.8990396026e-01	 3.1224045552e+00
 1.7491458083e+00	 1.5780685657e-01	 3.2182224870e+00
 1.7517337099e+00	 1.2586926621e-01	 3.3008861642e+00
 1.7537269275e+00	 9.4105930359e-02	 3.3704076959e+00
 1.7551364438e+00	 6.2531001807e-02	 3.4273411628e+00
 1.7559735873e+00	 3.1158038674e-02	 3.4727524523e+00
 1.7562500000e+00	 0.0000000000e+00	 3.5081865386e+00
 1.7207843947e+00	 3.1843534174e-01	 2.6413951685e+00
 1.7264756937e+00	 2.8597496231e-01	 2.7776857803e+00
 1.7315260383e+00	 2.5360910580e-01	 2.9064215958e+00
 1.7359441510e+00	 2.2135470347e-01	 3.0252586065e+00
 1.7397392647e+00	 1.8922814545e-01	 3.1324749999e+00
 1.7429210901e+00	 1.5724526633e-01	 3.2269558060e+00
 1.7454997821e+00	 1.2542133288e-01	 3.3081732234e+00
 1.7474859064e+00	 9.3771033808e-02	 3.3761630632e+00
 1.7488904066e+00	 6.2308471550e-02	 3.4314977612e+00
 1.7497245709e+00	 3.1047155973e-02	 3.4752564118e+00
 1.7500000000e+00	 0.0000000000e+00	 3.5089922813e+00
 0.0000000000e+00	 1.7500000000e+00	-4.5518850956e-01
 3.1047155973e-02	 1.7497245709e+00	-4.6080442875e-01
 6.2308471550e-02	 1.7488904066e+00	-4.7022340214e-01
 9.3771033808e-02	 1.7474859064e+00	-4.8203761558e-01
 1.2542133288e-01	 1.7454997821e+00	-4.9509363077e-01
 1.5724526633e-01	 1.7429210901e+00	-5.0851190167e-01
 1.8922814545e-01	 1.7397392647e+00	-5.2170485388e-01
 2.2135470347e-01	 1.7359441510e+00	-5.3439325886e-01
 2.5360910580e-01	 1.7315260383e+00	-5.4662063467e-01
 2.8597496231e-01	 1.7264756937e+00	-5.5876540872e-01
 3.1843534174e-01	 1.7207843947e+00	-5.7155058509e-01
 0.0000000000e+00	 1.7437500000e+00	-4.4886423926e-01
 3.0936273273e-02	 1.7434755546e+00	-4.5486898610e-01
 6.2085941293e-02	 1.7426443695e+00	-4.6453115448e-01
 9.3436137257e-02	 1.7412448853e+00	-4.7642572920e-01
 1.2497339954e-01	 1.7392658543e+00	-4.8937907045e-01
 1.5668367609e-01	 1.7366963719e+00	-5.0248834684e-01
 1.8855233064e-01	 1.7335259101e+00	-5.1513955425e-01
 2.2056415096e-01	 1.7297443504e+00	-5.2702385434e-01
 2.5270335899e-01	 1.7253420168e+00	-5.3815196724e-01
 2.8495362316e-01	 1.7203097091e+00	-5.4886635580e-01
 3.1729807266e-01	 1.7146387362e+00	-5.5985094633e-01
 0.0000000000e+00	 1.7375000000e+00	-4.4312237220e-01
 3.0825390572e-02	 1.7372265383e+00	-4.4963584610e-01
 6.1863411037e-02	 1.7363983323e+00	-4.5964674265e-01
 9.3101240706e-02	 1.7350038643e+00	-4.7171246907e-01
 1.2452546621e-01	 1.7330319265e+00	-4.8463885390e-01
 1.5612208585e-01	 1.7304716537e+00	-4.9749950010e-01
 1.8787651583e-01	 1.7273125556e+00	-5.0965374628e-01
 2.1977359844e-01	 1.7235445499e+00	-5.2076297269e-01
 2.5179761218e-01	 1.7191579952e+00	-5.3080498847e-01
 2.8393228400e-01	 1.7141437245e+00	-5.4008624001e-01
 3.1616080358e-01	 1.7084930776e+00	-5.4925158728e-01
 0.0000000000e+00	 1.7312500000e+00	-4.3796349138e-01
 3.0714507872e-02	 1.7309775220e+00	-4.4510664083e-01
 6.1640880780e-02	 1.7301522951e+00	-4.5557283604e-01
 9.2766344156e-02	 1.7287628432e+00	-4.6790152797e-01
 1.2407753288e-01	 1.7267979987e+00	-4.8087768112e-01
 1.5556049561e-01	 1.7242469355e+00	-4.9355104993e-01
 1.8720070103e-01	 1.7210992011e+00	-5.0525408569e-01
 2.1898304593e-01	 1.7173447493e+00	-5.1561821286e-01
 2.5089186538e-01	 1.7129739736e+00	-5.2458821373e-01
 2.8291094485e-01	 1.7079777398e+00	-5.3243446333e-01
 3.1502353450e-01	 1.7023474191e+00	-5.3976276361e-01
 0.0000000000e+00	 1.7250000000e+00	-4.3338818828e-01
 3.0603625172e-02	 1.7247285056e+00	-4.4128302261e-01
 6.1418350525e-02	 1.7239062580e+00	-4.5231213524e-01
 9.2431447606e-02	 1.7225218221e+00	-4.6499663995e-01
 1.2362959954e-01	 1.7205640709e+00	-4.7810030244e-01
 1.5499890537e-01	 1.7180222174e+00	-4.9064874331e-01
 1.8652488622e-01	 1.7148858466e+00	-5.0194729382e-01
 2.1819249342e-01	 1.7111449488e+00	-5.1159724555e-01
 2.4998611857e-01	 1.7067899521e+00	-5.1951023517e-01
 2.8188960570e-01	 1.7018117552e+00	-5.2592050846e-01
 3.1388626542e-01	 1.6962017605e+00	-5.3139481458e-01
 0.0000000000e+00	 1.7187500000e+00	-4.2939706296e-01
 3.0492742472e-02	 1.7184794893e+00	-4.3816666440e-01
 6.1195820269e-02	 1.7176602208e+00	-4.4986737262e-01
 9.2096551057e-02	 1.7162808010e+00	-4.6300158107e-01
 1.2318166621e-01	 1.7143301431e+00	-4.7631151947e-01
 1.5443731514e-01	 1.7117974992e+00	-4.8879838678e-01
 1.8584907142e-01	 1.7086724921e+00	-4.9974015887e-01
 2.1740194090e-01	 1.7049451483e+00	-5.0870781453e-01
 2.4908037176e-01	 1.7006059305e+00	-5.1557972315e-01
 2.8086826655e-01	 1.6956457706e+00	-5.2055394035e-01
 3.1274899634e-01	 1.6900561020e+00	-5.2415816457e-01
 0.0000000000e+00	 1.7125000000e+00	-4.2599072426e-01
 3.0381859772e-02	 1.7122304730e+00	-4.3575926016e-01
 6.0973290014e-02	 1.7114141836e+00	-4.4824131288e-01
 9.1761654508e-02	 1.7100397799e+00	-4.6192017011e-01
 1.2273373288e-01	 1.7080962153e+00	-4.7551618602e-01
 1.5387572490e-01	 1.7055727810e+00	-4.8800584752e-01
 1.8517325661e-01	 1.7024591376e+00	-4.9863953705e-01
 2.1661138839e-01	 1.6987453477e+00	-5.0695773792e-01
 2.4817462496e-01	 1.6944219089e+00	-5.1280542762e-01
 2.7984692740e-01	 1.6894797860e+00	-5.1634440765e-01
 3.1161172726e-01	 1.6839104434e+00	-5.1806332458e-01
 0.0000000000e+00	 1.7062500000e+00	-4.2316978992e-01
 3.0270977073e-02	 1.7059814567e+00	-4.3406252523e-01
 6.0750759759e-02	 1.7051681465e+00	-4.4743675369e-01
 9.1426757960e-02	 1.7037987588e+00	-4.6175626943e-01
 1.2228579955e-01	 1.7018622875e+00	-4.7571920906e-01
 1.5331413466e-01	 1.6993480628e+00	-4.8827705446e-01
 1.8449744181e-01	 1.6962457830e+00	-4.9865235389e-01
 2.1582083588e-01	 1.6925455472e+00	-5.0635490960e-01
 2.4726887815e-01	 1.6882378874e+00	-5.1119617962e-01
 2.7882558825e-01	 1.6833138014e+00	-5.1330164424e-01
 3.1047445819e-01	 1.6777647849e+00	-5.1312089391e-01
 0.0000000000e+00	 1.7000000000e+00	-4.2093488678e-01
 3.0160094373e-02	 1.6997324403e+00	-4.3307819674e-01
 6.0528229504e-02	 1.6989221093e+00	-4.4745652623e-01
 9.1091861412e-02	 1.6975577377e+00	-4.6251378573e-01
 1.2183786622e-01	 1.6956283597e+00	-4.7692554972e-01
 1.5275254443e-01	 1.6931233446e+00	-4.8961799946e-01
 1.8382162700e-01	 1.6900324285e+00	-4.9978560549e-01
 2.1503028337e-01	 1.6863457466e+00	-5.0690730059e-01
 2.4636313135e-01	 1.6820538658e+00	-5.1076089274e-01
 2.7780424910e-01	 1.6771478167e+00	-5.1143547084e-01
 3.0933718911e-01	 1.6716191263e+00	-5.0934156169e-01
 0.0000000000e+00	 1.6937500000e+00	-4.1928665093e-01
 3.0049211674e-02	 1.6934834240e+00	-4.3280803399e-01
 6.0305699250e-02	 1.6926760721e+00	-4.4830349588e-01
 9.0756964864e-02	 1.6913167166e+00	-4.6419667085e-01
 1.2138993289e-01	 1.6893944319e+00	-4.7914022424e-01
 1.5219095419e-01	 1.6868986265e+00	-4.9203473838e-01
 1.8314581220e-01	 1.6838190740e+00	-5.0204635981e-01
 2.1423973086e-01	 1.6801459461e+00	-5.0862296046e-01
 2.4545738454e-01	 1.6758698442e+00	-5.1150856465e-01
 2.7678290995e-01	 1.6709818321e+00	-5.1075579658e-01
 3.0819992003e-01	 1.6654734677e+00	-5.0673610857e-01
 0.0000000000e+00	 1.6875000000e+00	-4.1822572788e-01
 2.9938328975e-02	 1.6872344077e+00	-4.3325381888e-01
 6.0083168996e-02	 1.6864300350e+00	-4.4998056280e-01
 9.0422068317e-02	 1.6850756955e+00	-4.6680892267e-01
 1.2094199956e-01	 1.6831605042e+00	-4.8236830504e-01
 1.5162936396e-01	 1.6806739083e+00	-4.9553339235e-01
 1.8246999740e-01	 1.6776057195e+00	-5.0544175802e-01
 2.1344917835e-01	 1.6739461456e+00	-5.1151001880e-01
 2.4455163774e-01	 1.6696858227e+00	-5.1344827869e-01
 2.7576157080e-01	 1.6648158475e+00	-5.1127262064e-01
 3.0706265096e-01	 1.6593278092e+00	-5.0531540846e-01
 3.1843534174e-01	 1.7207843947e+00	-5.7155058509e-01
 3.5097280718e-01	 1.7144439553e+00	-6.7748609916e-01
 3.8356941661e-01	 1.7074467655e+00	-7.6692666858e-01
 4.1620672442e-01	 1.6997858312e+00	-8.3962618765e-01
 4.4886582306e-01	 1.6914547979e+00	-8.9569712629e-01
 4.8152736824e-01	 1.6824479814e+00	-9.3561260606e-01
 5.1417160638e-01	 1.6727603969e+00	-9.6020509093e-01
 5.4677840403e-01	 1.6623877877e+00	-9.7066155871e-01
 5.7932727947e-01	 1.6513266515e+00	-9.6851505441e-01
 6.1179743631e-01	 1.6395742659e+00	-9.5563256510e-01
 6.4416779888e-01	 1.6271287125e+00	-1.0931186937e+00
 3.1729807266e-01	 1.7146387362e+00	-5.5985094633e-01
 3.4971933286e-01	 1.7083209412e+00	-6.6929621128e-01
 3.8219952583e-01	 1.7013487414e+00	-7.6233954029e-01
 4.1472027183e-01	 1.6937151675e+00	-8.3873704054e-01
 4.4726273083e-01	 1.6854138879e+00	-8.9860040969e-01
 4.7980762764e-01	 1.6764392386e+00	-9.4239902409e-01
 5.1233527921e-01	 1.6667862527e+00	-9.7095867417e-01
 5.4482562401e-01	 1.6564506885e+00	-9.8545681442e-01
 5.7725825347e-01	 1.6454290563e+00	-9.8741422954e-01
 6.0961244546e-01	 1.6337186435e+00	-9.7868305685e-01
 6.4186719959e-01	 1.6213175385e+00	-1.1024448115e+00
 3.1616080358e-01	 1.7084930776e+00	-5.4925158728e-01
 3.4846585855e-01	 1.7021979271e+00	-6.6204306979e-01
 3.8082963506e-01	 1.6952507172e+00	-7.5851280431e-01
 4.1323381924e-01	 1.6876445038e+00	-8.3841958484e-01
 4.4565963860e-01	 1.6793729779e+00	-9.0187487902e-01
 4.7808788704e-01	 1.6704304958e+00	-9.4934492779e-01
 5.1049895204e-01	 1.6608121084e+00	-9.8164952460e-01
 5.4287284399e-01	 1.6505135892e+00	-9.9995734227e-01
 5.7518922747e-01	 1.6395314611e+00	-1.0057777100e+00
 6.0742745462e-01	 1.6278630211e+00	-1.0009487809e+00
 6.3956660031e-01	 1.6155063645e+00	-1.1104242288e+00
 3.1502353450e-01	 1.7023474191e+00	-5.3976276361e-01
 3.4721238424e-01	 1.6960749130e+00	-6.5573635037e-01
 3.7945974428e-01	 1.6891526930e+00	-7.5545554791e-01
 4.1174736665e-01	 1.6815738401e+00	-8.3868231053e-01
 4.4405654638e-01	 1.6733320679e+00	-9.0552841736e-01
 4.7636814644e-01	 1.6644217530e+00	-9.5645758308e-01
 5.0866262488e-01	 1.6548379641e+00	-9.9228427984e-01
 5.4092006398e-01	 1.6445764900e+00	-1.0141691396e+00
 5.7312020148e-01	 1.6336338659e+00	-1.0236108399e+00
 6.0524246377e-01	 1.6220073988e+00	-1.0224344140e+00
 6.3726600103e-01	 1.6096951905e+00	-1.1170547627e+00
 3.1388626542e-01	 1.6962017605e+00	-5.3139481458e-01
 3.4595890993e-01	 1.6899518988e+00	-6.5038579369e-01
 3.7808985351e-01	 1.6830546689e+00	-7.5317690413e-01
 4.1026091407e-01	 1.6755031765e+00	-8.3953373337e-01
 4.4245345415e-01	 1.6672911579e+00	-9.0956891295e-01
 4.7464840583e-01	 1.6584130102e+00	-9.6374423973e-01
 5.0682629771e-01	 1.6488638198e+00	-1.0028695395e+00
 5.3896728396e-01	 1.6386393907e+00	-1.0280981431e+00
 5.7105117548e-01	 1.6277362707e+00	-1.0409188796e+00
 6.0305747292e-01	 1.6161517764e+00	-1.0431445258e+00
 6.3496540174e-01	 1.6038840166e+00	-1.1223340992e+00
 3.1274899634e-01	 1.6900561020e+00	-5.2415816457e-01
 3.4470543562e-01	 1.6838288847e+00	-6.4600120666e-01
 3.7671996273e-01	 1.6769566447e+00	-7.5168605260e-01
 4.0877446148e-01	 1.6694325128e+00	-8.4098239536e-01
 4.4085036192e-01	 1.6612502479e+00	-9.1400425927e-01
 4.7292866523e-01	 1.6524042674e+00	-9.7121213106e-01
 5.0498997054e-01	 1.6428896756e+00	-1.0134118643e+00
 5.3701450395e-01	 1.6327022915e+00	-1.0417502281e+00
 5.6898214948e-01	 1.6218386755e+00	-1.0577070046e+00
 6.0087248208e-01	 1.6102961540e+00	-1.0630835769e+00
 6.3266480246e-01	 1.5980728426e+00	-1.1262597906e+00
 3.1161172726e-01	 1.6839104434e+00	-5.1806332458e-01
 3.4345196130e-01	 1.6777058706e+00	-6.4259246362e-01
 3.7535007196e-01	 1.6708586205e+00	-7.5099222036e-01
 4.0728800889e-01	 1.6633618491e+00	-8.4303686527e-01
 4.3924726970e-01	 1.6552093379e+00	-9.1884235512e-01
 4.7120892463e-01	 1.6463955246e+00	-9.7886847369e-01
 5.0315364338e-01	 1.6369155313e+00	-1.0239177757e+00
 5.3506172393e-01	 1.6267651923e+00	-1.0551312067e+00
 5.6691312348e-01	 1.6159410803e+00	-1.0739803035e+00
 5.9868749123e-01	 1.6044405316e+00	-1.0822559167e+00
 6.3036420317e-01	 1.5922616686e+00	-1.1288292531e+00
 3.1047445819e-01	 1.6777647849e+00	-5.1312089391e-01
 3.4219848699e-01	 1.6715828564e+00	-6.4016950752e-01
 3.7398018119e-01	 1.6647605964e+00	-7.5110468280e-01
 4.0580155630e-01	 1.6572911854e+00	-8.4570573905e-01
 4.3764417747e-01	 1.6491684279e+00	-9.2409110478e-01
 4.6948918403e-01	 1.6403867818e+00	-9.8672046718e-01
 5.0131731621e-01	 1.6309413870e+00	-1.0343937550e+00
 5.3310894391e-01	 1.6208280930e+00	-1.0682468277e+00
 5.6484409748e-01	 1.6100434852e+00	-1.0897437768e+00
 5.9650250039e-01	 1.5985849093e+00	-1.1006657815e+00
 6.2806360389e-01	 1.5864504946e+00	-1.1300397644e+00
 3.0933718911e-01	 1.6716191263e+00	-5.0934156169e-01
 3.4094501268e-01	 1.6654598423e+00	-6.3874235126e-01
 3.7261029041e-01	 1.6586625722e+00	-7.5203276447e-01
 4.0431510372e-01	 1.6512205217e+00	-8.4899764043e-01
 4.3604108525e-01	 1.6431275179e+00	-9.2975841801e-01
 4.6776944343e-01	 1.6343780390e+00	-9.9477529377e-01
 4.9948098904e-01	 1.6249672427e+00	-1.0448462424e+00
 5.3115616390e-01	 1.6148909938e+00	-1.0811027742e+00
 5.6277507148e-01	 1.6041458900e+00	-1.1050023350e+00
 5.9431750954e-01	 1.5927292869e+00	-1.1183172922e+00
 6.2576300461e-01	 1.5806393207e+00	-1.1298884609e+00
 3.0819992003e-01	 1.6654734677e+00	-5.0673610857e-01
 3.3969153837e-01	 1.6593368282e+00	-6.3832107894e-01
 3.7124039964e-01	 1.6525645481e+00	-7.5378584004e-01
 4.0282865113e-01	 1.6451498580e+00	-8.5292122132e-01
 4.3443799302e-01	 1.6370866079e+00	-9.3585221025e-01
 4.6604970283e-01	 1.6283692962e+00	-1.0030401180e+00
 4.9764466188e-01	 1.6189930985e+00	-1.0552816367e+00
 5.2920338388e-01	 1.6089538945e+00	-1.0937046634e+00
 5.6070604548e-01	 1.5982482948e+00	-1.1197607971e+00
 5.9213251869e-01	 1.5868736645e+00	-1.1352144525e+00
 6.2346240532e-01	 1.5748281467e+00	-1.1421285681e+00
 3.0706265096e-01	 1.6593278092e+00	-5.0531540846e-01
 3.3843806406e-01	 1.6532138141e+00	-6.3891584718e-01
 3.6987050887e-01	 1.6464665239e+00	-7.5637333518e-01
 4.0134219854e-01	 1.6390791943e+00	-8.5748516244e-01
 4.3283490080e-01	 1.6310456980e+00	-9.4238040267e-01
 4.6432996223e-01	 1.6223605535e+00	-1.0115220864e+00
 4.9580833471e-01	 1.6130189542e+00	-1.0657062941e+00
 5.2725060387e-01	 1.6030167953e+00	-1.1060580448e+00
 5.5863701948e-01	 1.5923506996e+00	-1.1340238890e+00
 5.8994752785e-01	 1.5810180421e+00	-1.1513611467e+00
 6.2116180604e-01	 1.5690169727e+00	-1.1601237712e+00
 6.4416779888e-01	 1.6271287125e+00	-1.0931186937e+00
 6.7641620185e-01	 1.6139892383e+00	-1.1129804699e+00
 7.0852192256e-01	 1.6001552847e+00	-1.1449264029e+00
 7.4046327814e-01	 1.5856274670e+00	-1.1915752353e+00
 7.7221846572e-01	 1.5704072788e+00	-1.2555350304e+00
 8.0376560589e-01	 1.5544971050e+00	-1.3393812098e+00
 8.3508278728e-01	 1.5379002319e+00	-1.4456339925e+00
 8.6614811226e-01	 1.5206208556e+00	-1.5767354308e+00
 8.9693974333e-01	 1.5026640863e+00	-1.7350262579e+00
 9.2743595027e-01	 1.4840359513e+00	-1.9227227689e+00
 9.5761515766e-01	 1.4647433938e+00	-2.1418939659e+00
 6.4186719959e-01	 1.6213175385e+00	-1.1024448115e+00
 6.7400042970e-01	 1.6082249910e+00	-1.1228974600e+00
 7.0599148712e-01	 1.5944404444e+00	-1.1557925654e+00
 7.3781876642e-01	 1.5799645118e+00	-1.2036910958e+00
 7.6946054263e-01	 1.5647986814e+00	-1.2691410025e+00
 8.0089501444e-01	 1.5489453296e+00	-1.3546555660e+00
 8.3210034875e-01	 1.5324077311e+00	-1.4626911612e+00
 8.6305472614e-01	 1.5151900668e+00	-1.5956246407e+00
 8.9373638710e-01	 1.4972974289e+00	-1.7557305445e+00
 9.2412367902e-01	 1.4787358229e+00	-1.9451583572e+00
 9.5419510352e-01	 1.4595121674e+00	-2.1659100387e+00
 6.3956660031e-01	 1.6155063645e+00	-1.1104242288e+00
 6.7158465755e-01	 1.6024607438e+00	-1.1314711264e+00
 7.0346105167e-01	 1.5887256041e+00	-1.1653223891e+00
 7.3517425471e-01	 1.5743015565e+00	-1.2144814854e+00
 7.6670261953e-01	 1.5591900840e+00	-1.2814365265e+00
 7.9802442298e-01	 1.5433935542e+00	-1.3686389170e+00
 8.2911791022e-01	 1.5269152303e+00	-1.4784814465e+00
 8.5996134002e-01	 1.5097592781e+00	-1.6132760164e+00
 8.9053303087e-01	 1.4919307714e+00	-1.7752312110e+00
 9.2081140777e-01	 1.4734356945e+00	-1.9664299272e+00
 9.5077504939e-01	 1.4542809410e+00	-2.1888072908e+00
 6.3726600103e-01	 1.6096951905e+00	-1.1170547627e+00
 6.6916888540e-01	 1.5966964965e+00	-1.1387004940e+00
 7.0093061623e-01	 1.5830107638e+00	-1.1735161395e+00
 7.3252974300e-01	 1.5686386013e+00	-1.2239479398e+00
 7.6394469644e-01	 1.5535814866e+00	-1.2924244349e+00
 7.9515383153e-01	 1.5378417789e+00	-1.3813354164e+00
 8.2613547170e-01	 1.5214227295e+00	-1.4930103435e+00
 8.5686795390e-01	 1.5043284893e+00	-1.6296964123e+00
 8.8732967464e-01	 1.4865641140e+00	-1.7935364848e+00
 9.1749913651e-01	 1.4681355661e+00	-1.9865470907e+00
 9.4735499525e-01	 1.4490497146e+00	-2.2105967256e+00
 6.3496540174e-01	 1.6038840166e+00	-1.1223340992e+00
 6.6675311324e-01	 1.5909322492e+00	-1.1445844679e+00
 6.9840018079e-01	 1.5772959235e+00	-1.1803739734e+00
 7.2988523129e-01	 1.5629756461e+00	-1.2320918984e+00
 7.6118677334e-01	 1.5479728891e+00	-1.3021074766e+00
 7.9228324008e-01	 1.5322900035e+00	-1.3927491469e+00
 8.2315303317e-01	 1.5159302286e+00	-1.5062832902e+00
 8.5377456778e-01	 1.4988977005e+00	-1.6448926394e+00
 8.8412631841e-01	 1.4811974565e+00	-1.8106545647e+00
 9.1418686526e-01	 1.4628354377e+00	-2.0055194453e+00
 9.4393494111e-01	 1.4438184882e+00	-2.2312893473e+00
 6.3266480246e-01	 1.5980728426e+00	-1.1262597906e+00
 6.6433734109e-01	 1.5851680019e+00	-1.1491218307e+00
 6.9586974535e-01	 1.5715810832e+00	-1.1858959376e+00
 7.2724071958e-01	 1.5573126908e+00	-1.2389147025e+00
 7.5842885025e-01	 1.5423642917e+00	-1.3104883158e+00
 7.8941264863e-01	 1.5267382281e+00	-1.4028841199e+00
 8.2017059464e-01	 1.5104377278e+00	-1.5183056666e+00
 8.5068118167e-01	 1.4934669117e+00	-1.6588714648e+00
 8.8092296218e-01	 1.4758307991e+00	-1.8265936199e+00
 9.1087459400e-01	 1.4575353093e+00	-2.0233565738e+00
 9.4051488697e-01	 1.4385872618e+00	-2.2508961608e+00
 6.3036420317e-01	 1.5922616686e+00	-1.1288292531e+00
 6.6192156894e-01	 1.5794037546e+00	-1.1523112407e+00
 6.9333930991e-01	 1.5658662429e+00	-1.1900819665e+00
 7.2459620787e-01	 1.5516497356e+00	-1.2444175939e+00
 7.5567092715e-01	 1.5367556943e+00	-1.3175695294e+00
 7.8654205717e-01	 1.5211864528e+00	-1.4117442733e+00
 8.1718815611e-01	 1.5049452270e+00	-1.5290827936e+00
 8.4758779555e-01	 1.4880361230e+00	-1.6716396109e+00
 8.7771960595e-01	 1.4704641416e+00	-1.8413617897e+00
 9.0756232275e-01	 1.4522351809e+00	-2.0400680445e+00
 9.3709483284e-01	 1.4333560354e+00	-2.2694281713e+00
 6.2806360389e-01	 1.5864504946e+00	-1.1300397644e+00
 6.5950579679e-01	 1.5736395074e+00	-1.1541512294e+00
 6.9080887447e-01	 1.5601514026e+00	-1.1929318800e+00
 7.2195169616e-01	 1.5459867804e+00	-1.2486017126e+00
 7.5291300406e-01	 1.5311470969e+00	-1.3233536068e+00
 7.8367146572e-01	 1.5156346774e+00	-1.4193334708e+00
 8.1420571758e-01	 1.4994527262e+00	-1.5386199319e+00
 8.4449440943e-01	 1.4826053342e+00	-1.6832037545e+00
 8.7451624972e-01	 1.4650974842e+00	-1.8549671829e+00
 9.0425005150e-01	 1.4469350526e+00	-2.0556634103e+00
 9.3367477870e-01	 1.4281248090e+00	-2.2868963849e+00
 6.2576300461e-01	 1.5806393207e+00	-1.1298884609e+00
 6.5709002464e-01	 1.5678752601e+00	-1.1546401994e+00
 6.8827843903e-01	 1.5544365623e+00	-1.1944453816e+00
 7.1930718445e-01	 1.5403238251e+00	-1.2514680953e+00
 7.5015508096e-01	 1.5255384995e+00	-1.3278429469e+00
 7.8080087427e-01	 1.5100829020e+00	-1.4256555002e+00
 8.1122327905e-01	 1.4939602253e+00	-1.5469222806e+00
 8.4140102331e-01	 1.4771745454e+00	-1.6935705260e+00
 8.7131289349e-01	 1.4597308267e+00	-1.8674178771e+00
 9.0093778024e-01	 1.4416349242e+00	-2.0701522088e+00
 9.3025472456e-01	 1.4228935826e+00	-2.3033118083e+00
 6.2346240532e-01	 1.5748281467e+00	-1.1421285681e+00
 6.5467425249e-01	 1.5621110128e+00	-1.1537764215e+00
 6.8574800359e-01	 1.5487217220e+00	-1.1946220561e+00
 7.1666267274e-01	 1.5346608699e+00	-1.2530176735e+00
 7.4739715787e-01	 1.5199299020e+00	-1.3310398575e+00
 7.7793028282e-01	 1.5045311266e+00	-1.4307140721e+00
 8.0824084052e-01	 1.4884677245e+00	-1.5539949768e+00
 8.3830763719e-01	 1.4717437567e+00	-1.7027465086e+00
 8.6810953726e-01	 1.4543641693e+00	-1.8787219184e+00
 8.9762550899e-01	 1.4363347958e+00	-2.0835439620e+00
 9.2683467042e-01	 1.4176623562e+00	-2.3186854489e+00
 6.2116180604e-01	 1.5690169727e+00	-1.1601237712e+00
 6.5225848033e-01	 1.5563467655e+00	-1.1515580329e+00
 6.8321756815e-01	 1.5430068817e+00	-1.1934613675e+00
 7.1401816103e-01	 1.5289979146e+00	-1.2532512712e+00
 7.4463923477e-01	 1.5143213046e+00	-1.3329465531e+00
 7.7505969136e-01	 1.4989793513e+00	-1.4345128184e+00
 8.0525840199e-01	 1.4829752237e+00	-1.5598430937e+00
 8.3521425107e-01	 1.4663129679e+00	-1.7107382374e+00
 8.6490618104e-01	 1.4489975118e+00	-1.8888873206e+00
 8.9431323773e-01	 1.4310346674e+00	-2.0958481758e+00
 9.2341461629e-01	 1.4124311298e+00	-2.3330283147e+00
 9.5761515766e-01	 1.4647433938e+00	-2.1418939659e+00
 9.8745673788e-01	 1.4447937769e+00	-2.1563305563e+00
 1.0169387842e+00	 1.4241963692e+00	-2.1458199979e+00
 1.0460404709e+00	 1.4029608298e+00	-2.1126845560e+00
 1.0747413174e+00	 1.3810977017e+00	-2.0592464312e+00
 1.1030212347e+00	 1.3586183967e+00	-1.9878081611e+00
 1.1308605717e+00	 1.3355351764e+00	-1.9006334242e+00
 1.1582401591e+00	 1.3118611316e+00	-1.7999284481e+00
 1.1851413535e+00	 1.2876101579e+00	-1.6878242173e+00
 1.2115460789e+00	 1.2627969289e+00	-1.5663596674e+00
 1.2374368671e+00	 1.2374368671e+00	-1.7205986547e+00
 9.5419510352e-01	 1.4595121674e+00	-2.1659100387e+00
 9.8393010667e-01	 1.4396337991e+00	-2.1785685661e+00
 1.0133068600e+00	 1.4191099536e+00	-2.1638494387e+00
 1.0423046121e+00	 1.3979502554e+00	-2.1240025323e+00
 1.0709029555e+00	 1.3761652099e+00	-2.0612866539e+00
 1.0990818732e+00	 1.3537661881e+00	-1.9779504180e+00
 1.1268217839e+00	 1.3307654079e+00	-1.8762134756e+00
 1.1541035871e+00	 1.3071759133e+00	-1.7582482934e+00
 1.1809087058e+00	 1.2830115502e+00	-1.6261626749e+00
 1.2072191286e+00	 1.2582869399e+00	-1.4819832080e+00
 1.2330174497e+00	 1.2330174497e+00	-1.7176551913e+00
 9.5077504939e-01	 1.4542809410e+00	-2.1888072908e+00
 9.8040347546e-01	 1.4344738213e+00	-2.1997407835e+00
 1.0096749358e+00	 1.4140235380e+00	-2.1808566885e+00
 1.0385687533e+00	 1.3929396810e+00	-2.1343325830e+00
 1.0670645937e+00	 1.3712327182e+00	-2.0623639871e+00
 1.0951425116e+00	 1.3489139795e+00	-1.9671457137e+00
 1.1227829962e+00	 1.3259956394e+00	-1.8508535216e+00
 1.1499670151e+00	 1.3024906949e+00	-1.7156262640e+00
 1.1766760581e+00	 1.2784129425e+00	-1.5635487229e+00
 1.2028921783e+00	 1.2537769509e+00	-1.3966353070e+00
 1.2285980323e+00	 1.2285980323e+00	-1.7174449725e+00
 9.4735499525e-01	 1.4490497146e+00	-2.2105967256e+00
 9.7687684425e-01	 1.4293138435e+00	-2.2198596299e+00
 1.0060430115e+00	 1.4089371224e+00	-2.1968554207e+00
 1.0348328944e+00	 1.3879291066e+00	-2.1436894631e+00
 1.0632262318e+00	 1.3663002264e+00	-2.0624940934e+00
 1.0912031501e+00	 1.3440617710e+00	-1.9554104417e+00
 1.1187442084e+00	 1.3212258709e+00	-1.8245705065e+00
 1.1458304431e+00	 1.2978054766e+00	-1.6720796735e+00
 1.1724434104e+00	 1.2738143348e+00	-1.4999998599e+00
 1.1985652280e+00	 1.2492669618e+00	-1.3289433157e+00
 1.2241786149e+00	 1.2241786149e+00	-1.7199489620e+00
 9.4393494111e-01	 1.4438184882e+00	-2.2312893473e+00
 9.7335021304e-01	 1.4241538658e+00	-2.2389375429e+00
 1.0024110873e+00	 1.4038507067e+00	-2.2118593378e+00
 1.0310970356e+00	 1.3829185322e+00	-2.1520879681e+00
 1.0593878700e+00	 1.3613677346e+00	-2.0616926855e+00
 1.0872637885e+00	 1.3392095624e+00	-1.9427610518e+00
 1.1147054207e+00	 1.3164561024e+00	-1.7973814358e+00
 1.1416938711e+00	 1.2931202583e+00	-1.6276258984e+00
 1.1682107627e+00	 1.2692157271e+00	-1.4355336475e+00
 1.1942382777e+00	 1.2447569728e+00	-1.3583455795e+00
 1.2197591975e+00	 1.2197591975e+00	-1.7251481795e+00
 9.4051488697e-01	 1.4385872618e+00	-2.2508961608e+00
 9.6982358183e-01	 1.4189938880e+00	-2.2569869763e+00
 9.9877916307e-01	 1.3987642911e+00	-2.2258821729e+00
 1.0273611768e+00	 1.3779079578e+00	-2.1595429352e+00
 1.0555495081e+00	 1.3564352428e+00	-2.0599755263e+00
 1.0833244270e+00	 1.3343573539e+00	-1.9292140518e+00
 1.1106666329e+00	 1.3116863339e+00	-1.7693033773e+00
 1.1375572991e+00	 1.2884350400e+00	-1.5822823799e+00
 1.1639781151e+00	 1.2646171194e+00	-1.3701677121e+00
 1.1899113275e+00	 1.2402469838e+00	-1.3904914113e+00
 1.2153397802e+00	 1.2153397802e+00	-1.7330237022e+00
 9.3709483284e-01	 1.4333560354e+00	-2.2694281713e+00
 9.6629695062e-01	 1.4138339102e+00	-2.2740204011e+00
 9.9514723884e-01	 1.3936778755e+00	-2.2389376893e+00
 1.0236253180e+00	 1.3728973834e+00	-2.1660692438e+00
 1.0517111463e+00	 1.3515027510e+00	-2.0573584306e+00
 1.0793850654e+00	 1.3295051453e+00	-1.9147860078e+00
 1.1066278452e+00	 1.3069165655e+00	-1.7403534618e+00
 1.1334207271e+00	 1.2837498216e+00	-1.5360666248e+00
 1.1597454674e+00	 1.2600185116e+00	-1.3039197454e+00
 1.1855843772e+00	 1.2357369947e+00	-1.4253619921e+00
 1.2109203628e+00	 1.2109203628e+00	-1.7435566656e+00
 9.3367477870e-01	 1.4281248090e+00	-2.2868963849e+00
 9.6277031941e-01	 1.4086739324e+00	-2.2900503049e+00
 9.9151531460e-01	 1.3885914599e+00	-2.2510396819e+00
 1.0198894591e+00	 1.3678868090e+00	-2.1716818164e+00
 1.0478727844e+00	 1.3465702592e+00	-2.0538572658e+00
 1.0754457038e+00	 1.3246529368e+00	-1.8994935457e+00
 1.1025890574e+00	 1.3021467970e+00	-1.7105488848e+00
 1.1292841551e+00	 1.2790646033e+00	-1.4889962065e+00
 1.1555128197e+00	 1.2554199039e+00	-1.2368075058e+00
 1.1812574269e+00	 1.2312270057e+00	-1.4629385677e+00
 1.2065009454e+00	 1.2065009454e+00	-1.7567282645e+00
 9.3025472456e-01	 1.4228935826e+00	-2.3033118083e+00
 9.5924368820e-01	 1.4035139547e+00	-2.3050891930e+00
 9.8788339037e-01	 1.3835050443e+00	-2.2622019770e+00
 1.0161536003e+00	 1.3628762346e+00	-2.1763956193e+00
 1.0440344226e+00	 1.3416377674e+00	-2.0494879526e+00
 1.0715063423e+00	 1.3198007282e+00	-1.8833533522e+00
 1.0985502696e+00	 1.2973770285e+00	-1.6799069074e+00
 1.1251475831e+00	 1.2743793850e+00	-1.4410887668e+00
 1.1512801720e+00	 1.2508212962e+00	-1.1688488200e+00
 1.1769304766e+00	 1.2267170167e+00	-1.5032024492e+00
 1.2020815280e+00	 1.2020815280e+00	-1.7725197543e+00
 9.2683467042e-01	 1.4176623562e+00	-2.3186854489e+00
 9.5571705699e-01	 1.3983539769e+00	-2.3191495881e+00
 9.8425146614e-01	 1.3784186287e+00	-2.2724384335e+00
 1.0124177415e+00	 1.3578656603e+00	-2.1802256634e+00
 1.0401960607e+00	 1.3367052756e+00	-2.0442664665e+00
 1.0675669807e+00	 1.3149485196e+00	-1.8663821759e+00
 1.0945114819e+00	 1.2926072600e+00	-1.6484448576e+00
 1.1210110112e+00	 1.2696941667e+00	-1.3923620165e+00
 1.1470475243e+00	 1.2462226885e+00	-1.2109983636e+00
 1.1726035263e+00	 1.2222070276e+00	-1.5461350142e+00
 1.1976621106e+00	 1.1976621106e+00	-1.7909124522e+00
 9.2341461629e-01	 1.4124311298e+00	-2.3330283147e+00
 9.5219042579e-01	 1.3931939991e+00	-2.3322440313e+00
 9.8061954191e-01	 1.3733322131e+00	-2.2817629431e+00
 1.0086818826e+00	 1.3528550859e+00	-2.1831870052e+00
 1.0363576989e+00	 1.3317727838e+00	-2.0382088383e+00
 1.0636276192e+00	 1.3100963111e+00	-1.8485968286e+00
 1.0904726941e+00	 1.2878374915e+00	-1.6161801313e+00
 1.1168744392e+00	 1.2650089483e+00	-1.3428337372e+00
 1.1428148766e+00	 1.2416240808e+00	-1.2796467175e+00
 1.1682765760e+00	 1.2176970386e+00	-1.5917177085e+00
 1.1932426933e+00	 1.1932426933e+00	-1.8118877379e+00
 1.2374368671e+00	 1.2374368671e+00	-1.7205986547e+00
 1.2627969160e+00	 1.2115460985e+00	-2.0030275757e+00
 1.2876101064e+00	 1.1851414320e+00	-2.0143218712e+00
 1.3118610162e+00	 1.1582403352e+00	-1.9608499989e+00
 1.3355349719e+00	 1.1308608839e+00	-1.8481851602e+00
 1.3586180782e+00	 1.1030217212e+00	-1.6818031751e+00
 1.3810972448e+00	 1.0747420157e+00	-1.4670613399e+00
 1.4029602102e+00	 1.0460414182e+00	-1.2091802593e+00
 1.4241955631e+00	 1.0169400170e+00	-9.1322870505e-01
 1.4447927608e+00	 9.8745829200e-01	-5.8411150999e-01
 1.4647421446e+00	 9.5761706843e-01	-2.2656046293e-01
 1.2330174497e+00	 1.2330174497e+00	-1.7176551913e+00
 1.2582869270e+00	 1.2072191482e+00	-2.0514852316e+00
 1.2830114989e+00	 1.1809087840e+00	-2.0464537558e+00
 1.3071757983e+00	 1.1541037626e+00	-1.9786599509e+00
 1.3307652041e+00	 1.1268220951e+00	-1.8536613279e+00
 1.3537658708e+00	 1.0990823579e+00	-1.6769151543e+00
 1.3761647547e+00	 1.0709036513e+00	-1.4537574009e+00
 1.3979496380e+00	 1.0423055560e+00	-1.1893846527e+00
 1.4191091504e+00	 1.0133080883e+00	-8.8883903487e-01
 1.4396327866e+00	 9.8393165524e-01	-5.5699616396e-01
 1.4595109227e+00	 9.5419700747e-01	-1.9855608903e-01
 1.2285980323e+00	 1.2285980323e+00	-1.7174449725e+00
 1.2537769381e+00	 1.2028921978e+00	-2.1022002035e+00
 1.2784128914e+00	 1.1766761360e+00	-2.0807415095e+00
 1.3024905804e+00	 1.1499671900e+00	-1.9985446707e+00
 1.3259954364e+00	 1.1227833062e+00	-1.8611516886e+00
 1.3489136634e+00	 1.0951429946e+00	-1.6740013651e+00
 1.3712322645e+00	 1.0670652870e+00	-1.4424083401e+00
 1.3929390659e+00	 1.0385696938e+00	-1.1715450807e+00
 1.4140227376e+00	 1.0096761597e+00	-8.6642687751e-01
 1.4344728125e+00	 9.8040501848e-01	-5.3189985358e-01
 1.4542797007e+00	 9.5077694650e-01	-1.7263195596e-01
 1.2241786149e+00	 1.2241786149e+00	-1.7199489620e+00
 1.2492669491e+00	 1.1985652475e+00	-2.1429571068e+00
 1.2738142839e+00	 1.1724434881e+00	-2.1172246690e+00
 1.2978053624e+00	 1.1458306174e+00	-2.0205432694e+00
 1.3212256686e+00	 1.1187445173e+00	-1.8706949899e+00
 1.3440614560e+00	 1.0912036313e+00	-1.6731002551e+00
 1.3662997744e+00	 1.0632269226e+00	-1.4330523679e+00
 1.3879284937e+00	 1.0348338315e+00	-1.1556995809e+00
 1.4089363249e+00	 1.0060442311e+00	-8.4603016144e-01
 1.4293128383e+00	 9.7687838172e-01	-5.0886046314e-01
 1.4490484788e+00	 9.4735688554e-01	-1.4882596882e-01
 1.2197591975e+00	 1.2197591975e+00	-1.7251481795e+00
 1.2447569601e+00	 1.1942382971e+00	-2.1230428563e+00
 1.2692156763e+00	 1.1682108401e+00	-2.1559428103e+00
 1.2931201445e+00	 1.1416940447e+00	-2.0446948920e+00
 1.3164559009e+00	 1.1147057285e+00	-1.8823300104e+00
 1.3392092486e+00	 1.0872642680e+00	-1.6742503007e+00
 1.3613672842e+00	 1.0593885583e+00	-1.4257277249e+00
 1.3829179215e+00	 1.0310979693e+00	-1.1418862233e+00
 1.4038499122e+00	 1.0024123024e+00	-8.2768685286e-01
 1.4241528642e+00	 9.7335174496e-01	-4.8791592148e-01
 1.4438172568e+00	 9.4393682458e-01	-1.2717608615e-01
 1.2153397802e+00	 1.2153397802e+00	-1.7330237022e+00
 1.2402469711e+00	 1.1899113468e+00	-2.1056966881e+00
 1.2646170688e+00	 1.1639781921e+00	-2.1969355494e+00
 1.2884349266e+00	 1.1375574721e+00	-2.0710387178e+00
 1.3116861331e+00	 1.1106669396e+00	-1.8960955593e+00
 1.3343570411e+00	 1.0833249047e+00	-1.6774900087e+00
 1.3564347940e+00	 1.0555501940e+00	-1.4204726822e+00
 1.3779073493e+00	 1.0273621071e+00	-1.1301431116e+00
 1.3987634995e+00	 9.9878037378e-01	-8.1143495633e-01
 1.4189928900e+00	 9.6982510820e-01	-4.6910420284e-01
 1.4385860349e+00	 9.4051676362e-01	-1.0772032089e-01
 1.2109203628e+00	 1.2109203628e+00	-1.7435566656e+00
 1.2357369821e+00	 1.1855843964e+00	-2.0908993892e+00
 1.2600184613e+00	 1.1597455441e+00	-2.2402425432e+00
 1.2837497087e+00	 1.1334208995e+00	-2.0996139617e+00
 1.3069163653e+00	 1.1066281507e+00	-1.9120304780e+00
 1.3295048337e+00	 1.0793855414e+00	-1.6828579158e+00
 1.3515023039e+00	 1.0517118296e+00	-1.4173255419e+00
 1.3728967771e+00	 1.0236262449e+00	-1.1205083835e+00
 1.3936770867e+00	 9.9514844515e-01	-7.9731251551e-01
 1.4138329159e+00	 9.6629847144e-01	-4.5246332765e-01
 1.4333548130e+00	 9.3709670266e-01	-9.0496741335e-02
 1.2065009454e+00	 1.2065009454e+00	-1.7567282645e+00
 1.2312269931e+00	 1.1812574461e+00	-2.0786317965e+00
 1.2554198538e+00	 1.1555128962e+00	-2.2859034901e+00
 1.2790644908e+00	 1.1292843269e+00	-2.1304598739e+00
 1.3021465976e+00	 1.1025893618e+00	-1.9301736398e+00
 1.3246526263e+00	 1.0754461782e+00	-1.6903925898e+00
 1.3465698137e+00	 1.0478734653e+00	-1.4163246381e+00
 1.3678862050e+00	 1.0198903827e+00	-1.1130202115e+00
 1.3885906740e+00	 9.9151651651e-01	-7.8535761388e-01
 1.4086729417e+00	 9.6277183468e-01	-4.3803136341e-01
 1.4281235910e+00	 9.3367664170e-01	-7.5543472217e-02
 1.2020815280e+00	 1.2020815280e+00	-1.7725197543e+00
 1.2267170041e+00	 1.1769304957e+00	-2.0688747970e+00
 1.2508212463e+00	 1.1512802482e+00	-2.3339581306e+00
 1.2743792729e+00	 1.1251477542e+00	-2.1636157415e+00
 1.2973768298e+00	 1.0985505730e+00	-1.9505639509e+00
 1.3198004189e+00	 1.0715068149e+00	-1.7001326300e+00
 1.3416373236e+00	 1.0440351009e+00	-1.4175083370e+00
 1.3628756328e+00	 1.0161545205e+00	-1.1077168032e+00
 1.3835042613e+00	 9.8788458788e-01	-7.7560837543e-01
 1.4035129676e+00	 9.5924519792e-01	-4.2584642550e-01
 1.4228923691e+00	 9.3025658074e-01	-6.2898695688e-02
 1.1976621106e+00	 1.1976621106e+00	-1.7909124522e+00
 1.2222070152e+00	 1.1726035454e+00	-2.0616093288e+00
 1.2462226387e+00	 1.1470476002e+00	-2.3179651009e+00
 1.2696940550e+00	 1.1210111816e+00	-2.1991208884e+00
 1.2926070621e+00	 1.0945117841e+00	-1.9732403512e+00
 1.3149482115e+00	 1.0675674516e+00	-1.7121166677e+00
 1.3367048334e+00	 1.0401967366e+00	-1.4209150378e+00
 1.3578650606e+00	 1.0124186583e+00	-1.1046364023e+00
 1.3784178486e+00	 9.8425265924e-01	-7.6810296547e-01
 1.3983529935e+00	 9.5571856116e-01	-4.1594667814e-01
 1.4176611471e+00	 9.2683651977e-01	-5.2600652399e-02
 1.1932426933e+00	 1.1932426933e+00	-1.8118877379e+00
 1.2176970262e+00	 1.1682765950e+00	-2.0568163826e+00
 1.2416240312e+00	 1.1428149523e+00	-2.2898928337e+00
 1.2650088371e+00	 1.1168746090e+00	-2.2370146767e+00
 1.2878372943e+00	 1.0904729952e+00	-1.9982418145e+00
 1.3100960040e+00	 1.0636280883e+00	-1.7263833667e+00
 1.3317723433e+00	 1.0363583722e+00	-1.4265831730e+00
 1.3528544884e+00	 1.0086827961e+00	-1.1038172892e+00
 1.3733314358e+00	 9.8062073061e-01	-7.6287959133e-01
 1.3931930193e+00	 9.5219192440e-01	-4.0837033525e-01
 1.4124299252e+00	 9.2341645881e-01	-4.4687642585e-02
 1.4647421446e+00	 9.5761706843e-01	-2.2656046293e-01
 1.4840349526e+00	 9.2743746932e-01	-1.1397120117e-01
 1.5026633286e+00	 8.9694086809e-01	 8.2682652472e-03
 1.5206203292e+00	 8.6614884071e-01	 1.3845107158e-01
 1.5378999272e+00	 8.3508311796e-01	 2.7503221413e-01
 1.5544970119e+00	 8.0376553786e-01	 4.1661499938e-01
 1.5704073875e+00	 7.7221799858e-01	 5.6193578567e-01
 1.5856277673e+00	 7.4046241201e-01	 7.0984731379e-01
 1.6001557665e+00	 7.0852065810e-01	 8.5930093126e-01
 1.6139898915e+00	 6.7641454023e-01	 1.0093280184e+00
 1.6271295269e+00	 6.4416574175e-01	 1.1590209234e+00
 1.4595109227e+00	 9.5419700747e-01	-1.9855608903e-01
 1.4787348277e+00	 9.2412519264e-01	-9.1671184436e-02
 1.4972966739e+00	 8.9373750784e-01	 2.6061356981e-02
 1.5151895424e+00	 8.6305545199e-01	 1.5288638390e-01
 1.5324074275e+00	 8.3210067825e-01	 2.8720336402e-01
 1.5489452369e+00	 8.0089494665e-01	 4.2755339384e-01
 1.5647987897e+00	 7.6946007715e-01	 5.7260453925e-01
 1.5799648110e+00	 7.3781790339e-01	 7.2113579643e-01
 1.5944409245e+00	 7.0599022717e-01	 8.7201997133e-01
 1.6082256419e+00	 6.7399877401e-01	 1.0242057791e+00
 1.6213183500e+00	 6.4186514981e-01	 1.1766994637e+00
 1.4542797007e+00	 9.5077694650e-01	-1.7263195596e-01
 1.4734347029e+00	 9.2081291596e-01	-7.1382100912e-02
 1.4919300191e+00	 8.9053414759e-01	 4.1915167493e-02
 1.5097587555e+00	 8.5996206327e-01	 1.6545653487e-01
 1.5269149277e+00	 8.2911823854e-01	 2.9758608702e-01
 1.5433934619e+00	 7.9802435544e-01	 4.3678287789e-01
 1.5591901919e+00	 7.6670215572e-01	 5.8164686614e-01
 1.5743018547e+00	 7.3517339477e-01	 7.3088350359e-01
 1.5887260824e+00	 7.0345979625e-01	 8.8328726684e-01
 1.6024613922e+00	 6.7158300779e-01	 1.0377244270e+00
 1.6155071731e+00	 6.3956455787e-01	 1.1931153508e+00
 1.4490484788e+00	 9.4735688554e-01	-1.4882596882e-01
 1.4681345781e+00	 9.1750063928e-01	-5.3140320044e-02
 1.4865633644e+00	 8.8733078735e-01	 5.5795025463e-02
 1.5043279686e+00	 8.5686867455e-01	 1.7612870838e-01
 1.5214224280e+00	 8.2613579883e-01	 3.0614957356e-01
 1.5378416868e+00	 7.9515376423e-01	 4.4427479355e-01
 1.5535815940e+00	 7.6394423430e-01	 5.8903639850e-01
 1.5686388984e+00	 7.3252888616e-01	 7.3906648916e-01
 1.5830112404e+00	 7.0092936532e-01	 8.9308141775e-01
 1.5966971426e+00	 6.6916724157e-01	 1.0498652250e+00
 1.6096959962e+00	 6.3726396594e-01	 1.2082526197e+00
 1.4438172568e+00	 9.4393682458e-01	-1.2717608615e-01
 1.4628344533e+00	 9.1418836260e-01	-3.6982252010e-02
 1.4811967096e+00	 8.8412742710e-01	 6.7666232901e-02
 1.4988971817e+00	 8.5377528583e-01	 1.8487007706e-01
 1.5159299282e+00	 8.2315335912e-01	 3.1286301949e-01
 1.5322899118e+00	 7.9228317302e-01	 4.5000050626e-01
 1.5479729962e+00	 7.6118631287e-01	 5.9474681106e-01
 1.5629759420e+00	 7.2988437754e-01	 7.4566086991e-01
 1.5772963984e+00	 6.9839893440e-01	 9.0138110841e-01
 1.5909328930e+00	 6.6675147536e-01	 1.0606095429e+00
 1.6038848193e+00	 6.3496337400e-01	 1.2220954360e+00
 1.4385860349e+00	 9.4051676362e-01	-1.0772032089e-01
 1.4575343284e+00	 9.1087608592e-01	-2.2944348463e-02
 1.4758300549e+00	 8.8092406686e-01	 7.7494064657e-02
 1.4934663948e+00	 8.5068189711e-01	 1.9164780208e-01
 1.5104374285e+00	 8.2017091941e-01	 3.1769562620e-01
 1.5267381367e+00	 7.8941258181e-01	 4.5393140528e-01
 1.5423643984e+00	 7.5842839145e-01	 5.9875182189e-01
 1.5573129857e+00	 7.2723986892e-01	 7.5064282669e-01
 1.5715815564e+00	 6.9586850347e-01	 9.0816510904e-01
 1.5851686434e+00	 6.6433570914e-01	 1.0699388595e+00
 1.5980736424e+00	 6.3266278206e-01	 1.2346280979e+00
 1.4333548130e+00	 9.3709670266e-01	-9.0496741335e-02
 1.4522342036e+00	 9.0756380924e-01	-1.1063103290e-02
 1.4704634001e+00	 8.7772070661e-01	 8.5243767931e-02
 1.4880356079e+00	 8.4758850839e-01	 1.9642903291e-01
 1.5049449288e+00	 8.1718847970e-01	 3.2061660072e-01
 1.5211863617e+00	 7.8654199060e-01	 4.5603890411e-01
 1.5367558006e+00	 7.5567047002e-01	 6.0102519322e-01
 1.5516500294e+00	 7.2459536031e-01	 7.5398860559e-01
 1.5658667144e+00	 6.9333807255e-01	 9.1341227737e-01
 1.5794043938e+00	 6.6191994292e-01	 1.0778347643e+00
 1.5922624656e+00	 6.3036219013e-01	 1.2458350392e+00
 1.4281235910e+00	 9.3367664170e-01	-7.5543472217e-02
 1.4469340788e+00	 9.0425153256e-01	-1.3750533852e-03
 1.4650967454e+00	 8.7451734636e-01	 9.0880561761e-02
 1.4826048210e+00	 8.4449511967e-01	 1.9918090711e-01
 1.4994524290e+00	 8.1420603999e-01	 3.2159515581e-01
 1.5156345867e+00	 7.8367139939e-01	 4.5629444096e-01
 1.5311472028e+00	 7.5291254859e-01	 6.0154073219e-01
 1.5459870731e+00	 7.2195085169e-01	 7.5567451909e-01
 1.5601518723e+00	 6.9080764163e-01	 9.1710156021e-01
 1.5736401442e+00	 6.5950417670e-01	 1.0842789596e+00
 1.5864512887e+00	 6.2806159819e-01	 1.2557008311e+00
 1.4228923691e+00	 9.3025658074e-01	-6.2898695688e-02
 1.4416339540e+00	 9.0093925588e-01	 6.0832205602e-03
 1.4597300907e+00	 8.7131398612e-01	 9.4369636511e-02
 1.4771740341e+00	 8.4140173095e-01	 1.9987055017e-01
 1.4939599293e+00	 8.1122360028e-01	 3.2060051006e-01
 1.5100828116e+00	 7.8080080818e-01	 4.5466947919e-01
 1.5255386050e+00	 7.5015462717e-01	 6.0027229174e-01
 1.5403241168e+00	 7.1930634307e-01	 7.5567694733e-01
 1.5544370303e+00	 6.8827721070e-01	 9.1921199506e-01
 1.5678758946e+00	 6.5708841049e-01	 1.0892532627e+00
 1.5806401118e+00	 6.2576100625e-01	 1.2642101851e+00
 1.4176611471e+00	 9.2683651977e-01	-5.2600652399e-02
 1.4363338291e+00	 8.9762697921e-01	 1.1275093250e-02
 1.4543634359e+00	 8.6811062587e-01	 9.5676153337e-02
 1.4717432473e+00	 8.3830834223e-01	 1.9846507519e-01
 1.4884674296e+00	 8.0824116057e-01	 3.1760188804e-01
 1.5045310366e+00	 7.7793021697e-01	 4.5113550780e-01
 1.5199300072e+00	 7.4739670574e-01	 5.9719377142e-01
 1.5346611605e+00	 7.1666183445e-01	 7.5397233935e-01
 1.5487221883e+00	 6.8574677978e-01	 9.1972271184e-01
 1.5621116450e+00	 6.5467264427e-01	 1.0927396080e+00
 1.5748289349e+00	 6.2346041432e-01	 1.2642891656e+00
 1.4124299252e+00	 9.2341645881e-01	-4.4687642585e-02
 1.4310337043e+00	 8.9431470253e-01	 1.4163893957e-02
 1.4489967812e+00	 8.6490726562e-01	 9.4765243648e-02
 1.4663124604e+00	 8.3521495351e-01	 1.9493158274e-01
 1.4829749298e+00	 8.0525872086e-01	 3.1256852036e-01
 1.4989792615e+00	 7.7505962576e-01	 4.4566404186e-01
 1.5143214094e+00	 7.4463878431e-01	 5.9227911826e-01
 1.5289982042e+00	 7.1401732584e-01	 7.5053721436e-01
 1.5430073463e+00	 6.8321634885e-01	 9.1861293454e-01
 1.5563473954e+00	 6.5225687805e-01	 1.0947200492e+00
 1.5690177580e+00	 6.2115982238e-01	 1.2598773755e+00
 1.6271295269e+00	 6.4416574175e-01	 1.1590209234e+00
 1.6395749202e+00	 6.1179578386e-01	 1.3407707480e+00
 1.6513271642e+00	 5.7932598496e-01	 1.4530262456e+00
 1.6623881771e+00	 5.4677742156e-01	 1.5878495696e+00
 1.6727606807e+00	 5.1417089101e-01	 1.7381590977e+00
 1.6824481768e+00	 4.8152687600e-01	 1.8974209839e+00
 1.6914549220e+00	 4.4886551095e-01	 2.0596830817e+00
 1.6997859004e+00	 4.1620655053e-01	 2.2196022342e+00
 1.7074467961e+00	 3.8356934007e-01	 2.3724649831e+00
 1.7144439629e+00	 3.5097278823e-01	 2.5142018203e+00
 1.7207843947e+00	 3.1843534174e-01	 2.6413951685e+00
 1.6213183500e+00	 6.4186514981e-01	 1.1766994637e+00
 1.6337192955e+00	 6.0961079892e-01	 1.3514236475e+00
 1.6454295672e+00	 5.7725696358e-01	 1.4679398497e+00
 1.6564510764e+00	 5.4482464505e-01	 1.6057494921e+00
 1.6667865354e+00	 5.1233456640e-01	 1.7578901047e+00
 1.6764394333e+00	 4.7980713715e-01	 1.9179438202e+00
 1.6854140115e+00	 4.4726241984e-01	 2.0800706591e+00
 1.6937152365e+00	 4.1472009857e-01	 2.2390352484e+00
 1.7013487718e+00	 3.8219944957e-01	 2.3902270309e+00
 1.7083209488e+00	 3.4971931399e-01	 2.5296740863e+00
 1.7146387362e+00	 3.1729807266e-01	 2.6540507520e+00
 1.6155071731e+00	 6.3956455787e-01	 1.1931153508e+00
 1.6278636707e+00	 6.0742581398e-01	 1.3611436646e+00
 1.6395319702e+00	 5.7518794221e-01	 1.4821303883e+00
 1.6505139758e+00	 5.4287186854e-01	 1.6231186562e+00
 1.6608123901e+00	 5.1049824179e-01	 1.7772641715e+00
 1.6704306899e+00	 4.7808739831e-01	 1.9382641677e+00
 1.6793731011e+00	 4.4565932873e-01	 2.1003900575e+00
 1.6876445726e+00	 4.1323364660e-01	 2.2585135822e+00
 1.6952507475e+00	 3.8082955907e-01	 2.4081265220e+00
 1.7021979346e+00	 3.4846583974e-01	 2.5453540868e+00
 1.7084930776e+00	 3.1616080358e-01	 2.6669621768e+00
 1.6096959962e+00	 6.3726396594e-01	 1.2082526197e+00
 1.6220080460e+00	 6.0524082903e-01	 1.3699579177e+00
 1.6336343731e+00	 5.7311892083e-01	 1.4956238795e+00
 1.6445768752e+00	 5.4091909204e-01	 1.6399819050e+00
 1.6548382448e+00	 5.0866191718e-01	 1.7963048975e+00
 1.6644219464e+00	 4.7636765946e-01	 1.9584043198e+00
 1.6733321907e+00	 4.4405623762e-01	 2.1206622077e+00
 1.6815739086e+00	 4.1174719463e-01	 2.2780567533e+00
 1.6891527232e+00	 3.7945966857e-01	 2.4261815161e+00
 1.6960749204e+00	 3.4721236550e-01	 2.5612583842e+00
 1.7023474191e+00	 3.1502353450e-01	 2.6801444738e+00
 1.6038848193e+00	 6.3496337400e-01	 1.2220954360e+00
 1.6161524213e+00	 6.0305584409e-01	 1.3778936628e+00
 1.6277367761e+00	 5.7104989945e-01	 1.5084464846e+00
 1.6386397745e+00	 5.3896631553e-01	 1.6563642286e+00
 1.6488640995e+00	 5.0682559256e-01	 1.8150360316e+00
 1.6584132029e+00	 4.7464792062e-01	 1.9783867197e+00
 1.6672912802e+00	 4.4245314651e-01	 2.1409081893e+00
 1.6755032447e+00	 4.1026074266e-01	 2.2976844255e+00
 1.6830546990e+00	 3.7808977807e-01	 2.4444102148e+00
 1.6899519063e+00	 3.4595889125e-01	 2.5774036770e+00
 1.6962017605e+00	 3.1388626542e-01	 2.6936128030e+00
 1.5980736424e+00	 6.3266278206e-01	 1.2346280979e+00
 1.6102967966e+00	 6.0087085914e-01	 1.3849782961e+00
 1.6218391791e+00	 5.6898087808e-01	 1.5206245109e+00
 1.6327026739e+00	 5.3701353902e-01	 1.6722907668e+00
 1.6428899542e+00	 5.0498926795e-01	 1.8334814742e+00
 1.6524044594e+00	 4.7292818178e-01	 1.9982339628e+00
 1.6612503698e+00	 4.4085005540e-01	 2.1611492332e+00
 1.6694325808e+00	 4.0877429070e-01	 2.3174164113e+00
 1.6769566747e+00	 3.7671988757e-01	 2.4628309640e+00
 1.6838288921e+00	 3.4470541701e-01	 2.5938068021e+00
 1.6900561020e+00	 3.1274899634e-01	 2.7073824551e+00
 1.5922624656e+00	 6.3036219013e-01	 1.2458350392e+00
 1.6044411719e+00	 5.9868587420e-01	 1.3912393566e+00
 1.6159415821e+00	 5.6691185670e-01	 1.5321844138e+00
 1.6267655733e+00	 5.3506076252e-01	 1.6877868119e+00
 1.6369158090e+00	 5.0315294334e-01	 1.8516652808e+00
 1.6463957159e+00	 4.7120844293e-01	 2.0179688002e+00
 1.6552094594e+00	 4.3924696429e-01	 2.1814067245e+00
 1.6633619168e+00	 4.0728783873e-01	 2.3372726744e+00
 1.6708586504e+00	 3.7534999707e-01	 2.4814622567e+00
 1.6777058780e+00	 3.4345194277e-01	 2.6104847375e+00
 1.6839104434e+00	 3.1161172726e-01	 2.7214688545e+00
 1.5864512887e+00	 6.2806159819e-01	 1.2557008311e+00
 1.5985855472e+00	 5.9650088926e-01	 1.3967045284e+00
 1.6100439851e+00	 5.6484283532e-01	 1.5431528001e+00
 1.6208284726e+00	 5.3310798601e-01	 1.7028778114e+00
 1.6309416637e+00	 5.0131661873e-01	 1.8696116641e+00
 1.6403869724e+00	 4.6948870409e-01	 2.0376141408e+00
 1.6491685489e+00	 4.3764387317e-01	 2.2017022052e+00
 1.6572912529e+00	 4.0580138676e-01	 2.3572733328e+00
 1.6647606261e+00	 3.7398010657e-01	 2.5003227354e+00
 1.6715828638e+00	 3.4219846852e-01	 2.6274546048e+00
 1.6777647849e+00	 3.1047445819e-01	 2.7358875616e+00
 1.5806401118e+00	 6.2576100625e-01	 1.2642101851e+00
 1.5927299224e+00	 5.9431590431e-01	 1.4014016437e+00
 1.6041463881e+00	 5.6277381395e-01	 1.5535564304e+00
 1.6148913720e+00	 5.3115520950e-01	 1.7175893709e+00
 1.6249675184e+00	 4.9948029412e-01	 1.8873449974e+00
 1.6343782289e+00	 4.6776896524e-01	 2.0571930545e+00
 1.6431276385e+00	 4.3604078206e-01	 2.2220573772e+00
 1.6512205890e+00	 4.0431493480e-01	 2.3774386615e+00
 1.6586626019e+00	 3.7261021607e-01	 2.5194311952e+00
 1.6654598497e+00	 3.4094499428e-01	 2.6447336716e+00
 1.6716191263e+00	 3.0933718911e-01	 2.7506542751e+00
 1.5748289349e+00	 6.2346041432e-01	 1.2642891656e+00
 1.5868742977e+00	 5.9213091937e-01	 1.4053586857e+00
 1.5982487910e+00	 5.6070479257e-01	 1.5634222223e+00
 1.6089542714e+00	 5.2920243300e-01	 1.7319472569e+00
 1.6189933731e+00	 4.9764396950e-01	 1.9048898173e+00
 1.6283694854e+00	 4.6604922640e-01	 2.0767287754e+00
 1.6370867280e+00	 4.3443769095e-01	 2.2424941050e+00
 1.6451499250e+00	 4.0282848283e-01	 2.3977890952e+00
 1.6525645776e+00	 3.7124032557e-01	 2.5388065861e+00
 1.6593368355e+00	 3.3969152004e-01	 2.6623393548e+00
 1.6654734677e+00	 3.0819992003e-01	 2.7657848347e+00
 1.5690177580e+00	 6.2115982238e-01	 1.2598773755e+00
 1.5810186730e+00	 5.8994593442e-01	 1.4086037907e+00
 1.5923511940e+00	 5.5863577119e-01	 1.5727772527e+00
 1.6030171707e+00	 5.2724965649e-01	 1.7459774000e+00
 1.6130192278e+00	 4.9580764489e-01	 1.9222708269e+00
 1.6223607419e+00	 4.6432948756e-01	 2.0962447044e+00
 1.6310458176e+00	 4.3283459984e-01	 2.2630344193e+00
 1.6390792611e+00	 4.0134203087e-01	 2.4183452315e+00
 1.6464665533e+00	 3.6987043507e-01	 2.5584680167e+00
 1.6532138214e+00	 3.3843804579e-01	 2.6802892226e+00
 1.6593278092e+00	 3.0706265096e-01	 2.7812952237e+00
 1.7207843947e+00	 3.1843534174e-01	 2.6413951685e+00
 1.7264756937e+00	 2.8597496231e-01	 2.7776857803e+00
 1.7315260383e+00	 2.5360910580e-01	 2.9064215958e+00
 1.7359441510e+00	 2.2135470347e-01	 3.0252586065e+00
 1.7397392647e+00	 1.8922814545e-01	 3.1324749999e+00
 1.7429210901e+00	 1.5724526633e-01	 3.2269558060e+00
 1.7454997821e+00	 1.2542133288e-01	 3.3081732234e+00
 1.7474859064e+00	 9.3771033808e-02	 3.3761630632e+00
 1.7488904066e+00	 6.2308471550e-02	 3.4314977612e+00
 1.7497245709e+00	 3.1047155973e-02	 3.4752564118e+00
 1.7500000000e+00	 0.0000000000e+00	 3.5089922813e+00
 1.7146387362e+00	 3.1729807266e-01	 2.6540507520e+00
 1.7203097091e+00	 2.8495362316e-01	 2.7893066940e+00
 1.7253420168e+00	 2.5270335899e-01	 2.9168369752e+00
 1.7297443504e+00	 2.2056415096e-01	 3.0343436111e+00
 1.7335259101e+00	 1.8855233064e-01	 3.1401448106e+00
 1.7366963719e+00	 1.5668367609e-01	 3.2331596650e+00
 1.7392658543e+00	 1.2497339954e-01	 3.3128885671e+00
 1.7412448853e+00	 9.3436137257e-02	 3.3793897927e+00
 1.7426443695e+00	 6.2085941293e-02	 3.4332526900e+00
 1.7434755546e+00	 3.0936273273e-02	 3.4755679288e+00
 1.7437500000e+00	 0.0000000000e+00	 3.5078952590e+00
 1.7084930776e+00	 3.1616080358e-01	 2.6669621768e+00
 1.7141437245e+00	 2.8393228400e-01	 2.8012939896e+00
 1.7191579952e+00	 2.5179761218e-01	 2.9277077042e+00
 1.7235445499e+00	 2.1977359844e-01	 3.0439511583e+00
 1.7273125556e+00	 1.8787651583e-01	 3.1483824794e+00
 1.7304716537e+00	 1.5612208585e-01	 3.2399548149e+00
 1.7330319265e+00	 1.2452546621e-01	 3.3181968392e+00
 1.7350038643e+00	 9.3101240706e-02	 3.3831894688e+00
 1.7363983323e+00	 6.1863411037e-02	 3.4355392262e+00
 1.7372265383e+00	 3.0825390572e-02	 3.4763486981e+00
 1.7375000000e+00	 0.0000000000e+00	 3.5071845351e+00
 1.7023474191e+00	 3.1502353450e-01	 2.6801444738e+00
 1.7079777398e+00	 2.8291094485e-01	 2.8136620568e+00
 1.7129739736e+00	 2.5089186538e-01	 2.9390475180e+00
 1.7173447493e+00	 2.1898304593e-01	 3.0540943183e+00
 1.7210992011e+00	 1.8720070103e-01	 3.1572004044e+00
 1.7242469355e+00	 1.5556049561e-01	 3.2473529761e+00
 1.7267979987e+00	 1.2407753288e-01	 3.3241090791e+00
 1.7287628432e+00	 9.2766344156e-02	 3.3875724496e+00
 1.7301522951e+00	 6.1640880780e-02	 3.4383670474e+00
 1.7309775220e+00	 3.0714507872e-02	 3.4776077191e+00
 1.7312500000e+00	 0.0000000000e+00	 3.5068684345e+00
 1.6962017605e+00	 3.1388626542e-01	 2.6936128030e+00
 1.7018117552e+00	 2.8188960570e-01	 2.8264254186e+00
 1.7067899521e+00	 2.4998611857e-01	 2.9508702886e+00
 1.7111449488e+00	 2.1819249342e-01	 3.0647863004e+00
 1.7148858466e+00	 1.8652488622e-01	 3.1666111230e+00
 1.7180222174e+00	 1.5499890537e-01	 3.2553660080e+00
 1.7205640709e+00	 1.2362959954e-01	 3.3306364643e+00
 1.7225218221e+00	 9.2431447606e-02	 3.3925492284e+00
 1.7239062580e+00	 6.1418350525e-02	 3.4417459622e+00
 1.7247285056e+00	 3.0603625172e-02	 3.4793541175e+00
 1.7250000000e+00	 0.0000000000e+00	 3.5069554029e+00
 1.6900561020e+00	 3.1274899634e-01	 2.7073824551e+00
 1.6956457706e+00	 2.8086826655e-01	 2.8395987342e+00
 1.7006059305e+00	 2.4908037176e-01	 2.9631900272e+00
 1.7049451483e+00	 2.1740194090e-01	 3.0760404552e+00
 1.7086724921e+00	 1.8584907142e-01	 3.1766273152e+00
 1.7117974992e+00	 1.5443731514e-01	 3.2640059122e+00
 1.7143301431e+00	 1.2318166621e-01	 3.3377903127e+00
 1.7162808010e+00	 9.2096551057e-02	 3.3981304361e+00
 1.7176602208e+00	 6.1195820269e-02	 3.4456859135e+00
 1.7184794893e+00	 3.0492742472e-02	 3.4815971482e+00
 1.7187500000e+00	 0.0000000000e+00	 3.5074540089e+00
 1.6839104434e+00	 3.1161172726e-01	 2.7214688545e+00
 1.6894797860e+00	 2.7984692740e-01	 2.8531968006e+00
 1.6944219089e+00	 2.4817462496e-01	 2.9760208866e+00
 1.6987453477e+00	 2.1661138839e-01	 3.0878702771e+00
 1.7024591376e+00	 1.8517325661e-01	 3.1872618055e+00
 1.7055727810e+00	 1.5387572490e-01	 3.2732848347e+00
 1.7080962153e+00	 1.2273373288e-01	 3.3455820851e+00
 1.7100397799e+00	 9.1761654508e-02	 3.4043268438e+00
 1.7114141836e+00	 6.0973290014e-02	 3.4501969802e+00
 1.7122304730e+00	 3.0381859772e-02	 3.4843461970e+00
 1.7125000000e+00	 0.0000000000e+00	 3.5083729461e+00
 1.6777647849e+00	 3.1047445819e-01	 2.7358875616e+00
 1.6833138014e+00	 2.7882558825e-01	 2.8672345557e+00
 1.6882378874e+00	 2.4726887815e-01	 2.9893771641e+00
 1.6925455472e+00	 2.1582083588e-01	 3.1002894071e+00
 1.6962457830e+00	 1.8449744181e-01	 3.1985275660e+00
 1.6993480628e+00	 1.5331413466e-01	 3.2832150685e+00
 1.7018622875e+00	 1.2228579955e-01	 3.3540233877e+00
 1.7037987588e+00	 9.1426757960e-02	 3.4111493655e+00
 1.7051681465e+00	 6.0750759759e-02	 3.4552893801e+00
 1.7059814567e+00	 3.0270977073e-02	 3.4876107838e+00
 1.7062500000e+00	 0.0000000000e+00	 3.5097210355e+00
 1.6716191263e+00	 3.0933718911e-01	 2.7506542751e+00
 1.6771478167e+00	 2.7780424910e-01	 2.8817270810e+00
 1.6820538658e+00	 2.4636313135e-01	 3.0032733038e+00
 1.6863457466e+00	 2.1503028337e-01	 3.1133116354e+00
 1.6900324285e+00	 1.8382162700e-01	 3.2104377191e+00
 1.6931233446e+00	 1.5275254443e-01	 3.2938090566e+00
 1.6956283597e+00	 1.2183786622e-01	 3.3631259751e+00
 1.6975577377e+00	 9.1091861412e-02	 3.4186090604e+00
 1.6989221093e+00	 6.0528229504e-02	 3.4609734722e+00
 1.6997324403e+00	 3.0160094373e-02	 3.4914005640e+00
 1.7000000000e+00	 0.0000000000e+00	 3.5115072277e+00
 1.6654734677e+00	 3.0819992003e-01	 2.7657848347e+00
 1.6709818321e+00	 2.7678290995e-01	 2.8966896039e+00
 1.6758698442e+00	 2.4545738454e-01	 3.0177238996e+00
 1.6801459461e+00	 2.1423973086e-01	 3.1269509043e+00
 1.6838190740e+00	 1.8314581220e-01	 3.2230055400e+00
 1.6868986265e+00	 1.5219095419e-01	 3.3050793945e+00
 1.6893944319e+00	 1.2138993289e-01	 3.3729017529e+00
 1.6913167166e+00	 9.0756964864e-02	 3.4267171359e+00
 1.6926760721e+00	 6.0305699250e-02	 3.4672597596e+00
 1.6934834240e+00	 3.0049211674e-02	 3.4957253321e+00
 1.6937500000e+00	 0.0000000000e+00	 3.5137406057e+00
 1.6593278092e+00	 3.0706265096e-01	 2.7812952237e+00
 1.6648158475e+00	 2.7576157080e-01	 2.9121375003e+00
 1.6696858227e+00	 2.4455163774e-01	 3.0327436979e+00
 1.6739461456e+00	 2.1344917835e-01	 3.1412213109e+00
 1.6776057195e+00	 1.8246999740e-01	 3.2362444597e+00
 1.6806739083e+00	 1.5162936396e-01	 3.3170388333e+00
 1.6831605042e+00	 1.2094199956e-01	 3.3833627802e+00
 1.6850756955e+00	 9.0422068317e-02	 3.4354849501e+00
 1.6864300350e+00	 6.0083168996e-02	 3.4741588918e+00
 1.6872344077e+00	 2.9938328975e-02	 3.5005950235e+00
 1.6875000000e+00	 0.0000000000e+00	 3.5164303867e+00
 0.0000000000e+00	 1.6875000000e+00	-4.1822572788e-01
 2.9938328975e-02	 1.6872344077e+00	-4.3325381888e-01
 6.0083168996e-02	 1.6864300350e+00	-4.4998056280e-01
 9.0422068317e-02	 1.6850756955e+00	-4.6680892267e-01
 1.2094199956e-01	 1.6831605042e+00	-4.8236830504e-01
 1.5162936396e-01	 1.6806739083e+00	-4.9553339235e-01
 1.8246999740e-01	 1.6776057195e+00	-5.0544175802e-01
 2.1344917835e-01	 1.6739461456e+00	-5.1151001880e-01
 2.4455163774e-01	 1.6696858227e+00	-5.1344827869e-01
 2.7576157080e-01	 1.6648158475e+00	-5.1127262064e-01
 3.0706265096e-01	 1.6593278092e+00	-5.0531540846e-01
 0.0000000000e+00	 1.6812500000e+00	-4.2209602033e-01
 2.9827446276e-02	 1.6809853914e+00	-4.3555262018e-01
 5.9860638742e-02	 1.6801839978e+00	-4.5093518751e-01
 9.0087171770e-02	 1.6788346744e+00	-4.6661711570e-01
 1.2049406623e-01	 1.6769265764e+00	-4.8119359128e-01
 1.5106777373e-01	 1.6744491901e+00	-4.9350031838e-01
 1.8179418260e-01	 1.6713923650e+00	-5.0263105431e-01
 2.1265862584e-01	 1.6677463450e+00	-5.0795371393e-01
 2.4364589094e-01	 1.6635018011e+00	-5.0912479962e-01
 2.7474023165e-01	 1.6586498629e+00	-5.0610191599e-01
 3.0592538188e-01	 1.6531821506e+00	-4.9915413390e-01
 0.0000000000e+00	 1.6750000000e+00	-4.2612006557e-01
 2.9716563577e-02	 1.6747363750e+00	-4.3821353964e-01
 5.9638108488e-02	 1.6739379606e+00	-4.5245013973e-01
 8.9752275223e-02	 1.6725936533e+00	-4.6717325883e-01
 1.2004613290e-01	 1.6706926486e+00	-4.8094346727e-01
 1.5050618349e-01	 1.6682244719e+00	-4.9255713212e-01
 1.8111836780e-01	 1.6651790104e+00	-5.0106387628e-01
 2.1186807333e-01	 1.6615465445e+00	-5.0578263754e-01
 2.4274014413e-01	 1.6573177795e+00	-5.0631608728e-01
 2.7371889250e-01	 1.6524838782e+00	-5.0256317046e-01
 3.0478811281e-01	 1.6470364921e+00	-4.9472953408e-01
 0.0000000000e+00	 1.6687500000e+00	-4.3029365217e-01
 2.9605680878e-02	 1.6684873587e+00	-4.4123441308e-01
 5.9415578234e-02	 1.6676919235e+00	-4.5452533046e-01
 8.9417378675e-02	 1.6663526322e+00	-4.6847936332e-01
 1.1959819957e-01	 1.6644587208e+00	-4.8162206639e-01
 1.4994459326e-01	 1.6619997537e+00	-4.9271010757e-01
 1.8044255299e-01	 1.6589656559e+00	-5.0074865338e-01
 2.1107752082e-01	 1.6553467439e+00	-5.0500738547e-01
 2.4183439733e-01	 1.6511337580e+00	-5.0503491065e-01
 2.7269755335e-01	 1.6463178936e+00	-5.0067132862e-01
 3.0365084373e-01	 1.6408908335e+00	-4.9205872689e-01
 0.0000000000e+00	 1.6625000000e+00	-4.3461250534e-01
 2.9494798178e-02	 1.6622383424e+00	-4.4461304023e-01
 5.9193047979e-02	 1.6614458863e+00	-4.5716066160e-01
 8.9082482126e-02	 1.6601116111e+00	-4.7053745793e-01
 1.1915026624e-01	 1.6582247930e+00	-4.8323356575e-01
 1.4938300302e-01	 1.6557750356e+00	-4.9396558824e-01
 1.7976673819e-01	 1.6527523014e+00	-5.0169390984e-01
 2.1028696831e-01	 1.6491469434e+00	-5.0563867305e-01
 2.4092865052e-01	 1.6449497364e+00	-5.0529418237e-01
 2.7167621420e-01	 1.6401519090e+00	-5.0044150212e-01
 3.0251357465e-01	 1.6347451750e+00	-4.9115902015e-01
 0.0000000000e+00	 1.6562500000e+00	-4.3907228578e-01
 2.9383915478e-02	 1.6559893261e+00	-4.4834718407e-01
 5.8970517724e-02	 1.6551998491e+00	-4.6035602577e-01
 8.8747585577e-02	 1.6538705900e+00	-4.7334958924e-01
 1.1870233291e-01	 1.6519908652e+00	-4.8578218701e-01
 1.4882141279e-01	 1.6495503174e+00	-4.9632998843e-01
 1.7909092338e-01	 1.6465389469e+00	-5.0390826643e-01
 2.0949641580e-01	 1.6429471429e+00	-5.0768733737e-01
 2.4002290372e-01	 1.6387657149e+00	-5.0710696141e-01
 2.7065487505e-01	 1.6339859244e+00	-5.0188897294e-01
 3.0137630558e-01	 1.6285995164e+00	-4.9204791517e-01
 0.0000000000e+00	 1.6500000000e+00	-4.4366858846e-01
 2.9273032779e-02	 1.6497403097e+00	-4.5243457014e-01
 5.8747987468e-02	 1.6489538120e+00	-4.6411130614e-01
 8.8412689028e-02	 1.6476295689e+00	-4.7691782204e-01
 1.1825439958e-01	 1.6457569374e+00	-4.8927219724e-01
 1.4825982255e-01	 1.6433255992e+00	-4.9980979460e-01
 1.7841510858e-01	 1.6403255924e+00	-5.0740044235e-01
 2.0870586329e-01	 1.6367473423e+00	-5.1116433959e-01
 2.3911715691e-01	 1.6325816933e+00	-5.1048645587e-01
 2.6963353590e-01	 1.6278199398e+00	-5.0502919655e-01
 3.0023903650e-01	 1.6224538579e+00	-4.9474311044e-01
 0.0000000000e+00	 1.6437500000e+00	-4.4839694133e-01
 2.9162150079e-02	 1.6434912934e+00	-4.5687288583e-01
 5.8525457212e-02	 1.6427077748e+00	-4.6842637624e-01
 8.8077792478e-02	 1.6413885478e+00	-4.8124423963e-01
 1.1780646625e-01	 1.6395230096e+00	-4.9370790974e-01
 1.4769823231e-01	 1.6371008810e+00	-5.0441156675e-01
 1.7773929377e-01	 1.6341122379e+00	-5.1217925704e-01
 2.0791531077e-01	 1.6305475418e+00	-5.1608076730e-01
 2.3821141010e-01	 1.6263976717e+00	-5.1544602582e-01
 2.6861219675e-01	 1.6216539551e+00	-5.0987780522e-01
 2.9910176742e-01	 1.6163081993e+00	-4.9926250536e-01
 0.0000000000e+00	 1.6375000000e+00	-4.5325280406e-01
 2.9051267378e-02	 1.6372422771e+00	-4.6165977964e-01
 5.8302926956e-02	 1.6364617376e+00	-4.7330109980e-01
 8.7742895928e-02	 1.6351475267e+00	-4.8633094417e-01
 1.1735853291e-01	 1.6332890818e+00	-4.9909368498e-01
 1.4713664207e-01	 1.6308761629e+00	-5.1014193978e-01
 1.7706347897e-01	 1.6278988834e+00	-5.1825363211e-01
 2.0712475826e-01	 1.6243477413e+00	-5.2244783693e-01
 2.3730566329e-01	 1.6202136502e+00	-5.2199918619e-01
 2.6759085759e-01	 1.6154879705e+00	-5.1645061140e-01
 2.9796449834e-01	 1.6101625408e+00	-5.0562420408e-01
 0.0000000000e+00	 1.6312500000e+00	-4.5823156676e-01
 2.8940384678e-02	 1.6309932608e+00	-4.6679286045e-01
 5.8080396699e-02	 1.6302157005e+00	-4.7873533052e-01
 8.7407999377e-02	 1.6289065056e+00	-4.9218005709e-01
 1.1691059958e-01	 1.6270551540e+00	-5.0543393146e-01
 1.4657505183e-01	 1.6246514447e+00	-5.1700762497e-01
 1.7638766416e-01	 1.6216855288e+00	-5.2563259334e-01
 2.0633420574e-01	 1.6181479407e+00	-5.3027689621e-01
 2.3639991649e-01	 1.6140296286e+00	-5.3015960971e-01
 2.6656951844e-01	 1.6093219859e+00	-5.2476361120e-01
 2.9682722926e-01	 1.6040168822e+00	-5.1384651943e-01
 0.0000000000e+00	 1.6250000000e+00	-4.6332854860e-01
 2.8829501977e-02	 1.6247442444e+00	-4.7226969674e-01
 5.7857866443e-02	 1.6239696633e+00	-4.8472891193e-01
 8.7073102826e-02	 1.6226654846e+00	-4.9879371940e-01
 1.1646266625e-01	 1.6208212262e+00	-5.1273310667e-01
 1.4601346159e-01	 1.6184267265e+00	-5.2501541142e-01
 1.7571184935e-01	 1.6154721743e+00	-5.3432527261e-01
 2.0554365323e-01	 1.6119481402e+00	-5.3957942672e-01
 2.3549416968e-01	 1.6078456070e+00	-5.3994113001e-01
 2.6554817929e-01	 1.6031560013e+00	-5.3483298786e-01
 2.9568996018e-01	 1.5978712237e+00	-5.2394797691e-01
 3.0706265096e-01	 1.6593278092e+00	-5.0531540846e-01
 3.3843806406e-01	 1.6532138141e+00	-6.3891584718e-01
 3.6987050887e-01	 1.6464665239e+00	-7.5637333518e-01
 4.0134219854e-01	 1.6390791943e+00	-8.5748516244e-01
 4.3283490080e-01	 1.6310456980e+00	-9.4238040267e-01
 4.6432996223e-01	 1.6223605535e+00	-1.0115220864e+00
 4.9580833471e-01	 1.6130189542e+00	-1.0657062941e+00
 5.2725060387e-01	 1.6030167953e+00	-1.1060580448e+00
 5.5863701948e-01	 1.5923506996e+00	-1.1340238890e+00
 5.8994752785e-01	 1.5810180421e+00	-1.1513611467e+00
 6.2116180604e-01	 1.5690169727e+00	-1.1601237712e+00
 3.0592538188e-01	 1.6531821506e+00	-4.9915413390e-01
 3.3718458975e-01	 1.6470907999e+00	-6.3561316889e-01
 3.6850061810e-01	 1.6403684997e+00	-7.5585902412e-01
 3.9985574596e-01	 1.6330085307e+00	-8.5972256254e-01
 4.3123180857e-01	 1.6250047880e+00	-9.4736500061e-01
 4.6261022162e-01	 1.6163518107e+00	-1.0192800076e+00
 4.9397200754e-01	 1.6070448099e+00	-1.0762927454e+00
 5.2529782385e-01	 1.5970796960e+00	-1.1195557262e+00
 5.5656799348e-01	 1.5864531044e+00	-1.1505413955e+00
 5.8776253700e-01	 1.5751624197e+00	-1.1710313859e+00
 6.1886120676e-01	 1.5632057988e+00	-1.1831024179e+00
 3.0478811281e-01	 1.6470364921e+00	-4.9472953408e-01
 3.3593111544e-01	 1.6409677858e+00	-6.3378277471e-01
 3.6713072732e-01	 1.6342704756e+00	-7.5653912868e-01
 3.9836929337e-01	 1.6269378670e+00	-8.6286365266e-01
 4.2962871635e-01	 1.6189638780e+00	-9.5295039888e-01
 4.6089048102e-01	 1.6103430679e+00	-1.0273244398e+00
 4.9213568038e-01	 1.6010706656e+00	-1.0868408532e+00
 5.2334504384e-01	 1.5911425968e+00	-1.1326805468e+00
 5.5449896748e-01	 1.5805555092e+00	-1.1663428301e+00
 5.8557754616e-01	 1.5693067974e+00	-1.1896346787e+00
 6.1656060747e-01	 1.5573946248e+00	-1.2046566714e+00
 3.0365084373e-01	 1.6408908335e+00	-4.9205872689e-01
 3.3467764113e-01	 1.6348447717e+00	-6.3343994262e-01
 3.6576083655e-01	 1.6281724514e+00	-7.5842706475e-01
 3.9688284078e-01	 1.6208672033e+00	-8.6691996575e-01
 4.2802562412e-01	 1.6129229680e+00	-9.5914622799e-01
 4.5917074042e-01	 1.6043343251e+00	-1.0356630929e+00
 4.9029935321e-01	 1.5950965214e+00	-1.0973563901e+00
 5.2139226382e-01	 1.5852054976e+00	-1.1454363266e+00
 5.5242994148e-01	 1.5746579141e+00	-1.1814300453e+00
 5.8339255531e-01	 1.5634511750e+00	-1.2071708981e+00
 6.1426000819e-01	 1.5515834508e+00	-1.2247844131e+00
 3.0251357465e-01	 1.6347451750e+00	-4.9115902015e-01
 3.3342416682e-01	 1.6287217575e+00	-6.3460010235e-01
 3.6439094578e-01	 1.6220744272e+00	-7.6153636078e-01
 3.9539638820e-01	 1.6147965396e+00	-8.7190310725e-01
 4.2642253190e-01	 1.6068820580e+00	-9.6596215006e-01
 4.5745099982e-01	 1.5983255823e+00	-1.0443036668e+00
 4.8846302605e-01	 1.5891223771e+00	-1.1078450760e+00
 5.1943948381e-01	 1.5792683983e+00	-1.1578267896e+00
 5.5036091548e-01	 1.5687603189e+00	-1.1958047549e+00
 5.8120756447e-01	 1.5575955526e+00	-1.2236397334e+00
 6.1195940891e-01	 1.5457722768e+00	-1.2434832962e+00
 3.0137630558e-01	 1.6285995164e+00	-4.9204791517e-01
 3.3217069251e-01	 1.6225987434e+00	-6.3727883816e-01
 3.6302105500e-01	 1.6159764031e+00	-7.6588065989e-01
 3.9390993561e-01	 1.6087258759e+00	-8.7782475648e-01
 4.2481943967e-01	 1.6008411480e+00	-9.7340785945e-01
 4.5573125922e-01	 1.5923168395e+00	-1.0532538511e+00
 4.8662669888e-01	 1.5831482328e+00	-1.1183125778e+00
 5.1748670379e-01	 1.5733312991e+00	-1.1698555628e+00
 5.4829188948e-01	 1.5628627237e+00	-1.2094685304e+00
 5.7902257362e-01	 1.5517399302e+00	-1.2390406873e+00
 6.0965880963e-01	 1.5399611029e+00	-1.2607507418e+00
 3.0023903650e-01	 1.6224538579e+00	-4.9474311044e-01
 3.3091721820e-01	 1.6164757293e+00	-6.4149189187e-01
 3.6165116423e-01	 1.6098783789e+00	-7.7147372210e-01
 3.9242348302e-01	 1.6026552123e+00	-8.8469666808e-01
 4.2321634745e-01	 1.5948002380e+00	-9.8149308330e-01
 4.5401151862e-01	 1.5863080967e+00	-1.0625213250e+00
 4.8479037171e-01	 1.5771740885e+00	-1.1287645075e+00
 5.1553392378e-01	 1.5673941998e+00	-1.1815261737e+00
 5.4622286349e-01	 1.5569651285e+00	-1.2224227990e+00
 5.7683758278e-01	 1.5458843079e+00	-1.2533730718e+00
 6.0735821034e-01	 1.5341499289e+00	-1.2765839339e+00
 2.9910176742e-01	 1.6163081993e+00	-4.9926250536e-01
 3.2966374389e-01	 1.6103527152e+00	-6.4725516577e-01
 3.6028127346e-01	 1.6037803548e+00	-7.7832942648e-01
 3.9093703043e-01	 1.5965845486e+00	-8.9253067336e-01
 4.2161325522e-01	 1.5887593280e+00	-9.9022758226e-01
 4.5229177802e-01	 1.5802993539e+00	-1.0721137571e+00
 4.8295404455e-01	 1.5711999443e+00	-1.1392064218e+00
 5.1358114376e-01	 1.5614571006e+00	-1.1928420489e+00
 5.4415383749e-01	 1.5510675333e+00	-1.2346688404e+00
 5.7465259194e-01	 1.5400286855e+00	-1.2666360049e+00
 6.0505761106e-01	 1.5283387549e+00	-1.2909798153e+00
 2.9796449834e-01	 1.6101625408e+00	-5.0562420408e-01
 3.2841026957e-01	 1.6042297011e+00	-6.5458472573e-01
 3.5891138268e-01	 1.5976823306e+00	-7.8646177348e-01
 3.8945057784e-01	 1.5905138849e+00	-9.0133868185e-01
 4.2001016299e-01	 1.5827184180e+00	-9.9962115101e-01
 4.5057203742e-01	 1.5742906111e+00	-1.0820388050e+00
 4.8111771738e-01	 1.5652258000e+00	-1.1496438207e+00
 5.1162836375e-01	 1.5555200014e+00	-1.2038065120e+00
 5.4208481149e-01	 1.5451699381e+00	-1.2462077845e+00
 5.7246760110e-01	 1.5341730631e+00	-1.2788284069e+00
 6.0275701178e-01	 1.5225275809e+00	-1.3039350829e+00
 2.9682722926e-01	 1.6040168822e+00	-5.1384651943e-01
 3.2715679526e-01	 1.5981066869e+00	-6.6349680431e-01
 3.5754149191e-01	 1.5915843064e+00	-7.9588488722e-01
 3.8796412526e-01	 1.5844432212e+00	-9.1113268272e-01
 4.1840707077e-01	 1.5766775080e+00	-1.0096836190e+00
 4.4885229682e-01	 1.5682818683e+00	-1.0923041154e+00
 4.7928139022e-01	 1.5592516557e+00	-1.1600821467e+00
 5.0967558374e-01	 1.5495829021e+00	-1.2144227814e+00
 5.4001578549e-01	 1.5392723430e+00	-1.2570406078e+00
 5.7028261025e-01	 1.5283174407e+00	-1.2899489966e+00
 6.0045641250e-01	 1.5167164070e+00	-1.3154461829e+00
 2.9568996018e-01	 1.5978712237e+00	-5.2394797691e-01
 3.2590332095e-01	 1.5919836728e+00	-6.7400780398e-01
 3.5617160113e-01	 1.5854862823e+00	-8.0661301789e-01
 3.8647767267e-01	 1.5783725575e+00	-9.2192474638e-01
 4.1680397854e-01	 1.5706365980e+00	-1.0204248511e+00
 4.4713255621e-01	 1.5622731256e+00	-1.1029173235e+00
 4.7744506305e-01	 1.5532775114e+00	-1.1705267833e+00
 5.0772280372e-01	 1.5436458029e+00	-1.2246939687e+00
 5.3794675950e-01	 1.5333747478e+00	-1.2671681312e+00
 5.6809761941e-01	 1.5224618183e+00	-1.2999962871e+00
 5.9815581323e-01	 1.5109052330e+00	-1.3255093060e+00
 6.2116180604e-01	 1.5690169727e+00	-1.1601237712e+00
 6.5225848033e-01	 1.5563467655e+00	-1.1515580329e+00
 6.8321756815e-01	 1.5430068817e+00	-1.1934613675e+00
 7.1401816103e-01	 1.5289979146e+00	-1.2532512712e+00
 7.4463923477e-01	 1.5143213046e+00	-1.3329465531e+00
 7.7505969136e-01	 1.4989793513e+00	-1.4345128184e+00
 8.0525840199e-01	 1.4829752237e+00	-1.5598430937e+00
 8.3521425107e-01	 1.4663129679e+00	-1.7107382374e+00
 8.6490618104e-01	 1.4489975118e+00	-1.8888873206e+00
 8.9431323773e-01	 1.4310346674e+00	-2.0958481758e+00
 9.2341461629e-01	 1.4124311298e+00	-2.3330283147e+00
 6.1886120676e-01	 1.5632057988e+00	-1.1831024179e+00
 6.4984270818e-01	 1.5505825182e+00	-1.1558020027e+00
 6.8068713271e-01	 1.5372920414e+00	-1.2003348849e+00
 7.1137364932e-01	 1.5233349594e+00	-1.2627758155e+00
 7.4188131168e-01	 1.5087127072e+00	-1.3450392439e+00
 7.7218909991e-01	 1.4934275759e+00	-1.4489847122e+00
 8.0227596346e-01	 1.4774827229e+00	-1.5763979920e+00
 8.3212086496e-01	 1.4608821791e+00	-1.7289720261e+00
 8.6170282481e-01	 1.4436308544e+00	-1.9082878585e+00
 8.9100096648e-01	 1.4257345390e+00	-2.1157957442e+00
 9.1999456215e-01	 1.4071999034e+00	-2.3527966372e+00
 6.1656060747e-01	 1.5573946248e+00	-1.2046566714e+00
 6.4742693603e-01	 1.5448182710e+00	-1.1584051167e+00
 6.7815669727e-01	 1.5315772011e+00	-1.2057207358e+00
 7.0872913761e-01	 1.5176720042e+00	-1.2709680670e+00
 7.3912338859e-01	 1.5031041098e+00	-1.3559571783e+00
 7.6931850846e-01	 1.4878758005e+00	-1.4624415215e+00
 7.9929352494e-01	 1.4719902220e+00	-1.5920995794e+00
 8.2902747884e-01	 1.4554513904e+00	-1.7465163385e+00
 8.5849946858e-01	 1.4382641969e+00	-1.9271647662e+00
 8.8768869523e-01	 1.4204344106e+00	-2.1353874817e+00
 9.1657450801e-01	 1.4019686770e+00	-2.3723788124e+00
 6.1426000819e-01	 1.5515834508e+00	-1.2247844131e+00
 6.4501116388e-01	 1.5390540237e+00	-1.1593619256e+00
 6.7562626183e-01	 1.5258623608e+00	-1.2096163355e+00
 7.0608462590e-01	 1.5120090489e+00	-1.2778283179e+00
 7.3636546549e-01	 1.4974955123e+00	-1.3657035315e+00
 7.6644791701e-01	 1.4823240251e+00	-1.4748893045e+00
 7.9631108641e-01	 1.4664977212e+00	-1.6069567910e+00
 8.2593409272e-01	 1.4500206016e+00	-1.7633829739e+00
 8.5529611235e-01	 1.4328975395e+00	-1.9455326885e+00
 8.8437642398e-01	 1.4151342822e+00	-2.1546408530e+00
 9.1315445388e-01	 1.3967374506e+00	-2.3917950934e+00
 6.1195940891e-01	 1.5457722768e+00	-1.2434832962e+00
 6.4259539173e-01	 1.5332897764e+00	-1.1586667879e+00
 6.7309582640e-01	 1.5201475205e+00	-1.2120189437e+00
 7.0344011420e-01	 1.5063460937e+00	-1.2833567416e+00
 7.3360754240e-01	 1.4918869149e+00	-1.3742813969e+00
 7.6357732556e-01	 1.4767722498e+00	-1.4863340747e+00
 7.9332864788e-01	 1.4610052204e+00	-1.6209785543e+00
 8.2284070661e-01	 1.4445898128e+00	-1.7795837611e+00
 8.5209275612e-01	 1.4275308820e+00	-1.9634063364e+00
 8.8106415272e-01	 1.4098341538e+00	-2.1735734259e+00
 9.0973439974e-01	 1.3915062242e+00	-2.4110658728e+00
 6.0965880963e-01	 1.5399611029e+00	-1.2607507418e+00
 6.4017961958e-01	 1.5275255291e+00	-1.1563138670e+00
 6.7056539096e-01	 1.5144326802e+00	-1.2129256622e+00
 7.0079560249e-01	 1.5006831384e+00	-1.2875533908e+00
 7.3084961931e-01	 1.4862783175e+00	-1.3816937850e+00
 7.6070673411e-01	 1.4712204744e+00	-1.4967818004e+00
 7.9034620936e-01	 1.4555127195e+00	-1.6341737891e+00
 8.1974732049e-01	 1.4391590241e+00	-1.7951305591e+00
 8.4888939990e-01	 1.4221642246e+00	-1.9808004887e+00
 8.7775188147e-01	 1.4045340254e+00	-2.1922028736e+00
 9.0631434561e-01	 1.3862749978e+00	-2.4302116857e+00
 6.0735821034e-01	 1.5341499289e+00	-1.2765839339e+00
 6.3776384743e-01	 1.5217612818e+00	-1.1522971270e+00
 6.6803495552e-01	 1.5087178399e+00	-1.2123334313e+00
 6.9815109078e-01	 1.4950201832e+00	-1.2904181953e+00
 7.2809169622e-01	 1.4806697201e+00	-1.3879436214e+00
 7.5783614266e-01	 1.4656686990e+00	-1.5062384037e+00
 7.8736377083e-01	 1.4500202187e+00	-1.6465514078e+00
 8.1665393438e-01	 1.4337282353e+00	-1.8100352576e+00
 8.4568604367e-01	 1.4167975671e+00	-1.9977299935e+00
 8.7443961022e-01	 1.3992338970e+00	-2.2105469763e+00
 9.0289429147e-01	 1.3810437714e+00	-2.4492532122e+00
 6.0505761106e-01	 1.5283387549e+00	-1.2909798153e+00
 6.3534807528e-01	 1.5159970346e+00	-1.1466103288e+00
 6.6550452009e-01	 1.5030029996e+00	-1.2102390273e+00
 6.9550657908e-01	 1.4893572280e+00	-1.2919509596e+00
 7.2533377313e-01	 1.4750611226e+00	-1.3930337456e+00
 7.5496555121e-01	 1.4601169236e+00	-1.5147097595e+00
 7.8438133231e-01	 1.4445277179e+00	-1.6581203147e+00
 8.1356054826e-01	 1.4282974465e+00	-1.8243097776e+00
 8.4248268745e-01	 1.4114309097e+00	-2.0142097689e+00
 8.7112733897e-01	 1.3939337686e+00	-2.2286236234e+00
 8.9947423734e-01	 1.3758125450e+00	-2.4682112801e+00
 6.0275701178e-01	 1.5225275809e+00	-1.3039350829e+00
 6.3293230314e-01	 1.5102327873e+00	-1.1392470269e+00
 6.6297408465e-01	 1.4972881593e+00	-1.2066390587e+00
 6.9286206737e-01	 1.4836942727e+00	-1.2921513600e+00
 7.2257585004e-01	 1.4694525252e+00	-1.3969669092e+00
 7.5209495977e-01	 1.4545651483e+00	-1.5222016947e+00
 7.8139889378e-01	 1.4390352171e+00	-1.6688894060e+00
 8.1046716215e-01	 1.4228666578e+00	-1.8379660720e+00
 8.3927933122e-01	 1.4060642522e+00	-2.0302548050e+00
 8.6781506772e-01	 1.3886336402e+00	-2.2464508157e+00
 8.9605418321e-01	 1.3705813186e+00	-2.4871068680e+00
 6.0045641250e-01	 1.5167164070e+00	-1.3154461829e+00
 6.3051653099e-01	 1.5044685400e+00	-1.1302005647e+00
 6.6044364922e-01	 1.4915733190e+00	-1.2015299638e+00
 6.9021755567e-01	 1.4780313175e+00	-1.2910189431e+00
 7.1981792695e-01	 1.4638439278e+00	-1.3997457739e+00
 7.4922436832e-01	 1.4490133729e+00	-1.5287199873e+00
 7.7841645526e-01	 1.4335427162e+00	-1.6788675699e+00
 8.0737377604e-01	 1.4174358690e+00	-1.8510161262e+00
 8.3607597500e-01	 1.4006975948e+00	-2.0458801646e+00
 8.6450279647e-01	 1.3833335118e+00	-2.2640466674e+00
 8.9263412907e-01	 1.3653500921e+00	-2.5059611079e+00
 5.9815581323e-01	 1.5109052330e+00	-1.3255093060e+00
 6.2810075884e-01	 1.4987042927e+00	-1.1194640709e+00
 6.5791321378e-01	 1.4858584787e+00	-1.1949080068e+00
 6.8757304396e-01	 1.4723683622e+00	-1.2885531225e+00
 7.1706000386e-01	 1.4582353304e+00	-1.4013729103e+00
 7.4635377687e-01	 1.4434615975e+00	-1.5342703656e+00
 7.7543401674e-01	 1.4280502154e+00	-1.6880636861e+00
 8.0428038993e-01	 1.4120050802e+00	-1.8634719586e+00
 8.3287261878e-01	 1.3953309373e+00	-2.0611009855e+00
 8.6119052523e-01	 1.3780333834e+00	-2.2814294083e+00
 8.8921407494e-01	 1.3601188657e+00	-2.5247952884e+00
 9.2341461629e-01	 1.4124311298e+00	-2.3330283147e+00
 9.5219042579e-01	 1.3931939991e+00	-2.3322440313e+00
 9.8061954191e-01	 1.3733322131e+00	-2.2817629431e+00
 1.0086818826e+00	 1.3528550859e+00	-2.1831870052e+00
 1.0363576989e+00	 1.3317727838e+00	-2.0382088383e+00
 1.0636276192e+00	 1.3100963111e+00	-1.8485968286e+00
 1.0904726941e+00	 1.2878374915e+00	-1.6161801313e+00
 1.1168744392e+00	 1.2650089483e+00	-1.3428337372e+00
 1.1428148766e+00	 1.2416240808e+00	-1.2796467175e+00
 1.1682765760e+00	 1.2176970386e+00	-1.5917177085e+00
 1.1932426933e+00	 1.1932426933e+00	-1.8118877379e+00
 9.1999456215e-01	 1.4071999034e+00	-2.3527966372e+00
 9.4866379458e-01	 1.3880340214e+00	-2.3480168485e+00
 9.7698761768e-01	 1.3682457975e+00	-2.2908634193e+00
 1.0049460238e+00	 1.3478445115e+00	-2.1829137827e+00
 1.0325193370e+00	 1.3268402920e+00	-2.0258458930e+00
 1.0596882576e+00	 1.3052441025e+00	-1.8214235953e+00
 1.0864339064e+00	 1.2830677230e+00	-1.5714818442e+00
 1.1127378672e+00	 1.2603237300e+00	-1.2779119283e+00
 1.1385822289e+00	 1.2370254731e+00	-1.3335427823e+00
 1.1639496258e+00	 1.2131870496e+00	-1.6198818838e+00
 1.1888232759e+00	 1.1888232759e+00	-1.8129940387e+00
 9.1657450801e-01	 1.4019686770e+00	-2.3723788124e+00
 9.4513716337e-01	 1.3828740436e+00	-2.3635366430e+00
 9.7335569345e-01	 1.3631593819e+00	-2.2996321016e+00
 1.0012101650e+00	 1.3428339371e+00	-2.1822184026e+00
 1.0286809752e+00	 1.3219078003e+00	-2.0129591605e+00
 1.0557488961e+00	 1.3003918940e+00	-1.7936140281e+00
 1.0823951186e+00	 1.2782979546e+00	-1.5260241281e+00
 1.1086012952e+00	 1.2556385117e+00	-1.2120974336e+00
 1.1343495812e+00	 1.2324268654e+00	-1.3898333628e+00
 1.1596226755e+00	 1.2086770606e+00	-1.6502648056e+00
 1.1844038585e+00	 1.1844038585e+00	-1.8161195520e+00
 9.1315445388e-01	 1.3967374506e+00	-2.3917950934e+00
 9.4161053216e-01	 1.3777140658e+00	-2.3788237398e+00
 9.6972376921e-01	 1.3580729663e+00	-2.3080891899e+00
 9.9747430617e-01	 1.3378233627e+00	-2.1811207405e+00
 1.0248426133e+00	 1.3169753085e+00	-1.9995679922e+00
 1.0518095345e+00	 1.2955396854e+00	-1.7651867533e+00
 1.0783563309e+00	 1.2735281861e+00	-1.4798246836e+00
 1.1044647232e+00	 1.2509532934e+00	-1.1454068281e+00
 1.1301169335e+00	 1.2278282577e+00	-1.4484971308e+00
 1.1552957252e+00	 1.2041670715e+00	-1.6828436986e+00
 1.1799844411e+00	 1.1799844411e+00	-1.8212399394e+00
 9.0973439974e-01	 1.3915062242e+00	-2.4110658728e+00
 9.3808390095e-01	 1.3725540881e+00	-2.3938985994e+00
 9.6609184498e-01	 1.3529865507e+00	-2.3162550124e+00
 9.9373844734e-01	 1.3328127883e+00	-2.1796407911e+00
 1.0210042515e+00	 1.3120428167e+00	-1.9856918462e+00
 1.0478701730e+00	 1.2906874769e+00	-1.7361604894e+00
 1.0743175431e+00	 1.2687584176e+00	-1.4329012862e+00
 1.1003281512e+00	 1.2462680750e+00	-1.2003196620e+00
 1.1258842858e+00	 1.2232296500e+00	-1.5095127899e+00
 1.1509687749e+00	 1.1996570825e+00	-1.7175957941e+00
 1.1755650237e+00	 1.1755650237e+00	-1.8283308411e+00
 9.0631434561e-01	 1.3862749978e+00	-2.4302116857e+00
 9.3455726974e-01	 1.3673941103e+00	-2.4087818205e+00
 9.6245992075e-01	 1.3479001351e+00	-2.3241500290e+00
 9.9000258852e-01	 1.3278022139e+00	-2.1777986706e+00
 1.0171658896e+00	 1.3071103249e+00	-1.9713502899e+00
 1.0439308114e+00	 1.2858352683e+00	-1.7065540489e+00
 1.0702787553e+00	 1.2639886491e+00	-1.3852717874e+00
 1.0961915792e+00	 1.2415828567e+00	-1.2886599633e+00
 1.1216516381e+00	 1.2186310423e+00	-1.5728590761e+00
 1.1466418246e+00	 1.1951470935e+00	-1.7544983300e+00
 1.1711456063e+00	 1.1711456063e+00	-1.8373678753e+00
 9.0289429147e-01	 1.3810437714e+00	-2.4492532122e+00
 9.3103063854e-01	 1.3622341325e+00	-2.4234941427e+00
 9.5882799652e-01	 1.3428137195e+00	-2.3317948330e+00
 9.8626672969e-01	 1.3227916395e+00	-2.1756146191e+00
 1.0133275278e+00	 1.3021778331e+00	-1.9565630019e+00
 1.0399914499e+00	 1.2809830597e+00	-1.6763863401e+00
 1.0662399676e+00	 1.2592188806e+00	-1.3369541164e+00
 1.0920550072e+00	 1.2368976384e+00	-1.3794665178e+00
 1.1174189904e+00	 1.2140324346e+00	-1.6385147586e+00
 1.1423148744e+00	 1.1906371044e+00	-1.7935285511e+00
 1.1667261890e+00	 1.1667261890e+00	-1.8483266385e+00
 8.9947423734e-01	 1.3758125450e+00	-2.4682112801e+00
 9.2750400733e-01	 1.3570741547e+00	-2.4380564490e+00
 9.5519607229e-01	 1.3377273039e+00	-2.3392101542e+00
 9.8253087087e-01	 1.3177810651e+00	-2.1731090032e+00
 1.0094891659e+00	 1.2972453413e+00	-1.9413497742e+00
 1.0360520883e+00	 1.2761308512e+00	-1.6456763687e+00
 1.0622011798e+00	 1.2544491121e+00	-1.2879662813e+00
 1.0879184352e+00	 1.2322124201e+00	-1.4727195508e+00
 1.1131863428e+00	 1.2094338269e+00	-1.7064586401e+00
 1.1379879241e+00	 1.1861271154e+00	-1.8346637088e+00
 1.1623067716e+00	 1.1623067716e+00	-1.8611827042e+00
 8.9605418321e-01	 1.3705813186e+00	-2.4871068680e+00
 9.2397737612e-01	 1.3519141770e+00	-2.4524897684e+00
 9.5156414806e-01	 1.3326408883e+00	-2.3464168610e+00
 9.7879501204e-01	 1.3127704908e+00	-2.1703023177e+00
 1.0056508041e+00	 1.2923128495e+00	-1.9257305142e+00
 1.0321127268e+00	 1.2712786426e+00	-1.6144432401e+00
 1.0581623921e+00	 1.2496793436e+00	-1.2498036290e+00
 1.0837818632e+00	 1.2275272017e+00	-1.5683993468e+00
 1.1089536951e+00	 1.2048352192e+00	-1.7766695577e+00
 1.1336609738e+00	 1.1816171264e+00	-1.8778810617e+00
 1.1578873542e+00	 1.1578873542e+00	-1.8759116233e+00
 8.9263412907e-01	 1.3653500921e+00	-2.5059611079e+00
 9.2045074492e-01	 1.3467541992e+00	-2.4668152793e+00
 9.4793222384e-01	 1.3275544727e+00	-2.3534359635e+00
 9.7505915322e-01	 1.3077599164e+00	-2.1672151887e+00
 1.0018124422e+00	 1.2873803577e+00	-1.9097252470e+00
 1.0281733652e+00	 1.2664264341e+00	-1.5827061610e+00
 1.0541236043e+00	 1.2449095752e+00	-1.3719431480e+00
 1.0796452912e+00	 1.2228419834e+00	-1.6664862500e+00
 1.1047210474e+00	 1.2002366115e+00	-1.8491263834e+00
 1.1293340235e+00	 1.1771071373e+00	-1.9231578755e+00
 1.1534679368e+00	 1.1534679368e+00	-1.8924889230e+00
 8.8921407494e-01	 1.3601188657e+00	-2.5247952884e+00
 9.1692411371e-01	 1.3415942214e+00	-2.4810543115e+00
 9.4430029961e-01	 1.3224680571e+00	-2.3602886161e+00
 9.7132329439e-01	 1.3027493420e+00	-2.1638683758e+00
 9.9797408038e-01	 1.2824478659e+00	-1.8933541176e+00
 1.0242340036e+00	 1.2615742255e+00	-1.5504844414e+00
 1.0500848166e+00	 1.2401398067e+00	-1.4966069665e+00
 1.0755087192e+00	 1.2181567651e+00	-1.7669606660e+00
 1.1004883997e+00	 1.1956380038e+00	-1.9238080249e+00
 1.1250070732e+00	 1.1725971483e+00	-1.9704714233e+00
 1.1490485194e+00	 1.1490485194e+00	-1.9108901067e+00
 1.1932426933e+00	 1.1932426933e+00	-1.8118877379e+00
 1.2176970262e+00	 1.1682765950e+00	-2.0568163826e+00
 1.2416240312e+00	 1.1428149523e+00	-2.2898928337e+00
 1.2650088371e+00	 1.1168746090e+00	-2.2370146767e+00
 1.2878372943e+00	 1.0904729952e+00	-1.9982418145e+00
 1.3100960040e+00	 1.0636280883e+00	-1.7263833667e+00
 1.3317723433e+00	 1.0363583722e+00	-1.4265831730e+00
 1.3528544884e+00	 1.0086827961e+00	-1.1038172892e+00
 1.3733314358e+00	 9.8062073061e-01	-7.6287959133e-01
 1.3931930193e+00	 9.5219192440e-01	-4.0837033525e-01
 1.4124299252e+00	 9.2341645881e-01	-4.4687642585e-02
 1.1888232759e+00	 1.1888232759e+00	-1.8129940387e+00
 1.2131870372e+00	 1.1639496447e+00	-2.0300937766e+00
 1.2370254237e+00	 1.1385823043e+00	-2.2382410655e+00
 1.2603236191e+00	 1.1127380363e+00	-2.2502496151e+00
 1.2830675266e+00	 1.0864342063e+00	-1.9977313708e+00
 1.3052437966e+00	 1.0596887250e+00	-1.7146557030e+00
 1.3268398531e+00	 1.0325200079e+00	-1.4061243072e+00
 1.3478439163e+00	 1.0049469339e+00	-1.0770664579e+00
 1.3682450231e+00	 9.7698880198e-01	-7.3222479658e-01
 1.3880330452e+00	 9.4866528764e-01	-3.7614407375e-01
 1.4071987033e+00	 9.1999639785e-01	-1.3162816640e-02
 1.1844038585e+00	 1.1844038585e+00	-1.8161195520e+00
 1.2086770482e+00	 1.1596226943e+00	-2.0053286868e+00
 1.2324268162e+00	 1.1343496563e+00	-2.1884940394e+00
 1.2556384012e+00	 1.1086014637e+00	-2.2655807117e+00
 1.2782977588e+00	 1.0823954175e+00	-1.9993091523e+00
 1.3003915892e+00	 1.0557493617e+00	-1.7050318690e+00
 1.3219073630e+00	 1.0286816436e+00	-1.3878082930e+00
 1.3428333441e+00	 1.0012110717e+00	-1.0525207004e+00
 1.3631586104e+00	 9.7335687334e-01	-7.0386018526e-01
 1.3828730710e+00	 9.4513865088e-01	-3.4631558740e-01
 1.4019674813e+00	 9.1657633689e-01	 1.5834655182e-02
 1.1799844411e+00	 1.1799844411e+00	-1.8212399394e+00
 1.2041670592e+00	 1.1552957439e+00	-1.9824969048e+00
 1.2278282087e+00	 1.1301170083e+00	-2.1406279157e+00
 1.2509531833e+00	 1.1044648911e+00	-2.2830432740e+00
 1.2735279911e+00	 1.0783566286e+00	-2.0030107008e+00
 1.2955393818e+00	 1.0518099984e+00	-1.6975477510e+00
 1.3169748728e+00	 1.0248432792e+00	-1.3716714703e+00
 1.3378227719e+00	 9.9747520944e-01	-1.0302169180e+00
 1.3580721977e+00	 9.6972494471e-01	-6.7782332711e-01
 1.3777130969e+00	 9.4161201412e-01	-3.1892322002e-01
 1.3967362594e+00	 9.1315627593e-01	 4.2265550789e-02
 1.1755650237e+00	 1.1755650237e+00	-1.8283308411e+00
 1.1996570702e+00	 1.1509687936e+00	-1.9615741979e+00
 1.2232296011e+00	 1.1258843604e+00	-2.0946188302e+00
 1.2462679654e+00	 1.1003283185e+00	-2.2326743204e+00
 1.2687582233e+00	 1.0743178397e+00	-2.0088715419e+00
 1.2906871744e+00	 1.0478706351e+00	-1.6922392270e+00
 1.3120423826e+00	 1.0210049149e+00	-1.3577501818e+00
 1.3328121997e+00	 9.9373934724e-01	-1.0101920291e+00
 1.3529857850e+00	 9.6609301608e-01	-6.5415182563e-01
 1.3725531228e+00	 9.3808537736e-01	-2.9400536857e-01
 1.3915050374e+00	 9.0973621497e-01	 6.6090572853e-02
 1.1711456063e+00	 1.1711456063e+00	-1.8373678753e+00
 1.1951470813e+00	 1.1466418432e+00	-1.9425363084e+00
 1.2186309936e+00	 1.1216517124e+00	-2.0504428934e+00
 1.2415827475e+00	 1.0961917458e+00	-2.1662571583e+00
 1.2639884556e+00	 1.0702790509e+00	-2.0169271839e+00
 1.2858349669e+00	 1.0439312718e+00	-1.6891421669e+00
 1.3071098925e+00	 1.0171665505e+00	-1.3460807733e+00
 1.3278016276e+00	 9.9000348503e-01	-9.9248296916e-01
 1.3478993722e+00	 9.6246108744e-01	-6.3288331866e-01
 1.3673931486e+00	 9.3455874061e-01	-2.7160048419e-01
 1.3862738155e+00	 9.0631615401e-01	 8.7270347391e-02
 1.1667261890e+00	 1.1667261890e+00	-1.8483266385e+00
 1.1906370923e+00	 1.1423148929e+00	-1.9253589533e+00
 1.2140323861e+00	 1.1174190644e+00	-2.0080761902e+00
 1.2368975296e+00	 1.0920551732e+00	-2.1016082644e+00
 1.2592186878e+00	 1.0662402620e+00	-2.0272131185e+00
 1.2809827595e+00	 1.0399919085e+00	-1.6882924322e+00
 1.3021774023e+00	 1.0133281862e+00	-1.3366995941e+00
 1.3227910554e+00	 9.8626762282e-01	-9.7712669161e-01
 1.3428129595e+00	 9.5882915881e-01	-6.1405547904e-01
 1.3622331745e+00	 9.3103210385e-01	-2.5174707320e-01
 1.3810425935e+00	 9.0289609305e-01	 1.0576542231e-01
 1.1623067716e+00	 1.1623067716e+00	-1.8611827042e+00
 1.1861271033e+00	 1.1379879425e+00	-1.9100178239e+00
 1.2094337786e+00	 1.1131864165e+00	-1.9674947794e+00
 1.2322123117e+00	 1.0879186006e+00	-2.0387043134e+00
 1.2544489201e+00	 1.0622014731e+00	-2.0397648195e+00
 1.2761305521e+00	 1.0360525452e+00	-1.6897258755e+00
 1.2972449122e+00	 1.0094898218e+00	-1.3296429962e+00
 1.3177804832e+00	 9.8253176061e-01	-9.6416016769e-01
 1.3377265468e+00	 9.5519723018e-01	-5.9770601531e-01
 1.3570732003e+00	 9.2750546709e-01	-2.3448369813e-01
 1.3758113716e+00	 8.9947603210e-01	 1.2153626594e-01
 1.1578873542e+00	 1.1578873542e+00	-1.8759116233e+00
 1.1816171143e+00	 1.1336609922e+00	-1.8964885848e+00
 1.2048351710e+00	 1.1089537685e+00	-1.9286746933e+00
 1.2275270937e+00	 1.0837820280e+00	-1.9775219558e+00
 1.2496791523e+00	 1.0581626842e+00	-2.0481721290e+00
 1.2712783447e+00	 1.0321131820e+00	-1.6934783409e+00
 1.2923124220e+00	 1.0056514575e+00	-1.3249473353e+00
 1.3127699110e+00	 9.7879589840e-01	-9.5362038701e-01
 1.3326401341e+00	 9.5156530155e-01	-5.8387267237e-01
 1.3519132262e+00	 9.2397883034e-01	-2.1984897883e-01
 1.3705801496e+00	 8.9605597114e-01	 1.3454326547e-01
 1.1534679368e+00	 1.1534679368e+00	-1.8924889230e+00
 1.1771071253e+00	 1.1293340418e+00	-1.8847468742e+00
 1.2002365635e+00	 1.1047211205e+00	-1.8915919372e+00
 1.2228418758e+00	 1.0796454553e+00	-1.9180378184e+00
 1.2449093845e+00	 1.0541238954e+00	-1.9691752617e+00
 1.2664261373e+00	 1.0281738187e+00	-1.6995856635e+00
 1.2873799318e+00	 1.0018130932e+00	-1.3226489702e+00
 1.3077593388e+00	 9.7506003619e-01	-9.4554435788e-01
 1.3275537213e+00	 9.4793337291e-01	-5.7259323216e-01
 1.3467532520e+00	 9.2045219358e-01	-2.0788159355e-01
 1.3653489277e+00	 8.9263591018e-01	 1.4474672546e-01
 1.1490485194e+00	 1.1490485194e+00	-1.9108901067e+00
 1.1725971363e+00	 1.1250070915e+00	-1.8747683027e+00
 1.1956379560e+00	 1.1004884725e+00	-1.8562224886e+00
 1.2181566579e+00	 1.0755088827e+00	-1.8602285032e+00
 1.2401396168e+00	 1.0500851065e+00	-1.8918265005e+00
 1.2615739298e+00	 1.0242344554e+00	-1.7080836691e+00
 1.2824474417e+00	 9.9797472881e-01	-1.3227842631e+00
 1.3027487667e+00	 9.7132417399e-01	-9.3996910764e-01
 1.3224673086e+00	 9.4430144428e-01	-5.6390551442e-01
 1.3415932779e+00	 9.1692555682e-01	-1.9862028007e-01
 1.3601177057e+00	 8.8921584922e-01	 1.5210686620e-01
 1.4124299252e+00	 9.2341645881e-01	-4.4687642585e-02
 1.4310337043e+00	 8.9431470253e-01	 1.4163893957e-02
 1.4489967812e+00	 8.6490726562e-01	 9.4765243648e-02
 1.4663124604e+00	 8.3521495351e-01	 1.9493158274e-01
 1.4829749298e+00	 8.0525872086e-01	 3.1256852036e-01
 1.4989792615e+00	 7.7505962576e-01	 4.4566404186e-01
 1.5143214094e+00	 7.4463878431e-01	 5.9227911826e-01
 1.5289982042e+00	 7.1401732584e-01	 7.5053721436e-01
 1.5430073463e+00	 6.8321634885e-01	 9.1861293454e-01
 1.5563473954e+00	 6.5225687805e-01	 1.0947200492e+00
 1.5690177580e+00	 6.2115982238e-01	 1.2598773755e+00
 1.4071987033e+00	 9.1999639785e-01	-1.3162816640e-02
 1.4257335795e+00	 8.9100242585e-01	 3.9643402264e-02
 1.4436301264e+00	 8.6170390538e-01	 1.1530737188e-01
 1.4608816735e+00	 8.3212156479e-01	 2.1159449026e-01
 1.4774824301e+00	 8.0227628115e-01	 3.2635405750e-01
 1.4934274865e+00	 7.7218903455e-01	 4.5751175662e-01
 1.5087128116e+00	 7.4188086289e-01	 6.0306083460e-01
 1.5233352479e+00	 7.1137281722e-01	 7.6105220946e-01
 1.5372925042e+00	 6.8068591793e-01	 9.2958373683e-01
 1.5505831457e+00	 6.4984111183e-01	 1.1067888719e+00
 1.5632065812e+00	 6.1885923044e-01	 1.2639406604e+00
 1.4019674813e+00	 9.1657633689e-01	 1.5834655182e-02
 1.4204334546e+00	 8.8769014917e-01	 6.2694126054e-02
 1.4382634717e+00	 8.5850054513e-01	 1.3352240459e-01
 1.4554508866e+00	 8.2902817608e-01	 2.2603516224e-01
 1.4719899303e+00	 7.9929384144e-01	 3.3802546285e-01
 1.4878757115e+00	 7.6931844334e-01	 4.6735677894e-01
 1.5031042138e+00	 7.3912294146e-01	 6.1195474174e-01
 1.5176722916e+00	 7.0872830860e-01	 7.6979784486e-01
 1.5315776622e+00	 6.7815548701e-01	 9.3890732885e-01
 1.5448188961e+00	 6.4742534562e-01	 1.1173364762e+00
 1.5573954043e+00	 6.1655863851e-01	 1.2671572539e+00
 1.3967362594e+00	 9.1315627593e-01	 4.2265550789e-02
 1.4151333298e+00	 8.8437787249e-01	 8.3278666292e-02
 1.4328968170e+00	 8.5529718489e-01	 1.4937493293e-01
 1.4500200997e+00	 8.2593478736e-01	 2.3822034121e-01
 1.4664974306e+00	 7.9631140174e-01	 3.4755178516e-01
 1.4823239364e+00	 7.6644785214e-01	 4.7517061179e-01
 1.4974956159e+00	 7.3636502004e-01	 6.1893493770e-01
 1.5120093353e+00	 7.0608379999e-01	 7.7675094700e-01
 1.5258628202e+00	 6.7562505608e-01	 9.4656339103e-01
 1.5390546465e+00	 6.4500957940e-01	 1.1263455138e+00
 1.5515842274e+00	 6.1425804657e-01	 1.2695569910e+00
 1.3915050374e+00	 9.0973621497e-01	 6.6090572853e-02
 1.4098332050e+00	 8.8106559581e-01	 1.0135956619e-01
 1.4275301622e+00	 8.5209382465e-01	 1.6282950930e-01
 1.4445893128e+00	 8.2284139864e-01	 2.4811675139e-01
 1.4610049309e+00	 7.9332896203e-01	 3.5490207669e-01
 1.4767721614e+00	 7.6357726093e-01	 4.8092478481e-01
 1.4918870181e+00	 7.3360709861e-01	 6.2397557171e-01
 1.5063463789e+00	 7.0343929137e-01	 7.8188841921e-01
 1.5201479782e+00	 6.7309462516e-01	 9.5253170755e-01
 1.5332903969e+00	 6.4259381319e-01	 1.1337987685e+00
 1.5457730505e+00	 6.1195745464e-01	 1.2711698675e+00
 1.3862738155e+00	 9.0631615401e-01	 8.7270347391e-02
 1.4045330802e+00	 8.7775331914e-01	 1.1689931013e-01
 1.4221635075e+00	 8.4889046440e-01	 1.7385064658e-01
 1.4391585259e+00	 8.1974800992e-01	 2.5569109831e-01
 1.4555124311e+00	 7.9034652232e-01	 3.6004539326e-01
 1.4712203863e+00	 7.6070666972e-01	 4.8459085486e-01
 1.4862784203e+00	 7.3084917719e-01	 6.2705084511e-01
 1.5006834226e+00	 7.0079478276e-01	 7.8518724319e-01
 1.5144331362e+00	 6.7056419424e-01	 9.5679216837e-01
 1.5275261473e+00	 6.4017804697e-01	 1.1396791583e+00
 1.5399618736e+00	 6.0965686270e-01	 1.2720260429e+00
 1.3810425935e+00	 9.0289609305e-01	 1.0576542231e-01
 1.3992329553e+00	 8.7444104246e-01	 1.2986032253e-01
 1.4167968527e+00	 8.4568710416e-01	 1.8240281743e-01
 1.4337277390e+00	 8.1665462121e-01	 2.6091006849e-01
 1.4500199314e+00	 7.8736408262e-01	 3.6295079433e-01
 1.4656686113e+00	 7.5783607852e-01	 4.8614040652e-01
 1.4806698225e+00	 7.2809125577e-01	 6.2813501238e-01
 1.4950204663e+00	 6.9815027415e-01	 7.8662448045e-01
 1.5087182941e+00	 6.6803376332e-01	 9.5932477120e-01
 1.5217618977e+00	 6.3776228076e-01	 1.1439697379e+00
 1.5341506967e+00	 6.0735627077e-01	 1.2721558441e+00
 1.3758113716e+00	 8.9947603210e-01	 1.2153626594e-01
 1.3939328305e+00	 8.7112876579e-01	 1.4020496672e-01
 1.4114301980e+00	 8.4248374392e-01	 1.8845045348e-01
 1.4282969521e+00	 8.1356123249e-01	 2.6374032904e-01
 1.4445274316e+00	 7.8438164291e-01	 3.6358734309e-01
 1.4601168362e+00	 7.5496548731e-01	 4.8554505260e-01
 1.4750612247e+00	 7.2533333435e-01	 6.2720238214e-01
 1.4893575100e+00	 6.9550576553e-01	 7.8617727389e-01
 1.5030034521e+00	 6.6550333240e-01	 9.6010962355e-01
 1.5159976481e+00	 6.3534651454e-01	 1.1466537015e+00
 1.5283395199e+00	 6.0505567883e-01	 1.2715897678e+00
 1.3705801496e+00	 8.9605597114e-01	 1.3454326547e-01
 1.3886327057e+00	 8.6781648911e-01	 1.4789554376e-01
 1.4060635432e+00	 8.3928038368e-01	 1.9195794457e-01
 1.4228661652e+00	 8.1046784378e-01	 2.6414852732e-01
 1.4390349319e+00	 7.8139920321e-01	 3.6192410650e-01
 1.4545650612e+00	 7.5209489611e-01	 4.8277643469e-01
 1.4694526269e+00	 7.2257541293e-01	 6.2422731821e-01
 1.4836945537e+00	 6.9286125692e-01	 7.8382284926e-01
 1.4972886101e+00	 6.6297290148e-01	 9.5912694485e-01
 1.5102333985e+00	 6.3293074833e-01	 1.1477143856e+00
 1.5225283430e+00	 6.0275508690e-01	 1.2703584844e+00
 1.3653489277e+00	 8.9263591018e-01	 1.4474672546e-01
 1.3833325808e+00	 8.6450421244e-01	 1.5289429127e-01
 1.4006968885e+00	 8.3607702344e-01	 1.9288963795e-01
 1.4174353784e+00	 8.0737445506e-01	 2.6210129054e-01
 1.4335424322e+00	 7.7841676350e-01	 3.5793015537e-01
 1.4490132861e+00	 7.4922430490e-01	 4.7780622373e-01
 1.4638440291e+00	 7.1981749151e-01	 6.1918424061e-01
 1.4780315974e+00	 6.9021674831e-01	 7.7953851684e-01
 1.4915737681e+00	 6.6044247056e-01	 9.5635706853e-01
 1.5044691488e+00	 6.3051498212e-01	 1.1471352711e+00
 1.5167171661e+00	 6.0045449497e-01	 1.2684928409e+00
 1.3601177057e+00	 8.8921584922e-01	 1.5210686620e-01
 1.3780324560e+00	 8.6119193577e-01	 1.5516338221e-01
 1.3953302337e+00	 8.3287366320e-01	 1.9120983748e-01
 1.4120045915e+00	 8.0428106635e-01	 2.5756522540e-01
 1.4280499324e+00	 7.7543432380e-01	 3.5157456446e-01
 1.4434615111e+00	 7.4635371370e-01	 4.7060612052e-01
 1.4582354312e+00	 7.1705957009e-01	 6.1204762669e-01
 1.4723686411e+00	 6.8757223970e-01	 7.7330167301e-01
 1.4858589260e+00	 6.5791203964e-01	 9.5178044430e-01
 1.4987048992e+00	 6.2809921591e-01	 1.1448999870e+00
 1.5109059892e+00	 5.9815390303e-01	 1.2660238646e+00
 1.5690177580e+00	 6.2115982238e-01	 1.2598773755e+00
 1.5810186730e+00	 5.8994593442e-01	 1.4086037907e+00
 1.5923511940e+00	 5.5863577119e-01	 1.5727772527e+00
 1.6030171707e+00	 5.2724965649e-01	 1.7459774000e+00
 1.6130192278e+00	 4.9580764489e-01	 1.9222708269e+00
 1.6223607419e+00	 4.6432948756e-01	 2.0962447044e+00
 1.6310458176e+00	 4.3283459984e-01	 2.2630344193e+00
 1.6390792611e+00	 4.0134203087e-01	 2.4183452315e+00
 1.6464665533e+00	 3.6987043507e-01	 2.5584680167e+00
 1.6532138214e+00	 3.3843804579e-01	 2.6802892226e+00
 1.6593278092e+00	 3.0706265096e-01	 2.7812952237e+00
 1.5632065812e+00	 6.1885923044e-01	 1.2639406604e+00
 1.5751630483e+00	 5.8776094948e-01	 1.4183123165e+00
 1.5864535970e+00	 5.5656674982e-01	 1.5867046990e+00
 1.5970800701e+00	 5.2529687998e-01	 1.7628061809e+00
 1.6070450825e+00	 4.9397132028e-01	 1.9407901911e+00
 1.6163519984e+00	 4.6260974872e-01	 2.1153481864e+00
 1.6250049072e+00	 4.3123150873e-01	 2.2817167002e+00
 1.6330085972e+00	 3.9985557890e-01	 2.4356984730e+00
 1.6403685291e+00	 3.6850054457e-01	 2.5736777304e+00
 1.6470908072e+00	 3.3718457155e-01	 2.6926297382e+00
 1.6531821506e+00	 3.0592538188e-01	 2.7901248192e+00
 1.5573954043e+00	 6.1655863851e-01	 1.2671572539e+00
 1.5693074236e+00	 5.8557596453e-01	 1.4273956023e+00
 1.5805560000e+00	 5.5449772844e-01	 1.6002120122e+00
 1.5911429695e+00	 5.2334410348e-01	 1.7794025548e+00
 1.6010709372e+00	 4.9213499567e-01	 1.9592465527e+00
 1.6103432549e+00	 4.6089000987e-01	 2.1345389050e+00
 1.6189639967e+00	 4.2962841762e-01	 2.3006165502e+00
 1.6269379333e+00	 3.9836912694e-01	 2.4533790698e+00
 1.6342705048e+00	 3.6713065407e-01	 2.5893035027e+00
 1.6409677930e+00	 3.3593109731e-01	 2.7054534994e+00
 1.6470364921e+00	 3.0478811281e-01	 2.7994830006e+00
 1.5515842274e+00	 6.1425804657e-01	 1.2695569910e+00
 1.5634517989e+00	 5.8339097959e-01	 1.4358825990e+00
 1.5746584030e+00	 5.5242870707e-01	 1.6133271709e+00
 1.5852058688e+00	 5.2139132697e-01	 1.7957934458e+00
 1.5950967919e+00	 4.9029867106e-01	 1.9776657044e+00
 1.6043345115e+00	 4.5917027103e-01	 2.1538414520e+00
 1.6129230863e+00	 4.2802532651e-01	 2.3197572960e+00
 1.6208672693e+00	 3.9688267497e-01	 2.4714090249e+00
 1.6281724805e+00	 3.6576076357e-01	 2.6053659602e+00
 1.6348447789e+00	 3.3467762307e-01	 2.7187797093e+00
 1.6408908335e+00	 3.0365084373e-01	 2.8093875054e+00
 1.5457730505e+00	 6.1195745464e-01	 1.2711698675e+00
 1.5575961742e+00	 5.8120599465e-01	 1.4438024279e+00
 1.5687608060e+00	 5.5035968569e-01	 1.6260783317e+00
 1.5792687682e+00	 5.1943855046e-01	 1.8120059613e+00
 1.5891226466e+00	 4.8846234645e-01	 1.9960736269e+00
 1.5983257680e+00	 4.5745053219e-01	 2.1732806093e+00
 1.6068821759e+00	 4.2642223540e-01	 2.3391624545e+00
 1.6147966054e+00	 3.9539622300e-01	 2.4898105302e+00
 1.6220744562e+00	 3.6439087307e-01	 2.6218859152e+00
 1.6287217647e+00	 3.3342414882e-01	 2.7326277517e+00
 1.6347451750e+00	 3.0251357465e-01	 2.8198562455e+00
 1.5399618736e+00	 6.0965686270e-01	 1.2720260429e+00
 1.5517405494e+00	 5.7902100971e-01	 1.4511843840e+00
 1.5628632089e+00	 5.4829066432e-01	 1.6384938326e+00
 1.5733316676e+00	 5.1748577396e-01	 1.8280673964e+00
 1.5831485014e+00	 4.8662602184e-01	 2.0144964924e+00
 1.5923170245e+00	 4.5573079334e-01	 2.1928813522e+00
 1.6008412654e+00	 4.2481914429e-01	 2.3588557364e+00
 1.6087259415e+00	 3.9390977104e-01	 2.5086059699e+00
 1.6159764320e+00	 3.6302098257e-01	 2.6388843693e+00
 1.6225987506e+00	 3.3217067458e-01	 2.7470171948e+00
 1.6285995164e+00	 3.0137630558e-01	 2.8309073105e+00
 1.5341506967e+00	 6.0735627077e-01	 1.2721558441e+00
 1.5458849247e+00	 5.7683602476e-01	 1.4580579392e+00
 1.5569656119e+00	 5.4622164294e-01	 1.6506021965e+00
 1.5673945669e+00	 5.1553299745e-01	 1.8440052370e+00
 1.5771743561e+00	 4.8478969723e-01	 2.0329606679e+00
 1.5863082810e+00	 4.5401105450e-01	 2.2126688531e+00
 1.5948003550e+00	 4.2321605318e-01	 2.3788610501e+00
 1.6026552775e+00	 3.9242331907e-01	 2.5278179243e+00
 1.6098784077e+00	 3.6165109207e-01	 2.6563825167e+00
 1.6164757364e+00	 3.3091720034e-01	 2.7619677946e+00
 1.6224538579e+00	 3.0023903650e-01	 2.8425589707e+00
 1.5283395199e+00	 6.0505567883e-01	 1.2715897678e+00
 1.5400293000e+00	 5.7465103982e-01	 1.4644527457e+00
 1.5510680149e+00	 5.4415262157e-01	 1.6624321344e+00
 1.5614574663e+00	 5.1358022095e-01	 1.8598471633e+00
 1.5712002108e+00	 4.8295337262e-01	 2.0514927190e+00
 1.5802995375e+00	 4.5229131566e-01	 2.2326684855e+00
 1.5887594446e+00	 4.2161296207e-01	 2.3992025050e+00
 1.5965846136e+00	 3.9093686710e-01	 2.5474691736e+00
 1.6037803834e+00	 3.6028120157e-01	 2.6744017483e+00
 1.6103527223e+00	 3.2966372609e-01	 2.7774994980e+00
 1.6163081993e+00	 2.9910176742e-01	 2.8548296809e+00
 1.5225283430e+00	 6.0275508690e-01	 1.2703584844e+00
 1.5341736753e+00	 5.7246605488e-01	 1.4703986391e+00
 1.5451704179e+00	 5.4208360019e-01	 1.6740125497e+00
 1.5555203657e+00	 5.1162744444e-01	 1.8756210539e+00
 1.5652260655e+00	 4.8111704800e-01	 2.0701194138e+00
 1.5742907940e+00	 4.5057157681e-01	 2.2529058277e+00
 1.5827185341e+00	 4.2000987096e-01	 2.4199044161e+00
 1.5905139497e+00	 3.8945041514e-01	 2.5675827014e+00
 1.5976823592e+00	 3.5891131107e-01	 2.6929636550e+00
 1.6042297081e+00	 3.2841025185e-01	 2.7936324474e+00
 1.6101625408e+00	 2.9796449834e-01	 2.8677380840e+00
 1.5167171661e+00	 6.0045449497e-01	 1.2684928409e+00
 1.5283180506e+00	 5.7028106994e-01	 1.4759256425e+00
 1.5392728209e+00	 5.4001457882e-01	 1.6853725409e+00
 1.5495832651e+00	 5.0967466794e-01	 1.8913549892e+00
 1.5592519202e+00	 4.7928072339e-01	 2.0888677270e+00
 1.5682820505e+00	 4.4885183797e-01	 2.2734066665e+00
 1.5766776237e+00	 4.1840677985e-01	 2.4409913071e+00
 1.5844432858e+00	 3.8796396317e-01	 2.5881816990e+00
 1.5915843349e+00	 3.5754142057e-01	 2.7120900317e+00
 1.5981066940e+00	 3.2715677760e-01	 2.8103869834e+00
 1.6040168822e+00	 2.9682722926e-01	 2.8813030141e+00
 1.5109059892e+00	 5.9815390303e-01	 1.2660238646e+00
 1.5224624259e+00	 5.6809608500e-01	 1.4810639698e+00
 1.5333752239e+00	 5.3794555745e-01	 1.6965414063e+00
 1.5436461644e+00	 5.0772189143e-01	 1.9070772557e+00
 1.5532777749e+00	 4.7744439878e-01	 2.1077648433e+00
 1.5622733071e+00	 4.4713209913e-01	 2.2941970016e+00
 1.5706367133e+00	 4.1680368873e-01	 2.4624879150e+00
 1.5783726218e+00	 3.8647751120e-01	 2.6092895692e+00
 1.5854863106e+00	 3.5617153006e-01	 2.7318028814e+00
 1.5919836798e+00	 3.2590330336e-01	 2.8277836495e+00
 1.5978712237e+00	 2.9568996018e-01	 2.8955435006e+00
 1.6593278092e+00	 3.0706265096e-01	 2.7812952237e+00
 1.6648158475e+00	 2.7576157080e-01	 2.9121375003e+00
 1.6696858227e+00	 2.4455163774e-01	 3.0327436979e+00
 1.6739461456e+00	 2.1344917835e-01	 3.1412213109e+00
 1.6776057195e+00	 1.8246999740e-01	 3.2362444597e+00
 1.6806739083e+00	 1.5162936396e-01	 3.3170388333e+00
 1.6831605042e+00	 1.2094199956e-01	 3.3833627802e+00
 1.6850756955e+00	 9.0422068317e-02	 3.4354849501e+00
 1.6864300350e+00	 6.0083168996e-02	 3.4741588918e+00
 1.6872344077e+00	 2.9938328975e-02	 3.5005950235e+00
 1.6875000000e+00	 0.0000000000e+00	 3.5164303867e+00
 1.6531821506e+00	 3.0592538188e-01	 2.7901248192e+00
 1.6586498629e+00	 2.7474023165e-01	 2.9200984331e+00
 1.6635018011e+00	 2.4364589094e-01	 3.0397854101e+00
 1.6677463450e+00	 2.1265862584e-01	 3.1473409444e+00
 1.6713923650e+00	 1.8179418260e-01	 3.2414805554e+00
 1.6744491901e+00	 1.5106777373e-01	 3.3214650869e+00
 1.6769265764e+00	 1.2049406623e-01	 3.3870819041e+00
 1.6788346744e+00	 9.0087171770e-02	 3.4386226826e+00
 1.6801839978e+00	 5.9860638742e-02	 3.4768581971e+00
 1.6809853914e+00	 2.9827446276e-02	 3.5030105149e+00
 1.6812500000e+00	 0.0000000000e+00	 3.5187230060e+00
 1.6470364921e+00	 3.0478811281e-01	 2.7994830006e+00
 1.6524838782e+00	 2.7371889250e-01	 2.9286560351e+00
 1.6573177795e+00	 2.4274014413e-01	 3.0474728359e+00
 1.6615465445e+00	 2.1186807333e-01	 3.1541361293e+00
 1.6651790104e+00	 1.8111836780e-01	 3.2474027577e+00
 1.6682244719e+00	 1.5050618349e-01	 3.3265687326e+00
 1.6706926486e+00	 1.2004613290e-01	 3.3914505327e+00
 1.6725936533e+00	 8.9752275223e-02	 3.4423630398e+00
 1.6739379606e+00	 5.9638108488e-02	 3.4800945104e+00
 1.6747363750e+00	 2.9716563577e-02	 3.5058789912e+00
 1.6750000000e+00	 0.0000000000e+00	 3.5213665791e+00
 1.6408908335e+00	 3.0365084373e-01	 2.8093875054e+00
 1.6463178936e+00	 2.7269755335e-01	 2.9378270453e+00
 1.6511337580e+00	 2.4183439733e-01	 3.0558217193e+00
 1.6553467439e+00	 2.1107752082e-01	 3.1616216215e+00
 1.6589656559e+00	 1.8044255299e-01	 3.2540248442e+00
 1.6619997537e+00	 1.4994459326e-01	 3.3323625815e+00
 1.6644587208e+00	 1.1959819957e-01	 3.3964805263e+00
 1.6663526322e+00	 8.9417378675e-02	 3.4467169471e+00
 1.6676919235e+00	 5.9415578234e-02	 3.4838778413e+00
 1.6684873587e+00	 2.9605680878e-02	 3.5092095661e+00
 1.6687500000e+00	 0.0000000000e+00	 3.5243693456e+00
 1.6347451750e+00	 3.0251357465e-01	 2.8198562455e+00
 1.6401519090e+00	 2.7167621420e-01	 2.9476283765e+00
 1.6449497364e+00	 2.4092865052e-01	 3.0648479763e+00
 1.6491469434e+00	 2.1028696831e-01	 3.1698123462e+00
 1.6527523014e+00	 1.7976673819e-01	 3.2613607579e+00
 1.6557750356e+00	 1.4938300302e-01	 3.3388596062e+00
 1.6582247930e+00	 1.1915026624e-01	 3.4021839002e+00
 1.6601116111e+00	 8.9082482126e-02	 3.4516954788e+00
 1.6614458863e+00	 5.9193047979e-02	 3.4882183406e+00
 1.6622383424e+00	 2.9494798178e-02	 3.5130114867e+00
 1.6625000000e+00	 0.0000000000e+00	 3.5277396691e+00
 1.6285995164e+00	 3.0137630558e-01	 2.8309073105e+00
 1.6339859244e+00	 2.7065487505e-01	 2.9580771183e+00
 1.6387657149e+00	 2.4002290372e-01	 3.0745676984e+00
 1.6429471429e+00	 2.0949641580e-01	 3.1787234012e+00
 1.6465389469e+00	 1.7909092338e-01	 3.2694246109e+00
 1.6495503174e+00	 1.4882141279e-01	 3.3460729431e+00
 1.6519908652e+00	 1.1870233291e-01	 3.4085728282e+00
 1.6538705900e+00	 8.8747585577e-02	 3.4573098609e+00
 1.6551998491e+00	 5.8970517724e-02	 3.4931263034e+00
 1.6559893261e+00	 2.9383915478e-02	 3.5172941353e+00
 1.6562500000e+00	 0.0000000000e+00	 3.5314860396e+00
 1.6224538579e+00	 3.0023903650e-01	 2.8425589707e+00
 1.6278199398e+00	 2.6963353590e-01	 2.9691905406e+00
 1.6325816933e+00	 2.3911715691e-01	 3.0849971554e+00
 1.6367473423e+00	 2.0870586329e-01	 3.1883700601e+00
 1.6403255924e+00	 1.7841510858e-01	 3.2782306871e+00
 1.6433255992e+00	 1.4825982255e-01	 3.3540158959e+00
 1.6457569374e+00	 1.1825439958e-01	 3.4156596453e+00
 1.6476295689e+00	 8.8412689028e-02	 3.4635714738e+00
 1.6489538120e+00	 5.8747987468e-02	 3.4986121714e+00
 1.6497403097e+00	 2.9273032779e-02	 3.5220670326e+00
 1.6500000000e+00	 0.0000000000e+00	 3.5356170755e+00
 1.6163081993e+00	 2.9910176742e-01	 2.8548296809e+00
 1.6216539551e+00	 2.6861219675e-01	 2.9809860971e+00
 1.6263976717e+00	 2.3821141010e-01	 3.0961527993e+00
 1.6305475418e+00	 2.0791531077e-01	 3.1987677758e+00
 1.6341122379e+00	 1.7773929377e-01	 3.2877934457e+00
 1.6371008810e+00	 1.4769823231e-01	 3.3627019384e+00
 1.6395230096e+00	 1.1780646625e-01	 3.4234568510e+00
 1.6413885478e+00	 8.8077792478e-02	 3.4704918555e+00
 1.6427077748e+00	 5.8525457212e-02	 3.5046865360e+00
 1.6434912934e+00	 2.9162150079e-02	 3.5273398400e+00
 1.6437500000e+00	 0.0000000000e+00	 3.5401415263e+00
 1.6101625408e+00	 2.9796449834e-01	 2.8677380840e+00
 1.6154879705e+00	 2.6759085759e-01	 2.9934814289e+00
 1.6202136502e+00	 2.3730566329e-01	 3.1080512675e+00
 1.6243477413e+00	 2.0712475826e-01	 3.2099321836e+00
 1.6278988834e+00	 1.7706347897e-01	 3.2981275246e+00
 1.6308761629e+00	 1.4713664207e-01	 3.3721447183e+00
 1.6332890818e+00	 1.1735853291e-01	 3.4319771123e+00
 1.6351475267e+00	 8.7742895928e-02	 3.4780827044e+00
 1.6364617376e+00	 5.8302926956e-02	 3.5113601409e+00
 1.6372422771e+00	 2.9051267378e-02	 3.5331223623e+00
 1.6375000000e+00	 0.0000000000e+00	 3.5450682752e+00
 1.6040168822e+00	 2.9682722926e-01	 2.8813030141e+00
 1.6093219859e+00	 2.6656951844e-01	 3.0066943676e+00
 1.6140296286e+00	 2.3639991649e-01	 3.1207093866e+00
 1.6181479407e+00	 2.0633420574e-01	 3.2218791051e+00
 1.6216855288e+00	 1.7638766416e-01	 3.3092477436e+00
 1.6246514447e+00	 1.4657505183e-01	 3.3823580599e+00
 1.6270551540e+00	 1.1691059958e-01	 3.4412332668e+00
 1.6289065056e+00	 8.7407999377e-02	 3.4863558823e+00
 1.6302157005e+00	 5.8080396699e-02	 3.5186438852e+00
 1.6309932608e+00	 2.8940384678e-02	 3.5394245506e+00
 1.6312500000e+00	 0.0000000000e+00	 3.5504063415e+00
 1.5978712237e+00	 2.9568996018e-01	 2.8955435006e+00
 1.6031560013e+00	 2.6554817929e-01	 3.0206429398e+00
 1.6078456070e+00	 2.3549416968e-01	 3.1341441758e+00
 1.6119481402e+00	 2.0554365323e-01	 3.2346245514e+00
 1.6154721743e+00	 1.7571184935e-01	 3.3211691083e+00
 1.6184267265e+00	 1.4601346159e-01	 3.3933559682e+00
 1.6208212262e+00	 1.1646266625e-01	 3.4512383264e+00
 1.6226654846e+00	 8.7073102826e-02	 3.4953234180e+00
 1.6239696633e+00	 5.7857866443e-02	 3.5265488265e+00
 1.6247442444e+00	 2.8829501977e-02	 3.5462565050e+00
 1.6250000000e+00	 0.0000000000e+00	 3.5561648833e+00
 0.0000000000e+00	 1.6250000000e+00	-4.6332854860e-01
 2.8829501977e-02	 1.6247442444e+00	-4.7226969674e-01
 5.7857866443e-02	 1.6239696633e+00	-4.8472891193e-01
 8.7073102826e-02	 1.6226654846e+00	-4.9879371940e-01
 1.1646266625e-01	 1.6208212262e+00	-5.1273310667e-01
 1.4601346159e-01	 1.6184267265e+00	-5.2501541142e-01
 1.7571184935e-01	 1.6154721743e+00	-5.3432527261e-01
 2.0554365323e-01	 1.6119481402e+00	-5.3957942672e-01
 2.3549416968e-01	 1.6078456070e+00	-5.3994113001e-01
 2.6554817929e-01	 1.6031560013e+00	-5.3483298786e-01
 2.9568996018e-01	 1.5978712237e+00	-5.2394797691e-01
 0.0000000000e+00	 1.6187500000e+00	-4.6728004894e-01
 2.8718619276e-02	 1.6184952281e+00	-4.7745163363e-01
 5.7635336186e-02	 1.6177236261e+00	-4.9101562531e-01
 8.6738206275e-02	 1.6164244635e+00	-5.0599928475e-01
 1.1601473291e-01	 1.6145872984e+00	-5.2060687388e-01
 1.4545187135e-01	 1.6122020083e+00	-5.3323756009e-01
 1.7503603454e-01	 1.6092588198e+00	-5.4250241644e-01
 2.0475310071e-01	 1.6057483396e+00	-5.4724030221e-01
 2.3458842287e-01	 1.6016615855e+00	-5.4653240643e-01
 2.6452684013e-01	 1.5969900167e+00	-5.3971523775e-01
 2.9455269110e-01	 1.5917255651e+00	-5.2639184788e-01
 0.0000000000e+00	 1.6125000000e+00	-4.7096091441e-01
 2.8607736576e-02	 1.6122462118e+00	-4.8267722869e-01
 5.7412805929e-02	 1.6114775890e+00	-4.9764882502e-01
 8.6403309723e-02	 1.6101834424e+00	-5.1384207734e-01
 1.1556679958e-01	 1.6083533706e+00	-5.2939593014e-01
 1.4489028112e-01	 1.6059772901e+00	-5.4263982259e-01
 1.7436021973e-01	 1.6030454653e+00	-5.5211074126e-01
 2.0396254820e-01	 1.5995485391e+00	-5.5656918815e-01
 2.3368267606e-01	 1.5954775639e+00	-5.5501384878e-01
 2.6350550098e-01	 1.5908240321e+00	-5.4669474552e-01
 2.9341542202e-01	 1.5855799066e+00	-5.3112466507e-01
 0.0000000000e+00	 1.6062500000e+00	-4.7436181574e-01
 2.8496853875e-02	 1.6059971955e+00	-4.8794047960e-01
 5.7190275671e-02	 1.6052315518e+00	-5.0462584199e-01
 8.6068413172e-02	 1.6039424213e+00	-5.2232276238e-01
 1.1511886624e-01	 1.6021194428e+00	-5.3910427036e-01
 1.4432869088e-01	 1.5997525720e+00	-5.5322951311e-01
 1.7368440493e-01	 1.5968321108e+00	-5.6316086399e-01
 2.0317199568e-01	 1.5933487386e+00	-5.6757998137e-01
 2.3277692925e-01	 1.5892935423e+00	-5.6540260432e-01
 2.6248416183e-01	 1.5846580474e+00	-5.5579187253e-01
 2.9227815294e-01	 1.5794342480e+00	-5.3816996061e-01
 0.0000000000e+00	 1.6000000000e+00	-4.7747327792e-01
 2.8385971174e-02	 1.5997481791e+00	-4.9323528663e-01
 5.6967745414e-02	 1.5989855146e+00	-5.1194395741e-01
 8.5733516621e-02	 1.5977014002e+00	-5.3144200223e-01
 1.1467093291e-01	 1.5958855151e+00	-5.4973593271e-01
 1.4376710064e-01	 1.5935278538e+00	-5.6501403430e-01
 1.7300859012e-01	 1.5906187563e+00	-5.7566353426e-01
 2.0238144317e-01	 1.5871489380e+00	-5.8028675445e-01
 2.3187118244e-01	 1.5831095208e+00	-5.7771603797e-01
 2.6146282267e-01	 1.5784920628e+00	-5.6702723846e-01
 2.9114088386e-01	 1.5732885895e+00	-5.4755156423e-01
 0.0000000000e+00	 1.5937500000e+00	-4.8028567729e-01
 2.8275088474e-02	 1.5934991628e+00	-4.9855545066e-01
 5.6745215157e-02	 1.5927394775e+00	-5.1960040171e-01
 8.5398620069e-02	 1.5914603791e+00	-5.4120045639e-01
 1.1422299958e-01	 1.5896515873e+00	-5.6129499948e-01
 1.4320551040e-01	 1.5873031356e+00	-5.7800087902e-01
 1.7233277531e-01	 1.5844054017e+00	-5.8962963692e-01
 2.0159089065e-01	 1.5809491375e+00	-5.9470375920e-01
 2.3096543563e-01	 1.5769254992e+00	-5.9197173657e-01
 2.6044148352e-01	 1.5723260782e+00	-5.8042172634e-01
 2.9000361478e-01	 1.5671429309e+00	-5.5929360902e-01
 0.0000000000e+00	 1.5875000000e+00	-4.8278923865e-01
 2.8164205773e-02	 1.5872501465e+00	-5.0389467127e-01
 5.6522684900e-02	 1.5864934403e+00	-5.2759235357e-01
 8.5063723518e-02	 1.5852193580e+00	-5.5159878139e-01
 1.1377506624e-01	 1.5834176595e+00	-5.7378559797e-01
 1.4264392016e-01	 1.5810784174e+00	-5.9219763208e-01
 1.7165696050e-01	 1.5781920472e+00	-6.0507019475e-01
 2.0080033814e-01	 1.5747493369e+00	-6.1084543011e-01
 2.3005968882e-01	 1.5707414776e+00	-6.0818751328e-01
 2.5942014436e-01	 1.5661600936e+00	-5.9599648775e-01
 2.8886634570e-01	 1.5609972724e+00	-5.7342053747e-01
 0.0000000000e+00	 1.5812500000e+00	-4.8497403224e-01
 2.8053323072e-02	 1.5810011302e+00	-5.0924654472e-01
 5.6300154643e-02	 1.5802474031e+00	-5.3591693890e-01
 8.4728826966e-02	 1.5789783369e+00	-5.6263763074e-01
 1.1332713291e-01	 1.5771837317e+00	-5.8721190133e-01
 1.4208232992e-01	 1.5748536992e+00	-6.0761197212e-01
 1.7098114569e-01	 1.5719786927e+00	-6.2199637119e-01
 2.0000978562e-01	 1.5685495364e+00	-6.2872638806e-01
 2.2915394201e-01	 1.5645574561e+00	-6.2638141202e-01
 2.5839880521e-01	 1.5599941090e+00	-6.1377294810e-01
 2.8772907662e-01	 1.5548516138e+00	-5.8995710752e-01
 0.0000000000e+00	 1.5750000000e+00	-4.8682997068e-01
 2.7942440372e-02	 1.5747521138e+00	-5.1460456191e-01
 5.6077624386e-02	 1.5740013660e+00	-5.4457122978e-01
 8.4393930415e-02	 1.5727373158e+00	-5.7431765489e-01
 1.1287919957e-01	 1.5709498039e+00	-6.0157812951e-01
 1.4152073968e-01	 1.5686289811e+00	-6.2425167343e-01
 1.7030533088e-01	 1.5657653382e+00	-6.4041947311e-01
 1.9921923310e-01	 1.5623497359e+00	-6.4836144394e-01
 2.2824819520e-01	 1.5583734345e+00	-6.4657171205e-01
 2.5737746606e-01	 1.5538281243e+00	-6.3377281212e-01
 2.8659180754e-01	 1.5487059553e+00	-6.0892839887e-01
 0.0000000000e+00	 1.5687500000e+00	-4.8834680586e-01
 2.7831557671e-02	 1.5685030975e+00	-5.1996210627e-01
 5.5855094129e-02	 1.5677553288e+00	-5.5355224341e-01
 8.4059033864e-02	 1.5664962947e+00	-5.8663950117e-01
 1.1243126624e-01	 1.5647158761e+00	-6.1688855019e-01
 1.4095914944e-01	 1.5624042629e+00	-6.4212460783e-01
 1.6962951608e-01	 1.5595519837e+00	-6.6035095368e-01
 1.9842868059e-01	 1.5561499353e+00	-6.6976560244e-01
 2.2734244839e-01	 1.5521894130e+00	-6.6877693270e-01
 2.5635612690e-01	 1.5476621397e+00	-6.5601806937e-01
 2.8545453846e-01	 1.5425602967e+00	-6.3035981938e-01
 0.0000000000e+00	 1.5625000000e+00	-4.8951412568e-01
 2.7720674970e-02	 1.5622540812e+00	-5.2531245162e-01
 5.5632563872e-02	 1.5615092916e+00	-5.6285694100e-01
 8.3724137312e-02	 1.5602552736e+00	-5.9960381371e-01
 1.1198333291e-01	 1.5584819483e+00	-6.3314747971e-01
 1.4039755920e-01	 1.5561795447e+00	-6.6123874669e-01
 1.6895370127e-01	 1.5533386292e+00	-6.8180241528e-01
 1.9763812807e-01	 1.5499501348e+00	-6.9295406600e-01
 2.2643670158e-01	 1.5460053914e+00	-6.9301583811e-01
 2.5533478775e-01	 1.5414961551e+00	-6.8053099995e-01
 2.8431726938e-01	 1.5364146382e+00	-6.5427711159e-01
 2.9568996018e-01	 1.5978712237e+00	-5.2394797691e-01
 3.2590332095e-01	 1.5919836728e+00	-6.7400780398e-01
 3.5617160113e-01	 1.5854862823e+00	-8.0661301789e-01
 3.8647767267e-01	 1.5783725575e+00	-9.2192474638e-01
 4.1680397854e-01	 1.5706365980e+00	-1.0204248511e+00
 4.4713255621e-01	 1.5622731256e+00	-1.1029173235e+00
 4.7744506305e-01	 1.5532775114e+00	-1.1705267833e+00
 5.0772280372e-01	 1.5436458029e+00	-1.2246939687e+00
 5.3794675950e-01	 1.5333747478e+00	-1.2671681312e+00
 5.6809761941e-01	 1.5224618183e+00	-1.2999962871e+00
 5.9815581323e-01	 1.5109052330e+00	-1.3255093060e+00
 2.9455269110e-01	 1.5917255651e+00	-5.2639184788e-01
 3.2464984663e-01	 1.5858606587e+00	-6.7417615026e-01
 3.5480171036e-01	 1.5793882581e+00	-8.0530729653e-01
 3.8499122008e-01	 1.5723018939e+00	-9.2001793905e-01
 4.1520088632e-01	 1.5645956881e+00	-1.0188580087e+00
 4.4541281561e-01	 1.5562643828e+00	-1.1026958090e+00
 4.7560873589e-01	 1.5473033672e+00	-1.1727162355e+00
 5.0577002371e-01	 1.5377087036e+00	-1.2304160093e+00
 5.3587773350e-01	 1.5274771526e+00	-1.2775958448e+00
 5.6591262857e-01	 1.5166061960e+00	-1.3163495003e+00
 5.9585521395e-01	 1.5050940590e+00	-1.3490496984e+00
 2.9341542202e-01	 1.5855799066e+00	-5.3112466507e-01
 3.2339637232e-01	 1.5797376446e+00	-6.7629253797e-01
 3.5343181958e-01	 1.5732902340e+00	-8.0560275656e-01
 3.8350476749e-01	 1.5662312302e+00	-9.1936034926e-01
 4.1359779409e-01	 1.5585547781e+00	-1.0181842265e+00
 4.4369307501e-01	 1.5502556400e+00	-1.1030079715e+00
 4.7377240872e-01	 1.5413292229e+00	-1.1750777772e+00
 5.0381724370e-01	 1.5317716044e+00	-1.2359474216e+00
 5.3380870750e-01	 1.5215795574e+00	-1.2874702029e+00
 5.6372763773e-01	 1.5107505736e+00	-1.3317877875e+00
 5.9355461467e-01	 1.4992828851e+00	-1.3713159568e+00
 2.9227815294e-01	 1.5794342480e+00	-5.3816996061e-01
 3.2214289801e-01	 1.5736146304e+00	-6.8037758559e-01
 3.5206192880e-01	 1.5671922098e+00	-8.0751716114e-01
 3.8201831490e-01	 1.5601605665e+00	-9.1996694763e-01
 4.1199470186e-01	 1.5525138681e+00	-1.0184157498e+00
 4.4197333441e-01	 1.5442468972e+00	-1.1038634021e+00
 4.7193608156e-01	 1.5353550786e+00	-1.1776184206e+00
 5.0186446368e-01	 1.5258345052e+00	-1.2412927174e+00
 5.3173968150e-01	 1.5156819622e+00	-1.2967933001e+00
 5.6154264688e-01	 1.5048949512e+00	-1.3463109122e+00
 5.9125401539e-01	 1.4934717111e+00	-1.3923056029e+00
 2.9114088386e-01	 1.5732885895e+00	-5.4755156423e-01
 3.2088942369e-01	 1.5674916163e+00	-6.8645215266e-01
 3.5069203803e-01	 1.5610941856e+00	-8.1106845830e-01
 3.8053186231e-01	 1.5540899028e+00	-9.2185283386e-01
 4.1039160964e-01	 1.5464729581e+00	-1.0195648975e+00
 4.4025359381e-01	 1.5382381544e+00	-1.1052717105e+00
 4.7009975439e-01	 1.5293809344e+00	-1.1803451423e+00
 4.9991168367e-01	 1.5198974059e+00	-1.2464563203e+00
 5.2967065551e-01	 1.5097843670e+00	-1.3055670903e+00
 5.5935765604e-01	 1.4990393288e+00	-1.3599184456e+00
 5.8895341611e-01	 1.4876605371e+00	-1.4120159157e+00
 2.9000361478e-01	 1.5671429309e+00	-5.5929360902e-01
 3.1963594938e-01	 1.5613686022e+00	-6.9453734457e-01
 3.4932214725e-01	 1.5549961615e+00	-8.1627478462e-01
 3.7904540972e-01	 1.5480192391e+00	-9.2503323922e-01
 4.0878851741e-01	 1.5404320481e+00	-1.0216440635e+00
 4.3853385321e-01	 1.5322294116e+00	-1.1072425260e+00
 4.6826342722e-01	 1.5234067901e+00	-1.1832648835e+00
 4.9795890365e-01	 1.5139603067e+00	-1.2514425638e+00
 5.2760162951e-01	 1.5038867719e+00	-1.3137933837e+00
 5.5717266520e-01	 1.4931837065e+00	-1.3726097631e+00
 5.8665281682e-01	 1.4818493631e+00	-1.4304439271e+00
 2.8886634570e-01	 1.5609972724e+00	-5.7342053747e-01
 3.1838247507e-01	 1.5552455881e+00	-7.0465451733e-01
 3.4795225648e-01	 1.5488981373e+00	-8.2315446886e-01
 3.7755895714e-01	 1.5419485755e+00	-9.2952352919e-01
 4.0718542518e-01	 1.5343911381e+00	-1.0246657187e+00
 4.3681411260e-01	 1.5262206688e+00	-1.1097854975e+00
 4.6642710006e-01	 1.5174326458e+00	-1.1863845484e+00
 4.9600612364e-01	 1.5080232074e+00	-1.2562556891e+00
 5.2553260351e-01	 1.4979891767e+00	-1.3214738441e+00
 5.5498767435e-01	 1.4873280841e+00	-1.3843840398e+00
 5.8435221754e-01	 1.4760381892e+00	-1.4475864164e+00
 2.8772907662e-01	 1.5548516138e+00	-5.8995710752e-01
 3.1712900075e-01	 1.5491225739e+00	-7.1682528259e-01
 3.4658236570e-01	 1.5428001132e+00	-8.3172603584e-01
 3.7607250455e-01	 1.5358779118e+00	-9.3533920607e-01
 4.0558233296e-01	 1.5283502281e+00	-1.0286424118e+00
 4.3509437200e-01	 1.5202119260e+00	-1.1129102940e+00
 4.6459077289e-01	 1.5114585015e+00	-1.1897110043e+00
 4.9405334362e-01	 1.5020861082e+00	-1.2608998438e+00
 5.2346357751e-01	 1.4920915815e+00	-1.3286099857e+00
 5.5280268351e-01	 1.4814724617e+00	-1.3952402470e+00
 5.8205161826e-01	 1.4702270152e+00	-1.4634399058e+00
 2.8659180754e-01	 1.5487059553e+00	-6.0892839887e-01
 3.1587552644e-01	 1.5429995598e+00	-7.3107151267e-01
 3.4521247493e-01	 1.5367020890e+00	-8.4200821029e-01
 3.7458605196e-01	 1.5298072481e+00	-9.4249591171e-01
 4.0397924073e-01	 1.5223093181e+00	-1.0335867713e+00
 4.3337463140e-01	 1.5142031833e+00	-1.1166266048e+00
 4.6275444572e-01	 1.5054843573e+00	-1.1932510802e+00
 4.9210056361e-01	 1.4961490090e+00	-1.2653790799e+00
 5.2139455151e-01	 1.4861939863e+00	-1.3352031706e+00
 5.5061769266e-01	 1.4756168393e+00	-1.4051771482e+00
 5.7975101898e-01	 1.4644158412e+00	-1.4780006552e+00
 2.8545453846e-01	 1.5425602967e+00	-6.3035981938e-01
 3.1462205212e-01	 1.5368765457e+00	-7.4741534576e-01
 3.4384258415e-01	 1.5306040648e+00	-8.5401992083e-01
 3.7309959937e-01	 1.5237365844e+00	-9.5100943030e-01
 4.0237614850e-01	 1.5162684081e+00	-1.0395115071e+00
 4.3165489080e-01	 1.5081944405e+00	-1.1209441404e+00
 4.6091811856e-01	 1.4995102130e+00	-1.1970115665e+00
 4.9014778359e-01	 1.4902119097e+00	-1.2696973516e+00
 5.1932552551e-01	 1.4802963911e+00	-1.3412546054e+00
 5.4843270182e-01	 1.4697612169e+00	-1.4141932946e+00
 5.7745041970e-01	 1.4586046672e+00	-1.4912646568e+00
 2.8431726938e-01	 1.5364146382e+00	-6.5427711159e-01
 3.1336857781e-01	 1.5307535316e+00	-7.6587919124e-01
 3.4247269338e-01	 1.5245060407e+00	-8.6778030404e-01
 3.7161314678e-01	 1.5176659207e+00	-9.6089569119e-01
 4.0077305628e-01	 1.5102274981e+00	-1.0464294119e+00
 4.2993515020e-01	 1.5021856977e+00	-1.1258726323e+00
 4.5908179139e-01	 1.4935360687e+00	-1.2009992139e+00
 4.8819500358e-01	 1.4842748105e+00	-1.2738585138e+00
 5.1725649951e-01	 1.4743987959e+00	-1.3467653382e+00
 5.4624771097e-01	 1.4639055946e+00	-1.4222870212e+00
 5.7514982041e-01	 1.4527934933e+00	-1.5032276300e+00
 5.9815581323e-01	 1.5109052330e+00	-1.3255093060e+00
 6.2810075884e-01	 1.4987042927e+00	-1.1194640709e+00
 6.5791321378e-01	 1.4858584787e+00	-1.1949080068e+00
 6.8757304396e-01	 1.4723683622e+00	-1.2885531225e+00
 7.1706000386e-01	 1.4582353304e+00	-1.4013729103e+00
 7.4635377687e-01	 1.4434615975e+00	-1.5342703656e+00
 7.7543401674e-01	 1.4280502154e+00	-1.6880636861e+00
 8.0428038993e-01	 1.4120050802e+00	-1.8634719586e+00
 8.3287261878e-01	 1.3953309373e+00	-2.0611009855e+00
 8.6119052523e-01	 1.3780333834e+00	-2.2814294083e+00
 8.8921407494e-01	 1.3601188657e+00	-2.5247952884e+00
 5.9585521395e-01	 1.5050940590e+00	-1.3490496984e+00
 6.2568498670e-01	 1.4929400454e+00	-1.1287546964e+00
 6.5538277835e-01	 1.4801436384e+00	-1.2126452429e+00
 6.8492853226e-01	 1.4667054070e+00	-1.3121231574e+00
 7.1430208078e-01	 1.4526267329e+00	-1.4280522318e+00
 7.4348318543e-01	 1.4379098221e+00	-1.5612339269e+00
 7.7245157822e-01	 1.4225577146e+00	-1.7123937840e+00
 8.0118700382e-01	 1.4065742914e+00	-1.8821677959e+00
 8.2966926255e-01	 1.3899642799e+00	-2.0710888856e+00
 8.5787825398e-01	 1.3727332550e+00	-2.2795736405e+00
 8.8579402081e-01	 1.3548876393e+00	-2.5079094599e+00
 5.9355461467e-01	 1.4992828851e+00	-1.3713159568e+00
 6.2326921455e-01	 1.4871757982e+00	-1.1537234721e+00
 6.5285234291e-01	 1.4744287981e+00	-1.2289446569e+00
 6.8228402055e-01	 1.4610424518e+00	-1.3343605156e+00
 7.1154415769e-01	 1.4470181355e+00	-1.4534853728e+00
 7.4061259398e-01	 1.4323580467e+00	-1.5870190341e+00
 7.6946913969e-01	 1.4170652137e+00	-1.7355943083e+00
 7.9809361770e-01	 1.4011435027e+00	-1.8997640637e+00
 8.2646590633e-01	 1.3845976224e+00	-2.0799883573e+00
 8.5456598273e-01	 1.3674331266e+00	-2.2766217811e+00
 8.8237396668e-01	 1.3496564129e+00	-2.4899011747e+00
 5.9125401539e-01	 1.4934717111e+00	-1.3923056029e+00
 6.2085344240e-01	 1.4814115509e+00	-1.1842992770e+00
 6.5032190748e-01	 1.4687139578e+00	-1.2438029404e+00
 6.7963950885e-01	 1.4553794965e+00	-1.3552642241e+00
 7.0878623460e-01	 1.4414095381e+00	-1.4776734598e+00
 7.3774200254e-01	 1.4268062714e+00	-1.6116286703e+00
 7.6648670117e-01	 1.4115727129e+00	-1.7576698491e+00
 7.9500023159e-01	 1.3957127139e+00	-1.9162667029e+00
 8.2326255011e-01	 1.3792309650e+00	-2.0878064311e+00
 8.5125371148e-01	 1.3621329982e+00	-2.2725816835e+00
 8.7895391254e-01	 1.3444251865e+00	-2.4707788383e+00
 5.8895341611e-01	 1.4876605371e+00	-1.4120159157e+00
 6.1843767026e-01	 1.4756473036e+00	-1.2137173430e+00
 6.4779147204e-01	 1.4629991175e+00	-1.2572166121e+00
 6.7699499714e-01	 1.4497165413e+00	-1.3748331668e+00
 7.0602831151e-01	 1.4358009407e+00	-1.5006175026e+00
 7.3487141109e-01	 1.4212544960e+00	-1.6350657241e+00
 7.6350426265e-01	 1.4060802121e+00	-1.7786249208e+00
 7.9190684548e-01	 1.3902819251e+00	-1.9316815938e+00
 8.2005919388e-01	 1.3738643075e+00	-2.0945500875e+00
 8.4794144023e-01	 1.3568328698e+00	-2.2674611579e+00
 8.7553385841e-01	 1.3391939601e+00	-2.4505508158e+00
 5.8665281682e-01	 1.4818493631e+00	-1.4304439271e+00
 6.1602189811e-01	 1.4698830563e+00	-1.2419781185e+00
 6.4526103661e-01	 1.4572842771e+00	-1.2691820148e+00
 6.7435048544e-01	 1.4440535860e+00	-1.3930660819e+00
 7.0327038842e-01	 1.4301923432e+00	-1.5223183918e+00
 7.3200081964e-01	 1.4157027206e+00	-1.6573329885e+00
 7.6052182412e-01	 1.4005877112e+00	-1.7984639606e+00
 7.8881345937e-01	 1.3848511363e+00	-1.9460145544e+00
 8.1685583766e-01	 1.3684976501e+00	-2.1002262562e+00
 8.4462916898e-01	 1.3515327414e+00	-2.2612679712e+00
 8.7211380428e-01	 1.3339627337e+00	-2.4292254319e+00
 5.8435221754e-01	 1.4760381892e+00	-1.4475864164e+00
 6.1360612596e-01	 1.4641188090e+00	-1.2690818375e+00
 6.4273060117e-01	 1.4515694368e+00	-1.2796953115e+00
 6.7170597373e-01	 1.4383906308e+00	-1.4099615591e+00
 7.0051246533e-01	 1.4245837458e+00	-1.5427768967e+00
 7.2913022819e-01	 1.4101509452e+00	-1.6784331579e+00
 7.5753938560e-01	 1.3950952104e+00	-1.8171913273e+00
 7.8572007325e-01	 1.3794203476e+00	-1.9592713400e+00
 8.1365248144e-01	 1.3631309926e+00	-2.1048418150e+00
 8.4131689773e-01	 1.3462326130e+00	-2.2540098452e+00
 8.6869375015e-01	 1.3287315073e+00	-2.4068109696e+00
 5.8205161826e-01	 1.4702270152e+00	-1.4634399058e+00
 6.1119035381e-01	 1.4583545618e+00	-1.2950285158e+00
 6.4020016573e-01	 1.4458545965e+00	-1.2887524826e+00
 6.6906146202e-01	 1.4327276756e+00	-1.4255180366e+00
 6.9775454224e-01	 1.4189751484e+00	-1.5619936629e+00
 7.2625963674e-01	 1.4045991699e+00	-1.6983688269e+00
 7.5455694707e-01	 1.3896027096e+00	-1.8348112992e+00
 7.8262668714e-01	 1.3739895588e+00	-1.9714576408e+00
 8.1044912521e-01	 1.3577643351e+00	-2.1084035889e+00
 8.3800462648e-01	 1.3409324846e+00	-2.2456944566e+00
 8.6527369601e-01	 1.3235002809e+00	-2.3833156698e+00
 5.7975101898e-01	 1.4644158412e+00	-1.4780006552e+00
 6.0877458166e-01	 1.4525903145e+00	-1.3198179465e+00
 6.3766973029e-01	 1.4401397562e+00	-1.2963493214e+00
 6.6641695031e-01	 1.4270647203e+00	-1.4397337980e+00
 6.9499661914e-01	 1.4133665510e+00	-1.5799692096e+00
 7.2338904529e-01	 1.3990473945e+00	-1.7171424883e+00
 7.5157450855e-01	 1.3841102087e+00	-1.8513280730e+00
 7.7953330102e-01	 1.3685587700e+00	-1.9825790819e+00
 8.0724576899e-01	 1.3523976777e+00	-2.1109183489e+00
 8.3469235524e-01	 1.3356323562e+00	-2.2363294354e+00
 8.6185364188e-01	 1.3182690545e+00	-2.3587477297e+00
 5.7745041970e-01	 1.4586046672e+00	-1.4912646568e+00
 6.0635880951e-01	 1.4468260672e+00	-1.3434496956e+00
 6.3513929485e-01	 1.4344249159e+00	-1.3024814310e+00
 6.6377243861e-01	 1.4214017651e+00	-1.4526069694e+00
 6.9223869605e-01	 1.4077579535e+00	-1.5967039274e+00
 7.2051845384e-01	 1.3934956191e+00	-1.7347565308e+00
 7.4859207002e-01	 1.3786177079e+00	-1.8667457621e+00
 7.7643991491e-01	 1.3631279813e+00	-1.9926412207e+00
 8.0404241276e-01	 1.3470310202e+00	-2.1123928111e+00
 8.3138008399e-01	 1.3303322278e+00	-2.2259223646e+00
 8.5843358775e-01	 1.3130378280e+00	-2.3331153031e+00
 5.7514982041e-01	 1.4527934933e+00	-1.5032276300e+00
 6.0394303735e-01	 1.4410618199e+00	-1.3659230974e+00
 6.3260885941e-01	 1.4287100756e+00	-1.3071442202e+00
 6.6112792690e-01	 1.4157388098e+00	-1.4641355161e+00
 6.8948077296e-01	 1.4021493561e+00	-1.6121980755e+00
 7.1764786239e-01	 1.3879438437e+00	-1.7512132368e+00
 7.4560963149e-01	 1.3731252071e+00	-1.8810683946e+00
 7.7334652879e-01	 1.3576971925e+00	-2.0016495468e+00
 8.0083905653e-01	 1.3416643628e+00	-2.1128336353e+00
 8.2806781274e-01	 1.3250320994e+00	-2.2144807787e+00
 8.5501353362e-01	 1.3078066016e+00	-2.3064264984e+00
 8.8921407494e-01	 1.3601188657e+00	-2.5247952884e+00
 9.1692411371e-01	 1.3415942214e+00	-2.4810543115e+00
 9.4430029961e-01	 1.3224680571e+00	-2.3602886161e+00
 9.7132329439e-01	 1.3027493420e+00	-2.1638683758e+00
 9.9797408038e-01	 1.2824478659e+00	-1.8933541176e+00
 1.0242340036e+00	 1.2615742255e+00	-1.5504844414e+00
 1.0500848166e+00	 1.2401398067e+00	-1.4966069665e+00
 1.0755087192e+00	 1.2181567651e+00	-1.7669606660e+00
 1.1004883997e+00	 1.1956380038e+00	-1.9238080249e+00
 1.1250070732e+00	 1.1725971483e+00	-1.9704714233e+00
 1.1490485194e+00	 1.1490485194e+00	-1.9108901067e+00
 8.8579402081e-01	 1.3548876393e+00	-2.5079094599e+00
 9.1339748251e-01	 1.3364342436e+00	-2.4435596709e+00
 9.4066837538e-01	 1.3173816415e+00	-2.3030059569e+00
 9.6758743557e-01	 1.2977387676e+00	-2.0875969009e+00
 9.9413571853e-01	 1.2775153741e+00	-1.7988678872e+00
 1.0202946421e+00	 1.2567220169e+00	-1.4385289987e+00
 1.0460460288e+00	 1.2353700382e+00	-1.5465529009e+00
 1.0713721472e+00	 1.2134715467e+00	-1.7981120901e+00
 1.0962557520e+00	 1.1910393961e+00	-1.9379557241e+00
 1.1206801229e+00	 1.1680871593e+00	-1.9693530642e+00
 1.1446291020e+00	 1.1446291020e+00	-1.8961803055e+00
 8.8237396668e-01	 1.3496564129e+00	-2.4899011747e+00
 9.0987085130e-01	 1.3312742658e+00	-2.4049333333e+00
 9.3703645115e-01	 1.3122952259e+00	-2.2445957381e+00
 9.6385157674e-01	 1.2927281932e+00	-2.0102156563e+00
 9.9029735668e-01	 1.2725828823e+00	-1.7033035621e+00
 1.0163552805e+00	 1.2518698084e+00	-1.3255412120e+00
 1.0420072410e+00	 1.2306002697e+00	-1.5985934328e+00
 1.0672355752e+00	 1.2087863284e+00	-1.8314382978e+00
 1.0920231043e+00	 1.1864407883e+00	-1.9543584410e+00
 1.1163531727e+00	 1.1635771702e+00	-1.9705701018e+00
 1.1402096847e+00	 1.1402096847e+00	-1.8838865460e+00
 8.7895391254e-01	 1.3444251865e+00	-2.4707788383e+00
 9.0634422010e-01	 1.3261142881e+00	-2.3651843977e+00
 9.3340452692e-01	 1.3072088103e+00	-2.1850678458e+00
 9.6011571792e-01	 1.2877176188e+00	-1.9317354054e+00
 9.8645899483e-01	 1.2676503905e+00	-1.6066728727e+00
 1.0124159190e+00	 1.2470175998e+00	-1.3278028304e+00
 1.0379684533e+00	 1.2258305012e+00	-1.6527059945e+00
 1.0630990032e+00	 1.2041011101e+00	-1.8669178570e+00
 1.0877904566e+00	 1.1818421806e+00	-1.9729960380e+00
 1.1120262224e+00	 1.1590671812e+00	-1.9741038483e+00
 1.1357902673e+00	 1.1357902673e+00	-1.8739917421e+00
 8.7553385841e-01	 1.3391939601e+00	-2.4505508158e+00
 9.0281758889e-01	 1.3209543103e+00	-2.3243219287e+00
 9.2977260269e-01	 1.3021223947e+00	-2.1244321382e+00
 9.5637985910e-01	 1.2827070444e+00	-1.8521668935e+00
 9.8262063299e-01	 1.2627178987e+00	-1.5089875416e+00
 1.0084765574e+00	 1.2421653913e+00	-1.4043494956e+00
 1.0339296655e+00	 1.2210607327e+00	-1.7088680370e+00
 1.0589624312e+00	 1.1994158917e+00	-1.9045293702e+00
 1.0835578089e+00	 1.1772435729e+00	-1.9938484293e+00
 1.1076992721e+00	 1.1545571922e+00	-1.9799356868e+00
 1.1313708499e+00	 1.1313708499e+00	-1.8664788990e+00
 8.7211380428e-01	 1.3339627337e+00	-2.4292254319e+00
 8.9929095769e-01	 1.3157943325e+00	-2.2823549557e+00
 9.2614067847e-01	 1.2970359791e+00	-2.0626984461e+00
 9.5264400027e-01	 1.2776964700e+00	-1.7715208471e+00
 9.7878227114e-01	 1.2577854070e+00	-1.4102592837e+00
 1.0045371959e+00	 1.2373131827e+00	-1.4828399374e+00
 1.0298908778e+00	 1.2162909642e+00	-1.7670570302e+00
 1.0548258592e+00	 1.1947306734e+00	-1.9442514746e+00
 1.0793251612e+00	 1.1726449652e+00	-2.0168955815e+00
 1.1033723218e+00	 1.1500472031e+00	-1.9880470721e+00
 1.1269514325e+00	 1.1269514325e+00	-1.8613311150e+00
 8.6869375015e-01	 1.3287315073e+00	-2.4068109696e+00
 8.9576432648e-01	 1.3106343547e+00	-2.2392924723e+00
 9.2250875424e-01	 1.2919495635e+00	-1.9998765715e+00
 9.4890814145e-01	 1.2726858956e+00	-1.6898079732e+00
 9.7494390930e-01	 1.2528529152e+00	-1.3104998054e+00
 1.0005978343e+00	 1.2324609741e+00	-1.5632506279e+00
 1.0258520900e+00	 1.2115211957e+00	-1.8272504632e+00
 1.0506892872e+00	 1.1900454551e+00	-1.9860628432e+00
 1.0750925135e+00	 1.1680463575e+00	-2.0421175153e+00
 1.0990453715e+00	 1.1455372141e+00	-1.9984195328e+00
 1.1225320151e+00	 1.1225320151e+00	-1.8585315828e+00
 8.6527369601e-01	 1.3235002809e+00	-2.3833156698e+00
 8.9223769528e-01	 1.3054743769e+00	-2.1951434354e+00
 9.1887683001e-01	 1.2868631479e+00	-1.9359762879e+00
 9.4517228263e-01	 1.2676753212e+00	-1.6070389598e+00
 9.7110554745e-01	 1.2479204234e+00	-1.2965298789e+00
 9.9665847279e-01	 1.2276087656e+00	-1.6455580439e+00
 1.0218133023e+00	 1.2067514272e+00	-1.8894258452e+00
 1.0465527152e+00	 1.1853602368e+00	-2.0299421853e+00
 1.0708598658e+00	 1.1634477498e+00	-2.0694943057e+00
 1.0947184213e+00	 1.1410272251e+00	-2.0110346720e+00
 1.1181125977e+00	 1.1181125977e+00	-1.8580635923e+00
 8.6185364188e-01	 1.3182690545e+00	-2.3587477297e+00
 8.8871106408e-01	 1.3003143992e+00	-2.1499167647e+00
 9.1524490579e-01	 1.2817767323e+00	-1.8710073389e+00
 9.4143642381e-01	 1.2626647468e+00	-1.5232244747e+00
 9.6726718561e-01	 1.2429879316e+00	-1.4026254053e+00
 9.9271911124e-01	 1.2227565570e+00	-1.7297386672e+00
 1.0177745145e+00	 1.2019816587e+00	-1.9535607051e+00
 1.0424161432e+00	 1.1806750184e+00	-2.0758682475e+00
 1.0666272182e+00	 1.1588491421e+00	-2.0990060840e+00
 1.0903914710e+00	 1.1365172360e+00	-2.0258741694e+00
 1.1136931804e+00	 1.1136931804e+00	-1.8599105314e+00
 8.5843358775e-01	 1.3130378280e+00	-2.3331153031e+00
 8.8518443287e-01	 1.2951544214e+00	-2.1036213419e+00
 9.1161298156e-01	 1.2766903166e+00	-1.8049794380e+00
 9.3770056499e-01	 1.2576541724e+00	-1.4383751654e+00
 9.6342882376e-01	 1.2380554398e+00	-1.5104844073e+00
 9.8877974969e-01	 1.2179043484e+00	-1.8157689848e+00
 1.0137357268e+00	 1.1972118903e+00	-2.0196325926e+00
 1.0382795712e+00	 1.1759898001e+00	-2.1238198141e+00
 1.0623945705e+00	 1.1542505344e+00	-2.1306330382e+00
 1.0860645207e+00	 1.1320072470e+00	-2.0429197825e+00
 1.1092737630e+00	 1.1092737630e+00	-1.8640558889e+00
 8.5501353362e-01	 1.3078066016e+00	-2.3064264984e+00
 8.8165780167e-01	 1.2899944436e+00	-2.0562660096e+00
 9.0798105734e-01	 1.2716039010e+00	-1.7379022682e+00
 9.3396470617e-01	 1.2526435980e+00	-1.3525016587e+00
 9.5959046192e-01	 1.2331229480e+00	-1.6200824744e+00
 9.8484038814e-01	 1.2130521399e+00	-1.9036254885e+00
 1.0096969390e+00	 1.1924421218e+00	-2.0876190783e+00
 1.0341429992e+00	 1.1713045818e+00	-2.1737757079e+00
 1.0581619228e+00	 1.1496519267e+00	-2.1643554144e+00
 1.0817375704e+00	 1.1274972580e+00	-2.0621533483e+00
 1.1048543456e+00	 1.1048543456e+00	-1.8704832560e+00
 1.1490485194e+00	 1.1490485194e+00	-1.9108901067e+00
 1.1725971363e+00	 1.1250070915e+00	-1.8747683027e+00
 1.1956379560e+00	 1.1004884725e+00	-1.8562224886e+00
 1.2181566579e+00	 1.0755088827e+00	-1.8602285032e+00
 1.2401396168e+00	 1.0500851065e+00	-1.8918265005e+00
 1.2615739298e+00	 1.0242344554e+00	-1.7080836691e+00
 1.2824474417e+00	 9.9797472881e-01	-1.3227842631e+00
 1.3027487667e+00	 9.7132417399e-01	-9.3996910764e-01
 1.3224673086e+00	 9.4430144428e-01	-5.6390551442e-01
 1.3415932779e+00	 9.1692555682e-01	-1.9862028007e-01
 1.3601177057e+00	 8.8921584922e-01	 1.5210686620e-01
 1.1446291020e+00	 1.1446291020e+00	-1.8961803055e+00
 1.1680871473e+00	 1.1206801411e+00	-1.8472401854e+00
 1.1910393485e+00	 1.0962558246e+00	-1.8160745925e+00
 1.2134714400e+00	 1.0713723101e+00	-1.8075981039e+00
 1.2353698490e+00	 1.0460463176e+00	-1.8267875797e+00
 1.2567217224e+00	 1.0202950921e+00	-1.7340083162e+00
 1.2775149515e+00	 9.9413636447e-01	-1.3418729377e+00
 1.2977381945e+00	 9.6758831178e-01	-9.5208438066e-01
 1.3173808959e+00	 9.4066951565e-01	-5.6888469656e-01
 1.3364333037e+00	 9.1339892007e-01	-1.9628038211e-01
 1.3548864838e+00	 8.8579578827e-01	 1.6196422667e-01
 1.1402096847e+00	 1.1402096847e+00	-1.8838865460e+00
 1.1635771583e+00	 1.1163531908e+00	-1.8221439860e+00
 1.1864407409e+00	 1.0920231766e+00	-1.7783647711e+00
 1.2087862221e+00	 1.0672357375e+00	-1.7574025588e+00
 1.2306000813e+00	 1.0420075288e+00	-1.7641713011e+00
 1.2518695150e+00	 1.0163557288e+00	-1.7632063725e+00
 1.2725824613e+00	 9.9029800013e-01	-1.3642494000e+00
 1.2927276223e+00	 9.6385244957e-01	-9.6750518559e-01
 1.3122944831e+00	 9.3703758702e-01	-5.7719037881e-01
 1.3312733296e+00	 9.0987228331e-01	-1.9729099234e-01
 1.3496552618e+00	 8.8237572731e-01	 1.6844425558e-01
 1.1357902673e+00	 1.1357902673e+00	-1.8739917421e+00
 1.1590671694e+00	 1.1120262404e+00	-1.7994636070e+00
 1.1818421334e+00	 1.0877905286e+00	-1.7430779381e+00
 1.2041010042e+00	 1.0630991648e+00	-1.7096278122e+00
 1.2258303135e+00	 1.0379687399e+00	-1.7039646556e+00
 1.2470173076e+00	 1.0124163655e+00	-1.7309652321e+00
 1.2676499712e+00	 9.8645963579e-01	-1.3899591442e+00
 1.2877170501e+00	 9.6011658736e-01	-9.8627713802e-01
 1.3072080704e+00	 9.3340565839e-01	-5.8886819150e-01
 1.3261133554e+00	 9.0634564656e-01	-2.0169765019e-01
 1.3444240399e+00	 8.7895566635e-01	 1.7150160868e-01
 1.1313708499e+00	 1.1313708499e+00	-1.8664788990e+00
 1.1545571804e+00	 1.1076992901e+00	-1.7791830521e+00
 1.1772435259e+00	 1.0835578806e+00	-1.7101991183e+00
 1.1994157862e+00	 1.0589625922e+00	-1.6642599288e+00
 1.2210605457e+00	 1.0339299510e+00	-1.6461547634e+00
 1.2421651001e+00	 1.0084770022e+00	-1.6606967682e+00
 1.2627174810e+00	 9.8262127145e-01	-1.4190478108e+00
 1.2827064779e+00	 9.5638072516e-01	-1.0084460074e+00
 1.3021216577e+00	 9.2977372976e-01	-6.0396392595e-01
 1.3209533813e+00	 9.0281900980e-01	-2.0954606275e-01
 1.3391928179e+00	 8.7553560540e-01	 1.7109076787e-01
 1.1269514325e+00	 1.1269514325e+00	-1.8613311150e+00
 1.1500471914e+00	 1.1033723397e+00	-1.7612864286e+00
 1.1726449184e+00	 1.0793252327e+00	-1.6797134498e+00
 1.1947305683e+00	 1.0548260196e+00	-1.6212850964e+00
 1.2162907780e+00	 1.0298911621e+00	-1.5907288771e+00
 1.2373128927e+00	 1.0045376389e+00	-1.5927947365e+00
 1.2577849909e+00	 9.7878290711e-01	-1.4515611892e+00
 1.2776959057e+00	 9.5264486295e-01	-1.0340577199e+00
 1.2970352450e+00	 9.2614180113e-01	-6.2252353764e-01
 1.3157934071e+00	 8.9929237305e-01	-2.2088210806e-01
 1.3339615960e+00	 8.7211554444e-01	 1.6716603782e-01
 1.1225320151e+00	 1.1225320151e+00	-1.8585315828e+00
 1.1455372024e+00	 1.0990453894e+00	-1.7457579490e+00
 1.1680463108e+00	 1.0750925847e+00	-1.6516061864e+00
 1.1900453504e+00	 1.0506894470e+00	-1.5806896281e+00
 1.2115210102e+00	 1.0258523733e+00	-1.5376743839e+00
 1.2324606853e+00	 1.0005982756e+00	-1.5272476092e+00
 1.2528525007e+00	 9.7494454277e-01	-1.4875452210e+00
 1.2726853336e+00	 9.4890900075e-01	-1.0631583619e+00
 1.2919488322e+00	 9.2250987250e-01	-6.4459314942e-01
 1.3106334330e+00	 8.9576573629e-01	-2.3575183849e-01
 1.3287303741e+00	 8.6869548349e-01	 1.5968154249e-01
 1.1181125977e+00	 1.1181125977e+00	-1.8580635923e+00
 1.1410272134e+00	 1.0947184390e+00	-1.7325819334e+00
 1.1634477033e+00	 1.0708599367e+00	-1.6258626996e+00
 1.1853601325e+00	 1.0465528743e+00	-1.5424599647e+00
 1.2067512425e+00	 1.0218135844e+00	-1.4869788081e+00
 1.2276084779e+00	 9.9665891235e-01	-1.4640440053e+00
 1.2479200105e+00	 9.7110617843e-01	-1.4782679175e+00
 1.2676747614e+00	 9.4517313854e-01	-1.0957941825e+00
 1.2868624195e+00	 9.1887794387e-01	-6.7021905482e-01
 1.3054734588e+00	 8.9223909954e-01	-2.5420148413e-01
 1.3234991521e+00	 8.6527542253e-01	 1.4859122150e-01
 1.1136931804e+00	 1.1136931804e+00	-1.8599105314e+00
 1.1365172244e+00	 1.0903914887e+00	-1.7217428113e+00
 1.1588490958e+00	 1.0666272888e+00	-1.6024684812e+00
 1.1806749146e+00	 1.0424163017e+00	-1.5065826776e+00
 1.2019814747e+00	 1.0177747955e+00	-1.4386298145e+00
 1.2227562704e+00	 9.9271954906e-01	-1.4031726927e+00
 1.2429875204e+00	 9.6726781409e-01	-1.4047608229e+00
 1.2626641892e+00	 9.4143727634e-01	-1.1320115975e+00
 1.2817760068e+00	 9.1524601524e-01	-6.9944772146e-01
 1.3003134847e+00	 8.8871246278e-01	-2.7627745640e-01
 1.3182679302e+00	 8.6185536157e-01	 1.3384882653e-01
 1.1092737630e+00	 1.1092737630e+00	-1.8640558889e+00
 1.1320072354e+00	 1.0860645383e+00	-1.7132251241e+00
 1.1542504883e+00	 1.0623946408e+00	-1.5814091455e+00
 1.1759896967e+00	 1.0382797291e+00	-1.4730444710e+00
 1.1972117069e+00	 1.0137360067e+00	-1.3926152104e+00
 1.2179040630e+00	 9.8878018578e-01	-1.3446225919e+00
 1.2380550302e+00	 9.6342944975e-01	-1.3335537144e+00
 1.2576536170e+00	 9.3770141414e-01	-1.1718571922e+00
 1.2766895940e+00	 9.1161408661e-01	-7.3232579448e-01
 1.2951535105e+00	 8.8518582603e-01	-3.0202635158e-01
 1.3130367082e+00	 8.5843530062e-01	 1.1540791756e-01
 1.1048543456e+00	 1.1048543456e+00	-1.8704832560e+00
 1.1274972465e+00	 1.0817375880e+00	-1.7070135271e+00
 1.1496518808e+00	 1.0581619928e+00	-1.5626704320e+00
 1.1713044787e+00	 1.0341431565e+00	-1.4418321846e+00
 1.1924419392e+00	 1.0096972178e+00	-1.3489229491e+00
 1.2130518556e+00	 9.8484082249e-01	-1.2883827785e+00
 1.2331225400e+00	 9.5959108542e-01	-1.2646367957e+00
 1.2526430448e+00	 9.3396555193e-01	-1.2153777247e+00
 1.2716031813e+00	 9.0798215799e-01	-7.6890010014e-01
 1.2899935364e+00	 8.8165918928e-01	-3.3149495457e-01
 1.3078054863e+00	 8.5501523966e-01	 9.3221859042e-02
 1.3601177057e+00	 8.8921584922e-01	 1.5210686620e-01
 1.3780324560e+00	 8.6119193577e-01	 1.5516338221e-01
 1.3953302337e+00	 8.3287366320e-01	 1.9120983748e-01
 1.4120045915e+00	 8.0428106635e-01	 2.5756522540e-01
 1.4280499324e+00	 7.7543432380e-01	 3.5157456446e-01
 1.4434615111e+00	 7.4635371370e-01	 4.7060612052e-01
 1.4582354312e+00	 7.1705957009e-01	 6.1204762669e-01
 1.4723686411e+00	 6.8757223970e-01	 7.7330167301e-01
 1.4858589260e+00	 6.5791203964e-01	 9.5178044430e-01
 1.4987048992e+00	 6.2809921591e-01	 1.1448999870e+00
 1.5109059892e+00	 5.9815390303e-01	 1.2660238646e+00
 1.3548864838e+00	 8.8579578827e-01	 1.6196422667e-01
 1.3727323312e+00	 8.5787965909e-01	 1.6999443813e-01
 1.3899635790e+00	 8.2967030296e-01	 2.1027214303e-01
 1.4065738046e+00	 8.0118767764e-01	 2.8004443829e-01
 1.4225574327e+00	 7.7245188410e-01	 3.7658561729e-01
 1.4379097361e+00	 7.4348312250e-01	 4.9719483233e-01
 1.4526268334e+00	 7.1430164867e-01	 6.3919275005e-01
 1.4667056847e+00	 6.8492773109e-01	 7.9991736772e-01
 1.4801440840e+00	 6.5538160872e-01	 9.7671916464e-01
 1.4929406496e+00	 6.2568344969e-01	 1.1669557657e+00
 1.5050948123e+00	 5.9585331110e-01	 1.2817034907e+00
 1.3496552618e+00	 8.8237572731e-01	 1.6844425558e-01
 1.3674322063e+00	 8.5456738242e-01	 1.8167734743e-01
 1.3845969242e+00	 8.2646694272e-01	 2.2640538646e-01
 1.4011430177e+00	 7.9809428892e-01	 2.9980349041e-01
 1.4170649329e+00	 7.6946944439e-01	 3.9907520010e-01
 1.4323579610e+00	 7.4061253130e-01	 5.2145057971e-01
 1.4470182356e+00	 7.1154372725e-01	 6.6418330504e-01
 1.4610427284e+00	 6.8228322248e-01	 8.2454690345e-01
 1.4744292420e+00	 6.5285117780e-01	 9.9983031562e-01
 1.4871764000e+00	 6.2326768348e-01	 1.1817288404e+00
 1.4992836355e+00	 5.9355271917e-01	 1.2968297034e+00
 1.3444240399e+00	 8.7895566635e-01	 1.7150160868e-01
 1.3621320815e+00	 8.5125510575e-01	 1.9017008179e-01
 1.3792302695e+00	 8.2326358248e-01	 2.3957086416e-01
 1.3957122308e+00	 7.9500090021e-01	 3.1680700441e-01
 1.4115724332e+00	 7.6648700469e-01	 4.1901125601e-01
 1.4268061860e+00	 7.3774194009e-01	 5.4334461312e-01
 1.4414096378e+00	 7.0878580583e-01	 6.8699382906e-01
 1.4553797721e+00	 6.7963871387e-01	 8.4716807690e-01
 1.4687144000e+00	 6.5032074689e-01	 1.0210949185e+00
 1.4814121504e+00	 6.2085191727e-01	 1.1933283834e+00
 1.4934724586e+00	 5.9125212724e-01	 1.3114339432e+00
 1.3391928179e+00	 8.7553560540e-01	 1.7109076787e-01
 1.3568319567e+00	 8.4794282907e-01	 1.9543048054e-01
 1.3738636147e+00	 8.2006022224e-01	 2.4972978079e-01
 1.3902814439e+00	 7.9190751150e-01	 3.3101955078e-01
 1.4060799334e+00	 7.6350456498e-01	 4.3636171450e-01
 1.4212544109e+00	 7.3487134889e-01	 5.6284820683e-01
 1.4358010400e+00	 7.0602788440e-01	 7.0759891954e-01
 1.4497168158e+00	 6.7699420526e-01	 8.6775877984e-01
 1.4629995579e+00	 6.4779031597e-01	 1.0404941235e+00
 1.4756479008e+00	 6.1843615105e-01	 1.2041127109e+00
 1.4876612817e+00	 5.8895153530e-01	 1.3255478432e+00
 1.3339615960e+00	 8.7211554444e-01	 1.6716603782e-01
 1.3515318318e+00	 8.4463055240e-01	 1.9741624806e-01
 1.3684969600e+00	 8.1685686199e-01	 2.5684324741e-01
 1.3848506570e+00	 7.8881412278e-01	 3.4240564683e-01
 1.4005874337e+00	 7.6052212528e-01	 4.5109449119e-01
 1.4157026359e+00	 7.3200075768e-01	 5.7993265934e-01
 1.4301924422e+00	 7.0326996298e-01	 7.2597323515e-01
 1.4440538595e+00	 6.7434969664e-01	 8.8629700098e-01
 1.4572847159e+00	 6.4525988504e-01	 1.0580092118e+00
 1.4698836512e+00	 6.1602038484e-01	 1.2141131493e+00
 1.4818501048e+00	 5.8665094337e-01	 1.3392032323e+00
 1.3287303741e+00	 8.6869548349e-01	 1.5968154249e-01
 1.3462317070e+00	 8.4131827572e-01	 1.9608495116e-01
 1.3631303052e+00	 8.1365350175e-01	 2.6087227973e-01
 1.3794198701e+00	 7.8572073407e-01	 3.5092975562e-01
 1.3950949340e+00	 7.5753968557e-01	 4.6317748748e-01
 1.4101508608e+00	 7.2913016648e-01	 5.9456929390e-01
 1.4245838444e+00	 7.0051204156e-01	 7.4209149696e-01
 1.4383909032e+00	 6.7170518803e-01	 9.0276082784e-01
 1.4515698739e+00	 6.4272945412e-01	 1.0736215989e+00
 1.4641194015e+00	 6.1360461862e-01	 1.2233611928e+00
 1.4760389279e+00	 5.8435035143e-01	 1.3524321396e+00
 1.3234991521e+00	 8.6527542253e-01	 1.4859122150e-01
 1.3409315822e+00	 8.3800599905e-01	 1.9139401635e-01
 1.3577636505e+00	 8.1045014151e-01	 2.6177779612e-01
 1.3739890832e+00	 7.8262734535e-01	 3.5655628491e-01
 1.3896024342e+00	 7.5455724587e-01	 4.7257859036e-01
 1.4045990858e+00	 7.2625957527e-01	 6.0672945900e-01
 1.4189752465e+00	 6.9775412014e-01	 7.5592848972e-01
 1.4327279469e+00	 6.6906067941e-01	 9.1712844873e-01
 1.4458550319e+00	 6.4019902320e-01	 1.0873128366e+00
 1.4583551519e+00	 6.1118885241e-01	 1.2318885064e+00
 1.4702277511e+00	 5.8204975950e-01	 1.3652667976e+00
 1.3182679302e+00	 8.6185536157e-01	 1.3384882653e-01
 1.3356314573e+00	 8.3469372237e-01	 1.8330072703e-01
 1.3523969957e+00	 8.0724678127e-01	 2.5952061578e-01
 1.3685582963e+00	 7.7953395663e-01	 3.5924958603e-01
 1.3841099345e+00	 7.5157480616e-01	 4.7926567205e-01
 1.3990473107e+00	 7.2338898406e-01	 6.1638452884e-01
 1.4133666487e+00	 6.9499619871e-01	 7.6745906310e-01
 1.4270649906e+00	 6.6641617080e-01	 9.2937815478e-01
 1.4401401898e+00	 6.3766859228e-01	 1.0990646160e+00
 1.4525909023e+00	 6.0877308619e-01	 1.2397269294e+00
 1.4644165742e+00	 5.7974916756e-01	 1.3777396470e+00
 1.3130367082e+00	 8.5843530062e-01	 1.1540791756e-01
 1.3303313325e+00	 8.3138144570e-01	 1.7176222065e-01
 1.3470303410e+00	 8.0404342103e-01	 2.5406145669e-01
 1.3631275094e+00	 7.7644056792e-01	 3.5897395281e-01
 1.3786174347e+00	 7.4859236645e-01	 4.8320658977e-01
 1.3934955357e+00	 7.2051839286e-01	 6.2350590387e-01
 1.4077580509e+00	 6.9223827729e-01	 7.7665813297e-01
 1.4214020342e+00	 6.6377166218e-01	 9.3948834190e-01
 1.4344253478e+00	 6.3513816136e-01	 1.1088587704e+00
 1.4468266527e+00	 6.0635731998e-01	 1.2469084790e+00
 1.4586053973e+00	 5.7744857563e-01	 1.3898833404e+00
 1.3078054863e+00	 8.5501523966e-01	 9.3221859042e-02
 1.3250312077e+00	 8.2806916902e-01	 1.5673548583e-01
 1.3416636863e+00	 8.0084006078e-01	 2.4536093361e-01
 1.3576967225e+00	 7.7334717920e-01	 3.5569362037e-01
 1.3731249350e+00	 7.4560992674e-01	 4.8436918538e-01
 1.3879437607e+00	 7.1764780165e-01	 6.2806501130e-01
 1.4021494531e+00	 6.8948035586e-01	 7.8350068274e-01
 1.4157390779e+00	 6.6112715357e-01	 9.4743751298e-01
 1.4287105058e+00	 6.3260773043e-01	 1.1166772777e+00
 1.4410624031e+00	 6.0394155376e-01	 1.2534653537e+00
 1.4527942204e+00	 5.7514798369e-01	 1.4017307466e+00
 1.5109059892e+00	 5.9815390303e-01	 1.2660238646e+00
 1.5224624259e+00	 5.6809608500e-01	 1.4810639698e+00
 1.5333752239e+00	 5.3794555745e-01	 1.6965414063e+00
 1.5436461644e+00	 5.0772189143e-01	 1.9070772557e+00
 1.5532777749e+00	 4.7744439878e-01	 2.1077648433e+00
 1.5622733071e+00	 4.4713209913e-01	 2.2941970016e+00
 1.5706367133e+00	 4.1680368873e-01	 2.4624879150e+00
 1.5783726218e+00	 3.8647751120e-01	 2.6092895692e+00
 1.5854863106e+00	 3.5617153006e-01	 2.7318028814e+00
 1.5919836798e+00	 3.2590330336e-01	 2.8277836495e+00
 1.5978712237e+00	 2.9568996018e-01	 2.8955435006e+00
 1.5050948123e+00	 5.9585331110e-01	 1.2817034907e+00
 1.5166068012e+00	 5.6591110006e-01	 1.4969261641e+00
 1.5274776269e+00	 5.3587653607e-01	 1.7120419055e+00
 1.5377090638e+00	 5.0576911493e-01	 1.9217658409e+00
 1.5473036296e+00	 4.7560807417e-01	 2.1212808405e+00
 1.5562645636e+00	 4.4541236028e-01	 2.3062643061e+00
 1.5645958028e+00	 4.1520059762e-01	 2.4729096058e+00
 1.5723019579e+00	 3.8499105923e-01	 2.6179421756e+00
 1.5793882864e+00	 3.5480163956e-01	 2.7386303689e+00
 1.5858606657e+00	 3.2464982911e-01	 2.8327911867e+00
 1.5917255651e+00	 2.9455269110e-01	 2.8987910723e+00
 1.4992836355e+00	 5.9355271917e-01	 1.2968297034e+00
 1.5107511764e+00	 5.6372611512e-01	 1.5124228685e+00
 1.5215800299e+00	 5.3380751470e-01	 1.7273555169e+00
 1.5317719632e+00	 5.0381633842e-01	 1.9364357706e+00
 1.5413294844e+00	 4.7377174956e-01	 2.1349350731e+00
 1.5502558201e+00	 4.4369262144e-01	 2.3186145064e+00
 1.5585548924e+00	 4.1359750651e-01	 2.4837458159e+00
 1.5662312940e+00	 3.8350460727e-01	 2.6271271686e+00
 1.5732902621e+00	 3.5343174906e-01	 2.7460937217e+00
 1.5797376515e+00	 3.2339635486e-01	 2.8385231363e+00
 1.5855799066e+00	 2.9341542202e-01	 2.9028362168e+00
 1.4934724586e+00	 5.9125212724e-01	 1.3114339432e+00
 1.5048955517e+00	 5.6154113018e-01	 1.5275844500e+00
 1.5156824328e+00	 5.3173849332e-01	 1.7425115186e+00
 1.5258348625e+00	 5.0186356192e-01	 1.9511152234e+00
 1.5353553391e+00	 4.7193542495e-01	 2.1487546162e+00
 1.5442470766e+00	 4.4197288260e-01	 2.3312735735e+00
 1.5525139820e+00	 4.1199441540e-01	 2.4950214175e+00
 1.5601606301e+00	 3.8201815530e-01	 2.6368683307e+00
 1.5671922378e+00	 3.5206185856e-01	 2.7542156465e+00
 1.5736146374e+00	 3.2214288062e-01	 2.8450011466e+00
 1.5794342480e+00	 2.9227815294e-01	 2.9076995452e+00
 1.4876612817e+00	 5.8895153530e-01	 1.3255478432e+00
 1.4990399270e+00	 5.5935614524e-01	 1.5424414749e+00
 1.5097848358e+00	 5.2966947195e-01	 1.7575393939e+00
 1.5198977619e+00	 4.9991078541e-01	 1.9658325891e+00
 1.5293811938e+00	 4.7009910034e-01	 2.1627667597e+00
 1.5382383331e+00	 4.4025314375e-01	 2.3442676975e+00
 1.5464730715e+00	 4.1039132429e-01	 2.5067615046e+00
 1.5540899661e+00	 3.8053170333e-01	 2.6471896686e+00
 1.5610942136e+00	 3.5069196805e-01	 2.7630190756e+00
 1.5674916232e+00	 3.2088940637e-01	 2.8522470920e+00
 1.5732885895e+00	 2.9114088386e-01	 2.9134018944e+00
 1.4818501048e+00	 5.8665094337e-01	 1.3392032323e+00
 1.4931843023e+00	 5.5717116029e-01	 1.5570247127e+00
 1.5038872388e+00	 5.2760045057e-01	 1.7724688354e+00
 1.5139606613e+00	 4.9795800891e-01	 1.9806164719e+00
 1.5234070485e+00	 4.6826277573e-01	 2.1769990133e+00
 1.5322295896e+00	 4.3853340491e-01	 2.3576232916e+00
 1.5404321611e+00	 4.0878823318e-01	 2.5189913976e+00
 1.5480193022e+00	 3.7904525136e-01	 2.6581154175e+00
 1.5549961893e+00	 3.4932207755e-01	 2.7725271709e+00
 1.5613686091e+00	 3.1963593213e-01	 2.8602830772e+00
 1.5671429309e+00	 2.9000361478e-01	 2.9199643317e+00
 1.4760389279e+00	 5.8435035143e-01	 1.3524321396e+00
 1.4873286776e+00	 5.5498617535e-01	 1.5713651398e+00
 1.4979896418e+00	 5.2553142920e-01	 1.7873297493e+00
 1.5080235606e+00	 4.9600523240e-01	 1.9954956951e+00
 1.5174329032e+00	 4.6642645112e-01	 2.1914791100e+00
 1.5262208461e+00	 4.3681366607e-01	 2.3713669966e+00
 1.5343912507e+00	 4.0718514206e-01	 2.5317366473e+00
 1.5419486383e+00	 3.7755879940e-01	 2.6696700455e+00
 1.5488981650e+00	 3.4795218705e-01	 2.7827633289e+00
 1.5552455949e+00	 3.1838245788e-01	 2.8691314424e+00
 1.5609972724e+00	 2.8886634570e-01	 2.9274081596e+00
 1.4702277511e+00	 5.8204975950e-01	 1.3652667976e+00
 1.4814730529e+00	 5.5280119041e-01	 1.5854939439e+00
 1.4920920448e+00	 5.2346240782e-01	 1.8021522595e+00
 1.5020864600e+00	 4.9405245589e-01	 2.0104993053e+00
 1.5114587579e+00	 4.6459012651e-01	 2.2062350113e+00
 1.5202121026e+00	 4.3509392722e-01	 2.3855256855e+00
 1.5283503402e+00	 4.0558205095e-01	 2.5450230399e+00
 1.5358779743e+00	 3.7607234743e-01	 2.6818782582e+00
 1.5428001407e+00	 3.4658229655e-01	 2.7937511851e+00
 1.5491225808e+00	 3.1712898363e-01	 2.8788147672e+00
 1.5548516138e+00	 2.8772907662e-01	 2.9357549199e+00
 1.4644165742e+00	 5.7974916756e-01	 1.3777396470e+00
 1.4756174282e+00	 5.5061620547e-01	 1.5994425279e+00
 1.4861944478e+00	 5.2139338645e-01	 1.8169667115e+00
 1.4961493594e+00	 4.9209967939e-01	 2.0256565768e+00
 1.5054846126e+00	 4.6275380189e-01	 2.2212949110e+00
 1.5142033592e+00	 4.3337418838e-01	 2.4001264678e+00
 1.5223094298e+00	 4.0397895984e-01	 2.5588766017e+00
 1.5298073104e+00	 3.7458589546e-01	 2.6947650035e+00
 1.5367021165e+00	 3.4521240605e-01	 2.8055146187e+00
 1.5429995666e+00	 3.1587550939e-01	 2.8893558758e+00
 1.5487059553e+00	 2.8659180754e-01	 2.9450263989e+00
 1.4586053973e+00	 5.7744857563e-01	 1.3898833404e+00
 1.4697618034e+00	 5.4843122052e-01	 1.6132425145e+00
 1.4802968508e+00	 5.1932436507e-01	 1.8318036778e+00
 1.4902122588e+00	 4.9014690288e-01	 2.0409970164e+00
 1.4995104673e+00	 4.6091747728e-01	 2.2366872404e+00
 1.5081946157e+00	 4.3165444953e-01	 2.4151966946e+00
 1.5162685194e+00	 4.0237586873e-01	 2.5733236032e+00
 1.5237366465e+00	 3.7309944349e-01	 2.7083554763e+00
 1.5306040922e+00	 3.4384251554e-01	 2.8180777576e+00
 1.5368765525e+00	 3.1462203514e-01	 2.9007778416e+00
 1.5425602967e+00	 2.8545453846e-01	 2.9552446323e+00
 1.4527942204e+00	 5.7514798369e-01	 1.4017307466e+00
 1.4639061787e+00	 5.4624623558e-01	 1.6269257503e+00
 1.4743992537e+00	 5.1725534370e-01	 1.8466939613e+00
 1.4842751581e+00	 4.8819412637e-01	 2.0565503675e+00
 1.4935363221e+00	 4.5908115267e-01	 2.2524406729e+00
 1.5021858722e+00	 4.2993471069e-01	 2.4307639633e+00
 1.5102276089e+00	 4.0077277762e-01	 2.5883905649e+00
 1.5176659825e+00	 3.7161299152e-01	 2.7226751236e+00
 1.5245060679e+00	 3.4247262504e-01	 2.8314649833e+00
 1.5307535383e+00	 3.1336856090e-01	 2.9131039926e+00
 1.5364146382e+00	 2.8431726938e-01	 2.9664319096e+00
 1.5978712237e+00	 2.9568996018e-01	 2.8955435006e+00
 1.6031560013e+00	 2.6554817929e-01	 3.0206429398e+00
 1.6078456070e+00	 2.3549416968e-01	 3.1341441758e+00
 1.6119481402e+00	 2.0554365323e-01	 3.2346245514e+00
 1.6154721743e+00	 1.7571184935e-01	 3.3211691083e+00
 1.6184267265e+00	 1.4601346159e-01	 3.3933559682e+00
 1.6208212262e+00	 1.1646266625e-01	 3.4512383264e+00
 1.6226654846e+00	 8.7073102826e-02	 3.4953234180e+00
 1.6239696633e+00	 5.7857866443e-02	 3.5265488265e+00
 1.6247442444e+00	 2.8829501977e-02	 3.5462565050e+00
 1.6250000000e+00	 0.0000000000e+00	 3.5561648833e+00
 1.5917255651e+00	 2.9455269110e-01	 2.8987910723e+00
 1.5969900167e+00	 2.6452684013e-01	 3.0253172524e+00
 1.6016615855e+00	 2.3458842287e-01	 3.1397545457e+00
 1.6057483396e+00	 2.0475310071e-01	 3.2407342983e+00
 1.6092588198e+00	 1.7503603454e-01	 3.3273906664e+00
 1.6122020083e+00	 1.4545187135e-01	 3.3993459730e+00
 1.6145872984e+00	 1.1601473291e-01	 3.4566927205e+00
 1.6164244635e+00	 8.6738206275e-02	 3.4999726182e+00
 1.6177236261e+00	 5.7635336186e-02	 3.5301529875e+00
 1.6184952281e+00	 2.8718619276e-02	 3.5486009161e+00
 1.6187500000e+00	 0.0000000000e+00	 3.5570555263e+00
 1.5855799066e+00	 2.9341542202e-01	 2.9028362168e+00
 1.5908240321e+00	 2.6350550098e-01	 3.0308336225e+00
 1.5954775639e+00	 2.3368267606e-01	 3.1462306497e+00
 1.5995485391e+00	 2.0396254820e-01	 3.2477125696e+00
 1.6030454653e+00	 1.7436021973e-01	 3.3344626658e+00
 1.6059772901e+00	 1.4489028112e-01	 3.4061475632e+00
 1.6083533706e+00	 1.1556679958e-01	 3.4628992566e+00
 1.6101834424e+00	 8.6403309723e-02	 3.5052941945e+00
 1.6114775890e+00	 5.7412805929e-02	 3.5343297782e+00
 1.6122462118e+00	 2.8607736576e-02	 3.5513986433e+00
 1.6125000000e+00	 0.0000000000e+00	 3.5582610845e+00
 1.5794342480e+00	 2.9227815294e-01	 2.9076995452e+00
 1.5846580474e+00	 2.6248416183e-01	 3.0372114974e+00
 1.5892935423e+00	 2.3277692925e-01	 3.1535907430e+00
 1.5933487386e+00	 2.0317199568e-01	 3.2555764042e+00
 1.5968321108e+00	 1.7368440493e-01	 3.3424009087e+00
 1.5997525720e+00	 1.4432869088e-01	 3.4137752876e+00
 1.6021194428e+00	 1.1511886624e-01	 3.4698712165e+00
 1.6039424213e+00	 8.6068413172e-02	 3.5113001518e+00
 1.6052315518e+00	 5.7190275671e-02	 3.5390899191e+00
 1.6059971955e+00	 2.8496853875e-02	 3.5546591176e+00
 1.6062500000e+00	 0.0000000000e+00	 3.5597896975e+00
 1.5732885895e+00	 2.9114088386e-01	 2.9134018944e+00
 1.5784920628e+00	 2.6146282267e-01	 3.0444705472e+00
 1.5831095208e+00	 2.3187118244e-01	 3.1618532990e+00
 1.5871489380e+00	 2.0238144317e-01	 3.2643430528e+00
 1.5906187563e+00	 1.7300859012e-01	 3.3512214012e+00
 1.5935278538e+00	 1.4376710064e-01	 3.4222438896e+00
 1.5958855151e+00	 1.1467093291e-01	 3.4776220660e+00
 1.5977014002e+00	 8.5733516621e-02	 3.5180026664e+00
 1.5989855146e+00	 5.6967745414e-02	 3.5444442883e+00
 1.5997481791e+00	 2.8385971174e-02	 3.5583919133e+00
 1.6000000000e+00	 0.0000000000e+00	 3.5616496322e+00
 1.5671429309e+00	 2.9000361478e-01	 2.9199643317e+00
 1.5723260782e+00	 2.6044148352e-01	 3.0526306690e+00
 1.5769254992e+00	 2.3096543563e-01	 3.1710370130e+00
 1.5809491375e+00	 2.0159089065e-01	 3.2740299818e+00
 1.5844054017e+00	 1.7233277531e-01	 3.3609403574e+00
 1.5873031356e+00	 1.4320551040e-01	 3.4315683108e+00
 1.5896515873e+00	 1.1422299958e-01	 3.4861654581e+00
 1.5914603791e+00	 8.5398620069e-02	 3.5254140896e+00
 1.5927394775e+00	 5.6745215157e-02	 3.5504039254e+00
 1.5934991628e+00	 2.8275088474e-02	 3.5626067507e+00
 1.5937500000e+00	 0.0000000000e+00	 3.5638492849e+00
 1.5609972724e+00	 2.8886634570e-01	 2.9274081596e+00
 1.5661600936e+00	 2.5942014436e-01	 3.0617119917e+00
 1.5707414776e+00	 2.3005968882e-01	 3.1811608073e+00
 1.5747493369e+00	 2.0080033814e-01	 3.2846548779e+00
 1.5781920472e+00	 1.7165696050e-01	 3.3715742029e+00
 1.5810784174e+00	 1.4264392016e-01	 3.4417636949e+00
 1.5834176595e+00	 1.1377506624e-01	 3.4955152365e+00
 1.5852193580e+00	 8.5063723518e-02	 3.5335469509e+00
 1.5864934403e+00	 5.6522684900e-02	 3.5569800339e+00
 1.5872501465e+00	 2.8164205773e-02	 3.5673134991e+00
 1.5875000000e+00	 0.0000000000e+00	 3.5663971844e+00
 1.5548516138e+00	 2.8772907662e-01	 2.9357549199e+00
 1.5599941090e+00	 2.5839880521e-01	 3.0717348804e+00
 1.5645574561e+00	 2.2915394201e-01	 3.1922438351e+00
 1.5685495364e+00	 2.0000978562e-01	 3.2962356517e+00
 1.5719786927e+00	 1.7098114569e-01	 3.3831395797e+00
 1.5748536992e+00	 1.4208232992e-01	 3.4528453920e+00
 1.5771837317e+00	 1.1332713291e-01	 3.5056854401e+00
 1.5789783369e+00	 8.4728826966e-02	 3.5424139617e+00
 1.5802474031e+00	 5.6300154643e-02	 3.5641839853e+00
 1.5810011302e+00	 2.8053323072e-02	 3.5725221795e+00
 1.5812500000e+00	 0.0000000000e+00	 3.5693019944e+00
 1.5487059553e+00	 2.8659180754e-01	 2.9450263989e+00
 1.5538281243e+00	 2.5737746606e-01	 3.0827199411e+00
 1.5583734345e+00	 2.2824819520e-01	 3.2043054856e+00
 1.5623497359e+00	 1.9921923310e-01	 3.3087904433e+00
 1.5657653382e+00	 1.7030533088e-01	 3.3956533500e+00
 1.5686289811e+00	 1.4152073968e-01	 3.4648289621e+00
 1.5709498039e+00	 1.1287919957e-01	 3.5166903061e+00
 1.5727373158e+00	 8.4393930415e-02	 3.5520280189e+00
 1.5740013660e+00	 5.6077624386e-02	 3.5720273214e+00
 1.5747521138e+00	 2.7942440372e-02	 3.5782429678e+00
 1.5750000000e+00	 0.0000000000e+00	 3.5725725157e+00
 1.5425602967e+00	 2.8545453846e-01	 2.9552446323e+00
 1.5476621397e+00	 2.5635612690e-01	 3.0946880253e+00
 1.5521894130e+00	 2.2734244839e-01	 3.2173653882e+00
 1.5561499353e+00	 1.9842868059e-01	 3.3223376257e+00
 1.5595519837e+00	 1.6962951608e-01	 3.4091326008e+00
 1.5624042629e+00	 1.4095914944e-01	 3.4777301800e+00
 1.5647158761e+00	 1.1243126624e-01	 3.5285442742e+00
 1.5664962947e+00	 8.4059033864e-02	 3.5624022085e+00
 1.5677553288e+00	 5.5855094129e-02	 3.5805217587e+00
 1.5685030975e+00	 2.7831557671e-02	 3.5844861979e+00
 1.5687500000e+00	 0.0000000000e+00	 3.5762176898e+00
 1.5364146382e+00	 2.8431726938e-01	 2.9664319096e+00
 1.5414961551e+00	 2.5533478775e-01	 3.1076602354e+00
 1.5460053914e+00	 2.2643670158e-01	 3.2314434176e+00
 1.5499501348e+00	 1.9763812807e-01	 3.3368958103e+00
 1.5533386292e+00	 1.6895370127e-01	 3.4235946482e+00
 1.5561795447e+00	 1.4039755920e-01	 3.4915650389e+00
 1.5584819483e+00	 1.1198333291e-01	 3.5412619911e+00
 1.5602552736e+00	 8.3724137312e-02	 3.5735498094e+00
 1.5615092916e+00	 5.5632563872e-02	 3.5896791914e+00
 1.5622540812e+00	 2.7720674970e-02	 3.5912623648e+00
 1.5625000000e+00	 0.0000000000e+00	 3.5802466010e+00
 0.0000000000e+00	 1.5625000000e+00	-4.8951412568e-01
 2.7720674970e-02	 1.5622540812e+00	-5.2531245162e-01
 5.5632563872e-02	 1.5615092916e+00	-5.6285694100e-01
 8.3724137312e-02	 1.5602552736e+00	-5.9960381371e-01
 1.1198333291e-01	 1.5584819483e+00	-6.3314747971e-01
 1.4039755920e-01	 1.5561795447e+00	-6.6123874669e-01
 1.6895370127e-01	 1.5533386292e+00	-6.8180241528e-01
 1.9763812807e-01	 1.5499501348e+00	-6.9295406600e-01
 2.2643670158e-01	 1.5460053914e+00	-6.9301583811e-01
 2.5533478775e-01	 1.5414961551e+00	-6.8053099995e-01
 2.8431726938e-01	 1.5364146382e+00	-6.5427711159e-01
 0.0000000000e+00	 1.5562500000e+00	-4.8809282482e-01
 2.7609792269e-02	 1.5560050649e+00	-5.2932676882e-01
 5.5410033615e-02	 1.5552632545e+00	-5.7154162500e-01
 8.3389240761e-02	 1.5540142525e+00	-6.1217446202e-01
 1.1153539957e-01	 1.5522480205e+00	-6.4879994128e-01
 1.3983596896e-01	 1.5499548265e+00	-6.7914854842e-01
 1.6827788646e-01	 1.5471252746e+00	-7.0112422636e-01
 1.9684757556e-01	 1.5437503343e+00	-7.1282121483e-01
 2.2553095477e-01	 1.5398213698e+00	-7.1253989791e-01
 2.5431344859e-01	 1.5353301705e+00	-6.9880146010e-01
 2.8318000030e-01	 1.5302689796e+00	-6.7036115276e-01
 0.0000000000e+00	 1.5500000000e+00	-4.8754527642e-01
 2.7498909569e-02	 1.5497560485e+00	-5.3432326781e-01
 5.5187503359e-02	 1.5490172173e+00	-5.8130008782e-01
 8.3054344210e-02	 1.5477732314e+00	-6.2589323523e-01
 1.1108746624e-01	 1.5460140927e+00	-6.6565725184e-01
 1.3927437872e-01	 1.5437301084e+00	-6.9830198150e-01
 1.6760207165e-01	 1.5409119201e+00	-7.2171024409e-01
 1.9605702304e-01	 1.5375505337e+00	-7.3395473085e-01
 2.2462520796e-01	 1.5336373483e+00	-7.3331392356e-01
 2.5329210944e-01	 1.5291641859e+00	-7.1828683903e-01
 2.8204273122e-01	 1.5241233211e+00	-6.8760640173e-01
 0.0000000000e+00	 1.5437500000e+00	-4.8787567294e-01
 2.7388026869e-02	 1.5435070322e+00	-5.4030706441e-01
 5.4964973103e-02	 1.5427711801e+00	-5.9213830225e-01
 8.2719447660e-02	 1.5415322103e+00	-6.4076689357e-01
 1.1063953290e-01	 1.5397801649e+00	-6.8372688650e-01
 1.3871278848e-01	 1.5375053902e+00	-7.1870716013e-01
 1.6692625685e-01	 1.5346985656e+00	-7.4356914278e-01
 1.9526647053e-01	 1.5313507332e+00	-7.5636376633e-01
 2.2371946115e-01	 1.5274533267e+00	-7.5534745987e-01
 2.5227077029e-01	 1.5229982012e+00	-7.3899698548e-01
 2.8090546214e-01	 1.5179776625e+00	-7.0602291931e-01
 0.0000000000e+00	 1.5375000000e+00	-4.8908827506e-01
 2.7277144169e-02	 1.5372580159e+00	-5.4728335381e-01
 5.4742442847e-02	 1.5365251430e+00	-6.0406232976e-01
 8.2384551110e-02	 1.5352911892e+00	-6.5680229342e-01
 1.1019159957e-01	 1.5335462371e+00	-7.0301642198e-01
 1.3815119824e-01	 1.5312806720e+00	-7.4037230357e-01
 1.6625044204e-01	 1.5284852111e+00	-7.6670970324e-01
 1.9447591802e-01	 1.5251509326e+00	-7.8005757930e-01
 2.2281371435e-01	 1.5212693051e+00	-7.7865015459e-01
 2.5124943114e-01	 1.5168322166e+00	-7.6094184604e-01
 2.7976819306e-01	 1.5118320039e+00	-7.2562085691e-01
 0.0000000000e+00	 1.5312500000e+00	-4.9118741298e-01
 2.7166261469e-02	 1.5310089996e+00	-5.5525741221e-01
 5.4519912591e-02	 1.5302791058e+00	-6.1707832237e-01
 8.2049654561e-02	 1.5290501681e+00	-6.7400638928e-01
 1.0974366624e-01	 1.5273123093e+00	-7.2353353869e-01
 1.3758960801e-01	 1.5250559538e+00	-7.6330573831e-01
 1.6557462724e-01	 1.5222718566e+00	-7.9114081488e-01
 1.9368536550e-01	 1.5189511321e+00	-8.0504553570e-01
 2.2190796754e-01	 1.5150852836e+00	-8.0323176041e-01
 2.5022809198e-01	 1.5106662320e+00	-7.8413146716e-01
 2.7863092398e-01	 1.5056863454e+00	-7.4641045839e-01
 0.0000000000e+00	 1.5250000000e+00	-4.9417748791e-01
 2.7055378769e-02	 1.5247599832e+00	-5.6423459844e-01
 5.4297382336e-02	 1.5240330686e+00	-6.3119252448e-01
 8.1714758012e-02	 1.5228091470e+00	-6.9238623578e-01
 1.0929573291e-01	 1.5210783815e+00	-7.4528602285e-01
 1.3702801777e-01	 1.5188312356e+00	-7.8751590025e-01
 1.6489881243e-01	 1.5160585021e+00	-8.1687147800e-01
 1.9289481299e-01	 1.5127513316e+00	-8.3133711160e-01
 2.2100222073e-01	 1.5089012620e+00	-8.2910213719e-01
 2.4920675283e-01	 1.5045002474e+00	-8.0857599720e-01
 2.7749365491e-01	 1.4995406868e+00	-7.6840206198e-01
 0.0000000000e+00	 1.5187500000e+00	-4.9806297350e-01
 2.6944496070e-02	 1.5185109669e+00	-5.7422035571e-01
 5.4074852081e-02	 1.5177870315e+00	-6.4641127477e-01
 8.1379861464e-02	 1.5165681259e+00	-7.1194898974e-01
 1.0884779958e-01	 1.5148444537e+00	-7.6828176870e-01
 1.3646642753e-01	 1.5126065175e+00	-8.1301133694e-01
 1.6422299763e-01	 1.5098451475e+00	-8.4391080603e-01
 1.9210426048e-01	 1.5065515310e+00	-8.5894189542e-01
 2.2009647393e-01	 1.5027172404e+00	-8.5627125416e-01
 2.4818541368e-01	 1.4983342627e+00	-8.3428568852e-01
 2.7635638583e-01	 1.4933950283e+00	-7.9160610219e-01
 0.0000000000e+00	 1.5125000000e+00	-5.0284841734e-01
 2.6833613370e-02	 1.5122619506e+00	-5.8522021330e-01
 5.3852321827e-02	 1.5115409943e+00	-6.6274100817e-01
 8.1044964916e-02	 1.5103271049e+00	-7.3270191225e-01
 1.0839986625e-01	 1.5086105259e+00	-7.9252878068e-01
 1.3590483730e-01	 1.5063817993e+00	-8.3980070992e-01
 1.6354718282e-01	 1.5036317930e+00	-8.7226802787e-01
 1.9131370797e-01	 1.5003517305e+00	-8.8786959034e-01
 2.1919072712e-01	 1.4965332189e+00	-8.8474919212e-01
 2.4716407453e-01	 1.4921682781e+00	-8.6127089960e-01
 2.7521911675e-01	 1.4872493697e+00	-8.1603311184e-01
 0.0000000000e+00	 1.5062500000e+00	-5.0853844251e-01
 2.6722730671e-02	 1.5060129343e+00	-5.9723978841e-01
 5.3629791572e-02	 1.5052949571e+00	-6.8018825784e-01
 8.0710068368e-02	 1.5040860838e+00	-7.5465237089e-01
 1.0795193292e-01	 1.5023765982e+00	-8.1803517577e-01
 1.3534324706e-01	 1.5001570811e+00	-8.6789279706e-01
 1.6287136802e-01	 1.4974184385e+00	-9.0195249033e-01
 1.9052315546e-01	 1.4941519299e+00	-9.1813001659e-01
 2.1828498032e-01	 1.4903491973e+00	-9.1454614584e-01
 2.4614273539e-01	 1.4860022935e+00	-8.8954209730e-01
 2.7408184768e-01	 1.4811037112e+00	-8.4169372405e-01
 0.0000000000e+00	 1.5000000000e+00	-5.1513774913e-01
 2.6611847972e-02	 1.4997639179e+00	-6.1028478791e-01
 5.3407261319e-02	 1.4990489200e+00	-6.9875965720e-01
 8.0375171821e-02	 1.4978450627e+00	-7.7780784191e-01
 1.0750399959e-01	 1.4961426704e+00	-8.4480918578e-01
 1.3478165683e-01	 1.4939323629e+00	-8.9729649498e-01
 1.6219555322e-01	 1.4912050840e+00	-9.3297366052e-01
 1.8973260295e-01	 1.4879521294e+00	-9.4973311394e-01
 2.1737923352e-01	 1.4841651757e+00	-9.4567242634e-01
 2.4512139624e-01	 1.4798363089e+00	-9.1910985908e-01
 2.7294457860e-01	 1.4749580526e+00	-8.6859867437e-01
 2.8431726938e-01	 1.5364146382e+00	-6.5427711159e-01
 3.1336857781e-01	 1.5307535316e+00	-7.6587919124e-01
 3.4247269338e-01	 1.5245060407e+00	-8.6778030404e-01
 3.7161314678e-01	 1.5176659207e+00	-9.6089569119e-01
 4.0077305628e-01	 1.5102274981e+00	-1.0464294119e+00
 4.2993515020e-01	 1.5021856977e+00	-1.1258726323e+00
 4.5908179139e-01	 1.4935360687e+00	-1.2009992139e+00
 4.8819500358e-01	 1.4842748105e+00	-1.2738585138e+00
 5.1725649951e-01	 1.4743987959e+00	-1.3467653382e+00
 5.4624771097e-01	 1.4639055946e+00	-1.4222870212e+00
 5.7514982041e-01	 1.4527934933e+00	-1.5032276300e+00
 2.8318000030e-01	 1.5302689796e+00	-6.7036115276e-01
 3.1211510350e-01	 1.5246305174e+00	-7.7506562424e-01
 3.4110280260e-01	 1.5184080165e+00	-8.7165991176e-01
 3.7012669419e-01	 1.5115952570e+00	-9.6106758022e-01
 3.9916996405e-01	 1.5041865881e+00	-1.0444930752e+00
 4.2821540959e-01	 1.4961769549e+00	-1.1234198150e+00
 4.5724546422e-01	 1.4875619244e+00	-1.1996056292e+00
 4.8624222356e-01	 1.4783377112e+00	-1.2750754592e+00
 5.1518747351e-01	 1.4685012008e+00	-1.3521112649e+00
 5.4406272013e-01	 1.4580499722e+00	-1.4332391104e+00
 5.7284922113e-01	 1.4469823193e+00	-1.5212134351e+00
 2.8204273122e-01	 1.5241233211e+00	-6.8760640173e-01
 3.1086162918e-01	 1.5185075033e+00	-7.8535088685e-01
 3.3973291182e-01	 1.5123099923e+00	-8.7657846092e-01
 3.6864024160e-01	 1.5055245934e+00	-9.6222150726e-01
 3.9756687182e-01	 1.4981456781e+00	-1.0434853820e+00
 4.2649566899e-01	 1.4901682121e+00	-1.1218463078e+00
 4.5540913706e-01	 1.4815877802e+00	-1.1990466605e+00
 4.8428944354e-01	 1.4724006120e+00	-1.2770875674e+00
 5.1311844751e-01	 1.4626036056e+00	-1.3582187649e+00
 5.4187772928e-01	 1.4521943498e+00	-1.4449256889e+00
 5.7054862184e-01	 1.4411711453e+00	-1.5399138065e+00
 2.8090546214e-01	 1.5179776625e+00	-7.0602291931e-01
 3.0960815487e-01	 1.5123844892e+00	-7.9674527769e-01
 3.3836302105e-01	 1.5062119682e+00	-8.8254664467e-01
 3.6715378901e-01	 1.4994539297e+00	-9.6436871721e-01
 3.9596377960e-01	 1.4921047682e+00	-1.0434182864e+00
 4.2477592839e-01	 1.4841594693e+00	-1.1211649310e+00
 4.5357280989e-01	 1.4756136359e+00	-1.1993361504e+00
 4.8233666353e-01	 1.4664635127e+00	-1.2799098586e+00
 5.1104942152e-01	 1.4567060104e+00	-1.3651041893e+00
 5.3969273844e-01	 1.4463387274e+00	-1.4573645890e+00
 5.6824802256e-01	 1.4353599714e+00	-1.5593482063e+00
 2.7976819306e-01	 1.5118320039e+00	-7.2562085691e-01
 3.0835468056e-01	 1.5062614750e+00	-8.0925917849e-01
 3.3699313028e-01	 1.5001139440e+00	-8.8957523357e-01
 3.6566733643e-01	 1.4933832660e+00	-9.6752052870e-01
 3.9436068737e-01	 1.4860638582e+00	-1.0443038144e+00
 4.2305618779e-01	 1.4781507265e+00	-1.1213885772e+00
 4.5173648272e-01	 1.4696394916e+00	-1.2004880162e+00
 4.8038388351e-01	 1.4605264135e+00	-1.2835574315e+00
 5.0898039552e-01	 1.4508084152e+00	-1.3727839740e+00
 5.3750774759e-01	 1.4404831051e+00	-1.4705737369e+00
 5.6594742328e-01	 1.4295487974e+00	-1.5795362012e+00
 2.7863092398e-01	 1.5056863454e+00	-7.4641045839e-01
 3.0710120625e-01	 1.5001384609e+00	-8.2290305573e-01
 3.3562323950e-01	 1.4940159198e+00	-8.9767507724e-01
 3.6418088384e-01	 1.4873126023e+00	-9.7168833557e-01
 3.9275759515e-01	 1.4800229482e+00	-1.0461540655e+00
 4.2133644719e-01	 1.4721419837e+00	-1.1225302123e+00
 4.4990015556e-01	 1.4636653473e+00	-1.2025162511e+00
 4.7843110350e-01	 1.4545893143e+00	-1.2880454658e+00
 5.0691136952e-01	 1.4449108200e+00	-1.3812746418e+00
 5.3532275675e-01	 1.4346274827e+00	-1.4845711542e+00
 5.6364682400e-01	 1.4237376234e+00	-1.6004974638e+00
 2.7749365491e-01	 1.4995406868e+00	-7.6840206198e-01
 3.0584773194e-01	 1.4940154468e+00	-8.3768746244e-01
 3.3425334873e-01	 1.4879178957e+00	-9.0685710591e-01
 3.6269443125e-01	 1.4812419386e+00	-9.7688360845e-01
 3.9115450292e-01	 1.4739820382e+00	-1.0489812141e+00
 4.1961670659e-01	 1.4661332409e+00	-1.1246028778e+00
 4.4806382839e-01	 1.4576912031e+00	-1.2054349258e+00
 4.7647832348e-01	 1.4486522150e+00	-1.2933892227e+00
 5.0484234352e-01	 1.4390132248e+00	-1.3905928046e+00
 5.3313776590e-01	 1.4287718603e+00	-1.4993749601e+00
 5.6134622472e-01	 1.4179264494e+00	-1.6222517755e+00
 2.7635638583e-01	 1.4933950283e+00	-7.9160610219e-01
 3.0459425763e-01	 1.4878924327e+00	-8.5362303993e-01
 3.3288345795e-01	 1.4818198715e+00	-9.1713233214e-01
 3.6120797866e-01	 1.4751712749e+00	-9.8311789632e-01
 3.8955141070e-01	 1.4679411282e+00	-1.0527975110e+00
 4.1789696599e-01	 1.4601244981e+00	-1.1276196918e+00
 4.4622750123e-01	 1.4517170588e+00	-1.2092581903e+00
 4.7452554347e-01	 1.4427151158e+00	-1.2996040475e+00
 5.0277331752e-01	 1.4331156297e+00	-1.4007551643e+00
 5.3095277506e-01	 1.4229162379e+00	-1.5150033733e+00
 5.5904562544e-01	 1.4121152755e+00	-1.6448190286e+00
 2.7521911675e-01	 1.4872493697e+00	-8.1603311184e-01
 3.0334078332e-01	 1.4817694185e+00	-8.7072051966e-01
 3.3151356718e-01	 1.4757218473e+00	-9.2851185250e-01
 3.5972152608e-01	 1.4691006112e+00	-9.9040282814e-01
 3.8794831847e-01	 1.4619002182e+00	-1.0576152852e+00
 4.1617722538e-01	 1.4541157553e+00	-1.1315938507e+00
 4.4439117406e-01	 1.4457429145e+00	-1.2140002752e+00
 4.7257276346e-01	 1.4367780165e+00	-1.3067053708e+00
 5.0070429153e-01	 1.4272180345e+00	-1.4117785157e+00
 5.2876778422e-01	 1.4170606155e+00	-1.5314747142e+00
 5.5674502616e-01	 1.4063041015e+00	-1.6682192282e+00
 2.7408184768e-01	 1.4811037112e+00	-8.4169372405e-01
 3.0208730901e-01	 1.4756464044e+00	-8.8899072506e-01
 3.3014367641e-01	 1.4696238232e+00	-9.4100684929e-01
 3.5823507349e-01	 1.4630299476e+00	-9.9875011449e-01
 3.8634522625e-01	 1.4558593082e+00	-1.0634469453e+00
 4.1445748478e-01	 1.4481070125e+00	-1.1365386309e+00
 4.4255484690e-01	 1.4397687702e+00	-1.2196754938e+00
 4.7061998344e-01	 1.4308409173e+00	-1.3147087103e+00
 4.9863526553e-01	 1.4213204393e+00	-1.4236797475e+00
 5.2658279338e-01	 1.4112049932e+00	-1.5488074068e+00
 5.5444442688e-01	 1.4004929275e+00	-1.6924724950e+00
 2.7294457860e-01	 1.4749580526e+00	-8.6859867437e-01
 3.0083383470e-01	 1.4695233903e+00	-9.0844457349e-01
 3.2877378564e-01	 1.4635257990e+00	-9.5462859236e-01
 3.5674862090e-01	 1.4569592839e+00	-1.0081715493e+00
 3.8474213402e-01	 1.4498183982e+00	-1.0703049814e+00
 4.1273774418e-01	 1.4420982697e+00	-1.1424673904e+00
 4.4071851973e-01	 1.4337946259e+00	-1.2262982433e+00
 4.6866720343e-01	 1.4249038180e+00	-1.3236296732e+00
 4.9656623953e-01	 1.4154228441e+00	-1.4364758449e+00
 5.2439780253e-01	 1.4053493708e+00	-1.5670199810e+00
 5.5214382760e-01	 1.3946817535e+00	-1.7175990676e+00
 5.7514982041e-01	 1.4527934933e+00	-1.5032276300e+00
 6.0394303735e-01	 1.4410618199e+00	-1.3659230974e+00
 6.3260885941e-01	 1.4287100756e+00	-1.3071442202e+00
 6.6112792690e-01	 1.4157388098e+00	-1.4641355161e+00
 6.8948077296e-01	 1.4021493561e+00	-1.6121980755e+00
 7.1764786239e-01	 1.3879438437e+00	-1.7512132368e+00
 7.4560963149e-01	 1.3731252071e+00	-1.8810683946e+00
 7.7334652879e-01	 1.3576971925e+00	-2.0016495468e+00
 8.0083905653e-01	 1.3416643628e+00	-2.1128336353e+00
 8.2806781274e-01	 1.3250320994e+00	-2.2144807787e+00
 8.5501353362e-01	 1.3078066016e+00	-2.3064264984e+00
 5.7284922113e-01	 1.4469823193e+00	-1.5212134351e+00
 6.0152726520e-01	 1.4352975726e+00	-1.3969939955e+00
 6.3007842397e-01	 1.4229952353e+00	-1.3208851545e+00
 6.5848341519e-01	 1.4100758546e+00	-1.4840983944e+00
 6.8672284986e-01	 1.3965407587e+00	-1.6339684696e+00
 7.1477727094e-01	 1.3823920684e+00	-1.7703537865e+00
 7.4262719297e-01	 1.3676327063e+00	-1.8931348768e+00
 7.7025314268e-01	 1.3522664037e+00	-2.0022074152e+00
 7.9763570031e-01	 1.3362977053e+00	-2.0974749555e+00
 8.2475554149e-01	 1.3197319710e+00	-2.1788414783e+00
 8.5159347948e-01	 1.3025753752e+00	-2.2462038469e+00
 5.7054862184e-01	 1.4411711453e+00	-1.5399138065e+00
 5.9911149305e-01	 1.4295333254e+00	-1.4286552577e+00
 6.2754798853e-01	 1.4172803950e+00	-1.3346105970e+00
 6.5583890348e-01	 1.4044128994e+00	-1.5038760149e+00
 6.8396492677e-01	 1.3909321613e+00	-1.6553505443e+00
 7.1190667949e-01	 1.3768402930e+00	-1.7888699138e+00
 7.3964475444e-01	 1.3621402054e+00	-1.9043081324e+00
 7.6715975656e-01	 1.3468356150e+00	-2.0015709780e+00
 7.9443234408e-01	 1.3309310479e+00	-2.0805891283e+00
 8.2144327024e-01	 1.3144318426e+00	-2.1413110208e+00
 8.4817342535e-01	 1.2973441488e+00	-2.1836955382e+00
 5.6824802256e-01	 1.4353599714e+00	-1.5593482063e+00
 5.9669572090e-01	 1.4237690781e+00	-1.4609267594e+00
 6.2501755310e-01	 1.4115655547e+00	-1.3483331268e+00
 6.5319439177e-01	 1.3987499441e+00	-1.5234799777e+00
 6.8120700368e-01	 1.3853235638e+00	-1.6763544987e+00
 7.0903608804e-01	 1.3712885176e+00	-1.8067699911e+00
 7.3666231591e-01	 1.3566477046e+00	-1.9145942805e+00
 7.6406637045e-01	 1.3414048262e+00	-1.9997436740e+00
 7.9122898786e-01	 1.3255643904e+00	-2.0621764845e+00
 8.1813099899e-01	 1.3091317142e+00	-2.1018862042e+00
 8.4475337122e-01	 1.2921129224e+00	-2.1188944148e+00
 5.6594742328e-01	 1.4295487974e+00	-1.5795362012e+00
 5.9427994875e-01	 1.4180048308e+00	-1.4938284704e+00
 6.2248711766e-01	 1.4058507144e+00	-1.3895009465e+00
 6.5054988006e-01	 1.3930869889e+00	-1.5429219389e+00
 6.7844908059e-01	 1.3797149664e+00	-1.6969905575e+00
 7.0616549659e-01	 1.3657367423e+00	-1.8240623805e+00
 7.3367987739e-01	 1.3511552038e+00	-1.9239993867e+00
 7.6097298433e-01	 1.3359740374e+00	-1.9967288377e+00
 7.8802563163e-01	 1.3201977330e+00	-2.0422371946e+00
 8.1481872774e-01	 1.3038315858e+00	-2.0605636021e+00
 8.4133331709e-01	 1.2868816960e+00	-2.0517930245e+00
 5.6364682400e-01	 1.4237376234e+00	-1.6004974638e+00
 5.9186417660e-01	 1.4122405835e+00	-1.5273804577e+00
 6.1995668222e-01	 1.4001358741e+00	-1.4313486673e+00
 6.4790536835e-01	 1.3874240336e+00	-1.5622136113e+00
 6.7569115749e-01	 1.3741063690e+00	-1.7172689723e+00
 7.0329490514e-01	 1.3601849669e+00	-1.8407554331e+00
 7.3069743886e-01	 1.3456627030e+00	-1.9325294614e+00
 7.5787959822e-01	 1.3305432486e+00	-1.9925296978e+00
 7.8482227541e-01	 1.3148310755e+00	-2.0207712644e+00
 8.1150645649e-01	 1.2985314574e+00	-2.0173395593e+00
 8.3791326296e-01	 1.2816504696e+00	-1.9823836146e+00
 5.6134622472e-01	 1.4179264494e+00	-1.6222517755e+00
 5.8944840445e-01	 1.4064763363e+00	-1.5616028867e+00
 6.1742624678e-01	 1.3944210338e+00	-1.4737063770e+00
 6.4526085665e-01	 1.3817610784e+00	-1.5813667656e+00
 6.7293323440e-01	 1.3684977716e+00	-1.7372000218e+00
 7.0042431369e-01	 1.3546331915e+00	-1.8568574895e+00
 7.2771500034e-01	 1.3401702021e+00	-1.9401904591e+00
 7.5478621211e-01	 1.3251124599e+00	-1.9871493744e+00
 7.8161891918e-01	 1.3094644181e+00	-1.9977785326e+00
 8.0819418524e-01	 1.2932313290e+00	-1.9722101866e+00
 8.3449320882e-01	 1.2764192432e+00	-1.9106581254e+00
 5.5904562544e-01	 1.4121152755e+00	-1.6448190286e+00
 5.8703263231e-01	 1.4007120890e+00	-1.5965160236e+00
 6.1489581135e-01	 1.3887061935e+00	-1.5165942863e+00
 6.4261634494e-01	 1.3760981232e+00	-1.6003932319e+00
 6.7017531131e-01	 1.3628891741e+00	-1.7567940120e+00
 6.9755372225e-01	 1.3490814161e+00	-1.8723768786e+00
 7.2473256182e-01	 1.3346777013e+00	-1.9469882770e+00
 7.5169282599e-01	 1.3196816711e+00	-1.9805908776e+00
 7.7841556296e-01	 1.3040977606e+00	-1.9732586668e+00
 8.0488191399e-01	 1.2879312006e+00	-1.9251713565e+00
 8.3107315469e-01	 1.2711880168e+00	-1.8366081842e+00
 5.5674502616e-01	 1.4063041015e+00	-1.6682192282e+00
 5.8461686016e-01	 1.3949478417e+00	-1.6321402376e+00
 6.1236537591e-01	 1.3829913532e+00	-1.5600326917e+00
 6.3997183324e-01	 1.3704351679e+00	-1.6193049007e+00
 6.6741738823e-01	 1.3572805767e+00	-1.7760612776e+00
 6.9468313080e-01	 1.3435296408e+00	-1.8873219184e+00
 7.2175012329e-01	 1.3291852005e+00	-1.9529287538e+00
 7.4859943988e-01	 1.3142508823e+00	-1.9728571043e+00
 7.7521220674e-01	 1.2987311032e+00	-1.9472111602e+00
 8.0156964274e-01	 1.2826310722e+00	-1.8762186982e+00
 8.2765310056e-01	 1.2659567904e+00	-1.7602250989e+00
 5.5444442688e-01	 1.4004929275e+00	-1.6924724950e+00
 5.8220108801e-01	 1.3891835944e+00	-1.6684960028e+00
 6.0983494048e-01	 1.3772765129e+00	-1.6040419764e+00
 6.3732732153e-01	 1.3647722127e+00	-1.6381137243e+00
 6.6465946514e-01	 1.3516719793e+00	-1.7950121817e+00
 6.9181253935e-01	 1.3379778654e+00	-1.9017009149e+00
 7.1876768477e-01	 1.3236926997e+00	-1.9580176688e+00
 7.4550605377e-01	 1.3088200936e+00	-1.9639508365e+00
 7.7200885051e-01	 1.2933644458e+00	-1.9196353280e+00
 7.9825737149e-01	 1.2773309438e+00	-1.8253475923e+00
 8.2423304643e-01	 1.2607255640e+00	-1.6814998509e+00
 5.5214382760e-01	 1.3946817535e+00	-1.7175990676e+00
 5.7978531587e-01	 1.3834193471e+00	-1.7056039003e+00
 6.0730450504e-01	 1.3715616726e+00	-1.6486426128e+00
 6.3468280983e-01	 1.3591092575e+00	-1.6568317178e+00
 6.6190154205e-01	 1.3460633819e+00	-1.8136571170e+00
 6.8894194791e-01	 1.3324260900e+00	-1.9155221624e+00
 7.1578524625e-01	 1.3182001988e+00	-1.9622607404e+00
 7.4241266766e-01	 1.3033893048e+00	-1.9538747385e+00
 7.6880549429e-01	 1.2879977883e+00	-1.8905303034e+00
 7.9494510025e-01	 1.2720308154e+00	-1.7725531655e+00
 8.2081299229e-01	 1.2554943376e+00	-1.6004230888e+00
 8.5501353362e-01	 1.3078066016e+00	-2.3064264984e+00
 8.8165780167e-01	 1.2899944436e+00	-2.0562660096e+00
 9.0798105734e-01	 1.2716039010e+00	-1.7379022682e+00
 9.3396470617e-01	 1.2526435980e+00	-1.3525016587e+00
 9.5959046192e-01	 1.2331229480e+00	-1.6200824744e+00
 9.8484038814e-01	 1.2130521399e+00	-1.9036254885e+00
 1.0096969390e+00	 1.1924421218e+00	-2.0876190783e+00
 1.0341429992e+00	 1.1713045818e+00	-2.1737757079e+00
 1.0581619228e+00	 1.1496519267e+00	-2.1643554144e+00
 1.0817375704e+00	 1.1274972580e+00	-2.0621533483e+00
 1.1048543456e+00	 1.1048543456e+00	-1.8704832560e+00
 8.5159347948e-01	 1.3025753752e+00	-2.2462038469e+00
 8.7813117047e-01	 1.2848344658e+00	-1.9668170462e+00
 9.0434913311e-01	 1.2665174854e+00	-1.6221407159e+00
 9.3022884735e-01	 1.2476330236e+00	-1.3184009005e+00
 9.5575210008e-01	 1.2281904562e+00	-1.6763978019e+00
 9.8090102659e-01	 1.2081999313e+00	-1.9375126628e+00
 1.0056581513e+00	 1.1876723533e+00	-2.1028573462e+00
 1.0300064272e+00	 1.1666193635e+00	-2.1740820569e+00
 1.0539292751e+00	 1.1450533190e+00	-2.1533672553e+00
 1.0774106201e+00	 1.1229872689e+00	-2.0434115356e+00
 1.1004349282e+00	 1.1004349282e+00	-1.8474155531e+00
 8.4817342535e-01	 1.2973441488e+00	-2.1836955382e+00
 8.7460453926e-01	 1.2796744881e+00	-1.8751169639e+00
 9.0071720889e-01	 1.2614310698e+00	-1.5041917867e+00
 9.2649298853e-01	 1.2426224492e+00	-1.4014800532e+00
 9.5191373823e-01	 1.2232579644e+00	-1.7333930963e+00
 9.7696166505e-01	 1.2033477228e+00	-1.9722643552e+00
 1.0016193635e+00	 1.1829025848e+00	-2.1191608478e+00
 1.0258698552e+00	 1.1619341451e+00	-2.1756703714e+00
 1.0496966274e+00	 1.1404547113e+00	-2.1438936448e+00
 1.0730836699e+00	 1.1184772799e+00	-2.0264325243e+00
 1.0960155108e+00	 1.0960155108e+00	-1.8263743759e+00
 8.4475337122e-01	 1.2921129224e+00	-2.1188944148e+00
 8.7107790806e-01	 1.2745145103e+00	-1.7811598028e+00
 8.9708528466e-01	 1.2563446542e+00	-1.3840510102e+00
 9.2275712971e-01	 1.2376118748e+00	-1.4850324655e+00
 9.4807537639e-01	 1.2183254726e+00	-1.7910316497e+00
 9.7302230350e-01	 1.1984955142e+00	-2.0078459643e+00
 9.9758057575e-01	 1.1781328163e+00	-2.1364974469e+00
 1.0217332832e+00	 1.1572489268e+00	-2.1785113341e+00
 1.0454639797e+00	 1.1358561036e+00	-2.1359084329e+00
 1.0687567196e+00	 1.1139672909e+00	-2.0111936738e+00
 1.0915960935e+00	 1.0915960935e+00	-1.8073409276e+00
 8.4133331709e-01	 1.2868816960e+00	-2.0517930245e+00
 8.6755127685e-01	 1.2693545325e+00	-1.6849393224e+00
 8.9345336043e-01	 1.2512582386e+00	-1.2617136544e+00
 9.1902127089e-01	 1.2326013004e+00	-1.5690194467e+00
 9.4423701455e-01	 1.2133929808e+00	-1.8492765452e+00
 9.6908294195e-01	 1.1936433056e+00	-2.0442227139e+00
 9.9354178800e-01	 1.1733630478e+00	-2.1548348710e+00
 1.0175967113e+00	 1.1525637085e+00	-2.1825755354e+00
 1.0412313320e+00	 1.1312574959e+00	-2.1293854260e+00
 1.0644297693e+00	 1.1094573019e+00	-1.9976723529e+00
 1.0871766761e+00	 1.0871766761e+00	-1.7902964783e+00
 8.3791326296e-01	 1.2816504696e+00	-1.9823836146e+00
 8.6402464565e-01	 1.2641945548e+00	-1.5864489954e+00
 8.8982143621e-01	 1.2461718230e+00	-1.3168337422e+00
 9.1528541206e-01	 1.2275907261e+00	-1.6534020634e+00
 9.4039865270e-01	 1.2084604890e+00	-1.9080906526e+00
 9.6514358040e-01	 1.1887910971e+00	-2.0813596488e+00
 9.8950300025e-01	 1.1685932793e+00	-2.1741407087e+00
 1.0134601393e+00	 1.1478784902e+00	-2.1878334711e+00
 1.0369986843e+00	 1.1266588882e+00	-2.1242983853e+00
 1.0601028190e+00	 1.1049473128e+00	-1.9858459396e+00
 1.0827572587e+00	 1.0827572587e+00	-1.7752223667e+00
 8.3449320882e-01	 1.2764192432e+00	-1.9106581254e+00
 8.6049801445e-01	 1.2590345770e+00	-1.4856820026e+00
 8.8618951198e-01	 1.2410854074e+00	-1.4309026734e+00
 9.1154955324e-01	 1.2225801517e+00	-1.7381411343e+00
 9.3656029086e-01	 1.2035279972e+00	-1.9674366240e+00
 9.6120421885e-01	 1.1839388885e+00	-2.1192216319e+00
 9.8546421249e-01	 1.1638235109e+00	-2.1943824068e+00
 1.0093235673e+00	 1.1431932718e+00	-2.1942555408e+00
 1.0327660366e+00	 1.1220602805e+00	-2.1206210262e+00
 1.0557758687e+00	 1.1004373238e+00	-1.9756918216e+00
 1.0783378413e+00	 1.0783378413e+00	-1.7621000012e+00
 8.3107315469e-01	 1.2711880168e+00	-1.8366081842e+00
 8.5697138324e-01	 1.2538745992e+00	-1.3826312261e+00
 8.8255758775e-01	 1.2359989918e+00	-1.5451296349e+00
 9.0781369442e-01	 1.2175695773e+00	-1.8231972252e+00
 9.3272192901e-01	 1.1985955054e+00	-2.0272768896e+00
 9.5726485730e-01	 1.1790866800e+00	-2.1577733397e+00
 9.8142542474e-01	 1.1590537424e+00	-2.2155272671e+00
 1.0051869953e+00	 1.1385080535e+00	-2.2018120456e+00
 1.0285333890e+00	 1.1174616728e+00	-2.1183270175e+00
 1.0514489185e+00	 1.0959273348e+00	-1.9671873964e+00
 1.0739184239e+00	 1.0739184239e+00	-1.7509108615e+00
 8.2765310056e-01	 1.2659567904e+00	-1.7602250989e+00
 8.5344475204e-01	 1.2487146214e+00	-1.3404432554e+00
 8.7892566352e-01	 1.2309125762e+00	-1.6594734292e+00
 9.0407783560e-01	 1.2125590029e+00	-1.9085306440e+00
 9.2888356716e-01	 1.1936630137e+00	-2.0875736528e+00
 9.5332549575e-01	 1.1742344714e+00	-2.1969792591e+00
 9.7738663699e-01	 1.1542839739e+00	-2.2375424438e+00
 1.0010504233e+00	 1.1338228352e+00	-2.2104731865e+00
 1.0243007413e+00	 1.1128630650e+00	-2.1173899801e+00
 1.0471219682e+00	 1.0914173457e+00	-1.9603100716e+00
 1.0694990066e+00	 1.0694990066e+00	-1.7416364998e+00
 8.2423304643e-01	 1.2607255640e+00	-1.6814998509e+00
 8.4991812083e-01	 1.2435546437e+00	-1.4877137391e+00
 8.7529373930e-01	 1.2258261606e+00	-1.7738925690e+00
 9.0034197677e-01	 1.2075484285e+00	-1.9941014350e+00
 9.2504520532e-01	 1.1887305219e+00	-2.1482888855e+00
 9.4938613420e-01	 1.1693822629e+00	-2.2368036830e+00
 9.7334784923e-01	 1.1495142054e+00	-2.2603949404e+00
 9.9691385128e-01	 1.1291376169e+00	-2.2202090620e+00
 1.0200680936e+00	 1.1082644573e+00	-2.1177834864e+00
 1.0427950179e+00	 1.0869073567e+00	-1.9550372647e+00
 1.0650795892e+00	 1.0650795892e+00	-1.7342585430e+00
 8.2081299229e-01	 1.2554943376e+00	-1.6004230888e+00
 8.4639148963e-01	 1.2383946659e+00	-1.6348737817e+00
 8.7166181507e-01	 1.2207397450e+00	-1.8883452707e+00
 8.9660611795e-01	 1.2025378541e+00	-2.0798693737e+00
 9.2120684347e-01	 1.1837980301e+00	-2.2093843237e+00
 9.4544677264e-01	 1.1645300543e+00	-2.2772107065e+00
 9.6930906148e-01	 1.1447444369e+00	-2.2840516063e+00
 9.9277727928e-01	 1.1244523985e+00	-2.2309896660e+00
 1.0158354459e+00	 1.1036658496e+00	-2.1194810588e+00
 1.0384680676e+00	 1.0823973677e+00	-1.9513464040e+00
 1.0606601718e+00	 1.0606601718e+00	-1.7287586934e+00
 1.1048543456e+00	 1.1048543456e+00	-1.8704832560e+00
 1.1274972465e+00	 1.0817375880e+00	-1.7070135271e+00
 1.1496518808e+00	 1.0581619928e+00	-1.5626704320e+00
 1.1713044787e+00	 1.0341431565e+00	-1.4418321846e+00
 1.1924419392e+00	 1.0096972178e+00	-1.3489229491e+00
 1.2130518556e+00	 9.8484082249e-01	-1.2883827785e+00
 1.2331225400e+00	 9.5959108542e-01	-1.2646367957e+00
 1.2526430448e+00	 9.3396555193e-01	-1.2153777247e+00
 1.2716031813e+00	 9.0798215799e-01	-7.6890010014e-01
 1.2899935364e+00	 8.8165918928e-01	-3.3149495457e-01
 1.3078054863e+00	 8.5501523966e-01	 9.3221859042e-02
 1.1004349282e+00	 1.1004349282e+00	-1.8474155531e+00
 1.1229872575e+00	 1.0774106376e+00	-1.6798727010e+00
 1.1450532732e+00	 1.0539293449e+00	-1.5301316794e+00
 1.1666192608e+00	 1.0300065838e+00	-1.4024612560e+00
 1.1876721714e+00	 1.0056584289e+00	-1.3011803510e+00
 1.2081996482e+00	 9.8090145921e-01	-1.2306285527e+00
 1.2281900499e+00	 9.5575272108e-01	-1.1951358577e+00
 1.2476324727e+00	 9.3022968973e-01	-1.1989919257e+00
 1.2665167686e+00	 9.0435022936e-01	-8.0335605631e-01
 1.2848335622e+00	 8.7813255252e-01	-3.5488637562e-01
 1.3025742643e+00	 8.5159517870e-01	 8.2739232711e-02
 1.0960155108e+00	 1.0960155108e+00	-1.8263743759e+00
 1.1184772685e+00	 1.0730836873e+00	-1.6549480375e+00
 1.1404546657e+00	 1.0496966969e+00	-1.4999775543e+00
 1.1619340429e+00	 1.0258700112e+00	-1.3656222746e+00
 1.1829024037e+00	 1.0016196401e+00	-1.2560959754e+00
 1.2033474407e+00	 9.7696209592e-01	-1.1756379533e+00
 1.2232575597e+00	 9.5191435674e-01	-1.1284833205e+00
 1.2426219005e+00	 9.2649382752e-01	-1.1188327934e+00
 1.2614303559e+00	 9.0071830073e-01	-8.4234656383e-01
 1.2796735881e+00	 8.7460591577e-01	-3.8289978346e-01
 1.2973430424e+00	 8.4817511775e-01	 6.7558439164e-02
 1.0915960935e+00	 1.0915960935e+00	-1.8073409276e+00
 1.1139672795e+00	 1.0687567369e+00	-1.6322238241e+00
 1.1358560582e+00	 1.0454640489e+00	-1.4721953055e+00
 1.1572488250e+00	 1.0217334386e+00	-1.3313053207e+00
 1.1781326359e+00	 9.9758085120e-01	-1.2136625973e+00
 1.1984952333e+00	 9.7302273264e-01	-1.1234063066e+00
 1.2183250696e+00	 9.4807599240e-01	-1.0646769131e+00
 1.2376113283e+00	 9.2275796532e-01	-1.0415864929e+00
 1.2563439431e+00	 8.9708637210e-01	-8.8592805216e-01
 1.2745136140e+00	 8.7107927901e-01	-4.1559236719e-01
 1.2921118204e+00	 8.4475505679e-01	 4.7621797338e-02
 1.0871766761e+00	 1.0871766761e+00	-1.7902964783e+00
 1.1094572905e+00	 1.0644297866e+00	-1.6116844602e+00
 1.1312574507e+00	 1.0412314010e+00	-1.4467723356e+00
 1.1525636071e+00	 1.0175968660e+00	-1.2995006670e+00
 1.1733628682e+00	 9.9354206234e-01	-1.1738732203e+00
 1.1936430259e+00	 9.6908336935e-01	-1.0739292012e+00
 1.2133925794e+00	 9.4423762807e-01	-1.0037146567e+00
 1.2326007561e+00	 9.1902210312e-01	-9.6725332040e-01
 1.2512575304e+00	 8.9345444347e-01	-9.3415729386e-01
 1.2693536398e+00	 8.6755264226e-01	-4.5302167979e-01
 1.2868805985e+00	 8.4133499583e-01	 2.2871244674e-02
 1.0827572587e+00	 1.0827572587e+00	-1.7752223667e+00
 1.1049473015e+00	 1.0601028362e+00	-1.5933144591e+00
 1.1266588431e+00	 1.0369987530e+00	-1.4236962039e+00
 1.1478783892e+00	 1.0134602934e+00	-1.2701987832e+00
 1.1685931004e+00	 9.8950327347e-01	-1.1367210817e+00
 1.1887908185e+00	 9.6514400606e-01	-1.0272024930e+00
 1.2084600892e+00	 9.4039926373e-01	-9.4559487061e-01
 1.2275901839e+00	 9.1528624091e-01	-8.9583389758e-01
 1.2461711177e+00	 8.8982251484e-01	-8.8181015571e-01
 1.2641936657e+00	 8.6402600550e-01	-4.9524564558e-01
 1.2816493765e+00	 8.3791493488e-01	-6.7516706742e-03
 1.0783378413e+00	 1.0783378413e+00	-1.7621000012e+00
 1.1004373126e+00	 1.0557758859e+00	-1.5770984504e+00
 1.1220602356e+00	 1.0327661050e+00	-1.4029546298e+00
 1.1431931713e+00	 1.0093237207e+00	-1.2433903397e+00
 1.1638233327e+00	 9.8546448460e-01	-1.1021996571e+00
 1.1839386111e+00	 9.6120464278e-01	-9.8322231064e-01
 1.2035275991e+00	 9.3656089939e-01	-8.9031617825e-01
 1.2225796118e+00	 9.1155037871e-01	-8.2732917858e-01
 1.2410847050e+00	 8.8619058621e-01	-7.9807083237e-01
 1.2590336915e+00	 8.6049936875e-01	-5.4232256782e-01
 1.2764181546e+00	 8.3449487392e-01	-4.1305797810e-02
 1.0739184239e+00	 1.0739184239e+00	-1.7509108615e+00
 1.0959273236e+00	 1.0514489355e+00	-1.5630211827e+00
 1.1174616281e+00	 1.0285334571e+00	-1.3845354960e+00
 1.1385079533e+00	 1.0051871481e+00	-1.2190662113e+00
 1.1590535649e+00	 9.8142569573e-01	-1.0703026652e+00
 1.1790864036e+00	 9.5726527949e-01	-9.4198506137e-01
 1.1985951089e+00	 9.3272253505e-01	-8.3787751369e-01
 1.2175690396e+00	 9.0781451650e-01	-7.6174045675e-01
 1.2359982923e+00	 8.8255865758e-01	-7.1730269623e-01
 1.2538737174e+00	 8.5697273199e-01	-5.9431113650e-01
 1.2711869327e+00	 8.3107481296e-01	-8.0850391274e-02
 1.0694990066e+00	 1.0694990066e+00	-1.7416364998e+00
 1.0914173346e+00	 1.0471219852e+00	-1.5510675253e+00
 1.1128630206e+00	 1.0243008091e+00	-1.3684268516e+00
 1.1338227354e+00	 1.0010505755e+00	-1.1972174823e+00
 1.1542837971e+00	 9.7738690686e-01	-1.0410240732e+00
 1.1742341962e+00	 9.5332591620e-01	-9.0348743660e-01
 1.1936626188e+00	 9.2888417071e-01	-7.8827812782e-01
 1.2125584674e+00	 9.0407865429e-01	-6.9906937170e-01
 1.2309118795e+00	 8.7892672895e-01	-6.3950959927e-01
 1.2487137432e+00	 8.5344609524e-01	-6.1319486718e-01
 1.2659557107e+00	 8.2765475201e-01	-1.2544511942e-01
 1.0650795892e+00	 1.0650795892e+00	-1.7342585430e+00
 1.0869073456e+00	 1.0427950348e+00	-1.5412224719e+00
 1.1082644131e+00	 1.0200681611e+00	-1.3546169161e+00
 1.1291375175e+00	 9.9691400286e-01	-1.1778354502e+00
 1.1495140294e+00	 9.7334811799e-01	-1.0143581014e+00
 1.1693819888e+00	 9.4938655291e-01	-8.6772641786e-01
 1.1887301286e+00	 9.2504580637e-01	-7.4151759505e-01
 1.2075478952e+00	 9.0034279209e-01	-6.3931791648e-01
 1.2258254668e+00	 8.7529480032e-01	-5.6469577340e-01
 1.2435537691e+00	 8.4991945848e-01	-5.2117453244e-01
 1.2607244888e+00	 8.2423469105e-01	-1.7515007299e-01
 1.0606601718e+00	 1.0606601718e+00	-1.7287586934e+00
 1.0823973566e+00	 1.0384680845e+00	-1.5334711418e+00
 1.1036658055e+00	 1.0158355131e+00	-1.3430940826e+00
 1.1244522996e+00	 9.9277743023e-01	-1.1609116301e+00
 1.1447442616e+00	 9.6930932912e-01	-9.9029922890e-01
 1.1645297814e+00	 9.4544718962e-01	-8.3469928285e-01
 1.1837976385e+00	 9.2120744203e-01	-6.9759581999e-01
 1.2025373231e+00	 8.9660692988e-01	-5.8248844489e-01
 1.2207390541e+00	 8.7166287169e-01	-4.9286583835e-01
 1.2383937950e+00	 8.4639282173e-01	-4.3217906990e-01
 1.2554932668e+00	 8.2081463009e-01	-2.3002577393e-01
 1.3078054863e+00	 8.5501523966e-01	 9.3221859042e-02
 1.3250312077e+00	 8.2806916902e-01	 1.5673548583e-01
 1.3416636863e+00	 8.0084006078e-01	 2.4536093361e-01
 1.3576967225e+00	 7.7334717920e-01	 3.5569362037e-01
 1.3731249350e+00	 7.4560992674e-01	 4.8436918538e-01
 1.3879437607e+00	 7.1764780165e-01	 6.2806501130e-01
 1.4021494531e+00	 6.8948035586e-01	 7.8350068274e-01
 1.4157390779e+00	 6.6112715357e-01	 9.4743751298e-01
 1.4287105058e+00	 6.3260773043e-01	 1.1166772777e+00
 1.4410624031e+00	 6.0394155376e-01	 1.2534653537e+00
 1.4527942204e+00	 5.7514798369e-01	 1.4017307466e+00
 1.3025742643e+00	 8.5159517870e-01	 8.2739232711e-02
 1.3197310828e+00	 8.2475689235e-01	 1.5965176097e-01
 1.3362970315e+00	 7.9763670054e-01	 2.5954883845e-01
 1.3522659356e+00	 7.7025379048e-01	 3.7890565074e-01
 1.3676324353e+00	 7.4262748704e-01	 5.1424511439e-01
 1.3823919856e+00	 7.1477721044e-01	 6.6213988452e-01
 1.3965408553e+00	 6.8672243444e-01	 8.1921325919e-01
 1.4100761216e+00	 6.5848264495e-01	 9.8213910885e-01
 1.4229956638e+00	 6.3007729951e-01	 1.1476409669e+00
 1.4352981535e+00	 6.0152578754e-01	 1.2792809866e+00
 1.4469830435e+00	 5.7284739175e-01	 1.4263804845e+00
 1.2973430424e+00	 8.4817511775e-01	 6.7558439164e-02
 1.3144309580e+00	 8.2144461568e-01	 1.5831893470e-01
 1.3309303768e+00	 7.9443334030e-01	 2.6991548995e-01
 1.3468351488e+00	 7.6716040177e-01	 3.9870265427e-01
 1.3621399355e+00	 7.3964504733e-01	 5.4109030434e-01
 1.3768402106e+00	 7.1190661923e-01	 6.9354613542e-01
 1.3909322575e+00	 6.8396451301e-01	 8.5259700929e-01
 1.4044131653e+00	 6.5583813634e-01	 1.0148292838e+00
 1.4172808218e+00	 6.2754686858e-01	 1.1768882573e+00
 1.4295339039e+00	 5.9911002133e-01	 1.3049221213e+00
 1.4411718666e+00	 5.7054679982e-01	 1.4512637014e+00
 1.2921118204e+00	 8.4475505679e-01	 4.7621797338e-02
 1.3091308332e+00	 8.1813233900e-01	 1.5268533982e-01
 1.3255637220e+00	 7.9122998006e-01	 2.7641509797e-01
 1.3414043619e+00	 7.6406701305e-01	 4.1504457011e-01
 1.3566474358e+00	 7.3666260762e-01	 5.6487026520e-01
 1.3712884355e+00	 7.0903602803e-01	 7.2225467610e-01
 1.3853236597e+00	 6.8120659159e-01	 8.8362806887e-01
 1.3987502090e+00	 6.5319362772e-01	 1.0454892098e+00
 1.4115659797e+00	 6.2501643766e-01	 1.2044051604e+00
 1.4237696543e+00	 5.9669425511e-01	 1.3304262013e+00
 1.4353606898e+00	 5.6824620788e-01	 1.4764195693e+00
 1.2868805985e+00	 8.4133499583e-01	 2.2871244674e-02
 1.3038307083e+00	 8.1482006233e-01	 1.4269901468e-01
 1.3201970673e+00	 7.8802661981e-01	 2.7900166168e-01
 1.3359735750e+00	 7.6097362433e-01	 4.2789120695e-01
 1.3511549360e+00	 7.3368016792e-01	 5.8555045316e-01
 1.3657366605e+00	 7.0616543682e-01	 7.4823643791e-01
 1.3797150619e+00	 6.7844867017e-01	 9.1228266224e-01
 1.3930872527e+00	 6.5054911911e-01	 1.0741002124e+00
 1.4058511377e+00	 6.2248600674e-01	 1.2270137950e+00
 1.4180054047e+00	 5.9427848889e-01	 1.3558309425e+00
 1.4295495129e+00	 5.6594561595e-01	 1.5018875858e+00
 1.2816493765e+00	 8.3791493488e-01	-6.7516706742e-03
 1.2985305835e+00	 8.1150778565e-01	 1.2830769718e-01
 1.3148304125e+00	 7.8482325957e-01	 2.7762896522e-01
 1.3305427881e+00	 7.5788023562e-01	 4.3720224038e-01
 1.3456624363e+00	 7.3069772821e-01	 6.0309626958e-01
 1.3601848855e+00	 7.0329484561e-01	 7.7146237188e-01
 1.3741064641e+00	 6.7569074874e-01	 9.3853710399e-01
 1.3874242964e+00	 6.4790461049e-01	 1.1006437745e+00
 1.4001362957e+00	 6.1995557582e-01	 1.2490992513e+00
 1.4122411550e+00	 5.9186272268e-01	 1.3811743391e+00
 1.4237383360e+00	 5.6364502401e-01	 1.5277075812e+00
 1.2764181546e+00	 8.3449487392e-01	-4.1305797810e-02
 1.2932304587e+00	 8.0819550898e-01	 1.0945881860e-01
 1.3094637578e+00	 7.8161989933e-01	 2.7225057330e-01
 1.3251120012e+00	 7.5478684690e-01	 4.4293721016e-01
 1.3401699366e+00	 7.2771528850e-01	 6.1747305986e-01
 1.3546331104e+00	 7.0042425441e-01	 7.9190344905e-01
 1.3684978662e+00	 6.7293282732e-01	 9.6236780083e-01
 1.3817613401e+00	 6.4526010188e-01	 1.1251015387e+00
 1.3944214537e+00	 6.1742514490e-01	 1.2707223469e+00
 1.4064769054e+00	 5.8944695647e-01	 1.4064946690e+00
 1.4179271591e+00	 5.6134443208e-01	 1.5539197248e+00
 1.2711869327e+00	 8.3107481296e-01	-8.0850391274e-02
 1.2879303339e+00	 8.0488323230e-01	 8.6099497297e-02
 1.3040971031e+00	 7.7841653909e-01	 2.6281982669e-01
 1.3196812143e+00	 7.5169345819e-01	 4.4505551741e-01
 1.3346774368e+00	 7.2473284880e-01	 6.2864611227e-01
 1.3490813354e+00	 6.9755366321e-01	 8.0953066097e-01
 1.3628892684e+00	 6.7017490590e-01	 9.8375125350e-01
 1.3760983838e+00	 6.4261559327e-01	 1.1474553113e+00
 1.3887066116e+00	 6.1489471398e-01	 1.2919194566e+00
 1.4007126558e+00	 5.8703119025e-01	 1.4318304995e+00
 1.4121159822e+00	 5.5904384014e-01	 1.5805645322e+00
 1.2659557107e+00	 8.2765475201e-01	-1.2544511942e-01
 1.2826302090e+00	 8.0157095563e-01	 5.8176532246e-02
 1.2987304483e+00	 7.7521317885e-01	 2.4928983761e-01
 1.3142504274e+00	 7.4860006948e-01	 4.4351642178e-01
 1.3291849371e+00	 7.2175040910e-01	 6.3658065678e-01
 1.3435295603e+00	 6.9468307200e-01	 8.2431502006e-01
 1.3572806706e+00	 6.6741698448e-01	 1.0026640587e+00
 1.3704354275e+00	 6.3997108466e-01	 1.1676870655e+00
 1.3829917696e+00	 6.1236428306e-01	 1.3127271884e+00
 1.3949484062e+00	 5.8461542404e-01	 1.4572206938e+00
 1.4063048054e+00	 5.5674324821e-01	 1.6076828723e+00
 1.2607244888e+00	 8.2423469105e-01	-1.7515007299e-01
 1.2773300842e+00	 7.9825867896e-01	 2.5636396403e-02
 1.2933637936e+00	 7.7200981861e-01	 2.3161348495e-01
 1.3088196405e+00	 7.4550668076e-01	 4.3827903845e-01
 1.3236924374e+00	 7.1876796939e-01	 6.4124186385e-01
 1.3379777853e+00	 6.9181248080e-01	 8.3622756007e-01
 1.3516720728e+00	 6.6465906306e-01	 1.0190829112e+00
 1.3647724711e+00	 6.3732657604e-01	 1.1857789447e+00
 1.3772769276e+00	 6.0983385214e-01	 1.3331823888e+00
 1.3891841566e+00	 5.8219965783e-01	 1.4827044167e+00
 1.4004936285e+00	 5.5444265628e-01	 1.6353159747e+00
 1.2554932668e+00	 8.2081463009e-01	-2.3002577393e-01
 1.2720299594e+00	 7.9494640228e-01	-1.1574770079e-02
 1.2879971388e+00	 7.6880645837e-01	 2.0974340943e-01
 1.3033888537e+00	 7.4241329205e-01	 4.2930233521e-01
 1.3181999376e+00	 7.1578552969e-01	 6.4259484319e-01
 1.3324260103e+00	 6.8894188960e-01	 8.4523933651e-01
 1.3460634750e+00	 6.6190114164e-01	 1.0329846055e+00
 1.3591095148e+00	 6.3468206743e-01	 1.2017132660e+00
 1.3715620856e+00	 6.0730342122e-01	 1.3533221475e+00
 1.3834199070e+00	 5.7978389161e-01	 1.5083211410e+00
 1.3946824516e+00	 5.5214206435e-01	 1.6635054374e+00
 1.4527942204e+00	 5.7514798369e-01	 1.4017307466e+00
 1.4639061787e+00	 5.4624623558e-01	 1.6269257503e+00
 1.4743992537e+00	 5.1725534370e-01	 1.8466939613e+00
 1.4842751581e+00	 4.8819412637e-01	 2.0565503675e+00
 1.4935363221e+00	 4.5908115267e-01	 2.2524406729e+00
 1.5021858722e+00	 4.2993471069e-01	 2.4307639633e+00
 1.5102276089e+00	 4.0077277762e-01	 2.5883905649e+00
 1.5176659825e+00	 3.7161299152e-01	 2.7226751236e+00
 1.5245060679e+00	 3.4247262504e-01	 2.8314649833e+00
 1.5307535383e+00	 3.1336856090e-01	 2.9131039926e+00
 1.5364146382e+00	 2.8431726938e-01	 2.9664319096e+00
 1.4469830435e+00	 5.7284739175e-01	 1.4263804845e+00
 1.4580505540e+00	 5.4406125063e-01	 1.6464275633e+00
 1.4685016567e+00	 5.1518632232e-01	 1.8613479712e+00
 1.4783380575e+00	 4.8624134987e-01	 2.0667593983e+00
 1.4875621768e+00	 4.5724482806e-01	 2.2587025886e+00
 1.4961771287e+00	 4.2821497184e-01	 2.4336636289e+00
 1.5041866985e+00	 3.9916968650e-01	 2.5885915051e+00
 1.5115953186e+00	 3.7012653956e-01	 2.7209109513e+00
 1.5184080436e+00	 3.4110273454e-01	 2.8285306727e+00
 1.5246305242e+00	 3.1211508665e-01	 2.9098470654e+00
 1.5302689796e+00	 2.8318000030e-01	 2.9637436047e+00
 1.4411718666e+00	 5.7054679982e-01	 1.4512637014e+00
 1.4521949293e+00	 5.4187626569e-01	 1.6662369122e+00
 1.4626040597e+00	 5.1311730094e-01	 1.8763821224e+00
 1.4724009568e+00	 4.8428857336e-01	 2.0774187929e+00
 1.4815880315e+00	 4.5540850345e-01	 2.2654818315e+00
 1.4901683852e+00	 4.2649523300e-01	 2.4371435085e+00
 1.4981457881e+00	 3.9756659539e-01	 2.5894307132e+00
 1.5055246547e+00	 3.6864008759e-01	 2.7198375764e+00
 1.5123100194e+00	 3.3973284404e-01	 2.8263335386e+00
 1.5185075100e+00	 3.1086161241e-01	 2.9073669863e+00
 1.5241233211e+00	 2.8204273122e-01	 2.9618646220e+00
 1.4353606898e+00	 5.6824620788e-01	 1.4764195693e+00
 1.4463393046e+00	 5.3969128075e-01	 1.6863907146e+00
 1.4567064627e+00	 5.1104827957e-01	 1.8918311516e+00
 1.4664638562e+00	 4.8233579685e-01	 2.0885611873e+00
 1.4756138862e+00	 4.5357217883e-01	 2.2728090226e+00
 1.4841596417e+00	 4.2477549416e-01	 2.4412322989e+00
 1.4921048776e+00	 3.9596350428e-01	 2.5909350576e+00
 1.4994539907e+00	 3.6715363562e-01	 2.7194801390e+00
 1.5062119951e+00	 3.3836295354e-01	 2.8248970973e+00
 1.5123844959e+00	 3.0960813816e-01	 2.9056857543e+00
 1.5179776625e+00	 2.8090546214e-01	 2.9608155541e+00
 1.4295495129e+00	 5.6594561595e-01	 1.5018875858e+00
 1.4404836799e+00	 5.3750629580e-01	 1.7069262016e+00
 1.4508088657e+00	 5.0897925819e-01	 1.9077300981e+00
 1.4605267556e+00	 4.8038302035e-01	 2.1002195092e+00
 1.4696397409e+00	 4.5173585422e-01	 2.2807150644e+00
 1.4781508982e+00	 4.2305575531e-01	 2.4459589690e+00
 1.4860639672e+00	 3.9436041317e-01	 2.5931316703e+00
 1.4933833268e+00	 3.6566718365e-01	 2.7198640345e+00
 1.5001139708e+00	 3.3699306304e-01	 2.8242451123e+00
 1.5062614817e+00	 3.0835466392e-01	 2.9048256098e+00
 1.5118320039e+00	 2.7976819306e-01	 2.9606172286e+00
 1.4237383360e+00	 5.6364502401e-01	 1.5277075812e+00
 1.4346280552e+00	 5.3532131086e-01	 1.7278809248e+00
 1.4449112687e+00	 5.0691023682e-01	 1.9241143095e+00
 1.4545896549e+00	 4.7843024384e-01	 2.1124269838e+00
 1.4636655956e+00	 4.4989952961e-01	 2.2892311467e+00
 1.4721421547e+00	 4.2133601647e-01	 2.4513527654e+00
 1.4800230567e+00	 3.9275732206e-01	 2.5960479515e+00
 1.4873126629e+00	 3.6418073169e-01	 2.7210149190e+00
 1.4940159466e+00	 3.3562317253e-01	 2.8244016005e+00
 1.5001384675e+00	 3.0710118967e-01	 2.9048090388e+00
 1.5056863454e+00	 2.7863092398e-01	 2.9612907125e+00
 1.4179271591e+00	 5.6134443208e-01	 1.5539197248e+00
 1.4287724304e+00	 5.3313632592e-01	 1.7492927625e+00
 1.4390136716e+00	 5.0484121544e-01	 1.9410194487e+00
 1.4486525543e+00	 4.7647746734e-01	 2.1252171403e+00
 1.4576914503e+00	 4.4806320500e-01	 2.2983887525e+00
 1.4661334112e+00	 4.1961627763e-01	 2.4574432181e+00
 1.4739821463e+00	 3.9115423095e-01	 2.5997115761e+00
 1.4812419990e+00	 3.6269427972e-01	 2.7229587139e+00
 1.4879179223e+00	 3.3425328203e-01	 2.8253908363e+00
 1.4940154534e+00	 3.0584771543e-01	 2.9056587784e+00
 1.4995406868e+00	 2.7749365491e-01	 2.9628573176e+00
 1.4121159822e+00	 5.5904384014e-01	 1.5805645322e+00
 1.4229168057e+00	 5.3095134098e-01	 1.7711999262e+00
 1.4331160746e+00	 5.0277219407e-01	 1.9584814997e+00
 1.4427154537e+00	 4.7452469083e-01	 2.1386238177e+00
 1.4517173050e+00	 4.4622688039e-01	 2.3082196641e+00
 1.4601246677e+00	 4.1789653878e-01	 2.4642601462e+00
 1.4679412359e+00	 3.8955113984e-01	 2.6041504987e+00
 1.4751713350e+00	 3.6120782776e-01	 2.7257216123e+00
 1.4818198980e+00	 3.3288339153e-01	 2.8272373578e+00
 1.4878924392e+00	 3.0459424118e-01	 2.9073978216e+00
 1.4933950283e+00	 2.7635638583e-01	 2.9653386054e+00
 1.4063048054e+00	 5.5674324821e-01	 1.6076828723e+00
 1.4170611810e+00	 5.2876635604e-01	 1.7936409681e+00
 1.4272184776e+00	 5.0070317269e-01	 1.9765367746e+00
 1.4367783530e+00	 4.7257191433e-01	 2.1526811713e+00
 1.4457431597e+00	 4.4439055578e-01	 2.3187559691e+00
 1.4541159243e+00	 4.1617679994e-01	 2.4718336640e+00
 1.4619003254e+00	 3.8794804873e-01	 2.6093929595e+00
 1.4691006711e+00	 3.5972137579e-01	 2.7293300839e+00
 1.4757218737e+00	 3.3151350103e-01	 2.8299659718e+00
 1.4817694251e+00	 3.0334076694e-01	 2.9100494232e+00
 1.4872493697e+00	 2.7521911675e-01	 2.9687563920e+00
 1.4004936285e+00	 5.5444265628e-01	 1.6353159747e+00
 1.4112055563e+00	 5.2658137110e-01	 1.8166547876e+00
 1.4213208806e+00	 4.9863415132e-01	 1.9952219204e+00
 1.4308412524e+00	 4.7061913782e-01	 2.1674236794e+00
 1.4397690144e+00	 4.4255423117e-01	 2.3300300671e+00
 1.4481071808e+00	 4.1445706110e-01	 2.4801941873e+00
 1.4558594150e+00	 3.8634495762e-01	 2.6154674904e+00
 1.4630300072e+00	 3.5823492382e-01	 2.7338108811e+00
 1.4696238495e+00	 3.3014361054e-01	 2.8336017592e+00
 1.4756464109e+00	 3.0208729270e-01	 2.9136371044e+00
 1.4811037112e+00	 2.7408184768e-01	 2.9731327536e+00
 1.3946824516e+00	 5.5214206435e-01	 1.6635054374e+00
 1.4053499316e+00	 5.2439638616e-01	 1.8402806388e+00
 1.4154232836e+00	 4.9656512995e-01	 2.0145739258e+00
 1.4249041518e+00	 4.6866636132e-01	 2.1828861501e+00
 1.4337948692e+00	 4.4071790656e-01	 2.3420746757e+00
 1.4420984373e+00	 4.1273732226e-01	 2.4893724393e+00
 1.4498185046e+00	 3.8474186651e-01	 2.6224029208e+00
 1.4569593432e+00	 3.5674847186e-01	 2.7391910446e+00
 1.4635258252e+00	 3.2877372004e-01	 2.8381700813e+00
 1.4695233968e+00	 3.0083381846e-01	 2.9181846592e+00
 1.4749580526e+00	 2.7294457860e-01	 2.9784900319e+00
 1.5364146382e+00	 2.8431726938e-01	 2.9664319096e+00
 1.5414961551e+00	 2.5533478775e-01	 3.1076602354e+00
 1.5460053914e+00	 2.2643670158e-01	 3.2314434176e+00
 1.5499501348e+00	 1.9763812807e-01	 3.3368958103e+00
 1.5533386292e+00	 1.6895370127e-01	 3.4235946482e+00
 1.5561795447e+00	 1.4039755920e-01	 3.4915650389e+00
 1.5584819483e+00	 1.1198333291e-01	 3.5412619911e+00
 1.5602552736e+00	 8.3724137312e-02	 3.5735498094e+00
 1.5615092916e+00	 5.5632563872e-02	 3.5896791914e+00
 1.5622540812e+00	 2.7720674970e-02	 3.5912623648e+00
 1.5625000000e+00	 0.0000000000e+00	 3.5802466010e+00
 1.5302689796e+00	 2.8318000030e-01	 2.9637436047e+00
 1.5353301705e+00	 2.5431344859e-01	 3.1088127067e+00
 1.5398213698e+00	 2.2553095477e-01	 3.2354364224e+00
 1.5437503343e+00	 1.9684757556e-01	 3.3427757839e+00
 1.5471252746e+00	 1.6827788646e-01	 3.4304520039e+00
 1.5499548265e+00	 1.3983596896e-01	 3.4985313775e+00
 1.5522480205e+00	 1.1153539957e-01	 3.5475072568e+00
 1.5540142525e+00	 8.3389240761e-02	 3.5782794253e+00
 1.5552632545e+00	 5.5410033615e-02	 3.5921312056e+00
 1.5560050649e+00	 2.7609792269e-02	 3.5907046352e+00
 1.5562500000e+00	 0.0000000000e+00	 3.5759740450e+00
 1.5241233211e+00	 2.8204273122e-01	 2.9618646220e+00
 1.5291641859e+00	 2.5329210944e-01	 3.1108533270e+00
 1.5336373483e+00	 2.2462520796e-01	 3.2403724897e+00
 1.5375505337e+00	 1.9605702304e-01	 3.3496297644e+00
 1.5409119201e+00	 1.6760207165e-01	 3.4382903811e+00
 1.5437301084e+00	 1.3927437872e-01	 3.5064619543e+00
 1.5460140927e+00	 1.1108746624e-01	 3.5546763996e+00
 1.5477732314e+00	 8.3054344210e-02	 3.5838692839e+00
 1.5490172173e+00	 5.5187503359e-02	 3.5953569392e+00
 1.5497560485e+00	 2.7498909569e-02	 3.5908116725e+00
 1.5500000000e+00	 0.0000000000e+00	 3.5722354033e+00
 1.5179776625e+00	 2.8090546214e-01	 2.9608155541e+00
 1.5229982012e+00	 2.5227077029e-01	 3.1138020504e+00
 1.5274533267e+00	 2.2371946115e-01	 3.2462708561e+00
 1.5313507332e+00	 1.9526647053e-01	 3.3574761961e+00
 1.5346985656e+00	 1.6692625685e-01	 3.4471273610e+00
 1.5375053902e+00	 1.3871278848e-01	 3.5153734204e+00
 1.5397801649e+00	 1.1063953290e-01	 3.5627850777e+00
 1.5415322103e+00	 8.2719447660e-02	 3.5903339914e+00
 1.5427711801e+00	 5.4964973103e-02	 3.5993698907e+00
 1.5435070322e+00	 2.7388026869e-02	 3.5915958148e+00
 1.5437500000e+00	 0.0000000000e+00	 3.5690418050e+00
 1.5118320039e+00	 2.7976819306e-01	 2.9606172286e+00
 1.5168322166e+00	 2.5124943114e-01	 3.1176790711e+00
 1.5212693051e+00	 2.2281371435e-01	 3.2531510014e+00
 1.5251509326e+00	 1.9447591802e-01	 3.3663337665e+00
 1.5284852111e+00	 1.6625044204e-01	 3.4569807659e+00
 1.5312806720e+00	 1.3815119824e-01	 3.5252826638e+00
 1.5335462371e+00	 1.1019159957e-01	 3.5718491794e+00
 1.5352911892e+00	 8.2384551110e-02	 3.5976883747e+00
 1.5365251430e+00	 5.4742442847e-02	 3.6041837678e+00
 1.5372580159e+00	 2.7277144169e-02	 3.5930695966e+00
 1.5375000000e+00	 0.0000000000e+00	 3.5664045602e+00
 1.5056863454e+00	 2.7863092398e-01	 2.9612907125e+00
 1.5106662320e+00	 2.5022809198e-01	 3.1225048285e+00
 1.5150852836e+00	 2.2190796754e-01	 3.2610326527e+00
 1.5189511321e+00	 1.9368536550e-01	 3.3762214111e+00
 1.5222718566e+00	 1.6557462724e-01	 3.4678686638e+00
 1.5250559538e+00	 1.3758960801e-01	 3.5362068136e+00
 1.5273123093e+00	 1.0974366624e-01	 3.5818848272e+00
 1.5290501681e+00	 8.2049654561e-02	 3.6059474862e+00
 1.5302791058e+00	 5.4519912591e-02	 3.6098124925e+00
 1.5310089996e+00	 2.7166261469e-02	 3.5952457527e+00
 1.5312500000e+00	 0.0000000000e+00	 3.5643351634e+00
 1.4995406868e+00	 2.7749365491e-01	 2.9628573176e+00
 1.5045002474e+00	 2.4920675283e-01	 3.1283000119e+00
 1.5089012620e+00	 2.2100222073e-01	 3.2699357902e+00
 1.5127513316e+00	 1.9289481299e-01	 3.3871583186e+00
 1.5160585021e+00	 1.6489881243e-01	 3.4798093739e+00
 1.5188312356e+00	 1.3702801777e-01	 3.5481632453e+00
 1.5210783815e+00	 1.0929573291e-01	 3.5929083830e+00
 1.5228091470e+00	 8.1714758012e-02	 3.6151266079e+00
 1.5240330686e+00	 5.4297382336e-02	 3.6162702049e+00
 1.5247599832e+00	 2.7055378769e-02	 3.5981372225e+00
 1.5250000000e+00	 0.0000000000e+00	 3.5628452979e+00
 1.4933950283e+00	 2.7635638583e-01	 2.9653386054e+00
 1.4983342627e+00	 2.4818541368e-01	 3.1350855658e+00
 1.5027172404e+00	 2.2009647393e-01	 3.2798806522e+00
 1.5065515310e+00	 1.9210426048e-01	 3.3991639362e+00
 1.5098451475e+00	 1.6422299763e-01	 3.4928214713e+00
 1.5126065175e+00	 1.3646642753e-01	 3.5611695857e+00
 1.5148444537e+00	 1.0884779958e-01	 3.6049364529e+00
 1.5165681259e+00	 8.1379861464e-02	 3.6252412567e+00
 1.5177870315e+00	 5.4074852081e-02	 3.6235712678e+00
 1.5185109669e+00	 2.6944496070e-02	 3.6017571538e+00
 1.5187500000e+00	 0.0000000000e+00	 3.5619468392e+00
 1.4872493697e+00	 2.7521911675e-01	 2.9687563920e+00
 1.4921682781e+00	 2.4716407453e-01	 3.1428826950e+00
 1.4965332189e+00	 2.1919072712e-01	 3.2908877404e+00
 1.5003517305e+00	 1.9131370797e-01	 3.4122579744e+00
 1.5036317930e+00	 1.6354718282e-01	 3.5069237927e+00
 1.5063817993e+00	 1.3590483730e-01	 3.5752437183e+00
 1.5086105259e+00	 1.0839986625e-01	 3.6179858924e+00
 1.5103271049e+00	 8.1044964916e-02	 3.6363071890e+00
 1.5115409943e+00	 5.3852321827e-02	 3.6317302714e+00
 1.5122619506e+00	 2.6833613370e-02	 3.6061189075e+00
 1.5125000000e+00	 0.0000000000e+00	 3.5616518588e+00
 1.4811037112e+00	 2.7408184768e-01	 2.9731327536e+00
 1.4860022935e+00	 2.4614273539e-01	 3.1517128703e+00
 1.4903491973e+00	 2.1828498032e-01	 3.3029778251e+00
 1.4941519299e+00	 1.9052315546e-01	 3.4264604134e+00
 1.4974184385e+00	 1.6287136802e-01	 3.5221354416e+00
 1.5001570811e+00	 1.3534324706e-01	 3.5904037885e+00
 1.5023765982e+00	 1.0795193292e-01	 3.6320738110e+00
 1.5040860838e+00	 8.0710068368e-02	 3.6483404054e+00
 1.5052949571e+00	 5.3629791572e-02	 3.6407620380e+00
 1.5060129343e+00	 2.6722730671e-02	 3.6112360616e+00
 1.5062500000e+00	 0.0000000000e+00	 3.5619726289e+00
 1.4749580526e+00	 2.7294457860e-01	 2.9784900319e+00
 1.4798363089e+00	 2.4512139624e-01	 3.1615978339e+00
 1.4841651757e+00	 2.1737923352e-01	 3.3161719515e+00
 1.4879521294e+00	 1.8973260295e-01	 3.4417915078e+00
 1.4912050840e+00	 1.6219555322e-01	 3.5384757939e+00
 1.4939323629e+00	 1.3478165683e-01	 3.6066682090e+00
 1.4961426704e+00	 1.0750399959e-01	 3.6472175784e+00
 1.4978450627e+00	 8.0375171821e-02	 3.6613571563e+00
 1.4990489200e+00	 5.3407261319e-02	 3.6506816269e+00
 1.4997639179e+00	 2.6611847972e-02	 3.6171224163e+00
 1.5000000000e+00	 0.0000000000e+00	 3.5629216262e+00
 0.0000000000e+00	 1.5000000000e+00	-5.1513774913e-01
 2.6611847972e-02	 1.4997639179e+00	-6.1028478791e-01
 5.3407261319e-02	 1.4990489200e+00	-6.9875965720e-01
 8.0375171821e-02	 1.4978450627e+00	-7.7780784191e-01
 1.0750399959e-01	 1.4961426704e+00	-8.4480918578e-01
 1.3478165683e-01	 1.4939323629e+00	-8.9729649498e-01
 1.6219555322e-01	 1.4912050840e+00	-9.3297366052e-01
 1.8973260295e-01	 1.4879521294e+00	-9.4973311394e-01
 2.1737923352e-01	 1.4841651757e+00	-9.4567242634e-01
 2.4512139624e-01	 1.4798363089e+00	-9.1910985908e-01
 2.7294457860e-01	 1.4749580526e+00	-8.6859867437e-01
 0.0000000000e+00	 1.4937500000e+00	-5.1833702461e-01
 2.6500965273e-02	 1.4935149016e+00	-6.1996725353e-01
 5.3184731065e-02	 1.4928028828e+00	-7.1380923573e-01
 8.0040275274e-02	 1.4916040416e+00	-7.9717577664e-01
 1.0705606626e-01	 1.4899087426e+00	-8.6751795004e-01
 1.3422006660e-01	 1.4877076447e+00	-9.2244358741e-01
 1.6151973842e-01	 1.4849917295e+00	-9.5973527098e-01
 1.8894205044e-01	 1.4817523289e+00	-9.7736764508e-01
 2.1647348671e-01	 1.4779811542e+00	-9.7352385673e-01
 2.4410005709e-01	 1.4736703243e+00	-9.4661093413e-01
 2.7180730953e-01	 1.4688123941e+00	-8.9527391240e-01
 0.0000000000e+00	 1.4875000000e+00	-5.2456151219e-01
 2.6390082574e-02	 1.4872658853e+00	-6.3238536495e-01
 5.2962200810e-02	 1.4865568456e+00	-7.3128392640e-01
 7.9705378727e-02	 1.4853630205e+00	-8.1863742600e-01
 1.0660813293e-01	 1.4836748148e+00	-8.9196834314e-01
 1.3365847636e-01	 1.4814829266e+00	-9.4895978508e-01
 1.6084392361e-01	 1.4787783750e+00	-9.8747335299e-01
 1.8815149793e-01	 1.4755525283e+00	-1.0055663112e+00
 2.1556773991e-01	 1.4717971326e+00	-1.0015078712e+00
 2.4307871794e-01	 1.4675043396e+00	-9.7379439910e-01
 2.7067004045e-01	 1.4626667355e+00	-9.2116335797e-01
 0.0000000000e+00	 1.4812500000e+00	-5.3384281492e-01
 2.6279199874e-02	 1.4810168690e+00	-6.4756661006e-01
 5.2739670556e-02	 1.4803108085e+00	-7.5120697231e-01
 7.9370482179e-02	 1.4791219994e+00	-8.4221166202e-01
 1.0616019960e-01	 1.4774408870e+00	-9.1817474344e-01
 1.3309688613e-01	 1.4752582084e+00	-9.7685485396e-01
 1.6016810881e-01	 1.4725650204e+00	-1.0161929457e+00
 1.8736094542e-01	 1.4693527278e+00	-1.0343293148e+00
 2.1466199311e-01	 1.4656131110e+00	-1.0296197302e+00
 2.4205737879e-01	 1.4613383550e+00	-1.0006504727e+00
 2.6953277137e-01	 1.4565210770e+00	-9.4625209331e-01
 0.0000000000e+00	 1.4750000000e+00	-5.4621307148e-01
 2.6168317175e-02	 1.4747678526e+00	-6.6553893865e-01
 5.2517140301e-02	 1.4740647713e+00	-7.7360200175e-01
 7.9035585630e-02	 1.4728809783e+00	-8.6791766226e-01
 1.0571226627e-01	 1.4712069592e+00	-9.4615175221e-01
 1.3253529589e-01	 1.4690334902e+00	-1.0061386976e+00
 1.5949229401e-01	 1.4663516659e+00	-1.0458991376e+00
 1.8657039291e-01	 1.4631529272e+00	-1.0636568167e+00
 2.1375624630e-01	 1.4594290895e+00	-1.0578545596e+00
 2.4103603964e-01	 1.4551723704e+00	-1.0271691429e+00
 2.6839550230e-01	 1.4503754184e+00	-9.7052487174e-01
 0.0000000000e+00	 1.4687500000e+00	-5.6170496761e-01
 2.6057434475e-02	 1.4685188363e+00	-6.8633077230e-01
 5.2294610046e-02	 1.4678187341e+00	-7.9849303642e-01
 7.8700689081e-02	 1.4666399572e+00	-8.9577491626e-01
 1.0526433294e-01	 1.4649730314e+00	-9.7591419841e-01
 1.3197370566e-01	 1.4628087720e+00	-1.0368213598e+00
 1.5881647920e-01	 1.4601383114e+00	-1.0765970678e+00
 1.8577984040e-01	 1.4569531267e+00	-1.0935489356e+00
 2.1285049949e-01	 1.4532450679e+00	-1.0862073473e+00
 2.4001470049e-01	 1.4490063858e+00	-1.0533401621e+00
 2.6725823322e-01	 1.4442297599e+00	-9.9396611063e-01
 0.0000000000e+00	 1.4625000000e+00	-5.8035174778e-01
 2.5946551775e-02	 1.4622698200e+00	-7.0997101440e-01
 5.2072079790e-02	 1.4615726970e+00	-8.2590449978e-01
 7.8365792532e-02	 1.4603989361e+00	-9.2580323228e-01
 1.0481639961e-01	 1.4587391036e+00	-1.0074771435e+00
 1.3141211542e-01	 1.4565840538e+00	-1.0689130282e+00
 1.5814066440e-01	 1.4539249569e+00	-1.1082919265e+00
 1.8498928789e-01	 1.4507533262e+00	-1.1240057468e+00
 2.1194475269e-01	 1.4470610463e+00	-1.1146729406e+00
 2.3899336134e-01	 1.4428404012e+00	-1.0791530421e+00
 2.6612096414e-01	 1.4380841013e+00	-1.0165598843e+00
 0.0000000000e+00	 1.4562500000e+00	-6.0218722717e-01
 2.5835669075e-02	 1.4560208037e+00	-7.3648906051e-01
 5.1849549534e-02	 1.4553266598e+00	-8.5586122575e-01
 7.8030895982e-02	 1.4541579150e+00	-9.5802274405e-01
 1.0436846628e-01	 1.4525051758e+00	-1.0408558866e+00
 1.3085052518e-01	 1.4503593357e+00	-1.1024240365e+00
 1.5746484959e-01	 1.4477116024e+00	-1.1409889568e+00
 1.8419873537e-01	 1.4445535256e+00	-1.1550272815e+00
 2.1103900588e-01	 1.4408770248e+00	-1.1432460432e+00
 2.3797202219e-01	 1.4366744165e+00	-1.1045970487e+00
 2.6498369506e-01	 1.4319384427e+00	-1.0382899166e+00
 0.0000000000e+00	 1.4500000000e+00	-6.2724580399e-01
 2.5724786375e-02	 1.4497717873e+00	-7.6591480900e-01
 5.1627019278e-02	 1.4490806226e+00	-8.8838846750e-01
 7.7695999432e-02	 1.4479168939e+00	-9.9245391788e-01
 1.0392053294e-01	 1.4462712480e+00	-1.0760659692e+00
 1.3028893494e-01	 1.4441346175e+00	-1.1373648683e+00
 1.5678903478e-01	 1.4414982478e+00	-1.1746934554e+00
 1.8340818286e-01	 1.4383537251e+00	-1.1866135259e+00
 2.1013325907e-01	 1.4346930032e+00	-1.1719212121e+00
 2.3695068303e-01	 1.4305084319e+00	-1.1296611968e+00
 2.6384642598e-01	 1.4257927842e+00	-1.0591395734e+00
 0.0000000000e+00	 1.4437500000e+00	-6.5556247208e-01
 2.5613903674e-02	 1.4435227710e+00	-7.9827867187e-01
 5.1404489022e-02	 1.4428345855e+00	-9.2351190654e-01
 7.7361102881e-02	 1.4416758728e+00	-1.0291175598e+00
 1.0347259961e-01	 1.4400373202e+00	-1.1131231811e+00
 1.2972734470e-01	 1.4379098993e+00	-1.1737461603e+00
 1.5611321998e-01	 1.4352848933e+00	-1.2094107740e+00
 1.8261763034e-01	 1.4321539245e+00	-1.2187644198e+00
 2.0922751226e-01	 1.4285089816e+00	-1.2006928540e+00
 2.3592934388e-01	 1.4243424473e+00	-1.1543342446e+00
 2.6270915690e-01	 1.4196471256e+00	-1.0790918547e+00
 0.0000000000e+00	 1.4375000000e+00	-6.8717283387e-01
 2.5503020974e-02	 1.4372737547e+00	-8.3361158597e-01
 5.1181958765e-02	 1.4365885483e+00	-9.6125766203e-01
 7.7026206330e-02	 1.4354348517e+00	-1.0680348229e+00
 1.0302466628e-01	 1.4338033924e+00	-1.1520435649e+00
 1.2916575446e-01	 1.4316851811e+00	-1.2115787052e+00
 1.5543740517e-01	 1.4290715388e+00	-1.2451463204e+00
 1.8182707783e-01	 1.4259541240e+00	-1.2514798561e+00
 2.0832176545e-01	 1.4223249601e+00	-1.2295552227e+00
 2.3490800473e-01	 1.4181764627e+00	-1.1786046884e+00
 2.6157188782e-01	 1.4135014671e+00	-1.0981293869e+00
 2.7294457860e-01	 1.4749580526e+00	-8.6859867437e-01
 3.0083383470e-01	 1.4695233903e+00	-9.0844457349e-01
 3.2877378564e-01	 1.4635257990e+00	-9.5462859236e-01
 3.5674862090e-01	 1.4569592839e+00	-1.0081715493e+00
 3.8474213402e-01	 1.4498183982e+00	-1.0703049814e+00
 4.1273774418e-01	 1.4420982697e+00	-1.1424673904e+00
 4.4071851973e-01	 1.4337946259e+00	-1.2262982433e+00
 4.6866720343e-01	 1.4249038180e+00	-1.3236296732e+00
 4.9656623953e-01	 1.4154228441e+00	-1.4364758449e+00
 5.2439780253e-01	 1.4053493708e+00	-1.5670199810e+00
 5.5214382760e-01	 1.3946817535e+00	-1.7175990676e+00
 2.7180730953e-01	 1.4688123941e+00	-8.9527391240e-01
 2.9958036039e-01	 1.4634003762e+00	-9.3012545303e-01
 3.2740389486e-01	 1.4574277749e+00	-9.7251332208e-01
 3.5526216832e-01	 1.4508886202e+00	-1.0233432097e+00
 3.8313904180e-01	 1.4437774882e+00	-1.0837217723e+00
 4.1101800358e-01	 1.4360895270e+00	-1.1549531155e+00
 4.3888219257e-01	 1.4278204817e+00	-1.2385331041e+00
 4.6671442342e-01	 1.4189667188e+00	-1.3361414424e+00
 4.9449721354e-01	 1.4095252489e+00	-1.4496314922e+00
 5.2221281169e-01	 1.3994937484e+00	-1.5810178241e+00
 5.4984322832e-01	 1.3888705796e+00	-1.7324615187e+00
 2.7067004045e-01	 1.4626667355e+00	-9.2116335797e-01
 2.9832688608e-01	 1.4572773620e+00	-9.5142249111e-01
 3.2603400409e-01	 1.4513297507e+00	-9.9041812087e-01
 3.5377571573e-01	 1.4448179565e+00	-1.0389404950e+00
 3.8153594957e-01	 1.4377365782e+00	-1.0979710852e+00
 4.0929826298e-01	 1.4300807842e+00	-1.1686793092e+00
 4.3704586540e-01	 1.4218463374e+00	-1.2524171485e+00
 4.6476164340e-01	 1.4130296195e+00	-1.3507116096e+00
 4.9242818754e-01	 1.4036276537e+00	-1.4652549946e+00
 5.2002782085e-01	 1.3936381260e+00	-1.5978929769e+00
 5.4754262904e-01	 1.3830594056e+00	-1.7506104983e+00
 2.6953277137e-01	 1.4565210770e+00	-9.4625209331e-01
 2.9707341177e-01	 1.4511543479e+00	-9.7232677715e-01
 3.2466411332e-01	 1.4452317265e+00	-1.0083402350e+00
 3.5228926315e-01	 1.4387472928e+00	-1.0549669486e+00
 3.7993285735e-01	 1.4316956682e+00	-1.1130628916e+00
 4.0757852238e-01	 1.4240720414e+00	-1.1836624903e+00
 4.3520953824e-01	 1.4158721931e+00	-1.2679735511e+00
 4.6280886339e-01	 1.4070925203e+00	-1.3673701018e+00
 4.9035916154e-01	 1.3977300585e+00	-1.4833831159e+00
 5.1784283001e-01	 1.3877825036e+00	-1.6176891111e+00
 5.4524202976e-01	 1.3772482316e+00	-1.7720966434e+00
 2.6839550230e-01	 1.4503754184e+00	-9.7052487174e-01
 2.9581993745e-01	 1.4450313338e+00	-9.9282916164e-01
 3.2329422255e-01	 1.4391337024e+00	-1.0262767637e+00
 3.5080281056e-01	 1.4326766291e+00	-1.0714260605e+00
 3.7832976512e-01	 1.4256547582e+00	-1.1290072039e+00
 4.0585878178e-01	 1.4180632986e+00	-1.1999193151e+00
 4.3337321107e-01	 1.4098980488e+00	-1.2852257219e+00
 4.6085608338e-01	 1.4011554211e+00	-1.3861471810e+00
 4.8829013554e-01	 1.3918324634e+00	-1.5040530545e+00
 5.1565783916e-01	 1.3819268813e+00	-1.6404504339e+00
 5.4294143048e-01	 1.3714370576e+00	-1.7969712283e+00
 2.6725823322e-01	 1.4442297599e+00	-9.9396611063e-01
 2.9456646314e-01	 1.4389083196e+00	-1.0129202510e+00
 3.2192433177e-01	 1.4330356782e+00	-1.0442246558e+00
 3.4931635797e-01	 1.4266059654e+00	-1.0883212657e+00
 3.7672667290e-01	 1.4196138482e+00	-1.1458140770e+00
 4.0413904118e-01	 1.4120545558e+00	-1.2174665812e+00
 4.3153688390e-01	 1.4039239046e+00	-1.3041973123e+00
 4.5890330336e-01	 1.3952183218e+00	-1.4070734509e+00
 4.8622110955e-01	 1.3859348682e+00	-1.5273024531e+00
 5.1347284832e-01	 1.3760712589e+00	-1.6662216996e+00
 5.4064083120e-01	 1.3656258837e+00	-1.8252861779e+00
 2.6612096414e-01	 1.4380841013e+00	-1.0165598843e+00
 2.9331298883e-01	 1.4327853055e+00	-1.0325904024e+00
 3.2055444100e-01	 1.4269376540e+00	-1.0621807065e+00
 3.4782990538e-01	 1.4205353018e+00	-1.1056559433e+00
 3.7512358067e-01	 1.4135729382e+00	-1.1634936091e+00
 4.0241930058e-01	 1.4060458130e+00	-1.2363212298e+00
 4.2970055674e-01	 1.3979497603e+00	-1.3249122193e+00
 4.5695052335e-01	 1.3892812226e+00	-1.4301798644e+00
 4.8415208355e-01	 1.3800372730e+00	-1.5531694079e+00
 5.1128785748e-01	 1.3702156365e+00	-1.6950482210e+00
 5.3834023192e-01	 1.3598147097e+00	-1.8570940816e+00
 2.6498369506e-01	 1.4319384427e+00	-1.0382899166e+00
 2.9205951452e-01	 1.4266622914e+00	-1.0518297183e+00
 3.1918455022e-01	 1.4208396299e+00	-1.0801415543e+00
 3.4634345280e-01	 1.4144646381e+00	-1.1234334152e+00
 3.7352048845e-01	 1.4075320282e+00	-1.1820559424e+00
 4.0069955998e-01	 1.4000370702e+00	-1.2565003494e+00
 4.2786422957e-01	 1.3919756160e+00	-1.3473945911e+00
 4.5499774333e-01	 1.3833441233e+00	-1.4554977312e+00
 4.8208305755e-01	 1.3741396778e+00	-1.5816924780e+00
 5.0910286663e-01	 1.3643600141e+00	-1.7269758818e+00
 5.3603963263e-01	 1.3540035357e+00	-1.8924482075e+00
 2.6384642598e-01	 1.4257927842e+00	-1.0591395734e+00
 2.9080604021e-01	 1.4205392773e+00	-1.0706280412e+00
 3.1781465945e-01	 1.4147416057e+00	-1.0981036775e+00
 3.4485700021e-01	 1.4083939744e+00	-1.1416569448e+00
 3.7191739622e-01	 1.4014911182e+00	-1.2015112642e+00
 3.9897981938e-01	 1.3940283274e+00	-1.2780211783e+00
 4.2602790241e-01	 1.3860014717e+00	-1.3716688328e+00
 4.5304496332e-01	 1.3774070241e+00	-1.4830587254e+00
 4.8001403155e-01	 1.3682420826e+00	-1.6129106960e+00
 5.0691787579e-01	 1.3585043917e+00	-1.7620511484e+00
 5.3373903335e-01	 1.3481923617e+00	-1.9314025172e+00
 2.6270915690e-01	 1.4196471256e+00	-1.0790918547e+00
 2.8955256589e-01	 1.4144162631e+00	-1.0889749477e+00
 3.1644476867e-01	 1.4086435815e+00	-1.1160633907e+00
 3.4337054762e-01	 1.4023233107e+00	-1.1603297360e+00
 3.7031430399e-01	 1.3954502082e+00	-1.2218698078e+00
 3.9726007877e-01	 1.3880195846e+00	-1.3009011085e+00
 4.2419157524e-01	 1.3800273275e+00	-1.3977596114e+00
 4.5109218330e-01	 1.3714699248e+00	-1.5128948933e+00
 4.7794500555e-01	 1.3623444874e+00	-1.6468635781e+00
 5.0473288494e-01	 1.3526487694e+00	-1.8003210829e+00
 5.3143843407e-01	 1.3423811878e+00	-1.9740116807e+00
 2.6157188782e-01	 1.4135014671e+00	-1.0981293869e+00
 2.8829909158e-01	 1.4082932490e+00	-1.1068597431e+00
 3.1507487790e-01	 1.4025455574e+00	-1.1340168413e+00
 3.4188409503e-01	 1.3962526470e+00	-1.1794549313e+00
 3.6871121177e-01	 1.3894092982e+00	-1.2431418537e+00
 3.9554033817e-01	 1.3820108418e+00	-1.3251576886e+00
 4.2235524807e-01	 1.3740531832e+00	-1.4256918621e+00
 4.4913940328e-01	 1.3655328256e+00	-1.5450386618e+00
 4.7587597955e-01	 1.3564468922e+00	-1.6835911341e+00
 5.0254789410e-01	 1.3467931470e+00	-1.8418333561e+00
 5.2913783478e-01	 1.3365700138e+00	-2.0203310917e+00
 5.5214382760e-01	 1.3946817535e+00	-1.7175990676e+00
 5.7978531587e-01	 1.3834193471e+00	-1.7056039003e+00
 6.0730450504e-01	 1.3715616726e+00	-1.6486426128e+00
 6.3468280983e-01	 1.3591092575e+00	-1.6568317178e+00
 6.6190154205e-01	 1.3460633819e+00	-1.8136571170e+00
 6.8894194791e-01	 1.3324260900e+00	-1.9155221624e+00
 7.1578524625e-01	 1.3182001988e+00	-1.9622607404e+00
 7.4241266766e-01	 1.3033893048e+00	-1.9538747385e+00
 7.6880549429e-01	 1.2879977883e+00	-1.8905303034e+00
 7.9494510025e-01	 1.2720308154e+00	-1.7725531655e+00
 8.2081299229e-01	 1.2554943376e+00	-1.6004230888e+00
 5.4984322832e-01	 1.3888705796e+00	-1.7324615187e+00
 5.7736954372e-01	 1.3776550999e+00	-1.7249802546e+00
 6.0477406961e-01	 1.3658468323e+00	-1.6678787568e+00
 6.3203829813e-01	 1.3534463022e+00	-1.6420222259e+00
 6.5914361896e-01	 1.3404547845e+00	-1.7912127363e+00
 6.8607135646e-01	 1.3268743146e+00	-1.8809119455e+00
 7.1280280773e-01	 1.3127076980e+00	-1.9110811634e+00
 7.3931928155e-01	 1.2979585160e+00	-1.8818680771e+00
 7.6560213807e-01	 1.2826311309e+00	-1.7936028665e+00
 7.9163282900e-01	 1.2667306870e+00	-1.6467932875e+00
 8.1739293816e-01	 1.2502631112e+00	-1.4421187788e+00
 5.4754262904e-01	 1.3830594056e+00	-1.7506104983e+00
 5.7495377157e-01	 1.3718908526e+00	-1.7470970240e+00
 6.0224363417e-01	 1.3601319920e+00	-1.6892676631e+00
 6.2939378642e-01	 1.3477833470e+00	-1.6282394850e+00
 6.5638569587e-01	 1.3348461870e+00	-1.7691503283e+00
 6.8320076502e-01	 1.3213225393e+00	-1.8460026445e+00
 7.0982036920e-01	 1.3072151972e+00	-1.8588862936e+00
 7.3622589543e-01	 1.2925277273e+00	-1.8080959931e+00
 7.6239878185e-01	 1.2772644734e+00	-1.6941272873e+00
 7.8832055775e-01	 1.2614305587e+00	-1.5176713848e+00
 8.1397288403e-01	 1.2450318848e+00	-1.5352130653e+00
 5.4524202976e-01	 1.3772482316e+00	-1.7720966434e+00
 5.7253799942e-01	 1.3661266053e+00	-1.7719997679e+00
 5.9971319874e-01	 1.3544171517e+00	-1.7128493248e+00
 6.2674927472e-01	 1.3421203917e+00	-1.6155095473e+00
 6.5362777278e-01	 1.3292375896e+00	-1.7474888214e+00
 6.8033017357e-01	 1.3157707639e+00	-1.8108055812e+00
 7.0683793068e-01	 1.3017226964e+00	-1.8056793718e+00
 7.3313250932e-01	 1.2870969385e+00	-1.7325531815e+00
 7.5919542562e-01	 1.2718978160e+00	-1.5920892614e+00
 7.8500828650e-01	 1.2561304303e+00	-1.3851637129e+00
 8.1055282990e-01	 1.2398006584e+00	-1.6395674908e+00
 5.4294143048e-01	 1.3714370576e+00	-1.7969712283e+00
 5.7012222728e-01	 1.3603623580e+00	-1.7997345798e+00
 5.9718276330e-01	 1.3487023114e+00	-1.7386641579e+00
 6.2410476301e-01	 1.3364574365e+00	-1.6143493559e+00
 6.5086984969e-01	 1.3236289922e+00	-1.7262473193e+00
 6.7745958212e-01	 1.3102189885e+00	-1.7753321165e+00
 7.0385549216e-01	 1.2962301955e+00	-1.7514635336e+00
 7.3003912321e-01	 1.2816661497e+00	-1.6552340807e+00
 7.5599206940e-01	 1.2665311585e+00	-1.4874740688e+00
 7.8169601525e-01	 1.2508303019e+00	-1.2492459452e+00
 8.0713277576e-01	 1.2345694320e+00	-1.7416277640e+00
 5.4064083120e-01	 1.3656258837e+00	-1.8252861779e+00
 5.6770645513e-01	 1.3545981107e+00	-1.8303480986e+00
 5.9465232787e-01	 1.3429874711e+00	-1.7667530102e+00
 6.2146025130e-01	 1.3307944813e+00	-1.6351436541e+00
 6.4811192660e-01	 1.3180203948e+00	-1.7054451044e+00
 6.7458899067e-01	 1.3046672131e+00	-1.7395936510e+00
 7.0087305363e-01	 1.2907376947e+00	-1.6962418079e+00
 7.2694573709e-01	 1.2762353610e+00	-1.5761328670e+00
 7.5278871317e-01	 1.2611645011e+00	-1.3802665649e+00
 7.7838374400e-01	 1.2455301735e+00	-1.3488728085e+00
 8.0371272163e-01	 1.2293382056e+00	-1.8413244056e+00
 5.3834023192e-01	 1.3598147097e+00	-1.8570940816e+00
 5.6529068298e-01	 1.3488338635e+00	-1.8638875204e+00
 5.9212189243e-01	 1.3372726308e+00	-1.7971571705e+00
 6.1881573960e-01	 1.3251315260e+00	-1.6576002767e+00
 6.4535400351e-01	 1.3124117973e+00	-1.6851016416e+00
 6.7171839923e-01	 1.2991154378e+00	-1.7036016262e+00
 6.9789061511e-01	 1.2852451939e+00	-1.6400171137e+00
 7.2385235098e-01	 1.2708045722e+00	-1.4952434490e+00
 7.4958535694e-01	 1.2557978436e+00	-1.2704511715e+00
 7.7507147275e-01	 1.2402300451e+00	-1.4911098306e+00
 8.0029266749e-01	 1.2241069792e+00	-1.9385871484e+00
 5.3603963263e-01	 1.3540035357e+00	-1.8924482075e+00
 5.6287491083e-01	 1.3430696162e+00	-1.9004006105e+00
 5.8959145699e-01	 1.3315577905e+00	-1.8299183779e+00
 6.1617122789e-01	 1.3194685708e+00	-1.6817544164e+00
 6.4259608042e-01	 1.3068031999e+00	-1.6652365825e+00
 6.6884780778e-01	 1.2935636624e+00	-1.6673675253e+00
 6.9490817658e-01	 1.2797526930e+00	-1.5827922584e+00
 7.2075896486e-01	 1.2653737834e+00	-1.4125594622e+00
 7.4638200072e-01	 1.2504311862e+00	-1.1580118675e+00
 7.7175920150e-01	 1.2349299167e+00	-1.6316493973e+00
 7.9687261336e-01	 1.2188757528e+00	-2.0333449201e+00
 5.3373903335e-01	 1.3481923617e+00	-1.9314025172e+00
 5.6045913868e-01	 1.3373053689e+00	-1.9399357155e+00
 5.8706102155e-01	 1.3258429502e+00	-1.8650788320e+00
 6.1352671618e-01	 1.3138056155e+00	-1.7076415959e+00
 6.3983815733e-01	 1.3011946025e+00	-1.6458697692e+00
 6.6597721632e-01	 1.2880118870e+00	-1.6309028737e+00
 6.9192573805e-01	 1.2742601922e+00	-1.5245699354e+00
 7.1766557875e-01	 1.2599429947e+00	-1.3280742626e+00
 7.4317864449e-01	 1.2450645287e+00	-1.3163197740e+00
 7.6844693024e-01	 1.2296297883e+00	-1.7704310066e+00
 7.9345255922e-01	 1.2136445264e+00	-2.1255258262e+00
 5.3143843407e-01	 1.3423811878e+00	-1.9740116807e+00
 5.5804336653e-01	 1.3315411216e+00	-1.9825417760e+00
 5.8453058611e-01	 1.3201281099e+00	-1.9026812020e+00
 6.1088220447e-01	 1.3081426603e+00	-1.7352976746e+00
 6.3708023423e-01	 1.2955860050e+00	-1.6270212385e+00
 6.6310662487e-01	 1.2824601116e+00	-1.5942192403e+00
 6.8894329952e-01	 1.2687676914e+00	-1.4653527213e+00
 7.1457219263e-01	 1.2545122059e+00	-1.2417809210e+00
 7.3997528826e-01	 1.2396978712e+00	-1.4974139731e+00
 7.6513465899e-01	 1.2243296599e+00	-1.9073935095e+00
 7.9003250508e-01	 1.2084132999e+00	-2.2150571320e+00
 5.2913783478e-01	 1.3365700138e+00	-2.0203310917e+00
 5.5562759438e-01	 1.3257768743e+00	-2.0282683396e+00
 5.8200015067e-01	 1.3144132696e+00	-1.9427686381e+00
 6.0823769276e-01	 1.3024797050e+00	-1.7647588565e+00
 6.3432231114e-01	 1.2899774076e+00	-1.6087112261e+00
 6.6023603342e-01	 1.2769083363e+00	-1.5573282386e+00
 6.8596086100e-01	 1.2632751905e+00	-1.4051430733e+00
 7.1147880651e-01	 1.2490814171e+00	-1.2061178752e+00
 7.3677193203e-01	 1.2343312138e+00	-1.6774257338e+00
 7.6182238774e-01	 1.2190295315e+00	-2.0424750952e+00
 7.8661245095e-01	 1.2031820735e+00	-2.3018652446e+00
 8.2081299229e-01	 1.2554943376e+00	-1.6004230888e+00
 8.4639148963e-01	 1.2383946659e+00	-1.6348737817e+00
 8.7166181507e-01	 1.2207397450e+00	-1.8883452707e+00
 8.9660611795e-01	 1.2025378541e+00	-2.0798693737e+00
 9.2120684347e-01	 1.1837980301e+00	-2.2093843237e+00
 9.4544677264e-01	 1.1645300543e+00	-2.2772107065e+00
 9.6930906148e-01	 1.1447444369e+00	-2.2840516063e+00
 9.9277727928e-01	 1.1244523985e+00	-2.2309896660e+00
 1.0158354459e+00	 1.1036658496e+00	-2.1194810588e+00
 1.0384680676e+00	 1.0823973677e+00	-1.9513464040e+00
 1.0606601718e+00	 1.0606601718e+00	-1.7287586934e+00
 8.1739293816e-01	 1.2502631112e+00	-1.4421187788e+00
 8.4286485842e-01	 1.2332346881e+00	-1.7048673004e+00
 8.6802989084e-01	 1.2156533294e+00	-1.9254143568e+00
 8.9287025912e-01	 1.1975272797e+00	-2.0897976957e+00
 9.1736848162e-01	 1.1788655383e+00	-2.1978953461e+00
 9.4150741109e-01	 1.1596778458e+00	-2.2499432716e+00
 9.6527027372e-01	 1.1399746684e+00	-2.2465357044e+00
 9.8864070728e-01	 1.1197671802e+00	-2.1886225388e+00
 1.0116027982e+00	 1.0990672419e+00	-2.0775037790e+00
 1.0341411173e+00	 1.0778873786e+00	-1.9148210738e+00
 1.0562407544e+00	 1.0562407544e+00	-1.7025463987e+00
 8.1397288403e-01	 1.2450318848e+00	-1.5352130653e+00
 8.3933822721e-01	 1.2280747104e+00	-1.7729913970e+00
 8.6439796661e-01	 1.2105669138e+00	-1.9609362479e+00
 8.8913440030e-01	 1.1925167053e+00	-2.0985348597e+00
 9.1353011978e-01	 1.1739330465e+00	-2.1856046455e+00
 9.3756804954e-01	 1.1548256372e+00	-2.2222964723e+00
 9.6123148596e-01	 1.1352049000e+00	-2.2090951833e+00
 9.8450413529e-01	 1.1150819619e+00	-2.1468173255e+00
 1.0073701505e+00	 1.0944686342e+00	-2.0366060765e+00
 1.0298141671e+00	 1.0733773896e+00	-1.8799233977e+00
 1.0518213370e+00	 1.0518213370e+00	-1.6785394754e+00
 8.1055282990e-01	 1.2398006584e+00	-1.6395674908e+00
 8.3581159601e-01	 1.2229147326e+00	-1.8391809734e+00
 8.6076604238e-01	 1.2054804982e+00	-1.9948492947e+00
 8.8539854147e-01	 1.1875061310e+00	-2.1060232552e+00
 9.0969175793e-01	 1.1690005547e+00	-2.1724592358e+00
 9.3362868798e-01	 1.1499734286e+00	-2.1942225248e+00
 9.5719269821e-01	 1.1304351315e+00	-2.1716880307e+00
 9.8036756329e-01	 1.1103967436e+00	-2.1055383452e+00
 1.0031375028e+00	 1.0898700265e+00	-1.9967591489e+00
 1.0254872168e+00	 1.0688674006e+00	-1.8466319862e+00
 1.0474019197e+00	 1.0474019197e+00	-1.6567244659e+00
 8.0713277576e-01	 1.2345694320e+00	-1.7416277640e+00
 8.3228496480e-01	 1.2177547548e+00	-1.9033702283e+00
 8.5713411815e-01	 1.2003940826e+00	-2.0270912051e+00
 8.8166268265e-01	 1.1824955566e+00	-2.1122046993e+00
 9.0585339608e-01	 1.1640680629e+00	-2.1584056371e+00
 9.2968932643e-01	 1.1451212201e+00	-2.1656732392e+00
 9.5315391045e-01	 1.1256653630e+00	-2.1342719254e+00
 9.7623099129e-01	 1.1057115252e+00	-2.0647497127e+00
 9.9890485513e-01	 1.0852714188e+00	-1.9579341030e+00
 1.0211602665e+00	 1.0643574116e+00	-1.8149254804e+00
 1.0429825023e+00	 1.0429825023e+00	-1.6370880728e+00
 8.0371272163e-01	 1.2293382056e+00	-1.8413244056e+00
 8.2875833359e-01	 1.2125947770e+00	-1.9654926415e+00
 8.5350219392e-01	 1.1953076670e+00	-2.0575990308e+00
 8.7792682382e-01	 1.1774849822e+00	-2.1170204240e+00
 9.0201503423e-01	 1.1591355711e+00	-2.1433898651e+00
 9.2574996488e-01	 1.1402690115e+00	-2.1366000113e+00
 9.4911512269e-01	 1.1208955945e+00	-2.0968042298e+00
 9.7209441929e-01	 1.1010263069e+00	-2.0244153341e+00
 9.9467220744e-01	 1.0806728111e+00	-1.9201019529e+00
 1.0168333162e+00	 1.0598474225e+00	-1.7847825528e+00
 1.0385630849e+00	 1.0385630849e+00	-1.6196171627e+00
 8.0029266749e-01	 1.2241069792e+00	-1.9385871484e+00
 8.2523170239e-01	 1.2074347993e+00	-2.0254809588e+00
 8.4987026969e-01	 1.1902212514e+00	-2.0863091528e+00
 8.7419096500e-01	 1.1724744078e+00	-2.1204110641e+00
 8.9817667238e-01	 1.1542030793e+00	-2.1273574207e+00
 9.2181060332e-01	 1.1354168030e+00	-2.1069538132e+00
 9.4507633494e-01	 1.1161258260e+00	-2.0592419839e+00
 9.6795784730e-01	 1.0963410886e+00	-1.9844989023e+00
 9.9043955974e-01	 1.0760742034e+00	-1.8832336179e+00
 1.0125063659e+00	 1.0553374335e+00	-1.7561819083e+00
 1.0341436675e+00	 1.0341436675e+00	-1.6042987692e+00
 7.9687261336e-01	 1.2188757528e+00	-2.0333449201e+00
 8.2170507118e-01	 1.2022748215e+00	-2.0832671763e+00
 8.4623834546e-01	 1.1851348358e+00	-2.1131572676e+00
 8.7045510617e-01	 1.1674638334e+00	-2.1223166439e+00
 8.9433831053e-01	 1.1492705876e+00	-2.1102532787e+00
 9.1787124177e-01	 1.1305645944e+00	-2.0766851847e+00
 9.4103754718e-01	 1.1113560575e+00	-2.0215418979e+00
 9.6382127530e-01	 1.0916558703e+00	-1.9449638929e+00
 9.8620691205e-01	 1.0714755957e+00	-1.8472999205e+00
 1.0081794157e+00	 1.0508274445e+00	-1.7291022843e+00
 1.0297242501e+00	 1.0297242501e+00	-1.5911200971e+00
 7.9345255922e-01	 1.2136445264e+00	-2.1255258262e+00
 8.1817843997e-01	 1.1971148437e+00	-2.1387825244e+00
 8.4260642123e-01	 1.1800484202e+00	-2.1380783719e+00
 8.6671924734e-01	 1.1624532590e+00	-2.1226765646e+00
 8.9049994868e-01	 1.1443380958e+00	-2.0920218763e+00
 9.1393188022e-01	 1.1257123859e+00	-2.0457442236e+00
 9.3699875942e-01	 1.1065862890e+00	-1.9836603453e+00
 9.5968470330e-01	 1.0869706519e+00	-1.9057735587e+00
 9.8197426436e-01	 1.0668769880e+00	-1.8122715844e+00
 1.0038524654e+00	 1.0463174554e+00	-1.7035224521e+00
 1.0253048327e+00	 1.0253048327e+00	-1.5800685256e+00
 7.9003250508e-01	 1.2084132999e+00	-2.2150571320e+00
 8.1465180876e-01	 1.1919548659e+00	-2.1919574507e+00
 8.3897449700e-01	 1.1749620046e+00	-2.1610067478e+00
 8.6298338852e-01	 1.1574426846e+00	-2.1214295905e+00
 8.8666158683e-01	 1.1394056040e+00	-2.0726071019e+00
 9.0999251866e-01	 1.1208601773e+00	-2.0140805766e+00
 9.3295997166e-01	 1.1018165205e+00	-1.9455533556e+00
 9.5554813130e-01	 1.0822854336e+00	-1.8668909256e+00
 9.7774161667e-01	 1.0622783803e+00	-1.7781192323e+00
 9.9952551508e-01	 1.0418074664e+00	-1.6794212169e+00
 1.0208854154e+00	 1.0208854154e+00	-1.5711316122e+00
 7.8661245095e-01	 1.2031820735e+00	-2.3018652446e+00
 8.1112517755e-01	 1.1867948882e+00	-2.2427216036e+00
 8.3534257277e-01	 1.1698755890e+00	-2.1818759471e+00
 8.5924752969e-01	 1.1524321102e+00	-2.1185138349e+00
 8.8282322498e-01	 1.1344731122e+00	-2.0519522827e+00
 9.0605315711e-01	 1.1160079687e+00	-1.9816434289e+00
 9.2892118390e-01	 1.0970467521e+00	-1.9071766066e+00
 9.5141155930e-01	 1.0776002153e+00	-1.8282787874e+00
 9.7350896897e-01	 1.0576797726e+00	-1.7448133838e+00
 9.9519856480e-01	 1.0372974774e+00	-1.6567774192e+00
 1.0164659980e+00	 1.0164659980e+00	-1.5642970968e+00
 1.0606601718e+00	 1.0606601718e+00	-1.7287586934e+00
 1.0823973566e+00	 1.0384680845e+00	-1.5334711418e+00
 1.1036658055e+00	 1.0158355131e+00	-1.3430940826e+00
 1.1244522996e+00	 9.9277743023e-01	-1.1609116301e+00
 1.1447442616e+00	 9.6930932912e-01	-9.9029922890e-01
 1.1645297814e+00	 9.4544718962e-01	-8.3469928285e-01
 1.1837976385e+00	 9.2120744203e-01	-6.9759581999e-01
 1.2025373231e+00	 8.9660692988e-01	-5.8248844489e-01
 1.2207390541e+00	 8.7166287169e-01	-4.9286583835e-01
 1.2383937950e+00	 8.4639282173e-01	-4.3217906990e-01
 1.2554932668e+00	 8.2081463009e-01	-2.3002577393e-01
 1.0562407544e+00	 1.0562407544e+00	-1.7025463987e+00
 1.0778873676e+00	 1.0341411341e+00	-1.5166139953e+00
 1.0990671980e+00	 1.0116028652e+00	-1.3321723711e+00
 1.1197670817e+00	 9.8864085760e-01	-1.1523785133e+00
 1.1399744939e+00	 9.6527054025e-01	-9.8049289404e-01
 1.1596775740e+00	 9.4150782633e-01	-8.1985566694e-01
 1.1788651483e+00	 9.1736907768e-01	-6.7386183910e-01
 1.1975267509e+00	 8.9287106767e-01	-5.4593566475e-01
 1.2156526414e+00	 8.6803094306e-01	-4.3950451773e-01
 1.2332338208e+00	 8.4286618497e-01	-3.5797250495e-01
 1.2502620449e+00	 8.1739456914e-01	-2.9634840935e-01
 1.0518213370e+00	 1.0518213370e+00	-1.6785394754e+00
 1.0733773787e+00	 1.0298141838e+00	-1.5022439359e+00
 1.0944685905e+00	 1.0073702172e+00	-1.3239814777e+00
 1.1150818638e+00	 9.8450428498e-01	-1.1467818462e+00
 1.1352047261e+00	 9.6123175138e-01	-9.7379054236e-01
 1.1548253665e+00	 9.3756846304e-01	-8.0824558662e-01
 1.1739326582e+00	 9.1353071334e-01	-6.5345319492e-01
 1.1925161787e+00	 8.8913520546e-01	-5.1276261112e-01
 1.2105662287e+00	 8.6439901443e-01	-3.8954034861e-01
 1.2280738467e+00	 8.3933954822e-01	-2.8714410092e-01
 1.2450308230e+00	 8.1397450818e-01	-2.0889658353e-01
 1.0474019197e+00	 1.0474019197e+00	-1.6567244659e+00
 1.0688673897e+00	 1.0254872334e+00	-1.4903518290e+00
 1.0898699830e+00	 1.0031375692e+00	-1.3185162424e+00
 1.1103966459e+00	 9.8036771235e-01	-1.1441200852e+00
 1.1304349584e+00	 9.5719296250e-01	-9.7019388135e-01
 1.1499731591e+00	 9.3362909975e-01	-7.9987362794e-01
 1.1690001680e+00	 9.0969234900e-01	-6.3637697363e-01
 1.1875056065e+00	 8.8539934326e-01	-4.8297848677e-01
 1.2054798159e+00	 8.6076708580e-01	-3.4298426280e-01
 1.2229138725e+00	 8.3581291146e-01	-2.1970612783e-01
 1.2397996010e+00	 8.1055444722e-01	-1.1643569859e-01
 1.0429825023e+00	 1.0429825023e+00	-1.6370880728e+00
 1.0643574007e+00	 1.0211602831e+00	-1.4809287683e+00
 1.0852713755e+00	 9.9890492126e-01	-1.3157717938e+00
 1.1057114280e+00	 9.7623113973e-01	-1.1443920296e+00
 1.1256651906e+00	 9.5315417363e-01	-9.6970500847e-01
 1.1451209517e+00	 9.2968973646e-01	-7.9474480702e-01
 1.1640676778e+00	 9.0585398466e-01	-6.2264072452e-01
 1.1824950344e+00	 8.8166348105e-01	-4.5659298359e-01
 1.2003934032e+00	 8.5713515716e-01	-2.9984770003e-01
 1.2177538984e+00	 8.3228627470e-01	-1.5567137544e-01
 1.2345683791e+00	 8.0713438627e-01	-2.7325170737e-02
 1.0385630849e+00	 1.0385630849e+00	-1.6196171627e+00
 1.0598474117e+00	 1.0168333327e+00	-1.4739660803e+00
 1.0806727679e+00	 9.9467227329e-01	-1.3157435558e+00
 1.1010262101e+00	 9.7209456710e-01	-1.1475968290e+00
 1.1208954229e+00	 9.4911538476e-01	-9.7232641943e-01
 1.1402687443e+00	 9.2575037317e-01	-7.9286457923e-01
 1.1591351877e+00	 9.0201562031e-01	-6.1225246990e-01
 1.1774844622e+00	 8.7792761884e-01	-4.3361629297e-01
 1.1953069905e+00	 8.5350322853e-01	-2.6014261881e-01
 1.2125939242e+00	 8.2875963794e-01	-9.5053164243e-02
 1.2293371571e+00	 8.0371432531e-01	 5.8420724773e-02
 1.0341436675e+00	 1.0341436675e+00	-1.6042987692e+00
 1.0553374227e+00	 1.0125063824e+00	-1.4694553292e+00
 1.0760741604e+00	 9.9043962531e-01	-1.3184272534e+00
 1.0963409921e+00	 9.6795799447e-01	-1.1537339905e+00
 1.1161256551e+00	 9.4507659589e-01	-9.7806101672e-01
 1.1354165369e+00	 9.2181100988e-01	-7.9423884853e-01
 1.1542026975e+00	 8.9817725597e-01	-6.0522071514e-01
 1.1724738900e+00	 8.7419175663e-01	-4.1405911651e-01
 1.1902205778e+00	 8.4987129990e-01	-2.2388150751e-01
 1.2074339501e+00	 8.2523300119e-01	-3.7865356851e-02
 1.2241059352e+00	 8.0029426435e-01	 1.4078716575e-01
 1.0297242501e+00	 1.0297242501e+00	-1.5911200971e+00
 1.0508274337e+00	 1.0081794320e+00	-1.4673883221e+00
 1.0714755529e+00	 9.8620697734e-01	-1.3238189191e+00
 1.0916557742e+00	 9.6382142185e-01	-1.1628033865e+00
 1.1113558874e+00	 9.4103780702e-01	-9.8691211831e-01
 1.1305643294e+00	 9.1787164659e-01	-7.9887397711e-01
 1.1492702074e+00	 8.9433889163e-01	-6.0155445911e-01
 1.1674633178e+00	 8.7045589442e-01	-3.9793267689e-01
 1.1851341650e+00	 8.4623937127e-01	-1.9107739572e-01
 1.2022739760e+00	 8.2170636443e-01	 1.5877630390e-02
 1.2188747132e+00	 7.9687420339e-01	 2.1975877131e-01
 1.0253048327e+00	 1.0253048327e+00	-1.5800685256e+00
 1.0463174447e+00	 1.0038524817e+00	-1.4677571141e+00
 1.0668769454e+00	 9.8197432937e-01	-1.3319149003e+00
 1.0869705563e+00	 9.5968484922e-01	-1.1748052625e+00
 1.1065861196e+00	 9.3699901814e-01	-9.9888346662e-01
 1.1257121220e+00	 9.1393228329e-01	-8.0677679528e-01
 1.1443377172e+00	 8.9050052729e-01	-6.0126320475e-01
 1.1624527456e+00	 8.6672003221e-01	-3.8524872921e-01
 1.1800477523e+00	 8.4260744263e-01	-1.6174386593e-01
 1.1971140018e+00	 8.1817972767e-01	 6.6160815460e-02
 1.2136434913e+00	 7.9345414243e-01	 2.9531958985e-01
 1.0208854154e+00	 1.0208854154e+00	-1.5711316122e+00
 1.0418074558e+00	 9.9952553130e-01	-1.4705540141e+00
 1.0622783378e+00	 9.7774168139e-01	-1.3427118650e+00
 1.0822853384e+00	 9.5554827659e-01	-1.1897402454e+00
 1.1018163518e+00	 9.3296022927e-01	-1.0139792377e+00
 1.1208599146e+00	 9.0999292000e-01	-8.1795461160e-01
 1.1394052270e+00	 8.8666216294e-01	-6.0435697000e-01
 1.1574421735e+00	 8.6298417000e-01	-3.7601957241e-01
 1.1749613396e+00	 8.3897551400e-01	-1.3589506546e-01
 1.1919540277e+00	 8.1465309091e-01	 1.1296863843e-01
 1.2084122693e+00	 7.9003408147e-01	 3.6745308667e-01
 1.0164659980e+00	 1.0164659980e+00	-1.5642970968e+00
 1.0372974668e+00	 9.9519858095e-01	-1.4757715898e+00
 1.0576797303e+00	 9.7350903342e-01	-1.3562068098e+00
 1.0776001205e+00	 9.5141170396e-01	-1.2076093516e+00
 1.0970465841e+00	 9.2892144040e-01	-1.0322040507e+00
 1.1160077072e+00	 9.0605355671e-01	-8.3241522326e-01
 1.1344727369e+00	 8.8282379860e-01	-6.1084629903e-01
 1.1524316013e+00	 8.5924830779e-01	-3.7025806117e-01
 1.1698749268e+00	 8.3534358536e-01	-1.1354571879e-01
 1.1867940535e+00	 8.1112645415e-01	 1.5628494888e-01
 1.2031810474e+00	 7.8661402051e-01	 4.3614213131e-01
 1.2554932668e+00	 8.2081463009e-01	-2.3002577393e-01
 1.2720299594e+00	 7.9494640228e-01	-1.1574770079e-02
 1.2879971388e+00	 7.6880645837e-01	 2.0974340943e-01
 1.3033888537e+00	 7.4241329205e-01	 4.2930233521e-01
 1.3181999376e+00	 7.1578552969e-01	 6.4259484319e-01
 1.3324260103e+00	 6.8894188960e-01	 8.4523933651e-01
 1.3460634750e+00	 6.6190114164e-01	 1.0329846055e+00
 1.3591095148e+00	 6.3468206743e-01	 1.2017132660e+00
 1.3715620856e+00	 6.0730342122e-01	 1.3533221475e+00
 1.3834199070e+00	 5.7978389161e-01	 1.5083211410e+00
 1.3946824516e+00	 5.5214206435e-01	 1.6635054374e+00
 1.2502620449e+00	 8.1739456914e-01	-2.9634840935e-01
 1.2667298346e+00	 7.9163412561e-01	-5.3860284174e-02
 1.2826304841e+00	 7.6560309813e-01	 1.8804991812e-01
 1.2979580668e+00	 7.3931990334e-01	 4.2462938909e-01
 1.3127074379e+00	 7.1280308999e-01	 6.5125715491e-01
 1.3268742352e+00	 6.8607129839e-01	 8.6345075941e-01
 1.3404548772e+00	 6.5914322022e-01	 1.0568714014e+00
 1.3534465585e+00	 6.3203755882e-01	 1.2273276246e+00
 1.3658472436e+00	 6.0477299030e-01	 1.3833205520e+00
 1.3776556574e+00	 5.7736812540e-01	 1.5415027216e+00
 1.3888712747e+00	 5.4984147241e-01	 1.6959394225e+00
 1.2450308230e+00	 8.1397450818e-01	-2.0889658353e-01
 1.2614297097e+00	 7.8832184894e-01	-1.0115352484e-01
 1.2772638293e+00	 7.6239973789e-01	 1.6186149326e-01
 1.2925272799e+00	 7.3622651462e-01	 4.1594167887e-01
 1.3072149381e+00	 7.0982065028e-01	 6.5635186869e-01
 1.3213224602e+00	 6.8320070719e-01	 8.7850847987e-01
 1.3348462794e+00	 6.5638529880e-01	 1.0779849621e+00
 1.3477836022e+00	 6.2939305021e-01	 1.2505157360e+00
 1.3601324015e+00	 6.0224255938e-01	 1.4128118080e+00
 1.3718914078e+00	 5.7495235919e-01	 1.5745890521e+00
 1.3830600978e+00	 5.4754088048e-01	 1.7286558805e+00
 1.2397996010e+00	 8.1055444722e-01	-1.1643569859e-01
 1.2561295849e+00	 7.8500957226e-01	-1.5351227828e-01
 1.2718971746e+00	 7.5919637765e-01	 1.3112742614e-01
 1.2870964930e+00	 7.3313312591e-01	 4.0319526908e-01
 1.3017224384e+00	 7.0683821058e-01	 6.5784150673e-01
 1.3157706851e+00	 6.8033011599e-01	 8.9038115164e-01
 1.3292376816e+00	 6.5362737738e-01	 1.0962997371e+00
 1.3421206459e+00	 6.2674854160e-01	 1.2712575011e+00
 1.3544175595e+00	 5.9971212846e-01	 1.4418303907e+00
 1.3661271581e+00	 5.7253659298e-01	 1.6076166682e+00
 1.3772489209e+00	 5.4524028855e-01	 1.7616930266e+00
 1.2345683791e+00	 8.0713438627e-01	-2.7325170737e-02
 1.2508294601e+00	 7.8169729559e-01	-2.1099474130e-01
 1.2665305199e+00	 7.5599301741e-01	 9.5796705038e-02
 1.2816657061e+00	 7.3003973719e-01	 3.8634602262e-01
 1.2962299387e+00	 7.0385577087e-01	 6.5568848459e-01
 1.3102189101e+00	 6.7745952478e-01	 8.9903741028e-01
 1.3236290838e+00	 6.5086945596e-01	 1.1117902396e+00
 1.3364576896e+00	 6.2410403299e-01	 1.2903201162e+00
 1.3487027175e+00	 5.9718169754e-01	 1.4704109824e+00
 1.3603629085e+00	 5.7012082676e-01	 1.6406223741e+00
 1.3714377441e+00	 5.4293969661e-01	 1.7950893991e+00
 1.2293371571e+00	 8.0371432531e-01	 5.8420724773e-02
 1.2455293352e+00	 7.7838501891e-01	-1.1956844542e-01
 1.2611638651e+00	 7.5278965716e-01	 5.5818008766e-02
 1.2762349192e+00	 7.2694634848e-01	 3.6534959646e-01
 1.2907374389e+00	 7.0087333117e-01	 6.4985510885e-01
 1.3046671350e+00	 6.7458893358e-01	 9.0444587275e-01
 1.3180204859e+00	 6.4811153454e-01	 1.1244310477e+00
 1.3307947333e+00	 6.2145952438e-01	 1.3095320524e+00
 1.3429878755e+00	 5.9465126662e-01	 1.4985884770e+00
 1.3545986589e+00	 5.6770506055e-01	 1.6736432486e+00
 1.3656265672e+00	 5.4063910468e-01	 1.8288838667e+00
 1.2241059352e+00	 8.0029426435e-01	 1.4078716575e-01
 1.2402292104e+00	 7.7507274223e-01	-2.4919830041e-03
 1.2557972104e+00	 7.4958629692e-01	 1.1139700072e-02
 1.2708041323e+00	 7.2385295976e-01	 3.4016143724e-01
 1.2852449392e+00	 6.9789089146e-01	 6.4030357489e-01
 1.2991153600e+00	 6.7171834237e-01	 9.0657513705e-01
 1.3124118881e+00	 6.4535361311e-01	 1.1341968060e+00
 1.3251317770e+00	 6.1881501576e-01	 1.3279209754e+00
 1.3372730334e+00	 5.9212083570e-01	 1.5263979844e+00
 1.3488344093e+00	 5.6528929433e-01	 1.7067166507e+00
 1.3598153903e+00	 5.3833851274e-01	 1.8631156354e+00
 1.2188747132e+00	 7.9687420339e-01	 2.1975877131e-01
 1.2349290856e+00	 7.7176046556e-01	 1.1182944031e-01
 1.2504305556e+00	 7.4638293668e-01	-3.8290181156e-02
 1.2653733454e+00	 7.2075957104e-01	 3.1073677673e-01
 1.2797524394e+00	 6.9490845175e-01	 6.2699596439e-01
 1.2935635850e+00	 6.6884775116e-01	 9.0539378176e-01
 1.3068032903e+00	 6.4259569169e-01	 1.1410622269e+00
 1.3194688206e+00	 6.1617050715e-01	 1.3455194878e+00
 1.3315581914e+00	 5.8959040478e-01	 1.5538748351e+00
 1.3430701597e+00	 5.6287352812e-01	 1.7398802254e+00
 1.3540042134e+00	 5.3603792081e-01	 1.8978242557e+00
 1.2136434913e+00	 7.9345414243e-01	 2.9531958985e-01
 1.2296289607e+00	 7.6844818888e-01	 2.2338648177e-01
 1.2450639009e+00	 7.4317957643e-01	 9.0153380003e-02
 1.2599425585e+00	 7.1766618232e-01	 2.7703062726e-01
 1.2742599397e+00	 6.9192601204e-01	 6.0989424296e-01
 1.2880118099e+00	 6.6597715995e-01	 9.0087036565e-01
 1.3011946925e+00	 6.3983777026e-01	 1.1450020919e+00
 1.3138058643e+00	 6.1352599853e-01	 1.3623603430e+00
 1.3258433494e+00	 5.8705997386e-01	 1.5810545854e+00
 1.3373059101e+00	 5.6045776190e-01	 1.7731719107e+00
 1.3481930365e+00	 5.3373732887e-01	 1.9330496300e+00
 1.2084122693e+00	 7.9003408147e-01	 3.6745308667e-01
 1.2243288359e+00	 7.6513591220e-01	 3.3216934203e-01
 1.2396972461e+00	 7.3997621619e-01	 2.3227313887e-01
 1.2545117716e+00	 7.1457279361e-01	 2.3899777689e-01
 1.2687674400e+00	 6.8894357234e-01	 5.8896025757e-01
 1.2824600349e+00	 6.6310656875e-01	 8.9297342727e-01
 1.2955860947e+00	 6.3707984884e-01	 1.1459912535e+00
 1.3081429080e+00	 6.1088148992e-01	 1.3784764489e+00
 1.3201285074e+00	 5.8452954293e-01	 1.6079730217e+00
 1.3315416605e+00	 5.5804199569e-01	 1.8066299428e+00
 1.3423818596e+00	 5.3143673694e-01	 1.9688320203e+00
 1.2031810474e+00	 7.8661402051e-01	 4.3614213131e-01
 1.2190287111e+00	 7.6182363552e-01	 4.3816775514e-01
 1.2343305914e+00	 7.3677285594e-01	 3.7223835771e-01
 1.2490809847e+00	 7.1147940489e-01	 2.3281994764e-01
 1.2632749402e+00	 6.8596113263e-01	 5.6415573404e-01
 1.2769082598e+00	 6.6023597754e-01	 8.8167148448e-01
 1.2899774969e+00	 6.3432192741e-01	 1.1440046364e+00
 1.3024799517e+00	 6.0823698130e-01	 1.3939008710e+00
 1.3144136653e+00	 5.8199911201e-01	 1.6346661656e+00
 1.3257774108e+00	 5.5562622947e-01	 1.8402928634e+00
 1.3365706828e+00	 5.2913614500e-01	 2.0052120562e+00
 1.3946824516e+00	 5.5214206435e-01	 1.6635054374e+00
 1.4053499316e+00	 5.2439638616e-01	 1.8402806388e+00
 1.4154232836e+00	 4.9656512995e-01	 2.0145739258e+00
 1.4249041518e+00	 4.6866636132e-01	 2.1828861501e+00
 1.4337948692e+00	 4.4071790656e-01	 2.3420746757e+00
 1.4420984373e+00	 4.1273732226e-01	 2.4893724393e+00
 1.4498185046e+00	 3.8474186651e-01	 2.6224029208e+00
 1.4569593432e+00	 3.5674847186e-01	 2.7391910446e+00
 1.4635258252e+00	 3.2877372004e-01	 2.8381700813e+00
 1.4695233968e+00	 3.0083381846e-01	 2.9181846592e+00
 1.4749580526e+00	 2.7294457860e-01	 2.9784900319e+00
 1.3888712747e+00	 5.4984147241e-01	 1.6959394225e+00
 1.3994943069e+00	 5.2221140121e-01	 1.8642900577e+00
 1.4095256866e+00	 4.9449610857e-01	 2.0310093375e+00
 1.4189670511e+00	 4.6671358481e-01	 2.1926784582e+00
 1.4278207239e+00	 4.3888158195e-01	 2.3462264822e+00
 1.4360896938e+00	 4.1101758342e-01	 2.4889491650e+00
 1.4437775941e+00	 3.8313877540e-01	 2.6185237629e+00
 1.4508886793e+00	 3.5526201989e-01	 2.7330198427e+00
 1.4574278009e+00	 3.2740382954e-01	 2.8309061603e+00
 1.4634003826e+00	 2.9958034422e-01	 2.9110537146e+00
 1.4688123941e+00	 2.7180730953e-01	 2.9727351210e+00
 1.3830600978e+00	 5.4754088048e-01	 1.7286558805e+00
 1.3936386821e+00	 5.2002641627e-01	 1.8886577856e+00
 1.4036280896e+00	 4.9242708720e-01	 2.0478824216e+00
 1.4130299505e+00	 4.6476080831e-01	 2.2029903541e+00
 1.4218465786e+00	 4.3704525734e-01	 2.3509814113e+00
 1.4300809503e+00	 4.0929784457e-01	 2.4892132819e+00
 1.4377366837e+00	 3.8153568429e-01	 2.6154161633e+00
 1.4448180154e+00	 3.5377556793e-01	 2.7277034830e+00
 1.4513297766e+00	 3.2603393904e-01	 2.8245787566e+00
 1.4572773685e+00	 2.9832686997e-01	 2.9049386861e+00
 1.4626667355e+00	 2.7067004045e-01	 2.9680726402e+00
 1.3772489209e+00	 5.4524028855e-01	 1.7616930266e+00
 1.3877830574e+00	 5.1784143133e-01	 1.9134199666e+00
 1.3977304925e+00	 4.9035806583e-01	 2.0652273850e+00
 1.4070928499e+00	 4.6280803180e-01	 2.2138542462e+00
 1.4158724333e+00	 4.3520893273e-01	 2.3563702165e+00
 1.4240722068e+00	 4.0757810573e-01	 2.4901940355e+00
 1.4316957732e+00	 3.7993259318e-01	 2.6131080100e+00
 1.4387473514e+00	 3.5228911596e-01	 2.7232686493e+00
 1.4452317524e+00	 3.2466404854e-01	 2.8192135049e+00
 1.4511543543e+00	 2.9707339573e-01	 2.8998643157e+00
 1.4565210770e+00	 2.6953277137e-01	 2.9645265972e+00
 1.3714377441e+00	 5.4293969661e-01	 1.7950893991e+00
 1.3819274327e+00	 5.1565644639e-01	 1.9386130587e+00
 1.3918328955e+00	 4.8828904445e-01	 2.0830787407e+00
 1.4011557492e+00	 4.6085525530e-01	 2.2253028434e+00
 1.4098982880e+00	 4.3337260812e-01	 2.3624239471e+00
 1.4180634633e+00	 4.0585836689e-01	 2.4919209645e+00
 1.4256548628e+00	 3.7832950207e-01	 2.6116274830e+00
 1.4326766875e+00	 3.5080266400e-01	 2.7197423173e+00
 1.4391337281e+00	 3.2329415804e-01	 2.8148363336e+00
 1.4450313401e+00	 2.9581992149e-01	 2.8958556434e+00
 1.4503754184e+00	 2.6839550230e-01	 2.9621213023e+00
 1.3656265672e+00	 5.4063910468e-01	 1.8288838667e+00
 1.3760718080e+00	 5.1347146145e-01	 1.9642738405e+00
 1.3859352985e+00	 4.8622002308e-01	 2.1014713147e+00
 1.3952186486e+00	 4.5890247879e-01	 2.2373691610e+00
 1.4039241427e+00	 4.3153628351e-01	 2.3691739544e+00
 1.4120547198e+00	 4.0413862805e-01	 2.4944239066e+00
 1.4196139524e+00	 3.7672641096e-01	 2.6110030600e+00
 1.4266060236e+00	 3.4931621203e-01	 2.7171517614e+00
 1.4330357038e+00	 3.2192426754e-01	 2.8114734720e+00
 1.4389083260e+00	 2.9456644724e-01	 2.8929380129e+00
 1.4442297599e+00	 2.6725823322e-01	 2.9608813750e+00
 1.3598153903e+00	 5.3833851274e-01	 1.8631156354e+00
 1.3702161833e+00	 5.1128647651e-01	 1.9904394181e+00
 1.3800377015e+00	 4.8415100170e-01	 2.1204402523e+00
 1.3892815480e+00	 4.5694970229e-01	 2.2500865273e+00
 1.3979499974e+00	 4.2969995890e-01	 2.3766518982e+00
 1.4060459763e+00	 4.0241888920e-01	 2.4977330051e+00
 1.4135730419e+00	 3.7512331984e-01	 2.6112635234e+00
 1.4205353596e+00	 3.4782976006e-01	 2.7155245606e+00
 1.4269376795e+00	 3.2055437704e-01	 2.8091514560e+00
 1.4327853118e+00	 2.9331297300e-01	 2.8911370788e+00
 1.4380841013e+00	 2.6612096414e-01	 2.9608317507e+00
 1.3540042134e+00	 5.3603792081e-01	 1.8978242557e+00
 1.3643605586e+00	 5.0910149156e-01	 2.0171472323e+00
 1.3741401045e+00	 4.8208198033e-01	 2.1400210252e+00
 1.3833444473e+00	 4.5499692578e-01	 2.2634885908e+00
 1.3919758521e+00	 4.2786363428e-01	 2.3848897536e+00
 1.4000372328e+00	 4.0069915036e-01	 2.5018787156e+00
 1.4075321315e+00	 3.7352022873e-01	 2.6124379663e+00
 1.4144646957e+00	 3.4634330810e-01	 2.7148886053e+00
 1.4208396553e+00	 3.1918448654e-01	 2.8078971351e+00
 1.4266622977e+00	 2.9205949875e-01	 2.8904788126e+00
 1.4319384427e+00	 2.6498369506e-01	 2.9619976871e+00
 1.3481930365e+00	 5.3373732887e-01	 1.9330496300e+00
 1.3585049338e+00	 5.0691650662e-01	 2.0444350655e+00
 1.3682425074e+00	 4.8001295895e-01	 2.1602494381e+00
 1.3774073467e+00	 4.5304414927e-01	 2.2776093262e+00
 1.3860017068e+00	 4.2602730967e-01	 2.3939198173e+00
 1.3940284893e+00	 3.9897941151e-01	 2.5068918125e+00
 1.4014912210e+00	 3.7191713762e-01	 2.6145557993e+00
 1.4083940318e+00	 3.4485685613e-01	 2.7152721041e+00
 1.4147416310e+00	 3.1781459603e-01	 2.8077376789e+00
 1.4205392835e+00	 2.9080602451e-01	 2.8909895099e+00
 1.4257927842e+00	 2.6384642598e-01	 2.9644047715e+00
 1.3423818596e+00	 5.3143673694e-01	 1.9688320203e+00
 1.3526493091e+00	 5.0473152168e-01	 2.0723410493e+00
 1.3623449104e+00	 4.7794393758e-01	 2.1811616367e+00
 1.3714702461e+00	 4.5109137277e-01	 2.2924830425e+00
 1.3800275615e+00	 4.2419098506e-01	 2.4037747151e+00
 1.3880197459e+00	 3.9725967267e-01	 2.5128033960e+00
 1.3954503106e+00	 3.7031404651e-01	 2.6176467577e+00
 1.4023233678e+00	 3.4337040416e-01	 2.7167035903e+00
 1.4086436067e+00	 3.1644470553e-01	 2.8087005841e+00
 1.4144162694e+00	 2.8955255026e-01	 2.8926957974e+00
 1.4196471256e+00	 2.6270915690e-01	 2.9680789280e+00
 1.3365706828e+00	 5.2913614500e-01	 2.0052120562e+00
 1.3467936844e+00	 5.0254653673e-01	 2.1009036718e+00
 1.3564473134e+00	 4.7587491620e-01	 2.2027941144e+00
 1.3655331454e+00	 4.4913859626e-01	 2.3081443894e+00
 1.3740534163e+00	 4.2235466045e-01	 2.4144874089e+00
 1.3820110024e+00	 3.9553993383e-01	 2.5196448990e+00
 1.3894094002e+00	 3.6871095540e-01	 2.6217409083e+00
 1.3962527039e+00	 3.4188395219e-01	 2.7192119294e+00
 1.4025455825e+00	 3.1507481503e-01	 2.8108136817e+00
 1.4082932552e+00	 2.8829907602e-01	 2.8956246400e+00
 1.4135014671e+00	 2.6157188782e-01	 2.9730464242e+00
 1.4749580526e+00	 2.7294457860e-01	 2.9784900319e+00
 1.4798363089e+00	 2.4512139624e-01	 3.1615978339e+00
 1.4841651757e+00	 2.1737923352e-01	 3.3161719515e+00
 1.4879521294e+00	 1.8973260295e-01	 3.4417915078e+00
 1.4912050840e+00	 1.6219555322e-01	 3.5384757939e+00
 1.4939323629e+00	 1.3478165683e-01	 3.6066682090e+00
 1.4961426704e+00	 1.0750399959e-01	 3.6472175784e+00
 1.4978450627e+00	 8.0375171821e-02	 3.6613571563e+00
 1.4990489200e+00	 5.3407261319e-02	 3.6506816269e+00
 1.4997639179e+00	 2.6611847972e-02	 3.6171224163e+00
 1.5000000000e+00	 0.0000000000e+00	 3.5629216262e+00
 1.4688123941e+00	 2.7180730953e-01	 2.9727351210e+00
 1.4736703243e+00	 2.4410005709e-01	 3.1610706662e+00
 1.4779811542e+00	 2.1647348671e-01	 3.3194380857e+00
 1.4817523289e+00	 1.8894205044e-01	 3.4474646991e+00
 1.4849917295e+00	 1.6151973842e-01	 3.5452168096e+00
 1.4877076447e+00	 1.3422006660e-01	 3.6131834889e+00
 1.4899087426e+00	 1.0705606626e-01	 3.6522577684e+00
 1.4916040416e+00	 8.0040275274e-02	 3.6637155465e+00
 1.4928028828e+00	 5.3184731065e-02	 3.6491925204e+00
 1.4935149016e+00	 2.6500965273e-02	 3.6106594542e+00
 1.4937500000e+00	 0.0000000000e+00	 3.5503960928e+00
 1.4626667355e+00	 2.7067004045e-01	 2.9680726402e+00
 1.4675043396e+00	 2.4307871794e-01	 3.1617156072e+00
 1.4717971326e+00	 2.1556773991e-01	 3.3239295852e+00
 1.4755525283e+00	 1.8815149793e-01	 3.4543900981e+00
 1.4787783750e+00	 1.6084392361e-01	 3.5532105675e+00
 1.4814829266e+00	 1.3365847636e-01	 3.6209259370e+00
 1.4836748148e+00	 1.0660813293e-01	 3.6584737344e+00
 1.4853630205e+00	 7.9705378727e-02	 3.6671728776e+00
 1.4865568456e+00	 5.2962200810e-02	 3.6487005327e+00
 1.4872658853e+00	 2.6390082574e-02	 3.6050673341e+00
 1.4875000000e+00	 0.0000000000e+00	 3.5385912722e+00
 1.4565210770e+00	 2.6953277137e-01	 2.9645265972e+00
 1.4613383550e+00	 2.4205737879e-01	 3.1635561719e+00
 1.4656131110e+00	 2.1466199311e-01	 3.3296693456e+00
 1.4693527278e+00	 1.8736094542e-01	 3.4625898594e+00
 1.4725650204e+00	 1.6016810881e-01	 3.5624783643e+00
 1.4752582084e+00	 1.3309688613e-01	 3.6299158804e+00
 1.4774408870e+00	 1.0616019960e-01	 3.6658847265e+00
 1.4791219994e+00	 7.9370482179e-02	 3.6717472199e+00
 1.4803108085e+00	 5.2739670556e-02	 3.6492224569e+00
 1.4810168690e+00	 2.6279199874e-02	 3.6003614785e+00
 1.4812500000e+00	 0.0000000000e+00	 3.5275211278e+00
 1.4503754184e+00	 2.6839550230e-01	 2.9621213023e+00
 1.4551723704e+00	 2.4103603964e-01	 3.1666161859e+00
 1.4594290895e+00	 2.1375624630e-01	 3.3366805775e+00
 1.4631529272e+00	 1.8657039291e-01	 3.4720864540e+00
 1.4663516659e+00	 1.5949229401e-01	 3.5730418109e+00
 1.4690334902e+00	 1.3253529589e-01	 3.6401739549e+00
 1.4712069592e+00	 1.0571226627e-01	 3.6745102949e+00
 1.4728809783e+00	 7.9035585630e-02	 3.6774569330e+00
 1.4740647713e+00	 5.2517140301e-02	 3.6507753607e+00
 1.4747678526e+00	 2.6168317175e-02	 3.5965575670e+00
 1.4750000000e+00	 0.0000000000e+00	 3.5171998593e+00
 1.4442297599e+00	 2.6725823322e-01	 2.9608813750e+00
 1.4490063858e+00	 2.4001470049e-01	 3.1709197919e+00
 1.4532450679e+00	 2.1285049949e-01	 3.3449868136e+00
 1.4569531267e+00	 1.8577984040e-01	 3.4829026758e+00
 1.4601383114e+00	 1.5881647920e-01	 3.5849228393e+00
 1.4628087720e+00	 1.3197370566e-01	 3.6517211118e+00
 1.4649730314e+00	 1.0526433294e-01	 3.6843702970e+00
 1.4666399572e+00	 7.8700689081e-02	 3.6843206712e+00
 1.4678187341e+00	 5.2294610046e-02	 3.6533765918e+00
 1.4685188363e+00	 2.6057434475e-02	 3.5936715415e+00
 1.4687500000e+00	 0.0000000000e+00	 3.5076419084e+00
 1.4380841013e+00	 2.6612096414e-01	 2.9608317507e+00
 1.4428404012e+00	 2.3899336134e-01	 3.1764914567e+00
 1.4470610463e+00	 2.1194475269e-01	 3.3546119153e+00
 1.4507533262e+00	 1.8498928789e-01	 3.4950616487e+00
 1.4539249569e+00	 1.5814066440e-01	 3.5981437090e+00
 1.4565840538e+00	 1.3141211542e-01	 3.6645786245e+00
 1.4587391036e+00	 1.0481639961e-01	 3.6954849031e+00
 1.4603989361e+00	 7.8365792532e-02	 3.6923573901e+00
 1.4615726970e+00	 5.2072079790e-02	 3.6570437839e+00
 1.4622698200e+00	 2.5946551775e-02	 3.5917196118e+00
 1.4625000000e+00	 0.0000000000e+00	 3.4988619634e+00
 1.4319384427e+00	 2.6498369506e-01	 2.9619976871e+00
 1.4366744165e+00	 2.3797202219e-01	 3.1833559780e+00
 1.4408770248e+00	 2.1103900588e-01	 3.3655800795e+00
 1.4445535256e+00	 1.8419873537e-01	 3.5085868336e+00
 1.4477116024e+00	 1.5746484959e-01	 3.6127270143e+00
 1.4503593357e+00	 1.3085052518e-01	 3.6787680956e+00
 1.4525051758e+00	 1.0436846628e-01	 3.7078746039e+00
 1.4541579150e+00	 7.8030895982e-02	 3.7015863533e+00
 1.4553266598e+00	 5.1849549534e-02	 3.6617948634e+00
 1.4560208037e+00	 2.5835669075e-02	 3.5907182615e+00
 1.4562500000e+00	 0.0000000000e+00	 3.4908749649e+00
 1.4257927842e+00	 2.6384642598e-01	 2.9644047715e+00
 1.4305084319e+00	 2.3695068303e-01	 3.1915384919e+00
 1.4346930032e+00	 2.1013325907e-01	 3.3779158463e+00
 1.4383537251e+00	 1.8340818286e-01	 3.5235020355e+00
 1.4414982478e+00	 1.5678903478e-01	 3.6286956916e+00
 1.4441346175e+00	 1.3028893494e-01	 3.6943114638e+00
 1.4462712480e+00	 1.0392053294e-01	 3.7215602169e+00
 1.4479168939e+00	 7.7695999432e-02	 3.7120271385e+00
 1.4490806226e+00	 5.1627019278e-02	 3.6676480549e+00
 1.4497717873e+00	 2.5724786375e-02	 3.5906842540e+00
 1.4500000000e+00	 0.0000000000e+00	 3.4836961112e+00
 1.4196471256e+00	 2.6270915690e-01	 2.9680789280e+00
 1.4243424473e+00	 2.3592934388e-01	 3.2010644794e+00
 1.4285089816e+00	 2.0922751226e-01	 3.3916441063e+00
 1.4321539245e+00	 1.8261763034e-01	 3.5398314115e+00
 1.4352848933e+00	 1.5611321998e-01	 3.6460730265e+00
 1.4379098993e+00	 1.2972734470e-01	 3.7112310113e+00
 1.4400373202e+00	 1.0347259961e-01	 3.7365628937e+00
 1.4416758728e+00	 7.7361102881e-02	 3.7236996450e+00
 1.4428345855e+00	 5.1404489022e-02	 3.6746218883e+00
 1.4435227710e+00	 2.5613903674e-02	 3.5916346381e+00
 1.4437500000e+00	 0.0000000000e+00	 3.4773408636e+00
 1.4135014671e+00	 2.6157188782e-01	 2.9730464242e+00
 1.4181764627e+00	 2.3490800473e-01	 3.2119597748e+00
 1.4223249601e+00	 2.0832176545e-01	 3.4067901080e+00
 1.4259541240e+00	 1.8182707783e-01	 3.5575994778e+00
 1.4290715388e+00	 1.5543740517e-01	 3.6648826618e+00
 1.4316851811e+00	 1.2916575446e-01	 3.7295493712e+00
 1.4338033924e+00	 1.0302466628e-01	 3.7529041272e+00
 1.4354348517e+00	 7.7026206330e-02	 3.7366240999e+00
 1.4365885483e+00	 5.1181958765e-02	 3.6827352052e+00
 1.4372737547e+00	 2.5503020974e-02	 3.5935867547e+00
 1.4375000000e+00	 0.0000000000e+00	 3.4718249522e+00
 0.0000000000e+00	 1.4375000000e+00	-6.8717283387e-01
 2.5503020974e-02	 1.4372737547e+00	-8.3361158597e-01
 5.1181958765e-02	 1.4365885483e+00	-9.6125766203e-01
 7.7026206330e-02	 1.4354348517e+00	-1.0680348229e+00
 1.0302466628e-01	 1.4338033924e+00	-1.1520435649e+00
 1.2916575446e-01	 1.4316851811e+00	-1.2115787052e+00
 1.5543740517e-01	 1.4290715388e+00	-1.2451463204e+00
 1.8182707783e-01	 1.4259541240e+00	-1.2514798561e+00
 2.0832176545e-01	 1.4223249601e+00	-1.2295552227e+00
 2.3490800473e-01	 1.4181764627e+00	-1.1786046884e+00
 2.6157188782e-01	 1.4135014671e+00	-1.0981293869e+00
 0.0000000000e+00	 1.4312500000e+00	-7.3990870650e-01
 2.5392138273e-02	 1.4310247384e+00	-8.7407635489e-01
 5.0959428508e-02	 1.4303425111e+00	-9.9107954326e-01
 7.6691309779e-02	 1.4291938306e+00	-1.0890011783e+00
 1.0257673294e-01	 1.4275694646e+00	-1.1660987703e+00
 1.2860416423e-01	 1.4254604629e+00	-1.2208212932e+00
 1.5476159036e-01	 1.4228581843e+00	-1.2518253822e+00
 1.8103652531e-01	 1.4197543235e+00	-1.2579906907e+00
 2.0741601865e-01	 1.4161409385e+00	-1.2384342247e+00
 2.3388666557e-01	 1.4120104780e+00	-1.1925234727e+00
 2.6043461874e-01	 1.4073558085e+00	-1.1198881513e+00
 0.0000000000e+00	 1.4250000000e+00	-7.9661952329e-01
 2.5281255573e-02	 1.4247757220e+00	-9.1806645386e-01
 5.0736898251e-02	 1.4240964740e+00	-1.0239811782e+00
 7.6356413228e-02	 1.4229528095e+00	-1.1126065955e+00
 1.0212879961e-01	 1.4213355368e+00	-1.1823581154e+00
 1.2804257399e-01	 1.4192357448e+00	-1.2318397923e+00
 1.5408577555e-01	 1.4166448298e+00	-1.2598597809e+00
 1.8024597280e-01	 1.4135545229e+00	-1.2654449384e+00
 2.0651027184e-01	 1.4099569169e+00	-1.2478543961e+00
 2.3286532642e-01	 1.4058444934e+00	-1.2065919240e+00
 2.5929734967e-01	 1.4012101500e+00	-1.1414169123e+00
 0.0000000000e+00	 1.4187500000e+00	-8.5735083104e-01
 2.5170372873e-02	 1.4185267057e+00	-9.6562097676e-01
 5.0514367995e-02	 1.4178504368e+00	-1.0599953945e+00
 7.6021516678e-02	 1.4167117884e+00	-1.1388778358e+00
 1.0168086628e-01	 1.4151016090e+00	-1.2008425083e+00
 1.2748098375e-01	 1.4130110266e+00	-1.2446494839e+00
 1.5340996075e-01	 1.4104314753e+00	-1.2692594100e+00
 1.7945542029e-01	 1.4073547224e+00	-1.2738473562e+00
 2.0560452503e-01	 1.4037728954e+00	-1.2578156215e+00
 2.3184398727e-01	 1.3996785088e+00	-1.2208053307e+00
 2.5816008059e-01	 1.3950644914e+00	-1.1627066494e+00
 0.0000000000e+00	 1.4125000000e+00	-9.2214898266e-01
 2.5059490172e-02	 1.4122776894e+00	-1.0167797052e+00
 5.0291837739e-02	 1.4116043996e+00	-1.0991555917e+00
 7.5686620128e-02	 1.4104707673e+00	-1.1678421192e+00
 1.0123293294e-01	 1.4088676813e+00	-1.2215732059e+00
 1.2691939351e-01	 1.4067863084e+00	-1.2592658906e+00
 1.5273414594e-01	 1.4042181207e+00	-1.2800343003e+00
 1.7866486777e-01	 1.4011549218e+00	-1.2832027386e+00
 2.0469877822e-01	 1.3975888738e+00	-1.2683177266e+00
 2.3082264811e-01	 1.3935125242e+00	-1.2351588297e+00
 2.5702281151e-01	 1.3889188329e+00	-1.1837481029e+00
 0.0000000000e+00	 1.4062500000e+00	-9.9106115511e-01
 2.4948607473e-02	 1.4060286731e+00	-1.0715831240e+00
 5.0069307484e-02	 1.4053583625e+00	-1.1414957539e+00
 7.5351723579e-02	 1.4042297462e+00	-1.1995271347e+00
 1.0078499961e-01	 1.4026337535e+00	-1.2445718207e+00
 1.2635780327e-01	 1.4005615902e+00	-1.2757047815e+00
 1.5205833114e-01	 1.3980047662e+00	-1.2921946233e+00
 1.7787431526e-01	 1.3949551213e+00	-1.2935159181e+00
 2.0379303141e-01	 1.3914048522e+00	-1.2793604771e+00
 2.2980130896e-01	 1.3873465396e+00	-1.2496474037e+00
 2.5588554243e-01	 1.3827731743e+00	-1.2045317686e+00
 0.0000000000e+00	 1.4000000000e+00	-1.0641353678e+00
 2.4837724773e-02	 1.3997796567e+00	-1.1300724366e+00
 4.9846777229e-02	 1.3991123253e+00	-1.1870504628e+00
 7.5016827030e-02	 1.3979887252e+00	-1.2339610505e+00
 1.0033706628e-01	 1.3963998257e+00	-1.2698603297e+00
 1.2579621304e-01	 1.3943368721e+00	-1.2939821778e+00
 1.5138251633e-01	 1.3917914117e+00	-1.3057506939e+00
 1.7708376275e-01	 1.3887553208e+00	-1.3047917664e+00
 2.0288728461e-01	 1.3852208307e+00	-1.2909435766e+00
 2.2877996981e-01	 1.3811805549e+00	-1.2642658773e+00
 2.5474827335e-01	 1.3766275158e+00	-1.2250478927e+00
 0.0000000000e+00	 1.3937500000e+00	-1.1414205015e+00
 2.4726842073e-02	 1.3935306404e+00	-1.1922895813e+00
 4.9624246974e-02	 1.3928662881e+00	-1.2358549114e+00
 7.4681930482e-02	 1.3917477041e+00	-1.2711725251e+00
 9.9889132950e-02	 1.3901658979e+00	-1.2974610819e+00
 1.2523462280e-01	 1.3881121539e+00	-1.3141143586e+00
 1.5070670153e-01	 1.3855780572e+00	-1.3207129740e+00
 1.7629321024e-01	 1.3825555202e+00	-1.3170351949e+00
 2.0198153780e-01	 1.3790368091e+00	-1.3030666662e+00
 2.2775863066e-01	 1.3750145703e+00	-1.2790089135e+00
 2.5361100428e-01	 1.3704818572e+00	-1.2452864656e+00
 0.0000000000e+00	 1.3875000000e+00	-1.2229663177e+00
 2.4615959374e-02	 1.3872816241e+00	-1.2582772480e+00
 4.9401716719e-02	 1.3866202510e+00	-1.2879449172e+00
 7.4347033934e-02	 1.3855066830e+00	-1.3111907176e+00
 9.9441199620e-02	 1.3839319701e+00	-1.3273968069e+00
 1.2467303257e-01	 1.3818874357e+00	-1.3361178662e+00
 1.5003088672e-01	 1.3793647027e+00	-1.3370920758e+00
 1.7550265773e-01	 1.3763557197e+00	-1.3302511557e+00
 2.0107579100e-01	 1.3728527875e+00	-1.3157293221e+00
 2.2673729151e-01	 1.3688485857e+00	-1.2938710102e+00
 2.5247373520e-01	 1.3643361987e+00	-1.2652372168e+00
 0.0000000000e+00	 1.3812500000e+00	-1.3088234785e+00
 2.4505076675e-02	 1.3810326078e+00	-1.3280788947e+00
 4.9179186465e-02	 1.3803742138e+00	-1.3433569366e+00
 7.4012137386e-02	 1.3792656619e+00	-1.3540453002e+00
 9.8993266290e-02	 1.3776980423e+00	-1.3596906236e+00
 1.2411144233e-01	 1.3756627175e+00	-1.3600095128e+00
 1.4935507192e-01	 1.3731513482e+00	-1.3548987649e+00
 1.7471210522e-01	 1.3701559191e+00	-1.3444446428e+00
 2.0017004419e-01	 1.3666687660e+00	-1.3289310550e+00
 2.2571595236e-01	 1.3626826011e+00	-1.3088464963e+00
 2.5133646612e-01	 1.3581905401e+00	-1.2848896084e+00
 0.0000000000e+00	 1.3750000000e+00	-1.3990435671e+00
 2.4394193976e-02	 1.3747835914e+00	-1.4017387656e+00
 4.8956656211e-02	 1.3741281766e+00	-1.4021280798e+00
 7.3677240839e-02	 1.3730246408e+00	-1.3997664686e+00
 9.8545332961e-02	 1.3714641145e+00	-1.3943660489e+00
 1.2354985210e-01	 1.3694379993e+00	-1.3858063860e+00
 1.4867925712e-01	 1.3669379937e+00	-1.3741439642e+00
 1.7392155271e-01	 1.3639561186e+00	-1.3596206928e+00
 1.9926429739e-01	 1.3604847444e+00	-1.3426713079e+00
 2.2469461322e-01	 1.3565166165e+00	-1.3239295281e+00
 2.5019919705e-01	 1.3520448816e+00	-1.3042328295e+00
 2.6157188782e-01	 1.4135014671e+00	-1.0981293869e+00
 2.8829909158e-01	 1.4082932490e+00	-1.1068597431e+00
 3.1507487790e-01	 1.4025455574e+00	-1.1340168413e+00
 3.4188409503e-01	 1.3962526470e+00	-1.1794549313e+00
 3.6871121177e-01	 1.3894092982e+00	-1.2431418537e+00
 3.9554033817e-01	 1.3820108418e+00	-1.3251576886e+00
 4.2235524807e-01	 1.3740531832e+00	-1.4256918621e+00
 4.4913940328e-01	 1.3655328256e+00	-1.5450386618e+00
 4.7587597955e-01	 1.3564468922e+00	-1.6835911341e+00
 5.0254789410e-01	 1.3467931470e+00	-1.8418333561e+00
 5.2913783478e-01	 1.3365700138e+00	-2.0203310917e+00
 2.6043461874e-01	 1.4073558085e+00	-1.1198881513e+00
 2.8704561727e-01	 1.4021702349e+00	-1.1409959226e+00
 3.1370498712e-01	 1.3964475332e+00	-1.1774694672e+00
 3.4039764244e-01	 1.3901819833e+00	-1.2290065216e+00
 3.6710811954e-01	 1.3833683882e+00	-1.2954231094e+00
 3.9382059757e-01	 1.3760020990e+00	-1.3766530559e+00
 4.2051892090e-01	 1.3680790389e+00	-1.4727459774e+00
 4.4718662327e-01	 1.3595957263e+00	-1.5838636942e+00
 4.7380695355e-01	 1.3505492971e+00	-1.7102750341e+00
 5.0036290325e-01	 1.3409375246e+00	-1.8523490129e+00
 5.2683723550e-01	 1.3307588398e+00	-2.0105463956e+00
 2.5929734967e-01	 1.4012101500e+00	-1.1414169123e+00
 2.8579214295e-01	 1.3960472207e+00	-1.1752455284e+00
 3.1233509635e-01	 1.3903495090e+00	-1.2213440196e+00
 3.3891118985e-01	 1.3841113197e+00	-1.2792528150e+00
 3.6550502731e-01	 1.3773274783e+00	-1.3486354137e+00
 3.9210085697e-01	 1.3699933562e+00	-1.4292787680e+00
 4.1868259374e-01	 1.3621048946e+00	-1.5210921604e+00
 4.4523384325e-01	 1.3536586271e+00	-1.6241045181e+00
 4.7173792755e-01	 1.3446517019e+00	-1.7384601255e+00
 4.9817791240e-01	 1.3350819022e+00	-1.8644127154e+00
 5.2453663622e-01	 1.3249476658e+00	-2.0023179384e+00
 2.5816008059e-01	 1.3950644914e+00	-1.1627066494e+00
 2.8453866864e-01	 1.3899242066e+00	-1.2096049147e+00
 3.1096520557e-01	 1.3842514849e+00	-1.2656418892e+00
 3.3742473726e-01	 1.3780406560e+00	-1.3301998849e+00
 3.6390193509e-01	 1.3712865683e+00	-1.4027891528e+00
 3.9038111637e-01	 1.3639846134e+00	-1.4830491392e+00
 4.1684626657e-01	 1.3561307503e+00	-1.5707482547e+00
 4.4328106324e-01	 1.3477215279e+00	-1.6657820936e+00
 4.6966890155e-01	 1.3387541067e+00	-1.7681700581e+00
 4.9599292156e-01	 1.3292262798e+00	-1.8780503644e+00
 5.2223603693e-01	 1.3191364919e+00	-1.9956734210e+00
 2.5702281151e-01	 1.3889188329e+00	-1.1837481029e+00
 2.8328519433e-01	 1.3838011925e+00	-1.2440702798e+00
 3.0959531480e-01	 1.3781534607e+00	-1.3103643867e+00
 3.3593828468e-01	 1.3719699923e+00	-1.3818537934e+00
 3.6229884286e-01	 1.3652456583e+00	-1.4578947633e+00
 3.8866137576e-01	 1.3579758706e+00	-1.5379785888e+00
 4.1500993940e-01	 1.3501566061e+00	-1.6217322559e+00
 4.4132828322e-01	 1.3417844286e+00	-1.7089175714e+00
 4.6759987555e-01	 1.3328565115e+00	-1.7994287038e+00
 4.9380793071e-01	 1.3233706575e+00	-1.8932881056e+00
 5.1993543765e-01	 1.3133253179e+00	-1.9906408036e+00
 2.5588554243e-01	 1.3827731743e+00	-1.2045317686e+00
 2.8203172002e-01	 1.3776781784e+00	-1.2786376617e+00
 3.0822542402e-01	 1.3720554366e+00	-1.3555127406e+00
 3.3445183209e-01	 1.3658993286e+00	-1.4342205908e+00
 3.6069575064e-01	 1.3592047483e+00	-1.5139627335e+00
 3.8694163516e-01	 1.3519671279e+00	-1.5940816437e+00
 4.1317361224e-01	 1.3441824618e+00	-1.6740623147e+00
 4.3937550321e-01	 1.3358473294e+00	-1.7535322975e+00
 4.6553084955e-01	 1.3269589163e+00	-1.8322601614e+00
 4.9162293987e-01	 1.3175150351e+00	-1.9101523350e+00
 5.1763483836e-01	 1.3075141439e+00	-1.9872483115e+00
 2.5474827335e-01	 1.3766275158e+00	-1.2250478927e+00
 2.8077824571e-01	 1.3715551642e+00	-1.3133029352e+00
 3.0685553325e-01	 1.3659574124e+00	-1.4010880953e+00
 3.3296537950e-01	 1.3598286649e+00	-1.4873063159e+00
 3.5909265841e-01	 1.3531638383e+00	-1.5710036048e+00
 3.8522189456e-01	 1.3459583851e+00	-1.6513729405e+00
 4.1133728507e-01	 1.3382083175e+00	-1.7277567405e+00
 4.3742272319e-01	 1.3299102301e+00	-1.7996478175e+00
 4.6346182355e-01	 1.3210613211e+00	-1.8666887614e+00
 4.8943794902e-01	 1.3116594127e+00	-1.9286697041e+00
 5.1533423908e-01	 1.3017029699e+00	-1.9855244411e+00
 2.5361100428e-01	 1.3704818572e+00	-1.2452864656e+00
 2.7952477140e-01	 1.3654321501e+00	-1.3480618083e+00
 3.0548564248e-01	 1.3598593882e+00	-1.4470915096e+00
 3.3147892691e-01	 1.3537580012e+00	-1.5411169952e+00
 3.5748956618e-01	 1.3471229283e+00	-1.6290279724e+00
 3.8350215396e-01	 1.3399496423e+00	-1.7098672279e+00
 4.0950095790e-01	 1.3322341732e+00	-1.7828340052e+00
 4.3546994317e-01	 1.3239731309e+00	-1.8472858807e+00
 4.6139279755e-01	 1.3151637259e+00	-1.9027390716e+00
 4.8725295818e-01	 1.3058037903e+00	-1.9488671263e+00
 5.1303363980e-01	 1.2958917960e+00	-1.9854979656e+00
 2.5247373520e-01	 1.3643361987e+00	-1.2652372168e+00
 2.7827129708e-01	 1.3593091360e+00	-1.3829098177e+00
 3.0411575170e-01	 1.3537613641e+00	-1.4935239544e+00
 3.2999247433e-01	 1.3476873376e+00	-1.5956586432e+00
 3.5588647396e-01	 1.3410820183e+00	-1.6880464869e+00
 3.8178241336e-01	 1.3339408995e+00	-1.7695793695e+00
 4.0766463074e-01	 1.3262600290e+00	-1.8393127465e+00
 4.3351716316e-01	 1.3180360317e+00	-1.8964684452e+00
 4.5932377155e-01	 1.3092661308e+00	-1.9404359020e+00
 4.8506796733e-01	 1.2999481679e+00	-1.9707717820e+00
 5.1073304051e-01	 1.2900806220e+00	-1.9871979417e+00
 2.5133646612e-01	 1.3581905401e+00	-1.2848896084e+00
 2.7701782277e-01	 1.3531861219e+00	-1.4178423257e+00
 3.0274586093e-01	 1.3476633399e+00	-1.5403863108e+00
 3.2850602174e-01	 1.3416166739e+00	-1.6509372614e+00
 3.5428338173e-01	 1.3350411083e+00	-1.7480698553e+00
 3.8006267276e-01	 1.3279321567e+00	-1.8305243462e+00
 4.0582830357e-01	 1.3202858847e+00	-1.8972117718e+00
 4.3156438314e-01	 1.3120989324e+00	-1.9472176822e+00
 4.5725474555e-01	 1.3033685356e+00	-1.9798043108e+00
 4.8288297648e-01	 1.2940925456e+00	-1.9944111254e+00
 5.0843244123e-01	 1.2842694480e+00	-1.9906537157e+00
 2.5019919705e-01	 1.3520448816e+00	-1.3042328295e+00
 2.7576434846e-01	 1.3470631078e+00	-1.4528545159e+00
 3.0137597016e-01	 1.3415653158e+00	-1.5876793681e+00
 3.2701956915e-01	 1.3355460102e+00	-1.7069588388e+00
 3.5268028951e-01	 1.3290001983e+00	-1.8091088427e+00
 3.7834293216e-01	 1.3219234139e+00	-1.8927172590e+00
 4.0399197640e-01	 1.3143117404e+00	-1.9565500619e+00
 4.2961160313e-01	 1.3061618332e+00	-1.9995559811e+00
 4.5518571955e-01	 1.2974709404e+00	-2.0208696095e+00
 4.8069798564e-01	 1.2882369232e+00	-2.0198128901e+00
 5.0613184195e-01	 1.2784582741e+00	-1.9958949301e+00
 5.2913783478e-01	 1.3365700138e+00	-2.0203310917e+00
 5.5562759438e-01	 1.3257768743e+00	-2.0282683396e+00
 5.8200015067e-01	 1.3144132696e+00	-1.9427686381e+00
 6.0823769276e-01	 1.3024797050e+00	-1.7647588565e+00
 6.3432231114e-01	 1.2899774076e+00	-1.6087112261e+00
 6.6023603342e-01	 1.2769083363e+00	-1.5573282386e+00
 6.8596086100e-01	 1.2632751905e+00	-1.4051430733e+00
 7.1147880651e-01	 1.2490814171e+00	-1.2061178752e+00
 7.3677193203e-01	 1.2343312138e+00	-1.6774257338e+00
 7.6182238774e-01	 1.2190295315e+00	-2.0424750952e+00
 7.8661245095e-01	 1.2031820735e+00	-2.3018652446e+00
 5.2683723550e-01	 1.3307588398e+00	-2.0105463956e+00
 5.5321182222e-01	 1.3200126270e+00	-1.9927124824e+00
 5.7946971523e-01	 1.3086984293e+00	-1.8815961914e+00
 6.0559318105e-01	 1.2968167498e+00	-1.6781437903e+00
 6.3156438804e-01	 1.2843688102e+00	-1.4640578688e+00
 6.5736544197e-01	 1.2713565609e+00	-1.3894179429e+00
 6.8297842247e-01	 1.2577826897e+00	-1.2141590951e+00
 7.0838542039e-01	 1.2436506283e+00	-1.3031896789e+00
 7.3356857580e-01	 1.2289645563e+00	-1.7429672896e+00
 7.5851011648e-01	 1.2137294031e+00	-2.0773766070e+00
 7.8319239681e-01	 1.1979508471e+00	-2.3070846458e+00
 5.2453663622e-01	 1.3249476658e+00	-2.0023179384e+00
 5.5079605007e-01	 1.3142483797e+00	-1.9584791637e+00
 5.7693927979e-01	 1.3029835890e+00	-1.8215122864e+00
 6.0294866934e-01	 1.2911537946e+00	-1.5923839247e+00
 6.2880646495e-01	 1.2787602128e+00	-1.3194676438e+00
 6.5449485052e-01	 1.2658047855e+00	-1.2213595788e+00
 6.7999598394e-01	 1.2522901889e+00	-1.0228204992e+00
 7.0529203427e-01	 1.2382198396e+00	-1.4011274728e+00
 7.3036521957e-01	 1.2235978989e+00	-1.8092838436e+00
 7.5519784523e-01	 1.2084292747e+00	-2.1129587060e+00
 7.7977234267e-01	 1.1927196207e+00	-2.3128869654e+00
 5.2223603693e-01	 1.3191364919e+00	-1.9956734210e+00
 5.4838027792e-01	 1.3084841325e+00	-1.9255947365e+00
 5.7440884435e-01	 1.2972687487e+00	-1.7625419614e+00
 6.0030415763e-01	 1.2854908393e+00	-1.5075030178e+00
 6.2604854185e-01	 1.2731516153e+00	-1.1749545842e+00
 6.5162425906e-01	 1.2602530101e+00	-1.0531653736e+00
 6.7701354541e-01	 1.2467976880e+00	-1.0196037394e+00
 7.0219864816e-01	 1.2327890508e+00	-1.4999076979e+00
 7.2716186335e-01	 1.2182312414e+00	-1.8763493778e+00
 7.5188557398e-01	 1.2031291463e+00	-2.1491930228e+00
 7.7635228854e-01	 1.1874883943e+00	-2.3192415940e+00
 5.1993543765e-01	 1.3133253179e+00	-1.9906408036e+00
 5.4596450577e-01	 1.3027198852e+00	-1.8940857717e+00
 5.7187840891e-01	 1.2915539084e+00	-1.7047104319e+00
 5.9765964592e-01	 1.2798278841e+00	-1.4235249636e+00
 6.2329061876e-01	 1.2675430179e+00	-1.0519802674e+00
 6.4875366761e-01	 1.2547012347e+00	-8.8484761114e-01
 6.7403110688e-01	 1.2413051872e+00	-1.1518201089e+00
 6.9910526204e-01	 1.2273582620e+00	-1.5995067755e+00
 7.2395850712e-01	 1.2128645840e+00	-1.9441378176e+00
 7.4857330272e-01	 1.1978290179e+00	-2.1860510946e+00
 7.7293223440e-01	 1.1822571679e+00	-2.3261177945e+00
 5.1763483836e-01	 1.3075141439e+00	-1.9872483115e+00
 5.4354873362e-01	 1.2969556379e+00	-1.8639790629e+00
 5.6934797347e-01	 1.2858390680e+00	-1.6480430939e+00
 5.9501513421e-01	 1.2741649288e+00	-1.3404737956e+00
 6.2053269566e-01	 1.2619344205e+00	-9.4274273907e-01
 6.4588307616e-01	 1.2491494594e+00	-7.6780674944e-01
 6.7104866835e-01	 1.2358126864e+00	-1.2849269737e+00
 6.9601187592e-01	 1.2219274732e+00	-1.6999011064e+00
 7.2075515089e-01	 1.2074979265e+00	-2.0126230303e+00
 7.4526103147e-01	 1.1925288895e+00	-2.2235043641e+00
 7.6951218026e-01	 1.1770259415e+00	-2.3334846989e+00
 5.1533423908e-01	 1.3017029699e+00	-1.9855244411e+00
 5.4113296146e-01	 1.2911913906e+00	-1.8353016313e+00
 5.6681753803e-01	 1.2801242277e+00	-1.5925655283e+00
 5.9237062250e-01	 1.2685019736e+00	-1.2583736895e+00
 6.1777477257e-01	 1.2563258231e+00	-8.3421933586e-01
 6.4301248470e-01	 1.2435976840e+00	-9.3531508029e-01
 6.6806622982e-01	 1.2303201855e+00	-1.4189033908e+00
 6.9291848980e-01	 1.2164966845e+00	-1.8010670711e+00
 7.1755179466e-01	 1.2021312691e+00	-2.0817788238e+00
 7.4194876021e-01	 1.1872287611e+00	-2.2615241766e+00
 7.6609212612e-01	 1.1717947151e+00	-2.3413113054e+00
 5.1303363980e-01	 1.2958917960e+00	-1.9854979656e+00
 5.3871718931e-01	 1.2854271433e+00	-1.8080807309e+00
 5.6428710259e-01	 1.2744093874e+00	-1.5383035046e+00
 5.8972611079e-01	 1.2628390184e+00	-1.1772489665e+00
 6.1501684947e-01	 1.2507172256e+00	-7.2643296717e-01
 6.4014189325e-01	 1.2380459086e+00	-1.1037695218e+00
 6.6508379129e-01	 1.2248276847e+00	-1.5537284363e+00
 6.8982510368e-01	 1.2110658957e+00	-1.9029810286e+00
 7.1434843843e-01	 1.1967646116e+00	-2.1515789452e+00
 7.3863648896e-01	 1.1819286327e+00	-2.3000817782e+00
 7.6267207199e-01	 1.1665634887e+00	-2.3495664756e+00
 5.1073304051e-01	 1.2900806220e+00	-1.9871979417e+00
 5.3630141716e-01	 1.2796628961e+00	-1.7823438537e+00
 5.6175666715e-01	 1.2686945471e+00	-1.4852829859e+00
 5.8708159908e-01	 1.2571760631e+00	-1.0971240969e+00
 6.1225892638e-01	 1.2451086282e+00	-9.2259880686e-01
 6.3727130180e-01	 1.2324941332e+00	-1.2731520282e+00
 6.6210135276e-01	 1.2193351839e+00	-1.6893812061e+00
 6.8673171756e-01	 1.2056351069e+00	-2.0056193164e+00
 7.1114508220e-01	 1.1913979542e+00	-2.2219970796e+00
 7.3532421771e-01	 1.1766285043e+00	-2.3391483136e+00
 7.5925201785e-01	 1.1613322623e+00	-2.3582189311e+00
 5.0843244123e-01	 1.2842694480e+00	-1.9906537157e+00
 5.3388564501e-01	 1.2738986488e+00	-1.7581187351e+00
 5.5922623171e-01	 1.2629797068e+00	-1.4335301324e+00
 5.8443708737e-01	 1.2515131079e+00	-1.0180237028e+00
 6.0950100329e-01	 1.2395000308e+00	-1.1647600820e+00
 6.3440071035e-01	 1.2269423579e+00	-1.4434446174e+00
 6.5911891423e-01	 1.2138426831e+00	-1.8258408166e+00
 6.8363833145e-01	 1.2002043182e+00	-2.1089582499e+00
 7.0794172597e-01	 1.1860312967e+00	-2.2930068485e+00
 7.3201194645e-01	 1.1713283759e+00	-2.3786948235e+00
 7.5583196371e-01	 1.1561010359e+00	-2.3672372508e+00
 5.0613184195e-01	 1.2784582741e+00	-1.9958949301e+00
 5.3146987286e-01	 1.2681344015e+00	-1.7354333595e+00
 5.5669579627e-01	 1.2572648665e+00	-1.3830713067e+00
 5.8179257566e-01	 1.2458501526e+00	-1.2025279357e+00
 6.0674308019e-01	 1.2338914334e+00	-1.4084999676e+00
 6.3153011889e-01	 1.2213905825e+00	-1.6146293719e+00
 6.5613647571e-01	 1.2083501822e+00	-1.9630864045e+00
 6.8054494533e-01	 1.1947735294e+00	-2.2129741218e+00
 7.0473836974e-01	 1.1806646393e+00	-2.3645818087e+00
 7.2869967520e-01	 1.1660282475e+00	-2.4186922427e+00
 7.5241190957e-01	 1.1508698094e+00	-2.3765898670e+00
 7.8661245095e-01	 1.2031820735e+00	-2.3018652446e+00
 8.1112517755e-01	 1.1867948882e+00	-2.2427216036e+00
 8.3534257277e-01	 1.1698755890e+00	-2.1818759471e+00
 8.5924752969e-01	 1.1524321102e+00	-2.1185138349e+00
 8.8282322498e-01	 1.1344731122e+00	-2.0519522827e+00
 9.0605315711e-01	 1.1160079687e+00	-1.9816434289e+00
 9.2892118390e-01	 1.0970467521e+00	-1.9071766066e+00
 9.5141155930e-01	 1.0776002153e+00	-1.8282787874e+00
 9.7350896897e-01	 1.0576797726e+00	-1.7448133838e+00
 9.9519856480e-01	 1.0372974774e+00	-1.6567774192e+00
 1.0164659980e+00	 1.0164659980e+00	-1.5642970968e+00
 7.8319239681e-01	 1.1979508471e+00	-2.3070846458e+00
 8.0759854634e-01	 1.1816349104e+00	-2.2314896187e+00
 8.3171064853e-01	 1.1647891734e+00	-2.1570566108e+00
 8.5551167086e-01	 1.1474215358e+00	-2.0830283326e+00
 8.7898486313e-01	 1.1295406204e+00	-2.0087666808e+00
 9.0211379555e-01	 1.1111557602e+00	-1.9337561066e+00
 9.2488239615e-01	 1.0922769836e+00	-1.8576054645e+00
 9.4727498730e-01	 1.0729149969e+00	-1.7800483117e+00
 9.6927632128e-01	 1.0530811649e+00	-1.7009416453e+00
 9.9087161452e-01	 1.0327874883e+00	-1.6202630880e+00
 1.0120465806e+00	 1.0120465806e+00	-1.5381065536e+00
 7.7977234267e-01	 1.1927196207e+00	-2.3128869654e+00
 8.0407191513e-01	 1.1764749326e+00	-2.2207555109e+00
 8.2807872430e-01	 1.1597027578e+00	-2.1326627151e+00
 8.5177581204e-01	 1.1424109614e+00	-2.0479087251e+00
 8.7514650128e-01	 1.1246081286e+00	-1.9659005980e+00
 8.9817443400e-01	 1.1063035516e+00	-1.8861553692e+00
 9.2084360839e-01	 1.0875072151e+00	-1.8083016776e+00
 9.4313841530e-01	 1.0682297786e+00	-1.7320799183e+00
 9.6504367359e-01	 1.0484825572e+00	-1.6573409141e+00
 9.8654466423e-01	 1.0282774993e+00	-1.5840431147e+00
 1.0076271632e+00	 1.0076271632e+00	-1.5122483579e+00
 7.7635228854e-01	 1.1874883943e+00	-2.3192415940e+00
 8.0054528392e-01	 1.1713149548e+00	-2.2104867556e+00
 8.2444680007e-01	 1.1546163422e+00	-2.1086601462e+00
 8.4803995321e-01	 1.1374003870e+00	-2.0131196395e+00
 8.7130813943e-01	 1.1196756368e+00	-1.9233177357e+00
 8.9423507244e-01	 1.1014513430e+00	-1.8388043289e+00
 9.1680482063e-01	 1.0827374466e+00	-1.7592281066e+00
 9.3900184330e-01	 1.0635445603e+00	-1.6843365554e+00
 9.6081102589e-01	 1.0438839495e+00	-1.6139745640e+00
 9.8221771395e-01	 1.0237675103e+00	-1.5480816362e+00
 1.0032077458e+00	 1.0032077458e+00	-1.4866877444e+00
 7.7293223440e-01	 1.1822571679e+00	-2.3261177945e+00
 7.9701865272e-01	 1.1661549770e+00	-2.2006506704e+00
 8.2081487584e-01	 1.1495299266e+00	-2.0850146066e+00
 8.4430409438e-01	 1.1323898126e+00	-1.9786254983e+00
 8.6746977758e-01	 1.1147431450e+00	-1.8809815752e+00
 8.9029571089e-01	 1.0965991345e+00	-1.7916658669e+00
 9.1276603287e-01	 1.0779676781e+00	-1.7103473757e+00
 9.3486527130e-01	 1.0588593419e+00	-1.6367809336e+00
 9.5657837820e-01	 1.0392853417e+00	-1.5708057359e+00
 9.7789076366e-01	 1.0192575212e+00	-1.5123425653e+00
 9.9878832844e-01	 9.9878832844e-01	-1.4613897380e+00
 7.6951218026e-01	 1.1770259415e+00	-2.3334846989e+00
 7.9349202151e-01	 1.1609949993e+00	-2.1912144109e+00
 8.1718295161e-01	 1.1444435109e+00	-2.0616916108e+00
 8.4056823556e-01	 1.1273792382e+00	-1.9443905149e+00
 8.6363141573e-01	 1.1098106532e+00	-1.8388553723e+00
 8.8635634933e-01	 1.0917469259e+00	-1.7447026280e+00
 9.0872724511e-01	 1.0731979096e+00	-1.6616218668e+00
 9.3072869931e-01	 1.0541741236e+00	-1.5893755206e+00
 9.5234573051e-01	 1.0346867340e+00	-1.5277973317e+00
 9.7356381338e-01	 1.0147475322e+00	-1.4767895860e+00
 9.9436891105e-01	 9.9436891105e-01	-1.4363191496e+00
 7.6609212612e-01	 1.1717947151e+00	-2.3413113054e+00
 7.8996539030e-01	 1.1558350215e+00	-2.1821449672e+00
 8.1355102737e-01	 1.1393570953e+00	-2.0386564814e+00
 8.3683237673e-01	 1.1223686638e+00	-1.9103786890e+00
 8.5979305388e-01	 1.1048781614e+00	-1.7969021531e+00
 8.8241698778e-01	 1.0868947173e+00	-1.6978770157e+00
 9.0468845735e-01	 1.0684281411e+00	-1.6130137142e+00
 9.2659212731e-01	 1.0494889053e+00	-1.5420825359e+00
 9.4811308281e-01	 1.0300881263e+00	-1.4849120098e+00
 9.6923686310e-01	 1.0102375432e+00	-1.4413861479e+00
 9.8994949366e-01	 9.8994949366e-01	-1.4114405707e+00
 7.6267207199e-01	 1.1665634887e+00	-2.3495664756e+00
 7.8643875909e-01	 1.1506750437e+00	-2.1734091605e+00
 8.0991910314e-01	 1.1342706797e+00	-2.0158743443e+00
 8.3309651790e-01	 1.1173580894e+00	-1.8765538022e+00
 8.5595469203e-01	 1.0999456696e+00	-1.7550847080e+00
 8.7847762622e-01	 1.0820425088e+00	-1.6511511867e+00
 9.0064966960e-01	 1.0636583726e+00	-1.5644847993e+00
 9.2245555531e-01	 1.0448036870e+00	-1.4948639451e+00
 9.4388043512e-01	 1.0254895186e+00	-1.4421121792e+00
 9.6490991281e-01	 1.0057275541e+00	-1.4060954616e+00
 9.8553007628e-01	 9.8553007628e-01	-1.3867183689e+00
 7.5925201785e-01	 1.1613322623e+00	-2.3582189311e+00
 7.8291212788e-01	 1.1455150659e+00	-2.1649736388e+00
 8.0628717891e-01	 1.1291842641e+00	-1.9933101250e+00
 8.2936065907e-01	 1.1123475150e+00	-1.8428794121e+00
 8.5211633018e-01	 1.0950131778e+00	-1.7133655870e+00
 8.7453826467e-01	 1.0771903002e+00	-1.6044870452e+00
 8.9661088184e-01	 1.0588886041e+00	-1.5159967449e+00
 9.1831898331e-01	 1.0401184686e+00	-1.4476814541e+00
 9.3964778742e-01	 1.0208909109e+00	-1.3993599941e+00
 9.6058296253e-01	 1.0012175651e+00	-1.3708804928e+00
 9.8111065890e-01	 9.8111065890e-01	-1.3621166828e+00
 7.5583196371e-01	 1.1561010359e+00	-2.3672372508e+00
 7.7938549667e-01	 1.1403550882e+00	-2.1568048736e+00
 8.0265525468e-01	 1.1240978485e+00	-1.9709285432e+00
 8.2562480025e-01	 1.1073369406e+00	-1.8093188484e+00
 8.4827796833e-01	 1.0900806860e+00	-1.6717070939e+00
 8.7059890311e-01	 1.0723380917e+00	-1.5578462373e+00
 8.9257209408e-01	 1.0541188356e+00	-1.4675109089e+00
 9.1418241131e-01	 1.0354332503e+00	-1.4004965036e+00
 9.3541513973e-01	 1.0162923032e+00	-1.3566173479e+00
 9.5625601224e-01	 9.9670757605e-01	-1.3357039569e+00
 9.7669124151e-01	 9.7669124151e-01	-1.3375994167e+00
 7.5241190957e-01	 1.1508698094e+00	-2.3765898670e+00
 7.7585886546e-01	 1.1351951104e+00	-2.1488691552e+00
 7.9902333045e-01	 1.1190114329e+00	-1.9486941090e+00
 8.2188894142e-01	 1.1023263663e+00	-1.7758352067e+00
 8.4443960648e-01	 1.0851481942e+00	-1.6300712811e+00
 8.6665954156e-01	 1.0674858831e+00	-1.5111901452e+00
 8.8853330632e-01	 1.0493490672e+00	-1.4189883787e+00
 9.1004583931e-01	 1.0307480320e+00	-1.3532702626e+00
 9.3118249204e-01	 1.0116936955e+00	-1.3138458674e+00
 9.5192906196e-01	 9.9219758702e-01	-1.3005283135e+00
 9.7227182412e-01	 9.7227182412e-01	-1.3131302353e+00
 1.0164659980e+00	 1.0164659980e+00	-1.5642970968e+00
 1.0372974668e+00	 9.9519858095e-01	-1.4757715898e+00
 1.0576797303e+00	 9.7350903342e-01	-1.3562068098e+00
 1.0776001205e+00	 9.5141170396e-01	-1.2076093516e+00
 1.0970465841e+00	 9.2892144040e-01	-1.0322040507e+00
 1.1160077072e+00	 9.0605355671e-01	-8.3241522326e-01
 1.1344727369e+00	 8.8282379860e-01	-6.1084629903e-01
 1.1524316013e+00	 8.5924830779e-01	-3.7025806117e-01
 1.1698749268e+00	 8.3534358536e-01	-1.1354571879e-01
 1.1867940535e+00	 8.1112645415e-01	 1.5628494888e-01
 1.2031810474e+00	 7.8661402051e-01	 4.3614213131e-01
 1.0120465806e+00	 1.0120465806e+00	-1.5381065536e+00
 1.0327874778e+00	 9.9087163059e-01	-1.4561637412e+00
 1.0530811228e+00	 9.6927638545e-01	-1.3416136312e+00
 1.0729149026e+00	 9.4727513133e-01	-1.1963490484e+00
 1.0922768163e+00	 9.2488265152e-01	-1.0224861828e+00
 1.1111554997e+00	 9.0211419342e-01	-8.2234638337e-01
 1.1295402467e+00	 8.7898543425e-01	-5.9843632167e-01
 1.1474210291e+00	 8.5551244558e-01	-3.5342673285e-01
 1.1647885141e+00	 8.3171165673e-01	-9.0129957051e-02
 1.1816340794e+00	 8.0759981739e-01	 1.8852348443e-01
 1.1979498254e+00	 7.8319395954e-01	 4.7950903589e-01
 1.0076271632e+00	 1.0076271632e+00	-1.5122483579e+00
 1.0282774888e+00	 9.8654468024e-01	-1.4371477018e+00
 1.0484825153e+00	 9.6504373747e-01	-1.3278480049e+00
 1.0682296846e+00	 9.4313855871e-01	-1.1861281959e+00
 1.0875070486e+00	 9.2084386265e-01	-1.0139957715e+00
 1.1063032923e+00	 8.9817483013e-01	-8.1366914427e-01
 1.1246077565e+00	 8.7514706991e-01	-5.8755833489e-01
 1.1424104569e+00	 8.5177658337e-01	-3.3824421210e-01
 1.1597021014e+00	 8.2807972810e-01	-6.8456500307e-02
 1.1764741052e+00	 8.0407318063e-01	 2.1894921514e-01
 1.1927186035e+00	 7.7977389858e-01	 5.2101524602e-01
 1.0032077458e+00	 1.0032077458e+00	-1.4866877444e+00
 1.0237674998e+00	 9.8221772988e-01	-1.4186928664e+00
 1.0438839077e+00	 9.6081108950e-01	-1.3148833025e+00
 1.0635444667e+00	 9.3900198608e-01	-1.1769239487e+00
 1.0827372808e+00	 9.1680507377e-01	-1.0067135529e+00
 1.1014510849e+00	 8.9423546683e-01	-8.0636761442e-01
 1.1196752664e+00	 8.7130870557e-01	-5.7819960272e-01
 1.1373998847e+00	 8.4804072116e-01	-3.2470069484e-01
 1.1546156887e+00	 8.2444779946e-01	-4.8518246401e-02
 1.1713141311e+00	 8.0054654387e-01	 2.4756677699e-01
 1.1874873815e+00	 7.7635383762e-01	 5.6066317236e-01
 9.9878832844e-01	 9.9878832844e-01	-1.4613897380e+00
 1.0192575108e+00	 9.7789077953e-01	-1.4007684884e+00
 1.0392853002e+00	 9.5657844153e-01	-1.3026928167e+00
 1.0588592488e+00	 9.3486541345e-01	-1.1687134421e+00
 1.0779675130e+00	 9.1276628490e-01	-1.0006202993e+00
 1.0965988775e+00	 8.9029610354e-01	-8.0042598896e-01
 1.1147427762e+00	 8.6747034122e-01	-5.7034752197e-01
 1.1323893125e+00	 8.4430485895e-01	-3.1278655135e-01
 1.1495292759e+00	 8.2081587083e-01	-3.0308304431e-02
 1.1661541569e+00	 7.9701990711e-01	 2.7438056246e-01
 1.1822561596e+00	 7.7293377666e-01	 5.9845495458e-01
 9.9436891105e-01	 9.9436891105e-01	-1.4363191496e+00
 1.0147475218e+00	 9.7356382918e-01	-1.3833436756e+00
 1.0346866927e+00	 9.5234579355e-01	-1.2912497603e+00
 1.0541740309e+00	 9.3072884082e-01	-1.1614737921e+00
 1.0731977453e+00	 9.0872749603e-01	-9.9569681953e-01
 1.0917466700e+00	 8.8635674025e-01	-7.9582855162e-01
 1.1098102861e+00	 8.6363197688e-01	-5.6398962521e-01
 1.1273787404e+00	 8.4056899674e-01	-3.0249233009e-01
 1.1444428632e+00	 8.1718394219e-01	-1.3819999443e-02
 1.1609941828e+00	 7.9349327035e-01	 2.9939471516e-01
 1.1770249376e+00	 7.6951371570e-01	 6.3439245535e-01
 9.8994949366e-01	 9.8994949366e-01	-1.4114405707e+00
 1.0102375328e+00	 9.6923687882e-01	-1.3663873877e+00
 1.0300880852e+00	 9.4811314558e-01	-1.2805272643e+00
 1.0494888130e+00	 9.2659226819e-01	-1.1551820949e+00
 1.0684279775e+00	 9.0468870715e-01	-9.9192396040e-01
 1.0868944626e+00	 8.8241737696e-01	-7.9255967669e-01
 1.1048777959e+00	 8.5979361253e-01	-5.5911358378e-01
 1.1223681682e+00	 8.3683313453e-01	-2.9380876177e-01
 1.1393564505e+00	 8.1355201356e-01	 9.5312275276e-04
 1.1558342086e+00	 7.8996663359e-01	 3.2261312424e-01
 1.1717937157e+00	 7.6609365474e-01	 6.6847725416e-01
 9.8553007628e-01	 9.8553007628e-01	-1.3867183689e+00
 1.0057275438e+00	 9.6490992847e-01	-1.3498684328e+00
 1.0254894776e+00	 9.4388049761e-01	-1.2704983758e+00
 1.0448035950e+00	 9.2245569556e-01	-1.1498154263e+00
 1.0636582098e+00	 9.0064991828e-01	-9.8928260705e-01
 1.0820422552e+00	 8.7847801366e-01	-7.9060383107e-01
 1.0999453057e+00	 8.5595524819e-01	-5.5570721088e-01
 1.1173575960e+00	 8.3309727232e-01	-2.8672676332e-01
 1.1342700377e+00	 8.0992008492e-01	 1.4017290625e-02
 1.1506742345e+00	 7.8643999683e-01	 3.4403941870e-01
 1.1665624938e+00	 7.6267359378e-01	 7.0071064092e-01
 9.8111065890e-01	 9.8111065890e-01	-1.3621166828e+00
 1.0012175549e+00	 9.6058297811e-01	-1.3337554636e+00
 1.0208908701e+00	 9.3964784963e-01	-1.2611360562e+00
 1.0401183771e+00	 9.1831912294e-01	-1.1453508413e+00
 1.0588884420e+00	 8.9661112941e-01	-9.8775368404e-01
 1.0771900478e+00	 8.7453865037e-01	-7.8994557635e-01
 1.0950128156e+00	 8.5211688385e-01	-5.5375846483e-01
 1.1123470238e+00	 8.2936141011e-01	-2.8123744218e-01
 1.1291836250e+00	 8.0628815629e-01	 2.5378501843e-02
 1.1455142603e+00	 7.8291336007e-01	 3.6367696154e-01
 1.1613312718e+00	 7.5925353281e-01	 7.3109360953e-01
 9.7669124151e-01	 9.7669124151e-01	-1.3375994167e+00
 9.9670756587e-01	 9.5625602776e-01	-1.3180169745e+00
 1.0162922626e+00	 9.3541520166e-01	-1.2524131796e+00
 1.0354331592e+00	 9.1418255031e-01	-1.1417653738e+00
 1.0541186742e+00	 8.9257234053e-01	-9.8731815617e-01
 1.0723378403e+00	 8.7059928708e-01	-7.9056957095e-01
 1.0900803254e+00	 8.4827851950e-01	-5.5325545229e-01
 1.1073364516e+00	 8.2562554790e-01	-2.7733210057e-01
 1.1240972123e+00	 8.0265622765e-01	 3.5042518052e-02
 1.1403542862e+00	 7.7938672331e-01	 3.8152884372e-01
 1.1561000499e+00	 7.5583347185e-01	 7.5962685107e-01
 9.7227182412e-01	 9.7227182412e-01	-1.3131302353e+00
 9.9219757688e-01	 9.5192907740e-01	-1.3026212974e+00
 1.0116936551e+00	 9.3118255368e-01	-1.2443025304e+00
 1.0307479413e+00	 9.1004597768e-01	-1.1390360359e+00
 1.0493489065e+00	 8.8853355166e-01	-9.8795702946e-01
 1.0674856329e+00	 8.6665992379e-01	-7.9246057231e-01
 1.0851478352e+00	 8.4444015516e-01	-5.5418643166e-01
 1.1023258795e+00	 8.2188968569e-01	-2.7500223990e-01
 1.1190107996e+00	 7.9902429902e-01	 4.3014859511e-02
 1.1351943120e+00	 7.7586008655e-01	 3.9759787798e-01
 1.1508688279e+00	 7.5241341089e-01	 7.8631074703e-01
 1.2031810474e+00	 7.8661402051e-01	 4.3614213131e-01
 1.2190287111e+00	 7.6182363552e-01	 4.3816775514e-01
 1.2343305914e+00	 7.3677285594e-01	 3.7223835771e-01
 1.2490809847e+00	 7.1147940489e-01	 2.3281994764e-01
 1.2632749402e+00	 6.8596113263e-01	 5.6415573404e-01
 1.2769082598e+00	 6.6023597754e-01	 8.8167148448e-01
 1.2899774969e+00	 6.3432192741e-01	 1.1440046364e+00
 1.3024799517e+00	 6.0823698130e-01	 1.3939008710e+00
 1.3144136653e+00	 5.8199911201e-01	 1.6346661656e+00
 1.3257774108e+00	 5.5562622947e-01	 1.8402928634e+00
 1.3365706828e+00	 5.2913614500e-01	 2.0052120562e+00
 1.1979498254e+00	 7.8319395954e-01	 4.7950903589e-01
 1.2137285862e+00	 7.5851135884e-01	 5.0526562616e-01
 1.2289639366e+00	 7.3356949570e-01	 4.6241287711e-01
 1.2436501979e+00	 7.0838601617e-01	 3.4544637757e-01
 1.2577824405e+00	 6.8297869292e-01	 4.7341307568e-01
 1.2713564848e+00	 6.5736538633e-01	 8.0225123680e-01
 1.2843688990e+00	 6.3156400599e-01	 1.0748371648e+00
 1.2968169954e+00	 6.0559247268e-01	 1.3482190864e+00
 1.3086988233e+00	 5.7946868109e-01	 1.6077485133e+00
 1.3200131612e+00	 5.5321046325e-01	 1.8311472673e+00
 1.3307595059e+00	 5.2683555306e-01	 2.0129282854e+00
 1.1927186035e+00	 7.7977389858e-01	 5.2101524602e-01
 1.2084284614e+00	 7.5519908217e-01	 5.7065553557e-01
 1.2235972819e+00	 7.3036613545e-01	 5.5102675239e-01
 1.2382194110e+00	 7.0529262745e-01	 4.5665341719e-01
 1.2522899407e+00	 6.7999625321e-01	 3.7841343868e-01
 1.2658047097e+00	 6.5449479512e-01	 7.1863842271e-01
 1.2787603012e+00	 6.2880608456e-01	 1.0015325190e+00
 1.2911540391e+00	 6.0294796406e-01	 1.3004423558e+00
 1.3029839813e+00	 5.7693825016e-01	 1.5788789324e+00
 1.3142489116e+00	 5.5079469703e-01	 1.8201848246e+00
 1.3249483290e+00	 5.2453496113e-01	 2.0189538194e+00
 1.1874873815e+00	 7.7635383762e-01	 5.6066317236e-01
 1.2031283366e+00	 7.5188680549e-01	 6.3434027263e-01
 1.2182306271e+00	 7.2716277520e-01	 6.3808304298e-01
 1.2327886241e+00	 7.0219923873e-01	 5.6644428965e-01
 1.2467974410e+00	 6.7701381350e-01	 4.1430184317e-01
 1.2602529347e+00	 6.5162420391e-01	 6.3079191993e-01
 1.2731517034e+00	 6.2604816313e-01	 9.2405116127e-01
 1.2854910827e+00	 6.0030345545e-01	 1.2505848131e+00
 1.2972691392e+00	 5.7440781924e-01	 1.5480704016e+00
 1.3084846620e+00	 5.4837893082e-01	 1.8074172836e+00
 1.3191371521e+00	 5.2223436919e-01	 2.0232991074e+00
 1.1822561596e+00	 7.7293377666e-01	 5.9845495458e-01
 1.1978282117e+00	 7.4857452881e-01	 6.9632237461e-01
 1.2128639724e+00	 7.2395941496e-01	 7.2358457367e-01
 1.2273578372e+00	 6.9910585001e-01	 6.7482199934e-01
 1.2413049412e+00	 6.7403137379e-01	 5.4494201469e-01
 1.2547011596e+00	 6.4875361270e-01	 5.3867041413e-01
 1.2675431056e+00	 6.2329024171e-01	 8.4847429208e-01
 1.2798281264e+00	 5.9765894683e-01	 1.1986604204e+00
 1.2915542972e+00	 5.7187738831e-01	 1.5153357351e+00
 1.3027204124e+00	 5.4596316460e-01	 1.7928562341e+00
 1.3133259752e+00	 5.1993377725e-01	 2.0259744450e+00
 1.1770249376e+00	 7.6951371570e-01	 6.3439245535e-01
 1.1925280869e+00	 7.4526225213e-01	 7.5660412117e-01
 1.2074973176e+00	 7.2075605471e-01	 8.0753392947e-01
 1.2219270503e+00	 6.9601246129e-01	 7.8178932696e-01
 1.2358124415e+00	 6.7104893408e-01	 6.7430658767e-01
 1.2491493846e+00	 6.4588302149e-01	 4.8037719617e-01
 1.2619345078e+00	 6.2053232028e-01	 7.7406487793e-01
 1.2741651701e+00	 5.9501443821e-01	 1.1446829640e+00
 1.2858394552e+00	 5.6934695739e-01	 1.4806875795e+00
 1.2969561628e+00	 5.4354739838e-01	 1.7765131043e+00
 1.3075147983e+00	 5.1763318532e-01	 2.0269899705e+00
 1.1717937157e+00	 7.6609365474e-01	 6.6847725416e-01
 1.1872279621e+00	 7.4194997545e-01	 8.1518752862e-01
 1.2021306629e+00	 7.1755269447e-01	 8.8993345021e-01
 1.2164962634e+00	 6.9291907257e-01	 8.8734882459e-01
 1.2303199417e+00	 6.6806649437e-01	 8.0239821740e-01
 1.2435976095e+00	 6.4301243028e-01	 6.3040301649e-01
 1.2563259100e+00	 6.1777439885e-01	 6.9747034234e-01
 1.2685022138e+00	 5.9236992960e-01	 1.0886660510e+00
 1.2801246132e+00	 5.6681652646e-01	 1.4441384098e+00
 1.2911919132e+00	 5.4113163216e-01	 1.7583991573e+00
 1.3017036215e+00	 5.1533259338e-01	 2.0263556616e+00
 1.1665624938e+00	 7.6267359378e-01	 7.0071064092e-01
 1.1819278372e+00	 7.3863769877e-01	 8.7207434399e-01
 1.1967640081e+00	 7.1434933422e-01	 9.7078522505e-01
 1.2110654765e+00	 6.8982568385e-01	 9.9150281051e-01
 1.2248274420e+00	 6.6508405466e-01	 9.2921934057e-01
 1.2380458345e+00	 6.4014183907e-01	 7.7928551381e-01
 1.2507173122e+00	 6.1501647743e-01	 6.1870514368e-01
 1.2628392575e+00	 5.8972542098e-01	 1.0306231045e+00
 1.2744097711e+00	 5.6428609554e-01	 1.4057005255e+00
 1.2854276635e+00	 5.3871586595e-01	 1.7385254870e+00
 1.2958924446e+00	 5.1303200144e-01	 2.0240813315e+00
 1.1613312718e+00	 7.5925353281e-01	 7.3109360953e-01
 1.1766277124e+00	 7.3532542209e-01	 9.2726603900e-01
 1.1913973534e+00	 7.1114597397e-01	 1.0500910869e+00
 1.2056346896e+00	 6.8673229513e-01	 1.0942533640e+00
 1.2193349423e+00	 6.6210161495e-01	 1.0547721703e+00
 1.2324940595e+00	 6.3727124786e-01	 9.2702692518e-01
 1.2451087143e+00	 6.1225855600e-01	 7.7178476534e-01
 1.2571763012e+00	 5.8708091236e-01	 9.7056736010e-01
 1.2686949291e+00	 5.6175566462e-01	 1.3653860470e+00
 1.2796634139e+00	 5.3630009973e-01	 1.7169030148e+00
 1.2900812677e+00	 5.1073140950e-01	 2.0201766258e+00
 1.1561000499e+00	 7.5583347185e-01	 7.5962685107e-01
 1.1713275876e+00	 7.3201314541e-01	 9.8076380383e-01
 1.1860306986e+00	 7.0794261373e-01	 1.1278526064e+00
 1.2002039027e+00	 6.8363890641e-01	 1.1956023198e+00
 1.2138424425e+00	 6.5911917524e-01	 1.1790586912e+00
 1.2269422844e+00	 6.3440065665e-01	 1.0736292731e+00
 1.2395001165e+00	 6.0950063457e-01	 9.6000459359e-01
 1.2515133449e+00	 5.8443640374e-01	 9.0851186147e-01
 1.2629800871e+00	 5.5922523369e-01	 1.3232069109e+00
 1.2738991643e+00	 5.3388433351e-01	 1.6935424850e+00
 1.2842700908e+00	 5.0843081757e-01	 2.0146510179e+00
 1.1508688279e+00	 7.5241341089e-01	 7.8631074703e-01
 1.1660274627e+00	 7.2870086873e-01	 1.0325685407e+00
 1.1806640439e+00	 7.0473925348e-01	 1.2040710863e+00
 1.1947731158e+00	 6.8054551769e-01	 1.2955512628e+00
 1.2083499428e+00	 6.5613673552e-01	 1.3020806541e+00
 1.2213905094e+00	 6.3153006544e-01	 1.2190943606e+00
 1.2338915187e+00	 6.0674271315e-01	 1.1492336995e+00
 1.2458503886e+00	 5.8179189513e-01	 1.0532500845e+00
 1.2572652451e+00	 5.5669480277e-01	 1.2791748665e+00
 1.2681349147e+00	 5.3146856729e-01	 1.6684544616e+00
 1.2784589139e+00	 5.0613022563e-01	 2.0075138058e+00
 1.3365706828e+00	 5.2913614500e-01	 2.0052120562e+00
 1.3467936844e+00	 5.0254653673e-01	 2.1009036718e+00
 1.3564473134e+00	 4.7587491620e-01	 2.2027941144e+00
 1.3655331454e+00	 4.4913859626e-01	 2.3081443894e+00
 1.3740534163e+00	 4.2235466045e-01	 2.4144874089e+00
 1.3820110024e+00	 3.9553993383e-01	 2.5196448990e+00
 1.3894094002e+00	 3.6871095540e-01	 2.6217409083e+00
 1.3962527039e+00	 3.4188395219e-01	 2.7192119294e+00
 1.4025455825e+00	 3.1507481503e-01	 2.8108136817e+00
 1.4082932552e+00	 2.8829907602e-01	 2.8956246400e+00
 1.4135014671e+00	 2.6157188782e-01	 2.9730464242e+00
 1.3307595059e+00	 5.2683555306e-01	 2.0129282854e+00
 1.3409380597e+00	 5.0036155179e-01	 2.1153455779e+00
 1.3505497164e+00	 4.7380589482e-01	 2.2221717791e+00
 1.3595960448e+00	 4.4718581975e-01	 2.3306590170e+00
 1.3680792710e+00	 4.2051833584e-01	 2.4383353250e+00
 1.3760022589e+00	 3.9382019498e-01	 2.5430212455e+00
 1.3833684897e+00	 3.6710786429e-01	 2.6428430455e+00
 1.3901820400e+00	 3.4039750023e-01	 2.7362425569e+00
 1.3964475582e+00	 3.1370492453e-01	 2.8219836914e+00
 1.4021702411e+00	 2.8704560177e-01	 2.8991557161e+00
 1.4073558085e+00	 2.6043461874e-01	 2.9671734067e+00
 1.3249483290e+00	 5.2453496113e-01	 2.0189538194e+00
 1.3350824350e+00	 4.9817656684e-01	 2.1285855751e+00
 1.3446521194e+00	 4.7173687345e-01	 2.2408148681e+00
 1.3536589442e+00	 4.4523304324e-01	 2.3528836473e+00
 1.3621051257e+00	 4.1868201122e-01	 2.4623138747e+00
 1.3699935154e+00	 3.9210045614e-01	 2.5669238286e+00
 1.3773275793e+00	 3.6550477317e-01	 2.6648410285e+00
 1.3841113760e+00	 3.3891104826e-01	 2.7545117957e+00
 1.3903495339e+00	 3.1233503403e-01	 2.8347075013e+00
 1.3960472269e+00	 2.8579212753e-01	 2.9045275894e+00
 1.4012101500e+00	 2.5929734967e-01	 2.9633994919e+00
 1.3191371521e+00	 5.2223436919e-01	 2.0232991074e+00
 1.3292268103e+00	 4.9599158190e-01	 2.1406376754e+00
 1.3387545224e+00	 4.6966785207e-01	 2.2587407592e+00
 1.3477218435e+00	 4.4328026674e-01	 2.3748388273e+00
 1.3561309804e+00	 4.1684568661e-01	 2.4864465777e+00
 1.3639847719e+00	 3.9038071729e-01	 2.5913789448e+00
 1.3712866689e+00	 3.6390168206e-01	 2.6877637357e+00
 1.3780407121e+00	 3.3742459629e-01	 2.7740509125e+00
 1.3842515096e+00	 3.1096514353e-01	 2.8490185745e+00
 1.3899242128e+00	 2.8453865328e-01	 2.9117757286e+00
 1.3950644914e+00	 2.5816008059e-01	 2.9617619659e+00
 1.3133259752e+00	 5.1993377725e-01	 2.0259744450e+00
 1.3233711855e+00	 4.9380659696e-01	 2.1515158266e+00
 1.3328569253e+00	 4.6759883069e-01	 2.2759668520e+00
 1.3417847429e+00	 4.4132749023e-01	 2.3965452072e+00
 1.3501568351e+00	 4.1500936200e-01	 2.5107571343e+00
 1.3579760284e+00	 3.8866097845e-01	 2.6164131445e+00
 1.3652457584e+00	 3.6229859095e-01	 2.7116403681e+00
 1.3719700482e+00	 3.3593814432e-01	 2.7948915607e+00
 1.3781534854e+00	 3.0959525302e-01	 2.8649508199e+00
 1.3838011986e+00	 2.8328517904e-01	 2.9209361032e+00
 1.3889188329e+00	 2.5702281151e-01	 2.9622986659e+00
 1.3075147983e+00	 5.1763318532e-01	 2.0269899705e+00
 1.3175155608e+00	 4.9162161201e-01	 2.1612339114e+00
 1.3269593283e+00	 4.6552980932e-01	 2.2925105686e+00
 1.3358476423e+00	 4.3937471372e-01	 2.4180235434e+00
 1.3441826898e+00	 4.1317303739e-01	 2.5352694300e+00
 1.3519672849e+00	 3.8694123961e-01	 2.6420532374e+00
 1.3592048480e+00	 3.6069549984e-01	 2.7365004558e+00
 1.3658993842e+00	 3.3445169236e-01	 2.8170657881e+00
 1.3720554611e+00	 3.0822536252e-01	 2.8825386019e+00
 1.3776781845e+00	 2.8203170479e-01	 2.9320451947e+00
 1.3827731743e+00	 2.5588554243e-01	 2.9650479924e+00
 1.3017036215e+00	 5.1533259338e-01	 2.0263556616e+00
 1.3116599361e+00	 4.8943662707e-01	 2.1698057457e+00
 1.3210617313e+00	 4.6346078794e-01	 2.3083893538e+00
 1.3299105416e+00	 4.3742193722e-01	 2.4392947002e+00
 1.3382085445e+00	 4.1133671278e-01	 2.5600075388e+00
 1.3459585414e+00	 3.8522150076e-01	 2.6683262982e+00
 1.3531639376e+00	 3.5909240873e-01	 2.7623738659e+00
 1.3598287203e+00	 3.3296524039e-01	 2.8406060466e+00
 1.3659574368e+00	 3.0685547202e-01	 2.9018167509e+00
 1.3715551703e+00	 2.8077823055e-01	 2.9451400076e+00
 1.3766275158e+00	 2.5474827335e-01	 2.9700489220e+00
 1.2958924446e+00	 5.1303200144e-01	 2.0240813315e+00
 1.3058043114e+00	 4.8725164212e-01	 2.1772450772e+00
 1.3151641343e+00	 4.6139176656e-01	 2.3236206761e+00
 1.3239734410e+00	 4.3546916071e-01	 2.4603796525e+00
 1.3322343992e+00	 4.0950038817e-01	 2.5849957283e+00
 1.3399497979e+00	 3.8350176192e-01	 2.6952596729e+00
 1.3471230271e+00	 3.5748931762e-01	 2.7892908095e+00
 1.3537580564e+00	 3.3147878842e-01	 2.8655452004e+00
 1.3598594126e+00	 3.0548558152e-01	 2.9228205736e+00
 1.3654321562e+00	 2.7952475631e-01	 2.9602580817e+00
 1.3704818572e+00	 2.5361100428e-01	 2.9773410201e+00
 1.2900812677e+00	 5.1073140950e-01	 2.0201766258e+00
 1.2999486867e+00	 4.8506665718e-01	 2.1835655838e+00
 1.3092665373e+00	 4.5932274519e-01	 2.3382220279e+00
 1.3180363404e+00	 4.3351638420e-01	 2.4812994886e+00
 1.3262602539e+00	 4.0766406355e-01	 2.6102584632e+00
 1.3339410545e+00	 3.8178202308e-01	 2.7228809846e+00
 1.3410821167e+00	 3.5588622651e-01	 2.8172818499e+00
 1.3476873925e+00	 3.2999233646e-01	 2.8919165360e+00
 1.3537613883e+00	 3.0411569102e-01	 2.9455858635e+00
 1.3593091420e+00	 2.7827128206e-01	 2.9774375036e+00
 1.3643361987e+00	 2.5247373520e-01	 2.9869644542e+00
 1.2842700908e+00	 5.0843081757e-01	 2.0146510179e+00
 1.2940930620e+00	 4.8288167223e-01	 2.1887808721e+00
 1.3033689403e+00	 4.5725372381e-01	 2.3522109259e+00
 1.3120992397e+00	 4.3156360770e-01	 2.5020754120e+00
 1.3202861087e+00	 4.0582773894e-01	 2.6358204106e+00
 1.3279323110e+00	 3.8006228423e-01	 2.7512181400e+00
 1.3350412063e+00	 3.5428313540e-01	 2.8463779105e+00
 1.3416167285e+00	 3.2850588449e-01	 2.9197537713e+00
 1.3476633640e+00	 3.0274580052e-01	 2.9701489123e+00
 1.3531861278e+00	 2.7701780782e-01	 2.9967169195e+00
 1.3581905401e+00	 2.5133646612e-01	 2.9989600075e+00
 1.2784589139e+00	 5.0613022563e-01	 2.0075138058e+00
 1.2882374373e+00	 4.8069668729e-01	 2.1929044756e+00
 1.2974713433e+00	 4.5518470243e-01	 2.3656049120e+00
 1.3061621391e+00	 4.2961083119e-01	 2.5227287448e+00
 1.3143119634e+00	 4.0399141433e-01	 2.6617064440e+00
 1.3219235675e+00	 3.7834254539e-01	 2.7802993356e+00
 1.3290002958e+00	 3.5268004429e-01	 2.8766102829e+00
 1.3355460646e+00	 3.2701943253e-01	 2.9490910654e+00
 1.3415653397e+00	 3.0137591002e-01	 2.9965465211e+00
 1.3470631137e+00	 2.7576433358e-01	 3.0181355477e+00
 1.3520448816e+00	 2.5019919705e-01	 3.0133690931e+00
 1.4135014671e+00	 2.6157188782e-01	 2.9730464242e+00
 1.4181764627e+00	 2.3490800473e-01	 3.2119597748e+00
 1.4223249601e+00	 2.0832176545e-01	 3.4067901080e+00
 1.4259541240e+00	 1.8182707783e-01	 3.5575994778e+00
 1.4290715388e+00	 1.5543740517e-01	 3.6648826618e+00
 1.4316851811e+00	 1.2916575446e-01	 3.7295493712e+00
 1.4338033924e+00	 1.0302466628e-01	 3.7529041272e+00
 1.4354348517e+00	 7.7026206330e-02	 3.7366240999e+00
 1.4365885483e+00	 5.1181958765e-02	 3.6827352052e+00
 1.4372737547e+00	 2.5503020974e-02	 3.5935867547e+00
 1.4375000000e+00	 0.0000000000e+00	 3.4718249522e+00
 1.4073558085e+00	 2.6043461874e-01	 2.9671734067e+00
 1.4120104780e+00	 2.3388666557e-01	 3.2004647027e+00
 1.4161409385e+00	 2.0741601865e-01	 3.3911029351e+00
 1.4197543235e+00	 1.8103652531e-01	 3.5391864908e+00
 1.4228581843e+00	 1.5476159036e-01	 3.6452361695e+00
 1.4254604629e+00	 1.2860416423e-01	 3.7101776998e+00
 1.4275694646e+00	 1.0257673294e-01	 3.7353219718e+00
 1.4291938306e+00	 7.6691309779e-02	 3.7223432742e+00
 1.4303425111e+00	 5.0959428508e-02	 3.6732558267e+00
 1.4310247384e+00	 2.5392138273e-02	 3.5903889001e+00
 1.4312500000e+00	 0.0000000000e+00	 3.4763608070e+00
 1.4012101500e+00	 2.5929734967e-01	 2.9633994919e+00
 1.4058444934e+00	 2.3286532642e-01	 3.1909474550e+00
 1.4099569169e+00	 2.0651027184e-01	 3.3772728407e+00
 1.4135545229e+00	 1.8024597280e-01	 3.5225101856e+00
 1.4166448298e+00	 1.5408577555e-01	 3.6272061693e+00
 1.4192357448e+00	 1.2804257399e-01	 3.6923024367e+00
 1.4213355368e+00	 1.0212879961e-01	 3.7191161846e+00
 1.4229528095e+00	 7.6356413228e-02	 3.7093187959e+00
 1.4240964740e+00	 5.0736898251e-02	 3.6649128071e+00
 1.4247757220e+00	 2.5281255573e-02	 3.5882074938e+00
 1.4250000000e+00	 0.0000000000e+00	 3.4817933563e+00
 1.3950644914e+00	 2.5816008059e-01	 2.9617619659e+00
 1.3996785088e+00	 2.3184398727e-01	 3.1834423164e+00
 1.4037728954e+00	 2.0560452503e-01	 3.3653313193e+00
 1.4073547224e+00	 1.7945542029e-01	 3.5075994797e+00
 1.4104314753e+00	 1.5340996075e-01	 3.6108192170e+00
 1.4130110266e+00	 1.2748098375e-01	 3.6759479916e+00
 1.4151016090e+00	 1.0168086628e-01	 3.7043092454e+00
 1.4167117884e+00	 7.6021516678e-02	 3.6975714310e+00
 1.4178504368e+00	 5.0514367995e-02	 3.6577254123e+00
 1.4185267057e+00	 2.5170372873e-02	 3.5870605152e+00
 1.4187500000e+00	 0.0000000000e+00	 3.4881395044e+00
 1.3889188329e+00	 2.5702281151e-01	 2.9622986659e+00
 1.3935125242e+00	 2.3082264811e-01	 3.1779840868e+00
 1.3975888738e+00	 2.0469877822e-01	 3.3553103469e+00
 1.4011549218e+00	 1.7866486777e-01	 3.4944837413e+00
 1.4042181207e+00	 1.5273414594e-01	 3.5961022898e+00
 1.4067863084e+00	 1.2691939351e-01	 3.6611391695e+00
 1.4088676813e+00	 1.0123293294e-01	 3.6909240052e+00
 1.4104707673e+00	 7.5686620128e-02	 3.6871222944e+00
 1.4116043996e+00	 5.0291837739e-02	 3.6517132388e+00
 1.4122776894e+00	 2.5059490172e-02	 3.5869662576e+00
 1.4125000000e+00	 0.0000000000e+00	 3.4954164543e+00
 1.3827731743e+00	 2.5588554243e-01	 2.9650479924e+00
 1.3873465396e+00	 2.2980130896e-01	 3.1746080924e+00
 1.3914048522e+00	 2.0379303141e-01	 3.3472423915e+00
 1.3949551213e+00	 1.7787431526e-01	 3.4831927979e+00
 1.3980047662e+00	 1.5205833114e-01	 3.5830827955e+00
 1.4005615902e+00	 1.2635780327e-01	 3.6479011784e+00
 1.4026337535e+00	 1.0078499961e-01	 3.6789836938e+00
 1.4042297462e+00	 7.5351723579e-02	 3.6779928584e+00
 1.4053583625e+00	 5.0069307484e-02	 3.6468962205e+00
 1.4060286731e+00	 2.4948607473e-02	 3.5879433346e+00
 1.4062500000e+00	 0.0000000000e+00	 3.5036417152e+00
 1.3766275158e+00	 2.5474827335e-01	 2.9700489220e+00
 1.3811805549e+00	 2.2877996981e-01	 3.1733501977e+00
 1.3852208307e+00	 2.0288728461e-01	 3.3411604237e+00
 1.3887553208e+00	 1.7708376275e-01	 3.4737569479e+00
 1.3917914117e+00	 1.5138251633e-01	 3.5717885818e+00
 1.3943368721e+00	 1.2579621304e-01	 3.6362596394e+00
 1.3963998257e+00	 1.0033706628e-01	 3.6685119287e+00
 1.3979887252e+00	 7.5016827030e-02	 3.6702049601e+00
 1.3991123253e+00	 4.9846777229e-02	 3.6432946365e+00
 1.3997796567e+00	 2.4837724773e-02	 3.5900106876e+00
 1.4000000000e+00	 0.0000000000e+00	 3.5128331088e+00
 1.3704818572e+00	 2.5361100428e-01	 2.9773410201e+00
 1.3750145703e+00	 2.2775863066e-01	 3.1742468172e+00
 1.3790368091e+00	 2.0198153780e-01	 3.3370979288e+00
 1.3825555202e+00	 1.7629321024e-01	 3.4662069700e+00
 1.3855780572e+00	 1.5070670153e-01	 3.5622479465e+00
 1.3881121539e+00	 1.2523462280e-01	 3.6262405951e+00
 1.3901658979e+00	 9.9889132950e-02	 3.6595327236e+00
 1.3917477041e+00	 7.4681930482e-02	 3.6637808101e+00
 1.3928662881e+00	 4.9624246974e-02	 3.6409291188e+00
 1.3935306404e+00	 2.4726842073e-02	 3.5931875928e+00
 1.3937500000e+00	 0.0000000000e+00	 3.5230087766e+00
 1.3643361987e+00	 2.5247373520e-01	 2.9869644542e+00
 1.3688485857e+00	 2.2673729151e-01	 3.1773349284e+00
 1.3728527875e+00	 2.0107579100e-01	 3.3350889176e+00
 1.3763557197e+00	 1.7550265773e-01	 3.4605741348e+00
 1.3793647027e+00	 1.5003088672e-01	 3.5544896477e+00
 1.3818874357e+00	 1.2467303257e-01	 3.6178705196e+00
 1.3839319701e+00	 9.9441199620e-02	 3.6520704976e+00
 1.3855066830e+00	 7.4347033934e-02	 3.6587430005e+00
 1.3866202510e+00	 4.9401716719e-02	 3.6398206601e+00
 1.3872816241e+00	 2.4615959374e-02	 3.5974936692e+00
 1.3875000000e+00	 0.0000000000e+00	 3.5341871868e+00
 1.3581905401e+00	 2.5133646612e-01	 2.9989600075e+00
 1.3626826011e+00	 2.2571595236e-01	 3.1826520839e+00
 1.3666687660e+00	 2.0017004419e-01	 3.3351679387e+00
 1.3701559191e+00	 1.7471210522e-01	 3.4568902158e+00
 1.3731513482e+00	 1.4935507192e-01	 3.5485429139e+00
 1.3756627175e+00	 1.2411144233e-01	 3.6111763279e+00
 1.3776980423e+00	 9.8993266290e-02	 3.6461500838e+00
 1.3792656619e+00	 7.4012137386e-02	 3.6551145139e+00
 1.3803742138e+00	 4.9179186465e-02	 3.6399906220e+00
 1.3810326078e+00	 2.4505076675e-02	 3.6029488858e+00
 1.3812500000e+00	 0.0000000000e+00	 3.5463871420e+00
 1.3520448816e+00	 2.5019919705e-01	 3.0133690931e+00
 1.3565166165e+00	 2.2469461322e-01	 3.1902364248e+00
 1.3604847444e+00	 1.9926429739e-01	 3.3373700905e+00
 1.3639561186e+00	 1.7392155271e-01	 3.4551875003e+00
 1.3669379937e+00	 1.4867925712e-01	 3.5444374548e+00
 1.3694379993e+00	 1.2354985210e-01	 3.6061853863e+00
 1.3714641145e+00	 9.8545332961e-02	 3.6417967393e+00
 1.3730246408e+00	 7.3677240839e-02	 3.6529187320e+00
 1.3741281766e+00	 4.8956656211e-02	 3.6414607437e+00
 1.3747835914e+00	 2.4394193976e-02	 3.6095735702e+00
 1.3750000000e+00	 0.0000000000e+00	 3.5596277867e+00
 0.0000000000e+00	 1.3750000000e+00	-1.3990435671e+00
 2.4394193976e-02	 1.3747835914e+00	-1.4017387656e+00
 4.8956656211e-02	 1.3741281766e+00	-1.4021280798e+00
 7.3677240839e-02	 1.3730246408e+00	-1.3997664686e+00
 9.8545332961e-02	 1.3714641145e+00	-1.3943660489e+00
 1.2354985210e-01	 1.3694379993e+00	-1.3858063860e+00
 1.4867925712e-01	 1.3669379937e+00	-1.3741439642e+00
 1.7392155271e-01	 1.3639561186e+00	-1.3596206928e+00
 1.9926429739e-01	 1.3604847444e+00	-1.3426713079e+00
 2.2469461322e-01	 1.3565166165e+00	-1.3239295281e+00
 2.5019919705e-01	 1.3520448816e+00	-1.3042328295e+00
 0.0000000000e+00	 1.3687500000e+00	-1.4833798202e+00
 2.4283311277e-02	 1.3685345751e+00	-1.4726303148e+00
 4.8734125957e-02	 1.3678821395e+00	-1.4620730513e+00
 7.3342344292e-02	 1.3667836197e+00	-1.4511112210e+00
 9.8097399632e-02	 1.3652301867e+00	-1.4392886279e+00
 1.2298826186e-01	 1.3632132812e+00	-1.4262998246e+00
 1.4800344232e-01	 1.3607246391e+00	-1.4119995069e+00
 1.7313100020e-01	 1.3577563181e+00	-1.3964110309e+00
 1.9835855059e-01	 1.3543007228e+00	-1.3797339151e+00
 2.2367327407e-01	 1.3503506319e+00	-1.3623501929e+00
 2.4906192797e-01	 1.3458992230e+00	-1.3448294839e+00
 0.0000000000e+00	 1.3625000000e+00	-1.5643440800e+00
 2.4172428578e-02	 1.3622855588e+00	-1.5412074875e+00
 4.8511595703e-02	 1.3616361023e+00	-1.5207819836e+00
 7.3007447745e-02	 1.3605425986e+00	-1.5023178656e+00
 9.7649466303e-02	 1.3589962589e+00	-1.4851894378e+00
 1.2242667163e-01	 1.3569885630e+00	-1.4689049946e+00
 1.4732762752e-01	 1.3545112846e+00	-1.4531161417e+00
 1.7234044769e-01	 1.3515565175e+00	-1.4376263249e+00
 1.9745280378e-01	 1.3481167013e+00	-1.4223984359e+00
 2.2265193492e-01	 1.3441846472e+00	-1.4075613634e+00
 2.4792465890e-01	 1.3397535645e+00	-1.3934153640e+00
 0.0000000000e+00	 1.3562500000e+00	-1.6418824215e+00
 2.4061545878e-02	 1.3560365425e+00	-1.6074304024e+00
 4.8289065449e-02	 1.3553900651e+00	-1.5782294567e+00
 7.2672551197e-02	 1.3543015775e+00	-1.5533758470e+00
 9.7201532973e-02	 1.3527623311e+00	-1.5320731765e+00
 1.2186508139e-01	 1.3507638448e+00	-1.5136422199e+00
 1.4665181271e-01	 1.3482979301e+00	-1.4975301727e+00
 1.7154989518e-01	 1.3453567170e+00	-1.4833191947e+00
 1.9654705698e-01	 1.3419326797e+00	-1.4707341207e+00
 2.2163059577e-01	 1.3380186626e+00	-1.4596492134e+00
 2.4678738982e-01	 1.3336079059e+00	-1.4500938362e+00
 0.0000000000e+00	 1.3500000000e+00	-1.7159399214e+00
 2.3950663179e-02	 1.3497875261e+00	-1.6712584359e+00
 4.8066535194e-02	 1.3491440280e+00	-1.6343895701e+00
 7.2337654648e-02	 1.3480605564e+00	-1.6042743984e+00
 9.6753599642e-02	 1.3465284033e+00	-1.5799446061e+00
 1.2130349116e-01	 1.3445391266e+00	-1.5605321697e+00
 1.4597599791e-01	 1.3420845756e+00	-1.5452785370e+00
 1.7075934267e-01	 1.3391569165e+00	-1.5335431859e+00
 1.9564131017e-01	 1.3357486582e+00	-1.5248114433e+00
 2.2060925662e-01	 1.3318526780e+00	-1.5187014418e+00
 2.4565012074e-01	 1.3274622474e+00	-1.5149700977e+00
 0.0000000000e+00	 1.3437500000e+00	-1.7864606343e+00
 2.3839780479e-02	 1.3435385098e+00	-1.7326502038e+00
 4.7844004938e-02	 1.3428979908e+00	-1.6892359321e+00
 7.2002758099e-02	 1.3418195353e+00	-1.6550025373e+00
 9.6305666311e-02	 1.3402944755e+00	-1.6288085546e+00
 1.2074190092e-01	 1.3383144084e+00	-1.6095958674e+00
 1.4530018310e-01	 1.3358712211e+00	-1.5963988192e+00
 1.6996879015e-01	 1.3329571159e+00	-1.5883527906e+00
 1.9473556337e-01	 1.3295646366e+00	-1.5847021283e+00
 2.1958791747e-01	 1.3256866934e+00	-1.5848073079e+00
 2.4451285167e-01	 1.3213165888e+00	-1.5881512196e+00
 0.0000000000e+00	 1.3375000000e+00	-1.8533875692e+00
 2.3728897779e-02	 1.3372894935e+00	-1.7915635442e+00
 4.7621474683e-02	 1.3366519536e+00	-1.7427416477e+00
 7.1667861550e-02	 1.3355785142e+00	-1.7055490596e+00
 9.5857732979e-02	 1.3340605477e+00	-1.6786699172e+00
 1.2018031069e-01	 1.3320896903e+00	-1.6608546982e+00
 1.4462436830e-01	 1.3296578666e+00	-1.6509292667e+00
 1.6917823764e-01	 1.3267573154e+00	-1.6478034704e+00
 1.9382981656e-01	 1.3233806150e+00	-1.6504791811e+00
 2.1856657832e-01	 1.3195207088e+00	-1.6580576674e+00
 2.4337558259e-01	 1.3151709303e+00	-1.6697461903e+00
 0.0000000000e+00	 1.3312500000e+00	-1.9166626648e+00
 2.3618015079e-02	 1.3310404772e+00	-1.8479554989e+00
 4.7398944427e-02	 1.3304059165e+00	-1.7948793073e+00
 7.1332965000e-02	 1.3293374931e+00	-1.7559025354e+00
 9.5409799647e-02	 1.3278266199e+00	-1.7295336582e+00
 1.1961872045e-01	 1.3258649721e+00	-1.7143304181e+00
 1.4394855349e-01	 1.3234445120e+00	-1.7089088054e+00
 1.6838768513e-01	 1.3205575148e+00	-1.7119516784e+00
 1.9292406975e-01	 1.3171965935e+00	-1.7222169177e+00
 2.1754523916e-01	 1.3133547241e+00	-1.7385450107e+00
 2.4223831351e-01	 1.3090252717e+00	-1.7598659607e+00
 0.0000000000e+00	 1.3250000000e+00	-1.9762267645e+00
 2.3507132379e-02	 1.3247914608e+00	-1.9017822949e+00
 4.7176414171e-02	 1.3241598793e+00	-1.8456209746e+00
 7.0998068450e-02	 1.3230964720e+00	-1.8060513028e+00
 9.4961866314e-02	 1.3215926922e+00	-1.7814048123e+00
 1.1905713021e-01	 1.3196402539e+00	-1.7700451621e+00
 1.4327273869e-01	 1.3172311575e+00	-1.7703770553e+00
 1.6759713261e-01	 1.3143577143e+00	-1.7808548830e+00
 1.9201832295e-01	 1.3110125719e+00	-1.7999909954e+00
 2.1652390001e-01	 1.3071887395e+00	-1.8263635009e+00
 2.4110104443e-01	 1.3028796132e+00	-1.8586234905e+00
 0.0000000000e+00	 1.3187500000e+00	-2.0320195899e+00
 2.3396249678e-02	 1.3185424445e+00	-1.9529993248e+00
 4.6953883914e-02	 1.3179138421e+00	-1.8949381735e+00
 7.0663171899e-02	 1.3168554509e+00	-1.8559834629e+00
 9.4513932981e-02	 1.3153587644e+00	-1.8342884865e+00
 1.1849553997e-01	 1.3134155357e+00	-1.8280214539e+00
 1.4259692388e-01	 1.3110178030e+00	-1.8353743473e+00
 1.6680658010e-01	 1.3081579138e+00	-1.8545715917e+00
 1.9111257614e-01	 1.3048285503e+00	-1.8838784451e+00
 2.1550256086e-01	 1.3010227549e+00	-1.9216090136e+00
 2.3996377535e-01	 1.2967339546e+00	-1.9661337955e+00
 0.0000000000e+00	 1.3125000000e+00	-2.0839797148e+00
 2.3285366978e-02	 1.3122934282e+00	-2.0015611271e+00
 4.6731353657e-02	 1.3116678050e+00	-1.9428018759e+00
 7.0328275348e-02	 1.3106144298e+00	-1.9056868741e+00
 9.4065999647e-02	 1.3091248366e+00	-1.8881898616e+00
 1.1793394973e-01	 1.3071908176e+00	-1.8882822144e+00
 1.4192110907e-01	 1.3048044485e+00	-1.9039417399e+00
 1.6601602758e-01	 1.3019581132e+00	-1.9331613762e+00
 1.9020682933e-01	 1.2986445288e+00	-1.9739577032e+00
 2.1448122170e-01	 1.2948567703e+00	-2.0243791773e+00
 2.3882650627e-01	 1.2905882961e+00	-2.0825139970e+00
 2.5019919705e-01	 1.3520448816e+00	-1.3042328295e+00
 2.7576434846e-01	 1.3470631078e+00	-1.4528545159e+00
 3.0137597016e-01	 1.3415653158e+00	-1.5876793681e+00
 3.2701956915e-01	 1.3355460102e+00	-1.7069588388e+00
 3.5268028951e-01	 1.3290001983e+00	-1.8091088427e+00
 3.7834293216e-01	 1.3219234139e+00	-1.8927172590e+00
 4.0399197640e-01	 1.3143117404e+00	-1.9565500619e+00
 4.2961160313e-01	 1.3061618332e+00	-1.9995559811e+00
 4.5518571955e-01	 1.2974709404e+00	-2.0208696095e+00
 4.8069798564e-01	 1.2882369232e+00	-2.0198128901e+00
 5.0613184195e-01	 1.2784582741e+00	-1.9958949301e+00
 2.4906192797e-01	 1.3458992230e+00	-1.3448294839e+00
 2.7451087416e-01	 1.3409400936e+00	-1.5033586797e+00
 3.0000607939e-01	 1.3354672916e+00	-1.6412418270e+00
 3.2553311657e-01	 1.3294753465e+00	-1.7568580703e+00
 3.5107719728e-01	 1.3229592883e+00	-1.8487766157e+00
 3.7662319155e-01	 1.3159146711e+00	-1.9157646197e+00
 4.0215564924e-01	 1.3083375962e+00	-1.9567935995e+00
 4.2765882311e-01	 1.3002247340e+00	-1.9710442635e+00
 4.5311669355e-01	 1.2915733452e+00	-1.9579096715e+00
 4.7851299479e-01	 1.2823813008e+00	-1.9169966518e+00
 5.0383124266e-01	 1.2726471001e+00	-1.8481254177e+00
 2.4792465890e-01	 1.3397535645e+00	-1.3934153640e+00
 2.7325739985e-01	 1.3348170795e+00	-1.5608408797e+00
 2.9863618861e-01	 1.3293692674e+00	-1.7006983550e+00
 3.2404666398e-01	 1.3234046829e+00	-1.8114955334e+00
 3.4947410506e-01	 1.3169183784e+00	-1.8919560361e+00
 3.7490345095e-01	 1.3099059283e+00	-1.9410276368e+00
 4.0031932207e-01	 1.3023634519e+00	-1.9578889548e+00
 4.2570604310e-01	 1.2942876347e+00	-1.9419544555e+00
 4.5104766756e-01	 1.2856757501e+00	-1.8928776624e+00
 4.7632800395e-01	 1.2765256785e+00	-1.8105525022e+00
 5.0153064338e-01	 1.2668359261e+00	-1.6951127215e+00
 2.4678738982e-01	 1.3336079059e+00	-1.4500938362e+00
 2.7200392553e-01	 1.3286940654e+00	-1.6253912484e+00
 2.9726629784e-01	 1.3232712433e+00	-1.7661249655e+00
 3.2256021139e-01	 1.3173340192e+00	-1.8709322458e+00
 3.4787101283e-01	 1.3108774684e+00	-1.9386922576e+00
 3.7318371035e-01	 1.3038971856e+00	-1.9685347441e+00
 3.9848299491e-01	 1.2963893076e+00	-1.9598470000e+00
 4.2375326308e-01	 1.2883505355e+00	-1.9122790422e+00
 4.4897864156e-01	 1.2797781549e+00	-1.8257468736e+00
 4.7414301310e-01	 1.2706700561e+00	-1.7004337536e+00
 4.9923004410e-01	 1.2610247522e+00	-1.5367894123e+00
 2.4565012074e-01	 1.3274622474e+00	-1.5149700977e+00
 2.7075045122e-01	 1.3225710513e+00	-1.6971014912e+00
 2.9589640707e-01	 1.3171732191e+00	-1.8375989701e+00
 3.2107375880e-01	 1.3112633555e+00	-1.9352302305e+00
 3.4626792061e-01	 1.3048365584e+00	-1.9890311304e+00
 3.7146396975e-01	 1.2978884428e+00	-1.9983147466e+00
 3.9664666774e-01	 1.2904151634e+00	-1.9626786369e+00
 4.2180048307e-01	 1.2824134362e+00	-1.8820101813e+00
 4.4690961556e-01	 1.2738805597e+00	-1.7564898963e+00
 4.7195802226e-01	 1.2648144337e+00	-1.5865926302e+00
 4.9692944481e-01	 1.2552135782e+00	-1.3730865703e+00
 2.4451285167e-01	 1.3213165888e+00	-1.5881512196e+00
 2.6949697691e-01	 1.3164480371e+00	-1.7760649232e+00
 2.9452651629e-01	 1.3110751950e+00	-1.9151990083e+00
 3.1958730622e-01	 1.3051926918e+00	-2.0044525399e+00
 3.4466482838e-01	 1.2987956484e+00	-2.0430192179e+00
 3.6974422915e-01	 1.2918797000e+00	-2.0303968296e+00
 3.9481034057e-01	 1.2844410191e+00	-1.9663947981e+00
 4.1984770305e-01	 1.2764763370e+00	-1.8511396952e+00
 4.4484058956e-01	 1.2679829645e+00	-1.6850786050e+00
 4.6977303141e-01	 1.2589588113e+00	-1.4689802426e+00
 4.9462884553e-01	 1.2494024042e+00	-1.2433001798e+00
 2.4337558259e-01	 1.3151709303e+00	-1.6697461903e+00
 2.6824350260e-01	 1.3103250230e+00	-1.8623765067e+00
 2.9315662552e-01	 1.3049771708e+00	-1.9990050788e+00
 3.1810085363e-01	 1.2991220281e+00	-2.0786632793e+00
 3.4306173616e-01	 1.2927547384e+00	-2.1007038129e+00
 3.6802448855e-01	 1.2858709572e+00	-2.0648105669e+00
 3.9297401341e-01	 1.2784668748e+00	-1.9710064472e+00
 4.1789492304e-01	 1.2705392378e+00	-1.8196590632e+00
 4.4277156356e-01	 1.2620853693e+00	-1.6114841409e+00
 4.6758804057e-01	 1.2531031889e+00	-1.3475465619e+00
 4.9232824625e-01	 1.2435912302e+00	-1.4513130302e+00
 2.4223831351e-01	 1.3090252717e+00	-1.7598659607e+00
 2.6699002829e-01	 1.3042020089e+00	-1.9561328897e+00
 2.9178673474e-01	 1.2988791466e+00	-2.0890985709e+00
 3.1661440104e-01	 1.2930513644e+00	-2.1579276318e+00
 3.4145864393e-01	 1.2867138284e+00	-2.1621329553e+00
 3.6630474795e-01	 1.2798622144e+00	-2.1015859307e+00
 3.9113768624e-01	 1.2724927305e+00	-1.9765245798e+00
 4.1594214302e-01	 1.2646021385e+00	-1.7875594136e+00
 4.4070253756e-01	 1.2561877741e+00	-1.5356768944e+00
 4.6540304973e-01	 1.2472475666e+00	-1.4048681651e+00
 4.9002764697e-01	 1.2377800563e+00	-1.6534906705e+00
 2.4110104443e-01	 1.3028796132e+00	-1.8586234905e+00
 2.6573655398e-01	 1.2980789948e+00	-2.0574324462e+00
 2.9041684397e-01	 1.2927811225e+00	-2.1855622982e+00
 3.1512794845e-01	 1.2869807008e+00	-2.2423118840e+00
 3.3985555170e-01	 1.2806729184e+00	-2.2273554491e+00
 3.6458500735e-01	 1.2738534716e+00	-2.1407533005e+00
 3.8930135908e-01	 1.2665185863e+00	-1.9829602242e+00
 4.1398936301e-01	 1.2586650393e+00	-1.7548315154e+00
 4.3863351157e-01	 1.2502901790e+00	-1.4576264875e+00
 4.6321805888e-01	 1.2413919442e+00	-1.6638367464e+00
 4.8772704769e-01	 1.2319688823e+00	-1.8497304888e+00
 2.3996377535e-01	 1.2967339546e+00	-1.9661337955e+00
 2.6448307966e-01	 1.2919559806e+00	-2.1663753165e+00
 2.8904695320e-01	 1.2866830983e+00	-2.2884805312e+00
 3.1364149587e-01	 1.2809100371e+00	-2.3318834516e+00
 3.3825245948e-01	 1.2746320084e+00	-2.2964208808e+00
 3.6286526674e-01	 1.2678447288e+00	-2.1823434726e+00
 3.8746503191e-01	 1.2605444420e+00	-1.9903244422e+00
 4.1203658300e-01	 1.2527279400e+00	-1.7214657695e+00
 4.3656448557e-01	 1.2443925838e+00	-1.7509431584e+00
 4.6103306804e-01	 1.2355363218e+00	-1.9183583506e+00
 4.8542644841e-01	 1.2261577083e+00	-2.0399281994e+00
 2.3882650627e-01	 1.2905882961e+00	-2.0825139970e+00
 2.6322960535e-01	 1.2858329665e+00	-2.2830634495e+00
 2.8767706242e-01	 1.2805850742e+00	-2.3979390331e+00
 3.1215504328e-01	 1.2748393734e+00	-2.4267109070e+00
 3.3664936725e-01	 1.2685910984e+00	-2.3693796382e+00
 3.6114552614e-01	 1.2618359860e+00	-2.2263876707e+00
 3.8562870475e-01	 1.2545702977e+00	-1.9986283298e+00
 4.1008380298e-01	 1.2467908408e+00	-1.9018171820e+00
 4.3449545957e-01	 1.2384949886e+00	-2.0606463104e+00
 4.5884807720e-01	 1.2296806994e+00	-2.1683528012e+00
 4.8312584913e-01	 1.2203465344e+00	-2.2239778029e+00
 5.0613184195e-01	 1.2784582741e+00	-1.9958949301e+00
 5.3146987286e-01	 1.2681344015e+00	-1.7354333595e+00
 5.5669579627e-01	 1.2572648665e+00	-1.3830713067e+00
 5.8179257566e-01	 1.2458501526e+00	-1.2025279357e+00
 6.0674308019e-01	 1.2338914334e+00	-1.4084999676e+00
 6.3153011889e-01	 1.2213905825e+00	-1.6146293719e+00
 6.5613647571e-01	 1.2083501822e+00	-1.9630864045e+00
 6.8054494533e-01	 1.1947735294e+00	-2.2129741218e+00
 7.0473836974e-01	 1.1806646393e+00	-2.3645818087e+00
 7.2869967520e-01	 1.1660282475e+00	-2.4186922427e+00
 7.5241190957e-01	 1.1508698094e+00	-2.3765898670e+00
 5.0383124266e-01	 1.2726471001e+00	-1.8481254177e+00
 5.2905410071e-01	 1.2623701542e+00	-1.5392746987e+00
 5.5416536083e-01	 1.2515500262e+00	-1.1454589371e+00
 5.7914806395e-01	 1.2401871974e+00	-1.2889816139e+00
 6.0398515710e-01	 1.2282828359e+00	-1.4580333924e+00
 6.2865952744e-01	 1.2158388071e+00	-1.5965908812e+00
 6.5315403718e-01	 1.2028576814e+00	-1.9225385874e+00
 6.7745155921e-01	 1.1893427406e+00	-2.1561899820e+00
 7.0153501351e-01	 1.1752979818e+00	-2.2975900519e+00
 7.2538740395e-01	 1.1607281191e+00	-2.3472472904e+00
 7.4899185544e-01	 1.1456385830e+00	-2.3061424652e+00
 5.0153064338e-01	 1.2668359261e+00	-1.6951127215e+00
 5.2663832855e-01	 1.2566059070e+00	-1.3386109318e+00
 5.5163492539e-01	 1.2458351859e+00	-1.1720994316e+00
 5.7650355224e-01	 1.2345242422e+00	-1.3730854404e+00
 6.0122723400e-01	 1.2226742385e+00	-1.5063438765e+00
 6.2578893599e-01	 1.2102870317e+00	-1.5778570673e+00
 6.5017159865e-01	 1.1973651806e+00	-1.8824635406e+00
 6.7435817309e-01	 1.1839119518e+00	-2.1010976955e+00
 6.9833165728e-01	 1.1699313244e+00	-2.2335583329e+00
 7.2207513269e-01	 1.1554279907e+00	-2.2800776461e+00
 7.4557180130e-01	 1.1404073566e+00	-2.2413305906e+00
 4.9923004410e-01	 1.2610247522e+00	-1.5367894123e+00
 5.2422255640e-01	 1.2508416597e+00	-1.1333864710e+00
 5.4910448995e-01	 1.2401203457e+00	-1.2949404728e+00
 5.7385904053e-01	 1.2288612869e+00	-1.4547764386e+00
 5.9846931091e-01	 1.2170656411e+00	-1.5533807560e+00
 6.2291834454e-01	 1.2047352564e+00	-1.5861864193e+00
 6.4718916012e-01	 1.1918726798e+00	-1.8428367119e+00
 6.7126478698e-01	 1.1784811631e+00	-2.0476881716e+00
 6.9512830106e-01	 1.1645646669e+00	-2.1724938467e+00
 7.1876286144e-01	 1.1501278623e+00	-2.2172075912e+00
 7.4215174716e-01	 1.1351761302e+00	-2.1821963847e+00
 4.9692944481e-01	 1.2552135782e+00	-1.3730865703e+00
 5.2180678425e-01	 1.2450774124e+00	-1.2444939171e+00
 5.4657405451e-01	 1.2344055054e+00	-1.4142177200e+00
 5.7121452882e-01	 1.2231983317e+00	-1.5339907928e+00
 5.9571138782e-01	 1.2114570437e+00	-1.5990927765e+00
 6.2004775309e-01	 1.1991834810e+00	-1.6048494048e+00
 6.4420672159e-01	 1.1863801789e+00	-1.8036335022e+00
 6.6817140086e-01	 1.1730503743e+00	-1.9959525669e+00
 6.9192494483e-01	 1.1591980095e+00	-2.1144043443e+00
 7.1545059019e-01	 1.1448277339e+00	-2.1586622849e+00
 7.3873169303e-01	 1.1299449038e+00	-2.1287832021e+00
 4.9462884553e-01	 1.2494024042e+00	-1.2433001798e+00
 5.1939101211e-01	 1.2393131651e+00	-1.4058032951e+00
 5.4404361908e-01	 1.2286906651e+00	-1.5298545603e+00
 5.6857001711e-01	 1.2175353765e+00	-1.6106638281e+00
 5.9295346473e-01	 1.2058484463e+00	-1.6434280793e+00
 6.1717716164e-01	 1.1936317056e+00	-1.6233637344e+00
 6.4122428307e-01	 1.1808876781e+00	-1.7648292644e+00
 6.6507801475e-01	 1.1676195855e+00	-1.9458822909e+00
 6.8872158860e-01	 1.1538313520e+00	-2.0592981449e+00
 7.1213831894e-01	 1.1395276055e+00	-2.1044677845e+00
 7.3531163889e-01	 1.1247136774e+00	-2.0811356393e+00
 4.9232824625e-01	 1.2435912302e+00	-1.4513130302e+00
 5.1697523996e-01	 1.2335489179e+00	-1.5623515271e+00
 5.4151318364e-01	 1.2229758248e+00	-1.6417732582e+00
 5.6592550541e-01	 1.2118724212e+00	-1.6847299911e+00
 5.9019554163e-01	 1.2002398488e+00	-1.6863341873e+00
 6.1430657019e-01	 1.1880799303e+00	-1.6416908897e+00
 6.3824184454e-01	 1.1753951773e+00	-1.7263993023e+00
 6.6198462863e-01	 1.1621887968e+00	-1.8974690119e+00
 6.8551823238e-01	 1.1484646946e+00	-2.0071841496e+00
 7.0882604769e-01	 1.1342274771e+00	-2.0546510669e+00
 7.3189158476e-01	 1.1194824510e+00	-2.0392995629e+00
 4.9002764697e-01	 1.2377800563e+00	-1.6534906705e+00
 5.1455946781e-01	 1.2277846706e+00	-1.7140482174e+00
 5.3898274820e-01	 1.2172609845e+00	-1.7498949285e+00
 5.6328099370e-01	 1.2062094660e+00	-1.7561228287e+00
 5.8743761854e-01	 1.1946312514e+00	-1.7277579908e+00
 6.1143597874e-01	 1.1825281549e+00	-1.6597920029e+00
 6.3525940602e-01	 1.1699026765e+00	-1.6883188695e+00
 6.5889124252e-01	 1.1567580080e+00	-1.8507046633e+00
 6.8231487615e-01	 1.1430980371e+00	-1.9580718552e+00
 7.0551377644e-01	 1.1289273487e+00	-2.0092400493e+00
 7.2847153063e-01	 1.1142512246e+00	-2.0033221403e+00
 4.8772704769e-01	 1.2319688823e+00	-1.8497304888e+00
 5.1214369566e-01	 1.2220204233e+00	-1.8608015557e+00
 5.3645231277e-01	 1.2115461442e+00	-1.8541395096e+00
 5.6063648200e-01	 1.2005465108e+00	-1.8247749669e+00
 5.8467969546e-01	 1.1890226540e+00	-1.7676457320e+00
 6.0856538730e-01	 1.1769763795e+00	-1.6776278481e+00
 6.3227696750e-01	 1.1644101756e+00	-1.6505631682e+00
 6.5579785640e-01	 1.1513272192e+00	-1.8055814495e+00
 6.7911151993e-01	 1.1377313797e+00	-1.9119713676e+00
 7.0220150519e-01	 1.1236272203e+00	-1.9682636122e+00
 7.2505147649e-01	 1.1090199982e+00	-1.9732518698e+00
 4.8542644841e-01	 1.2261577083e+00	-2.0399281994e+00
 5.0972792351e-01	 1.2162561760e+00	-2.0025182838e+00
 5.3392187733e-01	 1.2058313038e+00	-1.9544257356e+00
 5.5799197029e-01	 1.1948835555e+00	-1.8906180893e+00
 5.8192177237e-01	 1.1834140566e+00	-1.8059429901e+00
 6.0569479585e-01	 1.1714246041e+00	-1.6951588331e+00
 6.2929452897e-01	 1.1589176748e+00	-1.6131073479e+00
 6.5270447029e-01	 1.1458964305e+00	-1.7620918527e+00
 6.7590816371e-01	 1.1323647222e+00	-1.8688934170e+00
 6.9888923394e-01	 1.1183270919e+00	-1.9317516218e+00
 7.2163142236e-01	 1.1037887718e+00	-1.9491386121e+00
 4.8312584913e-01	 1.2203465344e+00	-2.2239778029e+00
 5.0731215137e-01	 1.2104919287e+00	-2.1391036607e+00
 5.3139144190e-01	 1.2001164635e+00	-2.0506711079e+00
 5.5534745859e-01	 1.1892206003e+00	-1.9535829144e+00
 5.7916384928e-01	 1.1778054591e+00	-1.8425946653e+00
 6.0282420441e-01	 1.1658728288e+00	-1.7123449907e+00
 6.2631209045e-01	 1.1534251740e+00	-1.5759265044e+00
 6.4961108418e-01	 1.1404656417e+00	-1.7202286394e+00
 6.7270480748e-01	 1.1269980648e+00	-1.8288493721e+00
 6.9557696269e-01	 1.1130269635e+00	-1.8997349536e+00
 7.1821136823e-01	 1.0985575454e+00	-1.9310336233e+00
 7.5241190957e-01	 1.1508698094e+00	-2.3765898670e+00
 7.7585886546e-01	 1.1351951104e+00	-2.1488691552e+00
 7.9902333045e-01	 1.1190114329e+00	-1.9486941090e+00
 8.2188894142e-01	 1.1023263663e+00	-1.7758352067e+00
 8.4443960648e-01	 1.0851481942e+00	-1.6300712811e+00
 8.6665954156e-01	 1.0674858831e+00	-1.5111901452e+00
 8.8853330632e-01	 1.0493490672e+00	-1.4189883787e+00
 9.1004583931e-01	 1.0307480320e+00	-1.3532702626e+00
 9.3118249204e-01	 1.0116936955e+00	-1.3138458674e+00
 9.5192906196e-01	 9.9219758702e-01	-1.3005283135e+00
 9.7227182412e-01	 9.7227182412e-01	-1.3131302353e+00
 7.4899185544e-01	 1.1456385830e+00	-2.3061424652e+00
 7.7233223425e-01	 1.1300351326e+00	-2.0911816115e+00
 7.9539140622e-01	 1.1139250173e+00	-1.9011908494e+00
 8.1815308259e-01	 1.0973157919e+00	-1.7360776987e+00
 8.4060124463e-01	 1.0802157024e+00	-1.5957667288e+00
 8.6272018000e-01	 1.0626336745e+00	-1.4801996496e+00
 8.8449451856e-01	 1.0445792987e+00	-1.3893345236e+00
 9.0590926731e-01	 1.0260628136e+00	-1.3231440918e+00
 9.2694984434e-01	 1.0070950878e+00	-1.2816132215e+00
 9.4760211168e-01	 9.8768759798e-01	-1.2647354995e+00
 9.6785240674e-01	 9.6785240674e-01	-1.2725090050e+00
 7.4557180130e-01	 1.1404073566e+00	-2.2413305906e+00
 7.6880560304e-01	 1.1248751548e+00	-2.0386275577e+00
 7.9175948198e-01	 1.1088386017e+00	-1.8582866068e+00
 8.1441722377e-01	 1.0923052175e+00	-1.7003532189e+00
 8.3676288278e-01	 1.0752832106e+00	-1.5648987313e+00
 8.5878081845e-01	 1.0577814660e+00	-1.4520198903e+00
 8.8045573080e-01	 1.0398095302e+00	-1.3618374857e+00
 9.0177269531e-01	 1.0213775953e+00	-1.2944940645e+00
 9.2271719665e-01	 1.0024964801e+00	-1.2501507333e+00
 9.4327516139e-01	 9.8317760895e-01	-1.2289830787e+00
 9.6343298935e-01	 9.6343298935e-01	-1.2311762436e+00
 7.4215174716e-01	 1.1351761302e+00	-2.1821963847e+00
 7.6527897183e-01	 1.1197151771e+00	-1.9912414044e+00
 7.8812755775e-01	 1.1037521861e+00	-1.8200077685e+00
 8.1068136494e-01	 1.0872946431e+00	-1.6686798529e+00
 8.3292452093e-01	 1.0703507188e+00	-1.5374768074e+00
 8.5484145689e-01	 1.0529292574e+00	-1.4266515690e+00
 8.7641694305e-01	 1.0350397617e+00	-1.3364889154e+00
 8.9763612331e-01	 1.0166923770e+00	-1.2673025611e+00
 9.1848454896e-01	 9.9789787236e-01	-1.2194313110e+00
 9.3894821111e-01	 9.7866761991e-01	-1.1932343022e+00
 9.5901357197e-01	 9.5901357197e-01	-1.1890853771e+00
 7.3873169303e-01	 1.1299449038e+00	-2.1287832021e+00
 7.6175234063e-01	 1.1145551993e+00	-1.9490586359e+00
 7.8449563352e-01	 1.0986657705e+00	-1.7863816502e+00
 8.0694550611e-01	 1.0822840687e+00	-1.6410764619e+00
 8.2908615908e-01	 1.0654182270e+00	-1.5135110935e+00
 8.5090209534e-01	 1.0480770489e+00	-1.4040958419e+00
 8.7237815529e-01	 1.0302699932e+00	-1.3132807484e+00
 8.9349955131e-01	 1.0120071586e+00	-1.2415520733e+00
 9.1425190126e-01	 9.9329926465e-01	-1.1894277955e+00
 9.3462126082e-01	 9.7415763088e-01	-1.1574521701e+00
 9.5459415459e-01	 9.5459415459e-01	-1.1461893935e+00
 7.3531163889e-01	 1.1247136774e+00	-2.0811356393e+00
 7.5822570942e-01	 1.1093952215e+00	-1.9121158358e+00
 7.8086370929e-01	 1.0935793549e+00	-1.7574365170e+00
 8.0320964729e-01	 1.0772734943e+00	-1.6175627016e+00
 8.2524779723e-01	 1.0604857353e+00	-1.4930123587e+00
 8.4696273378e-01	 1.0432248403e+00	-1.3843543302e+00
 8.6833936753e-01	 1.0255002247e+00	-1.2922052125e+00
 8.8936297931e-01	 1.0073219403e+00	-1.2172252067e+00
 9.1001925357e-01	 9.8870065694e-01	-1.1601129583e+00
 9.3029431054e-01	 9.6964764184e-01	-1.1215994262e+00
 9.5017473720e-01	 9.5017473720e-01	-1.1024408326e+00
 7.3189158476e-01	 1.1194824510e+00	-2.0392995629e+00
 7.5469907821e-01	 1.1042352437e+00	-1.8804507119e+00
 7.7723178506e-01	 1.0884929393e+00	-1.7332016057e+00
 7.9947378846e-01	 1.0722629199e+00	-1.5981590400e+00
 8.2140943539e-01	 1.0555532435e+00	-1.4759920193e+00
 8.4302337223e-01	 1.0383726317e+00	-1.3674291307e+00
 8.6430057977e-01	 1.0207304562e+00	-1.2732548341e+00
 8.8522640731e-01	 1.0026367220e+00	-1.1943046832e+00
 9.0578660588e-01	 9.8410204923e-01	-1.1314595003e+00
 9.2596736025e-01	 9.6513765281e-01	-1.0856385515e+00
 9.4575531982e-01	 9.4575531982e-01	-1.0577917755e+00
 7.2847153063e-01	 1.1142512246e+00	-2.0033221403e+00
 7.5117244700e-01	 1.0990752660e+00	-1.8541021231e+00
 7.7359986083e-01	 1.0834065237e+00	-1.7137071482e+00
 7.9573792964e-01	 1.0672523455e+00	-1.5828867770e+00
 8.1757107354e-01	 1.0506207517e+00	-1.4624621538e+00
 8.3908401068e-01	 1.0335204232e+00	-1.3533228273e+00
 8.6026179201e-01	 1.0159606877e+00	-1.2564224458e+00
 8.8108983532e-01	 9.9795150366e-01	-1.1727733441e+00
 9.0155395818e-01	 9.7950344152e-01	-1.1034400499e+00
 9.2164040997e-01	 9.6062766377e-01	-1.0495317583e+00
 9.4133590243e-01	 9.4133590243e-01	-1.0121938336e+00
 7.2505147649e-01	 1.1090199982e+00	-1.9732518698e+00
 7.4764581580e-01	 1.0939152882e+00	-1.8331101066e+00
 7.6996793660e-01	 1.0783201081e+00	-1.6989843942e+00
 7.9200207081e-01	 1.0622417711e+00	-1.5717680636e+00
 8.1373271169e-01	 1.0456882599e+00	-1.4524355189e+00
 8.3514464912e-01	 1.0286682146e+00	-1.3420385024e+00
 8.5622300426e-01	 1.0111909192e+00	-1.2417011929e+00
 8.7695326332e-01	 9.9326628533e-01	-1.1526141527e+00
 8.9732131049e-01	 9.7490483381e-01	-1.0760271615e+00
 9.1731345969e-01	 9.5611767474e-01	-1.0132409837e+00
 9.3691648505e-01	 9.3691648505e-01	-9.6559813810e-01
 7.2163142236e-01	 1.1037887718e+00	-1.9491386121e+00
 7.4411918459e-01	 1.0887553104e+00	-1.8175159054e+00
 7.6633601237e-01	 1.0732336925e+00	-1.6890656357e+00
 7.8826621199e-01	 1.0572311967e+00	-1.5648259226e+00
 8.0989434984e-01	 1.0407557681e+00	-1.4459255651e+00
 8.3120528757e-01	 1.0238160060e+00	-1.3335797487e+00
 8.5218421650e-01	 1.0064211508e+00	-1.2290845412e+00
 8.7281669132e-01	 9.8858106700e-01	-1.1338101974e+00
 8.9308866280e-01	 9.7030622610e-01	-1.0491933135e+00
 9.1298650940e-01	 9.5160768571e-01	-9.7672788332e-01
 9.3249706766e-01	 9.3249706766e-01	-9.1795532814e-01
 7.1821136823e-01	 1.0985575454e+00	-1.9310336233e+00
 7.4059255339e-01	 1.0835953326e+00	-1.8073619974e+00
 7.6270408814e-01	 1.0681472769e+00	-1.6839842319e+00
 7.8453035316e-01	 1.0522206223e+00	-1.5620842688e+00
 8.0605598799e-01	 1.0358232763e+00	-1.4429464536e+00
 8.2726592601e-01	 1.0189637975e+00	-1.3279506812e+00
 8.4814542874e-01	 1.0016513823e+00	-1.2185662847e+00
 8.6868011932e-01	 9.8389584867e-01	-1.1163446944e+00
 8.8885601510e-01	 9.6570761839e-01	-1.0229109068e+00
 9.0865955912e-01	 9.4709769667e-01	-9.3995382444e-01
 9.2807765027e-01	 9.2807765027e-01	-8.6921553924e-01
 9.7227182412e-01	 9.7227182412e-01	-1.3131302353e+00
 9.9219757688e-01	 9.5192907740e-01	-1.3026212974e+00
 1.0116936551e+00	 9.3118255368e-01	-1.2443025304e+00
 1.0307479413e+00	 9.1004597768e-01	-1.1390360359e+00
 1.0493489065e+00	 8.8853355166e-01	-9.8795702946e-01
 1.0674856329e+00	 8.6665992379e-01	-7.9246057231e-01
 1.0851478352e+00	 8.4444015516e-01	-5.5418643166e-01
 1.1023258795e+00	 8.2188968569e-01	-2.7500223990e-01
 1.1190107996e+00	 7.9902429902e-01	 4.3014859511e-02
 1.1351943120e+00	 7.7586008655e-01	 3.9759787798e-01
 1.1508688279e+00	 7.5241341089e-01	 7.8631074703e-01
 9.6785240674e-01	 9.6785240674e-01	-1.2725090050e+00
 9.8768758789e-01	 9.4760212705e-01	-1.2559722178e+00
 1.0070950475e+00	 9.2694990571e-01	-1.1942948355e+00
 1.0260627234e+00	 9.0590940505e-01	-1.0883730077e+00
 1.0445791387e+00	 8.8449476279e-01	-9.3936422065e-01
 1.0626334255e+00	 8.6272056049e-01	-7.4867407991e-01
 1.0802153451e+00	 8.4060179081e-01	-5.1794129083e-01
 1.0973153073e+00	 8.1815382348e-01	-2.4902100581e-01
 1.1139243868e+00	 7.9539237038e-01	 5.6033276608e-02
 1.1300343379e+00	 7.7233344979e-01	 3.9498906263e-01
 1.1456376060e+00	 7.4899334993e-01	 7.6545525515e-01
 9.6343298935e-01	 9.6343298935e-01	-1.2311762436e+00
 9.8317759890e-01	 9.4327517670e-01	-1.2083506312e+00
 1.0024964400e+00	 9.2271725774e-01	-1.1430679372e+00
 1.0213775055e+00	 9.0177283242e-01	-1.0362591124e+00
 1.0398093710e+00	 8.8045597391e-01	-8.8910464394e-01
 1.0577812181e+00	 8.5878119720e-01	-7.0302138556e-01
 1.0752828549e+00	 8.3676342647e-01	-4.7964765423e-01
 1.0923047351e+00	 8.1441796127e-01	-2.2082676218e-01
 1.1088379741e+00	 7.9176044175e-01	 7.1410834328e-02
 1.1248743637e+00	 7.6880681303e-01	 3.9486657411e-01
 1.1404063840e+00	 7.4557328897e-01	 7.4719381278e-01
 9.5901357197e-01	 9.5901357197e-01	-1.1890853771e+00
 9.7866760991e-01	 9.3894822634e-01	-1.1597070588e+00
 9.9789783248e-01	 9.1848460976e-01	-1.0905697758e+00
 1.0166922875e+00	 8.9763625980e-01	-9.8264003638e-01
 1.0350396032e+00	 8.7641718504e-01	-8.3712206170e-01
 1.0529290106e+00	 8.5484183391e-01	-6.5544465858e-01
 1.0703503648e+00	 8.3292506213e-01	-4.3924642981e-01
 1.0872941629e+00	 8.1068209906e-01	-1.9035948690e-01
 1.1037515614e+00	 7.8812851312e-01	 8.9208154831e-02
 1.1197143896e+00	 7.6528017628e-01	 3.9729130671e-01
 1.1351751621e+00	 7.4215322801e-01	 7.3158726138e-01
 9.5459415459e-01	 9.5459415459e-01	-1.1461893935e+00
 9.7415762093e-01	 9.3462127599e-01	-1.1099915237e+00
 9.9329922496e-01	 9.1425196179e-01	-1.0367477385e+00
 1.0120070696e+00	 8.9349968717e-01	-9.2746086362e-01
 1.0302698355e+00	 8.7237839617e-01	-7.8335958929e-01
 1.0480768032e+00	 8.5090247062e-01	-6.0588538233e-01
 1.0654178746e+00	 8.2908669778e-01	-3.9667780602e-01
 1.0822835907e+00	 8.0694623685e-01	-1.5755841026e-01
 1.0986651487e+00	 7.8449658448e-01	 1.0948663035e-01
 1.1145544154e+00	 7.6175353952e-01	 4.0232494176e-01
 1.1299439401e+00	 7.3873316705e-01	 7.1869724092e-01
 9.5017473720e-01	 9.5017473720e-01	-1.1024408326e+00
 9.6964763194e-01	 9.3029432563e-01	-1.0591535394e+00
 9.8870061743e-01	 9.1001931382e-01	-9.8154864672e-01
 1.0073218517e+00	 8.8936311454e-01	-8.7066606131e-01
 1.0255000677e+00	 8.6833960729e-01	-7.2775968006e-01
 1.0432245958e+00	 8.4696310733e-01	-5.5428433825e-01
 1.0604853844e+00	 8.2524833344e-01	-3.5188123506e-01
 1.0772730186e+00	 8.0321037464e-01	-1.2236199767e-01
 1.0935787359e+00	 7.8086465585e-01	 1.3230844112e-01
 1.1093944413e+00	 7.5822690276e-01	 4.1002996596e-01
 1.1247127182e+00	 7.3531310609e-01	 7.0858620846e-01
 9.4575531982e-01	 9.4575531982e-01	-1.0577917755e+00
 9.6513764295e-01	 9.2596737528e-01	-1.0071420978e+00
 9.8410200991e-01	 9.0578666584e-01	-9.2491874299e-01
 1.0026366338e+00	 8.8522654191e-01	-8.1219946560e-01
 1.0207302999e+00	 8.6430081842e-01	-6.7026410981e-01
 1.0383723884e+00	 8.4302374403e-01	-5.0058158944e-01
 1.0555528943e+00	 8.2140996910e-01	-3.0479541568e-01
 1.0722624464e+00	 7.9947451243e-01	-8.4707931681e-02
 1.0884923232e+00	 7.7723272722e-01	 1.5773657374e-01
 1.1042344671e+00	 7.5470026600e-01	 4.2046969022e-01
 1.1194814962e+00	 7.3189304513e-01	 7.0131745725e-01
 9.4133590243e-01	 9.4133590243e-01	-1.0121938336e+00
 9.6062765396e-01	 9.2164042492e-01	-9.5390565716e-01
 9.7950340238e-01	 9.0155401787e-01	-8.6680367708e-01
 9.9795141587e-01	 8.8108996928e-01	-7.5200426681e-01
 1.0159605322e+00	 8.6026202955e-01	-6.1081396097e-01
 1.0335201809e+00	 8.3908438074e-01	-4.4471646382e-01
 1.0506204041e+00	 8.1757160475e-01	-2.5535827554e-01
 1.0672518742e+00	 7.9573865023e-01	-4.4533093693e-02
 1.0834059105e+00	 7.7360079859e-01	 1.8583484018e-01
 1.0990744930e+00	 7.5117362925e-01	 4.3370826897e-01
 1.1142502743e+00	 7.2847298417e-01	 6.9695513633e-01
 9.3691648505e-01	 9.3691648505e-01	-9.6559813810e-01
 9.5611766497e-01	 9.1731347457e-01	-8.9939212918e-01
 9.7490479485e-01	 8.9732136989e-01	-8.0714849219e-01
 9.9326619795e-01	 8.7695339666e-01	-6.9002299414e-01
 1.0111907644e+00	 8.5622324067e-01	-5.4934960619e-01
 1.0286679735e+00	 8.3514501745e-01	-3.8662753681e-01
 1.0456879139e+00	 8.1373324041e-01	-2.0350695296e-01
 1.0622413020e+00	 7.9200278802e-01	-1.7735450098e-03
 1.0783194978e+00	 7.6996886995e-01	 2.1666789717e-01
 1.0939145189e+00	 7.4764699249e-01	 4.4981072008e-01
 1.1090190524e+00	 7.2505292322e-01	 6.9556427075e-01
 9.3249706766e-01	 9.3249706766e-01	-9.1795532814e-01
 9.5160767598e-01	 9.1298652422e-01	-8.4354886634e-01
 9.7030618733e-01	 8.9308872192e-01	-7.4589761057e-01
 9.8858098004e-01	 8.7281682403e-01	-6.2619750005e-01
 1.0064209967e+00	 8.5218445180e-01	-4.8581069154e-01
 1.0238157661e+00	 8.3120565416e-01	-3.2625261343e-01
 1.0407554238e+00	 8.0989487607e-01	-1.4917777823e-01
 1.0572307298e+00	 7.8826692581e-01	 4.3635492575e-02
 1.0732330850e+00	 7.6633694132e-01	 2.5030126626e-01
 1.0887545447e+00	 7.4412035573e-01	 4.6884294530e-01
 1.1037878304e+00	 7.2163286226e-01	 6.9721078232e-01
 9.2807765027e-01	 9.2807765027e-01	-8.6921553924e-01
 9.4709768700e-01	 9.0865957386e-01	-7.8632264846e-01
 9.6570757980e-01	 8.8885607395e-01	-6.8299481867e-01
 9.8389576212e-01	 8.6868025140e-01	-5.6046894409e-01
 1.0016512289e+00	 8.4814566293e-01	-4.2013611921e-01
 1.0189635587e+00	 8.2726629087e-01	-2.6352871004e-01
 1.0358229336e+00	 8.0605651173e-01	-9.2306254413e-02
 1.0522201576e+00	 7.8453106360e-01	 9.1759656770e-02
 1.0681466723e+00	 7.6270501269e-01	 2.8680135441e-01
 1.0835945706e+00	 7.4059371898e-01	 4.9087175134e-01
 1.0985566085e+00	 7.1821280130e-01	 7.0196151091e-01
 1.1508688279e+00	 7.5241341089e-01	 7.8631074703e-01
 1.1660274627e+00	 7.2870086873e-01	 1.0325685407e+00
 1.1806640439e+00	 7.0473925348e-01	 1.2040710863e+00
 1.1947731158e+00	 6.8054551769e-01	 1.2955512628e+00
 1.2083499428e+00	 6.5613673552e-01	 1.3020806541e+00
 1.2213905094e+00	 6.3153006544e-01	 1.2190943606e+00
 1.2338915187e+00	 6.0674271315e-01	 1.1492336995e+00
 1.2458503886e+00	 5.8179189513e-01	 1.0532500845e+00
 1.2572652451e+00	 5.5669480277e-01	 1.2791748665e+00
 1.2681349147e+00	 5.3146856729e-01	 1.6684544616e+00
 1.2784589139e+00	 5.0613022563e-01	 2.0075138058e+00
 1.1456376060e+00	 7.4899334993e-01	 7.6545525515e-01
 1.1607273379e+00	 7.2538859205e-01	 1.0073486066e+00
 1.1752973892e+00	 7.0153589323e-01	 1.1786190804e+00
 1.1893423289e+00	 6.7745212897e-01	 1.2742701439e+00
 1.2028574431e+00	 6.5315429582e-01	 1.2896228750e+00
 1.2158387343e+00	 6.2865947423e-01	 1.2203399619e+00
 1.2282829209e+00	 6.0398479172e-01	 1.1931973635e+00
 1.2401874323e+00	 5.7914738651e-01	 1.1310389401e+00
 1.2515504031e+00	 5.5416437184e-01	 1.0983702333e+00
 1.2623706651e+00	 5.2905280108e-01	 1.5214468415e+00
 1.2726477371e+00	 5.0382963369e-01	 1.8994585483e+00
 1.1404063840e+00	 7.4557328897e-01	 7.4719381278e-01
 1.1554272131e+00	 7.2207631538e-01	 9.8384641626e-01
 1.1699307344e+00	 6.9833253299e-01	 1.1540507116e+00
 1.1839115421e+00	 6.7435874025e-01	 1.2530816217e+00
 1.1973649433e+00	 6.5017185611e-01	 1.2765104635e+00
 1.2102869593e+00	 6.2578888302e-01	 1.2202281382e+00
 1.2226743231e+00	 6.0122687030e-01	 1.2371334015e+00
 1.2345244760e+00	 5.7650287789e-01	 1.2079628369e+00
 1.2458355611e+00	 5.5163394092e-01	 1.1319597480e+00
 1.2566064155e+00	 5.2663703486e-01	 1.3697354146e+00
 1.2668365602e+00	 5.0152904176e-01	 1.7862596217e+00
 1.1351751621e+00	 7.4215322801e-01	 7.3158726138e-01
 1.1501270882e+00	 7.1876403870e-01	 9.6210910868e-01
 1.1645640797e+00	 6.9512917274e-01	 1.1303999652e+00
 1.1784807552e+00	 6.7126535153e-01	 1.2320070981e+00
 1.1918724436e+00	 6.4718941640e-01	 1.2627528302e+00
 1.2047351843e+00	 6.2291829182e-01	 1.2319863246e+00
 1.2170657253e+00	 5.9846894887e-01	 1.2810089388e+00
 1.2288615196e+00	 5.7385836928e-01	 1.2839805555e+00
 1.2401207190e+00	 5.4910351000e-01	 1.2448931035e+00
 1.2508421659e+00	 5.2422126864e-01	 1.2132887457e+00
 1.2610253833e+00	 4.9922844982e-01	 1.6678766925e+00
 1.1299439401e+00	 7.3873316705e-01	 7.1869724092e-01
 1.1448269634e+00	 7.1545176202e-01	 9.4218438055e-01
 1.1591974249e+00	 6.9192581250e-01	 1.1077011533e+00
 1.1730499683e+00	 6.6817196281e-01	 1.2110680828e+00
 1.1863799438e+00	 6.4420697669e-01	 1.2483592851e+00
 1.1991834092e+00	 6.2004770061e-01	 1.2492710777e+00
 1.2114571275e+00	 5.9571102745e-01	 1.3247906181e+00
 1.2231985633e+00	 5.7121386066e-01	 1.3590502206e+00
 1.2344058770e+00	 5.4657307907e-01	 1.3560793905e+00
 1.2450779163e+00	 5.2180550243e-01	 1.3197990292e+00
 1.2552142064e+00	 4.9692785789e-01	 1.5442683255e+00
 1.1247127182e+00	 7.3531310609e-01	 7.0858620846e-01
 1.1395268386e+00	 7.1213948535e-01	 9.2412049913e-01
 1.1538307702e+00	 6.8872245226e-01	 1.0859889231e+00
 1.1676191814e+00	 6.6507857410e-01	 1.1902861958e+00
 1.1808874441e+00	 6.4122453698e-01	 1.2333390351e+00
 1.1936316342e+00	 6.1717710940e-01	 1.2673451268e+00
 1.2058485297e+00	 5.9295310603e-01	 1.3684445883e+00
 1.2175356070e+00	 5.6856935205e-01	 1.4331292862e+00
 1.2286910350e+00	 5.4404264815e-01	 1.4654680051e+00
 1.2393136667e+00	 5.1938973621e-01	 1.4694036903e+00
 1.2494030296e+00	 4.9462726595e-01	 1.4487285253e+00
 1.1194814962e+00	 7.3189304513e-01	 7.0131745725e-01
 1.1342267138e+00	 7.0882720867e-01	 9.0796631563e-01
 1.1484641154e+00	 6.8551909202e-01	 1.0652982644e+00
 1.1621883945e+00	 6.6198518538e-01	 1.1696831695e+00
 1.1753949444e+00	 6.3824209728e-01	 1.2177011819e+00
 1.1880798591e+00	 6.1430651820e-01	 1.2861836355e+00
 1.2002399319e+00	 5.9019518460e-01	 1.4119364931e+00
 1.2118726507e+00	 5.6592484344e-01	 1.5061745199e+00
 1.2229761930e+00	 5.4151221723e-01	 1.5730074884e+00
 1.2335494171e+00	 5.1697397000e-01	 1.6164019043e+00
 1.2435918527e+00	 4.9232667402e-01	 1.6401565284e+00
 1.1142502743e+00	 7.2847298417e-01	 6.9695513633e-01
 1.1289265889e+00	 7.0551493199e-01	 8.9377127885e-01
 1.1430974607e+00	 6.8231573177e-01	 1.0456645176e+00
 1.1567576076e+00	 6.5889179667e-01	 1.1492808524e+00
 1.1699024446e+00	 6.3525965757e-01	 1.2014547194e+00
 1.1825280841e+00	 6.1143592699e-01	 1.3057614482e+00
 1.1946313341e+00	 5.8743726318e-01	 1.4552314590e+00
 1.2062096944e+00	 5.6328033482e-01	 1.5781419865e+00
 1.2172613509e+00	 5.3898178631e-01	 1.6786455066e+00
 1.2277851674e+00	 5.1455820379e-01	 1.7607336064e+00
 1.2377806758e+00	 4.9002608208e-01	 1.8282129478e+00
 1.1090190524e+00	 7.2505292322e-01	 6.9556427075e-01
 1.1236264641e+00	 7.0220265532e-01	 8.8158544934e-01
 1.1377308059e+00	 6.7911237153e-01	 1.0271233824e+00
 1.1513268207e+00	 6.5579840795e-01	 1.1291012105e+00
 1.1644099449e+00	 6.3227721787e-01	 1.1846085310e+00
 1.1769763091e+00	 6.0856533579e-01	 1.3260530833e+00
 1.1890227362e+00	 5.8467934176e-01	 1.4982940834e+00
 1.2005467381e+00	 5.6063582621e-01	 1.6489870314e+00
 1.2115465089e+00	 5.3645135539e-01	 1.7823288298e+00
 1.2220209178e+00	 5.1214243757e-01	 1.9023376732e+00
 1.2319694989e+00	 4.8772549015e-01	 2.0128294514e+00
 1.1037878304e+00	 7.2163286226e-01	 6.9721078232e-01
 1.1183263393e+00	 6.9889037865e-01	 8.7145951386e-01
 1.1323641512e+00	 6.7590901129e-01	 1.0097109257e+00
 1.1458960338e+00	 6.5270501924e-01	 1.1091663312e+00
 1.1589174451e+00	 6.2929477816e-01	 1.1671713873e+00
 1.1714245340e+00	 6.0569474458e-01	 1.3470327250e+00
 1.1834141384e+00	 5.8192142034e-01	 1.5410884216e+00
 1.1948837818e+00	 5.5799131760e-01	 1.7186642642e+00
 1.2058316669e+00	 5.3392092447e-01	 1.8840033114e+00
 1.2162566682e+00	 5.0972667136e-01	 2.0411518972e+00
 1.2261583220e+00	 4.8542489822e-01	 2.1939364705e+00
 1.0985566085e+00	 7.1821280130e-01	 7.0196151091e-01
 1.1130262144e+00	 6.9557810197e-01	 8.6344480027e-01
 1.1269974965e+00	 6.7270565105e-01	 9.9346359064e-01
 1.1404652469e+00	 6.4961163052e-01	 1.0894984257e+00
 1.1534249454e+00	 6.2631233846e-01	 1.1491519431e+00
 1.1658727590e+00	 6.0282415338e-01	 1.3686742156e+00
 1.1778055406e+00	 5.7916349892e-01	 1.5835779742e+00
 1.1892208255e+00	 5.5534680899e-01	 1.7871275402e+00
 1.2001168249e+00	 5.3139049356e-01	 1.9836138657e+00
 1.2104924186e+00	 5.0731090515e-01	 2.1771129615e+00
 1.2203471452e+00	 4.8312430629e-01	 2.3714631700e+00
 1.2784589139e+00	 5.0613022563e-01	 2.0075138058e+00
 1.2882374373e+00	 4.8069668729e-01	 2.1929044756e+00
 1.2974713433e+00	 4.5518470243e-01	 2.3656049120e+00
 1.3061621391e+00	 4.2961083119e-01	 2.5227287448e+00
 1.3143119634e+00	 4.0399141433e-01	 2.6617064440e+00
 1.3219235675e+00	 3.7834254539e-01	 2.7802993356e+00
 1.3290002958e+00	 3.5268004429e-01	 2.8766102829e+00
 1.3355460646e+00	 3.2701943253e-01	 2.9490910654e+00
 1.3415653397e+00	 3.0137591002e-01	 2.9965465211e+00
 1.3470631137e+00	 2.7576433358e-01	 3.0181355477e+00
 1.3520448816e+00	 2.5019919705e-01	 3.0133690931e+00
 1.2726477371e+00	 5.0382963369e-01	 1.8994585483e+00
 1.2823818126e+00	 4.7851170235e-01	 2.1198821449e+00
 1.2915737463e+00	 4.5311568106e-01	 2.3229295038e+00
 1.3002250385e+00	 4.2765805468e-01	 2.5055752984e+00
 1.3083378181e+00	 4.0215508972e-01	 2.6651295475e+00
 1.3159148240e+00	 3.7662280655e-01	 2.7992513468e+00
 1.3229593854e+00	 3.5107695318e-01	 2.9059592028e+00
 1.3294754007e+00	 3.2553298056e-01	 2.9836380058e+00
 1.3354673155e+00	 3.0000601953e-01	 3.0310427114e+00
 1.3409400996e+00	 2.7451085934e-01	 3.0472988348e+00
 1.3458992230e+00	 2.4906192797e-01	 3.0318998896e+00
 1.2668365602e+00	 5.0152904176e-01	 1.7862596217e+00
 1.2765261878e+00	 4.7632671740e-01	 2.0428263564e+00
 1.2856761493e+00	 4.5104665968e-01	 2.2772785613e+00
 1.2942879379e+00	 4.2570527818e-01	 2.4864500436e+00
 1.3023636728e+00	 4.0031876511e-01	 2.6675286570e+00
 1.3099060805e+00	 3.7490306770e-01	 2.8180697512e+00
 1.3169184750e+00	 3.4947386206e-01	 2.9360061602e+00
 1.3234047368e+00	 3.2404652860e-01	 3.0196547689e+00
 1.3293692912e+00	 2.9863612903e-01	 3.0677197341e+00
 1.3348170854e+00	 2.7325738510e-01	 3.0792924689e+00
 1.3397535645e+00	 2.4792465890e-01	 3.0538485276e+00
 1.2610253833e+00	 4.9922844982e-01	 1.6678766925e+00
 1.2706705631e+00	 4.7414173246e-01	 1.9617093741e+00
 1.2797785522e+00	 4.4897763831e-01	 2.2286363072e+00
 1.2883508372e+00	 4.2375250167e-01	 2.4653485141e+00
 1.2963895275e+00	 3.9848244050e-01	 2.6689099611e+00
 1.3038973370e+00	 3.7318332886e-01	 2.8367707303e+00
 1.3108775645e+00	 3.4787077095e-01	 2.9667766626e+00
 1.3173340728e+00	 3.2256007663e-01	 3.0571755184e+00
 1.3232712669e+00	 2.9726623853e-01	 3.1066197372e+00
 1.3286940713e+00	 2.7200391085e-01	 3.1141659104e+00
 1.3336079059e+00	 2.4678738982e-01	 3.0792711097e+00
 1.2552142064e+00	 4.9692785789e-01	 1.5442683255e+00
 1.2648149384e+00	 4.7195674752e-01	 1.8765026215e+00
 1.2738809552e+00	 4.4690861693e-01	 2.1769863731e+00
 1.2824137366e+00	 4.2179972516e-01	 2.4422658883e+00
 1.2904153822e+00	 3.9664611589e-01	 2.6692795164e+00
 1.2978885936e+00	 3.7146359002e-01	 2.8553705436e+00
 1.3048366541e+00	 3.4626767984e-01	 2.9982964921e+00
 1.3112634089e+00	 3.2107362466e-01	 3.0962348754e+00
 1.3171732427e+00	 2.9589634803e-01	 3.1477854958e+00
 1.3225710571e+00	 2.7075043661e-01	 3.1519694031e+00
 1.3274622474e+00	 2.4565012074e-01	 3.1082246635e+00
 1.2494030296e+00	 4.9462726595e-01	 1.4487285253e+00
 1.2589593137e+00	 4.6977176257e-01	 1.7871766631e+00
 1.2679833582e+00	 4.4483959556e-01	 2.1223117858e+00
 1.2764766360e+00	 4.1984694866e-01	 2.4171969817e+00
 1.2844412370e+00	 3.9480979127e-01	 2.6686432450e+00
 1.2918798501e+00	 3.6974385117e-01	 2.8738855307e+00
 1.2987957437e+00	 3.4466458873e-01	 3.0305917120e+00
 1.3051927450e+00	 3.1958717270e-01	 3.1368679298e+00
 1.3110752184e+00	 2.9452645753e-01	 3.1912604270e+00
 1.3164480429e+00	 2.6949696237e-01	 3.1927539917e+00
 1.3213165888e+00	 2.4451285167e-01	 3.1407671635e+00
 1.2435918527e+00	 4.9232667402e-01	 1.6401565284e+00
 1.2531036890e+00	 4.6758677763e-01	 1.6937011836e+00
 1.2620857612e+00	 4.4277057418e-01	 2.0645949531e+00
 1.2705395353e+00	 4.1789417215e-01	 2.3901362381e+00
 1.2784670917e+00	 3.9297346666e-01	 2.6670069307e+00
 1.2858711066e+00	 3.6802411233e-01	 2.8923321130e+00
 1.2927548332e+00	 3.4306149762e-01	 3.0636886733e+00
 1.2991220811e+00	 3.1810072073e-01	 3.1791102507e+00
 1.3049771941e+00	 2.9315656703e-01	 3.2370886046e+00
 1.3103250288e+00	 2.6824348812e-01	 3.2365715411e+00
 1.3151709303e+00	 2.4337558259e-01	 3.1769575525e+00
 1.2377806758e+00	 4.9002608208e-01	 1.8282129478e+00
 1.2472480643e+00	 4.6540179269e-01	 1.7535149825e+00
 1.2561881642e+00	 4.4070155281e-01	 2.0038176495e+00
 1.2646024347e+00	 4.1594139565e-01	 2.3610777209e+00
 1.2724929464e+00	 3.9113714205e-01	 2.6643762163e+00
 1.2798623631e+00	 3.6630437349e-01	 2.9107267956e+00
 1.2867139228e+00	 3.4145840651e-01	 3.0976140214e+00
 1.2930514171e+00	 3.1661426876e-01	 3.2229978977e+00
 1.2988791699e+00	 2.9178667652e-01	 3.2853147748e+00
 1.3042020146e+00	 2.6699001388e-01	 3.2834747551e+00
 1.3090252717e+00	 2.4223831351e-01	 3.2168557652e+00
 1.2319694989e+00	 4.8772549015e-01	 2.0128294514e+00
 1.2413924396e+00	 4.6321680775e-01	 1.9880024568e+00
 1.2502905672e+00	 4.3863253143e-01	 1.9399610010e+00
 1.2586653341e+00	 4.1398861914e-01	 2.3300151044e+00
 1.2665188011e+00	 3.8930081744e-01	 2.6607565999e+00
 1.2738536196e+00	 3.6458463464e-01	 2.9290861695e+00
 1.2806730124e+00	 3.3985531540e-01	 3.1323947030e+00
 1.2869807532e+00	 3.1512781680e-01	 3.2685674327e+00
 1.2927811456e+00	 2.9041678602e-01	 3.3359843716e+00
 1.2980790005e+00	 2.6573653963e-01	 3.3335171969e+00
 1.3028796132e+00	 2.4110104443e-01	 3.2605227508e+00
 1.2261583220e+00	 4.8542489822e-01	 2.1939364705e+00
 1.2355368149e+00	 4.6103182281e-01	 2.2199809160e+00
 1.2443929702e+00	 4.3656351006e-01	 2.2001261521e+00
 1.2527282334e+00	 4.1203584264e-01	 2.2969416639e+00
 1.2605446558e+00	 3.8746449283e-01	 2.6561534318e+00
 1.2678448761e+00	 3.6286489580e-01	 2.9474269133e+00
 1.2746321019e+00	 3.3825222429e-01	 3.1680579734e+00
 1.2809100893e+00	 3.1364136483e-01	 3.3158559319e+00
 1.2866831213e+00	 2.8904689552e-01	 3.3891435335e+00
 1.2919559863e+00	 2.6448306539e-01	 3.3867533086e+00
 1.2967339546e+00	 2.3996377535e-01	 3.3080204978e+00
 1.2203471452e+00	 4.8312430629e-01	 2.3714631700e+00
 1.2296811901e+00	 4.5884683787e-01	 2.4493964032e+00
 1.2384953731e+00	 4.3449448869e-01	 2.4756143029e+00
 1.2467911328e+00	 4.1008306613e-01	 2.4514923892e+00
 1.2545705105e+00	 3.8562816822e-01	 2.6505719105e+00
 1.2618361326e+00	 3.6114515696e-01	 2.9657657955e+00
 1.2685911915e+00	 3.3664913318e-01	 3.2046314039e+00
 1.2748394253e+00	 3.1215491286e-01	 3.3649009975e+00
 1.2805850970e+00	 2.8767700502e-01	 3.4448391204e+00
 1.2858329722e+00	 2.6322959114e-01	 3.4432384329e+00
 1.2905882961e+00	 2.3882650627e-01	 3.3594120579e+00
 1.3520448816e+00	 2.5019919705e-01	 3.0133690931e+00
 1.3565166165e+00	 2.2469461322e-01	 3.1902364248e+00
 1.3604847444e+00	 1.9926429739e-01	 3.3373700905e+00
 1.3639561186e+00	 1.7392155271e-01	 3.4551875003e+00
 1.3669379937e+00	 1.4867925712e-01	 3.5444374548e+00
 1.3694379993e+00	 1.2354985210e-01	 3.6061853863e+00
 1.3714641145e+00	 9.8545332961e-02	 3.6417967393e+00
 1.3730246408e+00	 7.3677240839e-02	 3.6529187320e+00
 1.3741281766e+00	 4.8956656211e-02	 3.6414607437e+00
 1.3747835914e+00	 2.4394193976e-02	 3.6095735702e+00
 1.3750000000e+00	 0.0000000000e+00	 3.5596277867e+00
 1.3458992230e+00	 2.4906192797e-01	 3.0318998896e+00
 1.3503506319e+00	 2.2367327407e-01	 3.1964262330e+00
 1.3543007228e+00	 1.9835855059e-01	 3.3334760482e+00
 1.3577563181e+00	 1.7313100020e-01	 3.4435288038e+00
 1.3607246391e+00	 1.4800344232e-01	 3.5273815697e+00
 1.3632132812e+00	 1.2298826186e-01	 3.5861346288e+00
 1.3652301867e+00	 9.8097399632e-02	 3.6211752893e+00
 1.3667836197e+00	 7.3342344292e-02	 3.6341601319e+00
 1.3678821395e+00	 4.8734125957e-02	 3.6269959284e+00
 1.3685345751e+00	 2.4283311277e-02	 3.6018194712e+00
 1.3687500000e+00	 0.0000000000e+00	 3.5609765434e+00
 1.3397535645e+00	 2.4792465890e-01	 3.0538485276e+00
 1.3441846472e+00	 2.2265193492e-01	 3.2056974247e+00
 1.3481167013e+00	 1.9745280378e-01	 3.3323384501e+00
 1.3515565175e+00	 1.7234044769e-01	 3.4343130949e+00
 1.3545112846e+00	 1.4732762752e-01	 3.5124666719e+00
 1.3569885630e+00	 1.2242667163e-01	 3.5679342998e+00
 1.3589962589e+00	 9.7649466303e-02	 3.6021251457e+00
 1.3605425986e+00	 7.3007447745e-02	 3.6167051569e+00
 1.3616361023e+00	 4.8511595703e-02	 3.6135785117e+00
 1.3622855588e+00	 2.4172428578e-02	 3.5948680208e+00
 1.3625000000e+00	 0.0000000000e+00	 3.5628947041e+00
 1.3336079059e+00	 2.4678738982e-01	 3.0792711097e+00
 1.3380186626e+00	 2.2163059577e-01	 3.2181001651e+00
 1.3419326797e+00	 1.9654705698e-01	 3.3340018830e+00
 1.3453567170e+00	 1.7154989518e-01	 3.4275797446e+00
 1.3482979301e+00	 1.4665181271e-01	 3.4997272835e+00
 1.3507638448e+00	 1.2186508139e-01	 3.5516144406e+00
 1.3527623311e+00	 9.7201532973e-02	 3.5846722378e+00
 1.3543015775e+00	 7.2672551197e-02	 3.6005759938e+00
 1.3553900651e+00	 4.8289065449e-02	 3.6012273058e+00
 1.3560365425e+00	 2.4061545878e-02	 3.5887350226e+00
 1.3562500000e+00	 0.0000000000e+00	 3.5653954271e+00
 1.3274622474e+00	 2.4565012074e-01	 3.1082246635e+00
 1.3318526780e+00	 2.2060925662e-01	 3.2336854519e+00
 1.3357486582e+00	 1.9564131017e-01	 3.3385116792e+00
 1.3391569165e+00	 1.7075934267e-01	 3.4233687887e+00
 1.3420845756e+00	 1.4597599791e-01	 3.4891985149e+00
 1.3445391266e+00	 1.2130349116e-01	 3.5372056099e+00
 1.3465284033e+00	 9.6753599642e-02	 3.5688429472e+00
 1.3480605564e+00	 7.2337654648e-02	 3.5857952213e+00
 1.3491440280e+00	 4.8066535194e-02	 3.5899614600e+00
 1.3497875261e+00	 2.3950663179e-02	 3.5834365678e+00
 1.3500000000e+00	 0.0000000000e+00	 3.5684921144e+00
 1.3213165888e+00	 2.4451285167e-01	 3.1407671635e+00
 1.3256866934e+00	 2.1958791747e-01	 3.2525051354e+00
 1.3295646366e+00	 1.9473556337e-01	 3.3459139346e+00
 1.3329571159e+00	 1.6996879015e-01	 3.4217209425e+00
 1.3358712211e+00	 1.4530018310e-01	 3.4809160783e+00
 1.3383144084e+00	 1.2074190092e-01	 3.5247388956e+00
 1.3402944755e+00	 9.6305666311e-02	 3.5546641176e+00
 1.3418195353e+00	 7.2002758099e-02	 3.5723858189e+00
 1.3428979908e+00	 4.7844004938e-02	 3.5798004684e+00
 1.3435385098e+00	 2.3839780479e-02	 3.5789890424e+00
 1.3437500000e+00	 0.0000000000e+00	 3.5721984173e+00
 1.3151709303e+00	 2.4337558259e-01	 3.1769575525e+00
 1.3195207088e+00	 2.1856657832e-01	 3.2746119380e+00
 1.3233806150e+00	 1.9382981656e-01	 3.3562555263e+00
 1.3267573154e+00	 1.6917823764e-01	 3.4226776175e+00
 1.3296578666e+00	 1.4462436830e-01	 3.4749163018e+00
 1.3320896903e+00	 1.2018031069e-01	 3.5142459276e+00
 1.3340605477e+00	 9.5857732979e-02	 3.5421630662e+00
 1.3355785142e+00	 7.1667861550e-02	 3.5603711767e+00
 1.3366519536e+00	 4.7621474683e-02	 3.5707641784e+00
 1.3372894935e+00	 2.3728897779e-02	 3.5754091333e+00
 1.3375000000e+00	 0.0000000000e+00	 3.5765282424e+00
 1.3090252717e+00	 2.4223831351e-01	 3.2168557652e+00
 1.3133547241e+00	 2.1754523916e-01	 3.3000594746e+00
 1.3171965935e+00	 1.9292406975e-01	 3.3695841307e+00
 1.3205575148e+00	 1.6838768513e-01	 3.4262809368e+00
 1.3234445120e+00	 1.4394855349e-01	 3.4712361440e+00
 1.3258649721e+00	 1.1961872045e-01	 3.5057588901e+00
 1.3278266199e+00	 9.5409799647e-02	 3.5313675942e+00
 1.3293374931e+00	 7.1332965000e-02	 3.5497751044e+00
 1.3304059165e+00	 4.7398944427e-02	 3.5628727984e+00
 1.3310404772e+00	 2.3618015079e-02	 3.5727138360e+00
 1.3312500000e+00	 0.0000000000e+00	 3.5814957571e+00
 1.3028796132e+00	 2.4110104443e-01	 3.2605227508e+00
 1.3071887395e+00	 2.1652390001e-01	 3.3289022741e+00
 1.3110125719e+00	 1.9201832295e-01	 3.3859482428e+00
 1.3143577143e+00	 1.6759713261e-01	 3.4325737527e+00
 1.3172311575e+00	 1.4327273869e-01	 3.4699132086e+00
 1.3196402539e+00	 1.1905713021e-01	 3.4993105349e+00
 1.3215926922e+00	 9.4961866314e-02	 3.5223059989e+00
 1.3230964720e+00	 7.0998068450e-02	 3.5406218417e+00
 1.3241598793e+00	 4.7176414171e-02	 3.5561469071e+00
 1.3247914608e+00	 2.3507132379e-02	 3.5709204617e+00
 1.3250000000e+00	 0.0000000000e+00	 3.5871153966e+00
 1.2967339546e+00	 2.3996377535e-01	 3.3080204978e+00
 1.3010227549e+00	 2.1550256086e-01	 3.3611958005e+00
 1.3048285503e+00	 1.9111257614e-01	 3.4053971953e+00
 1.3081579138e+00	 1.6680658010e-01	 3.4415996635e+00
 1.3110178030e+00	 1.4259692388e-01	 3.4709857602e+00
 1.3134155357e+00	 1.1849553997e-01	 3.4949341947e+00
 1.3153587644e+00	 9.4513932981e-02	 3.5150070848e+00
 1.3168554509e+00	 7.0663171899e-02	 3.5329360684e+00
 1.3179138421e+00	 4.6953883914e-02	 3.5506074612e+00
 1.3185424445e+00	 2.3396249678e-02	 3.5700466448e+00
 1.3187500000e+00	 0.0000000000e+00	 3.5934018692e+00
 1.2905882961e+00	 2.3882650627e-01	 3.3594120579e+00
 1.2948567703e+00	 2.1448122170e-01	 3.3969964757e+00
 1.2986445288e+00	 1.9020682933e-01	 3.4279811785e+00
 1.3019581132e+00	 1.6601602758e-01	 3.4534030315e+00
 1.3048044485e+00	 1.4192110907e-01	 3.4744927392e+00
 1.3071908176e+00	 1.1793394973e-01	 3.4926637973e+00
 1.3091248366e+00	 9.4065999647e-02	 3.5095001762e+00
 1.3106144298e+00	 7.0328275348e-02	 3.5267429148e+00
 1.3116678050e+00	 4.6731353657e-02	 3.5462758055e+00
 1.3122934282e+00	 2.3285366978e-02	 3.5701103503e+00
 1.3125000000e+00	 0.0000000000e+00	 3.6003701639e+00
 0.0000000000e+00	 1.3125000000e+00	-2.0839797148e+00
 2.3285366978e-02	 1.3122934282e+00	-2.0015611271e+00
 4.6731353657e-02	 1.3116678050e+00	-1.9428018759e+00
 7.0328275348e-02	 1.3106144298e+00	-1.9056868741e+00
 9.4065999647e-02	 1.3091248366e+00	-1.8881898616e+00
 1.1793394973e-01	 1.3071908176e+00	-1.8882822144e+00
 1.4192110907e-01	 1.3048044485e+00	-1.9039417399e+00
 1.6601602758e-01	 1.3019581132e+00	-1.9331613762e+00
 1.9020682933e-01	 1.2986445288e+00	-1.9739577032e+00
 2.1448122170e-01	 1.2948567703e+00	-2.0243791773e+00
 2.3882650627e-01	 1.2905882961e+00	-2.0825139970e+00
 0.0000000000e+00	 1.3062500000e+00	-2.0947988784e+00
 2.3174484277e-02	 1.3060444119e+00	-2.0339824970e+00
 4.6508823401e-02	 1.3054217678e+00	-1.9901422773e+00
 6.9993378797e-02	 1.3043734087e+00	-1.9611643195e+00
 9.3618066313e-02	 1.3028909088e+00	-1.9449404632e+00
 1.1737235949e-01	 1.3009660994e+00	-1.9393781861e+00
 1.4124529426e-01	 1.2985910940e+00	-1.9424104678e+00
 1.6522547507e-01	 1.2957583127e+00	-1.9520055285e+00
 1.8930108252e-01	 1.2924605072e+00	-1.9661763431e+00
 2.1345988255e-01	 1.2886907857e+00	-1.9829898349e+00
 2.3768923719e-01	 1.2844426375e+00	-2.0005756482e+00
 0.0000000000e+00	 1.3000000000e+00	-2.1099543123e+00
 2.3063601577e-02	 1.2997953955e+00	-2.0706730037e+00
 4.6286293144e-02	 1.2991757306e+00	-2.0416129516e+00
 6.9658482246e-02	 1.2981323876e+00	-2.0205601781e+00
 9.3170132980e-02	 1.2966569810e+00	-2.0053234959e+00
 1.1681076925e-01	 1.2947413812e+00	-1.9937455062e+00
 1.4056947946e-01	 1.2923777395e+00	-1.9837135406e+00
 1.6443492256e-01	 1.2895585121e+00	-1.9731704476e+00
 1.8839533571e-01	 1.2862764856e+00	-1.9601251190e+00
 2.1243854340e-01	 1.2825248010e+00	-1.9426626508e+00
 2.3655196811e-01	 1.2782969789e+00	-1.9189540290e+00
 0.0000000000e+00	 1.2937500000e+00	-2.1295012003e+00
 2.2952718876e-02	 1.2935463792e+00	-2.1116862073e+00
 4.6063762888e-02	 1.2929296935e+00	-2.0972649235e+00
 6.9323585696e-02	 1.2918913665e+00	-2.0839220110e+00
 9.2722199647e-02	 1.2904230532e+00	-2.0693821143e+00
 1.1624917902e-01	 1.2885166630e+00	-2.0514219669e+00
 1.3989366465e-01	 1.2861643849e+00	-2.0278824203e+00
 1.6364437004e-01	 1.2833587116e+00	-1.9966802882e+00
 1.8748958890e-01	 1.2800924641e+00	-1.9558198929e+00
 2.1141720425e-01	 1.2763588164e+00	-1.9034042021e+00
 2.3541469903e-01	 1.2721513204e+00	-1.8376454363e+00
 0.0000000000e+00	 1.2875000000e+00	-2.1534957982e+00
 2.2841836176e-02	 1.2872973629e+00	-2.1570767037e+00
 4.5841232632e-02	 1.2866836563e+00	-2.1571501985e+00
 6.8988689147e-02	 1.2856503455e+00	-2.1512982863e+00
 9.2274266315e-02	 1.2841891254e+00	-2.1371602873e+00
 1.1568758878e-01	 1.2822919448e+00	-2.1124460623e+00
 1.3921784984e-01	 1.2799510304e+00	-2.0749491390e+00
 1.6285381753e-01	 1.2771589111e+00	-2.0225596227e+00
 1.8658384210e-01	 1.2739084425e+00	-1.9532767721e+00
 2.1039586510e-01	 1.2701928318e+00	-1.8652211194e+00
 2.3427742996e-01	 1.2660056618e+00	-1.7566460080e+00
 0.0000000000e+00	 1.2812500000e+00	-2.1819954590e+00
 2.2730953476e-02	 1.2810483466e+00	-2.2069001494e+00
 4.5618702377e-02	 1.2804376191e+00	-2.2213217866e+00
 6.8653792598e-02	 1.2794093244e+00	-2.2227384015e+00
 9.1826332983e-02	 1.2779551976e+00	-2.2087028176e+00
 1.1512599854e-01	 1.2760672267e+00	-2.1768570051e+00
 1.3854203504e-01	 1.2737376759e+00	-2.1249463119e+00
 1.6206326502e-01	 1.2709591105e+00	-2.0508334512e+00
 1.8567809529e-01	 1.2677244209e+00	-1.9525121154e+00
 2.0937452595e-01	 1.2640268472e+00	-1.8281200879e+00
 2.3314016088e-01	 1.2598600033e+00	-1.6759517190e+00
 0.0000000000e+00	 1.2750000000e+00	-2.2150586607e+00
 2.2620070777e-02	 1.2747993302e+00	-2.2612132876e+00
 4.5396172122e-02	 1.2741915820e+00	-2.2898337274e+00
 6.8318896049e-02	 1.2731683033e+00	-2.2982927057e+00
 9.1378399653e-02	 1.2717212698e+00	-2.2840553627e+00
 1.1456440831e-01	 1.2698425085e+00	-2.2446947447e+00
 1.3786622024e-01	 1.2675243214e+00	-2.1779071523e+00
 1.6127271251e-01	 1.2647593100e+00	-2.0815272122e+00
 1.8477234849e-01	 1.2615403994e+00	-1.9535425395e+00
 2.0835318680e-01	 1.2578608625e+00	-1.7921078489e+00
 2.3200289181e-01	 1.2537143447e+00	-1.5955583773e+00
 0.0000000000e+00	 1.2687500000e+00	-2.2527450334e+00
 2.2509188077e-02	 1.2685503139e+00	-2.3200739750e+00
 4.5173641867e-02	 1.2679455448e+00	-2.3627411147e+00
 6.7983999501e-02	 1.2669272822e+00	-2.3780125238e+00
 9.0930466323e-02	 1.2654873420e+00	-2.3632644552e+00
 1.1400281807e-01	 1.2636177903e+00	-2.3159999851e+00
 1.3719040543e-01	 1.2613109669e+00	-2.2338654858e+00
 1.6048216000e-01	 1.2585595094e+00	-2.1146667932e+00
 1.8386660168e-01	 1.2553563778e+00	-1.9563849248e+00
 2.0733184765e-01	 1.2516948779e+00	-1.7571912008e+00
 2.3086562273e-01	 1.2475686862e+00	-1.6706271590e+00
 0.0000000000e+00	 1.2625000000e+00	-2.2951153879e+00
 2.2398305378e-02	 1.2623012976e+00	-2.3835412092e+00
 4.4951111612e-02	 1.2616995076e+00	-2.4401001236e+00
 6.7649102953e-02	 1.2606862611e+00	-2.4619501800e+00
 9.0482532993e-02	 1.2592534142e+00	-2.4463775252e+00
 1.1344122784e-01	 1.2573930721e+00	-2.3908142035e+00
 1.3651459063e-01	 1.2550976124e+00	-2.2928557658e+00
 1.5969160749e-01	 1.2523597089e+00	-2.1502785417e+00
 1.8296085488e-01	 1.2491723562e+00	-2.0122828379e+00
 2.0631050850e-01	 1.2455288933e+00	-2.0043744580e+00
 2.2972835366e-01	 1.2414230276e+00	-1.9818649680e+00
 0.0000000000e+00	 1.2562500000e+00	-2.3422317452e+00
 2.2287422679e-02	 1.2560522813e+00	-2.4516751574e+00
 4.4728581358e-02	 1.2554534705e+00	-2.5219680363e+00
 6.7314206406e-02	 1.2544452400e+00	-2.5501590231e+00
 9.0034599664e-02	 1.2530194864e+00	-2.5334429221e+00
 1.1287963760e-01	 1.2511683539e+00	-2.4691796697e+00
 1.3583877583e-01	 1.2488842578e+00	-2.4212957076e+00
 1.5890105498e-01	 1.2461599084e+00	-2.4214087701e+00
 1.8205510808e-01	 1.2429883347e+00	-2.4005541290e+00
 2.0528916936e-01	 1.2393629087e+00	-2.3576904542e+00
 2.2859108459e-01	 1.2352773691e+00	-2.2917043467e+00
 0.0000000000e+00	 1.2500000000e+00	-2.3941573670e+00
 2.2176539980e-02	 1.2498032649e+00	-2.5347290159e+00
 4.4506051105e-02	 1.2492074333e+00	-2.6508245736e+00
 6.6979309859e-02	 1.2482042189e+00	-2.7417136915e+00
 8.9586666336e-02	 1.2467855586e+00	-2.8066147320e+00
 1.1231804737e-01	 1.2449436358e+00	-2.8446945302e+00
 1.3516296103e-01	 1.2426709033e+00	-2.8550688505e+00
 1.5811050247e-01	 1.2399601078e+00	-2.8368036056e+00
 1.8114936128e-01	 1.2368043131e+00	-2.7889169013e+00
 2.0426783021e-01	 1.2331969241e+00	-2.7103819656e+00
 2.2745381552e-01	 1.2291317105e+00	-2.6001310164e+00
 2.3882650627e-01	 1.2905882961e+00	-2.0825139970e+00
 2.6322960535e-01	 1.2858329665e+00	-2.2830634495e+00
 2.8767706242e-01	 1.2805850742e+00	-2.3979390331e+00
 3.1215504328e-01	 1.2748393734e+00	-2.4267109070e+00
 3.3664936725e-01	 1.2685910984e+00	-2.3693796382e+00
 3.6114552614e-01	 1.2618359860e+00	-2.2263876707e+00
 3.8562870475e-01	 1.2545702977e+00	-1.9986283298e+00
 4.1008380298e-01	 1.2467908408e+00	-1.9018171820e+00
 4.3449545957e-01	 1.2384949886e+00	-2.0606463104e+00
 4.5884807720e-01	 1.2296806994e+00	-2.1683528012e+00
 4.8312584913e-01	 1.2203465344e+00	-2.2239778029e+00
 2.3768923719e-01	 1.2844426375e+00	-2.0005756482e+00
 2.6197613104e-01	 1.2797099524e+00	-2.1488290971e+00
 2.8630717165e-01	 1.2744870500e+00	-2.2159749040e+00
 3.1066859069e-01	 1.2687687097e+00	-2.2015970418e+00
 3.3504627503e-01	 1.2625501884e+00	-2.1056905751e+00
 3.5942578554e-01	 1.2558272432e+00	-1.9286725267e+00
 3.8379237758e-01	 1.2485961534e+00	-1.7651795531e+00
 4.0813102297e-01	 1.2408537415e+00	-1.9454316219e+00
 4.3242643358e-01	 1.2325973934e+00	-2.0792367434e+00
 4.5666308636e-01	 1.2238250771e+00	-2.1655111369e+00
 4.8082524985e-01	 1.2145353604e+00	-2.2032443511e+00
 2.3655196811e-01	 1.2782969789e+00	-1.9189540290e+00
 2.6072265672e-01	 1.2735869382e+00	-2.0151873119e+00
 2.8493728087e-01	 1.2683890258e+00	-2.0349187351e+00
 3.0918213810e-01	 1.2626980460e+00	-1.9777465180e+00
 3.3344318280e-01	 1.2565092784e+00	-1.8436605913e+00
 3.5770604494e-01	 1.2498185004e+00	-1.6451531826e+00
 3.8195605042e-01	 1.2426220092e+00	-1.8390179059e+00
 4.0617824296e-01	 1.2349166423e+00	-1.9912792553e+00
 4.3035740758e-01	 1.2266997982e+00	-2.1007724432e+00
 4.5447809552e-01	 1.2179694547e+00	-2.1663761292e+00
 4.7852465057e-01	 1.2087241864e+00	-2.1870270663e+00
 2.3541469903e-01	 1.2721513204e+00	-1.8376454363e+00
 2.5946918241e-01	 1.2674639241e+00	-1.8821390349e+00
 2.8356739010e-01	 1.2622910017e+00	-1.8547768040e+00
 3.0769568552e-01	 1.2566273823e+00	-1.7551716433e+00
 3.3184009058e-01	 1.2504683684e+00	-1.5833087184e+00
 3.5598630434e-01	 1.2438097577e+00	-1.7516536742e+00
 3.8011972325e-01	 1.2366478649e+00	-1.9144428765e+00
 4.0422546294e-01	 1.2289795431e+00	-2.0393820926e+00
 4.2828838158e-01	 1.2208022030e+00	-2.1252829056e+00
 4.5229310468e-01	 1.2121138323e+00	-2.1709853762e+00
 4.7622405130e-01	 1.2029130124e+00	-2.1753722619e+00
 2.3427742996e-01	 1.2660056618e+00	-1.7566460080e+00
 2.5821570810e-01	 1.2613409100e+00	-1.7496851246e+00
 2.8219749933e-01	 1.2561929775e+00	-1.6755553948e+00
 3.0620923293e-01	 1.2505567187e+00	-1.5338848341e+00
 3.3023699836e-01	 1.2444274584e+00	-1.6939659080e+00
 3.5426656374e-01	 1.2378010149e+00	-1.8591332981e+00
 3.7828339609e-01	 1.2306737206e+00	-1.9914701002e+00
 4.0227268293e-01	 1.2230424438e+00	-2.0897627878e+00
 4.2621935559e-01	 1.2149046079e+00	-2.1527984357e+00
 4.5010811383e-01	 1.2062582099e+00	-2.1793774633e+00
 4.7392345202e-01	 1.1971018385e+00	-2.1683274286e+00
 2.3314016088e-01	 1.2598600033e+00	-1.6759517190e+00
 2.5696223379e-01	 1.2552178959e+00	-1.6178263549e+00
 2.8082760855e-01	 1.2500949533e+00	-1.4972607987e+00
 3.0472278035e-01	 1.2444860550e+00	-1.6768892938e+00
 3.2863390613e-01	 1.2383865485e+00	-1.8361265969e+00
 3.5254682315e-01	 1.2317922721e+00	-1.9676016632e+00
 3.7644706893e-01	 1.2246995763e+00	-2.0701157152e+00
 4.0031990292e-01	 1.2171053446e+00	-2.1424446548e+00
 4.2415032959e-01	 1.2090070127e+00	-2.1833501675e+00
 4.4792312299e-01	 1.2004025875e+00	-2.1915919871e+00
 4.7162285274e-01	 1.1912906645e+00	-2.1659412632e+00
 2.3200289181e-01	 1.2537143447e+00	-1.5955583773e+00
 2.5570875949e-01	 1.2490948817e+00	-1.5450913931e+00
 2.7945771778e-01	 1.2439969292e+00	-1.7115975947e+00
 3.0323632776e-01	 1.2384153913e+00	-1.8564982985e+00
 3.2703081391e-01	 1.2323456385e+00	-1.9787041838e+00
 3.5082708255e-01	 1.2257835293e+00	-2.0770687466e+00
 3.7461074176e-01	 1.2187254321e+00	-2.1503963750e+00
 3.9836712291e-01	 1.2111682453e+00	-2.1974516828e+00
 4.2208130360e-01	 1.2031094175e+00	-2.2169700845e+00
 4.4573813215e-01	 1.1945469652e+00	-2.2076695802e+00
 4.6932225346e-01	 1.1854794905e+00	-2.1682636984e+00
 2.3086562273e-01	 1.2475686862e+00	-1.6706271590e+00
 2.5445528518e-01	 1.2429718676e+00	-1.8094374645e+00
 2.7808782702e-01	 1.2378989050e+00	-1.9315546126e+00
 3.0174987518e-01	 1.2323447276e+00	-2.0359961575e+00
 3.2542772169e-01	 1.2263047285e+00	-2.1217028689e+00
 3.4910734195e-01	 1.2197747865e+00	-2.1875449024e+00
 3.7277441460e-01	 1.2127512878e+00	-2.2323292610e+00
 3.9641434290e-01	 1.2052311461e+00	-2.2548085537e+00
 4.2001227760e-01	 1.1972118223e+00	-2.2536910404e+00
 4.4355314131e-01	 1.1886913428e+00	-2.2276519368e+00
 4.6702165418e-01	 1.1796683165e+00	-2.1753459326e+00
 2.2972835366e-01	 1.2414230276e+00	-1.9818649680e+00
 2.5320181087e-01	 1.2368488535e+00	-2.0727661439e+00
 2.7671793625e-01	 1.2318008808e+00	-2.1509182688e+00
 3.0026342260e-01	 1.2262740639e+00	-2.2153817075e+00
 3.2382462947e-01	 1.2202638185e+00	-2.2651270983e+00
 3.4738760136e-01	 1.2137660437e+00	-2.2990408716e+00
 3.7093808744e-01	 1.2067771435e+00	-2.3159320959e+00
 3.9446156289e-01	 1.1992940468e+00	-2.3145406588e+00
 4.1794325161e-01	 1.1913142271e+00	-2.2935467807e+00
 4.4136815047e-01	 1.1828357204e+00	-2.2515818389e+00
 4.6472105490e-01	 1.1738571426e+00	-2.1872404622e+00
 2.2859108459e-01	 1.2352773691e+00	-2.2917043467e+00
 2.5194833657e-01	 1.2307258394e+00	-2.3350669996e+00
 2.7534804548e-01	 1.2257028567e+00	-2.3696824810e+00
 2.9877697002e-01	 1.2202034002e+00	-2.3946539084e+00
 3.2222153725e-01	 1.2142229085e+00	-2.4089815704e+00
 3.4566786076e-01	 1.2077573009e+00	-2.4115677912e+00
 3.6910176028e-01	 1.2008029992e+00	-2.4012231566e+00
 3.9250878288e-01	 1.1933569476e+00	-2.3766741164e+00
 4.1587422562e-01	 1.1854166319e+00	-2.3365719649e+00
 4.3918315963e-01	 1.1769800980e+00	-2.2795031837e+00
 4.6242045562e-01	 1.1680459686e+00	-2.2040011130e+00
 2.2745381552e-01	 1.2291317105e+00	-2.6001310164e+00
 2.5069486226e-01	 1.2246028252e+00	-2.5963295046e+00
 2.7397815471e-01	 1.2196048325e+00	-2.5878411750e+00
 2.9729051744e-01	 1.2141327365e+00	-2.5738118457e+00
 3.2061844503e-01	 1.2081819985e+00	-2.5532712423e+00
 3.4394812017e-01	 1.2017485581e+00	-2.5251372043e+00
 3.6726543312e-01	 1.1948288549e+00	-2.4882212886e+00
 3.9055600287e-01	 1.1874198483e+00	-2.4412357904e+00
 4.1380519962e-01	 1.1795190367e+00	-2.3828021893e+00
 4.3699816879e-01	 1.1711244756e+00	-2.3114610108e+00
 4.6011985634e-01	 1.1622347946e+00	-2.2256830737e+00
 4.8312584913e-01	 1.2203465344e+00	-2.2239778029e+00
 5.0731215137e-01	 1.2104919287e+00	-2.1391036607e+00
 5.3139144190e-01	 1.2001164635e+00	-2.0506711079e+00
 5.5534745859e-01	 1.1892206003e+00	-1.9535829144e+00
 5.7916384928e-01	 1.1778054591e+00	-1.8425946653e+00
 6.0282420441e-01	 1.1658728288e+00	-1.7123449907e+00
 6.2631209045e-01	 1.1534251740e+00	-1.5759265044e+00
 6.4961108418e-01	 1.1404656417e+00	-1.7202286394e+00
 6.7270480748e-01	 1.1269980648e+00	-1.8288493721e+00
 6.9557696269e-01	 1.1130269635e+00	-1.8997349536e+00
 7.1821136823e-01	 1.0985575454e+00	-1.9310336233e+00
 4.8082524985e-01	 1.2145353604e+00	-2.2032443511e+00
 5.0489637922e-01	 1.2047276815e+00	-2.1205920511e+00
 5.2886100647e-01	 1.1944016232e+00	-2.0340099644e+00
 5.5270294688e-01	 1.1835576450e+00	-1.9385884076e+00
 5.7640592619e-01	 1.1721968617e+00	-1.8292752995e+00
 5.9995361296e-01	 1.1603210534e+00	-1.7009055209e+00
 6.2332965193e-01	 1.1479326731e+00	-1.5482321162e+00
 6.4651769807e-01	 1.1350348529e+00	-1.6730949011e+00
 6.6950145126e-01	 1.1216314073e+00	-1.7870713184e+00
 6.9226469144e-01	 1.1077268351e+00	-1.8644390461e+00
 7.1479131409e-01	 1.0933263190e+00	-1.9034840619e+00
 4.7852465057e-01	 1.2087241864e+00	-2.1870270663e+00
 5.0248060708e-01	 1.1989634342e+00	-2.1062404429e+00
 5.2633057103e-01	 1.1886867829e+00	-2.0211552252e+00
 5.5005843518e-01	 1.1778946898e+00	-1.9270494171e+00
 5.7364800310e-01	 1.1665882643e+00	-1.8190633983e+00
 5.9708302151e-01	 1.1547692780e+00	-1.6922284135e+00
 6.2034721341e-01	 1.1424401723e+00	-1.5414968542e+00
 6.4342431196e-01	 1.1296040642e+00	-1.6272170213e+00
 6.6629809504e-01	 1.1162647499e+00	-1.7461323039e+00
 6.8895242019e-01	 1.1024267067e+00	-1.8295650807e+00
 7.1137125996e-01	 1.0880950926e+00	-1.8759398609e+00
 4.7622405130e-01	 1.2029130124e+00	-2.1753722619e+00
 5.0006483493e-01	 1.1931991869e+00	-2.0960869001e+00
 5.2380013560e-01	 1.1829719426e+00	-2.0121366867e+00
 5.4741392348e-01	 1.1722317346e+00	-1.9189874712e+00
 5.7089008001e-01	 1.1609796669e+00	-1.8119722382e+00
 5.9421243007e-01	 1.1492175026e+00	-1.6863187279e+00
 6.1736477488e-01	 1.1369476715e+00	-1.5371787994e+00
 6.4033092585e-01	 1.1241732754e+00	-1.5825834875e+00
 6.6309473881e-01	 1.1108980924e+00	-1.7060135394e+00
 6.8564014894e-01	 1.0971265783e+00	-1.7950871336e+00
 7.0795120583e-01	 1.0828638662e+00	-1.8483681186e+00
 4.7392345202e-01	 1.1971018385e+00	-2.1683274286e+00
 4.9764906278e-01	 1.1874349396e+00	-2.0901705255e+00
 5.2126970016e-01	 1.1772571023e+00	-2.0069850453e+00
 5.4476941177e-01	 1.1665687793e+00	-1.9144248588e+00
 5.6813215693e-01	 1.1553710694e+00	-1.8080157180e+00
 5.9134183862e-01	 1.1436657273e+00	-1.6831820084e+00
 6.1438233636e-01	 1.1314551707e+00	-1.5352751955e+00
 6.3723753973e-01	 1.1187424866e+00	-1.5391829998e+00
 6.5989138259e-01	 1.1055314350e+00	-1.6666963139e+00
 6.8232787770e-01	 1.0918264499e+00	-1.7609792266e+00
 7.0453115170e-01	 1.0776326398e+00	-1.8207357481e+00
 4.7162285274e-01	 1.1912906645e+00	-2.1659412632e+00
 4.9523329064e-01	 1.1816706923e+00	-2.0885314860e+00
 5.1873926473e-01	 1.1715422620e+00	-2.0057319189e+00
 5.4212490007e-01	 1.1609058241e+00	-1.9133846482e+00
 5.6537423384e-01	 1.1497624720e+00	-1.8072083740e+00
 5.8847124717e-01	 1.1381139519e+00	-1.6828242957e+00
 6.1139989784e-01	 1.1259626698e+00	-1.5357836426e+00
 6.3414415362e-01	 1.1133116979e+00	-1.4970044753e+00
 6.5668802637e-01	 1.1001647775e+00	-1.6281619962e+00
 6.7901560645e-01	 1.0865263215e+00	-1.7272153258e+00
 7.0111109757e-01	 1.0724014133e+00	-1.7930094734e+00
 4.6932225346e-01	 1.1854794905e+00	-2.1682636984e+00
 4.9281751849e-01	 1.1759064451e+00	-2.0912110380e+00
 5.1620882929e-01	 1.1658274217e+00	-2.0084098694e+00
 5.3948038836e-01	 1.1552428688e+00	-1.9158907062e+00
 5.6261631075e-01	 1.1441538746e+00	-1.8095653958e+00
 5.8560065573e-01	 1.1325621765e+00	-1.6852521392e+00
 6.0841745931e-01	 1.1204701690e+00	-1.5387021061e+00
 6.3105076751e-01	 1.1078809091e+00	-1.4560370540e+00
 6.5348467014e-01	 1.0947981200e+00	-1.5903920370e+00
 6.7570333520e-01	 1.0812261931e+00	-1.6937693399e+00
 6.9769104343e-01	 1.0671701869e+00	-1.7651558242e+00
 4.6702165418e-01	 1.1796683165e+00	-2.1753459326e+00
 4.9040174634e-01	 1.1701421978e+00	-2.0982515552e+00
 5.1367839386e-01	 1.1601125814e+00	-2.0150524263e+00
 5.3683587665e-01	 1.1495799136e+00	-1.9219677176e+00
 5.5985838766e-01	 1.1385452772e+00	-1.8151026423e+00
 5.8273006428e-01	 1.1270104011e+00	-1.6904726093e+00
 6.0543502079e-01	 1.1149776682e+00	-1.5440289252e+00
 6.2795738139e-01	 1.1024501203e+00	-1.4162701041e+00
 6.5028131392e-01	 1.0894314626e+00	-1.5533679710e+00
 6.7239106395e-01	 1.0759260647e+00	-1.6606151195e+00
 6.9427098930e-01	 1.0619389605e+00	-1.7371411316e+00
 4.6472105490e-01	 1.1738571426e+00	-2.1872404622e+00
 4.8798597419e-01	 1.1643779505e+00	-2.1096965554e+00
 5.1114795842e-01	 1.1543977411e+00	-2.0256941101e+00
 5.3419136495e-01	 1.1439169584e+00	-1.9316412057e+00
 5.5710046456e-01	 1.1329366797e+00	-1.8238366581e+00
 5.7985947283e-01	 1.1214586258e+00	-1.6984933107e+00
 6.0245258226e-01	 1.1094851673e+00	-1.5517628223e+00
 6.2486399528e-01	 1.0970193315e+00	-1.3797617725e+00
 6.4707795769e-01	 1.0840648051e+00	-1.5170714187e+00
 6.6907879270e-01	 1.0706259363e+00	-1.6277264547e+00
 6.9085093517e-01	 1.0567077341e+00	-1.7089315227e+00
 4.6242045562e-01	 1.1680459686e+00	-2.2040011130e+00
 4.8557020205e-01	 1.1586137032e+00	-2.1255907295e+00
 5.0861752298e-01	 1.1486829008e+00	-2.0403704578e+00
 5.3154685324e-01	 1.1382540031e+00	-1.9449375530e+00
 5.5434254147e-01	 1.1273280823e+00	-1.8357846910e+00
 5.7698888138e-01	 1.1159068504e+00	-1.7093223953e+00
 5.9947014374e-01	 1.1039926665e+00	-1.5619029130e+00
 6.2177060916e-01	 1.0915885428e+00	-1.3898453651e+00
 6.4387460147e-01	 1.0786981477e+00	-1.4814840889e+00
 6.6576652145e-01	 1.0653258079e+00	-1.5950770746e+00
 6.8743088104e-01	 1.0514765077e+00	-1.6804929159e+00
 4.6011985634e-01	 1.1622347946e+00	-2.2256830737e+00
 4.8315442990e-01	 1.1528494559e+00	-2.1459799706e+00
 5.0608708755e-01	 1.1429680605e+00	-2.0591180473e+00
 5.2890234153e-01	 1.1325910479e+00	-1.9618840226e+00
 5.5158461838e-01	 1.1217194849e+00	-1.8509647091e+00
 5.7411828993e-01	 1.1103550750e+00	-1.7229685760e+00
 5.9648770521e-01	 1.0985001657e+00	-1.5744487151e+00
 6.1867722305e-01	 1.0861577540e+00	-1.4019270362e+00
 6.4067124524e-01	 1.0733314902e+00	-1.4465877805e+00
 6.6245425020e-01	 1.0600256795e+00	-1.5626406450e+00
 6.8401082690e-01	 1.0462452813e+00	-1.6517910154e+00
 7.1821136823e-01	 1.0985575454e+00	-1.9310336233e+00
 7.4059255339e-01	 1.0835953326e+00	-1.8073619974e+00
 7.6270408814e-01	 1.0681472769e+00	-1.6839842319e+00
 7.8453035316e-01	 1.0522206223e+00	-1.5620842688e+00
 8.0605598799e-01	 1.0358232763e+00	-1.4429464536e+00
 8.2726592601e-01	 1.0189637975e+00	-1.3279506812e+00
 8.4814542874e-01	 1.0016513823e+00	-1.2185662847e+00
 8.6868011932e-01	 9.8389584867e-01	-1.1163446944e+00
 8.8885601510e-01	 9.6570761839e-01	-1.0229109068e+00
 9.0865955912e-01	 9.4709769667e-01	-9.3995382444e-01
 9.2807765027e-01	 9.2807765027e-01	-8.6921553924e-01
 7.1479131409e-01	 1.0933263190e+00	-1.9034840619e+00
 7.3706592218e-01	 1.0784353549e+00	-1.7799203108e+00
 7.5907216392e-01	 1.0630608613e+00	-1.6561341203e+00
 7.8079449434e-01	 1.0472100479e+00	-1.5332720605e+00
 8.0221762614e-01	 1.0308907845e+00	-1.4125815723e+00
 8.2332656446e-01	 1.0141115889e+00	-1.2954062855e+00
 8.4410664098e-01	 9.9688161377e-01	-1.1831800901e+00
 8.6454354732e-01	 9.7921063034e-01	-1.0774199831e+00
 8.8462336741e-01	 9.6110901068e-01	-9.7971773233e-01
 9.0433260883e-01	 9.4258770764e-01	-8.9173041529e-01
 9.2365823289e-01	 9.2365823289e-01	-8.1516990445e-01
 7.1137125996e-01	 1.0880950926e+00	-1.8759398609e+00
 7.3353929098e-01	 1.0732753771e+00	-1.7526383847e+00
 7.5544023969e-01	 1.0579744457e+00	-1.6285825208e+00
 7.7705863551e-01	 1.0421994735e+00	-1.5048811896e+00
 7.9837926430e-01	 1.0259582927e+00	-1.3827447092e+00
 8.1938720291e-01	 1.0092593804e+00	-1.2634802894e+00
 8.4006785323e-01	 9.9211184529e-01	-1.1484862841e+00
 8.6040697532e-01	 9.7452541201e-01	-1.0392452276e+00
 8.8039071972e-01	 9.5651040297e-01	-9.3731569319e-01
 9.0000565855e-01	 9.3807771860e-01	-8.4432303033e-01
 9.1923881551e-01	 9.1923881551e-01	-7.6194905112e-01
 7.0795120583e-01	 1.0828638662e+00	-1.8483681186e+00
 7.3001265977e-01	 1.0681153993e+00	-1.7254847657e+00
 7.5180831546e-01	 1.0528880300e+00	-1.6012993548e+00
 7.7332277669e-01	 1.0371888991e+00	-1.4768828745e+00
 7.9454090245e-01	 1.0210258009e+00	-1.3534082998e+00
 8.1544784136e-01	 1.0044071718e+00	-1.2321462613e+00
 8.3602906547e-01	 9.8734207680e-01	-1.1144594810e+00
 8.5627040333e-01	 9.6984019369e-01	-1.0017959984e+00
 8.7615807203e-01	 9.5191179527e-01	-8.9568122316e-01
 8.9567870827e-01	 9.3356772957e-01	-7.9770887082e-01
 9.1481939812e-01	 9.1481939812e-01	-7.0953084974e-01
 7.0453115170e-01	 1.0776326398e+00	-1.8207357481e+00
 7.2648602857e-01	 1.0629554215e+00	-1.6984278478e+00
 7.4817639123e-01	 1.0478016144e+00	-1.5742544203e+00
 7.6958691787e-01	 1.0321783247e+00	-1.4492482376e+00
 7.9070254060e-01	 1.0160933091e+00	-1.3245447074e+00
 8.1150847981e-01	 9.9955496324e-01	-1.2013777191e+00
 8.3199027772e-01	 9.8257230831e-01	-1.0810742638e+00
 8.5213383133e-01	 9.6515497536e-01	-9.6504785055e-01
 8.7192542434e-01	 9.4731318756e-01	-8.5479075359e-01
 8.9135175799e-01	 9.2905774054e-01	-7.5186514597e-01
 9.1039998074e-01	 9.1039998074e-01	-6.5789318615e-01
 7.0111109757e-01	 1.0724014133e+00	-1.7930094734e+00
 7.2295939736e-01	 1.0577954438e+00	-1.6714358681e+00
 7.4454446701e-01	 1.0427151988e+00	-1.5474173890e+00
 7.6585105904e-01	 1.0271677504e+00	-1.4219483026e+00
 7.8686417876e-01	 1.0111608173e+00	-1.2961262218e+00
 8.0756911826e-01	 9.9470275468e-01	-1.1711481292e+00
 8.2795148996e-01	 9.7780253983e-01	-1.0483051830e+00
 8.4799725934e-01	 9.6046975703e-01	-9.2897632309e-01
 8.6769277665e-01	 9.4271457986e-01	-8.1462071342e-01
 8.8702480771e-01	 9.2454775151e-01	-7.0676907313e-01
 9.0598056336e-01	 9.0598056336e-01	-6.0701396194e-01
 6.9769104343e-01	 1.0671701869e+00	-1.7651558242e+00
 7.1943276616e-01	 1.0526354660e+00	-1.6444769037e+00
 7.4091254278e-01	 1.0376287832e+00	-1.5207578032e+00
 7.6211520022e-01	 1.0221571760e+00	-1.3949539920e+00
 7.8302581691e-01	 1.0062283255e+00	-1.2681250569e+00
 8.0362975671e-01	 9.8985054613e-01	-1.1414309050e+00
 8.2391270221e-01	 9.7303277134e-01	-1.0161267560e+00
 8.4386068734e-01	 9.5578453871e-01	-8.9355693872e-01
 8.6346012896e-01	 9.3811597215e-01	-7.7514752910e-01
 8.8269785743e-01	 9.2003776248e-01	-6.6239787795e-01
 9.0156114598e-01	 9.0156114598e-01	-5.5687109478e-01
 6.9427098930e-01	 1.0619389605e+00	-1.7371411316e+00
 7.1590613495e-01	 1.0474754882e+00	-1.6175188670e+00
 7.3728061855e-01	 1.0325423676e+00	-1.4942450726e+00
 7.5837934140e-01	 1.0171466016e+00	-1.3682361248e+00
 7.7918745507e-01	 1.0012958337e+00	-1.2405133493e+00
 7.9969039516e-01	 9.8499833757e-01	-1.1121994057e+00
 8.1987391446e-01	 9.6826300286e-01	-9.8451346602e-01
 8.3972411535e-01	 9.5109932038e-01	-8.5876520340e-01
 8.5922748127e-01	 9.3351736445e-01	-7.3634762450e-01
 8.7837090715e-01	 9.1552777345e-01	-6.1872879466e-01
 8.9714172860e-01	 8.9714172860e-01	-5.0744251889e-01
 6.9085093517e-01	 1.0567077341e+00	-1.7089315227e+00
 7.1237950375e-01	 1.0423155104e+00	-1.5905295020e+00
 7.3364869433e-01	 1.0274559520e+00	-1.4678484712e+00
 7.5464348258e-01	 1.0121360272e+00	-1.3417654138e+00
 7.7534909322e-01	 9.9636334196e-01	-1.2132631562e+00
 7.9575103361e-01	 9.8014612901e-01	-1.0834269348e+00
 8.1583512671e-01	 9.6349323437e-01	-9.5343976178e-01
 8.3558754336e-01	 9.4641410206e-01	-8.2457660598e-01
 8.5499483359e-01	 9.2891875675e-01	-6.9819742091e-01
 8.7404395688e-01	 9.1101778443e-01	-5.7573906620e-01
 8.9272231123e-01	 8.9272231123e-01	-4.5870618538e-01
 6.8743088104e-01	 1.0514765077e+00	-1.6804929159e+00
 7.0885287255e-01	 1.0371555327e+00	-1.5634763803e+00
 7.3001677010e-01	 1.0223695364e+00	-1.4415371335e+00
 7.5090762376e-01	 1.0071254528e+00	-1.3155124629e+00
 7.7151073138e-01	 9.9143085017e-01	-1.1863464536e+00
 7.9181167206e-01	 9.7529392046e-01	-1.0550867392e+00
 8.1179633896e-01	 9.5872346589e-01	-9.2288005613e-01
 8.3145097137e-01	 9.4172888374e-01	-7.9096661771e-01
 8.5076218590e-01	 9.2432014904e-01	-6.6067333691e-01
 8.6971700660e-01	 9.0650779540e-01	-5.3340594450e-01
 8.8830289385e-01	 8.8830289385e-01	-4.1064006272e-01
 6.8401082690e-01	 1.0462452813e+00	-1.6517910154e+00
 7.0532624134e-01	 1.0319955549e+00	-1.5363268964e+00
 7.2638484588e-01	 1.0172831208e+00	-1.4152800514e+00
 7.4717176494e-01	 1.0021148784e+00	-1.2894477646e+00
 7.6767236954e-01	 9.8649835838e-01	-1.1597351339e+00
 7.8787231052e-01	 9.7044171190e-01	-1.0271520070e+00
 8.0775755121e-01	 9.5395369741e-01	-8.9280872539e-01
 8.2731439938e-01	 9.3704366542e-01	-7.5791069183e-01
 8.4652953822e-01	 9.1972154134e-01	-6.2375178835e-01
 8.6539005633e-01	 9.0199780637e-01	-4.9170669067e-01
 8.8388347647e-01	 8.8388347647e-01	-3.6322213716e-01
 9.2807765027e-01	 9.2807765027e-01	-8.6921553924e-01
 9.4709768700e-01	 9.0865957386e-01	-7.8632264846e-01
 9.6570757980e-01	 8.8885607395e-01	-6.8299481867e-01
 9.8389576212e-01	 8.6868025140e-01	-5.6046894409e-01
 1.0016512289e+00	 8.4814566293e-01	-4.2013611921e-01
 1.0189635587e+00	 8.2726629087e-01	-2.6352871004e-01
 1.0358229336e+00	 8.0605651173e-01	-9.2306254413e-02
 1.0522201576e+00	 7.8453106360e-01	 9.1759656770e-02
 1.0681466723e+00	 7.6270501269e-01	 2.8680135441e-01
 1.0835945706e+00	 7.4059371898e-01	 4.9087175134e-01
 1.0985566085e+00	 7.1821280130e-01	 7.0196151091e-01
 9.2365823289e-01	 9.2365823289e-01	-8.1516990445e-01
 9.4258769801e-01	 9.0433262351e-01	-7.2950682975e-01
 9.6110897228e-01	 8.8462342597e-01	-6.2460176196e-01
 9.7921054420e-01	 8.6454367877e-01	-5.0174281600e-01
 9.9688146114e-01	 8.4410687406e-01	-3.6236602588e-01
 1.0141113512e+00	 8.2332692758e-01	-2.0804234083e-01
 1.0308904435e+00	 8.0221814738e-01	-4.0463491545e-02
 1.0472095855e+00	 7.8079520139e-01	 1.3857312198e-01
 1.0630602596e+00	 7.5907308406e-01	 3.2718035955e-01
 1.0784345964e+00	 7.3706708222e-01	 5.2339791716e-01
 1.0933253865e+00	 7.1479274035e-01	 7.2520937585e-01
 9.1923881551e-01	 9.1923881551e-01	-7.6194905112e-01
 9.3807770902e-01	 9.0000567315e-01	-6.7319670304e-01
 9.5651036475e-01	 8.8039077800e-01	-5.6639908140e-01
 9.7452532628e-01	 8.6040710615e-01	-4.4289640406e-01
 9.9211169338e-01	 8.4006808518e-01	-3.0417052960e-01
 1.0092591438e+00	 8.1938756429e-01	-1.5183187389e-01
 1.0259579533e+00	 7.9837978304e-01	 1.2394761853e-02
 1.0421990133e+00	 7.7705933919e-01	 1.8668530117e-01
 1.0579738468e+00	 7.5544115543e-01	 3.6913227987e-01
 1.0732746223e+00	 7.3354044547e-01	 5.5776134308e-01
 1.0880941646e+00	 7.1137267939e-01	 7.5054817843e-01
 9.1481939812e-01	 9.1481939812e-01	-7.0953084974e-01
 9.3356772003e-01	 8.9567872280e-01	-6.1736618645e-01
 9.5191175723e-01	 8.7615813003e-01	-5.0835692086e-01
 9.6984010837e-01	 8.5627053352e-01	-3.8389626183e-01
 9.8734192562e-01	 8.3602929631e-01	-2.4551278268e-01
 1.0044069364e+00	 8.1544820100e-01	-9.4857254093e-02
 1.0210254631e+00	 7.9454141870e-01	 6.6311570562e-02
 1.0371884411e+00	 7.7332347698e-01	 2.3614206747e-01
 1.0528874341e+00	 7.5180922680e-01	 4.1270559273e-01
 1.0681146481e+00	 7.3001380871e-01	 5.9401290421e-01
 1.0828629426e+00	 7.0795261843e-01	 7.7803098340e-01
 9.1039998074e-01	 9.1039998074e-01	-6.5789318615e-01
 9.2905773105e-01	 8.9135177245e-01	-5.6198913016e-01
 9.4731314971e-01	 8.7192548206e-01	-4.5044527556e-01
 9.6515489046e-01	 8.5213396090e-01	-3.2470871614e-01
 9.8257215787e-01	 8.3199050744e-01	-1.8635563557e-01
 9.9955472897e-01	 8.1150883771e-01	-3.7078052190e-02
 1.0160929730e+00	 7.9070305436e-01	 1.2133044259e-01
 1.0321778689e+00	 7.6958761477e-01	 2.8698980314e-01
 1.0478010214e+00	 7.4817729817e-01	 4.5794934713e-01
 1.0629546740e+00	 7.2648717196e-01	 6.3220410643e-01
 1.0776317207e+00	 7.0453255748e-01	 8.0771154180e-01
 9.0598056336e-01	 9.0598056336e-01	-6.0701396194e-01
 9.2454774206e-01	 8.8702482210e-01	-5.0703931480e-01
 9.4271454219e-01	 8.6769283409e-01	-3.9263398843e-01
 9.6046967254e-01	 8.4799738827e-01	-2.6529986161e-01
 9.7780239011e-01	 8.2795171858e-01	-1.2666162942e-01
 9.9470252155e-01	 8.0756947442e-01	 2.1546544308e-02
 1.0111604828e+00	 7.8686469002e-01	 1.7749533998e-01
 1.0271672968e+00	 7.6585175257e-01	 3.3927541197e-01
 1.0427146087e+00	 7.4454536954e-01	 5.0491317766e-01
 1.0577946998e+00	 7.2296053520e-01	 6.7238710171e-01
 1.0724004987e+00	 7.0111249652e-01	 8.3964430766e-01
 9.0156114598e-01	 9.0156114598e-01	-5.5687109478e-01
 9.2003775308e-01	 8.8269787175e-01	-4.5249044969e-01
 9.3811593467e-01	 8.6346018612e-01	-3.3489274640e-01
 9.5578445463e-01	 8.4386081565e-01	-2.0563555495e-01
 9.7303262236e-01	 8.2391292971e-01	-6.6392988577e-02
 9.8985031413e-01	 8.0363011114e-01	 8.1057740519e-02
 1.0062279927e+00	 7.8302632568e-01	 2.3485068992e-01
 1.0221567246e+00	 7.6211589036e-01	 3.9304633203e-01
 1.0376281959e+00	 7.4091344091e-01	 5.5364731885e-01
 1.0526347257e+00	 7.1943389845e-01	 7.1461470397e-01
 1.0671692768e+00	 6.9769243556e-01	 8.7388445528e-01
 8.9714172860e-01	 8.9714172860e-01	-5.0744251889e-01
 9.1552776410e-01	 8.7837092141e-01	-3.9831617112e-01
 9.3351732715e-01	 8.5922753816e-01	-2.7719107652e-01
 9.5109923672e-01	 8.3972424303e-01	-1.4568140907e-01
 9.6826285460e-01	 8.1987414084e-01	-5.5116127288e-03
 9.8499810671e-01	 7.9969074785e-01	 1.4149714387e-01
 1.0012955025e+00	 7.7918796135e-01	 2.9344139626e-01
 1.0171461524e+00	 7.5838002816e-01	 4.4835054886e-01
 1.0325417832e+00	 7.3728151228e-01	 6.0420261991e-01
 1.0474747515e+00	 7.1590726169e-01	 7.5894040539e-01
 1.0619380549e+00	 6.9427237461e-01	 9.1048789695e-01
 8.9272231123e-01	 8.9272231123e-01	-4.5870618538e-01
 9.1101777512e-01	 8.7404397106e-01	-3.4449004055e-01
 9.2891871963e-01	 8.5499489019e-01	-2.1949834204e-01
 9.4641401881e-01	 8.3558767041e-01	-8.5402787080e-02
 9.6349308685e-01	 8.1583535197e-01	 5.6020931110e-02
 9.8014589929e-01	 7.9575138456e-01	 2.0290677403e-01
 9.9636301234e-01	 7.7534959701e-01	 3.5331285122e-01
 1.0121355802e+00	 7.5464416596e-01	 5.0523660902e-01
 1.0274553705e+00	 7.3364958365e-01	 6.5663056002e-01
 1.0423147774e+00	 7.1238062494e-01	 8.0541839319e-01
 1.0567068329e+00	 6.9085231365e-01	 9.4951130121e-01
 8.8830289385e-01	 8.8830289385e-01	-4.1064006272e-01
 9.0650778614e-01	 8.6971702071e-01	-2.9098554270e-01
 9.2432011211e-01	 8.5076224222e-01	-1.6178373833e-01
 9.4172880090e-01	 8.3145109779e-01	-2.4764796081e-02
 9.5872331910e-01	 8.1179656311e-01	 1.1824341688e-01
 9.7529369188e-01	 7.9181202128e-01	 2.6532907321e-01
 9.9143052219e-01	 7.7151123267e-01	 4.1451094762e-01
 1.0071250080e+00	 7.5090830375e-01	 5.6375363403e-01
 1.0223689578e+00	 7.3001765502e-01	 7.1098326393e-01
 1.0371548033e+00	 7.0885398818e-01	 8.5410356691e-01
 1.0514756110e+00	 6.8743225269e-01	 9.9101211165e-01
 8.8388347647e-01	 8.8388347647e-01	-3.6322213716e-01
 9.0199779716e-01	 8.6539007037e-01	-2.3777608369e-01
 9.1972150459e-01	 8.4652959426e-01	-1.0401628865e-01
 9.3704358299e-01	 8.2731452517e-01	 3.6267719272e-02
 9.5395355135e-01	 8.0775777424e-01	 1.8119496799e-01
 9.7044148446e-01	 7.8787265800e-01	 3.2880691669e-01
 9.8649803203e-01	 7.6767286834e-01	 4.7708209134e-01
 1.0021144359e+00	 7.4717244155e-01	 6.2395133476e-01
 1.0172825451e+00	 7.2638572640e-01	 7.6731351812e-01
 1.0319948291e+00	 7.0532735143e-01	 9.0505155625e-01
 1.0462443890e+00	 6.8401219174e-01	 1.0350485663e+00
 1.0985566085e+00	 7.1821280130e-01	 7.0196151091e-01
 1.1130262144e+00	 6.9557810197e-01	 8.6344480027e-01
 1.1269974965e+00	 6.7270565105e-01	 9.9346359064e-01
 1.1404652469e+00	 6.4961163052e-01	 1.0894984257e+00
 1.1534249454e+00	 6.2631233846e-01	 1.1491519431e+00
 1.1658727590e+00	 6.0282415338e-01	 1.3686742156e+00
 1.1778055406e+00	 5.7916349892e-01	 1.5835779742e+00
 1.1892208255e+00	 5.5534680899e-01	 1.7871275402e+00
 1.2001168249e+00	 5.3139049356e-01	 1.9836138657e+00
 1.2104924186e+00	 5.0731090515e-01	 2.1771129615e+00
 1.2203471452e+00	 4.8312430629e-01	 2.3714631700e+00
 1.0933253865e+00	 7.1479274035e-01	 7.2520937585e-01
 1.1077260896e+00	 6.9226582530e-01	 8.7940607576e-01
 1.1216308417e+00	 6.6950229081e-01	 1.0013980116e+00
 1.1350344601e+00	 6.4651824181e-01	 1.0887112799e+00
 1.1479324457e+00	 6.2332989876e-01	 1.1538943975e+00
 1.1603209839e+00	 5.9995356218e-01	 1.3832822327e+00
 1.1721969428e+00	 5.7640557750e-01	 1.5958383300e+00
 1.1835578692e+00	 5.5270230038e-01	 1.7959759619e+00
 1.1944019829e+00	 5.2886006264e-01	 1.9879254192e+00
 1.2047281690e+00	 5.0489513894e-01	 2.1757088364e+00
 1.2145359683e+00	 4.8082371435e-01	 2.3631176941e+00
 1.0880941646e+00	 7.1137267939e-01	 7.5054817843e-01
 1.1024259648e+00	 6.8895354863e-01	 8.9754158257e-01
 1.1162641870e+00	 6.6629893057e-01	 1.0115845994e+00
 1.1296036732e+00	 6.4342485310e-01	 1.0902483956e+00
 1.1424399459e+00	 6.2034745906e-01	 1.1744617639e+00
 1.1547692089e+00	 5.9708297098e-01	 1.4023391955e+00
 1.1665883450e+00	 5.7364765608e-01	 1.6123857677e+00
 1.1778949129e+00	 5.5005779177e-01	 1.8089485923e+00
 1.1886871408e+00	 5.2632963172e-01	 1.9961982634e+00
 1.1989639194e+00	 5.0247937272e-01	 2.1781039635e+00
 1.2087247914e+00	 4.7852312242e-01	 2.3584111898e+00
 1.0828629426e+00	 7.0795261843e-01	 7.7803098340e-01
 1.0971258399e+00	 6.8564127195e-01	 9.1790406242e-01
 1.1108975322e+00	 6.6309557033e-01	 1.0240756620e+00
 1.1241728863e+00	 6.4033146438e-01	 1.0941615401e+00
 1.1369474462e+00	 6.1736501935e-01	 1.1996652680e+00
 1.1492174338e+00	 5.9421237977e-01	 1.4258735294e+00
 1.1609797472e+00	 5.7088973466e-01	 1.6332496743e+00
 1.1722319565e+00	 5.4741328316e-01	 1.8260756512e+00
 1.1829722988e+00	 5.2379920080e-01	 2.0084633196e+00
 1.1931996698e+00	 5.0006360651e-01	 2.1843298308e+00
 1.2029136145e+00	 4.7622253049e-01	 2.3573755755e+00
 1.0776317207e+00	 7.0453255748e-01	 8.0771154180e-01
 1.0918257151e+00	 6.8232899528e-01	 9.4054695051e-01
 1.1055308775e+00	 6.5989221009e-01	 1.0389242065e+00
 1.1187420994e+00	 6.3723807567e-01	 1.1005031831e+00
 1.1314549465e+00	 6.1438257965e-01	 1.2295329538e+00
 1.1436656588e+00	 5.9134178857e-01	 1.4539143644e+00
 1.1553711494e+00	 5.6813181324e-01	 1.6584601395e+00
 1.1665690002e+00	 5.4476877455e-01	 1.8473880583e+00
 1.1772574568e+00	 5.2126876988e-01	 2.0247522039e+00
 1.1874354202e+00	 4.9764784030e-01	 2.1944186149e+00
 1.1971024376e+00	 4.7392193856e-01	 2.3600434493e+00
 1.0724004987e+00	 7.0111249652e-01	 8.3964430766e-01
 1.0865255903e+00	 6.7901671860e-01	 9.6552439243e-01
 1.1001642227e+00	 6.5668884985e-01	 1.0561839558e+00
 1.1133113125e+00	 6.3414468695e-01	 1.1093265141e+00
 1.1259624467e+00	 6.1140013994e-01	 1.2640935868e+00
 1.1381138838e+00	 5.8847119736e-01	 1.4864915523e+00
 1.1497625516e+00	 5.6537389182e-01	 1.6880479733e+00
 1.1609060439e+00	 5.4212426594e-01	 1.8729174500e+00
 1.1715426148e+00	 5.1873833896e-01	 2.0450972442e+00
 1.1816711706e+00	 4.9523207409e-01	 2.2084031969e+00
 1.1912912607e+00	 4.7162134663e-01	 2.3664481058e+00
 1.0671692768e+00	 6.9769243556e-01	 8.7388445528e-01
 1.0812254655e+00	 6.7570444193e-01	 9.9289126159e-01
 1.0947975680e+00	 6.5348548961e-01	 1.0759093663e+00
 1.1078805256e+00	 6.3105129824e-01	 1.1206854599e+00
 1.1204699470e+00	 6.0841770024e-01	 1.3033766719e+00
 1.1325621087e+00	 5.8560060616e-01	 1.5236356843e+00
 1.1441539537e+00	 5.6261597040e-01	 1.7220447236e+00
 1.1552430876e+00	 5.3947975732e-01	 1.9026961972e+00
 1.1658277727e+00	 5.1620790804e-01	 2.0695314972e+00
 1.1759069209e+00	 4.9281630788e-01	 2.2263171803e+00
 1.1854800839e+00	 4.6932075469e-01	 2.3766235531e+00
 1.0619380549e+00	 6.9427237461e-01	 9.1048789695e-01
 1.0759253406e+00	 6.7239216526e-01	 1.0227031771e+00
 1.0894309132e+00	 6.5028212937e-01	 1.0981556460e+00
 1.1024497387e+00	 6.2795790952e-01	 1.1346347030e+00
 1.1149774472e+00	 6.0543526053e-01	 1.3474124718e+00
 1.1270103337e+00	 5.8273001495e-01	 1.5653781094e+00
 1.1385453559e+00	 5.5985804898e-01	 1.7604826941e+00
 1.1495801313e+00	 5.3683524871e-01	 1.9367574230e+00
 1.1601129307e+00	 5.1367747712e-01	 2.0980887671e+00
 1.1701426713e+00	 4.9040054166e-01	 2.2481949083e+00
 1.1796689070e+00	 4.6702016276e-01	 2.3906045301e+00
 1.0567068329e+00	 6.9085231365e-01	 9.4951130121e-01
 1.0706252158e+00	 6.6907988858e-01	 1.0550165223e+00
 1.0840642585e+00	 6.4707876913e-01	 1.1229787732e+00
 1.0970189518e+00	 6.2486452081e-01	 1.1527542195e+00
 1.1094849475e+00	 6.0245282082e-01	 1.3962320251e+00
 1.1214585586e+00	 5.7985942375e-01	 1.6117509532e+00
 1.1329367581e+00	 5.5710012755e-01	 1.8033949635e+00
 1.1439171750e+00	 5.3419074010e-01	 1.9751350218e+00
 1.1543980887e+00	 5.1114704620e-01	 2.1308036233e+00
 1.1643784217e+00	 4.8798477545e-01	 2.2740714826e+00
 1.1738577301e+00	 4.6471957083e-01	 2.4084265249e+00
 1.0514756110e+00	 6.8743225269e-01	 9.9101211165e-01
 1.0653250910e+00	 6.6576761191e-01	 1.0898884637e+00
 1.0786976038e+00	 6.4387540888e-01	 1.1504355153e+00
 1.0915881649e+00	 6.2177113209e-01	 1.2080367128e+00
 1.1039924477e+00	 5.9947038112e-01	 1.4498671663e+00
 1.1159067836e+00	 5.7698883254e-01	 1.6627871368e+00
 1.1273281603e+00	 5.5434220613e-01	 1.8508154043e+00
 1.1382542187e+00	 5.3154623148e-01	 2.0178636782e+00
 1.1486832467e+00	 5.0861661528e-01	 2.1677114201e+00
 1.1586141721e+00	 4.8556900924e-01	 2.3039827818e+00
 1.1680465532e+00	 4.6241897890e-01	 2.4301257936e+00
 1.0462443890e+00	 6.8401219174e-01	 1.0350485663e+00
 1.0600249661e+00	 6.6245533523e-01	 1.1273769705e+00
 1.0733309490e+00	 6.4067204864e-01	 1.1805834489e+00
 1.0861573780e+00	 6.1867774337e-01	 1.2683145478e+00
 1.0984999480e+00	 5.9648794141e-01	 1.5083505451e+00
 1.1103550085e+00	 5.7411824134e-01	 1.7185203971e+00
 1.1217195625e+00	 5.5158428471e-01	 1.9027787029e+00
 1.1325912623e+00	 5.2890172287e-01	 2.0649788868e+00
 1.1429684046e+00	 5.0608618436e-01	 2.2088483159e+00
 1.1528499225e+00	 4.8315324302e-01	 2.3379654812e+00
 1.1622353763e+00	 4.6011838697e-01	 2.4557393789e+00
 1.2203471452e+00	 4.8312430629e-01	 2.3714631700e+00
 1.2296811901e+00	 4.5884683787e-01	 2.4493964032e+00
 1.2384953731e+00	 4.3449448869e-01	 2.4756143029e+00
 1.2467911328e+00	 4.1008306613e-01	 2.4514923892e+00
 1.2545705105e+00	 3.8562816822e-01	 2.6505719105e+00
 1.2618361326e+00	 3.6114515696e-01	 2.9657657955e+00
 1.2685911915e+00	 3.3664913318e-01	 3.2046314039e+00
 1.2748394253e+00	 3.1215491286e-01	 3.3649009975e+00
 1.2805850970e+00	 2.8767700502e-01	 3.4448391204e+00
 1.2858329722e+00	 2.6322959114e-01	 3.4432384329e+00
 1.2905882961e+00	 2.3882650627e-01	 3.3594120579e+00
 1.2145359683e+00	 4.8082371435e-01	 2.3631176941e+00
 1.2238255654e+00	 4.5666185293e-01	 2.4465401796e+00
 1.2325977761e+00	 4.3242546731e-01	 2.4821544116e+00
 1.2408540322e+00	 4.0813028963e-01	 2.4713640339e+00
 1.2485963652e+00	 3.8379184361e-01	 2.4155404265e+00
 1.2558273891e+00	 3.5942541811e-01	 2.6651525281e+00
 1.2625502811e+00	 3.3504604207e-01	 2.9270977419e+00
 1.2687687614e+00	 3.1066846089e-01	 3.1154241011e+00
 1.2744870728e+00	 2.8630711452e-01	 3.2284165251e+00
 1.2797099580e+00	 2.6197611690e-01	 3.2648661274e+00
 1.2844426375e+00	 2.3768923719e-01	 3.2240632372e+00
 1.2087247914e+00	 4.7852312242e-01	 2.3584111898e+00
 1.2179699407e+00	 4.5447686799e-01	 2.4466113500e+00
 1.2267001791e+00	 4.3035644594e-01	 2.4909661949e+00
 1.2349169315e+00	 4.0617751312e-01	 2.4929084156e+00
 1.2426222199e+00	 3.8195551900e-01	 2.4538243620e+00
 1.2498186456e+00	 3.5770567927e-01	 2.3750438411e+00
 1.2565093706e+00	 3.3344295096e-01	 2.6488866765e+00
 1.2626980975e+00	 3.0918200893e-01	 2.8650097457e+00
 1.2683890485e+00	 2.8493722402e-01	 3.0108366632e+00
 1.2735869439e+00	 2.6072264265e-01	 3.0851562261e+00
 1.2782969789e+00	 2.3655196811e-01	 3.0872351606e+00
 1.2029136145e+00	 4.7622253049e-01	 2.3573755755e+00
 1.2121143160e+00	 4.5229188305e-01	 2.4496340967e+00
 1.2208025821e+00	 4.2828742457e-01	 2.5020667200e+00
 1.2289798309e+00	 4.0422473662e-01	 2.5161361094e+00
 1.2366480747e+00	 3.8011919439e-01	 2.4932443218e+00
 1.2438099022e+00	 3.5598594043e-01	 2.4347230603e+00
 1.2504684602e+00	 3.3183985985e-01	 2.3700029512e+00
 1.2566274335e+00	 3.0769555696e-01	 2.6136570322e+00
 1.2622910242e+00	 2.8356733352e-01	 2.7920937412e+00
 1.2674639297e+00	 2.5946916841e-01	 2.9040987870e+00
 1.2721513204e+00	 2.3541469903e-01	 2.9489144806e+00
 1.1971024376e+00	 4.7392193856e-01	 2.3600434493e+00
 1.2062586913e+00	 4.5010689811e-01	 2.4556331164e+00
 1.2149049851e+00	 4.2621840319e-01	 2.5154734157e+00
 1.2230427303e+00	 4.0227196012e-01	 2.5410579123e+00
 1.2306739294e+00	 3.7828286978e-01	 2.5338051085e+00
 1.2378011587e+00	 3.5426620159e-01	 2.4950491526e+00
 1.2444275497e+00	 3.3023676874e-01	 2.4260322678e+00
 1.2505567696e+00	 3.0620910500e-01	 2.3613648608e+00
 1.2561930000e+00	 2.8219744302e-01	 2.5721816921e+00
 1.2613409156e+00	 2.5821569417e-01	 2.7216835356e+00
 1.2660056618e+00	 2.3427742996e-01	 2.8090874712e+00
 1.1912912607e+00	 4.7162134663e-01	 2.3664481058e+00
 1.2004030666e+00	 4.4792191317e-01	 2.4646336320e+00
 1.2090073881e+00	 4.2414938182e-01	 2.5312040811e+00
 1.2171056296e+00	 4.0031918362e-01	 2.5676848495e+00
 1.2246997841e+00	 3.7644654518e-01	 2.5755116234e+00
 1.2317924152e+00	 3.5254646275e-01	 2.5560215460e+00
 1.2383866393e+00	 3.2863367763e-01	 2.5104461455e+00
 1.2444861057e+00	 3.0472265304e-01	 2.4399059919e+00
 1.2500949757e+00	 2.8082755252e-01	 2.3510941691e+00
 1.2552179014e+00	 2.5696221992e-01	 2.5378998570e+00
 1.2598600033e+00	 2.3314016088e-01	 2.6677400187e+00
 1.1854800839e+00	 4.6932075469e-01	 2.3766235531e+00
 1.1945474418e+00	 4.4573692823e-01	 2.4766614063e+00
 1.2031097910e+00	 4.2208036045e-01	 2.5492768948e+00
 1.2111685290e+00	 3.9836640711e-01	 2.5960281791e+00
 1.2187256388e+00	 3.7461022057e-01	 2.6183688692e+00
 1.2257836717e+00	 3.5082672391e-01	 2.6176396515e+00
 1.2323457289e+00	 3.2703058652e-01	 2.5950617197e+00
 1.2384154417e+00	 3.0323620107e-01	 2.5517319712e+00
 1.2439969514e+00	 2.7945766202e-01	 2.4886199164e+00
 1.2490948873e+00	 2.5570874568e-01	 2.4065662258e+00
 1.2537143447e+00	 2.3200289181e-01	 2.5248576120e+00
 1.1796689070e+00	 4.6702016276e-01	 2.3906045301e+00
 1.1886918171e+00	 4.4355194329e-01	 2.4917427544e+00
 1.1972121940e+00	 4.2001133908e-01	 2.5697104239e+00
 1.2052314284e+00	 3.9641363061e-01	 2.6260993983e+00
 1.2127514935e+00	 3.7277389596e-01	 2.6623819519e+00
 1.2197749282e+00	 3.4910698507e-01	 2.6799028629e+00
 1.2263048184e+00	 3.2542749542e-01	 2.6798733480e+00
 1.2323447778e+00	 3.0174974911e-01	 2.6633668045e+00
 1.2378989271e+00	 2.7808777153e-01	 2.6313162967e+00
 1.2429718731e+00	 2.5445527144e-01	 2.5845137112e+00
 1.2475686862e+00	 2.3086562273e-01	 2.5236104885e+00
 1.1738577301e+00	 4.6471957083e-01	 2.4084265249e+00
 1.1828361924e+00	 4.4136695835e-01	 2.5099045583e+00
 1.1913145970e+00	 4.1794231771e-01	 2.5925236342e+00
 1.1992943277e+00	 3.9446085411e-01	 2.6579102492e+00
 1.2067773482e+00	 3.7093757136e-01	 2.7075560841e+00
 1.2137661847e+00	 3.4738724624e-01	 2.7428105560e+00
 1.2202639080e+00	 3.2382440431e-01	 2.7648752614e+00
 1.2262741139e+00	 3.0026329715e-01	 2.7748002657e+00
 1.2318009029e+00	 2.7671788103e-01	 2.7734821725e+00
 1.2368488589e+00	 2.5320179721e-01	 2.7616638924e+00
 1.2414230276e+00	 2.2972835366e-01	 2.7399360126e+00
 1.1680465532e+00	 4.6241897890e-01	 2.4301257936e+00
 1.1769805677e+00	 4.3918197341e-01	 2.5311742804e+00
 1.1854170000e+00	 4.1587329634e-01	 2.6177358995e+00
 1.1933572271e+00	 3.9250807761e-01	 2.6914727250e+00
 1.2008032029e+00	 3.6910124675e-01	 2.7538965871e+00
 1.2077574412e+00	 3.4566750740e-01	 2.8063620889e+00
 1.2142229975e+00	 3.2222131321e-01	 2.8500615609e+00
 1.2202034499e+00	 2.9877684519e-01	 2.8860219018e+00
 1.2257028786e+00	 2.7534799054e-01	 2.9151032352e+00
 1.2307258448e+00	 2.5194832297e-01	 2.9379992972e+00
 1.2352773691e+00	 2.2859108459e-01	 2.9552394502e+00
 1.1622353763e+00	 4.6011838697e-01	 2.4557393789e+00
 1.1711249430e+00	 4.3699698848e-01	 2.5555799779e+00
 1.1795194030e+00	 4.1380427497e-01	 2.6453670121e+00
 1.1874201265e+00	 3.9055530111e-01	 2.7267990763e+00
 1.1948290576e+00	 3.6726492215e-01	 2.8014088938e+00
 1.2017486977e+00	 3.4394776856e-01	 2.8705568008e+00
 1.2081820871e+00	 3.2061822211e-01	 2.9354262142e+00
 1.2141327860e+00	 2.9729039323e-01	 2.9970210273e+00
 1.2196048543e+00	 2.7397810005e-01	 3.0561648598e+00
 1.2246028306e+00	 2.5069484873e-01	 3.1135020682e+00
 1.2291317105e+00	 2.2745381552e-01	 3.1695004117e+00
 1.2905882961e+00	 2.3882650627e-01	 3.3594120579e+00
 1.2948567703e+00	 2.1448122170e-01	 3.3969964757e+00
 1.2986445288e+00	 1.9020682933e-01	 3.4279811785e+00
 1.3019581132e+00	 1.6601602758e-01	 3.4534030315e+00
 1.3048044485e+00	 1.4192110907e-01	 3.4744927392e+00
 1.3071908176e+00	 1.1793394973e-01	 3.4926637973e+00
 1.3091248366e+00	 9.4065999647e-02	 3.5095001762e+00
 1.3106144298e+00	 7.0328275348e-02	 3.5267429148e+00
 1.3116678050e+00	 4.6731353657e-02	 3.5462758055e+00
 1.3122934282e+00	 2.3285366978e-02	 3.5701103503e+00
 1.3125000000e+00	 0.0000000000e+00	 3.6003701639e+00
 1.2844426375e+00	 2.3768923719e-01	 3.2240632372e+00
 1.2886907857e+00	 2.1345988255e-01	 3.2954782487e+00
 1.2924605072e+00	 1.8930108252e-01	 3.3544796160e+00
 1.2957583127e+00	 1.6522547507e-01	 3.4020632165e+00
 1.2985910940e+00	 1.4124529426e-01	 3.4394369073e+00
 1.3009660994e+00	 1.1737235949e-01	 3.4680087830e+00
 1.3028909088e+00	 9.3618066313e-02	 3.4893741277e+00
 1.3043734087e+00	 6.9993378797e-02	 3.5053012495e+00
 1.3054217678e+00	 4.6508823401e-02	 3.5177163793e+00
 1.3060444119e+00	 2.3174484277e-02	 3.5286878233e+00
 1.3062500000e+00	 0.0000000000e+00	 3.5404095463e+00
 1.2782969789e+00	 2.3655196811e-01	 3.0872351606e+00
 1.2825248010e+00	 2.1243854340e-01	 3.1932207717e+00
 1.2862764856e+00	 1.8839533571e-01	 3.2809077938e+00
 1.2895585121e+00	 1.6443492256e-01	 3.3512509865e+00
 1.2923777395e+00	 1.4056947946e-01	 3.4054354265e+00
 1.2947413812e+00	 1.1681076925e-01	 3.4448640638e+00
 1.2966569810e+00	 9.3170132980e-02	 3.4711439359e+00
 1.2981323876e+00	 6.9658482246e-02	 3.4860712330e+00
 1.2991757306e+00	 4.6286293144e-02	 3.4916154033e+00
 1.2997953955e+00	 2.3063601577e-02	 3.4899024909e+00
 1.3000000000e+00	 0.0000000000e+00	 3.4831978921e+00
 1.2721513204e+00	 2.3541469903e-01	 2.9489144806e+00
 1.2763588164e+00	 2.1141720425e-01	 3.0902202589e+00
 1.2800924641e+00	 1.8748958890e-01	 3.2072706543e+00
 1.2833587116e+00	 1.6364437004e-01	 3.3009791803e+00
 1.2861643849e+00	 1.3989366465e-01	 3.3725082049e+00
 1.2885166630e+00	 1.1624917902e-01	 3.4232557962e+00
 1.2904230532e+00	 9.2722199647e-02	 3.4548411916e+00
 1.2918913665e+00	 6.9323585696e-02	 3.4690890852e+00
 1.2929296935e+00	 4.6063762888e-02	 3.4680129309e+00
 1.2935463792e+00	 2.2952718876e-02	 3.4537974567e+00
 1.2937500000e+00	 0.0000000000e+00	 3.4287805830e+00
 1.2660056618e+00	 2.3427742996e-01	 2.8090874712e+00
 1.2701928318e+00	 2.1039586510e-01	 2.9864727506e+00
 1.2739084425e+00	 1.8658384210e-01	 3.1335731519e+00
 1.2771589111e+00	 1.6285381753e-01	 3.2512608183e+00
 1.2799510304e+00	 1.3921784984e-01	 3.3406754839e+00
 1.2822919448e+00	 1.1568758878e-01	 3.4032106038e+00
 1.2841891254e+00	 9.2274266315e-02	 3.4404980693e+00
 1.2856503455e+00	 6.8988689147e-02	 3.4543917093e+00
 1.2866836563e+00	 4.5841232632e-02	 3.4469497817e+00
 1.2872973629e+00	 2.2841836176e-02	 3.4204166559e+00
 1.2875000000e+00	 0.0000000000e+00	 3.3772038822e+00
 1.2598600033e+00	 2.3314016088e-01	 2.6677400187e+00
 1.2640268472e+00	 2.0937452595e-01	 2.8819741083e+00
 1.2677244209e+00	 1.8567809529e-01	 3.0598202543e+00
 1.2709591105e+00	 1.6206326502e-01	 3.2021091067e+00
 1.2737376759e+00	 1.3854203504e-01	 3.3099578458e+00
 1.2760672267e+00	 1.1512599854e-01	 3.3847555886e+00
 1.2779551976e+00	 9.1826332983e-02	 3.4281473416e+00
 1.2794093244e+00	 6.8653792598e-02	 3.4420167083e+00
 1.2804376191e+00	 4.5618702377e-02	 3.4284675600e+00
 1.2810483466e+00	 2.2730953476e-02	 3.3898048758e+00
 1.2812500000e+00	 0.0000000000e+00	 3.3285149552e+00
 1.2537143447e+00	 2.3200289181e-01	 2.5248576120e+00
 1.2578608625e+00	 2.0835318680e-01	 2.7767200109e+00
 1.2615403994e+00	 1.8477234849e-01	 2.9860169417e+00
 1.2647593100e+00	 1.6127271251e-01	 3.1535374419e+00
 1.2675243214e+00	 1.3786622024e-01	 3.2803762225e+00
 1.2698425085e+00	 1.1456440831e-01	 3.3679183428e+00
 1.2717212698e+00	 9.1378399653e-02	 3.4178223937e+00
 1.2731683033e+00	 6.8318896049e-02	 3.4320024026e+00
 1.2741915820e+00	 4.5396172122e-02	 3.4126086736e+00
 1.2747993302e+00	 2.2620070777e-02	 3.3620077767e+00
 1.2750000000e+00	 0.0000000000e+00	 3.2827618926e+00
 1.2475686862e+00	 2.3086562273e-01	 2.5236104885e+00
 1.2516948779e+00	 2.0733184765e-01	 2.6707059497e+00
 1.2553563778e+00	 1.8386660168e-01	 2.9121682079e+00
 1.2585595094e+00	 1.6048216000e-01	 3.1055594160e+00
 1.2613109669e+00	 1.3719040543e-01	 3.2519519039e+00
 1.2636177903e+00	 1.1400281807e-01	 3.3527269605e+00
 1.2654873420e+00	 9.0930466323e-02	 3.4095572385e+00
 1.2669272822e+00	 6.7983999501e-02	 3.4243878473e+00
 1.2679455448e+00	 4.5173641867e-02	 3.3994163543e+00
 1.2685503139e+00	 2.2509188077e-02	 3.3370719136e+00
 1.2687500000e+00	 0.0000000000e+00	 3.2399937324e+00
 1.2414230276e+00	 2.2972835366e-01	 2.7399360126e+00
 1.2455288933e+00	 2.0631050850e-01	 2.8239003257e+00
 1.2491723562e+00	 1.8296085488e-01	 2.8856167238e+00
 1.2523597089e+00	 1.5969160749e-01	 3.0581888205e+00
 1.2550976124e+00	 1.3651459063e-01	 3.2247065467e+00
 1.2573930721e+00	 1.1344122784e-01	 3.3392100510e+00
 1.2592534142e+00	 9.0482532993e-02	 3.4033865324e+00
 1.2606862611e+00	 6.7649102953e-02	 3.4192128505e+00
 1.2616995076e+00	 4.4951111612e-02	 3.3889346779e+00
 1.2623012976e+00	 2.2398305378e-02	 3.3150447577e+00
 1.2625000000e+00	 0.0000000000e+00	 3.2002604837e+00
 1.2352773691e+00	 2.2859108459e-01	 2.9552394502e+00
 1.2393629087e+00	 2.0528916936e-01	 3.0753369300e+00
 1.2429883347e+00	 1.8205510808e-01	 3.1656940132e+00
 1.2461599084e+00	 1.5890105498e-01	 3.2270076888e+00
 1.2488842578e+00	 1.3583877583e-01	 3.2598977692e+00
 1.2511683539e+00	 1.1287963760e-01	 3.3273967506e+00
 1.2530194864e+00	 9.0034599664e-02	 3.3993455909e+00
 1.2544452400e+00	 6.7314206406e-02	 3.4165179921e+00
 1.2554534705e+00	 4.4728581358e-02	 3.3812085850e+00
 1.2560522813e+00	 2.2287422679e-02	 3.2959747202e+00
 1.2562500000e+00	 0.0000000000e+00	 3.1636131510e+00
 1.2291317105e+00	 2.2745381552e-01	 3.1695004117e+00
 1.2331969241e+00	 2.0426783021e-01	 3.3265326850e+00
 1.2368043131e+00	 1.8114936128e-01	 3.4462728012e+00
 1.2399601078e+00	 1.5811050247e-01	 3.5293715413e+00
 1.2426709033e+00	 1.3516296103e-01	 3.5764310148e+00
 1.2449436358e+00	 1.1231804737e-01	 3.5880063035e+00
 1.2467855586e+00	 8.9586666336e-02	 3.5646078305e+00
 1.2482042189e+00	 6.6979309859e-02	 3.5067043581e+00
 1.2492074333e+00	 4.4506051105e-02	 3.4147265183e+00
 1.2498032649e+00	 2.2176539980e-02	 3.2890707797e+00
 1.2500000000e+00	 0.0000000000e+00	 3.1301037586e+00
 0.0000000000e+00	 1.2500000000e+00	-2.3941573670e+00
 2.2176539980e-02	 1.2498032649e+00	-2.5347290159e+00
 4.4506051105e-02	 1.2492074333e+00	-2.6508245736e+00
 6.6979309859e-02	 1.2482042189e+00	-2.7417136915e+00
 8.9586666336e-02	 1.2467855586e+00	-2.8066147320e+00
 1.1231804737e-01	 1.2449436358e+00	-2.8446945302e+00
 1.3516296103e-01	 1.2426709033e+00	-2.8550688505e+00
 1.5811050247e-01	 1.2399601078e+00	-2.8368036056e+00
 1.8114936128e-01	 1.2368043131e+00	-2.7889169013e+00
 2.0426783021e-01	 1.2331969241e+00	-2.7103819656e+00
 2.2745381552e-01	 1.2291317105e+00	-2.6001310164e+00
 0.0000000000e+00	 1.2437500000e+00	-2.4864701395e+00
 2.2065657281e-02	 1.2435542486e+00	-2.6157660386e+00
 4.4283520851e-02	 1.2429613961e+00	-2.7216501771e+00
 6.6644413313e-02	 1.2419631978e+00	-2.8034272459e+00
 8.9138733008e-02	 1.2405516308e+00	-2.8603486568e+00
 1.1175645714e-01	 1.2387189176e+00	-2.8916120719e+00
 1.3448714623e-01	 1.2364575488e+00	-2.8963616208e+00
 1.5731994997e-01	 1.2337603073e+00	-2.8736888710e+00
 1.8024361448e-01	 1.2306202915e+00	-2.8226346185e+00
 2.0324649107e-01	 1.2270309394e+00	-2.7421915576e+00
 2.2631654645e-01	 1.2229860520e+00	-2.6313078826e+00
 0.0000000000e+00	 1.2375000000e+00	-2.5818506003e+00
 2.1954774582e-02	 1.2373052323e+00	-2.6998135952e+00
 4.4060990597e-02	 1.2367153590e+00	-2.7954575058e+00
 6.6309516766e-02	 1.2357221767e+00	-2.8681226448e+00
 8.8690799679e-02	 1.2343177030e+00	-2.9170939908e+00
 1.1119486691e-01	 1.2324941994e+00	-2.9416004806e+00
 1.3381133143e-01	 1.2302441943e+00	-2.9408149812e+00
 1.5652939746e-01	 1.2275605067e+00	-2.9138550091e+00
 1.7933786768e-01	 1.2244362700e+00	-2.8597842621e+00
 2.0222515192e-01	 1.2208649548e+00	-2.7776150247e+00
 2.2517927738e-01	 1.2168403934e+00	-2.6663115028e+00
 0.0000000000e+00	 1.2312500000e+00	-2.6803605552e+00
 2.1843891882e-02	 1.2310562160e+00	-2.7869326483e+00
 4.3838460342e-02	 1.2304693218e+00	-2.8723069287e+00
 6.5974620218e-02	 1.2294811556e+00	-2.9358599208e+00
 8.8242866349e-02	 1.2280837753e+00	-2.9769106937e+00
 1.1063327667e-01	 1.2262694812e+00	-2.9947199120e+00
 1.3313551663e-01	 1.2240308398e+00	-2.9884895592e+00
 1.5573884495e-01	 1.2213607062e+00	-2.9573634002e+00
 1.7843212088e-01	 1.2182522484e+00	-2.9004282507e+00
 2.0120381278e-01	 1.2146989702e+00	-2.8167161153e+00
 2.2404200830e-01	 1.2106947349e+00	-2.7052072497e+00
 0.0000000000e+00	 1.2250000000e+00	-2.7820630714e+00
 2.1733009183e-02	 1.2248071996e+00	-2.8771854093e+00
 4.3615930088e-02	 1.2242232846e+00	-2.9522600583e+00
 6.5639723670e-02	 1.2232401345e+00	-3.0067003505e+00
 8.7794933019e-02	 1.2218498475e+00	-3.0398599756e+00
 1.1007168644e-01	 1.2200447630e+00	-3.0510317863e+00
 1.3245970182e-01	 1.2178174853e+00	-3.0394472668e+00
 1.5494829244e-01	 1.2151609057e+00	-3.0042767356e+00
 1.7752637407e-01	 1.2120682268e+00	-2.9446303482e+00
 2.0018247363e-01	 1.2085329856e+00	-2.8595599633e+00
 2.2290473923e-01	 1.2045490763e+00	-2.7480619301e+00
 0.0000000000e+00	 1.2187500000e+00	-2.8870225097e+00
 2.1622126483e-02	 1.2185581833e+00	-2.9706353713e+00
 4.3393399833e-02	 1.2179772475e+00	-3.0353797823e+00
 6.5304827121e-02	 1.2169991134e+00	-3.0807064859e+00
 8.7346999688e-02	 1.2156159197e+00	-3.1060043296e+00
 1.0951009620e-01	 1.2138200449e+00	-3.1105988199e+00
 1.3178388702e-01	 1.2116041307e+00	-3.0937513330e+00
 1.5415773993e-01	 1.2089611051e+00	-3.0546590517e+00
 1.7662062727e-01	 1.2058842053e+00	-2.9924556982e+00
 1.9916113448e-01	 1.2023670010e+00	-2.9062131246e+00
 2.2176747015e-01	 1.1984034177e+00	-2.7949438215e+00
 0.0000000000e+00	 1.2125000000e+00	-2.9953045582e+00
 2.1511243783e-02	 1.2123091670e+00	-3.0673473414e+00
 4.3170869577e-02	 1.2117312103e+00	-3.1217302965e+00
 6.4969930572e-02	 1.2107580923e+00	-3.1579421876e+00
 8.6899066357e-02	 1.2093819919e+00	-3.1754075642e+00
 1.0894850596e-01	 1.2075953267e+00	-3.1734850595e+00
 1.3110807221e-01	 1.2053907762e+00	-3.1514663381e+00
 1.5336718742e-01	 1.2027613046e+00	-3.1085757643e+00
 1.7571488046e-01	 1.1997001837e+00	-3.0439708594e+00
 1.9813979533e-01	 1.1962010163e+00	-2.9567436131e+00
 2.2063020108e-01	 1.1922577592e+00	-2.8459227097e+00
 0.0000000000e+00	 1.2062500000e+00	-3.1069762660e+00
 2.1400361083e-02	 1.2060601507e+00	-3.1673874753e+00
 4.2948339321e-02	 1.2054851731e+00	-3.2113771384e+00
 6.4635034022e-02	 1.2045170712e+00	-3.2384726587e+00
 8.6451133025e-02	 1.2031480641e+00	-3.2481348381e+00
 1.0838691573e-01	 1.2013706085e+00	-3.2397559159e+00
 1.3043225741e-01	 1.1991774217e+00	-3.2126582486e+00
 1.5257663491e-01	 1.1965615041e+00	-3.1660937047e+00
 1.7480913366e-01	 1.1935161621e+00	-3.0992438425e+00
 1.9711845618e-01	 1.1900350317e+00	-3.0112209387e+00
 2.1949293200e-01	 1.1861121006e+00	-2.9010699284e+00
 0.0000000000e+00	 1.2000000000e+00	-3.2221060794e+00
 2.1289478383e-02	 1.1998111343e+00	-3.2708233118e+00
 4.2725809065e-02	 1.1992391360e+00	-3.3043872228e+00
 6.4300137472e-02	 1.1982760501e+00	-3.3223644796e+00
 8.6003199692e-02	 1.1969141363e+00	-3.3242526948e+00
 1.0782532549e-01	 1.1951458903e+00	-3.3094781999e+00
 1.2975644260e-01	 1.1929640672e+00	-3.2773944533e+00
 1.5178608239e-01	 1.1903617035e+00	-3.2272811562e+00
 1.7390338685e-01	 1.1873321406e+00	-3.1583441477e+00
 1.9609711703e-01	 1.1838690471e+00	-3.0697161463e+00
 2.1835566292e-01	 1.1799664421e+00	-2.9604583993e+00
 0.0000000000e+00	 1.1937500000e+00	-3.3407638780e+00
 2.1178595682e-02	 1.1935621180e+00	-3.3777238097e+00
 4.2503278809e-02	 1.1929930988e+00	-3.4008288772e+00
 6.3965240922e-02	 1.1920350290e+00	-3.4096856441e+00
 8.5555266359e-02	 1.1906802085e+00	-3.4038290990e+00
 1.0726373525e-01	 1.1889211722e+00	-3.3827201590e+00
 1.2908062780e-01	 1.1867507127e+00	-3.3457438004e+00
 1.5099552988e-01	 1.1841619030e+00	-3.2922078924e+00
 1.7299764004e-01	 1.1811481190e+00	-3.2213428043e+00
 1.9507577788e-01	 1.1777030625e+00	-3.1323018558e+00
 2.1721839385e-01	 1.1738207835e+00	-3.0241626734e+00
 0.0000000000e+00	 1.1875000000e+00	-3.4630210125e+00
 2.1067712982e-02	 1.1873131017e+00	-3.4881593848e+00
 4.2280748552e-02	 1.1867470616e+00	-3.5007718793e+00
 6.3630344370e-02	 1.1857940079e+00	-3.5005055967e+00
 8.5107333025e-02	 1.1844462807e+00	-3.4869334744e+00
 1.0670214501e-01	 1.1826964540e+00	-3.4595515151e+00
 1.2840481299e-01	 1.1805373582e+00	-3.4177766363e+00
 1.5020497736e-01	 1.1779621024e+00	-3.3609452163e+00
 1.7209189323e-01	 1.1749640974e+00	-3.2883124101e+00
 1.9405443872e-01	 1.1715370779e+00	-3.1990523038e+00
 2.1608112477e-01	 1.1676751250e+00	-3.0922589742e+00
 2.2745381552e-01	 1.2291317105e+00	-2.6001310164e+00
 2.5069486226e-01	 1.2246028252e+00	-2.5963295046e+00
 2.7397815471e-01	 1.2196048325e+00	-2.5878411750e+00
 2.9729051744e-01	 1.2141327365e+00	-2.5738118457e+00
 3.2061844503e-01	 1.2081819985e+00	-2.5532712423e+00
 3.4394812017e-01	 1.2017485581e+00	-2.5251372043e+00
 3.6726543312e-01	 1.1948288549e+00	-2.4882212886e+00
 3.9055600287e-01	 1.1874198483e+00	-2.4412357904e+00
 4.1380519962e-01	 1.1795190367e+00	-2.3828021893e+00
 4.3699816879e-01	 1.1711244756e+00	-2.3114610108e+00
 4.6011985634e-01	 1.1622347946e+00	-2.2256830737e+00
 2.2631654645e-01	 1.2229860520e+00	-2.6313078826e+00
 2.4944138796e-01	 1.2184798111e+00	-2.6268989340e+00
 2.7260826395e-01	 1.2135068083e+00	-2.6170704106e+00
 2.9580406486e-01	 1.2080620729e+00	-2.6010279687e+00
 3.1901535282e-01	 1.2021410885e+00	-2.5778660231e+00
 3.4222837958e-01	 1.1957398153e+00	-2.5465717853e+00
 3.6542910596e-01	 1.1888547107e+00	-2.5060306571e+00
 3.8860322286e-01	 1.1814827491e+00	-2.4550330031e+00
 4.1173617363e-01	 1.1736214415e+00	-2.3922823074e+00
 4.3481317795e-01	 1.1652688533e+00	-2.3164047066e+00
 4.5781925707e-01	 1.1564236206e+00	-2.2259598699e+00
 2.2517927738e-01	 1.2168403934e+00	-2.6663115028e+00
 2.4818791365e-01	 1.2123567970e+00	-2.6611558532e+00
 2.7123837318e-01	 1.2074087842e+00	-2.6498556971e+00
 2.9431761228e-01	 1.2019914092e+00	-2.6316765742e+00
 3.1741226060e-01	 1.1961001785e+00	-2.6057775965e+00
 3.4050863898e-01	 1.1897310725e+00	-2.5712153152e+00
 3.6359277880e-01	 1.1828805664e+00	-2.5269489062e+00
 3.8665044285e-01	 1.1755456499e+00	-2.4718466926e+00
 4.0966714764e-01	 1.1677238464e+00	-2.4046940131e+00
 4.3262818711e-01	 1.1594132309e+00	-2.3242024273e+00
 4.5551865779e-01	 1.1506124466e+00	-2.2290202288e+00
 2.2404200830e-01	 1.2106947349e+00	-2.7052072497e+00
 2.4693443935e-01	 1.2062337828e+00	-2.6991617263e+00
 2.6986848241e-01	 1.2013107600e+00	-2.6862545433e+00
 2.9283115969e-01	 1.1959207455e+00	-2.6658111779e+00
 3.1580916838e-01	 1.1900592685e+00	-2.6370554539e+00
 3.3878889838e-01	 1.1837223297e+00	-2.5991132392e+00
 3.6175645164e-01	 1.1769064221e+00	-2.5510174206e+00
 3.8469766284e-01	 1.1696085506e+00	-2.4917141781e+00
 4.0759812164e-01	 1.1618262512e+00	-2.4200705647e+00
 4.3044319627e-01	 1.1535576085e+00	-2.3348833840e+00
 4.5321805851e-01	 1.1448012727e+00	-2.2348893382e+00
 2.2290473923e-01	 1.2045490763e+00	-2.7480619301e+00
 2.4568096504e-01	 1.2001107687e+00	-2.7409793870e+00
 2.6849859164e-01	 1.1952127359e+00	-2.7263257641e+00
 2.9134470711e-01	 1.1898500818e+00	-2.7034865370e+00
 3.1420607616e-01	 1.1840183585e+00	-2.6717502648e+00
 3.3706915779e-01	 1.1777135869e+00	-2.6303121166e+00
 3.5992012448e-01	 1.1709322778e+00	-2.5782786362e+00
 3.8274488283e-01	 1.1636714514e+00	-2.5146737680e+00
 4.0552909565e-01	 1.1559286560e+00	-2.4384461479e+00
 4.2825820543e-01	 1.1477019861e+00	-2.3484776543e+00
 4.5091745923e-01	 1.1389900987e+00	-2.2435931920e+00
 2.2176747015e-01	 1.1984034177e+00	-2.7949438215e+00
 2.4442749073e-01	 1.1939877546e+00	-2.7866730739e+00
 2.6712870087e-01	 1.1891147117e+00	-2.7701295134e+00
 2.8985825453e-01	 1.1837794181e+00	-2.7447586826e+00
 3.1260298394e-01	 1.1779774485e+00	-2.7099139070e+00
 3.3534941719e-01	 1.1717048441e+00	-2.6648596500e+00
 3.5808379732e-01	 1.1649581336e+00	-2.6087760678e+00
 3.8079210282e-01	 1.1577343521e+00	-2.5407647852e+00
 4.0346006965e-01	 1.1500310608e+00	-2.4598558995e+00
 4.2607321459e-01	 1.1418463637e+00	-2.3650162045e+00
 4.4861685994e-01	 1.1331789247e+00	-2.2551586114e+00
 2.2063020108e-01	 1.1922577592e+00	-2.8459227097e+00
 2.4317401642e-01	 1.1878647405e+00	-2.8363084671e+00
 2.6575881010e-01	 1.1830166875e+00	-2.8177273191e+00
 2.8837180194e-01	 1.1777087545e+00	-2.7896849520e+00
 3.1099989171e-01	 1.1719365385e+00	-2.7515994973e+00
 3.3362967659e-01	 1.1656961014e+00	-2.7028047147e+00
 3.5624747016e-01	 1.1589839893e+00	-2.6425543363e+00
 3.7883932281e-01	 1.1517972529e+00	-2.5700275932e+00
 4.0139104365e-01	 1.1441334656e+00	-2.4843359319e+00
 4.2388822374e-01	 1.1359907414e+00	-2.3845309124e+00
 4.4631626066e-01	 1.1273677508e+00	-2.2696132658e+00
 2.1949293200e-01	 1.1861121006e+00	-2.9010699284e+00
 2.4192054211e-01	 1.1817417263e+00	-2.8899527248e+00
 2.6438891933e-01	 1.1769186634e+00	-2.8691821182e+00
 2.8688534936e-01	 1.1716380908e+00	-2.8383240230e+00
 3.0939679949e-01	 1.1658956285e+00	-2.7968614244e+00
 3.3190993599e-01	 1.1596873586e+00	-2.7441973889e+00
 3.5441114299e-01	 1.1530098450e+00	-2.6796591975e+00
 3.7688654280e-01	 1.1458601537e+00	-2.6025036230e+00
 3.9932201766e-01	 1.1382358704e+00	-2.5119233585e+00
 4.2170323290e-01	 1.1301351190e+00	-2.4070545907e+00
 4.4401566138e-01	 1.1215565768e+00	-2.2869856951e+00
 2.1835566292e-01	 1.1799664421e+00	-2.9604583993e+00
 2.4066706780e-01	 1.1756187122e+00	-2.9476745225e+00
 2.6301902856e-01	 1.1708206392e+00	-2.9245582939e+00
 2.8539889677e-01	 1.1655674271e+00	-2.8907359482e+00
 3.0779370726e-01	 1.1598547185e+00	-2.8457553811e+00
 3.3019019539e-01	 1.1536786158e+00	-2.7890889850e+00
 3.5257481583e-01	 1.1470357007e+00	-2.7201375720e+00
 3.7493376278e-01	 1.1399230544e+00	-2.6382354012e+00
 3.9725299166e-01	 1.1323382753e+00	-2.5426563198e+00
 4.1951824205e-01	 1.1242794966e+00	-2.4326210118e+00
 4.4171506210e-01	 1.1157454028e+00	-2.3073053318e+00
 2.1721839385e-01	 1.1738207835e+00	-3.0241626734e+00
 2.3941359349e-01	 1.1694956981e+00	-3.0095440921e+00
 2.6164913778e-01	 1.1647226151e+00	-2.9839217130e+00
 2.8391244418e-01	 1.1594967634e+00	-2.9469821919e+00
 3.0619061504e-01	 1.1538138086e+00	-2.8983383992e+00
 3.2847045479e-01	 1.1476698730e+00	-2.8375320822e+00
 3.5073848866e-01	 1.1410615565e+00	-2.7640375753e+00
 3.7298098277e-01	 1.1339859552e+00	-2.6772665782e+00
 3.9518396566e-01	 1.1264406801e+00	-2.5765740100e+00
 4.1733325121e-01	 1.1184238742e+00	-2.4612649328e+00
 4.3941446281e-01	 1.1099342288e+00	-2.3306025252e+00
 2.1608112477e-01	 1.1676751250e+00	-3.0922589742e+00
 2.3816011918e-01	 1.1633726840e+00	-3.0756332636e+00
 2.6027924701e-01	 1.1586245909e+00	-3.0473397656e+00
 2.8242599159e-01	 1.1534260997e+00	-3.0071256662e+00
 3.0458752281e-01	 1.1477728986e+00	-2.9546688844e+00
 3.2675071419e-01	 1.1416611302e+00	-2.8895805596e+00
 3.4890216149e-01	 1.1350874122e+00	-2.8114085493e+00
 3.7102820275e-01	 1.1280488559e+00	-2.7196419582e+00
 3.9311493966e-01	 1.1205430849e+00	-2.6137167049e+00
 4.1514826036e-01	 1.1125682519e+00	-2.4930221209e+00
 4.3711386353e-01	 1.1041230549e+00	-2.3569085649e+00
 4.6011985634e-01	 1.1622347946e+00	-2.2256830737e+00
 4.8315442990e-01	 1.1528494559e+00	-2.1459799706e+00
 5.0608708755e-01	 1.1429680605e+00	-2.0591180473e+00
 5.2890234153e-01	 1.1325910479e+00	-1.9618840226e+00
 5.5158461838e-01	 1.1217194849e+00	-1.8509647091e+00
 5.7411828993e-01	 1.1103550750e+00	-1.7229685760e+00
 5.9648770521e-01	 1.0985001657e+00	-1.5744487151e+00
 6.1867722305e-01	 1.0861577540e+00	-1.4019270362e+00
 6.4067124524e-01	 1.0733314902e+00	-1.4465877805e+00
 6.6245425020e-01	 1.0600256795e+00	-1.5626406450e+00
 6.8401082690e-01	 1.0462452813e+00	-1.6517910154e+00
 4.5781925707e-01	 1.1564236206e+00	-2.2259598699e+00
 4.8073865775e-01	 1.1470852086e+00	-2.1477688386e+00
 5.0355665211e-01	 1.1372532202e+00	-2.0618072981e+00
 5.2625782983e-01	 1.1269280926e+00	-1.9649658562e+00
 5.4882669529e-01	 1.1161108875e+00	-1.8540396112e+00
 5.7124769848e-01	 1.1048032996e+00	-1.7257492091e+00
 5.9350526668e-01	 1.0930076648e+00	-1.5767632632e+00
 6.1558383693e-01	 1.0807269652e+00	-1.4037219667e+00
 6.3746788901e-01	 1.0679648328e+00	-1.3996731482e+00
 6.5914197895e-01	 1.0547255511e+00	-1.5164245931e+00
 6.8059077277e-01	 1.0410140549e+00	-1.6066109865e+00
 4.5551865779e-01	 1.1506124466e+00	-2.2290202288e+00
 4.7832288560e-01	 1.1413209614e+00	-2.1522395632e+00
 5.0102621667e-01	 1.1315383799e+00	-2.0670760198e+00
 5.2361331812e-01	 1.1212651374e+00	-1.9705237648e+00
 5.4606877220e-01	 1.1105022900e+00	-1.8594858395e+00
 5.6837710703e-01	 1.0992515242e+00	-1.7307947137e+00
 5.9052282816e-01	 1.0875151640e+00	-1.5812341616e+00
 6.1249045082e-01	 1.0752961764e+00	-1.4075622966e+00
 6.3426453279e-01	 1.0625981753e+00	-1.3537875710e+00
 6.5582970770e-01	 1.0494254227e+00	-1.4710435574e+00
 6.7717071864e-01	 1.0357828285e+00	-1.5620658575e+00
 4.5321805851e-01	 1.1448012727e+00	-2.2348893382e+00
 4.7590711345e-01	 1.1355567141e+00	-2.1594127623e+00
 4.9849578123e-01	 1.1258235396e+00	-2.0749401942e+00
 5.2096880641e-01	 1.1156021821e+00	-1.9785690384e+00
 5.4331084910e-01	 1.1048936926e+00	-1.8673099468e+00
 5.6550651558e-01	 1.0936997489e+00	-1.7381068706e+00
 5.8754038963e-01	 1.0820226632e+00	-1.5878583966e+00
 6.0939706470e-01	 1.0698653877e+00	-1.4134402057e+00
 6.3106117656e-01	 1.0572315179e+00	-1.3089188307e+00
 6.5251743645e-01	 1.0441252943e+00	-1.4264812834e+00
 6.7375066450e-01	 1.0305516021e+00	-1.5181353900e+00
 4.5091745923e-01	 1.1389900987e+00	-2.2435931920e+00
 4.7349134131e-01	 1.1297924668e+00	-2.1693097895e+00
 4.9596534580e-01	 1.1201086993e+00	-2.0854164670e+00
 5.1832429470e-01	 1.1099392269e+00	-1.9891135577e+00
 5.4055292601e-01	 1.0992850952e+00	-1.8775190025e+00
 5.6263592413e-01	 1.0881479735e+00	-1.7476879032e+00
 5.8455795110e-01	 1.0765301624e+00	-1.5966333219e+00
 6.0630367858e-01	 1.0644345989e+00	-1.4213481657e+00
 6.2785782034e-01	 1.0518648604e+00	-1.2650549251e+00
 6.4920516520e-01	 1.0388251659e+00	-1.3827216562e+00
 6.7033061037e-01	 1.0253203757e+00	-1.4747994103e+00
 4.4861685994e-01	 1.1331789247e+00	-2.2551586114e+00
 4.7107556916e-01	 1.1240282195e+00	-2.1819527525e+00
 4.9343491036e-01	 1.1143938590e+00	-2.0985221641e+00
 5.1567978299e-01	 1.1042762717e+00	-2.0021698091e+00
 5.3779500292e-01	 1.0936764977e+00	-1.8901206065e+00
 5.5976533268e-01	 1.0825961981e+00	-1.7595404890e+00
 5.8157551258e-01	 1.0710376615e+00	-1.6075566678e+00
 6.0321029247e-01	 1.0590038101e+00	-1.4312789477e+00
 6.2465446411e-01	 1.0464982030e+00	-1.2278219222e+00
 6.4589289395e-01	 1.0335250375e+00	-1.3397487050e+00
 6.6691055624e-01	 1.0200891493e+00	-1.4320378098e+00
 4.4631626066e-01	 1.1273677508e+00	-2.2696132658e+00
 4.6865979701e-01	 1.1182639722e+00	-2.1973645331e+00
 4.9090447492e-01	 1.1086790187e+00	-2.1142753099e+00
 5.1303527128e-01	 1.0986133164e+00	-2.0177509006e+00
 5.3503707982e-01	 1.0880679003e+00	-1.9051229024e+00
 5.5689474122e-01	 1.0770444227e+00	-1.7736677706e+00
 5.7859307405e-01	 1.0655451607e+00	-1.6206265514e+00
 6.0011690635e-01	 1.0535730214e+00	-1.4432256300e+00
 6.2145110788e-01	 1.0411315455e+00	-1.2386983273e+00
 6.4258062269e-01	 1.0282249091e+00	-1.2975466061e+00
 6.6349050210e-01	 1.0148579229e+00	-1.3898305480e+00
 4.4401566138e-01	 1.1215565768e+00	-2.2869856951e+00
 4.6624402486e-01	 1.1124997250e+00	-2.2155688066e+00
 4.8837403948e-01	 1.1029641784e+00	-2.1326946449e+00
 5.1039075957e-01	 1.0929503612e+00	-2.0358705775e+00
 5.3227915673e-01	 1.0824593029e+00	-1.9225345917e+00
 5.5402414977e-01	 1.0714926474e+00	-1.7900733684e+00
 5.7561063552e-01	 1.0600526599e+00	-1.6358414862e+00
 5.9702352023e-01	 1.0481422326e+00	-1.4571816059e+00
 6.1824775165e-01	 1.0357648881e+00	-1.2514454709e+00
 6.3926835144e-01	 1.0229247807e+00	-1.2560996874e+00
 6.6007044797e-01	 1.0096266965e+00	-1.3481576529e+00
 4.4171506210e-01	 1.1157454028e+00	-2.3073053318e+00
 4.6382825270e-01	 1.1067354777e+00	-2.2365900630e+00
 4.8584360404e-01	 1.0972493381e+00	-2.1537996442e+00
 5.0774624786e-01	 1.0872874059e+00	-2.0565432395e+00
 5.2952123364e-01	 1.0768507055e+00	-1.9423649486e+00
 5.5115355832e-01	 1.0659408720e+00	-1.8087613927e+00
 5.7262819699e-01	 1.0545601590e+00	-1.6532003927e+00
 5.9393013412e-01	 1.0427114438e+00	-1.4731405918e+00
 6.1504439542e-01	 1.0303982306e+00	-1.2660518640e+00
 6.3595608019e-01	 1.0176246523e+00	-1.2153924316e+00
 6.5665039383e-01	 1.0043954701e+00	-1.3069992241e+00
 4.3941446281e-01	 1.1099342288e+00	-2.3306025252e+00
 4.6141248055e-01	 1.1009712304e+00	-2.2604536284e+00
 4.8331316860e-01	 1.0915344978e+00	-2.1776105375e+00
 5.0510173615e-01	 1.0816244507e+00	-2.0797839574e+00
 5.2676331054e-01	 1.0712421081e+00	-1.9646238343e+00
 5.4828296687e-01	 1.0603890966e+00	-1.8297364568e+00
 5.6964575846e-01	 1.0490676582e+00	-1.6727026090e+00
 5.9083674800e-01	 1.0372806551e+00	-1.4910966362e+00
 6.1184103920e-01	 1.0250315732e+00	-1.2825062632e+00
 6.3264380894e-01	 1.0123245239e+00	-1.1754094808e+00
 6.5323033969e-01	 9.9916424365e-01	-1.2663354336e+00
 4.3711386353e-01	 1.1041230549e+00	-2.3569085649e+00
 4.5899670840e-01	 1.0952069831e+00	-2.2871856863e+00
 4.8078273316e-01	 1.0858196575e+00	-2.2041483279e+00
 5.0245722444e-01	 1.0759614955e+00	-2.1056084908e+00
 5.2400538745e-01	 1.0656335106e+00	-1.9893217135e+00
 5.4541237542e-01	 1.0548373212e+00	-1.8530036897e+00
 5.6666331993e-01	 1.0435751574e+00	-1.6943479014e+00
 5.8774336188e-01	 1.0318498663e+00	-1.5110441279e+00
 6.0863768297e-01	 1.0196649157e+00	-1.3007976774e+00
 6.2933153768e-01	 1.0070243955e+00	-1.1361356406e+00
 6.4981028556e-01	 9.9393301725e-01	-1.2261465283e+00
 6.8401082690e-01	 1.0462452813e+00	-1.6517910154e+00
 7.0532624134e-01	 1.0319955549e+00	-1.5363268964e+00
 7.2638484588e-01	 1.0172831208e+00	-1.4152800514e+00
 7.4717176494e-01	 1.0021148784e+00	-1.2894477646e+00
 7.6767236954e-01	 9.8649835838e-01	-1.1597351339e+00
 7.8787231052e-01	 9.7044171190e-01	-1.0271520070e+00
 8.0775755121e-01	 9.5395369741e-01	-8.9280872539e-01
 8.2731439938e-01	 9.3704366542e-01	-7.5791069183e-01
 8.4652953822e-01	 9.1972154134e-01	-6.2375178835e-01
 8.6539005633e-01	 9.0199780637e-01	-4.9170669067e-01
 8.8388347647e-01	 8.8388347647e-01	-3.6322213716e-01
 6.8059077277e-01	 1.0410140549e+00	-1.6066109865e+00
 7.0179961014e-01	 1.0268355771e+00	-1.4900951854e+00
 7.2275292165e-01	 1.0121967052e+00	-1.3676997178e+00
 7.4343590612e-01	 9.9710430402e-01	-1.2402308711e+00
 7.6383400770e-01	 9.8156586659e-01	-1.1086025644e+00
 7.8393294897e-01	 9.6558950335e-01	-9.7383325322e-01
 8.0371876346e-01	 9.4918392893e-01	-8.3704165383e-01
 8.2317782739e-01	 9.3235844710e-01	-6.9944129901e-01
 8.4229689053e-01	 9.1512293364e-01	-5.6233395632e-01
 8.6106310605e-01	 8.9748781735e-01	-4.2710195206e-01
 8.7946405910e-01	 8.7946405910e-01	-2.9519945993e-01
 6.7717071864e-01	 1.0357828285e+00	-1.5620658575e+00
 6.9827297894e-01	 1.0216755993e+00	-1.4444824135e+00
 7.1912099742e-01	 1.0071102896e+00	-1.3207099574e+00
 7.3970004730e-01	 9.9209372963e-01	-1.1915638349e+00
 7.5999564585e-01	 9.7663337480e-01	-1.0579668944e+00
 7.7999358742e-01	 9.6073729479e-01	-9.2094636120e-01
 7.9967997571e-01	 9.4441416045e-01	-7.8162954028e-01
 8.1904125540e-01	 9.2767322878e-01	-6.4123836123e-01
 8.3806424285e-01	 9.1052432594e-01	-5.0108279480e-01
 8.5673615578e-01	 8.9297782832e-01	-3.6255318525e-01
 8.7504464172e-01	 8.7504464172e-01	-2.2711155701e-01
 6.7375066450e-01	 1.0305516021e+00	-1.5181353900e+00
 6.9474634773e-01	 1.0165156216e+00	-1.3994673115e+00
 7.1548907320e-01	 1.0020238740e+00	-1.2742884304e+00
 7.3596418848e-01	 9.8708315524e-01	-1.1434232074e+00
 7.5615728401e-01	 9.7170088301e-01	-1.0078035301e+00
 7.7605422587e-01	 9.5588508624e-01	-8.6846555644e-01
 7.9564118796e-01	 9.3964439196e-01	-7.2654539613e-01
 8.1490468340e-01	 9.2298801045e-01	-5.8327364357e-01
 8.3383159516e-01	 9.0592571824e-01	-4.3996879183e-01
 8.5240920550e-01	 8.8846783930e-01	-2.9802957202e-01
 8.7062522435e-01	 8.7062522435e-01	-1.5892627603e-01
 6.7033061037e-01	 1.0253203757e+00	-1.4747994103e+00
 6.9121971652e-01	 1.0113556438e+00	-1.3550286575e+00
 7.1185714897e-01	 9.9693745842e-01	-1.2284128252e+00
 7.3222832966e-01	 9.8207258085e-01	-1.0957855476e+00
 7.5231892217e-01	 9.6676839122e-01	-9.5808786238e-01
 7.7211486432e-01	 9.5103287768e-01	-8.1636502487e-01
 7.9160240020e-01	 9.3487462348e-01	-6.7176216687e-01
 8.1076811141e-01	 9.1830279213e-01	-5.2551881709e-01
 8.2959894748e-01	 9.0132711054e-01	-3.7896231166e-01
 8.4808225522e-01	 8.8395785027e-01	-2.3350013881e-01
 8.6620580697e-01	 8.6620580697e-01	-9.0611276202e-02
 6.6691055624e-01	 1.0200891493e+00	-1.4320378098e+00
 6.8769308532e-01	 1.0061956660e+00	-1.3111452779e+00
 7.0822522474e-01	 9.9185104282e-01	-1.1830608596e+00
 7.2849247083e-01	 9.7706200646e-01	-1.0486274222e+00
 7.4848056032e-01	 9.6183589943e-01	-9.0879526676e-01
 7.6817550277e-01	 9.4618066912e-01	-7.6461891186e-01
 7.8756361245e-01	 9.3010485499e-01	-6.1725273035e-01
 8.0663153942e-01	 9.1361757380e-01	-4.6794545645e-01
 8.2536629979e-01	 8.9672850283e-01	-3.1803359147e-01
 8.4375530494e-01	 8.7944786124e-01	-1.6893375275e-01
 8.6178638959e-01	 8.6178638959e-01	-2.2134023495e-02
 6.6349050210e-01	 1.0148579229e+00	-1.3898305480e+00
 6.8416645411e-01	 1.0010356883e+00	-1.2677960487e+00
 7.0459330051e-01	 9.8676462721e-01	-1.1382102809e+00
 7.2475661201e-01	 9.7205143207e-01	-1.0019254059e+00
 7.4464219847e-01	 9.5690340764e-01	-8.5990110287e-01
 7.6423614122e-01	 9.4132846056e-01	-7.1320132108e-01
 7.8352482470e-01	 9.2533508651e-01	-5.6298989511e-01
 8.0249496742e-01	 9.0893235548e-01	-4.1052503735e-01
 8.2113365210e-01	 8.9212989513e-01	-2.5715273821e-01
 8.3942835466e-01	 8.7493787221e-01	-1.0429911758e-01
 8.5736697221e-01	 8.5736697221e-01	 4.6538214335e-02
 6.6007044797e-01	 1.0096266965e+00	-1.3481576529e+00
 6.8063982290e-01	 9.9587571048e-01	-1.2249598970e+00
 7.0096137628e-01	 9.8167821161e-01	-1.0938388671e+00
 7.2102075318e-01	 9.6704085767e-01	-9.5565608184e-01
 7.4080383663e-01	 9.5197091585e-01	-8.1138071409e-01
 7.6029677967e-01	 9.3647625200e-01	-6.6208631352e-01
 7.7948603694e-01	 9.2056531802e-01	-5.0894639850e-01
 7.9835839543e-01	 9.0424713715e-01	-3.5322893405e-01
 8.1690100441e-01	 8.8753128742e-01	-1.9628972512e-01
 8.3510140438e-01	 8.7042788318e-01	-3.9564769387e-02
 8.5294755483e-01	 8.5294755483e-01	 1.1543837289e-01
 6.5665039383e-01	 1.0043954701e+00	-1.3069992241e+00
 6.7711319170e-01	 9.9071573270e-01	-1.1826158020e+00
 6.9732945205e-01	 9.7659179600e-01	-1.0499244277e+00
 7.1728489436e-01	 9.6203028328e-01	-9.0979604119e-01
 7.3696547478e-01	 9.4703842406e-01	-7.6320942708e-01
 7.5635741812e-01	 9.3162404344e-01	-6.1124790628e-01
 7.7544724918e-01	 9.1579554953e-01	-4.5509490491e-01
 7.9422182343e-01	 8.9956191882e-01	-2.9602841667e-01
 8.1266835672e-01	 8.8293267971e-01	-1.3541438833e-01
 8.3077445410e-01	 8.6591789414e-01	 2.5300927749e-02
 8.4852813744e-01	 8.4852813744e-01	 1.8459959643e-01
 6.5323033969e-01	 9.9916424365e-01	-1.2663354336e+00
 6.7358656049e-01	 9.8555575493e-01	-1.1407427968e+00
 6.9369752782e-01	 9.7150538040e-01	-1.0064448043e+00
 7.1354903553e-01	 9.5701970889e-01	-8.6432188395e-01
 7.3312711293e-01	 9.4210593227e-01	-7.1536255139e-01
 7.5241805656e-01	 9.2677183488e-01	-5.6066007149e-01
 7.7140846143e-01	 9.1102578105e-01	-4.0140800377e-01
 7.9008525143e-01	 8.9487670050e-01	-2.3889464850e-01
 8.0843570902e-01	 8.7833407201e-01	-7.4496423236e-02
 8.2644750382e-01	 8.6140790511e-01	 9.0329786256e-02
 8.4410872006e-01	 8.4410872006e-01	 2.5405524332e-01
 6.4981028556e-01	 9.9393301725e-01	-1.2261465283e+00
 6.7005992928e-01	 9.8039577715e-01	-1.0993199691e+00
 6.9006560359e-01	 9.6641896479e-01	-9.6337787158e-01
 7.0981317671e-01	 9.5200913450e-01	-8.1921021889e-01
 7.2928875108e-01	 9.3717344047e-01	-6.6781537898e-01
 7.4847869501e-01	 9.2191962632e-01	-5.1029673512e-01
 7.6736967367e-01	 9.0625601256e-01	-3.4785820768e-01
 7.8594867943e-01	 8.9019148217e-01	-1.8179868317e-01
 8.0420306133e-01	 8.7373546430e-01	-1.3505380786e-02
 8.2212055353e-01	 8.5689791608e-01	 1.5555379972e-01
 8.3968930267e-01	 8.3968930267e-01	 3.2383889168e-01
 8.8388347647e-01	 8.8388347647e-01	-3.6322213716e-01
 9.0199779716e-01	 8.6539007037e-01	-2.3777608369e-01
 9.1972150459e-01	 8.4652959426e-01	-1.0401628865e-01
 9.3704358299e-01	 8.2731452517e-01	 3.6267719272e-02
 9.5395355135e-01	 8.0775777424e-01	 1.8119496799e-01
 9.7044148446e-01	 7.8787265800e-01	 3.2880691669e-01
 9.8649803203e-01	 7.6767286834e-01	 4.7708209134e-01
 1.0021144359e+00	 7.4717244155e-01	 6.2395133476e-01
 1.0172825451e+00	 7.2638572640e-01	 7.6731351812e-01
 1.0319948291e+00	 7.0532735143e-01	 9.0505155625e-01
 1.0462443890e+00	 6.8401219174e-01	 1.0350485663e+00
 8.7946405910e-01	 8.7946405910e-01	-2.9519945993e-01
 8.9748780818e-01	 8.6106312002e-01	-1.6644525059e-01
 9.1512289708e-01	 8.4229694630e-01	-3.0761603856e-02
 9.3235836508e-01	 8.2317795255e-01	 1.1002204689e-01
 9.4918378359e-01	 8.0371898538e-01	 2.5399140725e-01
 9.6558927704e-01	 7.8393329471e-01	 3.9916122992e-01
 9.8156554187e-01	 7.6383450400e-01	 5.4348994203e-01
 9.9710386369e-01	 7.4343657935e-01	 6.8489484657e-01
 1.0121961323e+00	 7.2275379777e-01	 8.2126774608e-01
 1.0268348550e+00	 7.0180071467e-01	 9.5049083251e-01
 1.0410131671e+00	 6.8059213078e-01	 1.0704526850e+00
 8.7504464172e-01	 8.7504464172e-01	-2.2711155701e-01
 8.9297781920e-01	 8.5673616968e-01	-9.4758037869e-02
 9.1052428956e-01	 8.3806429833e-01	 4.3134067408e-02
 9.2767314717e-01	 8.1904137993e-01	 1.8469461367e-01
 9.4441401584e-01	 7.9968019651e-01	 3.2797518198e-01
 9.6073706962e-01	 7.7999393143e-01	 4.7096302495e-01
 9.7663305172e-01	 7.5999613966e-01	 6.1159569001e-01
 9.9209329151e-01	 7.3970071714e-01	 7.4777617600e-01
 1.0071097196e+00	 7.1912186914e-01	 8.7738847290e-01
 1.0216748808e+00	 6.9827407792e-01	 9.9831333003e-01
 1.0357819451e+00	 6.7717206982e-01	 1.1084440966e+00
 8.7062522435e-01	 8.7062522435e-01	-1.5892627603e-01
 8.8846783022e-01	 8.5240921933e-01	-2.2678497270e-02
 9.0592568204e-01	 8.3383165036e-01	 1.1771024947e-01
 9.2298792926e-01	 8.1490480731e-01	 2.6032829486e-01
 9.3964424809e-01	 7.9564140765e-01	 4.0319228842e-01
 9.5588486220e-01	 7.7605456814e-01	 5.4426118521e-01
 9.7170056156e-01	 7.5615777532e-01	 6.8145086868e-01
 9.8708271934e-01	 7.3596485494e-01	 8.1264926660e-01
 1.0020233069e+00	 7.1548994051e-01	 9.3573181049e-01
 1.0165149067e+00	 6.9474744116e-01	 1.0485770860e+00
 1.0305507232e+00	 6.7375200887e-01	 1.1490825200e+00
 8.6620580697e-01	 8.6620580697e-01	-9.0611276202e-02
 8.8395784124e-01	 8.4808226898e-01	 4.9829592214e-02
 9.0132707452e-01	 8.2959900240e-01	 1.9300682022e-01
 9.1830271135e-01	 8.1076823469e-01	 3.3696639634e-01
 9.3487448034e-01	 7.9160261878e-01	 4.7968922684e-01
 9.5103265478e-01	 7.7211520485e-01	 6.1910516747e-01
 9.6676807140e-01	 7.5231941099e-01	 7.5310765013e-01
 9.8207214716e-01	 7.3222899273e-01	 8.7956876172e-01
 9.9693689416e-01	 7.1185801188e-01	 9.9635462738e-01
 1.0113549325e+00	 6.9122080441e-01	 1.1013409468e+00
 1.0253195012e+00	 6.7033194791e-01	 1.1924285311e+00
 8.6178638959e-01	 8.6178638959e-01	-2.2134023495e-02
 8.7944785225e-01	 8.4375531863e-01	 1.2280273133e-01
 8.9672846700e-01	 8.2536635443e-01	 2.6906402014e-01
 9.1361749343e-01	 8.0663166206e-01	 4.1465266576e-01
 9.3010471258e-01	 7.8756382991e-01	 5.5751301441e-01
 9.4618044736e-01	 7.6817584157e-01	 6.9554501662e-01
 9.6183558124e-01	 7.4848104665e-01	 8.2661886145e-01
 9.7706157498e-01	 7.2849313053e-01	 9.4859002239e-01
 9.9185048144e-01	 7.0822608325e-01	 1.0593145681e+00
 1.0061949584e+00	 6.8769416765e-01	 1.1566645884e+00
 1.0200882793e+00	 6.6691188695e-01	 1.2385435849e+00
 8.5736697221e-01	 8.5736697221e-01	 4.6538214335e-02
 8.7493786327e-01	 8.3942836828e-01	 1.9627770775e-01
 8.9212985948e-01	 8.2113370646e-01	 3.4592246170e-01
 9.0893227552e-01	 8.0249508944e-01	 4.9343130387e-01
 9.2533494483e-01	 7.8352504104e-01	 6.3671119858e-01
 9.4132823994e-01	 7.6423647828e-01	 7.7363138074e-01
 9.5690309108e-01	 7.4464268231e-01	 9.0203800168e-01
 9.7205100280e-01	 7.2475726832e-01	 1.0197691459e+00
 9.8676406871e-01	 7.0459415462e-01	 1.1246700732e+00
 1.0010349842e+00	 6.8416753089e-01	 1.2146085383e+00
 1.0148570573e+00	 6.6349182599e-01	 1.2874900382e+00
 8.5294755483e-01	 8.5294755483e-01	 1.1543837289e-01
 8.7042787428e-01	 8.3510141793e-01	 2.7029160354e-01
 8.8753125196e-01	 8.1690105849e-01	 4.2362313896e-01
 9.0424705761e-01	 7.9835851681e-01	 5.7334697627e-01
 9.2056517707e-01	 7.7948625217e-01	 7.1733187075e-01
 9.3647603252e-01	 7.6029711499e-01	 8.5341552679e-01
 9.5197060092e-01	 7.4080431796e-01	 9.7941925920e-01
 9.6704043062e-01	 7.2102140611e-01	 1.0931629848e+00
 9.8167765599e-01	 7.0096222598e-01	 1.1924804000e+00
 9.9587501010e-01	 6.8064089414e-01	 1.2752341969e+00
 1.0096258354e+00	 6.6007176503e-01	 1.3393311727e+00
 8.4852813744e-01	 8.4852813744e-01	 1.8459959643e-01
 8.6591788530e-01	 8.3077446758e-01	 3.4488180282e-01
 8.8293264443e-01	 8.1266841052e-01	 5.0220743751e-01
 8.9956183969e-01	 7.9422194419e-01	 6.5444482551e-01
 9.1579540931e-01	 7.7544746330e-01	 7.9942368050e-01
 9.3162382510e-01	 7.5635775170e-01	 9.3494935669e-01
 9.4703811076e-01	 7.3696595362e-01	 1.0588175297e+00
 9.6202985844e-01	 7.1728554390e-01	 1.1688291667e+00
 9.7659124326e-01	 6.9733029735e-01	 1.2628056434e+00
 9.9071503595e-01	 6.7711425738e-01	 1.3386038609e+00
 1.0043946135e+00	 6.5665170407e-01	 1.3941312194e+00
 8.4410872006e-01	 8.4410872006e-01	 2.5405524332e-01
 8.6140789631e-01	 8.2644751723e-01	 4.2008599964e-01
 8.7833403691e-01	 8.0843576255e-01	 5.8171714472e-01
 8.9487662177e-01	 7.9008537156e-01	 7.3677048361e-01
 9.1102564155e-01	 7.7140867443e-01	 8.8303585017e-01
 9.2677161767e-01	 7.5241838841e-01	 1.0182854240e+00
 9.4210562060e-01	 7.3312758928e-01	 1.1402884345e+00
 9.5701928626e-01	 7.1354968170e-01	 1.2468261143e+00
 9.7150483053e-01	 6.9369836872e-01	 1.3357067584e+00
 9.8555506181e-01	 6.7358762062e-01	 1.4047807462e+00
 9.9916339151e-01	 6.5323164311e-01	 1.4519553834e+00
 8.3968930267e-01	 8.3968930267e-01	 3.2383889168e-01
 8.5689790732e-01	 8.2212056687e-01	 4.9594220617e-01
 8.7373542939e-01	 8.0420311457e-01	 6.6219446034e-01
 8.9019140386e-01	 7.8594879893e-01	 8.2037008488e-01
 9.0625587380e-01	 7.6736988555e-01	 9.6821818993e-01
 9.2191941025e-01	 7.4847902512e-01	 1.1034769509e+00
 9.3717313044e-01	 7.2928922494e-01	 1.2238883401e+00
 9.5200871408e-01	 7.0981381949e-01	 1.3272130666e+00
 9.6641841781e-01	 6.9006644008e-01	 1.4112455823e+00
 9.8039508766e-01	 6.7006098386e-01	 1.4738290126e+00
 9.9393216956e-01	 6.4981158215e-01	 1.5128698693e+00
 1.0462443890e+00	 6.8401219174e-01	 1.0350485663e+00
 1.0600249661e+00	 6.6245533523e-01	 1.1273769705e+00
 1.0733309490e+00	 6.4067204864e-01	 1.1805834489e+00
 1.0861573780e+00	 6.1867774337e-01	 1.2683145478e+00
 1.0984999480e+00	 5.9648794141e-01	 1.5083505451e+00
 1.1103550085e+00	 5.7411824134e-01	 1.7185203971e+00
 1.1217195625e+00	 5.5158428471e-01	 1.9027787029e+00
 1.1325912623e+00	 5.2890172287e-01	 2.0649788868e+00
 1.1429684046e+00	 5.0608618436e-01	 2.2088483159e+00
 1.1528499225e+00	 4.8315324302e-01	 2.3379654812e+00
 1.1622353763e+00	 4.6011838697e-01	 2.4557393789e+00
 1.0410131671e+00	 6.8059213078e-01	 1.0704526850e+00
 1.0547248413e+00	 6.5914305856e-01	 1.1530801941e+00
 1.0679642943e+00	 6.3746868840e-01	 1.1960074162e+00
 1.0807265911e+00	 6.1558435466e-01	 1.3133533623e+00
 1.0930074483e+00	 5.9350550170e-01	 1.5488742396e+00
 1.1048032335e+00	 5.7124765013e-01	 1.7537850785e+00
 1.1161109647e+00	 5.4882636328e-01	 1.9319742669e+00
 1.1269283060e+00	 5.2625721426e-01	 2.0872342072e+00
 1.1372535626e+00	 5.0355575344e-01	 2.2232367549e+00
 1.1470856729e+00	 4.8073747681e-01	 2.3435106751e+00
 1.1564241994e+00	 4.5781779503e-01	 2.4514212471e+00
 1.0357819451e+00	 6.7717206982e-01	 1.1084440966e+00
 1.0494247165e+00	 6.5583078188e-01	 1.1814536597e+00
 1.0625976395e+00	 6.3426532815e-01	 1.2141800579e+00
 1.0752958042e+00	 6.1249096594e-01	 1.3633993023e+00
 1.0875149485e+00	 5.9052306200e-01	 1.5942689664e+00
 1.0992514584e+00	 5.6837705892e-01	 1.7937823177e+00
 1.1105023669e+00	 5.4606844186e-01	 1.9657624863e+00
 1.1212653497e+00	 5.2361270564e-01	 2.1139417753e+00
 1.1315387206e+00	 5.0102532252e-01	 2.2419374166e+00
 1.1413214232e+00	 4.7832171060e-01	 2.3532292962e+00
 1.1506130225e+00	 4.5551720310e-01	 2.4511397816e+00
 1.0305507232e+00	 6.7375200887e-01	 1.1490825200e+00
 1.0441245916e+00	 6.5251850521e-01	 1.2125568824e+00
 1.0572309848e+00	 6.3106196791e-01	 1.2351605859e+00
 1.0698650174e+00	 6.0939757722e-01	 1.4184855462e+00
 1.0820224488e+00	 5.8754062229e-01	 1.6445692615e+00
 1.0936996834e+00	 5.6550646771e-01	 1.8385478983e+00
 1.1048937690e+00	 5.4331052043e-01	 2.0041802776e+00
 1.1156023934e+00	 5.2096819703e-01	 2.1451395217e+00
 1.1258238786e+00	 4.9849489160e-01	 2.2649891223e+00
 1.1355571736e+00	 4.7590594438e-01	 2.3671609311e+00
 1.1448018457e+00	 4.5321661117e-01	 2.4549352049e+00
 1.0253195012e+00	 6.7033194791e-01	 1.1924285311e+00
 1.0388244668e+00	 6.4920622853e-01	 1.2464502443e+00
 1.0518643300e+00	 6.2785860767e-01	 1.2590090874e+00
 1.0644342305e+00	 6.0630418850e-01	 1.4786461545e+00
 1.0765299490e+00	 5.8455818258e-01	 1.6998105484e+00
 1.0881479083e+00	 5.6263587650e-01	 1.8881184948e+00
 1.0992851712e+00	 5.4055259901e-01	 2.0472654498e+00
 1.1099394371e+00	 5.1832368841e-01	 2.1808662695e+00
 1.1201090365e+00	 4.9596446068e-01	 2.2924315849e+00
 1.1297929240e+00	 4.7349017817e-01	 2.3853460546e+00
 1.1389906688e+00	 4.5091601924e-01	 2.4628486235e+00
 1.0200882793e+00	 6.6691188695e-01	 1.2385435849e+00
 1.0335243420e+00	 6.4589395185e-01	 1.2831950170e+00
 1.0464976753e+00	 6.2465524742e-01	 1.2905089265e+00
 1.0590034436e+00	 6.0321079979e-01	 1.5439160925e+00
 1.0710374493e+00	 5.8157574287e-01	 1.7600291603e+00
 1.0825961333e+00	 5.5976528530e-01	 1.9425316950e+00
 1.0936765734e+00	 5.3779467758e-01	 2.0950567275e+00
 1.1042764808e+00	 5.1567917980e-01	 2.2211617575e+00
 1.1143941945e+00	 4.9343402975e-01	 2.3243054316e+00
 1.1240286744e+00	 4.7107441195e-01	 2.4078260530e+00
 1.1331794919e+00	 4.4861542730e-01	 2.4749220507e+00
 1.0148570573e+00	 6.6349182599e-01	 1.2874900382e+00
 1.0282242171e+00	 6.4258167517e-01	 1.3228533840e+00
 1.0411310205e+00	 6.2145188718e-01	 1.3654153156e+00
 1.0535726567e+00	 6.0011741107e-01	 1.6143312537e+00
 1.0655449495e+00	 5.7859330316e-01	 1.8252623641e+00
 1.0770443583e+00	 5.5689469409e-01	 2.0018260242e+00
 1.0880679756e+00	 5.3503675616e-01	 2.1475937745e+00
 1.0986135245e+00	 5.1303467118e-01	 2.2660666641e+00
 1.1086793525e+00	 4.9090359883e-01	 2.3606522274e+00
 1.1182644248e+00	 4.6865864574e-01	 2.4346432471e+00
 1.1273683150e+00	 4.4631483537e-01	 2.4911984295e+00
 1.0096258354e+00	 6.6007176503e-01	 1.3393311727e+00
 1.0229240923e+00	 6.3926939850e-01	 1.3654884651e+00
 1.0357643658e+00	 6.1824852693e-01	 1.4456291237e+00
 1.0481418698e+00	 5.9702402235e-01	 1.6899284837e+00
 1.0600524498e+00	 5.7561086345e-01	 1.8955483842e+00
 1.0714925832e+00	 5.5402410288e-01	 2.0660409687e+00
 1.0824593778e+00	 5.3227883473e-01	 2.2049172176e+00
 1.0929505681e+00	 5.1039016256e-01	 2.3156226308e+00
 1.1029645105e+00	 4.8837316791e-01	 2.4015144994e+00
 1.1125001752e+00	 4.6624287952e-01	 2.4658409168e+00
 1.1215571381e+00	 4.4401424343e-01	 2.5117216571e+00
 1.0043946135e+00	 6.5665170407e-01	 1.3941312194e+00
 1.0176239675e+00	 6.3595712182e-01	 1.4111643400e+00
 1.0303977110e+00	 6.1504516669e-01	 1.5311866754e+00
 1.0427110829e+00	 5.9393063363e-01	 1.7707456051e+00
 1.0545599501e+00	 5.7262842374e-01	 1.9709264278e+00
 1.0659408082e+00	 5.5115351167e-01	 2.1352170017e+00
 1.0768507800e+00	 5.2952091331e-01	 2.2670686723e+00
 1.0872876118e+00	 5.0774565395e-01	 2.3698722882e+00
 1.0972496684e+00	 4.8584273698e-01	 2.4469357619e+00
 1.1067359256e+00	 4.6382711330e-01	 2.5014633257e+00
 1.1157459613e+00	 4.4171365150e-01	 2.5365366098e+00
 9.9916339151e-01	 6.5323164311e-01	 1.4519553834e+00
 1.0123238426e+00	 6.3264484514e-01	 1.4599460740e+00
 1.0250310563e+00	 6.1184180644e-01	 1.6221252900e+00
 1.0372802960e+00	 5.9083724491e-01	 1.8568214430e+00
 1.0490674503e+00	 5.6964598403e-01	 2.0514367102e+00
 1.0603890331e+00	 5.4828292046e-01	 2.2093956082e+00
 1.0712421822e+00	 5.2676299188e-01	 2.3340907684e+00
 1.0816246555e+00	 5.0510114533e-01	 2.4288592814e+00
 1.0915348264e+00	 4.8331230606e-01	 2.4969605422e+00
 1.1009716760e+00	 4.6141134709e-01	 2.5415557474e+00
 1.1099347844e+00	 4.3941305956e-01	 2.5656891681e+00
 9.9393216956e-01	 6.4981158215e-01	 1.5128698693e+00
 1.0070237178e+00	 6.2933256846e-01	 1.5118997436e+00
 1.0196644015e+00	 6.0863844620e-01	 1.7184833081e+00
 1.0318495091e+00	 5.8774385619e-01	 1.9481958515e+00
 1.0435749506e+00	 5.6666354432e-01	 2.1371204818e+00
 1.0548372581e+00	 5.4541232925e-01	 2.2886193123e+00
 1.0656335844e+00	 5.2400507046e-01	 2.4060271768e+00
 1.0759616992e+00	 5.0245663671e-01	 2.4926282968e+00
 1.0858199844e+00	 4.8078187514e-01	 2.5516344074e+00
 1.0952074263e+00	 4.5899558087e-01	 2.5861644914e+00
 1.1041236075e+00	 4.3711246762e-01	 2.5992262438e+00
 1.1622353763e+00	 4.6011838697e-01	 2.4557393789e+00
 1.1711249430e+00	 4.3699698848e-01	 2.5555799779e+00
 1.1795194030e+00	 4.1380427497e-01	 2.6453670121e+00
 1.1874201265e+00	 3.9055530111e-01	 2.7267990763e+00
 1.1948290576e+00	 3.6726492215e-01	 2.8014088938e+00
 1.2017486977e+00	 3.4394776856e-01	 2.8705568008e+00
 1.2081820871e+00	 3.2061822211e-01	 2.9354262142e+00
 1.2141327860e+00	 2.9729039323e-01	 2.9970210273e+00
 1.2196048543e+00	 2.7397810005e-01	 3.0561648598e+00
 1.2246028306e+00	 2.5069484873e-01	 3.1135020682e+00
 1.2291317105e+00	 2.2745381552e-01	 3.1695004117e+00
 1.1564241994e+00	 4.5781779503e-01	 2.4514212471e+00
 1.1652693182e+00	 4.3481200354e-01	 2.5461143004e+00
 1.1736218060e+00	 4.1173525360e-01	 2.6307532010e+00
 1.1814830258e+00	 3.8860252461e-01	 2.7070054617e+00
 1.1888549123e+00	 3.6542859754e-01	 2.7763751862e+00
 1.1957399542e+00	 3.4222802973e-01	 2.8401966894e+00
 1.2021411767e+00	 3.1901513100e-01	 2.8996300711e+00
 1.2080621221e+00	 2.9580394127e-01	 2.9556586882e+00
 1.2135068300e+00	 2.7260820955e-01	 3.0090884502e+00
 1.2184798165e+00	 2.4944137449e-01	 3.0605488488e+00
 1.2229860520e+00	 2.2631654645e-01	 3.1104956149e+00
 1.1506130225e+00	 4.5551720310e-01	 2.4511397816e+00
 1.1594136935e+00	 4.3262701860e-01	 2.5405125360e+00
 1.1677242089e+00	 4.0966623223e-01	 2.6198453915e+00
 1.1755459252e+00	 3.8664974811e-01	 2.6907753353e+00
 1.1828807670e+00	 3.6359227294e-01	 2.7547783286e+00
 1.1897312107e+00	 3.4050829089e-01	 2.8131630636e+00
 1.1961002662e+00	 3.1741203990e-01	 2.8670666428e+00
 1.2019914581e+00	 2.9431748931e-01	 2.9174521276e+00
 1.2074088058e+00	 2.7123831906e-01	 2.9651078814e+00
 1.2123568023e+00	 2.4818790026e-01	 3.0106486194e+00
 1.2168403934e+00	 2.2517927738e-01	 3.0545180594e+00
 1.1448018457e+00	 4.5321661117e-01	 2.4549352049e+00
 1.1535580688e+00	 4.3044203366e-01	 2.5388148216e+00
 1.1618266119e+00	 4.0759721086e-01	 2.6126836747e+00
 1.1696088246e+00	 3.8469697161e-01	 2.6781487789e+00
 1.1769066217e+00	 3.6175594833e-01	 2.7366584282e+00
 1.1837224672e+00	 3.3878855205e-01	 2.7894960878e+00
 1.1900593558e+00	 3.1580894879e-01	 2.8377761799e+00
 1.1959207942e+00	 2.9283103735e-01	 2.8824417093e+00
 1.2013107815e+00	 2.6986842856e-01	 2.9242636554e+00
 1.2062337882e+00	 2.4693442602e-01	 2.9638420432e+00
 1.2106947349e+00	 2.2404200830e-01	 3.0016085906e+00
 1.1389906688e+00	 4.5091601924e-01	 2.4628486235e+00
 1.1477024441e+00	 4.2825704872e-01	 2.5410621601e+00
 1.1559290149e+00	 4.0552818949e-01	 2.6093089912e+00
 1.1636717239e+00	 3.8274419511e-01	 2.6691667103e+00
 1.1709324765e+00	 3.5991962373e-01	 2.7220564160e+00
 1.1777137238e+00	 3.3706881321e-01	 2.7692367399e+00
 1.1840184454e+00	 3.1420585769e-01	 2.8117997386e+00
 1.1898501303e+00	 2.9134458539e-01	 2.8506685970e+00
 1.1952127572e+00	 2.6849853807e-01	 2.8865970700e+00
 1.2001107740e+00	 2.4568095178e-01	 2.9201705771e+00
 1.2045490763e+00	 2.2290473923e-01	 2.9518088476e+00
 1.1331794919e+00	 4.4861542730e-01	 2.4749220507e+00
 1.1418468194e+00	 4.2607206378e-01	 2.5472964422e+00
 1.1500314179e+00	 4.0345916811e-01	 2.6097631535e+00
 1.1577346233e+00	 3.8079141860e-01	 2.6638709045e+00
 1.1649583312e+00	 3.5808329912e-01	 2.7110140680e+00
 1.1717049803e+00	 3.3534907437e-01	 2.7524268326e+00
 1.1779775349e+00	 3.1260276658e-01	 2.7891792018e+00
 1.1837794664e+00	 2.8985813343e-01	 2.8221747746e+00
 1.1891147330e+00	 2.6712864757e-01	 2.8521502393e+00
 1.1939877599e+00	 2.4442747754e-01	 2.8796764923e+00
 1.1984034177e+00	 2.2176747015e-01	 2.9051612834e+00
 1.1273683150e+00	 4.4631483537e-01	 2.4911984295e+00
 1.1359911947e+00	 4.2388707884e-01	 2.5575604698e+00
 1.1441338209e+00	 4.0139014674e-01	 2.6140888680e+00
 1.1517975227e+00	 3.7883864210e-01	 2.6623040157e+00
 1.1589841859e+00	 3.5624697451e-01	 2.7035740266e+00
 1.1656962368e+00	 3.3362933553e-01	 2.7391090349e+00
 1.1719366245e+00	 3.1099967547e-01	 2.7699573000e+00
 1.1777088024e+00	 2.8837168146e-01	 2.7970030676e+00
 1.1830167087e+00	 2.6575875707e-01	 2.8209661146e+00
 1.1878647457e+00	 2.4317400330e-01	 2.8424028948e+00
 1.1922577592e+00	 2.2063020108e-01	 2.8617091860e+00
 1.1215571381e+00	 4.4401424343e-01	 2.5117216571e+00
 1.1301355700e+00	 4.2170209389e-01	 2.5718979790e+00
 1.1382362239e+00	 3.9932112537e-01	 2.6223297584e+00
 1.1458604220e+00	 3.7688586560e-01	 2.6645096003e+00
 1.1530100406e+00	 3.5441064990e-01	 2.6997798238e+00
 1.1596874933e+00	 3.3190959669e-01	 2.7293268939e+00
 1.1658957141e+00	 3.0939658436e-01	 2.7541776337e+00
 1.1716381385e+00	 2.8688522950e-01	 2.7751971649e+00
 1.1769186844e+00	 2.6438886658e-01	 2.7930885063e+00
 1.1817417316e+00	 2.4192052905e-01	 2.8083937475e+00
 1.1861121006e+00	 2.1949293200e-01	 2.8214966999e+00
 1.1157459613e+00	 4.4171365150e-01	 2.5365366098e+00
 1.1242799452e+00	 4.1951710895e-01	 2.5903536653e+00
 1.1323386269e+00	 3.9725210399e-01	 2.6345303894e+00
 1.1399233214e+00	 3.7493308909e-01	 2.6705321403e+00
 1.1470358953e+00	 3.5257432529e-01	 2.6996759036e+00
 1.1536787498e+00	 3.3018985785e-01	 2.7231248581e+00
 1.1598548036e+00	 3.0779349325e-01	 2.7418846956e+00
 1.1655674746e+00	 2.8539877753e-01	 2.7568016410e+00
 1.1708206601e+00	 2.6301897608e-01	 2.7685621060e+00
 1.1756187174e+00	 2.4066705481e-01	 2.7776938923e+00
 1.1799664421e+00	 2.1835566292e-01	 2.7845688486e+00
 1.1099347844e+00	 4.3941305956e-01	 2.5656891681e+00
 1.1184243205e+00	 4.1733212401e-01	 2.6129732079e+00
 1.1264410298e+00	 3.9518308262e-01	 2.6507362916e+00
 1.1339862208e+00	 3.7298031259e-01	 2.6804170675e+00
 1.1410617500e+00	 3.5073800068e-01	 2.7033076462e+00
 1.1476700063e+00	 3.2847011901e-01	 2.7205483010e+00
 1.1538138932e+00	 3.0619040214e-01	 2.7331238944e+00
 1.1594968106e+00	 2.8391232557e-01	 2.7418619795e+00
 1.1647226359e+00	 2.6164908557e-01	 2.7474325098e+00
 1.1694957033e+00	 2.3941358057e-01	 2.7503490732e+00
 1.1738207835e+00	 2.1721839385e-01	 2.7509715572e+00
 1.1041236075e+00	 4.3711246762e-01	 2.5992262438e+00
 1.1125686958e+00	 4.1514713906e-01	 2.6398032958e+00
 1.1205434328e+00	 3.9311406124e-01	 2.6709939867e+00
 1.1280491202e+00	 3.7102753608e-01	 2.6942107883e+00
 1.1350876047e+00	 3.4890167607e-01	 2.7107213926e+00
 1.1416612628e+00	 3.2675038016e-01	 2.7216435450e+00
 1.1477729828e+00	 3.0458731103e-01	 2.7279415784e+00
 1.1534261467e+00	 2.8242587360e-01	 2.7304245969e+00
 1.1586246116e+00	 2.6027919507e-01	 2.7297462421e+00
 1.1633726891e+00	 2.3816010632e-01	 2.7264059601e+00
 1.1676751250e+00	 2.1608112477e-01	 2.7207516768e+00
 1.2291317105e+00	 2.2745381552e-01	 3.1695004117e+00
 1.2331969241e+00	 2.0426783021e-01	 3.3265326850e+00
 1.2368043131e+00	 1.8114936128e-01	 3.4462728012e+00
 1.2399601078e+00	 1.5811050247e-01	 3.5293715413e+00
 1.2426709033e+00	 1.3516296103e-01	 3.5764310148e+00
 1.2449436358e+00	 1.1231804737e-01	 3.5880063035e+00
 1.2467855586e+00	 8.9586666336e-02	 3.5646078305e+00
 1.2482042189e+00	 6.6979309859e-02	 3.5067043581e+00
 1.2492074333e+00	 4.4506051105e-02	 3.4147265183e+00
 1.2498032649e+00	 2.2176539980e-02	 3.2890707797e+00
 1.2500000000e+00	 0.0000000000e+00	 3.1301037586e+00
 1.2229860520e+00	 2.2631654645e-01	 3.1104956149e+00
 1.2270309394e+00	 2.0324649107e-01	 3.2624380081e+00
 1.2306202915e+00	 1.8024361448e-01	 3.3788630041e+00
 1.2337603073e+00	 1.5731994997e-01	 3.4604295548e+00
 1.2364575488e+00	 1.3448714623e-01	 3.5077429265e+00
 1.2387189176e+00	 1.1175645714e-01	 3.5213565267e+00
 1.2405516308e+00	 8.9138733008e-02	 3.5017744612e+00
 1.2419631978e+00	 6.6644413313e-02	 3.4494547252e+00
 1.2429613961e+00	 4.4283520851e-02	 3.3648129314e+00
 1.2435542486e+00	 2.2065657281e-02	 3.2482264776e+00
 1.2437500000e+00	 0.0000000000e+00	 3.1000390618e+00
 1.2168403934e+00	 2.2517927738e-01	 3.0545180594e+00
 1.2208649548e+00	 2.0222515192e-01	 3.2010987853e+00
 1.2244362700e+00	 1.7933786768e-01	 3.3139751180e+00
 1.2275605067e+00	 1.5652939746e-01	 3.3938139938e+00
 1.2302441943e+00	 1.3381133143e-01	 3.4412235399e+00
 1.2324941994e+00	 1.1119486691e-01	 3.4567550888e+00
 1.2343177030e+00	 8.8690799679e-02	 3.4409059293e+00
 1.2357221767e+00	 6.6309516766e-02	 3.3941226967e+00
 1.2367153590e+00	 4.4060990597e-02	 3.3168053049e+00
 1.2373052323e+00	 2.1954774582e-02	 3.2093113208e+00
 1.2375000000e+00	 0.0000000000e+00	 3.0719606903e+00
 1.2106947349e+00	 2.2404200830e-01	 3.0016085906e+00
 1.2146989702e+00	 2.0120381278e-01	 3.1425520576e+00
 1.2182522484e+00	 1.7843212088e-01	 3.2516427220e+00
 1.2213607062e+00	 1.5573884495e-01	 3.3295553171e+00
 1.2240308398e+00	 1.3313551663e-01	 3.3769005331e+00
 1.2262694812e+00	 1.1063327667e-01	 3.3942272243e+00
 1.2280837753e+00	 8.8242866349e-02	 3.3820253598e+00
 1.2294811556e+00	 6.5974620218e-02	 3.3407296191e+00
 1.2304693218e+00	 4.3838460342e-02	 3.2707235335e+00
 1.2310562160e+00	 2.1843891882e-02	 3.1723440750e+00
 1.2312500000e+00	 0.0000000000e+00	 3.0458865981e+00
 1.2045490763e+00	 2.2290473923e-01	 2.9518088476e+00
 1.2085329856e+00	 2.0018247363e-01	 3.0868355795e+00
 1.2120682268e+00	 1.7752637407e-01	 3.1919000370e+00
 1.2151609057e+00	 1.5494829244e-01	 3.2676845621e+00
 1.2178174853e+00	 1.3245970182e-01	 3.3148021080e+00
 1.2200447630e+00	 1.1007168644e-01	 3.3337986451e+00
 1.2218498475e+00	 8.7794933019e-02	 3.3251563172e+00
 1.2232401345e+00	 6.5639723670e-02	 3.2892972482e+00
 1.2242232846e+00	 4.3615930088e-02	 3.2265878994e+00
 1.2248071996e+00	 2.1733009183e-02	 3.1373438788e+00
 1.2250000000e+00	 0.0000000000e+00	 3.0218351057e+00
 1.1984034177e+00	 2.2176747015e-01	 2.9051612834e+00
 1.2023670010e+00	 1.9916113448e-01	 3.0339878373e+00
 1.2058842053e+00	 1.7662062727e-01	 3.1347819427e+00
 1.2089611051e+00	 1.5415773993e-01	 3.2082333602e+00
 1.2116041307e+00	 1.3178388702e-01	 3.2549570043e+00
 1.2138200449e+00	 1.0951009620e-01	 3.2754955532e+00
 1.2156159197e+00	 8.7346999688e-02	 3.2703228167e+00
 1.2169991134e+00	 6.5304827121e-02	 3.2398477596e+00
 1.2179772475e+00	 4.3393399833e-02	 3.1844190817e+00
 1.2185581833e+00	 2.1622126483e-02	 3.1043302533e+00
 1.2187500000e+00	 0.0000000000e+00	 2.9998249095e+00
 1.1922577592e+00	 2.2063020108e-01	 2.8617091860e+00
 1.1962010163e+00	 1.9813979533e-01	 2.9840480682e+00
 1.1997001837e+00	 1.7571488046e-01	 3.0803239941e+00
 1.2027613046e+00	 1.5336718742e-01	 3.1512339518e+00
 1.2053907762e+00	 1.3110807221e-01	 3.1973945130e+00
 1.2075953267e+00	 1.0894850596e-01	 3.2193446532e+00
 1.2093819919e+00	 8.6899066357e-02	 3.2175493358e+00
 1.2107580923e+00	 6.4969930572e-02	 3.1924037596e+00
 1.2117312103e+00	 4.3170869577e-02	 3.1442381669e+00
 1.2123091670e+00	 2.1511243783e-02	 3.0733231118e+00
 1.2125000000e+00	 0.0000000000e+00	 2.9798750913e+00
 1.1861121006e+00	 2.1949293200e-01	 2.8214966999e+00
 1.1900350317e+00	 1.9711845618e-01	 2.9370562793e+00
 1.1935161621e+00	 1.7480913366e-01	 3.0285624392e+00
 1.1965615041e+00	 1.5257663491e-01	 3.0967192020e+00
 1.1991774217e+00	 1.3043225741e-01	 3.1421444910e+00
 1.2013706085e+00	 1.0838691573e-01	 3.1653731651e+00
 1.2031480641e+00	 8.6451133025e-02	 3.1668608264e+00
 1.2045170712e+00	 6.4635034022e-02	 3.1469882963e+00
 1.2054851731e+00	 4.2948339321e-02	 3.1060666594e+00
 1.2060601507e+00	 2.1400361083e-02	 3.0443427705e+00
 1.2062500000e+00	 0.0000000000e+00	 2.9620051283e+00
 1.1799664421e+00	 2.1835566292e-01	 2.7845688486e+00
 1.1838690471e+00	 1.9609711703e-01	 2.8930532682e+00
 1.1873321406e+00	 1.7390338685e-01	 2.9795342368e+00
 1.1903617035e+00	 1.5178608239e-01	 3.0447226170e+00
 1.1929640672e+00	 1.2975644260e-01	 3.0892373754e+00
 1.1951458903e+00	 1.0782532549e-01	 3.1136088381e+00
 1.1969141363e+00	 8.6003199692e-02	 3.1182827269e+00
 1.1982760501e+00	 6.4300137472e-02	 3.1036248712e+00
 1.1992391360e+00	 4.2725809065e-02	 3.0699264927e+00
 1.1998111343e+00	 2.1289478383e-02	 3.0174099583e+00
 1.2000000000e+00	 0.0000000000e+00	 2.9462349037e+00
 1.1738207835e+00	 2.1721839385e-01	 2.7509715572e+00
 1.1777030625e+00	 1.9507577788e-01	 2.8520806434e+00
 1.1811481190e+00	 1.7299764004e-01	 2.9332770756e+00
 1.1841619030e+00	 1.5099552988e-01	 2.9952783609e+00
 1.1867507127e+00	 1.2908062780e-01	 3.0387041990e+00
 1.1889211722e+00	 1.0726373525e-01	 3.0640799641e+00
 1.1906802085e+00	 8.5555266359e-02	 3.0718409753e+00
 1.1920350290e+00	 6.3965240922e-02	 3.0623374509e+00
 1.1929930988e+00	 4.2503278809e-02	 3.0358400399e+00
 1.1935621180e+00	 2.1178595682e-02	 2.9925458282e+00
 1.1937500000e+00	 0.0000000000e+00	 2.9325847169e+00
 1.1676751250e+00	 2.1608112477e-01	 2.7207516768e+00
 1.1715370779e+00	 1.9405443872e-01	 2.8141808455e+00
 1.1749640974e+00	 1.7209189323e-01	 2.8898293927e+00
 1.1779621024e+00	 1.5020497736e-01	 2.9484212728e+00
 1.1805373582e+00	 1.2840481299e-01	 2.9905766060e+00
 1.1826964540e+00	 1.0670214501e-01	 3.0168153922e+00
 1.1844462807e+00	 8.5107333025e-02	 3.0275620221e+00
 1.1857940079e+00	 6.3630344370e-02	 3.0231504794e+00
 1.1867470616e+00	 4.2280748552e-02	 3.0038301262e+00
 1.1873131017e+00	 2.1067712982e-02	 2.9697719679e+00
 1.1875000000e+00	 0.0000000000e+00	 2.9210752946e+00
 0.0000000000e+00	 1.1875000000e+00	-3.4630210125e+00
 2.1067712982e-02	 1.1873131017e+00	-3.4881593848e+00
 4.2280748552e-02	 1.1867470616e+00	-3.5007718793e+00
 6.3630344370e-02	 1.1857940079e+00	-3.5005055967e+00
 8.5107333025e-02	 1.1844462807e+00	-3.4869334744e+00
 1.0670214501e-01	 1.1826964540e+00	-3.4595515151e+00
 1.2840481299e-01	 1.1805373582e+00	-3.4177766363e+00
 1.5020497736e-01	 1.1779621024e+00	-3.3609452163e+00
 1.7209189323e-01	 1.1749640974e+00	-3.2883124101e+00
 1.9405443872e-01	 1.1715370779e+00	-3.1990523038e+00
 2.1608112477e-01	 1.1676751250e+00	-3.0922589742e+00
 0.0000000000e+00	 1.1812500000e+00	-3.5561844982e+00
 2.0956830281e-02	 1.1810640854e+00	-3.5853644335e+00
 4.2058218295e-02	 1.1805010245e+00	-3.6011318533e+00
 6.3295447819e-02	 1.1795529868e+00	-3.6031641609e+00
 8.4659399691e-02	 1.1782123529e+00	-3.5910692463e+00
 1.0614055477e-01	 1.1764717358e+00	-3.5643827852e+00
 1.2772899818e-01	 1.1743240036e+00	-3.5225661351e+00
 1.4941442485e-01	 1.1717623019e+00	-3.4650049004e+00
 1.7118614642e-01	 1.1687800759e+00	-3.3910082388e+00
 1.9303309957e-01	 1.1653710933e+00	-3.2998089751e+00
 2.1494385569e-01	 1.1615294664e+00	-3.1905645878e+00
 0.0000000000e+00	 1.1750000000e+00	-3.6552097812e+00
 2.0845947581e-02	 1.1748150691e+00	-3.6881411410e+00
 4.1835688038e-02	 1.1742549873e+00	-3.7067788904e+00
 6.2960551269e-02	 1.1733119658e+00	-3.7108312211e+00
 8.4211466358e-02	 1.1719784251e+00	-3.6999414433e+00
 1.0557896453e-01	 1.1702470176e+00	-3.6736853544e+00
 1.2705318337e-01	 1.1681106491e+00	-3.6315691784e+00
 1.4862387233e-01	 1.1655625014e+00	-3.5730281486e+00
 1.7028039961e-01	 1.1625960543e+00	-3.4974258013e+00
 1.9201176042e-01	 1.1592051086e+00	-3.4040540473e+00
 2.1380658661e-01	 1.1553838079e+00	-3.2921340832e+00
 0.0000000000e+00	 1.1687500000e+00	-3.7602067977e+00
 2.0735064880e-02	 1.1685660527e+00	-3.7965948707e+00
 4.1613157782e-02	 1.1680089501e+00	-3.8178136908e+00
 6.2625654718e-02	 1.1670709447e+00	-3.8236027283e+00
 8.3763533025e-02	 1.1657444973e+00	-3.8136411881e+00
 1.0501737429e-01	 1.1640222994e+00	-3.7875454442e+00
 1.2637736857e-01	 1.1618972946e+00	-3.7448670210e+00
 1.4783331982e-01	 1.1593627008e+00	-3.6850911904e+00
 1.6937465281e-01	 1.1564120328e+00	-3.6076362511e+00
 1.9099042126e-01	 1.1530391240e+00	-3.5118535559e+00
 2.1266931753e-01	 1.1492381493e+00	-3.3970283449e+00
 0.0000000000e+00	 1.1625000000e+00	-3.8712878482e+00
 2.0624182180e-02	 1.1623170364e+00	-3.9108332575e+00
 4.1390627526e-02	 1.1617629130e+00	-3.9343391319e+00
 6.2290758169e-02	 1.1608299236e+00	-3.9415767166e+00
 8.3315599693e-02	 1.1595105695e+00	-3.9322615915e+00
 1.0445578406e-01	 1.1577975813e+00	-3.9060511689e+00
 1.2570155376e-01	 1.1556839401e+00	-3.8625427144e+00
 1.4704276731e-01	 1.1531629003e+00	-3.8012719560e+00
 1.6846890600e-01	 1.1502280112e+00	-3.7217123470e+00
 1.8996908211e-01	 1.1468731394e+00	-3.6232750461e+00
 2.1153204845e-01	 1.1430924908e+00	-3.5053096715e+00
 0.0000000000e+00	 1.1562500000e+00	-3.9885676612e+00
 2.0513299481e-02	 1.1560680201e+00	-4.0309662687e+00
 4.1168097271e-02	 1.1555168758e+00	-4.0564603273e+00
 6.1955861619e-02	 1.1545889025e+00	-4.0648533595e+00
 8.2867666361e-02	 1.1532766417e+00	-4.0558978061e+00
 1.0389419382e-01	 1.1515728631e+00	-4.0292925866e+00
 1.2502573896e-01	 1.1494705856e+00	-3.9846811558e+00
 1.4625221479e-01	 1.1469630997e+00	-3.9216501231e+00
 1.6756315919e-01	 1.1440439896e+00	-3.8397284966e+00
 1.8894774296e-01	 1.1407071548e+00	-3.7383876137e+00
 2.1039477937e-01	 1.1369468322e+00	-3.6170418147e+00
 0.0000000000e+00	 1.1500000000e+00	-4.1121634595e+00
 2.0402416781e-02	 1.1498190038e+00	-4.1571062680e+00
 4.0945567016e-02	 1.1492708386e+00	-4.1842846882e+00
 6.1620965070e-02	 1.1483478814e+00	-4.1935350277e+00
 8.2419733030e-02	 1.1470427139e+00	-4.1846470818e+00
 1.0333260358e-01	 1.1453481449e+00	-4.1573617520e+00
 1.2434992415e-01	 1.1432572311e+00	-4.1113691381e+00
 1.4546166228e-01	 1.1407632992e+00	-4.0463071638e+00
 1.6665741239e-01	 1.1378599681e+00	-3.9617608008e+00
 1.8792640381e-01	 1.1345411702e+00	-3.8572619473e+00
 2.0925751029e-01	 1.1308011737e+00	-3.7322900182e+00
 0.0000000000e+00	 1.1437500000e+00	-4.2421950280e+00
 2.0291534081e-02	 1.1435699874e+00	-4.2893680803e+00
 4.0723036761e-02	 1.1430248015e+00	-4.3179219853e+00
 6.1286068522e-02	 1.1421068603e+00	-4.3277263499e+00
 8.1971799699e-02	 1.1408087862e+00	-4.3186088229e+00
 1.0277101335e-01	 1.1391234267e+00	-4.2903527710e+00
 1.2367410935e-01	 1.1370438765e+00	-4.2426954014e+00
 1.4467110977e-01	 1.1345634987e+00	-4.1753263939e+00
 1.6575166558e-01	 1.1316759465e+00	-4.0878871007e+00
 1.8690506466e-01	 1.1283751855e+00	-3.9799703715e+00
 2.0812024122e-01	 1.1246555151e+00	-3.8511210584e+00
 0.0000000000e+00	 1.1375000000e+00	-4.3787847842e+00
 2.0180651382e-02	 1.1373209711e+00	-4.4278690597e+00
 4.0500506506e-02	 1.1367787643e+00	-4.4574844141e+00
 6.0951171974e-02	 1.1358658392e+00	-4.4675342738e+00
 8.1523866369e-02	 1.1345748584e+00	-4.4578846477e+00
 1.0220942311e-01	 1.1328987085e+00	-4.4283618569e+00
 1.2299829454e-01	 1.1308305220e+00	-4.3787506871e+00
 1.4388055726e-01	 1.1283636981e+00	-4.3087930235e+00
 1.6484591878e-01	 1.1254919249e+00	-4.2181870246e+00
 1.8588372551e-01	 1.1222092009e+00	-4.1065868920e+00
 2.0698297214e-01	 1.1185098566e+00	-3.9736032872e+00
 0.0000000000e+00	 1.1312500000e+00	-4.5220578511e+00
 2.0069768683e-02	 1.1310719548e+00	-4.5727291594e+00
 4.0277976252e-02	 1.1305327271e+00	-4.6030866619e+00
 6.0616275427e-02	 1.1296248181e+00	-4.6130681312e+00
 8.1075933039e-02	 1.1283409306e+00	-4.6025784493e+00
 1.0164783288e-01	 1.1266739904e+00	-4.5714873887e+00
 1.2232247974e-01	 1.1246171675e+00	-4.5196277925e+00
 1.4309000475e-01	 1.1221638976e+00	-4.4467942090e+00
 1.6394017197e-01	 1.1193079034e+00	-4.3527420380e+00
 1.8486238636e-01	 1.1160432163e+00	-4.2371872423e+00
 2.0584570306e-01	 1.1123641980e+00	-4.0998066747e+00
 0.0000000000e+00	 1.1250000000e+00	-4.6721421321e+00
 1.9958885984e-02	 1.1248229385e+00	-4.7240710036e+00
 4.0055445998e-02	 1.1242866900e+00	-4.7548459768e+00
 6.0281378879e-02	 1.1233837970e+00	-4.7644397036e+00
 8.0627999711e-02	 1.1221070028e+00	-4.7527964588e+00
 1.0108624264e-01	 1.1204492722e+00	-4.7198299715e+00
 1.2164666494e-01	 1.1184038130e+00	-4.6654216285e+00
 1.4229945224e-01	 1.1159640971e+00	-4.5894191078e+00
 1.6303442517e-01	 1.1131238818e+00	-4.4916354944e+00
 1.8384104721e-01	 1.1098772317e+00	-4.3718489312e+00
 2.0470843399e-01	 1.1062185395e+00	-4.2298028548e+00
 2.1608112477e-01	 1.1676751250e+00	-3.0922589742e+00
 2.3816011918e-01	 1.1633726840e+00	-3.0756332636e+00
 2.6027924701e-01	 1.1586245909e+00	-3.0473397656e+00
 2.8242599159e-01	 1.1534260997e+00	-3.0071256662e+00
 3.0458752281e-01	 1.1477728986e+00	-2.9546688844e+00
 3.2675071419e-01	 1.1416611302e+00	-2.8895805596e+00
 3.4890216149e-01	 1.1350874122e+00	-2.8114085493e+00
 3.7102820275e-01	 1.1280488559e+00	-2.7196419582e+00
 3.9311493966e-01	 1.1205430849e+00	-2.6137167049e+00
 4.1514826036e-01	 1.1125682519e+00	-2.4930221209e+00
 4.3711386353e-01	 1.1041230549e+00	-2.3569085649e+00
 2.1494385569e-01	 1.1615294664e+00	-3.1905645878e+00
 2.3690664486e-01	 1.1572496699e+00	-3.1671361004e+00
 2.5890935623e-01	 1.1525265667e+00	-3.1314856349e+00
 2.8093953901e-01	 1.1473554361e+00	-3.0833648749e+00
 3.0298443059e-01	 1.1417319886e+00	-3.0224586637e+00
 3.2503097359e-01	 1.1356523874e+00	-2.9483874804e+00
 3.4706583433e-01	 1.1291132679e+00	-2.8607109057e+00
 3.6907542274e-01	 1.1221117567e+00	-2.7589320971e+00
 3.9104591366e-01	 1.1146454897e+00	-2.6425032805e+00
 4.1296326952e-01	 1.1067126295e+00	-2.5108322533e+00
 4.3481326425e-01	 1.0983118809e+00	-2.3632898788e+00
 2.1380658661e-01	 1.1553838079e+00	-3.2921340832e+00
 2.3565317055e-01	 1.1511266557e+00	-3.2620133155e+00
 2.5753946546e-01	 1.1464285426e+00	-3.2191261513e+00
 2.7945308642e-01	 1.1412847724e+00	-3.1632284398e+00
 3.0138133836e-01	 1.1356910786e+00	-3.0940115659e+00
 3.2331123298e-01	 1.1296436446e+00	-3.0111049144e+00
 3.4522950716e-01	 1.1231391237e+00	-2.9140793052e+00
 3.6712264272e-01	 1.1161746575e+00	-2.8024514155e+00
 3.8897688766e-01	 1.1087478945e+00	-2.6756891982e+00
 4.1077827867e-01	 1.1008570071e+00	-2.5332182895e+00
 4.3251266496e-01	 1.0925007069e+00	-2.3744293873e+00
 2.1266931753e-01	 1.1492381493e+00	-3.3970283449e+00
 2.3439969624e-01	 1.1450036416e+00	-3.3603258467e+00
 2.5616957468e-01	 1.1403305184e+00	-3.3103222985e+00
 2.7796663383e-01	 1.1352141087e+00	-3.2467773846e+00
 2.9977824613e-01	 1.1296501686e+00	-3.1693886498e+00
 3.2159149238e-01	 1.1236349019e+00	-3.0777939528e+00
 3.4339317999e-01	 1.1171649794e+00	-2.9715748703e+00
 3.6516986271e-01	 1.1102375582e+00	-2.8502610682e+00
 3.8690786166e-01	 1.1028502994e+00	-2.7133356476e+00
 4.0859328783e-01	 1.0950013847e+00	-2.5602414591e+00
 4.3021206568e-01	 1.0866895330e+00	-2.3903883672e+00
 2.1153204845e-01	 1.1430924908e+00	-3.5053096715e+00
 2.3314622193e-01	 1.1388806275e+00	-3.4621360639e+00
 2.5479968391e-01	 1.1342324943e+00	-3.4051365109e+00
 2.7648018124e-01	 1.1291434450e+00	-3.3340742029e+00
 2.9817515391e-01	 1.1236092586e+00	-3.2486524645e+00
 3.1987175178e-01	 1.1176261591e+00	-3.1485171979e+00
 3.4155685283e-01	 1.1111908351e+00	-3.0332602561e+00
 3.6321708269e-01	 1.1043004590e+00	-2.9024237645e+00
 3.8483883566e-01	 1.0969527042e+00	-2.7555053960e+00
 4.0640829698e-01	 1.0891457624e+00	-2.5919645933e+00
 4.2791146640e-01	 1.0808783590e+00	-2.4112297215e+00
 2.1039477937e-01	 1.1369468322e+00	-3.6170418147e+00
 2.3189274761e-01	 1.1327576134e+00	-3.5675078080e+00
 2.5342979313e-01	 1.1281344701e+00	-3.5036327129e+00
 2.7499372865e-01	 1.1230727813e+00	-3.4251828981e+00
 2.9657206168e-01	 1.1175683486e+00	-3.3318670896e+00
 3.1815201118e-01	 1.1116174163e+00	-3.2233388037e+00
 3.3972052566e-01	 1.1052166909e+00	-3.0991996916e+00
 3.6126430268e-01	 1.0983633598e+00	-2.9590038109e+00
 3.8276980967e-01	 1.0910551090e+00	-2.8022628314e+00
 4.0422330614e-01	 1.0832901400e+00	-2.6284521680e+00
 4.2561086712e-01	 1.0750671850e+00	-2.4370180230e+00
 2.0925751029e-01	 1.1308011737e+00	-3.7322900182e+00
 2.3063927330e-01	 1.1266345992e+00	-3.6765064305e+00
 2.5205990236e-01	 1.1220364459e+00	-3.6058763592e+00
 2.7350727607e-01	 1.1170021177e+00	-3.5201690244e+00
 2.9496896946e-01	 1.1115274386e+00	-3.4190981763e+00
 3.1643227058e-01	 1.1056086735e+00	-3.3023245184e+00
 3.3788419850e-01	 1.0992425466e+00	-3.1694590229e+00
 3.5931152266e-01	 1.0924262605e+00	-3.0200671542e+00
 3.8070078367e-01	 1.0851575138e+00	-2.8536740065e+00
 4.0203831530e-01	 1.0774345176e+00	-2.6697703488e+00
 4.2331026784e-01	 1.0692560111e+00	-2.4678195593e+00
 2.0812024122e-01	 1.1246555151e+00	-3.8511210584e+00
 2.2938579899e-01	 1.1205115851e+00	-3.7891988353e+00
 2.5069001159e-01	 1.1159384218e+00	-3.7119344767e+00
 2.7202082348e-01	 1.1109314540e+00	-3.6190997289e+00
 2.9336587723e-01	 1.1054865286e+00	-3.5104129909e+00
 3.1471252998e-01	 1.0995999307e+00	-3.3855417274e+00
 3.3604787133e-01	 1.0932684023e+00	-3.2441057565e+00
 3.5735874265e-01	 1.0864891613e+00	-3.0856814260e+00
 3.7863175767e-01	 1.0792599186e+00	-2.9098066837e+00
 3.9985332445e-01	 1.0715788952e+00	-2.7159870368e+00
 4.2100966856e-01	 1.0634448371e+00	-2.5037023802e+00
 2.0698297214e-01	 1.1185098566e+00	-3.9736032872e+00
 2.2813232468e-01	 1.1143885710e+00	-3.9056535208e+00
 2.4932012081e-01	 1.1098403976e+00	-3.8218757075e+00
 2.7053437089e-01	 1.1048607903e+00	-3.7220437958e+00
 2.9176278501e-01	 1.0994456186e+00	-3.6058804589e+00
 3.1299278938e-01	 1.0935911879e+00	-3.4730594989e+00
 3.3421154416e-01	 1.0872942580e+00	-3.3232091061e+00
 3.5540596263e-01	 1.0805520620e+00	-3.1559159896e+00
 3.7656273167e-01	 1.0733623235e+00	-2.9707303827e+00
 3.9766833361e-01	 1.0657232729e+00	-2.7671719166e+00
 4.1870906928e-01	 1.0576336631e+00	-2.5447363461e+00
 2.0584570306e-01	 1.1123641980e+00	-4.0998066747e+00
 2.2687885037e-01	 1.1082655569e+00	-4.0259406244e+00
 2.4795023004e-01	 1.1037423734e+00	-3.9357703540e+00
 2.6904791831e-01	 1.0987901266e+00	-3.8290716913e+00
 2.9015969278e-01	 1.0934047087e+00	-3.7055712111e+00
 3.1127304878e-01	 1.0875824451e+00	-3.5649486298e+00
 3.3237521700e-01	 1.0813201138e+00	-3.4068400385e+00
 3.5345318262e-01	 1.0746149628e+00	-3.2308419876e+00
 3.7449370568e-01	 1.0674647283e+00	-3.0365164287e+00
 3.9548334277e-01	 1.0598676505e+00	-2.8233965055e+00
 4.1640847000e-01	 1.0518224891e+00	-2.5909931773e+00
 2.0470843399e-01	 1.1062185395e+00	-4.2298028548e+00
 2.2562537606e-01	 1.1021425427e+00	-4.1501319678e+00
 2.4658033927e-01	 1.0976443493e+00	-4.0536904244e+00
 2.6756146572e-01	 1.0927194629e+00	-3.9402556105e+00
 2.8855660056e-01	 1.0873637987e+00	-3.8095576305e+00
 3.0955330818e-01	 1.0815737023e+00	-3.6612816943e+00
 3.3053888984e-01	 1.0753459695e+00	-3.4950713233e+00
 3.5150040261e-01	 1.0686778635e+00	-3.3105323911e+00
 3.7242467968e-01	 1.0615671331e+00	-3.1072380027e+00
 3.9329835193e-01	 1.0540120281e+00	-2.8847342041e+00
 4.1410787072e-01	 1.0460113152e+00	-2.6425465068e+00
 4.3711386353e-01	 1.1041230549e+00	-2.3569085649e+00
 4.5899670840e-01	 1.0952069831e+00	-2.2871856863e+00
 4.8078273316e-01	 1.0858196575e+00	-2.2041483279e+00
 5.0245722444e-01	 1.0759614955e+00	-2.1056084908e+00
 5.2400538745e-01	 1.0656335106e+00	-1.9893217135e+00
 5.4541237542e-01	 1.0548373212e+00	-1.8530036897e+00
 5.6666331993e-01	 1.0435751574e+00	-1.6943479014e+00
 5.8774336188e-01	 1.0318498663e+00	-1.5110441279e+00
 6.0863768297e-01	 1.0196649157e+00	-1.3007976774e+00
 6.2933153768e-01	 1.0070243955e+00	-1.1361356406e+00
 6.4981028556e-01	 9.9393301725e-01	-1.2261465283e+00
 4.3481326425e-01	 1.0983118809e+00	-2.3632898788e+00
 4.5658093625e-01	 1.0894427359e+00	-2.2878694048e+00
 4.7825229772e-01	 1.0801048172e+00	-2.1992950107e+00
 4.9981271273e-01	 1.0702985402e+00	-2.0955412912e+00
 5.2124746435e-01	 1.0600249132e+00	-1.9745286252e+00
 5.4254178396e-01	 1.0492855459e+00	-1.8341390157e+00
 5.6368088140e-01	 1.0380826566e+00	-1.6722329121e+00
 5.8464997576e-01	 1.0264190775e+00	-1.4866668809e+00
 6.0543432674e-01	 1.0142982583e+00	-1.2753119766e+00
 6.2601926643e-01	 1.0017242671e+00	-1.0538198577e+00
 6.4639023142e-01	 9.8870179084e-01	-1.1457452681e+00
 4.3251266496e-01	 1.0925007069e+00	-2.3744293873e+00
 4.5416516410e-01	 1.0836784886e+00	-2.2929335248e+00
 4.7572186228e-01	 1.0743899769e+00	-2.1984516156e+00
 4.9716820102e-01	 1.0646355850e+00	-2.0891211258e+00
 5.1848954126e-01	 1.0544163158e+00	-1.9630275287e+00
 5.3967119251e-01	 1.0437337705e+00	-1.8182193687e+00
 5.6069844288e-01	 1.0325901557e+00	-1.6527242721e+00
 5.8155658965e-01	 1.0209882887e+00	-1.4645657812e+00
 6.0223097051e-01	 1.0089316008e+00	-1.2517808643e+00
 6.2270699518e-01	 9.9642413874e-01	-1.0124379492e+00
 6.4297017728e-01	 9.8347056444e-01	-1.0656420806e+00
 4.3021206568e-01	 1.0866895330e+00	-2.3903883672e+00
 4.5174939195e-01	 1.0779142413e+00	-2.3024303150e+00
 4.7319142684e-01	 1.0686751366e+00	-2.2016614644e+00
 4.9452368932e-01	 1.0589726298e+00	-2.0863824497e+00
 5.1573161817e-01	 1.0488077184e+00	-1.9548441136e+00
 5.3680060106e-01	 1.0381819951e+00	-1.8052617930e+00
 5.5771600435e-01	 1.0270976549e+00	-1.6358305214e+00
 5.7846320353e-01	 1.0155575000e+00	-1.4447410247e+00
 5.9902761428e-01	 1.0035649434e+00	-1.2301963727e+00
 6.1939472392e-01	 9.9112401035e-01	-9.9042913771e-01
 6.3955012315e-01	 9.7823933803e-01	-9.8581524282e-01
 4.2791146640e-01	 1.0808783590e+00	-2.4112297215e+00
 4.4933361980e-01	 1.0721499940e+00	-2.3164135000e+00
 4.7066099140e-01	 1.0629602963e+00	-2.2089691657e+00
 4.9187917761e-01	 1.0533096745e+00	-2.0873608389e+00
 5.1297369507e-01	 1.0431991209e+00	-1.9500050256e+00
 5.3393000961e-01	 1.0326302197e+00	-1.7952841277e+00
 5.5473356582e-01	 1.0216051541e+00	-1.6215608355e+00
 5.7536981741e-01	 1.0101267112e+00	-1.4271932871e+00
 5.9582425805e-01	 9.9819828592e-01	-1.2105508616e+00
 6.1608245267e-01	 9.8582388195e-01	-9.7003046367e-01
 6.3613006901e-01	 9.7300811162e-01	-9.0624306695e-01
 4.2561086712e-01	 1.0750671850e+00	-2.4370180230e+00
 4.4691784765e-01	 1.0663857468e+00	-2.3349382990e+00
 4.6813055597e-01	 1.0572454560e+00	-2.2204206503e+00
 4.8923466590e-01	 1.0476467193e+00	-2.0920930199e+00
 5.1021577198e-01	 1.0375905235e+00	-1.9485378926e+00
 5.3105941816e-01	 1.0270784444e+00	-1.7883050276e+00
 5.5175112730e-01	 1.0161126533e+00	-1.6099250428e+00
 5.7227643130e-01	 1.0046959224e+00	-1.4119237373e+00
 5.9262090183e-01	 9.9283162847e-01	-1.1928370278e+00
 6.1277018142e-01	 9.8052375355e-01	-9.5122635942e-01
 6.3271001488e-01	 9.6777688522e-01	-8.2690390200e-01
 4.2331026784e-01	 1.0692560111e+00	-2.4678195593e+00
 4.4450207550e-01	 1.0606214995e+00	-2.3580614673e+00
 4.6560012053e-01	 1.0515306157e+00	-2.2360632068e+00
 4.8659015419e-01	 1.0419837640e+00	-2.1006169018e+00
 5.0745784889e-01	 1.0319819261e+00	-1.9504713514e+00
 5.2818882671e-01	 1.0215266690e+00	-1.7843439859e+00
 5.4876868877e-01	 1.0106201524e+00	-1.6009336422e+00
 5.6918304518e-01	 9.9926513368e-01	-1.3989340505e+00
 5.8941754560e-01	 9.8746497102e-01	-1.1770479140e+00
 6.0945791017e-01	 9.7522362516e-01	-9.3400144682e-01
 6.2928996074e-01	 9.6254565881e-01	-7.4777613448e-01
 4.2100966856e-01	 1.0634448371e+00	-2.5037023802e+00
 4.4208630335e-01	 1.0548572522e+00	-2.3858413376e+00
 4.6306968509e-01	 1.0458157754e+00	-2.2559455188e+00
 4.8394564249e-01	 1.0363208088e+00	-2.1129716079e+00
 5.0469992580e-01	 1.0263733287e+00	-1.9558350752e+00
 5.2531823527e-01	 1.0159748936e+00	-1.7834213568e+00
 5.4578625025e-01	 1.0051276516e+00	-1.5945978214e+00
 5.6608965907e-01	 9.9383434491e-01	-1.3882264221e+00
 5.8621418938e-01	 9.8209831357e-01	-1.1631769181e+00
 6.0614563892e-01	 9.6992349676e-01	-9.1834054244e-01
 6.2586990661e-01	 9.5731443240e-01	-6.6883818948e-01
 4.1870906928e-01	 1.0576336631e+00	-2.5447363461e+00
 4.3967053121e-01	 1.0490930049e+00	-2.4183378638e+00
 4.6053924966e-01	 1.0401009351e+00	-2.2801177033e+00
 4.8130113078e-01	 1.0306578536e+00	-2.1291975093e+00
 5.0194200271e-01	 1.0207647313e+00	-1.9646598016e+00
 5.2244764382e-01	 1.0104231183e+00	-1.7855583789e+00
 5.4280381172e-01	 9.9963515077e-01	-1.5909294762e+00
 5.6299627296e-01	 9.8840355614e-01	-1.3798035819e+00
 5.8301083315e-01	 9.7673165612e-01	-1.1512178033e+00
 6.0283336767e-01	 9.6462336836e-01	-9.0422866292e-01
 6.2244985247e-01	 9.5208320600e-01	-6.3792519395e-01
 4.1640847000e-01	 1.0518224891e+00	-2.5909931773e+00
 4.3725475906e-01	 1.0433287576e+00	-2.4556126652e+00
 4.5800881422e-01	 1.0343860948e+00	-2.3086313502e+00
 4.7865661908e-01	 1.0249948983e+00	-2.1493362595e+00
 4.9918407962e-01	 1.0151561338e+00	-1.9769773631e+00
 5.1957705237e-01	 1.0048713429e+00	-1.7907772004e+00
 5.3982137320e-01	 9.9414264995e-01	-1.5899412295e+00
 5.5990288684e-01	 9.8297276737e-01	-1.3736688091e+00
 5.7980747693e-01	 9.7136499867e-01	-1.1411647080e+00
 5.9952109642e-01	 9.5932323996e-01	-8.9165103049e-01
 6.1902979834e-01	 9.4685197959e-01	-6.2437943306e-01
 4.1410787072e-01	 1.0460113152e+00	-2.6425465068e+00
 4.3483898691e-01	 1.0375645104e+00	-2.4977290736e+00
 4.5547837879e-01	 1.0286712545e+00	-2.3415395633e+00
 4.7601210737e-01	 1.0193319431e+00	-2.1734308300e+00
 4.9642615654e-01	 1.0095475364e+00	-1.9928207163e+00
 5.1670646093e-01	 9.9931956751e-01	-1.7991009035e+00
 5.3683893468e-01	 9.8865014912e-01	-1.5916464518e+00
 5.5680950073e-01	 9.7754197860e-01	-1.3698259473e+00
 5.7660412071e-01	 9.6599834122e-01	-1.1330121560e+00
 5.9620882517e-01	 9.5402311157e-01	-8.8059307867e-01
 6.1560974421e-01	 9.4162075318e-01	-6.1198328848e-01
 6.4981028556e-01	 9.9393301725e-01	-1.2261465283e+00
 6.7005992928e-01	 9.8039577715e-01	-1.0993199691e+00
 6.9006560359e-01	 9.6641896479e-01	-9.6337787158e-01
 7.0981317671e-01	 9.5200913450e-01	-8.1921021889e-01
 7.2928875108e-01	 9.3717344047e-01	-6.6781537898e-01
 7.4847869501e-01	 9.2191962632e-01	-5.1029673512e-01
 7.6736967367e-01	 9.0625601256e-01	-3.4785820768e-01
 7.8594867943e-01	 8.9019148217e-01	-1.8179868317e-01
 8.0420306133e-01	 8.7373546430e-01	-1.3505380786e-02
 8.2212055353e-01	 8.5689791608e-01	 1.5555379972e-01
 8.3968930267e-01	 8.3968930267e-01	 3.2383889168e-01
 6.4639023142e-01	 9.8870179084e-01	-1.1457452681e+00
 6.6653329807e-01	 9.7523579938e-01	-1.0212148885e+00
 6.8643367936e-01	 9.6133254919e-01	-8.8679096296e-01
 7.0607731788e-01	 9.4699856010e-01	-7.4337555091e-01
 7.2545038923e-01	 9.3224094868e-01	-5.9198092104e-01
 7.4453933345e-01	 9.1706741776e-01	-4.3372614700e-01
 7.6333088591e-01	 9.0148624407e-01	-2.6983259254e-01
 7.8181210743e-01	 8.8550626384e-01	-1.0161830230e-01
 7.9997041364e-01	 8.6913685659e-01	 6.9508671256e-02
 8.1779360325e-01	 8.5238792704e-01	 2.4205796089e-01
 8.3526988529e-01	 8.3526988529e-01	 4.1446554023e-01
 6.4297017728e-01	 9.8347056444e-01	-1.0656420806e+00
 6.6300666686e-01	 9.7007582160e-01	-9.4335798509e-01
 6.8280175513e-01	 9.5624613358e-01	-8.1038524687e-01
 7.0234145905e-01	 9.4198798571e-01	-6.6763810182e-01
 7.2161202738e-01	 9.2730845688e-01	-5.1614288370e-01
 7.4059997190e-01	 9.1221520920e-01	-3.5703458518e-01
 7.5929209815e-01	 8.9671647558e-01	-1.9155230582e-01
 7.7767553543e-01	 8.8082104551e-01	-2.1033603779e-02
 7.9573776594e-01	 8.6453824888e-01	 1.5309221818e-01
 8.1346665297e-01	 8.4787793801e-01	 3.2931184831e-01
 8.3085046790e-01	 8.3085046790e-01	 5.0603666570e-01
 6.3955012315e-01	 9.7823933803e-01	-9.8581524282e-01
 6.5948003565e-01	 9.6491584383e-01	-8.6572594842e-01
 6.7916983090e-01	 9.5115971798e-01	-7.3413569695e-01
 6.9860560023e-01	 9.3697741132e-01	-5.9197100275e-01
 7.1777366553e-01	 9.2237596509e-01	-4.4027243149e-01
 7.3666061035e-01	 9.0736300064e-01	-2.8019112618e-01
 7.5525331039e-01	 8.9194670709e-01	-1.1298421757e-01
 7.7353896343e-01	 8.7613582718e-01	 5.9990864144e-02
 7.9150511825e-01	 8.5993964117e-01	 2.3728314551e-01
 8.0913970268e-01	 8.4336794897e-01	 4.1735588972e-01
 8.2643105052e-01	 8.2643105052e-01	 5.9859534275e-01
 6.3613006901e-01	 9.7300811162e-01	-9.0624306695e-01
 6.5595340445e-01	 9.5975586605e-01	-7.8829547397e-01
 6.7553790667e-01	 9.4607330237e-01	-6.5801725893e-01
 6.9486974140e-01	 9.3196683692e-01	-5.1634731925e-01
 7.1393530368e-01	 9.1744347330e-01	-3.6434062181e-01
 7.3272124879e-01	 9.0251079208e-01	-2.0316469406e-01
 7.5121452264e-01	 8.8717693860e-01	-3.4094996299e-02
 7.6940239143e-01	 8.7145060885e-01	 1.4149080748e-01
 7.8727247056e-01	 8.5534103346e-01	 3.2211964931e-01
 8.0481275240e-01	 8.3885795994e-01	 5.0623088317e-01
 8.2201163314e-01	 8.2201163314e-01	 6.9218507944e-01
 6.3271001488e-01	 9.6777688522e-01	-8.2690390200e-01
 6.5242677324e-01	 9.5459588828e-01	-7.1104326316e-01
 6.7190598244e-01	 9.4098688677e-01	-5.8200484992e-01
 6.9113388257e-01	 9.2695626253e-01	-4.4074004953e-01
 7.1009694183e-01	 9.1251098150e-01	-2.8831840207e-01
 7.2878188724e-01	 8.9765858351e-01	-1.2592405631e-01
 7.4717573488e-01	 8.8240717011e-01	 4.5148896447e-02
 7.6526581944e-01	 8.6676539052e-01	 2.2350219338e-01
 7.8303982286e-01	 8.5074242575e-01	 4.0764024465e-01
 8.0048580211e-01	 8.3434797090e-01	 5.9597800705e-01
 8.1759221575e-01	 8.1759221575e-01	 7.8684982900e-01
 6.2928996074e-01	 9.6254565881e-01	-7.4777613448e-01
 6.4890014203e-01	 9.4943591050e-01	-6.3394602361e-01
 6.6827405820e-01	 9.3590047116e-01	-5.0607335754e-01
 6.8739802375e-01	 9.2194568813e-01	-3.6512212266e-01
 7.0625857998e-01	 9.0757848971e-01	-2.1217660670e-01
 7.2484252568e-01	 8.9280637495e-01	-4.8437819621e-02
 7.4313694712e-01	 8.7763740162e-01	 1.2478121174e-01
 7.6112924744e-01	 8.6208017219e-01	 3.0606125725e-01
 7.7880717517e-01	 8.4614381804e-01	 4.9388377420e-01
 7.9615885183e-01	 8.2983798187e-01	 6.8663883042e-01
 8.1317279836e-01	 8.1317279836e-01	 8.8263400188e-01
 6.2586990661e-01	 9.5731443240e-01	-6.6883818948e-01
 6.4537351082e-01	 9.4427593273e-01	-5.5698046922e-01
 6.6464213398e-01	 9.3081405556e-01	-4.3019763923e-01
 6.8366216492e-01	 9.1693511374e-01	-2.8946639662e-01
 7.0242021813e-01	 9.0264599792e-01	-1.3588595407e-01
 7.2090316413e-01	 8.8795416639e-01	 2.9325574573e-02
 7.3909815936e-01	 8.7286763313e-01	 2.0483591907e-01
 7.5699267544e-01	 8.5739495386e-01	 3.8920451005e-01
 7.7457452748e-01	 8.4154521033e-01	 5.8088941724e-01
 7.9183190155e-01	 8.2532799284e-01	 7.7825532368e-01
 8.0875338098e-01	 8.0875338098e-01	 9.7958247826e-01
 6.2244985247e-01	 9.5208320600e-01	-6.3792519395e-01
 6.4184687962e-01	 9.3911595495e-01	-4.8012332040e-01
 6.6101020975e-01	 9.2572763995e-01	-3.5435252134e-01
 6.7992630610e-01	 9.1192453935e-01	-2.1374565642e-01
 6.9858185629e-01	 8.9771350612e-01	-5.9417043253e-02
 7.1696380257e-01	 8.8310195783e-01	 1.0739785457e-01
 7.3505937160e-01	 8.6809786464e-01	 2.8534721233e-01
 7.5285610344e-01	 8.5270973553e-01	 4.7296874590e-01
 7.7034187978e-01	 8.3694660262e-01	 6.6869669885e-01
 7.8750495126e-01	 8.2081800380e-01	 8.7086986962e-01
 8.0433396359e-01	 8.0433396359e-01	 1.0777406210e+00
 6.1902979834e-01	 9.4685197959e-01	-6.2437943306e-01
 6.3832024841e-01	 9.3395597718e-01	-4.0335130426e-01
 6.5737828552e-01	 9.2064122435e-01	-2.7851279827e-01
 6.7619044727e-01	 9.0691396495e-01	-1.3793261201e-01
 6.9474349444e-01	 8.9278101433e-01	 1.7259649198e-02
 7.1302444102e-01	 8.7824974927e-01	 1.8581092313e-01
 7.3102058385e-01	 8.6332809615e-01	 3.6634951604e-01
 7.4871953144e-01	 8.4802451720e-01	 5.5739104987e-01
 7.6610923209e-01	 8.3234799491e-01	 7.5734549952e-01
 7.8317800098e-01	 8.1630801477e-01	 9.6452527476e-01
 7.9991454621e-01	 7.9991454621e-01	 1.1771542888e+00
 6.1560974421e-01	 9.4162075318e-01	-6.1198328848e-01
 6.3479361721e-01	 9.2879599940e-01	-3.2664115474e-01
 6.5374636129e-01	 9.1555480874e-01	-2.0265323164e-01
 6.7245458845e-01	 9.0190339056e-01	-6.1999896257e-02
 6.9090513259e-01	 8.8784852253e-01	 9.4173772706e-02
 7.0908507947e-01	 8.7339754070e-01	 2.6459686229e-01
 7.2698179609e-01	 8.5855832766e-01	 4.4787749173e-01
 7.4458295944e-01	 8.4333929887e-01	 6.4250880608e-01
 7.6187658440e-01	 8.2774938720e-01	 8.4687606500e-01
 7.7885105069e-01	 8.1179802573e-01	 1.0592647812e+00
 7.9549512882e-01	 7.9549512882e-01	 1.2778698502e+00
 8.3968930267e-01	 8.3968930267e-01	 3.2383889168e-01
 8.5689790732e-01	 8.2212056687e-01	 4.9594220617e-01
 8.7373542939e-01	 8.0420311457e-01	 6.6219446034e-01
 8.9019140386e-01	 7.8594879893e-01	 8.2037008488e-01
 9.0625587380e-01	 7.6736988555e-01	 9.6821818993e-01
 9.2191941025e-01	 7.4847902512e-01	 1.1034769509e+00
 9.3717313044e-01	 7.2928922494e-01	 1.2238883401e+00
 9.5200871408e-01	 7.0981381949e-01	 1.3272130666e+00
 9.6641841781e-01	 6.9006644008e-01	 1.4112455823e+00
 9.8039508766e-01	 6.7006098386e-01	 1.4738290126e+00
 9.9393216956e-01	 6.4981158215e-01	 1.5128698693e+00
 8.3526988529e-01	 8.3526988529e-01	 4.1446554023e-01
 8.5238791834e-01	 8.1779361652e-01	 5.9206269909e-01
 8.6913682186e-01	 7.9997046660e-01	 7.6146206163e-01
 8.8550618594e-01	 7.8181222631e-01	 9.2039693227e-01
 9.0148610604e-01	 7.6333109668e-01	 1.0665851988e+00
 9.1706720283e-01	 7.4453966182e-01	 1.1977437393e+00
 9.3224064028e-01	 7.2545086059e-01	 1.3116031166e+00
 9.4699814190e-01	 7.0607795728e-01	 1.4059224239e+00
 9.6133200508e-01	 6.8643451145e-01	 1.4785041416e+00
 9.7523511351e-01	 6.6653434710e-01	 1.5272088648e+00
 9.8870094762e-01	 6.4639152119e-01	 1.5499697639e+00
 8.3085046790e-01	 8.3085046790e-01	 5.0603666570e-01
 8.4787792935e-01	 8.1346666617e-01	 6.8944856462e-01
 8.6453821433e-01	 7.9573781862e-01	 8.6229812892e-01
 8.8082096802e-01	 7.7767565368e-01	 1.0222767182e+00
 8.9671633828e-01	 7.5929230781e-01	 1.1670702140e+00
 9.1221499540e-01	 7.4060029853e-01	 1.2943734511e+00
 9.2730815012e-01	 7.2161249625e-01	 1.4019048792e+00
 9.4198756972e-01	 7.0234209507e-01	 1.4874213169e+00
 9.5624559236e-01	 6.8280258282e-01	 1.5487326626e+00
 9.7007513937e-01	 6.6300771034e-01	 1.5837164228e+00
 9.8346972567e-01	 6.4297146023e-01	 1.5903319216e+00
 8.2643105052e-01	 8.2643105052e-01	 5.9859534275e-01
 8.4336794036e-01	 8.0913971581e-01	 7.8814742535e-01
 8.5993960681e-01	 7.9150517065e-01	 9.6475443076e-01
 8.7613575010e-01	 7.7353908105e-01	 1.1260649489e+00
 8.9194657052e-01	 7.5525351893e-01	 1.2697320658e+00
 9.0736278798e-01	 7.3666093524e-01	 1.3934278235e+00
 9.2237565995e-01	 7.1777413190e-01	 1.4948578515e+00
 9.3697699754e-01	 6.9860623286e-01	 1.5717760335e+00
 9.5115917963e-01	 6.7917065418e-01	 1.6219990754e+00
 9.6491516522e-01	 6.5948107358e-01	 1.6434208367e+00
 9.7823850373e-01	 6.3955139927e-01	 1.6340262926e+00
 8.2201163314e-01	 8.2201163314e-01	 6.9218507944e-01
 8.3885795137e-01	 8.0481276546e-01	 8.8820744239e-01
 8.5534099928e-01	 7.8727252268e-01	 1.0688833716e+00
 8.7145053219e-01	 7.6940250842e-01	 1.2318178560e+00
 8.8717680276e-01	 7.5121473006e-01	 1.3746303917e+00
 9.0251058055e-01	 7.3272157195e-01	 1.4949694741e+00
 9.1744316979e-01	 7.1393576756e-01	 1.5905272028e+00
 9.3196642536e-01	 6.9487037065e-01	 1.6590538646e+00
 9.4607276690e-01	 6.7553872555e-01	 1.6983723615e+00
 9.5975519108e-01	 6.5595443682e-01	 1.7063923482e+00
 9.7300728178e-01	 6.3613133831e-01	 1.6811239500e+00
 8.1759221575e-01	 8.1759221575e-01	 7.8684982900e-01
 8.3434796238e-01	 8.0048581510e-01	 9.8967732983e-01
 8.5074239176e-01	 7.8303987470e-01	 1.1747380088e+00
 8.6676531427e-01	 7.6526593579e-01	 1.3395924161e+00
 8.8240703500e-01	 7.4717594119e-01	 1.4818256579e+00
 8.9765837313e-01	 7.2878220866e-01	 1.5990619250e+00
 9.1251067963e-01	 7.1009740322e-01	 1.6889790741e+00
 9.2695585318e-01	 6.9113450844e-01	 1.7493231313e+00
 9.4098635418e-01	 6.7190679692e-01	 1.7779225822e+00
 9.5459521693e-01	 6.5242780007e-01	 1.7727023202e+00
 9.6777605984e-01	 6.3271127735e-01	 1.7316971206e+00
 8.1317279836e-01	 8.1317279836e-01	 8.8263400188e-01
 8.2983797339e-01	 7.9615886475e-01	 1.0926063698e+00
 8.4614378423e-01	 7.7880722673e-01	 1.2823720709e+00
 8.6208009635e-01	 7.6112936317e-01	 1.4494463714e+00
 8.7763726724e-01	 7.4313715231e-01	 1.5913791824e+00
 8.9280616570e-01	 7.2484284536e-01	 1.7057696272e+00
 9.0757818947e-01	 7.0625903887e-01	 1.7902806042e+00
 9.2194528100e-01	 6.8739864623e-01	 1.8426532122e+00
 9.3589994145e-01	 6.6827486828e-01	 1.8607209082e+00
 9.4943524278e-01	 6.4890116331e-01	 1.8424232669e+00
 9.6254483789e-01	 6.2929121639e-01	 1.7858192164e+00
 8.0875338098e-01	 8.0875338098e-01	 9.7958247826e-01
 8.2532798440e-01	 7.9183191439e-01	 1.1970444281e+00
 8.4154517671e-01	 7.7457457876e-01	 1.3918399750e+00
 8.5739487843e-01	 7.5699279054e-01	 1.5614382501e+00
 8.7286749948e-01	 7.3909836344e-01	 1.7033531575e+00
 8.8795395828e-01	 7.2090348207e-01	 1.8151579863e+00
 9.0264569931e-01	 7.0242067453e-01	 1.8944999569e+00
 9.1693470881e-01	 6.8366278402e-01	 1.9391145731e+00
 9.3081352872e-01	 6.6464293965e-01	 1.9468396494e+00
 9.4427526864e-01	 6.4537452655e-01	 1.9156288857e+00
 9.5731361595e-01	 6.2587115543e-01	 1.8435648661e+00
 8.0433396359e-01	 8.0433396359e-01	 1.0777406210e+00
 8.2081799542e-01	 7.8750496404e-01	 1.3030419700e+00
 8.3694656918e-01	 7.7034193078e-01	 1.5031968469e+00
 8.5270966052e-01	 7.5285621791e-01	 1.6756273883e+00
 8.6809773172e-01	 7.3505957457e-01	 1.8178106745e+00
 8.8310175085e-01	 7.1696411878e-01	 1.9272933883e+00
 8.9771320914e-01	 6.9858231019e-01	 2.0017063494e+00
 9.1192413663e-01	 6.7992692181e-01	 2.0387787965e+00
 9.2572711600e-01	 6.6101101102e-01	 2.0363522867e+00
 9.3911529449e-01	 6.4184788980e-01	 1.9923940894e+00
 9.5208239400e-01	 6.2245109447e-01	 1.9520828672e+00
 7.9991454621e-01	 7.9991454621e-01	 1.1771542888e+00
 8.1630800643e-01	 7.8317801368e-01	 1.4106500769e+00
 8.3234796165e-01	 7.6610928281e-01	 1.6164985395e+00
 8.4802444260e-01	 7.4871964528e-01	 1.7920739523e+00
 8.6332796396e-01	 7.3102078569e-01	 1.9348157481e+00
 8.7824954343e-01	 7.1302475549e-01	 2.0422432269e+00
 8.9278071898e-01	 6.9474394585e-01	 2.1119700814e+00
 9.0691356445e-01	 6.7619105960e-01	 2.1417186124e+00
 9.2064070327e-01	 6.5737908239e-01	 2.1293335043e+00
 9.3395532034e-01	 6.3832125304e-01	 2.0727950397e+00
 9.4685117206e-01	 6.1903103352e-01	 2.0824472319e+00
 7.9549512882e-01	 7.9549512882e-01	 1.2778698502e+00
 8.1179801744e-01	 7.7885106333e-01	 1.5199204637e+00
 8.2774935413e-01	 7.6187663484e-01	 1.7318016539e+00
 8.4333922468e-01	 7.4458307265e-01	 1.9108389616e+00
 8.5855819620e-01	 7.2698199682e-01	 2.0544333424e+00
 8.7339733600e-01	 7.0908539220e-01	 2.1600759315e+00
 8.8784822882e-01	 6.9090558150e-01	 2.2253625649e+00
 9.0190299227e-01	 6.7245519740e-01	 2.2480079303e+00
 9.1555429054e-01	 6.5374715376e-01	 2.2258592227e+00
 9.2879534620e-01	 6.3479461628e-01	 2.1569091824e+00
 9.4161995011e-01	 6.1561097256e-01	 2.2189086446e+00
 9.9393216956e-01	 6.4981158215e-01	 1.5128698693e+00
 1.0070237178e+00	 6.2933256846e-01	 1.5118997436e+00
 1.0196644015e+00	 6.0863844620e-01	 1.7184833081e+00
 1.0318495091e+00	 5.8774385619e-01	 1.9481958515e+00
 1.0435749506e+00	 5.6666354432e-01	 2.1371204818e+00
 1.0548372581e+00	 5.4541232925e-01	 2.2886193123e+00
 1.0656335844e+00	 5.2400507046e-01	 2.4060271768e+00
 1.0759616992e+00	 5.0245663671e-01	 2.4926282968e+00
 1.0858199844e+00	 4.8078187514e-01	 2.5516344074e+00
 1.0952074263e+00	 4.5899558087e-01	 2.5861644914e+00
 1.1041236075e+00	 4.3711246762e-01	 2.5992262438e+00
 9.8870094762e-01	 6.4639152119e-01	 1.5499697639e+00
 1.0017235930e+00	 6.2602029178e-01	 1.5321385719e+00
 1.0142977468e+00	 6.0543508595e-01	 1.7787678794e+00
 1.0264187222e+00	 5.8465046747e-01	 1.9981925999e+00
 1.0380824509e+00	 5.6368110461e-01	 2.1774964954e+00
 1.0492854831e+00	 5.4254173804e-01	 2.3199603944e+00
 1.0600249865e+00	 5.2124714903e-01	 2.4288377563e+00
 1.0702987429e+00	 4.9981212810e-01	 2.5073318533e+00
 1.0801051424e+00	 4.7825144421e-01	 2.5585743902e+00
 1.0894431767e+00	 4.5657981465e-01	 2.5856057033e+00
 1.0983124306e+00	 4.3481187569e-01	 2.5913566604e+00
 9.8346972567e-01	 6.4297146023e-01	 1.5903319216e+00
 9.9642346816e-01	 6.2270801510e-01	 1.5929085533e+00
 1.0089310921e+00	 6.0223172570e-01	 1.8446070610e+00
 1.0209879353e+00	 5.8155707875e-01	 2.0536574116e+00
 1.0325899511e+00	 5.6069866490e-01	 2.2232638315e+00
 1.0437337080e+00	 5.3967114683e-01	 2.3566265874e+00
 1.0544163887e+00	 5.1848922760e-01	 2.4569184322e+00
 1.0646357866e+00	 4.9716761948e-01	 2.5272623012e+00
 1.0743903004e+00	 4.7572101329e-01	 2.5707104204e+00
 1.0836789271e+00	 4.5416404844e-01	 2.5902249686e+00
 1.0925012537e+00	 4.3251128375e-01	 2.5886604117e+00
 9.7823850373e-01	 6.3955139927e-01	 1.6340262926e+00
 9.9112334333e-01	 6.1939573843e-01	 1.6755696091e+00
 1.0035644373e+00	 5.9902836546e-01	 1.9160433102e+00
 1.0155571485e+00	 5.7846369003e-01	 2.1146347832e+00
 1.0270974514e+00	 5.5771622520e-01	 2.2744691324e+00
 1.0381819330e+00	 5.3680055563e-01	 2.3986667763e+00
 1.0488077909e+00	 5.1573130618e-01	 2.4903204222e+00
 1.0589728303e+00	 4.9452311087e-01	 2.5524732710e+00
 1.0686754583e+00	 4.7319058237e-01	 2.5880986135e+00
 1.0779146775e+00	 4.5174828222e-01	 2.6000809523e+00
 1.0866900769e+00	 4.3021069181e-01	 2.5911987678e+00
 9.7300728178e-01	 6.3613133831e-01	 1.6811239500e+00
 9.8582321850e-01	 6.1608346175e-01	 1.7639630580e+00
 9.9819778257e-01	 5.9582500522e-01	 1.9931202379e+00
 1.0101263616e+00	 5.7537030132e-01	 2.1811703845e+00
 1.0216049516e+00	 5.5473378549e-01	 2.3311602356e+00
 1.0326301579e+00	 5.3392996442e-01	 2.4461310670e+00
 1.0431991931e+00	 5.1297338476e-01	 2.5290961916e+00
 1.0533098740e+00	 4.9187860225e-01	 2.5830196714e+00
 1.0629606163e+00	 4.7066015144e-01	 2.6107963964e+00
 1.0721504279e+00	 4.4933251600e-01	 2.6152336657e+00
 1.0808789000e+00	 4.2791009988e-01	 2.5990343828e+00
 9.6777605984e-01	 6.3271127735e-01	 1.7316971206e+00
 9.8052309367e-01	 6.1277118507e-01	 1.8581317369e+00
 9.9283112783e-01	 5.9262164497e-01	 2.0758826397e+00
 1.0046955747e+00	 5.7227691260e-01	 2.2533110901e+00
 1.0161124519e+00	 5.5175134578e-01	 2.3933862063e+00
 1.0270783829e+00	 5.3105937321e-01	 2.4990708182e+00
 1.0375905953e+00	 5.1021546333e-01	 2.5732994878e+00
 1.0476469177e+00	 4.8923409364e-01	 2.6189577241e+00
 1.0572457743e+00	 4.6812972052e-01	 2.6388625427e+00
 1.0663861783e+00	 4.4691674979e-01	 2.6357445033e+00
 1.0750677231e+00	 4.2560950794e-01	 2.6122313324e+00
 9.6254483789e-01	 6.2929121639e-01	 1.7858192164e+00
 9.7522296884e-01	 6.0945890840e-01	 1.9581196818e+00
 9.8746447308e-01	 5.8941828473e-01	 2.1643765280e+00
 9.9926478779e-01	 5.6918352388e-01	 2.3311050120e+00
 1.0106199522e+00	 5.4876890608e-01	 2.4611973707e+00
 1.0215266079e+00	 5.2818878201e-01	 2.5575386764e+00
 1.0319819975e+00	 5.0745754191e-01	 2.6229853749e+00
 1.0419839614e+00	 4.8658958502e-01	 2.6603449995e+00
 1.0515309323e+00	 4.6559928960e-01	 2.6723572093e+00
 1.0606219287e+00	 4.4450098358e-01	 2.6616762798e+00
 1.0692565462e+00	 4.2330891601e-01	 2.6308551526e+00
 9.5731361595e-01	 6.2587115543e-01	 1.8435648661e+00
 9.6992284401e-01	 6.0614663172e-01	 2.0639721609e+00
 9.8209781834e-01	 5.8621492449e-01	 2.2586491654e+00
 9.9383400090e-01	 5.6609013517e-01	 2.4146015333e+00
 1.0051274524e+00	 5.4578646637e-01	 2.5346453503e+00
 1.0159748328e+00	 5.2531819080e-01	 2.6215886106e+00
 1.0263733997e+00	 5.0469962049e-01	 2.6782102695e+00
 1.0363210051e+00	 4.8394507641e-01	 2.7072404535e+00
 1.0458160903e+00	 4.6306885868e-01	 2.7113419739e+00
 1.0548576791e+00	 4.4208521736e-01	 2.6930932694e+00
 1.0634453694e+00	 4.2100832408e-01	 2.6549728792e+00
 9.5208239400e-01	 6.2245109447e-01	 1.9520828672e+00
 9.6462271918e-01	 6.0283435505e-01	 2.1757357084e+00
 9.7673116360e-01	 5.8301156425e-01	 2.3587490990e+00
 9.8840321401e-01	 5.6299674645e-01	 2.5038513437e+00
 9.9963495269e-01	 5.4280402667e-01	 2.6137830978e+00
 1.0104230578e+00	 5.2244759960e-01	 2.6912759487e+00
 1.0207648019e+00	 5.0194169907e-01	 2.7390319781e+00
 1.0306580487e+00	 4.8130056780e-01	 2.7597044655e+00
 1.0401012482e+00	 4.6053842776e-01	 2.7558798748e+00
 1.0490934295e+00	 4.3966945115e-01	 2.7300612457e+00
 1.0576341925e+00	 4.1870773214e-01	 2.6846530894e+00
 9.4685117206e-01	 6.1903103352e-01	 2.0824472319e+00
 9.5932259435e-01	 5.9952207837e-01	 2.2934581594e+00
 9.7136450885e-01	 5.7980820401e-01	 2.4647261959e+00
 9.8297242713e-01	 5.5990335774e-01	 2.5989064747e+00
 9.9414245295e-01	 5.3982158696e-01	 2.6986649336e+00
 1.0048712827e+00	 5.1957700840e-01	 2.7666574151e+00
 1.0151562041e+00	 4.9918377765e-01	 2.8055097353e+00
 1.0249950924e+00	 4.7865605919e-01	 2.8177988778e+00
 1.0343864062e+00	 4.5800799684e-01	 2.8060354504e+00
 1.0433291799e+00	 4.3725368494e-01	 2.7726475228e+00
 1.0518230156e+00	 4.1640714021e-01	 2.7199659443e+00
 9.4161995011e-01	 6.1561097256e-01	 2.2189086446e+00
 9.5402246952e-01	 5.9620980170e-01	 2.4171886863e+00
 9.6599785411e-01	 5.7660484377e-01	 2.5766316798e+00
 9.7754164024e-01	 5.5680996903e-01	 2.6998203378e+00
 9.8864995321e-01	 5.3683914726e-01	 2.7893465840e+00
 9.9931950769e-01	 5.1670641719e-01	 2.8477911694e+00
 1.0095476063e+00	 4.9642585623e-01	 2.8777042436e+00
 1.0193321361e+00	 4.7601155058e-01	 2.8815870364e+00
 1.0286715642e+00	 4.5547756592e-01	 2.8618747813e+00
 1.0375649302e+00	 4.3483791872e-01	 2.8209209989e+00
 1.0460118387e+00	 4.1410654828e-01	 2.7609832327e+00
 1.1041236075e+00	 4.3711246762e-01	 2.5992262438e+00
 1.1125686958e+00	 4.1514713906e-01	 2.6398032958e+00
 1.1205434328e+00	 3.9311406124e-01	 2.6709939867e+00
 1.1280491202e+00	 3.7102753608e-01	 2.6942107883e+00
 1.1350876047e+00	 3.4890167607e-01	 2.7107213926e+00
 1.1416612628e+00	 3.2675038016e-01	 2.7216435450e+00
 1.1477729828e+00	 3.0458731103e-01	 2.7279415784e+00
 1.1534261467e+00	 2.8242587360e-01	 2.7304245969e+00
 1.1586246116e+00	 2.6027919507e-01	 2.7297462421e+00
 1.1633726891e+00	 2.3816010632e-01	 2.7264059601e+00
 1.1676751250e+00	 2.1608112477e-01	 2.7207516768e+00
 1.0983124306e+00	 4.3481187569e-01	 2.5913566604e+00
 1.1067130711e+00	 4.1296215412e-01	 2.6292743316e+00
 1.1146458358e+00	 3.9104503986e-01	 2.6577017070e+00
 1.1221120195e+00	 3.6907475957e-01	 2.6780500566e+00
 1.1291134595e+00	 3.4706535145e-01	 2.6915876237e+00
 1.1356525194e+00	 3.2503064132e-01	 2.6994344887e+00
 1.1417320723e+00	 3.0298421992e-01	 2.7025591110e+00
 1.1473554828e+00	 2.8093942163e-01	 2.7017765001e+00
 1.1525265873e+00	 2.5890930457e-01	 2.6977479494e+00
 1.1572496750e+00	 2.3690663208e-01	 2.6909822526e+00
 1.1615294664e+00	 2.1494385569e-01	 2.6818383106e+00
 1.0925012537e+00	 4.3251128375e-01	 2.5886604117e+00
 1.1008574464e+00	 4.1077716918e-01	 2.6236377764e+00
 1.1087482388e+00	 3.8897601849e-01	 2.6490344776e+00
 1.1161749189e+00	 3.6712198306e-01	 2.6662613259e+00
 1.1231393142e+00	 3.4522902684e-01	 2.6765877806e+00
 1.1296437759e+00	 3.2331090248e-01	 2.6811368421e+00
 1.1356911619e+00	 3.0138112881e-01	 2.6808816014e+00
 1.1412848189e+00	 2.7945296966e-01	 2.6766433989e+00
 1.1464285631e+00	 2.5753941407e-01	 2.6690915261e+00
 1.1511266608e+00	 2.3565315783e-01	 2.6587443923e+00
 1.1553838079e+00	 2.1380658661e-01	 2.6459720652e+00
 1.0866900769e+00	 4.3021069181e-01	 2.5911987678e+00
 1.0950018217e+00	 4.0859218423e-01	 2.6229529036e+00
 1.1028506418e+00	 3.8690699711e-01	 2.6450496090e+00
 1.1102378183e+00	 3.6516920656e-01	 2.6588999788e+00
 1.1171651689e+00	 3.4339270223e-01	 2.6657753536e+00
 1.1236350324e+00	 3.2159116363e-01	 2.6668022394e+00
 1.1296502515e+00	 2.9977803769e-01	 2.6629588650e+00
 1.1352141549e+00	 2.7796651770e-01	 2.6550733278e+00
 1.1403305388e+00	 2.5616952357e-01	 2.6438232647e+00
 1.1450036467e+00	 2.3439968359e-01	 2.6297369698e+00
 1.1492381493e+00	 2.1266931753e-01	 2.6131958704e+00
 1.0808789000e+00	 4.2791009988e-01	 2.5990343828e+00
 1.0891461970e+00	 4.0640719929e-01	 2.6272803102e+00
 1.0969530448e+00	 3.8483797574e-01	 2.6458056774e+00
 1.1043007176e+00	 3.6321643005e-01	 2.6560226078e+00
 1.1111910236e+00	 3.4155637762e-01	 2.6592049890e+00
 1.1176262889e+00	 3.1987142479e-01	 2.6564834194e+00
 1.1236093410e+00	 2.9817494658e-01	 2.6488417722e+00
 1.1291434910e+00	 2.7648006573e-01	 2.6371153293e+00
 1.1342325145e+00	 2.5479963307e-01	 2.6219904211e+00
 1.1388806325e+00	 2.3314620934e-01	 2.6040054969e+00
 1.1430924908e+00	 2.1153204845e-01	 2.5835535368e+00
 1.0750677231e+00	 4.2560950794e-01	 2.6122313324e+00
 1.0832905723e+00	 4.0422221435e-01	 2.6366819533e+00
 1.0910554478e+00	 3.8276895436e-01	 2.6513625593e+00
 1.0983636170e+00	 3.6126365355e-01	 2.6576870478e+00
 1.1052168783e+00	 3.3972005301e-01	 2.6569325202e+00
 1.1116175454e+00	 3.1815168595e-01	 2.6502342546e+00
 1.1175684306e+00	 2.9657185547e-01	 2.6385822767e+00
 1.1230728271e+00	 2.7499361376e-01	 2.6228194810e+00
 1.1281344903e+00	 2.5342974257e-01	 2.6036412406e+00
 1.1327576184e+00	 2.3189273510e-01	 2.5815964310e+00
 1.1369468322e+00	 2.1039477937e-01	 2.5570897803e+00
 1.0692565462e+00	 4.2330891601e-01	 2.6308551526e+00
 1.0774349476e+00	 4.0203722941e-01	 2.6512211862e+00
 1.0851578508e+00	 3.8069993299e-01	 2.6617814664e+00
 1.0924265164e+00	 3.5931087704e-01	 2.6639524099e+00
 1.0992427330e+00	 3.3788372840e-01	 2.6590149997e+00
 1.1056088019e+00	 3.1643194710e-01	 2.6481097825e+00
 1.1115275202e+00	 2.9496876436e-01	 2.6322334450e+00
 1.1170021632e+00	 2.7350716180e-01	 2.6122369235e+00
 1.1220364660e+00	 2.5205985207e-01	 2.5888249841e+00
 1.1266346042e+00	 2.3063926085e-01	 2.5625572010e+00
 1.1308011737e+00	 2.0925751029e-01	 2.5338502460e+00
 1.0634453694e+00	 4.2100832408e-01	 2.6549728792e+00
 1.0715793228e+00	 3.9985224446e-01	 2.6709627976e+00
 1.0792602537e+00	 3.7863091161e-01	 2.6771249821e+00
 1.0864894158e+00	 3.5735810054e-01	 2.6748791163e+00
 1.0932685878e+00	 3.3604740379e-01	 2.6655107332e+00
 1.0996000584e+00	 3.1471220826e-01	 2.6501662375e+00
 1.1054866097e+00	 2.9336567325e-01	 2.6298494869e+00
 1.1109314992e+00	 2.7202070983e-01	 2.6054198898e+00
 1.1159384417e+00	 2.5068996157e-01	 2.5775919567e+00
 1.1205115901e+00	 2.2938578661e-01	 2.5469362340e+00
 1.1246555151e+00	 2.0812024122e-01	 2.5138815340e+00
 1.0576341925e+00	 4.1870773214e-01	 2.6846530894e+00
 1.0657236981e+00	 3.9766725952e-01	 2.6959730501e+00
 1.0733626567e+00	 3.7656189024e-01	 2.6974570996e+00
 1.0805523151e+00	 3.5540532403e-01	 2.6905289362e+00
 1.0872944425e+00	 3.3421107918e-01	 2.6764793131e+00
 1.0935913150e+00	 3.1299246942e-01	 2.6564610833e+00
 1.0994456993e+00	 2.9176258214e-01	 2.6314857866e+00
 1.1048608353e+00	 2.7053425787e-01	 2.6024217350e+00
 1.1098404175e+00	 2.4932007107e-01	 2.5699935360e+00
 1.1143885759e+00	 2.2813231237e-01	 2.5347829823e+00
 1.1185098566e+00	 2.0698297214e-01	 2.4972312256e+00
 1.0518230156e+00	 4.1640714021e-01	 2.7199659443e+00
 1.0598680734e+00	 3.9548227458e-01	 2.7263197213e+00
 1.0674650597e+00	 3.7449286886e-01	 2.7228432604e+00
 1.0746152145e+00	 3.5345254753e-01	 2.7109650234e+00
 1.0813202972e+00	 3.3237475457e-01	 2.6919816547e+00
 1.0875825715e+00	 3.1127273057e-01	 2.6670530474e+00
 1.0934047889e+00	 2.9015949103e-01	 2.6371989356e+00
 1.0987901714e+00	 2.6904780590e-01	 2.6032969676e+00
 1.1037423932e+00	 2.4795018057e-01	 2.5660822014e+00
 1.1082655617e+00	 2.2687883812e-01	 2.5261479523e+00
 1.1123641980e+00	 2.0584570306e-01	 2.4839479103e+00
 1.0460118387e+00	 4.1410654828e-01	 2.7609832327e+00
 1.0540124487e+00	 3.9329728964e-01	 2.7620721462e+00
 1.0615674627e+00	 3.7242384749e-01	 2.7533503947e+00
 1.0686781139e+00	 3.5149977102e-01	 2.7362519544e+00
 1.0753461519e+00	 3.3053842996e-01	 2.7120800326e+00
 1.0815738280e+00	 3.0955299173e-01	 2.6820021559e+00
 1.0873638784e+00	 2.8855639992e-01	 2.6470467660e+00
 1.0927195074e+00	 2.6756135393e-01	 2.6081012813e+00
 1.0976443689e+00	 2.4658029007e-01	 2.5659115654e+00
 1.1021425476e+00	 2.2562536388e-01	 2.5210827333e+00
 1.1062185395e+00	 2.0470843399e-01	 2.4740812137e+00
 1.1676751250e+00	 2.1608112477e-01	 2.7207516768e+00
 1.1715370779e+00	 1.9405443872e-01	 2.8141808455e+00
 1.1749640974e+00	 1.7209189323e-01	 2.8898293927e+00
 1.1779621024e+00	 1.5020497736e-01	 2.9484212728e+00
 1.1805373582e+00	 1.2840481299e-01	 2.9905766060e+00
 1.1826964540e+00	 1.0670214501e-01	 3.0168153922e+00
 1.1844462807e+00	 8.5107333025e-02	 3.0275620221e+00
 1.1857940079e+00	 6.3630344370e-02	 3.0231504794e+00
 1.1867470616e+00	 4.2280748552e-02	 3.0038301262e+00
 1.1873131017e+00	 2.1067712982e-02	 2.9697719679e+00
 1.1875000000e+00	 0.0000000000e+00	 2.9210752946e+00
 1.1615294664e+00	 2.1494385569e-01	 2.6818383106e+00
 1.1653710933e+00	 1.9303309957e-01	 2.7694595396e+00
 1.1687800759e+00	 1.7118614642e-01	 2.8398572594e+00
 1.1717623019e+00	 1.4941442485e-01	 2.8937422685e+00
 1.1743240036e+00	 1.2772899818e-01	 2.9317216697e+00
 1.1764717358e+00	 1.0614055477e-01	 2.9543026164e+00
 1.1782123529e+00	 8.4659399691e-02	 2.9618968453e+00
 1.1795529868e+00	 6.3295447819e-02	 2.9548258905e+00
 1.1805010245e+00	 4.2058218295e-02	 2.9333268744e+00
 1.1810640854e+00	 2.0956830281e-02	 2.8975587699e+00
 1.1812500000e+00	 0.0000000000e+00	 2.8476090327e+00
 1.1553838079e+00	 2.1380658661e-01	 2.6459720652e+00
 1.1592051086e+00	 1.9201176042e-01	 2.7277383919e+00
 1.1625960543e+00	 1.7028039961e-01	 2.7928615901e+00
 1.1655625014e+00	 1.4862387233e-01	 2.8420390417e+00
 1.1681106491e+00	 1.2705318337e-01	 2.8758644998e+00
 1.1702470176e+00	 1.0557896453e-01	 2.8948318695e+00
 1.1719784251e+00	 8.4211466358e-02	 2.8993397676e+00
 1.1733119658e+00	 6.2960551269e-02	 2.8896967539e+00
 1.1742549873e+00	 4.1835688038e-02	 2.8661271306e+00
 1.1748150691e+00	 2.0845947581e-02	 2.8287772072e+00
 1.1750000000e+00	 0.0000000000e+00	 2.7777219292e+00
 1.1492381493e+00	 2.1266931753e-01	 2.6131958704e+00
 1.1530391240e+00	 1.9099042126e-01	 2.6890599059e+00
 1.1564120328e+00	 1.6937465281e-01	 2.7488845981e+00
 1.1593627008e+00	 1.4783331982e-01	 2.7933536497e+00
 1.1618972946e+00	 1.2637736857e-01	 2.8230471279e+00
 1.1640222994e+00	 1.0501737429e-01	 2.8384452858e+00
 1.1657444973e+00	 8.3763533025e-02	 2.8399331515e+00
 1.1670709447e+00	 6.2625654718e-02	 2.8278057822e+00
 1.1680089501e+00	 4.1613157782e-02	 2.8022740768e+00
 1.1685660527e+00	 2.0735064880e-02	 2.7634710480e+00
 1.1687500000e+00	 0.0000000000e+00	 2.7114584519e+00
 1.1430924908e+00	 2.1153204845e-01	 2.5835535368e+00
 1.1468731394e+00	 1.8996908211e-01	 2.6534674544e+00
 1.1502280112e+00	 1.6846890600e-01	 2.7079693591e+00
 1.1531629003e+00	 1.4704276731e-01	 2.7477290089e+00
 1.1556839401e+00	 1.2570155376e-01	 2.7733124468e+00
 1.1577975813e+00	 1.0445578406e-01	 2.7851858663e+00
 1.1595105695e+00	 8.3315599693e-02	 2.7837202360e+00
 1.1608299236e+00	 6.2290758169e-02	 2.7691965788e+00
 1.1617629130e+00	 4.1390627526e-02	 2.7418118042e+00
 1.1623170364e+00	 2.0624182180e-02	 2.7016849913e+00
 1.1625000000e+00	 0.0000000000e+00	 2.6488640248e+00
 1.1369468322e+00	 2.1039477937e-01	 2.5570897803e+00
 1.1407071548e+00	 1.8894774296e-01	 2.6210053031e+00
 1.1440439896e+00	 1.6756315919e-01	 2.6701598343e+00
 1.1469630997e+00	 1.4625221479e-01	 2.7052089186e+00
 1.1494705856e+00	 1.2502573896e-01	 2.7267042334e+00
 1.1515728631e+00	 1.0389419382e-01	 2.7350975026e+00
 1.1532766417e+00	 8.2867666361e-02	 2.7307451605e+00
 1.1545889025e+00	 6.1955861619e-02	 2.7139136618e+00
 1.1555168758e+00	 4.1168097271e-02	 2.6847853370e+00
 1.1560680201e+00	 2.0513299481e-02	 2.6434646919e+00
 1.1562500000e+00	 0.0000000000e+00	 2.5899850539e+00
 1.1308011737e+00	 2.0925751029e-01	 2.5338502460e+00
 1.1345411702e+00	 1.8792640381e-01	 2.5917186350e+00
 1.1378599681e+00	 1.6665741239e-01	 2.6355008944e+00
 1.1407632992e+00	 1.4546166228e-01	 2.6658380845e+00
 1.1432572311e+00	 1.2434992415e-01	 2.6832671727e+00
 1.1453481449e+00	 1.0333260358e-01	 2.6882250003e+00
 1.1470427139e+00	 8.2419733030e-02	 2.6810529896e+00
 1.1483478814e+00	 6.1620965070e-02	 2.6620024895e+00
 1.1492708386e+00	 4.0945567016e-02	 2.6312406586e+00
 1.1498190038e+00	 2.0402416781e-02	 2.5888567864e+00
 1.1500000000e+00	 0.0000000000e+00	 2.5348689542e+00
 1.1246555151e+00	 2.0812024122e-01	 2.5138815340e+00
 1.1283751855e+00	 1.8690506466e-01	 2.5656535751e+00
 1.1316759465e+00	 1.6575166558e-01	 2.6040383446e+00
 1.1345634987e+00	 1.4467110977e-01	 2.6296621440e+00
 1.1370438765e+00	 1.2367410935e-01	 2.6430468833e+00
 1.1391234267e+00	 1.0277101335e-01	 2.6446141048e+00
 1.1408087862e+00	 8.1971799699e-02	 2.6346897379e+00
 1.1421068603e+00	 6.1286068522e-02	 2.6135094851e+00
 1.1430248015e+00	 4.0723036761e-02	 2.5812247371e+00
 1.1435699874e+00	 2.0291534081e-02	 2.5379089200e+00
 1.1437500000e+00	 0.0000000000e+00	 2.4835641771e+00
 1.1185098566e+00	 2.0698297214e-01	 2.4972312256e+00
 1.1222092009e+00	 1.8588372551e-01	 2.5428572167e+00
 1.1254919249e+00	 1.6484591878e-01	 2.5758189502e+00
 1.1283636981e+00	 1.4388055726e-01	 2.5967276912e+00
 1.1308305220e+00	 1.2299829454e-01	 2.6060899421e+00
 1.1328987085e+00	 1.0220942311e-01	 2.6043115263e+00
 1.1345748584e+00	 8.1523866369e-02	 2.5917023965e+00
 1.1358658392e+00	 6.0951171974e-02	 2.5684820642e+00
 1.1367787643e+00	 4.0500506506e-02	 2.5347855525e+00
 1.1373209711e+00	 2.0180651382e-02	 2.4906697744e+00
 1.1375000000e+00	 0.0000000000e+00	 2.4361202387e+00
 1.1123641980e+00	 2.0584570306e-01	 2.4839479103e+00
 1.1160432163e+00	 1.8486238636e-01	 2.5233776481e+00
 1.1193079034e+00	 1.6394017197e-01	 2.5508904630e+00
 1.1221638976e+00	 1.4309000475e-01	 2.5670823039e+00
 1.1246171675e+00	 1.2232247974e-01	 2.5724439113e+00
 1.1266739904e+00	 1.0164783288e-01	 2.5673649673e+00
 1.1283409306e+00	 8.1075933039e-02	 2.5521389598e+00
 1.1296248181e+00	 6.0616275427e-02	 2.5269686615e+00
 1.1305327271e+00	 4.0277976252e-02	 2.4919721252e+00
 1.1310719548e+00	 2.0069768683e-02	 2.4471890961e+00
 1.1312500000e+00	 0.0000000000e+00	 2.3925877496e+00
 1.1062185395e+00	 2.0470843399e-01	 2.4740812137e+00
 1.1098772317e+00	 1.8384104721e-01	 2.5072639796e+00
 1.1131238818e+00	 1.6303442517e-01	 2.5293016489e+00
 1.1159640971e+00	 1.4229945224e-01	 2.5407745704e+00
 1.1184038130e+00	 1.2164666494e-01	 2.5421573658e+00
 1.1204492722e+00	 1.0108624264e-01	 2.5338231494e+00
 1.1221070028e+00	 8.0627999711e-02	 2.5160484531e+00
 1.1233837970e+00	 6.0281378879e-02	 2.4890187597e+00
 1.1242866900e+00	 4.0055445998e-02	 2.4528345440e+00
 1.1248229385e+00	 1.9958885984e-02	 2.4075177265e+00
 1.1250000000e+00	 0.0000000000e+00	 2.3530184448e+00
 0.0000000000e+00	 1.1250000000e+00	-4.6721421321e+00
 1.9958885984e-02	 1.1248229385e+00	-4.7240710036e+00
 4.0055445998e-02	 1.1242866900e+00	-4.7548459768e+00
 6.0281378879e-02	 1.1233837970e+00	-4.7644397036e+00
 8.0627999711e-02	 1.1221070028e+00	-4.7527964588e+00
 1.0108624264e-01	 1.1204492722e+00	-4.7198299715e+00
 1.2164666494e-01	 1.1184038130e+00	-4.6654216285e+00
 1.4229945224e-01	 1.1159640971e+00	-4.5894191078e+00
 1.6303442517e-01	 1.1131238818e+00	-4.4916354944e+00
 1.8384104721e-01	 1.1098772317e+00	-4.3718489312e+00
 2.0470843399e-01	 1.1062185395e+00	-4.2298028548e+00
 0.0000000000e+00	 1.1187500000e+00	-4.8140833101e+00
 1.9848003285e-02	 1.1185739221e+00	-4.8638464024e+00
 3.9832915744e-02	 1.1180406528e+00	-4.8921148976e+00
 5.9946482332e-02	 1.1171427759e+00	-4.8988645442e+00
 8.0180066382e-02	 1.1158730750e+00	-4.8840441888e+00
 1.0052465241e-01	 1.1142245540e+00	-4.8475736446e+00
 1.2097085014e-01	 1.1121904585e+00	-4.7893419239e+00
 1.4150889973e-01	 1.1097642965e+00	-4.7092058873e+00
 1.6212867837e-01	 1.1069398602e+00	-4.6069893628e+00
 1.8281970806e-01	 1.1037112471e+00	-4.4824827875e+00
 2.0357116491e-01	 1.1000728809e+00	-4.3354434183e+00
 0.0000000000e+00	 1.1125000000e+00	-4.9627227358e+00
 1.9737120586e-02	 1.1123249058e+00	-5.0102309318e+00
 3.9610385490e-02	 1.1117946156e+00	-5.0359159054e+00
 5.9611585785e-02	 1.1109017548e+00	-5.0397568141e+00
 7.9732133052e-02	 1.1096391472e+00	-5.0217073525e+00
 9.9963062176e-02	 1.1079998358e+00	-4.9816936569e+00
 1.2029503533e-01	 1.1059771040e+00	-4.9196125624e+00
 1.4071834722e-01	 1.1035644960e+00	-4.8353302662e+00
 1.6122293156e-01	 1.1007558387e+00	-4.7286814484e+00
 1.8179836891e-01	 1.0975452624e+00	-4.5994689013e+00
 2.0243389584e-01	 1.0939272224e+00	-4.4474637143e+00
 0.0000000000e+00	 1.1062500000e+00	-5.1181907336e+00
 1.9626237886e-02	 1.1060758895e+00	-5.1633535490e+00
 3.9387855236e-02	 1.1055485785e+00	-5.1863766167e+00
 5.9276689237e-02	 1.1046607337e+00	-5.1872428186e+00
 7.9284199722e-02	 1.1034052194e+00	-5.1659109774e+00
 9.9401471941e-02	 1.1017751177e+00	-5.1223137939e+00
 1.1961922053e-01	 1.0997637494e+00	-5.0563561269e+00
 1.3992779471e-01	 1.0973646954e+00	-4.9679136679e+00
 1.6031718476e-01	 1.0945718171e+00	-4.8568320616e+00
 1.8077702977e-01	 1.0913792778e+00	-4.7229265206e+00
 2.0129662676e-01	 1.0877815638e+00	-4.5659819828e+00
 0.0000000000e+00	 1.1000000000e+00	-5.2806205900e+00
 1.9515355187e-02	 1.0998268732e+00	-5.3233461477e+00
 3.9165324981e-02	 1.0993025413e+00	-5.3436275609e+00
 5.8941792689e-02	 1.0984197126e+00	-5.3414517546e+00
 7.8836266391e-02	 1.0971712916e+00	-5.3167829625e+00
 9.8839881706e-02	 1.0955503995e+00	-5.2695606948e+00
 1.1894340573e-01	 1.0935503949e+00	-5.1996980383e+00
 1.3913724220e-01	 1.0911648949e+00	-5.1070803405e+00
 1.5941143795e-01	 1.0883877955e+00	-4.9915643265e+00
 1.7975569061e-01	 1.0852132932e+00	-4.8529776983e+00
 2.0015935768e-01	 1.0816359053e+00	-4.6911192619e+00
 0.0000000000e+00	 1.0937500000e+00	-5.4501486379e+00
 1.9404472487e-02	 1.0935778568e+00	-5.4903436420e+00
 3.8942794725e-02	 1.0930565041e+00	-5.5078022638e+00
 5.8606896140e-02	 1.0921786915e+00	-5.5025157929e+00
 7.8388333060e-02	 1.0909373638e+00	-5.4744541604e+00
 9.8278291469e-02	 1.0893256813e+00	-5.4235639343e+00
 1.1826759092e-01	 1.0873370404e+00	-5.3497666374e+00
 1.3834668969e-01	 1.0849650944e+00	-5.2529574379e+00
 1.5850569115e-01	 1.0822037740e+00	-5.1330042615e+00
 1.7873435146e-01	 1.0790473086e+00	-4.9897473723e+00
 1.9902208861e-01	 1.0754902467e+00	-4.8229994685e+00
 0.0000000000e+00	 1.0875000000e+00	-5.6269143443e+00
 1.9293589787e-02	 1.0873288405e+00	-5.6644840533e+00
 3.8720264470e-02	 1.0868104670e+00	-5.6790373332e+00
 5.8271999590e-02	 1.0859376704e+00	-5.6705701634e+00
 7.7940399728e-02	 1.0847034360e+00	-5.6390584621e+00
 9.7716701232e-02	 1.0831009631e+00	-5.5844561068e+00
 1.1759177612e-01	 1.0811236859e+00	-5.5066932678e+00
 1.3755613718e-01	 1.0787652938e+00	-5.4056751030e+00
 1.5759994434e-01	 1.0760197524e+00	-5.2812808622e+00
 1.7771301231e-01	 1.0728813239e+00	-5.1333634485e+00
 1.9788481953e-01	 1.0693445882e+00	-4.9617494800e+00
 0.0000000000e+00	 1.0812500000e+00	-5.8110604009e+00
 1.9182707087e-02	 1.0810798242e+00	-5.8459085999e+00
 3.8497734214e-02	 1.0805644298e+00	-5.8574725485e+00
 5.7937103041e-02	 1.0796966493e+00	-5.8457532441e+00
 7.7492466396e-02	 1.0784695082e+00	-5.8107328851e+00
 9.7155110995e-02	 1.0768762449e+00	-5.7523729139e+00
 1.1691596131e-01	 1.0749103314e+00	-5.6706123636e+00
 1.3676558466e-01	 1.0725654933e+00	-5.5653665542e+00
 1.5669419753e-01	 1.0698357308e+00	-5.4365261876e+00
 1.7669167316e-01	 1.0667153393e+00	-5.2839568864e+00
 1.9674755045e-01	 1.0631989296e+00	-5.1074992207e+00
 0.0000000000e+00	 1.0750000000e+00	-6.0027328179e+00
 1.9071824387e-02	 1.0748308079e+00	-6.0347617901e+00
 3.8275203958e-02	 1.0743183926e+00	-6.0432509526e+00
 5.7602206490e-02	 1.0734556282e+00	-6.0282066521e+00
 7.7044533063e-02	 1.0722355804e+00	-5.9896176638e+00
 9.6593520757e-02	 1.0706515268e+00	-5.9274532545e+00
 1.1624014650e-01	 1.0686969769e+00	-5.8416615387e+00
 1.3597503215e-01	 1.0663656927e+00	-5.7321681750e+00
 1.5578845072e-01	 1.0636517093e+00	-5.5988754491e+00
 1.7567033401e-01	 1.0605493547e+00	-5.4416617881e+00
 1.9561028137e-01	 1.0570532710e+00	-5.2603817501e+00
 0.0000000000e+00	 1.0687500000e+00	-6.2020810207e+00
 1.8960941686e-02	 1.0685817915e+00	-6.2311915185e+00
 3.8052673701e-02	 1.0680723555e+00	-6.2365189472e+00
 5.7267309940e-02	 1.0672146071e+00	-6.2180753384e+00
 7.6596599730e-02	 1.0660016526e+00	-6.1758563442e+00
 9.6031930518e-02	 1.0644268086e+00	-6.1098393183e+00
 1.1556433170e-01	 1.0624836223e+00	-6.0199816798e+00
 1.3518447964e-01	 1.0601658922e+00	-5.9062196063e+00
 1.5488270392e-01	 1.0574676877e+00	-5.7684671028e+00
 1.7464899486e-01	 1.0543833701e+00	-5.6066154900e+00
 1.9447301229e-01	 1.0509076125e+00	-5.4205333546e+00
 0.0000000000e+00	 1.0625000000e+00	-6.4092579509e+00
 1.8850058986e-02	 1.0623327752e+00	-6.4353491653e+00
 3.7830143444e-02	 1.0618263183e+00	-6.4374263922e+00
 5.6932413388e-02	 1.0609735861e+00	-6.4155076862e+00
 7.6148666396e-02	 1.0597677248e+00	-6.3695958807e+00
 9.5470340278e-02	 1.0582020904e+00	-6.2996766829e+00
 1.1488851689e-01	 1.0562702678e+00	-6.2057170429e+00
 1.3439392712e-01	 1.0539660917e+00	-6.0876638420e+00
 1.5397695711e-01	 1.0512836661e+00	-5.9454429445e+00
 1.7362765570e-01	 1.0482173855e+00	-5.7789586580e+00
 1.9333574321e-01	 1.0447619539e+00	-5.5880936420e+00
 2.0470843399e-01	 1.1062185395e+00	-4.2298028548e+00
 2.2562537606e-01	 1.1021425427e+00	-4.1501319678e+00
 2.4658033927e-01	 1.0976443493e+00	-4.0536904244e+00
 2.6756146572e-01	 1.0927194629e+00	-3.9402556105e+00
 2.8855660056e-01	 1.0873637987e+00	-3.8095576305e+00
 3.0955330818e-01	 1.0815737023e+00	-3.6612816943e+00
 3.3053888984e-01	 1.0753459695e+00	-3.4950713233e+00
 3.5150040261e-01	 1.0686778635e+00	-3.3105323911e+00
 3.7242467968e-01	 1.0615671331e+00	-3.1072380027e+00
 3.9329835193e-01	 1.0540120281e+00	-2.8847342041e+00
 4.1410787072e-01	 1.0460113152e+00	-2.6425465068e+00
 2.0357116491e-01	 1.1000728809e+00	-4.3354434183e+00
 2.2437190175e-01	 1.0960195286e+00	-4.2496860907e+00
 2.4521044850e-01	 1.0915463251e+00	-4.1464559793e+00
 2.6607501313e-01	 1.0866487992e+00	-4.0255714562e+00
 2.8695350833e-01	 1.0813228887e+00	-3.8868073449e+00
 3.0783356758e-01	 1.0755649595e+00	-3.7298971934e+00
 3.2870256267e-01	 1.0693718252e+00	-3.5545363378e+00
 3.4954762259e-01	 1.0627407643e+00	-3.3603857694e+00
 3.7035565368e-01	 1.0556695379e+00	-3.1470768105e+00
 3.9111336108e-01	 1.0481564057e+00	-2.9142165904e+00
 4.1180727144e-01	 1.0402001412e+00	-2.6613943069e+00
 2.0243389584e-01	 1.0939272224e+00	-4.4474637143e+00
 2.2311842744e-01	 1.0898965145e+00	-4.3555108999e+00
 2.4384055772e-01	 1.0854483010e+00	-4.2453903910e+00
 2.6458856055e-01	 1.0805781356e+00	-4.1169615627e+00
 2.8535041611e-01	 1.0752819787e+00	-3.9700439382e+00
 3.0611382698e-01	 1.0695562167e+00	-3.8044193485e+00
 3.2686623551e-01	 1.0633976809e+00	-3.6198348524e+00
 3.4759484258e-01	 1.0568036651e+00	-3.4160064312e+00
 3.6828662769e-01	 1.0497719427e+00	-3.1926234603e+00
 3.8892837024e-01	 1.0423007833e+00	-2.9493539532e+00
 4.0950667216e-01	 1.0343889672e+00	-2.6858505604e+00
 2.0129662676e-01	 1.0877815638e+00	-4.5659819828e+00
 2.2186495313e-01	 1.0837735003e+00	-4.4677211446e+00
 2.4247066695e-01	 1.0793502768e+00	-4.3506048771e+00
 2.6310210796e-01	 1.0745074719e+00	-4.2145335819e+00
 2.8374732388e-01	 1.0692410687e+00	-4.0593714699e+00
 3.0439408638e-01	 1.0635474739e+00	-3.8849486073e+00
 3.2502990834e-01	 1.0574235366e+00	-3.6910636919e+00
 3.4564206257e-01	 1.0508665658e+00	-3.4774875750e+00
 3.6621760169e-01	 1.0438743475e+00	-3.2439675297e+00
 3.8674337940e-01	 1.0364451610e+00	-2.9902322633e+00
 4.0720607288e-01	 1.0285777932e+00	-2.7159976543e+00
 2.0015935768e-01	 1.0816359053e+00	-4.6911192619e+00
 2.2061147882e-01	 1.0776504862e+00	-4.5864343103e+00
 2.4110077618e-01	 1.0732522526e+00	-4.4622133298e+00
 2.6161565537e-01	 1.0684368082e+00	-4.3183977788e+00
 2.8214423166e-01	 1.0632001587e+00	-4.1548965514e+00
 3.0267434578e-01	 1.0575387312e+00	-3.9715879087e+00
 3.2319358117e-01	 1.0514493924e+00	-3.7683221120e+00
 3.4368928255e-01	 1.0449294666e+00	-3.5449247707e+00
 3.6414857569e-01	 1.0379767524e+00	-3.3012009092e+00
 3.8455838856e-01	 1.0305895386e+00	-3.0369397465e+00
 4.0490547360e-01	 1.0227666193e+00	-2.7519201739e+00
 1.9902208861e-01	 1.0754902467e+00	-4.8229994685e+00
 2.1935800451e-01	 1.0715274721e+00	-4.7117706974e+00
 2.3973088540e-01	 1.0671542285e+00	-4.5803323925e+00
 2.6012920279e-01	 1.0623661445e+00	-4.4286671064e+00
 2.8054113943e-01	 1.0571592487e+00	-4.2567284191e+00
 3.0095460517e-01	 1.0515299884e+00	-4.0644427543e+00
 3.2135725401e-01	 1.0454752481e+00	-3.8517118688e+00
 3.4173650254e-01	 1.0389923673e+00	-3.6184160276e+00
 3.6207954969e-01	 1.0320791572e+00	-3.3644178678e+00
 3.8237339771e-01	 1.0247339162e+00	-3.0895669478e+00
 4.0260487432e-01	 1.0169554453e+00	-2.7937049651e+00
 1.9788481953e-01	 1.0693445882e+00	-4.9617494800e+00
 2.1810453020e-01	 1.0654044580e+00	-4.8438535018e+00
 2.3836099463e-01	 1.0610562043e+00	-4.7050815390e+00
 2.5864275020e-01	 1.0562954808e+00	-4.5454572828e+00
 2.7893804721e-01	 1.0511183387e+00	-4.3649790096e+00
 2.9923486457e-01	 1.0455212456e+00	-4.1636212814e+00
 3.1952092684e-01	 1.0395011038e+00	-3.9413372910e+00
 3.3978372252e-01	 1.0330552681e+00	-3.6980618642e+00
 3.6001052369e-01	 1.0261815620e+00	-3.4337151219e+00
 3.8018840687e-01	 1.0188782938e+00	-3.1482067981e+00
 4.0030427504e-01	 1.0111442713e+00	-2.8414411995e+00
 1.9674755045e-01	 1.0631989296e+00	-5.1074992207e+00
 2.1685105588e-01	 1.0592814438e+00	-4.9828088988e+00
 2.3699110385e-01	 1.0549581801e+00	-4.8365831549e+00
 2.5715629761e-01	 1.0502248171e+00	-4.6688868712e+00
 2.7733495498e-01	 1.0450774287e+00	-4.4797630383e+00
 2.9751512397e-01	 1.0395125028e+00	-4.2692343399e+00
 3.1768459968e-01	 1.0335269595e+00	-4.0373053539e+00
 3.3783094251e-01	 1.0271181688e+00	-3.7839653811e+00
 3.5794149770e-01	 1.0202839668e+00	-3.5091919057e+00
 3.7800341602e-01	 1.0130226714e+00	-3.2129546830e+00
 3.9800367575e-01	 1.0053330973e+00	-2.8952204417e+00
 1.9561028137e-01	 1.0570532710e+00	-5.2603817501e+00
 2.1559758157e-01	 1.0531584297e+00	-5.1287661294e+00
 2.3562121308e-01	 1.0488601560e+00	-4.9749626229e+00
 2.5566984502e-01	 1.0441541534e+00	-4.7990773627e+00
 2.7573186276e-01	 1.0390365187e+00	-4.6011980795e+00
 2.9579538337e-01	 1.0335037600e+00	-4.3813955707e+00
 3.1584827251e-01	 1.0275528153e+00	-4.1397257565e+00
 3.3587816249e-01	 1.0211810696e+00	-3.8762323357e+00
 3.5587247170e-01	 1.0143863716e+00	-3.5909500444e+00
 3.7581842518e-01	 1.0071670491e+00	-3.2839085147e+00
 3.9570307647e-01	 9.9952192337e-01	-2.9551367187e+00
 1.9447301229e-01	 1.0509076125e+00	-5.4205333546e+00
 2.1434410726e-01	 1.0470354156e+00	-5.2818575903e+00
 2.3425132230e-01	 1.0427621318e+00	-5.1203484095e+00
 2.5418339243e-01	 1.0380834898e+00	-4.9361532614e+00
 2.7412877053e-01	 1.0329956087e+00	-4.7294046503e+00
 2.9407564277e-01	 1.0274950172e+00	-4.5002214873e+00
 3.1401194534e-01	 1.0215786710e+00	-4.2487110010e+00
 3.3392538248e-01	 1.0152439703e+00	-3.9749712199e+00
 3.5380344570e-01	 1.0084887764e+00	-3.6790940303e+00
 3.7363343433e-01	 1.0013114267e+00	-3.3611688052e+00
 3.9340247719e-01	 9.9371074939e-01	-3.0212865923e+00
 1.9333574321e-01	 1.0447619539e+00	-5.5880936420e+00
 2.1309063295e-01	 1.0409124014e+00	-5.4422189264e+00
 2.3288143153e-01	 1.0366641076e+00	-5.2728721567e+00
 2.5269693984e-01	 1.0320128261e+00	-5.0802421738e+00
 2.7252567830e-01	 1.0269546987e+00	-4.8645062975e+00
 2.9235590217e-01	 1.0214862744e+00	-4.6258315608e+00
 3.1217561818e-01	 1.0156045267e+00	-4.3643764754e+00
 3.3197260246e-01	 1.0093068711e+00	-4.0802933408e+00
 3.5173441970e-01	 1.0025911812e+00	-3.7737311008e+00
 3.7144844349e-01	 9.9545580429e-01	-3.4448387433e+00
 3.9110187790e-01	 9.8789957541e-01	-3.0937692331e+00
 4.1410787072e-01	 1.0460113152e+00	-2.6425465068e+00
 4.3483898691e-01	 1.0375645104e+00	-2.4977290736e+00
 4.5547837879e-01	 1.0286712545e+00	-2.3415395633e+00
 4.7601210737e-01	 1.0193319431e+00	-2.1734308300e+00
 4.9642615654e-01	 1.0095475364e+00	-1.9928207163e+00
 5.1670646093e-01	 9.9931956751e-01	-1.7991009035e+00
 5.3683893468e-01	 9.8865014912e-01	-1.5916464518e+00
 5.5680950073e-01	 9.7754197860e-01	-1.3698259473e+00
 5.7660412071e-01	 9.6599834122e-01	-1.1330121560e+00
 5.9620882517e-01	 9.5402311157e-01	-8.8059307867e-01
 6.1560974421e-01	 9.4162075318e-01	-6.1198328848e-01
 4.1180727144e-01	 1.0402001412e+00	-2.6613943069e+00
 4.3242321477e-01	 1.0318002631e+00	-2.5058468244e+00
 4.5294794336e-01	 1.0229564142e+00	-2.3391440496e+00
 4.7336759567e-01	 1.0136689879e+00	-2.1608950695e+00
 4.9366823345e-01	 1.0039389390e+00	-1.9706758526e+00
 5.1383586948e-01	 9.9376779214e-01	-1.7680373613e+00
 5.3385649616e-01	 9.8315764829e-01	-1.5525143261e+00
 5.5371611462e-01	 9.7211118983e-01	-1.3236346011e+00
 5.7340076448e-01	 9.6063168377e-01	-1.0809290064e+00
 5.9289655392e-01	 9.4872298317e-01	-8.2394155866e-01
 6.1218969008e-01	 9.3638952678e-01	-5.5223997635e-01
 4.0950667216e-01	 1.0343889672e+00	-2.6858505604e+00
 4.3000744262e-01	 1.0260360158e+00	-2.5191454064e+00
 4.5041750792e-01	 1.0172415739e+00	-2.3415097417e+00
 4.7072308397e-01	 1.0080060326e+00	-2.1527092871e+00
 4.9091031036e-01	 9.9833034156e-01	-1.9524785150e+00
 5.1096527804e-01	 9.8821601676e-01	-1.7405280251e+00
 5.3087405763e-01	 9.7766514746e-01	-1.5165525519e+00
 5.5062272851e-01	 9.6668040106e-01	-1.2802395279e+00
 5.7019740826e-01	 9.5526502632e-01	-1.0312781166e+00
 5.8958428268e-01	 9.4342285477e-01	-7.6936861805e-01
 6.0876963594e-01	 9.3115830037e-01	-4.9423214248e-01
 4.0720607288e-01	 1.0285777932e+00	-2.7159976543e+00
 4.2759167047e-01	 1.0202717685e+00	-2.5376970932e+00
 4.4788707249e-01	 1.0115267336e+00	-2.3486988787e+00
 4.6807857226e-01	 1.0023430774e+00	-2.1489257881e+00
 4.8815238727e-01	 9.9272174414e-01	-1.9382711985e+00
 5.0809468659e-01	 9.8266424139e-01	-1.7166057248e+00
 5.2789161911e-01	 9.7217264664e-01	-1.4837844605e+00
 5.4752934240e-01	 9.6124961229e-01	-1.2396547501e+00
 5.6699405204e-01	 9.4989836887e-01	-9.8406441114e-01
 5.8627201143e-01	 9.3812272638e-01	-7.1687031601e-01
 6.0534958181e-01	 9.2592707396e-01	-4.3794723467e-01
 4.0490547360e-01	 1.0227666193e+00	-2.7519201739e+00
 4.2517589832e-01	 1.0145075212e+00	-2.5615761513e+00
 4.4535663705e-01	 1.0058118933e+00	-2.3607754898e+00
 4.6543406056e-01	 9.9668012214e-01	-2.1495984681e+00
 4.8539446418e-01	 9.8711314671e-01	-1.9280977907e+00
 5.0522409514e-01	 9.7711246601e-01	-1.6963044882e+00
 5.2490918059e-01	 9.6668014581e-01	-1.4542343914e+00
 5.4443595628e-01	 9.5581882352e-01	-1.2018951117e+00
 5.6379069581e-01	 9.4453171142e-01	-9.3929345394e-01
 5.8295974018e-01	 9.3282259798e-01	-6.6644317408e-01
 6.0192952768e-01	 9.2069584756e-01	-3.8337299118e-01
 4.0260487432e-01	 1.0169554453e+00	-2.7937049651e+00
 4.2276012618e-01	 1.0087432740e+00	-2.5908588974e+00
 4.4282620161e-01	 1.0000970530e+00	-2.3778054457e+00
 4.6278954885e-01	 9.9101716690e-01	-2.1547828579e+00
 4.8263654109e-01	 9.8150454929e-01	-1.9220036115e+00
 5.0235350369e-01	 9.7156069064e-01	-1.6796595761e+00
 5.2192674206e-01	 9.6118764498e-01	-1.4279277204e+00
 5.4134257017e-01	 9.5038803475e-01	-1.1669763014e+00
 5.6058733959e-01	 9.3916505396e-01	-8.9697146683e-01
 5.7964746893e-01	 9.2752246958e-01	-6.1808418946e-01
 5.9850947354e-01	 9.1546462115e-01	-3.3049744901e-01
 4.0030427504e-01	 1.0111442713e+00	-2.8414411995e+00
 4.2034435403e-01	 1.0029790267e+00	-2.6256237569e+00
 4.4029576618e-01	 9.9438221265e-01	-2.3998565116e+00
 4.6014503714e-01	 9.8535421166e-01	-2.1645361709e+00
 4.7987861800e-01	 9.7589595186e-01	-1.9200354543e+00
 4.9948291224e-01	 9.6600891526e-01	-1.6667075172e+00
 5.1894430354e-01	 9.5569514415e-01	-1.4048908902e+00
 5.3824918405e-01	 9.4495724598e-01	-1.1349148775e+00
 5.5738398336e-01	 9.3379839651e-01	-8.5710534831e-01
 5.7633519767e-01	 9.2222234118e-01	-5.7179084859e-01
 5.9508941941e-01	 9.1023339474e-01	-2.7930895251e-01
 3.9800367575e-01	 1.0053330973e+00	-2.8952204417e+00
 4.1792858188e-01	 9.9721477939e-01	-2.6659513253e+00
 4.3776533074e-01	 9.8866737235e-01	-2.4269984016e+00
 4.5750052543e-01	 9.7969125642e-01	-2.1789173514e+00
 4.7712069491e-01	 9.7028735444e-01	-1.9222416286e+00
 4.9661232079e-01	 9.6045713988e-01	-1.6574861448e+00
 5.1596186501e-01	 9.5020264332e-01	-1.3851514407e+00
 5.3515579794e-01	 9.3952645721e-01	-1.1057282925e+00
 5.5418062713e-01	 9.2843173906e-01	-8.1970269318e-01
 5.7302292642e-01	 9.1692221278e-01	-5.2756114133e-01
 5.9166936527e-01	 9.0500216834e-01	-2.2979616224e-01
 3.9570307647e-01	 9.9952192337e-01	-2.9551367187e+00
 4.1551280973e-01	 9.9145053211e-01	-2.7119244310e+00
 4.3523489530e-01	 9.8295253204e-01	-2.4593028355e+00
 4.5485601373e-01	 9.7402830117e-01	-2.1979871249e+00
 4.7436277181e-01	 9.6467875701e-01	-1.9286720040e+00
 4.9374172934e-01	 9.5490536450e-01	-1.6520346351e+00
 5.1297942648e-01	 9.4471014249e-01	-1.3687380411e+00
 5.3206241182e-01	 9.3409566844e-01	-1.0794349192e+00
 5.5097727091e-01	 9.2306508161e-01	-7.8477181276e-01
 5.6971065517e-01	 9.1162208439e-01	-4.8539357562e-01
 5.8824931113e-01	 8.9977094193e-01	-1.8194806418e-01
 3.9340247719e-01	 9.9371074939e-01	-3.0212865923e+00
 4.1309703757e-01	 9.8568628483e-01	-2.7636282005e+00
 4.3270445986e-01	 9.7723769174e-01	-2.4968435977e+00
 4.5221150202e-01	 9.6836534593e-01	-2.2218080505e+00
 4.7160484872e-01	 9.5907015958e-01	-1.9393780558e+00
 4.9087113789e-01	 9.4935358912e-01	-1.6503935460e+00
 5.0999698795e-01	 9.3921764166e-01	-1.3556805226e+00
 5.2896902570e-01	 9.2866487967e-01	-1.0560540780e+00
 5.4777391468e-01	 9.1769842415e-01	-7.5232175582e-01
 5.6639838392e-01	 9.0632195599e-01	-4.4528719258e-01
 5.8482925700e-01	 8.9453971552e-01	-1.3575397921e-01
 3.9110187790e-01	 9.8789957541e-01	-3.0937692331e+00
 4.1068126542e-01	 9.7992203754e-01	-2.8211501263e+00
 4.3017402442e-01	 9.7152285143e-01	-2.5396965977e+00
 4.4956699031e-01	 9.6270239069e-01	-2.2504445747e+00
 4.6884692562e-01	 9.5346156215e-01	-1.9544129126e+00
 4.8800054644e-01	 9.4380181375e-01	-1.6526048580e+00
 5.0701454943e-01	 9.3372514082e-01	-1.3460099131e+00
 5.2587563959e-01	 9.2323409089e-01	-1.0356060641e+00
 5.4457055845e-01	 9.1233176670e-01	-7.2236233029e-01
 5.6308611266e-01	 9.0102182759e-01	-4.0724158221e-01
 5.8140920286e-01	 8.8930848912e-01	-9.1203573015e-02
 6.1560974421e-01	 9.4162075318e-01	-6.1198328848e-01
 6.3479361721e-01	 9.2879599940e-01	-3.2664115474e-01
 6.5374636129e-01	 9.1555480874e-01	-2.0265323164e-01
 6.7245458845e-01	 9.0190339056e-01	-6.1999896257e-02
 6.9090513259e-01	 8.8784852253e-01	 9.4173772706e-02
 7.0908507947e-01	 8.7339754070e-01	 2.6459686229e-01
 7.2698179609e-01	 8.5855832766e-01	 4.4787749173e-01
 7.4458295944e-01	 8.4333929887e-01	 6.4250880608e-01
 7.6187658440e-01	 8.2774938720e-01	 8.4687606500e-01
 7.7885105069e-01	 8.1179802573e-01	 1.0592647812e+00
 7.9549512882e-01	 7.9549512882e-01	 1.2778698502e+00
 6.1218969008e-01	 9.3638952678e-01	-5.5223997635e-01
 6.3126698600e-01	 9.2363602163e-01	-2.0028129147e-01
 6.5011443706e-01	 9.1046839314e-01	-7.6550305975e-02
 6.6871872962e-01	 8.9689281617e-01	 6.4035819835e-02
 6.8706677074e-01	 8.8291603074e-01	 2.2027144001e-01
 7.0514571791e-01	 8.6854533214e-01	 3.9082524731e-01
 7.2294300833e-01	 8.5378855917e-01	 5.7424538792e-01
 7.4044638744e-01	 8.3865408054e-01	 7.6896569603e-01
 7.5764393670e-01	 8.2315077949e-01	 9.7331301475e-01
 7.7452410041e-01	 8.0728803670e-01	 1.1855155561e+00
 7.9107571144e-01	 7.9107571144e-01	 1.4037122408e+00
 6.0876963594e-01	 9.3115830037e-01	-4.9423214248e-01
 6.2774035480e-01	 9.1847604385e-01	-7.4370250066e-02
 6.4648251283e-01	 9.0538197753e-01	 4.9380960541e-02
 6.6498287080e-01	 8.9188224177e-01	 1.9018738343e-01
 6.8322840889e-01	 8.7798353895e-01	 3.4678222388e-01
 7.0120635636e-01	 8.6369312358e-01	 5.1777315083e-01
 7.1890422057e-01	 8.4901879068e-01	 7.0164766186e-01
 7.3630981544e-01	 8.3396886221e-01	 8.9677956111e-01
 7.5341128901e-01	 8.1855217179e-01	 1.1014365149e+00
 7.7019715013e-01	 8.0277804766e-01	 1.3137886365e+00
 7.8665629406e-01	 7.8665629406e-01	 1.5319180387e+00
 6.0534958181e-01	 9.2592707396e-01	-4.3794723467e-01
 6.2421372359e-01	 9.1331606608e-01	 3.5448984626e-02
 6.4285058860e-01	 9.0029556193e-01	 1.7516180728e-01
 6.6124701197e-01	 8.8687166738e-01	 3.1648140962e-01
 6.7939004704e-01	 8.7305104716e-01	 4.7373813921e-01
 6.9726699481e-01	 8.5884091502e-01	 6.4547800191e-01
 7.1486543282e-01	 8.4424902220e-01	 8.3012716143e-01
 7.3217324345e-01	 8.2928364388e-01	 1.0259986630e+00
 7.4917864132e-01	 8.1395356408e-01	 1.2313002265e+00
 7.6587019984e-01	 7.9826805863e-01	 1.4441430587e+00
 7.8223687667e-01	 7.8223687667e-01	 1.6625516222e+00
 6.0192952768e-01	 9.2069584756e-01	-3.8337299118e-01
 6.2068709238e-01	 9.0815608831e-01	 8.9616149398e-02
 6.3921866437e-01	 8.9520914632e-01	 3.0081341702e-01
 6.5751115315e-01	 8.8186109299e-01	 4.4294457703e-01
 6.7555168519e-01	 8.6811855536e-01	 6.0117138633e-01
 6.9332763325e-01	 8.5398870646e-01	 7.7397753855e-01
 7.1082664506e-01	 8.3947925371e-01	 9.5972716837e-01
 7.2803667145e-01	 8.2459842556e-01	 1.1566718234e+00
 7.4494599363e-01	 8.0935495637e-01	 1.3629584973e+00
 7.6154324956e-01	 7.9375806960e-01	 1.5766386732e+00
 7.7781745929e-01	 7.7781745929e-01	 1.7956783118e+00
 5.9850947354e-01	 9.1546462115e-01	-3.3049744901e-01
 6.1716046118e-01	 9.0299611053e-01	 1.4230427111e-01
 6.3558674014e-01	 8.9012273072e-01	 4.2635691436e-01
 6.5377529432e-01	 8.7685051860e-01	 5.6960362960e-01
 6.7171332335e-01	 8.6318606357e-01	 7.2911435633e-01
 6.8938827170e-01	 8.4913649790e-01	 9.0330981657e-01
 7.0678785730e-01	 8.3470948522e-01	 1.0904914106e+00
 7.2390009945e-01	 8.1991320723e-01	 1.2888484396e+00
 7.4071334593e-01	 8.0475634866e-01	 1.4964663815e+00
 7.5721629928e-01	 7.8924808057e-01	 1.7113361681e+00
 7.7339804191e-01	 7.7339804191e-01	 1.9313643968e+00
 5.9508941941e-01	 9.1023339474e-01	-2.7930895251e-01
 6.1363382997e-01	 8.9783613276e-01	 1.9353147380e-01
 6.3195481591e-01	 8.8503631512e-01	 5.5181336401e-01
 6.5003943550e-01	 8.7183994421e-01	 6.9648537852e-01
 6.6787496150e-01	 8.5825357178e-01	 8.5759963652e-01
 6.8544891014e-01	 8.4428428935e-01	 1.0335132187e+00
 7.0274906955e-01	 8.2993971674e-01	 1.2224640753e+00
 7.1976352745e-01	 8.1522798890e-01	 1.4225785015e+00
 7.3648069824e-01	 8.0015774096e-01	 1.6318796598e+00
 7.5288934900e-01	 7.8473809154e-01	 1.8482970931e+00
 7.6897862452e-01	 7.6897862452e-01	 2.0696771640e+00
 5.9166936527e-01	 9.0500216834e-01	-2.2979616224e-01
 6.1010719876e-01	 8.9267615498e-01	 2.4331569135e-01
 6.2832289168e-01	 8.7994989951e-01	 6.7720376909e-01
 6.4630357667e-01	 8.6682936982e-01	 8.2361670410e-01
 6.6403659965e-01	 8.5332107999e-01	 9.8666001610e-01
 6.8150954859e-01	 8.3943208079e-01	 1.1646264641e+00
 6.9871028179e-01	 8.2516994825e-01	 1.3556898217e+00
 7.1562695545e-01	 8.1054277058e-01	 1.5579126085e+00
 7.3224805055e-01	 7.9555913325e-01	 1.7692548607e+00
 7.4856239871e-01	 7.8022810250e-01	 1.9875838846e+00
 7.6455920714e-01	 7.6455920714e-01	 2.2106849256e+00
 5.8824931113e-01	 8.9977094193e-01	-1.8194806418e-01
 6.0658056755e-01	 8.8751617721e-01	 2.9167466200e-01
 6.2469096745e-01	 8.7486348391e-01	 7.9601601676e-01
 6.4256771784e-01	 8.6181879543e-01	 9.5102455783e-01
 6.6019823780e-01	 8.4838858820e-01	 1.1163284920e+00
 6.7757018704e-01	 8.3457987223e-01	 1.2966886179e+00
 6.9467149403e-01	 8.2040017977e-01	 1.4902137952e+00
 7.1149038346e-01	 8.0585755225e-01	 1.6949019871e+00
 7.2801540286e-01	 7.9096052555e-01	 1.9086492821e+00
 7.4423544843e-01	 7.7571811347e-01	 2.1292598911e+00
 7.6013978976e-01	 7.6013978976e-01	 2.3544570496e+00
 5.8482925700e-01	 8.9453971552e-01	-1.3575397921e-01
 6.0305393634e-01	 8.8235619944e-01	 3.3862592259e-01
 6.2105904322e-01	 8.6977706831e-01	 8.4394639780e-01
 6.3883185902e-01	 8.5680822104e-01	 1.0787359645e+00
 6.5635987595e-01	 8.4345609641e-01	 1.2466382752e+00
 6.7363082548e-01	 8.2972766367e-01	 1.4297391017e+00
 6.9063270628e-01	 8.1563041128e-01	 1.6260816417e+00
 7.0735381146e-01	 8.0117233393e-01	 1.8335985096e+00
 7.2378275517e-01	 7.8636191784e-01	 2.0501210138e+00
 7.3990849815e-01	 7.7120812444e-01	 2.2733894002e+00
 7.5572037238e-01	 7.5572037238e-01	 2.5010639906e+00
 5.8140920286e-01	 8.8930848912e-01	-9.1203573015e-02
 5.9952730513e-01	 8.7719622166e-01	 3.8418680265e-01
 6.1742711899e-01	 8.6469065271e-01	 8.9075044890e-01
 6.3509600019e-01	 8.5179764665e-01	 1.2067780241e+00
 6.5252151410e-01	 8.3852360462e-01	 1.3776227964e+00
 6.6969146393e-01	 8.2487545512e-01	 1.5638177039e+00
 6.8659391852e-01	 8.1086064280e-01	 1.7633395217e+00
 7.0321723946e-01	 7.9648711560e-01	 1.9740547126e+00
 7.1955010748e-01	 7.8176331014e-01	 2.1937289609e+00
 7.3558154787e-01	 7.6669813542e-01	 2.4200376659e+00
 7.5130095500e-01	 7.5130095500e-01	 2.6505773214e+00
 7.9549512882e-01	 7.9549512882e-01	 1.2778698502e+00
 8.1179801744e-01	 7.7885106333e-01	 1.5199204637e+00
 8.2774935413e-01	 7.6187663484e-01	 1.7318016539e+00
 8.4333922468e-01	 7.4458307265e-01	 1.9108389616e+00
 8.5855819620e-01	 7.2698199682e-01	 2.0544333424e+00
 8.7339733600e-01	 7.0908539220e-01	 2.1600759315e+00
 8.8784822882e-01	 6.9090558150e-01	 2.2253625649e+00
 9.0190299227e-01	 6.7245519740e-01	 2.2480079303e+00
 9.1555429054e-01	 6.5374715376e-01	 2.2258592227e+00
 9.2879534620e-01	 6.3479461628e-01	 2.1569091824e+00
 9.4161995011e-01	 6.1561097256e-01	 2.2189086446e+00
 7.9107571144e-01	 7.9107571144e-01	 1.4037122408e+00
 8.0728802845e-01	 7.7452411298e-01	 1.6475900311e+00
 8.2315074660e-01	 7.5764398686e-01	 1.8590018987e+00
 8.3865400676e-01	 7.4044650003e-01	 2.0352446692e+00
 8.5378842844e-01	 7.2294320795e-01	 2.1736996443e+00
 8.6854512858e-01	 7.0514602891e-01	 2.2718473541e+00
 8.8291573866e-01	 6.8706721716e-01	 2.3272820141e+00
 8.9689242009e-01	 6.6871933519e-01	 2.3377255614e+00
 9.1046787782e-01	 6.5011522512e-01	 2.3010411453e+00
 9.2363537205e-01	 6.3126797953e-01	 2.2152459539e+00
 9.3638872817e-01	 6.1219091160e-01	 2.3277188950e+00
 7.8665629406e-01	 7.8665629406e-01	 1.5319180387e+00
 8.0277803946e-01	 7.7019716262e-01	 1.7779174635e+00
 8.1855213908e-01	 7.5341133889e-01	 1.9891358897e+00
 8.3396878885e-01	 7.3630992740e-01	 2.1628406761e+00
 8.4901866069e-01	 7.1890441908e-01	 2.2963927550e+00
 8.6369292116e-01	 7.0120666562e-01	 2.3872613770e+00
 8.7798324850e-01	 6.8322885282e-01	 2.4330385062e+00
 8.9188184791e-01	 6.6498347298e-01	 2.4314527448e+00
 9.0538146509e-01	 6.4648329649e-01	 2.3803826622e+00
 9.1847539791e-01	 6.2774134277e-01	 2.2778694117e+00
 9.3115750622e-01	 6.0877085064e-01	 2.4430990686e+00
 7.8223687667e-01	 7.8223687667e-01	 1.6625516222e+00
 7.9826805048e-01	 7.6587021227e-01	 1.9109715721e+00
 8.1395353155e-01	 7.4917869092e-01	 2.1222764438e+00
 8.2928357093e-01	 7.3217335477e-01	 2.2937033713e+00
 8.4424889293e-01	 7.1486563020e-01	 2.4225921982e+00
 8.5884071373e-01	 6.9726730233e-01	 2.5064002168e+00
 8.7305075834e-01	 6.7939048848e-01	 2.5427165068e+00
 8.8687127573e-01	 6.6124761077e-01	 2.5292757504e+00
 9.0029505237e-01	 6.4285136786e-01	 2.4639714022e+00
 9.1331542376e-01	 6.2421470601e-01	 2.3609174154e+00
 9.2592628428e-01	 6.0535078969e-01	 2.5651069630e+00
 7.7781745929e-01	 7.7781745929e-01	 1.7956783118e+00
 7.9375806149e-01	 7.6154326192e-01	 2.0468222183e+00
 8.0935492403e-01	 7.4494604294e-01	 2.2584975279e+00
 8.2459835302e-01	 7.2803678214e-01	 2.4279103854e+00
 8.3947912517e-01	 7.1082684133e-01	 2.5523788206e+00
 8.5398850631e-01	 6.9332793904e-01	 2.6293474860e+00
 8.6811826818e-01	 6.7555212413e-01	 2.6564019414e+00
 8.8186070355e-01	 6.5751174856e-01	 2.6312823619e+00
 8.9520863964e-01	 6.3921943923e-01	 2.5518965530e+00
 9.0815544962e-01	 6.2068806926e-01	 2.5058451938e+00
 9.2069506233e-01	 6.0193072873e-01	 2.6938019965e+00
 7.7339804191e-01	 7.7339804191e-01	 1.9313643968e+00
 7.8924807250e-01	 7.5721631156e-01	 2.1855403444e+00
 8.0475631651e-01	 7.4071339497e-01	 2.3978742923e+00
 8.1991313510e-01	 7.2390020952e-01	 2.5655406254e+00
 8.3470935741e-01	 7.0678805246e-01	 2.6858348301e+00
 8.4913629889e-01	 6.8938857574e-01	 2.7561882335e+00
 8.6318577802e-01	 6.7171375979e-01	 2.7741822366e+00
 8.7685013137e-01	 6.5377588636e-01	 2.7375619201e+00
 8.9012222692e-01	 6.3558751060e-01	 2.6442489058e+00
 9.0299547547e-01	 6.1716143250e-01	 2.6575771472e+00
 9.1546384039e-01	 5.9851066777e-01	 2.8292452538e+00
 7.6897862452e-01	 7.6897862452e-01	 2.0696771640e+00
 7.8473808352e-01	 7.5288936121e-01	 2.3271980045e+00
 8.0015770899e-01	 7.3648074700e-01	 2.5404831045e+00
 8.1522791719e-01	 7.1976363689e-01	 2.7066743120e+00
 8.2993958966e-01	 7.0274926359e-01	 2.8230438348e+00
 8.4428409147e-01	 6.8544921245e-01	 2.8870089850e+00
 8.5825328786e-01	 6.6787539545e-01	 2.8961463638e+00
 8.7183955920e-01	 6.5004002415e-01	 2.8482053680e+00
 8.8503581419e-01	 6.3195558196e-01	 2.7411209011e+00
 8.9783550132e-01	 6.1363479574e-01	 2.8161736764e+00
 9.1023261844e-01	 5.9509060681e-01	 2.9714995341e+00
 7.6455920714e-01	 7.6455920714e-01	 2.2106849256e+00
 7.8022809453e-01	 7.4856241086e-01	 2.4718683962e+00
 7.9555910146e-01	 7.3224809903e-01	 2.6864015843e+00
 8.1054269927e-01	 7.1562706426e-01	 2.8513930172e+00
 8.2516982190e-01	 6.9871047471e-01	 2.9640908836e+00
 8.3943188405e-01	 6.8150984916e-01	 3.0218977863e+00
 8.5332079770e-01	 6.6403703111e-01	 3.0223848834e+00
 8.6682898702e-01	 6.4630416194e-01	 2.9633052968e+00
 8.7994940147e-01	 6.2832365333e-01	 2.8426066768e+00
 8.9267552718e-01	 6.1010815898e-01	 2.9816969183e+00
 9.0500139650e-01	 5.9167054585e-01	 3.1206294011e+00
 7.6013978976e-01	 7.6013978976e-01	 2.3544570496e+00
 7.7571810555e-01	 7.4423546051e-01	 2.6196258945e+00
 7.9096049394e-01	 7.2801545106e-01	 2.8357086406e+00
 8.0585748136e-01	 7.1149049164e-01	 2.9997797039e+00
 8.2040005415e-01	 6.9467168584e-01	 3.1090625076e+00
 8.3457967663e-01	 6.7757048587e-01	 3.1609442475e+00
 8.4838830754e-01	 6.6019866676e-01	 3.1529899913e+00
 8.6181841484e-01	 6.4256829973e-01	 3.0829559940e+00
 8.7486298874e-01	 6.2469172470e-01	 2.9557249157e+00
 8.8751555303e-01	 6.0658152223e-01	 3.1542107960e+00
 8.9977017455e-01	 5.8825048489e-01	 3.2767012335e+00
 7.5572037238e-01	 7.5572037238e-01	 2.5010639906e+00
 7.7120811657e-01	 7.3990851016e-01	 2.7705460855e+00
 7.8636188642e-01	 7.2378280309e-01	 2.9884845085e+00
 8.0117226345e-01	 7.0735391901e-01	 3.1519187660e+00
 8.1563028640e-01	 6.9063289697e-01	 3.2580467640e+00
 8.2972746921e-01	 6.7363112258e-01	 3.3042395884e+00
 8.4345581738e-01	 6.5636030242e-01	 3.2880555667e+00
 8.5680784266e-01	 6.3883243752e-01	 3.2072534927e+00
 8.6977657602e-01	 6.2105979606e-01	 3.1495113098e+00
 8.8235557889e-01	 6.0305488547e-01	 3.3337810708e+00
 8.9453895261e-01	 5.8483042393e-01	 3.4397832786e+00
 7.5130095500e-01	 7.5130095500e-01	 2.6505773214e+00
 7.6669812758e-01	 7.3558155981e-01	 2.9247058028e+00
 7.8176327890e-01	 7.1955015512e-01	 3.1448107889e+00
 7.9648704554e-01	 7.0321734639e-01	 3.3078960713e+00
 8.1086051864e-01	 6.8659410810e-01	 3.4111332806e+00
 8.2487526179e-01	 6.6969175929e-01	 3.4518766859e+00
 8.3852332723e-01	 6.5252193808e-01	 3.4276772213e+00
 8.5179727049e-01	 6.3509657531e-01	 3.3362956235e+00
 8.6469016330e-01	 6.1742786743e-01	 3.3504350316e+00
 8.7719560475e-01	 5.9952824871e-01	 3.5204753969e+00
 8.8930773066e-01	 5.8141036297e-01	 3.6099457074e+00
 9.4161995011e-01	 6.1561097256e-01	 2.2189086446e+00
 9.5402246952e-01	 5.9620980170e-01	 2.4171886863e+00
 9.6599785411e-01	 5.7660484377e-01	 2.5766316798e+00
 9.7754164024e-01	 5.5680996903e-01	 2.6998203378e+00
 9.8864995321e-01	 5.3683914726e-01	 2.7893465840e+00
 9.9931950769e-01	 5.1670641719e-01	 2.8477911694e+00
 1.0095476063e+00	 4.9642585623e-01	 2.8777042436e+00
 1.0193321361e+00	 4.7601155058e-01	 2.8815870364e+00
 1.0286715642e+00	 4.5547756592e-01	 2.8618747813e+00
 1.0375649302e+00	 4.3483791872e-01	 2.8209209989e+00
 1.0460118387e+00	 4.1410654828e-01	 2.7609832327e+00
 9.3638872817e-01	 6.1219091160e-01	 2.3277188950e+00
 9.4872234469e-01	 5.9289752503e-01	 2.5093435633e+00
 9.6063119936e-01	 5.7340148353e-01	 2.6533938656e+00
 9.7211085335e-01	 5.5371658031e-01	 2.7623769418e+00
 9.8315745347e-01	 5.3385670756e-01	 2.8388062698e+00
 9.9376773265e-01	 5.1383582599e-01	 2.8851818393e+00
 1.0039390084e+00	 4.9366793481e-01	 2.9039712759e+00
 1.0136691798e+00	 4.7336704197e-01	 2.8975920622e+00
 1.0229567222e+00	 4.5294713501e-01	 2.8683949891e+00
 1.0318006806e+00	 4.3242215251e-01	 2.8186489451e+00
 1.0402006618e+00	 4.1180595635e-01	 2.7505271389e+00
 9.3115750622e-01	 6.0877085064e-01	 2.4430990686e+00
 9.4342221986e-01	 5.8958524835e-01	 2.6079955014e+00
 9.5526454462e-01	 5.7019812329e-01	 2.7365937522e+00
 9.6668006646e-01	 5.5062319160e-01	 2.8313260627e+00
 9.7766495373e-01	 5.3087426785e-01	 2.8946280831e+00
 9.8821595761e-01	 5.1096523479e-01	 2.9289196007e+00
 9.9833041063e-01	 4.9091001339e-01	 2.9365862126e+00
 1.0080062235e+00	 4.7072253336e-01	 2.9199620862e+00
 1.0172418801e+00	 4.5041670409e-01	 2.8813139333e+00
 1.0260364310e+00	 4.3000638630e-01	 2.8228263064e+00
 1.0343894849e+00	 4.0950536441e-01	 2.7465883044e+00
 9.2592628428e-01	 6.0535078969e-01	 2.5651069630e+00
 9.3812209503e-01	 5.8627297168e-01	 2.7132044637e+00
 9.4989788988e-01	 5.6699476305e-01	 2.8262936903e+00
 9.6124927957e-01	 5.4752980289e-01	 2.9067326511e+00
 9.7217245399e-01	 5.2789182815e-01	 2.9568797762e+00
 9.8266418256e-01	 5.0809464358e-01	 2.9790751990e+00
 9.9272181282e-01	 4.8815209197e-01	 2.9756229738e+00
 1.0023432672e+00	 4.6807802475e-01	 2.9487743730e+00
 1.0115270381e+00	 4.4788627317e-01	 2.9007123825e+00
 1.0202721814e+00	 4.2759062009e-01	 2.8335375027e+00
 1.0285783081e+00	 4.0720477248e-01	 2.7492549378e+00
 9.2069506233e-01	 6.0193072873e-01	 2.6938019965e+00
 9.3282197020e-01	 5.8296069500e-01	 2.8250320564e+00
 9.4453123513e-01	 5.6379140280e-01	 2.9225577018e+00
 9.5581849268e-01	 5.4443641417e-01	 2.9886633617e+00
 9.6667995425e-01	 5.2490938844e-01	 3.0256308443e+00
 9.7711240752e-01	 5.0522405238e-01	 3.0357211664e+00
 9.8711321500e-01	 4.8539417055e-01	 3.0211573147e+00
 9.9668031088e-01	 4.6543351613e-01	 2.9841080755e+00
 1.0058121961e+00	 4.4535584225e-01	 2.9266730510e+00
 1.0145079318e+00	 4.2517485387e-01	 2.8508689626e+00
 1.0227671312e+00	 4.0490418055e-01	 2.7586173228e+00
 9.1546384039e-01	 5.9851066777e-01	 2.8292452538e+00
 9.2752184537e-01	 5.7964841833e-01	 2.9435415758e+00
 9.3916458038e-01	 5.6058804256e-01	 3.0254515275e+00
 9.5038770579e-01	 5.4134302545e-01	 3.0771866026e+00
 9.6118745451e-01	 5.2192694874e-01	 3.1009525752e+00
 9.7156063248e-01	 5.0235346117e-01	 3.0989318726e+00
 9.8150461719e-01	 4.8263624912e-01	 3.0732668776e+00
 9.9101735457e-01	 4.6278900752e-01	 3.0260442887e+00
 1.0000973541e+00	 4.4282541133e-01	 2.9592806548e+00
 1.0087436822e+00	 4.2275908766e-01	 2.8749091802e+00
 1.0169559543e+00	 4.0260358861e-01	 2.7747678772e+00
 9.1023261844e-01	 5.9509060681e-01	 2.9714995341e+00
 9.2222172054e-01	 5.7633614165e-01	 3.0687980570e+00
 9.3379792564e-01	 5.5738468232e-01	 3.1350426763e+00
 9.4495691890e-01	 5.3824963674e-01	 3.1723725856e+00
 9.5569495477e-01	 5.1894450903e-01	 3.1829181014e+00
 9.6600885743e-01	 4.9948286997e-01	 3.1687835780e+00
 9.7589601938e-01	 4.7987832770e-01	 3.1320312468e+00
 9.8535439826e-01	 4.6014449891e-01	 3.0746661055e+00
 9.9438251205e-01	 4.4029498041e-01	 2.9986219692e+00
 1.0029794326e+00	 4.2034332144e-01	 2.9057487748e+00
 1.0111447774e+00	 4.0030299668e-01	 2.7978012147e+00
 9.0500139650e-01	 5.9167054585e-01	 3.1206294011e+00
 9.1692159570e-01	 5.7302386497e-01	 3.2008683238e+00
 9.2843127089e-01	 5.5418132207e-01	 3.2514004769e+00
 9.3952613200e-01	 5.3515624802e-01	 3.2742933781e+00
 9.5020245503e-01	 5.1596206932e-01	 3.2716024527e+00
 9.6045708239e-01	 4.9661227876e-01	 3.2453544875e+00
 9.7028742156e-01	 4.7712040628e-01	 3.1975320040e+00
 9.7969144194e-01	 4.5749999029e-01	 3.1300586748e+00
 9.8866767002e-01	 4.3776454948e-01	 3.0447858882e+00
 9.9721518295e-01	 4.1792755523e-01	 2.9434805523e+00
 1.0053336005e+00	 3.9800240474e-01	 2.8278142080e+00
 8.9977017455e-01	 5.8825048489e-01	 3.2767012335e+00
 9.1162147087e-01	 5.6971158830e-01	 3.3398210408e+00
 9.2306461615e-01	 5.5097796183e-01	 3.3745961300e+00
 9.3409534511e-01	 5.3206285930e-01	 3.3830229571e+00
 9.4470995528e-01	 5.1297962961e-01	 3.3670826119e+00
 9.5490530734e-01	 4.9374168755e-01	 3.3287248080e+00
 9.6467882375e-01	 4.7436248485e-01	 3.2698527872e+00
 9.7402848563e-01	 4.5485548168e-01	 3.1923092605e+00
 9.8295282799e-01	 4.3523411856e-01	 3.0978634858e+00
 9.9145093334e-01	 4.1551178901e-01	 2.9881995686e+00
 9.9952242364e-01	 3.9570181281e-01	 2.8649060543e+00
 8.9453895261e-01	 5.8483042393e-01	 3.4397832786e+00
 9.0632134604e-01	 5.6639931162e-01	 3.4857267674e+00
 9.1769796140e-01	 5.4777460158e-01	 3.5047027638e+00
 9.2866455822e-01	 5.2896947058e-01	 3.4986372654e+00
 9.3921745554e-01	 5.0999718991e-01	 3.4694375718e+00
 9.4935353230e-01	 4.9087109634e-01	 3.4189768062e+00
 9.5907022593e-01	 4.7160456343e-01	 3.3490793499e+00
 9.6836552931e-01	 4.5221097306e-01	 3.2615073043e+00
 9.7723798597e-01	 4.3270368764e-01	 3.1579480804e+00
 9.8568668372e-01	 4.1309602280e-01	 3.0400031955e+00
 9.9371124676e-01	 3.9340122087e-01	 2.9091783439e+00
 8.8930773066e-01	 5.8141036297e-01	 3.6099457074e+00
 9.0102122121e-01	 5.6308703494e-01	 3.6386580135e+00
 9.1233130665e-01	 5.4457124134e-01	 3.6417954898e+00
 9.2323377133e-01	 5.2587608186e-01	 3.6212142688e+00
 9.3372495580e-01	 5.0701475020e-01	 3.5787483940e+00
 9.4380175725e-01	 4.8800050513e-01	 3.5161948699e+00
 9.5346162811e-01	 4.6884664200e-01	 3.4352996240e+00
 9.6270257299e-01	 4.4956646444e-01	 3.3377444888e+00
 9.7152314394e-01	 4.3017325671e-01	 3.2251353001e+00
 9.7992243410e-01	 4.1068025658e-01	 3.0989911889e+00
 9.8790006987e-01	 3.9110062893e-01	 2.9607351298e+00
 1.0460118387e+00	 4.1410654828e-01	 2.7609832327e+00
 1.0540124487e+00	 3.9329728964e-01	 2.7620721462e+00
 1.0615674627e+00	 3.7242384749e-01	 2.7533503947e+00
 1.0686781139e+00	 3.5149977102e-01	 2.7362519544e+00
 1.0753461519e+00	 3.3053842996e-01	 2.7120800326e+00
 1.0815738280e+00	 3.0955299173e-01	 2.6820021559e+00
 1.0873638784e+00	 2.8855639992e-01	 2.6470467660e+00
 1.0927195074e+00	 2.6756135393e-01	 2.6081012813e+00
 1.0976443689e+00	 2.4658029007e-01	 2.5659115654e+00
 1.1021425476e+00	 2.2562536388e-01	 2.5210827333e+00
 1.1062185395e+00	 2.0470843399e-01	 2.4740812137e+00
 1.0402006618e+00	 4.1180595635e-01	 2.7505271389e+00
 1.0481568240e+00	 3.9111230470e-01	 2.7451747870e+00
 1.0556698657e+00	 3.7035482612e-01	 2.7299213798e+00
 1.0627410132e+00	 3.4954699452e-01	 2.7062024534e+00
 1.0693720066e+00	 3.2870210535e-01	 2.6753242899e+00
 1.0755650845e+00	 3.0783325289e-01	 2.6384590276e+00
 1.0813229680e+00	 2.8695330881e-01	 2.5966412609e+00
 1.0866488435e+00	 2.6607490197e-01	 2.5507660868e+00
 1.0915463446e+00	 2.4521039957e-01	 2.5015885413e+00
 1.0960195334e+00	 2.2437188964e-01	 2.4497243568e+00
 1.1000728809e+00	 2.0357116491e-01	 2.3956519615e+00
 1.0343894849e+00	 4.0950536441e-01	 2.7465883044e+00
 1.0423011993e+00	 3.8892731976e-01	 2.7345258618e+00
 1.0497722687e+00	 3.6828580474e-01	 2.7124846814e+00
 1.0568039126e+00	 3.4759421801e-01	 2.6819025698e+00
 1.0633978613e+00	 3.2686578074e-01	 2.6440895200e+00
 1.0695563410e+00	 3.0611351405e-01	 2.6002228437e+00
 1.0752820576e+00	 2.8535021770e-01	 2.5513437738e+00
 1.0805781796e+00	 2.6458845000e-01	 2.4983554965e+00
 1.0854483204e+00	 2.4384050907e-01	 2.4420225554e+00
 1.0898965193e+00	 2.2311841540e-01	 2.3829715623e+00
 1.0939272224e+00	 2.0243389584e-01	 2.3216931339e+00
 1.0285783081e+00	 4.0720477248e-01	 2.7492549378e+00
 1.0364455746e+00	 3.8674233482e-01	 2.7302114937e+00
 1.0438746717e+00	 3.6621678337e-01	 2.7011243721e+00
 1.0508668120e+00	 3.4564144151e-01	 2.6634343614e+00
 1.0574237160e+00	 3.2502945613e-01	 2.6184558029e+00
 1.0635475975e+00	 3.0439377521e-01	 2.5673717439e+00
 1.0692411471e+00	 2.8374712659e-01	 2.5112305427e+00
 1.0745075156e+00	 2.6310199804e-01	 2.4509438858e+00
 1.0793502961e+00	 2.4247061857e-01	 2.3872861615e+00
 1.0837735051e+00	 2.2186494116e-01	 2.3208951235e+00
 1.0877815638e+00	 2.0129662676e-01	 2.2522737672e+00
 1.0227671312e+00	 4.0490418055e-01	 2.7586173228e+00
 1.0305899498e+00	 3.8455734988e-01	 2.7323198153e+00
 1.0379770746e+00	 3.6414776200e-01	 2.6959264706e+00
 1.0449297113e+00	 3.4368866500e-01	 2.6508817711e+00
 1.0514495707e+00	 3.2319313152e-01	 2.5985050446e+00
 1.0575388540e+00	 3.0267403636e-01	 2.5399856372e+00
 1.0632002367e+00	 2.8214403548e-01	 2.4763795205e+00
 1.0684368517e+00	 2.6161554607e-01	 2.4086072940e+00
 1.0732522718e+00	 2.4110072807e-01	 2.3374535281e+00
 1.0776504910e+00	 2.2061146691e-01	 2.2635673823e+00
 1.0816359053e+00	 2.0015935768e-01	 2.1874644221e+00
 1.0169559543e+00	 4.0260358861e-01	 2.7747678772e+00
 1.0247343251e+00	 3.8237236494e-01	 2.7409410261e+00
 1.0320794776e+00	 3.6207874062e-01	 2.6969789972e+00
 1.0389926107e+00	 3.4173588850e-01	 2.6443306803e+00
 1.0454754254e+00	 3.2135680690e-01	 2.5843210291e+00
 1.0515301105e+00	 3.0095429752e-01	 2.5181462527e+00
 1.0571593262e+00	 2.8054094437e-01	 2.4468704248e+00
 1.0623661878e+00	 2.6012909411e-01	 2.3714234716e+00
 1.0671542475e+00	 2.3973083757e-01	 2.2926004845e+00
 1.0715274768e+00	 2.1935799267e-01	 2.2110622937e+00
 1.0754902467e+00	 1.9902208861e-01	 2.1273372274e+00
 1.0111447774e+00	 4.0030299668e-01	 2.7978012147e+00
 1.0188787004e+00	 3.8018737999e-01	 2.7561674515e+00
 1.0261818806e+00	 3.6000971925e-01	 2.7043720311e+00
 1.0330555100e+00	 3.3978311199e-01	 2.6438689648e+00
 1.0395012801e+00	 3.1952048229e-01	 2.5759894724e+00
 1.0455213670e+00	 2.9923455868e-01	 2.5019371915e+00
 1.0511184158e+00	 2.7893785326e-01	 2.4227847881e+00
 1.0562955238e+00	 2.5864264214e-01	 2.3394719296e+00
 1.0610562233e+00	 2.3836094707e-01	 2.2528045686e+00
 1.0654044627e+00	 2.1810451842e-01	 2.1634554722e+00
 1.0693445882e+00	 1.9788481953e-01	 2.0719659252e+00
 1.0053336005e+00	 3.9800240474e-01	 2.8278142080e+00
 1.0130230757e+00	 3.7800239505e-01	 2.7780936050e+00
 1.0202842836e+00	 3.5794069787e-01	 2.7181977703e+00
 1.0271184094e+00	 3.3783033548e-01	 2.6495865523e+00
 1.0335271349e+00	 3.1768415768e-01	 2.5735980784e+00
 1.0395126235e+00	 2.9751481983e-01	 2.4914439812e+00
 1.0450775054e+00	 2.7733476215e-01	 2.4042060102e+00
 1.0502248599e+00	 2.5715619017e-01	 2.3128339903e+00
 1.0549581990e+00	 2.3699105657e-01	 2.2181450762e+00
 1.0592814485e+00	 2.1685104418e-01	 2.1208242397e+00
 1.0631989296e+00	 1.9674755045e-01	 2.0214259171e+00
 9.9952242364e-01	 3.9570181281e-01	 2.8649060543e+00
 1.0071674510e+00	 3.7581741011e-01	 2.8068162510e+00
 1.0143866866e+00	 3.5587167649e-01	 2.7385505929e+00
 1.0211813088e+00	 3.3587755898e-01	 2.6615754822e+00
 1.0275529896e+00	 3.1584783307e-01	 2.5772365965e+00
 1.0335038800e+00	 2.9579508099e-01	 2.4867541315e+00
 1.0390365949e+00	 2.7573167104e-01	 2.3912194128e+00
 1.0441541960e+00	 2.5566973821e-01	 2.2915928399e+00
 1.0488601747e+00	 2.3562116607e-01	 2.1887031124e+00
 1.0531584344e+00	 2.1559756993e-01	 2.0832476752e+00
 1.0570532710e+00	 1.9561028137e-01	 1.9757943128e+00
 9.9371124676e-01	 3.9340122087e-01	 2.9091783439e+00
 1.0013118262e+00	 3.7363242516e-01	 2.8424344711e+00
 1.0084890895e+00	 3.5380265512e-01	 2.7655271209e+00
 1.0152442081e+00	 3.3392478247e-01	 2.6799299671e+00
 1.0215788443e+00	 3.1401150846e-01	 2.5869968817e+00
 1.0274951366e+00	 2.9407534215e-01	 2.4879571927e+00
 1.0329956845e+00	 2.7412857992e-01	 2.3839122956e+00
 1.0380835320e+00	 2.5418328624e-01	 2.2758335833e+00
 1.0427621504e+00	 2.3425127556e-01	 2.1645616440e+00
 1.0470354202e+00	 2.1434409569e-01	 2.0508066661e+00
 1.0509076125e+00	 1.9447301229e-01	 1.9351499797e+00
 9.8790006987e-01	 3.9110062893e-01	 2.9607351298e+00
 9.9545620153e-01	 3.7144744022e-01	 2.8850497322e+00
 1.0025914925e+00	 3.5173363374e-01	 2.7992262863e+00
 1.0093071075e+00	 3.3197200596e-01	 2.7047464570e+00
 1.0156046990e+00	 3.1217518385e-01	 2.6029729564e+00
 1.0214863931e+00	 2.9235560330e-01	 2.4951448152e+00
 1.0269547741e+00	 2.7252548881e-01	 2.3823739944e+00
 1.0320128681e+00	 2.5269683427e-01	 2.2656433001e+00
 1.0366641262e+00	 2.3288138506e-01	 2.1458055547e+00
 1.0409124060e+00	 2.1309062144e-01	 2.0235839615e+00
 1.0447619539e+00	 1.9333574321e-01	 1.8995735952e+00
 1.1062185395e+00	 2.0470843399e-01	 2.4740812137e+00
 1.1098772317e+00	 1.8384104721e-01	 2.5072639796e+00
 1.1131238818e+00	 1.6303442517e-01	 2.5293016489e+00
 1.1159640971e+00	 1.4229945224e-01	 2.5407745704e+00
 1.1184038130e+00	 1.2164666494e-01	 2.5421573658e+00
 1.1204492722e+00	 1.0108624264e-01	 2.5338231494e+00
 1.1221070028e+00	 8.0627999711e-02	 2.5160484531e+00
 1.1233837970e+00	 6.0281378879e-02	 2.4890187597e+00
 1.1242866900e+00	 4.0055445998e-02	 2.4528345440e+00
 1.1248229385e+00	 1.9958885984e-02	 2.4075177265e+00
 1.1250000000e+00	 0.0000000000e+00	 2.3530184448e+00
 1.1000728809e+00	 2.0357116491e-01	 2.3956519615e+00
 1.1037112471e+00	 1.8281970806e-01	 2.4205358716e+00
 1.1069398602e+00	 1.6212867837e-01	 2.4355420265e+00
 1.1097642965e+00	 1.4150889973e-01	 2.4412390786e+00
 1.1121904585e+00	 1.2097085014e-01	 2.4380875664e+00
 1.1142245540e+00	 1.0052465241e-01	 2.4264442733e+00
 1.1158730750e+00	 8.0180066382e-02	 2.4065672895e+00
 1.1171427759e+00	 5.9946482332e-02	 2.3786216788e+00
 1.1180406528e+00	 3.9832915744e-02	 2.3426856501e+00
 1.1185739221e+00	 1.9848003285e-02	 2.2987571380e+00
 1.1187500000e+00	 0.0000000000e+00	 2.2467606979e+00
 1.0939272224e+00	 2.0243389584e-01	 2.3216931339e+00
 1.0975452624e+00	 1.8179836891e-01	 2.3381563815e+00
 1.1007558387e+00	 1.6122293156e-01	 2.3460399625e+00
 1.1035644960e+00	 1.4071834722e-01	 2.3459005396e+00
 1.1059771040e+00	 1.2029503533e-01	 2.3381841874e+00
 1.1079998358e+00	 9.9963062176e-02	 2.3232308957e+00
 1.1096391472e+00	 7.9732133052e-02	 2.3012797734e+00
 1.1109017548e+00	 5.9611585785e-02	 2.2724748535e+00
 1.1117946156e+00	 3.9610385490e-02	 2.2368714005e+00
 1.1123249058e+00	 1.9737120586e-02	 2.1944426235e+00
 1.1125000000e+00	 0.0000000000e+00	 2.1450867007e+00
 1.0877815638e+00	 2.0129662676e-01	 2.2522737672e+00
 1.0913792778e+00	 1.8077702977e-01	 2.2601928001e+00
 1.0945718171e+00	 1.6031718476e-01	 2.2608612897e+00
 1.0973646954e+00	 1.3992779471e-01	 2.2548236115e+00
 1.0997637494e+00	 1.1961922053e-01	 2.2425109919e+00
 1.1017751177e+00	 9.9401471941e-02	 2.2242461604e+00
 1.1034052194e+00	 7.9284199722e-02	 2.2002487000e+00
 1.1046607337e+00	 5.9276689237e-02	 2.1706409962e+00
 1.1055485785e+00	 3.9387855236e-02	 2.1354546856e+00
 1.1060758895e+00	 1.9626237886e-02	 2.0946375069e+00
 1.1062500000e+00	 0.0000000000e+00	 2.0480604602e+00
 1.0816359053e+00	 2.0015935768e-01	 2.1874644221e+00
 1.0852132932e+00	 1.7975569061e-01	 2.1867139006e+00
 1.0883877955e+00	 1.5941143795e-01	 2.1800732885e+00
 1.0911648949e+00	 1.3913724220e-01	 2.1680743740e+00
 1.0935503949e+00	 1.1894340573e-01	 2.1511331467e+00
 1.0955503995e+00	 9.8839881706e-02	 2.1295546044e+00
 1.0971712916e+00	 7.8836266391e-02	 2.1035382551e+00
 1.0984197126e+00	 5.8941792689e-02	 2.0731842152e+00
 1.0993025413e+00	 3.9165324981e-02	 2.0384998045e+00
 1.0998268732e+00	 1.9515355187e-02	 1.9994065404e+00
 1.1000000000e+00	 0.0000000000e+00	 1.9557474379e+00
 1.0754902467e+00	 1.9902208861e-01	 2.1273372274e+00
 1.0790473086e+00	 1.7873435146e-01	 2.1177899805e+00
 1.0822037740e+00	 1.5850569115e-01	 2.1037447291e+00
 1.0849650944e+00	 1.3834668969e-01	 2.0857203696e+00
 1.0873370404e+00	 1.1826759092e-01	 2.0641172625e+00
 1.0893256813e+00	 9.8278291469e-02	 2.0392221982e+00
 1.0909373638e+00	 7.8388333060e-02	 2.0112140555e+00
 1.0921786915e+00	 5.8606896140e-02	 1.9801700549e+00
 1.0930565041e+00	 3.8942794725e-02	 1.9460725048e+00
 1.0935778568e+00	 1.9404472487e-02	 1.9088159448e+00
 1.0937500000e+00	 0.0000000000e+00	 1.8682145918e+00
 1.0693445882e+00	 1.9788481953e-01	 2.0719659252e+00
 1.0728813239e+00	 1.7771301231e-01	 2.0534929056e+00
 1.0760197524e+00	 1.5759994434e-01	 2.0319459135e+00
 1.0787652938e+00	 1.3755613718e-01	 2.0078306453e+00
 1.0811236859e+00	 1.1759177612e-01	 1.9815314356e+00
 1.0831009631e+00	 9.7716701232e-02	 1.9533163868e+00
 1.0847034360e+00	 7.7940399728e-02	 1.9233431899e+00
 1.0859376704e+00	 5.8271999590e-02	 1.8916655368e+00
 1.0868104670e+00	 3.8720264470e-02	 1.8582400242e+00
 1.0873288405e+00	 1.9293589787e-02	 1.8229334518e+00
 1.0875000000e+00	 0.0000000000e+00	 1.7855304191e+00
 1.0631989296e+00	 1.9674755045e-01	 2.0214259171e+00
 1.0667153393e+00	 1.7669167316e-01	 1.9938961555e+00
 1.0698357308e+00	 1.5669419753e-01	 1.9647487204e+00
 1.0725654933e+00	 1.3676558466e-01	 1.9344757960e+00
 1.0749103314e+00	 1.1691596131e-01	 1.9034452903e+00
 1.0768762449e+00	 9.7155110995e-02	 1.8719061324e+00
 1.0784695082e+00	 7.7492466396e-02	 1.8399942611e+00
 1.0796966493e+00	 5.7937103041e-02	 1.8077392019e+00
 1.0805644298e+00	 3.8497734214e-02	 1.7750711340e+00
 1.0810798242e+00	 1.9182707087e-02	 1.7418283482e+00
 1.0812500000e+00	 0.0000000000e+00	 1.7077650008e+00
 1.0570532710e+00	 1.9561028137e-01	 1.9757943128e+00
 1.0605493547e+00	 1.7567033401e-01	 1.9390748702e+00
 1.0636517093e+00	 1.5578845072e-01	 1.9022266505e+00
 1.0663656927e+00	 1.3597503215e-01	 1.8657280100e+00
 1.0686969769e+00	 1.1624014650e-01	 1.8299300240e+00
 1.0706515268e+00	 9.6593520757e-02	 1.7950619585e+00
 1.0722355804e+00	 7.7044533063e-02	 1.7612374304e+00
 1.0734556282e+00	 5.7602206490e-02	 1.7284611555e+00
 1.0743183926e+00	 3.8275203958e-02	 1.6966361833e+00
 1.0748308079e+00	 1.9071824387e-02	 1.6655715203e+00
 1.0750000000e+00	 0.0000000000e+00	 1.6349900476e+00
 1.0509076125e+00	 1.9447301229e-01	 1.9351499797e+00
 1.0543833701e+00	 1.7464899486e-01	 1.8891058988e+00
 1.0574676877e+00	 1.5488270392e-01	 1.8444548745e+00
 1.0601658922e+00	 1.3518447964e-01	 1.8016611149e+00
 1.0624836223e+00	 1.1556433170e-01	 1.7610584526e+00
 1.0644268086e+00	 9.6031930518e-02	 1.7228559953e+00
 1.0660016526e+00	 7.6596599730e-02	 1.6871444632e+00
 1.0672146071e+00	 5.7267309940e-02	 1.6539031127e+00
 1.0680723555e+00	 3.8052673701e-02	 1.6230071452e+00
 1.0685817915e+00	 1.8960941686e-02	 1.5942355014e+00
 1.0687500000e+00	 0.0000000000e+00	 1.5672789476e+00
 1.0447619539e+00	 1.9333574321e-01	 1.8995735952e+00
 1.0482173855e+00	 1.7362765570e-01	 1.8440678500e+00
 1.0512836661e+00	 1.5397695711e-01	 1.7915102819e+00
 1.0539660917e+00	 1.3439392712e-01	 1.7423506263e+00
 1.0562702678e+00	 1.1488851689e-01	 1.6969050586e+00
 1.0582020904e+00	 9.5470340278e-02	 1.6553620275e+00
 1.0597677248e+00	 7.6148666396e-02	 1.6177887760e+00
 1.0609735861e+00	 5.6932413388e-02	 1.5841384456e+00
 1.0618263183e+00	 3.7830143444e-02	 1.5542576646e+00
 1.0623327752e+00	 1.8850058986e-02	 1.5278945198e+00
 1.0625000000e+00	 0.0000000000e+00	 1.5047068158e+00
 0.0000000000e+00	 1.0625000000e+00	-6.4092579509e+00
 1.8850058986e-02	 1.0623327752e+00	-6.4353491653e+00
 3.7830143444e-02	 1.0618263183e+00	-6.4374263922e+00
 5.6932413388e-02	 1.0609735861e+00	-6.4155076862e+00
 7.6148666396e-02	 1.0597677248e+00	-6.3695958807e+00
 9.5470340278e-02	 1.0582020904e+00	-6.2996766829e+00
 1.1488851689e-01	 1.0562702678e+00	-6.2057170429e+00
 1.3439392712e-01	 1.0539660917e+00	-6.0876638420e+00
 1.5397695711e-01	 1.0512836661e+00	-5.9454429445e+00
 1.7362765570e-01	 1.0482173855e+00	-5.7789586580e+00
 1.9333574321e-01	 1.0447619539e+00	-5.5880936420e+00
 0.0000000000e+00	 1.0562500000e+00	-6.5961610390e+00
 1.8739176285e-02	 1.0560837589e+00	-6.6203821063e+00
 3.7607613188e-02	 1.0555802811e+00	-6.6201140857e+00
 5.6597516837e-02	 1.0547325650e+00	-6.5953749466e+00
 7.5700733062e-02	 1.0535337970e+00	-6.5461690482e+00
 9.4908750039e-02	 1.0519773722e+00	-6.4724852883e+00
 1.1421270208e-01	 1.0500569133e+00	-6.3742955171e+00
 1.3360337460e-01	 1.0477662911e+00	-6.2515532584e+00
 1.5307121030e-01	 1.0450996446e+00	-6.1041927833e+00
 1.7260631655e-01	 1.0420514008e+00	-5.9321285792e+00
 1.9219847413e-01	 1.0386162954e+00	-5.7352552533e+00
 0.0000000000e+00	 1.0500000000e+00	-6.7927713540e+00
 1.8628293585e-02	 1.0498347426e+00	-6.8150226642e+00
 3.7385082931e-02	 1.0493342440e+00	-6.8123199698e+00
 5.6262620287e-02	 1.0484915439e+00	-6.7846814495e+00
 7.5252799729e-02	 1.0472998693e+00	-6.7321132514e+00
 9.4347159800e-02	 1.0457526540e+00	-6.6546076940e+00
 1.1353688727e-01	 1.0438435588e+00	-6.5521417211e+00
 1.3281282209e-01	 1.0415664906e+00	-6.4246756552e+00
 1.5216546349e-01	 1.0389156230e+00	-6.2721522908e+00
 1.7158497739e-01	 1.0358854162e+00	-6.0944963694e+00
 1.9106120505e-01	 1.0324706368e+00	-5.8916144772e+00
 0.0000000000e+00	 1.0437500000e+00	-6.9992810777e+00
 1.8517410884e-02	 1.0435857262e+00	-7.0194614428e+00
 3.7162552675e-02	 1.0430882068e+00	-7.0142330778e+00
 5.5927723736e-02	 1.0422505228e+00	-6.9836146676e+00
 7.4804866396e-02	 1.0410659415e+00	-6.9276144158e+00
 9.3785569562e-02	 1.0395279359e+00	-6.8462282940e+00
 1.1286107247e-01	 1.0376302043e+00	-6.7394385377e+00
 1.3202226958e-01	 1.0353666900e+00	-6.6072124278e+00
 1.5125971668e-01	 1.0327316014e+00	-6.4495014017e+00
 1.7056363824e-01	 1.0297194316e+00	-6.2662405342e+00
 1.8992393597e-01	 1.0263249783e+00	-6.0573484253e+00
 0.0000000000e+00	 1.0375000000e+00	-7.2158870229e+00
 1.8406528184e-02	 1.0373367099e+00	-7.2338936454e+00
 3.6940022419e-02	 1.0368421696e+00	-7.2260470115e+00
 5.5592827187e-02	 1.0360095017e+00	-7.1923666132e+00
 7.4356933063e-02	 1.0348320137e+00	-7.1328629784e+00
 9.3223979324e-02	 1.0333032177e+00	-7.0475359689e+00
 1.1218525766e-01	 1.0314168498e+00	-6.9363733122e+00
 1.3123171706e-01	 1.0291668895e+00	-6.7993494113e+00
 1.5035396987e-01	 1.0265475799e+00	-6.6364244708e+00
 1.6954229909e-01	 1.0235534470e+00	-6.4475439807e+00
 1.8878666689e-01	 1.0201793197e+00	-6.2326385949e+00
 0.0000000000e+00	 1.0312500000e+00	-7.4427907736e+00
 1.8295645484e-02	 1.0310876936e+00	-7.4585192130e+00
 3.6717492163e-02	 1.0305961325e+00	-7.4479600797e+00
 5.5257930637e-02	 1.0297684806e+00	-7.4111339753e+00
 7.3908999732e-02	 1.0285980859e+00	-7.3480540254e+00
 9.2662389087e-02	 1.0270784995e+00	-7.2587242212e+00
 1.1150944286e-01	 1.0252034952e+00	-7.1431379873e+00
 1.3044116455e-01	 1.0229670890e+00	-7.0012770159e+00
 1.4944822307e-01	 1.0203635583e+00	-6.8331104066e+00
 1.6852095994e-01	 1.0173874624e+00	-6.6385941514e+00
 1.8764939782e-01	 1.0140336612e+00	-6.4176710016e+00
 0.0000000000e+00	 1.0250000000e+00	-7.6801988303e+00
 1.8184762785e-02	 1.0248386773e+00	-7.6935429698e+00
 3.6494961908e-02	 1.0243500953e+00	-7.6801754412e+00
 5.4923034088e-02	 1.0235274595e+00	-7.6401182627e+00
 7.3461066401e-02	 1.0223641581e+00	-7.5733874332e+00
 9.2100798851e-02	 1.0208537813e+00	-7.4799913169e+00
 1.1083362805e-01	 1.0189901407e+00	-7.3599292436e+00
 1.2965061204e-01	 1.0167672884e+00	-7.2131903660e+00
 1.4854247626e-01	 1.0141795367e+00	-7.0397528104e+00
 1.6749962079e-01	 1.0112214777e+00	-6.8395831620e+00
 1.8651212874e-01	 1.0078880026e+00	-6.6126363172e+00
 0.0000000000e+00	 1.0187500000e+00	-7.9283227611e+00
 1.8073880085e-02	 1.0185896609e+00	-7.9391747722e+00
 3.6272431653e-02	 1.0181040581e+00	-7.9229012541e+00
 5.4588137540e-02	 1.0172864384e+00	-7.8795259512e+00
 7.3013133070e-02	 1.0161302303e+00	-7.8090680154e+00
 9.1539208615e-02	 1.0146290631e+00	-7.7115404308e+00
 1.1015781325e-01	 1.0127767862e+00	-7.5869486447e+00
 1.2886005953e-01	 1.0105674879e+00	-7.4352894447e+00
 1.4763672946e-01	 1.0079955152e+00	-7.2565501205e+00
 1.6647828164e-01	 1.0050554931e+00	-7.0507079449e+00
 1.8537485966e-01	 1.0017423441e+00	-6.8177300127e+00
 0.0000000000e+00	 1.0125000000e+00	-8.1873793582e+00
 1.7962997386e-02	 1.0123406446e+00	-8.1956296645e+00
 3.6049901399e-02	 1.0118580210e+00	-8.1763508298e+00
 5.4253240992e-02	 1.0110454173e+00	-8.1295686375e+00
 7.2565199740e-02	 1.0098963025e+00	-8.0553056758e+00
 9.0977618380e-02	 1.0084043450e+00	-7.9535797990e+00
 1.0948199844e-01	 1.0065634317e+00	-7.8244027876e+00
 1.2806950702e-01	 1.0043676873e+00	-7.6677792440e+00
 1.4673098265e-01	 1.0018114936e+00	-7.4837057607e+00
 1.6545694249e-01	 9.9888950849e-01	-7.2721703982e+00
 1.8423759059e-01	 9.9559668551e-01	-7.0331525060e+00
 0.0000000000e+00	 1.0062500000e+00	-8.4575907996e+00
 1.7852114686e-02	 1.0060916283e+00	-8.4631280399e+00
 3.5827371145e-02	 1.0056119838e+00	-8.4407427931e+00
 5.3918344445e-02	 1.0048043962e+00	-8.3904631980e+00
 7.2117266410e-02	 1.0036623747e+00	-8.3123155656e+00
 9.0416028146e-02	 1.0021796268e+00	-8.2063228750e+00
 1.0880618364e-01	 1.0003500772e+00	-8.0725034599e+00
 1.2727895451e-01	 9.9816788679e-01	-7.9108699203e+00
 1.4582523585e-01	 9.9562747204e-01	-7.7214282962e+00
 1.6443560334e-01	 9.9272352386e-01	-7.5041775395e+00
 1.8310032151e-01	 9.8945102695e-01	-7.2591093160e+00
 0.0000000000e+00	 1.0000000000e+00	-8.7391848179e+00
 1.7741231987e-02	 9.9984261196e-01	-8.7418958079e+00
 3.5604840891e-02	 9.9936594664e-01	-8.7163012482e+00
 5.3583447897e-02	 9.9856337511e-01	-8.6624319537e+00
 7.1669333081e-02	 9.9742844690e-01	-8.5803182481e+00
 8.9854437912e-02	 9.9595490861e-01	-8.4699884936e+00
 1.0813036884e-01	 9.9413672265e-01	-8.3314678011e+00
 1.2648840200e-01	 9.9196808625e-01	-8.1647769555e+00
 1.4491948904e-01	 9.8944345047e-01	-7.9699315933e+00
 1.6341426419e-01	 9.8655753924e-01	-7.7469416659e+00
 1.8196305243e-01	 9.8330536840e-01	-7.4958112216e+00
 1.9333574321e-01	 1.0447619539e+00	-5.5880936420e+00
 2.1309063295e-01	 1.0409124014e+00	-5.4422189264e+00
 2.3288143153e-01	 1.0366641076e+00	-5.2728721567e+00
 2.5269693984e-01	 1.0320128261e+00	-5.0802421738e+00
 2.7252567830e-01	 1.0269546987e+00	-4.8645062975e+00
 2.9235590217e-01	 1.0214862744e+00	-4.6258315608e+00
 3.1217561818e-01	 1.0156045267e+00	-4.3643764754e+00
 3.3197260246e-01	 1.0093068711e+00	-4.0802933408e+00
 3.5173441970e-01	 1.0025911812e+00	-3.7737311008e+00
 3.7144844349e-01	 9.9545580429e-01	-3.4448387433e+00
 3.9110187790e-01	 9.8789957541e-01	-3.0937692331e+00
 1.9219847413e-01	 1.0386162954e+00	-5.7352552533e+00
 2.1183715863e-01	 1.0347893873e+00	-5.5805879595e+00
 2.3151154075e-01	 1.0305660835e+00	-5.4017008343e+00
 2.5121048726e-01	 1.0259421624e+00	-5.1988273050e+00
 2.7092258608e-01	 1.0209137887e+00	-4.9721929811e+00
 2.9063616156e-01	 1.0154775316e+00	-4.7220167658e+00
 3.1033929101e-01	 1.0096303824e+00	-4.4485124701e+00
 3.3001982245e-01	 1.0033697719e+00	-4.1518909418e+00
 3.4966539370e-01	 9.9669358604e-01	-3.8323627115e+00
 3.6926345264e-01	 9.8960018191e-01	-3.4901411542e+00
 3.8880127862e-01	 9.8208840144e-01	-3.1254461551e+00
 1.9106120505e-01	 1.0324706368e+00	-5.8916144772e+00
 2.1058368432e-01	 1.0286663732e+00	-5.7279855462e+00
 2.3014164998e-01	 1.0244680593e+00	-5.5393953444e+00
 2.4972403467e-01	 1.0198714987e+00	-5.3261220066e+00
 2.6931949385e-01	 1.0148728787e+00	-5.0884395218e+00
 2.8891642096e-01	 1.0094687888e+00	-4.8266187228e+00
 3.0850296384e-01	 1.0036562381e+00	-4.5409287484e+00
 3.2806704243e-01	 9.9743267261e-01	-4.2316389911e+00
 3.4759636770e-01	 9.9079599086e-01	-3.8990215337e+00
 3.6707846180e-01	 9.8374455953e-01	-3.5433540728e+00
 3.8650067934e-01	 9.7627722746e-01	-3.1649233168e+00
 1.8992393597e-01	 1.0263249783e+00	-6.0573484253e+00
 2.0933021001e-01	 1.0225433591e+00	-5.8845842043e+00
 2.2877175920e-01	 1.0183700351e+00	-5.6861235634e+00
 2.4823758208e-01	 1.0138008350e+00	-5.4622894734e+00
 2.6771640162e-01	 1.0088319687e+00	-5.2134044025e+00
 2.8719668036e-01	 1.0034600460e+00	-4.9397911819e+00
 3.0666663668e-01	 9.9768209387e-01	-4.6417743161e+00
 3.2611426241e-01	 9.9149557337e-01	-4.3196817492e+00
 3.4552734170e-01	 9.8489839567e-01	-3.9738470924e+00
 3.6489347095e-01	 9.7788893715e-01	-3.6046123081e+00
 3.8420008005e-01	 9.7046605348e-01	-3.2123308431e+00
 1.8878666689e-01	 1.0201793197e+00	-6.2326385949e+00
 2.0807673569e-01	 1.0164203449e+00	-6.0505607453e+00
 2.2740186843e-01	 1.0122720110e+00	-5.8420575685e+00
 2.4675112949e-01	 1.0077301713e+00	-5.6074970093e+00
 2.6611330940e-01	 1.0027910587e+00	-5.3472501234e+00
 2.8547693976e-01	 9.9745130322e-01	-5.0616918189e+00
 3.0483030951e-01	 9.9170794959e-01	-4.7512020139e+00
 3.2416148240e-01	 9.8555847412e-01	-4.4161672217e+00
 3.4345831570e-01	 9.7900080048e-01	-4.0569825679e+00
 3.6270848010e-01	 9.7203331477e-01	-3.6740542369e+00
 3.8189948077e-01	 9.6465487951e-01	-3.2678023393e+00
 1.8764939782e-01	 1.0140336612e+00	-6.4176710016e+00
 2.0682326138e-01	 1.0102973308e+00	-6.2260964040e+00
 2.2603197766e-01	 1.0061739868e+00	-6.0073737656e+00
 2.4526467690e-01	 1.0016595076e+00	-5.7619161518e+00
 2.6451021717e-01	 9.9675014874e-01	-5.4901433236e+00
 2.8375719916e-01	 9.9144256043e-01	-5.1924823544e+00
 3.0299398234e-01	 9.8573380532e-01	-4.8693686339e+00
 3.2220870238e-01	 9.7962137488e-01	-4.5212472723e+00
 3.4138928970e-01	 9.7310320529e-01	-4.1485749070e+00
 3.6052348926e-01	 9.6617769239e-01	-3.7518219114e+00
 3.7959888148e-01	 9.5884370553e-01	-3.3314749970e+00
 1.8651212874e-01	 1.0078880026e+00	-6.6126363172e+00
 2.0556978707e-01	 1.0041743167e+00	-6.4113769736e+00
 2.2466208688e-01	 1.0000759626e+00	-6.1822530210e+00
 2.4377822431e-01	 9.9558884396e-01	-5.9257228010e+00
 2.6290712494e-01	 9.9070923874e-01	-5.6422549075e+00
 2.8203745855e-01	 9.8543381764e-01	-5.3323286769e+00
 3.0115765517e-01	 9.7975966104e-01	-4.9964350395e+00
 3.2025592237e-01	 9.7368427563e-01	-4.6350777406e+00
 3.3932026370e-01	 9.6720561011e-01	-4.2487749376e+00
 3.5833849841e-01	 9.6032207000e-01	-3.8380611715e+00
 3.7729828220e-01	 9.5303253156e-01	-3.4034897032e+00
 1.8537485966e-01	 1.0017423441e+00	-6.8177300127e+00
 2.0431631276e-01	 9.9805130255e-01	-6.6065929455e+00
 2.2329219611e-01	 9.9397793848e-01	-6.3668807981e+00
 2.4229177173e-01	 9.8951818028e-01	-6.0990973534e+00
 2.6130403272e-01	 9.8466832875e-01	-5.8037601750e+00
 2.8031771795e-01	 9.7942507484e-01	-5.4814009710e+00
 2.9932132801e-01	 9.7378551676e-01	-5.1325662907e+00
 3.1830314235e-01	 9.6774717639e-01	-4.7578185640e+00
 3.3725123770e-01	 9.6130801492e-01	-4.3577374882e+00
 3.5615350757e-01	 9.5446644762e-01	-3.9329217611e+00
 3.7499768292e-01	 9.4722135758e-01	-3.4839911539e+00
 1.8423759059e-01	 9.9559668551e-01	-7.0331525060e+00
 2.0306283845e-01	 9.9192828842e-01	-6.8119396543e+00
 2.2192230534e-01	 9.8787991432e-01	-6.5614472998e+00
 2.4080531914e-01	 9.8344751659e-01	-6.2822248410e+00
 2.5970094049e-01	 9.7862741875e-01	-5.9748389581e+00
 2.7859797735e-01	 9.7341633205e-01	-5.6398738494e+00
 2.9748500084e-01	 9.6781137249e-01	-5.2779317732e+00
 3.1635036234e-01	 9.6181007715e-01	-4.8896339042e+00
 3.3518221170e-01	 9.5541041974e-01	-4.4756215105e+00
 3.5396851672e-01	 9.4861082524e-01	-4.0365574483e+00
 3.7269708363e-01	 9.4141018361e-01	-3.5731279714e+00
 1.8310032151e-01	 9.8945102695e-01	-7.2591093160e+00
 2.0180936414e-01	 9.8580527429e-01	-7.0276174283e+00
 2.2055241456e-01	 9.8178189016e-01	-6.7661476151e+00
 2.3931886655e-01	 9.7737685291e-01	-6.4752950747e+00
 2.5809784827e-01	 9.7258650876e-01	-6.1556757608e+00
 2.7687823675e-01	 9.6740758926e-01	-5.8079264911e+00
 2.9564867368e-01	 9.6183722821e-01	-5.4327053333e+00
 3.1439758232e-01	 9.5587297790e-01	-5.0306922787e+00
 3.3311318570e-01	 9.4951282455e-01	-4.6025902083e+00
 3.5178352588e-01	 9.4275520287e-01	-4.1491261507e+00
 3.7039648435e-01	 9.3559900963e-01	-3.6710528263e+00
 1.8196305243e-01	 9.8330536840e-01	-7.4958112216e+00
 2.0055588983e-01	 9.7968226017e-01	-7.2538317452e+00
 2.1918252379e-01	 9.7568386599e-01	-6.9811818720e+00
 2.3783241397e-01	 9.7130618922e-01	-6.6785027940e+00
 2.5649475604e-01	 9.6654559877e-01	-6.3464599057e+00
 2.7515849615e-01	 9.6139884647e-01	-5.9857427838e+00
 2.9381234651e-01	 9.5586308393e-01	-5.5970654170e+00
 3.1244480230e-01	 9.4993587866e-01	-5.1811666963e+00
 3.3104415970e-01	 9.4361522937e-01	-4.7388111701e+00
 3.4959853503e-01	 9.3689958049e-01	-4.2707900646e+00
 3.6809588507e-01	 9.2978783566e-01	-3.7779225641e+00
 3.9110187790e-01	 9.8789957541e-01	-3.0937692331e+00
 4.1068126542e-01	 9.7992203754e-01	-2.8211501263e+00
 4.3017402442e-01	 9.7152285143e-01	-2.5396965977e+00
 4.4956699031e-01	 9.6270239069e-01	-2.2504445747e+00
 4.6884692562e-01	 9.5346156215e-01	-1.9544129126e+00
 4.8800054644e-01	 9.4380181375e-01	-1.6526048580e+00
 5.0701454943e-01	 9.3372514082e-01	-1.3460099131e+00
 5.2587563959e-01	 9.2323409089e-01	-1.0356060641e+00
 5.4457055845e-01	 9.1233176670e-01	-7.2236233029e-01
 5.6308611266e-01	 9.0102182759e-01	-4.0724158221e-01
 5.8140920286e-01	 8.8930848912e-01	-9.1203573015e-02
 3.8880127862e-01	 9.8208840144e-01	-3.1254461551e+00
 4.0826549327e-01	 9.7415779026e-01	-2.8350155783e+00
 4.2764358898e-01	 9.6580801112e-01	-2.5362057084e+00
 4.4692247860e-01	 9.5703943544e-01	-2.2302219360e+00
 4.6608900253e-01	 9.4785296472e-01	-1.9182536556e+00
 4.8512995499e-01	 9.3825003837e-01	-1.6014749402e+00
 5.0403211090e-01	 9.2823263999e-01	-1.2810455916e+00
 5.2278225347e-01	 9.1780330212e-01	-9.5811253424e-01
 5.4136720222e-01	 9.0696510925e-01	-6.3381151445e-01
 5.5977384141e-01	 8.9572169919e-01	-3.0926906008e-01
 5.7798914872e-01	 8.8407726271e-01	 1.4395349139e-02
 3.8650067934e-01	 9.7627722746e-01	-3.1649233168e+00
 4.0584972112e-01	 9.6839354297e-01	-2.8561149056e+00
 4.2511315354e-01	 9.6009317081e-01	-2.5393937990e+00
 4.4427796689e-01	 9.5137648020e-01	-2.2161355653e+00
 4.6333107944e-01	 9.4224436729e-01	-1.8877008257e+00
 4.8225936353e-01	 9.3269826299e-01	-1.5554351405e+00
 5.0104967237e-01	 9.2274013916e-01	-1.2206692430e+00
 5.1968886735e-01	 9.1237251335e-01	-8.8471959847e-01
 5.3816384599e-01	 9.0159845179e-01	-5.4888925219e-01
 5.5646157016e-01	 8.9042157079e-01	-2.1446893010e-01
 5.7456909459e-01	 8.7884603630e-01	 1.1726165263e-01
 3.8420008005e-01	 9.7046605348e-01	-3.2123308431e+00
 4.0343394897e-01	 9.6262929569e-01	-2.8845652842e+00
 4.2258271810e-01	 9.5437833051e-01	-2.5493652467e+00
 4.4163345518e-01	 9.4571352496e-01	-2.2082772176e+00
 4.6057315634e-01	 9.3663576986e-01	-1.8628337608e+00
 4.7938877208e-01	 9.2714648761e-01	-1.5145526120e+00
 4.9806723384e-01	 9.1724763833e-01	-1.1649360961e+00
 5.1659548123e-01	 9.0694172458e-01	-8.1547084890e-01
 5.3496048976e-01	 8.9623179434e-01	-4.6762781370e-01
 5.5314929890e-01	 8.8512144239e-01	-1.2286248189e-01
 5.7114904045e-01	 8.7361480990e-01	 2.1738466104e-01
 3.8189948077e-01	 9.6465487951e-01	-3.2678023393e+00
 4.0101817682e-01	 9.5686504841e-01	-2.9204870854e+00
 4.2005228266e-01	 9.4866349020e-01	-2.5662273419e+00
 4.3898894346e-01	 9.4005056971e-01	-2.2067412841e+00
 4.5781523325e-01	 9.3102717244e-01	-1.8437341628e+00
 4.7651818063e-01	 9.2159471223e-01	-1.4788966056e+00
 4.9508479531e-01	 9.1175513750e-01	-1.1139032170e+00
 5.1350209512e-01	 9.0151093580e-01	-7.5041146118e-01
 5.3175713353e-01	 8.9086513689e-01	-3.9006080619e-01
 5.4983702765e-01	 8.7982131399e-01	-3.4472103266e-02
 5.6772898632e-01	 8.6838358349e-01	 3.1475283025e-01
 3.7959888148e-01	 9.5884370553e-01	-3.3314749970e+00
 3.9860240466e-01	 9.5110080113e-01	-2.9640039726e+00
 4.1752184722e-01	 9.4294864990e-01	-2.5900903769e+00
 4.3634443175e-01	 9.3438761447e-01	-2.2116248724e+00
 4.5505731015e-01	 9.2541857501e-01	-1.8304861693e+00
 4.7364758918e-01	 9.1604293686e-01	-1.4485385332e+00
 4.9210235678e-01	 9.0626263667e-01	-1.0676295646e+00
 5.1040870900e-01	 8.9608014703e-01	-6.8958824249e-01
 5.2855377731e-01	 8.8549847944e-01	-3.1622321438e-01
 5.4652475640e-01	 8.7452118560e-01	 5.0678686432e-02
 5.6430893218e-01	 8.6315235708e-01	 4.0935372221e-01
 3.7729828220e-01	 9.5303253156e-01	-3.4034897032e+00
 3.9618663251e-01	 9.4533655384e-01	-3.0152430012e+00
 4.1499141178e-01	 9.3723380959e-01	-2.6210677373e+00
 4.3369992004e-01	 9.2872465923e-01	-2.2230278888e+00
 4.5229938706e-01	 9.1980997759e-01	-1.8231764283e+00
 4.7077699773e-01	 9.1049116148e-01	-1.4235520340e+00
 4.8911991825e-01	 9.0077013584e-01	-1.0261760486e+00
 5.0731532288e-01	 8.9064935826e-01	-6.3304968122e-01
 5.2535042108e-01	 8.8013182198e-01	-2.4615144249e-01
 5.4321248515e-01	 8.6922105720e-01	 1.3256520189e-01
 5.6088887805e-01	 8.5792113068e-01	 5.0117397761e-01
 3.7499768292e-01	 9.4722135758e-01	-3.4839911539e+00
 3.9377086036e-01	 9.3957230656e-01	-3.0743347232e+00
 4.1246097634e-01	 9.3151896929e-01	-2.6592759968e+00
 4.3105540833e-01	 9.2306170399e-01	-2.2410531250e+00
 4.4954146396e-01	 9.1420138016e-01	-1.8218941749e+00
 4.6790640627e-01	 9.0493938610e-01	-1.4040130426e+00
 4.8613747973e-01	 8.9527763501e-01	-9.8960558901e-01
 5.0422193676e-01	 8.8521856949e-01	-5.8084599861e-01
 5.2214706485e-01	 8.7476516453e-01	-1.7988335783e-01
 5.3990021390e-01	 8.6392092880e-01	 2.1116155602e-01
 5.5746882391e-01	 8.5268990427e-01	 5.9019928769e-01
 3.7269708363e-01	 9.4141018361e-01	-3.5731279714e+00
 3.9135508821e-01	 9.3380805928e-01	-3.1414132949e+00
 4.0993054090e-01	 9.2580412899e-01	-2.7048350158e+00
 4.2841089662e-01	 9.1739874875e-01	-2.2658063461e+00
 4.4678354087e-01	 9.0859278274e-01	-1.8267313108e+00
 4.6503581482e-01	 8.9938761073e-01	-1.3899998598e+00
 4.8315504120e-01	 8.8978513418e-01	-9.5798317848e-01
 5.0112855065e-01	 8.7978778072e-01	-5.3302920218e-01
 5.1894370863e-01	 8.6939850708e-01	-1.1745833591e-01
 5.3658794265e-01	 8.5862080040e-01	 2.8644062289e-01
 5.5404876978e-01	 8.4745867786e-01	 6.7641436489e-01
 3.7039648435e-01	 9.3559900963e-01	-3.6710528263e+00
 3.8893931606e-01	 9.2804381200e-01	-3.2166165887e+00
 4.0740010546e-01	 9.2008928868e-01	-2.7578680434e+00
 4.2576638491e-01	 9.1173579351e-01	-2.2973963839e+00
 4.4402561778e-01	 9.0298418531e-01	-1.8377824879e+00
 4.6216522337e-01	 8.9383583535e-01	-1.3815932262e+00
 4.8017260267e-01	 8.8429263335e-01	-9.3137594651e-01
 4.9803516453e-01	 8.7435699195e-01	-4.8965314126e-01
 5.1574035240e-01	 8.6403184963e-01	-5.8917307283e-02
 5.3327567139e-01	 8.5332067201e-01	 3.5837399925e-01
 5.5062871565e-01	 8.4222745146e-01	 7.5980291246e-01
 3.6809588507e-01	 9.2978783566e-01	-3.7779225641e+00
 3.8652354390e-01	 9.2227956472e-01	-3.3000863095e+00
 4.0486967002e-01	 9.1437444838e-01	-2.8185018231e+00
 4.2312187320e-01	 9.0607283827e-01	-2.3359352322e+00
 4.4126769468e-01	 8.9737558789e-01	-1.8551451937e+00
 4.5929463192e-01	 8.8828405998e-01	-1.3788763985e+00
 4.7719016414e-01	 8.7880013253e-01	-9.0985322626e-01
 4.9494177842e-01	 8.6892620318e-01	-4.5077356447e-01
 5.1253699617e-01	 8.5866519218e-01	-4.3028061666e-03
 5.2996340014e-01	 8.4802054361e-01	 4.2693196458e-01
 5.4720866151e-01	 8.3699622505e-01	 8.4034759293e-01
 5.8140920286e-01	 8.8930848912e-01	-9.1203573015e-02
 5.9952730513e-01	 8.7719622166e-01	 3.8418680265e-01
 6.1742711899e-01	 8.6469065271e-01	 8.9075044890e-01
 6.3509600019e-01	 8.5179764665e-01	 1.2067780241e+00
 6.5252151410e-01	 8.3852360462e-01	 1.3776227964e+00
 6.6969146393e-01	 8.2487545512e-01	 1.5638177039e+00
 6.8659391852e-01	 8.1086064280e-01	 1.7633395217e+00
 7.0321723946e-01	 7.9648711560e-01	 1.9740547126e+00
 7.1955010748e-01	 7.8176331014e-01	 2.1937289609e+00
 7.3558154787e-01	 7.6669813542e-01	 2.4200376659e+00
 7.5130095500e-01	 7.5130095500e-01	 2.6505773214e+00
 5.7798914872e-01	 8.8407726271e-01	 1.4395349139e-02
 5.9600067392e-01	 8.7203624389e-01	 4.9153101426e-01
 6.1379519475e-01	 8.5960423710e-01	 9.9944377352e-01
 6.3136014136e-01	 8.4678707226e-01	 1.3972874664e+00
 6.4868315225e-01	 8.3359111283e-01	 1.5697524582e+00
 6.6575210238e-01	 8.2002324656e-01	 1.7568650397e+00
 6.8255513076e-01	 8.0609087431e-01	 1.9564650398e+00
 6.9908066747e-01	 7.9180189728e-01	 2.1662851692e+00
 7.1531745979e-01	 7.7716470244e-01	 2.3839611242e+00
 7.3125459759e-01	 7.6218814639e-01	 2.6070426280e+00
 7.4688153762e-01	 7.4688153762e-01	 2.8330053307e+00
 5.7456909459e-01	 8.7884603630e-01	 1.1726165263e-01
 5.9247404272e-01	 8.6687626612e-01	 5.9676216951e-01
 6.1016327052e-01	 8.5451782150e-01	 1.1066472593e+00
 6.2762428254e-01	 8.4177649787e-01	 1.5881064968e+00
 6.4484479040e-01	 8.2865862105e-01	 1.7628768687e+00
 6.6181274082e-01	 8.1517103801e-01	 1.9515923249e+00
 6.7851634301e-01	 8.0132110583e-01	 2.1519543188e+00
 6.9494409547e-01	 7.8711667896e-01	 2.3615603585e+00
 7.1108481210e-01	 7.7256609473e-01	 2.5779146866e+00
 7.2692764731e-01	 7.5767815736e-01	 2.7984398735e+00
 7.4246212024e-01	 7.4246212024e-01	 3.0204892455e+00
 5.7114904045e-01	 8.7361480990e-01	 2.1738466104e-01
 5.8894741151e-01	 8.6171628834e-01	 6.9988334512e-01
 6.0653134629e-01	 8.4943140590e-01	 1.2123776952e+00
 6.2388842371e-01	 8.3676592348e-01	 1.7543273970e+00
 6.4100642856e-01	 8.2372612926e-01	 1.9570346947e+00
 6.5787337927e-01	 8.1031882945e-01	 2.1480507742e+00
 6.7447755525e-01	 7.9655133735e-01	 2.3498709627e+00
 6.9080752347e-01	 7.8243146063e-01	 2.5599560919e+00
 7.0685216441e-01	 7.6796748703e-01	 2.7756774610e+00
 7.2260069703e-01	 7.5316816833e-01	 2.9943289895e+00
 7.3804270286e-01	 7.3804270286e-01	 3.2131401773e+00
 5.6772898632e-01	 8.6838358349e-01	 3.1475283025e-01
 5.8542078030e-01	 8.5655631057e-01	 8.0089705710e-01
 6.0289942206e-01	 8.4434499029e-01	 1.3166516166e+00
 6.2015256489e-01	 8.3175534909e-01	 1.8612900433e+00
 6.3716806671e-01	 8.1879363747e-01	 2.1522649594e+00
 6.5393401772e-01	 8.0546662089e-01	 2.3462922622e+00
 6.7043876750e-01	 7.9178156886e-01	 2.5502795360e+00
 6.8667095148e-01	 7.7774624231e-01	 2.7615494380e+00
 7.0261951672e-01	 7.6336887933e-01	 2.9773388116e+00
 7.1827374675e-01	 7.4865817930e-01	 3.1948114037e+00
 7.3362328548e-01	 7.3362328548e-01	 3.4110713628e+00
 5.6430893218e-01	 8.6315235708e-01	 4.0935372221e-01
 5.8189414909e-01	 8.5139633279e-01	 8.9980524370e-01
 5.9926749784e-01	 8.3925857469e-01	 1.4194852969e+00
 6.1641670607e-01	 8.2674477470e-01	 1.9674804632e+00
 6.3332970486e-01	 8.1386114568e-01	 2.3486070543e+00
 6.4999465617e-01	 8.0061441233e-01	 2.5463693430e+00
 6.6639997974e-01	 7.8701180038e-01	 2.7532455918e+00
 6.8253437949e-01	 7.7306102398e-01	 2.9664187609e+00
 6.9838686903e-01	 7.5877027162e-01	 3.1829897008e+00
 7.1394679647e-01	 7.4414819027e-01	 3.3999904399e+00
 7.2920386810e-01	 7.2920386810e-01	 3.6143982279e+00
 5.6088887805e-01	 8.5792113068e-01	 5.0117397761e-01
 5.7836751789e-01	 8.4623635502e-01	 9.9660924786e-01
 5.9563557361e-01	 8.3417215909e-01	 1.5208947401e+00
 6.1268084724e-01	 8.2173420031e-01	 2.0729292496e+00
 6.2949134302e-01	 8.0892865388e-01	 2.5461007495e+00
 6.4605529462e-01	 7.9576220378e-01	 2.7483352712e+00
 6.6236119199e-01	 7.8224203189e-01	 2.9588357032e+00
 6.7839780749e-01	 7.6837580566e-01	 3.1746437601e+00
 6.9415422134e-01	 7.5417166392e-01	 3.3927227375e+00
 7.0961984620e-01	 7.3963820124e-01	 3.6099713760e+00
 7.2478445072e-01	 7.2478445072e-01	 3.8232384551e+00
 5.5746882391e-01	 8.5268990427e-01	 5.9019928769e-01
 5.7484088668e-01	 8.4107637725e-01	 1.0913097989e+00
 5.9200364938e-01	 8.2908574348e-01	 1.6208956722e+00
 6.0894498842e-01	 8.1672362591e-01	 2.1776670522e+00
 6.2565298117e-01	 8.0399616209e-01	 2.7447862055e+00
 6.4211593307e-01	 7.9090999522e-01	 2.9522440237e+00
 6.5832240424e-01	 7.7747226341e-01	 3.1671174936e+00
 6.7426123550e-01	 7.6369058733e-01	 3.3863055105e+00
 6.8992157366e-01	 7.4957305621e-01	 3.6066322280e+00
 7.0529289592e-01	 7.3512821221e-01	 3.8248615039e+00
 7.2036503334e-01	 7.2036503334e-01	 4.0377120521e+00
 5.5404876978e-01	 8.4745867786e-01	 6.7641436489e-01
 5.7131425548e-01	 8.3591639947e-01	 1.1839069935e+00
 5.8837172515e-01	 8.2399932788e-01	 1.7195035329e+00
 6.0520912960e-01	 8.1171305152e-01	 2.2817245798e+00
 6.2181461933e-01	 7.9906367030e-01	 2.8689673139e+00
 6.3817657152e-01	 7.8605778666e-01	 3.1581503211e+00
 6.5428361648e-01	 7.7270249492e-01	 3.3781596696e+00
 6.7012466350e-01	 7.5900536901e-01	 3.6014865060e+00
 6.8568892597e-01	 7.4497444851e-01	 3.8248142283e+00
 7.0096594564e-01	 7.3061822318e-01	 4.0447701918e+00
 7.1594561596e-01	 7.1594561596e-01	 4.2579414238e+00
 5.5062871565e-01	 8.4222745146e-01	 7.5980291246e-01
 5.6778762427e-01	 8.3075642170e-01	 1.2744002764e+00
 5.8473980093e-01	 8.1891291228e-01	 1.8167334662e+00
 6.0147327078e-01	 8.0670247713e-01	 2.3851326016e+00
 6.1797625748e-01	 7.9413117851e-01	 2.9778050683e+00
 6.3423720997e-01	 7.8120557810e-01	 3.3661096519e+00
 6.5024482873e-01	 7.6793272643e-01	 3.5920320544e+00
 6.6598809151e-01	 7.5432015068e-01	 3.8202707027e+00
 6.8145627828e-01	 7.4037584080e-01	 4.0473665985e+00
 6.9663899536e-01	 7.2610823415e-01	 4.2698089483e+00
 7.1152619858e-01	 7.1152619858e-01	 4.4840514469e+00
 5.4720866151e-01	 8.3699622505e-01	 8.4034759293e-01
 5.6426099307e-01	 8.2559644392e-01	 1.3627884194e+00
 5.8110787670e-01	 8.1382649667e-01	 1.9126003119e+00
 5.9773741196e-01	 8.0169190274e-01	 2.4879219495e+00
 6.1413789564e-01	 7.8919868672e-01	 3.0867699380e+00
 6.3029784842e-01	 7.7635336954e-01	 3.5761782957e+00
 6.4620604098e-01	 7.6316295794e-01	 3.8088056230e+00
 6.6185151952e-01	 7.4963493235e-01	 4.0427435649e+00
 6.7722363059e-01	 7.3577723309e-01	 4.2743890591e+00
 6.9231204508e-01	 7.2159824512e-01	 4.5000914897e+00
 7.0710678120e-01	 7.0710678120e-01	 4.7161695471e+00
 7.5130095500e-01	 7.5130095500e-01	 2.6505773214e+00
 7.6669812758e-01	 7.3558155981e-01	 2.9247058028e+00
 7.8176327890e-01	 7.1955015512e-01	 3.1448107889e+00
 7.9648704554e-01	 7.0321734639e-01	 3.3078960713e+00
 8.1086051864e-01	 6.8659410810e-01	 3.4111332806e+00
 8.2487526179e-01	 6.6969175929e-01	 3.4518766859e+00
 8.3852332723e-01	 6.5252193808e-01	 3.4276772213e+00
 8.5179727049e-01	 6.3509657531e-01	 3.3362956235e+00
 8.6469016330e-01	 6.1742786743e-01	 3.3504350316e+00
 8.7719560475e-01	 5.9952824871e-01	 3.5204753969e+00
 8.8930773066e-01	 5.8141036297e-01	 3.6099457074e+00
 7.4688153762e-01	 7.4688153762e-01	 2.8330053307e+00
 7.6218813860e-01	 7.3125460946e-01	 3.1035699640e+00
 7.7716467138e-01	 7.1531750715e-01	 3.3179025812e+00
 7.9180182763e-01	 6.9908077376e-01	 3.4730209599e+00
 8.0609075089e-01	 6.8255531923e-01	 3.5661184616e+00
 8.2002305437e-01	 6.6575239600e-01	 3.5945786631e+00
 8.3359083707e-01	 6.4868357373e-01	 3.5559891723e+00
 8.4678669831e-01	 6.3136071310e-01	 3.4481545137e+00
 8.5960375057e-01	 6.1379593879e-01	 3.5310380601e+00
 8.7203563060e-01	 5.9600161195e-01	 3.6819465708e+00
 8.8407650872e-01	 5.7799030201e-01	 3.7505911635e+00
 7.4246212024e-01	 7.4246212024e-01	 3.0204892455e+00
 7.5767814962e-01	 7.2692765911e-01	 3.2876175921e+00
 7.7256606386e-01	 7.1108485918e-01	 3.4962872868e+00
 7.8711660972e-01	 6.9494420114e-01	 3.6435296745e+00
 8.0132098314e-01	 6.7851653036e-01	 3.7265594646e+00
 8.1517084695e-01	 6.6181303271e-01	 3.7427891957e+00
 8.2865834691e-01	 6.4484520939e-01	 3.6898428428e+00
 8.4177612613e-01	 6.2762485089e-01	 3.5655684526e+00
 8.5451733785e-01	 6.1016401016e-01	 3.7193500902e+00
 8.6687565646e-01	 5.9247497519e-01	 3.8509546780e+00
 8.7884528677e-01	 5.7457024105e-01	 3.8985779630e+00
 7.3804270286e-01	 7.3804270286e-01	 3.2131401773e+00
 7.5316816063e-01	 7.2260070876e-01	 3.4769615794e+00
 7.6796745634e-01	 7.0685221121e-01	 3.6800791454e+00
 7.8243139180e-01	 6.9080762851e-01	 3.8195373684e+00
 7.9655121538e-01	 6.7447774149e-01	 3.8925719227e+00
 8.1031863953e-01	 6.5787366942e-01	 3.8966239644e+00
 8.2372585675e-01	 6.4100684505e-01	 3.8293535314e+00
 8.3676555396e-01	 6.2388898868e-01	 3.7158793487e+00
 8.4943092513e-01	 6.0653208153e-01	 3.9154495010e+00
 8.6171568231e-01	 5.8894833843e-01	 4.0275782745e+00
 8.7361406483e-01	 5.7115018009e-01	 4.0539844558e+00
 7.3362328548e-01	 7.3362328548e-01	 3.4110713628e+00
 7.4865817165e-01	 7.1827375841e-01	 3.6717169942e+00
 7.6336884882e-01	 7.0261956324e-01	 3.8693946145e+00
 7.7774617389e-01	 6.8667105589e-01	 4.0011614449e+00
 7.9178144763e-01	 6.7043895262e-01	 4.0642737419e+00
 8.0546643211e-01	 6.5393430613e-01	 4.0562009363e+00
 8.1879336660e-01	 6.3716848071e-01	 3.9746388277e+00
 8.3175498178e-01	 6.2015312648e-01	 3.9377432102e+00
 8.4434451240e-01	 6.0290015290e-01	 4.1194169422e+00
 8.5655570817e-01	 5.8542170167e-01	 4.2118981628e+00
 8.6838284288e-01	 5.6773011913e-01	 4.2168912048e+00
 7.2920386810e-01	 7.2920386810e-01	 3.6143982279e+00
 7.4414818267e-01	 7.1394680806e-01	 3.8720011468e+00
 7.5877024130e-01	 6.9838691527e-01	 4.0643524366e+00
 7.7306095598e-01	 6.8253448326e-01	 4.1885216256e+00
 7.8701167987e-01	 6.6640016375e-01	 4.2417851703e+00
 8.0061422469e-01	 6.4999494284e-01	 4.2216404345e+00
 8.1386087644e-01	 6.3333011637e-01	 4.1258186811e+00
 8.2674440960e-01	 6.1641726427e-01	 4.1677038952e+00
 8.3925809968e-01	 5.9926822426e-01	 4.3313354028e+00
 8.5139573402e-01	 5.8189506492e-01	 4.4039974599e+00
 8.6315162094e-01	 5.6431005817e-01	 4.3873810534e+00
 7.2478445072e-01	 7.2478445072e-01	 3.8232384551e+00
 7.3963819368e-01	 7.0961985771e-01	 4.0779336580e+00
 7.5417163378e-01	 6.9415426730e-01	 4.2650737091e+00
 7.6837573807e-01	 6.7839791064e-01	 4.3817400214e+00
 7.8224191212e-01	 6.6236137488e-01	 4.4252288692e+00
 7.9576201727e-01	 6.4605557955e-01	 4.3930652096e+00
 8.0892838628e-01	 6.2949175203e-01	 4.2830154728e+00
 8.2173383742e-01	 6.1268140206e-01	 4.4058462913e+00
 8.3417168695e-01	 5.9563629563e-01	 4.5512902824e+00
 8.4623575988e-01	 5.7836842816e-01	 4.6039616679e+00
 8.5792039899e-01	 5.6088999721e-01	 4.5655391947e+00
 7.2036503334e-01	 7.2036503334e-01	 4.0377120521e+00
 7.3512820470e-01	 7.0529290736e-01	 4.2896365299e+00
 7.4957302626e-01	 6.8992161933e-01	 4.4716819561e+00
 7.6369052015e-01	 6.7426133802e-01	 4.5809412052e+00
 7.7747214436e-01	 6.5832258601e-01	 4.6147299875e+00
 7.9090980985e-01	 6.4211621627e-01	 4.5706005146e+00
 8.0399589612e-01	 6.2565338769e-01	 4.4463540908e+00
 8.1672326524e-01	 6.0894553986e-01	 4.6522577865e+00
 8.2908527423e-01	 5.9200436700e-01	 4.7793694652e+00
 8.4107578573e-01	 5.7484179140e-01	 4.8118787473e+00
 8.5268917705e-01	 5.5746993625e-01	 4.7514532438e+00
 7.1594561596e-01	 7.1594561596e-01	 4.2579414238e+00
 7.3061821572e-01	 7.0096595701e-01	 4.5072342191e+00
 7.4497441874e-01	 6.8568897136e-01	 4.6843032035e+00
 7.5900530224e-01	 6.7012476539e-01	 4.7862522885e+00
 7.7270237661e-01	 6.5428379714e-01	 4.8104162382e+00
 7.8605760243e-01	 6.3817685298e-01	 4.7543741816e+00
 7.9906340596e-01	 6.2181502335e-01	 4.7005865962e+00
 8.1171269306e-01	 6.0520967765e-01	 4.9070283468e+00
 8.2399886150e-01	 5.8837243837e-01	 5.0156633966e+00
 8.3591581159e-01	 5.7131515465e-01	 5.0278391924e+00
 8.4745795510e-01	 5.5404987529e-01	 4.9452133123e+00
 7.1152619858e-01	 7.1152619858e-01	 4.4840514469e+00
 7.2610822673e-01	 6.9663900666e-01	 4.7308537136e+00
 7.4037581122e-01	 6.8145632339e-01	 4.9030660569e+00
 7.5432008432e-01	 6.6598819277e-01	 4.9978029996e+00
 7.6793260885e-01	 6.5024500828e-01	 5.0124179779e+00
 7.8120539500e-01	 6.3423748969e-01	 4.9445167023e+00
 7.9413091580e-01	 6.1797665901e-01	 4.9805600758e+00
 8.0670212088e-01	 6.0147381545e-01	 5.1702505961e+00
 8.1891244878e-01	 5.8474050975e-01	 5.2602651626e+00
 8.3075583744e-01	 5.6778851789e-01	 5.2519361107e+00
 8.4222673316e-01	 5.5062981434e-01	 5.1469120861e+00
 7.0710678120e-01	 7.0710678120e-01	 4.7161695471e+00
 7.2159823775e-01	 6.9231205631e-01	 4.9606246111e+00
 7.3577720369e-01	 6.7722367543e-01	 5.1281017820e+00
 7.4963486641e-01	 6.6185162015e-01	 5.2157257661e+00
 7.6316284109e-01	 6.4620621941e-01	 5.2208682898e+00
 7.7635318758e-01	 6.3029812641e-01	 5.1411613111e+00
 7.8919842564e-01	 6.1413829468e-01	 5.2691950199e+00
 8.0169154870e-01	 5.9773795324e-01	 5.4420198992e+00
 8.1382603605e-01	 5.8110858112e-01	 5.5132705729e+00
 8.2559586329e-01	 5.6426188114e-01	 5.4842653040e+00
 8.3699551121e-01	 5.4720975338e-01	 5.3566449056e+00
 8.8930773066e-01	 5.8141036297e-01	 3.6099457074e+00
 9.0102122121e-01	 5.6308703494e-01	 3.6386580135e+00
 9.1233130665e-01	 5.4457124134e-01	 3.6417954898e+00
 9.2323377133e-01	 5.2587608186e-01	 3.6212142688e+00
 9.3372495580e-01	 5.0701475020e-01	 3.5787483940e+00
 9.4380175725e-01	 4.8800050513e-01	 3.5161948699e+00
 9.5346162811e-01	 4.6884664200e-01	 3.4352996240e+00
 9.6270257299e-01	 4.4956646444e-01	 3.3377444888e+00
 9.7152314394e-01	 4.3017325671e-01	 3.2251353001e+00
 9.7992243410e-01	 4.1068025658e-01	 3.0989911889e+00
 9.8790006987e-01	 3.9110062893e-01	 2.9607351298e+00
 8.8407650872e-01	 5.7799030201e-01	 3.7505911635e+00
 8.9572109638e-01	 5.5977475826e-01	 3.7582871978e+00
 9.0696465190e-01	 5.4136788109e-01	 3.7419038588e+00
 9.1780298443e-01	 5.2278269314e-01	 3.7032032468e+00
 9.2823245605e-01	 5.0403231049e-01	 3.6439220770e+00
 9.3824998220e-01	 4.8512991392e-01	 3.5657573617e+00
 9.4785303029e-01	 4.6608872058e-01	 3.4703529963e+00
 9.5703961668e-01	 4.4692195583e-01	 3.3592873572e+00
 9.6580830191e-01	 4.2764282579e-01	 3.2340619998e+00
 9.7415818449e-01	 4.0826449036e-01	 3.0960915320e+00
 9.8208889298e-01	 3.8880003700e-01	 2.9466947205e+00
 8.7884528677e-01	 5.7457024105e-01	 3.8985779630e+00
 8.9042097155e-01	 5.5646248158e-01	 3.8853335754e+00
 9.0159799716e-01	 5.3816452085e-01	 3.8495218924e+00
 9.1237219754e-01	 5.1968930442e-01	 3.7928113112e+00
 9.2273995631e-01	 5.0104987078e-01	 3.7168414905e+00
 9.3269820716e-01	 4.8225932271e-01	 3.6232096607e+00
 9.4224443248e-01	 4.6333079915e-01	 3.5134578344e+00
 9.5137666036e-01	 4.4427744721e-01	 3.3890610176e+00
 9.6009345988e-01	 4.2511239486e-01	 3.2514165067e+00
 9.6839393487e-01	 4.0584872414e-01	 3.1018343436e+00
 9.7627771610e-01	 3.8649944506e-01	 2.9415289801e+00
 8.7361406483e-01	 5.7115018009e-01	 4.0539844558e+00
 8.8512084671e-01	 5.5315020490e-01	 4.0198801837e+00
 8.9623134241e-01	 5.3496116060e-01	 3.9647376098e+00
 9.0694141065e-01	 5.1659591571e-01	 3.8901317427e+00
 9.1724745657e-01	 4.9806743107e-01	 3.7976054400e+00
 9.2714643211e-01	 4.7938873151e-01	 3.6886563454e+00
 9.3663583466e-01	 4.6057287772e-01	 3.5647247211e+00
 9.4571370404e-01	 4.4163293859e-01	 3.4271822716e+00
 9.5437861786e-01	 4.2258196394e-01	 3.2773220395e+00
 9.6262968525e-01	 4.0343295793e-01	 3.1163494408e+00
 9.7046653921e-01	 3.8419885312e-01	 2.9453744883e+00
 8.6838284288e-01	 5.6773011913e-01	 4.2168912048e+00
 8.7982072188e-01	 5.4983792823e-01	 4.1620123580e+00
 8.9086468767e-01	 5.3175780036e-01	 4.0876414206e+00
 9.0151062376e-01	 5.1350252699e-01	 3.9952603118e+00
 9.1175495683e-01	 4.9508499136e-01	 3.8863153277e+00
 9.2159465706e-01	 4.7651814030e-01	 3.7622047038e+00
 9.3102723685e-01	 4.5781495630e-01	 3.6242670680e+00
 9.4005074773e-01	 4.3898842998e-01	 3.4737708755e+00
 9.4866377583e-01	 4.2005153302e-01	 3.3119049030e+00
 9.5686543564e-01	 4.0101719171e-01	 3.1397698639e+00
 9.6465536233e-01	 3.8189826119e-01	 2.9583711905e+00
 8.6315162094e-01	 5.6431005817e-01	 4.3873810534e+00
 8.7452059705e-01	 5.4652565155e-01	 4.3118178013e+00
 8.8549803292e-01	 5.2855444011e-01	 4.2183261975e+00
 8.9607983686e-01	 5.1040913827e-01	 4.1082953544e+00
 9.0626245708e-01	 4.9210255165e-01	 3.9830752306e+00
 9.1604288202e-01	 4.7364754909e-01	 3.8439648153e+00
 9.2541863903e-01	 4.5505703487e-01	 3.6922012014e+00
 9.3438779142e-01	 4.3634392136e-01	 3.5289496299e+00
 9.4294893380e-01	 4.1752110209e-01	 3.3552945819e+00
 9.5110118602e-01	 3.9860142549e-01	 3.1722319740e+00
 9.5884418544e-01	 3.7959766925e-01	 2.9806624996e+00
 8.5792039899e-01	 5.6088999721e-01	 4.5655391947e+00
 8.6922047222e-01	 5.4321337487e-01	 4.4693866568e+00
 8.8013137817e-01	 5.2535107987e-01	 4.3568873507e+00
 8.9064904997e-01	 5.0731574955e-01	 4.2293378499e+00
 9.0076995734e-01	 4.8912011194e-01	 4.0879919822e+00
 9.1049110698e-01	 4.7077695788e-01	 3.9340496362e+00
 9.1981004122e-01	 4.5229911344e-01	 3.7686464513e+00
 9.2872483510e-01	 4.3369941274e-01	 3.5928444722e+00
 9.3723409178e-01	 4.1499067117e-01	 3.4076238374e+00
 9.4533693641e-01	 3.9618565927e-01	 3.2138755546e+00
 9.5303300856e-01	 3.7729707731e-01	 3.0123954017e+00
 8.5268917705e-01	 5.5746993625e-01	 4.7514532438e+00
 8.6392034739e-01	 5.3990109820e-01	 4.6348115821e+00
 8.7476472343e-01	 5.2214771962e-01	 4.5034229064e+00
 8.8521826308e-01	 5.0422236083e-01	 4.3584915022e+00
 8.9527745760e-01	 4.8613767223e-01	 4.2011752571e+00
 9.0493933193e-01	 4.6790636667e-01	 4.0325750874e+00
 9.1420144341e-01	 4.4954119202e-01	 3.8537252433e+00
 9.2306187879e-01	 4.3105490412e-01	 3.6655845732e+00
 9.3151924976e-01	 4.1246024024e-01	 3.4690288079e+00
 9.3957268679e-01	 3.9376989306e-01	 3.2648439163e+00
 9.4722183168e-01	 3.7499648537e-01	 3.0537205659e+00
 8.4745795510e-01	 5.5404987529e-01	 4.9452133123e+00
 8.5862022256e-01	 5.3658882152e-01	 4.8081878276e+00
 8.6939806868e-01	 5.1894435938e-01	 4.6580335873e+00
 8.7978747619e-01	 5.0112897211e-01	 4.4958628240e+00
 8.8978495786e-01	 4.8315523252e-01	 4.3227376589e+00
 8.9938755689e-01	 4.6503577546e-01	 4.1396601462e+00
 9.0859284559e-01	 4.4678327059e-01	 3.9475631942e+00
 9.1739892248e-01	 4.2841039551e-01	 3.7473024366e+00
 9.2580440773e-01	 4.0992980932e-01	 3.5396491132e+00
 9.3380843718e-01	 3.9135412684e-01	 3.3252840055e+00
 9.4141065479e-01	 3.7269589344e-01	 3.1047924577e+00
 8.4222673316e-01	 5.5062981434e-01	 5.1469120861e+00
 8.5332009773e-01	 5.3327654485e-01	 4.9896133162e+00
 8.6403141394e-01	 5.1574099914e-01	 4.8208228963e+00
 8.7435668930e-01	 4.9803558339e-01	 4.6415612240e+00
 8.8429245812e-01	 4.8017279281e-01	 4.4527948106e+00
 8.9383578185e-01	 4.6216518425e-01	 4.2554269414e+00
 9.0298424778e-01	 4.4402534917e-01	 4.0502892112e+00
 9.1173596617e-01	 4.2576588689e-01	 3.8381340027e+00
 9.2008956571e-01	 4.0739937839e-01	 3.6196279627e+00
 9.2804418757e-01	 3.8893836062e-01	 3.3953465179e+00
 9.3559947791e-01	 3.7039530150e-01	 3.1657694572e+00
 8.3699551121e-01	 5.4720975338e-01	 5.3566449056e+00
 8.4801997290e-01	 5.2996426817e-01	 5.1791887274e+00
 8.5866475920e-01	 5.1253763889e-01	 4.9918972033e+00
 8.6892590241e-01	 4.9494219468e-01	 4.7956990973e+00
 8.7879995838e-01	 4.7719035310e-01	 4.5914654494e+00
 8.8828400681e-01	 4.5929459304e-01	 4.3800008513e+00
 8.9737564997e-01	 4.4126742774e-01	 4.1620355946e+00
 9.0607300986e-01	 4.2312137827e-01	 3.9382187556e+00
 9.1437472369e-01	 4.0486894747e-01	 3.7091122672e+00
 9.2227993796e-01	 3.8652259440e-01	 3.4751860149e+00
 9.2978830103e-01	 3.6809470956e-01	 3.2368139812e+00
 9.8790006987e-01	 3.9110062893e-01	 2.9607351298e+00
 9.9545620153e-01	 3.7144744022e-01	 2.8850497322e+00
 1.0025914925e+00	 3.5173363374e-01	 2.7992262863e+00
 1.0093071075e+00	 3.3197200596e-01	 2.7047464570e+00
 1.0156046990e+00	 3.1217518385e-01	 2.6029729564e+00
 1.0214863931e+00	 2.9235560330e-01	 2.4951448152e+00
 1.0269547741e+00	 2.7252548881e-01	 2.3823739944e+00
 1.0320128681e+00	 2.5269683427e-01	 2.2656433001e+00
 1.0366641262e+00	 2.3288138506e-01	 2.1458055547e+00
 1.0409124060e+00	 2.1309062144e-01	 2.0235839615e+00
 1.0447619539e+00	 1.9333574321e-01	 1.8995735952e+00
 9.8208889298e-01	 3.8880003700e-01	 2.9466947205e+00
 9.8960057681e-01	 3.6926245528e-01	 2.8579876988e+00
 9.9669389551e-01	 3.4966461237e-01	 2.7595769684e+00
 1.0033700069e+00	 3.3001922946e-01	 2.6529679463e+00
 1.0096305537e+00	 3.1033885923e-01	 2.5395459349e+00
 1.0154776496e+00	 2.9063586446e-01	 2.4205714164e+00
 1.0209138636e+00	 2.7092239770e-01	 2.2971766825e+00
 1.0259422042e+00	 2.5121038230e-01	 2.1703637641e+00
 1.0305661019e+00	 2.3151149456e-01	 2.0410036100e+00
 1.0347893919e+00	 2.1183714720e-01	 1.9098364577e+00
 1.0386162954e+00	 1.9219847413e-01	 1.7774733246e+00
 9.7627771610e-01	 3.8649944506e-01	 2.9415289801e+00
 9.8374495209e-01	 3.6707747033e-01	 2.8394084704e+00
 9.9079629849e-01	 3.4759559099e-01	 2.7280373278e+00
 9.9743290623e-01	 3.2806645295e-01	 2.6089455365e+00
 1.0036564084e+00	 3.0850253462e-01	 2.4835417146e+00
 1.0094689061e+00	 2.8891612561e-01	 2.3531084310e+00
 1.0148729532e+00	 2.6931930659e-01	 2.2187988532e+00
 1.0198715402e+00	 2.4972393033e-01	 2.0816346909e+00
 1.0244680776e+00	 2.3014160406e-01	 1.9425053850e+00
 1.0286663777e+00	 2.1058367295e-01	 1.8021684842e+00
 1.0324706368e+00	 1.9106120505e-01	 1.6612511398e+00
 9.7046653921e-01	 3.8419885312e-01	 2.9453744883e+00
 9.7788932737e-01	 3.6489248539e-01	 2.8294440142e+00
 9.8489870148e-01	 3.4552656961e-01	 2.7047348790e+00
 9.9149580560e-01	 3.2611367644e-01	 2.5728024526e+00
 9.9768226311e-01	 3.0666621001e-01	 2.4350793973e+00
 1.0034601626e+00	 2.8719638677e-01	 2.2928710066e+00
 1.0088320427e+00	 2.6771621548e-01	 2.1473518712e+00
 1.0138008763e+00	 2.4823747837e-01	 1.9995638363e+00
 1.0183700534e+00	 2.2877171356e-01	 1.8504152020e+00
 1.0225433636e+00	 2.0933019871e-01	 1.7006811072e+00
 1.0263249783e+00	 1.8992393597e-01	 1.5510050293e+00
 9.6465536233e-01	 3.8189826119e-01	 2.9583711905e+00
 9.7203370265e-01	 3.6270750044e-01	 2.8282295328e+00
 9.7900110446e-01	 3.4345754824e-01	 2.6898002469e+00
 9.8555870496e-01	 3.2416089994e-01	 2.5446649101e+00
 9.9170811782e-01	 3.0482988540e-01	 2.3942809608e+00
 9.9745141910e-01	 2.8547664792e-01	 2.2399770583e+00
 1.0027911323e+00	 2.6611312436e-01	 2.0829497662e+00
 1.0077302124e+00	 2.4675102640e-01	 1.9242615242e+00
 1.0122720291e+00	 2.2740182306e-01	 1.7648398607e+00
 1.0164203494e+00	 2.0807672446e-01	 1.6054777855e+00
 1.0201793197e+00	 1.8878666689e-01	 1.4468352954e+00
 9.5884418544e-01	 3.7959766925e-01	 2.9806624996e+00
 9.6617807793e-01	 3.6052251550e-01	 2.8359035619e+00
 9.7310350744e-01	 3.4138852686e-01	 2.6833672603e+00
 9.7962160433e-01	 3.2220812343e-01	 2.5246622052e+00
 9.8573397253e-01	 3.0299356079e-01	 2.3612713465e+00
 9.9144267561e-01	 2.8375690908e-01	 2.1945473531e+00
 9.9675022186e-01	 2.6451003325e-01	 2.0257093139e+00
 1.0016595485e+00	 2.4526457443e-01	 1.8558407248e+00
 1.0061740048e+00	 2.2603193256e-01	 1.6858887136e+00
 1.0102973353e+00	 2.0682325022e-01	 1.5166644430e+00
 1.0140336612e+00	 1.8764939782e-01	 1.3488446247e+00
 9.5303300856e-01	 3.7729707731e-01	 3.0123954017e+00
 9.6032245322e-01	 3.5833753055e-01	 2.8526080719e+00
 9.6720591042e-01	 3.3931950548e-01	 2.6855730500e+00
 9.7368450369e-01	 3.2025534692e-01	 2.5129268091e+00
 9.7975982723e-01	 3.0115723617e-01	 2.3361785493e+00
 9.8543393212e-01	 2.8203717024e-01	 2.1567055962e+00
 9.9070931142e-01	 2.6290694214e-01	 1.9757501195e+00
 9.9558888452e-01	 2.4377812247e-01	 1.7944171351e+00
 1.0000759805e+00	 2.2466204205e-01	 1.6136737434e+00
 1.0041743211e+00	 2.0556977598e-01	 1.4343495441e+00
 1.0078880026e+00	 1.8651212874e-01	 1.2571381603e+00
 9.4722183168e-01	 3.7499648537e-01	 3.0537205659e+00
 9.5446682850e-01	 3.5615254561e-01	 2.8784885734e+00
 9.6130831341e-01	 3.3725048411e-01	 2.6965581501e+00
 9.6774740306e-01	 3.1830257042e-01	 2.5095944652e+00
 9.7378568194e-01	 2.9932091156e-01	 2.3191337113e+00
 9.7942518863e-01	 2.8031743139e-01	 2.1265785215e+00
 9.8466840099e-01	 2.6130385103e-01	 1.9331947044e+00
 9.8951822059e-01	 2.4229167050e-01	 1.7401092625e+00
 9.9397795626e-01	 2.2329215155e-01	 1.5483096440e+00
 9.9805130696e-01	 2.0431630173e-01	 1.3586441716e+00
 1.0017423441e+00	 1.8537485966e-01	 1.1718235778e+00
 9.4141065479e-01	 3.7269589344e-01	 3.1047924577e+00
 9.4861120378e-01	 3.5396756067e-01	 2.9136942266e+00
 9.5541071639e-01	 3.3518146273e-01	 2.7164666029e+00
 9.6181030242e-01	 3.1634979391e-01	 2.5148042899e+00
 9.6781153665e-01	 2.9748458695e-01	 2.3102712194e+00
 9.7341644514e-01	 2.7859769255e-01	 2.1042959853e+00
 9.7862749055e-01	 2.5970075992e-01	 1.8981685967e+00
 9.8344755665e-01	 2.4080521853e-01	 1.6930385115e+00
 9.8787993198e-01	 2.2192226105e-01	 1.4899139040e+00
 9.9192829280e-01	 2.0306282749e-01	 1.2896621073e+00
 9.9559668551e-01	 1.8423759059e-01	 1.0930111627e+00
 9.3559947791e-01	 3.7039530150e-01	 3.1657694572e+00
 9.4275557907e-01	 3.5178257572e-01	 2.9583779542e+00
 9.4951311937e-01	 3.3311244135e-01	 2.7454460678e+00
 9.5587320179e-01	 3.1439701740e-01	 2.5286988780e+00
 9.6183739136e-01	 2.9564826234e-01	 2.3097288053e+00
 9.6740770165e-01	 2.7687795371e-01	 2.0899910626e+00
 9.7258658011e-01	 2.5809766881e-01	 1.8708004237e+00
 9.7737689272e-01	 2.3931876657e-01	 1.6533292740e+00
 9.8178190771e-01	 2.2055237056e-01	 1.4386068937e+00
 9.8580527865e-01	 2.0180935325e-01	 1.2275199158e+00
 9.8945102695e-01	 1.8310032151e-01	 1.0208138922e+00
 9.2978830103e-01	 3.6809470956e-01	 3.2368139812e+00
 9.3689995435e-01	 3.4959759078e-01	 3.0126965594e+00
 9.4361552236e-01	 3.3104341998e-01	 2.7836479347e+00
 9.4993610115e-01	 3.1244424090e-01	 2.5514244105e+00
 9.5586324607e-01	 2.9381193773e-01	 2.3176476509e+00
 9.6139895816e-01	 2.7515821486e-01	 2.0838001484e+00
 9.6654566967e-01	 2.5649457770e-01	 1.8512220098e+00
 9.7130622879e-01	 2.3783231460e-01	 1.6211090223e+00
 9.7568388344e-01	 2.1918248006e-01	 1.3945119547e+00
 9.7968226449e-01	 2.0055587900e-01	 1.1723370320e+00
 9.8330536840e-01	 1.8196305243e-01	 9.5534751880e-01
 1.0447619539e+00	 1.9333574321e-01	 1.8995735952e+00
 1.0482173855e+00	 1.7362765570e-01	 1.8440678500e+00
 1.0512836661e+00	 1.5397695711e-01	 1.7915102819e+00
 1.0539660917e+00	 1.3439392712e-01	 1.7423506263e+00
 1.0562702678e+00	 1.1488851689e-01	 1.6969050586e+00
 1.0582020904e+00	 9.5470340278e-02	 1.6553620275e+00
 1.0597677248e+00	 7.6148666396e-02	 1.6177887760e+00
 1.0609735861e+00	 5.6932413388e-02	 1.5841384456e+00
 1.0618263183e+00	 3.7830143444e-02	 1.5542576646e+00
 1.0623327752e+00	 1.8850058986e-02	 1.5278945198e+00
 1.0625000000e+00	 0.0000000000e+00	 1.5047068158e+00
 1.0386162954e+00	 1.9219847413e-01	 1.7774733246e+00
 1.0420514008e+00	 1.7260631655e-01	 1.7125685373e+00
 1.0450996446e+00	 1.5307121030e-01	 1.6516605469e+00
 1.0477662911e+00	 1.3360337460e-01	 1.5951745079e+00
 1.0500569133e+00	 1.1421270208e-01	 1.5434009421e+00
 1.0519773722e+00	 9.4908750039e-02	 1.4965017008e+00
 1.0535337970e+00	 7.5700733062e-02	 1.4545166059e+00
 1.0547325650e+00	 5.6597516837e-02	 1.4173706682e+00
 1.0555802811e+00	 3.7607613188e-02	 1.3848817803e+00
 1.0560837589e+00	 1.8739176285e-02	 1.3567687867e+00
 1.0562500000e+00	 0.0000000000e+00	 1.3326598348e+00
 1.0324706368e+00	 1.9106120505e-01	 1.6612511398e+00
 1.0358854162e+00	 1.7158497739e-01	 1.5869263477e+00
 1.0389156230e+00	 1.5216546349e-01	 1.5176739977e+00
 1.0415664906e+00	 1.3281282209e-01	 1.4538942739e+00
 1.0438435588e+00	 1.1353688727e-01	 1.3958515807e+00
 1.0457526540e+00	 9.4347159800e-02	 1.3436806384e+00
 1.0472998693e+00	 7.5252799729e-02	 1.2973932500e+00
 1.0484915439e+00	 5.6262620287e-02	 1.2568856369e+00
 1.0493342440e+00	 3.7385082931e-02	 1.2219462431e+00
 1.0498347426e+00	 1.8628293585e-02	 1.1922639076e+00
 1.0500000000e+00	 0.0000000000e+00	 1.1674363121e+00
 1.0263249783e+00	 1.8992393597e-01	 1.5510050293e+00
 1.0297194316e+00	 1.7056363824e-01	 1.4672392032e+00
 1.0327316014e+00	 1.5125971668e-01	 1.3896487446e+00
 1.0353666900e+00	 1.3202226958e-01	 1.3186084723e+00
 1.0376302043e+00	 1.1286107247e-01	 1.2543562034e+00
 1.0395279359e+00	 9.3785569562e-02	 1.1969989878e+00
 1.0410659415e+00	 7.4804866396e-02	 1.1465200049e+00
 1.0422505228e+00	 5.5927723736e-02	 1.1027860226e+00
 1.0430882068e+00	 3.7162552675e-02	 1.0655553157e+00
 1.0435857262e+00	 1.8517410884e-02	 1.0344859484e+00
 1.0437500000e+00	 0.0000000000e+00	 1.0091443219e+00
 1.0201793197e+00	 1.8878666689e-01	 1.4468352954e+00
 1.0235534470e+00	 1.6954229909e-01	 1.3536073352e+00
 1.0265475799e+00	 1.5035396987e-01	 1.2676852112e+00
 1.0291668895e+00	 1.3123171706e-01	 1.1894179752e+00
 1.0314168498e+00	 1.1218525766e-01	 1.1190163820e+00
 1.0333032177e+00	 9.3223979324e-02	 1.0565592653e+00
 1.0348320137e+00	 7.4356933063e-02	 1.0020005700e+00
 1.0360095017e+00	 5.5592827187e-02	 9.5517693870e-01
 1.0368421696e+00	 3.6940022419e-02	 9.1581575122e-01
 1.0373367099e+00	 1.8406528184e-02	 8.8354351943e-01
 1.0375000000e+00	 0.0000000000e+00	 8.5789454235e-01
 1.0140336612e+00	 1.8764939782e-01	 1.3488446247e+00
 1.0173874624e+00	 1.6852095994e-01	 1.2461333549e+00
 1.0203635583e+00	 1.4944822307e-01	 1.1518862037e+00
 1.0229670890e+00	 1.3044116455e-01	 1.0664260494e+00
 1.0252034952e+00	 1.1150944286e-01	 9.8993610247e-01
 1.0270784995e+00	 9.2662389087e-02	 9.2246642824e-01
 1.0285980859e+00	 7.3908999732e-02	 8.6394111967e-01
 1.0297684806e+00	 5.5257930637e-02	 8.1416601600e-01
 1.0305961325e+00	 3.6717492163e-02	 7.7283686812e-01
 1.0310876936e+00	 1.8295645484e-02	 7.3954785185e-01
 1.0312500000e+00	 0.0000000000e+00	 7.1380033464e-01
 1.0078880026e+00	 1.8651212874e-01	 1.2571381603e+00
 1.0112214777e+00	 1.6749962079e-01	 1.1449223254e+00
 1.0141795367e+00	 1.4854247626e-01	 1.0423569844e+00
 1.0167672884e+00	 1.2965061204e-01	 9.4973842942e-01
 1.0189901407e+00	 1.1083362805e-01	 8.6722183825e-01
 1.0208537813e+00	 9.2100798851e-02	 7.9482794943e-01
 1.0223641581e+00	 7.3461066401e-02	 7.3245037934e-01
 1.0235274595e+00	 5.4923034088e-02	 6.7986347878e-01
 1.0243500953e+00	 3.6494961908e-02	 6.3673062885e-01
 1.0248386773e+00	 1.8184762785e-02	 6.0261287789e-01
 1.0250000000e+00	 0.0000000000e+00	 5.7697782501e-01
 1.0017423441e+00	 1.8537485966e-01	 1.1718235778e+00
 1.0050554931e+00	 1.6647828164e-01	 1.0500818371e+00
 1.0079955152e+00	 1.4763672946e-01	 9.3920534653e-01
 1.0105674879e+00	 1.2886005953e-01	 8.3946339288e-01
 1.0127767862e+00	 1.1015781325e-01	 7.5098262665e-01
 1.0146290631e+00	 9.1539208615e-02	 6.7375389403e-01
 1.0161302303e+00	 7.3013133070e-02	 6.0763970340e-01
 1.0172864384e+00	 5.4588137540e-02	 5.5238222464e-01
 1.0181040581e+00	 3.6272431653e-02	 5.0761172076e-01
 1.0185896609e+00	 1.8073880085e-02	 4.7285531360e-01
 1.0187500000e+00	 0.0000000000e+00	 4.4754598938e-01
 9.9559668551e-01	 1.8423759059e-01	 1.0930111627e+00
 9.9888950849e-01	 1.6545694249e-01	 9.6172208569e-01
 1.0018114936e+00	 1.4673098265e-01	 8.4254169264e-01
 1.0043676873e+00	 1.2806950702e-01	 7.3571183939e-01
 1.0065634317e+00	 1.0948199844e-01	 6.4133014801e-01
 1.0084043450e+00	 9.0977618380e-02	 5.5935699981e-01
 1.0098963025e+00	 7.2565199740e-02	 4.8962315643e-01
 1.0110454173e+00	 5.4253240992e-02	 4.3183790694e-01
 1.0118580210e+00	 3.6049901399e-02	 3.8559764023e-01
 1.0123406446e+00	 1.7962997386e-02	 3.5039474478e-01
 1.0125000000e+00	 0.0000000000e+00	 3.2562674134e-01
 9.8945102695e-01	 1.8310032151e-01	 1.0208138922e+00
 9.9272352386e-01	 1.6443560334e-01	 8.7995595319e-01
 9.9562747204e-01	 1.4582523585e-01	 7.5247911540e-01
 9.9816788679e-01	 1.2727895451e-01	 6.3859737179e-01
 1.0003500772e+00	 1.0880618364e-01	 5.3837880774e-01
 1.0021796268e+00	 9.0416028146e-02	 4.5175276001e-01
 1.0036623747e+00	 7.2117266410e-02	 3.7851759737e-01
 1.0048043962e+00	 5.3918344445e-02	 3.1834902039e-01
 1.0056119838e+00	 3.5827371145e-02	 2.7080877995e-01
 1.0060916283e+00	 1.7852114686e-02	 2.3535371612e-01
 1.0062500000e+00	 0.0000000000e+00	 2.1134502339e-01
 9.8330536840e-01	 1.8196305243e-01	 9.5534751880e-01
 9.8655753924e-01	 1.6341426419e-01	 8.0489909168e-01
 9.8944345047e-01	 1.4491948904e-01	 6.6913348183e-01
 9.9196808625e-01	 1.2648840200e-01	 5.4823638065e-01
 9.9413672265e-01	 1.0813036884e-01	 4.4224582149e-01
 9.9595490861e-01	 8.9854437912e-02	 3.5105950956e-01
 9.9742844690e-01	 7.1669333081e-02	 2.7444276683e-01
 9.9856337511e-01	 5.3583447897e-02	 2.1203698986e-01
 9.9936594664e-01	 3.5604840891e-02	 1.6336851935e-01
 9.9984261196e-01	 1.7741231987e-02	 1.2785782367e-01
 1.0000000000e+00	 0.0000000000e+00	 1.0482890161e-01
