x	y	stress_xx
 1.0000000000e+000	 0.0000000000e+000	 1.1910010532e-002
 9.9995537907e-001	 9.4463922618e-003	 1.0280610882e-002
 9.9982082766e-001	 1.8928670806e-002	 1.5779829259e-002
 9.9959532214e-001	 2.8445738363e-002	 2.7984471908e-002
 9.9927785191e-001	 3.7996469419e-002	 4.6461605272e-002
 9.9886742018e-001	 4.7579710273e-002	 7.0769425937e-002
 9.9836304482e-001	 5.7194279111e-002	 1.0045820752e-001
 9.9776375910e-001	 6.6838966101e-002	 1.3507132433e-001
 9.9706861257e-001	 7.6512533521e-002	 1.7414635110e-001
 9.9627667181e-001	 8.6213715910e-002	 2.1721623764e-001
 9.9538702132e-001	 9.5941220239e-002	 2.6381055664e-001
 1.0066667147e+000	 0.0000000000e+000	 1.8995522767e-001
 1.0066217963e+000	 9.5093686589e-003	 1.8800830485e-001
 1.0064863479e+000	 1.9054862846e-002	 1.9293395824e-001
 1.0062593390e+000	 2.8635377975e-002	 2.0429182120e-001
 1.0059397523e+000	 3.8249781031e-002	 2.2163191365e-001
 1.0055265843e+000	 4.7896910619e-002	 2.4449555729e-001
 1.0050188464e+000	 5.7575577046e-002	 2.7241637107e-001
 1.0044155654e+000	 6.7284562415e-002	 3.0492134692e-001
 1.0037157846e+000	 7.7022620753e-002	 3.4153200489e-001
 1.0029185642e+000	 8.6788478160e-002	 3.8176562658e-001
 1.0020229826e+000	 9.6580832988e-002	 4.2513656496e-001
 1.0133335178e+000	 0.0000000000e+000	 3.6259534384e-001
 1.0132883019e+000	 9.5723458919e-003	 3.6033339008e-001
 1.0131519564e+000	 1.9181056560e-002	 3.6470043237e-001
 1.0129234441e+000	 2.8825020104e-002	 3.7523251878e-001
 1.0126017409e+000	 3.8503096002e-002	 3.9146445692e-001
 1.0121858367e+000	 4.8214115171e-002	 4.1292251298e-001
 1.0116747362e+000	 5.7956880036e-002	 4.3912545345e-001
 1.0110674599e+000	 6.7730164636e-002	 4.6958567052e-001
 1.0103630446e+000	 7.7532714744e-002	 5.0381039036e-001
 1.0095605445e+000	 8.7363248025e-002	 5.4130296306e-001
 1.0086590318e+000	 9.7220454211e-002	 5.8156423236e-001
 1.0200003975e+000	 0.0000000000e+000	 5.2947960433e-001
 1.0199548841e+000	 9.6353238502e-003	 5.2692555618e-001
 1.0198176416e+000	 1.9307251728e-002	 5.3075225748e-001
 1.0195876259e+000	 2.9014664415e-002	 5.4048266881e-001
 1.0192638062e+000	 3.8756413888e-002	 5.5563818308e-001
 1.0188451656e+000	 4.8531323372e-002	 5.7573179271e-001
 1.0183307025e+000	 5.8338187413e-002	 6.0026917531e-001
 1.0177194309e+000	 6.8175771982e-002	 6.2874986639e-001
 1.0170103811e+000	 7.8042814602e-002	 6.6066851852e-001
 1.0162026012e+000	 8.7938024501e-002	 6.9551624564e-001
 1.0152951574e+000	 9.7860082789e-002	 7.3278205050e-001
 1.0266673422e+000	 0.0000000000e+000	 6.9029293201e-001
 1.0266215314e+000	 9.6983024235e-003	 6.8746419756e-001
 1.0264833918e+000	 1.9433448127e-002	 6.9077183135e-001
 1.0262518727e+000	 2.9204310577e-002	 6.9972747366e-001
 1.0259259364e+000	 3.9009734247e-002	 7.1384086457e-001
 1.0255045595e+000	 4.8848534668e-002	 7.3261346781e-001
 1.0249867338e+000	 5.8719498508e-002	 7.5553959789e-001
 1.0243714667e+000	 6.8621383674e-002	 7.8210763797e-001
 1.0236577825e+000	 7.8552919434e-002	 8.1180134767e-001
 1.0228447227e+000	 8.8512806581e-002	 8.4410125958e-001
 1.0219313476e+000	 9.8499717604e-002	 8.7848616232e-001
 1.0333343403e+000	 0.0000000000e+000	 8.4472126309e-001
 1.0332882320e+000	 9.7612815014e-003	 8.4163809345e-001
 1.0331491954e+000	 1.9559645537e-002	 8.4445063057e-001
 1.0329161728e+000	 2.9393958258e-002	 8.5266092727e-001
 1.0325881199e+000	 3.9263056633e-002	 8.6576879792e-001
 1.0321640067e+000	 4.9165748503e-002	 8.8326588669e-001
 1.0316428183e+000	 5.9100812656e-002	 9.0463683391e-001
 1.0310235558e+000	 6.9066998931e-002	 9.2936053684e-001
 1.0303052370e+000	 7.9063028347e-002	 9.5691150395e-001
 1.0294868974e+000	 8.9087593259e-002	 9.8676130145e-001
 1.0285675910e+000	 9.9139357535e-002	 1.0183800901e+000
 1.0400013800e+000	 0.0000000000e+000	 9.9245992782e-001
 1.0399549742e+000	 9.8242609736e-003	 9.8914510013e-001
 1.0398150405e+000	 1.9685843737e-002	 9.9148890934e-001
 1.0395805145e+000	 2.9583607125e-002	 9.9898552031e-001
 1.0392503450e+000	 3.9516380604e-002	 1.0111265148e+000
 1.0388234954e+000	 4.9482964321e-002	 1.0273953915e+000
 1.0382989444e+000	 5.9482129187e-002	 1.0472687696e+000
 1.0376756864e+000	 6.9512616973e-002	 1.0702176895e+000
 1.0369527330e+000	 7.9573140449e-002	 1.0957090125e+000
 1.0361291135e+000	 8.9662383529e-002	 1.1232069143e+000
 1.0352038758e+000	 9.9779001463e-002	 1.1521744741e+000
 1.0466684498e+000	 0.0000000000e+000	 1.1332133478e+000
 1.0466217464e+000	 9.8872407295e-003	 1.1296918548e+000
 1.0464809157e+000	 1.9812042505e-002	 1.1315954097e+000
 1.0462448862e+000	 2.9773256846e-002	 1.1384119564e+000
 1.0459126001e+000	 3.9769705715e-002	 1.1496265041e+000
 1.0454830142e+000	 4.9800181568e-002	 1.1647160459e+000
 1.0449551004e+000	 5.9863447434e-002	 1.1831507971e+000
 1.0443278469e+000	 6.9958237022e-002	 1.2043955349e+000
 1.0436002590e+000	 8.0083254846e-002	 1.2279110390e+000
 1.0427713596e+000	 9.0237176385e-002	 1.2531556329e+000
 1.0418401905e+000	 1.0041864827e-001	 1.2795868211e+000
 1.0533355378e+000	 0.0000000000e+000	 1.2666947446e+000
 1.0532885370e+000	 9.9502206589e-003	 1.2629934904e+000
 1.0531468092e+000	 1.9938241621e-002	 1.2644870826e+000
 1.0529092762e+000	 2.9962907090e-002	 1.2706588791e+000
 1.0525748736e+000	 4.0023031523e-002	 1.2809889444e+000
 1.0521425512e+000	 5.0117399687e-002	 1.2949493723e+000
 1.0516112747e+000	 6.0244766730e-002	 1.3120055576e+000
 1.0509800258e+000	 7.0403858295e-002	 1.3316175710e+000
 1.0502478032e+000	 8.0593370645e-002	 1.3532416413e+000
 1.0494136239e+000	 9.0811970822e-002	 1.3763317391e+000
 1.0484765234e+000	 1.0105829683e-001	 1.4003412632e+000
 1.0600026325e+000	 0.0000000000e+000	 1.3926258592e+000
 1.0599553342e+000	 1.0013200651e-002	 1.3887733618e+000
 1.0598127094e+000	 2.0064440863e-002	 1.3898888194e+000
 1.0595736729e+000	 3.0152557523e-002	 1.3954526093e+000
 1.0592371537e+000	 4.0276357585e-002	 1.4049414466e+000
 1.0588020949e+000	 5.0434618123e-002	 1.4178241003e+000
 1.0582674557e+000	 6.0626086407e-002	 1.4335626932e+000
 1.0576322113e+000	 7.0849480014e-002	 1.4516141128e+000
 1.0568953541e+000	 8.1103486954e-002	 1.4714315299e+000
 1.0560558948e+000	 9.1386765832e-002	 1.4924660261e+000
 1.0551128630e+000	 1.0169794604e-001	 1.5141683250e+000
 1.0666697223e+000	 0.0000000000e+000	 1.5107366823e+000
 1.0666221265e+000	 1.0076180596e-002	 1.5067627808e+000
 1.0664786046e+000	 2.0190640010e-002	 1.5075331937e+000
 1.0662380646e+000	 3.0342207813e-002	 1.5125268916e+000
 1.0658994288e+000	 4.0529683456e-002	 1.5212188063e+000
 1.0654616337e+000	 5.0751836321e-002	 1.5330759231e+000
 1.0649236317e+000	 6.1007405798e-002	 1.5475586092e+000
 1.0642843918e+000	 7.1295101398e-002	 1.5641220569e+000
 1.0635429000e+000	 8.1613602879e-002	 1.5822178382e+000
 1.0626981608e+000	 9.1961560411e-002	 1.6012955719e+000
 1.0617491975e+000	 1.0233759476e-001	 1.6208047001e+000
 9.9538702132e-001	 9.5941220239e-002	 2.6381055664e-001
 9.9439891999e-001	 1.0569226494e-001	 3.1545450987e-001
 9.9331136502e-001	 1.1546697758e-001	 3.7367971054e-001
 9.9212350004e-001	 1.2526400575e-001	 4.3800629685e-001
 9.9083448984e-001	 1.3508197105e-001	 5.0796168171e-001
 9.8944352116e-001	 1.4491946945e-001	 5.8308238207e-001
 9.8794980354e-001	 1.5477507159e-001	 6.6291589713e-001
 9.8635257014e-001	 1.6464732318e-001	 7.4702262862e-001
 9.8465107850e-001	 1.7453474535e-001	 8.3497783609e-001
 9.8284461142e-001	 1.8443583512e-001	 9.2637361910e-001
 9.8093247774e-001	 1.9434906582e-001	 1.0208209180e+000
 1.0020229826e+000	 9.6580832988e-002	 4.2513656496e-001
 1.0010282939e+000	 1.0639688513e-001	 4.7321106543e-001
 9.9993348851e-001	 1.1623676299e-001	 5.2757023243e-001
 9.9873770437e-001	 1.2609910514e-001	 5.8773359441e-001
 9.9744010071e-001	 1.3598252402e-001	 6.5322801671e-001
 9.9603985884e-001	 1.4588560621e-001	 7.2358957158e-001
 9.9453618303e-001	 1.5580691285e-001	 7.9836545936e-001
 9.9292830133e-001	 1.6574497992e-001	 8.7711597419e-001
 9.9121546633e-001	 1.7569831871e-001	 9.5941650659e-001
 9.8939695606e-001	 1.8566541622e-001	 1.0448595749e+000
 9.8747207472e-001	 1.9564473560e-001	 1.1330568769e+000
 1.0086590318e+000	 9.7220454211e-002	 5.8156423236e-001
 1.0076577557e+000	 1.0710151464e-001	 6.2619638672e-001
 1.0065556997e+000	 1.1700655859e-001	 6.7682381029e-001
 1.0053519963e+000	 1.2693421560e-001	 7.3296539126e-001
 1.0040457991e+000	 1.3688308892e-001	 7.9414742088e-001
 1.0026362839e+000	 1.4685175578e-001	 8.5990550571e-001
 1.0011226498e+000	 1.5683876777e-001	 9.2978653359e-001
 9.9950411965e-001	 1.6684265120e-001	 1.0033506864e+000
 9.9777994115e-001	 1.7686190749e-001	 1.0801734921e+000
 9.9594938751e-001	 1.8689501361e-001	 1.1598479073e+000
 9.9401175836e-001	 1.9694042255e-001	 1.2419864213e+000
 1.0152951574e+000	 9.7860082789e-002	 7.3278205050e-001
 1.0142872936e+000	 1.0780615227e-001	 7.7409943481e-001
 1.0131779871e+000	 1.1777636305e-001	 8.2113034482e-001
 1.0119663644e+000	 1.2776933567e-001	 8.7339298915e-001
 1.0106515735e+000	 1.3778366418e-001	 9.3041304862e-001
 1.0092327849e+000	 1.4781791646e-001	 9.9172563229e-001
 1.0077091923e+000	 1.5787063456e-001	 1.0568772900e+000
 1.0060800136e+000	 1.6794033510e-001	 1.1254280743e+000
 1.0043444915e+000	 1.7802550965e-001	 1.1969536432e+000
 1.0025018943e+000	 1.8812462514e-001	 1.2710473965e+000
 1.0005515172e+000	 1.9823612439e-001	 1.3473226350e+000
 1.0219313476e+000	 9.8499717604e-002	 8.7848616232e-001
 1.0209168963e+000	 1.0851079676e-001	 9.1661669913e-001
 1.0198003391e+000	 1.1854617501e-001	 9.6018714149e-001
 1.0185807969e+000	 1.2860446388e-001	 1.0087149702e+000
 1.0172574122e+000	 1.3868424822e-001	 1.0617252091e+000
 1.0158293501e+000	 1.4878408655e-001	 1.1187524270e+000
 1.0142957990e+000	 1.5890251141e-001	 1.1793427984e+000
 1.0126559717e+000	 1.6903802971e-001	 1.2430562160e+000
 1.0109091058e+000	 1.7918912315e-001	 1.3094684472e+000
 1.0090544650e+000	 1.8935424866e-001	 1.3781733257e+000
 1.0070913398e+000	 1.9953183888e-001	 1.4487849672e+000
 1.0285675910e+000	 9.9139357535e-002	 1.0183800901e+000
 1.0275465519e+000	 1.0921544688e-001	 1.0534519289e+000
 1.0264227440e+000	 1.1931599313e-001	 1.0936986457e+000
 1.0251952824e+000	 1.2943959876e-001	 1.1386369358e+000
 1.0238633039e+000	 1.3958483946e-001	 1.1877911096e+000
 1.0224259682e+000	 1.4975026438e-001	 1.2406951415e+000
 1.0208824585e+000	 1.5993439652e-001	 1.2968947806e+000
 1.0192319823e+000	 1.7013573310e-001	 1.3559497168e+000
 1.0174737726e+000	 1.8035274596e-001	 1.4174357918e+000
 1.0156070881e+000	 1.9058388202e-001	 1.4809472485e+000
 1.0136312147e+000	 2.0082756372e-001	 1.5460990063e+000
 1.0352038758e+000	 9.9779001463e-002	 1.1521744741e+000
 1.0341762490e+000	 1.0992010142e-001	 1.1843158753e+000
 1.0330451904e+000	 1.2008581605e-001	 1.2213761884e+000
 1.0318098092e+000	 1.3027473887e-001	 1.2628712565e+000
 1.0304692368e+000	 1.4048543633e-001	 1.3083246092e+000
 1.0290226274e+000	 1.5071644824e-001	 1.3572695608e+000
 1.0274691590e+000	 1.6096628807e-001	 1.4092513732e+000
 1.0258080341e+000	 1.7123344334e-001	 1.4638294762e+000
 1.0240384805e+000	 1.8151637604e-001	 1.5205797369e+000
 1.0221597522e+000	 1.9181352306e-001	 1.5790967677e+000
 1.0201711305e+000	 2.0212329667e-001	 1.6389962640e+000
 1.0418401905e+000	 1.0041864827e-001	 1.2795868211e+000
 1.0408059760e+000	 1.1062475912e-001	 1.3089260429e+000
 1.0396676665e+000	 1.2085564245e-001	 1.3429377414e+000
 1.0384243657e+000	 1.3110988273e-001	 1.3811368306e+000
 1.0370751994e+000	 1.4138603725e-001	 1.4230459816e+000
 1.0356193164e+000	 1.5168263645e-001	 1.4681977713e+000
 1.0340558893e+000	 1.6199818427e-001	 1.5161368992e+000
 1.0323841155e+000	 1.7233115853e-001	 1.5664224648e+000
 1.0306032179e+000	 1.8268001136e-001	 1.6186302965e+000
 1.0287124458e+000	 1.9304316963e-001	 1.6723553214e+000
 1.0267110758e+000	 2.0341903544e-001	 1.7272139673e+000
 1.0484765234e+000	 1.0105829683e-001	 1.4003412632e+000
 1.0474357212e+000	 1.1132941875e-001	 1.4270064517e+000
 1.0462901609e+000	 1.2162547095e-001	 1.4581076821e+000
 1.0450389405e+000	 1.3194502888e-001	 1.4931588528e+000
 1.0436811802e+000	 1.4228664065e-001	 1.5316816878e+000
 1.0422160235e+000	 1.5264882731e-001	 1.5732079368e+000
 1.0406426376e+000	 1.6303008330e-001	 1.6172816492e+000
 1.0389602149e+000	 1.7342887673e-001	 1.6634615098e+000
 1.0371679733e+000	 1.8384364988e-001	 1.7113232293e+000
 1.0352651573e+000	 1.9427281959e-001	 1.7604619792e+000
 1.0332510390e+000	 2.0471477778e-001	 1.8104948592e+000
 1.0551128630e+000	 1.0169794604e-001	 1.5141683250e+000
 1.0540654729e+000	 1.1203407910e-001	 1.5382874076e+000
 1.0529126618e+000	 1.2239530023e-001	 1.5666165677e+000
 1.0516535218e+000	 1.3278017588e-001	 1.5986685922e+000
 1.0502871676e+000	 1.4318724494e-001	 1.6339641572e+000
 1.0488127371e+000	 1.5361501914e-001	 1.6720340842e+000
 1.0472293925e+000	 1.6406198336e-001	 1.7124216709e+000
 1.0455363209e+000	 1.7452659603e-001	 1.7546850888e+000
 1.0437327353e+000	 1.8500728956e-001	 1.7983998374e+000
 1.0418178755e+000	 1.9550247077e-001	 1.8431612453e+000
 1.0397910087e+000	 2.0601052141e-001	 1.8885870075e+000
 1.0617491975e+000	 1.0233759476e-001	 1.6208047001e+000
 1.0606952198e+000	 1.1273873891e-001	 1.6425052814e+000
 1.0595351578e+000	 1.2316512893e-001	 1.6682009180e+000
 1.0582680982e+000	 1.3361532224e-001	 1.6974031778e+000
 1.0568931500e+000	 1.4408784856e-001	 1.7296315778e+000
 1.0554094459e+000	 1.5458121025e-001	 1.7644158971e+000
 1.0538161425e+000	 1.6509388265e-001	 1.8012985671e+000
 1.0521124220e+000	 1.7562431451e-001	 1.8398371327e+000
 1.0502974924e+000	 1.8617092836e-001	 1.8796067727e+000
 1.0483705887e+000	 1.9673212103e-001	 1.9202028704e+000
 1.0463309736e+000	 2.0730626407e-001	 1.9612436218e+000
 9.8093247774e-001	 1.9434906582e-001	 1.0208209180e+000
 9.7891370242e-001	 2.0427437664e-001	 1.1189619793e+000
 9.7678792810e-001	 2.1420870614e-001	 1.2214221014e+000
 9.7455454705e-001	 2.2415045650e-001	 1.3278616468e+000
 9.7221298076e-001	 2.3409800832e-001	 1.4379644009e+000
 9.6976268070e-001	 2.4404972108e-001	 1.5514395417e+000
 9.6720312906e-001	 2.5400393389e-001	 1.6680235715e+000
 9.6453383948e-001	 2.6395896607e-001	 1.7874821993e+000
 9.6175435779e-001	 2.7391311782e-001	 1.9096121610e+000
 9.5886426270e-001	 2.8386467101e-001	 2.0342429663e+000
 9.5586316651e-001	 2.9381188981e-001	 2.1612385582e+000
 9.8747207472e-001	 1.9564473560e-001	 1.1330568769e+000
 9.8543984081e-001	 2.0563621564e-001	 1.2246374232e+000
 9.8329989455e-001	 2.1563677447e-001	 1.3202274278e+000
 9.8105162419e-001	 2.2564480365e-001	 1.4195075845e+000
 9.7869444735e-001	 2.3565867295e-001	 1.5221832977e+000
 9.7622781184e-001	 2.4567673095e-001	 1.6279866917e+000
 9.7365119639e-001	 2.5569730566e-001	 1.7366785794e+000
 9.7096411142e-001	 2.6571870519e-001	 1.8480503794e+000
 9.6816609972e-001	 2.7573921843e-001	 1.9619259682e+000
 9.6525673719e-001	 2.8575711578e-001	 2.0781634546e+000
 9.6223563355e-001	 2.9577064985e-001	 2.1966568644e+000
 9.9401175836e-001	 1.9694042255e-001	 1.2419864213e+000
 9.9196606567e-001	 2.0699807268e-001	 1.3272089313e+000
 9.8981194730e-001	 2.1706486173e-001	 1.4161460200e+000
 9.8754878742e-001	 2.2713917060e-001	 1.5084978012e+000
 9.8517599981e-001	 2.3721935827e-001	 1.6039903321e+000
 9.8269302864e-001	 2.4730376237e-001	 1.7023776631e+000
 9.8009934917e-001	 2.5739069986e-001	 1.8034438471e+000
 9.7739446857e-001	 2.6747846763e-001	 1.9070048928e+000
 9.7457792661e-001	 2.7756534324e-001	 2.0129106513e+000
 9.7164929638e-001	 2.8764958564e-001	 2.1210466213e+000
 9.6860818502e-001	 2.9772943586e-001	 2.2313356606e+000
 1.0005515172e+000	 1.9823612439e-001	 1.3473226350e+000
 9.9849236558e-001	 2.0835994538e-001	 1.4263936803e+000
 9.9632407493e-001	 2.1849296541e-001	 1.5088983618e+000
 9.9404602537e-001	 2.2863355473e-001	 1.5945553014e+000
 9.9165762682e-001	 2.3878006153e-001	 1.6831102417e+000
 9.8915831979e-001	 2.4893081251e-001	 1.7743381406e+000
 9.8654757610e-001	 2.5908411353e-001	 1.8680452211e+000
 9.8382489966e-001	 2.6923825030e-001	 1.9640709646e+000
 9.8098982723e-001	 2.7939148905e-001	 2.0622900340e+000
 9.7804192909e-001	 2.8954207725e-001	 2.1626141125e+000
 9.7498080978e-001	 2.9968824439e-001	 2.2649936441e+000
 1.0070913398e+000	 1.9953183888e-001	 1.4487849672e+000
 1.0050187291e+000	 2.0972183136e-001	 1.5219150871e+000
 1.0028362661e+000	 2.1992108301e-001	 1.5982110782e+000
 1.0005433267e+000	 2.3012795344e-001	 1.6774091565e+000
 9.9813931702e-001	 2.4034078001e-001	 1.7592737829e+000
 9.9562367398e-001	 2.5055787851e-001	 1.8435998026e+000
 9.9299586589e-001	 2.6077754372e-001	 1.9302145399e+000
 9.9025539346e-001	 2.7099805014e-001	 2.0189798327e+000
 9.8740179037e-001	 2.8121765267e-001	 2.1097939952e+000
 9.8443462413e-001	 2.9143458732e-001	 2.2025936925e+000
 9.8135349668e-001	 3.0164707201e-001	 2.2973557137e+000
 1.0136312147e+000	 2.0082756372e-001	 1.5460990063e+000
 1.0115451449e+000	 2.1108372823e-001	 1.6135025883e+000
 1.0093485093e+000	 2.2134921204e-001	 1.6838167195e+000
 1.0070406799e+000	 2.3162236410e-001	 1.7567942944e+000
 1.0046210591e+000	 2.4190151098e-001	 1.8322175225e+000
 1.0020890799e+000	 2.5218495753e-001	 1.9099001161e+000
 9.9944420728e-001	 2.6247098745e-001	 1.9896894309e+000
 9.9668593869e-001	 2.7275786406e-001	 2.0714685459e+000
 9.9381380481e-001	 2.8304383089e-001	 2.1551582675e+000
 9.9082737030e-001	 2.9332711254e-001	 2.2407190426e+000
 9.8772623455e-001	 3.0360591531e-001	 2.3281527675e+000
 1.0201711305e+000	 2.0212329667e-001	 1.6389962640e+000
 1.0180716014e+000	 2.1244563362e-001	 1.7008914291e+000
 1.0158607932e+000	 2.2277735000e-001	 1.7654535551e+000
 1.0135380738e+000	 2.3311678410e-001	 1.8324512962e+000
 1.0111028416e+000	 2.4346225171e-001	 1.9016836389e+000
 1.0085545262e+000	 2.5381204671e-001	 1.9729821396e+000
 1.0058925890e+000	 2.6416444177e-001	 2.0462131156e+000
 1.0031165241e+000	 2.7451768897e-001	 2.1212797707e+000
 1.0002258593e+000	 2.8487002053e-001	 2.1981242448e+000
 9.9722015643e-001	 2.9521964958e-001	 2.2767295685e+000
 9.9409901225e-001	 3.0556477086e-001	 2.3571215098e+000
 1.0267110758e+000	 2.0341903544e-001	 1.7272139673e+000
 1.0245980873e+000	 2.1380754513e-001	 1.7838224611e+000
 1.0223731064e+000	 2.2420549438e-001	 1.8428653757e+000
 1.0200354969e+000	 2.3461121082e-001	 1.9041262028e+000
 1.0175846534e+000	 2.4502299945e-001	 1.9674197307e+000
 1.0150200016e+000	 2.5543914322e-001	 2.0325943355e+000
 1.0123409997e+000	 2.6585790371e-001	 2.0995342232e+000
 1.0095471385e+000	 2.7627752180e-001	 2.1681616058e+000
 1.0066379427e+000	 2.8669621839e-001	 2.2384387978e+000
 1.0036129713e+000	 2.9711219513e-001	 2.3103702157e+000
 1.0004718186e+000	 3.0752363522e-001	 2.3840042658e+000
 1.0332510390e+000	 2.0471477778e-001	 1.8104948592e+000
 1.0311245912e+000	 2.1516946039e-001	 1.8620419476e+000
 1.0288854375e+000	 2.2563364268e-001	 1.9158013032e+000
 1.0265329379e+000	 2.3610564165e-001	 1.9715703284e+000
 1.0240664829e+000	 2.4658375149e-001	 2.0291786345e+000
 1.0214854948e+000	 2.5706624421e-001	 2.0884903892e+000
 1.0187894281e+000	 2.6755137031e-001	 2.1494066125e+000
 1.0159777705e+000	 2.7803735948e-001	 2.2118674056e+000
 1.0130500437e+000	 2.8852242127e-001	 2.2758540978e+000
 1.0100058038e+000	 2.9900474589e-001	 2.3413912937e+000
 1.0068446425e+000	 3.0948250496e-001	 2.4085488050e+000
 1.0397910087e+000	 2.0601052141e-001	 1.8885870075e+000
 1.0376511016e+000	 2.1653137701e-001	 1.9353013779e+000
 1.0353977752e+000	 2.2706179242e-001	 1.9840156091e+000
 1.0330303854e+000	 2.3760007398e-001	 2.0345400824e+000
 1.0305483190e+000	 2.4814450509e-001	 2.0867182494e+000
 1.0279509944e+000	 2.5869334682e-001	 2.1404290370e+000
 1.0252378630e+000	 2.6924483860e-001	 2.1955892009e+000
 1.0224084090e+000	 2.7979719891e-001	 2.2521556103e+000
 1.0194621511e+000	 2.9034862597e-001	 2.3101274476e+000
 1.0163986427e+000	 3.0089729855e-001	 2.3695483069e+000
 1.0132174728e+000	 3.1144137666e-001	 2.4305081727e+000
 1.0463309736e+000	 2.0730626407e-001	 1.9612436218e+000
 1.0441776071e+000	 2.1789329261e-001	 2.0033572883e+000
 1.0419101079e+000	 2.2848994108e-001	 2.0472675396e+000
 1.0395278280e+000	 2.3909450519e-001	 2.0927967989e+000
 1.0370301501e+000	 2.4970525751e-001	 2.1398013692e+000
 1.0344164892e+000	 2.6032044820e-001	 2.1881739003e+000
 1.0316862930e+000	 2.7093830562e-001	 2.2378458013e+000
 1.0288390426e+000	 2.8155703702e-001	 2.2887895842e+000
 1.0258742537e+000	 2.9217482931e-001	 2.3410211207e+000
 1.0227914767e+000	 3.0278984978e-001	 2.3946017939e+000
 1.0195902983e+000	 3.1340024690e-001	 2.4496405279e+000
 9.5586316651e-001	 2.9381188981e-001	 2.1612385582e+000
 9.5275071551e-001	 3.0375302140e-001	 2.2897375052e+000
 9.4952658997e-001	 3.1368629624e-001	 2.4188237328e+000
 9.4619050544e-001	 3.2360992937e-001	 2.5483320130e+000
 9.4274221361e-001	 3.3352212132e-001	 2.6781328238e+000
 9.3918150291e-001	 3.4342105900e-001	 2.8081334968e+000
 9.3550819912e-001	 3.5330491665e-001	 2.9382792148e+000
 9.3172216582e-001	 3.6317185667e-001	 3.0685538481e+000
 9.2782330500e-001	 3.7302003062e-001	 3.1989806198e+000
 9.2381155749e-001	 3.8284758015e-001	 3.3296225885e+000
 9.1968690347e-001	 3.9265263800e-001	 3.4605829415e+000
 9.6223563355e-001	 2.9577064985e-001	 2.1966568644e+000
 9.5910243273e-001	 3.0577805613e-001	 2.3165390703e+000
 9.5585681287e-001	 3.1577755329e-001	 2.4368720949e+000
 9.5249848761e-001	 3.2576734445e-001	 2.5574979103e+000
 9.4902720699e-001	 3.3574561815e-001	 2.6782946225e+000
 9.4544275806e-001	 3.4571054923e-001	 2.7991776463e+000
 9.4174496540e-001	 3.5566029974e-001	 2.9201007252e+000
 9.3793369169e-001	 3.6559301983e-001	 3.0410567862e+000
 9.3400883828e-001	 3.7550684875e-001	 3.1620786175e+000
 9.2997034560e-001	 3.8539991574e-001	 3.2832393592e+000
 9.2581819368e-001	 3.9527034112e-001	 3.4046527984e+000
 9.6860818502e-001	 2.9772943586e-001	 2.2313356606e+000
 9.6545423411e-001	 3.0780311770e-001	 2.3428978369e+000
 9.6218711963e-001	 3.1786883805e-001	 2.4547684107e+000
 9.5880655335e-001	 3.2792478811e-001	 2.5667987257e+000
 9.5531228366e-001	 3.3796914444e-001	 2.6788767910e+000
 9.5170409617e-001	 3.4800006980e-001	 2.7909284811e+000
 9.4798181431e-001	 3.5801571404e-001	 2.9029185785e+000
 9.4414529987e-001	 3.6801421508e-001	 3.0148516444e+000
 9.4019445352e-001	 3.7799369983e-001	 3.1267727083e+000
 9.3612921531e-001	 3.8795228516e-001	 3.2387677640e+000
 9.3194956513e-001	 3.9788807893e-001	 3.3509640637e+000
 9.7498080978e-001	 2.9968824439e-001	 2.2649936441e+000
 9.7180610853e-001	 3.0982820256e-001	 2.3685296176e+000
 9.6851749920e-001	 3.1996014685e-001	 2.4722264657e+000
 9.6511469165e-001	 3.3008225659e-001	 2.5759470200e+000
 9.6159743260e-001	 3.4019269631e-001	 2.6795914106e+000
 9.5796550628e-001	 3.5028961669e-001	 2.7830982919e+000
 9.5421873495e-001	 3.6037115542e-001	 2.8864459063e+000
 9.5035697948e-001	 3.7043543817e-001	 2.9896529697e+000
 9.4638013989e-001	 3.8048057951e-001	 3.0927793712e+000
 9.4228815584e-001	 3.9050468393e-001	 3.1959266727e+000
 9.3808100710e-001	 4.0050584684e-001	 3.2992383998e+000
 9.8135349668e-001	 3.0164707201e-001	 2.2973557137e+000
 9.7815804489e-001	 3.1185330716e-001	 2.3931565070e+000
 9.7484794049e-001	 3.2205147605e-001	 2.4889663846e+000
 9.7142289144e-001	 3.3223974610e-001	 2.5846617265e+000
 9.6788264283e-001	 3.4241626986e-001	 2.6801569468e+000
 9.6422697745e-001	 3.5257918591e-001	 2.7754057442e+000
 9.6045571640e-001	 3.6272661978e-001	 2.8704021850e+000
 9.5656871966e-001	 3.7285668486e-001	 2.9651816043e+000
 9.5256588658e-001	 3.8296748344e-001	 3.0598213125e+000
 9.4844715643e-001	 3.9305710759e-001	 3.1544410975e+000
 9.4421250885e-001	 4.0312364028e-001	 3.2492035100e+000
 9.8772623455e-001	 3.0360591531e-001	 2.3281527675e+000
 9.8451003205e-001	 3.1387842797e-001	 2.4165066791e+000
 9.8117843242e-001	 3.2414282198e-001	 2.5047144277e+000
 9.7773114170e-001	 3.3439725287e-001	 2.5926679491e+000
 9.7416790333e-001	 3.4463986120e-001	 2.6802980488e+000
 9.7048849870e-001	 3.5486877345e-001	 2.7675756789e+000
 9.6669274775e-001	 3.6508210297e-001	 2.8545130393e+000
 9.6278050953e-001	 3.7527795093e-001	 2.9411644921e+000
 9.5875168275e-001	 3.8545440726e-001	 3.0276272757e+000
 9.5460620629e-001	 3.9560955167e-001	 3.1140420064e+000
 9.5034405964e-001	 4.0574145465e-001	 3.2005929566e+000
 9.9409901225e-001	 3.0556477086e-001	 2.3571215098e+000
 9.9086205892e-001	 3.1590356143e-001	 2.4383141929e+000
 9.8750896391e-001	 3.2623418098e-001	 2.5192027979e+000
 9.8403943139e-001	 3.3655477313e-001	 2.5996967689e+000
 9.8045320312e-001	 3.4686346643e-001	 2.6797453574e+000
 9.7675005909e-001	 3.5715837529e-001	 2.7593389231e+000
 9.7292981807e-001	 3.6743760089e-001	 2.8385100542e+000
 9.6899233822e-001	 3.7769923213e-001	 2.9173344940e+000
 9.6493751758e-001	 3.8794134663e-001	 2.9959318605e+000
 9.6076529464e-001	 3.9816201170e-001	 3.0744661462e+000
 9.5647564876e-001	 4.0835928539e-001	 3.1531459871e+000
 1.0004718186e+000	 3.0752363522e-001	 2.3840042658e+000
 9.9721411437e-001	 3.1792870400e-001	 2.4583188075e+000
 9.9383952389e-001	 3.2832554939e-001	 2.5321694548e+000
 9.9034774946e-001	 3.3871230310e-001	 2.6054850601e+000
 9.8673853119e-001	 3.4908708168e-001	 2.6782353217e+000
 9.8301164765e-001	 3.5944798744e-001	 2.7504321081e+000
 9.7916691646e-001	 3.6979310941e-001	 2.8221305968e+000
 9.7520419486e-001	 3.8012052422e-001	 2.8934302122e+000
 9.7112338025e-001	 3.9042829718e-001	 2.9644753498e+000
 9.6692441070e-001	 4.0071448321e-001	 3.0354558725e+000
 9.6260726547e-001	 4.1097712791e-001	 3.1066073690e+000
 1.0068446425e+000	 3.0948250496e-001	 2.4085488050e+000
 1.0035661873e+000	 3.1995385215e-001	 2.4762658047e+000
 1.0001701013e+000	 3.3041692356e-001	 2.5433579379e+000
 9.9665608488e-001	 3.4086983900e-001	 2.6097753136e+000
 9.9302387654e-001	 3.5131070303e-001	 2.6755100248e+000
 9.8927325343e-001	 3.6173760589e-001	 2.7405974971e+000
 9.8540403200e-001	 3.7214862440e-001	 2.8051176453e+000
 9.8141606858e-001	 3.8254182298e-001	 2.8691958219e+000
 9.7730925992e-001	 3.9291525458e-001	 2.9330035449e+000
 9.7308354370e-001	 4.0326696175e-001	 2.9967589893e+000
 9.6873889904e-001	 4.1359497763e-001	 3.0607272324e+000
 1.0132174728e+000	 3.1144137666e-001	 2.4305081727e+000
 1.0099182666e+000	 3.2197900232e-001	 2.4919058197e+000
 1.0065006850e+000	 3.3250829981e-001	 2.5525171978e+000
 1.0029644266e+000	 3.4302737705e-001	 2.6123154687e+000
 9.9930922818e-001	 3.5353432661e-001	 2.6713170163e+000
 9.9553486547e-001	 3.6402722662e-001	 2.7295828195e+000
 9.9164115378e-001	 3.7450414175e-001	 2.7872196260e+000
 9.8762794851e-001	 3.8496312415e-001	 2.8443809113e+000
 9.8349514578e-001	 3.9540221446e-001	 2.9012676086e+000
 9.7924268286e-001	 4.0581944283e-001	 2.9581285946e+000
 9.7487053874e-001	 4.1621282996e-001	 3.0152609198e+000
 1.0195902983e+000	 3.1340024690e-001	 2.4496405279e+000
 1.0162703411e+000	 3.2400415097e-001	 2.5049946792e+000
 1.0128312640e+000	 3.3459967450e-001	 2.5594014341e+000
 1.0092727636e+000	 3.4518491349e-001	 2.6128587522e+000
 1.0055945751e+000	 3.5575794852e-001	 2.6654091531e+000
 1.0017964728e+000	 3.6631684564e-001	 2.7171411135e+000
 9.9787827087e-001	 3.7685965733e-001	 2.7681902582e+000
 9.9383982379e-001	 3.8738442351e-001	 2.8187403288e+000
 9.8968102700e-001	 3.9788917248e-001	 2.8690239152e+000
 9.8540181740e-001	 4.0837192200e-001	 2.9193229342e+000
 9.8100217384e-001	 4.1883068033e-001	 2.9699688437e+000
 9.1968690347e-001	 3.9265263800e-001	 3.4605829415e+000
 9.1545000704e-001	 4.0243186398e-001	 3.5894496097e+000
 9.1110031866e-001	 4.1218484971e-001	 3.7138798711e+000
 9.0663793965e-001	 4.2190970867e-001	 3.8340773242e+000
 9.0206301214e-001	 4.3160454958e-001	 3.9502786265e+000
 8.9737571948e-001	 4.4126747746e-001	 4.0627525783e+000
 8.9257628643e-001	 4.5089659477e-001	 4.1717989954e+000
 8.8766497944e-001	 4.6049000248e-001	 4.2777473665e+000
 8.8264210687e-001	 4.7004580118e-001	 4.3809553001e+000
 8.7750801914e-001	 4.7956209226e-001	 4.4818067605e+000
 8.7226310887e-001	 4.8903697900e-001	 4.5807100972e+000
 9.2581819368e-001	 3.9527034112e-001	 3.4046527984e+000
 9.2155305107e-001	 4.0511476241e-001	 3.5238708038e+000
 9.1717436456e-001	 4.1493276851e-001	 3.6385506318e+000
 9.1268223614e-001	 4.2472246034e-001	 3.7489663390e+000
 9.0807680890e-001	 4.3448193398e-001	 3.8554264174e+000
 9.0335826739e-001	 4.4420928185e-001	 3.9582727533e+000
 8.9852683789e-001	 4.5390259373e-001	 4.0578793635e+000
 8.9358278862e-001	 4.6355995795e-001	 4.1546509080e+000
 8.8852642999e-001	 4.7317946244e-001	 4.2490209798e+000
 8.8335811476e-001	 4.8275919591e-001	 4.3414501753e+000
 8.7807823817e-001	 4.9229724903e-001	 4.4324239479e+000
 9.3194956513e-001	 3.9788807893e-001	 3.3509640637e+000
 9.2765617597e-001	 4.0779769639e-001	 3.4608828567e+000
 9.2324849095e-001	 4.1768072373e-001	 3.5661808235e+000
 9.1872661272e-001	 4.2753524927e-001	 3.6671961855e+000
 9.1409068534e-001	 4.3735935651e-001	 3.7643028760e+000
 9.0934089458e-001	 4.4715112521e-001	 3.8579093837e+000
 9.0447746820e-001	 4.5690863253e-001	 3.9484573621e+000
 8.9950067621e-001	 4.6662995410e-001	 4.0364200054e+000
 8.9441083108e-001	 4.7631316522e-001	 4.1223001915e+000
 8.8920828790e-001	 4.8595634193e-001	 4.2066283958e+000
 8.8389344453e-001	 4.9555756225e-001	 4.2899603781e+000
 9.3808100710e-001	 4.0050584684e-001	 3.2992383998e+000
 9.3375937106e-001	 4.1048066122e-001	 3.4002096234e+000
 9.2932268718e-001	 4.2042871055e-001	 3.4964950118e+000
 9.2477105881e-001	 4.3034807055e-001	 3.5884907812e+000
 9.2010463094e-001	 4.4023681213e-001	 3.6766300403e+000
 9.1532359056e-001	 4.5009300241e-001	 3.7613815261e+000
 9.1042816694e-001	 4.5991470589e-001	 3.8432480966e+000
 9.0541863186e-001	 4.6969998556e-001	 3.9227649789e+000
 9.0029529985e-001	 4.7944690403e-001	 4.0004977746e+000
 8.9505852832e-001	 4.8915352472e-001	 4.0770402261e+000
 8.8970871776e-001	 4.9881791296e-001	 4.1530117460e+000
 9.4421250885e-001	 4.0312364028e-001	 3.2492035100e+000
 9.3986262565e-001	 4.1316365222e-001	 3.3415809077e+000
 9.3539694265e-001	 4.2317672416e-001	 3.4292236514e+000
 9.3081556384e-001	 4.3316091926e-001	 3.5125799018e+000
 9.2611863518e-001	 4.4311429580e-001	 3.5921357996e+000
 9.2130634488e-001	 4.5303490829e-001	 3.6684141028e+000
 9.1637892370e-001	 4.6292080856e-001	 3.7419725706e+000
 9.1133664521e-001	 4.7277004695e-001	 3.8134020936e+000
 9.0617982598e-001	 4.8258067341e-001	 3.8833245710e+000
 9.0090882578e-001	 4.9235073868e-001	 3.9523905372e+000
 8.9552404770e-001	 5.0207829547e-001	 4.0212765440e+000
 9.5034405964e-001	 4.0574145465e-001	 3.2005929566e+000
 9.4596592907e-001	 4.1584666468e-001	 3.2847322843e+000
 9.4147124670e-001	 4.2592475975e-001	 3.3641029099e+000
 9.3686011722e-001	 4.3597379047e-001	 3.4391990055e+000
 9.3213268753e-001	 4.4599180250e-001	 3.5105537198e+000
 9.2728914706e-001	 4.5597683770e-001	 3.5787377268e+000
 9.2232972807e-001	 4.6592693529e-001	 3.6443575096e+000
 9.1725470591e-001	 4.7584013290e-001	 3.7080533815e+000
 9.1206439920e-001	 4.8571446785e-001	 3.7704972436e+000
 9.0675917004e-001	 4.9554797821e-001	 3.8323900820e+000
 9.0133942415e-001	 5.0533870406e-001	 3.8944592103e+000
 9.5647564876e-001	 4.0835928539e-001	 3.1531459871e+000
 9.5206927063e-001	 4.1852969390e-001	 3.2294049284e+000
 9.4754558872e-001	 4.2867281252e-001	 3.3008745007e+000
 9.4290470838e-001	 4.3878667926e-001	 3.3680890673e+000
 9.3814677747e-001	 4.4886932718e-001	 3.4316228777e+000
 9.3327198663e-001	 4.5891878551e-001	 3.4920885358e+000
 9.2828056964e-001	 4.6893308080e-001	 3.5501351935e+000
 9.2317280359e-001	 4.7891023804e-001	 3.6064464711e+000
 9.1794900919e-001	 4.8884828188e-001	 3.6617381042e+000
 9.1260955087e-001	 4.9874523773e-001	 3.7167553203e+000
 9.0715483696e-001	 5.0859913302e-001	 3.7722699507e+000
 9.6260726547e-001	 4.1097712791e-001	 3.1066073690e+000
 9.5817263965e-001	 4.2121273520e-001	 3.1753454540e+000
 9.5361995807e-001	 4.3142087766e-001	 3.2392855232e+000
 9.4894932674e-001	 4.4159958071e-001	 3.2989964207e+000
 9.4416089447e-001	 4.5174686481e-001	 3.3550877027e+000
 9.3925485313e-001	 4.6186074655e-001	 3.4082080331e+000
 9.3423143798e-001	 4.7193923983e-001	 3.4590432965e+000
 9.2909092791e-001	 4.8198035700e-001	 3.5083144262e+000
 9.2383364567e-001	 4.9198211001e-001	 3.5567749493e+000
 9.1845995803e-001	 5.0194251164e-001	 3.6052082517e+000
 9.1297027593e-001	 5.1185957666e-001	 3.6544245682e+000
 9.6873889904e-001	 4.1359497763e-001	 3.0607272324e+000
 9.6427602546e-001	 4.2389578388e-001	 3.1223057598e+000
 9.5969434412e-001	 4.3416895035e-001	 3.1790883109e+000
 9.5499396172e-001	 4.4441248989e-001	 3.2316726074e+000
 9.5017502801e-001	 4.5462441035e-001	 3.2806978272e+000
 9.4523773607e-001	 4.6480271568e-001	 3.3268429379e+000
 9.4018232268e-001	 4.7494540714e-001	 3.3708247359e+000
 9.3500906850e-001	 4.8505048440e-001	 3.4133955922e+000
 9.2971829832e-001	 4.9511594676e-001	 3.4553409040e+000
 9.2431038127e-001	 5.0513979434e-001	 3.4974762568e+000
 9.1878573089e-001	 5.1512002926e-001	 3.5406443008e+000
 9.7487053874e-001	 4.1621282996e-001	 3.0152609198e+000
 9.7037941737e-001	 4.2657883524e-001	 3.0700428825e+000
 9.6576873625e-001	 4.3691702579e-001	 3.1200402872e+000
 9.6103860275e-001	 4.4722540189e-001	 3.1658742334e+000
 9.5618916756e-001	 4.5750195877e-001	 3.2082079434e+000
 9.5122062500e-001	 4.6774468776e-001	 3.2477450410e+000
 9.4613321333e-001	 4.7795157745e-001	 3.2852275269e+000
 9.4092721500e-001	 4.8812061487e-001	 3.3214334498e+000
 9.3560295686e-001	 4.9824978664e-001	 3.3571742739e+000
 9.3016081035e-001	 5.0833708024e-001	 3.3932919461e+000
 9.2460119167e-001	 5.1838048513e-001	 3.4306556678e+000
 9.8100217384e-001	 4.1883068033e-001	 2.9699688437e+000
 9.7648280471e-001	 4.2926188459e-001	 3.0183188573e+000
 9.7184312382e-001	 4.3966509917e-001	 3.0619038277e+000
 9.6708323924e-001	 4.5003831177e-001	 3.1013628335e+000
 9.6220330259e-001	 4.6037950503e-001	 3.1373776675e+000
 9.5720350944e-001	 4.7068665762e-001	 3.1706710695e+000
 9.5208409952e-001	 4.8095774550e-001	 3.2020046461e+000
 9.4684535706e-001	 4.9119074303e-001	 3.2321764766e+000
 9.4148761098e-001	 5.0138362418e-001	 3.2620184041e+000
 9.3601123505e-001	 5.1153436373e-001	 3.2923930166e+000
 9.3041664808e-001	 5.2164093855e-001	 3.3241903231e+000
 8.7226310887e-001	 4.8903697900e-001	 4.5807100972e+000
 8.6690699948e-001	 4.9846997940e-001	 4.6749634361e+000
 8.6144094757e-001	 5.0785777912e-001	 4.7616616673e+000
 8.5586547377e-001	 5.1719849384e-001	 4.8409645697e+000
 8.5018114112e-001	 5.2649024586e-001	 4.9130232809e+000
 8.4438855498e-001	 5.3573116523e-001	 4.9779774976e+000
 8.3848836297e-001	 5.4491939094e-001	 5.0359525702e+000
 8.3248125485e-001	 5.5405307210e-001	 5.0870565082e+000
 8.2636796230e-001	 5.6313036914e-001	 5.1313769104e+000
 8.2014925879e-001	 5.7214945494e-001	 5.1689778397e+000
 8.1382595926e-001	 5.8110851606e-001	 5.1998966614e+000
 8.7807823817e-001	 4.9229724903e-001	 4.4324239479e+000
 8.7268642113e-001	 5.0179313655e-001	 4.5191218983e+000
 8.6718392861e-001	 5.1124352205e-001	 4.5984643973e+000
 8.6157128472e-001	 5.2064650865e-001	 4.6705999429e+000
 8.5584905625e-001	 5.3000020613e-001	 4.7356667514e+000
 8.5001785259e-001	 5.3930273208e-001	 4.7937898870e+000
 8.4407832568e-001	 5.4855221307e-001	 4.8450782832e+000
 8.3803116988e-001	 5.5774678588e-001	 4.8896216711e+000
 8.3187712176e-001	 5.6688459867e-001	 4.9274874316e+000
 8.2561695993e-001	 5.7596381215e-001	 4.9587173903e+000
 8.1925150476e-001	 5.8498260077e-001	 4.9833245730e+000
 8.8389344453e-001	 4.9555756225e-001	 4.2899603781e+000
 8.7846591936e-001	 5.0511633773e-001	 4.3693464033e+000
 8.7292698575e-001	 5.1462930984e-001	 4.4415327686e+000
 8.6727717128e-001	 5.2409456915e-001	 4.5066670861e+000
 8.6151704647e-001	 5.3351021291e-001	 4.5648853156e+000
 8.5564722478e-001	 5.4287434625e-001	 4.6163088055e+000
 8.4966836246e-001	 5.5218508333e-001	 4.6610412214e+000
 8.4358115846e-001	 5.6144054860e-001	 4.6991653781e+000
 8.3738635422e-001	 5.7063887794e-001	 4.7307399921e+000
 8.3108473352e-001	 5.7977821989e-001	 4.7557963748e+000
 8.2467712216e-001	 5.8885673681e-001	 4.7743350849e+000
 8.8970871776e-001	 4.9881791296e-001	 4.1530117460e+000
 8.8424548405e-001	 5.0843957712e-001	 4.2253241918e+000
 8.7867010894e-001	 5.1801513656e-001	 4.2905517572e+000
 8.7298312345e-001	 5.2754266930e-001	 4.3488513807e+000
 8.6718510189e-001	 5.3702026006e-001	 4.4003672463e+000
 8.6127666172e-001	 5.4644600149e-001	 4.4452277167e+000
 8.5525846353e-001	 5.5581799537e-001	 4.4835421503e+000
 8.4913121086e-001	 5.6513435379e-001	 4.5153976165e+000
 8.4289565004e-001	 5.7439320038e-001	 4.5408555290e+000
 8.3655256999e-001	 5.8359267149e-001	 4.5599482150e+000
 8.3010280195e-001	 5.9273091740e-001	 4.5726754423e+000
 8.9552404770e-001	 5.0207829547e-001	 4.0212765440e+000
 8.9002510510e-001	 5.1176284892e-001	 4.0867486643e+000
 8.8441328812e-001	 5.2140099630e-001	 4.1452124434e+000
 8.7868913126e-001	 5.3099080307e-001	 4.1968441821e+000
 8.7285321257e-001	 5.4053034142e-001	 4.2418065893e+000
 8.6690615355e-001	 5.5001769156e-001	 4.2802455910e+000
 8.6084861910e-001	 5.5945094283e-001	 4.3122870158e+000
 8.5468131737e-001	 5.6882819500e-001	 4.3380331746e+000
 8.4840499957e-001	 5.7814755943e-001	 4.3575593529e+000
 8.4202045976e-001	 5.8740716028e-001	 4.3709102357e+000
 8.3552853464e-001	 5.9660513576e-001	 4.3780962871e+000
 9.0133942415e-001	 5.0533870406e-001	 3.8944592103e+000
 8.9580477239e-001	 5.1508614730e-001	 3.9533191908e+000
 8.9015651325e-001	 5.2478688313e-001	 4.0052118225e+000
 8.8439518472e-001	 5.3443896442e-001	 4.0503426313e+000
 8.7852136859e-001	 5.4404045087e-001	 4.0889029787e+000
 8.7253569041e-001	 5.5358941019e-001	 4.1210667267e+000
 8.6643881940e-001	 5.6308391935e-001	 4.1469867740e+000
 8.6023146829e-001	 5.7252206575e-001	 4.1667914802e+000
 8.5391439317e-001	 5.8190194850e-001	 4.1805809966e+000
 8.4748839329e-001	 5.9122167959e-001	 4.1884235258e+000
 8.4095431073e-001	 6.0047938511e-001	 4.1903515315e+000
 9.0715483696e-001	 5.0859913302e-001	 3.7722699507e+000
 9.0158447580e-001	 5.1840946646e-001	 3.8247409297e+000
 8.9589977427e-001	 5.2817279112e-001	 3.8702526223e+000
 8.9010127384e-001	 5.3788714732e-001	 3.9090494758e+000
 8.8418956004e-001	 5.4755058225e-001	 3.9413614618e+000
 8.7816526246e-001	 5.5716115115e-001	 3.9674005807e+000
 8.7202905463e-001	 5.6671691857e-001	 3.9873572288e+000
 8.6578165389e-001	 5.7621595959e-001	 4.0013964473e+000
 8.5942382121e-001	 5.8565636104e-001	 4.0096540719e+000
 8.5295636098e-001	 5.9503622273e-001	 4.0122328059e+000
 8.4638012074e-001	 6.0435365867e-001	 4.0091982380e+000
 9.1297027593e-001	 5.1185957666e-001	 3.6544245682e+000
 9.0736420522e-001	 5.2173280057e-001	 3.7007246555e+000
 9.0164306114e-001	 5.3155871434e-001	 3.7400431315e+000
 8.9580738863e-001	 5.4133534574e-001	 3.7726728985e+000
 8.8985777699e-001	 5.5106072943e-001	 3.7988923322e+000
 8.8379485983e-001	 5.6073290818e-001	 3.8189616072e+000
 8.7761931501e-001	 5.7034993415e-001	 3.8331188775e+000
 8.7133186447e-001	 5.7990987005e-001	 3.8415763301e+000
 8.6493327404e-001	 5.8941079048e-001	 3.8445161337e+000
 8.5842435328e-001	 5.9885078304e-001	 3.8420863032e+000
 8.5180595516e-001	 6.0822794966e-001	 3.8343965054e+000
 9.1878573089e-001	 5.1512002926e-001	 3.5406443008e+000
 9.1314395053e-001	 5.2505614381e-001	 3.5809865941e+000
 9.0738636380e-001	 5.3494464687e-001	 3.6142970349e+000
 9.0151351912e-001	 5.4478355364e-001	 3.6409263559e+000
 8.9552600953e-001	 5.5457088626e-001	 3.6612109710e+000
 8.8942447269e-001	 5.6430467504e-001	 3.6754691042e+000
 8.8320959077e-001	 5.7398295971e-001	 3.6839967642e+000
 8.7688209030e-001	 5.8360379067e-001	 3.6870635846e+000
 8.7044274202e-001	 5.9316523023e-001	 3.6849085499e+000
 8.6389236061e-001	 6.0266535384e-001	 3.6777356321e+000
 8.5723180450e-001	 6.1210225131e-001	 3.6657093615e+000
 9.2460119167e-001	 5.1838048513e-001	 3.4306556678e+000
 9.1892370161e-001	 5.2837949038e-001	 3.4652482675e+000
 9.1312967220e-001	 5.3833058279e-001	 3.4927332576e+000
 9.0721965531e-001	 5.4823176499e-001	 3.5135284234e+000
 9.0119424773e-001	 5.5808104660e-001	 3.5280376961e+000
 8.9505409117e-001	 5.6787644546e-001	 3.5366470674e+000
 8.8879987212e-001	 5.7761598890e-001	 3.5397203407e+000
 8.8243232169e-001	 5.8729771499e-001	 3.5375947369e+000
 8.7595221550e-001	 5.9691967375e-001	 3.5305763797e+000
 8.6936037341e-001	 6.0647992845e-001	 3.5189356821e+000
 8.6265765926e-001	 6.1597655683e-001	 3.5029026608e+000
 9.3041664808e-001	 5.2164093855e-001	 3.3241903231e+000
 9.2470344836e-001	 5.3170283446e-001	 3.3532363447e+000
 9.1887297629e-001	 5.4171651617e-001	 3.3750758162e+000
 9.1292578721e-001	 5.5167997376e-001	 3.3902026486e+000
 9.0686248168e-001	 5.6159120431e-001	 3.3990976185e+000
 9.0068370543e-001	 5.7144821321e-001	 3.4022240522e+000
 8.9439014927e-001	 5.8124901537e-001	 3.4000233336e+000
 8.8798254891e-001	 5.9099163653e-001	 3.3929102585e+000
 8.8146168485e-001	 6.0067411444e-001	 3.3812682571e+000
 8.7482838211e-001	 6.1029450020e-001	 3.3654445105e+000
 8.6808350995e-001	 6.1985085944e-001	 3.3457449883e+000
 8.1382595926e-001	 5.8110851606e-001	 5.1998966614e+000
 8.0739891962e-001	 5.9000575367e-001	 5.2219486034e+000
 8.0086903579e-001	 5.9883938412e-001	 5.2333528309e+000
 7.9423724396e-001	 6.0760764065e-001	 5.2347177390e+000
 7.8750452048e-001	 6.1630877477e-001	 5.2266309412e+000
 7.8067188138e-001	 6.2494105736e-001	 5.2096548937e+000
 7.7374038194e-001	 6.3350277976e-001	 5.1843225779e+000
 7.6671111609e-001	 6.4199225496e-001	 5.1511332647e+000
 7.5958521594e-001	 6.5040781861e-001	 5.1105483913e+000
 7.5236385116e-001	 6.5874783014e-001	 5.0629875733e+000
 7.4504822833e-001	 6.6701067379e-001	 5.0088163793e+000
 8.1925150476e-001	 5.8498260077e-001	 4.9833245730e+000
 8.1278161789e-001	 5.9393915373e-001	 4.9992463307e+000
 8.0620820118e-001	 6.0283167547e-001	 5.0049432077e+000
 7.9953219709e-001	 6.1165838747e-001	 5.0011759921e+000
 7.9275458846e-001	 6.2041752957e-001	 4.9886836531e+000
 7.8587639811e-001	 6.2910736112e-001	 4.9681785463e+000
 7.7889868833e-001	 6.3772616209e-001	 4.9403416750e+000
 7.7182256037e-001	 6.4627223420e-001	 4.9058180350e+000
 7.6464915388e-001	 6.5474390201e-001	 4.8652120721e+000
 7.5737964632e-001	 6.6313951401e-001	 4.8190832803e+000
 7.5001525232e-001	 6.7145744368e-001	 4.7659956330e+000
 8.2467712216e-001	 5.8885673681e-001	 4.7743350849e+000
 8.1816438747e-001	 5.9787260590e-001	 4.7844320525e+000
 8.1154743732e-001	 6.0682401972e-001	 4.7847894583e+000
 8.0482722037e-001	 6.1570918796e-001	 4.7763079478e+000
 7.9800472600e-001	 6.2452633881e-001	 4.7598650483e+000
 7.9108098379e-001	 6.3327372008e-001	 4.7363099705e+000
 7.8405706307e-001	 6.4194960037e-001	 4.7064584653e+000
 7.7693407238e-001	 6.5055227014e-001	 4.6710877659e+000
 7.6971315892e-001	 6.5908004285e-001	 4.6309316431e+000
 7.6239550795e-001	 6.6753125607e-001	 4.5866160790e+000
 7.5498234213e-001	 6.7590427250e-001	 4.5316431178e+000
 8.3010280195e-001	 5.9273091740e-001	 4.5726754423e+000
 8.2354721896e-001	 6.0180610330e-001	 4.5772659052e+000
 8.1688673486e-001	 6.1081640987e-001	 4.5726617232e+000
 8.1012230455e-001	 6.1976003503e-001	 4.5598911442e+000
 8.0325492393e-001	 6.2863519529e-001	 4.5399577399e+000
 7.9628562933e-001	 6.3744012696e-001	 4.5138348194e+000
 7.8921549714e-001	 6.4617308722e-001	 4.4824598976e+000
 7.8204564318e-001	 6.5483235529e-001	 4.4467292500e+000
 7.7477722220e-001	 6.6341623356e-001	 4.4074925840e+000
 7.6741142725e-001	 6.7192304863e-001	 4.3632038540e+000
 7.5994948906e-001	 6.8035115244e-001	 4.3055051931e+000
 8.3552853464e-001	 5.9660513576e-001	 4.3780962871e+000
 8.2893010294e-001	 6.0573963905e-001	 4.3775109394e+000
 8.2222608445e-001	 6.1480883895e-001	 4.3683326491e+000
 8.1541744036e-001	 6.2381092158e-001	 4.3517052861e+000
 8.0850517304e-001	 6.3274409183e-001	 4.3287462305e+000
 8.0149032562e-001	 6.4160657445e-001	 4.3005404139e+000
 7.9437398150e-001	 6.5039661524e-001	 4.2681344152e+000
 7.8715726382e-001	 6.5911248218e-001	 4.2325306435e+000
 7.7984133485e-001	 6.6775246654e-001	 4.1945867152e+000
 7.7242739547e-001	 6.7631488401e-001	 4.1475240107e+000
 7.6491668442e-001	 6.8479807574e-001	 4.0873357095e+000
 8.4095431073e-001	 6.0047938511e-001	 4.1903515315e+000
 8.3431302997e-001	 6.0967320627e-001	 4.1849330045e+000
 8.2756547677e-001	 6.1880129996e-001	 4.1715772831e+000
 8.2071261853e-001	 6.2786184055e-001	 4.1515321461e+000
 8.1375546415e-001	 6.3685302124e-001	 4.1260168180e+000
 8.0669506354e-001	 6.4577305527e-001	 4.0962156514e+000
 7.9953250713e-001	 6.5462017704e-001	 4.0632718659e+000
 7.9226892534e-001	 6.6339264330e-001	 4.0282813756e+000
 7.8490548802e-001	 6.7208873421e-001	 3.9898042069e+000
 7.7744340380e-001	 6.8070675452e-001	 3.9393408297e+000
 7.6988391951e-001	 6.8924503461e-001	 3.8768958397e+000
 8.4638012074e-001	 6.0435365867e-001	 4.0091982380e+000
 8.3969599065e-001	 6.1360679807e-001	 3.9993006403e+000
 8.3290490245e-001	 6.2279378592e-001	 3.9821729725e+000
 8.2600782979e-001	 6.3191278482e-001	 3.9591554716e+000
 8.1900578808e-001	 6.4096197632e-001	 3.9315575068e+000
 8.1189983399e-001	 6.4993956212e-001	 3.9006509190e+000
 8.0469106500e-001	 6.5884376524e-001	 3.8676634166e+000
 7.9738061881e-001	 6.6767283117e-001	 3.8336915753e+000
 7.8996967283e-001	 6.7642502898e-001	 3.7920029748e+000
 7.8245944349e-001	 6.8509865247e-001	 3.7384257037e+000
 7.7485118565e-001	 6.9369202127e-001	 3.6739539126e+000
 8.5180595516e-001	 6.0822794966e-001	 3.8343965054e+000
 8.4507897555e-001	 6.1754040756e-001	 3.8203849740e+000
 8.3824435215e-001	 6.2678628985e-001	 3.7998992709e+000
 8.3130306488e-001	 6.3596374733e-001	 3.7743608961e+000
 8.2425613563e-001	 6.4507094990e-001	 3.7451579239e+000
 8.1710462786e-001	 6.5410608773e-001	 3.7136380125e+000
 8.0984964608e-001	 6.6306737245e-001	 3.6811014722e+000
 8.0249233529e-001	 6.7195303829e-001	 3.6464569404e+000
 7.9503388043e-001	 6.8076134325e-001	 3.6009635922e+000
 7.8747550575e-001	 6.8949057019e-001	 3.5445569782e+000
 7.7981847414e-001	 6.9813902794e-001	 3.4782852539e+000
 8.5723180450e-001	 6.1210225131e-001	 3.6657093615e+000
 8.5046197524e-001	 6.2147402787e-001	 3.6479596228e+000
 8.4358381654e-001	 6.3077880475e-001	 3.6245378482e+000
 8.3659831453e-001	 6.4001472097e-001	 3.5969358560e+000
 8.2950649762e-001	 6.4917993477e-001	 3.5666092390e+000
 8.2230943604e-001	 6.5827262478e-001	 3.5349700589e+000
 8.1500824134e-001	 6.6729099126e-001	 3.5033501504e+000
 8.0760406582e-001	 6.7623325719e-001	 3.4654434691e+000
 8.0009810196e-001	 6.8509766945e-001	 3.4164734059e+000
 7.9249158180e-001	 6.9388249998e-001	 3.3575197962e+000
 7.8478577629e-001	 7.0258604684e-001	 3.2896720296e+000
 8.6265765926e-001	 6.1597655683e-001	 3.5029026608e+000
 8.5584498032e-001	 6.2540765212e-001	 3.4818006022e+000
 8.4892328627e-001	 6.3477132365e-001	 3.4558724070e+000
 8.4189356947e-001	 6.4406569866e-001	 3.4266695120e+000
 8.3475686485e-001	 6.5328892374e-001	 3.3957040906e+000
 8.2751424943e-001	 6.6243916601e-001	 3.3644414448e+000
 8.2016684176e-001	 6.7151461430e-001	 3.3323548276e+000
 8.1271580146e-001	 6.8051348036e-001	 3.2904463179e+000
 8.0516232855e-001	 6.8943399999e-001	 3.2383263856e+000
 7.9750766287e-001	 6.9827443416e-001	 3.1771059480e+000
 7.8975308341e-001	 7.0703307018e-001	 3.1079030946e+000
 8.6808350995e-001	 6.1985085944e-001	 3.3457449883e+000
 8.6122798137e-001	 6.2934127341e-001	 3.3216862386e+000
 8.5426275199e-001	 6.3876383955e-001	 3.2936886027e+000
 8.4718882044e-001	 6.4811667332e-001	 3.2633526755e+000
 8.4000722815e-001	 6.5739790964e-001	 3.2322365153e+000
 8.3271905891e-001	 6.6660570411e-001	 3.2018477473e+000
 8.2532543831e-001	 6.7573823417e-001	 3.1668163441e+000
 8.1782753326e-001	 6.8479370032e-001	 3.1212671196e+000
 8.1022655134e-001	 6.9377032727e-001	 3.0663229776e+000
 8.0252374017e-001	 7.0266636505e-001	 3.0031137237e+000
 7.9472038680e-001	 7.1148009019e-001	 2.9327738451e+000
 7.4504822833e-001	 6.6701067379e-001	 5.0088163793e+000
 7.3764070856e-001	 6.7519353820e-001	 4.9454663132e+000
 7.3014148001e-001	 6.8329610677e-001	 4.8711750616e+000
 7.2255185597e-001	 6.9131684565e-001	 4.7862282313e+000
 7.1487318379e-001	 6.9925424984e-001	 4.6909085976e+000
 7.0710684408e-001	 7.0710684408e-001	 4.5854957785e+000
 6.9925424984e-001	 7.1487318379e-001	 4.4702659282e+000
 6.9131684565e-001	 7.2255185597e-001	 4.3454914438e+000
 6.8329610677e-001	 7.3014148001e-001	 4.2114406840e+000
 6.7519353820e-001	 7.3764070856e-001	 4.0683776947e+000
 6.6701067379e-001	 7.4504822833e-001	 3.9165619395e+000
 7.5001525232e-001	 6.7145744368e-001	 4.7659956330e+000
 7.4255834874e-001	 6.7969486092e-001	 4.7007404829e+000
 7.3500912496e-001	 6.8785144700e-001	 4.6256168677e+000
 7.2736890306e-001	 6.9592565786e-001	 4.5407929169e+000
 7.1963903937e-001	 7.0391597845e-001	 4.4464333836e+000
 7.1182092369e-001	 7.1182092369e-001	 4.3426995420e+000
 7.0391597845e-001	 7.1963903937e-001	 4.2297491029e+000
 6.9592565786e-001	 7.2736890306e-001	 4.1077361434e+000
 6.8785144700e-001	 7.3500912496e-001	 3.9768110476e+000
 6.7969486092e-001	 7.4255834874e-001	 3.8371204539e+000
 6.7145744368e-001	 7.5001525232e-001	 3.6888072046e+000
 7.5498234213e-001	 6.7590427250e-001	 4.5316431178e+000
 7.4747605407e-001	 6.8419624327e-001	 4.4646695932e+000
 7.3987683442e-001	 6.9240684758e-001	 4.3888555326e+000
 7.3218601399e-001	 7.0053453112e-001	 4.3042567567e+000
 7.2440495811e-001	 7.0857776883e-001	 4.2109252108e+000
 7.1653506577e-001	 7.1653506577e-001	 4.1089090766e+000
 7.0857776883e-001	 7.2440495811e-001	 3.9982529034e+000
 7.0053453112e-001	 7.3218601399e-001	 3.8789977535e+000
 6.9240684758e-001	 7.3987683442e-001	 3.7511813584e+000
 6.8419624327e-001	 7.4747605407e-001	 3.6148382797e+000
 6.7590427250e-001	 7.5498234213e-001	 3.4700000714e+000
 7.5994948906e-001	 6.8035115244e-001	 4.3055051931e+000
 7.5239381596e-001	 6.8869767739e-001	 4.2369967983e+000
 7.4474459985e-001	 6.9696230055e-001	 4.1606316102e+000
 7.3700318031e-001	 7.0514345739e-001	 4.0763582041e+000
 7.2917093164e-001	 7.1323961281e-001	 3.9841208250e+000
 7.2124926205e-001	 7.2124926205e-001	 3.8838597069e+000
 7.1323961281e-001	 7.2917093164e-001	 3.7755114128e+000
 7.0514345739e-001	 7.3700318031e-001	 3.6590091888e+000
 6.9696230055e-001	 7.4474459985e-001	 3.5342833285e+000
 6.8869767739e-001	 7.5239381596e-001	 3.4012615409e+000
 6.8035115244e-001	 7.5994948906e-001	 3.2598693178e+000
 7.6491668442e-001	 6.8479807574e-001	 4.0873357095e+000
 7.5731162579e-001	 6.9319915540e-001	 4.0174727887e+000
 7.4961241274e-001	 7.0151779793e-001	 3.9406932180e+000
 7.4182039360e-001	 7.0975242860e-001	 3.8568432881e+000
 7.3393695165e-001	 7.1790150225e-001	 3.7657645474e+000
 7.2596350430e-001	 7.2596350430e-001	 3.6672943232e+000
 7.1790150225e-001	 7.3393695165e-001	 3.5612662630e+000
 7.0975242860e-001	 7.4182039360e-001	 3.4475108911e+000
 7.0151779793e-001	 7.4961241274e-001	 3.3258561736e+000
 6.9319915540e-001	 7.5731162579e-001	 3.1961280872e+000
 6.8479807574e-001	 7.6491668442e-001	 3.0581511846e+000
 7.6988391951e-001	 6.8924503461e-001	 3.8768958397e+000
 7.6222947497e-001	 6.9770066941e-001	 3.8058556205e+000
 7.5448026457e-001	 7.0607333175e-001	 3.7287958663e+000
 7.4663764543e-001	 7.1436143667e-001	 3.6454654426e+000
 7.3870300978e-001	 7.2256342898e-001	 3.5556081042e+000
 7.3067778426e-001	 7.3067778426e-001	 3.4589632113e+000
 7.2256342898e-001	 7.3870300978e-001	 3.3552664653e+000
 7.1436143667e-001	 7.4663764543e-001	 3.2442506611e+000
 7.0607333175e-001	 7.5448026457e-001	 3.1256464466e+000
 6.9770066941e-001	 7.6222947497e-001	 2.9991830850e+000
 6.8924503461e-001	 7.6988391951e-001	 2.8645892115e+000
 7.7485118565e-001	 6.9369202127e-001	 3.6739539126e+000
 7.6714735488e-001	 7.0220221155e-001	 3.6019105496e+000
 7.5934814683e-001	 7.1062889404e-001	 3.5247022912e+000
 7.5145492736e-001	 7.1897047354e-001	 3.4419853395e+000
 7.4346909770e-001	 7.2722538485e-001	 3.3534104606e+000
 7.3539209369e-001	 7.3539209369e-001	 3.2586238878e+000
 7.2722538485e-001	 7.4346909770e-001	 3.1572682469e+000
 7.1897047354e-001	 7.5145492736e-001	 3.0489834967e+000
 7.1062889404e-001	 7.5934814683e-001	 2.9334078768e+000
 7.0220221155e-001	 7.6714735488e-001	 2.8101788568e+000
 6.9369202127e-001	 7.7485118565e-001	 2.6789340780e+000
 7.7981847414e-001	 6.9813902794e-001	 3.4782852539e+000
 7.7206525692e-001	 7.0670377395e-001	 3.4054098703e+000
 7.6421605099e-001	 7.1518447683e-001	 3.3281822934e+000
 7.5627223096e-001	 7.2357953116e-001	 3.2461707282e+000
 7.4823520707e-001	 7.3188736169e-001	 3.1589376601e+000
 7.4010642432e-001	 7.4010642432e-001	 3.0660409401e+000
 7.3188736169e-001	 7.4823520707e-001	 2.9670348917e+000
 7.2357953116e-001	 7.5627223096e-001	 2.8614714345e+000
 7.1518447683e-001	 7.6421605099e-001	 2.7489012130e+000
 7.0670377395e-001	 7.7206525692e-001	 2.6288747265e+000
 6.9813902794e-001	 7.7981847414e-001	 2.5009434495e+000
 7.8478577629e-001	 7.0258604684e-001	 3.2896720296e+000
 7.7698317248e-001	 7.1120534873e-001	 3.2161327587e+000
 7.6908396853e-001	 7.1974007214e-001	 3.1390125812e+000
 7.6108954782e-001	 7.2818860144e-001	 3.0577962780e+000
 7.5300132953e-001	 7.3654935135e-001	 2.9719626684e+000
 7.4482076792e-001	 7.4482076792e-001	 2.8809858710e+000
 7.3654935135e-001	 7.5300132953e-001	 2.7843365864e+000
 7.2818860144e-001	 7.6108954782e-001	 2.6814833971e+000
 7.1974007214e-001	 7.6908396853e-001	 2.5718940714e+000
 7.1120534873e-001	 7.7698317248e-001	 2.4550368678e+000
 7.0258604684e-001	 7.8478577629e-001	 2.3303818272e+000
 7.8975308341e-001	 7.0703307018e-001	 3.1079030946e+000
 7.8190109296e-001	 7.1570692800e-001	 3.0338651202e+000
 7.7395189095e-001	 7.2429567201e-001	 2.9569766179e+000
 7.6590686948e-001	 7.3279767634e-001	 2.8766434261e+000
 7.5776745677e-001	 7.4121134567e-001	 2.7922652213e+000
 7.4953511623e-001	 7.4953511623e-001	 2.7032369475e+000
 7.4121134567e-001	 7.5776745677e-001	 2.6089502701e+000
 7.3279767634e-001	 7.6590686948e-001	 2.5087950441e+000
 7.2429567201e-001	 7.7395189095e-001	 2.4021607887e+000
 7.1570692800e-001	 7.8190109296e-001	 2.2884381587e+000
 7.0703307018e-001	 7.8975308341e-001	 2.1670204034e+000
 7.9472038680e-001	 7.1148009019e-001	 2.9327738451e+000
 7.8681900975e-001	 7.2020850390e-001	 2.8583994416e+000
 7.7881980971e-001	 7.2885126846e-001	 2.7818644732e+000
 7.7072418754e-001	 7.3740674778e-001	 2.7025002292e+000
 7.6253358043e-001	 7.4587333649e-001	 2.6196316768e+000
 7.5424946100e-001	 7.5424946100e-001	 2.5325790543e+000
 7.4587333649e-001	 7.6253358043e-001	 2.4406594885e+000
 7.3740674778e-001	 7.7072418754e-001	 2.3431886275e+000
 7.2885126846e-001	 7.7881980971e-001	 2.2394822780e+000
 7.2020850390e-001	 7.8681900975e-001	 2.1288580388e+000
 7.1148009019e-001	 7.9472038680e-001	 2.0106369200e+000
 6.6701067379e-001	 7.4504822833e-001	 3.9165619395e+000
 6.5874783014e-001	 7.5236385116e-001	 3.7577939570e+000
 6.5040781861e-001	 7.5958521594e-001	 3.5931664944e+000
 6.4199225496e-001	 7.6671111609e-001	 3.4224000107e+000
 6.3350277976e-001	 7.7374038194e-001	 3.2452719239e+000
 6.2494105736e-001	 7.8067188138e-001	 3.0616121342e+000
 6.1630877477e-001	 7.8750452048e-001	 2.8713019706e+000
 6.0760764065e-001	 7.9423724396e-001	 2.6742729153e+000
 5.9883938412e-001	 8.0086903579e-001	 2.4705051216e+000
 5.9000575367e-001	 8.0739891962e-001	 2.2600257416e+000
 5.8110851606e-001	 8.1382595926e-001	 2.0429070821e+000
 6.7145744368e-001	 7.5001525232e-001	 3.6888072046e+000
 6.6313951401e-001	 7.5737964632e-001	 3.5354782557e+000
 6.5474390201e-001	 7.6464915388e-001	 3.3771309125e+000
 6.4627223420e-001	 7.7182256037e-001	 3.2126879762e+000
 6.3772616209e-001	 7.7889868833e-001	 3.0419804261e+000
 6.2910736112e-001	 7.8587639811e-001	 2.8648915391e+000
 6.2041752957e-001	 7.9275458846e-001	 2.6813556587e+000
 6.1165838747e-001	 7.9953219709e-001	 2.4913567382e+000
 6.0283167547e-001	 8.0620820118e-001	 2.2949266755e+000
 5.9393915373e-001	 8.1278161789e-001	 2.0921434561e+000
 5.8498260077e-001	 8.1925150476e-001	 1.8831291245e+000
 6.7590427250e-001	 7.5498234213e-001	 3.4700000714e+000
 6.6753125607e-001	 7.6239550795e-001	 3.3206718220e+000
 6.5908004285e-001	 7.6971315892e-001	 3.1686068609e+000
 6.5055227014e-001	 7.7693407238e-001	 3.0104734304e+000
 6.4194960037e-001	 7.8405706307e-001	 2.8461259592e+000
 6.3327372008e-001	 7.9108098379e-001	 2.6754977464e+000
 6.2452633881e-001	 7.9800472600e-001	 2.4985730819e+000
 6.1570918796e-001	 8.0482722037e-001	 2.3153856093e+000
 6.0682401972e-001	 8.1154743732e-001	 2.1260164761e+000
 5.9787260590e-001	 8.1816438747e-001	 1.9305922920e+000
 5.8885673681e-001	 8.2467712216e-001	 1.7292829126e+000
 6.8035115244e-001	 7.5994948906e-001	 3.2598693178e+000
 6.7192304863e-001	 7.6741142725e-001	 3.1140226310e+000
 6.6341623356e-001	 7.7477722220e-001	 2.9672772904e+000
 6.5483235529e-001	 7.8204564318e-001	 2.8154500196e+000
 6.4617308722e-001	 7.8921549714e-001	 2.6574158815e+000
 6.3744012696e-001	 7.9628562933e-001	 2.4931549167e+000
 6.2863519529e-001	 8.0325492393e-001	 2.3226983654e+000
 6.1976003503e-001	 8.1012230455e-001	 2.1461268495e+000
 6.1081640987e-001	 8.1688673486e-001	 1.9635683387e+000
 6.0180610330e-001	 8.2354721896e-001	 1.7751959211e+000
 5.9273091740e-001	 8.3010280195e-001	 1.5812253995e+000
 6.8479807574e-001	 7.6491668442e-001	 3.0581511846e+000
 6.7631488401e-001	 7.7242739547e-001	 2.9157424026e+000
 6.6775246654e-001	 7.7984133485e-001	 2.7728732953e+000
 6.5911248218e-001	 7.8715726382e-001	 2.6273161205e+000
 6.5039661524e-001	 7.9437398150e-001	 2.4755619527e+000
 6.4160657445e-001	 8.0149032562e-001	 2.3175911917e+000
 6.3274409183e-001	 8.0850517304e-001	 2.1534791023e+000
 6.2381092158e-001	 8.1541744036e-001	 1.9833506413e+000
 6.1480883895e-001	 8.2222608445e-001	 1.8073782386e+000
 6.0573963905e-001	 8.2893010294e-001	 1.6257793797e+000
 5.9660513576e-001	 8.3552853464e-001	 1.4388140111e+000
 6.8924503461e-001	 7.6988391951e-001	 2.8645892115e+000
 6.8070675452e-001	 7.7744340380e-001	 2.7255742906e+000
 6.7208873421e-001	 7.8490548802e-001	 2.5860991748e+000
 6.6339264330e-001	 7.9226892534e-001	 2.4457748573e+000
 6.5462017704e-001	 7.9953250713e-001	 2.3002803566e+000
 6.4577305527e-001	 8.0669506354e-001	 2.1485387253e+000
 6.3685302124e-001	 8.1375546415e-001	 1.9906663962e+000
 6.2786184055e-001	 8.2071261853e-001	 1.8268300851e+000
 6.1880129996e-001	 8.2756547677e-001	 1.6572443859e+000
 6.0967320627e-001	 8.3431302997e-001	 1.4821691628e+000
 6.0047938511e-001	 8.4095431073e-001	 1.3019067630e+000
 6.9369202127e-001	 7.7485118565e-001	 2.6789340780e+000
 6.8509865247e-001	 7.8245944349e-001	 2.5432685375e+000
 6.7642502898e-001	 7.8996967283e-001	 2.4071198114e+000
 6.6767283117e-001	 7.9738061881e-001	 2.2705716273e+000
 6.5884376524e-001	 8.0469106500e-001	 2.1312917281e+000
 6.4993956212e-001	 8.1189983399e-001	 1.9857337191e+000
 6.4096197632e-001	 8.1900578808e-001	 1.8340149080e+000
 6.3191278482e-001	 8.2600782979e-001	 1.6763412603e+000
 6.2279378592e-001	 8.3290490245e-001	 1.5129673017e+000
 6.1360679807e-001	 8.3969599065e-001	 1.3441933190e+000
 6.0435365867e-001	 8.4638012074e-001	 1.1703623775e+000
 6.9813902794e-001	 7.7981847414e-001	 2.5009434495e+000
 6.8949057019e-001	 7.8747550575e-001	 2.3685823229e+000
 6.8076134325e-001	 7.9503388043e-001	 2.2356945851e+000
 6.7195303829e-001	 8.0249233529e-001	 2.1024083218e+000
 6.6306737245e-001	 8.0984964608e-001	 1.9683211847e+000
 6.5410608773e-001	 8.1710462786e-001	 1.8289164618e+000
 6.4507094990e-001	 8.2425613563e-001	 1.6832829052e+000
 6.3596374733e-001	 8.3130306488e-001	 1.5316632868e+000
 6.2678628985e-001	 8.3824435215e-001	 1.3743498959e+000
 6.1754040756e-001	 8.4507897555e-001	 1.2116815471e+000
 6.0822794966e-001	 8.5180595516e-001	 1.0440404003e+000
 7.0258604684e-001	 7.8478577629e-001	 2.3303818272e+000
 6.9388249998e-001	 7.9249158180e-001	 2.2012796152e+000
 6.8509766945e-001	 8.0009810196e-001	 2.0715895477e+000
 6.7623325719e-001	 8.0760406582e-001	 1.9414808977e+000
 6.6729099126e-001	 8.1500824134e-001	 1.8111124451e+000
 6.5827262478e-001	 8.2230943604e-001	 1.6778313714e+000
 6.4917993477e-001	 8.2950649762e-001	 1.5382323150e+000
 6.4001472097e-001	 8.3659831453e-001	 1.3925783907e+000
 6.3077880475e-001	 8.4358381654e-001	 1.2411975471e+000
 6.2147402787e-001	 8.5046197524e-001	 1.0844652928e+000
 6.1210225131e-001	 8.5723180450e-001	 9.2280131760e-001
 7.0703307018e-001	 7.8975308341e-001	 2.1670204034e+000
 6.9827443416e-001	 7.9750766287e-001	 2.0411310294e+000
 6.8943399999e-001	 8.0516232855e-001	 1.9145772831e+000
 6.8051348036e-001	 8.1271580146e-001	 1.7875665159e+000
 6.7151461430e-001	 8.2016684176e-001	 1.6602956190e+000
 6.6243916601e-001	 8.2751424943e-001	 1.5322270421e+000
 6.5328892374e-001	 8.3475686485e-001	 1.3986287792e+000
 6.4406569866e-001	 8.4189356947e-001	 1.2588719716e+000
 6.3477132365e-001	 8.4892328627e-001	 1.1133181842e+000
 6.2540765212e-001	 8.5584498032e-001	 9.6237784707e-001
 6.1597655683e-001	 8.6265765926e-001	 8.0650667339e-001
 7.1148009019e-001	 7.9472038680e-001	 2.0106369200e+000
 7.0266636505e-001	 8.0252374017e-001	 1.8879136872e+000
 6.9377032727e-001	 8.1022655134e-001	 1.7644367732e+000
 6.8479370032e-001	 8.1782753326e-001	 1.6404485577e+000
 6.7573823417e-001	 8.2532543831e-001	 1.5161812101e+000
 6.6660570411e-001	 8.3271905891e-001	 1.3918562929e+000
 6.5739790964e-001	 8.4000722815e-001	 1.2642417130e+000
 6.4811667332e-001	 8.4718882044e-001	 1.1303326718e+000
 6.3876383955e-001	 8.5426275199e-001	 9.9052236947e-001
 6.2934127341e-001	 8.6122798137e-001	 8.4525444482e-001
 6.1985085944e-001	 8.6808350995e-001	 6.9501918604e-001
 5.8110851606e-001	 8.1382595926e-001	 2.0429070821e+000
 5.7214945494e-001	 8.2014925879e-001	 1.8194870277e+000
 5.6313036914e-001	 8.2636796230e-001	 1.5904285596e+000
 5.5405307210e-001	 8.3248125485e-001	 1.3563483328e+000
 5.4491939094e-001	 8.3848836297e-001	 1.1178927470e+000
 5.3573116523e-001	 8.4438855498e-001	 8.7573503815e-001
 5.2649024586e-001	 8.5018114112e-001	 6.3057232542e-001
 5.1719849384e-001	 8.5586547377e-001	 3.8312263228e-001
 5.0785777912e-001	 8.6144094757e-001	 1.3412190038e-001
 4.9846997940e-001	 8.6690699948e-001	-1.1567898590e-001
 4.8903697900e-001	 8.7226310887e-001	-3.6551714673e-001
 5.8498260077e-001	 8.1925150476e-001	 1.8831291245e+000
 5.7596381215e-001	 8.2561695993e-001	 1.6682385311e+000
 5.6688459867e-001	 8.3187712176e-001	 1.4480822485e+000
 5.5774678588e-001	 8.3803116988e-001	 1.2232239528e+000
 5.4855221307e-001	 8.4407832568e-001	 9.9426007550e-001
 5.3930273208e-001	 8.5001785259e-001	 7.6181685629e-001
 5.3000020613e-001	 8.5584905625e-001	 5.2654734715e-001
 5.2064650865e-001	 8.6157128472e-001	 2.8912838621e-001
 5.1124352205e-001	 8.6718392861e-001	 5.0257561371e-002
 5.0179313655e-001	 8.7268642113e-001	-1.8934981803e-001
 4.9229724903e-001	 8.7807823817e-001	-4.2896372339e-001
 5.8885673681e-001	 8.2467712216e-001	 1.7292829126e+000
 5.7977821989e-001	 8.3108473352e-001	 1.5224866656e+000
 5.7063887794e-001	 8.3738635422e-001	 1.3107925302e+000
 5.6144054860e-001	 8.4358115846e-001	 1.0947158085e+000
 5.5218508333e-001	 8.4966836246e-001	 8.7480737851e-001
 5.4287434625e-001	 8.5564722478e-001	 6.5165069986e-001
 5.3351021291e-001	 8.6151704647e-001	 4.2585876588e-001
 5.2409456915e-001	 8.6727717128e-001	 1.9807102265e-001
 5.1462930984e-001	 8.7292698575e-001	-3.1049725237e-002
 5.0511633773e-001	 8.7846591936e-001	-2.6082040271e-001
 4.9555756225e-001	 8.8389344453e-001	-4.9054072762e-001
 5.9273091740e-001	 8.3010280195e-001	 1.5812253995e+000
 5.8359267149e-001	 8.3655256999e-001	 1.3821220502e+000
 5.7439320038e-001	 8.4289565004e-001	 1.1784809541e+000
 5.6513435379e-001	 8.4913121086e-001	 9.7077358547e-001
 5.5581799537e-001	 8.5525846353e-001	 7.5950962817e-001
 5.4644600149e-001	 8.6127666172e-001	 5.4523392506e-001
 5.3702026006e-001	 8.6718510189e-001	 3.2852336998e-001
 5.2754266930e-001	 8.7298312345e-001	 1.0998376356e-001
 5.1801513656e-001	 8.7867010894e-001	-1.0975334622e-001
 5.0843957712e-001	 8.8424548405e-001	-3.3003381888e-001
 4.9881791296e-001	 8.8970871776e-001	-5.5018405236e-001
 5.9660513576e-001	 8.3552853464e-001	 1.4388140111e+000
 5.8740716028e-001	 8.4202045976e-001	 1.2470348693e+000
 5.7814755943e-001	 8.4840499957e-001	 1.0510677940e+000
 5.6882819500e-001	 8.5468131737e-001	 8.5134492133e-001
 5.5945094283e-001	 8.6084861910e-001	 6.4833904715e-001
 5.5001769156e-001	 8.6690615355e-001	 4.4256051093e-001
 5.4053034142e-001	 8.7285321257e-001	 2.3455401877e-001
 5.3099080307e-001	 8.7868913126e-001	 2.4895428068e-002
 5.2140099630e-001	 8.8441328812e-001	-1.8581148490e-001
 5.1176284892e-001	 8.9002510510e-001	-3.9693825361e-001
 5.0207829547e-001	 8.9552404770e-001	-6.0783492628e-001
 6.0047938511e-001	 8.4095431073e-001	 1.3019067630e+000
 5.9122167959e-001	 8.4748839329e-001	 1.1171150127e+000
 5.8190194850e-001	 8.5391439317e-001	 9.2847220841e-001
 5.7252206575e-001	 8.6023146829e-001	 7.3637558430e-001
 5.6308391935e-001	 8.6643881940e-001	 5.4126530361e-001
 5.5358941019e-001	 8.7253569041e-001	 3.4362126780e-001
 5.4404045087e-001	 8.7852136859e-001	 1.4395986207e-001
 5.3443896442e-001	 8.8439518472e-001	-5.7169339543e-002
 5.2478688313e-001	 8.9015651325e-001	-2.5918688720e-001
 5.1508614730e-001	 8.9580477239e-001	-4.6148676484e-001
 5.0533870406e-001	 9.0133942415e-001	-6.6343967578e-001
 6.0435365867e-001	 8.4638012074e-001	 1.1703623775e+000
 5.9503622273e-001	 8.5295636098e-001	 9.9225221428e-001
 5.8565636104e-001	 8.5942382121e-001	 8.1061239943e-001
 5.7621595959e-001	 8.6578165389e-001	 6.2580964966e-001
 5.6671691857e-001	 8.7202905463e-001	 4.3825570263e-001
 5.5716115115e-001	 8.7816526246e-001	 2.4840404169e-001
 5.4755058225e-001	 8.8418956004e-001	 5.6746555072e-002
 5.3788714732e-001	 8.9010127384e-001	-1.3618984688e-001
 5.2817279112e-001	 8.9589977427e-001	-3.2984663312e-001
 5.1840946646e-001	 9.0158447580e-001	-5.2363704976e-001
 5.0859913302e-001	 9.0715483696e-001	-7.1694949288e-001
 6.0822794966e-001	 8.5180595516e-001	 1.0440404003e+000
 5.9885078304e-001	 8.5842435328e-001	 8.7233619032e-001
 5.8941079048e-001	 8.6493327404e-001	 6.9740576961e-001
 5.7990987005e-001	 8.7133186447e-001	 5.1958967337e-001
 5.7034993415e-001	 8.7761931501e-001	 3.3927537450e-001
 5.6073290818e-001	 8.8379485983e-001	 1.5689391479e-001
 5.5106072943e-001	 8.8985777699e-001	-2.7083531243e-002
 5.4133534574e-001	 8.9580738863e-001	-2.1214913537e-001
 5.3155871434e-001	 9.0164306114e-001	-3.9776191342e-001
 5.2173280057e-001	 9.0736420522e-001	-5.8335121869e-001
 5.1185957666e-001	 9.1297027593e-001	-7.6832020874e-001
 6.1210225131e-001	 8.5723180450e-001	 9.2280131760e-001
 6.0266535384e-001	 8.6389236061e-001	 7.5725677631e-001
 5.9316523023e-001	 8.7044274202e-001	 5.8876907719e-001
 5.8360379067e-001	 8.7688209030e-001	 4.1765686326e-001
 5.7398295971e-001	 8.8320959077e-001	 2.4428745973e-001
 5.6430467504e-001	 8.8942447269e-001	 6.9073402203e-002
 5.5457088626e-001	 8.9552600953e-001	-1.0753110383e-001
 5.4478355364e-001	 9.0151351912e-001	-2.8503376683e-001
 5.3494464687e-001	 9.0738636380e-001	-4.6290781127e-001
 5.2505614381e-001	 9.1314395053e-001	-6.4059557413e-001
 5.1512002926e-001	 9.1878573089e-001	-8.1751207250e-001
 6.1597655683e-001	 8.6265765926e-001	 8.0650667339e-001
 6.0647992845e-001	 8.6936037341e-001	 6.4690406338e-001
 5.9691967375e-001	 8.7595221550e-001	 4.8461858966e-001
 5.8729771499e-001	 8.8243232169e-001	 3.1995124795e-001
 5.7761598890e-001	 8.8879987212e-001	 1.5325329117e-001
 5.6787644546e-001	 8.9505409117e-001	-1.5077354838e-002
 5.5808104660e-001	 9.0119424773e-001	-1.8459974546e-001
 5.4823176499e-001	 9.0721965531e-001	-3.5483361448e-001
 5.3833058279e-001	 9.1312967220e-001	-5.2526308870e-001
 5.2837949038e-001	 9.1892370161e-001	-6.9534039487e-001
 5.1838048513e-001	 9.2460119167e-001	-8.6448953524e-001
 6.1985085944e-001	 8.6808350995e-001	 6.9501918604e-001
 6.1029450020e-001	 8.7482838211e-001	 5.4116853375e-001
 6.0067411444e-001	 8.8146168485e-001	 3.8487023577e-001
 5.9099163653e-001	 8.8798254891e-001	 2.2641184335e-001
 5.8124901537e-001	 8.9439014927e-001	 6.6132573181e-002
 5.7144821321e-001	 9.0068370543e-001	-9.5580399226e-002
 5.6159120431e-001	 9.0686248168e-001	-2.5829571639e-001
 5.5167997376e-001	 9.1292578721e-001	-4.2154165827e-001
 5.4171651617e-001	 9.1887297629e-001	-5.8480997756e-001
 5.3170283446e-001	 9.2470344836e-001	-7.4755972481e-001
 5.2164093855e-001	 9.3041664808e-001	-9.0922103886e-001
 4.8903697900e-001	 8.7226310887e-001	-3.6551714673e-001
 4.7956209226e-001	 8.7750801914e-001	-6.1621004458e-001
 4.7004580118e-001	 8.8264210687e-001	-8.6883781530e-001
 4.6049000248e-001	 8.8766497944e-001	-1.1229073547e+000
 4.5089659477e-001	 8.9257628643e-001	-1.3779208356e+000
 4.4126747746e-001	 8.9737571948e-001	-1.6333775182e+000
 4.3160454958e-001	 9.0206301214e-001	-1.8887754694e+000
 4.2190970867e-001	 9.0663793965e-001	-2.1436131807e+000
 4.1218484971e-001	 9.1110031866e-001	-2.3973910799e+000
 4.0243186398e-001	 9.1545000704e-001	-2.6496129290e+000
 3.9265263800e-001	 9.1968690347e-001	-2.8997871043e+000
 4.9229724903e-001	 8.7807823817e-001	-4.2896372339e-001
 4.8275919591e-001	 8.8335811476e-001	-6.6944469423e-001
 4.7317946244e-001	 8.8852642999e-001	-9.1188211532e-001
 4.6355995795e-001	 8.9358278862e-001	-1.1557678829e+000
 4.5390259373e-001	 8.9852683789e-001	-1.4005896362e+000
 4.4420928185e-001	 9.0335826739e-001	-1.6458326487e+000
 4.3448193398e-001	 9.0807680890e-001	-1.8909816218e+000
 4.2472246034e-001	 9.1268223614e-001	-2.1355223704e+000
 4.1493276851e-001	 9.1717436456e-001	-2.3789433938e+000
 4.0511476241e-001	 9.2155305107e-001	-2.6207373269e+000
 3.9527034112e-001	 9.2581819368e-001	-2.8604022652e+000
 4.9555756225e-001	 8.8389344453e-001	-4.9054072762e-001
 4.8595634193e-001	 8.8920828790e-001	-7.2112958407e-001
 4.7631316522e-001	 8.9441083108e-001	-9.5370364534e-001
 4.6662995410e-001	 8.9950067621e-001	-1.1877408411e+000
 4.5690863253e-001	 9.0447746820e-001	-1.4227152335e+000
 4.4715112521e-001	 9.0934089458e-001	-1.6580989919e+000
 4.3735935651e-001	 9.1409068534e-001	-1.8933642616e+000
 4.2753524927e-001	 9.1872661272e-001	-2.1279849187e+000
 4.1768072373e-001	 9.2324849095e-001	-2.3614382030e+000
 4.0779769639e-001	 9.2765617597e-001	-2.5932062225e+000
 3.9788807893e-001	 9.3194956513e-001	-2.8227773247e+000
 4.9881791296e-001	 8.8970871776e-001	-5.5018405236e-001
 4.8915352472e-001	 8.9505852832e-001	-7.7119433839e-001
 4.7944690403e-001	 9.0029529985e-001	-9.9422442458e-001
 4.6969998556e-001	 9.0541863186e-001	-1.2187392740e+000
 4.5991470589e-001	 9.1042816694e-001	-1.4442002978e+000
 4.5009300241e-001	 9.1532359056e-001	-1.6700674147e+000
 4.4023681213e-001	 9.2010463094e-001	-1.8958009975e+000
 4.3034807055e-001	 9.2477105881e-001	-2.1208636986e+000
 4.2042871055e-001	 9.2932268718e-001	-2.3447221457e+000
 4.1048066122e-001	 9.3375937106e-001	-2.5668485016e+000
 4.0050584684e-001	 9.3808100710e-001	-2.7867218838e+000
 5.0207829547e-001	 8.9552404770e-001	-6.0783492628e-001
 4.9235073868e-001	 9.0090882578e-001	-8.1957411710e-001
 4.8258067341e-001	 9.0617982598e-001	-1.0333722380e+000
 4.7277004695e-001	 9.1133664521e-001	-1.2486822524e+000
 4.6292080856e-001	 9.1637892370e-001	-1.4649538158e+000
 4.5303490829e-001	 9.2130634488e-001	-1.6816354218e+000
 4.4311429580e-001	 9.2611863518e-001	-1.8981764283e+000
 4.3316091926e-001	 9.3081556384e-001	-2.1140289552e+000
 4.2317672416e-001	 9.3539694265e-001	-2.3286496450e+000
 4.1316365222e-001	 9.3986262565e-001	-2.5415012795e+000
 4.0312364028e-001	 9.4421250885e-001	-2.7520542477e+000
 5.0533870406e-001	 9.0133942415e-001	-6.6343967578e-001
 4.9554797821e-001	 9.0675917004e-001	-8.6620937799e-001
 4.8571446785e-001	 9.1206439920e-001	-1.0710803977e+000
 4.7584013290e-001	 9.1725470591e-001	-1.2774946327e+000
 4.6592693529e-001	 9.2232972807e-001	-1.4848908475e+000
 4.5597683770e-001	 9.2728914706e-001	-1.6927069079e+000
 4.4599180250e-001	 9.3213268753e-001	-1.9003818886e+000
 4.3597379047e-001	 9.3686011722e-001	-2.1073580454e+000
 4.2592475975e-001	 9.4147124670e-001	-2.3130826415e+000
 4.1584666468e-001	 9.4596592907e-001	-2.5170096232e+000
 4.0574145465e-001	 9.5034405964e-001	-2.7186011380e+000
 5.0859913302e-001	 9.0715483696e-001	-7.1694949288e-001
 4.9874523773e-001	 9.1260955087e-001	-9.1104564479e-001
 4.8884828188e-001	 9.1794900919e-001	-1.1072875099e+000
 4.7891023804e-001	 9.2317280359e-001	-1.3051068218e+000
 4.6893308080e-001	 9.2828056964e-001	-1.5039322881e+000
 4.5891878551e-001	 9.3327198663e-001	-1.7031919157e+000
 4.4886932718e-001	 9.3814677747e-001	-1.9023152026e+000
 4.3878667926e-001	 9.4290470838e-001	-2.1007351849e+000
 4.2867281252e-001	 9.4754558872e-001	-2.2978903322e+000
 4.1852969390e-001	 9.5206927063e-001	-2.4932262829e+000
 4.0835928539e-001	 9.5647564876e-001	-2.6861974138e+000
 5.1185957666e-001	 9.1297027593e-001	-7.6832020874e-001
 5.0194251164e-001	 9.1845995803e-001	-9.5403328111e-001
 4.9198211001e-001	 9.2383364567e-001	-1.1419372487e+000
 4.8198035700e-001	 9.2909092791e-001	-1.3314545492e+000
 4.7193923983e-001	 9.3423143798e-001	-1.5220046372e+000
 4.6186074655e-001	 9.3925485313e-001	-1.7130064018e+000
 4.5174686481e-001	 9.4416089447e-001	-1.9038804442e+000
 4.4159958071e-001	 9.4894932674e-001	-2.0940512028e+000
 4.3142087766e-001	 9.5361995807e-001	-2.2829489184e+000
 4.2121273520e-001	 9.5817263965e-001	-2.4700114308e+000
 4.1097712791e-001	 9.6260726547e-001	-2.6546858021e+000
 5.1512002926e-001	 9.1878573089e-001	-8.1751207250e-001
 5.0513979434e-001	 9.2431038127e-001	-9.9512726972e-001
 4.9511594676e-001	 9.2971829832e-001	-1.1749781343e+000
 4.8505048440e-001	 9.3500906850e-001	-1.3564786442e+000
 4.7494540714e-001	 9.4018232268e-001	-1.5390397739e+000
 4.6480271568e-001	 9.4523773607e-001	-1.7220720076e+000
 4.5462441035e-001	 9.5017502801e-001	-1.9049877042e+000
 4.4441248989e-001	 9.5499396172e-001	-2.0872033031e+000
 4.3416895035e-001	 9.5969434412e-001	-2.2681413602e+000
 4.2389578388e-001	 9.6427602546e-001	-2.4472324083e+000
 4.1359497763e-001	 9.6873889904e-001	-2.6239166350e+000
 5.1838048513e-001	 9.2460119167e-001	-8.6448953524e-001
 5.0833708024e-001	 9.3016081035e-001	-1.0342869972e+000
 4.9824978664e-001	 9.3560295686e-001	-1.2063633180e+000
 4.8812061487e-001	 9.4092721500e-001	-1.3801248190e+000
 4.7795157745e-001	 9.4613321333e-001	-1.5549747373e+000
 4.6774468776e-001	 9.5122062500e-001	-1.7303158368e+000
 4.5750195877e-001	 9.5618916756e-001	-1.9055528634e+000
 4.4722540189e-001	 9.6103860275e-001	-2.0800948322e+000
 4.3691702579e-001	 9.6576873625e-001	-2.2533571379e+000
 4.2657883524e-001	 9.7037941737e-001	-2.4247634801e+000
 4.1621282996e-001	 9.7487053874e-001	-2.5937475965e+000
 5.2164093855e-001	 9.3041664808e-001	-9.0922103886e-001
 5.1153436373e-001	 9.3601123505e-001	-1.0714760433e+000
 5.0138362418e-001	 9.4148761098e-001	-1.2360503710e+000
 4.9119074303e-001	 9.4684535706e-001	-1.4023434569e+000
 4.8095774550e-001	 9.5208409952e-001	-1.5697515130e+000
 4.7068665762e-001	 9.5720350944e-001	-1.7376702393e+000
 4.6037950503e-001	 9.6220330259e-001	-1.9054973719e+000
 4.5003831177e-001	 9.6708323924e-001	-2.0726350537e+000
 4.3966509917e-001	 9.7184312382e-001	-2.2384920212e+000
 4.2926188459e-001	 9.7648280471e-001	-2.4024855958e+000
 4.1883068033e-001	 9.8100217384e-001	-2.5640434754e+000
 3.9265263800e-001	 9.1968690347e-001	-2.8997871043e+000
 3.8284758015e-001	 9.2381155749e-001	-3.1480510429e+000
 3.7302003062e-001	 9.2782330500e-001	-3.3944325388e+000
 3.6317185667e-001	 9.3172216582e-001	-3.6384084533e+000
 3.5330491665e-001	 9.3550819912e-001	-3.8794783023e+000
 3.4342105900e-001	 9.3918150291e-001	-4.1171645815e+000
 3.3352212132e-001	 9.4274221361e-001	-4.3510129545e+000
 3.2360992937e-001	 9.4619050544e-001	-4.5805923075e+000
 3.1368629624e-001	 9.4952658997e-001	-4.8054946748e+000
 3.0375302140e-001	 9.5275071551e-001	-5.0253350434e+000
 2.9381188981e-001	 9.5586316651e-001	-5.2397510419e+000
 3.9527034112e-001	 9.2581819368e-001	-2.8604022652e+000
 3.8539991574e-001	 9.2997034560e-001	-3.0981734495e+000
 3.7550684875e-001	 9.3400883828e-001	-3.3341978968e+000
 3.6559301983e-001	 9.3793369169e-001	-3.5679694746e+000
 3.5566029974e-001	 9.4174496540e-001	-3.7990037032e+000
 3.4571054923e-001	 9.4544275806e-001	-4.0268380760e+000
 3.3574561815e-001	 9.4902720699e-001	-4.2510322382e+000
 3.2576734445e-001	 9.5249848761e-001	-4.4711680284e+000
 3.1577755329e-001	 9.5585681287e-001	-4.6868493892e+000
 3.0577805613e-001	 9.5910243273e-001	-4.8977021519e+000
 2.9577064985e-001	 9.6223563355e-001	-5.1033737046e+000
 3.9788807893e-001	 9.3194956513e-001	-2.8227773247e+000
 3.8795228516e-001	 9.3612921531e-001	-3.0504730926e+000
 3.7799369983e-001	 9.4019445352e-001	-3.2765468206e+000
 3.6801421508e-001	 9.4414529987e-001	-3.5005079281e+000
 3.5801571404e-001	 9.4798181431e-001	-3.7218866170e+000
 3.4800006980e-001	 9.5170409617e-001	-3.9402341859e+000
 3.3796914444e-001	 9.5531228366e-001	-4.1551232001e+000
 3.2792478811e-001	 9.5880655335e-001	-4.3661475195e+000
 3.1786883805e-001	 9.6218711963e-001	-4.5729221922e+000
 3.0780311770e-001	 9.6545423411e-001	-4.7750832190e+000
 2.9772943586e-001	 9.6860818502e-001	-4.9722871977e+000
 4.0050584684e-001	 9.3808100710e-001	-2.7867218838e+000
 3.9050468393e-001	 9.4228815584e-001	-3.0047400994e+000
 3.8048057951e-001	 9.4638013989e-001	-3.2212511500e+000
 3.7043543817e-001	 9.5035697948e-001	-3.4357785782e+000
 3.6037115542e-001	 9.5421873495e-001	-3.6478659684e+000
 3.5028961669e-001	 9.5796550628e-001	-3.8570772574e+000
 3.4019269631e-001	 9.6159743260e-001	-4.0629968933e+000
 3.3008225659e-001	 9.6511469165e-001	-4.2652298504e+000
 3.1996014685e-001	 9.6851749920e-001	-4.4634015044e+000
 3.0982820256e-001	 9.7180610853e-001	-4.6571573747e+000
 2.9968824439e-001	 9.7498080978e-001	-4.8461627437e+000
 4.0312364028e-001	 9.4421250885e-001	-2.7520542477e+000
 3.9305710759e-001	 9.4844715643e-001	-2.9607737717e+000
 3.8296748344e-001	 9.5256588658e-001	-3.1680923304e+000
 3.7285668486e-001	 9.5656871966e-001	-3.3735461837e+000
 3.6272661978e-001	 9.6045571640e-001	-3.5766910248e+000
 3.5257918591e-001	 9.6422697745e-001	-3.7771022845e+000
 3.4241626986e-001	 9.6788264283e-001	-3.9743752812e+000
 3.3223974610e-001	 9.7142289144e-001	-4.1681252207e+000
 3.2205147605e-001	 9.7484794049e-001	-4.3579870520e+000
 3.1185330716e-001	 9.7815804489e-001	-4.5436151864e+000
 3.0164707201e-001	 9.8135349668e-001	-4.7246830891e+000
 4.0574145465e-001	 9.5034405964e-001	-2.7186011380e+000
 3.9560955167e-001	 9.5460620629e-001	-2.9183822881e+000
 3.8545440726e-001	 9.5875168275e-001	-3.1168611044e+000
 3.7527795093e-001	 9.6278050953e-001	-3.3135851824e+000
 3.6508210297e-001	 9.6669274775e-001	-3.5081210725e+000
 3.5486877345e-001	 9.7048849870e-001	-3.7000545797e+000
 3.4463986120e-001	 9.7416790333e-001	-3.8889909033e+000
 3.3439725287e-001	 9.7773114170e-001	-4.0745546211e+000
 3.2414282198e-001	 9.8117843242e-001	-4.2563895250e+000
 3.1387842797e-001	 9.8451003205e-001	-4.4341583148e+000
 3.0360591531e-001	 9.8772623455e-001	-4.6075421606e+000
 4.0835928539e-001	 9.5647564876e-001	-2.6861974138e+000
 3.9816201170e-001	 9.6076529464e-001	-2.8773824150e+000
 3.8794134663e-001	 9.6493751758e-001	-3.0673572148e+000
 3.7769923213e-001	 9.6899233822e-001	-3.2556793849e+000
 3.6743760089e-001	 9.7292981807e-001	-3.4419251044e+000
 3.5715837529e-001	 9.7675005909e-001	-3.6256894553e+000
 3.4686346643e-001	 9.8045320312e-001	-3.8065865513e+000
 3.3655477313e-001	 9.8403943139e-001	-3.9842495063e+000
 3.2623418098e-001	 9.8750896391e-001	-4.1583302472e+000
 3.1590356143e-001	 9.9086205892e-001	-4.3284991826e+000
 3.0556477086e-001	 9.9409901225e-001	-4.4944447326e+000
 4.1097712791e-001	 9.6260726547e-001	-2.6546858021e+000
 4.0071448321e-001	 9.6692441070e-001	-2.8375992270e+000
 3.9042829718e-001	 9.7112338025e-001	-3.0193891160e+000
 3.8012052422e-001	 9.7520419486e-001	-3.1996216791e+000
 3.6979310941e-001	 9.7916691646e-001	-3.3778815177e+000
 3.5944798744e-001	 9.8301164765e-001	-3.5537719157e+000
 3.4908708168e-001	 9.8673853119e-001	-3.7269149575e+000
 3.3871230310e-001	 9.9034774946e-001	-3.8969514788e+000
 3.2832554939e-001	 9.9383952389e-001	-4.0635408579e+000
 3.1792870400e-001	 9.9721411437e-001	-4.2263606545e+000
 3.0752363522e-001	 1.0004718186e+000	-4.3851061068e+000
 4.1359497763e-001	 9.6873889904e-001	-2.6239166350e+000
 4.0326696175e-001	 9.7308354370e-001	-2.7988658360e+000
 3.9291525458e-001	 9.7730925992e-001	-2.9727736953e+000
 3.8254182298e-001	 9.8141606858e-001	-3.1452137442e+000
 3.7214862440e-001	 9.8540403200e-001	-3.3157778216e+000
 3.6173760589e-001	 9.8927325343e-001	-3.4840763597e+000
 3.5131070303e-001	 9.9302387654e-001	-3.6497384918e+000
 3.4086983900e-001	 9.9665608488e-001	-3.8124119842e+000
 3.3041692356e-001	 1.0001701013e+000	-3.9717630040e+000
 3.1995385215e-001	 1.0035661873e+000	-4.1274757276e+000
 3.0948250496e-001	 1.0068446425e+000	-4.2792518027e+000
 4.1621282996e-001	 9.7487053874e-001	-2.5937475965e+000
 4.0581944283e-001	 9.7924268286e-001	-2.7610231289e+000
 3.9540221446e-001	 9.8349514578e-001	-2.9273360024e+000
 3.8496312415e-001	 9.8762794851e-001	-3.0922657736e+000
 3.7450414175e-001	 9.9164115378e-001	-3.2554103542e+000
 3.6402722662e-001	 9.9553486547e-001	-3.4163862928e+000
 3.5353432661e-001	 9.9930922818e-001	-3.5748288706e+000
 3.4302737705e-001	 1.0029644266e+000	-3.7303920153e+000
 3.3250829981e-001	 1.0065006850e+000	-3.8827480426e+000
 3.2197900232e-001	 1.0099182666e+000	-4.0315872337e+000
 3.1144137666e-001	 1.0132174728e+000	-4.1766172590e+000
 4.1883068033e-001	 9.8100217384e-001	-2.5640434754e+000
 4.0837192200e-001	 9.8540181740e-001	-2.7239195124e+000
 3.9788917248e-001	 9.8968102700e-001	-2.8829089876e+000
 3.8738442351e-001	 9.9383982379e-001	-3.0405962064e+000
 3.7685965733e-001	 9.9787827087e-001	-3.1965840088e+000
 3.6631684564e-001	 1.0017964728e+000	-3.3504940481e+000
 3.5575794852e-001	 1.0055945751e+000	-3.5019668741e+000
 3.4518491349e-001	 1.0092727636e+000	-3.6506618274e+000
 3.3459967450e-001	 1.0128312640e+000	-3.7962567541e+000
 3.2400415097e-001	 1.0162703411e+000	-3.9384475501e+000
 3.1340024690e-001	 1.0195902983e+000	-4.0769475443e+000
 2.9381188981e-001	 9.5586316651e-001	-5.2397510419e+000
 2.8386467101e-001	 9.5886426270e-001	-5.4489473812e+000
 2.7391311782e-001	 9.6175435779e-001	-5.6531818127e+000
 2.6395896607e-001	 9.6453383948e-001	-5.8521997113e+000
 2.5400393389e-001	 9.6720312906e-001	-6.0457611227e+000
 2.4404972108e-001	 9.6976268070e-001	-6.2336399785e+000
 2.3409800832e-001	 9.7221298076e-001	-6.4156232599e+000
 2.2415045650e-001	 9.7455454705e-001	-6.5915101185e+000
 2.1420870614e-001	 9.7678792810e-001	-6.7611109659e+000
 2.0427437664e-001	 9.7891370242e-001	-6.9242465394e+000
 1.9434906582e-001	 9.8093247774e-001	-7.0807469559e+000
 2.9577064985e-001	 9.6223563355e-001	-5.1033737046e+000
 2.8575711578e-001	 9.6525673719e-001	-5.3040474102e+000
 2.7573921843e-001	 9.6816609972e-001	-5.4999540272e+000
 2.6571870519e-001	 9.7096411142e-001	-5.6908396816e+000
 2.5569730566e-001	 9.7365119639e-001	-5.8764655142e+000
 2.4567673095e-001	 9.7622781184e-001	-6.0566068416e+000
 2.3565867295e-001	 9.7869444735e-001	-6.2310522629e+000
 2.2564480365e-001	 9.8105162419e-001	-6.3996027231e+000
 2.1563677447e-001	 9.8329989455e-001	-6.5620705411e+000
 2.0563621564e-001	 9.8543984081e-001	-6.7182784155e+000
 1.9564473560e-001	 9.8747207472e-001	-6.8680584155e+000
 2.9772943586e-001	 9.6860818502e-001	-4.9722871977e+000
 2.8764958564e-001	 9.7164929638e-001	-5.1647066570e+000
 2.7756534324e-001	 9.7457792661e-001	-5.3525559342e+000
 2.6747846763e-001	 9.7739446857e-001	-5.5355815277e+000
 2.5739069986e-001	 9.8009934917e-001	-5.7135452799e+000
 2.4730376237e-001	 9.8269302864e-001	-5.8862234840e+000
 2.3721935827e-001	 9.8517599981e-001	-6.0534059339e+000
 2.2713917060e-001	 9.8754878742e-001	-6.2148949274e+000
 2.1706486173e-001	 9.8981194730e-001	-6.3705042344e+000
 2.0699807268e-001	 9.9196606567e-001	-6.5200580398e+000
 1.9694042255e-001	 9.9401175836e-001	-6.6633898721e+000
 2.9968824439e-001	 9.7498080978e-001	-4.8461627437e+000
 2.8954207725e-001	 9.7804192909e-001	-5.0305887562e+000
 2.7939148905e-001	 9.8098982723e-001	-5.2106428413e+000
 2.6923825030e-001	 9.8382489966e-001	-5.3860715214e+000
 2.5908411353e-001	 9.8654757610e-001	-5.5566369788e+000
 2.4893081251e-001	 9.8915831979e-001	-5.7221161082e+000
 2.3878006153e-001	 9.9165762682e-001	-5.8822995084e+000
 2.2863355473e-001	 9.9404602537e-001	-6.0369904258e+000
 2.1849296541e-001	 9.9632407493e-001	-6.1860036607e+000
 2.0835994538e-001	 9.9849236558e-001	-6.3291644470e+000
 1.9823612439e-001	 1.0005515172e+000	-6.4663073168e+000
 3.0164707201e-001	 9.8135349668e-001	-4.7246830891e+000
 2.9143458732e-001	 9.8443462413e-001	-4.9013689373e+000
 2.8121765267e-001	 9.8740179037e-001	-5.0738817339e+000
 2.7099805014e-001	 9.9025539346e-001	-5.2419677063e+000
 2.6077754372e-001	 9.9299586589e-001	-5.4053890469e+000
 2.5055787851e-001	 9.9562367398e-001	-5.5639229093e+000
 2.4034078001e-001	 9.9813931702e-001	-5.7173603418e+000
 2.3012795344e-001	 1.0005433267e+000	-5.8655051699e+000
 2.1992108301e-001	 1.0028362661e+000	-6.0081728400e+000
 2.0972183136e-001	 1.0050187291e+000	-6.1451892343e+000
 1.9953183888e-001	 1.0070913398e+000	-6.2763894717e+000
 3.0360591531e-001	 9.8772623455e-001	-4.6075421606e+000
 2.9332711254e-001	 9.9082737030e-001	-4.7767336805e+000
 2.8304383089e-001	 9.9381380481e-001	-4.9419509289e+000
 2.7275786406e-001	 9.9668593869e-001	-5.1029395498e+000
 2.6247098745e-001	 9.9944420728e-001	-5.2594614467e+000
 2.5218495753e-001	 1.0020890799e+000	-5.4112937220e+000
 2.4190151098e-001	 1.0046210591e+000	-5.5582275520e+000
 2.3162236410e-001	 1.0070406799e+000	-5.7000670069e+000
 2.2134921204e-001	 1.0093485093e+000	-5.8366278305e+000
 2.1108372823e-001	 1.0115451449e+000	-5.9677361905e+000
 2.0082756372e-001	 1.0136312147e+000	-6.0932274121e+000
 3.0556477086e-001	 9.9409901225e-001	-4.4944447326e+000
 2.9521964958e-001	 9.9722015643e-001	-4.6563803835e+000
 2.8487002053e-001	 1.0002258593e+000	-4.8145397416e+000
 2.7451768897e-001	 1.0031165241e+000	-4.9686676082e+000
 2.6416444177e-001	 1.0058925890e+000	-5.1185253296e+000
 2.5381204671e-001	 1.0085545262e+000	-5.2638896801e+000
 2.4346225171e-001	 1.0111028416e+000	-5.4045516758e+000
 2.3311678410e-001	 1.0135380738e+000	-5.5403153319e+000
 2.2277735000e-001	 1.0158607932e+000	-5.6709963771e+000
 2.1244563362e-001	 1.0180716014e+000	-5.7964209377e+000
 2.0212329667e-001	 1.0201711305e+000	-5.9164242036e+000
 3.0752363522e-001	 1.0004718186e+000	-4.3851061068e+000
 2.9711219513e-001	 1.0036129713e+000	-4.5400170413e+000
 2.8669621839e-001	 1.0066379427e+000	-4.6913481638e+000
 2.7627752180e-001	 1.0095471385e+000	-4.8388432029e+000
 2.6585790371e-001	 1.0123409997e+000	-4.9822627110e+000
 2.5543914322e-001	 1.0150200016e+000	-5.1213828889e+000
 2.4502299945e-001	 1.0175846534e+000	-5.2559943378e+000
 2.3461121082e-001	 1.0200354969e+000	-5.3859007529e+000
 2.2420549438e-001	 1.0223731064e+000	-5.5109175713e+000
 2.1380754513e-001	 1.0245980873e+000	-5.6308705878e+000
 2.0341903544e-001	 1.0267110758e+000	-5.7455945520e+000
 3.0948250496e-001	 1.0068446425e+000	-4.2792518027e+000
 2.9900474589e-001	 1.0100058038e+000	-4.4273619361e+000
 2.8852242127e-001	 1.0130500437e+000	-4.5720865531e+000
 2.7803735948e-001	 1.0159777705e+000	-4.7131681092e+000
 2.6755137031e-001	 1.0187894281e+000	-4.8503661562e+000
 2.5706624421e-001	 1.0214854948e+000	-4.9834561082e+000
 2.4658375149e-001	 1.0240664829e+000	-5.1122279305e+000
 2.3610564165e-001	 1.0265329379e+000	-5.2364847678e+000
 2.2563364268e-001	 1.0288854375e+000	-5.3560415243e+000
 2.1516946039e-001	 1.0311245912e+000	-5.4707234098e+000
 2.0471477778e-001	 1.0332510390e+000	-5.5803644668e+000
 3.1144137666e-001	 1.0132174728e+000	-4.1766172590e+000
 3.0089729855e-001	 1.0163986427e+000	-4.3181433387e+000
 2.9034862597e-001	 1.0194621511e+000	-4.4564753340e+000
 2.7979719891e-001	 1.0224084090e+000	-4.5913542552e+000
 2.6924483860e-001	 1.0252378630e+000	-4.7225384778e+000
 2.5869334682e-001	 1.0279509944e+000	-4.8498024478e+000
 2.4814450509e-001	 1.0305483190e+000	-4.9729353067e+000
 2.3760007398e-001	 1.0330303854e+000	-5.0917394528e+000
 2.2706179242e-001	 1.0353977752e+000	-5.2060290515e+000
 2.1653137701e-001	 1.0376511016e+000	-5.3156285108e+000
 2.0601052141e-001	 1.0397910087e+000	-5.4203709362e+000
 3.1340024690e-001	 1.0195902983e+000	-4.0769475443e+000
 3.0278984978e-001	 1.0227914767e+000	-4.2120992195e+000
 2.9217482931e-001	 1.0258742537e+000	-4.3442447077e+000
 2.8155703702e-001	 1.0288390426e+000	-4.4731234311e+000
 2.7093830562e-001	 1.0316862930e+000	-4.5984924434e+000
 2.6032044820e-001	 1.0344164892e+000	-4.7201250729e+000
 2.4970525751e-001	 1.0370301501e+000	-4.8378094825e+000
 2.3909450519e-001	 1.0395278280e+000	-4.9513471621e+000
 2.2848994108e-001	 1.0419101079e+000	-5.0605513684e+000
 2.1789329261e-001	 1.0441776071e+000	-5.1652455272e+000
 2.0730626407e-001	 1.0463309736e+000	-5.2652616140e+000
 1.9434906582e-001	 9.8093247774e-001	-7.0807469559e+000
 1.8443583512e-001	 9.8284461142e-001	-7.2303066052e+000
 1.7453474535e-001	 9.8465107850e-001	-7.3726737555e+000
 1.6464732318e-001	 9.8635257014e-001	-7.5077077354e+000
 1.5477507159e-001	 9.8794980354e-001	-7.6352814940e+000
 1.4491946945e-001	 9.8944352116e-001	-7.7552805866e+000
 1.3508197105e-001	 9.9083448984e-001	-7.8676021889e+000
 1.2526400575e-001	 9.9212350004e-001	-7.9721541466e+000
 1.1546697758e-001	 9.9331136502e-001	-8.0688540677e+000
 1.0569226494e-001	 9.9439891999e-001	-8.1576284639e+000
 9.5941220239e-002	 9.9538702132e-001	-8.2384119464e+000
 1.9564473560e-001	 9.8747207472e-001	-6.8680584155e+000
 1.8566541622e-001	 9.8939695606e-001	-7.0111686990e+000
 1.7569831871e-001	 9.9121546633e-001	-7.1474217822e+000
 1.6574497992e-001	 9.9292830133e-001	-7.2766817461e+000
 1.5580691285e-001	 9.9453618303e-001	-7.3988251197e+000
 1.4588560621e-001	 9.9603985884e-001	-7.5137398249e+000
 1.3598252402e-001	 9.9744010071e-001	-7.6213241525e+000
 1.2609910514e-001	 9.9873770437e-001	-7.7214857776e+000
 1.1623676299e-001	 9.9993348851e-001	-7.8141408204e+000
 1.0639688513e-001	 1.0010282939e+000	-7.8992129607e+000
 9.6580832988e-002	 1.0020229826e+000	-7.9766326107e+000
 1.9694042255e-001	 9.9401175836e-001	-6.6633898721e+000
 1.8689501361e-001	 9.9594938751e-001	-6.8003141849e+000
 1.7686190749e-001	 9.9777994115e-001	-6.9307007252e+000
 1.6684265120e-001	 9.9950411965e-001	-7.0544183971e+000
 1.5683876777e-001	 1.0011226498e+000	-7.1713474016e+000
 1.4685175578e-001	 1.0026362839e+000	-7.2813781382e+000
 1.3688308892e-001	 1.0040457991e+000	-7.3844101397e+000
 1.2693421560e-001	 1.0053519963e+000	-7.4803510499e+000
 1.1700655859e-001	 1.0065556997e+000	-7.5691156509e+000
 1.0710151464e-001	 1.0076577557e+000	-7.6506249475e+000
 9.7220454211e-002	 1.0086590318e+000	-7.7248053145e+000
 1.9823612439e-001	 1.0005515172e+000	-6.4663073168e+000
 1.8812462514e-001	 1.0025018943e+000	-6.5972960695e+000
 1.7802550965e-001	 1.0043444915e+000	-6.7220511750e+000
 1.6794033510e-001	 1.0060800136e+000	-6.8404464563e+000
 1.5787063456e-001	 1.0077091923e+000	-6.9523659043e+000
 1.4781791646e-001	 1.0092327849e+000	-7.0577025319e+000
 1.3778366418e-001	 1.0106515735e+000	-7.1563572649e+000
 1.2776933567e-001	 1.0119663644e+000	-7.2482378793e+000
 1.1777636305e-001	 1.0131779871e+000	-7.3332579920e+000
 1.0780615227e-001	 1.0142872936e+000	-7.4113361121e+000
 9.7860082789e-002	 1.0152951574e+000	-7.4823947598e+000
 1.9953183888e-001	 1.0070913398e+000	-6.2763894717e+000
 1.8935424866e-001	 1.0090544650e+000	-6.4016802557e+000
 1.7918912315e-001	 1.0109091058e+000	-6.5210267685e+000
 1.6903802971e-001	 1.0126559717e+000	-6.6343078740e+000
 1.5890251141e-001	 1.0142957990e+000	-6.7414114963e+000
 1.4878408655e-001	 1.0158293501e+000	-6.8422334224e+000
 1.3868424822e-001	 1.0172574122e+000	-6.9366761472e+000
 1.2860446388e-001	 1.0185807969e+000	-7.0246477667e+000
 1.1854617501e-001	 1.0198003391e+000	-7.1060609286e+000
 1.0851079676e-001	 1.0209168963e+000	-7.1808318484e+000
 9.8499717604e-002	 1.0219313476e+000	-7.2488793968e+000
 2.0082756372e-001	 1.0136312147e+000	-6.0932274121e+000
 1.9058388202e-001	 1.0156070881e+000	-6.2130451592e+000
 1.8035274596e-001	 1.0174737726e+000	-6.3271938003e+000
 1.7013573310e-001	 1.0192319823e+000	-6.4355573888e+000
 1.5993439652e-001	 1.0208824585e+000	-6.5380279503e+000
 1.4975026438e-001	 1.0224259682e+000	-6.6345042331e+000
 1.3958483946e-001	 1.0238633039e+000	-6.7248905019e+000
 1.2943959876e-001	 1.0251952824e+000	-6.8090953846e+000
 1.1931599313e-001	 1.0264227440e+000	-6.8870307802e+000
 1.0921544688e-001	 1.0275465519e+000	-6.9586108357e+000
 9.9139357535e-002	 1.0285675910e+000	-7.0237509998e+000
 2.0212329667e-001	 1.0201711305e+000	-5.9164242036e+000
 1.9181352306e-001	 1.0221597522e+000	-6.0309813395e+000
 1.8151637604e-001	 1.0240384805e+000	-6.1401308483e+000
 1.7123344334e-001	 1.0258080341e+000	-6.2437621472e+000
 1.6096628807e-001	 1.0274691590e+000	-6.3417715589e+000
 1.5071644824e-001	 1.0290226274e+000	-6.4340610049e+000
 1.4048543633e-001	 1.0304692368e+000	-6.5205367461e+000
 1.3027473887e-001	 1.0318098092e+000	-6.6011081795e+000
 1.2008581605e-001	 1.0330451904e+000	-6.6756866997e+000
 1.0992010142e-001	 1.0341762490e+000	-6.7441846341e+000
 9.9779001463e-002	 1.0352038758e+000	-6.8065142595e+000
 2.0341903544e-001	 1.0267110758e+000	-5.7455945520e+000
 1.9304316963e-001	 1.0287124458e+000	-5.8550911446e+000
 1.8268001136e-001	 1.0306032179e+000	-5.9594284128e+000
 1.7233115853e-001	 1.0323841155e+000	-6.0585013387e+000
 1.6199818427e-001	 1.0340558893e+000	-6.1522107637e+000
 1.5168263645e-001	 1.0356193164e+000	-6.2404620213e+000
 1.4138603725e-001	 1.0370751994e+000	-6.3231636206e+000
 1.3110988273e-001	 1.0384243657e+000	-6.4002259895e+000
 1.2085564245e-001	 1.0396676665e+000	-6.4715602874e+000
 1.1062475912e-001	 1.0408059760e+000	-6.5370772952e+000
 1.0041864827e-001	 1.0418401905e+000	-6.5966863908e+000
 2.0471477778e-001	 1.0332510390e+000	-5.5803644668e+000
 1.9427281959e-001	 1.0352651573e+000	-5.6849883688e+000
 1.8384364988e-001	 1.0371679733e+000	-5.7846885692e+000
 1.7342887673e-001	 1.0389602149e+000	-5.8793658435e+000
 1.6303008330e-001	 1.0406426376e+000	-5.9689257997e+000
 1.5264882731e-001	 1.0422160235e+000	-6.0532774483e+000
 1.4228664065e-001	 1.0436811802e+000	-6.1323318246e+000
 1.3194502888e-001	 1.0450389405e+000	-6.2060006755e+000
 1.2162547095e-001	 1.0462901609e+000	-6.2741952193e+000
 1.1132941875e-001	 1.0474357212e+000	-6.3368249870e+000
 1.0105829683e-001	 1.0484765234e+000	-6.3937967548e+000
 2.0601052141e-001	 1.0397910087e+000	-5.4203709362e+000
 1.9550247077e-001	 1.0418178755e+000	-5.5202979231e+000
 1.8500728956e-001	 1.0437327353e+000	-5.6155246341e+000
 1.7452659603e-001	 1.0455363209e+000	-5.7059578934e+000
 1.6406198336e-001	 1.0472293925e+000	-5.7915083511e+000
 1.5361501914e-001	 1.0488127371e+000	-5.8720889863e+000
 1.4318724494e-001	 1.0502871676e+000	-5.9476136652e+000
 1.3278017588e-001	 1.0516535218e+000	-6.0179957672e+000
 1.2239530023e-001	 1.0529126618e+000	-6.0831468889e+000
 1.1203407910e-001	 1.0540654729e+000	-6.1429756333e+000
 1.0169794604e-001	 1.0551128630e+000	-6.1973864959e+000
 2.0730626407e-001	 1.0463309736e+000	-5.2652616140e+000
 1.9673212103e-001	 1.0483705887e+000	-5.3606555173e+000
 1.8617092836e-001	 1.0502974924e+000	-5.4515608425e+000
 1.7562431451e-001	 1.0521124220e+000	-5.5378907454e+000
 1.6509388265e-001	 1.0538161425e+000	-5.6195612212e+000
 1.5458121025e-001	 1.0554094459e+000	-5.6964895363e+000
 1.4408784856e-001	 1.0568931500e+000	-5.7685927188e+000
 1.3361532224e-001	 1.0582680982e+000	-5.8357861210e+000
 1.2316512893e-001	 1.0595351578e+000	-5.8979820628e+000
 1.1273873891e-001	 1.0606952198e+000	-5.9550885664e+000
 1.0233759476e-001	 1.0617491975e+000	-6.0070081913e+000
 9.5941220239e-002	 9.9538702132e-001	-8.2384119464e+000
 8.6213715910e-002	 9.9627667181e-001	-8.3114753865e+000
 7.6512533521e-002	 9.9706861257e-001	-8.3770568801e+000
 6.6838966101e-002	 9.9776375910e-001	-8.4350848480e+000
 5.7194279111e-002	 9.9836304482e-001	-8.4854912114e+000
 4.7579710273e-002	 9.9886742018e-001	-8.5282111538e+000
 3.7996469419e-002	 9.9927785191e-001	-8.5631829533e+000
 2.8445738363e-002	 9.9959532214e-001	-8.5903478860e+000
 1.8928670806e-002	 9.9982082766e-001	-8.6096502004e+000
 9.4463922618e-003	 9.9995537907e-001	-8.6210371623e+000
 0.0000000000e+000	 1.0000000000e+000	-8.6244591700e+000
 9.6580832988e-002	 1.0020229826e+000	-7.9766326107e+000
 8.6788478160e-002	 1.0029185642e+000	-8.0466431320e+000
 7.7022620753e-002	 1.0037157846e+000	-8.1094633799e+000
 6.7284562415e-002	 1.0044155654e+000	-8.1650266610e+000
 5.7575577046e-002	 1.0050188464e+000	-8.2132686315e+000
 4.7896910619e-002	 1.0055265843e+000	-8.2541270329e+000
 3.8249781031e-002	 1.0059397523e+000	-8.2875415041e+000
 2.8635377975e-002	 1.0062593390e+000	-8.3134534688e+000
 1.9054862846e-002	 1.0064863479e+000	-8.3318060992e+000
 9.5093686589e-003	 1.0066217963e+000	-8.3425443564e+000
 0.0000000000e+000	 1.0066667147e+000	-8.3456151056e+000
 9.7220454211e-002	 1.0086590318e+000	-7.7248053145e+000
 8.7363248025e-002	 1.0095605445e+000	-7.7918767937e+000
 7.7532714744e-002	 1.0103630446e+000	-7.8520427055e+000
 6.7730164636e-002	 1.0110674599e+000	-7.9052407201e+000
 5.7956880036e-002	 1.0116747362e+000	-7.9514096923e+000
 4.8214115171e-002	 1.0121858367e+000	-7.9904893707e+000
 3.8503096002e-002	 1.0126017409e+000	-8.0224201874e+000
 2.8825020104e-002	 1.0129234441e+000	-8.0471431293e+000
 1.9181056560e-002	 1.0131519564e+000	-8.0645996912e+000
 9.5723458919e-003	 1.0132883019e+000	-8.0747319100e+000
 0.0000000000e+000	 1.0133335178e+000	-8.0774863068e+000
 9.7860082789e-002	 1.0152951574e+000	-7.4823947598e+000
 8.7938024501e-002	 1.0162026012e+000	-7.5466346749e+000
 7.8042814602e-002	 1.0170103811e+000	-7.6042471853e+000
 6.8175771982e-002	 1.0177194309e+000	-7.6551738356e+000
 5.8338187413e-002	 1.0183307025e+000	-7.6993561751e+000
 4.8531323372e-002	 1.0188451656e+000	-7.7367354386e+000
 3.8756413888e-002	 1.0192638062e+000	-7.7672523140e+000
 2.9014664415e-002	 1.0195876259e+000	-7.7908467958e+000
 1.9307251728e-002	 1.0198176416e+000	-7.8074581268e+000
 9.6353238502e-003	 1.0199548841e+000	-7.8170248264e+000
 0.0000000000e+000	 1.0200003975e+000	-7.8194884652e+000
 9.8499717604e-002	 1.0219313476e+000	-7.2488793968e+000
 8.8512806581e-002	 1.0228447227e+000	-7.3103888616e+000
 7.8552919434e-002	 1.0236577825e+000	-7.3655429635e+000
 6.8621383674e-002	 1.0243714667e+000	-7.4142866651e+000
 5.8719498508e-002	 1.0249867338e+000	-7.4565637376e+000
 4.8848534668e-002	 1.0255045595e+000	-7.4923164127e+000
 3.9009734247e-002	 1.0259259364e+000	-7.5214851258e+000
 2.9204310577e-002	 1.0262518727e+000	-7.5440083517e+000
 1.9433448127e-002	 1.0264833918e+000	-7.5598225344e+000
 9.6983024235e-003	 1.0266215314e+000	-7.5688621083e+000
 0.0000000000e+000	 1.0266673422e+000	-7.5710631075e+000
 9.9139357535e-002	 1.0285675910e+000	-7.0237509998e+000
 8.9087593259e-002	 1.0294868974e+000	-7.0826247961e+000
 7.9063028347e-002	 1.0303052370e+000	-7.1354095705e+000
 6.9066998931e-002	 1.0310235558e+000	-7.1820532805e+000
 5.9100812656e-002	 1.0316428183e+000	-7.2225014789e+000
 4.9165748503e-002	 1.0321640067e+000	-7.2566969352e+000
 3.9263056633e-002	 1.0325881199e+000	-7.2845793540e+000
 2.9393958258e-002	 1.0329161728e+000	-7.3060851921e+000
 1.9559645537e-002	 1.0331491954e+000	-7.3211475745e+000
 9.7612815014e-003	 1.0332882320e+000	-7.3296963091e+000
 0.0000000000e+000	 1.0333343403e+000	-7.3316613329e+000
 9.9779001463e-002	 1.0352038758e+000	-6.8065142595e+000
 8.9662383529e-002	 1.0361291135e+000	-6.8628408657e+000
 7.9573140449e-002	 1.0369527330e+000	-6.9133395094e+000
 6.9512616973e-002	 1.0376756864e+000	-6.9579607523e+000
 5.9482129187e-002	 1.0382989444e+000	-6.9966515203e+000
 4.9482964321e-002	 1.0388234954e+000	-7.0293546929e+000
 3.9516380604e-002	 1.0392503450e+000	-7.0560087956e+000
 2.9583607125e-002	 1.0395805145e+000	-7.0765477969e+000
 1.9685843737e-002	 1.0398150405e+000	-7.0909010107e+000
 9.8242609736e-003	 1.0399549742e+000	-7.0989931025e+000
 0.0000000000e+000	 1.0400013800e+000	-7.1007473760e+000
 1.0041864827e-001	 1.0418401905e+000	-6.5966863908e+000
 9.0237176385e-002	 1.0427713596e+000	-6.6505480085e+000
 8.0083254846e-002	 1.0436002590e+000	-6.6988378581e+000
 6.9958237022e-002	 1.0443278469e+000	-6.7415087485e+000
 5.9863447434e-002	 1.0449551004e+000	-6.7785086022e+000
 4.9800181568e-002	 1.0454830142e+000	-6.8097800118e+000
 3.9769705715e-002	 1.0459126001e+000	-6.8352599051e+000
 2.9773256846e-002	 1.0462448862e+000	-6.8548793211e+000
 1.9812042505e-002	 1.0464809157e+000	-6.8685632974e+000
 9.8872407295e-003	 1.0466217464e+000	-6.8762308677e+000
 0.0000000000e+000	 1.0466684498e+000	-6.8777981909e+000
 1.0105829683e-001	 1.0484765234e+000	-6.3937967548e+000
 9.0811970822e-002	 1.0494136239e+000	-6.4452693324e+000
 8.0593370645e-002	 1.0502478032e+000	-6.4914218867e+000
 7.0403858295e-002	 1.0509800258e+000	-6.5322091497e+000
 6.0244766730e-002	 1.0516112747e+000	-6.5675796963e+000
 5.0117399687e-002	 1.0521425512e+000	-6.5974754665e+000
 4.0023031523e-002	 1.0525748736e+000	-6.6218314019e+000
 2.9962907090e-002	 1.0529092762e+000	-6.6405751994e+000
 1.9938241621e-002	 1.0531468092e+000	-6.6536271827e+000
 9.9502206589e-003	 1.0532885370e+000	-6.6609002905e+000
 0.0000000000e+000	 1.0533355378e+000	-6.6623030502e+000
 1.0169794604e-001	 1.0551128630e+000	-6.1973864959e+000
 9.1386765832e-002	 1.0560558948e+000	-6.2465397495e+000
 8.1103486954e-002	 1.0568953541e+000	-6.2906206889e+000
 7.0849480014e-002	 1.0576322113e+000	-6.3295856778e+000
 6.0626086407e-002	 1.0582674557e+000	-6.3633836322e+000
 5.0434618123e-002	 1.0588020949e+000	-6.3919555048e+000
 4.0276357585e-002	 1.0592371537e+000	-6.4152338925e+000
 3.0152557523e-002	 1.0595736729e+000	-6.4331427664e+000
 2.0064440863e-002	 1.0598127094e+000	-6.4455973264e+000
 1.0013200651e-002	 1.0599553342e+000	-6.4525039794e+000
 0.0000000000e+000	 1.0600026325e+000	-6.4537631590e+000
 1.0233759476e-001	 1.0617491975e+000	-6.0070081913e+000
 9.1961560411e-002	 1.0626981608e+000	-6.0539056237e+000
 8.1613602879e-002	 1.0635429000e+000	-6.0959748269e+000
 7.1295101398e-002	 1.0642843918e+000	-6.1331735394e+000
 6.1007405798e-002	 1.0649236317e+000	-6.1654507382e+000
 5.0751836321e-002	 1.0654616337e+000	-6.1927460860e+000
 4.0529683456e-002	 1.0658994288e+000	-6.2149895066e+000
 3.0342207813e-002	 1.0662380646e+000	-6.2321008907e+000
 2.0190640010e-002	 1.0664786046e+000	-6.2439899324e+000
 1.0076180596e-002	 1.0666221265e+000	-6.2505560957e+000
 0.0000000000e+000	 1.0666697223e+000	-6.2516912841e+000
 1.0666697223e+000	 0.0000000000e+000	 1.5107366823e+000
 1.0666221265e+000	 1.0076180596e-002	 1.5067627808e+000
 1.0664786046e+000	 2.0190640010e-002	 1.5075331937e+000
 1.0662380646e+000	 3.0342207813e-002	 1.5125268916e+000
 1.0658994288e+000	 4.0529683456e-002	 1.5212188063e+000
 1.0654616337e+000	 5.0751836321e-002	 1.5330759231e+000
 1.0649236317e+000	 6.1007405798e-002	 1.5475586092e+000
 1.0642843918e+000	 7.1295101398e-002	 1.5641220569e+000
 1.0635429000e+000	 8.1613602879e-002	 1.5822178382e+000
 1.0626981608e+000	 9.1961560411e-002	 1.6012955719e+000
 1.0617491975e+000	 1.0233759476e-001	 1.6208047001e+000
 1.0733357975e+000	 0.0000000000e+000	 1.6230848224e+000
 1.0732879043e+000	 1.0139150958e-002	 1.6189988809e+000
 1.0731434855e+000	 2.0316819954e-002	 1.6194407190e+000
 1.0729014423e+000	 3.0531829246e-002	 1.6238884779e+000
 1.0725606901e+000	 4.0782970781e-002	 1.6318158565e+000
 1.0721201591e+000	 5.1069006250e-002	 1.6426885670e+000
 1.0715787949e+000	 6.1388667167e-002	 1.6559656908e+000
 1.0709355601e+000	 7.1740654976e-002	 1.6711011525e+000
 1.0701894344e+000	 8.2123641186e-002	 1.6875453102e+000
 1.0693394161e+000	 9.2536267529e-002	 1.7047466627e+000
 1.0683845223e+000	 1.0297714615e-001	 1.7221536690e+000
 1.0800018578e+000	 0.0000000000e+000	 1.7317931047e+000
 1.0799536671e+000	 1.0202121178e-002	 1.7275844048e+000
 1.0798083513e+000	 2.0442999614e-002	 1.7276978091e+000
 1.0795648050e+000	 3.0721450252e-002	 1.7316102351e+000
 1.0792219365e+000	 4.1036257536e-002	 1.7387937098e+000
 1.0787786695e+000	 5.1386175466e-002	 1.7487121775e+000
 1.0782339431e+000	 6.1769927677e-002	 1.7608228828e+000
 1.0775867135e+000	 7.2186207551e-002	 1.7745778757e+000
 1.0768359539e+000	 8.2633678344e-002	 1.7894256390e+000
 1.0759806564e+000	 9.3110973354e-002	 1.8048128355e+000
 1.0750198322e+000	 1.0361669611e-001	 1.8201861725e+000
 1.0866679047e+000	 0.0000000000e+000	 1.8366490204e+000
 1.0866194166e+000	 1.0265091272e-002	 1.8323083592e+000
 1.0864732039e+000	 2.0569179022e-002	 1.8320949007e+000
 1.0862281543e+000	 3.0911070878e-002	 1.8354839521e+000
 1.0858831696e+000	 4.1289543783e-002	 1.8419454384e+000
 1.0854371666e+000	 5.1703344046e-002	 1.8509410482e+000
 1.0848890781e+000	 6.2151187425e-002	 1.8619256444e+000
 1.0842378535e+000	 7.2631759235e-002	 1.8743488020e+000
 1.0834824601e+000	 8.3143714482e-002	 1.8876564717e+000
 1.0826218835e+000	 9.3685678029e-002	 1.9012927686e+000
 1.0816551288e+000	 1.0425624478e-001	 1.9147018839e+000
 1.0933339400e+000	 0.0000000000e+000	 1.9374465563e+000
 1.0932851544e+000	 1.0328061256e-002	 1.9329659497e+000
 1.0931380448e+000	 2.0695358208e-002	 1.9324283500e+000
 1.0928914920e+000	 3.1100691172e-002	 1.9353070766e+000
 1.0925443910e+000	 4.1542829587e-002	 1.9410695294e+000
 1.0920956520e+000	 5.2020512072e-002	 1.9491746607e+000
 1.0915442013e+000	 6.2532446505e-002	 1.9590744137e+000
 1.0908889819e+000	 7.3077310138e-002	 1.9702152927e+000
 1.0901289546e+000	 8.3653749727e-002	 1.9820400642e+000
 1.0892630989e+000	 9.4260381698e-002	 1.9939895886e+000
 1.0882904138e+000	 1.0489579234e-001	 2.0055047783e+000
 1.0999999653e+000	 0.0000000000e+000	 2.0339859988e+000
 1.0999508823e+000	 1.0391031145e-002	 2.0293583897e+000
 1.0998028757e+000	 2.0821537206e-002	 2.0285002474e+000
 1.0995548196e+000	 3.1290311182e-002	 2.0308825338e+000
 1.0992056024e+000	 4.1796115011e-002	 2.0359697087e+000
 1.0987541275e+000	 5.2337679621e-002	 2.0432175143e+000
 1.0981993146e+000	 6.2913705014e-002	 2.0520744413e+000
 1.0975401004e+000	 7.3522860374e-002	 2.0619833331e+000
 1.0967754392e+000	 8.4163784208e-002	 2.0723831244e+000
 1.0959043044e+000	 9.4835084506e-002	 2.0827107165e+000
 1.0949256889e+000	 1.0553533894e-001	 2.0924029839e+000
 1.1066659822e+000	 0.0000000000e+000	 2.1260737441e+000
 1.1066166018e+000	 1.0454000956e-002	 2.1212927163e+000
 1.1064676983e+000	 2.0947716045e-002	 2.1201182382e+000
 1.1062181390e+000	 3.1479930955e-002	 2.1220185531e+000
 1.1058668055e+000	 4.2049400119e-002	 2.1264547727e+000
 1.1054125947e+000	 5.2654846774e-002	 2.1328789612e+000
 1.1048544196e+000	 6.3294963045e-002	 2.1407356305e+000
 1.1041912105e+000	 7.3968410052e-002	 2.1494633769e+000
 1.1034219154e+000	 8.4673818051e-002	 2.1584966596e+000
 1.1025455016e+000	 9.5409786595e-002	 2.1672677198e+000
 1.1015609556e+000	 1.0617488473e-001	 2.1752086373e+000
 1.1133319925e+000	 0.0000000000e+000	 2.2135221158e+000
 1.1132823146e+000	 1.0516970703e-002	 2.2085816129e+000
 1.1131325142e+000	 2.1073894759e-002	 2.2070953508e+000
 1.1128814517e+000	 3.1669550538e-002	 2.2085285006e+000
 1.1125280019e+000	 4.2302684973e-002	 2.2123384248e+000
 1.1120710551e+000	 5.2972013611e-002	 2.2179730485e+000
 1.1115095179e+000	 6.3676220696e-002	 2.2248723829e+000
 1.1108423139e+000	 7.4413959286e-002	 2.2324701960e+000
 1.1100683851e+000	 8.5183851384e-002	 2.2401958312e+000
 1.1091866921e+000	 9.5984488109e-002	 2.2474761710e+000
 1.1081962157e+000	 1.0681442989e-001	 2.2537377451e+000
 1.1199979978e+000	 0.0000000000e+000	 2.2961491888e+000
 1.1199480224e+000	 1.0579940404e-002	 2.2910432383e+000
 1.1197973251e+000	 2.1200073378e-002	 2.2892498300e+000
 1.1195447594e+000	 3.1859169980e-002	 2.2902307170e+000
 1.1191891933e+000	 4.2555969638e-002	 2.2934391185e+000
 1.1187295106e+000	 5.3289180210e-002	 2.2983183648e+000
 1.1181646112e+000	 6.4057478062e-002	 2.3043034497e+000
 1.1174934124e+000	 7.4859508185e-002	 2.3108227359e+000
 1.1167148497e+000	 8.5693884335e-002	 2.3172998132e+000
 1.1158278776e+000	 9.6559189193e-002	 2.3231555096e+000
 1.1148314709e+000	 1.0745397457e-001	 2.3278100506e+000
 1.1266639997e+000	 0.0000000000e+000	 2.3737786196e+000
 1.1266137269e+000	 1.0642910073e-002	 2.3685010617e+000
 1.1264621327e+000	 2.1326251934e-002	 2.3664049769e+000
 1.1262080637e+000	 3.2048789327e-002	 2.3669483622e+000
 1.1258503814e+000	 4.2809254177e-002	 2.3695799057e+000
 1.1253879628e+000	 5.3606346650e-002	 2.3737378932e+000
 1.1248197012e+000	 6.4438735237e-002	 2.3788517889e+000
 1.1241445076e+000	 7.5305056863e-002	 2.3843439762e+000
 1.1233613110e+000	 8.6203917031e-002	 2.3896316572e+000
 1.1224690599e+000	 9.7133889991e-002	 2.3941289105e+000
 1.1214667227e+000	 1.0809351893e-001	 2.3972489048e+000
 1.1333300000e+000	 0.0000000000e+000	 2.4462394826e+000
 1.1332794297e+000	 1.0705879726e-002	 2.4407837033e+000
 1.1331269386e+000	 2.1452430459e-002	 2.4383889941e+000
 1.1328713664e+000	 3.2238408627e-002	 2.4385092648e+000
 1.1325115679e+000	 4.3062538653e-002	 2.4405882911e+000
 1.1320464133e+000	 5.3923513013e-002	 2.4440588692e+000
 1.1314747896e+000	 6.4819992318e-002	 2.4483444263e+000
 1.1307956011e+000	 7.5750605430e-002	 2.4528607962e+000
 1.1300077707e+000	 8.6713949601e-002	 2.4570181609e+000
 1.1291102404e+000	 9.7708590645e-002	 2.4602231566e+000
 1.1281019728e+000	 1.0873306313e-001	 2.4618811425e+000
 1.0617491975e+000	 1.0233759476e-001	 1.6208047001e+000
 1.0606952198e+000	 1.1273873891e-001	 1.6425052814e+000
 1.0595351578e+000	 1.2316512893e-001	 1.6682009180e+000
 1.0582680982e+000	 1.3361532224e-001	 1.6974031778e+000
 1.0568931500e+000	 1.4408784856e-001	 1.7296315778e+000
 1.0554094459e+000	 1.5458121025e-001	 1.7644158971e+000
 1.0538161425e+000	 1.6509388265e-001	 1.8012985671e+000
 1.0521124220e+000	 1.7562431451e-001	 1.8398371327e+000
 1.0502974924e+000	 1.8617092836e-001	 1.8796067727e+000
 1.0483705887e+000	 1.9673212103e-001	 1.9202028704e+000
 1.0463309736e+000	 2.0730626407e-001	 1.9612436218e+000
 1.0683845223e+000	 1.0297714615e-001	 1.7221536690e+000
 1.0673239578e+000	 1.1344329150e-001	 1.7415353824e+000
 1.0661566461e+000	 1.2393484049e-001	 1.7647038618e+000
 1.0648816681e+000	 1.3445034153e-001	 1.7911700266e+000
 1.0634981273e+000	 1.4498831515e-001	 1.8204528064e+000
 1.0620051509e+000	 1.5554725434e-001	 1.8520815106e+000
 1.0604018903e+000	 1.6612562493e-001	 1.8855982803e+000
 1.0586875225e+000	 1.7672186595e-001	 1.9205606138e+000
 1.0568612506e+000	 1.8733439011e-001	 1.9565439544e+000
 1.0549223048e+000	 1.9796158419e-001	 1.9931443318e+000
 1.0528699433e+000	 2.0860180957e-001	 2.0299810428e+000
 1.0750198322e+000	 1.0361669611e-001	 1.8201861725e+000
 1.0739526810e+000	 1.1414784251e-001	 1.8373210988e+000
 1.0727781196e+000	 1.2470455032e-001	 1.8580369073e+000
 1.0714952232e+000	 1.3528535894e-001	 1.8818450994e+000
 1.0701030898e+000	 1.4588877971e-001	 1.9082652532e+000
 1.0686008410e+000	 1.5651329626e-001	 1.9368274510e+000
 1.0669876232e+000	 1.6715736488e-001	 1.9670747920e+000
 1.0652626082e+000	 1.7781941493e-001	 1.9985659827e+000
 1.0634249940e+000	 1.8849784924e-001	 2.0308779929e+000
 1.0614740062e+000	 1.9919104459e-001	 2.0636087669e+000
 1.0594088983e+000	 2.0989735216e-001	 2.0963799787e+000
 1.0816551288e+000	 1.0425624478e-001	 1.9147018839e+000
 1.0805813908e+000	 1.1485239210e-001	 1.9296632884e+000
 1.0793995797e+000	 1.2547425861e-001	 1.9480024882e+000
 1.0781087650e+000	 1.3612037468e-001	 1.9692327605e+000
 1.0767080390e+000	 1.4678924246e-001	 1.9928755306e+000
 1.0751965180e+000	 1.5747933624e-001	 2.0184628570e+000
 1.0735733430e+000	 1.6818910277e-001	 2.0455400060e+000
 1.0718376807e+000	 1.7891696172e-001	 2.0736681057e+000
 1.0699887243e+000	 1.8966130605e-001	 2.1024268715e+000
 1.0680256945e+000	 2.0042050252e-001	 2.1314173883e+000
 1.0659478402e+000	 2.1119289215e-001	 2.1602649388e+000
 1.0882904138e+000	 1.0489579234e-001	 2.0055047783e+000
 1.0872100891e+000	 1.1555694047e-001	 2.0183669745e+000
 1.0860210283e+000	 1.2624396556e-001	 2.0344070711e+000
 1.0847222952e+000	 1.3695538896e-001	 2.0531412789e+000
 1.0833129766e+000	 1.4768970365e-001	 2.0740940322e+000
 1.0817921834e+000	 1.5844537453e-001	 2.0968005306e+000
 1.0801590512e+000	 1.6922083886e-001	 2.1208093758e+000
 1.0784127417e+000	 1.8001450658e-001	 2.1456852910e+000
 1.0765524432e+000	 1.9082476082e-001	 2.1710119144e+000
 1.0745773714e+000	 2.0164995830e-001	 2.1963946537e+000
 1.0724867707e+000	 2.1248842988e-001	 2.2214635885e+000
 1.0949256889e+000	 1.0553533894e-001	 2.0924029839e+000
 1.0938387774e+000	 1.1626148778e-001	 2.1032412009e+000
 1.0926424670e+000	 1.2701367135e-001	 2.1170610144e+000
 1.0913358156e+000	 1.3779040199e-001	 2.1333826917e+000
 1.0899179044e+000	 1.4859016348e-001	 2.1517348002e+000
 1.0883878389e+000	 1.5941141138e-001	 2.1716568078e+000
 1.0867447496e+000	 1.7025257340e-001	 2.1927017807e+000
 1.0849877929e+000	 1.8111204980e-001	 2.2144391693e+000
 1.0831161521e+000	 1.9198821384e-001	 2.2364576707e+000
 1.0811290384e+000	 2.0287941224e-001	 2.2583681550e+000
 1.0790256914e+000	 2.1378396566e-001	 2.2798066435e+000
 1.1015609556e+000	 1.0617488473e-001	 2.1752086373e+000
 1.1004674575e+000	 1.1696603420e-001	 2.1840988909e+000
 1.0992638974e+000	 1.2778337617e-001	 2.1957784318e+000
 1.0979493276e+000	 1.3862541397e-001	 2.2097726709e+000
 1.0965228239e+000	 1.4949062218e-001	 2.2256153970e+000
 1.0949834862e+000	 1.6037744702e-001	 2.2428514347e+000
 1.0933304397e+000	 1.7128430664e-001	 2.2610394053e+000
 1.0915628358e+000	 1.8220959164e-001	 2.2797545782e+000
 1.0896798529e+000	 1.9315166541e-001	 2.2985918036e+000
 1.0876806972e+000	 2.0410886464e-001	 2.3171685117e+000
 1.0855646039e+000	 2.1507949983e-001	 2.3351277666e+000
 1.1081962157e+000	 1.0681442989e-001	 2.2537377451e+000
 1.1070961309e+000	 1.1767057993e-001	 2.2607567130e+000
 1.1058853212e+000	 1.2855308023e-001	 2.2703770613e+000
 1.1045628331e+000	 1.3946042512e-001	 2.2821303971e+000
 1.1031277368e+000	 1.5039107999e-001	 2.2955567820e+000
 1.1015791268e+000	 1.6134348169e-001	 2.3102074489e+000
 1.0999161232e+000	 1.7231603886e-001	 2.3256476252e+000
 1.0981378722e+000	 1.8330713239e-001	 2.3414594515e+000
 1.0962435471e+000	 1.9431511582e-001	 2.3572449841e+000
 1.0942323495e+000	 2.0533831581e-001	 2.3726292687e+000
 1.0921035099e+000	 2.1637503270e-001	 2.3872634703e+000
 1.1148314709e+000	 1.0745397457e-001	 2.3278100506e+000
 1.1137247994e+000	 1.1837512512e-001	 2.3330349504e+000
 1.1125067400e+000	 1.2932278371e-001	 2.3406781386e+000
 1.1111763336e+000	 1.4029543564e-001	 2.3502784362e+000
 1.1097326447e+000	 1.5129153712e-001	 2.3613831932e+000
 1.1081747626e+000	 1.6230951564e-001	 2.3735510646e+000
 1.1065018018e+000	 1.7334777031e-001	 2.3863548967e+000
 1.1047129036e+000	 1.8440467232e-001	 2.3993847131e+000
 1.1028072364e+000	 1.9547856535e-001	 2.4122507888e+000
 1.1007839969e+000	 2.0656776606e-001	 2.4245867981e+000
 1.0986424110e+000	 2.1767056460e-001	 2.4360530224e+000
 1.1214667227e+000	 1.0809351893e-001	 2.3972489048e+000
 1.1203534645e+000	 1.1907966996e-001	 2.4007573763e+000
 1.1191281555e+000	 1.3009248681e-001	 2.4065062759e+000
 1.1177898307e+000	 1.4113044575e-001	 2.4140426221e+000
 1.1163375493e+000	 1.5219199380e-001	 2.4229220331e+000
 1.1147703950e+000	 1.6327554910e-001	 2.4327115627e+000
 1.1130874771e+000	 1.7437950123e-001	 2.4429926502e+000
 1.1112879318e+000	 1.8550221169e-001	 2.4533641748e+000
 1.1093709224e+000	 1.9664201430e-001	 2.4634456017e+000
 1.1073356410e+000	 2.0779721570e-001	 2.4728802054e+000
 1.1051813088e+000	 2.1896609585e-001	 2.4813383563e+000
 1.1281019728e+000	 1.0873306313e-001	 2.4618811425e+000
 1.1269821280e+000	 1.1978421463e-001	 2.4637511327e+000
 1.1257495693e+000	 1.3086218971e-001	 2.4676893446e+000
 1.1244033263e+000	 1.4196545564e-001	 2.4732519431e+000
 1.1229424523e+000	 1.5309245026e-001	 2.4800037590e+000
 1.1213660258e+000	 1.6424158232e-001	 2.4875211846e+000
 1.1196731508e+000	 1.7541123190e-001	 2.4953951883e+000
 1.1178629583e+000	 1.8659975079e-001	 2.5032344381e+000
 1.1159346068e+000	 1.9780546296e-001	 2.5106685200e+000
 1.1138872834e+000	 2.0902666503e-001	 2.5173512390e+000
 1.1117202050e+000	 2.2026162677e-001	 2.5229639844e+000
 1.0463309736e+000	 2.0730626407e-001	 1.9612436218e+000
 1.0441776071e+000	 2.1789329261e-001	 2.0033572883e+000
 1.0419101079e+000	 2.2848994108e-001	 2.0472675396e+000
 1.0395278280e+000	 2.3909450519e-001	 2.0927967989e+000
 1.0370301501e+000	 2.4970525751e-001	 2.1398013692e+000
 1.0344164892e+000	 2.6032044820e-001	 2.1881739003e+000
 1.0316862930e+000	 2.7093830562e-001	 2.2378458013e+000
 1.0288390426e+000	 2.8155703702e-001	 2.2887895842e+000
 1.0258742537e+000	 2.9217482931e-001	 2.3410211207e+000
 1.0227914767e+000	 3.0278984978e-001	 2.3946017939e+000
 1.0195902983e+000	 3.1340024690e-001	 2.4496405279e+000
 1.0528699433e+000	 2.0860180957e-001	 2.0299810428e+000
 1.0507031195e+000	 2.1925500098e-001	 2.0676862841e+000
 1.0484214498e+000	 2.2991787244e-001	 2.1069948208e+000
 1.0460242820e+000	 2.4058870900e-001	 2.1477398955e+000
 1.0435109950e+000	 2.5126577246e-001	 2.1897893913e+000
 1.0408810003e+000	 2.6194730201e-001	 2.2330483618e+000
 1.0381337419e+000	 2.7263151496e-001	 2.2774615082e+000
 1.0352686978e+000	 2.8331660736e-001	 2.3230155844e+000
 1.0322853806e+000	 2.9400075477e-001	 2.3697417145e+000
 1.0291833381e+000	 3.0468211304e-001	 2.4177176018e+000
 1.0259621541e+000	 3.1535881907e-001	 2.4670696135e+000
 1.0594088983e+000	 2.0989735216e-001	 2.0963799787e+000
 1.0572286172e+000	 2.2061670628e-001	 2.1298279262e+000
 1.0549327770e+000	 2.3134580059e-001	 2.1646967659e+000
 1.0525207213e+000	 2.4208290946e-001	 2.2008290634e+000
 1.0499918254e+000	 2.5282628389e-001	 2.2381027366e+000
 1.0473454967e+000	 2.6357415217e-001	 2.2764336537e+000
 1.0445811762e+000	 2.7432472049e-001	 2.3157781778e+000
 1.0416983385e+000	 2.8507617373e-001	 2.3561356389e+000
 1.0386964931e+000	 2.9582667612e-001	 2.3975507152e+000
 1.0355751850e+000	 3.0657437205e-001	 2.4401157051e+000
 1.0323339956e+000	 3.1731738684e-001	 2.4839726707e+000
 1.0659478402e+000	 2.1119289215e-001	 2.1602649388e+000
 1.0637541019e+000	 2.2197840887e-001	 2.1896098227e+000
 1.0614440912e+000	 2.3277372588e-001	 2.2202036495e+000
 1.0590171477e+000	 2.4357710692e-001	 2.2518968149e+000
 1.0564726427e+000	 2.5438679220e-001	 2.2845757300e+000
 1.0538099803e+000	 2.6520099906e-001	 2.3181654925e+000
 1.0510285977e+000	 2.7601792264e-001	 2.3526325020e+000
 1.0481279664e+000	 2.8683573659e-001	 2.3879870037e+000
 1.0451075928e+000	 2.9765259382e-001	 2.4242855381e+000
 1.0419670192e+000	 3.0846662727e-001	 2.4616332803e+000
 1.0387058243e+000	 3.1927595069e-001	 2.5001862469e+000
 1.0724867707e+000	 2.1248842988e-001	 2.2214635885e+000
 1.0702795752e+000	 2.2334010907e-001	 2.2468626616e+000
 1.0679553939e+000	 2.3420164867e-001	 2.2733487669e+000
 1.0655135626e+000	 2.4507130177e-001	 2.3007786396e+000
 1.0629534487e+000	 2.5594729778e-001	 2.3290456458e+000
 1.0602744525e+000	 2.6682784311e-001	 2.3580825302e+000
 1.0574760078e+000	 2.7771112182e-001	 2.3878641078e+000
 1.0545575829e+000	 2.8859529637e-001	 2.4184098821e+000
 1.0515186813e+000	 2.9947850833e-001	 2.4497865693e+000
 1.0483588422e+000	 3.1035887918e-001	 2.4821105082e+000
 1.0450776419e+000	 3.2123451111e-001	 2.5155499361e+000
 1.0790256914e+000	 2.1378396566e-001	 2.2798066435e+000
 1.0768050386e+000	 2.2470180722e-001	 2.3014201082e+000
 1.0744666870e+000	 2.3562956932e-001	 2.3239683351e+000
 1.0720099679e+000	 2.4656549438e-001	 2.3473129092e+000
 1.0694342450e+000	 2.5750780102e-001	 2.3713526152e+000
 1.0667389151e+000	 2.6845468472e-001	 2.3960262650e+000
 1.0639234083e+000	 2.7940431847e-001	 2.4213154701e+000
 1.0609871899e+000	 2.9035485351e-001	 2.4472473395e+000
 1.0579297601e+000	 3.0130442010e-001	 2.4738970816e+000
 1.0547506556e+000	 3.1225112825e-001	 2.5013904911e+000
 1.0514494499e+000	 3.2319306859e-001	 2.5299062979e+000
 1.0855646039e+000	 2.1507949983e-001	 2.3351277666e+000
 1.0833304940e+000	 2.2606350368e-001	 2.3531187073e+000
 1.0809779718e+000	 2.3705748818e-001	 2.3719013981e+000
 1.0785063650e+000	 2.4805968512e-001	 2.3913407859e+000
 1.0759150332e+000	 2.5906830231e-001	 2.4113395381e+000
 1.0732033695e+000	 2.7008152430e-001	 2.4318409554e+000
 1.0703708008e+000	 2.8109751299e-001	 2.4528318288e+000
 1.0674167888e+000	 2.9211440845e-001	 2.4743452216e+000
 1.0643408310e+000	 3.0313032958e-001	 2.4964631549e+000
 1.0611424611e+000	 3.1414337496e-001	 2.5193191747e+000
 1.0578212500e+000	 3.2515162363e-001	 2.5431007795e+000
 1.0921035099e+000	 2.1637503270e-001	 2.3872634703e+000
 1.0898559428e+000	 2.2742519877e-001	 2.4017977885e+000
 1.0874892502e+000	 2.3848540562e-001	 2.4169897371e+000
 1.0850027556e+000	 2.4955387437e-001	 2.4327061357e+000
 1.0823958150e+000	 2.6062880204e-001	 2.4488519992e+000
 1.0796678175e+000	 2.7170836224e-001	 2.4653735388e+000
 1.0768181868e+000	 2.8279070583e-001	 2.4822611088e+000
 1.0738463813e+000	 2.9387396163e-001	 2.4995520774e+000
 1.0707518954e+000	 3.0495623724e-001	 2.5173336003e+000
 1.0675342601e+000	 3.1603561977e-001	 2.5357452731e+000
 1.0641930437e+000	 3.2711017670e-001	 2.5549816430e+000
 1.0986424110e+000	 2.1767056460e-001	 2.4360530224e+000
 1.0963813867e+000	 2.2878689285e-001	 2.4472993768e+000
 1.0940005237e+000	 2.3991332198e-001	 2.4590777833e+000
 1.0914991414e+000	 2.5104806249e-001	 2.4712554449e+000
 1.0888765918e+000	 2.6218930060e-001	 2.4837381872e+000
 1.0861322607e+000	 2.7333519897e-001	 2.4964735534e+000
 1.0832655680e+000	 2.8448389739e-001	 2.5094538446e+000
 1.0802759690e+000	 2.9563351349e-001	 2.5227190851e+000
 1.0771629550e+000	 3.0678214353e-001	 2.5363598877e+000
 1.0739260543e+000	 3.1792786317e-001	 2.5505201984e+000
 1.0705648326e+000	 3.2906872831e-001	 2.5653998947e+000
 1.1051813088e+000	 2.1896609585e-001	 2.4813383563e+000
 1.1029068273e+000	 2.3014858624e-001	 2.4894681056e+000
 1.1005117939e+000	 2.4134123764e-001	 2.4980125354e+000
 1.0979955239e+000	 2.5254224987e-001	 2.5068377401e+000
 1.0953573654e+000	 2.6374979838e-001	 2.5158488179e+000
 1.0925967006e+000	 2.7496203489e-001	 2.5249930635e+000
 1.0897129459e+000	 2.8617708811e-001	 2.5342631079e+000
 1.0867055534e+000	 2.9739306447e-001	 2.5436999815e+000
 1.0835740115e+000	 3.0860804890e-001	 2.5533960776e+000
 1.0803178454e+000	 3.1982010562e-001	 2.5634979928e+000
 1.0769366183e+000	 3.3102727894e-001	 2.5742092194e+000
 1.1117202050e+000	 2.2026162677e-001	 2.5229639844e+000
 1.1094322663e+000	 2.3151027929e-001	 2.5281511348e+000
 1.1070230625e+000	 2.4276915293e-001	 2.5336434804e+000
 1.1044919048e+000	 2.5403643688e-001	 2.5393045125e+000
 1.1018381374e+000	 2.6531029577e-001	 2.5450370606e+000
 1.0990611389e+000	 2.7658887040e-001	 2.5507865890e+000
 1.0961603222e+000	 2.8787027840e-001	 2.5565444389e+000
 1.0931351363e+000	 2.9915261501e-001	 2.5623509957e+000
 1.0899850663e+000	 3.1043395382e-001	 2.5682987551e+000
 1.0867096348e+000	 3.2171234759e-001	 2.5745352651e+000
 1.0833084025e+000	 3.3298582908e-001	 2.5812659173e+000
 1.0195902983e+000	 3.1340024690e-001	 2.4496405279e+000
 1.0162703411e+000	 3.2400415097e-001	 2.5049946792e+000
 1.0128312640e+000	 3.3459967450e-001	 2.5594014341e+000
 1.0092727636e+000	 3.4518491349e-001	 2.6128587522e+000
 1.0055945751e+000	 3.5575794852e-001	 2.6654091531e+000
 1.0017964728e+000	 3.6631684564e-001	 2.7171411135e+000
 9.9787827087e-001	 3.7685965733e-001	 2.7681902582e+000
 9.9383982379e-001	 3.8738442351e-001	 2.8187403288e+000
 9.8968102700e-001	 3.9788917248e-001	 2.8690239152e+000
 9.8540181740e-001	 4.0837192200e-001	 2.9193229342e+000
 9.8100217384e-001	 4.1883068033e-001	 2.9699688437e+000
 1.0259621541e+000	 3.1535881907e-001	 2.4670696135e+000
 1.0226214490e+000	 3.2602899147e-001	 2.5166130620e+000
 1.0191608797e+000	 3.3669073096e-001	 2.5650477301e+000
 1.0155801407e+000	 3.4734212164e-001	 2.6123979030e+000
 1.0118789656e+000	 3.5798123209e-001	 2.6587338487e+000
 1.0080571274e+000	 3.6860611627e-001	 2.7041732393e+000
 1.0041144389e+000	 3.7921481450e-001	 2.7488823600e+000
 1.0000507539e+000	 3.8980535444e-001	 2.7930770865e+000
 9.9586596698e-001	 4.0037575208e-001	 2.8370236182e+000
 9.9156001478e-001	 4.1092401279e-001	 2.8810389484e+000
 9.8713287596e-001	 4.2144813238e-001	 2.9254910603e+000
 1.0323339956e+000	 3.1731738684e-001	 2.4839726707e+000
 1.0289725427e+000	 3.2805382742e-001	 2.5278944293e+000
 1.0254904811e+000	 3.3878178272e-001	 2.5705449302e+000
 1.0218875037e+000	 3.4949932493e-001	 2.6119761060e+000
 1.0181633421e+000	 3.6020451065e-001	 2.6522873660e+000
 1.0143177679e+000	 3.7089538175e-001	 2.6916270423e+000
 1.0103505930e+000	 3.8156996637e-001	 2.7301936167e+000
 1.0062616700e+000	 3.9222627993e-001	 2.7682367073e+000
 1.0020508931e+000	 4.0286232609e-001	 2.8060578022e+000
 9.9771819829e-001	 4.1347609784e-001	 2.8440107212e+000
 9.9326356429e-001	 4.2406557853e-001	 2.8825017933e+000
 1.0387058243e+000	 3.1927595069e-001	 2.5001862469e+000
 1.0353236237e+000	 3.3007865932e-001	 2.5386746701e+000
 1.0318200700e+000	 3.4087283029e-001	 2.5757285616e+000
 1.0281948540e+000	 3.5165652391e-001	 2.6114287798e+000
 1.0244477059e+000	 3.6242778477e-001	 2.6459052243e+000
 1.0205783959e+000	 3.7318464265e-001	 2.6793383085e+000
 1.0165867345e+000	 3.8392511353e-001	 2.7119602036e+000
 1.0124725737e+000	 3.9464720057e-001	 2.7440558360e+000
 1.0082358068e+000	 4.0534889512e-001	 2.7759636198e+000
 1.0038763695e+000	 4.1602817778e-001	 2.8080759104e+000
 9.9939424035e-001	 4.2668301945e-001	 2.8408391619e+000
 1.0450776419e+000	 3.2123451111e-001	 2.5155499361e+000
 1.0416746936e+000	 3.3210348768e-001	 2.5487927619e+000
 1.0381496477e+000	 3.4296387421e-001	 2.5804372735e+000
 1.0345021933e+000	 3.5381371912e-001	 2.6105944891e+000
 1.0307320588e+000	 3.6465105499e-001	 2.6394261044e+000
 1.0268390129e+000	 3.7547389954e-001	 2.6671459921e+000
 1.0228228652e+000	 3.8628025657e-001	 2.6940214635e+000
 1.0186834665e+000	 3.9706811698e-001	 2.7203742760e+000
 1.0144207096e+000	 4.0783545981e-001	 2.7465813663e+000
 1.0100345299e+000	 4.1858025325e-001	 2.7730752935e+000
 1.0055249057e+000	 4.2930045578e-001	 2.8003443763e+000
 1.0514494499e+000	 3.2319306859e-001	 2.5299062979e+000
 1.0480257539e+000	 3.3412831300e-001	 2.5580906910e+000
 1.0444792160e+000	 3.4505491499e-001	 2.5845127577e+000
 1.0408095231e+000	 3.5597091109e-001	 2.6093148666e+000
 1.0370164022e+000	 3.6687432189e-001	 2.6326917724e+000
 1.0330996205e+000	 3.7776315300e-001	 2.6548921414e+000
 1.0290589865e+000	 3.8863539608e-001	 2.6762198336e+000
 1.0248943500e+000	 3.9948902976e-001	 2.6970349189e+000
 1.0206056032e+000	 4.1032202076e-001	 2.7177544111e+000
 1.0161926811e+000	 4.2113232490e-001	 2.7388527010e+000
 1.0116555618e+000	 4.3191788820e-001	 2.7608616724e+000
 1.0578212500e+000	 3.2515162363e-001	 2.5431007795e+000
 1.0543768064e+000	 3.3615313578e-001	 2.5664133761e+000
 1.0508087763e+000	 3.4714595315e-001	 2.5877996737e+000
 1.0471168450e+000	 3.5812810036e-001	 2.6074345398e+000
 1.0433007378e+000	 3.6909758600e-001	 2.6255470069e+000
 1.0393602204e+000	 3.8005240360e-001	 2.6424218281e+000
 1.0352951000e+000	 3.9099053264e-001	 2.6584007772e+000
 1.0311052257e+000	 4.0190993951e-001	 2.6738836769e+000
 1.0267904891e+000	 4.1280857861e-001	 2.6893291323e+000
 1.0223508246e+000	 4.2368439336e-001	 2.7052549536e+000
 1.0177862103e+000	 4.3453531734e-001	 2.7222382508e+000
 1.0641930437e+000	 3.2711017670e-001	 2.5549816430e+000
 1.0607278524e+000	 3.3817795655e-001	 2.5736085952e+000
 1.0571383303e+000	 3.4923698923e-001	 2.5901455776e+000
 1.0534241607e+000	 3.6028528748e-001	 2.6048010606e+000
 1.0495850670e+000	 3.7132084789e-001	 2.6178395317e+000
 1.0456208139e+000	 3.8234165191e-001	 2.6295830802e+000
 1.0415312073e+000	 3.9334566684e-001	 2.6404127185e+000
 1.0373160953e+000	 4.0433084684e-001	 2.6507694205e+000
 1.0329753688e+000	 4.1529513396e-001	 2.6611548558e+000
 1.0285089619e+000	 4.2623645926e-001	 2.6721318027e+000
 1.0239168527e+000	 4.3715274386e-001	 2.6843242200e+000
 1.0705648326e+000	 3.2906872831e-001	 2.5653998947e+000
 1.0670788937e+000	 3.4020277579e-001	 2.5795269174e+000
 1.0634678796e+000	 3.5132802374e-001	 2.5914008540e+000
 1.0597314716e+000	 3.6244247297e-001	 2.6012648393e+000
 1.0558693916e+000	 3.7354410811e-001	 2.6094199501e+000
 1.0518814028e+000	 3.8463089850e-001	 2.6162268198e+000
 1.0477673099e+000	 3.9570079928e-001	 2.6221069816e+000
 1.0435269602e+000	 4.0675175235e-001	 2.6275439183e+000
 1.0391602438e+000	 4.1778168746e-001	 2.6330837978e+000
 1.0346670947e+000	 4.2878852325e-001	 2.6393358750e+000
 1.0300474904e+000	 4.3977016842e-001	 2.6469725418e+000
 1.0769366183e+000	 3.3102727894e-001	 2.5742092194e+000
 1.0734299318e+000	 3.4222759402e-001	 2.5840216376e+000
 1.0697974257e+000	 3.5341905720e-001	 2.5914186522e+000
 1.0660387793e+000	 3.6459965739e-001	 2.5966790820e+000
 1.0621537130e+000	 3.7576736722e-001	 2.6001416844e+000
 1.0581419885e+000	 3.8692014395e-001	 2.6022068029e+000
 1.0540034093e+000	 3.9805593054e-001	 2.6033377325e+000
 1.0497378219e+000	 4.0917265666e-001	 2.6040617819e+000
 1.0453451158e+000	 4.2026823971e-001	 2.6049710105e+000
 1.0408252243e+000	 4.3134058597e-001	 2.6067226200e+000
 1.0361781251e+000	 4.4238759166e-001	 2.6100389817e+000
 1.0833084025e+000	 3.3298582908e-001	 2.5812659173e+000
 1.0797809684e+000	 3.4425241174e-001	 2.5869487142e+000
 1.0761269702e+000	 3.5551009013e-001	 2.5900548259e+000
 1.0723460855e+000	 3.6675684127e-001	 2.5908997313e+000
 1.0684380329e+000	 3.7799062577e-001	 2.5898609181e+000
 1.0644025727e+000	 3.8920938882e-001	 2.5873795638e+000
 1.0602395073e+000	 4.0041106122e-001	 2.5839619250e+000
 1.0559486821e+000	 4.1159356035e-001	 2.5801804127e+000
 1.0515299862e+000	 4.2275479134e-001	 2.5766743316e+000
 1.0469833524e+000	 4.3389264804e-001	 2.5741502614e+000
 1.0423087583e+000	 4.4500501426e-001	 2.5733820611e+000
 9.8100217384e-001	 4.1883068033e-001	 2.9699688437e+000
 9.7648280471e-001	 4.2926188459e-001	 3.0183188573e+000
 9.7184312382e-001	 4.3966509917e-001	 3.0619038277e+000
 9.6708323924e-001	 4.5003831177e-001	 3.1013628335e+000
 9.6220330259e-001	 4.6037950503e-001	 3.1373776675e+000
 9.5720350944e-001	 4.7068665762e-001	 3.1706710695e+000
 9.5208409952e-001	 4.8095774550e-001	 3.2020046461e+000
 9.4684535706e-001	 4.9119074303e-001	 3.2321764766e+000
 9.4148761098e-001	 5.0138362418e-001	 3.2620184041e+000
 9.3601123505e-001	 5.1153436373e-001	 3.2923930166e+000
 9.3041664808e-001	 5.2164093855e-001	 3.3241903231e+000
 9.8713287596e-001	 4.2144813238e-001	 2.9254910603e+000
 9.8258526336e-001	 4.3194452569e-001	 2.9677134324e+000
 9.7791658712e-001	 4.4241275441e-001	 3.0051951968e+000
 9.7312695598e-001	 4.5285079365e-001	 3.0385892477e+000
 9.6821652253e-001	 4.6325661344e-001	 3.0685917494e+000
 9.6318548352e-001	 4.7362817984e-001	 3.0959403305e+000
 9.5803408023e-001	 4.8396345615e-001	 3.1214119555e+000
 9.5276259863e-001	 4.9426040405e-001	 3.1458204711e+000
 9.4737136970e-001	 5.0451698487e-001	 3.1700138288e+000
 9.4186076956e-001	 5.1473116074e-001	 3.1948709862e+000
 9.3623121962e-001	 5.2490089586e-001	 3.2212984930e+000
 9.9326356429e-001	 4.2406557853e-001	 2.8825017933e+000
 9.8868770828e-001	 4.3462716075e-001	 2.9188377462e+000
 9.8399003675e-001	 4.4516040346e-001	 2.9504598316e+000
 9.7917065913e-001	 4.5566326920e-001	 2.9780318056e+000
 9.7422972893e-001	 4.6613371538e-001	 3.0022612543e+000
 9.6916744415e-001	 4.7656969545e-001	 3.0238977553e+000
 9.6398404755e-001	 4.8696916002e-001	 3.0437307053e+000
 9.5867982688e-001	 4.9733005816e-001	 3.0625868132e+000
 9.5325511518e-001	 5.0765033851e-001	 3.0813272581e+000
 9.4771029090e-001	 5.1792795055e-001	 3.1008445161e+000
 9.4204577807e-001	 5.2816084584e-001	 3.1220588595e+000
 9.9939424035e-001	 4.2668301945e-001	 2.8408391619e+000
 9.9479014099e-001	 4.3730979045e-001	 2.8715301114e+000
 9.9006347424e-001	 4.4790804702e-001	 2.8975358052e+000
 9.8521435019e-001	 4.5847573912e-001	 2.9195279606e+000
 9.8024292331e-001	 4.6901081157e-001	 2.9382226904e+000
 9.7514939282e-001	 4.7951120516e-001	 2.9543786377e+000
 9.6993400297e-001	 4.8997485789e-001	 2.9687947651e+000
 9.6459704330e-001	 5.0039970614e-001	 2.9823077989e+000
 9.5913884889e-001	 5.1078368589e-001	 2.9957893279e+000
 9.5355980054e-001	 5.2112473397e-001	 3.0101425594e+000
 9.4786032490e-001	 5.3142078930e-001	 3.0262987377e+000
 1.0055249057e+000	 4.2930045578e-001	 2.8003443763e+000
 1.0008925630e+000	 4.3999241545e-001	 2.8256319007e+000
 9.9613690110e-001	 4.5065568577e-001	 2.8462642227e+000
 9.9125803068e-001	 4.6128820413e-001	 2.8629181702e+000
 9.8625610717e-001	 4.7188790273e-001	 2.8763155413e+000
 9.8113133102e-001	 4.8245270974e-001	 2.8872212161e+000
 9.7588394797e-001	 4.9298055050e-001	 2.8964409136e+000
 9.7051424936e-001	 5.0346934874e-001	 2.9048185921e+000
 9.6502257231e-001	 5.1391702778e-001	 2.9132334932e+000
 9.5940929995e-001	 5.2432151179e-001	 2.9225968317e+000
 9.5367486154e-001	 5.3468072705e-001	 2.9338481372e+000
 1.0116555618e+000	 4.3191788820e-001	 2.7608616724e+000
 1.0069949759e+000	 4.4267503643e-001	 2.7809874842e+000
 1.0022103189e+000	 4.5340332040e-001	 2.7964891594e+000
 9.9730170210e-001	 4.6410066491e-001	 2.8080458361e+000
 9.9226928201e-001	 4.7476498957e-001	 2.8163822072e+000
 9.8711326024e-001	 4.8539420990e-001	 2.8222666150e+000
 9.8183388406e-001	 4.9598623860e-001	 2.8265087812e+000
 9.7643144655e-001	 5.0653898674e-001	 2.8299571680e+000
 9.7090628690e-001	 5.1705036497e-001	 2.8334959726e+000
 9.6525879058e-001	 5.2751828483e-001	 2.8380417553e+000
 9.5948938947e-001	 5.3794065991e-001	 2.8445397081e+000
 1.0177862103e+000	 4.3453531734e-001	 2.7222382508e+000
 1.0130973812e+000	 4.4535765406e-001	 2.7374441698e+000
 1.0082837290e+000	 4.5615095159e-001	 2.7480576036e+000
 1.0033453660e+000	 4.6691312218e-001	 2.7547572477e+000
 9.9828244933e-001	 4.7764207281e-001	 2.7582679494e+000
 9.9309518199e-001	 4.8833570638e-001	 2.7593587906e+000
 9.8778381270e-001	 4.9899192294e-001	 2.7588407958e+000
 9.8234863634e-001	 5.0960862090e-001	 2.7575642598e+000
 9.7678999414e-001	 5.2018369825e-001	 2.7564156959e+000
 9.7110827390e-001	 5.3071505386e-001	 2.7563144081e+000
 9.6530391013e-001	 5.4120058871e-001	 2.7582086898e+000
 1.0239168527e+000	 4.3715274386e-001	 2.6843242200e+000
 1.0191997803e+000	 4.4804026900e-001	 2.6948521479e+000
 1.0143571331e+000	 4.5889858004e-001	 2.7008194020e+000
 1.0093890238e+000	 4.6972557664e-001	 2.7029015291e+000
 1.0042956106e+000	 4.8051915317e-001	 2.7018208385e+000
 9.9907709776e-001	 4.9127719992e-001	 2.6983444800e+000
 9.9373373540e-001	 5.0199760428e-001	 2.6932821336e+000
 9.8826582021e-001	 5.1267825199e-001	 2.6874833095e+000
 9.8267369549e-001	 5.2331702839e-001	 2.6818342553e+000
 9.7695775137e-001	 5.3391181970e-001	 2.6772544750e+000
 9.7111842498e-001	 5.4446051424e-001	 2.6746928638e+000
 1.0300474904e+000	 4.3977016842e-001	 2.6469725418e+000
 1.0253021749e+000	 4.5072288193e-001	 2.6530644391e+000
 1.0204305326e+000	 4.6164620642e-001	 2.6546272095e+000
 1.0154326771e+000	 4.7253802898e-001	 2.6523305897e+000
 1.0103087674e+000	 4.8339623138e-001	 2.6468917063e+000
 1.0050590090e+000	 4.9421869126e-001	 2.6390731536e+000
 9.9968365363e-001	 5.0500328336e-001	 2.6296806717e+000
 9.9418299965e-001	 5.1574788078e-001	 2.6195604222e+000
 9.8855739243e-001	 5.2645035619e-001	 2.6095958599e+000
 9.8280722446e-001	 5.3710858314e-001	 2.6007042035e+000
 9.7693293546e-001	 5.4772043732e-001	 2.5938325093e+000
 1.0361781251e+000	 4.4238759166e-001	 2.6100389817e+000
 1.0314045664e+000	 4.5340549352e-001	 2.6119368456e+000
 1.0265039291e+000	 4.6439383143e-001	 2.6093364418e+000
 1.0214763273e+000	 4.7535047992e-001	 2.6028990786e+000
 1.0163219212e+000	 4.8627330815e-001	 2.5933341007e+000
 1.0110409173e+000	 4.9716018112e-001	 2.5813969715e+000
 1.0056335689e+000	 5.0800896094e-001	 2.5678869451e+000
 1.0001001761e+000	 5.1881750803e-001	 2.5536443228e+000
 9.9444108643e-001	 5.2958368242e-001	 2.5395472939e+000
 9.8865669462e-001	 5.4030534498e-001	 2.5265083622e+000
 9.8274744304e-001	 5.5098035878e-001	 2.5154703625e+000
 1.0423087583e+000	 4.4500501426e-001	 2.5733820611e+000
 1.0375069564e+000	 4.5608810444e-001	 2.5713279059e+000
 1.0325773241e+000	 4.6714145575e-001	 2.5648052312e+000
 1.0275199761e+000	 4.7816293016e-001	 2.5544643414e+000
 1.0223350735e+000	 4.8915038420e-001	 2.5410042437e+000
 1.0170228241e+000	 5.0010167025e-001	 2.5251707419e+000
 1.0115834827e+000	 5.1101463777e-001	 2.5077541063e+000
 1.0060173511e+000	 5.2188713452e-001	 2.4895863171e+000
 1.0003247790e+000	 5.3271700786e-001	 2.4715378779e+000
 9.9450616332e-001	 5.4350210603e-001	 2.4545142026e+000
 9.8856194916e-001	 5.5424027942e-001	 2.4394515793e+000
 9.3041664808e-001	 5.2164093855e-001	 3.3241903231e+000
 9.2470344836e-001	 5.3170283446e-001	 3.3532363447e+000
 9.1887297629e-001	 5.4171651617e-001	 3.3750758162e+000
 9.1292578721e-001	 5.5167997376e-001	 3.3902026486e+000
 9.0686248168e-001	 5.6159120431e-001	 3.3990976185e+000
 9.0068370543e-001	 5.7144821321e-001	 3.4022240522e+000
 8.9439014927e-001	 5.8124901537e-001	 3.4000233336e+000
 8.8798254891e-001	 5.9099163653e-001	 3.3929102585e+000
 8.8146168485e-001	 6.0067411444e-001	 3.3812682571e+000
 8.7482838211e-001	 6.1029450020e-001	 3.3654445105e+000
 8.6808350995e-001	 6.1985085944e-001	 3.3457449883e+000
 9.3623121962e-001	 5.2490089586e-001	 3.2212984930e+000
 9.3048231567e-001	 5.3502567286e-001	 3.2449697174e+000
 9.2461540649e-001	 5.4510193436e-001	 3.2613226669e+000
 9.1863105088e-001	 5.5512765785e-001	 3.2709351864e+000
 9.1252985316e-001	 5.6510082791e-001	 3.2743728869e+000
 9.0631246310e-001	 5.7501943748e-001	 3.2721845814e+000
 8.9997957580e-001	 5.8488148905e-001	 3.2648975343e+000
 8.9353193161e-001	 5.9468499601e-001	 3.2530125453e+000
 8.8697031589e-001	 6.0442798387e-001	 3.2369988924e+000
 8.8029555880e-001	 6.1410849153e-001	 3.2172891596e+000
 8.7350853505e-001	 6.2372457255e-001	 3.1942739772e+000
 9.4204577807e-001	 5.2816084584e-001	 3.1220588595e+000
 9.3626116998e-001	 5.3834850379e-001	 3.1404965479e+000
 9.3035782376e-001	 5.4848734492e-001	 3.1515005625e+000
 9.2433630171e-001	 5.5857533418e-001	 3.1557392825e+000
 9.1819721189e-001	 5.6861044363e-001	 3.1538698580e+000
 9.1194120809e-001	 5.7859065371e-001	 3.1465333854e+000
 9.0556898977e-001	 5.8851395455e-001	 3.1343498814e+000
 8.9908130183e-001	 5.9837834718e-001	 3.1179130822e+000
 8.9247893453e-001	 6.0818184485e-001	 3.0977850901e+000
 8.8576272318e-001	 6.1792247428e-001	 3.0744908961e+000
 8.7893354794e-001	 6.2759827694e-001	 3.0485128054e+000
 9.4786032490e-001	 5.3142078930e-001	 3.0262987377e+000
 9.4204001273e-001	 5.4167132807e-001	 3.0396427832e+000
 9.3610022955e-001	 5.5187274872e-001	 3.0454344696e+000
 9.3004154113e-001	 5.6202300362e-001	 3.0444392115e+000
 9.2386455928e-001	 5.7212005232e-001	 3.0374123067e+000
 9.1756994183e-001	 5.8216186281e-001	 3.0250938339e+000
 9.1115839255e-001	 5.9214641279e-001	 3.0082033388e+000
 9.0463066095e-001	 6.0207169097e-001	 2.9874343314e+000
 8.9798754215e-001	 6.1193569832e-001	 2.9634486210e+000
 8.9122987664e-001	 6.2173644940e-001	 2.9368705159e+000
 8.8435854998e-001	 6.3147197358e-001	 2.9082809187e+000
 9.5367486154e-001	 5.3468072705e-001	 2.9338481372e+000
 9.4781884536e-001	 5.4499414654e-001	 2.9422369828e+000
 9.4184262529e-001	 5.5525814659e-001	 2.9429518657e+000
 9.3574677057e-001	 5.6547066702e-001	 2.9368616429e+000
 9.2953189675e-001	 5.7562965487e-001	 2.9248262730e+000
 9.2319866572e-001	 5.8573306566e-001	 2.9076914231e+000
 9.1674778555e-001	 5.9577886467e-001	 2.8862828513e+000
 9.1018001035e-001	 6.0576502829e-001	 2.8614005869e+000
 9.0349614013e-001	 6.1568954523e-001	 2.8338129370e+000
 8.9669702052e-001	 6.2555041785e-001	 2.8042503481e+000
 8.8978354253e-001	 6.3534566345e-001	 2.7733991529e+000
 9.5948938947e-001	 5.3794065991e-001	 2.8445397081e+000
 9.5359766933e-001	 5.4831696002e-001	 2.8481102640e+000
 9.4758501242e-001	 5.5864353938e-001	 2.8438826868e+000
 9.4145199144e-001	 5.6891832526e-001	 2.8328355895e+000
 9.3519922572e-001	 5.7913925216e-001	 2.8159400131e+000
 9.2882738117e-001	 5.8930426315e-001	 2.7941537284e+000
 9.2233717017e-001	 5.9941131111e-001	 2.7684152988e+000
 9.1572935144e-001	 6.0945836008e-001	 2.7396379291e+000
 9.0900472985e-001	 6.1944338651e-001	 2.7087031277e+000
 9.0216415621e-001	 6.2936438058e-001	 2.6764542120e+000
 8.9520852694e-001	 6.3921934751e-001	 2.6436896911e+000
 9.6530391013e-001	 5.4120058871e-001	 2.7582086898e+000
 9.5937648607e-001	 5.5163976936e-001	 2.7570962527e+000
 9.5332739237e-001	 5.6202892795e-001	 2.7480592783e+000
 9.4715720519e-001	 5.7236597918e-001	 2.7321923598e+000
 9.4086654761e-001	 5.8264884506e-001	 2.7105839531e+000
 9.3445608958e-001	 5.9287545617e-001	 2.6843103589e+000
 9.2792654780e-001	 6.0304375301e-001	 2.6544294524e+000
 9.2127868558e-001	 6.1315168724e-001	 2.6219741835e+000
 9.1451331269e-001	 6.2319722309e-001	 2.5879458791e+000
 9.0763128506e-001	 6.3317833855e-001	 2.5533073767e+000
 9.0063350457e-001	 6.4309302673e-001	 2.5189760245e+000
 9.7111842498e-001	 5.4446051424e-001	 2.6746928638e+000
 9.6515529704e-001	 5.5496257536e-001	 2.6690310363e+000
 9.5906976658e-001	 5.6541431312e-001	 2.6553163497e+000
 9.5286241323e-001	 5.7581362966e-001	 2.6347655141e+000
 9.4653386383e-001	 5.8615843446e-001	 2.6085906458e+000
 9.4008479236e-001	 5.9644664563e-001	 2.5779929168e+000
 9.3351591984e-001	 6.0667619127e-001	 2.5441559348e+000
 9.2682801418e-001	 6.1684501072e-001	 2.5082388812e+000
 9.2002189001e-001	 6.2695105592e-001	 2.4713694362e+000
 9.1309840844e-001	 6.3699229270e-001	 2.4346365244e+000
 9.0605847677e-001	 6.4696670207e-001	 2.3990829155e+000
 9.7693293546e-001	 5.4772043732e-001	 2.5938325093e+000
 9.7093410367e-001	 5.5828537888e-001	 2.5837531205e+000
 9.6481213648e-001	 5.6879969576e-001	 2.5654909325e+000
 9.5856761699e-001	 5.7926127756e-001	 2.5403908234e+000
 9.5220117580e-001	 5.8966802122e-001	 2.5097947318e+000
 9.4571349092e-001	 6.0001783241e-001	 2.4750349585e+000
 9.3910528769e-001	 6.1030862681e-001	 2.4374271832e+000
 9.3237733862e-001	 6.2053833143e-001	 2.3982632235e+000
 9.2553046321e-001	 6.3070488594e-001	 2.3588035679e+000
 9.1856552773e-001	 6.4080624399e-001	 2.3202697163e+000
 9.1148344491e-001	 6.5084037451e-001	 2.2838363641e+000
 9.8274744304e-001	 5.5098035878e-001	 2.5154703625e+000
 9.7671290741e-001	 5.6160818074e-001	 2.5011033897e+000
 9.7055450350e-001	 5.7218507671e-001	 2.4784223410e+000
 9.6427281790e-001	 5.8270892372e-001	 2.4489062316e+000
 9.5786848494e-001	 5.9317760622e-001	 2.4140329023e+000
 9.5134218667e-001	 6.0358901740e-001	 2.3752719598e+000
 9.4469465274e-001	 6.1394106053e-001	 2.3340774153e+000
 9.3792666028e-001	 6.2423165029e-001	 2.2918800491e+000
 9.3103903365e-001	 6.3445871408e-001	 2.2500795355e+000
 9.2403264428e-001	 6.4462019337e-001	 2.2100363612e+000
 9.1690841033e-001	 6.5471404501e-001	 2.1730635768e+000
 9.8856194916e-001	 5.5424027942e-001	 2.4394515793e+000
 9.8249170971e-001	 5.6493098176e-001	 2.4209250694e+000
 9.7629686910e-001	 5.7557045681e-001	 2.3939521366e+000
 9.6997801739e-001	 5.8615656903e-001	 2.3601518209e+000
 9.6353579266e-001	 5.9668719035e-001	 2.3211438660e+000
 9.5697088101e-001	 6.0716020150e-001	 2.2785412836e+000
 9.5028401640e-001	 6.1757349335e-001	 2.2339425984e+000
 9.4347598055e-001	 6.2792496822e-001	 2.1889238040e+000
 9.3654760272e-001	 6.3821254128e-001	 2.1450300628e+000
 9.2949975947e-001	 6.4843414180e-001	 2.1037671868e+000
 9.2233337440e-001	 6.5858771454e-001	 2.0665929382e+000
 8.6808350995e-001	 6.1985085944e-001	 3.3457449883e+000
 8.6122798137e-001	 6.2934127341e-001	 3.3216862386e+000
 8.5426275199e-001	 6.3876383955e-001	 3.2936886027e+000
 8.4718882044e-001	 6.4811667332e-001	 3.2633526755e+000
 8.4000722815e-001	 6.5739790964e-001	 3.2322365153e+000
 8.3271905891e-001	 6.6660570411e-001	 3.2018477473e+000
 8.2532543831e-001	 6.7573823417e-001	 3.1668163441e+000
 8.1782753326e-001	 6.8479370032e-001	 3.1212671196e+000
 8.1022655134e-001	 6.9377032727e-001	 3.0663229776e+000
 8.0252374017e-001	 7.0266636505e-001	 3.0031137237e+000
 7.9472038680e-001	 7.1148009019e-001	 2.9327738451e+000
 8.7350853505e-001	 6.2372457255e-001	 3.1942739772e+000
 8.6661016333e-001	 6.3327429618e-001	 3.1676599291e+000
 8.5960140526e-001	 6.4275574796e-001	 3.1380286870e+000
 8.5248326569e-001	 6.5216703158e-001	 3.1070192931e+000
 8.4525679256e-001	 6.6150627032e-001	 3.0762248103e+000
 8.3792307643e-001	 6.7077160823e-001	 3.0458222887e+000
 8.3048324994e-001	 6.7996121138e-001	 3.0067119860e+000
 8.2293848727e-001	 6.8907326901e-001	 2.9578472502e+000
 8.1529000356e-001	 6.9810599474e-001	 2.9003610070e+000
 8.0753905423e-001	 7.0705762766e-001	 2.8353898805e+000
 7.9968693436e-001	 7.1592643354e-001	 2.7640726435e+000
 8.7893354794e-001	 6.2759827694e-001	 3.0485128054e+000
 8.7199233319e-001	 6.3720731009e-001	 3.0197422337e+000
 8.6494004652e-001	 6.4674764738e-001	 2.9889050676e+000
 8.5777769902e-001	 6.5621738074e-001	 2.9576678536e+000
 8.5050634515e-001	 6.6561462176e-001	 2.9276476084e+000
 8.4312708224e-001	 6.7493750298e-001	 2.8948436156e+000
 8.3564104996e-001	 6.8418417909e-001	 2.8519786221e+000
 8.2804942978e-001	 6.9335282808e-001	 2.8000858327e+000
 8.2035344439e-001	 7.0244165246e-001	 2.7402955626e+000
 8.1255435701e-001	 7.1144888040e-001	 2.6737393101e+000
 8.0465347076e-001	 7.2037276690e-001	 2.6015482110e+000
 8.8435854998e-001	 6.3147197358e-001	 2.9082809187e+000
 8.7737449229e-001	 6.4114031614e-001	 2.8777505997e+000
 8.7027867710e-001	 6.5073953883e-001	 2.8461324918e+000
 8.6307212177e-001	 6.6026772179e-001	 2.8151099409e+000
 8.5575588725e-001	 6.6972296498e-001	 2.7855782520e+000
 8.4833107764e-001	 6.7910338941e-001	 2.7487360673e+000
 8.4079883966e-001	 6.8840713836e-001	 2.7024398086e+000
 8.3316036207e-001	 6.9763237858e-001	 2.6478052166e+000
 8.2541687509e-001	 7.0677730150e-001	 2.5859482693e+000
 8.1756964975e-001	 7.1584012436e-001	 2.5179836120e+000
 8.0961999722e-001	 7.2481909136e-001	 2.4450230380e+000
 8.8978354253e-001	 6.3534566345e-001	 2.7733991529e+000
 8.8275664196e-001	 6.4507331530e-001	 2.7415037342e+000
 8.7561729834e-001	 6.5473142329e-001	 2.7095268516e+000
 8.6836653525e-001	 6.6431805576e-001	 2.6791581780e+000
 8.6100542016e-001	 6.7383130101e-001	 2.6479578620e+000
 8.5353506394e-001	 6.8326926854e-001	 2.6073305341e+000
 8.4595662034e-001	 6.9263009023e-001	 2.5579249692e+000
 8.3827128541e-001	 7.0191192160e-001	 2.5008336158e+000
 8.3048029693e-001	 7.1111294297e-001	 2.4371466009e+000
 8.2258493372e-001	 7.2023136063e-001	 2.3679502015e+000
 8.1458651499e-001	 7.2926540804e-001	 2.2943253750e+000
 8.9520852694e-001	 6.3921934751e-001	 2.6436896911e+000
 8.8813878356e-001	 6.4900630857e-001	 2.6108215613e+000
 8.8095591157e-001	 6.5872330176e-001	 2.5789051394e+000
 8.7366094079e-001	 6.6836838365e-001	 2.5494077877e+000
 8.6625494520e-001	 6.7793963088e-001	 2.5145302285e+000
 8.5873904243e-001	 6.8743514143e-001	 2.4704636387e+000
 8.5111439328e-001	 6.9685303578e-001	 2.4182692645e+000
 8.4338220109e-001	 7.0619145820e-001	 2.3590049788e+000
 8.3554371118e-001	 7.1544857793e-001	 2.2937237510e+000
 8.2760021017e-001	 7.2462259032e-001	 2.2234721824e+000
 8.1955302531e-001	 7.3371171805e-001	 2.1492891064e+000
 9.0063350457e-001	 6.4309302673e-001	 2.5189760245e+000
 8.9352091844e-001	 6.5293929693e-001	 2.4855251823e+000
 8.8629451813e-001	 6.6271517524e-001	 2.4540854079e+000
 8.7895533971e-001	 6.7241870648e-001	 2.4237795992e+000
 8.7150446367e-001	 6.8204795562e-001	 2.3851390784e+000
 8.6394301442e-001	 6.9160100910e-001	 2.3379776091e+000
 8.5627215977e-001	 7.0107597604e-001	 2.2833134643e+000
 8.4849311038e-001	 7.1047098945e-001	 2.2221588611e+000
 8.4060711910e-001	 7.1978420747e-001	 2.1555185070e+000
 8.3261548035e-001	 7.2901381452e-001	 2.0843882214e+000
 8.2451952943e-001	 7.3815802250e-001	 2.0097536273e+000
 9.0605847677e-001	 6.4696670207e-001	 2.3990829155e+000
 8.9890304793e-001	 6.5687228135e-001	 2.3654368390e+000
 8.9163311935e-001	 6.6670704474e-001	 2.3348867254e+000
 8.8424973334e-001	 6.7646902526e-001	 2.3016797404e+000
 8.7675397689e-001	 6.8615627625e-001	 2.2596336134e+000
 8.6914698120e-001	 6.9576687262e-001	 2.2097201537e+000
 8.6142992111e-001	 7.0529891208e-001	 2.1529038238e+000
 8.5360401456e-001	 7.1475051642e-001	 2.0901403016e+000
 8.4567052195e-001	 7.2411983267e-001	 2.0223751264e+000
 8.3763074551e-001	 7.3340503432e-001	 1.9505424263e+000
 8.2948602857e-001	 7.4260432251e-001	 1.8755637243e+000
 9.1148344491e-001	 6.5084037451e-001	 2.2838363641e+000
 9.0428517339e-001	 6.6080526282e-001	 2.2503798799e+000
 8.9697171657e-001	 6.7069891123e-001	 2.2199212332e+000
 8.8954412300e-001	 6.8051934100e-001	 2.1829640993e+000
 8.8200348618e-001	 6.9026459380e-001	 2.1378683889e+000
 8.7435094408e-001	 6.9993273301e-001	 2.0855443407e+000
 8.6658767858e-001	 7.0952184496e-001	 2.0268919618e+000
 8.5871491490e-001	 7.1903004019e-001	 1.9627997015e+000
 8.5073392101e-001	 7.2845545463e-001	 1.8941432167e+000
 8.4264600692e-001	 7.3779625084e-001	 1.8217842272e+000
 8.3445252399e-001	 7.4705061918e-001	 1.7465694576e+000
 9.1690841033e-001	 6.5471404501e-001	 2.1730635768e+000
 9.0966729615e-001	 6.6473824232e-001	 2.1401787287e+000
 9.0231031112e-001	 6.7469077574e-001	 2.1078420053e+000
 8.9483851001e-001	 6.8456965472e-001	 2.0674937969e+000
 8.8725299285e-001	 6.9437290929e-001	 2.0197031954e+000
 8.7955490436e-001	 7.0409859131e-001	 1.9653084786e+000
 8.7174543347e-001	 7.1374477573e-001	 1.9051347424e+000
 8.6382581269e-001	 7.2330956181e-001	 1.8399927058e+000
 8.5579731754e-001	 7.3279107441e-001	 1.7706776175e+000
 8.4766126581e-001	 7.4218746516e-001	 1.6979682599e+000
 8.3941901693e-001	 7.5149691363e-001	 1.6226260476e+000
 9.2233337440e-001	 6.5858771454e-001	 2.0665929382e+000
 9.1504941758e-001	 6.6867122085e-001	 2.0343754013e+000
 9.0764890433e-001	 6.7868263924e-001	 1.9985162758e+000
 9.0013289570e-001	 6.8861996742e-001	 1.9551350709e+000
 8.9250249820e-001	 6.9848122376e-001	 1.9050029422e+000
 8.8475886334e-001	 7.0826444858e-001	 1.8488760006e+000
 8.7690318707e-001	 7.1796770543e-001	 1.7874941587e+000
 8.6893670921e-001	 7.2758908236e-001	 1.7215800879e+000
 8.6086071280e-001	 7.3712669311e-001	 1.6518382862e+000
 8.5267652345e-001	 7.4657867838e-001	 1.5789542523e+000
 8.4438550863e-001	 7.5594320697e-001	 1.5035937620e+000
 7.9472038680e-001	 7.1148009019e-001	 2.9327738451e+000
 7.8681900975e-001	 7.2020850390e-001	 2.8583994416e+000
 7.7881980971e-001	 7.2885126846e-001	 2.7818644732e+000
 7.7072418754e-001	 7.3740674778e-001	 2.7025002292e+000
 7.6253358043e-001	 7.4587333649e-001	 2.6196316768e+000
 7.5424946100e-001	 7.5424946100e-001	 2.5325790543e+000
 7.4587333649e-001	 7.6253358043e-001	 2.4406594885e+000
 7.3740674778e-001	 7.7072418754e-001	 2.3431886275e+000
 7.2885126846e-001	 7.7881980971e-001	 2.2394822780e+000
 7.2020850390e-001	 7.8681900975e-001	 2.1288580388e+000
 7.1148009019e-001	 7.9472038680e-001	 2.0106369200e+000
 7.9968693436e-001	 7.1592643354e-001	 2.7640726435e+000
 7.9173617823e-001	 7.2470939484e-001	 2.6894593574e+000
 7.8368698777e-001	 7.3340617174e-001	 2.6133310796e+000
 7.7554077260e-001	 7.4201511790e-001	 2.5349512566e+000
 7.6729897888e-001	 7.5053461795e-001	 2.4535768859e+000
 7.5896308845e-001	 7.5896308845e-001	 2.3684602621e+000
 7.5053461795e-001	 7.6729897888e-001	 2.2788507484e+000
 7.4201511790e-001	 7.7554077260e-001	 2.1839965629e+000
 7.3340617174e-001	 7.8368698777e-001	 2.0831465694e+000
 7.2470939484e-001	 7.9173617823e-001	 1.9755520625e+000
 7.1592643354e-001	 7.9968693436e-001	 1.8604685368e+000
 8.0465347076e-001	 7.2037276690e-001	 2.6015482110e+000
 7.9665333565e-001	 7.2921027566e-001	 2.5267318280e+000
 7.8855415488e-001	 7.3796106477e-001	 2.4509977470e+000
 7.8035734682e-001	 7.4662347766e-001	 2.3735505157e+000
 7.7206436660e-001	 7.5519588892e-001	 2.2935881301e+000
 7.6367670529e-001	 7.6367670529e-001	 2.2103039209e+000
 7.5519588892e-001	 7.7206436660e-001	 2.1228884636e+000
 7.4662347766e-001	 7.8035734682e-001	 2.0305315052e+000
 7.3796106477e-001	 7.8855415488e-001	 1.9324238936e+000
 7.2921027566e-001	 7.9665333565e-001	 1.8277595005e+000
 7.2037276690e-001	 8.0465347076e-001	 1.7157371269e+000
 8.0961999722e-001	 7.2481909136e-001	 2.4450230380e+000
 8.0157048324e-001	 7.3371114748e-001	 2.3700409715e+000
 7.9342131226e-001	 7.4251594869e-001	 2.2946905232e+000
 7.8517391140e-001	 7.5123182820e-001	 2.2181261186e+000
 7.7682974480e-001	 7.5985715058e-001	 2.1394955546e+000
 7.6839031270e-001	 7.6839031270e-001	 2.0579420101e+000
 7.5985715058e-001	 7.7682974480e-001	 1.9726060827e+000
 7.5123182820e-001	 7.8517391140e-001	 1.8826278403e+000
 7.4251594869e-001	 7.9342131226e-001	 1.7871488760e+000
 7.3371114748e-001	 8.0157048324e-001	 1.6853143554e+000
 7.2481909136e-001	 8.0961999722e-001	 1.5762750435e+000
 8.1458651499e-001	 7.2926540804e-001	 2.2943253750e+000
 8.0648762222e-001	 7.3821201142e-001	 2.2192165908e+000
 7.9828846112e-001	 7.4707082464e-001	 2.1442410563e+000
 7.8999046756e-001	 7.5584017068e-001	 2.0685116897e+000
 7.8159511466e-001	 7.6451840407e-001	 1.9911347275e+000
 7.7310391187e-001	 7.7310391187e-001	 1.9112118466e+000
 7.6451840407e-001	 7.8159511466e-001	 1.8278423129e+000
 7.5584017068e-001	 7.8999046756e-001	 1.7401251452e+000
 7.4707082464e-001	 7.9828846112e-001	 1.6471612812e+000
 7.3821201142e-001	 8.0648762222e-001	 1.5480557349e+000
 7.2926540804e-001	 8.1458651499e-001	 1.4419197333e+000
 8.1955302531e-001	 7.3371171805e-001	 2.1492891064e+000
 8.1140475383e-001	 7.4271286862e-001	 2.0740940499e+000
 8.0315560268e-001	 7.5162569376e-001	 1.9994864755e+000
 7.9480701650e-001	 7.6044850625e-001	 1.9245462494e+000
 7.8636047737e-001	 7.6917965057e-001	 1.8483465275e+000
 7.7781750396e-001	 7.7781750396e-001	 1.7699559751e+000
 7.6917965057e-001	 7.8636047737e-001	 1.6884410141e+000
 7.6044850625e-001	 7.9480701650e-001	 1.6028680848e+000
 7.5162569376e-001	 8.0315560268e-001	 1.5123059103e+000
 7.4271286862e-001	 8.1140475383e-001	 1.4158277511e+000
 7.3371171805e-001	 8.1955302531e-001	 1.3125136370e+000
 8.2451952943e-001	 7.3815802250e-001	 2.0097536273e+000
 8.1632187929e-001	 7.4721372018e-001	 1.9345141543e+000
 8.0802273815e-001	 7.5618055718e-001	 1.8602692734e+000
 7.9962355941e-001	 7.6505683605e-001	 1.7860740995e+000
 7.9112583413e-001	 7.7384089125e-001	 1.7109770324e+000
 7.8253109016e-001	 7.8253109016e-001	 1.6340220605e+000
 7.7384089125e-001	 7.9112583413e-001	 1.5542510936e+000
 7.6505683605e-001	 7.9962355941e-001	 1.4707063092e+000
 7.5618055718e-001	 8.0802273815e-001	 1.3824325024e+000
 7.4721372018e-001	 8.1632187929e-001	 1.2884794236e+000
 7.3815802250e-001	 8.2451952943e-001	 1.1879040932e+000
 8.2948602857e-001	 7.4260432251e-001	 1.8755637243e+000
 8.2123899983e-001	 7.5171456725e-001	 1.8003230331e+000
 8.1288986876e-001	 7.6073541605e-001	 1.7264371918e+000
 8.0444009751e-001	 7.6966516125e-001	 1.6529447127e+000
 7.9589118612e-001	 7.7850212727e-001	 1.5788774116e+000
 7.8724467166e-001	 7.8724467166e-001	 1.5032627832e+000
 7.7850212727e-001	 7.9589118612e-001	 1.4251264047e+000
 7.6966516125e-001	 8.0444009751e-001	 1.3434943554e+000
 7.6073541605e-001	 8.1288986876e-001	 1.2573956372e+000
 7.5171456725e-001	 8.2123899983e-001	 1.1658645839e+000
 7.4260432251e-001	 8.2948602857e-001	 1.0679432449e+000
 8.3445252399e-001	 7.4705061918e-001	 1.7465694576e+000
 8.2615611669e-001	 7.5621541094e-001	 1.6713720253e+000
 8.1775699572e-001	 7.6529027151e-001	 1.5978431103e+000
 8.0925663200e-001	 7.7427348300e-001	 1.5250126234e+000
 8.0065653454e-001	 7.8316335979e-001	 1.4519038204e+000
 7.9195824961e-001	 7.9195824961e-001	 1.3775357362e+000
 7.8316335979e-001	 8.0065653454e-001	 1.3009256471e+000
 7.7427348300e-001	 8.0925663200e-001	 1.2210915499e+000
 7.6529027151e-001	 8.1775699572e-001	 1.1370546406e+000
 7.5621541094e-001	 8.2615611669e-001	 1.0478417825e+000
 7.4705061918e-001	 8.3445252399e-001	 9.5248794650e-001
 8.3941901693e-001	 7.5149691363e-001	 1.6226260476e+000
 8.3107323109e-001	 7.6071625238e-001	 1.5475175670e+000
 8.2262412025e-001	 7.6984512469e-001	 1.4743449369e+000
 8.1407316407e-001	 7.7888180244e-001	 1.4021373220e+000
 8.0542188057e-001	 7.8782458998e-001	 1.3299172969e+000
 7.9667182521e-001	 7.9667182521e-001	 1.2567033255e+000
 7.8782458998e-001	 8.0542188057e-001	 1.1815122696e+000
 7.7888180244e-001	 8.1407316407e-001	 1.1033619139e+000
 7.6984512469e-001	 8.2262412025e-001	 1.0212734918e+000
 7.6071625238e-001	 8.3107323109e-001	 9.3427419849e-001
 7.5149691363e-001	 8.3941901693e-001	 8.4139967528e-001
 8.4438550863e-001	 7.5594320697e-001	 1.5035937620e+000
 8.3599034426e-001	 7.6521709270e-001	 1.4286210831e+000
 8.2749124356e-001	 7.7439997673e-001	 1.3558055018e+000
 8.1888969495e-001	 7.8349012072e-001	 1.2841831511e+000
 8.1018722541e-001	 7.9248581901e-001	 1.2127836613e+000
 8.0138539963e-001	 8.0138539963e-001	 1.1406326720e+000
 7.9248581901e-001	 8.1018722541e-001	 1.0667543746e+000
 7.8349012072e-001	 8.1888969495e-001	 9.9017407093e-001
 7.7439997673e-001	 8.2749124356e-001	 9.0992073334e-001
 7.6521709270e-001	 8.3599034426e-001	 8.2502955016e-001
 7.5594320697e-001	 8.4438550863e-001	 7.3454444299e-001
 7.1148009019e-001	 7.9472038680e-001	 2.0106369200e+000
 7.0266636505e-001	 8.0252374017e-001	 1.8879136872e+000
 6.9377032727e-001	 8.1022655134e-001	 1.7644367732e+000
 6.8479370032e-001	 8.1782753326e-001	 1.6404485577e+000
 6.7573823417e-001	 8.2532543831e-001	 1.5161812101e+000
 6.6660570411e-001	 8.3271905891e-001	 1.3918562929e+000
 6.5739790964e-001	 8.4000722815e-001	 1.2642417130e+000
 6.4811667332e-001	 8.4718882044e-001	 1.1303326718e+000
 6.3876383955e-001	 8.5426275199e-001	 9.9052236947e-001
 6.2934127341e-001	 8.6122798137e-001	 8.4525444482e-001
 6.1985085944e-001	 8.6808350995e-001	 6.9501918604e-001
 7.1592643354e-001	 7.9968693436e-001	 1.8604685368e+000
 7.0705762766e-001	 8.0753905423e-001	 1.7408631032e+000
 6.9810599474e-001	 8.1529000356e-001	 1.6204182311e+000
 6.8907326901e-001	 8.2293848727e-001	 1.4994057653e+000
 6.7996121138e-001	 8.3048324994e-001	 1.3780877551e+000
 6.7077160823e-001	 8.3792307643e-001	 1.2567163513e+000
 6.6150627032e-001	 8.4525679256e-001	 1.1344479893e+000
 6.5216703158e-001	 8.5248326569e-001	 1.0063987221e+000
 6.4275574796e-001	 8.5960140526e-001	 8.7231017930e-001
 6.3327429618e-001	 8.6661016333e-001	 7.3265475107e-001
 6.2372457255e-001	 8.7350853505e-001	 5.8795308496e-001
 7.2037276690e-001	 8.0465347076e-001	 1.7157371269e+000
 7.1144888040e-001	 8.1255435701e-001	 1.5991996600e+000
 7.0244165246e-001	 8.2035344439e-001	 1.4817558232e+000
 6.9335282808e-001	 8.2804942978e-001	 1.3636989219e+000
 6.8418417909e-001	 8.3564104996e-001	 1.2453129921e+000
 6.7493750298e-001	 8.4312708224e-001	 1.1268726672e+000
 6.6561462176e-001	 8.5050634515e-001	 1.0085952474e+000
 6.5621738074e-001	 8.5777769902e-001	 8.8647469253e-001
 6.4674764738e-001	 8.6494004652e-001	 7.5814289511e-001
 6.3720731009e-001	 8.7199233319e-001	 6.2409387109e-001
 6.2759827694e-001	 8.7893354794e-001	 4.8487171989e-001
 7.2481909136e-001	 8.0961999722e-001	 1.5762750435e+000
 7.1584012436e-001	 8.1756964975e-001	 1.4627538705e+000
 7.0677730150e-001	 8.2541687509e-001	 1.3482790741e+000
 6.9763237858e-001	 8.3316036207e-001	 1.2331575617e+000
 6.8840713836e-001	 8.4079883966e-001	 1.1176876077e+000
 6.7910338941e-001	 8.4833107764e-001	 1.0021587056e+000
 6.6972296498e-001	 8.5575588725e-001	 8.8685138267e-001
 6.6026772179e-001	 8.6307212177e-001	 7.7036045173e-001
 6.5073953883e-001	 8.7027867710e-001	 6.4783133246e-001
 6.4114031614e-001	 8.7737449229e-001	 5.1939531504e-001
 6.3147197358e-001	 8.8435854998e-001	 3.8561319769e-001
 7.2926540804e-001	 8.1458651499e-001	 1.4419197333e+000
 7.2023136063e-001	 8.2258493372e-001	 1.3313613311e+000
 7.1111294297e-001	 8.3048029693e-001	 1.2198225584e+000
 7.0191192160e-001	 8.3827128541e-001	 1.1076162081e+000
 6.9263009023e-001	 8.4595662034e-001	 9.9504718648e-001
 6.8326926854e-001	 8.5353506394e-001	 8.8241236439e-001
 6.7383130101e-001	 8.6100542016e-001	 7.7000038799e-001
 6.6431805576e-001	 8.6836653525e-001	 6.5785930757e-001
 6.5473142329e-001	 8.7561729834e-001	 5.4118941071e-001
 6.4507331530e-001	 8.8275664196e-001	 4.1838530952e-001
 6.3534566345e-001	 8.8978354253e-001	 2.9001789970e-001
 7.3371171805e-001	 8.1955302531e-001	 1.3125136370e+000
 7.2462259032e-001	 8.2760021017e-001	 1.2048626241e+000
 7.1544857793e-001	 8.3554371118e-001	 1.0962258052e+000
 7.0619145820e-001	 8.4338220109e-001	 9.8691428098e-001
 6.9685303578e-001	 8.5111439328e-001	 8.7723212097e-001
 6.8743514143e-001	 8.5873904243e-001	 7.6747622783e-001
 6.7793963088e-001	 8.6625494520e-001	 6.5793615827e-001
 6.6836838365e-001	 8.7366094079e-001	 5.4889389496e-001
 6.5872330176e-001	 8.8095591157e-001	 4.3803423314e-001
 6.4900630857e-001	 8.8813878356e-001	 3.2089288292e-001
 6.3921934751e-001	 8.9520852694e-001	 1.9792857369e-001
 7.3815802250e-001	 8.2451952943e-001	 1.1879040932e+000
 7.2901381452e-001	 8.3261548035e-001	 1.0831032221e+000
 7.1978420747e-001	 8.4060711910e-001	 9.7733320405e-001
 7.1047098945e-001	 8.4849311038e-001	 8.7089600533e-001
 7.0107597604e-001	 8.5627215977e-001	 7.6408752411e-001
 6.9160100910e-001	 8.6394301442e-001	 6.5719748287e-001
 6.8204795562e-001	 8.7150446367e-001	 5.5050927320e-001
 6.7241870648e-001	 8.7895533971e-001	 4.4429974702e-001
 6.6271517524e-001	 8.8629451813e-001	 3.3818616863e-001
 6.5293929693e-001	 8.9352091844e-001	 2.2674995200e-001
 6.4309302673e-001	 9.0063350457e-001	 1.0919042682e-001
 7.4260432251e-001	 8.2948602857e-001	 1.0679432449e+000
 7.3340503432e-001	 8.3763074551e-001	 9.6593339533e-001
 7.2411983267e-001	 8.4567052195e-001	 8.6299391410e-001
 7.1475051642e-001	 8.5360401456e-001	 7.5941032244e-001
 7.0529891208e-001	 8.6142992111e-001	 6.5546314367e-001
 6.9576687262e-001	 8.6914698120e-001	 5.5142783813e-001
 6.8615627625e-001	 8.7675397689e-001	 4.4757468574e-001
 6.7646902526e-001	 8.8424973334e-001	 3.4416861015e-001
 6.6670704474e-001	 8.9163311935e-001	 2.4146893874e-001
 6.5687228135e-001	 8.9890304793e-001	 1.3579140966e-001
 6.4696670207e-001	 9.0605847677e-001	 2.3651219376e-002
 7.4705061918e-001	 8.3445252399e-001	 9.5248794650e-001
 7.3779625084e-001	 8.4264600692e-001	 8.5320812060e-001
 7.2845545463e-001	 8.5073392101e-001	 7.5306177484e-001
 7.1903004019e-001	 8.5871491490e-001	 6.5231080333e-001
 7.0952184496e-001	 8.6658767858e-001	 5.5121327890e-001
 6.9993273301e-001	 8.7435094408e-001	 4.5002344459e-001
 6.9026459380e-001	 8.8200348618e-001	 3.4899164807e-001
 6.8051934100e-001	 8.8954412300e-001	 2.4836421216e-001
 6.7069891123e-001	 8.9697171657e-001	 1.4838323557e-001
 6.6080526282e-001	 9.0428517339e-001	 4.7855213820e-002
 6.5084037451e-001	 9.1148344491e-001	-5.8838640779e-002
 7.5149691363e-001	 8.3941901693e-001	 8.4139967528e-001
 7.4218746516e-001	 8.4766126581e-001	 7.4478699291e-001
 7.3279107441e-001	 8.5579731754e-001	 6.4739521918e-001
 7.2330956181e-001	 8.6382581269e-001	 5.4945556420e-001
 7.1374477573e-001	 8.7174543347e-001	 4.5119669907e-001
 7.0409859131e-001	 8.7955490436e-001	 3.5284481818e-001
 6.9437290929e-001	 8.8725299285e-001	 2.5462363916e-001
 6.8456965472e-001	 8.9483851001e-001	 1.5675433330e-001
 6.7469077574e-001	 9.0231031112e-001	 5.9455379991e-002
 6.6473824232e-001	 9.0966729615e-001	-3.7217522696e-002
 6.5471404501e-001	 9.1690841033e-001	-1.3842600288e-001
 7.5594320697e-001	 8.4438550863e-001	 7.3454444299e-001
 7.4657867838e-001	 8.5267652345e-001	 6.4053413872e-001
 7.3712669311e-001	 8.6086071280e-001	 5.4585718851e-001
 7.2758908236e-001	 8.6893670921e-001	 4.5070718376e-001
 7.1796770543e-001	 8.7690318707e-001	 3.5527656401e-001
 7.0826444858e-001	 8.8475886334e-001	 2.5975676427e-001
 6.9848122376e-001	 8.9250249820e-001	 1.6433829413e-001
 6.8861996742e-001	 9.0013289570e-001	 6.9210741481e-002
 6.7868263924e-001	 9.0764890433e-001	-2.5437306324e-002
 6.6867122085e-001	 9.1504941758e-001	-1.1941842956e-001
 6.5858771454e-001	 9.2233337440e-001	-2.1525487728e-001
 6.1985085944e-001	 8.6808350995e-001	 6.9501918604e-001
 6.1029450020e-001	 8.7482838211e-001	 5.4116853375e-001
 6.0067411444e-001	 8.8146168485e-001	 3.8487023577e-001
 5.9099163653e-001	 8.8798254891e-001	 2.2641184335e-001
 5.8124901537e-001	 8.9439014927e-001	 6.6132573181e-002
 5.7144821321e-001	 9.0068370543e-001	-9.5580399226e-002
 5.6159120431e-001	 9.0686248168e-001	-2.5829571639e-001
 5.5167997376e-001	 9.1292578721e-001	-4.2154165827e-001
 5.4171651617e-001	 9.1887297629e-001	-5.8480997756e-001
 5.3170283446e-001	 9.2470344836e-001	-7.4755972481e-001
 5.2164093855e-001	 9.3041664808e-001	-9.0922103886e-001
 6.2372457255e-001	 8.7350853505e-001	 5.8795308496e-001
 6.1410849153e-001	 8.8029555880e-001	 4.3970951024e-001
 6.0442798387e-001	 8.8697031589e-001	 2.8921716359e-001
 5.9468499601e-001	 8.9353193161e-001	 1.3675559773e-001
 5.8488148905e-001	 8.9997957580e-001	-1.7342661919e-002
 5.7501943748e-001	 9.0631246310e-001	-1.7269595905e-001
 5.6510082791e-001	 9.1252985316e-001	-3.2887741848e-001
 5.5512765785e-001	 9.1863105088e-001	-4.8541889986e-001
 5.4510193436e-001	 9.2461540649e-001	-6.4181496513e-001
 5.3502567286e-001	 9.3048231567e-001	-7.9752683299e-001
 5.2490089586e-001	 9.3623121962e-001	-9.5198629467e-001
 6.2759827694e-001	 8.7893354794e-001	 4.8487171989e-001
 6.1792247428e-001	 8.8576272318e-001	 3.4212953045e-001
 6.0818184485e-001	 8.9247893453e-001	 1.9729113889e-001
 5.9837834718e-001	 8.9908130183e-001	 5.0634751659e-002
 5.8851395455e-001	 9.0556898977e-001	-9.7507180631e-002
 5.7859065371e-001	 9.1194120809e-001	-2.4675195614e-001
 5.6861044363e-001	 9.1819721189e-001	-3.9667068472e-001
 5.5857533418e-001	 9.2433630171e-001	-5.4679239111e-001
 5.4848734492e-001	 9.3035782376e-001	-6.9660812960e-001
 5.3834850379e-001	 9.3626116998e-001	-8.4557508222e-001
 5.2816084584e-001	 9.4204577807e-001	-9.9312061384e-001
 6.3147197358e-001	 8.8435854998e-001	 3.8561319769e-001
 6.2173644940e-001	 8.9122987664e-001	 2.4828212370e-001
 6.1193569832e-001	 8.9798754215e-001	 1.0896070143e-001
 6.0207169097e-001	 9.0463066095e-001	-3.2067644599e-002
 5.9214641279e-001	 9.1115839255e-001	-1.7446400902e-001
 5.8216186281e-001	 9.1756994183e-001	-3.1783816567e-001
 5.7212005232e-001	 9.2386455928e-001	-4.6175279711e-001
 5.6202300362e-001	 9.3004154113e-001	-6.0572776275e-001
 5.5187274872e-001	 9.3610022955e-001	-7.4924437563e-001
 5.4167132807e-001	 9.4204001273e-001	-8.9174965882e-001
 5.3142078930e-001	 9.4786032490e-001	-1.0326605539e+000
 6.3534566345e-001	 8.8978354253e-001	 2.9001789970e-001
 6.2555041785e-001	 8.9669702052e-001	 1.5802262453e-001
 6.1568954523e-001	 9.0349614013e-001	 2.4095731150e-002
 6.0576502829e-001	 9.1018001035e-001	-1.1146765815e-001
 5.9577886467e-001	 9.1674778555e-001	-2.4831573730e-001
 5.8573306566e-001	 9.2319866572e-001	-3.8604435965e-001
 5.7562965487e-001	 9.2953189675e-001	-5.2420144994e-001
 5.6547066702e-001	 9.3574677057e-001	-6.6229145272e-001
 5.5525814659e-001	 9.4184262529e-001	-7.9977978633e-001
 5.4499414654e-001	 9.4781884536e-001	-9.3609727206e-001
 5.3468072705e-001	 9.5367486154e-001	-1.0706445101e+000
 6.3921934751e-001	 8.9520852694e-001	 1.9792857369e-001
 6.2936438058e-001	 9.0216415621e-001	 7.1208272072e-002
 6.1944338651e-001	 9.0900472985e-001	-5.7432445431e-002
 6.0945836008e-001	 9.1572935144e-001	-1.8768036046e-001
 5.9941131111e-001	 9.2233717017e-001	-3.1916440060e-001
 5.8930426315e-001	 9.2882738117e-001	-4.5146018203e-001
 5.7913925216e-001	 9.3519922572e-001	-5.8409461968e-001
 5.6891832526e-001	 9.4145199144e-001	-7.1655057156e-001
 5.5864353938e-001	 9.4758501242e-001	-8.4827148489e-001
 5.4831696002e-001	 9.5359766933e-001	-9.7866601274e-001
 5.3794065991e-001	 9.5948938947e-001	-1.1071125715e+000
 6.4309302673e-001	 9.0063350457e-001	 1.0919042682e-001
 6.3317833855e-001	 9.0763128506e-001	-1.2301690126e-002
 6.2319722309e-001	 9.1451331269e-001	-1.3575094878e-001
 6.1315168724e-001	 9.2127868558e-001	-2.6081971454e-001
 6.0304375301e-001	 9.2792654780e-001	-3.8711136028e-001
 5.9287545617e-001	 9.3445608958e-001	-5.1417502459e-001
 5.8264884506e-001	 9.4086654761e-001	-6.4151043610e-001
 5.7236597918e-001	 9.4715720519e-001	-7.6857276928e-001
 5.6202892795e-001	 9.5332739237e-001	-8.9477749787e-001
 5.5163976936e-001	 9.5937648607e-001	-1.0195052137e+000
 5.4120058871e-001	 9.6530391013e-001	-1.1421063799e+000
 6.4696670207e-001	 9.0605847677e-001	 2.3651219376e-002
 6.3699229270e-001	 9.1309840844e-001	-9.2645913832e-002
 6.2695105592e-001	 9.2002189001e-001	-2.1098523976e-001
 6.1684501072e-001	 9.2682801418e-001	-3.3099846249e-001
 6.0667619127e-001	 9.3351591984e-001	-4.5225718591e-001
 5.9644664563e-001	 9.4008479236e-001	-5.7427790384e-001
 5.8615843446e-001	 9.4653386383e-001	-6.9652705458e-001
 5.7581362966e-001	 9.5286241323e-001	-8.1842610375e-001
 5.6541431312e-001	 9.5906976658e-001	-9.3935662037e-001
 5.5496257536e-001	 9.6515529704e-001	-1.0586653126e+000
 5.4446051424e-001	 9.7111842498e-001	-1.1756689906e+000
 6.5084037451e-001	 9.1148344491e-001	-5.8838640779e-002
 6.4080624399e-001	 9.1856552773e-001	-1.6996084540e-001
 6.3070488594e-001	 9.2553046321e-001	-2.8325901297e-001
 6.2053833143e-001	 9.3237733862e-001	-3.9832801319e-001
 6.1030862681e-001	 9.3910528769e-001	-5.1470153774e-001
 6.0001783241e-001	 9.4571349092e-001	-6.3185733874e-001
 5.8966802122e-001	 9.5220117580e-001	-7.4922252957e-001
 5.7926127756e-001	 9.5856761699e-001	-8.6617891051e-001
 5.6879969576e-001	 9.6481213648e-001	-9.8206828278e-001
 5.5828537888e-001	 9.7093410367e-001	-1.0961977159e+000
 5.4772043732e-001	 9.7693293546e-001	-1.2078447349e+000
 6.5471404501e-001	 9.1690841033e-001	-1.3842600288e-001
 6.4462019337e-001	 9.2403264428e-001	-2.4438062463e-001
 6.3445871408e-001	 9.3103903365e-001	-3.5269408999e-001
 6.2423165029e-001	 9.3792666028e-001	-4.6291833024e-001
 6.1394106053e-001	 9.4469465274e-001	-5.7454304976e-001
 6.0358901740e-001	 9.5134218667e-001	-6.8700122928e-001
 5.9317760622e-001	 9.5786848494e-001	-7.9967468924e-001
 5.8270892372e-001	 9.6427281790e-001	-9.1189967397e-001
 5.7218507671e-001	 9.7055450350e-001	-1.0229724191e+000
 5.6160818074e-001	 9.7671290741e-001	-1.1321546656e+000
 5.5098035878e-001	 9.8274744304e-001	-1.2386790855e+000
 6.5858771454e-001	 9.2233337440e-001	-2.1525487728e-001
 6.4843414180e-001	 9.2949975947e-001	-3.1603698324e-001
 6.3821254128e-001	 9.3654760272e-001	-4.1941031257e-001
 6.2792496822e-001	 9.4347598055e-001	-5.2487782019e-001
 6.1757349335e-001	 9.5028401640e-001	-6.3187921324e-001
 6.0716020150e-001	 9.5697088101e-001	-7.3979673583e-001
 5.9668719035e-001	 9.6353579266e-001	-8.4796101106e-001
 5.8615656903e-001	 9.6997801739e-001	-9.5565689982e-001
 5.7557045681e-001	 9.7629686910e-001	-1.0621293370e+000
 5.6493098176e-001	 9.8249170971e-001	-1.1665891069e+000
 5.5424027942e-001	 9.8856194916e-001	-1.2682185228e+000
 5.2164093855e-001	 9.3041664808e-001	-9.0922103886e-001
 5.1153436373e-001	 9.3601123505e-001	-1.0714760433e+000
 5.0138362418e-001	 9.4148761098e-001	-1.2360503710e+000
 4.9119074303e-001	 9.4684535706e-001	-1.4023434569e+000
 4.8095774550e-001	 9.5208409952e-001	-1.5697515130e+000
 4.7068665762e-001	 9.5720350944e-001	-1.7376702393e+000
 4.6037950503e-001	 9.6220330259e-001	-1.9054973719e+000
 4.5003831177e-001	 9.6708323924e-001	-2.0726350537e+000
 4.3966509917e-001	 9.7184312382e-001	-2.2384920212e+000
 4.2926188459e-001	 9.7648280471e-001	-2.4024855958e+000
 4.1883068033e-001	 9.8100217384e-001	-2.5640434754e+000
 5.2490089586e-001	 9.3623121962e-001	-9.5198629467e-001
 5.1473116074e-001	 9.4186076956e-001	-1.1069772839e+000
 5.0451698487e-001	 9.4737136970e-001	-1.2643206161e+000
 4.9426040405e-001	 9.5276259863e-001	-1.4234102144e+000
 4.8396345615e-001	 9.5803408023e-001	-1.5836366169e+000
 4.7362817984e-001	 9.6318548352e-001	-1.7443897887e+000
 4.6325661344e-001	 9.6821652253e-001	-1.9050617627e+000
 4.5285079365e-001	 9.7312695598e-001	-2.0650490959e+000
 4.4241275441e-001	 9.7791658712e-001	-2.2237551314e+000
 4.3194452569e-001	 9.8258526336e-001	-2.3805920571e+000
 4.2144813238e-001	 9.8713287596e-001	-2.5349827547e+000
 5.2816084584e-001	 9.4204577807e-001	-9.9312061384e-001
 5.1792795055e-001	 9.4771029090e-001	-1.1411245697e+000
 5.0765033851e-001	 9.5325511518e-001	-1.2915024188e+000
 4.9733005816e-001	 9.5867982688e-001	-1.4436445319e+000
 4.8696916002e-001	 9.6398404755e-001	-1.5969377430e+000
 4.7656969545e-001	 9.6916744415e-001	-1.7507682626e+000
 4.6613371538e-001	 9.7422972893e-001	-1.9045244102e+000
 4.5566326920e-001	 9.7917065913e-001	-2.0575991553e+000
 4.4516040346e-001	 9.8399003675e-001	-2.2093924533e+000
 4.3462716075e-001	 9.8868770828e-001	-2.3593133698e+000
 4.2406557853e-001	 9.9326356429e-001	-2.5067819854e+000
 5.3142078930e-001	 9.4786032490e-001	-1.0326605539e+000
 5.2112473397e-001	 9.5355980054e-001	-1.1739463680e+000
 5.1078368589e-001	 9.5913884889e-001	-1.3176160471e+000
 5.0039970614e-001	 9.6459704330e-001	-1.4630583100e+000
 4.8997485789e-001	 9.6993400297e-001	-1.6096581992e+000
 4.7951120516e-001	 9.7514939282e-001	-1.7568000950e+000
 4.6901081157e-001	 9.8024292331e-001	-1.9038705396e+000
 4.5847573912e-001	 9.8521435019e-001	-2.0502608611e+000
 4.4790804702e-001	 9.9006347424e-001	-2.1953695826e+000
 4.3730979045e-001	 9.9479014099e-001	-2.3386046112e+000
 4.2668301945e-001	 9.9939424035e-001	-2.4793851960e+000
 5.3468072705e-001	 9.5367486154e-001	-1.0706445101e+000
 5.2432151179e-001	 9.5940929995e-001	-1.2054732809e+000
 5.1391702778e-001	 9.6502257231e-001	-1.3426841986e+000
 5.0346934874e-001	 9.7051424936e-001	-1.4816661714e+000
 4.9298055050e-001	 9.7588394797e-001	-1.6218043066e+000
 4.8245270974e-001	 9.8113133102e-001	-1.7624830231e+000
 4.7188790273e-001	 9.8625610717e-001	-1.9030889688e+000
 4.6128820413e-001	 9.9125803068e-001	-2.0430137248e+000
 4.5065568577e-001	 9.9613690110e-001	-2.1816562885e+000
 4.3999241545e-001	 1.0008925630e+000	-2.3184253241e+000
 4.2930045578e-001	 1.0055249057e+000	-2.4527411741e+000
 5.3794065991e-001	 9.5948938947e-001	-1.1071125715e+000
 5.2751828483e-001	 9.6525879058e-001	-1.2357379002e+000
 5.1705036497e-001	 9.7090628690e-001	-1.3667318531e+000
 5.0653898674e-001	 9.7643144655e-001	-1.4994853122e+000
 4.9598623860e-001	 9.8183388406e-001	-1.6333852483e+000
 4.8539420990e-001	 9.8711326024e-001	-1.7678179345e+000
 4.7476498957e-001	 9.9226928201e-001	-1.9021719532e+000
 4.6410066491e-001	 9.9730170210e-001	-2.0358409830e+000
 4.5340332040e-001	 1.0022103189e+000	-2.1682263527e+000
 4.4267503643e-001	 1.0069949759e+000	-2.2987393532e+000
 4.3191788820e-001	 1.0116555618e+000	-2.4268033001e+000
 5.4120058871e-001	 9.6530391013e-001	-1.1421063799e+000
 5.3071505386e-001	 9.7110827390e-001	-1.2647746642e+000
 5.2018369825e-001	 9.7678999414e-001	-1.3897861285e+000
 5.0960862090e-001	 9.8234863634e-001	-1.5165353551e+000
 4.9899192294e-001	 9.8778381270e-001	-1.6444129221e+000
 4.8833570638e-001	 9.9309518199e-001	-1.7728087169e+000
 4.7764207281e-001	 9.9828244933e-001	-1.9011150341e+000
 4.6691312218e-001	 1.0033453660e+000	-2.0287294432e+000
 4.5615095159e-001	 1.0082837290e+000	-2.1550574133e+000
 4.4535765406e-001	 1.0130973812e+000	-2.2795146856e+000
 4.3453531734e-001	 1.0177862103e+000	-2.4015293849e+000
 5.4446051424e-001	 9.7111842498e-001	-1.1756689906e+000
 5.3391181970e-001	 9.7695775137e-001	-1.2926197172e+000
 5.2331702839e-001	 9.8267369549e-001	-1.4118761386e+000
 5.1267825199e-001	 9.8826582021e-001	-1.5328382068e+000
 5.0199760428e-001	 9.9373373540e-001	-1.6549017952e+000
 4.9127719992e-001	 9.9907709776e-001	-1.7774621122e+000
 4.8051915317e-001	 1.0042956106e+000	-1.8999168902e+000
 4.6972557664e-001	 1.0093890238e+000	-2.0216693331e+000
 4.5889858004e-001	 1.0143571331e+000	-2.1421308121e+000
 4.4804026900e-001	 1.0191997803e+000	-2.2607232957e+000
 4.3715274386e-001	 1.0239168527e+000	-2.3768815112e+000
 5.4772043732e-001	 9.7693293546e-001	-1.2078447349e+000
 5.3710858314e-001	 9.8280722446e-001	-1.3193107712e+000
 5.2645035619e-001	 9.8855739243e-001	-1.4330328536e+000
 5.1574788078e-001	 9.9418299965e-001	-1.5484179168e+000
 5.0500328336e-001	 9.9968365363e-001	-1.6648687621e+000
 4.9421869126e-001	 1.0050590090e+000	-1.7817875725e+000
 4.8339623138e-001	 1.0103087674e+000	-1.8985791921e+000
 4.7253802898e-001	 1.0154326771e+000	-2.0146541539e+000
 4.6164620642e-001	 1.0204305326e+000	-2.1294314445e+000
 4.5072288193e-001	 1.0253021749e+000	-2.2423409933e+000
 4.3977016842e-001	 1.0300474904e+000	-2.3528258793e+000
 5.5098035878e-001	 9.8274744304e-001	-1.2386790855e+000
 5.4030534498e-001	 9.8865669462e-001	-1.3448869697e+000
 5.2958368242e-001	 9.9444108643e-001	-1.4532889631e+000
 5.1881750803e-001	 1.0001001761e+000	-1.5633005389e+000
 5.0800896094e-001	 1.0056335689e+000	-1.6743330048e+000
 4.9716018112e-001	 1.0110409173e+000	-1.7857971190e+000
 4.8627330815e-001	 1.0163219212e+000	-1.8971064600e+000
 4.7535047992e-001	 1.0214763273e+000	-2.0076805354e+000
 4.6439383143e-001	 1.0265039291e+000	-2.1169476144e+000
 4.5340549352e-001	 1.0314045664e+000	-2.2243472752e+000
 4.4238759166e-001	 1.0361781251e+000	-2.3293326567e+000
 5.5424027942e-001	 9.8856194916e-001	-1.2682185228e+000
 5.4350210603e-001	 9.9450616332e-001	-1.3693887536e+000
 5.3271700786e-001	 1.0003247790e+000	-1.4726787405e+000
 5.2188713452e-001	 1.0060173511e+000	-1.5775139955e+000
 5.1101463777e-001	 1.0115834827e+000	-1.6833158564e+000
 5.0010167025e-001	 1.0170228241e+000	-1.7895052041e+000
 4.8915038420e-001	 1.0223350735e+000	-1.8955059243e+000
 4.7816293016e-001	 1.0275199761e+000	-2.0007480956e+000
 4.6714145575e-001	 1.0325773241e+000	-2.1046708910e+000
 4.5608810444e-001	 1.0375069564e+000	-2.2067251809e+000
 4.4500501426e-001	 1.0423087583e+000	-2.3063758308e+000
 4.1883068033e-001	 9.8100217384e-001	-2.5640434754e+000
 4.0837192200e-001	 9.8540181740e-001	-2.7239195124e+000
 3.9788917248e-001	 9.8968102700e-001	-2.8829089876e+000
 3.8738442351e-001	 9.9383982379e-001	-3.0405962064e+000
 3.7685965733e-001	 9.9787827087e-001	-3.1965840088e+000
 3.6631684564e-001	 1.0017964728e+000	-3.3504940481e+000
 3.5575794852e-001	 1.0055945751e+000	-3.5019668741e+000
 3.4518491349e-001	 1.0092727636e+000	-3.6506618274e+000
 3.3459967450e-001	 1.0128312640e+000	-3.7962567541e+000
 3.2400415097e-001	 1.0162703411e+000	-3.9384475501e+000
 3.1340024690e-001	 1.0195902983e+000	-4.0769475443e+000
 4.2144813238e-001	 9.8713287596e-001	-2.5349827547e+000
 4.1092401279e-001	 9.9156001478e-001	-2.6877212640e+000
 4.0037575208e-001	 9.9586596698e-001	-2.8396502279e+000
 3.8980535444e-001	 1.0000507539e+000	-2.9903571464e+000
 3.7921481450e-001	 1.0041144389e+000	-3.1394483377e+000
 3.6860611627e-001	 1.0080571274e+000	-3.2865492134e+000
 3.5798123209e-001	 1.0118789656e+000	-3.4313043502e+000
 3.4734212164e-001	 1.0155801407e+000	-3.5733773659e+000
 3.3669073096e-001	 1.0191608797e+000	-3.7124506062e+000
 3.2602899147e-001	 1.0226214490e+000	-3.8482246550e+000
 3.1535881907e-001	 1.0259621541e+000	-3.9804176766e+000
 4.2406557853e-001	 9.9326356429e-001	-2.5067819854e+000
 4.1347609784e-001	 9.9771819829e-001	-2.6526335440e+000
 4.0286232609e-001	 1.0020508931e+000	-2.7977563970e+000
 3.9222627993e-001	 1.0062616700e+000	-2.9417394180e+000
 3.8156996637e-001	 1.0103505930e+000	-3.0841906563e+000
 3.7089538175e-001	 1.0143177679e+000	-3.2247376117e+000
 3.6020451065e-001	 1.0181633421e+000	-3.3630272969e+000
 3.4949932493e-001	 1.0218875037e+000	-3.4987260946e+000
 3.3878178272e-001	 1.0254904811e+000	-3.6315194193e+000
 3.2805382742e-001	 1.0289725427e+000	-3.7611111931e+000
 3.1731738684e-001	 1.0323339956e+000	-3.8872231475e+000
 4.2668301945e-001	 9.9939424035e-001	-2.4793851960e+000
 4.1602817778e-001	 1.0038763695e+000	-2.6185890184e+000
 4.0534889512e-001	 1.0082358068e+000	-2.7571487558e+000
 3.9464720057e-001	 1.0124725737e+000	-2.8946528651e+000
 3.8392511353e-001	 1.0165867345e+000	-3.0307094128e+000
 3.7318464265e-001	 1.0205783959e+000	-3.1649463506e+000
 3.6242778477e-001	 1.0244477059e+000	-3.2970115705e+000
 3.5165652391e-001	 1.0281948540e+000	-3.4265727451e+000
 3.4087283029e-001	 1.0318200700e+000	-3.5533169638e+000
 3.3007865932e-001	 1.0353236237e+000	-3.6769501756e+000
 3.1927595069e-001	 1.0387058243e+000	-3.7971964500e+000
 4.2930045578e-001	 1.0055249057e+000	-2.4527411741e+000
 4.1858025325e-001	 1.0100345299e+000	-2.5855254029e+000
 4.0783545981e-001	 1.0144207096e+000	-2.7177538950e+000
 3.9706811698e-001	 1.0186834665e+000	-2.8490129308e+000
 3.8628025657e-001	 1.0228228652e+000	-2.9789089111e+000
 3.7547389954e-001	 1.0268390129e+000	-3.1070686364e+000
 3.6465105499e-001	 1.0307320588e+000	-3.2331393559e+000
 3.5381371912e-001	 1.0345021933e+000	-3.3567885919e+000
 3.4296387421e-001	 1.0381496477e+000	-3.4777037520e+000
 3.3210348768e-001	 1.0416746936e+000	-3.5955915386e+000
 3.2123451111e-001	 1.0450776419e+000	-3.7101771688e+000
 4.3191788820e-001	 1.0116555618e+000	-2.4268033001e+000
 4.2113232490e-001	 1.0161926811e+000	-2.5533852935e+000
 4.1032202076e-001	 1.0206056032e+000	-2.6795035622e+000
 3.9948902976e-001	 1.0248943500e+000	-2.8047404800e+000
 3.8863539608e-001	 1.0290589865e+000	-2.9286991301e+000
 3.7776315300e-001	 1.0330996205e+000	-3.0510035907e+000
 3.6687432189e-001	 1.0370164022e+000	-3.1712989792e+000
 3.5597091109e-001	 1.0408095231e+000	-3.2892512626e+000
 3.4505491499e-001	 1.0444792160e+000	-3.4045468456e+000
 3.3412831300e-001	 1.0480257539e+000	-3.5168919478e+000
 3.2319306859e-001	 1.0514494499e+000	-3.6260117819e+000
 4.3453531734e-001	 1.0177862103e+000	-2.4015293849e+000
 4.2368439336e-001	 1.0223508246e+000	-2.5221159999e+000
 4.1280857861e-001	 1.0267904891e+000	-2.6423344926e+000
 4.0190993951e-001	 1.0311052257e+000	-2.7617616277e+000
 3.9099053264e-001	 1.0352951000e+000	-2.8799955489e+000
 3.8005240360e-001	 1.0393602204e+000	-2.9966560721e+000
 3.6909758600e-001	 1.0433007378e+000	-3.1113847269e+000
 3.5812810036e-001	 1.0471168450e+000	-3.2238445537e+000
 3.4714595315e-001	 1.0508087763e+000	-3.3337196691e+000
 3.3615313578e-001	 1.0543768064e+000	-3.4407146095e+000
 3.2515162363e-001	 1.0578212500e+000	-3.5445534695e+000
 4.3715274386e-001	 1.0239168527e+000	-2.3768815112e+000
 4.2623645926e-001	 1.0285089619e+000	-2.4916693850e+000
 4.1529513396e-001	 1.0329753688e+000	-2.6061882447e+000
 4.0433084684e-001	 1.0373160953e+000	-2.7200075715e+000
 3.9334566684e-001	 1.0415312073e+000	-2.8327189761e+000
 3.8234165191e-001	 1.0456208139e+000	-2.9439365032e+000
 3.7132084789e-001	 1.0495850670e+000	-3.0532966700e+000
 3.6028528748e-001	 1.0534241607e+000	-3.1604582528e+000
 3.4923698923e-001	 1.0571383303e+000	-3.2651018287e+000
 3.3817795655e-001	 1.0607278524e+000	-3.3669290877e+000
 3.2711017670e-001	 1.0641930437e+000	-3.4656619286e+000
 4.3977016842e-001	 1.0300474904e+000	-2.3528258793e+000
 4.2878852325e-001	 1.0346670947e+000	-2.4620017072e+000
 4.1778168746e-001	 1.0391602438e+000	-2.5710110406e+000
 4.0675175235e-001	 1.0435269602e+000	-2.6794144287e+000
 3.9570079928e-001	 1.0477673099e+000	-2.7867953849e+000
 3.8463089850e-001	 1.0518814028e+000	-2.8927607023e+000
 3.7354410811e-001	 1.0558693916e+000	-2.9969404935e+000
 3.6244247297e-001	 1.0597314716e+000	-3.0989879649e+000
 3.5132802374e-001	 1.0634678796e+000	-3.1985789375e+000
 3.4020277579e-001	 1.0670788937e+000	-3.2954111261e+000
 3.2906872831e-001	 1.0705648326e+000	-3.3892031937e+000
 4.4238759166e-001	 1.0361781251e+000	-2.3293326567e+000
 4.3134058597e-001	 1.0408252243e+000	-2.4330734674e+000
 4.2026823971e-001	 1.0453451158e+000	-2.5367536095e+000
 4.0917265666e-001	 1.0497378219e+000	-2.6399230781e+000
 3.9805593054e-001	 1.0540034093e+000	-2.7421557516e+000
 3.8692014395e-001	 1.0581419885e+000	-2.8430497207e+000
 3.7576736722e-001	 1.0621537130e+000	-2.9422273305e+000
 3.6459965739e-001	 1.0660387793e+000	-3.0393349448e+000
 3.5341905720e-001	 1.0697974257e+000	-3.1340424447e+000
 3.4222759402e-001	 1.0734299318e+000	-3.2260424764e+000
 3.3102727894e-001	 1.0769366183e+000	-3.3150494625e+000
 4.4500501426e-001	 1.0423087583e+000	-2.3063758308e+000
 4.3389264804e-001	 1.0469833524e+000	-2.4048492594e+000
 4.2275479134e-001	 1.0515299862e+000	-2.5033710366e+000
 4.1159356035e-001	 1.0559486821e+000	-2.6014790059e+000
 4.0041106122e-001	 1.0602395073e+000	-2.6987358992e+000
 3.8920938882e-001	 1.0644025727e+000	-2.7947296828e+000
 3.7799062577e-001	 1.0684380329e+000	-2.8890736013e+000
 3.6675684127e-001	 1.0723460855e+000	-2.9814059338e+000
 3.5551009013e-001	 1.0761269702e+000	-3.0713894711e+000
 3.4425241174e-001	 1.0797809684e+000	-3.1587107310e+000
 3.3298582908e-001	 1.0833084025e+000	-3.2430789272e+000
 3.1340024690e-001	 1.0195902983e+000	-4.0769475443e+000
 3.0278984978e-001	 1.0227914767e+000	-4.2120992195e+000
 2.9217482931e-001	 1.0258742537e+000	-4.3442447077e+000
 2.8155703702e-001	 1.0288390426e+000	-4.4731234311e+000
 2.7093830562e-001	 1.0316862930e+000	-4.5984924434e+000
 2.6032044820e-001	 1.0344164892e+000	-4.7201250729e+000
 2.4970525751e-001	 1.0370301501e+000	-4.8378094825e+000
 2.3909450519e-001	 1.0395278280e+000	-4.9513471621e+000
 2.2848994108e-001	 1.0419101079e+000	-5.0605513684e+000
 2.1789329261e-001	 1.0441776071e+000	-5.1652455272e+000
 2.0730626407e-001	 1.0463309736e+000	-5.2652616140e+000
 3.1535881907e-001	 1.0259621541e+000	-3.9804176766e+000
 3.0468211304e-001	 1.0291833381e+000	-4.1094110223e+000
 2.9400075477e-001	 1.0322853806e+000	-4.2355812804e+000
 2.8331660736e-001	 1.0352686978e+000	-4.3586664184e+000
 2.7263151496e-001	 1.0381337419e+000	-4.4784223131e+000
 2.6194730201e-001	 1.0408810003e+000	-4.5946213300e+000
 2.5126577246e-001	 1.0435109950e+000	-4.7070508158e+000
 2.4058870900e-001	 1.0460242820e+000	-4.8155115196e+000
 2.2991787244e-001	 1.0484214498e+000	-4.9198159589e+000
 2.1925500098e-001	 1.0507031195e+000	-5.0197867470e+000
 2.0860180957e-001	 1.0528699433e+000	-5.1152548972e+000
 3.1731738684e-001	 1.0323339956e+000	-3.8872231475e+000
 3.0657437205e-001	 1.0355751850e+000	-4.0102764101e+000
 2.9582667612e-001	 1.0386964931e+000	-4.1306839926e+000
 2.8507617373e-001	 1.0416983385e+000	-4.2481828086e+000
 2.7432472049e-001	 1.0445811762e+000	-4.3625279852e+000
 2.6357415217e-001	 1.0473454967e+000	-4.4734913755e+000
 2.5282628389e-001	 1.0499918254e+000	-4.5808599802e+000
 2.4208290946e-001	 1.0525207213e+000	-4.6844342949e+000
 2.3134580059e-001	 1.0549327770e+000	-4.7840265990e+000
 2.2061670628e-001	 1.0572286172e+000	-4.8794592041e+000
 2.0989735216e-001	 1.0594088983e+000	-4.9705626782e+000
 3.1927595069e-001	 1.0387058243e+000	-3.7971964500e+000
 3.0846662727e-001	 1.0419670192e+000	-3.9145173883e+000
 2.9765259382e-001	 1.0451075928e+000	-4.0293641640e+000
 2.8683573659e-001	 1.0481279664e+000	-4.1414730540e+000
 2.7601792264e-001	 1.0510285977e+000	-4.2505988807e+000
 2.6520099906e-001	 1.0538099803e+000	-4.3565134542e+000
 2.5438679220e-001	 1.0564726427e+000	-4.4590039200e+000
 2.4357710692e-001	 1.0590171477e+000	-4.5578710285e+000
 2.3277372588e-001	 1.0614440912e+000	-4.6529273441e+000
 2.2197840887e-001	 1.0637541019e+000	-4.7439954105e+000
 2.1119289215e-001	 1.0659478402e+000	-4.8309058916e+000
 3.2123451111e-001	 1.0450776419e+000	-3.7101771688e+000
 3.1035887918e-001	 1.0483588422e+000	-3.8219632088e+000
 2.9947850833e-001	 1.0515186813e+000	-3.9314405104e+000
 2.8859529637e-001	 1.0545575829e+000	-4.0383451483e+000
 2.7771112182e-001	 1.0574760078e+000	-4.1424321026e+000
 2.6682784311e-001	 1.0602744525e+000	-4.2434736291e+000
 2.5594729778e-001	 1.0629534487e+000	-4.3412575291e+000
 2.4507130177e-001	 1.0655135626e+000	-4.4355853381e+000
 2.3420164867e-001	 1.0679553939e+000	-4.5262704507e+000
 2.2334010907e-001	 1.0702795752e+000	-4.6131362002e+000
 2.1248842988e-001	 1.0724867707e+000	-4.6960139115e+000
 3.2319306859e-001	 1.0514494499e+000	-3.6260117819e+000
 3.1225112825e-001	 1.0547506556e+000	-3.7324501695e+000
 3.0130442010e-001	 1.0579297601e+000	-3.8367389419e+000
 2.9035485351e-001	 1.0609871899e+000	-3.9386144215e+000
 2.7940431847e-001	 1.0639234083e+000	-4.0378322276e+000
 2.6845468472e-001	 1.0667389151e+000	-4.1341655696e+000
 2.5750780102e-001	 1.0694342450e+000	-4.2274034364e+000
 2.4656549438e-001	 1.0720099679e+000	-4.3173487005e+000
 2.3562956932e-001	 1.0744666870e+000	-4.4038161551e+000
 2.2470180722e-001	 1.0768050386e+000	-4.4866305039e+000
 2.1378396566e-001	 1.0790256914e+000	-4.5656243224e+000
 3.2515162363e-001	 1.0578212500e+000	-3.5445534695e+000
 3.1414337496e-001	 1.0611424611e+000	-3.6458214214e+000
 3.0313032958e-001	 1.0643408310e+000	-3.7450923657e+000
 2.9211440845e-001	 1.0674167888e+000	-3.8421033409e+000
 2.8109751299e-001	 1.0703708008e+000	-3.9366111045e+000
 2.7008152430e-001	 1.0732033695e+000	-4.0283903473e+000
 2.5906830231e-001	 1.0759150332e+000	-4.1172317985e+000
 2.4805968512e-001	 1.0785063650e+000	-4.2029402415e+000
 2.3705748818e-001	 1.0809779718e+000	-4.2853324595e+000
 2.2606350368e-001	 1.0833304940e+000	-4.3642351316e+000
 2.1507949983e-001	 1.0855646039e+000	-4.4394826985e+000
 3.2711017670e-001	 1.0641930437e+000	-3.4656619286e+000
 3.1603561977e-001	 1.0675342601e+000	-3.5619267800e+000
 3.0495623724e-001	 1.0707518954e+000	-3.6563404973e+000
 2.9387396163e-001	 1.0738463813e+000	-3.7486413193e+000
 2.8279070583e-001	 1.0768181868e+000	-3.8385876597e+000
 2.7170836224e-001	 1.0796678175e+000	-3.9259562385e+000
 2.6062880204e-001	 1.0823958150e+000	-4.0105400991e+000
 2.4955387437e-001	 1.0850027556e+000	-4.0921465321e+000
 2.3848540562e-001	 1.0874892502e+000	-4.1705949254e+000
 2.2742519877e-001	 1.0898559428e+000	-4.2457145629e+000
 2.1637503270e-001	 1.0921035099e+000	-4.3173423902e+000
 3.2906872831e-001	 1.0705648326e+000	-3.3892031937e+000
 3.1792786317e-001	 1.0739260543e+000	-3.4806225450e+000
 3.0678214353e-001	 1.0771629550e+000	-3.5703296762e+000
 2.9563351349e-001	 1.0802759690e+000	-3.6580645286e+000
 2.8448389739e-001	 1.0832655680e+000	-3.7435877086e+000
 2.7333519897e-001	 1.0861322607e+000	-3.8266785333e+000
 2.6218930060e-001	 1.0888765918e+000	-3.9071329555e+000
 2.5104806249e-001	 1.0914991414e+000	-3.9847613919e+000
 2.3991332198e-001	 1.0940005237e+000	-4.0593864740e+000
 2.2878689285e-001	 1.0963813867e+000	-4.1308407442e+000
 2.1767056460e-001	 1.0986424110e+000	-4.1989643183e+000
 3.3102727894e-001	 1.0769366183e+000	-3.3150494625e+000
 3.1982010562e-001	 1.0803178454e+000	-3.4017713235e+000
 3.0860804890e-001	 1.0835740115e+000	-3.4869126885e+000
 2.9739306447e-001	 1.0867055534e+000	-3.5702157201e+000
 2.8617708811e-001	 1.0897129459e+000	-3.6514437735e+000
 2.7496203489e-001	 1.0925967006e+000	-3.7303793506e+000
 2.6374979838e-001	 1.0953573654e+000	-3.8068219311e+000
 2.5254224987e-001	 1.0979955239e+000	-3.8805856996e+000
 2.4134123764e-001	 1.1005117939e+000	-3.9514971935e+000
 2.3014858624e-001	 1.1029068273e+000	-4.0193928928e+000
 2.1896609585e-001	 1.1051813088e+000	-4.0841167748e+000
 3.3298582908e-001	 1.0833084025e+000	-3.2430789272e+000
 3.2171234759e-001	 1.0867096348e+000	-3.3252418602e+000
 3.1043395382e-001	 1.0899850663e+000	-3.4059485941e+000
 2.9915261501e-001	 1.0931351363e+000	-3.4849440503e+000
 2.8787027840e-001	 1.0961603222e+000	-3.5619949070e+000
 2.7658887040e-001	 1.0990611389e+000	-3.6368874601e+000
 2.6531029577e-001	 1.1018381374e+000	-3.7094253549e+000
 2.5403643688e-001	 1.1044919048e+000	-3.7794272089e+000
 2.4276915293e-001	 1.1070230625e+000	-3.8467241526e+000
 2.3151027929e-001	 1.1094322663e+000	-3.9111573080e+000
 2.2026162677e-001	 1.1117202050e+000	-3.9725752311e+000
 2.0730626407e-001	 1.0463309736e+000	-5.2652616140e+000
 1.9673212103e-001	 1.0483705887e+000	-5.3606555173e+000
 1.8617092836e-001	 1.0502974924e+000	-5.4515608425e+000
 1.7562431451e-001	 1.0521124220e+000	-5.5378907454e+000
 1.6509388265e-001	 1.0538161425e+000	-5.6195612212e+000
 1.5458121025e-001	 1.0554094459e+000	-5.6964895363e+000
 1.4408784856e-001	 1.0568931500e+000	-5.7685927188e+000
 1.3361532224e-001	 1.0582680982e+000	-5.8357861210e+000
 1.2316512893e-001	 1.0595351578e+000	-5.8979820628e+000
 1.1273873891e-001	 1.0606952198e+000	-5.9550885664e+000
 1.0233759476e-001	 1.0617491975e+000	-6.0070081913e+000
 2.0860180957e-001	 1.0528699433e+000	-5.1152548972e+000
 1.9796158419e-001	 1.0549223048e+000	-5.2062875681e+000
 1.8733439011e-001	 1.0568612506e+000	-5.2930335238e+000
 1.7672186595e-001	 1.0586875225e+000	-5.3754119758e+000
 1.6612562493e-001	 1.0604018903e+000	-5.4533440316e+000
 1.5554725434e-001	 1.0620051509e+000	-5.5267510511e+000
 1.4498831515e-001	 1.0634981273e+000	-5.5955530666e+000
 1.3445034153e-001	 1.0648816681e+000	-5.6596672774e+000
 1.2393484049e-001	 1.0661566461e+000	-5.7190066299e+000
 1.1344329150e-001	 1.0673239578e+000	-5.7734784942e+000
 1.0297714615e-001	 1.0683845223e+000	-5.8229834448e+000
 2.0989735216e-001	 1.0594088983e+000	-4.9705626782e+000
 1.9919104459e-001	 1.0614740062e+000	-5.0574130554e+000
 1.8849784924e-001	 1.0634249940e+000	-5.1401709923e+000
 1.7781941493e-001	 1.0652626082e+000	-5.2187609380e+000
 1.6715736488e-001	 1.0669876232e+000	-5.2931083583e+000
 1.5651329626e-001	 1.0686008410e+000	-5.3631380148e+000
 1.4588877971e-001	 1.0701030898e+000	-5.4287723102e+000
 1.3528535894e-001	 1.0714952232e+000	-5.4899297123e+000
 1.2470455032e-001	 1.0727781196e+000	-5.5465232672e+000
 1.1414784251e-001	 1.0739526810e+000	-5.5984592145e+000
 1.0361669611e-001	 1.0750198322e+000	-5.6456357110e+000
 2.1119289215e-001	 1.0659478402e+000	-4.8309058916e+000
 2.0042050252e-001	 1.0680256945e+000	-4.9137417532e+000
 1.8966130605e-001	 1.0699887243e+000	-4.9926727419e+000
 1.7891696172e-001	 1.0718376807e+000	-5.0676277744e+000
 1.6818910277e-001	 1.0735733430e+000	-5.1385359688e+000
 1.5747933624e-001	 1.0751965180e+000	-5.2053248429e+000
 1.4678924246e-001	 1.0767080390e+000	-5.2679185820e+000
 1.3612037468e-001	 1.0781087650e+000	-5.3262363881e+000
 1.2547425861e-001	 1.0793995797e+000	-5.3801909243e+000
 1.1485239210e-001	 1.0805813908e+000	-5.4296868637e+000
 1.0425624478e-001	 1.0816551288e+000	-5.4746195536e+000
 2.1248842988e-001	 1.0724867707e+000	-4.6960139115e+000
 2.0164995830e-001	 1.0745773714e+000	-4.7749919792e+000
 1.9082476082e-001	 1.0765524432e+000	-4.8502468918e+000
 1.8001450658e-001	 1.0784127417e+000	-4.9217113108e+000
 1.6922083886e-001	 1.0801590512e+000	-4.9893173479e+000
 1.5844537453e-001	 1.0817921834e+000	-5.0529946784e+000
 1.4768970365e-001	 1.0833129766e+000	-5.1126687277e+000
 1.3695538896e-001	 1.0847222952e+000	-5.1682589434e+000
 1.2624396556e-001	 1.0860210283e+000	-5.2196771658e+000
 1.1555694047e-001	 1.0872100891e+000	-5.2668261082e+000
 1.0489579234e-001	 1.0882904138e+000	-5.3095979574e+000
 2.1378396566e-001	 1.0790256914e+000	-4.5656243224e+000
 2.0287941224e-001	 1.0811290384e+000	-4.6408903631e+000
 1.9198821384e-001	 1.0831161521e+000	-4.7126099505e+000
 1.8111204980e-001	 1.0849877929e+000	-4.7807188172e+000
 1.7025257340e-001	 1.0867447496e+000	-4.8451514566e+000
 1.5941141138e-001	 1.0883878389e+000	-4.9058391492e+000
 1.4859016348e-001	 1.0899179044e+000	-4.9627080641e+000
 1.3779040199e-001	 1.0913358156e+000	-5.0156774501e+000
 1.2701367135e-001	 1.0926424670e+000	-5.0646579287e+000
 1.1626148778e-001	 1.0938387774e+000	-5.1095499025e+000
 1.0553533894e-001	 1.0949256889e+000	-5.1502420888e+000
 2.1507949983e-001	 1.0855646039e+000	-4.4394826985e+000
 2.0410886464e-001	 1.0876806972e+000	-4.5111716211e+000
 1.9315166541e-001	 1.0896798529e+000	-4.5794865890e+000
 1.8220959164e-001	 1.0915628358e+000	-4.6443657787e+000
 1.7128430664e-001	 1.0933304397e+000	-4.7057455009e+000
 1.6037744702e-001	 1.0949834862e+000	-4.7635581357e+000
 1.4949062218e-001	 1.0965228239e+000	-4.8177301451e+000
 1.3862541397e-001	 1.0979493276e+000	-4.8681801790e+000
 1.2778337617e-001	 1.0992638974e+000	-4.9148172885e+000
 1.1696603420e-001	 1.1004674575e+000	-4.9575392572e+000
 1.0617488473e-001	 1.1015609556e+000	-4.9962310641e+000
 2.1637503270e-001	 1.0921035099e+000	-4.3173423902e+000
 2.0533831581e-001	 1.0942323495e+000	-4.3855783404e+000
 1.9431511582e-001	 1.0962435471e+000	-4.4506094210e+000
 1.8330713239e-001	 1.0981378722e+000	-4.5123756733e+000
 1.7231603886e-001	 1.0999161232e+000	-4.5708147082e+000
 1.6134348169e-001	 1.1015791268e+000	-4.6258595458e+000
 1.5039107999e-001	 1.1031277368e+000	-4.6774365356e+000
 1.3946042512e-001	 1.1045628331e+000	-4.7254633745e+000
 1.2855308023e-001	 1.1058853212e+000	-4.7698472340e+000
 1.1767057993e-001	 1.1070961309e+000	-4.8104830135e+000
 1.0681442989e-001	 1.1081962157e+000	-4.8472517272e+000
 2.1767056460e-001	 1.0986424110e+000	-4.1989643183e+000
 2.0656776606e-001	 1.1007839969e+000	-4.2638607694e+000
 1.9547856535e-001	 1.1028072364e+000	-4.3257187912e+000
 1.8440467232e-001	 1.1047129036e+000	-4.3844797582e+000
 1.7334777031e-001	 1.1065018018e+000	-4.4400821113e+000
 1.6230951564e-001	 1.1081747626e+000	-4.4924590975e+000
 1.5129153712e-001	 1.1097326447e+000	-4.5415365946e+000
 1.4029543564e-001	 1.1111763336e+000	-4.5872310360e+000
 1.2932278371e-001	 1.1125067400e+000	-4.6294474497e+000
 1.1837512512e-001	 1.1137247994e+000	-4.6680776275e+000
 1.0745397457e-001	 1.1148314709e+000	-4.7029984337e+000
 2.1896609585e-001	 1.1051813088e+000	-4.0841167748e+000
 2.0779721570e-001	 1.1073356410e+000	-4.1457766160e+000
 1.9664201430e-001	 1.1093709224e+000	-4.2045625708e+000
 1.8550221169e-001	 1.1112879318e+000	-4.2604168633e+000
 1.7437950123e-001	 1.1130874771e+000	-4.3132783405e+000
 1.6327554910e-001	 1.1147703950e+000	-4.3630801102e+000
 1.5219199380e-001	 1.1163375493e+000	-4.4097472645e+000
 1.4113044575e-001	 1.1177898307e+000	-4.4531947083e+000
 1.3009248681e-001	 1.1191281555e+000	-4.4933251056e+000
 1.1907966996e-001	 1.1203534645e+000	-4.5300269607e+000
 1.0809351893e-001	 1.1214667227e+000	-4.5631728444e+000
 2.2026162677e-001	 1.1117202050e+000	-3.9725752311e+000
 2.0902666503e-001	 1.1138872834e+000	-4.0310908525e+000
 1.9780546296e-001	 1.1159346068e+000	-4.0868959604e+000
 1.8659975079e-001	 1.1178629583e+000	-4.1399331912e+000
 1.7541123190e-001	 1.1196731508e+000	-4.1901414223e+000
 1.6424158232e-001	 1.1213660258e+000	-4.2374533019e+000
 1.5309245026e-001	 1.1229424523e+000	-4.2817928687e+000
 1.4196545564e-001	 1.1244033263e+000	-4.3230732787e+000
 1.3086218971e-001	 1.1257495693e+000	-4.3611946555e+000
 1.1978421463e-001	 1.1269821280e+000	-4.3960420787e+000
 1.0873306313e-001	 1.1281019728e+000	-4.4274837244e+000
 1.0233759476e-001	 1.0617491975e+000	-6.0070081913e+000
 9.1961560411e-002	 1.0626981608e+000	-6.0539056237e+000
 8.1613602879e-002	 1.0635429000e+000	-6.0959748269e+000
 7.1295101398e-002	 1.0642843918e+000	-6.1331735394e+000
 6.1007405798e-002	 1.0649236317e+000	-6.1654507382e+000
 5.0751836321e-002	 1.0654616337e+000	-6.1927460860e+000
 4.0529683456e-002	 1.0658994288e+000	-6.2149895066e+000
 3.0342207813e-002	 1.0662380646e+000	-6.2321008907e+000
 2.0190640010e-002	 1.0664786046e+000	-6.2439899324e+000
 1.0076180596e-002	 1.0666221265e+000	-6.2505560957e+000
 0.0000000000e+000	 1.0666697223e+000	-6.2516912841e+000
 1.0297714615e-001	 1.0683845223e+000	-5.8229834448e+000
 9.2536267529e-002	 1.0693394161e+000	-5.8676930340e+000
 8.2123641186e-002	 1.0701894344e+000	-5.9078123649e+000
 7.1740654976e-002	 1.0709355601e+000	-5.9433005528e+000
 6.1388667167e-002	 1.0715787949e+000	-5.9741066047e+000
 5.1069006250e-002	 1.0721201591e+000	-6.0001688266e+000
 4.0782970781e-002	 1.0725606901e+000	-6.0214143669e+000
 3.0531829246e-002	 1.0729014423e+000	-6.0377588954e+000
 2.0316819954e-002	 1.0731434855e+000	-6.0491064207e+000
 1.0139150958e-002	 1.0732879043e+000	-6.0553492447e+000
 0.0000000000e+000	 1.0733357975e+000	-6.0563704844e+000
 1.0361669611e-001	 1.0750198322e+000	-5.6456357110e+000
 9.3110973354e-002	 1.0759806564e+000	-5.6882328633e+000
 8.2633678344e-002	 1.0768359539e+000	-5.7264690400e+000
 7.2186207551e-002	 1.0775867135e+000	-5.7603049920e+000
 6.1769927677e-002	 1.0782339431e+000	-5.7896899700e+000
 5.1386175466e-002	 1.0787786695e+000	-5.8145610912e+000
 4.1036257536e-002	 1.0792219365e+000	-5.8348428475e+000
 3.0721450252e-002	 1.0795648050e+000	-5.8504467578e+000
 2.0442999614e-002	 1.0798083513e+000	-5.8612711646e+000
 1.0202121178e-002	 1.0799536671e+000	-5.8672011756e+000
 0.0000000000e+000	 1.0800018578e+000	-5.8681110402e+000
 1.0425624478e-001	 1.0816551288e+000	-5.4746195536e+000
 9.3685678029e-002	 1.0826218835e+000	-5.5151788156e+000
 8.3143714482e-002	 1.0834824601e+000	-5.5515978759e+000
 7.2631759235e-002	 1.0842378535e+000	-5.5838394082e+000
 6.2151187425e-002	 1.0848890781e+000	-5.6118531494e+000
 5.1703344046e-002	 1.0854371666e+000	-5.6355752226e+000
 4.1289543783e-002	 1.0858831696e+000	-5.6549276094e+000
 3.0911070878e-002	 1.0862281543e+000	-5.6698177733e+000
 2.0569179022e-002	 1.0864732039e+000	-5.6801384347e+000
 1.0265091272e-002	 1.0866194166e+000	-5.6857674983e+000
 0.0000000000e+000	 1.0866679047e+000	-5.6865702874e+000
 1.0489579234e-001	 1.0882904138e+000	-5.3095979574e+000
 9.4260381698e-002	 1.0892630989e+000	-5.3481928979e+000
 8.3653749727e-002	 1.0901289546e+000	-5.3828600846e+000
 7.3077310138e-002	 1.0908889819e+000	-5.4135644313e+000
 6.2532446505e-002	 1.0915442013e+000	-5.4402564317e+000
 5.2020512072e-002	 1.0920956520e+000	-5.4628714377e+000
 4.1542829587e-002	 1.0925443910e+000	-5.4813290935e+000
 3.1100691172e-002	 1.0928914920e+000	-5.4955329287e+000
 2.0695358208e-002	 1.0931380448e+000	-5.5053701103e+000
 1.0328061256e-002	 1.0932851544e+000	-5.5107113551e+000
 0.0000000000e+000	 1.0933339400e+000	-5.5114130239e+000
 1.0553533894e-001	 1.0949256889e+000	-5.1502420888e+000
 9.4835084506e-002	 1.0959043044e+000	-5.1869451819e+000
 8.4163784208e-002	 1.0967754392e+000	-5.2199248305e+000
 7.3522860374e-002	 1.0975401004e+000	-5.2491485351e+000
 6.2913705014e-002	 1.0981993146e+000	-5.2745678465e+000
 5.2337679621e-002	 1.0987541275e+000	-5.2961175959e+000
 4.1796115011e-002	 1.0992056024e+000	-5.3137152902e+000
 3.1290311182e-002	 1.0995548196e+000	-5.3272606726e+000
 2.0821537206e-002	 1.0998028757e+000	-5.3366354510e+000
 1.0391031145e-002	 1.0999508823e+000	-5.3417031928e+000
 0.0000000000e+000	 1.0999999653e+000	-5.3423112836e+000
 1.0617488473e-001	 1.1015609556e+000	-4.9962310641e+000
 9.5409786595e-002	 1.1025455016e+000	-5.0311135744e+000
 8.4673818051e-002	 1.1034219154e+000	-5.0624690023e+000
 7.3968410052e-002	 1.1041912105e+000	-5.0902678119e+000
 6.3294963045e-002	 1.1048544196e+000	-5.1144629395e+000
 5.2654846774e-002	 1.1054125947e+000	-5.1349889755e+000
 4.2049400119e-002	 1.1058668055e+000	-5.1517615169e+000
 3.1479930955e-002	 1.1062181390e+000	-5.1646766948e+000
 2.0947716045e-002	 1.1064676983e+000	-5.1736108769e+000
 1.0454000956e-002	 1.1066166018e+000	-5.1784205447e+000
 0.0000000000e+000	 1.1066659822e+000	-5.1789441182e+000
 1.0681442989e-001	 1.1081962157e+000	-4.8472517272e+000
 9.5984488109e-002	 1.1091866921e+000	-4.8803835967e+000
 8.5183851384e-002	 1.1100683851e+000	-4.9101769941e+000
 7.4413959286e-002	 1.1108423139e+000	-4.9366057535e+000
 6.3676220696e-002	 1.1115095179e+000	-4.9596245560e+000
 5.2972013611e-002	 1.1120710551e+000	-4.9791680587e+000
 4.2302684973e-002	 1.1125280019e+000	-4.9951502043e+000
 3.1669550538e-002	 1.1128814517e+000	-5.0074637126e+000
 2.1073894759e-002	 1.1131325142e+000	-5.0159797562e+000
 1.0516970703e-002	 1.1132823146e+000	-5.0205478183e+000
 0.0000000000e+000	 1.1133319925e+000	-5.0209973866e+000
 1.0745397457e-001	 1.1148314709e+000	-4.7029984337e+000
 9.6559189193e-002	 1.1158278776e+000	-4.7344481711e+000
 8.5693884335e-002	 1.1167148497e+000	-4.7627404931e+000
 7.4859508185e-002	 1.1174934124e+000	-4.7878530420e+000
 6.4057478062e-002	 1.1181646112e+000	-4.8097426319e+000
 5.3289180210e-002	 1.1187295106e+000	-4.8283443238e+000
 4.2555969638e-002	 1.1191891933e+000	-4.8435706896e+000
 3.1859169980e-002	 1.1195447594e+000	-4.8553112660e+000
 2.1200073378e-002	 1.1197973251e+000	-4.8634322011e+000
 1.0579940404e-002	 1.1199480224e+000	-4.8677760924e+000
 0.0000000000e+000	 1.1199979978e+000	-4.8681635523e+000
 1.0809351893e-001	 1.1214667227e+000	-4.5631728444e+000
 9.7133889991e-002	 1.1224690599e+000	-4.5930074150e+000
 8.6203917031e-002	 1.1233613110e+000	-4.6198582759e+000
 7.5305056863e-002	 1.1241445076e+000	-4.6437073464e+000
 6.4438735237e-002	 1.1248197012e+000	-4.6645139922e+000
 5.3606346650e-002	 1.1253879628e+000	-4.6822140451e+000
 4.2809254177e-002	 1.1258503814e+000	-4.6967190177e+000
 3.2048789327e-002	 1.1262080637e+000	-4.7079155191e+000
 2.1326251934e-002	 1.1264621327e+000	-4.7156648702e+000
 1.0642910073e-002	 1.1266137269e+000	-4.7198029206e+000
 0.0000000000e+000	 1.1266639997e+000	-4.7201414877e+000
 1.0873306313e-001	 1.1281019728e+000	-4.4274837244e+000
 9.7708590645e-002	 1.1291102404e+000	-4.4557684424e+000
 8.6713949601e-002	 1.1300077707e+000	-4.4812360113e+000
 7.5750605430e-002	 1.1307956011e+000	-4.5038731271e+000
 6.4819992318e-002	 1.1314747896e+000	-4.5236421570e+000
 5.3923513013e-002	 1.1320464133e+000	-4.5404800993e+000
 4.3062538653e-002	 1.1325115679e+000	-4.5542977484e+000
 3.2238408627e-002	 1.1328713664e+000	-4.5649790689e+000
 2.1452430459e-002	 1.1331269386e+000	-4.5723807785e+000
 1.0705879726e-002	 1.1332794297e+000	-4.5763321415e+000
 0.0000000000e+000	 1.1333300000e+000	-4.5766362853e+000
 1.1333300000e+000	 0.0000000000e+000	 2.4462394826e+000
 1.1332794297e+000	 1.0705879726e-002	 2.4407837033e+000
 1.1331269386e+000	 2.1452430459e-002	 2.4383889941e+000
 1.1328713664e+000	 3.2238408627e-002	 2.4385092648e+000
 1.1325115679e+000	 4.3062538653e-002	 2.4405882911e+000
 1.1320464133e+000	 5.3923513013e-002	 2.4440588692e+000
 1.1314747896e+000	 6.4819992318e-002	 2.4483444263e+000
 1.1307956011e+000	 7.5750605430e-002	 2.4528607962e+000
 1.1300077707e+000	 8.6713949601e-002	 2.4570181609e+000
 1.1291102404e+000	 9.7708590645e-002	 2.4602231566e+000
 1.1281019728e+000	 1.0873306313e-001	 2.4618811425e+000
 1.1399970000e+000	 0.0000000000e+000	 2.5149400121e+000
 1.1399461323e+000	 1.0768858824e-002	 2.5093131614e+000
 1.1397927441e+000	 2.1578627908e-002	 2.5066323842e+000
 1.1395356684e+000	 3.2428056365e-002	 2.5063476697e+000
 1.1391737533e+000	 4.3315861116e-002	 2.5078980154e+000
 1.1387058624e+000	 5.4240726942e-002	 2.5107108172e+000
 1.1381308760e+000	 6.5201306578e-002	 2.5142035083e+000
 1.1374476921e+000	 7.6196220818e-002	 2.5177853711e+000
 1.1366552271e+000	 8.7224058663e-002	 2.5208595205e+000
 1.1357524170e+000	 9.8283377490e-002	 2.5228250596e+000
 1.1347382181e+000	 1.0937270325e-001	 2.5230794031e+000
 1.1466640000e+000	 0.0000000000e+000	 2.5812818643e+000
 1.1466128348e+000	 1.0831837922e-002	 2.5755052503e+000
 1.1464585495e+000	 2.1704825357e-002	 2.5725601560e+000
 1.1461999704e+000	 3.2617704104e-002	 2.5718933046e+000
 1.1458359388e+000	 4.3569183579e-002	 2.5729395553e+000
 1.1453653115e+000	 5.4557940872e-002	 2.5751215159e+000
 1.1447869624e+000	 6.5582620838e-002	 2.5778512102e+000
 1.1440997830e+000	 7.6641836207e-002	 2.5805319252e+000
 1.1433026835e+000	 8.7734167726e-002	 2.5825602370e+000
 1.1423945936e+000	 9.8858164336e-002	 2.5833282152e+000
 1.1413744634e+000	 1.1001234337e-001	 2.5822258025e+000
 1.1533310000e+000	 0.0000000000e+000	 2.6451230918e+000
 1.1532795373e+000	 1.0894817020e-002	 2.6392176759e+000
 1.1531243550e+000	 2.1831022807e-002	 2.6360301162e+000
 1.1528642725e+000	 3.2807351844e-002	 2.6350045146e+000
 1.1524981242e+000	 4.3822506043e-002	 2.6355722213e+000
 1.1520247606e+000	 5.4875154803e-002	 2.6371516556e+000
 1.1514430488e+000	 6.5963935099e-002	 2.6391500021e+000
 1.1507518740e+000	 7.7087451596e-002	 2.6409650932e+000
 1.1499501400e+000	 8.8244276789e-002	 2.6419874771e+000
 1.1490367701e+000	 9.9432951182e-002	 2.6416026713e+000
 1.1480107086e+000	 1.1065198348e-001	 2.6391935991e+000
 1.1599980000e+000	 0.0000000000e+000	 2.7063262484e+000
 1.1599462398e+000	 1.0957796118e-002	 2.7003123758e+000
 1.1597901604e+000	 2.1957220257e-002	 2.6969040412e+000
 1.1595285745e+000	 3.2996999584e-002	 2.6955433616e+000
 1.1591603096e+000	 4.4075828507e-002	 2.6956587955e+000
 1.1586842097e+000	 5.5192368734e-002	 2.6966651615e+000
 1.1580991352e+000	 6.6345249361e-002	 2.6979653615e+000
 1.1574039650e+000	 7.7533066986e-002	 2.6989522983e+000
 1.1565975964e+000	 8.8754385853e-002	 2.6990109862e+000
 1.1556789467e+000	 1.0000773803e-001	 2.6975208534e+000
 1.1546469539e+000	 1.1129162360e-001	 2.6938582362e+000
 1.1666650000e+000	 0.0000000000e+000	 2.7647582604e+000
 1.1666129423e+000	 1.1020775216e-002	 2.7586553947e+000
 1.1664559659e+000	 2.2083417706e-002	 2.7550475580e+000
 1.1661928765e+000	 3.3186647323e-002	 2.7533755086e+000
 1.1658224951e+000	 4.4329150971e-002	 2.7530654216e+000
 1.1653436587e+000	 5.5509582665e-002	 2.7535290893e+000
 1.1647552217e+000	 6.6726563623e-002	 2.7541656737e+000
 1.1640560560e+000	 7.7978682376e-002	 2.7543636577e+000
 1.1632450528e+000	 8.9264494917e-002	 2.7535029984e+000
 1.1623211233e+000	 1.0058252488e-001	 2.7509574798e+000
 1.1612831992e+000	 1.1193126372e-001	 2.7460972631e+000
 1.1733320000e+000	 0.0000000000e+000	 2.8202903023e+000
 1.1732796448e+000	 1.1083754314e-002	 2.8141167650e+000
 1.1731217714e+000	 2.2209615156e-002	 2.8103300281e+000
 1.1728571785e+000	 3.3376295063e-002	 2.8083701101e+000
 1.1724846805e+000	 4.4582473435e-002	 2.8076614987e+000
 1.1720031078e+000	 5.5826796596e-002	 2.8076135235e+000
 1.1714113081e+000	 6.7107877884e-002	 2.8076221350e+000
 1.1707081470e+000	 7.8424297766e-002	 2.8070718906e+000
 1.1698925093e+000	 8.9774603981e-002	 2.8053381506e+000
 1.1689632999e+000	 1.0115731172e-001	 2.8017894801e+000
 1.1679194445e+000	 1.1257090384e-001	 2.7957902586e+000
 1.1799990000e+000	 0.0000000000e+000	 2.8727976771e+000
 1.1799463473e+000	 1.1146733412e-002	 2.8665703905e+000
 1.1797875768e+000	 2.2335812606e-002	 2.8626244366e+000
 1.1795214805e+000	 3.3565942803e-002	 2.8603997038e+000
 1.1791468660e+000	 4.4835795899e-002	 2.8593195789e+000
 1.1786625569e+000	 5.6144010527e-002	 2.8587914795e+000
 1.1780673945e+000	 6.7489192146e-002	 2.8582086595e+000
 1.1773602379e+000	 7.8869913155e-002	 2.8569522302e+000
 1.1765399657e+000	 9.0284713045e-002	 2.8543933979e+000
 1.1756054764e+000	 1.0173209857e-001	 2.8498959169e+000
 1.1745556897e+000	 1.1321054396e-001	 2.8428187569e+000
 1.1866660000e+000	 0.0000000000e+000	 2.9221596998e+000
 1.1866130499e+000	 1.1209712510e-002	 2.9158939345e+000
 1.1864533823e+000	 2.2462010056e-002	 2.9118072842e+000
 1.1861857825e+000	 3.3755590542e-002	 2.9093401082e+000
 1.1858090514e+000	 4.5089118363e-002	 2.9079152683e+000
 1.1853220060e+000	 5.6461224458e-002	 2.9069388091e+000
 1.1847234809e+000	 6.7870506407e-002	 2.9058017894e+000
 1.1840123289e+000	 7.9315528545e-002	 2.9038823381e+000
 1.1831874222e+000	 9.0794822108e-002	 2.9005479338e+000
 1.1822476530e+000	 1.0230688541e-001	 2.8951579094e+000
 1.1811919350e+000	 1.1385018407e-001	 2.8870661774e+000
 1.1933330000e+000	 0.0000000000e+000	 2.9682595858e+000
 1.1932797524e+000	 1.1272691608e-002	 2.9619687124e+000
 1.1931191877e+000	 2.2588207505e-002	 2.9577584831e+000
 1.1928500845e+000	 3.3945238281e-002	 2.9550703218e+000
 1.1924712368e+000	 4.5342440826e-002	 2.9533271311e+000
 1.1919814551e+000	 5.6778438388e-002	 2.9519341091e+000
 1.1913795673e+000	 6.8251820668e-002	 2.9502806076e+000
 1.1906644199e+000	 7.9761143934e-002	 2.9477422217e+000
 1.1898348786e+000	 9.1304931171e-002	 2.9436831121e+000
 1.1888898296e+000	 1.0288167226e-001	 2.9374585606e+000
 1.1878281803e+000	 1.1448982419e-001	 2.9284177551e+000
 1.2000000000e+000	 0.0000000000e+000	 3.0109843425e+000
 1.1999464549e+000	 1.1335670705e-002	 3.0046795861e+000
 1.1997849932e+000	 2.2714404954e-002	 3.0003612566e+000
 1.1995143866e+000	 3.4134886020e-002	 2.9974724273e+000
 1.1991334223e+000	 4.5595763289e-002	 2.9954365969e+000
 1.1986409042e+000	 5.7095652318e-002	 2.9936586328e+000
 1.1980356538e+000	 6.8633134928e-002	 2.9915266540e+000
 1.1973165109e+000	 8.0206759322e-002	 2.9884141551e+000
 1.1964823350e+000	 9.1815040233e-002	 2.9836823716e+000
 1.1955320061e+000	 1.0345645911e-001	 2.9766828863e+000
 1.1944644255e+000	 1.1512946431e-001	 2.9667604753e+000
 1.1281019728e+000	 1.0873306313e-001	 2.4618811425e+000
 1.1269821280e+000	 1.1978421463e-001	 2.4637511327e+000
 1.1257495693e+000	 1.3086218971e-001	 2.4676893446e+000
 1.1244033263e+000	 1.4196545564e-001	 2.4732519431e+000
 1.1229424523e+000	 1.5309245026e-001	 2.4800037590e+000
 1.1213660258e+000	 1.6424158232e-001	 2.4875211846e+000
 1.1196731508e+000	 1.7541123190e-001	 2.4953951883e+000
 1.1178629583e+000	 1.8659975079e-001	 2.5032344381e+000
 1.1159346068e+000	 1.9780546296e-001	 2.5106685200e+000
 1.1138872834e+000	 2.0902666503e-001	 2.5173512390e+000
 1.1117202050e+000	 2.2026162677e-001	 2.5229639844e+000
 1.1347382181e+000	 1.0937270325e-001	 2.5230794031e+000
 1.1336117856e+000	 1.2048886496e-001	 2.5233744743e+000
 1.1323719762e+000	 1.3163200805e-001	 2.5255708014e+000
 1.1310178136e+000	 1.4280059077e-001	 2.5292341003e+000
 1.1295483459e+000	 1.5399304176e-001	 2.5339387918e+000
 1.1279626458e+000	 1.6520776043e-001	 2.5392709568e+000
 1.1262598122e+000	 1.7644311731e-001	 2.5448314178e+000
 1.1244389709e+000	 1.8769745450e-001	 2.5502389320e+000
 1.1224992755e+000	 1.9896908611e-001	 2.5551334848e+000
 1.1204399085e+000	 2.1025629874e-001	 2.5591796684e+000
 1.1182600818e+000	 2.2155735200e-001	 2.5620701295e+000
 1.1413744634e+000	 1.1001234337e-001	 2.5822258025e+000
 1.1402414432e+000	 1.2119351529e-001	 2.5809978032e+000
 1.1389943830e+000	 1.3240182639e-001	 2.5815086798e+000
 1.1376323010e+000	 1.4363572590e-001	 2.5833335687e+000
 1.1361542394e+000	 1.5489363326e-001	 2.5860562993e+000
 1.1345592657e+000	 1.6617393853e-001	 2.5892724123e+000
 1.1328464735e+000	 1.7747500271e-001	 2.5925923079e+000
 1.1310149834e+000	 1.8879515820e-001	 2.5956445112e+000
 1.1290639442e+000	 2.0013270926e-001	 2.5980790425e+000
 1.1269925335e+000	 2.1148593245e-001	 2.5995708763e+000
 1.1247999586e+000	 2.2285307722e-001	 2.5998234733e+000
 1.1480107086e+000	 1.1065198348e-001	 2.6391935991e+000
 1.1468711008e+000	 1.2189816563e-001	 2.6364977496e+000
 1.1456167899e+000	 1.3317164474e-001	 2.6353829803e+000
 1.1442467884e+000	 1.4447086103e-001	 2.6354337010e+000
 1.1427601330e+000	 1.5579422477e-001	 2.6362429521e+000
 1.1411558857e+000	 1.6714011664e-001	 2.6374154863e+000
 1.1394331348e+000	 1.7850688811e-001	 2.6385709863e+000
 1.1375909960e+000	 1.8989286191e-001	 2.6393474043e+000
 1.1356286130e+000	 2.0129633241e-001	 2.6394044109e+000
 1.1335451585e+000	 2.1271556617e-001	 2.6384269371e+000
 1.1313398354e+000	 2.2414880244e-001	 2.6361287930e+000
 1.1546469539e+000	 1.1129162360e-001	 2.6938582362e+000
 1.1535007584e+000	 1.2260281596e-001	 2.6897529485e+000
 1.1522391968e+000	 1.3394146308e-001	 2.6870755437e+000
 1.1508612758e+000	 1.4530599615e-001	 2.6854195412e+000
 1.1493660265e+000	 1.5669481627e-001	 2.6843869769e+000
 1.1477525056e+000	 1.6810629474e-001	 2.6835915500e+000
 1.1460197962e+000	 1.7953877352e-001	 2.6826619113e+000
 1.1441670086e+000	 1.9099056561e-001	 2.6812450791e+000
 1.1421932817e+000	 2.0245995555e-001	 2.6790099691e+000
 1.1400977835e+000	 2.1394519988e-001	 2.6756510217e+000
 1.1378797123e+000	 2.2544452766e-001	 2.6708919105e+000
 1.1612831992e+000	 1.1193126372e-001	 2.7460972631e+000
 1.1601304160e+000	 1.2330746629e-001	 2.7406439662e+000
 1.1588616036e+000	 1.3471128142e-001	 2.7364699820e+000
 1.1574757631e+000	 1.4614113128e-001	 2.7331777597e+000
 1.1559719200e+000	 1.5759540777e-001	 2.7303780973e+000
 1.1543491256e+000	 1.6907247284e-001	 2.7276933561e+000
 1.1526064575e+000	 1.8057065892e-001	 2.7247608213e+000
 1.1507430212e+000	 1.9208826932e-001	 2.7212361960e+000
 1.1487579505e+000	 2.0362357870e-001	 2.7167972148e+000
 1.1466504085e+000	 2.1517483360e-001	 2.7111473590e+000
 1.1444195891e+000	 2.2674025289e-001	 2.7040196572e+000
 1.1679194445e+000	 1.1257090384e-001	 2.7957902586e+000
 1.1667600736e+000	 1.2401211663e-001	 2.7890532282e+000
 1.1654840105e+000	 1.3548109976e-001	 2.7834516122e+000
 1.1640902505e+000	 1.4697626641e-001	 2.7785965919e+000
 1.1625778136e+000	 1.5849599928e-001	 2.7741074766e+000
 1.1609457455e+000	 1.7003865095e-001	 2.7696149861e+000
 1.1591931188e+000	 1.8160254433e-001	 2.7647646864e+000
 1.1573190338e+000	 1.9318597302e-001	 2.7592205637e+000
 1.1553226192e+000	 2.0478720185e-001	 2.7526687239e+000
 1.1532030336e+000	 2.1640446731e-001	 2.7448211984e+000
 1.1509594659e+000	 2.2803597811e-001	 2.7354198403e+000
 1.1745556897e+000	 1.1321054396e-001	 2.8428187569e+000
 1.1733897311e+000	 1.2471676696e-001	 2.8348649511e+000
 1.1721064174e+000	 1.3625091810e-001	 2.8279073919e+000
 1.1707047379e+000	 1.4781140154e-001	 2.8215657788e+000
 1.1691837071e+000	 1.5939659078e-001	 2.8154676627e+000
 1.1675423655e+000	 1.7100482905e-001	 2.8092517995e+000
 1.1657797802e+000	 1.8263442973e-001	 2.8025716619e+000
 1.1638950464e+000	 1.9428367673e-001	 2.7950990967e+000
 1.1618872879e+000	 2.0595082500e-001	 2.7865281116e+000
 1.1597556586e+000	 2.1763410102e-001	 2.7765787754e+000
 1.1574993428e+000	 2.2933170333e-001	 2.7650012116e+000
 1.1811919350e+000	 1.1385018407e-001	 2.8870661774e+000
 1.1800193887e+000	 1.2542141729e-001	 2.8779650758e+000
 1.1787288242e+000	 1.3702073644e-001	 2.8697258583e+000
 1.1773192253e+000	 1.4864653667e-001	 2.8619765099e+000
 1.1757896007e+000	 1.6029718228e-001	 2.8543525356e+000
 1.1741389854e+000	 1.7197100716e-001	 2.8465003851e+000
 1.1723664415e+000	 1.8366631513e-001	 2.8380810439e+000
 1.1704710589e+000	 1.9538138043e-001	 2.8287737746e+000
 1.1684519567e+000	 2.0711444815e-001	 2.8182799958e+000
 1.1663082836e+000	 2.1886373474e-001	 2.8063272776e+000
 1.1640392196e+000	 2.3062742856e-001	 2.7926734369e+000
 1.1878281803e+000	 1.1448982419e-001	 2.9284177551e+000
 1.1866490463e+000	 1.2612606762e-001	 2.9182412040e+000
 1.1853512311e+000	 1.3779055479e-001	 2.9087970679e+000
 1.1839337126e+000	 1.4948167180e-001	 2.8997213680e+000
 1.1823954942e+000	 1.6119777378e-001	 2.8906572564e+000
 1.1807356054e+000	 1.7293718526e-001	 2.8812585148e+000
 1.1789531029e+000	 1.8469820054e-001	 2.8711932260e+000
 1.1770470715e+000	 1.9647908414e-001	 2.8601476030e+000
 1.1750166254e+000	 2.0827807130e-001	 2.8478299611e+000
 1.1728609086e+000	 2.2009336845e-001	 2.8339748129e+000
 1.1705790964e+000	 2.3192315378e-001	 2.8183470678e+000
 1.1944644255e+000	 1.1512946431e-001	 2.9667604753e+000
 1.1932787039e+000	 1.2683071795e-001	 2.9555825365e+000
 1.1919736380e+000	 1.3856037313e-001	 2.9450125403e+000
 1.1905482000e+000	 1.5031680692e-001	 2.9346942766e+000
 1.1890013878e+000	 1.6209836528e-001	 2.9242782188e+000
 1.1873322253e+000	 1.7390336337e-001	 2.9134250983e+000
 1.1855397642e+000	 1.8573008594e-001	 2.9018096590e+000
 1.1836230841e+000	 1.9757678784e-001	 2.8891245764e+000
 1.1815812942e+000	 2.0944169444e-001	 2.8750845258e+000
 1.1794135337e+000	 2.2132300216e-001	 2.8594303795e+000
 1.1771189732e+000	 2.3321887900e-001	 2.8419335142e+000
 1.1117202050e+000	 2.2026162677e-001	 2.5229639844e+000
 1.1094322663e+000	 2.3151027929e-001	 2.5281511348e+000
 1.1070230625e+000	 2.4276915293e-001	 2.5336434804e+000
 1.1044919048e+000	 2.5403643688e-001	 2.5393045125e+000
 1.1018381374e+000	 2.6531029577e-001	 2.5450370606e+000
 1.0990611389e+000	 2.7658887040e-001	 2.5507865890e+000
 1.0961603222e+000	 2.8787027840e-001	 2.5565444389e+000
 1.0931351363e+000	 2.9915261501e-001	 2.5623509957e+000
 1.0899850663e+000	 3.1043395382e-001	 2.5682987551e+000
 1.0867096348e+000	 3.2171234759e-001	 2.5745352651e+000
 1.0833084025e+000	 3.3298582908e-001	 2.5812659173e+000
 1.1182600818e+000	 2.2155735200e-001	 2.5620701295e+000
 1.1159586840e+000	 2.3287217656e-001	 2.5644432590e+000
 1.1135353076e+000	 2.4419728238e-001	 2.5670150429e+000
 1.1109892599e+000	 2.5553084797e-001	 2.5696463363e+000
 1.1083198814e+000	 2.6687102719e-001	 2.5722376452e+000
 1.1055265467e+000	 2.7821594989e-001	 2.5747325277e+000
 1.1026086655e+000	 2.8956372263e-001	 2.5771209434e+000
 1.0995656834e+000	 3.0091242944e-001	 2.5794425267e+000
 1.0963970826e+000	 3.1226013258e-001	 2.5817897587e+000
 1.0931023828e+000	 3.2360487335e-001	 2.5843110137e+000
 1.0896811422e+000	 3.3494467295e-001	 2.5872134522e+000
 1.1247999586e+000	 2.2285307722e-001	 2.5998234733e+000
 1.1224851016e+000	 2.3423407383e-001	 2.5994666037e+000
 1.1200475527e+000	 2.4562541182e-001	 2.5992000338e+000
 1.1174866151e+000	 2.5702525906e-001	 2.5988833779e+000
 1.1148016253e+000	 2.6843175861e-001	 2.5984162140e+000
 1.1119919545e+000	 2.7984302938e-001	 2.5977415918e+000
 1.1090570087e+000	 2.9125716686e-001	 2.5968494891e+000
 1.1059962305e+000	 3.0267224387e-001	 2.5957801925e+000
 1.1028090989e+000	 3.1408631134e-001	 2.5946275759e+000
 1.0994951309e+000	 3.2549739911e-001	 2.5935422519e+000
 1.0960538819e+000	 3.3690351682e-001	 2.5927345677e+000
 1.1313398354e+000	 2.2414880244e-001	 2.6361287930e+000
 1.1290115193e+000	 2.3559597110e-001	 2.6331285463e+000
 1.1265597979e+000	 2.4705354126e-001	 2.6301083565e+000
 1.1239839703e+000	 2.5851967016e-001	 2.6269279366e+000
 1.1212833693e+000	 2.6999249003e-001	 2.6234872767e+000
 1.1184573623e+000	 2.8147010887e-001	 2.6197302596e+000
 1.1155053520e+000	 2.9295061108e-001	 2.6156482249e+000
 1.1124267776e+000	 3.0443205829e-001	 2.6112834579e+000
 1.1092211152e+000	 3.1591249009e-001	 2.6067325764e+000
 1.1058878789e+000	 3.2738992488e-001	 2.6021497873e+000
 1.1024266217e+000	 3.3886236069e-001	 2.5977499868e+000
 1.1378797123e+000	 2.2544452766e-001	 2.6708919105e+000
 1.1355379369e+000	 2.3695786837e-001	 2.6653374677e+000
 1.1330720430e+000	 2.4848167071e-001	 2.6596508856e+000
 1.1304813254e+000	 2.6001408125e-001	 2.6536932605e+000
 1.1277651132e+000	 2.7155322145e-001	 2.6473662793e+000
 1.1249227701e+000	 2.8309718836e-001	 2.6406159431e+000
 1.1219536953e+000	 2.9464405531e-001	 2.6334362407e+000
 1.1188573247e+000	 3.0619187272e-001	 2.6258727470e+000
 1.1156331315e+000	 3.1773866885e-001	 2.6180261183e+000
 1.1122806270e+000	 3.2928245064e-001	 2.6100554564e+000
 1.1087993614e+000	 3.4082120455e-001	 2.6021815126e+000
 1.1444195891e+000	 2.2674025289e-001	 2.7040196572e+000
 1.1420643546e+000	 2.3831976564e-001	 2.6960027205e+000
 1.1395842881e+000	 2.4990980015e-001	 2.6877394388e+000
 1.1369786806e+000	 2.6150849234e-001	 2.6790935214e+000
 1.1342468572e+000	 2.7311395288e-001	 2.6699695814e+000
 1.1313881778e+000	 2.8472426785e-001	 2.6603169678e+000
 1.1284020385e+000	 2.9633749954e-001	 2.6501335502e+000
 1.1252878718e+000	 3.0795168715e-001	 2.6394694279e+000
 1.1220451478e+000	 3.1956484760e-001	 2.6284305348e+000
 1.1186733750e+000	 3.3117497640e-001	 2.6171821121e+000
 1.1151721011e+000	 3.4278004842e-001	 2.6059520181e+000
 1.1509594659e+000	 2.2803597811e-001	 2.7354198403e+000
 1.1485907722e+000	 2.3968166291e-001	 2.7250345990e+000
 1.1460965332e+000	 2.5133792960e-001	 2.7142867498e+000
 1.1434760358e+000	 2.6300290344e-001	 2.7030437910e+000
 1.1407286011e+000	 2.7467468430e-001	 2.6912144353e+000
 1.1378535856e+000	 2.8635134734e-001	 2.6787525545e+000
 1.1348503818e+000	 2.9803094376e-001	 2.6656610749e+000
 1.1317184189e+000	 3.0971150157e-001	 2.6519957992e+000
 1.1284571641e+000	 3.2139102636e-001	 2.6378691224e+000
 1.1250661231e+000	 3.3306750216e-001	 2.6234536144e+000
 1.1215448409e+000	 3.4473889229e-001	 2.6089854370e+000
 1.1574993428e+000	 2.2933170333e-001	 2.7650012116e+000
 1.1551171899e+000	 2.4104356018e-001	 2.7523443106e+000
 1.1526087783e+000	 2.5276605904e-001	 2.7392064435e+000
 1.1499733909e+000	 2.6449731453e-001	 2.7254600181e+000
 1.1472103450e+000	 2.7623541572e-001	 2.7110189668e+000
 1.1443189934e+000	 2.8797842683e-001	 2.6958428027e+000
 1.1412987251e+000	 2.9972438799e-001	 2.6799406297e+000
 1.1381489660e+000	 3.1147131600e-001	 2.6633750774e+000
 1.1348691804e+000	 3.2321720512e-001	 2.6462661300e+000
 1.1314588711e+000	 3.3496002792e-001	 2.6287948204e+000
 1.1279175806e+000	 3.4669773616e-001	 2.6112067557e+000
 1.1640392196e+000	 2.3062742856e-001	 2.7926734369e+000
 1.1616436076e+000	 2.4240545745e-001	 2.7778439491e+000
 1.1591210234e+000	 2.5419418849e-001	 2.7624130115e+000
 1.1564707461e+000	 2.6599172563e-001	 2.7462590085e+000
 1.1536920890e+000	 2.7779614714e-001	 2.7293021565e+000
 1.1507844012e+000	 2.8960550632e-001	 2.7115086746e+000
 1.1477470683e+000	 3.0141783222e-001	 2.6928949095e+000
 1.1445795131e+000	 3.1323113042e-001	 2.6735313858e+000
 1.1412811967e+000	 3.2504338387e-001	 2.6535467500e+000
 1.1378516191e+000	 3.3685255368e-001	 2.6331315772e+000
 1.1342903203e+000	 3.4865658003e-001	 2.6125420071e+000
 1.1705790964e+000	 2.3192315378e-001	 2.8183470678e+000
 1.1681700252e+000	 2.4376735472e-001	 2.8014464689e+000
 1.1656332686e+000	 2.5562231793e-001	 2.7838217899e+000
 1.1629681013e+000	 2.6748613672e-001	 2.7653584045e+000
 1.1601738329e+000	 2.7935687856e-001	 2.7459838235e+000
 1.1572498090e+000	 2.9123258581e-001	 2.7256719812e+000
 1.1541954116e+000	 3.0311127645e-001	 2.7044474773e+000
 1.1510100602e+000	 3.1499094485e-001	 2.6823897446e+000
 1.1476932130e+000	 3.2686956263e-001	 2.6596371100e+000
 1.1442443672e+000	 3.3874507944e-001	 2.6363907150e+000
 1.1406630601e+000	 3.5061542390e-001	 2.6129182648e+000
 1.1771189732e+000	 2.3321887900e-001	 2.8419335142e+000
 1.1746964429e+000	 2.4512925199e-001	 2.8230656614e+000
 1.1721455137e+000	 2.5705044737e-001	 2.8033489385e+000
 1.1694654564e+000	 2.6898054781e-001	 2.7826766675e+000
 1.1666555769e+000	 2.8091760998e-001	 2.7609846096e+000
 1.1637152168e+000	 2.9285966530e-001	 2.7382553688e+000
 1.1606437548e+000	 3.0480472067e-001	 2.7145227533e+000
 1.1574406073e+000	 3.1675075928e-001	 2.6898760624e+000
 1.1541052293e+000	 3.2869574138e-001	 2.6644642658e+000
 1.1506371152e+000	 3.4063760520e-001	 2.6385000417e+000
 1.1470357998e+000	 3.5257426777e-001	 2.6122636392e+000
 1.0833084025e+000	 3.3298582908e-001	 2.5812659173e+000
 1.0797809684e+000	 3.4425241174e-001	 2.5869487142e+000
 1.0761269702e+000	 3.5551009013e-001	 2.5900548259e+000
 1.0723460855e+000	 3.6675684127e-001	 2.5908997313e+000
 1.0684380329e+000	 3.7799062577e-001	 2.5898609181e+000
 1.0644025727e+000	 3.8920938882e-001	 2.5873795638e+000
 1.0602395073e+000	 4.0041106122e-001	 2.5839619250e+000
 1.0559486821e+000	 4.1159356035e-001	 2.5801804127e+000
 1.0515299862e+000	 4.2275479134e-001	 2.5766743316e+000
 1.0469833524e+000	 4.3389264804e-001	 2.5741502614e+000
 1.0423087583e+000	 4.4500501426e-001	 2.5733820611e+000
 1.0896811422e+000	 3.3494467295e-001	 2.5872134522e+000
 1.0861329574e+000	 3.4627753314e-001	 2.5889246159e+000
 1.0824574640e+000	 3.5760143667e-001	 2.5879061390e+000
 1.0786543376e+000	 3.6891434867e-001	 2.5845089716e+000
 1.0747232952e+000	 3.8021421775e-001	 2.5791481744e+000
 1.0706640957e+000	 3.9149897702e-001	 2.5723046375e+000
 1.0664765404e+000	 4.0276654510e-001	 2.5645264977e+000
 1.0621604738e+000	 4.1401482712e-001	 2.5564302323e+000
 1.0577157842e+000	 4.2524171588e-001	 2.5487014035e+000
 1.0531424041e+000	 4.3644509286e-001	 2.5420950342e+000
 1.0484403108e+000	 4.4762282940e-001	 2.5374355927e+000
 1.0960538819e+000	 3.3690351682e-001	 2.5927345677e+000
 1.0924849464e+000	 3.4830265453e-001	 2.5906060964e+000
 1.0887879577e+000	 3.5969278321e-001	 2.5856102776e+000
 1.0849625897e+000	 3.7107185607e-001	 2.5781302166e+000
 1.0810085576e+000	 3.8243780973e-001	 2.5686152209e+000
 1.0769256188e+000	 3.9378856522e-001	 2.5575825638e+000
 1.0727135736e+000	 4.0512202897e-001	 2.5456189389e+000
 1.0683722655e+000	 4.1643609389e-001	 2.5333815780e+000
 1.0639015822e+000	 4.2772864042e-001	 2.5215990103e+000
 1.0593014557e+000	 4.3899753768e-001	 2.5110714386e+000
 1.0545718634e+000	 4.5024064453e-001	 2.5026707124e+000
 1.1024266217e+000	 3.3886236069e-001	 2.5977499868e+000
 1.0988369354e+000	 3.5032777592e-001	 2.5919133101e+000
 1.0951184515e+000	 3.6178412974e-001	 2.5830864389e+000
 1.0912708418e+000	 3.7322936346e-001	 2.5716813478e+000
 1.0872938199e+000	 3.8466140171e-001	 2.5581782953e+000
 1.0831871419e+000	 3.9607815342e-001	 2.5431276420e+000
 1.0789506068e+000	 4.0747751285e-001	 2.5271513482e+000
 1.0745840572e+000	 4.1885736066e-001	 2.5109441253e+000
 1.0700873801e+000	 4.3021556496e-001	 2.4952742161e+000
 1.0654605074e+000	 4.4154998249e-001	 2.4809837796e+000
 1.0607034160e+000	 4.5285845967e-001	 2.4689888596e+000
 1.1087993614e+000	 3.4082120455e-001	 2.6021815126e+000
 1.1051889245e+000	 3.5235289732e-001	 2.5927675531e+000
 1.1014489453e+000	 3.6387547628e-001	 2.5802550298e+000
 1.0975790939e+000	 3.7538687086e-001	 2.5650815284e+000
 1.0935790823e+000	 3.8688499370e-001	 2.5477549931e+000
 1.0894486650e+000	 3.9836774162e-001	 2.5288556061e+000
 1.0851876399e+000	 4.0983299673e-001	 2.5090373376e+000
 1.0807958489e+000	 4.2127862742e-001	 2.4890291376e+000
 1.0762731781e+000	 4.3270248951e-001	 2.4696357450e+000
 1.0716195590e+000	 4.4410242731e-001	 2.4517380895e+000
 1.0668349686e+000	 4.5547627480e-001	 2.4362932620e+000
 1.1151721011e+000	 3.4278004842e-001	 2.6059520181e+000
 1.1115409135e+000	 3.5437801871e-001	 2.5930912532e+000
 1.1077794391e+000	 3.6596682281e-001	 2.5770376572e+000
 1.1038873460e+000	 3.7754437826e-001	 2.5582511951e+000
 1.0998643446e+000	 3.8910858568e-001	 2.5372642588e+000
 1.0957101881e+000	 4.0065732982e-001	 2.5146836168e+000
 1.0914246731e+000	 4.1218848061e-001	 2.4911920227e+000
 1.0870076406e+000	 4.2369989419e-001	 2.4675494570e+000
 1.0824589761e+000	 4.3518941405e-001	 2.4445939723e+000
 1.0777786107e+000	 4.4665487212e-001	 2.4232421189e+000
 1.0729665212e+000	 4.5809408994e-001	 2.4044889261e+000
 1.1215448409e+000	 3.4473889229e-001	 2.6089854370e+000
 1.1178929025e+000	 3.5640314010e-001	 2.5928079622e+000
 1.1141099328e+000	 3.6805816935e-001	 2.5733571208e+000
 1.1101955981e+000	 3.7970188566e-001	 2.5511120505e+000
 1.1061496069e+000	 3.9133217766e-001	 2.5266263795e+000
 1.1019717111e+000	 4.0294691802e-001	 2.5005302542e+000
 1.0976617063e+000	 4.1454396448e-001	 2.4735320158e+000
 1.0932194322e+000	 4.2612116095e-001	 2.4464194978e+000
 1.0886447741e+000	 4.3767633859e-001	 2.4200609166e+000
 1.0839376623e+000	 4.4920731694e-001	 2.3954053287e+000
 1.0790980738e+000	 4.6071190508e-001	 2.3734826292e+000
 1.1279175806e+000	 3.4669773616e-001	 2.6112067557e+000
 1.1242448915e+000	 3.5842826149e-001	 2.5918423486e+000
 1.1204404266e+000	 3.7014951588e-001	 2.5691374069e+000
 1.1165038502e+000	 3.8185939305e-001	 2.5435870574e+000
 1.1124348693e+000	 3.9355576964e-001	 2.5157629785e+000
 1.1082332342e+000	 4.0523650622e-001	 2.4863155129e+000
 1.1038987394e+000	 4.1689944836e-001	 2.4559754205e+000
 1.0994312239e+000	 4.2854242772e-001	 2.4255552405e+000
 1.0948305720e+000	 4.4016326313e-001	 2.3959502348e+000
 1.0900967140e+000	 4.5175976175e-001	 2.3681388843e+000
 1.0852296264e+000	 4.6332972021e-001	 2.3431829129e+000
 1.1342903203e+000	 3.4865658003e-001	 2.6125420071e+000
 1.1305968806e+000	 3.6045338289e-001	 2.5901201920e+000
 1.1267709204e+000	 3.7224086242e-001	 2.5643036830e+000
 1.1228121023e+000	 3.8401690045e-001	 2.5356004347e+000
 1.1187201316e+000	 3.9577936162e-001	 2.5045970122e+000
 1.1144947573e+000	 4.0752609441e-001	 2.4719607977e+000
 1.1101357726e+000	 4.1925493224e-001	 2.4384418276e+000
 1.1056430156e+000	 4.3096369449e-001	 2.4048742279e+000
 1.1010163700e+000	 4.4265018767e-001	 2.3721772173e+000
 1.0962557657e+000	 4.5431220657e-001	 2.3413556513e+000
 1.0913611790e+000	 4.6594753535e-001	 2.3135000789e+000
 1.1406630601e+000	 3.5061542390e-001	 2.6129182648e+000
 1.1369488696e+000	 3.6247850428e-001	 2.5875683788e+000
 1.1331014142e+000	 3.7433220896e-001	 2.5587822947e+000
 1.1291203544e+000	 3.8617440785e-001	 2.5270776538e+000
 1.1250053940e+000	 3.9800295360e-001	 2.4930527663e+000
 1.1207562804e+000	 4.0981568261e-001	 2.4573889206e+000
 1.1163728057e+000	 4.2161041612e-001	 2.4208523128e+000
 1.1118548073e+000	 4.3338496125e-001	 2.3842955624e+000
 1.1072021680e+000	 4.4513711222e-001	 2.3486587853e+000
 1.1024148173e+000	 4.5686465138e-001	 2.3149701921e+000
 1.0974927315e+000	 4.6856535048e-001	 2.2843461856e+000
 1.1470357998e+000	 3.5257426777e-001	 2.6122636392e+000
 1.1433008586e+000	 3.6450362567e-001	 2.5841148989e+000
 1.1394319079e+000	 3.7642355549e-001	 2.5525007627e+000
 1.1354286065e+000	 3.8833191525e-001	 2.5179454366e+000
 1.1312906563e+000	 4.0022654558e-001	 2.4810558549e+000
 1.1270178035e+000	 4.1210527081e-001	 2.4425241004e+000
 1.1226098389e+000	 4.2396589999e-001	 2.4031294351e+000
 1.1180665990e+000	 4.3580622802e-001	 2.3637399051e+000
 1.1133879660e+000	 4.4762403676e-001	 2.3253134901e+000
 1.1085738690e+000	 4.5941709620e-001	 2.2888987652e+000
 1.1036242841e+000	 4.7118316562e-001	 2.2556350466e+000
 1.0423087583e+000	 4.4500501426e-001	 2.5733820611e+000
 1.0375069564e+000	 4.5608810444e-001	 2.5713279059e+000
 1.0325773241e+000	 4.6714145575e-001	 2.5648052312e+000
 1.0275199761e+000	 4.7816293016e-001	 2.5544643414e+000
 1.0223350735e+000	 4.8915038420e-001	 2.5410042437e+000
 1.0170228241e+000	 5.0010167025e-001	 2.5251707419e+000
 1.0115834827e+000	 5.1101463777e-001	 2.5077541063e+000
 1.0060173511e+000	 5.2188713452e-001	 2.4895863171e+000
 1.0003247790e+000	 5.3271700786e-001	 2.4715378779e+000
 9.9450616332e-001	 5.4350210603e-001	 2.4545142026e+000
 9.8856194916e-001	 5.5424027942e-001	 2.4394515793e+000
 1.0484403108e+000	 4.4762282940e-001	 2.5374355927e+000
 1.0436102616e+000	 4.5877111767e-001	 2.5316165299e+000
 1.0386516299e+000	 4.6988949215e-001	 2.5213476223e+000
 1.0335645312e+000	 4.8097580219e-001	 2.5072692505e+000
 1.0283491276e+000	 4.9202789173e-001	 2.4900712659e+000
 1.0230056280e+000	 5.0304360053e-001	 2.4704910946e+000
 1.0175342888e+000	 5.1402076537e-001	 2.4493114063e+000
 1.0119354135e+000	 5.2495722137e-001	 2.4273573422e+000
 1.0062093539e+000	 5.3585080322e-001	 2.4054933007e+000
 1.0003565093e+000	 5.4669934650e-001	 2.3846192822e+000
 9.9437732731e-001	 5.5750068896e-001	 2.3656667979e+000
 1.0545718634e+000	 4.5024064453e-001	 2.5026707124e+000
 1.0497135668e+000	 4.6145413091e-001	 2.4932184659e+000
 1.0447259358e+000	 4.7263752854e-001	 2.4793149106e+000
 1.0396090864e+000	 4.8378867421e-001	 2.4615951598e+000
 1.0343631817e+000	 4.9490539926e-001	 2.4407447445e+000
 1.0289884320e+000	 5.0598553080e-001	 2.4174977236e+000
 1.0234850949e+000	 5.1702689297e-001	 2.3926343440e+000
 1.0178534760e+000	 5.2802730822e-001	 2.3669782476e+000
 1.0120939288e+000	 5.3898459858e-001	 2.3413932209e+000
 1.0062068552e+000	 5.4989658697e-001	 2.3167794902e+000
 1.0001927055e+000	 5.6076109850e-001	 2.2940695651e+000
 1.0607034160e+000	 4.5285845967e-001	 2.4689888596e+000
 1.0558168720e+000	 4.6413714414e-001	 2.4560327343e+000
 1.0508002416e+000	 4.7538556493e-001	 2.4386046125e+000
 1.0456536415e+000	 4.8660154624e-001	 2.4173389114e+000
 1.0403772358e+000	 4.9778290680e-001	 2.3929215931e+000
 1.0349712359e+000	 5.0892746107e-001	 2.3660882754e+000
 1.0294359010e+000	 5.2003302057e-001	 2.3376218774e+000
 1.0237715384e+000	 5.3109739506e-001	 2.3083497985e+000
 1.0179785037e+000	 5.4211839393e-001	 2.2791406250e+000
 1.0120572012e+000	 5.5309382744e-001	 2.2509003668e+000
 1.0060080836e+000	 5.6402150804e-001	 2.2245682279e+000
 1.0668349686e+000	 4.5547627480e-001	 2.4362932620e+000
 1.0619201772e+000	 4.6682015738e-001	 2.4199601856e+000
 1.0568745474e+000	 4.7813360132e-001	 2.3991160844e+000
 1.0516981967e+000	 4.8941441827e-001	 2.3743991681e+000
 1.0463912899e+000	 5.0066041433e-001	 2.3465004988e+000
 1.0409540398e+000	 5.1186939134e-001	 2.3161620967e+000
 1.0353867071e+000	 5.2303914816e-001	 2.2841745667e+000
 1.0296896008e+000	 5.3416748191e-001	 2.2513742416e+000
 1.0238630787e+000	 5.4525218929e-001	 2.2186398389e+000
 1.0179075472e+000	 5.5629106791e-001	 2.1868886312e+000
 1.0118234618e+000	 5.6728191759e-001	 2.1570721340e+000
 1.0729665212e+000	 4.5809408994e-001	 2.4044889261e+000
 1.0680234824e+000	 4.6950317062e-001	 2.3849034899e+000
 1.0629488532e+000	 4.8088163772e-001	 2.3607505136e+000
 1.0577427518e+000	 4.9222729030e-001	 2.3326764057e+000
 1.0524053440e+000	 5.0353792186e-001	 2.3013819161e+000
 1.0469368437e+000	 5.1481132162e-001	 2.2676202307e+000
 1.0413375132e+000	 5.2604527576e-001	 2.2321945733e+000
 1.0356076632e+000	 5.3723756876e-001	 2.1959553071e+000
 1.0297476536e+000	 5.4838598465e-001	 2.1597965340e+000
 1.0237578931e+000	 5.5948830838e-001	 2.1246521904e+000
 1.0176388399e+000	 5.7054232713e-001	 2.0914916451e+000
 1.0790980738e+000	 4.6071190508e-001	 2.3734826292e+000
 1.0741267876e+000	 4.7218618385e-001	 2.3507671296e+000
 1.0690231591e+000	 4.8362967411e-001	 2.3234109108e+000
 1.0637873070e+000	 4.9504016232e-001	 2.2920729070e+000
 1.0584193981e+000	 5.0641542939e-001	 2.2574680631e+000
 1.0529196477e+000	 5.1775325189e-001	 2.2203654151e+000
 1.0472883193e+000	 5.2905140336e-001	 2.1815856605e+000
 1.0415257256e+000	 5.4030765560e-001	 2.1419982123e+000
 1.0356322285e+000	 5.5151978001e-001	 2.1025177334e+000
 1.0296082391e+000	 5.6268554885e-001	 2.0641001503e+000
 1.0234542181e+000	 5.7380273667e-001	 2.0277381511e+000
 1.0852296264e+000	 4.6332972021e-001	 2.3431829129e+000
 1.0802300928e+000	 4.7486919709e-001	 2.3174573928e+000
 1.0750974649e+000	 4.8637771050e-001	 2.2870021050e+000
 1.0698318621e+000	 4.9785303435e-001	 2.2524927569e+000
 1.0644334522e+000	 5.0929293692e-001	 2.2146629182e+000
 1.0589024516e+000	 5.2069518216e-001	 2.1743020812e+000
 1.0532391254e+000	 5.3205753096e-001	 2.1322531954e+000
 1.0474437881e+000	 5.4337774245e-001	 2.0894096669e+000
 1.0415168035e+000	 5.5465357536e-001	 2.0467118211e+000
 1.0354585851e+000	 5.6588278932e-001	 2.0051428266e+000
 1.0292695962e+000	 5.7706314621e-001	 1.9657240853e+000
 1.0913611790e+000	 4.6594753535e-001	 2.3135000789e+000
 1.0863333980e+000	 4.7755221032e-001	 2.2848823688e+000
 1.0811717707e+000	 4.8912574689e-001	 2.2514307392e+000
 1.0758764173e+000	 5.0066590637e-001	 2.2138418406e+000
 1.0704475063e+000	 5.1217044445e-001	 2.1728722197e+000
 1.0648852555e+000	 5.2363711243e-001	 2.1293363559e+000
 1.0591899315e+000	 5.3506365855e-001	 2.0841041529e+000
 1.0533618505e+000	 5.4644782930e-001	 2.0380978791e+000
 1.0474013784e+000	 5.5778737072e-001	 1.9922885507e+000
 1.0413089310e+000	 5.6908002979e-001	 1.9476917586e+000
 1.0350849743e+000	 5.8032355574e-001	 1.9053629413e+000
 1.0974927315e+000	 4.6856535048e-001	 2.2843461856e+000
 1.0924367032e+000	 4.8023522356e-001	 2.2529519453e+000
 1.0872460765e+000	 4.9187378328e-001	 2.2166052682e+000
 1.0819209724e+000	 5.0347877840e-001	 2.1760278417e+000
 1.0764615604e+000	 5.1504795198e-001	 2.1320034662e+000
 1.0708680594e+000	 5.2657904270e-001	 2.0853760635e+000
 1.0651407376e+000	 5.3806978615e-001	 2.0370471205e+000
 1.0592799129e+000	 5.4951791614e-001	 1.9879725638e+000
 1.0532859533e+000	 5.6092116608e-001	 1.9391590571e+000
 1.0471592770e+000	 5.7227727026e-001	 1.8916597229e+000
 1.0409003525e+000	 5.8358396528e-001	 1.8465692902e+000
 1.1036242841e+000	 4.7118316562e-001	 2.2556350466e+000
 1.0985400084e+000	 4.8291823679e-001	 2.2215778068e+000
 1.0933203824e+000	 4.9462181967e-001	 2.1824359580e+000
 1.0879655276e+000	 5.0629165043e-001	 2.1389602429e+000
 1.0824756146e+000	 5.1792545951e-001	 2.0919659185e+000
 1.0768508634e+000	 5.2952097297e-001	 2.0423307302e+000
 1.0710915437e+000	 5.4107591374e-001	 1.9909923047e+000
 1.0651979753e+000	 5.5258800299e-001	 1.9389449515e+000
 1.0591705282e+000	 5.6405496143e-001	 1.8872358680e+000
 1.0530096230e+000	 5.7547451073e-001	 1.8369607487e+000
 1.0467157306e+000	 5.8684437482e-001	 1.7892587994e+000
 9.8856194916e-001	 5.5424027942e-001	 2.4394515793e+000
 9.8249170971e-001	 5.6493098176e-001	 2.4209250694e+000
 9.7629686910e-001	 5.7557045681e-001	 2.3939521366e+000
 9.6997801739e-001	 5.8615656903e-001	 2.3601518209e+000
 9.6353579266e-001	 5.9668719035e-001	 2.3211438660e+000
 9.5697088101e-001	 6.0716020150e-001	 2.2785412836e+000
 9.5028401640e-001	 6.1757349335e-001	 2.2339425984e+000
 9.4347598055e-001	 6.2792496822e-001	 2.1889238040e+000
 9.3654760272e-001	 6.3821254128e-001	 2.1450300628e+000
 9.2949975947e-001	 6.4843414180e-001	 2.1037671868e+000
 9.2233337440e-001	 6.5858771454e-001	 2.0665929382e+000
 9.9437732731e-001	 5.5750068896e-001	 2.3656667979e+000
 9.8827137867e-001	 5.6825428112e-001	 2.3431255980e+000
 9.8204009590e-001	 5.7895634463e-001	 2.3120247176e+000
 9.7568407250e-001	 5.8960473139e-001	 2.2741240343e+000
 9.6920395033e-001	 6.0019730082e-001	 2.2311859864e+000
 9.6260041950e-001	 6.1073192118e-001	 2.1849677553e+000
 9.5587421832e-001	 6.2120647093e-001	 2.1372131114e+000
 9.4902613308e-001	 6.3161884006e-001	 2.0896439533e+000
 9.4205699792e-001	 6.4196693145e-001	 2.0439515762e+000
 9.3496769457e-001	 6.5224866222e-001	 2.0017877076e+000
 9.2775915207e-001	 6.6246196502e-001	 1.9647553488e+000
 1.0001927055e+000	 5.6076109850e-001	 2.2940695651e+000
 9.9405104764e-001	 5.7157758047e-001	 2.2676790537e+000
 9.8778332269e-001	 5.8234223244e-001	 2.2326530579e+000
 9.8139012761e-001	 5.9305289375e-001	 2.1908881036e+000
 9.7487210800e-001	 6.0370741130e-001	 2.1442849829e+000
 9.6822995800e-001	 6.1430364087e-001	 2.0947405566e+000
 9.6146442023e-001	 6.2483944851e-001	 2.0441392013e+000
 9.5457628560e-001	 6.3531271189e-001	 1.9943439352e+000
 9.4756639312e-001	 6.4572132163e-001	 1.9471872563e+000
 9.4043562968e-001	 6.5606318264e-001	 1.9044617336e+000
 9.3318492974e-001	 6.6633621550e-001	 1.8679103928e+000
 1.0060080836e+000	 5.6402150804e-001	 2.2245682279e+000
 9.9983071661e-001	 5.7490087983e-001	 2.1944954266e+000
 9.9352654949e-001	 5.8572812026e-001	 2.1557463236e+000
 9.8709618273e-001	 5.9650105611e-001	 2.1103500013e+000
 9.8054026567e-001	 6.0721752177e-001	 2.0603413655e+000
 9.7385949650e-001	 6.1787536055e-001	 2.0077525699e+000
 9.6705462215e-001	 6.2847242609e-001	 1.9546040678e+000
 9.6012643813e-001	 6.3900658373e-001	 1.9028953240e+000
 9.5307578833e-001	 6.4947571180e-001	 1.8545952256e+000
 9.4590356479e-001	 6.5987770305e-001	 1.8116322301e+000
 9.3861070742e-001	 6.7021046598e-001	 1.7750299215e+000
 1.0118234618e+000	 5.6728191759e-001	 2.1570721340e+000
 1.0056103856e+000	 5.7822417918e-001	 2.1234855447e+000
 9.9926977629e-001	 5.8911400807e-001	 2.0812144029e+000
 9.9280223784e-001	 5.9994921848e-001	 2.0324163494e+000
 9.8620842333e-001	 6.1072763224e-001	 1.9792562623e+000
 9.7948903500e-001	 6.2144708023e-001	 1.9238973058e+000
 9.7264482407e-001	 6.3210540367e-001	 1.8684915864e+000
 9.6567659066e-001	 6.4270045556e-001	 1.8151704541e+000
 9.5858518354e-001	 6.5323010197e-001	 1.7660344857e+000
 9.5137149990e-001	 6.6369222347e-001	 1.7231431919e+000
 9.4403648509e-001	 6.7408471646e-001	 1.6847603258e+000
 1.0176388399e+000	 5.7054232713e-001	 2.0914916451e+000
 1.0113900545e+000	 5.8154747854e-001	 2.0545610907e+000
 1.0050130031e+000	 5.9249989589e-001	 2.0089679232e+000
 9.9850829296e-001	 6.0339738084e-001	 1.9569944362e+000
 9.9187658100e-001	 6.1423774271e-001	 1.9009314365e+000
 9.8511857349e-001	 6.2501879991e-001	 1.8430689163e+000
 9.7823502598e-001	 6.3573838125e-001	 1.7856863177e+000
 9.7122674318e-001	 6.4639432739e-001	 1.7310424232e+000
 9.6409457874e-001	 6.5698449214e-001	 1.6813649131e+000
 9.5683943501e-001	 6.6750674389e-001	 1.6387963789e+000
 9.4946226276e-001	 6.7795896694e-001	 1.5969789339e+000
 1.0234542181e+000	 5.7380273667e-001	 2.0277381511e+000
 1.0171697235e+000	 5.8487077789e-001	 1.9876346195e+000
 1.0107562299e+000	 5.9588578370e-001	 1.9389182704e+000
 1.0042143481e+000	 6.0684554319e-001	 1.8839922364e+000
 9.9754473867e-001	 6.1774785318e-001	 1.8252693033e+000
 9.9074811199e-001	 6.2859051959e-001	 1.7651622096e+000
 9.8382522790e-001	 6.3937135883e-001	 1.7060735182e+000
 9.7677689571e-001	 6.5008819922e-001	 1.6503850986e+000
 9.6960397395e-001	 6.6073888231e-001	 1.6004472591e+000
 9.6230737012e-001	 6.7132126430e-001	 1.5571709047e+000
 9.5488804043e-001	 6.8183321741e-001	 1.5115768145e+000
 1.0292695962e+000	 5.7706314621e-001	 1.9657240853e+000
 1.0229493925e+000	 5.8819407724e-001	 1.9226195761e+000
 1.0164994567e+000	 5.9927167152e-001	 1.8709776088e+000
 1.0099204032e+000	 6.1029370555e-001	 1.8133184300e+000
 1.0032128963e+000	 6.2125796365e-001	 1.7521729492e+000
 9.9637765049e-001	 6.3216223926e-001	 1.6900726662e+000
 9.8941542982e-001	 6.4300433641e-001	 1.6295391518e+000
 9.8232704824e-001	 6.5378207106e-001	 1.5730731225e+000
 9.7511336915e-001	 6.6449327248e-001	 1.5231431489e+000
 9.6777530523e-001	 6.7513578472e-001	 1.4775725642e+000
 9.6031381810e-001	 6.8570746789e-001	 1.4284495737e+000
 1.0350849743e+000	 5.8032355574e-001	 1.9053629413e+000
 1.0287290614e+000	 5.9151737660e-001	 1.8594303152e+000
 1.0222426835e+000	 6.0265755933e-001	 1.8050589016e+000
 1.0156264583e+000	 6.1374186791e-001	 1.7448824235e+000
 1.0088810540e+000	 6.2476807412e-001	 1.6815461506e+000
 1.0020071890e+000	 6.3573395894e-001	 1.6176964550e+000
 9.9500563174e-001	 6.4663731399e-001	 1.5559699028e+000
 9.8787720077e-001	 6.5747594289e-001	 1.4989819211e+000
 9.8062276436e-001	 6.6824766265e-001	 1.4491664065e+000
 9.7324324034e-001	 6.7895030513e-001	 1.3999133548e+000
 9.6573959577e-001	 6.8958171836e-001	 1.3474972524e+000
 1.0409003525e+000	 5.8358396528e-001	 1.8465692902e+000
 1.0345087304e+000	 5.9484067595e-001	 1.7979821216e+000
 1.0279859103e+000	 6.0604344714e-001	 1.7410759326e+000
 1.0213325134e+000	 6.1719003027e-001	 1.6785943716e+000
 1.0145492117e+000	 6.2827818459e-001	 1.6132933948e+000
 1.0076367275e+000	 6.3930567862e-001	 1.5479304521e+000
 1.0005958337e+000	 6.5027029157e-001	 1.4852531901e+000
 9.9342735329e-001	 6.6116981472e-001	 1.4279877131e+000
 9.8613215956e-001	 6.7200205282e-001	 1.3771074348e+000
 9.7871117545e-001	 6.8276482555e-001	 1.3241093707e+000
 9.7116537344e-001	 6.9345596884e-001	 1.2686242255e+000
 1.0467157306e+000	 5.8684437482e-001	 1.7892587994e+000
 1.0402883994e+000	 5.9816397530e-001	 1.7381912314e+000
 1.0337291371e+000	 6.0942933496e-001	 1.6789433293e+000
 1.0270385685e+000	 6.2063819263e-001	 1.6143651999e+000
 1.0202173693e+000	 6.3178829505e-001	 1.5473199010e+000
 1.0132662660e+000	 6.4287739830e-001	 1.4806722588e+000
 1.0061860356e+000	 6.5390326915e-001	 1.4172771826e+000
 9.9897750582e-001	 6.6486368655e-001	 1.3599675201e+000
 9.9164155477e-001	 6.7575644299e-001	 1.3065923956e+000
 9.8417911056e-001	 6.8657934596e-001	 1.2500807103e+000
 9.7659115111e-001	 6.9733021931e-001	 1.1917391033e+000
 9.2233337440e-001	 6.5858771454e-001	 2.0665929382e+000
 9.1504941758e-001	 6.6867122085e-001	 2.0343754013e+000
 9.0764890433e-001	 6.7868263924e-001	 1.9985162758e+000
 9.0013289570e-001	 6.8861996742e-001	 1.9551350709e+000
 8.9250249820e-001	 6.9848122376e-001	 1.9050029422e+000
 8.8475886334e-001	 7.0826444858e-001	 1.8488760006e+000
 8.7690318707e-001	 7.1796770543e-001	 1.7874941587e+000
 8.6893670921e-001	 7.2758908236e-001	 1.7215800879e+000
 8.6086071280e-001	 7.3712669311e-001	 1.6518382862e+000
 8.5267652345e-001	 7.4657867838e-001	 1.5789542523e+000
 8.4438550863e-001	 7.5594320697e-001	 1.5035937620e+000
 9.2775915207e-001	 6.6246196502e-001	 1.9647553488e+000
 9.2043234617e-001	 6.7260478921e-001	 1.9316083093e+000
 9.1298829819e-001	 6.8267510142e-001	 1.8922535265e+000
 9.0542807540e-001	 6.9267088757e-001	 1.8461321679e+000
 8.9775279083e-001	 7.0259015436e-001	 1.7939309545e+000
 8.8996360277e-001	 7.1243093061e-001	 1.7363184543e+000
 8.8206171419e-001	 7.2219126847e-001	 1.6739440822e+000
 8.7404837222e-001	 7.3186924473e-001	 1.6074372224e+000
 8.6592486743e-001	 7.4146296204e-001	 1.5374064691e+000
 8.5769253325e-001	 7.5097055016e-001	 1.4644389830e+000
 8.4935274517e-001	 7.6039016714e-001	 1.3890999575e+000
 9.3318492974e-001	 6.6633621550e-001	 1.8679103928e+000
 9.2581527477e-001	 6.7653835757e-001	 1.8319744539e+000
 9.1832769205e-001	 6.8666756359e-001	 1.7893814478e+000
 9.1072325511e-001	 6.9672180771e-001	 1.7407438447e+000
 9.0300308347e-001	 7.0669908497e-001	 1.6866631122e+000
 8.9516834220e-001	 7.1659741264e-001	 1.6277196412e+000
 8.8722024132e-001	 7.2641483150e-001	 1.5644719052e+000
 8.7916003523e-001	 7.3614940709e-001	 1.4974557504e+000
 8.7098902207e-001	 7.4579923097e-001	 1.4271838139e+000
 8.6270854304e-001	 7.5536242195e-001	 1.3541450650e+000
 8.5431998171e-001	 7.6483712730e-001	 1.2788044654e+000
 9.3861070742e-001	 6.7021046598e-001	 1.7750299215e+000
 9.3119820337e-001	 6.8047192593e-001	 1.7353378814e+000
 9.2366708592e-001	 6.9066002577e-001	 1.6897538315e+000
 9.1601843482e-001	 7.0077272785e-001	 1.6388161761e+000
 9.0825337611e-001	 7.1080801557e-001	 1.5830403244e+000
 9.0037308164e-001	 7.2076389467e-001	 1.5229178684e+000
 8.9237876845e-001	 7.3063839454e-001	 1.4589159047e+000
 8.8427169824e-001	 7.4042956946e-001	 1.3914764963e+000
 8.7605317670e-001	 7.5013549990e-001	 1.3210162720e+000
 8.6772455284e-001	 7.5975429374e-001	 1.2479261563e+000
 8.5928721825e-001	 7.6928408747e-001	 1.1725712261e+000
 9.4403648509e-001	 6.7408471646e-001	 1.6847603258e+000
 9.3658113197e-001	 6.8440549429e-001	 1.6415677608e+000
 9.2900647978e-001	 6.9465248794e-001	 1.5932297995e+000
 9.2131361452e-001	 7.0482364799e-001	 1.5402007161e+000
 9.1350366875e-001	 7.1491694617e-001	 1.4829090710e+000
 9.0557782107e-001	 7.2493037670e-001	 1.4217570463e+000
 8.9753729558e-001	 7.3486195757e-001	 1.3571199345e+000
 8.8938336125e-001	 7.4470973182e-001	 1.2893457757e+000
 8.8111733134e-001	 7.5447176883e-001	 1.2187551414e+000
 8.7274056264e-001	 7.6414616552e-001	 1.1456410573e+000
 8.6425445479e-001	 7.7373104763e-001	 1.0702690591e+000
 9.4946226276e-001	 6.7795896694e-001	 1.5969789339e+000
 9.4196406056e-001	 6.8833906265e-001	 1.5505382669e+000
 9.3434587364e-001	 6.9864495012e-001	 1.4996736811e+000
 9.2660879423e-001	 7.0887456813e-001	 1.4447543712e+000
 9.1875396139e-001	 7.1902587677e-001	 1.3861212725e+000
 9.1078256050e-001	 7.2909685873e-001	 1.3240865577e+000
 9.0269582270e-001	 7.3908552061e-001	 1.2589332955e+000
 8.9449502426e-001	 7.4898989419e-001	 1.1909152686e+000
 8.8618148597e-001	 7.5880803776e-001	 1.1202569448e+000
 8.7775657243e-001	 7.6853803730e-001	 1.0471535959e+000
 8.6922169133e-001	 7.7817800779e-001	 9.7177155638e-001
 9.5488804043e-001	 6.8183321741e-001	 1.5115768145e+000
 9.4734698916e-001	 6.9227263101e-001	 1.4621284665e+000
 9.3968526750e-001	 7.0263741229e-001	 1.4089548927e+000
 9.3190397394e-001	 7.1292548827e-001	 1.3523392761e+000
 9.2400425403e-001	 7.2313480738e-001	 1.2925341642e+000
 9.1598729994e-001	 7.3326334076e-001	 1.2297611307e+000
 9.0785434983e-001	 7.4330908364e-001	 1.1642106097e+000
 8.9960668728e-001	 7.5327005655e-001	 1.0960418965e+000
 8.9124564061e-001	 7.6314430668e-001	 1.0253833105e+000
 8.8277258223e-001	 7.7292990909e-001	 9.5233251395e-001
 8.7418892787e-001	 7.8262496795e-001	 8.7695697664e-001
 9.6031381810e-001	 6.8570746789e-001	 1.4284495737e+000
 9.5272991776e-001	 6.9620619937e-001	 1.3762222060e+000
 9.4502466137e-001	 7.0662987446e-001	 1.3209478205e+000
 9.3719915364e-001	 7.1697640841e-001	 1.2628226722e+000
 9.2925454667e-001	 7.2724373798e-001	 1.2020101713e+000
 9.2119203937e-001	 7.3742982279e-001	 1.1386407143e+000
 9.1301287696e-001	 7.4753264667e-001	 1.0728116965e+000
 9.0471835029e-001	 7.5755021892e-001	 1.0045877008e+000
 8.9630979525e-001	 7.6748057561e-001	 9.3400085572e-001
 8.8778859203e-001	 7.7732178087e-001	 8.6105135717e-001
 8.7915616441e-001	 7.8707192812e-001	 7.8570814301e-001
 9.6573959577e-001	 6.8958171836e-001	 1.3474972524e+000
 9.5811284636e-001	 7.0013976773e-001	 1.2927080021e+000
 9.5036405523e-001	 7.1062233664e-001	 1.2355317051e+000
 9.4249433335e-001	 7.2102732855e-001	 1.1760767884e+000
 9.3450483931e-001	 7.3135266858e-001	 1.1144167884e+000
 9.2639677881e-001	 7.4159630482e-001	 1.0505903561e+000
 9.1817140408e-001	 7.5175620970e-001	 9.8460145174e-001
 9.0983001330e-001	 7.6183038128e-001	 9.1641972493e-001
 9.0137394988e-001	 7.7181684454e-001	 8.4598107265e-001
 8.9280460182e-001	 7.8171365266e-001	 7.7318836675e-001
 8.8412340094e-001	 7.9151888828e-001	 6.9791234202e-001
 9.7116537344e-001	 6.9345596884e-001	 1.2686242255e+000
 9.6349577496e-001	 7.0407333609e-001	 1.2114789341e+000
 9.5570344909e-001	 7.1461479881e-001	 1.1525905290e+000
 9.4778951305e-001	 7.2507824869e-001	 1.0919787249e+000
 9.3975513195e-001	 7.3546159918e-001	 1.0296264609e+000
 9.3160151824e-001	 7.4576278685e-001	 9.6548008381e-001
 9.2332993121e-001	 7.5597977273e-001	 8.9944972955e-001
 9.1494167631e-001	 7.6611054364e-001	 8.3140989863e-001
 9.0643810452e-001	 7.7615311346e-001	 7.6120021690e-001
 8.9782061162e-001	 7.8610552444e-001	 6.8862637340e-001
 8.8909063748e-001	 7.9596584844e-001	 6.1346122489e-001
 9.7659115111e-001	 6.9733021931e-001	 1.1917391033e+000
 9.6887870355e-001	 7.0800690445e-001	 1.1324325385e+000
 9.6104284295e-001	 7.1860726098e-001	 1.0720129061e+000
 9.5308469276e-001	 7.2912916883e-001	 1.0104103391e+000
 9.4500542458e-001	 7.3957052978e-001	 9.4751646836e-001
 9.3680625767e-001	 7.4992926888e-001	 8.8318478775e-001
 9.2848845834e-001	 7.6020333577e-001	 8.1723122668e-001
 9.2005333932e-001	 7.7039070600e-001	 7.4943492448e-001
 9.1150225915e-001	 7.8048938239e-001	 6.7953919805e-001
 9.0283662142e-001	 7.9049739622e-001	 6.0725269350e-001
 8.9405787402e-001	 8.0041280860e-001	 5.3225071070e-001
 8.4438550863e-001	 7.5594320697e-001	 1.5035937620e+000
 8.3599034426e-001	 7.6521709270e-001	 1.4286210831e+000
 8.2749124356e-001	 7.7439997673e-001	 1.3558055018e+000
 8.1888969495e-001	 7.8349012072e-001	 1.2841831511e+000
 8.1018722541e-001	 7.9248581901e-001	 1.2127836613e+000
 8.0138539963e-001	 8.0138539963e-001	 1.1406326720e+000
 7.9248581901e-001	 8.1018722541e-001	 1.0667543746e+000
 7.8349012072e-001	 8.1888969495e-001	 9.9017407093e-001
 7.7439997673e-001	 8.2749124356e-001	 9.0992073334e-001
 7.6521709270e-001	 8.3599034426e-001	 8.2502955016e-001
 7.5594320697e-001	 8.4438550863e-001	 7.3454444299e-001
 8.4935274517e-001	 7.6039016714e-001	 1.3890999575e+000
 8.4090819486e-001	 7.6971860802e-001	 1.3142591779e+000
 8.3235909681e-001	 7.7895551187e-001	 1.2417676650e+000
 8.2370694817e-001	 7.8809913013e-001	 1.1706737365e+000
 8.1495328493e-001	 7.9714774709e-001	 1.1000192589e+000
 8.0609968096e-001	 8.0609968096e-001	 1.0288421855e+000
 7.9714774709e-001	 8.1495328493e-001	 9.5617912388e-001
 7.8809913013e-001	 8.2370694817e-001	 8.8106792185e-001
 7.7895551187e-001	 8.3235909681e-001	 8.0255025291e-001
 7.6971860802e-001	 8.4090819486e-001	 7.1967418816e-001
 7.6039016714e-001	 8.4935274517e-001	 6.3149673829e-001
 8.5431998171e-001	 7.6483712730e-001	 1.2788044654e+000
 8.4582604547e-001	 7.7422012334e-001	 1.2040476336e+000
 8.3722695006e-001	 7.8351104702e-001	 1.1318191873e+000
 8.2852420140e-001	 7.9270813955e-001	 1.0611824049e+000
 8.1971934445e-001	 8.0180967518e-001	 9.9119407341e-001
 8.1081396229e-001	 8.1081396229e-001	 9.2090704747e-001
 8.0180967518e-001	 8.1971934445e-001	 8.4937284121e-001
 7.9270813955e-001	 8.2852420140e-001	 7.7564423659e-001
 7.8351104702e-001	 8.3722695006e-001	 6.9877789325e-001
 7.7422012334e-001	 8.4582604547e-001	 6.1783694377e-001
 7.6483712730e-001	 8.5431998171e-001	 5.3189355844e-001
 8.5928721825e-001	 7.6928408747e-001	 1.1725712261e+000
 8.5074389607e-001	 7.7872163866e-001	 1.0978614140e+000
 8.4209480330e-001	 7.8806658216e-001	 1.0258449384e+000
 8.3334145462e-001	 7.9731714896e-001	 9.5560276761e-001
 8.2448540397e-001	 8.0647160326e-001	 8.8620924684e-001
 8.1552824362e-001	 8.1552824362e-001	 8.1673467604e-001
 8.0647160326e-001	 8.2448540397e-001	 7.4624792151e-001
 7.9731714896e-001	 8.3334145462e-001	 6.7381904542e-001
 7.8806658216e-001	 8.4209480330e-001	 5.9852193692e-001
 7.7872163866e-001	 8.5074389607e-001	 5.1943692871e-001
 7.6928408747e-001	 8.5928721825e-001	 4.3565338258e-001
 8.6425445479e-001	 7.7373104763e-001	 1.0702690591e+000
 8.5566174668e-001	 7.8322315398e-001	 9.9558008190e-001
 8.4696265655e-001	 7.9262211731e-001	 9.2373413136e-001
 8.3815870785e-001	 8.0192615837e-001	 8.5383254962e-001
 8.2925146349e-001	 8.1113353135e-001	 7.8496983316e-001
 8.2024252495e-001	 8.2024252495e-001	 7.1623622645e-001
 8.1113353135e-001	 8.2925146349e-001	 6.4672035097e-001
 8.0192615837e-001	 8.3815870785e-001	 5.7551185304e-001
 7.9262211731e-001	 8.4696265655e-001	 5.0170405404e-001
 7.8322315398e-001	 8.5566174668e-001	 4.2439658606e-001
 7.7373104763e-001	 8.6425445479e-001	 3.4269799634e-001
 8.6922169133e-001	 7.7817800779e-001	 9.7177155638e-001
 8.6057959728e-001	 7.8772466930e-001	 8.9708770017e-001
 8.5183050980e-001	 7.9717765245e-001	 8.2538023230e-001
 8.4297596107e-001	 8.0653516778e-001	 7.5577350734e-001
 8.3401752300e-001	 8.1579545943e-001	 6.8738472186e-001
 8.2495680629e-001	 8.2495680629e-001	 6.1932652095e-001
 8.1579545943e-001	 8.3401752300e-001	 5.5070964186e-001
 8.0653516778e-001	 8.4297596107e-001	 4.8064557785e-001
 7.9717765245e-001	 8.5183050980e-001	 4.0824924517e-001
 7.8772466930e-001	 8.6057959728e-001	 3.3264163586e-001
 7.7817800779e-001	 8.6922169133e-001	 2.5295243917e-001
 8.7418892787e-001	 7.8262496795e-001	 8.7695697664e-001
 8.6549744789e-001	 7.9222618462e-001	 8.0227273548e-001
 8.5669836305e-001	 8.0173318760e-001	 7.3068087165e-001
 8.4779321430e-001	 8.1114417719e-001	 6.6133134681e-001
 8.3878358252e-001	 8.2045738752e-001	 5.9336656305e-001
 8.2967108762e-001	 8.2967108762e-001	 5.2592397957e-001
 8.2045738752e-001	 8.3878358252e-001	 4.5813876846e-001
 8.1114417719e-001	 8.4779321430e-001	 3.8914649214e-001
 8.0173318760e-001	 8.5669836305e-001	 3.1808578501e-001
 7.9222618462e-001	 8.6549744789e-001	 2.4410102144e-001
 7.8262496795e-001	 8.7418892787e-001	 1.6634495252e-001
 8.7915616441e-001	 7.8707192812e-001	 7.8570814301e-001
 8.7041529849e-001	 7.9672769994e-001	 7.1102796356e-001
 8.6156621630e-001	 8.0628872274e-001	 6.3953775716e-001
 8.5261046752e-001	 8.1575318660e-001	 5.7041564373e-001
 8.4354964204e-001	 8.2511931560e-001	 5.0283169367e-001
 8.3438536895e-001	 8.3438536895e-001	 4.3595055204e-001
 8.2511931560e-001	 8.4354964204e-001	 3.6893410387e-001
 8.1575318660e-001	 8.5261046752e-001	 3.0094416308e-001
 8.0628872274e-001	 8.6156621630e-001	 2.3114516672e-001
 7.9672769994e-001	 8.7041529849e-001	 1.5870685637e-001
 7.8707192812e-001	 8.7915616441e-001	 8.2806928589e-002
 8.8412340094e-001	 7.9151888828e-001	 6.9791234202e-001
 8.7533314910e-001	 8.0122921526e-001	 6.2325037645e-001
 8.6643406954e-001	 8.1084425789e-001	 5.5185658842e-001
 8.5742772075e-001	 8.2036219601e-001	 4.8293976475e-001
 8.4831570155e-001	 8.2978124369e-001	 4.1570006505e-001
 8.3909965028e-001	 8.3909965028e-001	 3.4933165076e-001
 8.2978124369e-001	 8.4831570155e-001	 2.8302535775e-001
 8.2036219601e-001	 8.5742772075e-001	 2.1597139452e-001
 8.1084425789e-001	 8.6643406954e-001	 1.4736204710e-001
 8.0122921526e-001	 8.7533314910e-001	 7.6394372205e-002
 7.9151888828e-001	 8.8412340094e-001	 2.2728597445e-003
 8.8909063748e-001	 7.9596584844e-001	 6.1346122489e-001
 8.8025099970e-001	 8.0573073058e-001	 5.3884109139e-001
 8.7130192279e-001	 8.1539979303e-001	 4.6754697302e-001
 8.6224497397e-001	 8.2497120542e-001	 3.9882079023e-001
 8.5308176107e-001	 8.3444317177e-001	 3.3189517151e-001
 8.4381393160e-001	 8.4381393160e-001	 2.6599608474e-001
 8.3444317177e-001	 8.5308176107e-001	 2.0034551494e-001
 8.2497120542e-001	 8.6224497397e-001	 1.3416416956e-001
 8.1539979303e-001	 8.7130192279e-001	 6.6674192383e-002
 8.0573073058e-001	 8.8025099970e-001	-2.8981332822e-003
 7.9596584844e-001	 8.8909063748e-001	-7.5319711407e-002
 8.9405787402e-001	 8.0041280860e-001	 5.3225071070e-001
 8.8516885031e-001	 8.1023224589e-001	 4.5770526149e-001
 8.7616977604e-001	 8.1995532817e-001	 3.8652234408e-001
 8.6706222719e-001	 8.2958021483e-001	 3.1797943814e-001
 8.5784782059e-001	 8.3910509985e-001	 2.5134398009e-001
 8.4852821293e-001	 8.4852821293e-001	 1.8587599456e-001
 8.3910509985e-001	 8.5784782059e-001	 1.2083077489e-001
 8.2958021483e-001	 8.6706222719e-001	 5.5461593871e-002
 8.1995532817e-001	 8.7616977604e-001	-1.0977575276e-002
 8.1023224589e-001	 8.8516885031e-001	-7.9229347113e-002
 8.0041280860e-001	 8.9405787402e-001	-1.5003024140e-001
 7.5594320697e-001	 8.4438550863e-001	 7.3454444299e-001
 7.4657867838e-001	 8.5267652345e-001	 6.4053413872e-001
 7.3712669311e-001	 8.6086071280e-001	 5.4585718851e-001
 7.2758908236e-001	 8.6893670921e-001	 4.5070718376e-001
 7.1796770543e-001	 8.7690318707e-001	 3.5527656401e-001
 7.0826444858e-001	 8.8475886334e-001	 2.5975676427e-001
 6.9848122376e-001	 8.9250249820e-001	 1.6433829413e-001
 6.8861996742e-001	 9.0013289570e-001	 6.9210741481e-002
 6.7868263924e-001	 9.0764890433e-001	-2.5437306324e-002
 6.6867122085e-001	 9.1504941758e-001	-1.1941842956e-001
 6.5858771454e-001	 9.2233337440e-001	-2.1525487728e-001
 7.6039016714e-001	 8.4935274517e-001	 6.3149673829e-001
 7.5097055016e-001	 8.5769253325e-001	 5.4002658492e-001
 7.4146296204e-001	 8.6592486743e-001	 4.4802348276e-001
 7.3186924473e-001	 8.7404837222e-001	 3.5563829397e-001
 7.2219126847e-001	 8.8206171419e-001	 2.6302218669e-001
 7.1243093061e-001	 8.8996360277e-001	 1.7032687825e-001
 7.0259015436e-001	 8.9775279083e-001	 7.7704804488e-002
 6.9267088757e-001	 9.0542807540e-001	-1.4690792910e-002
 6.8267510142e-001	 9.1298829819e-001	-1.0670586825e-001
 6.7260478921e-001	 9.2043234617e-001	-1.9818566934e-001
 6.6246196502e-001	 9.2775915207e-001	-2.8972110656e-001
 7.6483712730e-001	 8.5431998171e-001	 5.3189355844e-001
 7.5536242195e-001	 8.6270854304e-001	 4.4290342041e-001
 7.4579923097e-001	 8.7098902207e-001	 3.5353100434e-001
 7.3614940709e-001	 8.7916003523e-001	 2.6388112663e-001
 7.2641483150e-001	 8.8722024132e-001	 1.7406040385e-001
 7.1659741264e-001	 8.9516834220e-001	 8.4177599974e-002
 7.0669908497e-001	 9.0300308347e-001	-5.6561063155e-003
 6.9672180771e-001	 9.1072325511e-001	-9.5326942848e-002
 6.8666756359e-001	 9.1832769205e-001	-1.8471846150e-001
 6.7653835757e-001	 9.2581527477e-001	-2.7371155886e-001
 6.6633621550e-001	 9.3318492974e-001	-3.6219008164e-001
 7.6928408747e-001	 8.5928721825e-001	 4.3565338258e-001
 7.5975429374e-001	 8.6772455284e-001	 3.4908171560e-001
 7.5013549990e-001	 8.7605317670e-001	 2.6229538599e-001
 7.4042956946e-001	 8.8427169824e-001	 1.7534990268e-001
 7.3063839454e-001	 8.9237876845e-001	 8.8304105438e-002
 7.2076389467e-001	 9.0037308164e-001	 1.2206242972e-003
 7.1080801557e-001	 9.0825337611e-001	-8.5833747263e-002
 7.0077272785e-001	 9.1601843482e-001	-1.7278777446e-001
 6.9066002577e-001	 9.2366708592e-001	-2.5956560697e-001
 6.8047192593e-001	 9.3119820337e-001	-3.4608671562e-001
 6.7021046598e-001	 9.3861070742e-001	-4.3226594629e-001
 7.7373104763e-001	 8.6425445479e-001	 3.4269799634e-001
 7.6414616552e-001	 8.7274056264e-001	 2.5848183765e-001
 7.5447176883e-001	 8.8111733134e-001	 1.7423554541e-001
 7.4470973182e-001	 8.8938336125e-001	 8.9962112536e-002
 7.3486195757e-001	 8.9753729558e-001	 5.6694302601e-003
 7.2493037670e-001	 9.0557782107e-001	-7.8629132263e-002
 7.1491694617e-001	 9.1350366875e-001	-1.6291424098e-001
 7.0482364799e-001	 9.2131361452e-001	-2.4716021232e-001
 6.9465248794e-001	 9.2900647978e-001	-3.3133473977e-001
 6.8440549429e-001	 9.3658113197e-001	-4.1539873941e-001
 6.7408471646e-001	 9.4403648509e-001	-4.9930632123e-001
 7.7817800779e-001	 8.6922169133e-001	 2.5295243917e-001
 7.6853803730e-001	 8.7775657243e-001	 1.7102739934e-001
 7.5880803776e-001	 8.8618148597e-001	 8.9273635494e-002
 7.4898989419e-001	 8.9449502426e-001	 7.6384678819e-003
 7.3908552061e-001	 9.0269582270e-001	-7.3924280565e-002
 7.2909685873e-001	 9.1078256050e-001	-1.5545357629e-001
 7.1902587677e-001	 9.1875396139e-001	-2.3698056647e-001
 7.0887456813e-001	 9.2660879423e-001	-3.1852807996e-001
 6.9864495012e-001	 9.3434587364e-001	-4.0011024722e-001
 6.8833906265e-001	 9.4196406056e-001	-4.8173224761e-001
 6.7795896694e-001	 9.4946226276e-001	-5.6339019113e-001
 7.8262496795e-001	 8.7418892787e-001	 1.6634495252e-001
 7.7292990909e-001	 8.8277258223e-001	 8.6645208502e-002
 7.6314430668e-001	 8.9124564061e-001	 7.3349952786e-003
 7.5327005655e-001	 8.9960668728e-001	-7.1697145888e-002
 7.4330908364e-001	 9.0785434983e-001	-1.5055452952e-001
 7.3326334076e-001	 9.1598729994e-001	-2.2933148158e-001
 7.2313480738e-001	 9.2400425403e-001	-3.0811260126e-001
 7.1292548827e-001	 9.3190397394e-001	-3.8697213982e-001
 7.0263741229e-001	 9.3968526750e-001	-4.6597350642e-001
 6.9227263101e-001	 9.4734698916e-001	-5.4516890997e-001
 6.8183321741e-001	 9.5488804043e-001	-6.2459914454e-001
 7.8707192812e-001	 8.7915616441e-001	 8.2806928589e-002
 7.7732178087e-001	 8.8778859203e-001	 5.2652182263e-003
 7.6748057561e-001	 8.9630979525e-001	-7.1651898485e-002
 7.5755021892e-001	 9.0471835029e-001	-1.4811771657e-001
 7.4753264667e-001	 9.1301287696e-001	-2.2429570795e-001
 7.3742982279e-001	 9.2119203937e-001	-3.0033853264e-001
 7.2724373798e-001	 9.2925454667e-001	-3.7638716298e-001
 7.1697640841e-001	 9.3719915364e-001	-4.5257013270e-001
 7.0662987446e-001	 9.4502466137e-001	-5.2900292126e-001
 6.9620619937e-001	 9.5272991776e-001	-6.0578748302e-001
 6.8570746789e-001	 9.6031381810e-001	-6.8301192957e-001
 7.9151888828e-001	 8.8412340094e-001	 2.2728597445e-003
 7.8171365266e-001	 8.9280460182e-001	-7.3179522380e-002
 7.7181684454e-001	 9.0137394988e-001	-1.4775547912e-001
 7.6183038128e-001	 9.0983001330e-001	-2.2169315144e-001
 7.5175620970e-001	 9.1817140408e-001	-2.9521914081e-001
 7.4159630482e-001	 9.2639677881e-001	-3.6854736768e-001
 7.3135266858e-001	 9.3450483931e-001	-4.4187805038e-001
 7.2102732855e-001	 9.4249433335e-001	-5.1539681664e-001
 7.1062233664e-001	 9.5036405523e-001	-5.8927395895e-001
 7.0013976773e-001	 9.5811284636e-001	-6.6366384402e-001
 6.8958171836e-001	 9.6573959577e-001	-7.3870448497e-001
 7.9596584844e-001	 8.8909063748e-001	-7.5319711407e-002
 7.8610552444e-001	 8.9782061162e-001	-1.4875291678e-001
 7.7615311346e-001	 9.0643810452e-001	-2.2104113720e-001
 7.6611054364e-001	 9.1494167631e-001	-2.9249032299e-001
 7.5597977273e-001	 9.2332993121e-001	-3.6339313069e-001
 7.4576278685e-001	 9.3160151824e-001	-4.3402762092e-001
 7.3546159918e-001	 9.3975513195e-001	-5.0465608381e-001
 7.2507824869e-001	 9.4778951305e-001	-5.7552400530e-001
 7.1461479881e-001	 9.5570344909e-001	-6.4685918617e-001
 7.0407333609e-001	 9.6349577496e-001	-7.1887102445e-001
 6.9345596884e-001	 9.7116537344e-001	-7.9174997078e-001
 8.0041280860e-001	 8.9405787402e-001	-1.5003024140e-001
 7.9049739622e-001	 9.0283662142e-001	-2.2151586901e-001
 7.8048938239e-001	 9.1150225915e-001	-2.9157126721e-001
 7.7039070600e-001	 9.2005333932e-001	-3.6057311400e-001
 7.6020333577e-001	 9.2848845834e-001	-4.2888300145e-001
 7.4992926888e-001	 9.3680625767e-001	-4.9684596451e-001
 7.3957052978e-001	 9.4500542458e-001	-5.6478914520e-001
 7.2912916883e-001	 9.5308469276e-001	-6.3302060594e-001
 7.1860726098e-001	 9.6104284295e-001	-7.0182830468e-001
 7.0800690445e-001	 9.6887870355e-001	-7.7147924323e-001
 6.9733021931e-001	 9.7659115111e-001	-8.4221879875e-001
 6.5858771454e-001	 9.2233337440e-001	-2.1525487728e-001
 6.4843414180e-001	 9.2949975947e-001	-3.1603698324e-001
 6.3821254128e-001	 9.3654760272e-001	-4.1941031257e-001
 6.2792496822e-001	 9.4347598055e-001	-5.2487782019e-001
 6.1757349335e-001	 9.5028401640e-001	-6.3187921324e-001
 6.0716020150e-001	 9.5697088101e-001	-7.3979673583e-001
 5.9668719035e-001	 9.6353579266e-001	-8.4796101106e-001
 5.8615656903e-001	 9.6997801739e-001	-9.5565689982e-001
 5.7557045681e-001	 9.7629686910e-001	-1.0621293370e+000
 5.6493098176e-001	 9.8249170971e-001	-1.1665891069e+000
 5.5424027942e-001	 9.8856194916e-001	-1.2682185228e+000
 6.6246196502e-001	 9.2775915207e-001	-2.8972110656e-001
 6.5224866222e-001	 9.3496769457e-001	-3.8528184125e-001
 6.4196693145e-001	 9.4205699792e-001	-4.8370858298e-001
 6.3161884006e-001	 9.4902613308e-001	-5.8445153314e-001
 6.2120647093e-001	 9.5587421832e-001	-6.8689661938e-001
 6.1073192118e-001	 9.6260041950e-001	-7.9037157486e-001
 6.0019730082e-001	 9.6920395033e-001	-8.9415207211e-001
 5.8960473139e-001	 9.7568407250e-001	-9.9746786906e-001
 5.7895634463e-001	 9.8204009590e-001	-1.0995089264e+000
 5.6825428112e-001	 9.8827137867e-001	-1.1994314570e+000
 5.5750068896e-001	 9.9437732731e-001	-1.2963638693e+000
 6.6633621550e-001	 9.3318492974e-001	-3.6219008164e-001
 6.5606318264e-001	 9.4043562968e-001	-4.5244404056e-001
 6.4572132163e-001	 9.4756639312e-001	-5.4587368570e-001
 6.3531271189e-001	 9.5457628560e-001	-6.4187491366e-001
 6.2483944851e-001	 9.6146442023e-001	-7.3977828367e-001
 6.1430364087e-001	 9.6822995800e-001	-8.3885540139e-001
 6.0370741130e-001	 9.7487210800e-001	-9.3832535409e-001
 5.9305289375e-001	 9.8139012761e-001	-1.0373611535e+000
 5.8234223244e-001	 9.8778332269e-001	-1.1350961435e+000
 5.7157758047e-001	 9.9405104764e-001	-1.2306303325e+000
 5.6076109850e-001	 1.0001927055e+000	-1.3230366101e+000
 6.7021046598e-001	 9.3861070742e-001	-4.3226594629e-001
 6.5987770305e-001	 9.4590356479e-001	-5.1764839855e-001
 6.4947571180e-001	 9.5307578833e-001	-6.0602727034e-001
 6.3900658373e-001	 9.6012643813e-001	-6.9726632108e-001
 6.2847242609e-001	 9.6705462215e-001	-7.9063913988e-001
 6.1787536055e-001	 9.7385949650e-001	-8.8535957554e-001
 6.0721752177e-001	 9.8054026567e-001	-9.8058848297e-001
 5.9650105611e-001	 9.8709618273e-001	-1.0754404725e+000
 5.8572812026e-001	 9.9352654949e-001	-1.1689906176e+000
 5.7490087983e-001	 9.9983071661e-001	-1.2602810786e+000
 5.6402150804e-001	 1.0060080836e+000	-1.3483276023e+000
 6.7408471646e-001	 9.4403648509e-001	-4.9930632123e-001
 6.6369222347e-001	 9.5137149990e-001	-5.8101688200e-001
 6.5323010197e-001	 9.5858518354e-001	-6.6428837464e-001
 6.4270045556e-001	 9.6567659066e-001	-7.5074175028e-001
 6.3210540367e-001	 9.7264482407e-001	-8.3959201221e-001
 6.2144708023e-001	 9.7948903500e-001	-9.2999360918e-001
 6.1072763224e-001	 9.8620842333e-001	-1.0210475032e+000
 5.9994921848e-001	 9.9280223784e-001	-1.1118082349e+000
 5.8911400807e-001	 9.9926977629e-001	-1.2012909411e+000
 5.7822417918e-001	 1.0056103856e+000	-1.2884782796e+000
 5.6728191759e-001	 1.0118234618e+000	-1.3723272198e+000
 6.7795896694e-001	 9.4946226276e-001	-5.6339019113e-001
 6.6750674389e-001	 9.5683943501e-001	-6.4264082494e-001
 6.5698449214e-001	 9.6409457874e-001	-7.2077332230e-001
 6.4639432739e-001	 9.7122674318e-001	-8.0241473038e-001
 6.3573838125e-001	 9.7823502598e-001	-8.8674751483e-001
 6.2501879991e-001	 9.8511857349e-001	-9.7286506624e-001
 6.1423774271e-001	 9.9187658100e-001	-1.0598067784e+000
 6.0339738084e-001	 9.9850829296e-001	-1.1465654402e+000
 5.9249989589e-001	 1.0050130031e+000	-1.2320945721e+000
 5.8154747854e-001	 1.0113900545e+000	-1.3153156618e+000
 5.7054232713e-001	 1.0176388399e+000	-1.3951252553e+000
 6.8183321741e-001	 9.5488804043e-001	-6.2459914454e-001
 6.7132126430e-001	 9.6230737012e-001	-7.0180766641e-001
 6.6073888231e-001	 9.6960397395e-001	-7.7559562060e-001
 6.5008819922e-001	 9.7677689571e-001	-8.5239622331e-001
 6.3937135883e-001	 9.8382522790e-001	-9.3221395133e-001
 6.2859051959e-001	 9.9074811199e-001	-1.0140794629e+000
 6.1774785318e-001	 9.9754473867e-001	-1.0969688927e+000
 6.0684554319e-001	 1.0042143481e+000	-1.1798115803e+000
 5.9588578370e-001	 1.0107562299e+000	-1.2614977357e+000
 5.8487077789e-001	 1.0171697235e+000	-1.3408859955e+000
 5.7380273667e-001	 1.0234542181e+000	-1.4168108239e+000
 6.8570746789e-001	 9.6031381810e-001	-6.8301192957e-001
 6.7513578472e-001	 9.6777530523e-001	-7.5821806050e-001
 6.6449327248e-001	 9.7511336915e-001	-8.2886585769e-001
 6.5378207106e-001	 9.8232704824e-001	-9.0079452223e-001
 6.4300433641e-001	 9.8941542982e-001	-9.7609721408e-001
 6.3216223926e-001	 9.9637765049e-001	-1.0537401678e+000
 6.2125796365e-001	 1.0032128963e+000	-1.1326345513e+000
 6.1029370555e-001	 1.0099204032e+000	-1.2116445408e+000
 5.9927167152e-001	 1.0164994567e+000	-1.2895953265e+000
 5.8819407724e-001	 1.0229493925e+000	-1.3652809982e+000
 5.7706314621e-001	 1.0292695962e+000	-1.4374722656e+000
 6.8958171836e-001	 9.6573959577e-001	-7.3870448497e-001
 6.7895030513e-001	 9.7324324034e-001	-8.1194774602e-001
 6.6824766265e-001	 9.8062276436e-001	-8.8058987577e-001
 6.5747594289e-001	 9.8787720077e-001	-9.4771514974e-001
 6.4663731399e-001	 9.9500563174e-001	-1.0185006836e+000
 6.3573395894e-001	 1.0020071890e+000	-1.0919483025e+000
 6.2476807412e-001	 1.0088810540e+000	-1.1669024818e+000
 6.1374186791e-001	 1.0156264583e+000	-1.2421605037e+000
 6.0265755933e-001	 1.0222426835e+000	-1.3164808118e+000
 5.9151737660e-001	 1.0287290614e+000	-1.3885912378e+000
 5.8032355574e-001	 1.0350849743e+000	-1.4571970500e+000
 6.9345596884e-001	 9.7116537344e-001	-7.9174997078e-001
 6.8276482555e-001	 9.7871117545e-001	-8.6306976058e-001
 6.7200205282e-001	 9.8613215956e-001	-9.2997601388e-001
 6.6116981472e-001	 9.9342735329e-001	-9.9326075605e-001
 6.5027029157e-001	 1.0005958337e+000	-1.0595251277e+000
 6.3930567862e-001	 1.0076367275e+000	-1.1288026415e+000
 6.2827818459e-001	 1.0145492117e+000	-1.1998693359e+000
 6.1719003027e-001	 1.0213325134e+000	-1.2714538489e+000
 6.0604344714e-001	 1.0279859103e+000	-1.3422461340e+000
 5.9484067595e-001	 1.0345087304e+000	-1.4109060362e+000
 5.8358396528e-001	 1.0409003525e+000	-1.4760716798e+000
 6.9733021931e-001	 9.7659115111e-001	-8.4221879875e-001
 6.8657934596e-001	 9.8417911056e-001	-9.1165446796e-001
 6.7575644299e-001	 9.9164155477e-001	-9.7689073669e-001
 6.6486368655e-001	 9.9897750582e-001	-1.0375310169e+000
 6.5390326915e-001	 1.0061860356e+000	-1.0992686007e+000
 6.4287739830e-001	 1.0132662660e+000	-1.1643995130e+000
 6.3178829505e-001	 1.0202173693e+000	-1.2316295900e+000
 6.2063819263e-001	 1.0270385685e+000	-1.2996170570e+000
 6.0942933496e-001	 1.0337291371e+000	-1.3669816140e+000
 5.9816397530e-001	 1.0402883994e+000	-1.4323133736e+000
 5.8684437482e-001	 1.0467157306e+000	-1.4941815965e+000
 5.5424027942e-001	 9.8856194916e-001	-1.2682185228e+000
 5.4350210603e-001	 9.9450616332e-001	-1.3693887536e+000
 5.3271700786e-001	 1.0003247790e+000	-1.4726787405e+000
 5.2188713452e-001	 1.0060173511e+000	-1.5775139955e+000
 5.1101463777e-001	 1.0115834827e+000	-1.6833158564e+000
 5.0010167025e-001	 1.0170228241e+000	-1.7895052041e+000
 4.8915038420e-001	 1.0223350735e+000	-1.8955059243e+000
 4.7816293016e-001	 1.0275199761e+000	-2.0007480956e+000
 4.6714145575e-001	 1.0325773241e+000	-2.1046708910e+000
 4.5608810444e-001	 1.0375069564e+000	-2.2067251809e+000
 4.4500501426e-001	 1.0423087583e+000	-2.3063758308e+000
 5.5750068896e-001	 9.9437732731e-001	-1.2963638693e+000
 5.4669934650e-001	 1.0003565093e+000	-1.3926981191e+000
 5.3585080322e-001	 1.0062093539e+000	-1.4910747195e+000
 5.2495722137e-001	 1.0119354135e+000	-1.5909291997e+000
 5.1402076537e-001	 1.0175342888e+000	-1.6916929163e+000
 5.0304360053e-001	 1.0230056280e+000	-1.7927968760e+000
 4.9202789173e-001	 1.0283491276e+000	-1.8936752911e+000
 4.8097580219e-001	 1.0335645312e+000	-1.9937688507e+000
 4.6988949215e-001	 1.0386516299e+000	-2.0925276931e+000
 4.5877111767e-001	 1.0436102616e+000	-2.1894140673e+000
 4.4762282940e-001	 1.0484403108e+000	-2.2839046765e+000
 5.6076109850e-001	 1.0001927055e+000	-1.3230366101e+000
 5.4989658697e-001	 1.0062068552e+000	-1.4147196313e+000
 5.3898459858e-001	 1.0120939288e+000	-1.5083735075e+000
 5.2802730822e-001	 1.0178534760e+000	-1.6034422738e+000
 5.1702689297e-001	 1.0234850949e+000	-1.6993657906e+000
 5.0598553080e-001	 1.0289884320e+000	-1.7955836789e+000
 4.9490539926e-001	 1.0343631817e+000	-1.8915389761e+000
 4.8378867421e-001	 1.0396090864e+000	-1.9866814954e+000
 4.7263752854e-001	 1.0447259358e+000	-2.0804708743e+000
 4.6145413091e-001	 1.0497135668e+000	-2.1723792997e+000
 4.5024064453e-001	 1.0545718634e+000	-2.2618939009e+000
 5.6402150804e-001	 1.0060080836e+000	-1.3483276023e+000
 5.5309382744e-001	 1.0120572012e+000	-1.4355391780e+000
 5.4211839393e-001	 1.0179785037e+000	-1.5246552648e+000
 5.3109739506e-001	 1.0237715384e+000	-1.6151268861e+000
 5.2003302057e-001	 1.0294359010e+000	-1.7064008884e+000
 5.0892746107e-001	 1.0349712359e+000	-1.7979239945e+000
 4.9778290680e-001	 1.0403772358e+000	-1.8891465663e+000
 4.8660154624e-001	 1.0456536415e+000	-1.9795260579e+000
 4.7538556493e-001	 1.0508002416e+000	-2.0685301457e+000
 4.6413714414e-001	 1.0558168720e+000	-2.1556395210e+000
 4.5285845967e-001	 1.0607034160e+000	-2.2403503384e+000
 5.6728191759e-001	 1.0118234618e+000	-1.3723272198e+000
 5.5629106791e-001	 1.0179075472e+000	-1.4552424473e+000
 5.4525218929e-001	 1.0238630787e+000	-1.5400002464e+000
 5.3416748191e-001	 1.0296896008e+000	-1.6260571051e+000
 5.2303914816e-001	 1.0353867071e+000	-1.7128653338e+000
 5.1186939134e-001	 1.0409540398e+000	-1.7998772429e+000
 5.0066041433e-001	 1.0463912899e+000	-1.8865490180e+000
 4.8941441827e-001	 1.0516981967e+000	-1.9723442735e+000
 4.7813360132e-001	 1.0568745474e+000	-2.0567372686e+000
 4.6682015738e-001	 1.0619201772e+000	-2.1392157732e+000
 4.5547627480e-001	 1.0668349686e+000	-2.2192835753e+000
 5.7054232713e-001	 1.0176388399e+000	-1.3951252553e+000
 5.5948830838e-001	 1.0237578931e+000	-1.4739148300e+000
 5.4838598465e-001	 1.0297476536e+000	-1.5544887040e+000
 5.3723756876e-001	 1.0356076632e+000	-1.6363073002e+000
 5.2604527576e-001	 1.0413375132e+000	-1.7188268655e+000
 5.1481132162e-001	 1.0469368437e+000	-1.8015037801e+000
 5.0353792186e-001	 1.0524053440e+000	-1.8837985523e+000
 4.9222729030e-001	 1.0577427518e+000	-1.9651794772e+000
 4.8088163772e-001	 1.0629488532e+000	-2.0451259447e+000
 4.6950317062e-001	 1.0680234824e+000	-2.1231313839e+000
 4.5809408994e-001	 1.0729665212e+000	-2.1987058328e+000
 5.7380273667e-001	 1.0234542181e+000	-1.4168108239e+000
 5.6268554885e-001	 1.0296082391e+000	-1.4916413218e+000
 5.5151978001e-001	 1.0356322285e+000	-1.5682007889e+000
 5.4030765560e-001	 1.0415257256e+000	-1.6459520442e+000
 5.2905140336e-001	 1.0472883193e+000	-1.7243537375e+000
 5.1775325189e-001	 1.0529196477e+000	-1.8028647977e+000
 5.0641542939e-001	 1.0584193981e+000	-1.8809485524e+000
 4.9504016232e-001	 1.0637873070e+000	-1.9580764987e+000
 4.8362967411e-001	 1.0690231591e+000	-2.0337317087e+000
 4.7218618385e-001	 1.0741267876e+000	-2.1074118555e+000
 4.6071190508e-001	 1.0790980738e+000	-2.1786318523e+000
 5.7706314621e-001	 1.0292695962e+000	-1.4374722656e+000
 5.6588278932e-001	 1.0354585851e+000	-1.5085064277e+000
 5.5465357536e-001	 1.0415168035e+000	-1.5812164552e+000
 5.4337774245e-001	 1.0474437881e+000	-1.6550660154e+000
 5.3205753096e-001	 1.0532391254e+000	-1.7295146208e+000
 5.2069518216e-001	 1.0589024516e+000	-1.8040222225e+000
 5.0929293692e-001	 1.0644334522e+000	-1.8780534620e+000
 4.9785303435e-001	 1.0698318621e+000	-1.9510815593e+000
 4.8637771050e-001	 1.0750974649e+000	-2.0225918212e+000
 4.7486919709e-001	 1.0802300928e+000	-2.0920847560e+000
 4.6332972021e-001	 1.0852296264e+000	-2.1590787831e+000
 5.8032355574e-001	 1.0350849743e+000	-1.4571970500e+000
 5.6908002979e-001	 1.0413089310e+000	-1.5245940659e+000
 5.5778737072e-001	 1.0474013784e+000	-1.5936153638e+000
 5.4644782930e-001	 1.0533618505e+000	-1.6637239017e+000
 5.3506365855e-001	 1.0591899315e+000	-1.7343785062e+000
 5.2363711243e-001	 1.0648852555e+000	-1.8050386188e+000
 5.1217044445e-001	 1.0704475063e+000	-1.8751686854e+000
 5.0066590637e-001	 1.0758764173e+000	-1.9442421688e+000
 4.8912574689e-001	 1.0811717707e+000	-2.0117451653e+000
 4.7755221032e-001	 1.0863333980e+000	-2.0771796116e+000
 4.6594753535e-001	 1.0913611790e+000	-2.1400660722e+000
 5.8358396528e-001	 1.0409003525e+000	-1.4760716798e+000
 5.7227727026e-001	 1.0471592770e+000	-1.5399874723e+000
 5.6092116608e-001	 1.0532859533e+000	-1.6054767873e+000
 5.4951791614e-001	 1.0592799129e+000	-1.6720003049e+000
 5.3806978615e-001	 1.0651407376e+000	-1.7390146084e+000
 5.2657904270e-001	 1.0708680594e+000	-1.8059770908e+000
 5.1504795198e-001	 1.0764615604e+000	-1.8723504889e+000
 5.0347877840e-001	 1.0819209724e+000	-1.9376070261e+000
 4.9187378328e-001	 1.0872460765e+000	-2.0012321430e+000
 4.8023522356e-001	 1.0924367032e+000	-2.0627278019e+000
 4.6856535048e-001	 1.0974927315e+000	-2.1216153559e+000
 5.8684437482e-001	 1.0467157306e+000	-1.4941815965e+000
 5.7547451073e-001	 1.0530096230e+000	-1.5547691064e+000
 5.6405496143e-001	 1.0591705282e+000	-1.6168795158e+000
 5.5258800299e-001	 1.0651979753e+000	-1.6799696460e+000
 5.4107591374e-001	 1.0710915437e+000	-1.7434922702e+000
 5.2952097297e-001	 1.0768508634e+000	-1.8069011861e+000
 5.1792545951e-001	 1.0824756146e+000	-1.8696559028e+000
 5.0629165043e-001	 1.0879655276e+000	-1.9312259191e+000
 4.9462181967e-001	 1.0933203824e+000	-1.9910945744e+000
 4.8291823679e-001	 1.0985400084e+000	-2.0487624560e+000
 4.7118316562e-001	 1.1036242841e+000	-2.1037503538e+000
 4.4500501426e-001	 1.0423087583e+000	-2.3063758308e+000
 4.3389264804e-001	 1.0469833524e+000	-2.4048492594e+000
 4.2275479134e-001	 1.0515299862e+000	-2.5033710366e+000
 4.1159356035e-001	 1.0559486821e+000	-2.6014790059e+000
 4.0041106122e-001	 1.0602395073e+000	-2.6987358992e+000
 3.8920938882e-001	 1.0644025727e+000	-2.7947296828e+000
 3.7799062577e-001	 1.0684380329e+000	-2.8890736013e+000
 3.6675684127e-001	 1.0723460855e+000	-2.9814059338e+000
 3.5551009013e-001	 1.0761269702e+000	-3.0713894711e+000
 3.4425241174e-001	 1.0797809684e+000	-3.1587107310e+000
 3.3298582908e-001	 1.0833084025e+000	-3.2430789272e+000
 4.4762282940e-001	 1.0484403108e+000	-2.2839046765e+000
 4.3644509286e-001	 1.0531424041e+000	-2.3772844165e+000
 4.2524171588e-001	 1.0577157842e+000	-2.4708215502e+000
 4.1401482712e-001	 1.0621604738e+000	-2.5640409611e+000
 4.0276654510e-001	 1.0664765404e+000	-2.6564935515e+000
 3.9149897702e-001	 1.0706640957e+000	-2.7477566032e+000
 3.8021421775e-001	 1.0747232952e+000	-2.8374338250e+000
 3.6891434867e-001	 1.0786543376e+000	-2.9251550980e+000
 3.5760143667e-001	 1.0824574640e+000	-3.0105759305e+000
 3.4627753314e-001	 1.0861329574e+000	-3.0933766387e+000
 3.3494467295e-001	 1.0896811422e+000	-3.1732612697e+000
 4.5024064453e-001	 1.0545718634e+000	-2.2618939009e+000
 4.3899753768e-001	 1.0593014557e+000	-2.3503594214e+000
 4.2772864042e-001	 1.0639015822e+000	-2.4390889531e+000
 4.1643609389e-001	 1.0683722655e+000	-2.5275943843e+000
 4.0512202897e-001	 1.0727135736e+000	-2.6154149128e+000
 3.9378856522e-001	 1.0769256188e+000	-2.7021174217e+000
 3.8243780973e-001	 1.0810085576e+000	-2.7872965261e+000
 3.7107185607e-001	 1.0849625897e+000	-2.8705743052e+000
 3.5969278321e-001	 1.0887879577e+000	-2.9515997304e+000
 3.4830265453e-001	 1.0924849464e+000	-3.0300478076e+000
 3.3690351682e-001	 1.0960538819e+000	-3.1056184497e+000
 4.5285845967e-001	 1.0607034160e+000	-2.2403503384e+000
 4.4154998249e-001	 1.0654605074e+000	-2.3240694154e+000
 4.3021556496e-001	 1.0700873801e+000	-2.4081576551e+000
 4.1885736066e-001	 1.0745840572e+000	-2.4921139075e+000
 4.0747751285e-001	 1.0789506068e+000	-2.5754657865e+000
 3.9607815342e-001	 1.0831871419e+000	-2.6577700565e+000
 3.8466140171e-001	 1.0872938199e+000	-2.7386126776e+000
 3.7322936346e-001	 1.0912708418e+000	-2.8176085198e+000
 3.6178412974e-001	 1.0951184515e+000	-2.8944007620e+000
 3.5032777592e-001	 1.0988369354e+000	-2.9686599906e+000
 3.3886236069e-001	 1.1024266217e+000	-3.0400830168e+000
 4.5547627480e-001	 1.0668349686e+000	-2.2192835753e+000
 4.4410242731e-001	 1.0716195590e+000	-2.2984126285e+000
 4.3270248951e-001	 1.0762731781e+000	-2.3780154556e+000
 4.2127862742e-001	 1.0807958489e+000	-2.4575778188e+000
 4.0983299673e-001	 1.0851876399e+000	-2.5366158613e+000
 3.9836774162e-001	 1.0894486650e+000	-2.6146765049e+000
 3.8688499370e-001	 1.0935790823e+000	-2.6913374889e+000
 3.7538687086e-001	 1.0975790939e+000	-2.7662070651e+000
 3.6387547628e-001	 1.1014489453e+000	-2.8389233624e+000
 3.5235289732e-001	 1.1051889245e+000	-2.9091534378e+000
 3.4082120455e-001	 1.1087993614e+000	-2.9765920343e+000
 4.5809408994e-001	 1.0729665212e+000	-2.1987058328e+000
 4.4665487212e-001	 1.0777786107e+000	-2.2733902591e+000
 4.3518941405e-001	 1.0824589761e+000	-2.3486534212e+000
 4.2369989419e-001	 1.0870076406e+000	-2.4239679360e+000
 4.1218848061e-001	 1.0914246731e+000	-2.4988385842e+000
 4.0065732982e-001	 1.0957101881e+000	-2.5728027152e+000
 3.8910858568e-001	 1.0998643446e+000	-2.6454302787e+000
 3.7754437826e-001	 1.1038873460e+000	-2.7163234964e+000
 3.6596682281e-001	 1.1077794391e+000	-2.7851161883e+000
 3.5437801871e-001	 1.1115409135e+000	-2.8514727727e+000
 3.4278004842e-001	 1.1151721011e+000	-2.9150869582e+000
 4.6071190508e-001	 1.0790980738e+000	-2.1786318523e+000
 4.4920731694e-001	 1.0839376623e+000	-2.2490063560e+000
 4.3767633859e-001	 1.0886447741e+000	-2.3200657645e+000
 4.2612116095e-001	 1.0932194322e+000	-2.3912694847e+000
 4.1454396448e-001	 1.0976617063e+000	-2.4621110363e+000
 4.0294691802e-001	 1.1019717111e+000	-2.5321184622e+000
 3.9133217766e-001	 1.1061496069e+000	-2.6008543501e+000
 3.7970188566e-001	 1.1101955981e+000	-2.6679154768e+000
 3.6805816935e-001	 1.1141099328e+000	-2.7329320943e+000
 3.5640314010e-001	 1.1178929025e+000	-2.7955668721e+000
 3.4473889229e-001	 1.1215448409e+000	-2.8555135201e+000
 4.6332972021e-001	 1.0852296264e+000	-2.1590787831e+000
 4.5175976175e-001	 1.0900967140e+000	-2.2252677027e+000
 4.4016326313e-001	 1.0948305720e+000	-2.2922497260e+000
 4.2854242772e-001	 1.0994312239e+000	-2.3594709779e+000
 4.1689944836e-001	 1.1038987394e+000	-2.4264138121e+000
 4.0523650622e-001	 1.1082332342e+000	-2.4925972262e+000
 3.9355576964e-001	 1.1124348693e+000	-2.5575768693e+000
 3.8185939305e-001	 1.1165038502e+000	-2.6209446575e+000
 3.7014951588e-001	 1.1204404266e+000	-2.6823280132e+000
 3.5842826149e-001	 1.1242448915e+000	-2.7413887486e+000
 3.4669773616e-001	 1.1279175806e+000	-2.7978216120e+000
 4.6594753535e-001	 1.0913611790e+000	-2.1400660722e+000
 4.5431220657e-001	 1.0962557657e+000	-2.2021837044e+000
 4.4265018767e-001	 1.1010163700e+000	-2.2652054591e+000
 4.3096369449e-001	 1.1056430156e+000	-2.3285640991e+000
 4.1925493224e-001	 1.1101357726e+000	-2.3917309014e+000
 4.0752609441e-001	 1.1144947573e+000	-2.4542160740e+000
 3.9577936162e-001	 1.1187201316e+000	-2.5155687478e+000
 3.8401690045e-001	 1.1228121023e+000	-2.5753765593e+000
 3.7224086242e-001	 1.1267709204e+000	-2.6332648405e+000
 3.6045338289e-001	 1.1305968806e+000	-2.6888954372e+000
 3.4865658003e-001	 1.1342903203e+000	-2.7419651754e+000
 4.6856535048e-001	 1.0974927315e+000	-2.1216153559e+000
 4.5686465138e-001	 1.1024148173e+000	-2.1797662767e+000
 4.4513711222e-001	 1.1072021680e+000	-2.2389359164e+000
 4.3338496125e-001	 1.1118548073e+000	-2.2985435878e+000
 4.2161041612e-001	 1.1163728057e+000	-2.3580495736e+000
 4.0981568261e-001	 1.1207562804e+000	-2.4169555432e+000
 3.9800295360e-001	 1.1250053940e+000	-2.4748045262e+000
 3.8617440785e-001	 1.1291203544e+000	-2.5311804589e+000
 3.7433220896e-001	 1.1331014142e+000	-2.5857073209e+000
 3.6247850428e-001	 1.1369488696e+000	-2.6380478838e+000
 3.5061542390e-001	 1.1406630601e+000	-2.6879020929e+000
 4.7118316562e-001	 1.1036242841e+000	-2.1037503538e+000
 4.5941709620e-001	 1.1085738690e+000	-2.1580297374e+000
 4.4762403676e-001	 1.1133879660e+000	-2.2134467396e+000
 4.3580622802e-001	 1.1180665990e+000	-2.2694071272e+000
 4.2396589999e-001	 1.1226098389e+000	-2.3253602649e+000
 4.1210527081e-001	 1.1270178035e+000	-2.3807995292e+000
 4.0022654558e-001	 1.1312906563e+000	-2.4352622620e+000
 3.8833191525e-001	 1.1354286065e+000	-2.4883292766e+000
 3.7642355549e-001	 1.1394319079e+000	-2.5396239383e+000
 3.6450362567e-001	 1.1433008586e+000	-2.5888108374e+000
 3.5257426777e-001	 1.1470357998e+000	-2.6355940822e+000
 3.3298582908e-001	 1.0833084025e+000	-3.2430789272e+000
 3.2171234759e-001	 1.0867096348e+000	-3.3252418602e+000
 3.1043395382e-001	 1.0899850663e+000	-3.4059485941e+000
 2.9915261501e-001	 1.0931351363e+000	-3.4849440503e+000
 2.8787027840e-001	 1.0961603222e+000	-3.5619949070e+000
 2.7658887040e-001	 1.0990611389e+000	-3.6368874601e+000
 2.6531029577e-001	 1.1018381374e+000	-3.7094253549e+000
 2.5403643688e-001	 1.1044919048e+000	-3.7794272089e+000
 2.4276915293e-001	 1.1070230625e+000	-3.8467241526e+000
 2.3151027929e-001	 1.1094322663e+000	-3.9111573080e+000
 2.2026162677e-001	 1.1117202050e+000	-3.9725752311e+000
 3.3494467295e-001	 1.0896811422e+000	-3.1732612697e+000
 3.2360487335e-001	 1.0931023828e+000	-3.2510172747e+000
 3.1226013258e-001	 1.0963970826e+000	-3.3274376636e+000
 3.0091242944e-001	 1.0995656834e+000	-3.4022698738e+000
 2.8956372263e-001	 1.1026086655e+000	-3.4752836884e+000
 2.7821594989e-001	 1.1055265467e+000	-3.5462690012e+000
 2.6687102719e-001	 1.1083198814e+000	-3.6150334463e+000
 2.5553084797e-001	 1.1109892599e+000	-3.6813999151e+000
 2.4419728238e-001	 1.1135353076e+000	-3.7452039860e+000
 2.3287217656e-001	 1.1159586840e+000	-3.8062912902e+000
 2.2155735200e-001	 1.1182600818e+000	-3.8645148378e+000
 3.3690351682e-001	 1.0960538819e+000	-3.1056184497e+000
 3.2549739911e-001	 1.0994951309e+000	-3.1791384030e+000
 3.1408631134e-001	 1.1028090989e+000	-3.2514428383e+000
 3.0267224387e-001	 1.1059962305e+000	-3.3222807074e+000
 2.9125716686e-001	 1.1090570087e+000	-3.3914239069e+000
 2.7984302938e-001	 1.1119919545e+000	-3.4586649475e+000
 2.6843175861e-001	 1.1148016253e+000	-3.5238144805e+000
 2.5702525906e-001	 1.1174866151e+000	-3.5866987076e+000
 2.4562541182e-001	 1.1200475527e+000	-3.6471566994e+000
 2.3423407383e-001	 1.1224851016e+000	-3.7050376456e+000
 2.2285307722e-001	 1.1247999586e+000	-3.7601980648e+000
 3.3886236069e-001	 1.1024266217e+000	-3.0400830168e+000
 3.2738992488e-001	 1.1058878789e+000	-3.1095345904e+000
 3.1591249009e-001	 1.1092211152e+000	-3.1778893527e+000
 3.0443205829e-001	 1.1124267776e+000	-3.2448968173e+000
 2.9295061108e-001	 1.1155053520e+000	-3.3103300542e+000
 2.8147010887e-001	 1.1184573623e+000	-3.3739832622e+000
 2.6999249003e-001	 1.1212833693e+000	-3.4356691923e+000
 2.5851967016e-001	 1.1239839703e+000	-3.4952164492e+000
 2.4705354126e-001	 1.1265597979e+000	-3.5524666962e+000
 2.3559597110e-001	 1.1290115193e+000	-3.6072717899e+000
 2.2414880244e-001	 1.1313398354e+000	-3.6594908708e+000
 3.4082120455e-001	 1.1087993614e+000	-2.9765920343e+000
 3.2928245064e-001	 1.1122806270e+000	-3.0421396994e+000
 3.1773866885e-001	 1.1156331315e+000	-3.1067069709e+000
 3.0619187272e-001	 1.1188573247e+000	-3.1700430196e+000
 2.9464405531e-001	 1.1219536953e+000	-3.2319211989e+000
 2.8309718836e-001	 1.1249227701e+000	-3.2921365194e+000
 2.7155322145e-001	 1.1277651132e+000	-3.3505029682e+000
 2.6001408125e-001	 1.1304813254e+000	-3.4068507005e+000
 2.4848167071e-001	 1.1330720430e+000	-3.4610231301e+000
 2.3695786837e-001	 1.1355379369e+000	-3.5128739462e+000
 2.2544452766e-001	 1.1378797123e+000	-3.5622640837e+000
 3.4278004842e-001	 1.1151721011e+000	-2.9150869582e+000
 3.3117497640e-001	 1.1186733750e+000	-2.9768919919e+000
 3.1956484760e-001	 1.1220451478e+000	-3.0378298704e+000
 3.0795168715e-001	 1.1252878718e+000	-3.0976485653e+000
 2.9633749954e-001	 1.1284020385e+000	-3.1561208732e+000
 2.8472426785e-001	 1.1313881778e+000	-3.2130417918e+000
 2.7311395288e-001	 1.1342468572e+000	-3.2682257338e+000
 2.6150849234e-001	 1.1369786806e+000	-3.3215036075e+000
 2.4990980015e-001	 1.1395842881e+000	-3.3727197911e+000
 2.3831976564e-001	 1.1420643546e+000	-3.4217290300e+000
 2.2674025289e-001	 1.1444195891e+000	-3.4683932844e+000
 3.4473889229e-001	 1.1215448409e+000	-2.8555135201e+000
 3.3306750216e-001	 1.1250661231e+000	-2.9137340143e+000
 3.2139102636e-001	 1.1284571641e+000	-2.9711965299e+000
 3.0971150157e-001	 1.1317184189e+000	-3.0276470297e+000
 2.9803094376e-001	 1.1348503818e+000	-3.0828569629e+000
 2.8635134734e-001	 1.1378535856e+000	-3.1366205407e+000
 2.7467468430e-001	 1.1407286011e+000	-3.1887518441e+000
 2.6300290344e-001	 1.1434760358e+000	-3.2390817916e+000
 2.5133792960e-001	 1.1460965332e+000	-3.2874549954e+000
 2.3968166291e-001	 1.1485907722e+000	-3.3337265378e+000
 2.2803597811e-001	 1.1509594659e+000	-3.3777586935e+000
 3.4669773616e-001	 1.1279175806e+000	-2.7978216120e+000
 3.3496002792e-001	 1.1314588711e+000	-2.8526124855e+000
 3.2321720512e-001	 1.1348691804e+000	-2.9067496188e+000
 3.1147131600e-001	 1.1381489660e+000	-2.9599762040e+000
 2.9972438799e-001	 1.1412987251e+000	-3.0120616005e+000
 2.8797842683e-001	 1.1443189934e+000	-3.0627985105e+000
 2.7623541572e-001	 1.1472103450e+000	-3.1119999783e+000
 2.6449731453e-001	 1.1499733909e+000	-3.1594962436e+000
 2.5276605904e-001	 1.1526087783e+000	-3.2051314786e+000
 2.4104356018e-001	 1.1551171899e+000	-3.2487604394e+000
 2.2933170333e-001	 1.1574993428e+000	-3.2902450627e+000
 3.4865658003e-001	 1.1342903203e+000	-2.7419651754e+000
 3.3685255368e-001	 1.1378516191e+000	-2.7934781883e+000
 3.2504338387e-001	 1.1412811967e+000	-2.8444358916e+000
 3.1323113042e-001	 1.1445795131e+000	-2.8945779906e+000
 3.0141783222e-001	 1.1477470683e+000	-2.9436710615e+000
 2.8960550632e-001	 1.1507844012e+000	-2.9915056250e+000
 2.7779614714e-001	 1.1536920890e+000	-3.0378930363e+000
 2.6599172563e-001	 1.1564707461e+000	-3.0826622211e+000
 2.5419418849e-001	 1.1591210234e+000	-3.1256562920e+000
 2.4240545745e-001	 1.1616436076e+000	-3.1667290732e+000
 2.3062742856e-001	 1.1640392196e+000	-3.2057415684e+000
 3.5061542390e-001	 1.1406630601e+000	-2.6879020929e+000
 3.3874507944e-001	 1.1442443672e+000	-2.7362858636e+000
 3.2686956263e-001	 1.1476932130e+000	-2.7842060835e+000
 3.1499094485e-001	 1.1510100602e+000	-2.8313983009e+000
 3.0311127645e-001	 1.1541954116e+000	-2.8776256634e+000
 2.9123258581e-001	 1.1572498090e+000	-2.9226758879e+000
 2.7935687856e-001	 1.1601738329e+000	-2.9663580391e+000
 2.6748613672e-001	 1.1629681013e+000	-3.0084991477e+000
 2.5562231793e-001	 1.1656332686e+000	-3.0489407021e+000
 2.4376735472e-001	 1.1681700252e+000	-3.0875350451e+000
 2.3192315378e-001	 1.1705790964e+000	-3.1241417094e+000
 3.5257426777e-001	 1.1470357998e+000	-2.6355940822e+000
 3.4063760520e-001	 1.1506371152e+000	-2.6809941076e+000
 3.2869574138e-001	 1.1541052293e+000	-2.7260148101e+000
 3.1675075928e-001	 1.1574406073e+000	-2.7703869565e+000
 3.0480472067e-001	 1.1606437548e+000	-2.8138696679e+000
 2.9285966530e-001	 1.1637152168e+000	-2.8562472849e+000
 2.8091760998e-001	 1.1666555769e+000	-2.8973260322e+000
 2.6898054781e-001	 1.1694654564e+000	-2.9369305169e+000
 2.5705044737e-001	 1.1721455137e+000	-2.9749000935e+000
 2.4512925199e-001	 1.1746964429e+000	-3.0110851298e+000
 2.3321887900e-001	 1.1771189732e+000	-3.0453432074e+000
 2.2026162677e-001	 1.1117202050e+000	-3.9725752311e+000
 2.0902666503e-001	 1.1138872834e+000	-4.0310908525e+000
 1.9780546296e-001	 1.1159346068e+000	-4.0868959604e+000
 1.8659975079e-001	 1.1178629583e+000	-4.1399331912e+000
 1.7541123190e-001	 1.1196731508e+000	-4.1901414223e+000
 1.6424158232e-001	 1.1213660258e+000	-4.2374533019e+000
 1.5309245026e-001	 1.1229424523e+000	-4.2817928687e+000
 1.4196545564e-001	 1.1244033263e+000	-4.3230732787e+000
 1.3086218971e-001	 1.1257495693e+000	-4.3611946555e+000
 1.1978421463e-001	 1.1269821280e+000	-4.3960420787e+000
 1.0873306313e-001	 1.1281019728e+000	-4.4274837244e+000
 2.2155735200e-001	 1.1182600818e+000	-3.8645148378e+000
 2.1025629874e-001	 1.1204399085e+000	-3.9199933550e+000
 1.9896908611e-001	 1.1224992755e+000	-3.9729209368e+000
 1.8769745450e-001	 1.1244389709e+000	-4.0232405423e+000
 1.7644311731e-001	 1.1262598122e+000	-4.0708910263e+000
 1.6520776043e-001	 1.1279626458e+000	-4.1158045580e+000
 1.5399304176e-001	 1.1295483459e+000	-4.1579041320e+000
 1.4280059077e-001	 1.1310178136e+000	-4.1971011901e+000
 1.3163200805e-001	 1.1323719762e+000	-4.2332933700e+000
 1.2048886496e-001	 1.1336117856e+000	-4.2663623987e+000
 1.0937270325e-001	 1.1347382181e+000	-4.2961721411e+000
 2.2285307722e-001	 1.1247999586e+000	-3.7601980648e+000
 2.1148593245e-001	 1.1269925335e+000	-3.8127627646e+000
 2.0013270926e-001	 1.1290639442e+000	-3.8629292579e+000
 1.8879515820e-001	 1.1310149834e+000	-3.9106410768e+000
 1.7747500271e-001	 1.1328464735e+000	-3.9558373196e+000
 1.6617393853e-001	 1.1345592657e+000	-3.9984499530e+000
 1.5489363326e-001	 1.1361542394e+000	-4.0384012105e+000
 1.4363572590e-001	 1.1376323010e+000	-4.0756011049e+000
 1.3240182639e-001	 1.1389943830e+000	-4.1099450720e+000
 1.2119351529e-001	 1.1402414432e+000	-4.1413117637e+000
 1.1001234337e-001	 1.1413744634e+000	-4.1695610026e+000
 2.2414880244e-001	 1.1313398354e+000	-3.6594908708e+000
 2.1271556617e-001	 1.1335451585e+000	-3.7092554235e+000
 2.0129633241e-001	 1.1356286130e+000	-3.7567677829e+000
 1.8989286191e-001	 1.1375909960e+000	-3.8019723443e+000
 1.7850688811e-001	 1.1394331348e+000	-3.8448087545e+000
 1.6714011664e-001	 1.1411558857e+000	-3.8852090940e+000
 1.5579422477e-001	 1.1427601330e+000	-3.9230951578e+000
 1.4447086103e-001	 1.1442467884e+000	-3.9583758542e+000
 1.3317164474e-001	 1.1456167899e+000	-3.9909447400e+000
 1.2189816563e-001	 1.1468711008e+000	-4.0206777084e+000
 1.1065198348e-001	 1.1480107086e+000	-4.0474308461e+000
 2.2544452766e-001	 1.1378797123e+000	-3.5622640837e+000
 2.1394519988e-001	 1.1400977835e+000	-3.6093326040e+000
 2.0245995555e-001	 1.1421932817e+000	-3.6542883550e+000
 1.9099056561e-001	 1.1441670086e+000	-3.6970769252e+000
 1.7953877352e-001	 1.1460197962e+000	-3.7376388549e+000
 1.6810629474e-001	 1.1477525056e+000	-3.7759066940e+000
 1.5669481627e-001	 1.1493660265e+000	-3.8118021614e+000
 1.4530599615e-001	 1.1508612758e+000	-3.8452334256e+000
 1.3394146308e-001	 1.1522391968e+000	-3.8760925261e+000
 1.2260281596e-001	 1.1535007584e+000	-3.9042529531e+000
 1.1129162360e-001	 1.1546469539e+000	-3.9295674018e+000
 2.2674025289e-001	 1.1444195891e+000	-3.4683932844e+000
 2.1517483360e-001	 1.1466504085e+000	-3.5128603900e+000
 2.0362357870e-001	 1.1487579505e+000	-3.5553476814e+000
 1.9208826932e-001	 1.1507430212e+000	-3.5958023092e+000
 1.8057065892e-001	 1.1526064575e+000	-3.6341660922e+000
 1.6907247284e-001	 1.1543491256e+000	-3.6703724460e+000
 1.5759540777e-001	 1.1559719200e+000	-3.7043434158e+000
 1.4614113128e-001	 1.1574757631e+000	-3.7359868343e+000
 1.3471128142e-001	 1.1588616036e+000	-3.7651936256e+000
 1.2330746629e-001	 1.1601304160e+000	-3.7918352713e+000
 1.1193126372e-001	 1.1612831992e+000	-3.8157614587e+000
 2.2803597811e-001	 1.1509594659e+000	-3.3777586935e+000
 2.1640446731e-001	 1.1532030336e+000	-3.4197095628e+000
 2.0478720185e-001	 1.1553226192e+000	-3.4598072166e+000
 1.9318597302e-001	 1.1573190338e+000	-3.4980007768e+000
 1.8160254433e-001	 1.1591931188e+000	-3.5342337661e+000
 1.7003865095e-001	 1.1609457455e+000	-3.5684409021e+000
 1.5849599928e-001	 1.1625778136e+000	-3.6005449989e+000
 1.4697626641e-001	 1.1640902505e+000	-3.6304539984e+000
 1.3548109976e-001	 1.1654840105e+000	-3.6580581503e+000
 1.2401211663e-001	 1.1667600736e+000	-3.6832273622e+000
 1.1257090384e-001	 1.1679194445e+000	-3.7058087354e+000
 2.2933170333e-001	 1.1574993428e+000	-3.2902450627e+000
 2.1763410102e-001	 1.1597556586e+000	-3.3297554902e+000
 2.0595082500e-001	 1.1618872879e+000	-3.3675330502e+000
 1.9428367673e-001	 1.1638950464e+000	-3.4035292857e+000
 1.8263442973e-001	 1.1657797802e+000	-3.4376898887e+000
 1.7100482905e-001	 1.1675423655e+000	-3.4699513557e+000
 1.5939659078e-001	 1.1691837071e+000	-3.5002377537e+000
 1.4781140154e-001	 1.1707047379e+000	-3.5284576180e+000
 1.3625091810e-001	 1.1721064174e+000	-3.5545010064e+000
 1.2471676696e-001	 1.1733897311e+000	-3.5782367261e+000
 1.1321054396e-001	 1.1745556897e+000	-3.5995097543e+000
 2.3062742856e-001	 1.1640392196e+000	-3.2057415684e+000
 2.1886373474e-001	 1.1663082836e+000	-3.2428780188e+000
 2.0711444815e-001	 1.1684519567e+000	-3.2783957982e+000
 1.9538138043e-001	 1.1704710589e+000	-3.3122493601e+000
 1.8366631513e-001	 1.1723664415e+000	-3.3443870723e+000
 1.7197100716e-001	 1.1741389854e+000	-3.3747477284e+000
 1.6029718228e-001	 1.1757896007e+000	-3.4032571721e+000
 1.4864653667e-001	 1.1773192253e+000	-3.4298250589e+000
 1.3702073644e-001	 1.1787288242e+000	-3.4543417763e+000
 1.2542141729e-001	 1.1800193887e+000	-3.4766755456e+000
 1.1385018407e-001	 1.1811919350e+000	-3.4966697212e+000
 2.3192315378e-001	 1.1705790964e+000	-3.1241417094e+000
 2.2009336845e-001	 1.1728609086e+000	-3.1589613707e+000
 2.0827807130e-001	 1.1750166254e+000	-3.1922704973e+000
 1.9647908414e-001	 1.1770470715e+000	-3.2240269839e+000
 1.8469820054e-001	 1.1789531029e+000	-3.2541824214e+000
 1.7293718526e-001	 1.1807356054e+000	-3.2826784596e+000
 1.6119777378e-001	 1.1823954942e+000	-3.3094432849e+000
 1.4948167180e-001	 1.1839337126e+000	-3.3343882394e+000
 1.3779055479e-001	 1.1853512311e+000	-3.3574046044e+000
 1.2612606762e-001	 1.1866490463e+000	-3.3783605695e+000
 1.1448982419e-001	 1.1878281803e+000	-3.3970984078e+000
 2.3321887900e-001	 1.1771189732e+000	-3.0453432074e+000
 2.2132300216e-001	 1.1794135337e+000	-3.0778940421e+000
 2.0944169444e-001	 1.1815812942e+000	-3.1090365030e+000
 1.9757678784e-001	 1.1836230841e+000	-3.1387324971e+000
 1.8573008594e-001	 1.1855397642e+000	-3.1669374275e+000
 1.7390336337e-001	 1.1873322253e+000	-3.1935964007e+000
 1.6209836528e-001	 1.1890013878e+000	-3.2186405529e+000
 1.5031680692e-001	 1.1905482000e+000	-3.2419835218e+000
 1.3856037313e-001	 1.1919736380e+000	-3.2635180865e+000
 1.2683071795e-001	 1.1932787039e+000	-3.2831130011e+000
 1.1512946431e-001	 1.1944644255e+000	-3.3006100387e+000
 1.0873306313e-001	 1.1281019728e+000	-4.4274837244e+000
 9.7708590645e-002	 1.1291102404e+000	-4.4557684424e+000
 8.6713949601e-002	 1.1300077707e+000	-4.4812360113e+000
 7.5750605430e-002	 1.1307956011e+000	-4.5038731271e+000
 6.4819992318e-002	 1.1314747896e+000	-4.5236421570e+000
 5.3923513013e-002	 1.1320464133e+000	-4.5404800993e+000
 4.3062538653e-002	 1.1325115679e+000	-4.5542977484e+000
 3.2238408627e-002	 1.1328713664e+000	-4.5649790689e+000
 2.1452430459e-002	 1.1331269386e+000	-4.5723807785e+000
 1.0705879726e-002	 1.1332794297e+000	-4.5763321415e+000
 0.0000000000e+000	 1.1333300000e+000	-4.5766362853e+000
 1.0937270325e-001	 1.1347382181e+000	-4.2961721411e+000
 9.8283377490e-002	 1.1357524170e+000	-4.3229732225e+000
 8.7224058663e-002	 1.1366552271e+000	-4.3471153349e+000
 7.6196220818e-002	 1.1374476921e+000	-4.3685902887e+000
 6.5201306578e-002	 1.1381308760e+000	-4.3873637629e+000
 5.4240726942e-002	 1.1387058624e+000	-4.4033742026e+000
 4.3315861116e-002	 1.1391737533e+000	-4.4165319317e+000
 3.2428056365e-002	 1.1395356684e+000	-4.4267184819e+000
 2.1578627908e-002	 1.1397927441e+000	-4.4337861414e+000
 1.0768858824e-002	 1.1399461323e+000	-4.4375577233e+000
 0.0000000000e+000	 1.1399970000e+000	-4.4378277615e+000
 1.1001234337e-001	 1.1413744634e+000	-4.1695610026e+000
 9.8858164336e-002	 1.1423945936e+000	-4.1949429466e+000
 8.7734167726e-002	 1.1433026835e+000	-4.2178148829e+000
 7.6641836207e-002	 1.1440997830e+000	-4.2381739119e+000
 6.5582620838e-002	 1.1447869624e+000	-4.2559891965e+000
 5.4557940872e-002	 1.1453653115e+000	-4.2712007949e+000
 4.3569183579e-002	 1.1458359388e+000	-4.2837187154e+000
 3.2617704104e-002	 1.1461999704e+000	-4.2934221993e+000
 2.1704825357e-002	 1.1464585495e+000	-4.3001592317e+000
 1.0831837922e-002	 1.1466128348e+000	-4.3037462812e+000
 0.0000000000e+000	 1.1466640000e+000	-4.3039693781e+000
 1.1065198348e-001	 1.1480107086e+000	-4.0474308461e+000
 9.9432951182e-002	 1.1490367701e+000	-4.0714518108e+000
 8.8244276789e-002	 1.1499501400e+000	-4.0931033768e+000
 7.7087451596e-002	 1.1507518740e+000	-4.1123881456e+000
 6.5963935099e-002	 1.1514430488e+000	-4.1292789712e+000
 5.4875154803e-002	 1.1520247606e+000	-4.1437177227e+000
 4.3822506043e-002	 1.1524981242e+000	-4.1556142804e+000
 3.2807351844e-002	 1.1528642725e+000	-4.1648457669e+000
 2.1831022807e-002	 1.1531243550e+000	-4.1712560180e+000
 1.0894817020e-002	 1.1532795373e+000	-4.1746552915e+000
 0.0000000000e+000	 1.1533310000e+000	-4.1748212287e+000
 1.1129162360e-001	 1.1546469539e+000	-3.9295674018e+000
 1.0000773803e-001	 1.1556789467e+000	-3.9522792026e+000
 8.8754385853e-002	 1.1565975964e+000	-3.9727547162e+000
 7.7533066986e-002	 1.1574039650e+000	-3.9910022921e+000
 6.6345249361e-002	 1.1580991352e+000	-4.0069987165e+000
 5.5192368734e-002	 1.1586842097e+000	-4.0206879016e+000
 4.4075828507e-002	 1.1591603096e+000	-4.0319798176e+000
 3.2996999584e-002	 1.1595285745e+000	-4.0407496708e+000
 2.1957220257e-002	 1.1597901604e+000	-4.0468373301e+000
 1.0957796118e-002	 1.1599462398e+000	-4.0500470026e+000
 0.0000000000e+000	 1.1599980000e+000	-4.0501480803e+000
 1.1193126372e-001	 1.1612831992e+000	-3.8157614587e+000
 1.0058252488e-001	 1.1623211233e+000	-3.8372095659e+000
 8.9264494917e-002	 1.1632450528e+000	-3.8565478423e+000
 7.7978682376e-002	 1.1640560560e+000	-3.8737906690e+000
 6.6726563623e-002	 1.1647552217e+000	-3.8889190405e+000
 5.5509582665e-002	 1.1653436587e+000	-3.9018791770e+000
 4.4329150971e-002	 1.1658224951e+000	-3.9125813895e+000
 3.3186647323e-002	 1.1661928765e+000	-3.9208992002e+000
 2.2083417706e-002	 1.1664559659e+000	-3.9266687226e+000
 1.1020775216e-002	 1.1666129423e+000	-3.9296883001e+000
 0.0000000000e+000	 1.1666650000e+000	-3.9297192400e+000
 1.1257090384e-001	 1.1679194445e+000	-3.7058087354e+000
 1.0115731172e-001	 1.1689632999e+000	-3.7260322695e+000
 8.9774603981e-002	 1.1698925093e+000	-3.7442666059e+000
 7.8424297766e-002	 1.1707081470e+000	-3.7605324767e+000
 6.7107877884e-002	 1.1714113081e+000	-3.7748153961e+000
 5.5826796596e-002	 1.1720031078e+000	-3.7870641916e+000
 4.4582473435e-002	 1.1724846805e+000	-3.7971897974e+000
 3.3376295063e-002	 1.1728571785e+000	-3.8050643152e+000
 2.2209615156e-002	 1.1731217714e+000	-3.8105203434e+000
 1.1083754314e-002	 1.1732796448e+000	-3.8133505759e+000
 0.0000000000e+000	 1.1733320000e+000	-3.8133084262e+000
 1.1321054396e-001	 1.1745556897e+000	-3.5995097543e+000
 1.0173209857e-001	 1.1756054764e+000	-3.6185414813e+000
 9.0284713045e-002	 1.1765399657e+000	-3.6356996400e+000
 7.8869913155e-002	 1.1773602379e+000	-3.6510116702e+000
 6.7489192146e-002	 1.1780673945e+000	-3.6644679529e+000
 5.6144010527e-002	 1.1786625569e+000	-3.6760202558e+000
 4.4835795899e-002	 1.1791468660e+000	-3.6855804524e+000
 3.3565942803e-002	 1.1795214805e+000	-3.6930195180e+000
 2.2335812606e-002	 1.1797875768e+000	-3.6981668056e+000
 1.1146733412e-002	 1.1799463473e+000	-3.7008096024e+000
 0.0000000000e+000	 1.1799990000e+000	-3.7006936436e+000
 1.1385018407e-001	 1.1811919350e+000	-3.4966697212e+000
 1.0230688541e-001	 1.1822476530e+000	-3.5145360455e+000
 9.0794822108e-002	 1.1831874222e+000	-3.5306402362e+000
 7.9315528545e-002	 1.1840123289e+000	-3.5450168350e+000
 6.7870506407e-002	 1.1847234809e+000	-3.5576614722e+000
 5.6461224458e-002	 1.1853220060e+000	-3.5685292238e+000
 4.5089118363e-002	 1.1858090514e+000	-3.5775332512e+000
 3.3755590542e-002	 1.1861857825e+000	-3.5845437293e+000
 2.2462010056e-002	 1.1864533823e+000	-3.5893870654e+000
 1.1209712510e-002	 1.1866130499e+000	-3.5918454101e+000
 0.0000000000e+000	 1.1866660000e+000	-3.5916570634e+000
 1.1448982419e-001	 1.1878281803e+000	-3.3970984078e+000
 1.0288167226e-001	 1.1888898296e+000	-3.4138193644e+000
 9.1304931171e-002	 1.1898348786e+000	-3.4288862258e+000
 7.9761143934e-002	 1.1906644199e+000	-3.4423410669e+000
 6.8251820668e-002	 1.1913795673e+000	-3.4541851869e+000
 5.6778438388e-002	 1.1919814551e+000	-3.4643773727e+000
 4.5342440826e-002	 1.1924712368e+000	-3.4728324558e+000
 3.3945238281e-002	 1.1928500845e+000	-3.4794201685e+000
 2.2588207505e-002	 1.1931191877e+000	-3.4839643024e+000
 1.1272691608e-002	 1.1932797524e+000	-3.4862421702e+000
 0.0000000000e+000	 1.1933330000e+000	-3.4859849061e+000
 1.1512946431e-001	 1.1944644255e+000	-3.3006100387e+000
 1.0345645911e-001	 1.1955320061e+000	-3.3161992842e+000
 9.1815040233e-002	 1.1964823350e+000	-3.3302398644e+000
 8.0206759322e-002	 1.1973165109e+000	-3.3427818568e+000
 6.8633134928e-002	 1.1980356538e+000	-3.3538326855e+000
 5.7095652318e-002	 1.1986409042e+000	-3.3633552865e+000
 4.5595763289e-002	 1.1991334223e+000	-3.3712665775e+000
 3.4134886020e-002	 1.1995143866e+000	-3.3774362382e+000
 2.2714404954e-002	 1.1997849932e+000	-3.3816858052e+000
 1.1335670705e-002	 1.1999464549e+000	-3.3837880807e+000
 0.0000000000e+000	 1.2000000000e+000	-3.3834673297e+000
 1.2000000000e+000	 0.0000000000e+000	 3.0109843425e+000
 1.1999464549e+000	 1.1335670705e-002	 3.0046795861e+000
 1.1997849932e+000	 2.2714404954e-002	 3.0003612566e+000
 1.1995143866e+000	 3.4134886020e-002	 2.9974724273e+000
 1.1991334223e+000	 4.5595763289e-002	 2.9954365969e+000
 1.1986409042e+000	 5.7095652318e-002	 2.9936586328e+000
 1.1980356538e+000	 6.8633134928e-002	 2.9915266540e+000
 1.1973165109e+000	 8.0206759322e-002	 2.9884141551e+000
 1.1964823350e+000	 9.1815040233e-002	 2.9836823716e+000
 1.1955320061e+000	 1.0345645911e-001	 2.9766828863e+000
 1.1944644255e+000	 1.1512946431e-001	 2.9667604753e+000
 1.2066670000e+000	 0.0000000000e+000	 3.0512305812e+000
 1.2066131574e+000	 1.1398649803e-002	 3.0449219889e+000
 1.2064507987e+000	 2.2840602403e-002	 3.0405036077e+000
 1.2061786886e+000	 3.4324533758e-002	 3.0374214518e+000
 1.2057956077e+000	 4.5849085750e-002	 3.0351008809e+000
 1.2053003533e+000	 5.7412866246e-002	 3.0329476571e+000
 1.2046917402e+000	 6.9014449187e-002	 3.0303498520e+000
 1.2039686019e+000	 8.0652374709e-002	 3.0266800038e+000
 1.2031297915e+000	 9.2325149294e-002	 3.0212975242e+000
 1.2021741827e+000	 1.0403124595e-001	 3.0135513552e+000
 1.2011006708e+000	 1.1576910442e-001	 3.0027828751e+000
 1.2133340000e+000	 0.0000000000e+000	 3.0899041107e+000
 1.2132798599e+000	 1.1461628900e-002	 3.0836028429e+000
 1.2131166041e+000	 2.2966799851e-002	 3.0790871878e+000
 1.2128429906e+000	 3.4514181495e-002	 3.0758080835e+000
 1.2124577932e+000	 4.6102408212e-002	 3.0731947082e+000
 1.2119598024e+000	 5.7730080174e-002	 3.0706556385e+000
 1.2113478266e+000	 6.9395763445e-002	 3.0675807790e+000
 1.2106206929e+000	 8.1097990095e-002	 3.0633435495e+000
 1.2097772479e+000	 9.2835258354e-002	 3.0573033312e+000
 1.2088163593e+000	 1.0460603279e-001	 3.0488081731e+000
 1.2077369161e+000	 1.1640874454e-001	 3.0371977551e+000
 1.2200010000e+000	 0.0000000000e+000	 3.1269109789e+000
 1.2199465624e+000	 1.1524607997e-002	 3.1206290680e+000
 1.2197824096e+000	 2.3092997298e-002	 3.1160201159e+000
 1.2195072926e+000	 3.4703829232e-002	 3.1125419356e+000
 1.2191199786e+000	 4.6355730672e-002	 3.1096294472e+000
 1.2186192515e+000	 5.8047294102e-002	 3.1066959264e+000
 1.2180039130e+000	 6.9777077703e-002	 3.1031349535e+000
 1.2172727838e+000	 8.1543605481e-002	 3.0983226282e+000
 1.2164247044e+000	 9.3345367414e-002	 3.0916200544e+000
 1.2154585359e+000	 1.0518081964e-001	 3.0823760921e+000
 1.2143731614e+000	 1.1704838465e-001	 3.0699303783e+000
 1.2266680000e+000	 0.0000000000e+000	 3.1621604463e+000
 1.2266132649e+000	 1.1587587093e-002	 3.1559104854e+000
 1.2264482150e+000	 2.3219194746e-002	 3.1512131139e+000
 1.2261715946e+000	 3.4893476969e-002	 3.1475349400e+000
 1.2257821640e+000	 4.6609053133e-002	 3.1443185162e+000
 1.2252787006e+000	 5.8364508028e-002	 3.1409836668e+000
 1.2246599994e+000	 7.0158391960e-002	 3.1369294531e+000
 1.2239248748e+000	 8.1989220866e-002	 3.1315364151e+000
 1.2230721608e+000	 9.3855476473e-002	 3.1241690908e+000
 1.2221007124e+000	 1.0575560648e-001	 3.1141788142e+000
 1.2210094066e+000	 1.1768802476e-001	 3.1009067900e+000
 1.2333350000e+000	 0.0000000000e+000	 3.1955649001e+000
 1.2332799675e+000	 1.1650566190e-002	 3.1893597359e+000
 1.2331140205e+000	 2.3345392193e-002	 3.1845794304e+000
 1.2328358966e+000	 3.5083124705e-002	 3.1807012769e+000
 1.2324443495e+000	 4.6862375592e-002	 3.1771773183e+000
 1.2319381497e+000	 5.8681721955e-002	 3.1734357421e+000
 1.2313160859e+000	 7.0539706217e-002	 3.1688828602e+000
 1.2305769658e+000	 8.2434836251e-002	 3.1629053741e+000
 1.2297196173e+000	 9.4365585532e-002	 3.1548729283e+000
 1.2287428890e+000	 1.0633039332e-001	 3.1441409507e+000
 1.2276456519e+000	 1.1832766488e-001	 3.1300537814e+000
 1.2400020000e+000	 0.0000000000e+000	 3.2270397694e+000
 1.2399466700e+000	 1.1713545286e-002	 3.2208922012e+000
 1.2397798260e+000	 2.3471589640e-002	 3.2160347672e+000
 1.2395001987e+000	 3.5272772441e-002	 3.2119573066e+000
 1.2391065349e+000	 4.7115698052e-002	 3.2081231782e+000
 1.2385975988e+000	 5.8998935881e-002	 3.2039707135e+000
 1.2379721723e+000	 7.0921020473e-002	 3.1989152085e+000
 1.2372290568e+000	 8.2880451636e-002	 3.1923512103e+000
 1.2363670737e+000	 9.4875694591e-002	 3.1836551016e+000
 1.2353850656e+000	 1.0690518016e-001	 3.1721879837e+000
 1.2342818972e+000	 1.1896730499e-001	 3.1572988561e+000
 1.2466690000e+000	 0.0000000000e+000	 3.2565034443e+000
 1.2466133725e+000	 1.1776524383e-002	 3.2504259274e+000
 1.2464456314e+000	 2.3597787086e-002	 3.2454972082e+000
 1.2461645007e+000	 3.5462420176e-002	 3.2412215029e+000
 1.2457687204e+000	 4.7369020511e-002	 3.2370752807e+000
 1.2452570478e+000	 5.9316149807e-002	 3.2325087644e+000
 1.2446282587e+000	 7.1302334730e-002	 3.2269479321e+000
 1.2438811478e+000	 8.3326067021e-002	 3.2197968227e+000
 1.2430145301e+000	 9.5385803650e-002	 3.2104401506e+000
 1.2420272421e+000	 1.0747996700e-001	 3.1982462282e+000
 1.2409181425e+000	 1.1960694511e-001	 3.1825701960e+000
 1.2533360000e+000	 0.0000000000e+000	 3.2838771968e+000
 1.2532800750e+000	 1.1839503479e-002	 3.2778815515e+000
 1.2531114369e+000	 2.3723984533e-002	 3.2728871503e+000
 1.2528288027e+000	 3.5652067912e-002	 3.2684143895e+000
 1.2524309058e+000	 4.7622342970e-002	 3.2639546119e+000
 1.2519164969e+000	 5.9633363733e-002	 3.2589716461e+000
 1.2512843451e+000	 7.1683648986e-002	 3.2529038151e+000
 1.2505332388e+000	 8.3771682405e-002	 3.2451662595e+000
 1.2496619866e+000	 9.5895912709e-002	 3.2351535797e+000
 1.2486694187e+000	 1.0805475385e-001	 3.2222427964e+000
 1.2475543877e+000	 1.2024658522e-001	 3.2057966300e+000
 1.2600030000e+000	 0.0000000000e+000	 3.3090851050e+000
 1.2599467775e+000	 1.1902482575e-002	 3.3031822295e+000
 1.2597772423e+000	 2.3850181979e-002	 3.2981272368e+000
 1.2594931047e+000	 3.5841715647e-002	 3.2934584778e+000
 1.2590930912e+000	 4.7875665429e-002	 3.2886839018e+000
 1.2585759460e+000	 5.9950577658e-002	 3.2832826251e+000
 1.2579404316e+000	 7.2064963242e-002	 3.2767069443e+000
 1.2571853297e+000	 8.4217297790e-002	 3.2683846748e+000
 1.2563094430e+000	 9.6406021767e-002	 3.2577218188e+000
 1.2553115953e+000	 1.0862954069e-001	 3.2441055626e+000
 1.2541906330e+000	 1.2088622533e-001	 3.2269076032e+000
 1.2666700000e+000	 0.0000000000e+000	 3.3320539788e+000
 1.2666134800e+000	 1.1965461671e-002	 3.3262535678e+000
 1.2664430478e+000	 2.3976379426e-002	 3.3211422928e+000
 1.2661574067e+000	 3.6031363383e-002	 3.3162782069e+000
 1.2657552767e+000	 4.8128987889e-002	 3.3111875688e+000
 1.2652353951e+000	 6.0267791584e-002	 3.3053664324e+000
 1.2645965180e+000	 7.2446277499e-002	 3.2982826623e+000
 1.2638374207e+000	 8.4662913175e-002	 3.2893782860e+000
 1.2629568995e+000	 9.6916130827e-002	 3.2780721854e+000
 1.2619537719e+000	 1.0920432753e-001	 3.2637631293e+000
 1.2608268783e+000	 1.2152586545e-001	 3.2458331469e+000
 1.1944644255e+000	 1.1512946431e-001	 2.9667604753e+000
 1.1932787039e+000	 1.2683071795e-001	 2.9555825365e+000
 1.1919736380e+000	 1.3856037313e-001	 2.9450125403e+000
 1.1905482000e+000	 1.5031680692e-001	 2.9346942766e+000
 1.1890013878e+000	 1.6209836528e-001	 2.9242782188e+000
 1.1873322253e+000	 1.7390336337e-001	 2.9134250983e+000
 1.1855397642e+000	 1.8573008594e-001	 2.9018096590e+000
 1.1836230841e+000	 1.9757678784e-001	 2.8891245764e+000
 1.1815812942e+000	 2.0944169444e-001	 2.8750845258e+000
 1.1794135337e+000	 2.2132300216e-001	 2.8594303795e+000
 1.1771189732e+000	 2.3321887900e-001	 2.8419335142e+000
 1.2011006708e+000	 1.1576910442e-001	 3.0027828751e+000
 1.1999083615e+000	 1.2753536828e-001	 2.9906456282e+000
 1.1985960448e+000	 1.3933019147e-001	 2.9789970852e+000
 1.1971626874e+000	 1.5115194205e-001	 2.9674888697e+000
 1.1956072813e+000	 1.6299895679e-001	 2.9557787784e+000
 1.1939288453e+000	 1.7486954147e-001	 2.9435344324e+000
 1.1921264255e+000	 1.8676197134e-001	 2.9304371163e+000
 1.1901990967e+000	 1.9867449155e-001	 2.9161857896e+000
 1.1881459629e+000	 2.1060531759e-001	 2.9005012522e+000
 1.1859661587e+000	 2.2255263588e-001	 2.8831304475e+000
 1.1836588501e+000	 2.3451460422e-001	 2.8638508797e+000
 1.2077369161e+000	 1.1640874454e-001	 3.0371977551e+000
 1.2065380191e+000	 1.2824001861e-001	 3.0241116211e+000
 1.2052184517e+000	 1.4010000980e-001	 3.0114002832e+000
 1.2037771748e+000	 1.5198707717e-001	 2.9987235887e+000
 1.2022131748e+000	 1.6389954829e-001	 2.9857469789e+000
 1.2005254653e+000	 1.7583571957e-001	 2.9721452187e+000
 1.1987130869e+000	 1.8779385674e-001	 2.9576063212e+000
 1.1967751093e+000	 1.9977219525e-001	 2.9418356515e+000
 1.1947106316e+000	 2.1176894074e-001	 2.9245601936e+000
 1.1925187837e+000	 2.2378226959e-001	 2.9055329585e+000
 1.1901987269e+000	 2.3581032944e-001	 2.8845375148e+000
 1.2143731614e+000	 1.1704838465e-001	 3.0699303783e+000
 1.2131676768e+000	 1.2894466894e-001	 3.0559082535e+000
 1.2118408586e+000	 1.4086982814e-001	 3.0421522677e+000
 1.2103916621e+000	 1.5282221230e-001	 3.0283308511e+000
 1.2088190684e+000	 1.6480013979e-001	 3.0141173794e+000
 1.2071220852e+000	 1.7680189767e-001	 2.9991939826e+000
 1.2052997482e+000	 1.8882574215e-001	 2.9832555559e+000
 1.2033511219e+000	 2.0086989895e-001	 2.9660139582e+000
 1.2012753004e+000	 2.1293256389e-001	 2.9472023801e+000
 1.1990714087e+000	 2.2501190330e-001	 2.9265798613e+000
 1.1967386037e+000	 2.3710605467e-001	 2.9039359356e+000
 1.2210094066e+000	 1.1768802476e-001	 3.1009067900e+000
 1.2197973344e+000	 1.2964931927e-001	 3.0859638968e+000
 1.2184632655e+000	 1.4163964648e-001	 3.0711836751e+000
 1.2170061495e+000	 1.5365734743e-001	 3.0562434663e+000
 1.2154249619e+000	 1.6570073129e-001	 3.0408248389e+000
 1.2137187052e+000	 1.7776807578e-001	 3.0246174764e+000
 1.2118864096e+000	 1.8985762755e-001	 3.0073232758e+000
 1.2099271345e+000	 2.0196760266e-001	 2.9886606426e+000
 1.2078399691e+000	 2.1409618703e-001	 2.9683689618e+000
 1.2056240338e+000	 2.2624153701e-001	 2.9462132263e+000
 1.2032784806e+000	 2.3840177989e-001	 2.9219887982e+000
 1.2276456519e+000	 1.1832766488e-001	 3.1300537814e+000
 1.2264269920e+000	 1.3035396960e-001	 3.1142075241e+000
 1.2250856723e+000	 1.4240946482e-001	 3.0984256175e+000
 1.2236206369e+000	 1.5449248255e-001	 3.0823946127e+000
 1.2220308555e+000	 1.6660132279e-001	 3.0658044972e+000
 1.2203153251e+000	 1.7873425388e-001	 3.0483526632e+000
 1.2184730709e+000	 1.9088951295e-001	 3.0297480956e+000
 1.2165031471e+000	 2.0306530636e-001	 3.0097157644e+000
 1.2144046379e+000	 2.1525981018e-001	 2.9880012009e+000
 1.2121766588e+000	 2.2747117073e-001	 2.9643752389e+000
 1.2098183574e+000	 2.3969750511e-001	 2.9386388953e+000
 1.2342818972e+000	 1.1896730499e-001	 3.1572988561e+000
 1.2330566496e+000	 1.3105861993e-001	 3.1405686799e+000
 1.2317080792e+000	 1.4317928316e-001	 3.1238096569e+000
 1.2302351243e+000	 1.5532761768e-001	 3.1067178153e+000
 1.2286367490e+000	 1.6750191429e-001	 3.0889917557e+000
 1.2269119451e+000	 1.7970043198e-001	 3.0703367016e+000
 1.2250597323e+000	 1.9192139835e-001	 3.0504687776e+000
 1.2230791596e+000	 2.0416301006e-001	 3.0291195008e+000
 1.2209693066e+000	 2.1642343333e-001	 3.0060404646e+000
 1.2187292838e+000	 2.2870080444e-001	 2.9810081949e+000
 1.2163582342e+000	 2.4099323033e-001	 2.9538291527e+000
 1.2409181425e+000	 1.1960694511e-001	 3.1825701960e+000
 1.2396863072e+000	 1.3176327026e-001	 3.1649774513e+000
 1.2383304861e+000	 1.4394910150e-001	 3.1472677800e+000
 1.2368496116e+000	 1.5616275280e-001	 3.1291469240e+000
 1.2352426426e+000	 1.6840250579e-001	 3.1103222597e+000
 1.2335085650e+000	 1.8066661008e-001	 3.0905069310e+000
 1.2316463936e+000	 1.9295328375e-001	 3.0694242194e+000
 1.2296551722e+000	 2.0526071377e-001	 3.0468121369e+000
 1.2275339754e+000	 2.1758705647e-001	 3.0224282185e+000
 1.2252819089e+000	 2.2993043815e-001	 2.9960544964e+000
 1.2228981111e+000	 2.4228895555e-001	 2.9675026269e+000
 1.2475543877e+000	 1.2024658522e-001	 3.2057966300e+000
 1.2463159648e+000	 1.3246792059e-001	 3.1873644400e+000
 1.2449528930e+000	 1.4471891983e-001	 3.1687323740e+000
 1.2434640990e+000	 1.5699788793e-001	 3.1496160937e+000
 1.2418485361e+000	 1.6930309729e-001	 3.1297318816e+000
 1.2401051850e+000	 1.8163278818e-001	 3.1088008576e+000
 1.2382330549e+000	 1.9398516915e-001	 3.0865534435e+000
 1.2362311848e+000	 2.0635841747e-001	 3.0627340579e+000
 1.2340986441e+000	 2.1875067962e-001	 3.0371060209e+000
 1.2318345339e+000	 2.3116007186e-001	 3.0094566476e+000
 1.2294379879e+000	 2.4358468078e-001	 2.9796025036e+000
 1.2541906330e+000	 1.2088622533e-001	 3.2269076032e+000
 1.2529456224e+000	 1.3317257092e-001	 3.2076607355e+000
 1.2515752998e+000	 1.4548873817e-001	 3.1881362038e+000
 1.2500785864e+000	 1.5783302305e-001	 3.1680597644e+000
 1.2484544297e+000	 1.7020368879e-001	 3.1471567041e+000
 1.2467018050e+000	 1.8259896629e-001	 3.1251561414e+000
 1.2448197163e+000	 1.9501705456e-001	 3.1017955867e+000
 1.2428071974e+000	 2.0745612117e-001	 3.0768257413e+000
 1.2406633128e+000	 2.1991430277e-001	 3.0500155172e+000
 1.2383871589e+000	 2.3238970558e-001	 3.0211572521e+000
 1.2359778647e+000	 2.4488040600e-001	 2.9900720957e+000
 1.2608268783e+000	 1.2152586545e-001	 3.2458331469e+000
 1.2595752800e+000	 1.3387722125e-001	 3.2257978892e+000
 1.2581977067e+000	 1.4625855651e-001	 3.2054123893e+000
 1.2566930738e+000	 1.5866815818e-001	 3.1844126425e+000
 1.2550603232e+000	 1.7110428029e-001	 3.1625330054e+000
 1.2532984249e+000	 1.8356514439e-001	 3.1395105840e+000
 1.2514063776e+000	 1.9604893996e-001	 3.1150898906e+000
 1.2493832100e+000	 2.0855382488e-001	 3.0890277501e+000
 1.2472279816e+000	 2.2107792592e-001	 3.0610984357e+000
 1.2449397839e+000	 2.3361933929e-001	 3.0310990097e+000
 1.2425177416e+000	 2.4617613122e-001	 2.9988548427e+000
 1.1771189732e+000	 2.3321887900e-001	 2.8419335142e+000
 1.1746964429e+000	 2.4512925199e-001	 2.8230656614e+000
 1.1721455137e+000	 2.5705044737e-001	 2.8033489385e+000
 1.1694654564e+000	 2.6898054781e-001	 2.7826766675e+000
 1.1666555769e+000	 2.8091760998e-001	 2.7609846096e+000
 1.1637152168e+000	 2.9285966530e-001	 2.7382553688e+000
 1.1606437548e+000	 3.0480472067e-001	 2.7145227533e+000
 1.1574406073e+000	 3.1675075928e-001	 2.6898760624e+000
 1.1541052293e+000	 3.2869574138e-001	 2.6644642658e+000
 1.1506371152e+000	 3.4063760520e-001	 2.6385000417e+000
 1.1470357998e+000	 3.5257426777e-001	 2.6122636392e+000
 1.1836588501e+000	 2.3451460422e-001	 2.8638508797e+000
 1.1812228605e+000	 2.4649114926e-001	 2.8431042599e+000
 1.1786577588e+000	 2.5847857682e-001	 2.8213845779e+000
 1.1759628116e+000	 2.7047495891e-001	 2.7985935767e+000
 1.1731373208e+000	 2.8247834141e-001	 2.7746757459e+000
 1.1701806246e+000	 2.9448674479e-001	 2.7496228465e+000
 1.1670920981e+000	 3.0649816490e-001	 2.7234783946e+000
 1.1638711545e+000	 3.1851057370e-001	 2.6963420704e+000
 1.1605172456e+000	 3.3052192014e-001	 2.6683740200e+000
 1.1570298633e+000	 3.4253013096e-001	 2.6397990128e+000
 1.1534085395e+000	 3.5453311163e-001	 2.6109104211e+000
 1.1901987269e+000	 2.3581032944e-001	 2.8845375148e+000
 1.1877492782e+000	 2.4785304653e-001	 2.8619840454e+000
 1.1851700039e+000	 2.5990670626e-001	 2.8383369453e+000
 1.1824601668e+000	 2.7196937000e-001	 2.8135063739e+000
 1.1796190648e+000	 2.8403907283e-001	 2.7874455601e+000
 1.1766460324e+000	 2.9611382428e-001	 2.7601554517e+000
 1.1735404414e+000	 3.0819160913e-001	 2.7316893261e+000
 1.1703017016e+000	 3.2027038813e-001	 2.7021573255e+000
 1.1669292619e+000	 3.3234809890e-001	 2.6717308849e+000
 1.1634226113e+000	 3.4442265673e-001	 2.6406470139e+000
 1.1597812792e+000	 3.5649195550e-001	 2.6092123976e+000
 1.1967386037e+000	 2.3710605467e-001	 2.9039359356e+000
 1.1942756958e+000	 2.4921494379e-001	 2.8796481222e+000
 1.1916822490e+000	 2.6133483571e-001	 2.8541501272e+000
 1.1889575219e+000	 2.7346378109e-001	 2.8273604838e+000
 1.1861008087e+000	 2.8559980425e-001	 2.7992411312e+000
 1.1831114402e+000	 2.9774090377e-001	 2.7698021947e+000
 1.1799887846e+000	 3.0988505336e-001	 2.7391067257e+000
 1.1767322487e+000	 3.2203020256e-001	 2.7072753690e+000
 1.1733412782e+000	 3.3417427765e-001	 2.6744909206e+000
 1.1698153593e+000	 3.4631518249e-001	 2.6410027385e+000
 1.1661540190e+000	 3.5845079937e-001	 2.6071309692e+000
 1.2032784806e+000	 2.3840177989e-001	 2.9219887982e+000
 1.2008021135e+000	 2.5057684106e-001	 2.8960397629e+000
 1.1981944942e+000	 2.6276296515e-001	 2.8687684063e+000
 1.1954548771e+000	 2.7495819219e-001	 2.8401015538e+000
 1.1925825527e+000	 2.8716053567e-001	 2.8100097875e+000
 1.1895768480e+000	 2.9936798326e-001	 2.7785123600e+000
 1.1864371279e+000	 3.1157849758e-001	 2.7456820695e+000
 1.1831627958e+000	 3.2379001698e-001	 2.7116500627e+000
 1.1797532945e+000	 3.3600045641e-001	 2.6766105280e+000
 1.1762081074e+000	 3.4820770825e-001	 2.6408252389e+000
 1.1725267587e+000	 3.6040964324e-001	 2.6046279109e+000
 1.2098183574e+000	 2.3969750511e-001	 2.9386388953e+000
 1.2073285311e+000	 2.5193873833e-001	 2.9111024061e+000
 1.2047067393e+000	 2.6419109459e-001	 2.8821362608e+000
 1.2019522323e+000	 2.7645260328e-001	 2.8516754565e+000
 1.1990642966e+000	 2.8872126709e-001	 2.8196991109e+000
 1.1960422558e+000	 3.0099506275e-001	 2.7862355133e+000
 1.1928854711e+000	 3.1327194181e-001	 2.7513671407e+000
 1.1895933429e+000	 3.2554983141e-001	 2.7152356004e+000
 1.1861653108e+000	 3.3782663517e-001	 2.6780464626e+000
 1.1826008554e+000	 3.5010023401e-001	 2.6400739425e+000
 1.1788994984e+000	 3.6236848711e-001	 2.6016653911e+000
 1.2163582342e+000	 2.4099323033e-001	 2.9538291527e+000
 1.2138549488e+000	 2.5330063560e-001	 2.9247796553e+000
 1.2112189844e+000	 2.6561922404e-001	 2.8941983654e+000
 1.2084495874e+000	 2.7794701438e-001	 2.8620282922e+000
 1.2055460405e+000	 2.9028199851e-001	 2.8282569412e+000
 1.2025076636e+000	 3.0262214224e-001	 2.7929215081e+000
 1.1993338144e+000	 3.1496538604e-001	 2.7561140390e+000
 1.1960238900e+000	 3.2730964584e-001	 2.7179865189e+000
 1.1925773271e+000	 3.3965281392e-001	 2.6787558484e+000
 1.1889936034e+000	 3.5199275977e-001	 2.6387086682e+000
 1.1852722382e+000	 3.6432733098e-001	 2.5982059904e+000
 1.2228981111e+000	 2.4228895555e-001	 2.9675026269e+000
 1.2203813665e+000	 2.5466253287e-001	 2.9370152781e+000
 1.2177312295e+000	 2.6704735348e-001	 2.9048995923e+000
 1.2149469426e+000	 2.7944142547e-001	 2.8711063918e+000
 1.2120277845e+000	 2.9184272993e-001	 2.8356313820e+000
 1.2089730714e+000	 3.0424922174e-001	 2.7985204931e+000
 1.2057821577e+000	 3.1665883026e-001	 2.7598751901e+000
 1.2024544371e+000	 3.2906946026e-001	 2.7198577108e+000
 1.1989893434e+000	 3.4147899268e-001	 2.6786961924e+000
 1.1953863515e+000	 3.5388528553e-001	 2.6366896439e+000
 1.1916449779e+000	 3.6628617485e-001	 2.5942127215e+000
 1.2294379879e+000	 2.4358468078e-001	 2.9796025036e+000
 1.2269077841e+000	 2.5602443014e-001	 2.9477532061e+000
 1.2242434746e+000	 2.6847548292e-001	 2.9141850130e+000
 1.2214442978e+000	 2.8093583656e-001	 2.8788563207e+000
 1.2185095284e+000	 2.9340346136e-001	 2.8417708060e+000
 1.2154384792e+000	 3.0587630123e-001	 2.8029829208e+000
 1.2122305009e+000	 3.1835227449e-001	 2.7626033563e+000
 1.2088849842e+000	 3.3082927469e-001	 2.7208044366e+000
 1.2054013597e+000	 3.4330517144e-001	 2.6778253999e+000
 1.2017790995e+000	 3.5577781129e-001	 2.6339775233e+000
 1.1980177176e+000	 3.6824501872e-001	 2.5896490488e+000
 1.2359778647e+000	 2.4488040600e-001	 2.9900720957e+000
 1.2334342018e+000	 2.5738632741e-001	 2.9569375351e+000
 1.2307557197e+000	 2.6990361237e-001	 2.9219999005e+000
 1.2279416529e+000	 2.8243024766e-001	 2.8852248830e+000
 1.2249912724e+000	 2.9496419278e-001	 2.8466238615e+000
 1.2219038869e+000	 3.0750338072e-001	 2.8062595551e+000
 1.2186788442e+000	 3.2004571872e-001	 2.7642516468e+000
 1.2153155313e+000	 3.3258908912e-001	 2.7207823379e+000
 1.2118133760e+000	 3.4513135019e-001	 2.6761017892e+000
 1.2081718476e+000	 3.5767033706e-001	 2.6305334039e+000
 1.2043904573e+000	 3.7020386259e-001	 2.5844789084e+000
 1.2425177416e+000	 2.4617613122e-001	 2.9988548427e+000
 1.2399606194e+000	 2.5874822468e-001	 2.9645125260e+000
 1.2372679649e+000	 2.7133174181e-001	 2.9282897317e+000
 1.2344390081e+000	 2.8392465875e-001	 2.8901591260e+000
 1.2314730163e+000	 2.9652492420e-001	 2.8501394791e+000
 1.2283692947e+000	 3.0913046021e-001	 2.8083014806e+000
 1.2251271875e+000	 3.2173916295e-001	 2.7647735289e+000
 1.2217460784e+000	 3.3434890354e-001	 2.7197474508e+000
 1.2182253923e+000	 3.4695752895e-001	 2.6734841080e+000
 1.2145645956e+000	 3.5956286282e-001	 2.6263188449e+000
 1.2107631971e+000	 3.7216270646e-001	 2.5786667288e+000
 1.1470357998e+000	 3.5257426777e-001	 2.6122636392e+000
 1.1433008586e+000	 3.6450362567e-001	 2.5841148989e+000
 1.1394319079e+000	 3.7642355549e-001	 2.5525007627e+000
 1.1354286065e+000	 3.8833191525e-001	 2.5179454366e+000
 1.1312906563e+000	 4.0022654558e-001	 2.4810558549e+000
 1.1270178035e+000	 4.1210527081e-001	 2.4425241004e+000
 1.1226098389e+000	 4.2396589999e-001	 2.4031294351e+000
 1.1180665990e+000	 4.3580622802e-001	 2.3637399051e+000
 1.1133879660e+000	 4.4762403676e-001	 2.3253134901e+000
 1.1085738690e+000	 4.5941709620e-001	 2.2888987652e+000
 1.1036242841e+000	 4.7118316562e-001	 2.2556350466e+000
 1.1534085395e+000	 3.5453311163e-001	 2.6109104211e+000
 1.1496528476e+000	 3.6652874706e-001	 2.5800837267e+000
 1.1457624017e+000	 3.7851490203e-001	 2.5457735037e+000
 1.1417368586e+000	 3.9048942265e-001	 2.5085073689e+000
 1.1375759186e+000	 4.0245013757e-001	 2.4688977125e+000
 1.1332793265e+000	 4.1439485901e-001	 2.4276442381e+000
 1.1288468721e+000	 4.2632138387e-001	 2.3855361021e+000
 1.1242783906e+000	 4.3822749479e-001	 2.3434536167e+000
 1.1195737639e+000	 4.5011096130e-001	 2.3023694841e+000
 1.1147329206e+000	 4.6196954101e-001	 2.2633495293e+000
 1.1097558367e+000	 4.7380098076e-001	 2.2275529024e+000
 1.1597812792e+000	 3.5649195550e-001	 2.6092123976e+000
 1.1560048366e+000	 3.6855386846e-001	 2.5758219412e+000
 1.1520928955e+000	 3.8060624857e-001	 2.5389393795e+000
 1.1480451107e+000	 3.9264693005e-001	 2.4990925538e+000
 1.1438611810e+000	 4.0467372955e-001	 2.4568960949e+000
 1.1395408496e+000	 4.1668444721e-001	 2.4130540912e+000
 1.1350839052e+000	 4.2867686775e-001	 2.3683623450e+000
 1.1304901823e+000	 4.4064876156e-001	 2.3237101817e+000
 1.1257595619e+000	 4.5259788585e-001	 2.2800817768e+000
 1.1208919723e+000	 4.6452198583e-001	 2.2385569684e+000
 1.1158873893e+000	 4.7641879589e-001	 2.2003115231e+000
 1.1661540190e+000	 3.5845079937e-001	 2.6071309692e+000
 1.1623568256e+000	 3.7057898985e-001	 2.5712933001e+000
 1.1584233893e+000	 3.8269759510e-001	 2.5319637682e+000
 1.1543533628e+000	 3.9480443744e-001	 2.4896672692e+000
 1.1501464433e+000	 4.0689732153e-001	 2.4450174773e+000
 1.1458023727e+000	 4.1897403541e-001	 2.3987196493e+000
 1.1413209384e+000	 4.3103235163e-001	 2.3515730067e+000
 1.1367019740e+000	 4.4307002833e-001	 2.3044726589e+000
 1.1319453599e+000	 4.5508481039e-001	 2.2584110324e+000
 1.1270510239e+000	 4.6707443065e-001	 2.2144787696e+000
 1.1220189419e+000	 4.7903661103e-001	 2.1738650672e+000
 1.1725267587e+000	 3.6040964324e-001	 2.6046279109e+000
 1.1687088147e+000	 3.7260411125e-001	 2.5664619571e+000
 1.1647538830e+000	 3.8478894164e-001	 2.5248124781e+000
 1.1606616149e+000	 3.9696194484e-001	 2.4801982691e+000
 1.1564317056e+000	 4.0912091351e-001	 2.4332288668e+000
 1.1520638958e+000	 4.2126362361e-001	 2.3846074984e+000
 1.1475579716e+000	 4.3338783551e-001	 2.3351335983e+000
 1.1429137657e+000	 4.4549129509e-001	 2.2857048537e+000
 1.1381311579e+000	 4.5757173494e-001	 2.2373187436e+000
 1.1332100756e+000	 4.6962687546e-001	 2.1910735336e+000
 1.1281504945e+000	 4.8165442617e-001	 2.1481686934e+000
 1.1788994984e+000	 3.6236848711e-001	 2.6016653911e+000
 1.1750608037e+000	 3.7462923264e-001	 2.5612924824e+000
 1.1710843768e+000	 3.8688028818e-001	 2.5174517706e+000
 1.1669698670e+000	 3.9911945224e-001	 2.4706528080e+000
 1.1627169680e+000	 4.1134450550e-001	 2.4214978282e+000
 1.1583254189e+000	 4.2355321181e-001	 2.3706848478e+000
 1.1537950047e+000	 4.3574331939e-001	 2.3190103266e+000
 1.1491255574e+000	 4.4791256186e-001	 2.2673713445e+000
 1.1443169558e+000	 4.6005865948e-001	 2.2167672585e+000
 1.1393691272e+000	 4.7217932028e-001	 2.1683008011e+000
 1.1342820471e+000	 4.8427224131e-001	 2.1231785866e+000
 1.1852722382e+000	 3.6432733098e-001	 2.5982059904e+000
 1.1814127927e+000	 3.7665435403e-001	 2.5557498850e+000
 1.1774148706e+000	 3.8897163471e-001	 2.5098483838e+000
 1.1732781191e+000	 4.0127695964e-001	 2.4609986661e+000
 1.1690022303e+000	 4.1356809748e-001	 2.4097925100e+000
 1.1645869419e+000	 4.2584280002e-001	 2.3569195566e+000
 1.1600320379e+000	 4.3809880327e-001	 2.3031701212e+000
 1.1553373490e+000	 4.5033382863e-001	 2.2494375109e+000
 1.1505027538e+000	 4.6254558403e-001	 2.1967198077e+000
 1.1455281789e+000	 4.7473176510e-001	 2.1461210799e+000
 1.1404135996e+000	 4.8689005644e-001	 2.0988519838e+000
 1.1916449779e+000	 3.6628617485e-001	 2.5942127215e+000
 1.1877647817e+000	 3.7867947543e-001	 2.5497996341e+000
 1.1837453644e+000	 3.9106298125e-001	 2.5019695560e+000
 1.1795863712e+000	 4.0343446704e-001	 2.4512041739e+000
 1.1752874927e+000	 4.1579168946e-001	 2.3980816709e+000
 1.1708484650e+000	 4.2813238822e-001	 2.3432801612e+000
 1.1662690711e+000	 4.4045428715e-001	 2.2875806622e+000
 1.1615491407e+000	 4.5275509540e-001	 2.2318695608e+000
 1.1566885518e+000	 4.6503250857e-001	 2.1771405323e+000
 1.1516872305e+000	 4.7728420991e-001	 2.1244958716e+000
 1.1465451522e+000	 4.8950787158e-001	 2.0751472008e+000
 1.1980177176e+000	 3.6824501872e-001	 2.5896490488e+000
 1.1941167707e+000	 3.8070459682e-001	 2.5434076810e+000
 1.1900758581e+000	 3.9315432779e-001	 2.4937830496e+000
 1.1858946233e+000	 4.0559197444e-001	 2.4412382384e+000
 1.1815727550e+000	 4.1801528145e-001	 2.3863347063e+000
 1.1771099881e+000	 4.3042197642e-001	 2.3297359025e+000
 1.1725061042e+000	 4.4280977103e-001	 2.2722104079e+000
 1.1677609324e+000	 4.5517636217e-001	 2.2146345592e+000
 1.1628743498e+000	 4.6751943311e-001	 2.1579945116e+000
 1.1578462822e+000	 4.7983665473e-001	 2.1033877003e+000
 1.1526767048e+000	 4.9212568672e-001	 2.0520236598e+000
 1.2043904573e+000	 3.7020386259e-001	 2.5844789084e+000
 1.2004687598e+000	 3.8272971821e-001	 2.5365404817e+000
 1.1964063519e+000	 3.9524567433e-001	 2.4852571755e+000
 1.1922028754e+000	 4.0774948184e-001	 2.4310703680e+000
 1.1878580173e+000	 4.2023887343e-001	 2.3745216751e+000
 1.1833715112e+000	 4.3271156462e-001	 2.3162567538e+000
 1.1787431374e+000	 4.4516525491e-001	 2.2570286235e+000
 1.1739727241e+000	 4.5759762894e-001	 2.1977004561e+000
 1.1690601477e+000	 4.7000635766e-001	 2.1392477922e+000
 1.1640053338e+000	 4.8238909955e-001	 2.0827601400e+000
 1.1588082574e+000	 4.9474350186e-001	 2.0294419167e+000
 1.2107631971e+000	 3.7216270646e-001	 2.5786667288e+000
 1.2068207488e+000	 3.8475483961e-001	 2.5291650195e+000
 1.2027368457e+000	 3.9733702086e-001	 2.4763608175e+000
 1.1985111275e+000	 4.0990698924e-001	 2.4206706995e+000
 1.1941432797e+000	 4.2246246541e-001	 2.3626133269e+000
 1.1896330343e+000	 4.3500115282e-001	 2.3028134486e+000
 1.1849801705e+000	 4.4752073879e-001	 2.2420054093e+000
 1.1801845157e+000	 4.6001889571e-001	 2.1810361160e+000
 1.1752459457e+000	 4.7249328220e-001	 2.1208674162e+000
 1.1701643855e+000	 4.8494154436e-001	 2.0625778436e+000
 1.1649398100e+000	 4.9736131699e-001	 2.0073636896e+000
 1.1036242841e+000	 4.7118316562e-001	 2.2556350466e+000
 1.0985400084e+000	 4.8291823679e-001	 2.2215778068e+000
 1.0933203824e+000	 4.9462181967e-001	 2.1824359580e+000
 1.0879655276e+000	 5.0629165043e-001	 2.1389602429e+000
 1.0824756146e+000	 5.1792545951e-001	 2.0919659185e+000
 1.0768508634e+000	 5.2952097297e-001	 2.0423307302e+000
 1.0710915437e+000	 5.4107591374e-001	 1.9909923047e+000
 1.0651979753e+000	 5.5258800299e-001	 1.9389449515e+000
 1.0591705282e+000	 5.6405496143e-001	 1.8872358680e+000
 1.0530096230e+000	 5.7547451073e-001	 1.8369607487e+000
 1.0467157306e+000	 5.8684437482e-001	 1.7892587994e+000
 1.1097558367e+000	 4.7380098076e-001	 2.2275529024e+000
 1.1046433136e+000	 4.8560125003e-001	 2.1909228546e+000
 1.0993946882e+000	 4.9736985607e-001	 2.1490622623e+000
 1.0940100827e+000	 5.0910452245e-001	 2.1027560112e+000
 1.0884896687e+000	 5.2080296704e-001	 2.0528560787e+000
 1.0828336673e+000	 5.3246290324e-001	 2.0002794683e+000
 1.0770423498e+000	 5.4408204134e-001	 1.9460055428e+000
 1.0711160377e+000	 5.5565808983e-001	 1.8910727453e+000
 1.0650551032e+000	 5.6718875679e-001	 1.8365747037e+000
 1.0588599689e+000	 5.7867175119e-001	 1.7836557173e+000
 1.0525311088e+000	 5.9010478436e-001	 1.7335056269e+000
 1.1158873893e+000	 4.7641879589e-001	 2.2003115231e+000
 1.1107466188e+000	 4.8828426327e-001	 2.1611744638e+000
 1.1054689940e+000	 5.0011789246e-001	 2.1166467790e+000
 1.1000546378e+000	 5.1191739448e-001	 2.0675536294e+000
 1.0945037228e+000	 5.2368047458e-001	 2.0147900136e+000
 1.0888164712e+000	 5.3540483352e-001	 1.9593186540e+000
 1.0829931559e+000	 5.4708816894e-001	 1.9021672616e+000
 1.0770341001e+000	 5.5872817668e-001	 1.8444251663e+000
 1.0709396781e+000	 5.7032255214e-001	 1.7872393095e+000
 1.0647103149e+000	 5.8186899166e-001	 1.7318095960e+000
 1.0583464869e+000	 5.9336519390e-001	 1.6793836084e+000
 1.1220189419e+000	 4.7903661103e-001	 2.1738650672e+000
 1.1168499240e+000	 4.9096727650e-001	 2.1322831703e+000
 1.1115432998e+000	 5.0286592885e-001	 2.0851366881e+000
 1.1060991930e+000	 5.1473026651e-001	 2.0332970776e+000
 1.1005177769e+000	 5.2655798211e-001	 1.9777085496e+000
 1.0947992751e+000	 5.3834676379e-001	 1.9193858987e+000
 1.0889439620e+000	 5.5009429653e-001	 1.8594116889e+000
 1.0829521626e+000	 5.6179826352e-001	 1.7989327847e+000
 1.0768242530e+000	 5.7345634750e-001	 1.7391562199e+000
 1.0705606608e+000	 5.8506623213e-001	 1.6813444041e+000
 1.0641618651e+000	 5.9662560343e-001	 1.6268096679e+000
 1.1281504945e+000	 4.8165442617e-001	 2.1481686934e+000
 1.1229532292e+000	 4.9365028974e-001	 2.1042005882e+000
 1.1176176057e+000	 5.0561396524e-001	 2.0544803077e+000
 1.1121437481e+000	 5.1754313854e-001	 1.9999315184e+000
 1.1065318310e+000	 5.2943548964e-001	 1.9415537270e+000
 1.1007820790e+000	 5.4128869406e-001	 1.8804200466e+000
 1.0948947681e+000	 5.5310042413e-001	 1.8176742948e+000
 1.0888702250e+000	 5.6486835037e-001	 1.7545274146e+000
 1.0827088279e+000	 5.7659014285e-001	 1.6922532100e+000
 1.0764110068e+000	 5.8826347259e-001	 1.6321833947e+000
 1.0699772432e+000	 5.9988601297e-001	 1.5757019559e+000
 1.1342820471e+000	 4.8427224131e-001	 2.1231785866e+000
 1.1290565344e+000	 4.9633330298e-001	 2.0768794341e+000
 1.1236919115e+000	 5.0836200164e-001	 2.0246271184e+000
 1.1181883033e+000	 5.2035601056e-001	 1.9674033212e+000
 1.1125458851e+000	 5.3231299717e-001	 1.9062688234e+000
 1.1067648830e+000	 5.4423062433e-001	 1.8423611984e+000
 1.1008455742e+000	 5.5610655173e-001	 1.7768918150e+000
 1.0947882874e+000	 5.6793843721e-001	 1.7111421379e+000
 1.0885934029e+000	 5.7972393820e-001	 1.6464593190e+000
 1.0822613528e+000	 5.9146071306e-001	 1.5842510776e+000
 1.0757926214e+000	 6.0314642251e-001	 1.5259798711e+000
 1.1404135996e+000	 4.8689005644e-001	 2.0988519838e+000
 1.1351598396e+000	 4.9901631622e-001	 2.0502735534e+000
 1.1297662173e+000	 5.1111003803e-001	 1.9955277887e+000
 1.1242328584e+000	 5.2316888259e-001	 1.9356600874e+000
 1.1185599392e+000	 5.3519050470e-001	 1.8717983786e+000
 1.1127476869e+000	 5.4717255460e-001	 1.8051507360e+000
 1.1067963803e+000	 5.5911267932e-001	 1.7370022759e+000
 1.1007063498e+000	 5.7100852406e-001	 1.6687113282e+000
 1.0944779778e+000	 5.8285773356e-001	 1.6017048734e+000
 1.0881116987e+000	 5.9465795353e-001	 1.5374732427e+000
 1.0816079995e+000	 6.0640683204e-001	 1.4775640826e+000
 1.1465451522e+000	 4.8950787158e-001	 2.0751472008e+000
 1.1412631448e+000	 5.0169932945e-001	 2.0243379460e+000
 1.1358405231e+000	 5.1385807442e-001	 1.9671342006e+000
 1.1302774136e+000	 5.2598175462e-001	 1.9046506755e+000
 1.1245739933e+000	 5.3806801223e-001	 1.8380882203e+000
 1.1187304908e+000	 5.5011448487e-001	 1.7687313480e+000
 1.1127471864e+000	 5.6211880692e-001	 1.6979450194e+000
 1.1066244122e+000	 5.7407861090e-001	 1.6271706763e+000
 1.1003625527e+000	 5.8599152891e-001	 1.5579215126e+000
 1.0939620447e+000	 5.9785519400e-001	 1.4917769837e+000
 1.0874233777e+000	 6.0966724158e-001	 1.4303765535e+000
 1.1526767048e+000	 4.9212568672e-001	 2.0520236598e+000
 1.1473664500e+000	 5.0438234269e-001	 1.9990287933e+000
 1.1419148290e+000	 5.1660611082e-001	 1.9393994758e+000
 1.1363219687e+000	 5.2879462665e-001	 1.8743252276e+000
 1.1305880474e+000	 5.4094551976e-001	 1.8050854900e+000
 1.1247132947e+000	 5.5305641514e-001	 1.7330470552e+000
 1.1186979925e+000	 5.6512493451e-001	 1.6596607291e+000
 1.1125424746e+000	 5.7714869775e-001	 1.5864572155e+000
 1.1062471276e+000	 5.8912532427e-001	 1.5150422135e+000
 1.0998123907e+000	 6.0105243446e-001	 1.4470907234e+000
 1.0932387558e+000	 6.1292765112e-001	 1.3843405649e+000
 1.1588082574e+000	 4.9474350186e-001	 2.0294419167e+000
 1.1534697552e+000	 5.0706535593e-001	 1.9743034850e+000
 1.1479891348e+000	 5.1935414721e-001	 1.9122780031e+000
 1.1423665238e+000	 5.3160749867e-001	 1.8446351957e+000
 1.1366021015e+000	 5.4382302729e-001	 1.7727386693e+000
 1.1306960986e+000	 5.5599834541e-001	 1.6980432379e+000
 1.1246487986e+000	 5.6813106211e-001	 1.6220914565e+000
 1.1184605371e+000	 5.8021878459e-001	 1.5465093484e+000
 1.1121317026e+000	 5.9225911962e-001	 1.4730013170e+000
 1.1056627366e+000	 6.0424967493e-001	 1.4033442391e+000
 1.0990541339e+000	 6.1618806065e-001	 1.3393807409e+000
 1.1649398100e+000	 4.9736131699e-001	 2.0073636896e+000
 1.1595730604e+000	 5.0974836916e-001	 1.9501206473e+000
 1.1540634406e+000	 5.2210218360e-001	 1.8857254652e+000
 1.1484110790e+000	 5.3442037070e-001	 1.8155333698e+000
 1.1426161556e+000	 5.4670053483e-001	 1.7409976078e+000
 1.1366789026e+000	 5.5894027569e-001	 1.6636666624e+000
 1.1305996047e+000	 5.7113718971e-001	 1.5851806485e+000
 1.1243785995e+000	 5.8328887144e-001	 1.5072668735e+000
 1.1180162775e+000	 5.9539291498e-001	 1.4317345548e+000
 1.1115130826e+000	 6.0744691540e-001	 1.3604686889e+000
 1.1048695121e+000	 6.1944847019e-001	 1.2954230741e+000
 1.0467157306e+000	 5.8684437482e-001	 1.7892587994e+000
 1.0402883994e+000	 5.9816397530e-001	 1.7381912314e+000
 1.0337291371e+000	 6.0942933496e-001	 1.6789433293e+000
 1.0270385685e+000	 6.2063819263e-001	 1.6143651999e+000
 1.0202173693e+000	 6.3178829505e-001	 1.5473199010e+000
 1.0132662660e+000	 6.4287739830e-001	 1.4806722588e+000
 1.0061860356e+000	 6.5390326915e-001	 1.4172771826e+000
 9.9897750582e-001	 6.6486368655e-001	 1.3599675201e+000
 9.9164155477e-001	 6.7575644299e-001	 1.3065923956e+000
 9.8417911056e-001	 6.8657934596e-001	 1.2500807103e+000
 9.7659115111e-001	 6.9733021931e-001	 1.1917391033e+000
 1.0525311088e+000	 5.9010478436e-001	 1.7335056269e+000
 1.0460680683e+000	 6.0148727465e-001	 1.6801525447e+000
 1.0394723639e+000	 6.1281522277e-001	 1.6187811528e+000
 1.0327446236e+000	 6.2408635498e-001	 1.5523419397e+000
 1.0258855270e+000	 6.3529840552e-001	 1.4837989029e+000
 1.0188958045e+000	 6.4644911797e-001	 1.4161180022e+000
 1.0117762375e+000	 6.5753624673e-001	 1.3522550933e+000
 1.0045276583e+000	 6.6855755838e-001	 1.2949447509e+000
 9.9715094997e-001	 6.7951083316e-001	 1.2379102819e+000
 9.8964704566e-001	 6.9039386638e-001	 1.1781057656e+000
 9.8201692878e-001	 7.0120446979e-001	 1.1170944204e+000
 1.0583464869e+000	 5.9336519390e-001	 1.6793836084e+000
 1.0518477373e+000	 6.0481057400e-001	 1.6239562914e+000
 1.0452155907e+000	 6.1620111058e-001	 1.5607010918e+000
 1.0384506788e+000	 6.2753451734e-001	 1.4926602504e+000
 1.0315536847e+000	 6.3880851599e-001	 1.4228900207e+000
 1.0245253430e+000	 6.5002083765e-001	 1.3544487700e+000
 1.0173664394e+000	 6.6116922430e-001	 1.2903845409e+000
 1.0100778109e+000	 6.7225143021e-001	 1.2319773912e+000
 1.0026603452e+000	 6.8326522333e-001	 1.1713389527e+000
 9.9511498077e-001	 6.9420838679e-001	 1.1084542709e+000
 9.8744270645e-001	 7.0507872026e-001	 1.0449376240e+000
 1.0641618651e+000	 5.9662560343e-001	 1.6268096679e+000
 1.0576274063e+000	 6.0813387335e-001	 1.5695133364e+000
 1.0509588175e+000	 6.1958699839e-001	 1.5046067792e+000
 1.0441567339e+000	 6.3098267970e-001	 1.4352155265e+000
 1.0372218423e+000	 6.4231862646e-001	 1.3644795742e+000
 1.0301548815e+000	 6.5359255733e-001	 1.2955411432e+000
 1.0229566413e+000	 6.6480220188e-001	 1.2315318805e+000
 1.0156279634e+000	 6.7594530204e-001	 1.1707953734e+000
 1.0081697404e+000	 6.8701961350e-001	 1.1067977470e+000
 1.0005829159e+000	 6.9802290721e-001	 1.0410393851e+000
 9.9286848412e-001	 7.0895297074e-001	 9.7517598410e-001
 1.0699772432e+000	 5.9988601297e-001	 1.5757019559e+000
 1.0634070752e+000	 6.1145717270e-001	 1.5167357705e+000
 1.0567020443e+000	 6.2297288620e-001	 1.4504030864e+000
 1.0498627890e+000	 6.3443084205e-001	 1.3799044226e+000
 1.0428900000e+000	 6.4582873692e-001	 1.3084551698e+000
 1.0357844200e+000	 6.5716427700e-001	 1.2392730197e+000
 1.0285468432e+000	 6.6843517946e-001	 1.1754056866e+000
 1.0211781159e+000	 6.7963917386e-001	 1.1113281880e+000
 1.0136791356e+000	 6.9077400367e-001	 1.0442099533e+000
 1.0060508510e+000	 7.0183742762e-001	 9.7577831962e-001
 9.9829426179e-001	 7.1282722121e-001	 9.0772092045e-001
 1.0757926214e+000	 6.0314642251e-001	 1.5259798711e+000
 1.0691867442e+000	 6.1478047205e-001	 1.4655369316e+000
 1.0624452711e+000	 6.2635877401e-001	 1.3979961418e+000
 1.0555688441e+000	 6.3787900441e-001	 1.3266248686e+000
 1.0485581577e+000	 6.4933884739e-001	 1.2547057140e+000
 1.0414139584e+000	 6.6073599668e-001	 1.1855236230e+000
 1.0341370451e+000	 6.7206815703e-001	 1.1208586823e+000
 1.0267282684e+000	 6.8333304569e-001	 1.0535090819e+000
 1.0191885308e+000	 6.9452839384e-001	 9.8350271785e-001
 1.0115187861e+000	 7.0565194803e-001	 9.1259224299e-001
 1.0037200395e+000	 7.1670147168e-001	 8.4248790439e-001
 1.0816079995e+000	 6.0640683204e-001	 1.4775640826e+000
 1.0749664132e+000	 6.1810377140e-001	 1.4158314250e+000
 1.0681884979e+000	 6.2974466182e-001	 1.3472933497e+000
 1.0612748992e+000	 6.4132716676e-001	 1.2752760870e+000
 1.0542263153e+000	 6.5284895786e-001	 1.2031214266e+000
 1.0470434969e+000	 6.6430771635e-001	 1.1341735136e+000
 1.0397272470e+000	 6.7570113461e-001	 1.0676413782e+000
 1.0322784210e+000	 6.8702691752e-001	 9.9727497103e-001
 1.0246979260e+000	 6.9828278401e-001	 9.2460695367e-001
 1.0169867212e+000	 7.0946646845e-001	 8.5140618663e-001
 1.0091458171e+000	 7.2057572216e-001	 7.7939636197e-001
 1.0874233777e+000	 6.0966724158e-001	 1.4303765535e+000
 1.0807460821e+000	 6.2142707075e-001	 1.3675351461e+000
 1.0739317246e+000	 6.3313054963e-001	 1.2982034107e+000
 1.0669809543e+000	 6.4477532912e-001	 1.2257586105e+000
 1.0598944730e+000	 6.5635906832e-001	 1.1535938559e+000
 1.0526730354e+000	 6.6787943603e-001	 1.0850378467e+000
 1.0453174490e+000	 6.7933411219e-001	 1.0157001502e+000
 1.0378285735e+000	 6.9072078935e-001	 9.4256635459e-001
 1.0302073212e+000	 7.0203717417e-001	 8.6745725125e-001
 1.0224546563e+000	 7.1328098886e-001	 7.9214895280e-001
 1.0145715948e+000	 7.2444997263e-001	 7.1836957893e-001
 1.0932387558e+000	 6.1292765112e-001	 1.3843405649e+000
 1.0865257511e+000	 6.2475037010e-001	 1.3205653028e+000
 1.0796749514e+000	 6.3651643744e-001	 1.2506363428e+000
 1.0726870094e+000	 6.4822349148e-001	 1.1779743005e+000
 1.0655626307e+000	 6.5986917879e-001	 1.1060158950e+000
 1.0583025739e+000	 6.7145115571e-001	 1.0371423614e+000
 1.0509076509e+000	 6.8296708976e-001	 9.6498478358e-001
 1.0433787260e+000	 6.9441466118e-001	 8.8932722987e-001
 1.0357167164e+000	 7.0579156434e-001	 8.1199179068e-001
 1.0279225914e+000	 7.1709550927e-001	 7.3475302365e-001
 1.0199973725e+000	 7.2832422311e-001	 6.5933460711e-001
 1.0990541339e+000	 6.1618806065e-001	 1.3393807409e+000
 1.0923054200e+000	 6.2807366945e-001	 1.2748404398e+000
 1.0854181782e+000	 6.3990232526e-001	 1.2045035033e+000
 1.0783930645e+000	 6.5167165383e-001	 1.1318263671e+000
 1.0712307883e+000	 6.6337928926e-001	 1.0602817982e+000
 1.0639321124e+000	 6.7502287538e-001	 9.9016759715e-001
 1.0564978528e+000	 6.8660006734e-001	 9.1544839154e-001
 1.0489288785e+000	 6.9810853301e-001	 8.3750500887e-001
 1.0412261116e+000	 7.0954595451e-001	 7.5815225510e-001
 1.0333905265e+000	 7.2091002969e-001	 6.7915447190e-001
 1.0254231501e+000	 7.3219847358e-001	 6.0222217256e-001
 1.1048695121e+000	 6.1944847019e-001	 1.2954230741e+000
 1.0980850890e+000	 6.3139696880e-001	 1.2302804622e+000
 1.0911614050e+000	 6.4328821307e-001	 1.1597176112e+000
 1.0840991196e+000	 6.5511981619e-001	 1.0872193893e+000
 1.0768989460e+000	 6.6688939972e-001	 1.0162856232e+000
 1.0695616509e+000	 6.7859459506e-001	 9.4407536560e-001
 1.0620880547e+000	 6.9023304492e-001	 8.6704733653e-001
 1.0544790311e+000	 7.0180240484e-001	 7.8705043595e-001
 1.0467355068e+000	 7.1330034468e-001	 7.0588374551e-001
 1.0388584616e+000	 7.2472455010e-001	 6.2529287284e-001
 1.0308489278e+000	 7.3607272405e-001	 5.4696658501e-001
 9.7659115111e-001	 6.9733021931e-001	 1.1917391033e+000
 9.6887870355e-001	 7.0800690445e-001	 1.1324325385e+000
 9.6104284295e-001	 7.1860726098e-001	 1.0720129061e+000
 9.5308469276e-001	 7.2912916883e-001	 1.0104103391e+000
 9.4500542458e-001	 7.3957052978e-001	 9.4751646836e-001
 9.3680625767e-001	 7.4992926888e-001	 8.8318478775e-001
 9.2848845834e-001	 7.6020333577e-001	 8.1723122668e-001
 9.2005333932e-001	 7.7039070600e-001	 7.4943492448e-001
 9.1150225915e-001	 7.8048938239e-001	 6.7953919805e-001
 9.0283662142e-001	 7.9049739622e-001	 6.0725269350e-001
 8.9405787402e-001	 8.0041280860e-001	 5.3225071070e-001
 9.8201692878e-001	 7.0120446979e-001	 1.1170944204e+000
 9.7426163215e-001	 7.1194047280e-001	 1.0557803810e+000
 9.6638223681e-001	 7.2259972315e-001	 9.9395811740e-001
 9.5837987246e-001	 7.3318008897e-001	 9.3147051701e-001
 9.5025571722e-001	 7.4367946038e-001	 8.6812037282e-001
 9.4201099711e-001	 7.5409575090e-001	 8.0367092852e-001
 9.3364698546e-001	 7.6442689880e-001	 7.3784664029e-001
 9.2516500233e-001	 7.7467086837e-001	 6.7033414839e-001
 9.1656641379e-001	 7.8482565131e-001	 6.0078344977e-001
 9.0785263121e-001	 7.9488926800e-001	 5.2880926143e-001
 8.9902511056e-001	 8.0485976876e-001	 4.5399256291e-001
 9.8744270645e-001	 7.0507872026e-001	 1.0449376240e+000
 9.7964456075e-001	 7.1587404116e-001	 9.8173286185e-001
 9.7172163067e-001	 7.2659218533e-001	 9.1858772890e-001
 9.6367505217e-001	 7.3723100910e-001	 8.5526333943e-001
 9.5550600986e-001	 7.4778839098e-001	 7.9147923127e-001
 9.4721573654e-001	 7.5826223293e-001	 7.2691408368e-001
 9.3880551259e-001	 7.6865046183e-001	 6.6120666071e-001
 9.3027666534e-001	 7.7895103073e-001	 5.9395697249e-001
 9.2163056842e-001	 7.8916192023e-001	 5.2472764516e-001
 9.1286864101e-001	 7.9928113978e-001	 4.5304548844e-001
 9.0399234710e-001	 8.0930672892e-001	 3.7840324828e-001
 9.9286848412e-001	 7.0895297074e-001	 9.7517598410e-001
 9.8502748934e-001	 7.1980760952e-001	 9.1019228354e-001
 9.7706102453e-001	 7.3058464750e-001	 8.4580046195e-001
 9.6897023187e-001	 7.4128192924e-001	 7.8168524568e-001
 9.6075630249e-001	 7.5189732157e-001	 7.1748841079e-001
 9.5242047597e-001	 7.6242871496e-001	 6.5280966629e-001
 9.4396403971e-001	 7.7287402486e-001	 5.8720777165e-001
 9.3538832835e-001	 7.8323119309e-001	 5.2020188040e-001
 9.2669472305e-001	 7.9349818916e-001	 4.5127309991e-001
 9.1788465080e-001	 8.0367301156e-001	 3.7986625562e-001
 9.0895958363e-001	 8.1375368908e-001	 3.0539184651e-001
 9.9829426179e-001	 7.1282722121e-001	 9.0772092045e-001
 9.9041041794e-001	 7.2374117788e-001	 8.4106517723e-001
 9.8240041839e-001	 7.3457710967e-001	 7.7549931663e-001
 9.7426541158e-001	 7.4533284938e-001	 7.1063697706e-001
 9.6600659513e-001	 7.5600625217e-001	 6.4604757874e-001
 9.5762521540e-001	 7.6659519698e-001	 5.8125736506e-001
 9.4912256684e-001	 7.7709758788e-001	 5.1575068692e-001
 9.4049999136e-001	 7.8751135545e-001	 4.4897152136e-001
 9.3175887769e-001	 7.9783445808e-001	 3.8032521382e-001
 9.2290066060e-001	 8.0806488334e-001	 3.0918043174e-001
 9.1392682017e-001	 8.1820064924e-001	 2.3487131545e-001
 1.0037200395e+000	 7.1670147168e-001	 8.4248790439e-001
 9.9579334653e-001	 7.2767474623e-001	 7.7426220202e-001
 9.8773981225e-001	 7.3856957184e-001	 7.0759146953e-001
 9.7956059128e-001	 7.4938376951e-001	 6.4202347399e-001
 9.7125688777e-001	 7.6011518277e-001	 5.7706060016e-001
 9.6282995483e-001	 7.7076167901e-001	 5.1216104275e-001
 9.5428109396e-001	 7.8132115091e-001	 4.4674025049e-001
 9.4561165437e-001	 7.9179151781e-001	 3.8017261250e-001
 9.3682303232e-001	 8.0217072700e-001	 3.1179337592e-001
 9.2791667039e-001	 8.1245675512e-001	 2.4090078163e-001
 9.1889405671e-001	 8.2264760940e-001	 1.6675840336e-001
 1.0091458171e+000	 7.2057572216e-001	 7.7939636197e-001
 1.0011762751e+000	 7.3160831459e-001	 7.0969804597e-001
 9.9307920611e-001	 7.4256203401e-001	 6.4198817338e-001
 9.8485577098e-001	 7.5343468965e-001	 5.7575377509e-001
 9.7650718040e-001	 7.6422411337e-001	 5.1043543702e-001
 9.6803469427e-001	 7.7492816104e-001	 4.4542863636e-001
 9.5943962109e-001	 7.8554471394e-001	 3.8008533823e-001
 9.5072331738e-001	 7.9607168017e-001	 3.1371584285e-001
 9.4188718696e-001	 8.0650699593e-001	 2.4559087128e-001
 9.3293268019e-001	 8.1684862690e-001	 1.7494387630e-001
 9.2386129325e-001	 8.2709456956e-001	 1.0097356264e-001
 1.0145715948e+000	 7.2444997263e-001	 7.1836957893e-001
 1.0065592037e+000	 7.3554188295e-001	 6.4729132876e-001
 9.9841859997e-001	 7.4655449618e-001	 5.7860465847e-001
 9.9015095069e-001	 7.5748560979e-001	 5.1174091806e-001
 9.8175747304e-001	 7.6833304397e-001	 4.4608404933e-001
 9.7323943370e-001	 7.7909464306e-001	 3.8097205913e-001
 9.6459814821e-001	 7.8976827697e-001	 3.1569876160e-001
 9.5583498039e-001	 8.0035184253e-001	 2.4951577911e-001
 9.4695134159e-001	 8.1084326485e-001	 1.8163478940e-001
 9.3794868998e-001	 8.2124049868e-001	 1.1123000443e-001
 9.2882852978e-001	 8.3154152972e-001	 3.7440864997e-002
 1.0199973725e+000	 7.2832422311e-001	 6.5933460711e-001
 1.0119421323e+000	 7.3947545130e-001	 5.8696450615e-001
 1.0037579938e+000	 7.5054695835e-001	 5.1736003571e-001
 9.9544613039e-001	 7.6153652993e-001	 4.4990184226e-001
 9.8700776568e-001	 7.7244197457e-001	 3.8392229802e-001
 9.7844417313e-001	 7.8326112509e-001	 3.1870710434e-001
 9.6975667534e-001	 7.9399184000e-001	 2.5349717279e-001
 9.6094664340e-001	 8.0463200489e-001	 1.8749077299e-001
 9.5201549622e-001	 8.1517953377e-001	 1.1984593419e-001
 9.4296469978e-001	 8.2563237046e-001	 4.9683085528e-002
 9.3379576632e-001	 8.3598848987e-001	-2.3912081962e-002
 1.0254231501e+000	 7.3219847358e-001	 6.0222217256e-001
 1.0173250609e+000	 7.4340901966e-001	 5.2864377593e-001
 1.0090973877e+000	 7.5453942052e-001	 4.5817720144e-001
 1.0007413101e+000	 7.6558745006e-001	 3.9015729304e-001
 9.9225805831e-001	 7.7655090516e-001	 3.2386984938e-001
 9.8364891256e-001	 7.8742760711e-001	 2.5855335066e-001
 9.7491520247e-001	 7.9821540303e-001	 1.9340097172e-001
 9.6605830641e-001	 8.0891216725e-001	 1.2756287013e-001
 9.5707965086e-001	 8.1951580270e-001	 6.0148735503e-002
 9.4798070957e-001	 8.3002424224e-001	-9.7694155974e-003
 9.3876300286e-001	 8.4043545003e-001	-8.3154216827e-002
 1.0308489278e+000	 7.3607272405e-001	 5.4696658501e-001
 1.0227079895e+000	 7.4734258802e-001	 4.7225898550e-001
 1.0144367816e+000	 7.5853188269e-001	 4.0098274381e-001
 1.0060364898e+000	 7.6963837020e-001	 3.3243172762e-001
 9.9750835095e-001	 7.8065983576e-001	 2.6585008126e-001
 9.8885365199e-001	 7.9159408914e-001	 2.0043406914e-001
 9.8007372959e-001	 8.0243896606e-001	 1.3533421443e-001
 9.7116996942e-001	 8.1319232961e-001	 6.9657720607e-002
 9.6214380549e-001	 8.2385207162e-001	 2.4711620610e-003
 9.5299671937e-001	 8.3441611403e-001	-6.7196572957e-002
 9.4373023940e-001	 8.4488241019e-001	-1.4035110517e-001
 8.9405787402e-001	 8.0041280860e-001	 5.3225071070e-001
 8.8516885031e-001	 8.1023224589e-001	 4.5770526149e-001
 8.7616977604e-001	 8.1995532817e-001	 3.8652234408e-001
 8.6706222719e-001	 8.2958021483e-001	 3.1797943814e-001
 8.5784782059e-001	 8.3910509985e-001	 2.5134398009e-001
 8.4852821293e-001	 8.4852821293e-001	 1.8587599456e-001
 8.3910509985e-001	 8.5784782059e-001	 1.2083077489e-001
 8.2958021483e-001	 8.6706222719e-001	 5.5461593871e-002
 8.1995532817e-001	 8.7616977604e-001	-1.0977575276e-002
 8.1023224589e-001	 8.8516885031e-001	-7.9229347113e-002
 8.0041280860e-001	 8.9405787402e-001	-1.5003024140e-001
 8.9902511056e-001	 8.0485976876e-001	 4.5399256291e-001
 8.9008670091e-001	 8.1473376121e-001	 3.7953845119e-001
 8.8103762929e-001	 8.2451086331e-001	 3.0847303736e-001
 8.7187948042e-001	 8.3418922424e-001	 2.4010922887e-001
 8.6261388010e-001	 8.4376702793e-001	 1.7374909894e-001
 8.5324249426e-001	 8.5324249426e-001	 1.0868652019e-001
 8.4376702793e-001	 8.6261388010e-001	 4.4209850529e-002
 8.3418922424e-001	 8.7187948042e-001	-2.0395348308e-002
 8.2451086331e-001	 8.8103762929e-001	-8.5843579925e-002
 8.1473376121e-001	 8.9008670091e-001	-1.5284669023e-001
 8.0485976876e-001	 8.9902511056e-001	-2.2211117265e-001
 9.0399234710e-001	 8.0930672892e-001	 3.7840324828e-001
 8.9500455151e-001	 8.1923527653e-001	 3.0403796055e-001
 8.8590548253e-001	 8.2906639846e-001	 2.3308885855e-001
 8.7669673364e-001	 8.3879823365e-001	 1.6490164423e-001
 8.6737993962e-001	 8.4842895602e-001	 9.8810400433e-002
 8.5795677559e-001	 8.5795677559e-001	 3.4140233700e-002
 8.4842895602e-001	 8.6737993962e-001	-2.9790027627e-002
 8.3879823365e-001	 8.7669673364e-001	-9.3665100137e-002
 8.2906639846e-001	 8.8590548253e-001	-1.5817049769e-001
 8.1923527653e-001	 8.9500455151e-001	-2.2398979021e-001
 8.0930672892e-001	 9.0399234710e-001	-2.9180188991e-001
 9.0895958363e-001	 8.1375368908e-001	 3.0539184651e-001
 8.9992240212e-001	 8.2373679185e-001	 2.3111739278e-001
 8.9077333578e-001	 8.3362193360e-001	 1.6028804755e-001
 8.8151398686e-001	 8.4340724305e-001	 9.2279715097e-002
 8.7214599913e-001	 8.5309088410e-001	 2.6455901361e-002
 8.6267105692e-001	 8.6267105692e-001	-3.7829627238e-002
 8.5309088410e-001	 8.7214599913e-001	-1.0123012650e-001
 8.4340724305e-001	 8.8151398686e-001	-1.6440311946e-001
 8.3362193360e-001	 8.9077333578e-001	-2.2800762494e-001
 8.2373679185e-001	 8.9992240212e-001	-2.9270139128e-001
 8.1375368908e-001	 9.0895958363e-001	-3.5913815663e-001
 9.1392682017e-001	 8.1820064924e-001	 2.3487131545e-001
 9.0484025272e-001	 8.2823830716e-001	 1.6069411325e-001
 8.9564118902e-001	 8.3817746874e-001	 8.9992488315e-002
 8.8633124008e-001	 8.4801625246e-001	 2.2169995017e-002
 8.7691205865e-001	 8.5775281218e-001	-4.3382984711e-002
 8.6738533824e-001	 8.6738533824e-001	-1.0728655968e-001
 8.5775281218e-001	 8.7691205865e-001	-1.7016858598e-001
 8.4801625246e-001	 8.8633124008e-001	-2.3266188323e-001
 8.3817746874e-001	 8.9564118902e-001	-2.9540143242e-001
 8.2823830716e-001	 9.0484025272e-001	-3.5902157752e-001
 8.1820064924e-001	 9.1392682017e-001	-4.2415325299e-001
 9.1889405671e-001	 8.2264760940e-001	 1.6675840336e-001
 9.0975810332e-001	 8.3273982248e-001	 9.2689165805e-002
 9.0050904227e-001	 8.4273300388e-001	 2.2127629313e-002
 8.9114849331e-001	 8.5262526187e-001	-4.5497514997e-002
 8.8167811816e-001	 8.6241474026e-001	-1.1077151804e-001
 8.7209961957e-001	 8.7209961957e-001	-1.7429086119e-001
 8.6241474026e-001	 8.8167811816e-001	-2.3666047968e-001
 8.5262526187e-001	 8.9114849331e-001	-2.9849094304e-001
 8.4273300388e-001	 9.0050904227e-001	-3.6039561520e-001
 8.3273982248e-001	 9.0975810332e-001	-4.2298781698e-001
 8.2264760940e-001	 9.1889405671e-001	-4.8687801386e-001
 9.2386129325e-001	 8.2709456956e-001	 1.0097356264e-001
 9.1467595392e-001	 8.3724133779e-001	 2.7027190440e-002
 9.0537689552e-001	 8.4728853902e-001	-4.3377594649e-002
 8.9596574653e-001	 8.5723427128e-001	-1.1078944040e-001
 8.8644417767e-001	 8.6707666834e-001	-1.7577170221e-001
 8.7681390090e-001	 8.7681390090e-001	-2.3889969470e-001
 8.6707666834e-001	 8.8644417767e-001	-3.0075787492e-001
 8.5723427128e-001	 8.9596574653e-001	-3.6193697994e-001
 8.4728853902e-001	 9.0537689552e-001	-4.2303114212e-001
 8.3724133779e-001	 9.1467595392e-001	-4.8463500542e-001
 8.2709456956e-001	 9.2386129325e-001	-5.4734086649e-001
 9.2882852978e-001	 8.3154152972e-001	 3.7440864997e-002
 9.1959380453e-001	 8.4174285311e-001	-3.6363657658e-002
 9.1024474876e-001	 8.5184407416e-001	-1.0659083943e-001
 9.0078299975e-001	 8.6184328068e-001	-1.7376910595e-001
 8.9121023719e-001	 8.7173859642e-001	-2.3844235266e-001
 8.8152818223e-001	 8.8152818223e-001	-3.0116715252e-001
 8.7173859642e-001	 8.9121023719e-001	-3.6250989199e-001
 8.6184328068e-001	 9.0078299975e-001	-4.2304385871e-001
 8.5184407416e-001	 9.1024474876e-001	-4.8334630473e-001
 8.4174285311e-001	 9.1959380453e-001	-5.4399550967e-001
 8.3154152972e-001	 9.2882852978e-001	-6.0556786802e-001
 9.3379576632e-001	 8.3598848987e-001	-2.3912081962e-002
 9.2451165513e-001	 8.4624436843e-001	-9.7551787790e-002
 9.1511260201e-001	 8.5639960930e-001	-1.6757642733e-001
 9.0560025297e-001	 8.6645229009e-001	-2.3449660749e-001
 8.9597629670e-001	 8.7640052450e-001	-2.9883916421e-001
 8.8624246355e-001	 8.8624246355e-001	-3.6114431942e-001
 8.7640052450e-001	 8.9597629670e-001	-4.2196276261e-001
 8.6645229009e-001	 9.0560025297e-001	-4.8185268142e-001
 8.5639960930e-001	 9.1511260201e-001	-5.4137676580e-001
 8.4624436843e-001	 9.2451165513e-001	-6.0109921077e-001
 8.3598848987e-001	 9.3379576632e-001	-6.6158274292e-001
 9.3876300286e-001	 8.4043545003e-001	-8.3154216827e-002
 9.2942950573e-001	 8.5074588374e-001	-1.5660225218e-001
 9.1998045525e-001	 8.6095514444e-001	-2.2639542179e-001
 9.1041750620e-001	 8.7106129950e-001	-2.9302888261e-001
 9.0074235622e-001	 8.8106245259e-001	-3.5701477766e-001
 8.9095674488e-001	 8.9095674488e-001	-4.1887933495e-001
 8.8106245259e-001	 9.0074235622e-001	-4.7915988770e-001
 8.7106129950e-001	 9.1041750620e-001	-5.3840184052e-001
 8.6095514444e-001	 9.1998045525e-001	-5.9715560735e-001
 8.5074588374e-001	 9.2942950573e-001	-6.5597354668e-001
 8.4043545003e-001	 9.3876300286e-001	-7.1540692012e-001
 9.4373023940e-001	 8.4488241019e-001	-1.4035110517e-001
 9.3434735634e-001	 8.5524739906e-001	-2.1357682320e-001
 9.2484830850e-001	 8.6551067959e-001	-2.8310570084e-001
 9.1523475942e-001	 8.7567030891e-001	-3.4941978040e-001
 9.0550841573e-001	 8.8572438067e-001	-4.1301884548e-001
 8.9567102621e-001	 8.9567102621e-001	-4.7441745497e-001
 8.8572438067e-001	 9.0550841573e-001	-5.3414189452e-001
 8.7567030891e-001	 9.1523475942e-001	-5.9272707127e-001
 8.6551067959e-001	 9.2484830850e-001	-6.5071337823e-001
 8.5524739906e-001	 9.3434735634e-001	-7.0864355476e-001
 8.4488241019e-001	 9.4373023940e-001	-7.6705957006e-001
 8.0041280860e-001	 8.9405787402e-001	-1.5003024140e-001
 7.9049739622e-001	 9.0283662142e-001	-2.2151586901e-001
 7.8048938239e-001	 9.1150225915e-001	-2.9157126721e-001
 7.7039070600e-001	 9.2005333932e-001	-3.6057311400e-001
 7.6020333577e-001	 9.2848845834e-001	-4.2888300145e-001
 7.4992926888e-001	 9.3680625767e-001	-4.9684596451e-001
 7.3957052978e-001	 9.4500542458e-001	-5.6478914520e-001
 7.2912916883e-001	 9.5308469276e-001	-6.3302060594e-001
 7.1860726098e-001	 9.6104284295e-001	-7.0182830468e-001
 7.0800690445e-001	 9.6887870355e-001	-7.7147924323e-001
 6.9733021931e-001	 9.7659115111e-001	-8.4221879875e-001
 8.0485976876e-001	 8.9902511056e-001	-2.2211117265e-001
 7.9488926800e-001	 9.0785263121e-001	-2.9173468621e-001
 7.8482565131e-001	 9.1656641379e-001	-3.5963252332e-001
 7.7467086837e-001	 9.2516500233e-001	-4.2625222284e-001
 7.6442689880e-001	 9.3364698546e-001	-4.9202447907e-001
 7.5409575090e-001	 9.4201099711e-001	-5.5736149800e-001
 7.4367946038e-001	 9.5025571722e-001	-6.2265549655e-001
 7.3318008897e-001	 9.5837987246e-001	-6.8827735941e-001
 7.2259972315e-001	 9.6638223681e-001	-7.5457546681e-001
 7.1194047280e-001	 9.7426163215e-001	-8.2187470540e-001
 7.0120446979e-001	 9.8201692878e-001	-8.9047567274e-001
 8.0930672892e-001	 9.0399234710e-001	-2.9180188991e-001
 7.9928113978e-001	 9.1286864101e-001	-3.5965723694e-001
 7.8916192023e-001	 9.2163056842e-001	-4.2548869920e-001
 7.7895103073e-001	 9.3027666534e-001	-4.8981208286e-001
 7.6865046183e-001	 9.3880551259e-001	-5.5312469502e-001
 7.5826223293e-001	 9.4721573654e-001	-6.1590352817e-001
 7.4778839098e-001	 9.5550600986e-001	-6.7860359515e-001
 7.3723100910e-001	 9.6367505217e-001	-7.4165643013e-001
 7.2659218533e-001	 9.7172163067e-001	-8.0546876947e-001
 7.1587404116e-001	 9.7964456075e-001	-8.7042142563e-001
 7.0507872026e-001	 9.8744270645e-001	-9.3686836495e-001
 8.1375368908e-001	 9.0895958363e-001	-3.5913815663e-001
 8.0367301156e-001	 9.1788465080e-001	-4.2531279125e-001
 7.9349818916e-001	 9.2669472305e-001	-4.8916403195e-001
 7.8323119309e-001	 9.3538832835e-001	-5.5127340194e-001
 7.7287402486e-001	 9.4396403971e-001	-6.1220237312e-001
 7.6242871496e-001	 9.5242047597e-001	-6.7249037944e-001
 7.5189732157e-001	 9.6075630249e-001	-7.3265298819e-001
 7.4128192924e-001	 9.6897023187e-001	-7.9318024545e-001
 7.3058464750e-001	 9.7706102453e-001	-8.5453521069e-001
 7.1980760952e-001	 9.8502748934e-001	-9.1715269382e-001
 7.0895297074e-001	 9.9286848412e-001	-9.8143820675e-001
 8.1820064924e-001	 9.1392682017e-001	-4.2415325299e-001
 8.0806488334e-001	 9.2290066060e-001	-4.8872830465e-001
 7.9783445808e-001	 9.3175887769e-001	-5.5068058378e-001
 7.8751135545e-001	 9.4049999136e-001	-6.1065482302e-001
 7.7709758788e-001	 9.4912256684e-001	-6.6927425197e-001
 7.6659519698e-001	 9.5762521540e-001	-7.2713843991e-001
 7.5600625217e-001	 9.6600659513e-001	-7.8482130392e-001
 7.4533284938e-001	 9.7426541158e-001	-8.4286929935e-001
 7.3457710967e-001	 9.8240041839e-001	-9.0179980819e-001
 7.2374117788e-001	 9.9041041794e-001	-9.6209973982e-001
 7.1282722121e-001	 9.9829426179e-001	-1.0242243564e+000
 8.2264760940e-001	 9.1889405671e-001	-4.8687801386e-001
 8.1245675512e-001	 9.2791667039e-001	-5.4992845002e-001
 8.0217072700e-001	 9.3682303232e-001	-6.1005826872e-001
 7.9179151781e-001	 9.4561165437e-001	-6.6797294653e-001
 7.8132115091e-001	 9.5428109396e-001	-7.2435510381e-001
 7.7076167901e-001	 9.6282995483e-001	-7.7986217744e-001
 7.6011518277e-001	 9.7125688777e-001	-8.3512426609e-001
 7.4938376951e-001	 9.7956059128e-001	-8.9074216588e-001
 7.3856957184e-001	 9.8773981225e-001	-9.4728561297e-001
 7.2767474623e-001	 9.9579334653e-001	-1.0052917480e+000
 7.1670147168e-001	 1.0037200395e+000	-1.0652638153e+000
 8.2709456956e-001	 9.2386129325e-001	-5.4734086649e-001
 8.1684862690e-001	 9.3293268019e-001	-6.0893564953e-001
 8.0650699593e-001	 9.4188718696e-001	-6.6731487953e-001
 7.9607168017e-001	 9.5072331738e-001	-7.2324235288e-001
 7.8554471394e-001	 9.5943962109e-001	-7.7745775358e-001
 7.7492816104e-001	 9.6803469427e-001	-8.3067415619e-001
 7.6422411337e-001	 9.7650718040e-001	-8.8357570858e-001
 7.5343468965e-001	 9.8485577098e-001	-9.3681551304e-001
 7.4256203401e-001	 9.9307920611e-001	-9.9101372311e-001
 7.3160831459e-001	 1.0011762751e+000	-1.0467558718e+000
 7.2057572216e-001	 1.0091458171e+000	-1.1045914451e+000
 8.3154152972e-001	 9.2882852978e-001	-6.0556786802e-001
 8.2124049868e-001	 9.3794868998e-001	-6.6577010649e-001
 8.1084326485e-001	 9.4695134159e-001	-7.2246611457e-001
 8.0035184253e-001	 9.5583498039e-001	-7.7647562531e-001
 7.8976827697e-001	 9.6459814821e-001	-8.2859309834e-001
 7.7909464306e-001	 9.7323943370e-001	-8.7958505336e-001
 7.6833304397e-001	 9.8175747304e-001	-9.3018759048e-001
 7.5748560979e-001	 9.9015095069e-001	-9.8110411687e-001
 7.4655449618e-001	 9.9841859997e-001	-1.0330032979e+000
 7.3554188295e-001	 1.0065592037e+000	-1.0865172491e+000
 7.2444997263e-001	 1.0145715948e+000	-1.1422399840e+000
 8.3598848987e-001	 9.3379576632e-001	-6.6158274292e-001
 8.2563237046e-001	 9.4296469978e-001	-7.2044983723e-001
 8.1517953377e-001	 9.5201549622e-001	-7.7552560488e-001
 8.0463200489e-001	 9.6094664340e-001	-8.2768337279e-001
 7.9399184000e-001	 9.6975667534e-001	-8.7777012690e-001
 7.8326112509e-001	 9.7844417313e-001	-9.2660367636e-001
 7.7244197457e-001	 9.8700776568e-001	-9.7497001147e-001
 7.6153652993e-001	 9.9544613039e-001	-1.0236208759e+000
 7.5054695835e-001	 1.0037579938e+000	-1.0732715721e+000
 7.3947545130e-001	 1.0119421323e+000	-1.1245990171e+000
 7.2832422311e-001	 1.0199973725e+000	-1.1782400637e+000
 8.4043545003e-001	 9.3876300286e-001	-7.1540692012e-001
 8.3002424224e-001	 9.4798070957e-001	-7.7299070291e-001
 8.1951580270e-001	 9.5707965086e-001	-8.2650494131e-001
 8.0891216725e-001	 9.6605830641e-001	-8.7687425320e-001
 7.9821540303e-001	 9.7491520247e-001	-9.2499593972e-001
 7.8742760711e-001	 9.8364891256e-001	-9.7173698014e-001
 7.7655090516e-001	 9.9225805831e-001	-1.0179312275e+000
 7.6558745006e-001	 1.0007413101e+000	-1.0643768261e+000
 7.5453942052e-001	 1.0090973877e+000	-1.1118338710e+000
 7.4340901966e-001	 1.0173250609e+000	-1.1610223277e+000
 7.3219847358e-001	 1.0254231501e+000	-1.2126202268e+000
 8.4488241019e-001	 9.4373023940e-001	-7.6705957006e-001
 8.3441611403e-001	 9.5299671937e-001	-8.2340644129e-001
 8.2385207162e-001	 9.6214380549e-001	-8.7541370170e-001
 8.1319232961e-001	 9.7116996942e-001	-9.2405499663e-001
 8.0243896606e-001	 9.8007372959e-001	-9.7027576902e-001
 7.9159408914e-001	 9.8885365199e-001	-1.0149900850e+000
 7.8065983576e-001	 9.9750835095e-001	-1.0590776667e+000
 7.6963837020e-001	 1.0060364898e+000	-1.1033811555e+000
 7.5853188269e-001	 1.0144367816e+000	-1.1487036249e+000
 7.4734258802e-001	 1.0227079895e+000	-1.1958063633e+000
 7.3607272405e-001	 1.0308489278e+000	-1.2454069432e+000
 6.9733021931e-001	 9.7659115111e-001	-8.4221879875e-001
 6.8657934596e-001	 9.8417911056e-001	-9.1165446796e-001
 6.7575644299e-001	 9.9164155477e-001	-9.7689073669e-001
 6.6486368655e-001	 9.9897750582e-001	-1.0375310169e+000
 6.5390326915e-001	 1.0061860356e+000	-1.0992686007e+000
 6.4287739830e-001	 1.0132662660e+000	-1.1643995130e+000
 6.3178829505e-001	 1.0202173693e+000	-1.2316295900e+000
 6.2063819263e-001	 1.0270385685e+000	-1.2996170570e+000
 6.0942933496e-001	 1.0337291371e+000	-1.3669816140e+000
 5.9816397530e-001	 1.0402883994e+000	-1.4323133736e+000
 5.8684437482e-001	 1.0467157306e+000	-1.4941815965e+000
 7.0120446979e-001	 9.8201692878e-001	-8.9047567274e-001
 6.9039386638e-001	 9.8964704566e-001	-9.5803016186e-001
 6.7951083316e-001	 9.9715094997e-001	-1.0216132376e+000
 6.6855755838e-001	 1.0045276583e+000	-1.0806294614e+000
 6.5753624673e-001	 1.0117762375e+000	-1.1379148310e+000
 6.4644911797e-001	 1.0188958045e+000	-1.1988533082e+000
 6.3529840552e-001	 1.0258855270e+000	-1.2622279593e+000
 6.2408635498e-001	 1.0327446236e+000	-1.3266277192e+000
 6.1281522277e-001	 1.0394723639e+000	-1.3906030846e+000
 6.0148727465e-001	 1.0460680683e+000	-1.4526754182e+000
 5.9010478436e-001	 1.0525311088e+000	-1.5113460395e+000
 7.0507872026e-001	 9.8744270645e-001	-9.3686836495e-001
 6.9420838679e-001	 9.9511498077e-001	-1.0025138604e+000
 6.8326522333e-001	 1.0026603452e+000	-1.0644164145e+000
 6.7225143021e-001	 1.0100778109e+000	-1.1219277343e+000
 6.6116922430e-001	 1.0173664394e+000	-1.1756483743e+000
 6.5002083765e-001	 1.0245253430e+000	-1.2322819767e+000
 6.3880851599e-001	 1.0315536847e+000	-1.2917145104e+000
 6.2753451734e-001	 1.0384506788e+000	-1.3524695722e+000
 6.1620111058e-001	 1.0452155907e+000	-1.4130322561e+000
 6.0481057400e-001	 1.0518477373e+000	-1.4718588264e+000
 5.9336519390e-001	 1.0583464869e+000	-1.5273861660e+000
 7.0895297074e-001	 9.9286848412e-001	-9.8143820675e-001
 6.9802290721e-001	 1.0005829159e+000	-1.0451552969e+000
 6.8701961350e-001	 1.0081697404e+000	-1.1053572971e+000
 6.7594530204e-001	 1.0156279634e+000	-1.1613480904e+000
 6.6480220188e-001	 1.0229566413e+000	-1.2125640608e+000
 6.5359255733e-001	 1.0301548815e+000	-1.2647830617e+000
 6.4231862646e-001	 1.0372218423e+000	-1.3201879995e+000
 6.3098267970e-001	 1.0441567339e+000	-1.3772409708e+000
 6.1958699839e-001	 1.0509588175e+000	-1.4343653560e+000
 6.0813387335e-001	 1.0576274063e+000	-1.4899558642e+000
 5.9662560343e-001	 1.0641618651e+000	-1.5423883405e+000
 7.1282722121e-001	 9.9829426179e-001	-1.0242243564e+000
 7.0183742762e-001	 1.0060508510e+000	-1.0860019151e+000
 6.9077400367e-001	 1.0136791356e+000	-1.1444905387e+000
 6.7963917386e-001	 1.0211781159e+000	-1.1989512302e+000
 6.6843517946e-001	 1.0285468432e+000	-1.2486264888e+000
 6.5716427700e-001	 1.0357844200e+000	-1.2964510624e+000
 6.4582873692e-001	 1.0428900000e+000	-1.3477443666e+000
 6.3443084205e-001	 1.0498627890e+000	-1.4010377169e+000
 6.2297288620e-001	 1.0567020443e+000	-1.4546963591e+000
 6.1145717270e-001	 1.0634070752e+000	-1.5070568822e+000
 5.9988601297e-001	 1.0699772432e+000	-1.5564373880e+000
 7.1670147168e-001	 1.0037200395e+000	-1.0652638153e+000
 7.0565194803e-001	 1.0115187861e+000	-1.1250988886e+000
 6.9452839384e-001	 1.0191885308e+000	-1.1818684365e+000
 6.8333304569e-001	 1.0267282684e+000	-1.2347954425e+000
 6.7206815703e-001	 1.0341370451e+000	-1.2830830542e+000
 6.6073599668e-001	 1.0414139584e+000	-1.3273773398e+000
 6.4933884739e-001	 1.0485581577e+000	-1.3744766439e+000
 6.3787900441e-001	 1.0555688441e+000	-1.4239529702e+000
 6.2635877401e-001	 1.0624452711e+000	-1.4741168987e+000
 6.1478047205e-001	 1.0691867442e+000	-1.5232502267e+000
 6.0314642251e-001	 1.0757926214e+000	-1.5696165034e+000
 7.2057572216e-001	 1.0091458171e+000	-1.1045914451e+000
 7.0946646845e-001	 1.0169867212e+000	-1.1624891386e+000
 6.9828278401e-001	 1.0246979260e+000	-1.2175409510e+000
 6.8702691752e-001	 1.0322784210e+000	-1.2689366248e+000
 6.7570113461e-001	 1.0397272470e+000	-1.3158445643e+000
 6.6430771635e-001	 1.0470434969e+000	-1.3576500220e+000
 6.5284895786e-001	 1.0542263153e+000	-1.4004748643e+000
 6.4132716676e-001	 1.0612748992e+000	-1.4460771582e+000
 6.2974466182e-001	 1.0681884979e+000	-1.4927161778e+000
 6.1810377140e-001	 1.0749664132e+000	-1.5386221508e+000
 6.0640683204e-001	 1.0816079995e+000	-1.5820071613e+000
 7.2444997263e-001	 1.0145715948e+000	-1.1422399840e+000
 7.1328098886e-001	 1.0224546563e+000	-1.1982133531e+000
 7.0203717417e-001	 1.0302073212e+000	-1.2515557268e+000
 6.9072078935e-001	 1.0378285735e+000	-1.3014283041e+000
 6.7933411219e-001	 1.0453174490e+000	-1.3469692750e+000
 6.6787943603e-001	 1.0526730354e+000	-1.3872956362e+000
 6.5635906832e-001	 1.0598944730e+000	-1.4258259698e+000
 6.4477532912e-001	 1.0669809543e+000	-1.4674978866e+000
 6.3313054963e-001	 1.0739317246e+000	-1.5105808802e+000
 6.2142707075e-001	 1.0807460821e+000	-1.5532567256e+000
 6.0966724158e-001	 1.0874233777e+000	-1.5936890266e+000
 7.2832422311e-001	 1.0199973725e+000	-1.1782400637e+000
 7.1709550927e-001	 1.0279225914e+000	-1.2323100055e+000
 7.0579156434e-001	 1.0357167164e+000	-1.2839581115e+000
 6.9441466118e-001	 1.0433787260e+000	-1.3323216569e+000
 6.8296708976e-001	 1.0509076509e+000	-1.3765130683e+000
 6.7145115571e-001	 1.0583025739e+000	-1.4156217909e+000
 6.5986917879e-001	 1.0655626307e+000	-1.4506137193e+000
 6.4822349148e-001	 1.0726870094e+000	-1.4882998492e+000
 6.3651643744e-001	 1.0796749514e+000	-1.5277950819e+000
 6.2475037010e-001	 1.0865257511e+000	-1.5672357513e+000
 6.1292765112e-001	 1.0932387558e+000	-1.6047398645e+000
 7.3219847358e-001	 1.0254231501e+000	-1.2126202268e+000
 7.2091002969e-001	 1.0333905265e+000	-1.2648153735e+000
 7.0954595451e-001	 1.0412261116e+000	-1.3147911765e+000
 6.9810853301e-001	 1.0489288785e+000	-1.3616655302e+000
 6.8660006734e-001	 1.0564978528e+000	-1.4045294720e+000
 6.7502287538e-001	 1.0639321124e+000	-1.4424490938e+000
 6.6337928926e-001	 1.0712307883e+000	-1.4749185967e+000
 6.5167165383e-001	 1.0783930645e+000	-1.5085647379e+000
 6.3990232526e-001	 1.0854181782e+000	-1.5444401617e+000
 6.2807366945e-001	 1.0923054200e+000	-1.5806386688e+000
 6.1618806065e-001	 1.0990541339e+000	-1.6152354511e+000
 7.3607272405e-001	 1.0308489278e+000	-1.2454069432e+000
 7.2472455010e-001	 1.0388584616e+000	-1.2957635573e+000
 7.1330034468e-001	 1.0467355068e+000	-1.3440957360e+000
 7.0180240484e-001	 1.0544790311e+000	-1.3895064610e+000
 6.9023304492e-001	 1.0620880547e+000	-1.4310696799e+000
 6.7859459506e-001	 1.0695616509e+000	-1.4678322554e+000
 6.6688939972e-001	 1.0768989460e+000	-1.4988161972e+000
 6.5511981619e-001	 1.0840991196e+000	-1.5283711527e+000
 6.4328821307e-001	 1.0911614050e+000	-1.5605947129e+000
 6.3139696880e-001	 1.0980850890e+000	-1.5935424710e+000
 6.1944847019e-001	 1.1048695121e+000	-1.6252494850e+000
 5.8684437482e-001	 1.0467157306e+000	-1.4941815965e+000
 5.7547451073e-001	 1.0530096230e+000	-1.5547691064e+000
 5.6405496143e-001	 1.0591705282e+000	-1.6168795158e+000
 5.5258800299e-001	 1.0651979753e+000	-1.6799696460e+000
 5.4107591374e-001	 1.0710915437e+000	-1.7434922702e+000
 5.2952097297e-001	 1.0768508634e+000	-1.8069011861e+000
 5.1792545951e-001	 1.0824756146e+000	-1.8696559028e+000
 5.0629165043e-001	 1.0879655276e+000	-1.9312259191e+000
 4.9462181967e-001	 1.0933203824e+000	-1.9910945744e+000
 4.8291823679e-001	 1.0985400084e+000	-2.0487624560e+000
 4.7118316562e-001	 1.1036242841e+000	-2.1037503538e+000
 5.9010478436e-001	 1.0525311088e+000	-1.5113460395e+000
 5.7867175119e-001	 1.0588599689e+000	-1.5687278356e+000
 5.6718875679e-001	 1.0650551032e+000	-1.6275932551e+000
 5.5565808983e-001	 1.0711160377e+000	-1.6873915752e+000
 5.4408204134e-001	 1.0770423498e+000	-1.7475681652e+000
 5.3246290324e-001	 1.0828336673e+000	-1.8075697359e+000
 5.2080296704e-001	 1.0884896687e+000	-1.8668491875e+000
 5.0910452245e-001	 1.0940100827e+000	-1.9248700330e+000
 4.9736985607e-001	 1.0993946882e+000	-1.9811103762e+000
 4.8560125003e-001	 1.1046433136e+000	-2.0350664300e+000
 4.7380098076e-001	 1.1097558367e+000	-2.0862555626e+000
 5.9336519390e-001	 1.0583464869e+000	-1.5273861660e+000
 5.8186899166e-001	 1.0647103149e+000	-1.5816517343e+000
 5.7032255214e-001	 1.0709396781e+000	-1.6373851733e+000
 5.5872817668e-001	 1.0770341001e+000	-1.6940224682e+000
 5.4708816894e-001	 1.0829931559e+000	-1.7509960051e+000
 5.3540483352e-001	 1.0888164712e+000	-1.8077400097e+000
 5.2368047458e-001	 1.0945037228e+000	-1.8636955686e+000
 5.1191739448e-001	 1.1000546378e+000	-1.9183152079e+000
 5.0011789246e-001	 1.1054689940e+000	-1.9710670092e+000
 4.8828426327e-001	 1.1107466188e+000	-2.0214382469e+000
 4.7641879589e-001	 1.1158873893e+000	-2.0689385348e+000
 5.9662560343e-001	 1.0641618651e+000	-1.5423883405e+000
 5.8506623213e-001	 1.0705606608e+000	-1.5936206222e+000
 5.7345634750e-001	 1.0768242530e+000	-1.6463292959e+000
 5.6179826352e-001	 1.0829521626e+000	-1.6999313553e+000
 5.5009429653e-001	 1.0889439620e+000	-1.7538406727e+000
 5.3834676379e-001	 1.0947992751e+000	-1.8074736399e+000
 5.2655798211e-001	 1.1005177769e+000	-1.8602543745e+000
 5.1473026651e-001	 1.1060991930e+000	-1.9116194655e+000
 5.0286592885e-001	 1.1115432998e+000	-1.9610222365e+000
 4.9096727650e-001	 1.1168499240e+000	-2.0079365112e+000
 4.7903661103e-001	 1.1220189419e+000	-2.0518598686e+000
 5.9988601297e-001	 1.0699772432e+000	-1.5564373880e+000
 5.8826347259e-001	 1.0764110068e+000	-1.6047131631e+000
 5.7659014285e-001	 1.0827088279e+000	-1.6544988536e+000
 5.6486835037e-001	 1.0888702250e+000	-1.7051868078e+000
 5.5310042413e-001	 1.0948947681e+000	-1.7561668998e+000
 5.4128869406e-001	 1.1007820790e+000	-1.8068323857e+000
 5.2943548964e-001	 1.1065318310e+000	-1.8565853069e+000
 5.1754313854e-001	 1.1121437481e+000	-1.9048414129e+000
 5.0561396524e-001	 1.1176176057e+000	-1.9510345824e+000
 4.9365028974e-001	 1.1229532292e+000	-1.9946207262e+000
 4.8165442617e-001	 1.1281504945e+000	-2.0350811593e+000
 6.0314642251e-001	 1.0757926214e+000	-1.5696165034e+000
 5.9146071306e-001	 1.0822613528e+000	-1.6150067735e+000
 5.7972393820e-001	 1.0885934029e+000	-1.6619661895e+000
 5.6793843721e-001	 1.0947882874e+000	-1.7098568443e+000
 5.5610655173e-001	 1.1008455742e+000	-1.7580391735e+000
 5.4423062433e-001	 1.1067648830e+000	-1.8058780407e+000
 5.3231299717e-001	 1.1125458851e+000	-1.8527483489e+000
 5.2035601056e-001	 1.1181883033e+000	-1.8980401522e+000
 5.0836200164e-001	 1.1236919115e+000	-1.9411632450e+000
 4.9633330298e-001	 1.1290565344e+000	-1.9815512112e+000
 4.8427224131e-001	 1.1342820471e+000	-2.0186649205e+000
 6.0640683204e-001	 1.0816079995e+000	-1.5820071613e+000
 5.9465795353e-001	 1.0881116987e+000	-1.6245775307e+000
 5.8285773356e-001	 1.0944779778e+000	-1.6688026667e+000
 5.7100852406e-001	 1.1007063498e+000	-1.7140088378e+000
 5.5911267932e-001	 1.1067963803e+000	-1.7595216435e+000
 5.4717255460e-001	 1.1127476869e+000	-1.8046723402e+000
 5.3519050470e-001	 1.1185599392e+000	-1.8488036741e+000
 5.2316888259e-001	 1.1242328584e+000	-1.8912751924e+000
 5.1111003803e-001	 1.1297662173e+000	-1.9314680109e+000
 4.9901631622e-001	 1.1351598396e+000	-1.9687890183e+000
 4.8689005644e-001	 1.1404135996e+000	-2.0026745056e+000
 6.0966724158e-001	 1.0874233777e+000	-1.5936890266e+000
 5.9785519400e-001	 1.0939620447e+000	-1.6335000817e+000
 5.8599152891e-001	 1.1003625527e+000	-1.6750785759e+000
 5.7407861090e-001	 1.1066244122e+000	-1.7177094237e+000
 5.6211880692e-001	 1.1127471864e+000	-1.7606780300e+000
 5.5011448487e-001	 1.1187304908e+000	-1.8032768704e+000
 5.3806801223e-001	 1.1245739933e+000	-1.8448115573e+000
 5.2598175462e-001	 1.1302774136e+000	-1.8846063618e+000
 5.1385807442e-001	 1.1358405231e+000	-1.9220091699e+000
 5.0169932945e-001	 1.1412631448e+000	-1.9563958515e+000
 4.8950787158e-001	 1.1465451522e+000	-1.9871740310e+000
 6.1292765112e-001	 1.0932387558e+000	-1.6047398645e+000
 6.0105243446e-001	 1.0998123907e+000	-1.6418475526e+000
 5.8912532427e-001	 1.1062471276e+000	-1.6808630446e+000
 5.7714869775e-001	 1.1125424746e+000	-1.7210244079e+000
 5.6512493451e-001	 1.1186979925e+000	-1.7615715326e+000
 5.5305641514e-001	 1.1247132947e+000	-1.8017529782e+000
 5.4094551976e-001	 1.1305880474e+000	-1.8408322854e+000
 5.2879462665e-001	 1.1363219687e+000	-1.8780937209e+000
 5.1660611082e-001	 1.1419148290e+000	-1.9128474311e+000
 5.0438234269e-001	 1.1473664500e+000	-1.9444339861e+000
 4.9212568672e-001	 1.1526767048e+000	-1.9722282992e+000
 6.1618806065e-001	 1.0990541339e+000	-1.6152354511e+000
 6.0424967493e-001	 1.1056627366e+000	-1.6496914582e+000
 5.9225911962e-001	 1.1121317026e+000	-1.6862239455e+000
 5.8021878459e-001	 1.1184605371e+000	-1.7240186760e+000
 5.6813106211e-001	 1.1246487986e+000	-1.7622647395e+000
 5.5599834541e-001	 1.1306960986e+000	-1.8001616810e+000
 5.4382302729e-001	 1.1366021015e+000	-1.8369260695e+000
 5.3160749867e-001	 1.1423665238e+000	-1.8717974767e+000
 5.1935414721e-001	 1.1479891348e+000	-1.9040438399e+000
 5.0706535593e-001	 1.1534697552e+000	-1.9329661891e+000
 4.9474350186e-001	 1.1588082574e+000	-1.9579027243e+000
 6.1944847019e-001	 1.1048695121e+000	-1.6252494850e+000
 6.0744691540e-001	 1.1115130826e+000	-1.6571016119e+000
 5.9539291498e-001	 1.1180162775e+000	-1.6912278068e+000
 5.8328887144e-001	 1.1243785995e+000	-1.7267561027e+000
 5.7113718971e-001	 1.1305996047e+000	-1.7628195380e+000
 5.5894027569e-001	 1.1366789026e+000	-1.7985635788e+000
 5.4670053483e-001	 1.1426161556e+000	-1.8331529576e+000
 5.3442037070e-001	 1.1484110790e+000	-1.8657778981e+000
 5.2210218360e-001	 1.1540634406e+000	-1.8956596961e+000
 5.0974836916e-001	 1.1595730604e+000	-1.9220556407e+000
 4.9736131699e-001	 1.1649398100e+000	-1.9442632565e+000
 4.7118316562e-001	 1.1036242841e+000	-2.1037503538e+000
 4.5941709620e-001	 1.1085738690e+000	-2.1580297374e+000
 4.4762403676e-001	 1.1133879660e+000	-2.2134467396e+000
 4.3580622802e-001	 1.1180665990e+000	-2.2694071272e+000
 4.2396589999e-001	 1.1226098389e+000	-2.3253602649e+000
 4.1210527081e-001	 1.1270178035e+000	-2.3807995292e+000
 4.0022654558e-001	 1.1312906563e+000	-2.4352622620e+000
 3.8833191525e-001	 1.1354286065e+000	-2.4883292766e+000
 3.7642355549e-001	 1.1394319079e+000	-2.5396239383e+000
 3.6450362567e-001	 1.1433008586e+000	-2.5888108374e+000
 3.5257426777e-001	 1.1470357998e+000	-2.6355940822e+000
 4.7380098076e-001	 1.1097558367e+000	-2.0862555626e+000
 4.6196954101e-001	 1.1147329206e+000	-2.1367562570e+000
 4.5011096130e-001	 1.1195737639e+000	-2.1885147227e+000
 4.3822749479e-001	 1.1242783906e+000	-2.2409239509e+000
 4.2632138387e-001	 1.1288468721e+000	-2.2934232321e+000
 4.1439485901e-001	 1.1332793265e+000	-2.3454985683e+000
 4.0245013757e-001	 1.1375759186e+000	-2.3966826020e+000
 3.9048942265e-001	 1.1417368586e+000	-2.4465540815e+000
 3.7851490203e-001	 1.1457624017e+000	-2.4947368796e+000
 3.6652874706e-001	 1.1496528476e+000	-2.5408985908e+000
 3.5453311163e-001	 1.1534085395e+000	-2.5847487287e+000
 4.7641879589e-001	 1.1158873893e+000	-2.0689385348e+000
 4.6452198583e-001	 1.1208919723e+000	-2.1157583473e+000
 4.5259788585e-001	 1.1257595619e+000	-2.1639527810e+000
 4.4064876156e-001	 1.1304901823e+000	-2.2129036733e+000
 4.2867686775e-001	 1.1350839052e+000	-2.2620418425e+000
 4.1668444721e-001	 1.1395408496e+000	-2.3108474948e+000
 4.0467372955e-001	 1.1438611810e+000	-2.3588501295e+000
 3.9264693005e-001	 1.1480451107e+000	-2.4056279593e+000
 3.8060624857e-001	 1.1520928955e+000	-2.4508068675e+000
 3.6855386846e-001	 1.1560048366e+000	-2.4940589239e+000
 3.5649195550e-001	 1.1597812792e+000	-2.5351004856e+000
 4.7903661103e-001	 1.1220189419e+000	-2.0518598686e+000
 4.6707443065e-001	 1.1270510239e+000	-2.0950984333e+000
 4.5508481039e-001	 1.1319453599e+000	-2.1398236229e+000
 4.4307002833e-001	 1.1367019740e+000	-2.1854077156e+000
 4.3103235163e-001	 1.1413209384e+000	-2.2312746349e+000
 4.1897403541e-001	 1.1458023727e+000	-2.2769003508e+000
 4.0689732153e-001	 1.1501464433e+000	-2.3218127582e+000
 3.9480443744e-001	 1.1543533628e+000	-2.3655910524e+000
 3.8269759510e-001	 1.1584233893e+000	-2.4078646204e+000
 3.7057898985e-001	 1.1623568256e+000	-2.4483114742e+000
 3.5845079937e-001	 1.1661540190e+000	-2.4866562518e+000
 4.8165442617e-001	 1.1281504945e+000	-2.0350811593e+000
 4.6962687546e-001	 1.1332100756e+000	-2.0748400236e+000
 4.5757173494e-001	 1.1381311579e+000	-2.1161911450e+000
 4.4549129509e-001	 1.1429137657e+000	-2.1584988094e+000
 4.3338783551e-001	 1.1475579716e+000	-2.2011815995e+000
 4.2126362361e-001	 1.1520638958e+000	-2.2437127881e+000
 4.0912091351e-001	 1.1564317056e+000	-2.2856201899e+000
 3.9696194484e-001	 1.1606616149e+000	-2.3264854879e+000
 3.8478894164e-001	 1.1647538830e+000	-2.3659430581e+000
 3.7260411125e-001	 1.1687088147e+000	-2.4036783172e+000
 3.6040964324e-001	 1.1725267587e+000	-2.4394256202e+000
 4.8427224131e-001	 1.1342820471e+000	-2.0186649205e+000
 4.7217932028e-001	 1.1393691272e+000	-2.0550476360e+000
 4.6005865948e-001	 1.1443169558e+000	-2.0931203607e+000
 4.4791256186e-001	 1.1491255574e+000	-2.1322409283e+000
 4.3574331939e-001	 1.1537950047e+000	-2.1718241106e+000
 4.2355321181e-001	 1.1583254189e+000	-2.2113420036e+000
 4.1134450550e-001	 1.1627169680e+000	-2.2503238492e+000
 3.9911945224e-001	 1.1669698670e+000	-2.2883553120e+000
 3.8688028818e-001	 1.1710843768e+000	-2.3250772345e+000
 3.7462923264e-001	 1.1750608037e+000	-2.3601838961e+000
 3.6236848711e-001	 1.1788994984e+000	-2.3934208045e+000
 4.8689005644e-001	 1.1404135996e+000	-2.0026745056e+000
 4.7473176510e-001	 1.1455281789e+000	-2.0357867231e+000
 4.6254558403e-001	 1.1505027538e+000	-2.0706773301e+000
 4.5033382863e-001	 1.1553373490e+000	-2.1066992202e+000
 4.3809880327e-001	 1.1600320379e+000	-2.1432648617e+000
 4.2584280002e-001	 1.1645869419e+000	-2.1798466742e+000
 4.1356809748e-001	 1.1690022303e+000	-2.2159768193e+000
 4.0127695964e-001	 1.1732781191e+000	-2.2512464256e+000
 3.8897163471e-001	 1.1774148706e+000	-2.2853042718e+000
 3.7665435403e-001	 1.1814127927e+000	-2.3178549539e+000
 3.6432733098e-001	 1.1852722382e+000	-2.3486565680e+000
 4.8950787158e-001	 1.1465451522e+000	-1.9871740310e+000
 4.7728420991e-001	 1.1516872305e+000	-2.0171236001e+000
 4.6503250857e-001	 1.1566885518e+000	-2.0489290903e+000
 4.5275509540e-001	 1.1615491407e+000	-2.0819399408e+000
 4.4045428715e-001	 1.1662690711e+000	-2.1155678003e+000
 4.2813238822e-001	 1.1708484650e+000	-2.1492868935e+000
 4.1579168946e-001	 1.1752874927e+000	-2.1826337790e+000
 4.0343446704e-001	 1.1795863712e+000	-2.2152065205e+000
 3.9106298125e-001	 1.1837453644e+000	-2.2466632952e+000
 3.7867947543e-001	 1.1877647817e+000	-2.2767204663e+000
 3.6628617485e-001	 1.1916449779e+000	-2.3051501540e+000
 4.9212568672e-001	 1.1526767048e+000	-1.9722282992e+000
 4.7983665473e-001	 1.1578462822e+000	-1.9991253720e+000
 4.6751943311e-001	 1.1628743498e+000	-2.0279435870e+000
 4.5517636217e-001	 1.1677609324e+000	-2.0580303876e+000
 4.4280977103e-001	 1.1725061042e+000	-2.0887980642e+000
 4.3042197642e-001	 1.1771099881e+000	-2.1197241091e+000
 4.1801528145e-001	 1.1815727550e+000	-2.1503509405e+000
 4.0559197444e-001	 1.1858946233e+000	-2.1802850173e+000
 3.9315432779e-001	 1.1900758581e+000	-2.2091953698e+000
 3.8070459682e-001	 1.1941167707e+000	-2.2368115765e+000
 3.6824501872e-001	 1.1980177176e+000	-2.2629212172e+000
 4.9474350186e-001	 1.1588082574e+000	-1.9579027243e+000
 4.8238909955e-001	 1.1640053338e+000	-1.9818598630e+000
 4.7000635766e-001	 1.1690601477e+000	-2.0077896067e+000
 4.5759762894e-001	 1.1739727241e+000	-2.0350388350e+000
 4.4516525491e-001	 1.1787431374e+000	-2.0630219185e+000
 4.3271156462e-001	 1.1833715112e+000	-2.0912210611e+000
 4.2023887343e-001	 1.1878580173e+000	-2.1191859883e+000
 4.0774948184e-001	 1.1922028754e+000	-2.1465330032e+000
 3.9524567433e-001	 1.1964063519e+000	-2.1729434381e+000
 3.8272971821e-001	 1.2004687598e+000	-2.1981615306e+000
 3.7020386259e-001	 1.2043904573e+000	-2.2219917573e+000
 4.9736131699e-001	 1.1649398100e+000	-1.9442632565e+000
 4.8494154436e-001	 1.1701643855e+000	-1.9653955454e+000
 4.7249328220e-001	 1.1752459457e+000	-1.9885367095e+000
 4.6001889571e-001	 1.1801845157e+000	-2.0130344698e+000
 4.4752073879e-001	 1.1849801705e+000	-2.0383066933e+000
 4.3500115282e-001	 1.1896330343e+000	-2.0638417209e+000
 4.2246246541e-001	 1.1941432797e+000	-2.0891980184e+000
 4.0990698924e-001	 1.1985111275e+000	-2.1140031723e+000
 3.9733702086e-001	 1.2027368457e+000	-2.1379522583e+000
 3.8475483961e-001	 1.2068207488e+000	-2.1608056147e+000
 3.7216270646e-001	 1.2107631971e+000	-2.1823860530e+000
 3.5257426777e-001	 1.1470357998e+000	-2.6355940822e+000
 3.4063760520e-001	 1.1506371152e+000	-2.6809941076e+000
 3.2869574138e-001	 1.1541052293e+000	-2.7260148101e+000
 3.1675075928e-001	 1.1574406073e+000	-2.7703869565e+000
 3.0480472067e-001	 1.1606437548e+000	-2.8138696679e+000
 2.9285966530e-001	 1.1637152168e+000	-2.8562472849e+000
 2.8091760998e-001	 1.1666555769e+000	-2.8973260322e+000
 2.6898054781e-001	 1.1694654564e+000	-2.9369305169e+000
 2.5705044737e-001	 1.1721455137e+000	-2.9749000935e+000
 2.4512925199e-001	 1.1746964429e+000	-3.0110851298e+000
 2.3321887900e-001	 1.1771189732e+000	-3.0453432074e+000
 3.5453311163e-001	 1.1534085395e+000	-2.5847487287e+000
 3.4253013096e-001	 1.1570298633e+000	-2.6273046412e+000
 3.3052192014e-001	 1.1605172456e+000	-2.6695584852e+000
 3.1851057370e-001	 1.1638711545e+000	-2.7112358778e+000
 3.0649816490e-001	 1.1670920981e+000	-2.7520916250e+000
 2.9448674479e-001	 1.1701806246e+000	-2.7919064788e+000
 2.8247834141e-001	 1.1731373208e+000	-2.8304836854e+000
 2.7047495891e-001	 1.1759628116e+000	-2.8676453582e+000
 2.5847857682e-001	 1.1786577588e+000	-2.9032287125e+000
 2.4649114926e-001	 1.1812228605e+000	-2.9370821956e+000
 2.3451460422e-001	 1.1836588501e+000	-2.9690615481e+000
 3.5649195550e-001	 1.1597812792e+000	-2.5351004856e+000
 3.4442265673e-001	 1.1634226113e+000	-2.5749391156e+000
 3.3234809890e-001	 1.1669292619e+000	-2.6145474422e+000
 3.2027038813e-001	 1.1703017016e+000	-2.6536458093e+000
 3.0819160913e-001	 1.1735404414e+000	-2.6919847177e+000
 2.9611382428e-001	 1.1766460324e+000	-2.7293414680e+000
 2.8403907283e-001	 1.1796190648e+000	-2.7655165865e+000
 2.7196937000e-001	 1.1824601668e+000	-2.8003300684e+000
 2.5990670626e-001	 1.1851700039e+000	-2.8336174749e+000
 2.4785304653e-001	 1.1877492782e+000	-2.8652259217e+000
 2.3581032944e-001	 1.1901987269e+000	-2.8950099938e+000
 3.5845079937e-001	 1.1661540190e+000	-2.4866562518e+000
 3.4631518249e-001	 1.1698153593e+000	-2.5238911103e+000
 3.3417427765e-001	 1.1733412782e+000	-2.5609624555e+000
 3.2203020256e-001	 1.1767322487e+000	-2.5975852646e+000
 3.0988505336e-001	 1.1799887846e+000	-2.6335057728e+000
 2.9774090377e-001	 1.1831114402e+000	-2.6684979981e+000
 2.8559980425e-001	 1.1861008087e+000	-2.7023600387e+000
 2.7346378109e-001	 1.1889575219e+000	-2.7349101798e+000
 2.6133483571e-001	 1.1916822490e+000	-2.7659828479e+000
 2.4921494379e-001	 1.1942756958e+000	-2.7954244504e+000
 2.3710605467e-001	 1.1967386037e+000	-2.8230891373e+000
 3.6040964324e-001	 1.1725267587e+000	-2.4394256202e+000
 3.4820770825e-001	 1.1762081074e+000	-2.4741571520e+000
 3.3600045641e-001	 1.1797532945e+000	-2.5087874740e+000
 3.2379001698e-001	 1.1831627958e+000	-2.5430261322e+000
 3.1157849758e-001	 1.1864371279e+000	-2.5766151669e+000
 2.9936798326e-001	 1.1895768480e+000	-2.6093255136e+000
 2.8716053567e-001	 1.1925825527e+000	-2.6409531663e+000
 2.7495819219e-001	 1.1954548771e+000	-2.6713151425e+000
 2.6276296515e-001	 1.1981944942e+000	-2.7002452875e+000
 2.5057684106e-001	 1.2008021135e+000	-2.7275899585e+000
 2.3840177989e-001	 1.2032784806e+000	-2.7532036263e+000
 3.6236848711e-001	 1.1788994984e+000	-2.3934208045e+000
 3.5010023401e-001	 1.1826008554e+000	-2.4257366381e+000
 3.3782663517e-001	 1.1861653108e+000	-2.4580095413e+000
 3.2554983141e-001	 1.1895933429e+000	-2.4899435938e+000
 3.1327194181e-001	 1.1928854711e+000	-2.5212767419e+000
 3.0099506275e-001	 1.1960422558e+000	-2.5517770704e+000
 2.8872126709e-001	 1.1990642966e+000	-2.5812388263e+000
 2.7645260328e-001	 1.2019522323e+000	-2.6094782349e+000
 2.6419109459e-001	 1.2047067393e+000	-2.6363291481e+000
 2.5193873833e-001	 1.2073285311e+000	-2.6616385663e+000
 2.3969750511e-001	 1.2098183574e+000	-2.6852620729e+000
 3.6432733098e-001	 1.1852722382e+000	-2.3486565680e+000
 3.5199275977e-001	 1.1889936034e+000	-2.3786317620e+000
 3.3965281392e-001	 1.1925773271e+000	-2.4086187182e+000
 3.2730964584e-001	 1.1960238900e+000	-2.4383160437e+000
 3.1496538604e-001	 1.1993338144e+000	-2.4674577225e+000
 3.0262214224e-001	 1.2025076636e+000	-2.4958092522e+000
 2.9028199851e-001	 1.2055460405e+000	-2.5231635225e+000
 2.7794701438e-001	 1.2084495874e+000	-2.5493364760e+000
 2.6561922404e-001	 1.2112189844e+000	-2.5741625944e+000
 2.5330063560e-001	 1.2138549488e+000	-2.5974902497e+000
 2.4099323033e-001	 1.2163582342e+000	-2.6191769653e+000
 3.6628617485e-001	 1.1916449779e+000	-2.3051501540e+000
 3.5388528553e-001	 1.1953863515e+000	-2.3328474406e+000
 3.4147899268e-001	 1.1989893434e+000	-2.3606080071e+000
 3.2906946026e-001	 1.2024544371e+000	-2.3881250109e+000
 3.1665883026e-001	 1.2057821577e+000	-2.4151286357e+000
 3.0424922174e-001	 1.2089730714e+000	-2.4413820875e+000
 2.9184272993e-001	 1.2120277845e+000	-2.4666773216e+000
 2.7944142547e-001	 1.2149469426e+000	-2.4908305418e+000
 2.6704735348e-001	 1.2177312295e+000	-2.5136775165e+000
 2.5466253287e-001	 1.2203813665e+000	-2.5350687542e+000
 2.4228895555e-001	 1.2228981111e+000	-2.5548645821e+000
 3.6824501872e-001	 1.1980177176e+000	-2.2629212172e+000
 3.5577781129e-001	 1.2017790995e+000	-2.2883912427e+000
 3.4330517144e-001	 1.2054013597e+000	-2.3139732776e+000
 3.3082927469e-001	 1.2088849842e+000	-2.3393550822e+000
 3.1835227449e-001	 1.2122305009e+000	-2.3642632325e+000
 3.0587630123e-001	 1.2154384792e+000	-2.3884589704e+000
 2.9340346136e-001	 1.2185095284e+000	-2.4117337726e+000
 2.8093583656e-001	 1.2214442978e+000	-2.4339046819e+000
 2.6847548292e-001	 1.2242434746e+000	-2.4548094466e+000
 2.5602443014e-001	 1.2269077841e+000	-2.4743015120e+000
 2.4358468078e-001	 1.2294379879e+000	-2.4922449094e+000
 3.7020386259e-001	 1.2043904573e+000	-2.2219917573e+000
 3.5767033706e-001	 1.2081718476e+000	-2.2452733190e+000
 3.4513135019e-001	 1.2118133760e+000	-2.2687131946e+000
 3.3258908912e-001	 1.2153155313e+000	-2.2919938283e+000
 3.2004571872e-001	 1.2186788442e+000	-2.3148384117e+000
 3.0750338072e-001	 1.2219038869e+000	-2.3370065821e+000
 2.9496419278e-001	 1.2249912724e+000	-2.3582898269e+000
 2.8243024766e-001	 1.2279416529e+000	-2.3785066404e+000
 2.6990361237e-001	 1.2307557197e+000	-2.3974974789e+000
 2.5738632741e-001	 1.2334342018e+000	-2.4151195610e+000
 2.4488040600e-001	 1.2359778647e+000	-2.4312415599e+000
 3.7216270646e-001	 1.2107631971e+000	-2.1823860530e+000
 3.5956286282e-001	 1.2145645956e+000	-2.2035063347e+000
 3.4695752895e-001	 1.2182253923e+000	-2.2248291479e+000
 3.3434890354e-001	 1.2217460784e+000	-2.2460317310e+000
 3.2173916295e-001	 1.2251271875e+000	-2.2668341454e+000
 3.0913046021e-001	 1.2283692947e+000	-2.2869948153e+000
 2.9652492420e-001	 1.2314730163e+000	-2.3063057617e+000
 2.8392465875e-001	 1.2344390081e+000	-2.3245875774e+000
 2.7133174181e-001	 1.2372679649e+000	-2.3416841904e+000
 2.5874822468e-001	 1.2399606194e+000	-2.3574574663e+000
 2.4617613122e-001	 1.2425177416e+000	-2.3717816947e+000
 2.3321887900e-001	 1.1771189732e+000	-3.0453432074e+000
 2.2132300216e-001	 1.1794135337e+000	-3.0778940421e+000
 2.0944169444e-001	 1.1815812942e+000	-3.1090365030e+000
 1.9757678784e-001	 1.1836230841e+000	-3.1387324971e+000
 1.8573008594e-001	 1.1855397642e+000	-3.1669374275e+000
 1.7390336337e-001	 1.1873322253e+000	-3.1935964007e+000
 1.6209836528e-001	 1.1890013878e+000	-3.2186405529e+000
 1.5031680692e-001	 1.1905482000e+000	-3.2419835218e+000
 1.3856037313e-001	 1.1919736380e+000	-3.2635180865e+000
 1.2683071795e-001	 1.1932787039e+000	-3.2831130011e+000
 1.1512946431e-001	 1.1944644255e+000	-3.3006100387e+000
 2.3451460422e-001	 1.1836588501e+000	-2.9690615481e+000
 2.2255263588e-001	 1.1859661587e+000	-2.9994086578e+000
 2.1060531759e-001	 1.1881459629e+000	-3.0284476995e+000
 1.9867449155e-001	 1.1901990967e+000	-3.0561444073e+000
 1.8676197134e-001	 1.1921264255e+000	-3.0824578534e+000
 1.7486954147e-001	 1.1939288453e+000	-3.1073364962e+000
 1.6299895679e-001	 1.1956072813e+000	-3.1307143501e+000
 1.5115194205e-001	 1.1971626874e+000	-3.1525073041e+000
 1.3933019147e-001	 1.1985960448e+000	-3.1726096153e+000
 1.2753536828e-001	 1.1999083615e+000	-3.1908905999e+000
 1.1576910442e-001	 1.2011006708e+000	-3.2071915432e+000
 2.3581032944e-001	 1.1901987269e+000	-2.8950099938e+000
 2.2378226959e-001	 1.1925187837e+000	-2.9232371148e+000
 2.1176894074e-001	 1.1947106316e+000	-2.9502589988e+000
 1.9977219525e-001	 1.1967751093e+000	-2.9760442812e+000
 1.8779385674e-001	 1.1987130869e+000	-3.0005548459e+000
 1.7583571957e-001	 1.2005254653e+000	-3.0237417092e+000
 1.6389954829e-001	 1.2022131748e+000	-3.0455410285e+000
 1.5198707717e-001	 1.2037771748e+000	-3.0658702640e+000
 1.4010000980e-001	 1.2052184517e+000	-3.0846245205e+000
 1.2824001861e-001	 1.2065380191e+000	-3.1016730917e+000
 1.1640874454e-001	 1.2077369161e+000	-3.1168562316e+000
 2.3710605467e-001	 1.1967386037e+000	-2.8230891373e+000
 2.2501190330e-001	 1.1990714087e+000	-2.8492730625e+000
 2.1293256389e-001	 1.2012753004e+000	-2.8743575626e+000
 2.0086989895e-001	 1.2033511219e+000	-2.8983133157e+000
 1.8882574215e-001	 1.2052997482e+000	-2.9211042265e+000
 1.7680189767e-001	 1.2071220852e+000	-2.9426831414e+000
 1.6480013979e-001	 1.2088190684e+000	-2.9629876915e+000
 1.5282221230e-001	 1.2103916621e+000	-2.9819362931e+000
 1.4086982814e-001	 1.2118408586e+000	-2.9994243322e+000
 1.2894466894e-001	 1.2131676768e+000	-3.0153205589e+000
 1.1704838465e-001	 1.2143731614e+000	-3.0294637146e+000
 2.3840177989e-001	 1.2032784806e+000	-2.7532036263e+000
 2.2624153701e-001	 1.2056240338e+000	-2.7774142058e+000
 2.1409618703e-001	 1.2078399691e+000	-2.8006345929e+000
 2.0196760266e-001	 1.2099271345e+000	-2.8228367167e+000
 1.8985762755e-001	 1.2118864096e+000	-2.8439857780e+000
 1.7776807578e-001	 1.2137187052e+000	-2.8640357915e+000
 1.6570073129e-001	 1.2154249619e+000	-2.8829252587e+000
 1.5365734743e-001	 1.2170061495e+000	-2.9005730013e+000
 1.4163964648e-001	 1.2184632655e+000	-2.9168741849e+000
 1.2964931927e-001	 1.2197973344e+000	-2.9316965577e+000
 1.1768802476e-001	 1.2210094066e+000	-2.9448769290e+000
 2.3969750511e-001	 1.2098183574e+000	-2.6852620729e+000
 2.2747117073e-001	 1.2121766588e+000	-2.7075622144e+000
 2.1525981018e-001	 1.2144046379e+000	-2.7289852417e+000
 2.0306530636e-001	 1.2165031471e+000	-2.7495036091e+000
 1.9088951295e-001	 1.2184730709e+000	-2.7690831555e+000
 1.7873425388e-001	 1.2203153251e+000	-2.7876784680e+000
 1.6660132279e-001	 1.2220308555e+000	-2.8052283802e+000
 1.5449248255e-001	 1.2236206369e+000	-2.8216516338e+000
 1.4240946482e-001	 1.2250856723e+000	-2.8368427362e+000
 1.3035396960e-001	 1.2264269920e+000	-2.8506680383e+000
 1.1832766488e-001	 1.2276456519e+000	-2.8629620603e+000
 2.4099323033e-001	 1.2163582342e+000	-2.6191769653e+000
 2.2870080444e-001	 1.2187292838e+000	-2.6396226351e+000
 2.1642343333e-001	 1.2209693066e+000	-2.6593085237e+000
 2.0416301006e-001	 1.2230791596e+000	-2.6782069509e+000
 1.9192139835e-001	 1.2250597323e+000	-2.6962838012e+000
 1.7970043198e-001	 1.2269119451e+000	-2.7134937044e+000
 1.6750191429e-001	 1.2286367490e+000	-2.7297753533e+000
 1.5532761768e-001	 1.2302351243e+000	-2.7450469890e+000
 1.4317928316e-001	 1.2317080792e+000	-2.7592020866e+000
 1.3105861993e-001	 1.2330566496e+000	-2.7721052680e+000
 1.1896730499e-001	 1.2342818972e+000	-2.7835884685e+000
 2.4228895555e-001	 1.2228981111e+000	-2.5548645821e+000
 2.2993043815e-001	 1.2252819089e+000	-2.5735048067e+000
 2.1758705647e-001	 1.2275339754e+000	-2.5915072316e+000
 2.0526071377e-001	 1.2296551722e+000	-2.6088434485e+000
 1.9295328375e-001	 1.2316463936e+000	-2.6254788609e+000
 1.8066661008e-001	 1.2335085650e+000	-2.6413676773e+000
 1.6840250579e-001	 1.2352426426e+000	-2.6564480420e+000
 1.5616275280e-001	 1.2368496116e+000	-2.6706373396e+000
 1.4394910150e-001	 1.2383304861e+000	-2.6838277032e+000
 1.3176327026e-001	 1.2396863072e+000	-2.6958817563e+000
 1.1960694511e-001	 1.2409181425e+000	-2.7066286164e+000
 2.4358468078e-001	 1.2294379879e+000	-2.4922449094e+000
 2.3116007186e-001	 1.2318345339e+000	-2.5091217772e+000
 2.1875067962e-001	 1.2340986441e+000	-2.5254878540e+000
 2.0635841747e-001	 1.2362311848e+000	-2.5413134753e+000
 1.9398516915e-001	 1.2382330549e+000	-2.5565631036e+000
 1.8163278818e-001	 1.2401051850e+000	-2.5711901269e+000
 1.6930309729e-001	 1.2418485361e+000	-2.5851317990e+000
 1.5699788793e-001	 1.2434640990e+000	-2.5983043566e+000
 1.4471891983e-001	 1.2449528930e+000	-2.6105983447e+000
 1.3246792059e-001	 1.2463159648e+000	-2.6218741829e+000
 1.2024658522e-001	 1.2475543877e+000	-2.6319579993e+000
 2.4488040600e-001	 1.2359778647e+000	-2.4312415599e+000
 2.3238970558e-001	 1.2383871589e+000	-2.4463902232e+000
 2.1991430277e-001	 1.2406633128e+000	-2.4611604950e+000
 2.0745612117e-001	 1.2428071974e+000	-2.4755209930e+000
 1.9501705456e-001	 1.2448197163e+000	-2.4894348431e+000
 1.8259896629e-001	 1.2467018050e+000	-2.5028542799e+000
 1.7020368879e-001	 1.2484544297e+000	-2.5157153898e+000
 1.5783302305e-001	 1.2500785864e+000	-2.5279330346e+000
 1.4548873817e-001	 1.2515752998e+000	-2.5393959896e+000
 1.3317257092e-001	 1.2529456224e+000	-2.5499623274e+000
 1.2088622533e-001	 1.2541906330e+000	-2.5594550777e+000
 2.4617613122e-001	 1.2425177416e+000	-2.3717816947e+000
 2.3361933929e-001	 1.2449397839e+000	-2.3852303720e+000
 2.2107792592e-001	 1.2472279816e+000	-2.3984387976e+000
 2.0855382488e-001	 1.2493832100e+000	-2.4113734742e+000
 1.9604893996e-001	 1.2514063776e+000	-2.4239958621e+000
 1.8356514439e-001	 1.2532984249e+000	-2.4362567748e+000
 1.7110428029e-001	 1.2550603232e+000	-2.4480909191e+000
 1.5866815818e-001	 1.2566930738e+000	-2.4594116202e+000
 1.4625855651e-001	 1.2581977067e+000	-2.4701057657e+000
 1.3387722125e-001	 1.2595752800e+000	-2.4800290016e+000
 1.2152586545e-001	 1.2608268783e+000	-2.4890012119e+000
 1.1512946431e-001	 1.1944644255e+000	-3.3006100387e+000
 1.0345645911e-001	 1.1955320061e+000	-3.3161992842e+000
 9.1815040233e-002	 1.1964823350e+000	-3.3302398644e+000
 8.0206759322e-002	 1.1973165109e+000	-3.3427818568e+000
 6.8633134928e-002	 1.1980356538e+000	-3.3538326855e+000
 5.7095652318e-002	 1.1986409042e+000	-3.3633552865e+000
 4.5595763289e-002	 1.1991334223e+000	-3.3712665775e+000
 3.4134886020e-002	 1.1995143866e+000	-3.3774362382e+000
 2.2714404954e-002	 1.1997849932e+000	-3.3816858052e+000
 1.1335670705e-002	 1.1999464549e+000	-3.3837880807e+000
 0.0000000000e+000	 1.2000000000e+000	-3.3834673297e+000
 1.1576910442e-001	 1.2011006708e+000	-3.2071915432e+000
 1.0403124595e-001	 1.2021741827e+000	-3.2216901930e+000
 9.2325149294e-002	 1.2031297915e+000	-3.2347407378e+000
 8.0652374709e-002	 1.2039686019e+000	-3.2464011257e+000
 6.9014449187e-002	 1.2046917402e+000	-3.2566847465e+000
 5.7412866246e-002	 1.2053003533e+000	-3.2655584946e+000
 4.5849085750e-002	 1.2057956077e+000	-3.2729411498e+000
 3.4324533758e-002	 1.2061786886e+000	-3.2787020790e+000
 2.2840602403e-002	 1.2064507987e+000	-3.2826602644e+000
 1.1398649803e-002	 1.2066131574e+000	-3.2845836587e+000
 0.0000000000e+000	 1.2066670000e+000	-3.2841892800e+000
 1.1640874454e-001	 1.2077369161e+000	-3.1168562316e+000
 1.0460603279e-001	 1.2088163593e+000	-3.1303372349e+000
 9.2835258354e-002	 1.2097772479e+000	-3.1424631002e+000
 8.1097990095e-002	 1.2106206929e+000	-3.1532989315e+000
 6.9395763445e-002	 1.2113478266e+000	-3.1628633267e+000
 5.7730080174e-002	 1.2119598024e+000	-3.1711263384e+000
 4.6102408212e-002	 1.2124577932e+000	-3.1780077623e+000
 3.4514181495e-002	 1.2128429906e+000	-3.1833757602e+000
 2.2966799851e-002	 1.2131166041e+000	-3.1870458203e+000
 1.1461628900e-002	 1.2132798599e+000	-3.1887800575e+000
 0.0000000000e+000	 1.2133340000e+000	-3.1882872106e+000
 1.1704838465e-001	 1.2143731614e+000	-3.0294637146e+000
 1.0518081964e-001	 1.2154585359e+000	-3.0420000806e+000
 9.3345367414e-002	 1.2164247044e+000	-3.0532667721e+000
 8.1543605481e-002	 1.2172727838e+000	-3.0633353993e+000
 6.9777077703e-002	 1.2180039130e+000	-3.0722290757e+000
 5.8047294102e-002	 1.2186192515e+000	-3.0799202741e+000
 4.6355730672e-002	 1.2191199786e+000	-3.0863290223e+000
 3.4703829232e-002	 1.2195072926e+000	-3.0913214445e+000
 2.3092997298e-002	 1.2197824096e+000	-3.0947086540e+000
 1.1524607997e-002	 1.2199465624e+000	-3.0962459964e+000
 0.0000000000e+000	 1.2200010000e+000	-3.0956329542e+000
 1.1768802476e-001	 1.2210094066e+000	-2.9448769290e+000
 1.0575560648e-001	 1.2221007124e+000	-2.9565415725e+000
 9.3855476473e-002	 1.2230721608e+000	-2.9670145966e+000
 8.1989220866e-002	 1.2239248748e+000	-2.9763735329e+000
 7.0158391960e-002	 1.2246599994e+000	-2.9846453820e+000
 5.8364508028e-002	 1.2252787006e+000	-2.9918043621e+000
 4.6609053133e-002	 1.2257821640e+000	-2.9977700102e+000
 3.4893476969e-002	 1.2261715946e+000	-3.0024056413e+000
 2.3219194746e-002	 1.2264482150e+000	-3.0055171705e+000
 1.1587587093e-002	 1.2266132649e+000	-3.0068523001e+000
 0.0000000000e+000	 1.2266680000e+000	-3.0061003341e+000
 1.1832766488e-001	 1.2276456519e+000	-2.8629620603e+000
 1.0633039332e-001	 1.2287428890e+000	-2.8738276511e+000
 9.4365585532e-002	 1.2297196173e+000	-2.8835723684e+000
 8.2434836251e-002	 1.2305769658e+000	-2.8922791462e+000
 7.0539706217e-002	 1.2313160859e+000	-2.8999783070e+000
 5.8681721955e-002	 1.2319381497e+000	-2.9066452026e+000
 4.6862375592e-002	 1.2324443495e+000	-2.9121982181e+000
 3.5083124705e-002	 1.2328358966e+000	-2.9164971468e+000
 2.3345392193e-002	 1.2331140205e+000	-2.9193419415e+000
 1.1650566190e-002	 1.2332799675e+000	-2.9204718434e+000
 0.0000000000e+000	 1.2333350000e+000	-2.9195651100e+000
 1.1896730499e-001	 1.2342818972e+000	-2.7835884685e+000
 1.0690518016e-001	 1.2353850656e+000	-2.7937272827e+000
 9.4875694591e-002	 1.2363670737e+000	-2.8028087649e+000
 8.2880451636e-002	 1.2372290568e+000	-2.8109207961e+000
 7.0921020473e-002	 1.2379721723e+000	-2.8180965205e+000
 5.8998935881e-002	 1.2385975988e+000	-2.8243118738e+000
 4.7115698052e-002	 1.2391065349e+000	-2.8294834892e+000
 3.5272772441e-002	 1.2395001987e+000	-2.8334669861e+000
 2.3471589640e-002	 1.2397798260e+000	-2.8360556489e+000
 1.1713545286e-002	 1.2399466700e+000	-2.8369794963e+000
 0.0000000000e+000	 1.2400020000e+000	-2.8359049265e+000
 1.1960694511e-001	 1.2409181425e+000	-2.7066286164e+000
 1.0747996700e-001	 1.2420272421e+000	-2.7161123912e+000
 9.5385803650e-002	 1.2430145301e+000	-2.7245952791e+000
 8.3326067021e-002	 1.2438811478e+000	-2.7321697188e+000
 7.1302334730e-002	 1.2446282587e+000	-2.7388712386e+000
 5.9316149807e-002	 1.2452570478e+000	-2.7446758716e+000
 4.7369020511e-002	 1.2457687204e+000	-2.7494979601e+000
 3.5462420176e-002	 1.2461645007e+000	-2.7531883573e+000
 2.3597787086e-002	 1.2464456314e+000	-2.7555330310e+000
 1.1776524383e-002	 1.2466133725e+000	-2.7562520726e+000
 0.0000000000e+000	 1.2466690000e+000	-2.7549992621e+000
 1.2024658522e-001	 1.2475543877e+000	-2.6319579993e+000
 1.0805475385e-001	 1.2486694187e+000	-2.6408577898e+000
 9.5895912709e-002	 1.2496619866e+000	-2.6488061553e+000
 8.3771682405e-002	 1.2505332388e+000	-2.6558997669e+000
 7.1683648986e-002	 1.2512843451e+000	-2.6621761636e+000
 5.9633363733e-002	 1.2519164969e+000	-2.6676110515e+000
 4.7622342970e-002	 1.2524309058e+000	-2.6721160048e+000
 3.5652067912e-002	 1.2528288027e+000	-2.6755365771e+000
 2.3723984533e-002	 1.2531114369e+000	-2.6776508299e+000
 1.1839503479e-002	 1.2532800750e+000	-2.6781682786e+000
 0.0000000000e+000	 1.2533360000e+000	-2.6767293808e+000
 1.2088622533e-001	 1.2541906330e+000	-2.5594550777e+000
 1.0862954069e-001	 1.2553115953e+000	-2.5678411168e+000
 9.6406021767e-002	 1.2563094430e+000	-2.5753183263e+000
 8.4217297790e-002	 1.2571853297e+000	-2.5819873490e+000
 7.2064963242e-002	 1.2579404316e+000	-2.5878874254e+000
 5.9950577658e-002	 1.2585759460e+000	-2.5929935725e+000
 4.7875665429e-002	 1.2590930912e+000	-2.5972141798e+000
 3.5841715647e-002	 1.2594931047e+000	-2.6003890283e+000
 2.3850181979e-002	 1.2597772423e+000	-2.6022877408e+000
 1.1902482575e-002	 1.2599467775e+000	-2.6026086645e+000
 0.0000000000e+000	 1.2600030000e+000	-2.6009782847e+000
 1.2152586545e-001	 1.2608268783e+000	-2.4890012119e+000
 1.0920432753e-001	 1.2619537719e+000	-2.4969427722e+000
 9.6916130827e-002	 1.2629568995e+000	-2.5040113524e+000
 8.4662913175e-002	 1.2638374207e+000	-2.5103113717e+000
 7.2446277499e-002	 1.2645965180e+000	-2.5158835254e+000
 6.0267791584e-002	 1.2652353951e+000	-2.5207018424e+000
 4.8128987889e-002	 1.2657552767e+000	-2.5246711719e+000
 3.6031363383e-002	 1.2661574067e+000	-2.5276251087e+000
 2.3976379426e-002	 1.2664430478e+000	-2.5293243628e+000
 1.1965461671e-002	 1.2666134800e+000	-2.5294555770e+000
 0.0000000000e+000	 1.2666700000e+000	-2.5276306685e+000
 1.2666700000e+000	 0.0000000000e+000	 3.3320539788e+000
 1.2666134800e+000	 1.1965461671e-002	 3.3262535678e+000
 1.2664430478e+000	 2.3976379426e-002	 3.3211422928e+000
 1.2661574067e+000	 3.6031363383e-002	 3.3162782069e+000
 1.2657552767e+000	 4.8128987889e-002	 3.3111875688e+000
 1.2652353951e+000	 6.0267791584e-002	 3.3053664324e+000
 1.2645965180e+000	 7.2446277499e-002	 3.2982826623e+000
 1.2638374207e+000	 8.4662913175e-002	 3.2893782860e+000
 1.2629568995e+000	 9.6916130827e-002	 3.2780721854e+000
 1.2619537719e+000	 1.0920432753e-001	 3.2637631293e+000
 1.2608268783e+000	 1.2152586545e-001	 3.2458331469e+000
 1.2733360000e+000	 0.0000000000e+000	 3.3533825241e+000
 1.2732791826e+000	 1.2028431321e-002	 3.3477083568e+000
 1.2731078534e+000	 2.4102557944e-002	 3.3425622068e+000
 1.2728207091e+000	 3.6220982672e-002	 3.3375230764e+000
 1.2724164628e+000	 4.8382272352e-002	 3.3321367449e+000
 1.2718938453e+000	 6.0584957931e-002	 3.3259173732e+000
 1.2712516060e+000	 7.2827534561e-002	 3.3183495199e+000
 1.2704885139e+000	 8.5108461721e-002	 3.3088905062e+000
 1.2696033588e+000	 9.7426163374e-002	 3.2969731302e+000
 1.2685949522e+000	 1.0977902816e-001	 3.2820087347e+000
 1.2674621282e+000	 1.2216540962e-001	 3.2633906266e+000
 1.2800020000e+000	 0.0000000000e+000	 3.3736791514e+000
 1.2799448851e+000	 1.2091400971e-002	 3.3681678252e+000
 1.2797726591e+000	 2.4228736462e-002	 3.3630243589e+000
 1.2794840115e+000	 3.6410601962e-002	 3.3578494678e+000
 1.2790776490e+000	 4.8635556815e-002	 3.3522091896e+000
 1.2785522956e+000	 6.0902124278e-002	 3.3456364971e+000
 1.2779066941e+000	 7.3208791624e-002	 3.3376333165e+000
 1.2771396072e+000	 8.5554010268e-002	 3.3276729040e+000
 1.2762498182e+000	 9.7936195922e-002	 3.3152025843e+000
 1.2752361324e+000	 1.1035372879e-001	 3.2996468536e+000
 1.2740973780e+000	 1.2280495379e-001	 3.2804108462e+000
 1.2866680000e+000	 0.0000000000e+000	 3.3928792817e+000
 1.2866105877e+000	 1.2154370621e-002	 3.3875638563e+000
 1.2864374647e+000	 2.4354914980e-002	 3.3824580818e+000
 1.2861473140e+000	 3.6600221253e-002	 3.3771851414e+000
 1.2857388352e+000	 4.8888841278e-002	 3.3713320554e+000
 1.2852107458e+000	 6.1219290625e-002	 3.3644512999e+000
 1.2845617821e+000	 7.3590048688e-002	 3.3560628247e+000
 1.2837907004e+000	 8.5999558815e-002	 3.3456564434e+000
 1.2828962776e+000	 9.8446228470e-002	 3.3326945955e+000
 1.2818773127e+000	 1.1092842942e-001	 3.3166154863e+000
 1.2807326279e+000	 1.2344449797e-001	 3.2968366012e+000
 1.2933340000e+000	 0.0000000000e+000	 3.4109207769e+000
 1.2932762902e+000	 1.2217340271e-002	 3.4058305408e+000
 1.2931022703e+000	 2.4481093498e-002	 3.4007946853e+000
 1.2928106164e+000	 3.6789840543e-002	 3.3954596063e+000
 1.2924000213e+000	 4.9142125742e-002	 3.3894340201e+000
 1.2918691960e+000	 6.1536456972e-002	 3.3822905813e+000
 1.2912168702e+000	 7.3971305751e-002	 3.3735679034e+000
 1.2904417936e+000	 8.6445107362e-002	 3.3627729598e+000
 1.2895427369e+000	 9.8956261018e-002	 3.3493838720e+000
 1.2885184930e+000	 1.1150313005e-001	 3.3328530857e+000
 1.2873678778e+000	 1.2408404214e-001	 3.3126109351e+000
 1.3000000000e+000	 0.0000000000e+000	 3.4277438773e+000
 1.2999419928e+000	 1.2280309921e-002	 3.4229041171e+000
 1.2997670760e+000	 2.4607272017e-002	 3.4179673996e+000
 1.2994739188e+000	 3.6979459834e-002	 3.4126040691e+000
 1.2990612075e+000	 4.9395410206e-002	 3.4064452378e+000
 1.2985276462e+000	 6.1853623320e-002	 3.3990844012e+000
 1.2978719582e+000	 7.4352562815e-002	 3.3900794582e+000
 1.2970928868e+000	 8.6890655910e-002	 3.3789551260e+000
 1.2961891963e+000	 9.9466293567e-002	 3.3652057529e+000
 1.2951596733e+000	 1.1207783068e-001	 3.3482985330e+000
 1.2940031277e+000	 1.2472358632e-001	 3.3276771204e+000
 1.3066660000e+000	 0.0000000000e+000	 3.4432911407e+000
 1.3066076953e+000	 1.2343279571e-002	 3.4387229144e+000
 1.3064318816e+000	 2.4733450535e-002	 3.4339113217e+000
 1.3061372212e+000	 3.7169079125e-002	 3.4285513823e+000
 1.3057223936e+000	 4.9648694670e-002	 3.4222972930e+000
 1.3051860964e+000	 6.2170789668e-002	 3.4147640365e+000
 1.3045270463e+000	 7.4733819879e-002	 3.4055294030e+000
 1.3037439800e+000	 8.7336204458e-002	 3.3941364178e+000
 1.3028356557e+000	 9.9976326115e-002	 3.3800961796e+000
 1.3018008536e+000	 1.1265253131e-001	 3.3628911142e+000
 1.3006383776e+000	 1.2536313049e-001	 3.3419786410e+000
 1.3133320000e+000	 0.0000000000e+000	 3.4575073840e+000
 1.3132733979e+000	 1.2406249222e-002	 3.4532272958e+000
 1.3130966872e+000	 2.4859629054e-002	 3.4485633624e+000
 1.3128005236e+000	 3.7358698416e-002	 3.4432359961e+000
 1.3123835798e+000	 4.9901979134e-002	 3.4369231543e+000
 1.3118445467e+000	 6.2487956016e-002	 3.4292619401e+000
 1.3111821343e+000	 7.5115076943e-002	 3.4198506233e+000
 1.3103950732e+000	 8.7781753006e-002	 3.4082510823e+000
 1.3094821150e+000	 1.0048635866e-001	 3.3939916680e+000
 1.3084420339e+000	 1.1322723194e-001	 3.3765704976e+000
 1.3072736274e+000	 1.2600267467e-001	 3.3554591740e+000
 1.3199980000e+000	 0.0000000000e+000	 3.4703396259e+000
 1.3199391005e+000	 1.2469218872e-002	 3.4663596051e+000
 1.3197614929e+000	 2.4985807574e-002	 3.4618621952e+000
 1.3194638260e+000	 3.7548317707e-002	 3.4565939098e+000
 1.3190447659e+000	 5.0155263599e-002	 3.4502571313e+000
 1.3185029969e+000	 6.2805122364e-002	 3.4425117009e+000
 1.3178372224e+000	 7.5496334008e-002	 3.4329769402e+000
 1.3170461664e+000	 8.8227301555e-002	 3.4212341060e+000
 1.3161285744e+000	 1.0099639121e-001	 3.4068292819e+000
 1.3150832142e+000	 1.1380193258e-001	 3.3892767117e+000
 1.3139088773e+000	 1.2664221885e-001	 3.3680625738e+000
 1.3266640000e+000	 0.0000000000e+000	 3.4817370314e+000
 1.3266048030e+000	 1.2532188523e-002	 3.4780641136e+000
 1.3264262985e+000	 2.5111986093e-002	 3.4737482073e+000
 1.3261271284e+000	 3.7737936999e-002	 3.4685626266e+000
 1.3257059521e+000	 5.0408548064e-002	 3.4622348315e+000
 1.3251614471e+000	 6.3122288713e-002	 3.4544480050e+000
 1.3244923105e+000	 7.5877591073e-002	 3.4448430756e+000
 1.3236972597e+000	 8.8672850103e-002	 3.4330211848e+000
 1.3227750338e+000	 1.0150642376e-001	 3.4185466070e+000
 1.3217243945e+000	 1.1437663321e-001	 3.4009501240e+000
 1.3205441272e+000	 1.2728176302e-001	 3.3797328554e+000
 1.3333300000e+000	 0.0000000000e+000	 3.4916509242e+000
 1.3332705056e+000	 1.2595158174e-002	 3.4882869695e+000
 1.3330911041e+000	 2.5238164613e-002	 3.4841634507e+000
 1.3327904308e+000	 3.7927556291e-002	 3.4790811079e+000
 1.3323671383e+000	 5.0661832530e-002	 3.4727931189e+000
 1.3318198973e+000	 6.3439455063e-002	 3.4650065982e+000
 1.3311473985e+000	 7.6258848138e-002	 3.4553846188e+000
 1.3303483529e+000	 8.9118398652e-002	 3.4435486943e+000
 1.3294214931e+000	 1.0201645631e-001	 3.4290817261e+000
 1.3283655748e+000	 1.1495133384e-001	 3.4115314213e+000
 1.3271793771e+000	 1.2792130720e-001	 3.3904141792e+000
 1.2608268783e+000	 1.2152586545e-001	 3.2458331469e+000
 1.2595752800e+000	 1.3387722125e-001	 3.2257978892e+000
 1.2581977067e+000	 1.4625855651e-001	 3.2054123893e+000
 1.2566930738e+000	 1.5866815818e-001	 3.1844126425e+000
 1.2550603232e+000	 1.7110428029e-001	 3.1625330054e+000
 1.2532984249e+000	 1.8356514439e-001	 3.1395105840e+000
 1.2514063776e+000	 1.9604893996e-001	 3.1150898906e+000
 1.2493832100e+000	 2.0855382488e-001	 3.0890277501e+000
 1.2472279816e+000	 2.2107792592e-001	 3.0610984357e+000
 1.2449397839e+000	 2.3361933929e-001	 3.0310990097e+000
 1.2425177416e+000	 2.4617613122e-001	 2.9988548427e+000
 1.2674621282e+000	 1.2216540962e-001	 3.2633906266e+000
 1.2662039432e+000	 1.3458176588e-001	 3.2426161731e+000
 1.2648191203e+000	 1.4702825938e-001	 3.2214219859e+000
 1.2633065690e+000	 1.5950316804e-001	 3.1995535117e+000
 1.2616652259e+000	 1.7200473671e-001	 3.1767532932e+000
 1.2598940554e+000	 1.8453117757e-001	 3.1527654473e+000
 1.2579920510e+000	 1.9708067059e-001	 3.1273404214e+000
 1.2559582362e+000	 2.0965136393e-001	 3.1002400103e+000
 1.2537916657e+000	 2.2224137453e-001	 3.0712426119e+000
 1.2514914261e+000	 2.3484878857e-001	 3.0401486976e+000
 1.2490566375e+000	 2.4747166209e-001	 3.0067864698e+000
 1.2740973780e+000	 1.2280495379e-001	 3.2804108462e+000
 1.2728326064e+000	 1.3528631052e-001	 3.2589716681e+000
 1.2714405338e+000	 1.4779796226e-001	 3.2370441283e+000
 1.2699200643e+000	 1.6033817790e-001	 3.2143814267e+000
 1.2682701286e+000	 1.7290519313e-001	 3.1907324820e+000
 1.2664896859e+000	 1.8549721076e-001	 3.1658465014e+000
 1.2645777244e+000	 1.9811240122e-001	 3.1394778421e+000
 1.2625332625e+000	 2.1074890299e-001	 3.1113911430e+000
 1.2603553498e+000	 2.2340482314e-001	 3.0813667060e+000
 1.2580430683e+000	 2.3607823785e-001	 3.0492061011e+000
 1.2555955334e+000	 2.4876719297e-001	 3.0147379683e+000
 1.2807326279e+000	 1.2344449797e-001	 3.2968366012e+000
 1.2794612696e+000	 1.3599085516e-001	 3.2748123557e+000
 1.2780619474e+000	 1.4856766513e-001	 3.2522319411e+000
 1.2765335595e+000	 1.6117318777e-001	 3.2288546106e+000
 1.2748750313e+000	 1.7380564955e-001	 3.2044338437e+000
 1.2730853165e+000	 1.8646324394e-001	 3.1787220131e+000
 1.2711633978e+000	 1.9914413184e-001	 3.1514753546e+000
 1.2691082887e+000	 2.1184644205e-001	 3.1224592189e+000
 1.2669190339e+000	 2.2456827176e-001	 3.0914535834e+000
 1.2645947105e+000	 2.3730768712e-001	 3.0582587984e+000
 1.2621344292e+000	 2.5006272384e-001	 3.0227015398e+000
 1.2873678778e+000	 1.2408404214e-001	 3.3126109351e+000
 1.2860899328e+000	 1.3669539980e-001	 3.2900862725e+000
 1.2846833609e+000	 1.4933736801e-001	 3.2669384319e+000
 1.2831470548e+000	 1.6200819763e-001	 3.2429310159e+000
 1.2814799340e+000	 1.7470610597e-001	 3.2178202452e+000
 1.2796809470e+000	 1.8742927713e-001	 3.1913597274e+000
 1.2777490712e+000	 2.0017586247e-001	 3.1633055391e+000
 1.2756833149e+000	 2.1294398111e-001	 3.1334216029e+000
 1.2734827179e+000	 2.2573172037e-001	 3.1014853354e+000
 1.2711463527e+000	 2.3853713640e-001	 3.0672935403e+000
 1.2686733251e+000	 2.5135825471e-001	 3.0306685170e+000
 1.2940031277e+000	 1.2472358632e-001	 3.3276771204e+000
 1.2927185960e+000	 1.3739994444e-001	 3.3047414971e+000
 1.2913047745e+000	 1.5010707088e-001	 3.2811164828e+000
 1.2897605500e+000	 1.6284320749e-001	 3.2565683213e+000
 1.2880848368e+000	 1.7560656239e-001	 3.2308541500e+000
 1.2862765775e+000	 1.8839531031e-001	 3.2037268738e+000
 1.2843347446e+000	 2.0120759310e-001	 3.1749403650e+000
 1.2822583412e+000	 2.1404152016e-001	 3.1442549700e+000
 1.2800464020e+000	 2.2689516898e-001	 3.1114432992e+000
 1.2776979948e+000	 2.3976658568e-001	 3.0762962724e+000
 1.2752122210e+000	 2.5265378559e-001	 3.0386293912e+000
 1.3006383776e+000	 1.2536313049e-001	 3.3419786410e+000
 1.2993472592e+000	 1.3810448908e-001	 3.3187261371e+000
 1.2979261880e+000	 1.5087677375e-001	 3.2947188430e+000
 1.2963740453e+000	 1.6367821736e-001	 3.2697239298e+000
 1.2946897395e+000	 1.7650701881e-001	 3.2434976207e+000
 1.2928722080e+000	 1.8936134350e-001	 3.2157901734e+000
 1.2909204180e+000	 2.0223932373e-001	 3.1863512023e+000
 1.2888333674e+000	 2.1513905922e-001	 3.1549353207e+000
 1.2866100861e+000	 2.2805861760e-001	 3.1213080769e+000
 1.2842496370e+000	 2.4099603496e-001	 3.0852521595e+000
 1.2817511169e+000	 2.5394931646e-001	 3.0465738388e+000
 1.3072736274e+000	 1.2600267467e-001	 3.3554591740e+000
 1.3059759223e+000	 1.3880903372e-001	 3.3319883175e+000
 1.3045476016e+000	 1.5164647663e-001	 3.3076981216e+000
 1.3029875405e+000	 1.6451322722e-001	 3.2823549657e+000
 1.3012946422e+000	 1.7740747523e-001	 3.2557123210e+000
 1.2994678385e+000	 1.9032737668e-001	 3.2275158452e+000
 1.2975060914e+000	 2.0327105436e-001	 3.1975088326e+000
 1.2954083936e+000	 2.1623659828e-001	 3.1654379956e+000
 1.2931737702e+000	 2.2922206621e-001	 3.1310595546e+000
 1.2908012792e+000	 2.4222548423e-001	 3.0941456074e+000
 1.2882900128e+000	 2.5524484733e-001	 3.0544907478e+000
 1.3139088773e+000	 1.2664221885e-001	 3.3680625738e+000
 1.3126045855e+000	 1.3951357836e-001	 3.3444761687e+000
 1.3111690152e+000	 1.5241617950e-001	 3.3200067810e+000
 1.3096010358e+000	 1.6534823709e-001	 3.2944182732e+000
 1.3078995449e+000	 1.7830793165e-001	 3.2674595185e+000
 1.3060634690e+000	 1.9129340987e-001	 3.2388696135e+000
 1.3040917647e+000	 2.0430278499e-001	 3.2083834599e+000
 1.3019834198e+000	 2.1733413734e-001	 3.1757376911e+000
 1.2997374543e+000	 2.3038551482e-001	 3.1406769213e+000
 1.2973529214e+000	 2.4345493351e-001	 3.1029602861e+000
 1.2948289087e+000	 2.5654037821e-001	 3.0623682439e+000
 1.3205441272e+000	 1.2728176302e-001	 3.3797328554e+000
 1.3192332487e+000	 1.4021812300e-001	 3.3561378152e+000
 1.3177904287e+000	 1.5318588237e-001	 3.3315971306e+000
 1.3162145310e+000	 1.6618324695e-001	 3.3058704142e+000
 1.3145044476e+000	 1.7920838807e-001	 3.2787000874e+000
 1.3126590995e+000	 1.9225944305e-001	 3.2498167148e+000
 1.3106774381e+000	 2.0533451562e-001	 3.2189447220e+000
 1.3085584461e+000	 2.1843167639e-001	 3.1858084739e+000
 1.3063011384e+000	 2.3154896344e-001	 3.1501386878e+000
 1.3039045635e+000	 2.4468438279e-001	 3.1116791518e+000
 1.3013678046e+000	 2.5783590908e-001	 3.0701937164e+000
 1.3271793771e+000	 1.2792130720e-001	 3.3904141792e+000
 1.3258619119e+000	 1.4092266764e-001	 3.3669213653e+000
 1.3244118423e+000	 1.5395558525e-001	 3.3424213205e+000
 1.3228280263e+000	 1.6701825681e-001	 3.3166676671e+000
 1.3211093503e+000	 1.8010884449e-001	 3.2893945113e+000
 1.3192547300e+000	 1.9322547623e-001	 3.2603219043e+000
 1.3172631115e+000	 2.0636624624e-001	 3.2291617014e+000
 1.3151334723e+000	 2.1952921545e-001	 3.1956237962e+000
 1.3128648225e+000	 2.3271241205e-001	 3.1594227050e+000
 1.3104562057e+000	 2.4591383207e-001	 3.1202844691e+000
 1.3079067005e+000	 2.5913143995e-001	 3.0779538433e+000
 1.2425177416e+000	 2.4617613122e-001	 2.9988548427e+000
 1.2399606194e+000	 2.5874822468e-001	 2.9645125260e+000
 1.2372679649e+000	 2.7133174181e-001	 2.9282897317e+000
 1.2344390081e+000	 2.8392465875e-001	 2.8901591260e+000
 1.2314730163e+000	 2.9652492420e-001	 2.8501394791e+000
 1.2283692947e+000	 3.0913046021e-001	 2.8083014806e+000
 1.2251271875e+000	 3.2173916295e-001	 2.7647735289e+000
 1.2217460784e+000	 3.3434890354e-001	 2.7197474508e+000
 1.2182253923e+000	 3.4695752895e-001	 2.6734841080e+000
 1.2145645956e+000	 3.5956286282e-001	 2.6263188449e+000
 1.2107631971e+000	 3.7216270646e-001	 2.5786667288e+000
 1.2490566375e+000	 2.4747166209e-001	 3.0067864698e+000
 1.2464860582e+000	 2.6010991767e-001	 2.9712725432e+000
 1.2437792332e+000	 2.7275965705e-001	 2.9337987512e+000
 1.2409353887e+000	 2.8541884569e-001	 2.8943461504e+000
 1.2379537880e+000	 2.9808542152e-001	 2.8529423057e+000
 1.2348337328e+000	 3.1075729565e-001	 2.8096672708e+000
 1.2315745635e+000	 3.2343235317e-001	 2.7646595445e+000
 1.2281756610e+000	 3.3610845401e-001	 2.7181219585e+000
 1.2246364469e+000	 3.4878343379e-001	 2.6703274517e+000
 1.2209563848e+000	 3.6145510471e-001	 2.6216246827e+000
 1.2171349809e+000	 3.7412125651e-001	 2.5724434337e+000
 1.2555955334e+000	 2.4876719297e-001	 3.0147379683e+000
 1.2530114969e+000	 2.6147161067e-001	 2.9780491892e+000
 1.2502905015e+000	 2.7418757228e-001	 2.9393097268e+000
 1.2474317693e+000	 2.8691303264e-001	 2.8985121408e+000
 1.2444345598e+000	 2.9964591885e-001	 2.8556958713e+000
 1.2412981708e+000	 3.1238413109e-001	 2.8109533828e+000
 1.2380219396e+000	 3.2512554339e-001	 2.7644362862e+000
 1.2346052436e+000	 3.3786800448e-001	 2.7163613937e+000
 1.2310475014e+000	 3.5060933863e-001	 2.6670166587e+000
 1.2273481739e+000	 3.6334734661e-001	 2.6167669533e+000
 1.2235067648e+000	 3.7607980657e-001	 2.5660596326e+000
 1.2621344292e+000	 2.5006272384e-001	 3.0227015398e+000
 1.2595369357e+000	 2.6283330366e-001	 2.9848389812e+000
 1.2568017699e+000	 2.7561548752e-001	 2.9448229048e+000
 1.2539281499e+000	 2.8840721958e-001	 2.9026603871e+000
 1.2509153315e+000	 3.0120641617e-001	 2.8584057243e+000
 1.2477626088e+000	 3.1401096653e-001	 2.8121667385e+000
 1.2444693156e+000	 3.2681873362e-001	 2.7641110649e+000
 1.2410348261e+000	 3.3962755495e-001	 2.7144723716e+000
 1.2374585560e+000	 3.5243524348e-001	 2.6635564652e+000
 1.2337399631e+000	 3.6523958851e-001	 2.6117472316e+000
 1.2298785487e+000	 3.7803835663e-001	 2.5595123598e+000
 1.2686733251e+000	 2.5135825471e-001	 3.0306685170e+000
 1.2660623744e+000	 2.6419499666e-001	 2.9916375434e+000
 1.2633130382e+000	 2.7704340275e-001	 2.9503376356e+000
 1.2604245305e+000	 2.8990140652e-001	 2.9067933022e+000
 1.2573961032e+000	 3.0276691349e-001	 2.8610765778e+000
 1.2542270469e+000	 3.1563780197e-001	 2.8133134901e+000
 1.2509166917e+000	 3.2851192384e-001	 2.7636905112e+000
 1.2474644087e+000	 3.4138710541e-001	 2.7124609422e+000
 1.2438696105e+000	 3.5426114832e-001	 2.6599511830e+000
 1.2401317523e+000	 3.6713183040e-001	 2.6065668355e+000
 1.2362503325e+000	 3.7999690668e-001	 2.5527985870e+000
 1.2752122210e+000	 2.5265378559e-001	 3.0386293912e+000
 1.2725878131e+000	 2.6555668965e-001	 2.9984396378e+000
 1.2698243065e+000	 2.7847131799e-001	 2.9558524073e+000
 1.2669209111e+000	 2.9139559347e-001	 2.9109124586e+000
 1.2638768750e+000	 3.0432741082e-001	 2.8637123484e+000
 1.2606914849e+000	 3.1726463741e-001	 2.8143990600e+000
 1.2573640678e+000	 3.3020511406e-001	 2.7631806169e+000
 1.2538939913e+000	 3.4314665588e-001	 2.7103326318e+000
 1.2502806651e+000	 3.5608705316e-001	 2.6562047404e+000
 1.2465235415e+000	 3.6902407230e-001	 2.6012268661e+000
 1.2426221164e+000	 3.8195545674e-001	 2.5459152618e+000
 1.2817511169e+000	 2.5394931646e-001	 3.0465738388e+000
 1.2791132519e+000	 2.6691838265e-001	 3.0052391943e+000
 1.2763355748e+000	 2.7989923323e-001	 2.9613648791e+000
 1.2734172918e+000	 2.9288978041e-001	 2.9150186237e+000
 1.2703576467e+000	 3.0588790814e-001	 2.8663161939e+000
 1.2671559229e+000	 3.1889147285e-001	 2.8154281805e+000
 1.2638114438e+000	 3.3189830428e-001	 2.7625867751e+000
 1.2603235739e+000	 3.4490620635e-001	 2.7080924837e+000
 1.2566917196e+000	 3.5791295801e-001	 2.6523207228e+000
 1.2529153306e+000	 3.7091631419e-001	 2.5957282465e+000
 1.2489939003e+000	 3.8391400680e-001	 2.5388593455e+000
 1.2882900128e+000	 2.5524484733e-001	 3.0544907478e+000
 1.2856386906e+000	 2.6828007565e-001	 3.0120293402e+000
 1.2828468432e+000	 2.8132714846e-001	 2.9668719138e+000
 1.2799136724e+000	 2.9438396735e-001	 2.9191117954e+000
 1.2768384184e+000	 3.0744840546e-001	 2.8688905503e+000
 1.2736203609e+000	 3.2051830829e-001	 2.8164049318e+000
 1.2702588199e+000	 3.3359149451e-001	 2.7619138200e+000
 1.2667531564e+000	 3.4666575682e-001	 2.7057450981e+000
 1.2631027742e+000	 3.5973886285e-001	 2.6483024128e+000
 1.2593071198e+000	 3.7280855609e-001	 2.5900717618e+000
 1.2553656842e+000	 3.8587255685e-001	 2.5316278508e+000
 1.2948289087e+000	 2.5654037821e-001	 3.0623682439e+000
 1.2921641294e+000	 2.6964176864e-001	 3.0188024302e+000
 1.2893581115e+000	 2.8275506370e-001	 2.9723696101e+000
 1.2864100530e+000	 2.9587815430e-001	 2.9231912366e+000
 1.2833191902e+000	 3.0900890279e-001	 2.8714371687e+000
 1.2800847990e+000	 3.2214514373e-001	 2.8173327813e+000
 1.2767061959e+000	 3.3528468473e-001	 2.7611660661e+000
 1.2731827390e+000	 3.4842530728e-001	 2.7032946723e+000
 1.2695138287e+000	 3.6156476769e-001	 2.6441528296e+000
 1.2656989090e+000	 3.7470079799e-001	 2.5842580973e+000
 1.2617374680e+000	 3.8783110691e-001	 2.5242178791e+000
 1.3013678046e+000	 2.5783590908e-001	 3.0701937164e+000
 1.2986895681e+000	 2.7100346164e-001	 3.0255500745e+000
 1.2958693798e+000	 2.8418297893e-001	 2.9778533344e+000
 1.2929064336e+000	 2.9737234124e-001	 2.9272555096e+000
 1.2897999619e+000	 3.1056940011e-001	 2.8739571518e+000
 1.2865492370e+000	 3.2377197917e-001	 2.8182146206e+000
 1.2831535720e+000	 3.3697787495e-001	 2.7603473474e+000
 1.2796123216e+000	 3.5018485775e-001	 2.7007450398e+000
 1.2759248833e+000	 3.6339067253e-001	 2.6398747684e+000
 1.2720906982e+000	 3.7659303988e-001	 2.5782878774e+000
 1.2681092519e+000	 3.8978965697e-001	 2.5166266580e+000
 1.3079067005e+000	 2.5913143995e-001	 3.0779538433e+000
 1.3052150068e+000	 2.7236515463e-001	 3.0322631684e+000
 1.3023806482e+000	 2.8561089417e-001	 2.9833177523e+000
 1.2994028142e+000	 2.9886652818e-001	 2.9313025097e+000
 1.2962807336e+000	 3.1212989743e-001	 2.8764509893e+000
 1.2930136750e+000	 3.2539881461e-001	 2.8190528033e+000
 1.2896009480e+000	 3.3867106518e-001	 2.7594610554e+000
 1.2860419042e+000	 3.5194440822e-001	 2.6980997093e+000
 1.2823359378e+000	 3.6521657738e-001	 2.6354708394e+000
 1.2784824874e+000	 3.7848528178e-001	 2.5721617042e+000
 1.2744810358e+000	 3.9174820702e-001	 2.5088515776e+000
 1.2107631971e+000	 3.7216270646e-001	 2.5786667288e+000
 1.2068207488e+000	 3.8475483961e-001	 2.5291650195e+000
 1.2027368457e+000	 3.9733702086e-001	 2.4763608175e+000
 1.1985111275e+000	 4.0990698924e-001	 2.4206706995e+000
 1.1941432797e+000	 4.2246246541e-001	 2.3626133269e+000
 1.1896330343e+000	 4.3500115282e-001	 2.3028134486e+000
 1.1849801705e+000	 4.4752073879e-001	 2.2420054093e+000
 1.1801845157e+000	 4.6001889571e-001	 2.1810361160e+000
 1.1752459457e+000	 4.7249328220e-001	 2.1208674162e+000
 1.1701643855e+000	 4.8494154436e-001	 2.0625778436e+000
 1.1649398100e+000	 4.9736131699e-001	 2.0073636896e+000
 1.2171349809e+000	 3.7412125651e-001	 2.5724434337e+000
 1.2131717850e+000	 3.8677965725e-001	 2.5214578030e+000
 1.2090663899e+000	 3.9942805371e-001	 2.4672218117e+000
 1.2048184334e+000	 4.1206417303e-001	 2.4101243065e+000
 1.2004275993e+000	 4.2468572387e-001	 2.3506581076e+000
 1.1958936182e+000	 4.3729039759e-001	 2.2894242197e+000
 1.1912162682e+000	 4.4987586936e-001	 2.2271355384e+000
 1.1863953757e+000	 4.6243979930e-001	 2.1646200022e+000
 1.1814308159e+000	 4.7497983372e-001	 2.1028231421e+000
 1.1763225133e+000	 4.8749360633e-001	 2.0428099833e+000
 1.1710704429e+000	 4.9997873948e-001	 1.9857662558e+000
 1.2235067648e+000	 3.7607980657e-001	 2.5660596326e+000
 1.2195228213e+000	 3.8880447489e-001	 2.5136094617e+000
 1.2153959342e+000	 4.0151908656e-001	 2.4579774325e+000
 1.2111257393e+000	 4.1422135681e-001	 2.3995218894e+000
 1.2067119189e+000	 4.2690898233e-001	 2.3387071361e+000
 1.2021542020e+000	 4.3957964237e-001	 2.2761078663e+000
 1.1974523658e+000	 4.5223099993e-001	 2.2124130781e+000
 1.1926062356e+000	 4.6486070290e-001	 2.1484294216e+000
 1.1876156860e+000	 4.7746638525e-001	 2.0850839305e+000
 1.1824806412e+000	 4.9004566830e-001	 2.0234260892e+000
 1.1772010758e+000	 5.0259616196e-001	 1.9646291907e+000
 1.2298785487e+000	 3.7803835663e-001	 2.5595123598e+000
 1.2258738576e+000	 3.9082929253e-001	 2.5056120894e+000
 1.2217254784e+000	 4.0361011941e-001	 2.4486154775e+000
 1.2174330452e+000	 4.1637854060e-001	 2.3888475928e+000
 1.2129962384e+000	 4.2913224079e-001	 2.3267415469e+000
 1.2084147859e+000	 4.4186888715e-001	 2.2628431554e+000
 1.2036884635e+000	 4.5458613051e-001	 2.1978150714e+000
 1.1988170956e+000	 4.6728160649e-001	 2.1324403394e+000
 1.1938005561e+000	 4.7995293677e-001	 2.0676253180e+000
 1.1886387690e+000	 4.9259773027e-001	 2.0044019221e+000
 1.1833317087e+000	 5.0521358444e-001	 1.9439291382e+000
 1.2362503325e+000	 3.7999690668e-001	 2.5527985870e+000
 1.2322248939e+000	 3.9285411016e-001	 2.4974579180e+000
 1.2280550227e+000	 4.0570115226e-001	 2.4391240664e+000
 1.2237403511e+000	 4.1853572439e-001	 2.3780860488e+000
 1.2192805580e+000	 4.3135549925e-001	 2.3147431078e+000
 1.2146753698e+000	 4.4415813193e-001	 2.2496096131e+000
 1.2099245611e+000	 4.5694126108e-001	 2.1833194254e+000
 1.2050279556e+000	 4.6970251009e-001	 2.1166296669e+000
 1.1999854263e+000	 4.8243948829e-001	 2.0504238451e+000
 1.1947968968e+000	 4.9514979223e-001	 1.9857142805e+000
 1.1894623416e+000	 5.0783100693e-001	 1.9236437881e+000
 1.2426221164e+000	 3.8195545674e-001	 2.5459152618e+000
 1.2385759301e+000	 3.9487892780e-001	 2.4891393540e+000
 1.2343845669e+000	 4.0779218511e-001	 2.4294916748e+000
 1.2300476570e+000	 4.2069290818e-001	 2.3672224101e+000
 1.2255648776e+000	 4.3357875771e-001	 2.3026942529e+000
 1.2209359537e+000	 4.4644737671e-001	 2.2363875574e+000
 1.2161606588e+000	 4.5929639165e-001	 2.1689049434e+000
 1.2112388155e+000	 4.7212341368e-001	 2.1009752935e+000
 1.2061702964e+000	 4.8492603981e-001	 2.0334570899e+000
 1.2009550247e+000	 4.9770185420e-001	 1.9673410356e+000
 1.1955929745e+000	 5.1044842941e-001	 1.9037519125e+000
 1.2489939003e+000	 3.8391400680e-001	 2.5388593455e+000
 1.2449269664e+000	 3.9690374544e-001	 2.4806490140e+000
 1.2407141112e+000	 4.0988321796e-001	 2.4197071696e+000
 1.2363549629e+000	 4.2285009197e-001	 2.3562423836e+000
 1.2318491972e+000	 4.3580201617e-001	 2.2905781153e+000
 1.2271965376e+000	 4.4873662148e-001	 2.2231581305e+000
 1.2223967565e+000	 4.6165152222e-001	 2.1545513570e+000
 1.2174496755e+000	 4.7454431727e-001	 2.0854561200e+000
 1.2123551666e+000	 4.8741259133e-001	 2.0167037013e+000
 1.2071131525e+000	 5.0025391617e-001	 1.9492611653e+000
 1.2017236074e+000	 5.1306585189e-001	 1.8842334017e+000
 1.2553656842e+000	 3.8587255685e-001	 2.5316278508e+000
 1.2512780027e+000	 3.9892856308e-001	 2.4719797611e+000
 1.2470436554e+000	 4.1197425081e-001	 2.4097598433e+000
 1.2426622688e+000	 4.2500727575e-001	 2.3451322639e+000
 1.2381335168e+000	 4.3802527462e-001	 2.2783785598e+000
 1.2334571215e+000	 4.5102586626e-001	 2.2099033309e+000
 1.2286328541e+000	 4.6400665280e-001	 2.1402393586e+000
 1.2236605354e+000	 4.7696522087e-001	 2.0700520909e+000
 1.2185400367e+000	 4.8989914286e-001	 2.0001434331e+000
 1.2132712804e+000	 5.0280597814e-001	 1.9314547896e+000
 1.2078542403e+000	 5.1568327437e-001	 1.8650693010e+000
 1.2617374680e+000	 3.8783110691e-001	 2.5242178791e+000
 1.2576290389e+000	 4.0095338072e-001	 2.4631247408e+000
 1.2533731997e+000	 4.1406528366e-001	 2.3996394481e+000
 1.2489695747e+000	 4.2716445954e-001	 2.3338789668e+000
 1.2444178364e+000	 4.4024853308e-001	 2.2660802156e+000
 1.2397177054e+000	 4.5331511104e-001	 2.1966060458e+000
 1.2348689518e+000	 4.6636178337e-001	 2.1259506342e+000
 1.2298713954e+000	 4.7938612446e-001	 2.0547442276e+000
 1.2247249069e+000	 4.9238569438e-001	 1.9837571771e+000
 1.2194294082e+000	 5.0535804010e-001	 1.9139032053e+000
 1.2139848731e+000	 5.1830069686e-001	 1.8462418472e+000
 1.2681092519e+000	 3.8978965697e-001	 2.5166266580e+000
 1.2639800752e+000	 4.0297819836e-001	 2.4540774160e+000
 1.2597027439e+000	 4.1615631651e-001	 2.3893362308e+000
 1.2552768807e+000	 4.2932164333e-001	 2.3224700626e+000
 1.2507021560e+000	 4.4247179154e-001	 2.2536685093e+000
 1.2459782893e+000	 4.5560435582e-001	 2.1832500845e+000
 1.2411050494e+000	 4.6871691394e-001	 2.1116678961e+000
 1.2360822553e+000	 4.8180702806e-001	 2.0395146617e+000
 1.2309097770e+000	 4.9487224590e-001	 1.9675269978e+000
 1.2255875360e+000	 5.0791010207e-001	 1.8965889211e+000
 1.2201155060e+000	 5.2091811934e-001	 1.8277345049e+000
 1.2744810358e+000	 3.9174820702e-001	 2.5088515776e+000
 1.2703311115e+000	 4.0500301600e-001	 2.4448316032e+000
 1.2660322882e+000	 4.1824734936e-001	 2.3788409670e+000
 1.2615841866e+000	 4.3147882712e-001	 2.3108938100e+000
 1.2569864756e+000	 4.4469505000e-001	 2.2411296981e+000
 1.2522388732e+000	 4.5789360059e-001	 2.1698202105e+000
 1.2473411471e+000	 4.7107204451e-001	 2.0973749155e+000
 1.2422931153e+000	 4.8422793165e-001	 2.0243466686e+000
 1.2370946472e+000	 4.9735879742e-001	 1.9514361662e+000
 1.2317456639e+000	 5.1046216404e-001	 1.8794956933e+000
 1.2262461389e+000	 5.2353554182e-001	 1.8095320044e+000
 1.1649398100e+000	 4.9736131699e-001	 2.0073636896e+000
 1.1595730604e+000	 5.0974836916e-001	 1.9501206473e+000
 1.1540634406e+000	 5.2210218360e-001	 1.8857254652e+000
 1.1484110790e+000	 5.3442037070e-001	 1.8155333698e+000
 1.1426161556e+000	 5.4670053483e-001	 1.7409976078e+000
 1.1366789026e+000	 5.5894027569e-001	 1.6636666624e+000
 1.1305996047e+000	 5.7113718971e-001	 1.5851806485e+000
 1.1243785995e+000	 5.8328887144e-001	 1.5072668735e+000
 1.1180162775e+000	 5.9539291498e-001	 1.4317345548e+000
 1.1115130826e+000	 6.0744691540e-001	 1.3604686889e+000
 1.1048695121e+000	 6.1944847019e-001	 1.2954230741e+000
 1.1710704429e+000	 4.9997873948e-001	 1.9857662558e+000
 1.1656754501e+000	 5.1243097997e-001	 1.9264747169e+000
 1.1601368353e+000	 5.2484980781e-001	 1.8597612364e+000
 1.1544547275e+000	 5.3723282082e-001	 1.7870699259e+000
 1.1486293076e+000	 5.4957761075e-001	 1.7099471495e+000
 1.1426608091e+000	 5.6188176469e-001	 1.6300386247e+000
 1.1365495182e+000	 5.7414286641e-001	 1.5490856742e+000
 1.1302957742e+000	 5.8635849779e-001	 1.4689206144e+000
 1.1238999698e+000	 5.9852624029e-001	 1.3914612708e+000
 1.1173625510e+000	 6.1064367630e-001	 1.3187046151e+000
 1.1106840180e+000	 6.2270839069e-001	 1.2527195267e+000
 1.1772010758e+000	 5.0259616196e-001	 1.9646291907e+000
 1.1717778399e+000	 5.1511359077e-001	 1.9033641303e+000
 1.1662102301e+000	 5.2759743201e-001	 1.8344091797e+000
 1.1604983760e+000	 5.4004527093e-001	 1.7592988704e+000
 1.1546424596e+000	 5.5245468668e-001	 1.6796742289e+000
 1.1486427157e+000	 5.6482325369e-001	 1.5972797596e+000
 1.1424994317e+000	 5.7714854311e-001	 1.5139595503e+000
 1.1362129490e+000	 5.8942812415e-001	 1.4316524847e+000
 1.1297836620e+000	 6.0165956560e-001	 1.3523865509e+000
 1.1232120195e+000	 6.1384043721e-001	 1.2782722425e+000
 1.1164985239e+000	 6.2596831119e-001	 1.2114950530e+000
 1.1833317087e+000	 5.0521358444e-001	 1.9439291382e+000
 1.1778802296e+000	 5.1779620157e-001	 1.8807659875e+000
 1.1722836248e+000	 5.3034505622e-001	 1.8096453064e+000
 1.1665420245e+000	 5.4285772105e-001	 1.7321935402e+000
 1.1606556117e+000	 5.5533176260e-001	 1.6501478853e+000
 1.1546246222e+000	 5.6776474270e-001	 1.5653531520e+000
 1.1484493453e+000	 5.8015421981e-001	 1.4797577206e+000
 1.1421301237e+000	 5.9249775051e-001	 1.3954085734e+000
 1.1356673543e+000	 6.0479289091e-001	 1.3144453934e+000
 1.1290614879e+000	 6.1703719812e-001	 1.2390937241e+000
 1.1223130297e+000	 6.2922823170e-001	 1.1716571906e+000
 1.1894623416e+000	 5.0783100693e-001	 1.9236437881e+000
 1.1839826194e+000	 5.2047881238e-001	 1.8586584388e+000
 1.1783570195e+000	 5.3309268043e-001	 1.7854467007e+000
 1.1725856730e+000	 5.4567017117e-001	 1.7057283861e+000
 1.1666687637e+000	 5.5820883853e-001	 1.6213383321e+000
 1.1606065287e+000	 5.7070623170e-001	 1.5342231404e+000
 1.1543992588e+000	 5.8315989651e-001	 1.4464369806e+000
 1.1480472985e+000	 5.9556737686e-001	 1.3601364395e+000
 1.1415510466e+000	 6.0792621622e-001	 1.2775744049e+000
 1.1349109564e+000	 6.2023395902e-001	 1.2010929791e+000
 1.1281275356e+000	 6.3248815220e-001	 1.1331154226e+000
 1.1955929745e+000	 5.1044842941e-001	 1.9037519125e+000
 1.1900850091e+000	 5.2316142318e-001	 1.8370207225e+000
 1.1844304142e+000	 5.3584030463e-001	 1.7617915577e+000
 1.1786293215e+000	 5.4848262128e-001	 1.6798790112e+000
 1.1726819157e+000	 5.6108591446e-001	 1.5932169942e+000
 1.1665884353e+000	 5.7364772070e-001	 1.5038553520e+000
 1.1603491723e+000	 5.8616557321e-001	 1.4139555113e+000
 1.1539644732e+000	 5.9863700322e-001	 1.3257851428e+000
 1.1474347389e+000	 6.1105954153e-001	 1.2417118268e+000
 1.1407604249e+000	 6.2343071993e-001	 1.1641957156e+000
 1.1339420415e+000	 6.3574807270e-001	 1.0957811946e+000
 1.2017236074e+000	 5.1306585189e-001	 1.8842334017e+000
 1.1961873988e+000	 5.2584403398e-001	 1.8158332023e+000
 1.1905038089e+000	 5.3858792884e-001	 1.7386592226e+000
 1.1846729700e+000	 5.5129507140e-001	 1.6546222097e+000
 1.1786950678e+000	 5.6396299038e-001	 1.5657565465e+000
 1.1725703418e+000	 5.7658920971e-001	 1.4742167405e+000
 1.1662990858e+000	 5.8917124991e-001	 1.3822729137e+000
 1.1598816480e+000	 6.0170662957e-001	 1.2923052750e+000
 1.1533184312e+000	 6.1419286684e-001	 1.2067975630e+000
 1.1466098933e+000	 6.2662748084e-001	 1.1283294534e+000
 1.1397565474e+000	 6.3900799320e-001	 1.0595679318e+000
 1.2078542403e+000	 5.1568327437e-001	 1.8650693010e+000
 1.2022897886e+000	 5.2852664479e-001	 1.7950774052e+000
 1.1965772037e+000	 5.4133555305e-001	 1.7160302285e+000
 1.1907166185e+000	 5.5410752152e-001	 1.6299360055e+000
 1.1847082198e+000	 5.6684006631e-001	 1.5389309513e+000
 1.1785522484e+000	 5.7953069871e-001	 1.4452756219e+000
 1.1722489994e+000	 5.9217692661e-001	 1.3513502437e+000
 1.1657988227e+000	 6.0477625593e-001	 1.2596489920e+000
 1.1592021235e+000	 6.1732619215e-001	 1.1727732085e+000
 1.1524593618e+000	 6.2982424174e-001	 1.0934235479e+000
 1.1455710533e+000	 6.4226791370e-001	 1.0243910580e+000
 1.2139848731e+000	 5.1830069686e-001	 1.8462418472e+000
 1.2083921783e+000	 5.3120925559e-001	 1.7747360599e+000
 1.2026505984e+000	 5.4408317725e-001	 1.6938863362e+000
 1.1967602670e+000	 5.5691997163e-001	 1.6057996913e+000
 1.1907213719e+000	 5.6971714224e-001	 1.5127154973e+000
 1.1845341549e+000	 5.8247218772e-001	 1.4170017122e+000
 1.1781989129e+000	 5.9518260331e-001	 1.3211500464e+000
 1.1717159975e+000	 6.0784588229e-001	 1.2277700457e+000
 1.1650858158e+000	 6.2045951746e-001	 1.1395820776e+000
 1.1583088302e+000	 6.3302100265e-001	 1.0594092147e+000
 1.1513855592e+000	 6.4552783421e-001	 9.9016801509e-001
 1.2201155060e+000	 5.2091811934e-001	 1.8277345049e+000
 1.2144945681e+000	 5.3389186639e-001	 1.7547931348e+000
 1.2087239931e+000	 5.4683080146e-001	 1.6722105722e+000
 1.2028039155e+000	 5.5973242175e-001	 1.5821938675e+000
 1.1967345239e+000	 5.7259421816e-001	 1.4870868378e+000
 1.1905160615e+000	 5.8541367672e-001	 1.3893661642e+000
 1.1841488264e+000	 5.9818828001e-001	 1.2916363925e+000
 1.1776331723e+000	 6.1091550864e-001	 1.1966238171e+000
 1.1709695080e+000	 6.2359284277e-001	 1.1071692338e+000
 1.1641582987e+000	 6.3621776356e-001	 1.0262195542e+000
 1.1572000651e+000	 6.4878775471e-001	 9.5681828294e-001
 1.2262461389e+000	 5.2353554182e-001	 1.8095320044e+000
 1.2205969578e+000	 5.3657447720e-001	 1.7352338762e+000
 1.2147973878e+000	 5.4957842567e-001	 1.6509872688e+000
 1.2088475640e+000	 5.6254487187e-001	 1.5591004817e+000
 1.2027476759e+000	 5.7547129409e-001	 1.4620230297e+000
 1.1964979680e+000	 5.8835516572e-001	 1.3623416055e+000
 1.1900987399e+000	 6.0119395671e-001	 1.2627749130e+000
 1.1835503470e+000	 6.1398513500e-001	 1.1661673491e+000
 1.1768532003e+000	 6.2672616808e-001	 1.0754815190e+000
 1.1700077671e+000	 6.3941452446e-001	 9.9378957829e-001
 1.1630145709e+000	 6.5204767521e-001	 9.2426340083e-001
 1.1048695121e+000	 6.1944847019e-001	 1.2954230741e+000
 1.0980850890e+000	 6.3139696880e-001	 1.2302804622e+000
 1.0911614050e+000	 6.4328821307e-001	 1.1597176112e+000
 1.0840991196e+000	 6.5511981619e-001	 1.0872193893e+000
 1.0768989460e+000	 6.6688939972e-001	 1.0162856232e+000
 1.0695616509e+000	 6.7859459506e-001	 9.4407536560e-001
 1.0620880547e+000	 6.9023304492e-001	 8.6704733653e-001
 1.0544790311e+000	 7.0180240484e-001	 7.8705043595e-001
 1.0467355068e+000	 7.1330034468e-001	 7.0588374551e-001
 1.0388584616e+000	 7.2472455010e-001	 6.2529287284e-001
 1.0308489278e+000	 7.3607272405e-001	 5.4696658501e-001
 1.1106840180e+000	 6.2270839069e-001	 1.2527195267e+000
 1.1038638911e+000	 6.3471976969e-001	 1.1871370941e+000
 1.0969037704e+000	 6.4667359302e-001	 1.1165190635e+000
 1.0898043189e+000	 6.5856746135e-001	 1.0443726016e+000
 1.0825662535e+000	 6.7039898370e-001	 9.7365053680e-001
 1.0751903450e+000	 6.8216577901e-001	 8.9909678535e-001
 1.0676774181e+000	 6.9386547758e-001	 8.1997595492e-001
 1.0600283511e+000	 7.0549572262e-001	 7.3811754025e-001
 1.0522440756e+000	 7.1705417172e-001	 6.5529823016e-001
 1.0443255766e+000	 7.2853849837e-001	 5.7323824866e-001
 1.0362738916e+000	 7.3994639342e-001	 4.9359799861e-001
 1.1164985239e+000	 6.2596831119e-001	 1.2114950530e+000
 1.1096426931e+000	 6.3804257057e-001	 1.1456288693e+000
 1.1026461357e+000	 6.5005897298e-001	 1.0751104691e+000
 1.0955095181e+000	 6.6201510651e-001	 1.0034644177e+000
 1.0882335610e+000	 6.7390856768e-001	 9.3211762870e-001
 1.0808190391e+000	 6.8573696295e-001	 8.5542117000e-001
 1.0732667816e+000	 6.9749791024e-001	 7.7438722646e-001
 1.0655776711e+000	 7.0918904040e-001	 6.9082084688e-001
 1.0577526445e+000	 7.2080799876e-001	 6.0647139020e-001
 1.0497926915e+000	 7.3235244663e-001	 5.2302887358e-001
 1.0416988555e+000	 7.4382006279e-001	 4.4212063648e-001
 1.1223130297e+000	 6.2922823170e-001	 1.1716571906e+000
 1.1154214952e+000	 6.4136537145e-001	 1.1056483264e+000
 1.1083885011e+000	 6.5344435293e-001	 1.0353704485e+000
 1.1012147174e+000	 6.6546275167e-001	 9.6436072255e-001
 1.0939008685e+000	 6.7741815166e-001	 8.9161722805e-001
 1.0864477332e+000	 6.8930814690e-001	 8.1297342786e-001
 1.0788561450e+000	 7.0113034290e-001	 7.3020235069e-001
 1.0711269912e+000	 7.1288235817e-001	 6.4507965043e-001
 1.0632612133e+000	 7.2456182580e-001	 5.5932250842e-001
 1.0552598065e+000	 7.3616639490e-001	 4.7458599853e-001
 1.0471238193e+000	 7.4769373215e-001	 3.9245978185e-001
 1.1281275356e+000	 6.3248815220e-001	 1.1331154226e+000
 1.1212002972e+000	 6.4468817233e-001	 1.0670901205e+000
 1.1141308665e+000	 6.5682973289e-001	 9.9717987231e-001
 1.1069199166e+000	 6.6891039683e-001	 9.2675114831e-001
 1.0995681759e+000	 6.8092773564e-001	 8.5208341546e-001
 1.0920764273e+000	 6.9287933085e-001	 7.7168228834e-001
 1.0844455084e+000	 7.0476277556e-001	 6.8734638414e-001
 1.0766763112e+000	 7.1657567595e-001	 6.0081710301e-001
 1.0687697821e+000	 7.2831565284e-001	 5.1377468868e-001
 1.0607269215e+000	 7.3998034316e-001	 4.2783462052e-001
 1.0525487832e+000	 7.5156740152e-001	 3.4454434888e-001
 1.1339420415e+000	 6.3574807270e-001	 1.0957811946e+000
 1.1269790993e+000	 6.4801097322e-001	 1.0298510349e+000
 1.1198732318e+000	 6.6021511284e-001	 9.6042186756e-001
 1.1126251159e+000	 6.7235804199e-001	 8.8990711062e-001
 1.1052354834e+000	 6.8443731961e-001	 8.1345392977e-001
 1.0977051215e+000	 6.9645051479e-001	 7.3148020595e-001
 1.0900348718e+000	 7.0839520821e-001	 6.4574814258e-001
 1.0822256313e+000	 7.2026899373e-001	 5.5796011575e-001
 1.0742783510e+000	 7.3206947988e-001	 4.6975475780e-001
 1.0661940364e+000	 7.4379429143e-001	 3.8270338603e-001
 1.0579737470e+000	 7.5544107089e-001	 2.9830678874e-001
 1.1397565474e+000	 6.3900799320e-001	 1.0595679318e+000
 1.1327579014e+000	 6.5133377410e-001	 9.9382999252e-001
 1.1256155972e+000	 6.6360049280e-001	 9.2498182489e-001
 1.1183303151e+000	 6.7580568715e-001	 8.5371951419e-001
 1.1109027909e+000	 6.8794690359e-001	 7.7567007631e-001
 1.1033338156e+000	 7.0002169874e-001	 6.9230326591e-001
 1.0956242353e+000	 7.1202764087e-001	 6.0534010489e-001
 1.0877749513e+000	 7.2396231151e-001	 5.1643926204e-001
 1.0797869198e+000	 7.3582330692e-001	 4.2719316912e-001
 1.0716611514e+000	 7.4760823969e-001	 3.3912449596e-001
 1.0633987109e+000	 7.5931474026e-001	 2.5368299707e-001
 1.1455710533e+000	 6.4226791370e-001	 1.0243910580e+000
 1.1385367034e+000	 6.5465657498e-001	 9.5892806981e-001
 1.1313579625e+000	 6.6698587276e-001	 8.9074480733e-001
 1.1240355144e+000	 6.7925333231e-001	 8.1813979421e-001
 1.1165700984e+000	 6.9145648757e-001	 7.3867663665e-001
 1.1089625097e+000	 7.0359288269e-001	 6.5409109128e-001
 1.1012135987e+000	 7.1566007353e-001	 5.6605831853e-001
 1.0933242714e+000	 7.2765562928e-001	 4.7618868222e-001
 1.0852954887e+000	 7.3957713396e-001	 3.8602390753e-001
 1.0771282663e+000	 7.5142218796e-001	 2.9703361211e-001
 1.0688236747e+000	 7.6318840962e-001	 2.1061222302e-001
 1.1513855592e+000	 6.4552783421e-001	 9.9016801509e-001
 1.1443155055e+000	 6.5797937586e-001	 9.2504851065e-001
 1.1371003279e+000	 6.7037125271e-001	 8.5720176733e-001
 1.1297407136e+000	 6.8270097747e-001	 7.8312268567e-001
 1.1222374059e+000	 6.9496607155e-001	 7.0242177973e-001
 1.1145912038e+000	 7.0716406663e-001	 6.1678675153e-001
 1.1068029621e+000	 7.1929250619e-001	 5.2784230648e-001
 1.0988735914e+000	 7.3134894706e-001	 4.3714598989e-001
 1.0908040575e+000	 7.4333096100e-001	 3.4618439609e-001
 1.0825953813e+000	 7.5523613623e-001	 2.5636976510e-001
 1.0742486386e+000	 7.6706207899e-001	 1.6903697958e-001
 1.1572000651e+000	 6.4878775471e-001	 9.5681828294e-001
 1.1500943075e+000	 6.6130217675e-001	 8.9209674172e-001
 1.1428426933e+000	 6.7375663267e-001	 8.2400909697e-001
 1.1354459129e+000	 6.8614862262e-001	 7.4862613918e-001
 1.1279047134e+000	 6.9847565553e-001	 6.6685697432e-001
 1.1202198979e+000	 7.1073525058e-001	 5.8033667253e-001
 1.1123923256e+000	 7.2292493885e-001	 4.9063497565e-001
 1.1044229115e+000	 7.3504226484e-001	 3.9925217965e-001
 1.0963126263e+000	 7.4708478804e-001	 3.0761540407e-001
 1.0880624963e+000	 7.5905008449e-001	 2.1707526375e-001
 1.0796736024e+000	 7.7093574836e-001	 1.2890295528e-001
 1.1630145709e+000	 6.5204767521e-001	 9.2426340083e-001
 1.1558731096e+000	 6.6462497763e-001	 8.5998038876e-001
 1.1485850586e+000	 6.7714201262e-001	 7.9113560664e-001
 1.1411511121e+000	 6.8959626778e-001	 7.1461123795e-001
 1.1335720209e+000	 7.0198523951e-001	 6.3193690279e-001
 1.1258485920e+000	 7.1430643453e-001	 5.4469054793e-001
 1.1179816890e+000	 7.2655737151e-001	 4.5438252670e-001
 1.1099722315e+000	 7.3873558262e-001	 3.6245153626e-001
 1.1018211952e+000	 7.5083861508e-001	 2.7026095645e-001
 1.0935296112e+000	 7.6286403276e-001	 1.7909560584e-001
 1.0850985663e+000	 7.7480941773e-001	 9.0158927244e-002
 1.0308489278e+000	 7.3607272405e-001	 5.4696658501e-001
 1.0227079895e+000	 7.4734258802e-001	 4.7225898550e-001
 1.0144367816e+000	 7.5853188269e-001	 4.0098274381e-001
 1.0060364898e+000	 7.6963837020e-001	 3.3243172762e-001
 9.9750835095e-001	 7.8065983576e-001	 2.6585008126e-001
 9.8885365199e-001	 7.9159408914e-001	 2.0043406914e-001
 9.8007372959e-001	 8.0243896606e-001	 1.3533421443e-001
 9.7116996942e-001	 8.1319232961e-001	 6.9657720607e-002
 9.6214380549e-001	 8.2385207162e-001	 2.4711620610e-003
 9.5299671937e-001	 8.3441611403e-001	-6.7196572957e-002
 9.4373023940e-001	 8.4488241019e-001	-1.4035110517e-001
 1.0362738916e+000	 7.3994639342e-001	 4.9359799861e-001
 1.0280901107e+000	 7.5127556637e-001	 4.1780433411e-001
 1.0197753745e+000	 7.6252374603e-001	 3.4573922837e-001
 1.0113308753e+000	 7.7368868273e-001	 2.7666024245e-001
 1.0027578561e+000	 7.8476815005e-001	 2.0977456353e-001
 9.9405761076e-001	 7.9575994623e-001	 1.4424095866e-001
 9.8523148298e-001	 8.0666189559e-001	 7.9172032388e-002
 9.7628086572e-001	 8.1747184998e-001	 1.3636775834e-002
 9.6720720054e-001	 8.2818769014e-001	-5.3336607688e-002
 9.5801197680e-001	 8.3880732706e-001	-1.2275761746e-001
 9.4869673089e-001	 8.4932870334e-001	-1.9567012967e-001
 1.0416988555e+000	 7.4382006279e-001	 4.4212063648e-001
 1.0334722319e+000	 7.5520854472e-001	 3.6525411627e-001
 1.0251139675e+000	 7.6651560936e-001	 2.9239450973e-001
 1.0166252607e+000	 7.7773899526e-001	 2.2276757845e-001
 1.0080073612e+000	 7.8887646435e-001	 1.5554802273e-001
 9.9926156952e-001	 7.9992580331e-001	 8.9861539151e-002
 9.9038923636e-001	 8.1088482512e-001	 2.4787191330e-002
 9.8139176202e-001	 8.2175137035e-001	-4.0639919460e-002
 9.7227059559e-001	 8.3252330866e-001	-1.0742569902e-001
 9.6302723423e-001	 8.4319854009e-001	-1.7661383806e-001
 9.5366322238e-001	 8.5377499649e-001	-2.4928234284e-001
 1.0471238193e+000	 7.4769373215e-001	 3.9245978185e-001
 1.0388543531e+000	 7.5914152308e-001	 3.1453862993e-001
 1.0304525605e+000	 7.7050747269e-001	 2.4088370450e-001
 1.0219196462e+000	 7.8178930780e-001	 1.7069341119e-001
 1.0132568664e+000	 7.9298477864e-001	 1.0311436899e-001
 1.0044655283e+000	 8.0409166040e-001	 3.7243565688e-002
 9.9554698975e-001	 8.1510775465e-001	-2.7869164450e-002
 9.8650265832e-001	 8.2603089072e-001	-9.3218354028e-002
 9.7733399064e-001	 8.3685892718e-001	-1.5983982305e-001
 9.6804249166e-001	 8.4758975313e-001	-2.2880732486e-001
 9.5862971387e-001	 8.5822128965e-001	-3.0122893808e-001
 1.0525487832e+000	 7.5156740152e-001	 3.4454434888e-001
 1.0442364743e+000	 7.6307450143e-001	 2.6559167112e-001
 1.0357911535e+000	 7.7449933603e-001	 1.9114530120e-001
 1.0272140317e+000	 7.8583962033e-001	 1.2038066984e-001
 1.0185063715e+000	 7.9709309293e-001	 5.2420657163e-002
 1.0096694870e+000	 8.0825751749e-001	-1.3662160332e-002
 1.0007047431e+000	 8.1933068418e-001	-7.8842930823e-002
 9.9161355462e-001	 8.3031041109e-001	-1.4414163017e-001
 9.8239738569e-001	 8.4119454569e-001	-2.1061986348e-001
 9.7305774910e-001	 8.5198096617e-001	-2.7937738417e-001
 9.6359620536e-001	 8.6266758280e-001	-3.5154835182e-001
 1.0579737470e+000	 7.5544107089e-001	 2.9830678874e-001
 1.0496185955e+000	 7.6700747978e-001	 2.1835044325e-001
 1.0411297465e+000	 7.7849119936e-001	 1.4312107267e-001
 1.0325084171e+000	 7.8988993286e-001	 7.1775452843e-002
 1.0237558766e+000	 8.0120140722e-001	 3.4170054320e-003
 1.0148734458e+000	 8.1242337458e-001	-6.2901869588e-002
 1.0058624965e+000	 8.2355361371e-001	-1.2817711949e-001
 9.9672445093e-001	 8.3458993147e-001	-1.9345003688e-001
 9.8746078074e-001	 8.4553016421e-001	-2.5980394750e-001
 9.7807300653e-001	 8.5637217920e-001	-3.2836060731e-001
 9.6856269685e-001	 8.6711387595e-001	-4.0027633074e-001
 1.0633987109e+000	 7.5931474026e-001	 2.5368299707e-001
 1.0550007167e+000	 7.7094045813e-001	 1.7275546777e-001
 1.0464683395e+000	 7.8248306269e-001	 9.6755989935e-002
 1.0378028026e+000	 7.9394024539e-001	 2.4826944777e-002
 1.0290053818e+000	 8.0530972151e-001	-4.3943484812e-002
 1.0200774046e+000	 8.1658923167e-001	-1.1051890218e-001
 1.0110202499e+000	 8.2777654324e-001	-1.7591193264e-001
 1.0018353472e+000	 8.3886945184e-001	-2.4118112204e-001
 9.9252417579e-001	 8.4986578273e-001	-3.0742751578e-001
 9.8308826396e-001	 8.6076339224e-001	-3.7579093866e-001
 9.7352918834e-001	 8.7156016910e-001	-4.4744599815e-001
 1.0688236747e+000	 7.6318840962e-001	 2.1061222302e-001
 1.0603828379e+000	 7.7487343649e-001	 1.2875049619e-001
 1.0518069325e+000	 7.8647492603e-001	 5.1998137220e-002
 1.0430971881e+000	 7.9799055792e-001	-2.0512665633e-002
 1.0342548869e+000	 8.0941803581e-001	-8.9704808070e-002
 1.0252813633e+000	 8.2075508875e-001	-1.5655378395e-001
 1.0161780033e+000	 8.3199947277e-001	-2.2208483675e-001
 1.0069462435e+000	 8.4314897221e-001	-2.8736976380e-001
 9.9758757084e-001	 8.5420140125e-001	-3.5352339159e-001
 9.8810352139e-001	 8.6515460527e-001	-4.2169974294e-001
 9.7849567983e-001	 8.7600646225e-001	-4.9308791958e-001
 1.0742486386e+000	 7.6706207899e-001	 1.6903697958e-001
 1.0657649591e+000	 7.7880641484e-001	 8.6282423450e-002
 1.0571455255e+000	 7.9046678936e-001	 8.7986282630e-003
 1.0483915736e+000	 8.0204087046e-001	-6.4288266322e-002
 1.0395043920e+000	 8.1352635010e-001	-1.3390813276e-001
 1.0304853221e+000	 8.2492094584e-001	-2.0104430182e-001
 1.0213357567e+000	 8.3622240230e-001	-2.6673063528e-001
 1.0120571398e+000	 8.4742849258e-001	-3.3204824098e-001
 1.0026509659e+000	 8.5853701977e-001	-3.9812184916e-001
 9.9311877882e-001	 8.6954581831e-001	-4.6611587160e-001
 9.8346217132e-001	 8.8045275541e-001	-5.3723016769e-001
 1.0796736024e+000	 7.7093574836e-001	 1.2890295528e-001
 1.0711470803e+000	 7.8273939319e-001	 4.5301202463e-002
 1.0624841185e+000	 7.9445865270e-001	-3.2888476245e-002
 1.0536859590e+000	 8.0609118299e-001	-1.0654190163e-001
 1.0447538972e+000	 8.1763466439e-001	-1.7659187822e-001
 1.0356892809e+000	 8.2908680293e-001	-2.4402557822e-001
 1.0264935101e+000	 8.4044533183e-001	-3.0988154073e-001
 1.0171680361e+000	 8.5170801295e-001	-3.7524630274e-001
 1.0077143609e+000	 8.6287263829e-001	-4.4125068122e-001
 9.9813403625e-001	 8.7393703135e-001	-5.0906572860e-001
 9.8842866281e-001	 8.8489904856e-001	-5.7989838640e-001
 1.0850985663e+000	 7.7480941773e-001	 9.0158927244e-002
 1.0765292015e+000	 7.8667237155e-001	 5.7597599704e-003
 1.0678227115e+000	 7.9845051603e-001	-7.3106250068e-002
 1.0589803445e+000	 8.1014149552e-001	-1.4731285097e-001
 1.0500034023e+000	 8.2174297868e-001	-2.1779179072e-001
 1.0408932396e+000	 8.3325266002e-001	-2.8553014448e-001
 1.0316512635e+000	 8.4466826136e-001	-3.5156724559e-001
 1.0222789324e+000	 8.5598753333e-001	-4.1699123741e-001
 1.0127777560e+000	 8.6720825681e-001	-4.8293526584e-001
 1.0031492937e+000	 8.7832824438e-001	-5.5057333538e-001
 9.9339515430e-001	 8.8934534171e-001	-6.2111585438e-001
 9.4373023940e-001	 8.4488241019e-001	-1.4035110517e-001
 9.3434735634e-001	 8.5524739906e-001	-2.1357682320e-001
 9.2484830850e-001	 8.6551067959e-001	-2.8310570084e-001
 9.1523475942e-001	 8.7567030891e-001	-3.4941978040e-001
 9.0550841573e-001	 8.8572438067e-001	-4.1301884548e-001
 8.9567102621e-001	 8.9567102621e-001	-4.7441745497e-001
 8.8572438067e-001	 9.0550841573e-001	-5.3414189452e-001
 8.7567030891e-001	 9.1523475942e-001	-5.9272707127e-001
 8.6551067959e-001	 9.2484830850e-001	-6.5071337823e-001
 8.5524739906e-001	 9.3434735634e-001	-7.0864355476e-001
 8.4488241019e-001	 9.4373023940e-001	-7.6705957006e-001
 9.4869673089e-001	 8.4932870334e-001	-1.9567012967e-001
 9.3926446930e-001	 8.5974823918e-001	-2.6865042095e-001
 9.2971543161e-001	 8.7006553143e-001	-3.3788939954e-001
 9.2005129009e-001	 8.8027862700e-001	-4.0385844258e-001
 9.1027376038e-001	 8.9038560950e-001	-4.6704741180e-001
 9.0038460043e-001	 9.0038460043e-001	-5.2796161515e-001
 8.9038560950e-001	 9.1027376038e-001	-5.8711868220e-001
 8.8027862700e-001	 9.2005129009e-001	-6.4504537997e-001
 8.7006553143e-001	 9.2971543161e-001	-7.0227439631e-001
 8.5974823918e-001	 9.3926446930e-001	-7.5934111829e-001
 8.4932870334e-001	 9.4869673089e-001	-8.1678043326e-001
 9.5366322238e-001	 8.5377499649e-001	-2.4928234284e-001
 9.4418158226e-001	 8.6424907931e-001	-3.2200359484e-001
 9.3458255471e-001	 8.7462038328e-001	-3.9093607701e-001
 9.2486782076e-001	 8.8488694509e-001	-4.5654306036e-001
 9.1503910502e-001	 8.9504683833e-001	-5.1930702192e-001
 9.0509817466e-001	 9.0509817466e-001	-5.7972652638e-001
 8.9504683833e-001	 9.1503910502e-001	-6.3831301785e-001
 8.8488694509e-001	 9.2486782076e-001	-6.9558754905e-001
 8.7462038328e-001	 9.3458255471e-001	-7.5207747613e-001
 8.6424907931e-001	 9.4418158226e-001	-8.0831314737e-001
 8.5377499649e-001	 9.5366322238e-001	-8.6482461437e-001
 9.5862971387e-001	 8.5822128965e-001	-3.0122893808e-001
 9.4909869523e-001	 8.6874991943e-001	-3.7367687594e-001
 9.3944967782e-001	 8.7917523513e-001	-4.4228527845e-001
 9.2968435143e-001	 8.8949526319e-001	-5.0751183582e-001
 9.1980444966e-001	 8.9970806716e-001	-5.6983414464e-001
 9.0981174888e-001	 9.0981174888e-001	-6.2974650196e-001
 8.9970806716e-001	 9.1980444966e-001	-6.8775660563e-001
 8.8949526319e-001	 9.2968435143e-001	-7.4438218928e-001
 8.7917523513e-001	 9.3944967782e-001	-8.0014762082e-001
 8.6874991943e-001	 9.4909869523e-001	-8.5558049385e-001
 8.5822128965e-001	 9.5862971387e-001	-9.1120824144e-001
 9.6359620536e-001	 8.6266758280e-001	-3.5154835182e-001
 9.5401580819e-001	 8.7325075956e-001	-4.2370805895e-001
 9.4431680093e-001	 8.8373008698e-001	-4.9197383878e-001
 9.3450088211e-001	 8.9410358128e-001	-5.5680029330e-001
 9.2456979431e-001	 9.0436929599e-001	-6.1866261107e-001
 9.1452532310e-001	 9.1452532310e-001	-6.7805326600e-001
 9.0436929599e-001	 9.2456979431e-001	-7.3547861864e-001
 8.9410358128e-001	 9.3450088211e-001	-7.9145544905e-001
 8.8373008698e-001	 9.4431680093e-001	-8.4650745136e-001
 8.7325075956e-001	 9.5401580819e-001	-9.0116172019e-001
 8.6266758280e-001	 9.6359620536e-001	-9.5594525946e-001
 9.6856269685e-001	 8.6711387595e-001	-4.0027633074e-001
 9.5893292116e-001	 8.7775159969e-001	-4.7213226777e-001
 9.4918392403e-001	 8.8828493882e-001	-5.4003594628e-001
 9.3931741278e-001	 8.9871189937e-001	-6.0444134093e-001
 9.2933513895e-001	 9.0903052481e-001	-6.6582367377e-001
 9.1923889732e-001	 9.1923889732e-001	-7.2467601003e-001
 9.0903052481e-001	 9.2933513895e-001	-7.8150575249e-001
 8.9871189937e-001	 9.3931741278e-001	-8.3683106456e-001
 8.8828493882e-001	 9.4918392403e-001	-8.9117725307e-001
 8.7775159969e-001	 9.5893292116e-001	-9.4507314196e-001
 8.6711387595e-001	 9.6856269685e-001	-9.9904746847e-001
 9.7352918834e-001	 8.7156016910e-001	-4.4744599815e-001
 9.6385003412e-001	 8.8225243981e-001	-5.1898202028e-001
 9.5405104714e-001	 8.9283979067e-001	-5.8650320558e-001
 9.4413394345e-001	 9.0332021747e-001	-6.5046533155e-001
 9.3410048359e-001	 9.1369175364e-001	-7.1134606534e-001
 9.2395247155e-001	 9.2395247155e-001	-7.6964144883e-001
 9.1369175364e-001	 9.3410048359e-001	-8.2586227823e-001
 9.0332021747e-001	 9.4413394345e-001	-8.8053040958e-001
 8.9283979067e-001	 9.5405104714e-001	-9.3417502184e-001
 8.8225243981e-001	 9.6385003412e-001	-9.8732887012e-001
 8.7156016910e-001	 9.7352918834e-001	-1.0405245615e+000
 9.7849567983e-001	 8.7600646225e-001	-4.9308791958e-001
 9.6876714708e-001	 8.8675327994e-001	-5.6428729238e-001
 9.5891817024e-001	 8.9739464252e-001	-6.3140469994e-001
 9.4895047412e-001	 9.0792853556e-001	-6.9490012295e-001
 9.3886582824e-001	 9.1835298247e-001	-7.5525605634e-001
 9.2866604577e-001	 9.2866604577e-001	-8.1297387582e-001
 9.1835298247e-001	 9.3886582824e-001	-8.6857009490e-001
 9.0792853556e-001	 9.4895047412e-001	-9.2257254477e-001
 8.9739464252e-001	 9.5891817024e-001	-9.7551650991e-001
 8.8675327994e-001	 9.6876714708e-001	-1.0279408529e+000
 8.7600646225e-001	 9.7849567983e-001	-1.0803841624e+000
 9.8346217132e-001	 8.8045275541e-001	-5.3723016769e-001
 9.7368426004e-001	 8.9125412007e-001	-6.0807558133e-001
 9.6378529335e-001	 9.0194949437e-001	-6.7476705277e-001
 9.5376700479e-001	 9.1253685365e-001	-7.3777113737e-001
 9.4363117288e-001	 9.2301421130e-001	-7.9757751255e-001
 9.3337961999e-001	 9.3337961999e-001	-8.5469521785e-001
 9.2301421130e-001	 9.4363117288e-001	-9.0964878146e-001
 9.1253685365e-001	 9.5376700479e-001	-9.6297426653e-001
 9.0194949437e-001	 9.6378529335e-001	-1.0152152713e+000
 8.9125412007e-001	 9.7368426004e-001	-1.0669189178e+000
 8.8045275541e-001	 9.8346217132e-001	-1.1186318635e+000
 9.8842866281e-001	 8.8489904856e-001	-5.7989838640e-001
 9.7860137301e-001	 8.9575496019e-001	-6.5037196839e-001
 9.6865241645e-001	 9.0650434622e-001	-7.1661448855e-001
 9.5858353546e-001	 9.1714517175e-001	-7.7910142050e-001
 9.4839651752e-001	 9.2767544013e-001	-8.3833195177e-001
 9.3809319422e-001	 9.3809319422e-001	-8.9482508946e-001
 9.2767544013e-001	 9.4839651752e-001	-9.4911564832e-001
 9.1714517175e-001	 9.5858353546e-001	-1.0017501555e+000
 9.0650434622e-001	 9.6865241645e-001	-1.0532827070e+000
 8.9575496019e-001	 9.7860137301e-001	-1.1042708125e+000
 8.8489904856e-001	 9.8842866281e-001	-1.1552712629e+000
 9.9339515430e-001	 8.8934534171e-001	-6.2111585438e-001
 9.8351848597e-001	 9.0025580032e-001	-6.9119918081e-001
 9.7351953956e-001	 9.1105919807e-001	-7.5696889313e-001
 9.6340006614e-001	 9.2175348984e-001	-8.1891169982e-001
 9.5316186217e-001	 9.3233666896e-001	-8.7753859995e-001
 9.4280676844e-001	 9.4280676844e-001	-9.3338084660e-001
 9.3233666896e-001	 9.5316186217e-001	-9.8698578838e-001
 9.2175348984e-001	 9.6340006614e-001	-1.0389126245e+000
 9.1105919807e-001	 9.7351953956e-001	-1.0897281097e+000
 9.0025580032e-001	 9.8351848597e-001	-1.1400022466e+000
 8.8934534171e-001	 9.9339515430e-001	-1.1903040018e+000
 8.4488241019e-001	 9.4373023940e-001	-7.6705957006e-001
 8.3441611403e-001	 9.5299671937e-001	-8.2340644129e-001
 8.2385207162e-001	 9.6214380549e-001	-8.7541370170e-001
 8.1319232961e-001	 9.7116996942e-001	-9.2405499663e-001
 8.0243896606e-001	 9.8007372959e-001	-9.7027576902e-001
 7.9159408914e-001	 9.8885365199e-001	-1.0149900850e+000
 7.8065983576e-001	 9.9750835095e-001	-1.0590776667e+000
 7.6963837020e-001	 1.0060364898e+000	-1.1033811555e+000
 7.5853188269e-001	 1.0144367816e+000	-1.1487036249e+000
 7.4734258802e-001	 1.0227079895e+000	-1.1958063633e+000
 7.3607272405e-001	 1.0308489278e+000	-1.2454069432e+000
 8.4932870334e-001	 9.4869673089e-001	-8.1678043326e-001
 8.3880732706e-001	 9.5801197680e-001	-8.7194562719e-001
 8.2818769014e-001	 9.6720720054e-001	-9.2251051153e-001
 8.1747184998e-001	 9.7628086572e-001	-9.6949483351e-001
 8.0666189559e-001	 9.8523148298e-001	-1.0138893089e+000
 7.9575994623e-001	 9.9405761076e-001	-1.0566522797e+000
 7.8476815005e-001	 1.0027578561e+000	-1.0987065852e+000
 7.7368868273e-001	 1.0113308753e+000	-1.1409366720e+000
 7.6252374603e-001	 1.0197753745e+000	-1.1841859619e+000
 7.5127556637e-001	 1.0280901107e+000	-1.2292544994e+000
 7.3994639342e-001	 1.0362738916e+000	-1.2768968950e+000
 8.5377499649e-001	 9.5366322238e-001	-8.6482461437e-001
 8.4319854009e-001	 9.6302723423e-001	-9.1887213434e-001
 8.3252330866e-001	 9.7227059559e-001	-9.6806863779e-001
 8.2175137035e-001	 9.8139176202e-001	-1.0134764146e+000
 8.1088482512e-001	 9.9038923636e-001	-1.0561279175e+000
 7.9992580331e-001	 9.9926156952e-001	-1.0970222541e+000
 7.8887646435e-001	 1.0080073612e+000	-1.1371218993e+000
 7.7773899526e-001	 1.0166252607e+000	-1.1773496543e+000
 7.6651560936e-001	 1.0251139675e+000	-1.2185858718e+000
 7.5520854472e-001	 1.0334722319e+000	-1.2616659714e+000
 7.4382006279e-001	 1.0416988555e+000	-1.3073782602e+000
 8.5822128965e-001	 9.5862971387e-001	-9.1120824144e-001
 8.4758975313e-001	 9.6804249166e-001	-9.6419729067e-001
 8.3685892718e-001	 9.7733399064e-001	-1.0120950886e+000
 8.2603089072e-001	 9.8650265832e-001	-1.0560029679e+000
 8.1510775465e-001	 9.9554698975e-001	-1.0969916408e+000
 8.0409166040e-001	 1.0044655283e+000	-1.1360975276e+000
 7.9298477864e-001	 1.0132568664e+000	-1.1743193136e+000
 7.8178930780e-001	 1.0219196462e+000	-1.2126147582e+000
 7.7050747269e-001	 1.0304525605e+000	-1.2518977815e+000
 7.5914152308e-001	 1.0388543531e+000	-1.2930358491e+000
 7.4769373215e-001	 1.0471238193e+000	-1.3368476727e+000
 8.6266758280e-001	 9.6359620536e-001	-9.5594525946e-001
 8.5198096617e-001	 9.7305774910e-001	-1.0079303511e+000
 8.4119454569e-001	 9.8239738569e-001	-1.0545949018e+000
 8.3031041109e-001	 9.9161355462e-001	-1.0970758455e+000
 8.1933068418e-001	 1.0007047431e+000	-1.1364787342e+000
 8.0825751749e-001	 1.0096694870e+000	-1.1738739049e+000
 7.9709309293e-001	 1.0185063715e+000	-1.2102928825e+000
 7.8583962033e-001	 1.0272140317e+000	-1.2467250431e+000
 7.7449933603e-001	 1.0357911535e+000	-1.2841145628e+000
 7.6307450143e-001	 1.0442364743e+000	-1.3233576749e+000
 7.5156740152e-001	 1.0525487832e+000	-1.3653002538e+000
 8.6711387595e-001	 9.6856269685e-001	-9.9904746847e-001
 8.5637217920e-001	 9.7807300653e-001	-1.0500785311e+000
 8.4553016421e-001	 9.8746078074e-001	-1.0955711740e+000
 8.3458993147e-001	 9.9672445093e-001	-1.1366945489e+000
 8.2355361371e-001	 1.0058624965e+000	-1.1745856843e+000
 8.1242337458e-001	 1.0148734458e+000	-1.2103454935e+000
 8.0120140722e-001	 1.0237558766e+000	-1.2450350253e+000
 7.8988993286e-001	 1.0325084171e+000	-1.2796719837e+000
 7.7849119936e-001	 1.0411297465e+000	-1.3152275414e+000
 7.6700747978e-001	 1.0496185955e+000	-1.3526234714e+000
 7.5544107089e-001	 1.0579737470e+000	-1.3927296167e+000
 8.7156016910e-001	 9.7352918834e-001	-1.0405245615e+000
 8.6076339224e-001	 9.8308826396e-001	-1.0906470403e+000
 8.4986578273e-001	 9.9252417579e-001	-1.1350250903e+000
 8.3886945184e-001	 1.0018353472e+000	-1.1748567543e+000
 8.2777654324e-001	 1.0110202499e+000	-1.2113072302e+000
 8.1658923167e-001	 1.0200774046e+000	-1.2455047219e+000
 8.0530972151e-001	 1.0290053818e+000	-1.2785365406e+000
 7.9394024539e-001	 1.0378028026e+000	-1.3114454817e+000
 7.8248306269e-001	 1.0464683395e+000	-1.3452265060e+000
 7.7094045813e-001	 1.0550007167e+000	-1.3808237479e+000
 7.5931474026e-001	 1.0633987109e+000	-1.4191278728e+000
 8.7600646225e-001	 9.7849567983e-001	-1.0803841624e+000
 8.6515460527e-001	 9.8810352139e-001	-1.1296391160e+000
 8.5420140125e-001	 9.9758757084e-001	-1.1729559535e+000
 8.4314897221e-001	 1.0069462435e+000	-1.2115583380e+000
 8.3199947277e-001	 1.0161780033e+000	-1.2466363850e+000
 8.2075508875e-001	 1.0252813633e+000	-1.2793423581e+000
 8.0941803581e-001	 1.0342548869e+000	-1.3107866217e+000
 7.9799055792e-001	 1.0430971881e+000	-1.3420338783e+000
 7.8647492603e-001	 1.0518069325e+000	-1.3740997186e+000
 7.7487343649e-001	 1.0603828379e+000	-1.4079475085e+000
 7.6318840962e-001	 1.0688236747e+000	-1.4444856370e+000
 8.8045275541e-001	 9.8346217132e-001	-1.1186318635e+000
 8.6954581831e-001	 9.9311877882e-001	-1.1670560567e+000
 8.5853701977e-001	 1.0026509659e+000	-1.2093612132e+000
 8.4742849258e-001	 1.0120571398e+000	-1.2467934018e+000
 8.3622240230e-001	 1.0213357567e+000	-1.2805644582e+000
 8.2492094584e-001	 1.0304853221e+000	-1.3118475278e+000
 8.1352635010e-001	 1.0395043920e+000	-1.3417728720e+000
 8.0204087046e-001	 1.0483915736e+000	-1.3714239668e+000
 7.9046678936e-001	 1.0571455255e+000	-1.4018339241e+000
 7.7880641484e-001	 1.0657649591e+000	-1.4339822602e+000
 7.6706207899e-001	 1.0742486386e+000	-1.4687920345e+000
 8.8489904856e-001	 9.8842866281e-001	-1.1552712629e+000
 8.7393703135e-001	 9.9813403625e-001	-1.2028972551e+000
 8.6287263829e-001	 1.0077143609e+000	-1.2442364958e+000
 8.5170801295e-001	 1.0171680361e+000	-1.2805542990e+000
 8.4044533183e-001	 1.0264935101e+000	-1.3130810773e+000
 8.2908680293e-001	 1.0356892809e+000	-1.3430077335e+000
 8.1763466439e-001	 1.0447538972e+000	-1.3714813206e+000
 8.0609118299e-001	 1.0536859590e+000	-1.3996010054e+000
 7.9445865270e-001	 1.0624841185e+000	-1.4284143615e+000
 7.8273939319e-001	 1.0711470803e+000	-1.4589140211e+000
 7.7093574836e-001	 1.0796736024e+000	-1.4920347074e+000
 8.8934534171e-001	 9.9339515430e-001	-1.1903040018e+000
 8.7832824438e-001	 1.0031492937e+000	-1.2371602316e+000
 8.6720825681e-001	 1.0127777560e+000	-1.2775756333e+000
 8.5598753333e-001	 1.0222789324e+000	-1.3128316597e+000
 8.4466826136e-001	 1.0316512635e+000	-1.3441742106e+000
 8.3325266002e-001	 1.0408932396e+000	-1.3728088731e+000
 8.2174297868e-001	 1.0500034023e+000	-1.3998964385e+000
 8.1014149552e-001	 1.0589803445e+000	-1.4265487310e+000
 7.9845051603e-001	 1.0678227115e+000	-1.4538247746e+000
 7.8667237155e-001	 1.0765292015e+000	-1.4827273298e+000
 7.7480941773e-001	 1.0850985663e+000	-1.5141998222e+000
 7.3607272405e-001	 1.0308489278e+000	-1.2454069432e+000
 7.2472455010e-001	 1.0388584616e+000	-1.2957635573e+000
 7.1330034468e-001	 1.0467355068e+000	-1.3440957360e+000
 7.0180240484e-001	 1.0544790311e+000	-1.3895064610e+000
 6.9023304492e-001	 1.0620880547e+000	-1.4310696799e+000
 6.7859459506e-001	 1.0695616509e+000	-1.4678322554e+000
 6.6688939972e-001	 1.0768989460e+000	-1.4988161972e+000
 6.5511981619e-001	 1.0840991196e+000	-1.5283711527e+000
 6.4328821307e-001	 1.0911614050e+000	-1.5605947129e+000
 6.3139696880e-001	 1.0980850890e+000	-1.5935424710e+000
 6.1944847019e-001	 1.1048695121e+000	-1.6252494850e+000
 7.3994639342e-001	 1.0362738916e+000	-1.2768968950e+000
 7.2853849837e-001	 1.0443255766e+000	-1.3254379552e+000
 7.1705417172e-001	 1.0522440756e+000	-1.3721346620e+000
 7.0549572262e-001	 1.0600283511e+000	-1.4160802165e+000
 6.9386547758e-001	 1.0676774181e+000	-1.4563365078e+000
 6.8216577901e-001	 1.0751903450e+000	-1.4919360885e+000
 6.7039898370e-001	 1.0825662535e+000	-1.5218844471e+000
 6.5856746135e-001	 1.0898043189e+000	-1.5478161767e+000
 6.4667359302e-001	 1.0969037704e+000	-1.5763090440e+000
 6.3471976969e-001	 1.1038638911e+000	-1.6059492136e+000
 6.2270839069e-001	 1.1106840180e+000	-1.6347353517e+000
 7.4382006279e-001	 1.0416988555e+000	-1.3073782602e+000
 7.3235244663e-001	 1.0497926915e+000	-1.3541094763e+000
 7.2080799876e-001	 1.0577526445e+000	-1.3991554434e+000
 7.0918904040e-001	 1.0655776711e+000	-1.4416053587e+000
 6.9749791024e-001	 1.0732667816e+000	-1.4805147936e+000
 6.8573696295e-001	 1.0808190391e+000	-1.5149076842e+000
 6.7390856768e-001	 1.0882335610e+000	-1.5437786319e+000
 6.6201510651e-001	 1.0955095181e+000	-1.5669806341e+000
 6.5005897298e-001	 1.1026461357e+000	-1.5916197503e+000
 6.3804257057e-001	 1.1096426931e+000	-1.6178508100e+000
 6.2596831119e-001	 1.1164985239e+000	-1.6436408563e+000
 7.4769373215e-001	 1.0471238193e+000	-1.3368476727e+000
 7.3616639490e-001	 1.0552598065e+000	-1.3817771507e+000
 7.2456182580e-001	 1.0632612133e+000	-1.4251601528e+000
 7.1288235817e-001	 1.0711269912e+000	-1.4660875539e+000
 7.0113034290e-001	 1.0788561450e+000	-1.5036142519e+000
 6.8930814690e-001	 1.0864477332e+000	-1.5367611620e+000
 6.7741815166e-001	 1.0939008685e+000	-1.5645175338e+000
 6.6546275167e-001	 1.1012147174e+000	-1.5859054490e+000
 6.5344435293e-001	 1.1083885011e+000	-1.6065736035e+000
 6.4136537145e-001	 1.1154214952e+000	-1.6292996623e+000
 6.2922823170e-001	 1.1223130297e+000	-1.6520236809e+000
 7.5156740152e-001	 1.0525487832e+000	-1.3653002538e+000
 7.3998034316e-001	 1.0607269215e+000	-1.4084384981e+000
 7.2831565284e-001	 1.0687697821e+000	-1.4501493472e+000
 7.1657567595e-001	 1.0766763112e+000	-1.4895309417e+000
 7.0476277556e-001	 1.0844455084e+000	-1.5256430559e+000
 6.9287933085e-001	 1.0920764273e+000	-1.5575090836e+000
 6.8092773564e-001	 1.0995681759e+000	-1.5841183618e+000
 6.6891039683e-001	 1.1069199166e+000	-1.6044288284e+000
 6.5682973289e-001	 1.1141308665e+000	-1.6212147081e+000
 6.4468817233e-001	 1.1212002972e+000	-1.6403457174e+000
 6.3248815220e-001	 1.1281275356e+000	-1.6599392677e+000
 7.5544107089e-001	 1.0579737470e+000	-1.3927296167e+000
 7.4379429143e-001	 1.0661940364e+000	-1.4340895317e+000
 7.3206947988e-001	 1.0742783510e+000	-1.4741220706e+000
 7.2026899373e-001	 1.0822256313e+000	-1.5119381369e+000
 7.0839520821e-001	 1.0900348718e+000	-1.5466078385e+000
 6.9645051479e-001	 1.0977051215e+000	-1.5771624540e+000
 6.8443731961e-001	 1.1052354834e+000	-1.6025967520e+000
 6.7235804199e-001	 1.1126251159e+000	-1.6218716574e+000
 6.6021511284e-001	 1.1198732318e+000	-1.6355844012e+000
 6.4801097322e-001	 1.1269790993e+000	-1.6510363704e+000
 6.3574807270e-001	 1.1339420415e+000	-1.6674407250e+000
 7.5931474026e-001	 1.0633987109e+000	-1.4191278728e+000
 7.4760823969e-001	 1.0716611514e+000	-1.4587247619e+000
 7.3582330692e-001	 1.0797869198e+000	-1.4970758569e+000
 7.2396231151e-001	 1.0877749513e+000	-1.5333102315e+000
 7.1202764087e-001	 1.0956242353e+000	-1.5665136937e+000
 7.0002169874e-001	 1.1033338156e+000	-1.5957307221e+000
 6.8794690359e-001	 1.1109027909e+000	-1.6199667679e+000
 6.7580568715e-001	 1.1183303151e+000	-1.6381909209e+000
 6.6360049280e-001	 1.1256155972e+000	-1.6497211512e+000
 6.5133377410e-001	 1.1327579014e+000	-1.6614163677e+000
 6.3900799320e-001	 1.1397565474e+000	-1.6745787357e+000
 7.6318840962e-001	 1.0688236747e+000	-1.4444856370e+000
 7.5142218796e-001	 1.0771282663e+000	-1.4823372016e+000
 7.3957713396e-001	 1.0852954887e+000	-1.5190067335e+000
 7.2765562928e-001	 1.0933242714e+000	-1.5536467971e+000
 7.1566007353e-001	 1.1012135987e+000	-1.5853641792e+000
 7.0359288269e-001	 1.1089625097e+000	-1.6132217824e+000
 6.9145648757e-001	 1.1165700984e+000	-1.6362409016e+000
 6.7925333231e-001	 1.1240355144e+000	-1.6534038773e+000
 6.6698587276e-001	 1.1313579625e+000	-1.6636571232e+000
 6.5465657498e-001	 1.1385367034e+000	-1.6715277117e+000
 6.4226791370e-001	 1.1455710533e+000	-1.6814014644e+000
 7.6706207899e-001	 1.0742486386e+000	-1.4687920345e+000
 7.5523613623e-001	 1.0825953813e+000	-1.5049183705e+000
 7.4333096100e-001	 1.0908040575e+000	-1.5399092253e+000
 7.3134894706e-001	 1.0988735914e+000	-1.5729458887e+000
 7.1929250619e-001	 1.1068029621e+000	-1.6031613177e+000
 7.0716406663e-001	 1.1145912038e+000	-1.6296419765e+000
 6.9496607155e-001	 1.1222374059e+000	-1.6514300749e+000
 6.8270097747e-001	 1.1297407136e+000	-1.6675261999e+000
 6.7037125271e-001	 1.1371003279e+000	-1.6768923372e+000
 6.5797937586e-001	 1.1443155055e+000	-1.6814095643e+000
 6.4552783421e-001	 1.1513855592e+000	-1.6879544662e+000
 7.7093574836e-001	 1.0796736024e+000	-1.4920347074e+000
 7.5905008449e-001	 1.0880624963e+000	-1.5264583013e+000
 7.4708478804e-001	 1.0963126263e+000	-1.5597763590e+000
 7.3504226484e-001	 1.1044229115e+000	-1.5912040475e+000
 7.2292493885e-001	 1.1123923256e+000	-1.6199056006e+000
 7.1073525058e-001	 1.1202198979e+000	-1.6449960955e+000
 6.9847565553e-001	 1.1279047134e+000	-1.6655436411e+000
 6.8614862262e-001	 1.1354459129e+000	-1.6805719788e+000
 6.7375663267e-001	 1.1428426933e+000	-1.6890634866e+000
 6.6130217675e-001	 1.1500943075e+000	-1.6910981518e+000
 6.4878775471e-001	 1.1572000651e+000	-1.6942805945e+000
 7.7480941773e-001	 1.0850985663e+000	-1.5141998222e+000
 7.6286403276e-001	 1.0935296112e+000	-1.5469455450e+000
 7.5083861508e-001	 1.1018211952e+000	-1.5785996681e+000
 7.3873558262e-001	 1.1099722315e+000	-1.6084163050e+000
 7.2655737151e-001	 1.1179816890e+000	-1.6355959910e+000
 7.1430643453e-001	 1.1258485920e+000	-1.6592873825e+000
 7.0198523951e-001	 1.1335720209e+000	-1.6785893873e+000
 6.8959626778e-001	 1.1411511121e+000	-1.6925537216e+000
 6.7714201262e-001	 1.1485850586e+000	-1.7001878894e+000
 6.6462497763e-001	 1.1558731096e+000	-1.7006266698e+000
 6.5204767521e-001	 1.1630145709e+000	-1.7004199104e+000
 6.1944847019e-001	 1.1048695121e+000	-1.6252494850e+000
 6.0744691540e-001	 1.1115130826e+000	-1.6571016119e+000
 5.9539291498e-001	 1.1180162775e+000	-1.6912278068e+000
 5.8328887144e-001	 1.1243785995e+000	-1.7267561027e+000
 5.7113718971e-001	 1.1305996047e+000	-1.7628195380e+000
 5.5894027569e-001	 1.1366789026e+000	-1.7985635788e+000
 5.4670053483e-001	 1.1426161556e+000	-1.8331529576e+000
 5.3442037070e-001	 1.1484110790e+000	-1.8657778981e+000
 5.2210218360e-001	 1.1540634406e+000	-1.8956596961e+000
 5.0974836916e-001	 1.1595730604e+000	-1.9220556407e+000
 4.9736131699e-001	 1.1649398100e+000	-1.9442632565e+000
 6.2270839069e-001	 1.1106840180e+000	-1.6347353517e+000
 6.1064367630e-001	 1.1173625510e+000	-1.6639842587e+000
 5.9852624029e-001	 1.1238999698e+000	-1.6957368230e+000
 5.8635849779e-001	 1.1302957742e+000	-1.7290584112e+000
 5.7414286641e-001	 1.1365495182e+000	-1.7630211722e+000
 5.6188176469e-001	 1.1426608091e+000	-1.7967117675e+000
 5.4957761075e-001	 1.1486293076e+000	-1.8292384935e+000
 5.3723282082e-001	 1.1544547275e+000	-1.8597377625e+000
 5.2484980781e-001	 1.1601368353e+000	-1.8873799157e+000
 5.1243097997e-001	 1.1656754501e+000	-1.9113743456e+000
 4.9997873948e-001	 1.1710704429e+000	-1.9309739146e+000
 6.2596831119e-001	 1.1164985239e+000	-1.6436408563e+000
 6.1384043721e-001	 1.1232120195e+000	-1.6702446028e+000
 6.0165956560e-001	 1.1297836620e+000	-1.6996156615e+000
 5.8942812415e-001	 1.1362129490e+000	-1.7307522584e+000
 5.7714854311e-001	 1.1424994317e+000	-1.7626612040e+000
 5.6482325369e-001	 1.1486427157e+000	-1.7943659460e+000
 5.5245468668e-001	 1.1546424596e+000	-1.8249139881e+000
 5.4004527093e-001	 1.1604983760e+000	-1.8533836411e+000
 5.2759743201e-001	 1.1662102301e+000	-1.8788900781e+000
 5.1511359077e-001	 1.1717778399e+000	-1.9005906716e+000
 5.0259616196e-001	 1.1772010758e+000	-1.9176895969e+000
 6.2922823170e-001	 1.1223130297e+000	-1.6520236809e+000
 6.1703719812e-001	 1.1290614879e+000	-1.6759448618e+000
 6.0479289091e-001	 1.1356673543e+000	-1.7029300343e+000
 5.9249775051e-001	 1.1421301237e+000	-1.7319058283e+000
 5.8015421981e-001	 1.1484493453e+000	-1.7618092881e+000
 5.6776474270e-001	 1.1546246222e+000	-1.7915962615e+000
 5.5533176260e-001	 1.1606556117e+000	-1.8202491294e+000
 5.4285772105e-001	 1.1665420245e+000	-1.8467838396e+000
 5.3034505622e-001	 1.1722836248e+000	-1.8702562162e+000
 5.1779620157e-001	 1.1778802296e+000	-1.8897675224e+000
 5.0521358444e-001	 1.1833317087e+000	-1.9044692594e+000
 6.3248815220e-001	 1.1281275356e+000	-1.6599392677e+000
 6.2023395902e-001	 1.1349109564e+000	-1.6811452363e+000
 6.0792621622e-001	 1.1415510466e+000	-1.7057438744e+000
 5.9556737686e-001	 1.1480472985e+000	-1.7325857764e+000
 5.8315989651e-001	 1.1543992588e+000	-1.7605338111e+000
 5.7070623170e-001	 1.1606065287e+000	-1.7884718623e+000
 5.5820883853e-001	 1.1666687637e+000	-1.8153128823e+000
 5.4567017117e-001	 1.1725856730e+000	-1.8400062214e+000
 5.3309268043e-001	 1.1783570195e+000	-1.8615442044e+000
 5.2047881238e-001	 1.1839826194e+000	-1.8789679292e+000
 5.0783100693e-001	 1.1894623416e+000	-1.8913722720e+000
 6.3574807270e-001	 1.1339420415e+000	-1.6674407250e+000
 6.2343071993e-001	 1.1407604249e+000	-1.6859038216e+000
 6.1105954153e-001	 1.1474347389e+000	-1.7081192508e+000
 5.9863700322e-001	 1.1539644732e+000	-1.7328571466e+000
 5.8616557321e-001	 1.1603491723e+000	-1.7589018105e+000
 5.7364772070e-001	 1.1665884353e+000	-1.7850608181e+000
 5.6108591446e-001	 1.1726819157e+000	-1.8101734100e+000
 5.4848262128e-001	 1.1786293215e+000	-1.8331181306e+000
 5.3584030463e-001	 1.1844304142e+000	-1.8528196827e+000
 5.2316142318e-001	 1.1900850091e+000	-1.8682549749e+000
 5.1044842941e-001	 1.1955929745e+000	-1.8784583425e+000
 6.3900799320e-001	 1.1397565474e+000	-1.6745787357e+000
 6.2662748084e-001	 1.1466098933e+000	-1.6902765182e+000
 6.1419286684e-001	 1.1533184312e+000	-1.7101162818e+000
 6.0170662957e-001	 1.1598816480e+000	-1.7327832879e+000
 5.8917124991e-001	 1.1662990858e+000	-1.7569788944e+000
 5.7658920971e-001	 1.1725703418e+000	-1.7814300420e+000
 5.6396299038e-001	 1.1786950678e+000	-1.8048979979e+000
 5.5129507140e-001	 1.1846729700e+000	-1.8261863158e+000
 5.3858792884e-001	 1.1905038089e+000	-1.8441479817e+000
 5.2584403398e-001	 1.1961873988e+000	-1.8576917203e+000
 5.1306585189e-001	 1.2017236074e+000	-1.8657874430e+000
 6.4226791370e-001	 1.1455710533e+000	-1.6814014644e+000
 6.2982424174e-001	 1.1524593618e+000	-1.6943169437e+000
 6.1732619215e-001	 1.1592021235e+000	-1.7117930502e+000
 6.0477625593e-001	 1.1657988227e+000	-1.7324257720e+000
 5.9217692661e-001	 1.1722489994e+000	-1.7548291603e+000
 5.7953069871e-001	 1.1785522484e+000	-1.7776452114e+000
 5.6684006631e-001	 1.1847082198e+000	-1.7995529761e+000
 5.5410752152e-001	 1.1907166185e+000	-1.8192768551e+000
 5.4133555305e-001	 1.1965772037e+000	-1.8355940479e+000
 5.2852664479e-001	 1.2022897886e+000	-1.8473411296e+000
 5.1568327437e-001	 1.2078542403e+000	-1.8534197362e+000
 6.4552783421e-001	 1.1513855592e+000	-1.6879544662e+000
 6.3302100265e-001	 1.1583088302e+000	-1.6980763442e+000
 6.2045951746e-001	 1.1650858158e+000	-1.7132055183e+000
 6.0784588229e-001	 1.1717159975e+000	-1.7318443111e+000
 5.9518260331e-001	 1.1781989129e+000	-1.7525151162e+000
 5.8247218772e-001	 1.1845341549e+000	-1.7737706905e+000
 5.6971714224e-001	 1.1907213719e+000	-1.7942036435e+000
 5.5691997163e-001	 1.1967602670e+000	-1.8124550809e+000
 5.4408317725e-001	 1.2026505984e+000	-1.8272223700e+000
 5.3120925559e-001	 1.2083921783e+000	-1.8372659973e+000
 5.1830069686e-001	 1.2139848731e+000	-1.8414155023e+000
 6.4878775471e-001	 1.1572000651e+000	-1.6942805945e+000
 6.3621776356e-001	 1.1641582987e+000	-1.7016035066e+000
 6.2359284277e-001	 1.1709695080e+000	-1.7144074426e+000
 6.1091550864e-001	 1.1776331723e+000	-1.7310966756e+000
 5.9818828001e-001	 1.1841488264e+000	-1.7500976005e+000
 5.8541367672e-001	 1.1905160615e+000	-1.7698694528e+000
 5.7259421816e-001	 1.1967345239e+000	-1.7889141917e+000
 5.5973242175e-001	 1.2028039155e+000	-1.8057855056e+000
 5.4683080146e-001	 1.2087239931e+000	-1.8190969054e+000
 5.3389186639e-001	 1.2144945681e+000	-1.8275288760e+000
 5.2091811934e-001	 1.2201155060e+000	-1.8298350673e+000
 6.5204767521e-001	 1.1630145709e+000	-1.7004199104e+000
 6.3941452446e-001	 1.1700077671e+000	-1.7049446709e+000
 6.2672616808e-001	 1.1768532003e+000	-1.7154502902e+000
 6.1398513500e-001	 1.1835503470e+000	-1.7302386127e+000
 6.0119395671e-001	 1.1900987399e+000	-1.7476357029e+000
 5.8835516572e-001	 1.1964979680e+000	-1.7660030039e+000
 5.7547129409e-001	 1.2027476759e+000	-1.7837476300e+000
 5.6254487187e-001	 1.2088475640e+000	-1.7993317474e+000
 5.4957842567e-001	 1.2147973878e+000	-1.8112810075e+000
 5.3657447720e-001	 1.2205969578e+000	-1.8181920037e+000
 5.2353554182e-001	 1.2262461389e+000	-1.8187387317e+000
 4.9736131699e-001	 1.1649398100e+000	-1.9442632565e+000
 4.8494154436e-001	 1.1701643855e+000	-1.9653955454e+000
 4.7249328220e-001	 1.1752459457e+000	-1.9885367095e+000
 4.6001889571e-001	 1.1801845157e+000	-2.0130344698e+000
 4.4752073879e-001	 1.1849801705e+000	-2.0383066933e+000
 4.3500115282e-001	 1.1896330343e+000	-2.0638417209e+000
 4.2246246541e-001	 1.1941432797e+000	-2.0891980184e+000
 4.0990698924e-001	 1.1985111275e+000	-2.1140031723e+000
 3.9733702086e-001	 1.2027368457e+000	-2.1379522583e+000
 3.8475483961e-001	 1.2068207488e+000	-2.1608056147e+000
 3.7216270646e-001	 1.2107631971e+000	-2.1823860530e+000
 4.9997873948e-001	 1.1710704429e+000	-1.9309739146e+000
 4.8749360633e-001	 1.1763225133e+000	-1.9493924840e+000
 4.7497983372e-001	 1.1814308159e+000	-1.9698443340e+000
 4.6243979930e-001	 1.1863953757e+000	-1.9916797064e+000
 4.4987586936e-001	 1.1912162682e+000	-2.0143217434e+000
 4.3729039759e-001	 1.1958936182e+000	-2.0372667998e+000
 4.2468572387e-001	 1.2004275993e+000	-2.0600840509e+000
 4.1206417303e-001	 1.2048184334e+000	-2.0824144245e+000
 3.9942805371e-001	 1.2090663899e+000	-2.1039688815e+000
 3.8677965725e-001	 1.2131717850e+000	-2.1245260798e+000
 3.7412125651e-001	 1.2171349809e+000	-2.1439294565e+000
 5.0259616196e-001	 1.1772010758e+000	-1.9176895969e+000
 4.9004566830e-001	 1.1824806412e+000	-1.9334962517e+000
 4.7746638525e-001	 1.1876156860e+000	-1.9513534681e+000
 4.6486070290e-001	 1.1926062356e+000	-1.9706159499e+000
 4.5223099993e-001	 1.1974523658e+000	-1.9907142467e+000
 4.3957964237e-001	 1.2021542020e+000	-2.0111550426e+000
 4.2690898233e-001	 1.2067119189e+000	-2.0315207171e+000
 4.1422135681e-001	 1.2111257393e+000	-2.0514682042e+000
 4.0151908656e-001	 1.2153959342e+000	-2.0707271790e+000
 3.8880447489e-001	 1.2195228213e+000	-2.0890976031e+000
 3.7607980657e-001	 1.2235067648e+000	-2.1064466694e+000
 5.0521358444e-001	 1.1833317087e+000	-1.9044692594e+000
 4.9259773027e-001	 1.1886387690e+000	-1.9177618039e+000
 4.7995293677e-001	 1.1938005561e+000	-1.9331157223e+000
 4.6728160649e-001	 1.1988170956e+000	-1.9498920798e+000
 4.5458613051e-001	 1.2036884635e+000	-1.9675309245e+000
 4.4186888715e-001	 1.2084147859e+000	-1.9855515477e+000
 4.2913224079e-001	 1.2129962384e+000	-2.0035519913e+000
 4.1637854060e-001	 1.2174330452e+000	-2.0212078281e+000
 4.0361011941e-001	 1.2217254784e+000	-2.0382702448e+000
 3.9082929253e-001	 1.2258738576e+000	-2.0545634630e+000
 3.7803835663e-001	 1.2298785487e+000	-2.0699815355e+000
 5.0783100693e-001	 1.1894623416e+000	-1.8913722720e+000
 4.9514979223e-001	 1.1947968968e+000	-1.9022447791e+000
 4.8243948829e-001	 1.1999854263e+000	-1.9151836289e+000
 4.6970251009e-001	 1.2050279556e+000	-1.9295581046e+000
 4.5694126108e-001	 1.2099245611e+000	-1.9448198037e+000
 4.4415813193e-001	 1.2146753698e+000	-1.9605028654e+000
 4.3135549925e-001	 1.2192805580e+000	-1.9762234173e+000
 4.1853572439e-001	 1.2237403511e+000	-1.9916782704e+000
 4.0570115226e-001	 1.2280550227e+000	-2.0066428914e+000
 3.9285411016e-001	 1.2322248939e+000	-2.0209686894e+000
 3.7999690668e-001	 1.2362503325e+000	-2.0345796569e+000
 5.1044842941e-001	 1.1955929745e+000	-1.8784583425e+000
 4.9770185420e-001	 1.2009550247e+000	-1.8870014243e+000
 4.8492603981e-001	 1.2061702964e+000	-1.8976105678e+000
 4.7212341368e-001	 1.2112388155e+000	-1.9096650888e+000
 4.5929639165e-001	 1.2161606588e+000	-1.9226301460e+000
 4.4644737671e-001	 1.2209359537e+000	-1.9360569296e+000
 4.3357875771e-001	 1.2255648776e+000	-1.9495820421e+000
 4.2069290818e-001	 1.2300476570e+000	-1.9629261002e+000
 4.0779218511e-001	 1.2343845669e+000	-1.9758915893e+000
 3.9487892780e-001	 1.2385759301e+000	-1.9883600074e+000
 3.8195545674e-001	 1.2426221164e+000	-2.0002883416e+000
 5.1306585189e-001	 1.2017236074e+000	-1.8657874430e+000
 5.0025391617e-001	 1.2071131525e+000	-1.8720885211e+000
 4.8741259133e-001	 1.2123551666e+000	-1.8804506936e+000
 4.7454431727e-001	 1.2174496755e+000	-1.8902650817e+000
 4.6165152222e-001	 1.2223967565e+000	-1.9010123777e+000
 4.4873662148e-001	 1.2271965376e+000	-1.9122629899e+000
 4.3580201617e-001	 1.2318491972e+000	-1.9236763506e+000
 4.2285009197e-001	 1.2363549629e+000	-1.9349994188e+000
 4.0988321796e-001	 1.2407141112e+000	-1.9460644083e+000
 3.9690374544e-001	 1.2449269664e+000	-1.9567857816e+000
 3.8391400680e-001	 1.2489939003e+000	-1.9671565514e+000
 5.1568327437e-001	 1.2078542403e+000	-1.8534197362e+000
 5.0280597814e-001	 1.2132712804e+000	-1.8575633129e+000
 4.8989914286e-001	 1.2185400367e+000	-1.8637588634e+000
 4.7696522087e-001	 1.2236605354e+000	-1.8714110461e+000
 4.6400665280e-001	 1.2286328541e+000	-1.8800180209e+000
 4.5102586626e-001	 1.2334571215e+000	-1.8891715446e+000
 4.3802527462e-001	 1.2381335168e+000	-1.8985562015e+000
 4.2500727575e-001	 1.2426622688e+000	-1.9079477983e+000
 4.1197425081e-001	 1.2470436554e+000	-1.9172109595e+000
 3.9892856308e-001	 1.2512780027e+000	-1.9262959616e+000
 3.8587255685e-001	 1.2553656842e+000	-1.9352348520e+000
 5.1830069686e-001	 1.2139848731e+000	-1.8414155023e+000
 5.0535804010e-001	 1.2194294082e+000	-1.8434834320e+000
 4.9238569438e-001	 1.2247249069e+000	-1.8475905655e+000
 4.7938612446e-001	 1.2298713954e+000	-1.8531567889e+000
 4.6636178337e-001	 1.2348689518e+000	-1.8596996252e+000
 4.5331511104e-001	 1.2397177054e+000	-1.8668342753e+000
 4.4024853308e-001	 1.2444178364e+000	-1.8742727639e+000
 4.2716445954e-001	 1.2489695747e+000	-1.8818222215e+000
 4.1406528366e-001	 1.2533731997e+000	-1.8893823377e+000
 4.0095338072e-001	 1.2576290389e+000	-1.8969420286e+000
 3.8783110691e-001	 1.2617374680e+000	-1.9045753625e+000
 5.2091811934e-001	 1.2201155060e+000	-1.8298350673e+000
 5.0791010207e-001	 1.2255875360e+000	-1.8299068290e+000
 4.9487224590e-001	 1.2309097770e+000	-1.8320018492e+000
 4.8180702806e-001	 1.2360822553e+000	-1.8355568919e+000
 4.6871691394e-001	 1.2411050494e+000	-1.8401107009e+000
 4.5560435582e-001	 1.2459782893e+000	-1.8453039813e+000
 4.4247179154e-001	 1.2507021560e+000	-1.8508784551e+000
 4.2932164333e-001	 1.2552768807e+000	-1.8566750222e+000
 4.1615631651e-001	 1.2597027439e+000	-1.8626310657e+000
 4.0297819836e-001	 1.2639800752e+000	-1.8687769422e+000
 3.8978965697e-001	 1.2681092519e+000	-1.8752317069e+000
 5.2353554182e-001	 1.2262461389e+000	-1.8187387317e+000
 5.1046216404e-001	 1.2317456639e+000	-1.8168917012e+000
 4.9735879742e-001	 1.2370946472e+000	-1.8170492548e+000
 4.8422793165e-001	 1.2422931153e+000	-1.8186666436e+000
 4.7107204451e-001	 1.2473411471e+000	-1.8213056526e+000
 4.5789360059e-001	 1.2522388732e+000	-1.8246345163e+000
 4.4469505000e-001	 1.2569864756e+000	-1.8284268788e+000
 4.3147882712e-001	 1.2615841866e+000	-1.8325598268e+000
 4.1824734936e-001	 1.2660322882e+000	-1.8370110382e+000
 4.0500301600e-001	 1.2703311115e+000	-1.8418550888e+000
 3.9174820702e-001	 1.2744810358e+000	-1.8472589653e+000
 3.7216270646e-001	 1.2107631971e+000	-2.1823860530e+000
 3.5956286282e-001	 1.2145645956e+000	-2.2035063347e+000
 3.4695752895e-001	 1.2182253923e+000	-2.2248291479e+000
 3.3434890354e-001	 1.2217460784e+000	-2.2460317310e+000
 3.2173916295e-001	 1.2251271875e+000	-2.2668341454e+000
 3.0913046021e-001	 1.2283692947e+000	-2.2869948153e+000
 2.9652492420e-001	 1.2314730163e+000	-2.3063057617e+000
 2.8392465875e-001	 1.2344390081e+000	-2.3245875774e+000
 2.7133174181e-001	 1.2372679649e+000	-2.3416841904e+000
 2.5874822468e-001	 1.2399606194e+000	-2.3574574663e+000
 2.4617613122e-001	 1.2425177416e+000	-2.3717816947e+000
 3.7412125651e-001	 1.2171349809e+000	-2.1439294565e+000
 3.6145510471e-001	 1.2209563848e+000	-2.1629676707e+000
 3.4878343379e-001	 1.2246364469e+000	-2.1822584774e+000
 3.3610845401e-001	 1.2281756610e+000	-2.2014718625e+000
 3.2343235317e-001	 1.2315745635e+000	-2.2203228179e+000
 3.1075729565e-001	 1.2348337328e+000	-2.2385667224e+000
 2.9808542152e-001	 1.2379537880e+000	-2.2559944020e+000
 2.8541884569e-001	 1.2409353887e+000	-2.2724269214e+000
 2.7275965705e-001	 1.2437792332e+000	-2.2877101530e+000
 2.6010991767e-001	 1.2464860582e+000	-2.3017091769e+000
 2.4747166209e-001	 1.2490566375e+000	-2.3143025590e+000
 3.7607980657e-001	 1.2235067648e+000	-2.1064466694e+000
 3.6334734661e-001	 1.2273481739e+000	-2.1235411063e+000
 3.5060933863e-001	 1.2310475014e+000	-2.1409509458e+000
 3.3786800448e-001	 1.2346052436e+000	-2.1583347659e+000
 3.2512554339e-001	 1.2380219396e+000	-2.1753984074e+000
 3.1238413109e-001	 1.2412981708e+000	-2.1918901970e+000
 2.9964591885e-001	 1.2444345598e+000	-2.2075958387e+000
 2.8691303264e-001	 1.2474317693e+000	-2.2223330212e+000
 2.7418757228e-001	 1.2502905015e+000	-2.2359457954e+000
 2.6147161067e-001	 1.2530114969e+000	-2.2482987721e+000
 2.4876719297e-001	 1.2555955334e+000	-2.2592711921e+000
 3.7803835663e-001	 1.2298785487e+000	-2.0699815355e+000
 3.6523958851e-001	 1.2337399631e+000	-2.0852705842e+000
 3.5243524348e-001	 1.2374585560e+000	-2.1009493645e+000
 3.3962755495e-001	 1.2410348261e+000	-2.1166609951e+000
 3.2681873362e-001	 1.2444693156e+000	-2.1320981892e+000
 3.1401096653e-001	 1.2477626088e+000	-2.1469983239e+000
 3.0120641617e-001	 1.2509153315e+000	-2.1611381630e+000
 2.8840721958e-001	 1.2539281499e+000	-2.1743282837e+000
 2.7561548752e-001	 1.2568017699e+000	-2.1864072621e+000
 2.6283330366e-001	 1.2595369357e+000	-2.1972356703e+000
 2.5006272384e-001	 1.2621344292e+000	-2.2066899374e+000
 3.7999690668e-001	 1.2362503325e+000	-2.0345796569e+000
 3.6713183040e-001	 1.2401317523e+000	-2.0482018036e+000
 3.5426114832e-001	 1.2438696105e+000	-2.0622983074e+000
 3.4138710541e-001	 1.2474644087e+000	-2.0764928783e+000
 3.2851192384e-001	 1.2509166917e+000	-2.0904612301e+000
 3.1563780197e-001	 1.2542270469e+000	-2.1039259993e+000
 3.0276691349e-001	 1.2573961032e+000	-2.1166513001e+000
 2.8990140652e-001	 1.2604245305e+000	-2.1284369724e+000
 2.7704340275e-001	 1.2633130382e+000	-2.1391125761e+000
 2.6419499666e-001	 1.2660623744e+000	-2.1485311876e+000
 2.5135825471e-001	 1.2686733251e+000	-2.1565630528e+000
 3.8195545674e-001	 1.2426221164e+000	-2.0002883416e+000
 3.6902407230e-001	 1.2465235415e+000	-2.0123821714e+000
 3.5608705316e-001	 1.2502806651e+000	-2.0250440652e+000
 3.4314665588e-001	 1.2538939913e+000	-2.0378744755e+000
 3.3020511406e-001	 1.2573640678e+000	-2.0505283482e+000
 3.1726463741e-001	 1.2606914849e+000	-2.0627098927e+000
 3.0432741082e-001	 1.2638768750e+000	-2.0741669716e+000
 2.9139559347e-001	 1.2669209111e+000	-2.0846851709e+000
 2.7847131799e-001	 1.2698243065e+000	-2.0940816034e+000
 2.6555668965e-001	 1.2725878131e+000	-2.1021985045e+000
 2.5265378559e-001	 1.2752122210e+000	-2.1088966771e+000
 3.8391400680e-001	 1.2489939003e+000	-1.9671565514e+000
 3.7091631419e-001	 1.2529153306e+000	-1.9778607545e+000
 3.5791295801e-001	 1.2566917196e+000	-1.9892346012e+000
 3.4490620635e-001	 1.2603235739e+000	-2.0008515369e+000
 3.3189830428e-001	 1.2638114438e+000	-2.0123420730e+000
 3.1889147285e-001	 1.2671559229e+000	-2.0233884089e+000
 3.0588790814e-001	 1.2703576467e+000	-2.0337186600e+000
 2.9288978041e-001	 1.2734172918e+000	-2.0431007489e+000
 2.7989923323e-001	 1.2763355748e+000	-2.0513360193e+000
 2.6691838265e-001	 1.2791132519e+000	-2.0582526314e+000
 2.5394931646e-001	 1.2817511169e+000	-2.0636987972e+000
 3.8587255685e-001	 1.2553656842e+000	-1.9352348520e+000
 3.7280855609e-001	 1.2593071198e+000	-1.9446882327e+000
 3.5973886285e-001	 1.2631027742e+000	-1.9549195073e+000
 3.4666575682e-001	 1.2667531564e+000	-1.9654714620e+000
 3.3359149451e-001	 1.2702588199e+000	-1.9759466067e+000
 3.2051830829e-001	 1.2736203609e+000	-1.9860016516e+000
 3.0744840546e-001	 1.2768384184e+000	-1.9953415728e+000
 2.9438396735e-001	 1.2799136724e+000	-2.0037133270e+000
 2.8132714846e-001	 1.2828468432e+000	-2.0108992750e+000
 2.6828007565e-001	 1.2856386906e+000	-2.0167103766e+000
 2.5524484733e-001	 1.2882900128e+000	-2.0209792154e+000
 3.8783110691e-001	 1.2617374680e+000	-1.9045753625e+000
 3.7470079799e-001	 1.2656989090e+000	-1.9129168530e+000
 3.6156476769e-001	 1.2695138287e+000	-1.9221499611e+000
 3.4842530728e-001	 1.2731827390e+000	-1.9317832586e+000
 3.3528468473e-001	 1.2767061959e+000	-1.9413877862e+000
 3.2214514373e-001	 1.2800847990e+000	-1.9505913864e+000
 3.0900890279e-001	 1.2833191902e+000	-1.9590726079e+000
 2.9587815430e-001	 1.2864100530e+000	-1.9665542437e+000
 2.8275506370e-001	 1.2893581115e+000	-1.9727965650e+000
 2.6964176864e-001	 1.2921641294e+000	-1.9775903141e+000
 2.5654037821e-001	 1.2948289087e+000	-1.9807495184e+000
 3.8978965697e-001	 1.2681092519e+000	-1.8752317069e+000
 3.7659303988e-001	 1.2720906982e+000	-1.8826003836e+000
 3.6339067253e-001	 1.2759248833e+000	-1.8909786834e+000
 3.5018485775e-001	 1.2796123216e+000	-1.8998375037e+000
 3.3697787495e-001	 1.2831535720e+000	-1.9087130458e+000
 3.2377197917e-001	 1.2865492370e+000	-1.9172010059e+000
 3.1056940011e-001	 1.2897999619e+000	-1.9249503193e+000
 2.9737234124e-001	 1.2929064336e+000	-1.9316565221e+000
 2.8418297893e-001	 1.2958693798e+000	-1.9370547947e+000
 2.7100346164e-001	 1.2986895681e+000	-1.9409127524e+000
 2.5783590908e-001	 1.3013678046e+000	-1.9430230464e+000
 3.9174820702e-001	 1.2744810358e+000	-1.8472589653e+000
 3.7848528178e-001	 1.2784824874e+000	-1.8537940692e+000
 3.6521657738e-001	 1.2823359378e+000	-1.8614598967e+000
 3.5194440822e-001	 1.2860419042e+000	-1.8696863041e+000
 3.3867106518e-001	 1.2896009480e+000	-1.8779713798e+000
 3.2539881461e-001	 1.2930136750e+000	-1.8858754941e+000
 3.1212989743e-001	 1.2962807336e+000	-1.8930148840e+000
 2.9886652818e-001	 1.2994028142e+000	-1.8990548381e+000
 2.8561089417e-001	 1.3023806482e+000	-1.9037025497e+000
 2.7236515463e-001	 1.3052150068e+000	-1.9066997035e+000
 2.5913143995e-001	 1.3079067005e+000	-1.9078148628e+000
 2.4617613122e-001	 1.2425177416e+000	-2.3717816947e+000
 2.3361933929e-001	 1.2449397839e+000	-2.3852303720e+000
 2.2107792592e-001	 1.2472279816e+000	-2.3984387976e+000
 2.0855382488e-001	 1.2493832100e+000	-2.4113734742e+000
 1.9604893996e-001	 1.2514063776e+000	-2.4239958621e+000
 1.8356514439e-001	 1.2532984249e+000	-2.4362567748e+000
 1.7110428029e-001	 1.2550603232e+000	-2.4480909191e+000
 1.5866815818e-001	 1.2566930738e+000	-2.4594116202e+000
 1.4625855651e-001	 1.2581977067e+000	-2.4701057657e+000
 1.3387722125e-001	 1.2595752800e+000	-2.4800290016e+000
 1.2152586545e-001	 1.2608268783e+000	-2.4890012119e+000
 2.4747166209e-001	 1.2490566375e+000	-2.3143025590e+000
 2.3484878857e-001	 1.2514914261e+000	-2.3261107833e+000
 2.2224137453e-001	 1.2537916657e+000	-2.3378111453e+000
 2.0965136393e-001	 1.2559582362e+000	-2.3493688548e+000
 1.9708067059e-001	 1.2579920510e+000	-2.3607445526e+000
 1.8453117757e-001	 1.2598940554e+000	-2.3718884936e+000
 1.7200473671e-001	 1.2616652259e+000	-2.3827348785e+000
 1.5950316804e-001	 1.2633065690e+000	-2.3931963728e+000
 1.4702825938e-001	 1.2648191203e+000	-2.4031588503e+000
 1.3458176588e-001	 1.2662039432e+000	-2.4124763960e+000
 1.2216540962e-001	 1.2674621282e+000	-2.4209665979e+000
 2.4876719297e-001	 1.2555955334e+000	-2.2592711921e+000
 2.3607823785e-001	 1.2580430683e+000	-2.2695289565e+000
 2.2340482314e-001	 1.2603553498e+000	-2.2797935275e+000
 2.1074890299e-001	 1.2625332625e+000	-2.2900308408e+000
 1.9811240122e-001	 1.2645777244e+000	-2.3002027171e+000
 1.8549721076e-001	 1.2664896859e+000	-2.3102608253e+000
 1.7290519313e-001	 1.2682701286e+000	-2.3201407982e+000
 1.6033817790e-001	 1.2699200643e+000	-2.3297565378e+000
 1.4779796226e-001	 1.2714405338e+000	-2.3389947523e+000
 1.3528631052e-001	 1.2728326064e+000	-2.3477097569e+000
 1.2280495379e-001	 1.2740973780e+000	-2.3557185734e+000
 2.5006272384e-001	 1.2621344292e+000	-2.2066899374e+000
 2.3730768712e-001	 1.2645947105e+000	-2.2154797926e+000
 2.2456827176e-001	 1.2669190339e+000	-2.2243729592e+000
 2.1184644205e-001	 1.2691082887e+000	-2.2333381508e+000
 1.9914413184e-001	 1.2711633978e+000	-2.2423404015e+000
 1.8646324394e-001	 1.2730853165e+000	-2.2513348025e+000
 1.7380564955e-001	 1.2748750313e+000	-2.2602603928e+000
 1.6117318777e-001	 1.2765335595e+000	-2.2690342446e+000
 1.4856766513e-001	 1.2780619474e+000	-2.2775457850e+000
 1.3599085516e-001	 1.2794612696e+000	-2.2856513889e+000
 1.2344449797e-001	 1.2807326279e+000	-2.2931692790e+000
 2.5135825471e-001	 1.2686733251e+000	-2.1565630528e+000
 2.3853713640e-001	 1.2711463527e+000	-2.1639601221e+000
 2.2573172037e-001	 1.2734827179e+000	-2.1715384012e+000
 2.1294398111e-001	 1.2756833149e+000	-2.1792714671e+000
 2.0017586247e-001	 1.2777490712e+000	-2.1871296360e+000
 1.8742927713e-001	 1.2796809470e+000	-2.1950734656e+000
 1.7470610597e-001	 1.2814799340e+000	-2.2030474122e+000
 1.6200819763e-001	 1.2831470548e+000	-2.2109736890e+000
 1.4933736801e-001	 1.2846833609e+000	-2.2187463647e+000
 1.3669539980e-001	 1.2860899328e+000	-2.2262257419e+000
 1.2408404214e-001	 1.2873678778e+000	-2.2332330491e+000
 2.5265378559e-001	 1.2752122210e+000	-2.1088966771e+000
 2.3976658568e-001	 1.2776979948e+000	-2.1149686718e+000
 2.2689516898e-001	 1.2800464020e+000	-2.1212807265e+000
 2.1404152016e-001	 1.2822583412e+000	-2.1278134017e+000
 2.0120759310e-001	 1.2843347446e+000	-2.1345444006e+000
 1.8839531031e-001	 1.2862765775e+000	-2.1414418272e+000
 1.7560656239e-001	 1.2880848368e+000	-2.1484576043e+000
 1.6284320749e-001	 1.2897605500e+000	-2.1555210949e+000
 1.5010707088e-001	 1.2913047745e+000	-2.1625329710e+000
 1.3739994444e-001	 1.2927185960e+000	-2.1693593689e+000
 1.2472358632e-001	 1.2940031277e+000	-2.1758263674e+000
 2.5394931646e-001	 1.2817511169e+000	-2.0636987972e+000
 2.4099603496e-001	 1.2842496370e+000	-2.0685060317e+000
 2.2805861760e-001	 1.2866100861e+000	-2.0735926877e+000
 2.1513905922e-001	 1.2888333674e+000	-2.0789484639e+000
 2.0223932373e-001	 1.2909204180e+000	-2.0845605909e+000
 1.8936134350e-001	 1.2928722080e+000	-2.0904068376e+000
 1.7650701881e-001	 1.2946897395e+000	-2.0964486796e+000
 1.6367821736e-001	 1.2963740453e+000	-2.1026246776e+000
 1.5087677375e-001	 1.2979261880e+000	-2.1088441073e+000
 1.3810448908e-001	 1.2993472592e+000	-2.1149808852e+000
 1.2536313049e-001	 1.3006383776e+000	-2.1208678241e+000
 2.5524484733e-001	 1.2882900128e+000	-2.0209792154e+000
 2.4222548423e-001	 1.2908012792e+000	-2.0245746235e+000
 2.2922206621e-001	 1.2931737702e+000	-2.0284688846e+000
 2.1623659828e-001	 1.2954083936e+000	-2.0326630270e+000
 2.0327105436e-001	 1.2975060914e+000	-2.0371559860e+000
 1.9032737668e-001	 1.2994678385e+000	-2.0419373509e+000
 1.7740747523e-001	 1.3012946422e+000	-2.0469802763e+000
 1.6451322722e-001	 1.3029875405e+000	-2.0522346072e+000
 1.5164647663e-001	 1.3045476016e+000	-2.0576202641e+000
 1.3880903372e-001	 1.3059759223e+000	-2.0630209293e+000
 1.2600267467e-001	 1.3072736274e+000	-2.0682780743e+000
 2.5654037821e-001	 1.2948289087e+000	-1.9807495184e+000
 2.4345493351e-001	 1.2973529214e+000	-1.9831786687e+000
 2.3038551482e-001	 1.2997374543e+000	-1.9859057336e+000
 2.1733413734e-001	 1.3019834198e+000	-1.9889452976e+000
 2.0430278499e-001	 1.3040917647e+000	-1.9923102160e+000
 1.9129340987e-001	 1.3060634690e+000	-1.9960040929e+000
 1.7830793165e-001	 1.3078995449e+000	-2.0000139267e+000
 1.6534823709e-001	 1.3096010358e+000	-2.0043029742e+000
 1.5241617950e-001	 1.3111690152e+000	-2.0088038816e+000
 1.3951357836e-001	 1.3126045855e+000	-2.0134121244e+000
 1.2664221885e-001	 1.3139088773e+000	-2.0179797976e+000
 2.5783590908e-001	 1.3013678046e+000	-1.9430230464e+000
 2.4468438279e-001	 1.3039045635e+000	-1.9443241588e+000
 2.3154896344e-001	 1.3063011384e+000	-1.9459014369e+000
 2.1843167639e-001	 1.3085584461e+000	-1.9477852848e+000
 2.0533451562e-001	 1.3106774381e+000	-1.9500047313e+000
 1.9225944305e-001	 1.3126590995e+000	-1.9525796287e+000
 1.7920838807e-001	 1.3145044476e+000	-1.9555130242e+000
 1.6618324695e-001	 1.3162145310e+000	-1.9587837548e+000
 1.5318588237e-001	 1.3177904287e+000	-1.9623393146e+000
 1.4021812300e-001	 1.3192332487e+000	-1.9660890406e+000
 1.2728176302e-001	 1.3205441272e+000	-1.9698976585e+000
 2.5913143995e-001	 1.3079067005e+000	-1.9078148628e+000
 2.4591383207e-001	 1.3104562057e+000	-1.9080188253e+000
 2.3271241205e-001	 1.3128648225e+000	-1.9084559526e+000
 2.1952921545e-001	 1.3151334723e+000	-1.9091747702e+000
 2.0636624624e-001	 1.3172631115e+000	-1.9102227718e+000
 1.9322547623e-001	 1.3192547300e+000	-1.9116383317e+000
 1.8010884449e-001	 1.3211093503e+000	-1.9134427918e+000
 1.6701825681e-001	 1.3228280263e+000	-1.9156327783e+000
 1.5395558525e-001	 1.3244118423e+000	-1.9181727977e+000
 1.4092266764e-001	 1.3258619119e+000	-1.9209881594e+000
 1.2792130720e-001	 1.3271793771e+000	-1.9239582687e+000
 1.2152586545e-001	 1.2608268783e+000	-2.4890012119e+000
 1.0920432753e-001	 1.2619537719e+000	-2.4969427722e+000
 9.6916130827e-002	 1.2629568995e+000	-2.5040113524e+000
 8.4662913175e-002	 1.2638374207e+000	-2.5103113717e+000
 7.2446277499e-002	 1.2645965180e+000	-2.5158835254e+000
 6.0267791584e-002	 1.2652353951e+000	-2.5207018424e+000
 4.8128987889e-002	 1.2657552767e+000	-2.5246711719e+000
 3.6031363383e-002	 1.2661574067e+000	-2.5276251087e+000
 2.3976379426e-002	 1.2664430478e+000	-2.5293243628e+000
 1.1965461671e-002	 1.2666134800e+000	-2.5294555770e+000
 0.0000000000e+000	 1.2666700000e+000	-2.5276306685e+000
 1.2216540962e-001	 1.2674621282e+000	-2.4209665979e+000
 1.0977902816e-001	 1.2685949522e+000	-2.4284986210e+000
 9.7426163374e-002	 1.2696033588e+000	-2.4351853008e+000
 8.5108461721e-002	 1.2704885139e+000	-2.4411358021e+000
 7.2827534561e-002	 1.2712516060e+000	-2.4463932217e+000
 6.0584957931e-002	 1.2718938453e+000	-2.4509315179e+000
 4.8382272352e-002	 1.2724164628e+000	-2.4546528836e+000
 3.6220982672e-002	 1.2728207091e+000	-2.4573855719e+000
 2.4102557944e-002	 1.2731078534e+000	-2.4588821814e+000
 1.2028431321e-002	 1.2732791826e+000	-2.4588184035e+000
 0.0000000000e+000	 1.2733360000e+000	-2.4567922917e+000
 1.2280495379e-001	 1.2740973780e+000	-2.3557185734e+000
 1.1035372879e-001	 1.2752361324e+000	-2.3628358603e+000
 9.7936195922e-002	 1.2762498182e+000	-2.3691266036e+000
 8.5554010268e-002	 1.2771396072e+000	-2.3747068221e+000
 7.3208791624e-002	 1.2779066941e+000	-2.3796241253e+000
 6.0902124278e-002	 1.2785522956e+000	-2.3838545074e+000
 4.8635556815e-002	 1.2790776490e+000	-2.3872995985e+000
 3.6410601962e-002	 1.2794840115e+000	-2.3897843825e+000
 2.4228736462e-002	 1.2797726591e+000	-2.3910553912e+000
 1.2091400971e-002	 1.2799448851e+000	-2.3907793743e+000
 0.0000000000e+000	 1.2800020000e+000	-2.3885424936e+000
 1.2344449797e-001	 1.2807326279e+000	-2.2931692790e+000
 1.1092842942e-001	 1.2818773127e+000	-2.2998570700e+000
 9.8446228470e-002	 1.2828962776e+000	-2.3057296370e+000
 8.5999558815e-002	 1.2837907004e+000	-2.3109119841e+000
 7.3590048688e-002	 1.2845617821e+000	-2.3154583678e+000
 6.1219290625e-002	 1.2852107458e+000	-2.3193489453e+000
 4.8888841278e-002	 1.2857388352e+000	-2.3224868959e+000
 3.6600221253e-002	 1.2861473140e+000	-2.3246960250e+000
 2.4354914980e-002	 1.2864374647e+000	-2.3257188569e+000
 1.2154370621e-002	 1.2866105877e+000	-2.3252152234e+000
 0.0000000000e+000	 1.2866680000e+000	-2.3227613770e+000
 1.2408404214e-001	 1.2873678778e+000	-2.2332330491e+000
 1.1150313005e-001	 1.2885184930e+000	-2.2394670645e+000
 9.8956261018e-002	 1.2895427369e+000	-2.2448910298e+000
 8.6445107362e-002	 1.2904417936e+000	-2.2496410910e+000
 7.3971305751e-002	 1.2912168702e+000	-2.2537803082e+000
 6.1536456972e-002	 1.2918691960e+000	-2.2572951509e+000
 4.9142125742e-002	 1.2924000213e+000	-2.2600924803e+000
 3.6789840543e-002	 1.2928106164e+000	-2.2619970306e+000
 2.4481093498e-002	 1.2931022703e+000	-2.2627493959e+000
 1.2217340271e-002	 1.2932762902e+000	-2.2620045268e+000
 0.0000000000e+000	 1.2933340000e+000	-2.2593307620e+000
 1.2472358632e-001	 1.2940031277e+000	-2.1758263674e+000
 1.1207783068e-001	 1.2951596733e+000	-2.1815728460e+000
 9.9466293567e-002	 1.2961891963e+000	-2.1865096155e+000
 8.6890655910e-002	 1.2970928868e+000	-2.1907861461e+000
 7.4352562815e-002	 1.2978719582e+000	-2.1944764829e+000
 6.1853623320e-002	 1.2985276462e+000	-2.1975755788e+000
 4.9395410206e-002	 1.2990612075e+000	-2.1999961305e+000
 3.6979459834e-002	 1.2994739188e+000	-2.2015659286e+000
 2.4607272017e-002	 1.2997670760e+000	-2.2020257299e+000
 1.2280309921e-002	 1.2999419928e+000	-2.2010276570e+000
 0.0000000000e+000	 1.3000000000e+000	-2.1981341422e+000
 1.2536313049e-001	 1.3006383776e+000	-2.1208678241e+000
 1.1265253131e-001	 1.3018008536e+000	-2.1260835594e+000
 9.9976326115e-002	 1.3028356557e+000	-2.1304863857e+000
 8.7336204458e-002	 1.3037439800e+000	-2.1342413062e+000
 7.4733819879e-002	 1.3045270463e+000	-2.1374355572e+000
 6.2170789668e-002	 1.3051860964e+000	-2.1400747702e+000
 4.9648694670e-002	 1.3057223936e+000	-2.1420796524e+000
 3.7169079125e-002	 1.3061372212e+000	-2.1432831980e+000
 2.4733450535e-002	 1.3064318816e+000	-2.1434284385e+000
 1.2343279571e-002	 1.3066076953e+000	-2.1421667373e+000
 0.0000000000e+000	 1.3066660000e+000	-2.1390566418e+000
 1.2600267467e-001	 1.3072736274e+000	-2.0682780743e+000
 1.1322723194e-001	 1.3084420339e+000	-2.0729104488e+000
 1.0048635866e-001	 1.3094821150e+000	-2.0767244449e+000
 8.7781753006e-002	 1.3103950732e+000	-2.0799028348e+000
 7.5115076943e-002	 1.3111821343e+000	-2.0825482784e+000
 6.2487956016e-002	 1.3118445467e+000	-2.0846793053e+000
 4.9901979134e-002	 1.3123835798e+000	-2.0862268312e+000
 3.7358698416e-002	 1.3128005236e+000	-2.0870312220e+000
 2.4859629054e-002	 1.3130966872e+000	-2.0868399146e+000
 1.2406249222e-002	 1.3132733979e+000	-2.0853055992e+000
 0.0000000000e+000	 1.3133320000e+000	-2.0819849743e+000
 1.2664221885e-001	 1.3139088773e+000	-2.0179797976e+000
 1.1380193258e-001	 1.3150832142e+000	-2.0219668149e+000
 1.0099639121e-001	 1.3161285744e+000	-2.0251289664e+000
 8.8227301555e-002	 1.3170461664e+000	-2.0276690573e+000
 7.5496334008e-002	 1.3178372224e+000	-2.0297074304e+000
 6.2805122364e-002	 1.3185029969e+000	-2.0312777583e+000
 5.0155263599e-002	 1.3190447659e+000	-2.0323233865e+000
 3.7548317707e-002	 1.3194638260e+000	-2.0326942429e+000
 2.4985807574e-002	 1.3197614929e+000	-2.0321443205e+000
 1.2469218872e-002	 1.3199391005e+000	-2.0303297399e+000
 0.0000000000e+000	 1.3199980000e+000	-2.0268074024e+000
 1.2728176302e-001	 1.3205441272e+000	-1.9698976585e+000
 1.1437663321e-001	 1.3217243945e+000	-1.9731679743e+000
 1.0150642376e-001	 1.3227750338e+000	-1.9756071497e+000
 8.8672850103e-002	 1.3236972597e+000	-1.9774403172e+000
 7.5877591073e-002	 1.3244923105e+000	-1.9788077893e+000
 6.3122288713e-002	 1.3251614471e+000	-1.9797606522e+000
 5.0408548064e-002	 1.3257059521e+000	-1.9802569279e+000
 3.7737936999e-002	 1.3261271284e+000	-1.9801583188e+000
 2.5111986093e-002	 1.3264262985e+000	-1.9792275452e+000
 1.2532188523e-002	 1.3266048030e+000	-1.9771262814e+000
 0.0000000000e+000	 1.3266640000e+000	-1.9734136989e+000
 1.2792130720e-001	 1.3271793771e+000	-1.9239582687e+000
 1.1495133384e-001	 1.3283655748e+000	-1.9264312188e+000
 1.0201645631e-001	 1.3294214931e+000	-1.9280681797e+000
 8.9118398652e-002	 1.3303483529e+000	-1.9291189342e+000
 7.6258848138e-002	 1.3311473985e+000	-1.9297460805e+000
 6.3439455063e-002	 1.3318198973e+000	-1.9300204167e+000
 5.0661832530e-002	 1.3323671383e+000	-1.9299169124e+000
 3.7927556291e-002	 1.3327904308e+000	-1.9293112811e+000
 2.5238164613e-002	 1.3330911041e+000	-1.9279771641e+000
 1.2595158174e-002	 1.3332705056e+000	-1.9255839312e+000
 0.0000000000e+000	 1.3333300000e+000	-1.9216951795e+000
 1.3333300000e+000	 0.0000000000e+000	 3.4916509242e+000
 1.3332705056e+000	 1.2595158174e-002	 3.4882869695e+000
 1.3330911041e+000	 2.5238164613e-002	 3.4841634507e+000
 1.3327904308e+000	 3.7927556291e-002	 3.4790811079e+000
 1.3323671383e+000	 5.0661832530e-002	 3.4727931189e+000
 1.3318198973e+000	 6.3439455063e-002	 3.4650065982e+000
 1.3311473985e+000	 7.6258848138e-002	 3.4553846188e+000
 1.3303483529e+000	 8.9118398652e-002	 3.4435486943e+000
 1.3294214931e+000	 1.0201645631e-001	 3.4290817261e+000
 1.3283655748e+000	 1.1495133384e-001	 3.4115314213e+000
 1.3271793771e+000	 1.2792130720e-001	 3.3904141792e+000
 1.3399970000e+000	 0.0000000000e+000	 3.5005200133e+000
 1.3399372081e+000	 1.2658137271e-002	 3.4973950168e+000
 1.3397569096e+000	 2.5364362062e-002	 3.4932864369e+000
 1.3394547329e+000	 3.8117204030e-002	 3.4880258468e+000
 1.3390293237e+000	 5.0915154992e-002	 3.4814052620e+000
 1.3384793464e+000	 6.3756668992e-002	 3.4731790954e+000
 1.3378034849e+000	 7.6640162398e-002	 3.4630662869e+000
 1.3370004439e+000	 8.9564014040e-002	 3.4507526038e+000
 1.3360689496e+000	 1.0252656537e-001	 3.4358931218e+000
 1.3350077513e+000	 1.1552612068e-001	 3.4181148902e+000
 1.3338156224e+000	 1.2856094731e-001	 3.3970197906e+000
 1.3466640000e+000	 0.0000000000e+000	 3.5087245587e+000
 1.3466039106e+000	 1.2721116369e-002	 3.5058196748e+000
 1.3464227150e+000	 2.5490559511e-002	 3.5017220526e+000
 1.3461190349e+000	 3.8306851769e-002	 3.4962838420e+000
 1.3456915091e+000	 5.1168477455e-002	 3.4893179296e+000
 1.3451387955e+000	 6.4073882921e-002	 3.4805998867e+000
 1.3444595713e+000	 7.7021476658e-002	 3.4698700894e+000
 1.3436525348e+000	 9.0009629427e-002	 3.4568360084e+000
 1.3427164060e+000	 1.0303667443e-001	 3.4411746753e+000
 1.3416499279e+000	 1.1610090753e-001	 3.4225353323e+000
 1.3404518676e+000	 1.2920058743e-001	 3.4005422735e+000
 1.3533310000e+000	 0.0000000000e+000	 3.5162209865e+000
 1.3532706131e+000	 1.2784095467e-002	 3.5135216778e+000
 1.3530885205e+000	 2.5616756960e-002	 3.5094373823e+000
 1.3527833369e+000	 3.8496499508e-002	 3.5038409608e+000
 1.3523536946e+000	 5.1421799918e-002	 3.4965662511e+000
 1.3517982446e+000	 6.4391096851e-002	 3.4874100085e+000
 1.3511156578e+000	 7.7402790918e-002	 3.4761340128e+000
 1.3503046258e+000	 9.0455244815e-002	 3.4624673443e+000
 1.3493638625e+000	 1.0354678350e-001	 3.4461088326e+000
 1.3482921045e+000	 1.1667569437e-001	 3.4267296880e+000
 1.3470881129e+000	 1.2984022754e-001	 3.4039763211e+000
 1.3599980000e+000	 0.0000000000e+000	 3.5229656596e+000
 1.3599373156e+000	 1.2847074565e-002	 3.5204616478e+000
 1.3597543260e+000	 2.5742954410e-002	 3.5163961614e+000
 1.3594476389e+000	 3.8686147247e-002	 3.5106628993e+000
 1.3590158800e+000	 5.1675122381e-002	 3.5031167280e+000
 1.3584576937e+000	 6.4708310781e-002	 3.4935756099e+000
 1.3577717442e+000	 7.7784105178e-002	 3.4818226952e+000
 1.3569567168e+000	 9.0900860203e-002	 3.4676085804e+000
 1.3560113189e+000	 1.0405689256e-001	 3.4506537375e+000
 1.3549342811e+000	 1.1725048121e-001	 3.4306511227e+000
 1.3537243582e+000	 1.3047986766e-001	 3.4072689723e+000
 1.3666650000e+000	 0.0000000000e+000	 3.5289148782e+000
 1.3666040181e+000	 1.2910053663e-002	 3.5266001635e+000
 1.3664201314e+000	 2.5869151860e-002	 3.5225621132e+000
 1.3661119409e+000	 3.8875794986e-002	 3.5167153880e+000
 1.3656780655e+000	 5.1928444845e-002	 3.5089359567e+000
 1.3651171428e+000	 6.5025524711e-002	 3.4990630099e+000
 1.3644278306e+000	 7.8165419438e-002	 3.4869010343e+000
 1.3636088078e+000	 9.1346475591e-002	 3.4722220504e+000
 1.3626587754e+000	 1.0456700162e-001	 3.4547680185e+000
 1.3615764576e+000	 1.1782526806e-001	 3.4342534226e+000
 1.3603606034e+000	 1.3111950777e-001	 3.4103680381e+000
 1.3733320000e+000	 0.0000000000e+000	 3.5340248820e+000
 1.3732707206e+000	 1.2973032761e-002	 3.5318977623e+000
 1.3730859369e+000	 2.5995349309e-002	 3.5278989532e+000
 1.3727762429e+000	 3.9065442726e-002	 3.5219641957e+000
 1.3723402509e+000	 5.2181767308e-002	 3.5139906319e+000
 1.3717765919e+000	 6.5342738641e-002	 3.5038387001e+000
 1.3710839170e+000	 7.8546733698e-002	 3.4913341891e+000
 1.3702608988e+000	 9.1792090979e-002	 3.4762704520e+000
 1.3693062318e+000	 1.0507711068e-001	 3.4584107864e+000
 1.3682186342e+000	 1.1840005490e-001	 3.4374909891e+000
 1.3669968487e+000	 1.3175914789e-001	 3.4132220935e+000
 1.3799990000e+000	 0.0000000000e+000	 3.5382518516e+000
 1.3799374232e+000	 1.3036011859e-002	 3.5363149433e+000
 1.3797517423e+000	 2.6121546759e-002	 3.5323703917e+000
 1.3794405449e+000	 3.9255090465e-002	 3.5263751330e+000
 1.3790024363e+000	 5.2435089771e-002	 3.5182475500e+000
 1.3784360410e+000	 6.5659952571e-002	 3.5078693471e+000
 1.3777400035e+000	 7.8928047958e-002	 3.4950875807e+000
 1.3769129898e+000	 9.2237706366e-002	 3.4797168468e+000
 1.3759536882e+000	 1.0558721974e-001	 3.4615416313e+000
 1.3748608108e+000	 1.1897484175e-001	 3.4403188333e+000
 1.3736330940e+000	 1.3239878800e-001	 3.4157804684e+000
 1.3866660000e+000	 0.0000000000e+000	 3.5415519098e+000
 1.3866041257e+000	 1.3098990957e-002	 3.5398121698e+000
 1.3864175478e+000	 2.6247744208e-002	 3.5359401378e+000
 1.3861048470e+000	 3.9444738204e-002	 3.5299140558e+000
 1.3856646218e+000	 5.2688412234e-002	 3.5216736126e+000
 1.3850954901e+000	 6.5977166500e-002	 3.5111217954e+000
 1.3843960899e+000	 7.9309362218e-002	 3.4981268943e+000
 1.3835650807e+000	 9.2683321754e-002	 3.4825246596e+000
 1.3826011447e+000	 1.0609732880e-001	 3.4641206202e+000
 1.3815029874e+000	 1.1954962859e-001	 3.4426925711e+000
 1.3802693393e+000	 1.3303842812e-001	 3.4179932394e+000
 1.3933330000e+000	 0.0000000000e+000	 3.5438811228e+000
 1.3932708282e+000	 1.3161970055e-002	 3.5423498717e+000
 1.3930833533e+000	 2.6373941657e-002	 3.5385719021e+000
 1.3927691490e+000	 3.9634385943e-002	 3.5325468688e+000
 1.3923268072e+000	 5.2941734697e-002	 3.5242358290e+000
 1.3917549391e+000	 6.6294380430e-002	 3.5135630692e+000
 1.3910521763e+000	 7.9690676477e-002	 3.5004180795e+000
 1.3902171717e+000	 9.3128937142e-002	 3.4846576782e+000
 1.3892486011e+000	 1.0660743786e-001	 3.4661082944e+000
 1.3881451639e+000	 1.2012441543e-001	 3.4445684175e+000
 1.3869055845e+000	 1.3367806823e-001	 3.4198112217e+000
 1.4000000000e+000	 0.0000000000e+000	 3.5451955020e+000
 1.3999375307e+000	 1.3224949153e-002	 3.5438884483e+000
 1.3997491587e+000	 2.6500139106e-002	 3.5402294002e+000
 1.3994334510e+000	 3.9824033681e-002	 3.5342395284e+000
 1.3989889927e+000	 5.3195057159e-002	 3.5259013198e+000
 1.3984143882e+000	 6.6611594359e-002	 3.5151603755e+000
 1.3977082627e+000	 8.0071990737e-002	 3.5019273524e+000
 1.3968692627e+000	 9.3574552529e-002	 3.4860800526e+000
 1.3958960576e+000	 1.0711754693e-001	 3.4674656669e+000
 1.3947873405e+000	 1.2069920228e-001	 3.4459031819e+000
 1.3935418298e+000	 1.3431770835e-001	 3.4211859608e+000
 1.3271793771e+000	 1.2792130720e-001	 3.3904141792e+000
 1.3258619119e+000	 1.4092266764e-001	 3.3669213653e+000
 1.3244118423e+000	 1.5395558525e-001	 3.3424213205e+000
 1.3228280263e+000	 1.6701825681e-001	 3.3166676671e+000
 1.3211093503e+000	 1.8010884449e-001	 3.2893945113e+000
 1.3192547300e+000	 1.9322547623e-001	 3.2603219043e+000
 1.3172631115e+000	 2.0636624624e-001	 3.2291617014e+000
 1.3151334723e+000	 2.1952921545e-001	 3.1956237962e+000
 1.3128648225e+000	 2.3271241205e-001	 3.1594227050e+000
 1.3104562057e+000	 2.4591383207e-001	 3.1202844691e+000
 1.3079067005e+000	 2.5913143995e-001	 3.0779538433e+000
 1.3338156224e+000	 1.2856094731e-001	 3.3970197906e+000
 1.3324915695e+000	 1.4162731797e-001	 3.3737655937e+000
 1.3310342491e+000	 1.5472540359e-001	 3.3494778743e+000
 1.3294425136e+000	 1.6785339194e-001	 3.3238815348e+000
 1.3277152438e+000	 1.8100943599e-001	 3.2967011849e+000
 1.3258513500e+000	 1.9419165434e-001	 3.2676451188e+000
 1.3238497729e+000	 2.0739813165e-001	 3.2364113210e+000
 1.3217094849e+000	 2.2062691915e-001	 3.2026938630e+000
 1.3194294912e+000	 2.3387603520e-001	 3.1661896639e+000
 1.3170088308e+000	 2.4714346578e-001	 3.1266055840e+000
 1.3144465773e+000	 2.6042716518e-001	 3.0836658169e+000
 1.3404518676e+000	 1.2920058743e-001	 3.4005422735e+000
 1.3391212271e+000	 1.4233196830e-001	 3.3763534091e+000
 1.3376566560e+000	 1.5549522193e-001	 3.3512851712e+000
 1.3360570010e+000	 1.6868852707e-001	 3.3251752873e+000
 1.3343211374e+000	 1.8191002749e-001	 3.2978397272e+000
 1.3324479699e+000	 1.9515783244e-001	 3.2690194811e+000
 1.3304364342e+000	 2.0843001705e-001	 3.2380387450e+000
 1.3282854975e+000	 2.2172462286e-001	 3.2044930381e+000
 1.3259941599e+000	 2.3503965835e-001	 3.1680611830e+000
 1.3235614558e+000	 2.4837309949e-001	 3.1284303773e+000
 1.3209864542e+000	 2.6172289040e-001	 3.0853037971e+000
 1.3470881129e+000	 1.2984022754e-001	 3.4039763211e+000
 1.3457508847e+000	 1.4303661863e-001	 3.3789497642e+000
 1.3442790629e+000	 1.5626504027e-001	 3.3528993129e+000
 1.3426714884e+000	 1.6952366219e-001	 3.3256693879e+000
 1.3409270309e+000	 1.8281061899e-001	 3.2970819974e+000
 1.3390445899e+000	 1.9612401054e-001	 3.2669399613e+000
 1.3370230955e+000	 2.0946190245e-001	 3.2350303763e+000
 1.3348615101e+000	 2.2282232656e-001	 3.2011283313e+000
 1.3325588287e+000	 2.3620328149e-001	 3.1649604955e+000
 1.3301140808e+000	 2.4960273321e-001	 3.1256826356e+000
 1.3275263310e+000	 2.6301861562e-001	 3.0827932854e+000
 1.3537243582e+000	 1.3047986766e-001	 3.4072689723e+000
 1.3523805423e+000	 1.4374126896e-001	 3.3815482783e+000
 1.3509014698e+000	 1.5703485861e-001	 3.3546684738e+000
 1.3492859758e+000	 1.7035879732e-001	 3.3264809722e+000
 1.3475329245e+000	 1.8371121049e-001	 3.2968141897e+000
 1.3456412098e+000	 1.9709018864e-001	 3.2654767480e+000
 1.3436097569e+000	 2.1049378785e-001	 3.2322609173e+000
 1.3414375226e+000	 2.2392003026e-001	 3.1969463137e+000
 1.3391234974e+000	 2.3736690464e-001	 3.1593038609e+000
 1.3366667058e+000	 2.5083236692e-001	 3.1191000271e+000
 1.3340662078e+000	 2.6431434084e-001	 3.0761013502e+000
 1.3603606034e+000	 1.3111950777e-001	 3.4103680381e+000
 1.3590101999e+000	 1.4444591929e-001	 3.3840905637e+000
 1.3575238766e+000	 1.5780467694e-001	 3.3565287494e+000
 1.3559004631e+000	 1.7119393244e-001	 3.3275413041e+000
 1.3541388180e+000	 1.8461180199e-001	 3.2969634255e+000
 1.3522378298e+000	 1.9805636675e-001	 3.2646099788e+000
 1.3501964182e+000	 2.1152567325e-001	 3.2302789182e+000
 1.3480135352e+000	 2.2501773397e-001	 3.1937549642e+000
 1.3456881662e+000	 2.3853052779e-001	 3.1548135469e+000
 1.3432193308e+000	 2.5206200063e-001	 3.1132250292e+000
 1.3406060847e+000	 2.6561006606e-001	 3.0687592197e+000
 1.3669968487e+000	 1.3175914789e-001	 3.4132220935e+000
 1.3656398575e+000	 1.4515056962e-001	 3.3865191433e+000
 1.3641462835e+000	 1.5857449528e-001	 3.3584172731e+000
 1.3625149505e+000	 1.7202906757e-001	 3.3287827944e+000
 1.3607447116e+000	 1.8551239349e-001	 3.2974580632e+000
 1.3588344498e+000	 1.9902254485e-001	 3.2642646336e+000
 1.3567830796e+000	 2.1255755865e-001	 3.2290066571e+000
 1.3545895478e+000	 2.2611543767e-001	 3.1914745375e+000
 1.3522528349e+000	 2.3969415093e-001	 3.1514488558e+000
 1.3497719559e+000	 2.5329163434e-001	 3.1087045761e+000
 1.3471459615e+000	 2.6690579128e-001	 3.0630155467e+000
 1.3736330940e+000	 1.3239878800e-001	 3.4157804684e+000
 1.3722695151e+000	 1.4585521995e-001	 3.3887774381e+000
 1.3707686904e+000	 1.5934431362e-001	 3.3602722010e+000
 1.3691294379e+000	 1.7286420269e-001	 3.3301389831e+000
 1.3673506051e+000	 1.8641298499e-001	 3.2982276789e+000
 1.3654310697e+000	 1.9998872295e-001	 3.2643669811e+000
 1.3633697409e+000	 2.1358944405e-001	 3.2283677544e+000
 1.3611655604e+000	 2.2721314137e-001	 3.1900266681e+000
 1.3588175036e+000	 2.4085777408e-001	 3.1491300998e+000
 1.3563245809e+000	 2.5452126805e-001	 3.1054583237e+000
 1.3536858383e+000	 2.6820151650e-001	 3.0587899967e+000
 1.3802693393e+000	 1.3303842812e-001	 3.4179932394e+000
 1.3788991727e+000	 1.4655987028e-001	 3.3908097560e+000
 1.3773910972e+000	 1.6011413196e-001	 3.3620326984e+000
 1.3757439253e+000	 1.7369933782e-001	 3.3315445227e+000
 1.3739564986e+000	 1.8731357649e-001	 3.2992030478e+000
 1.3720276897e+000	 2.0095490105e-001	 3.2648445579e+000
 1.3699564022e+000	 2.1462132946e-001	 3.2282871510e+000
 1.3677415730e+000	 2.2831084507e-001	 3.1893343467e+000
 1.3653821724e+000	 2.4202139722e-001	 3.1477789680e+000
 1.3628772059e+000	 2.5575090176e-001	 3.1034073092e+000
 1.3602257151e+000	 2.6949724172e-001	 3.0560036062e+000
 1.3869055845e+000	 1.3367806823e-001	 3.4198112217e+000
 1.3855288304e+000	 1.4726452061e-001	 3.3925612806e+000
 1.3840135041e+000	 1.6088395030e-001	 3.3636389248e+000
 1.3823584126e+000	 1.7453447294e-001	 3.3329351620e+000
 1.3805623922e+000	 1.8821416799e-001	 3.3003161255e+000
 1.3786243096e+000	 2.0192107915e-001	 3.2656261486e+000
 1.3765430636e+000	 2.1565321486e-001	 3.2286910865e+000
 1.3743175856e+000	 2.2940854877e-001	 3.1893218981e+000
 1.3719468411e+000	 2.4318502037e-001	 3.1473185028e+000
 1.3694298309e+000	 2.5698053547e-001	 3.1024739281e+000
 1.3667655920e+000	 2.7079296694e-001	 3.0545787599e+000
 1.3935418298e+000	 1.3431770835e-001	 3.4211859608e+000
 1.3921584880e+000	 1.4796917094e-001	 3.3939780598e+000
 1.3906359110e+000	 1.6165376864e-001	 3.3650320208e+000
 1.3889729000e+000	 1.7536960807e-001	 3.3342477298e+000
 1.3871682857e+000	 1.8911475949e-001	 3.3015000296e+000
 1.3852209296e+000	 2.0288725725e-001	 3.2666417655e+000
 1.3831297249e+000	 2.1668510026e-001	 3.2295070784e+000
 1.3808935982e+000	 2.3050625248e-001	 3.1899149587e+000
 1.3785115099e+000	 2.4434864351e-001	 3.1476730777e+000
 1.3759824560e+000	 2.5821016918e-001	 3.1025819106e+000
 1.3733054688e+000	 2.7208869216e-001	 3.0544391674e+000
 1.3079067005e+000	 2.5913143995e-001	 3.0779538433e+000
 1.3052150068e+000	 2.7236515463e-001	 3.0322631684e+000
 1.3023806482e+000	 2.8561089417e-001	 2.9833177523e+000
 1.2994028142e+000	 2.9886652818e-001	 2.9313025097e+000
 1.2962807336e+000	 3.1212989743e-001	 2.8764509893e+000
 1.2930136750e+000	 3.2539881461e-001	 2.8190528033e+000
 1.2896009480e+000	 3.3867106518e-001	 2.7594610554e+000
 1.2860419042e+000	 3.5194440822e-001	 2.6980997093e+000
 1.2823359378e+000	 3.6521657738e-001	 2.6354708394e+000
 1.2784824874e+000	 3.7848528178e-001	 2.5721617042e+000
 1.2744810358e+000	 3.9174820702e-001	 2.5088515776e+000
 1.3144465773e+000	 2.6042716518e-001	 3.0836658169e+000
 1.3117414245e+000	 2.7372705190e-001	 3.0371656786e+000
 1.3088928933e+000	 2.8703902361e-001	 2.9872075769e+000
 1.3059001694e+000	 3.0036093928e-001	 2.9340057527e+000
 1.3027624776e+000	 3.1369062886e-001	 2.8778231091e+000
 1.2994790828e+000	 3.2702589410e-001	 2.8189788126e+000
 1.2960492913e+000	 3.4036450940e-001	 2.7578558932e+000
 1.2924724513e+000	 3.5370422265e-001	 2.6949087889e+000
 1.2887479541e+000	 3.6704275613e-001	 2.6306707715e+000
 1.2848752354e+000	 3.8037780754e-001	 2.5657611927e+000
 1.2808537755e+000	 3.9370705089e-001	 2.5008924861e+000
 1.3209864542e+000	 2.6172289040e-001	 3.0853037971e+000
 1.3182678421e+000	 2.7508894917e-001	 3.0384376520e+000
 1.3154051384e+000	 2.8846715306e-001	 2.9879233265e+000
 1.3123975245e+000	 3.0185535037e-001	 2.9339950047e+000
 1.3092442215e+000	 3.1525136028e-001	 2.8769354647e+000
 1.3059444906e+000	 3.2865297359e-001	 2.8170838689e+000
 1.3024976346e+000	 3.4205795363e-001	 2.7548435591e+000
 1.2989029984e+000	 3.5546403707e-001	 2.6906897957e+000
 1.2951599705e+000	 3.6886893489e-001	 2.6251773797e+000
 1.2912679834e+000	 3.8227033330e-001	 2.5589480942e+000
 1.2872265152e+000	 3.9566589476e-001	 2.4927378974e+000
 1.3275263310e+000	 2.6301861562e-001	 3.0827932854e+000
 1.3247942598e+000	 2.7645084644e-001	 3.0360070404e+000
 1.3219173835e+000	 2.8989528250e-001	 2.9853957982e+000
 1.3188948797e+000	 3.0334976146e-001	 2.9312043833e+000
 1.3157259654e+000	 3.1681209170e-001	 2.8737260494e+000
 1.3124098984e+000	 3.3028005308e-001	 2.8133104792e+000
 1.3089459778e+000	 3.4375139786e-001	 2.7503717925e+000
 1.3053335455e+000	 3.5722385150e-001	 2.6853965024e+000
 1.3015719868e+000	 3.7069511365e-001	 2.6189513543e+000
 1.2976607315e+000	 3.8416285906e-001	 2.5516909838e+000
 1.2935992550e+000	 3.9762473863e-001	 2.4843653235e+000
 1.3340662078e+000	 2.6431434084e-001	 3.0761013502e+000
 1.3313206774e+000	 2.7781274371e-001	 3.0298023867e+000
 1.3284296286e+000	 2.9132341194e-001	 2.9795564246e+000
 1.3253922349e+000	 3.0484417256e-001	 2.9255686853e+000
 1.3222077094e+000	 3.1837282312e-001	 2.8681335767e+000
 1.3188753062e+000	 3.3190713258e-001	 2.8076019037e+000
 1.3153943211e+000	 3.4544484209e-001	 2.7443891096e+000
 1.3117640926e+000	 3.5898366593e-001	 2.6789834695e+000
 1.3079840031e+000	 3.7252129240e-001	 2.6119541682e+000
 1.3040534795e+000	 3.8605538483e-001	 2.5439591953e+000
 1.2999719947e+000	 3.9958358250e-001	 2.4757529890e+000
 1.3406060847e+000	 2.6561006606e-001	 3.0687592197e+000
 1.3378470951e+000	 2.7917464098e-001	 3.0211545293e+000
 1.3349418737e+000	 2.9275154139e-001	 2.9705141614e+000
 1.3318895900e+000	 3.0633858365e-001	 2.9170233891e+000
 1.3286894533e+000	 3.1993355454e-001	 2.8600974841e+000
 1.3253407140e+000	 3.3353421207e-001	 2.7999021630e+000
 1.3218426644e+000	 3.4713828631e-001	 2.7368448136e+000
 1.3181946397e+000	 3.6074348035e-001	 2.6714060588e+000
 1.3143960194e+000	 3.7434747116e-001	 2.6041480941e+000
 1.3104462276e+000	 3.8794791059e-001	 2.5357228427e+000
 1.3063447344e+000	 4.0154242637e-001	 2.4668798572e+000
 1.3471459615e+000	 2.6690579128e-001	 3.0630155467e+000
 1.3443735128e+000	 2.8053653824e-001	 3.0140959341e+000
 1.3414541189e+000	 2.9417967083e-001	 2.9620304533e+000
 1.3383869452e+000	 3.0783299474e-001	 2.9071414002e+000
 1.3351711973e+000	 3.2149428596e-001	 2.8497708859e+000
 1.3318061218e+000	 3.3516129155e-001	 2.7901560462e+000
 1.3282910076e+000	 3.4883173054e-001	 2.7276890059e+000
 1.3246251868e+000	 3.6250329478e-001	 2.6626204475e+000
 1.3208080357e+000	 3.7617364992e-001	 2.5954962226e+000
 1.3168389756e+000	 3.8984043635e-001	 2.5269528418e+000
 1.3127174742e+000	 4.0350127024e-001	 2.4577256563e+000
 1.3536858383e+000	 2.6820151650e-001	 3.0587899967e+000
 1.3508999304e+000	 2.8189843551e-001	 3.0088123589e+000
 1.3479663640e+000	 2.9560780027e-001	 2.9555834002e+000
 1.3448843003e+000	 3.0932740584e-001	 2.8994290128e+000
 1.3416529412e+000	 3.2305501738e-001	 2.8406939902e+000
 1.3382715296e+000	 3.3678837104e-001	 2.7797472907e+000
 1.3347393509e+000	 3.5052517477e-001	 2.7169876449e+000
 1.3310557339e+000	 3.6426310920e-001	 2.6525836425e+000
 1.3272200520e+000	 3.7799982867e-001	 2.5859624798e+000
 1.3232317236e+000	 3.9173296211e-001	 2.5176209322e+000
 1.3190902139e+000	 4.0546011411e-001	 2.4482709062e+000
 1.3602257151e+000	 2.6949724172e-001	 3.0560036062e+000
 1.3574263481e+000	 2.8326033278e-001	 3.0052251471e+000
 1.3544786091e+000	 2.9703592971e-001	 2.9510946935e+000
 1.3513816555e+000	 3.1082181693e-001	 2.8939343711e+000
 1.3481346852e+000	 3.2461574880e-001	 2.8340842037e+000
 1.3447369374e+000	 3.3841545053e-001	 2.7719073842e+000
 1.3411876941e+000	 3.5221861899e-001	 2.7077958983e+000
 1.3374862810e+000	 3.6602292363e-001	 2.6421765136e+000
 1.3336320683e+000	 3.7982600743e-001	 2.5755171402e+000
 1.3296244717e+000	 3.9362548787e-001	 2.5076996994e+000
 1.3254629536e+000	 4.0741895798e-001	 2.4384969442e+000
 1.3667655920e+000	 2.7079296694e-001	 3.0545787599e+000
 1.3639527657e+000	 2.8462223005e-001	 3.0032569728e+000
 1.3609908542e+000	 2.9846405916e-001	 2.9484873356e+000
 1.3578790107e+000	 3.1231622802e-001	 2.8905809594e+000
 1.3546164291e+000	 3.2617648022e-001	 2.8298657612e+000
 1.3512023452e+000	 3.4004253002e-001	 2.7666917498e+000
 1.3476360374e+000	 3.5391206322e-001	 2.7014366757e+000
 1.3439168281e+000	 3.6778273806e-001	 2.6345120552e+000
 1.3400440846e+000	 3.8165218618e-001	 2.5663695770e+000
 1.3360172197e+000	 3.9551801363e-001	 2.4975078981e+000
 1.3318356934e+000	 4.0937780185e-001	 2.4283859522e+000
 1.3733054688e+000	 2.7208869216e-001	 3.0544391674e+000
 1.3704791834e+000	 2.8598412731e-001	 3.0028318179e+000
 1.3675030993e+000	 2.9989218860e-001	 2.9476856175e+000
 1.3643763658e+000	 3.1381063911e-001	 2.8892935284e+000
 1.3610981730e+000	 3.2773721164e-001	 2.8279641360e+000
 1.3576677530e+000	 3.4166960951e-001	 2.7640269605e+000
 1.3540843807e+000	 3.5560550744e-001	 2.6978381406e+000
 1.3503473752e+000	 3.6954255248e-001	 2.6297865021e+000
 1.3464561009e+000	 3.8347836494e-001	 2.5603000211e+000
 1.3424099678e+000	 3.9741053939e-001	 2.4898526884e+000
 1.3382084331e+000	 4.1133664571e-001	 2.4189717808e+000
 1.2744810358e+000	 3.9174820702e-001	 2.5088515776e+000
 1.2703311115e+000	 4.0500301600e-001	 2.4448316032e+000
 1.2660322882e+000	 4.1824734936e-001	 2.3788409670e+000
 1.2615841866e+000	 4.3147882712e-001	 2.3108938100e+000
 1.2569864756e+000	 4.4469505000e-001	 2.2411296981e+000
 1.2522388732e+000	 4.5789360059e-001	 2.1698202105e+000
 1.2473411471e+000	 4.7107204451e-001	 2.0973749155e+000
 1.2422931153e+000	 4.8422793165e-001	 2.0243466686e+000
 1.2370946472e+000	 4.9735879742e-001	 1.9514361662e+000
 1.2317456639e+000	 5.1046216404e-001	 1.8794956933e+000
 1.2262461389e+000	 5.2353554182e-001	 1.8095320044e+000
 1.2808537755e+000	 3.9370705089e-001	 2.5008924861e+000
 1.2766831005e+000	 4.0702813740e-001	 2.4354683616e+000
 1.2723627819e+000	 4.2033869590e-001	 2.3682832750e+000
 1.2678924387e+000	 4.3363633452e-001	 2.2993014380e+000
 1.2632717380e+000	 4.4691864199e-001	 2.2286153564e+000
 1.2585003963e+000	 4.6018318879e-001	 2.1564527291e+000
 1.2535781802e+000	 4.7342752839e-001	 2.0831827234e+000
 1.2485049070e+000	 4.8664919842e-001	 2.0093215559e+000
 1.2432804452e+000	 4.9984572197e-001	 1.9355373117e+000
 1.2379047155e+000	 5.1301460885e-001	 1.8626539377e+000
 1.2323776915e+000	 5.2615335696e-001	 1.7916543469e+000
 1.2872265152e+000	 3.9566589476e-001	 2.4927378974e+000
 1.2830350895e+000	 4.0905325879e-001	 2.4260661446e+000
 1.2786932757e+000	 4.2243004243e-001	 2.3577976701e+000
 1.2742006908e+000	 4.3579384191e-001	 2.2878552508e+000
 1.2695570003e+000	 4.4914223397e-001	 2.2162928850e+000
 1.2647619194e+000	 4.6247277699e-001	 2.1433029954e+000
 1.2598152134e+000	 4.7578301227e-001	 2.0692229940e+000
 1.2547166987e+000	 4.8907046519e-001	 1.9945411354e+000
 1.2494662431e+000	 5.0233264651e-001	 1.9199015925e+000
 1.2440637672e+000	 5.1556705367e-001	 1.8461086839e+000
 1.2385092441e+000	 5.2877117210e-001	 1.7741301901e+000
 1.2935992550e+000	 3.9762473863e-001	 2.4843653235e+000
 1.2893870785e+000	 4.1107838018e-001	 2.4166114186e+000
 1.2850237695e+000	 4.2452138897e-001	 2.3473783771e+000
 1.2805089429e+000	 4.3795134931e-001	 2.2765558518e+000
 1.2758422626e+000	 4.5136582595e-001	 2.2041677047e+000
 1.2710234425e+000	 4.6476236519e-001	 2.1303795057e+000
 1.2660522466e+000	 4.7813849615e-001	 2.0555053772e+000
 1.2609284903e+000	 4.9149173196e-001	 1.9800141131e+000
 1.2556520411e+000	 5.0481957106e-001	 1.9045344984e+000
 1.2502228189e+000	 5.1811949849e-001	 1.8298597613e+000
 1.2446407967e+000	 5.3138898724e-001	 1.7569510908e+000
 1.2999719947e+000	 3.9958358250e-001	 2.4757529890e+000
 1.2957390676e+000	 4.1310350158e-001	 2.4070913131e+000
 1.2913542633e+000	 4.2661273551e-001	 2.3370202539e+000
 1.2868171950e+000	 4.4010885671e-001	 2.2654044694e+000
 1.2821275250e+000	 4.5358941793e-001	 2.1922458768e+000
 1.2772849655e+000	 4.6705195340e-001	 2.1176914375e+000
 1.2722892797e+000	 4.8049398003e-001	 2.0420402746e+000
 1.2671402820e+000	 4.9391299873e-001	 1.9657500469e+000
 1.2618378391e+000	 5.0730649560e-001	 1.8894425040e+000
 1.2563818705e+000	 5.2067194331e-001	 1.8139081530e+000
 1.2507723493e+000	 5.3400680237e-001	 1.7401099653e+000
 1.3063447344e+000	 4.0154242637e-001	 2.4668798572e+000
 1.3020910566e+000	 4.1512862297e-001	 2.3974936521e+000
 1.2976847571e+000	 4.2870408204e-001	 2.3267188268e+000
 1.2931254471e+000	 4.4226636411e-001	 2.2544029957e+000
 1.2884127873e+000	 4.5581300992e-001	 2.1805341442e+000
 1.2835464886e+000	 4.6934154160e-001	 2.1052486937e+000
 1.2785263129e+000	 4.8284946391e-001	 2.0288388835e+000
 1.2733520737e+000	 4.9633426550e-001	 1.9517593909e+000
 1.2680236371e+000	 5.0979342015e-001	 1.8746331132e+000
 1.2625409222e+000	 5.2322438812e-001	 1.7982560378e+000
 1.2569039019e+000	 5.3662461751e-001	 1.7236011292e+000
 1.3127174742e+000	 4.0350127024e-001	 2.4577256563e+000
 1.3084430456e+000	 4.1715374436e-001	 2.3878069844e+000
 1.3040152508e+000	 4.3079542858e-001	 2.3164703255e+000
 1.2994336992e+000	 4.4442387151e-001	 2.2435540243e+000
 1.2946980496e+000	 4.5803660190e-001	 2.1690399721e+000
 1.2898080117e+000	 4.7163112980e-001	 2.0930619448e+000
 1.2847633461e+000	 4.8520494779e-001	 2.0159132410e+000
 1.2795638654e+000	 4.9875553227e-001	 1.9380535402e+000
 1.2742094350e+000	 5.1228034469e-001	 1.8601149022e+000
 1.2686999738e+000	 5.2577683294e-001	 1.7829068320e+000
 1.2630354545e+000	 5.3924243265e-001	 1.7074203359e+000
 1.3190902139e+000	 4.0546011411e-001	 2.4482709062e+000
 1.3147950346e+000	 4.1917886576e-001	 2.3780206148e+000
 1.3103457446e+000	 4.3288677512e-001	 2.3062717177e+000
 1.3057419513e+000	 4.4658137891e-001	 2.2328608886e+000
 1.3009833120e+000	 4.6026019388e-001	 2.1577715893e+000
 1.2960695348e+000	 4.7392071800e-001	 2.0811426724e+000
 1.2910003792e+000	 4.8756043167e-001	 2.0032762685e+000
 1.2857756571e+000	 5.0117679904e-001	 1.9246448749e+000
 1.2803952330e+000	 5.1476726924e-001	 1.8458975637e+000
 1.2748590255e+000	 5.2832927776e-001	 1.7678652317e+000
 1.2691670070e+000	 5.4186024779e-001	 1.6915648160e+000
 1.3254629536e+000	 4.0741895798e-001	 2.4384969442e+000
 1.3211470236e+000	 4.2120398715e-001	 2.3681246347e+000
 1.3166762384e+000	 4.3497812166e-001	 2.2961207435e+000
 1.3120502034e+000	 4.4873888631e-001	 2.2223277000e+000
 1.3072685743e+000	 4.6248378587e-001	 2.1467380288e+000
 1.3023310579e+000	 4.7621030620e-001	 2.0695032112e+000
 1.2972374124e+000	 4.8991591555e-001	 1.9909418148e+000
 1.2919874487e+000	 5.0359806581e-001	 1.9115468042e+000
 1.2865810310e+000	 5.1725419378e-001	 1.8319919499e+000
 1.2810180771e+000	 5.3088172258e-001	 1.7531372542e+000
 1.2752985596e+000	 5.4447806293e-001	 1.6760333165e+000
 1.3318356934e+000	 4.0937780185e-001	 2.4283859522e+000
 1.3274990127e+000	 4.2322910855e-001	 2.3581099532e+000
 1.3230067322e+000	 4.3706946819e-001	 2.2860159508e+000
 1.3183584555e+000	 4.5089639371e-001	 2.2119593857e+000
 1.3135538367e+000	 4.6470737785e-001	 2.1359491679e+000
 1.3085925810e+000	 4.7849989440e-001	 2.0581567917e+000
 1.3034744456e+000	 4.9227139943e-001	 1.9789247001e+000
 1.2981992404e+000	 5.0601933258e-001	 1.8987738106e+000
 1.2927668290e+000	 5.1974111833e-001	 1.8184101163e+000
 1.2871771288e+000	 5.3343416740e-001	 1.7387302802e+000
 1.2814301122e+000	 5.4709587807e-001	 1.6608261401e+000
 1.3382084331e+000	 4.1133664571e-001	 2.4189717808e+000
 1.3338510017e+000	 4.2525422994e-001	 2.3479806440e+000
 1.3293372259e+000	 4.3916081473e-001	 2.2759567293e+000
 1.3246667076e+000	 4.5305390111e-001	 2.2017617262e+000
 1.3198390990e+000	 4.6693096984e-001	 2.1254157690e+000
 1.3148541040e+000	 4.8078948260e-001	 2.0471175827e+000
 1.3097114787e+000	 4.9462688332e-001	 1.9672407595e+000
 1.3044110321e+000	 5.0844059935e-001	 1.8863414931e+000
 1.2989526269e+000	 5.2222804288e-001	 1.8051653647e+000
 1.2933361804e+000	 5.3598661222e-001	 1.7246530955e+000
 1.2875616648e+000	 5.4971369321e-001	 1.6459451845e+000
 1.2262461389e+000	 5.2353554182e-001	 1.8095320044e+000
 1.2205969578e+000	 5.3657447720e-001	 1.7352338762e+000
 1.2147973878e+000	 5.4957842567e-001	 1.6509872688e+000
 1.2088475640e+000	 5.6254487187e-001	 1.5591004817e+000
 1.2027476759e+000	 5.7547129409e-001	 1.4620230297e+000
 1.1964979680e+000	 5.8835516572e-001	 1.3623416055e+000
 1.1900987399e+000	 6.0119395671e-001	 1.2627749130e+000
 1.1835503470e+000	 6.1398513500e-001	 1.1661673491e+000
 1.1768532003e+000	 6.2672616808e-001	 1.0754815190e+000
 1.1700077671e+000	 6.3941452446e-001	 9.9378957829e-001
 1.1630145709e+000	 6.5204767521e-001	 9.2426340083e-001
 1.2323776915e+000	 5.2615335696e-001	 1.7916543469e+000
 1.2267002630e+000	 5.3925749043e-001	 1.7160828946e+000
 1.2208716937e+000	 5.5232646206e-001	 1.6302581032e+000
 1.2148921192e+000	 5.6535774389e-001	 1.5365873415e+000
 1.2087617300e+000	 5.7834880162e-001	 1.4376237122e+000
 1.2024807719e+000	 5.9129709599e-001	 1.3360618852e+000
 1.1960495460e+000	 6.0420008430e-001	 1.2347327681e+000
 1.1894684094e+000	 6.1705522184e-001	 1.1365969888e+000
 1.1827377753e+000	 6.2985996344e-001	 1.0447371768e+000
 1.1758581131e+000	 6.4261176493e-001	 9.6234903373e-001
 1.1688299491e+000	 6.5530808475e-001	 8.9273119497e-001
 1.2385092441e+000	 5.2877117210e-001	 1.7741301901e+000
 1.2328035682e+000	 5.4194050367e-001	 1.6973668587e+000
 1.2269459995e+000	 5.5507449845e-001	 1.6100610689e+000
 1.2209366743e+000	 5.6817061592e-001	 1.5147137190e+000
 1.2147757841e+000	 5.8122630915e-001	 1.4139760613e+000
 1.2084635759e+000	 5.9423902627e-001	 1.3106454183e+000
 1.2020003522e+000	 6.0720621190e-001	 1.2076596994e+000
 1.1953864718e+000	 6.2012530869e-001	 1.1080906955e+000
 1.1886223502e+000	 6.3299375879e-001	 1.0151361348e+000
 1.1817084591e+000	 6.4580900540e-001	 9.3211049086e-001
 1.1746453272e+000	 6.5856849428e-001	 8.6243454471e-001
 1.2446407967e+000	 5.3138898724e-001	 1.7569510908e+000
 1.2389068734e+000	 5.4462351691e-001	 1.6790675310e+000
 1.2330203053e+000	 5.5782253484e-001	 1.5903678489e+000
 1.2269812295e+000	 5.7098348795e-001	 1.4934409906e+000
 1.2207898382e+000	 5.8410381668e-001	 1.3910309810e+000
 1.2144463798e+000	 5.9718095654e-001	 1.2860325336e+000
 1.2079511583e+000	 6.1021233949e-001	 1.1814854259e+000
 1.2013045343e+000	 6.2319539553e-001	 1.0805676139e+000
 1.1945069251e+000	 6.3612755415e-001	 9.8658707235e-001
 1.1875588050e+000	 6.4900624587e-001	 9.0297234898e-001
 1.1804607054e+000	 6.6182890382e-001	 8.3326183415e-001
 1.2507723493e+000	 5.3400680237e-001	 1.7401099653e+000
 1.2450101786e+000	 5.4730653015e-001	 1.6611682554e+000
 1.2390946111e+000	 5.6057057124e-001	 1.5711519199e+000
 1.2330257846e+000	 5.7379635997e-001	 1.4727325267e+000
 1.2268038923e+000	 5.8698132421e-001	 1.3687415556e+000
 1.2204291837e+000	 6.0012288681e-001	 1.2621659129e+000
 1.2139019644e+000	 6.1321846709e-001	 1.1561421746e+000
 1.2072225967e+000	 6.2626548238e-001	 1.0539495331e+000
 1.2003915000e+000	 6.3926134950e-001	 9.5900142935e-001
 1.1934091510e+000	 6.5220348633e-001	 8.7483586222e-001
 1.1862760835e+000	 6.6508931336e-001	 8.0510437325e-001
 1.2569039019e+000	 5.3662461751e-001	 1.7236011292e+000
 1.2511134838e+000	 5.4998954338e-001	 1.6436539928e+000
 1.2451689170e+000	 5.6331860763e-001	 1.5523885836e+000
 1.2390703397e+000	 5.7660923200e-001	 1.4525537196e+000
 1.2328179465e+000	 5.8985883175e-001	 1.3470630751e+000
 1.2264119876e+000	 6.0306481708e-001	 1.2389906113e+000
 1.2198527705e+000	 6.1622459469e-001	 1.1315646977e+000
 1.2131406591e+000	 6.2933556922e-001	 1.0281609007e+000
 1.2062760750e+000	 6.4239514486e-001	 9.3229341734e-001
 1.1992594970e+000	 6.5540072680e-001	 8.4760514805e-001
 1.1920914617e+000	 6.6834972289e-001	 7.7780549958e-001
 1.2630354545e+000	 5.3924243265e-001	 1.7074203359e+000
 1.2572167890e+000	 5.5267255662e-001	 1.6265113565e+000
 1.2512432228e+000	 5.6606664402e-001	 1.5340549988e+000
 1.2451148949e+000	 5.7942210403e-001	 1.4328720119e+000
 1.2388320006e+000	 5.9273633928e-001	 1.3259530600e+000
 1.2323947916e+000	 6.0600674735e-001	 1.2164540797e+000
 1.2258035766e+000	 6.1923072228e-001	 1.1076902913e+000
 1.2190587215e+000	 6.3240565607e-001	 1.0031288382e+000
 1.2121606499e+000	 6.4552894021e-001	 9.0638003217e-001
 1.2051098429e+000	 6.5859796727e-001	 8.2118719701e-001
 1.1979068398e+000	 6.7161013243e-001	 7.5099114808e-001
 1.2691670070e+000	 5.4186024779e-001	 1.6915648160e+000
 1.2633200942e+000	 5.5535556986e-001	 1.6097286484e+000
 1.2573175286e+000	 5.6881468042e-001	 1.5161302142e+000
 1.2511594500e+000	 5.8223497606e-001	 1.4136569260e+000
 1.2448460547e+000	 5.9561384681e-001	 1.3053712870e+000
 1.2383775955e+000	 6.0894867762e-001	 1.1945061871e+000
 1.2317543827e+000	 6.2223684988e-001	 1.0844588149e+000
 1.2249767839e+000	 6.3547574291e-001	 9.7878315763e-001
 1.2180452248e+000	 6.4866273557e-001	 8.8118106728e-001
 1.2109601889e+000	 6.6179520774e-001	 7.9549188339e-001
 1.2037222180e+000	 6.7487054197e-001	 7.2457911899e-001
 1.2752985596e+000	 5.4447806293e-001	 1.6760333165e+000
 1.2694233994e+000	 5.5803858310e-001	 1.5932958942e+000
 1.2633918344e+000	 5.7156271681e-001	 1.4985952009e+000
 1.2572040052e+000	 5.8504784809e-001	 1.3948800934e+000
 1.2508601088e+000	 5.9849135434e-001	 1.2852798153e+000
 1.2443603994e+000	 6.1189060790e-001	 1.1730992435e+000
 1.2377051888e+000	 6.2524297748e-001	 1.0618127112e+000
 1.2308948464e+000	 6.3854582976e-001	 9.5505637841e-001
 1.2239297998e+000	 6.5179653092e-001	 8.5661912822e-001
 1.2168105349e+000	 6.6499244820e-001	 7.7043197707e-001
 1.2095375961e+000	 6.7813095151e-001	 6.9854110814e-001
 1.2814301122e+000	 5.4709587807e-001	 1.6608261401e+000
 1.2755267046e+000	 5.6072159634e-001	 1.5772048806e+000
 1.2694661403e+000	 5.7431075321e-001	 1.4814328857e+000
 1.2632485603e+000	 5.8786072012e-001	 1.3765152846e+000
 1.2568741629e+000	 6.0136886188e-001	 1.2656430137e+000
 1.2503432033e+000	 6.1483253817e-001	 1.1521880241e+000
 1.2436559949e+000	 6.2824910508e-001	 1.0396970272e+000
 1.2368129088e+000	 6.4161591661e-001	 9.3188374545e-001
 1.2298143747e+000	 6.5493032628e-001	 8.3261964787e-001
 1.2226608808e+000	 6.6818968867e-001	 7.4589512373e-001
 1.2153529743e+000	 6.8139136105e-001	 6.7285165266e-001
 1.2875616648e+000	 5.4971369321e-001	 1.6459451845e+000
 1.2816300098e+000	 5.6340460958e-001	 1.5614491911e+000
 1.2755404461e+000	 5.7705878960e-001	 1.4646281842e+000
 1.2692931155e+000	 5.9067359215e-001	 1.3585384397e+000
 1.2628882170e+000	 6.0424636941e-001	 1.2464275877e+000
 1.2563260072e+000	 6.1777446844e-001	 1.1317297935e+000
 1.2496068010e+000	 6.3125523267e-001	 1.0180594357e+000
 1.2427309712e+000	 6.4468600345e-001	 9.0920324800e-001
 1.2356989496e+000	 6.5806412163e-001	 8.0911090279e-001
 1.2285112268e+000	 6.7138692914e-001	 7.2163042332e-001
 1.2211683524e+000	 6.8465177058e-001	 6.4748805266e-001
 1.1630145709e+000	 6.5204767521e-001	 9.2426340083e-001
 1.1558731096e+000	 6.6462497763e-001	 8.5998038876e-001
 1.1485850586e+000	 6.7714201262e-001	 7.9113560664e-001
 1.1411511121e+000	 6.8959626778e-001	 7.1461123795e-001
 1.1335720209e+000	 7.0198523951e-001	 6.3193690279e-001
 1.1258485920e+000	 7.1430643453e-001	 5.4469054793e-001
 1.1179816890e+000	 7.2655737151e-001	 4.5438252670e-001
 1.1099722315e+000	 7.3873558262e-001	 3.6245153626e-001
 1.1018211952e+000	 7.5083861508e-001	 2.7026095645e-001
 1.0935296112e+000	 7.6286403276e-001	 1.7909560584e-001
 1.0850985663e+000	 7.7480941773e-001	 9.0158927244e-002
 1.1688299491e+000	 6.5530808475e-001	 8.9273119497e-001
 1.1616527786e+000	 6.6794827698e-001	 8.2887189838e-001
 1.1543282854e+000	 6.8052790043e-001	 7.5883875871e-001
 1.1468571673e+000	 6.9304443014e-001	 6.8130143413e-001
 1.1392401786e+000	 7.0549534997e-001	 5.9784403194e-001
 1.1314781305e+000	 7.1787815420e-001	 5.0998527223e-001
 1.1235718909e+000	 7.3019034909e-001	 4.1917408659e-001
 1.1155223841e+000	 7.4242945445e-001	 3.2678561482e-001
 1.1073305904e+000	 7.5459300525e-001	 2.3411761820e-001
 1.0989975463e+000	 7.6667855317e-001	 1.4238732474e-001
 1.0905243439e+000	 7.7868366820e-001	 5.2728719226e-002
 1.1746453272e+000	 6.5856849428e-001	 8.6243454471e-001
 1.1674324475e+000	 6.7127157633e-001	 7.9858922245e-001
 1.1600715122e+000	 6.8391378824e-001	 7.2736754792e-001
 1.1525632224e+000	 6.9649259250e-001	 6.4891491110e-001
 1.1449083362e+000	 7.0900546044e-001	 5.6475861551e-001
 1.1371076690e+000	 7.2144987388e-001	 4.7635841135e-001
 1.1291620928e+000	 7.3382332667e-001	 3.8510213939e-001
 1.1210725366e+000	 7.4612332628e-001	 2.9230178764e-001
 1.1128399856e+000	 7.5834739542e-001	 1.9918997960e-001
 1.1044654815e+000	 7.7049307359e-001	 1.0691690981e-001
 1.0959501216e+000	 7.8255791868e-001	 1.6547739206e-002
 1.1804607054e+000	 6.6182890382e-001	 8.3326183415e-001
 1.1732121165e+000	 6.7459487568e-001	 7.6897153244e-001
 1.1658147390e+000	 6.8729967605e-001	 6.9666813419e-001
 1.1582692775e+000	 6.9994075485e-001	 6.1739450825e-001
 1.1505764939e+000	 7.1251557091e-001	 5.3262135566e-001
 1.1427372075e+000	 7.2502159356e-001	 4.4374972955e-001
 1.1347522948e+000	 7.3745630424e-001	 3.5210672452e-001
 1.1266226891e+000	 7.4981719811e-001	 2.5894159372e-001
 1.1183493808e+000	 7.6210178559e-001	 1.6542231278e-001
 1.1099334166e+000	 7.7430759400e-001	 7.2632606421e-002
 1.1013758993e+000	 7.8643216915e-001	-1.8430549860e-002
 1.1862760835e+000	 6.6508931336e-001	 8.0510437325e-001
 1.1789917855e+000	 6.7791817503e-001	 7.3997277687e-001
 1.1715579658e+000	 6.9068556387e-001	 6.6669001243e-001
 1.1639753326e+000	 7.0338891721e-001	 5.8668641076e-001
 1.1562446516e+000	 7.1602568138e-001	 5.0137629000e-001
 1.1483667460e+000	 7.2859331323e-001	 4.1210229516e-001
 1.1403424967e+000	 7.4108928182e-001	 3.2013113308e-001
 1.1321728416e+000	 7.5351106994e-001	 2.2664975047e-001
 1.1238587760e+000	 7.6585617576e-001	 1.3276197413e-001
 1.1154013517e+000	 7.7812211442e-001	 3.9485629283e-002
 1.1068016769e+000	 7.9030641963e-001	-5.2249851237e-002
 1.1920914617e+000	 6.6834972289e-001	 7.7780549958e-001
 1.1847714544e+000	 6.8124147438e-001	 7.1155012035e-001
 1.1773011926e+000	 6.9407145168e-001	 6.3738592352e-001
 1.1696813877e+000	 7.0683707957e-001	 5.5674005902e-001
 1.1619128092e+000	 7.1953579184e-001	 4.7097070016e-001
 1.1539962845e+000	 7.3216503291e-001	 3.8136238883e-001
 1.1459326986e+000	 7.4472225940e-001	 2.8912181651e-001
 1.1377229942e+000	 7.5720494177e-001	 1.9537406344e-001
 1.1293681712e+000	 7.6961056592e-001	 1.0115931572e-001
 1.1208692868e+000	 7.8193663483e-001	 7.4300762938e-003
 1.1122274546e+000	 7.9418067010e-001	-8.4951117549e-002
 1.1979068398e+000	 6.7161013243e-001	 7.5099114808e-001
 1.1905511234e+000	 6.8456477373e-001	 6.8366385806e-001
 1.1830444194e+000	 6.9745733949e-001	 6.0871176659e-001
 1.1753874428e+000	 7.1028524192e-001	 5.2750805945e-001
 1.1675809669e+000	 7.2304590231e-001	 4.4135502160e-001
 1.1596258230e+000	 7.3573675259e-001	 3.5147941321e-001
 1.1515229005e+000	 7.4835523698e-001	 2.5902829664e-001
 1.1432731467e+000	 7.6089881360e-001	 1.6506533728e-001
 1.1348775664e+000	 7.7336495609e-001	 7.0567598024e-002
 1.1263372219e+000	 7.8575115525e-001	-2.3577156449e-002
 1.1176532323e+000	 7.9805492058e-001	-1.1657263282e-001
 1.2037222180e+000	 6.7487054197e-001	 7.2457911899e-001
 1.1963307924e+000	 6.8788807308e-001	 6.5627733140e-001
 1.1887876462e+000	 7.0084322730e-001	 5.8062651256e-001
 1.1810934980e+000	 7.1373340428e-001	 4.9894609649e-001
 1.1732491246e+000	 7.2655601278e-001	 4.1248275489e-001
 1.1652553615e+000	 7.3930847226e-001	 3.2240580385e-001
 1.1571131024e+000	 7.5198821455e-001	 2.2980307700e-001
 1.1488232992e+000	 7.6459268543e-001	 1.3567728819e-001
 1.1403869616e+000	 7.7711934627e-001	 4.0942903894e-002
 1.1318051570e+000	 7.8956567566e-001	-5.3576458469e-002
 1.1230790100e+000	 8.0192917106e-001	-1.4715009344e-001
 1.2095375961e+000	 6.7813095151e-001	 6.9854110814e-001
 1.2021104613e+000	 6.9121137244e-001	 6.2935684486e-001
 1.1945308730e+000	 7.0422911511e-001	 5.5309211901e-001
 1.1867995531e+000	 7.1718156664e-001	 4.7101284606e-001
 1.1789172823e+000	 7.3006612325e-001	 3.8431037818e-001
 1.1708849000e+000	 7.4288019194e-001	 2.9409694151e-001
 1.1627033043e+000	 7.5562119213e-001	 2.0140155542e-001
 1.1543734518e+000	 7.6828655726e-001	 1.0716645738e-001
 1.1458963568e+000	 7.8087373644e-001	 1.2244053636e-002
 1.1372730921e+000	 7.9338019608e-001	-8.2605587616e-002
 1.1285047876e+000	 8.0580342153e-001	-1.7671668806e-001
 1.2153529743e+000	 6.8139136105e-001	 6.7285165266e-001
 1.2078901303e+000	 6.9453467179e-001	 6.0287158404e-001
 1.2002740998e+000	 7.0761500292e-001	 5.2607344614e-001
 1.1925056082e+000	 7.2062972899e-001	 4.4366989006e-001
 1.1845854399e+000	 7.3357623371e-001	 3.5679726094e-001
 1.1765144385e+000	 7.4645191162e-001	 2.6651106559e-001
 1.1682935063e+000	 7.5925416971e-001	 1.7378193786e-001
 1.1599236043e+000	 7.7198042909e-001	 7.9492125832e-002
 1.1514057520e+000	 7.8462812661e-001	-1.5567478701e-002
 1.1427410272e+000	 7.9719471650e-001	-1.1069975169e-001
 1.1339305653e+000	 8.0967767201e-001	-2.0530317658e-001
 1.2211683524e+000	 6.8465177058e-001	 6.4748805266e-001
 1.2136697993e+000	 6.9785797114e-001	 5.7679353476e-001
 1.2060173266e+000	 7.1100089074e-001	 4.9953817398e-001
 1.1982116633e+000	 7.2407789135e-001	 4.1688163219e-001
 1.1902535976e+000	 7.3708634418e-001	 3.2990557890e-001
 1.1821439770e+000	 7.5002363130e-001	 2.3960918885e-001
 1.1738837082e+000	 7.6288714729e-001	 1.4690515341e-001
 1.1654737568e+000	 7.7567430092e-001	 5.2616230253e-002
 1.1569151472e+000	 7.8838251678e-001	-4.2527647962e-002
 1.1482089623e+000	 8.0100923691e-001	-1.3789168904e-001
 1.1393563430e+000	 8.1355192249e-001	-2.3293796803e-001
 1.0850985663e+000	 7.7480941773e-001	 9.0158927244e-002
 1.0765292015e+000	 7.8667237155e-001	 5.7597599704e-003
 1.0678227115e+000	 7.9845051603e-001	-7.3106250068e-002
 1.0589803445e+000	 8.1014149552e-001	-1.4731285097e-001
 1.0500034023e+000	 8.2174297868e-001	-2.1779179072e-001
 1.0408932396e+000	 8.3325266002e-001	-2.8553014448e-001
 1.0316512635e+000	 8.4466826136e-001	-3.5156724559e-001
 1.0222789324e+000	 8.5598753333e-001	-4.1699123741e-001
 1.0127777560e+000	 8.6720825681e-001	-4.8293526584e-001
 1.0031492937e+000	 8.7832824438e-001	-5.5057333538e-001
 9.9339515430e-001	 8.8934534171e-001	-6.2111585438e-001
 1.0905243439e+000	 7.7868366820e-001	 5.2728719226e-002
 1.0819121301e+000	 7.9060593991e-001	-3.2442618473e-002
 1.0731621054e+000	 8.0244297820e-001	-1.1197321385e-001
 1.0642755242e+000	 8.1419241566e-001	-1.8673180850e-001
 1.0552536949e+000	 8.2585190928e-001	-2.5764622559e-001
 1.0460979790e+000	 8.3741914205e-001	-3.2570064396e-001
 1.0368097906e+000	 8.4889182439e-001	-3.9193246429e-001
 1.0273905954e+000	 8.6026769569e-001	-4.5742878466e-001
 1.0178419106e+000	 8.7154452574e-001	-5.2332250592e-001
 1.0081653035e+000	 8.8272011617e-001	-5.9078809056e-001
 9.9836239083e-001	 8.9379230187e-001	-6.6103700124e-001
 1.0959501216e+000	 7.8255791868e-001	 1.6547739206e-002
 1.0872950587e+000	 7.9453950827e-001	-6.9393732310e-002
 1.0785014992e+000	 8.0643544038e-001	-1.4959390478e-001
 1.0695707039e+000	 8.1824333580e-001	-2.2491465769e-001
 1.0605039876e+000	 8.2996083989e-001	-2.9627811959e-001
 1.0513027185e+000	 8.4158562408e-001	-3.6466389088e-001
 1.0419683177e+000	 8.5311538742e-001	-4.3110584623e-001
 1.0325022584e+000	 8.6454785806e-001	-4.9668853478e-001
 1.0229060653e+000	 8.7588079467e-001	-5.6254319879e-001
 1.0131813133e+000	 8.8711198795e-001	-6.2984343536e-001
 1.0033296274e+000	 8.9823926204e-001	-6.9980052791e-001
 1.1013758993e+000	 7.8643216915e-001	-1.8430549860e-002
 1.0926779873e+000	 7.9847307662e-001	-1.0513451083e-001
 1.0838408931e+000	 8.1042790255e-001	-1.8600412318e-001
 1.0748658836e+000	 8.2229425594e-001	-2.6189256894e-001
 1.0657542802e+000	 8.3406977049e-001	-3.3371453337e-001
 1.0565074579e+000	 8.4575210611e-001	-4.0244337790e-001
 1.0471268448e+000	 8.5733895046e-001	-4.6910788026e-001
 1.0376139215e+000	 8.6882802042e-001	-5.3478855983e-001
 1.0279702199e+000	 8.8021706359e-001	-6.0061361019e-001
 1.0181973231e+000	 8.9150385974e-001	-6.6775446340e-001
 1.0082968639e+000	 9.0268622220e-001	-7.3742101422e-001
 1.1068016769e+000	 7.9030641963e-001	-5.2249851237e-002
 1.0980609159e+000	 8.0240664498e-001	-1.3970318893e-001
 1.0891802869e+000	 8.1442036472e-001	-2.2123710112e-001
 1.0801610633e+000	 8.2634517608e-001	-2.9769425688e-001
 1.0710045728e+000	 8.3817870109e-001	-3.6998017008e-001
 1.0617121973e+000	 8.4991858814e-001	-4.3906032415e-001
 1.0522853720e+000	 8.6156251349e-001	-5.0595685085e-001
 1.0427255845e+000	 8.7310818278e-001	-5.7174478172e-001
 1.0330343745e+000	 8.8455333252e-001	-6.3754789457e-001
 1.0232133329e+000	 8.9589573152e-001	-7.0453418046e-001
 1.0132641004e+000	 9.0713318236e-001	-7.7391095986e-001
 1.1122274546e+000	 7.9418067010e-001	-8.4951117549e-002
 1.1034438445e+000	 8.0634021334e-001	-1.7313538702e-001
 1.0945196808e+000	 8.1841282690e-001	-2.5532357915e-001
 1.0854562430e+000	 8.3039609622e-001	-3.3234605410e-001
 1.0762548655e+000	 8.4228763169e-001	-4.0509744653e-001
 1.0669169368e+000	 8.5408507017e-001	-4.7453374380e-001
 1.0574438991e+000	 8.6578607652e-001	-5.4166890445e-001
 1.0478372475e+000	 8.7738834515e-001	-6.0757103637e-001
 1.0380985291e+000	 8.8888960145e-001	-6.7335815751e-001
 1.0282293426e+000	 9.0028760331e-001	-7.4019356521e-001
 1.0182313370e+000	 9.1158014252e-001	-8.0928084382e-001
 1.1176532323e+000	 7.9805492058e-001	-1.1657263282e-001
 1.1088267731e+000	 8.1027378170e-001	-2.0546418980e-001
 1.0998590747e+000	 8.2240528907e-001	-2.8829188217e-001
 1.0907514227e+000	 8.3444701636e-001	-3.6587198420e-001
 1.0815051581e+000	 8.4639656229e-001	-4.3908656348e-001
 1.0721216762e+000	 8.5825155220e-001	-5.0888051392e-001
 1.0626024262e+000	 8.7000963956e-001	-5.7625811504e-001
 1.0529489105e+000	 8.8166850751e-001	-6.4227913737e-001
 1.0431626838e+000	 8.9322587038e-001	-7.0805451747e-001
 1.0332453524e+000	 9.0467947509e-001	-7.7474162947e-001
 1.0231985735e+000	 9.1602710269e-001	-8.4353918333e-001
 1.1230790100e+000	 8.0192917106e-001	-1.4715009344e-001
 1.1142097017e+000	 8.1420735006e-001	-2.3672022422e-001
 1.1051984685e+000	 8.2639775125e-001	-3.2016799432e-001
 1.0960466024e+000	 8.3849793650e-001	-3.9829383392e-001
 1.0867554508e+000	 8.5050549290e-001	-4.7196557521e-001
 1.0773264156e+000	 8.6241803423e-001	-5.4211544170e-001
 1.0677609533e+000	 8.7423320259e-001	-6.0973654916e-001
 1.0580605735e+000	 8.8594866988e-001	-6.7587893889e-001
 1.0482268384e+000	 8.9756213930e-001	-7.4164516703e-001
 1.0382613622e+000	 9.0907134687e-001	-8.0818547792e-001
 1.0281658100e+000	 9.2047406285e-001	-8.7669259224e-001
 1.1285047876e+000	 8.0580342153e-001	-1.7671668806e-001
 1.1195926303e+000	 8.1814091842e-001	-2.6693173629e-001
 1.1105378624e+000	 8.3039021342e-001	-3.5097563306e-001
 1.1013417821e+000	 8.4254885664e-001	-4.2963122451e-001
 1.0920057434e+000	 8.5461442350e-001	-5.0375045840e-001
 1.0825311551e+000	 8.6658451626e-001	-5.7425133089e-001
 1.0729194805e+000	 8.7845676563e-001	-6.4211433024e-001
 1.0631722365e+000	 8.9022883224e-001	-7.0837839816e-001
 1.0532909930e+000	 9.0189840823e-001	-7.7413643360e-001
 1.0432773720e+000	 9.1346321866e-001	-8.4053036729e-001
 1.0331330466e+000	 9.2492102301e-001	-9.0874583898e-001
 1.1339305653e+000	 8.0967767201e-001	-2.0530317658e-001
 1.1249755589e+000	 8.2207448678e-001	-2.9612466718e-001
 1.1158772562e+000	 8.3438267560e-001	-3.8073632238e-001
 1.1066369618e+000	 8.4659977679e-001	-4.5990168235e-001
 1.0972560360e+000	 8.5872335410e-001	-5.3445518021e-001
 1.0877358945e+000	 8.7075099829e-001	-6.0529904771e-001
 1.0780780076e+000	 8.8268032866e-001	-6.7339970234e-001
 1.0682838995e+000	 8.9450899461e-001	-7.3978363730e-001
 1.0583551477e+000	 9.0623467716e-001	-8.0553283953e-001
 1.0482933818e+000	 9.1785509044e-001	-8.7177976498e-001
 1.0381002831e+000	 9.2936798318e-001	-9.3970190393e-001
 1.1393563430e+000	 8.1355192249e-001	-2.3293796803e-001
 1.1303584875e+000	 8.2600805515e-001	-3.2432272825e-001
 1.1212166501e+000	 8.3837513777e-001	-4.0946946519e-001
 1.1119321415e+000	 8.5065069693e-001	-4.8912070874e-001
 1.1025063287e+000	 8.6283228470e-001	-5.6409176578e-001
 1.0929406339e+000	 8.7491748032e-001	-6.3526758602e-001
 1.0832365347e+000	 8.8690389170e-001	-7.0359909335e-001
 1.0733955625e+000	 8.9878915698e-001	-7.7009900464e-001
 1.0634193023e+000	 9.1057094609e-001	-8.3583716182e-001
 1.0533093916e+000	 9.2224696223e-001	-9.0193540735e-001
 1.0430675196e+000	 9.3381494334e-001	-9.6956203647e-001
 9.9339515430e-001	 8.8934534171e-001	-6.2111585438e-001
 9.8351848597e-001	 9.0025580032e-001	-6.9119918081e-001
 9.7351953956e-001	 9.1105919807e-001	-7.5696889313e-001
 9.6340006614e-001	 9.2175348984e-001	-8.1891169982e-001
 9.5316186217e-001	 9.3233666896e-001	-8.7753859995e-001
 9.4280676844e-001	 9.4280676844e-001	-9.3338084660e-001
 9.3233666896e-001	 9.5316186217e-001	-9.8698578838e-001
 9.2175348984e-001	 9.6340006614e-001	-1.0389126245e+000
 9.1105919807e-001	 9.7351953956e-001	-1.0897281097e+000
 9.0025580032e-001	 9.8351848597e-001	-1.1400022466e+000
 8.8934534171e-001	 9.9339515430e-001	-1.1903040018e+000
 9.9836239083e-001	 8.9379230187e-001	-6.6103700124e-001
 9.8843633657e-001	 9.0475731564e-001	-7.3071964691e-001
 9.7838739280e-001	 9.1561473321e-001	-7.9600290276e-001
 9.6821731936e-001	 9.2636249925e-001	-8.5738644133e-001
 9.5792792168e-001	 9.3699859705e-001	-9.1539478041e-001
 9.4752104977e-001	 9.4752104977e-001	-9.7057309716e-001
 9.3699859705e-001	 9.5792792168e-001	-1.0234829159e+000
 9.2636249925e-001	 9.6821731936e-001	-1.0746977065e+000
 9.1561473321e-001	 9.7838739280e-001	-1.1247984307e+000
 9.0475731564e-001	 9.8843633657e-001	-1.1743690749e+000
 8.9379230187e-001	 9.9836239083e-001	-1.2239922074e+000
 1.0033296274e+000	 8.9823926204e-001	-6.9980052791e-001
 9.9335418717e-001	 9.0925883096e-001	-7.6908028415e-001
 9.8325524605e-001	 9.2017026835e-001	-8.3387378019e-001
 9.7303457258e-001	 9.3097150866e-001	-8.9469480279e-001
 9.6269398120e-001	 9.4166052513e-001	-9.5208250951e-001
 9.5223533109e-001	 9.5223533109e-001	-1.0065970875e+000
 9.4166052513e-001	 9.6269398120e-001	-1.0588152815e+000
 9.3097150866e-001	 9.7303457258e-001	-1.1093258293e+000
 9.2017026835e-001	 9.8325524605e-001	-1.1587248433e+000
 9.0925883096e-001	 9.9335418717e-001	-1.2076111780e+000
 8.9823926204e-001	 1.0033296274e+000	-1.2565818223e+000
 1.0082968639e+000	 9.0268622220e-001	-7.3742101422e-001
 9.9827203777e-001	 9.1376034628e-001	-8.0629527834e-001
 9.8812309929e-001	 9.2472580350e-001	-8.7059487621e-001
 9.7785182580e-001	 9.3558051807e-001	-9.3084885101e-001
 9.6746004071e-001	 9.4632245321e-001	-9.8761211420e-001
 9.5694961242e-001	 9.5694961242e-001	-1.0414609428e+000
 9.4632245321e-001	 9.6746004071e-001	-1.0929883414e+000
 9.3558051807e-001	 9.7785182580e-001	-1.1427993087e+000
 9.2472580350e-001	 9.8812309929e-001	-1.1915060480e+000
 9.1376034628e-001	 9.9827203777e-001	-1.2397231630e+000
 9.0268622220e-001	 1.0082968639e+000	-1.2880628796e+000
 1.0132641004e+000	 9.0713318236e-001	-7.7391095986e-001
 1.0031898884e+000	 9.1826186160e-001	-8.4237673801e-001
 9.9299095254e-001	 9.2928133864e-001	-9.0617747377e-001
 9.8266907902e-001	 9.4018952748e-001	-9.6585860145e-001
 9.7222610022e-001	 9.5098438129e-001	-1.0219918941e+000
 9.6166389375e-001	 9.6166389375e-001	-1.0751707929e+000
 9.5098438129e-001	 9.7222610022e-001	-1.1260055975e+000
 9.4018952748e-001	 9.8266907902e-001	-1.1751185564e+000
 9.2928133864e-001	 9.9299095254e-001	-1.2231389010e+000
 9.1826186160e-001	 1.0031898884e+000	-1.2706978629e+000
 9.0713318236e-001	 1.0132641004e+000	-1.3184237191e+000
 1.0182313370e+000	 9.1158014252e-001	-8.0928084382e-001
 1.0081077390e+000	 9.2276337692e-001	-8.7733475258e-001
 9.9785880578e-001	 9.3383687378e-001	-9.4063084450e-001
 9.8748633224e-001	 9.4479853689e-001	-9.9973207286e-001
 9.7699215974e-001	 9.5564630938e-001	-1.0552281740e+000
 9.6637817508e-001	 9.6637817508e-001	-1.1077308229e+000
 9.5564630938e-001	 9.7699215974e-001	-1.1578686449e+000
 9.4479853689e-001	 9.8748633224e-001	-1.2062821245e+000
 9.3383687378e-001	 9.9785880578e-001	-1.2536184553e+000
 9.2276337692e-001	 1.0081077390e+000	-1.3005263737e+000
 9.1158014252e-001	 1.0182313370e+000	-1.3476510207e+000
 1.0231985735e+000	 9.1602710269e-001	-8.4353918333e-001
 1.0130255896e+000	 9.2726489223e-001	-9.1117744994e-001
 1.0027266590e+000	 9.3839240893e-001	-9.7396230482e-001
 9.9230358546e-001	 9.4940754630e-001	-1.0324753415e+000
 9.8175821925e-001	 9.6030823746e-001	-1.0873253561e+000
 9.7109245640e-001	 9.7109245640e-001	-1.1391433226e+000
 9.6030823746e-001	 9.8175821925e-001	-1.1885772191e+000
 9.4940754630e-001	 9.9230358546e-001	-1.2362867493e+000
 9.3839240893e-001	 1.0027266590e+000	-1.2829380015e+000
 9.2726489223e-001	 1.0130255896e+000	-1.3291980923e+000
 9.1602710269e-001	 1.0231985735e+000	-1.3757298383e+000
 1.0281658100e+000	 9.2047406285e-001	-8.7669259224e-001
 1.0179434402e+000	 9.3176640755e-001	-9.4391105362e-001
 1.0075945123e+000	 9.4294794407e-001	-1.0061772715e+000
 9.9712083868e-001	 9.5401655571e-001	-1.0640925951e+000
 9.8652427877e-001	 9.6497016554e-001	-1.1182859719e+000
 9.7580673773e-001	 9.7580673773e-001	-1.1694087358e+000
 9.6497016554e-001	 9.8652427877e-001	-1.2181292425e+000
 9.5401655571e-001	 9.9712083868e-001	-1.2651273955e+000
 9.4294794407e-001	 1.0075945123e+000	-1.3110891089e+000
 9.3176640755e-001	 1.0179434402e+000	-1.3567007536e+000
 9.2047406285e-001	 1.0281658100e+000	-1.4026436333e+000
 1.0331330466e+000	 9.2492102301e-001	-9.0874583898e-001
 1.0228612908e+000	 9.3626792287e-001	-9.7553993943e-001
 1.0124623655e+000	 9.4750347921e-001	-1.0372793167e+000
 1.0019380919e+000	 9.5862556512e-001	-1.0945861859e+000
 9.9129033828e-001	 9.6963209362e-001	-1.1481107329e+000
 9.8052101906e-001	 9.8052101906e-001	-1.1985257096e+000
 9.6963209362e-001	 9.9129033828e-001	-1.2465208711e+000
 9.5862556512e-001	 1.0019380919e+000	-1.2927972998e+000
 9.4750347921e-001	 1.0124623655e+000	-1.3380616655e+000
 9.3626792287e-001	 1.0228612908e+000	-1.3830204677e+000
 9.2492102301e-001	 1.0331330466e+000	-1.4283743085e+000
 1.0381002831e+000	 9.2936798318e-001	-9.3970190393e-001
 1.0277791414e+000	 9.4076943819e-001	-1.0060666916e+000
 1.0173302188e+000	 9.5205901436e-001	-1.0672702228e+000
 1.0067553451e+000	 9.6323457452e-001	-1.1239566838e+000
 9.9605639779e-001	 9.7429402171e-001	-1.1767985823e+000
 9.8523530039e-001	 9.8523530039e-001	-1.2264911432e+000
 9.7429402171e-001	 9.9605639779e-001	-1.2737465406e+000
 9.6323457452e-001	 1.0067553451e+000	-1.3192880144e+000
 9.5205901436e-001	 1.0173302188e+000	-1.3638439193e+000
 9.4076943819e-001	 1.0277791414e+000	-1.4081417573e+000
 9.2936798318e-001	 1.0381002831e+000	-1.4529022411e+000
 1.0430675196e+000	 9.3381494334e-001	-9.6956203647e-001
 1.0326969920e+000	 9.4527095351e-001	-1.0354921585e+000
 1.0221980720e+000	 9.5661454950e-001	-1.0961500367e+000
 1.0115725983e+000	 9.6784358393e-001	-1.1522029290e+000
 1.0008224573e+000	 9.7895594979e-001	-1.2043467451e+000
 9.8994958172e-001	 9.8994958172e-001	-1.2533002357e+000
 9.7895594979e-001	 1.0008224573e+000	-1.2997990126e+000
 9.6784358393e-001	 1.0115725983e+000	-1.3445894501e+000
 9.5661454950e-001	 1.0221980720e+000	-1.3884225176e+000
 9.4527095351e-001	 1.0326969920e+000	-1.4320475943e+000
 9.3381494334e-001	 1.0430675196e+000	-1.4762063167e+000
 8.8934534171e-001	 9.9339515430e-001	-1.1903040018e+000
 8.7832824438e-001	 1.0031492937e+000	-1.2371602316e+000
 8.6720825681e-001	 1.0127777560e+000	-1.2775756333e+000
 8.5598753333e-001	 1.0222789324e+000	-1.3128316597e+000
 8.4466826136e-001	 1.0316512635e+000	-1.3441742106e+000
 8.3325266002e-001	 1.0408932396e+000	-1.3728088731e+000
 8.2174297868e-001	 1.0500034023e+000	-1.3998964385e+000
 8.1014149552e-001	 1.0589803445e+000	-1.4265487310e+000
 7.9845051603e-001	 1.0678227115e+000	-1.4538247746e+000
 7.8667237155e-001	 1.0765292015e+000	-1.4827273298e+000
 7.7480941773e-001	 1.0850985663e+000	-1.5141998222e+000
 8.9379230187e-001	 9.9836239083e-001	-1.2239922074e+000
 8.8272011617e-001	 1.0081653035e+000	-1.2701107416e+000
 8.7154452574e-001	 1.0178419106e+000	-1.3096460348e+000
 8.6026769569e-001	 1.0273905954e+000	-1.3438929878e+000
 8.4889182439e-001	 1.0368097906e+000	-1.3741103172e+000
 8.3741914205e-001	 1.0460979790e+000	-1.4015156447e+000
 8.2585190928e-001	 1.0552536949e+000	-1.4272808728e+000
 8.1419241566e-001	 1.0642755242e+000	-1.4525278776e+000
 8.0244297820e-001	 1.0731621054e+000	-1.4783245519e+000
 7.9060593991e-001	 1.0819121301e+000	-1.5056812265e+000
 7.7868366820e-001	 1.0905243439e+000	-1.5355474964e+000
 8.9823926204e-001	 1.0033296274e+000	-1.2565818223e+000
 8.8711198795e-001	 1.0131813133e+000	-1.3019982074e+000
 8.7588079467e-001	 1.0229060653e+000	-1.3406987535e+000
 8.6454785806e-001	 1.0325022584e+000	-1.3739895211e+000
 8.5311538742e-001	 1.0419683177e+000	-1.4031397800e+000
 8.4158562408e-001	 1.0513027185e+000	-1.4293769494e+000
 8.2996083989e-001	 1.0605039876e+000	-1.4538818292e+000
 8.1824333580e-001	 1.0695707039e+000	-1.4777841592e+000
 8.0643544038e-001	 1.0785014992e+000	-1.5021585370e+000
 7.9453950827e-001	 1.0872950587e+000	-1.5280207250e+000
 7.8255791868e-001	 1.0959501216e+000	-1.5563243733e+000
 9.0268622220e-001	 1.0082968639e+000	-1.2880628796e+000
 8.9150385974e-001	 1.0181973231e+000	-1.3328081037e+000
 8.8021706359e-001	 1.0279702199e+000	-1.3707152486e+000
 8.6882802042e-001	 1.0376139215e+000	-1.4030992872e+000
 8.5733895046e-001	 1.0471268448e+000	-1.4312378205e+000
 8.4575210611e-001	 1.0565074579e+000	-1.4563658661e+000
 8.3406977049e-001	 1.0657542802e+000	-1.4796709466e+000
 8.2229425594e-001	 1.0748658836e+000	-1.5022885140e+000
 8.1042790255e-001	 1.0838408931e+000	-1.5252977421e+000
 7.9847307662e-001	 1.0926779873e+000	-1.5497177199e+000
 7.8643216915e-001	 1.1013758993e+000	-1.5765040705e+000
 9.0713318236e-001	 1.0132641004e+000	-1.3184237191e+000
 8.9589573152e-001	 1.0232133329e+000	-1.3625242944e+000
 8.8455333252e-001	 1.0330343745e+000	-1.3996754424e+000
 8.7310818278e-001	 1.0427255845e+000	-1.4311988427e+000
 8.6156251349e-001	 1.0522853720e+000	-1.4583782449e+000
 8.4991858814e-001	 1.0617121973e+000	-1.4824541057e+000
 8.3817870109e-001	 1.0710045728e+000	-1.5046185334e+000
 8.2634517608e-001	 1.0801610633e+000	-1.5260105770e+000
 8.1442036472e-001	 1.0891802869e+000	-1.5477118935e+000
 8.0240664498e-001	 1.0980609159e+000	-1.5707428263e+000
 7.9030641963e-001	 1.1068016769e+000	-1.5960589218e+000
 9.1158014252e-001	 1.0182313370e+000	-1.3476510207e+000
 9.0028760331e-001	 1.0282293426e+000	-1.3911290619e+000
 8.8888960145e-001	 1.0380985291e+000	-1.4275577461e+000
 8.7738834515e-001	 1.0478372475e+000	-1.4582632947e+000
 8.6578607652e-001	 1.0574438991e+000	-1.4845334635e+000
 8.5408507017e-001	 1.0669169368e+000	-1.5076120273e+000
 8.4228763169e-001	 1.0762548655e+000	-1.5286935809e+000
 8.3039609622e-001	 1.0854562430e+000	-1.5489186912e+000
 8.1841282690e-001	 1.0945196808e+000	-1.5693694401e+000
 8.0634021334e-001	 1.1034438445e+000	-1.5910653869e+000
 7.9418067010e-001	 1.1122274546e+000	-1.6149599827e+000
 9.1602710269e-001	 1.0231985735e+000	-1.3757298383e+000
 9.0467947509e-001	 1.0332453524e+000	-1.4186031371e+000
 8.9322587038e-001	 1.0431626838e+000	-1.4543390863e+000
 8.8166850751e-001	 1.0529489105e+000	-1.4842663244e+000
 8.7000963956e-001	 1.0626024262e+000	-1.5096745102e+000
 8.5825155220e-001	 1.0721216762e+000	-1.5318086549e+000
 8.4639656229e-001	 1.0815051581e+000	-1.5518637768e+000
 8.3444701636e-001	 1.0907514227e+000	-1.5709799188e+000
 8.2240528907e-001	 1.0998590747e+000	-1.5902375628e+000
 8.1027378170e-001	 1.1088267731e+000	-1.6106534789e+000
 7.9805492058e-001	 1.1176532323e+000	-1.6331770355e+000
 9.2047406285e-001	 1.0281658100e+000	-1.4026436333e+000
 9.0907134687e-001	 1.0382613622e+000	-1.4449257296e+000
 8.9756213930e-001	 1.0482268384e+000	-1.4799949312e+000
 8.8594866988e-001	 1.0580605735e+000	-1.5091802094e+000
 8.7423320259e-001	 1.0677609533e+000	-1.5337710624e+000
 8.6241803423e-001	 1.0773264156e+000	-1.5550116934e+000
 8.5050549290e-001	 1.0867554508e+000	-1.5740955197e+000
 8.3849793650e-001	 1.0960466024e+000	-1.5921600522e+000
 8.2639775125e-001	 1.1051984685e+000	-1.6102821837e+000
 8.1420735006e-001	 1.1142097017e+000	-1.6294739217e+000
 8.0192917106e-001	 1.1230790100e+000	-1.6506785958e+000
 9.2492102301e-001	 1.0331330466e+000	-1.4283743085e+000
 9.1346321866e-001	 1.0432773720e+000	-1.4700745573e+000
 9.0189840823e-001	 1.0532909930e+000	-1.5044993169e+000
 8.9022883224e-001	 1.0631722365e+000	-1.5329758470e+000
 8.7845676563e-001	 1.0729194805e+000	-1.5567914606e+000
 8.6658451626e-001	 1.0825311551e+000	-1.5771875467e+000
 8.5461442350e-001	 1.0920057434e+000	-1.5953539331e+000
 8.4254885664e-001	 1.1013417821e+000	-1.6124236269e+000
 8.3039021342e-001	 1.1105378624e+000	-1.6294679761e+000
 8.1814091842e-001	 1.1195926303e+000	-1.6474922851e+000
 8.0580342153e-001	 1.1285047876e+000	-1.6674319190e+000
 9.2936798318e-001	 1.0381002831e+000	-1.4529022411e+000
 9.1785509044e-001	 1.0482933818e+000	-1.4940258761e+000
 9.0623467716e-001	 1.0583551477e+000	-1.5278248738e+000
 8.9450899461e-001	 1.0682838995e+000	-1.5556227775e+000
 8.8268032866e-001	 1.0780780076e+000	-1.5787027287e+000
 8.7075099829e-001	 1.0877358945e+000	-1.5983013342e+000
 8.5872335410e-001	 1.0972560360e+000	-1.6156028800e+000
 8.4659977679e-001	 1.1066369618e+000	-1.6317339331e+000
 8.3438267560e-001	 1.1158772562e+000	-1.6477583746e+000
 8.2207448678e-001	 1.1249755589e+000	-1.6646728974e+000
 8.0967767201e-001	 1.1339305653e+000	-1.6834030069e+000
 9.3381494334e-001	 1.0430675196e+000	-1.4762063167e+000
 9.2224696223e-001	 1.0533093916e+000	-1.5167545105e+000
 9.1057094609e-001	 1.0634193023e+000	-1.5499428535e+000
 8.9878915698e-001	 1.0733955625e+000	-1.5770892073e+000
 8.8690389170e-001	 1.0832365347e+000	-1.5994705945e+000
 8.7491748032e-001	 1.0929406339e+000	-1.6183169086e+000
 8.6283228470e-001	 1.1025063287e+000	-1.6348049783e+000
 8.5065069693e-001	 1.1119321415e+000	-1.6500530290e+000
 8.3837513777e-001	 1.1212166501e+000	-1.6651155858e+000
 8.2600805515e-001	 1.1303584875e+000	-1.6809788544e+000
 8.1355192249e-001	 1.1393563430e+000	-1.6985566154e+000
 7.7480941773e-001	 1.0850985663e+000	-1.5141998222e+000
 7.6286403276e-001	 1.0935296112e+000	-1.5469455450e+000
 7.5083861508e-001	 1.1018211952e+000	-1.5785996681e+000
 7.3873558262e-001	 1.1099722315e+000	-1.6084163050e+000
 7.2655737151e-001	 1.1179816890e+000	-1.6355959910e+000
 7.1430643453e-001	 1.1258485920e+000	-1.6592873825e+000
 7.0198523951e-001	 1.1335720209e+000	-1.6785893873e+000
 6.8959626778e-001	 1.1411511121e+000	-1.6925537216e+000
 6.7714201262e-001	 1.1485850586e+000	-1.7001878894e+000
 6.6462497763e-001	 1.1558731096e+000	-1.7006266698e+000
 6.5204767521e-001	 1.1630145709e+000	-1.7004199104e+000
 7.7868366820e-001	 1.0905243439e+000	-1.5355474964e+000
 7.6667855317e-001	 1.0989975463e+000	-1.5666427482e+000
 7.5459300525e-001	 1.1073305904e+000	-1.5966447921e+000
 7.4242945445e-001	 1.1155223841e+000	-1.6248506471e+000
 7.3019034909e-001	 1.1235718909e+000	-1.6505010384e+000
 7.1787815420e-001	 1.1314781305e+000	-1.6727820119e+000
 7.0549534997e-001	 1.1392401786e+000	-1.6908269958e+000
 6.9304443014e-001	 1.1468571673e+000	-1.7037193074e+000
 6.8052790043e-001	 1.1543282854e+000	-1.7104950989e+000
 6.6794827698e-001	 1.1616527786e+000	-1.7101467333e+000
 6.5530808475e-001	 1.1688299491e+000	-1.7065523376e+000
 7.8255791868e-001	 1.0959501216e+000	-1.5563243733e+000
 7.7049307359e-001	 1.1044654815e+000	-1.5857994455e+000
 7.5834739542e-001	 1.1128399856e+000	-1.6141642211e+000
 7.4612332628e-001	 1.1210725366e+000	-1.6407614827e+000
 7.3382332667e-001	 1.1291620928e+000	-1.6648749102e+000
 7.2144987388e-001	 1.1371076690e+000	-1.6857306036e+000
 7.0900546044e-001	 1.1449083362e+000	-1.7024990693e+000
 6.9649259250e-001	 1.1525632224e+000	-1.7142976710e+000
 6.8391378824e-001	 1.1600715122e+000	-1.7201935357e+000
 6.7127157633e-001	 1.1674324475e+000	-1.7192069100e+000
 6.5856849428e-001	 1.1746453272e+000	-1.7128310855e+000
 7.8643216915e-001	 1.1013758993e+000	-1.5765040705e+000
 7.7430759400e-001	 1.1099334166e+000	-1.6043914236e+000
 7.6210178559e-001	 1.1183493808e+000	-1.6311359120e+000
 7.4981719811e-001	 1.1266226891e+000	-1.6561288938e+000
 7.3745630424e-001	 1.1347522948e+000	-1.6786997222e+000
 7.2502159356e-001	 1.1427372075e+000	-1.6981171679e+000
 7.1251557091e-001	 1.1505764939e+000	-1.7135913253e+000
 6.9994075485e-001	 1.1582692775e+000	-1.7242759996e+000
 6.8729967605e-001	 1.1658147390e+000	-1.7292715699e+000
 6.7459487568e-001	 1.1732121165e+000	-1.7276283190e+000
 6.6182890382e-001	 1.1804607054e+000	-1.7192548936e+000
 7.9030641963e-001	 1.1068016769e+000	-1.5960589218e+000
 7.7812211442e-001	 1.1154013517e+000	-1.6223931782e+000
 7.6585617576e-001	 1.1238587760e+000	-1.6475365292e+000
 7.5351106994e-001	 1.1321728416e+000	-1.6709316763e+000
 7.4108928182e-001	 1.1403424967e+000	-1.6919563180e+000
 7.2859331323e-001	 1.1483667460e+000	-1.7099244665e+000
 7.1602568138e-001	 1.1562446516e+000	-1.7240882660e+000
 7.0338891721e-001	 1.1639753326e+000	-1.7336403109e+000
 6.9068556387e-001	 1.1715579658e+000	-1.7377164595e+000
 6.7791817503e-001	 1.1789917855e+000	-1.7353991332e+000
 6.6508931336e-001	 1.1862760835e+000	-1.7258199802e+000
 7.9418067010e-001	 1.1122274546e+000	-1.6149599827e+000
 7.8193663483e-001	 1.1208692868e+000	-1.6397779178e+000
 7.6961056592e-001	 1.1293681712e+000	-1.6633414474e+000
 7.5720494177e-001	 1.1377229942e+000	-1.6851473403e+000
 7.4472225940e-001	 1.1459326986e+000	-1.7046242681e+000
 7.3216503291e-001	 1.1539962845e+000	-1.7211340097e+000
 7.1953579184e-001	 1.1619128092e+000	-1.7339731745e+000
 7.0683707957e-001	 1.1696813877e+000	-1.7423754460e+000
 6.9407145168e-001	 1.1773011926e+000	-1.7455143408e+000
 6.8124147438e-001	 1.1847714544e+000	-1.7425064725e+000
 6.6834972289e-001	 1.1920914617e+000	-1.7324153106e+000
 7.9805492058e-001	 1.1176532323e+000	-1.6331770355e+000
 7.8575115525e-001	 1.1263372219e+000	-1.6565175677e+000
 7.7336495609e-001	 1.1348775664e+000	-1.6785247541e+000
 7.6089881360e-001	 1.1432731467e+000	-1.6987521114e+000
 7.4835523698e-001	 1.1515229005e+000	-1.7166818696e+000
 7.3573675259e-001	 1.1596258230e+000	-1.7317260542e+000
 7.2304590231e-001	 1.1675809669e+000	-1.7432281100e+000
 7.1028524192e-001	 1.1753874428e+000	-1.7504650634e+000
 6.9745733949e-001	 1.1830444194e+000	-1.7526502206e+000
 6.8456477373e-001	 1.1905511234e+000	-1.7489363925e+000
 6.7161013243e-001	 1.1979068398e+000	-1.7384196336e+000
 8.0192917106e-001	 1.1230790100e+000	-1.6506785958e+000
 7.8956567566e-001	 1.1318051570e+000	-1.6725827752e+000
 7.7711934627e-001	 1.1403869616e+000	-1.6930592526e+000
 7.6459268543e-001	 1.1488232992e+000	-1.7117209329e+000
 7.5198821455e-001	 1.1571131024e+000	-1.7281061459e+000
 7.3930847226e-001	 1.1652553615e+000	-1.7416796014e+000
 7.2655601278e-001	 1.1732491246e+000	-1.7518339048e+000
 7.1373340428e-001	 1.1810934980e+000	-1.7578916332e+000
 7.0084322730e-001	 1.1887876462e+000	-1.7591079681e+000
 6.8788807308e-001	 1.1963307924e+000	-1.7546738748e+000
 6.7487054197e-001	 1.2037222180e+000	-1.7437198186e+000
 8.0580342153e-001	 1.1285047876e+000	-1.6674319190e+000
 7.9338019608e-001	 1.1372730921e+000	-1.6879429142e+000
 7.8087373644e-001	 1.1458963568e+000	-1.7069164661e+000
 7.6828655726e-001	 1.1543734518e+000	-1.7240274672e+000
 7.5562119213e-001	 1.1627033043e+000	-1.7388728478e+000
 7.4288019194e-001	 1.1708849000e+000	-1.7509723962e+000
 7.3006612325e-001	 1.1789172823e+000	-1.7597701606e+000
 7.1718156664e-001	 1.1867995531e+000	-1.7646364324e+000
 7.0422911511e-001	 1.1945308730e+000	-1.7648703076e+000
 6.9121137244e-001	 1.2021104613e+000	-1.7597028172e+000
 6.7813095151e-001	 1.2095375961e+000	-1.7483006152e+000
 8.0967767201e-001	 1.1339305653e+000	-1.6834030069e+000
 7.9719471650e-001	 1.1427410272e+000	-1.7025660908e+000
 7.8462812661e-001	 1.1514057520e+000	-1.7200666415e+000
 7.7198042909e-001	 1.1599236043e+000	-1.7356440989e+000
 7.5925416971e-001	 1.1682935063e+000	-1.7489564539e+000
 7.4645191162e-001	 1.1765144385e+000	-1.7595809262e+000
 7.3357623371e-001	 1.1845854399e+000	-1.7670152463e+000
 7.2062972899e-001	 1.1925056082e+000	-1.7706795398e+000
 7.0761500292e-001	 1.2002740998e+000	-1.7699188119e+000
 6.9453467179e-001	 1.2078901303e+000	-1.7640060246e+000
 6.8139136105e-001	 1.2153529743e+000	-1.7521457517e+000
 8.1355192249e-001	 1.1393563430e+000	-1.6985566154e+000
 8.0100923691e-001	 1.1482089623e+000	-1.7164191494e+000
 7.8838251678e-001	 1.1569151472e+000	-1.7324787537e+000
 7.7567430092e-001	 1.1654737568e+000	-1.7465419373e+000
 7.6288714729e-001	 1.1738837082e+000	-1.7583301719e+000
 7.5002363130e-001	 1.1821439770e+000	-1.7674804214e+000
 7.3708634418e-001	 1.1902535976e+000	-1.7735462959e+000
 7.2407789135e-001	 1.1982116633e+000	-1.7759998323e+000
 7.1100089074e-001	 1.2060173266e+000	-1.7742338963e+000
 6.9785797114e-001	 1.2136697993e+000	-1.7675652007e+000
 6.8465177058e-001	 1.2211683524e+000	-1.7552379247e+000
 6.5204767521e-001	 1.1630145709e+000	-1.7004199104e+000
 6.3941452446e-001	 1.1700077671e+000	-1.7049446709e+000
 6.2672616808e-001	 1.1768532003e+000	-1.7154502902e+000
 6.1398513500e-001	 1.1835503470e+000	-1.7302386127e+000
 6.0119395671e-001	 1.1900987399e+000	-1.7476357029e+000
 5.8835516572e-001	 1.1964979680e+000	-1.7660030039e+000
 5.7547129409e-001	 1.2027476759e+000	-1.7837476300e+000
 5.6254487187e-001	 1.2088475640e+000	-1.7993317474e+000
 5.4957842567e-001	 1.2147973878e+000	-1.8112810075e+000
 5.3657447720e-001	 1.2205969578e+000	-1.8181920037e+000
 5.2353554182e-001	 1.2262461389e+000	-1.8187387317e+000
 6.5530808475e-001	 1.1688299491e+000	-1.7065523376e+000
 6.4261176493e-001	 1.1758581131e+000	-1.7082367122e+000
 6.2985996344e-001	 1.1827377753e+000	-1.7164195237e+000
 6.1705522184e-001	 1.1894684094e+000	-1.7292980269e+000
 6.0420008430e-001	 1.1960495460e+000	-1.7450959380e+000
 5.9129709599e-001	 1.2024807719e+000	-1.7620750442e+000
 5.7834880162e-001	 1.2087617300e+000	-1.7785459140e+000
 5.6535774389e-001	 1.2148921192e+000	-1.7928776613e+000
 5.5232646206e-001	 1.2208716937e+000	-1.8035067271e+000
 5.3925749043e-001	 1.2267002630e+000	-1.8089446470e+000
 5.2615335696e-001	 1.2323776915e+000	-1.8077847852e+000
 6.5856849428e-001	 1.1746453272e+000	-1.7128310855e+000
 6.4580900540e-001	 1.1817084591e+000	-1.7115886884e+000
 6.3299375879e-001	 1.1886223502e+000	-1.7173731125e+000
 6.2012530869e-001	 1.1953864718e+000	-1.7282770625e+000
 6.0720621190e-001	 1.2020003522e+000	-1.7424221849e+000
 5.9423902627e-001	 1.2084635759e+000	-1.7579711335e+000
 5.8122630915e-001	 1.2147757841e+000	-1.7731387015e+000
 5.6817061592e-001	 1.2209366743e+000	-1.7862019727e+000
 5.5507449845e-001	 1.2269459995e+000	-1.7955094519e+000
 5.4194050367e-001	 1.2328035682e+000	-1.7994891451e+000
 5.2877117210e-001	 1.2385092441e+000	-1.7966555666e+000
 6.6182890382e-001	 1.1804607054e+000	-1.7192548936e+000
 6.4900624587e-001	 1.1875588050e+000	-1.7150030344e+000
 6.3612755415e-001	 1.1945069251e+000	-1.7183185856e+000
 6.2319539553e-001	 1.2013045343e+000	-1.7271896735e+000
 6.1021233949e-001	 1.2079511583e+000	-1.7396360868e+000
 5.9718095654e-001	 1.2144463798e+000	-1.7537218028e+000
 5.8410381668e-001	 1.2207898382e+000	-1.7675665467e+000
 5.7098348795e-001	 1.2269812295e+000	-1.7793563315e+000
 5.5782253484e-001	 1.2330203053e+000	-1.7873529404e+000
 5.4462351691e-001	 1.2389068734e+000	-1.7899023202e+000
 5.3138898724e-001	 1.2446407967e+000	-1.7854418607e+000
 6.6508931336e-001	 1.1862760835e+000	-1.7258199802e+000
 6.5220348633e-001	 1.1934091510e+000	-1.7184799880e+000
 6.3926134950e-001	 1.2003915000e+000	-1.7192615631e+000
 6.2626548238e-001	 1.2072225967e+000	-1.7260481572e+000
 6.1321846709e-001	 1.2139019644e+000	-1.7367578459e+000
 6.0012288681e-001	 1.2204291837e+000	-1.7493563220e+000
 5.8698132421e-001	 1.2268038923e+000	-1.7618688852e+000
 5.7379635997e-001	 1.2330257846e+000	-1.7723913754e+000
 5.6057057124e-001	 1.2390946111e+000	-1.7791000089e+000
 5.4730653015e-001	 1.2450101786e+000	-1.7802600851e+000
 5.3400680237e-001	 1.2507723493e+000	-1.7742335401e+000
 6.6834972289e-001	 1.1920914617e+000	-1.7324153106e+000
 6.5540072680e-001	 1.1992594970e+000	-1.7220174859e+000
 6.4239514486e-001	 1.2062760750e+000	-1.7202056551e+000
 6.2933556922e-001	 1.2131406591e+000	-1.7248630568e+000
 6.1622459469e-001	 1.2198527705e+000	-1.7338061310e+000
 6.0306481708e-001	 1.2264119876e+000	-1.7449026116e+000
 5.8985883175e-001	 1.2328179465e+000	-1.7560839520e+000
 5.7660923200e-001	 1.2390703397e+000	-1.7653566542e+000
 5.6331860763e-001	 1.2451689170e+000	-1.7708124621e+000
 5.4998954338e-001	 1.2511134838e+000	-1.7706373824e+000
 5.3662461751e-001	 1.2569039019e+000	-1.7631195121e+000
 6.7161013243e-001	 1.1979068398e+000	-1.7384196336e+000
 6.5859796727e-001	 1.2051098429e+000	-1.7256110616e+000
 6.4552894021e-001	 1.2121606499e+000	-1.7211523621e+000
 6.3240565607e-001	 1.2190587215e+000	-1.7236430650e+000
 6.1923072228e-001	 1.2258035766e+000	-1.7307979844e+000
 6.0600674735e-001	 1.2323947916e+000	-1.7403871555e+000
 5.9273633928e-001	 1.2388320006e+000	-1.7502486995e+000
 5.7942210403e-001	 1.2451148949e+000	-1.7583005541e+000
 5.6606664402e-001	 1.2512432228e+000	-1.7625510247e+000
 5.5267255662e-001	 1.2572167890e+000	-1.7611081226e+000
 5.3924243265e-001	 1.2630354545e+000	-1.7521876649e+000
 6.7487054197e-001	 1.2037222180e+000	-1.7437198186e+000
 6.6179520774e-001	 1.2109601889e+000	-1.7292537430e+000
 6.4866273557e-001	 1.2180452248e+000	-1.7221009759e+000
 6.3547574291e-001	 1.2249767839e+000	-1.7223949286e+000
 6.2223684988e-001	 1.2317543827e+000	-1.7277487314e+000
 6.0894867762e-001	 1.2383775955e+000	-1.7358349141e+000
 5.9561384681e-001	 1.2448460547e+000	-1.7443987164e+000
 5.8223497606e-001	 1.2511594500e+000	-1.7512702223e+000
 5.6881468042e-001	 1.2573175286e+000	-1.7543752731e+000
 5.5535556986e-001	 1.2633200942e+000	-1.7517451234e+000
 5.4186024779e-001	 1.2691670070e+000	-1.7415248150e+000
 6.7813095151e-001	 1.2095375961e+000	-1.7483006152e+000
 6.6499244820e-001	 1.2168105349e+000	-1.7329359511e+000
 6.5179653092e-001	 1.2239297998e+000	-1.7230484807e+000
 6.3854582976e-001	 1.2308948464e+000	-1.7211233531e+000
 6.2524297748e-001	 1.2377051888e+000	-1.7246718887e+000
 6.1189060790e-001	 1.2443603994e+000	-1.7312692389e+000
 5.9849135434e-001	 1.2508601088e+000	-1.7385681475e+000
 5.8504784809e-001	 1.2572040052e+000	-1.7443114931e+000
 5.7156271681e-001	 1.2633918344e+000	-1.7463435669e+000
 5.5803858310e-001	 1.2694233994e+000	-1.7426200485e+000
 5.4447806293e-001	 1.2752985596e+000	-1.7312166535e+000
 6.8139136105e-001	 1.2153529743e+000	-1.7521457517e+000
 6.6818968867e-001	 1.2226608808e+000	-1.7365625479e+000
 6.5493032628e-001	 1.2298143747e+000	-1.7239894558e+000
 6.4161591661e-001	 1.2368129088e+000	-1.7198309089e+000
 6.2824910508e-001	 1.2436559949e+000	-1.7215790748e+000
 6.1483253817e-001	 1.2503432033e+000	-1.7267117867e+000
 6.0136886188e-001	 1.2568741629e+000	-1.7327896132e+000
 5.8786072012e-001	 1.2632485603e+000	-1.7374688133e+000
 5.7431075321e-001	 1.2694661403e+000	-1.7385129820e+000
 5.6072159634e-001	 1.2755267046e+000	-1.7338033473e+000
 5.4709587807e-001	 1.2814301122e+000	-1.7213476932e+000
 6.8465177058e-001	 1.2211683524e+000	-1.7552379247e+000
 6.7138692914e-001	 1.2285112268e+000	-1.7395490741e+000
 6.5806412163e-001	 1.2356989496e+000	-1.7249159779e+000
 6.4468600345e-001	 1.2427309712e+000	-1.7185179373e+000
 6.3125523267e-001	 1.2496068010e+000	-1.7184799201e+000
 6.1777446844e-001	 1.2563260072e+000	-1.7221824348e+000
 6.0424636941e-001	 1.2628882170e+000	-1.7270941302e+000
 5.9067359215e-001	 1.2692931155e+000	-1.7307851689e+000
 5.7705878960e-001	 1.2755404461e+000	-1.7309392428e+000
 5.6340460958e-001	 1.2816300098e+000	-1.7253641947e+000
 5.4971369321e-001	 1.2875616648e+000	-1.7120012160e+000
 5.2353554182e-001	 1.2262461389e+000	-1.8187387317e+000
 5.1046216404e-001	 1.2317456639e+000	-1.8168917012e+000
 4.9735879742e-001	 1.2370946472e+000	-1.8170492548e+000
 4.8422793165e-001	 1.2422931153e+000	-1.8186666436e+000
 4.7107204451e-001	 1.2473411471e+000	-1.8213056526e+000
 4.5789360059e-001	 1.2522388732e+000	-1.8246345163e+000
 4.4469505000e-001	 1.2569864756e+000	-1.8284268788e+000
 4.3147882712e-001	 1.2615841866e+000	-1.8325598268e+000
 4.1824734936e-001	 1.2660322882e+000	-1.8370110382e+000
 4.0500301600e-001	 1.2703311115e+000	-1.8418550888e+000
 3.9174820702e-001	 1.2744810358e+000	-1.8472589653e+000
 5.2615335696e-001	 1.2323776915e+000	-1.8077847852e+000
 5.1301460885e-001	 1.2379047155e+000	-1.8040789547e+000
 4.9984572197e-001	 1.2432804452e+000	-1.8023668890e+000
 4.8664919842e-001	 1.2485049070e+000	-1.8021194528e+000
 4.7342752839e-001	 1.2535781802e+000	-1.8029186599e+000
 4.6018318879e-001	 1.2585003963e+000	-1.8044575306e+000
 4.4691864199e-001	 1.2632717380e+000	-1.8065389583e+000
 4.3363633452e-001	 1.2678924387e+000	-1.8090736208e+000
 4.2033869590e-001	 1.2723627819e+000	-1.8120769737e+000
 4.0702813740e-001	 1.2766831005e+000	-1.8156653752e+000
 3.9370705089e-001	 1.2808537755e+000	-1.8200513900e+000
 5.2877117210e-001	 1.2385092441e+000	-1.7966555666e+000
 5.1556705367e-001	 1.2440637672e+000	-1.7911436509e+000
 5.0233264651e-001	 1.2494662431e+000	-1.7876302192e+000
 4.8907046519e-001	 1.2547166987e+000	-1.7855944835e+000
 4.7578301227e-001	 1.2598152134e+000	-1.7846313347e+000
 4.6247277699e-001	 1.2647619194e+000	-1.7844511565e+000
 4.4914223397e-001	 1.2695570003e+000	-1.7848786157e+000
 4.3579384191e-001	 1.2742006908e+000	-1.7858504638e+000
 4.2243004243e-001	 1.2786932757e+000	-1.7874123906e+000
 4.0905325879e-001	 1.2830350895e+000	-1.7897149792e+000
 3.9566589476e-001	 1.2872265152e+000	-1.7930088119e+000
 5.3138898724e-001	 1.2446407967e+000	-1.7854418607e+000
 5.1811949849e-001	 1.2502228189e+000	-1.7781889910e+000
 5.0481957106e-001	 1.2556520411e+000	-1.7729509697e+000
 4.9149173196e-001	 1.2609284903e+000	-1.7692081934e+000
 4.7813849615e-001	 1.2660522466e+000	-1.7665611868e+000
 4.6476236519e-001	 1.2710234425e+000	-1.7647303898e+000
 4.5136582595e-001	 1.2758422626e+000	-1.7635548862e+000
 4.3795134931e-001	 1.2805089429e+000	-1.7629901095e+000
 4.2452138897e-001	 1.2850237695e+000	-1.7631045704e+000
 4.1107838018e-001	 1.2893870785e+000	-1.7640756538e+000
 3.9762473863e-001	 1.2935992550e+000	-1.7661845393e+000
 5.3400680237e-001	 1.2507723493e+000	-1.7742335401e+000
 5.2067194331e-001	 1.2563818705e+000	-1.7653172722e+000
 5.0730649560e-001	 1.2618378391e+000	-1.7584400251e+000
 4.9391299873e-001	 1.2671402820e+000	-1.7530763176e+000
 4.8049398003e-001	 1.2722892797e+000	-1.7488251720e+000
 4.6705195340e-001	 1.2772849655e+000	-1.7454098894e+000
 4.5358941793e-001	 1.2821275250e+000	-1.7426767311e+000
 4.4010885671e-001	 1.2868171950e+000	-1.7405925439e+000
 4.2661273551e-001	 1.2913542633e+000	-1.7392413736e+000
 4.1310350158e-001	 1.2957390676e+000	-1.7388201166e+000
 3.9958358250e-001	 1.2999719947e+000	-1.7396332668e+000
 5.3662461751e-001	 1.2569039019e+000	-1.7631195121e+000
 5.2322438812e-001	 1.2625409222e+000	-1.7526298417e+000
 5.0979342015e-001	 1.2680236371e+000	-1.7442073894e+000
 4.9633426550e-001	 1.2733520737e+000	-1.7373138327e+000
 4.8284946391e-001	 1.2785263129e+000	-1.7315396590e+000
 4.6934154160e-001	 1.2835464886e+000	-1.7266039448e+000
 4.5581300992e-001	 1.2884127873e+000	-1.7223530049e+000
 4.4226636411e-001	 1.2931254471e+000	-1.7187579507e+000
 4.2870408204e-001	 1.2976847571e+000	-1.7159112025e+000
 4.1512862297e-001	 1.3020910566e+000	-1.7140220084e+000
 4.0154242637e-001	 1.3063447344e+000	-1.7134110274e+000
 5.3924243265e-001	 1.2630354545e+000	-1.7521876649e+000
 5.2577683294e-001	 1.2686999738e+000	-1.7402270506e+000
 5.1228034469e-001	 1.2742094350e+000	-1.7303621465e+000
 4.9875553227e-001	 1.2795638654e+000	-1.7220349211e+000
 4.8520494779e-001	 1.2847633461e+000	-1.7148203958e+000
 4.7163112980e-001	 1.2898080117e+000	-1.7084264441e+000
 4.5803660190e-001	 1.2946980496e+000	-1.7026924230e+000
 4.4442387151e-001	 1.2994336992e+000	-1.6975866772e+000
 4.3079542858e-001	 1.3040152508e+000	-1.6932029640e+000
 4.1715374436e-001	 1.3084430456e+000	-1.6897558508e+000
 4.0350127024e-001	 1.3127174742e+000	-1.6875751460e+000
 5.4186024779e-001	 1.2691670070e+000	-1.7415248150e+000
 5.2832927776e-001	 1.2748590255e+000	-1.7282082078e+000
 5.1476726924e-001	 1.2803952330e+000	-1.7170124194e+000
 5.0117679904e-001	 1.2857756571e+000	-1.7073529342e+000
 4.8756043167e-001	 1.2910003792e+000	-1.6987824761e+000
 4.7392071800e-001	 1.2960695348e+000	-1.6909908419e+000
 4.6026019388e-001	 1.3009833120e+000	-1.6838035289e+000
 4.4658137891e-001	 1.3057419513e+000	-1.6771792001e+000
 4.3288677512e-001	 1.3103457446e+000	-1.6712060326e+000
 4.1917886576e-001	 1.3147950346e+000	-1.6660970063e+000
 4.0546011411e-001	 1.3190902139e+000	-1.6621841926e+000
 5.4447806293e-001	 1.2752985596e+000	-1.7312166535e+000
 5.3088172258e-001	 1.2810180771e+000	-1.7166715346e+000
 5.1725419378e-001	 1.2865810310e+000	-1.7042653300e+000
 5.0359806581e-001	 1.2919874487e+000	-1.6933803568e+000
 4.8991591555e-001	 1.2972374124e+000	-1.6835403062e+000
 4.7621030620e-001	 1.3023310579e+000	-1.6744101264e+000
 4.6248378587e-001	 1.3072685743e+000	-1.6657946620e+000
 4.4873888631e-001	 1.3120502034e+000	-1.6576360916e+000
 4.3497812166e-001	 1.3166762384e+000	-1.6500102135e+000
 4.2120398715e-001	 1.3211470236e+000	-1.6431216364e+000
 4.0741895798e-001	 1.3254629536e+000	-1.6372979369e+000
 5.4709587807e-001	 1.2814301122e+000	-1.7213476932e+000
 5.3343416740e-001	 1.2871771288e+000	-1.7057141182e+000
 5.1974111833e-001	 1.2927668290e+000	-1.6922269590e+000
 5.0601933258e-001	 1.2981992404e+000	-1.6802287705e+000
 4.9227139943e-001	 1.3034744456e+000	-1.6692075705e+000
 4.7849989440e-001	 1.3085925810e+000	-1.6587967874e+000
 4.6470737785e-001	 1.3135538367e+000	-1.6487739248e+000
 4.5089639371e-001	 1.3183584555e+000	-1.6390579855e+000
 4.3706946819e-001	 1.3230067322e+000	-1.6297057066e+000
 4.2322910854e-001	 1.3274990127e+000	-1.6209066626e+000
 4.0937780185e-001	 1.3318356934e+000	-1.6129773030e+000
 5.4971369321e-001	 1.2875616648e+000	-1.7120012160e+000
 5.3598661222e-001	 1.2933361804e+000	-1.6954318658e+000
 5.2222804288e-001	 1.2989526269e+000	-1.6810023048e+000
 5.0844059935e-001	 1.3044110321e+000	-1.6680088171e+000
 4.9462688332e-001	 1.3097114787e+000	-1.6558971983e+000
 4.8078948260e-001	 1.3148541040e+000	-1.6442627834e+000
 4.6693096984e-001	 1.3198390990e+000	-1.6328491504e+000
 4.5305390111e-001	 1.3246667076e+000	-1.6215455436e+000
 4.3916081473e-001	 1.3293372259e+000	-1.6103830697e+000
 4.2525422994e-001	 1.3338510017e+000	-1.5995407197e+000
 4.1133664571e-001	 1.3382084331e+000	-1.5902570104e+000
 3.9174820702e-001	 1.2744810358e+000	-1.8472589653e+000
 3.7848528178e-001	 1.2784824874e+000	-1.8537940692e+000
 3.6521657738e-001	 1.2823359378e+000	-1.8614598967e+000
 3.5194440822e-001	 1.2860419042e+000	-1.8696863041e+000
 3.3867106518e-001	 1.2896009480e+000	-1.8779713798e+000
 3.2539881461e-001	 1.2930136750e+000	-1.8858754941e+000
 3.1212989743e-001	 1.2962807336e+000	-1.8930148840e+000
 2.9886652818e-001	 1.2994028142e+000	-1.8990548381e+000
 2.8561089417e-001	 1.3023806482e+000	-1.9037025497e+000
 2.7236515463e-001	 1.3052150068e+000	-1.9066997035e+000
 2.5913143995e-001	 1.3079067005e+000	-1.9078148628e+000
 3.9370705089e-001	 1.2808537755e+000	-1.8200513900e+000
 3.8037780754e-001	 1.2848752354e+000	-1.8257647367e+000
 3.6704275613e-001	 1.2887479541e+000	-1.8327027910e+000
 3.5370422265e-001	 1.2924724513e+000	-1.8402554610e+000
 3.4036450940e-001	 1.2960492913e+000	-1.8478840117e+000
 3.2702589410e-001	 1.2994790828e+000	-1.8551149649e+000
 3.1369062886e-001	 1.3027624776e+000	-1.8615335149e+000
 3.0036093928e-001	 1.3059001694e+000	-1.8667765277e+000
 2.8703902361e-001	 1.3088928933e+000	-1.8705251928e+000
 2.7372705190e-001	 1.3117414245e+000	-1.8724973951e+000
 2.6042716518e-001	 1.3144465773e+000	-1.8724398778e+000
 3.9566589476e-001	 1.2872265152e+000	-1.7930088119e+000
 3.8227033330e-001	 1.2912679834e+000	-1.7977722149e+000
 3.6886893489e-001	 1.2951599705e+000	-1.8037992600e+000
 3.5546403707e-001	 1.2989029984e+000	-1.8104453763e+000
 3.4205795363e-001	 1.3024976346e+000	-1.8171407726e+000
 3.2865297359e-001	 1.3059444906e+000	-1.8233841696e+000
 3.1525136028e-001	 1.3092442215e+000	-1.8287360274e+000
 3.0185535037e-001	 1.3123975245e+000	-1.8328113395e+000
 2.8846715306e-001	 1.3154051384e+000	-1.8352720627e+000
 2.7508894917e-001	 1.3182678421e+000	-1.8358192561e+000
 2.6172289040e-001	 1.3209864542e+000	-1.8341849977e+000
 3.9762473863e-001	 1.2935992550e+000	-1.7661845393e+000
 3.8416285906e-001	 1.2976607315e+000	-1.7698510937e+000
 3.7069511365e-001	 1.3015719868e+000	-1.7747674150e+000
 3.5722385150e-001	 1.3053335455e+000	-1.7802598722e+000
 3.4375139786e-001	 1.3089459778e+000	-1.7857333368e+000
 3.3028005308e-001	 1.3124098984e+000	-1.7906647282e+000
 3.1681209170e-001	 1.3157259654e+000	-1.7945960343e+000
 3.0334976146e-001	 1.3188948797e+000	-1.7971268805e+000
 2.8989528250e-001	 1.3219173835e+000	-1.7979067189e+000
 2.7645084644e-001	 1.3247942598e+000	-1.7966267125e+000
 2.6301861562e-001	 1.3275263310e+000	-1.7930113862e+000
 3.9958358250e-001	 1.2999719947e+000	-1.7396332668e+000
 3.8605538483e-001	 1.3040534795e+000	-1.7420377553e+000
 3.7252129240e-001	 1.3079840031e+000	-1.7456275013e+000
 3.5898366593e-001	 1.3117640926e+000	-1.7497051845e+000
 3.4544484209e-001	 1.3153943211e+000	-1.7536560106e+000
 3.3190713258e-001	 1.3188753062e+000	-1.7569410517e+000
 3.1837282312e-001	 1.3222077094e+000	-1.7590900412e+000
 3.0484417256e-001	 1.3253922349e+000	-1.7596936975e+000
 2.9132341194e-001	 1.3284296286e+000	-1.7583956529e+000
 2.7781274371e-001	 1.3313206774e+000	-1.7548840633e+000
 2.6431434084e-001	 1.3340662078e+000	-1.7489292752e+000
 4.0154242637e-001	 1.3063447344e+000	-1.7134110274e+000
 3.8794791059e-001	 1.3104462276e+000	-1.7143703209e+000
 3.7434747116e-001	 1.3143960194e+000	-1.7164018408e+000
 3.6074348035e-001	 1.3181946397e+000	-1.7187899012e+000
 3.4713828631e-001	 1.3218426644e+000	-1.7209056685e+000
 3.3353421207e-001	 1.3253407140e+000	-1.7222002775e+000
 3.1993355454e-001	 1.3286894533e+000	-1.7221973816e+000
 3.0633858365e-001	 1.3318895900e+000	-1.7204852121e+000
 2.9275154139e-001	 1.3349418737e+000	-1.7169042384e+000
 2.7917464098e-001	 1.3378470951e+000	-1.7121244660e+000
 2.6561006606e-001	 1.3406060847e+000	-1.7059616419e+000
 4.0350127024e-001	 1.3127174742e+000	-1.6875751460e+000
 3.8984043635e-001	 1.3168389756e+000	-1.6868885982e+000
 3.7617364992e-001	 1.3208080357e+000	-1.6871147746e+000
 3.6250329478e-001	 1.3246251868e+000	-1.6875249025e+000
 3.4883173054e-001	 1.3282910076e+000	-1.6874816911e+000
 3.3516129155e-001	 1.3318061218e+000	-1.6864322060e+000
 3.2149428596e-001	 1.3351711973e+000	-1.6841302966e+000
 3.0783299474e-001	 1.3383869452e+000	-1.6812661445e+000
 2.9417967083e-001	 1.3414541189e+000	-1.6776271514e+000
 2.8053653824e-001	 1.3443735128e+000	-1.6728679993e+000
 2.6690579128e-001	 1.3471459615e+000	-1.6666444811e+000
 4.0546011411e-001	 1.3190902139e+000	-1.6621841926e+000
 3.9173296211e-001	 1.3232317236e+000	-1.6596340296e+000
 3.7799982867e-001	 1.3272200520e+000	-1.6577926077e+000
 3.6426310920e-001	 1.3310557339e+000	-1.6559233018e+000
 3.5052517477e-001	 1.3347393509e+000	-1.6535061475e+000
 3.3678837104e-001	 1.3382715296e+000	-1.6511547696e+000
 3.2305501738e-001	 1.3416529412e+000	-1.6487380982e+000
 3.0932740584e-001	 1.3448843003e+000	-1.6458705626e+000
 2.9560780027e-001	 1.3479663640e+000	-1.6421799476e+000
 2.8189843551e-001	 1.3508999304e+000	-1.6373021903e+000
 2.6820151650e-001	 1.3536858383e+000	-1.6308763667e+000
 4.0741895798e-001	 1.3254629536e+000	-1.6372979369e+000
 3.9362548787e-001	 1.3296244717e+000	-1.6326496419e+000
 3.7982600743e-001	 1.3336320683e+000	-1.6284690420e+000
 3.6602292363e-001	 1.3374862810e+000	-1.6249412268e+000
 3.5221861899e-001	 1.3411876941e+000	-1.6222006759e+000
 3.3841545053e-001	 1.3447369374e+000	-1.6197958510e+000
 3.2461574880e-001	 1.3481346852e+000	-1.6173018150e+000
 3.1082181693e-001	 1.3513816555e+000	-1.6143146150e+000
 2.9703592971e-001	 1.3544786091e+000	-1.6104458584e+000
 2.8326033278e-001	 1.3574263481e+000	-1.6053174806e+000
 2.6949724172e-001	 1.3602257151e+000	-1.5985567059e+000
 4.0937780185e-001	 1.3318356934e+000	-1.6129773030e+000
 3.9551801363e-001	 1.3360172197e+000	-1.6063132474e+000
 3.8165218618e-001	 1.3400440846e+000	-1.6013937560e+000
 3.6778273806e-001	 1.3439168281e+000	-1.5977607126e+000
 3.5391206322e-001	 1.3476360374e+000	-1.5949089048e+000
 3.4004253002e-001	 1.3512023452e+000	-1.5923679999e+000
 3.2617648022e-001	 1.3546164291e+000	-1.5896966905e+000
 3.1231622802e-001	 1.3578790107e+000	-1.5864770359e+000
 2.9846405916e-001	 1.3609908542e+000	-1.5823089972e+000
 2.8462223005e-001	 1.3639527657e+000	-1.5768051691e+000
 2.7079296694e-001	 1.3667655920e+000	-1.5695857047e+000
 4.1133664571e-001	 1.3382084331e+000	-1.5902570104e+000
 3.9741053939e-001	 1.3424099678e+000	-1.5833635885e+000
 3.8347836494e-001	 1.3464561009e+000	-1.5783107833e+000
 3.6954255248e-001	 1.3503473752e+000	-1.5745323554e+000
 3.5560550744e-001	 1.3540843807e+000	-1.5715056818e+000
 3.4166960951e-001	 1.3576677530e+000	-1.5687456526e+000
 3.2773721164e-001	 1.3610981730e+000	-1.5657987621e+000
 3.1381063911e-001	 1.3643763658e+000	-1.5622373971e+000
 2.9989218860e-001	 1.3675030993e+000	-1.5576543247e+000
 2.8598412731e-001	 1.3704791834e+000	-1.5516573775e+000
 2.7208869216e-001	 1.3733054688e+000	-1.5438643356e+000
 2.5913143995e-001	 1.3079067005e+000	-1.9078148628e+000
 2.4591383207e-001	 1.3104562057e+000	-1.9080188253e+000
 2.3271241205e-001	 1.3128648225e+000	-1.9084559526e+000
 2.1952921545e-001	 1.3151334723e+000	-1.9091747702e+000
 2.0636624624e-001	 1.3172631115e+000	-1.9102227718e+000
 1.9322547623e-001	 1.3192547300e+000	-1.9116383317e+000
 1.8010884449e-001	 1.3211093503e+000	-1.9134427918e+000
 1.6701825681e-001	 1.3228280263e+000	-1.9156327783e+000
 1.5395558525e-001	 1.3244118423e+000	-1.9181727977e+000
 1.4092266764e-001	 1.3258619119e+000	-1.9209881594e+000
 1.2792130720e-001	 1.3271793771e+000	-1.9239582687e+000
 2.6042716518e-001	 1.3144465773e+000	-1.8724398778e+000
 2.4714346578e-001	 1.3170088308e+000	-1.8713582250e+000
 2.3387603520e-001	 1.3194294912e+000	-1.8704591460e+000
 2.2062691915e-001	 1.3217094849e+000	-1.8698130012e+000
 2.0739813165e-001	 1.3238497729e+000	-1.8694894188e+000
 1.9419165434e-001	 1.3258513500e+000	-1.8695489083e+000
 1.8100943599e-001	 1.3277152438e+000	-1.8700346540e+000
 1.6785339194e-001	 1.3294425136e+000	-1.8709645427e+000
 1.5472540359e-001	 1.3310342491e+000	-1.8723234784e+000
 1.4162731797e-001	 1.3324915695e+000	-1.8740560324e+000
 1.2856094731e-001	 1.3338156224e+000	-1.8760844896e+000
 2.6172289040e-001	 1.3209864542e+000	-1.8341849977e+000
 2.4837309949e-001	 1.3235614558e+000	-1.8314153492e+000
 2.3503965835e-001	 1.3259941599e+000	-1.8287835176e+000
 2.2172462286e-001	 1.3282854975e+000	-1.8263867946e+000
 2.0843001705e-001	 1.3304364342e+000	-1.8243219589e+000
 1.9515783244e-001	 1.3324479699e+000	-1.8226765799e+000
 1.8191002749e-001	 1.3343211374e+000	-1.8216157538e+000
 1.6868852707e-001	 1.3360570010e+000	-1.8216005169e+000
 1.5549522193e-001	 1.3376566560e+000	-1.8225892138e+000
 1.4233196830e-001	 1.3391212271e+000	-1.8244311364e+000
 1.2920058743e-001	 1.3404518676e+000	-1.8269280684e+000
 2.6301861562e-001	 1.3275263310e+000	-1.7930113862e+000
 2.4960273321e-001	 1.3301140808e+000	-1.7881516122e+000
 2.3620328149e-001	 1.3325588287e+000	-1.7833899154e+000
 2.2282232656e-001	 1.3348615101e+000	-1.7790659389e+000
 2.0946190245e-001	 1.3370230955e+000	-1.7759000404e+000
 1.9612401054e-001	 1.3390445899e+000	-1.7739413956e+000
 1.8281061899e-001	 1.3409270309e+000	-1.7731620315e+000
 1.6952366219e-001	 1.3426714884e+000	-1.7734987313e+000
 1.5626504027e-001	 1.3442790629e+000	-1.7748489178e+000
 1.4303661863e-001	 1.3457508847e+000	-1.7770667111e+000
 1.2984022754e-001	 1.3470881129e+000	-1.7799591571e+000
 2.6431434084e-001	 1.3340662078e+000	-1.7489292752e+000
 2.5083236692e-001	 1.3366667058e+000	-1.7424547311e+000
 2.3736690464e-001	 1.3391234974e+000	-1.7370871699e+000
 2.2392003026e-001	 1.3414375226e+000	-1.7328828950e+000
 2.1049378785e-001	 1.3436097569e+000	-1.7298768425e+000
 1.9709018864e-001	 1.3456412098e+000	-1.7280779031e+000
 1.8371121049e-001	 1.3475329245e+000	-1.7274644307e+000
 1.7035879732e-001	 1.3492859758e+000	-1.7279799316e+000
 1.5703485861e-001	 1.3509014698e+000	-1.7295289332e+000
 1.4374126896e-001	 1.3523805423e+000	-1.7319730256e+000
 1.3047986766e-001	 1.3537243582e+000	-1.7351270737e+000
 2.6561006606e-001	 1.3406060847e+000	-1.7059616419e+000
 2.5206200063e-001	 1.3432193308e+000	-1.6995151018e+000
 2.3853052779e-001	 1.3456881662e+000	-1.6941509688e+000
 2.2501773397e-001	 1.3480135352e+000	-1.6899336838e+000
 2.1152567325e-001	 1.3501964182e+000	-1.6869066838e+000
 1.9805636675e-001	 1.3522378298e+000	-1.6850877061e+000
 1.8461180199e-001	 1.3541388180e+000	-1.6844642792e+000
 1.7119393244e-001	 1.3559004631e+000	-1.6849893973e+000
 1.5780467694e-001	 1.3575238766e+000	-1.6865773724e+000
 1.4444591929e-001	 1.3590101999e+000	-1.6890998609e+000
 1.3111950777e-001	 1.3603606034e+000	-1.6923820597e+000
 2.6690579128e-001	 1.3471459615e+000	-1.6666444811e+000
 2.5329163434e-001	 1.3497719559e+000	-1.6600695113e+000
 2.3969415093e-001	 1.3522528349e+000	-1.6545435644e+000
 2.2611543767e-001	 1.3545895478e+000	-1.6501422672e+000
 2.1255755865e-001	 1.3567830796e+000	-1.6469205239e+000
 1.9902254485e-001	 1.3588344498e+000	-1.6449078014e+000
 1.8551239349e-001	 1.3607447116e+000	-1.6441036033e+000
 1.7202906757e-001	 1.3625149505e+000	-1.6444731285e+000
 1.5857449528e-001	 1.3641462835e+000	-1.6459431078e+000
 1.4515056962e-001	 1.3656398575e+000	-1.6483978154e+000
 1.3175914789e-001	 1.3669968487e+000	-1.6516752489e+000
 2.6820151650e-001	 1.3536858383e+000	-1.6308763667e+000
 2.5452126805e-001	 1.3563245809e+000	-1.6240260417e+000
 2.4085777408e-001	 1.3588175036e+000	-1.6181817512e+000
 2.2721314137e-001	 1.3611655604e+000	-1.6134333064e+000
 2.1358944405e-001	 1.3633697409e+000	-1.6098499953e+000
 1.9998872295e-001	 1.3654310697e+000	-1.6074758490e+000
 1.8641298499e-001	 1.3673506051e+000	-1.6063250985e+000
 1.7286420269e-001	 1.3691294379e+000	-1.6063778174e+000
 1.5934431362e-001	 1.3707686904e+000	-1.6075757433e+000
 1.4585521995e-001	 1.3722695151e+000	-1.6098182750e+000
 1.3239878800e-001	 1.3736330940e+000	-1.6129586367e+000
 2.6949724172e-001	 1.3602257151e+000	-1.5985567059e+000
 2.5575090176e-001	 1.3628772059e+000	-1.5912935391e+000
 2.4202139722e-001	 1.3653821724e+000	-1.5849830328e+000
 2.2831084507e-001	 1.3677415730e+000	-1.5797321317e+000
 2.1462132946e-001	 1.3699564022e+000	-1.5756273748e+000
 2.0095490105e-001	 1.3720276897e+000	-1.5727301436e+000
 1.8731357649e-001	 1.3739564986e+000	-1.5710721012e+000
 1.7369933782e-001	 1.3757439253e+000	-1.5706508193e+000
 1.6011413196e-001	 1.3773910972e+000	-1.5714255853e+000
 1.4655987028e-001	 1.3788991727e+000	-1.5733133845e+000
 1.3303842812e-001	 1.3802693393e+000	-1.5761850502e+000
 2.7079296694e-001	 1.3667655920e+000	-1.5695857047e+000
 2.5698053547e-001	 1.3694298309e+000	-1.5617815809e+000
 2.4318502037e-001	 1.3719468411e+000	-1.5548655911e+000
 2.2940854877e-001	 1.3743175856e+000	-1.5489647125e+000
 2.1565321486e-001	 1.3765430636e+000	-1.5441855542e+000
 2.0192107915e-001	 1.3786243096e+000	-1.5406095861e+000
 1.8821416799e-001	 1.3805623922e+000	-1.5382885611e+000
 1.7453447294e-001	 1.3823584126e+000	-1.5372401262e+000
 1.6088395030e-001	 1.3840135041e+000	-1.5374436159e+000
 1.4726452061e-001	 1.3855288304e+000	-1.5388360198e+000
 1.3367806823e-001	 1.3869055845e+000	-1.5413081201e+000
 2.7208869216e-001	 1.3733054688e+000	-1.5438643356e+000
 2.5821016918e-001	 1.3759824560e+000	-1.5354004450e+000
 2.4434864351e-001	 1.3785115099e+000	-1.5277482561e+000
 2.3050625248e-001	 1.3808935982e+000	-1.5210576288e+000
 2.1668510026e-001	 1.3831297249e+000	-1.5154580131e+000
 2.0288725725e-001	 1.3852209296e+000	-1.5110536575e+000
 1.8911475949e-001	 1.3871682857e+000	-1.5079190154e+000
 1.7536960807e-001	 1.3889729000e+000	-1.5060943404e+000
 1.6165376864e-001	 1.3906359110e+000	-1.5055814661e+000
 1.4796917094e-001	 1.3921584880e+000	-1.5063397608e+000
 1.3431770835e-001	 1.3935418298e+000	-1.5082822521e+000
 1.2792130720e-001	 1.3271793771e+000	-1.9239582687e+000
 1.1495133384e-001	 1.3283655748e+000	-1.9264312188e+000
 1.0201645631e-001	 1.3294214931e+000	-1.9280681797e+000
 8.9118398652e-002	 1.3303483529e+000	-1.9291189342e+000
 7.6258848138e-002	 1.3311473985e+000	-1.9297460805e+000
 6.3439455063e-002	 1.3318198973e+000	-1.9300204167e+000
 5.0661832530e-002	 1.3323671383e+000	-1.9299169124e+000
 3.7927556291e-002	 1.3327904308e+000	-1.9293112811e+000
 2.5238164613e-002	 1.3330911041e+000	-1.9279771641e+000
 1.2595158174e-002	 1.3332705056e+000	-1.9255839312e+000
 0.0000000000e+000	 1.3333300000e+000	-1.9216951795e+000
 1.2856094731e-001	 1.3338156224e+000	-1.8760844896e+000
 1.1552612068e-001	 1.3350077513e+000	-1.8779050228e+000
 1.0252656537e-001	 1.3360689496e+000	-1.8791049928e+000
 8.9564014040e-002	 1.3370004439e+000	-1.8798754912e+000
 7.6640162398e-002	 1.3378034849e+000	-1.8803273764e+000
 6.3756668992e-002	 1.3384793464e+000	-1.8804880588e+000
 5.0915154992e-002	 1.3390293237e+000	-1.8802984818e+000
 3.8117204030e-002	 1.3394547329e+000	-1.8796102951e+000
 2.5364362062e-002	 1.3397569096e+000	-1.8781832189e+000
 1.2658137271e-002	 1.3399372081e+000	-1.8756825966e+000
 0.0000000000e+000	 1.3399970000e+000	-1.8716771394e+000
 1.2920058743e-001	 1.3404518676e+000	-1.8269280684e+000
 1.1610090753e-001	 1.3416499279e+000	-1.8292180822e+000
 1.0303667443e-001	 1.3427164060e+000	-1.8307692583e+000
 9.0009629427e-002	 1.3436525348e+000	-1.8317841704e+000
 7.7021476658e-002	 1.3444595713e+000	-1.8323857748e+000
 6.4073882921e-002	 1.3451387955e+000	-1.8326141477e+000
 5.1168477455e-002	 1.3456915091e+000	-1.8324234175e+000
 3.8306851769e-002	 1.3461190349e+000	-1.8316788866e+000
 2.5490559511e-002	 1.3464227150e+000	-1.8301543422e+000
 1.2721116369e-002	 1.3466039106e+000	-1.8275295526e+000
 0.0000000000e+000	 1.3466640000e+000	-1.8233879545e+000
 1.2984022754e-001	 1.3470881129e+000	-1.7799591571e+000
 1.1667569437e-001	 1.3482921045e+000	-1.7826054343e+000
 1.0354678350e-001	 1.3493638625e+000	-1.7844161730e+000
 9.0455244815e-002	 1.3503046258e+000	-1.7856024550e+000
 7.7402790918e-002	 1.3511156578e+000	-1.7862964876e+000
 6.4391096851e-002	 1.3517982446e+000	-1.7865482975e+000
 5.1421799918e-002	 1.3523536946e+000	-1.7863226163e+000
 3.8496499508e-002	 1.3527833369e+000	-1.7854959539e+000
 2.5616756960e-002	 1.3530885205e+000	-1.7838538575e+000
 1.2784095467e-002	 1.3532706131e+000	-1.7810883535e+000
 0.0000000000e+000	 1.3533310000e+000	-1.7767955782e+000
 1.3047986766e-001	 1.3537243582e+000	-1.7351270737e+000
 1.1725048121e-001	 1.3549342811e+000	-1.7380163247e+000
 1.0405689256e-001	 1.3560113189e+000	-1.7399952740e+000
 9.0900860203e-002	 1.3569567168e+000	-1.7412805708e+000
 7.7784105178e-002	 1.3577717442e+000	-1.7420108604e+000
 6.4708310781e-002	 1.3584576937e+000	-1.7422434372e+000
 5.1675122381e-002	 1.3590158800e+000	-1.7419510867e+000
 3.8686147247e-002	 1.3594476389e+000	-1.7410191128e+000
 2.5742954410e-002	 1.3597543260e+000	-1.7392425471e+000
 1.2847074565e-002	 1.3599373156e+000	-1.7363235388e+000
 0.0000000000e+000	 1.3599980000e+000	-1.7318689290e+000
 1.3111950777e-001	 1.3603606034e+000	-1.6923820597e+000
 1.1782526806e-001	 1.3615764576e+000	-1.6954010010e+000
 1.0456700162e-001	 1.3626587754e+000	-1.6974571646e+000
 9.1346475591e-002	 1.3636088078e+000	-1.6987698596e+000
 7.8165419438e-002	 1.3644278306e+000	-1.6994813878e+000
 6.5025524711e-002	 1.3651171428e+000	-1.6996536603e+000
 5.1928444845e-002	 1.3656780655e+000	-1.6992649985e+000
 3.8875794986e-002	 1.3661119409e+000	-1.6982071173e+000
 2.5869151860e-002	 1.3664201314e+000	-1.6962822881e+000
 1.2910053663e-002	 1.3666040181e+000	-1.6932006770e+000
 0.0000000000e+000	 1.3666650000e+000	-1.6885778659e+000
 1.3175914789e-001	 1.3669968487e+000	-1.6516752489e+000
 1.1840005490e-001	 1.3682186342e+000	-1.6547106803e+000
 1.0507711068e-001	 1.3693062318e+000	-1.6567534819e+000
 9.1792090979e-002	 1.3702608988e+000	-1.6580227456e+000
 7.8546733698e-002	 1.3710839170e+000	-1.6586616801e+000
 6.5342738641e-002	 1.3717765919e+000	-1.6587341922e+000
 5.2181767308e-002	 1.3723402509e+000	-1.6582216509e+000
 3.9065442726e-002	 1.3727762429e+000	-1.6570198298e+000
 2.5995349309e-002	 1.3730859369e+000	-1.6549360240e+000
 1.2973032761e-002	 1.3732707206e+000	-1.6516863407e+000
 0.0000000000e+000	 1.3733320000e+000	-1.6468931664e+000
 1.3239878800e-001	 1.3736330940e+000	-1.6129586367e+000
 1.1897484175e-001	 1.3748608108e+000	-1.6158975181e+000
 1.0558721974e-001	 1.3759536882e+000	-1.6178368641e+000
 9.2237706366e-002	 1.3769129898e+000	-1.6189927037e+000
 7.8928047958e-002	 1.3777400035e+000	-1.6195064312e+000
 6.5659952571e-002	 1.3784360410e+000	-1.6194413584e+000
 5.2435089771e-002	 1.3790024363e+000	-1.6187794427e+000
 3.9255090465e-002	 1.3794405449e+000	-1.6174181919e+000
 2.6121546759e-002	 1.3797517423e+000	-1.6151677380e+000
 1.3036011859e-002	 1.3799374232e+000	-1.6117480808e+000
 0.0000000000e+000	 1.3799990000e+000	-1.6067865040e+000
 1.3303842812e-001	 1.3802693393e+000	-1.5761850502e+000
 1.1954962859e-001	 1.3815029874e+000	-1.5789145773e+000
 1.0609732880e-001	 1.3826011447e+000	-1.5806609200e+000
 9.2683321754e-002	 1.3835650807e+000	-1.5816342272e+000
 7.9309362218e-002	 1.3843960899e+000	-1.5819713876e+000
 6.5977166500e-002	 1.3850954901e+000	-1.5817325542e+000
 5.2688412234e-002	 1.3856646218e+000	-1.5808978421e+000
 3.9444738204e-002	 1.3861048470e+000	-1.5793641963e+000
 2.6247744208e-002	 1.3864175478e+000	-1.5769424260e+000
 1.3098990957e-002	 1.3866041257e+000	-1.5733544026e+000
 0.0000000000e+000	 1.3866660000e+000	-1.5682304266e+000
 1.3367806823e-001	 1.3869055845e+000	-1.5413081201e+000
 1.2012441543e-001	 1.3881451639e+000	-1.5437157987e+000
 1.0660743786e-001	 1.3892486011e+000	-1.5451801984e+000
 9.3128937142e-002	 1.3902171717e+000	-1.5459027985e+000
 7.9690676477e-002	 1.3910521763e+000	-1.5460133178e+000
 6.6294380430e-002	 1.3917549391e+000	-1.5455662149e+000
 5.2941734697e-002	 1.3923268072e+000	-1.5445373579e+000
 3.9634385943e-002	 1.3927691490e+000	-1.5428208590e+000
 2.6373941657e-002	 1.3930833533e+000	-1.5402260711e+000
 1.3161970055e-002	 1.3932708282e+000	-1.5364747425e+000
 0.0000000000e+000	 1.3933330000e+000	-1.5311983357e+000
 1.3431770835e-001	 1.3935418298e+000	-1.5082822521e+000
 1.2069920228e-001	 1.3947873405e+000	-1.5102559725e+000
 1.0711754693e-001	 1.3958960576e+000	-1.5113501588e+000
 9.3574552529e-002	 1.3968692627e+000	-1.5117548589e+000
 8.0071990737e-002	 1.3977082627e+000	-1.5115899835e+000
 6.6611594359e-002	 1.3984143882e+000	-1.5109017869e+000
 5.3195057159e-002	 1.3989889927e+000	-1.5096595117e+000
 3.9824033681e-002	 1.3994334510e+000	-1.5077521929e+000
 2.6500139106e-002	 1.3997491587e+000	-1.5049856186e+000
 1.3224949153e-002	 1.3999375307e+000	-1.5010794446e+000
 0.0000000000e+000	 1.4000000000e+000	-1.4956644658e+000
 1.4000000000e+000	 0.0000000000e+000	 3.5451955020e+000
 1.3999375307e+000	 1.3224949153e-002	 3.5438884483e+000
 1.3997491587e+000	 2.6500139106e-002	 3.5402294002e+000
 1.3994334510e+000	 3.9824033681e-002	 3.5342395284e+000
 1.3989889927e+000	 5.3195057159e-002	 3.5259013198e+000
 1.3984143882e+000	 6.6611594359e-002	 3.5151603755e+000
 1.3977082627e+000	 8.0071990737e-002	 3.5019273524e+000
 1.3968692627e+000	 9.3574552529e-002	 3.4860800526e+000
 1.3958960576e+000	 1.0711754693e-001	 3.4674656669e+000
 1.3947873405e+000	 1.2069920228e-001	 3.4459031819e+000
 1.3935418298e+000	 1.3431770835e-001	 3.4211859608e+000
 1.4066670000e+000	 0.0000000000e+000	 3.5457950851e+000
 1.4066042332e+000	 1.3287928250e-002	 3.5447013431e+000
 1.4064149642e+000	 2.6626336555e-002	 3.5411622192e+000
 1.4060977530e+000	 4.0013681419e-002	 3.5352188413e+000
 1.4056511781e+000	 5.3448379621e-002	 3.5268735394e+000
 1.4050738373e+000	 6.6928808288e-002	 3.5160916143e+000
 1.4043643491e+000	 8.0453304996e-002	 3.5028032474e+000
 1.4035213537e+000	 9.4020167917e-002	 3.4869055540e+000
 1.4025435140e+000	 1.0762765599e-001	 3.4682647879e+000
 1.4014295171e+000	 1.2127398912e-001	 3.4467187068e+000
 1.4001780751e+000	 1.3495734846e-001	 3.4220791079e+000
 1.4133340000e+000	 0.0000000000e+000	 3.5459903561e+000
 1.4132709357e+000	 1.3350907347e-002	 3.5450698022e+000
 1.4130807696e+000	 2.6752534003e-002	 3.5416257558e+000
 1.4127620550e+000	 4.0203329157e-002	 3.5357161152e+000
 1.4123133635e+000	 5.3701702083e-002	 3.5273598525e+000
 1.4117332864e+000	 6.7246022216e-002	 3.5165387569e+000
 1.4110204356e+000	 8.0834619255e-002	 3.5031993152e+000
 1.4101734447e+000	 9.4465783304e-002	 3.4872547326e+000
 1.4091909705e+000	 1.0813776505e-001	 3.4685871010e+000
 1.4080716936e+000	 1.2184877597e-001	 3.4470497257e+000
 1.4068143204e+000	 1.3559698858e-001	 3.4224696194e+000
 1.4200010000e+000	 0.0000000000e+000	 3.5457526949e+000
 1.4199376382e+000	 1.3413886444e-002	 3.5449657241e+000
 1.4197465751e+000	 2.6878731451e-002	 3.5415923334e+000
 1.4194263570e+000	 4.0392976894e-002	 3.5357040517e+000
 1.4189755490e+000	 5.3955024544e-002	 3.5273333401e+000
 1.4183927355e+000	 6.7563236144e-002	 3.5164753143e+000
 1.4176765220e+000	 8.1215933514e-002	 3.5030895979e+000
 1.4168255357e+000	 9.4911398691e-002	 3.4871023141e+000
 1.4158384269e+000	 1.0864787411e-001	 3.4684082208e+000
 1.4147138702e+000	 1.2242356281e-001	 3.4468730015e+000
 1.4134505656e+000	 1.3623662869e-001	 3.4223357204e+000
 1.4266680000e+000	 0.0000000000e+000	 3.5450531410e+000
 1.4266043408e+000	 1.3476865541e-002	 3.5443607688e+000
 1.4264123806e+000	 2.7004928898e-002	 3.5410341314e+000
 1.4260906591e+000	 4.0582624631e-002	 3.5351552936e+000
 1.4256377344e+000	 5.4208347005e-002	 3.5267671007e+000
 1.4250521846e+000	 6.7880450072e-002	 3.5158748808e+000
 1.4243326084e+000	 8.1597247772e-002	 3.5024482761e+000
 1.4234776267e+000	 9.5357014077e-002	 3.4864232069e+000
 1.4224858833e+000	 1.0915798317e-001	 3.4677039771e+000
 1.4213560468e+000	 1.2299834965e-001	 3.4461655320e+000
 1.4200868109e+000	 1.3687626881e-001	 3.4216558774e+000
 1.4333350000e+000	 0.0000000000e+000	 3.5438624018e+000
 1.4332710433e+000	 1.3539844637e-002	 3.5432263655e+000
 1.4330781860e+000	 2.7131126346e-002	 3.5399231914e+000
 1.4327549611e+000	 4.0772272367e-002	 3.5340424310e+000
 1.4322999199e+000	 5.4461669466e-002	 3.5256342550e+000
 1.4317116337e+000	 6.8197663999e-002	 3.5147111388e+000
 1.4309886948e+000	 8.1978562030e-002	 3.5012496734e+000
 1.4301297176e+000	 9.5802629464e-002	 3.4851925059e+000
 1.4291333398e+000	 1.0966809223e-001	 3.4664504180e+000
 1.4279982234e+000	 1.2357313650e-001	 3.4449045528e+000
 1.4267230562e+000	 1.3751590892e-001	 3.4204088018e+000
 1.4400020000e+000	 0.0000000000e+000	 3.5421508597e+000
 1.4399377458e+000	 1.3602823734e-002	 3.5415337194e+000
 1.4397439915e+000	 2.7257323793e-002	 3.5382314235e+000
 1.4394192631e+000	 4.0961920104e-002	 3.5323380065e+000
 1.4389621053e+000	 5.4714991926e-002	 3.5239079513e+000
 1.4383710828e+000	 6.8514877927e-002	 3.5129578625e+000
 1.4376447813e+000	 8.2359876288e-002	 3.4994682596e+000
 1.4367818086e+000	 9.6248244850e-002	 3.4833854960e+000
 1.4357807962e+000	 1.1017820129e-001	 3.4646238134e+000
 1.4346403999e+000	 1.2414792334e-001	 3.4430675412e+000
 1.4333593015e+000	 1.3815554904e-001	 3.4185734531e+000
 1.4466690000e+000	 0.0000000000e+000	 3.5398885802e+000
 1.4466044483e+000	 1.3665802830e-002	 3.5392538183e+000
 1.4464097970e+000	 2.7383521240e-002	 3.5359306127e+000
 1.4460835651e+000	 4.1151567840e-002	 3.5300145203e+000
 1.4456242907e+000	 5.4968314386e-002	 3.5215613695e+000
 1.4450305319e+000	 6.8832091854e-002	 3.5105889228e+000
 1.4443008677e+000	 8.2741190546e-002	 3.4970786551e+000
 1.4434338996e+000	 9.6693860236e-002	 3.4809776552e+000
 1.4424282527e+000	 1.1068831035e-001	 3.4622006578e+000
 1.4412825765e+000	 1.2472271018e-001	 3.4406322186e+000
 1.4399955467e+000	 1.3879518915e-001	 3.4161290421e+000
 1.4533360000e+000	 0.0000000000e+000	 3.5370453187e+000
 1.4532711508e+000	 1.3728781927e-002	 3.5363574393e+000
 1.4530756024e+000	 2.7509718687e-002	 3.5329924242e+000
 1.4527478671e+000	 4.1341215576e-002	 3.5270444360e+000
 1.4522864762e+000	 5.5221636846e-002	 3.5185677264e+000
 1.4516899810e+000	 6.9149305780e-002	 3.5075782904e+000
 1.4509569541e+000	 8.3122504803e-002	 3.4940556338e+000
 1.4500859906e+000	 9.7139475622e-002	 3.4779446580e+000
 1.4490757091e+000	 1.1119841941e-001	 3.4591576739e+000
 1.4479247531e+000	 1.2529749703e-001	 3.4375765535e+000
 1.4466317920e+000	 1.3943482927e-001	 3.4130550341e+000
 1.4600030000e+000	 0.0000000000e+000	 3.5335905278e+000
 1.4599378533e+000	 1.3791761023e-002	 3.5328151551e+000
 1.4597414079e+000	 2.7635916133e-002	 3.5293884095e+000
 1.4594121691e+000	 4.1530863311e-002	 3.5234001853e+000
 1.4589486616e+000	 5.5474959305e-002	 3.5149002796e+000
 1.4583494301e+000	 6.9466519707e-002	 3.5039000407e+000
 1.4576130405e+000	 8.3503819060e-002	 3.4903741270e+000
 1.4567380816e+000	 9.7585091007e-002	 3.4742623785e+000
 1.4557231655e+000	 1.1170852847e-001	 3.4554718144e+000
 1.4545669297e+000	 1.2587228387e-001	 3.4338787648e+000
 1.4532680373e+000	 1.4007446938e-001	 3.4093311513e+000
 1.4666700000e+000	 0.0000000000e+000	 3.5294933643e+000
 1.4666045558e+000	 1.3854740119e-002	 3.5285973406e+000
 1.4664072133e+000	 2.7762113580e-002	 3.5250900118e+000
 1.4660764711e+000	 4.1720511047e-002	 3.5190541730e+000
 1.4656108471e+000	 5.5728281765e-002	 3.5105323320e+000
 1.4650088792e+000	 6.9783733633e-002	 3.4995283568e+000
 1.4642691269e+000	 8.3885133317e-002	 3.4860092264e+000
 1.4633901726e+000	 9.8030706392e-002	 3.4699068933e+000
 1.4623706220e+000	 1.1221863753e-001	 3.4511202660e+000
 1.4612091062e+000	 1.2644707071e-001	 3.4295173236e+000
 1.4599042825e+000	 1.4071410950e-001	 3.4049373760e+000
 1.3935418298e+000	 1.3431770835e-001	 3.4211859608e+000
 1.3921584880e+000	 1.4796917094e-001	 3.3939780598e+000
 1.3906359110e+000	 1.6165376864e-001	 3.3650320208e+000
 1.3889729000e+000	 1.7536960807e-001	 3.3342477298e+000
 1.3871682857e+000	 1.8911475949e-001	 3.3015000296e+000
 1.3852209296e+000	 2.0288725725e-001	 3.2666417655e+000
 1.3831297249e+000	 2.1668510026e-001	 3.2295070784e+000
 1.3808935982e+000	 2.3050625248e-001	 3.1899149587e+000
 1.3785115099e+000	 2.4434864351e-001	 3.1476730777e+000
 1.3759824560e+000	 2.5821016918e-001	 3.1025819106e+000
 1.3733054688e+000	 2.7208869216e-001	 3.0544391674e+000
 1.4001780751e+000	 1.3495734846e-001	 3.4220791079e+000
 1.3987881456e+000	 1.4867382127e-001	 3.3949511535e+000
 1.3972583179e+000	 1.6242358698e-001	 3.3660234946e+000
 1.3955873874e+000	 1.7620474319e-001	 3.3352065362e+000
 1.3937741793e+000	 1.9001535099e-001	 3.3023854975e+000
 1.3918175495e+000	 2.0385343535e-001	 3.2674234234e+000
 1.3897163863e+000	 2.1771698566e-001	 3.2301644439e+000
 1.3874696107e+000	 2.3160395618e-001	 3.1904372962e+000
 1.3850761786e+000	 2.4551226666e-001	 3.1480591241e+000
 1.3825350810e+000	 2.5943980289e-001	 3.1028395726e+000
 1.3798453456e+000	 2.7338441738e-001	 3.0545851928e+000
 1.4068143204e+000	 1.3559698858e-001	 3.4224696194e+000
 1.4054178032e+000	 1.4937847160e-001	 3.3953933229e+000
 1.4038807247e+000	 1.6319340531e-001	 3.3664499610e+000
 1.4022018748e+000	 1.7703987832e-001	 3.3355633866e+000
 1.4003800728e+000	 1.9091594249e-001	 3.3026321065e+000
 1.3984141695e+000	 2.0481961345e-001	 3.2675322518e+000
 1.3963030476e+000	 2.1874887106e-001	 3.2301207954e+000
 1.3940456233e+000	 2.3270165988e-001	 3.1902390336e+000
 1.3916408473e+000	 2.4667588980e-001	 3.1477163457e+000
 1.3890877060e+000	 2.6066943660e-001	 3.1023742515e+000
 1.3863852225e+000	 2.7468014260e-001	 3.0540307814e+000
 1.4134505656e+000	 1.3623662869e-001	 3.4223357204e+000
 1.4120474608e+000	 1.5008312193e-001	 3.3952839916e+000
 1.4105031316e+000	 1.6396322365e-001	 3.3662911424e+000
 1.4088163621e+000	 1.7787501344e-001	 3.3352973678e+000
 1.4069859664e+000	 1.9181653399e-001	 3.3022173404e+000
 1.4050107895e+000	 2.0578579155e-001	 3.2669431311e+000
 1.4028897089e+000	 2.1978075646e-001	 3.2293473774e+000
 1.4006216359e+000	 2.3379936358e-001	 3.1892867149e+000
 1.3982055161e+000	 2.4783951295e-001	 3.1466054904e+000
 1.3956403310e+000	 2.6189907031e-001	 3.1011397720e+000
 1.3929250993e+000	 2.7597586782e-001	 3.0527216767e+000
 1.4200868109e+000	 1.3687626881e-001	 3.4216558774e+000
 1.4186771184e+000	 1.5078777226e-001	 3.3946028298e+000
 1.4171255385e+000	 1.6473304199e-001	 3.3655270226e+000
 1.4154308495e+000	 1.7871014857e-001	 3.3343878549e+000
 1.4135918599e+000	 1.9271712549e-001	 3.3011190109e+000
 1.4116074094e+000	 2.0675196966e-001	 3.2656313234e+000
 1.4094763703e+000	 2.2081264186e-001	 3.2278158845e+000
 1.4071976485e+000	 2.3489706728e-001	 3.1875474195e+000
 1.4047701848e+000	 2.4900313609e-001	 3.1446879432e+000
 1.4021929561e+000	 2.6312870402e-001	 3.0990907164e+000
 1.3994649761e+000	 2.7727159303e-001	 3.0506045204e+000
 1.4267230562e+000	 1.3751590892e-001	 3.4204088018e+000
 1.4253067760e+000	 1.5149242259e-001	 3.3933297570e+000
 1.4237479454e+000	 1.6550286033e-001	 3.3641378500e+000
 1.4220453369e+000	 1.7954528369e-001	 3.3328145139e+000
 1.4201977535e+000	 1.9361771699e-001	 3.2993152593e+000
 1.4182040294e+000	 2.0771814776e-001	 3.2635724725e+000
 1.4160630316e+000	 2.2184452726e-001	 3.2254984603e+000
 1.4137736611e+000	 2.3599477098e-001	 3.1849887578e+000
 1.4113348536e+000	 2.5016675923e-001	 3.1419257203e+000
 1.4087455811e+000	 2.6435833773e-001	 3.0961824157e+000
 1.4060048529e+000	 2.7856731825e-001	 3.0476268392e+000
 1.4333593015e+000	 1.3815554904e-001	 3.4185734531e+000
 1.4319364336e+000	 1.5219707292e-001	 3.3914449460e+000
 1.4303703522e+000	 1.6627267867e-001	 3.3621041408e+000
 1.4286598243e+000	 1.8038041882e-001	 3.3305573043e+000
 1.4268036470e+000	 1.9451830849e-001	 3.2967845582e+000
 1.4248006493e+000	 2.0868432586e-001	 3.2607426044e+000
 1.4226496930e+000	 2.2287641265e-001	 3.2223676954e+000
 1.4203496737e+000	 2.3709247468e-001	 3.1815788683e+000
 1.4178995223e+000	 2.5133038238e-001	 3.1382814623e+000
 1.4152982061e+000	 2.6558797144e-001	 3.0923709402e+000
 1.4125447298e+000	 2.7986304347e-001	 3.0437370327e+000
 1.4399955467e+000	 1.3879518915e-001	 3.4161290421e+000
 1.4385660912e+000	 1.5290172325e-001	 3.3889288258e+000
 1.4369927591e+000	 1.6704249701e-001	 3.3594066820e+000
 1.4352743117e+000	 1.8121555394e-001	 3.3275964814e+000
 1.4334095405e+000	 1.9541889999e-001	 3.2935057128e+000
 1.4313972693e+000	 2.0965050396e-001	 3.2571181273e+000
 1.4292363543e+000	 2.2390829805e-001	 3.2183966264e+000
 1.4269256863e+000	 2.3819017838e-001	 3.1772864135e+000
 1.4244641910e+000	 2.5249400552e-001	 3.1337184290e+000
 1.4218508311e+000	 2.6681760515e-001	 3.0876130908e+000
 1.4190846066e+000	 2.8115876869e-001	 3.0388843610e+000
 1.4466317920e+000	 1.3943482927e-001	 3.4130550341e+000
 1.4451957488e+000	 1.5360637358e-001	 3.3857620845e+000
 1.4436151660e+000	 1.6781231535e-001	 3.3560265342e+000
 1.4418887990e+000	 1.8205068907e-001	 3.3239125987e+000
 1.4400154341e+000	 1.9631949149e-001	 3.2894578622e+000
 1.4379938892e+000	 2.1061668206e-001	 3.2526758315e+000
 1.4358230156e+000	 2.2494018345e-001	 3.2135587337e+000
 1.4335016988e+000	 2.3928788208e-001	 3.1720805765e+000
 1.4310288598e+000	 2.5365762866e-001	 3.1282004924e+000
 1.4284034562e+000	 2.6804723886e-001	 3.0818663897e+000
 1.4256244834e+000	 2.8245449391e-001	 3.0330189320e+000
 1.4532680373e+000	 1.4007446938e-001	 3.4093311513e+000
 1.4518254064e+000	 1.5431102390e-001	 3.3819256727e+000
 1.4502375728e+000	 1.6858213369e-001	 3.3519450339e+000
 1.4485032864e+000	 1.8288582419e-001	 3.3194865097e+000
 1.4466213276e+000	 1.9722008299e-001	 3.2846204807e+000
 1.4445905092e+000	 2.1158286016e-001	 3.2473928896e+000
 1.4424096770e+000	 2.2597206885e-001	 3.2078279401e+000
 1.4400777114e+000	 2.4038558578e-001	 3.1659310569e+000
 1.4375935285e+000	 2.5482125181e-001	 3.1216921311e+000
 1.4349560812e+000	 2.6927687257e-001	 3.0750890719e+000
 1.4321643603e+000	 2.8375021912e-001	 3.0260916901e+000
 1.4599042825e+000	 1.4071410950e-001	 3.4049373760e+000
 1.4584550640e+000	 1.5501567423e-001	 3.3774008060e+000
 1.4568599797e+000	 1.6935195202e-001	 3.3471437966e+000
 1.4551177738e+000	 1.8372095932e-001	 3.3142993699e+000
 1.4532272212e+000	 1.9812067448e-001	 3.2789733784e+000
 1.4511871291e+000	 2.1254903826e-001	 3.2412468559e+000
 1.4489963383e+000	 2.2700395425e-001	 3.2011786088e+000
 1.4466537240e+000	 2.4148328948e-001	 3.1588080677e+000
 1.4441581973e+000	 2.5598487495e-001	 3.1141584243e+000
 1.4415087062e+000	 2.7050650628e-001	 3.0672400760e+000
 1.4387042371e+000	 2.8504594434e-001	 3.0180544040e+000
 1.3733054688e+000	 2.7208869216e-001	 3.0544391674e+000
 1.3704791834e+000	 2.8598412731e-001	 3.0028318179e+000
 1.3675030993e+000	 2.9989218860e-001	 2.9476856175e+000
 1.3643763658e+000	 3.1381063911e-001	 2.8892935284e+000
 1.3610981730e+000	 3.2773721164e-001	 2.8279641360e+000
 1.3576677530e+000	 3.4166960951e-001	 2.7640269605e+000
 1.3540843807e+000	 3.5560550744e-001	 2.6978381406e+000
 1.3503473752e+000	 3.6954255248e-001	 2.6297865021e+000
 1.3464561009e+000	 3.8347836494e-001	 2.5603000211e+000
 1.3424099678e+000	 3.9741053939e-001	 2.4898526884e+000
 1.3382084331e+000	 4.1133664571e-001	 2.4189717808e+000
 1.3798453456e+000	 2.7338441738e-001	 3.0545851928e+000
 1.3770056010e+000	 2.8734602458e-001	 3.0028433797e+000
 1.3740153444e+000	 3.0132031804e-001	 2.9474804039e+000
 1.3708737210e+000	 3.1530505020e-001	 2.8887669906e+000
 1.3675799170e+000	 3.2929794306e-001	 2.8269882964e+000
 1.3641331607e+000	 3.4329668900e-001	 2.7624492492e+000
 1.3605327239e+000	 3.5729895167e-001	 2.6954802720e+000
 1.3567779224e+000	 3.7130236691e-001	 2.6264434018e+000
 1.3528681172e+000	 3.8530454369e-001	 2.5557388142e+000
 1.3488027158e+000	 3.9930306515e-001	 2.4838117624e+000
 1.3445811728e+000	 4.1329548958e-001	 2.4111599360e+000
 1.3863852225e+000	 2.7468014260e-001	 3.0540307814e+000
 1.3835320187e+000	 2.8870792184e-001	 3.0021932742e+000
 1.3805275895e+000	 3.0274844748e-001	 2.9466655387e+000
 1.3773710762e+000	 3.1679946129e-001	 2.8876949670e+000
 1.3740616609e+000	 3.3085867448e-001	 2.8255422573e+000
 1.3705985685e+000	 3.4492376849e-001	 2.7604867850e+000
 1.3669810672e+000	 3.5899239589e-001	 2.6928323668e+000
 1.3632084695e+000	 3.7306218133e-001	 2.6229134316e+000
 1.3592801335e+000	 3.8713072245e-001	 2.5511016081e+000
 1.3551954638e+000	 4.0119559091e-001	 2.4778127402e+000
 1.3509539125e+000	 4.1525433345e-001	 2.4035143349e+000
 1.3929250993e+000	 2.7597586782e-001	 3.0527216767e+000
 1.3900584363e+000	 2.9006981911e-001	 3.0008191168e+000
 1.3870398347e+000	 3.0417657692e-001	 2.9451716145e+000
 1.3838684313e+000	 3.1829387238e-001	 2.8860021593e+000
 1.3805434049e+000	 3.3241940590e-001	 2.8235459877e+000
 1.3770639763e+000	 3.4655084797e-001	 2.7580559863e+000
 1.3734294104e+000	 3.6068584012e-001	 2.6898084979e+000
 1.3696390166e+000	 3.7482199575e-001	 2.6191095449e+000
 1.3656921498e+000	 3.8895690120e-001	 2.5463014823e+000
 1.3615882119e+000	 4.0308811667e-001	 2.4717700901e+000
 1.3573266523e+000	 4.1721317732e-001	 2.3959521126e+000
 1.3994649761e+000	 2.7727159303e-001	 3.0506045204e+000
 1.3965848540e+000	 2.9143171637e-001	 2.9986595605e+000
 1.3935520798e+000	 3.0560470636e-001	 2.9429303794e+000
 1.3903657865e+000	 3.1978828347e-001	 2.8836145212e+000
 1.3870251488e+000	 3.3398013731e-001	 2.8209207833e+000
 1.3835293841e+000	 3.4817792746e-001	 2.7550746517e+000
 1.3798777537e+000	 3.6237928434e-001	 2.6863241501e+000
 1.3760695637e+000	 3.7658181018e-001	 2.6149461175e+000
 1.3721041661e+000	 3.9078307996e-001	 2.5412529275e+000
 1.3679809599e+000	 4.0498064243e-001	 2.4655996593e+000
 1.3636993920e+000	 4.1917202119e-001	 2.3883917298e+000
 1.4060048529e+000	 2.7856731825e-001	 3.0476268392e+000
 1.4031112716e+000	 2.9279361364e-001	 2.9956542799e+000
 1.4000643249e+000	 3.0703283580e-001	 2.9398747177e+000
 1.3968631417e+000	 3.2128269456e-001	 2.8804592368e+000
 1.3935068927e+000	 3.3554086873e-001	 2.8175892433e+000
 1.3899947919e+000	 3.4980500695e-001	 2.7514619351e+000
 1.3863260970e+000	 3.6407272857e-001	 2.6822961946e+000
 1.3825001108e+000	 3.7834162460e-001	 2.6103389219e+000
 1.3785161824e+000	 3.9260925871e-001	 2.5358718208e+000
 1.3743737079e+000	 4.0687316819e-001	 2.4592186501e+000
 1.3700721317e+000	 4.2113086506e-001	 2.3807529503e+000
 1.4125447298e+000	 2.7986304347e-001	 3.0437370327e+000
 1.4096376893e+000	 2.9415551090e-001	 2.9917439547e+000
 1.4065765700e+000	 3.0846096524e-001	 2.9359386317e+000
 1.4033604968e+000	 3.2277710565e-001	 2.8764646994e+000
 1.3999886367e+000	 3.3710160015e-001	 2.8134752470e+000
 1.3964601997e+000	 3.5143208643e-001	 2.7471383212e+000
 1.3927744402e+000	 3.6576617279e-001	 2.6776428641e+000
 1.3889306579e+000	 3.8010143903e-001	 2.6052051019e+000
 1.3849281987e+000	 3.9443543747e-001	 2.5300754001e+000
 1.3807664560e+000	 4.0876569395e-001	 2.4525455955e+000
 1.3764448715e+000	 4.2308970893e-001	 2.3729568186e+000
 1.4190846066e+000	 2.8115876869e-001	 3.0388843610e+000
 1.4161641069e+000	 2.9551740817e-001	 2.9868702547e+000
 1.4130888151e+000	 3.0988909468e-001	 2.9310572225e+000
 1.4098578520e+000	 3.2427151674e-001	 2.8715604907e+000
 1.4064703806e+000	 3.3866233157e-001	 2.8085039315e+000
 1.4029256075e+000	 3.5305916592e-001	 2.7420256020e+000
 1.3992227835e+000	 3.6745961701e-001	 2.6722837276e+000
 1.3953612050e+000	 3.8186125345e-001	 2.5994631478e+000
 1.3913402150e+000	 3.9626161622e-001	 2.5237822403e+000
 1.3871592040e+000	 4.1065821971e-001	 2.4455003359e+000
 1.3828176112e+000	 4.2504855279e-001	 2.3649256374e+000
 1.4256244834e+000	 2.8245449391e-001	 3.0330189320e+000
 1.4226905246e+000	 2.9687930543e-001	 2.9809758238e+000
 1.4196010602e+000	 3.1131722412e-001	 2.9251666721e+000
 1.4163552071e+000	 3.2576592783e-001	 2.8656773603e+000
 1.4129521246e+000	 3.4022306298e-001	 2.8026016695e+000
 1.4093910153e+000	 3.5468624541e-001	 2.7360468532e+000
 1.4056711267e+000	 3.6915306124e-001	 2.6661396670e+000
 1.4017917521e+000	 3.8362106788e-001	 2.5930328721e+000
 1.3977522313e+000	 3.9808779497e-001	 2.5169122290e+000
 1.3935519520e+000	 4.1255074547e-001	 2.4380039963e+000
 1.3891903509e+000	 4.2700739666e-001	 2.3565829466e+000
 1.4321643603e+000	 2.8375021912e-001	 3.0260916901e+000
 1.4292169422e+000	 2.9824120270e-001	 2.9740042653e+000
 1.4261133053e+000	 3.1274535356e-001	 2.9182042259e+000
 1.4228525623e+000	 3.2726033892e-001	 2.8587472058e+000
 1.4194338685e+000	 3.4178379440e-001	 2.7956960473e+000
 1.4158564231e+000	 3.5631332490e-001	 2.7291264111e+000
 1.4121194700e+000	 3.7084650546e-001	 2.6591328531e+000
 1.4082222992e+000	 3.8538088230e-001	 2.5858353860e+000
 1.4041642476e+000	 3.9991397373e-001	 2.5093865433e+000
 1.3999447001e+000	 4.1444327123e-001	 2.4299789630e+000
 1.3955630906e+000	 4.2896624053e-001	 2.3478535019e+000
 1.4387042371e+000	 2.8504594434e-001	 3.0180544040e+000
 1.4357433599e+000	 2.9960309996e-001	 2.9659001268e+000
 1.4326255505e+000	 3.1417348300e-001	 2.9101081746e+000
 1.4293499175e+000	 3.2875475001e-001	 2.8507030531e+000
 1.4259156124e+000	 3.4334452582e-001	 2.7877158438e+000
 1.4223218309e+000	 3.5794040438e-001	 2.7211898503e+000
 1.4185678132e+000	 3.7253994969e-001	 2.6511867223e+000
 1.4146528463e+000	 3.8714069672e-001	 2.5777930753e+000
 1.4105762639e+000	 4.0174015248e-001	 2.5011276264e+000
 1.4063374481e+000	 4.1633579699e-001	 2.4213488622e+000
 1.4019358304e+000	 4.3092508440e-001	 2.3386632537e+000
 1.3382084331e+000	 4.1133664571e-001	 2.4189717808e+000
 1.3338510017e+000	 4.2525422994e-001	 2.3479806440e+000
 1.3293372259e+000	 4.3916081473e-001	 2.2759567293e+000
 1.3246667076e+000	 4.5305390111e-001	 2.2017617262e+000
 1.3198390990e+000	 4.6693096984e-001	 2.1254157690e+000
 1.3148541040e+000	 4.8078948260e-001	 2.0471175827e+000
 1.3097114787e+000	 4.9462688332e-001	 1.9672407595e+000
 1.3044110321e+000	 5.0844059935e-001	 1.8863414931e+000
 1.2989526269e+000	 5.2222804288e-001	 1.8051653647e+000
 1.2933361804e+000	 5.3598661222e-001	 1.7246530955e+000
 1.2875616648e+000	 5.4971369321e-001	 1.6459451845e+000
 1.3445811728e+000	 4.1329548958e-001	 2.4111599360e+000
 1.3402029907e+000	 4.2727935133e-001	 2.3382318215e+000
 1.3356677197e+000	 4.4125216127e-001	 2.2648654180e+000
 1.3309749597e+000	 4.5521140851e-001	 2.1905744418e+000
 1.3261243613e+000	 4.6915456182e-001	 2.1141194187e+000
 1.3211156271e+000	 4.8307907081e-001	 2.0355190146e+000
 1.3159485119e+000	 4.9698236720e-001	 1.9551796994e+000
 1.3106228238e+000	 5.1086186612e-001	 1.8736946970e+000
 1.3051384249e+000	 5.2471496742e-001	 1.7918509585e+000
 1.2994952321e+000	 5.3853905704e-001	 1.7106350752e+000
 1.2936932174e+000	 5.5233150835e-001	 1.6312380480e+000
 1.3509539125e+000	 4.1525433345e-001	 2.4035143349e+000
 1.3465549797e+000	 4.2930447273e-001	 2.3287787828e+000
 1.3419982135e+000	 4.4334350781e-001	 2.2536135979e+000
 1.3372832118e+000	 4.5736891591e-001	 2.1777548542e+000
 1.3324096237e+000	 4.7137815380e-001	 2.1010200067e+000
 1.3273771502e+000	 4.8536865901e-001	 2.0224721929e+000
 1.3221855450e+000	 4.9933785108e-001	 1.9420086586e+000
 1.3168346155e+000	 5.1328313289e-001	 1.8602559476e+000
 1.3113242229e+000	 5.2720189197e-001	 1.7780386849e+000
 1.3056542837e+000	 5.4109150186e-001	 1.6963856609e+000
 1.2998247700e+000	 5.5494932349e-001	 1.6165347438e+000
 1.3573266523e+000	 4.1721317732e-001	 2.3959521126e+000
 1.3529069687e+000	 4.3132959412e-001	 2.3195414912e+000
 1.3483287073e+000	 4.4543485434e-001	 2.2427117762e+000
 1.3435914639e+000	 4.5952642331e-001	 2.1652344279e+000
 1.3386948860e+000	 4.7360174579e-001	 2.0869865814e+000
 1.3336386733e+000	 4.8765824721e-001	 2.0079629655e+000
 1.3284225782e+000	 5.0169333496e-001	 1.9277117726e+000
 1.3230464071e+000	 5.1570439966e-001	 1.8460096679e+000
 1.3175100209e+000	 5.2968881652e-001	 1.7637121116e+000
 1.3118133354e+000	 5.4364394668e-001	 1.6818864242e+000
 1.3059563226e+000	 5.5756713863e-001	 1.6018137107e+000
 1.3636993920e+000	 4.1917202119e-001	 2.3883917298e+000
 1.3592589578e+000	 4.3335471551e-001	 2.3104411823e+000
 1.3546592010e+000	 4.4752620088e-001	 2.2320830391e+000
 1.3498997160e+000	 4.6168393071e-001	 2.1531218568e+000
 1.3449801484e+000	 4.7582533777e-001	 2.0734676112e+000
 1.3399001964e+000	 4.8994783541e-001	 1.9931476834e+000
 1.3346596114e+000	 5.0404881884e-001	 1.9123193008e+000
 1.3292581988e+000	 5.1812566643e-001	 1.8309422216e+000
 1.3236958188e+000	 5.3217574106e-001	 1.7488568556e+000
 1.3179723871e+000	 5.4619639149e-001	 1.6671211010e+000
 1.3120878751e+000	 5.6018495377e-001	 1.5870556732e+000
 1.3700721317e+000	 4.2113086506e-001	 2.3807529503e+000
 1.3656109468e+000	 4.3537983690e-001	 2.3014003428e+000
 1.3609896948e+000	 4.4961754742e-001	 2.2216516929e+000
 1.3562079681e+000	 4.6384143811e-001	 2.1413423919e+000
 1.3512654107e+000	 4.7804892975e-001	 2.0604128507e+000
 1.3461617194e+000	 4.9223742361e-001	 1.9789205546e+000
 1.3408966445e+000	 5.0640430272e-001	 1.8970525885e+000
 1.3354699905e+000	 5.2054693320e-001	 1.8151386136e+000
 1.3298816168e+000	 5.3466266561e-001	 1.7334606110e+000
 1.3241314387e+000	 5.4874883631e-001	 1.6520756196e+000
 1.3182194277e+000	 5.6280276891e-001	 1.5722436688e+000
 1.3764448715e+000	 4.2308970893e-001	 2.3729568186e+000
 1.3719629358e+000	 4.3740495830e-001	 2.2923426901e+000
 1.3673201886e+000	 4.5170889395e-001	 2.2113432445e+000
 1.3625162202e+000	 4.6599894551e-001	 2.1298224749e+000
 1.3575506730e+000	 4.8027252174e-001	 2.0477488498e+000
 1.3524232425e+000	 4.9452701181e-001	 1.9652074380e+000
 1.3471336777e+000	 5.0875978660e-001	 1.8824125205e+000
 1.3416817822e+000	 5.2296819997e-001	 1.7997206704e+000
 1.3360674148e+000	 5.3714959015e-001	 1.7176442792e+000
 1.3302904904e+000	 5.5130128113e-001	 1.6367381292e+000
 1.3243509803e+000	 5.6542058405e-001	 1.5573630762e+000
 1.3828176112e+000	 4.2504855279e-001	 2.3649256374e+000
 1.3783149248e+000	 4.3943007969e-001	 2.2831931512e+000
 1.3736506823e+000	 4.5380024049e-001	 2.2010843820e+000
 1.3688244723e+000	 4.6815645291e-001	 2.1184897196e+000
 1.3638359354e+000	 4.8249611372e-001	 2.0354033407e+000
 1.3586847656e+000	 4.9681660001e-001	 1.9519354044e+000
 1.3533707109e+000	 5.1111527048e-001	 1.8683247525e+000
 1.3478935739e+000	 5.2538946674e-001	 1.7849520960e+000
 1.3422532128e+000	 5.3963651470e-001	 1.7023536661e+000
 1.3364495420e+000	 5.5385372595e-001	 1.6212353016e+000
 1.3304825329e+000	 5.6803839919e-001	 1.5424016427e+000
 1.3891903509e+000	 4.2700739666e-001	 2.3565829466e+000
 1.3846669138e+000	 4.4145520108e-001	 2.2738778436e+000
 1.3799811761e+000	 4.5589158703e-001	 2.1908029562e+000
 1.3751327244e+000	 4.7031396031e-001	 2.1072728943e+000
 1.3701211977e+000	 4.8471970570e-001	 2.0233052206e+000
 1.3649462887e+000	 4.9910618822e-001	 1.9390327187e+000
 1.3596077440e+000	 5.1347075436e-001	 1.8547161823e+000
 1.3541053655e+000	 5.2781073351e-001	 1.7707577117e+000
 1.3484390107e+000	 5.4212343924e-001	 1.6877144927e+000
 1.3426085937e+000	 5.5640617077e-001	 1.6063130310e+000
 1.3366140855e+000	 5.7065621433e-001	 1.5274638118e+000
 1.3955630906e+000	 4.2896624053e-001	 2.3478535019e+000
 1.3910189029e+000	 4.4348032248e-001	 2.2643240547e+000
 1.3863116699e+000	 4.5798293356e-001	 2.1804279618e+000
 1.3814409765e+000	 4.7247146771e-001	 2.0961019039e+000
 1.3764064600e+000	 4.8694329769e-001	 2.0113845352e+000
 1.3712078117e+000	 5.0139577642e-001	 1.9264288236e+000
 1.3658447772e+000	 5.1582623824e-001	 1.8415149331e+000
 1.3603171572e+000	 5.3023200028e-001	 1.7570636298e+000
 1.3546248087e+000	 5.4461036379e-001	 1.6736501930e+000
 1.3487676453e+000	 5.5895861559e-001	 1.5920188012e+000
 1.3427456381e+000	 5.7327402947e-001	 1.5130973631e+000
 1.4019358304e+000	 4.3092508440e-001	 2.3386632537e+000
 1.3973708919e+000	 4.4550544387e-001	 2.2544602229e+000
 1.3926421637e+000	 4.6007428010e-001	 2.1698895192e+000
 1.3877492286e+000	 4.7462897510e-001	 2.0849077726e+000
 1.3826917224e+000	 4.8916688967e-001	 1.9995724608e+000
 1.3774693348e+000	 5.0368536462e-001	 1.9140543233e+000
 1.3720818103e+000	 5.1818172212e-001	 1.8286503369e+000
 1.3665289489e+000	 5.3265326705e-001	 1.7437972360e+000
 1.3608106067e+000	 5.4709728833e-001	 1.6600855566e+000
 1.3549266970e+000	 5.6151106040e-001	 1.5782741789e+000
 1.3488771907e+000	 5.7589184460e-001	 1.4993053337e+000
 1.2875616648e+000	 5.4971369321e-001	 1.6459451845e+000
 1.2816300098e+000	 5.6340460958e-001	 1.5614491911e+000
 1.2755404461e+000	 5.7705878960e-001	 1.4646281842e+000
 1.2692931155e+000	 5.9067359215e-001	 1.3585384397e+000
 1.2628882170e+000	 6.0424636941e-001	 1.2464275877e+000
 1.2563260072e+000	 6.1777446844e-001	 1.1317297935e+000
 1.2496068010e+000	 6.3125523267e-001	 1.0180594357e+000
 1.2427309712e+000	 6.4468600345e-001	 9.0920324800e-001
 1.2356989496e+000	 6.5806412163e-001	 8.0911090279e-001
 1.2285112268e+000	 6.7138692914e-001	 7.2163042332e-001
 1.2211683524e+000	 6.8465177058e-001	 6.4748805266e-001
 1.2936932174e+000	 5.5233150835e-001	 1.6312380480e+000
 1.2877333150e+000	 5.6608762282e-001	 1.5459732878e+000
 1.2816147519e+000	 5.7980682600e-001	 1.4482024958e+000
 1.2753376706e+000	 5.9348646418e-001	 1.3410296985e+000
 1.2689022711e+000	 6.0712387694e-001	 1.2277559431e+000
 1.2623088112e+000	 6.2071639872e-001	 1.1118744601e+000
 1.2555576071e+000	 6.3426136027e-001	 9.9706428173e-001
 1.2486490336e+000	 6.4775609030e-001	 8.8718228131e-001
 1.2415835245e+000	 6.6119791699e-001	 7.8625361108e-001
 1.2343615728e+000	 6.7458416961e-001	 6.9780868221e-001
 1.2269837306e+000	 6.8791218012e-001	 6.2264296780e-001
 1.2998247700e+000	 5.5494932349e-001	 1.6165347438e+000
 1.2938366202e+000	 5.6877063606e-001	 1.5307066739e+000
 1.2876890577e+000	 5.8255486239e-001	 1.4321645423e+000
 1.2813822258e+000	 5.9629933621e-001	 1.3240584261e+000
 1.2749163252e+000	 6.1000138448e-001	 1.2097412013e+000
 1.2682916151e+000	 6.2365832899e-001	 1.0927636917e+000
 1.2615084132e+000	 6.3726748787e-001	 9.7686823274e-001
 1.2545670960e+000	 6.5082617715e-001	 8.6598061218e-001
 1.2474680995e+000	 6.6433171235e-001	 7.6420036463e-001
 1.2402119187e+000	 6.7778141008e-001	 6.7463076037e-001
 1.2327991087e+000	 6.9117258966e-001	 5.9849776886e-001
 1.3059563226e+000	 5.5756713863e-001	 1.6018137107e+000
 1.2999399254e+000	 5.7145364930e-001	 1.5156236549e+000
 1.2937633636e+000	 5.8530289879e-001	 1.4164836190e+000
 1.2874267809e+000	 5.9911220824e-001	 1.3075880229e+000
 1.2809303793e+000	 6.1287889201e-001	 1.1923399782e+000
 1.2742744190e+000	 6.2660025927e-001	 1.0743464303e+000
 1.2674592193e+000	 6.4027361547e-001	 9.5741167100e-001
 1.2604851585e+000	 6.5389626400e-001	 8.4552918460e-001
 1.2533526744e+000	 6.6746550771e-001	 7.4286777344e-001
 1.2460622647e+000	 6.8097865055e-001	 6.5206977619e-001
 1.2386144869e+000	 6.9443299921e-001	 5.7501703110e-001
 1.3120878751e+000	 5.6018495377e-001	 1.5870556732e+000
 1.3060432306e+000	 5.7413666254e-001	 1.5007009460e+000
 1.2998376694e+000	 5.8805093519e-001	 1.4011315540e+000
 1.2934713360e+000	 6.0192508027e-001	 1.2915845431e+000
 1.2869444334e+000	 6.1575639955e-001	 1.1755116635e+000
 1.2802572229e+000	 6.2954218954e-001	 1.0565745091e+000
 1.2734100254e+000	 6.4327974307e-001	 9.3863798381e-001
 1.2664032209e+000	 6.5696635085e-001	 8.2576205776e-001
 1.2592372493e+000	 6.7059930307e-001	 7.2210329812e-001
 1.2519126106e+000	 6.8417589103e-001	 6.3010160355e-001
 1.2444298650e+000	 6.9769340875e-001	 5.5216817345e-001
 1.3182194277e+000	 5.6280276891e-001	 1.5722436688e+000
 1.3121465358e+000	 5.7681967578e-001	 1.4859176985e+000
 1.3059119752e+000	 5.9079897158e-001	 1.3860827330e+000
 1.2995158912e+000	 6.0473795230e-001	 1.2760167194e+000
 1.2929584875e+000	 6.1863390708e-001	 1.1592184434e+000
 1.2862400269e+000	 6.3248411982e-001	 1.0394026725e+000
 1.2793608315e+000	 6.4628587067e-001	 9.2049358167e-001
 1.2723212833e+000	 6.6003643770e-001	 8.0661642196e-001
 1.2651218242e+000	 6.7373309843e-001	 7.0184961584e-001
 1.2577629566e+000	 6.8737313150e-001	 6.0870479317e-001
 1.2502452432e+000	 7.0095381829e-001	 5.2992137599e-001
 1.3243509803e+000	 5.6542058405e-001	 1.5573630762e+000
 1.3182498410e+000	 5.7950268902e-001	 1.4712555263e+000
 1.3119862810e+000	 5.9354700798e-001	 1.3713141258e+000
 1.3055604463e+000	 6.0755082433e-001	 1.2608559872e+000
 1.2989725416e+000	 6.2151141462e-001	 1.1434253231e+000
 1.2922228308e+000	 6.3542605009e-001	 1.0227885977e+000
 1.2853116376e+000	 6.4929199827e-001	 9.0292791730e-001
 1.2782393457e+000	 6.6310652455e-001	 7.8803261529e-001
 1.2710063992e+000	 6.7686689379e-001	 6.8209582248e-001
 1.2636133026e+000	 6.9057037197e-001	 5.8786049488e-001
 1.2560606213e+000	 7.0421422783e-001	 5.0824949855e-001
 1.3304825329e+000	 5.6803839919e-001	 1.5424016427e+000
 1.3243531462e+000	 5.8218570225e-001	 1.4566985338e+000
 1.3180605869e+000	 5.9629504437e-001	 1.3568053118e+000
 1.3116050015e+000	 6.1036369636e-001	 1.2460765095e+000
 1.3049865957e+000	 6.2438892215e-001	 1.1281001501e+000
 1.2982056347e+000	 6.3836798037e-001	 1.0066929158e+000
 1.2912624437e+000	 6.5229812587e-001	 8.8589350538e-001
 1.2841574081e+000	 6.6617661140e-001	 7.6995414120e-001
 1.2768909741e+000	 6.8000068915e-001	 6.6283346720e-001
 1.2694636485e+000	 6.9376761244e-001	 5.6755238096e-001
 1.2618759994e+000	 7.0747463737e-001	 4.8712800040e-001
 1.3366140855e+000	 5.7065621433e-001	 1.5274638118e+000
 1.3304564514e+000	 5.8486871549e-001	 1.4422333434e+000
 1.3241348927e+000	 5.9904308077e-001	 1.3425385076e+000
 1.3176495566e+000	 6.1317656839e-001	 1.2316552023e+000
 1.3110006498e+000	 6.2726642969e-001	 1.1132136392e+000
 1.3041884386e+000	 6.4130991064e-001	 9.9107923480e-001
 1.2972132498e+000	 6.5530425347e-001	 8.6934594305e-001
 1.2900754705e+000	 6.6924669825e-001	 7.5232429070e-001
 1.2827755490e+000	 6.8313448451e-001	 6.4405648012e-001
 1.2753139945e+000	 6.9696485291e-001	 5.4776657037e-001
 1.2676913776e+000	 7.1073504692e-001	 4.6653486099e-001
 1.3427456381e+000	 5.7327402947e-001	 1.5130973631e+000
 1.3365597566e+000	 5.8755172873e-001	 1.4279250399e+000
 1.3302091985e+000	 6.0179111716e-001	 1.3284985935e+000
 1.3236941118e+000	 6.1598944042e-001	 1.2175717611e+000
 1.3170147039e+000	 6.3014393722e-001	 1.0987393959e+000
 1.3101712425e+000	 6.4425184092e-001	 9.7591416215e-001
 1.3031640559e+000	 6.5831038107e-001	 8.5324393111e-001
 1.2959935330e+000	 6.7231678510e-001	 7.3511646748e-001
 1.2886601239e+000	 6.8626827987e-001	 6.2576110100e-001
 1.2811643405e+000	 7.0016209339e-001	 5.2849155395e-001
 1.2735067557e+000	 7.1399545646e-001	 4.4645050165e-001
 1.3488771907e+000	 5.7589184460e-001	 1.4993053337e+000
 1.3426630618e+000	 5.9023474197e-001	 1.4141330593e+000
 1.3362835043e+000	 6.0453915355e-001	 1.3147084826e+000
 1.3297386669e+000	 6.1880231245e-001	 1.2038086873e+000
 1.3230287580e+000	 6.3302144475e-001	 1.0846539427e+000
 1.3161540465e+000	 6.4719377119e-001	 9.6116732868e-001
 1.3091148620e+000	 6.6131650867e-001	 8.3754929586e-001
 1.3019115954e+000	 6.7538687194e-001	 7.1833609148e-001
 1.2945446989e+000	 6.8940207522e-001	 6.0794580853e-001
 1.2870146864e+000	 7.0335933386e-001	 5.0971812052e-001
 1.2793221339e+000	 7.1725586600e-001	 4.2685770832e-001
 1.2211683524e+000	 6.8465177058e-001	 6.4748805266e-001
 1.2136697993e+000	 6.9785797114e-001	 5.7679353476e-001
 1.2060173266e+000	 7.1100089074e-001	 4.9953817398e-001
 1.1982116633e+000	 7.2407789135e-001	 4.1688163219e-001
 1.1902535976e+000	 7.3708634418e-001	 3.2990557890e-001
 1.1821439770e+000	 7.5002363130e-001	 2.3960918885e-001
 1.1738837082e+000	 7.6288714729e-001	 1.4690515341e-001
 1.1654737568e+000	 7.7567430092e-001	 5.2616230253e-002
 1.1569151472e+000	 7.8838251678e-001	-4.2527647962e-002
 1.1482089623e+000	 8.0100923691e-001	-1.3789168904e-001
 1.1393563430e+000	 8.1355192249e-001	-2.3293796803e-001
 1.2269837306e+000	 6.8791218012e-001	 6.2264296780e-001
 1.2194494682e+000	 7.0118127049e-001	 5.5129328605e-001
 1.2117605534e+000	 7.1438677855e-001	 4.7363171213e-001
 1.2039177184e+000	 7.2752605371e-001	 3.9076591707e-001
 1.1959217553e+000	 7.4059645465e-001	 3.0372399247e-001
 1.1877735155e+000	 7.5359535098e-001	 2.1344997679e-001
 1.1794739101e+000	 7.6652012487e-001	 1.2079991168e-001
 1.1710239093e+000	 7.7936817276e-001	 2.6538453071e-002
 1.1624245424e+000	 7.9213690695e-001	-6.8663941790e-002
 1.1536768974e+000	 8.0482375733e-001	-1.6423323439e-001
 1.1447821206e+000	 8.1742617297e-001	-2.5969341930e-001
 1.2327991087e+000	 6.9117258966e-001	 5.9849776886e-001
 1.2252291372e+000	 7.0450456985e-001	 5.2652840552e-001
 1.2175037802e+000	 7.1777266637e-001	 4.4848525622e-001
 1.2096237735e+000	 7.3097421607e-001	 3.6542570956e-001
 1.2015899129e+000	 7.4410656513e-001	 2.7832612962e-001
 1.1934030540e+000	 7.5716707066e-001	 1.8807740873e-001
 1.1850641120e+000	 7.7015310246e-001	 9.5481066387e-002
 1.1765740619e+000	 7.8306204459e-001	 1.2459197786e-003
 1.1679339376e+000	 7.9589129713e-001	-9.4014652957e-002
 1.1591448325e+000	 8.0863827775e-001	-1.8978483935e-001
 1.1502078983e+000	 8.2130042345e-001	-2.8564789637e-001
 1.2386144869e+000	 6.9443299921e-001	 5.7501703110e-001
 1.2310088062e+000	 7.0782786920e-001	 5.0245564133e-001
 1.2232470070e+000	 7.2115855418e-001	 4.2404950896e-001
 1.2153298286e+000	 7.3442237843e-001	 3.4080745037e-001
 1.2072580706e+000	 7.4761667560e-001	 2.5365595130e-001
 1.1990325925e+000	 7.6073879034e-001	 1.6343474376e-001
 1.1906543139e+000	 7.7378608004e-001	 7.0892945325e-002
 1.1821242144e+000	 7.8675591643e-001	-2.3314213210e-002
 1.1734433328e+000	 7.9964568730e-001	-1.1862805029e-001
 1.1646127676e+000	 8.1245279817e-001	-2.1458846882e-001
 1.1556336760e+000	 8.2517467393e-001	-3.1083535115e-001
 1.2444298650e+000	 6.9769340875e-001	 5.5216817345e-001
 1.2367884751e+000	 7.1115116856e-001	 4.7903466178e-001
 1.2289902338e+000	 7.2454444200e-001	 4.0027813871e-001
 1.2210358837e+000	 7.3787054080e-001	 3.1686056089e-001
 1.2129262282e+000	 7.5112678607e-001	 2.2966038422e-001
 1.2046621310e+000	 7.6431051002e-001	 1.3946816235e-001
 1.1962445158e+000	 7.7741905762e-001	 4.6982724209e-002
 1.1876743669e+000	 7.9044978826e-001	-4.7192043454e-002
 1.1789527281e+000	 8.0340007748e-001	-1.4254978641e-001
 1.1700807027e+000	 8.1626731859e-001	-2.3868362866e-001
 1.1610594536e+000	 8.2904892441e-001	-3.3528746058e-001
 1.2502452432e+000	 7.0095381829e-001	 5.2992137599e-001
 1.2425681441e+000	 7.1447446791e-001	 4.5622796944e-001
 1.2347334606e+000	 7.2793032982e-001	 3.7712769108e-001
 1.2267419389e+000	 7.4131870316e-001	 2.9353735313e-001
 1.2185943859e+000	 7.5463689654e-001	 2.0628922983e-001
 1.2102916695e+000	 7.6788222971e-001	 1.1612667524e-001
 1.2018347177e+000	 7.8105203521e-001	 2.3700336459e-002
 1.1932245194e+000	 7.9414366010e-001	-7.0435011052e-002
 1.1844621233e+000	 8.0715446765e-001	-1.6582298383e-001
 1.1755486379e+000	 8.2008183901e-001	-2.6210744864e-001
 1.1664852313e+000	 8.3292317489e-001	-3.5903370558e-001
 1.2560606213e+000	 7.0421422783e-001	 5.0824949855e-001
 1.2483478131e+000	 7.1779776727e-001	 4.3400081642e-001
 1.2404766874e+000	 7.3131621763e-001	 3.5455750172e-001
 1.2324479940e+000	 7.4476686552e-001	 2.7079294079e-001
 1.2242625436e+000	 7.5814700702e-001	 1.8349507470e-001
 1.2159212079e+000	 7.7145394939e-001	 9.3362033787e-002
 1.2074249197e+000	 7.8468501279e-001	 9.9838426340e-004
 1.1987746719e+000	 7.9783753194e-001	-9.3087985999e-002
 1.1899715185e+000	 8.1090885783e-001	-1.8848831998e-001
 1.1810165730e+000	 8.2389635943e-001	-2.8489476425e-001
 1.1719110090e+000	 8.3679742537e-001	-3.8210144887e-001
 1.2618759994e+000	 7.0747463737e-001	 4.8712800040e-001
 1.2541274820e+000	 7.2112106663e-001	 4.1232112079e-001
 1.2462199142e+000	 7.3470210545e-001	 3.3252961031e-001
 1.2381540491e+000	 7.4821502788e-001	 2.4858515170e-001
 1.2299307012e+000	 7.6165711749e-001	 1.6123320203e-001
 1.2215507464e+000	 7.7502566907e-001	 7.1128641469e-002
 1.2130151216e+000	 7.8831799037e-001	-2.1167949130e-002
 1.2043248245e+000	 8.0153140377e-001	-1.1519335436e-001
 1.1954809137e+000	 8.1466324800e-001	-2.1058411104e-001
 1.1864845081e+000	 8.2771087985e-001	-3.0707819748e-001
 1.1773367866e+000	 8.4067167585e-001	-4.0451601205e-001
 1.2676913776e+000	 7.1073504692e-001	 4.6653486099e-001
 1.2599071510e+000	 7.2444436598e-001	 3.9115938418e-001
 1.2519631410e+000	 7.3808799327e-001	 3.1100867579e-001
 1.2438601042e+000	 7.5166319024e-001	 2.2687444139e-001
 1.2355988589e+000	 7.6516722796e-001	 1.3946150442e-001
 1.2271802849e+000	 7.7859738876e-001	 4.9383466631e-002
 1.2186053235e+000	 7.9195096796e-001	-4.2840985955e-002
 1.2098749770e+000	 8.0522527561e-001	-1.3679110334e-001
 1.2009903089e+000	 8.1841763818e-001	-2.3214639480e-001
 1.1919524432e+000	 8.3152540027e-001	-3.2868823673e-001
 1.1827625643e+000	 8.4454592633e-001	-4.2630075167e-001
 1.2735067557e+000	 7.1399545646e-001	 4.4645050165e-001
 1.2656868199e+000	 7.2776766534e-001	 3.7048861041e-001
 1.2577063678e+000	 7.4147388108e-001	 2.8996189263e-001
 1.2495661593e+000	 7.5511135261e-001	 2.0562380781e-001
 1.2412670166e+000	 7.6867733844e-001	 1.1814039786e-001
 1.2328098234e+000	 7.8216910844e-001	 2.8085956388e-002
 1.2241955254e+000	 7.9558394554e-001	-6.4060639309e-002
 1.2154251295e+000	 8.0891914744e-001	-1.5791890518e-001
 1.2064997041e+000	 8.2217202835e-001	-2.5320901238e-001
 1.1974203783e+000	 8.3533992069e-001	-3.4975331560e-001
 1.1881883420e+000	 8.4842017681e-001	-4.4747713455e-001
 1.2793221339e+000	 7.1725586600e-001	 4.2685770832e-001
 1.2714664889e+000	 7.3109096470e-001	 3.5028422515e-001
 1.2634495946e+000	 7.4485976890e-001	 2.6935890826e-001
 1.2552722144e+000	 7.5855951497e-001	 1.8479870730e-001
 1.2469351742e+000	 7.7218744891e-001	 9.7232736787e-002
 1.2384393619e+000	 7.8574082812e-001	 7.1979516687e-003
 1.2297857273e+000	 7.9921692312e-001	-8.4864497445e-002
 1.2209752820e+000	 8.1261301928e-001	-1.7861220013e-001
 1.2120090993e+000	 8.2592641853e-001	-2.7380368905e-001
 1.2028883134e+000	 8.3915444111e-001	-3.7029989093e-001
 1.1936141197e+000	 8.5229442729e-001	-4.6806481219e-001
 1.1393563430e+000	 8.1355192249e-001	-2.3293796803e-001
 1.1303584875e+000	 8.2600805515e-001	-3.2432272825e-001
 1.1212166501e+000	 8.3837513777e-001	-4.0946946519e-001
 1.1119321415e+000	 8.5065069693e-001	-4.8912070874e-001
 1.1025063287e+000	 8.6283228470e-001	-5.6409176578e-001
 1.0929406339e+000	 8.7491748032e-001	-6.3526758602e-001
 1.0832365347e+000	 8.8690389170e-001	-7.0359909335e-001
 1.0733955625e+000	 8.9878915698e-001	-7.7009900464e-001
 1.0634193023e+000	 9.1057094609e-001	-8.3583716182e-001
 1.0533093916e+000	 9.2224696223e-001	-9.0193540735e-001
 1.0430675196e+000	 9.3381494334e-001	-9.6956203647e-001
 1.1447821206e+000	 8.1742617297e-001	-2.5969341930e-001
 1.1357414161e+000	 8.2994162351e-001	-3.5161499952e-001
 1.1265560440e+000	 8.4236759995e-001	-4.3727803060e-001
 1.1172273212e+000	 8.5470161707e-001	-5.1740272873e-001
 1.1077566213e+000	 8.6694121531e-001	-5.9278409065e-001
 1.0981453734e+000	 8.7908396236e-001	-6.6428872015e-001
 1.0883950618e+000	 8.9112745473e-001	-7.3285110357e-001
 1.0785072255e+000	 9.0306931934e-001	-7.9946935689e-001
 1.0684834569e+000	 9.1490721502e-001	-8.6520047089e-001
 1.0583254014e+000	 9.2663883401e-001	-9.3115508503e-001
 1.0480347562e+000	 9.3826190350e-001	-9.9849182467e-001
 1.1502078983e+000	 8.2130042345e-001	-2.8564789637e-001
 1.1411243447e+000	 8.3387519187e-001	-3.7809391694e-001
 1.1318954378e+000	 8.4636006213e-001	-4.6426600192e-001
 1.1225225009e+000	 8.5875253721e-001	-5.4486114259e-001
 1.1130069139e+000	 8.7105014591e-001	-6.2065326028e-001
 1.1033501128e+000	 8.8325044439e-001	-6.9248999327e-001
 1.0935535889e+000	 8.9535101777e-001	-7.6128891574e-001
 1.0836188885e+000	 9.0734948171e-001	-8.2803321169e-001
 1.0735476116e+000	 9.1924348395e-001	-8.9376683113e-001
 1.0633414112e+000	 9.3103070580e-001	-9.5958915993e-001
 1.0530019927e+000	 9.4270886367e-001	-1.0266492389e+000
 1.1556336760e+000	 8.2517467393e-001	-3.1083535115e-001
 1.1465072733e+000	 8.3780876023e-001	-4.0378498689e-001
 1.1372348317e+000	 8.5035252430e-001	-4.9045127158e-001
 1.1278176807e+000	 8.6280345736e-001	-5.7150706439e-001
 1.1182572066e+000	 8.7515907652e-001	-6.4770445068e-001
 1.1085548522e+000	 8.8741692642e-001	-7.1987148897e-001
 1.0987121161e+000	 8.9957458080e-001	-7.8890837240e-001
 1.0887305515e+000	 9.1162964408e-001	-8.5578302812e-001
 1.0786117662e+000	 9.2357975288e-001	-9.2152618234e-001
 1.0683574210e+000	 9.3542257759e-001	-9.8722592366e-001
 1.0579692293e+000	 9.4715582383e-001	-1.0540218007e+000
 1.1610594536e+000	 8.2904892441e-001	-3.3528746058e-001
 1.1518902019e+000	 8.4174232860e-001	-4.2871162786e-001
 1.1425742255e+000	 8.5434498648e-001	-5.1584981022e-001
 1.1331128604e+000	 8.6685437750e-001	-5.9734983172e-001
 1.1235074992e+000	 8.7926800712e-001	-6.7394118582e-001
 1.1137595917e+000	 8.9158340845e-001	-7.4643174229e-001
 1.1038706432e+000	 9.0379814384e-001	-8.1570385022e-001
 1.0938422145e+000	 9.1590980644e-001	-8.8270986124e-001
 1.0836759208e+000	 9.2791602181e-001	-9.4846710153e-001
 1.0733734308e+000	 9.3981444937e-001	-1.0140523257e+000
 1.0629364658e+000	 9.5160278400e-001	-1.0805956899e+000
 1.1664852313e+000	 8.3292317489e-001	-3.5903370558e-001
 1.1572731305e+000	 8.4567589696e-001	-4.5289524492e-001
 1.1479136194e+000	 8.5833744866e-001	-5.4047573737e-001
 1.1384080401e+000	 8.7090529765e-001	-6.2239707274e-001
 1.1287577918e+000	 8.8337693773e-001	-6.9936540137e-001
 1.1189643311e+000	 8.9574989049e-001	-7.7216780055e-001
 1.1090291703e+000	 9.0802170687e-001	-8.4166831811e-001
 1.0989538776e+000	 9.2018996881e-001	-9.0880341799e-001
 1.0887400755e+000	 9.3225229074e-001	-9.7457685681e-001
 1.0783894406e+000	 9.4420632116e-001	-1.0400540258e+000
 1.0679037023e+000	 9.5604974416e-001	-1.1063557958e+000
 1.1719110090e+000	 8.3679742537e-001	-3.8210144887e-001
 1.1626560590e+000	 8.4960946533e-001	-4.7635530358e-001
 1.1532530133e+000	 8.6232991084e-001	-5.6434139138e-001
 1.1437032198e+000	 8.7495621779e-001	-6.4665477262e-001
 1.1340080845e+000	 8.8748586833e-001	-7.2397750790e-001
 1.1241690705e+000	 8.9991637252e-001	-7.9707528358e-001
 1.1141876974e+000	 9.1224526991e-001	-8.6679339501e-001
 1.1040655406e+000	 9.2447013118e-001	-9.3405211261e-001
 1.0938042301e+000	 9.3658855966e-001	-9.9984146099e-001
 1.0834054504e+000	 9.4859819294e-001	-1.0652154458e+000
 1.0728709389e+000	 9.6049670432e-001	-1.1312857675e+000
 1.1773367866e+000	 8.4067167585e-001	-4.0451601205e-001
 1.1680389876e+000	 8.5354303369e-001	-4.9910940271e-001
 1.1585924071e+000	 8.6632237302e-001	-5.8745739864e-001
 1.1489983995e+000	 8.7900713793e-001	-6.7012733931e-001
 1.1392583771e+000	 8.9159479894e-001	-7.4777645355e-001
 1.1293738099e+000	 9.0408285455e-001	-8.2114844368e-001
 1.1193462246e+000	 9.1646883294e-001	-8.9106940722e-001
 1.1091772036e+000	 9.2875029354e-001	-9.5844312189e-001
 1.0988683847e+000	 9.4092482859e-001	-1.0242457248e+000
 1.0884214602e+000	 9.5299006473e-001	-1.0895198216e+000
 1.0778381754e+000	 9.6494366449e-001	-1.1553680651e+000
 1.1827625643e+000	 8.4454592633e-001	-4.2630075167e-001
 1.1734219162e+000	 8.5747660205e-001	-5.2117334679e-001
 1.1639318010e+000	 8.7031483519e-001	-6.0983274216e-001
 1.1542935792e+000	 8.8305805808e-001	-6.9281766877e-001
 1.1445086698e+000	 8.9570372954e-001	-7.7075978622e-001
 1.1345785494e+000	 9.0824933658e-001	-8.4438022496e-001
 1.1245047517e+000	 9.2069239598e-001	-9.1448544537e-001
 1.1142888666e+000	 9.3303045591e-001	-9.8196243992e-001
 1.1039325394e+000	 9.4526109752e-001	-1.0477733101e+000
 1.0934374700e+000	 9.5738193651e-001	-1.1129492544e+000
 1.0828054119e+000	 9.6939062465e-001	-1.1785840091e+000
 1.1881883420e+000	 8.4842017681e-001	-4.4747713455e-001
 1.1788048448e+000	 8.6141017042e-001	-5.4256121732e-001
 1.1692711948e+000	 8.7430729737e-001	-6.3147482948e-001
 1.1595887589e+000	 8.8710897822e-001	-7.1472720966e-001
 1.1497589624e+000	 8.9981266015e-001	-7.9292371527e-001
 1.1397832888e+000	 9.1241581861e-001	-8.6676232240e-001
 1.1296632788e+000	 9.2491595901e-001	-9.3702942106e-001
 1.1194005296e+000	 9.3731061827e-001	-1.0045949327e+000
 1.1089966940e+000	 9.4959736645e-001	-1.0704067821e+000
 1.0984534798e+000	 9.6177380830e-001	-1.1354847620e+000
 1.0877726485e+000	 9.7383758481e-001	-1.2009138311e+000
 1.1936141197e+000	 8.5229442729e-001	-4.6806481219e-001
 1.1841877734e+000	 8.6534373878e-001	-5.6328544354e-001
 1.1746105887e+000	 8.7829975955e-001	-6.5238955996e-001
 1.1648839386e+000	 8.9115989836e-001	-7.3585602740e-001
 1.1550092550e+000	 9.0392159075e-001	-8.1426317268e-001
 1.1449880282e+000	 9.1658230064e-001	-8.8828524039e-001
 1.1348218059e+000	 9.2913952205e-001	-9.5868812306e-001
 1.1245121926e+000	 9.4159078064e-001	-1.0263243921e+000
 1.1140608486e+000	 9.5393363537e-001	-1.0921276623e+000
 1.1034694896e+000	 9.6616568008e-001	-1.1571063295e+000
 1.0927398850e+000	 9.7828454497e-001	-1.2223367228e+000
 1.0430675196e+000	 9.3381494334e-001	-9.6956203647e-001
 1.0326969920e+000	 9.4527095351e-001	-1.0354921585e+000
 1.0221980720e+000	 9.5661454950e-001	-1.0961500367e+000
 1.0115725983e+000	 9.6784358393e-001	-1.1522029290e+000
 1.0008224573e+000	 9.7895594979e-001	-1.2043467451e+000
 9.8994958172e-001	 9.8994958172e-001	-1.2533002357e+000
 9.7895594979e-001	 1.0008224573e+000	-1.2997990126e+000
 9.6784358393e-001	 1.0115725983e+000	-1.3445894501e+000
 9.5661454950e-001	 1.0221980720e+000	-1.3884225176e+000
 9.4527095351e-001	 1.0326969920e+000	-1.4320475943e+000
 9.3381494334e-001	 1.0430675196e+000	-1.4762063167e+000
 1.0480347562e+000	 9.3826190350e-001	-9.9849182467e-001
 1.0376148426e+000	 9.4977246883e-001	-1.0639907661e+000
 1.0270659252e+000	 9.6117008465e-001	-1.1241024783e+000
 1.0163898516e+000	 9.7245259335e-001	-1.1795181645e+000
 1.0055885168e+000	 9.8361787787e-001	-1.2309580046e+000
 9.9466386305e-001	 9.9466386305e-001	-1.2791651309e+000
 9.8361787787e-001	 1.0055885168e+000	-1.3248994308e+000
 9.7245259335e-001	 1.0163898516e+000	-1.3689312259e+000
 9.6117008465e-001	 1.0270659252e+000	-1.4120348813e+000
 9.4977246883e-001	 1.0376148426e+000	-1.4549823962e+000
 9.3826190350e-001	 1.0480347562e+000	-1.4985370288e+000
 1.0530019927e+000	 9.4270886367e-001	-1.0266492389e+000
 1.0425326932e+000	 9.5427398416e-001	-1.0917293375e+000
 1.0319337785e+000	 9.6572561979e-001	-1.1513038641e+000
 1.0212071048e+000	 9.7706160276e-001	-1.2060886186e+000
 1.0103545763e+000	 9.8827980596e-001	-1.2568287116e+000
 9.9937814437e-001	 9.9937814437e-001	-1.3042923214e+000
 9.8827980596e-001	 1.0103545763e+000	-1.3492642719e+000
 9.7706160276e-001	 1.0212071048e+000	-1.3925394844e+000
 9.6572561979e-001	 1.0319337785e+000	-1.4349163564e+000
 9.5427398416e-001	 1.0425326932e+000	-1.4771901214e+000
 9.4270886367e-001	 1.0530019927e+000	-1.5201462456e+000
 1.0579692293e+000	 9.4715582383e-001	-1.0540218007e+000
 1.0474505438e+000	 9.5877549948e-001	-1.1186950041e+000
 1.0368016317e+000	 9.7028115494e-001	-1.1777408148e+000
 1.0260243580e+000	 9.8167061217e-001	-1.2319002838e+000
 1.0151206359e+000	 9.9294173404e-001	-1.2819441175e+000
 1.0040924257e+000	 1.0040924257e+000	-1.3286662092e+000
 9.9294173404e-001	 1.0151206359e+000	-1.3728769866e+000
 9.8167061217e-001	 1.0260243580e+000	-1.4153966289e+000
 9.7028115494e-001	 1.0368016317e+000	-1.4570482090e+000
 9.5877549948e-001	 1.0474505438e+000	-1.4986508166e+000
 9.4715582383e-001	 1.0579692293e+000	-1.5410127189e+000
 1.0629364658e+000	 9.5160278400e-001	-1.0805956899e+000
 1.0523683944e+000	 9.6327701480e-001	-1.1448735457e+000
 1.0416694850e+000	 9.7483669008e-001	-1.2033985883e+000
 1.0308416112e+000	 9.8627962158e-001	-1.2569377783e+000
 1.0198866954e+000	 9.9760366213e-001	-1.3062880876e+000
 1.0088067070e+000	 1.0088067070e+000	-1.3522697991e+000
 9.9760366213e-001	 1.0198866954e+000	-1.3957196174e+000
 9.8627962158e-001	 1.0308416112e+000	-1.4374836447e+000
 9.7483669008e-001	 1.0416694850e+000	-1.4784102796e+000
 9.6327701480e-001	 1.0523683944e+000	-1.5193430968e+000
 9.5160278400e-001	 1.0629364658e+000	-1.5611137651e+000
 1.0679037023e+000	 9.5604974416e-001	-1.1063557958e+000
 1.0572862450e+000	 9.6777853012e-001	-1.1702494401e+000
 1.0465373382e+000	 9.7939222523e-001	-1.2282611282e+000
 1.0356588645e+000	 9.9088863099e-001	-1.2811843930e+000
 1.0246527549e+000	 1.0022655902e+000	-1.3298431468e+000
 1.0135209884e+000	 1.0135209884e+000	-1.3750847426e+000
 1.0022655902e+000	 1.0246527549e+000	-1.4177728415e+000
 9.9088863099e-001	 1.0356588645e+000	-1.4587801406e+000
 9.7939222523e-001	 1.0465373382e+000	-1.4989810221e+000
 9.6777853012e-001	 1.0572862450e+000	-1.5392441822e+000
 9.5604974416e-001	 1.0679037023e+000	-1.5804253001e+000
 1.0728709389e+000	 9.6049670432e-001	-1.1312857675e+000
 1.0622040956e+000	 9.7228004544e-001	-1.1948059126e+000
 1.0514051915e+000	 9.8394776037e-001	-1.2523111120e+000
 1.0404761177e+000	 9.9549764040e-001	-1.3046221387e+000
 1.0294188144e+000	 1.0069275183e+000	-1.3525905253e+000
 1.0182352697e+000	 1.0182352697e+000	-1.3970913820e+000
 1.0069275183e+000	 1.0294188144e+000	-1.4390160128e+000
 9.9549764040e-001	 1.0404761177e+000	-1.4792643892e+000
 9.8394776037e-001	 1.0514051915e+000	-1.5187375427e+000
 9.7228004544e-001	 1.0622040956e+000	-1.5583299356e+000
 9.6049670432e-001	 1.0728709389e+000	-1.5989218744e+000
 1.0778381754e+000	 9.6494366449e-001	-1.1553680651e+000
 1.0671219462e+000	 9.7678156076e-001	-1.2185249856e+000
 1.0562730447e+000	 9.8850329552e-001	-1.2755299997e+000
 1.0452933709e+000	 1.0001066498e+000	-1.3272317927e+000
 1.0341848739e+000	 1.0115894464e+000	-1.3745102042e+000
 1.0229495510e+000	 1.0229495510e+000	-1.4182687946e+000
 1.0115894464e+000	 1.0341848739e+000	-1.4594272047e+000
 1.0001066498e+000	 1.0452933709e+000	-1.4989133680e+000
 9.8850329552e-001	 1.0562730447e+000	-1.5376556388e+000
 9.7678156076e-001	 1.0671219462e+000	-1.5765748990e+000
 9.6494366449e-001	 1.0778381754e+000	-1.6165767082e+000
 1.0828054119e+000	 9.6939062465e-001	-1.1785840091e+000
 1.0720397968e+000	 9.8128307608e-001	-1.2413875272e+000
 1.0611408980e+000	 9.9305883066e-001	-1.2978980810e+000
 1.0501106241e+000	 1.0047156592e+000	-1.3489929459e+000
 1.0389509334e+000	 1.0162513745e+000	-1.3955809605e+000
 1.0276638324e+000	 1.0276638324e+000	-1.4385948362e+000
 1.0162513745e+000	 1.0389509334e+000	-1.4789832521e+000
 1.0047156592e+000	 1.0501106241e+000	-1.5177027993e+000
 9.9305883066e-001	 1.0611408980e+000	-1.5557098374e+000
 9.8128307608e-001	 1.0720397968e+000	-1.5939523306e+000
 9.6939062465e-001	 1.0828054119e+000	-1.6333617262e+000
 1.0877726485e+000	 9.7383758481e-001	-1.2009138311e+000
 1.0769576474e+000	 9.8578459140e-001	-1.2633733008e+000
 1.0660087512e+000	 9.9761436581e-001	-1.3193945236e+000
 1.0549278774e+000	 1.0093246686e+000	-1.3698840483e+000
 1.0437169930e+000	 1.0209133025e+000	-1.4157804119e+000
 1.0323781137e+000	 1.0323781137e+000	-1.4580461844e+000
 1.0209133025e+000	 1.0437169930e+000	-1.4976597931e+000
 1.0093246686e+000	 1.0549278774e+000	-1.5356071907e+000
 9.9761436581e-001	 1.0660087512e+000	-1.5728734342e+000
 9.8578459140e-001	 1.0769576474e+000	-1.6104342415e+000
 9.7383758481e-001	 1.0877726485e+000	-1.6492475924e+000
 1.0927398850e+000	 9.7828454497e-001	-1.2223367228e+000
 1.0818754980e+000	 9.9028610672e-001	-1.2844610132e+000
 1.0708766045e+000	 1.0021699009e+000	-1.3399974203e+000
 1.0597451306e+000	 1.0139336780e+000	-1.3898824561e+000
 1.0484830525e+000	 1.0255752306e+000	-1.4350850620e+000
 1.0370923950e+000	 1.0370923950e+000	-1.4765983825e+000
 1.0255752306e+000	 1.0484830525e+000	-1.5154313109e+000
 1.0139336780e+000	 1.0597451306e+000	-1.5525998754e+000
 1.0021699009e+000	 1.0708766045e+000	-1.5891185314e+000
 9.9028610672e-001	 1.0818754980e+000	-1.6259914322e+000
 9.7828454497e-001	 1.0927398850e+000	-1.6642037448e+000
 9.3381494334e-001	 1.0430675196e+000	-1.4762063167e+000
 9.2224696223e-001	 1.0533093916e+000	-1.5167545105e+000
 9.1057094609e-001	 1.0634193023e+000	-1.5499428535e+000
 8.9878915698e-001	 1.0733955625e+000	-1.5770892073e+000
 8.8690389170e-001	 1.0832365347e+000	-1.5994705945e+000
 8.7491748032e-001	 1.0929406339e+000	-1.6183169086e+000
 8.6283228470e-001	 1.1025063287e+000	-1.6348049783e+000
 8.5065069693e-001	 1.1119321415e+000	-1.6500530290e+000
 8.3837513777e-001	 1.1212166501e+000	-1.6651155858e+000
 8.2600805515e-001	 1.1303584875e+000	-1.6809788544e+000
 8.1355192249e-001	 1.1393563430e+000	-1.6985566154e+000
 9.3826190350e-001	 1.0480347562e+000	-1.4985370288e+000
 9.2663883401e-001	 1.0583254014e+000	-1.5385163630e+000
 9.1490721502e-001	 1.0684834569e+000	-1.5711143034e+000
 9.0306931934e-001	 1.0785072255e+000	-1.5976411484e+000
 8.9112745473e-001	 1.0883950618e+000	-1.6193658879e+000
 8.7908396236e-001	 1.0981453734e+000	-1.6375097538e+000
 8.6694121531e-001	 1.1077566213e+000	-1.6532401334e+000
 8.5470161707e-001	 1.1172273212e+000	-1.6676648905e+000
 8.4236759995e-001	 1.1265560440e+000	-1.6818271373e+000
 8.2994162351e-001	 1.1357414161e+000	-1.6967004971e+000
 8.1742617297e-001	 1.1447821206e+000	-1.7131848936e+000
 9.4270886367e-001	 1.0530019927e+000	-1.5201462456e+000
 9.3103070580e-001	 1.0633414112e+000	-1.5595703299e+000
 9.1924348395e-001	 1.0735476116e+000	-1.5916042313e+000
 9.0734948171e-001	 1.0836188885e+000	-1.6175488878e+000
 8.9535101777e-001	 1.0935535889e+000	-1.6386633762e+000
 8.8325044439e-001	 1.1033501128e+000	-1.6561583020e+000
 8.7105014591e-001	 1.1130069139e+000	-1.6711895612e+000
 8.5875253721e-001	 1.1225225009e+000	-1.6848525191e+000
 8.4636006213e-001	 1.1318954378e+000	-1.6981766520e+000
 8.3387519187e-001	 1.1411243447e+000	-1.7121206912e+000
 8.2130042345e-001	 1.1502078983e+000	-1.7275683075e+000
 9.4715582383e-001	 1.0579692293e+000	-1.5410127189e+000
 9.3542257759e-001	 1.0683574210e+000	-1.5798935766e+000
 9.2357975288e-001	 1.0786117662e+000	-1.6113877294e+000
 9.1162964408e-001	 1.0887305515e+000	-1.6367849969e+000
 8.9957458080e-001	 1.0987121161e+000	-1.6573327011e+000
 8.8741692642e-001	 1.1085548522e+000	-1.6742288947e+000
 8.7515907652e-001	 1.1182572066e+000	-1.6886159704e+000
 8.6280345736e-001	 1.1278176807e+000	-1.7015746966e+000
 8.5035252430e-001	 1.1372348317e+000	-1.7141187280e+000
 8.3780876023e-001	 1.1465072733e+000	-1.7271896309e+000
 8.2517467393e-001	 1.1556336760e+000	-1.7416524634e+000
 9.5160278400e-001	 1.0629364658e+000	-1.5611137651e+000
 9.3981444937e-001	 1.0733734308e+000	-1.5994618360e+000
 9.2791602181e-001	 1.0836759208e+000	-1.6304384723e+000
 9.1590980644e-001	 1.0938422145e+000	-1.6553206551e+000
 9.0379814384e-001	 1.1038706432e+000	-1.6753421481e+000
 8.9158340845e-001	 1.1137595917e+000	-1.6916865639e+000
 8.7926800712e-001	 1.1235074992e+000	-1.7054808177e+000
 8.6685437750e-001	 1.1331128604e+000	-1.7177890202e+000
 8.5434498648e-001	 1.1425742255e+000	-1.7296068560e+000
 8.4174232860e-001	 1.1518902019e+000	-1.7418564900e+000
 8.2904892441e-001	 1.1610594536e+000	-1.7553820431e+000
 9.5604974416e-001	 1.0679037023e+000	-1.5804253001e+000
 9.4420632116e-001	 1.0783894406e+000	-1.6182494418e+000
 9.3225229074e-001	 1.0887400755e+000	-1.6487287470e+000
 9.2018996881e-001	 1.0989538776e+000	-1.6731256765e+000
 9.0802170687e-001	 1.1090291703e+000	-1.6926586712e+000
 8.9574989049e-001	 1.1189643311e+000	-1.7084950534e+000
 8.8337693773e-001	 1.1287577918e+000	-1.7217443252e+000
 8.7090529765e-001	 1.1384080401e+000	-1.7334519163e+000
 8.5833744866e-001	 1.1479136194e+000	-1.7445934293e+000
 8.4567589696e-001	 1.1572731305e+000	-1.7560694278e+000
 8.3292317489e-001	 1.1664852313e+000	-1.7687008065e+000
 9.6049670432e-001	 1.0728709389e+000	-1.5989218744e+000
 9.4859819294e-001	 1.0834054504e+000	-1.6362293610e+000
 9.3658855966e-001	 1.0938042301e+000	-1.6662294834e+000
 9.2447013118e-001	 1.1040655406e+000	-1.6901685383e+000
 9.1224526991e-001	 1.1141876974e+000	-1.7092479173e+000
 8.9991637252e-001	 1.1241690705e+000	-1.7246168407e+000
 8.8748586833e-001	 1.1340080845e+000	-1.7373654992e+000
 8.7495621779e-001	 1.1437032198e+000	-1.7485186553e+000
 8.6232991084e-001	 1.1532530133e+000	-1.7590297552e+000
 8.4960946533e-001	 1.1626560590e+000	-1.7697755965e+000
 8.3679742537e-001	 1.1719110090e+000	-1.7815515941e+000
 9.6494366449e-001	 1.0778381754e+000	-1.6165767082e+000
 9.5299006473e-001	 1.0884214602e+000	-1.6533732272e+000
 9.4092482859e-001	 1.0988683847e+000	-1.6829102850e+000
 9.2875029354e-001	 1.1091772036e+000	-1.7064164086e+000
 9.1646883294e-001	 1.1193462246e+000	-1.7250742514e+000
 9.0408285455e-001	 1.1293738099e+000	-1.7400131583e+000
 8.9159479894e-001	 1.1392583771e+000	-1.7523021478e+000
 8.7900713793e-001	 1.1489983995e+000	-1.7629433665e+000
 8.6632237302e-001	 1.1585924071e+000	-1.7728660654e+000
 8.5354303369e-001	 1.1680389876e+000	-1.7829211481e+000
 8.4067167585e-001	 1.1773367866e+000	-1.7938763306e+000
 9.6939062465e-001	 1.0828054119e+000	-1.6333617262e+000
 9.5738193651e-001	 1.0934374700e+000	-1.6696513729e+000
 9.4526109752e-001	 1.1039325394e+000	-1.6987394587e+000
 9.3303045591e-001	 1.1142888666e+000	-1.7218351733e+000
 9.2069239598e-001	 1.1245047517e+000	-1.7401007813e+000
 9.0824933658e-001	 1.1345785494e+000	-1.7546440159e+000
 8.9570372954e-001	 1.1445086698e+000	-1.7665109005e+000
 8.8305805808e-001	 1.1542935792e+000	-1.7766790532e+000
 8.7031483519e-001	 1.1639318010e+000	-1.7860515284e+000
 8.5747660205e-001	 1.1734219162e+000	-1.7954512424e+000
 8.4454592633e-001	 1.1827625643e+000	-1.8056160287e+000
 9.7383758481e-001	 1.0877726485e+000	-1.6492475924e+000
 9.6177380830e-001	 1.0984534798e+000	-1.6850328625e+000
 9.4959736645e-001	 1.1089966940e+000	-1.7136840457e+000
 9.3731061827e-001	 1.1194005296e+000	-1.7363894649e+000
 9.2491595901e-001	 1.1296632788e+000	-1.7542893827e+000
 9.1241581861e-001	 1.1397832888e+000	-1.7684682223e+000
 8.9981266015e-001	 1.1497589624e+000	-1.7799472258e+000
 8.8710897822e-001	 1.1595887589e+000	-1.7896776080e+000
 8.7430729737e-001	 1.1692711948e+000	-1.7985342605e+000
 8.6141017042e-001	 1.1788048448e+000	-1.8073100552e+000
 8.4842017681e-001	 1.1881883420e+000	-1.8167107929e+000
 9.7828454497e-001	 1.0927398850e+000	-1.6642037448e+000
 9.6616568008e-001	 1.1034694896e+000	-1.6994855246e+000
 9.5393363537e-001	 1.1140608486e+000	-1.7277098517e+000
 9.4159078064e-001	 1.1245121926e+000	-1.7500426897e+000
 9.2913952205e-001	 1.1348218059e+000	-1.7676007242e+000
 9.1658230064e-001	 1.1449880282e+000	-1.7814434074e+000
 9.0392159075e-001	 1.1550092550e+000	-1.7925654511e+000
 8.9115989836e-001	 1.1648839386e+000	-1.8018898285e+000
 8.7829975955e-001	 1.1746105887e+000	-1.8102613385e+000
 8.6534373878e-001	 1.1841877734e+000	-1.8184407862e+000
 8.5229442729e-001	 1.1936141197e+000	-1.8270998249e+000
 8.1355192249e-001	 1.1393563430e+000	-1.6985566154e+000
 8.0100923691e-001	 1.1482089623e+000	-1.7164191494e+000
 7.8838251678e-001	 1.1569151472e+000	-1.7324787537e+000
 7.7567430092e-001	 1.1654737568e+000	-1.7465419373e+000
 7.6288714729e-001	 1.1738837082e+000	-1.7583301719e+000
 7.5002363130e-001	 1.1821439770e+000	-1.7674804214e+000
 7.3708634418e-001	 1.1902535976e+000	-1.7735462959e+000
 7.2407789135e-001	 1.1982116633e+000	-1.7759998323e+000
 7.1100089074e-001	 1.2060173266e+000	-1.7742338963e+000
 6.9785797114e-001	 1.2136697993e+000	-1.7675652007e+000
 6.8465177058e-001	 1.2211683524e+000	-1.7552379247e+000
 8.1742617297e-001	 1.1447821206e+000	-1.7131848936e+000
 8.0482375733e-001	 1.1536768974e+000	-1.7297945467e+000
 7.9213690695e-001	 1.1624245424e+000	-1.7444434425e+000
 7.7936817276e-001	 1.1710239093e+000	-1.7570072409e+000
 7.6652012487e-001	 1.1794739101e+000	-1.7672729544e+000
 7.5359535098e-001	 1.1877735155e+000	-1.7749393200e+000
 7.4059645465e-001	 1.1959217553e+000	-1.7796178202e+000
 7.2752605371e-001	 1.2039177184e+000	-1.7808343516e+000
 7.1438677855e-001	 1.2117605534e+000	-1.7780315401e+000
 7.0118127049e-001	 1.2194494682e+000	-1.7705716941e+000
 6.8791218012e-001	 1.2269837306e+000	-1.7577403838e+000
 8.2130042345e-001	 1.1502078983e+000	-1.7275683075e+000
 8.0863827775e-001	 1.1591448325e+000	-1.7429690344e+000
 7.9589129713e-001	 1.1679339376e+000	-1.7562326301e+000
 7.8306204459e-001	 1.1765740619e+000	-1.7673055554e+000
 7.7015310246e-001	 1.1850641120e+000	-1.7760420664e+000
 7.5716707066e-001	 1.1934030540e+000	-1.7822044239e+000
 7.4410656513e-001	 1.2015899129e+000	-1.7854637723e+000
 7.3097421607e-001	 1.2096237735e+000	-1.7854016908e+000
 7.1777266637e-001	 1.2175037802e+000	-1.7815124143e+000
 7.0450456985e-001	 1.2252291372e+000	-1.7732057168e+000
 6.9117258966e-001	 1.2327991087e+000	-1.7598104436e+000
 8.2517467393e-001	 1.1556336760e+000	-1.7416524634e+000
 8.1245279817e-001	 1.1646127676e+000	-1.7558843312e+000
 7.9964568730e-001	 1.1734433328e+000	-1.7677856926e+000
 7.8675591643e-001	 1.1821242144e+000	-1.7773754301e+000
 7.7378608004e-001	 1.1906543139e+000	-1.7845767168e+000
 7.6073879034e-001	 1.1990325925e+000	-1.7892170538e+000
 7.4761667560e-001	 1.2072580706e+000	-1.7910290013e+000
 7.3442237843e-001	 1.2153298286e+000	-1.7896516053e+000
 7.2115855418e-001	 1.2232470070e+000	-1.7846325180e+000
 7.0782786920e-001	 1.2310088062e+000	-1.7754308046e+000
 6.9443299921e-001	 1.2386144869e+000	-1.7614204238e+000
 8.2904892441e-001	 1.1610594536e+000	-1.7553820431e+000
 8.1626731859e-001	 1.1700807027e+000	-1.7684813212e+000
 8.0340007748e-001	 1.1789527281e+000	-1.7790412383e+000
 7.9044978826e-001	 1.1876743669e+000	-1.7871546929e+000
 7.7741905762e-001	 1.1962445158e+000	-1.7928154178e+000
 7.6431051002e-001	 1.2046621310e+000	-1.7959178388e+000
 7.5112678607e-001	 1.2129262282e+000	-1.7962576510e+000
 7.3787054080e-001	 1.2210358837e+000	-1.7935331135e+000
 7.2454444200e-001	 1.2289902338e+000	-1.7873470636e+000
 7.1115116856e-001	 1.2367884751e+000	-1.7772096405e+000
 6.9769340875e-001	 1.2444298650e+000	-1.7625417092e+000
 8.3292317489e-001	 1.1664852313e+000	-1.7687008065e+000
 8.2008183901e-001	 1.1755486379e+000	-1.7807000518e+000
 8.0715446765e-001	 1.1844621233e+000	-1.7899371030e+000
 7.9414366010e-001	 1.1932245194e+000	-1.7965804419e+000
 7.8105203521e-001	 1.2018347177e+000	-1.8006959749e+000
 7.6788222971e-001	 1.2102916695e+000	-1.8022467054e+000
 7.5463689654e-001	 1.2185943859e+000	-1.8010931477e+000
 7.4131870316e-001	 1.2267419389e+000	-1.7969944836e+000
 7.2793032982e-001	 1.2347334606e+000	-1.7896104636e+000
 7.1447446791e-001	 1.2425681441e+000	-1.7785040420e+000
 7.0095381829e-001	 1.2502452432e+000	-1.7631447382e+000
 8.3679742537e-001	 1.1719110090e+000	-1.7815515941e+000
 8.2389635943e-001	 1.1810165730e+000	-1.7924797331e+000
 8.1090885783e-001	 1.1899715185e+000	-1.8004103457e+000
 7.9783753194e-001	 1.1987746719e+000	-1.8055890389e+000
 7.8468501279e-001	 1.2074249197e+000	-1.8081554781e+000
 7.7145394939e-001	 1.2159212079e+000	-1.8081428664e+000
 7.5814700702e-001	 1.2242625436e+000	-1.8054781881e+000
 7.4476686552e-001	 1.2324479940e+000	-1.7999832213e+000
 7.3131621763e-001	 1.2404766874e+000	-1.7913763189e+000
 7.1779776727e-001	 1.2483478131e+000	-1.7792749502e+000
 7.0421422783e-001	 1.2560606213e+000	-1.7631989926e+000
 8.4067167585e-001	 1.1773367866e+000	-1.7938763306e+000
 8.2771087985e-001	 1.1864845081e+000	-1.8037587371e+000
 8.1466324800e-001	 1.1954809137e+000	-1.8103972448e+000
 8.0153140377e-001	 1.2043248245e+000	-1.8141161028e+000
 7.8831799037e-001	 1.2130151216e+000	-1.8151302936e+000
 7.7502566907e-001	 1.2215507464e+000	-1.8135448112e+000
 7.6165711749e-001	 1.2299307012e+000	-1.8093547287e+000
 7.4821502788e-001	 1.2381540491e+000	-1.8024460584e+000
 7.3470210545e-001	 1.2462199142e+000	-1.7925974071e+000
 7.2112106663e-001	 1.2541274820e+000	-1.7794824177e+000
 7.0747463737e-001	 1.2618759994e+000	-1.7626729869e+000
 8.4454592633e-001	 1.1827625643e+000	-1.8056160287e+000
 8.3152540027e-001	 1.1919524432e+000	-1.8144745981e+000
 8.1841763818e-001	 1.2009903089e+000	-1.8198332954e+000
 8.0522527561e-001	 1.2098749770e+000	-1.8220965042e+000
 7.9195096796e-001	 1.2186053235e+000	-1.8215560553e+000
 7.7859738876e-001	 1.2271802849e+000	-1.8183902964e+000
 7.6516722796e-001	 1.2355988589e+000	-1.8126639752e+000
 7.5166319024e-001	 1.2438601042e+000	-1.8043289418e+000
 7.3808799327e-001	 1.2519631410e+000	-1.7932256712e+000
 7.2444436598e-001	 1.2599071510e+000	-1.7790855988e+000
 7.1073504692e-001	 1.2676913776e+000	-1.7615342592e+000
 8.4842017681e-001	 1.1881883420e+000	-1.8167107929e+000
 8.3533992069e-001	 1.1974203783e+000	-1.8245640129e+000
 8.2217202835e-001	 1.2064997041e+000	-1.8286532063e+000
 8.0891914744e-001	 1.2154251295e+000	-1.8294643600e+000
 7.9558394554e-001	 1.2241955254e+000	-1.8273676586e+000
 7.8216910844e-001	 1.2328098234e+000	-1.8226163371e+000
 7.6867733844e-001	 1.2412670166e+000	-1.8153463729e+000
 7.5511135261e-001	 1.2495661593e+000	-1.8055770235e+000
 7.4147388108e-001	 1.2577063678e+000	-1.7932122095e+000
 7.2776766534e-001	 1.2656868199e+000	-1.7780427392e+000
 7.1399545646e-001	 1.2735067557e+000	-1.7597493614e+000
 8.5229442729e-001	 1.1936141197e+000	-1.8270998249e+000
 8.3915444111e-001	 1.2028883134e+000	-1.8339628425e+000
 8.2592641853e-001	 1.2120090993e+000	-1.8367908984e+000
 8.1261301928e-001	 1.2209752820e+000	-1.8361530293e+000
 7.9921692312e-001	 1.2297857273e+000	-1.8324992534e+000
 7.8574082812e-001	 1.2384393619e+000	-1.8261591989e+000
 7.7218744891e-001	 1.2469351742e+000	-1.8173415977e+000
 7.5855951497e-001	 1.2552722144e+000	-1.8061346506e+000
 7.4485976890e-001	 1.2634495946e+000	-1.7925072662e+000
 7.3109096470e-001	 1.2714664889e+000	-1.7763111668e+000
 7.1725586600e-001	 1.2793221339e+000	-1.7572838513e+000
 6.8465177058e-001	 1.2211683524e+000	-1.7552379247e+000
 6.7138692914e-001	 1.2285112268e+000	-1.7395490741e+000
 6.5806412163e-001	 1.2356989496e+000	-1.7249159779e+000
 6.4468600345e-001	 1.2427309712e+000	-1.7185179373e+000
 6.3125523267e-001	 1.2496068010e+000	-1.7184799201e+000
 6.1777446844e-001	 1.2563260072e+000	-1.7221824348e+000
 6.0424636941e-001	 1.2628882170e+000	-1.7270941302e+000
 5.9067359215e-001	 1.2692931155e+000	-1.7307851689e+000
 5.7705878960e-001	 1.2755404461e+000	-1.7309392428e+000
 5.6340460958e-001	 1.2816300098e+000	-1.7253641947e+000
 5.4971369321e-001	 1.2875616648e+000	-1.7120012160e+000
 6.8791218012e-001	 1.2269837306e+000	-1.7577403838e+000
 6.7458416961e-001	 1.2343615728e+000	-1.7419198680e+000
 6.6119791699e-001	 1.2415835245e+000	-1.7259303542e+000
 6.4775609030e-001	 1.2486490336e+000	-1.7172551189e+000
 6.3426136027e-001	 1.2555576071e+000	-1.7154102431e+000
 6.2071639872e-001	 1.2623088112e+000	-1.7176783995e+000
 6.0712387694e-001	 1.2689022711e+000	-1.7214359503e+000
 5.9348646418e-001	 1.2753376706e+000	-1.7241667433e+000
 5.7980682600e-001	 1.2816147519e+000	-1.7234745061e+000
 5.6608762282e-001	 1.2877333150e+000	-1.7170937955e+000
 5.5233150835e-001	 1.2936932174e+000	-1.7028994753e+000
 6.9117258966e-001	 1.2327991087e+000	-1.7598104436e+000
 6.7778141008e-001	 1.2402119187e+000	-1.7438062390e+000
 6.6433171235e-001	 1.2474680995e+000	-1.7271351220e+000
 6.5082617715e-001	 1.2545670960e+000	-1.7161149508e+000
 6.3726748787e-001	 1.2615084132e+000	-1.7124075127e+000
 6.2365832899e-001	 1.2682916151e+000	-1.7131966428e+000
 6.1000138448e-001	 1.2749163252e+000	-1.7157654374e+000
 5.9629933621e-001	 1.2813822258e+000	-1.7175104857e+000
 5.8255486239e-001	 1.2876890577e+000	-1.7159546497e+000
 5.6877063606e-001	 1.2938366202e+000	-1.7087583506e+000
 5.5494932349e-001	 1.2998247700e+000	-1.6937293337e+000
 6.9443299921e-001	 1.2386144869e+000	-1.7614204238e+000
 6.8097865055e-001	 1.2460622647e+000	-1.7451893617e+000
 6.6746550771e-001	 1.2533526744e+000	-1.7284973934e+000
 6.5389626400e-001	 1.2604851585e+000	-1.7150967878e+000
 6.4027361547e-001	 1.2674592193e+000	-1.7094805078e+000
 6.2660025927e-001	 1.2742744190e+000	-1.7087537035e+000
 6.1287889201e-001	 1.2809303793e+000	-1.7101051800e+000
 5.9911220824e-001	 1.2874267809e+000	-1.7108432814e+000
 5.8530289879e-001	 1.2937633636e+000	-1.7084090656e+000
 5.7145364930e-001	 1.2999399254e+000	-1.7003879364e+000
 5.5756713863e-001	 1.3059563226e+000	-1.6845197017e+000
 6.9769340875e-001	 1.2444298650e+000	-1.7625417092e+000
 6.8417589103e-001	 1.2519126106e+000	-1.7460493998e+000
 6.7059930307e-001	 1.2592372493e+000	-1.7295200634e+000
 6.5696635085e-001	 1.2664032209e+000	-1.7141972706e+000
 6.4327974307e-001	 1.2734100254e+000	-1.7066355616e+000
 6.2954218954e-001	 1.2802572229e+000	-1.7043639606e+000
 6.1575639955e-001	 1.2869444334e+000	-1.7044759088e+000
 6.0192508027e-001	 1.2934713360e+000	-1.7041904754e+000
 5.8805093519e-001	 1.2998376694e+000	-1.7008659381e+000
 5.7413666254e-001	 1.3060432306e+000	-1.6920117679e+000
 5.6018495377e-001	 1.3120878751e+000	-1.6752989895e+000
 7.0095381829e-001	 1.2502452432e+000	-1.7631447382e+000
 6.8737313150e-001	 1.2577629566e+000	-1.7463654958e+000
 6.7373309843e-001	 1.2651218242e+000	-1.7299886438e+000
 6.6003643770e-001	 1.2723212833e+000	-1.7134102376e+000
 6.4628587067e-001	 1.2793608315e+000	-1.7038764775e+000
 6.3248411982e-001	 1.2862400269e+000	-1.7000395524e+000
 6.1863390708e-001	 1.2929584875e+000	-1.6988964178e+000
 6.0473795230e-001	 1.2995158912e+000	-1.6975757956e+000
 5.9079897158e-001	 1.3059119752e+000	-1.6933521680e+000
 5.7681967578e-001	 1.3121465358e+000	-1.6836581250e+000
 5.6280276891e-001	 1.3182194277e+000	-1.6660950328e+000
 7.0421422783e-001	 1.2560606213e+000	-1.7631989926e+000
 6.9057037197e-001	 1.2636133026e+000	-1.7461157613e+000
 6.7686689379e-001	 1.2710063992e+000	-1.7298888726e+000
 6.6310652455e-001	 1.2782393457e+000	-1.7127266371e+000
 6.4929199827e-001	 1.2853116376e+000	-1.7012044455e+000
 6.3542605009e-001	 1.2922228308e+000	-1.6957902953e+000
 6.2151141462e-001	 1.2989725416e+000	-1.6933834868e+000
 6.0755082433e-001	 1.3055604463e+000	-1.6910212772e+000
 5.9354700798e-001	 1.3119862810e+000	-1.6858932989e+000
 5.7950268902e-001	 1.3182498410e+000	-1.6753542781e+000
 5.6542058405e-001	 1.3243509803e+000	-1.6569350194e+000
 7.0747463737e-001	 1.2618759994e+000	-1.7626729869e+000
 6.9376761244e-001	 1.2694636485e+000	-1.7452772677e+000
 6.8000068915e-001	 1.2768909741e+000	-1.7292054001e+000
 6.6617661140e-001	 1.2841574081e+000	-1.7121344405e+000
 6.5229812587e-001	 1.2912624437e+000	-1.6986179584e+000
 6.3836798037e-001	 1.2982056347e+000	-1.6916236044e+000
 6.2438892215e-001	 1.3049865957e+000	-1.6879518036e+000
 6.1036369636e-001	 1.3116050015e+000	-1.6845471865e+000
 5.9629504437e-001	 1.3180605869e+000	-1.6785134423e+000
 5.8218570225e-001	 1.3243531462e+000	-1.6671264156e+000
 5.6803839919e-001	 1.3304825329e+000	-1.6478454159e+000
 7.1073504692e-001	 1.2676913776e+000	-1.7615342592e+000
 6.9696485291e-001	 1.2753139945e+000	-1.7438260376e+000
 6.8313448451e-001	 1.2827755490e+000	-1.7279217814e+000
 6.6924669825e-001	 1.2900754705e+000	-1.7113948580e+000
 6.5530425347e-001	 1.2972132498e+000	-1.6961127294e+000
 6.4130991064e-001	 1.3041884386e+000	-1.6875444131e+000
 6.2726642969e-001	 1.3110006498e+000	-1.6826138866e+000
 6.1317656839e-001	 1.3176495566e+000	-1.6781719468e+000
 5.9904308077e-001	 1.3241348927e+000	-1.6712352047e+000
 5.8486871549e-001	 1.3304564514e+000	-1.6589995707e+000
 5.7065621433e-001	 1.3366140855e+000	-1.6387689458e+000
 7.1399545646e-001	 1.2735067557e+000	-1.7597493614e+000
 7.0016209339e-001	 1.2811643405e+000	-1.7417370363e+000
 6.8626827987e-001	 1.2886601239e+000	-1.7260204679e+000
 6.7231678510e-001	 1.2959935330e+000	-1.7100783261e+000
 6.5831038107e-001	 1.3031640559e+000	-1.6936816093e+000
 6.4425184092e-001	 1.3101712425e+000	-1.6835550941e+000
 6.3014393722e-001	 1.3170147039e+000	-1.6773800089e+000
 6.1598944042e-001	 1.3236941118e+000	-1.6719120632e+000
 6.0179111716e-001	 1.3302091985e+000	-1.6640796143e+000
 5.8755172873e-001	 1.3365597566e+000	-1.6508684647e+000
 5.7327402947e-001	 1.3427456381e+000	-1.6292291294e+000
 7.1725586600e-001	 1.2793221339e+000	-1.7572838513e+000
 7.0335933386e-001	 1.2870146864e+000	-1.7389841642e+000
 6.8940207522e-001	 1.2945446989e+000	-1.7234828000e+000
 6.7538687194e-001	 1.3019115954e+000	-1.7081633408e+000
 6.6131650867e-001	 1.3091148620e+000	-1.6913145045e+000
 6.4719377119e-001	 1.3161540465e+000	-1.6796553807e+000
 6.3302144475e-001	 1.3230287580e+000	-1.6722581212e+000
 6.1880231245e-001	 1.3297386669e+000	-1.6657820485e+000
 6.0453915355e-001	 1.3362835043e+000	-1.6569185650e+000
 5.9023474197e-001	 1.3426630618e+000	-1.6420036561e+000
 5.7589184460e-001	 1.3488771907e+000	-1.6190045137e+000
 5.4971369321e-001	 1.2875616648e+000	-1.7120012160e+000
 5.3598661222e-001	 1.2933361804e+000	-1.6954318658e+000
 5.2222804288e-001	 1.2989526269e+000	-1.6810023048e+000
 5.0844059935e-001	 1.3044110321e+000	-1.6680088171e+000
 4.9462688332e-001	 1.3097114787e+000	-1.6558971983e+000
 4.8078948260e-001	 1.3148541040e+000	-1.6442627834e+000
 4.6693096984e-001	 1.3198390990e+000	-1.6328491504e+000
 4.5305390111e-001	 1.3246667076e+000	-1.6215455436e+000
 4.3916081473e-001	 1.3293372259e+000	-1.6103830697e+000
 4.2525422994e-001	 1.3338510017e+000	-1.5995407197e+000
 4.1133664571e-001	 1.3382084331e+000	-1.5902570104e+000
 5.5233150835e-001	 1.2936932174e+000	-1.7028994753e+000
 5.3853905704e-001	 1.2994952321e+000	-1.6854678336e+000
 5.2471496742e-001	 1.3051384249e+000	-1.6701445244e+000
 5.1086186612e-001	 1.3106228238e+000	-1.6561747033e+000
 4.9698236720e-001	 1.3159485119e+000	-1.6429572431e+000
 4.8307907081e-001	 1.3211156271e+000	-1.6300448509e+000
 4.6915456182e-001	 1.3261243613e+000	-1.6171428176e+000
 4.5521140851e-001	 1.3309749597e+000	-1.6041064473e+000
 4.4125216127e-001	 1.3356677197e+000	-1.5911125980e+000
 4.2727935133e-001	 1.3402029907e+000	-1.5794693662e+000
 4.1329548958e-001	 1.3445811728e+000	-1.5699570214e+000
 5.5494932349e-001	 1.2998247700e+000	-1.6937293337e+000
 5.4109150186e-001	 1.3056542837e+000	-1.6754199562e+000
 5.2720189197e-001	 1.3113242229e+000	-1.6591548617e+000
 5.1328313289e-001	 1.3168346155e+000	-1.6441248293e+000
 4.9933785108e-001	 1.3221855450e+000	-1.6296789140e+000
 4.8536865901e-001	 1.3273771502e+000	-1.6153246541e+000
 4.7137815380e-001	 1.3324096237e+000	-1.6007268685e+000
 4.5736891591e-001	 1.3372832118e+000	-1.5861221908e+000
 4.4334350781e-001	 1.3419982135e+000	-1.5725403709e+000
 4.2930447273e-001	 1.3465549797e+000	-1.5605285039e+000
 4.1525433345e-001	 1.3509539125e+000	-1.5506795906e+000
 5.5756713863e-001	 1.3059563226e+000	-1.6845197017e+000
 5.4364394668e-001	 1.3118133354e+000	-1.6653154778e+000
 5.2968881652e-001	 1.3175100209e+000	-1.6480597732e+000
 5.1570439966e-001	 1.3230464071e+000	-1.6318857657e+000
 5.0169333496e-001	 1.3284225782e+000	-1.6160898223e+000
 4.8765824721e-001	 1.3336386733e+000	-1.6001337512e+000
 4.7360174579e-001	 1.3386948860e+000	-1.5842524162e+000
 4.5952642331e-001	 1.3435914639e+000	-1.5690807592e+000
 4.4543485434e-001	 1.3483287073e+000	-1.5550318741e+000
 4.3132959412e-001	 1.3529069687e+000	-1.5425921906e+000
 4.1721317732e-001	 1.3573266523e+000	-1.5323119588e+000
 5.6018495377e-001	 1.3120878751e+000	-1.6752989895e+000
 5.4619639149e-001	 1.3179723871e+000	-1.6551814907e+000
 5.3217574106e-001	 1.3236958188e+000	-1.6368858732e+000
 5.1812566643e-001	 1.3292581988e+000	-1.6194845105e+000
 5.0404881884e-001	 1.3346596114e+000	-1.6022403882e+000
 4.8994783541e-001	 1.3399001964e+000	-1.5852023083e+000
 4.7582533777e-001	 1.3449801484e+000	-1.5686881501e+000
 4.6168393071e-001	 1.3498997160e+000	-1.5529815592e+000
 4.4752620088e-001	 1.3546592010e+000	-1.5384499183e+000
 4.3335471551e-001	 1.3592589578e+000	-1.5255345753e+000
 4.1917202119e-001	 1.3636993920e+000	-1.5147412964e+000
 5.6280276891e-001	 1.3182194277e+000	-1.6660950328e+000
 5.4874883631e-001	 1.3241314387e+000	-1.6450448614e+000
 5.3466266561e-001	 1.3298816168e+000	-1.6256598609e+000
 5.2054693320e-001	 1.3354699905e+000	-1.6069813075e+000
 5.0640430272e-001	 1.3408966445e+000	-1.5887364544e+000
 4.9223742361e-001	 1.3461617194e+000	-1.5709948708e+000
 4.7804892975e-001	 1.3512654107e+000	-1.5538970435e+000
 4.6384143811e-001	 1.3562079681e+000	-1.5376780504e+000
 4.4961754742e-001	 1.3609896948e+000	-1.5226575354e+000
 4.3537983690e-001	 1.3656109468e+000	-1.5092298954e+000
 4.2113086506e-001	 1.3700721317e+000	-1.4978547028e+000
 5.6542058405e-001	 1.3243509803e+000	-1.6569350194e+000
 5.5130128113e-001	 1.3302904904e+000	-1.6349321573e+000
 5.3714959015e-001	 1.3360674148e+000	-1.6144240970e+000
 5.2296819997e-001	 1.3416817822e+000	-1.5947363373e+000
 5.0875978660e-001	 1.3471336777e+000	-1.5757176974e+000
 4.9452701181e-001	 1.3524232425e+000	-1.5573510074e+000
 4.8027252174e-001	 1.3575506730e+000	-1.5397249955e+000
 4.6599894551e-001	 1.3625162202e+000	-1.5230240166e+000
 4.5170889395e-001	 1.3673201886e+000	-1.5075179762e+000
 4.3740495830e-001	 1.3719629358e+000	-1.4935524762e+000
 4.2308970893e-001	 1.3764448715e+000	-1.4815392067e+000
 5.6803839919e-001	 1.3304825329e+000	-1.6478454159e+000
 5.5385372595e-001	 1.3364495420e+000	-1.6248416808e+000
 5.3963651470e-001	 1.3422532128e+000	-1.6032535531e+000
 5.2538946674e-001	 1.3478935739e+000	-1.5827094856e+000
 5.1111527048e-001	 1.3533707109e+000	-1.5630193681e+000
 4.9681660001e-001	 1.3586847656e+000	-1.5441107447e+000
 4.8249611372e-001	 1.3638359354e+000	-1.5260183076e+000
 4.6815645291e-001	 1.3688244723e+000	-1.5088735640e+000
 4.5380024049e-001	 1.3736506823e+000	-1.4928947087e+000
 4.3943007969e-001	 1.3783149248e+000	-1.4783767291e+000
 4.2504855279e-001	 1.3828176112e+000	-1.4656817667e+000
 5.7065621433e-001	 1.3366140855e+000	-1.6387689458e+000
 5.5640617077e-001	 1.3426085937e+000	-1.6145648747e+000
 5.4212343924e-001	 1.3484390107e+000	-1.5920126637e+000
 5.2781073351e-001	 1.3541053655e+000	-1.5707331968e+000
 5.1347075436e-001	 1.3596077440e+000	-1.5504772109e+000
 4.9910618822e-001	 1.3649462887e+000	-1.5311145696e+000
 4.8471970570e-001	 1.3701211977e+000	-1.5126236845e+000
 4.7031396031e-001	 1.3751327244e+000	-1.4950811205e+000
 4.5589158703e-001	 1.3799811761e+000	-1.4786514169e+000
 4.4145520108e-001	 1.3846669138e+000	-1.4635771517e+000
 4.2700739666e-001	 1.3891903509e+000	-1.4501692722e+000
 5.7327402947e-001	 1.3427456381e+000	-1.6292291294e+000
 5.5895861559e-001	 1.3487676453e+000	-1.6039145572e+000
 5.4461036379e-001	 1.3546248087e+000	-1.5805324829e+000
 5.3023200028e-001	 1.3603171572e+000	-1.5586404277e+000
 5.1582623824e-001	 1.3658447772e+000	-1.5379274693e+000
 5.0139577642e-001	 1.3712078117e+000	-1.5182034317e+000
 4.8694329769e-001	 1.3764064600e+000	-1.4993882346e+000
 4.7247146771e-001	 1.3814409765e+000	-1.4815014360e+000
 4.5798293356e-001	 1.3863116699e+000	-1.4646520016e+000
 4.4348032248e-001	 1.3910189029e+000	-1.4490283286e+000
 4.2896624053e-001	 1.3955630906e+000	-1.4348885458e+000
 5.7589184460e-001	 1.3488771907e+000	-1.6190045137e+000
 5.6151106040e-001	 1.3549266970e+000	-1.5927217153e+000
 5.4709728833e-001	 1.3608106067e+000	-1.5686445811e+000
 5.3265326705e-001	 1.3665289489e+000	-1.5462646563e+000
 5.1818172212e-001	 1.3720818103e+000	-1.5252068910e+000
 5.0368536462e-001	 1.3774693348e+000	-1.5052187468e+000
 4.8916688967e-001	 1.3826917224e+000	-1.4861594722e+000
 4.7462897510e-001	 1.3877492286e+000	-1.4679895829e+000
 4.6007428010e-001	 1.3926421637e+000	-1.4507605801e+000
 4.4550544387e-001	 1.3973708919e+000	-1.4346049321e+000
 4.3092508440e-001	 1.4019358304e+000	-1.4197263452e+000
 4.1133664571e-001	 1.3382084331e+000	-1.5902570104e+000
 3.9741053939e-001	 1.3424099678e+000	-1.5833635885e+000
 3.8347836494e-001	 1.3464561009e+000	-1.5783107833e+000
 3.6954255248e-001	 1.3503473752e+000	-1.5745323554e+000
 3.5560550744e-001	 1.3540843807e+000	-1.5715056818e+000
 3.4166960951e-001	 1.3576677530e+000	-1.5687456526e+000
 3.2773721164e-001	 1.3610981730e+000	-1.5657987621e+000
 3.1381063911e-001	 1.3643763658e+000	-1.5622373971e+000
 2.9989218860e-001	 1.3675030993e+000	-1.5576543247e+000
 2.8598412731e-001	 1.3704791834e+000	-1.5516573775e+000
 2.7208869216e-001	 1.3733054688e+000	-1.5438643356e+000
 4.1329548958e-001	 1.3445811728e+000	-1.5699570214e+000
 3.9930306515e-001	 1.3488027158e+000	-1.5628587086e+000
 3.8530454369e-001	 1.3528681172e+000	-1.5575936547e+000
 3.7130236691e-001	 1.3567779224e+000	-1.5535802819e+000
 3.5729895167e-001	 1.3605327239e+000	-1.5502833232e+000
 3.4329668900e-001	 1.3641331607e+000	-1.5472076522e+000
 3.2929794306e-001	 1.3675799170e+000	-1.5438923115e+000
 3.1530505020e-001	 1.3708737210e+000	-1.5399047435e+000
 3.0132031804e-001	 1.3740153444e+000	-1.5348352227e+000
 2.8734602458e-001	 1.3770056010e+000	-1.5282914908e+000
 2.7338441738e-001	 1.3798453456e+000	-1.5198935891e+000
 4.1525433345e-001	 1.3509539125e+000	-1.5506795906e+000
 4.0119559091e-001	 1.3551954638e+000	-1.5432462365e+000
 3.8713072245e-001	 1.3592801335e+000	-1.5376367054e+000
 3.7306218133e-001	 1.3632084695e+000	-1.5332599199e+000
 3.5899239589e-001	 1.3669810672e+000	-1.5295736398e+000
 3.4492376849e-001	 1.3705985685e+000	-1.5260782192e+000
 3.3085867448e-001	 1.3740616609e+000	-1.5223105689e+000
 3.1679946129e-001	 1.3773710762e+000	-1.5178383240e+000
 3.0274844748e-001	 1.3805275895e+000	-1.5122542196e+000
 2.8870792184e-001	 1.3835320187e+000	-1.5051706706e+000
 2.7468014260e-001	 1.3863852225e+000	-1.4962145545e+000
 4.1721317732e-001	 1.3573266523e+000	-1.5323119588e+000
 4.0308811667e-001	 1.3615882119e+000	-1.5244269162e+000
 3.8895690120e-001	 1.3656921498e+000	-1.5183530430e+000
 3.7482199575e-001	 1.3696390166e+000	-1.5134955192e+000
 3.6068584012e-001	 1.3734294104e+000	-1.5093107210e+000
 3.4655084797e-001	 1.3770639763e+000	-1.5052999005e+000
 3.3241940590e-001	 1.3805434049e+000	-1.5010030761e+000
 3.1829387238e-001	 1.3838684313e+000	-1.4959931352e+000
 3.0417657692e-001	 1.3870398347e+000	-1.4898701479e+000
 2.9006981911e-001	 1.3900584363e+000	-1.4822558909e+000
 2.7597586782e-001	 1.3929250993e+000	-1.4727885767e+000
 4.1917202119e-001	 1.3636993920e+000	-1.5147412964e+000
 4.0498064243e-001	 1.3679809599e+000	-1.5063012575e+000
 3.9078307996e-001	 1.3721041661e+000	-1.4996554016e+000
 3.7658181018e-001	 1.3760695637e+000	-1.4942108431e+000
 3.6237928434e-001	 1.3798777537e+000	-1.4894280846e+000
 3.4817792746e-001	 1.3835293841e+000	-1.4848146141e+000
 3.3398013731e-001	 1.3870251488e+000	-1.4799187197e+000
 3.1978828347e-001	 1.3903657865e+000	-1.4743235223e+000
 3.0560470636e-001	 1.3935520798e+000	-1.4676412254e+000
 2.9143171637e-001	 1.3965848540e+000	-1.4595075796e+000
 2.7727159303e-001	 1.3994649761e+000	-1.4495765576e+000
 4.2113086506e-001	 1.3700721317e+000	-1.4978547028e+000
 4.0687316819e-001	 1.3743737079e+000	-1.4887695376e+000
 3.9260925871e-001	 1.3785161824e+000	-1.4814561452e+000
 3.7834162460e-001	 1.3825001108e+000	-1.4753291729e+000
 3.6407272857e-001	 1.3863260970e+000	-1.4698586814e+000
 3.4980500695e-001	 1.3899947919e+000	-1.4645636550e+000
 3.3554086873e-001	 1.3935068927e+000	-1.4590057357e+000
 3.2128269456e-001	 1.3968631417e+000	-1.4527831830e+000
 3.0703283580e-001	 1.4000643249e+000	-1.4455250566e+000
 2.9279361364e-001	 1.4031112716e+000	-1.4368856189e+000
 2.7856731825e-001	 1.4060048529e+000	-1.4265389538e+000
 4.2308970893e-001	 1.3764448715e+000	-1.4815392067e+000
 4.0876569395e-001	 1.3807664560e+000	-1.4717318025e+000
 3.9443543747e-001	 1.3849281987e+000	-1.4636672708e+000
 3.8010143903e-001	 1.3889306579e+000	-1.4567733124e+000
 3.6576617279e-001	 1.3927744402e+000	-1.4505349007e+000
 3.5143208643e-001	 1.3964601997e+000	-1.4444876998e+000
 3.3710160015e-001	 1.3999886367e+000	-1.4382117143e+000
 3.2277710565e-001	 1.4033604968e+000	-1.4313251721e+000
 3.0846096524e-001	 1.4065765700e+000	-1.4234786366e+000
 2.9415551090e-001	 1.4096376893e+000	-1.4143493464e+000
 2.7986304347e-001	 1.4125447298e+000	-1.4036357750e+000
 4.2504855279e-001	 1.3828176112e+000	-1.4656817667e+000
 4.1065821971e-001	 1.3871592040e+000	-1.4550878700e+000
 3.9626161622e-001	 1.3913402150e+000	-1.4462004123e+000
 3.8186125345e-001	 1.3953612050e+000	-1.4384655925e+000
 3.6745961701e-001	 1.3992227835e+000	-1.4313885754e+000
 3.5305916592e-001	 1.4029256075e+000	-1.4245268130e+000
 3.3866233157e-001	 1.4064703806e+000	-1.4174836057e+000
 3.2427151674e-001	 1.4098578520e+000	-1.4099019051e+000
 3.0988909468e-001	 1.4130888151e+000	-1.4014583531e+000
 2.9551740817e-001	 1.4161641069e+000	-1.3918575555e+000
 2.8115876869e-001	 1.4190846066e+000	-1.3808265826e+000
 4.2700739666e-001	 1.3891903509e+000	-1.4501692722e+000
 4.1255074547e-001	 1.3935519520e+000	-1.4387373323e+000
 3.9808779497e-001	 1.3977522313e+000	-1.4289668451e+000
 3.8362106788e-001	 1.4017917521e+000	-1.4203278769e+000
 3.6915306124e-001	 1.4056711267e+000	-1.4123509880e+000
 3.5468624541e-001	 1.4093910153e+000	-1.4046204520e+000
 3.4022306298e-001	 1.4129521246e+000	-1.3967677249e+000
 3.2576592783e-001	 1.4163552071e+000	-1.3884651636e+000
 3.1131722412e-001	 1.4196010602e+000	-1.3794199902e+000
 2.9687930543e-001	 1.4226905246e+000	-1.3693684975e+000
 2.8245449391e-001	 1.4256244834e+000	-1.3580704876e+000
 4.2896624053e-001	 1.3955630906e+000	-1.4348885458e+000
 4.1444327123e-001	 1.3999447001e+000	-1.4225795595e+000
 3.9991397373e-001	 1.4041642476e+000	-1.4118774900e+000
 3.8538088230e-001	 1.4082222992e+000	-1.4022815669e+000
 3.7084650546e-001	 1.4121194700e+000	-1.3933528764e+000
 3.5631332490e-001	 1.4158564231e+000	-1.3847074740e+000
 3.4178379440e-001	 1.4194338685e+000	-1.3760097577e+000
 3.2726033892e-001	 1.4228525623e+000	-1.3669660995e+000
 3.1274535356e-001	 1.4261133053e+000	-1.3573187317e+000
 2.9824120270e-001	 1.4292169422e+000	-1.3468398821e+000
 2.8375021912e-001	 1.4321643603e+000	-1.3353261507e+000
 4.3092508440e-001	 1.4019358304e+000	-1.4197263452e+000
 4.1633579699e-001	 1.4063374481e+000	-1.4065137034e+000
 4.0174015248e-001	 1.4105762639e+000	-1.3948429189e+000
 3.8714069672e-001	 1.4146528463e+000	-1.3842476079e+000
 3.7253994969e-001	 1.4185678132e+000	-1.3743244401e+000
 3.5794040438e-001	 1.4223218309e+000	-1.3647261413e+000
 3.4334452582e-001	 1.4259156124e+000	-1.3551547662e+000
 3.2875475001e-001	 1.4293499175e+000	-1.3453552400e+000
 3.1417348300e-001	 1.4326255505e+000	-1.3351091641e+000
 2.9960309996e-001	 1.4357433599e+000	-1.3242288797e+000
 2.8504594434e-001	 1.4387042371e+000	-1.3125517805e+000
 2.7208869216e-001	 1.3733054688e+000	-1.5438643356e+000
 2.5821016918e-001	 1.3759824560e+000	-1.5354004450e+000
 2.4434864351e-001	 1.3785115099e+000	-1.5277482561e+000
 2.3050625248e-001	 1.3808935982e+000	-1.5210576288e+000
 2.1668510026e-001	 1.3831297249e+000	-1.5154580131e+000
 2.0288725725e-001	 1.3852209296e+000	-1.5110536575e+000
 1.8911475949e-001	 1.3871682857e+000	-1.5079190154e+000
 1.7536960807e-001	 1.3889729000e+000	-1.5060943404e+000
 1.6165376864e-001	 1.3906359110e+000	-1.5055814661e+000
 1.4796917094e-001	 1.3921584880e+000	-1.5063397608e+000
 1.3431770835e-001	 1.3935418298e+000	-1.5082822521e+000
 2.7338441738e-001	 1.3798453456e+000	-1.5198935891e+000
 2.5943980289e-001	 1.3825350810e+000	-1.5107526590e+000
 2.4551226666e-001	 1.3850761786e+000	-1.5023487664e+000
 2.3160395618e-001	 1.3874696107e+000	-1.4948534621e+000
 2.1771698566e-001	 1.3897163863e+000	-1.4884178455e+000
 2.0385343535e-001	 1.3918175495e+000	-1.4831677572e+000
 1.9001535099e-001	 1.3937741793e+000	-1.4791991731e+000
 1.7620474319e-001	 1.3955873874e+000	-1.4765737891e+000
 1.6242358698e-001	 1.3972583179e+000	-1.4753147913e+000
 1.4867382127e-001	 1.3987881456e+000	-1.4754028016e+000
 1.3495734846e-001	 1.4001780751e+000	-1.4767719937e+000
 2.7468014260e-001	 1.3863852225e+000	-1.4962145545e+000
 2.6066943660e-001	 1.3890877060e+000	-1.4864742052e+000
 2.4667588980e-001	 1.3916408473e+000	-1.4774120887e+000
 2.3270165988e-001	 1.3940456233e+000	-1.4692162831e+000
 2.1874887106e-001	 1.3963030476e+000	-1.4620544520e+000
 2.0481961345e-001	 1.3984141695e+000	-1.4560690318e+000
 1.9091594249e-001	 1.4003800728e+000	-1.4513726209e+000
 1.7703987832e-001	 1.4022018748e+000	-1.4480435628e+000
 1.6319340531e-001	 1.4038807247e+000	-1.4461217135e+000
 1.4937847160e-001	 1.4054178032e+000	-1.4456043873e+000
 1.3559698858e-001	 1.4068143204e+000	-1.4464424694e+000
 2.7597586782e-001	 1.3929250993e+000	-1.4727885767e+000
 2.6189907031e-001	 1.3956403310e+000	-1.4625258131e+000
 2.4783951295e-001	 1.3982055161e+000	-1.4528982219e+000
 2.3379936358e-001	 1.4006216359e+000	-1.4441052992e+000
 2.1978075646e-001	 1.4028897089e+000	-1.4363262424e+000
 2.0578579155e-001	 1.4050107895e+000	-1.4297151394e+000
 1.9181653399e-001	 1.4069859664e+000	-1.4243963631e+000
 1.7787501344e-001	 1.4088163621e+000	-1.4204601596e+000
 1.6396322365e-001	 1.4105031316e+000	-1.4179584227e+000
 1.5008312193e-001	 1.4120474608e+000	-1.4169006451e+000
 1.3623662869e-001	 1.4134505656e+000	-1.4172500375e+000
 2.7727159303e-001	 1.3994649761e+000	-1.4495765576e+000
 2.6312870402e-001	 1.4021929561e+000	-1.4388678911e+000
 2.4900313609e-001	 1.4047701848e+000	-1.4287669673e+000
 2.3489706728e-001	 1.4071976485e+000	-1.4194796450e+000
 2.2081264186e-001	 1.4094763703e+000	-1.4111916765e+000
 2.0675196966e-001	 1.4116074094e+000	-1.4040639088e+000
 1.9271712549e-001	 1.4135918599e+000	-1.3982276904e+000
 1.7871014857e-001	 1.4154308495e+000	-1.3937804745e+000
 1.6473304199e-001	 1.4171255385e+000	-1.3907816078e+000
 1.5078777226e-001	 1.4186771184e+000	-1.3892482953e+000
 1.3687626881e-001	 1.4200868109e+000	-1.3891517322e+000
 2.7856731825e-001	 1.4060048529e+000	-1.4265389538e+000
 2.6435833773e-001	 1.4087455811e+000	-1.4154605212e+000
 2.5016675923e-001	 1.4113348536e+000	-1.4049779210e+000
 2.3599477098e-001	 1.4137736611e+000	-1.3952983713e+000
 2.2184452726e-001	 1.4160630316e+000	-1.3866092512e+000
 2.0771814776e-001	 1.4182040294e+000	-1.3790733233e+000
 1.9361771699e-001	 1.4201977535e+000	-1.3728241619e+000
 1.7954528369e-001	 1.4220453369e+000	-1.3679617792e+000
 1.6550286033e-001	 1.4237479454e+000	-1.3645484358e+000
 1.5149242259e-001	 1.4253067760e+000	-1.3626046279e+000
 1.3751590892e-001	 1.4267230562e+000	-1.3621052397e+000
 2.7986304347e-001	 1.4125447298e+000	-1.4036357750e+000
 2.6558797144e-001	 1.4152982061e+000	-1.3922634546e+000
 2.5133038238e-001	 1.4178995223e+000	-1.3814904667e+000
 2.3709247468e-001	 1.4203496737e+000	-1.3715204351e+000
 2.2287641265e-001	 1.4226496930e+000	-1.3625374875e+000
 2.0868432586e-001	 1.4248006493e+000	-1.3547015063e+000
 1.9451830849e-001	 1.4268036470e+000	-1.3481435887e+000
 1.8038041882e-001	 1.4286598243e+000	-1.3429617030e+000
 1.6627267867e-001	 1.4303703522e+000	-1.3392165303e+000
 1.5219707292e-001	 1.4319364336e+000	-1.3369274810e+000
 1.3815554904e-001	 1.4333593015e+000	-1.3360688745e+000
 2.8115876869e-001	 1.4190846066e+000	-1.3808265826e+000
 2.6681760515e-001	 1.4218508311e+000	-1.3692361073e+000
 2.5249400552e-001	 1.4244641910e+000	-1.3582637679e+000
 2.3819017838e-001	 1.4269256863e+000	-1.3481046900e+000
 2.2390829805e-001	 1.4292363543e+000	-1.3389349183e+000
 2.0965050396e-001	 1.4313972693e+000	-1.3309067063e+000
 1.9541889999e-001	 1.4334095405e+000	-1.3241440163e+000
 1.8121555394e-001	 1.4352743117e+000	-1.3187382144e+000
 1.6704249701e-001	 1.4369927591e+000	-1.3147439518e+000
 1.5290172325e-001	 1.4385660912e+000	-1.3121752182e+000
 1.3879518915e-001	 1.4399955467e+000	-1.3110015572e+000
 2.8245449391e-001	 1.4256244834e+000	-1.3580704876e+000
 2.6804723886e-001	 1.4284034562e+000	-1.3463375556e+000
 2.5365762866e-001	 1.4310288598e+000	-1.3352567619e+000
 2.3928788208e-001	 1.4335016988e+000	-1.3250098767e+000
 2.2494018345e-001	 1.4358230156e+000	-1.3157600768e+000
 2.1061668206e-001	 1.4379938892e+000	-1.3076472833e+000
 1.9631949149e-001	 1.4400154341e+000	-1.3007837092e+000
 1.8205068907e-001	 1.4418887990e+000	-1.2952496031e+000
 1.6781231535e-001	 1.4436151660e+000	-1.2910891779e+000
 1.5360637358e-001	 1.4451957488e+000	-1.2883067088e+000
 1.3943482927e-001	 1.4466317920e+000	-1.2868627920e+000
 2.8375021912e-001	 1.4321643603e+000	-1.3353261507e+000
 2.6927687257e-001	 1.4349560812e+000	-1.3235265329e+000
 2.5482125181e-001	 1.4375935285e+000	-1.3124281527e+000
 2.4038558578e-001	 1.4400777114e+000	-1.3021946139e+000
 2.2597206885e-001	 1.4424096770e+000	-1.2929714853e+000
 2.1158286016e-001	 1.4445905092e+000	-1.2848816948e+000
 1.9722008299e-001	 1.4466213276e+000	-1.2780211348e+000
 1.8288582419e-001	 1.4485032864e+000	-1.2724544627e+000
 1.6858213369e-001	 1.4502375728e+000	-1.2682110843e+000
 1.5431102390e-001	 1.4518254064e+000	-1.2652813066e+000
 1.4007446938e-001	 1.4532680373e+000	-1.2636126457e+000
 2.8504594434e-001	 1.4387042371e+000	-1.3125517805e+000
 2.7050650628e-001	 1.4415087062e+000	-1.3007614257e+000
 2.5598487495e-001	 1.4441581973e+000	-1.2897364052e+000
 2.4148328948e-001	 1.4466537240e+000	-1.2796173901e+000
 2.2700395425e-001	 1.4489963383e+000	-1.2705276438e+000
 2.1254903826e-001	 1.4511871291e+000	-1.2625684830e+000
 1.9812067448e-001	 1.4532272212e+000	-1.2558149489e+000
 1.8372095932e-001	 1.4551177738e+000	-1.2503116734e+000
 1.6935195202e-001	 1.4568599797e+000	-1.2460689267e+000
 1.5501567423e-001	 1.4584550640e+000	-1.2430588308e+000
 1.4071410950e-001	 1.4599042825e+000	-1.2412117266e+000
 1.3431770835e-001	 1.3935418298e+000	-1.5082822521e+000
 1.2069920228e-001	 1.3947873405e+000	-1.5102559725e+000
 1.0711754693e-001	 1.3958960576e+000	-1.5113501588e+000
 9.3574552529e-002	 1.3968692627e+000	-1.5117548589e+000
 8.0071990737e-002	 1.3977082627e+000	-1.5115899835e+000
 6.6611594359e-002	 1.3984143882e+000	-1.5109017869e+000
 5.3195057159e-002	 1.3989889927e+000	-1.5096595117e+000
 3.9824033681e-002	 1.3994334510e+000	-1.5077521929e+000
 2.6500139106e-002	 1.3997491587e+000	-1.5049856186e+000
 1.3224949153e-002	 1.3999375307e+000	-1.5010794446e+000
 0.0000000000e+000	 1.4000000000e+000	-1.4956644658e+000
 1.3495734846e-001	 1.4001780751e+000	-1.4767719937e+000
 1.2127398912e-001	 1.4014295171e+000	-1.4782681694e+000
 1.0762765599e-001	 1.4025435140e+000	-1.4789574124e+000
 9.4020167917e-002	 1.4035213537e+000	-1.4790189743e+000
 8.0453304996e-002	 1.4043643491e+000	-1.4785636380e+000
 6.6928808288e-002	 1.4050738373e+000	-1.4776301787e+000
 5.3448379621e-002	 1.4056511781e+000	-1.4761819841e+000
 4.0013681419e-002	 1.4060977530e+000	-1.4741038286e+000
 2.6626336555e-002	 1.4064149642e+000	-1.4711987984e+000
 1.3287928250e-002	 1.4066042332e+000	-1.4671853651e+000
 0.0000000000e+000	 1.4066670000e+000	-1.4616946100e+000
 1.3559698858e-001	 1.4068143204e+000	-1.4464424694e+000
 1.2184877597e-001	 1.4080716936e+000	-1.4474858231e+000
 1.0813776505e-001	 1.4091909705e+000	-1.4477882156e+000
 9.4465783304e-002	 1.4101734447e+000	-1.4475220736e+000
 8.0834619255e-002	 1.4110204356e+000	-1.4467929891e+000
 6.7246022216e-002	 1.4117332864e+000	-1.4456361591e+000
 5.3701702083e-002	 1.4123133635e+000	-1.4440129787e+000
 4.0203329157e-002	 1.4127620550e+000	-1.4418077824e+000
 2.6752534003e-002	 1.4130807696e+000	-1.4388247325e+000
 1.3350907347e-002	 1.4132709357e+000	-1.4347848481e+000
 0.0000000000e+000	 1.4133340000e+000	-1.4293231817e+000
 1.3623662869e-001	 1.4134505656e+000	-1.4172500375e+000
 1.2242356281e-001	 1.4147138702e+000	-1.4178654695e+000
 1.0864787411e-001	 1.4158384269e+000	-1.4177988049e+000
 9.4911398691e-002	 1.4168255357e+000	-1.4172195505e+000
 8.1215933514e-002	 1.4176765220e+000	-1.4162319800e+000
 6.7563236144e-002	 1.4183927355e+000	-1.4148715498e+000
 5.3955024544e-002	 1.4189755490e+000	-1.4131014619e+000
 4.0392976894e-002	 1.4194263570e+000	-1.4108093724e+000
 2.6878731451e-002	 1.4197465751e+000	-1.4078042386e+000
 1.3413886444e-002	 1.4199376382e+000	-1.4038133031e+000
 0.0000000000e+000	 1.4200010000e+000	-1.3984792188e+000
 1.3687626881e-001	 1.4200868109e+000	-1.3891517322e+000
 1.2299834965e-001	 1.4213560468e+000	-1.3893643984e+000
 1.0915798317e-001	 1.4224858833e+000	-1.3889462516e+000
 9.5357014077e-002	 1.4234776267e+000	-1.3880677182e+000
 8.1597247772e-002	 1.4243326084e+000	-1.3868355616e+000
 6.7880450072e-002	 1.4250521846e+000	-1.3852892718e+000
 5.4208347005e-002	 1.4256377344e+000	-1.3833975973e+000
 4.0582624631e-002	 1.4260906591e+000	-1.3810552166e+000
 2.7004928898e-002	 1.4264123806e+000	-1.3780795434e+000
 1.3476865541e-002	 1.4266043408e+000	-1.3742076635e+000
 0.0000000000e+000	 1.4266680000e+000	-1.3690934062e+000
 1.3751590892e-001	 1.4267230562e+000	-1.3621052397e+000
 1.2357313650e-001	 1.4279982234e+000	-1.3619406293e+000
 1.0966809223e-001	 1.4291333398e+000	-1.3611884367e+000
 9.5802629464e-002	 1.4301297176e+000	-1.3600237823e+000
 8.1978562030e-002	 1.4309886948e+000	-1.3585596637e+000
 6.8197663999e-002	 1.4317116337e+000	-1.3568433166e+000
 5.4461669466e-002	 1.4322999199e+000	-1.3548527145e+000
 4.0772272367e-002	 1.4327549611e+000	-1.3524932002e+000
 2.7131126346e-002	 1.4330781860e+000	-1.3495942481e+000
 1.3539844637e-002	 1.4332710433e+000	-1.3459063512e+000
 0.0000000000e+000	 1.4333350000e+000	-1.3410980371e+000
 1.3815554904e-001	 1.4333593015e+000	-1.3360688745e+000
 1.2414792334e-001	 1.4346403999e+000	-1.3355528864e+000
 1.1017820129e-001	 1.4357807962e+000	-1.3344840249e+000
 9.6248244850e-002	 1.4367818086e+000	-1.3330458144e+000
 8.2359876288e-002	 1.4376447813e+000	-1.3313611678e+000
 6.8514877927e-002	 1.4383710828e+000	-1.3294887174e+000
 5.4714991926e-002	 1.4389621053e+000	-1.3274192792e+000
 4.0961920104e-002	 1.4394192631e+000	-1.3250724444e+000
 2.7257323793e-002	 1.4397439915e+000	-1.3222932952e+000
 1.3602823734e-002	 1.4399377458e+000	-1.3188492408e+000
 0.0000000000e+000	 1.4400020000e+000	-1.3144269762e+000
 1.3879518915e-001	 1.4399955467e+000	-1.3110015572e+000
 1.2472271018e-001	 1.4412825765e+000	-1.3101605752e+000
 1.1068831035e-001	 1.4424282527e+000	-1.3087924402e+000
 9.6693860236e-002	 1.4434338996e+000	-1.3070927263e+000
 8.2741190546e-002	 1.4443008677e+000	-1.3051978804e+000
 6.8832091854e-002	 1.4450305319e+000	-1.3031815207e+000
 5.4968314386e-002	 1.4456242907e+000	-1.3010508641e+000
 4.1151567840e-002	 1.4460835651e+000	-1.2987432756e+000
 2.7383521240e-002	 1.4464097970e+000	-1.2961229363e+000
 1.3665802830e-002	 1.4466044483e+000	-1.2929776261e+000
 0.0000000000e+000	 1.4466690000e+000	-1.2890156236e+000
 1.3943482927e-001	 1.4466317920e+000	-1.2868627920e+000
 1.2529749703e-001	 1.4479247531e+000	-1.2857237598e+000
 1.1119841941e-001	 1.4490757091e+000	-1.2840738421e+000
 9.7139475622e-002	 1.4500859906e+000	-1.2821242455e+000
 8.3122504803e-002	 1.4509569541e+000	-1.2800285070e+000
 6.9149305780e-002	 1.4516899810e+000	-1.2778787595e+000
 5.5221636846e-002	 1.4522864762e+000	-1.2757021201e+000
 4.1341215576e-002	 1.4527478671e+000	-1.2734571953e+000
 2.7509718687e-002	 1.4530756024e+000	-1.2710307003e+000
 1.3728781927e-002	 1.4532711508e+000	-1.2682341861e+000
 0.0000000000e+000	 1.4533360000e+000	-1.2648008791e+000
 1.4007446938e-001	 1.4532680373e+000	-1.2636126457e+000
 1.2587228387e-001	 1.4545669297e+000	-1.2622031401e+000
 1.1170852847e-001	 1.4557231655e+000	-1.2602891022e+000
 9.7585091007e-002	 1.4567380816e+000	-1.2581008904e+000
 8.3503819060e-002	 1.4576130405e+000	-1.2558126267e+000
 6.9466519707e-002	 1.4583494301e+000	-1.2535384271e+000
 5.5474959305e-002	 1.4589486616e+000	-1.2513287489e+000
 4.1530863311e-002	 1.4594121691e+000	-1.2491668514e+000
 2.7635916133e-002	 1.4597414079e+000	-1.2469653631e+000
 1.3791761023e-002	 1.4599378533e+000	-1.2445629533e+000
 0.0000000000e+000	 1.4600030000e+000	-1.2417211083e+000
 1.4071410950e-001	 1.4599042825e+000	-1.2412117266e+000
 1.2644707071e-001	 1.4612091062e+000	-1.2395600307e+000
 1.1221863753e-001	 1.4623706220e+000	-1.2373997819e+000
 9.8030706392e-002	 1.4633901726e+000	-1.2349839474e+000
 8.3885133317e-002	 1.4642691269e+000	-1.2325106679e+000
 6.9783733633e-002	 1.4650088792e+000	-1.2301194509e+000
 5.5728281765e-002	 1.4656108471e+000	-1.2278874762e+000
 4.1720511047e-002	 1.4660764711e+000	-1.2258260096e+000
 2.7762113580e-002	 1.4664072133e+000	-1.2238769180e+000
 1.3854740119e-002	 1.4666045558e+000	-1.2219092820e+000
 0.0000000000e+000	 1.4666700000e+000	-1.2197161092e+000
 1.4666700000e+000	 0.0000000000e+000	 3.5294933643e+000
 1.4666045558e+000	 1.3854740119e-002	 3.5285973406e+000
 1.4664072133e+000	 2.7762113580e-002	 3.5250900118e+000
 1.4660764711e+000	 4.1720511047e-002	 3.5190541730e+000
 1.4656108471e+000	 5.5728281765e-002	 3.5105323320e+000
 1.4650088792e+000	 6.9783733633e-002	 3.4995283568e+000
 1.4642691269e+000	 8.3885133317e-002	 3.4860092264e+000
 1.4633901726e+000	 9.8030706392e-002	 3.4699068933e+000
 1.4623706220e+000	 1.1221863753e-001	 3.4511202660e+000
 1.4612091062e+000	 1.2644707071e-001	 3.4295173236e+000
 1.4599042825e+000	 1.4071410950e-001	 3.4049373760e+000
 1.4733360000e+000	 0.0000000000e+000	 3.5249169914e+000
 1.4732702584e+000	 1.3917709769e-002	 3.5238994424e+000
 1.4730720190e+000	 2.7888292098e-002	 3.5203106009e+000
 1.4727397736e+000	 4.1910130337e-002	 3.5142264891e+000
 1.4722720332e+000	 5.5981566227e-002	 3.5056826860e+000
 1.4716673294e+000	 7.0100899979e-002	 3.4946759706e+000
 1.4709242150e+000	 8.4266390379e-002	 3.4811660652e+000
 1.4700412658e+000	 9.8476254938e-002	 3.4650774846e+000
 1.4690170814e+000	 1.1272867008e-001	 3.4463015029e+000
 1.4678502865e+000	 1.2702177134e-001	 3.4246982478e+000
 1.4665395324e+000	 1.4135365367e-001	 3.4000989376e+000
 1.4800020000e+000	 0.0000000000e+000	 3.5200298189e+000
 1.4799359609e+000	 1.3980679419e-002	 3.5189228137e+000
 1.4797368246e+000	 2.8014470616e-002	 3.5152699293e+000
 1.4794030760e+000	 4.2099749626e-002	 3.5091438387e+000
 1.4789332194e+000	 5.6234850690e-002	 3.5005766842e+000
 1.4783257796e+000	 7.0418066325e-002	 3.4895617117e+000
 1.4775793030e+000	 8.4647647441e-002	 3.4760549991e+000
 1.4766923590e+000	 9.8921803484e-002	 3.4599772873e+000
 1.4756635407e+000	 1.1323870262e-001	 3.4412159229e+000
 1.4744914668e+000	 1.2759647197e-001	 3.4196269259e+000
 1.4731747823e+000	 1.4199319784e-001	 3.3950371953e+000
 1.4866680000e+000	 0.0000000000e+000	 3.5148103042e+000
 1.4866016635e+000	 1.4043649068e-002	 3.5136483132e+000
 1.4864016302e+000	 2.8140649134e-002	 3.5099508038e+000
 1.4860663784e+000	 4.2289368916e-002	 3.5037904778e+000
 1.4855944055e+000	 5.6488135153e-002	 3.4951994884e+000
 1.4849842298e+000	 7.0735232671e-002	 3.4841710597e+000
 1.4842343911e+000	 8.5028904502e-002	 3.4706611949e+000
 1.4833434522e+000	 9.9367352029e-002	 3.4545904814e+000
 1.4823100001e+000	 1.1374873517e-001	 3.4358460036e+000
 1.4811326471e+000	 1.2817117260e-001	 3.4142833759e+000
 1.4798100322e+000	 1.4263274201e-001	 3.3897289091e+000
 1.4933340000e+000	 0.0000000000e+000	 3.5092364536e+000
 1.4932673661e+000	 1.4106618718e-002	 3.5080564280e+000
 1.4930664359e+000	 2.8266827652e-002	 3.5043357358e+000
 1.4927296808e+000	 4.2478988206e-002	 3.4981504414e+000
 1.4922555917e+000	 5.6741419615e-002	 3.4895361128e+000
 1.4916426800e+000	 7.1052399017e-002	 3.4784894211e+000
 1.4908894792e+000	 8.5410161564e-002	 3.4649698214e+000
 1.4899945454e+000	 9.9812900574e-002	 3.4489013270e+000
 1.4889564595e+000	 1.1425876771e-001	 3.4301743844e+000
 1.4877738274e+000	 1.2874587322e-001	 3.4086478640e+000
 1.4864452821e+000	 1.4327228618e-001	 3.3841511806e+000
 1.5000000000e+000	 0.0000000000e+000	 3.5032858321e+000
 1.4999330686e+000	 1.4169588368e-002	 3.5021272830e+000
 1.4997312415e+000	 2.8393006170e-002	 3.4984069507e+000
 1.4993929832e+000	 4.2668607496e-002	 3.4922075525e+000
 1.4989167779e+000	 5.6994704078e-002	 3.4835714328e+000
 1.4983011303e+000	 7.1369565363e-002	 3.4725021361e+000
 1.4975445672e+000	 8.5791418626e-002	 3.4589660558e+000
 1.4966456386e+000	 1.0025844912e-001	 3.4428941695e+000
 1.4956029188e+000	 1.1476880026e-001	 3.4241838702e+000
 1.4944150077e+000	 1.2932057385e-001	 3.4027009075e+000
 1.4930805319e+000	 1.4391183035e-001	 3.3782814532e+000
 1.5066660000e+000	 0.0000000000e+000	 3.4969355740e+000
 1.5065987712e+000	 1.4232558018e-002	 3.4958406510e+000
 1.5063960471e+000	 2.8519184688e-002	 3.4921463973e+000
 1.5060562856e+000	 4.2858226786e-002	 3.4859454310e+000
 1.5055779640e+000	 5.7247988541e-002	 3.4772901929e+000
 1.5049595805e+000	 7.1686731709e-002	 3.4661944868e+000
 1.5041996553e+000	 8.6172675688e-002	 3.4526350903e+000
 1.5032967318e+000	 1.0070399766e-001	 3.4365534449e+000
 1.5022493782e+000	 1.1527883281e-001	 3.4178574358e+000
 1.5010561880e+000	 1.2989527448e-001	 3.3964232767e+000
 1.4997157818e+000	 1.4455137453e-001	 3.3720975128e+000
 1.5133320000e+000	 0.0000000000e+000	 3.4901623913e+000
 1.5132644737e+000	 1.4295527669e-002	 3.4891759616e+000
 1.5130608528e+000	 2.8645363207e-002	 3.4855357563e+000
 1.5127195880e+000	 4.3047846077e-002	 3.4793475019e+000
 1.5122391502e+000	 5.7501273004e-002	 3.4706770145e+000
 1.5116180307e+000	 7.2003898056e-002	 3.4595517037e+000
 1.5108547433e+000	 8.6553932750e-002	 3.4459621382e+000
 1.5099478251e+000	 1.0114954621e-001	 3.4298636846e+000
 1.5088958376e+000	 1.1578886535e-001	 3.4111782290e+000
 1.5076973683e+000	 1.3046997511e-001	 3.3897959973e+000
 1.5063510317e+000	 1.4519091870e-001	 3.3655774881e+000
 1.5199980000e+000	 0.0000000000e+000	 3.4829425838e+000
 1.5199301763e+000	 1.4358497319e-002	 3.4821123102e+000
 1.5197256584e+000	 2.8771541725e-002	 3.4785564498e+000
 1.5193828904e+000	 4.3237465367e-002	 3.4723970038e+000
 1.5189003363e+000	 5.7754557468e-002	 3.4637164039e+000
 1.5182764809e+000	 7.2321064403e-002	 3.4525589730e+000
 1.5175098314e+000	 8.6935189812e-002	 3.4389324401e+000
 1.5165989183e+000	 1.0159509476e-001	 3.4228095210e+000
 1.5155422969e+000	 1.1629889790e-001	 3.4041295749e+000
 1.5143385486e+000	 1.3104467573e-001	 3.3828003526e+000
 1.5129862816e+000	 1.4583046287e-001	 3.3586998512e+000
 1.5266640000e+000	 0.0000000000e+000	 3.4752520479e+000
 1.5265958788e+000	 1.4421466970e-002	 3.4746284669e+000
 1.5263904640e+000	 2.8897720245e-002	 3.4711896489e+000
 1.5260461929e+000	 4.3427084659e-002	 3.4650769968e+000
 1.5255615225e+000	 5.8007841932e-002	 3.4563927595e+000
 1.5249349311e+000	 7.2638230750e-002	 3.4452014431e+000
 1.5241649194e+000	 8.7316446875e-002	 3.4315312693e+000
 1.5232500115e+000	 1.0204064330e-001	 3.4153756915e+000
 1.5221887563e+000	 1.1680893044e-001	 3.3966949788e+000
 1.5209797289e+000	 1.3161937636e-001	 3.3754178851e+000
 1.5196215315e+000	 1.4647000704e-001	 3.3514434175e+000
 1.5333300000e+000	 0.0000000000e+000	 3.4670662849e+000
 1.5332615814e+000	 1.4484436621e-002	 3.4667028854e+000
 1.5330552697e+000	 2.9023898764e-002	 3.4634162825e+000
 1.5327094953e+000	 4.3616703950e-002	 3.4573703704e+000
 1.5322227086e+000	 5.8261126397e-002	 3.4486903791e+000
 1.5315933814e+000	 7.2955397098e-002	 3.4374642313e+000
 1.5308200075e+000	 8.7697703938e-002	 3.4237439382e+000
 1.5299011047e+000	 1.0248619185e-001	 3.4075470438e+000
 1.5288352157e+000	 1.1731896299e-001	 3.3888581301e+000
 1.5276209091e+000	 1.3219407699e-001	 3.3676303988e+000
 1.5262567814e+000	 1.4710955121e-001	 3.3437873463e+000
 1.4599042825e+000	 1.4071410950e-001	 3.4049373760e+000
 1.4584550640e+000	 1.5501567423e-001	 3.3774008060e+000
 1.4568599797e+000	 1.6935195202e-001	 3.3471437966e+000
 1.4551177738e+000	 1.8372095932e-001	 3.3142993699e+000
 1.4532272212e+000	 1.9812067448e-001	 3.2789733784e+000
 1.4511871291e+000	 2.1254903826e-001	 3.2412468559e+000
 1.4489963383e+000	 2.2700395425e-001	 3.2011786088e+000
 1.4466537240e+000	 2.4148328948e-001	 3.1588080677e+000
 1.4441581973e+000	 2.5598487495e-001	 3.1141584243e+000
 1.4415087062e+000	 2.7050650628e-001	 3.0672400760e+000
 1.4387042371e+000	 2.8504594434e-001	 3.0180544040e+000
 1.4665395324e+000	 1.4135365367e-001	 3.4000989376e+000
 1.4650837272e+000	 1.5572021887e-001	 3.3724454940e+000
 1.4634813933e+000	 1.7012165489e-001	 3.3419248888e+000
 1.4617312690e+000	 1.8455596918e-001	 3.3087055935e+000
 1.4598321239e+000	 1.9902113090e-001	 3.2729286216e+000
 1.4577827597e+000	 2.1351507144e-001	 3.2347097710e+000
 1.4555820117e+000	 2.2803568488e-001	 3.1941421039e+000
 1.4532287502e+000	 2.4258082854e-001	 3.1512986868e+000
 1.4507218814e+000	 2.5714832356e-001	 3.1062356150e+000
 1.4480603484e+000	 2.7173595555e-001	 3.0589953466e+000
 1.4452431330e+000	 2.8634147521e-001	 3.0096103715e+000
 1.4731747823e+000	 1.4199319784e-001	 3.3950371953e+000
 1.4717123904e+000	 1.5642476351e-001	 3.3673105165e+000
 1.4701028068e+000	 1.7089135777e-001	 3.3365803230e+000
 1.4683447643e+000	 1.8539097904e-001	 3.3030473195e+000
 1.4664370266e+000	 1.9992158732e-001	 3.2668844508e+000
 1.4643783902e+000	 2.1448110462e-001	 3.2282390368e+000
 1.4621676851e+000	 2.2906741550e-001	 3.1872351429e+000
 1.4598037765e+000	 2.4367836759e-001	 3.1439762091e+000
 1.4572855654e+000	 2.5831177217e-001	 3.0985479646e+000
 1.4546119906e+000	 2.7296540483e-001	 3.0510216523e+000
 1.4517820289e+000	 2.8763700608e-001	 3.0014575897e+000
 1.4798100322e+000	 1.4263274201e-001	 3.3897289091e+000
 1.4783410536e+000	 1.5712930814e-001	 3.3619689641e+000
 1.4767242204e+000	 1.7166106064e-001	 3.3310795602e+000
 1.4749582595e+000	 1.8622598890e-001	 3.2972904770e+000
 1.4730419293e+000	 2.0082204374e-001	 3.2608034197e+000
 1.4709740207e+000	 2.1544713780e-001	 3.2217940480e+000
 1.4687533585e+000	 2.3009914613e-001	 3.1804142377e+000
 1.4663788027e+000	 2.4477590665e-001	 3.1367946013e+000
 1.4638492495e+000	 2.5947522078e-001	 3.0910472929e+000
 1.4611636327e+000	 2.7419485410e-001	 3.0432691247e+000
 1.4583209248e+000	 2.8893253695e-001	 2.9935450225e+000
 1.4864452821e+000	 1.4327228618e-001	 3.3841511806e+000
 1.4849697168e+000	 1.5783385278e-001	 3.3563943620e+000
 1.4833456339e+000	 1.7243076351e-001	 3.3253925809e+000
 1.4815717548e+000	 1.8706099876e-001	 3.2914015915e+000
 1.4796468320e+000	 2.0172250015e-001	 3.2546487471e+000
 1.4775696512e+000	 2.1641317099e-001	 3.2153349239e+000
 1.4753390319e+000	 2.3113087676e-001	 3.1736366754e+000
 1.4729538289e+000	 2.4587344570e-001	 3.1297086453e+000
 1.4704129336e+000	 2.6063866939e-001	 3.0836862642e+000
 1.4677152749e+000	 2.7542430338e-001	 3.0356887592e+000
 1.4648598207e+000	 2.9022806782e-001	 2.9858225051e+000
 1.4930805319e+000	 1.4391183035e-001	 3.3782814532e+000
 1.4915983800e+000	 1.5853839741e-001	 3.3505606681e+000
 1.4899670475e+000	 1.7320046638e-001	 3.3194898819e+000
 1.4881852500e+000	 1.8789600862e-001	 3.2853477802e+000
 1.4862517347e+000	 2.0262295657e-001	 3.2483843102e+000
 1.4841652817e+000	 2.1737920417e-001	 3.2088225001e+000
 1.4819247053e+000	 2.3216260738e-001	 3.1668605080e+000
 1.4795288552e+000	 2.4697098476e-001	 3.1226739271e+000
 1.4769766177e+000	 2.6180211801e-001	 3.0764183759e+000
 1.4742669171e+000	 2.7665375265e-001	 3.0282324022e+000
 1.4713987166e+000	 2.9152359870e-001	 2.9782407310e+000
 1.4997157818e+000	 1.4455137453e-001	 3.3720975128e+000
 1.4982270431e+000	 1.5924294205e-001	 3.3444422717e+000
 1.4965884610e+000	 1.7397016925e-001	 3.3133424727e+000
 1.4947987453e+000	 1.8873101848e-001	 3.2790967465e+000
 1.4928566374e+000	 2.0352341299e-001	 3.2419746377e+000
 1.4907609122e+000	 2.1834523735e-001	 3.2022183205e+000
 1.4885103787e+000	 2.3319433801e-001	 3.1600445429e+000
 1.4861038814e+000	 2.4806852381e-001	 3.1156468256e+000
 1.4835403018e+000	 2.6296556662e-001	 3.0691979463e+000
 1.4808185593e+000	 2.7788320193e-001	 3.0208527388e+000
 1.4779376125e+000	 2.9281912957e-001	 2.9707512389e+000
 1.5063510317e+000	 1.4519091870e-001	 3.3655774881e+000
 1.5048557063e+000	 1.5994748668e-001	 3.3380139920e+000
 1.5032098746e+000	 1.7473987212e-001	 3.3069218724e+000
 1.5014122405e+000	 1.8956602834e-001	 3.2726167754e+000
 1.4994615401e+000	 2.0442386940e-001	 3.2353849034e+000
 1.4973565427e+000	 2.1931127053e-001	 3.1954846289e+000
 1.4950960520e+000	 2.3422606863e-001	 3.1531483337e+000
 1.4926789076e+000	 2.4916606286e-001	 3.1085845028e+000
 1.4901039859e+000	 2.6412901523e-001	 3.0619801034e+000
 1.4873702014e+000	 2.7911265120e-001	 3.0135032804e+000
 1.4844765083e+000	 2.9411466044e-001	 2.9633064003e+000
 1.5129862816e+000	 1.4583046287e-001	 3.3586998512e+000
 1.5114843695e+000	 1.6065203132e-001	 3.3312510768e+000
 1.5098312882e+000	 1.7550957499e-001	 3.3002001066e+000
 1.5080257358e+000	 1.9040103820e-001	 3.2658767282e+000
 1.5060664428e+000	 2.0532432582e-001	 3.2285809197e+000
 1.5039521732e+000	 2.2027730371e-001	 3.1885843612e+000
 1.5016817254e+000	 2.3525779926e-001	 3.1461321706e+000
 1.4992539339e+000	 2.5026360192e-001	 3.1014448926e+000
 1.4966676700e+000	 2.6529246384e-001	 3.0547207734e+000
 1.4939218436e+000	 2.8034210048e-001	 3.0061383525e+000
 1.4910154042e+000	 2.9541019131e-001	 2.9558594064e+000
 1.5196215315e+000	 1.4647000704e-001	 3.3514434175e+000
 1.5181130327e+000	 1.6135657595e-001	 3.3241292007e+000
 1.5164527017e+000	 1.7627927786e-001	 3.2931497037e+000
 1.5146392310e+000	 1.9123604806e-001	 3.2588460379e+000
 1.5126713455e+000	 2.0622478224e-001	 3.2215291309e+000
 1.5105478037e+000	 2.2124333689e-001	 3.1814811374e+000
 1.5082673988e+000	 2.3628952988e-001	 3.1389570715e+000
 1.5058289601e+000	 2.5136114097e-001	 3.0941866913e+000
 1.5032313541e+000	 2.6645591245e-001	 3.0473766696e+000
 1.5004734858e+000	 2.8157154976e-001	 2.9987130832e+000
 1.4975543001e+000	 2.9670572218e-001	 2.9483642563e+000
 1.5262567814e+000	 1.4710955121e-001	 3.3437873463e+000
 1.5247416959e+000	 1.6206112059e-001	 3.3166244635e+000
 1.5230741153e+000	 1.7704898073e-001	 3.2857436920e+000
 1.5212527263e+000	 1.9207105792e-001	 3.2514947039e+000
 1.5192762483e+000	 2.0712523865e-001	 3.2141966069e+000
 1.5171434342e+000	 2.2220937007e-001	 3.1741392540e+000
 1.5148530722e+000	 2.3732126051e-001	 3.1315847728e+000
 1.5124039863e+000	 2.5245868003e-001	 3.0867693467e+000
 1.5097950381e+000	 2.6761936106e-001	 3.0399052812e+000
 1.5070251280e+000	 2.8280099903e-001	 2.9911833910e+000
 1.5040931960e+000	 2.9800125306e-001	 2.9407757440e+000
 1.4387042371e+000	 2.8504594434e-001	 3.0180544040e+000
 1.4357433599e+000	 2.9960309996e-001	 2.9659001268e+000
 1.4326255505e+000	 3.1417348300e-001	 2.9101081746e+000
 1.4293499175e+000	 3.2875475001e-001	 2.8507030531e+000
 1.4259156124e+000	 3.4334452582e-001	 2.7877158438e+000
 1.4223218309e+000	 3.5794040438e-001	 2.7211898503e+000
 1.4185678132e+000	 3.7253994969e-001	 2.6511867223e+000
 1.4146528463e+000	 3.8714069672e-001	 2.5777930753e+000
 1.4105762639e+000	 4.0174015248e-001	 2.5011276264e+000
 1.4063374481e+000	 4.1633579699e-001	 2.4213488622e+000
 1.4019358304e+000	 4.3092508440e-001	 2.3386632537e+000
 1.4452431330e+000	 2.8634147521e-001	 3.0096103715e+000
 1.4422687986e+000	 3.0096479296e-001	 2.9573802991e+000
 1.4391368188e+000	 3.1560139823e-001	 2.9015967081e+000
 1.4358462981e+000	 3.3024893695e-001	 2.8422535246e+000
 1.4323963842e+000	 3.4490502314e-001	 2.7793506189e+000
 1.4287862689e+000	 3.5956723982e-001	 2.7128994849e+000
 1.4250151893e+000	 3.7423313991e-001	 2.6429294072e+000
 1.4210824289e+000	 3.8890024719e-001	 2.5694941365e+000
 1.4169873184e+000	 4.0356605733e-001	 2.4926790937e+000
 1.4127292373e+000	 4.1822803889e-001	 2.4126091195e+000
 1.4083076142e+000	 4.3288363445e-001	 2.3294567864e+000
 1.4517820289e+000	 2.8763700608e-001	 3.0014575897e+000
 1.4487942374e+000	 3.0232648595e-001	 2.9491603066e+000
 1.4456480871e+000	 3.1702931346e-001	 2.8933895611e+000
 1.4423426787e+000	 3.3174312389e-001	 2.8341106387e+000
 1.4388771559e+000	 3.4646552046e-001	 2.7712940826e+000
 1.4352507069e+000	 3.6119407526e-001	 2.7049213991e+000
 1.4314625654e+000	 3.7592633013e-001	 2.6349912614e+000
 1.4275120114e+000	 3.9065979766e-001	 2.5615262333e+000
 1.4233983730e+000	 4.0539196217e-001	 2.4845800346e+000
 1.4191210265e+000	 4.2012028078e-001	 2.4042453674e+000
 1.4146793981e+000	 4.3484218451e-001	 2.3206623180e+000
 1.4583209248e+000	 2.8893253695e-001	 2.9935450225e+000
 1.4553196761e+000	 3.0368817894e-001	 2.9411879227e+000
 1.4521593554e+000	 3.1845722870e-001	 2.8854327025e+000
 1.4488390593e+000	 3.3323731083e-001	 2.8262179317e+000
 1.4453579276e+000	 3.4802601779e-001	 2.7634866963e+000
 1.4417151449e+000	 3.6282091070e-001	 2.6971923228e+000
 1.4379099414e+000	 3.7761952035e-001	 2.6273046116e+000
 1.4339415940e+000	 3.9241934812e-001	 2.5538166016e+000
 1.4298094275e+000	 4.0721786701e-001	 2.4767518918e+000
 1.4255128156e+000	 4.2201252268e-001	 2.3961725353e+000
 1.4210511820e+000	 4.3680073457e-001	 2.3121875271e+000
 1.4648598207e+000	 2.9022806782e-001	 2.9858225051e+000
 1.4618451148e+000	 3.0504987194e-001	 2.9334117993e+000
 1.4586706238e+000	 3.1988514393e-001	 2.8776729968e+000
 1.4553354399e+000	 3.3473149777e-001	 2.8185198635e+000
 1.4518386994e+000	 3.4958651511e-001	 2.7558698850e+000
 1.4481795830e+000	 3.6444774614e-001	 2.6896500025e+000
 1.4443573175e+000	 3.7931271058e-001	 2.6198028674e+000
 1.4403711766e+000	 3.9417889859e-001	 2.5462936422e+000
 1.4362204821e+000	 4.0904377185e-001	 2.4691173686e+000
 1.4319046048e+000	 4.2390476457e-001	 2.3883069255e+000
 1.4274229658e+000	 4.3875928462e-001	 2.3039415948e+000
 1.4713987166e+000	 2.9152359870e-001	 2.9782407310e+000
 1.4683705536e+000	 3.0641156493e-001	 2.9257814526e+000
 1.4651818921e+000	 3.2131305916e-001	 2.8700581890e+000
 1.4618318205e+000	 3.3622568471e-001	 2.8109618021e+000
 1.4583194711e+000	 3.5114701243e-001	 2.7483860213e+000
 1.4546440210e+000	 3.6607458158e-001	 2.6822331836e+000
 1.4508046935e+000	 3.8100590080e-001	 2.6124205029e+000
 1.4468007592e+000	 3.9593844906e-001	 2.5388868990e+000
 1.4426315366e+000	 4.1086967669e-001	 2.4616004064e+000
 1.4382963940e+000	 4.2579700647e-001	 2.3805661887e+000
 1.4337947497e+000	 4.4071783468e-001	 2.2958351767e+000
 1.4779376125e+000	 2.9281912957e-001	 2.9707512389e+000
 1.4748959923e+000	 3.0777325792e-001	 2.9182472503e+000
 1.4716931604e+000	 3.2274097440e-001	 2.8625368915e+000
 1.4683282011e+000	 3.3771987166e-001	 2.8034900090e+000
 1.4648002428e+000	 3.5270750975e-001	 2.7409784090e+000
 1.4611084590e+000	 3.6770141702e-001	 2.6748815934e+000
 1.4572520696e+000	 3.8269909102e-001	 2.6050930376e+000
 1.4532303417e+000	 3.9769799952e-001	 2.5315270392e+000
 1.4490425912e+000	 4.1269558154e-001	 2.4541261618e+000
 1.4446881832e+000	 4.2768924837e-001	 2.3728692985e+000
 1.4401665336e+000	 4.4267638473e-001	 2.2877803758e+000
 1.4844765083e+000	 2.9411466044e-001	 2.9633064003e+000
 1.4814214311e+000	 3.0913495092e-001	 2.9107603977e+000
 1.4782044288e+000	 3.2416888963e-001	 2.8550585693e+000
 1.4748245817e+000	 3.3921405860e-001	 2.7960516243e+000
 1.4712810145e+000	 3.5426800708e-001	 2.7335912675e+000
 1.4675728971e+000	 3.6932825246e-001	 2.6675359239e+000
 1.4636994457e+000	 3.8439228124e-001	 2.5977570175e+000
 1.4596599243e+000	 3.9945754999e-001	 2.5241458324e+000
 1.4554536457e+000	 4.1452148638e-001	 2.4466209845e+000
 1.4510799724e+000	 4.2958149026e-001	 2.3651365274e+000
 1.4465383175e+000	 4.4463493479e-001	 2.2796907156e+000
 1.4910154042e+000	 2.9541019131e-001	 2.9558594064e+000
 1.4879468698e+000	 3.1049664391e-001	 2.9032729254e+000
 1.4847156971e+000	 3.2559680487e-001	 2.8475735270e+000
 1.4813209624e+000	 3.4070824554e-001	 2.7885946521e+000
 1.4777617863e+000	 3.5582850440e-001	 2.7261697161e+000
 1.4740373351e+000	 3.7095508790e-001	 2.6601378149e+000
 1.4701468217e+000	 3.8608547147e-001	 2.5903499972e+000
 1.4660895069e+000	 4.0121710046e-001	 2.5166761310e+000
 1.4618647003e+000	 4.1634739122e-001	 2.4390123953e+000
 1.4574717615e+000	 4.3147373216e-001	 2.3572894223e+000
 1.4529101013e+000	 4.4659348485e-001	 2.2714811133e+000
 1.4975543001e+000	 2.9670572218e-001	 2.9483642563e+000
 1.4944723085e+000	 3.1185833691e-001	 2.8957376756e+000
 1.4912269654e+000	 3.2702472010e-001	 2.8400328949e+000
 1.4878173430e+000	 3.4220243249e-001	 2.7810679464e+000
 1.4842425580e+000	 3.5738900172e-001	 2.7186597587e+000
 1.4805017731e+000	 3.7258192334e-001	 2.6526298374e+000
 1.4765941978e+000	 3.8777866169e-001	 2.5828105219e+000
 1.4725190895e+000	 4.0297665093e-001	 2.5090518503e+000
 1.4682757548e+000	 4.1817329607e-001	 2.4312290647e+000
 1.4638635507e+000	 4.3336597406e-001	 2.3492507816e+000
 1.4592818852e+000	 4.4855203490e-001	 2.2630678543e+000
 1.5040931960e+000	 2.9800125306e-001	 2.9407757440e+000
 1.5009977473e+000	 3.1322002990e-001	 2.8881082901e+000
 1.4977382337e+000	 3.2845263534e-001	 2.8323886158e+000
 1.4943137236e+000	 3.4369661943e-001	 2.7734211964e+000
 1.4907233297e+000	 3.5894949905e-001	 2.7110082687e+000
 1.4869662112e+000	 3.7420875878e-001	 2.6449554774e+000
 1.4830415738e+000	 3.8947185191e-001	 2.5750781092e+000
 1.4789486721e+000	 4.0473620139e-001	 2.5012079492e+000
 1.4746868094e+000	 4.1999920091e-001	 2.4232007914e+000
 1.4702553399e+000	 4.3525821595e-001	 2.3409446311e+000
 1.4656536691e+000	 4.5051058496e-001	 2.2543685667e+000
 1.4019358304e+000	 4.3092508440e-001	 2.3386632537e+000
 1.3973708919e+000	 4.4550544387e-001	 2.2544602229e+000
 1.3926421637e+000	 4.6007428010e-001	 2.1698895192e+000
 1.3877492286e+000	 4.7462897510e-001	 2.0849077726e+000
 1.3826917224e+000	 4.8916688967e-001	 1.9995724608e+000
 1.3774693348e+000	 5.0368536462e-001	 1.9140543233e+000
 1.3720818103e+000	 5.1818172212e-001	 1.8286503369e+000
 1.3665289489e+000	 5.3265326705e-001	 1.7437972360e+000
 1.3608106067e+000	 5.4709728833e-001	 1.6600855566e+000
 1.3549266970e+000	 5.6151106040e-001	 1.5782741789e+000
 1.3488771907e+000	 5.7589184460e-001	 1.4993053337e+000
 1.4083076142e+000	 4.3288363445e-001	 2.3294567864e+000
 1.4037219281e+000	 4.4753026151e-001	 2.2446776576e+000
 1.3989717079e+000	 4.6216531295e-001	 2.1595233582e+000
 1.3940565345e+000	 4.7678615889e-001	 2.0739691968e+000
 1.3889760420e+000	 4.9139014813e-001	 1.9880901744e+000
 1.3837299187e+000	 5.0597460939e-001	 1.9020734732e+000
 1.3783179080e+000	 5.2053685269e-001	 1.8162315273e+000
 1.3727398088e+000	 5.3507417064e-001	 1.7310156589e+000
 1.3669954768e+000	 5.4958383986e-001	 1.6470302591e+000
 1.3610848248e+000	 5.6406312237e-001	 1.5650474891e+000
 1.3550078236e+000	 5.7850926709e-001	 1.4860224669e+000
 1.4146793981e+000	 4.3484218451e-001	 2.3206623180e+000
 1.4100729644e+000	 4.4955507915e-001	 2.2353448230e+000
 1.4053012522e+000	 4.6425634580e-001	 2.1496373975e+000
 1.4003638404e+000	 4.7894334268e-001	 2.0635336010e+000
 1.3952603616e+000	 4.9361340659e-001	 1.9771256150e+000
 1.3899905026e+000	 5.0826385417e-001	 1.8906168083e+000
 1.3845540057e+000	 5.2289198327e-001	 1.8043349045e+000
 1.3789506688e+000	 5.3749507424e-001	 1.7187457362e+000
 1.3731803470e+000	 5.5207039138e-001	 1.6344675654e+000
 1.3672429527e+000	 5.6661518434e-001	 1.5522859459e+000
 1.3611384565e+000	 5.8112668957e-001	 1.4731690936e+000
 1.4210511820e+000	 4.3680073457e-001	 2.3121875271e+000
 1.4164240007e+000	 4.5157989679e-001	 2.2263625008e+000
 1.4116307964e+000	 4.6634737865e-001	 2.1401269839e+000
 1.4066711463e+000	 4.8110052647e-001	 2.0534923664e+000
 1.4015446812e+000	 4.9583666505e-001	 1.9665676719e+000
 1.3962510865e+000	 5.1055309895e-001	 1.8795722007e+000
 1.3907901033e+000	 5.2524711384e-001	 1.7928487965e+000
 1.3851615288e+000	 5.3991597783e-001	 1.7068777204e+000
 1.3793652171e+000	 5.5455694290e-001	 1.6222911135e+000
 1.3734010805e+000	 5.6916724631e-001	 1.5398880231e+000
 1.3672690894e+000	 5.8374411205e-001	 1.4606499606e+000
 1.4274229658e+000	 4.3875928462e-001	 2.3039415948e+000
 1.4227750370e+000	 4.5360471443e-001	 2.2176331018e+000
 1.4179603407e+000	 4.6843841150e-001	 2.1308891987e+000
 1.4129784522e+000	 4.8325771026e-001	 2.0437386924e+000
 1.4078290008e+000	 4.9805992351e-001	 1.9563071143e+000
 1.4025116704e+000	 5.1284234373e-001	 1.8688294430e+000
 1.3970262010e+000	 5.2760224441e-001	 1.7816634713e+000
 1.3913723887e+000	 5.4233688143e-001	 1.6953038026e+000
 1.3855500873e+000	 5.5704349442e-001	 1.6103964577e+000
 1.3795592084e+000	 5.7171930827e-001	 1.5277540684e+000
 1.3733997223e+000	 5.8636153454e-001	 1.4483716246e+000
 1.4337947497e+000	 4.4071783468e-001	 2.2958351767e+000
 1.4291260732e+000	 4.5562953206e-001	 2.2090606360e+000
 1.4242898849e+000	 4.7052944435e-001	 2.1218228255e+000
 1.4192857581e+000	 4.8541489404e-001	 2.0341675628e+000
 1.4141133204e+000	 5.0028318196e-001	 1.9462365575e+000
 1.4087722543e+000	 5.1513158850e-001	 1.8582802145e+000
 1.4032622986e+000	 5.2995737498e-001	 1.7706711039e+000
 1.3975832487e+000	 5.4475778502e-001	 1.6839180807e+000
 1.3917349575e+000	 5.5953004595e-001	 1.5986810391e+000
 1.3857173362e+000	 5.7427137024e-001	 1.5157862754e+000
 1.3795303552e+000	 5.8897895702e-001	 1.4362424281e+000
 1.4401665336e+000	 4.4267638473e-001	 2.2877803758e+000
 1.4354771095e+000	 4.5765434970e-001	 2.2005506828e+000
 1.4306194292e+000	 4.7262047719e-001	 2.1128283188e+000
 1.4255930640e+000	 4.8757207783e-001	 2.0246757136e+000
 1.4203976400e+000	 5.0250644042e-001	 1.9362504295e+000
 1.4150328382e+000	 5.1742083328e-001	 1.8478180484e+000
 1.4094983963e+000	 5.3231250556e-001	 1.7597657439e+000
 1.4037941086e+000	 5.4717868861e-001	 1.6726165285e+000
 1.3979198276e+000	 5.6201659747e-001	 1.5870441560e+000
 1.3918754640e+000	 5.7682343221e-001	 1.5038886571e+000
 1.3856609881e+000	 5.9159637950e-001	 1.4241724760e+000
 1.4465383175e+000	 4.4463493479e-001	 2.2796907156e+000
 1.4418281458e+000	 4.5967916734e-001	 2.1920103617e+000
 1.4369489734e+000	 4.7471151004e-001	 2.1038077732e+000
 1.4319003699e+000	 4.8972926162e-001	 2.0151616006e+000
 1.4266819596e+000	 5.0472969888e-001	 1.9262449390e+000
 1.4212934221e+000	 5.1971007806e-001	 1.8373382990e+000
 1.4157344939e+000	 5.3466763613e-001	 1.7488432841e+000
 1.4100049686e+000	 5.4959959221e-001	 1.6612969653e+000
 1.4041046978e+000	 5.6450314899e-001	 1.5753869355e+000
 1.3980335919e+000	 5.7937549418e-001	 1.4919670200e+000
 1.3917916210e+000	 5.9421380199e-001	 1.4120736120e+000
 1.4529101013e+000	 4.4659348485e-001	 2.2714811133e+000
 1.4481791820e+000	 4.6170398498e-001	 2.1833483038e+000
 1.4432785177e+000	 4.7680254289e-001	 2.0946648931e+000
 1.4382076758e+000	 4.9188644541e-001	 2.0055253685e+000
 1.4329662792e+000	 5.0695295734e-001	 1.9161180432e+000
 1.4275540060e+000	 5.2199932284e-001	 1.8267381104e+000
 1.4219705916e+000	 5.3702276670e-001	 1.7378014286e+000
 1.4162158286e+000	 5.5202049580e-001	 1.6498590254e+000
 1.4102895679e+000	 5.6698970051e-001	 1.5636123053e+000
 1.4041917197e+000	 5.8192755614e-001	 1.4799289380e+000
 1.3979222539e+000	 5.9683122447e-001	 1.3998593964e+000
 1.4592818852e+000	 4.4855203490e-001	 2.2630678543e+000
 1.4545302183e+000	 4.6372880262e-001	 2.1744746238e+000
 1.4496080619e+000	 4.7889357574e-001	 2.0853049628e+000
 1.4445149818e+000	 4.9404362919e-001	 1.9956688201e+000
 1.4392505988e+000	 5.0917621580e-001	 1.9057694164e+000
 1.4338145899e+000	 5.2428856761e-001	 1.8159163849e+000
 1.4282066893e+000	 5.3937789727e-001	 1.7265396631e+000
 1.4224266885e+000	 5.5444139940e-001	 1.6382041295e+000
 1.4164744381e+000	 5.6947625203e-001	 1.5516249662e+000
 1.4103498476e+000	 5.8447961811e-001	 1.4676837275e+000
 1.4040528868e+000	 5.9944864695e-001	 1.3874450833e+000
 1.4656536691e+000	 4.5051058496e-001	 2.2543685667e+000
 1.4608812546e+000	 4.6575362026e-001	 2.1653008925e+000
 1.4559376062e+000	 4.8098460859e-001	 2.0756348180e+000
 1.4508222877e+000	 4.9620081298e-001	 1.9854953858e+000
 1.4455349184e+000	 5.1139947426e-001	 1.8951004202e+000
 1.4400751738e+000	 5.2657781239e-001	 1.8047737527e+000
 1.4344427869e+000	 5.4173302785e-001	 1.7149592247e+000
 1.4286375485e+000	 5.5686230299e-001	 1.6262354559e+000
 1.4226593082e+000	 5.7196280356e-001	 1.5393313653e+000
 1.4165079754e+000	 5.8703168008e-001	 1.4551424225e+000
 1.4101835197e+000	 6.0206606944e-001	 1.3747475993e+000
 1.3488771907e+000	 5.7589184460e-001	 1.4993053337e+000
 1.3426630618e+000	 5.9023474197e-001	 1.4141330593e+000
 1.3362835043e+000	 6.0453915355e-001	 1.3147084826e+000
 1.3297386669e+000	 6.1880231245e-001	 1.2038086873e+000
 1.3230287580e+000	 6.3302144475e-001	 1.0846539427e+000
 1.3161540465e+000	 6.4719377119e-001	 9.6116732868e-001
 1.3091148620e+000	 6.6131650867e-001	 8.3754929586e-001
 1.3019115954e+000	 6.7538687194e-001	 7.1833609148e-001
 1.2945446989e+000	 6.8940207522e-001	 6.0794580853e-001
 1.2870146864e+000	 7.0335933386e-001	 5.0971812052e-001
 1.2793221339e+000	 7.1725586600e-001	 4.2685770832e-001
 1.3550078236e+000	 5.7850926709e-001	 1.4860224669e+000
 1.3487654515e+000	 5.9291735277e-001	 1.4008280794e+000
 1.3423568991e+000	 6.0728677776e-001	 1.3013314656e+000
 1.3357823154e+000	 6.2161476256e-001	 1.1903353156e+000
 1.3290419100e+000	 6.3589852068e-001	 1.0709168178e+000
 1.3221359530e+000	 6.5013526020e-001	 9.4679813749e-001
 1.3150647755e+000	 6.6432218537e-001	 8.2222404093e-001
 1.3078287701e+000	 6.7845649830e-001	 7.0200062850e-001
 1.3004283911e+000	 6.9253540054e-001	 5.9063398118e-001
 1.2928641549e+000	 7.0655609477e-001	 4.9147437922e-001
 1.2851366398e+000	 7.2051578651e-001	 4.0778655180e-001
 1.3611384565e+000	 5.8112668957e-001	 1.4731690936e+000
 1.3548678413e+000	 5.9559996358e-001	 1.3879127006e+000
 1.3484302938e+000	 6.1003440197e-001	 1.2883010663e+000
 1.3418259639e+000	 6.2442721268e-001	 1.1771422687e+000
 1.3350550621e+000	 6.3877559661e-001	 1.0574901932e+000
 1.3281178596e+000	 6.5307674920e-001	 9.3277817222e-001
 1.3210146890e+000	 6.6732786208e-001	 8.0724643161e-001
 1.3137459449e+000	 6.8152612466e-001	 6.8614250155e-001
 1.3063120834e+000	 6.9566872585e-001	 5.7386477327e-001
 1.2987136233e+000	 7.0975285568e-001	 4.7380434263e-001
 1.2909511456e+000	 7.2377570701e-001	 3.8928248928e-001
 1.3672690894e+000	 5.8374411205e-001	 1.4606499606e+000
 1.3609702310e+000	 5.9828257438e-001	 1.3752978258e+000
 1.3545036885e+000	 6.1278202618e-001	 1.2755327077e+000
 1.3478696124e+000	 6.2723966280e-001	 1.1641640253e+000
 1.3410682141e+000	 6.4165267254e-001	 1.0442481310e+000
 1.3340997661e+000	 6.5601823821e-001	 9.1910313981e-001
 1.3269646026e+000	 6.7033353878e-001	 7.9267367498e-001
 1.3196631196e+000	 6.8459575102e-001	 6.7080014177e-001
 1.3121957757e+000	 6.9880205116e-001	 5.5767100361e-001
 1.3045630918e+000	 7.1294961659e-001	 4.5673383001e-001
 1.2967656515e+000	 7.2703562752e-001	 3.7136303068e-001
 1.3733997223e+000	 5.8636153454e-001	 1.4483716246e+000
 1.3670726208e+000	 6.0096518519e-001	 1.3628961117e+000
 1.3605770832e+000	 6.1552965038e-001	 1.2629435432e+000
 1.3539132609e+000	 6.3005211292e-001	 1.1513206634e+000
 1.3470813661e+000	 6.4452974846e-001	 1.0310820536e+000
 1.3400816726e+000	 6.5895972721e-001	 9.0554527835e-001
 1.3329145161e+000	 6.7333921548e-001	 7.7856868053e-001
 1.3255802944e+000	 6.8766537738e-001	 6.5601343230e-001
 1.3180794680e+000	 7.0193537647e-001	 5.4208695348e-001
 1.3104125602e+000	 7.1614637750e-001	 4.4029016002e-001
 1.3025801574e+000	 7.3029554802e-001	 3.5404724792e-001
 1.3795303552e+000	 5.8897895702e-001	 1.4362424281e+000
 1.3731750105e+000	 6.0364779599e-001	 1.3506219470e+000
 1.3666504780e+000	 6.1827727459e-001	 1.2504524390e+000
 1.3599569094e+000	 6.3286456303e-001	 1.1385339856e+000
 1.3530945182e+000	 6.4740682439e-001	 1.0179151891e+000
 1.3460635792e+000	 6.6190121622e-001	 8.9190864219e-001
 1.3388644296e+000	 6.7634489218e-001	 7.6473569509e-001
 1.3314974691e+000	 6.9073500373e-001	 6.4182365489e-001
 1.3239631603e+000	 7.0506870179e-001	 5.2714831106e-001
 1.3162620287e+000	 7.1934313840e-001	 4.2450209231e-001
 1.3083946633e+000	 7.3355546852e-001	 3.3735571328e-001
 1.3856609881e+000	 5.9159637950e-001	 1.4241724760e+000
 1.3792774003e+000	 6.0633040679e-001	 1.3383914328e+000
 1.3727238727e+000	 6.2102489880e-001	 1.2379799555e+000
 1.3660005579e+000	 6.3567701315e-001	 1.1257275039e+000
 1.3591076702e+000	 6.5028390032e-001	 1.0046725202e+000
 1.3520454857e+000	 6.6484270522e-001	 8.7811823225e-001
 1.3448143431e+000	 6.7935056888e-001	 7.5086225319e-001
 1.3374146439e+000	 6.9380463009e-001	 6.2810071229e-001
 1.3298468526e+000	 7.0820202710e-001	 5.1289211605e-001
 1.3221114972e+000	 7.2253989931e-001	 4.0939976949e-001
 1.3142091692e+000	 7.3681538903e-001	 3.2131043826e-001
 1.3917916210e+000	 5.9421380199e-001	 1.4120736120e+000
 1.3853797900e+000	 6.0901301760e-001	 1.3261223619e+000
 1.3787972674e+000	 6.2377252300e-001	 1.2254483302e+000
 1.3720442065e+000	 6.3848946327e-001	 1.1128264231e+000
 1.3651208223e+000	 6.5316097624e-001	 9.9128076953e-001
 1.3580273923e+000	 6.6778419422e-001	 8.6411155634e-001
 1.3507642567e+000	 6.8235624558e-001	 7.3691456478e-001
 1.3433318187e+000	 6.9687425645e-001	 6.1434231953e-001
 1.3357305449e+000	 7.1133535241e-001	 4.9928332406e-001
 1.3279609656e+000	 7.2573666022e-001	 3.9501465959e-001
 1.3200236751e+000	 7.4007530953e-001	 3.0593481289e-001
 1.3979222539e+000	 5.9683122447e-001	 1.3998593964e+000
 1.3914821798e+000	 6.1169562840e-001	 1.3137341991e+000
 1.3848706621e+000	 6.2652014721e-001	 1.2127814601e+000
 1.3780878550e+000	 6.4130191338e-001	 1.0997576263e+000
 1.3711339743e+000	 6.5603805217e-001	 9.7766838600e-001
 1.3640092988e+000	 6.7072568323e-001	 8.4994412545e-001
 1.3567141702e+000	 6.8536192228e-001	 7.2286039657e-001
 1.3492489934e+000	 6.9994388280e-001	 6.0048264835e-001
 1.3416142371e+000	 7.1446867772e-001	 4.8569748797e-001
 1.3338104341e+000	 7.2893342113e-001	 3.8137573400e-001
 1.3258381810e+000	 7.4333523003e-001	 2.9125354562e-001
 1.4040528868e+000	 5.9944864695e-001	 1.3874450833e+000
 1.3975845695e+000	 6.1437823920e-001	 1.3011480623e+000
 1.3909440569e+000	 6.2926777142e-001	 1.1999048848e+000
 1.3841315035e+000	 6.4411436350e-001	 1.0864496590e+000
 1.3771471263e+000	 6.5891512810e-001	 9.6376553098e-001
 1.3699912054e+000	 6.7366717223e-001	 8.3561304055e-001
 1.3626640837e+000	 6.8836759898e-001	 7.0866796092e-001
 1.3551661682e+000	 7.0301350916e-001	 5.8648831360e-001
 1.3474979294e+000	 7.1760200303e-001	 4.7195472135e-001
 1.3396599025e+000	 7.3213018203e-001	 3.6792910433e-001
 1.3316526868e+000	 7.4659515053e-001	 2.7729260356e-001
 1.4101835197e+000	 6.0206606944e-001	 1.3747475993e+000
 1.4036869593e+000	 6.1706085001e-001	 1.2882867029e+000
 1.3970174516e+000	 6.3201539562e-001	 1.1867457697e+000
 1.3901751520e+000	 6.4692681362e-001	 1.0728327148e+000
 1.3831602784e+000	 6.6179220402e-001	 9.4950406484e-001
 1.3759731119e+000	 6.7660866123e-001	 8.2108729890e-001
 1.3686139973e+000	 6.9137327568e-001	 6.9430590673e-001
 1.3610833429e+000	 7.0608313551e-001	 5.7232642546e-001
 1.3533816217e+000	 7.2073532834e-001	 4.5801944661e-001
 1.3455093710e+000	 7.3532694294e-001	 3.5423378303e-001
 1.3374671927e+000	 7.4985507103e-001	 2.6379013455e-001
 1.2793221339e+000	 7.1725586600e-001	 4.2685770832e-001
 1.2714664889e+000	 7.3109096470e-001	 3.5028422515e-001
 1.2634495946e+000	 7.4485976890e-001	 2.6935890826e-001
 1.2552722144e+000	 7.5855951497e-001	 1.8479870730e-001
 1.2469351742e+000	 7.7218744891e-001	 9.7232736787e-002
 1.2384393619e+000	 7.8574082812e-001	 7.1979516687e-003
 1.2297857273e+000	 7.9921692312e-001	-8.4864497445e-002
 1.2209752820e+000	 8.1261301928e-001	-1.7861220013e-001
 1.2120090993e+000	 8.2592641853e-001	-2.7380368905e-001
 1.2028883134e+000	 8.3915444111e-001	-3.7029989093e-001
 1.1936141197e+000	 8.5229442729e-001	-4.6806481219e-001
 1.2851366398e+000	 7.2051578651e-001	 4.0778655180e-001
 1.2772452910e+000	 7.3441376558e-001	 3.3057514084e-001
 1.2691919599e+000	 7.4824514886e-001	 2.4922537526e-001
 1.2609774137e+000	 7.6200716013e-001	 1.6441983056e-001
 1.2526024817e+000	 7.7569703289e-001	 7.6752921531e-002
 1.2440680560e+000	 7.8931201207e-001	-1.3273419737e-002
 1.2353750907e+000	 8.0284935579e-001	-1.0525336883e-001
 1.2265246021e+000	 8.1630633706e-001	-1.9888010720e-001
 1.2175176681e+000	 8.2968024557e-001	-2.9394796908e-001
 1.2083554283e+000	 8.4296838938e-001	-3.9035381801e-001
 1.1990390835e+000	 8.5616809666e-001	-4.8809763927e-001
 1.2909511456e+000	 7.2377570701e-001	 3.8928248928e-001
 1.2830240930e+000	 7.3773656647e-001	 3.1140470112e-001
 1.2749343253e+000	 7.5163052882e-001	 2.2960014722e-001
 1.2666826129e+000	 7.6545480529e-001	 1.4451954569e-001
 1.2582697892e+000	 7.7920661687e-001	 5.6725194427e-002
 1.2496967501e+000	 7.9288319602e-001	-3.3313353161e-002
 1.2409644542e+000	 8.0648178845e-001	-1.2522289788e-001
 1.2320739221e+000	 8.1999965484e-001	-2.1872945950e-001
 1.2230262369e+000	 8.3343407261e-001	-3.1366037175e-001
 1.2138225433e+000	 8.4678233765e-001	-4.0994558796e-001
 1.2044640473e+000	 8.6004176603e-001	-5.0761818374e-001
 1.2967656515e+000	 7.2703562752e-001	 3.7136303068e-001
 1.2888028951e+000	 7.4105936735e-001	 2.9278199852e-001
 1.2806766906e+000	 7.5501590878e-001	 2.1048494140e-001
 1.2723878122e+000	 7.6890245046e-001	 1.2509323110e-001
 1.2639370967e+000	 7.8271620085e-001	 3.7139623247e-002
 1.2553254442e+000	 7.9645437997e-001	-5.2936074122e-002
 1.2465538176e+000	 8.1011422111e-001	-1.4479059953e-001
 1.2376232422e+000	 8.2369297262e-001	-2.3818007370e-001
 1.2285348058e+000	 8.3718789965e-001	-3.3296204656e-001
 1.2192896583e+000	 8.5059628592e-001	-4.2909673575e-001
 1.2098890112e+000	 8.6391543540e-001	-5.2664744286e-001
 1.3025801574e+000	 7.3029554802e-001	 3.5404724792e-001
 1.2945816972e+000	 7.4438216824e-001	 2.7471775505e-001
 1.2864190560e+000	 7.5840128873e-001	 1.9188315697e-001
 1.2780930114e+000	 7.7235009562e-001	 1.0613798520e-001
 1.2696044042e+000	 7.8622578483e-001	 1.7988020096e-002
 1.2609541384e+000	 8.0002556392e-001	-7.2154052532e-002
 1.2521431810e+000	 8.1374665377e-001	-1.6397223428e-001
 1.2431725622e+000	 8.2738629040e-001	-2.5725002498e-001
 1.2340433746e+000	 8.4094172670e-001	-3.5187242569e-001
 1.2247567732e+000	 8.5441023418e-001	-4.4782711376e-001
 1.2153139750e+000	 8.6778910477e-001	-5.4520477602e-001
 1.3083946633e+000	 7.3355546852e-001	 3.3735571328e-001
 1.3003604992e+000	 7.4770496912e-001	 2.5722425736e-001
 1.2921614213e+000	 7.6178666869e-001	 1.7379980748e-001
 1.2837982107e+000	 7.7579774078e-001	 8.7652556573e-002
 1.2752717117e+000	 7.8973536881e-001	-7.3613016768e-004
 1.2665828325e+000	 8.0359674787e-001	-9.0978075610e-002
 1.2577325445e+000	 8.1737908643e-001	-1.8278188200e-001
 1.2487218823e+000	 8.3107960818e-001	-2.7595572131e-001
 1.2395519435e+000	 8.4469555374e-001	-3.7040929828e-001
 1.2302238882e+000	 8.5822418245e-001	-4.6615496571e-001
 1.2207389389e+000	 8.7166277413e-001	-5.6330797791e-001
 1.3142091692e+000	 7.3681538903e-001	 3.2131043826e-001
 1.3061393013e+000	 7.5102777000e-001	 2.4031529249e-001
 1.2979037867e+000	 7.6517204865e-001	 1.5624145392e-001
 1.2895034099e+000	 7.7924538594e-001	 6.9637274897e-002
 1.2809390192e+000	 7.9324495279e-001	-1.9037740789e-002
 1.2722115266e+000	 8.0716793182e-001	-1.0941732004e-001
 1.2633219079e+000	 8.2101151909e-001	-2.0123201493e-001
 1.2542712023e+000	 8.3477292596e-001	-2.9431197692e-001
 1.2450605123e+000	 8.4844938078e-001	-3.8858888399e-001
 1.2356910031e+000	 8.6203813071e-001	-4.8409699984e-001
 1.2261639027e+000	 8.7553644350e-001	-5.8097335094e-001
 1.3200236751e+000	 7.4007530953e-001	 3.0593481289e-001
 1.3119181033e+000	 7.5435057089e-001	 2.2400608413e-001
 1.3036461521e+000	 7.6855742860e-001	 1.3921613844e-001
 1.2952086092e+000	 7.8269303110e-001	 5.2093982477e-002
 1.2866063267e+000	 7.9675453677e-001	-3.6920193265e-002
 1.2778402207e+000	 8.1073911576e-001	-1.2747942340e-001
 1.2689112713e+000	 8.2464395175e-001	-2.1933356999e-001
 1.2598205224e+000	 8.3846624374e-001	-3.1233208505e-001
 1.2505690811e+000	 8.5220320782e-001	-4.0642590576e-001
 1.2411581181e+000	 8.6585207898e-001	-5.0166846134e-001
 1.2315888666e+000	 8.7941011287e-001	-5.9821577694e-001
 1.3258381810e+000	 7.4333523003e-001	 2.9125354562e-001
 1.3176969054e+000	 7.5767337177e-001	 2.0831322950e-001
 1.3093885174e+000	 7.7194280856e-001	 1.2273331865e-001
 1.3009138084e+000	 7.8614067626e-001	 3.5025966460e-002
 1.2922736341e+000	 8.0026412075e-001	-5.4385406817e-002
 1.2834689148e+000	 8.1431029971e-001	-1.4517055487e-001
 1.2745006347e+000	 8.2827638441e-001	-2.3709602034e-001
 1.2653698424e+000	 8.4215956151e-001	-3.3002788993e-001
 1.2560776500e+000	 8.5595703486e-001	-4.2393366185e-001
 1.2466252331e+000	 8.6966602725e-001	-5.1888320402e-001
 1.2370138304e+000	 8.8328378223e-001	-6.1504878817e-001
 1.3316526868e+000	 7.4659515053e-001	 2.7729260356e-001
 1.3234757075e+000	 7.6099617265e-001	 1.9325463673e-001
 1.3151308828e+000	 7.7532818851e-001	 1.0680380251e-001
 1.3066190077e+000	 7.8958832142e-001	 1.8437891661e-002
 1.2979409416e+000	 8.0377370473e-001	-7.1433907194e-002
 1.2890976089e+000	 8.1788148366e-001	-1.6249548531e-001
 1.2800899982e+000	 8.3190881707e-001	-2.5452744623e-001
 1.2709191625e+000	 8.4585287929e-001	-3.4740985807e-001
 1.2615862188e+000	 8.5971086190e-001	-4.4112409717e-001
 1.2520923480e+000	 8.7347997551e-001	-5.3575376136e-001
 1.2424387943e+000	 8.8715745160e-001	-6.3148463762e-001
 1.3374671927e+000	 7.4985507103e-001	 2.6379013455e-001
 1.3292545095e+000	 7.6431897353e-001	 1.7884946269e-001
 1.3208732481e+000	 7.7871356847e-001	 9.1439683783e-002
 1.3123242069e+000	 7.9303596658e-001	 2.3357340004e-003
 1.3036082491e+000	 8.0728328871e-001	-8.8064894849e-002
 1.2947263030e+000	 8.2145266760e-001	-1.7945765656e-001
 1.2856793616e+000	 8.3554124973e-001	-2.7163460518e-001
 1.2764684825e+000	 8.4954619707e-001	-3.6448714886e-001
 1.2670947876e+000	 8.6346468893e-001	-4.5800787394e-001
 1.2575594630e+000	 8.7729392378e-001	-5.5229141684e-001
 1.2478637581e+000	 8.9103112097e-001	-6.4753436871e-001
 1.1936141197e+000	 8.5229442729e-001	-4.6806481219e-001
 1.1841877734e+000	 8.6534373878e-001	-5.6328544354e-001
 1.1746105887e+000	 8.7829975955e-001	-6.5238955996e-001
 1.1648839386e+000	 8.9115989836e-001	-7.3585602740e-001
 1.1550092550e+000	 9.0392159075e-001	-8.1426317268e-001
 1.1449880282e+000	 9.1658230064e-001	-8.8828524039e-001
 1.1348218059e+000	 9.2913952205e-001	-9.5868812306e-001
 1.1245121926e+000	 9.4159078064e-001	-1.0263243921e+000
 1.1140608486e+000	 9.5393363537e-001	-1.0921276623e+000
 1.1034694896e+000	 9.6616568008e-001	-1.1571063295e+000
 1.0927398850e+000	 9.7828454497e-001	-1.2223367228e+000
 1.1990390835e+000	 8.5616809666e-001	-4.8809763927e-001
 1.1895698946e+000	 8.6927671713e-001	-5.8338837749e-001
 1.1799491817e+000	 8.8229162288e-001	-6.7262932038e-001
 1.1701783240e+000	 8.9521021090e-001	-7.5626819617e-001
 1.1602587602e+000	 9.0802990504e-001	-8.3485561268e-001
 1.1501919870e+000	 9.2074815773e-001	-9.0904147026e-001
 1.1399795593e+000	 9.3336245158e-001	-9.7957062528e-001
 1.1296230889e+000	 9.4587030101e-001	-1.0472778323e+000
 1.1191242437e+000	 9.5826925389e-001	-1.1130819990e+000
 1.1084847470e+000	 9.7055689311e-001	-1.1779797928e+000
 1.0977063765e+000	 9.8273083812e-001	-1.2430386448e+000
 1.2044640473e+000	 8.6004176603e-001	-5.0761818374e-001
 1.1949520158e+000	 8.7320969549e-001	-6.0292491048e-001
 1.1852877747e+000	 8.8628348622e-001	-6.9226192420e-001
 1.1754727095e+000	 8.9926052343e-001	-7.7604515496e-001
 1.1655082653e+000	 9.1213821933e-001	-8.5479683468e-001
 1.1553959458e+000	 9.2491401482e-001	-9.2914186448e-001
 1.1451373127e+000	 9.3758538110e-001	-9.9980340961e-001
 1.1347339852e+000	 9.5014982138e-001	-1.0675977506e+000
 1.1241876387e+000	 9.6260487241e-001	-1.1334284254e+000
 1.1135000044e+000	 9.7494810615e-001	-1.1982797032e+000
 1.1026728680e+000	 9.8717713127e-001	-1.2632094348e+000
 1.2098890112e+000	 8.6391543540e-001	-5.2664744286e-001
 1.2003341370e+000	 8.7714267384e-001	-6.2191467355e-001
 1.1906263677e+000	 8.9027534955e-001	-7.1130488479e-001
 1.1807670950e+000	 9.0331083596e-001	-7.9520154972e-001
 1.1707577704e+000	 9.1624653363e-001	-8.7409787136e-001
 1.1605999045e+000	 9.2907987191e-001	-9.4859310291e-001
 1.1502950661e+000	 9.4180831063e-001	-1.0193880721e+000
 1.1398448815e+000	 9.5442934175e-001	-1.0872799387e+000
 1.1292510338e+000	 9.6694049093e-001	-1.1531562216e+000
 1.1185152619e+000	 9.7933931918e-001	-1.2179881360e+000
 1.1076393595e+000	 9.9162342442e-001	-1.2828232874e+000
 1.2153139750e+000	 8.6778910477e-001	-5.4520477602e-001
 1.2057162582e+000	 8.8107565220e-001	-6.4037571275e-001
 1.1959649607e+000	 8.9426721288e-001	-7.2977419022e-001
 1.1860614805e+000	 9.0736114849e-001	-8.1375056749e-001
 1.1760072756e+000	 9.2035484792e-001	-8.9276836968e-001
 1.1658038633e+000	 9.3324572899e-001	-9.6740055963e-001
 1.1554528195e+000	 9.4603124016e-001	-1.0383249895e+000
 1.1449557778e+000	 9.5870886212e-001	-1.1063190627e+000
 1.1343144288e+000	 9.7127610944e-001	-1.1722536423e+000
 1.1235305193e+000	 9.8373053221e-001	-1.2370862486e+000
 1.1126058510e+000	 9.9606971757e-001	-1.3018535938e+000
 1.2207389389e+000	 8.7166277413e-001	-5.6330797791e-001
 1.2110983794e+000	 8.8500863055e-001	-6.5832456123e-001
 1.2013035537e+000	 8.9825907622e-001	-7.4768437387e-001
 1.1913558659e+000	 9.1141146102e-001	-8.3170400527e-001
 1.1812567807e+000	 9.2446316221e-001	-9.1081665763e-001
 1.1710078221e+000	 9.3741158608e-001	-9.8556836726e-001
 1.1606105729e+000	 9.5025416969e-001	-1.0566133815e+000
 1.1500666741e+000	 9.6298838248e-001	-1.1247087220e+000
 1.1393778239e+000	 9.7561172796e-001	-1.1907079725e+000
 1.1285457767e+000	 9.8812174525e-001	-1.2555543325e+000
 1.1175723425e+000	 1.0005160107e+000	-1.3202729894e+000
 1.2261639027e+000	 8.7553644350e-001	-5.8097335094e-001
 1.2164805006e+000	 8.8894160890e-001	-6.7577631052e-001
 1.2066421467e+000	 9.0225093955e-001	-7.6504858434e-001
 1.1966502514e+000	 9.1546177355e-001	-8.4907233822e-001
 1.1865062858e+000	 9.2857147650e-001	-9.2824981039e-001
 1.1762117808e+000	 9.4157744316e-001	-1.0030994808e+000
 1.1657683263e+000	 9.5447709921e-001	-1.0742513711e+000
 1.1551775704e+000	 9.6726790285e-001	-1.1424415072e+000
 1.1444412189e+000	 9.7994734647e-001	-1.2085055821e+000
 1.1335610341e+000	 9.9251295828e-001	-1.2733718645e+000
 1.1225388340e+000	 1.0049623039e+000	-1.3380534019e+000
 1.2315888666e+000	 8.7941011287e-001	-5.9821577694e-001
 1.2218626218e+000	 8.9287458725e-001	-6.9274468123e-001
 1.2119807397e+000	 9.0624280288e-001	-7.8187865473e-001
 1.2019446369e+000	 9.1951208608e-001	-8.6586478725e-001
 1.1917557910e+000	 9.3267979079e-001	-9.4507371595e-001
 1.1814157396e+000	 9.4574330025e-001	-1.0199957409e+000
 1.1709260797e+000	 9.5870002874e-001	-1.0912360460e+000
 1.1602884667e+000	 9.7154742322e-001	-1.1595090577e+000
 1.1495046140e+000	 9.8428296499e-001	-1.2256319811e+000
 1.1385762916e+000	 9.9690417131e-001	-1.2905175577e+000
 1.1275053255e+000	 1.0094085970e+000	-1.3551660984e+000
 1.2370138304e+000	 8.8328378223e-001	-6.1504878817e-001
 1.2272447430e+000	 8.9680756561e-001	-7.0924209297e-001
 1.2173193327e+000	 9.1023466622e-001	-7.9818517124e-001
 1.2072390223e+000	 9.2356239861e-001	-8.8208938594e-001
 1.1970052961e+000	 9.3678810508e-001	-9.6129314008e-001
 1.1866196983e+000	 9.4990915734e-001	-1.0362579367e+000
 1.1760838330e+000	 9.6292295827e-001	-1.1075635184e+000
 1.1653993630e+000	 9.7582694359e-001	-1.1759021199e+000
 1.1545680090e+000	 9.8861858350e-001	-1.2420718734e+000
 1.1435915490e+000	 1.0012953843e+000	-1.3069694129e+000
 1.1324718169e+000	 1.0138548902e+000	-1.3715828369e+000
 1.2424387943e+000	 8.8715745160e-001	-6.3148463762e-001
 1.2326268642e+000	 9.0074054396e-001	-7.2527973367e-001
 1.2226579256e+000	 9.1422652955e-001	-8.1397754118e-001
 1.2125334078e+000	 9.2761271114e-001	-8.9775304700e-001
 1.2022548012e+000	 9.4089641937e-001	-9.7691179087e-001
 1.1918236571e+000	 9.5407501442e-001	-1.0518858680e+000
 1.1812415864e+000	 9.6714588780e-001	-1.1232289850e+000
 1.1705102593e+000	 9.8010646396e-001	-1.1916106034e+000
 1.1596314041e+000	 9.9295420202e-001	-1.2578092108e+000
 1.1486068064e+000	 1.0056865974e+000	-1.3227047688e+000
 1.1374383084e+000	 1.0183011833e+000	-1.3872714110e+000
 1.2478637581e+000	 8.9103112097e-001	-6.4753436871e-001
 1.2380089854e+000	 9.0467352231e-001	-7.4086762824e-001
 1.2279965186e+000	 9.1821839288e-001	-8.2926406033e-001
 1.2178277933e+000	 9.3166302367e-001	-9.1286162801e-001
 1.2075043064e+000	 9.4500473366e-001	-9.9193238263e-001
 1.1970276159e+000	 9.5824087151e-001	-1.0668784072e+000
 1.1863993398e+000	 9.7136881732e-001	-1.1382267865e+000
 1.1756211556e+000	 9.8438598433e-001	-1.2066236381e+000
 1.1646947991e+000	 9.9728982054e-001	-1.2728272471e+000
 1.1536220639e+000	 1.0100778104e+000	-1.3377003527e+000
 1.1424047999e+000	 1.0227474765e+000	-1.4022025836e+000
 1.0927398850e+000	 9.7828454497e-001	-1.2223367228e+000
 1.0818754980e+000	 9.9028610672e-001	-1.2844610132e+000
 1.0708766045e+000	 1.0021699009e+000	-1.3399974203e+000
 1.0597451306e+000	 1.0139336780e+000	-1.3898824561e+000
 1.0484830525e+000	 1.0255752306e+000	-1.4350850620e+000
 1.0370923950e+000	 1.0370923950e+000	-1.4765983825e+000
 1.0255752306e+000	 1.0484830525e+000	-1.5154313109e+000
 1.0139336780e+000	 1.0597451306e+000	-1.5525998754e+000
 1.0021699009e+000	 1.0708766045e+000	-1.5891185314e+000
 9.9028610672e-001	 1.0818754980e+000	-1.6259914322e+000
 9.7828454497e-001	 1.0927398850e+000	-1.6642037448e+000
 1.0977063765e+000	 9.8273083812e-001	-1.2430386448e+000
 1.0867926110e+000	 9.9478694684e-001	-1.3048563886e+000
 1.0757437276e+000	 1.0067247528e+000	-1.3599310867e+000
 1.0645616613e+000	 1.0185419961e+000	-1.4092293170e+000
 1.0532483971e+000	 1.0302364595e+000	-1.4537506331e+000
 1.0418059692e+000	 1.0418059692e+000	-1.4945190596e+000
 1.0302364595e+000	 1.0532483971e+000	-1.5325743546e+000
 1.0185419961e+000	 1.0645616613e+000	-1.5689631045e+000
 1.0067247528e+000	 1.0757437276e+000	-1.6047297250e+000
 9.9478694684e-001	 1.0867926110e+000	-1.6409074374e+000
 9.8273083812e-001	 1.0977063765e+000	-1.6785092918e+000
 1.1026728680e+000	 9.8717713127e-001	-1.2632094348e+000
 1.0917097239e+000	 9.9928778696e-001	-1.3247642104e+000
 1.0806108507e+000	 1.0112796046e+000	-1.3794150966e+000
 1.0693781919e+000	 1.0231503142e+000	-1.4281582719e+000
 1.0580137418e+000	 1.0348976883e+000	-1.4720236282e+000
 1.0465195435e+000	 1.0465195435e+000	-1.5120643205e+000
 1.0348976883e+000	 1.0580137418e+000	-1.5493560532e+000
 1.0231503142e+000	 1.0693781919e+000	-1.5849712497e+000
 1.0112796046e+000	 1.0806108507e+000	-1.6199863836e+000
 9.9928778696e-001	 1.0917097239e+000	-1.6554643390e+000
 9.8717713127e-001	 1.1026728680e+000	-1.6924467974e+000
 1.1076393595e+000	 9.9162342442e-001	-1.2828232874e+000
 1.0966268369e+000	 1.0037886271e+000	-1.3441511756e+000
 1.0854779738e+000	 1.0158344565e+000	-1.3984100913e+000
 1.0741947226e+000	 1.0277586323e+000	-1.4466250761e+000
 1.0627790864e+000	 1.0395589171e+000	-1.4898560236e+000
 1.0512331177e+000	 1.0512331177e+000	-1.5291888326e+000
 1.0395589171e+000	 1.0627790864e+000	-1.5657252846e+000
 1.0277586323e+000	 1.0741947226e+000	-1.6005738994e+000
 1.0158344565e+000	 1.0854779738e+000	-1.6348441733e+000
 1.0037886271e+000	 1.0966268369e+000	-1.6696223634e+000
 9.9162342442e-001	 1.1076393595e+000	-1.7059826273e+000
 1.1126058510e+000	 9.9606971757e-001	-1.3018535938e+000
 1.1015439499e+000	 1.0082894672e+000	-1.3629832810e+000
 1.0903450969e+000	 1.0203893083e+000	-1.4168760850e+000
 1.0790112533e+000	 1.0323669504e+000	-1.4645857450e+000
 1.0675444310e+000	 1.0442201459e+000	-1.5072020985e+000
 1.0559466919e+000	 1.0559466919e+000	-1.5458416584e+000
 1.0442201459e+000	 1.0675444310e+000	-1.5816374041e+000
 1.0323669504e+000	 1.0790112533e+000	-1.6157292678e+000
 1.0203893083e+000	 1.0903450969e+000	-1.6492579545e+000
 1.0082894672e+000	 1.1015439499e+000	-1.6833408007e+000
 9.9606971757e-001	 1.1126058510e+000	-1.7190820536e+000
 1.1175723425e+000	 1.0005160107e+000	-1.3202729894e+000
 1.1064610628e+000	 1.0127903073e+000	-1.3812258667e+000
 1.0952122200e+000	 1.0249441602e+000	-1.4347727478e+000
 1.0838277839e+000	 1.0369752685e+000	-1.4819949428e+000
 1.0723097757e+000	 1.0488813748e+000	-1.5240127345e+000
 1.0606602661e+000	 1.0606602661e+000	-1.5619729835e+000
 1.0488813748e+000	 1.0723097757e+000	-1.5970400155e+000
 1.0369752685e+000	 1.0838277839e+000	-1.6303854943e+000
 1.0249441602e+000	 1.0952122200e+000	-1.6631781822e+000
 1.0127903073e+000	 1.1064610628e+000	-1.6965780382e+000
 1.0005160107e+000	 1.1175723425e+000	-1.7317092888e+000
 1.1225388340e+000	 1.0049623039e+000	-1.3380534019e+000
 1.1113781758e+000	 1.0172911475e+000	-1.3988444085e+000
 1.1000793431e+000	 1.0294990120e+000	-1.4520584270e+000
 1.0886443146e+000	 1.0415835866e+000	-1.4988070788e+000
 1.0770751203e+000	 1.0535426036e+000	-1.5402392635e+000
 1.0653738403e+000	 1.0653738403e+000	-1.5775324763e+000
 1.0535426036e+000	 1.0770751203e+000	-1.6118825565e+000
 1.0415835866e+000	 1.0886443146e+000	-1.6444932368e+000
 1.0294990120e+000	 1.1000793431e+000	-1.6765655766e+000
 1.0172911475e+000	 1.1113781758e+000	-1.7092873591e+000
 1.0049623039e+000	 1.1225388340e+000	-1.7438275204e+000
 1.1275053255e+000	 1.0094085970e+000	-1.3551660984e+000
 1.1162952888e+000	 1.0217919876e+000	-1.4158014991e+000
 1.1049464662e+000	 1.0340538639e+000	-1.4686917960e+000
 1.0934608453e+000	 1.0461919047e+000	-1.5149760923e+000
 1.0818404650e+000	 1.0582038324e+000	-1.5558325545e+000
 1.0700874146e+000	 1.0700874146e+000	-1.5924693222e+000
 1.0582038324e+000	 1.0818404650e+000	-1.6261139339e+000
 1.0461919047e+000	 1.0934608453e+000	-1.6580025473e+000
 1.0340538639e+000	 1.1049464662e+000	-1.6893690368e+000
 1.0217919876e+000	 1.1162952888e+000	-1.7214340518e+000
 1.0094085970e+000	 1.1275053255e+000	-1.7553989455e+000
 1.1324718169e+000	 1.0138548902e+000	-1.3715828369e+000
 1.1212124017e+000	 1.0262928277e+000	-1.4320615963e+000
 1.1098135893e+000	 1.0386087157e+000	-1.4846307661e+000
 1.0982773759e+000	 1.0508002228e+000	-1.5304554906e+000
 1.0866058096e+000	 1.0628650612e+000	-1.5707430502e+000
 1.0748009888e+000	 1.0748009888e+000	-1.6067322578e+000
 1.0628650612e+000	 1.0866058096e+000	-1.6396825568e+000
 1.0508002228e+000	 1.0982773759e+000	-1.6708629044e+000
 1.0386087157e+000	 1.1098135893e+000	-1.7015405255e+000
 1.0262928277e+000	 1.1212124017e+000	-1.7329696249e+000
 1.0138548902e+000	 1.1324718169e+000	-1.7663801459e+000
 1.1374383084e+000	 1.0183011833e+000	-1.3872714110e+000
 1.1261295147e+000	 1.0307936678e+000	-1.4475878519e+000
 1.1146807124e+000	 1.0431635676e+000	-1.4998328243e+000
 1.1030939066e+000	 1.0554085409e+000	-1.5451983873e+000
 1.0913711542e+000	 1.0675262901e+000	-1.5849208024e+000
 1.0795145630e+000	 1.0795145630e+000	-1.6202696056e+000
 1.0675262901e+000	 1.0913711542e+000	-1.6525363704e+000
 1.0554085409e+000	 1.1030939066e+000	-1.6830232465e+000
 1.0431635676e+000	 1.1146807124e+000	-1.7130313633e+000
 1.0307936678e+000	 1.1261295147e+000	-1.7438491870e+000
 1.0183011833e+000	 1.1374383084e+000	-1.7767409224e+000
 1.1424047999e+000	 1.0227474765e+000	-1.4022025836e+000
 1.1310466276e+000	 1.0352945079e+000	-1.4623429799e+000
 1.1195478355e+000	 1.0477184194e+000	-1.5142550740e+000
 1.1079104373e+000	 1.0600168589e+000	-1.5591575400e+000
 1.0961364989e+000	 1.0721875189e+000	-1.5983155083e+000
 1.0842281372e+000	 1.0842281372e+000	-1.6330293084e+000
 1.0721875189e+000	 1.0961364989e+000	-1.6646228889e+000
 1.0600168589e+000	 1.1079104373e+000	-1.6944320047e+000
 1.0477184194e+000	 1.1195478355e+000	-1.7237922617e+000
 1.0352945079e+000	 1.1310466276e+000	-1.7540271106e+000
 1.0227474765e+000	 1.1424047999e+000	-1.7864358841e+000
 9.7828454497e-001	 1.0927398850e+000	-1.6642037448e+000
 9.6616568008e-001	 1.1034694896e+000	-1.6994855246e+000
 9.5393363537e-001	 1.1140608486e+000	-1.7277098517e+000
 9.4159078064e-001	 1.1245121926e+000	-1.7500426897e+000
 9.2913952205e-001	 1.1348218059e+000	-1.7676007242e+000
 9.1658230064e-001	 1.1449880282e+000	-1.7814434074e+000
 9.0392159075e-001	 1.1550092550e+000	-1.7925654511e+000
 8.9115989836e-001	 1.1648839386e+000	-1.8018898285e+000
 8.7829975955e-001	 1.1746105887e+000	-1.8102613385e+000
 8.6534373878e-001	 1.1841877734e+000	-1.8184407862e+000
 8.5229442729e-001	 1.1936141197e+000	-1.8270998249e+000
 9.8273083812e-001	 1.0977063765e+000	-1.6785092918e+000
 9.7055689311e-001	 1.1084847470e+000	-1.7132805342e+000
 9.5826925389e-001	 1.1191242437e+000	-1.7410773720e+000
 9.4587030101e-001	 1.1296230889e+000	-1.7630433006e+000
 9.3336245158e-001	 1.1399795593e+000	-1.7802711308e+000
 9.2074815773e-001	 1.1501919870e+000	-1.7937948525e+000
 9.0802990504e-001	 1.1602587602e+000	-1.8045819593e+000
 8.9521021090e-001	 1.1701783240e+000	-1.8135262931e+000
 8.8229162288e-001	 1.1799491817e+000	-1.8214414675e+000
 8.6927671713e-001	 1.1895698946e+000	-1.8290549222e+000
 8.5616809666e-001	 1.1990390835e+000	-1.8370026571e+000
 9.8717713127e-001	 1.1026728680e+000	-1.6924467974e+000
 9.7494810615e-001	 1.1135000044e+000	-1.7266973984e+000
 9.6260487241e-001	 1.1241876387e+000	-1.7540590865e+000
 9.5014982138e-001	 1.1347339852e+000	-1.7756541353e+000
 9.3758538110e-001	 1.1451373127e+000	-1.7925524326e+000
 9.2491401482e-001	 1.1553959458e+000	-1.8057631583e+000
 9.1213821933e-001	 1.1655082653e+000	-1.8162269332e+000
 8.9926052343e-001	 1.1754727095e+000	-1.8248085030e+000
 8.8628348622e-001	 1.1852877747e+000	-1.8322900158e+000
 8.7320969549e-001	 1.1949520158e+000	-1.8393649475e+000
 8.6004176603e-001	 1.2044640473e+000	-1.8466327246e+000
 9.9162342442e-001	 1.1076393595e+000	-1.7059826273e+000
 9.7933931918e-001	 1.1185152619e+000	-1.7397082928e+000
 9.6694049093e-001	 1.1292510338e+000	-1.7666307337e+000
 9.5442934175e-001	 1.1398448815e+000	-1.7878522536e+000
 9.4180831063e-001	 1.1502950661e+000	-1.8044207773e+000
 9.2907987191e-001	 1.1605999045e+000	-1.8173213352e+000
 9.1624653363e-001	 1.1707577704e+000	-1.8274680322e+000
 9.0331083596e-001	 1.1807670950e+000	-1.8356965648e+000
 8.9027534955e-001	 1.1906263677e+000	-1.8427573489e+000
 8.7714267384e-001	 1.2003341370e+000	-1.8493093123e+000
 8.6391543540e-001	 1.2098890112e+000	-1.8559144043e+000
 9.9606971757e-001	 1.1126058510e+000	-1.7190820536e+000
 9.8373053221e-001	 1.1235305193e+000	-1.7522841480e+000
 9.7127610944e-001	 1.1343144288e+000	-1.7787666982e+000
 9.5870886212e-001	 1.1449557778e+000	-1.7996132953e+000
 9.4603124016e-001	 1.1554528195e+000	-1.8158508686e+000
 9.3324572899e-001	 1.1658038633e+000	-1.8284409699e+000
 9.2035484792e-001	 1.1760072756e+000	-1.8382715556e+000
 9.0736114849e-001	 1.1860614805e+000	-1.8461493327e+000
 8.9426721288e-001	 1.1959649607e+000	-1.8527927317e+000
 8.8107565220e-001	 1.2057162582e+000	-1.8588255630e+000
 8.6778910477e-001	 1.2153139750e+000	-1.8647714106e+000
 1.0005160107e+000	 1.1175723425e+000	-1.7317092888e+000
 9.8812174525e-001	 1.1285457767e+000	-1.7643946858e+000
 9.7561172796e-001	 1.1393778239e+000	-1.7904400468e+000
 9.6298838248e-001	 1.1500666741e+000	-1.8109115149e+000
 9.5025416969e-001	 1.1606105729e+000	-1.8268159998e+000
 9.3741158608e-001	 1.1710078221e+000	-1.8390922554e+000
 9.2446316221e-001	 1.1812567807e+000	-1.8486024688e+000
 9.1141146102e-001	 1.1913558659e+000	-1.8561244297e+000
 8.9825907622e-001	 1.2013035537e+000	-1.8623443443e+000
 8.8500863055e-001	 1.2110983794e+000	-1.8678503515e+000
 8.7166277413e-001	 1.2207389389e+000	-1.8731267977e+000
 1.0049623039e+000	 1.1225388340e+000	-1.7438275204e+000
 9.9251295828e-001	 1.1335610341e+000	-1.7760084541e+000
 9.7994734647e-001	 1.1444412189e+000	-1.8016225636e+000
 9.6726790285e-001	 1.1551775704e+000	-1.8217198158e+000
 9.5447709921e-001	 1.1657683263e+000	-1.8372880859e+000
 9.4157744316e-001	 1.1762117808e+000	-1.8492440207e+000
 9.2857147650e-001	 1.1865062858e+000	-1.8584244293e+000
 9.1546177355e-001	 1.1966502514e+000	-1.8655782697e+000
 9.0225093955e-001	 1.2066421467e+000	-1.8713592988e+000
 8.8894160890e-001	 1.2164805006e+000	-1.8763194452e+000
 8.7553644350e-001	 1.2261639027e+000	-1.8809029615e+000
 1.0094085970e+000	 1.1275053255e+000	-1.7553989455e+000
 9.9690417131e-001	 1.1385762916e+000	-1.7870928623e+000
 9.8428296499e-001	 1.1495046140e+000	-1.8122847856e+000
 9.7154742322e-001	 1.1602884667e+000	-1.8320097854e+000
 9.5870002874e-001	 1.1709260797e+000	-1.8472376966e+000
 9.4574330025e-001	 1.1814157396e+000	-1.8588637613e+000
 9.3267979079e-001	 1.1917557910e+000	-1.8676998137e+000
 9.1951208608e-001	 1.2019446369e+000	-1.8744660790e+000
 9.0624280288e-001	 1.2119807397e+000	-1.8797836550e+000
 8.9287458725e-001	 1.2218626218e+000	-1.8841677366e+000
 8.7941011287e-001	 1.2315888666e+000	-1.8880216430e+000
 1.0138548902e+000	 1.1324718169e+000	-1.7663801459e+000
 1.0012953843e+000	 1.1435915490e+000	-1.7976142168e+000
 9.8861858350e-001	 1.1545680090e+000	-1.8223960377e+000
 9.7582694359e-001	 1.1653993630e+000	-1.8417517287e+000
 9.6292295827e-001	 1.1760838330e+000	-1.8566340887e+000
 9.4990915734e-001	 1.1866196983e+000	-1.8679176683e+000
 9.3678810508e-001	 1.1970052961e+000	-1.8763897429e+000
 9.2356239861e-001	 1.2072390223e+000	-1.8827419182e+000
 9.1023466622e-001	 1.2173193327e+000	-1.8875624373e+000
 8.9680756561e-001	 1.2272447430e+000	-1.8913292539e+000
 8.8328378223e-001	 1.2370138304e+000	-1.8944039311e+000
 1.0183011833e+000	 1.1374383084e+000	-1.7767409224e+000
 1.0056865974e+000	 1.1486068064e+000	-1.8075377555e+000
 9.9295420202e-001	 1.1596314041e+000	-1.8319244676e+000
 9.8010646396e-001	 1.1705102593e+000	-1.8509147028e+000
 9.6714588780e-001	 1.1812415864e+000	-1.8654452383e+000
 9.5407501442e-001	 1.1918236571e+000	-1.8763706584e+000
 9.4089641937e-001	 1.2022548012e+000	-1.8844541093e+000
 9.2761271114e-001	 1.2125334078e+000	-1.8903587039e+000
 9.1422652955e-001	 1.2226579256e+000	-1.8946396510e+000
 9.0074054396e-001	 1.2326268642e+000	-1.8977371718e+000
 8.8715745160e-001	 1.2424387943e+000	-1.8999702668e+000
 1.0227474765e+000	 1.1424047999e+000	-1.7864358841e+000
 1.0100778104e+000	 1.1536220639e+000	-1.8168276834e+000
 9.9728982054e-001	 1.1646947991e+000	-1.8408370812e+000
 9.8438598433e-001	 1.1756211556e+000	-1.8594665506e+000
 9.7136881732e-001	 1.1863993398e+000	-1.8736378729e+000
 9.5824087151e-001	 1.1970276159e+000	-1.8841864037e+000
 9.4500473366e-001	 1.2075043064e+000	-1.8918516023e+000
 9.3166302367e-001	 1.2178277933e+000	-1.8972682309e+000
 9.1821839288e-001	 1.2279965186e+000	-1.9009582995e+000
 9.0467352231e-001	 1.2380089854e+000	-1.9033238220e+000
 8.9103112097e-001	 1.2478637581e+000	-1.9046404469e+000
 8.5229442729e-001	 1.1936141197e+000	-1.8270998249e+000
 8.3915444111e-001	 1.2028883134e+000	-1.8339628425e+000
 8.2592641853e-001	 1.2120090993e+000	-1.8367908984e+000
 8.1261301928e-001	 1.2209752820e+000	-1.8361530293e+000
 7.9921692312e-001	 1.2297857273e+000	-1.8324992534e+000
 7.8574082812e-001	 1.2384393619e+000	-1.8261591989e+000
 7.7218744891e-001	 1.2469351742e+000	-1.8173415977e+000
 7.5855951497e-001	 1.2552722144e+000	-1.8061346506e+000
 7.4485976890e-001	 1.2634495946e+000	-1.7925072662e+000
 7.3109096470e-001	 1.2714664889e+000	-1.7763111668e+000
 7.1725586600e-001	 1.2793221339e+000	-1.7572838513e+000
 8.5616809666e-001	 1.1990390835e+000	-1.8370026571e+000
 8.4296838938e-001	 1.2083554283e+000	-1.8429052859e+000
 8.2968024557e-001	 1.2175176681e+000	-1.8445021353e+000
 8.1630633706e-001	 1.2265246021e+000	-1.8424457365e+000
 8.0284935579e-001	 1.2353750907e+000	-1.8372665444e+000
 7.8931201207e-001	 1.2440680560e+000	-1.8293713349e+000
 7.7569703289e-001	 1.2526024817e+000	-1.8190424934e+000
 7.6200716013e-001	 1.2609774137e+000	-1.8064382010e+000
 7.4824514886e-001	 1.2691919599e+000	-1.7915935213e+000
 7.3441376558e-001	 1.2772452910e+000	-1.7744223824e+000
 7.2051578651e-001	 1.2851366398e+000	-1.7547204431e+000
 8.6004176603e-001	 1.2044640473e+000	-1.8466327246e+000
 8.4678233765e-001	 1.2138225433e+000	-1.8516123319e+000
 8.3343407261e-001	 1.2230262369e+000	-1.8520237929e+000
 8.1999965484e-001	 1.2320739221e+000	-1.8486026144e+000
 8.0648178845e-001	 1.2409644542e+000	-1.8419594504e+000
 7.9288319602e-001	 1.2496967501e+000	-1.8325782617e+000
 7.7920661687e-001	 1.2582697892e+000	-1.8208153917e+000
 7.6545480529e-001	 1.2666826129e+000	-1.8068995665e+000
 7.5163052882e-001	 1.2749343253e+000	-1.7909328232e+000
 7.3773656647e-001	 1.2830240930e+000	-1.7728923604e+000
 7.2377570701e-001	 1.2909511456e+000	-1.7526333011e+000
 8.6391543540e-001	 1.2098890112e+000	-1.8559144043e+000
 8.5059628592e-001	 1.2192896583e+000	-1.8599950189e+000
 8.3718789965e-001	 1.2285348058e+000	-1.8592571901e+000
 8.2369297262e-001	 1.2376232422e+000	-1.8545188796e+000
 8.1011422111e-001	 1.2465538176e+000	-1.8464706967e+000
 7.9645437997e-001	 1.2553254442e+000	-1.8356738127e+000
 7.8271620085e-001	 1.2639370967e+000	-1.8225588171e+000
 7.6890245046e-001	 1.2723878122e+000	-1.8074255248e+000
 7.5501590878e-001	 1.2806766906e+000	-1.7904437385e+000
 7.4105936735e-001	 1.2888028951e+000	-1.7716549608e+000
 7.2703562752e-001	 1.2967656515e+000	-1.7509750470e+000
 8.6778910477e-001	 1.2153139750e+000	-1.8647714106e+000
 8.5441023418e-001	 1.2247567732e+000	-1.8679639581e+000
 8.4094172670e-001	 1.2340433746e+000	-1.8661033965e+000
 8.2738629040e-001	 1.2431725622e+000	-1.8600896201e+000
 8.1374665377e-001	 1.2521431810e+000	-1.8506929436e+000
 8.0002556392e-001	 1.2609541384e+000	-1.8385517637e+000
 7.8622578483e-001	 1.2696044042e+000	-1.8241711883e+000
 7.7235009562e-001	 1.2780930114e+000	-1.8079226441e+000
 7.5840128873e-001	 1.2864190560e+000	-1.7900444657e+000
 7.4438216824e-001	 1.2945816972e+000	-1.7706434631e+000
 7.3029554802e-001	 1.3025801574e+000	-1.7496974564e+000
 8.7166277413e-001	 1.2207389389e+000	-1.8731267977e+000
 8.5822418245e-001	 1.2302238882e+000	-1.8754293284e+000
 8.4469555374e-001	 1.2395519435e+000	-1.8724632205e+000
 8.3107960818e-001	 1.2487218823e+000	-1.8652097785e+000
 8.1737908643e-001	 1.2577325445e+000	-1.8545187669e+000
 8.0359674787e-001	 1.2665828325e+000	-1.8411058117e+000
 7.8973536881e-001	 1.2752717117e+000	-1.8255507964e+000
 7.7579774078e-001	 1.2837982107e+000	-1.8082972622e+000
 7.6178666869e-001	 1.2921614213e+000	-1.7896528172e+000
 7.4770496912e-001	 1.3003604992e+000	-1.7697905515e+000
 7.3355546852e-001	 1.3083946633e+000	-1.7487514483e+000
 8.7553644350e-001	 1.2261639027e+000	-1.8809029615e+000
 8.6203813071e-001	 1.2356910031e+000	-1.8823008711e+000
 8.4844938078e-001	 1.2450605123e+000	-1.8782371992e+000
 8.3477292596e-001	 1.2542712023e+000	-1.8697741378e+000
 8.2101151909e-001	 1.2633219079e+000	-1.8578406397e+000
 8.0716793182e-001	 1.2722115266e+000	-1.8432295547e+000
 7.9324495279e-001	 1.2809390192e+000	-1.8265957842e+000
 7.7924538594e-001	 1.2895034099e+000	-1.8084554668e+000
 7.6517204865e-001	 1.2979037867e+000	-1.7891862010e+000
 7.5102777000e-001	 1.3061393013e+000	-1.7690283007e+000
 7.3681538903e-001	 1.3142091692e+000	-1.7480870759e+000
 8.7941011287e-001	 1.2315888666e+000	-1.8880216430e+000
 8.6585207898e-001	 1.2411581181e+000	-1.8884878860e+000
 8.5220320782e-001	 1.2505690811e+000	-1.8833255886e+000
 8.3846624374e-001	 1.2598205224e+000	-1.8736773064e+000
 8.2464395175e-001	 1.2689112713e+000	-1.8605509152e+000
 8.1073911576e-001	 1.2778402207e+000	-1.8448164730e+000
 7.9675453677e-001	 1.2866063267e+000	-1.8272041268e+000
 7.8269303110e-001	 1.2952086092e+000	-1.8083030768e+000
 7.6855742860e-001	 1.3036461521e+000	-1.7885616043e+000
 7.5435057089e-001	 1.3119181033e+000	-1.7682881623e+000
 7.4007530953e-001	 1.3200236751e+000	-1.7476535173e+000
 8.8328378223e-001	 1.2370138304e+000	-1.8944039311e+000
 8.6966602725e-001	 1.2466252331e+000	-1.8938992281e+000
 8.5595703486e-001	 1.2560776500e+000	-1.8876283540e+000
 8.4215956151e-001	 1.2653698424e+000	-1.8768137051e+000
 8.2827638441e-001	 1.2745006347e+000	-1.8625418099e+000
 8.1431029971e-001	 1.2834689148e+000	-1.8457599103e+000
 8.0026412075e-001	 1.2922736341e+000	-1.8272736126e+000
 7.8614067626e-001	 1.3009138084e+000	-1.8077456235e+000
 7.7194280856e-001	 1.3093885174e+000	-1.7876955769e+000
 7.5767337177e-001	 1.3176969054e+000	-1.7675009511e+000
 7.4333523003e-001	 1.3258381810e+000	-1.7473990664e+000
 8.8715745160e-001	 1.2424387943e+000	-1.8999702668e+000
 8.7347997551e-001	 1.2520923480e+000	-1.8984433043e+000
 8.5971086190e-001	 1.2615862188e+000	-1.8910451622e+000
 8.4585287929e-001	 1.2709191625e+000	-1.8790775546e+000
 8.3190881707e-001	 1.2800899982e+000	-1.8637053887e+000
 8.1788148366e-001	 1.2890976089e+000	-1.8459530568e+000
 8.0377370473e-001	 1.2979409416e+000	-1.8267018253e+000
 7.8958832142e-001	 1.3066190077e+000	-1.8066883341e+000
 7.7532818851e-001	 1.3151308828e+000	-1.7865042160e+000
 7.6099617265e-001	 1.3234757075e+000	-1.7665968335e+000
 7.4659515053e-001	 1.3316526868e+000	-1.7472711252e+000
 8.9103112097e-001	 1.2478637581e+000	-1.9046404469e+000
 8.7729392378e-001	 1.2575594630e+000	-1.9020280715e+000
 8.6346468893e-001	 1.2670947876e+000	-1.8934753734e+000
 8.4954619707e-001	 1.2764684825e+000	-1.8803628634e+000
 8.3554124973e-001	 1.2856793616e+000	-1.8639335493e+000
 8.2145266760e-001	 1.2947263030e+000	-1.8452889325e+000
 8.0728328871e-001	 1.3036082491e+000	-1.8253861266e+000
 7.9303596658e-001	 1.3123242069e+000	-1.8050361143e+000
 7.7871356847e-001	 1.3208732481e+000	-1.7849031511e+000
 7.6431897353e-001	 1.3292545095e+000	-1.7655053151e+000
 7.4985507103e-001	 1.3374671927e+000	-1.7464628999e+000
 7.1725586600e-001	 1.2793221339e+000	-1.7572838513e+000
 7.0335933386e-001	 1.2870146864e+000	-1.7389841642e+000
 6.8940207522e-001	 1.2945446989e+000	-1.7234828000e+000
 6.7538687194e-001	 1.3019115954e+000	-1.7081633408e+000
 6.6131650867e-001	 1.3091148620e+000	-1.6913145045e+000
 6.4719377119e-001	 1.3161540465e+000	-1.6796553807e+000
 6.3302144475e-001	 1.3230287580e+000	-1.6722581212e+000
 6.1880231245e-001	 1.3297386669e+000	-1.6657820485e+000
 6.0453915355e-001	 1.3362835043e+000	-1.6569185650e+000
 5.9023474197e-001	 1.3426630618e+000	-1.6420036561e+000
 5.7589184460e-001	 1.3488771907e+000	-1.6190045137e+000
 7.2051578651e-001	 1.2851366398e+000	-1.7547204431e+000
 7.0655609477e-001	 1.2928641549e+000	-1.7362021732e+000
 6.9253540054e-001	 1.3004283911e+000	-1.7209940758e+000
 6.7845649830e-001	 1.3078287701e+000	-1.7063830099e+000
 6.6432218537e-001	 1.3150647755e+000	-1.6897829242e+000
 6.5013526020e-001	 1.3221359530e+000	-1.6766609525e+000
 6.3589852068e-001	 1.3290419100e+000	-1.6681004398e+000
 6.2161476256e-001	 1.3357823154e+000	-1.6605333606e+000
 6.0728677776e-001	 1.3423568991e+000	-1.6496631395e+000
 5.9291735277e-001	 1.3487654515e+000	-1.6330256778e+000
 5.7850926709e-001	 1.3550078236e+000	-1.6087939861e+000
 7.2377570701e-001	 1.2909511456e+000	-1.7526333011e+000
 7.0975285568e-001	 1.2987136233e+000	-1.7340245494e+000
 6.9566872585e-001	 1.3063120834e+000	-1.7192445464e+000
 6.8152612466e-001	 1.3137459449e+000	-1.7054805475e+000
 6.6732786208e-001	 1.3210146890e+000	-1.6898572102e+000
 6.5307674920e-001	 1.3281178596e+000	-1.6754018915e+000
 6.3877559661e-001	 1.3350550621e+000	-1.6656987876e+000
 6.2442721268e-001	 1.3418259639e+000	-1.6558763751e+000
 6.1003440197e-001	 1.3484302938e+000	-1.6428919252e+000
 5.9559996358e-001	 1.3548678413e+000	-1.6246620935e+000
 5.8112668957e-001	 1.3611384565e+000	-1.5993090990e+000
 7.2703562752e-001	 1.2967656515e+000	-1.7509750470e+000
 7.1294961659e-001	 1.3045630918e+000	-1.7324230538e+000
 6.9880205116e-001	 1.3121957757e+000	-1.7182224445e+000
 6.8459575102e-001	 1.3196631196e+000	-1.7054580100e+000
 6.7033353878e-001	 1.3269646026e+000	-1.6911483421e+000
 6.5601823821e-001	 1.3340997661e+000	-1.6758784969e+000
 6.4165267254e-001	 1.3410682141e+000	-1.6637705705e+000
 6.2723966280e-001	 1.3478696124e+000	-1.6514197013e+000
 6.1278202618e-001	 1.3545036885e+000	-1.6364674070e+000
 5.9828257438e-001	 1.3609702310e+000	-1.6167733780e+000
 5.8374411205e-001	 1.3672690894e+000	-1.5904057413e+000
 7.3029554802e-001	 1.3025801574e+000	-1.7496974564e+000
 7.1614637750e-001	 1.3104125602e+000	-1.7313683371e+000
 7.0193537647e-001	 1.3180794680e+000	-1.7179146835e+000
 6.8766537738e-001	 1.3255802944e+000	-1.7063159809e+000
 6.7333921548e-001	 1.3329145161e+000	-1.6934815444e+000
 6.5895972721e-001	 1.3400816726e+000	-1.6768169179e+000
 6.4452974846e-001	 1.3470813661e+000	-1.6617397137e+000
 6.3005211292e-001	 1.3539132609e+000	-1.6470251862e+000
 6.1552965038e-001	 1.3605770832e+000	-1.6302520583e+000
 6.0096518519e-001	 1.3670726208e+000	-1.6092200417e+000
 5.8636153454e-001	 1.3733997223e+000	-1.5819399342e+000
 7.3355546852e-001	 1.3083946633e+000	-1.7487514483e+000
 7.1934313840e-001	 1.3162620287e+000	-1.7308299339e+000
 7.0506870179e-001	 1.3239631603e+000	-1.7183068561e+000
 6.9073500373e-001	 1.3314974691e+000	-1.7080535727e+000
 6.7634489218e-001	 1.3388644296e+000	-1.6958583021e+000
 6.6190121622e-001	 1.3460635792e+000	-1.6773256772e+000
 6.4740682439e-001	 1.3530945182e+000	-1.6594648813e+000
 6.3286456303e-001	 1.3599569094e+000	-1.6425547168e+000
 6.1827727459e-001	 1.3666504780e+000	-1.6241083867e+000
 6.0364779599e-001	 1.3731750105e+000	-1.6018626717e+000
 5.8897895702e-001	 1.3795303552e+000	-1.5737678645e+000
 7.3681538903e-001	 1.3142091692e+000	-1.7480870759e+000
 7.2253989931e-001	 1.3221114972e+000	-1.7307762583e+000
 7.0820202710e-001	 1.3298468526e+000	-1.7193832335e+000
 6.9380463009e-001	 1.3374146439e+000	-1.7100654342e+000
 6.7935056888e-001	 1.3448143431e+000	-1.6969023796e+000
 6.6484270522e-001	 1.3520454857e+000	-1.6772578059e+000
 6.5028390032e-001	 1.3591076702e+000	-1.6568048845e+000
 6.3567701315e-001	 1.3660005579e+000	-1.6378702698e+000
 6.2102489880e-001	 1.3727238727e+000	-1.6178989791e+000
 6.0633040679e-001	 1.3792774003e+000	-1.5945619712e+000
 5.9159637950e-001	 1.3856609881e+000	-1.5657459185e+000
 7.4007530953e-001	 1.3200236751e+000	-1.7476535173e+000
 7.2573666022e-001	 1.3279609656e+000	-1.7311745990e+000
 7.1133535241e-001	 1.3357305449e+000	-1.7209002594e+000
 6.9687425645e-001	 1.3433318187e+000	-1.7105072687e+000
 6.8235624558e-001	 1.3507642567e+000	-1.6964718000e+000
 6.6778419422e-001	 1.3580273923e+000	-1.6764299834e+000
 6.5316097624e-001	 1.3651208223e+000	-1.6536187345e+000
 6.3848946327e-001	 1.3720442065e+000	-1.6328339609e+000
 6.2377252300e-001	 1.3787972674e+000	-1.6114865478e+000
 6.0901301760e-001	 1.3853797900e+000	-1.5871788001e+000
 5.9421380199e-001	 1.3917916210e+000	-1.5577307166e+000
 7.4333523003e-001	 1.3258381810e+000	-1.7473990664e+000
 7.2893342113e-001	 1.3338104341e+000	-1.7319804963e+000
 7.1446867772e-001	 1.3416142371e+000	-1.7208271263e+000
 6.9994388280e-001	 1.3492489934e+000	-1.7091266624e+000
 6.8536192228e-001	 1.3567141702e+000	-1.6944317552e+000
 6.7072568323e-001	 1.3640092988e+000	-1.6743067732e+000
 6.5603805217e-001	 1.3711339743e+000	-1.6497656962e+000
 6.4130191338e-001	 1.3780878550e+000	-1.6273080957e+000
 6.2652014721e-001	 1.3848706621e+000	-1.6047339753e+000
 6.1169562840e-001	 1.3914821798e+000	-1.5795742152e+000
 5.9683122447e-001	 1.3979222539e+000	-1.5495791470e+000
 7.4659515053e-001	 1.3316526868e+000	-1.7472711252e+000
 7.3213018203e-001	 1.3396599025e+000	-1.7315198464e+000
 7.1760200303e-001	 1.3474979294e+000	-1.7185712923e+000
 7.0301350916e-001	 1.3551661682e+000	-1.7057873436e+000
 6.8836759898e-001	 1.3626640837e+000	-1.6906498502e+000
 6.7366717223e-001	 1.3699912054e+000	-1.6706496344e+000
 6.5891512810e-001	 1.3771471263e+000	-1.6451053410e+000
 6.4411436350e-001	 1.3841315035e+000	-1.6211552187e+000
 6.2926777142e-001	 1.3909440569e+000	-1.5975043610e+000
 6.1437823920e-001	 1.3975845695e+000	-1.5716095113e+000
 5.9944864695e-001	 1.4040528868e+000	-1.5411484010e+000
 7.4985507103e-001	 1.3374671927e+000	-1.7464628999e+000
 7.3532694294e-001	 1.3455093710e+000	-1.7284983241e+000
 7.2073532834e-001	 1.3533816217e+000	-1.7139928414e+000
 7.0608313551e-001	 1.3610833429e+000	-1.7003555733e+000
 6.9137327568e-001	 1.3686139973e+000	-1.6849960838e+000
 6.7660866123e-001	 1.3759731119e+000	-1.6653299053e+000
 6.6179220402e-001	 1.3831602784e+000	-1.6394976004e+000
 6.4692681362e-001	 1.3901751520e+000	-1.6142381639e+000
 6.3201539562e-001	 1.3970174516e+000	-1.5896610662e+000
 6.1706085001e-001	 1.4036869593e+000	-1.5631462616e+000
 6.0206606944e-001	 1.4101835197e+000	-1.5322960078e+000
 5.7589184460e-001	 1.3488771907e+000	-1.6190045137e+000
 5.6151106040e-001	 1.3549266970e+000	-1.5927217153e+000
 5.4709728833e-001	 1.3608106067e+000	-1.5686445811e+000
 5.3265326705e-001	 1.3665289489e+000	-1.5462646563e+000
 5.1818172212e-001	 1.3720818103e+000	-1.5252068910e+000
 5.0368536462e-001	 1.3774693348e+000	-1.5052187468e+000
 4.8916688967e-001	 1.3826917224e+000	-1.4861594722e+000
 4.7462897510e-001	 1.3877492286e+000	-1.4679895829e+000
 4.6007428010e-001	 1.3926421637e+000	-1.4507605801e+000
 4.4550544387e-001	 1.3973708919e+000	-1.4346049321e+000
 4.3092508440e-001	 1.4019358304e+000	-1.4197263452e+000
 5.7850926709e-001	 1.3550078236e+000	-1.6087939861e+000
 5.6406312237e-001	 1.3610848248e+000	-1.5816587832e+000
 5.4958383986e-001	 1.3669954768e+000	-1.5569852737e+000
 5.3507417064e-001	 1.3727398088e+000	-1.5341996839e+000
 5.2053685269e-001	 1.3783179080e+000	-1.5128636407e+000
 5.0597460939e-001	 1.3837299187e+000	-1.4926631872e+000
 4.9139014813e-001	 1.3889760420e+000	-1.4733979793e+000
 4.7678615889e-001	 1.3940565345e+000	-1.4549706971e+000
 4.6216531295e-001	 1.3989717079e+000	-1.4373767060e+000
 4.4753026151e-001	 1.4037219281e+000	-1.4206939925e+000
 4.3288363445e-001	 1.4083076142e+000	-1.4050733992e+000
 5.8112668957e-001	 1.3611384565e+000	-1.5993090990e+000
 5.6661518434e-001	 1.3672429527e+000	-1.5714077321e+000
 5.5207039138e-001	 1.3731803470e+000	-1.5461978219e+000
 5.3749507424e-001	 1.3789506688e+000	-1.5230441243e+000
 5.2289198327e-001	 1.3845540057e+000	-1.5014489392e+000
 5.0826385417e-001	 1.3899905026e+000	-1.4810410250e+000
 4.9361340659e-001	 1.3952603616e+000	-1.4615647022e+000
 4.7894334268e-001	 1.4003638404e+000	-1.4428691866e+000
 4.6425634580e-001	 1.4053012522e+000	-1.4248981813e+000
 4.4955507915e-001	 1.4100729644e+000	-1.4076797560e+000
 4.3484218451e-001	 1.4146793981e+000	-1.3913165373e+000
 5.8374411205e-001	 1.3672690894e+000	-1.5904057413e+000
 5.6916724631e-001	 1.3734010805e+000	-1.5618195773e+000
 5.5455694290e-001	 1.3793652171e+000	-1.5361302957e+000
 5.3991597783e-001	 1.3851615288e+000	-1.5126449820e+000
 5.2524711384e-001	 1.3907901033e+000	-1.4908105562e+000
 5.1055309895e-001	 1.3962510865e+000	-1.4702025711e+000
 4.9583666505e-001	 1.4015446812e+000	-1.4505142144e+000
 4.8110052647e-001	 1.4066711463e+000	-1.4315455496e+000
 4.6634737865e-001	 1.4116307964e+000	-1.4131930297e+000
 4.5157989679e-001	 1.4164240007e+000	-1.3954393096e+000
 4.3680073457e-001	 1.4210511820e+000	-1.3783433808e+000
 5.8636153454e-001	 1.3733997223e+000	-1.5819399342e+000
 5.7171930827e-001	 1.3795592084e+000	-1.5527455703e+000
 5.5704349442e-001	 1.3855500873e+000	-1.5266310737e+000
 5.4233688143e-001	 1.3913723887e+000	-1.5028496140e+000
 5.2760224441e-001	 1.3970262010e+000	-1.4807966281e+000
 5.1284234373e-001	 1.4025116704e+000	-1.4599984916e+000
 4.9805992351e-001	 1.4078290008e+000	-1.4401014062e+000
 4.8325771026e-001	 1.4129784522e+000	-1.4208605386e+000
 4.6843841150e-001	 1.4179603407e+000	-1.4021294440e+000
 4.5360471443e-001	 1.4227750370e+000	-1.3838498015e+000
 4.3875928462e-001	 1.4274229658e+000	-1.3660414834e+000
 5.8897895702e-001	 1.3795303552e+000	-1.5737678645e+000
 5.7427137024e-001	 1.3857173362e+000	-1.5440372257e+000
 5.5953004595e-001	 1.3917349575e+000	-1.5175488653e+000
 5.4475778502e-001	 1.3975832487e+000	-1.4935057463e+000
 5.2995737498e-001	 1.4032622986e+000	-1.4712556717e+000
 5.1513158850e-001	 1.4087722543e+000	-1.4502798174e+000
 5.0028318196e-001	 1.4141133204e+000	-1.4301814929e+000
 4.8541489404e-001	 1.4192857581e+000	-1.4106751671e+000
 4.7052944435e-001	 1.4242898849e+000	-1.3915757909e+000
 4.5562953206e-001	 1.4291260732e+000	-1.3727884454e+000
 4.4071783468e-001	 1.4337947497e+000	-1.3542983366e+000
 5.9159637950e-001	 1.3856609881e+000	-1.5657459185e+000
 5.7682343221e-001	 1.3918754640e+000	-1.5355463491e+000
 5.6201659747e-001	 1.3979198276e+000	-1.5087327329e+000
 5.4717868861e-001	 1.4037941086e+000	-1.4844614919e+000
 5.3231250556e-001	 1.4094983963e+000	-1.4620365978e+000
 5.1742083328e-001	 1.4150328382e+000	-1.4408979550e+000
 5.0250644042e-001	 1.4203976400e+000	-1.4206100224e+000
 4.8757207783e-001	 1.4255930640e+000	-1.4008507152e+000
 4.7262047719e-001	 1.4306194292e+000	-1.3814006163e+000
 4.5765434970e-001	 1.4354771095e+000	-1.3621325263e+000
 4.4267638473e-001	 1.4401665336e+000	-1.3430013746e+000
 5.9421380199e-001	 1.3917916210e+000	-1.5577307166e+000
 5.7937549418e-001	 1.3980335919e+000	-1.5271250647e+000
 5.6450314899e-001	 1.4041046978e+000	-1.5000321142e+000
 5.4959959221e-001	 1.4100049686e+000	-1.4755653684e+000
 5.3466763613e-001	 1.4157344939e+000	-1.4529887254e+000
 5.1971007806e-001	 1.4212934221e+000	-1.4317046976e+000
 5.0472969888e-001	 1.4266819596e+000	-1.4112428844e+000
 4.8972926162e-001	 1.4319003699e+000	-1.3912487377e+000
 4.7471151004e-001	 1.4369489734e+000	-1.3714726519e+000
 4.5967916734e-001	 1.4418281458e+000	-1.3517594062e+000
 4.4463493479e-001	 1.4465383175e+000	-1.3320379813e+000
 5.9683122447e-001	 1.3979222539e+000	-1.5495791470e+000
 5.8192755614e-001	 1.4041917197e+000	-1.5186258444e+000
 5.6698970051e-001	 1.4102895679e+000	-1.4912968455e+000
 5.5202049580e-001	 1.4162158286e+000	-1.4666663168e+000
 5.3702276670e-001	 1.4219705916e+000	-1.4439617961e+000
 5.2199932284e-001	 1.4275540060e+000	-1.4225522368e+000
 5.0695295734e-001	 1.4329662792e+000	-1.4019363195e+000
 4.9188644541e-001	 1.4382076758e+000	-1.3817310710e+000
 4.7680254289e-001	 1.4432785177e+000	-1.3616608216e+000
 4.6170398498e-001	 1.4481791820e+000	-1.3415465300e+000
 4.4659348485e-001	 1.4529101013e+000	-1.3212954963e+000
 5.9944864695e-001	 1.4040528868e+000	-1.5411484010e+000
 5.8447961811e-001	 1.4103498476e+000	-1.5099015357e+000
 5.6947625203e-001	 1.4164744381e+000	-1.4823771851e+000
 5.5444139940e-001	 1.4224266885e+000	-1.4576137205e+000
 5.3937789727e-001	 1.4282066893e+000	-1.4348059899e+000
 5.2428856761e-001	 1.4338145899e+000	-1.4132931746e+000
 5.0917621580e-001	 1.4392505988e+000	-1.3925469292e+000
 4.9404362919e-001	 1.4445149818e+000	-1.3721598416e+000
 4.7889357574e-001	 1.4496080619e+000	-1.3518342488e+000
 4.6372880262e-001	 1.4545302183e+000	-1.3313714329e+000
 4.4855203490e-001	 1.4592818852e+000	-1.3106612219e+000
 6.0206606944e-001	 1.4101835197e+000	-1.5322960078e+000
 5.8703168008e-001	 1.4165079754e+000	-1.5008053913e+000
 5.7196280356e-001	 1.4226593082e+000	-1.4731238373e+000
 5.5686230299e-001	 1.4286375485e+000	-1.4482574248e+000
 5.4173302785e-001	 1.4344427869e+000	-1.4253719405e+000
 5.2657781239e-001	 1.4400751738e+000	-1.4037805365e+000
 5.1139947426e-001	 1.4455349184e+000	-1.3829316860e+000
 4.9620081298e-001	 1.4508222877e+000	-1.3623974748e+000
 4.8098460859e-001	 1.4559376062e+000	-1.3418622636e+000
 4.6575362026e-001	 1.4608812546e+000	-1.3211117468e+000
 4.5051058496e-001	 1.4656536691e+000	-1.3000224306e+000
 4.3092508440e-001	 1.4019358304e+000	-1.4197263452e+000
 4.1633579699e-001	 1.4063374481e+000	-1.4065137034e+000
 4.0174015248e-001	 1.4105762639e+000	-1.3948429189e+000
 3.8714069672e-001	 1.4146528463e+000	-1.3842476079e+000
 3.7253994969e-001	 1.4185678132e+000	-1.3743244401e+000
 3.5794040438e-001	 1.4223218309e+000	-1.3647261413e+000
 3.4334452582e-001	 1.4259156124e+000	-1.3551547662e+000
 3.2875475001e-001	 1.4293499175e+000	-1.3453552400e+000
 3.1417348300e-001	 1.4326255505e+000	-1.3351091641e+000
 2.9960309996e-001	 1.4357433599e+000	-1.3242288797e+000
 2.8504594434e-001	 1.4387042371e+000	-1.3125517805e+000
 4.3288363445e-001	 1.4083076142e+000	-1.4050733992e+000
 4.1822803889e-001	 1.4127292373e+000	-1.3909510779e+000
 4.0356605733e-001	 1.4169873184e+000	-1.3783077681e+000
 3.8890024719e-001	 1.4210824289e+000	-1.3667126211e+000
 3.7423313991e-001	 1.4250151893e+000	-1.3557988951e+000
 3.5956723982e-001	 1.4287862689e+000	-1.3452568487e+000
 3.4490502314e-001	 1.4323963842e+000	-1.3348269156e+000
 3.3024893695e-001	 1.4358462981e+000	-1.3242931599e+000
 3.1560139823e-001	 1.4391368188e+000	-1.3134770041e+000
 3.0096479296e-001	 1.4422687986e+000	-1.3022312245e+000
 2.8634147521e-001	 1.4452431330e+000	-1.2904342046e+000
 4.3484218451e-001	 1.4146793981e+000	-1.3913165373e+000
 4.2012028078e-001	 1.4191210265e+000	-1.3762977094e+000
 4.0539196217e-001	 1.4233983730e+000	-1.3627096391e+000
 3.9065979766e-001	 1.4275120114e+000	-1.3501541708e+000
 3.7592633013e-001	 1.4314625654e+000	-1.3382981862e+000
 3.6119407526e-001	 1.4352507069e+000	-1.3268663964e+000
 3.4646552046e-001	 1.4388771559e+000	-1.3156344278e+000
 3.3174312389e-001	 1.4423426787e+000	-1.3044221985e+000
 3.1702931346e-001	 1.4456480871e+000	-1.2930875784e+000
 3.0232648595e-001	 1.4487942374e+000	-1.2815203263e+000
 2.8763700608e-001	 1.4517820289e+000	-1.2696362922e+000
 4.3680073457e-001	 1.4210511820e+000	-1.3783433808e+000
 4.2201252268e-001	 1.4255128156e+000	-1.3624517346e+000
 4.0721786701e-001	 1.4298094275e+000	-1.3479557439e+000
 3.9241934812e-001	 1.4339415940e+000	-1.3344871407e+000
 3.7761952035e-001	 1.4379099414e+000	-1.3217435006e+000
 3.6282091070e-001	 1.4417151449e+000	-1.3094809420e+000
 3.4802601779e-001	 1.4453579276e+000	-1.2975071315e+000
 3.3323731083e-001	 1.4488390593e+000	-1.2856745903e+000
 3.1845722870e-001	 1.4521593554e+000	-1.2738742956e+000
 3.0368817894e-001	 1.4553196761e+000	-1.2620295679e+000
 2.8893253695e-001	 1.4583209248e+000	-1.2500902327e+000
 4.3875928462e-001	 1.4274229658e+000	-1.3660414834e+000
 4.2390476457e-001	 1.4319046048e+000	-1.3493110993e+000
 4.0904377185e-001	 1.4362204821e+000	-1.3339530116e+000
 3.9417889859e-001	 1.4403711766e+000	-1.3196260696e+000
 3.7931271058e-001	 1.4443573175e+000	-1.3060556479e+000
 3.6444774614e-001	 1.4481795830e+000	-1.2930262613e+000
 3.4958651511e-001	 1.4518386994e+000	-1.2803744970e+000
 3.3473149777e-001	 1.4553354399e+000	-1.2679822613e+000
 3.1988514393e-001	 1.4586706238e+000	-1.2557703304e+000
 3.0504987194e-001	 1.4618451148e+000	-1.2436921977e+000
 2.9022806782e-001	 1.4648598207e+000	-1.2317282042e+000
 4.4071783468e-001	 1.4337947497e+000	-1.3542983366e+000
 4.2579700647e-001	 1.4382963940e+000	-1.3367735646e+000
 4.1086967669e-001	 1.4426315366e+000	-1.3206080945e+000
 3.9593844906e-001	 1.4468007592e+000	-1.3054851571e+000
 3.8100590080e-001	 1.4508046935e+000	-1.2911550652e+000
 3.6607458158e-001	 1.4546440210e+000	-1.2774277514e+000
 3.5114701243e-001	 1.4583194711e+000	-1.2641656373e+000
 3.3622568471e-001	 1.4618318205e+000	-1.2512768275e+000
 3.2131305916e-001	 1.4651818921e+000	-1.2387086202e+000
 3.0641156493e-001	 1.4683705536e+000	-1.2264413233e+000
 2.9152359870e-001	 1.4713987166e+000	-1.2144823634e+000
 4.4267638473e-001	 1.4401665336e+000	-1.3430013746e+000
 4.2768924837e-001	 1.4446881832e+000	-1.3247367124e+000
 4.1269558154e-001	 1.4490425912e+000	-1.3078273738e+000
 3.9769799952e-001	 1.4532303417e+000	-1.2919782690e+000
 3.8269909102e-001	 1.4572520696e+000	-1.2769618209e+000
 3.6770141702e-001	 1.4611084590e+000	-1.2626104344e+000
 3.5270750975e-001	 1.4648002428e+000	-1.2488093100e+000
 3.3771987166e-001	 1.4683282011e+000	-1.2354895950e+000
 3.2274097440e-001	 1.4716931604e+000	-1.2226218625e+000
 3.0777325792e-001	 1.4748959923e+000	-1.2102099061e+000
 2.9281912957e-001	 1.4779376125e+000	-1.1982848367e+000
 4.4463493479e-001	 1.4465383175e+000	-1.3320379813e+000
 4.2958149026e-001	 1.4510799724e+000	-1.3130979525e+000
 4.1452148638e-001	 1.4554536457e+000	-1.2955169661e+000
 3.9945754999e-001	 1.4596599243e+000	-1.2790189431e+000
 3.8439228124e-001	 1.4636994457e+000	-1.2633956205e+000
 3.6932825246e-001	 1.4675728971e+000	-1.2484989608e+000
 3.5426800708e-001	 1.4712810145e+000	-1.2342339190e+000
 3.3921405860e-001	 1.4748245817e+000	-1.2205515594e+000
 3.2416888963e-001	 1.4782044288e+000	-1.2074425119e+000
 3.0913495092e-001	 1.4814214311e+000	-1.1949307554e+000
 2.9411466044e-001	 1.4844765083e+000	-1.1830677119e+000
 4.4659348485e-001	 1.4529101013e+000	-1.3212954963e+000
 4.3147373216e-001	 1.4574717615e+000	-1.3017545289e+000
 4.1634739122e-001	 1.4618647003e+000	-1.2835827304e+000
 4.0121710046e-001	 1.4660895069e+000	-1.2665203955e+000
 3.8608547147e-001	 1.4701468217e+000	-1.2503758111e+000
 3.7095508790e-001	 1.4740373351e+000	-1.2350176135e+000
 3.5582850440e-001	 1.4777617863e+000	-1.2203675171e+000
 3.4070824554e-001	 1.4813209624e+000	-1.2063934061e+000
 3.2559680487e-001	 1.4847156971e+000	-1.1931027779e+000
 3.1049664391e-001	 1.4879468698e+000	-1.1805365234e+000
 2.9541019131e-001	 1.4910154042e+000	-1.1687630296e+000
 4.4855203490e-001	 1.4592818852e+000	-1.3106612219e+000
 4.3336597406e-001	 1.4638635507e+000	-1.2906035276e+000
 4.1817329607e-001	 1.4682757548e+000	-1.2719302748e+000
 4.0297665093e-001	 1.4725190895e+000	-1.2543955271e+000
 3.8777866169e-001	 1.4765941978e+000	-1.2378213874e+000
 3.7258192334e-001	 1.4805017731e+000	-1.2220903117e+000
 3.5738900172e-001	 1.4842425580e+000	-1.2071378077e+000
 3.4220243249e-001	 1.4878173430e+000	-1.1929455106e+000
 3.2702472010e-001	 1.4912269654e+000	-1.1795346226e+000
 3.1185833691e-001	 1.4944723085e+000	-1.1669597006e+000
 2.9670572218e-001	 1.4975543001e+000	-1.1553027758e+000
 4.5051058496e-001	 1.4656536691e+000	-1.3000224306e+000
 4.3525821595e-001	 1.4702553399e+000	-1.2795418836e+000
 4.1999920091e-001	 1.4746868094e+000	-1.2604649642e+000
 4.0473620139e-001	 1.4789486721e+000	-1.2425569304e+000
 3.8947185191e-001	 1.4830415738e+000	-1.2256509976e+000
 3.7420875878e-001	 1.4869662112e+000	-1.2096406158e+000
 3.5894949905e-001	 1.4907233297e+000	-1.1944721482e+000
 3.4369661943e-001	 1.4943137236e+000	-1.1801379392e+000
 3.2845263534e-001	 1.4977382337e+000	-1.1666697597e+000
 3.1322002990e-001	 1.5009977473e+000	-1.1541326116e+000
 2.9800125306e-001	 1.5040931960e+000	-1.1426188744e+000
 2.8504594434e-001	 1.4387042371e+000	-1.3125517805e+000
 2.7050650628e-001	 1.4415087062e+000	-1.3007614257e+000
 2.5598487495e-001	 1.4441581973e+000	-1.2897364052e+000
 2.4148328948e-001	 1.4466537240e+000	-1.2796173901e+000
 2.2700395425e-001	 1.4489963383e+000	-1.2705276438e+000
 2.1254903826e-001	 1.4511871291e+000	-1.2625684830e+000
 1.9812067448e-001	 1.4532272212e+000	-1.2558149489e+000
 1.8372095932e-001	 1.4551177738e+000	-1.2503116734e+000
 1.6935195202e-001	 1.4568599797e+000	-1.2460689267e+000
 1.5501567423e-001	 1.4584550640e+000	-1.2430588308e+000
 1.4071410950e-001	 1.4599042825e+000	-1.2412117266e+000
 2.8634147521e-001	 1.4452431330e+000	-1.2904342046e+000
 2.7173595555e-001	 1.4480603484e+000	-1.2786995826e+000
 2.5714832356e-001	 1.4507218814e+000	-1.2677922051e+000
 2.4258082854e-001	 1.4532287502e+000	-1.2578288687e+000
 2.2803568488e-001	 1.4555820117e+000	-1.2489096732e+000
 2.1351507144e-001	 1.4577827597e+000	-1.2411135517e+000
 1.9902113090e-001	 1.4598321239e+000	-1.2344940106e+000
 1.8455596918e-001	 1.4617312690e+000	-1.2290750647e+000
 1.7012165489e-001	 1.4634813933e+000	-1.2248473503e+000
 1.5572021887e-001	 1.4650837272e+000	-1.2217644034e+000
 1.4135365367e-001	 1.4665395324e+000	-1.2197390860e+000
 2.8763700608e-001	 1.4517820289e+000	-1.2696362922e+000
 2.7296540483e-001	 1.4546119906e+000	-1.2579734644e+000
 2.5831177217e-001	 1.4572855654e+000	-1.2471814256e+000
 2.4367836759e-001	 1.4598037765e+000	-1.2373559022e+000
 2.2906741550e-001	 1.4621676851e+000	-1.2285767323e+000
 2.1448110462e-001	 1.4643783902e+000	-1.2209034610e+000
 1.9992158732e-001	 1.4664370266e+000	-1.2143711463e+000
 1.8539097904e-001	 1.4683447643e+000	-1.2089863586e+000
 1.7089135777e-001	 1.4701028068e+000	-1.2047233576e+000
 1.5642476351e-001	 1.4717123904e+000	-1.2015204299e+000
 1.4199319784e-001	 1.4731747823e+000	-1.1992763731e+000
 2.8893253695e-001	 1.4583209248e+000	-1.2500902327e+000
 2.7419485410e-001	 1.4611636327e+000	-1.2385141949e+000
 2.5947522078e-001	 1.4638492495e+000	-1.2278354835e+000
 2.4477590665e-001	 1.4663788027e+000	-1.2181314971e+000
 2.3009914613e-001	 1.4687533585e+000	-1.2094646501e+000
 2.1544713780e-001	 1.4709740207e+000	-1.2018780308e+000
 2.0082204374e-001	 1.4730419293e+000	-1.1953912691e+000
 1.8622598890e-001	 1.4749582595e+000	-1.1899965981e+000
 1.7166106064e-001	 1.4767242204e+000	-1.1856550903e+000
 1.5712930814e-001	 1.4783410536e+000	-1.1822930531e+000
 1.4263274201e-001	 1.4798100322e+000	-1.1797985661e+000
 2.9022806782e-001	 1.4648598207e+000	-1.2317282042e+000
 2.7542430338e-001	 1.4677152749e+000	-1.2202530082e+000
 2.6063866939e-001	 1.4704129336e+000	-1.2096860054e+000
 2.4587344570e-001	 1.4729538289e+000	-1.2000889464e+000
 2.3113087676e-001	 1.4753390319e+000	-1.1915095972e+000
 2.1641317099e-001	 1.4775696512e+000	-1.1839774556e+000
 2.0172250015e-001	 1.4796468320e+000	-1.1774996792e+000
 1.8706099876e-001	 1.4815717548e+000	-1.1720572044e+000
 1.7243076351e-001	 1.4833456339e+000	-1.1676010404e+000
 1.5783385278e-001	 1.4849697168e+000	-1.1640487180e+000
 1.4327228618e-001	 1.4864452821e+000	-1.1612808783e+000
 2.9152359870e-001	 1.4713987166e+000	-1.2144823634e+000
 2.7665375265e-001	 1.4742669171e+000	-1.2031212365e+000
 2.6180211801e-001	 1.4769766177e+000	-1.1926648126e+000
 2.4697098476e-001	 1.4795288552e+000	-1.1831618131e+000
 2.3216260738e-001	 1.4819247053e+000	-1.1746480674e+000
 2.1737920417e-001	 1.4841652817e+000	-1.1671422863e+000
 2.0262295657e-001	 1.4862517347e+000	-1.1606420452e+000
 1.8789600862e-001	 1.4881852500e+000	-1.1551199598e+000
 1.7320046638e-001	 1.4899670475e+000	-1.1505200332e+000
 1.5853839741e-001	 1.4915983800e+000	-1.1467541565e+000
 1.4391183035e-001	 1.4930805319e+000	-1.1436987450e+000
 2.9281912957e-001	 1.4779376125e+000	-1.1982848367e+000
 2.7788320193e-001	 1.4808185593e+000	-1.1870502981e+000
 2.6296556662e-001	 1.4835403018e+000	-1.1767039072e+000
 2.4806852381e-001	 1.4861038814e+000	-1.1672839138e+000
 2.3319433801e-001	 1.4885103787e+000	-1.1588168610e+000
 2.1834523735e-001	 1.4907609122e+000	-1.1513134119e+000
 2.0352341299e-001	 1.4928566374e+000	-1.1447643865e+000
 1.8873101848e-001	 1.4947987453e+000	-1.1391369900e+000
 1.7397016925e-001	 1.4965884610e+000	-1.1343712116e+000
 1.5924294205e-001	 1.4982270431e+000	-1.1303763733e+000
 1.4455137453e-001	 1.4997157818e+000	-1.1270278112e+000
 2.9411466044e-001	 1.4844765083e+000	-1.1830677119e+000
 2.7911265120e-001	 1.4873702014e+000	-1.1719716854e+000
 2.6412901523e-001	 1.4901039859e+000	-1.1617354576e+000
 2.4916606286e-001	 1.4926789076e+000	-1.1523893033e+000
 2.3422606863e-001	 1.4950960520e+000	-1.1439530677e+000
 2.1931127053e-001	 1.4973565427e+000	-1.1364320428e+000
 2.0442386940e-001	 1.4994615401e+000	-1.1298130558e+000
 1.8956602834e-001	 1.5014122405e+000	-1.1240607476e+000
 1.7473987212e-001	 1.5032098746e+000	-1.1191140200e+000
 1.5994748668e-001	 1.5048557063e+000	-1.1148826313e+000
 1.4519091870e-001	 1.5063510317e+000	-1.1112439196e+000
 2.9541019131e-001	 1.4910154042e+000	-1.1687630296e+000
 2.8034210048e-001	 1.4939218436e+000	-1.1578169545e+000
 2.6529246384e-001	 1.4966676700e+000	-1.1476917854e+000
 2.5026360192e-001	 1.4992539339e+000	-1.1384122595e+000
 2.3525779926e-001	 1.5016817254e+000	-1.1299940507e+000
 2.2027730371e-001	 1.5039521732e+000	-1.1224396939e+000
 2.0532432582e-001	 1.5060664428e+000	-1.1157347228e+000
 1.9040103820e-001	 1.5080257358e+000	-1.1098439957e+000
 1.7550957499e-001	 1.5098312882e+000	-1.1047081895e+000
 1.6065203132e-001	 1.5114843695e+000	-1.1002404385e+000
 1.4583046287e-001	 1.5129862816e+000	-1.0963230984e+000
 2.9670572218e-001	 1.4975543001e+000	-1.1553027758e+000
 2.8157154976e-001	 1.5004734858e+000	-1.1445177137e+000
 2.6645591245e-001	 1.5032313541e+000	-1.1345053527e+000
 2.5136114097e-001	 1.5058289601e+000	-1.1252872690e+000
 2.3628952988e-001	 1.5082673988e+000	-1.1168774307e+000
 2.2124333689e-001	 1.5105478037e+000	-1.1092781683e+000
 2.0622478224e-001	 1.5126713455e+000	-1.1024763576e+000
 1.9123604806e-001	 1.5146392310e+000	-1.0964397927e+000
 1.7627927786e-001	 1.5164527017e+000	-1.0911137230e+000
 1.6135657595e-001	 1.5181130327e+000	-1.0864175345e+000
 1.4647000704e-001	 1.5196215315e+000	-1.0822415508e+000
 2.9800125306e-001	 1.5040931960e+000	-1.1426188744e+000
 2.8280099903e-001	 1.5070251280e+000	-1.1320056145e+000
 2.6761936106e-001	 1.5097950381e+000	-1.1221087495e+000
 2.5245868003e-001	 1.5124039863e+000	-1.1129490127e+000
 2.3732126051e-001	 1.5148530722e+000	-1.1045410715e+000
 2.2220937007e-001	 1.5171434342e+000	-1.0968895418e+000
 2.0712523865e-001	 1.5192762483e+000	-1.0899852154e+000
 1.9207105792e-001	 1.5212527263e+000	-1.0838014764e+000
 1.7704898073e-001	 1.5230741153e+000	-1.0782908810e+000
 1.6206112059e-001	 1.5247416959e+000	-1.0733818773e+000
 1.4710955121e-001	 1.5262567814e+000	-1.0689756431e+000
 1.4071410950e-001	 1.4599042825e+000	-1.2412117266e+000
 1.2644707071e-001	 1.4612091062e+000	-1.2395600307e+000
 1.1221863753e-001	 1.4623706220e+000	-1.2373997819e+000
 9.8030706392e-002	 1.4633901726e+000	-1.2349839474e+000
 8.3885133317e-002	 1.4642691269e+000	-1.2325106679e+000
 6.9783733633e-002	 1.4650088792e+000	-1.2301194509e+000
 5.5728281765e-002	 1.4656108471e+000	-1.2278874762e+000
 4.1720511047e-002	 1.4660764711e+000	-1.2258260096e+000
 2.7762113580e-002	 1.4664072133e+000	-1.2238769180e+000
 1.3854740119e-002	 1.4666045558e+000	-1.2219092820e+000
 0.0000000000e+000	 1.4666700000e+000	-1.2197161092e+000
 1.4135365367e-001	 1.4665395324e+000	-1.2197390860e+000
 1.2702177134e-001	 1.4678502865e+000	-1.2178429451e+000
 1.1272867008e-001	 1.4690170814e+000	-1.2154368865e+000
 9.8476254938e-002	 1.4700412658e+000	-1.2127967963e+000
 8.4266390379e-002	 1.4709242150e+000	-1.2101450899e+000
 7.0100899979e-002	 1.4716673294e+000	-1.2076468719e+000
 5.5981566227e-002	 1.4722720332e+000	-1.2054062049e+000
 4.1910130337e-002	 1.4727397736e+000	-1.2034624803e+000
 2.7888292098e-002	 1.4730720190e+000	-1.2017868842e+000
 1.3917709769e-002	 1.4732702584e+000	-1.2002789564e+000
 0.0000000000e+000	 1.4733360000e+000	-1.1987632431e+000
 1.4199319784e-001	 1.4731747823e+000	-1.1992763731e+000
 1.2759647197e-001	 1.4744914668e+000	-1.1971078335e+000
 1.1323870262e-001	 1.4756635407e+000	-1.1944424515e+000
 9.8921803484e-002	 1.4766923590e+000	-1.1915762635e+000
 8.4647647441e-002	 1.4775793030e+000	-1.1887531055e+000
 7.0418066325e-002	 1.4783257796e+000	-1.1861607518e+000
 5.6234850690e-002	 1.4789332194e+000	-1.1839271557e+000
 4.2099749626e-002	 1.4794030760e+000	-1.1821167871e+000
 2.8014470616e-002	 1.4797368246e+000	-1.1807270597e+000
 1.3980679419e-002	 1.4799359609e+000	-1.1796848442e+000
 0.0000000000e+000	 1.4800020000e+000	-1.1788430696e+000
 1.4263274201e-001	 1.4798100322e+000	-1.1797985661e+000
 1.2817117260e-001	 1.4811326471e+000	-1.1773377497e+000
 1.1374873517e-001	 1.4823100001e+000	-1.1744053122e+000
 9.9367352029e-002	 1.4833434522e+000	-1.1713146989e+000
 8.5028904502e-002	 1.4842343911e+000	-1.1683283427e+000
 7.0735232671e-002	 1.4849842298e+000	-1.1656537901e+000
 5.6488135153e-002	 1.4855944055e+000	-1.1634399256e+000
 4.2289368916e-002	 1.4860663784e+000	-1.1617732847e+000
 2.8140649134e-002	 1.4864016302e+000	-1.1606744521e+000
 1.4043649068e-002	 1.4866016635e+000	-1.1600945387e+000
 0.0000000000e+000	 1.4866680000e+000	-1.1599117393e+000
 1.4327228618e-001	 1.4864452821e+000	-1.1612808783e+000
 1.2874587322e-001	 1.4877738274e+000	-1.1585159241e+000
 1.1425876771e-001	 1.4889564595e+000	-1.1553144570e+000
 9.9812900574e-002	 1.4899945454e+000	-1.1520046168e+000
 8.5410161564e-002	 1.4908894792e+000	-1.1488646369e+000
 7.1052399017e-002	 1.4916426800e+000	-1.1461189691e+000
 5.6741419615e-002	 1.4922555917e+000	-1.1439344999e+000
 4.2478988206e-002	 1.4927296808e+000	-1.1424168507e+000
 2.8266827652e-002	 1.4930664359e+000	-1.1416067548e+000
 1.4106618718e-002	 1.4932673661e+000	-1.1414765081e+000
 0.0000000000e+000	 1.4933340000e+000	-1.1419264921e+000
 1.4391183035e-001	 1.4930805319e+000	-1.1436987450e+000
 1.2932057385e-001	 1.4944150077e+000	-1.1406257525e+000
 1.1476880026e-001	 1.4956029188e+000	-1.1371590177e+000
 1.0025844912e-001	 1.4966456386e+000	-1.1336386861e+000
 8.5791418626e-002	 1.4975445672e+000	-1.1303560222e+000
 7.1369565363e-002	 1.4983011303e+000	-1.1275495438e+000
 5.6994704078e-002	 1.4989167779e+000	-1.1254012410e+000
 4.2668607496e-002	 1.4993929832e+000	-1.1240328720e+000
 2.8393006170e-002	 1.4997312415e+000	-1.1235023299e+000
 1.4169588368e-002	 1.4999330686e+000	-1.1238000750e+000
 0.0000000000e+000	 1.5000000000e+000	-1.1248456322e+000
 1.4455137453e-001	 1.4997157818e+000	-1.1270278112e+000
 1.2989527448e-001	 1.5010561880e+000	-1.1236507858e+000
 1.1527883281e-001	 1.5022493782e+000	-1.1199282608e+000
 1.0070399766e-001	 1.5032967318e+000	-1.1162097221e+000
 8.6172675688e-002	 1.5041996553e+000	-1.1127967220e+000
 7.1686731709e-002	 1.5049595805e+000	-1.1099390324e+000
 5.7247988541e-002	 1.5055779640e+000	-1.1078308767e+000
 4.2858226786e-002	 1.5060562856e+000	-1.1066072315e+000
 2.8519184688e-002	 1.5063960471e+000	-1.1063401923e+000
 1.4232558018e-002	 1.5065987712e+000	-1.1070353967e+000
 0.0000000000e+000	 1.5066660000e+000	-1.1086285053e+000
 1.4519091870e-001	 1.5063510317e+000	-1.1112439196e+000
 1.3046997511e-001	 1.5076973683e+000	-1.1075747200e+000
 1.1578886535e-001	 1.5088958376e+000	-1.1036115779e+000
 1.0114954621e-001	 1.5099478251e+000	-1.0997106779e+000
 8.6553932750e-002	 1.5108547433e+000	-1.0961811408e+000
 7.2003898056e-002	 1.5116180307e+000	-1.0932812068e+000
 5.7501273004e-002	 1.5122391502e+000	-1.0912144896e+000
 4.3047846077e-002	 1.5127195880e+000	-1.0901262951e+000
 2.8645363207e-002	 1.5130608528e+000	-1.0900999942e+000
 1.4295527669e-002	 1.5132644737e+000	-1.0911534469e+000
 0.0000000000e+000	 1.5133320000e+000	-1.0932354751e+000
 1.4583046287e-001	 1.5129862816e+000	-1.0963230984e+000
 1.3104467573e-001	 1.5143385486e+000	-1.0923813858e+000
 1.1629889790e-001	 1.5155422969e+000	-1.0881984771e+000
 1.0159509476e-001	 1.5165989183e+000	-1.0841346358e+000
 8.6935189812e-002	 1.5175098314e+000	-1.0805038555e+000
 7.2321064403e-002	 1.5182764809e+000	-1.0775700829e+000
 5.7754557468e-002	 1.5189003363e+000	-1.0755435064e+000
 4.3237465367e-002	 1.5193828904e+000	-1.0745768987e+000
 2.8771541725e-002	 1.5197256584e+000	-1.0747620091e+000
 1.4358497319e-002	 1.5199301763e+000	-1.0761259961e+000
 0.0000000000e+000	 1.5199980000e+000	-1.0786279013e+000
 1.4647000704e-001	 1.5196215315e+000	-1.0822415508e+000
 1.3161937636e-001	 1.5209797289e+000	-1.0780547397e+000
 1.1680893044e-001	 1.5221887563e+000	-1.0736785750e+000
 1.0204064330e-001	 1.5232500115e+000	-1.0694748000e+000
 8.7316446875e-002	 1.5241649194e+000	-1.0657596072e+000
 7.2638230750e-002	 1.5249349311e+000	-1.0627999127e+000
 5.8007841932e-002	 1.5255615225e+000	-1.0608096873e+000
 4.3427084659e-002	 1.5260461929e+000	-1.0599463363e+000
 2.8897720245e-002	 1.5263904640e+000	-1.0603071178e+000
 1.4421466970e-002	 1.5265958788e+000	-1.0619255945e+000
 0.0000000000e+000	 1.5266640000e+000	-1.0647681178e+000
 1.4710955121e-001	 1.5262567814e+000	-1.0689756431e+000
 1.3219407699e-001	 1.5276209091e+000	-1.0645788540e+000
 1.1731896299e-001	 1.5288352157e+000	-1.0600415879e+000
 1.0248619185e-001	 1.5299011047e+000	-1.0557244882e+000
 8.7697703938e-002	 1.5308200075e+000	-1.0519432936e+000
 7.2955397098e-002	 1.5315933814e+000	-1.0489651743e+000
 5.8261126397e-002	 1.5322227086e+000	-1.0470051164e+000
 4.3616703950e-002	 1.5327094953e+000	-1.0462223478e+000
 2.9023898764e-002	 1.5330552697e+000	-1.0467167931e+000
 1.4484436621e-002	 1.5332615814e+000	-1.0485255540e+000
 0.0000000000e+000	 1.5333300000e+000	-1.0516194115e+000
 1.5333300000e+000	 0.0000000000e+000	 3.4670662849e+000
 1.5332615814e+000	 1.4484436621e-002	 3.4667028854e+000
 1.5330552697e+000	 2.9023898764e-002	 3.4634162825e+000
 1.5327094953e+000	 4.3616703950e-002	 3.4573703704e+000
 1.5322227086e+000	 5.8261126397e-002	 3.4486903791e+000
 1.5315933814e+000	 7.2955397098e-002	 3.4374642313e+000
 1.5308200075e+000	 8.7697703938e-002	 3.4237439382e+000
 1.5299011047e+000	 1.0248619185e-001	 3.4075470438e+000
 1.5288352157e+000	 1.1731896299e-001	 3.3888581301e+000
 1.5276209091e+000	 1.3219407699e-001	 3.3676303988e+000
 1.5262567814e+000	 1.4710955121e-001	 3.3437873463e+000
 1.5399970000e+000	 0.0000000000e+000	 3.4585658441e+000
 1.5399282839e+000	 1.4547415718e-002	 3.4584708249e+000
 1.5397210751e+000	 2.9150096213e-002	 3.4553432007e+000
 1.5393737973e+000	 4.3806351688e-002	 3.4493696706e+000
 1.5388848941e+000	 5.8514448858e-002	 3.4406987939e+000
 1.5382528304e+000	 7.3272611026e-002	 3.4294422909e+000
 1.5374760939e+000	 8.8079018197e-002	 3.4156763730e+000
 1.5365531957e+000	 1.0293180723e-001	 3.3994431122e+000
 1.5354826721e+000	 1.1782907205e-001	 3.3807518646e+000
 1.5342630857e+000	 1.3276886383e-001	 3.3595807610e+000
 1.5328930266e+000	 1.4774919132e-001	 3.3358782841e+000
 1.5466640000e+000	 0.0000000000e+000	 3.4499399838e+000
 1.5465949864e+000	 1.4610394816e-002	 3.4500750403e+000
 1.5463868806e+000	 2.9276293662e-002	 3.4470835700e+000
 1.5460380993e+000	 4.3995999427e-002	 3.4411726571e+000
 1.5455470795e+000	 5.8767771321e-002	 3.4325117660e+000
 1.5449122795e+000	 7.3589824954e-002	 3.4212339863e+000
 1.5441321803e+000	 8.8460332455e-002	 3.4074372974e+000
 1.5432052867e+000	 1.0337742262e-001	 3.3911858659e+000
 1.5421301285e+000	 1.1833918111e-001	 3.3725113856e+000
 1.5409052623e+000	 1.3334365067e-001	 3.3514144788e+000
 1.5395292719e+000	 1.4838883144e-001	 3.3278661752e+000
 1.5533310000e+000	 0.0000000000e+000	 3.4411727757e+000
 1.5532616889e+000	 1.4673373914e-002	 3.4415010043e+000
 1.5530526860e+000	 2.9402491111e-002	 3.4386237802e+000
 1.5527024013e+000	 4.4185647165e-002	 3.4327661903e+000
 1.5522092650e+000	 5.9021093783e-002	 3.4241162178e+000
 1.5515717286e+000	 7.3907038883e-002	 3.4128259329e+000
 1.5507882667e+000	 8.8841646714e-002	 3.3990126940e+000
 1.5498573777e+000	 1.0382303801e-001	 3.3827603708e+000
 1.5487775850e+000	 1.1884929017e-001	 3.3641206039e+000
 1.5475474389e+000	 1.3391843752e-001	 3.3431141158e+000
 1.5461655172e+000	 1.4902847155e-001	 3.3197320917e+000
 1.5599980000e+000	 0.0000000000e+000	 3.4322477634e+000
 1.5599283914e+000	 1.4736353012e-002	 3.4327337693e+000
 1.5597184915e+000	 2.9528688561e-002	 3.4299499049e+000
 1.5593667033e+000	 4.4375294904e-002	 3.4241369132e+000
 1.5588714504e+000	 5.9274416246e-002	 3.4154989484e+000
 1.5582311777e+000	 7.4224252813e-002	 3.4042047130e+000
 1.5574443532e+000	 8.9222960974e-002	 3.3903885956e+000
 1.5565094686e+000	 1.0426865339e-001	 3.3741518218e+000
 1.5554250414e+000	 1.1935939923e-001	 3.3555636323e+000
 1.5541896154e+000	 1.3449322436e-001	 3.3346625043e+000
 1.5528017624e+000	 1.4966811167e-001	 3.3114574348e+000
 1.5666650000e+000	 0.0000000000e+000	 3.4231479735e+000
 1.5665950939e+000	 1.4799332110e-002	 3.4237579777e+000
 1.5663842970e+000	 2.9654886010e-002	 3.4210477104e+000
 1.5660310053e+000	 4.4564942644e-002	 3.4152712600e+000
 1.5655336358e+000	 5.9527738709e-002	 3.4066466418e+000
 1.5648906268e+000	 7.4541466742e-002	 3.3953568816e+000
 1.5641004396e+000	 8.9604275233e-002	 3.3815510912e+000
 1.5631615596e+000	 1.0471426878e-001	 3.3653455472e+000
 1.5620724979e+000	 1.1986950829e-001	 3.3468247884e+000
 1.5608317920e+000	 1.3506801120e-001	 3.3260427471e+000
 1.5594380077e+000	 1.5030775178e-001	 3.3030239348e+000
 1.5733320000e+000	 0.0000000000e+000	 3.4138559268e+000
 1.5732617965e+000	 1.4862311208e-002	 3.4145578721e+000
 1.5730501024e+000	 2.9781083460e-002	 3.4119026647e+000
 1.5726953074e+000	 4.4754590383e-002	 3.4061554640e+000
 1.5721958213e+000	 5.9781061172e-002	 3.3975458736e+000
 1.5715500759e+000	 7.4858680672e-002	 3.3862689728e+000
 1.5707565260e+000	 8.9985589493e-002	 3.3724863306e+000
 1.5698136506e+000	 1.0515988417e-001	 3.3563270126e+000
 1.5687199543e+000	 1.2037961735e-001	 3.3378885973e+000
 1.5674739686e+000	 1.3564279805e-001	 3.3172382185e+000
 1.5660742530e+000	 1.5094739189e-001	 3.2944136523e+000
 1.5799990000e+000	 0.0000000000e+000	 3.4043536487e+000
 1.5799284990e+000	 1.4925290306e-002	 3.4051173052e+000
 1.5797159079e+000	 2.9907280909e-002	 3.4024999473e+000
 1.5793596094e+000	 4.4944238122e-002	 3.3967755661e+000
 1.5788580067e+000	 6.0034383635e-002	 3.3881831180e+000
 1.5782095250e+000	 7.5175894602e-002	 3.3769275055e+000
 1.5774126124e+000	 9.0366903753e-002	 3.3631805292e+000
 1.5764657416e+000	 1.0560549956e-001	 3.3470818239e+000
 1.5753674108e+000	 1.2088972641e-001	 3.3287397940e+000
 1.5741161452e+000	 1.3621758489e-001	 3.3082325658e+000
 1.5727104983e+000	 1.5158703201e-001	 3.2856089771e+000
 1.5866660000e+000	 0.0000000000e+000	 3.3946226798e+000
 1.5865952015e+000	 1.4988269404e-002	 3.3954197494e+000
 1.5863817133e+000	 3.0033478359e-002	 3.3928244573e+000
 1.5860239114e+000	 4.5133885861e-002	 3.3871174222e+000
 1.5855201922e+000	 6.0287706098e-002	 3.3785447549e+000
 1.5848689741e+000	 7.5493108531e-002	 3.3673189892e+000
 1.5840686988e+000	 9.0748218013e-002	 3.3536199727e+000
 1.5831178326e+000	 1.0605111494e-001	 3.3375957315e+000
 1.5820148672e+000	 1.2139983547e-001	 3.3193633257e+000
 1.5807583217e+000	 1.3679237173e-001	 3.2990097108e+000
 1.5793467435e+000	 1.5222667212e-001	 3.2765926295e+000
 1.5933330000e+000	 0.0000000000e+000	 3.3846440858e+000
 1.5932619040e+000	 1.5051248502e-002	 3.3854483060e+000
 1.5930475188e+000	 3.0159675808e-002	 3.3828608222e+000
 1.5926882134e+000	 4.5323533600e-002	 3.3771667109e+000
 1.5921823776e+000	 6.0541028561e-002	 3.3686170761e+000
 1.5915284232e+000	 7.5810322461e-002	 3.3574299298e+000
 1.5907247853e+000	 9.1129532272e-002	 3.3437910215e+000
 1.5897699236e+000	 1.0649673033e-001	 3.3278546334e+000
 1.5886623236e+000	 1.2190994454e-001	 3.3097443541e+000
 1.5874004983e+000	 1.3736715858e-001	 3.2895538505e+000
 1.5859829888e+000	 1.5286631224e-001	 3.2673476595e+000
 1.6000000000e+000	 0.0000000000e+000	 3.3743984677e+000
 1.5999286065e+000	 1.5114227599e-002	 3.3751857149e+000
 1.5997133243e+000	 3.0285873257e-002	 3.3725934061e+000
 1.5993525154e+000	 4.5513181338e-002	 3.3669089412e+000
 1.5988445630e+000	 6.0794351023e-002	 3.3583862924e+000
 1.5981878723e+000	 7.6127536390e-002	 3.3472468346e+000
 1.5973808717e+000	 9.1510846532e-002	 3.3336801152e+000
 1.5964220145e+000	 1.0694234572e-001	 3.3178445785e+000
 1.5953097801e+000	 1.2242005360e-001	 3.2998682580e+000
 1.5940426749e+000	 1.3794194542e-001	 3.2798494584e+000
 1.5926192341e+000	 1.5350595236e-001	 3.2578574474e+000
 1.5262567814e+000	 1.4710955121e-001	 3.3437873463e+000
 1.5247416959e+000	 1.6206112059e-001	 3.3166244635e+000
 1.5230741153e+000	 1.7704898073e-001	 3.2857436920e+000
 1.5212527263e+000	 1.9207105792e-001	 3.2514947039e+000
 1.5192762483e+000	 2.0712523865e-001	 3.2141966069e+000
 1.5171434342e+000	 2.2220937007e-001	 3.1741392540e+000
 1.5148530722e+000	 2.3732126051e-001	 3.1315847728e+000
 1.5124039863e+000	 2.5245868003e-001	 3.0867693467e+000
 1.5097950381e+000	 2.6761936106e-001	 3.0399052812e+000
 1.5070251280e+000	 2.8280099903e-001	 2.9911833910e+000
 1.5040931960e+000	 2.9800125306e-001	 2.9407757440e+000
 1.5328930266e+000	 1.4774919132e-001	 3.3358782841e+000
 1.5313713535e+000	 1.6276577092e-001	 3.3088791322e+000
 1.5296965221e+000	 1.7781879906e-001	 3.2781131616e+000
 1.5278672136e+000	 1.9290619304e-001	 3.2439377667e+000
 1.5258821418e+000	 2.0802583015e-001	 3.2066794030e+000
 1.5237400542e+000	 2.2317554817e-001	 3.1666347940e+000
 1.5214397336e+000	 2.3835314591e-001	 3.1240723544e+000
 1.5189799989e+000	 2.5355638373e-001	 3.0792338644e+000
 1.5163597069e+000	 2.6878298421e-001	 3.0323364300e+000
 1.5135777530e+000	 2.8403063274e-001	 2.9835747643e+000
 1.5106330729e+000	 2.9929697828e-001	 2.9331238286e+000
 1.5395292719e+000	 1.4838883144e-001	 3.3278661752e+000
 1.5380010111e+000	 1.6347042125e-001	 3.3010395680e+000
 1.5363189290e+000	 1.7858861740e-001	 3.2703939331e+000
 1.5344817010e+000	 1.9374132817e-001	 3.2362954367e+000
 1.5324880353e+000	 2.0892642165e-001	 3.1990789523e+000
 1.5303366742e+000	 2.2414172628e-001	 3.1590491581e+000
 1.5280263949e+000	 2.3938503131e-001	 3.1164818496e+000
 1.5255560115e+000	 2.5465408743e-001	 3.0716255008e+000
 1.5229243756e+000	 2.6994660735e-001	 3.0247031116e+000
 1.5201303780e+000	 2.8526026646e-001	 2.9759143779e+000
 1.5171729497e+000	 3.0059270350e-001	 2.9254382238e+000
 1.5461655172e+000	 1.4902847155e-001	 3.3197320917e+000
 1.5446306687e+000	 1.6417507157e-001	 3.2930851527e+000
 1.5429413359e+000	 1.7935843574e-001	 3.2625634158e+000
 1.5410961884e+000	 1.9457646329e-001	 3.2285428738e+000
 1.5390939289e+000	 2.0982701315e-001	 3.1913678941e+000
 1.5369332941e+000	 2.2510790438e-001	 3.1513522007e+000
 1.5346130562e+000	 2.4041691671e-001	 3.1087800702e+000
 1.5321320241e+000	 2.5575179114e-001	 3.0639077739e+000
 1.5294890444e+000	 2.7111023050e-001	 3.0169653069e+000
 1.5266830031e+000	 2.8648990017e-001	 2.9681584394e+000
 1.5237128265e+000	 3.0188842872e-001	 2.9176711339e+000
 1.5528017624e+000	 1.4966811167e-001	 3.3114574348e+000
 1.5512603263e+000	 1.6487972190e-001	 3.2849956529e+000
 1.5495637428e+000	 1.8012825408e-001	 3.2545994564e+000
 1.5477106758e+000	 1.9541159842e-001	 3.2206557260e+000
 1.5456998224e+000	 2.1072760465e-001	 3.1835194051e+000
 1.5435299141e+000	 2.2607408248e-001	 3.1435143616e+000
 1.5411997176e+000	 2.4144880211e-001	 3.1009344608e+000
 1.5387080367e+000	 2.5684949484e-001	 3.0560448829e+000
 1.5360537131e+000	 2.7227385365e-001	 3.0090837264e+000
 1.5332356281e+000	 2.8771953388e-001	 2.9602639357e+000
 1.5302527034e+000	 3.0318415394e-001	 2.9097755953e+000
 1.5594380077e+000	 1.5030775178e-001	 3.3030239348e+000
 1.5578899840e+000	 1.6558437223e-001	 3.2767512188e+000
 1.5561861496e+000	 1.8089807241e-001	 3.2464803371e+000
 1.5543251632e+000	 1.9624673354e-001	 3.2126101261e+000
 1.5523057160e+000	 2.1162819615e-001	 3.1755071944e+000
 1.5501265340e+000	 2.2704026058e-001	 3.1355066598e+000
 1.5477863789e+000	 2.4248068751e-001	 3.0929130917e+000
 1.5452840493e+000	 2.5794719854e-001	 3.0480016988e+000
 1.5426183819e+000	 2.7343747679e-001	 3.0010198002e+000
 1.5397882531e+000	 2.8894916759e-001	 2.9521886220e+000
 1.5367925802e+000	 3.0447987916e-001	 2.9017054632e+000
 1.5660742530e+000	 1.5094739189e-001	 3.2944136523e+000
 1.5645196416e+000	 1.6628902256e-001	 3.2683323834e+000
 1.5628085565e+000	 1.8166789075e-001	 3.2381847733e+000
 1.5609396505e+000	 1.9708186867e-001	 3.2043826881e+000
 1.5589116095e+000	 2.1252878765e-001	 3.1673054993e+000
 1.5567231540e+000	 2.2800643868e-001	 3.1273006876e+000
 1.5543730403e+000	 2.4351257291e-001	 3.0846846514e+000
 1.5518600618e+000	 2.5904490225e-001	 3.0397437561e+000
 1.5491830506e+000	 2.7460109994e-001	 2.9927356673e+000
 1.5463408782e+000	 2.9017880130e-001	 2.9438910099e+000
 1.5433324570e+000	 3.0577560439e-001	 2.8934153982e+000
 1.5727104983e+000	 1.5158703201e-001	 3.2856089771e+000
 1.5711492992e+000	 1.6699367289e-001	 3.2597200619e+000
 1.5694309634e+000	 1.8243770909e-001	 3.2296919114e+000
 1.5675541379e+000	 1.9791700379e-001	 3.1959505043e+000
 1.5655175031e+000	 2.1342937915e-001	 3.1588890800e+000
 1.5633197740e+000	 2.2897261678e-001	 3.1188686049e+000
 1.5609597016e+000	 2.4454445832e-001	 3.0762184396e+000
 1.5584360744e+000	 2.6014260595e-001	 3.0312372441e+000
 1.5557477194e+000	 2.7576472309e-001	 2.9841941661e+000
 1.5528935032e+000	 2.9140843502e-001	 2.9353303561e+000
 1.5498723339e+000	 3.0707132961e-001	 2.8848608539e+000
 1.5793467435e+000	 1.5222667212e-001	 3.2765926295e+000
 1.5777789568e+000	 1.6769832322e-001	 3.2508955501e+000
 1.5760533703e+000	 1.8320752743e-001	 3.2209813269e+000
 1.5741686253e+000	 1.9875213892e-001	 3.1872911416e+000
 1.5721233966e+000	 2.1432997065e-001	 3.1502332156e+000
 1.5699163939e+000	 2.2993879489e-001	 3.1101831331e+000
 1.5675463630e+000	 2.4557634372e-001	 3.0674843599e+000
 1.5650120870e+000	 2.6124030965e-001	 3.0224489984e+000
 1.5623123881e+000	 2.7692834623e-001	 2.9753588247e+000
 1.5594461282e+000	 2.9263806873e-001	 2.9264666510e+000
 1.5564122107e+000	 3.0836705483e-001	 2.8759980641e+000
 1.5859829888e+000	 1.5286631224e-001	 3.2673476595e+000
 1.5844086144e+000	 1.6840297355e-001	 3.2418405238e+000
 1.5826757771e+000	 1.8397734577e-001	 3.2120330220e+000
 1.5807831127e+000	 1.9958727404e-001	 3.1783826380e+000
 1.5787292902e+000	 2.1523056215e-001	 3.1413136992e+000
 1.5765130139e+000	 2.3090497299e-001	 3.1012175493e+000
 1.5741330243e+000	 2.4660822912e-001	 3.0584529126e+000
 1.5715880996e+000	 2.6233801336e-001	 3.0133464928e+000
 1.5688770568e+000	 2.7809196938e-001	 2.9661938505e+000
 1.5659987532e+000	 2.9386770244e-001	 2.9172606080e+000
 1.5629520875e+000	 3.0966278005e-001	 2.8667840298e+000
 1.5926192341e+000	 1.5350595236e-001	 3.2578574474e+000
 1.5910382720e+000	 1.6910762388e-001	 3.2325370376e+000
 1.5892981840e+000	 1.8474716411e-001	 3.2028274234e+000
 1.5873976000e+000	 2.0042240917e-001	 3.1692035000e+000
 1.5853351837e+000	 2.1613115365e-001	 3.1321068339e+000
 1.5831096338e+000	 2.3187115109e-001	 3.0919456808e+000
 1.5807196856e+000	 2.4764011452e-001	 3.0490951882e+000
 1.5781641122e+000	 2.6343571706e-001	 3.0038978307e+000
 1.5754417256e+000	 2.7925559253e-001	 2.9566641214e+000
 1.5725513783e+000	 2.9509733616e-001	 2.9076736519e+000
 1.5694919644e+000	 3.1095850527e-001	 2.8571765077e+000
 1.5040931960e+000	 2.9800125306e-001	 2.9407757440e+000
 1.5009977473e+000	 3.1322002990e-001	 2.8881082901e+000
 1.4977382337e+000	 3.2845263534e-001	 2.8323886158e+000
 1.4943137236e+000	 3.4369661943e-001	 2.7734211964e+000
 1.4907233297e+000	 3.5894949905e-001	 2.7110082687e+000
 1.4869662112e+000	 3.7420875878e-001	 2.6449554774e+000
 1.4830415738e+000	 3.8947185191e-001	 2.5750781092e+000
 1.4789486721e+000	 4.0473620139e-001	 2.5012079492e+000
 1.4746868094e+000	 4.1999920091e-001	 2.4232007914e+000
 1.4702553399e+000	 4.3525821595e-001	 2.3409446311e+000
 1.4656536691e+000	 4.5051058496e-001	 2.2543685667e+000
 1.5106330729e+000	 2.9929697828e-001	 2.9331238286e+000
 1.5075241649e+000	 3.1458192717e-001	 2.8804289373e+000
 1.5042504789e+000	 3.2988076478e-001	 2.8247073086e+000
 1.5008110787e+000	 3.4519103052e-001	 2.7657500193e+000
 1.4972050737e+000	 3.6051023047e-001	 2.7033447234e+000
 1.4934316190e+000	 3.7583583827e-001	 2.6372812582e+000
 1.4894899171e+000	 3.9116529614e-001	 2.5673578521e+000
 1.4853792192e+000	 4.0649601582e-001	 2.4933879671e+000
 1.4810988257e+000	 4.2182537966e-001	 2.4152078105e+000
 1.4766480879e+000	 4.3715074171e-001	 2.3326845459e+000
 1.4720264088e+000	 4.5246942883e-001	 2.2457252306e+000
 1.5171729497e+000	 3.0059270350e-001	 2.9254382238e+000
 1.5140505826e+000	 3.1594382444e-001	 2.8727415484e+000
 1.5107627240e+000	 3.3130889422e-001	 2.8170517346e+000
 1.5073084339e+000	 3.4668544162e-001	 2.7581449612e+000
 1.5036868176e+000	 3.6207096189e-001	 2.6957927566e+000
 1.4998970267e+000	 3.7746291776e-001	 2.6297675642e+000
 1.4959382604e+000	 3.9285874037e-001	 2.5598489205e+000
 1.4918097663e+000	 4.0825583025e-001	 2.4858302836e+000
 1.4875108420e+000	 4.2365155842e-001	 2.4075265445e+000
 1.4830408360e+000	 4.3904326747e-001	 2.3247822554e+000
 1.4783991485e+000	 4.5442827270e-001	 2.2374806027e+000
 1.5237128265e+000	 3.0188842872e-001	 2.9176711339e+000
 1.5205770003e+000	 3.1730572171e-001	 2.8649942123e+000
 1.5172749691e+000	 3.3273702367e-001	 2.8093658941e+000
 1.5138057891e+000	 3.4817985271e-001	 2.7505459995e+000
 1.5101685616e+000	 3.6363169331e-001	 2.6882884275e+000
 1.5063624345e+000	 3.7908999725e-001	 2.6223466782e+000
 1.5023866036e+000	 3.9455218459e-001	 2.5524800007e+000
 1.4982403134e+000	 4.1001564467e-001	 2.4784602042e+000
 1.4939228583e+000	 4.2547773718e-001	 2.4000791687e+000
 1.4894335840e+000	 4.4093579324e-001	 2.3171570894e+000
 1.4847718883e+000	 4.5638711657e-001	 2.2295514851e+000
 1.5302527034e+000	 3.0318415394e-001	 2.9097755953e+000
 1.5271034179e+000	 3.1866761898e-001	 2.8571359027e+000
 1.5237872142e+000	 3.3416515311e-001	 2.8015947246e+000
 1.5203031443e+000	 3.4967426380e-001	 2.7428941002e+000
 1.5166503055e+000	 3.6519242473e-001	 2.6807688341e+000
 1.5128278423e+000	 3.8071707674e-001	 2.6149519720e+000
 1.5088349469e+000	 3.9624562882e-001	 2.5451809167e+000
 1.5046708605e+000	 4.1177545910e-001	 2.4712042200e+000
 1.5003348746e+000	 4.2730391593e-001	 2.3927890915e+000
 1.4958263321e+000	 4.4282831900e-001	 2.3097296579e+000
 1.4911446280e+000	 4.5834596044e-001	 2.2218560056e+000
 1.5367925802e+000	 3.0447987916e-001	 2.9017054632e+000
 1.5336298356e+000	 3.2002951624e-001	 2.8491164639e+000
 1.5302994594e+000	 3.3559328256e-001	 2.7936840841e+000
 1.5268004994e+000	 3.5116867490e-001	 2.7351311999e+000
 1.5231320495e+000	 3.6675315615e-001	 2.6731720941e+000
 1.5192932501e+000	 3.8234415623e-001	 2.6075178856e+000
 1.5152832902e+000	 3.9793907305e-001	 2.5378826086e+000
 1.5111014076e+000	 4.1353527353e-001	 2.4639899856e+000
 1.5067468909e+000	 4.2913009469e-001	 2.3855809313e+000
 1.5022190801e+000	 4.4472084476e-001	 2.3024218263e+000
 1.4975173677e+000	 4.6030480431e-001	 2.2143135927e+000
 1.5433324570e+000	 3.0577560439e-001	 2.8934153982e+000
 1.5401562532e+000	 3.2139141351e-001	 2.8408865954e+000
 1.5368117045e+000	 3.3702141200e-001	 2.7855807358e+000
 1.5332978546e+000	 3.5266308599e-001	 2.7272001884e+000
 1.5296137934e+000	 3.6831388757e-001	 2.6654373267e+000
 1.5257586579e+000	 3.8397123572e-001	 2.5999799072e+000
 1.5217316334e+000	 3.9963251728e-001	 2.5305171115e+000
 1.5175319547e+000	 4.1529508795e-001	 2.4567462965e+000
 1.5131589072e+000	 4.3095627345e-001	 2.3783804931e+000
 1.5086118281e+000	 4.4661337052e-001	 2.2951566916e+000
 1.5038901075e+000	 4.6226364818e-001	 2.2068449509e+000
 1.5498723339e+000	 3.0707132961e-001	 2.8848608539e+000
 1.5466826709e+000	 3.2275331078e-001	 2.8323978383e+000
 1.5433239496e+000	 3.3844954144e-001	 2.7772323317e+000
 1.5397952098e+000	 3.5415749708e-001	 2.7190448919e+000
 1.5360955374e+000	 3.6987461900e-001	 2.6575046337e+000
 1.5322240657e+000	 3.8559831521e-001	 2.5922745541e+000
 1.5281799767e+000	 4.0132596150e-001	 2.5230175348e+000
 1.5239625018e+000	 4.1705490238e-001	 2.4494030677e+000
 1.5195709235e+000	 4.3278245220e-001	 2.3711147456e+000
 1.5150045762e+000	 4.4850589628e-001	 2.2878585591e+000
 1.5102628472e+000	 4.6422249205e-001	 2.1993720365e+000
 1.5564122107e+000	 3.0836705483e-001	 2.8759980641e+000
 1.5532090886e+000	 3.2411520805e-001	 2.8236025608e+000
 1.5498361947e+000	 3.3987767089e-001	 2.7685873975e+000
 1.5462925649e+000	 3.5565190818e-001	 2.7106100558e+000
 1.5425772813e+000	 3.7143535042e-001	 2.6493150813e+000
 1.5386894735e+000	 3.8722539471e-001	 2.5843393527e+000
 1.5346283200e+000	 4.0301940573e-001	 2.5153180417e+000
 1.5303930489e+000	 4.1881471681e-001	 2.4418913120e+000
 1.5259829398e+000	 4.3460863096e-001	 2.3637117994e+000
 1.5213973242e+000	 4.5039842204e-001	 2.2804529187e+000
 1.5166355869e+000	 4.6618133592e-001	 2.1918180335e+000
 1.5629520875e+000	 3.0966278005e-001	 2.8667840298e+000
 1.5597355062e+000	 3.2547710532e-001	 2.8144539441e+000
 1.5563484398e+000	 3.4130580033e-001	 2.7595953171e+000
 1.5527899201e+000	 3.5714631927e-001	 2.7018413284e+000
 1.5490590253e+000	 3.7299608184e-001	 2.6408106827e+000
 1.5451548813e+000	 3.8885247420e-001	 2.5761128197e+000
 1.5410766632e+000	 4.0471284996e-001	 2.5073538291e+000
 1.5368235960e+000	 4.2057453123e-001	 2.4341431187e+000
 1.5323949561e+000	 4.3643480972e-001	 2.3561008843e+000
 1.5277900723e+000	 4.5229094781e-001	 2.2728664226e+000
 1.5230083267e+000	 4.6814017979e-001	 2.1841073306e+000
 1.5694919644e+000	 3.1095850527e-001	 2.8571765077e+000
 1.5662619239e+000	 3.2683900259e-001	 2.8049059693e+000
 1.5628606849e+000	 3.4273392977e-001	 2.7502063175e+000
 1.5592872753e+000	 3.5864073036e-001	 2.6926852440e+000
 1.5555407692e+000	 3.7455681326e-001	 2.6319343799e+000
 1.5516202891e+000	 3.9047955369e-001	 2.5675344437e+000
 1.5475250065e+000	 4.0640629419e-001	 2.4990611074e+000
 1.5432541432e+000	 4.2233434566e-001	 2.4260916332e+000
 1.5388069724e+000	 4.3826098847e-001	 2.3482123281e+000
 1.5341828203e+000	 4.5418347357e-001	 2.2650268627e+000
 1.5293810664e+000	 4.7009902366e-001	 2.1761654980e+000
 1.4656536691e+000	 4.5051058496e-001	 2.2543685667e+000
 1.4608812546e+000	 4.6575362026e-001	 2.1653008925e+000
 1.4559376062e+000	 4.8098460859e-001	 2.0756348180e+000
 1.4508222877e+000	 4.9620081298e-001	 1.9854953858e+000
 1.4455349184e+000	 5.1139947426e-001	 1.8951004202e+000
 1.4400751738e+000	 5.2657781239e-001	 1.8047737527e+000
 1.4344427869e+000	 5.4173302785e-001	 1.7149592247e+000
 1.4286375485e+000	 5.5686230299e-001	 1.6262354559e+000
 1.4226593082e+000	 5.7196280356e-001	 1.5393313653e+000
 1.4165079754e+000	 5.8703168008e-001	 1.4551424225e+000
 1.4101835197e+000	 6.0206606944e-001	 1.3747475993e+000
 1.4720264088e+000	 4.5246942883e-001	 2.2457252306e+000
 1.4672332436e+000	 4.6777874166e-001	 2.1561921615e+000
 1.4622680999e+000	 4.8307595513e-001	 2.0660385300e+000
 1.4571305398e+000	 4.9835832038e-001	 1.9754050031e+000
 1.4518201807e+000	 5.1362306624e-001	 1.8845245096e+000
 1.4463366969e+000	 5.2886740059e-001	 1.7937355506e+000
 1.4406798201e+000	 5.4408851173e-001	 1.7034963086e+000
 1.4348493402e+000	 5.5928356976e-001	 1.6143995490e+000
 1.4288451062e+000	 5.7444972810e-001	 1.5271882970e+000
 1.4226670271e+000	 5.8958412489e-001	 1.4427722720e+000
 1.4163150723e+000	 6.0468388457e-001	 1.3622450477e+000
 1.4783991485e+000	 4.5442827270e-001	 2.2374806027e+000
 1.4735852326e+000	 4.6980386305e-001	 2.1475165921e+000
 1.4685985937e+000	 4.8516730167e-001	 2.0569043419e+000
 1.4634387919e+000	 5.0051582778e-001	 1.9658015479e+000
 1.4581054430e+000	 5.1584665823e-001	 1.8744575294e+000
 1.4525982200e+000	 5.3115698879e-001	 1.7832266182e+000
 1.4469168533e+000	 5.4644399560e-001	 1.6925823712e+000
 1.4410611318e+000	 5.6170483653e-001	 1.6031325977e+000
 1.4350309042e+000	 5.7693665264e-001	 1.5156351918e+000
 1.4288260787e+000	 5.9213656971e-001	 1.4310147447e+000
 1.4224466248e+000	 6.0730169971e-001	 1.3503799124e+000
 1.4847718883e+000	 4.5638711657e-001	 2.2295514851e+000
 1.4799372217e+000	 4.7182898444e-001	 2.1391883359e+000
 1.4749290875e+000	 4.8725864820e-001	 2.0481431585e+000
 1.4697470440e+000	 5.0267333518e-001	 1.9565920634e+000
 1.4643907054e+000	 5.1807025021e-001	 1.8648020264e+000
 1.4588597431e+000	 5.3344657699e-001	 1.7731443505e+000
 1.4531538864e+000	 5.4879947948e-001	 1.6821089761e+000
 1.4472729235e+000	 5.6412610330e-001	 1.5923196320e+000
 1.4412167021e+000	 5.7942357719e-001	 1.5045498169e+000
 1.4349851304e+000	 5.9468901453e-001	 1.4197395894e+000
 1.4285781774e+000	 6.0991951485e-001	 1.3390131395e+000
 1.4911446280e+000	 4.5834596044e-001	 2.2218560056e+000
 1.4862892107e+000	 4.7385410584e-001	 2.1311229229e+000
 1.4812595813e+000	 4.8934999474e-001	 2.0396673315e+000
 1.4760552961e+000	 5.0483084258e-001	 1.9476851246e+000
 1.4706759677e+000	 5.2029384219e-001	 1.8554621811e+000
 1.4651212662e+000	 5.3573616519e-001	 1.7633878948e+000
 1.4593909196e+000	 5.5115496336e-001	 1.6719695770e+000
 1.4534847152e+000	 5.6654737007e-001	 1.5818477273e+000
 1.4474025001e+000	 5.8191050173e-001	 1.4938121603e+000
 1.4411441820e+000	 5.9724145935e-001	 1.4088189704e+000
 1.4347097300e+000	 6.1253732999e-001	 1.3280083049e+000
 1.4975173677e+000	 4.6030480431e-001	 2.2143135927e+000
 1.4926411997e+000	 4.7587922723e-001	 2.1232372360e+000
 1.4875900751e+000	 4.9144134128e-001	 2.0313906329e+000
 1.4823635482e+000	 5.0698834998e-001	 1.9389908104e+000
 1.4769612301e+000	 5.2251743417e-001	 1.8463437783e+000
 1.4713827892e+000	 5.3802575340e-001	 1.7538581204e+000
 1.4656279527e+000	 5.5351044724e-001	 1.6620594851e+000
 1.4596965069e+000	 5.6896863684e-001	 1.5716059705e+000
 1.4535882981e+000	 5.8439742628e-001	 1.4833043940e+000
 1.4473032337e+000	 5.9979390416e-001	 1.3981274276e+000
 1.4408412826e+000	 6.1515514513e-001	 1.3172315719e+000
 1.5038901075e+000	 4.6226364818e-001	 2.2068449509e+000
 1.4989931887e+000	 4.7790434862e-001	 2.1154494853e+000
 1.4939205688e+000	 4.9353268782e-001	 2.0232282289e+000
 1.4886718003e+000	 5.0914585738e-001	 1.9304206763e+000
 1.4832464924e+000	 5.2474102616e-001	 1.8373541781e+000
 1.4776443123e+000	 5.4031534160e-001	 1.7444575881e+000
 1.4718649859e+000	 5.5586593112e-001	 1.6522758368e+000
 1.4659082986e+000	 5.7138990361e-001	 1.5614854259e+000
 1.4597740961e+000	 5.8688435082e-001	 1.4729108379e+000
 1.4534622853e+000	 6.0234634898e-001	 1.3875418388e+000
 1.4469728352e+000	 6.1777296026e-001	 1.3065516507e+000
 1.5102628472e+000	 4.6422249205e-001	 2.1993720365e+000
 1.5053451777e+000	 4.7992947002e-001	 2.1076791837e+000
 1.5002510626e+000	 4.9562403435e-001	 2.0150966538e+000
 1.4949800524e+000	 5.1130336478e-001	 1.9218877274e+000
 1.4895317547e+000	 5.2696461814e-001	 1.8284022882e+000
 1.4839058354e+000	 5.4260492980e-001	 1.7350905212e+000
 1.4781020191e+000	 5.5822141501e-001	 1.6425175627e+000
 1.4721200902e+000	 5.7381117038e-001	 1.5513791018e+000
 1.4659598940e+000	 5.8937127537e-001	 1.4625179245e+000
 1.4596213370e+000	 6.0489879380e-001	 1.3769413816e+000
 1.4531043878e+000	 6.2039077540e-001	 1.2958397575e+000
 1.5166355869e+000	 4.6618133592e-001	 2.1918180335e+000
 1.5116971668e+000	 4.8195459141e-001	 2.0998471218e+000
 1.5065815564e+000	 4.9771538089e-001	 2.0069137849e+000
 1.5012883045e+000	 5.1346087218e-001	 1.9133063922e+000
 1.4958170171e+000	 5.2918821013e-001	 1.8193985364e+000
 1.4901673585e+000	 5.4489451800e-001	 1.7256627757e+000
 1.4843390522e+000	 5.6057689889e-001	 1.6326853570e+000
 1.4783318819e+000	 5.7623243715e-001	 1.5411819184e+000
 1.4721456920e+000	 5.9185819992e-001	 1.4520141642e+000
 1.4657803887e+000	 6.0745123862e-001	 1.3662074962e+000
 1.4592359404e+000	 6.2300859054e-001	 1.2849695756e+000
 1.5230083267e+000	 4.6814017979e-001	 2.1841073306e+000
 1.5180491558e+000	 4.8397971281e-001	 2.0918753441e+000
 1.5129120502e+000	 4.9980672743e-001	 1.9985988173e+000
 1.5075965566e+000	 5.1561837958e-001	 1.9045924965e+000
 1.5021022794e+000	 5.3141180211e-001	 1.8102548426e+000
 1.4964288816e+000	 5.4718410620e-001	 1.7160818121e+000
 1.4905760854e+000	 5.6293238277e-001	 1.6226816472e+000
 1.4845436736e+000	 5.7865370392e-001	 1.5307906752e+000
 1.4783314900e+000	 5.9434512446e-001	 1.4412901116e+000
 1.4719394403e+000	 6.1000368344e-001	 1.3552238501e+000
 1.4653674929e+000	 6.2562640568e-001	 1.2738172166e+000
 1.5293810664e+000	 4.7009902366e-001	 2.1761654980e+000
 1.5244011448e+000	 4.8600483420e-001	 2.0836871255e+000
 1.5192425439e+000	 5.0189807397e-001	 1.9900722396e+000
 1.5139048087e+000	 5.1777588698e-001	 1.8956632379e+000
 1.5083875417e+000	 5.3363539409e-001	 1.8008845932e+000
 1.5026904046e+000	 5.4947369440e-001	 1.7062566676e+000
 1.4968131186e+000	 5.6528786665e-001	 1.6124105645e+000
 1.4907554653e+000	 5.8107497069e-001	 1.5201040206e+000
 1.4845172880e+000	 5.9683204901e-001	 1.4302383321e+000
 1.4780984920e+000	 6.1255612826e-001	 1.3438763019e+000
 1.4714990455e+000	 6.2824422082e-001	 1.2622611826e+000
 1.4101835197e+000	 6.0206606944e-001	 1.3747475993e+000
 1.4036869593e+000	 6.1706085001e-001	 1.2882867029e+000
 1.3970174516e+000	 6.3201539562e-001	 1.1867457697e+000
 1.3901751520e+000	 6.4692681362e-001	 1.0728327148e+000
 1.3831602784e+000	 6.6179220402e-001	 9.4950406484e-001
 1.3759731119e+000	 6.7660866123e-001	 8.2108729890e-001
 1.3686139973e+000	 6.9137327568e-001	 6.9430590673e-001
 1.3610833429e+000	 7.0608313551e-001	 5.7232642546e-001
 1.3533816217e+000	 7.2073532834e-001	 4.5801944661e-001
 1.3455093710e+000	 7.3532694294e-001	 3.5423378303e-001
 1.3374671927e+000	 7.4985507103e-001	 2.6379013455e-001
 1.4163150723e+000	 6.0468388457e-001	 1.3622450477e+000
 1.4097902645e+000	 6.1974386324e-001	 1.2756384114e+000
 1.4030917574e+000	 6.3476343202e-001	 1.1737995743e+000
 1.3962197071e+000	 6.4973968564e-001	 1.0594047435e+000
 1.3891743325e+000	 6.6466971155e-001	 9.3537830450e-001
 1.3819559159e+000	 6.7955059151e-001	 8.0688582277e-001
 1.3745648034e+000	 6.9437940328e-001	 6.8027461588e-001
 1.3670014053e+000	 7.0915322236e-001	 5.5846985723e-001
 1.3592661966e+000	 7.2386912369e-001	 4.4432755057e-001
 1.3513597169e+000	 7.3852418341e-001	 3.4067892479e-001
 1.3432825709e+000	 7.5311548057e-001	 2.5032405471e-001
 1.4224466248e+000	 6.0730169971e-001	 1.3503799124e+000
 1.4158935697e+000	 6.2242687648e-001	 1.2636467414e+000
 1.4091660632e+000	 6.3751146841e-001	 1.1615108033e+000
 1.4022642623e+000	 6.5255255767e-001	 1.0466094615e+000
 1.3951883866e+000	 6.6754721909e-001	 9.2183739561e-001
 1.3879387198e+000	 6.8249252178e-001	 7.9347412470e-001
 1.3805156095e+000	 6.9738553087e-001	 6.6702633685e-001
 1.3729194677e+000	 7.1222330920e-001	 5.4535159669e-001
 1.3651507716e+000	 7.2700291905e-001	 4.3128627535e-001
 1.3572100629e+000	 7.4172142387e-001	 3.2763929279e-001
 1.3490979490e+000	 7.5637589011e-001	 2.3718570640e-001
 1.4285781774e+000	 6.0991951485e-001	 1.3390131395e+000
 1.4219968749e+000	 6.2510988972e-001	 1.2521648437e+000
 1.4152403691e+000	 6.4025950480e-001	 1.1497276774e+000
 1.4083088174e+000	 6.5536542970e-001	 1.0342930929e+000
 1.4012024407e+000	 6.7042472662e-001	 9.0888940643e-001
 1.3939215237e+000	 6.8543445205e-001	 7.8073620068e-001
 1.3864664156e+000	 7.0039165847e-001	 6.5445266263e-001
 1.3788375302e+000	 7.1529339605e-001	 5.3287408571e-001
 1.3710353465e+000	 7.3013671440e-001	 4.1881222971e-001
 1.3630604089e+000	 7.4491866434e-001	 3.1504904472e-001
 1.3549133272e+000	 7.5963629964e-001	 2.2433023990e-001
 1.4347097300e+000	 6.1253732999e-001	 1.3280083049e+000
 1.4281001801e+000	 6.2779290296e-001	 1.2410487028e+000
 1.4213146749e+000	 6.4300754120e-001	 1.1383014110e+000
 1.4143533726e+000	 6.5817830173e-001	 1.0223049720e+000
 1.4072164948e+000	 6.7330223415e-001	 8.9646642654e-001
 1.3999043276e+000	 6.8837638232e-001	 7.6855788760e-001
 1.3924172217e+000	 7.0339778606e-001	 6.4244692788e-001
 1.3847555926e+000	 7.1836348289e-001	 5.2094135324e-001
 1.3769199214e+000	 7.3327050976e-001	 4.0682339841e-001
 1.3689107548e+000	 7.4811590481e-001	 3.0284344546e-001
 1.3607287053e+000	 7.6289670918e-001	 2.1171358511e-001
 1.4408412826e+000	 6.1515514513e-001	 1.3172315719e+000
 1.4342034853e+000	 6.3047591619e-001	 1.2301570916e+000
 1.4273889807e+000	 6.4575557759e-001	 1.1270861673e+000
 1.4203979277e+000	 6.6099117375e-001	 1.0104974977e+000
 1.4132305489e+000	 6.7617974168e-001	 8.8445177117e-001
 1.4058871315e+000	 6.9131831259e-001	 7.5682682477e-001
 1.3983680278e+000	 7.0640391366e-001	 6.3090417262e-001
 1.3906736550e+000	 7.2143356974e-001	 5.0945898239e-001
 1.3828044963e+000	 7.3640430511e-001	 3.9523911383e-001
 1.3747611008e+000	 7.5131314527e-001	 2.9095884444e-001
 1.3665440835e+000	 7.6615711872e-001	 1.9929243579e-001
 1.4469728352e+000	 6.1777296026e-001	 1.3065516507e+000
 1.4403067904e+000	 6.3315892943e-001	 1.2193515288e+000
 1.4334632865e+000	 6.4850361398e-001	 1.1159390129e+000
 1.4264424828e+000	 6.6380404578e-001	 9.9872608909e-001
 1.4192446030e+000	 6.7905724921e-001	 8.7273056356e-001
 1.4118699355e+000	 6.9426024286e-001	 7.4543241642e-001
 1.4043188339e+000	 7.0941004126e-001	 6.1972110688e-001
 1.3965917174e+000	 7.2450365658e-001	 4.9833407838e-001
 1.3886890713e+000	 7.3953810047e-001	 3.8398002828e-001
 1.3806114468e+000	 7.5451038574e-001	 2.7933265357e-001
 1.3723594616e+000	 7.6941752826e-001	 1.8702423426e-001
 1.4531043878e+000	 6.2039077540e-001	 1.2958397575e+000
 1.4464100956e+000	 6.3584194267e-001	 1.2084962362e+000
 1.4395375924e+000	 6.5125165038e-001	 1.1047198748e+000
 1.4324870380e+000	 6.6661691781e-001	 9.8684914115e-001
 1.4252586571e+000	 6.8193475674e-001	 8.6118969738e-001
 1.4178527394e+000	 6.9720217314e-001	 7.3426579520e-001
 1.4102696400e+000	 7.1241616886e-001	 6.0879607633e-001
 1.4025097798e+000	 7.2757374343e-001	 4.8747523730e-001
 1.3945736462e+000	 7.4267189582e-001	 3.7296808711e-001
 1.3864617927e+000	 7.5770762621e-001	 2.6790332567e-001
 1.3781748397e+000	 7.7267793779e-001	 1.7486715643e-001
 1.4592359404e+000	 6.2300859054e-001	 1.2849695756e+000
 1.4525134008e+000	 6.3852495591e-001	 1.1974580969e+000
 1.4456118982e+000	 6.5399968677e-001	 1.0932914973e+000
 1.4385315931e+000	 6.6942978984e-001	 9.7485134284e-001
 1.4312727112e+000	 6.8481226428e-001	 8.4971780021e-001
 1.4238355433e+000	 7.0014410341e-001	 7.2321978659e-001
 1.4162204461e+000	 7.1542229645e-001	 5.9802902874e-001
 1.4084278422e+000	 7.3064383028e-001	 4.7679251570e-001
 1.4004582211e+000	 7.4580569118e-001	 3.6212650244e-001
 1.3923121387e+000	 7.6090486668e-001	 2.5661033358e-001
 1.3839902179e+000	 7.7593834733e-001	 1.6278009727e-001
 1.4653674929e+000	 6.2562640568e-001	 1.2738172166e+000
 1.4586167060e+000	 6.4120796915e-001	 1.1861066152e+000
 1.4516862040e+000	 6.5674772317e-001	 1.0815194006e+000
 1.4445761483e+000	 6.7224266187e-001	 9.6275071671e-001
 1.4372867653e+000	 6.8768977181e-001	 8.3820519790e-001
 1.4298183472e+000	 7.0308603368e-001	 7.1218887435e-001
 1.4221712522e+000	 7.1842842405e-001	 5.8732148137e-001
 1.4143459047e+000	 7.3371391712e-001	 4.6619740097e-001
 1.4063427960e+000	 7.4893948653e-001	 3.5137972762e-001
 1.3981624846e+000	 7.6410210715e-001	 2.4539414968e-001
 1.3898055960e+000	 7.7919875687e-001	 1.5072265656e-001
 1.4714990455e+000	 6.2824422082e-001	 1.2622611826e+000
 1.4647200112e+000	 6.4389098239e-001	 1.1743138762e+000
 1.4577605098e+000	 6.5949575956e-001	 1.0692718401e+000
 1.4506207034e+000	 6.7505553390e-001	 9.5043800291e-001
 1.4433008194e+000	 6.9056727934e-001	 8.2654387995e-001
 1.4358011511e+000	 7.0602796396e-001	 7.0106916674e-001
 1.4281220583e+000	 7.2143455165e-001	 5.7657648916e-001
 1.4202639671e+000	 7.3678400397e-001	 4.5560278251e-001
 1.4122273710e+000	 7.5207328189e-001	 3.4065343231e-001
 1.4040128306e+000	 7.6729934761e-001	 2.3419622601e-001
 1.3956209742e+000	 7.8245916641e-001	 1.3865512514e-001
 1.3374671927e+000	 7.4985507103e-001	 2.6379013455e-001
 1.3292545095e+000	 7.6431897353e-001	 1.7884946269e-001
 1.3208732481e+000	 7.7871356847e-001	 9.1439683783e-002
 1.3123242069e+000	 7.9303596658e-001	 2.3357340004e-003
 1.3036082491e+000	 8.0728328871e-001	-8.8064894849e-002
 1.2947263030e+000	 8.2145266760e-001	-1.7945765656e-001
 1.2856793616e+000	 8.3554124973e-001	-2.7163460518e-001
 1.2764684825e+000	 8.4954619707e-001	-3.6448714886e-001
 1.2670947876e+000	 8.6346468893e-001	-4.5800787394e-001
 1.2575594630e+000	 8.7729392378e-001	-5.5229141684e-001
 1.2478637581e+000	 8.9103112097e-001	-6.4753436871e-001
 1.3432825709e+000	 7.5311548057e-001	 2.5032405471e-001
 1.3350341785e+000	 7.6764227288e-001	 1.6537873905e-001
 1.3266164749e+000	 7.8209945628e-001	 7.6902668437e-002
 1.3180302620e+000	 7.9648412894e-001	-1.3095543978e-002
 1.3092764068e+000	 8.1079339917e-001	-1.0416958489e-001
 1.3003558415e+000	 8.2502438728e-001	-1.9602113054e-001
 1.2912695635e+000	 8.3917422731e-001	-2.8844854152e-001
 1.2820186350e+000	 8.5324006890e-001	-3.8134962931e-001
 1.2726041829e+000	 8.6721907910e-001	-4.7472347093e-001
 1.2630273981e+000	 8.8110844419e-001	-5.6867124907e-001
 1.2532895358e+000	 8.9490537144e-001	-6.6339610218e-001
 1.3490979490e+000	 7.5637589011e-001	 2.3718570640e-001
 1.3408138474e+000	 7.7096557224e-001	 1.5231241039e-001
 1.3323597017e+000	 7.8548534409e-001	 6.3490156209e-002
 1.3237363171e+000	 7.9993229129e-001	-2.7623272053e-002
 1.3149445645e+000	 8.1430350964e-001	-1.1958242344e-001
 1.3059853800e+000	 8.2859610696e-001	-2.1208713422e-001
 1.2968597654e+000	 8.4280720488e-001	-3.0493443442e-001
 1.2875687876e+000	 8.5693394073e-001	-3.9802134444e-001
 1.2781135781e+000	 8.7097346927e-001	-4.9134669660e-001
 1.2684953332e+000	 8.8492296460e-001	-5.8501195876e-001
 1.2587153135e+000	 8.9877962192e-001	-6.7922104374e-001
 1.3549133272e+000	 7.5963629964e-001	 2.2433023990e-001
 1.3465935164e+000	 7.7428887159e-001	 1.3933315412e-001
 1.3381029285e+000	 7.8887123190e-001	 5.0799032882e-002
 1.3294423723e+000	 8.0338045365e-001	-4.1176085185e-002
 1.3206127221e+000	 8.1781362011e-001	-1.3422403888e-001
 1.3116149185e+000	 8.3216782663e-001	-2.2757171357e-001
 1.3024499674e+000	 8.4644018246e-001	-3.2100724409e-001
 1.2931189401e+000	 8.6062781256e-001	-4.1441973670e-001
 1.2836229733e+000	 8.7472785944e-001	-5.0780111389e-001
 1.2739632683e+000	 8.8873748502e-001	-6.0124693645e-001
 1.2641410911e+000	 9.0265387239e-001	-6.9495618624e-001
 1.3607287053e+000	 7.6289670918e-001	 2.1171358511e-001
 1.3523731854e+000	 7.7761217094e-001	 1.2641774657e-001
 1.3438461553e+000	 7.9225711971e-001	 3.8009044529e-002
 1.3351484274e+000	 8.0682861600e-001	-5.3755532321e-002
 1.3262808798e+000	 8.2132373057e-001	-1.4801528242e-001
 1.3172444570e+000	 8.3573954631e-001	-2.4239128906e-001
 1.3080401693e+000	 8.5007316004e-001	-3.3658239022e-001
 1.2986690926e+000	 8.6432168439e-001	-4.3046272477e-001
 1.2891323685e+000	 8.7848224961e-001	-5.2401070893e-001
 1.2794312034e+000	 8.9255200543e-001	-6.1730987169e-001
 1.2695668688e+000	 9.0652812287e-001	-7.1054862481e-001
 1.3665440835e+000	 7.6615711872e-001	 1.9929243579e-001
 1.3581528543e+000	 7.8093547029e-001	 1.1354340418e-001
 1.3495893821e+000	 7.9564300752e-001	 2.5097392486e-002
 1.3408544825e+000	 8.1027677836e-001	-6.6307608871e-002
 1.3319490375e+000	 8.2483384104e-001	-1.6087726603e-001
 1.3228739955e+000	 8.3931126598e-001	-2.5646269155e-001
 1.3136303712e+000	 8.5370613761e-001	-3.5157578703e-001
 1.3042192451e+000	 8.6801555622e-001	-4.4606873903e-001
 1.2946417637e+000	 8.8223663978e-001	-5.3989992819e-001
 1.2848991385e+000	 8.9636652585e-001	-6.3313479319e-001
 1.2749926465e+000	 9.1040237334e-001	-7.2594560142e-001
 1.3723594616e+000	 7.6941752826e-001	 1.8702423426e-001
 1.3639325233e+000	 7.8425876964e-001	 1.0068777489e-001
 1.3553326089e+000	 7.9902889534e-001	 1.2058901493e-002
 1.3465605376e+000	 8.1372494072e-001	-7.9136232363e-002
 1.3376171951e+000	 8.2834395151e-001	-1.7315498574e-001
 1.3285035340e+000	 8.4288298566e-001	-2.6970319837e-001
 1.3192205731e+000	 8.5733911519e-001	-3.6590387854e-001
 1.3097693977e+000	 8.7170942805e-001	-4.6115675716e-001
 1.3001511589e+000	 8.8599102995e-001	-5.5539371585e-001
 1.2903670737e+000	 9.0018104626e-001	-6.4865610912e-001
 1.2804184241e+000	 9.1427662382e-001	-7.4109454949e-001
 1.3781748397e+000	 7.7267793779e-001	 1.7486715643e-001
 1.3697121923e+000	 7.8758206899e-001	 8.7828929849e-002
 1.3610758357e+000	 8.0241478315e-001	-1.1114399408e-003
 1.3522665927e+000	 8.1717310307e-001	-9.2232567200e-002
 1.3432853528e+000	 8.3185406197e-001	-1.8579580234e-001
 1.3341330725e+000	 8.4645470534e-001	-2.8204696188e-001
 1.3248107750e+000	 8.6097209277e-001	-3.7948367409e-001
 1.3153195502e+000	 8.7540329987e-001	-4.7564634010e-001
 1.3056605541e+000	 8.8974542012e-001	-5.7041755127e-001
 1.2958350088e+000	 9.0399556667e-001	-6.6380864756e-001
 1.2858442018e+000	 9.1815087429e-001	-7.5594313846e-001
 1.3839902179e+000	 7.7593834733e-001	 1.6278009727e-001
 1.3754918612e+000	 7.9090536834e-001	 7.4945355270e-002
 1.3668190625e+000	 8.0580067096e-001	-1.4418482356e-002
 1.3579726478e+000	 8.2062126543e-001	-1.0558781953e-001
 1.3489535105e+000	 8.3536417244e-001	-1.9882130666e-001
 1.3397626110e+000	 8.5002642501e-001	-2.9436161128e-001
 1.3304009769e+000	 8.6460507035e-001	-3.9223278407e-001
 1.3208697027e+000	 8.7909717170e-001	-4.8945766816e-001
 1.3111699493e+000	 8.9349981029e-001	-5.8489748674e-001
 1.3013029439e+000	 9.0781008709e-001	-6.7852769697e-001
 1.2912699795e+000	 9.2202512477e-001	-7.7043931841e-001
 1.3898055960e+000	 7.7919875687e-001	 1.5072265656e-001
 1.3812715302e+000	 7.9422866769e-001	 6.2015944487e-002
 1.3725622893e+000	 8.0918655877e-001	-2.7866918097e-002
 1.3636787029e+000	 8.2406942778e-001	-1.1919323595e-001
 1.3546216681e+000	 8.3887428291e-001	-2.1221235451e-001
 1.3453921495e+000	 8.5359814469e-001	-3.0715748683e-001
 1.3359911788e+000	 8.6823804792e-001	-4.0424771505e-001
 1.3264198552e+000	 8.8279104353e-001	-5.0251157736e-001
 1.3166793445e+000	 8.9725420046e-001	-5.9876018538e-001
 1.3067708790e+000	 9.1162460750e-001	-6.9274904690e-001
 1.2966957572e+000	 9.2589937524e-001	-7.8453136465e-001
 1.3956209742e+000	 7.8245916641e-001	 1.3865512514e-001
 1.3870511992e+000	 7.9755196704e-001	 4.9019990216e-002
 1.3783055161e+000	 8.1257244658e-001	-4.1461284021e-002
 1.3693847580e+000	 8.2751759014e-001	-1.3304010223e-001
 1.3602898258e+000	 8.4238439338e-001	-2.2594998490e-001
 1.3510216880e+000	 8.5716986437e-001	-3.2040846710e-001
 1.3415813808e+000	 8.7187102550e-001	-4.1661917802e-001
 1.3319700078e+000	 8.8648491536e-001	-5.1472959604e-001
 1.3221887397e+000	 9.0100859063e-001	-6.1193295921e-001
 1.3122388141e+000	 9.1543912792e-001	-7.0640902872e-001
 1.3021215348e+000	 9.2977362572e-001	-7.9816792238e-001
 1.2478637581e+000	 8.9103112097e-001	-6.4753436871e-001
 1.2380089854e+000	 9.0467352231e-001	-7.4086762824e-001
 1.2279965186e+000	 9.1821839288e-001	-8.2926406033e-001
 1.2178277933e+000	 9.3166302367e-001	-9.1286162801e-001
 1.2075043064e+000	 9.4500473366e-001	-9.9193238263e-001
 1.1970276159e+000	 9.5824087151e-001	-1.0668784072e+000
 1.1863993398e+000	 9.7136881732e-001	-1.1382267865e+000
 1.1756211556e+000	 9.8438598433e-001	-1.2066236381e+000
 1.1646947991e+000	 9.9728982054e-001	-1.2728272471e+000
 1.1536220639e+000	 1.0100778104e+000	-1.3377003527e+000
 1.1424047999e+000	 1.0227474765e+000	-1.4022025836e+000
 1.2532895358e+000	 8.9490537144e-001	-6.6339610218e-001
 1.2433919140e+000	 9.0860709067e-001	-7.5621240335e-001
 1.2333359125e+000	 9.2221085505e-001	-8.4424728184e-001
 1.2231229730e+000	 9.3571394381e-001	-9.2760404766e-001
 1.2127545990e+000	 9.4911366426e-001	-1.0065236083e+000
 1.2022323553e+000	 9.6240735354e-001	-1.0813803457e+000
 1.1915578669e+000	 9.7559238035e-001	-1.1526769922e+000
 1.1807328186e+000	 9.8866614669e-001	-1.2210385420e+000
 1.1697589538e+000	 1.0016260895e+000	-1.2872052397e+000
 1.1586380737e+000	 1.0144696822e+000	-1.3520259757e+000
 1.1473720365e+000	 1.0271944366e+000	-1.4164440634e+000
 1.2587153135e+000	 8.9877962192e-001	-6.7922104374e-001
 1.2487748426e+000	 9.1254065903e-001	-7.7148446796e-001
 1.2386753064e+000	 9.2620331722e-001	-8.5910349471e-001
 1.2284181527e+000	 9.3976486395e-001	-9.4215213380e-001
 1.2180048917e+000	 9.5322259486e-001	-1.0208454263e+000
 1.2074370947e+000	 9.6657383556e-001	-1.0955352421e+000
 1.1967163941e+000	 9.7981594339e-001	-1.1667050493e+000
 1.1858444816e+000	 9.9294630905e-001	-1.2349636919e+000
 1.1748231084e+000	 1.0059623584e+000	-1.3010382188e+000
 1.1636540835e+000	 1.0188615540e+000	-1.3657670037e+000
 1.1523392730e+000	 1.0316413968e+000	-1.4300857071e+000
 1.2641410911e+000	 9.0265387239e-001	-6.9495618624e-001
 1.2541577712e+000	 9.1647422738e-001	-7.8664548429e-001
 1.2440147002e+000	 9.3019577940e-001	-8.7380729801e-001
 1.2337133324e+000	 9.4381578409e-001	-9.5649162094e-001
 1.2232551843e+000	 9.5733152546e-001	-1.0348928395e+000
 1.2126418342e+000	 9.7074031759e-001	-1.1093454389e+000
 1.2018749212e+000	 9.8403950642e-001	-1.1803186522e+000
 1.1909561447e+000	 9.9722647142e-001	-1.2484100911e+000
 1.1798872631e+000	 1.0102986273e+000	-1.3143384024e+000
 1.1686700933e+000	 1.0232534258e+000	-1.3789361028e+000
 1.1573065095e+000	 1.0360883569e+000	-1.4431356894e+000
 1.2695668688e+000	 9.0652812287e-001	-7.1054862481e-001
 1.2595406998e+000	 9.2040779574e-001	-8.0165699381e-001
 1.2493540941e+000	 9.3418824157e-001	-8.8833296854e-001
 1.2390085121e+000	 9.4786670423e-001	-9.7060774249e-001
 1.2285054769e+000	 9.6144045606e-001	-1.0486601950e+000
 1.2178465736e+000	 9.7490679962e-001	-1.1228124927e+000
 1.2070334483e+000	 9.8826306945e-001	-1.1935246058e+000
 1.1960678077e+000	 1.0015066338e+000	-1.2613877780e+000
 1.1849514177e+000	 1.0146348962e+000	-1.3271183567e+000
 1.1736861031e+000	 1.0276452975e+000	-1.3915435335e+000
 1.1622737461e+000	 1.0405353171e+000	-1.4556011695e+000
 1.2749926465e+000	 9.1040237334e-001	-7.2594560142e-001
 1.2649236284e+000	 9.2434136410e-001	-8.1648046658e-001
 1.2546934880e+000	 9.3818070374e-001	-9.0265451432e-001
 1.2443036918e+000	 9.5191762437e-001	-9.8448528766e-001
 1.2337557696e+000	 9.6554938666e-001	-1.0621412434e+000
 1.2230513130e+000	 9.7907328165e-001	-1.1359372362e+000
 1.2121919755e+000	 9.9248663248e-001	-1.2063288890e+000
 1.2011794707e+000	 1.0057867961e+000	-1.2739058893e+000
 1.1900155723e+000	 1.0189711652e+000	-1.3393855208e+000
 1.1787021129e+000	 1.0320371693e+000	-1.4035985895e+000
 1.1672409826e+000	 1.0449822773e+000	-1.4674883521e+000
 1.2804184241e+000	 9.1427662382e-001	-7.4109454949e-001
 1.2703065570e+000	 9.2827493246e-001	-8.3107735049e-001
 1.2600328818e+000	 9.4217316591e-001	-9.1674572777e-001
 1.2495988715e+000	 9.5596854451e-001	-9.9810865817e-001
 1.2390060622e+000	 9.6965831726e-001	-1.0753291984e+000
 1.2282560525e+000	 9.8323976368e-001	-1.1487198393e+000
 1.2173505026e+000	 9.9671019551e-001	-1.2187367174e+000
 1.2062911337e+000	 1.0100669585e+000	-1.2859727237e+000
 1.1950797270e+000	 1.0233074341e+000	-1.3511507291e+000
 1.1837181227e+000	 1.0364290411e+000	-1.4151096596e+000
 1.1722082192e+000	 1.0494292374e+000	-1.4788025473e+000
 1.2858442018e+000	 9.1815087429e-001	-7.5594313846e-001
 1.2756894856e+000	 9.3220850082e-001	-8.4540912038e-001
 1.2653722757e+000	 9.4616562809e-001	-9.3058023885e-001
 1.2548940512e+000	 9.6001946465e-001	-1.0114619245e+000
 1.2442563549e+000	 9.7376724786e-001	-1.0882167956e+000
 1.2334607919e+000	 9.8740624571e-001	-1.1611598701e+000
 1.2225090297e+000	 1.0009337585e+000	-1.2307526049e+000
 1.2114027967e+000	 1.0143471209e+000	-1.2975971721e+000
 1.2001438816e+000	 1.0276437030e+000	-1.3624225295e+000
 1.1887341325e+000	 1.0408209129e+000	-1.4260842894e+000
 1.1771754557e+000	 1.0538761976e+000	-1.4895482308e+000
 1.2912699795e+000	 9.2202512477e-001	-7.7043931841e-001
 1.2810724142e+000	 9.3614206918e-001	-8.5943732703e-001
 1.2707116696e+000	 9.5015809026e-001	-9.4413156781e-001
 1.2601892309e+000	 9.6407038479e-001	-1.0245288820e+000
 1.2495066475e+000	 9.7787617846e-001	-1.1007963514e+000
 1.2386655314e+000	 9.9157272774e-001	-1.1732563556e+000
 1.2276675568e+000	 1.0051573216e+000	-1.2423804262e+000
 1.2165144597e+000	 1.0186272832e+000	-1.3087832077e+000
 1.2052080362e+000	 1.0319799719e+000	-1.3732087088e+000
 1.1937501423e+000	 1.0452127847e+000	-1.4365292422e+000
 1.1821426922e+000	 1.0583231578e+000	-1.4997291030e+000
 1.2966957572e+000	 9.2589937524e-001	-7.8453136465e-001
 1.2864553428e+000	 9.4007563753e-001	-8.7312364614e-001
 1.2760510634e+000	 9.5415055243e-001	-9.5737317786e-001
 1.2654844106e+000	 9.6812130493e-001	-1.0372931065e+000
 1.2547569401e+000	 9.8198510906e-001	-1.1130598208e+000
 1.2438702708e+000	 9.9573920977e-001	-1.1850078415e+000
 1.2328260840e+000	 1.0093808846e+000	-1.2536234773e+000
 1.2216261227e+000	 1.0229074456e+000	-1.3195384626e+000
 1.2102721909e+000	 1.0363162409e+000	-1.3835163539e+000
 1.1987661521e+000	 1.0496046565e+000	-1.4464505597e+000
 1.1871099288e+000	 1.0627701179e+000	-1.5093481478e+000
 1.3021215348e+000	 9.2977362572e-001	-7.9816792238e-001
 1.2918382714e+000	 9.4400920589e-001	-8.8642992707e-001
 1.2813904573e+000	 9.5814301461e-001	-9.7027852762e-001
 1.2707795903e+000	 9.7217222507e-001	-1.0497380099e+000
 1.2600072328e+000	 9.8609403966e-001	-1.1249988556e+000
 1.2490750102e+000	 9.9990569180e-001	-1.1964124518e+000
 1.2379846111e+000	 1.0136044476e+000	-1.2644858564e+000
 1.2267377857e+000	 1.0271876080e+000	-1.3298685045e+000
 1.2153363455e+000	 1.0406525098e+000	-1.3933519129e+000
 1.2037821618e+000	 1.0539965282e+000	-1.4558536216e+000
 1.1920771653e+000	 1.0672170781e+000	-1.5184076912e+000
 1.1424047999e+000	 1.0227474765e+000	-1.4022025836e+000
 1.1310466276e+000	 1.0352945079e+000	-1.4623429799e+000
 1.1195478355e+000	 1.0477184194e+000	-1.5142550740e+000
 1.1079104373e+000	 1.0600168589e+000	-1.5591575400e+000
 1.0961364989e+000	 1.0721875189e+000	-1.5983155083e+000
 1.0842281372e+000	 1.0842281372e+000	-1.6330293084e+000
 1.0721875189e+000	 1.0961364989e+000	-1.6646228889e+000
 1.0600168589e+000	 1.1079104373e+000	-1.6944320047e+000
 1.0477184194e+000	 1.1195478355e+000	-1.7237922617e+000
 1.0352945079e+000	 1.1310466276e+000	-1.7540271106e+000
 1.0227474765e+000	 1.1424047999e+000	-1.7864358841e+000
 1.1473720365e+000	 1.0271944366e+000	-1.4164440634e+000
 1.1359644782e+000	 1.0397960233e+000	-1.4764062577e+000
 1.1244156888e+000	 1.0522739545e+000	-1.5279999110e+000
 1.1127276905e+000	 1.0646258684e+000	-1.5724674035e+000
 1.1009025584e+000	 1.0768494470e+000	-1.6110998788e+000
 1.0889424186e+000	 1.0889424186e+000	-1.6452256532e+000
 1.0768494470e+000	 1.1009025584e+000	-1.6761982921e+000
 1.0646258684e+000	 1.1127276905e+000	-1.7053844433e+000
 1.0522739545e+000	 1.1244156888e+000	-1.7341515197e+000
 1.0397960233e+000	 1.1359644782e+000	-1.7638553278e+000
 1.0271944366e+000	 1.1473720365e+000	-1.7958277359e+000
 1.1523392730e+000	 1.0316413968e+000	-1.4300857071e+000
 1.1408823289e+000	 1.0442975386e+000	-1.4898804333e+000
 1.1292835420e+000	 1.0568294897e+000	-1.5411929288e+000
 1.1175449437e+000	 1.0692348778e+000	-1.5852838009e+000
 1.1056686179e+000	 1.0815113751e+000	-1.6234646426e+000
 1.0936566999e+000	 1.0936566999e+000	-1.6570861135e+000
 1.0815113751e+000	 1.1056686179e+000	-1.6875256742e+000
 1.0692348778e+000	 1.1175449437e+000	-1.7161750685e+000
 1.0568294897e+000	 1.1292835420e+000	-1.7444276475e+000
 1.0442975386e+000	 1.1408823289e+000	-1.7736656348e+000
 1.0316413968e+000	 1.1523392730e+000	-1.8052474299e+000
 1.1573065095e+000	 1.0360883569e+000	-1.4431356894e+000
 1.1458001795e+000	 1.0487990539e+000	-1.5027688171e+000
 1.1341513953e+000	 1.0613850248e+000	-1.5538313477e+000
 1.1223621970e+000	 1.0738438872e+000	-1.5975967240e+000
 1.1104346774e+000	 1.0861733032e+000	-1.6353915156e+000
 1.0983709812e+000	 1.0983709812e+000	-1.6685831736e+000
 1.0861733032e+000	 1.1104346774e+000	-1.6985674260e+000
 1.0738438872e+000	 1.1223621970e+000	-1.7267554111e+000
 1.0613850248e+000	 1.1341513953e+000	-1.7545606459e+000
 1.0487990539e+000	 1.1458001795e+000	-1.7833859303e+000
 1.0360883569e+000	 1.1573065095e+000	-1.8146102879e+000
 1.1622737461e+000	 1.0405353171e+000	-1.4556011695e+000
 1.1507180301e+000	 1.0533005692e+000	-1.5150737421e+000
 1.1390192485e+000	 1.0659405600e+000	-1.5659114642e+000
 1.1271794502e+000	 1.0784528966e+000	-1.6093953097e+000
 1.1152007370e+000	 1.0908352312e+000	-1.6468614412e+000
 1.1030852625e+000	 1.1030852625e+000	-1.6796886408e+000
 1.0908352312e+000	 1.1152007370e+000	-1.7092853689e+000
 1.0784528966e+000	 1.1271794502e+000	-1.7370765511e+000
 1.0659405600e+000	 1.1390192485e+000	-1.7644901933e+000
 1.0533005692e+000	 1.1507180301e+000	-1.7929439273e+000
 1.0405353171e+000	 1.1622737461e+000	-1.8238315914e+000
 1.1672409826e+000	 1.0449822773e+000	-1.4674883521e+000
 1.1556358807e+000	 1.0578020845e+000	-1.5267966226e+000
 1.1438871018e+000	 1.0704960951e+000	-1.5774287071e+000
 1.1319967034e+000	 1.0830619060e+000	-1.6206678925e+000
 1.1199667965e+000	 1.0954971593e+000	-1.6578546392e+000
 1.1077995439e+000	 1.1077995439e+000	-1.6903736898e+000
 1.0954971593e+000	 1.1199667965e+000	-1.7196407942e+000
 1.0830619060e+000	 1.1319967034e+000	-1.7470891516e+000
 1.0704960951e+000	 1.1438871018e+000	-1.7741556744e+000
 1.0578020845e+000	 1.1556358807e+000	-1.8022671775e+000
 1.0449822773e+000	 1.1672409826e+000	-1.8328266010e+000
 1.1722082192e+000	 1.0494292374e+000	-1.4788025473e+000
 1.1605537313e+000	 1.0623035999e+000	-1.5379380115e+000
 1.1487549550e+000	 1.0750516303e+000	-1.5883776920e+000
 1.1368139566e+000	 1.0876709154e+000	-1.6314020558e+000
 1.1247328560e+000	 1.1001590874e+000	-1.6683506532e+000
 1.1125138252e+000	 1.1125138252e+000	-1.7006089066e+000
 1.1001590874e+000	 1.1247328560e+000	-1.7295945030e+000
 1.0876709154e+000	 1.1368139566e+000	-1.7567434943e+000
 1.0750516303e+000	 1.1487549550e+000	-1.7834962107e+000
 1.0623035999e+000	 1.1605537313e+000	-1.8112830962e+000
 1.0494292374e+000	 1.1722082192e+000	-1.8415105747e+000
 1.1771754557e+000	 1.0538761976e+000	-1.4895482308e+000
 1.1654715819e+000	 1.0668051152e+000	-1.5484976584e+000
 1.1536228083e+000	 1.0796071654e+000	-1.5987522763e+000
 1.1416312099e+000	 1.0922799248e+000	-1.6415846834e+000
 1.1294989155e+000	 1.1048210155e+000	-1.6783283987e+000
 1.1172281065e+000	 1.1172281065e+000	-1.7103643319e+000
 1.1048210155e+000	 1.1294989155e+000	-1.7391068454e+000
 1.0922799248e+000	 1.1416312099e+000	-1.7659895142e+000
 1.0796071654e+000	 1.1536228083e+000	-1.7924506904e+000
 1.0668051152e+000	 1.1654715819e+000	-1.8199189868e+000
 1.0538761976e+000	 1.1771754557e+000	-1.8497987883e+000
 1.1821426922e+000	 1.0583231578e+000	-1.4997291030e+000
 1.1703894325e+000	 1.0713066305e+000	-1.5584745661e+000
 1.1584906615e+000	 1.0841627006e+000	-1.6085456132e+000
 1.1464484631e+000	 1.0968889342e+000	-1.6512020107e+000
 1.1342649750e+000	 1.1094829436e+000	-1.6877662106e+000
 1.1219423879e+000	 1.1219423879e+000	-1.7196095053e+000
 1.1094829436e+000	 1.1342649750e+000	-1.7481377603e+000
 1.0968889342e+000	 1.1464484631e+000	-1.7747768343e+000
 1.0841627006e+000	 1.1584906615e+000	-1.8009577982e+000
 1.0713066305e+000	 1.1703894325e+000	-1.8281020663e+000
 1.0583231578e+000	 1.1821426922e+000	-1.8576065546e+000
 1.1871099288e+000	 1.0627701179e+000	-1.5093481478e+000
 1.1753072831e+000	 1.0758081458e+000	-1.5678670473e+000
 1.1633585148e+000	 1.0887182357e+000	-1.6177502058e+000
 1.1512657163e+000	 1.1014979436e+000	-1.6602396753e+000
 1.1390310345e+000	 1.1141448717e+000	-1.6966418906e+000
 1.1266566692e+000	 1.1266566692e+000	-1.7283135086e+000
 1.1141448717e+000	 1.1390310345e+000	-1.7566468140e+000
 1.1014979436e+000	 1.1512657163e+000	-1.7830548008e+000
 1.0887182357e+000	 1.1633585148e+000	-1.8089560459e+000
 1.0758081458e+000	 1.1753072831e+000	-1.8357594899e+000
 1.0627701179e+000	 1.1871099288e+000	-1.8648492438e+000
 1.1920771653e+000	 1.0672170781e+000	-1.5184076912e+000
 1.1802251337e+000	 1.0803096611e+000	-1.5766727807e+000
 1.1682263680e+000	 1.0932737708e+000	-1.6263579603e+000
 1.1560829695e+000	 1.1061069531e+000	-1.6686827677e+000
 1.1437970941e+000	 1.1188067997e+000	-1.7049327540e+000
 1.1313709505e+000	 1.1313709505e+000	-1.7364450090e+000
 1.1188067997e+000	 1.1437970941e+000	-1.7645932403e+000
 1.1061069531e+000	 1.1560829695e+000	-1.7907725179e+000
 1.0932737708e+000	 1.1682263680e+000	-1.8163838024e+000
 1.0803096611e+000	 1.1802251337e+000	-1.8428183772e+000
 1.0672170781e+000	 1.1920771653e+000	-1.8714423039e+000
 1.0227474765e+000	 1.1424047999e+000	-1.7864358841e+000
 1.0100778104e+000	 1.1536220639e+000	-1.8168276834e+000
 9.9728982054e-001	 1.1646947991e+000	-1.8408370812e+000
 9.8438598433e-001	 1.1756211556e+000	-1.8594665506e+000
 9.7136881732e-001	 1.1863993398e+000	-1.8736378729e+000
 9.5824087151e-001	 1.1970276159e+000	-1.8841864037e+000
 9.4500473366e-001	 1.2075043064e+000	-1.8918516023e+000
 9.3166302367e-001	 1.2178277933e+000	-1.8972682309e+000
 9.1821839288e-001	 1.2279965186e+000	-1.9009582995e+000
 9.0467352231e-001	 1.2380089854e+000	-1.9033238220e+000
 8.9103112097e-001	 1.2478637581e+000	-1.9046404469e+000
 1.0271944366e+000	 1.1473720365e+000	-1.7958277359e+000
 1.0144696822e+000	 1.1586380737e+000	-1.8258364441e+000
 1.0016260895e+000	 1.1697589538e+000	-1.8494713730e+000
 9.8866614669e-001	 1.1807328186e+000	-1.8677150491e+000
 9.7559238035e-001	 1.1915578669e+000	-1.8814848649e+000
 9.6240735354e-001	 1.2022323553e+000	-1.8916027169e+000
 9.4911366426e-001	 1.2127545990e+000	-1.8987901326e+000
 9.3571394381e-001	 1.2231229730e+000	-1.9036592473e+000
 9.2221085505e-001	 1.2333359125e+000	-1.9067045474e+000
 9.0860709067e-001	 1.2433919140e+000	-1.9082954508e+000
 8.9490537144e-001	 1.2532895358e+000	-1.9086697856e+000
 1.0316413968e+000	 1.1523392730e+000	-1.8052474299e+000
 1.0188615540e+000	 1.1636540835e+000	-1.8348890837e+000
 1.0059623584e+000	 1.1748231084e+000	-1.8581161027e+000
 9.9294630905e-001	 1.1858444816e+000	-1.8759162564e+000
 9.7981594339e-001	 1.1967163941e+000	-1.8892079497e+000
 9.6657383556e-001	 1.2074370947e+000	-1.8988103398e+000
 9.5322259486e-001	 1.2180048917e+000	-1.9054380060e+000
 9.3976486395e-001	 1.2284181527e+000	-1.9096916765e+000
 9.2620331722e-001	 1.2386753064e+000	-1.9120497432e+000
 9.1254065903e-001	 1.2487748426e+000	-1.9128606368e+000
 8.9877962192e-001	 1.2587153135e+000	-1.9123361273e+000
 1.0360883569e+000	 1.1573065095e+000	-1.8146102879e+000
 1.0232534258e+000	 1.1686700933e+000	-1.8438849502e+000
 1.0102986273e+000	 1.1798872631e+000	-1.8666683016e+000
 9.9722647142e-001	 1.1909561447e+000	-1.8839633517e+000
 9.8403950642e-001	 1.2018749212e+000	-1.8966998341e+000
 9.7074031759e-001	 1.2126418342e+000	-1.9057047693e+000
 9.5733152546e-001	 1.2232551843e+000	-1.9116966522e+000
 9.4381578409e-001	 1.2337133324e+000	-1.9152759001e+000
 9.3019577940e-001	 1.2440147002e+000	-1.9169161114e+000
 9.1647422738e-001	 1.2541577712e+000	-1.9169562080e+000
 9.0265387239e-001	 1.2641410911e+000	-1.9155935293e+000
 1.0405353171e+000	 1.1622737461e+000	-1.8238315914e+000
 1.0276452975e+000	 1.1736861031e+000	-1.8527284970e+000
 1.0146348962e+000	 1.1849514177e+000	-1.8750201943e+000
 1.0015066338e+000	 1.1960678077e+000	-1.8917496514e+000
 9.8826306945e-001	 1.2070334483e+000	-1.9038533075e+000
 9.7490679962e-001	 1.2178465736e+000	-1.9121814788e+000
 9.6144045606e-001	 1.2285054769e+000	-1.9174673215e+000
 9.4786670423e-001	 1.2390085121e+000	-1.9203219174e+000
 9.3418824157e-001	 1.2493540941e+000	-1.9212252477e+000
 9.2040779574e-001	 1.2595406998e+000	-1.9205180759e+000
 9.0652812287e-001	 1.2695668688e+000	-1.9183948069e+000
 1.0449822773e+000	 1.1672409826e+000	-1.8328266010e+000
 1.0320371693e+000	 1.1787021129e+000	-1.8613242698e+000
 1.0189711652e+000	 1.1900155723e+000	-1.8830791834e+000
 1.0057867961e+000	 1.2011794707e+000	-1.8991686164e+000
 9.9248663248e-001	 1.2121919755e+000	-1.9105612485e+000
 9.7907328165e-001	 1.2230513130e+000	-1.9181359239e+000
 9.6554938666e-001	 1.2337557696e+000	-1.9226510915e+000
 9.5191762437e-001	 1.2443036918e+000	-1.9247393540e+000
 9.3818070374e-001	 1.2546934880e+000	-1.9248981306e+000
 9.2434136410e-001	 1.2649236284e+000	-1.9234812508e+000
 9.1040237334e-001	 1.2749926465e+000	-1.9206915523e+000
 1.0494292374e+000	 1.1722082192e+000	-1.8415105747e+000
 1.0364290411e+000	 1.1837181227e+000	-1.8695769203e+000
 1.0233074341e+000	 1.1950797270e+000	-1.8907375920e+000
 1.0100669585e+000	 1.2062911337e+000	-1.9061138600e+000
 9.9671019551e-001	 1.2173505026e+000	-1.9167166311e+000
 9.8323976368e-001	 1.2282560525e+000	-1.9234635487e+000
 9.6965831726e-001	 1.2390060622e+000	-1.9271488734e+000
 9.5596854451e-001	 1.2495988715e+000	-1.9284374706e+000
 9.4217316591e-001	 1.2600328818e+000	-1.9278551322e+000
 9.2827493246e-001	 1.2703065570e+000	-1.9257798563e+000
 9.1427662382e-001	 1.2804184241e+000	-1.9224341544e+000
 1.0538761976e+000	 1.1771754557e+000	-1.8497987883e+000
 1.0408209129e+000	 1.1887341325e+000	-1.8773912213e+000
 1.0276437030e+000	 1.2001438816e+000	-1.8978930588e+000
 1.0143471209e+000	 1.2114027967e+000	-1.9124741653e+000
 1.0009337585e+000	 1.2225090297e+000	-1.9222125318e+000
 9.8740624571e-001	 1.2334607919e+000	-1.9280597925e+000
 9.7376724786e-001	 1.2442563549e+000	-1.9308614205e+000
 9.6001946465e-001	 1.2548940512e+000	-1.9313251715e+000
 9.4616562809e-001	 1.2653722757e+000	-1.9300160301e+000
 9.3220850082e-001	 1.2756894856e+000	-1.9273471445e+000
 9.1815087429e-001	 1.2858442018e+000	-1.9235718181e+000
 1.0583231578e+000	 1.1821426922e+000	-1.8576065546e+000
 1.0452127847e+000	 1.1937501423e+000	-1.8846720814e+000
 1.0319799719e+000	 1.2052080362e+000	-1.9044434020e+000
 1.0186272832e+000	 1.2165144597e+000	-1.9181536737e+000
 1.0051573216e+000	 1.2276675568e+000	-1.9269421374e+000
 9.9157272774e-001	 1.2386655314e+000	-1.9318200969e+000
 9.7787617846e-001	 1.2495066475e+000	-1.9336893348e+000
 9.6407038479e-001	 1.2601892309e+000	-1.9333110151e+000
 9.5015809026e-001	 1.2707116696e+000	-1.9313000195e+000
 9.3614206918e-001	 1.2810724142e+000	-1.9281155117e+000
 9.2202512477e-001	 1.2912699795e+000	-1.9240525836e+000
 1.0627701179e+000	 1.1871099288e+000	-1.8648492438e+000
 1.0496046565e+000	 1.1987661521e+000	-1.8913245608e+000
 1.0363162409e+000	 1.2102721909e+000	-1.9102866311e+000
 1.0229074456e+000	 1.2216261227e+000	-1.9230413002e+000
 1.0093808846e+000	 1.2328260840e+000	-1.9307987532e+000
 9.9573920977e-001	 1.2438702708e+000	-1.9346399142e+000
 9.8198510906e-001	 1.2547569401e+000	-1.9355330767e+000
 9.6812130493e-001	 1.2654844106e+000	-1.9343032227e+000
 9.5415055243e-001	 1.2760510634e+000	-1.9316257252e+000
 9.4007563753e-001	 1.2864553428e+000	-1.9280165132e+000
 9.2589937524e-001	 1.2966957572e+000	-1.9238233462e+000
 1.0672170781e+000	 1.1920771653e+000	-1.8714423039e+000
 1.0539965282e+000	 1.2037821618e+000	-1.8972538872e+000
 1.0406525098e+000	 1.2153363455e+000	-1.9153209595e+000
 1.0271876080e+000	 1.2267377857e+000	-1.9270313582e+000
 1.0136044476e+000	 1.2379846111e+000	-1.9336708040e+000
 9.9990569180e-001	 1.2490750102e+000	-1.9364147147e+000
 9.8609403966e-001	 1.2600072328e+000	-1.9362929726e+000
 9.7217222507e-001	 1.2707795903e+000	-1.9342096893e+000
 9.5814301461e-001	 1.2813904573e+000	-1.9309112142e+000
 9.4400920589e-001	 1.2918382714e+000	-1.9269808796e+000
 9.2977362572e-001	 1.3021215348e+000	-1.9228298755e+000
 8.9103112097e-001	 1.2478637581e+000	-1.9046404469e+000
 8.7729392378e-001	 1.2575594630e+000	-1.9020280715e+000
 8.6346468893e-001	 1.2670947876e+000	-1.8934753734e+000
 8.4954619707e-001	 1.2764684825e+000	-1.8803628634e+000
 8.3554124973e-001	 1.2856793616e+000	-1.8639335493e+000
 8.2145266760e-001	 1.2947263030e+000	-1.8452889325e+000
 8.0728328871e-001	 1.3036082491e+000	-1.8253861266e+000
 7.9303596658e-001	 1.3123242069e+000	-1.8050361143e+000
 7.7871356847e-001	 1.3208732481e+000	-1.7849031511e+000
 7.6431897353e-001	 1.3292545095e+000	-1.7655053151e+000
 7.4985507103e-001	 1.3374671927e+000	-1.7464628999e+000
 8.9490537144e-001	 1.2532895358e+000	-1.9086697856e+000
 8.8110844419e-001	 1.2630273981e+000	-1.9049927321e+000
 8.6721907910e-001	 1.2726041829e+000	-1.8953739469e+000
 8.5324006890e-001	 1.2820186350e+000	-1.8812652180e+000
 8.3917422731e-001	 1.2912695635e+000	-1.8639799834e+000
 8.2502438728e-001	 1.3003558415e+000	-1.8446890408e+000
 8.1079339917e-001	 1.3092764068e+000	-1.8244174065e+000
 7.9648412894e-001	 1.3180302620e+000	-1.8040423395e+000
 7.8209945628e-001	 1.3266164749e+000	-1.7842925408e+000
 7.6764227288e-001	 1.3350341785e+000	-1.7656127378e+000
 7.5311548057e-001	 1.3432825709e+000	-1.7444719841e+000
 8.9877962192e-001	 1.2587153135e+000	-1.9123361273e+000
 8.8492296460e-001	 1.2684953332e+000	-1.9077181035e+000
 8.7097346927e-001	 1.2781135781e+000	-1.8972513946e+000
 8.5693394073e-001	 1.2875687876e+000	-1.8824446572e+000
 8.4280720488e-001	 1.2968597654e+000	-1.8646668094e+000
 8.2859610696e-001	 1.3059853800e+000	-1.8451424796e+000
 8.1430350964e-001	 1.3149445645e+000	-1.8249486321e+000
 7.9993229129e-001	 1.3237363171e+000	-1.8050123864e+000
 7.8548534409e-001	 1.3323597017e+000	-1.7861100413e+000
 7.7096557224e-001	 1.3408138474e+000	-1.7662928276e+000
 7.5637589011e-001	 1.3490979490e+000	-1.7426893982e+000
 9.0265387239e-001	 1.2641410911e+000	-1.9155935293e+000
 8.8873748502e-001	 1.2739632683e+000	-1.9101744384e+000
 8.7472785944e-001	 1.2836229733e+000	-1.8990896921e+000
 8.6062781256e-001	 1.2931189401e+000	-1.8838906054e+000
 8.4644018246e-001	 1.3024499674e+000	-1.8659868260e+000
 8.3216782663e-001	 1.3116149185e+000	-1.8466415480e+000
 8.1781362011e-001	 1.3206127221e+000	-1.8269679313e+000
 8.0338045365e-001	 1.3294423723e+000	-1.8079267433e+000
 7.8887123190e-001	 1.3381029285e+000	-1.7892401257e+000
 7.7428887159e-001	 1.3465935164e+000	-1.7666816440e+000
 7.5963629964e-001	 1.3549133272e+000	-1.7409597972e+000
 9.0652812287e-001	 1.2695668688e+000	-1.9183948069e+000
 8.9255200543e-001	 1.2794312034e+000	-1.9123304459e+000
 8.7848224961e-001	 1.2891323685e+000	-1.9008690550e+000
 8.6432168439e-001	 1.2986690926e+000	-1.8855905912e+000
 8.5007316004e-001	 1.3080401693e+000	-1.8679308777e+000
 8.3573954631e-001	 1.3172444570e+000	-1.8491766080e+000
 8.2132373057e-001	 1.3262808798e+000	-1.8304615837e+000
 8.0682861600e-001	 1.3351484274e+000	-1.8125995148e+000
 7.9225711971e-001	 1.3438461553e+000	-1.7916312114e+000
 7.7761217094e-001	 1.3523731854e+000	-1.7666495403e+000
 7.6289670918e-001	 1.3607287053e+000	-1.7391309799e+000
 9.1040237334e-001	 1.2749926465e+000	-1.9206915523e+000
 8.9636652585e-001	 1.2848991385e+000	-1.9141533156e+000
 8.8223663978e-001	 1.2946417637e+000	-1.9025679643e+000
 8.6801555622e-001	 1.3042192451e+000	-1.8875302732e+000
 8.5370613761e-001	 1.3136303712e+000	-1.8704878811e+000
 8.3931126598e-001	 1.3228739955e+000	-1.8527361082e+000
 8.2483384104e-001	 1.3319490375e+000	-1.8354140407e+000
 8.1027677836e-001	 1.3408544825e+000	-1.8167315670e+000
 7.9564300752e-001	 1.3495893821e+000	-1.7931344243e+000
 7.8093547029e-001	 1.3581528543e+000	-1.7660696573e+000
 7.6615711872e-001	 1.3665440835e+000	-1.7370538523e+000
 9.1427662382e-001	 1.2804184241e+000	-1.9224341544e+000
 9.0018104626e-001	 1.2903670737e+000	-1.9156087406e+000
 8.8599102995e-001	 1.3001511589e+000	-1.9041631923e+000
 8.7170942805e-001	 1.3097693977e+000	-1.8896934674e+000
 8.5733911519e-001	 1.3192205731e+000	-1.8736448500e+000
 8.4288298566e-001	 1.3285035340e+000	-1.8573066073e+000
 8.2834395151e-001	 1.3376171951e+000	-1.8408873973e+000
 8.1372494072e-001	 1.3465605376e+000	-1.8195214461e+000
 7.9902889534e-001	 1.3553326089e+000	-1.7936446227e+000
 7.8425876964e-001	 1.3639325233e+000	-1.7648178936e+000
 7.6941752826e-001	 1.3723594616e+000	-1.7345823912e+000
 9.1815087429e-001	 1.2858442018e+000	-1.9235718181e+000
 9.0399556667e-001	 1.2958350088e+000	-1.9166609408e+000
 8.8974542012e-001	 1.3056605541e+000	-1.9056298282e+000
 8.7540329987e-001	 1.3153195502e+000	-1.8920621724e+000
 8.6097209277e-001	 1.3248107750e+000	-1.8773869210e+000
 8.4645470534e-001	 1.3341330725e+000	-1.8628381086e+000
 8.3185406197e-001	 1.3432853528e+000	-1.8446715154e+000
 8.1717310307e-001	 1.3522665927e+000	-1.8208820679e+000
 8.0241478315e-001	 1.3610758357e+000	-1.7930591342e+000
 7.8758206899e-001	 1.3697121923e+000	-1.7627728755e+000
 7.7267793779e-001	 1.3781748397e+000	-1.7315736080e+000
 9.2202512477e-001	 1.2912699795e+000	-1.9240525836e+000
 9.0781008709e-001	 1.3013029439e+000	-1.9172726862e+000
 8.9349981029e-001	 1.3111699493e+000	-1.9069413032e+000
 8.7909717170e-001	 1.3208697027e+000	-1.8946165962e+000
 8.6460507035e-001	 1.3304009769e+000	-1.8816973788e+000
 8.5002642501e-001	 1.3397626110e+000	-1.8673202650e+000
 8.3536417244e-001	 1.3489535105e+000	-1.8466040718e+000
 8.2062126543e-001	 1.3579726478e+000	-1.8207285913e+000
 8.0580067096e-001	 1.3668190625e+000	-1.7912777323e+000
 7.9090536834e-001	 1.3754918612e+000	-1.7598159277e+000
 7.7593834733e-001	 1.3839902179e+000	-1.7278875129e+000
 9.2589937524e-001	 1.2966957572e+000	-1.9238233462e+000
 9.1162460750e-001	 1.3067708790e+000	-1.9174053199e+000
 8.9725420046e-001	 1.3166793445e+000	-1.9080694161e+000
 8.8279104353e-001	 1.3264198552e+000	-1.8973351814e+000
 8.6823804792e-001	 1.3359911788e+000	-1.8861918337e+000
 8.5359814469e-001	 1.3453921495e+000	-1.8695467249e+000
 8.3887428291e-001	 1.3546216681e+000	-1.8466144322e+000
 8.2406942778e-001	 1.3636787029e+000	-1.8189783983e+000
 8.0918655877e-001	 1.3725622893e+000	-1.7882026111e+000
 7.9422866769e-001	 1.3812715302e+000	-1.7558310440e+000
 7.7919875687e-001	 1.3898055960e+000	-1.7233870798e+000
 9.2977362572e-001	 1.3021215348e+000	-1.9228298755e+000
 9.1543912792e-001	 1.3122388141e+000	-1.9170187812e+000
 9.0100859063e-001	 1.3221887397e+000	-1.9089843575e+000
 8.8648491536e-001	 1.3319700078e+000	-1.9001946307e+000
 8.7187102550e-001	 1.3415813808e+000	-1.8884711315e+000
 8.5716986437e-001	 1.3510216880e+000	-1.8694574185e+000
 8.4238439338e-001	 1.3602898258e+000	-1.8446340224e+000
 8.2751759014e-001	 1.3693847580e+000	-1.8155510732e+000
 8.1257244658e-001	 1.3783055161e+000	-1.7837383616e+000
 7.9755196704e-001	 1.3870511992e+000	-1.7507048581e+000
 7.8245916641e-001	 1.3956209742e+000	-1.7179382112e+000
 7.4985507103e-001	 1.3374671927e+000	-1.7464628999e+000
 7.3532694294e-001	 1.3455093710e+000	-1.7284983241e+000
 7.2073532834e-001	 1.3533816217e+000	-1.7139928414e+000
 7.0608313551e-001	 1.3610833429e+000	-1.7003555733e+000
 6.9137327568e-001	 1.3686139973e+000	-1.6849960838e+000
 6.7660866123e-001	 1.3759731119e+000	-1.6653299053e+000
 6.6179220402e-001	 1.3831602784e+000	-1.6394976004e+000
 6.4692681362e-001	 1.3901751520e+000	-1.6142381639e+000
 6.3201539562e-001	 1.3970174516e+000	-1.5896610662e+000
 6.1706085001e-001	 1.4036869593e+000	-1.5631462616e+000
 6.0206606944e-001	 1.4101835197e+000	-1.5322960078e+000
 7.5311548057e-001	 1.3432825709e+000	-1.7444719841e+000
 7.3852418341e-001	 1.3513597169e+000	-1.7244608529e+000
 7.2386912369e-001	 1.3592661966e+000	-1.7086327014e+000
 7.0915322236e-001	 1.3670014053e+000	-1.6943319014e+000
 6.9437940328e-001	 1.3745648034e+000	-1.6789001560e+000
 6.7955059151e-001	 1.3819559159e+000	-1.6596821969e+000
 6.6466971155e-001	 1.3891743325e+000	-1.6341520485e+000
 6.4973968564e-001	 1.3962197071e+000	-1.6076486611e+000
 6.3476343202e-001	 1.4030917574e+000	-1.5821741356e+000
 6.1974386324e-001	 1.4097902645e+000	-1.5550363744e+000
 6.0468388457e-001	 1.4163150723e+000	-1.5237669215e+000
 7.5637589011e-001	 1.3490979490e+000	-1.7426893982e+000
 7.4172142387e-001	 1.3572100629e+000	-1.7209312277e+000
 7.2700291905e-001	 1.3651507716e+000	-1.7039936057e+000
 7.1222330920e-001	 1.3729194677e+000	-1.6891659858e+000
 6.9738553087e-001	 1.3805156095e+000	-1.6737324512e+000
 6.8249252178e-001	 1.3879387198e+000	-1.6549775612e+000
 6.6754721909e-001	 1.3951883866e+000	-1.6301920630e+000
 6.5255255767e-001	 1.4022642623e+000	-1.6024177443e+000
 6.3751146841e-001	 1.4091660632e+000	-1.5759613015e+000
 6.2242687648e-001	 1.4158935697e+000	-1.5480915891e+000
 6.0730169971e-001	 1.4224466248e+000	-1.5162817218e+000
 7.5963629964e-001	 1.3549133272e+000	-1.7409597972e+000
 7.4491866434e-001	 1.3630604089e+000	-1.7177320306e+000
 7.3013671440e-001	 1.3710353465e+000	-1.6998805579e+000
 7.1529339605e-001	 1.3788375302e+000	-1.6846496152e+000
 7.0039165847e-001	 1.3864664156e+000	-1.6692757738e+000
 6.8543445205e-001	 1.3939215237e+000	-1.6509939131e+000
 6.7042472662e-001	 1.4012024407e+000	-1.6270430576e+000
 6.5536542970e-001	 1.4083088174e+000	-1.5983157044e+000
 6.4025950480e-001	 1.4152403691e+000	-1.5708053637e+000
 6.2510988972e-001	 1.4219968749e+000	-1.5421106576e+000
 6.0991951485e-001	 1.4285781774e+000	-1.5096584195e+000
 7.6289670918e-001	 1.3607287053e+000	-1.7391309799e+000
 7.4811590481e-001	 1.3689107548e+000	-1.7146892992e+000
 7.3327050976e-001	 1.3769199214e+000	-1.6961022501e+000
 7.1836348289e-001	 1.3847555926e+000	-1.6805784242e+000
 7.0339778606e-001	 1.3924172217e+000	-1.6653168578e+000
 6.8837638232e-001	 1.3999043276e+000	-1.6475131098e+000
 6.7330223415e-001	 1.4072164948e+000	-1.6243652007e+000
 6.5817830173e-001	 1.4143533726e+000	-1.5951149234e+000
 6.4300754120e-001	 1.4213146749e+000	-1.5664909624e+000
 6.2779290296e-001	 1.4281001801e+000	-1.5368938663e+000
 6.1253732999e-001	 1.4347097300e+000	-1.5037162007e+000
 7.6615711872e-001	 1.3665440835e+000	-1.7370538523e+000
 7.5131314527e-001	 1.3747611008e+000	-1.7116324830e+000
 7.3640430511e-001	 1.3828044963e+000	-1.6924710148e+000
 7.2143356974e-001	 1.3906736550e+000	-1.6767518419e+000
 7.0640391366e-001	 1.3983680278e+000	-1.6616463139e+000
 6.9131831259e-001	 1.4058871315e+000	-1.6443208974e+000
 6.7617974168e-001	 1.4132305489e+000	-1.6219431945e+000
 6.6099117375e-001	 1.4203979277e+000	-1.5925898904e+000
 6.4575557759e-001	 1.4273889807e+000	-1.5628045957e+000
 6.3047591619e-001	 1.4342034853e+000	-1.5322430544e+000
 6.1515514513e-001	 1.4408412826e+000	-1.4982754482e+000
 7.6941752826e-001	 1.3723594616e+000	-1.7345823912e+000
 7.5451038574e-001	 1.3806114468e+000	-1.7083944009e+000
 7.3953810047e-001	 1.3886890713e+000	-1.6888027774e+000
 7.2450365658e-001	 1.3965917174e+000	-1.6729730410e+000
 7.0941004126e-001	 1.4043188339e+000	-1.6580585769e+000
 6.9426024286e-001	 1.4118699355e+000	-1.6412068585e+000
 6.7905724921e-001	 1.4192446030e+000	-1.6195655241e+000
 6.6380404578e-001	 1.4264424828e+000	-1.5905172188e+000
 6.4850361398e-001	 1.4334632865e+000	-1.5595346360e+000
 6.3315892943e-001	 1.4403067904e+000	-1.5279616331e+000
 6.1777296026e-001	 1.4469728352e+000	-1.4931577629e+000
 7.7267793779e-001	 1.3781748397e+000	-1.7315736080e+000
 7.5770762621e-001	 1.3864617927e+000	-1.7048111987e+000
 7.4267189582e-001	 1.3945736462e+000	-1.6849170096e+000
 7.2757374343e-001	 1.4025097798e+000	-1.6690488887e+000
 7.1241616886e-001	 1.4102696400e+000	-1.6543518546e+000
 6.9720217314e-001	 1.4178527394e+000	-1.6379643607e+000
 6.8193475674e-001	 1.4252586571e+000	-1.6170244067e+000
 6.6661691781e-001	 1.4324870380e+000	-1.5886756640e+000
 6.5125165038e-001	 1.4395375924e+000	-1.5564713491e+000
 6.3584194267e-001	 1.4464100956e+000	-1.5238546049e+000
 6.2039077540e-001	 1.4531043878e+000	-1.4881859869e+000
 7.7593834733e-001	 1.3839902179e+000	-1.7278875129e+000
 7.6090486668e-001	 1.3923121387e+000	-1.7007223078e+000
 7.4580569118e-001	 1.4004582211e+000	-1.6806366833e+000
 7.3064383028e-001	 1.4084278422e+000	-1.6647898971e+000
 7.1542229645e-001	 1.4162204461e+000	-1.6503280776e+000
 7.0014410341e-001	 1.4238355433e+000	-1.6343905059e+000
 6.8481226428e-001	 1.4312727112e+000	-1.6141157429e+000
 6.6942978984e-001	 1.4385315931e+000	-1.5866475884e+000
 6.5399968677e-001	 1.4456118982e+000	-1.5534069124e+000
 6.3852495591e-001	 1.4525134008e+000	-1.5197285845e+000
 6.2300859054e-001	 1.4592359404e+000	-1.4831842256e+000
 7.7919875687e-001	 1.3898055960e+000	-1.7233870798e+000
 7.6410210715e-001	 1.3981624846e+000	-1.6959704039e+000
 7.4893948653e-001	 1.4063427960e+000	-1.6757882251e+000
 7.3371391712e-001	 1.4143459047e+000	-1.6600101756e+000
 7.1842842405e-001	 1.4221712522e+000	-1.6457928489e+000
 7.0308603368e-001	 1.4298183472e+000	-1.6302860807e+000
 6.8768977181e-001	 1.4372867653e+000	-1.6106390674e+000
 6.7224266187e-001	 1.4445761483e+000	-1.5840063124e+000
 6.5674772317e-001	 1.4516862040e+000	-1.5501354351e+000
 6.4120796915e-001	 1.4586167060e+000	-1.5153918190e+000
 6.2562640568e-001	 1.4653674929e+000	-1.4779778716e+000
 7.8245916641e-001	 1.3956209742e+000	-1.7179382112e+000
 7.6729934761e-001	 1.4040128306e+000	-1.6904013668e+000
 7.5207328189e-001	 1.4122273710e+000	-1.6702014723e+000
 7.3678400397e-001	 1.4202639671e+000	-1.6545273831e+000
 7.2143455165e-001	 1.4281220583e+000	-1.6405553962e+000
 7.0602796396e-001	 1.4358011511e+000	-1.6254555075e+000
 6.9056727934e-001	 1.4433008194e+000	-1.6063975014e+000
 6.7505553390e-001	 1.4506207034e+000	-1.5805568624e+000
 6.5949575956e-001	 1.4577605098e+000	-1.5464529786e+000
 6.4389098239e-001	 1.4647200112e+000	-1.5106542103e+000
 6.2824422082e-001	 1.4714990455e+000	-1.4723936287e+000
 6.0206606944e-001	 1.4101835197e+000	-1.5322960078e+000
 5.8703168008e-001	 1.4165079754e+000	-1.5008053913e+000
 5.7196280356e-001	 1.4226593082e+000	-1.4731238373e+000
 5.5686230299e-001	 1.4286375485e+000	-1.4482574248e+000
 5.4173302785e-001	 1.4344427869e+000	-1.4253719405e+000
 5.2657781239e-001	 1.4400751738e+000	-1.4037805365e+000
 5.1139947426e-001	 1.4455349184e+000	-1.3829316860e+000
 4.9620081298e-001	 1.4508222877e+000	-1.3623974748e+000
 4.8098460859e-001	 1.4559376062e+000	-1.3418622636e+000
 4.6575362026e-001	 1.4608812546e+000	-1.3211117468e+000
 4.5051058496e-001	 1.4656536691e+000	-1.3000224306e+000
 6.0468388457e-001	 1.4163150723e+000	-1.5237669215e+000
 5.8958412489e-001	 1.4226670271e+000	-1.4919938825e+000
 5.7444972810e-001	 1.4288451062e+000	-1.4641238813e+000
 5.5928356976e-001	 1.4348493402e+000	-1.4391318060e+000
 5.4408851173e-001	 1.4406798201e+000	-1.4161554048e+000
 5.2886740059e-001	 1.4463366969e+000	-1.3944827418e+000
 5.1362306624e-001	 1.4518201807e+000	-1.3735399638e+000
 4.9835832038e-001	 1.4571305398e+000	-1.3528794218e+000
 4.8307595513e-001	 1.4622680999e+000	-1.3321681772e+000
 4.6777874166e-001	 1.4672332436e+000	-1.3111769224e+000
 4.5246942883e-001	 1.4720264088e+000	-1.2897693361e+000
 6.0730169971e-001	 1.4224466248e+000	-1.5162817218e+000
 5.9213656971e-001	 1.4288260787e+000	-1.4841152154e+000
 5.7693665264e-001	 1.4350309042e+000	-1.4559693286e+000
 5.6170483653e-001	 1.4410611318e+000	-1.4307865213e+000
 5.4644399560e-001	 1.4469168533e+000	-1.4076749857e+000
 5.3115698879e-001	 1.4525982200e+000	-1.3858959014e+000
 5.1584665823e-001	 1.4581054430e+000	-1.3648510213e+000
 5.0051582778e-001	 1.4634387919e+000	-1.3440706263e+000
 4.8516730167e-001	 1.4685985937e+000	-1.3232018835e+000
 4.6980386305e-001	 1.4735852326e+000	-1.3019976361e+000
 4.5442827270e-001	 1.4783991485e+000	-1.2803056433e+000
 6.0991951485e-001	 1.4285781774e+000	-1.5096584195e+000
 5.9468901453e-001	 1.4349851304e+000	-1.4770069635e+000
 5.7942357719e-001	 1.4412167021e+000	-1.4485147307e+000
 5.6412610330e-001	 1.4472729235e+000	-1.4230905591e+000
 5.4879947948e-001	 1.4531538864e+000	-1.3998116091e+000
 5.3344657699e-001	 1.4588597431e+000	-1.3779104236e+000
 5.1807025021e-001	 1.4643907054e+000	-1.3567623359e+000
 5.0267333518e-001	 1.4697470440e+000	-1.3358732649e+000
 4.8725864820e-001	 1.4749290875e+000	-1.3148679317e+000
 4.7182898444e-001	 1.4799372217e+000	-1.2934785247e+000
 4.5638711657e-001	 1.4847718883e+000	-1.2715338346e+000
 6.1253732999e-001	 1.4347097300e+000	-1.5037162007e+000
 5.9724145935e-001	 1.4411441820e+000	-1.4705075152e+000
 5.8191050173e-001	 1.4474025001e+000	-1.4416151432e+000
 5.6654737007e-001	 1.4534847152e+000	-1.4159131491e+000
 5.5115496336e-001	 1.4593909196e+000	-1.3924462289e+000
 5.3573616519e-001	 1.4651212662e+000	-1.3704165785e+000
 5.2029384219e-001	 1.4706759677e+000	-1.3491711293e+000
 5.0483084258e-001	 1.4760552961e+000	-1.3281891886e+000
 4.8934999474e-001	 1.4812595813e+000	-1.3070705213e+000
 4.7385410584e-001	 1.4862892107e+000	-1.2855238984e+000
 4.5834596044e-001	 1.4911446280e+000	-1.2633561339e+000
 6.1515514513e-001	 1.4408412826e+000	-1.4982754482e+000
 5.9979390416e-001	 1.4473032337e+000	-1.4644560987e+000
 5.8439742628e-001	 1.4535882981e+000	-1.4351261524e+000
 5.6896863684e-001	 1.4596965069e+000	-1.4091237908e+000
 5.5351044724e-001	 1.4656279527e+000	-1.3854598551e+000
 5.3802575340e-001	 1.4713827892e+000	-1.3633045269e+000
 5.2251743417e-001	 1.4769612301e+000	-1.3419743948e+000
 5.0698834998e-001	 1.4823635482e+000	-1.3209199474e+000
 4.9144134128e-001	 1.4875900751e+000	-1.2997135249e+000
 4.7587922723e-001	 1.4926411997e+000	-1.2780377591e+000
 4.6030480431e-001	 1.4975173677e+000	-1.2556745209e+000
 6.1777296026e-001	 1.4469728352e+000	-1.4931577629e+000
 6.0234634898e-001	 1.4534622853e+000	-1.4586928061e+000
 5.8688435082e-001	 1.4597740961e+000	-1.4289039018e+000
 5.7138990361e-001	 1.4659082986e+000	-1.4025922814e+000
 5.5586593112e-001	 1.4718649859e+000	-1.3787335830e+000
 5.4031534160e-001	 1.4776443123e+000	-1.3564643481e+000
 5.2474102616e-001	 1.4832464924e+000	-1.3350689247e+000
 5.0914585738e-001	 1.4886718003e+000	-1.3139668159e+000
 4.9353268782e-001	 1.4939205688e+000	-1.2927005104e+000
 4.7790434862e-001	 1.4989931887e+000	-1.2709238204e+000
 4.6226364818e-001	 1.5038901075e+000	-1.2483907463e+000
 6.2039077540e-001	 1.4531043878e+000	-1.4881859869e+000
 6.0489879380e-001	 1.4596213370e+000	-1.4530586196e+000
 5.8937127537e-001	 1.4659598940e+000	-1.4228051199e+000
 5.7381117038e-001	 1.4721200902e+000	-1.3961887442e+000
 5.5822141501e-001	 1.4781020191e+000	-1.3721486213e+000
 5.4260492980e-001	 1.4839058354e+000	-1.3497860689e+000
 5.2696461814e-001	 1.4895317547e+000	-1.3283513368e+000
 5.1130336478e-001	 1.4949800524e+000	-1.3072308182e+000
 4.9562403435e-001	 1.5002510626e+000	-1.2859347641e+000
 4.7992947002e-001	 1.5053451777e+000	-1.2640855257e+000
 4.6422249205e-001	 1.5102628472e+000	-1.2414063468e+000
 6.2300859054e-001	 1.4592359404e+000	-1.4831842256e+000
 6.0745123862e-001	 1.4657803887e+000	-1.4473954360e+000
 5.9185819992e-001	 1.4721456920e+000	-1.4166871473e+000
 5.7623243715e-001	 1.4783318819e+000	-1.3897836575e+000
 5.6057689889e-001	 1.4843390522e+000	-1.3655863217e+000
 5.4489451800e-001	 1.4901673585e+000	-1.3431596913e+000
 5.2918821013e-001	 1.4958170171e+000	-1.3217181023e+000
 5.1346087218e-001	 1.5012883045e+000	-1.3006127539e+000
 4.9771538089e-001	 1.5065815564e+000	-1.2793193127e+000
 4.8195459141e-001	 1.5116971668e+000	-1.2574260684e+000
 4.6618133592e-001	 1.5166355869e+000	-1.2346226600e+000
 6.2562640568e-001	 1.4653674929e+000	-1.4779778716e+000
 6.1000368344e-001	 1.4719394403e+000	-1.4415460936e+000
 5.9434512446e-001	 1.4783314900e+000	-1.4104079648e+000
 5.7865370392e-001	 1.4845436736e+000	-1.3832478831e+000
 5.6293238277e-001	 1.4905760854e+000	-1.3589282075e+000
 5.4718410620e-001	 1.4964288816e+000	-1.3364752219e+000
 5.3141180211e-001	 1.5021022794e+000	-1.3150655731e+000
 5.1561837958e-001	 1.5075965566e+000	-1.2940132225e+000
 4.9980672743e-001	 1.5129120502e+000	-1.2727569463e+000
 4.8397971281e-001	 1.5180491558e+000	-1.2508484105e+000
 4.6814017979e-001	 1.5230083267e+000	-1.2279408402e+000
 6.2824422082e-001	 1.4714990455e+000	-1.4723936287e+000
 6.1255612826e-001	 1.4780984920e+000	-1.4353543981e+000
 5.9683204901e-001	 1.4845172880e+000	-1.4038262209e+000
 5.8107497069e-001	 1.4907554653e+000	-1.3764526957e+000
 5.6528786665e-001	 1.4968131186e+000	-1.3520560030e+000
 5.4947369440e-001	 1.5026904046e+000	-1.3296226996e+000
 5.3363539409e-001	 1.5083875417e+000	-1.3082900088e+000
 5.1777588698e-001	 1.5139048087e+000	-1.2873326498e+000
 5.0189807397e-001	 1.5192425439e+000	-1.2661502413e+000
 4.8600483420e-001	 1.5244011448e+000	-1.2442553028e+000
 4.7009902366e-001	 1.5293810664e+000	-1.2212618732e+000
 4.5051058496e-001	 1.4656536691e+000	-1.3000224306e+000
 4.3525821595e-001	 1.4702553399e+000	-1.2795418836e+000
 4.1999920091e-001	 1.4746868094e+000	-1.2604649642e+000
 4.0473620139e-001	 1.4789486721e+000	-1.2425569304e+000
 3.8947185191e-001	 1.4830415738e+000	-1.2256509976e+000
 3.7420875878e-001	 1.4869662112e+000	-1.2096406158e+000
 3.5894949905e-001	 1.4907233297e+000	-1.1944721482e+000
 3.4369661943e-001	 1.4943137236e+000	-1.1801379392e+000
 3.2845263534e-001	 1.4977382337e+000	-1.1666697597e+000
 3.1322002990e-001	 1.5009977473e+000	-1.1541326116e+000
 2.9800125306e-001	 1.5040931960e+000	-1.1426188744e+000
 4.5246942883e-001	 1.4720264088e+000	-1.2897693361e+000
 4.3715074171e-001	 1.4766480879e+000	-1.2689316066e+000
 4.2182537966e-001	 1.4810988257e+000	-1.2495116732e+000
 4.0649601582e-001	 1.4853792192e+000	-1.2312851813e+000
 3.9116529614e-001	 1.4894899171e+000	-1.2140956402e+000
 3.7583583827e-001	 1.4934316190e+000	-1.1978466670e+000
 3.6051023047e-001	 1.4972050737e+000	-1.1824946473e+000
 3.4519103052e-001	 1.5008110787e+000	-1.1680417997e+000
 3.2988076478e-001	 1.5042504789e+000	-1.1545296298e+000
 3.1458192717e-001	 1.5075241649e+000	-1.1420327555e+000
 2.9929697828e-001	 1.5106330729e+000	-1.1306530851e+000
 4.5442827270e-001	 1.4783991485e+000	-1.2803056433e+000
 4.3904326747e-001	 1.4830408360e+000	-1.2591402600e+000
 4.2365155842e-001	 1.4875108420e+000	-1.2393947917e+000
 4.0825583025e-001	 1.4918097663e+000	-1.2208561903e+000
 3.9285874037e-001	 1.4959382604e+000	-1.2033792837e+000
 3.7746291776e-001	 1.4998970267e+000	-1.1868789839e+000
 3.6207096189e-001	 1.5036868176e+000	-1.1713229272e+000
 3.4668544162e-001	 1.5073084339e+000	-1.1567245320e+000
 3.3130889422e-001	 1.5107627240e+000	-1.1431364604e+000
 3.1594382444e-001	 1.5140505826e+000	-1.1306444623e+000
 3.0059270350e-001	 1.5171729497e+000	-1.1193615827e+000
 4.5638711657e-001	 1.4847718883e+000	-1.2715338346e+000
 4.4093579324e-001	 1.4894335840e+000	-1.2500678875e+000
 4.2547773718e-001	 1.4939228583e+000	-1.2300135541e+000
 4.1001564467e-001	 1.4982403134e+000	-1.2111699856e+000
 3.9455218459e-001	 1.5023866036e+000	-1.1934043242e+000
 3.7908999725e-001	 1.5063624345e+000	-1.1766438727e+000
 3.6363169331e-001	 1.5101685616e+000	-1.1608687111e+000
 3.4817985271e-001	 1.5138057891e+000	-1.1461047465e+000
 3.3273702367e-001	 1.5172749691e+000	-1.1324171791e+000
 3.1730572171e-001	 1.5205770003e+000	-1.1199043644e+000
 3.0188842872e-001	 1.5237128265e+000	-1.1086920482e+000
 4.5834596044e-001	 1.4911446280e+000	-1.2633561339e+000
 4.4282831900e-001	 1.4958263321e+000	-1.2416143544e+000
 4.2730391593e-001	 1.5003348746e+000	-1.2212670757e+000
 4.1177545910e-001	 1.5046708605e+000	-1.2021265153e+000
 3.9624562882e-001	 1.5088349469e+000	-1.1840730966e+000
 3.8071707674e-001	 1.5128278423e+000	-1.1670475769e+000
 3.6519242473e-001	 1.5166503055e+000	-1.1510436386e+000
 3.4967426380e-001	 1.5203031443e+000	-1.1361009289e+000
 3.3416515311e-001	 1.5237872142e+000	-1.1222985288e+000
 3.1866761898e-001	 1.5271034179e+000	-1.1097488309e+000
 3.0318415394e-001	 1.5302527034e+000	-1.0985918013e+000
 4.6030480431e-001	 1.4975173677e+000	-1.2556745209e+000
 4.4472084476e-001	 1.5022190801e+000	-1.2336793577e+000
 4.2913009469e-001	 1.5067468909e+000	-1.2130543596e+000
 4.1353527353e-001	 1.5111014076e+000	-1.1936256513e+000
 3.9793907305e-001	 1.5152832902e+000	-1.1752878755e+000
 3.8234415623e-001	 1.5192932501e+000	-1.1579962766e+000
 3.6675315615e-001	 1.5231320495e+000	-1.1417592639e+000
 3.5116867490e-001	 1.5268004994e+000	-1.1266314389e+000
 3.3559328256e-001	 1.5302994594e+000	-1.1127070665e+000
 3.2002951624e-001	 1.5336298356e+000	-1.1001139662e+000
 3.0447987916e-001	 1.5367925802e+000	-1.0890078005e+000
 4.6226364818e-001	 1.5038901075e+000	-1.2483907463e+000
 4.4661337052e-001	 1.5086118281e+000	-1.2261624372e+000
 4.3095627345e-001	 1.5131589072e+000	-1.2052743034e+000
 4.1529508795e-001	 1.5175319547e+000	-1.1855671929e+000
 3.9963251728e-001	 1.5217316334e+000	-1.1669508774e+000
 3.8397123572e-001	 1.5257586579e+000	-1.1493960892e+000
 3.6831388757e-001	 1.5296137934e+000	-1.1329270548e+000
 3.5266308599e-001	 1.5332978546e+000	-1.1176145082e+000
 3.3702141200e-001	 1.5368117045e+000	-1.1035691615e+000
 3.2139141351e-001	 1.5401562532e+000	-1.0909356099e+000
 3.0577560439e-001	 1.5433324570e+000	-1.0798866442e+000
 4.6422249205e-001	 1.5102628472e+000	-1.2414063468e+000
 4.4850589628e-001	 1.5150045762e+000	-1.2189629859e+000
 4.3278245220e-001	 1.5195709235e+000	-1.1978257069e+000
 4.1705490238e-001	 1.5239625018e+000	-1.1778508716e+000
 4.0132596150e-001	 1.5281799767e+000	-1.1589642623e+000
 3.8559831521e-001	 1.5322240657e+000	-1.1411530690e+000
 3.6987461900e-001	 1.5360955374e+000	-1.1244583923e+000
 3.5415749708e-001	 1.5397952098e+000	-1.1089682394e+000
 3.3844954144e-001	 1.5433239496e+000	-1.0948109947e+000
 3.2275331078e-001	 1.5466826709e+000	-1.0821493359e+000
 3.0707132961e-001	 1.5498723339e+000	-1.0711745708e+000
 4.6618133592e-001	 1.5166355869e+000	-1.2346226600e+000
 4.5039842204e-001	 1.5213973242e+000	-1.2119802614e+000
 4.3460863096e-001	 1.5259829398e+000	-1.1906072795e+000
 4.1881471681e-001	 1.5303930489e+000	-1.1703763558e+000
 4.0301940573e-001	 1.5346283200e+000	-1.1512301365e+000
 3.8722539471e-001	 1.5386894735e+000	-1.1331732088e+000
 3.7143535042e-001	 1.5425772813e+000	-1.1162645697e+000
 3.5565190818e-001	 1.5462925649e+000	-1.1006106051e+000
 3.3987767089e-001	 1.5498361947e+000	-1.0863585572e+000
 3.2411520805e-001	 1.5532090886e+000	-1.0736904523e+000
 3.0836705483e-001	 1.5564122107e+000	-1.0628174599e+000
 4.6814017979e-001	 1.5230083267e+000	-1.2279408402e+000
 4.5229094781e-001	 1.5277900723e+000	-1.2051133971e+000
 4.3643480972e-001	 1.5323949561e+000	-1.1835176481e+000
 4.2057453123e-001	 1.5368235960e+000	-1.1630432555e+000
 4.0471284996e-001	 1.5410766632e+000	-1.1436505552e+000
 3.8885247420e-001	 1.5451548813e+000	-1.1253624402e+000
 3.7299608184e-001	 1.5490590253e+000	-1.1082567933e+000
 3.5714631927e-001	 1.5527899201e+000	-1.0924594476e+000
 3.4130580033e-001	 1.5563484398e+000	-1.0781376504e+000
 3.2547710532e-001	 1.5597355062e+000	-1.0654940013e+000
 3.0966278005e-001	 1.5629520875e+000	-1.0547608335e+000
 4.7009902366e-001	 1.5293810664e+000	-1.2212618732e+000
 4.5418347357e-001	 1.5341828203e+000	-1.1982614135e+000
 4.3826098847e-001	 1.5388069724e+000	-1.1764553652e+000
 4.2233434566e-001	 1.5432541432e+000	-1.1557511279e+000
 4.0640629419e-001	 1.5475250065e+000	-1.1361275257e+000
 3.9047955369e-001	 1.5516202891e+000	-1.1176266355e+000
 3.7455681326e-001	 1.5555407692e+000	-1.1003461818e+000
 3.5864073036e-001	 1.5592872753e+000	-1.0844324779e+000
 3.4273392977e-001	 1.5628606849e+000	-1.0700738850e+000
 3.2683900259e-001	 1.5662619239e+000	-1.0574947594e+000
 3.1095850527e-001	 1.5694919644e+000	-1.0469498571e+000
 2.9800125306e-001	 1.5040931960e+000	-1.1426188744e+000
 2.8280099903e-001	 1.5070251280e+000	-1.1320056145e+000
 2.6761936106e-001	 1.5097950381e+000	-1.1221087495e+000
 2.5245868003e-001	 1.5124039863e+000	-1.1129490127e+000
 2.3732126051e-001	 1.5148530722e+000	-1.1045410715e+000
 2.2220937007e-001	 1.5171434342e+000	-1.0968895418e+000
 2.0712523865e-001	 1.5192762483e+000	-1.0899852154e+000
 1.9207105792e-001	 1.5212527263e+000	-1.0838014764e+000
 1.7704898073e-001	 1.5230741153e+000	-1.0782908810e+000
 1.6206112059e-001	 1.5247416959e+000	-1.0733818773e+000
 1.4710955121e-001	 1.5262567814e+000	-1.0689756431e+000
 2.9929697828e-001	 1.5106330729e+000	-1.1306530851e+000
 2.8403063274e-001	 1.5135777530e+000	-1.1201974398e+000
 2.6878298421e-001	 1.5163597069e+000	-1.1104045062e+000
 2.5355638373e-001	 1.5189799989e+000	-1.1012950457e+000
 2.3835314591e-001	 1.5214397336e+000	-1.0928852615e+000
 2.2317554817e-001	 1.5237400542e+000	-1.0851828598e+000
 2.0802583015e-001	 1.5258821418e+000	-1.0781833253e+000
 1.9290619304e-001	 1.5278672136e+000	-1.0718663848e+000
 1.7781879906e-001	 1.5296965221e+000	-1.0661926326e+000
 1.6276577092e-001	 1.5313713535e+000	-1.0611002942e+000
 1.4774919132e-001	 1.5328930266e+000	-1.0565021030e+000
 3.0059270350e-001	 1.5171729497e+000	-1.1193615827e+000
 2.8526026646e-001	 1.5201303780e+000	-1.1090317188e+000
 2.6994660735e-001	 1.5229243756e+000	-1.0993222379e+000
 2.5465408743e-001	 1.5255560115e+000	-1.0902533869e+000
 2.3938503131e-001	 1.5280263949e+000	-1.0818422052e+000
 2.2414172628e-001	 1.5303366742e+000	-1.0740986424e+000
 2.0892642165e-001	 1.5324880353e+000	-1.0670218903e+000
 1.9374132817e-001	 1.5344817010e+000	-1.0605969037e+000
 1.7858861740e-001	 1.5363189290e+000	-1.0547910803e+000
 1.6347042125e-001	 1.5380010111e+000	-1.0495510771e+000
 1.4838883144e-001	 1.5395292719e+000	-1.0447997362e+000
 3.0188842872e-001	 1.5237128265e+000	-1.1086920482e+000
 2.8648990017e-001	 1.5266830031e+000	-1.0984669437e+000
 2.7111023050e-001	 1.5294890444e+000	-1.0888294565e+000
 2.5575179114e-001	 1.5321320241e+000	-1.0797987645e+000
 2.4041691671e-001	 1.5346130562e+000	-1.0713920332e+000
 2.2510790438e-001	 1.5369332941e+000	-1.0636205983e+000
 2.0982701315e-001	 1.5390939289e+000	-1.0564863641e+000
 1.9457646329e-001	 1.5410961884e+000	-1.0499783898e+000
 1.7935843574e-001	 1.5429413359e+000	-1.0440696342e+000
 1.6417507157e-001	 1.5446306687e+000	-1.0387138340e+000
 1.4902847155e-001	 1.5461655172e+000	-1.0338424875e+000
 3.0318415394e-001	 1.5302527034e+000	-1.0985918013e+000
 2.8771953388e-001	 1.5332356281e+000	-1.0884611551e+000
 2.7227385365e-001	 1.5360537131e+000	-1.0788931650e+000
 2.5684949484e-001	 1.5387080367e+000	-1.0699053736e+000
 2.4144880211e-001	 1.5411997176e+000	-1.0615143512e+000
 2.2607408248e-001	 1.5435299141e+000	-1.0537319517e+000
 2.1072760465e-001	 1.5456998224e+000	-1.0465617870e+000
 1.9541159842e-001	 1.5477106758e+000	-1.0399958883e+000
 1.8012825408e-001	 1.5495637428e+000	-1.0340115251e+000
 1.6487972190e-001	 1.5512603263e+000	-1.0285681544e+000
 1.4966811167e-001	 1.5528017624e+000	-1.0236044725e+000
 3.0447987916e-001	 1.5367925802e+000	-1.0890078005e+000
 2.8894916759e-001	 1.5397882531e+000	-1.0789719436e+000
 2.7343747679e-001	 1.5426183819e+000	-1.0694798600e+000
 2.5794719854e-001	 1.5452840493e+000	-1.0605468794e+000
 2.4248068751e-001	 1.5477863789e+000	-1.0521882429e+000
 2.2704026058e-001	 1.5501265340e+000	-1.0444154440e+000
 2.1162819615e-001	 1.5523057160e+000	-1.0372327866e+000
 1.9624673354e-001	 1.5543251632e+000	-1.0306341318e+000
 1.8089807241e-001	 1.5561861496e+000	-1.0245998003e+000
 1.6558437223e-001	 1.5578899840e+000	-1.0190936024e+000
 1.5030775178e-001	 1.5594380077e+000	-1.0140599674e+000
 3.0577560439e-001	 1.5433324570e+000	-1.0798866442e+000
 2.9017880130e-001	 1.5463408782e+000	-1.0699564512e+000
 2.7460109994e-001	 1.5491830506e+000	-1.0605555346e+000
 2.5904490225e-001	 1.5518600618e+000	-1.0516964193e+000
 2.4351257291e-001	 1.5543730403e+000	-1.0433922722e+000
 2.2800643868e-001	 1.5567231540e+000	-1.0356533351e+000
 2.1252878765e-001	 1.5589116095e+000	-1.0284835777e+000
 1.9708186867e-001	 1.5609396505e+000	-1.0218775382e+000
 1.8166789075e-001	 1.5628085565e+000	-1.0158173195e+000
 1.6628902256e-001	 1.5645196416e+000	-1.0102697097e+000
 1.5094739189e-001	 1.5660742530e+000	-1.0051833988e+000
 3.0707132961e-001	 1.5498723339e+000	-1.0711745708e+000
 2.9140843502e-001	 1.5528935032e+000	-1.0613713738e+000
 2.7576472309e-001	 1.5557477194e+000	-1.0520856804e+000
 2.6014260595e-001	 1.5584360744e+000	-1.0433266065e+000
 2.4454445832e-001	 1.5609597016e+000	-1.0351044860e+000
 2.2897261678e-001	 1.5633197740e+000	-1.0274274058e+000
 2.1342937915e-001	 1.5655175031e+000	-1.0202979629e+000
 1.9791700379e-001	 1.5675541379e+000	-1.0137102094e+000
 1.8243770909e-001	 1.5694309634e+000	-1.0076467511e+000
 1.6699367289e-001	 1.5711492992e+000	-1.0020759693e+000
 1.5158703201e-001	 1.5727104983e+000	-9.9694933347e-001
 3.0836705483e-001	 1.5564122107e+000	-1.0628174599e+000
 2.9263806873e-001	 1.5594461282e+000	-1.0531729630e+000
 2.7692834623e-001	 1.5623123881e+000	-1.0440352910e+000
 2.6124030965e-001	 1.5650120870e+000	-1.0354095326e+000
 2.4557634372e-001	 1.5675463630e+000	-1.0273024165e+000
 2.2993879489e-001	 1.5699163939e+000	-1.0197189588e+000
 2.1432997065e-001	 1.5721233966e+000	-1.0126593333e+000
 1.9875213892e-001	 1.5741686253e+000	-1.0061159303e+000
 1.8320752743e-001	 1.5760533703e+000	-1.0000705690e+000
 1.6769832322e-001	 1.5777789568e+000	-9.9449182869e-001
 1.5222667212e-001	 1.5793467435e+000	-9.8933246896e-001
 3.0966278005e-001	 1.5629520875e+000	-1.0547608335e+000
 2.9386770244e-001	 1.5659987532e+000	-1.0453170284e+000
 2.7809196938e-001	 1.5688770568e+000	-1.0363688644e+000
 2.6233801336e-001	 1.5715880996e+000	-1.0279167703e+000
 2.4660822912e-001	 1.5741330243e+000	-1.0199630842e+000
 2.3090497299e-001	 1.5765130139e+000	-1.0125088213e+000
 2.1523056215e-001	 1.5787292902e+000	-1.0055506686e+000
 1.9958727404e-001	 1.5807831127e+000	-9.9907816740e-001
 1.8397734577e-001	 1.5826757771e+000	-9.9307104833e-001
 1.6840297355e-001	 1.5844086144e+000	-9.8749668378e-001
 1.5286631224e-001	 1.5859829888e+000	-9.8230762402e-001
 3.1095850527e-001	 1.5694919644e+000	-1.0469498571e+000
 2.9509733616e-001	 1.5725513783e+000	-1.0377589397e+000
 2.7925559253e-001	 1.5754417256e+000	-1.0290504058e+000
 2.6343571706e-001	 1.5781641122e+000	-1.0208193771e+000
 2.4764011452e-001	 1.5807196856e+000	-1.0130630002e+000
 2.3187115109e-001	 1.5831096338e+000	-1.0057773462e+000
 2.1613115365e-001	 1.5853351837e+000	-9.9895453805e-001
 2.0042240917e-001	 1.5873976000e+000	-9.9258006736e-001
 1.8474716411e-001	 1.5892981840e+000	-9.8663026285e-001
 1.6910762388e-001	 1.5910382720e+000	-9.8106987309e-001
 1.5350595236e-001	 1.5926192341e+000	-9.7584972959e-001
 1.4710955121e-001	 1.5262567814e+000	-1.0689756431e+000
 1.3219407699e-001	 1.5276209091e+000	-1.0645788540e+000
 1.1731896299e-001	 1.5288352157e+000	-1.0600415879e+000
 1.0248619185e-001	 1.5299011047e+000	-1.0557244882e+000
 8.7697703938e-002	 1.5308200075e+000	-1.0519432936e+000
 7.2955397098e-002	 1.5315933814e+000	-1.0489651743e+000
 5.8261126397e-002	 1.5322227086e+000	-1.0470051164e+000
 4.3616703950e-002	 1.5327094953e+000	-1.0462223478e+000
 2.9023898764e-002	 1.5330552697e+000	-1.0467167931e+000
 1.4484436621e-002	 1.5332615814e+000	-1.0485255540e+000
 0.0000000000e+000	 1.5333300000e+000	-1.0516194115e+000
 1.4774919132e-001	 1.5328930266e+000	-1.0565021030e+000
 1.3276886383e-001	 1.5342630857e+000	-1.0519340301e+000
 1.1782907205e-001	 1.5354826721e+000	-1.0472654777e+000
 1.0293180723e-001	 1.5365531957e+000	-1.0428554472e+000
 8.8079018197e-002	 1.5374760939e+000	-1.0390187466e+000
 7.3272611026e-002	 1.5382528304e+000	-1.0360223905e+000
 5.8514448858e-002	 1.5388848941e+000	-1.0340820435e+000
 4.3806351688e-002	 1.5393737973e+000	-1.0333584927e+000
 2.9150096213e-002	 1.5397210751e+000	-1.0339541438e+000
 1.4547415718e-002	 1.5399282839e+000	-1.0359095308e+000
 0.0000000000e+000	 1.5399970000e+000	-1.0391998389e+000
 1.4838883144e-001	 1.5395292719e+000	-1.0447997362e+000
 1.3334365067e-001	 1.5409052623e+000	-1.0400937172e+000
 1.1833918111e-001	 1.5421301285e+000	-1.0353150029e+000
 1.0337742262e-001	 1.5432052867e+000	-1.0308224014e+000
 8.8460332455e-002	 1.5441321803e+000	-1.0269314391e+000
 7.3589824954e-002	 1.5449122795e+000	-1.0239108234e+000
 5.8767771321e-002	 1.5455470795e+000	-1.0219789380e+000
 4.3995999427e-002	 1.5460380993e+000	-1.0213003610e+000
 2.9276293662e-002	 1.5463868806e+000	-1.0219823954e+000
 1.4610394816e-002	 1.5465949864e+000	-1.0240716049e+000
 0.0000000000e+000	 1.5466640000e+000	-1.0275503519e+000
 1.4902847155e-001	 1.5461655172e+000	-1.0338424875e+000
 1.3391843752e-001	 1.5475474389e+000	-1.0290261921e+000
 1.1884929017e-001	 1.5487775850e+000	-1.0241545946e+000
 1.0382303801e-001	 1.5498573777e+000	-1.0195877057e+000
 8.8841646714e-002	 1.5507882667e+000	-1.0156433674e+000
 7.3907038883e-002	 1.5515717286e+000	-1.0125937736e+000
 5.9021093783e-002	 1.5522092650e+000	-1.0106620148e+000
 4.4185647165e-002	 1.5527024013e+000	-1.0100186370e+000
 2.9402491111e-002	 1.5530526860e+000	-1.0107782031e+000
 1.4673373914e-002	 1.5532616889e+000	-1.0129958497e+000
 0.0000000000e+000	 1.5533310000e+000	-1.0166638359e+000
 1.4966811167e-001	 1.5528017624e+000	-1.0236044725e+000
 1.3449322436e-001	 1.5541896154e+000	-1.0187000879e+000
 1.1935939923e-001	 1.5554250414e+000	-1.0137491894e+000
 1.0426865339e-001	 1.5565094686e+000	-1.0091143343e+000
 8.9222960974e-002	 1.5574443532e+000	-1.0051172243e+000
 7.4224252813e-002	 1.5582311777e+000	-1.0020352799e+000
 5.9274416246e-002	 1.5588714504e+000	-1.0000982324e+000
 4.4375294904e-002	 1.5593667033e+000	-9.9948471914e-001
 2.9528688561e-002	 1.5597184915e+000	-1.0003188714e+000
 1.4736353012e-002	 1.5599283914e+000	-1.0026668883e+000
 0.0000000000e+000	 1.5599980000e+000	-1.0065335910e+000
 1.5030775178e-001	 1.5594380077e+000	-1.0140599674e+000
 1.3506801120e-001	 1.5608317920e+000	-1.0090843804e+000
 1.1986950829e-001	 1.5620724979e+000	-1.0040642135e+000
 1.0471426878e-001	 1.5631615596e+000	-9.9936586262e-001
 8.9604275233e-002	 1.5641004396e+000	-9.9531637972e-001
 7.4541466742e-002	 1.5648906268e+000	-9.9220009969e-001
 5.9527738709e-002	 1.5655336358e+000	-9.9025527481e-001
 4.4564942644e-002	 1.5660310053e+000	-9.8967070300e-001
 2.9654886010e-002	 1.5663842970e+000	-9.9058233910e-001
 1.4799332110e-002	 1.5665950939e+000	-9.9306988051e-001
 0.0000000000e+000	 1.5666650000e+000	-9.9715332317e-001
 1.5094739189e-001	 1.5660742530e+000	-1.0051833988e+000
 1.3564279805e-001	 1.5674739686e+000	-1.0001483744e+000
 1.2037961735e-001	 1.5687199543e+000	-9.9506556645e-001
 1.0515988417e-001	 1.5698136506e+000	-9.9030644901e-001
 8.9985589493e-002	 1.5707565260e+000	-9.8620486265e-001
 7.4858680672e-002	 1.5715500759e+000	-9.8305369065e-001
 5.9781061172e-002	 1.5721958213e+000	-9.8110153300e-001
 4.4754590383e-002	 1.5726953074e+000	-9.8054936436e-001
 2.9781083460e-002	 1.5730501024e+000	-9.8154716438e-001
 1.4862311208e-002	 1.5732617965e+000	-9.8419051149e-001
 0.0000000000e+000	 1.5733320000e+000	-9.8851713574e-001
 1.5158703201e-001	 1.5727104983e+000	-9.9694933347e-001
 1.3621758489e-001	 1.5741161452e+000	-9.9186169080e-001
 1.2088972641e-001	 1.5753674108e+000	-9.8671960580e-001
 1.0560549956e-001	 1.5764657416e+000	-9.8190081817e-001
 9.0366903753e-002	 1.5774126124e+000	-9.7774734273e-001
 7.5175894602e-002	 1.5782095250e+000	-9.7456219215e-001
 6.0034383635e-002	 1.5788580067e+000	-9.7260608758e-001
 4.4944238122e-002	 1.5793596094e+000	-9.7209414295e-001
 2.9907280909e-002	 1.5797159079e+000	-9.7319251067e-001
 1.4925290306e-002	 1.5799284990e+000	-9.7601497971e-001
 0.0000000000e+000	 1.5799990000e+000	-9.8061952084e-001
 1.5222667212e-001	 1.5793467435e+000	-9.8933246896e-001
 1.3679237173e-001	 1.5807583217e+000	-9.8419425362e-001
 1.2139983547e-001	 1.5820148672e+000	-9.7899313176e-001
 1.0605111494e-001	 1.5831178326e+000	-9.7411424413e-001
 9.0748218013e-002	 1.5840686988e+000	-9.6990911279e-001
 7.5493108531e-002	 1.5848689741e+000	-9.6669240775e-001
 6.0287706098e-002	 1.5855201922e+000	-9.6473869150e-001
 4.5133885861e-002	 1.5860239114e+000	-9.6427912644e-001
 3.0033478359e-002	 1.5863817133e+000	-9.6549813253e-001
 1.4988269404e-002	 1.5865952015e+000	-9.6852998568e-001
 0.0000000000e+000	 1.5866660000e+000	-9.7345535136e-001
 1.5286631224e-001	 1.5859829888e+000	-9.8230762402e-001
 1.3736715858e-001	 1.5874004983e+000	-9.7711627763e-001
 1.2190994454e-001	 1.5886623236e+000	-9.7185337257e-001
 1.0649673033e-001	 1.5897699236e+000	-9.6691253403e-001
 9.1129532272e-002	 1.5907247853e+000	-9.6265607165e-001
 7.5810322461e-002	 1.5915284232e+000	-9.5941178780e-001
 6.0541028561e-002	 1.5921823776e+000	-9.5746975330e-001
 4.5323533600e-002	 1.5926882134e+000	-9.5707903499e-001
 3.0159675808e-002	 1.5930475188e+000	-9.5844436198e-001
 1.5051248502e-002	 1.5932619040e+000	-9.6172272076e-001
 0.0000000000e+000	 1.5933330000e+000	-9.6701987294e-001
 1.5350595236e-001	 1.5926192341e+000	-9.7584972959e-001
 1.3794194542e-001	 1.5940426749e+000	-9.7059825626e-001
 1.2242005360e-001	 1.5953097801e+000	-9.6526797014e-001
 1.0694234572e-001	 1.5964220145e+000	-9.6026201220e-001
 9.1510846532e-002	 1.5973808717e+000	-9.5595470743e-001
 7.6127536390e-002	 1.5981878723e+000	-9.5268841262e-001
 6.0794351023e-002	 1.5988445630e+000	-9.5077032080e-001
 4.5513181338e-002	 1.5993525154e+000	-9.5046920605e-001
 3.0285873257e-002	 1.5997133243e+000	-9.5201209529e-001
 1.5114227599e-002	 1.5999286065e+000	-9.5558085635e-001
 0.0000000000e+000	 1.6000000000e+000	-9.6130869621e-001
 1.6000000000e+000	 0.0000000000e+000	 3.3743984677e+000
 1.5999286065e+000	 1.5114227599e-002	 3.3751857149e+000
 1.5997133243e+000	 3.0285873257e-002	 3.3725934061e+000
 1.5993525154e+000	 4.5513181338e-002	 3.3669089412e+000
 1.5988445630e+000	 6.0794351023e-002	 3.3583862924e+000
 1.5981878723e+000	 7.6127536390e-002	 3.3472468346e+000
 1.5973808717e+000	 9.1510846532e-002	 3.3336801152e+000
 1.5964220145e+000	 1.0694234572e-001	 3.3178445785e+000
 1.5953097801e+000	 1.2242005360e-001	 3.2998682580e+000
 1.5940426749e+000	 1.3794194542e-001	 3.2798494584e+000
 1.5926192341e+000	 1.5350595236e-001	 3.2578574474e+000
 1.6066670000e+000	 0.0000000000e+000	 3.3639810857e+000
 1.6065953090e+000	 1.5177206697e-002	 3.3647433152e+000
 1.6063791297e+000	 3.0412070705e-002	 3.3621417741e+000
 1.6060168174e+000	 4.5702829076e-002	 3.3564656520e+000
 1.6055067485e+000	 6.1047673486e-002	 3.3479712929e+000
 1.6048473214e+000	 7.6444750319e-002	 3.3368829746e+000
 1.6040369581e+000	 9.1892160791e-002	 3.3233936170e+000
 1.6030741055e+000	 1.0738796111e-001	 3.3076654334e+000
 1.6019572365e+000	 1.2293016266e-001	 3.2898305397e+000
 1.6006848514e+000	 1.3851673227e-001	 3.2699915432e+000
 1.5992554794e+000	 1.5414559247e-001	 3.2482221315e+000
 1.6133340000e+000	 0.0000000000e+000	 3.3534910125e+000
 1.6132620115e+000	 1.5240185794e-002	 3.3542359713e+000
 1.6130449352e+000	 3.0538268154e-002	 3.3516287689e+000
 1.6126811195e+000	 4.5892476814e-002	 3.3459614250e+000
 1.6121689339e+000	 6.1300995947e-002	 3.3374937604e+000
 1.6115067705e+000	 7.6761964248e-002	 3.3264541236e+000
 1.6106930445e+000	 9.2273475051e-002	 3.3130400324e+000
 1.6097261965e+000	 1.0783357649e-001	 3.2974187492e+000
 1.6086046930e+000	 1.2344027172e-001	 3.2797278020e+000
 1.6073270280e+000	 1.3909151911e-001	 3.2600754752e+000
 1.6058917246e+000	 1.5478523259e-001	 3.2385412899e+000
 1.6200010000e+000	 0.0000000000e+000	 3.3429138199e+000
 1.6199287141e+000	 1.5303164891e-002	 3.3436511225e+000
 1.6197107406e+000	 3.0664465602e-002	 3.3410432347e+000
 1.6193454215e+000	 4.6082124551e-002	 3.3353860407e+000
 1.6188311194e+000	 6.1554318409e-002	 3.3269439398e+000
 1.6181662196e+000	 7.7079178176e-002	 3.3159505154e+000
 1.6173491310e+000	 9.2654789310e-002	 3.3026091081e+000
 1.6163782875e+000	 1.0827919188e-001	 3.2870933090e+000
 1.6152521494e+000	 1.2395038078e-001	 3.2695473893e+000
 1.6139692046e+000	 1.3966630596e-001	 3.2500866870e+000
 1.6125279699e+000	 1.5542487270e-001	 3.2287979741e+000
 1.6266680000e+000	 0.0000000000e+000	 3.3322345484e+000
 1.6265954166e+000	 1.5366143988e-002	 3.3329757868e+000
 1.6263765461e+000	 3.0790663050e-002	 3.3303736980e+000
 1.6260097235e+000	 4.6271772289e-002	 3.3247290603e+000
 1.6254933048e+000	 6.1807640870e-002	 3.3163119491e+000
 1.6248256686e+000	 7.7396392104e-002	 3.3053623455e+000
 1.6240052174e+000	 9.3036103569e-002	 3.2920906363e+000
 1.6230303785e+000	 1.0872480727e-001	 3.2766780218e+000
 1.6218996058e+000	 1.2446048984e-001	 3.2592768490e+000
 1.6206113812e+000	 1.4024109280e-001	 3.2400108893e+000
 1.6191642152e+000	 1.5606451282e-001	 3.2189755870e+000
 1.6333350000e+000	 0.0000000000e+000	 3.3214377183e+000
 1.6332621191e+000	 1.5429123085e-002	 3.3221965710e+000
 1.6330423516e+000	 3.0916860497e-002	 3.3196083768e+000
 1.6326740255e+000	 4.6461420026e-002	 3.3139798333e+000
 1.6321554902e+000	 6.2060963331e-002	 3.3055877868e+000
 1.6314851177e+000	 7.7713606033e-002	 3.2946797768e+000
 1.6306613038e+000	 9.3417417828e-002	 3.2814744595e+000
 1.6296824695e+000	 1.0917042266e-001	 3.2661619262e+000
 1.6285470623e+000	 1.2497059891e-001	 3.2489039344e+000
 1.6272535577e+000	 1.4081587965e-001	 3.2298340722e+000
 1.6258004604e+000	 1.5670415294e-001	 3.2090578820e+000
 1.6400020000e+000	 0.0000000000e+000	 3.3105073404e+000
 1.6399288216e+000	 1.5492102181e-002	 3.3112996802e+000
 1.6397081570e+000	 3.1043057945e-002	 3.3087351893e+000
 1.6393383275e+000	 4.6651067763e-002	 3.3031275058e+000
 1.6388176757e+000	 6.2314285793e-002	 3.2947613386e+000
 1.6381445668e+000	 7.8030819961e-002	 3.2838929454e+000
 1.6373173902e+000	 9.3798732087e-002	 3.2707504753e+000
 1.6363345604e+000	 1.0961603804e-001	 3.2555341937e+000
 1.6351945187e+000	 1.2548070797e-001	 3.2384166064e+000
 1.6338957343e+000	 1.4139066649e-001	 3.2195425056e+000
 1.6324367057e+000	 1.5734379305e-001	 3.1990289627e+000
 1.6466690000e+000	 0.0000000000e+000	 3.2994269259e+000
 1.6465955241e+000	 1.5555081278e-002	 3.3002709275e+000
 1.6463739625e+000	 3.1169255393e-002	 3.2977417630e+000
 1.6460026295e+000	 4.6840715500e-002	 3.2921610280e+000
 1.6454798611e+000	 6.2567608254e-002	 3.2838223842e+000
 1.6448040159e+000	 7.8348033889e-002	 3.2729919664e+000
 1.6439734766e+000	 9.4180046346e-002	 3.2599086410e+000
 1.6429866514e+000	 1.1006165343e-001	 3.2447841323e+000
 1.6418419752e+000	 1.2599081703e-001	 3.2278030358e+000
 1.6405379109e+000	 1.4196545334e-001	 3.2091227399e+000
 1.6390729510e+000	 1.5798343317e-001	 3.1888732819e+000
 1.6533360000e+000	 0.0000000000e+000	 3.2881794968e+000
 1.6532622266e+000	 1.5618060375e-002	 3.2890957432e+000
 1.6530397679e+000	 3.1295452841e-002	 3.2866154425e+000
 1.6526669315e+000	 4.7030363238e-002	 3.2810691620e+000
 1.6521420466e+000	 6.2820930715e-002	 3.2727606041e+000
 1.6514634650e+000	 7.8665247818e-002	 3.2619669396e+000
 1.6506295631e+000	 9.4561360605e-002	 3.2489389776e+000
 1.6496387424e+000	 1.1050726882e-001	 3.2339011894e+000
 1.6484894316e+000	 1.2650092609e-001	 3.2170516053e+000
 1.6471800874e+000	 1.4254024018e-001	 3.1985616069e+000
 1.6457091962e+000	 1.5862307329e-001	 3.1785756409e+000
 1.6600030000e+000	 0.0000000000e+000	 3.2767475957e+000
 1.6599289291e+000	 1.5681039473e-002	 3.2777591838e+000
 1.6597055734e+000	 3.1421650289e-002	 3.2753432980e+000
 1.6593312336e+000	 4.7220010975e-002	 3.2698404885e+000
 1.6588042320e+000	 6.3074253177e-002	 3.2615655854e+000
 1.6581229141e+000	 7.8982461746e-002	 3.2508079544e+000
 1.6572856495e+000	 9.4942674864e-002	 3.2378315745e+000
 1.6562908334e+000	 1.1095288421e-001	 3.2228749551e+000
 1.6551368880e+000	 1.2701103515e-001	 3.2061509110e+000
 1.6538222640e+000	 1.4311502703e-001	 3.1878462201e+000
 1.6523454415e+000	 1.5926271340e-001	 3.1681211888e+000
 1.6666700000e+000	 0.0000000000e+000	 3.2651132951e+000
 1.6665956317e+000	 1.5744018570e-002	 3.2662459411e+000
 1.6663713789e+000	 3.1547847738e-002	 3.2639121337e+000
 1.6659955356e+000	 4.7409658713e-002	 3.2584634149e+000
 1.6654664174e+000	 6.3327575639e-002	 3.2502268286e+000
 1.6647823632e+000	 7.9299675675e-002	 3.2395050953e+000
 1.6639417359e+000	 9.5323989124e-002	 3.2265765936e+000
 1.6629429244e+000	 1.1139849959e-001	 3.2116951653e+000
 1.6617843445e+000	 1.2752114421e-001	 3.1950897648e+000
 1.6604644406e+000	 1.4368981387e-001	 3.1769639755e+000
 1.6589816868e+000	 1.5990235352e-001	 3.1574954217e+000
 1.5926192341e+000	 1.5350595236e-001	 3.2578574474e+000
 1.5910382720e+000	 1.6910762388e-001	 3.2325370376e+000
 1.5892981840e+000	 1.8474716411e-001	 3.2028274234e+000
 1.5873976000e+000	 2.0042240917e-001	 3.1692035000e+000
 1.5853351837e+000	 2.1613115365e-001	 3.1321068339e+000
 1.5831096338e+000	 2.3187115109e-001	 3.0919456808e+000
 1.5807196856e+000	 2.4764011452e-001	 3.0490951882e+000
 1.5781641122e+000	 2.6343571706e-001	 3.0038978307e+000
 1.5754417256e+000	 2.7925559253e-001	 2.9566641214e+000
 1.5725513783e+000	 2.9509733616e-001	 2.9076736519e+000
 1.5694919644e+000	 3.1095850527e-001	 2.8571765077e+000
 1.5992554794e+000	 1.5414559247e-001	 3.2482221315e+000
 1.5976679296e+000	 1.6981227421e-001	 3.2230971694e+000
 1.5959205909e+000	 1.8551698245e-001	 3.1934944689e+000
 1.5940120874e+000	 2.0125754430e-001	 3.1599060759e+000
 1.5919410773e+000	 2.1703174515e-001	 3.1227905463e+000
 1.5897062538e+000	 2.3283732920e-001	 3.0825728020e+000
 1.5873063470e+000	 2.4867199993e-001	 3.0396441688e+000
 1.5847401248e+000	 2.6453342076e-001	 2.9943626425e+000
 1.5820063943e+000	 2.8041921568e-001	 2.9470534302e+000
 1.5791040033e+000	 2.9632696987e-001	 2.8980098185e+000
 1.5760318412e+000	 3.1225423050e-001	 2.8474944205e+000
 1.6058917246e+000	 1.5478523259e-001	 3.2385412899e+000
 1.6042975872e+000	 1.7051692454e-001	 3.2136314199e+000
 1.6025429977e+000	 1.8628680079e-001	 3.1841615276e+000
 1.6006265748e+000	 2.0209267942e-001	 3.1506392050e+000
 1.5985469708e+000	 2.1793233666e-001	 3.1135383864e+000
 1.5963028737e+000	 2.3380350730e-001	 3.0732990410e+000
 1.5938930083e+000	 2.4970388533e-001	 3.0303270427e+000
 1.5913161374e+000	 2.6563112447e-001	 2.9849942640e+000
 1.5885710631e+000	 2.8158283883e-001	 2.9376389440e+000
 1.5856566283e+000	 2.9755660358e-001	 2.8885663822e+000
 1.5825717180e+000	 3.1354995572e-001	 2.8380500136e+000
 1.6125279699e+000	 1.5542487270e-001	 3.2287979741e+000
 1.6109272448e+000	 1.7122157488e-001	 3.2041200780e+000
 1.6091654046e+000	 1.8705661913e-001	 3.1748058589e+000
 1.6072410622e+000	 2.0292781455e-001	 3.1413768947e+000
 1.6051528643e+000	 2.1883292816e-001	 3.1043209334e+000
 1.6028994937e+000	 2.3476968540e-001	 3.0640914195e+000
 1.6004796697e+000	 2.5073577073e-001	 3.0211071921e+000
 1.5978921500e+000	 2.6672882817e-001	 2.9757524042e+000
 1.5951357318e+000	 2.8274646197e-001	 2.9283767136e+000
 1.5922092533e+000	 2.9878623730e-001	 2.8792957996e+000
 1.5891115949e+000	 3.1484568094e-001	 2.8287922621e+000
 1.6191642152e+000	 1.5606451282e-001	 3.2189755870e+000
 1.6175569024e+000	 1.7192622521e-001	 3.1945438547e+000
 1.6157878115e+000	 1.8782643747e-001	 3.1654052106e+000
 1.6138555495e+000	 2.0376294968e-001	 3.1320937035e+000
 1.6117587579e+000	 2.1973351966e-001	 3.0951093767e+000
 1.6094961136e+000	 2.3573586351e-001	 3.0549176245e+000
 1.6070663310e+000	 2.5176765614e-001	 3.0119487163e+000
 1.6044681625e+000	 2.6782653188e-001	 2.9665975374e+000
 1.6017004005e+000	 2.8391008512e-001	 2.9192235994e+000
 1.5987618784e+000	 3.0001587101e-001	 2.8701513773e+000
 1.5956514717e+000	 3.1614140616e-001	 2.8196710280e+000
 1.6258004604e+000	 1.5670415294e-001	 3.2090578820e+000
 1.6241865600e+000	 1.7263087554e-001	 3.1848838804e+000
 1.6224102184e+000	 1.8859625581e-001	 3.1559378150e+000
 1.6204700369e+000	 2.0459808481e-001	 3.1227647359e+000
 1.6183646514e+000	 2.2063411116e-001	 3.0858755091e+000
 1.6160927336e+000	 2.3670204161e-001	 3.0457460004e+000
 1.6136529923e+000	 2.5279954154e-001	 3.0028164221e+000
 1.6110441751e+000	 2.6892423558e-001	 2.9574908915e+000
 1.6082650693e+000	 2.8507370827e-001	 2.9101372588e+000
 1.6053145034e+000	 3.0124550472e-001	 2.8610872584e+000
 1.6021913485e+000	 3.1743713139e-001	 2.8106370456e+000
 1.6324367057e+000	 1.5734379305e-001	 3.1990289627e+000
 1.6308162175e+000	 1.7333552587e-001	 3.1751217029e+000
 1.6290326252e+000	 1.8936607415e-001	 3.1463823855e+000
 1.6270845243e+000	 2.0543321994e-001	 3.1133656373e+000
 1.6249705450e+000	 2.2153470267e-001	 3.0765917203e+000
 1.6226893536e+000	 2.3766821972e-001	 3.0365455408e+000
 1.6202396537e+000	 2.5383142694e-001	 2.9936758138e+000
 1.6176201877e+000	 2.7002193929e-001	 2.9483944378e+000
 1.6148297380e+000	 2.8623733142e-001	 2.9010761335e+000
 1.6118671284e+000	 3.0247513844e-001	 2.8520584083e+000
 1.6087312253e+000	 3.1873285661e-001	 2.8016419060e+000
 1.6390729510e+000	 1.5798343317e-001	 3.1888732819e+000
 1.6374458751e+000	 1.7404017620e-001	 3.1652392850e+000
 1.6356550321e+000	 1.9013589250e-001	 3.1367181127e+000
 1.6336990117e+000	 2.0626835506e-001	 3.1038725883e+000
 1.6315764385e+000	 2.2243529417e-001	 3.0672309900e+000
 1.6292859735e+000	 2.3863439782e-001	 3.0272858798e+000
 1.6268263150e+000	 2.5486331235e-001	 2.9844930843e+000
 1.6241962003e+000	 2.7111964299e-001	 2.9392708789e+000
 1.6213944068e+000	 2.8740095457e-001	 2.8919994370e+000
 1.6184197534e+000	 3.0370477215e-001	 2.8430206011e+000
 1.6152711022e+000	 3.2002858183e-001	 2.7926380427e+000
 1.6457091962e+000	 1.5862307329e-001	 3.1785756409e+000
 1.6440755327e+000	 1.7474482654e-001	 3.1552190028e+000
 1.6422774390e+000	 1.9090571084e-001	 3.1269246607e+000
 1.6403134990e+000	 2.0710349019e-001	 3.0942623001e+000
 1.6381823321e+000	 2.2333588567e-001	 3.0577668812e+000
 1.6358825935e+000	 2.3960057592e-001	 3.0179372850e+000
 1.6334129764e+000	 2.5589519775e-001	 2.9752351048e+000
 1.6307722129e+000	 2.7221734670e-001	 2.9300836388e+000
 1.6279590755e+000	 2.8856457772e-001	 2.8828671429e+000
 1.6249723785e+000	 3.0493440586e-001	 2.8339304065e+000
 1.6218109790e+000	 3.2132430705e-001	 2.7835787169e+000
 1.6523454415e+000	 1.5926271340e-001	 3.1681211888e+000
 1.6507051903e+000	 1.7544947687e-001	 3.1450436431e+000
 1.6488998458e+000	 1.9167552918e-001	 3.1169821636e+000
 1.6469279864e+000	 2.0793862532e-001	 3.0845120093e+000
 1.6447882256e+000	 2.2423647717e-001	 3.0481735343e+000
 1.6424792134e+000	 2.4056675403e-001	 3.0084706485e+000
 1.6399996377e+000	 2.5692708315e-001	 2.9658694162e+000
 1.6373482255e+000	 2.7331505040e-001	 2.9207968518e+000
 1.6345237442e+000	 2.8972820086e-001	 2.8736399729e+000
 1.6315250035e+000	 3.0616403958e-001	 2.8247451762e+000
 1.6283508558e+000	 3.2262003228e-001	 2.7744180028e+000
 1.6589816868e+000	 1.5990235352e-001	 3.1574954217e+000
 1.6573348479e+000	 1.7615412720e-001	 3.1346964011e+000
 1.6555222527e+000	 1.9244534752e-001	 3.1068712220e+000
 1.6535424738e+000	 2.0877376045e-001	 3.0745994725e+000
 1.6513941191e+000	 2.2513706867e-001	 3.0384256598e+000
 1.6490758334e+000	 2.4153293213e-001	 2.9988574798e+000
 1.6465862990e+000	 2.5795896856e-001	 2.9563642195e+000
 1.6439242380e+000	 2.7441275411e-001	 2.9113753518e+000
 1.6410884130e+000	 2.9089182401e-001	 2.8642793845e+000
 1.6380776285e+000	 3.0739367329e-001	 2.8154230313e+000
 1.6348907326e+000	 3.2391575750e-001	 2.7651107739e+000
 1.5694919644e+000	 3.1095850527e-001	 2.8571765077e+000
 1.5662619239e+000	 3.2683900259e-001	 2.8049059693e+000
 1.5628606849e+000	 3.4273392977e-001	 2.7502063175e+000
 1.5592872753e+000	 3.5864073036e-001	 2.6926852440e+000
 1.5555407692e+000	 3.7455681326e-001	 2.6319343799e+000
 1.5516202891e+000	 3.9047955369e-001	 2.5675344437e+000
 1.5475250065e+000	 4.0640629419e-001	 2.4990611074e+000
 1.5432541432e+000	 4.2233434566e-001	 2.4260916332e+000
 1.5388069724e+000	 4.3826098847e-001	 2.3482123281e+000
 1.5341828203e+000	 4.5418347357e-001	 2.2650268627e+000
 1.5293810664e+000	 4.7009902366e-001	 2.1761654980e+000
 1.5760318412e+000	 3.1225423050e-001	 2.8474944205e+000
 1.5727883415e+000	 3.2820089986e-001	 2.7952861578e+000
 1.5693729301e+000	 3.4416205922e-001	 2.7407510470e+000
 1.5657846304e+000	 3.6013514146e-001	 2.6834713078e+000
 1.5620225131e+000	 3.7611754468e-001	 2.6230114835e+000
 1.5580856969e+000	 3.9210663318e-001	 2.5589235207e+000
 1.5539733497e+000	 4.0809973841e-001	 2.4907525827e+000
 1.5496846903e+000	 4.2409416009e-001	 2.4180436488e+000
 1.5452189887e+000	 4.4008716723e-001	 2.3403489506e+000
 1.5405755683e+000	 4.5607599933e-001	 2.2572362921e+000
 1.5357538061e+000	 4.7205786752e-001	 2.1682982997e+000
 1.5825717180e+000	 3.1354995572e-001	 2.8380500136e+000
 1.5793147592e+000	 3.2956279713e-001	 2.7859155829e+000
 1.5758851752e+000	 3.4559018866e-001	 2.7315539741e+000
 1.5722819856e+000	 3.6162955255e-001	 2.6745231347e+000
 1.5685042571e+000	 3.7767827610e-001	 2.6143617042e+000
 1.5645511047e+000	 3.9373371267e-001	 2.5505940188e+000
 1.5604216930e+000	 4.0979318264e-001	 2.4827358655e+000
 1.5561152374e+000	 4.2585397451e-001	 2.4103010377e+000
 1.5516310051e+000	 4.4191334599e-001	 2.3328087459e+000
 1.5469683164e+000	 4.5796852509e-001	 2.2497919339e+000
 1.5421265459e+000	 4.7401671139e-001	 2.1608065458e+000
 1.5891115949e+000	 3.1484568094e-001	 2.8287922621e+000
 1.5858411768e+000	 3.3092469440e-001	 2.7767398459e+000
 1.5823974203e+000	 3.4701831811e-001	 2.7225574067e+000
 1.5787793408e+000	 3.6312396365e-001	 2.6657798305e+000
 1.5749860010e+000	 3.7923900752e-001	 2.6059210467e+000
 1.5710165125e+000	 3.9536079216e-001	 2.5424789524e+000
 1.5668700363e+000	 4.1148662687e-001	 2.4749410987e+000
 1.5625457845e+000	 4.2761378894e-001	 2.4027911965e+000
 1.5580430214e+000	 4.4373952474e-001	 2.3255164954e+000
 1.5533610644e+000	 4.5986105085e-001	 2.2426160888e+000
 1.5484992856e+000	 4.7597555526e-001	 2.1536101930e+000
 1.5956514717e+000	 3.1614140616e-001	 2.8196710280e+000
 1.5923675945e+000	 3.3228659167e-001	 2.7677054699e+000
 1.5889096654e+000	 3.4844644755e-001	 2.7137046076e+000
 1.5852766959e+000	 3.6461837474e-001	 2.6571814877e+000
 1.5814677450e+000	 3.8079973895e-001	 2.5976265348e+000
 1.5774819203e+000	 3.9698787165e-001	 2.5345123874e+000
 1.5733183795e+000	 4.1318007109e-001	 2.4672995101e+000
 1.5689763316e+000	 4.2937360337e-001	 2.3954426420e+000
 1.5644550377e+000	 4.4556570350e-001	 2.3183981378e+000
 1.5597538125e+000	 4.6175357661e-001	 2.2356322550e+000
 1.5548720253e+000	 4.7793439913e-001	 2.1466304390e+000
 1.6021913485e+000	 3.1743713139e-001	 2.8106370456e+000
 1.5988940121e+000	 3.3364848894e-001	 2.7587598833e+000
 1.5954219105e+000	 3.4987457700e-001	 2.7049397766e+000
 1.5917740511e+000	 3.6611278583e-001	 2.6486691671e+000
 1.5879494889e+000	 3.8236047037e-001	 2.5894161914e+000
 1.5839473281e+000	 3.9861495114e-001	 2.5266294204e+000
 1.5797667228e+000	 4.1487351532e-001	 2.4597433907e+000
 1.5754068787e+000	 4.3113341780e-001	 2.3881849885e+000
 1.5708670540e+000	 4.4739188226e-001	 2.3113807460e+000
 1.5661465605e+000	 4.6364610238e-001	 2.2287651040e+000
 1.5612447650e+000	 4.7989324300e-001	 2.1397896974e+000
 1.6087312253e+000	 3.1873285661e-001	 2.8016419060e+000
 1.6054204298e+000	 3.3501038621e-001	 2.7498514035e+000
 1.6019341556e+000	 3.5130270644e-001	 2.6962080333e+000
 1.5982714062e+000	 3.6760719693e-001	 2.6401848797e+000
 1.5944312329e+000	 3.8392120179e-001	 2.5812290197e+000
 1.5904127359e+000	 4.0024203063e-001	 2.5187661588e+000
 1.5862150660e+000	 4.1656695955e-001	 2.4522060740e+000
 1.5818374258e+000	 4.3289323222e-001	 2.3809489264e+000
 1.5772790703e+000	 4.4921806101e-001	 2.3043925045e+000
 1.5725393085e+000	 4.6553862814e-001	 2.2219404580e+000
 1.5676175048e+000	 4.8185208687e-001	 2.1330115747e+000
 1.6152711022e+000	 3.2002858183e-001	 2.7926380427e+000
 1.6119468474e+000	 3.3637228348e-001	 2.7409292211e+000
 1.6084464008e+000	 3.5273083588e-001	 2.6874554002e+000
 1.6047687614e+000	 3.6910160802e-001	 2.6316715681e+000
 1.6009129768e+000	 3.8548193321e-001	 2.5730049836e+000
 1.5968781436e+000	 4.0186911012e-001	 2.5108597006e+000
 1.5926634093e+000	 4.1826040378e-001	 2.4446219153e+000
 1.5882679729e+000	 4.3465304665e-001	 2.3736662000e+000
 1.5836910866e+000	 4.5104423977e-001	 2.2973626873e+000
 1.5789320566e+000	 4.6743115390e-001	 2.2150852662e+000
 1.5739902445e+000	 4.8381093074e-001	 2.1262208461e+000
 1.6218109790e+000	 3.2132430705e-001	 2.7835787169e+000
 1.6184732651e+000	 3.3773418075e-001	 2.7319433842e+000
 1.6149586459e+000	 3.5415896533e-001	 2.6786287860e+000
 1.6112661166e+000	 3.7059601911e-001	 2.6230730895e+000
 1.6073947207e+000	 3.8704266463e-001	 2.5646849895e+000
 1.6033435514e+000	 4.0349618961e-001	 2.5028481148e+000
 1.5991117526e+000	 4.1995384800e-001	 2.4369262708e+000
 1.5946985200e+000	 4.3641286108e-001	 2.3662695871e+000
 1.5901031029e+000	 4.5287041853e-001	 2.2902216359e+000
 1.5853248046e+000	 4.6932367966e-001	 2.2081275829e+000
 1.5803629842e+000	 4.8576977461e-001	 2.1193434322e+000
 1.6283508558e+000	 3.2262003228e-001	 2.7744180028e+000
 1.6249996827e+000	 3.3909607802e-001	 2.7228447828e+000
 1.6214708910e+000	 3.5558709477e-001	 2.6696759688e+000
 1.6177634717e+000	 3.7209043021e-001	 2.6143341972e+000
 1.6138764647e+000	 3.8860339605e-001	 2.5562108676e+000
 1.6098089592e+000	 4.0512326910e-001	 2.4946704224e+000
 1.6055600958e+000	 4.2164729223e-001	 2.4290554778e+000
 1.6011290671e+000	 4.3817267550e-001	 2.3586928776e+000
 1.5965151192e+000	 4.5469659728e-001	 2.2829007376e+000
 1.5917175526e+000	 4.7121620542e-001	 2.2009965450e+000
 1.5867357239e+000	 4.8772861848e-001	 2.1123063768e+000
 1.6348907326e+000	 3.2391575750e-001	 2.7651107739e+000
 1.6315261004e+000	 3.4045797529e-001	 2.7135851337e+000
 1.6279831361e+000	 3.5701522422e-001	 2.6605455801e+000
 1.6242608269e+000	 3.7358484130e-001	 2.6054005243e+000
 1.6203582086e+000	 3.9016412748e-001	 2.5475253538e+000
 1.6162743670e+000	 4.0675034859e-001	 2.4862665770e+000
 1.6120084391e+000	 4.2334073646e-001	 2.4209468348e+000
 1.6075596142e+000	 4.3993248993e-001	 2.3508708530e+000
 1.6029271355e+000	 4.5652277604e-001	 2.2753324042e+000
 1.5981103007e+000	 4.7310873118e-001	 2.1936223497e+000
 1.5931084637e+000	 4.8968746235e-001	 2.1050378238e+000
 1.5293810664e+000	 4.7009902366e-001	 2.1761654980e+000
 1.5244011448e+000	 4.8600483420e-001	 2.0836871255e+000
 1.5192425439e+000	 5.0189807397e-001	 1.9900722396e+000
 1.5139048087e+000	 5.1777588698e-001	 1.8956632379e+000
 1.5083875417e+000	 5.3363539409e-001	 1.8008845932e+000
 1.5026904046e+000	 5.4947369440e-001	 1.7062566676e+000
 1.4968131186e+000	 5.6528786665e-001	 1.6124105645e+000
 1.4907554653e+000	 5.8107497069e-001	 1.5201040206e+000
 1.4845172880e+000	 5.9683204901e-001	 1.4302383321e+000
 1.4780984920e+000	 6.1255612826e-001	 1.3438763019e+000
 1.4714990455e+000	 6.2824422082e-001	 1.2622611826e+000
 1.5357538061e+000	 4.7205786752e-001	 2.1682982997e+000
 1.5307531338e+000	 4.8802995560e-001	 2.0755968824e+000
 1.5255730377e+000	 5.0398942050e-001	 1.9816608021e+000
 1.5202130608e+000	 5.1993339438e-001	 1.8868600618e+000
 1.5146728041e+000	 5.3585898608e-001	 1.7916449646e+000
 1.5089519277e+000	 5.5176328261e-001	 1.6965599565e+000
 1.5030501517e+000	 5.6764335053e-001	 1.6022585369e+000
 1.4969672570e+000	 5.8349623746e-001	 1.5095192409e+000
 1.4907030859e+000	 5.9931897356e-001	 1.4192626880e+000
 1.4842575436e+000	 6.1510857308e-001	 1.3325696848e+000
 1.4776305981e+000	 6.3086203596e-001	 1.2507003580e+000
 1.5421265459e+000	 4.7401671139e-001	 2.1608065458e+000
 1.5371051228e+000	 4.9005507699e-001	 2.0679139311e+000
 1.5319035315e+000	 5.0608076704e-001	 1.9736861118e+000
 1.5265213129e+000	 5.2209090178e-001	 1.8785193546e+000
 1.5209580664e+000	 5.3808257806e-001	 1.7828883079e+000
 1.5152134508e+000	 5.5405287081e-001	 1.6873598730e+000
 1.5092871849e+000	 5.6999883441e-001	 1.5926081716e+000
 1.5031790486e+000	 5.8591750423e-001	 1.4994306188e+000
 1.4968888839e+000	 6.0180589810e-001	 1.4087650944e+000
 1.4904165953e+000	 6.1766101790e-001	 1.3217082037e+000
 1.4837621507e+000	 6.3347985110e-001	 1.2395346025e+000
 1.5484992856e+000	 4.7597555526e-001	 2.1536101930e+000
 1.5434571119e+000	 4.9208019838e-001	 2.0605557882e+000
 1.5382340253e+000	 5.0817211358e-001	 1.9660629303e+000
 1.5328295650e+000	 5.2424840918e-001	 1.8705528274e+000
 1.5272433287e+000	 5.4030617005e-001	 1.7745230081e+000
 1.5214749739e+000	 5.5634245901e-001	 1.6785612169e+000
 1.5155242180e+000	 5.7235431829e-001	 1.5833604401e+000
 1.5093908403e+000	 5.8833877100e-001	 1.4897350673e+000
 1.5030746819e+000	 6.0429282265e-001	 1.3986381881e+000
 1.4965756469e+000	 6.2021346272e-001	 1.3111800108e+000
 1.4898937033e+000	 6.3609766624e-001	 1.2286473831e+000
 1.5548720253e+000	 4.7793439913e-001	 2.1466304390e+000
 1.5498091009e+000	 4.9410531978e-001	 2.0534412621e+000
 1.5445645190e+000	 5.1026346012e-001	 1.9587073732e+000
 1.5391378171e+000	 5.2640591658e-001	 1.8628736206e+000
 1.5335285911e+000	 5.4252976203e-001	 1.7664589655e+000
 1.5277364969e+000	 5.5863204721e-001	 1.6700704018e+000
 1.5217612512e+000	 5.7470980217e-001	 1.5744180372e+000
 1.5156026320e+000	 5.9076003777e-001	 1.4803313451e+000
 1.5092604799e+000	 6.0677974719e-001	 1.3887765848e+000
 1.5027346986e+000	 6.2276590753e-001	 1.3008753820e+000
 1.4960252558e+000	 6.3871548138e-001	 1.2179244468e+000
 1.5612447650e+000	 4.7989324300e-001	 2.1397896974e+000
 1.5561610899e+000	 4.9613044117e-001	 2.0464904281e+000
 1.5508950128e+000	 5.1235480666e-001	 1.9515368853e+000
 1.5454460692e+000	 5.2856342398e-001	 1.8553962765e+000
 1.5398138534e+000	 5.4475335401e-001	 1.7586075681e+000
 1.5339980200e+000	 5.6092163541e-001	 1.6617954259e+000
 1.5279982844e+000	 5.7706528605e-001	 1.5656853521e+000
 1.5218144237e+000	 5.9318130454e-001	 1.4711200252e+000
 1.5154462778e+000	 6.0926667174e-001	 1.3790768468e+000
 1.5088937502e+000	 6.2531835235e-001	 1.2906866836e+000
 1.5021568084e+000	 6.4133329652e-001	 1.2072537858e+000
 1.5676175048e+000	 4.8185208687e-001	 2.1330115747e+000
 1.5625130789e+000	 4.9815556257e-001	 2.0396246034e+000
 1.5572255066e+000	 5.1444615319e-001	 1.9444702143e+000
 1.5517543213e+000	 5.3072093138e-001	 1.8480367140e+000
 1.5460991157e+000	 5.4697694600e-001	 1.7508816647e+000
 1.5402595431e+000	 5.6321122361e-001	 1.6536458448e+000
 1.5342353175e+000	 5.7942076993e-001	 1.5570684383e+000
 1.5280262153e+000	 5.9560257131e-001	 1.4620034649e+000
 1.5216320758e+000	 6.1175359629e-001	 1.3694374518e+000
 1.5150528019e+000	 6.2787079717e-001	 1.2805083396e+000
 1.5082883610e+000	 6.4395111166e-001	 1.1965256036e+000
 1.5739902445e+000	 4.8381093074e-001	 2.1262208461e+000
 1.5688650679e+000	 5.0018068396e-001	 2.0327663233e+000
 1.5635560003e+000	 5.1653749973e-001	 1.9374273865e+000
 1.5580625734e+000	 5.3287843878e-001	 1.8407122021e+000
 1.5523843781e+000	 5.4920053798e-001	 1.7431955382e+000
 1.5465210662e+000	 5.6550081182e-001	 1.6455327429e+000
 1.5404723507e+000	 5.8177625381e-001	 1.5484749856e+000
 1.5342380070e+000	 5.9802383808e-001	 1.4528857761e+000
 1.5278178738e+000	 6.1424052083e-001	 1.3597587619e+000
 1.5212118535e+000	 6.3042324199e-001	 1.2702367995e+000
 1.5144199136e+000	 6.4656892680e-001	 1.1856322814e+000
 1.5803629842e+000	 4.8576977461e-001	 2.1193434322e+000
 1.5752170569e+000	 5.0220580535e-001	 2.0258393170e+000
 1.5698864941e+000	 5.1862884627e-001	 1.9303296821e+000
 1.5643708254e+000	 5.3503594618e-001	 1.8333413351e+000
 1.5586696404e+000	 5.5142412996e-001	 1.7354648793e+000
 1.5527825892e+000	 5.6779040002e-001	 1.6373687069e+000
 1.5467093838e+000	 5.8413173769e-001	 1.5398142921e+000
 1.5404497987e+000	 6.0044510485e-001	 1.4436727962e+000
 1.5340036717e+000	 6.1672744538e-001	 1.3499429932e+000
 1.5273709052e+000	 6.3297568681e-001	 1.2597705071e+000
 1.5205514662e+000	 6.4918674194e-001	 1.1744683460e+000
 1.5867357239e+000	 4.8772861848e-001	 2.1123063768e+000
 1.5815690460e+000	 5.0423092675e-001	 2.0187684846e+000
 1.5762169879e+000	 5.2072019280e-001	 1.9230996111e+000
 1.5706790775e+000	 5.3719345357e-001	 1.8258440075e+000
 1.5649549028e+000	 5.5364772195e-001	 1.7276067606e+000
 1.5590441123e+000	 5.7007998822e-001	 1.6290677993e+000
 1.5529464170e+000	 5.8648722157e-001	 1.5309972357e+000
 1.5466615904e+000	 6.0286637162e-001	 1.4342720589e+000
 1.5401894697e+000	 6.1921436992e-001	 1.3398941864e+000
 1.5335299568e+000	 6.3552813162e-001	 1.2490098694e+000
 1.5266830188e+000	 6.5180455708e-001	 1.1629304372e+000
 1.5931084637e+000	 4.8968746235e-001	 2.1050378238e+000
 1.5879210350e+000	 5.0625604814e-001	 2.0114798735e+000
 1.5825474817e+000	 5.2281153934e-001	 1.9156608893e+000
 1.5769873296e+000	 5.3935096097e-001	 1.8181413893e+000
 1.5712401651e+000	 5.5587131393e-001	 1.7195396118e+000
 1.5653056354e+000	 5.7236957642e-001	 1.6205455314e+000
 1.5591834502e+000	 5.8884270545e-001	 1.5219362480e+000
 1.5528733820e+000	 6.0528763838e-001	 1.4245927669e+000
 1.5463752677e+000	 6.2170129446e-001	 1.3295181772e+000
 1.5396890085e+000	 6.3808057644e-001	 1.2378572264e+000
 1.5328145713e+000	 6.5442237221e-001	 1.1509172770e+000
 1.4714990455e+000	 6.2824422082e-001	 1.2622611826e+000
 1.4647200112e+000	 6.4389098239e-001	 1.1743138762e+000
 1.4577605098e+000	 6.5949575956e-001	 1.0692718401e+000
 1.4506207034e+000	 6.7505553390e-001	 9.5043800291e-001
 1.4433008194e+000	 6.9056727934e-001	 8.2654387995e-001
 1.4358011511e+000	 7.0602796396e-001	 7.0106916674e-001
 1.4281220583e+000	 7.2143455165e-001	 5.7657648916e-001
 1.4202639671e+000	 7.3678400397e-001	 4.5560278251e-001
 1.4122273710e+000	 7.5207328189e-001	 3.4065343231e-001
 1.4040128306e+000	 7.6729934761e-001	 2.3419622601e-001
 1.3956209742e+000	 7.8245916641e-001	 1.3865512514e-001
 1.4776305981e+000	 6.3086203596e-001	 1.2507003580e+000
 1.4708233164e+000	 6.4657399563e-001	 1.1624665172e+000
 1.4638348157e+000	 6.6224379596e-001	 1.0569193503e+000
 1.4566652585e+000	 6.7786840593e-001	 9.3828755396e-001
 1.4493148735e+000	 6.9344478688e-001	 8.1508830126e-001
 1.4417839551e+000	 7.0896989423e-001	 6.9019543185e-001
 1.4340728644e+000	 7.2444067925e-001	 5.6611061455e-001
 1.4261820295e+000	 7.3985409082e-001	 4.4530971787e-001
 1.4181119459e+000	 7.5520707725e-001	 3.3023703593e-001
 1.4098631766e+000	 7.7049658808e-001	 2.2329931991e-001
 1.4014363523e+000	 7.8571957594e-001	 1.2685962447e-001
 1.4837621507e+000	 6.3347985110e-001	 1.2395346025e+000
 1.4769266216e+000	 6.4925700887e-001	 1.1509535967e+000
 1.4699091215e+000	 6.6499183235e-001	 1.0448357025e+000
 1.4627098137e+000	 6.8068127796e-001	 9.2667593602e-001
 1.4553289276e+000	 6.9632229441e-001	 8.0419453944e-001
 1.4477667590e+000	 7.1191182450e-001	 6.7990276011e-001
 1.4400236705e+000	 7.2744680685e-001	 5.5623870958e-001
 1.4321000919e+000	 7.4292417767e-001	 4.3561476663e-001
 1.4239965208e+000	 7.5834087261e-001	 3.2041189548e-001
 1.4157135225e+000	 7.7369382855e-001	 2.1297376385e-001
 1.4072517305e+000	 7.8897998548e-001	 1.1560066994e-001
 1.4898937033e+000	 6.3609766624e-001	 1.2286473831e+000
 1.4830299268e+000	 6.5194002211e-001	 1.1396545908e+000
 1.4759834273e+000	 6.6773986875e-001	 1.0329182071e+000
 1.4687543688e+000	 6.8349414999e-001	 9.1549948024e-001
 1.4613429817e+000	 6.9919980195e-001	 7.9375941387e-001
 1.4537495629e+000	 7.1485375478e-001	 6.7009010663e-001
 1.4459744766e+000	 7.3045293445e-001	 5.4686353828e-001
 1.4380181543e+000	 7.4599426451e-001	 4.2642619983e-001
 1.4298810957e+000	 7.6147466796e-001	 3.1109351120e-001
 1.4215638685e+000	 7.7689106902e-001	 2.0314403259e-001
 1.4130671086e+000	 7.9224039502e-001	 1.0481347849e-001
 1.4960252558e+000	 6.3871548138e-001	 1.2179244468e+000
 1.4891332320e+000	 6.5462303535e-001	 1.1284514083e+000
 1.4820577331e+000	 6.7048790514e-001	 1.0212591001e+000
 1.4747989240e+000	 6.8630702202e-001	 9.0465602903e-001
 1.4673570358e+000	 7.0207730948e-001	 7.8368127710e-001
 1.4597323668e+000	 7.1779568505e-001	 6.6065795477e-001
 1.4519252827e+000	 7.3345906204e-001	 5.3788936066e-001
 1.4439362167e+000	 7.4906435136e-001	 4.1765372430e-001
 1.4357656707e+000	 7.6460846332e-001	 3.0219873044e-001
 1.4274142145e+000	 7.8008830949e-001	 1.9373583053e-001
 1.4188824868e+000	 7.9550080456e-001	 9.4434349870e-002
 1.5021568084e+000	 6.4133329652e-001	 1.2072537858e+000
 1.4952365372e+000	 6.5730604859e-001	 1.1172283545e+000
 1.4881320389e+000	 6.7323594154e-001	 1.0098116203e+000
 1.4808434791e+000	 6.8911989405e-001	 8.9404490593e-001
 1.4733710899e+000	 7.0495481702e-001	 7.7385998446e-001
 1.4657151707e+000	 7.2073761533e-001	 6.5150828601e-001
 1.4578760888e+000	 7.3646518964e-001	 5.2922190321e-001
 1.4498542792e+000	 7.5213443821e-001	 4.0920845434e-001
 1.4416502456e+000	 7.6774225868e-001	 2.9364572121e-001
 1.4332645604e+000	 7.8328554996e-001	 1.8467606750e-001
 1.4246978649e+000	 7.9876121410e-001	 8.4400645321e-002
 1.5082883610e+000	 6.4395111166e-001	 1.1965256036e+000
 1.5013398424e+000	 6.5998906182e-001	 1.1058720968e+000
 1.4942063448e+000	 6.7598397793e-001	 9.9847753390e-001
 1.4868880343e+000	 6.9193276608e-001	 8.8356688642e-001
 1.4793851440e+000	 7.0783232455e-001	 7.6419686453e-001
 1.4716979747e+000	 7.2367954560e-001	 6.4254455046e-001
 1.4638268949e+000	 7.3947131724e-001	 5.2076833020e-001
 1.4557723416e+000	 7.5520452506e-001	 4.0100288426e-001
 1.4475348205e+000	 7.7087605404e-001	 2.8535394637e-001
 1.4391149064e+000	 7.8648279043e-001	 1.7589283525e-001
 1.4305132431e+000	 8.0202162364e-001	 7.4650766898e-002
 1.5144199136e+000	 6.4656892680e-001	 1.1856322814e+000
 1.5074431476e+000	 6.6267207506e-001	 1.0942716297e+000
 1.5002806506e+000	 6.7873201433e-001	 9.8715998466e-001
 1.4929325894e+000	 6.9474563811e-001	 8.7312416938e-001
 1.4853991981e+000	 7.1070983208e-001	 7.5459469024e-001
 1.4776807786e+000	 7.2662147587e-001	 6.3367163828e-001
 1.4697777010e+000	 7.4247744484e-001	 5.1243721566e-001
 1.4616904040e+000	 7.5827461191e-001	 3.9295086150e-001
 1.4534193955e+000	 7.7400984939e-001	 2.7724413845e-001
 1.4449652523e+000	 7.8968003090e-001	 1.6731538450e-001
 1.4363286212e+000	 8.0528203318e-001	 6.5124137211e-002
 1.5205514662e+000	 6.4918674194e-001	 1.1744683460e+000
 1.5135464528e+000	 6.6535508830e-001	 1.0823182420e+000
 1.5063549564e+000	 6.8148005072e-001	 9.7576346699e-001
 1.4989771445e+000	 6.9755851014e-001	 8.6262034934e-001
 1.4914132522e+000	 7.1358733962e-001	 7.4495765084e-001
 1.4836635825e+000	 7.2956340615e-001	 6.2479585171e-001
 1.4757285071e+000	 7.4548357244e-001	 5.0413851611e-001
 1.4676084664e+000	 7.6134469875e-001	 3.8496756051e-001
 1.4593039704e+000	 7.7714364475e-001	 2.6923827516e-001
 1.4508155983e+000	 7.9287727137e-001	 1.5887410256e-001
 1.4421439994e+000	 8.0854244272e-001	 5.5761179702e-002
 1.5266830188e+000	 6.5180455708e-001	 1.1629304372e+000
 1.5196497580e+000	 6.6803810154e-001	 1.0699418298e+000
 1.5124292622e+000	 6.8422808712e-001	 9.6419379965e-001
 1.5050216997e+000	 7.0037138216e-001	 8.5196038942e-001
 1.4974273063e+000	 7.1646484715e-001	 7.3519132454e-001
 1.4896463864e+000	 7.3250533642e-001	 6.1582487788e-001
 1.4816793132e+000	 7.4848970004e-001	 4.9578354395e-001
 1.4735265288e+000	 7.6441478560e-001	 3.7696945722e-001
 1.4651885453e+000	 7.8027744011e-001	 2.6125955545e-001
 1.4566659443e+000	 7.9607451184e-001	 1.5050049143e-001
 1.4479593775e+000	 8.1180285226e-001	 4.6503299373e-002
 1.5328145713e+000	 6.5442237221e-001	 1.1509172770e+000
 1.5257530632e+000	 6.7072111478e-001	 1.0572613601e+000
 1.5185035681e+000	 6.8697612351e-001	 9.5235810015e-001
 1.5110662548e+000	 7.0318425419e-001	 8.4105059497e-001
 1.5034413604e+000	 7.1934235468e-001	 7.2520265183e-001
 1.4956291903e+000	 7.3544726669e-001	 6.0666776228e-001
 1.4876301193e+000	 7.5149582763e-001	 4.8728494154e-001
 1.4794445913e+000	 7.6748487245e-001	 3.6887430417e-001
 1.4710731202e+000	 7.8341123546e-001	 2.5323237617e-001
 1.4625162902e+000	 7.9927175231e-001	 1.4212714655e-001
 1.4537747557e+000	 8.1506326180e-001	 3.7292864000e-002
 1.3956209742e+000	 7.8245916641e-001	 1.3865512514e-001
 1.3870511992e+000	 7.9755196704e-001	 4.9019990216e-002
 1.3783055161e+000	 8.1257244658e-001	-4.1461284021e-002
 1.3693847580e+000	 8.2751759014e-001	-1.3304010223e-001
 1.3602898258e+000	 8.4238439338e-001	-2.2594998490e-001
 1.3510216880e+000	 8.5716986437e-001	-3.2040846710e-001
 1.3415813808e+000	 8.7187102550e-001	-4.1661917802e-001
 1.3319700078e+000	 8.8648491536e-001	-5.1472959604e-001
 1.3221887397e+000	 9.0100859063e-001	-6.1193295921e-001
 1.3122388141e+000	 9.1543912792e-001	-7.0640902872e-001
 1.3021215348e+000	 9.2977362572e-001	-7.9816792238e-001
 1.4014363523e+000	 7.8571957594e-001	 1.2685962447e-001
 1.3928308681e+000	 8.0087526639e-001	 3.6242924752e-002
 1.3840487429e+000	 8.1595833439e-001	-5.4912808321e-002
 1.3750908132e+000	 8.3096575250e-001	-1.4683794920e-001
 1.3659579835e+000	 8.4589450385e-001	-2.3974523218e-001
 1.3566512265e+000	 8.6074158404e-001	-3.3383173358e-001
 1.3471715827e+000	 8.7550400308e-001	-4.2928104111e-001
 1.3375201603e+000	 8.9017878719e-001	-5.2626559569e-001
 1.3276981349e+000	 9.0476298080e-001	-6.2414799646e-001
 1.3177067492e+000	 9.1925364833e-001	-7.1927963780e-001
 1.3075473125e+000	 9.3364787619e-001	-8.1117063149e-001
 1.4072517305e+000	 7.8897998548e-001	 1.1560066994e-001
 1.3986105371e+000	 8.0419856575e-001	 2.3947662164e-002
 1.3897919697e+000	 8.1934422221e-001	-6.7958758479e-002
 1.3807968683e+000	 8.3441391486e-001	-1.6032444910e-001
 1.3716261411e+000	 8.4940461431e-001	-2.5333792860e-001
 1.3622807650e+000	 8.6431330372e-001	-3.4717245121e-001
 1.3527617846e+000	 8.7913698066e-001	-4.4198827371e-001
 1.3430703128e+000	 8.9387265903e-001	-5.3793510106e-001
 1.3332075301e+000	 9.0851737097e-001	-6.3515447261e-001
 1.3231746843e+000	 9.2306816875e-001	-7.3114295231e-001
 1.3129730902e+000	 9.3752212667e-001	-8.2336272567e-001
 1.4130671086e+000	 7.9224039502e-001	 1.0481347849e-001
 1.4043902060e+000	 8.0752186510e-001	 1.2080718813e-002
 1.3955351965e+000	 8.2273011002e-001	-8.0642019884e-002
 1.3865029234e+000	 8.3786207722e-001	-1.7353263467e-001
 1.3772942988e+000	 8.5291472478e-001	-2.6675204324e-001
 1.3679103035e+000	 8.6788502340e-001	-3.6044635672e-001
 1.3583519865e+000	 8.8276995824e-001	-4.5474925267e-001
 1.3486204653e+000	 8.9756653086e-001	-5.4978453279e-001
 1.3387169253e+000	 9.1227176114e-001	-6.4566884698e-001
 1.3286426194e+000	 9.2688268916e-001	-7.4195118821e-001
 1.3183988678e+000	 9.4139637714e-001	-8.3469590855e-001
 1.4188824868e+000	 7.9550080456e-001	 9.4434349870e-002
 1.4101698750e+000	 8.1084516445e-001	 5.8953752846e-004
 1.4012784233e+000	 8.2611599784e-001	-9.3004696666e-002
 1.3922089785e+000	 8.4131023957e-001	-1.8649489078e-001
 1.3829624565e+000	 8.5642483525e-001	-2.8001101818e-001
 1.3735398420e+000	 8.7145674308e-001	-3.7366876738e-001
 1.3639421884e+000	 8.8640293582e-001	-4.6757202899e-001
 1.3541706179e+000	 9.0126040269e-001	-5.6181557343e-001
 1.3442263205e+000	 9.1602615131e-001	-6.5648790087e-001
 1.3341105545e+000	 9.3069720958e-001	-7.5167424196e-001
 1.3238246455e+000	 9.4527062762e-001	-8.4512240470e-001
 1.4246978649e+000	 7.9876121410e-001	 8.4400645321e-002
 1.4159495440e+000	 8.1416846381e-001	-1.0577530612e-002
 1.4070216501e+000	 8.2950188565e-001	-1.0508812715e-001
 1.3979150336e+000	 8.4475840193e-001	-1.9924296739e-001
 1.3886306141e+000	 8.5993494572e-001	-2.9313777918e-001
 1.3791693804e+000	 8.7502846276e-001	-3.8685458986e-001
 1.3695323903e+000	 8.9003591339e-001	-4.8046433504e-001
 1.3597207704e+000	 9.0495427452e-001	-5.7402966457e-001
 1.3497357157e+000	 9.1978054148e-001	-6.6760792637e-001
 1.3395784896e+000	 9.3451172999e-001	-7.6125430643e-001
 1.3292504232e+000	 9.4914487810e-001	-8.5459500482e-001
 1.4305132431e+000	 8.0202162364e-001	 7.4650766898e-002
 1.4217292129e+000	 8.1749176316e-001	-2.1471244057e-002
 1.4127648769e+000	 8.3288777346e-001	-1.1693289892e-001
 1.4036210887e+000	 8.4820656429e-001	-2.1180799220e-001
 1.3942987718e+000	 8.6344505619e-001	-3.0615474627e-001
 1.3847989189e+000	 8.7860018244e-001	-4.0001832888e-001
 1.3751225923e+000	 8.9366889097e-001	-4.9343359174e-001
 1.3652709229e+000	 9.0864814635e-001	-5.8642801271e-001
 1.3552451109e+000	 9.2353493165e-001	-6.7902482184e-001
 1.3450464247e+000	 9.3832625041e-001	-7.7124628877e-001
 1.3346762008e+000	 9.5301912857e-001	-8.6311714627e-001
 1.4363286212e+000	 8.0528203318e-001	 6.5124137211e-002
 1.4275088819e+000	 8.2081506251e-001	-3.2141488140e-002
 1.4185081037e+000	 8.3627366128e-001	-1.2857886359e-001
 1.4093271438e+000	 8.5165472665e-001	-2.2422048302e-001
 1.3999669295e+000	 8.6695516666e-001	-3.1908384398e-001
 1.3904284574e+000	 8.8217190211e-001	-4.1317409575e-001
 1.3807127942e+000	 8.9730186855e-001	-5.0648691555e-001
 1.3708210754e+000	 9.1234201818e-001	-5.9901159515e-001
 1.3607545061e+000	 9.2728932182e-001	-6.9073431724e-001
 1.3505143598e+000	 9.4214077083e-001	-7.8164159843e-001
 1.3401019785e+000	 9.5689337905e-001	-8.7172387301e-001
 1.4421439994e+000	 8.0854244272e-001	 5.5761179702e-002
 1.4332885509e+000	 8.2413836187e-001	-4.2637292017e-002
 1.4242513305e+000	 8.3965954909e-001	-1.4006515112e-001
 1.4150331989e+000	 8.5510288901e-001	-2.3651035985e-001
 1.4056350871e+000	 8.7046527713e-001	-3.3194651147e-001
 1.3960579959e+000	 8.8574362179e-001	-4.2633561667e-001
 1.3863029961e+000	 9.0093484613e-001	-5.1963112537e-001
 1.3763712280e+000	 9.1603589001e-001	-6.1178116574e-001
 1.3662639013e+000	 9.3104371199e-001	-7.0273197907e-001
 1.3559822949e+000	 9.4595529124e-001	-7.9243152665e-001
 1.3455277562e+000	 9.6076762952e-001	-8.8083324198e-001
 1.4479593775e+000	 8.1180285226e-001	 4.6503299373e-002
 1.4390682198e+000	 8.2746166122e-001	-5.3006845204e-002
 1.4299945573e+000	 8.4304543690e-001	-1.5143018397e-001
 1.4207392541e+000	 8.5855105137e-001	-2.4870695676e-001
 1.4113032448e+000	 8.7397538760e-001	-3.4476371237e-001
 1.4016875344e+000	 8.8931534147e-001	-4.3951624093e-001
 1.3918931980e+000	 9.0456782371e-001	-5.3287274932e-001
 1.3819213805e+000	 9.1972976184e-001	-6.2473726054e-001
 1.3717732965e+000	 9.3479810216e-001	-7.1501321527e-001
 1.3614502301e+000	 9.4976981166e-001	-8.0360725084e-001
 1.3509535338e+000	 9.6464188000e-001	-8.9043313028e-001
 1.4537747557e+000	 8.1506326180e-001	 3.7292864000e-002
 1.4448478888e+000	 8.3078496057e-001	-6.3297513726e-002
 1.4357377841e+000	 8.4643132472e-001	-1.6271169074e-001
 1.4264453092e+000	 8.6199921372e-001	-2.6083903341e-001
 1.4169714025e+000	 8.7748549806e-001	-3.5755594442e-001
 1.4073170729e+000	 8.9288706115e-001	-4.5272894895e-001
 1.3974833999e+000	 9.0820080129e-001	-5.4621803144e-001
 1.3874715330e+000	 9.2342363367e-001	-6.3788020348e-001
 1.3772826917e+000	 9.3855249233e-001	-7.2757328008e-001
 1.3669181652e+000	 9.5358433207e-001	-8.1515983908e-001
 1.3563793115e+000	 9.6851613048e-001	-9.0051133521e-001
 1.3021215348e+000	 9.2977362572e-001	-7.9816792238e-001
 1.2918382714e+000	 9.4400920589e-001	-8.8642992707e-001
 1.2813904573e+000	 9.5814301461e-001	-9.7027852762e-001
 1.2707795903e+000	 9.7217222507e-001	-1.0497380099e+000
 1.2600072328e+000	 9.8609403966e-001	-1.1249988556e+000
 1.2490750102e+000	 9.9990569180e-001	-1.1964124518e+000
 1.2379846111e+000	 1.0136044476e+000	-1.2644858564e+000
 1.2267377857e+000	 1.0271876080e+000	-1.3298685045e+000
 1.2153363455e+000	 1.0406525098e+000	-1.3933519129e+000
 1.2037821618e+000	 1.0539965282e+000	-1.4558536216e+000
 1.1920771653e+000	 1.0672170781e+000	-1.5184076912e+000
 1.3075473125e+000	 9.3364787619e-001	-8.1117063149e-001
 1.2972212000e+000	 9.4794277425e-001	-8.9923534288e-001
 1.2867298511e+000	 9.6213547678e-001	-9.8278797642e-001
 1.2760747700e+000	 9.7622314521e-001	-1.0618661403e+000
 1.2652575254e+000	 9.9020297027e-001	-1.1366766454e+000
 1.2542797497e+000	 1.0040721738e+000	-1.2075900280e+000
 1.2431431382e+000	 1.0178280107e+000	-1.2751349928e+000
 1.2318494487e+000	 1.0314677703e+000	-1.3399852940e+000
 1.2204005001e+000	 1.0449887787e+000	-1.4029585010e+000
 1.2087981716e+000	 1.0583884000e+000	-1.4650000886e+000
 1.1970444019e+000	 1.0716640383e+000	-1.5271734849e+000
 1.3129730902e+000	 9.3752212667e-001	-8.2336272567e-001
 1.3026041286e+000	 9.5187634261e-001	-9.1141195390e-001
 1.2920692450e+000	 9.6612793895e-001	-9.9482725295e-001
 1.2813699498e+000	 9.8027406535e-001	-1.0736591265e+000
 1.2705078180e+000	 9.9431190087e-001	-1.1481304417e+000
 1.2594844891e+000	 1.0082386559e+000	-1.2186307613e+000
 1.2483016653e+000	 1.0220515737e+000	-1.2857104678e+000
 1.2369611118e+000	 1.0357479327e+000	-1.3500677906e+000
 1.2254646548e+000	 1.0493250477e+000	-1.4125466633e+000
 1.2138141814e+000	 1.0627802718e+000	-1.4741209326e+000
 1.2020116384e+000	 1.0761109984e+000	-1.5358839562e+000
 1.3183988678e+000	 9.4139637714e-001	-8.3469590855e-001
 1.3079870572e+000	 9.5580991097e-001	-9.2291148355e-001
 1.2974086389e+000	 9.7012040113e-001	-1.0063482920e+000
 1.2866651295e+000	 9.8432498549e-001	-1.0850693071e+000
 1.2757581107e+000	 9.9842083147e-001	-1.1593131821e+000
 1.2646892285e+000	 1.0124051379e+000	-1.2294896242e+000
 1.2534601925e+000	 1.0262751367e+000	-1.2961670242e+000
 1.2420727748e+000	 1.0400280951e+000	-1.3600719579e+000
 1.2305288094e+000	 1.0536613166e+000	-1.4220738087e+000
 1.2188301912e+000	 1.0671721436e+000	-1.4831752441e+000
 1.2069788749e+000	 1.0805579586e+000	-1.5445001256e+000
 1.3238246455e+000	 9.4527062762e-001	-8.4512240470e-001
 1.3133699858e+000	 9.5974347933e-001	-9.3368620265e-001
 1.3027480327e+000	 9.7411286330e-001	-1.0173035895e+000
 1.2919603092e+000	 9.8837590563e-001	-1.0960495830e+000
 1.2810084033e+000	 1.0025297621e+000	-1.1701783550e+000
 1.2698939679e+000	 1.0165716199e+000	-1.2401183091e+000
 1.2586187196e+000	 1.0304986998e+000	-1.3064598941e+000
 1.2471844378e+000	 1.0443082574e+000	-1.3699541996e+000
 1.2355929640e+000	 1.0579975855e+000	-1.4314977256e+000
 1.2238462010e+000	 1.0715640154e+000	-1.4921224198e+000
 1.2119461115e+000	 1.0850049187e+000	-1.5529832358e+000
 1.3292504232e+000	 9.4914487810e-001	-8.5459500482e-001
 1.3187529144e+000	 9.6367704769e-001	-9.4368897407e-001
 1.3080874266e+000	 9.7810532547e-001	-1.0276462464e+000
 1.2972554889e+000	 9.9242682577e-001	-1.1065534605e+000
 1.2862586960e+000	 1.0066386927e+000	-1.1806800422e+000
 1.2750987074e+000	 1.0207381019e+000	-1.2504729892e+000
 1.2637772467e+000	 1.0347222628e+000	-1.3165448420e+000
 1.2522961008e+000	 1.0485884198e+000	-1.3796714029e+000
 1.2406571187e+000	 1.0623338544e+000	-1.4407766242e+000
 1.2288622108e+000	 1.0759558872e+000	-1.5009222059e+000
 1.2169133480e+000	 1.0894518789e+000	-1.5612947945e+000
 1.3346762008e+000	 9.5301912857e-001	-8.6311714627e-001
 1.3241358430e+000	 9.6761061605e-001	-9.5287329745e-001
 1.3134268204e+000	 9.8209778765e-001	-1.0373300136e+000
 1.3025506686e+000	 9.9647774591e-001	-1.1165350958e+000
 1.2915089886e+000	 1.0107476233e+000	-1.1907740951e+000
 1.2803034468e+000	 1.0249045840e+000	-1.2605091093e+000
 1.2689357738e+000	 1.0389458258e+000	-1.3263782078e+000
 1.2574077638e+000	 1.0528685822e+000	-1.3891809812e+000
 1.2457212733e+000	 1.0666701234e+000	-1.4498691800e+000
 1.2338782206e+000	 1.0803477590e+000	-1.5095347407e+000
 1.2218805845e+000	 1.0938988391e+000	-1.5693966175e+000
 1.3401019785e+000	 9.5689337905e-001	-8.7172387301e-001
 1.3295187716e+000	 9.7154418441e-001	-9.6119335392e-001
 1.3187662143e+000	 9.8609024982e-001	-1.0463093353e+000
 1.3078458483e+000	 1.0005286660e+000	-1.1259493386e+000
 1.2967592812e+000	 1.0148565539e+000	-1.2004135530e+000
 1.2855081862e+000	 1.0290710660e+000	-1.2701827700e+000
 1.2740943010e+000	 1.0431693889e+000	-1.3359169499e+000
 1.2625194268e+000	 1.0571487445e+000	-1.3984409168e+000
 1.2507854279e+000	 1.0710063923e+000	-1.4587345765e+000
 1.2388942304e+000	 1.0847396307e+000	-1.5179205981e+000
 1.2268478211e+000	 1.0983457992e+000	-1.5772508719e+000
 1.3455277562e+000	 9.6076762952e-001	-8.8083324198e-001
 1.3349017002e+000	 9.7547775277e-001	-9.6867195731e-001
 1.3241056082e+000	 9.9008271199e-001	-1.0545393942e+000
 1.3131410280e+000	 1.0045795862e+000	-1.1347517761e+000
 1.3020095739e+000	 1.0189654845e+000	-1.2095557746e+000
 1.2907129257e+000	 1.0332375480e+000	-1.2794507708e+000
 1.2792528281e+000	 1.0473929519e+000	-1.3451186883e+000
 1.2676310898e+000	 1.0614289069e+000	-1.4074098046e+000
 1.2558495826e+000	 1.0753426612e+000	-1.4673325483e+000
 1.2439102402e+000	 1.0891315025e+000	-1.5260408299e+000
 1.2318150576e+000	 1.1027927594e+000	-1.5848201190e+000
 1.3509535338e+000	 9.6464188000e-001	-8.9043313028e-001
 1.3402846288e+000	 9.7941132112e-001	-9.7636053538e-001
 1.3294450020e+000	 9.9407517417e-001	-1.0619761550e+000
 1.3184362077e+000	 1.0086305063e+000	-1.1428987768e+000
 1.3072598665e+000	 1.0230744151e+000	-1.2181576521e+000
 1.2959176651e+000	 1.0374040301e+000	-1.2882706537e+000
 1.2844113552e+000	 1.0516165149e+000	-1.3539417478e+000
 1.2727427528e+000	 1.0657090692e+000	-1.4160468944e+000
 1.2609137372e+000	 1.0796789302e+000	-1.4756234234e+000
 1.2489262500e+000	 1.0935233743e+000	-1.5338570091e+000
 1.2367822942e+000	 1.1072397196e+000	-1.5920673569e+000
 1.3563793115e+000	 9.6851613048e-001	-9.0051133521e-001
 1.3456675574e+000	 9.8334488948e-001	-9.8462028048e-001
 1.3347843959e+000	 9.9806763634e-001	-1.0686344616e+000
 1.3237313874e+000	 1.0126814265e+000	-1.1503484674e+000
 1.3125101591e+000	 1.0271833457e+000	-1.2261768894e+000
 1.3011224045e+000	 1.0415705121e+000	-1.2966007466e+000
 1.2895698824e+000	 1.0558400780e+000	-1.3623452010e+000
 1.2778544158e+000	 1.0699892316e+000	-1.4243121339e+000
 1.2659778918e+000	 1.0840151991e+000	-1.4835681669e+000
 1.2539422598e+000	 1.0979152461e+000	-1.5413312724e+000
 1.2417495307e+000	 1.1116866797e+000	-1.5989560640e+000
 1.1920771653e+000	 1.0672170781e+000	-1.5184076912e+000
 1.1802251337e+000	 1.0803096611e+000	-1.5766727807e+000
 1.1682263680e+000	 1.0932737708e+000	-1.6263579603e+000
 1.1560829695e+000	 1.1061069531e+000	-1.6686827677e+000
 1.1437970941e+000	 1.1188067997e+000	-1.7049327540e+000
 1.1313709505e+000	 1.1313709505e+000	-1.7364450090e+000
 1.1188067997e+000	 1.1437970941e+000	-1.7645932403e+000
 1.1061069531e+000	 1.1560829695e+000	-1.7907725179e+000
 1.0932737708e+000	 1.1682263680e+000	-1.8163838024e+000
 1.0803096611e+000	 1.1802251337e+000	-1.8428183772e+000
 1.0672170781e+000	 1.1920771653e+000	-1.8714423039e+000
 1.1970444019e+000	 1.0716640383e+000	-1.5271734849e+000
 1.1851429843e+000	 1.0848111765e+000	-1.5851466146e+000
 1.1730942212e+000	 1.0978293060e+000	-1.6346010196e+000
 1.1609002228e+000	 1.1107159625e+000	-1.6767328063e+000
 1.1485631536e+000	 1.1234687278e+000	-1.7128056879e+000
 1.1360852319e+000	 1.1360852319e+000	-1.7441361908e+000
 1.1234687278e+000	 1.1485631536e+000	-1.7720784001e+000
 1.1107159625e+000	 1.1609002228e+000	-1.7980083616e+000
 1.0978293060e+000	 1.1730942212e+000	-1.8233082591e+000
 1.0848111765e+000	 1.1851429843e+000	-1.8493504904e+000
 1.0716640383e+000	 1.1970444019e+000	-1.8774817662e+000
 1.2020116384e+000	 1.0761109984e+000	-1.5358839562e+000
 1.1900608349e+000	 1.0893126918e+000	-1.5935203786e+000
 1.1779620745e+000	 1.1023848411e+000	-1.6426931568e+000
 1.1657174760e+000	 1.1153249719e+000	-1.6845778701e+000
 1.1533292131e+000	 1.1281306559e+000	-1.7204192907e+000
 1.1407995132e+000	 1.1407995132e+000	-1.7515162585e+000
 1.1281306559e+000	 1.1533292131e+000	-1.7792060803e+000
 1.1153249719e+000	 1.1657174760e+000	-1.8048485757e+000
 1.1023848411e+000	 1.1779620745e+000	-1.8298098898e+000
 1.0893126918e+000	 1.1900608349e+000	-1.8554462010e+000
 1.0761109984e+000	 1.2020116384e+000	-1.8830874490e+000
 1.2069788749e+000	 1.0805579586e+000	-1.5445001256e+000
 1.1949786855e+000	 1.0938142071e+000	-1.6017568562e+000
 1.1828299277e+000	 1.1069403763e+000	-1.6505983186e+000
 1.1705347292e+000	 1.1199339813e+000	-1.6921824598e+000
 1.1580952726e+000	 1.1327925840e+000	-1.7277380007e+000
 1.1455137945e+000	 1.1455137945e+000	-1.7585489653e+000
 1.1327925840e+000	 1.1580952726e+000	-1.7859387219e+000
 1.1199339813e+000	 1.1705347292e+000	-1.8112536580e+000
 1.1069403763e+000	 1.1828299277e+000	-1.8358466168e+000
 1.0938142071e+000	 1.1949786855e+000	-1.8610602218e+000
 1.0805579586e+000	 1.2069788749e+000	-1.8882102213e+000
 1.2119461115e+000	 1.0850049187e+000	-1.5529832358e+000
 1.1998965361e+000	 1.0983157224e+000	-1.6098189641e+000
 1.1876977810e+000	 1.1114959114e+000	-1.6582804997e+000
 1.1753519824e+000	 1.1245429907e+000	-1.6995110436e+000
 1.1628613321e+000	 1.1374545121e+000	-1.7347261478e+000
 1.1502280758e+000	 1.1502280758e+000	-1.7651978862e+000
 1.1374545121e+000	 1.1628613321e+000	-1.7922385239e+000
 1.1245429907e+000	 1.1753519824e+000	-1.8171838089e+000
 1.1114959114e+000	 1.1876977810e+000	-1.8413760172e+000
 1.0983157224e+000	 1.1998965361e+000	-1.8661468819e+000
 1.0850049187e+000	 1.2119461115e+000	-1.8928005397e+000
 1.2169133480e+000	 1.0894518789e+000	-1.5612947945e+000
 1.2048143867e+000	 1.1028172377e+000	-1.6176697956e+000
 1.1925656342e+000	 1.1160514466e+000	-1.6657037863e+000
 1.1801692357e+000	 1.1291520001e+000	-1.7065280999e+000
 1.1676273916e+000	 1.1421164402e+000	-1.7413479956e+000
 1.1549423572e+000	 1.1549423572e+000	-1.7714264589e+000
 1.1421164402e+000	 1.1676273916e+000	-1.7980674841e+000
 1.1291520001e+000	 1.1801692357e+000	-1.8225989701e+000
 1.1160514466e+000	 1.1925656342e+000	-1.8463553602e+000
 1.1028172377e+000	 1.2048143867e+000	-1.8706601618e+000
 1.0894518789e+000	 1.2169133480e+000	-1.8968084818e+000
 1.2218805845e+000	 1.0938988391e+000	-1.5693966175e+000
 1.2097322373e+000	 1.1073187531e+000	-1.6252726638e+000
 1.1974334875e+000	 1.1206069817e+000	-1.6728323988e+000
 1.1849864889e+000	 1.1337610095e+000	-1.7131981594e+000
 1.1723934512e+000	 1.1467783683e+000	-1.7475677835e+000
 1.1596566385e+000	 1.1596566385e+000	-1.7771980252e+000
 1.1467783683e+000	 1.1723934512e+000	-1.8033874387e+000
 1.1337610095e+000	 1.1849864889e+000	-1.8274588633e+000
 1.1206069817e+000	 1.1974334875e+000	-1.8507416443e+000
 1.1073187531e+000	 1.2097322373e+000	-1.8745537296e+000
 1.0938988391e+000	 1.2218805845e+000	-1.9001837798e+000
 1.2268478211e+000	 1.0983457992e+000	-1.5772508719e+000
 1.2146500879e+000	 1.1118202684e+000	-1.6325911445e+000
 1.2023013407e+000	 1.1251625169e+000	-1.6796307347e+000
 1.1898037421e+000	 1.1383700189e+000	-1.7194858484e+000
 1.1771595107e+000	 1.1514402963e+000	-1.7533497683e+000
 1.1643709198e+000	 1.1643709198e+000	-1.7824758721e+000
 1.1514402963e+000	 1.1771595107e+000	-1.8081601026e+000
 1.1383700189e+000	 1.1898037421e+000	-1.8317230290e+000
 1.1251625169e+000	 1.2023013407e+000	-1.8544916347e+000
 1.1118202684e+000	 1.2146500879e+000	-1.8777809760e+000
 1.0983457992e+000	 1.2268478211e+000	-1.9028758539e+000
 1.2318150576e+000	 1.1027927594e+000	-1.5848201190e+000
 1.2195679385e+000	 1.1163217837e+000	-1.6395891191e+000
 1.2071691940e+000	 1.1297180520e+000	-1.6860634116e+000
 1.1946209953e+000	 1.1429790283e+000	-1.7253559304e+000
 1.1819255702e+000	 1.1561022244e+000	-1.7586582663e+000
 1.1690852012e+000	 1.1690852012e+000	-1.7872232724e+000
 1.1561022244e+000	 1.1819255702e+000	-1.8123471092e+000
 1.1429790283e+000	 1.1946209953e+000	-1.8353508656e+000
 1.1297180520e+000	 1.2071691940e+000	-1.8575619005e+000
 1.1163217837e+000	 1.2195679385e+000	-1.8802950499e+000
 1.1027927594e+000	 1.2318150576e+000	-1.9048338454e+000
 1.2367822942e+000	 1.1072397196e+000	-1.5920673569e+000
 1.2244857891e+000	 1.1208232990e+000	-1.6462308178e+000
 1.2120370472e+000	 1.1342735872e+000	-1.6920953096e+000
 1.1994382486e+000	 1.1475880378e+000	-1.7307733490e+000
 1.1866916297e+000	 1.1607641525e+000	-1.7634576945e+000
 1.1737994825e+000	 1.1737994825e+000	-1.7914035264e+000
 1.1607641525e+000	 1.1866916297e+000	-1.8159100504e+000
 1.1475880378e+000	 1.1994382486e+000	-1.8383016670e+000
 1.1342735872e+000	 1.2120370472e+000	-1.8599088514e+000
 1.1208232990e+000	 1.2244857891e+000	-1.8820488938e+000
 1.1072397196e+000	 1.2367822942e+000	-1.9060066508e+000
 1.2417495307e+000	 1.1116866797e+000	-1.5989560640e+000
 1.2294036397e+000	 1.1253248144e+000	-1.6524808623e+000
 1.2169049005e+000	 1.1388291223e+000	-1.6976916141e+000
 1.2042555018e+000	 1.1521970472e+000	-1.7357032699e+000
 1.1914576892e+000	 1.1654260806e+000	-1.7677126131e+000
 1.1785137638e+000	 1.1785137638e+000	-1.7949800016e+000
 1.1654260806e+000	 1.1914576892e+000	-1.8188105161e+000
 1.1521970472e+000	 1.2042555018e+000	-1.8405346623e+000
 1.1388291223e+000	 1.2169049005e+000	-1.8614887753e+000
 1.1253248144e+000	 1.2294036397e+000	-1.8829952789e+000
 1.1116866797e+000	 1.2417495307e+000	-1.9063429544e+000
 1.0672170781e+000	 1.1920771653e+000	-1.8714423039e+000
 1.0539965282e+000	 1.2037821618e+000	-1.8972538872e+000
 1.0406525098e+000	 1.2153363455e+000	-1.9153209595e+000
 1.0271876080e+000	 1.2267377857e+000	-1.9270313582e+000
 1.0136044476e+000	 1.2379846111e+000	-1.9336708040e+000
 9.9990569180e-001	 1.2490750102e+000	-1.9364147147e+000
 9.8609403966e-001	 1.2600072328e+000	-1.9362929726e+000
 9.7217222507e-001	 1.2707795903e+000	-1.9342096893e+000
 9.5814301461e-001	 1.2813904573e+000	-1.9309112142e+000
 9.4400920589e-001	 1.2918382714e+000	-1.9269808796e+000
 9.2977362572e-001	 1.3021215348e+000	-1.9228298755e+000
 1.0716640383e+000	 1.1970444019e+000	-1.8774817662e+000
 1.0583884000e+000	 1.2087981716e+000	-1.9026042457e+000
 1.0449887787e+000	 1.2204005001e+000	-1.9197615402e+000
 1.0314677703e+000	 1.2318494487e+000	-1.9304287092e+000
 1.0178280107e+000	 1.2431431382e+000	-1.9359775932e+000
 1.0040721738e+000	 1.2542797497e+000	-1.9376678588e+000
 9.9020297027e-001	 1.2652575254e+000	-1.9366122004e+000
 9.7622314521e-001	 1.2760747700e+000	-1.9337942238e+000
 9.6213547678e-001	 1.2867298511e+000	-1.9300368913e+000
 9.4794277425e-001	 1.2972212000e+000	-1.9259965987e+000
 9.3364787619e-001	 1.3075473125e+000	-1.9221536327e+000
 1.0761109984e+000	 1.2020116384e+000	-1.8830874490e+000
 1.0627802718e+000	 1.2138141814e+000	-1.9075476282e+000
 1.0493250477e+000	 1.2254646548e+000	-1.9238532737e+000
 1.0357479327e+000	 1.2369611118e+000	-1.9335678940e+000
 1.0220515737e+000	 1.2483016653e+000	-1.9381506264e+000
 1.0082386559e+000	 1.2594844891e+000	-1.9389465061e+000
 9.9431190087e-001	 1.2705078180e+000	-1.9371520737e+000
 9.8027406535e-001	 1.2813699498e+000	-1.9338313933e+000
 9.6612793895e-001	 1.2920692450e+000	-1.9298849052e+000
 9.5187634261e-001	 1.3026041286e+000	-1.9260428313e+000
 9.3752212667e-001	 1.3129730902e+000	-1.9228552035e+000
 1.0805579586e+000	 1.2069788749e+000	-1.8882102213e+000
 1.0671721436e+000	 1.2188301912e+000	-1.9120307621e+000
 1.0536613166e+000	 1.2305288094e+000	-1.9275387939e+000
 1.0400280951e+000	 1.2420727748e+000	-1.9363875157e+000
 1.0262751367e+000	 1.2534601925e+000	-1.9401245520e+000
 1.0124051379e+000	 1.2646892285e+000	-1.9401764336e+000
 9.9842083147e-001	 1.2757581107e+000	-1.9378396135e+000
 9.8432498549e-001	 1.2866651295e+000	-1.9342445683e+000
 9.7012040113e-001	 1.2974086389e+000	-1.9303750999e+000
 9.5580991097e-001	 1.3079870572e+000	-1.9270360262e+000
 9.4139637714e-001	 1.3183988678e+000	-1.9248477813e+000
 1.0850049187e+000	 1.2119461115e+000	-1.8928005397e+000
 1.0715640154e+000	 1.2238462010e+000	-1.9159999386e+000
 1.0579975855e+000	 1.2355929640e+000	-1.9307602754e+000
 1.0443082574e+000	 1.2471844378e+000	-1.9388256956e+000
 1.0304986998e+000	 1.2586187196e+000	-1.9418335163e+000
 1.0165716199e+000	 1.2698939679e+000	-1.9412981448e+000
 1.0025297621e+000	 1.2810084033e+000	-1.9386013027e+000
 9.8837590563e-001	 1.2919603092e+000	-1.9349565688e+000
 9.7411286330e-001	 1.3027480327e+000	-1.9314267583e+000
 9.5974347933e-001	 1.3133699858e+000	-1.9288920660e+000
 9.4527062762e-001	 1.3238246455e+000	-1.9280439923e+000
 1.0894518789e+000	 1.2169133480e+000	-1.8968084818e+000
 1.0759558872e+000	 1.2288622108e+000	-1.9194010441e+000
 1.0623338544e+000	 1.2406571187e+000	-1.9334594625e+000
 1.0485884198e+000	 1.2522961008e+000	-1.9408201006e+000
 1.0347222628e+000	 1.2637772467e+000	-1.9432111876e+000
 1.0207381019e+000	 1.2750987074e+000	-1.9422361640e+000
 1.0066386927e+000	 1.2862586960e+000	-1.9393631067e+000
 9.9242682577e-001	 1.2972554889e+000	-1.9358896807e+000
 9.7810532547e-001	 1.3080874266e+000	-1.9329586180e+000
 9.6367704769e-001	 1.3187529144e+000	-1.9315262800e+000
 9.4914487810e-001	 1.3292504232e+000	-1.9323559064e+000
 1.0938988391e+000	 1.2218805845e+000	-1.9001837798e+000
 1.0803477590e+000	 1.2338782206e+000	-1.9221795918e+000
 1.0666701234e+000	 1.2457212733e+000	-1.9355776987e+000
 1.0528685822e+000	 1.2574077638e+000	-1.9423079692e+000
 1.0389458258e+000	 1.2689357738e+000	-1.9441907804e+000
 1.0249045840e+000	 1.2803034468e+000	-1.9429197772e+000
 1.0107476233e+000	 1.2915089886e+000	-1.9400454907e+000
 9.9647774591e-001	 1.3025506686e+000	-1.9369656740e+000
 9.8209778765e-001	 1.3134268204e+000	-1.9348888857e+000
 9.6761061605e-001	 1.3241358430e+000	-1.9348534563e+000
 9.5301912857e-001	 1.3346762008e+000	-1.9376013863e+000
 1.0983457992e+000	 1.2268478211e+000	-1.9028758539e+000
 1.0847396307e+000	 1.2388942304e+000	-1.9242807527e+000
 1.0710063923e+000	 1.2507854279e+000	-1.9370559554e+000
 1.0571487445e+000	 1.2625194268e+000	-1.9432261392e+000
 1.0431693889e+000	 1.2740943010e+000	-1.9447050809e+000
 1.0290710660e+000	 1.2855081862e+000	-1.9432778159e+000
 1.0148565539e+000	 1.2967592812e+000	-1.9405836774e+000
 1.0005286660e+000	 1.3078458483e+000	-1.9381058200e+000
 9.8609024982e-001	 1.3187662143e+000	-1.9371352529e+000
 9.7154418441e-001	 1.3295187716e+000	-1.9387878547e+000
 9.5689337905e-001	 1.3401019785e+000	-1.9416859997e+000
 1.1027927594e+000	 1.2318150576e+000	-1.9048338454e+000
 1.0891315025e+000	 1.2439102402e+000	-1.9256493871e+000
 1.0753426612e+000	 1.2558495826e+000	-1.9378348611e+000
 1.0614289069e+000	 1.2676310898e+000	-1.9435110743e+000
 1.0473929519e+000	 1.2792528281e+000	-1.9446864707e+000
 1.0332375480e+000	 1.2907129257e+000	-1.9432386793e+000
 1.0189654845e+000	 1.3020095739e+000	-1.9408969597e+000
 1.0045795862e+000	 1.3131410280e+000	-1.9392309093e+000
 9.9008271199e-001	 1.3241056082e+000	-1.9396149108e+000
 9.7547775277e-001	 1.3349017002e+000	-1.9431187791e+000
 9.6076762952e-001	 1.3455277562e+000	-1.9437162036e+000
 1.1072397196e+000	 1.2367822942e+000	-1.9060066508e+000
 1.0935233743e+000	 1.2489262500e+000	-1.9262300759e+000
 1.0796789302e+000	 1.2609137372e+000	-1.9378547308e+000
 1.0657090692e+000	 1.2727427528e+000	-1.9430988910e+000
 1.0516165149e+000	 1.2844113552e+000	-1.9440669525e+000
 1.0374040301e+000	 1.2959176651e+000	-1.9427303570e+000
 1.0230744151e+000	 1.3072598665e+000	-1.9409094309e+000
 1.0086305063e+000	 1.3184362077e+000	-1.9402612697e+000
 9.9407517417e-001	 1.3294450020e+000	-1.9422445666e+000
 9.7941132112e-001	 1.3402846288e+000	-1.9457705905e+000
 9.6464188000e-001	 1.3509535338e+000	-1.9436125067e+000
 1.1116866797e+000	 1.2417495307e+000	-1.9063429544e+000
 1.0979152461e+000	 1.2539422598e+000	-1.9259671516e+000
 1.0840151991e+000	 1.2659778918e+000	-1.9370555952e+000
 1.0699892316e+000	 1.2778544158e+000	-1.9419253857e+000
 1.0558400780e+000	 1.2895698824e+000	-1.9427781744e+000
 1.0415705121e+000	 1.3011224045e+000	-1.9416804512e+000
 1.0271833457e+000	 1.3125101591e+000	-1.9405447666e+000
 1.0126814265e+000	 1.3237313874e+000	-1.9411120244e+000
 9.9806763634e-001	 1.3347843959e+000	-1.9448362212e+000
 9.8334488948e-001	 1.3456675574e+000	-1.9459775435e+000
 9.6851613048e-001	 1.3563793115e+000	-1.9412980271e+000
 9.2977362572e-001	 1.3021215348e+000	-1.9228298755e+000
 9.1543912792e-001	 1.3122388141e+000	-1.9170187812e+000
 9.0100859063e-001	 1.3221887397e+000	-1.9089843575e+000
 8.8648491536e-001	 1.3319700078e+000	-1.9001946307e+000
 8.7187102550e-001	 1.3415813808e+000	-1.8884711315e+000
 8.5716986437e-001	 1.3510216880e+000	-1.8694574185e+000
 8.4238439338e-001	 1.3602898258e+000	-1.8446340224e+000
 8.2751759014e-001	 1.3693847580e+000	-1.8155510732e+000
 8.1257244658e-001	 1.3783055161e+000	-1.7837383616e+000
 7.9755196704e-001	 1.3870511992e+000	-1.7507048581e+000
 7.8245916641e-001	 1.3956209742e+000	-1.7179382112e+000
 9.3364787619e-001	 1.3075473125e+000	-1.9221536327e+000
 9.1925364833e-001	 1.3177067492e+000	-1.9172671806e+000
 9.0476298080e-001	 1.3276981349e+000	-1.9108896835e+000
 8.9017878719e-001	 1.3375201603e+000	-1.9035231426e+000
 8.7550400308e-001	 1.3471715827e+000	-1.8893203589e+000
 8.6074158404e-001	 1.3566512265e+000	-1.8682457338e+000
 8.4589450385e-001	 1.3659579835e+000	-1.8418254948e+000
 8.3096575250e-001	 1.3750908132e+000	-1.8115649371e+000
 8.1595833439e-001	 1.3840487429e+000	-1.7789480598e+000
 8.0087526639e-001	 1.3928308681e+000	-1.7454371875e+000
 7.8571957594e-001	 1.4014363523e+000	-1.7124725666e+000
 9.3752212667e-001	 1.3129730902e+000	-1.9228552035e+000
 9.2306816875e-001	 1.3231746843e+000	-1.9192724748e+000
 9.0851737097e-001	 1.3332075301e+000	-1.9149484601e+000
 8.9387265903e-001	 1.3430703128e+000	-1.9063635512e+000
 8.7913698066e-001	 1.3527617846e+000	-1.8899027911e+000
 8.6431330372e-001	 1.3622807650e+000	-1.8670605865e+000
 8.4940461431e-001	 1.3716261411e+000	-1.8393101496e+000
 8.3441391486e-001	 1.3807968683e+000	-1.8081028330e+000
 8.1934422221e-001	 1.3897919697e+000	-1.7748678880e+000
 8.0419856575e-001	 1.3986105371e+000	-1.7410122052e+000
 7.8897998548e-001	 1.4072517305e+000	-1.7079200240e+000
 9.4139637714e-001	 1.3183988678e+000	-1.9248477813e+000
 9.2688268916e-001	 1.3286426194e+000	-1.9229449050e+000
 9.1227176114e-001	 1.3387169253e+000	-1.9195843704e+000
 8.9756653086e-001	 1.3486204653e+000	-1.9085128945e+000
 8.8276995824e-001	 1.3583519865e+000	-1.8900998818e+000
 8.6788502340e-001	 1.3679103035e+000	-1.8657789673e+000
 8.5291472478e-001	 1.3772942988e+000	-1.8369612231e+000
 8.3786207722e-001	 1.3865029234e+000	-1.8050350671e+000
 8.2273011002e-001	 1.3955351965e+000	-1.7713661618e+000
 8.0752186510e-001	 1.4043902060e+000	-1.7372972892e+000
 7.9224039502e-001	 1.4130671086e+000	-1.7041481900e+000
 9.4527062762e-001	 1.3238246455e+000	-1.9280439923e+000
 9.3069720958e-001	 1.3341105545e+000	-1.9281612151e+000
 9.1602615131e-001	 1.3442263205e+000	-1.9231112882e+000
 9.0126040269e-001	 1.3541706179e+000	-1.9098606611e+000
 8.8640293582e-001	 1.3639421884e+000	-1.8897960961e+000
 8.7145674308e-001	 1.3735398420e+000	-1.8642808994e+000
 8.5642483525e-001	 1.3829624565e+000	-1.8346549920e+000
 8.4131023957e-001	 1.3922089785e+000	-1.8022349796e+000
 8.2611599784e-001	 1.4012784233e+000	-1.7683142072e+000
 8.1084516445e-001	 1.4101698750e+000	-1.7341627856e+000
 7.9550080456e-001	 1.4188824868e+000	-1.7010275767e+000
 9.4914487810e-001	 1.3292504232e+000	-1.9323559064e+000
 9.3451172999e-001	 1.3395784896e+000	-1.9329526985e+000
 9.1978054148e-001	 1.3497357157e+000	-1.9254266587e+000
 9.0495427452e-001	 1.3597207704e+000	-1.9102992790e+000
 8.9003591339e-001	 1.3695323903e+000	-1.8888788704e+000
 8.7502846276e-001	 1.3791693804e+000	-1.8624493982e+000
 8.5993494572e-001	 1.3886306141e+000	-1.8322707342e+000
 8.4475840193e-001	 1.3979150336e+000	-1.7995789054e+000
 8.2950188565e-001	 1.4070216501e+000	-1.7655863222e+000
 8.1416846381e-001	 1.4159495440e+000	-1.7314819717e+000
 7.9876121410e-001	 1.4246978649e+000	-1.6984315657e+000
 9.5301912857e-001	 1.3346762008e+000	-1.9376013863e+000
 9.3832625041e-001	 1.3450464247e+000	-1.9361391373e+000
 9.2353493165e-001	 1.3552451109e+000	-1.9264312184e+000
 9.0864814635e-001	 1.3652709229e+000	-1.9097240758e+000
 8.9366889097e-001	 1.3751225923e+000	-1.8872385724e+000
 8.7860018244e-001	 1.3847989189e+000	-1.8601704313e+000
 8.6344505619e-001	 1.3942987718e+000	-1.8296906881e+000
 8.4820656429e-001	 1.4036210887e+000	-1.7969461348e+000
 8.3288777346e-001	 1.4127648769e+000	-1.7630597385e+000
 8.1749176316e-001	 1.4217292129e+000	-1.7291310191e+000
 8.0202162364e-001	 1.4305132431e+000	-1.6962363740e+000
 9.5689337905e-001	 1.3401019785e+000	-1.9416859997e+000
 9.4214077083e-001	 1.3505143598e+000	-1.9376297881e+000
 9.2728932182e-001	 1.3607545061e+000	-1.9260285238e+000
 9.1234201818e-001	 1.3708210754e+000	-1.9080332387e+000
 8.9730186855e-001	 1.3807127942e+000	-1.8847684607e+000
 8.8217190211e-001	 1.3904284574e+000	-1.8573328790e+000
 8.6695516666e-001	 1.3999669295e+000	-1.8268000142e+000
 8.5165472665e-001	 1.4093271438e+000	-1.7942188751e+000
 8.3627366128e-001	 1.4185081037e+000	-1.7606145845e+000
 8.2081506251e-001	 1.4275088819e+000	-1.7269889573e+000
 8.0528203318e-001	 1.4363286212e+000	-1.6943210182e+000
 9.6076762952e-001	 1.3455277562e+000	-1.9437162036e+000
 9.4595529124e-001	 1.3559822949e+000	-1.9373366425e+000
 9.3104371199e-001	 1.3662639013e+000	-1.9241249124e+000
 9.1603589001e-001	 1.3763712280e+000	-1.9051277756e+000
 9.0093484613e-001	 1.3863029961e+000	-1.8813646461e+000
 8.8574362179e-001	 1.3960579959e+000	-1.8538284948e+000
 8.7046527713e-001	 1.4056350871e+000	-1.8234867557e+000
 8.5510288901e-001	 1.4150331989e+000	-1.7912822122e+000
 8.3965954909e-001	 1.4242513305e+000	-1.7581338473e+000
 8.2413836187e-001	 1.4332885509e+000	-1.7249376378e+000
 8.0854244272e-001	 1.4421439994e+000	-1.6925672811e+000
 9.6464188000e-001	 1.3509535338e+000	-1.9436125067e+000
 9.4976981166e-001	 1.3614502301e+000	-1.9351743889e+000
 9.3479810216e-001	 1.3717732965e+000	-1.9206294640e+000
 9.1972976184e-001	 1.3819213805e+000	-1.9009114759e+000
 9.0456782371e-001	 1.3918931980e+000	-1.8769260521e+000
 8.8931534147e-001	 1.4016875344e+000	-1.8495518668e+000
 8.7397538760e-001	 1.4113032448e+000	-1.8196418002e+000
 8.5855105137e-001	 1.4207392541e+000	-1.7880240731e+000
 8.4304543690e-001	 1.4299945573e+000	-1.7555033362e+000
 8.2746166122e-001	 1.4390682198e+000	-1.7228616984e+000
 8.1180285226e-001	 1.4479593775e+000	-1.6908596771e+000
 9.6851613048e-001	 1.3563793115e+000	-1.9412980271e+000
 9.5358433207e-001	 1.3669181652e+000	-1.9310603740e+000
 9.3855249233e-001	 1.3772826917e+000	-1.9154539616e+000
 9.2342363367e-001	 1.3874715330e+000	-1.8952908715e+000
 9.0820080129e-001	 1.3974833999e+000	-1.8713543763e+000
 8.9288706115e-001	 1.4073170729e+000	-1.8444003787e+000
 8.7748549806e-001	 1.4169714025e+000	-1.8151588418e+000
 8.6199921372e-001	 1.4264453092e+000	-1.7843351881e+000
 8.4643132472e-001	 1.4357377841e+000	-1.7526116461e+000
 8.3078496057e-001	 1.4448478888e+000	-1.7206485280e+000
 8.1506326180e-001	 1.4537747557e+000	-1.6890854186e+000
 7.8245916641e-001	 1.3956209742e+000	-1.7179382112e+000
 7.6729934761e-001	 1.4040128306e+000	-1.6904013668e+000
 7.5207328189e-001	 1.4122273710e+000	-1.6702014723e+000
 7.3678400397e-001	 1.4202639671e+000	-1.6545273831e+000
 7.2143455165e-001	 1.4281220583e+000	-1.6405553962e+000
 7.0602796396e-001	 1.4358011511e+000	-1.6254555075e+000
 6.9056727934e-001	 1.4433008194e+000	-1.6063975014e+000
 6.7505553390e-001	 1.4506207034e+000	-1.5805568624e+000
 6.5949575956e-001	 1.4577605098e+000	-1.5464529786e+000
 6.4389098239e-001	 1.4647200112e+000	-1.5106542103e+000
 6.2824422082e-001	 1.4714990455e+000	-1.4723936287e+000
 7.8571957594e-001	 1.4014363523e+000	-1.7124725666e+000
 7.7049658808e-001	 1.4098631766e+000	-1.6848793856e+000
 7.5520707725e-001	 1.4181119459e+000	-1.6646779660e+000
 7.3985409082e-001	 1.4261820295e+000	-1.6490861789e+000
 7.2444067925e-001	 1.4340728644e+000	-1.6353099705e+000
 7.0896989423e-001	 1.4417839551e+000	-1.6205495778e+000
 6.9344478688e-001	 1.4493148735e+000	-1.6020055696e+000
 6.7786840593e-001	 1.4566652585e+000	-1.5768847037e+000
 6.6224379596e-001	 1.4638348157e+000	-1.5429071742e+000
 6.4657399563e-001	 1.4708233164e+000	-1.5060531919e+000
 6.3086203596e-001	 1.4776305981e+000	-1.4669646171e+000
 7.8897998548e-001	 1.4072517305e+000	-1.7079200240e+000
 7.7369382855e-001	 1.4157135225e+000	-1.6802806628e+000
 7.5834087261e-001	 1.4239965208e+000	-1.6600423391e+000
 7.4292417767e-001	 1.4321000919e+000	-1.6444626688e+000
 7.2744680685e-001	 1.4400236705e+000	-1.6307878986e+000
 7.1191182450e-001	 1.4477667590e+000	-1.6162590615e+000
 6.9632229441e-001	 1.4553289276e+000	-1.5981179532e+000
 6.8068127796e-001	 1.4627098137e+000	-1.5736129172e+000
 6.6499183235e-001	 1.4699091215e+000	-1.5400767771e+000
 6.4925700887e-001	 1.4769266216e+000	-1.5021492784e+000
 6.3347985110e-001	 1.4837621507e+000	-1.4622363105e+000
 7.9224039502e-001	 1.4130671086e+000	-1.7041481900e+000
 7.7689106902e-001	 1.4215638685e+000	-1.6764736217e+000
 7.6147466796e-001	 1.4298810957e+000	-1.6561636851e+000
 7.4599426451e-001	 1.4380181543e+000	-1.6405263497e+000
 7.3045293445e-001	 1.4459744766e+000	-1.6268586941e+000
 7.1485375478e-001	 1.4537495629e+000	-1.6124529849e+000
 6.9919980195e-001	 1.4613429817e+000	-1.5946025706e+000
 6.8349414999e-001	 1.4687543688e+000	-1.5706075792e+000
 6.6773986875e-001	 1.4759834273e+000	-1.5377804117e+000
 6.5194002211e-001	 1.4830299268e+000	-1.4987891476e+000
 6.3609766624e-001	 1.4898937033e+000	-1.4580557803e+000
 7.9550080456e-001	 1.4188824868e+000	-1.7010275767e+000
 7.8008830949e-001	 1.4274142145e+000	-1.6733295167e+000
 7.6460846332e-001	 1.4357656707e+000	-1.6529138558e+000
 7.4906435136e-001	 1.4439362167e+000	-1.6371494064e+000
 7.3345906204e-001	 1.4519252827e+000	-1.6233944930e+000
 7.1779568505e-001	 1.4597323668e+000	-1.6090029374e+000
 7.0207730948e-001	 1.4673570358e+000	-1.5913298532e+000
 6.8630702202e-001	 1.4747989240e+000	-1.5677372393e+000
 6.7048790514e-001	 1.4820577331e+000	-1.5355993634e+000
 6.5462303535e-001	 1.4891332320e+000	-1.4958207047e+000
 6.3871548138e-001	 1.4960252558e+000	-1.4542712421e+000
 7.9876121410e-001	 1.4246978649e+000	-1.6984315657e+000
 7.8328554996e-001	 1.4332645604e+000	-1.6707224002e+000
 7.6774225868e-001	 1.4416502456e+000	-1.6501674293e+000
 7.5213443821e-001	 1.4498542792e+000	-1.6342066812e+000
 7.3646518964e-001	 1.4578760888e+000	-1.6202700248e+000
 7.2073761533e-001	 1.4657151707e+000	-1.6057830447e+000
 7.0495481702e-001	 1.4733710899e+000	-1.5881727199e+000
 6.8911989405e-001	 1.4808434791e+000	-1.5648728959e+000
 6.7323594154e-001	 1.4881320389e+000	-1.5333295432e+000
 6.5730604859e-001	 1.4952365372e+000	-1.4930931181e+000
 6.4133329652e-001	 1.5021568084e+000	-1.4507320880e+000
 8.0202162364e-001	 1.4305132431e+000	-1.6962363740e+000
 7.8648279043e-001	 1.4391149064e+000	-1.6685290890e+000
 7.7087605404e-001	 1.4475348205e+000	-1.6478016789e+000
 7.5520452506e-001	 1.4557723416e+000	-1.6315756447e+000
 7.3947131724e-001	 1.4638268949e+000	-1.6173625848e+000
 7.2367954560e-001	 1.4716979747e+000	-1.6026699422e+000
 7.0783232455e-001	 1.4793851440e+000	-1.5850065512e+000
 6.9193276608e-001	 1.4868880343e+000	-1.5618879715e+000
 6.7598397793e-001	 1.4942063448e+000	-1.5308416059e+000
 6.5998906182e-001	 1.5013398424e+000	-1.4904568543e+000
 6.4395111166e-001	 1.5082883610e+000	-1.4472889185e+000
 8.0528203318e-001	 1.4363286212e+000	-1.6943210182e+000
 7.8968003090e-001	 1.4449652523e+000	-1.6666291317e+000
 7.7400984939e-001	 1.4534193955e+000	-1.6456965416e+000
 7.5827461191e-001	 1.4616904040e+000	-1.6291363661e+000
 7.4247744484e-001	 1.4697777010e+000	-1.6145520061e+000
 7.2662147587e-001	 1.4776807786e+000	-1.5995427486e+000
 7.1070983208e-001	 1.4853991981e+000	-1.5817091643e+000
 6.9474563811e-001	 1.4929325894e+000	-1.5586582886e+000
 6.7873201433e-001	 1.5002806506e+000	-1.5280085808e+000
 6.6267207506e-001	 1.5074431476e+000	-1.4877637137e+000
 6.4656892680e-001	 1.5144199136e+000	-1.4437935746e+000
 8.0854244272e-001	 1.4421439994e+000	-1.6925672811e+000
 7.9287727137e-001	 1.4508155983e+000	-1.6649047760e+000
 7.7714364475e-001	 1.4593039704e+000	-1.6437345879e+000
 7.6134469875e-001	 1.4676084664e+000	-1.6267714844e+000
 7.4548357244e-001	 1.4757285071e+000	-1.6117206322e+000
 7.2956340615e-001	 1.4836635825e+000	-1.5962830395e+000
 7.1358733962e-001	 1.4914132522e+000	-1.5781607881e+000
 6.9755851014e-001	 1.4989771445e+000	-1.5550620452e+000
 6.8148005072e-001	 1.5063549564e+000	-1.5247058488e+000
 6.6535508830e-001	 1.5135464528e+000	-1.4848668667e+000
 6.4918674194e-001	 1.5205514662e+000	-1.4400991704e+000
 8.1180285226e-001	 1.4479593775e+000	-1.6908596771e+000
 7.9607451184e-001	 1.4566659443e+000	-1.6632409367e+000
 7.8027744011e-001	 1.4651885453e+000	-1.6418009908e+000
 7.6441478560e-001	 1.4735265288e+000	-1.6243661794e+000
 7.4848970004e-001	 1.4816793132e+000	-1.6087532897e+000
 7.3250533642e-001	 1.4896463864e+000	-1.5927748217e+000
 7.1646484715e-001	 1.4974273063e+000	-1.5742440383e+000
 7.0037138216e-001	 1.5050216997e+000	-1.5509797916e+000
 6.8422808712e-001	 1.5124292622e+000	-1.5208111188e+000
 6.6803810154e-001	 1.5196497580e+000	-1.4815816052e+000
 6.5180455708e-001	 1.5266830188e+000	-1.4360601262e+000
 8.1506326180e-001	 1.4537747557e+000	-1.6890854186e+000
 7.9927175231e-001	 1.4625162902e+000	-1.6615251635e+000
 7.8341123546e-001	 1.4710731202e+000	-1.6397834959e+000
 7.6748487245e-001	 1.4794445913e+000	-1.6218081431e+000
 7.5149582763e-001	 1.4876301193e+000	-1.6055372614e+000
 7.3544726669e-001	 1.4956291903e+000	-1.5889045078e+000
 7.1934235468e-001	 1.5034413604e+000	-1.5698438932e+000
 7.0318425419e-001	 1.5110662548e+000	-1.5462944063e+000
 6.8697612351e-001	 1.5185035681e+000	-1.5162044051e+000
 6.7072111478e-001	 1.5257530632e+000	-1.4775357711e+000
 6.5442237221e-001	 1.5328145713e+000	-1.4315322014e+000
 6.2824422082e-001	 1.4714990455e+000	-1.4723936287e+000
 6.1255612826e-001	 1.4780984920e+000	-1.4353543981e+000
 5.9683204901e-001	 1.4845172880e+000	-1.4038262209e+000
 5.8107497069e-001	 1.4907554653e+000	-1.3764526957e+000
 5.6528786665e-001	 1.4968131186e+000	-1.3520560030e+000
 5.4947369440e-001	 1.5026904046e+000	-1.3296226996e+000
 5.3363539409e-001	 1.5083875417e+000	-1.3082900088e+000
 5.1777588698e-001	 1.5139048087e+000	-1.2873326498e+000
 5.0189807397e-001	 1.5192425439e+000	-1.2661502413e+000
 4.8600483420e-001	 1.5244011448e+000	-1.2442553028e+000
 4.7009902366e-001	 1.5293810664e+000	-1.2212618732e+000
 6.3086203596e-001	 1.4776305981e+000	-1.4669646171e+000
 6.1510857308e-001	 1.4842575436e+000	-1.4293522190e+000
 5.9931897356e-001	 1.4907030859e+000	-1.3974725876e+000
 5.8349623746e-001	 1.4969672570e+000	-1.3699266720e+000
 5.6764335053e-001	 1.5030501517e+000	-1.3454945181e+000
 5.5176328261e-001	 1.5089519277e+000	-1.3231208929e+000
 5.3585898608e-001	 1.5146728041e+000	-1.3019014300e+000
 5.1993339438e-001	 1.5202130608e+000	-1.2810693405e+000
 5.0398942050e-001	 1.5255730377e+000	-1.2599827219e+000
 4.8802995560e-001	 1.5307531338e+000	-1.2381124904e+000
 4.7205786752e-001	 1.5357538061e+000	-1.2150309556e+000
 6.3347985110e-001	 1.4837621507e+000	-1.4622363105e+000
 6.1766101790e-001	 1.4904165953e+000	-1.4240727462e+000
 6.0180589810e-001	 1.4968888839e+000	-1.3918700979e+000
 5.8591750423e-001	 1.5031790486e+000	-1.3641838731e+000
 5.6999883441e-001	 1.5092871849e+000	-1.3397492568e+000
 5.5405287081e-001	 1.5152134508e+000	-1.3174665648e+000
 5.3808257806e-001	 1.5209580664e+000	-1.2963872460e+000
 5.2209090178e-001	 1.5265213129e+000	-1.2757004735e+000
 5.0608076704e-001	 1.5319035315e+000	-1.2547203615e+000
 4.9005507699e-001	 1.5371051228e+000	-1.2328738298e+000
 4.7401671139e-001	 1.5421265459e+000	-1.2096891359e+000
 6.3609766624e-001	 1.4898937033e+000	-1.4580557803e+000
 6.2021346272e-001	 1.4965756469e+000	-1.4193632925e+000
 6.0429282265e-001	 1.5030746819e+000	-1.3868671852e+000
 5.8833877100e-001	 1.5093908403e+000	-1.3590747843e+000
 5.7235431829e-001	 1.5155242180e+000	-1.3346737367e+000
 5.5634245901e-001	 1.5214749739e+000	-1.3125172923e+000
 5.4030617005e-001	 1.5272433287e+000	-1.2916101617e+000
 5.2424840918e-001	 1.5328295650e+000	-1.2710949900e+000
 5.0817211358e-001	 1.5382340253e+000	-1.2502394810e+000
 4.9208019838e-001	 1.5434571119e+000	-1.2284241968e+000
 4.7597555526e-001	 1.5484992856e+000	-1.2051310488e+000
 6.3871548138e-001	 1.4960252558e+000	-1.4542712421e+000
 6.2276590753e-001	 1.5027346986e+000	-1.4150722406e+000
 6.0677974719e-001	 1.5092604799e+000	-1.3823132691e+000
 5.9076003777e-001	 1.5156026320e+000	-1.3544507854e+000
 5.7470980217e-001	 1.5217612512e+000	-1.3301222699e+000
 5.5863204721e-001	 1.5277364969e+000	-1.3081313371e+000
 5.4252976203e-001	 1.5335285911e+000	-1.2874334485e+000
 5.2640591658e-001	 1.5391378171e+000	-1.2671222692e+000
 5.1026346012e-001	 1.5445645190e+000	-1.2464167014e+000
 4.9410531978e-001	 1.5498091009e+000	-1.2246486192e+000
 4.7793439913e-001	 1.5548720253e+000	-1.2012513219e+000
 6.4133329652e-001	 1.5021568084e+000	-1.4507320880e+000
 6.2531835235e-001	 1.5088937502e+000	-1.4110490705e+000
 6.0926667174e-001	 1.5154462778e+000	-1.3780587807e+000
 5.9318130454e-001	 1.5218144237e+000	-1.3501641730e+000
 5.7706528605e-001	 1.5279982844e+000	-1.3259499824e+000
 5.6092163541e-001	 1.5339980200e+000	-1.3041676637e+000
 5.4475335401e-001	 1.5398138534e+000	-1.2837209605e+000
 5.2856342398e-001	 1.5454460692e+000	-1.2636521444e+000
 5.1235480666e-001	 1.5508950128e+000	-1.2431289586e+000
 4.9613044117e-001	 1.5561610899e+000	-1.2214322911e+000
 4.7989324300e-001	 1.5612447650e+000	-1.1979445900e+000
 6.4395111166e-001	 1.5082883610e+000	-1.4472889185e+000
 6.2787079717e-001	 1.5150528019e+000	-1.4071443888e+000
 6.1175359629e-001	 1.5216320758e+000	-1.3739551879e+000
 5.9560257131e-001	 1.5280262153e+000	-1.3460681836e+000
 5.7942076993e-001	 1.5342353175e+000	-1.3220128349e+000
 5.6321122361e-001	 1.5402595431e+000	-1.3004859582e+000
 5.4697694600e-001	 1.5460991157e+000	-1.2803371516e+000
 5.3072093138e-001	 1.5517543213e+000	-1.2605549175e+000
 5.1444615319e-001	 1.5572255066e+000	-1.2402535181e+000
 4.9815556257e-001	 1.5625130789e+000	-1.2186605868e+000
 4.8185208687e-001	 1.5676175048e+000	-1.1951055097e+000
 6.4656892680e-001	 1.5144199136e+000	-1.4437935746e+000
 6.3042324199e-001	 1.5212118535e+000	-1.4032099574e+000
 6.1424052083e-001	 1.5278178738e+000	-1.3698550212e+000
 5.9802383808e-001	 1.5342380070e+000	-1.3420170164e+000
 5.8177625381e-001	 1.5404723507e+000	-1.3181676436e+000
 5.6550081182e-001	 1.5465210662e+000	-1.2969466467e+000
 5.4920053798e-001	 1.5523843781e+000	-1.2771470923e+000
 5.3287843878e-001	 1.5580625734e+000	-1.2577013759e+000
 5.1653749973e-001	 1.5635560003e+000	-1.2376679901e+000
 5.0018068396e-001	 1.5688650679e+000	-1.2162190763e+000
 4.8381093074e-001	 1.5739902445e+000	-1.1926287740e+000
 6.4918674194e-001	 1.5205514662e+000	-1.4400991704e+000
 6.3297568681e-001	 1.5273709052e+000	-1.3990987225e+000
 6.1672744538e-001	 1.5340036717e+000	-1.3656119002e+000
 6.0044510485e-001	 1.5404497987e+000	-1.3378658571e+000
 5.8413173769e-001	 1.5467093838e+000	-1.3142721012e+000
 5.6779040002e-001	 1.5527825892e+000	-1.2934109147e+000
 5.5142412996e-001	 1.5586696404e+000	-1.2740164874e+000
 5.3503594618e-001	 1.5643708254e+000	-1.2549628079e+000
 5.1862884627e-001	 1.5698864941e+000	-1.2352503446e+000
 5.0220580535e-001	 1.5752170569e+000	-1.2139935392e+000
 4.8576977461e-001	 1.5803629842e+000	-1.1904091270e+000
 6.5180455708e-001	 1.5266830188e+000	-1.4360601262e+000
 6.3552813162e-001	 1.5335299568e+000	-1.3946648444e+000
 6.1921436992e-001	 1.5401894697e+000	-1.3610805599e+000
 6.0286637162e-001	 1.5466615904e+000	-1.3334709013e+000
 5.8648722157e-001	 1.5529464170e+000	-1.3101847982e+000
 5.7007998822e-001	 1.5590441123e+000	-1.2897407260e+000
 5.5364772195e-001	 1.5649549028e+000	-1.2708116937e+000
 5.3719345357e-001	 1.5706790775e+000	-1.2522110198e+000
 5.2072019280e-001	 1.5762169879e+000	-1.2328789271e+000
 5.0423092675e-001	 1.5815690460e+000	-1.2118699807e+000
 4.8772861848e-001	 1.5867357239e+000	-1.1883413792e+000
 6.5442237221e-001	 1.5328145713e+000	-1.4315322014e+000
 6.3808057644e-001	 1.5396890085e+000	-1.3897637272e+000
 6.2170129446e-001	 1.5463752677e+000	-1.3561168774e+000
 6.0528763838e-001	 1.5528733820e+000	-1.3286893788e+000
 5.8884270545e-001	 1.5591834502e+000	-1.3057652447e+000
 5.7236957642e-001	 1.5653056354e+000	-1.2857988429e+000
 5.5587131393e-001	 1.5712401651e+000	-1.2673997379e+000
 5.3935096097e-001	 1.5769873296e+000	-1.2493183519e+000
 5.2281153934e-001	 1.5825474817e+000	-1.2304324746e+000
 5.0625604814e-001	 1.5879210350e+000	-1.2097346460e+000
 4.8968746235e-001	 1.5931084637e+000	-1.1863204221e+000
 4.7009902366e-001	 1.5293810664e+000	-1.2212618732e+000
 4.5418347357e-001	 1.5341828203e+000	-1.1982614135e+000
 4.3826098847e-001	 1.5388069724e+000	-1.1764553652e+000
 4.2233434566e-001	 1.5432541432e+000	-1.1557511279e+000
 4.0640629419e-001	 1.5475250065e+000	-1.1361275257e+000
 3.9047955369e-001	 1.5516202891e+000	-1.1176266355e+000
 3.7455681326e-001	 1.5555407692e+000	-1.1003461818e+000
 3.5864073036e-001	 1.5592872753e+000	-1.0844324779e+000
 3.4273392977e-001	 1.5628606849e+000	-1.0700738850e+000
 3.2683900259e-001	 1.5662619239e+000	-1.0574947594e+000
 3.1095850527e-001	 1.5694919644e+000	-1.0469498571e+000
 4.7205786752e-001	 1.5357538061e+000	-1.2150309556e+000
 4.5607599933e-001	 1.5405755683e+000	-1.1918477878e+000
 4.4008716723e-001	 1.5452189887e+000	-1.1698226893e+000
 4.2409416009e-001	 1.5496846903e+000	-1.1488818596e+000
 4.0809973841e-001	 1.5539733497e+000	-1.1290236171e+000
 3.9210663318e-001	 1.5580856969e+000	-1.1103101714e+000
 3.7611754468e-001	 1.5620225131e+000	-1.0928599835e+000
 3.6013514146e-001	 1.5657846304e+000	-1.0768406872e+000
 3.4416205922e-001	 1.5693729301e+000	-1.0624625466e+000
 3.2820089986e-001	 1.5727883415e+000	-1.0499724158e+000
 3.1225423050e-001	 1.5760318412e+000	-1.0396481675e+000
 4.7401671139e-001	 1.5421265459e+000	-1.2096891359e+000
 4.5796852509e-001	 1.5469683164e+000	-1.1862997739e+000
 4.4191334599e-001	 1.5516310051e+000	-1.1640318707e+000
 4.2585397451e-001	 1.5561152374e+000	-1.1428318365e+000
 4.0979318264e-001	 1.5604216930e+000	-1.1227187000e+000
 3.9373371267e-001	 1.5645511047e+000	-1.1037758294e+000
 3.7767827610e-001	 1.5685042571e+000	-1.0861432600e+000
 3.6162955255e-001	 1.5722819856e+000	-1.0700106021e+000
 3.4559018866e-001	 1.5758851752e+000	-1.0556105013e+000
 3.2956279713e-001	 1.5793147592e+000	-1.0432126159e+000
 3.1354995572e-001	 1.5825717180e+000	-1.0331180776e+000
 4.7597555526e-001	 1.5484992856e+000	-1.2051310488e+000
 4.5986105085e-001	 1.5533610644e+000	-1.1815218527e+000
 4.4373952474e-001	 1.5580430214e+000	-1.1589961774e+000
 4.2761378894e-001	 1.5625457845e+000	-1.1375220327e+000
 4.1148662687e-001	 1.5668700363e+000	-1.1171403517e+000
 3.9536079216e-001	 1.5710165125e+000	-1.0979566632e+000
 3.7923900752e-001	 1.5749860010e+000	-1.0801333907e+000
 3.6312396365e-001	 1.5787793408e+000	-1.0638827520e+000
 3.4701831811e-001	 1.5823974203e+000	-1.0494602270e+000
 3.3092469440e-001	 1.5858411768e+000	-1.0371585593e+000
 3.1484568094e-001	 1.5891115949e+000	-1.0273022550e+000
 4.7793439913e-001	 1.5548720253e+000	-1.2012513219e+000
 4.6175357661e-001	 1.5597538125e+000	-1.1774183469e+000
 4.4556570350e-001	 1.5644550377e+000	-1.1546285940e+000
 4.2937360337e-001	 1.5689763316e+000	-1.1328730405e+000
 4.1318007109e-001	 1.5733183795e+000	-1.1122156956e+000
 3.9698787165e-001	 1.5774819203e+000	-1.0927852271e+000
 3.8079973895e-001	 1.5814677450e+000	-1.0747672370e+000
 3.6461837474e-001	 1.5852766959e+000	-1.0583971564e+000
 3.4844644755e-001	 1.5889096654e+000	-1.0439537267e+000
 3.3228659167e-001	 1.5923675945e+000	-1.0317530317e+000
 3.1614140616e-001	 1.5956514717e+000	-1.0221430408e+000
 4.7989324300e-001	 1.5612447650e+000	-1.1979445900e+000
 4.6364610238e-001	 1.5661465605e+000	-1.1738934351e+000
 4.4739188226e-001	 1.5708670540e+000	-1.1508418359e+000
 4.3113341780e-001	 1.5754068787e+000	-1.1288050840e+000
 4.1487351532e-001	 1.5797667228e+000	-1.1078714139e+000
 3.9861495114e-001	 1.5839473281e+000	-1.0881935882e+000
 3.8236047037e-001	 1.5879494889e+000	-1.0699811532e+000
 3.6611278583e-001	 1.5917740511e+000	-1.0534933340e+000
 3.4987457700e-001	 1.5954219105e+000	-1.0390325352e+000
 3.3364848894e-001	 1.5988940121e+000	-1.0269384094e+000
 3.1743713139e-001	 1.6021913485e+000	-1.0175824515e+000
 4.8185208687e-001	 1.5676175048e+000	-1.1951055097e+000
 4.6553862814e-001	 1.5725393085e+000	-1.1708511665e+000
 4.4921806101e-001	 1.5772790703e+000	-1.1475483638e+000
 4.3289323222e-001	 1.5818374258e+000	-1.1252380329e+000
 4.1656695955e-001	 1.5862150660e+000	-1.1040337612e+000
 4.0024203063e-001	 1.5904127359e+000	-1.0841133384e+000
 3.8392120179e-001	 1.5944312329e+000	-1.0657109968e+000
 3.6760719693e-001	 1.5982714062e+000	-1.0491103114e+000
 3.5130270644e-001	 1.6019341556e+000	-1.0346377259e+000
 3.3501038621e-001	 1.6054204298e+000	-1.0226566637e+000
 3.1873285661e-001	 1.6087312253e+000	-1.0135621803e+000
 4.8381093074e-001	 1.5739902445e+000	-1.1926287740e+000
 4.6743115390e-001	 1.5789320566e+000	-1.1681954758e+000
 4.5104423977e-001	 1.5836910866e+000	-1.1446603979e+000
 4.3465304665e-001	 1.5882679729e+000	-1.1220914166e+000
 4.1826040378e-001	 1.5926634093e+000	-1.1006285773e+000
 4.0186911012e-001	 1.5968781436e+000	-1.0804756064e+000
 3.8548193321e-001	 1.6009129768e+000	-1.0618921393e+000
 3.6910160802e-001	 1.6047687614e+000	-1.0451866321e+000
 3.5273083588e-001	 1.6084464008e+000	-1.0307099176e+000
 3.3637228348e-001	 1.6119468474e+000	-1.0188493654e+000
 3.2002858183e-001	 1.6152711022e+000	-1.0100235996e+000
 4.8576977461e-001	 1.5803629842e+000	-1.1904091270e+000
 4.6932367966e-001	 1.5853248046e+000	-1.1658301979e+000
 4.5287041853e-001	 1.5901031029e+000	-1.1420899331e+000
 4.3641286108e-001	 1.5946985200e+000	-1.1192844383e+000
 4.1995384800e-001	 1.5991117526e+000	-1.0975813008e+000
 4.0349618961e-001	 1.6033435514e+000	-1.0772110696e+000
 3.8704266463e-001	 1.6073947207e+000	-1.0584594770e+000
 3.7059601911e-001	 1.6112661166e+000	-1.0416603656e+000
 3.5415896533e-001	 1.6149586459e+000	-1.0271892814e+000
 3.3773418075e-001	 1.6184732651e+000	-1.0154576891e+000
 3.2132430705e-001	 1.6218109790e+000	-1.0069077622e+000
 4.8772861848e-001	 1.5867357239e+000	-1.1883413792e+000
 4.7121620542e-001	 1.5917175526e+000	-1.1636590827e+000
 4.5469659728e-001	 1.5965151192e+000	-1.1397487531e+000
 4.3817267550e-001	 1.6011290671e+000	-1.1167359893e+000
 4.2164729223e-001	 1.6055600958e+000	-1.0948169822e+000
 4.0512326910e-001	 1.6098089592e+000	-1.0742499668e+000
 3.8860339605e-001	 1.6138764647e+000	-1.0553474415e+000
 3.7209043021e-001	 1.6177634717e+000	-1.0384691163e+000
 3.5558709477e-001	 1.6214708910e+000	-1.0240155482e+000
 3.3909607802e-001	 1.6249996827e+000	-1.0124224188e+000
 3.2262003228e-001	 1.6283508558e+000	-1.0041554040e+000
 4.8968746235e-001	 1.5931084637e+000	-1.1863204221e+000
 4.7310873118e-001	 1.5981103007e+000	-1.1615858108e+000
 4.5652277604e-001	 1.6029271355e+000	-1.1375484455e+000
 4.3993248993e-001	 1.6075596142e+000	-1.1143646627e+000
 4.2334073646e-001	 1.6120084391e+000	-1.0922602971e+000
 4.0675034859e-001	 1.6162743670e+000	-1.0715221099e+000
 3.9016412748e-001	 1.6203582086e+000	-1.0524900109e+000
 3.7358484130e-001	 1.6242608269e+000	-1.0355500327e+000
 3.5701522422e-001	 1.6279831361e+000	-1.0211280152e+000
 3.4045797529e-001	 1.6315261004e+000	-1.0096839517e+000
 3.2391575750e-001	 1.6348907326e+000	-1.0017069462e+000
 3.1095850527e-001	 1.5694919644e+000	-1.0469498571e+000
 2.9509733616e-001	 1.5725513783e+000	-1.0377589397e+000
 2.7925559253e-001	 1.5754417256e+000	-1.0290504058e+000
 2.6343571706e-001	 1.5781641122e+000	-1.0208193771e+000
 2.4764011452e-001	 1.5807196856e+000	-1.0130630002e+000
 2.3187115109e-001	 1.5831096338e+000	-1.0057773462e+000
 2.1613115365e-001	 1.5853351837e+000	-9.9895453805e-001
 2.0042240917e-001	 1.5873976000e+000	-9.9258006736e-001
 1.8474716411e-001	 1.5892981840e+000	-9.8663026285e-001
 1.6910762388e-001	 1.5910382720e+000	-9.8106987309e-001
 1.5350595236e-001	 1.5926192341e+000	-9.7584972959e-001
 3.1225423050e-001	 1.5760318412e+000	-1.0396481675e+000
 2.9632696987e-001	 1.5791040033e+000	-1.0307443830e+000
 2.8041921568e-001	 1.5820063943e+000	-1.0223048790e+000
 2.6453342076e-001	 1.5847401248e+000	-1.0143191289e+000
 2.4867199993e-001	 1.5873063470e+000	-1.0067787159e+000
 2.3283732920e-001	 1.5897062538e+000	-9.9967437021e-001
 2.1703174515e-001	 1.5919410773e+000	-9.9299323600e-001
 2.0125754430e-001	 1.5940120874e+000	-9.8671632891e-001
 1.8551698245e-001	 1.5959205909e+000	-9.8081614351e-001
 1.6981227421e-001	 1.5976679296e+000	-9.7525437316e-001
 1.5414559247e-001	 1.5992554794e+000	-9.6997970594e-001
 3.1354995572e-001	 1.5825717180e+000	-1.0331180776e+000
 2.9755660358e-001	 1.5856566283e+000	-1.0245105028e+000
 2.8158283883e-001	 1.5885710631e+000	-1.0163432536e+000
 2.6563112447e-001	 1.5913161374e+000	-1.0086001056e+000
 2.4970388533e-001	 1.5938930083e+000	-1.0012671202e+000
 2.3380350730e-001	 1.5963028737e+000	-9.9432982118e-001
 2.1793233666e-001	 1.5985469708e+000	-9.8777060455e-001
 2.0209267942e-001	 1.6006265748e+000	-9.8156633869e-001
 1.8628680079e-001	 1.6025429977e+000	-9.7568611380e-001
 1.7051692454e-001	 1.6042975872e+000	-9.7008910102e-001
 1.5478523259e-001	 1.6058917246e+000	-9.6472248336e-001
 3.1484568094e-001	 1.5891115949e+000	-1.0273022550e+000
 2.9878623730e-001	 1.5922092533e+000	-1.0189993553e+000
 2.8274646197e-001	 1.5951357318e+000	-1.0111080641e+000
 2.6672882817e-001	 1.5978921500e+000	-1.0036063746e+000
 2.5073577073e-001	 1.6004796697e+000	-9.9647483022e-001
 2.3476968540e-001	 1.6028994937e+000	-9.8969384434e-001
 2.1883292816e-001	 1.6051528643e+000	-9.8324125499e-001
 2.0292781455e-001	 1.6072410622e+000	-9.7709007082e-001
 1.8705661913e-001	 1.6091654046e+000	-9.7120636511e-001
 1.7122157488e-001	 1.6109272448e+000	-9.6554727655e-001
 1.5542487270e-001	 1.6125279699e+000	-9.6005907770e-001
 3.1614140616e-001	 1.5956514717e+000	-1.0221430408e+000
 3.0001587101e-001	 1.5987618784e+000	-1.0141527643e+000
 2.8391008512e-001	 1.6017004005e+000	-1.0065416931e+000
 2.6782653188e-001	 1.6044681625e+000	-9.9928191773e-001
 2.5176765614e-001	 1.6070663310e+000	-9.9234843047e-001
 2.3573586351e-001	 1.6094961136e+000	-9.8571659097e-001
 2.1973351966e-001	 1.6117587579e+000	-9.7935982929e-001
 2.0376294968e-001	 1.6138555495e+000	-9.7324754035e-001
 1.8782643747e-001	 1.6157878115e+000	-9.6734312533e-001
 1.7192622521e-001	 1.6175569024e+000	-9.6160213697e-001
 1.5606451282e-001	 1.6191642152e+000	-9.5597048791e-001
 3.1743713139e-001	 1.6021913485e+000	-1.0175824515e+000
 3.0124550472e-001	 1.6053145034e+000	-1.0099123197e+000
 2.8507370827e-001	 1.6082650693e+000	-1.0025863676e+000
 2.6892423558e-001	 1.6110441751e+000	-9.9557062630e-001
 2.5279954154e-001	 1.6136529923e+000	-9.8883446622e-001
 2.3670204161e-001	 1.6160927336e+000	-9.8234821102e-001
 2.2063411116e-001	 1.6183646514e+000	-9.7608099216e-001
 2.0459808481e-001	 1.6204700369e+000	-9.6999879509e-001
 1.8859625581e-001	 1.6224102184e+000	-9.6406265105e-001
 1.7263087554e-001	 1.6241865600e+000	-9.5822692971e-001
 1.5670415294e-001	 1.6258004604e+000	-9.5243769018e-001
 3.1873285661e-001	 1.6087312253e+000	-1.0135621803e+000
 3.0247513844e-001	 1.6118671284e+000	-1.0062193772e+000
 2.8623733142e-001	 1.6148297380e+000	-9.9918415572e-001
 2.7002193929e-001	 1.6176201877e+000	-9.9241629585e-001
 2.5383142694e-001	 1.6202396537e+000	-9.8587943719e-001
 2.3766821972e-001	 1.6226893536e+000	-9.7953884581e-001
 2.2153470267e-001	 1.6249705450e+000	-9.7335942323e-001
 2.0543321994e-001	 1.6270845243e+000	-9.6730390781e-001
 1.8936607415e-001	 1.6290326252e+000	-9.6133122004e-001
 1.7333552587e-001	 1.6308162175e+000	-9.5539490563e-001
 1.5734379305e-001	 1.6324367057e+000	-9.4944163216e-001
 3.2002858183e-001	 1.6152711022e+000	-1.0100235996e+000
 3.0370477215e-001	 1.6184197534e+000	-1.0030150569e+000
 2.8740095457e-001	 1.6213944068e+000	-9.9627696412e-001
 2.7111964299e-001	 1.6241962003e+000	-9.8976262158e-001
 2.5486331235e-001	 1.6268263150e+000	-9.8342979149e-001
 2.3863439782e-001	 1.6292859735e+000	-9.7723862104e-001
 2.2243529417e-001	 1.6315764385e+000	-9.7114980962e-001
 2.0626835506e-001	 1.6336990117e+000	-9.6512296864e-001
 1.9013589250e-001	 1.6356550321e+000	-9.5911512390e-001
 1.7404017620e-001	 1.6374458751e+000	-9.5307931234e-001
 1.5798343317e-001	 1.6390729510e+000	-9.4696322734e-001
 3.2132430705e-001	 1.6218109790e+000	-1.0069077622e+000
 3.0493440586e-001	 1.6249723785e+000	-1.0002402428e+000
 2.8856457772e-001	 1.6279590755e+000	-9.9380653489e-001
 2.7221734670e-001	 1.6307722129e+000	-9.8755319385e-001
 2.5589519775e-001	 1.6334129764e+000	-9.8143191982e-001
 2.3960057592e-001	 1.6358825935e+000	-9.7539764015e-001
 2.2333588567e-001	 1.6381823321e+000	-9.6940683867e-001
 2.0710349019e-001	 1.6403134990e+000	-9.6341607769e-001
 1.9090571084e-001	 1.6422774390e+000	-9.5738066103e-001
 1.7474482654e-001	 1.6440755327e+000	-9.5125338780e-001
 1.5862307329e-001	 1.6457091962e+000	-9.4498334968e-001
 3.2262003228e-001	 1.6283508558e+000	-1.0041554040e+000
 3.0616403958e-001	 1.6315250035e+000	-9.9783558297e-001
 2.8972820086e-001	 1.6345237442e+000	-9.9171444318e-001
 2.7331505040e-001	 1.6373482255e+000	-9.8573149391e-001
 2.5692708315e-001	 1.6399996377e+000	-9.7983214991e-001
 2.4056675403e-001	 1.6424792134e+000	-9.7396597778e-001
 2.2423647717e-001	 1.6447882256e+000	-9.6808519097e-001
 2.0793862532e-001	 1.6469279864e+000	-9.6214333801e-001
 1.9167552918e-001	 1.6488998458e+000	-9.5609412976e-001
 1.7544947687e-001	 1.6507051903e+000	-9.4989035404e-001
 1.5926271340e-001	 1.6523454415e+000	-9.4348282836e-001
 3.2391575750e-001	 1.6348907326e+000	-1.0017069462e+000
 3.0739367329e-001	 1.6380776285e+000	-9.9574148853e-001
 2.9089182401e-001	 1.6410884130e+000	-9.8994209485e-001
 2.7441275411e-001	 1.6439242380e+000	-9.8424088987e-001
 2.5795896856e-001	 1.6465862990e+000	-9.7857674123e-001
 2.4153293213e-001	 1.6490758334e+000	-9.7289367358e-001
 2.2513706867e-001	 1.6513941191e+000	-9.6713953366e-001
 2.0877376045e-001	 1.6535424738e+000	-9.6126484864e-001
 1.9244534752e-001	 1.6555222527e+000	-9.5522182168e-001
 1.7615412720e-001	 1.6573348479e+000	-9.4896341120e-001
 1.5990235352e-001	 1.6589816868e+000	-9.4244244265e-001
 1.5350595236e-001	 1.5926192341e+000	-9.7584972959e-001
 1.3794194542e-001	 1.5940426749e+000	-9.7059825626e-001
 1.2242005360e-001	 1.5953097801e+000	-9.6526797014e-001
 1.0694234572e-001	 1.5964220145e+000	-9.6026201220e-001
 9.1510846532e-002	 1.5973808717e+000	-9.5595470743e-001
 7.6127536390e-002	 1.5981878723e+000	-9.5268841262e-001
 6.0794351023e-002	 1.5988445630e+000	-9.5077032080e-001
 4.5513181338e-002	 1.5993525154e+000	-9.5046920605e-001
 3.0285873257e-002	 1.5997133243e+000	-9.5201209529e-001
 1.5114227599e-002	 1.5999286065e+000	-9.5558085635e-001
 0.0000000000e+000	 1.6000000000e+000	-9.6130869621e-001
 1.5414559247e-001	 1.5992554794e+000	-9.6997970594e-001
 1.3851673227e-001	 1.6006848514e+000	-9.6464396561e-001
 1.2293016266e-001	 1.6019572365e+000	-9.5922933067e-001
 1.0738796111e-001	 1.6030741055e+000	-9.5414878979e-001
 9.1892160791e-002	 1.6040369581e+000	-9.4978905649e-001
 7.6444750319e-002	 1.6048473214e+000	-9.4650745977e-001
 6.1047673486e-002	 1.6055067485e+000	-9.4462878051e-001
 4.5702829076e-002	 1.6060168174e+000	-9.4444201652e-001
 3.0412070705e-002	 1.6063791297e+000	-9.4619706235e-001
 1.5177206697e-002	 1.6065953090e+000	-9.5010129273e-001
 0.0000000000e+000	 1.6066670000e+000	-9.5631604317e-001
 1.5478523259e-001	 1.6058917246e+000	-9.6472248336e-001
 1.3909151911e-001	 1.6073270280e+000	-9.5926883799e-001
 1.2344027172e-001	 1.6086046930e+000	-9.5374671993e-001
 1.0783357649e-001	 1.6097261965e+000	-9.4857861931e-001
 9.2273475051e-002	 1.6106930445e+000	-9.4416317932e-001
 7.6761964248e-002	 1.6115067705e+000	-9.4087213889e-001
 6.1300995947e-002	 1.6121689339e+000	-9.3904720989e-001
 4.5892476814e-002	 1.6126811195e+000	-9.3899687102e-001
 3.0538268154e-002	 1.6130449352e+000	-9.4099306397e-001
 1.5240185794e-002	 1.6132620115e+000	-9.4526778043e-001
 0.0000000000e+000	 1.6133340000e+000	-9.5200953262e-001
 1.5542487270e-001	 1.6125279699e+000	-9.6005907770e-001
 1.3966630596e-001	 1.6139692046e+000	-9.5446102345e-001
 1.2395038078e-001	 1.6152521494e+000	-9.4881334367e-001
 1.0827919188e-001	 1.6163782875e+000	-9.4354766278e-001
 9.2654789310e-002	 1.6173491310e+000	-9.3907407580e-001
 7.7079178176e-002	 1.6181662196e+000	-9.3577815224e-001
 6.1554318409e-002	 1.6188311194e+000	-9.3401786302e-001
 4.6082124551e-002	 1.6193454215e+000	-9.3412041193e-001
 3.0664465602e-002	 1.6197107406e+000	-9.3637895663e-001
 1.5303164891e-002	 1.6199287141e+000	-9.4104920723e-001
 0.0000000000e+000	 1.6200010000e+000	-9.4834589472e-001
 1.5606451282e-001	 1.6191642152e+000	-9.5597048791e-001
 1.4024109280e-001	 1.6206113812e+000	-9.5020862861e-001
 1.2446048984e-001	 1.6218996058e+000	-9.4442236748e-001
 1.0872480727e-001	 1.6230303785e+000	-9.3905207466e-001
 9.3036103569e-002	 1.6240052174e+000	-9.3451879958e-001
 7.7396392104e-002	 1.6248256686e+000	-9.3122134530e-001
 6.1807640870e-002	 1.6254933048e+000	-9.2953325417e-001
 4.6271772289e-002	 1.6260097235e+000	-9.2979968571e-001
 3.0790663050e-002	 1.6263765461e+000	-9.3233417094e-001
 1.5366143988e-002	 1.6265954166e+000	-9.3741523074e-001
 0.0000000000e+000	 1.6266680000e+000	-9.4528285012e-001
 1.5670415294e-001	 1.6258004604e+000	-9.5243769018e-001
 1.4081587965e-001	 1.6272535577e+000	-9.4649971176e-001
 1.2497059891e-001	 1.6285470623e+000	-9.4056691239e-001
 1.0917042266e-001	 1.6296824695e+000	-9.3508799742e-001
 9.3417417828e-002	 1.6306613038e+000	-9.3049445307e-001
 7.7713606033e-002	 1.6314851177e+000	-9.2719770061e-001
 6.2060963331e-002	 1.6321554902e+000	-9.2558614993e-001
 4.6461420026e-002	 1.6326740255e+000	-9.2602213271e-001
 3.0916860497e-002	 1.6330423516e+000	-9.2883869867e-001
 1.5429123085e-002	 1.6332621191e+000	-9.3433626207e-001
 0.0000000000e+000	 1.6333350000e+000	-9.4277908963e-001
 1.5734379305e-001	 1.6324367057e+000	-9.4944163216e-001
 1.4139066649e-001	 1.6338957343e+000	-9.4332227811e-001
 1.2548070797e-001	 1.6351945187e+000	-9.3724005063e-001
 1.0961603804e-001	 1.6363345604e+000	-9.3165155720e-001
 9.3798732087e-002	 1.6373173902e+000	-9.2699818246e-001
 7.8030819961e-002	 1.6381445668e+000	-9.2370333167e-001
 6.2314285793e-002	 1.6388176757e+000	-9.2216956146e-001
 4.6651067763e-002	 1.6393383275e+000	-9.2277557726e-001
 3.1043057945e-002	 1.6397081570e+000	-9.2587308017e-001
 1.5492102181e-002	 1.6399288216e+000	-9.3178344995e-001
 0.0000000000e+000	 1.6400020000e+000	-9.4079425462e-001
 1.5798343317e-001	 1.6390729510e+000	-9.4696322734e-001
 1.4196545334e-001	 1.6405379109e+000	-9.4066427518e-001
 1.2599081703e-001	 1.6418419752e+000	-9.3443480145e-001
 1.1006165343e-001	 1.6429866514e+000	-9.2873885961e-001
 9.4180046346e-002	 1.6439734766e+000	-9.2402717298e-001
 7.8348033889e-002	 1.6448040159e+000	-9.2073447711e-001
 6.2567608254e-002	 1.6454798611e+000	-9.1927673704e-001
 4.6840715500e-002	 1.6460026295e+000	-9.2004821806e-001
 3.1169255393e-002	 1.6463739625e+000	-9.2341839200e-001
 1.5555081278e-002	 1.6465955241e+000	-9.2972866515e-001
 0.0000000000e+000	 1.6466690000e+000	-9.3928891769e-001
 1.5862307329e-001	 1.6457091962e+000	-9.4498334968e-001
 1.4254024018e-001	 1.6471800874e+000	-9.3851358835e-001
 1.2650092609e-001	 1.6484894316e+000	-9.3214412714e-001
 1.1050726882e-001	 1.6496387424e+000	-9.2634598564e-001
 9.4561360605e-002	 1.6506295631e+000	-9.2157864422e-001
 7.8665247818e-002	 1.6514634650e+000	-9.1828749490e-001
 6.2820930715e-002	 1.6521420466e+000	-9.1690115466e-001
 4.7030363238e-002	 1.6526669315e+000	-9.1782861866e-001
 3.1295452841e-002	 1.6530397679e+000	-9.2145623487e-001
 1.5618060375e-002	 1.6532622266e+000	-9.2814448540e-001
 0.0000000000e+000	 1.6533360000e+000	-9.3822456392e-001
 1.5926271340e-001	 1.6523454415e+000	-9.4348282836e-001
 1.4311502703e-001	 1.6538222640e+000	-9.3685803650e-001
 1.2701103515e-001	 1.6551368880e+000	-9.3036092905e-001
 1.1095288421e-001	 1.6562908334e+000	-9.2446898769e-001
 9.4942674864e-002	 1.6572856495e+000	-9.1964984560e-001
 7.8982461746e-002	 1.6581229141e+000	-9.1635885681e-001
 6.3074253177e-002	 1.6588042320e+000	-9.1503651495e-001
 4.7220010975e-002	 1.6593312336e+000	-9.1610569836e-001
 3.1421650289e-002	 1.6597055734e+000	-9.1996872195e-001
 1.5681039473e-002	 1.6599289291e+000	-9.2700418054e-001
 0.0000000000e+000	 1.6600030000e+000	-9.3756357257e-001
 1.5990235352e-001	 1.6589816868e+000	-9.4244244265e-001
 1.4368981387e-001	 1.6604644406e+000	-9.3568536783e-001
 1.2752114421e-001	 1.6617843445e+000	-9.2907804389e-001
 1.1139849959e-001	 1.6629429244e+000	-9.2310388570e-001
 9.5323989124e-002	 1.6639417359e+000	-9.1823805197e-001
 7.9299675675e-002	 1.6647823632e+000	-9.1494514289e-001
 6.3327575639e-002	 1.6654664174e+000	-9.1367673415e-001
 4.7409658713e-002	 1.6659955356e+000	-9.1486872319e-001
 3.1547847738e-002	 1.6663713789e+000	-9.1893846736e-001
 1.5744018570e-002	 1.6665956317e+000	-9.2628169812e-001
 0.0000000000e+000	 1.6666700000e+000	-9.3726919916e-001
 1.6666700000e+000	 0.0000000000e+000	 3.2651132951e+000
 1.6665956317e+000	 1.5744018570e-002	 3.2662459411e+000
 1.6663713789e+000	 3.1547847738e-002	 3.2639121337e+000
 1.6659955356e+000	 4.7409658713e-002	 3.2584634149e+000
 1.6654664174e+000	 6.3327575639e-002	 3.2502268286e+000
 1.6647823632e+000	 7.9299675675e-002	 3.2395050953e+000
 1.6639417359e+000	 9.5323989124e-002	 3.2265765936e+000
 1.6629429244e+000	 1.1139849959e-001	 3.2116951653e+000
 1.6617843445e+000	 1.2752114421e-001	 3.1950897648e+000
 1.6604644406e+000	 1.4368981387e-001	 3.1769639755e+000
 1.6589816868e+000	 1.5990235352e-001	 3.1574954217e+000
 1.6733360000e+000	 0.0000000000e+000	 3.2533870396e+000
 1.6732613342e+000	 1.5806988221e-002	 3.2546557967e+000
 1.6730361845e+000	 3.1674026258e-002	 3.2524133077e+000
 1.6726588380e+000	 4.7599278006e-002	 3.2470230313e+000
 1.6721276036e+000	 6.3580860105e-002	 3.2388252285e+000
 1.6714408134e+000	 7.9616842025e-002	 3.2281370535e+000
 1.6705968239e+000	 9.5705246189e-002	 3.2152524340e+000
 1.6695940176e+000	 1.1184404814e-001	 3.2004417607e+000
 1.6684308038e+000	 1.2803117676e-001	 3.1839514055e+000
 1.6671056209e+000	 1.4426451450e-001	 3.1660030919e+000
 1.6656169367e+000	 1.6054189769e-001	 3.1467931466e+000
 1.6800020000e+000	 0.0000000000e+000	 3.2416792726e+000
 1.6799270368e+000	 1.5869957872e-002	 3.2430878610e+000
 1.6797009901e+000	 3.1800204778e-002	 3.2409368372e+000
 1.6793221404e+000	 4.7788897299e-002	 3.2356024234e+000
 1.6787887898e+000	 6.3834144572e-002	 3.2274390245e+000
 1.6780992636e+000	 7.9934008375e-002	 3.2167792312e+000
 1.6772519120e+000	 9.6086503254e-002	 3.2039335967e+000
 1.6762451108e+000	 1.1228959669e-001	 3.1891902054e+000
 1.6750772632e+000	 1.2854120931e-001	 3.1728140548e+000
 1.6737468012e+000	 1.4483921513e-001	 3.1550462747e+000
 1.6722521865e+000	 1.6118144187e-001	 3.1361032131e+000
 1.6866680000e+000	 0.0000000000e+000	 3.2299766015e+000
 1.6865927393e+000	 1.5932927524e-002	 3.2315304633e+000
 1.6863657958e+000	 3.1926383299e-002	 3.2294722780e+000
 1.6859854428e+000	 4.7978516592e-002	 3.2241918784e+000
 1.6854499759e+000	 6.4087429038e-002	 3.2160587425e+000
 1.6847577138e+000	 8.0251174725e-002	 3.2054219050e+000
 1.6839070001e+000	 9.6467760320e-002	 3.1926096264e+000
 1.6828962040e+000	 1.1273514524e-001	 3.1779288365e+000
 1.6817237226e+000	 1.2905124186e-001	 3.1616643755e+000
 1.6803879814e+000	 1.4541391576e-001	 3.1440780559e+000
 1.6788874364e+000	 1.6182098604e-001	 3.1254075767e+000
 1.6933340000e+000	 0.0000000000e+000	 3.2182651072e+000
 1.6932584419e+000	 1.5995897176e-002	 3.2199715282e+000
 1.6930306014e+000	 3.2052561820e-002	 3.2180088950e+000
 1.6926487452e+000	 4.8168135886e-002	 3.2127814998e+000
 1.6921111621e+000	 6.4340713505e-002	 3.2046748256e+000
 1.6914161641e+000	 8.0568341075e-002	 3.1940553635e+000
 1.6905620881e+000	 9.6849017386e-002	 3.1812701690e+000
 1.6895472972e+000	 1.1318069379e-001	 3.1666461771e+000
 1.6883701820e+000	 1.2956127441e-001	 3.1504892966e+000
 1.6870291617e+000	 1.4598861639e-001	 3.1330833096e+000
 1.6855226863e+000	 1.6246053022e-001	 3.1146886079e+000
 1.7000000000e+000	 0.0000000000e+000	 3.2065303551e+000
 1.6999241444e+000	 1.6058866827e-002	 3.2083985843e+000
 1.6996954070e+000	 3.2178740341e-002	 3.2065356699e+000
 1.6993120476e+000	 4.8357755180e-002	 3.2013612139e+000
 1.6987723482e+000	 6.4593997972e-002	 3.1932776398e+000
 1.6980746143e+000	 8.0885507425e-002	 3.1826699117e+000
 1.6972171762e+000	 9.7230274452e-002	 3.1699049754e+000
 1.6961983904e+000	 1.1362624234e-001	 3.1553309385e+000
 1.6950166413e+000	 1.3007130696e-001	 3.1392760140e+000
 1.6936703420e+000	 1.4656331703e-001	 3.1220472520e+000
 1.6921579362e+000	 1.6310007439e-001	 3.1039290906e+000
 1.7066660000e+000	 0.0000000000e+000	 3.1947574046e+000
 1.7065898470e+000	 1.6121836479e-002	 3.1967987736e+000
 1.7063602127e+000	 3.2304918862e-002	 3.1950413098e+000
 1.7059753500e+000	 4.8547374473e-002	 3.1899207774e+000
 1.7054335344e+000	 6.4847282439e-002	 3.1818574794e+000
 1.7047330645e+000	 8.1202673775e-002	 3.1712558759e+000
 1.7038722642e+000	 9.7611531517e-002	 3.1585039043e+000
 1.7028494837e+000	 1.1407179089e-001	 3.1439720216e+000
 1.7016631007e+000	 1.3058133951e-001	 3.1280119910e+000
 1.7003115223e+000	 1.4713801766e-001	 3.1109554396e+000
 1.6987931861e+000	 1.6373961856e-001	 3.0931122194e+000
 1.7133320000e+000	 0.0000000000e+000	 3.1829308195e+000
 1.7132555495e+000	 1.6184806131e-002	 3.1851588605e+000
 1.7130250183e+000	 3.2431097383e-002	 3.1835142548e+000
 1.7126386525e+000	 4.8736993767e-002	 3.1784497836e+000
 1.7120947205e+000	 6.5100566905e-002	 3.1704045730e+000
 1.7113915147e+000	 8.1519840125e-002	 3.1598036074e+000
 1.7105273523e+000	 9.7992788583e-002	 3.1470569256e+000
 1.7095005769e+000	 1.1451733944e-001	 3.1325585193e+000
 1.7083095601e+000	 1.3109137206e-001	 3.1166849585e+000
 1.7069527026e+000	 1.4771271829e-001	 3.0997937693e+000
 1.7054284360e+000	 1.6437916274e-001	 3.0822215976e+000
 1.7199980000e+000	 0.0000000000e+000	 3.1710346773e+000
 1.7199212521e+000	 1.6247775782e-002	 3.1734652400e+000
 1.7196898239e+000	 3.2557275904e-002	 3.1719426854e+000
 1.7193019549e+000	 4.8926613060e-002	 3.1669376692e+000
 1.7187559067e+000	 6.5353851372e-002	 3.1589090887e+000
 1.7180499649e+000	 8.1837006475e-002	 3.1483034877e+000
 1.7171824403e+000	 9.8374045649e-002	 3.1355541235e+000
 1.7161516701e+000	 1.1496288799e-001	 3.1210797181e+000
 1.7149560194e+000	 1.3160140461e-001	 3.1052829160e+000
 1.7135938829e+000	 1.4828741892e-001	 3.0885484766e+000
 1.7120636858e+000	 1.6501870691e-001	 3.0712412343e+000
 1.7266640000e+000	 0.0000000000e+000	 3.1590525785e+000
 1.7265869546e+000	 1.6310745433e-002	 3.1617039465e+000
 1.7263546296e+000	 3.2683454424e-002	 3.1603145302e+000
 1.7259652573e+000	 4.9116232353e-002	 3.1553737207e+000
 1.7254170929e+000	 6.5607135838e-002	 3.1473611397e+000
 1.7247084152e+000	 8.2154172825e-002	 3.1367459319e+000
 1.7238375284e+000	 9.8755302714e-002	 3.1239856993e+000
 1.7228027633e+000	 1.1540843653e-001	 3.1095250997e+000
 1.7216024788e+000	 1.3211143715e-001	 3.0937941317e+000
 1.7202350632e+000	 1.4886211955e-001	 3.0772061352e+000
 1.7186989357e+000	 1.6565825109e-001	 3.0601555426e+000
 1.7333300000e+000	 0.0000000000e+000	 3.1469676561e+000
 1.7332526572e+000	 1.6373715085e-002	 3.1498606619e+000
 1.7330194352e+000	 3.2809632944e-002	 3.1486174729e+000
 1.7326285597e+000	 4.9305851646e-002	 3.1437470803e+000
 1.7320782790e+000	 6.5860420304e-002	 3.1357507888e+000
 1.7313668654e+000	 8.2471339175e-002	 3.1251213928e+000
 1.7304926164e+000	 9.9136559780e-002	 3.1123419743e+000
 1.7294538565e+000	 1.1585398508e-001	 3.0978843428e+000
 1.7282489382e+000	 1.3262146970e-001	 3.0822071427e+000
 1.7268762435e+000	 1.4943682018e-001	 3.0657536562e+000
 1.7253341856e+000	 1.6629779526e-001	 3.0489493374e+000
 1.6589816868e+000	 1.5990235352e-001	 3.1574954217e+000
 1.6573348479e+000	 1.7615412720e-001	 3.1346964011e+000
 1.6555222527e+000	 1.9244534752e-001	 3.1068712220e+000
 1.6535424738e+000	 2.0877376045e-001	 3.0745994725e+000
 1.6513941191e+000	 2.2513706867e-001	 3.0384256598e+000
 1.6490758334e+000	 2.4153293213e-001	 2.9988574798e+000
 1.6465862990e+000	 2.5795896856e-001	 2.9563642195e+000
 1.6439242380e+000	 2.7441275411e-001	 2.9113753518e+000
 1.6410884130e+000	 2.9089182401e-001	 2.8642793845e+000
 1.6380776285e+000	 3.0739367329e-001	 2.8154230313e+000
 1.6348907326e+000	 3.2391575750e-001	 2.7651107739e+000
 1.6656169367e+000	 1.6054189769e-001	 3.1467931466e+000
 1.6639635111e+000	 1.7685867184e-001	 3.1242802449e+000
 1.6621436663e+000	 1.9321505039e-001	 3.0967043115e+000
 1.6601559690e+000	 2.0960877031e-001	 3.0646476607e+000
 1.6579990218e+000	 2.2603752509e-001	 3.0286573553e+000
 1.6556714639e+000	 2.4249896532e-001	 2.9892432832e+000
 1.6531719724e+000	 2.5899069919e-001	 2.9468763596e+000
 1.6504992643e+000	 2.7551029316e-001	 2.9019869167e+000
 1.6476520971e+000	 2.9205527262e-001	 2.8549633457e+000
 1.6446292707e+000	 3.0862312257e-001	 2.8061510588e+000
 1.6414296285e+000	 3.2521128837e-001	 2.7558518441e+000
 1.6722521865e+000	 1.6118144187e-001	 3.1361032131e+000
 1.6705921743e+000	 1.7756321647e-001	 3.1138918122e+000
 1.6687650798e+000	 1.9398475326e-001	 3.0865872938e+000
 1.6667694643e+000	 2.1044378017e-001	 3.0547727438e+000
 1.6646039246e+000	 2.2693798151e-001	 3.0189958362e+000
 1.6622670944e+000	 2.4346499850e-001	 2.9797667129e+000
 1.6597576458e+000	 2.6002242981e-001	 2.9375559833e+000
 1.6570742905e+000	 2.7660783222e-001	 2.8927929061e+000
 1.6542157812e+000	 2.9321872124e-001	 2.8458638208e+000
 1.6511809129e+000	 3.0985257185e-001	 2.7971108977e+000
 1.6479685244e+000	 3.2650681924e-001	 2.7468312824e+000
 1.6788874364e+000	 1.6182098604e-001	 3.1254075767e+000
 1.6772208375e+000	 1.7826776111e-001	 3.1035101703e+000
 1.6753864934e+000	 1.9475445613e-001	 3.0764961986e+000
 1.6733829595e+000	 2.1127879003e-001	 3.0449476202e+000
 1.6712088273e+000	 2.2783843793e-001	 3.0094108321e+000
 1.6688627249e+000	 2.4443103168e-001	 2.9703943495e+000
 1.6663433192e+000	 2.6105416044e-001	 2.9283666004e+000
 1.6636493167e+000	 2.7770537128e-001	 2.8837538962e+000
 1.6607794652e+000	 2.9438216985e-001	 2.8369386484e+000
 1.6577325550e+000	 3.1108202112e-001	 2.7882579046e+000
 1.6545074203e+000	 3.2780235012e-001	 2.7380022776e+000
 1.6855226863e+000	 1.6246053022e-001	 3.1146886079e+000
 1.6838495007e+000	 1.7897230575e-001	 3.0931148703e+000
 1.6820079069e+000	 1.9552415901e-001	 3.0664076015e+000
 1.6799964548e+000	 2.1211379989e-001	 3.0351457896e+000
 1.6778137300e+000	 2.2873889435e-001	 2.9998727225e+000
 1.6754583554e+000	 2.4539706486e-001	 2.9610934662e+000
 1.6729289926e+000	 2.6208589107e-001	 2.9192724497e+000
 1.6702243430e+000	 2.7880291033e-001	 2.8748312213e+000
 1.6673431493e+000	 2.9554561846e-001	 2.8281464482e+000
 1.6642841972e+000	 3.1231147040e-001	 2.7795482331e+000
 1.6610463162e+000	 3.2909788099e-001	 2.7293188257e+000
 1.6921579362e+000	 1.6310007439e-001	 3.1039290906e+000
 1.6904781639e+000	 1.7967685039e-001	 3.0826859432e+000
 1.6886293205e+000	 1.9629386188e-001	 3.0562986185e+000
 1.6866099500e+000	 2.1294880976e-001	 3.0253413459e+000
 1.6844186327e+000	 2.2963935077e-001	 2.9903525292e+000
 1.6820539859e+000	 2.4636309805e-001	 2.9518320195e+000
 1.6795146660e+000	 2.6311762169e-001	 2.9102384875e+000
 1.6767993692e+000	 2.7990044939e-001	 2.8659869620e+000
 1.6739068334e+000	 2.9670906707e-001	 2.8194466081e+000
 1.6708358394e+000	 3.1354091968e-001	 2.7709388207e+000
 1.6675852121e+000	 3.3039341186e-001	 2.7207357153e+000
 1.6987931861e+000	 1.6373961856e-001	 3.0931122194e+000
 1.6971068271e+000	 1.8038139503e-001	 3.0722038964e+000
 1.6952507340e+000	 1.9706356475e-001	 3.0461469007e+000
 1.6932234453e+000	 2.1378381962e-001	 3.0155089709e+000
 1.6910235354e+000	 2.3053980719e-001	 2.9808219078e+000
 1.6886496164e+000	 2.4732913123e-001	 2.9425786397e+000
 1.6861003394e+000	 2.6414935232e-001	 2.9012303779e+000
 1.6833743954e+000	 2.8099798844e-001	 2.8571839337e+000
 1.6804705175e+000	 2.9787251569e-001	 2.8107992712e+000
 1.6773874816e+000	 3.1477036895e-001	 2.7623873748e+000
 1.6741241080e+000	 3.3168894273e-001	 2.7122085134e+000
 1.7054284360e+000	 1.6437916274e-001	 3.0822215976e+000
 1.7037354903e+000	 1.8108593966e-001	 3.0616497092e+000
 1.7018721476e+000	 1.9783326762e-001	 3.0359306291e+000
 1.6998369405e+000	 2.1461882948e-001	 3.0056239273e+000
 1.6976284381e+000	 2.3144026360e-001	 2.9712531401e+000
 1.6952452469e+000	 2.4829516441e-001	 2.9333026220e+000
 1.6926860128e+000	 2.6518108295e-001	 2.8922144821e+000
 1.6899494217e+000	 2.8209552750e-001	 2.8483856748e+000
 1.6870342016e+000	 2.9903596430e-001	 2.8021653242e+000
 1.6839391238e+000	 3.1599981823e-001	 2.7538523598e+000
 1.6806630039e+000	 3.3298447361e-001	 2.7036935514e+000
 1.7120636858e+000	 1.6501870691e-001	 3.0712412343e+000
 1.7103641535e+000	 1.8179048430e-001	 3.0510048299e+000
 1.7084935612e+000	 1.9860297050e-001	 3.0256285093e+000
 1.7064504358e+000	 2.1545383934e-001	 2.9956620528e+000
 1.7042333408e+000	 2.3234072002e-001	 2.9616191261e+000
 1.7018408775e+000	 2.4926119760e-001	 2.9239739172e+000
 1.6992716862e+000	 2.6621281357e-001	 2.8831578478e+000
 1.6965244479e+000	 2.8319306656e-001	 2.8395564357e+000
 1.6935978857e+000	 3.0019941291e-001	 2.7935063842e+000
 1.6904907659e+000	 3.1722926751e-001	 2.7452929837e+000
 1.6872018998e+000	 3.3428000448e-001	 2.6951479112e+000
 1.7186989357e+000	 1.6565825109e-001	 3.0601555426e+000
 1.7169928167e+000	 1.8249502894e-001	 3.0402511715e+000
 1.7151149747e+000	 1.9937267337e-001	 3.0152197668e+000
 1.7130639310e+000	 2.1628884920e-001	 2.9855997530e+000
 1.7108382435e+000	 2.3324117644e-001	 2.9518933764e+000
 1.7084365080e+000	 2.5022723078e-001	 2.9145631225e+000
 1.7058573595e+000	 2.6724454420e-001	 2.8740281998e+000
 1.7030994741e+000	 2.8429060561e-001	 2.8306611674e+000
 1.7001615698e+000	 3.0136286152e-001	 2.7847847872e+000
 1.6970424081e+000	 3.1845871678e-001	 2.7366691850e+000
 1.6937407957e+000	 3.3557553535e-001	 2.6865294114e+000
 1.7253341856e+000	 1.6629779526e-001	 3.0489493374e+000
 1.7236214799e+000	 1.8319957358e-001	 3.0293711081e+000
 1.7217363883e+000	 2.0014237624e-001	 3.0046841416e+000
 1.7196774263e+000	 2.1712385907e-001	 2.9754139954e+000
 1.7174431462e+000	 2.3414163286e-001	 2.9420500044e+000
 1.7150321385e+000	 2.5119326396e-001	 2.9050414734e+000
 1.7124430329e+000	 2.6827627483e-001	 2.8647939295e+000
 1.7096745004e+000	 2.8538814467e-001	 2.8216655108e+000
 1.7067252539e+000	 3.0252631014e-001	 2.7759635758e+000
 1.7035940503e+000	 3.1968816606e-001	 2.7279416202e+000
 1.7002796916e+000	 3.3687106623e-001	 2.6777965939e+000
 1.6348907326e+000	 3.2391575750e-001	 2.7651107739e+000
 1.6315261004e+000	 3.4045797529e-001	 2.7135851337e+000
 1.6279831361e+000	 3.5701522422e-001	 2.6605455801e+000
 1.6242608269e+000	 3.7358484130e-001	 2.6054005243e+000
 1.6203582086e+000	 3.9016412748e-001	 2.5475253538e+000
 1.6162743670e+000	 4.0675034859e-001	 2.4862665770e+000
 1.6120084391e+000	 4.2334073646e-001	 2.4209468348e+000
 1.6075596142e+000	 4.3993248993e-001	 2.3508708530e+000
 1.6029271355e+000	 4.5652277604e-001	 2.2753324042e+000
 1.5981103007e+000	 4.7310873118e-001	 2.1936223497e+000
 1.5931084637e+000	 4.8968746235e-001	 2.1050378238e+000
 1.6414296285e+000	 3.2521128837e-001	 2.7558518441e+000
 1.6380515391e+000	 3.4181966828e-001	 2.7043653350e+000
 1.6344944044e+000	 3.5844313945e-001	 2.6514433687e+000
 1.6307572075e+000	 3.7507902825e-001	 2.5964821030e+000
 1.6268389803e+000	 3.9172462480e-001	 2.5388428485e+000
 1.6227388050e+000	 4.0837718403e-001	 2.4778560683e+000
 1.6184558151e+000	 4.2503392668e-001	 2.4128262612e+000
 1.6139891968e+000	 4.4169204040e-001	 2.3430378017e+000
 1.6093381900e+000	 4.5834868088e-001	 2.2677618129e+000
 1.6045020898e+000	 4.7500097308e-001	 2.1862641398e+000
 1.5994802475e+000	 4.9164601241e-001	 2.0978144918e+000
 1.6479685244e+000	 3.2650681924e-001	 2.7468312824e+000
 1.6445769779e+000	 3.4318136128e-001	 2.6953822039e+000
 1.6410056728e+000	 3.5987105469e-001	 2.6425714258e+000
 1.6372535881e+000	 3.7657321519e-001	 2.5877854769e+000
 1.6333197521e+000	 3.9328512212e-001	 2.5303741633e+000
 1.6292032431e+000	 4.1000401947e-001	 2.4696544128e+000
 1.6249031912e+000	 4.2672711690e-001	 2.4049150174e+000
 1.6204187794e+000	 4.4345159086e-001	 2.3354223520e+000
 1.6157492446e+000	 4.6017458572e-001	 2.2604271452e+000
 1.6108938790e+000	 4.7689321498e-001	 2.1791723753e+000
 1.6058520314e+000	 4.9360456246e-001	 2.0909023609e+000
 1.6545074203e+000	 3.2780235012e-001	 2.7380022776e+000
 1.6511024166e+000	 3.4454305427e-001	 2.6865867769e+000
 1.6475169411e+000	 3.6129896992e-001	 2.6338783145e+000
 1.6437499687e+000	 3.7806740213e-001	 2.5792564151e+000
 1.6398005238e+000	 3.9484561945e-001	 2.5220619529e+000
 1.6356676811e+000	 4.1163085491e-001	 2.4616008296e+000
 1.6313505672e+000	 4.2842030713e-001	 2.3971485647e+000
 1.6268483619e+000	 4.4521114133e-001	 2.3279558814e+000
 1.6221602991e+000	 4.6200049057e-001	 2.2532553654e+000
 1.6172856682e+000	 4.7878545687e-001	 2.1722692723e+000
 1.6122238153e+000	 4.9556311252e-001	 2.0842185564e+000
 1.6610463162e+000	 3.2909788099e-001	 2.7293188257e+000
 1.6576278554e+000	 3.4590474727e-001	 2.6779309068e+000
 1.6540282094e+000	 3.6272688516e-001	 2.6253134282e+000
 1.6502463493e+000	 3.7956158907e-001	 2.5708415370e+000
 1.6462812955e+000	 3.9640611677e-001	 2.5138497499e+000
 1.6421321191e+000	 4.1325769035e-001	 2.4536354512e+000
 1.6377979433e+000	 4.3011349735e-001	 2.3894633215e+000
 1.6332779445e+000	 4.4697069180e-001	 2.3205707785e+000
 1.6285713536e+000	 4.6382639541e-001	 2.2461745128e+000
 1.6236774574e+000	 4.8067769877e-001	 2.1654781966e+000
 1.6185955991e+000	 4.9752166258e-001	 2.0776814403e+000
 1.6675852121e+000	 3.3039341186e-001	 2.7207357153e+000
 1.6641532941e+000	 3.4726644026e-001	 2.6693672472e+000
 1.6605394777e+000	 3.6415480039e-001	 2.6168269744e+000
 1.6567427299e+000	 3.8105577602e-001	 2.5624882960e+000
 1.6527620673e+000	 3.9796661409e-001	 2.5056819467e+000
 1.6485965572e+000	 4.1488452580e-001	 2.4456993043e+000
 1.6442453194e+000	 4.3180668757e-001	 2.3817966434e+000
 1.6397075271e+000	 4.4873024227e-001	 2.3132004212e+000
 1.6349824082e+000	 4.6565230025e-001	 2.2391136788e+000
 1.6300692465e+000	 4.8256994067e-001	 2.1587236404e+000
 1.6249673830e+000	 4.9948021263e-001	 2.0712105864e+000
 1.6741241080e+000	 3.3168894273e-001	 2.7122085134e+000
 1.6706787328e+000	 3.4862813326e-001	 2.6608492375e+000
 1.6670507461e+000	 3.6558271563e-001	 2.6083699589e+000
 1.6632391106e+000	 3.8254996296e-001	 2.5541449623e+000
 1.6592428390e+000	 3.9952711142e-001	 2.4975037786e+000
 1.6550609952e+000	 4.1651136124e-001	 2.4377342913e+000
 1.6506926954e+000	 4.3349987780e-001	 2.3740868035e+000
 1.6461371097e+000	 4.5048979273e-001	 2.3057791564e+000
 1.6413934627e+000	 4.6747820510e-001	 2.2320029854e+000
 1.6364610357e+000	 4.8446218256e-001	 2.1519311983e+000
 1.6313391669e+000	 5.0143876269e-001	 2.0647267557e+000
 1.6806630039e+000	 3.3298447361e-001	 2.7036935514e+000
 1.6772041716e+000	 3.4998982625e-001	 2.6523310881e+000
 1.6735620144e+000	 3.6701063086e-001	 2.5998941707e+000
 1.6697354912e+000	 3.8404414990e-001	 2.5457606067e+000
 1.6657236107e+000	 4.0108760874e-001	 2.4892613059e+000
 1.6615254332e+000	 4.1813819668e-001	 2.4296831723e+000
 1.6571400715e+000	 4.3519306802e-001	 2.3662729733e+000
 1.6525666922e+000	 4.5224934320e-001	 2.2982422794e+000
 1.6478045173e+000	 4.6930410994e-001	 2.2247735629e+000
 1.6428528249e+000	 4.8635442446e-001	 2.1450275447e+000
 1.6377109508e+000	 5.0339731275e-001	 2.0581518712e+000
 1.6872018998e+000	 3.3428000448e-001	 2.6951479112e+000
 1.6837296103e+000	 3.5135151924e-001	 2.6437677661e+000
 1.6800732827e+000	 3.6843854610e-001	 2.5913521663e+000
 1.6762318718e+000	 3.8553833685e-001	 2.5372850847e+000
 1.6722043824e+000	 4.0264810606e-001	 2.4809013972e+000
 1.6679898712e+000	 4.1976503212e-001	 2.4214895467e+000
 1.6635874475e+000	 4.3688625824e-001	 2.3582952036e+000
 1.6589962748e+000	 4.5400889367e-001	 2.2905260135e+000
 1.6542155718e+000	 4.7113001478e-001	 2.2173575287e+000
 1.6492446141e+000	 4.8824666635e-001	 2.1379404111e+000
 1.6440827346e+000	 5.0535586280e-001	 2.0514089945e+000
 1.6937407957e+000	 3.3557553535e-001	 2.6865294114e+000
 1.6902550491e+000	 3.5271321224e-001	 2.6351149806e+000
 1.6865845511e+000	 3.6986646133e-001	 2.5826972544e+000
 1.6827282524e+000	 3.8703252379e-001	 2.5286690205e+000
 1.6786851542e+000	 4.0420860339e-001	 2.4723717125e+000
 1.6744543093e+000	 4.2139186756e-001	 2.4130978360e+000
 1.6700348236e+000	 4.3857944847e-001	 2.3500944055e+000
 1.6654258574e+000	 4.5576844414e-001	 2.2825674907e+000
 1.6606266264e+000	 4.7295591963e-001	 2.2096879668e+000
 1.6556364033e+000	 4.9013890825e-001	 2.1305985635e+000
 1.6504545185e+000	 5.0731441286e-001	 2.0444223015e+000
 1.7002796916e+000	 3.3687106623e-001	 2.6777965939e+000
 1.6967804878e+000	 3.5407490523e-001	 2.6263291687e+000
 1.6930958194e+000	 3.7129437657e-001	 2.5738834815e+000
 1.6892246330e+000	 3.8852671073e-001	 2.5198637910e+000
 1.6851659259e+000	 4.0576910071e-001	 2.4636206869e+000
 1.6809187473e+000	 4.2301870300e-001	 2.4044532657e+000
 1.6764821997e+000	 4.4027263869e-001	 2.3416123322e+000
 1.6718554400e+000	 4.5752799460e-001	 2.2743047313e+000
 1.6670376810e+000	 4.7478182447e-001	 2.2016989060e+000
 1.6620281924e+000	 4.9203115015e-001	 2.1229317804e+000
 1.6568263024e+000	 5.0927296292e-001	 2.0371170598e+000
 1.5931084637e+000	 4.8968746235e-001	 2.1050378238e+000
 1.5879210350e+000	 5.0625604814e-001	 2.0114798735e+000
 1.5825474817e+000	 5.2281153934e-001	 1.9156608893e+000
 1.5769873296e+000	 5.3935096097e-001	 1.8181413893e+000
 1.5712401651e+000	 5.5587131393e-001	 1.7195396118e+000
 1.5653056354e+000	 5.7236957642e-001	 1.6205455314e+000
 1.5591834502e+000	 5.8884270545e-001	 1.5219362480e+000
 1.5528733820e+000	 6.0528763838e-001	 1.4245927669e+000
 1.5463752677e+000	 6.2170129446e-001	 1.3295181772e+000
 1.5396890085e+000	 6.3808057644e-001	 1.2378572264e+000
 1.5328145713e+000	 6.5442237221e-001	 1.1509172770e+000
 1.5994802475e+000	 4.9164601241e-001	 2.0978144918e+000
 1.5942720712e+000	 5.0828086578e-001	 2.0042714277e+000
 1.5888770259e+000	 5.2490257219e-001	 1.9083348234e+000
 1.5832946355e+000	 5.4150814476e-001	 1.8105784994e+000
 1.5775244847e+000	 5.5809457239e-001	 1.7116307614e+000
 1.5715662193e+000	 5.7465882119e-001	 1.6121884267e+000
 1.5654195478e+000	 5.9119783603e-001	 1.5130322637e+000
 1.5590842420e+000	 6.0770854198e-001	 1.4150438605e+000
 1.5525601378e+000	 6.2418784599e-001	 1.3192239347e+000
 1.5458471363e+000	 6.4063263841e-001	 1.2267120820e+000
 1.5389452042e+000	 6.5703979470e-001	 1.1388079506e+000
 1.6058520314e+000	 4.9360456246e-001	 2.0909023609e+000
 1.6006231075e+000	 5.1030568342e-001	 1.9974283995e+000
 1.5952065702e+000	 5.2699360504e-001	 1.9014286836e+000
 1.5896019415e+000	 5.4366532855e-001	 1.8034856189e+000
 1.5838088043e+000	 5.6031783085e-001	 1.7042327749e+000
 1.5778268032e+000	 5.7694806597e-001	 1.6043689290e+000
 1.5716556455e+000	 5.9355296660e-001	 1.5046735595e+000
 1.5652951020e+000	 6.1012944557e-001	 1.4060238113e+000
 1.5587450080e+000	 6.2667439751e-001	 1.3094129437e+000
 1.5520052641e+000	 6.4318470038e-001	 1.2159702615e+000
 1.5450758371e+000	 6.5965721718e-001	 1.1269825167e+000
 1.6122238153e+000	 4.9556311252e-001	 2.0842185564e+000
 1.6069741438e+000	 5.1233050106e-001	 1.9908629980e+000
 1.6015361144e+000	 5.2908463789e-001	 1.8948505062e+000
 1.5959092474e+000	 5.4582251234e-001	 1.7967674189e+000
 1.5900931239e+000	 5.6254108931e-001	 1.6972478300e+000
 1.5840873871e+000	 5.7923731075e-001	 1.5969876536e+000
 1.5778917431e+000	 5.9590809717e-001	 1.4967601781e+000
 1.5715059619e+000	 6.1255034917e-001	 1.3974331335e+000
 1.5649298781e+000	 6.2916094903e-001	 1.2999872855e+000
 1.5581633920e+000	 6.4573676234e-001	 1.2055365576e+000
 1.5512064700e+000	 6.6227463966e-001	 1.1153496692e+000
 1.6185955991e+000	 4.9752166258e-001	 2.0776814403e+000
 1.6133251801e+000	 5.1435531870e-001	 1.9844887610e+000
 1.6078656587e+000	 5.3117567074e-001	 1.8885097432e+000
 1.6022165533e+000	 5.4797969613e-001	 1.7903300696e+000
 1.5963774435e+000	 5.6476434777e-001	 1.6905796810e+000
 1.5903479710e+000	 5.8152655553e-001	 1.5899468652e+000
 1.5841278408e+000	 5.9826322774e-001	 1.4891938771e+000
 1.5777168219e+000	 6.1497125276e-001	 1.3891741146e+000
 1.5711147483e+000	 6.3164750055e-001	 1.2908508658e+000
 1.5643215198e+000	 6.4828882431e-001	 1.1953176300e+000
 1.5573371029e+000	 6.6489206214e-001	 1.1038200025e+000
 1.6249673830e+000	 4.9948021263e-001	 2.0712105864e+000
 1.6196762163e+000	 5.1638013634e-001	 1.9782205281e+000
 1.6141952029e+000	 5.3326670359e-001	 1.8823172350e+000
 1.6085238592e+000	 5.5013687991e-001	 1.7840812116e+000
 1.6026617631e+000	 5.6698760622e-001	 1.6841336297e+000
 1.5966085549e+000	 5.8381580030e-001	 1.5831504473e+000
 1.5903639384e+000	 6.0061835831e-001	 1.4818780987e+000
 1.5839276818e+000	 6.1739215636e-001	 1.3811507858e+000
 1.5772996184e+000	 6.3413405207e-001	 1.2819093852e+000
 1.5704796477e+000	 6.5084088628e-001	 1.1852219769e+000
 1.5634677358e+000	 6.6750948463e-001	 1.0923197736e+000
 1.6313391669e+000	 5.0143876269e-001	 2.0647267557e+000
 1.6260272526e+000	 5.1840495398e-001	 1.9719744143e+000
 1.6205247472e+000	 5.3535773644e-001	 1.8761851825e+000
 1.6148311651e+000	 5.5229406370e-001	 1.7779299269e+000
 1.6089460827e+000	 5.6921086468e-001	 1.6778164963e+000
 1.6028691388e+000	 5.8610504508e-001	 1.5765038731e+000
 1.5966000361e+000	 6.0297348889e-001	 1.4747179402e+000
 1.5901385418e+000	 6.1981305995e-001	 1.3732688924e+000
 1.5834844886e+000	 6.3662060359e-001	 1.2730703109e+000
 1.5766377755e+000	 6.5339294824e-001	 1.1751599069e+000
 1.5695983687e+000	 6.7012690711e-001	 1.0809701514e+000
 1.6377109508e+000	 5.0339731275e-001	 2.0581518712e+000
 1.6323782889e+000	 5.2042977162e-001	 1.9656677847e+000
 1.6268542914e+000	 5.3744876929e-001	 1.8700271206e+000
 1.6211384710e+000	 5.5445124749e-001	 1.7717867117e+000
 1.6152304023e+000	 5.7143412314e-001	 1.6715365902e+000
 1.6091297227e+000	 5.8839428986e-001	 1.5699141760e+000
 1.6028361337e+000	 6.0532861946e-001	 1.4676201247e+000
 1.5963494017e+000	 6.2223396355e-001	 1.3654358648e+000
 1.5896693587e+000	 6.3910715512e-001	 1.2642428472e+000
 1.5827959034e+000	 6.5594501021e-001	 1.1650435114e+000
 1.5757290016e+000	 6.7274432959e-001	 1.0697626221e+000
 1.6440827346e+000	 5.0535586280e-001	 2.0514089945e+000
 1.6387293251e+000	 5.2245458926e-001	 1.9592192282e+000
 1.6331838357e+000	 5.3953980214e-001	 1.8637578908e+000
 1.6274457769e+000	 5.5660843128e-001	 1.7655634483e+000
 1.6215147219e+000	 5.7365738160e-001	 1.6652036826e+000
 1.6153903066e+000	 5.9068353464e-001	 1.5632899218e+000
 1.6090722314e+000	 6.0768375003e-001	 1.4604929726e+000
 1.6025602617e+000	 6.2465486714e-001	 1.3575607904e+000
 1.5958542289e+000	 6.4159370664e-001	 1.2553379089e+000
 1.5889540312e+000	 6.5849707218e-001	 1.1547866377e+000
 1.5818596345e+000	 6.7536175207e-001	 1.0586221811e+000
 1.6504545185e+000	 5.0731441286e-001	 2.0444223015e+000
 1.6450803614e+000	 5.2447940690e-001	 1.9525485332e+000
 1.6395133799e+000	 5.4163083499e-001	 1.8572936162e+000
 1.6337530828e+000	 5.5876561506e-001	 1.7591733783e+000
 1.6277990415e+000	 5.7588064006e-001	 1.6587289785e+000
 1.6216508905e+000	 5.9297277941e-001	 1.5565411800e+000
 1.6153083291e+000	 6.1003888060e-001	 1.4532463736e+000
 1.6087711217e+000	 6.2707577074e-001	 1.3495543853e+000
 1.6020390990e+000	 6.4408025816e-001	 1.2462680928e+000
 1.5951121590e+000	 6.6104913414e-001	 1.1443048622e+000
 1.5879902674e+000	 6.7797917455e-001	 1.0474747312e+000
 1.6568263024e+000	 5.0927296292e-001	 2.0371170598e+000
 1.6514313977e+000	 5.2650422454e-001	 1.9455766627e+000
 1.6458429242e+000	 5.4372186784e-001	 1.8505516746e+000
 1.6400603887e+000	 5.6092279885e-001	 1.7525310764e+000
 1.6340833611e+000	 5.7810389852e-001	 1.6520250894e+000
 1.6279114744e+000	 5.9526202419e-001	 1.5495794965e+000
 1.6215444267e+000	 6.1239401118e-001	 1.4457917588e+000
 1.6149819816e+000	 6.2949667433e-001	 1.3413289670e+000
 1.6082239692e+000	 6.4656680968e-001	 1.2369476513e+000
 1.6012702869e+000	 6.6360119611e-001	 1.1335154644e+000
 1.5941209003e+000	 6.8059659704e-001	 1.0362470668e+000
 1.5328145713e+000	 6.5442237221e-001	 1.1509172770e+000
 1.5257530632e+000	 6.7072111478e-001	 1.0572613601e+000
 1.5185035681e+000	 6.8697612351e-001	 9.5235810015e-001
 1.5110662548e+000	 7.0318425419e-001	 8.4105059497e-001
 1.5034413604e+000	 7.1934235468e-001	 7.2520265183e-001
 1.4956291903e+000	 7.3544726669e-001	 6.0666776228e-001
 1.4876301193e+000	 7.5149582763e-001	 4.8728494154e-001
 1.4794445913e+000	 7.6748487245e-001	 3.6887430417e-001
 1.4710731202e+000	 7.8341123546e-001	 2.5323237617e-001
 1.4625162902e+000	 7.9927175231e-001	 1.4212714655e-001
 1.4537747557e+000	 8.1506326180e-001	 3.7292864000e-002
 1.5389452042e+000	 6.5703979470e-001	 1.1388079506e+000
 1.5318554529e+000	 6.7340372558e-001	 1.0446727906e+000
 1.5245769628e+000	 6.8972374771e-001	 9.4057585933e-001
 1.5171099033e+000	 7.0599670431e-001	 8.3016488313e-001
 1.5094545124e+000	 7.2221943061e-001	 7.1521815652e-001
 1.5016110969e+000	 7.3838875569e-001	 5.9750488202e-001
 1.4935800328e+000	 7.5450150433e-001	 4.7878117604e-001
 1.4853617660e+000	 7.7055449880e-001	 3.6078580286e-001
 1.4769568125e+000	 7.8654456077e-001	 2.4523563636e-001
 1.4683657587e+000	 8.0246851322e-001	 1.3382085164e-001
 1.4595892615e+000	 8.1832318230e-001	 2.8199851907e-002
 1.5450758371e+000	 6.5965721718e-001	 1.1269825167e+000
 1.5379578427e+000	 6.7608633638e-001	 1.0325409451e+000
 1.5306503575e+000	 6.9247137192e-001	 9.2917538093e-001
 1.5231535518e+000	 7.0880915442e-001	 8.1958906780e-001
 1.5154676645e+000	 7.2509650653e-001	 7.0547825230e-001
 1.5075930034e+000	 7.4133024470e-001	 5.8853133082e-001
 1.4995299463e+000	 7.5750718103e-001	 4.7042501713e-001
 1.4912789408e+000	 7.7362412516e-001	 3.5282022954e-001
 1.4828405048e+000	 7.8967788608e-001	 2.3735769659e-001
 1.4742152272e+000	 8.0566527412e-001	 1.2565328303e-001
 1.4654037674e+000	 8.2158310280e-001	 1.9293040871e-002
 1.5512064700e+000	 6.6227463966e-001	 1.1153496692e+000
 1.5440602324e+000	 6.7876894719e-001	 1.0207896766e+000
 1.5367237522e+000	 6.9521899613e-001	 9.1808407756e-001
 1.5291972003e+000	 7.1162160454e-001	 8.0925396906e-001
 1.5214808165e+000	 7.2797358246e-001	 6.9591696220e-001
 1.5135749100e+000	 7.4427173370e-001	 5.7968407834e-001
 1.5054798598e+000	 7.6051285773e-001	 4.6215607355e-001
 1.4971961155e+000	 7.7669375151e-001	 3.4491947378e-001
 1.4887241971e+000	 7.9281121139e-001	 2.2954231919e-001
 1.4800646956e+000	 8.0886203503e-001	 1.1756961867e-001
 1.4712182733e+000	 8.2484302330e-001	 1.0518519010e-002
 1.5573371029e+000	 6.6489206214e-001	 1.1038200025e+000
 1.5501626222e+000	 6.8145155799e-001	 1.0093438069e+000
 1.5427971469e+000	 6.9796662033e-001	 9.0723030400e-001
 1.5352408488e+000	 7.1443405465e-001	 7.9909132529e-001
 1.5274939686e+000	 7.3085065838e-001	 6.8646920689e-001
 1.5195568165e+000	 7.4721322270e-001	 5.7090097501e-001
 1.5114297734e+000	 7.6351853443e-001	 4.5391482232e-001
 1.5031132903e+000	 7.7976337786e-001	 3.3702628617e-001
 1.4946078894e+000	 7.9594453670e-001	 2.2173412608e-001
 1.4859141641e+000	 8.1205879593e-001	 1.0951590118e-001
 1.4770327792e+000	 8.2810294380e-001	 1.8232514703e-003
 1.5634677358e+000	 6.6750948463e-001	 1.0923197736e+000
 1.5562650119e+000	 6.8413416879e-001	 9.9812910787e-001
 1.5488705417e+000	 7.0071424454e-001	 8.9654333983e-001
 1.5412844974e+000	 7.1724650477e-001	 7.8903377640e-001
 1.5335071206e+000	 7.3372773430e-001	 6.7707078835e-001
 1.5255387231e+000	 7.5015471170e-001	 5.6212073599e-001
 1.5173796869e+000	 7.6652421112e-001	 4.4564259303e-001
 1.5090304650e+000	 7.8283300422e-001	 3.2908426268e-001
 1.5004915817e+000	 7.9907786200e-001	 2.1387858307e-001
 1.4917636325e+000	 8.1525555683e-001	 1.0143902194e-001
 1.4828472851e+000	 8.3136286430e-001	-6.8449359353e-003
 1.5695983687e+000	 6.7012690711e-001	 1.0809701514e+000
 1.5623674017e+000	 6.8681677959e-001	 9.8707228468e-001
 1.5549439364e+000	 7.0346186874e-001	 8.8595337258e-001
 1.5473281459e+000	 7.2005895488e-001	 7.7901484756e-001
 1.5395202726e+000	 7.3660481023e-001	 6.6765837400e-001
 1.5315206296e+000	 7.5309620070e-001	 5.5328292572e-001
 1.5233296004e+000	 7.6952988782e-001	 4.3728155254e-001
 1.5149476398e+000	 7.8590263057e-001	 3.2103782942e-001
 1.5063752740e+000	 8.0221118731e-001	 2.0592198452e-001
 1.4976131010e+000	 8.1845231774e-001	 9.3286705497e-002
 1.4886617910e+000	 8.3462278480e-001	-1.5537372709e-002
 1.5757290016e+000	 6.7274432959e-001	 1.0697626221e+000
 1.5684697914e+000	 6.8949939039e-001	 9.7610095820e-001
 1.5610173311e+000	 7.0620949295e-001	 8.7539148124e-001
 1.5533717944e+000	 7.2287140500e-001	 7.6896893322e-001
 1.5455334247e+000	 7.3948188615e-001	 6.5816948127e-001
 1.5375025362e+000	 7.5603768971e-001	 5.4432794276e-001
 1.5292795140e+000	 7.7253556452e-001	 4.2877469007e-001
 1.5208648145e+000	 7.8897225692e-001	 3.1283222785e-001
 1.5122589662e+000	 8.0534451262e-001	 1.9781143844e-001
 1.5034625694e+000	 8.2164907864e-001	 8.5007494421e-002
 1.4944762969e+000	 8.3788270530e-001	-2.4304559272e-002
 1.5818596345e+000	 6.7536175207e-001	 1.0586221811e+000
 1.5745721812e+000	 6.9218200120e-001	 9.6514364860e-001
 1.5670907259e+000	 7.0895711715e-001	 8.6478962027e-001
 1.5594154429e+000	 7.2568385511e-001	 7.5883128167e-001
 1.5515465767e+000	 7.4235896208e-001	 6.4854246252e-001
 1.5434844427e+000	 7.5897917871e-001	 5.3519700507e-001
 1.5352294275e+000	 7.7554124122e-001	 4.2006580266e-001
 1.5267819893e+000	 7.9204188328e-001	 3.0441350021e-001
 1.5181426585e+000	 8.0847783793e-001	 1.8949485192e-001
 1.5093120379e+000	 8.2484583955e-001	 7.6550734474e-002
 1.5002908027e+000	 8.4114262580e-001	-3.3196182198e-002
 1.5879902674e+000	 6.7797917455e-001	 1.0474747312e+000
 1.5806745709e+000	 6.9486461200e-001	 9.5412975911e-001
 1.5731641206e+000	 7.1170474136e-001	 8.5408060401e-001
 1.5654590914e+000	 7.2849630523e-001	 7.4853797996e-001
 1.5575597288e+000	 7.4523603800e-001	 6.3871649036e-001
 1.5494663493e+000	 7.6192066771e-001	 5.2583213563e-001
 1.5411793410e+000	 7.7854691792e-001	 4.1109948098e-001
 1.5326991640e+000	 7.9511150963e-001	 2.9572847548e-001
 1.5240263508e+000	 8.1161116324e-001	 1.8092091691e-001
 1.5151615064e+000	 8.2804260045e-001	 6.7866560146e-002
 1.5061053086e+000	 8.4440254630e-001	-4.2261129103e-002
 1.5941209003e+000	 6.8059659704e-001	 1.0362470668e+000
 1.5867769606e+000	 6.9754722280e-001	 9.4298956027e-001
 1.5792375153e+000	 7.1445236556e-001	 8.4319809149e-001
 1.5715027399e+000	 7.3130875535e-001	 7.3802593919e-001
 1.5635728808e+000	 7.4811311393e-001	 6.2863154341e-001
 1.5554482558e+000	 7.6486215671e-001	 5.1617614846e-001
 1.5471292545e+000	 7.8155259462e-001	 4.0182109552e-001
 1.5386163388e+000	 7.9818113599e-001	 2.8672475558e-001
 1.5299100431e+000	 8.1474448855e-001	 1.7203909633e-001
 1.5210109748e+000	 8.3123936136e-001	 5.8905880538e-002
 1.5119198145e+000	 8.4766246680e-001	-5.1547503181e-002
 1.4537747557e+000	 8.1506326180e-001	 3.7292864000e-002
 1.4448478888e+000	 8.3078496057e-001	-6.3297513726e-002
 1.4357377841e+000	 8.4643132472e-001	-1.6271169074e-001
 1.4264453092e+000	 8.6199921372e-001	-2.6083903341e-001
 1.4169714025e+000	 8.7748549806e-001	-3.5755594442e-001
 1.4073170729e+000	 8.9288706115e-001	-4.5272894895e-001
 1.3974833999e+000	 9.0820080129e-001	-5.4621803144e-001
 1.3874715330e+000	 9.2342363367e-001	-6.3788020348e-001
 1.3772826917e+000	 9.3855249233e-001	-7.2757328008e-001
 1.3669181652e+000	 9.5358433207e-001	-8.1515983908e-001
 1.3563793115e+000	 9.6851613048e-001	-9.0051133521e-001
 1.4595892615e+000	 8.1832318230e-001	 2.8199851907e-002
 1.4506266909e+000	 8.3410776145e-001	-7.3420218113e-002
 1.4414801494e+000	 8.4981670467e-001	-1.7378933756e-001
 1.4321505084e+000	 8.6544685888e-001	-2.7274679032e-001
 1.4226387100e+000	 8.8099508204e-001	-3.7011962221e-001
 1.4129457670e+000	 8.9645824509e-001	-4.6572588120e-001
 1.4030727633e+000	 9.1183323395e-001	-5.5937811615e-001
 1.3930208531e+000	 9.2711695145e-001	-6.5088711388e-001
 1.3827912606e+000	 9.4230631937e-001	-7.4006585118e-001
 1.3723852801e+000	 9.5739828034e-001	-8.2673363565e-001
 1.3618042754e+000	 9.7238979984e-001	-9.1072040607e-001
 1.4654037674e+000	 8.2158310280e-001	 1.9293040871e-002
 1.4564054929e+000	 8.3743056233e-001	-8.3293591281e-002
 1.4472225148e+000	 8.5320208462e-001	-1.8455622925e-001
 1.4378557077e+000	 8.6889450404e-001	-2.8428873080e-001
 1.4283060175e+000	 8.8450466602e-001	-3.8227338885e-001
 1.4185744611e+000	 9.0002942904e-001	-4.7828431889e-001
 1.4086621268e+000	 9.1546566660e-001	-5.7209111304e-001
 1.3985701731e+000	 9.3081026923e-001	-6.6346273979e-001
 1.3882998294e+000	 9.4606014641e-001	-7.5217166563e-001
 1.3778523951e+000	 9.6121222860e-001	-8.3799817134e-001
 1.3672292392e+000	 9.7626346921e-001	-9.2073483306e-001
 1.4712182733e+000	 8.2484302330e-001	 1.0518519010e-002
 1.4621842950e+000	 8.4075336321e-001	-9.2970662775e-002
 1.4529648802e+000	 8.5658746458e-001	-1.9506399736e-001
 1.4435609069e+000	 8.7234214920e-001	-2.9551452096e-001
 1.4339733249e+000	 8.8801425000e-001	-3.9406432546e-001
 1.4242031553e+000	 9.0360061298e-001	-4.9044808631e-001
 1.4142514902e+000	 9.1909809926e-001	-5.8439686518e-001
 1.4041194932e+000	 9.3450358700e-001	-6.7564216616e-001
 1.3938083983e+000	 9.4981397344e-001	-7.6392022082e-001
 1.3833195100e+000	 9.6502617687e-001	-8.4897647416e-001
 1.3726542031e+000	 9.8013713858e-001	-9.3057024079e-001
 1.4770327792e+000	 8.2810294380e-001	 1.8232514703e-003
 1.4679630971e+000	 8.4407616409e-001	-1.0250357306e-001
 1.4587072455e+000	 8.5997284453e-001	-2.0536338123e-001
 1.4492661062e+000	 8.7578979436e-001	-3.0647294120e-001
 1.4396406324e+000	 8.9152383397e-001	-4.0553864447e-001
 1.4298318494e+000	 9.0717179693e-001	-5.0226016728e-001
 1.4198408536e+000	 9.2273053192e-001	-5.9633441546e-001
 1.4096688132e+000	 9.3819690478e-001	-6.8745973082e-001
 1.3993169671e+000	 9.5356780048e-001	-7.7534033358e-001
 1.3887866250e+000	 9.6884012513e-001	-8.5969097233e-001
 1.3780791669e+000	 9.8401080794e-001	-9.4024174976e-001
 1.4828472851e+000	 8.3136286430e-001	-6.8449359353e-003
 1.4737418991e+000	 8.4739896497e-001	-1.1194359037e-001
 1.4644496109e+000	 8.6335822448e-001	-2.1550424506e-001
 1.4549713054e+000	 8.7923743951e-001	-3.1721190354e-001
 1.4453079399e+000	 8.9503341795e-001	-4.1674170694e-001
 1.4354605435e+000	 9.1074298087e-001	-5.1376272235e-001
 1.4254302171e+000	 9.2636296458e-001	-6.0794202343e-001
 1.4152181333e+000	 9.4189022256e-001	-6.9894904071e-001
 1.4048255359e+000	 9.5732162752e-001	-7.8646015560e-001
 1.3942537400e+000	 9.7265407340e-001	-8.7016350861e-001
 1.3835041307e+000	 9.8788447731e-001	-9.4976398930e-001
 1.4886617910e+000	 8.3462278480e-001	-1.5537372709e-002
 1.4795207012e+000	 8.5072176585e-001	-1.2134112712e-001
 1.4701919762e+000	 8.6674360444e-001	-2.2553559479e-001
 1.4606765047e+000	 8.8268508467e-001	-3.2777846858e-001
 1.4509752474e+000	 8.9854300193e-001	-4.2771803954e-001
 1.4410892376e+000	 9.1431416482e-001	-5.2499710565e-001
 1.4310195805e+000	 9.2999539724e-001	-6.1925718174e-001
 1.4207674533e+000	 9.4558354034e-001	-7.1014298778e-001
 1.4103341048e+000	 9.6107545456e-001	-7.9730718845e-001
 1.3997208549e+000	 9.7646802166e-001	-8.8041535425e-001
 1.3889290946e+000	 9.9175814668e-001	-9.5915111027e-001
 1.4944762969e+000	 8.3788270530e-001	-2.4304559272e-002
 1.4852995032e+000	 8.5404456673e-001	-1.3074575598e-001
 1.4759343416e+000	 8.7012898439e-001	-2.3550559442e-001
 1.4663817039e+000	 8.8613272983e-001	-3.3821886207e-001
 1.4566425549e+000	 9.0205258590e-001	-4.3851135119e-001
 1.4467179317e+000	 9.1788534877e-001	-5.3600388129e-001
 1.4366089439e+000	 9.3362782990e-001	-6.3031663229e-001
 1.4263167733e+000	 9.4927685811e-001	-7.2107376453e-001
 1.4158426736e+000	 9.6482928160e-001	-8.0790829846e-001
 1.4051879699e+000	 9.8028196993e-001	-8.9046722288e-001
 1.3943540584e+000	 9.9563181605e-001	-9.6841679757e-001
 1.5002908027e+000	 8.4114262580e-001	-3.3196182198e-002
 1.4910783053e+000	 8.5736736761e-001	-1.4020622558e-001
 1.4816767070e+000	 8.7351436434e-001	-2.4546158208e-001
 1.4720869032e+000	 8.8958037499e-001	-3.4857849118e-001
 1.4623098624e+000	 9.0556216988e-001	-4.4916454928e-001
 1.4523466258e+000	 9.2145653271e-001	-5.4682283956e-001
 1.4421983074e+000	 9.3726026255e-001	-6.4115638199e-001
 1.4318660934e+000	 9.5297017589e-001	-7.3177287936e-001
 1.4213512424e+000	 9.6858310864e-001	-8.1828973120e-001
 1.4106550848e+000	 9.8409591820e-001	-9.0033928401e-001
 1.3997790223e+000	 9.9950548541e-001	-9.7757428251e-001
 1.5061053086e+000	 8.4440254630e-001	-4.2261129103e-002
 1.4968571074e+000	 8.6069016849e-001	-1.4977047584e-001
 1.4874190723e+000	 8.7689974430e-001	-2.5545008567e-001
 1.4777921024e+000	 8.9302802015e-001	-3.5890196029e-001
 1.4679771699e+000	 9.0907175386e-001	-4.5971975563e-001
 1.4579753199e+000	 9.2502771666e-001	-5.5749301268e-001
 1.4477876708e+000	 9.4089269521e-001	-6.5181171832e-001
 1.4374154134e+000	 9.5666349367e-001	-7.4227117148e-001
 1.4268598113e+000	 9.7233693568e-001	-8.2847712577e-001
 1.4161221998e+000	 9.8790986646e-001	-9.1005117636e-001
 1.4052039861e+000	 1.0033791548e+000	-9.8663635491e-001
 1.5119198145e+000	 8.4766246680e-001	-5.1547503181e-002
 1.5026359094e+000	 8.6401296938e-001	-1.5948565295e-001
 1.4931614377e+000	 8.8028512425e-001	-2.6551683822e-001
 1.4834973017e+000	 8.9647566531e-001	-3.6923308661e-001
 1.4736444774e+000	 9.1258133784e-001	-4.7021832204e-001
 1.4636040140e+000	 9.2859890061e-001	-5.6805269027e-001
 1.4533770342e+000	 9.4452512788e-001	-6.6231722446e-001
 1.4429647335e+000	 9.6035681145e-001	-7.5259882568e-001
 1.4323683801e+000	 9.7609076273e-001	-8.3849552884e-001
 1.4215893148e+000	 9.9172381473e-001	-9.1962202098e-001
 1.4106289500e+000	 1.0072528242e+000	-9.9561537506e-001
 1.3563793115e+000	 9.6851613048e-001	-9.0051133521e-001
 1.3456675574e+000	 9.8334488948e-001	-9.8462028048e-001
 1.3347843959e+000	 9.9806763634e-001	-1.0686344616e+000
 1.3237313874e+000	 1.0126814265e+000	-1.1503484674e+000
 1.3125101591e+000	 1.0271833457e+000	-1.2261768894e+000
 1.3011224045e+000	 1.0415705121e+000	-1.2966007466e+000
 1.2895698824e+000	 1.0558400780e+000	-1.3623452010e+000
 1.2778544158e+000	 1.0699892316e+000	-1.4243121339e+000
 1.2659778918e+000	 1.0840151991e+000	-1.4835681669e+000
 1.2539422598e+000	 1.0979152461e+000	-1.5413312724e+000
 1.2417495307e+000	 1.1116866797e+000	-1.5989560640e+000
 1.3618042754e+000	 9.7238979984e-001	-9.1072040607e-001
 1.3510496786e+000	 9.8727786784e-001	-9.9313144652e-001
 1.3401229889e+000	 1.0020594997e+000	-1.0752730843e+000
 1.3290257729e+000	 1.0167317390e+000	-1.1568575980e+000
 1.3177596643e+000	 1.0312916600e+000	-1.2334397657e+000
 1.3063263633e+000	 1.0457363692e+000	-1.3043395935e+000
 1.2947276357e+000	 1.0600630075e+000	-1.3703006257e+000
 1.2829653121e+000	 1.0742687520e+000	-1.4322469899e+000
 1.2710412869e+000	 1.0883508176e+000	-1.4912710905e+000
 1.2589575172e+000	 1.1023064591e+000	-1.5486198544e+000
 1.2467160222e+000	 1.1161329729e+000	-1.6056796243e+000
 1.3672292392e+000	 9.7626346921e-001	-9.2073483306e-001
 1.3564317998e+000	 9.9121084619e-001	-1.0015921823e+000
 1.3454615819e+000	 1.0060513630e+000	-1.0820196838e+000
 1.3343201583e+000	 1.0207820515e+000	-1.1622242069e+000
 1.3230091694e+000	 1.0353999743e+000	-1.2397803438e+000
 1.3115303221e+000	 1.0499022263e+000	-1.3113901242e+000
 1.2998853891e+000	 1.0642859370e+000	-1.3777806646e+000
 1.2880762084e+000	 1.0785482724e+000	-1.4398908197e+000
 1.2761046819e+000	 1.0926864361e+000	-1.4988314375e+000
 1.2639727747e+000	 1.1066976722e+000	-1.5558712470e+000
 1.2516825137e+000	 1.1205792660e+000	-1.6124213610e+000
 1.3726542031e+000	 9.8013713858e-001	-9.3057024079e-001
 1.3618139210e+000	 9.9514382454e-001	-1.0100102959e+000
 1.3508001749e+000	 1.0100432263e+000	-1.0888744526e+000
 1.3396145438e+000	 1.0248323641e+000	-1.1673827376e+000
 1.3282586745e+000	 1.0395082886e+000	-1.2451657994e+000
 1.3167342808e+000	 1.0540680834e+000	-1.3177149020e+000
 1.3050431425e+000	 1.0685088666e+000	-1.3847435973e+000
 1.2931871047e+000	 1.0828277927e+000	-1.4471980477e+000
 1.2811680770e+000	 1.0970220546e+000	-1.5062003061e+000
 1.2689880321e+000	 1.1110888852e+000	-1.5630338546e+000
 1.2566490052e+000	 1.1250255592e+000	-1.6191277210e+000
 1.3780791669e+000	 9.8401080794e-001	-9.4024174976e-001
 1.3671960422e+000	 9.9907680290e-001	-1.0183931934e+000
 1.3561387679e+000	 1.0140350897e+000	-1.0958380362e+000
 1.3449089293e+000	 1.0288826766e+000	-1.1727996388e+000
 1.3335081797e+000	 1.0436166029e+000	-1.2495652973e+000
 1.3219382396e+000	 1.0582339404e+000	-1.3232774233e+000
 1.3102008959e+000	 1.0727317961e+000	-1.3911486756e+000
 1.2982980010e+000	 1.0871073131e+000	-1.4541240918e+000
 1.2862314720e+000	 1.1013576732e+000	-1.5133297922e+000
 1.2740032895e+000	 1.1154800982e+000	-1.5700570636e+000
 1.2616154967e+000	 1.1294718523e+000	-1.6257460973e+000
 1.3835041307e+000	 9.8788447731e-001	-9.4976398930e-001
 1.3725781634e+000	 1.0030097812e+000	-1.0267478906e+000
 1.3614773608e+000	 1.0180269530e+000	-1.1029084433e+000
 1.3502033147e+000	 1.0329329891e+000	-1.1784673674e+000
 1.3387576848e+000	 1.0477249171e+000	-1.2537102420e+000
 1.3271421984e+000	 1.0623997975e+000	-1.3280421622e+000
 1.3153586493e+000	 1.0769547256e+000	-1.3969561653e+000
 1.3034088973e+000	 1.0913868335e+000	-1.4606254046e+000
 1.2912948671e+000	 1.1056932917e+000	-1.5201730279e+000
 1.2790185470e+000	 1.1198713113e+000	-1.5768912799e+000
 1.2665819882e+000	 1.1339181455e+000	-1.6322248652e+000
 1.3889290946e+000	 9.9175814668e-001	-9.5915111027e-001
 1.3779602846e+000	 1.0069427596e+000	-1.0350810241e+000
 1.3668159538e+000	 1.0220188163e+000	-1.1100858246e+000
 1.3554977002e+000	 1.0369833017e+000	-1.1843781890e+000
 1.3440071899e+000	 1.0518332314e+000	-1.2582346060e+000
 1.3323461571e+000	 1.0665656546e+000	-1.3319746135e+000
 1.3205164027e+000	 1.0811776552e+000	-1.4021273885e+000
 1.3085197936e+000	 1.0956663538e+000	-1.4666595130e+000
 1.2963582621e+000	 1.1100289102e+000	-1.5266842211e+000
 1.2840338044e+000	 1.1242625243e+000	-1.5834879671e+000
 1.2715484796e+000	 1.1383644386e+000	-1.6385134201e+000
 1.3943540584e+000	 9.9563181605e-001	-9.6841679757e-001
 1.3833424058e+000	 1.0108757380e+000	-1.0433995403e+000
 1.3721545468e+000	 1.0260106797e+000	-1.1173692206e+000
 1.3607920857e+000	 1.0410336142e+000	-1.1905241865e+000
 1.3492566951e+000	 1.0559415457e+000	-1.2631238665e+000
 1.3375501159e+000	 1.0707315117e+000	-1.3354946208e+000
 1.3256741561e+000	 1.0854005847e+000	-1.4066247656e+000
 1.3136306899e+000	 1.0999458742e+000	-1.4721850597e+000
 1.3014216572e+000	 1.1143645287e+000	-1.5328186944e+000
 1.2890490618e+000	 1.1286537374e+000	-1.5897996845e+000
 1.2765149711e+000	 1.1428107318e+000	-1.6445622143e+000
 1.3997790223e+000	 9.9950548541e-001	-9.7757428251e-001
 1.3887245270e+000	 1.0148087163e+000	-1.0517079237e+000
 1.3774931398e+000	 1.0300025430e+000	-1.1247574085e+000
 1.3660864711e+000	 1.0450839267e+000	-1.1968972688e+000
 1.3545062002e+000	 1.0600498600e+000	-1.2683634101e+000
 1.3427540746e+000	 1.0748973688e+000	-1.3394590625e+000
 1.3308319094e+000	 1.0896235142e+000	-1.4104118577e+000
 1.3187415862e+000	 1.1042253946e+000	-1.4771618431e+000
 1.3064850522e+000	 1.1187001472e+000	-1.5385329247e+000
 1.2940643193e+000	 1.1330449504e+000	-1.5957801250e+000
 1.2814814626e+000	 1.1472570250e+000	-1.6503227940e+000
 1.4052039861e+000	 1.0033791548e+000	-9.8663635491e-001
 1.3941066482e+000	 1.0187416947e+000	-1.0600124937e+000
 1.3828317328e+000	 1.0339944064e+000	-1.1322489118e+000
 1.3713808566e+000	 1.0491342393e+000	-1.2034891793e+000
 1.3597557053e+000	 1.0641581743e+000	-1.2739385404e+000
 1.3479580334e+000	 1.0790632259e+000	-1.3438699858e+000
 1.3359896628e+000	 1.0938464438e+000	-1.4136295362e+000
 1.3238524825e+000	 1.1085049150e+000	-1.4815508586e+000
 1.3115484473e+000	 1.1230357658e+000	-1.5437845822e+000
 1.2990795767e+000	 1.1374361634e+000	-1.6013841539e+000
 1.2864479541e+000	 1.1517033181e+000	-1.6557478367e+000
 1.4106289500e+000	 1.0072528242e+000	-9.9561537506e-001
 1.3994887694e+000	 1.0226746730e+000	-1.0683184802e+000
 1.3881703258e+000	 1.0379862697e+000	-1.1398420100e+000
 1.3766752421e+000	 1.0531845518e+000	-1.2102915044e+000
 1.3650052105e+000	 1.0682664886e+000	-1.2798344851e+000
 1.3531619922e+000	 1.0832290830e+000	-1.3487066716e+000
 1.3411474162e+000	 1.0980693733e+000	-1.4172174830e+000
 1.3289633788e+000	 1.1127844353e+000	-1.4853143392e+000
 1.3166118423e+000	 1.1273713843e+000	-1.5485325703e+000
 1.3040948341e+000	 1.1418273765e+000	-1.6065678464e+000
 1.2914144456e+000	 1.1561496113e+000	-1.6607911885e+000
 1.2417495307e+000	 1.1116866797e+000	-1.5989560640e+000
 1.2294036397e+000	 1.1253248144e+000	-1.6524808623e+000
 1.2169049005e+000	 1.1388291223e+000	-1.6976916141e+000
 1.2042555018e+000	 1.1521970472e+000	-1.7357032699e+000
 1.1914576892e+000	 1.1654260806e+000	-1.7677126131e+000
 1.1785137638e+000	 1.1785137638e+000	-1.7949800016e+000
 1.1654260806e+000	 1.1914576892e+000	-1.8188105161e+000
 1.1521970472e+000	 1.2042555018e+000	-1.8405346623e+000
 1.1388291223e+000	 1.2169049005e+000	-1.8614887753e+000
 1.1253248144e+000	 1.2294036397e+000	-1.8829952789e+000
 1.1116866797e+000	 1.2417495307e+000	-1.9063429544e+000
 1.2467160222e+000	 1.1161329729e+000	-1.6056796243e+000
 1.2343207527e+000	 1.1298256545e+000	-1.6585522122e+000
 1.2217720236e+000	 1.1433839742e+000	-1.7030699341e+000
 1.2090720325e+000	 1.1568053653e+000	-1.7403574161e+000
 1.1962230339e+000	 1.1700873094e+000	-1.7716227889e+000
 1.1832273381e+000	 1.1832273381e+000	-1.7981389673e+000
 1.1700873094e+000	 1.1962230339e+000	-1.8212243219e+000
 1.1568053653e+000	 1.2090720325e+000	-1.8422228905e+000
 1.1433839742e+000	 1.2217720236e+000	-1.8624842843e+000
 1.1298256545e+000	 1.2343207527e+000	-1.8833434430e+000
 1.1161329729e+000	 1.2467160222e+000	-1.9061003984e+000
 1.2516825137e+000	 1.1205792660e+000	-1.6124213610e+000
 1.2392378657e+000	 1.1343264946e+000	-1.6646460672e+000
 1.2266391467e+000	 1.1479388260e+000	-1.7084352064e+000
 1.2138885631e+000	 1.1614136834e+000	-1.7449346464e+000
 1.2009883785e+000	 1.1747485383e+000	-1.7753755830e+000
 1.1879409123e+000	 1.1879409123e+000	-1.8010553282e+000
 1.1747485383e+000	 1.2009883785e+000	-1.8233174730e+000
 1.1614136834e+000	 1.2138885631e+000	-1.8435315784e+000
 1.1479388260e+000	 1.2266391467e+000	-1.8630725504e+000
 1.1343264946e+000	 1.2392378657e+000	-1.8832998595e+000
 1.1205792660e+000	 1.2516825137e+000	-1.9055367672e+000
 1.2566490052e+000	 1.1250255592e+000	-1.6191277210e+000
 1.2441549786e+000	 1.1388273347e+000	-1.6707076556e+000
 1.2315062698e+000	 1.1524936779e+000	-1.7137320403e+000
 1.2187050938e+000	 1.1660220015e+000	-1.7493794452e+000
 1.2057537232e+000	 1.1794097671e+000	-1.7789157444e+000
 1.1926544865e+000	 1.1926544865e+000	-1.8036743826e+000
 1.1794097671e+000	 1.2057537232e+000	-1.8250359990e+000
 1.1660220015e+000	 1.2187050938e+000	-1.8444075654e+000
 1.1524936779e+000	 1.2315062698e+000	-1.8632011990e+000
 1.1388273347e+000	 1.2441549786e+000	-1.8828128144e+000
 1.1250255592e+000	 1.2566490052e+000	-1.9046007805e+000
 1.2616154967e+000	 1.1294718523e+000	-1.6257460973e+000
 1.2490720916e+000	 1.1433281749e+000	-1.6766830953e+000
 1.2363733929e+000	 1.1570485297e+000	-1.7189058624e+000
 1.2235216245e+000	 1.1706303196e+000	-1.7536370272e+000
 1.2105190678e+000	 1.1840709959e+000	-1.7821886528e+000
 1.1973680607e+000	 1.1973680607e+000	-1.8059419508e+000
 1.1840709959e+000	 1.2105190678e+000	-1.8263263349e+000
 1.1706303196e+000	 1.2235216245e+000	-1.8447979748e+000
 1.1570485297e+000	 1.2363733929e+000	-1.8628180156e+000
 1.1433281749e+000	 1.2490720916e+000	-1.8818306296e+000
 1.1294718523e+000	 1.2616154967e+000	-1.9032410723e+000
 1.2665819882e+000	 1.1339181455e+000	-1.6322248652e+000
 1.2539892046e+000	 1.1478290150e+000	-1.6825194313e+000
 1.2412405160e+000	 1.1616033815e+000	-1.7239029526e+000
 1.2283381552e+000	 1.1752386376e+000	-1.7576533727e+000
 1.2152844125e+000	 1.1887322248e+000	-1.7851403541e+000
 1.2020816350e+000	 1.2020816350e+000	-1.8078044096e+000
 1.1887322248e+000	 1.2152844125e+000	-1.8271353550e+000
 1.1752386376e+000	 1.2283381552e+000	-1.8446502476e+000
 1.1616033815e+000	 1.2412405160e+000	-1.8618709791e+000
 1.1478290150e+000	 1.2539892046e+000	-1.8803016966e+000
 1.1339181455e+000	 1.2665819882e+000	-1.9014062244e+000
 1.2715484796e+000	 1.1383644386e+000	-1.6385134201e+000
 1.2589063175e+000	 1.1523298551e+000	-1.6881646706e+000
 1.2461076391e+000	 1.1661582334e+000	-1.7286704799e+000
 1.2331546858e+000	 1.1798469557e+000	-1.7613752631e+000
 1.2200497571e+000	 1.1933934536e+000	-1.7877175948e+000
 1.2067952092e+000	 1.2067952092e+000	-1.8092087267e+000
 1.1933934536e+000	 1.2200497571e+000	-1.8274104080e+000
 1.1798469557e+000	 1.2331546858e+000	-1.8439121771e+000
 1.1661582334e+000	 1.2461076391e+000	-1.8603082964e+000
 1.1523298551e+000	 1.2589063175e+000	-1.8781745101e+000
 1.1383644386e+000	 1.2715484796e+000	-1.8990447994e+000
 1.2765149711e+000	 1.1428107318e+000	-1.6445622143e+000
 1.2638234305e+000	 1.1568306952e+000	-1.6935678196e+000
 1.2509747622e+000	 1.1707130852e+000	-1.7331565375e+000
 1.2379712165e+000	 1.1844552738e+000	-1.7647503156e+000
 1.2248151018e+000	 1.1980546824e+000	-1.7898678573e+000
 1.2115087834e+000	 1.2115087834e+000	-1.8101024958e+000
 1.1980546824e+000	 1.2248151018e+000	-1.8270993512e+000
 1.1844552738e+000	 1.2379712165e+000	-1.8425319431e+000
 1.1707130852e+000	 1.2509747622e+000	-1.8580784362e+000
 1.1568306952e+000	 1.2638234305e+000	-1.8753977015e+000
 1.1428107318e+000	 1.2765149711e+000	-1.8961053741e+000
 1.2814814626e+000	 1.1472570250e+000	-1.6503227940e+000
 1.2687405435e+000	 1.1613315354e+000	-1.6986789198e+000
 1.2558418853e+000	 1.1752679371e+000	-1.7373101796e+000
 1.2427877472e+000	 1.1890635919e+000	-1.7677270193e+000
 1.2295804464e+000	 1.2027159113e+000	-1.7915393948e+000
 1.2162223576e+000	 1.2162223576e+000	-1.8104339712e+000
 1.2027159113e+000	 1.2295804464e+000	-1.8261505849e+000
 1.1890635919e+000	 1.2427877472e+000	-1.8404581462e+000
 1.1752679371e+000	 1.2558418853e+000	-1.8551301630e+000
 1.1613315354e+000	 1.2687405435e+000	-1.8719200733e+000
 1.1472570250e+000	 1.2814814626e+000	-1.8925365731e+000
 1.2864479541e+000	 1.1517033181e+000	-1.6557478367e+000
 1.2736576564e+000	 1.1658323755e+000	-1.7034490848e+000
 1.2607090084e+000	 1.1798227889e+000	-1.7410814564e+000
 1.2476042778e+000	 1.1936719100e+000	-1.7702547702e+000
 1.2343457910e+000	 1.2073771401e+000	-1.7926812667e+000
 1.2209359319e+000	 1.2209359319e+000	-1.8101521028e+000
 1.2073771401e+000	 1.2343457910e+000	-1.8245130876e+000
 1.1936719100e+000	 1.2476042778e+000	-1.8376398424e+000
 1.1798227889e+000	 1.2607090084e+000	-1.8514125713e+000
 1.1658323755e+000	 1.2736576564e+000	-1.8676906321e+000
 1.1517033181e+000	 1.2864479541e+000	-1.8882871015e+000
 1.2914144456e+000	 1.1561496113e+000	-1.6607911885e+000
 1.2785747694e+000	 1.1703332156e+000	-1.7078305366e+000
 1.2655761316e+000	 1.1843776408e+000	-1.7444214509e+000
 1.2524208085e+000	 1.1982802281e+000	-1.7722839069e+000
 1.2391111357e+000	 1.2120383689e+000	-1.7932433734e+000
 1.2256495061e+000	 1.2256495061e+000	-1.8092065708e+000
 1.2120383689e+000	 1.2391111357e+000	-1.8221364498e+000
 1.1982802281e+000	 1.2524208085e+000	-1.8340265770e+000
 1.1843776408e+000	 1.2655761316e+000	-1.8468751195e+000
 1.1703332156e+000	 1.2785747694e+000	-1.8626586223e+000
 1.1561496113e+000	 1.2914144456e+000	-1.8833057784e+000
 1.1116866797e+000	 1.2417495307e+000	-1.9063429544e+000
 1.0979152461e+000	 1.2539422598e+000	-1.9259671516e+000
 1.0840151991e+000	 1.2659778918e+000	-1.9370555952e+000
 1.0699892316e+000	 1.2778544158e+000	-1.9419253857e+000
 1.0558400780e+000	 1.2895698824e+000	-1.9427781744e+000
 1.0415705121e+000	 1.3011224045e+000	-1.9416804512e+000
 1.0271833457e+000	 1.3125101591e+000	-1.9405447666e+000
 1.0126814265e+000	 1.3237313874e+000	-1.9411120244e+000
 9.9806763634e-001	 1.3347843959e+000	-1.9448362212e+000
 9.8334488948e-001	 1.3456675574e+000	-1.9459775435e+000
 9.6851613048e-001	 1.3563793115e+000	-1.9412980271e+000
 1.1161329729e+000	 1.2467160222e+000	-1.9061003984e+000
 1.1023064591e+000	 1.2589575172e+000	-1.9251914240e+000
 1.0883508176e+000	 1.2710412869e+000	-1.9358615611e+000
 1.0742687520e+000	 1.2829653121e+000	-1.9405213577e+000
 1.0600630075e+000	 1.2947276357e+000	-1.9414642081e+000
 1.0457363692e+000	 1.3063263633e+000	-1.9408460036e+000
 1.0312916600e+000	 1.3177596643e+000	-1.9406657363e+000
 1.0167317390e+000	 1.3290257729e+000	-1.9427471973e+000
 1.0020594997e+000	 1.3401229889e+000	-1.9465311031e+000
 9.8727786784e-001	 1.3510496786e+000	-1.9448267021e+000
 9.7238979984e-001	 1.3618042754e+000	-1.9378650483e+000
 1.1205792660e+000	 1.2516825137e+000	-1.9055367672e+000
 1.1066976722e+000	 1.2639727747e+000	-1.9242362666e+000
 1.0926864361e+000	 1.2761046819e+000	-1.9347006543e+000
 1.0785482724e+000	 1.2880762084e+000	-1.9394219525e+000
 1.0642859370e+000	 1.2998853891e+000	-1.9407731099e+000
 1.0499022263e+000	 1.3115303221e+000	-1.9409870275e+000
 1.0353999743e+000	 1.3230091694e+000	-1.9421365565e+000
 1.0207820515e+000	 1.3343201583e+000	-1.9460678728e+000
 1.0060513630e+000	 1.3454615819e+000	-1.9476706368e+000
 9.9121084619e-001	 1.3564317998e+000	-1.9434013088e+000
 9.7626346921e-001	 1.3672292392e+000	-1.9343981263e+000
 1.1250255592e+000	 1.2566490052e+000	-1.9046007805e+000
 1.1110888852e+000	 1.2689880321e+000	-1.9230498431e+000
 1.0970220546e+000	 1.2811680770e+000	-1.9335189175e+000
 1.0828277927e+000	 1.2931871047e+000	-1.9385697064e+000
 1.0685088666e+000	 1.3050431425e+000	-1.9406427044e+000
 1.0540680834e+000	 1.3167342808e+000	-1.9420356109e+000
 1.0395082886e+000	 1.3282586745e+000	-1.9448827345e+000
 1.0248323641e+000	 1.3396145438e+000	-1.9493135554e+000
 1.0100432263e+000	 1.3508001749e+000	-1.9481922509e+000
 9.9514382454e-001	 1.3618139210e+000	-1.9416288202e+000
 9.8013713858e-001	 1.3726542031e+000	-1.9308143025e+000
 1.1294718523e+000	 1.2616154967e+000	-1.9032410723e+000
 1.1154800982e+000	 1.2740032895e+000	-1.9215801256e+000
 1.1013576732e+000	 1.2862314720e+000	-1.9322621212e+000
 1.0871073131e+000	 1.2982980010e+000	-1.9379068258e+000
 1.0727317961e+000	 1.3102008959e+000	-1.9410104505e+000
 1.0582339404e+000	 1.3219382396e+000	-1.9439234600e+000
 1.0436166029e+000	 1.3335081797e+000	-1.9488274801e+000
 1.0288826766e+000	 1.3449089293e+000	-1.9515921448e+000
 1.0140350897e+000	 1.3561387679e+000	-1.9480312895e+000
 9.9907680290e-001	 1.3671960422e+000	-1.9394392436e+000
 9.8401080794e-001	 1.3780791669e+000	-1.9270332925e+000
 1.1339181455e+000	 1.2665819882e+000	-1.9014062244e+000
 1.1198713113e+000	 1.2790185470e+000	-1.9197749271e+000
 1.1056932917e+000	 1.2912948671e+000	-1.9308757945e+000
 1.0913868335e+000	 1.3034088973e+000	-1.9373752174e+000
 1.0769547256e+000	 1.3153586493e+000	-1.9418134690e+000
 1.0623997975e+000	 1.3271421984e+000	-1.9465819240e+000
 1.0477249171e+000	 1.3387576848e+000	-1.9525904797e+000
 1.0329329891e+000	 1.3502033147e+000	-1.9528550559e+000
 1.0180269530e+000	 1.3614773608e+000	-1.9471392686e+000
 1.0030097812e+000	 1.3725781634e+000	-1.9367650974e+000
 9.8788447731e-001	 1.3835041307e+000	-1.9229774452e+000
 1.1383644386e+000	 1.2715484796e+000	-1.8990447994e+000
 1.1242625243e+000	 1.2840338044e+000	-1.9175819339e+000
 1.1100289102e+000	 1.2963582621e+000	-1.9293052570e+000
 1.0956663538e+000	 1.3085197936e+000	-1.9369165168e+000
 1.0811776552e+000	 1.3205164027e+000	-1.9429885700e+000
 1.0665656546e+000	 1.3323461571e+000	-1.9499420199e+000
 1.0518332314e+000	 1.3440071899e+000	-1.9550041214e+000
 1.0369833017e+000	 1.3554977002e+000	-1.9530559570e+000
 1.0220188163e+000	 1.3668159538e+000	-1.9454560554e+000
 1.0069427596e+000	 1.3779602846e+000	-1.9335413720e+000
 9.9175814668e-001	 1.3889290946e+000	-1.9185717023e+000
 1.1428107318e+000	 1.2765149711e+000	-1.8961053741e+000
 1.1286537374e+000	 1.2890490618e+000	-1.9149487384e+000
 1.1143645287e+000	 1.3014216572e+000	-1.9274956493e+000
 1.0999458742e+000	 1.3136306899e+000	-1.9364721187e+000
 1.0854005847e+000	 1.3256741561e+000	-1.9444722802e+000
 1.0707315117e+000	 1.3375501159e+000	-1.9531733182e+000
 1.0559415457e+000	 1.3492566951e+000	-1.9560325306e+000
 1.0410336142e+000	 1.3607920857e+000	-1.9521507331e+000
 1.0260106797e+000	 1.3721545468e+000	-1.9429285862e+000
 1.0108757380e+000	 1.3833424058e+000	-1.9297009698e+000
 9.9563181605e-001	 1.3943540584e+000	-1.9137435575e+000
 1.1472570250e+000	 1.2814814626e+000	-1.8925365731e+000
 1.1330449504e+000	 1.2940643193e+000	-1.9118228712e+000
 1.1187001472e+000	 1.3064850522e+000	-1.9253919650e+000
 1.1042253946e+000	 1.3187415862e+000	-1.9359832060e+000
 1.0896235142e+000	 1.3308319094e+000	-1.9462008698e+000
 1.0748973688e+000	 1.3427540746e+000	-1.9547476203e+000
 1.0600498600e+000	 1.3545062002e+000	-1.9556419230e+000
 1.0450839267e+000	 1.3660864711e+000	-1.9500974510e+000
 1.0300025430e+000	 1.3774931398e+000	-1.9395060810e+000
 1.0148087163e+000	 1.3887245270e+000	-1.9251929762e+000
 9.9950548541e-001	 1.3997790223e+000	-1.9084230167e+000
 1.1517033181e+000	 1.2864479541e+000	-1.8882871015e+000
 1.1374361634e+000	 1.2990795767e+000	-1.9081518337e+000
 1.1230357658e+000	 1.3115484473e+000	-1.9229390810e+000
 1.1085049150e+000	 1.3238524825e+000	-1.9353907795e+000
 1.0938464438e+000	 1.3359896628e+000	-1.9478202445e+000
 1.0790632259e+000	 1.3479580334e+000	-1.9546018526e+000
 1.0641581743e+000	 1.3597557053e+000	-1.9538005697e+000
 1.0491342393e+000	 1.3713808566e+000	-1.9468563233e+000
 1.0339944064e+000	 1.3828317328e+000	-1.9351400065e+000
 1.0187416947e+000	 1.3941066482e+000	-1.9199548136e+000
 1.0033791548e+000	 1.4052039861e+000	-1.9025425576e+000
 1.1561496113e+000	 1.2914144456e+000	-1.8833057784e+000
 1.1418273765e+000	 1.3040948341e+000	-1.9038831308e+000
 1.1273713843e+000	 1.3166118423e+000	-1.9200817893e+000
 1.1127844353e+000	 1.3289633788e+000	-1.9346356872e+000
 1.0980693733e+000	 1.3411474162e+000	-1.9476856998e+000
 1.0832290830e+000	 1.3531619922e+000	-1.9527134631e+000
 1.0682664886e+000	 1.3650052105e+000	-1.9504787632e+000
 1.0531845518e+000	 1.3766752421e+000	-1.9423896727e+000
 1.0379862697e+000	 1.3881703258e+000	-1.9297840397e+000
 1.0226746730e+000	 1.3994887694e+000	-1.9139309754e+000
 1.0072528242e+000	 1.4106289500e+000	-1.8960370910e+000
 9.6851613048e-001	 1.3563793115e+000	-1.9412980271e+000
 9.5358433207e-001	 1.3669181652e+000	-1.9310603740e+000
 9.3855249233e-001	 1.3772826917e+000	-1.9154539616e+000
 9.2342363367e-001	 1.3874715330e+000	-1.8952908715e+000
 9.0820080129e-001	 1.3974833999e+000	-1.8713543763e+000
 8.9288706115e-001	 1.4073170729e+000	-1.8444003787e+000
 8.7748549806e-001	 1.4169714025e+000	-1.8151588418e+000
 8.6199921372e-001	 1.4264453092e+000	-1.7843351881e+000
 8.4643132472e-001	 1.4357377841e+000	-1.7526116461e+000
 8.3078496057e-001	 1.4448478888e+000	-1.7206485280e+000
 8.1506326180e-001	 1.4537747557e+000	-1.6890854186e+000
 9.7238979984e-001	 1.3618042754e+000	-1.9378650483e+000
 9.5739828034e-001	 1.3723852801e+000	-1.9260522687e+000
 9.4230631937e-001	 1.3827912606e+000	-1.9095874209e+000
 9.2711695145e-001	 1.3930208531e+000	-1.8891603656e+000
 9.1183323395e-001	 1.4030727633e+000	-1.8654316002e+000
 8.9645824509e-001	 1.4129457670e+000	-1.8390339772e+000
 8.8099508204e-001	 1.4226387100e+000	-1.8105744078e+000
 8.6544685888e-001	 1.4321505084e+000	-1.7806355278e+000
 8.4981670467e-001	 1.4414801494e+000	-1.7497773040e+000
 8.3410776145e-001	 1.4506266909e+000	-1.7185385608e+000
 8.1832318230e-001	 1.4595892615e+000	-1.6874384113e+000
 9.7626346921e-001	 1.3672292392e+000	-1.9343981263e+000
 9.6121222860e-001	 1.3778523951e+000	-1.9211968780e+000
 9.4606014641e-001	 1.3882998294e+000	-1.9040062231e+000
 9.3081026923e-001	 1.3985701731e+000	-1.8834011608e+000
 9.1546566660e-001	 1.4086621268e+000	-1.8599269736e+000
 9.0002942904e-001	 1.4185744611e+000	-1.8341012129e+000
 8.8450466602e-001	 1.4283060175e+000	-1.8064156643e+000
 8.6889450404e-001	 1.4378557077e+000	-1.7773382673e+000
 8.5320208462e-001	 1.4472225148e+000	-1.7473149684e+000
 8.3743056233e-001	 1.4564054929e+000	-1.7167714853e+000
 8.2158310280e-001	 1.4654037674e+000	-1.6861149648e+000
 9.8013713858e-001	 1.3726542031e+000	-1.9308143025e+000
 9.6502617687e-001	 1.3833195100e+000	-1.9164016378e+000
 9.4981397344e-001	 1.3938083983e+000	-1.8986100989e+000
 9.3450358700e-001	 1.4041194932e+000	-1.8779070941e+000
 9.1909809926e-001	 1.4142514902e+000	-1.8547301606e+000
 9.0360061298e-001	 1.4242031553e+000	-1.8294892066e+000
 8.8801425000e-001	 1.4339733249e+000	-1.8025687255e+000
 8.7234214920e-001	 1.4435609069e+000	-1.7743299580e+000
 8.5658746458e-001	 1.4529648802e+000	-1.7451129787e+000
 8.4075336321e-001	 1.4621842950e+000	-1.7152386852e+000
 8.2484302330e-001	 1.4712182733e+000	-1.6850106695e+000
 9.8401080794e-001	 1.3780791669e+000	-1.9270332925e+000
 9.6884012513e-001	 1.3887866250e+000	-1.9115767688e+000
 9.5356780048e-001	 1.3993169671e+000	-1.8933016443e+000
 9.3819690478e-001	 1.4096688132e+000	-1.8725749183e+000
 9.2273053192e-001	 1.4198408536e+000	-1.8497337639e+000
 9.0717179693e-001	 1.4298318494e+000	-1.8250880132e+000
 8.9152383397e-001	 1.4396406324e+000	-1.7989226102e+000
 8.7578979436e-001	 1.4492661062e+000	-1.7715000024e+000
 8.5997284453e-001	 1.4587072455e+000	-1.7430624489e+000
 8.4407616409e-001	 1.4679630971e+000	-1.7138342205e+000
 8.2810294380e-001	 1.4770327792e+000	-1.6840236738e+000
 9.8788447731e-001	 1.3835041307e+000	-1.9229774452e+000
 9.7265407340e-001	 1.3942537400e+000	-1.9066352343e+000
 9.5732162752e-001	 1.4048255359e+000	-1.8879862769e+000
 9.4189022256e-001	 1.4152181333e+000	-1.8673042587e+000
 9.2636296458e-001	 1.4254302171e+000	-1.8448332811e+000
 9.1074298087e-001	 1.4354605435e+000	-1.8207905792e+000
 8.9503341795e-001	 1.4453079399e+000	-1.7953692005e+000
 8.7923743951e-001	 1.4549713054e+000	-1.7687406144e+000
 8.6335822448e-001	 1.4644496109e+000	-1.7410572295e+000
 8.4739896497e-001	 1.4737418991e+000	-1.7124547929e+000
 8.3136286430e-001	 1.4828472851e+000	-1.6830546523e+000
 9.9175814668e-001	 1.3889290946e+000	-1.9185717023e+000
 9.7646802166e-001	 1.3997208549e+000	-1.9014926980e+000
 9.6107545456e-001	 1.4103341048e+000	-1.8825721929e+000
 9.4558354034e-001	 1.4207674533e+000	-1.8619975691e+000
 9.2999539724e-001	 1.4310195805e+000	-1.8399270621e+000
 9.1431416482e-001	 1.4410892376e+000	-1.8164927009e+000
 8.9854300193e-001	 1.4509752474e+000	-1.7918032009e+000
 8.8268508467e-001	 1.4606765047e+000	-1.7659467797e+000
 8.6674360444e-001	 1.4701919762e+000	-1.7389938710e+000
 8.5072176585e-001	 1.4795207012e+000	-1.7109997105e+000
 8.3462278480e-001	 1.4886617910e+000	-1.6820067744e+000
 9.9563181605e-001	 1.3943540584e+000	-1.9137435575e+000
 9.8028196993e-001	 1.4051879699e+000	-1.8960674821e+000
 9.6482928160e-001	 1.4158426736e+000	-1.8769703249e+000
 9.4927685811e-001	 1.4263167733e+000	-1.8565600896e+000
 9.3362782990e-001	 1.4366089439e+000	-1.8349162662e+000
 9.1788534877e-001	 1.4467179317e+000	-1.8120929822e+000
 9.0205258590e-001	 1.4566425549e+000	-1.7881220980e+000
 8.8613272983e-001	 1.4663817039e+000	-1.7630162175e+000
 8.7012898439e-001	 1.4759343416e+000	-1.7367715868e+000
 8.5404456673e-001	 1.4852995032e+000	-1.7093708544e+000
 8.3788270530e-001	 1.4944762969e+000	-1.6807856726e+000
 9.9950548541e-001	 1.3997790223e+000	-1.9084230167e+000
 9.8409591820e-001	 1.4106550848e+000	-1.8902805260e+000
 9.6858310864e-001	 1.4213512424e+000	-1.8710942994e+000
 9.5297017589e-001	 1.4318660934e+000	-1.8508998039e+000
 9.3726026255e-001	 1.4421983074e+000	-1.8297048203e+000
 9.2145653271e-001	 1.4523466258e+000	-1.8074927934e+000
 9.0556216988e-001	 1.4623098624e+000	-1.7842261200e+000
 8.8958037499e-001	 1.4720869032e+000	-1.7598493418e+000
 8.7351436434e-001	 1.4816767070e+000	-1.7342922171e+000
 8.5736736761e-001	 1.4910783053e+000	-1.7074726440e+000
 8.4114262580e-001	 1.5002908027e+000	-1.6792994113e+000
 1.0033791548e+000	 1.4052039861e+000	-1.9025425576e+000
 9.8790986646e-001	 1.4161221998e+000	-1.8840553449e+000
 9.7233693568e-001	 1.4268598113e+000	-1.8648603949e+000
 9.5666349367e-001	 1.4374154134e+000	-1.8449273976e+000
 9.4089269521e-001	 1.4477876708e+000	-1.8241993770e+000
 9.2502771666e-001	 1.4579753199e+000	-1.8025962305e+000
 9.0907175386e-001	 1.4679771699e+000	-1.7800181973e+000
 8.9302802015e-001	 1.4777921024e+000	-1.7563492232e+000
 8.7689974430e-001	 1.4874190723e+000	-1.7314601929e+000
 8.6069016849e-001	 1.4968571074e+000	-1.7052120041e+000
 8.4440254630e-001	 1.5061053086e+000	-1.6774584563e+000
 1.0072528242e+000	 1.4106289500e+000	-1.8960370910e+000
 9.9172381473e-001	 1.4215893148e+000	-1.8773179894e+000
 9.7609076273e-001	 1.4323683801e+000	-1.8581875006e+000
 9.6035681145e-001	 1.4429647335e+000	-1.8385562159e+000
 9.4452512788e-001	 1.4533770342e+000	-1.8183092732e+000
 9.2859890061e-001	 1.4636040140e+000	-1.7973100743e+000
 9.1258133784e-001	 1.4736444774e+000	-1.7754039234e+000
 8.9647566531e-001	 1.4834973017e+000	-1.7524215517e+000
 8.8028512425e-001	 1.4931614377e+000	-1.7281825002e+000
 8.6401296938e-001	 1.5026359094e+000	-1.7024983312e+000
 8.4766246680e-001	 1.5119198145e+000	-1.6751756438e+000
 8.1506326180e-001	 1.4537747557e+000	-1.6890854186e+000
 7.9927175231e-001	 1.4625162902e+000	-1.6615251635e+000
 7.8341123546e-001	 1.4710731202e+000	-1.6397834959e+000
 7.6748487245e-001	 1.4794445913e+000	-1.6218081431e+000
 7.5149582763e-001	 1.4876301193e+000	-1.6055372614e+000
 7.3544726669e-001	 1.4956291903e+000	-1.5889045078e+000
 7.1934235468e-001	 1.5034413604e+000	-1.5698438932e+000
 7.0318425419e-001	 1.5110662548e+000	-1.5462944063e+000
 6.8697612351e-001	 1.5185035681e+000	-1.5162044051e+000
 6.7072111478e-001	 1.5257530632e+000	-1.4775357711e+000
 6.5442237221e-001	 1.5328145713e+000	-1.4315322014e+000
 8.1832318230e-001	 1.4595892615e+000	-1.6874384113e+000
 8.0246851322e-001	 1.4683657587e+000	-1.6599414356e+000
 7.8654456077e-001	 1.4769568125e+000	-1.6378879591e+000
 7.7055449880e-001	 1.4853617660e+000	-1.6193503230e+000
 7.5450150433e-001	 1.4935800328e+000	-1.6023911835e+000
 7.3838875569e-001	 1.5016110969e+000	-1.5850683856e+000
 7.2221943061e-001	 1.5094545124e+000	-1.5654396138e+000
 7.0599670431e-001	 1.5171099033e+000	-1.5415668109e+000
 6.8972374771e-001	 1.5245769628e+000	-1.5115203599e+000
 6.7340372558e-001	 1.5318554529e+000	-1.4733830263e+000
 6.5703979470e-001	 1.5389452042e+000	-1.4272308309e+000
 8.2158310280e-001	 1.4654037674e+000	-1.6861149648e+000
 8.0566527412e-001	 1.4742152272e+000	-1.6586786946e+000
 7.8967788608e-001	 1.4828405048e+000	-1.6363267531e+000
 7.7362412516e-001	 1.4912789408e+000	-1.6172528775e+000
 7.5750718103e-001	 1.4995299463e+000	-1.5996408801e+000
 7.4133024470e-001	 1.5075930034e+000	-1.5816693324e+000
 7.2509650653e-001	 1.5154676645e+000	-1.5615160210e+000
 7.0880915442e-001	 1.5231535518e+000	-1.5373621681e+000
 6.9247137192e-001	 1.5306503575e+000	-1.5073964113e+000
 6.7608633638e-001	 1.5379578427e+000	-1.4698185411e+000
 6.5965721718e-001	 1.5450758371e+000	-1.4238701361e+000
 8.2484302330e-001	 1.4712182733e+000	-1.6850106695e+000
 8.0886203503e-001	 1.4800646956e+000	-1.6576365404e+000
 7.9281121139e-001	 1.4887241971e+000	-1.6350020298e+000
 7.7669375151e-001	 1.4971961155e+000	-1.6154191026e+000
 7.6051285773e-001	 1.5054798598e+000	-1.5971894359e+000
 7.4427173370e-001	 1.5135749100e+000	-1.5786089199e+000
 7.2797358246e-001	 1.5214808165e+000	-1.5579719271e+000
 7.1162160454e-001	 1.5291972003e+000	-1.5335753411e+000
 6.9521899613e-001	 1.5367237522e+000	-1.5037223421e+000
 6.7876894719e-001	 1.5440602324e+000	-1.4667259460e+000
 6.6227463966e-001	 1.5512064700e+000	-1.4213082070e+000
 8.2810294380e-001	 1.4770327792e+000	-1.6840236738e+000
 8.1205879593e-001	 1.4859141641e+000	-1.6567170148e+000
 7.9594453670e-001	 1.4946078894e+000	-1.6338182868e+000
 7.7976337786e-001	 1.5031132903e+000	-1.6137545647e+000
 7.6351853443e-001	 1.5114297734e+000	-1.5949421500e+000
 7.4721322270e-001	 1.5195568165e+000	-1.5757908970e+000
 7.3085065838e-001	 1.5274939686e+000	-1.5547083019e+000
 7.1443405465e-001	 1.5352408488e+000	-1.5301033480e+000
 6.9796662033e-001	 1.5427971469e+000	-1.5003901033e+000
 6.8145155799e-001	 1.5501626222e+000	-1.4639910686e+000
 6.6489206214e-001	 1.5573371029e+000	-1.4194046381e+000
 8.3136286430e-001	 1.4828472851e+000	-1.6830546523e+000
 8.1525555683e-001	 1.4917636325e+000	-1.6558245715e+000
 7.9907786200e-001	 1.5004915817e+000	-1.6326823410e+000
 7.8283300422e-001	 1.5090304650e+000	-1.6121670761e+000
 7.6652421112e-001	 1.5173796869e+000	-1.5928065132e+000
 7.5015471170e-001	 1.5255387231e+000	-1.5731211677e+000
 7.3372773430e-001	 1.5335071206e+000	-1.5516282515e+000
 7.1724650477e-001	 1.5412844974e+000	-1.5268453407e+000
 7.0071424454e-001	 1.5488705417e+000	-1.4972937929e+000
 6.8413416879e-001	 1.5562650119e+000	-1.4615019115e+000
 6.6750948463e-001	 1.5634677358e+000	-1.4180078590e+000
 8.3462278480e-001	 1.4886617910e+000	-1.6820067744e+000
 8.1845231774e-001	 1.4976131010e+000	-1.6548660480e+000
 8.0221118731e-001	 1.5063752740e+000	-1.6315033019e+000
 7.8590263057e-001	 1.5149476398e+000	-1.6105666703e+000
 7.6952988782e-001	 1.5233296004e+000	-1.5906921843e+000
 7.5309620070e-001	 1.5315206296e+000	-1.5705077693e+000
 7.3660481023e-001	 1.5395202726e+000	-1.5486369971e+000
 7.2005895488e-001	 1.5473281459e+000	-1.5237025843e+000
 7.0346186874e-001	 1.5549439364e+000	-1.4943296357e+000
 6.8681677959e-001	 1.5623674017e+000	-1.4591486318e+000
 6.7012690711e-001	 1.5695983687e+000	-1.4167981613e+000
 8.3788270530e-001	 1.4944762969e+000	-1.6807856726e+000
 8.2164907864e-001	 1.5034625694e+000	-1.6537506367e+000
 8.0534451262e-001	 1.5122589662e+000	-1.6301925453e+000
 7.8897225692e-001	 1.5208648145e+000	-1.6088655775e+000
 7.7253556452e-001	 1.5292795140e+000	-1.5885109679e+000
 7.5603768971e-001	 1.5375025362e+000	-1.5678608507e+000
 7.3948188615e-001	 1.5455334247e+000	-1.5456418542e+000
 7.2287140500e-001	 1.5533717944e+000	-1.5205784364e+000
 7.0620949295e-001	 1.5610173311e+000	-1.4913959623e+000
 6.8949939039e-001	 1.5684697914e+000	-1.4568235199e+000
 6.7274432959e-001	 1.5757290016e+000	-1.4155964805e+000
 8.4114262580e-001	 1.5002908027e+000	-1.6792994113e+000
 8.2484583955e-001	 1.5093120379e+000	-1.6523898564e+000
 8.0847783793e-001	 1.5181426585e+000	-1.6286636874e+000
 7.9204188328e-001	 1.5267819893e+000	-1.6069782007e+000
 7.7554124122e-001	 1.5352294275e+000	-1.5861767911e+000
 7.5897917871e-001	 1.5434844427e+000	-1.5650926507e+000
 7.4235896208e-001	 1.5515465767e+000	-1.5425522114e+000
 7.2568385511e-001	 1.5594154429e+000	-1.5173783268e+000
 7.0895711715e-001	 1.5670907259e+000	-1.4883931885e+000
 6.9218200120e-001	 1.5745721812e+000	-1.4544209790e+000
 6.7536175207e-001	 1.5818596345e+000	-1.4142902646e+000
 8.4440254630e-001	 1.5061053086e+000	-1.6774584563e+000
 8.2804260045e-001	 1.5151615064e+000	-1.6506975241e+000
 8.1161116324e-001	 1.5240263508e+000	-1.6268325586e+000
 7.9511150963e-001	 1.5326991640e+000	-1.6048210913e+000
 7.7854691792e-001	 1.5411793410e+000	-1.5836056816e+000
 7.6192066771e-001	 1.5494663493e+000	-1.5621174764e+000
 7.4523603800e-001	 1.5575597288e+000	-1.5392795101e+000
 7.2849630523e-001	 1.5654590914e+000	-1.5140097370e+000
 7.1170474136e-001	 1.5731641206e+000	-1.4852237957e+000
 6.9486461200e-001	 1.5806745709e+000	-1.4518375044e+000
 6.7797917455e-001	 1.5879902674e+000	-1.4127690934e+000
 8.4766246680e-001	 1.5119198145e+000	-1.6751756438e+000
 8.3123936136e-001	 1.5210109748e+000	-1.6485897272e+000
 8.1474448855e-001	 1.5299100431e+000	-1.6246171779e+000
 7.9818113599e-001	 1.5386163388e+000	-1.6023129255e+000
 7.8155259462e-001	 1.5471292545e+000	-1.5807157445e+000
 7.6486215671e-001	 1.5554482558e+000	-1.5588516824e+000
 7.4811311393e-001	 1.5635728808e+000	-1.5357372235e+000
 7.3130875535e-001	 1.5715027399e+000	-1.5103821801e+000
 7.1445236556e-001	 1.5792375153e+000	-1.4817923102e+000
 6.9754722280e-001	 1.5867769606e+000	-1.4489716632e+000
 6.8059659704e-001	 1.5941209003e+000	-1.4109246579e+000
 6.5442237221e-001	 1.5328145713e+000	-1.4315322014e+000
 6.3808057644e-001	 1.5396890085e+000	-1.3897637272e+000
 6.2170129446e-001	 1.5463752677e+000	-1.3561168774e+000
 6.0528763838e-001	 1.5528733820e+000	-1.3286893788e+000
 5.8884270545e-001	 1.5591834502e+000	-1.3057652447e+000
 5.7236957642e-001	 1.5653056354e+000	-1.2857988429e+000
 5.5587131393e-001	 1.5712401651e+000	-1.2673997379e+000
 5.3935096097e-001	 1.5769873296e+000	-1.2493183519e+000
 5.2281153934e-001	 1.5825474817e+000	-1.2304324746e+000
 5.0625604814e-001	 1.5879210350e+000	-1.2097346460e+000
 4.8968746235e-001	 1.5931084637e+000	-1.1863204221e+000
 6.5703979470e-001	 1.5389452042e+000	-1.4272308309e+000
 6.4063263841e-001	 1.5458471363e+000	-1.3851287179e+000
 6.2418784599e-001	 1.5525601378e+000	-1.3514502717e+000
 6.0770854198e-001	 1.5590842420e+000	-1.3242286917e+000
 5.9119783603e-001	 1.5654195478e+000	-1.3016844933e+000
 5.7465882119e-001	 1.5715662193e+000	-1.2822093922e+000
 5.5809457239e-001	 1.5775244847e+000	-1.2643509936e+000
 5.4150814476e-001	 1.5832946355e+000	-1.2467983319e+000
 5.2490257219e-001	 1.5888770259e+000	-1.2283682911e+000
 5.0828086578e-001	 1.5942720712e+000	-1.2079929271e+000
 4.9164601241e-001	 1.5994802475e+000	-1.1847077051e+000
 6.5965721718e-001	 1.5450758371e+000	-1.4238701361e+000
 6.4318470038e-001	 1.5520052641e+000	-1.3814902384e+000
 6.2667439751e-001	 1.5587450080e+000	-1.3478062293e+000
 6.1012944557e-001	 1.5652951020e+000	-1.3207918276e+000
 5.9355296660e-001	 1.5716556455e+000	-1.2986091478e+000
 5.7694806597e-001	 1.5778268032e+000	-1.2795923859e+000
 5.6031783085e-001	 1.5838088043e+000	-1.2622323435e+000
 5.4366532855e-001	 1.5896019415e+000	-1.2451618333e+000
 5.2699360504e-001	 1.5952065702e+000	-1.2271419981e+000
 5.1030568342e-001	 1.6006231075e+000	-1.2070495639e+000
 4.9360456246e-001	 1.6058520314e+000	-1.1838650375e+000
 6.6227463966e-001	 1.5512064700e+000	-1.4213082070e+000
 6.4573676234e-001	 1.5581633920e+000	-1.3787036406e+000
 6.2916094903e-001	 1.5649298781e+000	-1.3450389393e+000
 6.1255034917e-001	 1.5715059619e+000	-1.3182333514e+000
 5.9590809717e-001	 1.5778917431e+000	-1.2963956474e+000
 5.7923731075e-001	 1.5840873871e+000	-1.2778075936e+000
 5.6254108931e-001	 1.5900931239e+000	-1.2609082964e+000
 5.4582251234e-001	 1.5959092474e+000	-1.2442794625e+000
 5.2908463789e-001	 1.6015361144e+000	-1.2266316051e+000
 5.1233050106e-001	 1.6069741438e+000	-1.2067912169e+000
 4.9556311252e-001	 1.6122238153e+000	-1.1836889190e+000
 6.6489206214e-001	 1.5573371029e+000	-1.4194046381e+000
 6.4828882431e-001	 1.5643215198e+000	-1.3766257052e+000
 6.3164750055e-001	 1.5711147483e+000	-1.3430039263e+000
 6.1497125276e-001	 1.5777168219e+000	-1.3164090546e+000
 5.9826322774e-001	 1.5841278408e+000	-1.2949015352e+000
 5.8152655553e-001	 1.5903479710e+000	-1.2767157519e+000
 5.6476434777e-001	 1.5963774435e+000	-1.2602441792e+000
 5.4797969613e-001	 1.6022165533e+000	-1.2440224845e+000
 5.3117567074e-001	 1.6078656587e+000	-1.2267156104e+000
 5.1435531870e-001	 1.6133251801e+000	-1.2071048570e+000
 4.9752166258e-001	 1.6185955991e+000	-1.1840759736e+000
 6.6750948463e-001	 1.5634677358e+000	-1.4180078590e+000
 6.5084088628e-001	 1.5704796477e+000	-1.3751146706e+000
 6.3413405207e-001	 1.5772996184e+000	-1.3415580767e+000
 6.1739215636e-001	 1.5839276818e+000	-1.3151759791e+000
 6.0061835831e-001	 1.5903639384e+000	-1.2939854788e+000
 5.8381580030e-001	 1.5966085549e+000	-1.2761785835e+000
 5.6698760622e-001	 1.6026617631e+000	-1.2601061548e+000
 5.5013687991e-001	 1.6085238592e+000	-1.2442628396e+000
 5.3326670359e-001	 1.6141952029e+000	-1.2272730174e+000
 5.1638013634e-001	 1.6196762163e+000	-1.2078777817e+000
 4.9948021263e-001	 1.6249673830e+000	-1.1849229655e+000
 6.7012690711e-001	 1.5695983687e+000	-1.4167981613e+000
 6.5339294824e-001	 1.5766377755e+000	-1.3740302635e+000
 6.3662060359e-001	 1.5834844886e+000	-1.3405596656e+000
 6.1981305995e-001	 1.5901385418e+000	-1.3143924412e+000
 6.0297348889e-001	 1.5966000361e+000	-1.2935072921e+000
 5.8610504508e-001	 1.6028691388e+000	-1.2760588172e+000
 5.6921086468e-001	 1.6089460827e+000	-1.2603612406e+000
 5.5229406370e-001	 1.6148311651e+000	-1.2448731606e+000
 5.3535773644e-001	 1.6205247472e+000	-1.2281833508e+000
 5.1840495398e-001	 1.6260272526e+000	-1.2089976310e+000
 5.0143876269e-001	 1.6313391669e+000	-1.1861268157e+000
 6.7274432959e-001	 1.5757290016e+000	-1.4155964805e+000
 6.5594501021e-001	 1.5827959034e+000	-1.3732337292e+000
 6.3910715512e-001	 1.5896693587e+000	-1.3398683838e+000
 6.2223396355e-001	 1.5963494017e+000	-1.3139180555e+000
 6.0532861946e-001	 1.6028361337e+000	-1.2933279573e+000
 5.8839428986e-001	 1.6091297227e+000	-1.2762202076e+000
 5.7143412314e-001	 1.6152304023e+000	-1.2608773264e+000
 5.5445124749e-001	 1.6211384710e+000	-1.2457267900e+000
 5.3744876929e-001	 1.6268542914e+000	-1.2293266740e+000
 5.2042977162e-001	 1.6323782889e+000	-1.2103524039e+000
 5.0339731275e-001	 1.6377109508e+000	-1.1875846188e+000
 6.7536175207e-001	 1.5818596345e+000	-1.4142902646e+000
 6.5849707218e-001	 1.5889540312e+000	-1.3725878620e+000
 6.4159370664e-001	 1.5958542289e+000	-1.3393453650e+000
 6.2465486714e-001	 1.6025602617e+000	-1.3136137596e+000
 6.0768375003e-001	 1.6090722314e+000	-1.2933096467e+000
 5.9068353464e-001	 1.6153903066e+000	-1.2765275551e+000
 5.7365738160e-001	 1.6215147219e+000	-1.2615231935e+000
 5.5660843128e-001	 1.6274457769e+000	-1.2466977977e+000
 5.3953980214e-001	 1.6331838357e+000	-1.2305836052e+000
 5.2245458926e-001	 1.6387293251e+000	-1.2118304755e+000
 5.0535586280e-001	 1.6440827346e+000	-1.1891936591e+000
 6.7797917455e-001	 1.5879902674e+000	-1.4127690934e+000
 6.6104913414e-001	 1.5951121590e+000	-1.3719570361e+000
 6.4408025816e-001	 1.6020390990e+000	-1.3388532136e+000
 6.2707577074e-001	 1.6087711217e+000	-1.3133418390e+000
 6.1003888060e-001	 1.6153083291e+000	-1.2933157452e+000
 5.9297277941e-001	 1.6216508905e+000	-1.2768467269e+000
 5.7588064006e-001	 1.6277990415e+000	-1.2621685336e+000
 5.5876561506e-001	 1.6337530828e+000	-1.2476609988e+000
 5.4163083499e-001	 1.6395133799e+000	-1.2318353352e+000
 5.2447940690e-001	 1.6450803614e+000	-1.2133206131e+000
 5.0731441286e-001	 1.6504545185e+000	-1.1908514277e+000
 6.8059659704e-001	 1.5941209003e+000	-1.4109246579e+000
 6.6360119611e-001	 1.6012702869e+000	-1.3712072371e+000
 6.4656680968e-001	 1.6082239692e+000	-1.3382560323e+000
 6.2949667433e-001	 1.6149819816e+000	-1.3129659518e+000
 6.1239401118e-001	 1.6215444267e+000	-1.2932108733e+000
 5.9526202419e-001	 1.6279114744e+000	-1.2770446770e+000
 5.7810389852e-001	 1.6340833611e+000	-1.2626839676e+000
 5.6092279885e-001	 1.6400603887e+000	-1.2484919720e+000
 5.4372186784e-001	 1.6458429242e+000	-1.2329636441e+000
 5.2650422454e-001	 1.6514313977e+000	-1.2147119933e+000
 5.0927296292e-001	 1.6568263024e+000	-1.1924556394e+000
 4.8968746235e-001	 1.5931084637e+000	-1.1863204221e+000
 4.7310873118e-001	 1.5981103007e+000	-1.1615858108e+000
 4.5652277604e-001	 1.6029271355e+000	-1.1375484455e+000
 4.3993248993e-001	 1.6075596142e+000	-1.1143646627e+000
 4.2334073646e-001	 1.6120084391e+000	-1.0922602971e+000
 4.0675034859e-001	 1.6162743670e+000	-1.0715221099e+000
 3.9016412748e-001	 1.6203582086e+000	-1.0524900109e+000
 3.7358484130e-001	 1.6242608269e+000	-1.0355500327e+000
 3.5701522422e-001	 1.6279831361e+000	-1.0211280152e+000
 3.4045797529e-001	 1.6315261004e+000	-1.0096839517e+000
 3.2391575750e-001	 1.6348907326e+000	-1.0017069462e+000
 4.9164601241e-001	 1.5994802475e+000	-1.1847077051e+000
 4.7500097308e-001	 1.6045020898e+000	-1.1599376011e+000
 4.5834868088e-001	 1.6093381900e+000	-1.1357900143e+000
 4.4169204040e-001	 1.6139891968e+000	-1.1124517343e+000
 4.2503392668e-001	 1.6184558151e+000	-1.0901777573e+000
 4.0837718403e-001	 1.6227388050e+000	-1.0692826978e+000
 3.9172462480e-001	 1.6268389803e+000	-1.0501330189e+000
 3.7507902825e-001	 1.6307572075e+000	-1.0331400409e+000
 3.5844313945e-001	 1.6344944044e+000	-1.0187536838e+000
 3.4181966828e-001	 1.6380515391e+000	-1.0074568905e+000
 3.2521128837e-001	 1.6414296285e+000	-9.9976068079e-001
 4.9360456246e-001	 1.6058520314e+000	-1.1838650375e+000
 4.7689321498e-001	 1.6108938790e+000	-1.1590429382e+000
 4.6017458572e-001	 1.6157492446e+000	-1.1347765119e+000
 4.4345159086e-001	 1.6204187794e+000	-1.1112812229e+000
 4.2672711690e-001	 1.6249031912e+000	-1.0888392582e+000
 4.1000401947e-001	 1.6292032431e+000	-1.0677909303e+000
 3.9328512212e-001	 1.6333197521e+000	-1.0485269265e+000
 3.7657321519e-001	 1.6372535881e+000	-1.0314813619e+000
 3.5987105469e-001	 1.6410056728e+000	-1.0171255893e+000
 3.4318136128e-001	 1.6445769779e+000	-1.0059627119e+000
 3.2650681924e-001	 1.6479685244e+000	-9.9852274542e-001
 4.9556311252e-001	 1.6122238153e+000	-1.1836889190e+000
 4.7878545687e-001	 1.6172856682e+000	-1.1588082333e+000
 4.6200049057e-001	 1.6221602991e+000	-1.1344232705e+000
 4.4521114133e-001	 1.6268483619e+000	-1.1107764073e+000
 4.2842030713e-001	 1.6313505672e+000	-1.0881750646e+000
 4.1163085491e-001	 1.6356676811e+000	-1.0669831108e+000
 3.9484561945e-001	 1.6398005238e+000	-1.0476131391e+000
 3.7806740213e-001	 1.6437499687e+000	-1.0305195753e+000
 3.6129896992e-001	 1.6475169411e+000	-1.0161925658e+000
 3.4454305427e-001	 1.6511024166e+000	-1.0051525918e+000
 3.2780235012e-001	 1.6545074203e+000	-9.9794574996e-001
 4.9752166258e-001	 1.6185955991e+000	-1.1840759736e+000
 4.8067769877e-001	 1.6236774574e+000	-1.1591398451e+000
 4.6382639541e-001	 1.6285713536e+000	-1.1346454200e+000
 4.4697069180e-001	 1.6332779445e+000	-1.1108602399e+000
 4.3011349735e-001	 1.6377979433e+000	-1.0881150169e+000
 4.1325769035e-001	 1.6421321191e+000	-1.0667950450e+000
 3.9640611677e-001	 1.6462812955e+000	-1.0473325153e+000
 3.7956158907e-001	 1.6502463493e+000	-1.0301996889e+000
 3.6272688516e-001	 1.6540282094e+000	-1.0159028744e+000
 3.4590474727e-001	 1.6576278554e+000	-1.0049771534e+000
 3.2909788099e-001	 1.6610463162e+000	-9.9798179400e-001
 4.9948021263e-001	 1.6249673830e+000	-1.1849229655e+000
 4.8256994067e-001	 1.6300692465e+000	-1.1599440968e+000
 4.6565230025e-001	 1.6349824082e+000	-1.1353579043e+000
 4.4873024227e-001	 1.6397075271e+000	-1.1114553630e+000
 4.3180668757e-001	 1.6442453194e+000	-1.0885885465e+000
 4.1488452580e-001	 1.6485965572e+000	-1.0671620553e+000
 3.9796661409e-001	 1.6527620673e+000	-1.0476253806e+000
 3.8105577602e-001	 1.6567427299e+000	-1.0304661513e+000
 3.6415480039e-001	 1.6605394777e+000	-1.0162042129e+000
 3.4726644026e-001	 1.6641532941e+000	-1.0053864760e+000
 3.3039341186e-001	 1.6675852121e+000	-9.9858247373e-001
 5.0143876269e-001	 1.6313391669e+000	-1.1861268157e+000
 4.8446218256e-001	 1.6364610357e+000	-1.1611272923e+000
 4.6747820510e-001	 1.6413934627e+000	-1.1364754981e+000
 4.5048979273e-001	 1.6461371097e+000	-1.1124841251e+000
 4.3349987780e-001	 1.6506926954e+000	-1.0895246910e+000
 4.1651136124e-001	 1.6550609952e+000	-1.0680189956e+000
 3.9952711142e-001	 1.6592428390e+000	-1.0484315406e+000
 3.8254996296e-001	 1.6632391106e+000	-1.0312628636e+000
 3.6558271563e-001	 1.6670507461e+000	-1.0170437274e+000
 3.4862813326e-001	 1.6706787328e+000	-1.0063301042e+000
 3.3168894273e-001	 1.6741241080e+000	-9.9969888891e-001
 5.0339731275e-001	 1.6377109508e+000	-1.1875846188e+000
 4.8635442446e-001	 1.6428528249e+000	-1.1625957327e+000
 4.6930410994e-001	 1.6478045173e+000	-1.1379128234e+000
 4.5224934320e-001	 1.6525666922e+000	-1.1138685967e+000
 4.3519306802e-001	 1.6571400715e+000	-1.0908521104e+000
 4.1813819668e-001	 1.6615254332e+000	-1.0693002659e+000
 4.0108760874e-001	 1.6657236107e+000	-1.0496902955e+000
 3.8404414990e-001	 1.6697354912e+000	-1.0325331922e+000
 3.6701063086e-001	 1.6735620144e+000	-1.0183680224e+000
 3.4998982625e-001	 1.6772041716e+000	-1.0077570563e+000
 3.3298447361e-001	 1.6806630039e+000	-1.0012816499e+000
 5.0535586280e-001	 1.6440827346e+000	-1.1891936591e+000
 4.8824666635e-001	 1.6492446141e+000	-1.1642557338e+000
 4.7113001478e-001	 1.6542155718e+000	-1.1395843659e+000
 4.5400889367e-001	 1.6589962748e+000	-1.1155305870e+000
 4.3688625824e-001	 1.6635874475e+000	-1.0924991022e+000
 4.1976503212e-001	 1.6679898712e+000	-1.0709398272e+000
 4.0264810606e-001	 1.6722043824e+000	-1.0513404527e+000
 3.8553833685e-001	 1.6762318718e+000	-1.0342199808e+000
 3.6843854610e-001	 1.6800732827e+000	-1.0201231719e+000
 3.5135151924e-001	 1.6837296103e+000	-1.0096158340e+000
 3.3428000448e-001	 1.6872018998e+000	-1.0032808846e+000
 5.0731441286e-001	 1.6504545185e+000	-1.1908514277e+000
 4.9013890825e-001	 1.6556364033e+000	-1.1660136420e+000
 4.7295591963e-001	 1.6606266264e+000	-1.1414044920e+000
 4.5576844414e-001	 1.6654258574e+000	-1.1173916598e+000
 4.3857944847e-001	 1.6700348236e+000	-1.0943936171e+000
 4.2139186756e-001	 1.6744543093e+000	-1.0728712161e+000
 4.0420860339e-001	 1.6786851542e+000	-1.0533203411e+000
 3.8703252379e-001	 1.6827282524e+000	-1.0362655628e+000
 3.6986646133e-001	 1.6865845511e+000	-1.0222547301e+000
 3.5271321224e-001	 1.6902550491e+000	-1.0118544306e+000
 3.3557553535e-001	 1.6937407957e+000	-1.0056462455e+000
 5.0927296292e-001	 1.6568263024e+000	-1.1924556394e+000
 4.9203115015e-001	 1.6620281924e+000	-1.1677758519e+000
 4.7478182447e-001	 1.6670376810e+000	-1.1432874650e+000
 4.5752799460e-001	 1.6718554400e+000	-1.1193731498e+000
 4.4027263869e-001	 1.6764821997e+000	-1.0964632745e+000
 4.2301870300e-001	 1.6809187473e+000	-1.0750275592e+000
 4.0576910071e-001	 1.6851659259e+000	-1.0555678242e+000
 3.8852671073e-001	 1.6892246330e+000	-1.0386117731e+000
 3.7129437657e-001	 1.6930958194e+000	-1.0247077416e+000
 3.5407490523e-001	 1.6967804878e+000	-1.0144203406e+000
 3.3687106623e-001	 1.7002796916e+000	-1.0083269169e+000
 3.2391575750e-001	 1.6348907326e+000	-1.0017069462e+000
 3.0739367329e-001	 1.6380776285e+000	-9.9574148853e-001
 2.9089182401e-001	 1.6410884130e+000	-9.8994209485e-001
 2.7441275411e-001	 1.6439242380e+000	-9.8424088987e-001
 2.5795896856e-001	 1.6465862990e+000	-9.7857674123e-001
 2.4153293213e-001	 1.6490758334e+000	-9.7289367358e-001
 2.2513706867e-001	 1.6513941191e+000	-9.6713953366e-001
 2.0877376045e-001	 1.6535424738e+000	-9.6126484864e-001
 1.9244534752e-001	 1.6555222527e+000	-9.5522182168e-001
 1.7615412720e-001	 1.6573348479e+000	-9.4896341120e-001
 1.5990235352e-001	 1.6589816868e+000	-9.4244244265e-001
 3.2521128837e-001	 1.6414296285e+000	-9.9976068079e-001
 3.0862312257e-001	 1.6446292707e+000	-9.9413602573e-001
 2.9205527262e-001	 1.6476520971e+000	-9.8864500132e-001
 2.7551029316e-001	 1.6504992643e+000	-9.8321294872e-001
 2.5899069919e-001	 1.6531719724e+000	-9.7777282125e-001
 2.4249896532e-001	 1.6556714639e+000	-9.7226377006e-001
 2.2603752509e-001	 1.6579990218e+000	-9.6662998308e-001
 2.0960877031e-001	 1.6601559690e+000	-9.6081971737e-001
 1.9321505039e-001	 1.6621436663e+000	-9.5478446692e-001
 1.7685867184e-001	 1.6639635111e+000	-9.4847821033e-001
 1.6054189769e-001	 1.6656169367e+000	-9.4185668531e-001
 3.2650681924e-001	 1.6479685244e+000	-9.9852274542e-001
 3.0985257185e-001	 1.6511809129e+000	-9.9320595317e-001
 2.9321872124e-001	 1.6542157812e+000	-9.8798780315e-001
 2.7660783222e-001	 1.6570742905e+000	-9.8278837690e-001
 2.6002242981e-001	 1.6597576458e+000	-9.7753622524e-001
 2.4346499850e-001	 1.6622670944e+000	-9.7216712903e-001
 2.2693798151e-001	 1.6646039246e+000	-9.6662311564e-001
 2.1044378017e-001	 1.6667694643e+000	-9.6085166910e-001
 1.9398475326e-001	 1.6687650798e+000	-9.5480507394e-001
 1.7756321647e-001	 1.6705921743e+000	-9.4843983511e-001
 1.6118144187e-001	 1.6722521865e+000	-9.4171611915e-001
 3.2780235012e-001	 1.6545074203e+000	-9.9794574996e-001
 3.1108202112e-001	 1.6577325550e+000	-9.9290507855e-001
 2.9438216985e-001	 1.6607794652e+000	-9.8792590076e-001
 2.7770537128e-001	 1.6636493167e+000	-9.8292450452e-001
 2.6105416044e-001	 1.6663433192e+000	-9.7782649097e-001
 2.4443103168e-001	 1.6688627249e+000	-9.7256571399e-001
 2.2783843793e-001	 1.6712088273e+000	-9.6708347800e-001
 2.1127879003e-001	 1.6733829595e+000	-9.6132792992e-001
 1.9475445613e-001	 1.6753864934e+000	-9.5525358308e-001
 1.7826776111e-001	 1.6772208375e+000	-9.4882091345e-001
 1.6182098604e-001	 1.6788874364e+000	-9.4199597146e-001
 3.2909788099e-001	 1.6610463162e+000	-9.9798179400e-001
 3.1231147040e-001	 1.6642841972e+000	-9.9318675218e-001
 2.9554561846e-001	 1.6673431493e+000	-9.8841428985e-001
 2.7880291033e-001	 1.6702243430e+000	-9.8357830956e-001
 2.6208589107e-001	 1.6729289926e+000	-9.7860285663e-001
 2.4539706486e-001	 1.6754583554e+000	-9.7342124136e-001
 2.2873889435e-001	 1.6778137300e+000	-9.6797542227e-001
 2.1211379989e-001	 1.6799964548e+000	-9.6221558397e-001
 1.9552415901e-001	 1.6820079069e+000	-9.5609984539e-001
 1.7897230575e-001	 1.6838495007e+000	-9.4959403662e-001
 1.6246053022e-001	 1.6855226863e+000	-9.4267148556e-001
 3.3039341186e-001	 1.6675852121e+000	-9.9858247373e-001
 3.1354091968e-001	 1.6708358394e+000	-9.9400387191e-001
 2.9670906707e-001	 1.6739068334e+000	-9.8940756458e-001
 2.7990044939e-001	 1.6767993692e+000	-9.8470641936e-001
 2.6311762169e-001	 1.6795146660e+000	-9.7982426078e-001
 2.4636309805e-001	 1.6820539859e+000	-9.7469517915e-001
 2.2963935077e-001	 1.6844186327e+000	-9.6926310353e-001
 2.1294880976e-001	 1.6866099500e+000	-9.6348156988e-001
 1.9629386188e-001	 1.6886293205e+000	-9.5731361813e-001
 1.7967685039e-001	 1.6904781639e+000	-9.5073175397e-001
 1.6310007439e-001	 1.6921579362e+000	-9.4371791483e-001
 3.3168894273e-001	 1.6741241080e+000	-9.9969888891e-001
 3.1477036895e-001	 1.6773874816e+000	-9.9530888811e-001
 2.9787251569e-001	 1.6804705175e+000	-9.9085992064e-001
 2.8099798844e-001	 1.6833743954e+000	-9.8626511211e-001
 2.6414935232e-001	 1.6861003394e+000	-9.8144934242e-001
 2.4732913123e-001	 1.6886496164e+000	-9.7634874568e-001
 2.3053980719e-001	 1.6910235354e+000	-9.7091047735e-001
 2.1378381962e-001	 1.6932234453e+000	-9.6509267734e-001
 1.9706356475e-001	 1.6952507340e+000	-9.5886456043e-001
 1.8038139503e-001	 1.6971068271e+000	-9.5220656779e-001
 1.6373961856e-001	 1.6987931861e+000	-9.4511051687e-001
 3.3298447361e-001	 1.6806630039e+000	-1.0012816499e+000
 3.1599981823e-001	 1.6839391238e+000	-9.9705380864e-001
 2.9903596430e-001	 1.6870342016e+000	-9.9272515857e-001
 2.8209552750e-001	 1.6899494217e+000	-9.8821031853e-001
 2.6518108295e-001	 1.6926860128e+000	-9.8343644119e-001
 2.4829516441e-001	 1.6952452469e+000	-9.7834290848e-001
 2.3144026360e-001	 1.6976284381e+000	-9.7288129760e-001
 2.1461882948e-001	 1.6998369405e+000	-9.6701554380e-001
 1.9783326762e-001	 1.7018721476e+000	-9.6072222910e-001
 1.8108593966e-001	 1.7037354903e+000	-9.5399092833e-001
 1.6437916274e-001	 1.7054284360e+000	-9.4682454781e-001
 3.3428000448e-001	 1.6872018998e+000	-1.0032808846e+000
 3.1722926751e-001	 1.6904907659e+000	-9.9919020395e-001
 3.0019941291e-001	 1.6935978857e+000	-9.9495668696e-001
 2.8319306656e-001	 1.6965244479e+000	-9.9049762348e-001
 2.6621281357e-001	 1.6992716862e+000	-9.8574359759e-001
 2.4926119760e-001	 1.7018408775e+000	-9.8063838330e-001
 2.3234072002e-001	 1.7042333408e+000	-9.7513911426e-001
 2.1545383934e-001	 1.7064504358e+000	-9.6921665134e-001
 1.9860297050e-001	 1.7084935612e+000	-9.6285607459e-001
 1.8179048430e-001	 1.7103641535e+000	-9.5605722898e-001
 1.6501870691e-001	 1.7120636858e+000	-9.4883525684e-001
 3.3557553535e-001	 1.6937407957e+000	-1.0056462455e+000
 3.1845871678e-001	 1.6970424081e+000	-1.0016692122e+000
 3.0136286152e-001	 1.7001615698e+000	-9.9750752589e-001
 2.8429060561e-001	 1.7030994741e+000	-9.9308226783e-001
 2.6724454420e-001	 1.7058573595e+000	-9.8832855341e-001
 2.5022723078e-001	 1.7084365080e+000	-9.8319563320e-001
 2.3324117644e-001	 1.7108382435e+000	-9.7764727145e-001
 2.1628884920e-001	 1.7130639310e+000	-9.7166232366e-001
 1.9937267337e-001	 1.7151149747e+000	-9.6523543714e-001
 1.8249502894e-001	 1.7169928167e+000	-9.5837780164e-001
 1.6565825109e-001	 1.7186989357e+000	-9.5111788083e-001
 3.3687106623e-001	 1.7002796916e+000	-1.0083269169e+000
 3.1968816606e-001	 1.7035940503e+000	-1.0044415443e+000
 3.0252631014e-001	 1.7067252539e+000	-1.0003303103e+000
 2.8538814467e-001	 1.7096745004e+000	-9.9591915028e-001
 2.6827627483e-001	 1.7124430329e+000	-9.9114875216e-001
 2.5119326396e-001	 1.7150321385e+000	-9.8597486777e-001
 2.3414163286e-001	 1.7174431462e+000	-9.8036890549e-001
 2.1712385907e-001	 1.7196774263e+000	-9.7431872321e-001
 2.0014237624e-001	 1.7217363883e+000	-9.6782954299e-001
 1.8319957358e-001	 1.7236214799e+000	-9.6092491215e-001
 1.6629779526e-001	 1.7253341856e+000	-9.5364763917e-001
 1.5990235352e-001	 1.6589816868e+000	-9.4244244265e-001
 1.4368981387e-001	 1.6604644406e+000	-9.3568536783e-001
 1.2752114421e-001	 1.6617843445e+000	-9.2907804389e-001
 1.1139849959e-001	 1.6629429244e+000	-9.2310388570e-001
 9.5323989124e-002	 1.6639417359e+000	-9.1823805197e-001
 7.9299675675e-002	 1.6647823632e+000	-9.1494514289e-001
 6.3327575639e-002	 1.6654664174e+000	-9.1367673415e-001
 4.7409658713e-002	 1.6659955356e+000	-9.1486872319e-001
 3.1547847738e-002	 1.6663713789e+000	-9.1893846736e-001
 1.5744018570e-002	 1.6665956317e+000	-9.2628169812e-001
 0.0000000000e+000	 1.6666700000e+000	-9.3726919916e-001
 1.6054189769e-001	 1.6656169367e+000	-9.4185668531e-001
 1.4426451450e-001	 1.6671056209e+000	-9.3498222280e-001
 1.2803117676e-001	 1.6684308038e+000	-9.2827639098e-001
 1.1184404814e-001	 1.6695940176e+000	-9.2222780265e-001
 9.5705246189e-002	 1.6705968239e+000	-9.1731837360e-001
 7.9616842025e-002	 1.6714408134e+000	-9.1402115694e-001
 6.3580860105e-002	 1.6721276036e+000	-9.1279800054e-001
 4.7599278006e-002	 1.6726588380e+000	-9.1409700217e-001
 3.1674026258e-002	 1.6730361845e+000	-9.1834974150e-001
 1.5806988221e-002	 1.6732613342e+000	-9.2596827196e-001
 0.0000000000e+000	 1.6733360000e+000	-9.3734186008e-001
 1.6118144187e-001	 1.6722521865e+000	-9.4171611915e-001
 1.4483921513e-001	 1.6737468012e+000	-9.3472813695e-001
 1.2854120931e-001	 1.6750772632e+000	-9.2792750873e-001
 1.1228959669e-001	 1.6762451108e+000	-9.2180710323e-001
 9.6086503254e-002	 1.6772519120e+000	-9.1685468307e-001
 7.9934008375e-002	 1.6780992636e+000	-9.1355088287e-001
 6.3834144572e-002	 1.6787887898e+000	-9.1236699664e-001
 4.7788897299e-002	 1.6793221404e+000	-9.1376254826e-001
 3.1800204778e-002	 1.6797009901e+000	-9.1818262283e-001
 1.5869957872e-002	 1.6799270368e+000	-9.2605494187e-001
 0.0000000000e+000	 1.6800020000e+000	-9.3778666860e-001
 1.6182098604e-001	 1.6788874364e+000	-9.4199597146e-001
 1.4541391576e-001	 1.6803879814e+000	-9.3490062407e-001
 1.2905124186e-001	 1.6817237226e+000	-9.2801068052e-001
 1.1273514524e-001	 1.6828962040e+000	-9.2182229465e-001
 9.6467760320e-002	 1.6839070001e+000	-9.1682813752e-001
 8.0251174725e-002	 1.6847577138e+000	-9.1351552650e-001
 6.4087429038e-002	 1.6854499759e+000	-9.1236434946e-001
 4.7978516592e-002	 1.6859854428e+000	-9.1384475674e-001
 3.1926383299e-002	 1.6863657958e+000	-9.1841459811e-001
 1.5932927524e-002	 1.6865927393e+000	-9.2651658655e-001
 0.0000000000e+000	 1.6866680000e+000	-9.3857517461e-001
 1.6246053022e-001	 1.6855226863e+000	-9.4267148556e-001
 1.4598861639e-001	 1.6870291617e+000	-9.3547726925e-001
 1.2956127441e-001	 1.6883701820e+000	-9.2850532106e-001
 1.1318069379e-001	 1.6895472972e+000	-9.2225407968e-001
 9.6849017386e-002	 1.6905620881e+000	-9.1722015757e-001
 8.0568341075e-002	 1.6914161641e+000	-9.1389662824e-001
 6.4340713505e-002	 1.6921111621e+000	-9.1277109413e-001
 4.8168135886e-002	 1.6926487452e+000	-9.1432350674e-001
 3.2052561820e-002	 1.6930306014e+000	-9.1902371512e-001
 1.5995897176e-002	 1.6932584419e+000	-9.2732872390e-001
 0.0000000000e+000	 1.6933340000e+000	-9.3967964585e-001
 1.6310007439e-001	 1.6921579362e+000	-9.4371791483e-001
 1.4656331703e-001	 1.6936703420e+000	-9.3643572223e-001
 1.3007130696e-001	 1.6950166413e+000	-9.2939096900e-001
 1.1362624234e-001	 1.6961983904e+000	-9.2308334857e-001
 9.7230274452e-002	 1.6972171762e+000	-9.1801241848e-001
 8.0885507425e-002	 1.6980746143e+000	-9.1467605333e-001
 6.4593997972e-002	 1.6987723482e+000	-9.1356866348e-001
 4.8357755180e-002	 1.6993120476e+000	-9.1517914990e-001
 3.2178740341e-002	 1.6996954070e+000	-9.1998857045e-001
 1.6058866827e-002	 1.6999241444e+000	-9.2846749786e-001
 0.0000000000e+000	 1.7000000000e+000	-9.4107305381e-001
 1.6373961856e-001	 1.6987931861e+000	-9.4511051687e-001
 1.4713801766e-001	 1.7003115223e+000	-9.3775369086e-001
 1.3058133951e-001	 1.7016631007e+000	-9.3064727974e-001
 1.1407179089e-001	 1.7028494837e+000	-9.2429117111e-001
 9.7611531517e-002	 1.7038722642e+000	-9.1918684146e-001
 8.1202673775e-002	 1.7047330645e+000	-9.1583598251e-001
 6.4847282439e-002	 1.7054335344e+000	-9.1473887786e-001
 4.8547374473e-002	 1.7059753500e+000	-9.1639249938e-001
 3.2304918862e-002	 1.7063602127e+000	-9.2128829763e-001
 1.6121836479e-002	 1.7065898470e+000	-9.2990966568e-001
 0.0000000000e+000	 1.7066660000e+000	-9.4272905996e-001
 1.6437916274e-001	 1.7054284360e+000	-9.4682454781e-001
 1.4771271829e-001	 1.7069527026e+000	-9.3940893477e-001
 1.3109137206e-001	 1.7083095601e+000	-9.3225401845e-001
 1.1451733944e-001	 1.7095005769e+000	-9.2585878894e-001
 9.7992788583e-002	 1.7105273523e+000	-9.2072558530e-001
 8.1519840125e-002	 1.7113915147e+000	-9.1735890283e-001
 6.5100566905e-002	 1.7120947205e+000	-9.1626393514e-001
 4.8736993767e-002	 1.7126386525e+000	-9.1794481905e-001
 3.2431097383e-002	 1.7130250183e+000	-9.2290255553e-001
 1.6184806131e-002	 1.7132555495e+000	-9.3163258539e-001
 0.0000000000e+000	 1.7133320000e+000	-9.4462200239e-001
 1.6501870691e-001	 1.7120636858e+000	-9.4883525684e-001
 1.4828741892e-001	 1.7135938829e+000	-9.4137925926e-001
 1.3160140461e-001	 1.7149560194e+000	-9.3419105317e-001
 1.1496288799e-001	 1.7161516701e+000	-9.2776760805e-001
 9.8374045649e-002	 1.7171824403e+000	-9.2261103812e-001
 8.1837006475e-002	 1.7180499649e+000	-9.1922759866e-001
 6.5353851372e-002	 1.7187559067e+000	-9.1812640103e-001
 4.8926613060e-002	 1.7193019549e+000	-9.1981781301e-001
 3.2557275904e-002	 1.7196898239e+000	-9.2481151698e-001
 1.6247775782e-002	 1.7199212521e+000	-9.3361420358e-001
 0.0000000000e+000	 1.7199980000e+000	-9.4672688264e-001
 1.6565825109e-001	 1.7186989357e+000	-9.5111788083e-001
 1.4886211955e-001	 1.7202350632e+000	-9.4364250925e-001
 1.3211143715e-001	 1.7216024788e+000	-9.3643834827e-001
 1.1540843653e-001	 1.7228027633e+000	-9.2999919143e-001
 9.8755302714e-002	 1.7238375284e+000	-9.2482580931e-001
 8.2154172825e-002	 1.7247084152e+000	-9.2142514299e-001
 6.5607135838e-002	 1.7254170929e+000	-9.2030919956e-001
 4.9116232353e-002	 1.7259652573e+000	-9.2199361528e-001
 3.2683454424e-002	 1.7263546296e+000	-9.2699585770e-001
 1.6310745433e-002	 1.7265869546e+000	-9.3583304348e-001
 0.0000000000e+000	 1.7266640000e+000	-9.4901935293e-001
 1.6629779526e-001	 1.7253341856e+000	-9.5364763917e-001
 1.4943682018e-001	 1.7268762435e+000	-9.4617656349e-001
 1.3262146970e-001	 1.7282489382e+000	-9.3897595789e-001
 1.1585398508e-001	 1.7294538565e+000	-9.3253525195e-001
 9.9136559780e-002	 1.7304926164e+000	-9.2735272179e-001
 8.2471339175e-002	 1.7313668654e+000	-9.2393488886e-001
 6.5860420304e-002	 1.7320782790e+000	-9.2279560380e-001
 4.9305851646e-002	 1.7326285597e+000	-9.2445477980e-001
 3.2809632944e-002	 1.7330194352e+000	-9.2943674548e-001
 1.6373715085e-002	 1.7332526572e+000	-9.3826819333e-001
 0.0000000000e+000	 1.7333300000e+000	-9.5147570362e-001
 1.7333300000e+000	 0.0000000000e+000	 3.1469676561e+000
 1.7332526572e+000	 1.6373715085e-002	 3.1498606619e+000
 1.7330194352e+000	 3.2809632944e-002	 3.1486174729e+000
 1.7326285597e+000	 4.9305851646e-002	 3.1437470803e+000
 1.7320782790e+000	 6.5860420304e-002	 3.1357507888e+000
 1.7313668654e+000	 8.2471339175e-002	 3.1251213928e+000
 1.7304926164e+000	 9.9136559780e-002	 3.1123419743e+000
 1.7294538565e+000	 1.1585398508e-001	 3.0978843428e+000
 1.7282489382e+000	 1.3262146970e-001	 3.0822071427e+000
 1.7268762435e+000	 1.4943682018e-001	 3.0657536562e+000
 1.7253341856e+000	 1.6629779526e-001	 3.0489493374e+000
 1.7399970000e+000	 0.0000000000e+000	 3.1348863922e+000
 1.7399193597e+000	 1.6436694182e-002	 3.1380333677e+000
 1.7396852407e+000	 3.2935830393e-002	 3.1369438008e+000
 1.7392928617e+000	 4.9495499384e-002	 3.1321468175e+000
 1.7387404645e+000	 6.6113742766e-002	 3.1241660352e+000
 1.7380263145e+000	 8.2788553104e-002	 3.1135186198e+000
 1.7371487029e+000	 9.9517874039e-002	 3.1007139416e+000
 1.7361059475e+000	 1.1629960047e-001	 3.0862518543e+000
 1.7348963946e+000	 1.3313157877e-001	 3.0706206185e+000
 1.7335184201e+000	 1.5001160702e-001	 3.0542945013e+000
 1.7319704309e+000	 1.6693743538e-001	 3.0377310876e+000
 1.7466640000e+000	 0.0000000000e+000	 3.1229203752e+000
 1.7465860622e+000	 1.6499673279e-002	 3.1263244351e+000
 1.7463510461e+000	 3.3062027841e-002	 3.1253895502e+000
 1.7459571637e+000	 4.9685147121e-002	 3.1206651865e+000
 1.7454026499e+000	 6.6367065228e-002	 3.1126975742e+000
 1.7446857636e+000	 8.3105767032e-002	 3.1020286424e+000
 1.7438047893e+000	 9.9899188298e-002	 3.0891945311e+000
 1.7427580385e+000	 1.1674521586e-001	 3.0747237038e+000
 1.7415438511e+000	 1.3364168783e-001	 3.0591346832e+000
 1.7401605966e+000	 1.5058639387e-001	 3.0429334426e+000
 1.7386066762e+000	 1.6757707549e-001	 3.0266104883e+000
 1.7533310000e+000	 0.0000000000e+000	 3.1110542243e+000
 1.7532527647e+000	 1.6562652376e-002	 3.1147202548e+000
 1.7530168516e+000	 3.3188225289e-002	 3.1139423936e+000
 1.7526214657e+000	 4.9874794859e-002	 3.1092906644e+000
 1.7520648353e+000	 6.6620387689e-002	 3.1013342248e+000
 1.7513452127e+000	 8.3422980960e-002	 3.0906401762e+000
 1.7504608757e+000	 1.0028050256e-001	 3.0777719278e+000
 1.7494101295e+000	 1.1719083125e-001	 3.0632871386e+000
 1.7481913075e+000	 1.3415179689e-001	 3.0477352617e+000
 1.7468027732e+000	 1.5116118071e-001	 3.0316547209e+000
 1.7452429214e+000	 1.6821671561e-001	 3.0155697593e+000
 1.7599980000e+000	 0.0000000000e+000	 3.0992720823e+000
 1.7599194672e+000	 1.6625631473e-002	 3.1032068700e+000
 1.7596826570e+000	 3.3314422737e-002	 3.1025897755e+000
 1.7592857678e+000	 5.0064442596e-002	 3.0980116114e+000
 1.7587270208e+000	 6.6873710150e-002	 3.0900647926e+000
 1.7580046618e+000	 8.3740194888e-002	 3.0793420184e+000
 1.7571169621e+000	 1.0066181682e-001	 3.0664344855e+000
 1.7560622204e+000	 1.1763644663e-001	 3.0519296553e+000
 1.7548387639e+000	 1.3466190595e-001	 3.0364086012e+000
 1.7534449498e+000	 1.5173596756e-001	 3.0204429661e+000
 1.7518791667e+000	 1.6885635573e-001	 3.0045915709e+000
 1.7666650000e+000	 0.0000000000e+000	 3.0875576246e+000
 1.7665861698e+000	 1.6688610569e-002	 3.0917699838e+000
 1.7663484625e+000	 3.3440620184e-002	 3.0913189194e+000
 1.7659500698e+000	 5.0254090332e-002	 3.0868162769e+000
 1.7653892062e+000	 6.7127032611e-002	 3.0788780738e+000
 1.7646641108e+000	 8.4057408816e-002	 3.0681230505e+000
 1.7637730485e+000	 1.0104313107e-001	 3.0551707287e+000
 1.7627143114e+000	 1.1808206202e-001	 3.0406389999e+000
 1.7614862204e+000	 1.3517201501e-001	 3.0251412704e+000
 1.7600871263e+000	 1.5231075440e-001	 3.0092831952e+000
 1.7585154120e+000	 1.6949599584e-001	 2.9936590394e+000
 1.7733320000e+000	 0.0000000000e+000	 3.0758940679e+000
 1.7732528723e+000	 1.6751589666e-002	 3.0803949673e+000
 1.7730142679e+000	 3.3566817631e-002	 3.0801168339e+000
 1.7726143718e+000	 5.0443738068e-002	 3.0756928044e+000
 1.7720513917e+000	 6.7380355071e-002	 3.0677628594e+000
 1.7713235599e+000	 8.4374622743e-002	 3.0569722415e+000
 1.7704291350e+000	 1.0142444533e-001	 3.0439693543e+000
 1.7693664024e+000	 1.1852767741e-001	 3.0294031681e+000
 1.7681336768e+000	 1.3568212407e-001	 3.0139201586e+000
 1.7667293029e+000	 1.5288554125e-001	 2.9981608102e+000
 1.7651516572e+000	 1.7013563596e-001	 2.9827557249e+000
 1.7799990000e+000	 0.0000000000e+000	 3.0642641789e+000
 1.7799195748e+000	 1.6814568762e-002	 3.0690668668e+000
 1.7796800734e+000	 3.3693015078e-002	 3.0689703196e+000
 1.7792786738e+000	 5.0633385805e-002	 3.0646292369e+000
 1.7787135771e+000	 6.7633677531e-002	 3.0567079395e+000
 1.7779830090e+000	 8.4691836670e-002	 3.0458786507e+000
 1.7770852214e+000	 1.0180575959e-001	 3.0328192329e+000
 1.7760184934e+000	 1.1897329279e-001	 3.0182104063e+000
 1.7747811332e+000	 1.3619223313e-001	 3.0027324753e+000
 1.7733714795e+000	 1.5346032809e-001	 2.9870615960e+000
 1.7717879025e+000	 1.7077527607e-001	 2.9718656272e+000
 1.7866660000e+000	 0.0000000000e+000	 3.0526502826e+000
 1.7865862773e+000	 1.6877547859e-002	 3.0577704112e+000
 1.7863458789e+000	 3.3819212525e-002	 3.0578659749e+000
 1.7859429758e+000	 5.0823033541e-002	 3.0536135220e+000
 1.7853757625e+000	 6.7886999991e-002	 3.0457021068e+000
 1.7846424581e+000	 8.5009050597e-002	 3.0348314302e+000
 1.7837413078e+000	 1.0218707385e-001	 3.0217094109e+000
 1.7826705844e+000	 1.1941890818e-001	 3.0070492115e+000
 1.7814285897e+000	 1.3670234219e-001	 2.9915657486e+000
 1.7800136561e+000	 1.5403511493e-001	 2.9759717185e+000
 1.7784241478e+000	 1.7141491619e-001	 2.9609731829e+000
 1.7933330000e+000	 0.0000000000e+000	 3.0410342704e+000
 1.7932529798e+000	 1.6940526955e-002	 3.0464900193e+000
 1.7930116843e+000	 3.3945409972e-002	 3.0467902023e+000
 1.7926072778e+000	 5.1012681276e-002	 3.0426335170e+000
 1.7920379480e+000	 6.8140322451e-002	 3.0347341608e+000
 1.7913019072e+000	 8.5326264524e-002	 3.0238198282e+000
 1.7903973942e+000	 1.0256838811e-001	 3.0106291117e+000
 1.7893226754e+000	 1.1986452356e-001	 2.9959083320e+000
 1.7880760461e+000	 1.3721245125e-001	 2.9804078254e+000
 1.7866558326e+000	 1.5460990178e-001	 2.9648777225e+000
 1.7850603930e+000	 1.7205455631e-001	 2.9500632623e+000
 1.8000000000e+000	 0.0000000000e+000	 3.0293976085e+000
 1.7999196823e+000	 1.7003506051e-002	 3.0352098065e+000
 1.7996774898e+000	 3.4071607418e-002	 3.0357292141e+000
 1.7992715798e+000	 5.1202329012e-002	 3.0316769933e+000
 1.7987001334e+000	 6.8393644910e-002	 3.0237929114e+000
 1.7979613563e+000	 8.5643478450e-002	 3.0128331911e+000
 1.7970534806e+000	 1.0294970236e-001	 2.9995677374e+000
 1.7959747663e+000	 1.2031013895e-001	 2.9847767675e+000
 1.7947235026e+000	 1.3772256031e-001	 2.9692468697e+000
 1.7932980092e+000	 1.5518468862e-001	 2.9537665297e+000
 1.7916966383e+000	 1.7269419642e-001	 2.9391211659e+000
 1.7253341856e+000	 1.6629779526e-001	 3.0489493374e+000
 1.7236214799e+000	 1.8319957358e-001	 3.0293711081e+000
 1.7217363883e+000	 2.0014237624e-001	 3.0046841416e+000
 1.7196774263e+000	 2.1712385907e-001	 2.9754139954e+000
 1.7174431462e+000	 2.3414163286e-001	 2.9420500044e+000
 1.7150321385e+000	 2.5119326396e-001	 2.9050414734e+000
 1.7124430329e+000	 2.6827627483e-001	 2.8647939295e+000
 1.7096745004e+000	 2.8538814467e-001	 2.8216655108e+000
 1.7067252539e+000	 3.0252631014e-001	 2.7759635758e+000
 1.7035940503e+000	 3.1968816606e-001	 2.7279416202e+000
 1.7002796916e+000	 3.3687106623e-001	 2.6777965939e+000
 1.7319704309e+000	 1.6693743538e-001	 3.0377310876e+000
 1.7302511375e+000	 1.8390422391e-001	 3.0184781798e+000
 1.7283587952e+000	 2.0091219458e-001	 2.9941405151e+000
 1.7262919136e+000	 2.1795899419e-001	 2.9652294953e+000
 1.7240490398e+000	 2.3504222436e-001	 2.9322202711e+000
 1.7216287584e+000	 2.5215944207e-001	 2.8955477056e+000
 1.7190296943e+000	 2.6930816023e-001	 2.8556023903e+000
 1.7162505129e+000	 2.8648584837e-001	 2.8127267898e+000
 1.7132899226e+000	 3.0368993328e-001	 2.7672116034e+000
 1.7101466753e+000	 3.2091779977e-001	 2.7192924318e+000
 1.7068195684e+000	 3.3816679145e-001	 2.6691468443e+000
 1.7386066762e+000	 1.6757707549e-001	 3.0266104883e+000
 1.7368807951e+000	 1.8460887424e-001	 3.0076870563e+000
 1.7349812020e+000	 2.0168201292e-001	 2.9837087226e+000
 1.7329064010e+000	 2.1879412932e-001	 2.9551716675e+000
 1.7306549333e+000	 2.3594281586e-001	 2.9225358052e+000
 1.7282253784e+000	 2.5312562017e-001	 2.8862205154e+000
 1.7256163556e+000	 2.7034004563e-001	 2.8466004148e+000
 1.7228265255e+000	 2.8758355208e-001	 2.8040012543e+000
 1.7198545913e+000	 3.0485355643e-001	 2.7586960257e+000
 1.7166993003e+000	 3.2214743349e-001	 2.7109013734e+000
 1.7133594453e+000	 3.3946251667e-001	 2.6607744054e+000
 1.7452429214e+000	 1.6821671561e-001	 3.0155697593e+000
 1.7435104527e+000	 1.8531352457e-001	 2.9969776046e+000
 1.7416036089e+000	 2.0245183126e-001	 2.9733659659e+000
 1.7395208884e+000	 2.1962926445e-001	 2.9452147873e+000
 1.7372608268e+000	 2.3684340737e-001	 2.9129677484e+000
 1.7348219983e+000	 2.5409179827e-001	 2.8770277557e+000
 1.7322030169e+000	 2.7137193104e-001	 2.8377524676e+000
 1.7294025381e+000	 2.8868125578e-001	 2.7954499356e+000
 1.7264192601e+000	 3.0601717958e-001	 2.7503744522e+000
 1.7232519254e+000	 3.2337706720e-001	 2.7027226992e+000
 1.7198993221e+000	 3.4075824189e-001	 2.6526302983e+000
 1.7518791667e+000	 1.6885635573e-001	 3.0045915709e+000
 1.7501401103e+000	 1.8601817490e-001	 2.9863301973e+000
 1.7482260158e+000	 2.0322164960e-001	 2.9630900031e+000
 1.7461353758e+000	 2.2046439958e-001	 2.9353337338e+000
 1.7438667204e+000	 2.3774399887e-001	 2.9034878874e+000
 1.7414186183e+000	 2.5505797638e-001	 2.8679379629e+000
 1.7387896783e+000	 2.7240381644e-001	 2.8290237307e+000
 1.7359785507e+000	 2.8977895949e-001	 2.7870346131e+000
 1.7329839288e+000	 3.0718080273e-001	 2.7422052663e+000
 1.7298045504e+000	 3.2460670091e-001	 2.6947114603e+000
 1.7264391989e+000	 3.4205396712e-001	 2.6446663612e+000
 1.7585154120e+000	 1.6949599584e-001	 2.9936590394e+000
 1.7567697679e+000	 1.8672282524e-001	 2.9757257077e+000
 1.7548484226e+000	 2.0399146794e-001	 2.9528591432e+000
 1.7527498631e+000	 2.2129953470e-001	 2.9255039813e+000
 1.7504726139e+000	 2.3864459037e-001	 2.8940686458e+000
 1.7480152383e+000	 2.5602415448e-001	 2.8589203468e+000
 1.7453763396e+000	 2.7343570185e-001	 2.8203800923e+000
 1.7425545633e+000	 2.9087666319e-001	 2.7787178011e+000
 1.7395485976e+000	 3.0834442588e-001	 2.7341476121e+000
 1.7363571754e+000	 3.2583633463e-001	 2.6868234904e+000
 1.7329790757e+000	 3.4334969234e-001	 2.6368352336e+000
 1.7651516572e+000	 1.7013563596e-001	 2.9827557249e+000
 1.7633994255e+000	 1.8742747557e-001	 2.9651455058e+000
 1.7614708295e+000	 2.0476128629e-001	 2.9426522398e+000
 1.7593643505e+000	 2.2213466983e-001	 2.9157015932e+000
 1.7570785075e+000	 2.3954518187e-001	 2.8846830755e+000
 1.7546118582e+000	 2.5699033259e-001	 2.8499447813e+000
 1.7519630010e+000	 2.7446758725e-001	 2.8117881363e+000
 1.7491305759e+000	 2.9197436690e-001	 2.7704627371e+000
 1.7461132663e+000	 3.0950804903e-001	 2.7261613812e+000
 1.7429098004e+000	 3.2706596834e-001	 2.6790153915e+000
 1.7395189526e+000	 3.4464541756e-001	 2.6290903408e+000
 1.7717879025e+000	 1.7077527607e-001	 2.9718656272e+000
 1.7700290831e+000	 1.8813212590e-001	 2.9545714531e+000
 1.7680932364e+000	 2.0553110463e-001	 2.9324486855e+000
 1.7659788379e+000	 2.2296980496e-001	 2.9059032145e+000
 1.7636844010e+000	 2.4044577338e-001	 2.8753048485e+000
 1.7612084782e+000	 2.5795651069e-001	 2.8409817943e+000
 1.7585496623e+000	 2.7549947265e-001	 2.8032151310e+000
 1.7557065884e+000	 2.9307207060e-001	 2.7622333701e+000
 1.7526779350e+000	 3.1067167217e-001	 2.7182071997e+000
 1.7494624254e+000	 3.2829560206e-001	 2.6712445200e+000
 1.7460588294e+000	 3.4594114278e-001	 2.6213858795e+000
 1.7784241478e+000	 1.7141491619e-001	 2.9609731829e+000
 1.7766587407e+000	 1.8883677623e-001	 2.9439858986e+000
 1.7747156432e+000	 2.0630092297e-001	 2.9222284062e+000
 1.7725933253e+000	 2.2380494009e-001	 2.8960860649e+000
 1.7702902946e+000	 2.4134636488e-001	 2.8659082486e+000
 1.7678050981e+000	 2.5892268880e-001	 2.8320025587e+000
 1.7651363236e+000	 2.7653135806e-001	 2.7946290189e+000
 1.7622826010e+000	 2.9416977431e-001	 2.7539943488e+000
 1.7592426038e+000	 3.1183529532e-001	 2.7102464153e+000
 1.7560150505e+000	 3.2952523577e-001	 2.6634689728e+000
 1.7525987062e+000	 3.4723686801e-001	 2.6136768026e+000
 1.7850603930e+000	 1.7205455631e-001	 2.9500632623e+000
 1.7832883983e+000	 1.8954142656e-001	 2.9333716743e+000
 1.7813380501e+000	 2.0707074131e-001	 2.9119718553e+000
 1.7792078126e+000	 2.2464007521e-001	 2.8862279317e+000
 1.7768961881e+000	 2.4224695638e-001	 2.8564681634e+000
 1.7744017181e+000	 2.5988886690e-001	 2.8229788831e+000
 1.7717229850e+000	 2.7756324346e-001	 2.7859984061e+000
 1.7688586136e+000	 2.9526747801e-001	 2.7457110096e+000
 1.7658072725e+000	 3.1299891847e-001	 2.7022410849e+000
 1.7625676755e+000	 3.3075486948e-001	 2.6556475737e+000
 1.7591385831e+000	 3.4853259323e-001	 2.6059188047e+000
 1.7916966383e+000	 1.7269419642e-001	 2.9391211659e+000
 1.7899180559e+000	 1.9024607689e-001	 2.9227120905e+000
 1.7879604570e+000	 2.0784055965e-001	 2.9016600084e+000
 1.7858223000e+000	 2.2547521034e-001	 2.8763071635e+000
 1.7835020816e+000	 2.4314754788e-001	 2.8469600763e+000
 1.7809983380e+000	 2.6085504500e-001	 2.8138832027e+000
 1.7783096463e+000	 2.7859512886e-001	 2.7772925523e+000
 1.7754346262e+000	 2.9636518172e-001	 2.7373493660e+000
 1.7723719412e+000	 3.1416254162e-001	 2.6941539618e+000
 1.7691203005e+000	 3.3198450320e-001	 2.6477398598e+000
 1.7656784599e+000	 3.4982831845e-001	 2.5980683076e+000
 1.7002796916e+000	 3.3687106623e-001	 2.6777965939e+000
 1.6967804878e+000	 3.5407490523e-001	 2.6263291687e+000
 1.6930958194e+000	 3.7129437657e-001	 2.5738834815e+000
 1.6892246330e+000	 3.8852671073e-001	 2.5198637910e+000
 1.6851659259e+000	 4.0576910071e-001	 2.4636206869e+000
 1.6809187473e+000	 4.2301870300e-001	 2.4044532657e+000
 1.6764821997e+000	 4.4027263869e-001	 2.3416123322e+000
 1.6718554400e+000	 4.5752799460e-001	 2.2743047313e+000
 1.6670376810e+000	 4.7478182447e-001	 2.2016989060e+000
 1.6620281924e+000	 4.9203115015e-001	 2.1229317804e+000
 1.6568263024e+000	 5.0927296292e-001	 2.0371170598e+000
 1.7068195684e+000	 3.3816679145e-001	 2.6691468443e+000
 1.7033069054e+000	 3.5543680250e-001	 2.6176246889e+000
 1.6996080645e+000	 3.7272250601e-001	 2.5651430560e+000
 1.6957219882e+000	 3.9002112183e-001	 2.5111195933e+000
 1.6916476699e+000	 4.0732983213e-001	 2.4549159152e+000
 1.6873841551e+000	 4.2464578249e-001	 2.3958395157e+000
 1.6829305429e+000	 4.4196608292e-001	 2.3331467250e+000
 1.6782859871e+000	 4.5928780903e-001	 2.2660468143e+000
 1.6734496973e+000	 4.7660800322e-001	 2.1937073521e+000
 1.6684209405e+000	 4.9392367591e-001	 2.1152609105e+000
 1.6631990421e+000	 5.1123180679e-001	 2.0298132189e+000
 1.7133594453e+000	 3.3946251667e-001	 2.6607744054e+000
 1.7098333231e+000	 3.5679869977e-001	 2.6092120701e+000
 1.7061203096e+000	 3.7415063546e-001	 2.5567038741e+000
 1.7022193433e+000	 3.9151553292e-001	 2.5026820431e+000
 1.6981294138e+000	 4.0889056355e-001	 2.4465203635e+000
 1.6938495629e+000	 4.2627286198e-001	 2.3875358229e+000
 1.6893788862e+000	 4.4365952714e-001	 2.3249913107e+000
 1.6847165342e+000	 4.6104762346e-001	 2.2580994880e+000
 1.6798617136e+000	 4.7843418198e-001	 2.1860279318e+000
 1.6748136885e+000	 4.9581620167e-001	 2.1079056560e+000
 1.6695717818e+000	 5.1319065065e-001	 2.0228311103e+000
 1.7198993221e+000	 3.4075824189e-001	 2.6526302983e+000
 1.7163597408e+000	 3.5816059704e-001	 2.6010391880e+000
 1.7126325547e+000	 3.7557876490e-001	 2.5485106993e+000
 1.7087166985e+000	 3.9300994401e-001	 2.4944928524e+000
 1.7046111577e+000	 4.1045129498e-001	 2.4383727793e+000
 1.7003149707e+000	 4.2789994147e-001	 2.3794780818e+000
 1.6958272294e+000	 4.4535297137e-001	 2.3170792670e+000
 1.6911470813e+000	 4.6280743788e-001	 2.2503933715e+000
 1.6862737299e+000	 4.8026036074e-001	 2.1785888840e+000
 1.6812064366e+000	 4.9770872743e-001	 2.1007920732e+000
 1.6759445216e+000	 5.1514949452e-001	 2.0160948219e+000
 1.7264391989e+000	 3.4205396712e-001	 2.6446663612e+000
 1.7228861584e+000	 3.5952249431e-001	 2.5930547529e+000
 1.7191447998e+000	 3.7700689435e-001	 2.5405091479e+000
 1.7152140537e+000	 3.9450435511e-001	 2.4864946046e+000
 1.7110929017e+000	 4.1201202640e-001	 2.4304128011e+000
 1.7067803785e+000	 4.2952702096e-001	 2.3716031002e+000
 1.7022755727e+000	 4.4704641560e-001	 2.3093447087e+000
 1.6975776284e+000	 4.6456725231e-001	 2.2428600474e+000
 1.6926857462e+000	 4.8208653949e-001	 2.1713194417e+000
 1.6875991846e+000	 4.9960125319e-001	 2.0938472465e+000
 1.6823172613e+000	 5.1710833839e-001	 2.0095295081e+000
 1.7329790757e+000	 3.4334969234e-001	 2.6368352336e+000
 1.7294125761e+000	 3.6088439158e-001	 2.5852082934e+000
 1.7256570450e+000	 3.7843502379e-001	 2.5326456715e+000
 1.7217114088e+000	 3.9599876620e-001	 2.4786307364e+000
 1.7175746456e+000	 4.1357275782e-001	 2.4225809400e+000
 1.7132457863e+000	 4.3115410045e-001	 2.3638485788e+000
 1.7087239160e+000	 4.4873985983e-001	 2.3017226671e+000
 1.7040081755e+000	 4.6632706674e-001	 2.2354320411e+000
 1.6990977625e+000	 4.8391271825e-001	 2.1641498099e+000
 1.6939919326e+000	 5.0149377895e-001	 2.0869992660e+000
 1.6886900010e+000	 5.1906718226e-001	 2.0030613671e+000
 1.7395189526e+000	 3.4464541756e-001	 2.6290903408e+000
 1.7359389937e+000	 3.6224628885e-001	 2.5774501405e+000
 1.7321692901e+000	 3.7986315323e-001	 2.5248675401e+000
 1.7282087640e+000	 3.9749317730e-001	 2.4708455196e+000
 1.7240563896e+000	 4.1513348924e-001	 2.4148185603e+000
 1.7197111941e+000	 4.3278117994e-001	 2.3561530920e+000
 1.7151722592e+000	 4.5043330405e-001	 2.2941490692e+000
 1.7104387226e+000	 4.6808688116e-001	 2.2280427997e+000
 1.7055097788e+000	 4.8573889701e-001	 2.1570111444e+000
 1.7003846807e+000	 5.0338630472e-001	 2.0801772055e+000
 1.6950627408e+000	 5.2102602613e-001	 1.9966176182e+000
 1.7460588294e+000	 3.4594114278e-001	 2.6213858795e+000
 1.7424654114e+000	 3.6360818612e-001	 2.5697314112e+000
 1.7386815352e+000	 3.8129128268e-001	 2.5171228253e+000
 1.7347061192e+000	 3.9898758839e-001	 2.4630840438e+000
 1.7305381335e+000	 4.1669422066e-001	 2.4070678618e+000
 1.7261766019e+000	 4.3440825943e-001	 2.3484560689e+000
 1.7216206025e+000	 4.5212674828e-001	 2.2865607189e+000
 1.7168692697e+000	 4.6984669559e-001	 2.2206266713e+000
 1.7119217951e+000	 4.8756507576e-001	 2.1498355302e+000
 1.7067774287e+000	 5.0527883048e-001	 2.0733111006e+000
 1.7014354805e+000	 5.2298487000e-001	 1.9901264792e+000
 1.7525987062e+000	 3.4723686801e-001	 2.6136768026e+000
 1.7489918290e+000	 3.6497008339e-001	 2.5620039932e+000
 1.7451937803e+000	 3.8271941212e-001	 2.5093603839e+000
 1.7412034743e+000	 4.0048199948e-001	 2.4552921991e+000
 1.7370198774e+000	 4.1825495208e-001	 2.3992718608e+000
 1.7326420096e+000	 4.3603533892e-001	 2.3406977738e+000
 1.7280689458e+000	 4.5382019251e-001	 2.2788952763e+000
 1.7232998168e+000	 4.7160651002e-001	 2.2131188848e+000
 1.7183338114e+000	 4.8939125452e-001	 2.1425559613e+000
 1.7131701768e+000	 5.0717135624e-001	 2.0663319272e+000
 1.7078082202e+000	 5.2494371387e-001	 1.9835171449e+000
 1.7591385831e+000	 3.4853259323e-001	 2.6059188047e+000
 1.7555182467e+000	 3.6633198066e-001	 2.5542205292e+000
 1.7517060254e+000	 3.8414754157e-001	 2.5015298411e+000
 1.7477008295e+000	 4.0197641058e-001	 2.4474166584e+000
 1.7435016214e+000	 4.1981568351e-001	 2.3913743730e+000
 1.7391074174e+000	 4.3766241841e-001	 2.3328192881e+000
 1.7345172890e+000	 4.5551363674e-001	 2.2710912390e+000
 1.7297303639e+000	 4.7336632444e-001	 2.2054555299e+000
 1.7247458277e+000	 4.9121743328e-001	 2.1351063191e+000
 1.7195629248e+000	 5.0906388200e-001	 2.0591715804e+000
 1.7141809600e+000	 5.2690255774e-001	 1.9767197651e+000
 1.7656784599e+000	 3.4982831845e-001	 2.5980683076e+000
 1.7620446643e+000	 3.6769387793e-001	 2.5463344017e+000
 1.7582182705e+000	 3.8557567101e-001	 2.4935815748e+000
 1.7541981846e+000	 4.0347082167e-001	 2.4394048610e+000
 1.7499833653e+000	 4.2137641493e-001	 2.3833199952e+000
 1.7455728252e+000	 4.3928949790e-001	 2.3247624914e+000
 1.7409656323e+000	 4.5720708096e-001	 2.2630879224e+000
 1.7361609110e+000	 4.7512613887e-001	 2.1975735371e+000
 1.7311578440e+000	 4.9304361203e-001	 2.1274213528e+000
 1.7259556728e+000	 5.1095640776e-001	 2.0517628535e+000
 1.7205536997e+000	 5.2886140161e-001	 1.9696654231e+000
 1.6568263024e+000	 5.0927296292e-001	 2.0371170598e+000
 1.6514313977e+000	 5.2650422454e-001	 1.9455766627e+000
 1.6458429242e+000	 5.4372186784e-001	 1.8505516746e+000
 1.6400603887e+000	 5.6092279885e-001	 1.7525310764e+000
 1.6340833611e+000	 5.7810389852e-001	 1.6520250894e+000
 1.6279114744e+000	 5.9526202419e-001	 1.5495794965e+000
 1.6215444267e+000	 6.1239401118e-001	 1.4457917588e+000
 1.6149819816e+000	 6.2949667433e-001	 1.3413289670e+000
 1.6082239692e+000	 6.4656680968e-001	 1.2369476513e+000
 1.6012702869e+000	 6.6360119611e-001	 1.1335154644e+000
 1.5941209003e+000	 6.8059659704e-001	 1.0362470668e+000
 1.6631990421e+000	 5.1123180679e-001	 2.0298132189e+000
 1.6577833867e+000	 5.2852934593e-001	 1.9386179220e+000
 1.6521734179e+000	 5.4581321437e-001	 1.8438369874e+000
 1.6463686408e+000	 5.6308030625e-001	 1.7459292044e+000
 1.6403686234e+000	 5.8032749050e-001	 1.6453703969e+000
 1.6341729975e+000	 5.9755161239e-001	 1.5426677940e+000
 1.6277814599e+000	 6.1474949506e-001	 1.4383762440e+000
 1.6211937733e+000	 6.3191794110e-001	 1.3331163120e+000
 1.6144097672e+000	 6.4905373423e-001	 1.2275942888e+000
 1.6074293385e+000	 6.6615364093e-001	 1.1226241253e+000
 1.6002524529e+000	 6.8321441218e-001	 1.0251404582e+000
 1.6695717818e+000	 5.1319065065e-001	 2.0228311103e+000
 1.6641353757e+000	 5.3055446732e-001	 1.9319886137e+000
 1.6585039117e+000	 5.4790456091e-001	 1.8374579569e+000
 1.6526768929e+000	 5.6523781365e-001	 1.7396652520e+000
 1.6466538857e+000	 5.8255108249e-001	 1.6390493171e+000
 1.6404345206e+000	 5.9984120059e-001	 1.5360760963e+000
 1.6340184931e+000	 6.1710497894e-001	 1.4312549717e+000
 1.6274055650e+000	 6.3433920787e-001	 1.3251570092e+000
 1.6205955651e+000	 6.5154065877e-001	 1.2184351696e+000
 1.6135883902e+000	 6.6870608574e-001	 1.1119306769e+000
 1.6063840055e+000	 6.8583222731e-001	 1.0143652138e+000
 1.6759445216e+000	 5.1514949452e-001	 2.0160948219e+000
 1.6704873647e+000	 5.3257958872e-001	 1.9256111921e+000
 1.6648344055e+000	 5.4999590745e-001	 1.8313358782e+000
 1.6589851451e+000	 5.6739532105e-001	 1.7336598722e+000
 1.6529391481e+000	 5.8477467447e-001	 1.6329824183e+000
 1.6466960436e+000	 6.0213078879e-001	 1.5297254813e+000
 1.6402555262e+000	 6.1946046282e-001	 1.4243501575e+000
 1.6336173567e+000	 6.3676047464e-001	 1.3173750717e+000
 1.6267813631e+000	 6.5402758332e-001	 1.2093967922e+000
 1.6197474419e+000	 6.7125853056e-001	 1.1015483488e+000
 1.6125155581e+000	 6.8845004245e-001	 1.0038578113e+000
 1.6823172613e+000	 5.1710833839e-001	 2.0095295081e+000
 1.6768393538e+000	 5.3460471011e-001	 1.9194092196e+000
 1.6711648993e+000	 5.5208725398e-001	 1.8253931977e+000
 1.6652933972e+000	 5.6955282845e-001	 1.7278349147e+000
 1.6592244104e+000	 5.8699826645e-001	 1.6270915118e+000
 1.6529575667e+000	 6.0442037699e-001	 1.5235383173e+000
 1.6464925594e+000	 6.2181594670e-001	 1.4175853569e+000
 1.6398291484e+000	 6.3918174140e-001	 1.3096959025e+000
 1.6329671611e+000	 6.5651450786e-001	 1.2004070952e+000
 1.6259064935e+000	 6.7381097538e-001	 1.0914178827e+000
 1.6186471107e+000	 6.9106785759e-001	 9.9355545063e-001
 1.6886900010e+000	 5.1906718226e-001	 2.0030613671e+000
 1.6831913428e+000	 5.3662983150e-001	 1.9133073435e+000
 1.6774953930e+000	 5.5417860052e-001	 1.8195534904e+000
 1.6716016493e+000	 5.7171033585e-001	 1.7221134020e+000
 1.6655096728e+000	 5.8922185843e-001	 1.6212996281e+000
 1.6592190898e+000	 6.0670996520e-001	 1.5174382401e+000
 1.6527295926e+000	 6.2417143057e-001	 1.4108854415e+000
 1.6460409400e+000	 6.4160300817e-001	 1.3020462706e+000
 1.6391529591e+000	 6.5900143241e-001	 1.1913954342e+000
 1.6320655452e+000	 6.7636342020e-001	 1.0814746087e+000
 1.6247786633e+000	 6.9368567273e-001	 9.8339604187e-001
 1.6950627408e+000	 5.2102602613e-001	 1.9966176182e+000
 1.6895433318e+000	 5.3865495290e-001	 1.9072312730e+000
 1.6838258868e+000	 5.5626994706e-001	 1.8137414353e+000
 1.6779099014e+000	 5.7386784325e-001	 1.7164195059e+000
 1.6717949351e+000	 5.9144545042e-001	 1.6155309935e+000
 1.6654806129e+000	 6.0899955340e-001	 1.5113501289e+000
 1.6589666257e+000	 6.2652691445e-001	 1.4041765757e+000
 1.6522527317e+000	 6.4402427494e-001	 1.2943542886e+000
 1.6453387571e+000	 6.6148835695e-001	 1.1822925596e+000
 1.6382245968e+000	 6.7891586502e-001	 1.0716545634e+000
 1.6309102159e+000	 6.9630348787e-001	 9.7331819319e-001
 1.7014354805e+000	 5.2298487000e-001	 1.9901264792e+000
 1.6958953208e+000	 5.4068007429e-001	 1.9011077564e+000
 1.6901563806e+000	 5.5836129360e-001	 1.8078827934e+000
 1.6842181535e+000	 5.7602535065e-001	 1.7106785240e+000
 1.6780801974e+000	 5.9366904240e-001	 1.6097110062e+000
 1.6717421360e+000	 6.1128914160e-001	 1.5052000830e+000
 1.6652036589e+000	 6.2888239833e-001	 1.3973861940e+000
 1.6584645234e+000	 6.4644554171e-001	 1.2865493900e+000
 1.6515245550e+000	 6.6397528150e-001	 1.1730305952e+000
 1.6443836485e+000	 6.8146830983e-001	 1.0618944784e+000
 1.6370417684e+000	 6.9892130301e-001	 9.6326119917e-001
 1.7078082202e+000	 5.2494371387e-001	 1.9835171449e+000
 1.7022473099e+000	 5.4270519568e-001	 1.8948645588e+000
 1.6964868744e+000	 5.6045264013e-001	 1.8019043842e+000
 1.6905264056e+000	 5.7818285805e-001	 1.7048168570e+000
 1.6843654598e+000	 5.9589263438e-001	 1.6037662139e+000
 1.6780036590e+000	 6.1357872980e-001	 1.4989153994e+000
 1.6714406920e+000	 6.3123788221e-001	 1.3904429780e+000
 1.6646763151e+000	 6.4886680848e-001	 1.2785623070e+000
 1.6577103530e+000	 6.6646220604e-001	 1.1635430158e+000
 1.6505427001e+000	 6.8402075465e-001	 1.0521317686e+000
 1.6431733210e+000	 7.0153911814e-001	 9.5316502948e-001
 1.7141809600e+000	 5.2690255774e-001	 1.9767197651e+000
 1.7085992989e+000	 5.4473031708e-001	 1.8884304397e+000
 1.7028173681e+000	 5.6254398667e-001	 1.7957340638e+000
 1.6968346577e+000	 5.8034036544e-001	 1.6987619860e+000
 1.6906507221e+000	 5.9811622637e-001	 1.5976242908e+000
 1.6842651821e+000	 6.1586831800e-001	 1.4924245498e+000
 1.6776777252e+000	 6.3359336609e-001	 1.3832768345e+000
 1.6708881068e+000	 6.5128807525e-001	 1.2703250485e+000
 1.6638961510e+000	 6.6894913058e-001	 1.1538655794e+000
 1.6567017518e+000	 6.8657319947e-001	 1.0423045205e+000
 1.6493048736e+000	 7.0415693328e-001	 9.4297031786e-001
 1.7205536997e+000	 5.2886140161e-001	 1.9696654231e+000
 1.7149512879e+000	 5.4675543847e-001	 1.8817351313e+000
 1.7091478619e+000	 5.6463533321e-001	 1.7893007022e+000
 1.7031429098e+000	 5.8249787284e-001	 1.6924424503e+000
 1.6969359845e+000	 6.0033981835e-001	 1.5912140155e+000
 1.6905267052e+000	 6.1815790620e-001	 1.4856571585e+000
 1.6839147584e+000	 6.3594884997e-001	 1.3758188730e+000
 1.6770998984e+000	 6.5370934202e-001	 1.2617708787e+000
 1.6700819490e+000	 6.7143605513e-001	 1.1440788384e+000
 1.6628608034e+000	 6.8912564428e-001	 1.0323514815e+000
 1.6554364262e+000	 7.0677474842e-001	 9.3261835141e-001
 1.5941209003e+000	 6.8059659704e-001	 1.0362470668e+000
 1.5867769606e+000	 6.9754722280e-001	 9.4298956027e-001
 1.5792375153e+000	 7.1445236556e-001	 8.4319809149e-001
 1.5715027399e+000	 7.3130875535e-001	 7.3802593919e-001
 1.5635728808e+000	 7.4811311393e-001	 6.2863154341e-001
 1.5554482558e+000	 7.6486215671e-001	 5.1617614846e-001
 1.5471292545e+000	 7.8155259462e-001	 4.0182109552e-001
 1.5386163388e+000	 7.9818113599e-001	 2.8672475558e-001
 1.5299100431e+000	 8.1474448855e-001	 1.7203909633e-001
 1.5210109748e+000	 8.3123936136e-001	 5.8905880538e-002
 1.5119198145e+000	 8.4766246680e-001	-5.1547503181e-002
 1.6002524529e+000	 6.8321441218e-001	 1.0251404582e+000
 1.5928802658e+000	 7.0023023604e-001	 9.3191696388e-001
 1.5853118211e+000	 7.1720040196e-001	 8.3233053630e-001
 1.5775472950e+000	 7.3412162737e-001	 7.2747941157e-001
 1.5695869349e+000	 7.5099062146e-001	 6.1846828679e-001
 1.5614310597e+000	 7.6780408699e-001	 5.0640609537e-001
 1.5530800606e+000	 7.8455872221e-001	 3.9240342132e-001
 1.5445344012e+000	 8.0125122283e-001	 2.7756954244e-001
 1.5357946180e+000	 8.1787828390e-001	 1.6300909546e-001
 1.5268613208e+000	 8.3443660183e-001	 4.9818359981e-002
 1.5177351927e+000	 8.5092287634e-001	-6.0918838024e-002
 1.6063840055e+000	 6.8583222731e-001	 1.0143652138e+000
 1.5989835710e+000	 7.0291324928e-001	 9.2111452441e-001
 1.5913861270e+000	 7.1994843835e-001	 8.2167463627e-001
 1.5835918502e+000	 7.3693449940e-001	 7.1709051830e-001
 1.5756009890e+000	 7.5386812899e-001	 6.0841492841e-001
 1.5674138637e+000	 7.7074601726e-001	 4.9670631941e-001
 1.5590308667e+000	 7.8756484981e-001	 3.8302637284e-001
 1.5504524636e+000	 8.0432130968e-001	 2.6843714991e-001
 1.5416791929e+000	 8.2101207926e-001	 1.5399785214e-001
 1.5327116667e+000	 8.3763384230e-001	 4.0761187873e-002
 1.5235505708e+000	 8.5418328588e-001	-7.0230655152e-002
 1.6125155581e+000	 6.8845004245e-001	 1.0038578113e+000
 1.6050868762e+000	 7.0559626252e-001	 9.1052160414e-001
 1.5974604328e+000	 7.2269647474e-001	 8.1117262332e-001
 1.5896364053e+000	 7.3974737143e-001	 7.0680431220e-001
 1.5816150431e+000	 7.5674563653e-001	 5.9841926015e-001
 1.5733966676e+000	 7.7368794753e-001	 4.8702723716e-001
 1.5649816728e+000	 7.9057097741e-001	 3.7364284515e-001
 1.5563705260e+000	 8.0739139653e-001	 2.5928277431e-001
 1.5475637679e+000	 8.2414587462e-001	 1.4496265646e-001
 1.5385620127e+000	 8.4083108277e-001	 3.1693510975e-002
 1.5293659489e+000	 8.5744369542e-001	-7.9522216779e-002
 1.6186471107e+000	 6.9106785759e-001	 9.9355545063e-001
 1.6111901814e+000	 7.0827927575e-001	 9.0007827401e-001
 1.6035347386e+000	 7.2544451114e-001	 8.0076742443e-001
 1.5956809605e+000	 7.4256024346e-001	 6.9656652801e-001
 1.5876290972e+000	 7.5962314406e-001	 5.8842974338e-001
 1.5793794715e+000	 7.7662987780e-001	 4.7731992334e-001
 1.5709324789e+000	 7.9357710501e-001	 3.6420638158e-001
 1.5622885885e+000	 8.1046148337e-001	 2.5006225212e-001
 1.5534483428e+000	 8.2727966998e-001	 1.3586143260e-001
 1.5444123587e+000	 8.4402832324e-001	 2.2575106705e-002
 1.5351813271e+000	 8.6070410496e-001	-8.8832155026e-002
 1.6247786633e+000	 6.9368567273e-001	 9.8339604187e-001
 1.6172934866e+000	 7.1096228899e-001	 8.8972530171e-001
 1.6096090444e+000	 7.2819254753e-001	 7.9040265011e-001
 1.6017255156e+000	 7.4537311549e-001	 6.8632357115e-001
 1.5936431513e+000	 7.6250065159e-001	 5.7839549800e-001
 1.5853622754e+000	 7.7957180808e-001	 4.6753610004e-001
 1.5768832850e+000	 7.9658323261e-001	 3.5467116303e-001
 1.5682066509e+000	 8.1353157022e-001	 2.4073204926e-001
 1.5593329177e+000	 8.3041346533e-001	 1.2665272819e-001
 1.5502627046e+000	 8.4722556371e-001	 1.3366372310e-002
 1.5409967052e+000	 8.6396451450e-001	-9.8198482990e-002
 1.6309102159e+000	 6.9630348787e-001	 9.7331819319e-001
 1.6233967918e+000	 7.1364530223e-001	 8.7940414010e-001
 1.6156833503e+000	 7.3094058393e-001	 7.8002258318e-001
 1.6077700708e+000	 7.4818598752e-001	 6.7602250679e-001
 1.5996572054e+000	 7.6537815913e-001	 5.6826629174e-001
 1.5913450793e+000	 7.8251373835e-001	 4.5762812624e-001
 1.5828340911e+000	 7.9958936021e-001	 3.4499199760e-001
 1.5741247133e+000	 8.1660165707e-001	 2.3124925080e-001
 1.5652174926e+000	 8.3354726069e-001	 1.1729570388e-001
 1.5561130506e+000	 8.5042280418e-001	 4.0283142964e-003
 1.5468120834e+000	 8.6722492404e-001	-1.0765860556e-001
 1.6370417684e+000	 6.9892130301e-001	 9.6326119917e-001
 1.6295000970e+000	 7.1632831547e-001	 8.6905691595e-001
 1.6217576561e+000	 7.3368862032e-001	 7.6957216783e-001
 1.6138146259e+000	 7.5099885955e-001	 6.6561104922e-001
 1.6056712595e+000	 7.6825566666e-001	 5.5799252976e-001
 1.5973278833e+000	 7.8545566863e-001	 4.4754898754e-001
 1.5887848972e+000	 8.0259548780e-001	 3.3512431042e-001
 1.5800427757e+000	 8.1967174392e-001	 2.2157155079e-001
 1.5711020676e+000	 8.3668105605e-001	 1.0775012318e-001
 1.5619633965e+000	 8.5362004465e-001	-5.4774618928e-003
 1.5526274615e+000	 8.7048533358e-001	-1.1724932997e-001
 1.6431733210e+000	 7.0153911814e-001	 9.5316502948e-001
 1.6356034022e+000	 7.1901132871e-001	 8.5862641898e-001
 1.6278319619e+000	 7.3643665671e-001	 7.5899699898e-001
 1.6198591810e+000	 7.5381173157e-001	 6.5503755148e-001
 1.6116853136e+000	 7.7113317419e-001	 5.4752524453e-001
 1.6033106872e+000	 7.8839759890e-001	 4.3725228623e-001
 1.5947357033e+000	 8.0560161540e-001	 3.2502413379e-001
 1.5859608381e+000	 8.2274183077e-001	 2.1165724242e-001
 1.5769866425e+000	 8.3981485141e-001	 9.7976342509e-002
 1.5678137425e+000	 8.5681728512e-001	-1.5188761962e-002
 1.5584428397e+000	 8.7374574312e-001	-1.2700687618e-001
 1.6493048736e+000	 7.0415693328e-001	 9.4297031786e-001
 1.6417067074e+000	 7.2169434194e-001	 8.4805609118e-001
 1.6339062677e+000	 7.3918469311e-001	 7.4824331194e-001
 1.6259037362e+000	 7.5662460360e-001	 6.4425099530e-001
 1.6176993677e+000	 7.7401068172e-001	 5.3681608596e-001
 1.6092934911e+000	 7.9133952917e-001	 4.2669223152e-001
 1.6006865094e+000	 8.0860774300e-001	 3.1464809757e-001
 1.5918789005e+000	 8.2581191761e-001	 2.0146520844e-001
 1.5828712174e+000	 8.4294864676e-001	 8.7935301507e-002
 1.5736640885e+000	 8.6001452559e-001	-2.5142812611e-002
 1.5642582178e+000	 8.7700615266e-001	-1.3696688692e-001
 1.6554364262e+000	 7.0677474842e-001	 9.3261835141e-001
 1.6478100126e+000	 7.2437735518e-001	 8.3729001644e-001
 1.6399805736e+000	 7.4193272950e-001	 7.3725797236e-001
 1.6319482913e+000	 7.5943747563e-001	 6.3320098129e-001
 1.6237134218e+000	 7.7688818926e-001	 5.2581731179e-001
 1.6152762950e+000	 7.9428145944e-001	 4.1582363014e-001
 1.6066373155e+000	 8.1161387060e-001	 3.0395341976e-001
 1.5977969630e+000	 8.2888200446e-001	 1.9095491169e-001
 1.5887557923e+000	 8.4608244212e-001	 7.7588513593e-002
 1.5795144344e+000	 8.6321176606e-001	-3.5376271157e-002
 1.5700735960e+000	 8.8026656220e-001	-1.4716443759e-001
 1.5119198145e+000	 8.4766246680e-001	-5.1547503181e-002
 1.5026359094e+000	 8.6401296938e-001	-1.5948565295e-001
 1.4931614377e+000	 8.8028512425e-001	-2.6551683822e-001
 1.4834973017e+000	 8.9647566531e-001	-3.6923308661e-001
 1.4736444774e+000	 9.1258133784e-001	-4.7021832204e-001
 1.4636040140e+000	 9.2859890061e-001	-5.6805269027e-001
 1.4533770342e+000	 9.4452512788e-001	-6.6231722446e-001
 1.4429647335e+000	 9.6035681145e-001	-7.5259882568e-001
 1.4323683801e+000	 9.7609076273e-001	-8.3849552884e-001
 1.4215893148e+000	 9.9172381473e-001	-9.1962202098e-001
 1.4106289500e+000	 1.0072528242e+000	-9.9561537506e-001
 1.5177351927e+000	 8.5092287634e-001	-6.0918838024e-002
 1.5084155784e+000	 8.6733626873e-001	-1.6923149090e-001
 1.4989046645e+000	 8.8367101207e-001	-2.7555927968e-001
 1.4892033568e+000	 8.9992382767e-001	-3.7948713319e-001
 1.4793126350e+000	 9.1609144831e-001	-4.8059208201e-001
 1.4692335525e+000	 9.3217062029e-001	-5.7844767500e-001
 1.4589672361e+000	 9.4815810546e-001	-6.7262874626e-001
 1.4485148860e+000	 9.6405068328e-001	-7.6271650692e-001
 1.4378777753e+000	 9.7984515290e-001	-8.4830393153e-001
 1.4270572499e+000	 9.9553833515e-001	-9.2900140524e-001
 1.4160547276e+000	 1.0111270746e+000	-1.0044431383e+000
 1.5235505708e+000	 8.5418328588e-001	-7.0230655152e-002
 1.5141952473e+000	 8.7065956808e-001	-1.7887925883e-001
 1.5046478913e+000	 8.8705689988e-001	-2.8546622639e-001
 1.4949094119e+000	 9.0337199003e-001	-3.8957089868e-001
 1.4849807927e+000	 9.1960155878e-001	-4.9076490534e-001
 1.4748630910e+000	 9.3574233997e-001	-5.8861667134e-001
 1.4645574380e+000	 9.5179108304e-001	-6.8269628468e-001
 1.4540650385e+000	 9.6774455512e-001	-7.7258069888e-001
 1.4433871705e+000	 9.8359954307e-001	-8.5785923963e-001
 1.4325251850e+000	 9.9935285557e-001	-9.3813938094e-001
 1.4214805053e+000	 1.0150013251e+000	-1.0130532328e+000
 1.5293659489e+000	 8.5744369542e-001	-7.9522216779e-002
 1.5199749163e+000	 8.7398286744e-001	-1.8846675271e-001
 1.5103911181e+000	 8.9044278770e-001	-2.9527396505e-001
 1.5006154670e+000	 9.0682015239e-001	-3.9951910389e-001
 1.4906489504e+000	 9.2311166925e-001	-5.0076987608e-001
 1.4804926295e+000	 9.3931405965e-001	-5.9859104077e-001
 1.4701476399e+000	 9.5542406062e-001	-6.9254937717e-001
 1.4596151911e+000	 9.7143842695e-001	-7.8221899737e-001
 1.4488965657e+000	 9.8735393325e-001	-8.6718697304e-001
 1.4379931201e+000	 1.0031673760e+000	-9.4705924056e-001
 1.4269062830e+000	 1.0188755756e+000	-1.0214671666e+000
 1.5351813271e+000	 8.6070410496e-001	-8.8832155026e-002
 1.5257545853e+000	 8.7730616679e-001	-1.9803113821e-001
 1.5161343448e+000	 8.9382867551e-001	-3.0501815364e-001
 1.5063215221e+000	 9.1026831475e-001	-4.0936584452e-001
 1.4963171080e+000	 9.2662177972e-001	-5.1063945890e-001
 1.4861221680e+000	 9.4288577933e-001	-6.0840153342e-001
 1.4757378419e+000	 9.5905703820e-001	-7.0221696037e-001
 1.4651653436e+000	 9.7513229879e-001	-7.9165841054e-001
 1.4544059609e+000	 9.9110832342e-001	-8.7631207983e-001
 1.4434610552e+000	 1.0069818964e+000	-9.5578372349e-001
 1.4323320606e+000	 1.0227498261e+000	-1.0297053039e+000
 1.5409967052e+000	 8.6396451450e-001	-9.8198482990e-002
 1.5315342542e+000	 8.8062946615e-001	-2.0760896209e-001
 1.5218775716e+000	 8.9721456333e-001	-3.1473383317e-001
 1.5120275772e+000	 9.1371647711e-001	-4.1914460318e-001
 1.5019852657e+000	 9.3013189019e-001	-5.2040551144e-001
 1.4917517065e+000	 9.4645749901e-001	-6.1807830074e-001
 1.4813280438e+000	 9.6269001579e-001	-7.1172738305e-001
 1.4707154961e+000	 9.7882617062e-001	-8.0092537207e-001
 1.4599153561e+000	 9.9486271360e-001	-8.8525894971e-001
 1.4489289903e+000	 1.0107964168e+000	-9.6433546248e-001
 1.4377578383e+000	 1.0266240766e+000	-1.0377874916e+000
 1.5468120834e+000	 8.6722492404e-001	-1.0765860556e-001
 1.5373139232e+000	 8.8395276550e-001	-2.1723616332e-001
 1.5276207984e+000	 9.0060045114e-001	-3.2445543906e-001
 1.5177336323e+000	 9.1716463947e-001	-4.2888826109e-001
 1.5076534233e+000	 9.3364200067e-001	-5.3009929635e-001
 1.4973812450e+000	 9.5002921869e-001	-6.2765090786e-001
 1.4869182457e+000	 9.6632299337e-001	-7.2110841875e-001
 1.4762656486e+000	 9.8252004246e-001	-8.1004575408e-001
 1.4654247513e+000	 9.9861710377e-001	-8.9405142724e-001
 1.4543969254e+000	 1.0146109373e+000	-9.7273520906e-001
 1.4431836160e+000	 1.0304983270e+000	-1.0457330729e+000
 1.5526274615e+000	 8.7048533358e-001	-1.1724932997e-001
 1.5430935922e+000	 8.8727606486e-001	-2.2694808395e-001
 1.5333640252e+000	 9.0398633896e-001	-3.3421681237e-001
 1.5234396875e+000	 9.2061280183e-001	-4.3862910968e-001
 1.5133215810e+000	 9.3715211114e-001	-5.3975149310e-001
 1.5030107835e+000	 9.5360093838e-001	-6.3714834573e-001
 1.4925084476e+000	 9.6995597095e-001	-7.3038727827e-001
 1.4818158011e+000	 9.8621391429e-001	-8.1904487995e-001
 1.4709341465e+000	 1.0023714939e+000	-9.0271282487e-001
 1.4598648605e+000	 1.0184254577e+000	-9.8100461807e-001
 1.4486093937e+000	 1.0343725775e+000	-1.0535609002e+000
 1.5584428397e+000	 8.7374574312e-001	-1.2700687618e-001
 1.5488732611e+000	 8.9059936421e-001	-2.3677947974e-001
 1.5391072520e+000	 9.0737222678e-001	-3.4405121073e-001
 1.5291457426e+000	 9.2406096419e-001	-4.4839886178e-001
 1.5189897387e+000	 9.4066222161e-001	-5.4939220962e-001
 1.5086403220e+000	 9.5717265806e-001	-6.4659904306e-001
 1.4980986495e+000	 9.7358894853e-001	-7.3959062188e-001
 1.4873659537e+000	 9.8990778613e-001	-8.2794753676e-001
 1.4764435417e+000	 1.0061258841e+000	-9.1126593570e-001
 1.4653327956e+000	 1.0222399781e+000	-9.8916435097e-001
 1.4540351713e+000	 1.0382468280e+000	-1.0612893491e+000
 1.5642582178e+000	 8.7700615266e-001	-1.3696688692e-001
 1.5546529301e+000	 8.9392266357e-001	-2.4676453060e-001
 1.5448504788e+000	 9.1075811459e-001	-3.5399131907e-001
 1.5348517977e+000	 9.2750912655e-001	-4.5822866270e-001
 1.5246578963e+000	 9.4417233208e-001	-5.5905099364e-001
 1.5142698605e+000	 9.6074437774e-001	-6.5603087796e-001
 1.5036888514e+000	 9.7722192612e-001	-7.4874457128e-001
 1.4929161062e+000	 9.9360165796e-001	-8.3677798765e-001
 1.4819529369e+000	 1.0098802743e+000	-9.1973304605e-001
 1.4708007307e+000	 1.0260544985e+000	-9.9723458241e-001
 1.4594609490e+000	 1.0421210785e+000	-1.0689363310e+000
 1.5700735960e+000	 8.8026656220e-001	-1.4716443759e-001
 1.5604325990e+000	 8.9724596292e-001	-2.5693685072e-001
 1.5505937056e+000	 9.1414400240e-001	-3.6406926011e-001
 1.5405578528e+000	 9.3095728891e-001	-4.6814910106e-001
 1.5303260540e+000	 9.4768244255e-001	-5.6875684386e-001
 1.5198993990e+000	 9.6431609742e-001	-6.6547118944e-001
 1.5092790533e+000	 9.8085490370e-001	-7.5787472145e-001
 1.4984662587e+000	 9.9729552980e-001	-8.4555998384e-001
 1.4874623321e+000	 1.0136346645e+000	-9.2813623726e-001
 1.4762686658e+000	 1.0298690189e+000	-1.0052350128e+000
 1.4648867267e+000	 1.0459953290e+000	-1.0765193059e+000
 1.4106289500e+000	 1.0072528242e+000	-9.9561537506e-001
 1.3994887694e+000	 1.0226746730e+000	-1.0683184802e+000
 1.3881703258e+000	 1.0379862697e+000	-1.1398420100e+000
 1.3766752421e+000	 1.0531845518e+000	-1.2102915044e+000
 1.3650052105e+000	 1.0682664886e+000	-1.2798344851e+000
 1.3531619922e+000	 1.0832290830e+000	-1.3487066716e+000
 1.3411474162e+000	 1.0980693733e+000	-1.4172174830e+000
 1.3289633788e+000	 1.1127844353e+000	-1.4853143392e+000
 1.3166118423e+000	 1.1273713843e+000	-1.5485325703e+000
 1.3040948341e+000	 1.1418273765e+000	-1.6065678464e+000
 1.2914144456e+000	 1.1561496113e+000	-1.6607911885e+000
 1.4160547276e+000	 1.0111270746e+000	-1.0044431383e+000
 1.4048716980e+000	 1.0266082414e+000	-1.0765298642e+000
 1.3935097197e+000	 1.0419787319e+000	-1.1474075273e+000
 1.3819704218e+000	 1.0572354719e+000	-1.2171394069e+000
 1.3702555031e+000	 1.0723754192e+000	-1.2858516021e+000
 1.3583667316e+000	 1.0873955650e+000	-1.3537388612e+000
 1.3463059433e+000	 1.1022929363e+000	-1.4210703123e+000
 1.3340750419e+000	 1.1170645977e+000	-1.4881950396e+000
 1.3216759970e+000	 1.1317076532e+000	-1.5525084064e+000
 1.3091108439e+000	 1.1462192483e+000	-1.6110824403e+000
 1.2963816822e+000	 1.1605965714e+000	-1.6652437864e+000
 1.4214805053e+000	 1.0150013251e+000	-1.0130532328e+000
 1.4102546266e+000	 1.0305418097e+000	-1.0845572534e+000
 1.3988491135e+000	 1.0459711940e+000	-1.1548257628e+000
 1.3872656015e+000	 1.0612863921e+000	-1.2238800461e+000
 1.3755057958e+000	 1.0764843498e+000	-1.2918044016e+000
 1.3635714710e+000	 1.0915620471e+000	-1.3587522004e+000
 1.3514644705e+000	 1.1065164994e+000	-1.4249518506e+000
 1.3391867049e+000	 1.1213447601e+000	-1.4907126099e+000
 1.3267401516e+000	 1.1360439221e+000	-1.5554619655e+000
 1.3141268537e+000	 1.1506111200e+000	-1.6146964842e+000
 1.3013489187e+000	 1.1650435316e+000	-1.6689123092e+000
 1.4269062830e+000	 1.0188755756e+000	-1.0214671666e+000
 1.4156375551e+000	 1.0344753781e+000	-1.0924189231e+000
 1.4041885074e+000	 1.0499636562e+000	-1.1621121047e+000
 1.3925607812e+000	 1.0653373122e+000	-1.2305256566e+000
 1.3807560884e+000	 1.0805932804e+000	-1.2977016981e+000
 1.3687762105e+000	 1.0957285291e+000	-1.3637518175e+000
 1.3566229976e+000	 1.1107400624e+000	-1.4288632745e+000
 1.3442983679e+000	 1.1256249224e+000	-1.4933050531e+000
 1.3318043063e+000	 1.1403801911e+000	-1.5573833594e+000
 1.3191428635e+000	 1.1550029918e+000	-1.6173958832e+000
 1.3063161552e+000	 1.1694904918e+000	-1.6717779863e+000
 1.4323320606e+000	 1.0227498261e+000	-1.0297053039e+000
 1.4210204837e+000	 1.0384089465e+000	-1.1001326425e+000
 1.4095279013e+000	 1.0539561184e+000	-1.1692814644e+000
 1.3978559609e+000	 1.0693882324e+000	-1.2370880293e+000
 1.3860063810e+000	 1.0847022110e+000	-1.3035518995e+000
 1.3739809499e+000	 1.0998950111e+000	-1.3687424749e+000
 1.3617815247e+000	 1.1149636254e+000	-1.4328054382e+000
 1.3494100309e+000	 1.1299050848e+000	-1.4959690535e+000
 1.3368684609e+000	 1.1447164600e+000	-1.5585502551e+000
 1.3241588733e+000	 1.1593948636e+000	-1.6191675140e+000
 1.3112833918e+000	 1.1739374519e+000	-1.6738230080e+000
 1.4377578383e+000	 1.0266240766e+000	-1.0377874916e+000
 1.4264034123e+000	 1.0423425148e+000	-1.1077156888e+000
 1.4148672951e+000	 1.0579485806e+000	-1.1763482909e+000
 1.4031511406e+000	 1.0734391525e+000	-1.2435785260e+000
 1.3912566737e+000	 1.0888111416e+000	-1.3093630216e+000
 1.3791856893e+000	 1.1040614932e+000	-1.3737285832e+000
 1.3669400518e+000	 1.1191871885e+000	-1.4367788880e+000
 1.3545216939e+000	 1.1341852472e+000	-1.4987010339e+000
 1.3419326155e+000	 1.1490527289e+000	-1.5597718794e+000
 1.3291748831e+000	 1.1637867354e+000	-1.6199992706e+000
 1.3162506283e+000	 1.1783844121e+000	-1.6750305701e+000
 1.4431836160e+000	 1.0304983270e+000	-1.0457330729e+000
 1.4317863409e+000	 1.0462760832e+000	-1.1151848612e+000
 1.4202066890e+000	 1.0619410428e+000	-1.1833265845e+000
 1.4084463203e+000	 1.0774900727e+000	-1.2500080934e+000
 1.3965069663e+000	 1.0929200722e+000	-1.3151427019e+000
 1.3843904288e+000	 1.1082279752e+000	-1.3787142150e+000
 1.3720985790e+000	 1.1234107515e+000	-1.4407838756e+000
 1.3596333569e+000	 1.1384654095e+000	-1.5014971690e+000
 1.3469967702e+000	 1.1533889979e+000	-1.5610904190e+000
 1.3341908929e+000	 1.1681786072e+000	-1.6198971111e+000
 1.3212178648e+000	 1.1828313722e+000	-1.6753849188e+000
 1.4486093937e+000	 1.0343725775e+000	-1.0535609002e+000
 1.4371692695e+000	 1.0502096516e+000	-1.1225564938e+000
 1.4255460828e+000	 1.0659335049e+000	-1.1902299106e+000
 1.4137415000e+000	 1.0815409928e+000	-1.2563872767e+000
 1.4017572589e+000	 1.0970290028e+000	-1.3208982135e+000
 1.3895951682e+000	 1.1123944572e+000	-1.3837031187e+000
 1.3772571061e+000	 1.1276343145e+000	-1.4448203719e+000
 1.3647450199e+000	 1.1427455719e+000	-1.5043533988e+000
 1.3520609248e+000	 1.1577252668e+000	-1.5624975297e+000
 1.3392069027e+000	 1.1725704790e+000	-1.6195465829e+000
 1.3261851014e+000	 1.1872783324e+000	-1.6748713946e+000
 1.4540351713e+000	 1.0382468280e+000	-1.0612893491e+000
 1.4425521981e+000	 1.0541432199e+000	-1.1298464700e+000
 1.4308854767e+000	 1.0699259671e+000	-1.1970714133e+000
 1.4190366797e+000	 1.0855919129e+000	-1.2627262332e+000
 1.4070075516e+000	 1.1011379335e+000	-1.3266364785e+000
 1.3947999076e+000	 1.1165609392e+000	-1.3886987322e+000
 1.3824156332e+000	 1.1318578776e+000	-1.4488880803e+000
 1.3698566829e+000	 1.1470257343e+000	-1.5072654419e+000
 1.3571250794e+000	 1.1620615357e+000	-1.5639846944e+000
 1.3442229125e+000	 1.1769623508e+000	-1.6192995235e+000
 1.3311523379e+000	 1.1917252926e+000	-1.6734764770e+000
 1.4594609490e+000	 1.0421210785e+000	-1.0689363310e+000
 1.4479351267e+000	 1.0580767883e+000	-1.1370702350e+000
 1.4362248705e+000	 1.0739184293e+000	-1.2038638287e+000
 1.4243318594e+000	 1.0896428331e+000	-1.2690347458e+000
 1.4122578442e+000	 1.1052468641e+000	-1.3323640815e+000
 1.4000046471e+000	 1.1207274213e+000	-1.3937041958e+000
 1.3875741603e+000	 1.1360814406e+000	-1.4529864500e+000
 1.3749683459e+000	 1.1513058966e+000	-1.5102288085e+000
 1.3621892341e+000	 1.1663978046e+000	-1.5655432362e+000
 1.3492389223e+000	 1.1813542225e+000	-1.6191428199e+000
 1.3361195745e+000	 1.1961722527e+000	-1.6713485444e+000
 1.4648867267e+000	 1.0459953290e+000	-1.0765193059e+000
 1.4533180553e+000	 1.0620103567e+000	-1.1442428092e+000
 1.4415642644e+000	 1.0779108915e+000	-1.2106194980e+000
 1.4296270391e+000	 1.0936937532e+000	-1.2753222362e+000
 1.4175081369e+000	 1.1093557947e+000	-1.3380872832e+000
 1.4052093865e+000	 1.1248939033e+000	-1.3987223660e+000
 1.3927326875e+000	 1.1403050036e+000	-1.4571146893e+000
 1.3800800090e+000	 1.1555860590e+000	-1.5132388137e+000
 1.3672533887e+000	 1.1707340736e+000	-1.5671643310e+000
 1.3542549321e+000	 1.1857460943e+000	-1.6190632629e+000
 1.3410868110e+000	 1.2006192129e+000	-1.6692171113e+000
 1.2914144456e+000	 1.1561496113e+000	-1.6607911885e+000
 1.2785747694e+000	 1.1703332156e+000	-1.7078305366e+000
 1.2655761316e+000	 1.1843776408e+000	-1.7444214509e+000
 1.2524208085e+000	 1.1982802281e+000	-1.7722839069e+000
 1.2391111357e+000	 1.2120383689e+000	-1.7932433734e+000
 1.2256495061e+000	 1.2256495061e+000	-1.8092065708e+000
 1.2120383689e+000	 1.2391111357e+000	-1.8221364498e+000
 1.1982802281e+000	 1.2524208085e+000	-1.8340265770e+000
 1.1843776408e+000	 1.2655761316e+000	-1.8468751195e+000
 1.1703332156e+000	 1.2785747694e+000	-1.8626586223e+000
 1.1561496113e+000	 1.2914144456e+000	-1.8833057784e+000
 1.2963816822e+000	 1.1605965714e+000	-1.6652437864e+000
 1.2834926200e+000	 1.1748347310e+000	-1.7116756273e+000
 1.2704439848e+000	 1.1889331759e+000	-1.7472622264e+000
 1.2572380617e+000	 1.2028892375e+000	-1.7738397779e+000
 1.2438771952e+000	 1.2167002970e+000	-1.7933531496e+000
 1.2303637874e+000	 1.2303637874e+000	-1.8078308826e+000
 1.2167002970e+000	 1.2438771952e+000	-1.8193593891e+000
 1.2028892375e+000	 1.2572380617e+000	-1.8300565409e+000
 1.1889331759e+000	 1.2704439848e+000	-1.8420448430e+000
 1.1748347310e+000	 1.2834926200e+000	-1.8574243948e+000
 1.1605965714e+000	 1.2963816822e+000	-1.8782458398e+000
 1.3013489187e+000	 1.1650435316e+000	-1.6689123092e+000
 1.2884104706e+000	 1.1793362463e+000	-1.7148503691e+000
 1.2753118380e+000	 1.1934887111e+000	-1.7495469707e+000
 1.2620553150e+000	 1.2074982469e+000	-1.7749559035e+000
 1.2486432547e+000	 1.2213622251e+000	-1.7931428686e+000
 1.2350780687e+000	 1.2350780687e+000	-1.8062597057e+000
 1.2213622251e+000	 1.2486432547e+000	-1.8165177960e+000
 1.2074982469e+000	 1.2620553150e+000	-1.8261608370e+000
 1.1934887111e+000	 1.2753118380e+000	-1.8374371919e+000
 1.1793362463e+000	 1.2884104706e+000	-1.8525720170e+000
 1.1650435316e+000	 1.3013489187e+000	-1.8737393763e+000
 1.3063161552e+000	 1.1694904918e+000	-1.6717779863e+000
 1.2933283212e+000	 1.1838377616e+000	-1.7173308904e+000
 1.2801796913e+000	 1.1980442462e+000	-1.7512463229e+000
 1.2668725682e+000	 1.2121072564e+000	-1.7755970639e+000
 1.2534093142e+000	 1.2260241532e+000	-1.7925711032e+000
 1.2397923501e+000	 1.2397923501e+000	-1.8044450797e+000
 1.2260241532e+000	 1.2534093142e+000	-1.8135568739e+000
 1.2121072564e+000	 1.2668725682e+000	-1.8222775556e+000
 1.1980442462e+000	 1.2801796913e+000	-1.8329828916e+000
 1.1838377616e+000	 1.2933283212e+000	-1.8480246247e+000
 1.1694904918e+000	 1.3063161552e+000	-1.8697017372e+000
 1.3112833918e+000	 1.1739374519e+000	-1.6738230080e+000
 1.2982461718e+000	 1.1883392769e+000	-1.7190942670e+000
 1.2850475445e+000	 1.2025997814e+000	-1.7523318534e+000
 1.2716898214e+000	 1.2167162658e+000	-1.7757289526e+000
 1.2581753738e+000	 1.2306860813e+000	-1.7915973196e+000
 1.2445066314e+000	 1.2445066314e+000	-1.8023399154e+000
 1.2306860813e+000	 1.2581753738e+000	-1.8104226755e+000
 1.2167162658e+000	 1.2716898214e+000	-1.8183456134e+000
 1.2025997814e+000	 1.2850475445e+000	-1.8286134715e+000
 1.1883392769e+000	 1.2982461718e+000	-1.8437061361e+000
 1.1739374519e+000	 1.3112833918e+000	-1.8660490333e+000
 1.3162506283e+000	 1.1783844121e+000	-1.6750305701e+000
 1.3031640224e+000	 1.1928407922e+000	-1.7201185657e+000
 1.2899153978e+000	 1.2071553165e+000	-1.7527761056e+000
 1.2765070746e+000	 1.2213252752e+000	-1.7753182158e+000
 1.2629414333e+000	 1.2353480093e+000	-1.7901819139e+000
 1.2492209127e+000	 1.2492209127e+000	-1.7998980304e+000
 1.2353480093e+000	 1.2629414333e+000	-1.8070621354e+000
 1.2213252752e+000	 1.2765070746e+000	-1.8143047836e+000
 1.2071553165e+000	 1.2899153978e+000	-1.8242612927e+000
 1.1928407922e+000	 1.3031640224e+000	-1.8395412771e+000
 1.1783844121e+000	 1.3162506283e+000	-1.8626981604e+000
 1.3212178648e+000	 1.1828313722e+000	-1.6753849188e+000
 1.3080818730e+000	 1.1973423076e+000	-1.7203828865e+000
 1.2947832510e+000	 1.2117108517e+000	-1.7525526370e+000
 1.2813243279e+000	 1.2259342846e+000	-1.7743324911e+000
 1.2677074928e+000	 1.2400099374e+000	-1.7882862502e+000
 1.2539351941e+000	 1.2539351941e+000	-1.7970741841e+000
 1.2400099374e+000	 1.2677074928e+000	-1.8034231032e+000
 1.2259342846e+000	 1.2813243279e+000	-1.8100957276e+000
 1.2117108517e+000	 1.2947832510e+000	-1.8198595771e+000
 1.1973423076e+000	 1.3080818730e+000	-1.8354556074e+000
 1.1828313722e+000	 1.3212178648e+000	-1.8595668230e+000
 1.3261851014e+000	 1.1872783324e+000	-1.6748713946e+000
 1.3129997236e+000	 1.2018438229e+000	-1.7198674060e+000
 1.2996511043e+000	 1.2162663868e+000	-1.7516360596e+000
 1.2861415811e+000	 1.2305432940e+000	-1.7727404474e+000
 1.2724735523e+000	 1.2446718655e+000	-1.7858726969e+000
 1.2586494754e+000	 1.2586494754e+000	-1.7938241127e+000
 1.2446718655e+000	 1.2724735523e+000	-1.7994543765e+000
 1.2305432940e+000	 1.2861415811e+000	-1.8056600253e+000
 1.2162663868e+000	 1.2996511043e+000	-1.8153424358e+000
 1.2018438229e+000	 1.3129997236e+000	-1.8313755474e+000
 1.1872783324e+000	 1.3261851014e+000	-1.8565735576e+000
 1.3311523379e+000	 1.1917252926e+000	-1.6734764770e+000
 1.3179175742e+000	 1.2063453382e+000	-1.7185534196e+000
 1.3045189575e+000	 1.2208219220e+000	-1.7500020817e+000
 1.2909588343e+000	 1.2351523034e+000	-1.7705118235e+000
 1.2772396118e+000	 1.2493337936e+000	-1.7829046649e+000
 1.2633637567e+000	 1.2633637567e+000	-1.7901045651e+000
 1.2493337936e+000	 1.2772396118e+000	-1.7951057346e+000
 1.2351523034e+000	 1.2909588343e+000	-1.8009402062e+000
 1.2208219220e+000	 1.3045189575e+000	-1.8106448977e+000
 1.2063453382e+000	 1.3179175742e+000	-1.8272284037e+000
 1.1917252926e+000	 1.3311523379e+000	-1.8536377575e+000
 1.3361195745e+000	 1.1961722527e+000	-1.6713485444e+000
 1.3228354248e+000	 1.2108468535e+000	-1.7164233844e+000
 1.3093868108e+000	 1.2253774571e+000	-1.7476275483e+000
 1.2957760875e+000	 1.2397613128e+000	-1.7676174676e+000
 1.2820056713e+000	 1.2539957217e+000	-1.7793466444e+000
 1.2680780381e+000	 1.2680780381e+000	-1.7858733376e+000
 1.2539957217e+000	 1.2820056713e+000	-1.7903279711e+000
 1.2397613128e+000	 1.2957760875e+000	-1.7958797810e+000
 1.2253774571e+000	 1.3093868108e+000	-1.8057029388e+000
 1.2108468535e+000	 1.3228354248e+000	-1.8229423962e+000
 1.1961722527e+000	 1.3361195745e+000	-1.8504405441e+000
 1.3410868110e+000	 1.2006192129e+000	-1.6692171113e+000
 1.3277532754e+000	 1.2153483688e+000	-1.7134609620e+000
 1.3142546640e+000	 1.2299329922e+000	-1.7444904826e+000
 1.3005933408e+000	 1.2443703222e+000	-1.7640293765e+000
 1.2867717309e+000	 1.2586576498e+000	-1.7751642423e+000
 1.2727923194e+000	 1.2727923194e+000	-1.7810893097e+000
 1.2586576498e+000	 1.2867717309e+000	-1.7850729280e+000
 1.2443703222e+000	 1.3005933408e+000	-1.7904232722e+000
 1.2299329922e+000	 1.3142546640e+000	-1.8004535107e+000
 1.2153483688e+000	 1.3277532754e+000	-1.8184466849e+000
 1.2006192129e+000	 1.3410868110e+000	-1.8458217267e+000
 1.1561496113e+000	 1.2914144456e+000	-1.8833057784e+000
 1.1418273765e+000	 1.3040948341e+000	-1.9038831308e+000
 1.1273713843e+000	 1.3166118423e+000	-1.9200817893e+000
 1.1127844353e+000	 1.3289633788e+000	-1.9346356872e+000
 1.0980693733e+000	 1.3411474162e+000	-1.9476856998e+000
 1.0832290830e+000	 1.3531619922e+000	-1.9527134631e+000
 1.0682664886e+000	 1.3650052105e+000	-1.9504787632e+000
 1.0531845518e+000	 1.3766752421e+000	-1.9423896727e+000
 1.0379862697e+000	 1.3881703258e+000	-1.9297840397e+000
 1.0226746730e+000	 1.3994887694e+000	-1.9139309754e+000
 1.0072528242e+000	 1.4106289500e+000	-1.8960370910e+000
 1.1605965714e+000	 1.2963816822e+000	-1.8782458398e+000
 1.1462192483e+000	 1.3091108439e+000	-1.8996984466e+000
 1.1317076532e+000	 1.3216759970e+000	-1.9175070987e+000
 1.1170645977e+000	 1.3340750419e+000	-1.9343675581e+000
 1.1022929363e+000	 1.3463059433e+000	-1.9462414209e+000
 1.0873955650e+000	 1.3583667316e+000	-1.9497275175e+000
 1.0723754192e+000	 1.3702555031e+000	-1.9462665549e+000
 1.0572354719e+000	 1.3819704218e+000	-1.9372264512e+000
 1.0419787319e+000	 1.3935097197e+000	-1.9239037426e+000
 1.0266082414e+000	 1.4048716980e+000	-1.9075252393e+000
 1.0111270746e+000	 1.4160547276e+000	-1.8892498908e+000
 1.1650435316e+000	 1.3013489187e+000	-1.8737393763e+000
 1.1506111200e+000	 1.3141268537e+000	-1.8962540561e+000
 1.1360439221e+000	 1.3267401516e+000	-1.9158736518e+000
 1.1213447601e+000	 1.3391867049e+000	-1.9339940936e+000
 1.1065164994e+000	 1.3514644705e+000	-1.9441501181e+000
 1.0915620471e+000	 1.3635714710e+000	-1.9462638294e+000
 1.0764843498e+000	 1.3755057958e+000	-1.9417323146e+000
 1.0612863921e+000	 1.3872656015e+000	-1.9318786774e+000
 1.0459711940e+000	 1.3988491135e+000	-1.9179536236e+000
 1.0305418097e+000	 1.4102546266e+000	-1.9011372970e+000
 1.0150013251e+000	 1.4214805053e+000	-1.8825413260e+000
 1.1694904918e+000	 1.3063161552e+000	-1.8697017372e+000
 1.1550029918e+000	 1.3191428635e+000	-1.8934578483e+000
 1.1403801911e+000	 1.3318043063e+000	-1.9150827722e+000
 1.1256249224e+000	 1.3442983679e+000	-1.9327448403e+000
 1.1107400624e+000	 1.3566229976e+000	-1.9413567649e+000
 1.0957285291e+000	 1.3687762105e+000	-1.9422640195e+000
 1.0805932804e+000	 1.3807560884e+000	-1.9368153348e+000
 1.0653373122e+000	 1.3925607812e+000	-1.9262843930e+000
 1.0499636562e+000	 1.4041885074e+000	-1.9118716019e+000
 1.0344753781e+000	 1.4156375551e+000	-1.8947061228e+000
 1.0188755756e+000	 1.4269062830e+000	-1.8758481090e+000
 1.1739374519e+000	 1.3112833918e+000	-1.8660490333e+000
 1.1593948636e+000	 1.3241588733e+000	-1.8912184475e+000
 1.1447164600e+000	 1.3368684609e+000	-1.9145869796e+000
 1.1299050848e+000	 1.3494100309e+000	-1.9305714864e+000
 1.1149636254e+000	 1.3617815247e+000	-1.9378087573e+000
 1.0998950111e+000	 1.3739809499e+000	-1.9376721488e+000
 1.0847022110e+000	 1.3860063810e+000	-1.9314573517e+000
 1.0693882324e+000	 1.3978559609e+000	-1.9203840706e+000
 1.0539561184e+000	 1.4095279013e+000	-1.9055979980e+000
 1.0384089465e+000	 1.4210204837e+000	-1.8881730453e+000
 1.0227498261e+000	 1.4323320606e+000	-1.8691137842e+000
 1.1783844121e+000	 1.3162506283e+000	-1.8626981604e+000
 1.1637867354e+000	 1.3291748831e+000	-1.8894452348e+000
 1.1490527289e+000	 1.3419326155e+000	-1.9130345585e+000
 1.1341852472e+000	 1.3545216939e+000	-1.9274280652e+000
 1.1191871885e+000	 1.3669400518e+000	-1.9334558680e+000
 1.1040614932e+000	 1.3791856893e+000	-1.9324346730e+000
 1.0888111416e+000	 1.3912566737e+000	-1.9256025001e+000
 1.0734391525e+000	 1.4031511406e+000	-1.9141205699e+000
 1.0579485806e+000	 1.4148672951e+000	-1.8990754916e+000
 1.0423425148e+000	 1.4264034123e+000	-1.8814817069e+000
 1.0266240766e+000	 1.4377578383e+000	-1.8622841460e+000
 1.1828313722e+000	 1.3212178648e+000	-1.8595668230e+000
 1.1681786072e+000	 1.3341908929e+000	-1.8880222397e+000
 1.1533889979e+000	 1.3469967702e+000	-1.9103071619e+000
 1.1384654095e+000	 1.3596333569e+000	-1.9232709094e+000
 1.1234107515e+000	 1.3720985790e+000	-1.9282502006e+000
 1.1082279752e+000	 1.3843904288e+000	-1.9265003980e+000
 1.0929200722e+000	 1.3965069663e+000	-1.9191972690e+000
 1.0774900727e+000	 1.4084463203e+000	-1.9074390942e+000
 1.0619410428e+000	 1.4202066890e+000	-1.8922490791e+000
 1.0462760832e+000	 1.4317863409e+000	-1.8745780231e+000
 1.0304983270e+000	 1.4431836160e+000	-1.8553072001e+000
 1.1872783324e+000	 1.3261851014e+000	-1.8565735576e+000
 1.1725704790e+000	 1.3392069027e+000	-1.8858038930e+000
 1.1577252668e+000	 1.3520609248e+000	-1.9063684408e+000
 1.1427455719e+000	 1.3647450199e+000	-1.9180586057e+000
 1.1276343145e+000	 1.3772571061e+000	-1.9221461451e+000
 1.1123944572e+000	 1.3895951682e+000	-1.9198204346e+000
 1.0970290028e+000	 1.4017572589e+000	-1.9121904577e+000
 1.0815409928e+000	 1.4137415000e+000	-1.9002871474e+000
 1.0659335049e+000	 1.4255460828e+000	-1.8850660322e+000
 1.0502096516e+000	 1.4371692695e+000	-1.8674101422e+000
 1.0343725775e+000	 1.4486093937e+000	-1.8481331256e+000
 1.1917252926e+000	 1.3311523379e+000	-1.8536377575e+000
 1.1769623508e+000	 1.3442229125e+000	-1.8821950106e+000
 1.1620615357e+000	 1.3571250794e+000	-1.9011842116e+000
 1.1470257343e+000	 1.3698566829e+000	-1.9117519507e+000
 1.1318578776e+000	 1.3824156332e+000	-1.9151003328e+000
 1.1165609392e+000	 1.3947999076e+000	-1.9123481540e+000
 1.1011379335e+000	 1.4070075516e+000	-1.9045331320e+000
 1.0855919129e+000	 1.4190366797e+000	-1.8926144910e+000
 1.0699259671e+000	 1.4308854767e+000	-1.8774758560e+000
 1.0541432199e+000	 1.4425521981e+000	-1.8599284060e+000
 1.0382468280e+000	 1.4540351713e+000	-1.8407142370e+000
 1.1961722527e+000	 1.3361195745e+000	-1.8504405441e+000
 1.1813542225e+000	 1.3492389223e+000	-1.8771693009e+000
 1.1663978046e+000	 1.3621892341e+000	-1.8947224126e+000
 1.1513058966e+000	 1.3749683459e+000	-1.9043139055e+000
 1.1360814406e+000	 1.3875741603e+000	-1.9070715916e+000
 1.1207274213e+000	 1.4000046471e+000	-1.9040391442e+000
 1.1052468641e+000	 1.4122578442e+000	-1.8961785801e+000
 1.0896428331e+000	 1.4243318594e+000	-1.8843731014e+000
 1.0739184293e+000	 1.4362248705e+000	-1.8694302479e+000
 1.0580767883e+000	 1.4479351267e+000	-1.8520853092e+000
 1.0421210785e+000	 1.4594609490e+000	-1.8330049467e+000
 1.2006192129e+000	 1.3410868110e+000	-1.8458217267e+000
 1.1857460943e+000	 1.3542549321e+000	-1.8707024963e+000
 1.1707340736e+000	 1.3672533887e+000	-1.8869530591e+000
 1.1555860590e+000	 1.3800800090e+000	-1.8957095514e+000
 1.1403050036e+000	 1.3927326875e+000	-1.8980209018e+000
 1.1248939033e+000	 1.4052093865e+000	-1.8948511653e+000
 1.1093557947e+000	 1.4175081369e+000	-1.8870822702e+000
 1.0936937532e+000	 1.4296270391e+000	-1.8755171281e+000
 1.0779108915e+000	 1.4415642644e+000	-1.8608830563e+000
 1.0620103567e+000	 1.4533180553e+000	-1.8438354609e+000
 1.0459953290e+000	 1.4648867267e+000	-1.8249617268e+000
 1.0072528242e+000	 1.4106289500e+000	-1.8960370910e+000
 9.9172381473e-001	 1.4215893148e+000	-1.8773179894e+000
 9.7609076273e-001	 1.4323683801e+000	-1.8581875006e+000
 9.6035681145e-001	 1.4429647335e+000	-1.8385562159e+000
 9.4452512788e-001	 1.4533770342e+000	-1.8183092732e+000
 9.2859890061e-001	 1.4636040140e+000	-1.7973100743e+000
 9.1258133784e-001	 1.4736444774e+000	-1.7754039234e+000
 8.9647566531e-001	 1.4834973017e+000	-1.7524215517e+000
 8.8028512425e-001	 1.4931614377e+000	-1.7281825002e+000
 8.6401296938e-001	 1.5026359094e+000	-1.7024983312e+000
 8.4766246680e-001	 1.5119198145e+000	-1.6751756438e+000
 1.0111270746e+000	 1.4160547276e+000	-1.8892498908e+000
 9.9553833515e-001	 1.4270572499e+000	-1.8703695278e+000
 9.7984515290e-001	 1.4378777753e+000	-1.8513410954e+000
 9.6405068328e-001	 1.4485148860e+000	-1.8320268400e+000
 9.4815810546e-001	 1.4589672361e+000	-1.8122604804e+000
 9.3217062029e-001	 1.4692335525e+000	-1.7918554140e+000
 9.1609144831e-001	 1.4793126350e+000	-1.7706085160e+000
 8.9992382767e-001	 1.4892033568e+000	-1.7483038161e+000
 8.8367101207e-001	 1.4989046645e+000	-1.7247160219e+000
 8.6733626873e-001	 1.5084155784e+000	-1.6996138603e+000
 8.5092287634e-001	 1.5177351927e+000	-1.6727632103e+000
 1.0150013251e+000	 1.4214805053e+000	-1.8825413260e+000
 9.9935285557e-001	 1.4325251850e+000	-1.8635225565e+000
 9.8359954307e-001	 1.4433871705e+000	-1.8446039951e+000
 9.6774455512e-001	 1.4540650385e+000	-1.8256012236e+000
 9.5179108304e-001	 1.4645574380e+000	-1.8063026320e+000
 9.3574233997e-001	 1.4748630910e+000	-1.7864775703e+000
 9.1960155878e-001	 1.4849807927e+000	-1.7658803028e+000
 9.0337199003e-001	 1.4949094119e+000	-1.7442538305e+000
 8.8705689988e-001	 1.5046478913e+000	-1.7213335498e+000
 8.7065956808e-001	 1.5141952473e+000	-1.6968507172e+000
 8.5418328588e-001	 1.5235505708e+000	-1.6705356951e+000
 1.0188755756e+000	 1.4269062830e+000	-1.8758481090e+000
 1.0031673760e+000	 1.4379931201e+000	-1.8567208234e+000
 9.8735393325e-001	 1.4488965657e+000	-1.8379215564e+000
 9.7143842695e-001	 1.4596151911e+000	-1.8192253816e+000
 9.5542406062e-001	 1.4701476399e+000	-1.8003813839e+000
 9.3931405965e-001	 1.4804926295e+000	-1.7811207580e+000
 9.2311166925e-001	 1.4906489504e+000	-1.7611609123e+000
 9.0682015239e-001	 1.5006154670e+000	-1.7402094306e+000
 8.9044278770e-001	 1.5103911181e+000	-1.7179678601e+000
 8.7398286744e-001	 1.5199749163e+000	-1.6941352950e+000
 8.5744369542e-001	 1.5293659489e+000	-1.6684117281e+000
 1.0227498261e+000	 1.4323320606e+000	-1.8691137842e+000
 1.0069818964e+000	 1.4434610552e+000	-1.8499102954e+000
 9.9110832342e-001	 1.4544059609e+000	-1.8312412986e+000
 9.7513229879e-001	 1.4651653436e+000	-1.8128474486e+000
 9.5905703820e-001	 1.4757378419e+000	-1.7944444831e+000
 9.4288577933e-001	 1.4861221680e+000	-1.7757312702e+000
 9.2662177972e-001	 1.4963171080e+000	-1.7563940544e+000
 9.1026831475e-001	 1.5063215221e+000	-1.7361105530e+000
 8.9382867551e-001	 1.5161343448e+000	-1.7145538676e+000
 8.7730616679e-001	 1.5257545853e+000	-1.6913961805e+000
 8.6070410496e-001	 1.5351813271e+000	-1.6663122077e+000
 1.0266240766e+000	 1.4377578383e+000	-1.8622841460e+000
 1.0107964168e+000	 1.4489289903e+000	-1.8430349843e+000
 9.9486271360e-001	 1.4599153561e+000	-1.8245128692e+000
 9.7882617062e-001	 1.4707154961e+000	-1.8064176461e+000
 9.6269001579e-001	 1.4813280438e+000	-1.7884417371e+000
 9.4645749901e-001	 1.4917517065e+000	-1.7702574482e+000
 9.3013189019e-001	 1.5019852657e+000	-1.7515254910e+000
 9.1371647711e-001	 1.5120275772e+000	-1.7318992067e+000
 8.9721456333e-001	 1.5218775716e+000	-1.7110285966e+000
 8.8062946615e-001	 1.5315342542e+000	-1.6885641256e+000
 8.6396451450e-001	 1.5409967052e+000	-1.6641602710e+000
 1.0304983270e+000	 1.4431836160e+000	-1.8553072001e+000
 1.0146109373e+000	 1.4543969254e+000	-1.8360536737e+000
 9.9861710377e-001	 1.4654247513e+000	-1.8176880096e+000
 9.8252004246e-001	 1.4762656486e+000	-1.7998882504e+000
 9.6632299337e-001	 1.4869182457e+000	-1.7823249823e+000
 9.5002921869e-001	 1.4973812450e+000	-1.7646496516e+000
 9.3364200067e-001	 1.5076534233e+000	-1.7465030066e+000
 9.1716463947e-001	 1.5177336323e+000	-1.7275194440e+000
 9.0060045114e-001	 1.5276207984e+000	-1.7073311523e+000
 8.8395276550e-001	 1.5373139232e+000	-1.6855720178e+000
 8.6722492404e-001	 1.5468120834e+000	-1.6618812640e+000
 1.0343725775e+000	 1.4486093937e+000	-1.8481331256e+000
 1.0184254577e+000	 1.4598648605e+000	-1.8289144131e+000
 1.0023714939e+000	 1.4709341465e+000	-1.8107205208e+000
 9.8621391429e-001	 1.4818158011e+000	-1.7932135594e+000
 9.6995597095e-001	 1.4925084476e+000	-1.7760480526e+000
 9.5360093838e-001	 1.5030107835e+000	-1.7588602277e+000
 9.3715211114e-001	 1.5133215810e+000	-1.7412763790e+000
 9.2061280183e-001	 1.5234396875e+000	-1.7229173315e+000
 9.0398633896e-001	 1.5333640252e+000	-1.7034026921e+000
 8.8727606486e-001	 1.5430935922e+000	-1.6823548520e+000
 8.7048533358e-001	 1.5526274615e+000	-1.6594027127e+000
 1.0382468280e+000	 1.4540351713e+000	-1.8407142370e+000
 1.0222399781e+000	 1.4653327956e+000	-1.8215716836e+000
 1.0061258841e+000	 1.4764435417e+000	-1.8035662296e+000
 9.8990778613e-001	 1.4873659537e+000	-1.7863498606e+000
 9.7358894853e-001	 1.4980986495e+000	-1.7695667487e+000
 9.5717265806e-001	 1.5086403220e+000	-1.7528434819e+000
 9.4066222161e-001	 1.5189897387e+000	-1.7357973503e+000
 9.2406096419e-001	 1.5291457426e+000	-1.7180409220e+000
 9.0737222678e-001	 1.5391072520e+000	-1.6991863969e+000
 8.9059936421e-001	 1.5488732611e+000	-1.6788497011e+000
 8.7374574312e-001	 1.5584428397e+000	-1.6566542934e+000
 1.0421210785e+000	 1.4594609490e+000	-1.8330049467e+000
 1.0260544985e+000	 1.4708007307e+000	-1.8139820053e+000
 1.0098802743e+000	 1.4819529369e+000	-1.7961829543e+000
 9.9360165796e-001	 1.4929161062e+000	-1.7792553984e+000
 9.7722192612e-001	 1.5036888514e+000	-1.7628388072e+000
 9.6074437774e-001	 1.5142698605e+000	-1.7465556480e+000
 9.4417233208e-001	 1.5246578963e+000	-1.7300195977e+000
 9.2750912655e-001	 1.5348517977e+000	-1.7128402254e+000
 9.1075811459e-001	 1.5448504788e+000	-1.6946274433e+000
 8.9392266357e-001	 1.5546529301e+000	-1.6749956882e+000
 8.7700615266e-001	 1.5642582178e+000	-1.6535678043e+000
 1.0459953290e+000	 1.4648867267e+000	-1.8249617268e+000
 1.0298690189e+000	 1.4762686658e+000	-1.8061039016e+000
 1.0136346645e+000	 1.4874623321e+000	-1.7885266994e+000
 9.9729552980e-001	 1.4984662587e+000	-1.7718903428e+000
 9.8085490370e-001	 1.5092790533e+000	-1.7558238695e+000
 9.6431609742e-001	 1.5198993990e+000	-1.7399548581e+000
 9.4768244255e-001	 1.5303260540e+000	-1.7238987049e+000
 9.3095728891e-001	 1.5405578528e+000	-1.7072671809e+000
 9.1414400240e-001	 1.5505937056e+000	-1.6896729751e+000
 8.9724596292e-001	 1.5604325990e+000	-1.6707339583e+000
 8.8026656220e-001	 1.5700735960e+000	-1.6500771362e+000
 8.4766246680e-001	 1.5119198145e+000	-1.6751756438e+000
 8.3123936136e-001	 1.5210109748e+000	-1.6485897272e+000
 8.1474448855e-001	 1.5299100431e+000	-1.6246171779e+000
 7.9818113599e-001	 1.5386163388e+000	-1.6023129255e+000
 7.8155259462e-001	 1.5471292545e+000	-1.5807157445e+000
 7.6486215671e-001	 1.5554482558e+000	-1.5588516824e+000
 7.4811311393e-001	 1.5635728808e+000	-1.5357372235e+000
 7.3130875535e-001	 1.5715027399e+000	-1.5103821801e+000
 7.1445236556e-001	 1.5792375153e+000	-1.4817923102e+000
 6.9754722280e-001	 1.5867769606e+000	-1.4489716632e+000
 6.8059659704e-001	 1.5941209003e+000	-1.4109246579e+000
 8.5092287634e-001	 1.5177351927e+000	-1.6727632103e+000
 8.3443660183e-001	 1.5268613208e+000	-1.6464111569e+000
 8.1787828390e-001	 1.5357946180e+000	-1.6223949468e+000
 8.0125122283e-001	 1.5445344012e+000	-1.5998627624e+000
 7.8455872221e-001	 1.5530800606e+000	-1.5779454992e+000
 7.6780408699e-001	 1.5614310597e+000	-1.5557600709e+000
 7.5099062146e-001	 1.5695869349e+000	-1.5324124423e+000
 7.3412162737e-001	 1.5775472950e+000	-1.5070003861e+000
 7.1720040196e-001	 1.5853118211e+000	-1.4786159607e+000
 7.0023023604e-001	 1.5928802658e+000	-1.4463477104e+000
 6.8321441218e-001	 1.6002524529e+000	-1.4092825947e+000
 8.5418328588e-001	 1.5235505708e+000	-1.6705356951e+000
 8.3763384230e-001	 1.5327116667e+000	-1.6445013313e+000
 8.2101207926e-001	 1.5416791929e+000	-1.6205323780e+000
 8.0432130968e-001	 1.5504524636e+000	-1.5978648024e+000
 7.8756484981e-001	 1.5590308667e+000	-1.5757163675e+000
 7.7074601726e-001	 1.5674138637e+000	-1.5532898204e+000
 7.5386812899e-001	 1.5756009890e+000	-1.5297758023e+000
 7.3693449940e-001	 1.5835918502e+000	-1.5043554756e+000
 7.1994843835e-001	 1.5913861270e+000	-1.4762028670e+000
 7.0291324928e-001	 1.5989835710e+000	-1.4444869273e+000
 6.8583222731e-001	 1.6063840055e+000	-1.4083733139e+000
 8.5744369542e-001	 1.5293659489e+000	-1.6684117281e+000
 8.4083108277e-001	 1.5385620127e+000	-1.6427709851e+000
 8.2414587462e-001	 1.5475637679e+000	-1.6189335043e+000
 8.0739139653e-001	 1.5563705260e+000	-1.5962176348e+000
 7.9057097741e-001	 1.5649816728e+000	-1.5739228174e+000
 7.7368794753e-001	 1.5733966676e+000	-1.5513326637e+000
 7.5674563653e-001	 1.5816150431e+000	-1.5277177494e+000
 7.3974737143e-001	 1.5896364053e+000	-1.5023381178e+000
 7.2269647474e-001	 1.5974604328e+000	-1.4744454926e+000
 7.0559626252e-001	 1.6050868762e+000	-1.4432852014e+000
 6.8845004245e-001	 1.6125155581e+000	-1.4080978168e+000
 8.6070410496e-001	 1.5351813271e+000	-1.6663122077e+000
 8.4402832324e-001	 1.5444123587e+000	-1.6411331961e+000
 8.2727966998e-001	 1.5534483428e+000	-1.6175047558e+000
 8.1046148337e-001	 1.5622885885e+000	-1.5948222787e+000
 7.9357710501e-001	 1.5709324789e+000	-1.5724617573e+000
 7.7662987780e-001	 1.5793794715e+000	-1.5497827613e+000
 7.5962314406e-001	 1.5876290972e+000	-1.5261311206e+000
 7.4256024346e-001	 1.5956809605e+000	-1.5008413108e+000
 7.2544451114e-001	 1.6035347386e+000	-1.4732385413e+000
 7.0827927575e-001	 1.6111901814e+000	-1.4426405464e+000
 6.9106785759e-001	 1.6186471107e+000	-1.4083590879e+000
 8.6396451450e-001	 1.5409967052e+000	-1.6641602710e+000
 8.4722556371e-001	 1.5502627046e+000	-1.6395033544e+000
 8.3041346533e-001	 1.5593329177e+000	-1.6161549288e+000
 8.1353157022e-001	 1.5682066509e+000	-1.5935821526e+000
 7.9658323261e-001	 1.5768832850e+000	-1.5712325062e+000
 7.7957180808e-001	 1.5853622754e+000	-1.5485366724e+000
 7.6250065159e-001	 1.5936431513e+000	-1.5249111154e+000
 7.4537311549e-001	 1.6017255156e+000	-1.4997603550e+000
 7.2819254753e-001	 1.6096090444e+000	-1.4724789335e+000
 7.1096228899e-001	 1.6172934866e+000	-1.4424530796e+000
 6.9368567273e-001	 1.6247786633e+000	-1.4090620755e+000
 8.6722492404e-001	 1.5468120834e+000	-1.6618812640e+000
 8.5042280418e-001	 1.5561130506e+000	-1.6377991326e+000
 8.3354726069e-001	 1.5652174926e+000	-1.6147951552e+000
 8.1660165707e-001	 1.5741247133e+000	-1.5924030437e+000
 7.9958936021e-001	 1.5828340911e+000	-1.5701367633e+000
 7.8251373835e-001	 1.5913450793e+000	-1.5474933252e+000
 7.6537815913e-001	 1.5996572054e+000	-1.5239552684e+000
 7.4818598752e-001	 1.6077700708e+000	-1.4989928269e+000
 7.3094058393e-001	 1.6156833503e+000	-1.4720657815e+000
 7.1364530223e-001	 1.6233967918e+000	-1.4426250001e+000
 6.9630348787e-001	 1.6309102159e+000	-1.4101136735e+000
 8.7048533358e-001	 1.5526274615e+000	-1.6594027127e+000
 8.5362004465e-001	 1.5619633965e+000	-1.6359404551e+000
 8.3668105605e-001	 1.5711020676e+000	-1.6133388729e+000
 8.1967174392e-001	 1.5800427757e+000	-1.5911930781e+000
 8.0259548780e-001	 1.5887848972e+000	-1.5690785784e+000
 7.8545566863e-001	 1.5973278833e+000	-1.5465539885e+000
 7.6825566666e-001	 1.6056712595e+000	-1.5231634211e+000
 7.5099885955e-001	 1.6138146259e+000	-1.4984385526e+000
 7.3368862032e-001	 1.6217576561e+000	-1.4719003653e+000
 7.1632831547e-001	 1.6295000970e+000	-1.4430605678e+000
 6.9892130301e-001	 1.6370417684e+000	-1.4114227022e+000
 8.7374574312e-001	 1.5584428397e+000	-1.6566542934e+000
 8.5681728512e-001	 1.5678137425e+000	-1.6338494693e+000
 8.3981485141e-001	 1.5769866425e+000	-1.6117017953e+000
 8.2274183077e-001	 1.5859608381e+000	-1.5898626906e+000
 8.0560161540e-001	 1.5947357033e+000	-1.5679643225e+000
 7.8839759890e-001	 1.6033106872e+000	-1.5456222429e+000
 7.7113317419e-001	 1.6116853136e+000	-1.5224376946e+000
 7.5381173157e-001	 1.6198591810e+000	-1.4979995825e+000
 7.3643665671e-001	 1.6278319619e+000	-1.4718861094e+000
 7.1901132871e-001	 1.6356034022e+000	-1.4436660813e+000
 7.0153911814e-001	 1.6431733210e+000	-1.4128998899e+000
 8.7700615266e-001	 1.5642582178e+000	-1.6535678043e+000
 8.6001452559e-001	 1.5736640885e+000	-1.6314505155e+000
 8.4294864676e-001	 1.5828712174e+000	-1.6098018816e+000
 8.2581191761e-001	 1.5918789005e+000	-1.5883245955e+000
 8.0860774300e-001	 1.6006865094e+000	-1.5667026589e+000
 7.9133952917e-001	 1.6092934911e+000	-1.5446039523e+000
 7.7401068172e-001	 1.6176993677e+000	-1.5216824630e+000
 7.5662460360e-001	 1.6259037362e+000	-1.4975801656e+000
 7.3918469311e-001	 1.6339062677e+000	-1.4719285586e+000
 7.2169434194e-001	 1.6417067074e+000	-1.4443498572e+000
 7.0415693328e-001	 1.6493048736e+000	-1.4144578547e+000
 8.8026656220e-001	 1.5700735960e+000	-1.6500771362e+000
 8.6321176606e-001	 1.5795144344e+000	-1.6286700978e+000
 8.4608244212e-001	 1.5887557923e+000	-1.6075593078e+000
 8.2888200446e-001	 1.5977969630e+000	-1.5864937568e+000
 8.1161387060e-001	 1.6066373155e+000	-1.5652045139e+000
 7.9428145944e-001	 1.6152762950e+000	-1.5434072365e+000
 7.7688818926e-001	 1.6237134218e+000	-1.5208043257e+000
 7.5943747563e-001	 1.6319482913e+000	-1.4970867241e+000
 7.4193272950e-001	 1.6399805736e+000	-1.4719353549e+000
 7.2437735518e-001	 1.6478100126e+000	-1.4450222087e+000
 7.0677474842e-001	 1.6554364262e+000	-1.4160110859e+000
 6.8059659704e-001	 1.5941209003e+000	-1.4109246579e+000
 6.6360119611e-001	 1.6012702869e+000	-1.3712072371e+000
 6.4656680968e-001	 1.6082239692e+000	-1.3382560323e+000
 6.2949667433e-001	 1.6149819816e+000	-1.3129659518e+000
 6.1239401118e-001	 1.6215444267e+000	-1.2932108733e+000
 5.9526202419e-001	 1.6279114744e+000	-1.2770446770e+000
 5.7810389852e-001	 1.6340833611e+000	-1.2626839676e+000
 5.6092279885e-001	 1.6400603887e+000	-1.2484919720e+000
 5.4372186784e-001	 1.6458429242e+000	-1.2329636441e+000
 5.2650422454e-001	 1.6514313977e+000	-1.2147119933e+000
 5.0927296292e-001	 1.6568263024e+000	-1.1924556394e+000
 6.8321441218e-001	 1.6002524529e+000	-1.4092825947e+000
 6.6615364093e-001	 1.6074293385e+000	-1.3708411020e+000
 6.4905373423e-001	 1.6144097672e+000	-1.3380527473e+000
 6.3191794110e-001	 1.6211937733e+000	-1.3129789696e+000
 6.1474949506e-001	 1.6277814599e+000	-1.2934802343e+000
 5.9755161239e-001	 1.6341729975e+000	-1.2775979055e+000
 5.8032749050e-001	 1.6403686234e+000	-1.2635366839e+000
 5.6308030625e-001	 1.6463686408e+000	-1.2496482640e+000
 5.4581321437e-001	 1.6521734179e+000	-1.2344162399e+000
 5.2852934593e-001	 1.6577833867e+000	-1.2164422745e+000
 5.1123180679e-001	 1.6631990421e+000	-1.1944335374e+000
 6.8583222731e-001	 1.6063840055e+000	-1.4083733139e+000
 6.6870608574e-001	 1.6135883902e+000	-1.3713080055e+000
 6.5154065877e-001	 1.6205955651e+000	-1.3387606895e+000
 6.3433920787e-001	 1.6274055650e+000	-1.3138968406e+000
 6.1710497894e-001	 1.6340184931e+000	-1.2946351417e+000
 5.9984120059e-001	 1.6404345206e+000	-1.2790104179e+000
 5.8255108249e-001	 1.6466538857e+000	-1.2652211379e+000
 5.6523781365e-001	 1.6526768929e+000	-1.2516128213e+000
 5.4790456091e-001	 1.6585039117e+000	-1.2366627377e+000
 5.3055446732e-001	 1.6641353757e+000	-1.2189659128e+000
 5.1319065065e-001	 1.6695717818e+000	-1.1972224445e+000
 6.8845004245e-001	 1.6125155581e+000	-1.4080978168e+000
 6.7125853056e-001	 1.6197474419e+000	-1.3723640513e+000
 6.5402758332e-001	 1.6267813631e+000	-1.3402733048e+000
 6.3676047464e-001	 1.6336173567e+000	-1.3156193933e+000
 6.1946046282e-001	 1.6402555262e+000	-1.2965807866e+000
 6.0213078879e-001	 1.6466960436e+000	-1.2811917112e+000
 5.8477467447e-001	 1.6529391481e+000	-1.2676500361e+000
 5.6739532105e-001	 1.6589851451e+000	-1.2543004223e+000
 5.4999590745e-001	 1.6648344055e+000	-1.2396188083e+000
 5.3257958872e-001	 1.6704873647e+000	-1.2221982479e+000
 5.1514949452e-001	 1.6759445216e+000	-1.2007360999e+000
 6.9106785759e-001	 1.6186471107e+000	-1.4083590879e+000
 6.7381097538e-001	 1.6259064935e+000	-1.3739125769e+000
 6.5651450786e-001	 1.6329671611e+000	-1.3424852773e+000
 6.3918174140e-001	 1.6398291484e+000	-1.3180474481e+000
 6.2181594670e-001	 1.6464925594e+000	-1.2992231322e+000
 6.0442037699e-001	 1.6529575667e+000	-1.2840518614e+000
 5.8699826645e-001	 1.6592244104e+000	-1.2707364995e+000
 5.6955282845e-001	 1.6652933972e+000	-1.2576261252e+000
 5.5208725398e-001	 1.6711648993e+000	-1.2432002980e+000
 5.3460471011e-001	 1.6768393538e+000	-1.2260547213e+000
 5.1710833839e-001	 1.6823172613e+000	-1.2048883036e+000
 6.9368567273e-001	 1.6247786633e+000	-1.4090620755e+000
 6.7636342020e-001	 1.6320655452e+000	-1.3758636763e+000
 6.5900143241e-001	 1.6391529591e+000	-1.3452925655e+000
 6.4160300817e-001	 1.6460409400e+000	-1.3210828529e+000
 6.2417143057e-001	 1.6527295926e+000	-1.3024689483e+000
 6.0670996520e-001	 1.6592190898e+000	-1.2875015571e+000
 5.8922185843e-001	 1.6655096728e+000	-1.2743940954e+000
 5.7171033585e-001	 1.6716016493e+000	-1.2615052975e+000
 5.5417860052e-001	 1.6774953930e+000	-1.2473232552e+000
 5.3662983150e-001	 1.6831913428e+000	-1.2304509014e+000
 5.1906718226e-001	 1.6886900010e+000	-1.2095929379e+000
 6.9630348787e-001	 1.6309102159e+000	-1.4101136735e+000
 6.7891586502e-001	 1.6382245968e+000	-1.3781292452e+000
 6.6148835695e-001	 1.6453387571e+000	-1.3485924389e+000
 6.4402427494e-001	 1.6522527317e+000	-1.3246285189e+000
 6.2652691445e-001	 1.6589666257e+000	-1.3062258453e+000
 6.0899955340e-001	 1.6654806129e+000	-1.2914521320e+000
 5.9144545042e-001	 1.6717949351e+000	-1.2785368687e+000
 5.7386784325e-001	 1.6779099014e+000	-1.2658536457e+000
 5.5626994706e-001	 1.6838258868e+000	-1.2519039585e+000
 5.3865495290e-001	 1.6895433318e+000	-1.2353025077e+000
 5.2102602613e-001	 1.6950627408e+000	-1.2147639897e+000
 6.9892130301e-001	 1.6370417684e+000	-1.4114227022e+000
 6.8146830983e-001	 1.6443836485e+000	-1.3806229651e+000
 6.6397528150e-001	 1.6515245550e+000	-1.3522835139e+000
 6.4644554171e-001	 1.6584645234e+000	-1.3285884555e+000
 6.2888239833e-001	 1.6652036589e+000	-1.3104023091e+000
 6.1128914160e-001	 1.6717421360e+000	-1.2958155985e+000
 5.9366904240e-001	 1.6780801974e+000	-1.2830793740e+000
 5.7602535065e-001	 1.6842181535e+000	-1.2705872448e+000
 5.5836129360e-001	 1.6901563806e+000	-1.2568589435e+000
 5.4068007429e-001	 1.6958953208e+000	-1.2405254360e+000
 5.2298487000e-001	 1.7014354805e+000	-1.2203155719e+000
 7.0153911814e-001	 1.6431733210e+000	-1.4128998899e+000
 6.8402075465e-001	 1.6505427001e+000	-1.3832602883e+000
 6.6646220604e-001	 1.6577103530e+000	-1.3562657903e+000
 6.4886680848e-001	 1.6646763151e+000	-1.3328678062e+000
 6.3123788221e-001	 1.6714406920e+000	-1.3149077351e+000
 6.1357872980e-001	 1.6780036590e+000	-1.3005046806e+000
 5.9589263438e-001	 1.6843654598e+000	-1.2879367063e+000
 5.7818285805e-001	 1.6905264056e+000	-1.2756225680e+000
 5.6045264013e-001	 1.6964868744e+000	-1.2621050306e+000
 5.4270519568e-001	 1.7022473099e+000	-1.2460357830e+000
 5.2494371387e-001	 1.7078082202e+000	-1.2261619454e+000
 7.0415693328e-001	 1.6493048736e+000	-1.4144578547e+000
 6.8657319947e-001	 1.6567017518e+000	-1.3859584214e+000
 6.6894913058e-001	 1.6638961510e+000	-1.3603735544e+000
 6.5128807525e-001	 1.6708881068e+000	-1.3373728841e+000
 6.3359336609e-001	 1.6776777252e+000	-1.3196524631e+000
 6.1586831800e-001	 1.6842651821e+000	-1.3054328469e+000
 5.9811622637e-001	 1.6906507221e+000	-1.2930245328e+000
 5.8034036544e-001	 1.6968346577e+000	-1.2808765158e+000
 5.6254398667e-001	 1.7028173681e+000	-1.2675593515e+000
 5.4473031708e-001	 1.7085992989e+000	-1.2517498710e+000
 5.2690255774e-001	 1.7141809600e+000	-1.2322175408e+000
 7.0677474842e-001	 1.6554364262e+000	-1.4160110859e+000
 6.8912564428e-001	 1.6628608034e+000	-1.3886363109e+000
 6.7143605513e-001	 1.6700819490e+000	-1.3644256304e+000
 6.5370934202e-001	 1.6770998984e+000	-1.3420112074e+000
 6.3594884997e-001	 1.6839147584e+000	-1.3245478114e+000
 6.1815790620e-001	 1.6905267052e+000	-1.3105143439e+000
 6.0033981835e-001	 1.6969359845e+000	-1.2982591243e+000
 5.8249787284e-001	 1.7031429098e+000	-1.2862664458e+000
 5.6463533321e-001	 1.7091478619e+000	-1.2731393771e+000
 5.4675543847e-001	 1.7149512879e+000	-1.2575842723e+000
 5.2886140161e-001	 1.7205536997e+000	-1.2383969805e+000
 5.0927296292e-001	 1.6568263024e+000	-1.1924556394e+000
 4.9203115015e-001	 1.6620281924e+000	-1.1677758519e+000
 4.7478182447e-001	 1.6670376810e+000	-1.1432874650e+000
 4.5752799460e-001	 1.6718554400e+000	-1.1193731498e+000
 4.4027263869e-001	 1.6764821997e+000	-1.0964632745e+000
 4.2301870300e-001	 1.6809187473e+000	-1.0750275592e+000
 4.0576910071e-001	 1.6851659259e+000	-1.0555678242e+000
 3.8852671073e-001	 1.6892246330e+000	-1.0386117731e+000
 3.7129437657e-001	 1.6930958194e+000	-1.0247077416e+000
 3.5407490523e-001	 1.6967804878e+000	-1.0144203406e+000
 3.3687106623e-001	 1.7002796916e+000	-1.0083269169e+000
 5.1123180679e-001	 1.6631990421e+000	-1.1944335374e+000
 4.9392367591e-001	 1.6684209405e+000	-1.1699579703e+000
 4.7660800322e-001	 1.6734496973e+000	-1.1456352090e+000
 4.5928780903e-001	 1.6782859871e+000	-1.1218611167e+000
 4.4196608292e-001	 1.6829305429e+000	-1.0990760571e+000
 4.2464578249e-001	 1.6873841551e+000	-1.0777566188e+000
 4.0732983213e-001	 1.6916476699e+000	-1.0584084696e+000
 3.9002112183e-001	 1.6957219882e+000	-1.0415602759e+000
 3.7272250601e-001	 1.6996080645e+000	-1.0277586180e+000
 3.5543680250e-001	 1.7033069054e+000	-1.0175638256e+000
 3.3816679145e-001	 1.7068195684e+000	-1.0115466545e+000
 5.1319065065e-001	 1.6695717818e+000	-1.1972224445e+000
 4.9581620167e-001	 1.6748136885e+000	-1.1729788050e+000
 4.7843418198e-001	 1.6798617136e+000	-1.1488472465e+000
 4.6104762346e-001	 1.6847165342e+000	-1.1252348850e+000
 4.4365952714e-001	 1.6893788862e+000	-1.1025901382e+000
 4.2627286198e-001	 1.6938495629e+000	-1.0813945256e+000
 4.0889056355e-001	 1.6981294138e+000	-1.0621556338e+000
 3.9151553292e-001	 1.7022193433e+000	-1.0454011791e+000
 3.7415063546e-001	 1.7061203096e+000	-1.0316740955e+000
 3.5679869977e-001	 1.7098333231e+000	-1.0215285698e+000
 3.3946251667e-001	 1.7133594453e+000	-1.0155269412e+000
 5.1514949452e-001	 1.6759445216e+000	-1.2007360999e+000
 4.9770872743e-001	 1.6812064366e+000	-1.1767503923e+000
 4.8026036074e-001	 1.6862737299e+000	-1.1528350135e+000
 4.6280743788e-001	 1.6911470813e+000	-1.1294063995e+000
 4.4535297137e-001	 1.6958272294e+000	-1.1069190838e+000
 4.2789994147e-001	 1.7003149707e+000	-1.0858575789e+000
 4.1045129498e-001	 1.7046111577e+000	-1.0667294573e+000
 3.9300994401e-001	 1.7087166985e+000	-1.0500595644e+000
 3.7557876490e-001	 1.7126325547e+000	-1.0363852858e+000
 3.5816059704e-001	 1.7163597408e+000	-1.0262527895e+000
 3.4075824189e-001	 1.7198993221e+000	-1.0202141561e+000
 5.1710833839e-001	 1.6823172613e+000	-1.2048883036e+000
 4.9960125319e-001	 1.6875991846e+000	-1.1811848027e+000
 4.8208653949e-001	 1.6926857462e+000	-1.1575099493e+000
 4.6456725231e-001	 1.6975776284e+000	-1.1342875735e+000
 4.4704641560e-001	 1.7022755727e+000	-1.1119763898e+000
 4.2952702096e-001	 1.7067803785e+000	-1.0910619638e+000
 4.1201202640e-001	 1.7110929017e+000	-1.0720499171e+000
 3.9450435511e-001	 1.7152140537e+000	-1.0554602951e+000
 3.7700689435e-001	 1.7191447998e+000	-1.0418230220e+000
 3.5952249431e-001	 1.7228861584e+000	-1.0316743561e+000
 3.4205396712e-001	 1.7264391989e+000	-1.0255542599e+000
 5.1906718226e-001	 1.6886900010e+000	-1.2095929379e+000
 5.0149377895e-001	 1.6939919326e+000	-1.1861941592e+000
 4.8391271825e-001	 1.6990977625e+000	-1.1627835127e+000
 4.6632706674e-001	 1.7040081755e+000	-1.1397903032e+000
 4.4873985983e-001	 1.7087239160e+000	-1.1176754930e+000
 4.3115410045e-001	 1.7132457863e+000	-1.0969237611e+000
 4.1357275782e-001	 1.7175746456e+000	-1.0780368355e+000
 3.9599876620e-001	 1.7217114088e+000	-1.0615280247e+000
 3.7843502379e-001	 1.7256570450e+000	-1.0479178658e+000
 3.6088439158e-001	 1.7294125761e+000	-1.0377308026e+000
 3.4334969234e-001	 1.7329790757e+000	-1.0314928011e+000
 5.2102602613e-001	 1.6950627408e+000	-1.2147639897e+000
 5.0338630472e-001	 1.7003846807e+000	-1.1916906569e+000
 4.8573889701e-001	 1.7055097788e+000	-1.1685671984e+000
 4.6808688116e-001	 1.7104387226e+000	-1.1458264807e+000
 4.5043330405e-001	 1.7151722592e+000	-1.1239297838e+000
 4.3278117994e-001	 1.7197111941e+000	-1.1033589574e+000
 4.1513348924e-001	 1.7240563896e+000	-1.0846098889e+000
 3.9749317730e-001	 1.7282087640e+000	-1.0681872037e+000
 3.7986315323e-001	 1.7321692901e+000	-1.0546001148e+000
 3.6224628885e-001	 1.7359389937e+000	-1.0443593300e+000
 3.4464541756e-001	 1.7395189526e+000	-1.0379749230e+000
 5.2298487000e-001	 1.7014354805e+000	-1.2203155719e+000
 5.0527883048e-001	 1.7067774287e+000	-1.1975865809e+000
 4.8756507576e-001	 1.7119217951e+000	-1.1747725530e+000
 4.6984669559e-001	 1.7168692697e+000	-1.1523080087e+000
 4.5212674828e-001	 1.7216206025e+000	-1.1306526171e+000
 4.3440825943e-001	 1.7261766019e+000	-1.1102834553e+000
 4.1669422066e-001	 1.7305381335e+000	-1.0916886168e+000
 3.9898758839e-001	 1.7347061192e+000	-1.0753620885e+000
 3.8129128268e-001	 1.7386815352e+000	-1.0617998094e+000
 3.6360818612e-001	 1.7424654114e+000	-1.0514968148e+000
 3.4594114278e-001	 1.7460588294e+000	-1.0449453705e+000
 5.2494371387e-001	 1.7078082202e+000	-1.2261619454e+000
 5.0717135624e-001	 1.7131701768e+000	-1.2037943262e+000
 4.8939125452e-001	 1.7183338114e+000	-1.1813111913e+000
 4.7160651002e-001	 1.7232998168e+000	-1.1591468138e+000
 4.5382019251e-001	 1.7280689458e+000	-1.1377573254e+000
 4.3603533892e-001	 1.7326420096e+000	-1.1176130841e+000
 4.1825495208e-001	 1.7370198774e+000	-1.0991924305e+000
 4.0048199948e-001	 1.7412034743e+000	-1.0829767486e+000
 3.8271941212e-001	 1.7451937803e+000	-1.0694467402e+000
 3.6497008339e-001	 1.7489918290e+000	-1.0590798151e+000
 3.4723686801e-001	 1.7525987062e+000	-1.0523484969e+000
 5.2690255774e-001	 1.7141809600e+000	-1.2322175408e+000
 5.0906388200e-001	 1.7195629248e+000	-1.2102264159e+000
 4.9121743328e-001	 1.7247458277e+000	-1.1880948129e+000
 4.7336632444e-001	 1.7297303639e+000	-1.1662548613e+000
 4.5551363674e-001	 1.7345172890e+000	-1.1451572300e+000
 4.3766241841e-001	 1.7391074174e+000	-1.1252636095e+000
 4.1981568351e-001	 1.7435016214e+000	-1.1070406225e+000
 4.0197641058e-001	 1.7477008295e+000	-1.0909550750e+000
 3.8414754157e-001	 1.7517060254e+000	-1.0774704553e+000
 3.6633198066e-001	 1.7555182467e+000	-1.0670445783e+000
 3.4853259323e-001	 1.7591385831e+000	-1.0601282707e+000
 5.2886140161e-001	 1.7205536997e+000	-1.2383969805e+000
 5.1095640776e-001	 1.7259556728e+000	-1.2167955206e+000
 4.9304361203e-001	 1.7311578440e+000	-1.1950352182e+000
 4.7512613887e-001	 1.7361609110e+000	-1.1735441686e+000
 4.5720708096e-001	 1.7409656323e+000	-1.1527656537e+000
 4.3928949790e-001	 1.7455728252e+000	-1.1331507451e+000
 4.2137641493e-001	 1.7499833653e+000	-1.1151523754e+000
 4.0347082167e-001	 1.7541981846e+000	-1.0992207881e+000
 3.8557567101e-001	 1.7582182705e+000	-1.0858002678e+000
 3.6769387793e-001	 1.7620446643e+000	-1.0753270473e+000
 3.4982831845e-001	 1.7656784599e+000	-1.0682282824e+000
 3.3687106623e-001	 1.7002796916e+000	-1.0083269169e+000
 3.1968816606e-001	 1.7035940503e+000	-1.0044415443e+000
 3.0252631014e-001	 1.7067252539e+000	-1.0003303103e+000
 2.8538814467e-001	 1.7096745004e+000	-9.9591915028e-001
 2.6827627483e-001	 1.7124430329e+000	-9.9114875216e-001
 2.5119326396e-001	 1.7150321385e+000	-9.8597486777e-001
 2.3414163286e-001	 1.7174431462e+000	-9.8036890549e-001
 2.1712385907e-001	 1.7196774263e+000	-9.7431872321e-001
 2.0014237624e-001	 1.7217363883e+000	-9.6782954299e-001
 1.8319957358e-001	 1.7236214799e+000	-9.6092491215e-001
 1.6629779526e-001	 1.7253341856e+000	-9.5364763917e-001
 3.3816679145e-001	 1.7068195684e+000	-1.0115466545e+000
 3.2091779977e-001	 1.7101466753e+000	-1.0077050008e+000
 3.0368993328e-001	 1.7132899226e+000	-1.0035981556e+000
 2.8648584837e-001	 1.7162505129e+000	-9.9915824616e-001
 2.6930816023e-001	 1.7190296943e+000	-9.9433276613e-001
 2.5215944207e-001	 1.7216287584e+000	-9.8908510426e-001
 2.3504222436e-001	 1.7240490398e+000	-9.8339535851e-001
 2.1795899419e-001	 1.7262919136e+000	-9.7726135182e-001
 2.0091219458e-001	 1.7283587952e+000	-9.7069976843e-001
 1.8390422391e-001	 1.7302511375e+000	-9.6374733309e-001
 1.6693743538e-001	 1.7319704309e+000	-9.5646195911e-001
 3.3946251667e-001	 1.7133594453e+000	-1.0155269412e+000
 3.2214743349e-001	 1.7166993003e+000	-1.0116595346e+000
 3.0485355643e-001	 1.7198545913e+000	-1.0074897960e+000
 2.8758355208e-001	 1.7228265255e+000	-1.0029576546e+000
 2.7034004563e-001	 1.7256163556e+000	-9.9801883341e-001
 2.5312562017e-001	 1.7282253784e+000	-9.9264560387e-001
 2.3594281586e-001	 1.7306549333e+000	-9.8682783028e-001
 2.1879412932e-001	 1.7329064010e+000	-9.8057421789e-001
 2.0168201292e-001	 1.7349812020e+000	-9.7391368049e-001
 1.8460887424e-001	 1.7368807951e+000	-9.6689674740e-001
 1.6757707549e-001	 1.7386066762e+000	-9.5959693352e-001
 3.4075824189e-001	 1.7198993221e+000	-1.0202141561e+000
 3.2337706720e-001	 1.7232519254e+000	-1.0162597075e+000
 3.0601717958e-001	 1.7264192601e+000	-1.0119669339e+000
 2.8868125578e-001	 1.7294025381e+000	-1.0072851190e+000
 2.7137193104e-001	 1.7322030169e+000	-1.0021795806e+000
 2.5409179827e-001	 1.7348219983e+000	-9.9663266010e-001
 2.3684340737e-001	 1.7372608268e+000	-9.9064500712e-001
 2.1962926445e-001	 1.7395208884e+000	-9.8423706890e-001
 2.0245183126e-001	 1.7416036089e+000	-9.7745069919e-001
 1.8531352457e-001	 1.7435104527e+000	-9.7035080294e-001
 1.6821671561e-001	 1.7452429214e+000	-9.6302693830e-001
 3.4205396712e-001	 1.7264391989e+000	-1.0255542599e+000
 3.2460670091e-001	 1.7298045504e+000	-1.0214595970e+000
 3.0718080273e-001	 1.7329839288e+000	-1.0169907457e+000
 2.8977895949e-001	 1.7359785507e+000	-1.0121078383e+000
 2.7240381644e-001	 1.7387896783e+000	-1.0067870946e+000
 2.5505797638e-001	 1.7414186183e+000	-1.0010220552e+000
 2.3774399887e-001	 1.7438667204e+000	-9.9482511555e-001
 2.2046439958e-001	 1.7461353758e+000	-9.8822926703e-001
 2.0322164960e-001	 1.7482260158e+000	-9.8128995665e-001
 1.8601817490e-001	 1.7501401103e+000	-9.7408697971e-001
 1.6885635573e-001	 1.7518791667e+000	-9.6672632393e-001
 3.4334969234e-001	 1.7329790757e+000	-1.0314928011e+000
 3.2583633463e-001	 1.7363571754e+000	-1.0272128034e+000
 3.0834442588e-001	 1.7395485976e+000	-1.0225218885e+000
 2.9087666319e-001	 1.7425545633e+000	-1.0173924734e+000
 2.7343570185e-001	 1.7453763396e+000	-1.0118129285e+000
 2.5602415448e-001	 1.7480152383e+000	-1.0057890646e+000
 2.3864459037e-001	 1.7504726139e+000	-9.9934592558e-001
 2.2129953470e-001	 1.7527498631e+000	-9.9252979095e-001
 2.0399146794e-001	 1.7548484226e+000	-9.8541029703e-001
 1.8672282524e-001	 1.7567697679e+000	-9.7808258763e-001
 1.6949599584e-001	 1.7585154120e+000	-9.7066941077e-001
 3.4464541756e-001	 1.7395189526e+000	-1.0379749230e+000
 3.2706596834e-001	 1.7429098004e+000	-1.0334724565e+000
 3.0950804903e-001	 1.7461132663e+000	-1.0285205065e+000
 2.9197436690e-001	 1.7491305759e+000	-1.0231051527e+000
 2.7446758725e-001	 1.7519630010e+000	-1.0172281067e+000
 2.5699033259e-001	 1.7546118582e+000	-1.0109084617e+000
 2.3954518187e-001	 1.7570785075e+000	-1.0041847540e+000
 2.2213466983e-001	 1.7593643505e+000	-9.9711723756e-001
 2.0476128629e-001	 1.7614708295e+000	-9.8979027647e-001
 1.8742747557e-001	 1.7633994255e+000	-9.8231476439e-001
 1.7013563596e-001	 1.7651516572e+000	-9.7483048455e-001
 3.4594114278e-001	 1.7460588294e+000	-1.0449453705e+000
 3.2829560206e-001	 1.7494624254e+000	-1.0401912225e+000
 3.1067167217e-001	 1.7526779350e+000	-1.0349462377e+000
 2.9307207060e-001	 1.7557065884e+000	-1.0292114789e+000
 2.7549947265e-001	 1.7585496623e+000	-1.0230031305e+000
 2.5795651069e-001	 1.7612084782e+000	-1.0163545219e+000
 2.4044577338e-001	 1.7636844010e+000	-1.0093184676e+000
 2.2296980496e-001	 1.7659788379e+000	-1.0019698238e+000
 2.0553110463e-001	 1.7680932364e+000	-9.9440816312e-001
 1.8813212590e-001	 1.7700290831e+000	-9.8676047345e-001
 1.7077527607e-001	 1.7717879025e+000	-9.7918379194e-001
 3.4723686801e-001	 1.7525987062e+000	-1.0523484969e+000
 3.2952523577e-001	 1.7560150505e+000	-1.0473213106e+000
 3.1183529532e-001	 1.7592426038e+000	-1.0417582209e+000
 2.9416977431e-001	 1.7622826010e+000	-1.0356765349e+000
 2.7653135806e-001	 1.7651363236e+000	-1.0291079836e+000
 2.5892268880e-001	 1.7678050981e+000	-1.0221010276e+000
 2.4134636488e-001	 1.7702902946e+000	-1.0147234867e+000
 2.2380494009e-001	 1.7725933253e+000	-1.0070653885e+000
 2.0630092297e-001	 1.7747156432e+000	-9.9924193725e-001
 1.8883677623e-001	 1.7766587407e+000	-9.9139650204e-001
 1.7141491619e-001	 1.7784241478e+000	-9.8370353627e-001
 3.4853259323e-001	 1.7591385831e+000	-1.0601282707e+000
 3.3075486948e-001	 1.7625676755e+000	-1.0548144801e+000
 3.1299891847e-001	 1.7658072725e+000	-1.0489151015e+000
 2.9526747801e-001	 1.7688586136e+000	-1.0424648898e+000
 2.7756324346e-001	 1.7717229850e+000	-1.0355121375e+000
 2.5988886690e-001	 1.7744017181e+000	-1.0281212726e+000
 2.4224695638e-001	 1.7768961881e+000	-1.0203757880e+000
 2.2464007521e-001	 1.7792078126e+000	-1.0123813942e+000
 2.0707074131e-001	 1.7813380501e+000	-1.0042692913e+000
 1.8954142656e-001	 1.7832883983e+000	-9.9619945929e-001
 1.7205455631e-001	 1.7850603930e+000	-9.8836387335e-001
 3.4982831845e-001	 1.7656784599e+000	-1.0682282824e+000
 3.3198450320e-001	 1.7691203005e+000	-1.0626220471e+000
 3.1416254162e-001	 1.7723719412e+000	-1.0563750386e+000
 2.9636518172e-001	 1.7754346262e+000	-1.0495406052e+000
 2.7859512886e-001	 1.7783096463e+000	-1.0421845568e+000
 2.6085504500e-001	 1.7809983380e+000	-1.0343880660e+000
 2.4314754788e-001	 1.7835020816e+000	-1.0262509083e+000
 2.2547521034e-001	 1.7858223000e+000	-1.0178949290e+000
 2.0784055965e-001	 1.7879604570e+000	-1.0094676301e+000
 1.9024607689e-001	 1.7899180559e+000	-1.0011457744e+000
 1.7269419642e-001	 1.7916966383e+000	-9.9313890750e-001
 1.6629779526e-001	 1.7253341856e+000	-9.5364763917e-001
 1.4943682018e-001	 1.7268762435e+000	-9.4617656349e-001
 1.3262146970e-001	 1.7282489382e+000	-9.3897595789e-001
 1.1585398508e-001	 1.7294538565e+000	-9.3253525195e-001
 9.9136559780e-002	 1.7304926164e+000	-9.2735272179e-001
 8.2471339175e-002	 1.7313668654e+000	-9.2393488886e-001
 6.5860420304e-002	 1.7320782790e+000	-9.2279560380e-001
 4.9305851646e-002	 1.7326285597e+000	-9.2445477980e-001
 3.2809632944e-002	 1.7330194352e+000	-9.2943674548e-001
 1.6373715085e-002	 1.7332526572e+000	-9.3826819333e-001
 0.0000000000e+000	 1.7333300000e+000	-9.5147570362e-001
 1.6693743538e-001	 1.7319704309e+000	-9.5646195911e-001
 1.5001160702e-001	 1.7335184201e+000	-9.4900856035e-001
 1.3313157877e-001	 1.7348963946e+000	-9.4182172313e-001
 1.1629960047e-001	 1.7361059475e+000	-9.3538526861e-001
 9.9517874039e-002	 1.7371487029e+000	-9.3019384653e-001
 8.2788553104e-002	 1.7380263145e+000	-9.2675254559e-001
 6.6113742766e-002	 1.7387404645e+000	-9.2557617159e-001
 4.9495499384e-002	 1.7392928617e+000	-9.2718815619e-001
 3.2935830393e-002	 1.7396852407e+000	-9.3211906540e-001
 1.6436694182e-002	 1.7399193597e+000	-9.4090468275e-001
 0.0000000000e+000	 1.7399970000e+000	-9.5408364639e-001
 1.6757707549e-001	 1.7386066762e+000	-9.5959693352e-001
 1.5058639387e-001	 1.7401605966e+000	-9.5216008333e-001
 1.3364168783e-001	 1.7415438511e+000	-9.4498472188e-001
 1.1674521586e-001	 1.7427580385e+000	-9.3854775713e-001
 9.9899188298e-002	 1.7438047893e+000	-9.3333909423e-001
 8.3105767032e-002	 1.7446857636e+000	-9.2986146198e-001
 6.6367065228e-002	 1.7454026499e+000	-9.2862988884e-001
 4.9685147121e-002	 1.7459571637e+000	-9.3017079042e-001
 3.3062027841e-002	 1.7463510461e+000	-9.3502063621e-001
 1.6499673279e-002	 1.7465860622e+000	-9.4372416952e-001
 0.0000000000e+000	 1.7466640000e+000	-9.5683215910e-001
 1.6821671561e-001	 1.7452429214e+000	-9.6302693830e-001
 1.5116118071e-001	 1.7468027732e+000	-9.5560199273e-001
 1.3415179689e-001	 1.7481913075e+000	-9.4843332149e-001
 1.1719083125e-001	 1.7494101295e+000	-9.4198957298e-001
 1.0028050256e-001	 1.7504608757e+000	-9.3675474779e-001
 8.3422980960e-002	 1.7513452127e+000	-9.3322824548e-001
 6.6620387689e-002	 1.7520648353e+000	-9.3192454268e-001
 4.9874794859e-002	 1.7526214657e+000	-9.3337246257e-001
 3.3188225289e-002	 1.7530168516e+000	-9.3811400264e-001
 1.6562652376e-002	 1.7532527647e+000	-9.4670269369e-001
 0.0000000000e+000	 1.7533310000e+000	-9.5970146753e-001
 1.6885635573e-001	 1.7518791667e+000	-9.6672632393e-001
 1.5173596756e-001	 1.7534449498e+000	-9.5930526820e-001
 1.3466190595e-001	 1.7548387639e+000	-9.5213613533e-001
 1.1763644663e-001	 1.7560622204e+000	-9.4567792596e-001
 1.0066181682e-001	 1.7571169621e+000	-9.4040753371e-001
 8.3740194888e-002	 1.7580046618e+000	-9.3682001719e-001
 6.6873710150e-002	 1.7587270208e+000	-9.3542848415e-001
 5.0064442596e-002	 1.7592857678e+000	-9.3676354666e-001
 3.3314422737e-002	 1.7596826570e+000	-9.4137231285e-001
 1.6625631473e-002	 1.7599194672e+000	-9.4981688738e-001
 0.0000000000e+000	 1.7599980000e+000	-9.6267235685e-001
 1.6949599584e-001	 1.7585154120e+000	-9.7066941077e-001
 1.5231075440e-001	 1.7600871263e+000	-9.6324100159e-001
 1.3517201501e-001	 1.7614862204e+000	-9.5606201375e-001
 1.1808206202e-001	 1.7627143114e+000	-9.4958036949e-001
 1.0104313107e-001	 1.7637730485e+000	-9.4426461034e-001
 8.4057408816e-002	 1.7646641108e+000	-9.4060439925e-001
 6.7127032611e-002	 1.7653892062e+000	-9.3911061518e-001
 5.0254090332e-002	 1.7659500698e+000	-9.4031499769e-001
 3.3440620184e-002	 1.7663484625e+000	-9.4476930593e-001
 1.6688610569e-002	 1.7665861698e+000	-9.5304396297e-001
 0.0000000000e+000	 1.7666650000e+000	-9.6572616109e-001
 1.7013563596e-001	 1.7651516572e+000	-9.7483048455e-001
 1.5288554125e-001	 1.7667293029e+000	-9.6738039007e-001
 1.3568212407e-001	 1.7681336768e+000	-9.6018003519e-001
 1.1852767741e-001	 1.7693664024e+000	-9.5366479023e-001
 1.0142444533e-001	 1.7704291350e+000	-9.4829355628e-001
 8.4374622743e-002	 1.7713235599e+000	-9.4454950255e-001
 6.7380355071e-002	 1.7720513917e+000	-9.4294037593e-001
 5.0443738068e-002	 1.7726143718e+000	-9.4399833901e-001
 3.3566817631e-002	 1.7730142679e+000	-9.4827929961e-001
 1.6751589666e-002	 1.7732528723e+000	-9.5636170175e-001
 0.0000000000e+000	 1.7733320000e+000	-9.6884475278e-001
 1.7077527607e-001	 1.7717879025e+000	-9.7918379194e-001
 1.5346032809e-001	 1.7733714795e+000	-9.7169472938e-001
 1.3619223313e-001	 1.7747811332e+000	-9.6445949753e-001
 1.1897329279e-001	 1.7760184934e+000	-9.5789939791e-001
 1.0180575959e-001	 1.7770852214e+000	-9.5246235913e-001
 8.4691836670e-002	 1.7779830090e+000	-9.4862391471e-001
 6.7633677531e-002	 1.7787135771e+000	-9.4688773246e-001
 5.0633385805e-002	 1.7792786738e+000	-9.4778565000e-001
 3.3693015078e-002	 1.7796800734e+000	-9.5187717837e-001
 1.6814568762e-002	 1.7799195748e+000	-9.5974844261e-001
 0.0000000000e+000	 1.7799990000e+000	-9.7201053288e-001
 1.7141491619e-001	 1.7784241478e+000	-9.8370353627e-001
 1.5403511493e-001	 1.7800136561e+000	-9.7615540730e-001
 1.3670234219e-001	 1.7814285897e+000	-9.6886990966e-001
 1.1941890818e-001	 1.7826705844e+000	-9.6225271540e-001
 1.0218707385e-001	 1.7837413078e+000	-9.5673940441e-001
 8.5009050597e-002	 1.7846424581e+000	-9.5279668832e-001
 6.7886999991e-002	 1.7853757625e+000	-9.5092316459e-001
 5.0823033541e-002	 1.7859429758e+000	-9.5164955395e-001
 3.3819212525e-002	 1.7863458789e+000	-9.5553838174e-001
 1.6877547859e-002	 1.7865862773e+000	-9.6318307118e-001
 0.0000000000e+000	 1.7866660000e+000	-9.7520642096e-001
 1.7205455631e-001	 1.7850603930e+000	-9.8836387335e-001
 1.5460990178e-001	 1.7866558326e+000	-9.8073389723e-001
 1.3721245125e-001	 1.7880760461e+000	-9.7338098329e-001
 1.1986452356e-001	 1.7893226754e+000	-9.6669356907e-001
 1.0256838811e-001	 1.7903973942e+000	-9.6109346487e-001
 8.5326264524e-002	 1.7913019072e+000	-9.5703732950e-001
 6.8140322451e-002	 1.7920379480e+000	-9.5501765414e-001
 5.1012681276e-002	 1.7926072778e+000	-9.5556320630e-001
 3.3945409972e-002	 1.7930116843e+000	-9.5923889284e-001
 1.6940526955e-002	 1.7932529798e+000	-9.6664500908e-001
 0.0000000000e+000	 1.7933330000e+000	-9.7841584548e-001
 1.7269419642e-001	 1.7916966383e+000	-9.9313890750e-001
 1.5518468862e-001	 1.7932980092e+000	-9.8540175200e-001
 1.3772256031e-001	 1.7947235026e+000	-9.7796262486e-001
 1.2031013895e-001	 1.7959747663e+000	-9.7119107925e-001
 1.0294970236e-001	 1.7970534806e+000	-9.6549368992e-001
 8.5643478450e-002	 1.7979613563e+000	-9.6131578662e-001
 6.8393644910e-002	 1.7987001334e+000	-9.5914267329e-001
 5.1202329012e-002	 1.7992715798e+000	-9.5950028308e-001
 3.4071607418e-002	 1.7996774898e+000	-9.6295522722e-001
 1.7003506051e-002	 1.7999196823e+000	-9.7011420345e-001
 0.0000000000e+000	 1.8000000000e+000	-9.8162273446e-001
 1.8000000000e+000	 0.0000000000e+000	 3.0293976085e+000
 1.7999196823e+000	 1.7003506051e-002	 3.0352098065e+000
 1.7996774898e+000	 3.4071607418e-002	 3.0357292141e+000
 1.7992715798e+000	 5.1202329012e-002	 3.0316769933e+000
 1.7987001334e+000	 6.8393644910e-002	 3.0237929114e+000
 1.7979613563e+000	 8.5643478450e-002	 3.0128331911e+000
 1.7970534806e+000	 1.0294970236e-001	 2.9995677374e+000
 1.7959747663e+000	 1.2031013895e-001	 2.9847767675e+000
 1.7947235026e+000	 1.3772256031e-001	 2.9692468697e+000
 1.7932980092e+000	 1.5518468862e-001	 2.9537665297e+000
 1.7916966383e+000	 1.7269419642e-001	 2.9391211659e+000
 1.8066670000e+000	 0.0000000000e+000	 3.0179014803e+000
 1.8065863848e+000	 1.7066485147e-002	 3.0240709880e+000
 1.8063432953e+000	 3.4197804865e-002	 3.0248075251e+000
 1.8059358819e+000	 5.1391976747e-002	 3.0208549300e+000
 1.8053623189e+000	 6.8646967369e-002	 3.0129788409e+000
 1.8046208054e+000	 8.5960692376e-002	 3.0019643956e+000
 1.8037095671e+000	 1.0333101662e-001	 2.9886132805e+000
 1.8026268573e+000	 1.2075575433e-001	 2.9737401532e+000
 1.8013709590e+000	 1.3823266937e-001	 2.9581684694e+000
 1.7999401858e+000	 1.5575947546e-001	 2.9427257488e+000
 1.7983328836e+000	 1.7333383654e-001	 2.9282383257e+000
 1.8133340000e+000	 0.0000000000e+000	 3.0067006410e+000
 1.8132530874e+000	 1.7129464244e-002	 3.0132101453e+000
 1.8130091007e+000	 3.4324002311e-002	 3.0141465054e+000
 1.8126001839e+000	 5.1581624483e-002	 3.0102763465e+000
 1.8120245043e+000	 6.8900289829e-002	 3.0023913558e+000
 1.8112802545e+000	 8.6277906302e-002	 2.9913058282e+000
 1.8103656535e+000	 1.0371233087e-001	 2.9778535314e+000
 1.8092789483e+000	 1.2120136972e-001	 2.9628839175e+000
 1.8080184155e+000	 1.3874277843e-001	 2.9472577102e+000
 1.8065823623e+000	 1.5633426231e-001	 2.9318419047e+000
 1.8049691289e+000	 1.7397347665e-001	 2.9175042246e+000
 1.8200010000e+000	 0.0000000000e+000	 2.9957663986e+000
 1.8199197899e+000	 1.7192443340e-002	 3.0026040799e+000
 1.8196749062e+000	 3.4450199758e-002	 3.0037274311e+000
 1.8192644859e+000	 5.1771272218e-002	 2.9999259920e+000
 1.8186866897e+000	 6.9153612288e-002	 2.9920176976e+000
 1.8179397036e+000	 8.6595120228e-002	 2.9808462645e+000
 1.8170217399e+000	 1.0409364513e-001	 2.9672778678e+000
 1.8159310393e+000	 1.2164698510e-001	 2.9521971356e+000
 1.8146658719e+000	 1.3925288749e-001	 2.9365024907e+000
 1.8132245389e+000	 1.5690904915e-001	 2.9211008763e+000
 1.8116053741e+000	 1.7461311676e-001	 2.9069019143e+000
 1.8266680000e+000	 0.0000000000e+000	 2.9850697962e+000
 1.8265864924e+000	 1.7255422436e-002	 2.9922294109e+000
 1.8263407116e+000	 3.4576397204e-002	 2.9935314748e+000
 1.8259287879e+000	 5.1960919954e-002	 2.9897885890e+000
 1.8253488752e+000	 6.9406934747e-002	 2.9818451557e+000
 1.8245991527e+000	 8.6912334153e-002	 2.9705746012e+000
 1.8236778263e+000	 1.0447495939e-001	 2.9568758598e+000
 1.8225831303e+000	 1.2209260049e-001	 2.9416691454e+000
 1.8213133283e+000	 1.3976299655e-001	 2.9258910406e+000
 1.8198667155e+000	 1.5748383599e-001	 2.9104889434e+000
 1.8182416194e+000	 1.7525275688e-001	 2.8964149163e+000
 1.8333350000e+000	 0.0000000000e+000	 2.9745816172e+000
 1.8332531949e+000	 1.7318401533e-002	 2.9820625793e+000
 1.8330065171e+000	 3.4702594651e-002	 2.9835397103e+000
 1.8325930899e+000	 5.2150567690e-002	 2.9798488376e+000
 1.8320110606e+000	 6.9660257206e-002	 2.9718610709e+000
 1.8312586018e+000	 8.7229548080e-002	 2.9604798584e+000
 1.8303339127e+000	 1.0485627364e-001	 2.9466372712e+000
 1.8292352213e+000	 1.2253821587e-001	 2.9312895469e+000
 1.8279607848e+000	 1.4027310561e-001	 2.9154119207e+000
 1.8265088921e+000	 1.5805862283e-001	 2.8999927835e+000
 1.8248778647e+000	 1.7589239699e-001	 2.8860272168e+000
 1.8400020000e+000	 0.0000000000e+000	 2.9642723897e+000
 1.8399198974e+000	 1.7381380629e-002	 2.9720798522e+000
 1.8396723226e+000	 3.4828792098e-002	 2.9737331160e+000
 1.8392573919e+000	 5.2340215426e-002	 2.9700914181e+000
 1.8386732461e+000	 6.9913579666e-002	 2.9620528381e+000
 1.8379180509e+000	 8.7546762006e-002	 2.9505511812e+000
 1.8369899992e+000	 1.0523758790e-001	 2.9365520599e+000
 1.8358873122e+000	 1.2298383126e-001	 2.9210482029e+000
 1.8346082412e+000	 1.4078321467e-001	 2.9050540207e+000
 1.8331510686e+000	 1.5863340967e-001	 2.8895994698e+000
 1.8315141099e+000	 1.7653203710e-001	 2.8757232637e+000
 1.8466690000e+000	 0.0000000000e+000	 2.9541123912e+000
 1.8465865999e+000	 1.7444359726e-002	 2.9622573277e+000
 1.8463381280e+000	 3.4954989546e-002	 2.9640925792e+000
 1.8459216940e+000	 5.2529863162e-002	 2.9605009953e+000
 1.8453354315e+000	 7.0166902126e-002	 2.9524079087e+000
 1.8445774999e+000	 8.7863975933e-002	 2.9407778419e+000
 1.8436460856e+000	 1.0561890216e-001	 2.9266103800e+000
 1.8425394032e+000	 1.2342944664e-001	 2.9109352386e+000
 1.8412556977e+000	 1.4129332373e-001	 2.8948065588e+000
 1.8397932452e+000	 1.5920819652e-001	 2.8792964684e+000
 1.8381503552e+000	 1.7717167722e-001	 2.8654879621e+000
 1.8533360000e+000	 0.0000000000e+000	 2.9440716531e+000
 1.8532533024e+000	 1.7507338823e-002	 2.9525709387e+000
 1.8530039335e+000	 3.5081186993e-002	 2.9545989000e+000
 1.8525859960e+000	 5.2719510899e-002	 2.9510622211e+000
 1.8519976169e+000	 7.0420224587e-002	 2.9429137937e+000
 1.8512369490e+000	 8.8181189860e-002	 2.9311492420e+000
 1.8503021720e+000	 1.0600021642e-001	 2.9168025817e+000
 1.8491914942e+000	 1.2387506203e-001	 2.9009410417e+000
 1.8479031541e+000	 1.4180343279e-001	 2.8846590798e+000
 1.8464354218e+000	 1.5978298336e-001	 2.8690716356e+000
 1.8447866005e+000	 1.7781131733e-001	 2.8553066706e+000
 1.8600030000e+000	 0.0000000000e+000	 2.9341199652e+000
 1.8599200050e+000	 1.7570317920e-002	 2.9429964573e+000
 1.8596697389e+000	 3.5207384442e-002	 2.9452327950e+000
 1.8592502980e+000	 5.2909158637e-002	 2.9417597385e+000
 1.8586598024e+000	 7.0673547048e-002	 2.9335580662e+000
 1.8578963981e+000	 8.8498403788e-002	 2.9216549137e+000
 1.8569582584e+000	 1.0638153067e-001	 2.9071192132e+000
 1.8558435852e+000	 1.2432067742e-001	 2.8910562621e+000
 1.8545506105e+000	 1.4231354185e-001	 2.8746014545e+000
 1.8530775984e+000	 1.6035777020e-001	 2.8589132162e+000
 1.8514228458e+000	 1.7845095745e-001	 2.8451651976e+000
 1.8666700000e+000	 0.0000000000e+000	 2.9242268800e+000
 1.8665867075e+000	 1.7633297017e-002	 2.9335094988e+000
 1.8663355444e+000	 3.5333581890e-002	 2.9359749008e+000
 1.8659146000e+000	 5.3098806374e-002	 2.9325781840e+000
 1.8653219878e+000	 7.0926869510e-002	 2.9243283640e+000
 1.8645558472e+000	 8.8815617717e-002	 2.9122845222e+000
 1.8636143449e+000	 1.0676284493e-001	 2.8975510208e+000
 1.8624956762e+000	 1.2476629280e-001	 2.8812718121e+000
 1.8611980670e+000	 1.4282365091e-001	 2.8646238780e+000
 1.8597197749e+000	 1.6093255705e-001	 2.8488098403e+000
 1.8580590910e+000	 1.7909059756e-001	 2.8350497972e+000
 1.7916966383e+000	 1.7269419642e-001	 2.9391211659e+000
 1.7899180559e+000	 1.9024607689e-001	 2.9227120905e+000
 1.7879604570e+000	 2.0784055965e-001	 2.9016600084e+000
 1.7858223000e+000	 2.2547521034e-001	 2.8763071635e+000
 1.7835020816e+000	 2.4314754788e-001	 2.8469600763e+000
 1.7809983380e+000	 2.6085504500e-001	 2.8138832027e+000
 1.7783096463e+000	 2.7859512886e-001	 2.7772925523e+000
 1.7754346262e+000	 2.9636518172e-001	 2.7373493660e+000
 1.7723719412e+000	 3.1416254162e-001	 2.6941539618e+000
 1.7691203005e+000	 3.3198450320e-001	 2.6477398598e+000
 1.7656784599e+000	 3.4982831845e-001	 2.5980683076e+000
 1.7983328836e+000	 1.7333383654e-001	 2.9282383257e+000
 1.7965477135e+000	 1.9095072722e-001	 2.9121039642e+000
 1.7945828638e+000	 2.0861037799e-001	 2.8913964588e+000
 1.7924367874e+000	 2.2631034547e-001	 2.8664353464e+000
 1.7901079752e+000	 2.4404813938e-001	 2.8375046195e+000
 1.7875949580e+000	 2.6182122311e-001	 2.8048460967e+000
 1.7848963077e+000	 2.7962701426e-001	 2.7686527434e+000
 1.7820106388e+000	 2.9746288542e-001	 2.7290620419e+000
 1.7789366100e+000	 3.1532616477e-001	 2.6861495225e+000
 1.7756729255e+000	 3.3321413691e-001	 2.6399225706e+000
 1.7722183367e+000	 3.5112404367e-001	 2.5903146336e+000
 1.8049691289e+000	 1.7397347665e-001	 2.9175042246e+000
 1.8031773711e+000	 1.9165537755e-001	 2.9016412335e+000
 1.8012052707e+000	 2.0938019632e-001	 2.8812811436e+000
 1.7990512748e+000	 2.2714548059e-001	 2.8567197911e+000
 1.7967138687e+000	 2.4494873088e-001	 2.8282176909e+000
 1.7941915779e+000	 2.6278740121e-001	 2.7959931155e+000
 1.7914829690e+000	 2.8065889967e-001	 2.7602151108e+000
 1.7885866514e+000	 2.9856058912e-001	 2.7209965521e+000
 1.7855012787e+000	 3.1648978791e-001	 2.6783873548e+000
 1.7822255506e+000	 3.3444377062e-001	 2.6323679559e+000
 1.7787582135e+000	 3.5241976890e-001	 2.5828431958e+000
 1.8116053741e+000	 1.7461311676e-001	 2.9069019143e+000
 1.8098070287e+000	 1.9236002788e-001	 2.8913036501e+000
 1.8078276776e+000	 2.1015001466e-001	 2.8712903899e+000
 1.8056657621e+000	 2.2798061572e-001	 2.8471333337e+000
 1.8033197623e+000	 2.4584932238e-001	 2.8190686300e+000
 1.8007881979e+000	 2.6375357931e-001	 2.7872901569e+000
 1.7980696303e+000	 2.8169078507e-001	 2.7519422269e+000
 1.7951626639e+000	 2.9965829283e-001	 2.7131123226e+000
 1.7920659475e+000	 3.1765341106e-001	 2.6708239790e+000
 1.7887781756e+000	 3.3567340433e-001	 2.6250299342e+000
 1.7852980904e+000	 3.5371549412e-001	 2.5756056769e+000
 1.8182416194e+000	 1.7525275688e-001	 2.8964149163e+000
 1.8164366863e+000	 1.9306467821e-001	 2.8810714994e+000
 1.8144500845e+000	 2.1091983300e-001	 2.8614011148e+000
 1.8122802495e+000	 2.2881575084e-001	 2.8376494493e+000
 1.8099256558e+000	 2.4674991388e-001	 2.8100274562e+000
 1.8073848178e+000	 2.6471975741e-001	 2.7787038318e+000
 1.8046562917e+000	 2.8272267047e-001	 2.7437974032e+000
 1.8017386765e+000	 3.0075599653e-001	 2.7053695364e+000
 1.7986306162e+000	 3.1881703421e-001	 2.6634166843e+000
 1.7953308006e+000	 3.3690303805e-001	 2.6178631973e+000
 1.7918379672e+000	 3.5501121934e-001	 2.5685545308e+000
 1.8248778647e+000	 1.7589239699e-001	 2.8860272168e+000
 1.8230663439e+000	 1.9376932854e-001	 2.8709255955e+000
 1.8210724913e+000	 2.1168965134e-001	 2.8515908193e+000
 1.8188947369e+000	 2.2965088597e-001	 2.8282422442e+000
 1.8165315494e+000	 2.4765050538e-001	 2.8010648594e+000
 1.8139814378e+000	 2.6568593551e-001	 2.7702014535e+000
 1.8112429530e+000	 2.8375455587e-001	 2.7357446779e+000
 1.8083146891e+000	 3.0185370023e-001	 2.6977291214e+000
 1.8051952849e+000	 3.1998065735e-001	 2.6561235148e+000
 1.8018834256e+000	 3.3813267176e-001	 2.6108231959e+000
 1.7983778440e+000	 3.5630694456e-001	 2.5616429677e+000
 1.8315141099e+000	 1.7653203710e-001	 2.8757232637e+000
 1.8296960015e+000	 1.9447397886e-001	 2.8608472756e+000
 1.8276948982e+000	 2.1245946968e-001	 2.8418375812e+000
 1.8255092243e+000	 2.3048602109e-001	 2.8188864471e+000
 1.8231374429e+000	 2.4855109688e-001	 2.7921521902e+000
 1.8205780578e+000	 2.6665211362e-001	 2.7617510267e+000
 1.8178296144e+000	 2.8478644127e-001	 2.7277488045e+000
 1.8148907017e+000	 3.0295140394e-001	 2.6901527366e+000
 1.8117599537e+000	 3.2114428050e-001	 2.6489032557e+000
 1.8084360507e+000	 3.3936230547e-001	 2.6038661247e+000
 1.8049177208e+000	 3.5760266978e-001	 2.5548249387e+000
 1.8381503552e+000	 1.7717167722e-001	 2.8654879621e+000
 1.8363256591e+000	 1.9517862919e-001	 2.8508183945e+000
 1.8343173051e+000	 2.1322928802e-001	 2.8321200481e+000
 1.8321237116e+000	 2.3132115622e-001	 2.8095574013e+000
 1.8297433364e+000	 2.4945168838e-001	 2.7832614508e+000
 1.8271746777e+000	 2.6761829172e-001	 2.7533212372e+000
 1.8244162757e+000	 2.8581832668e-001	 2.7197752398e+000
 1.8214667143e+000	 3.0404910764e-001	 2.6826027602e+000
 1.8183246224e+000	 3.2230790365e-001	 2.6417154201e+000
 1.8149886757e+000	 3.4059193919e-001	 2.5969489087e+000
 1.8114575977e+000	 3.5889839500e-001	 2.5480551208e+000
 1.8447866005e+000	 1.7781131733e-001	 2.8553066706e+000
 1.8429553167e+000	 1.9588327952e-001	 2.8408213193e+000
 1.8409397119e+000	 2.1399910635e-001	 2.8224174312e+000
 1.8387381990e+000	 2.3215629134e-001	 2.8002310567e+000
 1.8363492300e+000	 2.5035227988e-001	 2.7743652857e+000
 1.8337712977e+000	 2.6858446982e-001	 2.7448814419e+000
 1.8310029370e+000	 2.8685021208e-001	 2.7117901328e+000
 1.8280427269e+000	 3.0514681134e-001	 2.6750422768e+000
 1.8248892912e+000	 3.2347152680e-001	 2.6345202353e+000
 1.8215413007e+000	 3.4182157290e-001	 2.5900291887e+000
 1.8179974745e+000	 3.6019412023e-001	 2.5412889024e+000
 1.8514228458e+000	 1.7845095745e-001	 2.8451651976e+000
 1.8495849743e+000	 1.9658792985e-001	 2.8308389245e+000
 1.8475621188e+000	 2.1476892469e-001	 2.8127094983e+000
 1.8453526864e+000	 2.3299142647e-001	 2.7908839621e+000
 1.8429551235e+000	 2.5125287139e-001	 2.7654369726e+000
 1.8403679176e+000	 2.6955064792e-001	 2.7364016576e+000
 1.8375895984e+000	 2.8788209748e-001	 2.7037603132e+000
 1.8346187395e+000	 3.0624451505e-001	 2.6674350655e+000
 1.8314539599e+000	 3.2463514994e-001	 2.6272786299e+000
 1.8280939257e+000	 3.4305120661e-001	 2.5830653074e+000
 1.8245373513e+000	 3.6148984545e-001	 2.5344823687e+000
 1.8580590910e+000	 1.7909059756e-001	 2.8350497972e+000
 1.8562146319e+000	 1.9729258018e-001	 2.8208545863e+000
 1.8541845257e+000	 2.1553874303e-001	 2.8029765677e+000
 1.8519671738e+000	 2.3382656160e-001	 2.7814932570e+000
 1.8495610171e+000	 2.5215346289e-001	 2.7564504135e+000
 1.8469645376e+000	 2.7051682603e-001	 2.7278525521e+000
 1.8441762597e+000	 2.8891398288e-001	 2.6956532803e+000
 1.8411947520e+000	 3.0734221875e-001	 2.6597455873e+000
 1.8380186287e+000	 3.2579877309e-001	 2.6199522210e+000
 1.8346465508e+000	 3.4428084032e-001	 2.5760162960e+000
 1.8310772282e+000	 3.6278557067e-001	 2.5275922873e+000
 1.7656784599e+000	 3.4982831845e-001	 2.5980683076e+000
 1.7620446643e+000	 3.6769387793e-001	 2.5463344017e+000
 1.7582182705e+000	 3.8557567101e-001	 2.4935815748e+000
 1.7541981846e+000	 4.0347082167e-001	 2.4394048610e+000
 1.7499833653e+000	 4.2137641493e-001	 2.3833199952e+000
 1.7455728252e+000	 4.3928949790e-001	 2.3247624914e+000
 1.7409656323e+000	 4.5720708096e-001	 2.2630879224e+000
 1.7361609110e+000	 4.7512613887e-001	 2.1975735371e+000
 1.7311578440e+000	 4.9304361203e-001	 2.1274213528e+000
 1.7259556728e+000	 5.1095640776e-001	 2.0517628535e+000
 1.7205536997e+000	 5.2886140161e-001	 1.9696654231e+000
 1.7722183367e+000	 3.5112404367e-001	 2.5903146336e+000
 1.7685710820e+000	 3.6905577520e-001	 2.5385476064e+000
 1.7647305157e+000	 3.8700380046e-001	 2.4857299410e+000
 1.7606955398e+000	 4.0496523277e-001	 2.4314828643e+000
 1.7564651093e+000	 4.2293714635e-001	 2.3753454716e+000
 1.7520382330e+000	 4.4091657739e-001	 2.3167734336e+000
 1.7474139755e+000	 4.5890052519e-001	 2.2551389235e+000
 1.7425914581e+000	 4.7688595330e-001	 2.1897319047e+000
 1.7375698603e+000	 4.9486979079e-001	 2.1197629195e+000
 1.7323484209e+000	 5.1284893352e-001	 2.0443675139e+000
 1.7269264394e+000	 5.3082024548e-001	 1.9626124328e+000
 1.7787582135e+000	 3.5241976890e-001	 2.5828431958e+000
 1.7750974996e+000	 3.7041767247e-001	 2.5310588652e+000
 1.7712427608e+000	 3.8843192990e-001	 2.4781865869e+000
 1.7671928950e+000	 4.0645964386e-001	 2.4238745189e+000
 1.7629468532e+000	 4.2449787777e-001	 2.3676857839e+000
 1.7585036408e+000	 4.4254365688e-001	 2.3090967945e+000
 1.7538623188e+000	 4.6059396942e-001	 2.2474968170e+000
 1.7490220052e+000	 4.7864576772e-001	 2.1821889186e+000
 1.7439818766e+000	 4.9669596954e-001	 2.1123924419e+000
 1.7387411689e+000	 5.1474145928e-001	 2.0372471474e+000
 1.7332991791e+000	 5.3277908934e-001	 1.9558191607e+000
 1.7852980904e+000	 3.5371549412e-001	 2.5756056769e+000
 1.7816239173e+000	 3.7177956974e-001	 2.5238177801e+000
 1.7777550059e+000	 3.8986005934e-001	 2.4708989658e+000
 1.7736902501e+000	 4.0795405495e-001	 2.4165251020e+000
 1.7694285972e+000	 4.2605860919e-001	 2.3602840462e+000
 1.7649690486e+000	 4.4417073638e-001	 2.3016735778e+000
 1.7603106621e+000	 4.6228741364e-001	 2.2401005868e+000
 1.7554525524e+000	 4.8040558215e-001	 2.1748816698e+000
 1.7503938929e+000	 4.9852214830e-001	 2.1052452804e+000
 1.7451339169e+000	 5.1663398504e-001	 2.0303355787e+000
 1.7396719189e+000	 5.3473793321e-001	 1.9492181215e+000
 1.7918379672e+000	 3.5501121934e-001	 2.5685545308e+000
 1.7881503349e+000	 3.7314146701e-001	 2.5167747204e+000
 1.7842672510e+000	 3.9128818879e-001	 2.4638152953e+000
 1.7801876053e+000	 4.0944846605e-001	 2.4093806547e+000
 1.7759103411e+000	 4.2761934061e-001	 2.3530841396e+000
 1.7714344564e+000	 4.4579781587e-001	 2.2944455601e+000
 1.7667590053e+000	 4.6398085787e-001	 2.2328899994e+000
 1.7618830995e+000	 4.8216539658e-001	 2.1677480463e+000
 1.7568059092e+000	 5.0034832706e-001	 2.0982576111e+000
 1.7515266650e+000	 5.1852651080e-001	 2.0235674720e+000
 1.7460446586e+000	 5.3669677708e-001	 1.9427426990e+000
 1.7983778440e+000	 3.5630694456e-001	 2.5616429677e+000
 1.7946767526e+000	 3.7450336428e-001	 2.5098808061e+000
 1.7907794961e+000	 3.9271631823e-001	 2.4568845411e+000
 1.7866849605e+000	 4.1094287714e-001	 2.4023879658e+000
 1.7823920850e+000	 4.2918007203e-001	 2.3460306945e+000
 1.7778998642e+000	 4.4742489536e-001	 2.2873552733e+000
 1.7732073486e+000	 4.6567430210e-001	 2.2258055862e+000
 1.7683136466e+000	 4.8392521100e-001	 2.1607267146e+000
 1.7632179255e+000	 5.0217450581e-001	 2.0913664069e+000
 1.7579194130e+000	 5.2041903657e-001	 2.0168783117e+000
 1.7524173983e+000	 5.3865562095e-001	 1.9363271255e+000
 1.8049177208e+000	 3.5760266978e-001	 2.5548249387e+000
 1.8012031702e+000	 3.7586526155e-001	 2.5030878925e+000
 1.7972917412e+000	 3.9414444767e-001	 2.4500564002e+000
 1.7931823156e+000	 4.1243728823e-001	 2.3954945542e+000
 1.7888738290e+000	 4.3074080346e-001	 2.3390690737e+000
 1.7843652720e+000	 4.4905197485e-001	 2.2803459862e+000
 1.7796556918e+000	 4.6736774632e-001	 2.2187886245e+000
 1.7747441937e+000	 4.8568502543e-001	 2.1537571003e+000
 1.7696299418e+000	 5.0400068457e-001	 2.0845094178e+000
 1.7643121611e+000	 5.2231156233e-001	 2.0102043825e+000
 1.7587901381e+000	 5.4061446482e-001	 1.9299064622e+000
 1.8114575977e+000	 3.5889839500e-001	 2.5480551208e+000
 1.8077295879e+000	 3.7722715882e-001	 2.4963485551e+000
 1.8038039863e+000	 3.9557257712e-001	 2.4432812854e+000
 1.7996796708e+000	 4.1393169933e-001	 2.3886486526e+000
 1.7953555729e+000	 4.3230153488e-001	 2.3321453547e+000
 1.7908306798e+000	 4.5067905434e-001	 2.2733616874e+000
 1.7861040351e+000	 4.6906119055e-001	 2.2117811194e+000
 1.7811747408e+000	 4.8744483986e-001	 2.1467793697e+000
 1.7760419581e+000	 5.0582686332e-001	 2.0776251519e+000
 1.7707049091e+000	 5.2420408809e-001	 2.0034827494e+000
 1.7651628778e+000	 5.4257330869e-001	 1.9234165790e+000
 1.8179974745e+000	 3.6019412023e-001	 2.5412889024e+000
 1.8142560055e+000	 3.7858905608e-001	 2.4896160736e+000
 1.8103162315e+000	 3.9700070656e-001	 2.4365103092e+000
 1.8061770260e+000	 4.1542611042e-001	 2.3817991912e+000
 1.8018373169e+000	 4.3386226630e-001	 2.3252063131e+000
 1.7972960875e+000	 4.5230613383e-001	 2.2663470672e+000
 1.7925523783e+000	 4.7075463478e-001	 2.2047257862e+000
 1.7876052879e+000	 4.8920465428e-001	 2.1397344112e+000
 1.7824539744e+000	 5.0765304208e-001	 2.0706528567e+000
 1.7770976571e+000	 5.2609661385e-001	 1.9966512394e+000
 1.7715356175e+000	 5.4453215256e-001	 1.9167941351e+000
 1.8245373513e+000	 3.6148984545e-001	 2.5344823687e+000
 1.8207824232e+000	 3.7995095335e-001	 2.4828444174e+000
 1.8168284766e+000	 3.9842883601e-001	 2.4296952682e+000
 1.8126743811e+000	 4.1692052151e-001	 2.3748957813e+000
 1.8083190608e+000	 4.3542299772e-001	 2.3181994057e+000
 1.8037614953e+000	 4.5393321332e-001	 2.2592475010e+000
 1.7990007216e+000	 4.7244807901e-001	 2.1975660324e+000
 1.7940358350e+000	 4.9096446871e-001	 2.1325638176e+000
 1.7888659907e+000	 5.0947922084e-001	 2.0635325003e+000
 1.7834904052e+000	 5.2798913961e-001	 1.9896484216e+000
 1.7779083572e+000	 5.4649099642e-001	 1.9099765597e+000
 1.8310772282e+000	 3.6278557067e-001	 2.5275922873e+000
 1.8273088409e+000	 3.8131285062e-001	 2.4759882302e+000
 1.8233407217e+000	 3.9985696545e-001	 2.4227886278e+000
 1.8191717363e+000	 4.1841493261e-001	 2.3678886995e+000
 1.8148008047e+000	 4.3698372914e-001	 2.3110727542e+000
 1.8102269031e+000	 4.5556029281e-001	 2.2520090318e+000
 1.8054490649e+000	 4.7414152323e-001	 2.1902459401e+000
 1.8004663821e+000	 4.9272428313e-001	 2.1252098675e+000
 1.7952780070e+000	 5.1130539959e-001	 2.0562047530e+000
 1.7898831532e+000	 5.2988166537e-001	 1.9824135891e+000
 1.7842810970e+000	 5.4844984029e-001	 1.9029020327e+000
 1.7205536997e+000	 5.2886140161e-001	 1.9696654231e+000
 1.7149512879e+000	 5.4675543847e-001	 1.8817351313e+000
 1.7091478619e+000	 5.6463533321e-001	 1.7893007022e+000
 1.7031429098e+000	 5.8249787284e-001	 1.6924424503e+000
 1.6969359845e+000	 6.0033981835e-001	 1.5912140155e+000
 1.6905267052e+000	 6.1815790620e-001	 1.4856571585e+000
 1.6839147584e+000	 6.3594884997e-001	 1.3758188730e+000
 1.6770998984e+000	 6.5370934202e-001	 1.2617708787e+000
 1.6700819490e+000	 6.7143605513e-001	 1.1440788384e+000
 1.6628608034e+000	 6.8912564428e-001	 1.0323514815e+000
 1.6554364262e+000	 7.0677474842e-001	 9.3261835141e-001
 1.7269264394e+000	 5.3082024548e-001	 1.9626124328e+000
 1.7213032769e+000	 5.4878055986e-001	 1.8750299956e+000
 1.7154783557e+000	 5.6672667974e-001	 1.7828458075e+000
 1.7094511619e+000	 5.8465538024e-001	 1.6860876867e+000
 1.7032212468e+000	 6.0256341033e-001	 1.5847512350e+000
 1.6967882283e+000	 6.2044749440e-001	 1.4788146740e+000
 1.6901517915e+000	 6.3830433385e-001	 1.3682560569e+000
 1.6833116901e+000	 6.5613060878e-001	 1.2530729207e+000
 1.6762677469e+000	 6.7392297967e-001	 1.1343445144e+000
 1.6690198551e+000	 6.9167808910e-001	 1.0224213716e+000
 1.6615679788e+000	 7.0939256355e-001	 9.2224859110e-001
 1.7332991791e+000	 5.3277908934e-001	 1.9558191607e+000
 1.7276552659e+000	 5.5080568126e-001	 1.8685667359e+000
 1.7218088495e+000	 5.6881802628e-001	 1.7766116336e+000
 1.7157594140e+000	 5.8681288764e-001	 1.6799283893e+000
 1.7095065091e+000	 6.0478700231e-001	 1.5784536617e+000
 1.7030497514e+000	 6.2273708260e-001	 1.4721011067e+000
 1.6963888247e+000	 6.4065981773e-001	 1.3607786857e+000
 1.6895234818e+000	 6.5855187555e-001	 1.2444084764e+000
 1.6824535449e+000	 6.7640990421e-001	 1.1248276811e+000
 1.6751789068e+000	 6.9423053391e-001	 1.0126682530e+000
 1.6676995314e+000	 7.1201037869e-001	 9.1200676038e-001
 1.7396719189e+000	 5.3473793321e-001	 1.9492181215e+000
 1.7340072550e+000	 5.5283080265e-001	 1.8622770017e+000
 1.7281393432e+000	 5.7090937281e-001	 1.7705296300e+000
 1.7220676661e+000	 5.8897039504e-001	 1.6738965010e+000
 1.7157917715e+000	 6.0701059429e-001	 1.5722544507e+000
 1.7093112744e+000	 6.2502667079e-001	 1.4654515642e+000
 1.7026258579e+000	 6.4301530161e-001	 1.3533245782e+000
 1.6957352735e+000	 6.6097314232e-001	 1.2357188494e+000
 1.6886393429e+000	 6.7889682875e-001	 1.1154726175e+000
 1.6813379584e+000	 6.9678297873e-001	 1.0030397685e+000
 1.6738310840e+000	 7.1462819382e-001	 9.0184439665e-001
 1.7460446586e+000	 5.3669677708e-001	 1.9427426990e+000
 1.7403592440e+000	 5.5485592404e-001	 1.8560933439e+000
 1.7344698370e+000	 5.7300071935e-001	 1.7645321799e+000
 1.7283759182e+000	 5.9112790243e-001	 1.6679249317e+000
 1.7220770338e+000	 6.0923418627e-001	 1.5660877577e+000
 1.7155727975e+000	 6.2731625899e-001	 1.4588021894e+000
 1.7088628910e+000	 6.4537078548e-001	 1.3458326245e+000
 1.7019470652e+000	 6.6339440908e-001	 1.2269464512e+000
 1.6948251409e+000	 6.8138375330e-001	 1.1062241393e+000
 1.6874970101e+000	 6.9933542354e-001	 9.9348407856e-001
 1.6799626365e+000	 7.1724600896e-001	 8.9171352866e-001
 1.7524173983e+000	 5.3865562095e-001	 1.9363271255e+000
 1.7467112330e+000	 5.5688104543e-001	 1.8499491937e+000
 1.7408003308e+000	 5.7509206589e-001	 1.7585525797e+000
 1.7346841702e+000	 5.9328540983e-001	 1.6619475372e+000
 1.7283622961e+000	 6.1145777826e-001	 1.5598887186e+000
 1.7218343206e+000	 6.2960584719e-001	 1.4520901405e+000
 1.7150999242e+000	 6.4772626936e-001	 1.3382427659e+000
 1.7081588568e+000	 6.6581567585e-001	 1.2180347822e+000
 1.7010109388e+000	 6.8387067784e-001	 1.0970275897e+000
 1.6936560617e+000	 7.0188786836e-001	 9.8394985367e-001
 1.6860941891e+000	 7.1986382409e-001	 8.8156666944e-001
 1.7587901381e+000	 5.4061446482e-001	 1.9299064622e+000
 1.7530632220e+000	 5.5890616683e-001	 1.8437788429e+000
 1.7471308246e+000	 5.7718341242e-001	 1.7525250182e+000
 1.7409924223e+000	 5.9544291723e-001	 1.6558990993e+000
 1.7346475585e+000	 6.1368137024e-001	 1.5535934293e+000
 1.7280958437e+000	 6.3189543539e-001	 1.4452535712e+000
 1.7213369574e+000	 6.5008175324e-001	 1.3304959763e+000
 1.7143706485e+000	 6.6823694262e-001	 1.2089715464e+000
 1.7071967368e+000	 6.8635760238e-001	 1.0878288322e+000
 1.6998151134e+000	 7.0444031317e-001	 9.7438626678e-001
 1.6922257417e+000	 7.2248163923e-001	 8.7135680933e-001
 1.7651628778e+000	 5.4257330869e-001	 1.9234165790e+000
 1.7594152110e+000	 5.6093128822e-001	 1.8375174232e+000
 1.7534613183e+000	 5.7927475896e-001	 1.7463845565e+000
 1.7473006744e+000	 5.9760042463e-001	 1.6497153051e+000
 1.7409328208e+000	 6.1590496222e-001	 1.5471389254e+000
 1.7343573668e+000	 6.3418502359e-001	 1.4382316109e+000
 1.7275739905e+000	 6.5243723711e-001	 1.3225342423e+000
 1.7205824402e+000	 6.7065820938e-001	 1.1998574102e+000
 1.7133825348e+000	 6.8884452692e-001	 1.0785742425e+000
 1.7059741650e+000	 7.0699275798e-001	 9.6474298596e-001
 1.6983572943e+000	 7.2509945436e-001	 8.6103740933e-001
 1.7715356175e+000	 5.4453215256e-001	 1.9167941351e+000
 1.7657672000e+000	 5.6295640961e-001	 1.8311008868e+000
 1.7597918121e+000	 5.8136610549e-001	 1.7400671082e+000
 1.7536089265e+000	 5.9975793202e-001	 1.6433327274e+000
 1.7472180831e+000	 6.1812855420e-001	 1.5404631633e+000
 1.7406188898e+000	 6.3647461179e-001	 1.4309643455e+000
 1.7338110237e+000	 6.5479272099e-001	 1.3143005451e+000
 1.7267942319e+000	 6.7307947615e-001	 1.1906506579e+000
 1.7195683327e+000	 6.9133145146e-001	 1.0692107005e+000
 1.7121332167e+000	 7.0954520280e-001	 9.5497016734e-001
 1.7044888469e+000	 7.2771726950e-001	 8.5056239458e-001
 1.7779083572e+000	 5.4649099642e-001	 1.9099765597e+000
 1.7721191891e+000	 5.6498153100e-001	 1.8244659865e+000
 1.7661223059e+000	 5.8345745203e-001	 1.7335094194e+000
 1.7599171786e+000	 6.0191543942e-001	 1.6366888051e+000
 1.7535033455e+000	 6.2035214618e-001	 1.5335049996e+000
 1.7468804129e+000	 6.3876419999e-001	 1.4233927983e+000
 1.7400480568e+000	 6.5714820487e-001	 1.3057388415e+000
 1.7330060235e+000	 6.7550074291e-001	 1.1812958971e+000
 1.7257541307e+000	 6.9381837601e-001	 1.0596855836e+000
 1.7182922683e+000	 7.1209764761e-001	 9.4501844823e-001
 1.7106203995e+000	 7.3033508463e-001	 8.3988614800e-001
 1.7842810970e+000	 5.4844984029e-001	 1.9029020327e+000
 1.7784711781e+000	 5.6700665240e-001	 1.8175502566e+000
 1.7724527997e+000	 5.8554879857e-001	 1.7266490496e+000
 1.7662254307e+000	 6.0407294682e-001	 1.6297218235e+000
 1.7597886078e+000	 6.2257573816e-001	 1.5262041731e+000
 1.7531419360e+000	 6.4105378818e-001	 1.4154589109e+000
 1.7462850900e+000	 6.5950368875e-001	 1.2967940454e+000
 1.7392178152e+000	 6.7792200968e-001	 1.1717382337e+000
 1.7319399287e+000	 6.9630530055e-001	 1.0499467593e+000
 1.7244513200e+000	 7.1465009243e-001	 9.3483894041e-001
 1.7167519521e+000	 7.3295289977e-001	 8.2896350424e-001
 1.6554364262e+000	 7.0677474842e-001	 9.3261835141e-001
 1.6478100126e+000	 7.2437735518e-001	 8.3729001644e-001
 1.6399805736e+000	 7.4193272950e-001	 7.3725797236e-001
 1.6319482913e+000	 7.5943747563e-001	 6.3320098129e-001
 1.6237134218e+000	 7.7688818926e-001	 5.2581731179e-001
 1.6152762950e+000	 7.9428145944e-001	 4.1582363014e-001
 1.6066373155e+000	 8.1161387060e-001	 3.0395341976e-001
 1.5977969630e+000	 8.2888200446e-001	 1.9095491169e-001
 1.5887557923e+000	 8.4608244212e-001	 7.7588513593e-002
 1.5795144344e+000	 8.6321176606e-001	-3.5376271157e-002
 1.5700735960e+000	 8.8026656220e-001	-1.4716443759e-001
 1.6615679788e+000	 7.0939256355e-001	 9.2224859110e-001
 1.6539133178e+000	 7.2706036842e-001	 8.2646129504e-001
 1.6460548794e+000	 7.4468076589e-001	 7.2616994291e-001
 1.6379928465e+000	 7.6225034766e-001	 6.2201390648e-001
 1.6297274759e+000	 7.7976569679e-001	 5.1465365127e-001
 1.6212590990e+000	 7.9722338971e-001	 4.0476974532e-001
 1.6125881216e+000	 8.1461999819e-001	 2.9306138202e-001
 1.6037150254e+000	 8.3195209131e-001	 1.8024439933e-001
 1.5946403673e+000	 8.4921623748e-001	 6.7048781938e-002
 1.5853647804e+000	 8.6640900653e-001	-4.5784362459e-002
 1.5758889741e+000	 8.8352697174e-001	-1.5750635666e-001
 1.6676995314e+000	 7.1201037869e-001	 9.1200676038e-001
 1.6600166230e+000	 7.2974338165e-001	 8.1571011367e-001
 1.6521291852e+000	 7.4742880228e-001	 7.1511588883e-001
 1.6440374016e+000	 7.6506321968e-001	 6.1082428823e-001
 1.6357415300e+000	 7.8264320432e-001	 5.0345818309e-001
 1.6272419029e+000	 8.0016531998e-001	 3.9366223998e-001
 1.6185389277e+000	 8.1762612579e-001	 2.8210154733e-001
 1.6096330878e+000	 8.3502217815e-001	 1.6945972316e-001
 1.6005249422e+000	 8.5235003283e-001	 5.6436489989e-002
 1.5912151264e+000	 8.6960624700e-001	-5.6255292365e-002
 1.5817043523e+000	 8.8678738128e-001	-1.6789314068e-001
 1.6738310840e+000	 7.1462819382e-001	 9.0184439665e-001
 1.6661199282e+000	 7.3242639489e-001	 8.0499201251e-001
 1.6582034910e+000	 7.5017683867e-001	 7.0405502942e-001
 1.6500819568e+000	 7.6787609171e-001	 5.9959468400e-001
 1.6417555841e+000	 7.8552071185e-001	 4.9219644550e-001
 1.6332247068e+000	 8.0310725025e-001	 3.8246926066e-001
 1.6244897338e+000	 8.2063225338e-001	 2.7104428394e-001
 1.6155511502e+000	 8.3809226499e-001	 1.5857307364e-001
 1.6064095171e+000	 8.5548382818e-001	 4.5725239283e-002
 1.5970654723e+000	 8.7280348746e-001	-6.6814469878e-002
 1.5875197304e+000	 8.9004779081e-001	-1.7834964005e-001
 1.6799626365e+000	 7.1724600896e-001	 8.9171352866e-001
 1.6722232334e+000	 7.3510940812e-001	 7.9426299483e-001
 1.6642777969e+000	 7.5292487506e-001	 6.9294702310e-001
 1.6561265119e+000	 7.7068896373e-001	 5.8828807052e-001
 1.6477696382e+000	 7.8839821937e-001	 4.8083438055e-001
 1.6392075107e+000	 8.0604918052e-001	 3.7115934656e-001
 1.6304405400e+000	 8.2363838098e-001	 2.5986034599e-001
 1.6214692126e+000	 8.4116235184e-001	 1.4755702490e-001
 1.6122940921e+000	 8.5861762354e-001	 3.4889017349e-002
 1.6029158183e+000	 8.7600072793e-001	-7.7486911022e-002
 1.5933351085e+000	 8.9330820035e-001	-1.8890030041e-001
 1.6860941891e+000	 7.1986382409e-001	 8.8156666944e-001
 1.6783265386e+000	 7.3779242135e-001	 7.8347952059e-001
 1.6703521027e+000	 7.5567291145e-001	 6.8175196135e-001
 1.6621710671e+000	 7.7350183576e-001	 5.7686783821e-001
 1.6537836923e+000	 7.9127572690e-001	 4.6933832873e-001
 1.6451903146e+000	 8.0899111079e-001	 3.5970142426e-001
 1.6363913461e+000	 8.2664450857e-001	 2.4852086831e-001
 1.6273872751e+000	 8.4423243868e-001	 1.3638452939e-001
 1.6181786670e+000	 8.6175141889e-001	 2.3902192088e-002
 1.6087661643e+000	 8.7919796839e-001	-8.8297244860e-002
 1.5991504867e+000	 8.9656860989e-001	-1.9956916926e-001
 1.6922257417e+000	 7.2248163923e-001	 8.7135680933e-001
 1.6844298438e+000	 7.4047543459e-001	 7.7259850005e-001
 1.6764264085e+000	 7.5842094784e-001	 6.7043036298e-001
 1.6682156222e+000	 7.7631470778e-001	 5.6529778576e-001
 1.6597977464e+000	 7.9415323443e-001	 4.5767502379e-001
 1.6511731186e+000	 8.1193304106e-001	 3.4806480272e-001
 1.6423421522e+000	 8.2965063617e-001	 2.3699736133e-001
 1.6333053375e+000	 8.4730252552e-001	 1.2502891263e-001
 1.6240632419e+000	 8.6488521424e-001	 1.2739506291e-002
 1.6146165102e+000	 8.8239520886e-001	-9.9269719367e-002
 1.6049658648e+000	 8.9982901942e-001	-2.1037990229e-001
 1.6983572943e+000	 7.2509945436e-001	 8.6103740933e-001
 1.6905331490e+000	 7.4315844782e-001	 7.6157728772e-001
 1.6825007143e+000	 7.6116898423e-001	 6.5894316845e-001
 1.6742601773e+000	 7.7912757980e-001	 5.5354211481e-001
 1.6658118005e+000	 7.9703074196e-001	 4.4581158766e-001
 1.6571559225e+000	 8.1487497133e-001	 3.3621916830e-001
 1.6482929583e+000	 8.3265676376e-001	 2.2526170616e-001
 1.6392233999e+000	 8.5037261237e-001	 1.1346386815e-001
 1.6299478168e+000	 8.6801900960e-001	 1.3760722913e-003
 1.6204668562e+000	 8.8559244933e-001	-1.1042820717e-001
 1.6107812430e+000	 9.0308942896e-001	-2.2135576971e-001
 1.7044888469e+000	 7.2771726950e-001	 8.5056239458e-001
 1.6966364542e+000	 7.4584146106e-001	 7.5037367639e-001
 1.6885750202e+000	 7.6391702062e-001	 6.4725173440e-001
 1.6803047325e+000	 7.8194045183e-001	 5.4156542485e-001
 1.6718258546e+000	 7.9990824949e-001	 4.3371552558e-001
 1.6631387264e+000	 8.1781690160e-001	 3.2413457997e-001
 1.6542437644e+000	 8.3566289135e-001	 2.1328614971e-001
 1.6451414623e+000	 8.5344269921e-001	 1.0166345256e-001
 1.6358323918e+000	 8.7115280495e-001	-1.0212633250e-002
 1.6263172022e+000	 8.8878968979e-001	-1.2179621117e-001
 1.6165966211e+000	 9.0634983850e-001	-2.3251966235e-001
 1.7106203995e+000	 7.3033508463e-001	 8.3988614800e-001
 1.7027397594e+000	 7.4852447429e-001	 7.3894589140e-001
 1.6946493260e+000	 7.6666505701e-001	 6.3531782836e-001
 1.6863492876e+000	 7.8475332385e-001	 5.2933270823e-001
 1.6778399087e+000	 8.0278575702e-001	 4.2135472134e-001
 1.6691215303e+000	 8.2075883187e-001	 3.1178146466e-001
 1.6601945705e+000	 8.3866901895e-001	 2.0104330009e-001
 1.6510595247e+000	 8.5651278605e-001	 8.9602080672e-002
 1.6417169667e+000	 8.7428660031e-001	-2.2050774434e-002
 1.6321675481e+000	 8.9198693026e-001	-1.3339687000e-001
 1.6224119993e+000	 9.0961024803e-001	-2.4389409762e-001
 1.7167519521e+000	 7.3295289977e-001	 8.2896350424e-001
 1.7088430646e+000	 7.5120748753e-001	 7.2725258507e-001
 1.7007236318e+000	 7.6941309341e-001	 6.2310362360e-001
 1.6923938428e+000	 7.8756619588e-001	 5.1680934536e-001
 1.6838539628e+000	 8.0566326455e-001	 4.0869743265e-001
 1.6751043343e+000	 8.2370076214e-001	 2.9913061275e-001
 1.6661453766e+000	 8.4167514655e-001	 1.8850612203e-001
 1.6569775872e+000	 8.5958287290e-001	 7.7254520867e-002
 1.6476015416e+000	 8.7742039566e-001	-3.4162161084e-002
 1.6380178941e+000	 8.9518417073e-001	-1.4525296337e-001
 1.6282273774e+000	 9.1287065757e-001	-2.5550122542e-001
 1.5700735960e+000	 8.8026656220e-001	-1.4716443759e-001
 1.5604325990e+000	 8.9724596292e-001	-2.5693685072e-001
 1.5505937056e+000	 9.1414400240e-001	-3.6406926011e-001
 1.5405578528e+000	 9.3095728891e-001	-4.6814910106e-001
 1.5303260540e+000	 9.4768244255e-001	-5.6875684386e-001
 1.5198993990e+000	 9.6431609742e-001	-6.6547118944e-001
 1.5092790533e+000	 9.8085490370e-001	-7.5787472145e-001
 1.4984662587e+000	 9.9729552980e-001	-8.4555998384e-001
 1.4874623321e+000	 1.0136346645e+000	-9.2813623726e-001
 1.4762686658e+000	 1.0298690189e+000	-1.0052350128e+000
 1.4648867267e+000	 1.0459953290e+000	-1.0765193059e+000
 1.5758889741e+000	 8.8352697174e-001	-1.5750635666e-001
 1.5662122680e+000	 9.0056926227e-001	-2.6721871157e-001
 1.5563369324e+000	 9.1752989022e-001	-3.7422532097e-001
 1.5462639079e+000	 9.3440545127e-001	-4.7811955793e-001
 1.5359942117e+000	 9.5119255302e-001	-5.7848781090e-001
 1.5255289375e+000	 9.6788781710e-001	-6.7491476483e-001
 1.5148692553e+000	 9.8448788128e-001	-7.6698915202e-001
 1.5040164112e+000	 1.0009894016e+000	-8.5430994122e-001
 1.4929717273e+000	 1.0173890546e+000	-9.3649316954e-001
 1.4817366009e+000	 1.0336835393e+000	-1.0131778311e+000
 1.4703125043e+000	 1.0498695794e+000	-1.0840349007e+000
 1.5817043523e+000	 8.8678738128e-001	-1.6789314068e-001
 1.5719919370e+000	 9.0389256162e-001	-2.7752678507e-001
 1.5620801592e+000	 9.2091577803e-001	-3.8439490808e-001
 1.5519699630e+000	 9.3785361363e-001	-4.8809526143e-001
 1.5416623693e+000	 9.5470266349e-001	-5.8821855142e-001
 1.5311584759e+000	 9.7145953678e-001	-6.8435381017e-001
 1.5204594572e+000	 9.8812085886e-001	-7.7609425035e-001
 1.5095665638e+000	 1.0046832735e+000	-8.6304357117e-001
 1.4984811226e+000	 1.0211434448e+000	-9.4482287513e-001
 1.4872045360e+000	 1.0374980598e+000	-1.0210768837e+000
 1.4757382820e+000	 1.0537438299e+000	-1.0914828185e+000
 1.5875197304e+000	 8.9004779081e-001	-1.7834964005e-001
 1.5777716059e+000	 9.0721586097e-001	-2.8788555025e-001
 1.5678233860e+000	 9.2430166584e-001	-3.9460208166e-001
 1.5576760181e+000	 9.4130177598e-001	-4.9809982658e-001
 1.5473305270e+000	 9.5821277396e-001	-5.9797222908e-001
 1.5367880144e+000	 9.7503125645e-001	-6.9381105122e-001
 1.5260496591e+000	 9.9175383643e-001	-7.8521233665e-001
 1.5151167163e+000	 1.0083771453e+000	-8.7178283900e-001
 1.5039905178e+000	 1.0248978350e+000	-9.5314703258e-001
 1.4926724711e+000	 1.0413125802e+000	-1.0289536478e+000
 1.4811640597e+000	 1.0576180804e+000	-1.0988844371e+000
 1.5933351085e+000	 8.9330820035e-001	-1.8890030041e-001
 1.5835512749e+000	 9.1053916032e-001	-2.9831906846e-001
 1.5735666128e+000	 9.2768755365e-001	-4.0487047361e-001
 1.5633820732e+000	 9.4474993834e-001	-5.0815643123e-001
 1.5529986847e+000	 9.6172288443e-001	-6.0777156310e-001
 1.5424175529e+000	 9.7860297613e-001	-7.0330876315e-001
 1.5316398610e+000	 9.9538681401e-001	-7.9436527518e-001
 1.5206668688e+000	 1.0120710171e+000	-8.8054946827e-001
 1.5094999130e+000	 1.0286522252e+000	-9.6148685453e-001
 1.4981404063e+000	 1.0451271006e+000	-1.0368291293e+000
 1.4865898373e+000	 1.0614923309e+000	-1.1062606565e+000
 1.5991504867e+000	 8.9656860989e-001	-1.9956916926e-001
 1.5893309439e+000	 9.1386245967e-001	-3.0885099054e-001
 1.5793098396e+000	 9.3107344146e-001	-4.1522329520e-001
 1.5690881284e+000	 9.4819810070e-001	-5.1828782443e-001
 1.5586668424e+000	 9.6523299489e-001	-6.1763883720e-001
 1.5480470914e+000	 9.8217469581e-001	-7.1286878017e-001
 1.5372300629e+000	 9.9901979159e-001	-8.0357448457e-001
 1.5262170214e+000	 1.0157648890e+000	-8.8936403122e-001
 1.5150093082e+000	 1.0324066153e+000	-9.6986309945e-001
 1.5036083414e+000	 1.0489416210e+000	-1.0447238753e+000
 1.4920156150e+000	 1.0653665813e+000	-1.1136319128e+000
 1.6049658648e+000	 8.9982901942e-001	-2.1037990229e-001
 1.5951106128e+000	 9.1718575902e-001	-3.1950456384e-001
 1.5850530664e+000	 9.3445932927e-001	-4.2568334467e-001
 1.5747941835e+000	 9.5164626305e-001	-5.2851633462e-001
 1.5643350000e+000	 9.6874310536e-001	-6.2759590848e-001
 1.5536766299e+000	 9.8574641548e-001	-7.2251250499e-001
 1.5428202648e+000	 1.0026527692e+000	-8.1286094797e-001
 1.5317671739e+000	 1.0194587608e+000	-8.9824740958e-001
 1.5205187034e+000	 1.0361610055e+000	-9.7829608325e-001
 1.5090762765e+000	 1.0527561414e+000	-1.0526579864e+000
 1.4974413927e+000	 1.0692408318e+000	-1.1210181905e+000
 1.6107812430e+000	 9.0308942896e-001	-2.2135576971e-001
 1.6008902818e+000	 9.2050905837e-001	-3.3030263904e-001
 1.5907962932e+000	 9.3784521708e-001	-4.3627301474e-001
 1.5805002386e+000	 9.5509442541e-001	-5.3886387767e-001
 1.5700031577e+000	 9.7225321583e-001	-6.3766421606e-001
 1.5593061684e+000	 9.8931813516e-001	-7.3226091819e-001
 1.5484104668e+000	 1.0062857467e+000	-8.2224522299e-001
 1.5373173264e+000	 1.0231526326e+000	-9.0721979021e-001
 1.5260280986e+000	 1.0399153957e+000	-9.8680569060e-001
 1.5145442116e+000	 1.0565706618e+000	-1.0606511290e+000
 1.5028671704e+000	 1.0731150823e+000	-1.1284390363e+000
 1.6165966211e+000	 9.0634983850e-001	-2.3251966235e-001
 1.6066699508e+000	 9.2383235772e-001	-3.4126767688e-001
 1.5965395200e+000	 9.4123110489e-001	-4.4701429984e-001
 1.5862062937e+000	 9.5854258776e-001	-5.4935196482e-001
 1.5756713154e+000	 9.7576332629e-001	-6.4786478961e-001
 1.5649357069e+000	 9.9288985484e-001	-7.4213458730e-001
 1.5540006687e+000	 1.0099187243e+000	-8.3174745152e-001
 1.5428674789e+000	 1.0268465044e+000	-9.1630094206e-001
 1.5315374938e+000	 1.0436697858e+000	-9.9541138613e-001
 1.5200121467e+000	 1.0603851822e+000	-1.0687225469e+000
 1.5082929480e+000	 1.0769893328e+000	-1.1359135711e+000
 1.6224119993e+000	 9.0961024803e-001	-2.4389409762e-001
 1.6124496197e+000	 9.2715565707e-001	-3.5242175470e-001
 1.6022827468e+000	 9.4461699271e-001	-4.5792880329e-001
 1.5919123488e+000	 9.6199075012e-001	-5.6000171040e-001
 1.5813394730e+000	 9.7927343676e-001	-6.5821825769e-001
 1.5705652454e+000	 9.9646157451e-001	-7.5215367579e-001
 1.5595908706e+000	 1.0135517019e+000	-8.4138749221e-001
 1.5484176315e+000	 1.0305403763e+000	-9.2551022648e-001
 1.5370468890e+000	 1.0474241760e+000	-1.0041322255e+000
 1.5254800818e+000	 1.0641997027e+000	-1.0768910732e+000
 1.5137187257e+000	 1.0808635832e+000	-1.1434605028e+000
 1.6282273774e+000	 9.1287065757e-001	-2.5550122542e-001
 1.6182292887e+000	 9.3047895642e-001	-3.6378657293e-001
 1.6080259736e+000	 9.4800288052e-001	-4.6903774433e-001
 1.5976184039e+000	 9.6543891248e-001	-5.7083383942e-001
 1.5870076307e+000	 9.8278354723e-001	-6.6874485598e-001
 1.5761947839e+000	 1.0000332942e+000	-7.6233795198e-001
 1.5651810725e+000	 1.0171846795e+000	-8.5118440074e-001
 1.5539677840e+000	 1.0342342481e+000	-9.3486660734e-001
 1.5425562842e+000	 1.0511785662e+000	-1.0129868661e+000
 1.5309480169e+000	 1.0680142231e+000	-1.0851751421e+000
 1.5191445034e+000	 1.0847378337e+000	-1.1510981389e+000
 1.4648867267e+000	 1.0459953290e+000	-1.0765193059e+000
 1.4533180553e+000	 1.0620103567e+000	-1.1442428092e+000
 1.4415642644e+000	 1.0779108915e+000	-1.2106194980e+000
 1.4296270391e+000	 1.0936937532e+000	-1.2753222362e+000
 1.4175081369e+000	 1.1093557947e+000	-1.3380872832e+000
 1.4052093865e+000	 1.1248939033e+000	-1.3987223660e+000
 1.3927326875e+000	 1.1403050036e+000	-1.4571146893e+000
 1.3800800090e+000	 1.1555860590e+000	-1.5132388137e+000
 1.3672533887e+000	 1.1707340736e+000	-1.5671643310e+000
 1.3542549321e+000	 1.1857460943e+000	-1.6190632629e+000
 1.3410868110e+000	 1.2006192129e+000	-1.6692171113e+000
 1.4703125043e+000	 1.0498695794e+000	-1.0840349007e+000
 1.4587009839e+000	 1.0659439250e+000	-1.1513350529e+000
 1.4469036583e+000	 1.0819033536e+000	-1.2172758190e+000
 1.4349222188e+000	 1.0977446734e+000	-1.2814883284e+000
 1.4227584295e+000	 1.1134647253e+000	-1.3436670047e+000
 1.4104141259e+000	 1.1290603853e+000	-1.4035779049e+000
 1.3978912146e+000	 1.1445285667e+000	-1.4610670027e+000
 1.3851916720e+000	 1.1598662214e+000	-1.5160683419e+000
 1.3723175433e+000	 1.1750703425e+000	-1.5686119895e+000
 1.3592709419e+000	 1.1901379661e+000	-1.6188317106e+000
 1.3460540475e+000	 1.2050661731e+000	-1.6669722935e+000
 1.4757382820e+000	 1.0537438299e+000	-1.0914828185e+000
 1.4640839125e+000	 1.0698774934e+000	-1.1583223834e+000
 1.4522430521e+000	 1.0858958158e+000	-1.2237761354e+000
 1.4402173985e+000	 1.1017955935e+000	-1.2874398408e+000
 1.4280087221e+000	 1.1175736559e+000	-1.3489724196e+000
 1.4156188653e+000	 1.1332268674e+000	-1.4081045458e+000
 1.4030497417e+000	 1.1487521297e+000	-1.4646471956e+000
 1.3903033350e+000	 1.1641463837e+000	-1.5185000706e+000
 1.3773816980e+000	 1.1794066114e+000	-1.5696598209e+000
 1.3642869517e+000	 1.1945298379e+000	-1.6182279906e+000
 1.3510212841e+000	 1.2095131332e+000	-1.6644186106e+000
 1.4811640597e+000	 1.0576180804e+000	-1.0988844371e+000
 1.4694668411e+000	 1.0738110617e+000	-1.1652259754e+000
 1.4575824460e+000	 1.0898882780e+000	-1.2301410496e+000
 1.4455125782e+000	 1.1058465137e+000	-1.2931963592e+000
 1.4332590148e+000	 1.1216825865e+000	-1.3540215786e+000
 1.4208236048e+000	 1.1373933494e+000	-1.4123182104e+000
 1.4082082689e+000	 1.1529756927e+000	-1.4678683930e+000
 1.3954149980e+000	 1.1684265461e+000	-1.5205435857e+000
 1.3824458526e+000	 1.1837428804e+000	-1.5703130563e+000
 1.3693029615e+000	 1.1989217097e+000	-1.6172520905e+000
 1.3559885206e+000	 1.2139600934e+000	-1.6615498460e+000
 1.4865898373e+000	 1.0614923309e+000	-1.1062606565e+000
 1.4748497697e+000	 1.0777446301e+000	-1.1720665217e+000
 1.4629218399e+000	 1.0938807402e+000	-1.2363906832e+000
 1.4508077579e+000	 1.1098974338e+000	-1.2987769967e+000
 1.4385093074e+000	 1.1257915171e+000	-1.3588320745e+000
 1.4260283442e+000	 1.1415598314e+000	-1.4162343861e+000
 1.4133667960e+000	 1.1571992558e+000	-1.4707433175e+000
 1.4005266610e+000	 1.1727067085e+000	-1.5222081129e+000
 1.3875100072e+000	 1.1880791493e+000	-1.5705766194e+000
 1.3743189713e+000	 1.2033135815e+000	-1.6159037548e+000
 1.3609557572e+000	 1.2184070535e+000	-1.6583596166e+000
 1.4920156150e+000	 1.0653665813e+000	-1.1136319128e+000
 1.4802326983e+000	 1.0816781985e+000	-1.1788642473e+000
 1.4682612337e+000	 1.0978732023e+000	-1.2425446923e+000
 1.4561029376e+000	 1.1139483539e+000	-1.3042004088e+000
 1.4437596000e+000	 1.1299004477e+000	-1.3634210583e+000
 1.4312330837e+000	 1.1457263134e+000	-1.4198681417e+000
 1.4185253231e+000	 1.1614228188e+000	-1.4732843059e+000
 1.4056383240e+000	 1.1769868708e+000	-1.5235025340e+000
 1.3925741619e+000	 1.1924154182e+000	-1.5704551426e+000
 1.3793349811e+000	 1.2077054532e+000	-1.6141825005e+000
 1.3659229937e+000	 1.2228540137e+000	-1.6548413879e+000
 1.4974413927e+000	 1.0692408318e+000	-1.1210181905e+000
 1.4856156269e+000	 1.0856117668e+000	-1.1856389233e+000
 1.4736006276e+000	 1.1018656645e+000	-1.2486222813e+000
 1.4613981174e+000	 1.1179992741e+000	-1.3094848089e+000
 1.4490098927e+000	 1.1340093783e+000	-1.3678052546e+000
 1.4364378231e+000	 1.1498927955e+000	-1.4232341440e+000
 1.4236838502e+000	 1.1656463818e+000	-1.4755033252e+000
 1.4107499870e+000	 1.1812670332e+000	-1.5244354034e+000
 1.3976383165e+000	 1.1967516871e+000	-1.5699529831e+000
 1.3843509909e+000	 1.2120973250e+000	-1.6120876330e+000
 1.3708902302e+000	 1.2273009739e+000	-1.6509884886e+000
 1.5028671704e+000	 1.0731150823e+000	-1.1284390363e+000
 1.4909985555e+000	 1.0895453352e+000	-1.1924098805e+000
 1.4789400214e+000	 1.1058581267e+000	-1.2546422181e+000
 1.4666932971e+000	 1.1220501942e+000	-1.3146479830e+000
 1.4542601853e+000	 1.1381183089e+000	-1.3720009774e+000
 1.4416425625e+000	 1.1540592775e+000	-1.4263466730e+000
 1.4288423774e+000	 1.1698699449e+000	-1.4774119888e+000
 1.4158616500e+000	 1.1855471955e+000	-1.5250149639e+000
 1.4027024711e+000	 1.2010879560e+000	-1.5690742389e+000
 1.3893670007e+000	 1.2164891968e+000	-1.6096182611e+000
 1.3758574668e+000	 1.2317479340e+000	-1.6467941258e+000
 1.5082929480e+000	 1.0769893328e+000	-1.1359135711e+000
 1.4963814841e+000	 1.0934789035e+000	-1.1991960230e+000
 1.4842794153e+000	 1.1098505888e+000	-1.2606228479e+000
 1.4719884768e+000	 1.1261011143e+000	-1.3197073044e+000
 1.4595104780e+000	 1.1422272395e+000	-1.3760241450e+000
 1.4468473020e+000	 1.1582257595e+000	-1.4292196379e+000
 1.4340009045e+000	 1.1740935079e+000	-1.4790215722e+000
 1.4209733130e+000	 1.1898273579e+000	-1.5252491625e+000
 1.4077666258e+000	 1.2054242250e+000	-1.5678227641e+000
 1.3943830105e+000	 1.2208810686e+000	-1.6067733128e+000
 1.3808247033e+000	 1.2361948942e+000	-1.6422513993e+000
 1.5137187257e+000	 1.0808635832e+000	-1.1434605028e+000
 1.5017644127e+000	 1.0974124719e+000	-1.2060158415e+000
 1.4896188092e+000	 1.1138430510e+000	-1.2665821071e+000
 1.4772836565e+000	 1.1301520345e+000	-1.3246797488e+000
 1.4647607706e+000	 1.1463361701e+000	-1.3798902955e+000
 1.4520520414e+000	 1.1623922416e+000	-1.4318665925e+000
 1.4391594316e+000	 1.1783170709e+000	-1.4803430286e+000
 1.4260849761e+000	 1.1941075203e+000	-1.5251456660e+000
 1.4128307804e+000	 1.2097604939e+000	-1.5662021844e+000
 1.3993990203e+000	 1.2252729404e+000	-1.6035515499e+000
 1.3857919398e+000	 1.2406418543e+000	-1.6373533164e+000
 1.5191445034e+000	 1.0847378337e+000	-1.1510981389e+000
 1.5071473413e+000	 1.1013460402e+000	-1.2128874265e+000
 1.4949582030e+000	 1.1178355132e+000	-1.2725375375e+000
 1.4825788362e+000	 1.1342029546e+000	-1.3295819083e+000
 1.4700110632e+000	 1.1504451007e+000	-1.3836146011e+000
 1.4572567808e+000	 1.1665587236e+000	-1.4343007503e+000
 1.4443179588e+000	 1.1825406339e+000	-1.4813870044e+000
 1.4311966391e+000	 1.1983876826e+000	-1.5247118767e+000
 1.4178949350e+000	 1.2140967628e+000	-1.5642159129e+000
 1.4044150301e+000	 1.2296648121e+000	-1.5999515831e+000
 1.3907591764e+000	 1.2450888145e+000	-1.6320928063e+000
 1.3410868110e+000	 1.2006192129e+000	-1.6692171113e+000
 1.3277532754e+000	 1.2153483688e+000	-1.7134609620e+000
 1.3142546640e+000	 1.2299329922e+000	-1.7444904826e+000
 1.3005933408e+000	 1.2443703222e+000	-1.7640293765e+000
 1.2867717309e+000	 1.2586576498e+000	-1.7751642423e+000
 1.2727923194e+000	 1.2727923194e+000	-1.7810893097e+000
 1.2586576498e+000	 1.2867717309e+000	-1.7850729280e+000
 1.2443703222e+000	 1.3005933408e+000	-1.7904232722e+000
 1.2299329922e+000	 1.3142546640e+000	-1.8004535107e+000
 1.2153483688e+000	 1.3277532754e+000	-1.8184466849e+000
 1.2006192129e+000	 1.3410868110e+000	-1.8458217267e+000
 1.3460540475e+000	 1.2050661731e+000	-1.6669722935e+000
 1.3326711260e+000	 1.2198498842e+000	-1.7095170427e+000
 1.3191225173e+000	 1.2344885274e+000	-1.7405050380e+000
 1.3054105940e+000	 1.2489793316e+000	-1.7597370689e+000
 1.2915377904e+000	 1.2633195778e+000	-1.7704294573e+000
 1.2775066007e+000	 1.2775066007e+000	-1.7759090789e+000
 1.2633195778e+000	 1.2915377904e+000	-1.7795789240e+000
 1.2489793316e+000	 1.3054105940e+000	-1.7848828550e+000
 1.2344885274e+000	 1.3191225173e+000	-1.7952698098e+000
 1.2198498842e+000	 1.3326711260e+000	-1.8141577078e+000
 1.2050661731e+000	 1.3460540475e+000	-1.8401396380e+000
 1.3510212841e+000	 1.2095131332e+000	-1.6644186106e+000
 1.3375889766e+000	 1.2243513995e+000	-1.7047980851e+000
 1.3239903705e+000	 1.2390440625e+000	-1.7355911701e+000
 1.3102278472e+000	 1.2535883410e+000	-1.7547339070e+000
 1.2963038499e+000	 1.2679815059e+000	-1.7652160953e+000
 1.2822208820e+000	 1.2822208820e+000	-1.7704890087e+000
 1.2679815059e+000	 1.2963038499e+000	-1.7740820712e+000
 1.2535883410e+000	 1.3102278472e+000	-1.7795666659e+000
 1.2390440625e+000	 1.3239903705e+000	-1.7905193755e+000
 1.2243513995e+000	 1.3375889766e+000	-1.8099846332e+000
 1.2095131332e+000	 1.3510212841e+000	-1.8338862235e+000
 1.3559885206e+000	 1.2139600934e+000	-1.6615498460e+000
 1.3425068272e+000	 1.2288529148e+000	-1.6998543552e+000
 1.3288582238e+000	 1.2435995977e+000	-1.7297374189e+000
 1.3150451004e+000	 1.2581973505e+000	-1.7489994503e+000
 1.3010699094e+000	 1.2726434340e+000	-1.7594942516e+000
 1.2869351634e+000	 1.2869351634e+000	-1.7647893821e+000
 1.2726434340e+000	 1.3010699094e+000	-1.7685326283e+000
 1.2581973505e+000	 1.3150451004e+000	-1.7744148655e+000
 1.2435995977e+000	 1.3288582238e+000	-1.7861323357e+000
 1.2288529148e+000	 1.3425068272e+000	-1.8050797604e+000
 1.2139600934e+000	 1.3559885206e+000	-1.8270360671e+000
 1.3609557572e+000	 1.2184070535e+000	-1.6583596166e+000
 1.3474246778e+000	 1.2333544301e+000	-1.6946800514e+000
 1.3337260770e+000	 1.2481551328e+000	-1.7229367688e+000
 1.3198623537e+000	 1.2628063599e+000	-1.7425145067e+000
 1.3058359689e+000	 1.2773053621e+000	-1.7532352744e+000
 1.2916494447e+000	 1.2916494447e+000	-1.7587717369e+000
 1.2773053621e+000	 1.3058359689e+000	-1.7628821077e+000
 1.2628063599e+000	 1.3198623537e+000	-1.7693688633e+000
 1.2481551328e+000	 1.3337260770e+000	-1.7820355633e+000
 1.2333544301e+000	 1.3474246778e+000	-1.7994165460e+000
 1.2184070535e+000	 1.3609557572e+000	-1.8195657367e+000
 1.3659229937e+000	 1.2228540137e+000	-1.6548413879e+000
 1.3523425284e+000	 1.2378559454e+000	-1.6892617983e+000
 1.3385939303e+000	 1.2527106680e+000	-1.7156623301e+000
 1.3246796069e+000	 1.2674153693e+000	-1.7352611731e+000
 1.3106020284e+000	 1.2819672902e+000	-1.7464118026e+000
 1.2963637260e+000	 1.2963637260e+000	-1.7523989010e+000
 1.2819672902e+000	 1.3106020284e+000	-1.7570833085e+000
 1.2674153693e+000	 1.3246796069e+000	-1.7643713465e+000
 1.2527106680e+000	 1.3385939303e+000	-1.7774938194e+000
 1.2378559454e+000	 1.3523425284e+000	-1.7929812287e+000
 1.2228540137e+000	 1.3659229937e+000	-1.8114537382e+000
 1.3708902302e+000	 1.2273009739e+000	-1.6509884886e+000
 1.3572603790e+000	 1.2423574607e+000	-1.6835861685e+000
 1.3434617835e+000	 1.2572662031e+000	-1.7082429370e+000
 1.3294968601e+000	 1.2720243787e+000	-1.7272228751e+000
 1.3153680879e+000	 1.2866292183e+000	-1.7389978030e+000
 1.3010780073e+000	 1.3010780073e+000	-1.7456350275e+000
 1.2866292183e+000	 1.3153680879e+000	-1.7510903481e+000
 1.2720243787e+000	 1.3294968601e+000	-1.7593663106e+000
 1.2572662031e+000	 1.3434617835e+000	-1.7720063244e+000
 1.2423574607e+000	 1.3572603790e+000	-1.7857618601e+000
 1.2273009739e+000	 1.3708902302e+000	-1.8026804698e+000
 1.3758574668e+000	 1.2317479340e+000	-1.6467941258e+000
 1.3621782297e+000	 1.2468589761e+000	-1.6776396967e+000
 1.3483296368e+000	 1.2618217382e+000	-1.7006579277e+000
 1.3343141133e+000	 1.2766333881e+000	-1.7184011005e+000
 1.3201341475e+000	 1.2912911463e+000	-1.7309686085e+000
 1.3057922887e+000	 1.3057922887e+000	-1.7384456296e+000
 1.2912911463e+000	 1.3201341475e+000	-1.7448586953e+000
 1.2766333881e+000	 1.3343141133e+000	-1.7542765496e+000
 1.2618217382e+000	 1.3483296368e+000	-1.7655708183e+000
 1.2468589761e+000	 1.3621782297e+000	-1.7777482602e+000
 1.2317479340e+000	 1.3758574668e+000	-1.7932281771e+000
 1.3808247033e+000	 1.2361948942e+000	-1.6422513993e+000
 1.3670960803e+000	 1.2513604914e+000	-1.6714088934e+000
 1.3531974900e+000	 1.2663772734e+000	-1.6928867042e+000
 1.3391313665e+000	 1.2812423975e+000	-1.7092802284e+000
 1.3249002070e+000	 1.2959530744e+000	-1.7223009555e+000
 1.3105065700e+000	 1.3105065700e+000	-1.7307976162e+000
 1.2959530744e+000	 1.3249002070e+000	-1.7383452027e+000
 1.2812423975e+000	 1.3391313665e+000	-1.7483859904e+000
 1.2663772734e+000	 1.3531974900e+000	-1.7581866852e+000
 1.2513604914e+000	 1.3670960803e+000	-1.7689319733e+000
 1.2361948942e+000	 1.3808247033e+000	-1.7830809074e+000
 1.3857919398e+000	 1.2406418543e+000	-1.6373533164e+000
 1.3720139309e+000	 1.2558620067e+000	-1.6648802587e+000
 1.3580653432e+000	 1.2709328085e+000	-1.6849087460e+000
 1.3439486198e+000	 1.2858514069e+000	-1.7000685731e+000
 1.3296662665e+000	 1.3006150025e+000	-1.7129730217e+000
 1.3152208513e+000	 1.3152208513e+000	-1.7226593265e+000
 1.3006150025e+000	 1.3296662665e+000	-1.7315081392e+000
 1.2858514069e+000	 1.3439486198e+000	-1.7413803178e+000
 1.2709328085e+000	 1.3580653432e+000	-1.7498549104e+000
 1.2558620067e+000	 1.3720139309e+000	-1.7593062237e+000
 1.2406418543e+000	 1.3857919398e+000	-1.7722244654e+000
 1.3907591764e+000	 1.2450888145e+000	-1.6320928063e+000
 1.3769317815e+000	 1.2603635220e+000	-1.6580402962e+000
 1.3629331965e+000	 1.2754883437e+000	-1.6767036218e+000
 1.3487658730e+000	 1.2904604163e+000	-1.6907383466e+000
 1.3344323260e+000	 1.3052769306e+000	-1.7029834532e+000
 1.3199351327e+000	 1.3199351327e+000	-1.7140005657e+000
 1.3052769306e+000	 1.3344323260e+000	-1.7242826289e+000
 1.2904604163e+000	 1.3487658730e+000	-1.7332700054e+000
 1.2754883437e+000	 1.3629331965e+000	-1.7405780371e+000
 1.2603635220e+000	 1.3769317815e+000	-1.7488658721e+000
 1.2450888145e+000	 1.3907591764e+000	-1.7606463680e+000
 1.2006192129e+000	 1.3410868110e+000	-1.8458217267e+000
 1.1857460943e+000	 1.3542549321e+000	-1.8707024963e+000
 1.1707340736e+000	 1.3672533887e+000	-1.8869530591e+000
 1.1555860590e+000	 1.3800800090e+000	-1.8957095514e+000
 1.1403050036e+000	 1.3927326875e+000	-1.8980209018e+000
 1.1248939033e+000	 1.4052093865e+000	-1.8948511653e+000
 1.1093557947e+000	 1.4175081369e+000	-1.8870822702e+000
 1.0936937532e+000	 1.4296270391e+000	-1.8755171281e+000
 1.0779108915e+000	 1.4415642644e+000	-1.8608830563e+000
 1.0620103567e+000	 1.4533180553e+000	-1.8438354609e+000
 1.0459953290e+000	 1.4648867267e+000	-1.8249617268e+000
 1.2050661731e+000	 1.3460540475e+000	-1.8401396380e+000
 1.1901379661e+000	 1.3592709419e+000	-1.8632899544e+000
 1.1750703425e+000	 1.3723175433e+000	-1.8783458501e+000
 1.1598662214e+000	 1.3851916720e+000	-1.8863656242e+000
 1.1445285667e+000	 1.3978912146e+000	-1.8883194836e+000
 1.1290603853e+000	 1.4104141259e+000	-1.8850921397e+000
 1.1134647253e+000	 1.4227584295e+000	-1.8774858226e+000
 1.0977446734e+000	 1.4349222188e+000	-1.8662236637e+000
 1.0819033536e+000	 1.4469036583e+000	-1.8519533905e+000
 1.0659439250e+000	 1.4587009839e+000	-1.8352512830e+000
 1.0498695794e+000	 1.4703125043e+000	-1.8166263360e+000
 1.2095131332e+000	 1.3510212841e+000	-1.8338862235e+000
 1.1945298379e+000	 1.3642869517e+000	-1.8554195480e+000
 1.1794066114e+000	 1.3773816980e+000	-1.8693629440e+000
 1.1641463837e+000	 1.3903033350e+000	-1.8767015834e+000
 1.1487521297e+000	 1.4030497417e+000	-1.8783317961e+000
 1.1332268674e+000	 1.4156188653e+000	-1.8750639242e+000
 1.1175736559e+000	 1.4280087221e+000	-1.8676255993e+000
 1.1017955935e+000	 1.4402173985e+000	-1.8566653904e+000
 1.0858958158e+000	 1.4522430521e+000	-1.8427567674e+000
 1.0698774934e+000	 1.4640839125e+000	-1.8264023253e+000
 1.0537438299e+000	 1.4757382820e+000	-1.8080382119e+000
 1.2139600934e+000	 1.3559885206e+000	-1.8270360671e+000
 1.1989217097e+000	 1.3693029615e+000	-1.8470588429e+000
 1.1837428804e+000	 1.3824458526e+000	-1.8599661862e+000
 1.1684265461e+000	 1.3954149980e+000	-1.8666747979e+000
 1.1529756927e+000	 1.4082082689e+000	-1.8680119204e+000
 1.1373933494e+000	 1.4208236048e+000	-1.8647184441e+000
 1.1216825865e+000	 1.4332590148e+000	-1.8574524425e+000
 1.1058465137e+000	 1.4455125782e+000	-1.8467930814e+000
 1.0898882780e+000	 1.4575824460e+000	-1.8332448449e+000
 1.0738110617e+000	 1.4694668411e+000	-1.8172420222e+000
 1.0576180804e+000	 1.4811640597e+000	-1.7991533955e+000
 1.2184070535e+000	 1.3609557572e+000	-1.8195657367e+000
 1.2033135815e+000	 1.3743189713e+000	-1.8381774598e+000
 1.1880791493e+000	 1.3875100072e+000	-1.8501195311e+000
 1.1727067085e+000	 1.4005266610e+000	-1.8562447835e+000
 1.1571992558e+000	 1.4133667960e+000	-1.8573161065e+000
 1.1415598314e+000	 1.4260283442e+000	-1.8540098000e+000
 1.1257915171e+000	 1.4385093074e+000	-1.8469193625e+000
 1.1098974338e+000	 1.4508077579e+000	-1.8365596568e+000
 1.0938807402e+000	 1.4629218399e+000	-1.8233713931e+000
 1.0777446301e+000	 1.4748497697e+000	-1.8077258730e+000
 1.0614923309e+000	 1.4865898373e+000	-1.7899299331e+000
 1.2228540137e+000	 1.3659229937e+000	-1.8114537382e+000
 1.2077054532e+000	 1.3793349811e+000	-1.8287470277e+000
 1.1924154182e+000	 1.3925741619e+000	-1.8397889951e+000
 1.1769868708e+000	 1.4056383240e+000	-1.8453731559e+000
 1.1614228188e+000	 1.4185253231e+000	-1.8462027266e+000
 1.1457263134e+000	 1.4312330837e+000	-1.8428942224e+000
 1.1299004477e+000	 1.4437596000e+000	-1.8359814930e+000
 1.1139483539e+000	 1.4561029376e+000	-1.8259201398e+000
 1.0978732023e+000	 1.4682612337e+000	-1.8130922518e+000
 1.0816781985e+000	 1.4802326983e+000	-1.7978114013e+000
 1.0653665813e+000	 1.4920156150e+000	-1.7803278379e+000
 1.2273009739e+000	 1.3708902302e+000	-1.8026804698e+000
 1.2120973250e+000	 1.3843509909e+000	-1.8187411377e+000
 1.1967516871e+000	 1.3976383165e+000	-1.8289426102e+000
 1.1812670332e+000	 1.4107499870e+000	-1.8340235838e+000
 1.1656463818e+000	 1.4236838502e+000	-1.8346322289e+000
 1.1498927955e+000	 1.4364378231e+000	-1.8313300260e+000
 1.1340093783e+000	 1.4490098927e+000	-1.8245960461e+000
 1.1179992741e+000	 1.4613981174e+000	-1.8148316132e+000
 1.1018656645e+000	 1.4736006276e+000	-1.8023652888e+000
 1.0856117668e+000	 1.4856156269e+000	-1.7874581150e+000
 1.0692408318e+000	 1.4974413927e+000	-1.7703090523e+000
 1.2317479340e+000	 1.3758574668e+000	-1.7932281771e+000
 1.2164891968e+000	 1.3893670007e+000	-1.8081352968e+000
 1.2010879560e+000	 1.4027024711e+000	-1.8175503774e+000
 1.1855471955e+000	 1.4158616500e+000	-1.8221617429e+000
 1.1698699449e+000	 1.4288423774e+000	-1.8225670912e+000
 1.1540592775e+000	 1.4416425625e+000	-1.8192775644e+000
 1.1381183089e+000	 1.4542601853e+000	-1.8127222680e+000
 1.1220501942e+000	 1.4666932971e+000	-1.8032531760e+000
 1.1058581267e+000	 1.4789400214e+000	-1.7911503584e+000
 1.0895453352e+000	 1.4909985555e+000	-1.7766274663e+000
 1.0731150823e+000	 1.5028671704e+000	-1.7598374099e+000
 1.2361948942e+000	 1.3808247033e+000	-1.7830809074e+000
 1.2208810686e+000	 1.3943830105e+000	-1.7969068824e+000
 1.2054242250e+000	 1.4077666258e+000	-1.8055842206e+000
 1.1898273579e+000	 1.4209733130e+000	-1.8097552697e+000
 1.1740935079e+000	 1.4340009045e+000	-1.8099717760e+000
 1.1582257595e+000	 1.4468473020e+000	-1.8066991849e+000
 1.1422272395e+000	 1.4595104780e+000	-1.8003213952e+000
 1.1261011143e+000	 1.4719884768e+000	-1.7911459012e+000
 1.1098505888e+000	 1.4842794153e+000	-1.7794092597e+000
 1.0934789035e+000	 1.4963814841e+000	-1.7652828121e+000
 1.0769893328e+000	 1.5082929480e+000	-1.7488785978e+000
 1.2406418543e+000	 1.3857919398e+000	-1.7722244654e+000
 1.2252729404e+000	 1.3993990203e+000	-1.7850350963e+000
 1.2097604939e+000	 1.4128307804e+000	-1.7930179408e+000
 1.1941075203e+000	 1.4260849761e+000	-1.7967737156e+000
 1.1783170709e+000	 1.4391594316e+000	-1.7968126843e+000
 1.1623922416e+000	 1.4520520414e+000	-1.7935591840e+000
 1.1463361701e+000	 1.4647607706e+000	-1.7873566103e+000
 1.1301520345e+000	 1.4772836565e+000	-1.7784727927e+000
 1.1138430510e+000	 1.4896188092e+000	-1.7671056959e+000
 1.0974124719e+000	 1.5017644127e+000	-1.7533893749e+000
 1.0808635832e+000	 1.5137187257e+000	-1.7374001193e+000
 1.2450888145e+000	 1.3907591764e+000	-1.7606463680e+000
 1.2296648121e+000	 1.4044150301e+000	-1.7725009199e+000
 1.2140967628e+000	 1.4178949350e+000	-1.7798271707e+000
 1.1983876826e+000	 1.4311966391e+000	-1.7831885015e+000
 1.1825406339e+000	 1.4443179588e+000	-1.7830581107e+000
 1.1665587236e+000	 1.4572567808e+000	-1.7798237626e+000
 1.1504451007e+000	 1.4700110632e+000	-1.7737929987e+000
 1.1342029546e+000	 1.4825788362e+000	-1.7651987432e+000
 1.1178355132e+000	 1.4949582030e+000	-1.7542052331e+000
 1.1013460402e+000	 1.5071473413e+000	-1.7409142035e+000
 1.0847378337e+000	 1.5191445034e+000	-1.7253712564e+000
 1.0459953290e+000	 1.4648867267e+000	-1.8249617268e+000
 1.0298690189e+000	 1.4762686658e+000	-1.8061039016e+000
 1.0136346645e+000	 1.4874623321e+000	-1.7885266994e+000
 9.9729552980e-001	 1.4984662587e+000	-1.7718903428e+000
 9.8085490370e-001	 1.5092790533e+000	-1.7558238695e+000
 9.6431609742e-001	 1.5198993990e+000	-1.7399548581e+000
 9.4768244255e-001	 1.5303260540e+000	-1.7238987049e+000
 9.3095728891e-001	 1.5405578528e+000	-1.7072671809e+000
 9.1414400240e-001	 1.5505937056e+000	-1.6896729751e+000
 8.9724596292e-001	 1.5604325990e+000	-1.6707339583e+000
 8.8026656220e-001	 1.5700735960e+000	-1.6500771362e+000
 1.0498695794e+000	 1.4703125043e+000	-1.8166263360e+000
 1.0336835393e+000	 1.4817366009e+000	-1.7979670049e+000
 1.0173890546e+000	 1.4929717273e+000	-1.7806386608e+000
 1.0009894016e+000	 1.5040164112e+000	-1.7643049610e+000
 9.8448788128e-001	 1.5148692553e+000	-1.7485990730e+000
 9.6788781710e-001	 1.5255289375e+000	-1.7331522505e+000
 9.5119255302e-001	 1.5359942117e+000	-1.7175840395e+000
 9.3440545127e-001	 1.5462639079e+000	-1.7015107380e+000
 9.1752989022e-001	 1.5563369324e+000	-1.6845500314e+000
 9.0056926227e-001	 1.5662122680e+000	-1.6663253385e+000
 8.8352697174e-001	 1.5758889741e+000	-1.6464698364e+000
 1.0537438299e+000	 1.4757382820e+000	-1.8080382119e+000
 1.0374980598e+000	 1.4872045360e+000	-1.7895990393e+000
 1.0211434448e+000	 1.4984811226e+000	-1.7725467795e+000
 1.0046832735e+000	 1.5095665638e+000	-1.7565483702e+000
 9.8812085886e-001	 1.5204594572e+000	-1.7412408369e+000
 9.7145953678e-001	 1.5311584759e+000	-1.7262587698e+000
 9.5470266349e-001	 1.5416623693e+000	-1.7112254346e+000
 9.3785361363e-001	 1.5519699630e+000	-1.6957611472e+000
 9.2091577803e-001	 1.5620801592e+000	-1.6794880058e+000
 9.0389256162e-001	 1.5719919370e+000	-1.6620343246e+000
 8.8678738128e-001	 1.5817043523e+000	-1.6430387343e+000
 1.0576180804e+000	 1.4811640597e+000	-1.7991533955e+000
 1.0413125802e+000	 1.4926724711e+000	-1.7809586279e+000
 1.0248978350e+000	 1.5039905178e+000	-1.7642114266e+000
 1.0083771453e+000	 1.5151167163e+000	-1.7485818570e+000
 9.9175383643e-001	 1.5260496591e+000	-1.7337105343e+000
 9.7503125645e-001	 1.5367880144e+000	-1.7192350513e+000
 9.5821277396e-001	 1.5473305270e+000	-1.7047819688e+000
 9.4130177598e-001	 1.5576760181e+000	-1.6899751180e+000
 9.2430166584e-001	 1.5678233860e+000	-1.6744404346e+000
 9.0721586097e-001	 1.5777716059e+000	-1.6578104847e+000
 8.9004779081e-001	 1.5875197304e+000	-1.6397286450e+000
 1.0614923309e+000	 1.4865898373e+000	-1.7899299331e+000
 1.0451271006e+000	 1.4981404063e+000	-1.7720063405e+000
 1.0286522252e+000	 1.5094999130e+000	-1.7555948722e+000
 1.0120710171e+000	 1.5206668688e+000	-1.7403649327e+000
 9.9538681401e-001	 1.5316398610e+000	-1.7259713769e+000
 9.7860297613e-001	 1.5424175529e+000	-1.7120435551e+000
 9.6172288443e-001	 1.5529986847e+000	-1.6982145424e+000
 9.4474993834e-001	 1.5633820732e+000	-1.6841111891e+000
 9.2768755365e-001	 1.5735666128e+000	-1.6693627007e+000
 9.1053916032e-001	 1.5835512749e+000	-1.6536052599e+000
 8.9330820035e-001	 1.5933351085e+000	-1.6364862931e+000
 1.0653665813e+000	 1.4920156150e+000	-1.7803278379e+000
 1.0489416210e+000	 1.5036083414e+000	-1.7627046565e+000
 1.0324066153e+000	 1.5150093082e+000	-1.7466612508e+000
 1.0157648890e+000	 1.5262170214e+000	-1.7318700483e+000
 9.9901979159e-001	 1.5372300629e+000	-1.7179883840e+000
 9.8217469581e-001	 1.5480470914e+000	-1.7046485367e+000
 9.6523299489e-001	 1.5586668424e+000	-1.6914858491e+000
 9.4819810070e-001	 1.5690881284e+000	-1.6781297008e+000
 9.3107344146e-001	 1.5793098396e+000	-1.6642120061e+000
 9.1386245967e-001	 1.5893309439e+000	-1.6493719383e+000
 8.9656860989e-001	 1.5991504867e+000	-1.6332602863e+000
 1.0692408318e+000	 1.4974413927e+000	-1.7703090523e+000
 1.0527561414e+000	 1.5090762765e+000	-1.7530179298e+000
 1.0361610055e+000	 1.5205187034e+000	-1.7373765279e+000
 1.0194587608e+000	 1.5317671739e+000	-1.7230601423e+000
 1.0026527692e+000	 1.5428202648e+000	-1.7097283512e+000
 9.8574641548e-001	 1.5536766299e+000	-1.6970160169e+000
 9.6874310536e-001	 1.5643350000e+000	-1.6845603472e+000
 9.5164626305e-001	 1.5747941835e+000	-1.6719927665e+000
 9.3445932927e-001	 1.5850530664e+000	-1.6589473447e+000
 9.1718575902e-001	 1.5951106128e+000	-1.6450656276e+000
 8.9982901942e-001	 1.6049658648e+000	-1.6300010888e+000
 1.0731150823e+000	 1.5028671704e+000	-1.7598374099e+000
 1.0565706618e+000	 1.5145442116e+000	-1.7429123523e+000
 1.0399153957e+000	 1.5260280986e+000	-1.7277084650e+000
 1.0231526326e+000	 1.5373173264e+000	-1.7139037588e+000
 1.0062857467e+000	 1.5484104668e+000	-1.7011598200e+000
 9.8931813516e-001	 1.5593061684e+000	-1.6891137523e+000
 9.7225321583e-001	 1.5700031577e+000	-1.6774042307e+000
 9.5509442541e-001	 1.5805002386e+000	-1.6656642457e+000
 9.3784521708e-001	 1.5907962932e+000	-1.6535294756e+000
 9.2050905837e-001	 1.6008902818e+000	-1.6406432287e+000
 9.0308942896e-001	 1.6107812430e+000	-1.6266609951e+000
 1.0769893328e+000	 1.5082929480e+000	-1.7488785978e+000
 1.0603851822e+000	 1.5200121467e+000	-1.7323559186e+000
 1.0436697858e+000	 1.5315374938e+000	-1.7176265867e+000
 1.0268465044e+000	 1.5428674789e+000	-1.7043711757e+000
 1.0099187243e+000	 1.5540006687e+000	-1.6922530464e+000
 9.9288985484e-001	 1.5649357069e+000	-1.6809112056e+000
 9.7576332629e-001	 1.5756713154e+000	-1.6699854011e+000
 9.5854258776e-001	 1.5862062937e+000	-1.6591097159e+000
 9.4123110489e-001	 1.5965395200e+000	-1.6479208959e+000
 9.2383235772e-001	 1.6066699508e+000	-1.6360634096e+000
 9.0634983850e-001	 1.6165966211e+000	-1.6231941039e+000
 1.0808635832e+000	 1.5137187257e+000	-1.7374001193e+000
 1.0641997027e+000	 1.5254800818e+000	-1.7213183904e+000
 1.0474241760e+000	 1.5370468890e+000	-1.7071021466e+000
 1.0305403763e+000	 1.5484176315e+000	-1.6944343720e+000
 1.0135517019e+000	 1.5595908706e+000	-1.6829766381e+000
 9.9646157451e-001	 1.5705652454e+000	-1.6723795164e+000
 9.7927343676e-001	 1.5813394730e+000	-1.6622734390e+000
 9.6199075012e-001	 1.5919123488e+000	-1.6522964452e+000
 9.4461699271e-001	 1.6022827468e+000	-1.6420858140e+000
 9.2715565707e-001	 1.6124496197e+000	-1.6312865787e+000
 9.0961024803e-001	 1.6224119993e+000	-1.6195562921e+000
 1.0847378337e+000	 1.5191445034e+000	-1.7253712564e+000
 1.0680142231e+000	 1.5309480169e+000	-1.7097712613e+000
 1.0511785662e+000	 1.5425562842e+000	-1.6961080935e+000
 1.0342342481e+000	 1.5539677840e+000	-1.6840669964e+000
 1.0171846795e+000	 1.5651810725e+000	-1.6733110367e+000
 1.0000332942e+000	 1.5761947839e+000	-1.6634914716e+000
 9.8278354723e-001	 1.5870076307e+000	-1.6542395757e+000
 9.6543891248e-001	 1.5976184039e+000	-1.6451933650e+000
 9.4800288052e-001	 1.6080259736e+000	-1.6359901228e+000
 9.3047895642e-001	 1.6182292887e+000	-1.6262748586e+000
 9.1287065757e-001	 1.6282273774e+000	-1.6157051889e+000
 8.8026656220e-001	 1.5700735960e+000	-1.6500771362e+000
 8.6321176606e-001	 1.5795144344e+000	-1.6286700978e+000
 8.4608244212e-001	 1.5887557923e+000	-1.6075593078e+000
 8.2888200446e-001	 1.5977969630e+000	-1.5864937568e+000
 8.1161387060e-001	 1.6066373155e+000	-1.5652045139e+000
 7.9428145944e-001	 1.6152762950e+000	-1.5434072365e+000
 7.7688818926e-001	 1.6237134218e+000	-1.5208043257e+000
 7.5943747563e-001	 1.6319482913e+000	-1.4970867241e+000
 7.4193272950e-001	 1.6399805736e+000	-1.4719353549e+000
 7.2437735518e-001	 1.6478100126e+000	-1.4450222087e+000
 7.0677474842e-001	 1.6554364262e+000	-1.4160110859e+000
 8.8352697174e-001	 1.5758889741e+000	-1.6464698364e+000
 8.6640900653e-001	 1.5853647804e+000	-1.6258144411e+000
 8.4921623748e-001	 1.5946403673e+000	-1.6052927647e+000
 8.3195209131e-001	 1.6037150254e+000	-1.5846965518e+000
 8.1461999819e-001	 1.6125881216e+000	-1.5638005622e+000
 7.9722338971e-001	 1.6212590990e+000	-1.5423650266e+000
 7.7976569679e-001	 1.6297274759e+000	-1.5201377345e+000
 7.6225034766e-001	 1.6379928465e+000	-1.4968557512e+000
 7.4468076589e-001	 1.6460548794e+000	-1.4722467650e+000
 7.2706036842e-001	 1.6539133178e+000	-1.4460300686e+000
 7.0939256355e-001	 1.6615679788e+000	-1.4179171861e+000
 8.8678738128e-001	 1.5817043523e+000	-1.6430387343e+000
 8.6960624700e-001	 1.5912151264e+000	-1.6231966688e+000
 8.5235003283e-001	 1.6005249422e+000	-1.6033291223e+000
 8.3502217815e-001	 1.6096330878e+000	-1.5832684610e+000
 8.1762612579e-001	 1.6185389277e+000	-1.5628311311e+000
 8.0016531998e-001	 1.6272419029e+000	-1.5418200628e+000
 7.8264320432e-001	 1.6357415300e+000	-1.5200266932e+000
 7.6506321968e-001	 1.6440374016e+000	-1.4972326059e+000
 7.4742880228e-001	 1.6521291852e+000	-1.4732107868e+000
 7.2974338165e-001	 1.6600166230e+000	-1.4477265028e+000
 7.1201037869e-001	 1.6676995314e+000	-1.4205378123e+000
 8.9004779081e-001	 1.5875197304e+000	-1.6397286450e+000
 8.7280348746e-001	 1.5970654723e+000	-1.6207567132e+000
 8.5548382818e-001	 1.6064095171e+000	-1.6016039631e+000
 8.3809226499e-001	 1.6155511502e+000	-1.5821412782e+000
 8.2063225338e-001	 1.6244897338e+000	-1.5622248138e+000
 8.0310725025e-001	 1.6332247068e+000	-1.5416983528e+000
 7.8552071185e-001	 1.6417555841e+000	-1.5203952675e+000
 7.6787609171e-001	 1.6500819568e+000	-1.4981400826e+000
 7.5017683867e-001	 1.6582034910e+000	-1.4747496429e+000
 7.3242639489e-001	 1.6661199282e+000	-1.4500338887e+000
 7.1462819382e-001	 1.6738310840e+000	-1.4237962520e+000
 8.9330820035e-001	 1.5933351085e+000	-1.6364862931e+000
 8.7600072793e-001	 1.6029158183e+000	-1.6184364518e+000
 8.5861762354e-001	 1.6122940921e+000	-1.6000548409e+000
 8.4116235184e-001	 1.6214692126e+000	-1.5812487831e+000
 8.2363838098e-001	 1.6304405400e+000	-1.5619121925e+000
 8.0604918052e-001	 1.6392075107e+000	-1.5419278857e+000
 7.8839821937e-001	 1.6477696382e+000	-1.5211694842e+000
 7.7068896373e-001	 1.6561265119e+000	-1.4995029047e+000
 7.5292487506e-001	 1.6642777969e+000	-1.4767874388e+000
 7.3510940812e-001	 1.6722232334e+000	-1.4528764279e+000
 7.1724600896e-001	 1.6799626365e+000	-1.4276175443e+000
 8.9656860989e-001	 1.5991504867e+000	-1.6332602863e+000
 8.7919796839e-001	 1.6087661643e+000	-1.6161796812e+000
 8.6175141889e-001	 1.6181786670e+000	-1.5986212541e+000
 8.4423243868e-001	 1.6273872751e+000	-1.5805267155e+000
 8.2664450857e-001	 1.6363913461e+000	-1.5618258143e+000
 8.0899111079e-001	 1.6451903146e+000	-1.5424386081e+000
 7.9127572690e-001	 1.6537836923e+000	-1.5222773087e+000
 7.7350183576e-001	 1.6621710671e+000	-1.5012477024e+000
 7.5567291145e-001	 1.6703521027e+000	-1.4792501430e+000
 7.3779242135e-001	 1.6783265386e+000	-1.4561801276e+000
 7.1986382409e-001	 1.6860941891e+000	-1.4319284635e+000
 8.9982901942e-001	 1.6049658648e+000	-1.6300010888e+000
 8.8239520886e-001	 1.6146165102e+000	-1.6139320907e+000
 8.6488521424e-001	 1.6240632419e+000	-1.5972446204e+000
 8.4730252552e-001	 1.6333053375e+000	-1.5799127504e+000
 8.2965063617e-001	 1.6423421522e+000	-1.5619001667e+000
 8.1193304106e-001	 1.6511731186e+000	-1.5431624005e+000
 7.9415323443e-001	 1.6597977464e+000	-1.5236486224e+000
 7.7631470778e-001	 1.6682156222e+000	-1.5033029916e+000
 7.5842094784e-001	 1.6764264085e+000	-1.4820655669e+000
 7.4047543459e-001	 1.6844298438e+000	-1.4598727826e+000
 7.2248163923e-001	 1.6922257417e+000	-1.4366575022e+000
 9.0308942896e-001	 1.6107812430e+000	-1.6266609951e+000
 8.8559244933e-001	 1.6204668562e+000	-1.6116412365e+000
 8.6801900960e-001	 1.6299478168e+000	-1.5958682513e+000
 8.5037261237e-001	 1.6392233999e+000	-1.5793464732e+000
 8.3265676376e-001	 1.6482929583e+000	-1.5620716527e+000
 8.1487497133e-001	 1.6571559225e+000	-1.5440330543e+000
 7.9703074196e-001	 1.6658118005e+000	-1.5252152000e+000
 7.7912757980e-001	 1.6742601773e+000	-1.5055991530e+000
 7.6116898423e-001	 1.6825007143e+000	-1.4851633452e+000
 7.4315844782e-001	 1.6905331490e+000	-1.4638839564e+000
 7.2509945436e-001	 1.6983572943e+000	-1.4417348551e+000
 9.0634983850e-001	 1.6165966211e+000	-1.6231941039e+000
 8.8878968979e-001	 1.6263172022e+000	-1.6092565159e+000
 8.7115280495e-001	 1.6358323918e+000	-1.5944373263e+000
 8.5344269921e-001	 1.6451414623e+000	-1.5787693545e+000
 8.3566289135e-001	 1.6542437644e+000	-1.5622785675e+000
 8.1781690160e-001	 1.6631387264e+000	-1.5449862479e+000
 7.9990824949e-001	 1.6718258546e+000	-1.5269106880e+000
 7.8194045183e-001	 1.6803047325e+000	-1.5080684108e+000
 7.6391702062e-001	 1.6885750202e+000	-1.4884749162e+000
 7.4584146106e-001	 1.6966364542e+000	-1.4681449638e+000
 7.2771726950e-001	 1.7044888469e+000	-1.4470924022e+000
 9.0961024803e-001	 1.6224119993e+000	-1.6195562921e+000
 8.9198693026e-001	 1.6321675481e+000	-1.6067291416e+000
 8.7428660031e-001	 1.6417169667e+000	-1.5928988682e+000
 8.5651278605e-001	 1.6510595247e+000	-1.5781247254e+000
 8.3866901895e-001	 1.6601945705e+000	-1.5624610743e+000
 8.2075883187e-001	 1.6691215303e+000	-1.5459595241e+000
 8.0278575702e-001	 1.6778399087e+000	-1.5286705820e+000
 7.8475332385e-001	 1.6863492876e+000	-1.5106448118e+000
 7.6666505701e-001	 1.6946493260e+000	-1.4919335020e+000
 7.4852447429e-001	 1.7027397594e+000	-1.4725888527e+000
 7.3033508463e-001	 1.7106203995e+000	-1.4526636931e+000
 9.1287065757e-001	 1.6282273774e+000	-1.6157051889e+000
 8.9518417073e-001	 1.6380178941e+000	-1.6040121160e+000
 8.7742039566e-001	 1.6476015416e+000	-1.5912017176e+000
 8.5958287290e-001	 1.6569775872e+000	-1.5773577535e+000
 8.4167514655e-001	 1.6661453766e+000	-1.5625611803e+000
 8.2370076214e-001	 1.6751043343e+000	-1.5468922672e+000
 8.0566326455e-001	 1.6838539628e+000	-1.5304322051e+000
 7.8756619588e-001	 1.6923938428e+000	-1.5132642052e+000
 7.6941309341e-001	 1.7007236318e+000	-1.4954740899e+000
 7.5120748753e-001	 1.7088430646e+000	-1.4771503858e+000
 7.3295289977e-001	 1.7167519521e+000	-1.4583839300e+000
 7.0677474842e-001	 1.6554364262e+000	-1.4160110859e+000
 6.8912564428e-001	 1.6628608034e+000	-1.3886363109e+000
 6.7143605513e-001	 1.6700819490e+000	-1.3644256304e+000
 6.5370934202e-001	 1.6770998984e+000	-1.3420112074e+000
 6.3594884997e-001	 1.6839147584e+000	-1.3245478114e+000
 6.1815790620e-001	 1.6905267052e+000	-1.3105143439e+000
 6.0033981835e-001	 1.6969359845e+000	-1.2982591243e+000
 5.8249787284e-001	 1.7031429098e+000	-1.2862664458e+000
 5.6463533321e-001	 1.7091478619e+000	-1.2731393771e+000
 5.4675543847e-001	 1.7149512879e+000	-1.2575842723e+000
 5.2886140161e-001	 1.7205536997e+000	-1.2383969805e+000
 7.0939256355e-001	 1.6615679788e+000	-1.4179171861e+000
 6.9167808910e-001	 1.6690198551e+000	-1.3916657785e+000
 6.7392297967e-001	 1.6762677469e+000	-1.3688088269e+000
 6.5613060878e-001	 1.6833116901e+000	-1.3471688502e+000
 6.3830433385e-001	 1.6901517915e+000	-1.3299973685e+000
 6.2044749440e-001	 1.6967882283e+000	-1.3161685353e+000
 6.0256341033e-001	 1.7032212468e+000	-1.3040728178e+000
 5.8465538024e-001	 1.7094511619e+000	-1.2922338556e+000
 5.6672667974e-001	 1.7154783557e+000	-1.2792909965e+000
 5.4878055986e-001	 1.7213032769e+000	-1.2639835958e+000
 5.3082024548e-001	 1.7269264394e+000	-1.2451370728e+000
 7.1201037869e-001	 1.6676995314e+000	-1.4205378123e+000
 6.9423053391e-001	 1.6751789068e+000	-1.3954205962e+000
 6.7640990421e-001	 1.6824535449e+000	-1.3739110109e+000
 6.5855187555e-001	 1.6895234818e+000	-1.3532307840e+000
 6.4065981773e-001	 1.6963888247e+000	-1.3364027800e+000
 6.2273708260e-001	 1.7030497514e+000	-1.3228125117e+000
 6.0478700231e-001	 1.7095065091e+000	-1.3108958719e+000
 5.8681288764e-001	 1.7157594140e+000	-1.2992188997e+000
 5.6881802628e-001	 1.7218088495e+000	-1.2864600443e+000
 5.5080568126e-001	 1.7276552659e+000	-1.2713942509e+000
 5.3277908934e-001	 1.7332991791e+000	-1.2528788618e+000
 7.1462819382e-001	 1.6738310840e+000	-1.4237962520e+000
 6.9678297873e-001	 1.6813379584e+000	-1.3998251952e+000
 6.7889682875e-001	 1.6886393429e+000	-1.3796574376e+000
 6.6097314232e-001	 1.6957352735e+000	-1.3601048267e+000
 6.4301530161e-001	 1.7026258579e+000	-1.3436740698e+000
 6.2502667079e-001	 1.7093112744e+000	-1.3303584264e+000
 6.0701059429e-001	 1.7157917715e+000	-1.3186424846e+000
 5.8897039504e-001	 1.7220676661e+000	-1.3071377251e+000
 5.7090937281e-001	 1.7281393432e+000	-1.2945645067e+000
 5.5283080265e-001	 1.7340072550e+000	-1.2797359361e+000
 5.3473793321e-001	 1.7396719189e+000	-1.2615436101e+000
 7.1724600896e-001	 1.6799626365e+000	-1.4276175443e+000
 6.9933542354e-001	 1.6874970101e+000	-1.4048056797e+000
 6.8138375330e-001	 1.6948251409e+000	-1.3859749599e+000
 6.6339440908e-001	 1.7019470652e+000	-1.3677001954e+000
 6.4537078548e-001	 1.7088628910e+000	-1.3517224431e+000
 6.2731625899e-001	 1.7155727975e+000	-1.3387194098e+000
 6.0923418627e-001	 1.7220770338e+000	-1.3272276421e+000
 5.9112790243e-001	 1.7283759182e+000	-1.3159070935e+000
 5.7300071935e-001	 1.7344698370e+000	-1.3035228272e+000
 5.5485592404e-001	 1.7403592440e+000	-1.2889286657e+000
 5.3669677708e-001	 1.7460446586e+000	-1.2710527729e+000
 7.1986382409e-001	 1.6860941891e+000	-1.4319284635e+000
 7.0188786836e-001	 1.6936560617e+000	-1.4102898128e+000
 6.8387067784e-001	 1.7010109388e+000	-1.3927920144e+000
 6.6581567585e-001	 1.7081588568e+000	-1.3759275404e+000
 6.4772626936e-001	 1.7150999242e+000	-1.3604603189e+000
 6.2960584719e-001	 1.7218343206e+000	-1.3478096012e+000
 6.1145777826e-001	 1.7283622961e+000	-1.3365671488e+000
 5.9328540983e-001	 1.7346841702e+000	-1.3254444094e+000
 5.7509206589e-001	 1.7408003308e+000	-1.3132539329e+000
 5.5688104543e-001	 1.7467112330e+000	-1.2988927955e+000
 5.3865562095e-001	 1.7524173983e+000	-1.2813280206e+000
 7.2248163923e-001	 1.6922257417e+000	-1.4366575022e+000
 7.0444031317e-001	 1.6998151134e+000	-1.4162070010e+000
 6.8635760238e-001	 1.7071967368e+000	-1.4000386092e+000
 6.6823694262e-001	 1.7143706485e+000	-1.3846741830e+000
 6.5008175324e-001	 1.7213369574e+000	-1.3698013639e+000
 6.3189543539e-001	 1.7280958437e+000	-1.3575441803e+000
 6.1368137024e-001	 1.7346475585e+000	-1.3465776572e+000
 5.9544291723e-001	 1.7409924223e+000	-1.3356677493e+000
 5.7718341242e-001	 1.7471308246e+000	-1.3236772620e+000
 5.5890616683e-001	 1.7530632220e+000	-1.3095490479e+000
 5.4061446482e-001	 1.7587901381e+000	-1.2922912631e+000
 7.2509945436e-001	 1.6983572943e+000	-1.4417348551e+000
 7.0699275798e-001	 1.7059741650e+000	-1.4224882800e+000
 6.8884452692e-001	 1.7133825348e+000	-1.4076463103e+000
 6.7065820938e-001	 1.7205824402e+000	-1.3937721144e+000
 6.5243723711e-001	 1.7275739905e+000	-1.3796605253e+000
 6.3418502359e-001	 1.7343573668e+000	-1.3678393991e+000
 6.1590496222e-001	 1.7409328208e+000	-1.3571766986e+000
 5.9760042463e-001	 1.7473006744e+000	-1.3464958895e+000
 5.7927475896e-001	 1.7534613183e+000	-1.3347127902e+000
 5.6093128822e-001	 1.7594152110e+000	-1.3208185365e+000
 5.4257330869e-001	 1.7651628778e+000	-1.3038646722e+000
 7.2771726950e-001	 1.7044888469e+000	-1.4470924022e+000
 7.0954520280e-001	 1.7121332167e+000	-1.4290662999e+000
 6.9133145146e-001	 1.7195683327e+000	-1.4155482288e+000
 6.7307947615e-001	 1.7267942319e+000	-1.4031460532e+000
 6.5479272099e-001	 1.7338110237e+000	-1.3899540644e+000
 6.3647461179e-001	 1.7406188898e+000	-1.3786126133e+000
 6.1812855420e-001	 1.7472180831e+000	-1.3682827125e+000
 5.9975793202e-001	 1.7536089265e+000	-1.3578483349e+000
 5.8136610549e-001	 1.7597918121e+000	-1.3462810576e+000
 5.6295640961e-001	 1.7657672000e+000	-1.3326227919e+000
 5.4453215256e-001	 1.7715356175e+000	-1.3159707057e+000
 7.3033508463e-001	 1.7106203995e+000	-1.4526636931e+000
 7.1209764761e-001	 1.7182922683e+000	-1.4358753103e+000
 6.9381837601e-001	 1.7257541307e+000	-1.4236790078e+000
 6.7550074291e-001	 1.7330060235e+000	-1.4127307143e+000
 6.5714820487e-001	 1.7400480568e+000	-1.4005995897e+000
 6.3876419999e-001	 1.7468804129e+000	-1.3897823145e+000
 6.2035214618e-001	 1.7535033455e+000	-1.3798150774e+000
 6.0191543942e-001	 1.7599171786e+000	-1.3696453473e+000
 5.8345745203e-001	 1.7661223059e+000	-1.3583031953e+000
 5.6498153100e-001	 1.7721191891e+000	-1.3448837861e+000
 5.4649099642e-001	 1.7779083572e+000	-1.3285321300e+000
 7.3295289977e-001	 1.7167519521e+000	-1.4583839300e+000
 7.1465009243e-001	 1.7244513200e+000	-1.4428511464e+000
 6.9630530055e-001	 1.7319399287e+000	-1.4319748096e+000
 6.7792200968e-001	 1.7392178152e+000	-1.4224622680e+000
 6.5950368875e-001	 1.7462850900e+000	-1.4115160902e+000
 6.4105378818e-001	 1.7531419360e+000	-1.4012681613e+000
 6.2257573816e-001	 1.7597886078e+000	-1.3916941403e+000
 6.0407294682e-001	 1.7662254307e+000	-1.3818079741e+000
 5.8554879857e-001	 1.7724527997e+000	-1.3707009526e+000
 5.6700665240e-001	 1.7784711781e+000	-1.3575239579e+000
 5.4844984029e-001	 1.7842810970e+000	-1.3414720438e+000
 5.2886140161e-001	 1.7205536997e+000	-1.2383969805e+000
 5.1095640776e-001	 1.7259556728e+000	-1.2167955206e+000
 4.9304361203e-001	 1.7311578440e+000	-1.1950352182e+000
 4.7512613887e-001	 1.7361609110e+000	-1.1735441686e+000
 4.5720708096e-001	 1.7409656323e+000	-1.1527656537e+000
 4.3928949790e-001	 1.7455728252e+000	-1.1331507451e+000
 4.2137641493e-001	 1.7499833653e+000	-1.1151523754e+000
 4.0347082167e-001	 1.7541981846e+000	-1.0992207881e+000
 3.8557567101e-001	 1.7582182705e+000	-1.0858002678e+000
 3.6769387793e-001	 1.7620446643e+000	-1.0753270473e+000
 3.4982831845e-001	 1.7656784599e+000	-1.0682282824e+000
 5.3082024548e-001	 1.7269264394e+000	-1.2451370728e+000
 5.1284893352e-001	 1.7323484209e+000	-1.2239245797e+000
 4.9486979079e-001	 1.7375698603e+000	-1.2025370592e+000
 4.7688595330e-001	 1.7425914581e+000	-1.1813976359e+000
 4.5890052519e-001	 1.7474139755e+000	-1.1609411875e+000
 4.4091657739e-001	 1.7520382330e+000	-1.1416070731e+000
 4.2293714635e-001	 1.7564651093e+000	-1.1238333730e+000
 4.0496523277e-001	 1.7606955398e+000	-1.1080525427e+000
 3.8700380046e-001	 1.7647305157e+000	-1.0946883840e+000
 3.6905577520e-001	 1.7685710820e+000	-1.0841542223e+000
 3.5112404367e-001	 1.7722183367e+000	-1.0768521799e+000
 5.3277908934e-001	 1.7332991791e+000	-1.2528788618e+000
 5.1474145928e-001	 1.7387411689e+000	-1.2320433096e+000
 4.9669596954e-001	 1.7439818766e+000	-1.2110139227e+000
 4.7864576772e-001	 1.7490220052e+000	-1.1902088625e+000
 4.6059396942e-001	 1.7538623188e+000	-1.1700544797e+000
 4.4254365688e-001	 1.7585036408e+000	-1.1509781752e+000
 4.2449787777e-001	 1.7629468532e+000	-1.1334028125e+000
 4.0645964386e-001	 1.7671928950e+000	-1.1177425845e+000
 3.8843192990e-001	 1.7712427608e+000	-1.1044002318e+000
 3.7041767247e-001	 1.7750974996e+000	-1.0937654995e+000
 3.5241976890e-001	 1.7787582135e+000	-1.0862147173e+000
 5.3473793321e-001	 1.7396719189e+000	-1.2615436101e+000
 5.1663398504e-001	 1.7451339169e+000	-1.2410747152e+000
 4.9852214830e-001	 1.7503938929e+000	-1.2203910681e+000
 4.8040558215e-001	 1.7554525524e+000	-1.1999058609e+000
 4.6228741364e-001	 1.7603106621e+000	-1.1800367796e+000
 4.4417073638e-001	 1.7649690486e+000	-1.1611990011e+000
 4.2605860919e-001	 1.7694285972e+000	-1.1437997855e+000
 4.0795405495e-001	 1.7736902501e+000	-1.1282345625e+000
 3.8986005934e-001	 1.7777550059e+000	-1.1148844046e+000
 3.7177956974e-001	 1.7816239173e+000	-1.1041147721e+000
 3.5371549412e-001	 1.7852980904e+000	-1.0962754096e+000
 5.3669677708e-001	 1.7460446586e+000	-1.2710527729e+000
 5.1852651080e-001	 1.7515266650e+000	-1.2509418822e+000
 5.0034832706e-001	 1.7568059092e+000	-1.2305937307e+000
 4.8216539658e-001	 1.7618830995e+000	-1.2104165232e+000
 4.6398085787e-001	 1.7667590053e+000	-1.1908191264e+000
 4.4579781587e-001	 1.7714344564e+000	-1.1722042085e+000
 4.2761934061e-001	 1.7759103411e+000	-1.1549630167e+000
 4.0944846605e-001	 1.7801876053e+000	-1.1394716907e+000
 3.9128818879e-001	 1.7842672510e+000	-1.1260889996e+000
 3.7314146701e-001	 1.7881503349e+000	-1.1151553830e+000
 3.5501121934e-001	 1.7918379672e+000	-1.1069931732e+000
 5.3865562095e-001	 1.7524173983e+000	-1.2813280206e+000
 5.2041903657e-001	 1.7579194130e+000	-1.2615679986e+000
 5.0217450581e-001	 1.7632179255e+000	-1.2415471426e+000
 4.8392521100e-001	 1.7683136466e+000	-1.2216686395e+000
 4.6567430210e-001	 1.7732073486e+000	-1.2023323667e+000
 4.4742489536e-001	 1.7778998642e+000	-1.1839281787e+000
 4.2918007203e-001	 1.7823920850e+000	-1.1668308780e+000
 4.1094287714e-001	 1.7866849605e+000	-1.1513967617e+000
 3.9271631823e-001	 1.7907794961e+000	-1.1379616306e+000
 3.7450336428e-001	 1.7946767526e+000	-1.1268401361e+000
 3.5630694456e-001	 1.7983778440e+000	-1.1183263372e+000
 5.4061446482e-001	 1.7587901381e+000	-1.2922912631e+000
 5.2231156233e-001	 1.7643121611e+000	-1.2728763762e+000
 5.0400068457e-001	 1.7696299418e+000	-1.2531765520e+000
 4.8568502543e-001	 1.7747441937e+000	-1.2335899165e+000
 4.6736774632e-001	 1.7796556918e+000	-1.2145071712e+000
 4.4905197485e-001	 1.7843652720e+000	-1.1963050330e+000
 4.3074080346e-001	 1.7888738290e+000	-1.1793414040e+000
 4.1243728823e-001	 1.7931823156e+000	-1.1639521605e+000
 3.9414444767e-001	 1.7972917412e+000	-1.1504494412e+000
 3.7586526155e-001	 1.8012031702e+000	-1.1391213092e+000
 3.5760266978e-001	 1.8049177208e+000	-1.1302326548e+000
 5.4257330869e-001	 1.7651628778e+000	-1.3038646722e+000
 5.2420408809e-001	 1.7707049091e+000	-1.2847904724e+000
 5.0582686332e-001	 1.7760419581e+000	-1.2654072437e+000
 4.8744483986e-001	 1.7811747408e+000	-1.2461079960e+000
 4.6906119055e-001	 1.7861040351e+000	-1.2272740523e+000
 4.5067905434e-001	 1.7908306798e+000	-1.2092686479e+000
 4.3230153488e-001	 1.7953555729e+000	-1.1924323066e+000
 4.1393169933e-001	 1.7996796708e+000	-1.1770798784e+000
 3.9557257712e-001	 1.8038039863e+000	-1.1634991171e+000
 3.7722715882e-001	 1.8077295879e+000	-1.1519506657e+000
 3.5889839500e-001	 1.8114575977e+000	-1.1426693147e+000
 5.4453215256e-001	 1.7715356175e+000	-1.3159707057e+000
 5.2609661385e-001	 1.7770976571e+000	-1.2972339116e+000
 5.0765304208e-001	 1.7824539744e+000	-1.2781645591e+000
 4.8920465428e-001	 1.7876052879e+000	-1.2591504735e+000
 4.7075463478e-001	 1.7925523783e+000	-1.2405633809e+000
 4.5230613383e-001	 1.7972960875e+000	-1.2227526716e+000
 4.3386226630e-001	 1.8018373169e+000	-1.2060409893e+000
 4.1542611042e-001	 1.8061770260e+000	-1.1907215266e+000
 3.9700070656e-001	 1.8103162315e+000	-1.1770568994e+000
 3.7858905608e-001	 1.8142560055e+000	-1.1652794665e+000
 3.6019412023e-001	 1.8179974745e+000	-1.1555929525e+000
 5.4649099642e-001	 1.7779083572e+000	-1.3285321300e+000
 5.2798913961e-001	 1.7834904052e+000	-1.3101305071e+000
 5.0947922084e-001	 1.7888659907e+000	-1.2913739155e+000
 4.9096446871e-001	 1.7940358350e+000	-1.2726449164e+000
 4.7244807901e-001	 1.7990007216e+000	-1.2543054037e+000
 4.5393321332e-001	 1.8037614953e+000	-1.2366905394e+000
 4.3542299772e-001	 1.8083190608e+000	-1.2201045624e+000
 4.1692052151e-001	 1.8126743811e+000	-1.2048183497e+000
 3.9842883601e-001	 1.8168284766e+000	-1.1910685972e+000
 3.7995095335e-001	 1.8207824232e+000	-1.1790584819e+000
 3.6148984545e-001	 1.8245373513e+000	-1.1689596616e+000
 5.4844984029e-001	 1.7842810970e+000	-1.3414720438e+000
 5.2988166537e-001	 1.7898831532e+000	-1.3234042820e+000
 5.1130539959e-001	 1.7952780070e+000	-1.3049608268e+000
 4.9272428313e-001	 1.8004663821e+000	-1.2865188824e+000
 4.7414152323e-001	 1.8054490649e+000	-1.2684302598e+000
 4.5556029281e-001	 1.8102269031e+000	-1.2510154893e+000
 4.3698372914e-001	 1.8148008047e+000	-1.2345598571e+000
 4.1841493261e-001	 1.8191717363e+000	-1.2193112395e+000
 3.9985696545e-001	 1.8233407217e+000	-1.2054795997e+000
 3.8131285062e-001	 1.8273088409e+000	-1.1932380036e+000
 3.6278557067e-001	 1.8310772282e+000	-1.1827250046e+000
 3.4982831845e-001	 1.7656784599e+000	-1.0682282824e+000
 3.3198450320e-001	 1.7691203005e+000	-1.0626220471e+000
 3.1416254162e-001	 1.7723719412e+000	-1.0563750386e+000
 2.9636518172e-001	 1.7754346262e+000	-1.0495406052e+000
 2.7859512886e-001	 1.7783096463e+000	-1.0421845568e+000
 2.6085504500e-001	 1.7809983380e+000	-1.0343880660e+000
 2.4314754788e-001	 1.7835020816e+000	-1.0262509083e+000
 2.2547521034e-001	 1.7858223000e+000	-1.0178949290e+000
 2.0784055965e-001	 1.7879604570e+000	-1.0094676301e+000
 1.9024607689e-001	 1.7899180559e+000	-1.0011457744e+000
 1.7269419642e-001	 1.7916966383e+000	-9.9313890750e-001
 3.5112404367e-001	 1.7722183367e+000	-1.0768521799e+000
 3.3321413691e-001	 1.7756729255e+000	-1.0709258111e+000
 3.1532616477e-001	 1.7789366100e+000	-1.0642987925e+000
 2.9746288542e-001	 1.7820106388e+000	-1.0570442765e+000
 2.7962701426e-001	 1.7848963077e+000	-1.0492466067e+000
 2.6182122311e-001	 1.7875949580e+000	-1.0410045335e+000
 2.4404813938e-001	 1.7901079752e+000	-1.0324347748e+000
 2.2631034547e-001	 1.7924367874e+000	-1.0236758093e+000
 2.0861037799e-001	 1.7945828638e+000	-1.0148917896e+000
 1.9095072722e-001	 1.7965477135e+000	-1.0062764703e+000
 1.7333383654e-001	 1.7983328836e+000	-9.9805704958e-001
 3.5241976890e-001	 1.7787582135e+000	-1.0862147173e+000
 3.3444377062e-001	 1.7822255506e+000	-1.0799171500e+000
 3.1648978791e-001	 1.7855012787e+000	-1.0728551667e+000
 2.9856058912e-001	 1.7885866514e+000	-1.0651229964e+000
 2.8065889967e-001	 1.7914829690e+000	-1.0568245910e+000
 2.6278740121e-001	 1.7941915779e+000	-1.0480771645e+000
 2.4494873088e-001	 1.7967138687e+000	-1.0390150861e+000
 2.2714548059e-001	 1.7990512748e+000	-1.0297940105e+000
 2.0938019632e-001	 1.8012052707e+000	-1.0205951284e+000
 1.9165537755e-001	 1.8031773711e+000	-1.0116294311e+000
 1.7397347665e-001	 1.8049691289e+000	-1.0031418824e+000
 3.5371549412e-001	 1.7852980904e+000	-1.0962754096e+000
 3.3567340433e-001	 1.7887781756e+000	-1.0895609389e+000
 3.1765341106e-001	 1.7920659475e+000	-1.0820135347e+000
 2.9965829283e-001	 1.7951626639e+000	-1.0737497139e+000
 2.8169078507e-001	 1.7980696303e+000	-1.0648940480e+000
 2.6375357931e-001	 1.8007881979e+000	-1.0555830379e+000
 2.4584932238e-001	 1.8033197623e+000	-1.0459693499e+000
 2.2798061572e-001	 1.8056657621e+000	-1.0362262939e+000
 2.1015001466e-001	 1.8078276776e+000	-1.0265524244e+000
 1.9236002788e-001	 1.8098070287e+000	-1.0171761520e+000
 1.7461311676e-001	 1.8116053741e+000	-1.0083602582e+000
 3.5501121934e-001	 1.7918379672e+000	-1.1069931732e+000
 3.3690303805e-001	 1.7953308006e+000	-1.0998214198e+000
 3.1881703421e-001	 1.7986306162e+000	-1.0917426253e+000
 3.0075599653e-001	 1.8017386765e+000	-1.0828967429e+000
 2.8272267047e-001	 1.8046562917e+000	-1.0734299130e+000
 2.6471975741e-001	 1.8073848178e+000	-1.0634986831e+000
 2.4674991388e-001	 1.8099256558e+000	-1.0532745990e+000
 2.2881575084e-001	 1.8122802495e+000	-1.0429490427e+000
 2.1091983300e-001	 1.8144500845e+000	-1.0327381948e+000
 1.9306467821e-001	 1.8164366863e+000	-1.0228880059e+000
 1.7525275688e-001	 1.8182416194e+000	-1.0136790658e+000
 3.5630694456e-001	 1.7983778440e+000	-1.1183263372e+000
 3.3813267176e-001	 1.8018834256e+000	-1.1106622131e+000
 3.1998065735e-001	 1.8051952849e+000	-1.1020105325e+000
 3.0185370023e-001	 1.8083146891e+000	-1.0925357717e+000
 2.8375455587e-001	 1.8112429530e+000	-1.0824065257e+000
 2.6568593551e-001	 1.8139814378e+000	-1.0718000856e+000
 2.4765050538e-001	 1.8165315494e+000	-1.0609073958e+000
 2.2965088597e-001	 1.8188947369e+000	-1.0499382638e+000
 2.1168965134e-001	 1.8210724913e+000	-1.0391266959e+000
 1.9376932854e-001	 1.8230663439e+000	-1.0287362408e+000
 1.7589239699e-001	 1.8248778647e+000	-1.0190652256e+000
 3.5760266978e-001	 1.8049177208e+000	-1.1302326548e+000
 3.3936230547e-001	 1.8084360507e+000	-1.1220463276e+000
 3.2114428050e-001	 1.8117599537e+000	-1.1127847252e+000
 3.0295140394e-001	 1.8148907017e+000	-1.1026378707e+000
 2.8478644127e-001	 1.8178296144e+000	-1.0917976373e+000
 2.6665211362e-001	 1.8205780578e+000	-1.0804626929e+000
 2.4855109688e-001	 1.8231374429e+000	-1.0688438364e+000
 2.3048602109e-001	 1.8255092243e+000	-1.0571695903e+000
 2.1245946968e-001	 1.8276948982e+000	-1.0456919232e+000
 1.9447397886e-001	 1.8296960015e+000	-1.0346919774e+000
 1.7653203710e-001	 1.8315141099e+000	-1.0244856843e+000
 3.5889839500e-001	 1.8114575977e+000	-1.1426693147e+000
 3.4059193919e-001	 1.8149886757e+000	-1.1339361719e+000
 3.2230790365e-001	 1.8183246224e+000	-1.1240320567e+000
 3.0404910764e-001	 1.8214667143e+000	-1.1131735017e+000
 2.8581832668e-001	 1.8244162757e+000	-1.1015764180e+000
 2.6761829172e-001	 1.8271746777e+000	-1.0894614205e+000
 2.4945168838e-001	 1.8297433364e+000	-1.0770595543e+000
 2.3132115622e-001	 1.8321237116e+000	-1.0646182832e+000
 2.1322928802e-001	 1.8343173051e+000	-1.0524076112e+000
 1.9517862919e-001	 1.8363256591e+000	-1.0407262066e+000
 1.7717167722e-001	 1.8381503552e+000	-1.0299074097e+000
 3.6019412023e-001	 1.8179974745e+000	-1.1555929525e+000
 3.4182157290e-001	 1.8215413007e+000	-1.1462935640e+000
 3.2347152680e-001	 1.8248892912e+000	-1.1357187750e+000
 3.0514681134e-001	 1.8280427269e+000	-1.1241125264e+000
 2.8685021208e-001	 1.8310029370e+000	-1.1117154644e+000
 2.6858446982e-001	 1.8337712977e+000	-1.0987706576e+000
 2.5035227988e-001	 1.8363492300e+000	-1.0855297249e+000
 2.3215629134e-001	 1.8387381990e+000	-1.0722592342e+000
 2.1399910635e-001	 1.8409397119e+000	-1.0592472337e+000
 1.9588327952e-001	 1.8429553167e+000	-1.0468097872e+000
 1.7781131733e-001	 1.8447866005e+000	-1.0352973861e+000
 3.6148984545e-001	 1.8245373513e+000	-1.1689596616e+000
 3.4305120661e-001	 1.8280939257e+000	-1.1590797427e+000
 3.2463514994e-001	 1.8314539599e+000	-1.1478105314e+000
 3.0624451505e-001	 1.8346187395e+000	-1.1354242143e+000
 2.8788209748e-001	 1.8375895984e+000	-1.1221868065e+000
 2.6955064792e-001	 1.8403679176e+000	-1.1083642726e+000
 2.5125287139e-001	 1.8429551235e+000	-1.0942290696e+000
 2.3299142647e-001	 1.8453526864e+000	-1.0800669673e+000
 2.1476892469e-001	 1.8475621188e+000	-1.0661840038e+000
 1.9658792985e-001	 1.8495849743e+000	-1.0529134437e+000
 1.7845095745e-001	 1.8514228458e+000	-1.0406226093e+000
 3.6278557067e-001	 1.8310772282e+000	-1.1827250046e+000
 3.4428084032e-001	 1.8346465508e+000	-1.1722553772e+000
 3.2579877309e-001	 1.8380186287e+000	-1.1602723907e+000
 3.0734221875e-001	 1.8411947520e+000	-1.1470772518e+000
 2.8891398288e-001	 1.8441762597e+000	-1.1329619148e+000
 2.7051682603e-001	 1.8469645376e+000	-1.1182156191e+000
 2.5215346289e-001	 1.8495610171e+000	-1.1031318596e+000
 2.3382656160e-001	 1.8519671738e+000	-1.0880156414e+000
 2.1553874303e-001	 1.8541845257e+000	-1.0731908739e+000
 1.9729258018e-001	 1.8562146319e+000	-1.0590077644e+000
 1.7909059756e-001	 1.8580590910e+000	-1.0458500819e+000
 1.7269419642e-001	 1.7916966383e+000	-9.9313890750e-001
 1.5518468862e-001	 1.7932980092e+000	-9.8540175200e-001
 1.3772256031e-001	 1.7947235026e+000	-9.7796262486e-001
 1.2031013895e-001	 1.7959747663e+000	-9.7119107925e-001
 1.0294970236e-001	 1.7970534806e+000	-9.6549368992e-001
 8.5643478450e-002	 1.7979613563e+000	-9.6131578662e-001
 6.8393644910e-002	 1.7987001334e+000	-9.5914267329e-001
 5.1202329012e-002	 1.7992715798e+000	-9.5950028308e-001
 3.4071607418e-002	 1.7996774898e+000	-9.6295522722e-001
 1.7003506051e-002	 1.7999196823e+000	-9.7011420345e-001
 0.0000000000e+000	 1.8000000000e+000	-9.8162273446e-001
 1.7333383654e-001	 1.7983328836e+000	-9.9805704958e-001
 1.5575947546e-001	 1.7999401858e+000	-9.9017707007e-001
 1.3823266937e-001	 1.8013709590e+000	-9.8262556457e-001
 1.2075575433e-001	 1.8026268573e+000	-9.7575091194e-001
 1.0333101662e-001	 1.8037095671e+000	-9.6994236653e-001
 8.5960692376e-002	 1.8046208054e+000	-9.6563205576e-001
 6.8646967369e-002	 1.8053623189e+000	-9.6329644038e-001
 5.1391976747e-002	 1.8059358819e+000	-9.6345718580e-001
 3.4197804865e-002	 1.8063432953e+000	-9.6668140118e-001
 1.7066485147e-002	 1.8065863848e+000	-9.7358121088e-001
 0.0000000000e+000	 1.8066670000e+000	-9.8481262775e-001
 1.7397347665e-001	 1.8049691289e+000	-1.0031418824e+000
 1.5633426231e-001	 1.8065823623e+000	-9.9507148901e-001
 1.3874277843e-001	 1.8080184155e+000	-9.8737258669e-001
 1.2120136972e-001	 1.8092789483e+000	-9.8036945679e-001
 1.0371233087e-001	 1.8103656535e+000	-9.7443133613e-001
 8.6277906302e-002	 1.8112802545e+000	-9.6997468584e-001
 6.8900289829e-002	 1.8120245043e+000	-9.6746489886e-001
 5.1581624483e-002	 1.8126001839e+000	-9.6741739315e-001
 3.4324002311e-002	 1.8130091007e+000	-9.7039804577e-001
 1.7129464244e-002	 1.8132530874e+000	-9.7702293148e-001
 0.0000000000e+000	 1.8133340000e+000	-9.8795733400e-001
 1.7461311676e-001	 1.8116053741e+000	-1.0083602582e+000
 1.5690904915e-001	 1.8132245389e+000	-1.0000470793e+000
 1.3925288749e-001	 1.8146658719e+000	-9.9216208188e-001
 1.2164698510e-001	 1.8159310393e+000	-9.8500249093e-001
 1.0409364513e-001	 1.8170217399e+000	-9.7891479264e-001
 8.6595120228e-002	 1.8179397036e+000	-9.7429728137e-001
 6.9153612288e-002	 1.8186866897e+000	-9.7160202102e-001
 5.1771272218e-002	 1.8192644859e+000	-9.7133616578e-001
 3.4450199758e-002	 1.8196749062e+000	-9.7406259425e-001
 1.7192443340e-002	 1.8199197899e+000	-9.8039981927e-001
 0.0000000000e+000	 1.8200010000e+000	-9.9102114080e-001
 1.7525275688e-001	 1.8182416194e+000	-1.0136790658e+000
 1.5748383599e-001	 1.8198667155e+000	-1.0050661090e+000
 1.3976299655e-001	 1.8213133283e+000	-9.9695278134e-001
 1.2209260049e-001	 1.8225831303e+000	-9.8960625676e-001
 1.0447495939e-001	 1.8236778263e+000	-9.8334750087e-001
 8.6912334153e-002	 1.8245991527e+000	-9.7855410380e-001
 6.9406934747e-002	 1.8253488752e+000	-9.7566250188e-001
 5.1960919954e-002	 1.8259287879e+000	-9.7516953203e-001
 3.4576397204e-002	 1.8263407116e+000	-9.7763327099e-001
 1.7255422436e-002	 1.8265864924e+000	-9.8367312095e-001
 0.0000000000e+000	 1.8266680000e+000	-9.9396910741e-001
 1.7589239699e-001	 1.8248778647e+000	-1.0190652256e+000
 1.5805862283e-001	 1.8265088921e+000	-1.0100910355e+000
 1.4027310561e-001	 1.8279607848e+000	-1.0017037465e+000
 1.2253821587e-001	 1.8292352213e+000	-9.9413744973e-001
 1.0485627364e-001	 1.8303339127e+000	-9.8768478295e-001
 8.7229548080e-002	 1.8312586018e+000	-9.8270005684e-001
 6.9660257206e-002	 1.8320110606e+000	-9.7960174384e-001
 5.2150567690e-002	 1.8325930899e+000	-9.7887427224e-001
 3.4702594651e-002	 1.8330065171e+000	-9.8106907607e-001
 1.7318401533e-002	 1.8332531949e+000	-9.8680486091e-001
 0.0000000000e+000	 1.8333350000e+000	-9.9676705073e-001
 1.7653203710e-001	 1.8315141099e+000	-1.0244856843e+000
 1.5863340967e-001	 1.8331510686e+000	-1.0150844982e+000
 1.4078321467e-001	 1.8346082412e+000	-1.0063743592e+000
 1.2298383126e-001	 1.8358873122e+000	-9.9855320649e-001
 1.0523758790e-001	 1.8369899992e+000	-9.9188250497e-001
 8.7546762006e-002	 1.8379180509e+000	-9.8669067212e-001
 6.9913579666e-002	 1.8386732461e+000	-9.8337584167e-001
 5.2340215426e-002	 1.8392573919e+000	-9.8240790357e-001
 3.4828792098e-002	 1.8396723226e+000	-9.8432977008e-001
 1.7381380629e-002	 1.8399198974e+000	-9.8975782663e-001
 0.0000000000e+000	 1.8400020000e+000	-9.9938153154e-001
 1.7717167722e-001	 1.8381503552e+000	-1.0299074097e+000
 1.5920819652e-001	 1.8397932452e+000	-1.0200093101e+000
 1.4129332373e-001	 1.8412556977e+000	-1.0109243113e+000
 1.2342944664e-001	 1.8425394032e+000	-1.0028110933e+000
 1.0561890216e-001	 1.8436460856e+000	-9.9589706396e-001
 8.7863975933e-002	 1.8445774999e+000	-9.9048209516e-001
 7.0166902126e-002	 1.8453354315e+000	-9.8694156788e-001
 5.2529863162e-002	 1.8459216940e+000	-9.8572866504e-001
 3.4954989546e-002	 1.8463381280e+000	-9.8737585937e-001
 1.7444359726e-002	 1.8465865999e+000	-9.9249555440e-001
 0.0000000000e+000	 1.8466690000e+000	-1.0017798411e+000
 1.7781131733e-001	 1.8447866005e+000	-1.0352973861e+000
 1.5978298336e-001	 1.8464354218e+000	-1.0248284513e+000
 1.4180343279e-001	 1.8479031541e+000	-1.0153135957e+000
 1.2387506203e-001	 1.8491914942e+000	-1.0068690945e+000
 1.0600021642e-001	 1.8503021720e+000	-9.9968537522e-001
 8.8181189860e-002	 1.8512369490e+000	-9.9403107160e-001
 7.0420224587e-002	 1.8519976169e+000	-9.9025635834e-001
 5.2719510899e-002	 1.8525859960e+000	-9.8879550291e-001
 3.5081186993e-002	 1.8530039335e+000	-9.9016858154e-001
 1.7507338823e-002	 1.8532533024e+000	-9.9498231527e-001
 0.0000000000e+000	 1.8533360000e+000	-1.0039299881e+000
 1.7845095745e-001	 1.8514228458e+000	-1.0406226093e+000
 1.6035777020e-001	 1.8530775984e+000	-1.0295050608e+000
 1.4231354185e-001	 1.8545506105e+000	-1.0195024969e+000
 1.2432067742e-001	 1.8558435852e+000	-1.0106856019e+000
 1.0638153067e-001	 1.8569582584e+000	-1.0032048598e+000
 8.8498403788e-002	 1.8578963981e+000	-9.9729493382e-001
 7.0673547048e-002	 1.8586598024e+000	-9.9327829821e-001
 5.2909158637e-002	 1.8592502980e+000	-9.9156805644e-001
 3.5207384442e-002	 1.8596697389e+000	-9.9266989129e-001
 1.7570317920e-002	 1.8599200050e+000	-9.9718310146e-001
 0.0000000000e+000	 1.8600030000e+000	-1.0058006855e+000
 1.7909059756e-001	 1.8580590910e+000	-1.0458500819e+000
 1.6093255705e-001	 1.8597197749e+000	-1.0340024302e+000
 1.4282365091e-001	 1.8611980670e+000	-1.0234515814e+000
 1.2476629280e-001	 1.8624956762e+000	-1.0142194033e+000
 1.0676284493e-001	 1.8636143449e+000	-1.0064134324e+000
 8.8815617717e-002	 1.8645558472e+000	-1.0002315878e+000
 7.0926869510e-002	 1.8653219878e+000	-9.9596610828e-001
 5.3098806374e-002	 1.8659146000e+000	-9.9400664389e-001
 3.5333581890e-002	 1.8663355444e+000	-9.9484244657e-001
 1.7633297017e-002	 1.8665867075e+000	-9.9906361285e-001
 0.0000000000e+000	 1.8666700000e+000	-1.0073613383e+000
 1.8666700000e+000	 0.0000000000e+000	 2.9242268800e+000
 1.8665867075e+000	 1.7633297017e-002	 2.9335094988e+000
 1.8663355444e+000	 3.5333581890e-002	 2.9359749008e+000
 1.8659146000e+000	 5.3098806374e-002	 2.9325781840e+000
 1.8653219878e+000	 7.0926869510e-002	 2.9243283640e+000
 1.8645558472e+000	 8.8815617717e-002	 2.9122845222e+000
 1.8636143449e+000	 1.0676284493e-001	 2.8975510208e+000
 1.8624956762e+000	 1.2476629280e-001	 2.8812718121e+000
 1.8611980670e+000	 1.4282365091e-001	 2.8646238780e+000
 1.8597197749e+000	 1.6093255705e-001	 2.8488098403e+000
 1.8580590910e+000	 1.7909059756e-001	 2.8350497972e+000
 1.8733360003e+000	 0.0000000000e+000	 2.9148526965e+000
 1.8732524103e+000	 1.7696266671e-002	 2.9244471739e+000
 1.8730003503e+000	 3.5459760416e-002	 2.9270635810e+000
 1.8725779027e+000	 5.3288425675e-002	 2.9236796538e+000
 1.8719831743e+000	 7.1180153987e-002	 2.9153308753e+000
 1.8712142977e+000	 8.9132784080e-002	 2.9031064283e+000
 1.8702694332e+000	 1.0714410201e-001	 2.8881441782e+000
 1.8691467697e+000	 1.2521184137e-001	 2.8716247177e+000
 1.8678445266e+000	 1.4333368348e-001	 2.8547645063e+000
 1.8663609555e+000	 1.6150725770e-001	 2.8388081489e+000
 1.8646943412e+000	 1.7973014176e-001	 2.8250198681e+000
 1.8800020022e+000	 0.0000000000e+000	 2.9064198343e+000
 1.8799181148e+000	 1.7759236341e-002	 2.9161200893e+000
 1.8796651579e+000	 3.5585938973e-002	 2.9187203150e+000
 1.8792412070e+000	 5.3478045024e-002	 2.9152172602e+000
 1.8786443624e+000	 7.1433438528e-002	 2.9066690245e+000
 1.8778727499e+000	 8.9449950523e-002	 2.8941908083e+000
 1.8769245232e+000	 1.0752535919e-001	 2.8789496575e+000
 1.8757978648e+000	 1.2565739005e-001	 2.8621582359e+000
 1.8744909879e+000	 1.4384371618e-001	 2.8450676578e+000
 1.8730021377e+000	 1.6208195850e-001	 2.8289594265e+000
 1.8713295930e+000	 1.8036968613e-001	 2.8151365355e+000
 1.8866680075e+000	 0.0000000000e+000	 2.8988456864e+000
 1.8865838226e+000	 1.7822206042e-002	 2.9084685163e+000
 1.8863299688e+000	 3.5712117594e-002	 2.9109046815e+000
 1.8859045147e+000	 5.3667664468e-002	 2.9071663805e+000
 1.8853055538e+000	 7.1686723195e-002	 2.8983305457e+000
 1.8845312054e+000	 8.9767117125e-002	 2.8855343839e+000
 1.8835796165e+000	 1.0790661656e-001	 2.8699698760e+000
 1.8824489633e+000	 1.2610293895e-001	 2.8528772697e+000
 1.8811374526e+000	 1.4435374913e-001	 2.8355375978e+000
 1.8796433233e+000	 1.6265665959e-001	 2.8192642696e+000
 1.8779648482e+000	 1.8100923081e-001	 2.8053937913e+000
 1.8933340178e+000	 0.0000000000e+000	 2.8920481605e+000
 1.8932495355e+000	 1.7885175791e-002	 2.9014330884e+000
 1.8929947847e+000	 3.5838296309e-002	 2.9035764996e+000
 1.8925678274e+000	 5.3857284054e-002	 2.8995025414e+000
 1.8919667502e+000	 7.1940008053e-002	 2.8903032624e+000
 1.8911896659e+000	 9.0084283965e-002	 2.8771339363e+000
 1.8902347148e+000	 1.0828787422e-001	 2.8612073106e+000
 1.8891000668e+000	 1.2654848819e-001	 2.8437868114e+000
 1.8877839222e+000	 1.4486378247e-001	 2.8261787406e+000
 1.8862845138e+000	 1.6323136111e-001	 2.8097235116e+000
 1.8846001083e+000	 1.8164877597e-001	 2.7957859815e+000
 1.9000000347e+000	 0.0000000000e+000	 2.8859456705e+000
 1.8999152550e+000	 1.7948145602e-002	 2.8949547957e+000
 1.8996596073e+000	 3.5964475151e-002	 2.8966958266e+000
 1.8992311468e+000	 5.4046903829e-002	 2.8922014197e+000
 1.8986279533e+000	 7.2193293164e-002	 2.8825750896e+000
 1.8978481330e+000	 9.0401451122e-002	 2.8689863095e+000
 1.8968898198e+000	 1.0866913225e-001	 2.8526645014e+000
 1.8957511769e+000	 1.2699403787e-001	 2.8348919463e+000
 1.8944303985e+000	 1.4537381632e-001	 2.8169956516e+000
 1.8929257110e+000	 1.6380606320e-001	 2.8003382237e+000
 1.8912353750e+000	 1.8228832177e-001	 2.7863078046e+000
 1.9066660600e+000	 0.0000000000e+000	 2.8804571272e+000
 1.9065809828e+000	 1.8011115493e-002	 2.8889749805e+000
 1.9063244382e+000	 3.6090654150e-002	 2.8902229561e+000
 1.9058944744e+000	 5.4236523842e-002	 2.8852388422e+000
 1.9052891647e+000	 7.2446578592e-002	 2.8751340356e+000
 1.9045066085e+000	 9.0718618676e-002	 2.8610884131e+000
 1.9035449331e+000	 1.0905039076e-001	 2.8443440552e+000
 1.9024022953e+000	 1.2743958811e-001	 2.8261978552e+000
 1.9010768830e+000	 1.4588385080e-001	 2.8079930488e+000
 1.8995669165e+000	 1.6438076601e-001	 2.7911097151e+000
 1.8978706501e+000	 1.8292786837e-001	 2.7769543090e+000
 1.9133320953e+000	 0.0000000000e+000	 2.8755019299e+000
 1.9132467206e+000	 1.8074085477e-002	 2.8834353316e+000
 1.9129892791e+000	 3.6216833339e-002	 2.8841184163e+000
 1.9125578121e+000	 5.4426144139e-002	 2.8785907869e+000
 1.9119503861e+000	 7.2699864399e-002	 2.8679682047e+000
 1.9111650939e+000	 9.1035786705e-002	 2.8534372251e+000
 1.9102000564e+000	 1.0943164985e-001	 2.8362486482e+000
 1.9090534238e+000	 1.2788513902e-001	 2.8177098174e+000
 1.9077233776e+000	 1.4639388605e-001	 2.7991758049e+000
 1.9062081319e+000	 1.6495546969e-001	 2.7820395326e+000
 1.9045059351e+000	 1.8356741594e-001	 2.7677208911e+000
 1.9199981422e+000	 0.0000000000e+000	 2.8709999582e+000
 1.9199124701e+000	 1.8137055572e-002	 2.8782778804e+000
 1.9196541316e+000	 3.6343012748e-002	 2.8783429680e+000
 1.9192211615e+000	 5.4615764767e-002	 2.8722333824e+000
 1.9186116192e+000	 7.2953150649e-002	 2.8610657983e+000
 1.9178235910e+000	 9.1352955289e-002	 2.8460297955e+000
 1.9168551913e+000	 1.0981290960e-001	 2.8283810296e+000
 1.9157045638e+000	 1.2833069071e-001	 2.8094332135e+000
 1.9143698837e+000	 1.4690392219e-001	 2.7905489493e+000
 1.9128493590e+000	 1.6553017437e-001	 2.7731294612e+000
 1.9111412317e+000	 1.8420696462e-001	 2.7586032935e+000
 1.9266642025e+000	 0.0000000000e+000	 2.8668715630e+000
 1.9265782329e+000	 1.8200025792e-002	 2.8734449954e+000
 1.9263189975e+000	 3.6469192408e-002	 2.8728576027e+000
 1.9258845241e+000	 5.4805385774e-002	 2.8661429094e+000
 1.9252728656e+000	 7.3206437406e-002	 2.8544151175e+000
 1.9244821015e+000	 9.1670124506e-002	 2.8388632482e+000
 1.9235103395e+000	 1.1019417011e-001	 2.8207440245e+000
 1.9223557172e+000	 1.2877624329e-001	 2.8013735278e+000
 1.9210164032e+000	 1.4741395936e-001	 2.7821176690e+000
 1.9194905993e+000	 1.6610488020e-001	 2.7643815243e+000
 1.9177765415e+000	 1.8484651457e-001	 2.7495976028e+000
 1.9333302777e+000	 0.0000000000e+000	 2.8630375590e+000
 1.9332440107e+000	 1.8262996154e-002	 2.8688793781e+000
 1.9329838784e+000	 3.6595372353e-002	 2.8676235409e+000
 1.9325479018e+000	 5.4995007207e-002	 2.8602958001e+000
 1.9319341269e+000	 7.3459724731e-002	 2.8480045647e+000
 1.9311406269e+000	 9.1987294436e-002	 2.8319347844e+000
 1.9301655027e+000	 1.1057543148e-001	 2.8133405367e+000
 1.9290068855e+000	 1.2922179687e-001	 2.7935363513e+000
 1.9276629376e+000	 1.4792399767e-001	 2.7738873110e+000
 1.9261318546e+000	 1.6667958732e-001	 2.7557979831e+000
 1.9244118663e+000	 1.8548606597e-001	 2.7407002472e+000
 1.8580590910e+000	 1.7909059756e-001	 2.8350497972e+000
 1.8562146319e+000	 1.9729258018e-001	 2.8208545863e+000
 1.8541845257e+000	 2.1553874303e-001	 2.8029765677e+000
 1.8519671738e+000	 2.3382656160e-001	 2.7814932570e+000
 1.8495610171e+000	 2.5215346289e-001	 2.7564504135e+000
 1.8469645376e+000	 2.7051682603e-001	 2.7278525521e+000
 1.8441762597e+000	 2.8891398288e-001	 2.6956532803e+000
 1.8411947520e+000	 3.0734221875e-001	 2.6597455873e+000
 1.8380186287e+000	 3.2579877309e-001	 2.6199522210e+000
 1.8346465508e+000	 3.4428084032e-001	 2.5760162960e+000
 1.8310772282e+000	 3.6278557067e-001	 2.5275922873e+000
 1.8646943412e+000	 1.7973014176e-001	 2.8250198681e+000
 1.8628432954e+000	 1.9799712485e-001	 2.8109424493e+000
 1.8608059395e+000	 2.1630844594e-001	 2.7933090109e+000
 1.8585806693e+000	 2.3466157149e-001	 2.7721664994e+000
 1.8561659201e+000	 2.5305391934e-001	 2.7475308213e+000
 1.8535601684e+000	 2.7148285925e-001	 2.7193770046e+000
 1.8507619334e+000	 2.8994571355e-001	 2.6876291690e+000
 1.8477697786e+000	 3.0843975785e-001	 2.6521504358e+000
 1.8445823130e+000	 3.2696222175e-001	 2.6127329149e+000
 1.8411981932e+000	 3.4551028965e-001	 2.5690879185e+000
 1.8376161243e+000	 3.6408110160e-001	 2.5208365556e+000
 1.8713295930e+000	 1.8036968613e-001	 2.8151365355e+000
 1.8694719605e+000	 1.9870166970e-001	 2.8011750359e+000
 1.8674273550e+000	 2.1707814904e-001	 2.7837927235e+000
 1.8651941665e+000	 2.3549658160e-001	 2.7630044113e+000
 1.8627708247e+000	 2.5395437603e-001	 2.7387947077e+000
 1.8601558008e+000	 2.7244889272e-001	 2.7111078224e+000
 1.8573476087e+000	 2.9097744448e-001	 2.6798371650e+000
 1.8543448067e+000	 3.0953729723e-001	 2.6448148703e+000
 1.8511459990e+000	 3.2812567071e-001	 2.6058013905e+000
 1.8477498373e+000	 3.4673973929e-001	 2.5624753068e+000
 1.8441550221e+000	 3.6537663285e-001	 2.5144235197e+000
 1.8779648482e+000	 1.8100923081e-001	 2.8053937913e+000
 1.8761006290e+000	 1.9940621489e-001	 2.7915385193e+000
 1.8740487738e+000	 2.1784785252e-001	 2.7744065472e+000
 1.8718076670e+000	 2.3633159213e-001	 2.7539790638e+000
 1.8693757327e+000	 2.5485483316e-001	 2.7302080083e+000
 1.8667514365e+000	 2.7341492667e-001	 2.7030055157e+000
 1.8639332873e+000	 2.9200917593e-001	 2.6722331392e+000
 1.8609198381e+000	 3.1063483716e-001	 2.6376909843e+000
 1.8577096883e+000	 3.2928912024e-001	 2.5991069006e+000
 1.8543014847e+000	 3.4796918954e-001	 2.5561258855e+000
 1.8506939232e+000	 3.6667216475e-001	 2.5082998634e+000
 1.8846001083e+000	 1.8164877597e-001	 2.7957859815e+000
 1.8827293024e+000	 2.0011076062e-001	 2.7820195495e+000
 1.8806701976e+000	 2.1861755658e-001	 2.7651299052e+000
 1.8784211724e+000	 2.3716660328e-001	 2.7450631968e+000
 1.8759806455e+000	 2.5575529097e-001	 2.7217373978e+000
 1.8733470772e+000	 2.7438096134e-001	 2.6950313874e+000
 1.8705189709e+000	 2.9304090815e-001	 2.6647737911e+000
 1.8674948745e+000	 3.1173237791e-001	 2.6307317186e+000
 1.8642733825e+000	 3.3045257065e-001	 2.5925995482e+000
 1.8608531370e+000	 3.4919864071e-001	 2.5499879157e+000
 1.8572328292e+000	 3.6796769762e-001	 2.5024130760e+000
 1.8912353750e+000	 1.8228832177e-001	 2.7863078046e+000
 1.8893579825e+000	 2.0081530705e-001	 2.7726052483e+000
 1.8872916280e+000	 2.1938726141e-001	 2.7559427955e+000
 1.8850346845e+000	 2.3800161526e-001	 2.7362302107e+000
 1.8825855650e+000	 2.5665574968e-001	 2.7133502796e+000
 1.8799427245e+000	 2.7534699698e-001	 2.6871475202e+000
 1.8771046610e+000	 2.9407264140e-001	 2.6574166351e+000
 1.8740699175e+000	 3.1282991975e-001	 2.6238908473e+000
 1.8708370833e+000	 3.3161602222e-001	 2.5862302707e+000
 1.8674047958e+000	 3.5042809312e-001	 2.5440104778e+000
 1.8637717417e+000	 3.6926323179e-001	 2.4967114357e+000
 1.8978706501e+000	 1.8292786837e-001	 2.7769543090e+000
 1.8959866708e+000	 2.0151985436e-001	 2.7632832052e+000
 1.8939130667e+000	 2.2015696721e-001	 2.7468257842e+000
 1.8916482048e+000	 2.3883662830e-001	 2.7274541572e+000
 1.8891904928e+000	 2.5755620951e-001	 2.7050147753e+000
 1.8865383800e+000	 2.7631303383e-001	 2.6793167650e+000
 1.8836903594e+000	 2.9510437594e-001	 2.6501199869e+000
 1.8806449686e+000	 3.1392746297e-001	 2.6171229626e+000
 1.8774007923e+000	 3.3277947524e-001	 2.5799508247e+000
 1.8739564628e+000	 3.5165754706e-001	 2.5381434563e+000
 1.8703106624e+000	 3.7055876757e-001	 2.4911439936e+000
 1.9045059351e+000	 1.8356741594e-001	 2.7677208911e+000
 1.9026153691e+000	 2.0222440273e-001	 2.7540414728e+000
 1.9005345152e+000	 2.2092667415e-001	 2.7377599983e+000
 1.8982617351e+000	 2.3967164258e-001	 2.7187097304e+000
 1.8957954305e+000	 2.5845667070e-001	 2.6966997135e+000
 1.8931340454e+000	 2.7727907213e-001	 2.6715027281e+000
 1.8902760676e+000	 2.9613611203e-001	 2.6428429497e+000
 1.8872200297e+000	 3.1502500784e-001	 2.6103834602e+000
 1.8839645111e+000	 3.3394293001e-001	 2.5737137704e+000
 1.8805081397e+000	 3.5288700284e-001	 2.5323375234e+000
 1.8768495929e+000	 3.7185430530e-001	 2.4856605572e+000
 1.9111412317e+000	 1.8420696462e-001	 2.7586032935e+000
 1.9092440790e+000	 2.0292895234e-001	 2.7448685621e+000
 1.9071559754e+000	 2.2169638245e-001	 2.7287271193e+000
 1.9048752769e+000	 2.4050665832e-001	 2.7099722583e+000
 1.9024003797e+000	 2.5935713346e-001	 2.6883746199e+000
 1.8997297224e+000	 2.7824511211e-001	 2.6636697598e+000
 1.8968617874e+000	 2.9716784992e-001	 2.6355454015e+000
 1.8937951022e+000	 3.1612255462e-001	 2.6036285253e+000
 1.8905282414e+000	 3.3510638682e-001	 2.5674724564e+000
 1.8870598280e+000	 3.5411646077e-001	 2.5265441238e+000
 1.8833885349e+000	 3.7314984530e-001	 2.4802116748e+000
 1.9177765415e+000	 1.8484651457e-001	 2.7495976028e+000
 1.9158728021e+000	 2.0363350335e-001	 2.7357534384e+000
 1.9137774489e+000	 2.2246609228e-001	 2.7197093767e+000
 1.9114888319e+000	 2.4134167574e-001	 2.7012176945e+000
 1.9090053421e+000	 2.6025759802e-001	 2.6800097069e+000
 1.9063254126e+000	 2.7921115403e-001	 2.6557829421e+000
 1.9034475203e+000	 2.9819958988e-001	 2.6281879812e+000
 1.9003701879e+000	 3.1722010361e-001	 2.5968151183e+000
 1.8970919848e+000	 3.3626984595e-001	 2.5611810050e+000
 1.8936115294e+000	 3.5534592117e-001	 2.5207154588e+000
 1.8899274899e+000	 3.7444538788e-001	 2.4747486201e+000
 1.9244118663e+000	 1.8548606597e-001	 2.7407002472e+000
 1.9225015401e+000	 2.0433805594e-001	 2.7266855167e+000
 1.9203989372e+000	 2.2323580385e-001	 2.7106895416e+000
 1.9181024018e+000	 2.4217669503e-001	 2.6924226094e+000
 1.9156103194e+000	 2.6115806461e-001	 2.6715758633e+000
 1.9129211175e+000	 2.8017719813e-001	 2.6478080773e+000
 1.9100332680e+000	 2.9923133216e-001	 2.6207320768e+000
 1.9069452883e+000	 3.1831765506e-001	 2.5899009609e+000
 1.9036557430e+000	 3.3743330770e-001	 2.5547942976e+000
 1.9001632456e+000	 3.5657538433e-001	 2.5148044715e+000
 1.8964664596e+000	 3.7574093339e-001	 2.4692233760e+000
 1.8310772282e+000	 3.6278557067e-001	 2.5275922873e+000
 1.8273088409e+000	 3.8131285062e-001	 2.4759882302e+000
 1.8233407217e+000	 3.9985696545e-001	 2.4227886278e+000
 1.8191717363e+000	 4.1841493261e-001	 2.3678886995e+000
 1.8148008047e+000	 4.3698372914e-001	 2.3110727542e+000
 1.8102269031e+000	 4.5556029281e-001	 2.2520090318e+000
 1.8054490649e+000	 4.7414152323e-001	 2.1902459401e+000
 1.8004663821e+000	 4.9272428313e-001	 2.1252098675e+000
 1.7952780070e+000	 5.1130539959e-001	 2.0562047530e+000
 1.7898831532e+000	 5.2988166537e-001	 1.9824135891e+000
 1.7842810970e+000	 5.4844984029e-001	 1.9029020327e+000
 1.8376161243e+000	 3.6408110160e-001	 2.5208365556e+000
 1.8338342799e+000	 3.8267454367e-001	 2.4692753196e+000
 1.8298519903e+000	 4.0128488075e-001	 2.4160255449e+000
 1.8256681172e+000	 4.1990911961e-001	 2.3610179016e+000
 1.8212815767e+000	 4.3854422653e-001	 2.3040685727e+000
 1.8166913414e+000	 4.5718712832e-001	 2.2448736038e+000
 1.8118964412e+000	 4.7583471353e-001	 2.1830046678e+000
 1.8068959649e+000	 4.9448383368e-001	 2.1179064317e+000
 1.8016890618e+000	 5.1313130451e-001	 2.0488957104e+000
 1.7962749426e+000	 5.3177390735e-001	 1.9751625898e+000
 1.7906528811e+000	 5.5040839043e-001	 1.8957736979e+000
 1.8441550221e+000	 3.6537663285e-001	 2.5144235197e+000
 1.8403597205e+000	 3.8403623707e-001	 2.4629252552e+000
 1.8363632605e+000	 4.0271279640e-001	 2.4096342416e+000
 1.8321644997e+000	 4.2140330699e-001	 2.3545177122e+000
 1.8277623504e+000	 4.4010472431e-001	 2.2974247606e+000
 1.8231557813e+000	 4.5881396423e-001	 2.2380801842e+000
 1.8183438191e+000	 4.7752790424e-001	 2.1760797648e+000
 1.8133255494e+000	 4.9624338466e-001	 2.1108871759e+000
 1.8081001182e+000	 5.1495720989e-001	 2.0418327084e+000
 1.8026667337e+000	 5.3366614979e-001	 1.9681140025e+000
 1.7970246668e+000	 5.5236694106e-001	 1.8887989670e+000
 1.8506939232e+000	 3.6667216475e-001	 2.5082998634e+000
 1.8468851644e+000	 3.8539793114e-001	 2.4568845176e+000
 1.8428745340e+000	 4.0414071276e-001	 2.4035609669e+000
 1.8386608854e+000	 4.2289749512e-001	 2.3483341677e+000
 1.8342431272e+000	 4.4166522287e-001	 2.2910872070e+000
 1.8296202245e+000	 4.6044080096e-001	 2.2315746261e+000
 1.8247912003e+000	 4.7922109581e-001	 2.1694172031e+000
 1.8197551370e+000	 4.9800293652e-001	 2.1040983883e+000
 1.8145111779e+000	 5.1678311618e-001	 2.0349625896e+000
 1.8090585279e+000	 5.3555839319e-001	 1.9612154999e+000
 1.8033964557e+000	 5.5432549267e-001	 1.8819266546e+000
 1.8572328292e+000	 3.6796769762e-001	 2.5024130760e+000
 1.8534106132e+000	 3.8675962624e-001	 2.4511003550e+000
 1.8493858124e+000	 4.0556863020e-001	 2.3977527007e+000
 1.8451572761e+000	 4.2439168437e-001	 2.3424140013e+000
 1.8407239090e+000	 4.4322572260e-001	 2.2850024667e+000
 1.8360846725e+000	 4.6206763891e-001	 2.2253034200e+000
 1.8312385863e+000	 4.8091428864e-001	 2.1629635677e+000
 1.8261847295e+000	 4.9976248970e-001	 2.0974869501e+000
 1.8209222423e+000	 5.1860902383e-001	 2.0282327734e+000
 1.8154503269e+000	 5.3745063800e-001	 1.9544153207e+000
 1.8097682494e+000	 5.5628404575e-001	 1.8751061361e+000
 1.8637717417e+000	 3.6926323179e-001	 2.4967114357e+000
 1.8599360686e+000	 3.8812132269e-001	 2.4455207663e+000
 1.8558970973e+000	 4.0699654907e-001	 2.3921571377e+000
 1.8516536732e+000	 4.2588587511e-001	 2.3367046264e+000
 1.8472046972e+000	 4.4478622389e-001	 2.2791177431e+000
 1.8425491270e+000	 4.6369447849e-001	 2.2192136770e+000
 1.8376859787e+000	 4.8260748317e-001	 2.1566660397e+000
 1.8326143285e+000	 5.0152204464e-001	 2.0910003182e+000
 1.8273333131e+000	 5.2043493332e-001	 2.0215912395e+000
 1.8218421324e+000	 5.3934288471e-001	 1.9476622536e+000
 1.8161400495e+000	 5.5824260078e-001	 1.8682873316e+000
 1.8703106624e+000	 3.7055876757e-001	 2.4911439936e+000
 1.8664615320e+000	 3.8948302085e-001	 2.4400944850e+000
 1.8624083903e+000	 4.0842446971e-001	 2.3867226702e+000
 1.8581500784e+000	 4.2738006772e-001	 2.3311541203e+000
 1.8536854935e+000	 4.4634672713e-001	 2.2733808724e+000
 1.8490135895e+000	 4.6532132009e-001	 2.2132531125e+000
 1.8441333793e+000	 4.8430067981e-001	 2.1504723804e+000
 1.8390439354e+000	 5.0328160178e-001	 2.0845865095e+000
 1.8337443920e+000	 5.2226084509e-001	 2.0149865123e+000
 1.8282339458e+000	 5.4123513378e-001	 1.9409056214e+000
 1.8225118575e+000	 5.6020115826e-001	 1.8614206904e+000
 1.8768495929e+000	 3.7185430530e-001	 2.4856605572e+000
 1.8729870053e+000	 3.9084472105e-001	 2.4347709628e+000
 1.8689196931e+000	 4.0985239251e-001	 2.3813983728e+000
 1.8646464934e+000	 4.2887426257e-001	 2.3257112080e+000
 1.8601662995e+000	 4.4790723271e-001	 2.2677403066e+000
 1.8554780617e+000	 4.6694816414e-001	 2.2073700301e+000
 1.8505807894e+000	 4.8599387900e-001	 2.1443309147e+000
 1.8454735520e+000	 5.0504116156e-001	 2.0781940846e+000
 1.8401554805e+000	 5.2408675959e-001	 2.0083676442e+000
 1.8346257688e+000	 5.4312738569e-001	 1.9340952648e+000
 1.8288836751e+000	 5.6215971869e-001	 1.8544571753e+000
 1.8833885349e+000	 3.7314984530e-001	 2.4802116748e+000
 1.8795124900e+000	 3.9220642363e-001	 2.4295003540e+000
 1.8754310073e+000	 4.1128031780e-001	 2.3761339854e+000
 1.8711429198e+000	 4.3036846003e-001	 2.3203252459e+000
 1.8666471169e+000	 4.4946774102e-001	 2.2621450979e+000
 1.8619425453e+000	 4.6857501104e-001	 2.2015133051e+000
 1.8570282109e+000	 4.8768708114e-001	 2.1381905151e+000
 1.8519031799e+000	 5.0680072441e-001	 2.0717721315e+000
 1.8465665802e+000	 5.2591267729e-001	 2.0016842000e+000
 1.8410176030e+000	 5.4501964091e-001	 1.9271815269e+000
 1.8352555038e+000	 5.6411828254e-001	 1.8473482468e+000
 1.8899274899e+000	 3.7444538788e-001	 2.4747486201e+000
 1.8860379877e+000	 3.9356812894e-001	 2.4242334994e+000
 1.8819423345e+000	 4.1270824594e-001	 2.3708798983e+000
 1.8776393591e+000	 4.3186266048e-001	 2.3149462061e+000
 1.8731279472e+000	 4.5102825245e-001	 2.2565448828e+000
 1.8684070418e+000	 4.7020186119e-001	 2.1956323692e+000
 1.8634756452e+000	 4.8938028667e-001	 2.1320005859e+000
 1.8583328206e+000	 5.0856029079e-001	 2.0652702503e+000
 1.8529776927e+000	 5.2773859865e-001	 1.9948862415e+000
 1.8474094499e+000	 5.4691189992e-001	 1.9201152377e+000
 1.8416273453e+000	 5.6607685030e-001	 1.8400458481e+000
 1.8964664596e+000	 3.7574093339e-001	 2.4692233760e+000
 1.8925635002e+000	 3.9492983731e-001	 2.4189219110e+000
 1.8884536763e+000	 4.1413617730e-001	 2.3655871361e+000
 1.8841358131e+000	 4.3335686430e-001	 2.3095246608e+000
 1.8796087921e+000	 4.5258876740e-001	 2.2508898662e+000
 1.8748715528e+000	 4.7182871500e-001	 2.1896771941e+000
 1.8699230941e+000	 4.9107349602e-001	 2.1257110474e+000
 1.8647624757e+000	 5.1031986113e-001	 2.0586385371e+000
 1.8593888196e+000	 5.2956452411e-001	 1.9879243115e+000
 1.8538013113e+000	 5.4880416318e-001	 1.9128476985e+000
 1.8479992011e+000	 5.6803542248e-001	 1.8325023896e+000
 1.7842810970e+000	 5.4844984029e-001	 1.9029020327e+000
 1.7784711781e+000	 5.6700665240e-001	 1.8175502566e+000
 1.7724527997e+000	 5.8554879857e-001	 1.7266490496e+000
 1.7662254307e+000	 6.0407294682e-001	 1.6297218235e+000
 1.7597886078e+000	 6.2257573816e-001	 1.5262041731e+000
 1.7531419360e+000	 6.4105378818e-001	 1.4154589109e+000
 1.7462850900e+000	 6.5950368875e-001	 1.2967940454e+000
 1.7392178152e+000	 6.7792200968e-001	 1.1717382337e+000
 1.7319399287e+000	 6.9630530055e-001	 1.0499467593e+000
 1.7244513200e+000	 7.1465009243e-001	 9.3483894041e-001
 1.7167519521e+000	 7.3295289977e-001	 8.2896350424e-001
 1.7906528811e+000	 5.5040839043e-001	 1.8957736979e+000
 1.7848222146e+000	 5.6903147012e-001	 1.8105419512e+000
 1.7787823442e+000	 5.8763983150e-001	 1.7196578743e+000
 1.7725327369e+000	 6.0623013070e-001	 1.6225864323e+000
 1.7660729277e+000	 6.2479899671e-001	 1.5186978841e+000
 1.7594025202e+000	 6.4334303306e-001	 1.4072828157e+000
 1.7525211879e+000	 6.6185881942e-001	 1.2875701856e+000
 1.7454286754e+000	 6.8034291338e-001	 1.1620628905e+000
 1.7381247991e+000	 6.9879185218e-001	 1.0400648111e+000
 1.7306094481e+000	 7.1720215450e-001	 9.2448977469e-001
 1.7228825852e+000	 7.3557032236e-001	 8.1784279589e-001
 1.7970246668e+000	 5.5236694106e-001	 1.8887989670e+000
 1.7911732527e+000	 5.7105628835e-001	 1.8036350323e+000
 1.7851118903e+000	 5.8973086496e-001	 1.7127146598e+000
 1.7788400447e+000	 6.0838731512e-001	 1.6154450718e+000
 1.7723572491e+000	 6.2702225582e-001	 1.5111317128e+000
 1.7656631059e+000	 6.4563227851e-001	 1.3989932730e+000
 1.7587572874e+000	 6.6421395068e-001	 1.2781797940e+000
 1.7516395372e+000	 6.8276381768e-001	 1.1523628727e+000
 1.7443096711e+000	 7.0127840442e-001	 1.0301176373e+000
 1.7367675777e+000	 7.1975421722e-001	 9.1403555830e-001
 1.7290132199e+000	 7.3818774561e-001	 8.0657760306e-001
 1.8033964557e+000	 5.5432549267e-001	 1.8819266546e+000
 1.7975242940e+000	 5.7308110760e-001	 1.7967797858e+000
 1.7914414395e+000	 5.9182189947e-001	 1.7057715003e+000
 1.7851473556e+000	 6.1054450061e-001	 1.6082520000e+000
 1.7786415737e+000	 6.2924551604e-001	 1.5034624505e+000
 1.7719236947e+000	 6.4792152510e-001	 1.3905499875e+000
 1.7649933900e+000	 6.6656908312e-001	 1.2685858770e+000
 1.7578504021e+000	 6.8518472320e-001	 1.1425998805e+000
 1.7504945461e+000	 7.0376495792e-001	 1.0200690752e+000
 1.7429257104e+000	 7.2230628121e-001	 9.0344230537e-001
 1.7351438576e+000	 7.4080517017e-001	 7.9513614019e-001
 1.8097682494e+000	 5.5628404575e-001	 1.8751061361e+000
 1.8038753401e+000	 5.7510592836e-001	 1.7899270586e+000
 1.7977709935e+000	 5.9391293554e-001	 1.6987810587e+000
 1.7914546712e+000	 6.1270168773e-001	 1.6009620577e+000
 1.7849259030e+000	 6.3146877793e-001	 1.4956474928e+000
 1.7781842883e+000	 6.5021077341e-001	 1.3819132983e+000
 1.7712294972e+000	 6.6892421733e-001	 1.2588302676e+000
 1.7640612716e+000	 6.8760563052e-001	 1.1327358727e+000
 1.7566794258e+000	 7.0625151328e-001	 1.0098832217e+000
 1.7490838478e+000	 7.2485834711e-001	 8.9267629018e-001
 1.7412745000e+000	 7.4342259669e-001	 7.8348688140e-001
 1.8161400495e+000	 5.5824260078e-001	 1.8682873316e+000
 1.8102263925e+000	 5.7713075115e-001	 1.7830282438e+000
 1.8041005539e+000	 5.9600397371e-001	 1.6916965514e+000
 1.7977619931e+000	 6.1485887700e-001	 1.5935306538e+000
 1.7912102385e+000	 6.3369204205e-001	 1.4876448255e+000
 1.7844448881e+000	 6.5250002401e-001	 1.3730441641e+000
 1.7774656107e+000	 6.7127935389e-001	 1.2489709808e+000
 1.7702721473e+000	 6.9002654028e-001	 1.1227330644e+000
 1.7628643116e+000	 7.0873807112e-001	 9.9952443125e-001
 1.7552419912e+000	 7.2741041557e-001	 8.8170404471e-001
 1.7474051485e+000	 7.4604002583e-001	 7.7159855819e-001
 1.8225118575e+000	 5.6020115826e-001	 1.8614206904e+000
 1.8165774529e+000	 5.7915557646e-001	 1.7760352644e+000
 1.8104301221e+000	 5.9809501449e-001	 1.6844717325e+000
 1.8040693229e+000	 6.1701606897e-001	 1.5859137500e+000
 1.7974945819e+000	 6.3591530894e-001	 1.4794130100e+000
 1.7907054957e+000	 6.5478927747e-001	 1.3639041497e+000
 1.7837017320e+000	 6.7363449339e-001	 1.2389686595e+000
 1.7764830308e+000	 6.9244745305e-001	 1.1125539238e+000
 1.7690492052e+000	 7.1122463208e-001	 9.8895731294e-001
 1.7614001424e+000	 7.2996248722e-001	 8.7049235630e-001
 1.7535358046e+000	 7.4865745824e-001	 7.5944015720e-001
 1.8288836751e+000	 5.6215971869e-001	 1.8544571753e+000
 1.8229285227e+000	 5.8118040482e-001	 1.7689005584e+000
 1.8167596998e+000	 6.0018605841e-001	 1.6770608795e+000
 1.8103766622e+000	 6.1917326418e-001	 1.5780678466e+000
 1.8037789348e+000	 6.3813857916e-001	 1.4709111688e+000
 1.7969661127e+000	 6.5707853436e-001	 1.3544554120e+000
 1.7899378627e+000	 6.7598963643e-001	 1.2287839345e+000
 1.7826939237e+000	 6.9486836946e-001	 1.1021611700e+000
 1.7752341081e+000	 7.1371119676e-001	 9.7814672818e-001
 1.7675583029e+000	 7.3251456269e-001	 8.5900826541e-001
 1.7596664699e+000	 7.5127489458e-001	 7.4698091813e-001
 1.8352555038e+000	 5.6411828254e-001	 1.8473482468e+000
 1.8292796037e+000	 5.8320523672e-001	 1.7615770634e+000
 1.8230892887e+000	 6.0227710598e-001	 1.6694187779e+000
 1.8166840126e+000	 6.2133046316e-001	 1.5699499677e+000
 1.8100632986e+000	 6.4036185328e-001	 1.4620989718e+000
 1.8032267407e+000	 6.5936779526e-001	 1.3446606864e+000
 1.7961740043e+000	 6.7834478359e-001	 1.2183776824e+000
 1.7889048274e+000	 6.9728929011e-001	 1.0915177706e+000
 1.7814190218e+000	 7.1619776580e-001	 9.6705778847e-001
 1.7737164741e+000	 7.3506664264e-001	 8.4721906350e-001
 1.7657971460e+000	 7.5389233550e-001	 7.3419033169e-001
 1.8416273453e+000	 5.6607685030e-001	 1.8400458481e+000
 1.8356306974e+000	 5.8523007267e-001	 1.7540182015e+000
 1.8294188901e+000	 6.0436815774e-001	 1.6615007062e+000
 1.8229913755e+000	 6.2348766645e-001	 1.5615176466e+000
 1.8163476750e+000	 6.4258513184e-001	 1.4529366218e+000
 1.8094873812e+000	 6.6165706074e-001	 1.3344832731e+000
 1.8024101583e+000	 6.8069993546e-001	 1.2077110232e+000
 1.7951157435e+000	 6.9971021559e-001	 1.0805869389e+000
 1.7876039479e+000	 7.1868433980e-001	 9.5565585323e-001
 1.7798746576e+000	 7.3761872768e-001	 8.3509229097e-001
 1.7719278343e+000	 7.5650978165e-001	 7.2103813768e-001
 1.8479992011e+000	 5.6803542248e-001	 1.8325023896e+000
 1.8419818054e+000	 5.8725491317e-001	 1.7461778643e+000
 1.8357485059e+000	 6.0645921420e-001	 1.6532624220e+000
 1.8292987526e+000	 6.2564487460e-001	 1.5527289118e+000
 1.8226320656e+000	 6.4480841541e-001	 1.4433848409e+000
 1.8157480358e+000	 6.6394633137e-001	 1.3238870236e+000
 1.8086463264e+000	 6.8305509263e-001	 1.1967453177e+000
 1.8013266735e+000	 7.0213114653e-001	 1.0693321322e+000
 1.7937888879e+000	 7.2117091941e-001	 9.4390652769e-001
 1.7860328549e+000	 7.4017081847e-001	 8.2259573525e-001
 1.7780585364e+000	 7.5912723369e-001	 7.0749432318e-001
 1.7167519521e+000	 7.3295289977e-001	 8.2896350424e-001
 1.7088430646e+000	 7.5120748753e-001	 7.2725258507e-001
 1.7007236318e+000	 7.6941309341e-001	 6.2310362360e-001
 1.6923938428e+000	 7.8756619588e-001	 5.1680934536e-001
 1.6838539628e+000	 8.0566326455e-001	 4.0869743265e-001
 1.6751043343e+000	 8.2370076214e-001	 2.9913061275e-001
 1.6661453766e+000	 8.4167514655e-001	 1.8850612203e-001
 1.6569775872e+000	 8.5958287290e-001	 7.7254520867e-002
 1.6476015416e+000	 8.7742039566e-001	-3.4162161084e-002
 1.6380178941e+000	 8.9518417073e-001	-1.4525296337e-001
 1.6282273774e+000	 9.1287065757e-001	-2.5550122542e-001
 1.7228825852e+000	 7.3557032236e-001	 8.1784279589e-001
 1.7149454546e+000	 7.5389009844e-001	 7.1533489732e-001
 1.7067970268e+000	 7.7216071773e-001	 6.1064512138e-001
 1.6984374915e+000	 7.9037864612e-001	 5.0402795741e-001
 1.6898671151e+000	 8.0854034060e-001	 3.9577436987e-001
 1.6810862410e+000	 8.2664225127e-001	 2.8621201017e-001
 1.6720952903e+000	 8.4468082337e-001	 1.7570478788e-001
 1.6628947622e+000	 8.6265249938e-001	 6.4651774759e-002
 1.6534852341e+000	 8.8055372110e-001	-4.6514579191e-002
 1.6438673628e+000	 8.9838093177e-001	-1.5733093267e-001
 1.6340418836e+000	 9.1613057821e-001	-2.6730625193e-001
 1.7290132199e+000	 7.3818774561e-001	 8.0657760306e-001
 1.7210478461e+000	 7.5657271003e-001	 7.0323786451e-001
 1.7128704233e+000	 7.7490834274e-001	 5.9798102270e-001
 1.7044811418e+000	 7.9319109705e-001	 4.9102281554e-001
 1.6958802689e+000	 8.1141741736e-001	 3.8261698322e-001
 1.6870681493e+000	 8.2958374113e-001	 2.7305560573e-001
 1.6780452056e+000	 8.4768650095e-001	 1.6266878256e-001
 1.6688119386e+000	 8.6572212664e-001	 5.1823627251e-002
 1.6593689281e+000	 8.8368704733e-001	-5.9077444927e-002
 1.6497168329e+000	 9.0157769361e-001	-1.6959915186e-001
 1.6398563911e+000	 9.1939049966e-001	-2.7927651137e-001
 1.7351438576e+000	 7.4080517017e-001	 7.9513614019e-001
 1.7271502407e+000	 7.5925532296e-001	 6.9093182426e-001
 1.7189438228e+000	 7.7765596912e-001	 5.8508361374e-001
 1.7105247951e+000	 7.9600354940e-001	 4.7776796846e-001
 1.7018934257e+000	 8.1429449557e-001	 3.6920088762e-001
 1.6930500606e+000	 8.3252523246e-001	 2.5963837497e-001
 1.6839951238e+000	 8.5069218003e-001	 1.4937622862e-001
 1.6747291181e+000	 8.6879175542e-001	 3.8749127340e-002
 1.6652526251e+000	 8.8682037512e-001	-7.1871009152e-002
 1.6555663060e+000	 9.0477445704e-001	-1.8207740247e-001
 1.6456709016e+000	 9.2265042274e-001	-2.9143155015e-001
 1.7412745000e+000	 7.4342259669e-001	 7.8348688140e-001
 1.7332526398e+000	 7.6193793790e-001	 6.7838737380e-001
 1.7250172269e+000	 7.8040359757e-001	 5.7192544174e-001
 1.7165684529e+000	 7.9881600386e-001	 4.6423772883e-001
 1.7079065870e+000	 8.1717157593e-001	 3.5550196626e-001
 1.6990319764e+000	 8.3546672600e-001	 2.4593756741e-001
 1.6899450465e+000	 8.5369786137e-001	 1.3580552958e-001
 1.6806463019e+000	 8.7186138651e-001	 2.5407613346e-002
 1.6711363264e+000	 8.8995370526e-001	-8.4915223706e-002
 1.6614157835e+000	 9.0797122288e-001	-1.9478515601e-001
 1.6514854165e+000	 9.2591034827e-001	-3.0379059222e-001
 1.7474051485e+000	 7.4604002583e-001	 7.7159855819e-001
 1.7393550451e+000	 7.6462055553e-001	 6.6557536774e-001
 1.7310906370e+000	 7.8315122876e-001	 5.5847931272e-001
 1.7226121168e+000	 8.0162846112e-001	 4.5040667096e-001
 1.7139197543e+000	 8.2004865918e-001	 3.4149636809e-001
 1.7050138981e+000	 8.3840822249e-001	 2.3193070378e-001
 1.6958949752e+000	 8.5670354571e-001	 1.2193536696e-001
 1.6865634917e+000	 8.7493102067e-001	 1.1778709593e-002
 1.6770200337e+000	 8.9308703854e-001	-9.8229745175e-002
 1.6672652668e+000	 9.1116799191e-001	-2.0774157820e-001
 1.6572999371e+000	 9.2917027706e-001	-3.1637254400e-001
 1.7535358046e+000	 7.4865745824e-001	 7.5944015720e-001
 1.7454574580e+000	 7.6730317651e-001	 6.5246691590e-001
 1.7371640548e+000	 7.8589886339e-001	 5.4471828940e-001
 1.7286557882e+000	 8.0444092191e-001	 4.3624962858e-001
 1.7199329292e+000	 8.2292574601e-001	 3.2716050553e-001
 1.7109958273e+000	 8.4134972265e-001	 2.1759557353e-001
 1.7018449112e+000	 8.5970923381e-001	 1.0774469743e-001
 1.6924806889e+000	 8.7800065867e-001	-2.1576768296e-003
 1.6829037483e+000	 8.9622037573e-001	-1.1183393856e-001
 1.6731147574e+000	 9.1436476494e-001	-2.2096553319e-001
 1.6631144651e+000	 9.3243020992e-001	-3.2919599909e-001
 1.7596664699e+000	 7.5127489458e-001	 7.4698091813e-001
 1.7515598800e+000	 7.6998580151e-001	 6.3903338130e-001
 1.7432374816e+000	 7.8864650214e-001	 5.3061568911e-001
 1.7346994686e+000	 8.0725338691e-001	 4.2174169271e-001
 1.7259461130e+000	 8.2580283717e-001	 3.1247105218e-001
 1.7169777655e+000	 8.4429122722e-001	 2.0291023232e-001
 1.7077948562e+000	 8.6271492641e-001	 9.3212749992e-002
 1.6983978950e+000	 8.8107030127e-001	-1.6421359207e-002
 1.6887874717e+000	 8.9935371762e-001	-1.2574688087e-001
 1.6789642568e+000	 9.1756154277e-001	-2.3447558763e-001
 1.6689290017e+000	 9.3569014768e-001	-3.4227924297e-001
 1.7657971460e+000	 7.5389233550e-001	 7.3419033169e-001
 1.7576623127e+000	 7.7266843121e-001	 6.2524637817e-001
 1.7493109191e+000	 7.9139414570e-001	 5.1614508185e-001
 1.7407431597e+000	 8.1006585683e-001	 4.0685820965e-001
 1.7319593074e+000	 8.2867993336e-001	 2.9740494061e-001
 1.7229597142e+000	 8.4723273694e-001	 1.8785299958e-001
 1.7137448117e+000	 8.6572062428e-001	 7.8319023326e-002
 1.7043151114e+000	 8.8413994925e-001	-3.1031874259e-002
 1.6946712054e+000	 9.0248706500e-001	-1.3998736460e-001
 1.6848137665e+000	 9.2075832619e-001	-2.4829001466e-001
 1.6747435485e+000	 9.3895009114e-001	-3.5564025759e-001
 1.7719278343e+000	 7.5650978165e-001	 7.2103813768e-001
 1.7637647576e+000	 7.7535106627e-001	 6.1107777012e-001
 1.7553843688e+000	 7.9414179475e-001	 5.0128028840e-001
 1.7467868629e+000	 8.1287833238e-001	 3.9157477900e-001
 1.7379725138e+000	 8.3155703530e-001	 2.8193936028e-001
 1.7289416748e+000	 8.5017425254e-001	 1.7240245624e-001
 1.7196947790e+000	 8.6872632816e-001	 6.3043283154e-002
 1.7102323396e+000	 8.8720960336e-001	-4.6008485111e-002
 1.7005549509e+000	 9.0562041864e-001	-1.5457390113e-001
 1.6906632878e+000	 9.2395511600e-001	-2.6242679783e-001
 1.6805581070e+000	 9.4221004111e-001	-3.6929672579e-001
 1.7780585364e+000	 7.5912723369e-001	 7.0749432318e-001
 1.7698672163e+000	 7.7803370737e-001	 5.9649966833e-001
 1.7614578321e+000	 7.9688944998e-001	 4.8599537853e-001
 1.7528305796e+000	 8.1569081426e-001	 3.7586725182e-001
 1.7439857337e+000	 8.3443414372e-001	 2.6605175554e-001
 1.7349236489e+000	 8.5311577476e-001	 1.5653744243e-001
 1.7256447597e+000	 8.7173203880e-001	 4.7365559719e-002
 1.7161495812e+000	 8.9027926438e-001	-6.1370184181e-002
 1.7064387096e+000	 9.0875377933e-001	-1.6952472405e-001
 1.6965128223e+000	 9.2715191300e-001	-2.7690363492e-001
 1.6863726785e+000	 9.4546999843e-001	-3.8326603572e-001
 1.6282273774e+000	 9.1287065757e-001	-2.5550122542e-001
 1.6182292887e+000	 9.3047895642e-001	-3.6378657293e-001
 1.6080259736e+000	 9.4800288052e-001	-4.6903774433e-001
 1.5976184039e+000	 9.6543891248e-001	-5.7083383942e-001
 1.5870076307e+000	 9.8278354723e-001	-6.6874485598e-001
 1.5761947839e+000	 1.0000332942e+000	-7.6233795198e-001
 1.5651810725e+000	 1.0171846795e+000	-8.5118440074e-001
 1.5539677840e+000	 1.0342342481e+000	-9.3486660734e-001
 1.5425562842e+000	 1.0511785662e+000	-1.0129868661e+000
 1.5309480169e+000	 1.0680142231e+000	-1.0851751421e+000
 1.5191445034e+000	 1.0847378337e+000	-1.1510981389e+000
 1.6340418836e+000	 9.1613057821e-001	-2.6730625193e-001
 1.6240080910e+000	 9.3380175744e-001	-3.7532619942e-001
 1.6137683392e+000	 9.5138826061e-001	-4.8030401082e-001
 1.6033236034e+000	 9.6888655778e-001	-5.8181006026e-001
 1.5926749384e+000	 9.8629313135e-001	-6.7940515274e-001
 1.5818234783e+000	 1.0036044783e+000	-7.7264691897e-001
 1.5707704362e+000	 1.0208171123e+000	-8.6109688581e-001
 1.5595171043e+000	 1.0379275660e+000	-9.4432780748e-001
 1.5480648533e+000	 1.0549323934e+000	-1.0219323699e+000
 1.5364151321e+000	 1.0718281715e+000	-1.0935313372e+000
 1.5245694675e+000	 1.0886115032e+000	-1.1587827857e+000
 1.6398563911e+000	 9.1939049966e-001	-2.7927651137e-001
 1.6297868948e+000	 9.3712455930e-001	-3.8700696065e-001
 1.6195107062e+000	 9.5477364156e-001	-4.9169285227e-001
 1.6090288043e+000	 9.7233420394e-001	-5.9289451548e-001
 1.5983422476e+000	 9.8980271635e-001	-6.9016218939e-001
 1.5874521740e+000	 1.0071756633e+000	-7.8304255525e-001
 1.5763598012e+000	 1.0244495460e+000	-8.7108592995e-001
 1.5650664259e+000	 1.0416208849e+000	-9.5385390628e-001
 1.5535734237e+000	 1.0586862215e+000	-1.0309280277e+000
 1.5418822487e+000	 1.0756421209e+000	-1.1019182944e+000
 1.5299944329e+000	 1.0924851737e+000	-1.1664725731e+000
 1.6456709016e+000	 9.2265042274e-001	-2.9143155015e-001
 1.6355657014e+000	 9.4044736281e-001	-3.9884824762e-001
 1.6252530761e+000	 9.5815902419e-001	-5.0322344001e-001
 1.6147340081e+000	 9.7578185183e-001	-6.0410610981e-001
 1.6040095595e+000	 9.9331230311e-001	-7.0103457375e-001
 1.5930808726e+000	 1.0107468500e+000	-7.9354324032e-001
 1.5819491691e+000	 1.0280819815e+000	-8.8116951834e-001
 1.5706157504e+000	 1.0453142056e+000	-9.6346259260e-001
 1.5590819969e+000	 1.0624400515e+000	-1.0399912605e+000
 1.5473493680e+000	 1.0794560722e+000	-1.1103532080e+000
 1.5354194010e+000	 1.0963588462e+000	-1.1741845221e+000
 1.6514854165e+000	 9.2591034827e-001	-3.0379059222e-001
 1.6413445124e+000	 9.4377016882e-001	-4.1086911733e-001
 1.6309954503e+000	 9.6154440937e-001	-5.1491460263e-001
 1.6204392161e+000	 9.7922950231e-001	-6.1546339906e-001
 1.6096768758e+000	 9.9682189250e-001	-7.1204056073e-001
 1.5987095754e+000	 1.0143180395e+000	-8.0416671333e-001
 1.5875385411e+000	 1.0317144198e+000	-8.9136528071e-001
 1.5761650790e+000	 1.0490075291e+000	-9.7317120065e-001
 1.5645905742e+000	 1.0661938843e+000	-1.0491391361e+000
 1.5528164913e+000	 1.0832700263e+000	-1.1188529212e+000
 1.5408443732e+000	 1.1002325215e+000	-1.1819353051e+000
 1.6572999371e+000	 9.2917027706e-001	-3.1637254400e-001
 1.6471233291e+000	 9.4709297814e-001	-4.2308829829e-001
 1.6367378303e+000	 9.6492979793e-001	-5.2678483213e-001
 1.6261444299e+000	 9.8267715623e-001	-6.2698459689e-001
 1.6153441977e+000	 1.0003314854e+000	-7.2319805975e-001
 1.6043382838e+000	 1.0178892325e+000	-8.1493069055e-001
 1.5931279188e+000	 1.0353468617e+000	-9.0169050002e-001
 1.5817144131e+000	 1.0527008562e+000	-9.8299671925e-001
 1.5700991571e+000	 1.0699477209e+000	-1.0583883793e+000
 1.5582836202e+000	 1.0870839843e+000	-1.1274339370e+000
 1.5462693509e+000	 1.1041062007e+000	-1.1897412571e+000
 1.6631144651e+000	 9.3243020992e-001	-3.2919599909e-001
 1.6529021531e+000	 9.5041579163e-001	-4.3552419589e-001
 1.6424802174e+000	 9.6831519072e-001	-5.3885228990e-001
 1.6318496508e+000	 9.8612481446e-001	-6.3868758137e-001
 1.6210115266e+000	 1.0038410827e+000	-7.3452464194e-001
 1.6099669992e+000	 1.0214604300e+000	-8.2585242726e-001
 1.5987173034e+000	 1.0389793081e+000	-9.1216212102e-001
 1.5872637542e+000	 1.0563941880e+000	-9.9295580109e-001
 1.5756077468e+000	 1.0737015622e+000	-1.0677553817e+000
 1.5637507559e+000	 1.0908979470e+000	-1.1361124286e+000
 1.5516943353e+000	 1.1079798848e+000	-1.1976183869e+000
 1.6689290017e+000	 9.3569014768e-001	-3.4227924297e-001
 1.6586809857e+000	 9.5373861009e-001	-4.4819489771e-001
 1.6482226131e+000	 9.7170058859e-001	-5.5113481261e-001
 1.6375548802e+000	 9.8957247787e-001	-6.5058990156e-001
 1.6266788641e+000	 1.0073506852e+000	-7.4603754733e-001
 1.6155957231e+000	 1.0250316329e+000	-8.3694884745e-001
 1.6043066964e+000	 1.0426117600e+000	-9.2279675864e-001
 1.5928131036e+000	 1.0600875253e+000	-1.0030647717e+000
 1.5811163448e+000	 1.0774554091e+000	-1.0772562113e+000
 1.5692178998e+000	 1.0947119154e+000	-1.1449042500e+000
 1.5571193278e+000	 1.1118535746e+000	-1.2055823885e+000
 1.6747435485e+000	 9.3895009114e-001	-3.5564025759e-001
 1.6644598284e+000	 9.5706143438e-001	-4.6111817866e-001
 1.6539650189e+000	 9.7508599238e-001	-5.6364991804e-001
 1.6432601196e+000	 9.9302014731e-001	-6.6270878386e-001
 1.6323462115e+000	 1.0108602939e+000	-7.5775371265e-001
 1.6212244569e+000	 1.0286028419e+000	-8.4823655149e-001
 1.6098960992e+000	 1.0462442182e+000	-9.3361070623e-001
 1.5983624627e+000	 1.0637808691e+000	-1.0133396385e+000
 1.5866249524e+000	 1.0812092626e+000	-1.0869066224e+000
 1.5746850532e+000	 1.0985258906e+000	-1.1538249463e+000
 1.5625443299e+000	 1.1157272713e+000	-1.2136486521e+000
 1.6805581070e+000	 9.4221004111e-001	-3.6929672579e-001
 1.6702386827e+000	 9.6038426530e-001	-4.7431150608e-001
 1.6597074362e+000	 9.7847140295e-001	-5.7641481071e-001
 1.6489653704e+000	 9.9646782364e-001	-6.7506113833e-001
 1.6380135702e+000	 1.0143699096e+000	-7.6968966298e-001
 1.6268532019e+000	 1.0321740582e+000	-8.5973182359e-001
 1.6154855131e+000	 1.0498766837e+000	-9.4461994374e-001
 1.6039118329e+000	 1.0674742203e+000	-1.0237960995e+000
 1.5921335711e+000	 1.0849631235e+000	-1.0967220648e+000
 1.5801522176e+000	 1.1023398733e+000	-1.1628897635e+000
 1.5679693428e+000	 1.1196009757e+000	-1.2218322746e+000
 1.6863726785e+000	 9.4546999843e-001	-3.8326603572e-001
 1.6760175500e+000	 9.6370710370e-001	-4.8779204473e-001
 1.6654498664e+000	 9.8185682113e-001	-5.8944638747e-001
 1.6546706341e+000	 9.9991550773e-001	-6.8766356482e-001
 1.6436809417e+000	 1.0178795332e+000	-7.8186174195e-001
 1.6324819595e+000	 1.0357452825e+000	-8.7145063924e-001
 1.6210749397e+000	 1.0535091574e+000	-9.5584014573e-001
 1.6094612156e+000	 1.0711675798e+000	-1.0344495519e+000
 1.5976422021e+000	 1.0887169930e+000	-1.1067176932e+000
 1.5856193943e+000	 1.1061538646e+000	-1.1721136588e+000
 1.5733943679e+000	 1.1234746888e+000	-1.2301480706e+000
 1.5191445034e+000	 1.0847378337e+000	-1.1510981389e+000
 1.5071473413e+000	 1.1013460402e+000	-1.2128874265e+000
 1.4949582030e+000	 1.1178355132e+000	-1.2725375375e+000
 1.4825788362e+000	 1.1342029546e+000	-1.3295819083e+000
 1.4700110632e+000	 1.1504451007e+000	-1.3836146011e+000
 1.4572567808e+000	 1.1665587236e+000	-1.4343007503e+000
 1.4443179588e+000	 1.1825406339e+000	-1.4813870044e+000
 1.4311966391e+000	 1.1983876826e+000	-1.5247118767e+000
 1.4178949350e+000	 1.2140967628e+000	-1.5642159129e+000
 1.4044150301e+000	 1.2296648121e+000	-1.5999515831e+000
 1.3907591764e+000	 1.2450888145e+000	-1.6320928063e+000
 1.5245694675e+000	 1.0886115032e+000	-1.1587827857e+000
 1.5125294627e+000	 1.1052790188e+000	-1.2197668645e+000
 1.5002967963e+000	 1.1218273767e+000	-1.2784449675e+000
 1.4878732219e+000	 1.1382532673e+000	-1.3343694037e+000
 1.4752605686e+000	 1.1545534151e+000	-1.3871526161e+000
 1.4624607398e+000	 1.1707245808e+000	-1.4364778300e+000
 1.4494757124e+000	 1.1867635637e+000	-1.4821097061e+000
 1.4363075356e+000	 1.2026672032e+000	-1.5239049048e+000
 1.4229583303e+000	 1.2184323815e+000	-1.5618224718e+000
 1.4094302877e+000	 1.2340560254e+000	-1.5959339486e+000
 1.3957256681e+000	 1.2495351078e+000	-1.6264331136e+000
 1.5299944329e+000	 1.0924851737e+000	-1.1664725731e+000
 1.5179115855e+000	 1.1092119983e+000	-1.2266117919e+000
 1.5056353908e+000	 1.1258192412e+000	-1.2842614693e+000
 1.4931676089e+000	 1.1423035810e+000	-1.3389987644e+000
 1.4805100753e+000	 1.1586617306e+000	-1.3904604405e+000
 1.4676647001e+000	 1.1748904391e+000	-1.4383537108e+000
 1.4546334672e+000	 1.1909864944e+000	-1.4824670945e+000
 1.4414184334e+000	 1.2069467248e+000	-1.5226811905e+000
 1.4280217268e+000	 1.2227680013e+000	-1.5589792750e+000
 1.4144455466e+000	 1.2384472397e+000	-1.5914576239e+000
 1.4006921610e+000	 1.2539814023e+000	-1.6203354670e+000
 1.5354194010e+000	 1.0963588462e+000	-1.1741845221e+000
 1.5232937110e+000	 1.1131449797e+000	-1.2334389598e+000
 1.5109739880e+000	 1.1298111077e+000	-1.2900032217e+000
 1.4984619986e+000	 1.1463538968e+000	-1.3434852241e+000
 1.4857595846e+000	 1.1627700481e+000	-1.3935519203e+000
 1.4728686630e+000	 1.1790562995e+000	-1.4399403372e+000
 1.4597912247e+000	 1.1952094273e+000	-1.4824686290e+000
 1.4465293337e+000	 1.2112262485e+000	-1.5210470545e+000
 1.4330851259e+000	 1.2271036232e+000	-1.5556887802e+000
 1.4194608080e+000	 1.2428384562e+000	-1.5865204118e+000
 1.4056586564e+000	 1.2584276989e+000	-1.6137921527e+000
 1.5408443732e+000	 1.1002325215e+000	-1.1819353051e+000
 1.5286758405e+000	 1.1170779641e+000	-1.2402647745e+000
 1.5163125893e+000	 1.1338029772e+000	-1.2956860673e+000
 1.5037563922e+000	 1.1504042155e+000	-1.3478436948e+000
 1.4910090978e+000	 1.1668783688e+000	-1.3964406002e+000
 1.4780726298e+000	 1.1832221630e+000	-1.4412493797e+000
 1.4649489861e+000	 1.1994323633e+000	-1.4821235296e+000
 1.4516402379e+000	 1.2155057755e+000	-1.5190086200e+000
 1.4381485288e+000	 1.2314392485e+000	-1.5519533000e+000
 1.4244760732e+000	 1.2472296760e+000	-1.5811200303e+000
 1.4106251556e+000	 1.2628739990e+000	-1.6067954442e+000
 1.5462693509e+000	 1.1041062007e+000	-1.1897412571e+000
 1.5340579753e+000	 1.1210109525e+000	-1.2471053099e+000
 1.5216511958e+000	 1.1377948506e+000	-1.3013255262e+000
 1.5090507911e+000	 1.1544545384e+000	-1.3520887808e+000
 1.4962586163e+000	 1.1709866935e+000	-1.3991397372e+000
 1.4832766017e+000	 1.1873880307e+000	-1.4422922487e+000
 1.4701067526e+000	 1.2036553036e+000	-1.4814407908e+000
 1.4567511472e+000	 1.2197853068e+000	-1.5165718283e+000
 1.4432119367e+000	 1.2357748780e+000	-1.5477750158e+000
 1.4294913433e+000	 1.2516209002e+000	-1.5752541278e+000
 1.4155916597e+000	 1.2673203034e+000	-1.5993376156e+000
 1.5516943353e+000	 1.1079798848e+000	-1.1976183869e+000
 1.5394401169e+000	 1.1249439458e+000	-1.2539763195e+000
 1.5269898091e+000	 1.1417867291e+000	-1.3069368079e+000
 1.5143451967e+000	 1.1585048663e+000	-1.3562347909e+000
 1.5015081413e+000	 1.1750950234e+000	-1.4016623151e+000
 1.4884805802e+000	 1.1915539036e+000	-1.4430801088e+000
 1.4752645255e+000	 1.2078782491e+000	-1.4804291963e+000
 1.4618620629e+000	 1.2240648434e+000	-1.5137424524e+000
 1.4482753509e+000	 1.2401105129e+000	-1.5431559925e+000
 1.4345066198e+000	 1.2560121299e+000	-1.5689202962e+000
 1.4205581700e+000	 1.2717666134e+000	-1.5914109551e+000
 1.5571193278e+000	 1.1118535746e+000	-1.2055823885e+000
 1.5448222666e+000	 1.1288769449e+000	-1.2608932483e+000
 1.5323284303e+000	 1.1457786136e+000	-1.3125348244e+000
 1.5196396101e+000	 1.1625552002e+000	-1.3602957526e+000
 1.5067576742e+000	 1.1792033594e+000	-1.4040210571e+000
 1.4936845665e+000	 1.1957197827e+000	-1.4436238923e+000
 1.4804223062e+000	 1.2121012010e+000	-1.4790973331e+000
 1.4669729862e+000	 1.2283443864e+000	-1.5105261114e+000
 1.4533387728e+000	 1.2444461544e+000	-1.5380981925e+000
 1.4395219038e+000	 1.2604033661e+000	-1.5621160855e+000
 1.4255246878e+000	 1.2762129301e+000	-1.5830077789e+000
 1.5625443299e+000	 1.1157272713e+000	-1.2136486521e+000
 1.5502044257e+000	 1.1328099510e+000	-1.2678712444e+000
 1.5376670609e+000	 1.1497705050e+000	-1.3181342019e+000
 1.5249340329e+000	 1.1666055413e+000	-1.3642854240e+000
 1.5120072163e+000	 1.1833117026e+000	-1.4062284399e+000
 1.4988885619e+000	 1.1998856692e+000	-1.4439343136e+000
 1.4855800959e+000	 1.2163241603e+000	-1.4774536054e+000
 1.4720839185e+000	 1.2326239369e+000	-1.5069282851e+000
 1.4584022035e+000	 1.2487818035e+000	-1.5326034898e+000
 1.4445371965e+000	 1.2647946101e+000	-1.5548390173e+000
 1.4304912143e+000	 1.2806592546e+000	-1.5741204444e+000
 1.5679693428e+000	 1.1196009757e+000	-1.2218322746e+000
 1.5555865956e+000	 1.1367429649e+000	-1.2749251704e+000
 1.5430057021e+000	 1.1537624044e+000	-1.3237492936e+000
 1.5302284662e+000	 1.1706558904e+000	-1.3682173071e+000
 1.5172567689e+000	 1.1874200541e+000	-1.4082967064e+000
 1.5040925677e+000	 1.2040515639e+000	-1.4440218822e+000
 1.4907378959e+000	 1.2205471280e+000	-1.4755062484e+000
 1.4771948610e+000	 1.2369034959e+000	-1.5029543272e+000
 1.4634656443e+000	 1.2531174612e+000	-1.5266736839e+000
 1.4495524993e+000	 1.2691858628e+000	-1.5470865988e+000
 1.4354577506e+000	 1.2851055879e+000	-1.5647413634e+000
 1.5733943679e+000	 1.1234746888e+000	-1.2301480706e+000
 1.5609687775e+000	 1.1406759876e+000	-1.2820696150e+000
 1.5483443554e+000	 1.1577543128e+000	-1.3293941913e+000
 1.5355229115e+000	 1.1747062487e+000	-1.3721046603e+000
 1.5225063333e+000	 1.1915284148e+000	-1.4102378791e+000
 1.5092965853e+000	 1.2082174680e+000	-1.4438969165e+000
 1.4958957075e+000	 1.2247701052e+000	-1.4732633421e+000
 1.4823058150e+000	 1.2411830646e+000	-1.4986094796e+000
 1.4685290965e+000	 1.2574531287e+000	-1.5203105137e+000
 1.4545678133e+000	 1.2735771255e+000	-1.5388563360e+000
 1.4404242982e+000	 1.2895519313e+000	-1.5548630157e+000
 1.3907591764e+000	 1.2450888145e+000	-1.6320928063e+000
 1.3769317815e+000	 1.2603635220e+000	-1.6580402962e+000
 1.3629331965e+000	 1.2754883437e+000	-1.6767036218e+000
 1.3487658730e+000	 1.2904604163e+000	-1.6907383466e+000
 1.3344323260e+000	 1.3052769306e+000	-1.7029834532e+000
 1.3199351327e+000	 1.3199351327e+000	-1.7140005657e+000
 1.3052769306e+000	 1.3344323260e+000	-1.7242826289e+000
 1.2904604163e+000	 1.3487658730e+000	-1.7332700054e+000
 1.2754883437e+000	 1.3629331965e+000	-1.7405780371e+000
 1.2603635220e+000	 1.3769317815e+000	-1.7488658721e+000
 1.2450888145e+000	 1.3907591764e+000	-1.7606463680e+000
 1.3957256681e+000	 1.2495351078e+000	-1.6264331136e+000
 1.3818488946e+000	 1.2648643623e+000	-1.6508558267e+000
 1.3678003198e+000	 1.2800431957e+000	-1.6682424501e+000
 1.3535824039e+000	 1.2950687346e+000	-1.6812653020e+000
 1.3391976708e+000	 1.3099381596e+000	-1.6927828893e+000
 1.3246487071e+000	 1.3246487071e+000	-1.7048200389e+000
 1.3099381596e+000	 1.3391976708e+000	-1.7160899635e+000
 1.2950687346e+000	 1.3535824039e+000	-1.7241161590e+000
 1.2800431957e+000	 1.3678003198e+000	-1.7304183619e+000
 1.2648643623e+000	 1.3818488946e+000	-1.7376727619e+000
 1.2495351078e+000	 1.3957256681e+000	-1.7484060256e+000
 1.4006921610e+000	 1.2539814023e+000	-1.6203354670e+000
 1.3867660090e+000	 1.2693652038e+000	-1.6432912438e+000
 1.3726674443e+000	 1.2845980489e+000	-1.6594936164e+000
 1.3583989359e+000	 1.2996770540e+000	-1.6716222721e+000
 1.3439630169e+000	 1.3145993898e+000	-1.6825458578e+000
 1.3293622827e+000	 1.3293622827e+000	-1.6951152346e+000
 1.3145993898e+000	 1.3439630169e+000	-1.7067289448e+000
 1.2996770540e+000	 1.3583989359e+000	-1.7139790583e+000
 1.2845980489e+000	 1.3726674443e+000	-1.7194374420e+000
 1.2693652038e+000	 1.3867660090e+000	-1.7257881570e+000
 1.2539814023e+000	 1.4006921610e+000	-1.7355625122e+000
 1.4056586564e+000	 1.2584276989e+000	-1.6137921527e+000
 1.3916831259e+000	 1.2738660474e+000	-1.6353326117e+000
 1.3775345713e+000	 1.2891529043e+000	-1.6504365159e+000
 1.3632154704e+000	 1.3042853758e+000	-1.6617816278e+000
 1.3487283653e+000	 1.3192606223e+000	-1.6722374428e+000
 1.3340758606e+000	 1.3340758606e+000	-1.6848585290e+000
 1.3192606223e+000	 1.3487283653e+000	-1.6962222529e+000
 1.3042853758e+000	 1.3632154704e+000	-1.7028739193e+000
 1.2891529043e+000	 1.3775345713e+000	-1.7076432927e+000
 1.2738660474e+000	 1.3916831259e+000	-1.7132132327e+000
 1.2584276989e+000	 1.4056586564e+000	-1.7221106201e+000
 1.4106251556e+000	 1.2628739990e+000	-1.6067954442e+000
 1.3966002464e+000	 1.2783668945e+000	-1.6269660606e+000
 1.3824017019e+000	 1.2937077632e+000	-1.6410506927e+000
 1.3680320085e+000	 1.3088937010e+000	-1.6517159740e+000
 1.3534937173e+000	 1.3239218583e+000	-1.6618230477e+000
 1.3387894421e+000	 1.3387894421e+000	-1.6739434474e+000
 1.3239218583e+000	 1.3534937173e+000	-1.6845938022e+000
 1.3088937010e+000	 1.3680320085e+000	-1.6908172599e+000
 1.2937077632e+000	 1.3824017019e+000	-1.6950452984e+000
 1.2783668945e+000	 1.3966002464e+000	-1.6999505992e+000
 1.2628739990e+000	 1.4106251556e+000	-1.7080466386e+000
 1.4155916597e+000	 1.2673203034e+000	-1.5993376156e+000
 1.4015173719e+000	 1.2828677461e+000	-1.6181777999e+000
 1.3872688374e+000	 1.2982626266e+000	-1.6313158518e+000
 1.3728485514e+000	 1.3135020308e+000	-1.6413981606e+000
 1.3582590740e+000	 1.3285830990e+000	-1.6512684063e+000
 1.3435030283e+000	 1.3435030283e+000	-1.6623295430e+000
 1.3285830990e+000	 1.3582590740e+000	-1.6718687003e+000
 1.3135020308e+000	 1.3728485514e+000	-1.6778268581e+000
 1.2982626266e+000	 1.3872688374e+000	-1.6816541707e+000
 1.2828677461e+000	 1.4015173719e+000	-1.6860042585e+000
 1.2673203034e+000	 1.4155916597e+000	-1.6933683106e+000
 1.4205581700e+000	 1.2717666134e+000	-1.5914109551e+000
 1.4064345035e+000	 1.2873686033e+000	-1.6089541309e+000
 1.3921359789e+000	 1.3028174957e+000	-1.6212118718e+000
 1.3776651004e+000	 1.3181103663e+000	-1.6308012947e+000
 1.3630244368e+000	 1.3332443455e+000	-1.6405395934e+000
 1.3482166204e+000	 1.3482166204e+000	-1.6500302471e+000
 1.3332443455e+000	 1.3630244368e+000	-1.6580732085e+000
 1.3181103663e+000	 1.3776651004e+000	-1.6639217120e+000
 1.3028174957e+000	 1.3921359789e+000	-1.6674819066e+000
 1.2873686033e+000	 1.4064345035e+000	-1.6713795625e+000
 1.2717666134e+000	 1.4205581700e+000	-1.6780747899e+000
 1.4255246878e+000	 1.2762129301e+000	-1.5830077789e+000
 1.4113516425e+000	 1.2918694672e+000	-1.5992814599e+000
 1.3970031278e+000	 1.3073723717e+000	-1.6107188168e+000
 1.3824816565e+000	 1.3227187088e+000	-1.6198987517e+000
 1.3677898066e+000	 1.3379055990e+000	-1.6293099429e+000
 1.3529302196e+000	 1.3529302196e+000	-1.6370588992e+000
 1.3379055990e+000	 1.3677898066e+000	-1.6434865248e+000
 1.3227187088e+000	 1.3824816565e+000	-1.6491219978e+000
 1.3073723717e+000	 1.3970031278e+000	-1.6525417470e+000
 1.2918694672e+000	 1.4113516425e+000	-1.6560831704e+000
 1.2762129301e+000	 1.4255246878e+000	-1.6621665985e+000
 1.4304912143e+000	 1.2806592546e+000	-1.5741204444e+000
 1.4162687901e+000	 1.2963703390e+000	-1.5891463111e+000
 1.4018702852e+000	 1.3119272556e+000	-1.5998169488e+000
 1.3872982211e+000	 1.3273270594e+000	-1.6086641868e+000
 1.3725551848e+000	 1.3425668607e+000	-1.6172726703e+000
 1.3576438270e+000	 1.3576438270e+000	-1.6234287459e+000
 1.3425668607e+000	 1.3725551848e+000	-1.6283877398e+000
 1.3273270594e+000	 1.3872982211e+000	-1.6334490300e+000
 1.3119272556e+000	 1.4018702852e+000	-1.6368481349e+000
 1.2963703390e+000	 1.4162687901e+000	-1.6401230069e+000
 1.2806592546e+000	 1.4304912143e+000	-1.6456455842e+000
 1.4354577506e+000	 1.2851055879e+000	-1.5647413634e+000
 1.4211859475e+000	 1.3008712198e+000	-1.5785353392e+000
 1.4067374523e+000	 1.3164821486e+000	-1.5884867399e+000
 1.3921147953e+000	 1.3319354191e+000	-1.5970715466e+000
 1.3773205725e+000	 1.3472281316e+000	-1.6044456942e+000
 1.3623574438e+000	 1.3623574438e+000	-1.6091529399e+000
 1.3472281316e+000	 1.3773205725e+000	-1.6127852655e+000
 1.3319354191e+000	 1.3921147953e+000	-1.6169252202e+000
 1.3164821486e+000	 1.4067374523e+000	-1.6204166744e+000
 1.3008712198e+000	 1.4211859475e+000	-1.6235082199e+000
 1.2851055879e+000	 1.4354577506e+000	-1.6285148775e+000
 1.4404242982e+000	 1.2895519313e+000	-1.5548630157e+000
 1.4261031160e+000	 1.3053721108e+000	-1.5674353423e+000
 1.4116046303e+000	 1.3210370519e+000	-1.5767088844e+000
 1.3969313804e+000	 1.3365437893e+000	-1.5849724391e+000
 1.3820859710e+000	 1.3518894131e+000	-1.5908468110e+000
 1.3670710713e+000	 1.3670710713e+000	-1.5942445386e+000
 1.3518894131e+000	 1.3820859710e+000	-1.5966874520e+000
 1.3365437893e+000	 1.3969313804e+000	-1.5996848889e+000
 1.3210370519e+000	 1.4116046303e+000	-1.6032640892e+000
 1.3053721108e+000	 1.4261031160e+000	-1.6062491391e+000
 1.2895519313e+000	 1.4404242982e+000	-1.6107788503e+000
 1.2450888145e+000	 1.3907591764e+000	-1.7606463680e+000
 1.2296648121e+000	 1.4044150301e+000	-1.7725009199e+000
 1.2140967628e+000	 1.4178949350e+000	-1.7798271707e+000
 1.1983876826e+000	 1.4311966391e+000	-1.7831885015e+000
 1.1825406339e+000	 1.4443179588e+000	-1.7830581107e+000
 1.1665587236e+000	 1.4572567808e+000	-1.7798237626e+000
 1.1504451007e+000	 1.4700110632e+000	-1.7737929987e+000
 1.1342029546e+000	 1.4825788362e+000	-1.7651987432e+000
 1.1178355132e+000	 1.4949582030e+000	-1.7542052331e+000
 1.1013460402e+000	 1.5071473413e+000	-1.7409142035e+000
 1.0847378337e+000	 1.5191445034e+000	-1.7253712564e+000
 1.2495351078e+000	 1.3957256681e+000	-1.7484060256e+000
 1.2340560254e+000	 1.4094302877e+000	-1.7593595235e+000
 1.2184323815e+000	 1.4229583303e+000	-1.7660618405e+000
 1.2026672032e+000	 1.4363075356e+000	-1.7690439236e+000
 1.1867635637e+000	 1.4494757124e+000	-1.7687469088e+000
 1.1707245808e+000	 1.4624607398e+000	-1.7655270876e+000
 1.1545534151e+000	 1.4752605686e+000	-1.7596613396e+000
 1.1382532673e+000	 1.4878732219e+000	-1.7513529618e+000
 1.1218273767e+000	 1.5002967963e+000	-1.7407378244e+000
 1.1052790188e+000	 1.5125294627e+000	-1.7278907793e+000
 1.0886115032e+000	 1.5245694675e+000	-1.7128322495e+000
 1.2539814023e+000	 1.4006921610e+000	-1.7355625122e+000
 1.2384472397e+000	 1.4144455466e+000	-1.7456659909e+000
 1.2227680013e+000	 1.4280217268e+000	-1.7517719545e+000
 1.2069467248e+000	 1.4414184334e+000	-1.7543844038e+000
 1.1909864944e+000	 1.4546334672e+000	-1.7539179828e+000
 1.1748904391e+000	 1.4676647001e+000	-1.7507031561e+000
 1.1586617306e+000	 1.4805100753e+000	-1.7449918574e+000
 1.1423035810e+000	 1.4931676089e+000	-1.7369635378e+000
 1.1258192412e+000	 1.5056353908e+000	-1.7267315396e+000
 1.1092119983e+000	 1.5179115855e+000	-1.7143497233e+000
 1.0924851737e+000	 1.5299944329e+000	-1.6998192719e+000
 1.2584276989e+000	 1.4056586564e+000	-1.7221106201e+000
 1.2428384562e+000	 1.4194608080e+000	-1.7314094628e+000
 1.2271036232e+000	 1.4330851259e+000	-1.7369419057e+000
 1.2112262485e+000	 1.4465293337e+000	-1.7391904300e+000
 1.1952094273e+000	 1.4597912247e+000	-1.7385486943e+000
 1.1790562995e+000	 1.4728686630e+000	-1.7353269184e+000
 1.1627700481e+000	 1.4857595846e+000	-1.7297577414e+000
 1.1463538968e+000	 1.4984619986e+000	-1.7220024824e+000
 1.1298111077e+000	 1.5109739880e+000	-1.7121577289e+000
 1.1131449797e+000	 1.5232937110e+000	-1.7002621746e+000
 1.0963588462e+000	 1.5354194010e+000	-1.6863036329e+000
 1.2628739990e+000	 1.4106251556e+000	-1.7080466386e+000
 1.2472296760e+000	 1.4244760732e+000	-1.7165806315e+000
 1.2314392485e+000	 1.4381485288e+000	-1.7215576838e+000
 1.2155057755e+000	 1.4516402379e+000	-1.7234441219e+000
 1.1994323633e+000	 1.4649489861e+000	-1.7226180638e+000
 1.1832221630e+000	 1.4780726298e+000	-1.7193750024e+000
 1.1668783688e+000	 1.4910090978e+000	-1.7139338686e+000
 1.1504042155e+000	 1.5037563922e+000	-1.7064434992e+000
 1.1338029772e+000	 1.5163125893e+000	-1.6969894328e+000
 1.1170779641e+000	 1.5286758405e+000	-1.6856009543e+000
 1.1002325215e+000	 1.5408443732e+000	-1.6722583116e+000
 1.2673203034e+000	 1.4155916597e+000	-1.6933683106e+000
 1.2516209002e+000	 1.4294913433e+000	-1.7011716977e+000
 1.2357748780e+000	 1.4432119367e+000	-1.7056068314e+000
 1.2197853068e+000	 1.4567511472e+000	-1.7071291878e+000
 1.2036553036e+000	 1.4701067526e+000	-1.7061067269e+000
 1.1873880307e+000	 1.4832766017e+000	-1.7028256701e+000
 1.1709866935e+000	 1.4962586163e+000	-1.6974967626e+000
 1.1544545384e+000	 1.5090507911e+000	-1.6902619431e+000
 1.1377948506e+000	 1.5216511958e+000	-1.6812013421e+000
 1.1210109525e+000	 1.5340579753e+000	-1.6703405277e+000
 1.1041062007e+000	 1.5462693509e+000	-1.6576579198e+000
 1.2717666134e+000	 1.4205581700e+000	-1.6780747899e+000
 1.2560121299e+000	 1.4345066198e+000	-1.6851763273e+000
 1.2401105129e+000	 1.4482753509e+000	-1.6890784010e+000
 1.2240648434e+000	 1.4618620629e+000	-1.6902308817e+000
 1.2078782491e+000	 1.4752645255e+000	-1.6889968926e+000
 1.1915539036e+000	 1.4884805802e+000	-1.6856587766e+000
 1.1750950234e+000	 1.5015081413e+000	-1.6804245522e+000
 1.1585048663e+000	 1.5143451967e+000	-1.6734347801e+000
 1.1417867291e+000	 1.5269898091e+000	-1.6647697587e+000
 1.1249439458e+000	 1.5394401169e+000	-1.6544569658e+000
 1.1079798848e+000	 1.5516943353e+000	-1.6424786649e+000
 1.2762129301e+000	 1.4255246878e+000	-1.6621665985e+000
 1.2604033661e+000	 1.4395219038e+000	-1.6685896081e+000
 1.2444461544e+000	 1.4533387728e+000	-1.6719629117e+000
 1.2283443864e+000	 1.4669729862e+000	-1.6727359599e+000
 1.2121012010e+000	 1.4804223062e+000	-1.6712723001e+000
 1.1957197827e+000	 1.4936845665e+000	-1.6678557274e+000
 1.1792033594e+000	 1.5067576742e+000	-1.6626969300e+000
 1.1625552002e+000	 1.5196396101e+000	-1.6559405472e+000
 1.1457786136e+000	 1.5323284303e+000	-1.6476725568e+000
 1.1288769449e+000	 1.5448222666e+000	-1.6379279077e+000
 1.1118535746e+000	 1.5571193278e+000	-1.6266983135e+000
 1.2806592546e+000	 1.4304912143e+000	-1.6456455842e+000
 1.2647946101e+000	 1.4445371965e+000	-1.6514080073e+000
 1.2487818035e+000	 1.4584022035e+000	-1.6542523065e+000
 1.2326239369e+000	 1.4720839185e+000	-1.6546326390e+000
 1.2163241603e+000	 1.4855800959e+000	-1.6529181767e+000
 1.1998856692e+000	 1.4988885619e+000	-1.6493994369e+000
 1.1833117026e+000	 1.5120072163e+000	-1.6442951116e+000
 1.1666055413e+000	 1.5249340329e+000	-1.6377593120e+000
 1.1497705050e+000	 1.5376670609e+000	-1.6298891430e+000
 1.1328099510e+000	 1.5502044257e+000	-1.6207325221e+000
 1.1157272713e+000	 1.5625443299e+000	-1.6102961548e+000
 1.2851055879e+000	 1.4354577506e+000	-1.6285148775e+000
 1.2691858628e+000	 1.4495524993e+000	-1.6336293285e+000
 1.2531174612e+000	 1.4634656443e+000	-1.6359399097e+000
 1.2369034959e+000	 1.4771948610e+000	-1.6359105529e+000
 1.2205471280e+000	 1.4907378959e+000	-1.6339211958e+000
 1.2040515639e+000	 1.5040925677e+000	-1.6302742872e+000
 1.1874200541e+000	 1.5172567689e+000	-1.6252017950e+000
 1.1706558904e+000	 1.5302284662e+000	-1.6188726332e+000
 1.1537624044e+000	 1.5430057021e+000	-1.6114004185e+000
 1.1367429649e+000	 1.5555865956e+000	-1.6028514705e+000
 1.1196009757e+000	 1.5679693428e+000	-1.5932529642e+000
 1.2895519313e+000	 1.4404242982e+000	-1.6107788503e+000
 1.2735771255e+000	 1.4545678133e+000	-1.6152526695e+000
 1.2574531287e+000	 1.4685290965e+000	-1.6170203839e+000
 1.2411830646e+000	 1.4823058150e+000	-1.6165607105e+000
 1.2247701052e+000	 1.4958957075e+000	-1.6142694350e+000
 1.2082174680e+000	 1.5092965853e+000	-1.6104660863e+000
 1.1915284148e+000	 1.5225063333e+000	-1.6054011197e+000
 1.1747062487e+000	 1.5355229115e+000	-1.5992635207e+000
 1.1577543128e+000	 1.5483443554e+000	-1.5921887400e+000
 1.1406759876e+000	 1.5609687775e+000	-1.5842668692e+000
 1.1234746888e+000	 1.5733943679e+000	-1.5755509672e+000
 1.0847378337e+000	 1.5191445034e+000	-1.7253712564e+000
 1.0680142231e+000	 1.5309480169e+000	-1.7097712613e+000
 1.0511785662e+000	 1.5425562842e+000	-1.6961080935e+000
 1.0342342481e+000	 1.5539677840e+000	-1.6840669964e+000
 1.0171846795e+000	 1.5651810725e+000	-1.6733110367e+000
 1.0000332942e+000	 1.5761947839e+000	-1.6634914716e+000
 9.8278354723e-001	 1.5870076307e+000	-1.6542395757e+000
 9.6543891248e-001	 1.5976184039e+000	-1.6451933650e+000
 9.4800288052e-001	 1.6080259736e+000	-1.6359901228e+000
 9.3047895642e-001	 1.6182292887e+000	-1.6262748586e+000
 9.1287065757e-001	 1.6282273774e+000	-1.6157051889e+000
 1.0886115032e+000	 1.5245694675e+000	-1.7128322495e+000
 1.0718281715e+000	 1.5364151321e+000	-1.6977643834e+000
 1.0549323934e+000	 1.5480648533e+000	-1.6847058348e+000
 1.0379275660e+000	 1.5595171043e+000	-1.6733435965e+000
 1.0208171123e+000	 1.5707704362e+000	-1.6633416535e+000
 1.0036044783e+000	 1.5818234783e+000	-1.6543513193e+000
 9.8629313135e-001	 1.5926749384e+000	-1.6460040037e+000
 9.6888655778e-001	 1.6033236034e+000	-1.6379369652e+000
 9.5138826061e-001	 1.6137683392e+000	-1.6297867067e+000
 9.3380175744e-001	 1.6240080910e+000	-1.6211973915e+000
 9.1613057821e-001	 1.6340418836e+000	-1.6118258447e+000
 1.0924851737e+000	 1.5299944329e+000	-1.6998192719e+000
 1.0756421209e+000	 1.5418822487e+000	-1.6853423135e+000
 1.0586862215e+000	 1.5535734237e+000	-1.6729504523e+000
 1.0416208849e+000	 1.5650664259e+000	-1.6623315672e+000
 1.0244495460e+000	 1.5763598012e+000	-1.6531496504e+000
 1.0071756633e+000	 1.5874521740e+000	-1.6450551274e+000
 9.8980271635e-001	 1.5983422476e+000	-1.6376785411e+000
 9.7233420394e-001	 1.6090288043e+000	-1.6306553847e+000
 9.5477364156e-001	 1.6195107062e+000	-1.6236203430e+000
 9.3712455930e-001	 1.6297868948e+000	-1.6162156792e+000
 9.1939049966e-001	 1.6398563911e+000	-1.6080963617e+000
 1.0963588462e+000	 1.5354194010e+000	-1.6863036329e+000
 1.0794560722e+000	 1.5473493680e+000	-1.6724764594e+000
 1.0624400515e+000	 1.5590819969e+000	-1.6608129754e+000
 1.0453142056e+000	 1.5706157504e+000	-1.6510010880e+000
 1.0280819815e+000	 1.5819491691e+000	-1.6427038920e+000
 1.0107468500e+000	 1.5930808726e+000	-1.6355667498e+000
 9.9331230311e-001	 1.6040095595e+000	-1.6292280562e+000
 9.7578185183e-001	 1.6147340081e+000	-1.6233108271e+000
 9.5815902419e-001	 1.6252530761e+000	-1.6174501387e+000
 9.4044736281e-001	 1.6355657014e+000	-1.6112853104e+000
 9.2265042274e-001	 1.6456709016e+000	-1.6044684007e+000
 1.1002325215e+000	 1.5408443732e+000	-1.6722583116e+000
 1.0832700263e+000	 1.5528164913e+000	-1.6591398873e+000
 1.0661938843e+000	 1.5645905742e+000	-1.6482660865e+000
 1.0490075291e+000	 1.5761650790e+000	-1.6393239926e+000
 1.0317144198e+000	 1.5875385411e+000	-1.6319749040e+000
 1.0143180395e+000	 1.5987095754e+000	-1.6258616050e+000
 9.9682189250e-001	 1.6096768758e+000	-1.6206191074e+000
 9.7922950231e-001	 1.6204392161e+000	-1.6158672078e+000
 9.6154440937e-001	 1.6309954503e+000	-1.6112369383e+000
 9.4377016882e-001	 1.6413445124e+000	-1.6063636414e+000
 9.2591034827e-001	 1.6514854165e+000	-1.6008954230e+000
 1.1041062007e+000	 1.5462693509e+000	-1.6576579198e+000
 1.0870839843e+000	 1.5582836202e+000	-1.6453072854e+000
 1.0699477209e+000	 1.5700991571e+000	-1.6352840868e+000
 1.0527008562e+000	 1.5817144131e+000	-1.6272737354e+000
 1.0353468617e+000	 1.5931279188e+000	-1.6209348402e+000
 1.0178892325e+000	 1.6043382838e+000	-1.6159066755e+000
 1.0003314854e+000	 1.6153441977e+000	-1.6118199130e+000
 9.8267715623e-001	 1.6261444299e+000	-1.6082901244e+000
 9.6492979793e-001	 1.6367378303e+000	-1.6049432953e+000
 9.4709297814e-001	 1.6471233291e+000	-1.6014097672e+000
 9.2917027706e-001	 1.6572999371e+000	-1.5973326625e+000
 1.1079798848e+000	 1.5516943353e+000	-1.6424786649e+000
 1.0908979470e+000	 1.5637507559e+000	-1.6309549292e+000
 1.0737015622e+000	 1.5756077468e+000	-1.6218428615e+000
 1.0563941880e+000	 1.5872637542e+000	-1.6148253584e+000
 1.0389793081e+000	 1.5987173034e+000	-1.6095574513e+000
 1.0214604300e+000	 1.6099669992e+000	-1.6056739781e+000
 1.0038410827e+000	 1.6210115266e+000	-1.6028003203e+000
 9.8612481446e-001	 1.6318496508e+000	-1.6005468270e+000
 9.6831519072e-001	 1.6424802174e+000	-1.5985334427e+000
 9.5041579163e-001	 1.6529021531e+000	-1.5963844938e+000
 9.3243020992e-001	 1.6631144651e+000	-1.5937370978e+000
 1.1118535746e+000	 1.5571193278e+000	-1.6266983135e+000
 1.0947119154e+000	 1.5692178998e+000	-1.6160606454e+000
 1.0774554091e+000	 1.5811163448e+000	-1.6079198459e+000
 1.0600875253e+000	 1.5928131036e+000	-1.6019554581e+000
 1.0426117600e+000	 1.6043066964e+000	-1.5978180523e+000
 1.0250316329e+000	 1.6155957231e+000	-1.5951371091e+000
 1.0073506852e+000	 1.6266788641e+000	-1.5935317758e+000
 9.8957247787e-001	 1.6375548802e+000	-1.5926061887e+000
 9.7170058859e-001	 1.6482226131e+000	-1.5919732644e+000
 9.5373861009e-001	 1.6586809857e+000	-1.5912503093e+000
 9.3569014768e-001	 1.6689290017e+000	-1.5900674247e+000
 1.1157272713e+000	 1.5625443299e+000	-1.6102961548e+000
 1.0985258906e+000	 1.5746850532e+000	-1.6006037771e+000
 1.0812092626e+000	 1.5866249524e+000	-1.5934939915e+000
 1.0637808691e+000	 1.5983624627e+000	-1.5886421526e+000
 1.0462442182e+000	 1.6098960992e+000	-1.5856934906e+000
 1.0286028419e+000	 1.6212244569e+000	-1.5842712132e+000
 1.0108602939e+000	 1.6323462115e+000	-1.5839843139e+000
 9.9302014731e-001	 1.6432601196e+000	-1.5844386763e+000
 9.7508599238e-001	 1.6539650189e+000	-1.5852302669e+000
 9.5706143438e-001	 1.6644598284e+000	-1.5859713562e+000
 9.3895009114e-001	 1.6747435485e+000	-1.5862840285e+000
 1.1196009757e+000	 1.5679693428e+000	-1.5932529642e+000
 1.1023398733e+000	 1.5801522176e+000	-1.5845651485e+000
 1.0849631235e+000	 1.5921335711e+000	-1.5785457319e+000
 1.0674742203e+000	 1.6039118329e+000	-1.5748650489e+000
 1.0498766837e+000	 1.6154855131e+000	-1.5731621146e+000
 1.0321740582e+000	 1.6268532019e+000	-1.5730529527e+000
 1.0143699096e+000	 1.6380135702e+000	-1.5741386202e+000
 9.9646782364e-001	 1.6489653704e+000	-1.5760163212e+000
 9.7847140295e-001	 1.6597074362e+000	-1.5782735502e+000
 9.6038426530e-001	 1.6702386827e+000	-1.5805134037e+000
 9.4221004111e-001	 1.6805581070e+000	-1.5823489568e+000
 1.1234746888e+000	 1.5733943679e+000	-1.5755509672e+000
 1.1061538646e+000	 1.5856193943e+000	-1.5679270301e+000
 1.0887169930e+000	 1.5976422021e+000	-1.5630569494e+000
 1.0711675798e+000	 1.6094612156e+000	-1.5606052103e+000
 1.0535091574e+000	 1.6210749397e+000	-1.5602037420e+000
 1.0357452825e+000	 1.6324819595e+000	-1.5614604773e+000
 1.0178795332e+000	 1.6436809417e+000	-1.5639676014e+000
 9.9991550773e-001	 1.6546706341e+000	-1.5673126905e+000
 9.8185682113e-001	 1.6654498664e+000	-1.5710737801e+000
 9.6370710370e-001	 1.6760175500e+000	-1.5748438198e+000
 9.4546999843e-001	 1.6863726785e+000	-1.5782258922e+000
 9.1287065757e-001	 1.6282273774e+000	-1.6157051889e+000
 8.9518417073e-001	 1.6380178941e+000	-1.6040121160e+000
 8.7742039566e-001	 1.6476015416e+000	-1.5912017176e+000
 8.5958287290e-001	 1.6569775872e+000	-1.5773577535e+000
 8.4167514655e-001	 1.6661453766e+000	-1.5625611803e+000
 8.2370076214e-001	 1.6751043343e+000	-1.5468922672e+000
 8.0566326455e-001	 1.6838539628e+000	-1.5304322051e+000
 7.8756619588e-001	 1.6923938428e+000	-1.5132642052e+000
 7.6941309341e-001	 1.7007236318e+000	-1.4954740899e+000
 7.5120748753e-001	 1.7088430646e+000	-1.4771503858e+000
 7.3295289977e-001	 1.7167519521e+000	-1.4583839300e+000
 9.1613057821e-001	 1.6340418836e+000	-1.6118258447e+000
 8.9838093177e-001	 1.6438673628e+000	-1.6013064372e+000
 8.8055372110e-001	 1.6534852341e+000	-1.5895632957e+000
 8.6265249938e-001	 1.6628947622e+000	-1.5767026371e+000
 8.4468082337e-001	 1.6720952903e+000	-1.5628301074e+000
 8.2664225127e-001	 1.6810862410e+000	-1.5480528780e+000
 8.0854034060e-001	 1.6898671151e+000	-1.5324812155e+000
 7.9037864612e-001	 1.6984374915e+000	-1.5162295230e+000
 7.7216071773e-001	 1.7067970268e+000	-1.4994168563e+000
 7.5389009844e-001	 1.7149454546e+000	-1.4821669228e+000
 7.3557032236e-001	 1.7228825852e+000	-1.4646075783e+000
 9.1939049966e-001	 1.6398563911e+000	-1.6080963617e+000
 9.0157769361e-001	 1.6497168329e+000	-1.5988070075e+000
 8.8368704733e-001	 1.6593689281e+000	-1.5881958784e+000
 8.6572212664e-001	 1.6688119386e+000	-1.5763894857e+000
 8.4768650095e-001	 1.6780452056e+000	-1.5635161621e+000
 8.2958374113e-001	 1.6870681493e+000	-1.5497081405e+000
 8.1141741736e-001	 1.6958802689e+000	-1.5351030886e+000
 7.9319109705e-001	 1.7044811418e+000	-1.5198450956e+000
 7.7490834274e-001	 1.7128704233e+000	-1.5040851141e+000
 7.5657271003e-001	 1.7210478461e+000	-1.4879808675e+000
 7.3818774561e-001	 1.7290132199e+000	-1.4716962360e+000
 9.2265042274e-001	 1.6456709016e+000	-1.6044684007e+000
 9.0477445704e-001	 1.6555663060e+000	-1.5964616738e+000
 8.8682037512e-001	 1.6652526251e+000	-1.5870441445e+000
 8.6879175542e-001	 1.6747291181e+000	-1.5763604818e+000
 8.5069218003e-001	 1.6839951238e+000	-1.5645597270e+000
 8.3252523246e-001	 1.6930500606e+000	-1.5517973602e+000
 8.1429449557e-001	 1.7018934257e+000	-1.5382368018e+000
 7.9600354940e-001	 1.7105247951e+000	-1.5240503466e+000
 7.7765596912e-001	 1.7189438228e+000	-1.5094195341e+000
 7.5925532296e-001	 1.7271502407e+000	-1.4945349646e+000
 7.4080517017e-001	 1.7351438576e+000	-1.4795955755e+000
 9.2591034827e-001	 1.6514854165e+000	-1.6008954230e+000
 9.0797122288e-001	 1.6614157835e+000	-1.5942201125e+000
 8.8995370526e-001	 1.6711363264e+000	-1.5860546199e+000
 8.7186138651e-001	 1.6806463019e+000	-1.5765596596e+000
 8.5369786137e-001	 1.6899450465e+000	-1.5659030292e+000
 8.3546672600e-001	 1.6990319764e+000	-1.5542616665e+000
 8.1717157593e-001	 1.7079065870e+000	-1.5418231214e+000
 7.9881600386e-001	 1.7165684529e+000	-1.5287864398e+000
 7.8040359757e-001	 1.7250172269e+000	-1.5153624640e+000
 7.6193793790e-001	 1.7332526398e+000	-1.5017735583e+000
 7.4342259669e-001	 1.7412745000e+000	-1.4882527761e+000
 9.2917027706e-001	 1.6572999371e+000	-1.5973326625e+000
 9.1116799191e-001	 1.6672652668e+000	-1.5920338025e+000
 8.9308703854e-001	 1.6770200337e+000	-1.5851756506e+000
 8.7493102067e-001	 1.6865634917e+000	-1.5769328795e+000
 8.5670354571e-001	 1.6958949752e+000	-1.5674901150e+000
 8.3840822249e-001	 1.7050138981e+000	-1.5570439880e+000
 8.2004865918e-001	 1.7139197543e+000	-1.5458045799e+000
 8.0162846112e-001	 1.7226121168e+000	-1.5339962585e+000
 7.8315122876e-001	 1.7310906370e+000	-1.5218579099e+000
 7.6462055553e-001	 1.7393550451e+000	-1.5096425753e+000
 7.4604002583e-001	 1.7474051485e+000	-1.4976165086e+000
 9.3243020992e-001	 1.6631144651e+000	-1.5937370978e+000
 9.1436476494e-001	 1.6731147574e+000	-1.5898559971e+000
 8.9622037573e-001	 1.6829037483e+000	-1.5843573762e+000
 8.7800065867e-001	 1.6924806889e+000	-1.5774278021e+000
 8.5970923381e-001	 1.7018449112e+000	-1.5692668252e+000
 8.4134972265e-001	 1.7109958273e+000	-1.5600890297e+000
 8.2292574601e-001	 1.7199329292e+000	-1.5501254545e+000
 8.0444092191e-001	 1.7286557882e+000	-1.5396243852e+000
 7.8589886339e-001	 1.7371640548e+000	-1.5288515179e+000
 7.6730317651e-001	 1.7454574580e+000	-1.5180895085e+000
 7.4865745824e-001	 1.7535358046e+000	-1.5076369218e+000
 9.3569014768e-001	 1.6689290017e+000	-1.5900674247e+000
 9.1756154277e-001	 1.6789642568e+000	-1.5876416978e+000
 8.9935371762e-001	 1.6887874717e+000	-1.5835517035e+000
 8.8107030127e-001	 1.6983978950e+000	-1.5779938629e+000
 8.6271492641e-001	 1.7077948562e+000	-1.5711807713e+000
 8.4429122722e-001	 1.7169777655e+000	-1.5633432495e+000
 8.2580283717e-001	 1.7259461130e+000	-1.5547317452e+000
 8.0725338691e-001	 1.7346994686e+000	-1.5456170812e+000
 7.8864650214e-001	 1.7432374816e+000	-1.5362905549e+000
 7.6998580151e-001	 1.7515598800e+000	-1.5270634000e+000
 7.5127489458e-001	 1.7596664699e+000	-1.5182656276e+000
 9.3895009114e-001	 1.6747435485e+000	-1.5862840285e+000
 9.2075832619e-001	 1.6848137665e+000	-1.5853476267e+000
 9.0248706500e-001	 1.6946712054e+000	-1.5827122799e+000
 8.8413994925e-001	 1.7043151114e+000	-1.5785822467e+000
 8.6572062428e-001	 1.7137448117e+000	-1.5731813102e+000
 8.4723273694e-001	 1.7229597142e+000	-1.5667548352e+000
 8.2867993336e-001	 1.7319593074e+000	-1.5595711526e+000
 8.1006585683e-001	 1.7407431597e+000	-1.5519222666e+000
 7.9139414570e-001	 1.7493109191e+000	-1.5441238911e+000
 7.7266843121e-001	 1.7576623127e+000	-1.5365148252e+000
 7.5389233550e-001	 1.7657971460e+000	-1.5294556868e+000
 9.4221004111e-001	 1.6805581070e+000	-1.5823489568e+000
 9.2395511600e-001	 1.6906632878e+000	-1.5829322000e+000
 9.0562041864e-001	 1.7005549509e+000	-1.5817944681e+000
 8.8720960336e-001	 1.7102323396e+000	-1.5791458627e+000
 8.6872632816e-001	 1.7196947790e+000	-1.5752195207e+000
 8.5017425254e-001	 1.7289416748e+000	-1.5702736814e+000
 8.3155703530e-001	 1.7379725138e+000	-1.5645930567e+000
 8.1287833238e-001	 1.7467868629e+000	-1.5584894999e+000
 7.9414179475e-001	 1.7553843688e+000	-1.5523019808e+000
 7.7535106627e-001	 1.7637647576e+000	-1.5463958760e+000
 7.5650978165e-001	 1.7719278343e+000	-1.5411615946e+000
 9.4546999843e-001	 1.6863726785e+000	-1.5782258922e+000
 9.2715191300e-001	 1.6965128223e+000	-1.5803555010e+000
 9.0875377933e-001	 1.7064387096e+000	-1.5807553193e+000
 8.9027926438e-001	 1.7161495812e+000	-1.5796393191e+000
 8.7173203880e-001	 1.7256447597e+000	-1.5772481793e+000
 8.5311577476e-001	 1.7349236489e+000	-1.5738513670e+000
 8.3443414372e-001	 1.7439857337e+000	-1.5697484956e+000
 8.1569081426e-001	 1.7528305796e+000	-1.5652699587e+000
 7.9688944998e-001	 1.7614578321e+000	-1.5607768450e+000
 7.7803370737e-001	 1.7698672163e+000	-1.5566601444e+000
 7.5912723369e-001	 1.7780585364e+000	-1.5533392668e+000
 7.3295289977e-001	 1.7167519521e+000	-1.4583839300e+000
 7.1465009243e-001	 1.7244513200e+000	-1.4428511464e+000
 6.9630530055e-001	 1.7319399287e+000	-1.4319748096e+000
 6.7792200968e-001	 1.7392178152e+000	-1.4224622680e+000
 6.5950368875e-001	 1.7462850900e+000	-1.4115160902e+000
 6.4105378818e-001	 1.7531419360e+000	-1.4012681613e+000
 6.2257573816e-001	 1.7597886078e+000	-1.3916941403e+000
 6.0407294682e-001	 1.7662254307e+000	-1.3818079741e+000
 5.8554879857e-001	 1.7724527997e+000	-1.3707009526e+000
 5.6700665240e-001	 1.7784711781e+000	-1.3575239579e+000
 5.4844984029e-001	 1.7842810970e+000	-1.3414720438e+000
 7.3557032236e-001	 1.7228825852e+000	-1.4646075783e+000
 7.1720215450e-001	 1.7306094481e+000	-1.4503647391e+000
 6.9879185218e-001	 1.7381247991e+000	-1.4408215939e+000
 6.8034291338e-001	 1.7454286754e+000	-1.4327399094e+000
 6.6185881942e-001	 1.7525211879e+000	-1.4230970476e+000
 6.4334303306e-001	 1.7594025202e+000	-1.4134735405e+000
 6.2479899671e-001	 1.7660729277e+000	-1.4043307477e+000
 6.0623013070e-001	 1.7725327369e+000	-1.3947516981e+000
 5.8763983150e-001	 1.7787823442e+000	-1.3838912389e+000
 5.6903147012e-001	 1.7848222146e+000	-1.3709580398e+000
 5.5040839043e-001	 1.7906528811e+000	-1.3551990004e+000
 7.3818774561e-001	 1.7290132199e+000	-1.4716962360e+000
 7.1975421722e-001	 1.7367675777e+000	-1.4587962758e+000
 7.0127840442e-001	 1.7443096711e+000	-1.4506165946e+000
 6.8276381768e-001	 1.7516395372e+000	-1.4439760429e+000
 6.6421395068e-001	 1.7587572874e+000	-1.4357510008e+000
 6.4563227851e-001	 1.7656631059e+000	-1.4268182073e+000
 6.2702225582e-001	 1.7723572491e+000	-1.4181532861e+000
 6.0838731512e-001	 1.7788400447e+000	-1.4089106002e+000
 5.8973086496e-001	 1.7851118903e+000	-1.3983105318e+000
 5.7105628835e-001	 1.7911732527e+000	-1.3856212396e+000
 5.5236694106e-001	 1.7970246668e+000	-1.3701428927e+000
 7.4080517017e-001	 1.7351438576e+000	-1.4795955755e+000
 7.2230628121e-001	 1.7429257104e+000	-1.4680945529e+000
 7.0376495792e-001	 1.7504945461e+000	-1.4613112480e+000
 6.8518472320e-001	 1.7578504021e+000	-1.4561242564e+000
 6.6656908312e-001	 1.7649933900e+000	-1.4494165696e+000
 6.4792152510e-001	 1.7719236947e+000	-1.4412428061e+000
 6.2924551604e-001	 1.7786415737e+000	-1.4331043386e+000
 6.1054450061e-001	 1.7851473556e+000	-1.4242291212e+000
 5.9182189947e-001	 1.7914414395e+000	-1.4139050491e+000
 5.7308110760e-001	 1.7975242940e+000	-1.4014614676e+000
 5.5432549267e-001	 1.8033964557e+000	-1.3862532326e+000
 7.4342259669e-001	 1.7412745000e+000	-1.4882527761e+000
 7.2485834711e-001	 1.7490838478e+000	-1.4782097746e+000
 7.0625151328e-001	 1.7566794258e+000	-1.4728583039e+000
 6.8760563052e-001	 1.7640612716e+000	-1.4691393607e+000
 6.6892421733e-001	 1.7712294972e+000	-1.4639968045e+000
 6.5021077341e-001	 1.7781842883e+000	-1.4566890311e+000
 6.3146877793e-001	 1.7849259030e+000	-1.4491273079e+000
 6.1270168773e-001	 1.7914546712e+000	-1.4406523079e+000
 5.9391293554e-001	 1.7977709935e+000	-1.4306214182e+000
 5.7510592836e-001	 1.8038753401e+000	-1.4184268657e+000
 5.5628404575e-001	 1.8097682494e+000	-1.4034796036e+000
 7.4604002583e-001	 1.7474051485e+000	-1.4976165086e+000
 7.2741041557e-001	 1.7552419912e+000	-1.4890935411e+000
 7.0873807112e-001	 1.7628643116e+000	-1.4852118151e+000
 6.9002654028e-001	 1.7702721473e+000	-1.4829773816e+000
 6.7127935389e-001	 1.7774656107e+000	-1.4793977049e+000
 6.5250002401e-001	 1.7844448881e+000	-1.4730996618e+000
 6.3369204205e-001	 1.7912102385e+000	-1.4661664501e+000
 6.1485887700e-001	 1.7977619931e+000	-1.4581258456e+000
 5.9600397371e-001	 1.8041005539e+000	-1.4484067082e+000
 5.7713075115e-001	 1.8102263925e+000	-1.4364658382e+000
 5.5824260078e-001	 1.8161400495e+000	-1.4217716902e+000
 7.4865745824e-001	 1.7535358046e+000	-1.5076369218e+000
 7.2996248722e-001	 1.7614001424e+000	-1.5006988359e+000
 7.1122463208e-001	 1.7690492052e+000	-1.4983271277e+000
 6.9244745305e-001	 1.7764830308e+000	-1.4975955513e+000
 6.7363449339e-001	 1.7837017320e+000	-1.4955777806e+000
 6.5478927747e-001	 1.7907054957e+000	-1.4904185991e+000
 6.3591530894e-001	 1.7974945819e+000	-1.4841669093e+000
 6.1701606897e-001	 1.8040693229e+000	-1.4765960923e+000
 5.9809501449e-001	 1.8104301221e+000	-1.4672084617e+000
 5.7915557646e-001	 1.8165774529e+000	-1.4555270819e+000
 5.6020115826e-001	 1.8225118575e+000	-1.4410793067e+000
 7.5127489458e-001	 1.7596664699e+000	-1.5182656276e+000
 7.3251456269e-001	 1.7675583029e+000	-1.5129800139e+000
 7.1371119676e-001	 1.7752341081e+000	-1.5121608710e+000
 6.9486836946e-001	 1.7826939237e+000	-1.5129523005e+000
 6.7598963643e-001	 1.7899378627e+000	-1.5124967893e+000
 6.5707853436e-001	 1.7969661127e+000	-1.5085909004e+000
 6.3813857916e-001	 1.8037789348e+000	-1.5030747523e+000
 6.1917326418e-001	 1.8103766622e+000	-1.4960101105e+000
 6.0018605841e-001	 1.8167596998e+000	-1.4869747266e+000
 5.8118040482e-001	 1.8229285227e+000	-1.4755596167e+000
 5.6215971869e-001	 1.8288836751e+000	-1.4613524263e+000
 7.5389233550e-001	 1.7657971460e+000	-1.5294556868e+000
 7.3506664264e-001	 1.7737164741e+000	-1.5258927893e+000
 7.1619776580e-001	 1.7814190218e+000	-1.5266709468e+000
 6.9728929011e-001	 1.7889048274e+000	-1.5290072503e+000
 6.7834478359e-001	 1.7961740043e+000	-1.5301156000e+000
 6.5936779526e-001	 1.8032267407e+000	-1.5275628156e+000
 6.4036185328e-001	 1.8100632986e+000	-1.5228370025e+000
 6.2133046316e-001	 1.8166840126e+000	-1.5163157010e+000
 6.0227710598e-001	 1.8230892887e+000	-1.5076540872e+000
 5.8320523672e-001	 1.8292796037e+000	-1.4965128152e+000
 5.6411828254e-001	 1.8352555038e+000	-1.4825412089e+000
 7.5650978165e-001	 1.7719278343e+000	-1.5411615946e+000
 7.3761872768e-001	 1.7798746576e+000	-1.5393942229e+000
 7.1868433980e-001	 1.7876039479e+000	-1.5418165198e+000
 6.9971021559e-001	 1.7951157435e+000	-1.5457212035e+000
 6.8069993546e-001	 1.8024101583e+000	-1.5483961866e+000
 6.6165706074e-001	 1.8094873812e+000	-1.5472818224e+000
 6.4258513184e-001	 1.8163476750e+000	-1.5434016740e+000
 6.2348766645e-001	 1.8229913755e+000	-1.5374614352e+000
 6.0436815774e-001	 1.8294188901e+000	-1.5291956958e+000
 5.8523007267e-001	 1.8356306974e+000	-1.5183364332e+000
 5.6607685030e-001	 1.8416273453e+000	-1.5045960306e+000
 7.5912723369e-001	 1.7780585364e+000	-1.5533392668e+000
 7.4017081847e-001	 1.7860328549e+000	-1.5534427110e+000
 7.2117091941e-001	 1.7937888879e+000	-1.5575580075e+000
 7.0213114653e-001	 1.8013266735e+000	-1.5630561368e+000
 6.8305509263e-001	 1.8086463264e+000	-1.5673016212e+000
 6.6394633137e-001	 1.8157480358e+000	-1.5676966616e+000
 6.4480841541e-001	 1.8226320656e+000	-1.5647178059e+000
 6.2564487460e-001	 1.8292987526e+000	-1.5593966883e+000
 6.0645921420e-001	 1.8357485059e+000	-1.5515493042e+000
 5.8725491317e-001	 1.8419818054e+000	-1.5409806389e+000
 5.6803542248e-001	 1.8479992011e+000	-1.5274675114e+000
 5.4844984029e-001	 1.7842810970e+000	-1.3414720438e+000
 5.2988166537e-001	 1.7898831532e+000	-1.3234042820e+000
 5.1130539959e-001	 1.7952780070e+000	-1.3049608268e+000
 4.9272428313e-001	 1.8004663821e+000	-1.2865188824e+000
 4.7414152323e-001	 1.8054490649e+000	-1.2684302598e+000
 4.5556029281e-001	 1.8102269031e+000	-1.2510154893e+000
 4.3698372914e-001	 1.8148008047e+000	-1.2345598571e+000
 4.1841493261e-001	 1.8191717363e+000	-1.2193112395e+000
 3.9985696545e-001	 1.8233407217e+000	-1.2054795997e+000
 3.8131285062e-001	 1.8273088409e+000	-1.1932380036e+000
 3.6278557067e-001	 1.8310772282e+000	-1.1827250046e+000
 5.5040839043e-001	 1.7906528811e+000	-1.3551990004e+000
 5.3177390735e-001	 1.7962749426e+000	-1.3374536494e+000
 5.1313130451e-001	 1.8016890618e+000	-1.3193102895e+000
 4.9448383368e-001	 1.8068959649e+000	-1.3011412046e+000
 4.7583471353e-001	 1.8118964412e+000	-1.2832883604e+000
 4.5718712832e-001	 1.8166913414e+000	-1.2660577004e+000
 4.3854422653e-001	 1.8212815767e+000	-1.2497154174e+000
 4.1990911961e-001	 1.8256681172e+000	-1.2344860701e+000
 4.0128488075e-001	 1.8298519903e+000	-1.2205524042e+000
 3.8267454367e-001	 1.8338342799e+000	-1.2080567318e+000
 3.6408110160e-001	 1.8376161243e+000	-1.1971037140e+000
 5.5236694106e-001	 1.7970246668e+000	-1.3701428927e+000
 5.3366614979e-001	 1.8026667337e+000	-1.3526990426e+000
 5.1495720989e-001	 1.8081001182e+000	-1.3348296553e+000
 4.9624338466e-001	 1.8133255494e+000	-1.3169030523e+000
 4.7752790424e-001	 1.8183438191e+000	-1.2992520715e+000
 4.5881396423e-001	 1.8231557813e+000	-1.2821685525e+000
 4.4010472431e-001	 1.8277623504e+000	-1.2658998512e+000
 4.2140330699e-001	 1.8321644997e+000	-1.2506472464e+000
 4.0271279640e-001	 1.8363632605e+000	-1.2365660963e+000
 3.8403623707e-001	 1.8403597205e+000	-1.2237675916e+000
 3.6537663285e-001	 1.8441550221e+000	-1.2123219471e+000
 5.5432549267e-001	 1.8033964557e+000	-1.3862532326e+000
 5.3555839319e-001	 1.8090585279e+000	-1.3690915696e+000
 5.1678311618e-001	 1.8145111779e+000	-1.3514717027e+000
 4.9800293652e-001	 1.8197551370e+000	-1.3337589276e+000
 4.7922109581e-001	 1.8247912003e+000	-1.3162776463e+000
 4.6044080096e-001	 1.8296202245e+000	-1.2993060492e+000
 4.4166522287e-001	 1.8342431272e+000	-1.2830728799e+000
 4.2289749512e-001	 1.8386608854e+000	-1.2677561414e+000
 4.0414071276e-001	 1.8428745340e+000	-1.2534835971e+000
 3.8539793114e-001	 1.8468851644e+000	-1.2403349086e+000
 3.6667216475e-001	 1.8506939232e+000	-1.2283452482e+000
 5.5628404575e-001	 1.8097682494e+000	-1.4034796036e+000
 5.3745063800e-001	 1.8154503269e+000	-1.3865822673e+000
 5.1860902383e-001	 1.8209222423e+000	-1.3691890124e+000
 4.9976248970e-001	 1.8261847295e+000	-1.3516630234e+000
 4.8091428864e-001	 1.8312385863e+000	-1.3343209336e+000
 4.6206763891e-001	 1.8360846725e+000	-1.3174277108e+000
 4.4322572260e-001	 1.8407239090e+000	-1.3011936795e+000
 4.2439168437e-001	 1.8451572761e+000	-1.2857735360e+000
 4.0556863020e-001	 1.8493858124e+000	-1.2712672042e+000
 3.8675962624e-001	 1.8534106132e+000	-1.2577223694e+000
 3.6796769762e-001	 1.8572328292e+000	-1.2451385232e+000
 5.5824260078e-001	 1.8161400495e+000	-1.4217716902e+000
 5.3934288471e-001	 1.8218421324e+000	-1.4051221292e+000
 5.2043493332e-001	 1.8273333131e+000	-1.3879339928e+000
 5.0152204464e-001	 1.8326143285e+000	-1.3705692477e+000
 4.8260748317e-001	 1.8376859787e+000	-1.3533374012e+000
 4.6369447849e-001	 1.8425491270e+000	-1.3364905961e+000
 4.4478622389e-001	 1.8472046972e+000	-1.3202208997e+000
 4.2588587511e-001	 1.8516536732e+000	-1.3046596364e+000
 4.0699654907e-001	 1.8558970973e+000	-1.2898786085e+000
 3.8812132269e-001	 1.8599360686e+000	-1.2758930374e+000
 3.6926323179e-001	 1.8637717417e+000	-1.2626660533e+000
 5.6020115826e-001	 1.8225118575e+000	-1.4410793067e+000
 5.4123513378e-001	 1.8282339458e+000	-1.4246621329e+000
 5.2226084509e-001	 1.8337443920e+000	-1.4076589064e+000
 5.0328160178e-001	 1.8390439354e+000	-1.3904312489e+000
 4.8430067981e-001	 1.8441333793e+000	-1.3732821587e+000
 4.6532132009e-001	 1.8490135895e+000	-1.3564513238e+000
 4.4634672713e-001	 1.8536854935e+000	-1.3401126844e+000
 4.2738006772e-001	 1.8581500784e+000	-1.3243740930e+000
 4.0842446971e-001	 1.8624083903e+000	-1.3092789108e+000
 3.8948302085e-001	 1.8664615320e+000	-1.2948093676e+000
 3.7055876757e-001	 1.8703106624e+000	-1.2808915083e+000
 5.6215971869e-001	 1.8288836751e+000	-1.4613524263e+000
 5.4312738569e-001	 1.8346257688e+000	-1.4451532671e+000
 5.2408675959e-001	 1.8401554805e+000	-1.4283158955e+000
 5.0504116156e-001	 1.8454735520e+000	-1.4112024390e+000
 4.8599387900e-001	 1.8505807894e+000	-1.3941099802e+000
 4.6694816414e-001	 1.8554780617e+000	-1.3772660936e+000
 4.4790723271e-001	 1.8601662995e+000	-1.3608266908e+000
 4.2887426257e-001	 1.8646464934e+000	-1.3448760181e+000
 4.0985239251e-001	 1.8689196931e+000	-1.3294286381e+000
 3.9084472105e-001	 1.8729870053e+000	-1.3144332208e+000
 3.7185430530e-001	 1.8768495929e+000	-1.2997779596e+000
 5.6411828254e-001	 1.8352555038e+000	-1.4825412089e+000
 5.4501964091e-001	 1.8410176030e+000	-1.4665465589e+000
 5.2591267729e-001	 1.8465665802e+000	-1.4498570075e+000
 5.0680072441e-001	 1.8519031799e+000	-1.4328360185e+000
 4.8768708114e-001	 1.8570282109e+000	-1.4157753269e+000
 4.6857501104e-001	 1.8619425453e+000	-1.3988907071e+000
 4.4946774102e-001	 1.8666471169e+000	-1.3823201094e+000
 4.3036846003e-001	 1.8711429198e+000	-1.3661240040e+000
 4.1128031780e-001	 1.8754310073e+000	-1.3502877602e+000
 3.9220642363e-001	 1.8795124900e+000	-1.3347258793e+000
 3.7314984530e-001	 1.8833885349e+000	-1.3192878935e+000
 5.6607685030e-001	 1.8416273453e+000	-1.5045960306e+000
 5.4691189992e-001	 1.8474094499e+000	-1.4887931007e+000
 5.2773859865e-001	 1.8529776927e+000	-1.4722342208e+000
 5.0856029079e-001	 1.8583328206e+000	-1.4552850001e+000
 4.8938028667e-001	 1.8634756452e+000	-1.4382323697e+000
 4.7020186119e-001	 1.8684070418e+000	-1.4212805892e+000
 4.5102825245e-001	 1.8731279472e+000	-1.4045496828e+000
 4.3186266048e-001	 1.8776393591e+000	-1.3880761407e+000
 4.1270824594e-001	 1.8819423345e+000	-1.3718157057e+000
 3.9356812894e-001	 1.8860379877e+000	-1.3556480608e+000
 3.7444538788e-001	 1.8899274899e+000	-1.3393832237e+000
 5.6803542248e-001	 1.8479992011e+000	-1.5274675114e+000
 5.4880416318e-001	 1.8538013113e+000	-1.5118440775e+000
 5.2956452411e-001	 1.8593888196e+000	-1.4953994698e+000
 5.1031986113e-001	 1.8647624757e+000	-1.4785022323e+000
 4.9107349602e-001	 1.8699230941e+000	-1.4614350112e+000
 4.7182871500e-001	 1.8748715528e+000	-1.4443908082e+000
 4.5258876740e-001	 1.8796087921e+000	-1.4274717255e+000
 4.3335686430e-001	 1.8841358131e+000	-1.4106900338e+000
 4.1413617730e-001	 1.8884536763e+000	-1.3939713781e+000
 3.9492983731e-001	 1.8925635002e+000	-1.3771599330e+000
 3.7574093339e-001	 1.8964664596e+000	-1.3600253047e+000
 3.6278557067e-001	 1.8310772282e+000	-1.1827250046e+000
 3.4428084032e-001	 1.8346465508e+000	-1.1722553772e+000
 3.2579877309e-001	 1.8380186287e+000	-1.1602723907e+000
 3.0734221875e-001	 1.8411947520e+000	-1.1470772518e+000
 2.8891398288e-001	 1.8441762597e+000	-1.1329619148e+000
 2.7051682603e-001	 1.8469645376e+000	-1.1182156191e+000
 2.5215346289e-001	 1.8495610171e+000	-1.1031318596e+000
 2.3382656160e-001	 1.8519671738e+000	-1.0880156414e+000
 2.1553874303e-001	 1.8541845257e+000	-1.0731908739e+000
 1.9729258018e-001	 1.8562146319e+000	-1.0590077644e+000
 1.7909059756e-001	 1.8580590910e+000	-1.0458500819e+000
 3.6408110160e-001	 1.8376161243e+000	-1.1971037140e+000
 3.4551028965e-001	 1.8411981932e+000	-1.1860109656e+000
 3.2696222175e-001	 1.8445823130e+000	-1.1732704395e+000
 3.0843975785e-001	 1.8477697786e+000	-1.1592136791e+000
 2.8994571355e-001	 1.8507619334e+000	-1.1441597325e+000
 2.7148285925e-001	 1.8535601684e+000	-1.1284221173e+000
 2.5305391934e-001	 1.8561659201e+000	-1.1123162296e+000
 2.3466157149e-001	 1.8585806693e+000	-1.0961670440e+000
 2.1630844594e-001	 1.8608059395e+000	-1.0803169566e+000
 1.9799712485e-001	 1.8628432954e+000	-1.0651336271e+000
 1.7973014176e-001	 1.8646943412e+000	-1.0510176850e+000
 3.6537663285e-001	 1.8441550221e+000	-1.2123219471e+000
 3.4673973929e-001	 1.8477498373e+000	-1.2005457026e+000
 3.2812567071e-001	 1.8511459990e+000	-1.1869773202e+000
 3.0953729723e-001	 1.8543448067e+000	-1.1719805355e+000
 2.9097744448e-001	 1.8573476087e+000	-1.1559032256e+000
 2.7244889272e-001	 1.8601558008e+000	-1.1390848097e+000
 2.5395437603e-001	 1.8627708247e+000	-1.1218641051e+000
 2.3549658160e-001	 1.8651941665e+000	-1.1045874827e+000
 2.1707814904e-001	 1.8674273550e+000	-1.0876171682e+000
 1.9870166970e-001	 1.8694719605e+000	-1.0713395415e+000
 1.8036968613e-001	 1.8713295930e+000	-1.0561732962e+000
 3.6667216475e-001	 1.8506939232e+000	-1.2283452482e+000
 3.4796918954e-001	 1.8543014847e+000	-1.2158263939e+000
 3.2928912024e-001	 1.8577096883e+000	-1.2013613494e+000
 3.1063483716e-001	 1.8609198381e+000	-1.1853478176e+000
 2.9200917593e-001	 1.8639332873e+000	-1.1681641587e+000
 2.7341492667e-001	 1.8667514365e+000	-1.1501772338e+000
 2.5485483316e-001	 1.8693757327e+000	-1.1317507188e+000
 2.3633159213e-001	 1.8718076670e+000	-1.1132537234e+000
 2.1784785252e-001	 1.8740487738e+000	-1.0950695609e+000
 1.9940621489e-001	 1.8761006290e+000	-1.0776045150e+000
 1.8100923081e-001	 1.8779648482e+000	-1.0612964620e+000
 3.6796769762e-001	 1.8572328292e+000	-1.2451385232e+000
 3.4919864071e-001	 1.8608531370e+000	-1.2318192194e+000
 3.3045257065e-001	 1.8642733825e+000	-1.2163902369e+000
 3.1173237791e-001	 1.8674948745e+000	-1.1992849424e+000
 2.9304090815e-001	 1.8705189709e+000	-1.1809137514e+000
 2.7438096134e-001	 1.8733470772e+000	-1.1616724255e+000
 2.5575529097e-001	 1.8759806455e+000	-1.1419508523e+000
 2.3716660328e-001	 1.8784211724e+000	-1.1221421391e+000
 2.1861755658e-001	 1.8806701976e+000	-1.1026518604e+000
 2.0011076062e-001	 1.8827293024e+000	-1.0839073025e+000
 1.8164877597e-001	 1.8846001083e+000	-1.0663665588e+000
 3.6926323179e-001	 1.8637717417e+000	-1.2626660533e+000
 3.5042809312e-001	 1.8674047958e+000	-1.2484897440e+000
 3.3161602222e-001	 1.8708370833e+000	-1.2320310960e+000
 3.1282991975e-001	 1.8740699175e+000	-1.2137607558e+000
 2.9407264140e-001	 1.8771046610e+000	-1.1941226859e+000
 2.7534699698e-001	 1.8799427245e+000	-1.1735429244e+000
 2.5665574968e-001	 1.8825855650e+000	-1.1524388404e+000
 2.3800161526e-001	 1.8850346845e+000	-1.1312287133e+000
 2.1938726141e-001	 1.8872916280e+000	-1.1103414679e+000
 2.0081530705e-001	 1.8893579825e+000	-1.0902264072e+000
 1.8228832177e-001	 1.8912353750e+000	-1.0713627910e+000
 3.7055876757e-001	 1.8703106624e+000	-1.2808915083e+000
 3.5165754706e-001	 1.8739564628e+000	-1.2658029301e+000
 3.3277947524e-001	 1.8774007923e+000	-1.2482504532e+000
 3.1392746297e-001	 1.8806449686e+000	-1.2287435415e+000
 2.9510437594e-001	 1.8836903594e+000	-1.2077611143e+000
 2.7631303383e-001	 1.8865383800e+000	-1.1857607797e+000
 2.5755620951e-001	 1.8891904928e+000	-1.1631885754e+000
 2.3883662830e-001	 1.8916482048e+000	-1.1404890428e+000
 2.2015696721e-001	 1.8939130667e+000	-1.1181154614e+000
 2.0151985436e-001	 1.8959866708e+000	-1.0965400802e+000
 1.8292786837e-001	 1.8978706501e+000	-1.0762641903e+000
 3.7185430530e-001	 1.8768495929e+000	-1.2997779596e+000
 3.5288700284e-001	 1.8805081397e+000	-1.2837231483e+000
 3.3394293001e-001	 1.8839645111e+000	-1.2650142585e+000
 3.1502500784e-001	 1.8872200297e+000	-1.2442010288e+000
 2.9613611203e-001	 1.8902760676e+000	-1.2217986651e+000
 2.7727907213e-001	 1.8931340454e+000	-1.1982975561e+000
 2.5845667070e-001	 1.8957954305e+000	-1.1741735114e+000
 2.3967164258e-001	 1.8982617351e+000	-1.1498983407e+000
 2.2092667415e-001	 1.9005345152e+000	-1.1259505976e+000
 2.0222440273e-001	 1.9026153691e+000	-1.1028263217e+000
 1.8356741594e-001	 1.9045059351e+000	-1.0810496152e+000
 3.7314984530e-001	 1.8833885349e+000	-1.3192878935e+000
 3.5411646077e-001	 1.8870598280e+000	-1.3022141895e+000
 3.3510638682e-001	 1.8905282414e+000	-1.2822878952e+000
 3.1612255462e-001	 1.8937951022e+000	-1.2601004020e+000
 2.9716784992e-001	 1.8968617874e+000	-1.2362044505e+000
 2.7824511211e-001	 1.8997297224e+000	-1.2111243391e+000
 2.5935713346e-001	 1.9024003797e+000	-1.1853666689e+000
 2.4050665832e-001	 1.9048752769e+000	-1.1594314395e+000
 2.2169638245e-001	 1.9071559754e+000	-1.1338233138e+000
 2.0292895234e-001	 1.9092440790e+000	-1.1090628810e+000
 1.8420696462e-001	 1.9111412317e+000	-1.0856977495e+000
 3.7444538788e-001	 1.8899274899e+000	-1.3393832237e+000
 3.5534592117e-001	 1.8936115294e+000	-1.3212392759e+000
 3.3626984595e-001	 1.8970919848e+000	-1.3000361895e+000
 3.1722010361e-001	 1.9003701879e+000	-1.2764083077e+000
 2.9819958988e-001	 1.9034475203e+000	-1.2509470734e+000
 2.7921115403e-001	 1.9063254126e+000	-1.2242117408e+000
 2.6025759802e-001	 1.9090053421e+000	-1.1967406388e+000
 2.4134167574e-001	 1.9114888319e+000	-1.1690627942e+000
 2.2246609228e-001	 1.9137774489e+000	-1.1417097293e+000
 2.0363350335e-001	 1.9158728021e+000	-1.1152272570e+000
 1.8484651457e-001	 1.9177765415e+000	-1.0901871019e+000
 3.7574093339e-001	 1.8964664596e+000	-1.3600253047e+000
 3.5657538433e-001	 1.9001632456e+000	-1.3407610723e+000
 3.3743330770e-001	 1.9036557430e+000	-1.3182234205e+000
 3.1831765506e-001	 1.9069452883e+000	-1.2930908640e+000
 2.9923133216e-001	 1.9100332680e+000	-1.2659946343e+000
 2.8017719813e-001	 1.9129211175e+000	-1.2375299054e+000
 2.6115806461e-001	 1.9156103194e+000	-1.2082675866e+000
 2.4217669503e-001	 1.9181024018e+000	-1.1787664850e+000
 2.2323580385e-001	 1.9203989372e+000	-1.1495856472e+000
 2.0433805594e-001	 1.9225015401e+000	-1.1212966988e+000
 1.8548606597e-001	 1.9244118663e+000	-1.0944960052e+000
 1.7909059756e-001	 1.8580590910e+000	-1.0458500819e+000
 1.6093255705e-001	 1.8597197749e+000	-1.0340024302e+000
 1.4282365091e-001	 1.8611980670e+000	-1.0234515814e+000
 1.2476629280e-001	 1.8624956762e+000	-1.0142194033e+000
 1.0676284493e-001	 1.8636143449e+000	-1.0064134324e+000
 8.8815617717e-002	 1.8645558472e+000	-1.0002315878e+000
 7.0926869510e-002	 1.8653219878e+000	-9.9596610828e-001
 5.3098806374e-002	 1.8659146000e+000	-9.9400664389e-001
 3.5333581890e-002	 1.8663355444e+000	-9.9484244657e-001
 1.7633297017e-002	 1.8665867075e+000	-9.9906361285e-001
 0.0000000000e+000	 1.8666700000e+000	-1.0073613383e+000
 1.7973014176e-001	 1.8646943412e+000	-1.0510176850e+000
 1.6150725770e-001	 1.8663609555e+000	-1.0383616153e+000
 1.4333368348e-001	 1.8678445266e+000	-1.0272095223e+000
 1.2521184137e-001	 1.8691467697e+000	-1.0175279533e+000
 1.0714410201e-001	 1.8702694332e+000	-1.0093750816e+000
 8.9132784080e-002	 1.8712142977e+000	-1.0029057730e+000
 7.1180153987e-002	 1.8719831743e+000	-9.9837584471e-001
 5.3288425675e-002	 1.8725779027e+000	-9.9614544636e-001
 3.5459760416e-002	 1.8730003503e+000	-9.9668150650e-001
 1.7696266671e-002	 1.8732524103e+000	-1.0005591955e+000
 0.0000000000e+000	 1.8733360003e+000	-1.0084623639e+000
 1.8036968613e-001	 1.8713295930e+000	-1.0561732962e+000
 1.6208195850e-001	 1.8730021377e+000	-1.0426351573e+000
 1.4384371618e-001	 1.8744909879e+000	-1.0308357103e+000
 1.2565739005e-001	 1.8757978648e+000	-1.0206764371e+000
 1.0752535919e-001	 1.8769245232e+000	-1.0121563617e+000
 8.9449950523e-002	 1.8778727499e+000	-1.0053774950e+000
 7.1433438528e-002	 1.8786443624e+000	-1.0005494418e+000
 5.3478045024e-002	 1.8792412070e+000	-9.9799309655e-001
 3.5585938973e-002	 1.8796651579e+000	-9.9814336911e-001
 1.7759236341e-002	 1.8799181148e+000	-1.0015508909e+000
 0.0000000000e+000	 1.8800020022e+000	-1.0088826585e+000
 1.8100923081e-001	 1.8779648482e+000	-1.0612964620e+000
 1.6265665959e-001	 1.8796433233e+000	-1.0468016588e+000
 1.4435374913e-001	 1.8811374526e+000	-1.0343053326e+000
 1.2610293895e-001	 1.8824489633e+000	-1.0236341932e+000
 1.0790661656e-001	 1.8835796165e+000	-1.0147183671e+000
 8.9767117125e-002	 1.8845312054e+000	-1.0075972488e+000
 7.1686723195e-002	 1.8853055538e+000	-1.0024244812e+000
 5.3667664468e-002	 1.8859045147e+000	-9.9947199123e-001
 3.5712117594e-002	 1.8863299688e+000	-9.9913301887e-001
 1.7822206042e-002	 1.8865838226e+000	-1.0019240896e+000
 0.0000000000e+000	 1.8866680075e+000	-1.0084858855e+000
 1.8164877597e-001	 1.8846001083e+000	-1.0663665588e+000
 1.6323136111e-001	 1.8862845138e+000	-1.0508396549e+000
 1.4486378247e-001	 1.8877839222e+000	-1.0375936463e+000
 1.2654848819e-001	 1.8891000668e+000	-1.0263707992e+000
 1.0828787422e-001	 1.8902347148e+000	-1.0170226314e+000
 9.0084283965e-002	 1.8911896659e+000	-1.0095161974e+000
 7.1940008053e-002	 1.8919667502e+000	-1.0039394679e+000
 5.3857284054e-002	 1.8925678274e+000	-1.0005057308e+000
 3.5838296309e-002	 1.8929947847e+000	-9.9955694747e-001
 1.7885175791e-002	 1.8932495355e+000	-1.0015660148e+000
 0.0000000000e+000	 1.8933340178e+000	-1.0071378852e+000
 1.8228832177e-001	 1.8912353750e+000	-1.0713627910e+000
 1.6380606320e-001	 1.8929257110e+000	-1.0547276105e+000
 1.4537381632e-001	 1.8944303985e+000	-1.0406759734e+000
 1.2699403787e-001	 1.8957511769e+000	-1.0288560645e+000
 1.0866913225e-001	 1.8968898198e+000	-1.0190311169e+000
 9.0401451122e-002	 1.8978481330e+000	-1.0110861574e+000
 7.2193293164e-002	 1.8986279533e+000	-1.0050338119e+000
 5.4046903829e-002	 1.8992311468e+000	-1.0010190968e+000
 3.5964475151e-002	 1.8996596073e+000	-9.9932312671e-001
 1.7948145602e-002	 1.8999152550e+000	-1.0003656894e+000
 0.0000000000e+000	 1.9000000347e+000	-1.0047066367e+000
 1.8292786837e-001	 1.8978706501e+000	-1.0762641903e+000
 1.6438076601e-001	 1.8995669165e+000	-1.0584439178e+000
 1.4588385080e-001	 1.9010768830e+000	-1.0435276961e+000
 1.2743958811e-001	 1.9024022953e+000	-1.0310600231e+000
 1.0905039076e-001	 1.9035449331e+000	-1.0207062043e+000
 9.0718618676e-002	 1.9045066085e+000	-1.0122595854e+000
 7.2446578592e-002	 1.9052891647e+000	-1.0056478109e+000
 5.4236523842e-002	 1.9058944744e+000	-1.0009380300e+000
 3.6090654150e-002	 1.9063244382e+000	-9.9834098177e-001
 1.8011115493e-002	 1.9065809828e+000	-9.9821390450e-001
 0.0000000000e+000	 1.9066660600e+000	-1.0010622212e+000
 1.8356741594e-001	 1.9045059351e+000	-1.0810496152e+000
 1.6495546969e-001	 1.9062081319e+000	-1.0619668940e+000
 1.4639388605e-001	 1.9077233776e+000	-1.0461242525e+000
 1.2788513902e-001	 1.9090534238e+000	-1.0329529266e+000
 1.0943164985e-001	 1.9102000564e+000	-1.0220106826e+000
 9.1035786705e-002	 1.9111650939e+000	-1.0129895646e+000
 7.2699864399e-002	 1.9119503861e+000	-1.0057226327e+000
 5.4426144139e-002	 1.9125578121e+000	-1.0001896093e+000
 3.6216833339e-002	 1.9129892791e+000	-9.9652136524e-001
 1.8074085477e-002	 1.9132467206e+000	-9.9500318864e-001
 0.0000000000e+000	 1.9133320953e+000	-9.9607678558e-001
 1.8420696462e-001	 1.9111412317e+000	-1.0856977495e+000
 1.6553017437e-001	 1.9128493590e+000	-1.0652747784e+000
 1.4690392219e-001	 1.9143698837e+000	-1.0484411319e+000
 1.2833069071e-001	 1.9157045638e+000	-1.0345052371e+000
 1.0981290960e-001	 1.9168551913e+000	-1.0229077394e+000
 9.1352955289e-002	 1.9178235910e+000	-1.0132297916e+000
 7.2953150649e-002	 1.9186116192e+000	-1.0052002986e+000
 5.4615764767e-002	 1.9192211615e+000	-9.9870202993e-001
 3.6343012748e-002	 1.9196541316e+000	-9.9377653153e-001
 1.8137055572e-002	 1.9199124701e+000	-9.9062777699e-001
 0.0000000000e+000	 1.9199981422e+000	-9.8962450654e-001
 1.8484651457e-001	 1.9177765415e+000	-1.0901871019e+000
 1.6610488020e-001	 1.9194905993e+000	-1.0683457307e+000
 1.4741395936e-001	 1.9210164032e+000	-1.0504538706e+000
 1.2877624329e-001	 1.9223557172e+000	-1.0356876208e+000
 1.1019417011e-001	 1.9235103395e+000	-1.0233609512e+000
 9.1670124506e-002	 1.9244821015e+000	-1.0129345635e+000
 7.3206437406e-002	 1.9252728656e+000	-1.0040236668e+000
 5.4805385774e-002	 1.9258845241e+000	-9.9640458369e-001
 3.6469192408e-002	 1.9263189975e+000	-9.9002011195e-001
 1.8200025792e-002	 1.9265782329e+000	-9.8498358191e-001
 0.0000000000e+000	 1.9266642025e+000	-9.8158155610e-001
 1.8548606597e-001	 1.9244118663e+000	-1.0944960052e+000
 1.6667958732e-001	 1.9261318546e+000	-1.0711578282e+000
 1.4792399767e-001	 1.9276629376e+000	-1.0521380479e+000
 1.2922179687e-001	 1.9290068855e+000	-1.0364709408e+000
 1.1057543148e-001	 1.9301655027e+000	-1.0233342743e+000
 9.1987294436e-002	 1.9311406269e+000	-1.0120587654e+000
 7.3459724731e-002	 1.9319341269e+000	-1.0021364161e+000
 5.4995007207e-002	 1.9325479018e+000	-9.9322763829e-001
 3.6595372353e-002	 1.9329838784e+000	-9.8516709018e-001
 1.8262996154e-002	 1.9332440107e+000	-9.7796816368e-001
 0.0000000000e+000	 1.9333302777e+000	-9.7182606733e-001
 1.9333302777e+000	 0.0000000000e+000	 2.8630375590e+000
 1.9332440107e+000	 1.8262996154e-002	 2.8688793781e+000
 1.9329838784e+000	 3.6595372353e-002	 2.8676235409e+000
 1.9325479018e+000	 5.4995007207e-002	 2.8602958001e+000
 1.9319341269e+000	 7.3459724731e-002	 2.8480045647e+000
 1.9311406269e+000	 9.1987294436e-002	 2.8319347844e+000
 1.9301655027e+000	 1.1057543148e-001	 2.8133405367e+000
 1.9290068855e+000	 1.2922179687e-001	 2.7935363513e+000
 1.9276629376e+000	 1.4792399767e-001	 2.7738873110e+000
 1.9261318546e+000	 1.6667958732e-001	 2.7557979831e+000
 1.9244118663e+000	 1.8548606597e-001	 2.7407002472e+000
 1.9399973675e+000	 0.0000000000e+000	 2.8612942343e+000
 1.9399108030e+000	 1.8325976098e-002	 2.8656766322e+000
 1.9396497736e+000	 3.6721571498e-002	 2.8631991308e+000
 1.9392122935e+000	 5.5184657496e-002	 2.8548593711e+000
 1.9385964020e+000	 7.3713050601e-002	 2.8417387145e+000
 1.9378001656e+000	 9.2304512633e-002	 2.8249958724e+000
 1.9368216787e+000	 1.1095675087e-001	 2.8058592016e+000
 1.9356590660e+000	 1.2966741825e-001	 2.7856177000e+000
 1.9343104835e+000	 1.4843411359e-001	 2.7656107436e+000
 1.9327741205e+000	 1.6725438190e-001	 2.7472166191e+000
 1.9310482009e+000	 1.8612571470e-001	 2.7318399202e+000
 1.9466644622e+000	 0.0000000000e+000	 2.8633386054e+000
 1.9465776002e+000	 1.8388956089e-002	 2.8648683871e+000
 1.9463156738e+000	 3.6847770738e-002	 2.8601081479e+000
 1.9458766902e+000	 5.5374307927e-002	 2.8499901162e+000
 1.9452586821e+000	 7.3966376660e-002	 2.8355296679e+000
 1.9444597093e+000	 9.2621731067e-002	 2.8178187129e+000
 1.9434778597e+000	 1.1133807055e-001	 2.7980177125e+000
 1.9423112515e+000	 1.3011303997e-001	 2.7773463634e+000
 1.9409580344e+000	 1.4894422990e-001	 2.7570729897e+000
 1.9394163915e+000	 1.6782917691e-001	 2.7385026987e+000
 1.9376845405e+000	 1.8676536390e-001	 2.7229643695e+000
 1.9533315502e+000	 0.0000000000e+000	 2.8689430956e+000
 1.9532443908e+000	 1.8451936017e-002	 2.8663008226e+000
 1.9529815673e+000	 3.6973969852e-002	 2.8582584802e+000
 1.9525410802e+000	 5.5563958167e-002	 2.8456460019e+000
 1.9519209556e+000	 7.4219702465e-002	 2.8293742737e+000
 1.9511192463e+000	 9.2938949183e-002	 2.8104282898e+000
 1.9501340340e+000	 1.1171938984e-001	 2.7898589053e+000
 1.9489634303e+000	 1.3055866124e-001	 2.7687732251e+000
 1.9476055787e+000	 1.4945434570e-001	 2.7483236695e+000
 1.9460586558e+000	 1.6840397134e-001	 2.7296957747e+000
 1.9443208734e+000	 1.8740501246e-001	 2.7140947985e+000
 1.9599986200e+000	 0.0000000000e+000	 2.8778825535e+000
 1.9599111630e+000	 1.8514915772e-002	 2.8698216917e+000
 1.9596474424e+000	 3.7100168618e-002	 2.8575588856e+000
 1.9592054519e+000	 5.5753607886e-002	 2.8417853039e+000
 1.9585832107e+000	 7.4473027574e-002	 2.8232692670e+000
 1.9577787651e+000	 9.3256166427e-002	 2.8028491818e+000
 1.9567901900e+000	 1.1210070809e-001	 2.7814250448e+000
 1.9556155909e+000	 1.3100428129e-001	 2.7599485507e+000
 1.9542531046e+000	 1.4996446009e-001	 2.7394118516e+000
 1.9527009018e+000	 1.6897876420e-001	 2.7208350220e+000
 1.9509571881e+000	 1.8804465927e-001	 2.7052523062e+000
 1.9666656597e+000	 0.0000000000e+000	 2.8899342129e+000
 1.9665779053e+000	 1.8577895244e-002	 2.8752802959e+000
 1.9663132876e+000	 3.7226366817e-002	 2.8579189791e+000
 1.9658697937e+000	 5.5943256752e-002	 2.8383666046e+000
 1.9652454358e+000	 7.4726351542e-002	 2.8172112736e+000
 1.9644382538e+000	 9.3573382243e-002	 2.7951055719e+000
 1.9634463161e+000	 1.1248202462e-001	 2.7727578366e+000
 1.9622677215e+000	 1.3144989933e-001	 2.7509220012e+000
 1.9609006007e+000	 1.5047457219e-001	 2.7303860650e+000
 1.9593431180e+000	 1.6955355446e-001	 2.7119592457e+000
 1.9575934729e+000	 1.8868430319e-001	 2.6964578904e+000
 1.9733326578e+000	 0.0000000000e+000	 2.9048776526e+000
 1.9732446058e+000	 1.8640874322e-002	 2.8825274596e+000
 1.9729790911e+000	 3.7352564227e-002	 2.8592492201e+000
 1.9725340937e+000	 5.6132904432e-002	 2.8353487899e+000
 1.9719076193e+000	 7.4979673928e-002	 2.8111968144e+000
 1.9710977010e+000	 9.3890596076e-002	 2.7872212564e+000
 1.9701024006e+000	 1.1286333876e-001	 2.7638984396e+000
 1.9689198105e+000	 1.3189551458e-001	 2.7417426453e+000
 1.9675480552e+000	 1.5098468110e-001	 2.7212943111e+000
 1.9659852926e+000	 1.7012834114e-001	 2.7031068906e+000
 1.9642297162e+000	 1.8932394312e-001	 2.6877324519e+000
 1.9799996025e+000	 0.0000000000e+000	 2.9224947578e+000
 1.9799112531e+000	 1.8703852897e-002	 2.8914155061e+000
 1.9796448413e+000	 3.7478760628e-002	 2.8614608998e+000
 1.9791983405e+000	 5.6322550596e-002	 2.8326910459e+000
 1.9785697495e+000	 7.5232994288e-002	 2.8052223093e+000
 1.9777570949e+000	 9.4207807372e-002	 2.7792196546e+000
 1.9767584319e+000	 1.1324464986e-001	 2.7548874779e+000
 1.9755718464e+000	 1.3234112627e-001	 2.7324589728e+000
 1.9741954565e+000	 1.5149478593e-001	 2.7121840747e+000
 1.9726274141e+000	 1.7070312321e-001	 2.6943160488e+000
 1.9708659065e+000	 1.8996357793e-001	 2.6790967984e+000
 1.9866664822e+000	 0.0000000000e+000	 2.9425696819e+000
 1.9865778353e+000	 1.8766830858e-002	 2.9017982332e+000
 1.9863105265e+000	 3.7604955799e-002	 2.8644661290e+000
 1.9858625223e+000	 5.6512194912e-002	 2.8303528565e+000
 1.9852318148e+000	 7.5486312178e-002	 2.7992840821e+000
 1.9844164238e+000	 9.4525015576e-002	 2.7711238171e+000
 1.9834143982e+000	 1.1362595723e-001	 2.7457650523e+000
 1.9822238173e+000	 1.3278673361e-001	 2.7231189066e+000
 1.9808427930e+000	 1.5200488578e-001	 2.7031023359e+000
 1.9792694709e+000	 1.7127789968e-001	 2.6856244687e+000
 1.9775020320e+000	 1.9060320650e-001	 2.6705716473e+000
 1.9933332853e+000	 0.0000000000e+000	 2.9648888089e+000
 1.9932443409e+000	 1.8829808095e-002	 2.9135308903e+000
 1.9929761351e+000	 3.7731149520e-002	 2.8681778263e+000
 1.9925266274e+000	 5.6701837047e-002	 2.8282940003e+000
 1.9918938034e+000	 7.5739627156e-002	 2.7933783637e+000
 1.9910756762e+000	 9.4842220133e-002	 2.7629564354e+000
 1.9900702880e+000	 1.1400726022e-001	 2.7365707521e+000
 1.9888757118e+000	 1.3323233584e-001	 2.7137698150e+000
 1.9874900531e+000	 1.5251497977e-001	 2.6940955803e+000
 1.9859114512e+000	 1.7185266954e-001	 2.6770695624e+000
 1.9841380813e+000	 1.9124282771e-001	 2.6621776302e+000
 2.0000000000e+000	 0.0000000000e+000	 2.9892407169e+000
 1.9999107581e+000	 1.8892784498e-002	 2.9264701549e+000
 1.9996416553e+000	 3.7857341570e-002	 2.8725097059e+000
 1.9991906443e+000	 5.6891476671e-002	 2.8264745478e+000
 1.9985557038e+000	 7.5992938778e-002	 2.7875012966e+000
 1.9977348403e+000	 9.5159420487e-002	 2.7547398498e+000
 1.9967260896e+000	 1.1438855817e-001	 2.7273436660e+000
 1.9955275182e+000	 1.3367793215e-001	 2.7044585235e+000
 1.9941372251e+000	 1.5302506700e-001	 2.6852098104e+000
 1.9925533436e+000	 1.7242743179e-001	 2.6686884141e+000
 1.9907740426e+000	 1.9188244045e-001	 2.6539352952e+000
 1.9244118663e+000	 1.8548606597e-001	 2.7407002472e+000
 1.9225015401e+000	 2.0433805594e-001	 2.7266855167e+000
 1.9203989372e+000	 2.2323580385e-001	 2.7106895416e+000
 1.9181024018e+000	 2.4217669503e-001	 2.6924226094e+000
 1.9156103194e+000	 2.6115806461e-001	 2.6715758633e+000
 1.9129211175e+000	 2.8017719813e-001	 2.6478080773e+000
 1.9100332680e+000	 2.9923133216e-001	 2.6207320768e+000
 1.9069452883e+000	 3.1831765506e-001	 2.5899009609e+000
 1.9036557430e+000	 3.3743330770e-001	 2.5547942976e+000
 1.9001632456e+000	 3.5657538433e-001	 2.5148044715e+000
 1.8964664596e+000	 3.7574093339e-001	 2.4692233760e+000
 1.9310482009e+000	 1.8612571470e-001	 2.7318399202e+000
 1.9291312870e+000	 2.0504271576e-001	 2.7176736990e+000
 1.9270214332e+000	 2.2400563255e-001	 2.7017445759e+000
 1.9247169782e+000	 2.4301184140e-001	 2.6837202845e+000
 1.9222163018e+000	 2.6205866823e-001	 2.6632514931e+000
 1.9195178263e+000	 2.8114338923e-001	 2.6399581765e+000
 1.9166200180e+000	 3.0026323145e-001	 2.6134156111e+000
 1.9135213894e+000	 3.1941537353e-001	 2.5831401555e+000
 1.9102205001e+000	 3.3859694651e-001	 2.5485749884e+000
 1.9067159588e+000	 3.5780503459e-001	 2.5090759894e+000
 1.9030064244e+000	 3.7703667605e-001	 2.4638979586e+000
 1.9376845405e+000	 1.8676536390e-001	 2.7229643695e+000
 1.9357610387e+000	 2.0574737610e-001	 2.7087364415e+000
 1.9336439341e+000	 2.2477546183e-001	 2.6929529251e+000
 1.9313315596e+000	 2.4384698839e-001	 2.6752388521e+000
 1.9288222892e+000	 2.6295927253e-001	 2.6552046633e+000
 1.9261145399e+000	 2.8210958107e-001	 2.6324321749e+000
 1.9232067730e+000	 3.0129513151e-001	 2.6064601461e+000
 1.9200974954e+000	 3.2051309283e-001	 2.5767696127e+000
 1.9167852621e+000	 3.3976058619e-001	 2.5427691641e+000
 1.9132686769e+000	 3.5903468578e-001	 2.5037803513e+000
 1.9095463942e+000	 3.7833241968e-001	 2.4590234275e+000
 1.9443208734e+000	 1.8740501246e-001	 2.7140947985e+000
 1.9423907839e+000	 2.0645203574e-001	 2.6998738990e+000
 1.9402664285e+000	 2.2554529034e-001	 2.6842962636e+000
 1.9379461343e+000	 2.4468213455e-001	 2.6669441419e+000
 1.9354282700e+000	 2.6385987593e-001	 2.6473880621e+000
 1.9327112470e+000	 2.8307577193e-001	 2.6251723890e+000
 1.9297935213e+000	 3.0232703055e-001	 2.5998004610e+000
 1.9266735949e+000	 3.2161081104e-001	 2.5707194726e+000
 1.9233500176e+000	 3.4092422471e-001	 2.5373052852e+000
 1.9198213885e+000	 3.6026433573e-001	 2.4988473570e+000
 1.9160863574e+000	 3.7962816202e-001	 2.4545339973e+000
 1.9509571881e+000	 1.8804465927e-001	 2.7052523062e+000
 1.9490205108e+000	 2.0715669343e-001	 2.6910864200e+000
 1.9468889046e+000	 2.2631511673e-001	 2.6757567116e+000
 1.9445606909e+000	 2.4551727841e-001	 2.6588026364e+000
 1.9420342327e+000	 2.6476047685e-001	 2.6397551923e+000
 1.9393079360e+000	 2.8404196014e-001	 2.6181220665e+000
 1.9363802515e+000	 3.0335892674e-001	 2.5933723381e+000
 1.9332496762e+000	 3.2270852622e-001	 2.5649209058e+000
 1.9299147550e+000	 3.4208786003e-001	 2.5321128265e+000
 1.9263740820e+000	 3.6149398230e-001	 2.4942077605e+000
 1.9226263026e+000	 3.8092390079e-001	 2.4503647346e+000
 1.9575934729e+000	 1.8868430319e-001	 2.6964578904e+000
 1.9556502079e+000	 2.0786134796e-001	 2.6823745449e+000
 1.9535113509e+000	 2.2708493965e-001	 2.6673168291e+000
 1.9511752177e+000	 2.4635241851e-001	 2.6507814608e+000
 1.9486401656e+000	 2.6566107372e-001	 2.6322603574e+000
 1.9459045952e+000	 2.8500814400e-001	 2.6112253695e+000
 1.9429669521e+000	 3.0439081829e-001	 2.5871125443e+000
 1.9398257280e+000	 3.2380623647e-001	 2.5593060940e+000
 1.9364794628e+000	 3.4325149011e-001	 2.5271222567e+000
 1.9329267461e+000	 3.6272362334e-001	 2.4897932512e+000
 1.9291662184e+000	 3.8221963373e-001	 2.4464515393e+000
 1.9642297162e+000	 1.8932394312e-001	 2.6877324519e+000
 1.9622798636e+000	 2.0856599809e-001	 2.6737390045e+000
 1.9601337559e+000	 2.2785475776e-001	 2.6589596095e+000
 1.9577897031e+000	 2.4718755339e-001	 2.6428483724e+000
 1.9552460572e+000	 2.6656166495e-001	 2.6248586483e+000
 1.9525012133e+000	 2.8597432182e-001	 2.6044273589e+000
 1.9495536115e+000	 3.0542270339e-001	 2.5809588131e+000
 1.9464017387e+000	 3.2490393985e-001	 2.5538082107e+000
 1.9430441297e+000	 3.4441511292e-001	 2.5222650196e+000
 1.9394793692e+000	 3.6395325670e-001	 2.4855364335e+000
 1.9357060934e+000	 3.8351535858e-001	 2.4427311265e+000
 1.9708659065e+000	 1.8996357793e-001	 2.6790967984e+000
 1.9689094662e+000	 2.0927064257e-001	 2.6651807186e+000
 1.9667561078e+000	 2.2862456972e-001	 2.6506684738e+000
 1.9644041357e+000	 2.4802268159e-001	 2.6349717511e+000
 1.9618518960e+000	 2.6746224898e-001	 2.6175059298e+000
 1.9590977785e+000	 2.8694049191e-001	 2.5976739782e+000
 1.9561402183e+000	 3.0645458024e-001	 2.5748498269e+000
 1.9529776968e+000	 3.2600163445e-001	 2.5483614022e+000
 1.9496087440e+000	 3.4557872642e-001	 2.5174735140e+000
 1.9460319399e+000	 3.6518288022e-001	 2.4813708085e+000
 1.9422459160e+000	 3.8481107306e-001	 2.4391410081e+000
 1.9775020320e+000	 1.9060320650e-001	 2.6705716473e+000
 1.9755390042e+000	 2.0997528018e-001	 2.6567007941e+000
 1.9733783952e+000	 2.2939437417e-001	 2.6424272639e+000
 1.9710185037e+000	 2.4885780165e-001	 2.6271205888e+000
 1.9684576703e+000	 2.6836282423e-001	 2.6101588275e+000
 1.9656942795e+000	 2.8790665258e-001	 2.5909120380e+000
 1.9627267608e+000	 3.0748644702e-001	 2.5687251995e+000
 1.9595535907e+000	 3.2709931835e-001	 2.5429007694e+000
 1.9561732943e+000	 3.4674232857e-001	 2.5126810752e+000
 1.9525844467e+000	 3.6641249174e-001	 2.4772307551e+000
 1.9487856748e+000	 3.8610677490e-001	 2.4356194751e+000
 1.9841380813e+000	 1.9124282771e-001	 2.6621776302e+000
 1.9821684660e+000	 2.1067990969e-001	 2.6483005237e+000
 1.9800006065e+000	 2.3016416976e-001	 2.6342202370e+000
 1.9776327957e+000	 2.4969291210e-001	 2.6192644799e+000
 1.9750633687e+000	 2.6926338913e-001	 2.6027747146e+000
 1.9722907046e+000	 2.8887280213e-001	 2.5840892004e+000
 1.9693132275e+000	 3.0851830194e-001	 2.5625254589e+000
 1.9661294090e+000	 3.2819698962e-001	 2.5373623489e+000
 1.9627377691e+000	 3.4790591734e-001	 2.5078219556e+000
 1.9591368782e+000	 3.6764208913e-001	 2.4730515111e+000
 1.9553253585e+000	 3.8740246185e-001	 2.4321055801e+000
 1.9907740426e+000	 1.9188244045e-001	 2.6539352952e+000
 1.9887978399e+000	 2.1138452987e-001	 2.6399813838e+000
 1.9866227300e+000	 2.3093395515e-001	 2.6260320595e+000
 1.9842470000e+000	 2.5052801148e-001	 2.6113736117e+000
 1.9816689796e+000	 2.7016394209e-001	 2.5953116997e+000
 1.9788870423e+000	 2.8983893889e-001	 2.5771539640e+000
 1.9758996070e+000	 3.0955014318e-001	 2.5561920302e+000
 1.9727051402e+000	 3.2929464635e-001	 2.5316830954e+000
 1.9693021570e+000	 3.4906949069e-001	 2.5028313068e+000
 1.9656892228e+000	 3.6887167023e-001	 2.4687691552e+000
 1.9618649555e+000	 3.8869813162e-001	 2.4285391197e+000
 1.8964664596e+000	 3.7574093339e-001	 2.4692233760e+000
 1.8925635002e+000	 3.9492983731e-001	 2.4189219110e+000
 1.8884536763e+000	 4.1413617730e-001	 2.3655871361e+000
 1.8841358131e+000	 4.3335686430e-001	 2.3095246608e+000
 1.8796087921e+000	 4.5258876740e-001	 2.2508898662e+000
 1.8748715528e+000	 4.7182871500e-001	 2.1896771941e+000
 1.8699230941e+000	 4.9107349602e-001	 2.1257110474e+000
 1.8647624757e+000	 5.1031986113e-001	 2.0586385371e+000
 1.8593888196e+000	 5.2956452411e-001	 1.9879243115e+000
 1.8538013113e+000	 5.4880416318e-001	 1.9128476985e+000
 1.8479992011e+000	 5.6803542248e-001	 1.8325023896e+000
 1.9030064244e+000	 3.7703667605e-001	 2.4638979586e+000
 1.8990900057e+000	 3.9629175291e-001	 2.4138204235e+000
 1.8949660091e+000	 4.1556432597e-001	 2.3604991572e+000
 1.8906332557e+000	 4.3485129551e-001	 2.3042893180e+000
 1.8860906233e+000	 4.5414951983e-001	 2.2453914257e+000
 1.8813370476e+000	 4.7345581639e-001	 2.1838400108e+000
 1.8763715241e+000	 4.9276696304e-001	 2.1194938994e+000
 1.8711931094e+000	 5.1207969924e-001	 2.0520283734e+000
 1.8658009222e+000	 5.3139072744e-001	 1.9809294478e+000
 1.8601941453e+000	 5.5069671442e-001	 1.9054905023e+000
 1.8543720266e+000	 5.6999429271e-001	 1.8248115012e+000
 1.9095463942e+000	 3.7833241968e-001	 2.4590234275e+000
 1.9056165160e+000	 3.9765366953e-001	 2.4091770205e+000
 1.9014783467e+000	 4.1699247570e-001	 2.3558563495e+000
 1.8971307032e+000	 4.3634572783e-001	 2.2994692488e+000
 1.8925724593e+000	 4.5571027342e-001	 2.2402643650e+000
 1.8878025472e+000	 4.7508291900e-001	 2.1783191483e+000
 1.8828199590e+000	 4.9446043133e-001	 2.1135295024e+000
 1.8776237479e+000	 5.1383953867e-001	 2.0456013387e+000
 1.8722130296e+000	 5.3321693215e-001	 1.9740442839e+000
 1.8665869842e+000	 5.5258926707e-001	 1.8981677829e+000
 1.8607448569e+000	 5.7195316441e-001	 1.8170798382e+000
 1.9160863574e+000	 3.7962816202e-001	 2.4545339973e+000
 1.9121430199e+000	 3.9901558479e-001	 2.4049315835e+000
 1.9079906778e+000	 4.1842062401e-001	 2.3516036777e+000
 1.9036281442e+000	 4.3784015867e-001	 2.2950139548e+000
 1.8990542888e+000	 4.5727102546e-001	 2.2354622143e+000
 1.8942680404e+000	 4.7671001998e-001	 2.1730716937e+000
 1.8892683875e+000	 4.9615389792e-001	 2.1077780634e+000
 1.8840543799e+000	 5.1559937635e-001	 2.0393203574e+000
 1.8786251306e+000	 5.3504313503e-001	 1.9672340909e+000
 1.8729798167e+000	 5.5448181783e-001	 1.8908468177e+000
 1.8671176808e+000	 5.7391203416e-001	 1.8092763717e+000
 1.9226263026e+000	 3.8092390079e-001	 2.4503647346e+000
 1.9186695058e+000	 4.0037749630e-001	 2.4010247269e+000
 1.9145029911e+000	 4.1984876839e-001	 2.3476867292e+000
 1.9101255673e+000	 4.3933458539e-001	 2.2908734611e+000
 1.9055361006e+000	 4.5883177321e-001	 2.2309389389e+000
 1.9007335158e+000	 4.7833711649e-001	 2.1680550920e+000
 1.8957167982e+000	 4.9784735986e-001	 2.1022000835e+000
 1.8904849943e+000	 5.1735920918e-001	 2.0331485965e+000
 1.8850372140e+000	 5.3686933288e-001	 1.9604643449e+000
 1.8793726316e+000	 5.5637436339e-001	 1.8834950660e+000
 1.8734904872e+000	 5.7587089851e-001	 1.8013702466e+000
 1.9291662184e+000	 3.8221963373e-001	 2.4464515393e+000
 1.9251959623e+000	 4.0173940169e-001	 2.3973977803e+000
 1.9210152750e+000	 4.2127690635e-001	 2.3440516985e+000
 1.9166229612e+000	 4.4082900539e-001	 2.2869983011e+000
 1.9120178831e+000	 4.6039251393e-001	 2.2266489249e+000
 1.9071989622e+000	 4.7996420568e-001	 2.1632271335e+000
 1.9021651798e+000	 4.9954081418e-001	 2.0967563450e+000
 1.8969155797e+000	 5.1911903409e-001	 2.0270494540e+000
 1.8914492685e+000	 5.3869552252e-001	 1.9537007164e+000
 1.8857654177e+000	 5.5826690043e-001	 1.8760801587e+000
 1.8798632649e+000	 5.7782975406e-001	 1.7933307719e+000
 1.9357060934e+000	 3.8351535858e-001	 2.4427311265e+000
 1.9317223781e+000	 4.0310129856e-001	 2.3939927720e+000
 1.9275275182e+000	 4.2270503537e-001	 2.3406453709e+000
 1.9231203144e+000	 4.4232341605e-001	 2.2833395023e+000
 1.9184996252e+000	 4.6195324490e-001	 2.2225469656e+000
 1.9136643681e+000	 4.8159128470e-001	 2.1585459406e+000
 1.9086135212e+000	 5.0123425792e-001	 2.0914078996e+000
 1.9033461249e+000	 5.2087884801e-001	 2.0209865473e+000
 1.8978612829e+000	 5.4052170075e-001	 1.9469090587e+000
 1.8921581639e+000	 5.6015942564e-001	 1.8685698878e+000
 1.8862360028e+000	 5.7978859736e-001	 1.7851274100e+000
 1.9422459160e+000	 3.8481107306e-001	 2.4391410081e+000
 1.9382487417e+000	 4.0446318454e-001	 2.3907524116e+000
 1.9340397093e+000	 4.2413315298e-001	 2.3374151074e+000
 1.9296176157e+000	 4.4381781475e-001	 2.2798485709e+000
 1.9249813154e+000	 4.6351396338e-001	 2.2185882480e+000
 1.9201297223e+000	 4.8321835070e-001	 2.1539699550e+000
 1.9150618110e+000	 5.0292768810e-001	 2.0861160565e+000
 1.9097766187e+000	 5.2263864784e-001	 2.0149237016e+000
 1.9042732461e+000	 5.4234786436e-001	 1.9400553973e+000
 1.8985508589e+000	 5.6205193571e-001	 1.8609321952e+000
 1.8926086897e+000	 5.8174742499e-001	 1.7767297664e+000
 1.9487856748e+000	 3.8610677490e-001	 2.4356194751e+000
 1.9447750416e+000	 4.0582505724e-001	 2.3876200740e+000
 1.9405518370e+000	 4.2556125666e-001	 2.3343088286e+000
 1.9361148537e+000	 4.4531219888e-001	 2.2764774781e+000
 1.9314629424e+000	 4.6507466664e-001	 2.2147283390e+000
 1.9265950134e+000	 4.8484540083e-001	 2.1494579250e+000
 1.9215100380e+000	 5.0462110178e-001	 2.0808423697e+000
 1.9162070498e+000	 5.2439843052e-001	 2.0088249391e+000
 1.9106851467e+000	 5.4417401017e-001	 1.9331059189e+000
 1.9049434917e+000	 5.6394442733e-001	 1.8531351628e+000
 1.8989813144e+000	 5.8370623352e-001	 1.7681075793e+000
 1.9553253585e+000	 3.8740246185e-001	 2.4321055801e+000
 1.9513012664e+000	 4.0718691427e-001	 2.3845397824e+000
 1.9470638897e+000	 4.2698934391e-001	 2.3312750000e+000
 1.9426120169e+000	 4.4680656583e-001	 2.2731786454e+000
 1.9379444949e+000	 4.6663535196e-001	 2.2109231720e+000
 1.9330602302e+000	 4.8647243226e-001	 2.1449688930e+000
 1.9279581908e+000	 5.0631449598e-001	 2.0755486270e+000
 1.9226374070e+000	 5.2615819296e-001	 2.0026544666e+000
 1.9170969736e+000	 5.4600013498e-001	 1.9260269603e+000
 1.9113360509e+000	 5.6583689718e-001	 1.8451470017e+000
 1.9053538659e+000	 5.8566501952e-001	 1.7592307098e+000
 1.9618649555e+000	 3.8869813162e-001	 2.4285391197e+000
 1.9578274048e+000	 4.0854875327e-001	 2.3814561925e+000
 1.9535758562e+000	 4.2841741224e-001	 2.3282626166e+000
 1.9491090941e+000	 4.4830091298e-001	 2.2699049306e+000
 1.9444259615e+000	 4.6819601659e-001	 2.2071290342e+000
 1.9395253614e+000	 4.8809944212e-001	 2.1404621830e+000
 1.9344062581e+000	 5.0800786774e-001	 2.0701968375e+000
 1.9290676790e+000	 5.2791793208e-001	 1.9963766653e+000
 1.9235087156e+000	 5.4782623559e-001	 1.9187849982e+000
 1.9177285254e+000	 5.6772934196e-001	 1.8369360415e+000
 1.9117263330e+000	 5.8762377956e-001	 1.7500691311e+000
 1.8479992011e+000	 5.6803542248e-001	 1.8325023896e+000
 1.8419818054e+000	 5.8725491317e-001	 1.7461778643e+000
 1.8357485059e+000	 6.0645921420e-001	 1.6532624220e+000
 1.8292987526e+000	 6.2564487460e-001	 1.5527289118e+000
 1.8226320656e+000	 6.4480841541e-001	 1.4433848409e+000
 1.8157480358e+000	 6.6394633137e-001	 1.3238870236e+000
 1.8086463264e+000	 6.8305509263e-001	 1.1967453177e+000
 1.8013266735e+000	 7.0213114653e-001	 1.0693321322e+000
 1.7937888879e+000	 7.2117091941e-001	 9.4390652769e-001
 1.7860328549e+000	 7.4017081847e-001	 8.2259573525e-001
 1.7780585364e+000	 7.5912723369e-001	 7.0749432318e-001
 1.8543720266e+000	 5.6999429271e-001	 1.8248115012e+000
 1.8483338799e+000	 5.8928006182e-001	 1.7381336750e+000
 1.8420790848e+000	 6.0855058889e-001	 1.6447675678e+000
 1.8356070896e+000	 6.2780241104e-001	 1.5436353847e+000
 1.8289174125e+000	 6.4703203732e-001	 1.4334851036e+000
 1.8220096432e+000	 6.6623595039e-001	 1.3129050398e+000
 1.8148834435e+000	 6.8541060821e-001	 1.1855007290e+000
 1.8075385488e+000	 7.0455244589e-001	 1.0577665709e+000
 1.7999747691e+000	 7.2365787742e-001	 9.3181709459e-001
 1.7921919895e+000	 7.4272329764e-001	 8.0973156896e-001
 1.7841901715e+000	 7.6174508406e-001	 6.9355658968e-001
 1.8607448569e+000	 5.7195316441e-001	 1.8170798382e+000
 1.8546859592e+000	 5.9130521199e-001	 1.7299764914e+000
 1.8484096685e+000	 6.1064196514e-001	 1.6360931552e+000
 1.8419154313e+000	 6.2995994909e-001	 1.5343021305e+000
 1.8352027642e+000	 6.4925566090e-001	 1.4232923655e+000
 1.8282712552e+000	 6.6852557112e-001	 1.3016267681e+000
 1.8211205652e+000	 6.8776612556e-001	 1.1740102837e+000
 1.8137504288e+000	 7.0697374706e-001	 1.0459158856e+000
 1.8061606550e+000	 7.2614483730e-001	 9.1940674916e-001
 1.7983511286e+000	 7.4527577873e-001	 7.9651335094e-001
 1.7903218112e+000	 7.6436293640e-001	 6.7923348593e-001
 1.8671176808e+000	 5.7391203416e-001	 1.8092763717e+000
 1.8610380321e+000	 5.9333036014e-001	 1.7216769414e+000
 1.8547402459e+000	 6.1273333930e-001	 1.6272117080e+000
 1.8482237668e+000	 6.3211748499e-001	 1.5247038317e+000
 1.8414881095e+000	 6.5147928226e-001	 1.4127837502e+000
 1.8345328610e+000	 6.7081518957e-001	 1.2901179166e+000
 1.8273576808e+000	 6.9012164056e-001	 1.1622498338e+000
 1.8199623025e+000	 7.0939504581e-001	 1.0337572243e+000
 1.8123465346e+000	 7.2863179470e-001	 9.0665382864e-001
 1.8045102617e+000	 7.4782825726e-001	 7.8292048544e-001
 1.7964534448e+000	 7.6698078611e-001	 6.6450534664e-001
 1.8734904872e+000	 5.7587089851e-001	 1.8013702466e+000
 1.8673900875e+000	 5.9535550271e-001	 1.7132058313e+000
 1.8610708059e+000	 6.1482470772e-001	 1.6180959419e+000
 1.8545320848e+000	 6.3427501496e-001	 1.5148153856e+000
 1.8477734376e+000	 6.5370289750e-001	 1.4019366288e+000
 1.8407944495e+000	 6.7310480171e-001	 1.2783557327e+000
 1.8335947792e+000	 6.9247714907e-001	 1.1501952656e+000
 1.8261741591e+000	 7.1181633791e-001	 1.0212677863e+000
 1.8185323973e+000	 7.3111874526e-001	 8.9353673956e-001
 1.8106693777e+000	 7.5038072877e-001	 7.6893246491e-001
 1.8025850615e+000	 7.6959862863e-001	 6.4935261443e-001
 1.8798632649e+000	 5.7782975406e-001	 1.7933307719e+000
 1.8737421144e+000	 5.9738063617e-001	 1.7045341355e+000
 1.8674013374e+000	 6.1691606672e-001	 1.6087187542e+000
 1.8608403745e+000	 6.3643253522e-001	 1.5046118940e+000
 1.8540587374e+000	 6.5592650273e-001	 1.3907286104e+000
 1.8470560099e+000	 6.7539440356e-001	 1.2663147213e+000
 1.8398318495e+000	 6.9483264699e-001	 1.1378225020e+000
 1.8323859878e+000	 7.1423761911e-001	 1.0084248243e+000
 1.8247182321e+000	 7.3360568462e-001	 8.8003395933e-001
 1.8168284661e+000	 7.5293318880e-001	 7.5452887137e-001
 1.8087166507e+000	 7.7221645937e-001	 6.3375584103e-001
 1.8862360028e+000	 5.7978859736e-001	 1.7851274100e+000
 1.8800941016e+000	 5.9940575698e-001	 1.6956329866e+000
 1.8737318294e+000	 6.1900741265e-001	 1.5990532139e+000
 1.8671486248e+000	 6.3859004199e-001	 1.4940686542e+000
 1.8603439979e+000	 6.5815009407e-001	 1.3791375328e+000
 1.8533175312e+000	 6.7768399110e-001	 1.2539694094e+000
 1.8460688809e+000	 6.9718813019e-001	 1.1251075038e+000
 1.8385977777e+000	 7.1665888517e-001	 9.9520564545e-001
 1.8309040283e+000	 7.3609260845e-001	 8.6612403787e-001
 1.8229875159e+000	 7.5548563288e-001	 7.3968937786e-001
 1.8148482015e+000	 7.7483427375e-001	 6.1769568845e-001
 1.8926086897e+000	 5.8174742499e-001	 1.7767297664e+000
 1.8864460379e+000	 6.0143086158e-001	 1.6864736647e+000
 1.8800622707e+000	 6.2109874185e-001	 1.5890725523e+000
 1.8734568246e+000	 6.4074753150e-001	 1.4831611488e+000
 1.8666292081e+000	 6.6037366762e-001	 1.3671414531e+000
 1.8595790024e+000	 6.7997356032e-001	 1.2412943485e+000
 1.8523058623e+000	 6.9954359454e-001	 1.1120262719e+000
 1.8448095179e+000	 7.1908013187e-001	 9.8158761366e-001
 1.8370897750e+000	 7.3857951238e-001	 8.5178559923e-001
 1.8291465165e+000	 7.5803805654e-001	 7.2439374992e-001
 1.8209797032e+000	 7.7745206719e-001	 6.0115293016e-001
 1.8989813144e+000	 5.8370623352e-001	 1.7681075793e+000
 1.8927979124e+000	 6.0345594644e-001	 1.6770275883e+000
 1.8863926502e+000	 6.2319005065e-001	 1.5787501524e+000
 1.8797649629e+000	 6.4290499998e-001	 1.4718650367e+000
 1.8729143571e+000	 6.6259721949e-001	 1.3547186381e+000
 1.8658404125e+000	 6.8226310721e-001	 1.2282641162e+000
 1.8585427830e+000	 7.0189903593e-001	 1.0985548488e+000
 1.8510211975e+000	 7.2150135496e-001	 9.6754815120e-001
 1.8432754614e+000	 7.4106639206e-001	 8.3699734329e-001
 1.8353054571e+000	 7.6059045531e-001	 7.0862184702e-001
 1.8271111452e+000	 7.8006983511e-001	 5.8410845238e-001
 1.9053538659e+000	 5.8566501952e-001	 1.7592307098e+000
 1.8991497138e+000	 6.0548100801e-001	 1.6672663035e+000
 1.8927229570e+000	 6.2528133541e-001	 1.5680595398e+000
 1.8860730287e+000	 6.4506244364e-001	 1.4601561431e+000
 1.8791994338e+000	 6.6482074578e-001	 1.3418475555e+000
 1.8721017506e+000	 6.8455262778e-001	 1.2148533180e+000
 1.8647796319e+000	 7.0425445023e-001	 1.0846693206e+000
 1.8572328057e+000	 7.2392255020e-001	 9.5306474053e-001
 1.8494610766e+000	 7.4355324314e-001	 8.2173804740e-001
 1.8414643268e+000	 7.6314282474e-001	 6.9235362411e-001
 1.8332425166e+000	 7.8268757292e-001	 5.6654325529e-001
 1.9117263330e+000	 5.8762377956e-001	 1.7500691311e+000
 1.9055014310e+000	 6.0750604275e-001	 1.6571614741e+000
 1.8990531799e+000	 6.2737259245e-001	 1.5569743726e+000
 1.8923810108e+000	 6.4721985872e-001	 1.4480104501e+000
 1.8854844272e+000	 6.6704424262e-001	 1.3285080228e+000
 1.8783630058e+000	 6.8684211801e-001	 1.2010365894e+000
 1.8710163982e+000	 7.0660983332e-001	 1.0703458192e+000
 1.8634443316e+000	 7.2634371337e-001	 9.3811492613e-001
 1.8556466099e+000	 7.4604006127e-001	 8.0598656818e-001
 1.8476231149e+000	 7.6569516034e-001	 6.7556913313e-001
 1.8393738069e+000	 7.8530527604e-001	 5.4843845435e-001
 1.7780585364e+000	 7.5912723369e-001	 7.0749432318e-001
 1.7698672163e+000	 7.7803370737e-001	 5.9649966833e-001
 1.7614578321e+000	 7.9688944998e-001	 4.8599537853e-001
 1.7528305796e+000	 8.1569081426e-001	 3.7586725182e-001
 1.7439857337e+000	 8.3443414372e-001	 2.6605175554e-001
 1.7349236489e+000	 8.5311577476e-001	 1.5653744243e-001
 1.7256447597e+000	 8.7173203880e-001	 4.7365559719e-002
 1.7161495812e+000	 8.9027926438e-001	-6.1370184181e-002
 1.7064387096e+000	 9.0875377933e-001	-1.6952472405e-001
 1.6965128223e+000	 9.2715191300e-001	-2.7690363492e-001
 1.6863726785e+000	 9.4546999843e-001	-3.8326603572e-001
 1.7841901715e+000	 7.6174508406e-001	 6.9355658968e-001
 1.7759706036e+000	 7.8071675672e-001	 5.8150579528e-001
 1.7675322196e+000	 7.9963752336e-001	 4.7028065799e-001
 1.7588752161e+000	 8.1850372415e-001	 3.5972321465e-001
 1.7499998688e+000	 8.3731168998e-001	 2.4972783221e-001
 1.7409065334e+000	 8.5605774463e-001	 1.4024276822e-001
 1.7315956459e+000	 8.7473820686e-001	 3.1270903941e-002
 1.7220677232e+000	 8.9334939254e-001	-7.7130386197e-002
 1.7123233637e+000	 9.1188761686e-001	-1.8485025864e-001
 1.7023632470e+000	 9.3034919650e-001	-2.9172634047e-001
 1.6921881349e+000	 9.4873045184e-001	-3.9754759951e-001
 1.7903218112e+000	 7.6436293640e-001	 6.7923348593e-001
 1.7820739955e+000	 7.8339980808e-001	 5.6610014560e-001
 1.7736066118e+000	 8.0238559880e-001	 4.5413606661e-001
 1.7649198571e+000	 8.2131663614e-001	 3.4313919751e-001
 1.7560140083e+000	 8.4018923839e-001	 2.3296150638e-001
 1.7468894223e+000	 8.5899971670e-001	 1.2351068740e-001
 1.7375465365e+000	 8.7774437717e-001	 1.4751019514e-002
 1.7279858697e+000	 8.9641952301e-001	-9.3296660474e-002
 1.7182080222e+000	 9.1502145675e-001	-2.0055590102e-001
 1.7082136761e+000	 9.3354648240e-001	-3.0689651824e-001
 1.6980035957e+000	 9.5199090771e-001	-4.1213743285e-001
 1.7964534448e+000	 7.6698078611e-001	 6.6450534664e-001
 1.7881773813e+000	 7.8608285676e-001	 5.5026386187e-001
 1.7796809978e+000	 8.0513367150e-001	 4.3754344464e-001
 1.7709644921e+000	 8.2412954533e-001	 3.2609761233e-001
 1.7620281419e+000	 8.4306678394e-001	 2.1573562095e-001
 1.7528723052e+000	 8.6194168584e-001	 1.0632431964e-001
 1.7434974212e+000	 8.8075054447e-001	-2.2108636850e-003
 1.7339040103e+000	 8.9948965041e-001	-1.0988584460e-001
 1.7240926749e+000	 9.1815529350e-001	-2.1665874380e-001
 1.7140640993e+000	 9.3674376510e-001	-3.2243171206e-001
 1.7038190506e+000	 9.5525136031e-001	-4.2705373431e-001
 1.8025850615e+000	 7.6959862863e-001	 6.4935261443e-001
 1.7942807504e+000	 7.8876589806e-001	 5.3397821479e-001
 1.7857553672e+000	 8.0788173663e-001	 4.2048478059e-001
 1.7770091105e+000	 8.2694244678e-001	 3.0858103944e-001
 1.7680422589e+000	 8.4594432157e-001	 1.9803320738e-001
 1.7588551717e+000	 8.6488364688e-001	 8.8666993354e-002
 1.7494482896e+000	 8.8375670351e-001	-1.9631286787e-002
 1.7398221346e+000	 9.0255976937e-001	-1.2691452684e-001
 1.7299773113e+000	 9.2128912163e-001	-2.3317560979e-001
 1.7199145065e+000	 9.3994103901e-001	-3.3834917523e-001
 1.7096344896e+000	 9.5851180395e-001	-4.4231439096e-001
 1.8087166507e+000	 7.7221645937e-001	 6.3375584103e-001
 1.8003840919e+000	 7.9144892729e-001	 5.1722460398e-001
 1.7918297092e+000	 8.1062978941e-001	 4.0294221173e-001
 1.7830537016e+000	 8.2975533557e-001	 2.9057222766e-001
 1.7740563488e+000	 8.4882184625e-001	 1.7983748533e-001
 1.7648380113e+000	 8.6782559469e-001	 7.0522244812e-002
 1.7553991311e+000	 8.8676284903e-001	-3.7526563422e-002
 1.7457402323e+000	 9.0562987451e-001	-1.4439904825e-001
 1.7358619213e+000	 9.2442293567e-001	-2.5012305480e-001
 1.7257648873e+000	 9.4313829853e-001	-3.5466587410e-001
 1.7154499024e+000	 9.6177223292e-001	-4.5793698267e-001
 1.8148482015e+000	 7.7483427375e-001	 6.1769568845e-001
 1.8064873954e+000	 7.9413193975e-001	 4.9998455889e-001
 1.7979040132e+000	 8.1337782500e-001	 3.8489802458e-001
 1.7890982550e+000	 8.3256820678e-001	 2.7205409440e-001
 1.7800704012e+000	 8.5169935295e-001	 1.6113186227e-001
 1.7708208135e+000	 8.7076752411e-001	 5.1873817250e-002
 1.7613499355e+000	 8.8976897575e-001	-5.5912781150e-002
 1.7516582930e+000	 9.0869996047e-001	-1.6235550476e-001
 1.7417464946e+000	 9.2755673012e-001	-2.6751737038e-001
 1.7316152316e+000	 9.4633553808e-001	-3.7139849156e-001
 1.7212652789e+000	 9.6503264152e-001	-4.7393878647e-001
 1.8209797032e+000	 7.7745206719e-001	 6.0115293016e-001
 1.8125906500e+000	 7.9681493074e-001	 4.8223973969e-001
 1.8039782687e+000	 8.1612583862e-001	 3.6633465545e-001
 1.7951427600e+000	 8.3538105549e-001	 2.5300972582e-001
 1.7860844054e+000	 8.5457683663e-001	 1.4189993322e-001
 1.7768035678e+000	 8.7370942999e-001	 3.2705660064e-002
 1.7673006923e+000	 8.9277507843e-001	-7.4805802851e-002
 1.7575763064e+000	 9.1177002187e-001	-1.8079974914e-001
 1.7476310207e+000	 9.3069049950e-001	-2.8537458648e-001
 1.7374655290e+000	 9.4953275204e-001	-3.8856343040e-001
 1.7270806088e+000	 9.6829302403e-001	-4.9033678066e-001
 1.8271111452e+000	 7.8006983511e-001	 5.8410845238e-001
 1.8186938451e+000	 7.9949789558e-001	 4.6397193820e-001
 1.8100524650e+000	 8.1887382544e-001	 3.4723469107e-001
 1.8011872061e+000	 8.3819387678e-001	 2.3342237701e-001
 1.7920983510e+000	 8.5745429226e-001	 1.2212548042e-001
 1.7827862638e+000	 8.7665130720e-001	 1.3001928034e-002
 1.7732513910e+000	 8.9578115181e-001	-9.4221268050e-002
 1.7634942620e+000	 9.1484005334e-001	-1.9974739297e-001
 1.7535154895e+000	 9.3382423832e-001	-3.0371047411e-001
 1.7433157695e+000	 9.5272993484e-001	-4.0617681668e-001
 1.7328958820e+000	 9.7155337476e-001	-5.0714764898e-001
 1.8332425166e+000	 7.8268757292e-001	 5.6654325529e-001
 1.8247969700e+000	 8.0218082957e-001	 4.4516307887e-001
 1.8161265914e+000	 8.2162178066e-001	 3.2758086920e-001
 1.8072315827e+000	 8.4100666572e-001	 2.1327547221e-001
 1.7981122275e+000	 8.6033171479e-001	 1.0179247315e-001
 1.7887688910e+000	 8.7959315057e-001	-7.2530194012e-003
 1.7792020213e+000	 8.9878719061e-001	-1.1417459420e-001
 1.7694121497e+000	 9.1791004950e-001	-2.1921380852e-001
 1.7593998906e+000	 9.3695794112e-001	-3.2254054783e-001
 1.7491659426e+000	 9.5592708087e-001	-4.2425450296e-001
 1.7387110884e+000	 9.7481368799e-001	-5.2438778458e-001
 1.8393738069e+000	 7.8530527604e-001	 5.4843845435e-001
 1.8309000140e+000	 8.0486372800e-001	 4.2579521979e-001
 1.8222006373e+000	 8.2436969947e-001	 3.0735607924e-001
 1.8132758792e+000	 8.4381941740e-001	 1.9255260505e-001
 1.8041260242e+000	 8.6320909920e-001	 8.0885067528e-002
 1.7947514389e+000	 8.8253495497e-001	-2.8074618830e-002
 1.7851525728e+000	 9.0179318959e-001	-1.3468097790e-001
 1.7753299588e+000	 9.2098000499e-001	-2.3921413057e-001
 1.7652842137e+000	 9.4009160239e-001	-3.4188006826e-001
 1.7550160383e+000	 9.5912418454e-001	-4.4281207151e-001
 1.7445262177e+000	 9.7807395803e-001	-5.4207329400e-001
 1.6863726785e+000	 9.4546999843e-001	-3.8326603572e-001
 1.6760175500e+000	 9.6370710370e-001	-4.8779204473e-001
 1.6654498664e+000	 9.8185682113e-001	-5.8944638747e-001
 1.6546706341e+000	 9.9991550773e-001	-6.8766356482e-001
 1.6436809417e+000	 1.0178795332e+000	-7.8186174195e-001
 1.6324819595e+000	 1.0357452825e+000	-8.7145063924e-001
 1.6210749397e+000	 1.0535091574e+000	-9.5584014573e-001
 1.6094612156e+000	 1.0711675798e+000	-1.0344495519e+000
 1.5976422021e+000	 1.0887169930e+000	-1.1067176932e+000
 1.5856193943e+000	 1.1061538646e+000	-1.1721136588e+000
 1.5733943679e+000	 1.1234746888e+000	-1.2301480706e+000
 1.6921881349e+000	 9.4873045184e-001	-3.9754759951e-001
 1.6817972968e+000	 9.6703044778e-001	-5.0155085661e-001
 1.6711931705e+000	 9.8524275451e-001	-6.0272596046e-001
 1.6603767660e+000	 1.0033637165e+000	-7.0048709308e-001
 1.6493491756e+000	 1.0213896910e+000	-7.9423101444e-001
 1.6381115738e+000	 1.0393170502e+000	-8.8334524766e-001
 1.6266652168e+000	 1.0571421839e+000	-9.6721670576e-001
 1.6150114429e+000	 1.0748615013e+000	-1.0452412827e+000
 1.6031516714e+000	 1.0924714337e+000	-1.1168342028e+000
 1.5910874030e+000	 1.1099684364e+000	-1.1814409911e+000
 1.5788202185e+000	 1.1273489914e+000	-1.2385490319e+000
 1.6980035957e+000	 9.5199090771e-001	-4.1213743285e-001
 1.6875770479e+000	 9.7035379435e-001	-5.1557632093e-001
 1.6769364789e+000	 9.8862869044e-001	-6.1623267440e-001
 1.6660829022e+000	 1.0068119278e+000	-7.1350089672e-001
 1.6550174138e+000	 1.0248998513e+000	-8.0675679077e-001
 1.6437411922e+000	 1.0428888206e+000	-8.9536603016e-001
 1.6322554981e+000	 1.0607752131e+000	-9.7869281652e-001
 1.6205616742e+000	 1.0785554256e+000	-1.0561098210e+000
 1.6086611449e+000	 1.0962258772e+000	-1.1270087451e+000
 1.5965554158e+000	 1.1137830110e+000	-1.1908115570e+000
 1.5842460733e+000	 1.1312232969e+000	-1.2469823332e+000
 1.7038190506e+000	 9.5525136031e-001	-4.2705373431e-001
 1.6933567932e+000	 9.7367713760e-001	-5.2988723808e-001
 1.6826797815e+000	 9.9201462297e-001	-6.2998561597e-001
 1.6717890327e+000	 1.0102601357e+000	-7.2672403012e-001
 1.6606856464e+000	 1.0284100081e+000	-8.1945777058e-001
 1.6493708051e+000	 1.0464605875e+000	-9.0753100480e-001
 1.6378457739e+000	 1.0644082387e+000	-9.9028548248e-001
 1.6261119001e+000	 1.0822493462e+000	-1.0670708197e+000
 1.6141706129e+000	 1.0999803169e+000	-1.1372552776e+000
 1.6020234231e+000	 1.1175975818e+000	-1.2002372676e+000
 1.5896719226e+000	 1.1350975986e+000	-1.2554574810e+000
 1.7096344896e+000	 9.5851180395e-001	-4.4231439096e-001
 1.6991365226e+000	 9.7700047172e-001	-5.4450207911e-001
 1.6884230684e+000	 9.9540054620e-001	-6.4400353143e-001
 1.6774951475e+000	 1.0137083342e+000	-7.4017514690e-001
 1.6663538633e+000	 1.0319201553e+000	-8.3235231083e-001
 1.6550004025e+000	 1.0500323445e+000	-9.1985785582e-001
 1.6434360343e+000	 1.0680412542e+000	-1.0020113896e+000
 1.6316621106e+000	 1.0859432567e+000	-1.0781396352e+000
 1.6196800657e+000	 1.1037347464e+000	-1.1475874890e+000
 1.6074914154e+000	 1.1214121421e+000	-1.2097297991e+000
 1.5950977570e+000	 1.1389718896e+000	-1.2639837870e+000
 1.7154499024e+000	 9.6177223292e-001	-4.5793698267e-001
 1.7049162260e+000	 9.8032379087e-001	-5.5943899090e-001
 1.6941663294e+000	 9.9878645419e-001	-6.5830483246e-001
 1.6832012366e+000	 1.0171565171e+000	-7.5387270351e-001
 1.6720220547e+000	 1.0354302867e+000	-8.4545843307e-001
 1.6606299745e+000	 1.0536040855e+000	-9.3236394134e-001
 1.6490262695e+000	 1.0716742535e+000	-1.0138869134e+000
 1.6372122962e+000	 1.0896371506e+000	-1.0893313353e+000
 1.6251894937e+000	 1.1074891589e+000	-1.1580188080e+000
 1.6129593831e+000	 1.1252266853e+000	-1.2193006024e+000
 1.6005235670e+000	 1.1428461631e+000	-1.2725703779e+000
 1.7212652789e+000	 9.6503264152e-001	-4.7393878647e-001
 1.7106958933e+000	 9.8364708926e-001	-5.7471580120e-001
 1.6999095545e+000	 1.0021723410e+000	-6.7290760202e-001
 1.6889072900e+000	 1.0206046784e+000	-7.6783471240e-001
 1.6776902108e+000	 1.0389403961e+000	-8.5879383041e-001
 1.6662595114e+000	 1.0571758041e+000	-9.4506630094e-001
 1.6546164698e+000	 1.0753072300e+000	-1.0259281272e+000
 1.6427624471e+000	 1.0933310213e+000	-1.1006607082e+000
 1.6306988873e+000	 1.1112435480e+000	-1.1685624120e+000
 1.6184273166e+000	 1.1290412046e+000	-1.2289609117e+000
 1.6059493431e+000	 1.1467204125e+000	-1.2812262044e+000
 1.7270806088e+000	 9.6829302403e-001	-4.9033678066e-001
 1.7164755143e+000	 9.8697036107e-001	-5.9035002365e-001
 1.7056527337e+000	 1.0055582008e+000	-6.8782959998e-001
 1.6946132978e+000	 1.0240528122e+000	-7.8207888742e-001
 1.6833583214e+000	 1.0424504775e+000	-8.7237587453e-001
 1.6718890032e+000	 1.0607474942e+000	-9.5798166318e-001
 1.6602066254e+000	 1.0789401774e+000	-1.0381508099e+000
 1.6483125537e+000	 1.0970248625e+000	-1.1121422707e+000
 1.6362082369e+000	 1.1149979071e+000	-1.1792312363e+000
 1.6238952064e+000	 1.1328556934e+000	-1.2387217537e+000
 1.6113750758e+000	 1.1505946308e+000	-1.2899600501e+000
 1.7328958820e+000	 9.7155337476e-001	-5.0714764898e-001
 1.7222550790e+000	 9.9029360047e-001	-6.0635886258e-001
 1.7113958569e+000	 1.0089440275e+000	-7.0308826875e-001
 1.7003192500e+000	 1.0275009124e+000	-7.9662262317e-001
 1.6890263769e+000	 1.0459605247e+000	-8.8622162252e-001
 1.6775184401e+000	 1.0643191494e+000	-9.7112645298e-001
 1.6657967264e+000	 1.0825730895e+000	-1.0505704541e+000
 1.6538626061e+000	 1.1007186677e+000	-1.1237902763e+000
 1.6417175327e+000	 1.1187522295e+000	-1.1900379820e+000
 1.6293630428e+000	 1.1366701450e+000	-1.2485939563e+000
 1.6168007556e+000	 1.1544688114e+000	-1.2987805412e+000
 1.7387110884e+000	 9.7481368799e-001	-5.2438778458e-001
 1.7280345773e+000	 9.9361680166e-001	-6.2275921789e-001
 1.7171389141e+000	 1.0123298153e+000	-7.1870064897e-001
 1.7060251366e+000	 1.0309489729e+000	-8.1148300117e-001
 1.6946943671e+000	 1.0494705315e+000	-9.0034782359e-001
 1.6831478123e+000	 1.0678907636e+000	-9.8451679883e-001
 1.6713867632e+000	 1.0862059598e+000	-1.0632022736e+000
 1.6594125946e+000	 1.1044124304e+000	-1.1356187235e+000
 1.6472267651e+000	 1.1225065088e+000	-1.2009951248e+000
 1.6348308164e+000	 1.1404845527e+000	-1.2585881576e+000
 1.6222263730e+000	 1.1583429474e+000	-1.3076961546e+000
 1.7445262177e+000	 9.7807395803e-001	-5.4207329400e-001
 1.7338139989e+000	 9.9693995882e-001	-6.3956768970e-001
 1.7228818951e+000	 1.0157155582e+000	-7.3468371945e-001
 1.7117309475e+000	 1.0343969877e+000	-8.2667679594e-001
 1.7003622822e+000	 1.0529804917e+000	-9.1477092574e-001
 1.6887771100e+000	 1.0714623305e+000	-9.9816854000e-001
 1.6769767259e+000	 1.0898387819e+000	-1.0760612107e+000
 1.6649625097e+000	 1.1081061442e+000	-1.1476413637e+000
 1.6527359246e+000	 1.1262607383e+000	-1.2121149236e+000
 1.6402985176e+000	 1.1442989099e+000	-1.2687148143e+000
 1.6276519185e+000	 1.1622170321e+000	-1.3167152274e+000
 1.5733943679e+000	 1.1234746888e+000	-1.2301480706e+000
 1.5609687775e+000	 1.1406759876e+000	-1.2820696150e+000
 1.5483443554e+000	 1.1577543128e+000	-1.3293941913e+000
 1.5355229115e+000	 1.1747062487e+000	-1.3721046603e+000
 1.5225063333e+000	 1.1915284148e+000	-1.4102378791e+000
 1.5092965853e+000	 1.2082174680e+000	-1.4438969165e+000
 1.4958957075e+000	 1.2247701052e+000	-1.4732633421e+000
 1.4823058150e+000	 1.2411830646e+000	-1.4986094796e+000
 1.4685290965e+000	 1.2574531287e+000	-1.5203105137e+000
 1.4545678133e+000	 1.2735771255e+000	-1.5388563360e+000
 1.4404242982e+000	 1.2895519313e+000	-1.5548630157e+000
 1.5788202185e+000	 1.1273489914e+000	-1.2385490319e+000
 1.5663517786e+000	 1.1446096089e+000	-1.2892713551e+000
 1.5536838211e+000	 1.1617468288e+000	-1.3350530669e+000
 1.5408181624e+000	 1.1787572234e+000	-1.3759507898e+000
 1.5277566966e+000	 1.1956374007e+000	-1.4120743015e+000
 1.5145013947e+000	 1.2123840061e+000	-1.4435989015e+000
 1.5010543041e+000	 1.2289937251e+000	-1.4707778604e+000
 1.4874175468e+000	 1.2454632846e+000	-1.4939548399e+000
 1.4735933193e+000	 1.2617894559e+000	-1.5135761709e+000
 1.4595838906e+000	 1.2779690564e+000	-1.5302028729e+000
 1.4453916016e+000	 1.2939989513e+000	-1.5445222981e+000
 1.5842460733e+000	 1.1312232969e+000	-1.2469823332e+000
 1.5717347836e+000	 1.1485432332e+000	-1.2964902067e+000
 1.5590232908e+000	 1.1657393477e+000	-1.3407024516e+000
 1.5461134174e+000	 1.1828082011e+000	-1.3797511493e+000
 1.5330070638e+000	 1.1997463896e+000	-1.4138207240e+000
 1.5197062081e+000	 1.2165505474e+000	-1.4431604636e+000
 1.5062129045e+000	 1.2332173481e+000	-1.4680971306e+000
 1.4925292824e+000	 1.2497435078e+000	-1.4890475519e+000
 1.4786575459e+000	 1.2661257865e+000	-1.5065310699e+000
 1.4645999717e+000	 1.2823609905e+000	-1.5211817384e+000
 1.4503589087e+000	 1.2984459746e+000	-1.5337601416e+000
 1.5896719226e+000	 1.1350975986e+000	-1.2554574810e+000
 1.5771177833e+000	 1.1524768535e+000	-1.3037332359e+000
 1.5643627552e+000	 1.1697318626e+000	-1.3463472451e+000
 1.5514086670e+000	 1.1868591747e+000	-1.3835087190e+000
 1.5382574258e+000	 1.2038553745e+000	-1.4154784272e+000
 1.5249110163e+000	 1.2207170844e+000	-1.4425813752e+000
 1.5113714997e+000	 1.2374409669e+000	-1.4652195801e+000
 1.4976410130e+000	 1.2540237267e+000	-1.4838848318e+000
 1.4837217674e+000	 1.2704621127e+000	-1.4991713204e+000
 1.4696160477e+000	 1.2867529203e+000	-1.5117880104e+000
 1.4553262108e+000	 1.3028929935e+000	-1.5225706379e+000
 1.5950977570e+000	 1.1389718896e+000	-1.2639837870e+000
 1.5825007682e+000	 1.1564104630e+000	-1.3110073555e+000
 1.5697022049e+000	 1.1737243665e+000	-1.3519922321e+000
 1.5567039021e+000	 1.1909101372e+000	-1.3872263998e+000
 1.5435077733e+000	 1.2079643481e+000	-1.4170486450e+000
 1.5301158102e+000	 1.2248836100e+000	-1.4418613919e+000
 1.5165300808e+000	 1.2416645741e+000	-1.4621436463e+000
 1.5027527294e+000	 1.2583039338e+000	-1.4784639300e+000
 1.4887859750e+000	 1.2747984270e+000	-1.4914930880e+000
 1.4746321100e+000	 1.2911448381e+000	-1.5020168424e+000
 1.4602934993e+000	 1.3073400002e+000	-1.5109479720e+000
 1.6005235670e+000	 1.1428461631e+000	-1.2725703779e+000
 1.5878837289e+000	 1.1603440548e+000	-1.3183193349e+000
 1.5750416306e+000	 1.1777168525e+000	-1.3576420926e+000
 1.5619991133e+000	 1.1949610815e+000	-1.3909070235e+000
 1.5487580973e+000	 1.2120733032e+000	-1.4185325747e+000
 1.5353205806e+000	 1.2290501169e+000	-1.4410002629e+000
 1.5216886387e+000	 1.2458881624e+000	-1.4588677877e+000
 1.5078644229e+000	 1.2625841217e+000	-1.4727821433e+000
 1.4938501598e+000	 1.2791347217e+000	-1.4834926069e+000
 1.4796481497e+000	 1.2955367360e+000	-1.4918634768e+000
 1.4652607655e+000	 1.3117869869e+000	-1.4988864350e+000
 1.6059493431e+000	 1.1467204125e+000	-1.2812262044e+000
 1.5932666559e+000	 1.1642776220e+000	-1.3256758093e+000
 1.5803810229e+000	 1.1817093135e+000	-1.3633014111e+000
 1.5672942915e+000	 1.1990120005e+000	-1.3945533624e+000
 1.5540083884e+000	 1.2161822326e+000	-1.4199313879e+000
 1.5405253185e+000	 1.2332165977e+000	-1.4399977420e+000
 1.5268471643e+000	 1.2501117242e+000	-1.4553904953e+000
 1.5129760844e+000	 1.2668642828e+000	-1.4668368261e+000
 1.4989143130e+000	 1.2834709894e+000	-1.4751661925e+000
 1.4846641580e+000	 1.2999286065e+000	-1.4813232576e+000
 1.4702280006e+000	 1.3162339457e+000	-1.4863804387e+000
 1.6113750758e+000	 1.1505946308e+000	-1.2899600501e+000
 1.5986495399e+000	 1.1682111578e+000	-1.3330832892e+000
 1.5857203725e+000	 1.1857017425e+000	-1.3689746868e+000
 1.5725894273e+000	 1.2030628870e+000	-1.3981681399e+000
 1.5592586375e+000	 1.2202911291e+000	-1.4212462403e+000
 1.5457300148e+000	 1.2373830452e+000	-1.4388535982e+000
 1.5320056486e+000	 1.2543352522e+000	-1.4517103042e+000
 1.5180877051e+000	 1.2711444097e+000	-1.4606254029e+000
 1.5039784256e+000	 1.2878072224e+000	-1.4665102534e+000
 1.4896801262e+000	 1.3043204419e+000	-1.4703916435e+000
 1.4751951959e+000	 1.3206808690e+000	-1.4734245285e+000
 1.6168007556e+000	 1.1544688114e+000	-1.2987805412e+000
 1.6040323714e+000	 1.1721446552e+000	-1.3405481694e+000
 1.5910596700e+000	 1.1896941327e+000	-1.3746663424e+000
 1.5778845115e+000	 1.2071137341e+000	-1.4017540396e+000
 1.5645088354e+000	 1.2243999856e+000	-1.4224782823e+000
 1.5509346603e+000	 1.2415494521e+000	-1.4375676268e+000
 1.5371640827e+000	 1.2585587390e+000	-1.4478258040e+000
 1.5231992759e+000	 1.2754244948e+000	-1.4541453796e+000
 1.5090424889e+000	 1.2921434131e+000	-1.4575213040e+000
 1.4946960455e+000	 1.3087122344e+000	-1.4590642208e+000
 1.4801623429e+000	 1.3251277490e+000	-1.4600133970e+000
 1.6222263730e+000	 1.1583429474e+000	-1.3076961546e+000
 1.6094151410e+000	 1.1760781073e+000	-1.3480767383e+000
 1.5963989062e+000	 1.1936864769e+000	-1.3803807342e+000
 1.5831795348e+000	 1.2111645345e+000	-1.4053137156e+000
 1.5697589730e+000	 1.2285087948e+000	-1.4236286691e+000
 1.5561392460e+000	 1.2457158110e+000	-1.4361396595e+000
 1.5423224575e+000	 1.2627821773e+000	-1.4437356508e+000
 1.5283107879e+000	 1.2797045308e+000	-1.4473943549e+000
 1.5141064939e+000	 1.2964795539e+000	-1.4481959765e+000
 1.4997119072e+000	 1.3131039765e+000	-1.4473367160e+000
 1.4851294327e+000	 1.3295745778e+000	-1.4461418975e+000
 1.6276519185e+000	 1.1622170321e+000	-1.3167152274e+000
 1.6147978392e+000	 1.1800115074e+000	-1.3556751872e+000
 1.6017380716e+000	 1.1976787683e+000	-1.3861221610e+000
 1.5884744879e+000	 1.2152152813e+000	-1.4088498018e+000
 1.5750090410e+000	 1.2326175496e+000	-1.4246985704e+000
 1.5613437628e+000	 1.2498821148e+000	-1.4345695751e+000
 1.5474807639e+000	 1.2670055596e+000	-1.4394385772e+000
 1.5334222322e+000	 1.2839845100e+000	-1.4403700325e+000
 1.5191704319e+000	 1.3008156373e+000	-1.4385310327e+000
 1.5047277023e+000	 1.3174956603e+000	-1.4352050087e+000
 1.4900964567e+000	 1.3340213476e+000	-1.4318019087e+000
 1.4404242982e+000	 1.2895519313e+000	-1.5548630157e+000
 1.4261031160e+000	 1.3053721108e+000	-1.5674353423e+000
 1.4116046303e+000	 1.3210370519e+000	-1.5767088844e+000
 1.3969313804e+000	 1.3365437893e+000	-1.5849724391e+000
 1.3820859710e+000	 1.3518894131e+000	-1.5908468110e+000
 1.3670710713e+000	 1.3670710713e+000	-1.5942445386e+000
 1.3518894131e+000	 1.3820859710e+000	-1.5966874520e+000
 1.3365437893e+000	 1.3969313804e+000	-1.5996848889e+000
 1.3210370519e+000	 1.4116046303e+000	-1.6032640892e+000
 1.3053721108e+000	 1.4261031160e+000	-1.6062491391e+000
 1.2895519313e+000	 1.4404242982e+000	-1.6107788503e+000
 1.4453916016e+000	 1.2939989513e+000	-1.5445222981e+000
 1.4310210328e+000	 1.3098736867e+000	-1.5558545712e+000
 1.4164725491e+000	 1.3255926484e+000	-1.5644542701e+000
 1.4017486984e+000	 1.3411528607e+000	-1.5719665908e+000
 1.3868520946e+000	 1.3565514039e+000	-1.5764064587e+000
 1.3717854161e+000	 1.3717854161e+000	-1.5785888615e+000
 1.3565514039e+000	 1.3868520946e+000	-1.5799367362e+000
 1.3411528607e+000	 1.4017486984e+000	-1.5818598901e+000
 1.3255926484e+000	 1.4164725491e+000	-1.5851823967e+000
 1.3098736867e+000	 1.4310210328e+000	-1.5881146516e+000
 1.2939989513e+000	 1.4453916016e+000	-1.5921954078e+000
 1.4503589087e+000	 1.2984459746e+000	-1.5337601416e+000
 1.4359389532e+000	 1.3143752660e+000	-1.5438084126e+000
 1.4213404715e+000	 1.3301482482e+000	-1.5517034301e+000
 1.4065660201e+000	 1.3457619356e+000	-1.5580178639e+000
 1.3916182219e+000	 1.3612133982e+000	-1.5610679588e+000
 1.3764997644e+000	 1.3764997644e+000	-1.5620852898e+000
 1.3612133982e+000	 1.3916182219e+000	-1.5623901880e+000
 1.3457619356e+000	 1.4065660201e+000	-1.5632890964e+000
 1.3301482482e+000	 1.4213404715e+000	-1.5659781539e+000
 1.3143752660e+000	 1.4359389532e+000	-1.5688865152e+000
 1.2984459746e+000	 1.4503589087e+000	-1.5725330664e+000
 1.4553262108e+000	 1.3028929935e+000	-1.5225706379e+000
 1.4408568688e+000	 1.3188768408e+000	-1.5312894542e+000
 1.4262083890e+000	 1.3347038436e+000	-1.5384272945e+000
 1.4113833370e+000	 1.3503710059e+000	-1.5431592973e+000
 1.3963843443e+000	 1.3658753879e+000	-1.5448617615e+000
 1.3812141080e+000	 1.3812141080e+000	-1.5447608362e+000
 1.3658753879e+000	 1.3963843443e+000	-1.5440705663e+000
 1.3503710059e+000	 1.4113833370e+000	-1.5439902309e+000
 1.3347038436e+000	 1.4262083890e+000	-1.5457016969e+000
 1.3188768408e+000	 1.4408568688e+000	-1.5485880197e+000
 1.3028929935e+000	 1.4553262108e+000	-1.5518056907e+000
 1.4602934993e+000	 1.3073400002e+000	-1.5109479720e+000
 1.4457747708e+000	 1.3233784032e+000	-1.5182903991e+000
 1.4310762932e+000	 1.3392594264e+000	-1.5243415562e+000
 1.4162006406e+000	 1.3549800635e+000	-1.5274235477e+000
 1.4011504537e+000	 1.3705373647e+000	-1.5278179774e+000
 1.3859284386e+000	 1.3859284386e+000	-1.5266422274e+000
 1.3705373647e+000	 1.4011504537e+000	-1.5250004095e+000
 1.3549800635e+000	 1.4162006406e+000	-1.5239808727e+000
 1.3392594264e+000	 1.4310762932e+000	-1.5246537273e+000
 1.3233784032e+000	 1.4457747708e+000	-1.5272433621e+000
 1.3073400002e+000	 1.4602934993e+000	-1.5300281622e+000
 1.4652607655e+000	 1.3117869869e+000	-1.4988864350e+000
 1.4506926507e+000	 1.3278799453e+000	-1.5048040797e+000
 1.4359441755e+000	 1.3438149886e+000	-1.5093803203e+000
 1.4210179225e+000	 1.3595891004e+000	-1.5108428932e+000
 1.4059165416e+000	 1.3751993206e+000	-1.5099663800e+000
 1.3906427480e+000	 1.3906427480e+000	-1.5077559065e+000
 1.3751993206e+000	 1.4059165416e+000	-1.5052020368e+000
 1.3595891004e+000	 1.4210179225e+000	-1.5032784567e+000
 1.3438149886e+000	 1.4359441755e+000	-1.5029396747e+000
 1.3278799453e+000	 1.4506926507e+000	-1.5048776063e+000
 1.3117869869e+000	 1.4652607655e+000	-1.5072163389e+000
 1.4702280006e+000	 1.3162339457e+000	-1.4863804387e+000
 1.4556104999e+000	 1.3323814593e+000	-1.4908234721e+000
 1.4408120273e+000	 1.3483705225e+000	-1.4935771084e+000
 1.4258351743e+000	 1.3641981084e+000	-1.4934492369e+000
 1.4106825998e+000	 1.3798612473e+000	-1.4913364088e+000
 1.3953570280e+000	 1.3953570280e+000	-1.4881280350e+000
 1.3798612473e+000	 1.4106825998e+000	-1.4846975491e+000
 1.3641981084e+000	 1.4258351743e+000	-1.4819002728e+000
 1.3483705225e+000	 1.4408120273e+000	-1.4805713019e+000
 1.3323814593e+000	 1.4556104999e+000	-1.4815166439e+000
 1.3162339457e+000	 1.4702280006e+000	-1.4833870145e+000
 1.4751951959e+000	 1.3206808690e+000	-1.4734245285e+000
 1.4605283097e+000	 1.3368829373e+000	-1.4762441398e+000
 1.4456798402e+000	 1.3529260198e+000	-1.4769650417e+000
 1.4306523876e+000	 1.3688070796e+000	-1.4752741106e+000
 1.4154486198e+000	 1.3845231368e+000	-1.4719571722e+000
 1.4000712702e+000	 1.4000712702e+000	-1.4677844946e+000
 1.3845231368e+000	 1.4154486198e+000	-1.4635088296e+000
 1.3688070796e+000	 1.4306523876e+000	-1.4598634664e+000
 1.3529260198e+000	 1.4456798402e+000	-1.4575603090e+000
 1.3368829373e+000	 1.4605283097e+000	-1.4572879850e+000
 1.3206808690e+000	 1.4751951959e+000	-1.4585578770e+000
 1.4801623429e+000	 1.3251277490e+000	-1.4600133970e+000
 1.4654460716e+000	 1.3413843714e+000	-1.4608768126e+000
 1.4505476056e+000	 1.3574814728e+000	-1.4595768455e+000
 1.4354695539e+000	 1.3734160059e+000	-1.4563486781e+000
 1.4202145933e+000	 1.3891849808e+000	-1.4518574501e+000
 1.4047854665e+000	 1.4047854665e+000	-1.4467508895e+000
 1.3891849808e+000	 1.4202145933e+000	-1.4416575454e+000
 1.3734160059e+000	 1.4354695539e+000	-1.4371850376e+000
 1.3574814728e+000	 1.4505476056e+000	-1.4339183320e+000
 1.3413843714e+000	 1.4654460716e+000	-1.4324180497e+000
 1.3251277490e+000	 1.4801623429e+000	-1.4327474686e+000
 1.4851294327e+000	 1.3295745778e+000	-1.4461418975e+000
 1.4703637770e+000	 1.3458857538e+000	-1.4447478261e+000
 1.4554153151e+000	 1.3620368734e+000	-1.4414448530e+000
 1.4402866649e+000	 1.3780248792e+000	-1.4367037385e+000
 1.4249805120e+000	 1.3938467711e+000	-1.4310656970e+000
 1.4094996086e+000	 1.4094996086e+000	-1.4250525480e+000
 1.3938467711e+000	 1.4249805120e+000	-1.4191651477e+000
 1.3780248792e+000	 1.4402866649e+000	-1.4138818411e+000
 1.3620368734e+000	 1.4554153151e+000	-1.4096569412e+000
 1.3458857538e+000	 1.4703637770e+000	-1.4069192458e+000
 1.3295745778e+000	 1.4851294327e+000	-1.4059751449e+000
 1.4900964567e+000	 1.3340213476e+000	-1.4318019087e+000
 1.4752814172e+000	 1.3503870765e+000	-1.4278898035e+000
 1.4602829600e+000	 1.3665922136e+000	-1.4226010088e+000
 1.4451037120e+000	 1.3826336914e+000	-1.4163697298e+000
 1.4297463676e+000	 1.3985084997e+000	-1.4096100443e+000
 1.4142136882e+000	 1.4142136882e+000	-1.4027145244e+000
 1.3985084997e+000	 1.4297463676e+000	-1.3960528736e+000
 1.3826336914e+000	 1.4451037120e+000	-1.3899705862e+000
 1.3665922136e+000	 1.4602829600e+000	-1.3847876395e+000
 1.3503870765e+000	 1.4752814172e+000	-1.3807972232e+000
 1.3340213476e+000	 1.4900964567e+000	-1.3782645176e+000
 1.2895519313e+000	 1.4404242982e+000	-1.6107788503e+000
 1.2735771255e+000	 1.4545678133e+000	-1.6152526695e+000
 1.2574531287e+000	 1.4685290965e+000	-1.6170203839e+000
 1.2411830646e+000	 1.4823058150e+000	-1.6165607105e+000
 1.2247701052e+000	 1.4958957075e+000	-1.6142694350e+000
 1.2082174680e+000	 1.5092965853e+000	-1.6104660863e+000
 1.1915284148e+000	 1.5225063333e+000	-1.6054011197e+000
 1.1747062487e+000	 1.5355229115e+000	-1.5992635207e+000
 1.1577543128e+000	 1.5483443554e+000	-1.5921887400e+000
 1.1406759876e+000	 1.5609687775e+000	-1.5842668692e+000
 1.1234746888e+000	 1.5733943679e+000	-1.5755509672e+000
 1.2939989513e+000	 1.4453916016e+000	-1.5921954078e+000
 1.2779690564e+000	 1.4595838906e+000	-1.5960389407e+000
 1.2617894559e+000	 1.4735933193e+000	-1.5972702729e+000
 1.2454632846e+000	 1.4874175468e+000	-1.5963854411e+000
 1.2289937251e+000	 1.5010543041e+000	-1.5937987136e+000
 1.2123840061e+000	 1.5145013947e+000	-1.5898494344e+000
 1.1956374007e+000	 1.5277566966e+000	-1.5848093804e+000
 1.1787572234e+000	 1.5408181624e+000	-1.5788905424e+000
 1.1617468288e+000	 1.5536838211e+000	-1.5722532371e+000
 1.1446096089e+000	 1.5663517786e+000	-1.5650144590e+000
 1.1273489914e+000	 1.5788202185e+000	-1.5572563782e+000
 1.2984459746e+000	 1.4503589087e+000	-1.5725330664e+000
 1.2823609905e+000	 1.4645999717e+000	-1.5757571885e+000
 1.2661257865e+000	 1.4786575459e+000	-1.5764719665e+000
 1.2497435078e+000	 1.4925292824e+000	-1.5751908419e+000
 1.2332173481e+000	 1.5062129045e+000	-1.5723467790e+000
 1.2165505474e+000	 1.5197062081e+000	-1.5682992830e+000
 1.1997463896e+000	 1.5330070638e+000	-1.5633419349e+000
 1.1828082011e+000	 1.5461134174e+000	-1.5577103532e+000
 1.1657393477e+000	 1.5590232908e+000	-1.5515904863e+000
 1.1485432332e+000	 1.5717347836e+000	-1.5451271436e+000
 1.1312232969e+000	 1.5842460733e+000	-1.5384326684e+000
 1.3028929935e+000	 1.4553262108e+000	-1.5518056907e+000
 1.2867529203e+000	 1.4696160477e+000	-1.5544121264e+000
 1.2704621127e+000	 1.4837217674e+000	-1.5546221683e+000
 1.2540237267e+000	 1.4976410130e+000	-1.5529667379e+000
 1.2374409669e+000	 1.5113714997e+000	-1.5498976982e+000
 1.2207170844e+000	 1.5249110163e+000	-1.5457950490e+000
 1.2038553745e+000	 1.5382574258e+000	-1.5409746437e+000
 1.1868591747e+000	 1.5514086670e+000	-1.5356963349e+000
 1.1697318626e+000	 1.5643627552e+000	-1.5301724516e+000
 1.1524768535e+000	 1.5771177833e+000	-1.5245765125e+000
 1.1350975986e+000	 1.5896719226e+000	-1.5190520766e+000
 1.3073400002e+000	 1.4602934993e+000	-1.5300281622e+000
 1.2911448381e+000	 1.4746321100e+000	-1.5320095951e+000
 1.2747984270e+000	 1.4887859750e+000	-1.5317188063e+000
 1.2583039338e+000	 1.5027527294e+000	-1.5297042636e+000
 1.2416645741e+000	 1.5165300808e+000	-1.5264369201e+000
 1.2248836100e+000	 1.5301158102e+000	-1.5223175906e+000
 1.2079643481e+000	 1.5435077733e+000	-1.5176848547e+000
 1.1909101372e+000	 1.5567039021e+000	-1.5128233901e+000
 1.1737243665e+000	 1.5697022049e+000	-1.5079726383e+000
 1.1564104630e+000	 1.5825007682e+000	-1.5033357030e+000
 1.1389718896e+000	 1.5950977570e+000	-1.4990883822e+000
 1.3117869869e+000	 1.4652607655e+000	-1.5072163389e+000
 1.2955367360e+000	 1.4796481497e+000	-1.5085565205e+000
 1.2791347217e+000	 1.4938501598e+000	-1.5077609905e+000
 1.2625841217e+000	 1.5078644229e+000	-1.5053958199e+000
 1.2458881624e+000	 1.5216886387e+000	-1.5019512317e+000
 1.2290501169e+000	 1.5353205806e+000	-1.4978491634e+000
 1.2120733032e+000	 1.5487580973e+000	-1.4934513601e+000
 1.1949610815e+000	 1.5619991133e+000	-1.4890678996e+000
 1.1777168525e+000	 1.5750416306e+000	-1.4849660505e+000
 1.1603440548e+000	 1.5878837289e+000	-1.4813793592e+000
 1.1428461631e+000	 1.6005235670e+000	-1.4785168669e+000
 1.3162339457e+000	 1.4702280006e+000	-1.4833870145e+000
 1.2999286065e+000	 1.4846641580e+000	-1.4840608718e+000
 1.2834709894e+000	 1.4989143130e+000	-1.4827489704e+000
 1.2668642828e+000	 1.5129760844e+000	-1.4800350311e+000
 1.2501117242e+000	 1.5268471643e+000	-1.4764287153e+000
 1.2332165977e+000	 1.5405253185e+000	-1.4723733778e+000
 1.2161822326e+000	 1.5540083884e+000	-1.4682543537e+000
 1.1990120005e+000	 1.5672942915e+000	-1.4644076803e+000
 1.1817093135e+000	 1.5803810229e+000	-1.4611291502e+000
 1.1642776220e+000	 1.5932666559e+000	-1.4586835921e+000
 1.1467204125e+000	 1.6059493431e+000	-1.4573142749e+000
 1.3206808690e+000	 1.4751951959e+000	-1.4585578770e+000
 1.3043204419e+000	 1.4896801262e+000	-1.4585316196e+000
 1.2878072224e+000	 1.5039784256e+000	-1.4566840920e+000
 1.2711444097e+000	 1.5180877051e+000	-1.4536167015e+000
 1.2543352522e+000	 1.5320056486e+000	-1.4498587049e+000
 1.2373830452e+000	 1.5457300148e+000	-1.4458751553e+000
 1.2202911291e+000	 1.5592586375e+000	-1.4420753880e+000
 1.2030628870e+000	 1.5725894273e+000	-1.4388219427e+000
 1.1857017425e+000	 1.5857203725e+000	-1.4364398160e+000
 1.1682111578e+000	 1.5986495399e+000	-1.4352259394e+000
 1.1505946308e+000	 1.6113750758e+000	-1.4354587749e+000
 1.3251277490e+000	 1.4801623429e+000	-1.4327474686e+000
 1.3087122344e+000	 1.4946960455e+000	-1.4319786946e+000
 1.2921434131e+000	 1.5090424889e+000	-1.4295687558e+000
 1.2754244948e+000	 1.5231992759e+000	-1.4261367730e+000
 1.2585587390e+000	 1.5371640827e+000	-1.4222317433e+000
 1.2415494521e+000	 1.5509346603e+000	-1.4183406861e+000
 1.2243999856e+000	 1.5645088354e+000	-1.4148973319e+000
 1.2071137341e+000	 1.5778845115e+000	-1.4122912494e+000
 1.1896941327e+000	 1.5910596700e+000	-1.4108773018e+000
 1.1721446552e+000	 1.6040323714e+000	-1.4109853255e+000
 1.1544688114e+000	 1.6168007556e+000	-1.4129299208e+000
 1.3295745778e+000	 1.4851294327e+000	-1.4059751449e+000
 1.3131039765e+000	 1.4997119072e+000	-1.4044129454e+000
 1.2964795539e+000	 1.5141064939e+000	-1.4014063744e+000
 1.2797045308e+000	 1.5283107879e+000	-1.3975922822e+000
 1.2627821773e+000	 1.5423224575e+000	-1.3935395395e+000
 1.2457158110e+000	 1.5561392460e+000	-1.3897573862e+000
 1.2285087948e+000	 1.5697589730e+000	-1.3867043282e+000
 1.2111645345e+000	 1.5831795348e+000	-1.3847974734e+000
 1.1936864769e+000	 1.5963989062e+000	-1.3844221964e+000
 1.1760781073e+000	 1.6094151410e+000	-1.3859420218e+000
 1.1583429474e+000	 1.6222263730e+000	-1.3897086142e+000
 1.3340213476e+000	 1.4900964567e+000	-1.3782645176e+000
 1.3174956603e+000	 1.5047277023e+000	-1.3758460978e+000
 1.3008156373e+000	 1.5191704319e+000	-1.3722013303e+000
 1.2839845100e+000	 1.5334222322e+000	-1.3679813180e+000
 1.2670055596e+000	 1.5474807639e+000	-1.3637749258e+000
 1.2498821148e+000	 1.5613437628e+000	-1.3601138549e+000
 1.2326175496e+000	 1.5750090410e+000	-1.3574817515e+000
 1.2152152813e+000	 1.5884744879e+000	-1.3563237562e+000
 1.1976787683e+000	 1.6017380716e+000	-1.3570563823e+000
 1.1800115074e+000	 1.6147978392e+000	-1.3600776072e+000
 1.1622170321e+000	 1.6276519185e+000	-1.3657770654e+000
 1.1234746888e+000	 1.5733943679e+000	-1.5755509672e+000
 1.1061538646e+000	 1.5856193943e+000	-1.5679270301e+000
 1.0887169930e+000	 1.5976422021e+000	-1.5630569494e+000
 1.0711675798e+000	 1.6094612156e+000	-1.5606052103e+000
 1.0535091574e+000	 1.6210749397e+000	-1.5602037420e+000
 1.0357452825e+000	 1.6324819595e+000	-1.5614604773e+000
 1.0178795332e+000	 1.6436809417e+000	-1.5639676014e+000
 9.9991550773e-001	 1.6546706341e+000	-1.5673126905e+000
 9.8185682113e-001	 1.6654498664e+000	-1.5710737801e+000
 9.6370710370e-001	 1.6760175500e+000	-1.5748438198e+000
 9.4546999843e-001	 1.6863726785e+000	-1.5782258922e+000
 1.1273489914e+000	 1.5788202185e+000	-1.5572563782e+000
 1.1099684364e+000	 1.5910874030e+000	-1.5507779817e+000
 1.0924714337e+000	 1.6031516714e+000	-1.5471306571e+000
 1.0748615013e+000	 1.6150114429e+000	-1.5459734223e+000
 1.0571421839e+000	 1.6266652168e+000	-1.5469314773e+000
 1.0393170502e+000	 1.6381115738e+000	-1.5496050006e+000
 1.0213896910e+000	 1.6493491756e+000	-1.5535776272e+000
 1.0033637165e+000	 1.6603767660e+000	-1.5584276232e+000
 9.8524275451e-001	 1.6711931705e+000	-1.5637238555e+000
 9.6703044778e-001	 1.6817972968e+000	-1.5690494357e+000
 9.4873045184e-001	 1.6921881349e+000	-1.5739977580e+000
 1.1312232969e+000	 1.5842460733e+000	-1.5384326684e+000
 1.1137830110e+000	 1.5965554158e+000	-1.5332042134e+000
 1.0962258772e+000	 1.6086611449e+000	-1.5308681099e+000
 1.0785554256e+000	 1.6205616742e+000	-1.5310794863e+000
 1.0607752131e+000	 1.6322554981e+000	-1.5334583836e+000
 1.0428888206e+000	 1.6437411922e+000	-1.5375987920e+000
 1.0248998513e+000	 1.6550174138e+000	-1.5430773599e+000
 1.0068119278e+000	 1.6660829022e+000	-1.5494646146e+000
 9.8862869044e-001	 1.6769364789e+000	-1.5563218069e+000
 9.7035379435e-001	 1.6875770479e+000	-1.5632237882e+000
 9.5199090771e-001	 1.6980035957e+000	-1.5697558413e+000
 1.1350975986e+000	 1.5896719226e+000	-1.5190520766e+000
 1.1175975818e+000	 1.6020234231e+000	-1.5151790790e+000
 1.0999803169e+000	 1.6141706129e+000	-1.5142436830e+000
 1.0822493462e+000	 1.6261119001e+000	-1.5158986835e+000
 1.0644082387e+000	 1.6378457739e+000	-1.5197605111e+000
 1.0464605875e+000	 1.6493708051e+000	-1.5254185120e+000
 1.0284100081e+000	 1.6606856464e+000	-1.5324438910e+000
 1.0102601357e+000	 1.6717890327e+000	-1.5404009887e+000
 9.9201462297e-001	 1.6826797815e+000	-1.5488449732e+000
 9.7367713760e-001	 1.6933567932e+000	-1.5573439954e+000
 9.5525136031e-001	 1.7038190506e+000	-1.5654767869e+000
 1.1389718896e+000	 1.5950977570e+000	-1.4990883822e+000
 1.1214121421e+000	 1.6074914154e+000	-1.4966774604e+000
 1.1037347464e+000	 1.6196800657e+000	-1.4972332686e+000
 1.0859432567e+000	 1.6316621106e+000	-1.5004078015e+000
 1.0680412542e+000	 1.6434360343e+000	-1.5058154064e+000
 1.0500323445e+000	 1.6550004025e+000	-1.5130423089e+000
 1.0319201553e+000	 1.6663538633e+000	-1.5216557929e+000
 1.0137083342e+000	 1.6774951475e+000	-1.5312129530e+000
 9.9540054620e-001	 1.6884230684e+000	-1.5412721618e+000
 9.7700047172e-001	 1.6991365226e+000	-1.5513886392e+000
 9.5851180395e-001	 1.7096344896e+000	-1.5611386995e+000
 1.1428461631e+000	 1.6005235670e+000	-1.4785168669e+000
 1.1252266853e+000	 1.6129593831e+000	-1.4776757300e+000
 1.1074891589e+000	 1.6251894937e+000	-1.4798142388e+000
 1.0896371506e+000	 1.6372122962e+000	-1.4845850990e+000
 1.0716742535e+000	 1.6490262695e+000	-1.4916020795e+000
 1.0536040855e+000	 1.6606299745e+000	-1.5004497877e+000
 1.0354302867e+000	 1.6720220547e+000	-1.5106930882e+000
 1.0171565171e+000	 1.6832012366e+000	-1.5218860846e+000
 9.9878645419e-001	 1.6941663294e+000	-1.5335836211e+000
 9.8032379087e-001	 1.7049162260e+000	-1.5453377394e+000
 9.6177223292e-001	 1.7154499024e+000	-1.5567211194e+000
 1.1467204125e+000	 1.6059493431e+000	-1.4573142749e+000
 1.1290412046e+000	 1.6184273166e+000	-1.4581517136e+000
 1.1112435480e+000	 1.6306988873e+000	-1.4619654106e+000
 1.0933310213e+000	 1.6427624471e+000	-1.4684102719e+000
 1.0753072300e+000	 1.6546164698e+000	-1.4771009712e+000
 1.0571758041e+000	 1.6662595114e+000	-1.4876219782e+000
 1.0389403961e+000	 1.6776902108e+000	-1.4995372201e+000
 1.0206046784e+000	 1.6889072900e+000	-1.5123992940e+000
 1.0021723410e+000	 1.6999095545e+000	-1.5257610137e+000
 9.8364708926e-001	 1.7106958933e+000	-1.5391727277e+000
 9.6503264152e-001	 1.7212652789e+000	-1.5522049974e+000
 1.1505946308e+000	 1.6113750758e+000	-1.4354587749e+000
 1.1328556934e+000	 1.6238952064e+000	-1.4380846528e+000
 1.1149979071e+000	 1.6362082369e+000	-1.4436670099e+000
 1.0970248625e+000	 1.6483125537e+000	-1.4518644189e+000
 1.0789401774e+000	 1.6602066254e+000	-1.4622939198e+000
 1.0607474942e+000	 1.6718890032e+000	-1.4745413041e+000
 1.0424504775e+000	 1.6833583214e+000	-1.4881710223e+000
 1.0240528122e+000	 1.6946132978e+000	-1.5027356297e+000
 1.0055582008e+000	 1.7056527337e+000	-1.5177873889e+000
 9.8697036107e-001	 1.7164755143e+000	-1.5328764221e+000
 9.6829302403e-001	 1.7270806088e+000	-1.5475726709e+000
 1.1544688114e+000	 1.6168007556e+000	-1.4129299208e+000
 1.1366701450e+000	 1.6293630428e+000	-1.4174551680e+000
 1.1187522295e+000	 1.6417175327e+000	-1.4249006356e+000
 1.1007186677e+000	 1.6538626061e+000	-1.4349300072e+000
 1.0825730895e+000	 1.6657967264e+000	-1.4471641288e+000
 1.0643191494e+000	 1.6775184401e+000	-1.4611915516e+000
 1.0459605247e+000	 1.6890263769e+000	-1.4765786893e+000
 1.0275009124e+000	 1.7003192500e+000	-1.4928795004e+000
 1.0089440275e+000	 1.7113958569e+000	-1.5096471560e+000
 9.9029360047e-001	 1.7222550790e+000	-1.5264330012e+000
 9.7155337476e-001	 1.7328958820e+000	-1.5428078394e+000
 1.1583429474e+000	 1.6222263730e+000	-1.3897086142e+000
 1.1404845527e+000	 1.6348308164e+000	-1.3962452217e+000
 1.1225065088e+000	 1.6472267651e+000	-1.4056492244e+000
 1.1044124304e+000	 1.6594125946e+000	-1.4175908388e+000
 1.0862059598e+000	 1.6713867632e+000	-1.4316961342e+000
 1.0678907636e+000	 1.6831478123e+000	-1.4475578381e+000
 1.0494705315e+000	 1.6946943671e+000	-1.4647457465e+000
 1.0309489729e+000	 1.7060251366e+000	-1.4828166462e+000
 1.0123298153e+000	 1.7171389141e+000	-1.5013236670e+000
 9.9361680166e-001	 1.7280345773e+000	-1.5198279785e+000
 9.7481368799e-001	 1.7387110884e+000	-1.5378955398e+000
 1.1622170321e+000	 1.6276519185e+000	-1.3657770654e+000
 1.1442989099e+000	 1.6402985176e+000	-1.3744380813e+000
 1.1262607383e+000	 1.6527359246e+000	-1.3858970154e+000
 1.1081061442e+000	 1.6649625097e+000	-1.3998320164e+000
 1.0898387819e+000	 1.6769767259e+000	-1.4158757719e+000
 1.0714623305e+000	 1.6887771100e+000	-1.4336265813e+000
 1.0529804917e+000	 1.7003622822e+000	-1.4526590209e+000
 1.0343969877e+000	 1.7117309475e+000	-1.4725341106e+000
 1.0157155582e+000	 1.7228818951e+000	-1.4928088942e+000
 9.9693995882e-001	 1.7338139989e+000	-1.5130481769e+000
 9.7807395803e-001	 1.7445262177e+000	-1.5328221226e+000
 9.4546999843e-001	 1.6863726785e+000	-1.5782258922e+000
 9.2715191300e-001	 1.6965128223e+000	-1.5803555010e+000
 9.0875377933e-001	 1.7064387096e+000	-1.5807553193e+000
 8.9027926438e-001	 1.7161495812e+000	-1.5796393191e+000
 8.7173203880e-001	 1.7256447597e+000	-1.5772481793e+000
 8.5311577476e-001	 1.7349236489e+000	-1.5738513670e+000
 8.3443414372e-001	 1.7439857337e+000	-1.5697484956e+000
 8.1569081426e-001	 1.7528305796e+000	-1.5652699587e+000
 7.9688944998e-001	 1.7614578321e+000	-1.5607768450e+000
 7.7803370737e-001	 1.7698672163e+000	-1.5566601444e+000
 7.5912723369e-001	 1.7780585364e+000	-1.5533392668e+000
 9.4873045184e-001	 1.6921881349e+000	-1.5739977580e+000
 9.3034919650e-001	 1.7023632470e+000	-1.5777001208e+000
 9.1188761686e-001	 1.7123233637e+000	-1.5796811652e+000
 8.9334939254e-001	 1.7220677232e+000	-1.5801566157e+000
 8.7473820686e-001	 1.7315956459e+000	-1.5793726587e+000
 8.5605774463e-001	 1.7409065334e+000	-1.5776080420e+000
 8.3731168998e-001	 1.7499998688e+000	-1.5751754276e+000
 8.1850372415e-001	 1.7588752161e+000	-1.5724219932e+000
 7.9963752336e-001	 1.7675322196e+000	-1.5697292907e+000
 7.8071675672e-001	 1.7759706036e+000	-1.5675123715e+000
 7.6174508406e-001	 1.7841901715e+000	-1.5662181998e+000
 9.5199090771e-001	 1.6980035957e+000	-1.5697558413e+000
 9.3354648240e-001	 1.7082136761e+000	-1.5750583134e+000
 9.1502145675e-001	 1.7182080222e+000	-1.5786685108e+000
 8.9641952301e-001	 1.7279858697e+000	-1.5808016489e+000
 8.7774437717e-001	 1.7375465365e+000	-1.5817071654e+000
 8.5899971670e-001	 1.7468894223e+000	-1.5816708453e+000
 8.4018923839e-001	 1.7560140083e+000	-1.5810161724e+000
 8.2131663614e-001	 1.7649198571e+000	-1.5801049064e+000
 8.0238559880e-001	 1.7736066118e+000	-1.5793368889e+000
 7.8339980808e-001	 1.7820739955e+000	-1.5791490927e+000
 7.6436293640e-001	 1.7903218112e+000	-1.5800139341e+000
 9.5525136031e-001	 1.7038190506e+000	-1.5654767869e+000
 9.3674376510e-001	 1.7140640993e+000	-1.5724057991e+000
 9.1815529350e-001	 1.7240926749e+000	-1.5776915293e+000
 8.9948965041e-001	 1.7339040103e+000	-1.5815464491e+000
 8.8075054447e-001	 1.7434974212e+000	-1.5842210190e+000
 8.6194168584e-001	 1.7528723052e+000	-1.5860058461e+000
 8.4306678394e-001	 1.7620281419e+000	-1.5872330411e+000
 8.2412954533e-001	 1.7709644921e+000	-1.5882767747e+000
 8.0513367150e-001	 1.7796809978e+000	-1.5895530382e+000
 7.8608285676e-001	 1.7881773813e+000	-1.5915186207e+000
 7.6698078611e-001	 1.7964534448e+000	-1.5946693247e+000
 9.5851180395e-001	 1.7096344896e+000	-1.5611386995e+000
 9.3994103901e-001	 1.7199145065e+000	-1.5697197579e+000
 9.2128912163e-001	 1.7299773113e+000	-1.5767258588e+000
 9.0255976937e-001	 1.7398221346e+000	-1.5823645210e+000
 8.8375670351e-001	 1.7494482896e+000	-1.5868850275e+000
 8.6488364688e-001	 1.7588551717e+000	-1.5905806206e+000
 8.4594432157e-001	 1.7680422589e+000	-1.5937898724e+000
 8.2694244678e-001	 1.7770091105e+000	-1.5968972259e+000
 8.0788173663e-001	 1.7857553672e+000	-1.6003327150e+000
 7.8876589806e-001	 1.7942807504e+000	-1.6045708741e+000
 7.6959862863e-001	 1.8025850615e+000	-1.6101288611e+000
 9.6177223292e-001	 1.7154499024e+000	-1.5567211194e+000
 9.4313829853e-001	 1.7257648873e+000	-1.5669788055e+000
 9.2442293567e-001	 1.7358619213e+000	-1.5757485792e+000
 9.0562987451e-001	 1.7457402323e+000	-1.5832308229e+000
 8.8676284903e-001	 1.7553991311e+000	-1.5896714672e+000
 8.6782559469e-001	 1.7648380113e+000	-1.5953642318e+000
 8.4882184625e-001	 1.7740563488e+000	-1.6006520141e+000
 8.2975533557e-001	 1.7830537016e+000	-1.6059274217e+000
 8.1062978941e-001	 1.7918297092e+000	-1.6116324558e+000
 7.9144892729e-001	 1.8003840919e+000	-1.6182573592e+000
 7.7221645937e-001	 1.8087166507e+000	-1.6263386500e+000
 9.6503264152e-001	 1.7212652789e+000	-1.5522049974e+000
 9.4633553808e-001	 1.7316152316e+000	-1.5641629707e+000
 9.2755673012e-001	 1.7417464946e+000	-1.5747381910e+000
 9.0869996047e-001	 1.7516582930e+000	-1.5841217449e+000
 8.8976897575e-001	 1.7613499355e+000	-1.5925540625e+000
 8.7076752411e-001	 1.7708208135e+000	-1.6003272104e+000
 8.5169935295e-001	 1.7800704012e+000	-1.6077863042e+000
 8.3256820678e-001	 1.7890982550e+000	-1.6153300385e+000
 8.1337782500e-001	 1.7979040132e+000	-1.6234103390e+000
 7.9413193975e-001	 1.8064873954e+000	-1.6325311529e+000
 7.7483427375e-001	 1.8148482015e+000	-1.6432463979e+000
 9.6829302403e-001	 1.7270806088e+000	-1.5475726709e+000
 9.4953275204e-001	 1.7374655290e+000	-1.5612536721e+000
 9.3069049950e-001	 1.7476310207e+000	-1.5736745923e+000
 9.1177002187e-001	 1.7575763064e+000	-1.5850150878e+000
 8.9277507843e-001	 1.7673006923e+000	-1.5955079655e+000
 8.7370942999e-001	 1.7768035678e+000	-1.6054415350e+000
 8.5457683663e-001	 1.7860844054e+000	-1.6151610518e+000
 8.3538105549e-001	 1.7951427600e+000	-1.6250692497e+000
 8.1612583862e-001	 1.8039782687e+000	-1.6356259675e+000
 7.9681493074e-001	 1.8125906500e+000	-1.6473468855e+000
 7.7745206719e-001	 1.8209797032e+000	-1.6608013944e+000
 9.7155337476e-001	 1.7328958820e+000	-1.5428078394e+000
 9.5272993484e-001	 1.7433157695e+000	-1.5582336947e+000
 9.3382423832e-001	 1.7535154895e+000	-1.5725390576e+000
 9.1484005334e-001	 1.7634942620e+000	-1.5858900426e+000
 8.9578115181e-001	 1.7732513910e+000	-1.5985097359e+000
 8.7665130720e-001	 1.7827862638e+000	-1.6106806128e+000
 8.5745429226e-001	 1.7920983510e+000	-1.6227460184e+000
 8.3819387678e-001	 1.8011872061e+000	-1.6351107073e+000
 8.1887382544e-001	 1.8100524650e+000	-1.6482404504e+000
 7.9949789558e-001	 1.8186938451e+000	-1.6626607227e+000
 7.8006983511e-001	 1.8271111452e+000	-1.6789544947e+000
 9.7481368799e-001	 1.7387110884e+000	-1.5378955398e+000
 9.5592708087e-001	 1.7491659426e+000	-1.5550871666e+000
 9.3695794112e-001	 1.7593998906e+000	-1.5713142148e+000
 9.1791004950e-001	 1.7694121497e+000	-1.5867271687e+000
 8.9878719061e-001	 1.7792020213e+000	-1.6015373206e+000
 8.7959315057e-001	 1.7887688910e+000	-1.6160192604e+000
 8.6033171479e-001	 1.7981122275e+000	-1.6305123993e+000
 8.4100666572e-001	 1.8072315827e+000	-1.6454215236e+000
 8.2162178066e-001	 1.8161265914e+000	-1.6612163861e+000
 8.0218082957e-001	 1.8247969700e+000	-1.6784303488e+000
 7.8268757292e-001	 1.8332425166e+000	-1.6976581030e+000
 9.7807395803e-001	 1.7445262177e+000	-1.5328221226e+000
 9.5912418454e-001	 1.7550160383e+000	-1.5517995366e+000
 9.4009160239e-001	 1.7652842137e+000	-1.5699840240e+000
 9.2098000499e-001	 1.7753299588e+000	-1.5875083733e+000
 9.0179318959e-001	 1.7851525728e+000	-1.6045700337e+000
 8.8253495497e-001	 1.7947514389e+000	-1.6214336837e+000
 8.6320909920e-001	 1.8041260242e+000	-1.6384328046e+000
 8.4381941740e-001	 1.8132758792e+000	-1.6559702534e+000
 8.2436969947e-001	 1.8222006373e+000	-1.6745178437e+000
 8.0486372800e-001	 1.8309000140e+000	-1.6946149494e+000
 7.8530527604e-001	 1.8393738069e+000	-1.7168661554e+000
 7.5912723369e-001	 1.7780585364e+000	-1.5533392668e+000
 7.4017081847e-001	 1.7860328549e+000	-1.5534427110e+000
 7.2117091941e-001	 1.7937888879e+000	-1.5575580075e+000
 7.0213114653e-001	 1.8013266735e+000	-1.5630561368e+000
 6.8305509263e-001	 1.8086463264e+000	-1.5673016212e+000
 6.6394633137e-001	 1.8157480358e+000	-1.5676966616e+000
 6.4480841541e-001	 1.8226320656e+000	-1.5647178059e+000
 6.2564487460e-001	 1.8292987526e+000	-1.5593966883e+000
 6.0645921420e-001	 1.8357485059e+000	-1.5515493042e+000
 5.8725491317e-001	 1.8419818054e+000	-1.5409806389e+000
 5.6803542248e-001	 1.8479992011e+000	-1.5274675114e+000
 7.6174508406e-001	 1.7841901715e+000	-1.5662181998e+000
 7.4272329764e-001	 1.7921919895e+000	-1.5682922383e+000
 7.2365787742e-001	 1.7999747691e+000	-1.5741722257e+000
 7.0455244589e-001	 1.8075385488e+000	-1.5813090551e+000
 6.8541060821e-001	 1.8148834435e+000	-1.5871456887e+000
 6.6623595039e-001	 1.8220096432e+000	-1.5891192461e+000
 6.4703203732e-001	 1.8289174125e+000	-1.5871056692e+000
 6.2780241104e-001	 1.8356070896e+000	-1.5824460859e+000
 6.0855058889e-001	 1.8420790848e+000	-1.5750399621e+000
 5.8928006182e-001	 1.8483338799e+000	-1.5647672419e+000
 5.6999429271e-001	 1.8543720266e+000	-1.5514710153e+000
 7.6436293640e-001	 1.7903218112e+000	-1.5800139341e+000
 7.4527577873e-001	 1.7983511286e+000	-1.5841777699e+000
 7.2614483730e-001	 1.8061606550e+000	-1.5919140525e+000
 7.0697374706e-001	 1.8137504288e+000	-1.6007542392e+000
 6.8776612556e-001	 1.8211205652e+000	-1.6082207759e+000
 6.6852557112e-001	 1.8282712552e+000	-1.6118278779e+000
 6.4925566090e-001	 1.8352027642e+000	-1.6108734568e+000
 6.2995994909e-001	 1.8419154313e+000	-1.6069299507e+000
 6.1064196514e-001	 1.8484096685e+000	-1.5999983766e+000
 5.9130521199e-001	 1.8546859592e+000	-1.5900358315e+000
 5.7195316441e-001	 1.8607448569e+000	-1.5769539455e+000
 7.6698078611e-001	 1.7964534448e+000	-1.5946693247e+000
 7.4782825726e-001	 1.8045102617e+000	-1.6010378484e+000
 7.2863179470e-001	 1.8123465346e+000	-1.6107203648e+000
 7.0939504581e-001	 1.8199623025e+000	-1.6213295556e+000
 6.9012164056e-001	 1.8273576808e+000	-1.6304684034e+000
 6.7081518957e-001	 1.8345328610e+000	-1.6357307663e+000
 6.5147928226e-001	 1.8414881095e+000	-1.6359635973e+000
 6.3211748499e-001	 1.8482237668e+000	-1.6328025302e+000
 6.1273333930e-001	 1.8547402459e+000	-1.6263938342e+000
 5.9333036014e-001	 1.8610380321e+000	-1.6167739476e+000
 5.7391203416e-001	 1.8671176808e+000	-1.6039252985e+000
 7.6959862863e-001	 1.8025850615e+000	-1.6101288611e+000
 7.5038072877e-001	 1.8106693777e+000	-1.6188126603e+000
 7.3111874526e-001	 1.8185323973e+000	-1.6305296524e+000
 7.1181633791e-001	 1.8261741591e+000	-1.6429744139e+000
 6.9247714907e-001	 1.8335947792e+000	-1.6538315245e+000
 6.7310480171e-001	 1.8407944495e+000	-1.6607759280e+000
 6.5370289750e-001	 1.8477734376e+000	-1.6623198293e+000
 6.3427501496e-001	 1.8545320848e+000	-1.6600189842e+000
 6.1482470772e-001	 1.8610708059e+000	-1.6541961096e+000
 5.9535550271e-001	 1.8673900875e+000	-1.6449691695e+000
 5.7587089851e-001	 1.8734904872e+000	-1.6323936365e+000
 7.7221645937e-001	 1.8087166507e+000	-1.6263386500e+000
 7.5293318880e-001	 1.8168284661e+000	-1.6374440189e+000
 7.3360568462e-001	 1.8247182321e+000	-1.6512820033e+000
 7.1423761911e-001	 1.8323859878e+000	-1.6656297531e+000
 6.9483264699e-001	 1.8398318495e+000	-1.6782545144e+000
 6.7539440356e-001	 1.8470560099e+000	-1.6869137661e+000
 6.5592650273e-001	 1.8540587374e+000	-1.6898872344e+000
 6.3643253522e-001	 1.8608403745e+000	-1.6885354190e+000
 6.1691606672e-001	 1.8674013374e+000	-1.6833755026e+000
 5.9738063617e-001	 1.8737421144e+000	-1.6746091555e+000
 5.7782975406e-001	 1.8798632649e+000	-1.6623671301e+000
 7.7483427375e-001	 1.8148482015e+000	-1.6432463979e+000
 7.5548563288e-001	 1.8229875159e+000	-1.6568753483e+000
 7.3609260845e-001	 1.8309040283e+000	-1.6729190875e+000
 7.1665888517e-001	 1.8385977777e+000	-1.6892380277e+000
 6.9718813019e-001	 1.8460688809e+000	-1.7036831583e+000
 6.7768399110e-001	 1.8533175312e+000	-1.7140959504e+000
 6.5815009407e-001	 1.8603439979e+000	-1.7186122697e+000
 6.3859004199e-001	 1.8671486248e+000	-1.7183089212e+000
 6.1900741265e-001	 1.8737318294e+000	-1.7139028742e+000
 5.9940575698e-001	 1.8800941016e+000	-1.7056816817e+000
 5.7978859736e-001	 1.8862360028e+000	-1.6938536010e+000
 7.7745206719e-001	 1.8209797032e+000	-1.6608013944e+000
 7.5803805654e-001	 1.8291465165e+000	-1.6770516663e+000
 7.3857951238e-001	 1.8370897750e+000	-1.6953841421e+000
 7.1908013187e-001	 1.8448095179e+000	-1.7137431940e+000
 6.9954359454e-001	 1.8523058623e+000	-1.7300646402e+000
 6.7997356032e-001	 1.8595790024e+000	-1.7422754080e+000
 6.6037366762e-001	 1.8666292081e+000	-1.7484428008e+000
 6.4074753150e-001	 1.8734568246e+000	-1.7492975927e+000
 6.2109874185e-001	 1.8800622707e+000	-1.7457496827e+000
 6.0143086158e-001	 1.8864460379e+000	-1.7381746809e+000
 5.8174742499e-001	 1.8926086897e+000	-1.7268605635e+000
 7.8006983511e-001	 1.8271111452e+000	-1.6789544947e+000
 7.6059045531e-001	 1.8353054571e+000	-1.6979195683e+000
 7.4106639206e-001	 1.8432754614e+000	-1.7186219557e+000
 7.2150135496e-001	 1.8510211975e+000	-1.7390906965e+000
 7.0189903593e-001	 1.8585427830e+000	-1.7573475316e+000
 6.8226310721e-001	 1.8658404125e+000	-1.7714063155e+000
 6.6259721949e-001	 1.8729143571e+000	-1.7793281345e+000
 6.4290499998e-001	 1.8797649629e+000	-1.7814605834e+000
 6.2319005065e-001	 1.8863926502e+000	-1.7788880197e+000
 6.0345594644e-001	 1.8927979124e+000	-1.7720762806e+000
 5.8370623352e-001	 1.8989813144e+000	-1.7613952665e+000
 7.8268757292e-001	 1.8332425166e+000	-1.6976581030e+000
 7.6314282474e-001	 1.8414643268e+000	-1.7194272103e+000
 7.4355324314e-001	 1.8494610766e+000	-1.7425788529e+000
 7.2392255020e-001	 1.8572328057e+000	-1.7652274541e+000
 7.0425445023e-001	 1.8647796319e+000	-1.7854817796e+000
 6.8455262778e-001	 1.8721017506e+000	-1.8014440898e+000
 6.6482074578e-001	 1.8791994338e+000	-1.8112190507e+000
 6.4506244364e-001	 1.8860730287e+000	-1.8147581259e+000
 6.2528133541e-001	 1.8927229570e+000	-1.8132906450e+000
 6.0548100801e-001	 1.8991497138e+000	-1.8073748413e+000
 5.8566501952e-001	 1.9053538659e+000	-1.7974647343e+000
 7.8530527604e-001	 1.8393738069e+000	-1.7168661554e+000
 7.6569516034e-001	 1.8476231149e+000	-1.7415242934e+000
 7.4604006127e-001	 1.8556466099e+000	-1.7672026795e+000
 7.2634371337e-001	 1.8634443316e+000	-1.7921018467e+000
 7.0660983332e-001	 1.8710163982e+000	-1.8144186959e+000
 6.8684211801e-001	 1.8783630058e+000	-1.8323453796e+000
 6.6704424262e-001	 1.8854844272e+000	-1.8440675268e+000
 6.4721985872e-001	 1.8923810108e+000	-1.8491515687e+000
 6.2737259245e-001	 1.8990531799e+000	-1.8489310227e+000
 6.0750604275e-001	 1.9055014310e+000	-1.8440589942e+000
 5.8762377956e-001	 1.9117263330e+000	-1.8350758079e+000
 5.6803542248e-001	 1.8479992011e+000	-1.5274675114e+000
 5.4880416318e-001	 1.8538013113e+000	-1.5118440775e+000
 5.2956452411e-001	 1.8593888196e+000	-1.4953994698e+000
 5.1031986113e-001	 1.8647624757e+000	-1.4785022323e+000
 4.9107349602e-001	 1.8699230941e+000	-1.4614350112e+000
 4.7182871500e-001	 1.8748715528e+000	-1.4443908082e+000
 4.5258876740e-001	 1.8796087921e+000	-1.4274717255e+000
 4.3335686430e-001	 1.8841358131e+000	-1.4106900338e+000
 4.1413617730e-001	 1.8884536763e+000	-1.3939713781e+000
 3.9492983731e-001	 1.8925635002e+000	-1.3771599330e+000
 3.7574093339e-001	 1.8964664596e+000	-1.3600253047e+000
 5.6999429271e-001	 1.8543720266e+000	-1.5514710153e+000
 5.5069671442e-001	 1.8601941453e+000	-1.5360053128e+000
 5.3139072744e-001	 1.8658009222e+000	-1.5196469264e+000
 5.1207969924e-001	 1.8711931094e+000	-1.5027696867e+000
 4.9276696304e-001	 1.8763715241e+000	-1.4856535820e+000
 4.7345581639e-001	 1.8813370476e+000	-1.4684812717e+000
 4.5414951983e-001	 1.8860906233e+000	-1.4513371576e+000
 4.3485129551e-001	 1.8906332557e+000	-1.4342088374e+000
 4.1556432597e-001	 1.8949660091e+000	-1.4169907510e+000
 3.9629175291e-001	 1.8990900057e+000	-1.3994898238e+000
 3.7703667605e-001	 1.9030064244e+000	-1.3814329019e+000
 5.7195316441e-001	 1.8607448569e+000	-1.5769539455e+000
 5.5258926707e-001	 1.8665869842e+000	-1.5616276950e+000
 5.3321693215e-001	 1.8722130296e+000	-1.5453242559e+000
 5.1383953867e-001	 1.8776237479e+000	-1.5284266560e+000
 4.9446043133e-001	 1.8828199590e+000	-1.5112149595e+000
 4.7508291900e-001	 1.8878025472e+000	-1.4938630637e+000
 4.5571027342e-001	 1.8925724593e+000	-1.4764381222e+000
 4.3634572783e-001	 1.8971307032e+000	-1.4589024099e+000
 4.1699247570e-001	 1.9014783467e+000	-1.4411174405e+000
 3.9765366953e-001	 1.9056165160e+000	-1.4228501291e+000
 3.7833241968e-001	 1.9095463942e+000	-1.4037807939e+000
 5.7391203416e-001	 1.8671176808e+000	-1.6039252985e+000
 5.5448181783e-001	 1.8729798167e+000	-1.5887399605e+000
 5.3504313503e-001	 1.8786251306e+000	-1.5724732908e+000
 5.1559937635e-001	 1.8840543799e+000	-1.5555213963e+000
 4.9615389792e-001	 1.8892683875e+000	-1.5381671250e+000
 4.7671001998e-001	 1.8942680404e+000	-1.5205771691e+000
 4.5727102546e-001	 1.8990542888e+000	-1.5028018636e+000
 4.3784015867e-001	 1.9036281442e+000	-1.4847774923e+000
 4.1842062401e-001	 1.9079906778e+000	-1.4663309039e+000
 3.9901558479e-001	 1.9121430199e+000	-1.4471862278e+000
 3.7962816202e-001	 1.9160863574e+000	-1.4269734745e+000
 5.7587089851e-001	 1.8734904872e+000	-1.6323936365e+000
 5.5637436339e-001	 1.8793726316e+000	-1.6173699801e+000
 5.3686933288e-001	 1.8850372140e+000	-1.6011346750e+000
 5.1735920918e-001	 1.8904849943e+000	-1.5841007619e+000
 4.9784735986e-001	 1.8957167982e+000	-1.5665565549e+000
 4.7833711649e-001	 1.9007335158e+000	-1.5486630737e+000
 4.5883177321e-001	 1.9055361006e+000	-1.5304542431e+000
 4.3933458539e-001	 1.9101255673e+000	-1.5118396671e+000
 4.1984876839e-001	 1.9145029911e+000	-1.4926097738e+000
 4.0037749630e-001	 1.9186695058e+000	-1.4724431155e+000
 3.8092390079e-001	 1.9226263026e+000	-1.4509156030e+000
 5.7782975406e-001	 1.8798632649e+000	-1.6623671301e+000
 5.5826690043e-001	 1.8857654177e+000	-1.6475448041e+000
 5.3869552252e-001	 1.8914492685e+000	-1.6313479112e+000
 5.1911903409e-001	 1.8969155797e+000	-1.6142102528e+000
 4.9954081418e-001	 1.9021651798e+000	-1.5964282659e+000
 4.7996420568e-001	 1.9071989622e+000	-1.5781588066e+000
 4.6039251393e-001	 1.9120178831e+000	-1.5594197759e+000
 4.4082900539e-001	 1.9166229612e+000	-1.5400933890e+000
 4.2127690635e-001	 1.9210152750e+000	-1.5199318798e+000
 4.0173940169e-001	 1.9251959623e+000	-1.4985654172e+000
 3.8221963373e-001	 1.9291662184e+000	-1.4755120061e+000
 5.7978859736e-001	 1.8862360028e+000	-1.6938536010e+000
 5.6015942564e-001	 1.8921581639e+000	-1.6792907080e+000
 5.4052170075e-001	 1.8978612829e+000	-1.6631514074e+000
 5.2087884801e-001	 1.9033461249e+000	-1.6458940610e+000
 5.0123425792e-001	 1.9086135212e+000	-1.6278258599e+000
 4.8159128470e-001	 1.9136643681e+000	-1.6091009816e+000
 4.6195324490e-001	 1.9184996252e+000	-1.5897216672e+000
 4.4232341605e-001	 1.9231203144e+000	-1.5695420146e+000
 4.2270503537e-001	 1.9275275182e+000	-1.5482742713e+000
 4.0310129856e-001	 1.9317223781e+000	-1.5254973997e+000
 3.8351535858e-001	 1.9357060934e+000	-1.5006676788e+000
 5.8174742499e-001	 1.8926086897e+000	-1.7268605635e+000
 5.6205193571e-001	 1.8985508589e+000	-1.7126332376e+000
 5.4234786436e-001	 1.9042732461e+000	-1.6965825234e+000
 5.2263864784e-001	 1.9097766187e+000	-1.6791951166e+000
 5.0292768810e-001	 1.9150618110e+000	-1.6607915681e+000
 4.8321835070e-001	 1.9201297223e+000	-1.6415248380e+000
 4.6351396338e-001	 1.9249813154e+000	-1.6213818493e+000
 4.4381781475e-001	 1.9296176157e+000	-1.6001878330e+000
 4.2413315298e-001	 1.9340397093e+000	-1.5776132393e+000
 4.0446318454e-001	 1.9382487417e+000	-1.5531829843e+000
 3.8481107306e-001	 1.9422459160e+000	-1.5262877865e+000
 5.8370623352e-001	 1.8989813144e+000	-1.7613952665e+000
 5.6394442733e-001	 1.9049434917e+000	-1.7475972524e+000
 5.4417401017e-001	 1.9106851467e+000	-1.7316776160e+000
 5.2439843052e-001	 1.9162070498e+000	-1.7141551330e+000
 5.0462110178e-001	 1.9215100380e+000	-1.6953662948e+000
 4.8484540083e-001	 1.9265950134e+000	-1.6754642811e+000
 4.6507466664e-001	 1.9314629424e+000	-1.6544210165e+000
 4.4531219888e-001	 1.9361148537e+000	-1.6320320942e+000
 4.2556125666e-001	 1.9405518370e+000	-1.6079243378e+000
 4.0582505724e-001	 1.9447750416e+000	-1.5815657591e+000
 3.8610677490e-001	 1.9487856748e+000	-1.5522776664e+000
 5.8566501952e-001	 1.9053538659e+000	-1.7974647343e+000
 5.6583689718e-001	 1.9113360509e+000	-1.7842069707e+000
 5.4600013498e-001	 1.9170969736e+000	-1.7684720843e+000
 5.2615819296e-001	 1.9226374070e+000	-1.7508146519e+000
 5.0631449598e-001	 1.9279581908e+000	-1.7315896603e+000
 4.8647243226e-001	 1.9330602302e+000	-1.7109519222e+000
 4.6663535196e-001	 1.9379444949e+000	-1.6888586605e+000
 4.4680656583e-001	 1.9426120169e+000	-1.6650750393e+000
 4.2698934391e-001	 1.9470638897e+000	-1.6391824053e+000
 4.0718691427e-001	 1.9513012664e+000	-1.6105889915e+000
 3.8740246185e-001	 1.9553253585e+000	-1.5785428294e+000
 5.8762377956e-001	 1.9117263330e+000	-1.8350758079e+000
 5.6772934196e-001	 1.9177285254e+000	-1.8224860118e+000
 5.4782623559e-001	 1.9235087156e+000	-1.8070004145e+000
 5.2791793208e-001	 1.9290676790e+000	-1.7892130875e+000
 5.0800786774e-001	 1.9344062581e+000	-1.7695000436e+000
 4.8809944212e-001	 1.9395253614e+000	-1.7480191179e+000
 4.6819601659e-001	 1.9444259615e+000	-1.7247131055e+000
 4.4830091298e-001	 1.9491090941e+000	-1.6993159284e+000
 4.2841741224e-001	 1.9535758562e+000	-1.6713615866e+000
 4.0854875327e-001	 1.9578274048e+000	-1.6401956407e+000
 3.8869813162e-001	 1.9618649555e+000	-1.6049889621e+000
 3.7574093339e-001	 1.8964664596e+000	-1.3600253047e+000
 3.5657538433e-001	 1.9001632456e+000	-1.3407610723e+000
 3.3743330770e-001	 1.9036557430e+000	-1.3182234205e+000
 3.1831765506e-001	 1.9069452883e+000	-1.2930908640e+000
 2.9923133216e-001	 1.9100332680e+000	-1.2659946343e+000
 2.8017719813e-001	 1.9129211175e+000	-1.2375299054e+000
 2.6115806461e-001	 1.9156103194e+000	-1.2082675866e+000
 2.4217669503e-001	 1.9181024018e+000	-1.1787664850e+000
 2.2323580385e-001	 1.9203989372e+000	-1.1495856472e+000
 2.0433805594e-001	 1.9225015401e+000	-1.1212966988e+000
 1.8548606597e-001	 1.9244118663e+000	-1.0944960052e+000
 3.7703667605e-001	 1.9030064244e+000	-1.3814329019e+000
 3.5780503459e-001	 1.9067159588e+000	-1.3609869372e+000
 3.3859694651e-001	 1.9102205001e+000	-1.3370434914e+000
 3.1941537353e-001	 1.9135213894e+000	-1.3103249484e+000
 3.0026323145e-001	 1.9166200180e+000	-1.2815027272e+000
 2.8114338923e-001	 1.9195178263e+000	-1.2512090143e+000
 2.6205866823e-001	 1.9222163018e+000	-1.2200490773e+000
 2.4301184140e-001	 1.9247169782e+000	-1.1886139581e+000
 2.2400563255e-001	 1.9270214332e+000	-1.1574933499e+000
 2.0504271576e-001	 1.9291312870e+000	-1.1272884703e+000
 1.8612571470e-001	 1.9310482009e+000	-1.0986247526e+000
 3.7833241968e-001	 1.9095463942e+000	-1.4037807939e+000
 3.5903468578e-001	 1.9132686769e+000	-1.3820546570e+000
 3.3976058619e-001	 1.9167852621e+000	-1.3566045143e+000
 3.2051309283e-001	 1.9200974954e+000	-1.3281947651e+000
 3.0129513151e-001	 1.9232067730e+000	-1.2975366921e+000
 2.8210958107e-001	 1.9261145399e+000	-1.2653006732e+000
 2.6295927253e-001	 1.9288222892e+000	-1.2321289898e+000
 2.4384698839e-001	 1.9313315596e+000	-1.1986490208e+000
 2.2477546183e-001	 1.9336439341e+000	-1.1654866246e+000
 2.0574737610e-001	 1.9357610387e+000	-1.1332795155e+000
 1.8676536390e-001	 1.9376845405e+000	-1.1026904512e+000
 3.7962816202e-001	 1.9160863574e+000	-1.4269734745e+000
 3.6026433573e-001	 1.9198213885e+000	-1.4038315334e+000
 3.4092422471e-001	 1.9233500176e+000	-1.3767507243e+000
 3.2161081104e-001	 1.9266735949e+000	-1.3465355049e+000
 3.0232703055e-001	 1.9297935213e+000	-1.3139365810e+000
 2.8307577193e-001	 1.9327112470e+000	-1.2796635735e+000
 2.6385987593e-001	 1.9354282700e+000	-1.2443982922e+000
 2.4468213455e-001	 1.9379461343e+000	-1.2088084040e+000
 2.2554529034e-001	 1.9402664285e+000	-1.1735612894e+000
 2.0645203574e-001	 1.9423907839e+000	-1.1393378911e+000
 1.8740501246e-001	 1.9443208734e+000	-1.1068463666e+000
 3.8092390079e-001	 1.9226263026e+000	-1.4509156030e+000
 3.6149398230e-001	 1.9263740820e+000	-1.4261855470e+000
 3.4208786003e-001	 1.9299147550e+000	-1.3973273690e+000
 3.2270852622e-001	 1.9332496762e+000	-1.3651835254e+000
 3.0335892674e-001	 1.9363802515e+000	-1.3305435895e+000
 2.8404196014e-001	 1.9393079360e+000	-1.2941573483e+000
 2.6476047685e-001	 1.9420342327e+000	-1.2567485161e+000
 2.4551727841e-001	 1.9445606909e+000	-1.2190288477e+000
 2.2631511673e-001	 1.9468889046e+000	-1.1817124415e+000
 2.0715669343e-001	 1.9490205108e+000	-1.1455300298e+000
 1.8804465927e-001	 1.9509571881e+000	-1.1112430641e+000
 3.8221963373e-001	 1.9291662184e+000	-1.4755120061e+000
 3.6272362334e-001	 1.9329267461e+000	-1.4489853477e+000
 3.4325149011e-001	 1.9364794628e+000	-1.4181806916e+000
 3.2380623647e-001	 1.9398257280e+000	-1.3839763306e+000
 3.0439081829e-001	 1.9429669521e+000	-1.3472000349e+000
 2.8500814400e-001	 1.9459045952e+000	-1.3086425538e+000
 2.6566107372e-001	 1.9486401656e+000	-1.2690717430e+000
 2.4635241851e-001	 1.9511752177e+000	-1.2292470960e+000
 2.2708493965e-001	 1.9535113509e+000	-1.1899344648e+000
 2.0786134796e-001	 1.9556502079e+000	-1.1519207623e+000
 1.8868430319e-001	 1.9575934729e+000	-1.1160284495e+000
 3.8351535858e-001	 1.9357060934e+000	-1.5006676788e+000
 3.6395325670e-001	 1.9394793692e+000	-1.4721002459e+000
 3.4441511292e-001	 1.9430441297e+000	-1.4391579151e+000
 3.2490393985e-001	 1.9464017387e+000	-1.4027525510e+000
 3.0542270339e-001	 1.9495536115e+000	-1.3637493358e+000
 2.8597432182e-001	 1.9525012133e+000	-1.3229806507e+000
 2.6656166495e-001	 1.9552460572e+000	-1.2812605918e+000
 2.4718755339e-001	 1.9577897031e+000	-1.2393998934e+000
 2.2785475776e-001	 1.9601337559e+000	-1.1982210377e+000
 2.0856599809e-001	 1.9622798636e+000	-1.1585733402e+000
 1.8932394312e-001	 1.9642297162e+000	-1.1213478086e+000
 3.8481107306e-001	 1.9422459160e+000	-1.5262877865e+000
 3.6518288022e-001	 1.9460319399e+000	-1.4954002042e+000
 3.4557872642e-001	 1.9496087440e+000	-1.4601072266e+000
 3.2600163445e-001	 1.9529776968e+000	-1.4213519243e+000
 3.0645458024e-001	 1.9561402183e+000	-1.3800359919e+000
 2.8694049191e-001	 1.9590977785e+000	-1.3370339863e+000
 2.6746224898e-001	 1.9618518960e+000	-1.2932082063e+000
 2.4802268159e-001	 1.9644041357e+000	-1.2494239805e+000
 2.2862456972e-001	 1.9667561078e+000	-1.2065651400e+000
 2.0927064257e-001	 1.9689094662e+000	-1.1655494572e+000
 1.8996357793e-001	 1.9708659065e+000	-1.1273438469e+000
 3.8610677490e-001	 1.9487856748e+000	-1.5522776664e+000
 3.6641249174e-001	 1.9525844467e+000	-1.5187558289e+000
 3.4674232857e-001	 1.9561732943e+000	-1.4808777626e+000
 3.2709931835e-001	 1.9595535907e+000	-1.4396152764e+000
 3.0748644702e-001	 1.9627267608e+000	-1.3959055644e+000
 2.8790665258e-001	 1.9656942795e+000	-1.3506657778e+000
 2.6836282423e-001	 1.9684576703e+000	-1.3048082430e+000
 2.4885780165e-001	 1.9710185037e+000	-1.2592560903e+000
 2.2939437417e-001	 1.9733783952e+000	-1.2149590605e+000
 2.0997528018e-001	 1.9755390042e+000	-1.1729092708e+000
 1.9060320650e-001	 1.9775020320e+000	-1.1341567277e+000
 3.8740246185e-001	 1.9553253585e+000	-1.5785428294e+000
 3.6764208913e-001	 1.9591368782e+000	-1.5420383623e+000
 3.4790591734e-001	 1.9627377691e+000	-1.5013195939e+000
 3.2819698962e-001	 1.9661294090e+000	-1.4573845030e+000
 3.0851830194e-001	 1.9693132275e+000	-1.4112046569e+000
 2.8887280213e-001	 1.9722907046e+000	-1.3637400944e+000
 2.6926338913e-001	 1.9750633687e+000	-1.3159548596e+000
 2.4969291210e-001	 1.9776327957e+000	-1.2688329444e+000
 2.3016416976e-001	 1.9800006065e+000	-1.2233944045e+000
 2.1067990969e-001	 1.9821684660e+000	-1.1807114236e+000
 1.9124282771e-001	 1.9841380813e+000	-1.1419241099e+000
 3.8869813162e-001	 1.9618649555e+000	-1.6049889621e+000
 3.6887167023e-001	 1.9656892228e+000	-1.5651196750e+000
 3.4906949069e-001	 1.9693021570e+000	-1.5212837118e+000
 3.2929464635e-001	 1.9727051402e+000	-1.4745025517e+000
 3.0955014318e-001	 1.9758996070e+000	-1.4257808964e+000
 2.8983893889e-001	 1.9788870423e+000	-1.3761218415e+000
 2.7016394209e-001	 1.9816689796e+000	-1.3265427029e+000
 2.5052801148e-001	 1.9842470000e+000	-1.2780912492e+000
 2.3093395515e-001	 1.9866227300e+000	-1.2318621004e+000
 2.1138452987e-001	 1.9887978399e+000	-1.1890130636e+000
 1.9188244045e-001	 1.9907740426e+000	-1.1507811853e+000
 1.8548606597e-001	 1.9244118663e+000	-1.0944960052e+000
 1.6667958732e-001	 1.9261318546e+000	-1.0711578282e+000
 1.4792399767e-001	 1.9276629376e+000	-1.0521380479e+000
 1.2922179687e-001	 1.9290068855e+000	-1.0364709408e+000
 1.1057543148e-001	 1.9301655027e+000	-1.0233342743e+000
 9.1987294436e-002	 1.9311406269e+000	-1.0120587654e+000
 7.3459724731e-002	 1.9319341269e+000	-1.0021364161e+000
 5.4995007207e-002	 1.9325479018e+000	-9.9322763829e-001
 3.6595372353e-002	 1.9329838784e+000	-9.8516709018e-001
 1.8262996154e-002	 1.9332440107e+000	-9.7796816368e-001
 0.0000000000e+000	 1.9333302777e+000	-9.7182606733e-001
 1.8612571470e-001	 1.9310482009e+000	-1.0986247526e+000
 1.6725438190e-001	 1.9327741205e+000	-1.0737018094e+000
 1.4843411359e-001	 1.9343104835e+000	-1.0534812086e+000
 1.2966741825e-001	 1.9356590660e+000	-1.0368480731e+000
 1.1095675087e-001	 1.9368216787e+000	-1.0228344861e+000
 9.2304512633e-002	 1.9378001656e+000	-1.0106296333e+000
 7.3713050601e-002	 1.9385964020e+000	-9.9958878304e-001
 5.5184657496e-002	 1.9392122935e+000	-9.8924101530e-001
 3.6721571498e-002	 1.9396497736e+000	-9.7929561905e-001
 1.8325976098e-002	 1.9399108030e+000	-9.6964709561e-001
 0.0000000000e+000	 1.9399973675e+000	-9.6037871040e-001
 1.8676536390e-001	 1.9376845405e+000	-1.1026904512e+000
 1.6782917691e-001	 1.9394163915e+000	-1.0761340395e+000
 1.4894422990e-001	 1.9409580344e+000	-1.0546598373e+000
 1.3011303997e-001	 1.9423112515e+000	-1.0369987569e+000
 1.1133807055e-001	 1.9434778597e+000	-1.0220278911e+000
 9.2621731067e-002	 1.9444597093e+000	-1.0087814783e+000
 7.3966376660e-002	 1.9452586821e+000	-9.9646067096e-001
 5.5374307927e-002	 1.9458766902e+000	-9.8444201306e-001
 3.6847770738e-002	 1.9463156738e+000	-9.7228454523e-001
 1.8388956089e-002	 1.9465776002e+000	-9.5973547107e-001
 0.0000000000e+000	 1.9466644622e+000	-9.4673432594e-001
 1.8740501246e-001	 1.9443208734e+000	-1.1068463666e+000
 1.6840397134e-001	 1.9460586558e+000	-1.0786794506e+000
 1.4945434570e-001	 1.9476055787e+000	-1.0559306432e+000
 1.3055866124e-001	 1.9489634303e+000	-1.0371717131e+000
 1.1171938984e-001	 1.9501340340e+000	-1.0211156074e+000
 9.2938949183e-002	 1.9511192463e+000	-1.0066283805e+000
 7.4219702465e-002	 1.9519209556e+000	-9.9273989263e-001
 5.5563958167e-002	 1.9525410802e+000	-9.7865318112e-001
 3.6973969852e-002	 1.9529815673e+000	-9.6375241795e-001
 1.8451936017e-002	 1.9532443908e+000	-9.4760938627e-001
 0.0000000000e+000	 1.9533315502e+000	-9.2998841369e-001
 1.8804465927e-001	 1.9509571881e+000	-1.1112430641e+000
 1.6897876420e-001	 1.9527009018e+000	-1.0815593852e+000
 1.4996446009e-001	 1.9542531046e+000	-1.0575464010e+000
 1.3100428129e-001	 1.9556155909e+000	-1.0376119237e+000
 1.1210070809e-001	 1.9567901900e+000	-1.0202957474e+000
 9.3256166427e-002	 1.9577787651e+000	-1.0042826805e+000
 7.4473027574e-002	 1.9585832107e+000	-9.8841431755e-001
 5.5753607886e-002	 1.9592054519e+000	-9.7169944614e-001
 3.7100168618e-002	 1.9596474424e+000	-9.5332300328e-001
 1.8514915772e-002	 1.9599111630e+000	-9.3265350793e-001
 0.0000000000e+000	 1.9599986200e+000	-9.0924890580e-001
 1.8868430319e-001	 1.9575934729e+000	-1.1160284495e+000
 1.6955355446e-001	 1.9593431180e+000	-1.0849916520e+000
 1.5047457219e-001	 1.9609006007e+000	-1.0597560125e+000
 1.3144989933e-001	 1.9622677215e+000	-1.0385606904e+000
 1.1248202462e-001	 1.9634463161e+000	-1.0197634638e+000
 9.3573382243e-002	 1.9644382538e+000	-1.0018550054e+000
 7.4726351542e-002	 1.9652454358e+000	-9.8347186726e-001
 5.5943256752e-002	 1.9658697937e+000	-9.6340806818e-001
 3.7226366817e-002	 1.9663132876e+000	-9.4062519272e-001
 1.8577895244e-002	 1.9665779053e+000	-9.1426092555e-001
 0.0000000000e+000	 1.9666656597e+000	-8.8363595405e-001
 1.8932394312e-001	 1.9642297162e+000	-1.1213478086e+000
 1.7012834114e-001	 1.9659852926e+000	-1.0891905806e+000
 1.5098468110e-001	 1.9675480552e+000	-1.0628045667e+000
 1.3189551458e-001	 1.9689198105e+000	-1.0402556916e+000
 1.1286333876e-001	 1.9701024006e+000	-1.0197109957e+000
 9.3890596076e-002	 1.9710977010e+000	-9.9945429308e-001
 7.4979673928e-002	 1.9719076193e+000	-9.7790051055e-001
 5.6132904432e-002	 1.9725340937e+000	-9.5360859790e-001
 3.7352564227e-002	 1.9729790911e+000	-9.2529291368e-001
 1.8640874322e-002	 1.9732446058e+000	-8.9183300650e-001
 0.0000000000e+000	 1.9733326578e+000	-8.5228172120e-001
 1.8996357793e-001	 1.9708659065e+000	-1.1273438469e+000
 1.7070312321e-001	 1.9726274141e+000	-1.0943670751e+000
 1.5149478593e-001	 1.9741954565e+000	-1.0669333996e+000
 1.3234112627e-001	 1.9755718464e+000	-1.0429310392e+000
 1.1324464986e-001	 1.9767584319e+000	-1.0203277128e+000
 9.4207807372e-002	 1.9777570949e+000	-9.9718781673e-001
 7.5232994288e-002	 1.9785697495e+000	-9.7168825897e-001
 5.6322550596e-002	 1.9791983405e+000	-9.4213283458e-001
 3.7478760628e-002	 1.9796448413e+000	-9.0696504164e-001
 1.8703852897e-002	 1.9799112531e+000	-8.6477925405e-001
 0.0000000000e+000	 1.9799996025e+000	-8.1433017654e-001
 1.9060320650e-001	 1.9775020320e+000	-1.1341567277e+000
 1.7127789968e-001	 1.9792694709e+000	-1.1007286667e+000
 1.5200488578e-001	 1.9808427930e+000	-1.0723801519e+000
 1.3278673361e-001	 1.9822238173e+000	-1.0468173337e+000
 1.1362595723e-001	 1.9834143982e+000	-1.0218001594e+000
 9.4525015576e-002	 1.9844164238e+000	-9.9516120862e-001
 7.5486312178e-002	 1.9852318148e+000	-9.6482316230e-001
 5.6512194912e-002	 1.9858625223e+000	-9.2881478500e-001
 3.7604955799e-002	 1.9863105265e+000	-8.8528531411e-001
 1.8766830858e-002	 1.9865778353e+000	-8.3251716815e-001
 0.0000000000e+000	 1.9866664822e+000	-7.6893689537e-001
 1.9124282771e-001	 1.9841380813e+000	-1.1419241099e+000
 1.7185266954e-001	 1.9859114512e+000	-1.1084795653e+000
 1.5251497977e-001	 1.9874900531e+000	-1.0793788265e+000
 1.3323233584e-001	 1.9888757118e+000	-1.0521417182e+000
 1.1400726022e-001	 1.9900702880e+000	-1.0243120972e+000
 9.4842220133e-002	 1.9910756762e+000	-9.9347848348e-001
 7.5739627156e-002	 1.9918938034e+000	-9.5729330416e-001
 5.6701837047e-002	 1.9925266274e+000	-9.1349062307e-001
 3.7731149520e-002	 1.9929761351e+000	-8.5990224617e-001
 1.8829808095e-002	 1.9932443409e+000	-7.9447210891e-001
 0.0000000000e+000	 1.9933332853e+000	-7.1526886244e-001
 1.9188244045e-001	 1.9907740426e+000	-1.1507811853e+000
 1.7242743179e-001	 1.9925533436e+000	-1.1178207103e+000
 1.5302506700e-001	 1.9941372251e+000	-1.0881598445e+000
 1.3367793215e-001	 1.9955275182e+000	-1.0591279316e+000
 1.1438855817e-001	 1.9967260896e+000	-1.0280445471e+000
 9.5159420487e-002	 1.9977348403e+000	-9.9224206141e-001
 7.5992938778e-002	 1.9985557038e+000	-9.4908679770e-001
 5.6891476671e-002	 1.9991906443e+000	-8.9599865027e-001
 3.7857341570e-002	 1.9996416553e+000	-8.3046904779e-001
 1.8892784498e-002	 1.9999107581e+000	-7.5007716280e-001
 0.0000000000e+000	 2.0000000000e+000	-6.5250427921e-001
